# vtk DataFile Version 2.0
Wound Healing Simulation
ASCII
DATASET UNSTRUCTURED_GRID
POINTS 3012 float
69.9759 18.75 4
67.2507 60.3285 4
69.976 18.75 2
73.0099 25.446 4
71.1327 20.9142 4
68.6801 16.6661 4
67.8255 19.9261 3.98262
67.2507 60.3286 2
71.1327 54.0858 4
68.6801 58.3339 4
65.6939 62.2254 4
65.312 59.0012 3.98177
74.6784 42.3946 4
73.7221 47.2057 4
69.9759 18.75 0
73.0099 25.446 2
68.6801 16.6661 2
71.1327 20.9142 2
67.826 19.929 2
74.6792 32.6053 4
73.7222 27.7943 4
72.1454 23.1494 4
70.6142 26.2209 3.98224
68.8857 21.958 3.98306
67.2507 14.6715 4
66.6368 17.9721 3.9815
65.7964 21.0256 3.9733
67.2507 60.3285 0
71.1327 54.0858 2
68.6801 58.3339 2
65.694 62.2255 2
65.3132 58.9977 2
72.1454 51.8506 4
69.9759 56.25 4
68.8364 53.113 3.98211
64.0165 64.0165 4
66.6106 57.1336 3.98205
63.8857 60.7661 3.98384
63.4992 57.7699 3.9734
60.3285 67.2507 4
74.6792 42.3947 2
73.7222 47.2057 2
74.9194 39.9526 4
74.2788 44.8158 4
72.1682 42.0855 3.98125
73.0099 49.554 4
71.2493 46.598 3.98119
73.0099 25.446 0
71.1327 20.9142 0
68.6801 16.6661 0
67.8255 19.9261 0.0173784
74.6792 32.6053 2
73.7222 27.7943 2
67.2508 14.6715 2
72.1455 23.1494 2
70.6142 26.2213 2
66.6376 17.9757 2
68.886 21.9599 2
65.7958 21.0262 2
74.9197 35.0474 4
74.2794 30.1841 4
72.1849 32.9432 3.98167
71.2782 28.4313 3.98162
69.8156 24.0595 3.98284
68.3463 26.9514 3.97175
66.7619 22.9334 3.97252
65.694 12.7746 4
65.3234 16.1037 3.982
64.7124 19.1964 3.97334
63.8843 22.0375 3.96898
71.1327 54.0858 0
65.6939 62.2254 0
68.6801 58.3339 0
65.312 59.0012 0.0182349
72.1455 51.8506 2
69.9759 56.25 2
68.8366 53.1111 2
64.0165 64.0165 2
66.6114 57.1302 2
63.8872 60.7633 2
63.4987 57.7699 2
62.2254 65.694 4
58.8947 65.4143 3.99108
69.7689 50.9889 3.98196
67.7836 55.1672 3.98207
66.6487 52.2087 3.97158
62.3362 62.4276 3.98692
64.6598 56.0305 3.97341
62.202 59.4025 3.97479
61.8192 56.6764 3.96871
58.3339 68.6801 4
60.3285 67.2508 2
73.7221 47.2057 0
74.6784 42.3946 0
74.9197 39.9526 2
74.2794 44.8159 2
72.1678 42.0856 2
73.0099 49.554 2
71.2492 46.5978 2
75 37.5 4
72.4054 39.8022 3.98159
71.7825 44.3528 3.98132
69.8035 41.7893 3.97108
70.5751 48.8135 3.98154
68.9116 46.0143 3.9708
74.6792 32.6053 0
73.7222 27.7943 0
67.2507 14.6715 0
72.1454 23.1494 0
70.6142 26.2209 0.0177617
68.8857 21.958 0.0169389
66.6368 17.9721 0.0185
65.7964 21.0256 0.0267038
74.9197 35.0474 2
74.2794 30.1841 2
72.1845 32.9435 2
71.2781 28.4316 2
65.694 12.7745 2
65.3247 16.107 2
69.8157 24.0606 2
68.3463 26.9517 2
64.7118 19.1968 2
66.7615 22.9339 2
63.8837 22.0375 2
72.4133 35.2241 3.98169
71.8039 30.6762 3.9817
69.8395 33.2682 3.97157
68.9655 29.0381 3.97147
67.6108 24.912 3.97207
66.1925 27.6354 3.9684
64.0165 10.9835 4
64.7541 23.8314 3.96881
63.8902 14.3271 3.98491
63.5117 17.4494 3.97366
62.9029 20.3241 3.96878
62.0853 22.9483 3.96748
60.684 11.0979 3.98784
57.6121 11.4493 3.98015
72.1454 51.8506 0
69.9759 56.25 0
68.8364 53.113 0.017889
64.0165 64.0165 0
63.8857 60.7661 0.016158
66.6106 57.1336 0.0179492
63.4992 57.7699 0.0266034
62.2255 65.694 2
58.8957 65.4138 2
69.7689 50.9879 2
67.7841 55.1643 2
66.6483 52.2081 2
62.3378 62.4258 2
64.6593 56.0303 2
62.2016 59.4032 2
61.8186 56.6768 2
60.6689 63.9771 3.98906
57.0257 66.7348 3.99185
57.558 63.6913 3.98285
67.5068 50.1763 3.97097
65.701 54.1726 3.97221
64.535 51.3832 3.96771
60.7727 60.9366 3.97829
62.8167 55.0641 3.96888
60.655 58.154 3.96873
60.3212 55.7761 3.9698
56.25 69.9759 4
58.3339 68.6801 2
60.3285 67.2507 0
58.9213 9.65611 3.98899
62.2254 9.30607 4
73.0099 49.554 0
74.2788 44.8158 0
71.2493 46.598 0.0188072
72.1682 42.0855 0.0187547
74.9194 39.9526 0
75 37.5 2
72.4054 39.8023 2
71.7824 44.3526 2
69.8031 41.789 2
70.5751 48.8132 2
68.9116 46.0139 2
72.4888 37.512 3.98137
70.0407 39.657 3.97111
69.4297 43.9071 3.97092
67.5956 41.4966 3.96847
68.2653 48.1067 3.97081
66.7076 45.4385 3.96787
74.9197 35.0474 0
74.2794 30.1841 0
72.1849 32.9432 0.0183335
71.2782 28.4313 0.0183791
65.694 12.7746 0
65.3234 16.1037 0.0180038
69.8156 24.0595 0.0171554
68.3463 26.9514 0.0282528
66.7619 22.9334 0.027483
64.7124 19.1964 0.0266615
63.8843 22.0375 0.0310227
72.4132 35.2241 2
71.8039 30.6766 2
69.8392 33.2685 2
68.9656 29.0384 2
64.0165 10.9835 2
63.8918 14.3298 2
63.5113 17.4493 2
67.6105 24.9124 2
66.1924 27.6355 2
62.9021 20.3241 2
64.7537 23.8316 2
62.0845 22.9483 2
60.6856 11.0996 2
57.6125 11.4484 2
70.0574 35.3917 3.97138
69.4665 31.1494 3.97135
67.6539 33.591 3.96875
66.7701 29.6234 3.96831
65.5218 25.7002 3.96862
64.1284 28.2596 3.96927
62.3418 12.655 3.98678
62.8468 24.6418 3.96824
62.1985 15.7868 3.97678
61.8082 18.6909 3.96783
61.21 21.348 3.96642
60.401 23.7379 3.96851
59.246 12.781 3.97882
55.8742 10.2351 3.98237
56.4043 13.1193 3.97587
69.7689 50.9889 0.0180373
62.2254 65.694 0
58.8947 65.4143 0.0089183
67.7836 55.1672 0.0179343
66.6487 52.2087 0.0284211
62.3362 62.4276 0.0130794
62.202 59.4025 0.0252079
64.6598 56.0305 0.0265905
61.8192 56.6764 0.0312903
60.6702 63.976 2
57.0264 66.7347 2
57.5581 63.6927 2
67.5065 50.1757 2
65.7004 54.172 2
64.5345 51.3831 2
60.7727 60.9379 2
62.8162 55.0644 2
60.6547 58.1548 2
60.3207 55.7762 2
55.0714 67.9318 3.99227
59.219 62.3651 3.97978
55.8049 64.9097 3.98591
56.326 62.0876 3.97806
65.3294 49.4065 3.96755
63.7028 53.2896 3.96814
62.4252 50.6448 3.96717
59.3315 59.5533 3.97359
61.07 54.3015 3.96842
59.2827 56.9988 3.96614
59.2323 55.1706 3.96794
48.1028 68.5782 3.988
50.9491 69.9314 3.99249
54.0858 71.1327 4
56.25 69.976 2
58.3339 68.6801 0
57.0587 8.33605 3.98997
60.3285 7.74928 4
58.9227 9.65717 2
62.2255 9.30602 2
70.5751 48.8135 0.0184649
71.7825 44.3528 0.0186848
68.9116 46.0143 0.029205
69.8035 41.7893 0.0289215
72.4054 39.8022 0.0184104
75 37.5 0
72.4885 37.5121 2
70.0406 39.6569 2
69.4296 43.9068 2
67.5952 41.4964 2
68.2652 48.1062 2
66.7075 45.4383 2
70.1287 37.5213 3.97128
67.8329 39.5117 3.96861
67.2216 43.4687 3.96811
65.5266 41.2064 3.97049
66.0664 47.4164 3.96773
64.6253 44.8428 3.96927
72.4133 35.2241 0.0183092
71.8039 30.6762 0.0183043
69.8395 33.2682 0.0284255
68.9655 29.0381 0.028526
64.0165 10.9835 0
63.8902 14.3271 0.0150925
63.5117 17.4494 0.0263371
67.6108 24.912 0.0279282
66.1925 27.6354 0.0316045
64.7541 23.8314 0.0311928
62.9029 20.3241 0.0312208
62.0853 22.9483 0.0325204
60.684 11.0979 0.0121604
57.6121 11.4493 0.0198465
70.0574 35.3919 2
69.4665 31.1496 2
67.6536 33.5911 2
66.7701 29.6235 2
62.3434 12.6573 2
62.1982 15.7863 2
61.8078 18.6905 2
65.5216 25.7003 2
64.1278 28.2597 2
61.2093 21.3479 2
62.8463 24.6419 2
60.4008 23.7382 2
59.2463 12.7805 2
56.4043 13.1181 2
55.8746 10.234 2
67.8691 35.5474 3.96881
67.2634 31.6227 3.9685
65.6762 33.9286 3.97074
64.6417 30.1956 3.96949
63.524 26.4186 3.96885
62.2125 28.7864 3.97251
60.7752 14.2253 3.97873
61.0152 25.3478 3.97007
60.6093 17.1335 3.9717
60.2098 19.826 3.96521
59.6345 22.2705 3.96565
58.9357 24.3357 3.9706
54.0376 9.1372 3.98395
57.9093 14.3374 3.97718
54.7863 12.0171 3.9778
55.3105 14.6564 3.97499
67.5068 50.1763 0.0290264
57.0257 66.7348 0.00815084
60.6689 63.9771 0.0109418
57.558 63.6913 0.0171451
65.701 54.1726 0.027791
64.535 51.3832 0.0322874
60.7727 60.9366 0.0217089
60.655 58.154 0.0312743
62.8167 55.0641 0.0311206
60.3212 55.7761 0.030202
55.0719 67.9318 2
59.2191 62.3663 2
55.8048 64.9108 2
56.326 62.0891 2
65.3291 49.4064 2
63.7021 53.2896 2
62.4255 50.6447 2
59.3314 59.5548 2
61.0698 54.3015 2
59.2825 56.9986 2
59.232 55.1705 2
53.0433 68.9996 3.99238
53.9673 66.0127 3.98715
57.8794 60.8669 3.97678
54.6837 63.2061 3.98181
55.2095 60.6106 3.97627
63.1712 48.6538 3.96787
61.7312 52.5682 3.96696
60.228 50.0037 3.96876
58.0132 58.2542 3.96978
59.3159 53.9344 3.96734
58.1134 55.7955 3.96552
50.1095 67.8563 3.98785
47.4633 66.5798 3.98497
46.0564 69.1574 3.98807
48.1028 68.5788 2
48.8032 70.7227 3.99258
50.9495 69.9315 2
51.8506 72.1454 4
54.0858 71.1327 2
56.25 69.9759 0
55.1033 7.14051 3.99096
58.3339 6.31992 4
57.0599 8.33655 2
60.3286 7.74926 2
58.9213 9.65611 0.0110064
62.2254 9.30607 0
68.2653 48.1067 0.0291919
69.4297 43.9071 0.0290815
66.7076 45.4385 0.0321302
67.5956 41.4966 0.0315262
70.0407 39.657 0.0288881
72.4888 37.512 0.0186344
70.1285 37.5213 2
67.8328 39.5116 2
67.2215 43.4685 2
65.526 41.2063 2
66.0664 47.4163 2
64.6247 44.8426 2
67.9293 37.5216 3.96872
65.7594 39.3681 3.97071
65.1498 43.0208 3.96997
63.6872 40.9238 3.97363
63.9372 46.7099 3.96855
62.7464 44.2062 3.97295
70.0574 35.3917 0.0286176
69.4665 31.1494 0.028655
67.6539 33.591 0.0312471
66.7701 29.6234 0.0316858
62.3418 12.655 0.0132241
62.1985 15.7868 0.0232219
61.8082 18.6909 0.0321698
65.5218 25.7002 0.0313764
64.1284 28.2596 0.0307292
62.8468 24.6418 0.0317565
61.21 21.348 0.0335753
60.401 23.7379 0.0314908
59.246 12.781 0.0211805
56.4043 13.1193 0.0241343
55.8742 10.2351 0.0176261
67.869 35.5474 2
67.2633 31.6228 2
65.6758 33.9286 2
64.6412 30.1957 2
60.7751 14.2249 2
60.6088 17.1324 2
60.2099 19.8257 2
63.5236 26.4187 2
62.2114 28.7867 2
59.6363 22.2706 2
61.0147 25.3481 2
58.9348 24.3364 2
57.9088 14.3365 2
55.3101 14.656 2
54.0378 9.13626 2
54.7864 12.0155 2
65.8503 35.667 3.97073
65.16 32.157 3.97
64.2333 34.2515 3.97365
62.5305 30.6435 3.97324
61.6086 27.0823 3.97101
60.7793 29.1521 3.97598
59.3091 15.6736 3.97592
59.2718 25.8125 3.97356
59.1143 18.3661 3.96861
58.7174 20.8676 3.96387
58.2409 23.1095 3.96634
57.9087 24.6842 3.9726
52.1123 8.15481 3.98535
53.058 11.0213 3.97983
56.6738 15.7511 3.97642
53.8082 13.69 3.97586
54.3722 16.0121 3.97649
55.0714 67.9318 0.0077338
65.3294 49.4065 0.0324536
55.8049 64.9097 0.0140917
59.219 62.3651 0.0202208
56.326 62.0876 0.0219351
63.7028 53.2896 0.0318639
62.4252 50.6448 0.0328294
59.3315 59.5533 0.0264131
59.2827 56.9988 0.0338636
61.07 54.3015 0.031576
59.2323 55.1706 0.0320607
53.0437 68.9996 2
53.9672 66.0134 2
57.8791 60.8682 2
54.6836 63.2073 2
55.2094 60.6122 2
63.1709 48.6536 2
61.7321 52.5683 2
60.2276 50.0034 2
58.0128 58.2558 2
59.3161 53.9342 2
58.1127 55.795 2
52.0708 66.9993 3.98764
52.9536 64.2177 3.98379
56.6452 59.4833 3.9749
53.6802 61.6195 3.97893
54.2565 59.3121 3.97513
60.9307 47.8653 3.96939
59.6761 52.0898 3.968
57.9496 49.5942 3.97042
56.7673 56.9705 3.96721
57.0958 54.1031 3.9663
50.1095 67.8568 2
49.3372 65.9202 3.98484
47.4633 66.5804 2
46.8927 64.7341 3.98333
45.5584 67.0969 3.98505
43.9733 69.5896 3.98815
46.0564 69.1579 2
46.6098 71.3672 3.99257
48.1028 68.5782 0.0120027
48.8036 70.7229 2
49.554 73.0099 4
50.9491 69.9314 0.00751246
51.8506 72.1455 2
54.0858 71.1327 0
53.0647 6.07201 3.99149
55.1042 7.14065 2
56.25 5.02411 4
58.3339 6.3199 2
57.0587 8.33605 0.0100275
60.3285 7.74928 0
66.0664 47.4164 0.0322672
67.2216 43.4687 0.031889
64.6253 44.8428 0.0307268
65.5266 41.2064 0.0295061
67.8329 39.5117 0.0313911
70.1287 37.5213 0.0287195
67.929 37.5216 2
65.7587 39.368 2
65.1492 43.0206 2
63.6865 40.9236 2
63.9365 46.7097 2
62.7451 44.2059 2
65.8633 37.5008 3.97061
63.8286 39.263 3.97337
63.259 42.5419 3.97324
62.3336 40.6901 3.97699
61.9061 45.9064 3.97122
61.3577 43.6698 3.9763
67.8691 35.5474 0.0311942
67.2634 31.6227 0.0315037
65.6762 33.9286 0.0292575
64.6417 30.1956 0.0305128
60.7752 14.2253 0.0212707
60.6093 17.1335 0.0283004
60.2098 19.826 0.0347918
63.524 26.4186 0.0311529
62.2125 28.7864 0.0274923
61.0152 25.3478 0.0299294
59.6345 22.2705 0.0343464
58.9357 24.3357 0.0294009
57.9093 14.3374 0.0228174
55.3105 14.6564 0.0250094
54.0376 9.1372 0.0160539
54.7863 12.0171 0.0221975
65.8497 35.667 2
65.16 32.1571 2
64.233 34.2516 2
62.5293 30.6437 2
59.3084 15.6729 2
59.1143 18.3653 2
58.7184 20.8679 2
61.6078 27.0826 2
60.7785 29.1524 2
58.2408 23.1102 2
59.271 25.8131 2
57.9082 24.6851 2
56.6732 15.7503 2
54.3714 16.0117 2
53.8079 13.6879 2
52.1124 8.15403 2
53.0579 11.0201 2
64.029 35.6326 3.97308
62.855 33.051 3.97401
60.5239 30.6233 3.97621
59.4921 27.9259 3.97465
57.9345 16.9918 3.97408
57.6668 25.7469 3.97514
57.6973 19.4915 3.96519
57.3307 21.86 3.96292
57.1188 23.9697 3.96832
50.1126 7.28564 3.98697
51.2328 10.1279 3.98162
52.1714 12.8039 3.97791
55.5315 16.9842 3.97586
52.9751 15.2786 3.97412
53.7517 16.9964 3.97945
53.0433 68.9996 0.00762091
53.9673 66.0127 0.0128533
63.1712 48.6538 0.0321291
54.6837 63.2061 0.018195
57.8794 60.8669 0.0232249
55.2095 60.6106 0.0237253
61.7312 52.5682 0.0330443
60.228 50.0037 0.0312432
58.0132 58.2542 0.03022
58.1134 55.7955 0.0344827
59.3159 53.9344 0.0326649
52.0706 66.9999 2
52.9533 64.2185 2
56.6448 59.4843 2
53.6801 61.6207 2
54.2565 59.3136 2
60.9295 47.8648 2
59.6773 52.0897 2
57.9469 49.5934 2
56.7663 56.9749 2
57.0944 54.1026 2
51.1683 65.1272 3.98477
52.046 62.5367 3.98131
55.4748 58.2414 3.97559
52.8317 60.1298 3.97737
53.6335 58.4621 3.97886
58.2031 46.8252 3.97377
57.5132 51.7656 3.96779
56.1472 49.5268 3.97065
55.4533 55.7698 3.96368
55.317 53.3587 3.96427
50.1095 67.8563 0.0121474
49.3371 65.9208 2
48.6184 64.1208 3.98357
47.4633 66.5798 0.0150255
45.5583 67.0974 2
46.8926 64.7346 2
46.3824 63.0502 3.98283
45.1329 65.1951 3.98335
43.6315 67.4675 3.98511
41.8605 69.877 3.98803
43.9733 69.5901 2
44.377 71.862 3.99248
46.0564 69.1574 0.0119294
46.6101 71.3674 2
47.2057 73.7222 4
48.8032 70.7227 0.00741636
49.554 73.0099 2
51.8506 72.1454 0
50.9547 5.13218 3.99208
53.0653 6.07197 2
54.0858 3.86728 4
55.1033 7.14051 0.00903916
56.25 5.02406 2
58.3339 6.31992 0
63.9372 46.7099 0.031454
65.1498 43.0208 0.0300347
62.7464 44.2062 0.0270459
63.6872 40.9238 0.0263653
65.7594 39.3681 0.0292856
67.9293 37.5216 0.0312775
65.8626 37.5008 2
63.8276 39.2629 2
63.2579 42.5417 2
62.3324 40.6899 2
61.9048 45.906 2
61.3564 43.6694 2
63.8912 37.4553 3.97305
62.0536 39.3499 3.97643
61.107 41.9459 3.97608
60.1563 44.7531 3.97551
65.8503 35.667 0.0292732
65.16 32.157 0.029995
64.2333 34.2515 0.0263464
62.5305 30.6435 0.0267645
59.3091 15.6736 0.0240835
59.1143 18.3661 0.0313916
58.7174 20.8676 0.0361296
61.6086 27.0823 0.0289905
60.7793 29.1521 0.0240181
59.2718 25.8125 0.0264427
58.2409 23.1095 0.0336633
57.9087 24.6842 0.0274031
56.6738 15.7511 0.0235798
54.3722 16.0121 0.0235073
53.8082 13.69 0.0241413
52.1123 8.15481 0.0146529
53.058 11.0213 0.0201708
64.0284 35.6326 2
62.854 33.0511 2
60.523 30.6235 2
57.9338 16.9912 2
57.6976 19.4901 2
57.3313 21.8605 2
59.491 27.9264 2
57.1181 23.9707 2
57.6665 25.7477 2
50.1127 7.28478 2
55.5308 16.9834 2
53.7508 16.9958 2
52.9746 15.2778 2
52.1712 12.8031 2
51.2328 10.1271 2
62.0858 35.3616 3.9754
60.1695 32.7554 3.97641
58.5059 30.0943 3.97664
57.1898 27.4051 3.97606
56.626 18.1686 3.97338
56.2085 25.129 3.9726
56.328 20.5417 3.96156
56.044 22.8955 3.96282
48.0567 6.52789 3.98831
49.325 9.33376 3.98286
50.433 11.9996 3.97928
51.3753 14.5078 3.975
54.4043 17.9357 3.97709
52.3548 17.0574 3.97269
52.0708 66.9993 0.0123582
52.9536 64.2177 0.0162128
60.9307 47.8653 0.0306053
53.6802 61.6195 0.0210718
56.6452 59.4833 0.0250998
54.2565 59.3121 0.0248652
59.6761 52.0898 0.0320018
57.9496 49.5942 0.0295814
56.7673 56.9705 0.0327877
57.0958 54.1031 0.0337004
51.1681 65.1277 2
52.0456 62.5375 2
55.4744 58.2423 2
52.8317 60.1315 2
53.6332 58.4628 2
58.2018 46.8245 2
57.5129 51.7651 2
56.1448 49.526 2
55.4533 55.7703 2
55.3184 53.359 2
50.3466 63.3795 3.98325
51.243 60.9313 3.9787
54.208 57.2573 3.9752
52.3071 58.6222 3.97632
56.5459 44.1512 3.9778
55.3624 47.8632 3.97218
55.0031 51.3633 3.96686
53.9709 54.5173 3.9633
49.3372 65.9202 0.0151629
48.6183 64.1214 2
47.9624 62.4717 3.98247
45.5584 67.0969 0.0149491
46.8927 64.7341 0.0166658
43.6315 67.468 2
46.3824 63.0507 2
45.1328 65.1956 2
45.988 61.5817 3.98295
44.7677 63.4505 3.98216
43.357 65.5044 3.98321
41.6636 67.6862 3.98488
39.7023 70.024 3.98821
41.8605 69.8775 2
42.1113 72.2069 3.99243
43.9733 69.5896 0.0118502
44.3773 71.8623 2
44.8159 74.2794 4
46.6098 71.3672 0.00743465
47.2057 73.7222 2
49.554 73.0099 0
48.7853 4.32286 3.99257
50.9551 5.13189 2
51.8506 2.85458 4
53.0647 6.07201 0.00851186
54.0858 3.86728 2
56.25 5.02411 0
61.9061 45.9064 0.0287786
63.259 42.5419 0.0267595
61.3577 43.6698 0.0236951
62.3336 40.6901 0.02301
63.8286 39.263 0.0266255
65.8633 37.5008 0.0293871
63.8901 37.4553 2
62.0524 39.3498 2
61.1055 41.9456 2
60.1551 44.7526 2
61.8901 37.4428 3.97632
60.1075 39.8345 3.97708
58.8427 42.8963 3.97741
64.029 35.6326 0.0269196
62.855 33.051 0.0259941
60.5239 30.6233 0.0237859
57.9345 16.9918 0.0259234
57.6973 19.4915 0.0348073
57.3307 21.86 0.037083
59.4921 27.9259 0.0253543
57.6668 25.7469 0.0248605
57.1188 23.9697 0.0316829
55.5315 16.9842 0.0241406
53.7517 16.9964 0.0205526
52.9751 15.2786 0.0258843
50.1126 7.28564 0.0130342
52.1714 12.8039 0.0220856
51.2328 10.1279 0.0183757
62.0849 35.3617 2
60.1672 32.7557 2
58.5052 30.0949 2
56.6253 18.1678 2
56.3286 20.5391 2
56.0457 22.8963 2
57.1911 27.4058 2
56.2097 25.1299 2
48.0567 6.52701 2
49.325 9.33286 2
54.4038 17.935 2
52.3537 17.057 2
51.3747 14.5064 2
50.4329 11.9989 2
59.7505 35.1262 3.97703
57.8288 32.291 3.97712
56.4144 29.3674 3.97737
55.3222 26.6333 3.97611
55.3238 19.2039 3.97273
54.8447 24.0907 3.9657
54.9556 21.5883 3.9598
45.9627 5.88262 3.98894
43.3742 7.47384 3.98589
47.3556 8.62567 3.9844
48.6002 11.2984 3.98039
49.712 13.7511 3.97855
50.6291 16.1498 3.97747
53.11 18.681 3.97262
51.2896 18.0717 3.98003
51.1683 65.1272 0.0152295
52.046 62.5367 0.01869
58.2031 46.8252 0.0262331
52.8317 60.1298 0.0226327
55.4748 58.2414 0.0244079
53.6335 58.4621 0.0211448
57.5132 51.7656 0.0322077
56.1472 49.5268 0.0293529
55.4533 55.7698 0.0363211
55.317 53.3587 0.0357326
50.3462 63.3796 2
51.2426 60.932 2
54.2078 57.2584 2
52.3066 58.6227 2
56.545 44.1504 2
55.3616 47.8624 2
55.0039 51.3631 2
53.9714 54.5185 2
49.592 61.7423 3.98178
55.3964 41.675 3.97604
50.563 59.3223 3.97496
52.1686 56.4763 3.97009
53.9946 45.5201 3.97538
53.2135 49.2948 3.97044
52.6118 52.8224 3.9651
48.6184 64.1208 0.0164294
47.9623 62.4721 2
47.3289 61.0047 3.98354
43.6315 67.4675 0.0148909
45.1329 65.1951 0.016646
46.3824 63.0502 0.0171697
41.6637 67.6864 2
43.3569 65.5051 2
45.9881 61.5823 2
44.7676 63.4511 2
45.7659 60.6253 3.98124
44.4841 61.8302 3.98182
43.1469 63.7225 3.9817
41.5465 65.642 3.98247
39.6328 67.7657 3.98451
37.5259 70.0489 3.98796
39.7023 70.0246 2
39.8179 72.4039 3.99228
41.8605 69.877 0.011975
42.1115 72.2072 2
42.3947 74.6792 4
44.377 71.862 0.00752068
44.8159 74.2794 2
47.2057 73.7222 0
43.852 5.35939 3.98901
46.5712 3.64727 3.99278
48.7855 4.32251 2
49.554 1.99015 4
50.9547 5.13218 0.00791874
51.8506 2.85453 2
54.0858 3.86728 0
60.1563 44.7531 0.0244948
61.107 41.9459 0.0239193
62.0536 39.3499 0.0235722
63.8912 37.4553 0.0269464
61.8889 37.4429 2
60.1063 39.8341 2
58.8417 42.8958 2
59.6048 37.5646 3.97765
57.8052 40.6361 3.97769
54.8353 39.6887 3.97615
62.0858 35.3616 0.0246021
60.1695 32.7554 0.0235873
58.5059 30.0943 0.0233636
56.626 18.1686 0.0266231
56.328 20.5417 0.0384365
56.044 22.8955 0.0371815
57.1898 27.4051 0.0239365
56.2085 25.129 0.027404
54.4043 17.9357 0.022913
52.3548 17.0574 0.0273141
51.3753 14.5078 0.0250025
48.0567 6.52789 0.0116935
49.325 9.33376 0.0171365
50.433 11.9996 0.0207204
59.7487 35.1264 2
45.9626 5.88212 2
43.3741 7.47339 2
57.8281 32.2918 2
56.4144 29.3681 2
55.3233 19.2034 2
54.9577 21.5876 2
54.8439 24.092 2
55.3178 26.6348 2
47.3556 8.6243 2
48.6002 11.2975 2
53.1098 18.6802 2
51.2891 18.0718 2
50.6284 16.1495 2
49.7113 13.7506 2
57.1922 34.7737 3.97751
55.5556 31.5481 3.97798
54.3415 28.4485 3.9783
53.6703 25.5391 3.9737
53.9427 20.1581 3.97338
53.5168 22.748 3.95724
41.3994 7.07922 3.98637
45.3604 7.99551 3.98616
42.8663 9.41727 3.98318
46.6671 10.6567 3.98174
47.7444 13.1085 3.98064
48.9285 15.4119 3.97602
49.9971 17.7173 3.9767
51.6289 19.3484 3.9789
50.3466 63.3795 0.0167491
51.243 60.9313 0.0212968
56.5459 44.1512 0.0221951
55.3624 47.8632 0.0278181
52.3071 58.6222 0.0236806
54.208 57.2573 0.0248033
55.0031 51.3633 0.0331408
53.9709 54.5173 0.0366973
49.5914 61.7421 2
55.3969 41.675 2
50.5626 59.323 2
52.1682 56.4771 2
53.9994 45.5192 2
53.2171 49.2947 2
52.613 52.822 2
48.847 60.1986 3.97973
52.26 42.5962 3.9812
49.7803 57.6137 3.97488
50.5557 54.4072 3.96627
51.6401 47.2281 3.97608
51.1233 50.9154 3.96251
47.9075 43.7428 3.99067
47.9624 62.4717 0.0175293
47.329 61.0052 2
46.6176 59.7903 3.98242
41.6636 67.6862 0.0151199
43.357 65.5044 0.0167909
44.7677 63.4505 0.0178421
45.988 61.5817 0.0170507
39.633 67.7664 2
41.5463 65.6419 2
45.7658 60.626 2
43.1469 63.7232 2
44.4841 61.8308 2
44.6228 60.287 3.98236
42.9511 62.0777 3.98017
41.6004 63.8157 3.98173
39.6478 65.6094 3.98152
37.5634 67.7476 3.98419
31.6967 65.1281 3.98232
33.3923 67.4851 3.98391
35.3335 69.9589 3.98798
37.526 70.0496 2
37.5095 72.4585 3.99215
39.7023 70.024 0.0117856
39.8181 72.4043 2
39.9526 74.9197 4
42.1113 72.2069 0.00757175
42.3947 74.6792 2
44.8159 74.2794 0
41.7366 4.96859 3.98929
43.852 5.3589 2
44.3264 3.11032 3.99313
46.5713 3.64701 2
47.2057 1.27793 4
48.7853 4.32286 0.00742602
49.554 1.99013 2
51.8506 2.85458 0
58.8427 42.8963 0.0225903
60.1075 39.8345 0.022924
61.8901 37.4428 0.0236819
59.6035 37.5646 2
57.8048 40.6357 2
54.8363 39.6882 2
56.5947 37.8849 3.97756
49.2937 41.3047 3.99028
52.857 39.3005 3.9843
39.4428 6.8029 3.98633
59.7505 35.1262 0.0229743
57.8288 32.291 0.0228792
56.4144 29.3674 0.0226292
55.3238 19.2039 0.0272663
54.9556 21.5883 0.0401977
54.8447 24.0907 0.0343025
55.3222 26.6333 0.0238943
53.11 18.681 0.0273847
51.2896 18.0717 0.0199697
50.6291 16.1498 0.0225338
45.9627 5.88262 0.0110587
49.712 13.7511 0.0214451
47.3556 8.62567 0.0155977
48.6002 11.2984 0.01961
43.3742 7.47384 0.0141136
57.1897 34.7732 2
41.3993 7.07864 2
45.3602 7.99506 2
42.8659 9.4168 2
55.5575 31.5486 2
54.3398 28.4498 2
53.9427 20.1583 2
53.5171 22.745 2
53.6677 25.5406 2
46.667 10.6547 2
47.744 13.1072 2
51.6289 19.3485 2
49.996 17.7164 2
48.9275 15.4118 2
54.6306 33.9733 3.97642
53.2971 30.5352 3.97779
52.4408 27.2548 3.97485
52.0582 24.1471 3.97599
52.3525 21.0835 3.97682
41.014 9.05023 3.98333
44.725 9.99626 3.98387
42.469 10.9045 3.98412
46.0049 12.7353 3.9789
47.6786 14.5927 3.9758
48.1045 16.9977 3.97531
49.8042 19.6759 3.97739
49.592 61.7423 0.0182221
50.563 59.3223 0.0250381
55.3964 41.675 0.0239604
53.9946 45.5201 0.0246216
53.2135 49.2948 0.0295632
52.1686 56.4763 0.0299148
52.6118 52.8224 0.0349042
48.8466 60.1975 2
52.2676 42.597 2
49.7796 57.6142 2
50.5555 54.4084 2
51.6438 47.2282 2
51.1248 50.9146 2
47.9145 43.7601 2
47.982 58.7346 3.9792
49.8578 45.2347 3.98072
48.5767 55.9056 3.97691
49.0697 52.5686 3.97324
49.546 49.012 3.97073
45.6971 39.8561 3.88533
46.1428 42.6201 3.92314
46.2841 45.7832 3.98805
43.5185 41.1235 3.80978
41.8808 42.0013 3.68691
47.3289 61.0047 0.0164581
46.6172 59.7909 2
45.4653 58.7868 3.98149
39.6328 67.7657 0.0154921
41.5465 65.642 0.0175341
43.1469 63.7225 0.0182959
44.4841 61.8302 0.0181764
45.7659 60.6253 0.0187558
41.6003 63.8157 2
37.5636 67.7483 2
39.6477 65.61 2
44.6227 60.2875 2
42.9512 62.0783 2
41.754 62.4888 3.98064
42.4802 59.9757 3.98192
39.894 63.5491 3.98037
37.6423 65.5082 3.98202
35.4635 67.6568 3.98403
33.5752 65.3408 3.98165
31.9589 63.2984 3.98186
29.8828 64.7197 3.98328
31.6968 65.1288 2
31.3768 67.1952 3.98432
33.3923 67.4857 2
33.1565 69.7524 3.98776
35.3335 69.9597 2
35.1947 72.3728 3.99209
37.5259 70.0489 0.0120374
37.5096 72.4589 2
37.5 75 4
39.8179 72.4039 0.00772285
39.9526 74.9197 2
42.3947 74.6792 0
39.6243 4.71594 3.98956
41.7366 4.96802 2
42.0627 2.71785 3.99327
43.852 5.35939 0.0109869
44.3265 3.11 2
44.8158 0.721173 4
46.5712 3.64727 0.00722318
47.2057 1.27779 2
49.554 1.99015 0
57.8052 40.6361 0.0223102
59.6048 37.5646 0.0223543
54.8353 39.6887 0.0238514
49.3116 41.3089 2
56.5933 37.8849 2
52.8589 39.2946 2
53.7026 36.6298 3.97675
47.2191 40.3748 3.93166
50.2336 38.5092 3.99346
37.5167 6.67421 3.98631
39.4428 6.80223 2
39.2115 8.69315 3.98404
35.9426 8.49359 3.98399
57.1922 34.7737 0.0224858
55.5556 31.5481 0.0220229
54.3415 28.4485 0.0216995
53.9427 20.1581 0.0266229
53.5168 22.748 0.042765
53.6703 25.5391 0.0262998
51.6289 19.3484 0.0210961
49.9971 17.7173 0.0232984
48.9285 15.4119 0.0239781
45.3604 7.99551 0.0138397
47.7444 13.1085 0.0193611
46.6671 10.6567 0.0182612
41.3994 7.07922 0.0136313
42.8663 9.41727 0.0168207
54.628 33.974 2
41.0138 9.04991 2
44.7244 9.99597 2
42.4684 10.9045 2
53.2939 30.5342 2
52.4462 27.2564 2
52.3535 21.0835 2
52.0596 24.1481 2
46.0044 12.7321 2
47.6778 14.5912 2
49.8043 19.675 2
48.1033 16.9969 2
52.1881 32.889 3.98068
51.1133 29.2124 3.97623
50.6601 25.7863 3.97136
49.9037 22.2589 3.97914
40.57 11.6099 3.98066
43.8588 11.9188 3.97994
45.7985 15.4299 3.98135
47.495 19.2889 3.97762
46.0471 37.4833 3.89156
48.847 60.1986 0.0202711
49.7803 57.6137 0.0251226
52.26 42.5962 0.0188009
51.6401 47.2281 0.0239242
51.1233 50.9154 0.0374885
50.5557 54.4072 0.0337303
47.9075 43.7428 0.00932538
47.9812 58.735 2
49.8665 45.2404 2
48.5753 55.9072 2
49.0694 52.5718 2
49.5491 49.0124 2
45.7273 39.8618 2
46.1653 42.6385 2
46.2842 45.781 2
43.5432 41.147 2
41.8931 42.0131 2
46.8294 57.3369 3.98274
44.2671 39.4068 3.81103
42.232 40.8671 3.73474
47.8996 47.2009 3.97651
47.1341 54.2235 3.97406
47.5029 50.7217 3.96835
44.6486 47.3732 3.97945
44.8003 41.9356 3.87708
44.7564 44.516 3.93958
42.3856 42.6354 3.81857
40.797 42.3364 3.7213
46.6176 59.7903 0.0175816
45.4651 58.7872 2
43.871 57.709 3.98399
37.5634 67.7476 0.0158126
39.6478 65.6094 0.0184794
41.6004 63.8157 0.0182714
42.9511 62.0777 0.0198328
44.6228 60.287 0.0176408
35.4636 67.6578 2
41.754 62.4891 2
39.8939 63.5495 2
37.6424 65.5088 2
42.4803 59.9762 2
40.6237 61.6451 3.98117
40.4423 58.203 3.98099
37.8371 63.2105 3.98011
35.5729 65.4297 3.98156
33.5754 65.3413 2
31.9588 63.2991 2
33.6285 63.3373 3.98097
30.3778 62.8577 3.98229
32.1228 62.0037 3.98272
26.8686 61.4996 3.98105
28.0616 64.1476 3.98282
29.8829 64.7203 2
29.4062 66.7592 3.98471
31.6967 65.1281 0.0176802
31.3768 67.1959 2
31.0139 69.4174 3.98776
33.3923 67.4851 0.0160861
33.1565 69.753 2
32.8917 72.1471 3.99217
35.3335 69.9589 0.0120185
35.1947 72.3733 2
35.0474 74.9194 4
37.5095 72.4585 0.00785389
37.5 75 2
39.9526 74.9197 0
35.6213 6.72534 3.9859
37.5237 4.61549 3.98961
39.6242 4.71529 2
39.7891 2.47433 3.99326
41.7366 4.96859 0.0107097
42.0628 2.71751 2
42.3946 0.32156 4
44.3264 3.11032 0.00687072
44.8159 0.72056 2
47.2057 1.27793 0
49.2937 41.3047 0.00971943
56.5947 37.8849 0.0224444
52.857 39.3005 0.0156977
47.2374 40.39 2
50.2457 38.5063 2
53.7099 36.6322 2
51.0233 35.5704 3.97802
47.8792 37.747 3.94319
45.6972 35.1308 3.88637
43.5255 33.8614 3.80549
41.8895 32.9937 3.68302
37.4585 8.53508 3.98443
37.5166 6.67343 2
39.4428 6.8029 0.0136656
39.2114 8.69247 2
38.977 10.1277 3.98324
35.8993 9.77471 3.98245
34.1512 8.82325 3.98347
35.9422 8.4927 2
54.6306 33.9733 0.0235848
53.2971 30.5352 0.0222073
52.4408 27.2548 0.0251458
52.3525 21.0835 0.0231798
52.0582 24.1471 0.0240127
49.8042 19.6759 0.0226141
48.1045 16.9977 0.0246898
47.6786 14.5927 0.024203
44.725 9.99626 0.0161343
46.0049 12.7353 0.0211022
41.014 9.05023 0.0166724
42.469 10.9045 0.0158825
52.1931 32.8892 2
40.57 11.6105 2
43.8576 11.9188 2
51.127 29.2135 2
50.6642 25.788 2
49.9037 22.2571 2
45.7972 15.4256 2
47.4943 19.2926 2
49.7262 31.4483 3.98287
49.1169 27.5585 3.9751
49.3175 24.4734 3.98548
47.1645 22.0345 3.97302
38.3031 12.739 3.97914
42.1019 14.3083 3.97838
44.7949 18.4851 3.97653
44.581 37.4909 3.81627
46.0958 37.4917 2
47.982 58.7346 0.0207988
48.5767 55.9056 0.0230911
49.8578 45.2347 0.0192835
49.546 49.012 0.0292748
49.0697 52.5686 0.0267627
45.6971 39.8561 0.114668
46.1428 42.6201 0.0768589
46.2841 45.7832 0.0119537
43.5185 41.1235 0.190221
41.8808 42.0013 0.313088
46.8281 57.3373 2
44.291 39.4245 2
42.221 40.8701 2
47.8993 47.2045 2
47.1323 54.2274 2
47.5039 50.7256 2
44.6547 47.3503 2
44.8235 41.952 2
44.7705 44.533 2
42.4248 42.6625 2
40.7981 42.3343 2
45.3821 55.9282 3.98993
42.552 39.2673 3.74612
40.6905 40.7761 3.82106
45.9718 48.8866 3.98459
45.4841 52.5136 3.98011
43.3319 48.393 4.00029
43.2795 46.0639 3.92328
43.4857 43.7218 3.87463
40.9833 43.7747 3.81161
39.2716 42.6682 3.73856
45.4653 58.7868 0.0185139
43.8708 57.7094 2
42.0993 56.3294 3.98596
35.4635 67.6568 0.0159678
37.6423 65.5082 0.0179754
39.894 63.5491 0.0196302
41.754 62.4888 0.0193621
42.4802 59.9757 0.0180835
35.5731 65.4311 2
40.6236 61.6454 2
37.837 63.2108 2
40.4423 58.2036 2
38.9212 56.4945 3.98814
38.2506 60.3272 3.97983
35.6068 63.2029 3.97925
33.5752 65.3408 0.018347
31.9589 63.2984 0.0181412
33.6285 63.338 2
30.3778 62.8582 2
32.1229 62.0044 2
28.6806 62.2023 3.98179
33.3455 61.515 3.98189
31.0664 61.221 3.98158
27.5694 59.5944 3.98095
23.7944 59.0816 3.98029
25.0346 60.8724 3.98062
26.8688 61.5002 2
26.2284 63.4791 3.98252
28.0618 64.1481 2
27.4627 66.1832 3.98483
29.8828 64.7197 0.0167166
29.4062 66.7597 2
28.9061 68.9433 3.98768
31.3768 67.1952 0.0156756
31.0139 69.4181 2
30.614 71.778 3.99216
33.1565 69.7524 0.0122359
32.8915 72.1474 2
32.6054 74.6784 4
35.1947 72.3728 0.00791426
35.0474 74.9197 2
37.5 75 0
33.724 6.98014 3.98547
35.4354 4.68574 3.98943
35.6211 6.72466 2
37.5146 2.38691 3.99326
37.5236 4.6149 2
39.6243 4.71594 0.0104387
39.7891 2.47394 2
39.9526 0.0806499 4
42.0627 2.71785 0.00673448
42.3947 0.320817 2
44.8158 0.721173 0
44.2832 35.5744 3.80582
42.2427 34.1196 3.73051
47.2191 40.3748 0.0683379
50.2336 38.5092 0.00653575
53.7026 36.6298 0.0232538
47.8893 37.7488 2
51.0358 35.5705 2
45.7225 35.1147 2
43.5526 33.8389 2
41.9014 32.9813 2
48.0514 34.3073 3.97074
44.805 33.0451 3.86942
42.3981 32.3606 3.81578
40.8069 32.6621 3.71882
37.3114 10.6321 3.98164
37.4583 8.53398 2
37.5167 6.67421 0.0136922
39.2115 8.69315 0.0159642
38.9771 10.1269 2
34.7545 10.3812 3.98132
35.899 9.77379 2
32.378 9.3706 3.98232
34.1507 8.82264 2
35.9426 8.49359 0.0160139
52.1881 32.889 0.0193203
51.1133 29.2124 0.023766
50.6601 25.7863 0.0286439
49.9037 22.2589 0.0208569
47.495 19.2889 0.0223816
45.7985 15.4299 0.0186486
43.8588 11.9188 0.0200576
40.57 11.6099 0.019339
49.7371 31.446 2
38.3026 12.7374 2
42.1012 14.3107 2
49.1227 27.5588 2
49.3199 24.4695 2
47.1613 22.0297 2
44.7943 18.497 2
47.564 29.553 3.98707
47.0106 25.2216 3.98462
44.2744 21.4109 3.97534
36.5831 12.9361 3.97837
38.6826 14.8133 3.97757
41.7474 17.8577 3.97824
42.6703 37.4843 3.75741
44.6 37.4908 2
46.0471 37.4833 0.108442
46.8294 57.3369 0.0172634
47.1341 54.2235 0.0259431
47.8996 47.2009 0.0234914
47.5029 50.7217 0.0316549
44.2671 39.4068 0.188967
44.8003 41.9356 0.122916
44.7564 44.516 0.0604217
44.6486 47.3732 0.0205483
42.3856 42.6354 0.181432
42.232 40.8671 0.265265
40.797 42.3364 0.278702
45.3804 55.9274 2
42.5416 39.2662 2
40.6777 40.7631 2
45.971 48.8928 2
45.483 52.5188 2
43.3345 48.412 2
43.3086 46.0902 2
43.5116 43.7475 2
41.0114 43.8062 2
39.2624 42.6576 2
43.7162 54.4349 3.99645
40.7875 39.1583 3.85136
39.1369 40.8512 3.84271
43.6145 50.4502 4.00352
41.8951 47.6077 3.95801
41.8206 45.1443 3.88328
39.34 44.4814 3.8202
37.5005 42.7716 3.76195
43.871 57.709 0.0160075
42.0991 56.3298 2
40.4096 54.9306 3.98534
35.5729 65.4297 0.0184427
37.8371 63.2105 0.0198862
40.6237 61.6451 0.0188306
40.4423 58.203 0.0190149
35.6068 63.2041 2
38.2506 60.3271 2
38.9213 56.4945 2
37.9988 55.2469 3.99503
36.9336 57.6243 3.98171
35.3634 60.9112 3.98009
33.6285 63.3373 0.0190333
30.3778 62.8577 0.0177136
32.1228 62.0037 0.0172822
33.3457 61.5158 2
28.6808 62.2026 2
31.0666 61.2214 2
29.4034 60.2892 3.98038
32.358 59.747 3.98556
28.0271 58.3749 3.98742
27.5698 59.5951 2
25.3816 58.5939 3.97867
22.7617 58.237 3.97164
23.4012 60.3511 3.97921
23.7946 59.0825 2
25.0348 60.8732 2
24.4313 62.7713 3.98229
26.8686 61.4996 0.0189464
26.2287 63.4799 2
25.5468 65.4929 3.98438
28.0616 64.1476 0.0171838
27.4627 66.1837 2
26.8357 68.3316 3.98769
29.4062 66.7592 0.0152946
28.9062 68.9437 2
28.3689 71.2632 3.99226
31.0139 69.4174 0.0122422
30.6137 71.7784 2
30.1842 74.2788 4
32.8917 72.1471 0.00782817
32.6053 74.6792 2
35.0474 74.9194 0
31.7885 7.42034 3.98471
33.3476 4.92502 3.98904
33.7238 6.9795 2
35.2447 2.46298 3.99321
35.4352 4.68525 2
35.6213 6.72534 0.0140987
37.5 0 4
37.5144 2.38657 2
37.5237 4.61549 0.0103902
39.7891 2.47433 0.00674433
39.9526 0.0802889 2
42.3946 0.32156 0
42.555 35.7084 3.74923
44.3035 35.5583 2
40.7004 34.2183 3.8197
42.2305 34.1178 2
47.8792 37.747 0.0568102
51.0233 35.5704 0.0219839
45.6972 35.1308 0.113634
43.5255 33.8614 0.194507
41.8895 32.9937 0.316981
48.0678 34.2903 2
44.8289 33.0296 2
42.4311 32.3346 2
40.8081 32.6633 2
46.0762 31.5879 3.94411
43.4797 31.2753 3.87737
40.9882 31.2215 3.81187
39.2798 32.3382 3.73786
35.6933 11.7784 3.97994
37.3114 10.6306 2
37.4585 8.53508 0.015566
38.977 10.1277 0.016764
33.0986 11.2192 3.97962
34.7543 10.3804 2
35.8993 9.77471 0.017549
30.4827 10.0194 3.98151
32.3776 9.37025 2
34.1512 8.82325 0.01653
49.7262 31.4483 0.0171256
49.1169 27.5585 0.0249011
49.3175 24.4734 0.014518
47.1645 22.0345 0.0269753
44.7949 18.4851 0.0234657
42.1019 14.3083 0.0216169
38.3031 12.739 0.0208638
36.5826 12.935 2
47.5705 29.535 2
38.6815 14.8118 2
41.746 17.8645 2
47.0153 25.2176 2
44.2711 21.3925 2
45.3934 27.6771 4.00028
43.7476 24.1378 4.00458
41.3326 20.7823 3.97972
35.7733 14.7653 3.97726
38.6824 17.6041 3.97853
40.8361 37.4786 3.86137
42.6652 37.4863 2
44.581 37.4909 0.183735
45.3821 55.9282 0.0100677
45.4841 52.5136 0.019887
45.9718 48.8866 0.0154091
42.552 39.2673 0.253884
43.4857 43.7218 0.125368
43.2795 46.0639 0.0767213
43.3319 48.393 -0.000287649
40.9833 43.7747 0.188395
40.6905 40.7761 0.178944
39.2716 42.6682 0.261438
43.714 54.4337 2
40.7698 39.1499 2
39.1281 40.8352 2
43.6123 50.4657 2
41.8869 47.6275 2
41.8432 45.1693 2
37.5003 42.761 2
39.3568 44.5035 2
41.8591 52.9986 3.99367
39.1511 39.1653 3.87415
37.4978 40.8882 3.86123
35.7319 42.6727 3.73891
40.8636 49.6614 3.99944
39.8062 46.0228 3.86425
37.4982 44.704 3.80722
42.0993 56.3294 0.0140358
40.4093 54.9309 2
38.7251 53.8432 3.99367
35.6068 63.2029 0.020751
38.2506 60.3272 0.020174
38.9212 56.4945 0.0118559
35.3636 60.9121 2
36.9341 57.6241 2
37.9989 55.2453 2
36.3216 55.3485 3.99193
34.4888 58.5201 3.98554
33.3455 61.515 0.0181076
28.6806 62.2023 0.0182115
31.0664 61.221 0.0184164
32.3584 59.7479 2
29.4038 60.2893 2
30.3043 57.8197 3.9844
28.0274 58.3757 2
26.9565 56.8263 3.97751
27.5694 59.5944 0.0190534
25.3818 58.5949 2
23.8509 56.7953 3.96879
21.3419 57.3908 3.97044
21.9957 59.6218 3.9778
22.7617 58.2387 2
22.7357 62.022 3.98073
23.4014 60.3521 2
23.7944 59.0816 0.0197117
25.0346 60.8724 0.0193814
24.4316 62.7721 2
23.6808 64.7108 3.98404
26.2284 63.4791 0.0174794
25.5468 65.4936 2
24.8078 67.5928 3.98751
27.4627 66.1832 0.0151694
26.8357 68.3323 2
26.1641 70.6039 3.99232
28.9061 68.9433 0.0123154
28.3687 71.2634 2
27.7943 73.7221 4
30.614 71.778 0.00783889
30.1841 74.2794 2
32.6054 74.6784 0
29.811 7.99408 3.98387
31.2529 5.3322 3.98829
31.7883 7.41974 2
32.9804 2.70121 3.99294
33.3473 4.92449 2
33.724 6.98014 0.0145298
35.0474 0.080333 4
35.2445 2.46271 2
35.4354 4.68574 0.0105692
37.5 0 2
37.5146 2.38691 0.00674105
39.9526 0.0806499 0
40.7894 35.8135 3.85264
42.5439 35.7109 2
44.2832 35.5744 0.194184
28.5434 10.6955 3.98073
39.1438 34.1539 3.84196
40.6855 34.231 2
42.2427 34.1196 0.26949
48.0514 34.3073 0.0292568
44.805 33.0451 0.130584
42.3981 32.3606 0.184215
40.8069 32.6621 0.281178
46.1013 31.5775 2
43.5024 31.2523 2
41.0162 31.192 2
39.2709 32.3488 2
44.2875 29.7837 3.93488
41.8271 29.8531 3.88357
39.3523 30.5204 3.81933
37.5108 32.2416 3.76124
34.0937 12.9384 3.97836
35.6932 11.7773 2
37.3114 10.6321 0.0183569
31.1866 11.9884 3.97961
33.0986 11.2189 2
34.7545 10.3812 0.018681
30.4823 10.0187 2
32.378 9.3706 0.0176835
47.564 29.553 0.0129254
47.0106 25.2216 0.0153752
36.5831 12.9361 0.0216254
44.2744 21.4109 0.0246567
41.7474 17.8577 0.0217594
38.6826 14.8133 0.022434
35.773 14.7654 2
45.3984 27.678 2
38.6804 17.6092 2
41.3292 20.7665 2
43.7491 24.1233 2
33.6096 15.8845 3.9767
42.9588 26.5225 3.99641
40.8876 23.3468 4.00945
38.4161 20.3836 3.9771
35.8506 17.5211 3.97826
39.1644 37.4846 3.89034
40.8169 37.4762 2
42.6703 37.4843 0.242587
43.7162 54.4349 0.00354917
43.6145 50.4502 -0.00352102
40.7875 39.1583 0.148643
41.8206 45.1443 0.116716
41.8951 47.6077 0.0419903
39.34 44.4814 0.179799
39.1369 40.8512 0.157294
37.5005 42.7716 0.238055
41.8585 52.9963 2
39.1391 39.1564 2
37.4978 40.8732 2
40.8775 49.6767 2
35.7382 42.6622 2
39.8299 46.0543 2
37.495 44.725 2
39.7998 51.8826 3.99897
37.4966 39.1824 3.89309
35.8578 40.8653 3.84171
34.2028 42.3404 3.71983
35.6527 44.4924 3.81731
38.6722 48.6702 3.97468
37.5019 46.3278 3.87217
40.4096 54.9306 0.0146598
38.7252 53.8368 2
36.7381 53.1702 4.00023
35.3634 60.9112 0.0199084
36.9336 57.6243 0.0182949
37.9988 55.2469 0.00496748
34.4895 58.5212 2
36.3225 55.3549 2
33.2393 55.5048 3.99393
32.358 59.747 0.0144439
29.4034 60.2892 0.0196237
30.305 57.82 2
28.7113 55.315 3.97856
28.0271 58.3749 0.0125769
26.9562 56.8272 2
25.3337 55.1338 3.97359
21.8288 55.3367 3.96454
25.3816 58.5939 0.0213303
23.8507 56.7975 2
20.2282 57.0193 3.97625
20.6489 58.7753 3.97491
21.3418 57.3926 2
21.1667 61.1706 3.97906
21.9958 59.6228 2
22.7617 58.237 0.0283568
21.8944 63.8383 3.98313
22.7359 62.023 2
23.4012 60.3511 0.0207939
24.4313 62.7713 0.0177083
23.6809 64.7115 2
22.8361 66.7362 3.98714
25.5468 65.4929 0.0156209
24.8079 67.5936 2
24.0083 69.805 3.99239
26.8357 68.3316 0.0123125
26.1638 70.6042 2
25.446 73.0099 4
28.3689 71.2632 0.00773681
27.7943 73.7222 2
30.1842 74.2788 0
27.8209 8.65409 3.98341
29.1549 5.87808 3.98753
29.8107 7.99326 2
30.7255 3.09839 3.99263
31.2526 5.33167 2
31.7885 7.42034 0.0152857
32.6053 0.320823 4
32.9801 2.70091 2
33.3476 4.92502 0.0109616
35.0474 0.0802903 2
35.2447 2.46298 0.00678962
37.5 0 0
39.1593 35.8157 3.87278
40.771 35.822 2
42.555 35.7084 0.250768
28.5432 10.6949 2
26.6221 11.3912 3.98094
29.2255 12.6459 3.98024
37.5028 34.1256 3.85974
39.1332 34.1707 2
40.7004 34.2183 0.180304
46.0762 31.5879 0.0558897
43.4797 31.2753 0.122626
40.9882 31.2215 0.188134
39.2798 32.3382 0.262138
44.3043 29.7689 2
41.8442 29.8371 2
39.3698 30.4923 2
37.5111 32.252 2
42.2973 28.4341 3.91349
39.8378 28.9716 3.88357
37.5167 30.3021 3.80771
35.7445 32.3369 3.73797
31.9158 14.486 3.97822
34.0938 12.9382 2
35.6933 11.7784 0.0200602
31.1867 11.9878 2
33.0986 11.2192 0.0203756
30.4827 10.0194 0.0184907
45.3934 27.6771 -0.000284537
43.7476 24.1378 -0.00457929
35.7733 14.7653 0.0227361
41.3326 20.7823 0.0202763
38.6824 17.6041 0.0214731
33.6083 15.8842 2
35.8483 17.5206 2
42.9675 26.5201 2
38.4162 20.3822 2
40.8845 23.3324 2
33.553 17.3961 3.9782
40.3528 25.6919 3.99805
38.0682 22.9652 3.99683
35.5823 20.1002 3.97953
37.4968 37.4963 3.91148
39.1493 37.4855 2
40.8361 37.4786 0.138625
41.8591 52.9986 0.00632628
40.8636 49.6614 0.000558204
39.1511 39.1653 0.125845
39.8062 46.0228 0.13575
37.4982 44.704 0.192778
37.4978 40.8882 0.138773
35.7319 42.6727 0.26109
39.803 51.8832 2
37.497 39.1718 2
35.869 40.8487 2
38.6783 48.7053 2
34.2005 42.3394 2
35.6362 44.5183 2
37.4991 46.3564 2
37.6446 50.9558 4.00855
35.8433 39.1832 3.87384
34.3069 40.7909 3.81995
33.1128 42.0071 3.68569
34.0069 43.7709 3.81098
35.1644 46.0112 3.87626
36.8774 48.3065 3.94221
38.7251 53.8432 0.00632505
36.7375 53.1786 2
34.3813 52.4582 3.99716
34.4888 58.5201 0.0144605
36.3216 55.3485 0.00807166
33.2395 55.5064 2
30.5425 53.3548 3.97725
30.3043 57.8197 0.0156036
28.7109 55.3173 2
26.9173 53.4267 3.97236
26.9565 56.8263 0.0224937
25.3333 55.1371 2
23.6126 53.4683 3.96381
20.5078 53.2072 3.9614
19.9473 55.8218 3.96939
21.8278 55.3382 2
23.8509 56.7953 0.0312147
19.4439 57.8808 3.97358
20.2278 57.0208 2
19.7081 60.2007 3.97697
20.6488 58.7762 2
21.3419 57.3908 0.029556
20.2071 62.8587 3.98108
21.167 61.1718 2
21.9957 59.6218 0.0222022
20.9375 65.7649 3.98663
21.8945 63.8392 2
22.7357 62.022 0.0192697
23.6808 64.7108 0.0159578
22.8362 66.7368 2
21.9108 68.872 3.99219
24.8078 67.5928 0.0124853
24.0079 69.8053 2
23.1494 72.1454 4
26.1641 70.6039 0.0076821
25.446 73.0099 2
27.7943 73.7221 0
25.86 9.38274 3.98279
27.0697 6.54231 3.98668
27.8206 8.65349 2
28.4877 3.64439 3.99227
29.1546 5.87745 2
29.811 7.99408 0.01613
30.1841 0.720592 4
30.7252 3.09812 2
31.2529 5.3322 0.0117082
32.6053 0.320817 2
32.9804 2.70121 0.00706389
35.0474 0.080333 0
37.4989 35.8173 3.89296
39.1459 35.8247 2
40.7894 35.8135 0.147361
24.7768 12.0749 3.98117
23.7519 14.3625 3.98018
28.5434 10.6955 0.0192668
26.622 11.3908 2
29.2256 12.6452 2
27.2917 13.3787 3.98067
29.7813 14.2068 3.98012
35.8662 34.1497 3.84132
37.5029 34.1396 2
39.1438 34.1539 0.158038
37.5108 32.2416 0.238759
44.2875 29.7837 0.0651181
41.8271 29.8531 0.116427
39.3523 30.5204 0.180671
42.3246 28.4068 2
39.8495 28.9394 2
37.5195 30.2871 2
35.751 32.3488 2
40.0267 27.6064 3.91138
37.5224 28.6758 3.8771
35.6754 30.5274 3.8214
34.2203 32.6678 3.71956
30.9278 16.8463 3.97749
31.9155 14.4856 2
34.0937 12.9384 0.0216361
31.1866 11.9884 0.0203949
42.9588 26.5225 0.00359204
40.8876 23.3468 -0.00944627
33.6096 15.8845 0.0233048
35.8506 17.5211 0.0217403
38.4161 20.3836 0.0228978
33.5508 17.4003 2
35.5844 20.105 2
40.3562 25.6767 2
38.0626 22.947 2
32.8643 19.8052 3.98176
37.792 25.2752 4.00529
35.1946 22.7052 3.99068
35.8322 37.5018 3.89044
37.4954 37.4957 2
39.1644 37.4846 0.109657
39.7998 51.8826 0.00102861
38.6722 48.6702 0.025325
37.4966 39.1824 0.10691
37.5019 46.3278 0.127832
35.6527 44.4924 0.182695
35.8578 40.8653 0.158286
34.2028 42.3404 0.280168
37.6441 50.974 2
35.8567 39.1734 2
34.3205 40.7791 2
36.8749 48.3367 2
33.0997 42.02 2
33.9817 43.8001 2
35.1483 46.0391 2
35.4982 50.1009 3.99574
34.2164 39.1818 3.85383
32.7537 40.8791 3.73276
32.6086 42.6414 3.81824
33.1778 45.1416 3.88118
34.3021 47.3849 3.91811
36.7381 53.1702 -0.000227131
34.3797 52.4655 2
32.0478 51.1643 4.00115
33.2393 55.5048 0.00607097
30.5419 53.3598 2
28.4703 51.5698 3.97742
28.7113 55.315 0.0214392
26.9167 53.4296 2
25.1319 51.7271 3.96022
25.3337 55.1338 0.0264072
23.6117 53.4704 2
22.0269 51.7855 3.95751
19.2628 51.6187 3.96427
18.9478 54.2966 3.96104
20.5066 53.2067 2
18.4567 56.7129 3.97253
19.9466 55.8233 2
21.8288 55.3367 0.0354614
18.3719 59.1024 3.973
19.4435 57.8818 2
20.2282 57.0193 0.0237466
18.619 61.7632 3.97696
19.7082 60.2022 2
20.6489 58.7753 0.025091
19.1265 64.6753 3.98545
20.2071 62.8598 2
21.1667 61.1706 0.0209361
19.885 67.8086 3.99209
20.9375 65.7658 2
21.8944 63.8383 0.0168677
22.8361 66.7362 0.012861
21.9104 68.8721 2
20.9142 71.1327 4
24.0083 69.805 0.0076127
23.1494 72.1455 2
25.446 73.0099 0
23.0963 12.7903 3.98076
23.9725 10.17 3.98238
25.0234 7.31286 3.98594
25.8598 9.38229 2
26.2794 4.3287 3.99184
27.0693 6.54184 2
27.8209 8.65409 0.016593
27.7943 1.27781 4
28.4872 3.64415 2
29.1549 5.87808 0.0124701
30.1841 0.720551 2
30.7255 3.09839 0.00736722
32.6053 0.320823 0
35.8431 35.8226 3.87342
37.4977 35.828 2
39.1593 35.8157 0.127223
24.7769 12.0746 2
23.7525 14.3625 2
22.4809 15.0398 3.97986
25.3579 13.9111 3.98005
24.0263 15.626 3.97987
26.6221 11.3912 0.0190601
29.2255 12.6459 0.0197568
27.2921 13.3784 2
29.7812 14.2064 2
28.358 15.982 3.97994
34.3164 34.2239 3.81884
35.8756 34.1672 2
37.5028 34.1256 0.140257
35.7445 32.3369 0.262028
37.5167 30.3021 0.192291
42.2973 28.4341 0.0865094
39.8378 28.9716 0.116434
40.036 27.5827 2
37.5205 28.6507 2
35.6541 30.4987 2
34.2136 32.6694 2
37.6013 27.311 3.92649
35.1893 28.9839 3.88317
34.0283 31.2364 3.81153
33.1374 33.0003 3.686
30.211 19.354 3.98257
30.9271 16.8465 2
31.9158 14.486 0.0217843
40.3528 25.6919 0.00194801
38.0682 22.9652 0.00316778
33.553 17.3961 0.0218019
35.5823 20.1002 0.0204702
32.8648 19.8111 2
35.1924 22.6982 2
37.7818 25.2553 2
32.3114 22.4499 3.99482
35.0043 25.2512 4.00332
34.162 37.5052 3.86242
35.8463 37.5016 2
37.4968 37.4963 0.08852
37.6446 50.9558 -0.00854989
36.8774 48.3065 0.0577865
35.8433 39.1832 0.126163
35.1644 46.0112 0.123738
34.0069 43.7709 0.18902
34.3069 40.7909 0.180047
33.1128 42.0071 0.314312
35.4932 50.1187 2
34.2402 39.1704 2
32.7638 40.8826 2
34.289 47.4205 2
32.5753 42.6661 2
33.1608 45.1647 2
33.2999 49.0959 3.99443
32.4374 39.2865 3.7514
31.4635 41.134 3.80883
31.5166 43.7253 3.87699
32.3255 46.3116 3.9166
34.3813 52.4582 0.00283666
32.046 51.1725 2
29.9279 49.6845 3.98885
30.5425 53.3548 0.0227472
28.4689 51.5689 2
26.5786 49.958 3.97102
26.9173 53.4267 0.0276432
25.1305 51.7252 2
23.4198 50.1678 3.96613
23.6126 53.4683 0.0361875
22.0259 51.7848 2
20.5416 50.2948 3.96575
18.0574 50.3142 3.96816
17.8824 52.7777 3.96313
19.2613 51.6182 2
17.4526 55.3292 3.96461
18.9461 54.2963 2
20.5078 53.2072 0.0385971
17.1407 57.8644 3.97168
18.456 56.7137 2
19.9473 55.8218 0.0306052
17.1379 60.5428 3.97532
18.3717 59.1035 2
19.4439 57.8808 0.0264214
17.4074 63.4666 3.98241
18.6191 61.7646 2
19.7081 60.2007 0.023031
17.9414 66.6172 3.99188
19.1264 64.6764 2
20.2071 62.8587 0.0189223
18.75 69.9759 4
19.8845 67.8086 2
20.9375 65.7649 0.0133714
21.9108 68.872 0.0078139
20.9142 71.1327 2
23.1494 72.1454 0
21.5874 13.6112 3.98027
22.1906 11.0298 3.98177
23.0967 12.7904 2
23.0412 8.17874 3.98536
23.9724 10.1696 2
24.117 5.14355 3.99146
25.0229 7.31238 2
25.86 9.38274 0.0172079
25.446 1.99014 4
26.2788 4.32859 2
27.0697 6.54231 0.0133155
27.7943 1.27778 2
28.4877 3.64439 0.00773142
30.1841 0.720592 0
34.2111 35.8286 3.85045
35.8546 35.8324 2
37.4989 35.8173 0.107044
21.3069 15.8361 3.98059
24.7768 12.0749 0.0188274
23.7519 14.3625 0.0198199
25.3584 13.9111 2
22.4818 15.0399 2
24.027 15.6263 2
23.2662 16.2584 3.97839
25.3819 16.0948 3.97991
27.2917 13.3787 0.0193326
29.7813 14.2068 0.0198831
28.3581 15.9825 2
27.443 18.8079 3.98191
32.7735 34.1291 3.73087
34.3345 34.2368 2
35.8662 34.1497 0.158683
34.2203 32.6678 0.280442
35.6754 30.5274 0.178596
37.5224 28.6758 0.122902
40.0267 27.6064 0.0886157
37.6027 27.2801 2
33.1225 32.9893 2
35.1822 28.9506 2
33.9918 31.1989 2
35.0836 27.442 3.92709
33.1927 29.8671 3.87741
32.6296 32.3595 3.8058
29.5887 21.9498 3.99569
30.2122 19.3573 2
30.9278 16.8463 0.0225126
37.792 25.2752 -0.00528508
35.1946 22.7052 0.00931841
32.8643 19.8052 0.0182375
32.3107 22.4476 2
35.0205 25.2432 2
31.7633 25.6707 4.00767
32.3157 37.5073 3.7598
34.1867 37.5078 2
35.8322 37.5018 0.109564
35.4982 50.1009 0.00426275
34.3021 47.3849 0.0818879
34.2164 39.1818 0.146165
33.1778 45.1416 0.118822
32.6086 42.6414 0.181758
32.7537 40.8791 0.26724
33.2953 49.0894 2
32.4523 39.2846 2
31.4402 41.1547 2
32.2938 46.3382 2
31.4894 43.7509 2
31.2383 47.9309 3.98991
30.713 39.4206 3.80771
30.1895 41.9505 3.86983
30.5398 44.9037 3.93599
32.0478 51.1643 -0.00114824
29.9252 49.6832 2
27.9795 48.1467 3.96701
28.4703 51.5698 0.0225794
26.5773 49.9566 2
24.7545 48.4375 3.97271
25.1319 51.7271 0.0397839
23.4189 50.1662 2
21.7714 48.7618 3.96943
22.0269 51.7855 0.0424857
20.54 50.294 2
19.1268 49.0724 3.97204
16.9622 49.3165 3.97228
16.8246 51.3936 3.96644
18.0584 50.3134 2
16.4112 53.8604 3.96463
17.8796 52.7775 2
19.2628 51.6187 0.0357254
15.9864 56.4651 3.96703
17.452 55.3295 2
18.9478 54.2966 0.0389565
15.7531 59.2036 3.97307
17.1404 57.8656 2
18.4567 56.7129 0.0274738
15.789 62.1346 3.97815
17.1381 60.5445 2
18.3719 59.1024 0.0270005
16.0885 65.2999 3.99087
17.4072 63.4679 2
18.619 61.7632 0.0230434
16.6661 68.6801 4
17.9407 66.6171 2
19.1265 64.6753 0.0145454
18.75 69.9759 2
19.885 67.8086 0.00791297
20.9142 71.1327 0
20.22 14.6008 3.97934
21.5879 13.6113 2
20.5299 12.0002 3.98109
21.144 9.14886 3.98491
22.1906 11.0297 2
23.0963 12.7903 0.0192393
22.016 6.08266 3.99115
23.0408 8.17828 2
23.9725 10.17 0.0176186
23.1494 2.85457 4
24.1162 5.14354 2
25.0234 7.31286 0.014064
25.446 1.99012 2
26.2794 4.3287 0.00815887
27.7943 1.27781 0
32.4406 35.7242 3.7441
34.2298 35.8413 2
35.8431 35.8226 0.126575
21.3079 15.836 2
20.3056 16.969 3.98192
22.0995 16.6426 3.97848
25.3579 13.9111 0.0199493
22.4809 15.0398 0.0201363
24.0263 15.626 0.0201308
25.3826 16.0952 2
23.2672 16.2587 2
24.2078 18.4623 3.97605
27.0289 21.4713 3.99129
28.358 15.982 0.0200635
27.4452 18.8084 2
31.4907 33.8793 3.80885
32.787 34.1258 2
34.3164 34.2239 0.18116
33.1374 33.0003 0.313998
34.0283 31.2364 0.188473
35.1893 28.9839 0.116825
37.6013 27.311 0.0735111
35.0628 27.4022 2
32.5671 32.3336 2
33.1759 29.8452 2
32.6228 28.1567 3.93804
31.5264 31.2877 3.87843
28.8663 24.4276 3.98061
29.5861 21.9556 2
30.211 19.354 0.0174286
35.0043 25.2512 -0.00332105
32.3114 22.4499 0.00517511
31.7643 25.6532 2
29.7415 27.3424 3.96269
30.3983 37.4991 3.81533
32.3282 37.5046 2
34.162 37.5052 0.137576
33.2999 49.0959 0.00557289
32.3255 46.3116 0.0834008
32.4374 39.2865 0.248597
31.5166 43.7253 0.123008
31.4635 41.134 0.19117
31.2367 47.9338 2
30.6863 39.4382 2
30.1662 41.9665 2
30.5309 44.9195 2
29.3231 46.5323 4.0008
29.2858 39.8545 3.88586
28.9019 43.1298 3.93696
29.9279 49.6845 0.0111507
27.9773 48.1431 2
26.0898 46.6181 3.9761
26.5786 49.958 0.0289818
24.7538 48.4359 2
22.9532 47.0429 3.97388
23.4198 50.1678 0.0338659
21.7708 48.7604 2
20.1008 47.5942 3.97701
20.5416 50.2948 0.0342463
19.1279 49.0714 2
17.754 48.1615 3.97595
16.2043 48.6698 3.97519
16.9635 49.3158 2
15.9002 50.1574 3.96964
15.4083 52.4056 3.96617
16.8243 51.3931 2
18.0574 50.3142 0.0318426
14.8802 54.9688 3.96658
16.4105 53.8605 2
17.8824 52.7777 0.0368664
14.4651 57.7316 3.96951
15.9862 56.4656 2
17.4526 55.3292 0.0353887
14.2678 60.6881 3.97681
15.7532 59.205 2
17.1407 57.8644 0.0283222
14.3335 63.8586 3.98821
15.7888 62.1359 2
17.1379 60.5428 0.0246761
14.6715 67.2507 4
16.0875 65.2994 2
17.4074 63.4666 0.0175925
16.6661 68.6801 2
17.9414 66.6172 0.00812259
18.75 69.9759 0
18.9345 15.7873 3.97984
20.2207 14.6008 2
18.9799 13.1116 3.98005
21.5874 13.6112 0.0197311
20.5302 12.0002 2
19.3431 10.237 3.98437
19.9906 7.14732 3.99096
21.1438 9.14862 2
22.1906 11.0298 0.0182335
20.9142 3.86727 4
22.0151 6.08284 2
23.0412 8.17874 0.0146376
23.1494 2.85451 2
24.117 5.14355 0.00853859
25.446 1.99014 0
30.732 35.5966 3.81102
32.4543 35.7245 2
34.2111 35.8286 0.149546
21.3069 15.8361 0.0194075
22.1006 16.6427 2
20.3067 16.9683 2
19.2512 18.4169 3.97717
21.7853 17.8595 3.98013
25.3819 16.0948 0.0200908
23.2662 16.2584 0.0216113
24.2094 18.4627 2
22.2921 19.9066 3.97268
24.6107 21.3407 3.9883
26.4752 23.7374 3.96953
27.0293 21.4707 2
27.443 18.8079 0.0180931
30.2204 33.0639 3.87988
31.4713 33.8447 2
32.7735 34.1291 0.269126
32.6296 32.3595 0.194203
33.1927 29.8671 0.12259
35.0836 27.442 0.072911
32.602 28.1394 2
31.4959 31.2575 2
30.2388 29.591 3.95414
27.9841 26.5643 3.98269
28.8627 24.44 2
29.5887 21.9498 0.00430836
31.7633 25.6707 -0.00767236
29.7394 27.3123 2
28.9314 37.5112 3.89202
30.387 37.4999 2
32.3157 37.5073 0.240196
31.2383 47.9309 0.0100915
30.5398 44.9037 0.0640137
30.713 39.4206 0.192294
30.1895 41.9505 0.130167
29.3221 46.5464 2
29.2596 39.8729 2
28.8748 43.1498 2
27.4777 44.8283 3.97824
27.0589 40.5852 3.96043
27.9795 48.1467 0.0329869
26.0857 46.6209 2
24.1902 45.1699 3.97614
24.7545 48.4375 0.027294
22.9532 47.0412 2
21.0734 45.8645 3.97853
21.7714 48.7618 0.0305722
20.1013 47.5931 2
18.4304 46.7173 3.97811
19.1268 49.0724 0.0279554
17.7549 48.1607 2
16.4075 47.6994 3.97637
16.2052 48.6693 2
15.2447 49.0037 3.97279
16.9622 49.3165 0.0277232
15.9013 50.1569 2
14.5219 50.9755 3.96799
13.8415 53.4281 3.96668
15.4089 52.4053 2
16.8246 51.3936 0.0335641
13.262 56.1603 3.96786
14.8804 54.9688 2
16.4112 53.8604 0.0353719
12.8514 59.1213 3.97485
14.4652 57.7325 2
15.9864 56.4651 0.0329715
12.6793 62.3008 3.98567
14.2677 60.689 2
15.7531 59.2036 0.026933
12.7746 65.6939 4
14.3321 63.8576 2
15.789 62.1346 0.0218493
14.6714 67.2507 2
16.0885 65.2999 0.00913281
16.6661 68.6801 0
17.6716 17.1634 3.97592
18.9352 15.7871 2
17.5117 14.3763 3.97912
20.22 14.6008 0.0206557
18.9804 13.1115 2
17.6387 11.4563 3.98332
20.5299 12.0002 0.0189074
19.3432 10.2368 2
18.0508 8.3401 3.99081
18.75 5.0241 4
19.9897 7.14783 2
21.144 9.14886 0.0150862
20.9142 3.86727 2
22.016 6.08266 0.00885217
23.1494 2.85457 0
29.3059 35.1403 3.88859
30.701 35.5739 2
32.4406 35.7242 0.255901
22.0995 16.6426 0.0215185
20.3056 16.969 0.0180833
21.7865 17.8594 2
19.2522 18.4159 2
17.9979 19.9503 3.97297
20.8881 19.39 3.97681
24.2078 18.4623 0.0239455
22.2929 19.9062 2
24.6112 21.3411 2
22.3863 21.7352 3.9775
24.7448 23.1819 3.97382
25.5688 25.9653 3.97372
26.4769 23.7374 2
27.0289 21.4713 0.00870547
28.6001 32.3678 3.93732
30.1935 33.0469 2
31.4907 33.8793 0.191154
31.5264 31.2877 0.121571
32.6228 28.1567 0.061958
30.2325 29.5903 2
27.1771 29.1495 4.00505
27.9795 26.5736 2
28.8663 24.4276 0.0193928
29.7415 27.3424 0.0373069
27.1772 37.3655 3.94039
28.8896 37.5053 2
30.3983 37.4991 0.184668
29.3231 46.5323 -0.000802274
28.9019 43.1298 0.0630417
29.2858 39.8545 0.114137
27.4726 44.848 2
27.0423 40.5997 2
25.4972 43.1417 3.98622
24.3127 39.4478 3.97723
26.0898 46.6181 0.0239018
24.1844 45.1688 2
22.08 43.917 3.97858
22.9532 47.0429 0.0261172
21.0722 45.8634 2
19.1214 44.9478 3.97829
20.1008 47.5942 0.0229869
18.4314 46.7164 2
16.717 46.1978 3.977
17.754 48.1615 0.0240522
16.4083 47.6988 2
14.9873 47.6586 3.97441
16.2043 48.6698 0.0248079
15.2458 49.0032 2
13.8202 49.5375 3.96972
15.9002 50.1574 0.0303631
14.5228 50.9752 2
12.9105 51.8687 3.96732
12.1488 54.522 3.96858
13.8416 53.4281 2
15.4083 52.4056 0.0338325
11.5374 57.4537 3.97278
13.2623 56.1605 2
14.8802 54.9688 0.0334173
11.1342 60.6265 3.98346
12.8516 59.1216 2
14.4651 57.7316 0.0304857
10.9835 64.0165 4
12.6778 62.2989 2
14.2678 60.6881 0.0231894
12.7745 65.694 2
14.3335 63.8586 0.0117909
14.6715 67.2507 0
16.41 18.6606 3.97075
17.6722 17.1627 2
16.1036 15.7859 3.97799
18.9345 15.7873 0.0201606
17.5123 14.3757 2
16.0205 12.8103 3.98149
18.9799 13.1116 0.019945
17.6389 11.456 2
16.202 9.66306 3.9905
19.3431 10.237 0.0156306
18.0498 8.3409 2
16.6661 6.31991 4
18.75 5.02404 2
19.9906 7.14732 0.00903587
20.9142 3.86727 0
27.7028 34.7898 3.93375
29.2793 35.1173 2
30.732 35.5966 0.18898
16.7106 21.3871 3.96081
21.7853 17.8595 0.0198699
19.2512 18.4169 0.0228334
20.889 19.3892 2
17.9988 19.949 2
19.7532 21.5872 3.97444
22.2921 19.9066 0.027323
24.6107 21.3407 0.0116978
22.3868 21.7351 2
24.7455 23.1817 2
22.9209 24.6165 3.97144
24.7181 28.5444 3.97754
25.5671 25.9646 2
26.4752 23.7374 0.0304658
26.4449 31.7286 3.98568
28.5716 32.3477 2
30.2204 33.0639 0.120124
30.2388 29.591 0.0458596
27.1973 29.1371 2
27.9841 26.5643 0.0173102
25.0052 36.8601 3.98584
27.1544 37.3591 2
28.9314 37.5112 0.107984
27.4777 44.8283 0.0217639
27.0589 40.5852 0.039575
25.4834 43.1505 2
24.2975 39.4459 2
23.2079 41.8077 3.98007
22.0313 38.5163 3.9779
24.1902 45.1699 0.0238611
22.078 43.9173 2
19.9282 42.8751 3.97746
21.0734 45.8645 0.021473
19.121 44.9475 2
17.0778 44.3644 3.977
18.4304 46.7173 0.0218884
16.718 46.1972 2
14.9246 46.0794 3.97495
16.4075 47.6994 0.0236344
14.9883 47.6582 2
13.3334 48.0005 3.97106
15.2447 49.0037 0.0272116
13.821 49.5372 2
12.1292 50.2482 3.96788
14.5219 50.9755 0.0320148
12.9108 51.8686 2
11.1437 52.8333 3.96865
10.328 55.7079 3.9729
12.1493 54.522 2
13.8415 53.4281 0.0333195
9.70118 58.8486 3.98135
11.5376 57.4537 2
13.262 56.1603 0.0321413
9.30605 62.2254 4
11.1327 60.624 2
12.8514 59.1213 0.0251484
10.9835 64.0165 2
12.6793 62.3008 0.014331
12.7746 65.6939 0
15.1614 20.1961 3.9665
16.4106 18.6598 2
14.7523 17.3105 3.97291
17.6716 17.1634 0.0240772
16.1042 15.7849 2
14.4833 14.2931 3.97983
17.5117 14.3763 0.0208763
16.0207 12.8096 2
14.4448 11.1142 3.9897
17.6387 11.4563 0.0166838
16.201 9.66411 2
14.6715 7.74927 4
18.0508 8.3401 0.00918549
16.6661 6.31988 2
18.75 5.0241 0
25.6601 34.2747 3.99144
27.6818 34.7865 2
29.3059 35.1403 0.111409
17.8962 22.3384 3.97121
15.5502 22.9284 3.96679
16.7113 21.3866 2
20.8881 19.39 0.023188
17.9979 19.9503 0.0270266
19.7538 21.5864 2
19.7424 24.3966 3.96941
22.3863 21.7352 0.022504
24.7448 23.1819 0.0261783
22.9209 24.6165 2
22.0864 27.8454 3.97183
24.0022 31.2119 3.97596
24.7319 28.5458 2
25.5688 25.9653 0.0262759
26.4319 31.7075 2
28.6001 32.3678 0.062681
27.1771 29.1495 -0.00504728
22.7567 36.2863 3.98195
24.9835 36.8553 2
27.1772 37.3655 0.0596057
25.4972 43.1417 0.0137837
24.3127 39.4478 0.0227661
23.1998 41.8059 2
22.0234 38.5144 2
20.9417 40.64 3.97619
20.3438 37.8002 3.97733
22.08 43.917 0.0214209
19.9272 42.8749 2
17.5277 42.0846 3.97718
19.1214 44.9478 0.0217059
17.0789 44.3639 2
14.9514 44.1904 3.97545
16.717 46.1978 0.0230006
14.9255 46.0791 2
13.0172 46.2878 3.97166
14.9873 47.6586 0.025589
13.3341 48.0003 2
11.5025 48.5456 3.96822
13.8202 49.5375 0.0302809
12.1297 50.2481 2
10.2691 51.0782 3.96848
12.9105 51.8687 0.032682
11.1442 52.8332 2
9.23655 53.8879 3.97288
8.38469 56.9815 3.98142
10.3284 55.7074 2
12.1488 54.522 0.0314229
7.74927 60.3285 4
9.69998 58.8454 2
11.5374 57.4537 0.0272158
9.306 62.2255 2
11.1342 60.6265 0.0165377
10.9835 64.0165 0
13.9735 21.7593 3.96686
15.1622 20.1956 2
13.4574 18.9105 3.96826
16.41 18.6606 0.0292475
14.7529 17.3092 2
13.0297 15.8871 3.97768
16.1036 15.7859 0.0220084
14.4835 14.292 2
12.7824 12.6878 3.98812
16.0205 12.8103 0.0185117
14.4438 11.1155 2
12.7746 9.30605 4
16.202 9.66306 0.00949697
14.6715 7.74924 2
16.6661 6.31991 0
23.336 33.8189 3.98271
25.6405 34.2675 2
27.7028 34.7898 0.0662493
17.6876 24.0563 3.97095
17.8968 22.3379 2
14.3565 24.4603 3.9696
15.551 22.9281 2
16.7106 21.3871 0.0391869
19.1812 27.2224 3.97105
19.7532 21.5872 0.0255636
19.7419 24.3963 2
21.389 30.6858 3.97411
22.9209 24.6165 0.0285645
22.095 27.8465 2
23.9876 31.2113 2
24.7181 28.5444 0.02246
26.4449 31.7286 0.0143225
20.4648 35.9429 3.97723
22.7527 36.2802 2
25.0052 36.8601 0.0141621
23.2079 41.8077 0.0199274
22.0313 38.5163 0.0221022
20.9467 40.6401 2
20.3472 37.7996 2
18.2696 39.0057 3.97758
19.9282 42.8751 0.0225353
17.5296 42.084 2
14.927 41.9111 3.97642
17.0778 44.3644 0.0230011
14.9528 44.1901 2
12.7722 44.3848 3.97205
14.9246 46.0794 0.0250498
13.0179 46.2876 2
11.0077 46.7296 3.9685
13.3334 48.0005 0.0289418
11.503 48.5455 2
9.53209 49.2386 3.96817
12.1292 50.2482 0.0321163
10.2695 51.078 2
8.2694 52.0017 3.9724
11.1437 52.8333 0.0313509
9.237 53.8873 2
7.19356 55.0323 3.98238
6.31991 58.3339 4
8.38385 56.9782 2
10.328 55.7079 0.0271011
7.74924 60.3285 2
9.70118 58.8486 0.0186545
9.30605 62.2254 0
13.2605 25.3699 3.97157
12.8444 23.287 3.96696
13.9745 21.7591 2
12.2443 20.5574 3.96858
15.1614 20.1961 0.033502
13.4583 18.9096 2
11.6618 17.5696 3.97388
14.7523 17.3105 0.0270889
13.0301 15.886 2
11.2201 14.3733 3.98563
14.4833 14.2931 0.0201729
12.7811 12.6893 2
10.9835 10.9835 4
14.4448 11.1142 0.0102985
12.7745 9.306 2
14.6715 7.74927 0
20.8226 33.4164 3.97568
23.3423 33.8252 2
25.6601 34.2747 0.00856325
16.001 26.4154 3.97159
17.6879 24.056 2
17.8962 22.3384 0.0287896
14.3567 24.4602 2
15.5502 22.9284 0.0332148
18.5462 30.1911 3.97454
19.1817 27.2226 2
19.7424 24.3966 0.0305891
21.397 30.6869 2
22.0864 27.8454 0.0281719
24.0022 31.2119 0.0240355
17.8837 35.9764 3.9779
20.4631 35.9434 2
22.7567 36.2863 0.0180492
20.9417 40.64 0.0238095
20.3438 37.8002 0.0226695
18.2714 39.006 2
14.4376 39.1744 3.9774
17.5277 42.0846 0.0228222
14.9287 41.9109 2
12.4747 42.2709 3.97213
14.9514 44.1904 0.0245451
12.7729 44.3846 2
10.591 44.7985 3.96897
13.0172 46.2878 0.0283407
11.008 46.7295 2
8.91421 47.318 3.96786
11.5025 48.5456 0.0317843
9.53232 49.2385 2
7.43631 50.0352 3.97187
10.2691 51.0782 0.0315175
8.26976 52.0011 2
6.13419 53.0074 3.9828
9.23655 53.8879 0.0271197
7.19303 55.0295 2
5.0241 56.25 4
6.31988 58.3339 2
8.38469 56.9815 0.0185794
7.74927 60.3285 0
13.5218 26.8235 3.97098
11.9519 24.7925 3.96875
13.2603 25.3698 2
11.1461 22.2387 3.96846
12.8446 23.2867 2
13.9735 21.7593 0.0331385
12.2454 20.557 2
10.3934 19.3238 3.97256
13.4574 18.9105 0.0317444
11.6625 17.569 2
9.7615 16.1577 3.98244
13.0297 15.8871 0.022316
11.2187 14.3754 2
9.30607 12.7746 4
12.7824 12.6878 0.0118757
10.9835 10.9835 2
12.7746 9.30605 0
18.0549 33.1264 3.97686
20.8268 33.4165 2
23.336 33.8189 0.0172896
15.6175 29.6504 3.97355
16.0014 26.4155 2
17.6876 24.0563 0.0290486
14.3565 24.4603 0.0303987
18.5451 30.1912 2
19.1812 27.2224 0.0289493
21.389 30.6858 0.0258906
15.0584 36.0231 3.97751
17.8866 35.9767 2
20.4648 35.9429 0.0227675
12.6954 37.8295 3.97563
18.2696 39.0057 0.0224195
14.4387 39.1744 2
11.9911 40.137 3.97296
14.927 41.9111 0.0235794
12.4753 42.2708 2
10.2001 42.7743 3.96912
12.7722 44.3848 0.0279462
10.5912 44.7984 2
8.39207 45.32 3.96765
11.0077 46.7296 0.0314964
8.91431 47.3179 2
6.72757 48.0004 3.97138
9.53209 49.2386 0.0318294
7.4365 50.0347 2
5.21102 50.9107 3.98258
8.2694 52.0017 0.0275968
6.13393 53.0055 2
3.86727 54.0858 4
7.19356 55.0323 0.0176217
5.02404 56.25 2
6.31991 58.3339 0
12.993 29.0417 3.97064
11.3915 26.4923 3.96888
13.5214 26.8234 2
10.2038 23.9699 3.96878
11.9526 24.7924 2
13.2605 25.3699 0.0284261
9.24544 21.1406 3.97263
11.1471 22.2385 2
12.8444 23.287 0.0330368
12.2443 20.5574 0.031418
10.3944 19.3238 2
8.41767 18.0293 3.98105
11.6618 17.5696 0.0261201
9.76035 16.1607 2
7.74928 14.6715 4
11.2201 14.3733 0.01437
9.30602 12.7745 2
10.9835 10.9835 0
14.6174 32.8716 3.97565
18.0568 33.1268 2
20.8226 33.4164 0.024321
15.6179 29.6506 2
16.001 26.4154 0.028406
18.5462 30.1911 0.0254584
12.9935 36.2116 3.97442
15.0601 36.0234 2
17.8837 35.9764 0.0221025
12.6962 37.8295 2
11.3333 38.3087 3.97385
14.4376 39.1744 0.0226023
11.9923 40.1368 2
9.79005 40.7517 3.96985
12.4747 42.2709 0.0278706
10.2007 42.7741 2
7.94118 43.2689 3.96765
10.591 44.7985 0.0310264
8.39217 45.3198 2
6.13386 45.9055 3.97084
8.91421 47.318 0.0321426
6.72765 48.0001 2
4.42258 48.7515 3.98199
7.43631 50.0352 0.0281332
5.2109 50.9098 2
2.85457 51.8506 4
6.13419 53.0074 0.0171961
3.86727 54.0858 2
5.0241 56.25 0
12.1398 31.2636 3.97193
10.8121 28.4199 3.96892
12.9936 29.0418 2
9.41824 25.7995 3.96848
11.3916 26.4922 2
13.5218 26.8235 0.0290185
8.232 23.024 3.97248
10.2044 23.9698 2
11.9519 24.7925 0.0312477
7.19968 19.9791 3.98169
9.24637 21.1408 2
11.1461 22.2387 0.0315377
10.3934 19.3238 0.0274403
8.41708 18.0326 2
6.31992 16.6661 4
9.7615 16.1577 0.0175584
7.74926 14.6714 2
9.30607 12.7746 0
12.1682 34.2988 3.97476
14.6183 32.8719 2
18.0549 33.1264 0.0231361
15.6175 29.6504 0.0264475
10.8955 36.6119 3.97315
12.9941 36.2116 2
15.0584 36.0231 0.0224867
12.6954 37.8295 0.0243746
11.3341 38.3086 2
9.38019 38.8222 3.97029
11.9911 40.137 0.0270404
9.79058 40.7516 2
7.55224 41.2106 3.96794
10.2001 42.7743 0.0308754
7.94119 43.2688 2
5.64591 43.7683 3.97062
8.39207 45.32 0.0323516
6.13396 45.9051 2
3.76823 46.5371 3.98139
6.72757 48.0004 0.0286229
4.42259 48.751 2
1.99014 49.554 4
5.21102 50.9107 0.017423
2.85451 51.8506 2
3.86727 54.0858 0
10.9778 32.9235 3.97348
10.131 30.3865 3.96925
12.1406 31.2637 2
8.72628 27.733 3.9681
10.8123 28.4199 2
12.993 29.0417 0.029359
7.35743 24.9827 3.97185
9.41852 25.7994 2
11.3915 26.4923 0.0311244
6.1165 22.0024 3.98266
8.23265 23.0243 2
10.2038 23.9699 0.0312241
5.02411 18.75 4
7.19945 19.9818 2
9.24544 21.1406 0.0273687
8.41767 18.0293 0.0189481
6.3199 16.6661 2
7.74928 14.6715 0
10.4995 35.0022 3.97279
12.1691 34.2989 2
14.6174 32.8716 0.0243534
9.04717 36.9849 3.97068
10.8967 36.6118 2
12.9935 36.2116 0.0255777
11.3333 38.3087 0.0261471
9.38097 38.8221 2
7.23257 39.1817 3.96827
9.79005 40.7517 0.0301495
7.5525 41.2104 2
5.26119 41.6139 3.97031
7.94118 43.2689 0.0323467
5.64592 43.768 2
3.24602 44.2819 3.9812
6.13386 45.9055 0.0291553
3.76837 46.5369 2
1.27781 47.2057 4
4.42258 48.7515 0.018014
1.99012 49.554 2
2.85457 51.8506 0
10.1358 33.8843 3.97318
9.41693 32.1576 3.97002
10.9785 32.9236 2
8.07517 29.6964 3.96811
10.1314 30.3866 2
12.1398 31.2636 0.0280711
6.60131 27.0087 3.97121
8.72629 27.7329 2
10.8121 28.4199 0.0310806
5.17186 24.095 3.9827
7.35775 24.9829 2
9.41824 25.7995 0.0315223
3.86728 20.9142 4
6.11644 22.004 2
8.232 23.024 0.0275207
5.02406 18.75 2
7.19968 19.9791 0.0183117
6.31992 16.6661 0
8.87034 35.2805 3.97094
10.5001 35.0022 2
12.1682 34.2988 0.0252438
7.01599 37.2059 3.96852
9.04751 36.9848 2
10.8955 36.6119 0.026854
9.38019 38.8222 0.0297057
7.23283 39.1816 2
4.98895 39.4672 3.97039
7.55224 41.2106 0.0320611
5.26143 41.6136 2
2.85653 42.0022 3.98105
5.64591 43.7683 0.0293839
3.24608 44.2818 2
0.720592 44.8159 4
3.76823 46.5371 0.0186143
1.27778 47.2057 2
1.99014 49.554 0
8.90836 33.6997 3.97079
10.1364 33.8843 2
7.51245 31.6098 3.96839
9.4174 32.1576 2
10.9778 32.9235 0.0265238
5.94642 29.0697 3.97113
8.07512 29.6964 2
10.131 30.3865 0.0307483
4.35965 26.2475 3.98199
6.60137 27.0089 2
8.72628 27.733 0.0319005
2.85458 23.1494 4
5.17188 24.0957 2
7.35743 24.9827 0.028147
3.86728 20.9142 2
6.1165 22.0024 0.0173361
5.02411 18.75 0
6.966 35.3063 3.96868
8.87093 35.2804 2
10.4995 35.0022 0.0272072
4.83887 37.3397 3.9711
7.01605 37.2058 2
9.04717 36.9849 0.0293246
7.23257 39.1817 0.031732
4.98922 39.467 2
2.60465 39.7139 3.9808
5.26119 41.6139 0.0296859
2.85678 42.0023 2
0.320823 42.3947 4
3.24602 44.2819 0.0187995
0.720551 44.8159 2
1.27781 47.2057 0
7.126 33.4613 3.96871
8.90867 33.6997 2
10.1358 33.8843 0.0268248
5.41719 31.1336 3.97126
7.51249 31.6099 2
9.41693 32.1576 0.0299782
3.68138 28.4434 3.98149
5.94639 29.0699 2
8.07517 29.6964 0.0318899
1.99015 25.446 4
4.35969 26.2476 2
6.60131 27.0087 0.0287904
2.85453 23.1494 2
5.17186 24.095 0.0173025
3.86728 20.9142 0
4.85307 35.2515 3.9714
6.96632 35.3063 2
8.87034 35.2805 0.0290625
2.49599 37.4285 3.9815
4.8389 37.3397 2
7.01599 37.2059 0.0314776
4.98895 39.4672 0.0296091
2.60495 39.7143 2
0.080333 39.9526 4
2.85653 42.0022 0.0189513
0.320817 42.3947 2
0.720592 44.8159 0
5.04646 33.1902 3.97148
7.12611 33.4614 2
8.90836 33.6997 0.0292097
3.14567 30.6661 3.98129
5.41721 31.1339 2
7.51245 31.6098 0.0316132
1.27793 27.7943 4
3.68147 28.4435 2
5.94642 29.0697 0.0288718
1.99013 25.446 2
4.35965 26.2475 0.0180124
2.85458 23.1494 0
2.54807 35.159 3.98152
4.85339 35.2517 2
6.966 35.3063 0.0313243
0 37.5 4
2.49605 37.4289 2
4.83887 37.3397 0.0288993
2.60465 39.7139 0.019204
0.0802903 39.9526 2
0.320823 42.3947 0
2.76568 32.9057 3.98161
5.04656 33.1904 2
7.126 33.4613 0.0312906
0.721173 30.1842 4
3.14581 30.6665 2
5.41719 31.1336 0.0287377
1.27779 27.7943 2
3.68138 28.4434 0.018512
1.99015 25.446 0
0.0806499 35.0474 4
2.54843 35.1594 2
4.85307 35.2515 0.028603
0 37.5 2
2.49599 37.4285 0.0184981
0.080333 39.9526 0
0.32156 32.6054 4
2.76578 32.9062 2
5.04646 33.1902 0.0285167
0.72056 30.1841 2
3.14567 30.6661 0.0187076
1.27793 27.7943 0
0.0802889 35.0474 2
2.54807 35.159 0.0184771
0 37.5 0
0.320817 32.6053 2
2.76568 32.9057 0.0183894
0.721173 30.1842 0
0.0806499 35.0474 0
0.32156 32.6054 0
CELLS 1910 17190
8 18 6 25 56 2 0 5 16
8 57 23 6 18 17 4 0 2
8 78 36 9 29 31 11 1 7
8 31 11 1 7 79 37 10 30
8 110 57 18 50 48 17 2 14
8 50 18 56 111 14 2 16 49
8 116 62 22 55 52 20 3 15
8 56 25 67 118 16 5 24 53
8 119 63 23 57 54 21 4 17
8 55 22 63 119 15 3 21 54
8 58 26 68 121 18 6 25 56
8 122 65 26 58 57 23 6 18
8 73 31 7 27 142 79 30 71
8 143 78 29 72 73 31 7 27
8 83 147 76 34 32 74 28 8
8 84 148 78 36 33 75 29 9
8 76 34 8 28 148 84 33 75
8 37 79 150 86 10 30 77 35
8 151 87 36 78 80 38 11 31
8 80 38 11 31 152 88 37 79
8 175 100 42 94 96 44 12 40
8 44 96 176 101 12 40 95 43
8 101 176 98 46 43 95 41 13
8 46 98 178 103 13 41 97 45
8 178 103 45 97 147 83 32 74
8 189 116 55 109 106 52 15 47
8 111 56 118 191 49 16 53 107
8 192 119 57 110 108 54 17 48
8 109 55 119 192 47 15 54 108
8 194 122 58 112 110 57 18 50
8 112 58 121 195 50 18 56 111
8 115 61 19 51 197 124 59 113
8 115 61 125 198 51 19 60 114
8 198 125 62 116 114 60 20 52
8 200 127 64 120 116 62 22 55
8 118 67 132 202 53 24 66 117
8 121 68 133 203 56 25 67 118
8 120 64 128 204 55 22 63 119
8 204 128 65 122 119 63 23 57
8 206 134 68 121 123 69 26 58
8 123 69 26 58 207 131 65 122
8 226 147 74 138 140 76 28 70
8 229 148 75 139 143 78 29 72
8 140 76 28 70 229 148 75 139
8 142 79 30 71 231 150 77 141
8 144 80 31 73 232 152 79 142
8 233 151 78 143 144 80 31 73
8 150 86 35 77 235 154 81 145
8 235 154 81 145 146 82 39 91
8 146 82 39 91 236 155 90 165
8 238 157 83 147 149 85 34 76
8 239 158 84 148 151 87 36 78
8 149 85 34 76 239 158 84 148
8 152 88 37 79 241 160 86 150
8 242 161 87 151 153 89 38 80
8 153 89 38 80 243 162 88 152
8 171 98 41 92 265 178 97 169
8 265 178 97 169 226 147 74 138
8 172 96 40 93 266 176 95 170
8 266 176 95 170 171 98 41 92
8 269 175 94 173 172 96 40 93
8 271 180 99 174 175 100 42 94
8 197 124 59 113 271 180 99 174
8 272 181 100 175 177 102 44 96
8 273 182 101 176 179 104 46 98
8 177 102 44 96 273 182 101 176
8 179 104 46 98 275 184 103 178
8 275 184 103 178 238 157 83 147
8 188 115 51 105 283 197 113 186
8 188 115 198 284 105 51 114 187
8 284 198 116 189 187 114 52 106
8 286 200 120 193 189 116 55 109
8 191 118 202 288 107 53 117 190
8 195 121 203 289 111 56 118 191
8 193 120 204 290 109 55 119 192
8 290 204 122 194 192 119 57 110
8 196 123 58 112 292 207 122 194
8 293 206 121 195 196 123 58 112
8 199 126 61 115 297 211 124 197
8 298 212 127 200 198 125 62 116
8 199 126 212 298 115 61 125 198
8 205 129 64 120 300 214 127 200
8 301 217 130 201 202 132 66 117
8 209 136 168 264 301 217 130 201
8 302 219 132 202 203 133 67 118
8 303 220 133 203 206 134 68 121
8 205 129 215 304 120 64 128 204
8 304 215 131 207 204 128 65 122
8 306 221 134 206 208 135 69 123
8 208 135 69 123 307 218 131 207
8 210 137 167 263 309 223 136 209
8 328 238 147 226 230 149 76 140
8 228 146 91 166 329 236 165 260
8 231 150 77 141 330 235 145 227
8 330 235 145 227 228 146 91 166
8 332 239 148 229 233 151 78 143
8 230 149 76 140 332 239 148 229
8 232 152 79 142 334 241 150 231
8 234 153 80 144 335 243 152 232
8 336 242 151 233 234 153 80 144
8 236 155 90 165 338 245 164 259
8 241 160 86 150 339 246 154 235
8 339 246 154 235 237 156 82 146
8 237 156 82 146 340 247 155 236
8 342 249 157 238 240 159 85 149
8 343 250 158 239 242 161 87 151
8 240 159 85 149 343 250 158 239
8 243 162 88 152 345 252 160 241
8 244 163 253 346 153 89 161 242
8 244 163 89 153 347 254 162 243
8 311 224 261 371 210 137 167 263
8 263 167 262 372 209 136 168 264
8 267 179 98 171 375 275 178 265
8 375 275 178 265 328 238 147 226
8 376 273 176 266 267 179 98 171
8 268 177 96 172 376 273 176 266
8 379 272 175 269 268 177 96 172
8 380 271 174 270 269 175 94 173
8 283 197 113 186 380 271 174 270
8 381 277 180 271 272 181 100 175
8 297 211 124 197 381 277 180 271
8 382 278 181 272 274 183 102 177
8 274 183 102 177 383 279 182 273
8 383 279 182 273 276 185 104 179
8 385 281 184 275 342 249 157 238
8 276 185 104 179 385 281 184 275
8 285 199 115 188 393 297 197 283
8 394 298 200 286 284 198 116 189
8 285 199 298 394 188 115 198 284
8 291 205 120 193 396 300 200 286
8 397 301 201 287 288 202 117 190
8 295 209 264 374 397 301 201 287
8 398 302 202 288 289 203 118 191
8 399 303 203 289 293 206 121 195
8 291 205 304 400 193 120 204 290
8 400 304 207 292 290 204 122 194
8 294 208 123 196 402 307 207 292
8 403 306 206 293 294 208 123 196
8 296 210 263 373 405 309 209 295
8 408 312 213 299 297 211 126 199
8 299 213 313 409 199 126 212 298
8 409 313 214 300 298 212 127 200
8 305 216 129 205 411 315 214 300
8 412 318 217 301 302 219 132 202
8 309 223 136 209 412 318 217 301
8 413 320 219 302 303 220 133 203
8 306 221 321 414 206 134 220 303
8 307 218 131 207 415 316 215 304
8 305 216 316 415 205 129 215 304
8 417 322 221 306 308 222 135 208
8 308 222 135 208 418 319 218 307
8 310 225 137 210 420 325 223 309
8 423 326 224 311 310 225 137 210
8 329 236 165 260 441 338 259 368
8 442 342 238 328 333 240 149 230
8 331 237 146 228 443 340 236 329
8 334 241 150 231 444 339 235 330
8 444 339 235 330 331 237 146 228
8 446 343 239 332 336 242 151 233
8 333 240 149 230 446 343 239 332
8 335 243 152 232 448 345 241 334
8 337 244 153 234 449 347 243 335
8 337 244 346 450 234 153 242 336
8 338 245 164 259 452 349 258 367
8 340 247 155 236 453 350 245 338
8 345 252 160 241 454 351 246 339
8 454 351 246 339 341 248 156 237
8 341 248 156 237 455 352 247 340
8 240 159 251 344 342 249 354 457
8 242 161 253 346 343 250 355 458
8 343 250 355 458 240 159 251 344
8 347 254 162 243 460 357 252 345
8 348 255 358 461 244 163 253 346
8 348 255 163 244 462 359 254 347
8 473 360 257 365 363 256 364 482
8 452 349 258 367 365 257 366 485
8 422 324 369 488 311 224 261 371
8 371 261 370 490 263 167 262 372
8 407 311 371 491 296 210 263 373
8 373 263 372 492 295 209 264 374
8 493 385 275 375 442 342 238 328
8 377 276 179 267 493 385 275 375
8 378 274 177 268 494 383 273 376
8 494 383 273 376 377 276 179 267
8 497 382 272 379 378 274 177 268
8 498 381 271 380 379 272 175 269
8 393 297 197 283 498 381 271 380
8 499 387 277 381 382 278 181 272
8 408 312 211 297 499 387 277 381
8 500 388 278 382 384 280 183 274
8 501 389 279 383 386 282 185 276
8 384 280 183 274 501 389 279 383
8 386 282 185 276 503 391 281 385
8 503 391 281 385 457 354 249 342
8 511 408 299 395 393 297 199 285
8 395 299 409 512 285 199 298 394
8 512 409 300 396 394 298 200 286
8 401 305 205 291 514 411 300 396
8 515 412 301 397 398 302 202 288
8 405 309 209 295 515 412 301 397
8 516 413 302 398 399 303 203 289
8 403 306 414 517 293 206 303 399
8 402 307 207 292 518 415 304 400
8 401 305 415 518 291 205 304 400
8 404 308 208 294 520 418 307 402
8 521 417 306 403 404 308 208 294
8 406 310 210 296 523 420 309 405
8 526 423 311 407 406 310 210 296
8 410 314 213 299 527 424 312 408
8 528 425 315 411 409 313 214 300
8 410 314 425 528 299 213 313 409
8 416 317 216 305 530 427 315 411
8 531 430 318 412 413 320 219 302
8 420 325 223 309 531 430 318 412
8 532 432 320 413 414 321 220 303
8 417 322 433 533 306 221 321 414
8 418 319 218 307 534 428 316 415
8 416 317 428 534 305 216 316 415
8 419 323 434 536 308 222 322 417
8 419 323 222 308 537 431 319 418
8 421 327 225 310 539 438 325 420
8 421 327 439 541 310 225 326 423
8 543 437 324 422 423 326 224 311
8 441 338 259 368 559 452 367 486
8 443 340 236 329 560 453 338 441
8 333 240 344 447 442 342 457 561
8 445 341 237 331 562 455 340 443
8 448 345 241 334 563 454 339 444
8 563 454 339 444 445 341 237 331
8 336 242 346 450 446 343 458 565
8 446 343 458 565 333 240 344 447
8 449 347 243 335 567 460 345 448
8 451 348 244 337 568 462 347 449
8 451 348 461 569 337 244 346 450
8 570 463 349 452 473 360 257 365
8 453 350 245 338 570 463 349 452
8 455 352 247 340 571 464 350 453
8 460 357 252 345 572 465 351 454
8 572 465 351 454 456 353 248 341
8 456 353 248 341 573 466 352 455
8 344 251 356 459 457 354 468 575
8 458 355 469 576 344 251 356 459
8 346 253 358 461 458 355 469 576
8 462 359 254 347 578 471 357 460
8 348 255 359 462 461 358 472 579
8 591 474 360 473 475 361 256 363
8 475 361 256 363 594 477 362 479
8 363 256 364 482 479 362 480 603
8 590 473 365 484 481 363 482 605
8 482 364 257 365 606 483 366 485
8 559 452 367 486 484 365 485 607
8 542 436 487 609 422 324 369 488
8 525 422 488 611 407 311 371 491
8 488 369 489 612 371 261 370 490
8 491 371 490 613 373 263 372 492
8 495 386 276 377 614 503 385 493
8 614 503 385 493 561 457 342 442
8 615 501 383 494 495 386 276 377
8 496 384 274 378 615 501 383 494
8 618 500 382 497 496 384 274 378
8 619 499 381 498 497 382 272 379
8 511 408 297 393 619 499 381 498
8 620 505 387 499 500 388 278 382
8 527 424 312 408 620 505 387 499
8 502 390 506 621 384 280 388 500
8 622 507 389 501 504 392 282 386
8 502 390 280 384 622 507 389 501
8 504 392 282 386 624 509 391 503
8 624 509 391 503 575 468 354 457
8 513 410 299 395 630 527 408 511
8 631 528 411 514 512 409 300 396
8 513 410 528 631 395 299 409 512
8 519 416 305 401 633 530 411 514
8 634 531 412 515 516 413 302 398
8 523 420 309 405 634 531 412 515
8 635 532 413 516 517 414 303 399
8 521 417 533 636 403 306 414 517
8 520 418 307 402 637 534 415 518
8 519 416 534 637 401 305 415 518
8 522 419 308 404 639 537 418 520
8 522 419 536 640 404 308 417 521
8 524 421 310 406 642 539 420 523
8 524 421 541 644 406 310 423 526
8 646 543 422 525 526 423 311 407
8 529 426 314 410 647 544 424 527
8 528 425 545 648 411 315 427 530
8 529 426 545 648 410 314 425 528
8 535 429 317 416 649 546 427 530
8 650 548 430 531 532 432 320 413
8 539 438 325 420 650 548 430 531
8 533 433 550 651 414 321 432 532
8 536 434 551 652 417 322 433 533
8 537 431 319 418 653 547 428 534
8 535 429 547 653 416 317 428 534
8 538 435 552 654 419 323 434 536
8 538 435 323 419 655 549 431 537
8 540 440 327 421 657 556 438 539
8 540 440 557 659 421 327 439 541
8 541 439 555 660 423 326 437 543
8 661 554 436 542 543 437 324 422
8 676 570 452 559 590 473 365 484
8 560 453 338 441 676 570 452 559
8 562 455 340 443 677 571 453 560
8 447 344 459 566 561 457 575 678
8 564 456 341 445 679 573 455 562
8 567 460 345 448 680 572 454 563
8 680 572 454 563 564 456 341 445
8 565 458 576 682 447 344 459 566
8 450 346 461 569 565 458 576 682
8 568 462 347 449 684 578 460 567
8 451 348 462 568 569 461 579 685
8 686 580 463 570 591 474 360 473
8 571 464 350 453 686 580 463 570
8 573 466 352 455 687 581 464 571
8 572 465 582 688 460 357 471 578
8 574 467 582 688 456 353 465 572
8 574 467 353 456 689 583 466 573
8 459 356 470 577 575 468 585 691
8 576 469 586 692 459 356 470 577
8 461 358 472 579 576 469 586 692
8 462 359 471 578 579 472 588 694
8 704 591 473 590 593 475 363 481
8 595 476 592 705 475 361 474 591
8 593 475 363 481 707 594 479 602
8 594 477 362 479 709 598 478 600
8 595 476 361 475 711 597 477 594
8 479 362 480 603 600 478 601 720
8 481 363 482 605 602 479 603 722
8 603 480 364 482 723 604 483 606
8 605 482 365 484 724 606 485 607
8 656 553 608 726 542 436 487 609
8 645 542 609 728 525 422 488 611
8 609 487 610 729 488 369 489 612
8 611 488 612 730 491 371 490 613
8 616 504 386 495 731 624 503 614
8 731 624 503 614 678 575 457 561
8 732 622 501 615 616 504 386 495
8 617 502 384 496 732 622 501 615
8 617 502 621 735 496 384 500 618
8 736 620 499 619 618 500 382 497
8 630 527 408 511 736 620 499 619
8 621 506 626 737 500 388 505 620
8 647 544 424 527 737 626 505 620
8 623 508 627 738 502 390 506 621
8 623 508 390 502 739 628 507 622
8 625 510 628 739 504 392 507 622
8 740 629 509 624 691 585 468 575
8 625 510 392 504 740 629 509 624
8 632 529 410 513 744 647 527 630
8 631 528 648 745 514 411 530 633
8 632 529 648 745 513 410 528 631
8 638 535 416 519 746 649 530 633
8 747 650 531 634 635 532 413 516
8 642 539 420 523 747 650 531 634
8 636 533 651 748 517 414 532 635
8 640 536 652 749 521 417 533 636
8 639 537 418 520 750 653 534 637
8 638 535 653 750 519 416 534 637
8 641 538 419 522 751 655 537 639
8 641 538 654 752 522 419 536 640
8 643 540 421 524 753 657 539 642
8 643 540 659 755 524 421 541 644
8 644 541 660 757 526 423 543 646
8 758 661 542 645 646 543 422 525
8 529 426 544 647 648 545 662 759
8 530 427 545 648 649 546 663 760
8 535 429 546 649 653 547 664 761
8 762 666 548 650 651 550 432 532
8 657 556 438 539 762 666 548 650
8 652 551 668 763 533 433 550 651
8 654 552 669 764 536 434 551 652
8 655 549 431 537 765 665 547 653
8 538 435 549 655 654 552 667 766
8 661 554 671 768 542 436 553 656
8 658 558 440 540 769 674 556 657
8 658 558 675 770 540 440 557 659
8 659 557 673 771 541 439 555 660
8 660 555 672 772 543 437 554 661
8 788 686 570 676 704 591 473 590
8 677 571 453 560 788 686 570 676
8 679 573 455 562 789 687 571 677
8 566 459 577 683 678 575 691 790
8 681 574 456 564 791 689 573 679
8 680 572 688 792 567 460 578 684
8 681 574 688 792 564 456 572 680
8 682 576 692 794 566 459 577 683
8 569 461 579 685 682 576 692 794
8 568 462 578 684 685 579 694 796
8 687 581 464 571 798 696 580 686
8 798 696 580 686 705 592 474 591
8 689 583 466 573 799 697 581 687
8 688 582 698 800 578 471 588 694
8 690 584 698 800 574 467 582 688
8 690 584 467 574 801 699 583 689
8 693 587 701 803 577 470 585 691
8 693 587 470 577 804 702 586 692
8 695 589 702 804 579 472 586 692
8 695 589 472 579 805 703 588 694
8 708 595 705 813 593 475 591 704
8 710 596 706 814 595 476 592 705
8 707 594 479 602 816 709 600 719
8 708 595 475 593 817 711 594 707
8 709 598 478 600 819 715 599 717
8 711 597 477 594 820 714 598 709
8 710 596 476 595 822 713 597 711
8 600 478 601 720 717 599 718 832
8 602 479 603 722 719 600 720 834
8 720 601 480 603 835 721 604 723
8 722 603 482 605 836 723 606 724
8 767 670 725 839 656 553 608 726
8 756 656 726 841 645 542 609 728
8 726 608 727 842 609 487 610 729
8 728 609 729 843 611 488 612 730
8 844 740 624 731 790 691 575 678
8 733 625 504 616 844 740 624 731
8 734 623 502 617 845 739 622 732
8 733 625 739 845 616 504 622 732
8 734 623 738 846 617 502 621 735
8 735 621 737 847 618 500 620 736
8 744 647 527 630 847 737 620 736
8 621 506 627 738 737 626 741 848
8 647 544 626 737 759 662 741 848
8 623 508 628 739 738 627 742 849
8 740 629 585 691 850 743 700 802
8 625 510 629 740 739 628 743 850
8 632 529 647 744 745 648 759 854
8 633 530 648 745 746 649 760 855
8 638 535 649 746 750 653 761 856
8 857 762 650 747 748 651 532 635
8 753 657 539 642 857 762 650 747
8 749 652 763 858 636 533 651 748
8 752 654 764 859 640 536 652 749
8 751 655 537 639 860 765 653 750
8 641 538 655 751 752 654 766 861
8 754 658 540 643 862 769 657 753
8 754 658 770 863 643 540 659 755
8 755 659 771 864 644 541 660 757
8 758 661 768 866 645 542 656 756
8 757 660 772 867 646 543 661 758
8 759 662 773 868 648 545 663 760
8 649 546 663 760 761 664 774 871
8 765 665 547 653 872 775 664 761
8 873 777 666 762 763 668 550 651
8 769 674 556 657 873 777 666 762
8 764 669 779 874 652 551 668 763
8 654 552 667 766 764 669 778 875
8 655 549 665 765 766 667 776 876
8 768 671 782 877 656 553 670 767
8 772 672 783 878 661 554 671 768
8 658 558 674 769 770 675 786 879
8 659 557 675 770 771 673 785 881
8 882 784 672 772 771 673 555 660
8 789 687 571 677 897 798 686 788
8 897 798 686 788 813 705 591 704
8 791 689 573 679 898 799 687 789
8 795 693 803 900 683 577 691 790
8 793 690 574 681 901 801 689 791
8 792 688 800 902 684 578 694 796
8 793 690 800 902 681 574 688 792
8 795 693 577 683 903 804 692 794
8 797 695 804 903 685 579 692 794
8 797 695 579 685 904 805 694 796
8 905 806 697 799 798 696 581 687
8 814 706 806 905 705 592 696 798
8 689 583 697 799 801 699 808 907
8 800 698 809 908 694 588 703 805
8 690 584 699 801 800 698 809 908
8 803 701 810 909 691 585 700 802
8 693 587 702 804 803 701 811 910
8 695 589 703 805 804 702 812 911
8 818 710 814 919 708 595 705 813
8 821 712 815 920 710 596 706 814
8 816 709 600 719 922 819 717 831
8 817 711 594 707 923 820 709 816
8 818 710 595 708 924 822 711 817
8 819 715 599 717 926 827 716 829
8 820 714 598 709 927 826 715 819
8 929 825 713 822 820 714 597 711
8 821 712 596 710 930 824 713 822
8 717 599 718 832 829 716 830 942
8 719 600 720 834 831 717 832 944
8 832 718 601 720 945 833 721 835
8 834 720 603 722 946 835 723 836
8 869 780 838 950 767 670 725 839
8 865 767 839 952 756 656 726 841
8 839 725 840 953 726 608 727 842
8 841 726 842 954 728 609 729 843
8 844 740 691 790 955 850 802 899
8 733 625 740 844 845 739 850 955
8 734 623 739 845 846 738 849 956
8 735 621 738 846 847 737 848 957
8 744 647 737 847 854 759 848 957
8 738 627 742 849 848 741 851 958
8 848 741 851 958 759 662 773 868
8 850 743 700 802 959 852 807 906
8 849 742 628 739 959 852 743 850
8 854 759 868 965 745 648 760 855
8 746 649 760 855 856 761 871 966
8 860 765 653 750 967 872 761 856
8 968 873 762 857 858 763 651 748
8 862 769 657 753 968 873 762 857
8 859 764 874 969 749 652 763 858
8 752 654 766 861 859 764 875 970
8 751 655 765 860 861 766 876 971
8 754 658 769 862 863 770 879 972
8 755 659 770 863 864 771 881 974
8 976 882 772 867 864 771 660 757
8 866 768 877 977 756 656 767 865
8 867 772 878 978 758 661 768 866
8 760 663 773 868 871 774 883 980
8 870 781 837 948 982 890 780 869
8 982 890 780 869 877 782 670 767
8 761 664 774 871 872 775 884 984
8 876 776 665 765 985 885 775 872
8 873 777 668 763 986 887 779 874
8 769 674 777 873 879 786 887 986
8 764 669 778 875 874 779 888 987
8 766 667 776 876 875 778 886 988
8 878 783 892 989 768 671 782 877
8 878 783 672 772 990 893 784 882
8 880 787 675 770 991 896 786 879
8 880 787 895 992 770 675 785 881
8 881 785 894 993 771 673 784 882
8 1006 905 799 898 897 798 687 789
8 919 814 905 1006 813 705 798 897
8 791 689 799 898 901 801 907 1007
8 900 803 909 1009 790 691 802 899
8 795 693 804 903 900 803 910 1010
8 902 800 908 1011 796 694 805 904
8 793 690 801 901 902 800 908 1011
8 797 695 805 904 903 804 911 1012
8 799 697 806 905 907 808 912 1013
8 920 815 912 1013 814 706 806 905
8 802 700 810 909 906 807 913 1014
8 801 699 808 907 908 809 914 1015
8 805 703 809 908 911 812 915 1016
8 803 701 811 910 909 810 916 1017
8 911 812 917 1018 804 702 811 910
8 925 821 920 1030 818 710 814 919
8 928 823 921 1031 821 712 815 920
8 922 819 717 831 1033 926 829 941
8 923 820 709 816 1034 927 819 922
8 1035 929 822 924 923 820 711 817
8 925 821 710 818 1036 930 822 924
8 1038 933 825 929 927 826 714 820
8 926 827 716 829 1039 935 828 939
8 927 826 715 819 1040 934 827 926
8 928 823 712 821 1041 931 824 930
8 1042 932 824 930 929 825 713 822
8 829 716 830 942 939 828 940 1058
8 831 717 832 944 941 829 942 1060
8 942 830 718 832 1061 943 833 945
8 944 832 720 834 1062 945 835 946
8 981 889 947 1064 870 781 837 948
8 948 837 949 1067 869 780 838 950
8 975 869 950 1069 865 767 839 952
8 950 838 951 1070 839 725 840 953
8 952 839 953 1071 841 726 842 954
8 955 850 802 899 1072 959 906 1008
8 956 849 739 845 1072 959 850 955
8 846 738 849 956 957 848 958 1073
8 957 848 958 1073 854 759 868 965
8 849 742 852 959 958 851 961 1076
8 960 853 961 1076 906 807 852 959
8 958 851 961 1076 868 773 883 980
8 960 853 807 906 1077 963 913 1014
8 855 760 868 965 966 871 980 1085
8 856 761 871 966 967 872 984 1086
8 971 876 765 860 1087 985 872 967
8 968 873 763 858 1088 986 874 969
8 862 769 873 968 972 879 986 1088
8 859 764 875 970 969 874 987 1089
8 861 766 876 971 970 875 988 1090
8 973 880 770 863 1091 991 879 972
8 973 880 992 1092 863 770 881 974
8 974 881 993 1093 864 771 882 976
8 979 870 948 1066 1094 982 869 975
8 1094 982 869 975 977 877 767 865
8 978 878 772 867 1095 990 882 976
8 978 878 989 1096 866 768 877 977
8 871 774 883 980 984 884 994 1099
8 983 891 999 1100 870 781 889 981
8 1101 1000 890 982 989 892 782 877
8 983 891 781 870 1101 1000 890 982
8 872 775 884 984 985 885 995 1103
8 876 776 885 985 988 886 996 1104
8 986 887 779 874 1105 998 888 987
8 879 786 887 986 991 896 998 1105
8 875 778 886 988 987 888 997 1106
8 990 893 1002 1107 878 783 892 989
8 1108 1003 893 990 993 894 784 882
8 880 787 896 991 992 895 1005 1109
8 993 894 785 881 1110 1004 895 992
8 898 799 905 1006 1007 907 1013 1120
8 1030 920 1013 1120 919 814 905 1006
8 901 801 907 1007 1011 908 1015 1121
8 899 802 909 1009 1008 906 1014 1122
8 900 803 910 1010 1009 909 1017 1123
8 1012 911 1018 1124 903 804 910 1010
8 904 805 908 1011 1012 911 1016 1125
8 1013 912 1020 1127 907 808 914 1015
8 1031 921 1020 1127 920 815 912 1013
8 1019 918 962 1075 1128 1021 913 1014
8 1128 1021 913 1014 1017 916 810 909
8 1015 914 1022 1129 908 809 915 1016
8 1016 915 1023 1130 911 812 917 1018
8 1018 917 1024 1131 910 811 916 1017
8 1037 928 1031 1148 925 821 920 1030
8 928 823 931 1041 1031 921 1032 1149
8 1033 926 829 941 1151 1039 939 1057
8 1034 927 819 922 1152 1040 926 1033
8 1153 1038 929 1035 1034 927 820 923
8 1154 1042 930 1036 1035 929 822 924
8 1037 928 821 925 1155 1041 930 1036
8 1039 935 828 939 1156 1047 938 1055
8 1157 1043 932 1042 1038 933 825 929
8 1038 933 826 927 1158 1045 934 1040
8 1040 934 827 926 1159 1046 935 1039
8 930 824 932 1042 1041 931 1044 1160
8 1051 936 1048 1165 1175 1052 937 1053
8 1156 1047 938 1055 1053 937 1054 1178
8 939 828 940 1058 1055 938 1056 1181
8 941 829 942 1060 1057 939 1058 1183
8 942 830 943 1061 1058 940 1059 1184
8 1060 942 832 944 1185 1061 945 1062
8 1082 964 1063 1188 981 889 947 1064
8 1097 981 1064 1190 979 870 948 1066
8 1064 947 1065 1191 948 837 949 1067
8 1066 948 1067 1193 975 869 950 1069
8 1067 949 1068 1194 950 838 951 1070
8 1069 950 1070 1195 952 839 953 1071
8 956 849 959 1072 1073 958 1076 1197
8 1074 960 1076 1197 1008 906 959 1072
8 1073 958 1076 1197 965 868 980 1085
8 1074 960 906 1008 1198 1077 1014 1122
8 1133 1026 1079 1199 1019 918 962 1075
8 1077 963 913 1014 1200 1080 962 1075
8 960 853 963 1077 1076 961 1078 1201
8 980 883 961 1076 1099 994 1078 1201
8 1210 1083 964 1082 1100 999 889 981
8 966 871 980 1085 1086 984 1099 1215
8 967 872 984 1086 1087 985 1103 1216
8 971 876 985 1087 1090 988 1104 1217
8 1088 986 874 969 1218 1105 987 1089
8 972 879 986 1088 1091 991 1105 1218
8 970 875 988 1090 1089 987 1106 1219
8 973 880 991 1091 1092 992 1109 1220
8 1093 993 881 974 1221 1110 992 1092
8 1222 1108 990 1095 1093 993 882 976
8 1223 1101 982 1094 1096 989 877 977
8 1098 983 870 979 1223 1101 982 1094
8 1095 990 1107 1224 978 878 989 1096
8 1098 983 1100 1225 979 870 981 1097
8 984 884 994 1099 1103 995 1111 1227
8 1102 1001 1115 1228 983 891 999 1100
8 1101 1000 892 989 1229 1116 1002 1107
8 1102 1001 891 983 1229 1116 1000 1101
8 985 885 995 1103 1104 996 1112 1230
8 988 886 996 1104 1106 997 1113 1231
8 1105 998 888 987 1232 1114 997 1106
8 991 896 998 1105 1109 1005 1114 1232
8 1108 1003 1117 1233 990 893 1002 1107
8 1108 1003 894 993 1233 1117 1004 1110
8 992 895 1005 1109 1110 1004 1118 1234
8 1120 1013 1127 1244 1007 907 1015 1121
8 1148 1031 1127 1244 1030 920 1013 1120
8 1121 1015 1129 1245 1011 908 1016 1125
8 1126 1019 1075 1196 1246 1128 1014 1122
8 1246 1128 1014 1122 1123 1017 909 1009
8 1124 1018 1131 1247 1010 910 1017 1123
8 1125 1016 1130 1248 1012 911 1018 1124
8 1127 1020 1137 1254 1015 914 1022 1129
8 1031 921 1032 1149 1127 1020 1137 1254
8 1134 1027 918 1019 1257 1140 1021 1128
8 1257 1140 1021 1128 1131 1024 916 1017
8 1129 1022 1141 1258 1016 915 1023 1130
8 1130 1023 1142 1259 1018 917 1024 1131
8 1261 1144 1025 1132 1133 1026 1079 1199
8 1255 1138 1025 1132 1135 1028 1144 1261
8 1133 1026 918 1019 1262 1145 1027 1134
8 1136 1029 1139 1256 1263 1146 1028 1135
8 1037 928 1041 1155 1148 1031 1149 1275
8 1041 931 1044 1160 1149 1032 1150 1276
8 1151 1039 939 1057 1278 1156 1055 1180
8 1152 1040 926 1033 1279 1159 1039 1151
8 1153 1038 927 1034 1280 1158 1040 1152
8 1281 1157 1042 1154 1153 1038 929 1035
8 1036 930 1042 1154 1155 1041 1160 1282
8 1283 1164 1046 1159 1156 1047 935 1039
8 1165 1048 1164 1283 1053 937 1047 1156
8 1157 1043 933 1038 1284 1161 1045 1158
8 1157 1043 1161 1284 1042 932 1044 1160
8 1040 934 1046 1159 1158 1045 1163 1285
8 1166 1049 1167 1292 1051 936 1048 1165
8 1166 1049 936 1051 1293 1168 1050 1172
8 1051 936 1052 1175 1172 1050 1173 1306
8 1174 1051 1165 1290 1308 1175 1053 1177
8 1053 937 1054 1178 1175 1052 1176 1309
8 1278 1156 1055 1180 1177 1053 1178 1311
8 1055 938 1056 1181 1178 1054 1179 1312
8 1057 939 1058 1183 1180 1055 1181 1314
8 1058 940 1059 1184 1181 1056 1182 1315
8 1060 942 1061 1185 1183 1058 1184 1316
8 1208 1081 1187 1321 1082 964 1063 1188
8 1209 1082 1188 1322 1097 981 1064 1190
8 1188 1063 1189 1323 1064 947 1065 1191
8 1190 1064 1191 1325 1066 948 1067 1193
8 1191 1065 1192 1326 1067 949 1068 1194
8 1067 1193 1069 950 1194 1327 1195 1070
8 1250 1133 1199 1330 1126 1019 1075 1196
8 1198 1077 1014 1122 1331 1200 1075 1196
8 1074 960 1077 1198 1197 1076 1201 1332
8 1085 980 1076 1197 1215 1099 1201 1332
8 1199 1079 1203 1333 1075 962 1080 1200
8 1132 1025 1119 1243 1199 1079 1203 1333
8 1201 1078 963 1077 1334 1202 1080 1200
8 1099 994 1078 1201 1227 1111 1202 1334
8 1343 1207 1081 1208 1210 1083 964 1082
8 1214 1084 1186 1319 1343 1207 1081 1208
8 1345 1210 1082 1209 1225 1100 981 1097
8 1346 1211 1083 1210 1228 1115 999 1100
8 1086 984 1099 1215 1216 1103 1227 1352
8 1087 985 1103 1216 1217 1104 1230 1353
8 1090 988 1104 1217 1219 1106 1231 1354
8 1218 1105 987 1089 1355 1232 1106 1219
8 1091 991 1105 1218 1220 1109 1232 1355
8 1092 992 1109 1220 1221 1110 1234 1356
8 1222 1108 1233 1357 1095 990 1107 1224
8 1222 1108 993 1093 1357 1233 1110 1221
8 1223 1101 989 1096 1358 1229 1107 1224
8 1226 1102 983 1098 1358 1229 1101 1223
8 1226 1102 1228 1359 1098 983 1100 1225
8 1103 995 1111 1227 1230 1112 1235 1360
8 1107 1002 1117 1233 1229 1116 1240 1362
8 1102 1001 1116 1229 1228 1115 1240 1362
8 1104 996 1112 1230 1231 1113 1236 1363
8 1364 1237 1114 1232 1231 1113 997 1106
8 1109 1005 1114 1232 1234 1118 1238 1365
8 1110 1004 1118 1234 1233 1117 1241 1366
8 1242 1374 1255 1138 1119 1243 1132 1025
8 1244 1127 1254 1376 1121 1015 1129 1245
8 1148 1031 1149 1275 1244 1127 1254 1376
8 1245 1129 1258 1377 1125 1016 1130 1248
8 1251 1134 1019 1126 1378 1257 1128 1246
8 1378 1257 1128 1246 1247 1131 1017 1123
8 1248 1130 1259 1379 1124 1018 1131 1247
8 1261 1381 1250 1133 1132 1249 1330 1199
8 1255 1380 1252 1135 1132 1249 1381 1261
8 1250 1133 1019 1126 1382 1262 1134 1251
8 1253 1136 1256 1385 1384 1263 1135 1252
8 1254 1137 1265 1387 1129 1022 1141 1258
8 1149 1032 1150 1276 1254 1137 1265 1387
8 1028 1135 1255 1138 1139 1256 1388 1266
8 1136 1029 1147 1264 1256 1139 1267 1389
8 1390 1268 1140 1257 1259 1142 1024 1131
8 1260 1143 1027 1134 1390 1268 1140 1257
8 1258 1141 1269 1391 1130 1023 1142 1259
8 1262 1145 1027 1134 1393 1271 1143 1260
8 1261 1144 1026 1133 1394 1272 1145 1262
8 1135 1028 1144 1261 1263 1146 1272 1394
8 1136 1029 1146 1263 1264 1147 1273 1395
8 1155 1041 1160 1282 1275 1149 1276 1405
8 1276 1150 1044 1160 1406 1277 1162 1286
8 1408 1283 1159 1279 1278 1156 1039 1151
8 1290 1165 1283 1408 1177 1053 1156 1278
8 1152 1040 1159 1279 1280 1158 1285 1409
8 1281 1157 1038 1153 1410 1284 1158 1280
8 1281 1157 1284 1410 1154 1042 1160 1282
8 1159 1046 1164 1283 1285 1163 1289 1412
8 1292 1167 1289 1412 1165 1048 1164 1283
8 1158 1045 1163 1285 1284 1161 1288 1413
8 1284 1161 1288 1413 1160 1044 1162 1286
8 1291 1166 1292 1418 1174 1051 1165 1290
8 1291 1166 1051 1174 1419 1293 1172 1305
8 1294 1169 1296 1421 1166 1049 1167 1292
8 1293 1168 1050 1172 1422 1295 1171 1303
8 1294 1169 1049 1166 1423 1297 1168 1293
8 1422 1295 1171 1303 1301 1170 1302 1435
8 1172 1050 1173 1306 1303 1171 1304 1438
8 1174 1051 1175 1308 1305 1172 1306 1440
8 1175 1052 1176 1309 1306 1173 1307 1441
8 1177 1053 1178 1311 1308 1175 1309 1443
8 1178 1054 1179 1312 1309 1176 1310 1444
8 1180 1055 1181 1314 1311 1178 1312 1446
8 1056 1181 1312 1179 1182 1315 1447 1313
8 1183 1058 1184 1316 1314 1181 1315 1448
8 1319 1186 1084 1214 1451 1317 1213 1350
8 1319 1186 1318 1453 1208 1081 1187 1321
8 1321 1187 1320 1456 1188 1063 1189 1323
8 1344 1208 1321 1457 1209 1082 1188 1322
8 1322 1188 1323 1458 1190 1064 1191 1325
8 1323 1189 1324 1459 1191 1065 1192 1326
8 1191 1325 1193 1067 1326 1460 1327 1194
8 1242 1374 1243 1119 1328 1462 1335 1204
8 1330 1199 1333 1465 1196 1075 1200 1331
8 1132 1249 1330 1199 1243 1375 1465 1333
8 1332 1201 1077 1198 1466 1334 1200 1331
8 1215 1099 1201 1332 1352 1227 1334 1466
8 1119 1243 1333 1203 1204 1335 1470 1338
8 1333 1203 1338 1470 1200 1080 1202 1334
8 1227 1111 1202 1334 1360 1235 1338 1470
8 1328 1462 1335 1204 1205 1336 1471 1339
8 1337 1206 1340 1472 1464 1329 1205 1336
8 1346 1211 1342 1479 1210 1083 1207 1343
8 1346 1211 1115 1228 1479 1342 1239 1361
8 1348 1212 1084 1214 1479 1342 1207 1343
8 1480 1343 1208 1344 1345 1210 1082 1209
8 1351 1214 1319 1454 1480 1343 1208 1344
8 1481 1346 1210 1345 1359 1228 1100 1225
8 1348 1212 1347 1483 1214 1084 1213 1350
8 1216 1103 1227 1352 1353 1230 1360 1488
8 1217 1104 1230 1353 1354 1231 1363 1489
8 1490 1364 1232 1355 1354 1231 1106 1219
8 1220 1109 1232 1355 1356 1234 1365 1491
8 1221 1110 1234 1356 1357 1233 1366 1492
8 1224 1107 1233 1357 1358 1229 1362 1493
8 1226 1102 1229 1358 1359 1228 1362 1493
8 1230 1112 1235 1360 1363 1236 1367 1496
8 1361 1239 1115 1228 1497 1371 1240 1362
8 1366 1241 1372 1498 1233 1117 1240 1362
8 1364 1237 1113 1231 1499 1368 1236 1363
8 1364 1237 1368 1499 1232 1114 1238 1365
8 1234 1118 1238 1365 1366 1241 1369 1500
8 1507 1373 1242 1374 1388 1266 1138 1255
8 1508 1374 1243 1375 1380 1255 1132 1249
8 1376 1254 1387 1509 1245 1129 1258 1377
8 1275 1149 1276 1405 1376 1254 1387 1509
8 1377 1258 1391 1510 1248 1130 1259 1379
8 1511 1390 1257 1378 1379 1259 1131 1247
8 1383 1260 1134 1251 1511 1390 1257 1378
8 1252 1135 1256 1385 1380 1255 1388 1512
8 1261 1381 1513 1394 1133 1250 1382 1262
8 1135 1252 1384 1263 1261 1381 1513 1394
8 1382 1262 1134 1251 1514 1393 1260 1383
8 1253 1136 1263 1384 1386 1264 1395 1516
8 1253 1136 1264 1386 1385 1256 1389 1517
8 1387 1265 1397 1519 1258 1141 1269 1391
8 1276 1150 1277 1406 1387 1265 1397 1519
8 1256 1139 1267 1389 1388 1266 1398 1520
8 1264 1147 1274 1396 1389 1267 1399 1521
8 1392 1270 1143 1260 1522 1400 1268 1390
8 1390 1268 1142 1259 1522 1400 1269 1391
8 1392 1270 1401 1523 1260 1143 1271 1393
8 1272 1394 1524 1402 1145 1262 1393 1271
8 1395 1273 1146 1263 1524 1402 1272 1394
8 1273 1395 1264 1147 1403 1526 1396 1274
8 1405 1276 1160 1282 1534 1406 1286 1411
8 1414 1287 1407 1535 1286 1162 1277 1406
8 1279 1159 1283 1408 1409 1285 1412 1537
8 1418 1292 1412 1537 1290 1165 1283 1408
8 1280 1158 1285 1409 1410 1284 1413 1538
8 1410 1284 1413 1538 1282 1160 1286 1411
8 1285 1163 1289 1412 1413 1288 1417 1540
8 1421 1296 1417 1540 1292 1167 1289 1412
8 1414 1287 1162 1286 1541 1416 1288 1413
8 1420 1294 1421 1545 1291 1166 1292 1418
8 1419 1293 1172 1305 1546 1422 1303 1437
8 1420 1294 1166 1291 1547 1423 1293 1419
8 1294 1169 1297 1423 1421 1296 1425 1548
8 1423 1297 1168 1293 1549 1424 1295 1422
8 1301 1170 1298 1427 1422 1295 1424 1549
8 1432 1300 1428 1554 1301 1170 1298 1427
8 1431 1299 1428 1554 1560 1430 1300 1432
8 1563 1433 1300 1432 1435 1302 1170 1301
8 1546 1422 1303 1437 1434 1301 1435 1565
8 1303 1171 1304 1438 1435 1302 1436 1566
8 1305 1172 1306 1440 1437 1303 1438 1568
8 1306 1173 1307 1441 1438 1304 1439 1569
8 1308 1175 1309 1443 1440 1306 1441 1571
8 1309 1176 1310 1444 1441 1307 1442 1572
8 1311 1178 1312 1446 1443 1309 1444 1574
8 1179 1312 1444 1310 1313 1447 1575 1445
8 1314 1181 1315 1448 1446 1312 1447 1576
8 1350 1213 1349 1486 1451 1317 1449 1579
8 1451 1317 1450 1581 1319 1186 1318 1453
8 1454 1319 1214 1351 1582 1451 1350 1487
8 1453 1318 1452 1584 1321 1187 1320 1456
8 1454 1319 1453 1585 1344 1208 1321 1457
8 1456 1320 1455 1586 1323 1189 1324 1459
8 1457 1321 1456 1587 1322 1188 1323 1458
8 1458 1323 1459 1588 1325 1191 1326 1460
8 1205 1336 1464 1329 1328 1462 1590 1461
8 1507 1373 1461 1590 1374 1242 1328 1462
8 1508 1374 1462 1591 1375 1243 1335 1467
8 1337 1206 1329 1464 1473 1341 1463 1594
8 1375 1243 1335 1467 1465 1333 1470 1596
8 1465 1333 1470 1596 1331 1200 1334 1466
8 1352 1227 1334 1466 1488 1360 1470 1596
8 1591 1462 1336 1468 1467 1335 1471 1597
8 1469 1337 1472 1598 1595 1464 1336 1468
8 1471 1339 1474 1600 1335 1204 1338 1470
8 1600 1474 1367 1496 1470 1338 1235 1360
8 1336 1205 1340 1472 1471 1339 1475 1601
8 1337 1206 1341 1473 1472 1340 1476 1602
8 1495 1370 1478 1609 1361 1239 1342 1479
8 1348 1212 1342 1479 1483 1347 1478 1609
8 1481 1346 1479 1610 1345 1210 1343 1480
8 1481 1346 1228 1359 1610 1479 1361 1494
8 1484 1348 1214 1351 1610 1479 1343 1480
8 1483 1347 1482 1612 1350 1213 1349 1486
8 1484 1348 1483 1613 1351 1214 1350 1487
8 1353 1230 1360 1488 1489 1363 1496 1616
8 1490 1364 1231 1354 1617 1499 1363 1489
8 1490 1364 1499 1617 1355 1232 1365 1491
8 1356 1234 1365 1491 1492 1366 1500 1619
8 1492 1366 1498 1620 1357 1233 1362 1493
8 1494 1361 1228 1359 1621 1497 1362 1493
8 1495 1370 1239 1361 1622 1504 1371 1497
8 1363 1236 1367 1496 1499 1368 1501 1623
8 1497 1371 1240 1362 1624 1505 1372 1498
8 1625 1503 1372 1498 1500 1369 1241 1366
8 1365 1238 1368 1499 1500 1369 1502 1626
8 1520 1398 1506 1633 1388 1266 1373 1507
8 1634 1507 1374 1508 1512 1388 1255 1380
8 1509 1387 1519 1635 1377 1258 1391 1510
8 1405 1276 1406 1534 1509 1387 1519 1635
8 1515 1392 1260 1383 1636 1522 1390 1511
8 1511 1390 1259 1379 1636 1522 1391 1510
8 1385 1256 1389 1517 1512 1388 1520 1637
8 1513 1394 1262 1382 1638 1524 1393 1514
8 1395 1516 1638 1524 1263 1384 1513 1394
8 1515 1392 1523 1639 1383 1260 1393 1514
8 1516 1395 1526 1640 1386 1264 1396 1518
8 1386 1264 1396 1518 1517 1389 1521 1641
8 1519 1397 1527 1643 1391 1269 1400 1522
8 1535 1407 1527 1643 1406 1277 1397 1519
8 1389 1267 1399 1521 1520 1398 1528 1644
8 1645 1529 1399 1521 1525 1404 1274 1396
8 1392 1270 1400 1522 1523 1401 1531 1646
8 1524 1402 1271 1393 1648 1532 1401 1523
8 1403 1526 1648 1532 1273 1395 1524 1402
8 1525 1404 1274 1396 1649 1533 1403 1526
8 1539 1414 1535 1657 1411 1286 1406 1534
8 1542 1415 1536 1658 1414 1287 1407 1535
8 1409 1285 1412 1537 1538 1413 1540 1660
8 1545 1421 1540 1660 1418 1292 1412 1537
8 1539 1414 1286 1411 1661 1541 1413 1538
8 1540 1417 1544 1663 1413 1288 1416 1541
8 1421 1296 1425 1548 1540 1417 1544 1663
8 1542 1415 1287 1414 1664 1543 1416 1541
8 1420 1294 1423 1547 1545 1421 1548 1666
8 1547 1423 1293 1419 1667 1549 1422 1546
8 1434 1301 1427 1553 1546 1422 1549 1667
8 1423 1297 1424 1549 1548 1425 1550 1668
8 1551 1426 1550 1668 1427 1298 1424 1549
8 1551 1426 1298 1427 1671 1552 1428 1554
8 1562 1432 1554 1674 1434 1301 1427 1553
8 1431 1299 1429 1558 1554 1428 1555 1675
8 1431 1299 1430 1560 1558 1429 1557 1680
8 1560 1430 1300 1432 1683 1559 1433 1563
8 1561 1431 1554 1674 1684 1560 1432 1562
8 1685 1563 1432 1562 1565 1435 1301 1434
8 1435 1302 1436 1566 1563 1433 1564 1686
8 1437 1303 1438 1568 1565 1435 1566 1688
8 1438 1304 1439 1569 1566 1436 1567 1689
8 1440 1306 1441 1571 1568 1438 1569 1691
8 1441 1307 1442 1572 1569 1439 1570 1692
8 1443 1309 1444 1574 1571 1441 1572 1694
8 1310 1444 1572 1442 1445 1575 1695 1573
8 1446 1312 1447 1576 1574 1444 1575 1696
8 1486 1349 1485 1614 1579 1449 1577 1699
8 1451 1317 1449 1579 1581 1450 1578 1701
8 1487 1350 1486 1615 1582 1451 1579 1702
8 1581 1450 1580 1704 1453 1318 1452 1584
8 1582 1451 1581 1705 1454 1319 1453 1585
8 1584 1452 1583 1706 1456 1320 1455 1586
8 1585 1453 1584 1707 1457 1321 1456 1587
8 1587 1456 1586 1708 1458 1323 1459 1588
8 1633 1506 1589 1710 1507 1373 1461 1590
8 1464 1329 1461 1590 1594 1463 1589 1710
8 1468 1336 1462 1591 1595 1464 1590 1711
8 1634 1507 1590 1711 1508 1374 1462 1591
8 1473 1341 1463 1594 1603 1477 1593 1716
8 1469 1337 1464 1595 1599 1473 1594 1717
8 1471 1597 1467 1335 1600 1718 1596 1470
8 1718 1600 1496 1616 1596 1470 1360 1488
8 1336 1468 1597 1471 1472 1598 1719 1601
8 1469 1337 1473 1599 1598 1472 1602 1720
8 1722 1604 1501 1623 1600 1474 1367 1496
8 1475 1601 1471 1339 1604 1722 1600 1474
8 1602 1476 1605 1723 1472 1340 1475 1601
8 1476 1602 1724 1606 1341 1473 1603 1477
8 1483 1347 1478 1609 1612 1482 1608 1731
8 1495 1370 1504 1622 1609 1478 1608 1731
8 1618 1495 1609 1732 1494 1361 1479 1610
8 1484 1348 1479 1610 1613 1483 1609 1732
8 1486 1349 1482 1612 1614 1485 1611 1733
8 1613 1483 1612 1734 1487 1350 1486 1615
8 1489 1363 1496 1616 1617 1499 1623 1736
8 1491 1365 1499 1617 1619 1500 1626 1737
8 1618 1495 1361 1494 1738 1622 1497 1621
8 1739 1625 1498 1620 1619 1500 1366 1492
8 1621 1497 1362 1493 1740 1624 1498 1620
8 1742 1631 1504 1622 1624 1505 1371 1497
8 1743 1628 1502 1626 1623 1501 1368 1499
8 1744 1630 1505 1624 1625 1503 1372 1498
8 1745 1629 1503 1625 1626 1502 1369 1500
8 1520 1398 1528 1644 1633 1506 1632 1751
8 1637 1520 1633 1752 1512 1388 1507 1634
8 1635 1519 1643 1753 1510 1391 1522 1636
8 1657 1535 1643 1753 1534 1406 1519 1635
8 1515 1392 1522 1636 1639 1523 1646 1754
8 1517 1389 1521 1641 1637 1520 1644 1755
8 1524 1638 1756 1648 1393 1514 1639 1523
8 1640 1526 1395 1516 1756 1648 1524 1638
8 1642 1525 1396 1518 1757 1649 1526 1640
8 1758 1645 1521 1641 1642 1525 1396 1518
8 1646 1531 1400 1522 1760 1650 1527 1643
8 1535 1407 1536 1658 1643 1527 1650 1760
8 1521 1399 1529 1645 1644 1528 1651 1761
8 1647 1530 1652 1762 1525 1404 1529 1645
8 1401 1523 1648 1532 1531 1646 1763 1655
8 1525 1404 1533 1649 1647 1530 1654 1765
8 1533 1649 1766 1656 1403 1526 1648 1532
8 1662 1542 1658 1774 1539 1414 1535 1657
8 1542 1415 1543 1664 1658 1536 1659 1775
8 1660 1540 1663 1777 1538 1413 1541 1661
8 1545 1421 1548 1666 1660 1540 1663 1777
8 1662 1542 1414 1539 1778 1664 1541 1661
8 1664 1543 1416 1541 1779 1665 1544 1663
8 1548 1425 1550 1668 1663 1544 1665 1779
8 1547 1423 1549 1667 1666 1548 1668 1781
8 1670 1551 1668 1781 1553 1427 1549 1667
8 1551 1426 1552 1671 1668 1550 1669 1782
8 1670 1551 1427 1553 1784 1671 1554 1674
8 1675 1555 1672 1785 1554 1428 1552 1671
8 1678 1556 1673 1789 1558 1429 1555 1675
8 1561 1431 1558 1681 1674 1554 1675 1790
8 1794 1677 1556 1678 1680 1557 1429 1558
8 1560 1430 1559 1683 1680 1557 1679 1797
8 1561 1431 1560 1684 1681 1558 1680 1798
8 1563 1433 1564 1686 1683 1559 1682 1800
8 1684 1560 1432 1562 1801 1683 1563 1685
8 1565 1435 1566 1688 1685 1563 1686 1802
8 1566 1436 1567 1689 1686 1564 1687 1803
8 1568 1438 1569 1691 1688 1566 1689 1805
8 1569 1439 1570 1692 1689 1567 1690 1806
8 1571 1441 1572 1694 1691 1569 1692 1808
8 1442 1572 1692 1570 1573 1695 1809 1693
8 1574 1444 1575 1696 1694 1572 1695 1810
8 1614 1485 1592 1712 1699 1577 1697 1813
8 1579 1449 1577 1699 1701 1578 1698 1815
8 1615 1486 1614 1735 1702 1579 1699 1816
8 1701 1578 1700 1818 1581 1450 1580 1704
8 1582 1451 1579 1702 1705 1581 1701 1819
8 1704 1580 1703 1820 1584 1452 1583 1706
8 1705 1581 1704 1821 1585 1453 1584 1707
8 1707 1584 1706 1822 1587 1456 1586 1708
8 1710 1589 1506 1633 1824 1709 1632 1751
8 1594 1463 1589 1710 1716 1593 1709 1824
8 1752 1633 1710 1825 1634 1507 1590 1711
8 1595 1464 1590 1711 1717 1594 1710 1825
8 1830 1714 1592 1712 1733 1611 1485 1614
8 1603 1477 1593 1716 1725 1607 1715 1834
8 1599 1473 1594 1717 1721 1603 1716 1835
8 1837 1722 1623 1736 1718 1600 1496 1616
8 1719 1601 1722 1837 1597 1471 1600 1718
8 1602 1720 1598 1472 1723 1838 1719 1601
8 1720 1602 1473 1599 1839 1724 1603 1721
8 1723 1605 1726 1840 1601 1475 1604 1722
8 1840 1726 1628 1743 1722 1604 1501 1623
8 1724 1606 1727 1841 1602 1476 1605 1723
8 1725 1607 1728 1842 1603 1477 1606 1724
8 1612 1482 1608 1731 1733 1611 1730 1849
8 1741 1627 1730 1849 1622 1504 1608 1731
8 1613 1483 1609 1732 1734 1612 1731 1850
8 1618 1495 1622 1738 1732 1609 1731 1850
8 1615 1486 1612 1734 1735 1614 1733 1851
8 1852 1743 1626 1737 1736 1623 1499 1617
8 1853 1745 1625 1739 1737 1626 1500 1619
8 1855 1742 1622 1738 1740 1624 1497 1621
8 1856 1744 1624 1740 1739 1625 1498 1620
8 1741 1627 1504 1622 1857 1746 1631 1742
8 1742 1631 1505 1624 1858 1749 1630 1744
8 1859 1747 1629 1745 1743 1628 1502 1626
8 1860 1748 1630 1744 1745 1629 1503 1625
8 1644 1528 1651 1761 1751 1632 1750 1865
8 1637 1520 1644 1755 1752 1633 1751 1866
8 1754 1646 1522 1636 1867 1760 1643 1753
8 1657 1535 1658 1774 1753 1643 1760 1867
8 1639 1523 1646 1754 1756 1648 1763 1868
8 1641 1521 1645 1758 1755 1644 1761 1869
8 1757 1649 1526 1640 1870 1766 1648 1756
8 1642 1525 1649 1757 1759 1647 1765 1871
8 1759 1647 1762 1872 1642 1525 1645 1758
8 1760 1650 1767 1874 1646 1531 1655 1763
8 1658 1536 1659 1775 1760 1650 1767 1874
8 1762 1652 1768 1875 1645 1529 1651 1761
8 1764 1653 1769 1876 1647 1530 1652 1762
8 1656 1766 1877 1773 1532 1648 1763 1655
8 1771 1879 1765 1654 1653 1764 1647 1530
8 1533 1649 1765 1654 1656 1766 1880 1772
8 1662 1542 1664 1778 1774 1658 1775 1887
8 1664 1543 1665 1779 1775 1659 1776 1888
8 1778 1664 1541 1661 1890 1779 1663 1777
8 1666 1548 1668 1781 1777 1663 1779 1890
8 1782 1669 1780 1891 1668 1550 1665 1779
8 1670 1551 1671 1784 1781 1668 1782 1893
8 1671 1552 1672 1785 1782 1669 1783 1894
8 1790 1675 1785 1896 1674 1554 1671 1784
8 1675 1555 1673 1789 1785 1672 1786 1897
8 1792 1676 1788 1903 1678 1556 1673 1789
8 1795 1678 1789 1904 1681 1558 1675 1790
8 1792 1676 1556 1678 1906 1791 1677 1794
8 1680 1557 1679 1797 1794 1677 1793 1909
8 1910 1794 1678 1795 1798 1680 1558 1681
8 1683 1559 1682 1800 1797 1679 1796 1912
8 1684 1560 1683 1801 1798 1680 1797 1913
8 1686 1564 1687 1803 1800 1682 1799 1915
8 1685 1563 1686 1802 1801 1683 1800 1916
8 1688 1566 1689 1805 1802 1686 1803 1917
8 1689 1567 1690 1806 1803 1687 1804 1918
8 1691 1569 1692 1808 1805 1689 1806 1920
8 1692 1570 1693 1809 1806 1690 1807 1921
8 1694 1572 1695 1810 1808 1692 1809 1922
8 1829 1713 1811 1926 1712 1592 1697 1813
8 1813 1697 1812 1928 1699 1577 1698 1815
8 1735 1614 1712 1828 1816 1699 1813 1929
8 1815 1698 1814 1931 1701 1578 1700 1818
8 1702 1579 1699 1816 1819 1701 1815 1932
8 1818 1700 1817 1933 1704 1580 1703 1820
8 1819 1701 1818 1934 1705 1581 1704 1821
8 1821 1704 1820 1935 1707 1584 1706 1822
8 1824 1709 1632 1751 1937 1823 1750 1865
8 1716 1593 1709 1824 1834 1715 1823 1937
8 1825 1710 1633 1752 1938 1824 1751 1866
8 1717 1594 1710 1825 1835 1716 1824 1938
8 1945 1830 1712 1828 1851 1733 1614 1735
8 1830 1714 1831 1946 1712 1592 1713 1829
8 1947 1832 1714 1830 1849 1730 1611 1733
8 1843 1729 1607 1725 1950 1833 1715 1834
8 1721 1603 1716 1835 1836 1725 1834 1951
8 1836 1725 1842 1953 1721 1603 1724 1839
8 1723 1838 1719 1601 1840 1954 1837 1722
8 1954 1840 1743 1852 1837 1722 1623 1736
8 1724 1839 1720 1602 1841 1955 1838 1723
8 1841 1727 1844 1956 1723 1605 1726 1840
8 1956 1844 1747 1859 1840 1726 1628 1743
8 1728 1842 1724 1606 1845 1957 1841 1727
8 1725 1607 1729 1843 1842 1728 1846 1958
8 1741 1627 1746 1857 1849 1730 1848 1965
8 1734 1612 1731 1850 1851 1733 1849 1966
8 1854 1741 1849 1966 1738 1622 1731 1850
8 1967 1859 1745 1853 1852 1743 1626 1737
8 1968 1860 1744 1856 1853 1745 1625 1739
8 1854 1741 1622 1738 1969 1857 1742 1855
8 1855 1742 1624 1740 1970 1858 1744 1856
8 1857 1746 1631 1742 1971 1861 1749 1858
8 1858 1749 1630 1744 1972 1863 1748 1860
8 1859 1747 1862 1973 1745 1629 1748 1860
8 1875 1768 1864 1977 1761 1651 1750 1865
8 1755 1644 1761 1869 1866 1751 1865 1978
8 1867 1760 1874 1979 1754 1646 1763 1868
8 1774 1658 1775 1887 1867 1760 1874 1979
8 1870 1766 1648 1756 1980 1877 1763 1868
8 1872 1762 1875 1981 1758 1645 1761 1869
8 1757 1649 1766 1870 1871 1765 1880 1982
8 1983 1879 1764 1873 1871 1765 1647 1759
8 1873 1764 1876 1984 1759 1647 1762 1872
8 1877 1773 1655 1763 1986 1881 1767 1874
8 1775 1659 1776 1888 1874 1767 1881 1986
8 1876 1769 1882 1987 1762 1652 1768 1875
8 1878 1770 1883 1988 1764 1653 1769 1876
8 1880 1772 1656 1766 1989 1886 1773 1877
8 1878 1770 1653 1764 1990 1884 1771 1879
8 1765 1654 1772 1880 1879 1771 1885 1991
8 1778 1664 1779 1890 1887 1775 1888 1997
8 1998 1889 1776 1888 1891 1780 1665 1779
8 1893 1782 1891 2000 1781 1668 1779 1890
8 1894 1783 1892 2001 1782 1669 1780 1891
8 1784 1671 1785 1896 1893 1782 1894 2003
8 1897 1786 1895 2004 1785 1672 1783 1894
8 1790 1675 1789 1904 1896 1785 1897 2006
8 1901 1787 1898 2007 1789 1673 1786 1897
8 1903 1788 1900 2013 1789 1673 1787 1901
8 1792 1676 1791 1906 1903 1788 1902 2016
8 1907 1792 1903 2017 1795 1678 1789 1904
8 1906 1791 1677 1794 2019 1905 1793 1909
8 1907 1792 1678 1795 2020 1906 1794 1910
8 1797 1679 1796 1912 1909 1793 1908 2022
8 1798 1680 1797 1913 1910 1794 1909 2023
8 1800 1682 1799 1915 1912 1796 1911 2025
8 1801 1683 1800 1916 1913 1797 1912 2026
8 1803 1687 1804 1918 1915 1799 1914 2028
8 1802 1686 1803 1917 1916 1800 1915 2029
8 1805 1689 1806 1920 1917 1803 1918 2030
8 1806 1690 1807 1921 1918 1804 1919 2031
8 1808 1692 1809 1922 1920 1806 1921 2032
8 1939 1826 1924 2037 1829 1713 1811 1926
8 1926 1811 1925 2039 1813 1697 1812 1928
8 1944 1829 1926 2040 1828 1712 1813 1929
8 1928 1812 1927 2042 1815 1698 1814 1931
8 1929 1813 1928 2043 1816 1699 1815 1932
8 1931 1814 1930 2044 1818 1700 1817 1933
8 1932 1815 1931 2045 1819 1701 1818 1934
8 1934 1818 1933 2046 1821 1704 1820 1935
8 2048 1936 1823 1937 1977 1864 1750 1865
8 1950 1833 1715 1834 2048 1936 1823 1937
8 1938 1824 1751 1866 2049 1937 1865 1978
8 1835 1716 1824 1938 1951 1834 1937 2049
8 1939 1826 1713 1829 2053 1942 1831 1946
8 1940 1827 1923 2035 2053 1942 1826 1939
8 1945 1830 1946 2058 1828 1712 1829 1944
8 2059 1947 1830 1945 1966 1849 1733 1851
8 1947 1832 1730 1849 2060 1948 1848 1965
8 1947 1832 1948 2060 1830 1714 1831 1946
8 1959 1847 1729 1843 2063 1949 1833 1950
8 1952 1843 1725 1836 2064 1950 1834 1951
8 1836 1725 1843 1952 1953 1842 1958 2066
8 1953 1842 1957 2067 1839 1724 1841 1955
8 1841 1955 1838 1723 1956 2068 1954 1840
8 2068 1956 1859 1967 1954 1840 1743 1852
8 1956 1844 1960 2069 1859 1747 1862 1973
8 1845 1957 1841 1727 1960 2069 1956 1844
8 1728 1842 1957 1845 1846 1958 2071 1961
8 1962 2072 1959 1847 1846 1958 1843 1729
8 1971 1861 1964 2077 1857 1746 1848 1965
8 1854 1741 1857 1969 1966 1849 1965 2078
8 1967 1859 1973 2079 1853 1745 1860 1968
8 1970 1858 1744 1856 2080 1972 1860 1968
8 1969 1857 1742 1855 2081 1971 1858 1970
8 1971 1861 1749 1858 2082 1974 1863 1972
8 1973 1862 1975 2083 1860 1748 1863 1972
8 1987 1882 1976 2086 1875 1768 1864 1977
8 1981 1875 1977 2087 1869 1761 1865 1978
8 1980 1877 1763 1868 2088 1986 1874 1979
8 1887 1775 1888 1997 1979 1874 1986 2088
8 1880 1982 2089 1989 1766 1870 1980 1877
8 1984 1876 1987 2090 1872 1762 1875 1981
8 1765 1871 1983 1879 1880 1982 2091 1991
8 1985 1878 1764 1873 2092 1990 1879 1983
8 1985 1878 1988 2093 1873 1764 1876 1984
8 2094 1992 1881 1986 1998 1889 1776 1888
8 1986 1881 1992 2094 1877 1773 1886 1989
8 1988 1883 1993 2095 1876 1769 1882 1987
8 1878 1770 1884 1990 1988 1883 1994 2096
8 1991 1885 1772 1880 2097 1996 1886 1989
8 1879 1771 1885 1991 1990 1884 1995 2098
8 2103 1998 1888 1997 2000 1891 1779 1890
8 2104 1999 1889 1998 2001 1892 1780 1891
8 2003 1894 2001 2106 1893 1782 1891 2000
8 2004 1895 2002 2107 1894 1783 1892 2001
8 2006 1897 2004 2109 1896 1785 1894 2003
8 2007 1898 2005 2110 1897 1786 1895 2004
8 2014 1901 2007 2112 1904 1789 1897 2006
8 2011 1899 2008 2113 1901 1787 1898 2007
8 2119 2010 1899 2011 2013 1900 1787 1901
8 2016 1902 2012 2122 1903 1788 1900 2013
8 2017 1903 2013 2123 1904 1789 1901 2014
8 1906 1791 1905 2019 2016 1902 2015 2125
8 1907 1792 1906 2020 2017 1903 2016 2126
8 1909 1793 1908 2022 2019 1905 2018 2128
8 2020 1906 1794 1910 2129 2019 1909 2023
8 1912 1796 1911 2025 2022 1908 2021 2131
8 1913 1797 1912 2026 2023 1909 2022 2132
8 1915 1799 1914 2028 2025 1911 2024 2134
8 1916 1800 1915 2029 2026 1912 2025 2135
8 1918 1804 1919 2031 2028 1914 2027 2136
8 1917 1803 1918 2030 2029 1915 2028 2137
8 1920 1806 1921 2032 2030 1918 2031 2138
8 1940 1827 1941 2054 2035 1923 2033 2140
8 2035 1923 2034 2143 1939 1826 1924 2037
8 2037 1924 2036 2146 1926 1811 1925 2039
8 2051 1939 2037 2147 1944 1829 1926 2040
8 2039 1925 2038 2149 1928 1812 1927 2042
8 2040 1926 2039 2150 1929 1813 1928 2043
8 2042 1927 2041 2151 1931 1814 1930 2044
8 2043 1928 2042 2152 1932 1815 1931 2045
8 2045 1931 2044 2153 1934 1818 1933 2046
8 2155 2047 1936 2048 2086 1976 1864 1977
8 2063 1949 1833 1950 2155 2047 1936 2048
8 2156 2048 1937 2049 2087 1977 1865 1978
8 2064 1950 1834 1951 2156 2048 1937 2049
8 2051 1939 1829 1944 2160 2053 1946 2058
8 2052 1940 2035 2144 2160 2053 1939 2051
8 2053 1942 1831 1946 2163 2057 1948 2060
8 2055 1943 1827 1940 2163 2057 1942 2053
8 2055 1943 2056 2164 1940 1827 1941 2054
8 2059 1947 1849 1966 2167 2060 1965 2078
8 2059 1947 2060 2167 1945 1830 1946 2058
8 2077 1964 2061 2168 1965 1848 1948 2060
8 2070 1963 1847 1959 2170 2062 1949 2063
8 2065 1959 1843 1952 2171 2063 1950 2064
8 2173 2072 1958 2066 2065 1959 1843 1952
8 1953 1842 1958 2066 2067 1957 2071 2174
8 2068 1956 2069 2175 1967 1859 1973 2079
8 2067 1957 2069 2175 1955 1841 1956 2068
8 1845 1957 2069 1960 1961 2071 2176 2073
8 2069 1960 2073 2176 1973 1862 1975 2083
8 2070 1963 2075 2177 1959 1847 1962 2072
8 1846 1958 2071 1961 1962 2072 2178 2074
8 2077 1964 1861 1971 2182 2076 1974 2082
8 2081 1971 2077 2183 1969 1857 1965 2078
8 2079 1973 2083 2184 1968 1860 1972 2080
8 2081 1971 1858 1970 2185 2082 1972 2080
8 2083 1975 2084 2186 1972 1863 1974 2082
8 2086 1976 1882 1987 2189 2085 1993 2095
8 2090 1987 2086 2190 1981 1875 1977 2087
8 2191 2094 1986 2088 2103 1998 1888 1997
8 2088 1986 2094 2191 1980 1877 1989 2089
8 1991 2091 2192 2097 1880 1982 2089 1989
8 2093 1988 2095 2193 1984 1876 1987 2090
8 1879 1983 2092 1990 1991 2091 2194 2098
8 1985 1878 1990 2092 2093 1988 2096 2195
8 2097 1996 1886 1989 2196 2099 1992 2094
8 2196 2099 1992 2094 2104 1999 1889 1998
8 1994 2096 1988 1883 2100 2197 2095 1993
8 2096 1994 1884 1990 2198 2101 1995 2098
8 1995 2098 2199 2102 1885 1991 2097 1996
8 2203 2104 1998 2103 2106 2001 1891 2000
8 2107 2002 2105 2204 2001 1892 1999 2104
8 2109 2004 2107 2206 2003 1894 2001 2106
8 2110 2005 2108 2207 2004 1895 2002 2107
8 2112 2007 2110 2209 2006 1897 2004 2109
8 2113 2008 2111 2210 2007 1898 2005 2110
8 2120 2011 2113 2212 2014 1901 2007 2112
8 2117 2009 2114 2213 2011 1899 2008 2113
8 2219 2116 2009 2117 2119 2010 1899 2011
8 2222 2118 2010 2119 2122 2012 1900 2013
8 2223 2119 2011 2120 2123 2013 1901 2014
8 2016 1902 2015 2125 2122 2012 2121 2225
8 2126 2016 2122 2226 2017 1903 2013 2123
8 2019 1905 2018 2128 2125 2015 2124 2228
8 2020 1906 2019 2129 2126 2016 2125 2229
8 2022 1908 2021 2131 2128 2018 2127 2231
8 2023 1909 2022 2132 2129 2019 2128 2232
8 2025 1911 2024 2134 2131 2021 2130 2234
8 2026 1912 2025 2135 2132 2022 2131 2235
8 1914 2028 2134 2024 2027 2136 2236 2133
8 2029 1915 2028 2137 2135 2025 2134 2237
8 2030 1918 2031 2138 2137 2028 2136 2238
8 2157 2050 2139 2240 2054 1941 2033 2140
8 2052 1940 2054 2161 2144 2035 2140 2242
8 2140 2033 2141 2243 2035 1923 2034 2143
8 2143 2034 2142 2246 2037 1924 2036 2146
8 2144 2035 2143 2247 2051 1939 2037 2147
8 2146 2036 2145 2249 2039 1925 2038 2149
8 2147 2037 2146 2250 2040 1926 2039 2150
8 2149 2038 2148 2251 2042 1927 2041 2151
8 2150 2039 2149 2252 2043 1928 2042 2152
8 2152 2042 2151 2253 2045 1931 2044 2153
8 2255 2154 2047 2155 2189 2085 1976 2086
8 2170 2062 1949 2063 2255 2154 2047 2155
8 2256 2155 2048 2156 2190 2086 1977 2087
8 2171 2063 1950 2064 2256 2155 2048 2156
8 2258 2159 2050 2157 2164 2056 1941 2054
8 2160 2053 1946 2058 2262 2163 2060 2167
8 2162 2055 1940 2052 2262 2163 2053 2160
8 2162 2055 2164 2263 2052 1940 2054 2161
8 2163 2057 1948 2060 2264 2165 2061 2168
8 2055 1943 2057 2163 2164 2056 2165 2264
8 2182 2076 2166 2268 2077 1964 2061 2168
8 2183 2077 2168 2269 2078 1965 2060 2167
8 2070 1963 2062 2170 2177 2075 2169 2271
8 2172 2070 1959 2065 2272 2170 2063 2171
8 2172 2070 2177 2273 2065 1959 2072 2173
8 2066 1958 2072 2173 2174 2071 2178 2274
8 2067 1957 2071 2174 2175 2069 2176 2275
8 2175 2069 2176 2275 2079 1973 2083 2184
8 2071 1961 2074 2178 2176 2073 2179 2276
8 2176 2073 2179 2276 2083 1975 2084 2186
8 2072 1962 2075 2177 2178 2074 2180 2277
8 2182 2076 1974 2082 2280 2181 2084 2186
8 2183 2077 1971 2081 2281 2182 2082 2185
8 2184 2083 2186 2282 2080 1972 2082 2185
8 2189 2085 1993 2095 2285 2188 2100 2197
8 2190 2086 1987 2090 2286 2189 2095 2193
8 2192 2097 1989 2089 2287 2196 2094 2191
8 2287 2196 2094 2191 2203 2104 1998 2103
8 2194 2098 1991 2091 2288 2199 2097 2192
8 2195 2096 2197 2289 2093 1988 2095 2193
8 2096 2195 2290 2198 1990 2092 2194 2098
8 2097 1996 2099 2196 2199 2102 2200 2291
8 2196 2099 1999 2104 2291 2200 2105 2204
8 2100 2197 2292 2201 1994 2096 2198 2101
8 1995 2098 2198 2101 2102 2199 2293 2202
8 2206 2107 2204 2296 2106 2001 2104 2203
8 2207 2108 2205 2297 2107 2002 2105 2204
8 2209 2110 2207 2299 2109 2004 2107 2206
8 2210 2111 2208 2300 2110 2005 2108 2207
8 2212 2113 2210 2302 2112 2007 2110 2209
8 2213 2114 2211 2303 2113 2008 2111 2210
8 2220 2117 2213 2305 2120 2011 2113 2212
8 2216 2115 2214 2306 2117 2009 2114 2213
8 2216 2115 2009 2117 2311 2217 2116 2219
8 2219 2116 2010 2119 2314 2218 2118 2222
8 2315 2219 2117 2220 2223 2119 2011 2120
8 2122 2012 2121 2225 2222 2118 2221 2317
8 2318 2222 2119 2223 2226 2122 2013 2123
8 2125 2015 2124 2228 2225 2121 2224 2320
8 2126 2016 2125 2229 2226 2122 2225 2321
8 2128 2018 2127 2231 2228 2124 2227 2323
8 2129 2019 2128 2232 2229 2125 2228 2324
8 2131 2021 2130 2234 2231 2127 2230 2326
8 2132 2022 2131 2235 2232 2128 2231 2327
8 2134 2024 2133 2236 2234 2130 2233 2328
8 2135 2025 2134 2237 2235 2131 2234 2329
8 2137 2028 2136 2238 2237 2134 2236 2330
8 2157 2050 2158 2259 2240 2139 2239 2332
8 2257 2157 2240 2334 2161 2054 2140 2242
8 2240 2139 2241 2335 2140 2033 2141 2243
8 2242 2140 2243 2337 2144 2035 2143 2247
8 2243 2141 2244 2338 2143 2034 2142 2246
8 2246 2142 2245 2341 2146 2036 2145 2249
8 2247 2143 2246 2342 2147 2037 2146 2250
8 2249 2145 2248 2343 2149 2038 2148 2251
8 2250 2146 2249 2344 2150 2039 2149 2252
8 2252 2149 2251 2345 2152 2042 2151 2253
8 2169 2271 2347 2254 2062 2170 2255 2154
8 2189 2085 2188 2285 2255 2154 2254 2347
8 2348 2255 2155 2256 2286 2189 2086 2190
8 2272 2170 2063 2171 2348 2255 2155 2256
8 2349 2258 2157 2257 2263 2164 2054 2161
8 2258 2159 2261 2351 2157 2050 2158 2259
8 2258 2159 2056 2164 2351 2261 2165 2264
8 2262 2163 2060 2167 2355 2264 2168 2269
8 2162 2055 2163 2262 2263 2164 2264 2355
8 2357 2266 2165 2264 2268 2166 2061 2168
8 2268 2166 2076 2182 2361 2267 2181 2280
8 2281 2182 2268 2362 2183 2077 2168 2269
8 2271 2169 2270 2364 2177 2075 2180 2277
8 2172 2070 2170 2272 2273 2177 2271 2365
8 2072 2173 2274 2178 2177 2273 2366 2277
8 2071 2174 2275 2176 2178 2274 2367 2276
8 2275 2176 2276 2367 2184 2083 2186 2282
8 2283 2187 2084 2186 2368 2278 2179 2276
8 2178 2074 2180 2277 2276 2179 2278 2368
8 2283 2187 2279 2370 2186 2084 2181 2280
8 2281 2182 2082 2185 2371 2280 2186 2282
8 2188 2285 2374 2284 2100 2197 2292 2201
8 2286 2189 2095 2193 2375 2285 2197 2289
8 2192 2097 2196 2287 2288 2199 2291 2376
8 2287 2196 2104 2203 2376 2291 2204 2296
8 2194 2098 2199 2288 2290 2198 2293 2377
8 2289 2197 2096 2195 2378 2292 2198 2290
8 2291 2200 2105 2204 2379 2294 2205 2297
8 2199 2102 2200 2291 2293 2202 2294 2379
8 2198 2101 2202 2293 2292 2201 2295 2380
8 2299 2207 2297 2383 2206 2107 2204 2296
8 2300 2208 2298 2384 2207 2108 2205 2297
8 2302 2210 2300 2386 2209 2110 2207 2299
8 2303 2211 2301 2387 2210 2111 2208 2300
8 2305 2213 2303 2389 2212 2113 2210 2302
8 2306 2214 2304 2390 2213 2114 2211 2303
8 2310 2216 2306 2392 2220 2117 2213 2305
8 2308 2215 2307 2393 2216 2115 2214 2306
8 2308 2215 2115 2216 2396 2309 2217 2311
8 2310 2216 2117 2220 2398 2311 2219 2315
8 2311 2217 2116 2219 2399 2312 2218 2314
8 2314 2218 2118 2222 2402 2313 2221 2317
8 2315 2219 2119 2223 2403 2314 2222 2318
8 2225 2121 2224 2320 2317 2221 2316 2405
8 2226 2122 2225 2321 2318 2222 2317 2406
8 2228 2124 2227 2323 2320 2224 2319 2408
8 2229 2125 2228 2324 2321 2225 2320 2409
8 2231 2127 2230 2326 2323 2227 2322 2411
8 2232 2128 2231 2327 2324 2228 2323 2412
8 2234 2130 2233 2328 2326 2230 2325 2413
8 2235 2131 2234 2329 2327 2231 2326 2414
8 2237 2134 2236 2330 2329 2234 2328 2415
8 2259 2158 2260 2352 2332 2239 2331 2417
8 2257 2157 2259 2350 2334 2240 2332 2419
8 2240 2139 2239 2332 2335 2241 2333 2420
8 2334 2240 2335 2422 2242 2140 2243 2337
8 2335 2241 2336 2423 2243 2141 2244 2338
8 2337 2243 2338 2425 2247 2143 2246 2342
8 2338 2244 2339 2426 2246 2142 2245 2341
8 2341 2245 2340 2428 2249 2145 2248 2343
8 2342 2246 2341 2429 2250 2146 2249 2344
8 2344 2249 2343 2430 2252 2149 2251 2345
8 2188 2285 2347 2254 2284 2374 2432 2346
8 2347 2254 2346 2432 2271 2169 2270 2364
8 2365 2271 2170 2272 2433 2347 2255 2348
8 2286 2189 2285 2375 2348 2255 2347 2433
8 2349 2258 2351 2435 2257 2157 2259 2350
8 2349 2258 2164 2263 2435 2351 2264 2355
8 2259 2158 2261 2351 2352 2260 2354 2437
8 2356 2265 2354 2437 2264 2165 2261 2351
8 2441 2357 2264 2355 2362 2268 2168 2269
8 2356 2265 2165 2264 2442 2358 2266 2357
8 2443 2359 2266 2357 2361 2267 2166 2268
8 2370 2279 2360 2446 2280 2181 2267 2361
8 2362 2268 2182 2281 2447 2361 2280 2371
8 2180 2277 2368 2278 2270 2364 2449 2363
8 2271 2365 2273 2177 2364 2450 2366 2277
8 2372 2283 2186 2282 2451 2368 2276 2367
8 2178 2274 2367 2276 2277 2366 2451 2368
8 2283 2187 2278 2368 2370 2279 2369 2452
8 2372 2283 2370 2453 2282 2186 2280 2371
8 2284 2374 2455 2373 2201 2292 2380 2295
8 2375 2285 2197 2289 2456 2374 2292 2378
8 2376 2291 2204 2296 2457 2379 2297 2383
8 2288 2199 2291 2376 2377 2293 2379 2457
8 2198 2290 2378 2292 2293 2377 2458 2380
8 2293 2202 2294 2379 2380 2295 2381 2459
8 2384 2298 2381 2459 2297 2205 2294 2379
8 2386 2300 2384 2463 2299 2207 2297 2383
8 2387 2301 2385 2464 2300 2208 2298 2384
8 2389 2303 2387 2466 2302 2210 2300 2386
8 2390 2304 2388 2467 2303 2211 2301 2387
8 2392 2306 2390 2469 2305 2213 2303 2389
8 2393 2307 2391 2470 2306 2214 2304 2390
8 2395 2308 2393 2472 2310 2216 2306 2392
8 2308 2215 2309 2396 2393 2307 2394 2473
8 2395 2308 2216 2310 2475 2396 2311 2398
8 2396 2309 2217 2311 2476 2397 2312 2399
8 2398 2311 2219 2315 2478 2399 2314 2403
8 2399 2312 2218 2314 2479 2400 2313 2402
8 2317 2221 2316 2405 2402 2313 2401 2482
8 2403 2314 2222 2318 2483 2402 2317 2406
8 2320 2224 2319 2408 2405 2316 2404 2485
8 2321 2225 2320 2409 2406 2317 2405 2486
8 2323 2227 2322 2411 2408 2319 2407 2488
8 2324 2228 2323 2412 2409 2320 2408 2489
8 2326 2230 2325 2413 2411 2322 2410 2490
8 2327 2231 2326 2414 2412 2323 2411 2491
8 2329 2234 2328 2415 2414 2326 2413 2492
8 2417 2331 2260 2352 2494 2416 2353 2438
8 2350 2259 2352 2436 2419 2332 2417 2496
8 2332 2239 2331 2417 2420 2333 2418 2497
8 2334 2240 2332 2419 2422 2335 2420 2499
8 2420 2333 2421 2500 2335 2241 2336 2423
8 2422 2335 2423 2502 2337 2243 2338 2425
8 2423 2336 2424 2503 2338 2244 2339 2426
8 2425 2338 2426 2505 2342 2246 2341 2429
8 2426 2339 2427 2506 2341 2245 2340 2428
8 2429 2341 2428 2507 2344 2249 2343 2430
8 2432 2346 2284 2374 2509 2431 2373 2455
8 2432 2346 2431 2509 2364 2270 2363 2449
8 2375 2285 2374 2456 2433 2347 2432 2510
8 2347 2433 2365 2271 2432 2510 2450 2364
8 2350 2259 2351 2435 2436 2352 2437 2514
8 2440 2356 2437 2514 2355 2264 2351 2435
8 2352 2260 2354 2437 2438 2353 2439 2516
8 2356 2265 2358 2442 2437 2354 2439 2516
8 2440 2356 2264 2355 2518 2442 2357 2441
8 2519 2443 2357 2441 2447 2361 2268 2362
8 2443 2359 2444 2520 2357 2266 2358 2442
8 2443 2359 2267 2361 2520 2444 2360 2446
8 2446 2360 2279 2370 2523 2445 2369 2452
8 2453 2370 2446 2524 2371 2280 2361 2447
8 2449 2363 2448 2525 2368 2278 2369 2452
8 2366 2277 2364 2450 2451 2368 2449 2526
8 2372 2283 2368 2451 2453 2370 2452 2527
8 2455 2373 2295 2380 2529 2454 2382 2460
8 2456 2374 2292 2378 2530 2455 2380 2458
8 2377 2293 2379 2457 2458 2380 2459 2531
8 2463 2384 2459 2531 2383 2297 2379 2457
8 2533 2461 2382 2460 2459 2381 2295 2380
8 2464 2385 2461 2533 2384 2298 2381 2459
8 2466 2387 2464 2537 2386 2300 2384 2463
8 2467 2388 2465 2538 2387 2301 2385 2464
8 2469 2390 2467 2540 2389 2303 2387 2466
8 2470 2391 2468 2541 2390 2304 2388 2467
8 2472 2393 2470 2543 2392 2306 2390 2469
8 2393 2307 2394 2473 2470 2391 2471 2544
8 2395 2308 2396 2475 2472 2393 2473 2546
8 2396 2309 2397 2476 2473 2394 2474 2547
8 2475 2396 2311 2398 2549 2476 2399 2478
8 2476 2397 2312 2399 2550 2477 2400 2479
8 2478 2399 2314 2403 2552 2479 2402 2483
8 2479 2400 2313 2402 2553 2480 2401 2482
8 2405 2316 2404 2485 2482 2401 2481 2556
8 2406 2317 2405 2486 2483 2402 2482 2557
8 2408 2319 2407 2488 2485 2404 2484 2559
8 2409 2320 2408 2489 2486 2405 2485 2560
8 2411 2322 2410 2490 2488 2407 2487 2561
8 2412 2323 2411 2491 2489 2408 2488 2562
8 2414 2326 2413 2492 2491 2411 2490 2563
8 2513 2434 2493 2565 2438 2353 2416 2494
8 2496 2417 2352 2436 2567 2494 2438 2515
8 2494 2416 2495 2568 2417 2331 2418 2497
8 2419 2332 2417 2496 2499 2420 2497 2570
8 2497 2418 2498 2571 2420 2333 2421 2500
8 2499 2420 2500 2573 2422 2335 2423 2502
8 2500 2421 2501 2574 2423 2336 2424 2503
8 2502 2423 2503 2576 2425 2338 2426 2505
8 2503 2424 2504 2577 2426 2339 2427 2506
8 2505 2426 2506 2578 2429 2341 2428 2507
8 2509 2431 2373 2455 2580 2508 2454 2529
8 2509 2431 2508 2580 2449 2363 2448 2525
8 2432 2510 2581 2509 2374 2456 2530 2455
8 2432 2510 2450 2364 2509 2581 2526 2449
8 2583 2511 2434 2513 2516 2439 2353 2438
8 2436 2352 2437 2514 2515 2438 2516 2588
8 2440 2356 2442 2518 2514 2437 2516 2588
8 2442 2358 2444 2520 2516 2439 2517 2589
8 2519 2443 2520 2591 2441 2357 2442 2518
8 2519 2443 2361 2447 2591 2520 2446 2524
8 2446 2360 2445 2523 2520 2444 2521 2592
8 2525 2448 2522 2593 2452 2369 2445 2523
8 2524 2446 2370 2453 2594 2523 2452 2527
8 2526 2449 2525 2595 2451 2368 2452 2527
8 2534 2462 2528 2597 2460 2382 2454 2529
8 2530 2455 2380 2458 2598 2529 2460 2532
8 2599 2533 2460 2532 2531 2459 2380 2458
8 2537 2464 2533 2599 2463 2384 2459 2531
8 2534 2462 2382 2460 2601 2535 2461 2533
8 2538 2465 2535 2601 2464 2385 2461 2533
8 2540 2467 2538 2604 2466 2387 2464 2537
8 2541 2468 2539 2605 2467 2388 2465 2538
8 2543 2470 2541 2607 2469 2390 2467 2540
8 2470 2391 2471 2544 2541 2468 2542 2608
8 2472 2393 2473 2546 2543 2470 2544 2610
8 2473 2394 2474 2547 2544 2471 2545 2611
8 2475 2396 2476 2549 2546 2473 2547 2613
8 2476 2397 2477 2550 2547 2474 2548 2614
8 2549 2476 2399 2478 2616 2550 2479 2552
8 2479 2400 2480 2553 2550 2477 2551 2617
8 2552 2479 2402 2483 2619 2553 2482 2557
8 2482 2401 2481 2556 2553 2480 2554 2620
8 2485 2404 2484 2559 2556 2481 2555 2623
8 2486 2405 2485 2560 2557 2482 2556 2624
8 2488 2407 2487 2561 2559 2484 2558 2625
8 2489 2408 2488 2562 2560 2485 2559 2626
8 2491 2411 2490 2563 2562 2488 2561 2627
8 2513 2434 2512 2585 2565 2493 2564 2630
8 2586 2513 2565 2632 2515 2438 2494 2567
8 2565 2493 2566 2633 2494 2416 2495 2568
8 2567 2494 2568 2635 2496 2417 2497 2570
8 2568 2495 2569 2636 2497 2418 2498 2571
8 2570 2497 2571 2638 2499 2420 2500 2573
8 2571 2498 2572 2639 2500 2421 2501 2574
8 2573 2500 2574 2641 2502 2423 2503 2576
8 2574 2501 2575 2642 2503 2424 2504 2577
8 2576 2503 2577 2643 2505 2426 2506 2578
8 2597 2528 2579 2645 2529 2454 2508 2580
8 2580 2508 2579 2645 2525 2448 2522 2593
8 2581 2509 2455 2530 2646 2580 2529 2598
8 2581 2509 2580 2646 2526 2449 2525 2595
8 2583 2511 2582 2648 2513 2434 2512 2585
8 2583 2511 2439 2516 2648 2582 2517 2589
8 2649 2583 2513 2586 2588 2516 2438 2515
8 2589 2517 2444 2520 2653 2587 2521 2592
8 2518 2442 2520 2591 2588 2516 2589 2654
8 2593 2522 2590 2655 2523 2445 2521 2592
8 2524 2446 2523 2594 2591 2520 2592 2656
8 2595 2525 2593 2657 2527 2452 2523 2594
8 2602 2536 2596 2659 2534 2462 2528 2597
8 2600 2534 2597 2660 2532 2460 2529 2598
8 2600 2534 2460 2532 2661 2601 2533 2599
8 2604 2538 2601 2661 2537 2464 2533 2599
8 2602 2536 2462 2534 2663 2603 2535 2601
8 2601 2535 2465 2538 2663 2603 2539 2605
8 2607 2541 2605 2665 2540 2467 2538 2604
8 2608 2542 2606 2666 2541 2468 2539 2605
8 2543 2470 2544 2610 2607 2541 2608 2668
8 2544 2471 2545 2611 2608 2542 2609 2669
8 2546 2473 2547 2613 2610 2544 2611 2671
8 2547 2474 2548 2614 2611 2545 2612 2672
8 2549 2476 2550 2616 2613 2547 2614 2674
8 2550 2477 2551 2617 2614 2548 2615 2675
8 2552 2479 2553 2619 2616 2550 2617 2677
8 2553 2480 2554 2620 2617 2551 2618 2678
8 2557 2482 2556 2624 2619 2553 2620 2680
8 2556 2481 2555 2623 2620 2554 2621 2681
8 2559 2484 2558 2625 2623 2555 2622 2683
8 2560 2485 2559 2626 2624 2556 2623 2684
8 2562 2488 2561 2627 2626 2559 2625 2685
8 2690 2629 2564 2630 2650 2584 2512 2585
8 2586 2513 2585 2651 2632 2565 2630 2691
8 2630 2564 2631 2692 2565 2493 2566 2633
8 2632 2565 2633 2694 2567 2494 2568 2635
8 2633 2566 2634 2695 2568 2495 2569 2636
8 2635 2568 2636 2697 2570 2497 2571 2638
8 2636 2569 2637 2698 2571 2498 2572 2639
8 2638 2571 2639 2700 2573 2500 2574 2641
8 2639 2572 2640 2701 2574 2501 2575 2642
8 2641 2574 2642 2702 2576 2503 2577 2643
8 2597 2528 2596 2659 2645 2579 2644 2704
8 2645 2579 2644 2704 2593 2522 2590 2655
8 2660 2597 2645 2705 2598 2529 2580 2646
8 2646 2580 2645 2705 2595 2525 2593 2657
8 2650 2584 2512 2585 2707 2647 2582 2648
8 2648 2582 2517 2589 2707 2647 2587 2653
8 2649 2583 2648 2708 2586 2513 2585 2651
8 2649 2583 2516 2588 2708 2648 2589 2654
8 2655 2590 2652 2710 2592 2521 2587 2653
8 2654 2589 2520 2591 2711 2653 2592 2656
8 2657 2593 2655 2712 2594 2523 2592 2656
8 2602 2536 2603 2663 2659 2596 2658 2714
8 2662 2602 2659 2715 2600 2534 2597 2660
8 2662 2602 2534 2600 2717 2663 2601 2661
8 2661 2601 2538 2604 2717 2663 2605 2665
8 2666 2606 2664 2718 2605 2539 2603 2663
8 2668 2608 2666 2720 2607 2541 2605 2665
8 2608 2542 2609 2669 2666 2606 2667 2721
8 2610 2544 2611 2671 2668 2608 2669 2723
8 2611 2545 2612 2672 2669 2609 2670 2724
8 2613 2547 2614 2674 2671 2611 2672 2726
8 2614 2548 2615 2675 2672 2612 2673 2727
8 2616 2550 2617 2677 2674 2614 2675 2729
8 2617 2551 2618 2678 2675 2615 2676 2730
8 2619 2553 2620 2680 2677 2617 2678 2732
8 2620 2554 2621 2681 2678 2618 2679 2733
8 2624 2556 2623 2684 2680 2620 2681 2735
8 2681 2621 2555 2623 2736 2682 2622 2683
8 2626 2559 2625 2685 2684 2623 2683 2737
8 2688 2628 2584 2650 2740 2686 2647 2707
8 2688 2628 2687 2742 2650 2584 2629 2690
8 2690 2629 2689 2745 2630 2564 2631 2692
8 2746 2690 2630 2691 2709 2650 2585 2651
8 2691 2630 2692 2747 2632 2565 2633 2694
8 2692 2631 2693 2748 2633 2566 2634 2695
8 2694 2633 2695 2750 2635 2568 2636 2697
8 2695 2634 2696 2751 2636 2569 2637 2698
8 2697 2636 2698 2753 2638 2571 2639 2700
8 2698 2637 2699 2754 2639 2572 2640 2701
8 2700 2639 2701 2755 2641 2574 2642 2702
8 2659 2596 2658 2714 2704 2644 2703 2757
8 2704 2644 2703 2757 2655 2590 2652 2710
8 2660 2597 2659 2715 2705 2645 2704 2758
8 2705 2645 2704 2758 2657 2593 2655 2712
8 2759 2706 2647 2707 2710 2652 2587 2653
8 2709 2650 2585 2651 2760 2707 2648 2708
8 2708 2648 2589 2654 2760 2707 2653 2711
8 2712 2655 2710 2761 2656 2592 2653 2711
8 2763 2713 2658 2714 2718 2664 2603 2663
8 2662 2602 2663 2717 2715 2659 2714 2764
8 2720 2666 2718 2767 2665 2605 2663 2717
8 2768 2719 2664 2718 2721 2667 2606 2666
8 2668 2608 2669 2723 2720 2666 2721 2770
8 2669 2609 2670 2724 2721 2667 2722 2771
8 2671 2611 2672 2726 2723 2669 2724 2773
8 2672 2612 2673 2727 2724 2670 2725 2774
8 2674 2614 2675 2729 2726 2672 2727 2776
8 2675 2615 2676 2730 2727 2673 2728 2777
8 2677 2617 2678 2732 2729 2675 2730 2779
8 2678 2618 2679 2733 2730 2676 2731 2780
8 2680 2620 2681 2735 2732 2678 2733 2782
8 2733 2679 2621 2681 2783 2734 2682 2736
8 2735 2681 2623 2684 2784 2736 2683 2737
8 2740 2686 2647 2707 2787 2738 2706 2759
8 2688 2628 2686 2740 2742 2687 2739 2789
8 2743 2688 2650 2709 2790 2740 2707 2760
8 2742 2687 2741 2792 2690 2629 2689 2745
8 2743 2688 2742 2793 2709 2650 2690 2746
8 2745 2689 2744 2795 2692 2631 2693 2748
8 2746 2690 2745 2796 2691 2630 2692 2747
8 2747 2692 2748 2797 2694 2633 2695 2750
8 2748 2693 2749 2798 2695 2634 2696 2751
8 2750 2695 2751 2800 2697 2636 2698 2753
8 2751 2696 2752 2801 2698 2637 2699 2754
8 2753 2698 2754 2802 2700 2639 2701 2755
8 2763 2713 2756 2804 2714 2658 2703 2757
8 2759 2706 2652 2710 2804 2756 2703 2757
8 2715 2659 2714 2764 2758 2704 2757 2805
8 2758 2704 2757 2805 2712 2655 2710 2761
8 2806 2759 2707 2760 2761 2710 2653 2711
8 2765 2716 2762 2808 2718 2664 2713 2763
8 2809 2763 2714 2764 2767 2718 2663 2717
8 2765 2716 2664 2718 2811 2766 2719 2768
8 2813 2768 2718 2767 2770 2721 2666 2720
8 2814 2769 2719 2768 2771 2722 2667 2721
8 2723 2669 2724 2773 2770 2721 2771 2816
8 2724 2670 2725 2774 2771 2722 2772 2817
8 2726 2672 2727 2776 2773 2724 2774 2819
8 2727 2673 2728 2777 2774 2725 2775 2820
8 2729 2675 2730 2779 2776 2727 2777 2822
8 2730 2676 2731 2780 2777 2728 2778 2823
8 2732 2678 2733 2782 2779 2730 2780 2825
8 2780 2731 2679 2733 2826 2781 2734 2783
8 2782 2733 2681 2735 2827 2783 2736 2784
8 2830 2785 2738 2787 2804 2756 2706 2759
8 2789 2739 2686 2740 2832 2786 2738 2787
8 2790 2740 2707 2760 2833 2787 2759 2806
8 2742 2687 2739 2789 2792 2741 2788 2835
8 2743 2688 2740 2790 2793 2742 2789 2836
8 2792 2741 2791 2838 2745 2689 2744 2795
8 2793 2742 2792 2839 2746 2690 2745 2796
8 2795 2744 2794 2841 2748 2693 2749 2798
8 2796 2745 2795 2842 2747 2692 2748 2797
8 2797 2748 2798 2843 2750 2695 2751 2800
8 2798 2749 2799 2844 2751 2696 2752 2801
8 2800 2751 2801 2845 2753 2698 2754 2802
8 2808 2762 2803 2847 2763 2713 2756 2804
8 2809 2763 2804 2848 2764 2714 2757 2805
8 2806 2759 2710 2761 2848 2804 2757 2805
8 2765 2716 2766 2811 2808 2762 2807 2850
8 2810 2765 2808 2851 2767 2718 2763 2809
8 2810 2765 2718 2767 2852 2811 2768 2813
8 2811 2766 2719 2768 2853 2812 2769 2814
8 2855 2814 2768 2813 2816 2771 2721 2770
8 2856 2815 2769 2814 2817 2772 2722 2771
8 2773 2724 2774 2819 2816 2771 2817 2858
8 2774 2725 2775 2820 2817 2772 2818 2859
8 2776 2727 2777 2822 2819 2774 2820 2861
8 2777 2728 2778 2823 2820 2775 2821 2862
8 2779 2730 2780 2825 2822 2777 2823 2864
8 2823 2778 2731 2780 2865 2824 2781 2826
8 2825 2780 2733 2782 2866 2826 2783 2827
8 2869 2828 2785 2830 2847 2803 2756 2804
8 2871 2829 2786 2832 2830 2785 2738 2787
8 2872 2830 2787 2833 2848 2804 2759 2806
8 2789 2739 2786 2832 2835 2788 2831 2874
8 2836 2789 2740 2790 2875 2832 2787 2833
8 2792 2741 2788 2835 2838 2791 2834 2877
8 2793 2742 2789 2836 2839 2792 2835 2878
8 2838 2791 2837 2880 2795 2744 2794 2841
8 2839 2792 2838 2881 2796 2745 2795 2842
8 2841 2794 2840 2882 2798 2749 2799 2844
8 2842 2795 2841 2883 2797 2748 2798 2843
8 2843 2798 2844 2884 2800 2751 2801 2845
8 2886 2846 2803 2847 2850 2807 2762 2808
8 2851 2808 2847 2887 2809 2763 2804 2848
8 2850 2807 2766 2811 2889 2849 2812 2853
8 2810 2765 2811 2852 2851 2808 2850 2890
8 2852 2811 2768 2813 2891 2853 2814 2855
8 2853 2812 2769 2814 2892 2854 2815 2856
8 2894 2856 2814 2855 2858 2817 2771 2816
8 2817 2772 2818 2859 2856 2815 2857 2895
8 2819 2774 2820 2861 2858 2817 2859 2897
8 2820 2775 2821 2862 2859 2818 2860 2898
8 2822 2777 2823 2864 2861 2820 2862 2900
8 2823 2778 2824 2865 2862 2821 2863 2901
8 2864 2823 2780 2825 2902 2865 2826 2866
8 2904 2867 2828 2869 2886 2846 2803 2847
8 2869 2828 2868 2906 2830 2785 2829 2871
8 2907 2869 2830 2872 2887 2847 2804 2848
8 2871 2829 2870 2909 2832 2786 2831 2874
8 2910 2871 2832 2875 2872 2830 2787 2833
8 2835 2788 2831 2874 2877 2834 2873 2912
8 2836 2789 2832 2875 2878 2835 2874 2913
8 2877 2834 2876 2915 2838 2791 2837 2880
8 2839 2792 2835 2878 2881 2838 2877 2916
8 2880 2837 2879 2917 2841 2794 2840 2882
8 2881 2838 2880 2918 2842 2795 2841 2883
8 2883 2841 2882 2919 2843 2798 2844 2884
8 2921 2885 2846 2886 2889 2849 2807 2850
8 2922 2886 2847 2887 2890 2850 2808 2851
8 2889 2849 2812 2853 2924 2888 2854 2892
8 2890 2850 2811 2852 2925 2889 2853 2891
8 2891 2853 2814 2855 2926 2892 2856 2894
8 2892 2854 2815 2856 2927 2893 2857 2895
8 2858 2817 2859 2897 2894 2856 2895 2929
8 2859 2818 2860 2898 2895 2857 2896 2930
8 2861 2820 2862 2900 2897 2859 2898 2932
8 2862 2821 2863 2901 2898 2860 2899 2933
8 2864 2823 2865 2902 2900 2862 2901 2934
8 2904 2867 2846 2886 2936 2903 2885 2921
8 2904 2867 2903 2936 2869 2828 2868 2906
8 2937 2904 2869 2907 2922 2886 2847 2887
8 2906 2868 2905 2939 2871 2829 2870 2909
8 2907 2869 2906 2940 2872 2830 2871 2910
8 2909 2870 2908 2942 2874 2831 2873 2912
8 2910 2871 2909 2943 2875 2832 2874 2913
8 2912 2873 2911 2945 2877 2834 2876 2915
8 2878 2835 2874 2913 2916 2877 2912 2946
8 2915 2876 2914 2947 2880 2837 2879 2917
8 2916 2877 2915 2948 2881 2838 2880 2918
8 2918 2880 2917 2949 2883 2841 2882 2919
8 2921 2885 2849 2889 2951 2920 2888 2924
8 2952 2921 2886 2922 2925 2889 2850 2890
8 2924 2888 2854 2892 2954 2923 2893 2927
8 2925 2889 2853 2891 2955 2924 2892 2926
8 2926 2892 2856 2894 2956 2927 2895 2929
8 2895 2857 2896 2930 2927 2893 2928 2957
8 2897 2859 2898 2932 2929 2895 2930 2959
8 2898 2860 2899 2933 2930 2896 2931 2960
8 2900 2862 2901 2934 2932 2898 2933 2961
8 2936 2903 2885 2921 2963 2935 2920 2951
8 2936 2903 2935 2963 2906 2868 2905 2939
8 2937 2904 2886 2922 2964 2936 2921 2952
8 2937 2904 2936 2964 2907 2869 2906 2940
8 2939 2905 2938 2966 2909 2870 2908 2942
8 2940 2906 2939 2967 2910 2871 2909 2943
8 2942 2908 2941 2969 2912 2873 2911 2945
8 2943 2909 2942 2970 2913 2874 2912 2946
8 2945 2911 2944 2971 2915 2876 2914 2947
8 2946 2912 2945 2972 2916 2877 2915 2948
8 2948 2915 2947 2973 2918 2880 2917 2949
8 2951 2920 2888 2924 2975 2950 2923 2954
8 2952 2921 2889 2925 2976 2951 2924 2955
8 2927 2893 2928 2957 2954 2923 2953 2978
8 2955 2924 2892 2926 2979 2954 2927 2956
8 2929 2895 2930 2959 2956 2927 2957 2980
8 2930 2896 2931 2960 2957 2928 2958 2981
8 2932 2898 2933 2961 2959 2930 2960 2982
8 2951 2920 2950 2975 2963 2935 2962 2984
8 2963 2935 2962 2984 2939 2905 2938 2966
8 2964 2936 2921 2952 2985 2963 2951 2976
8 2964 2936 2963 2985 2940 2906 2939 2967
8 2966 2938 2965 2987 2942 2908 2941 2969
8 2967 2939 2966 2988 2943 2909 2942 2970
8 2969 2941 2968 2989 2945 2911 2944 2971
8 2970 2942 2969 2990 2946 2912 2945 2972
8 2972 2945 2971 2991 2948 2915 2947 2973
8 2954 2923 2953 2978 2975 2950 2974 2993
8 2976 2951 2924 2955 2994 2975 2954 2979
8 2957 2928 2958 2981 2978 2953 2977 2995
8 2956 2927 2957 2980 2979 2954 2978 2996
8 2959 2930 2960 2982 2980 2957 2981 2997
8 2984 2962 2983 2999 2966 2938 2965 2987
8 2975 2950 2974 2993 2984 2962 2983 2999
8 2976 2951 2975 2994 2985 2963 2984 3000
8 2985 2963 2984 3000 2967 2939 2966 2988
8 2987 2965 2986 3001 2969 2941 2968 2989
8 2988 2966 2987 3002 2970 2942 2969 2990
8 2990 2969 2989 3003 2972 2945 2971 2991
8 2978 2953 2977 2995 2993 2974 2992 3004
8 2979 2954 2978 2996 2994 2975 2993 3005
8 2980 2957 2981 2997 2996 2978 2995 3006
8 2974 2993 2999 2983 2992 3004 3007 2998
8 2983 2999 2987 2965 2998 3007 3001 2986
8 3000 2984 2999 3008 2988 2966 2987 3002
8 2994 2975 2993 3005 3000 2984 2999 3008
8 3002 2987 3001 3009 2990 2969 2989 3003
8 2996 2978 2995 3006 3005 2993 3004 3010
8 3005 2993 3004 3010 3008 2999 3007 3011
8 3008 2999 3007 3011 3002 2987 3001 3009

CELL_TYPES 1910
12
12
12
12
12
12
12
12
12
12
12
12
12
12
12
12
12
12
12
12
12
12
12
12
12
12
12
12
12
12
12
12
12
12
12
12
12
12
12
12
12
12
12
12
12
12
12
12
12
12
12
12
12
12
12
12
12
12
12
12
12
12
12
12
12
12
12
12
12
12
12
12
12
12
12
12
12
12
12
12
12
12
12
12
12
12
12
12
12
12
12
12
12
12
12
12
12
12
12
12
12
12
12
12
12
12
12
12
12
12
12
12
12
12
12
12
12
12
12
12
12
12
12
12
12
12
12
12
12
12
12
12
12
12
12
12
12
12
12
12
12
12
12
12
12
12
12
12
12
12
12
12
12
12
12
12
12
12
12
12
12
12
12
12
12
12
12
12
12
12
12
12
12
12
12
12
12
12
12
12
12
12
12
12
12
12
12
12
12
12
12
12
12
12
12
12
12
12
12
12
12
12
12
12
12
12
12
12
12
12
12
12
12
12
12
12
12
12
12
12
12
12
12
12
12
12
12
12
12
12
12
12
12
12
12
12
12
12
12
12
12
12
12
12
12
12
12
12
12
12
12
12
12
12
12
12
12
12
12
12
12
12
12
12
12
12
12
12
12
12
12
12
12
12
12
12
12
12
12
12
12
12
12
12
12
12
12
12
12
12
12
12
12
12
12
12
12
12
12
12
12
12
12
12
12
12
12
12
12
12
12
12
12
12
12
12
12
12
12
12
12
12
12
12
12
12
12
12
12
12
12
12
12
12
12
12
12
12
12
12
12
12
12
12
12
12
12
12
12
12
12
12
12
12
12
12
12
12
12
12
12
12
12
12
12
12
12
12
12
12
12
12
12
12
12
12
12
12
12
12
12
12
12
12
12
12
12
12
12
12
12
12
12
12
12
12
12
12
12
12
12
12
12
12
12
12
12
12
12
12
12
12
12
12
12
12
12
12
12
12
12
12
12
12
12
12
12
12
12
12
12
12
12
12
12
12
12
12
12
12
12
12
12
12
12
12
12
12
12
12
12
12
12
12
12
12
12
12
12
12
12
12
12
12
12
12
12
12
12
12
12
12
12
12
12
12
12
12
12
12
12
12
12
12
12
12
12
12
12
12
12
12
12
12
12
12
12
12
12
12
12
12
12
12
12
12
12
12
12
12
12
12
12
12
12
12
12
12
12
12
12
12
12
12
12
12
12
12
12
12
12
12
12
12
12
12
12
12
12
12
12
12
12
12
12
12
12
12
12
12
12
12
12
12
12
12
12
12
12
12
12
12
12
12
12
12
12
12
12
12
12
12
12
12
12
12
12
12
12
12
12
12
12
12
12
12
12
12
12
12
12
12
12
12
12
12
12
12
12
12
12
12
12
12
12
12
12
12
12
12
12
12
12
12
12
12
12
12
12
12
12
12
12
12
12
12
12
12
12
12
12
12
12
12
12
12
12
12
12
12
12
12
12
12
12
12
12
12
12
12
12
12
12
12
12
12
12
12
12
12
12
12
12
12
12
12
12
12
12
12
12
12
12
12
12
12
12
12
12
12
12
12
12
12
12
12
12
12
12
12
12
12
12
12
12
12
12
12
12
12
12
12
12
12
12
12
12
12
12
12
12
12
12
12
12
12
12
12
12
12
12
12
12
12
12
12
12
12
12
12
12
12
12
12
12
12
12
12
12
12
12
12
12
12
12
12
12
12
12
12
12
12
12
12
12
12
12
12
12
12
12
12
12
12
12
12
12
12
12
12
12
12
12
12
12
12
12
12
12
12
12
12
12
12
12
12
12
12
12
12
12
12
12
12
12
12
12
12
12
12
12
12
12
12
12
12
12
12
12
12
12
12
12
12
12
12
12
12
12
12
12
12
12
12
12
12
12
12
12
12
12
12
12
12
12
12
12
12
12
12
12
12
12
12
12
12
12
12
12
12
12
12
12
12
12
12
12
12
12
12
12
12
12
12
12
12
12
12
12
12
12
12
12
12
12
12
12
12
12
12
12
12
12
12
12
12
12
12
12
12
12
12
12
12
12
12
12
12
12
12
12
12
12
12
12
12
12
12
12
12
12
12
12
12
12
12
12
12
12
12
12
12
12
12
12
12
12
12
12
12
12
12
12
12
12
12
12
12
12
12
12
12
12
12
12
12
12
12
12
12
12
12
12
12
12
12
12
12
12
12
12
12
12
12
12
12
12
12
12
12
12
12
12
12
12
12
12
12
12
12
12
12
12
12
12
12
12
12
12
12
12
12
12
12
12
12
12
12
12
12
12
12
12
12
12
12
12
12
12
12
12
12
12
12
12
12
12
12
12
12
12
12
12
12
12
12
12
12
12
12
12
12
12
12
12
12
12
12
12
12
12
12
12
12
12
12
12
12
12
12
12
12
12
12
12
12
12
12
12
12
12
12
12
12
12
12
12
12
12
12
12
12
12
12
12
12
12
12
12
12
12
12
12
12
12
12
12
12
12
12
12
12
12
12
12
12
12
12
12
12
12
12
12
12
12
12
12
12
12
12
12
12
12
12
12
12
12
12
12
12
12
12
12
12
12
12
12
12
12
12
12
12
12
12
12
12
12
12
12
12
12
12
12
12
12
12
12
12
12
12
12
12
12
12
12
12
12
12
12
12
12
12
12
12
12
12
12
12
12
12
12
12
12
12
12
12
12
12
12
12
12
12
12
12
12
12
12
12
12
12
12
12
12
12
12
12
12
12
12
12
12
12
12
12
12
12
12
12
12
12
12
12
12
12
12
12
12
12
12
12
12
12
12
12
12
12
12
12
12
12
12
12
12
12
12
12
12
12
12
12
12
12
12
12
12
12
12
12
12
12
12
12
12
12
12
12
12
12
12
12
12
12
12
12
12
12
12
12
12
12
12
12
12
12
12
12
12
12
12
12
12
12
12
12
12
12
12
12
12
12
12
12
12
12
12
12
12
12
12
12
12
12
12
12
12
12
12
12
12
12
12
12
12
12
12
12
12
12
12
12
12
12
12
12
12
12
12
12
12
12
12
12
12
12
12
12
12
12
12
12
12
12
12
12
12
12
12
12
12
12
12
12
12
12
12
12
12
12
12
12
12
12
12
12
12
12
12
12
12
12
12
12
12
12
12
12
12
12
12
12
12
12
12
12
12
12
12
12
12
12
12
12
12
12
12
12
12
12
12
12
12
12
12
12
12
12
12
12
12
12
12
12
12
12
12
12
12
12
12
12
12
12
12
12
12
12
12
12
12
12
12
12
12
12
12
12
12
12
12
12
12
12
12
12
12
12
12
12
12
12
12
12
12
12
12
12
12
12
12
12
12
12
12
12
12
12
12
12
12
12
12
12
12
12
12
12
12
12
12
12
12
12
12
12
12
12
12
12
12
12
12
12
12
12
12
12
12
12
12
12
12
12
12
12
12
12
12
12
12
12
12
12
12
12
12
12
12
12
12
12
12
12
12
12
12
12
12
12
12
12
12
12
12
12
12
12
12
12
12
12
12
12
12
12
12
12
12
12
12
12
12
12
12
12
12
12
12
12
12
12
12
12
12
12
12
12
12
12
12
12
12
12
12
12
12
12
12
12
12
12
12
12
12
12
12
12
12
12
12
12
12
12
12
12
12
12
12
12
12
12
12
12
12
12
12
12
12
12
12
12
12
12
12
12
12
12
12
12
12
12
12
12
12
12
12
12
12
12
12
12
12
12
12
12
12
12
12
12
12
12
12
12
12
12
12
12
12
12
12
12
12
12
12
12
12
12
12
12
12
12
12
12
12
12
12
12
12
12
12
12
12
12
12
12
12
12
12
12
12
12
12
12
12
12
12
12
12
12
12
12
12
12
12
12
12
12
12
12
12
12
12
12
12
12
12
12
12
12
12
12
12
12
12
12
12
12
12
12
12
12
12
12
12
12
12
12
12
12
12
12
12
12
12
12
12
12
12
12
12
12
12
12
12
12
12
12
12
12
12
12
12
12
12
12
12
12
12
12
12
12
12
12
12
12
12
12
12
12
12
12
12
12
12
12
12
12
12
12
12
12
12
12
12
12
12
12
12
12
12
12
12
12
12
12
12
12
12
12
12
12
12
12
12
12
12
12
12
12
12
12
12
12
12
12
12
12
12
12
12
12
12
12
12
12
12
12
12
12
12
12
12
12
12
12
12
12
12
12
12
12
12
12
12
12
12
12
12
12
12
12
12
12
12
12
12
12
12
12
12
12
12
12
12
12
12
12
12
12
12
12
12
12
12
12
12
12
12
12
12
12
12
12
12
12
12
12
12
12
12
12
12
12
12
12
12
12
12
12
12
12
12
12
12
12
12
12
12
12
12
12

POINT_DATA 3012
SCALARS Jp_lamdaP float 4
LOOKUP_TABLE default
0.999922 1 1 0.999922
1 1 1 1
0.999925 1 1 0.999925
0.999889 1 1 0.999889
0.99992 1 1 0.99992
0.999924 1 1 0.999924
0.999536 1 1 0.999536
1 1 1 1
1 1 1 1
1 1 1 1
0.999984 1 1 0.999984
0.999707 1 1 0.999707
0.999848 1 1 0.999848
0.999881 1 1 0.999881
0.999925 1 1 0.999925
0.999899 1 1 0.999899
0.999928 1 1 0.999928
0.999925 1 1 0.999925
0.999539 1 1 0.999539
1 1 1 1
0.999874 1 1 0.999874
0.999907 1 1 0.999907
0.999415 1 1 0.999415
0.999503 1 1 0.999503
0.999949 1 1 0.999949
0.999578 1 1 0.999578
0.998914 1 1 0.998914
1 1 1 1
0.999951 1 1 0.999951
0.999964 1 1 0.999964
1 1 1 1
0.999715 1 1 0.999715
0.999898 1 1 0.999898
0.999919 1 1 0.999919
0.999595 1 1 0.999595
1 1 1 1
0.999685 1 1 0.999685
0.999787 1 1 0.999787
0.999 1 1 0.999
1 1 1 1
1 1 1 1
0.999938 1 1 0.999938
1 1 1 1
0.99987 1 1 0.99987
0.999352 1 1 0.999352
1 1 1 1
0.999513 1 1 0.999513
0.999908 1 1 0.999908
0.999928 1 1 0.999928
0.999931 1 1 0.999931
0.999543 1 1 0.999543
0.999923 1 1 0.999923
0.999884 1 1 0.999884
0.999955 1 1 0.999955
0.999915 1 1 0.999915
0.999416 1 1 0.999416
0.999582 1 1 0.999582
0.999506 1 1 0.999506
0.9989 1 1 0.9989
1 1 1 1
0.999859 1 1 0.999859
0.999469 1 1 0.999469
0.999384 1 1 0.999384
0.999458 1 1 0.999458
0.998627 1 1 0.998627
0.998763 1 1 0.998763
0.999983 1 1 0.999983
0.999689 1 1 0.999689
0.999025 1 1 0.999025
0.998731 1.00042 1 0.998313
1 1 1 1
1 1 1 1
1 1 1 1
0.999723 1 1 0.999723
1 1 1 1
1 1 1 1
0.999551 1 1 0.999551
0.999999 1 1 0.999999
0.999658 1 1 0.999658
0.999814 1 1 0.999814
0.998998 1 1 0.998998
1 1 1 1
0.999988 1 1 0.999988
0.999499 1 1 0.999499
0.999588 1 1 0.999588
0.998604 1 1 0.998604
0.999891 1 1 0.999891
0.9989 1 1 0.9989
0.999116 1 1 0.999116
0.998566 1 1 0.998566
1 1 1 1
1 1 1 1
1 1 1 1
1 1 1 1
1 1 1 1
0.999931 1 1 0.999931
0.999408 1 1 0.999408
0.999943 1 1 0.999943
0.999487 1 1 0.999487
1 1 1 1
0.999327 1 1 0.999327
0.999482 1 1 0.999482
0.998289 1 1 0.998289
0.999542 1 1 0.999542
0.998391 1 1 0.998391
0.999863 1 1 0.999863
0.999894 1 1 0.999894
0.999962 1 1 0.999962
0.999922 1 1 0.999922
0.999418 1 1 0.999418
0.99951 1 1 0.99951
0.999587 1 1 0.999587
0.998885 1 1 0.998885
1 1 1 1
0.99987 1 1 0.99987
0.999352 1 1 0.999352
0.999384 1 1 0.999384
0.999991 1 1 0.999991
0.99973 1 1 0.99973
0.999461 1 1 0.999461
0.998593 1 1 0.998593
0.999005 1 1 0.999005
0.998787 1 1 0.998787
0.998913 1.0006 1 0.998315
0.999347 1 1 0.999347
0.999357 1 1 0.999357
0.998415 1 1 0.998415
0.998521 1 1 0.998521
0.998649 1 1 0.998649
1.00141 1.00334 1 0.998078
1 1 1 1
0.999356 1.00112 1 0.998235
0.999866 1 1 0.999866
0.999092 1 1 0.999092
0.998492 1.0001 1 0.998391
1.00256 1.00448 1 0.998083
0.999952 1 1 0.999952
0.999465 1 1 0.999465
1 1 1 1
1 1 1 1
0.999557 1 1 0.999557
1 1 1 1
0.999825 1 1 0.999825
0.999662 1 1 0.999662
0.998996 1 1 0.998996
1 1 1 1
0.999993 1 1 0.999993
0.999536 1 1 0.999536
0.999623 1 1 0.999623
0.998606 1 1 0.998606
0.99991 1 1 0.99991
0.998903 1 1 0.998903
0.999116 1 1 0.999116
0.998552 1 1 0.998552
0.999954 1 1 0.999954
1 1 1 1
0.999592 1 1 0.999592
0.998495 1 1 0.998495
0.998756 1 1 0.998756
1.0011 1.00298 1 0.99812
0.999269 1 1 0.999269
0.998691 1.00024 1 0.998451
0.999164 1 1.00051 0.998657
0.998412 1 1 0.998412
1 1 1 1
1 1 1 1
1 1 1 1
0.999975 1 1 0.999975
1 1 1 1
1 1 1 1
1 1 1 1
0.999457 1 1 0.999457
0.999374 1 1 0.999374
1 1 1 1
1 1 1 1
0.999329 1 1 0.999329
0.999455 1 1 0.999455
0.998289 1 1 0.998289
0.999483 1 1 0.999483
0.998391 1 1 0.998391
0.999317 1 1 0.999317
0.998232 1 1 0.998232
0.99835 1 1 0.99835
1.00422 1.00637 1 0.997859
0.998431 1 1 0.998431
1.00347 1.00553 1 0.997956
1 1 1 1
0.999881 1 1 0.999881
0.999227 1 1 0.999227
0.999384 1 1 0.999384
1 1 1 1
0.999772 1 1 0.999772
0.999464 1 1 0.999464
0.998558 1 1 0.998558
0.998811 1 1 0.998811
0.998986 1 1 0.998986
0.999095 1.00078 1 0.998318
0.999344 1 1 0.999344
0.999357 1 1 0.999357
0.998342 1 1 0.998342
0.998546 1 1 0.998546
1 1 1 1
0.999854 1 1 0.999854
0.999126 1 1 0.999126
0.998649 1 1 0.998649
1.00144 1.0034 1 0.99804
0.998579 1.0002 1 0.998384
0.99963 1.00137 1 0.998259
1.00237 1.00429 1 0.998087
0.999944 1 1 0.999944
0.999465 1 1 0.999465
0.998249 1 1 0.998249
0.998474 1 1 0.998474
1.00298 1.00505 1 0.997949
1.00176 1.00382 1 0.997955
1.00016 1.00199 1 0.998171
1.00827 1.01037 1 0.997919
0.999918 1 1 0.999918
1.00376 1.00574 1 0.998037
0.999214 1 1 0.999214
0.998768 1.00023 1 0.998541
1.00179 1.00365 1 0.998151
1.00704 1.00902 1 0.99804
0.999356 1 1 0.999356
0.999601 1 1 0.999601
0.999014 1 1 0.999014
0.999515 1 1 0.999515
1 1 1 1
0.999997 1 1 0.999997
0.999612 1 1 0.999612
0.998609 1 1 0.998609
0.999923 1 1 0.999923
0.999116 1 1 0.999116
0.998906 1 1 0.998906
0.998538 1 1 0.998538
0.999965 1 1 0.999965
1 1 1 1
0.999594 1 1 0.999594
0.998496 1 1 0.998496
0.998761 1 1 0.998761
1.0006 1.00248 1 0.998118
0.999271 1 1 0.999271
0.998626 1.00016 1 0.998462
0.998946 1 1.00029 0.998654
0.998413 1.00001 1 0.9984
1 1 1 1
0.999423 1 1 0.999423
0.999754 1 1 0.999754
0.999146 1 1 0.999146
1.00247 1.00445 1 0.998024
0.999665 1.00138 1 0.998292
1.00622 1.00832 1 0.997912
0.999248 1 1.00042 0.998832
1.00019 1.00191 1 0.998287
0.999944 1 1.00156 0.998383
0.99963 1.00136 1 0.998276
0.999926 1 1 0.999926
1 1 1 1
1 1 1 1
1 1 1 1
1 1 1 1
0.99999 1 1 0.99999
1 1 1 1
0.999969 1 1 0.999969
1 1 1 1
0.999484 1 1 0.999484
0.999422 1 1 0.999422
0.998391 1 1 0.998391
0.998289 1 1 0.998289
0.999331 1 1 0.999331
1 1 1 1
0.999316 1 1 0.999316
0.998232 1 1 0.998232
0.99835 1 1 0.99835
1.00413 1.00628 1 0.997858
0.998431 1 1 0.998431
1.0035 1.00555 1 0.997955
0.99822 1 1 0.99822
1.00418 1.00639 1 0.997805
1.00384 1.00594 1 0.997915
1.01478 1.01702 1 0.997804
1.00331 1.00534 1 0.997984
1.01286 1.01503 1 0.997864
0.999341 1 1 0.999341
0.999357 1 1 0.999357
0.99827 1 1 0.99827
0.998572 1 1 0.998572
1 1 1 1
0.999841 1 1 0.999841
0.99916 1 1 0.99916
0.99865 1 1 0.99865
1.00146 1.00346 1 0.998002
0.999906 1.00163 1 0.998282
0.998654 1.00028 1 0.998376
1.00226 1.00417 1 0.998091
0.999936 1 1 0.999936
0.999465 1 1 0.999465
0.998227 1 1 0.998227
0.998472 1 1 0.998472
1.00316 1.00523 1 0.997939
1.00197 1.00399 1 0.997994
0.999908 1 1 0.999908
0.999212 1 1 0.999212
0.998743 1.00017 1 0.998573
1.00036 1.00219 1 0.998172
1.0086 1.0107 1 0.997918
1.00156 1.00345 1 0.998119
1.0039 1.00587 1 0.998039
1.0073 1.00928 1 0.99804
0.999358 1 1 0.999358
0.999116 1 1.0001 0.999014
0.999599 1 1 0.999599
1.00352 1.00564 1 0.997888
1.00315 1.00519 1 0.997972
1.01322 1.01545 1 0.997801
1.01029 1.01247 1 0.997851
1.00583 1.00787 1 0.997983
1.01387 1.01592 1 0.997982
0.999295 1 1 0.999295
1.00919 1.01118 1 0.998031
0.998807 1 1 0.998807
0.999046 1.00084 1 0.998203
1.0051 1.00714 1 0.997977
1.01031 1.0122 1 0.998133
0.99971 1 1 0.99971
0.998996 1 1 0.998996
0.999141 1 1.00006 0.99908
0.998938 1 1.00008 0.998859
0.998496 1 1 0.998496
1 1 1 1
0.999977 1 1 0.999977
0.999597 1 1 0.999597
0.998766 1 1 0.998766
1.0001 1.00198 1 0.998117
0.999272 1 1 0.999272
0.998763 1 1.00011 0.998651
0.998508 1.00004 1 0.998473
0.998393 1 1 0.998388
1 1 1 1
0.999423 1 1 0.999423
0.99976 1 1 0.99976
0.999143 1 1 0.999143
1.00207 1.00406 1 0.998022
0.999252 1.00096 1 0.998295
1.0062 1.00831 1 0.99791
0.999145 1 1.00031 0.998835
0.999615 1.00132 1 0.998301
1.00008 1 1.00171 0.998372
0.999256 1.00091 1 0.998346
1 1 1 1
0.99985 1 1 0.99985
0.999001 1 1 0.999001
0.999308 1 1 0.999308
0.999162 1 1.00026 0.998898
1.00856 1.01072 1 0.99786
1.00322 1.00515 1 0.998086
1.00907 1.01122 1 0.997881
1.00048 1 1.00197 0.998514
1.0008 1.0026 1 0.998209
0.999784 1.00081 1.00086 0.998114
0.999913 1 1 0.999913
0.999615 1 1 0.999615
0.999934 1 1 0.999934
0.999928 1 1 0.999928
1 1 1 1
1 1 1 1
1 1 1 1
1 1 1 1
1 1 1 1
0.999998 1 1 0.999998
1 1 1 1
0.999986 1 1 0.999986
1 1 1 1
0.999963 1 1 0.999963
1 1 1 1
0.99843 1 1 0.99843
0.99835 1 1 0.99835
1.00352 1.00558 1 0.997955
1.00401 1.00616 1 0.997857
0.998232 1 1 0.998232
0.999316 1 1 0.999316
0.99822 1 1 0.99822
1.00423 1.00644 1 0.997805
1.0037 1.0058 1 0.997914
1.01499 1.01722 1 0.997807
1.00313 1.00516 1 0.997982
1.01231 1.01448 1 0.997863
1.004 1.00622 1 0.997792
1.01562 1.01789 1 0.99777
1.01416 1.01636 1 0.997835
1.01996 1.02213 1 0.99788
1.01046 1.01262 1 0.997868
1.01613 1.01817 1 0.998
0.998204 1 1 0.998204
0.99847 1 1 0.99847
1.00332 1.0054 1 0.997929
1.00217 1.00415 1 0.998032
0.999899 1 1 0.999899
0.99921 1 1 0.99921
0.998729 1.00012 1 0.998605
1.00056 1.00239 1 0.998172
1.00892 1.01103 1 0.997917
1.00403 1.006 1 0.998041
1.00128 1.0032 1 0.998087
1.00752 1.0095 1 0.99804
0.99936 1 1 0.99936
0.999237 1 1.00022 0.999013
0.999596 1 1 0.999596
1.00366 1.00582 1 0.997855
1.0031 1.00514 1 0.997971
1.01309 1.01532 1 0.9978
1.01076 1.01293 1 0.997857
0.999295 1 1 0.999295
0.998801 1 1 0.998801
0.999206 1.00093 1.00003 0.998249
1.00605 1.00808 1 0.99799
1.01321 1.01524 1 0.998004
1.00516 1.00722 1 0.99795
1.00916 1.01115 1 0.998033
1.00968 1.01155 1 0.99815
0.998999 1 1 0.998999
0.998997 1 1.00016 0.998842
0.999706 1 1 0.999706
0.999186 1 1.00009 0.999099
1.01385 1.01613 1 0.997751
1.01319 1.01539 1 0.997836
1.01931 1.02155 1 0.997812
1.01526 1.01734 1 0.997954
1.0118 1.0138 1 0.998031
1.01475 1.01668 1 0.9981
0.998953 1 1 0.998953
1.01075 1.01257 1 0.998201
0.998512 1 1 0.998512
1.00083 1.00268 1.00018 0.997979
1.00826 1.01039 1 0.997896
1.01016 1.01201 1 0.998172
0.999775 1 1 0.999775
0.999213 1 1 0.999213
0.998847 1 1 0.998847
0.999393 1 1.00051 0.998882
0.998886 1 1.00009 0.9988
1 1 1 1
1.00163 1.00362 1 0.998019
0.999765 1 1 0.999765
0.999423 1 1 0.999423
0.999141 1 1 0.999141
0.998923 1.00063 1 0.998297
1.00616 1.00827 1 0.997909
0.999007 1 1.00017 0.998838
1.00028 1.00003 1.0019 0.998361
0.999114 1.0008 1 0.998315
0.998983 1.00057 1 0.998415
1 1 1 1
0.999856 1 1 0.999856
0.999002 1 1 0.999002
0.999308 1 1 0.999308
0.999142 1 1.00026 0.998879
1.00882 1.01099 1 0.997856
1.00278 1.00471 1 0.998086
1.00903 1.01118 1 0.997873
1.00062 1 1.0021 0.998518
1.00143 1.00321 1 0.998224
1.00001 1.00091 1.00096 0.998135
0.999892 1 1 0.999892
0.99945 1 1 0.99945
0.999195 1 1.00048 0.998718
0.999304 1 1.00027 0.999031
0.99942 1 1.00067 0.998754
1.01142 1.01357 1 0.997881
1.005 1.00699 1 0.998022
1.00913 1.01113 1 0.998024
1.00206 1 1.00379 0.998277
1.0007 1.00272 1 0.997989
0.999916 1 1 0.999916
0.999553 1 1 0.999553
0.999597 1 1 0.999597
0.999417 1 1 0.999417
0.999622 1 1 0.999622
0.999936 1 1 0.999936
0.999935 1 1 0.999935
1 1 1 1
0.99993 1 1 0.99993
1 1 1 1
1 1 1 1
1 1 1 1
1 1 1 1
1 1 1 1
1 1 1 1
0.999996 1 1 0.999996
1 1 1 1
1 1 1 1
0.999982 1 1 0.999982
1 1 1 1
1.00297 1.005 1 0.99798
1.00357 1.00567 1 0.997914
1.01177 1.01393 1 0.997863
1.0152 1.01743 1 0.997811
1.0043 1.0065 1 0.997806
0.998219 1 1 0.998219
1.00406 1.00628 1 0.997793
1.0156 1.01788 1 0.997763
1.01398 1.01618 1 0.997835
1.01966 1.02181 1 0.997896
1.01066 1.01283 1 0.997864
1.01633 1.01835 1 0.998009
1.01472 1.01703 1 0.997738
1.01964 1.02186 1 0.997829
1.01809 1.02016 1 0.997963
1.01914 1.02126 0.999956 0.997972
1.01423 1.0163 1 0.997959
1.01754 1.01945 1 0.998131
1.00383 1.00602 1 0.997822
1.00305 1.00509 1 0.997969
1.01299 1.01522 1 0.997799
1.01125 1.01342 1 0.997863
0.999296 1 1 0.999296
0.998795 1 1 0.998795
0.999481 1.00101 1.00018 0.998296
1.00629 1.00831 1 0.997998
1.01256 1.01456 1 0.998025
1.00912 1.01111 1 0.998036
1.00523 1.00732 1 0.997924
1.00902 1.01087 1 0.998167
0.999002 1 1 0.999002
0.998951 1 1.00013 0.998824
0.999702 1 1 0.999702
0.999121 1 1 0.999118
1.01381 1.0161 1 0.997751
1.01309 1.0153 1 0.997829
1.0192 1.02142 1 0.997822
1.01464 1.01673 1 0.997945
0.99895 1 1 0.99895
0.998583 1 1.00003 0.998552
1.00118 1.00283 1.00039 0.997974
1.01148 1.01349 1 0.998013
1.01497 1.01686 1 0.99814
1.00799 1.01013 1 0.997885
1.01046 1.01227 1 0.998203
1.01095 1.01277 1 0.998206
0.998847 1 1 0.998847
0.998799 1 1 0.998799
0.999557 1 1.00068 0.998878
0.999746 1 1 0.999746
0.99923 1 1 0.99923
1.02007 1.02232 1 0.997802
1.01857 1.02075 1 0.99786
1.01573 1.01768 1 0.998092
1.01275 1.01459 1 0.998185
0.99878 1 1 0.99878
1.01211 1.01381 1 0.99832
0.998618 1 1.00029 0.998331
1.00401 1.00576 1.00051 0.997749
1.00922 1.01139 1 0.99785
0.999775 1 1 0.999775
0.999379 1 1 0.999379
0.999276 1 1.00025 0.999022
0.998809 1 1 0.998809
1.00017 1 1.00145 0.998729
0.998748 1 1 0.998748
1 1 1 1
0.999861 1 1 0.999861
1.00913 1.01131 1 0.997851
0.999309 1 1 0.999309
0.999002 1 1 0.999002
0.999162 1 1.0003 0.99886
1.00226 1.00419 1 0.998087
1.00891 1.01106 1 0.997866
1.00079 1 1.00227 0.998522
0.999875 1.00095 1.00077 0.998155
1.00203 1.00379 1 0.99824
0.999896 1 1 0.999896
0.999452 1 1 0.999452
0.999139 1 1.00041 0.998726
0.999313 1 1.00028 0.99903
0.999656 1 1.00092 0.998742
1.01155 1.0137 1 0.997877
1.00534 1.00734 1 0.998015
1.00902 1.01099 1 0.998046
1.0015 1 1.00324 0.998258
1.00065 1.00264 1.00006 0.997959
0.999538 1 1 0.999538
0.99914 1 1 0.99914
1.00055 1 1.002 0.998553
1.00008 1 1.0013 0.998784
0.999557 1 1.00092 0.99864
1.01474 1.01657 1 0.998203
1.00521 1.00729 1 0.997941
1.00767 1.00962 1 0.998072
1.00303 1.00059 1.00433 0.998113
0.999519 1.00177 1 0.997755
0.999919 1 1 0.999919
0.999568 1 1 0.999568
0.999329 1 1 0.999329
0.999578 1 1 0.999578
0.999622 1 1 0.999622
0.99939 1 1 0.99939
0.999255 1 1 0.999255
0.999375 1 1 0.999375
0.999626 1 1 0.999626
0.999933 1 1 0.999933
0.999936 1 1 0.999936
1 1 1 1
0.999936 1 1 0.999936
1 1 1 1
1 1 1 1
1 1 1 1
1 1 1 1
1 1 1 1
1 1 1 1
1 1 1 1
1 1 1 1
0.999994 1 1 0.999994
1 1 1 1
1 1 1 1
1.01083 1.013 1 0.99786
1.01381 1.01601 1 0.997835
1.01651 1.01853 1 0.998019
1.01938 1.02151 1 0.997912
1.01556 1.01785 1 0.997756
1.00411 1.00633 1 0.997793
1.0148 1.01711 1 0.997729
1.01962 1.02185 1 0.997824
1.01817 1.02026 1 0.997946
1.01886 1.02093 0.999987 0.99798
1.01366 1.01573 1 0.99796
1.01717 1.01905 1 0.99816
1.01918 1.02144 1 0.997792
1.02022 1.02237 0.999954 0.997946
1.01955 1.02156 0.999939 0.998087
1.01615 1.01795 1 0.998231
1.01374 1.01602 1 0.997752
1.01297 1.01518 1 0.997821
1.01905 1.02127 1 0.997832
1.01401 1.01611 1 0.997936
0.998947 1 1 0.998947
0.998592 1 1 0.998592
1.00151 1.00297 1.00058 0.997968
1.01112 1.01315 1 0.997996
1.01518 1.01703 1 0.998181
1.01026 1.01207 1 0.998206
1.0077 1.00984 1 0.997874
1.01164 1.01342 1 0.998241
0.998847 1 1 0.998847
0.998798 1 1 0.998798
0.999911 1 1.00104 0.998874
0.999717 1 1 0.999717
0.999246 1 1 0.999246
1.0199 1.02214 1 0.997805
1.0186 1.02078 1 0.997866
1.01564 1.0176 0.999988 0.998088
0.998775 1 1 0.998775
0.998738 1.00011 1.00026 0.998367
1.00386 1.00536 1.00076 0.99774
1.01312 1.01498 1 0.998174
1.00902 1.01114 1 0.997905
1.01151 1.01323 1 0.998308
0.999781 1 1 0.999781
0.998806 1 1 0.998806
0.998783 1 1 0.998783
1.00016 1 1.00144 0.998718
0.999221 1 1.00019 0.999031
0.999357 1 1 0.999357
1.01988 1.02207 1 0.997858
1.01931 1.02219 0.999179 0.997998
1.01509 1.01714 0.999805 0.998179
1.01641 1.01819 0.99992 0.998337
0.99867 1 1 0.99867
1.00957 1.01151 1 0.998079
0.999806 1.00019 1.00165 0.997972
1.00411 1.00546 1.00104 0.997616
0.999838 1 1 0.999838
0.999469 1 1 0.999469
0.999142 1 1 0.999142
1.00037 1 1.00158 0.998791
0.998733 1 1 0.998733
0.999051 1 1.00041 0.998644
0.999901 1 1 0.999901
0.999454 1 1 0.999454
1.01177 1.01392 1 0.997873
0.999281 1 1.00025 0.999029
0.999002 1 1.00027 0.998733
0.999987 1 1.00126 0.998729
1.00568 1.00769 1 0.998007
1.00903 1.01098 1 0.998067
1.00097 1 1.00273 0.998238
1.00069 1.00249 1.00027 0.997928
0.999539 1 1 0.999539
0.99915 1 1 0.99915
1.00055 1 1.00198 0.998571
1.00044 1 1.00165 0.998787
0.99915 1 1.00047 0.998678
1.01475 1.01655 1 0.998224
1.00497 1.00704 1 0.997941
1.00828 1.01015 1 0.998146
1.00304 1.00038 1.00458 0.998091
0.999948 1.00221 1.00003 0.997717
0.999272 1 1 0.999272
0.998935 1 1.00006 0.998876
1.0022 1 1.00378 0.998422
0.999885 1 1.00134 0.998547
1.01968 1.02283 0.998548 0.998368
1.01296 1.0148 0.999872 0.998317
1.00415 1.0064 1 0.997763
1.00284 1.00083 1.00426 0.997758
0.999584 1 1 0.999584
0.999341 1 1 0.999341
0.999198 1 1 0.999198
0.999622 1 1 0.999622
0.999363 1 1 0.999363
0.999625 1 1 0.999625
0.999237 1 1 0.999237
0.999385 1 1 0.999385
0.999129 1 1 0.999129
0.999224 1 1 0.999224
0.99937 1 1 0.99937
0.999618 1 1 0.999618
0.999928 1 1 0.999928
0.999932 1 1 0.999932
1 1 1 1
0.999936 1 1 0.999936
1 1 1 1
1 1 1 1
1 1 1 1
1 1 1 1
1 1 1 1
1 1 1 1
1 1 1 1
1 1 1 1
0.999999 1 1 0.999999
1 1 1 1
1 1 1 1
1.01309 1.01516 1 0.99796
1.01823 1.02035 1 0.997928
1.01678 1.01863 1 0.998188
1.01852 1.02057 1 0.997988
1.0196 1.02183 1 0.997819
1.01489 1.01721 1 0.99772
1.01904 1.02129 1 0.997798
1.01937 1.02155 0.999926 0.997941
1.01931 1.02138 0.999887 0.998089
1.01744 1.01925 1 0.998229
1.02016 1.02233 0.999987 0.997896
1.02256 1.02625 0.998291 0.998113
1.02193 1.02416 0.999588 0.998227
1.01975 1.02199 1 0.997808
1.01864 1.02082 1 0.997871
1.01552 1.01749 0.999985 0.998084
0.998769 1 1 0.998769
0.998798 1.00022 1.00018 0.998404
1.00358 1.00501 1.00085 0.997731
1.01342 1.01529 1 0.998164
1.01106 1.01279 1 0.998297
1.00916 1.01122 1 0.99796
0.998802 1 1 0.998802
0.998819 1 1 0.998819
1.00004 1 1.00133 0.998708
0.999788 1 1 0.999788
0.999128 1 1.00009 0.99904
0.999334 1 1 0.999334
1.02056 1.02275 1 0.997862
1.0197 1.0223 0.999458 0.998003
1.01509 1.0171 0.99986 0.998168
0.99866 1 1 0.99866
0.99987 1.00043 1.0014 0.998046
1.00399 1.00546 1.0009 0.997636
1.01643 1.01823 0.99989 0.998349
1.01003 1.01198 1 0.99807
0.999867 1 1 0.999867
0.999469 1 1 0.999469
0.998742 1 1 0.998742
0.999247 1 1.00056 0.99869
1.00036 1 1.00156 0.998797
0.999123 1 1 0.999123
1.02291 1.02616 0.998797 0.998029
1.0162 1.0213 0.996865 0.998129
1.01672 1.01942 0.998992 0.998361
1.01399 1.01563 1 0.998385
0.999372 1 1.00088 0.998489
1.00343 1.00436 1.0014 0.997667
1.00087 1.00045 1.00264 0.997794
0.999934 1 1 0.999934
0.999643 1 1 0.999643
0.999494 1 1 0.999494
0.99919 1 1 0.99919
0.99924 1 1.00033 0.998915
0.999695 1 1.00103 0.998666
0.998766 1 1 0.998766
1.00625 1 1.00747 0.99879
0.99954 1 1 0.99954
0.99916 1 1 0.99916
1.01463 1.01642 1 0.998245
1.00066 1 1.00187 0.998791
1.00074 1 1.00215 0.998588
0.998751 1 1.00004 0.998715
1.00467 1.00674 1 0.997941
1.00887 1.01067 1 0.99822
1.00311 1.00024 1.00482 0.998069
1.0004 1.00272 1 0.997679
0.99926 1 1 0.99926
0.999115 1 1.00023 0.998886
1.00259 1 1.00415 0.998442
0.999602 1 1.00103 0.998569
1.02015 1.02322 0.998626 0.998372
1.01232 1.0141 0.999949 0.998293
1.00494 1.00715 1 0.997801
1.00233 1.00084 1.00377 0.997726
0.999098 1 1 0.999098
1.01902 1.02379 0.996985 0.998351
0.999872 1 1.0012 0.998675
1.0009 1 1.00268 0.998224
1.01765 1.02034 0.998894 0.998464
1.00618 1.00834 1 0.997859
1.00405 1.00323 1.00323 0.997594
0.999353 1 1 0.999353
0.999197 1 1 0.999197
0.999073 1 1 0.999073
0.999625 1 1 0.999625
0.999395 1 1 0.999395
0.999218 1 1 0.999218
0.999617 1 1 0.999617
0.999372 1 1 0.999372
0.999112 1 1 0.999112
0.999245 1 1 0.999245
0.999029 1 1 0.999029
0.999102 1 1 0.999102
0.999237 1 1 0.999237
0.999369 1 1 0.999369
0.9996 1 1 0.9996
0.999922 1 1 0.999922
0.999927 1 1 0.999927
1 1 1 1
0.999931 1 1 0.999931
1 1 1 1
1 1 1 1
1 1 1 1
1 1 1 1
1 1 1 1
0.999956 1 1 0.999956
1 1 1 1
1 1 1 1
1 1 1 1
1 1 1 1
1 1 1 1
1 1 1 1
1.01875 1.02056 1 0.998227
1.01911 1.02123 0.999838 0.998091
1.01856 1.02075 0.999912 0.997935
1.01888 1.02112 1 0.997803
1.02025 1.02244 0.999943 0.99791
1.02302 1.02659 0.998424 0.9981
1.02213 1.02448 0.999466 0.99824
1.02286 1.02744 0.997457 0.998082
1.02558 1.03001 0.99746 0.998233
1.01125 1.02115 0.991862 0.998427
1.02122 1.0234 1 0.997866
1.0201 1.02245 0.999695 0.998008
1.01512 1.0171 0.999892 0.998158
0.998708 1 1.00006 0.998651
1.00004 1.00067 1.00126 0.998119
1.00358 1.00516 1.00078 0.997656
1.01657 1.01838 0.999862 0.998362
1.00995 1.01191 1 0.998062
0.998752 1 1 0.998752
0.999496 1 1.00076 0.998734
1.0005 1 1.0017 0.998804
0.999897 1 1 0.999897
0.999469 1 1 0.999469
0.999104 1 1 0.999104
1.02224 1.02569 0.998595 0.998043
0.99993 1 1 0.99993
0.999626 1 1 0.999626
1.01635 1.02077 0.997541 0.998128
1.01753 1.02016 0.999087 0.99833
0.999386 1 1.00084 0.998547
1.00174 1.00069 1.0033 0.99776
1.00345 1.00495 1.00084 0.997673
1.01317 1.01482 1 0.998373
0.999543 1 1 0.999543
0.999188 1 1 0.999188
0.998717 1 1 0.998717
1.00348 1 1.00461 0.998874
0.999927 1 1.00128 0.998648
0.999236 1 1.00031 0.998922
1.02397 1.02868 0.997221 0.998199
1.01199 1.02031 0.99357 0.998264
1.01512 1.01892 0.997703 0.998556
1.00444 1.00647 0.999865 0.998115
1.00086 1 1.00234 0.998517
1.00393 1.00088 1.00547 0.997594
0.999646 1 1 0.999646
0.999596 1 1 0.999596
0.999409 1 1 0.999409
0.999194 1 1 0.999194
0.999021 1 1 0.999021
0.999119 1 1.0004 0.998718
1.01077 1 1.01219 0.998594
0.999923 1 1.00102 0.998903
0.999247 1 1 0.999247
0.999248 1 1.00035 0.998895
1.02072 1.02371 0.998704 0.998376
1.01184 1.0136 1 0.998269
0.999371 1 1.00078 0.998591
1.00287 1 1.00441 0.99846
1.00586 1.008 1.00004 0.997839
1.00184 1.0008 1.00335 0.997693
0.999092 1 1 0.999092
1.01942 1.02494 0.99624 0.998374
0.999868 1 1.00118 0.998687
1.00089 1 1.00269 0.9982
1.01712 1.01985 0.998879 0.998439
1.00689 1.00902 1 0.997895
1.00372 1.00263 1.00348 0.997605
0.99966 1 1.0008 0.998864
1.01677 1.02487 0.993453 0.998634
0.99982 1 1.00132 0.9985
1.00222 1.00047 1.00379 0.997966
1.00849 1.01322 0.997171 0.998153
1.00179 1.00191 1.00221 0.997674
1.00538 1.00817 0.998499 0.998734
0.999195 1 1 0.999195
0.999072 1 1 0.999072
0.998961 1 1 0.998961
0.999616 1 1 0.999616
0.999373 1 1 0.999373
0.999265 1 1 0.999265
0.999095 1 1 0.999095
0.999599 1 1 0.999599
0.999359 1 1 0.999359
0.999016 1 1 0.999016
0.999236 1 1 0.999236
0.999118 1 1 0.999118
0.999007 1 1 0.999007
0.999128 1 1 0.999128
0.999234 1 1 0.999234
0.999316 1 1 0.999316
0.999547 1 1 0.999547
0.999402 1 1 0.999402
0.999547 1 1 0.999547
0.999917 1 1 0.999917
0.999922 1 1 0.999922
1 1 1 1
0.999926 1 1 0.999926
1 1 1 1
1 1 1 1
1 1 1 1
1 1 1 1
1 1 1 1
0.999969 1 1 0.999969
0.999953 1 1 0.999953
1 1 1 1
1 1 1 1
1 1 1 1
1 1 1 1
1 1 1 1
1 1 1 1
1.02231 1.02477 0.999346 0.998253
1.02349 1.02694 0.998553 0.998088
1.02036 1.02259 0.999898 0.997923
1.02267 1.02718 0.997523 0.99808
1.02428 1.02859 0.997571 0.99823
1.01188 1.02121 0.992435 0.998417
1.0206 1.0288 0.993713 0.998301
1.00511 1.01596 0.991129 0.998176
1.01306 1.02438 0.99015 0.998787
0.999713 1 1 0.999713
1.02161 1.02521 0.99843 0.998058
1.01662 1.02024 0.998323 0.998127
1.01814 1.02077 0.999116 0.998299
0.999425 1 1.00082 0.998605
1.00283 1.0011 1.00402 0.997727
1.00392 1.0058 1.00045 0.997678
1.01237 1.01404 1 0.998361
0.998669 1 1 0.998669
1.00061 1 1.00166 0.998959
1.0001 1 1.00147 0.99863
0.999926 1 1 0.999926
0.999182 1 1.00025 0.99893
0.999592 1 1 0.999592
0.999186 1 1 0.999186
0.999609 1 1 0.999609
1.02328 1.02935 0.995891 0.998207
0.99967 1 1 0.99967
0.999595 1 1 0.999595
0.999374 1 1 0.999374
1.01247 1.02027 0.994082 0.998267
1.01467 1.01829 0.997934 0.99851
1.00018 1 1.00164 0.998535
1.00369 1.00054 1.00555 0.99761
1.00412 1.00594 1.00008 0.998116
0.999219 1 1 0.999219
0.999003 1 1 0.999003
1.00174 1 1.0029 0.998845
1.00882 1 1.0102 0.998629
0.999066 1 1.00033 0.998739
1.01486 1.02348 0.993283 0.998282
1.01177 1.02271 0.990902 0.998384
1.00892 1.01221 0.998437 0.998304
1.00455 1.00341 1.00318 0.997972
1.00335 1 1.00484 0.998511
0.999369 1 1 0.999369
0.999274 1 1 0.999274
0.999176 1 1 0.999176
0.999018 1 1 0.999018
0.998961 1 1.00011 0.998856
1.00763 1 1.00901 0.998628
1.0108 1 1.01227 0.998541
0.999086 1 1 0.999086
0.999837 1 1.00114 0.9987
1.01946 1.02597 0.995249 0.998397
1.01638 1.0192 0.99882 0.998415
1.00736 1.00945 1 0.99793
1.00085 1 1.00268 0.998176
1.00314 1.00193 1.0036 0.997616
0.999553 1 1.00066 0.998895
1.016 1.02472 0.99284 0.998641
0.999643 1 1.00112 0.998522
1.00227 1.00022 1.00408 0.997976
1.0097 1.01374 0.997794 0.998217
1.0023 1.00195 1.00269 0.997661
1.00514 1.0084 0.998372 0.998388
0.99962 1 1.00088 0.998743
1.00483 1.01605 0.990318 0.998624
1.00042 1 1.00194 0.998479
1.00428 1.00001 1.00636 0.997923
1.00345 1.00448 1.00104 0.997931
0.957383 0.977528 0.990146 0.989139
0.982289 0.988548 0.998731 0.994931
0.981138 1.0002 0.982078 0.99884
0.882768 0.917479 0.973452 0.988407
0.85453 0.92063 0.94021 0.987228
0.99907 1 1 0.99907
0.998974 1 1 0.998974
0.998981 1 1 0.998981
0.999599 1 1 0.999599
0.99935 1 1 0.99935
0.999236 1 1 0.999236
0.999134 1 1 0.999134
0.999003 1 1 0.999003
0.999216 1 1 0.999216
0.999566 1 1 0.999566
0.999329 1 1 0.999329
0.999011 1 1 0.999011
0.999127 1 1 0.999127
0.999134 1 1 0.999134
0.999074 1 1 0.999074
0.999168 1 1 0.999168
0.999289 1 1 0.999289
0.99954 1 1 0.99954
0.999349 1 1 0.999349
0.999247 1 1 0.999247
0.999377 1 1 0.999377
0.999376 1 1 0.999376
0.999593 1 1 0.999593
0.999546 1 1 0.999546
0.999914 1 1 0.999914
0.999917 1 1 0.999917
1 1 1 1
0.999921 1 1 0.999921
1 1 1 1
1 1 1 1
1 1 1 1
1 1 1 1
1 1 1 1
0.999975 1 1 0.999975
0.999967 1 1 0.999967
1 1 1 1
0.99995 1 1 0.99995
1 1 1 1
1 1 1 1
1 1 1 1
1 1 1 1
1 1 1 1
1.02302 1.02721 0.997688 0.998227
1.02245 1.02689 0.997594 0.998079
1.01249 1.02113 0.993122 0.998407
1.00513 1.01572 0.991349 0.998211
1.01958 1.02775 0.993745 0.998299
1.01669 1.02598 0.99221 0.998723
1.02193 1.02798 0.995798 0.998317
0.968206 0.984914 0.988809 0.994162
1.01078 1.01935 0.99306 0.998523
0.999723 1 1 0.999723
0.999713 1 1 0.999713
0.999447 1 1 0.999447
0.999476 1 1 0.999476
1.02246 1.02993 0.99452 0.998214
1.01273 1.01995 0.994641 0.998271
1.01439 1.01768 0.998311 0.998463
0.999324 1 1.00077 0.998553
1.00313 1.00016 1.00536 0.997626
1.00386 1.00562 1.00013 0.998118
1.00353 1 1.00475 0.998786
1.00696 1 1.00831 0.998664
0.999004 1 1.00025 0.998759
0.999594 1 1 0.999594
0.998986 1 1 0.998986
0.999245 1 1 0.999245
0.999693 1 1 0.999693
0.999339 1 1 0.999339
1.01305 1.0221 0.992834 0.998297
0.999407 1 1 0.999407
0.999298 1 1 0.999298
0.999187 1 1 0.999187
1.01379 1.02427 0.991363 0.998394
1.00775 1.01138 0.998103 0.9983
1.00319 1 1.0047 0.998504
1.00454 1.0038 1.00278 0.997968
0.999033 1 1.00001 0.99902
0.998866 1 1.00001 0.998853
1.01107 1 1.01255 0.998542
1.0086 1 1.01001 0.998606
1.01231 1.02541 0.988881 0.998325
1.00108 1.01842 0.98457 0.998374
1.00474 1.00612 1.00062 0.998018
1.0015 1.00001 1.00304 0.998452
0.999103 1 1 0.999103
0.999093 1 1.00003 0.999066
1.00124 1 1.00242 0.998817
1.0196 1 1.02124 0.998397
0.944505 0.972757 0.982081 0.988674
0.999551 1 1.00063 0.998926
0.999603 1 1.00106 0.998544
1.01506 1.02442 0.992205 0.998648
1.01098 1.01422 0.998517 0.99828
1.00306 1.00212 1.0033 0.997648
1.00245 1 1.00447 0.997987
1.00419 1.00832 0.997865 0.998035
0.999691 1 1.00093 0.998766
1.00394 1.01587 0.989629 0.99861
0.999925 1 1.00144 0.998489
1.00404 1.00002 1.00611 0.997925
1.00368 1.00561 1.00013 0.997954
0.955053 0.977789 0.987616 0.988995
0.977541 0.98687 0.997063 0.993465
0.983001 0.998561 0.985519 0.998882
0.885985 0.917264 0.977462 0.988171
0.839308 0.908953 0.936331 0.986167
0.999537 1 1.00067 0.998872
0.901185 0.931023 0.979527 0.988182
0.890738 0.925268 0.974296 0.988079
0.981819 1.00625 0.977134 0.998555
1.00495 1 1.00641 0.998551
1.01021 1.00193 1.01019 0.9981
0.981284 0.99478 0.987402 0.999019
0.957689 0.972558 0.996093 0.988575
0.967025 0.972576 1.00136 0.992938
0.864671 0.917402 0.953519 0.988466
0.893821 0.950955 0.950386 0.988986
0.998987 1 1 0.998987
0.998975 1 1 0.998975
0.99915 1 1 0.99915
0.999586 1 1 0.999586
0.999342 1 1 0.999342
0.999197 1 1 0.999197
0.999126 1 1 0.999126
0.999016 1 1 0.999016
0.99954 1 1 0.99954
0.999132 1 1 0.999132
0.999186 1 1 0.999186
0.99931 1 1 0.99931
0.999069 1 1 0.999069
0.999088 1 1 0.999088
0.999285 1 1.0002 0.999088
0.999157 1 1 0.999157
0.999323 1 1 0.999323
0.999347 1 1 0.999347
0.999233 1 1 0.999233
0.9992 1 1 0.9992
0.999225 1 1 0.999225
0.999167 1 1 0.999167
0.999111 1 1 0.999111
0.999357 1 1 0.999357
0.999376 1 1 0.999376
0.999597 1 1 0.999597
0.999349 1 1 0.999349
0.999577 1 1 0.999577
0.999913 1 1 0.999913
0.999544 1 1 0.999544
0.999914 1 1 0.999914
1 1 1 1
0.999917 1 1 0.999917
1 1 1 1
1 1 1 1
1 1 1 1
1 1 1 1
1 1 1 1
0.99971 1 1 0.99971
0.999976 1 1 0.999976
0.999974 1 1 0.999974
1 1 1 1
0.999964 1 1 0.999964
1 1 1 1
1 1 1 1
1 1 1 1
1 1 1 1
1 1 1 1
1.00633 1.01579 0.992426 0.998248
1.01884 1.02687 0.993872 0.998297
1.02008 1.02782 0.993802 0.998658
0.969085 0.982832 0.991024 0.994943
1.01109 1.01907 0.993566 0.99859
1.02346 1.03022 0.995143 0.998291
1.01696 1.02338 0.995367 0.998348
0.974446 0.985279 0.993576 0.9954
0.956928 0.976732 0.991705 0.987919
0.863367 0.90902 0.961938 0.98736
0.839151 0.89935 0.945404 0.986946
0.999437 1 1 0.999437
0.999723 1 1 0.999723
0.999712 1 1 0.999712
0.999436 1 1 0.999436
0.999266 1 1 0.999266
0.999304 1 1 0.999304
0.999442 1 1 0.999442
0.999458 1 1 0.999458
1.01149 1.02103 0.992334 0.998312
1.01612 1.02647 0.991496 0.998403
1.00657 1.01055 0.997765 0.998296
1.00337 1 1.00488 0.998497
1.00464 1.00395 1.00272 0.997963
1.01107 1 1.01255 0.998543
1.00971 1 1.01114 0.998585
0.99885 1 1 0.99885
0.999322 1 1 0.999322
0.999021 1 1 0.999021
0.999445 1 1 0.999445
0.999199 1 1 0.999199
1.01296 1.02567 0.989278 0.998304
0.999124 1 1 0.999124
0.999075 1 1 0.999075
1.00241 1.0175 0.986784 0.998355
1.00436 1.00641 0.999855 0.998111
1.00336 1.00027 1.0047 0.9984
1.00247 1 1.00368 0.998793
1.0173 1 1.01893 0.998404
1.01185 1.02338 0.990429 0.998282
0.984279 1.00533 0.980656 0.998379
0.999304 1 1.00095 0.998349
1.00742 1 1.00896 0.998472
0.998986 1 1 0.998986
1.0005 1 1.00163 0.998875
1.01459 1 1.01602 0.998589
0.889657 0.933591 0.963997 0.98853
0.953077 0.974413 0.988321 0.989661
0.999577 1 1.00079 0.99879
0.999565 1 1.00107 0.9985
1.00413 1.01613 0.989575 0.998597
1.00399 1.00692 0.999111 0.997976
1.00363 1 1.00571 0.997927
0.954926 0.976344 0.990051 0.987891
0.979505 0.989685 0.995516 0.994172
0.985501 0.997526 0.989011 0.998921
0.880014 0.918018 0.970235 0.98801
0.824886 0.896594 0.933939 0.985099
0.999275 1 1.0004 0.998873
0.894593 0.933985 0.968893 0.988574
0.887928 0.920991 0.976138 0.987667
0.984325 1.00703 0.978881 0.998544
1.00453 1 1.00597 0.998569
1.00934 1.00099 1.01017 0.998195
0.97375 0.991086 0.983421 0.999072
0.961292 0.977381 0.995691 0.987796
0.969705 0.976458 0.998723 0.994354
0.866643 0.912479 0.961951 0.987335
0.893145 0.951538 0.949546 0.988507
1.0011 1 1.00206 0.999038
0.912221 0.930425 0.990942 0.989397
0.96638 0.975755 0.997785 0.992591
0.988676 1.00079 0.988925 0.998957
1.01138 1.00074 1.0117 0.998945
0.993491 0.986524 1.00772 0.99935
0.957894 0.968901 0.993158 0.995451
0.954242 0.963149 1.00304 0.987752
0.886468 0.932929 0.962212 0.987515
0.920354 0.969559 0.958131 0.990731
0.99897 1 1 0.99897
0.999129 1 1 0.999129
0.999735 1 1.00042 0.999314
0.99954 1 1 0.99954
0.999332 1 1 0.999332
0.999203 1 1 0.999203
0.99913 1 1 0.99913
0.999065 1 1 0.999065
0.999323 1 1 0.999323
0.999097 1 1 0.999097
0.999157 1 1 0.999157
0.999349 1 1.00024 0.999105
1.00016 1 1.00092 0.999248
0.999164 1 1.00009 0.999077
0.999159 1 1 0.999159
0.999346 1 1 0.999346
0.999218 1 1 0.999218
0.9992 1 1 0.9992
0.999224 1 1 0.999224
0.999169 1 1 0.999169
0.999187 1 1 0.999187
0.999141 1 1 0.999141
0.999146 1 1 0.999146
0.998959 1 1 0.998959
0.999446 1 1.00073 0.998715
0.999005 1 1 0.999005
0.999109 1 1 0.999109
0.999312 1 1 0.999312
0.999356 1 1 0.999356
0.99959 1 1 0.99959
0.999376 1 1 0.999376
0.999597 1 1 0.999597
0.999913 1 1 0.999913
0.99956 1 1 0.99956
0.999913 1 1 0.999913
1 1 1 1
0.999914 1 1 0.999914
1 1 1 1
1 1 1 1
1 1 1 1
1 1 1 1
1 1 1 1
0.999729 1 1 0.999729
0.99997 1 1 0.99997
0.99971 1 1 0.99971
1 1 1 1
0.999976 1 1 0.999976
0.999973 1 1 0.999973
1 1 1 1
1 1 1 1
1 1 1 1
1 1 1 1
1 1 1 1
0.891027 0.925563 0.973899 0.988487
0.895991 0.926462 0.978221 0.988641
0.971203 0.984913 0.990596 0.995441
1.01234 1.01871 0.995079 0.998658
1.02498 1.03213 0.994807 0.998264
0.971112 0.981471 0.992836 0.996585
1.01707 1.02313 0.995694 0.998378
0.959442 0.978873 0.990881 0.98917
0.877522 0.91494 0.970586 0.988168
0.829553 0.896715 0.938367 0.985864
0.993063 0.999475 0.996031 0.997544
0.957529 0.9724 0.995685 0.988974
0.857655 0.912551 0.951057 0.988208
0.891513 0.94539 0.954474 0.98799
0.999201 1 1 0.999201
0.999453 1 1 0.999453
0.999722 1 1 0.999722
0.999425 1 1 0.999425
0.999288 1 1 0.999288
0.99923 1 1 0.99923
0.999303 1 1 0.999303
0.99934 1 1 0.99934
0.999421 1 1 0.999421
0.99944 1 1 0.99944
1.01315 1.02557 0.98959 0.998285
1.00278 1.01573 0.988891 0.998338
1.004 1.00681 0.998995 0.998206
1.00491 1.00054 1.00603 0.998348
1.01447 1 1.01609 0.99841
1.00361 1 1.00484 0.998769
0.999084 1 1 0.999084
0.999145 1 1 0.999145
1.01025 1.02354 0.988727 0.998278
0.998978 1 1 0.998978
1.00044 1 1.00159 0.998851
0.985648 1.00458 0.982811 0.998314
0.999558 1.00005 1.00105 0.998459
1.00764 1 1.00926 0.998388
1.01264 1 1.01409 0.998568
1.00106 1.00653 0.996003 0.998554
0.989503 1 0.990593 0.9989
1.0124 1 1.01387 0.99855
0.998965 1 1 0.998965
0.999404 1 1.00058 0.998828
1.00698 1 1.00832 0.998673
0.915783 0.935175 0.988492 0.990665
0.897241 0.933278 0.972941 0.988124
0.94941 0.976146 0.983763 0.988663
0.998874 1 1 0.998874
1.00412 1 1.00554 0.998589
0.987054 1.00756 0.981083 0.998534
1.00859 1 1.01032 0.99829
0.890156 0.930652 0.9681 0.988003
0.95981 0.975071 0.994895 0.989399
0.967051 0.97735 0.996433 0.993004
0.970403 0.988086 0.982961 0.999128
0.869124 0.913148 0.963404 0.987943
0.889875 0.924668 0.974519 0.987535
0.887005 0.948343 0.946345 0.988351
1.00166 1 1.00262 0.999042
0.91278 0.933416 0.988091 0.989678
0.969462 0.978101 0.998609 0.992548
0.99084 1.00036 0.991461 0.999011
1.01095 1.00015 1.01188 0.99893
0.992651 0.987265 1.00636 0.999105
0.958801 0.968988 0.995708 0.993751
0.955231 0.967512 0.999146 0.988149
0.891928 0.939614 0.960319 0.988473
0.91207 0.962466 0.956656 0.990574
1.00223 0.999757 1.00299 0.999484
0.968473 0.977736 0.996181 0.994324
0.962401 0.970934 0.996235 0.994958
1.00814 0.995236 1.01325 0.999715
0.975344 0.973522 1.00455 0.997332
0.961081 0.964724 1.00875 0.987585
0.92582 0.956778 0.97868 0.988723
0.928539 0.979526 0.957336 0.990193
0.999108 1 1 0.999108
0.99967 1 1.00036 0.999315
1.00322 1 1.00378 0.999447
0.999322 1 1 0.999322
0.999156 1 1 0.999156
0.999107 1 1 0.999107
0.999403 1 1.00028 0.999121
0.999158 1 1 0.999158
0.999106 1 1.00003 0.999075
1.00169 1 1.00241 0.999279
1.00364 0.99862 1.00558 0.999446
1.00111 1 1.00192 0.99919
0.999097 1 1 0.999097
0.9992 1 1 0.9992
0.999222 1 1 0.999222
0.99917 1 1 0.99917
0.999145 1 1 0.999145
0.999185 1 1 0.999185
0.99915 1 1 0.99915
0.999089 1 1 0.999089
0.999197 1 1 0.999197
0.998969 1 1 0.998969
0.998977 1 1 0.998977
0.999485 1 1.00069 0.998791
0.999819 1 1.00139 0.998431
0.998966 1 1.00003 0.99894
0.999414 1 1.00063 0.998782
0.999033 1 1 0.999033
0.999204 1 1 0.999204
0.999106 1 1 0.999106
0.99931 1 1 0.99931
0.999564 1 1 0.999564
0.999354 1 1 0.999354
0.999589 1 1 0.999589
0.999911 1 1 0.999911
0.999597 1 1 0.999597
0.999913 1 1 0.999913
1 1 1 1
0.999913 1 1 0.999913
1 1 1 1
1 1 1 1
1 1 1 1
1 1 1 1
1 1 1 1
0.999635 1 1 0.999635
0.999962 1 1 0.999962
0.999688 1 1 0.999688
1 1 1 1
0.999972 1 1 0.999972
0.99971 1 1 0.99971
1 1 1 1
1 1 1 1
0.999976 1 1 0.999976
1 1 1 1
1 1 1 1
1 1 1 1
0.917858 0.935238 0.990949 0.990381
0.893061 0.929425 0.972525 0.988021
0.96814 0.979724 0.995712 0.992432
0.886967 0.919858 0.975785 0.988172
0.967799 0.981726 0.990826 0.994941
1.01617 1.02298 0.994923 0.998408
0.961064 0.979432 0.990749 0.990408
0.878698 0.918761 0.968449 0.987554
0.822012 0.89569 0.931928 0.984778
0.989274 0.997906 0.994406 0.996927
0.959149 0.973643 0.997205 0.987875
0.865359 0.917668 0.955353 0.987068
0.888788 0.944925 0.952465 0.987534
0.980119 0.989658 0.993934 0.996406
0.965298 0.968459 1.00938 0.987473
0.89173 0.941351 0.958622 0.988177
0.917918 0.970294 0.955754 0.989816
0.999074 1 1 0.999074
0.999225 1 1 0.999225
0.999469 1 1 0.999469
0.999311 1 1 0.999311
0.9991 1 1 0.9991
0.999246 1 1 0.999246
0.999303 1 1 0.999303
0.999317 1 1 0.999317
0.999363 1 1 0.999363
0.9994 1 1 0.9994
1.00893 1.02424 0.986748 0.998275
0.98815 1.00432 0.985623 0.998251
0.999838 1 1.00127 0.998569
1.00867 1.00004 1.01034 0.998306
1.01126 1 1.01273 0.998547
1.00026 1 1.00143 0.998827
0.998969 1 1 0.998969
0.998967 1 1 0.998967
0.995682 1.0063 0.990869 0.99857
0.999136 1 1.0003 0.998839
1.00733 1 1.00867 0.998668
0.988168 1 0.989324 0.998832
1.01105 1.00002 1.01252 0.998536
0.971134 0.994282 0.977664 0.999032
1.00616 0.999862 1.00702 0.999281
1.00875 1 1.01002 0.998737
0.998894 1 1.00003 0.998859
1.00504 1 1.00638 0.998672
0.966472 0.973953 0.99709 0.995214
0.919232 0.93513 0.992106 0.990821
0.892173 0.930444 0.969752 0.988776
1.00223 1 1.00319 0.999045
1.0103 0.999459 1.01195 0.998914
0.991181 1 0.992112 0.999061
0.921546 0.93816 0.991952 0.99026
0.963641 0.967452 1.00869 0.987476
0.961524 0.970223 0.996065 0.994948
0.984784 0.985606 1.00033 0.998834
0.892471 0.938374 0.963105 0.987517
0.971907 0.97973 0.999506 0.992506
0.908666 0.9601 0.955364 0.990647
1.0021 0.99959 1.00305 0.99947
0.967416 0.976215 0.996139 0.994828
0.965967 0.973964 0.996804 0.994969
1.00908 0.996475 1.01308 0.999573
0.975379 0.973918 1.00463 0.996888
0.958849 0.966222 1.00543 0.987014
0.928869 0.981989 0.954686 0.990803
0.916213 0.951367 0.974495 0.988254
1.00417 0.996932 1.00755 0.999711
0.959669 0.971014 0.990607 0.997688
0.972346 0.983441 0.993271 0.995417
0.920437 0.971735 0.956932 0.989839
0.995427 0.981509 1.01494 0.999256
0.974072 0.972094 1.0141 0.988101
0.912474 0.938531 0.983395 0.988653
0.999584 1 1.00027 0.999317
1.00247 1 1.00306 0.999403
1.00696 0.998797 1.00861 0.999566
0.999158 1 1 0.999158
0.999073 1 1 0.999073
1.00373 1 1.00443 0.999309
0.999104 1 1 0.999104
1.00143 1 1.00224 0.999193
1.00549 0.999098 1.00698 0.999421
1.00259 0.99981 1.00329 0.999489
1.00114 1 1.00195 0.999187
0.999149 1 1 0.999149
0.999184 1 1 0.999184
0.999155 1 1 0.999155
0.999189 1 1 0.999189
0.999098 1 1 0.999098
0.999471 1 1.00032 0.999151
0.999043 1 1 0.999043
1.00117 1 1.00259 0.998587
0.998995 1 1 0.998995
0.999333 1 1.00056 0.99877
0.999293 1 1.00101 0.998281
0.9996 1 1.00121 0.998388
0.99954 1 1.00074 0.998804
0.999648 1 1.0012 0.998446
0.999117 1 1 0.999117
0.998973 1 1.00006 0.998915
0.999296 1 1.00045 0.99885
0.999061 1 1 0.999061
0.999229 1 1 0.999229
0.999513 1 1 0.999513
0.999308 1 1 0.999308
0.999563 1 1 0.999563
0.999904 1 1 0.999904
0.999589 1 1 0.999589
0.99991 1 1 0.99991
1 1 1 1
0.999912 1 1 0.999912
1 1 1 1
1 1 1 1
1 1 1 1
1 1 1 1
1 1 1 1
0.999516 1 1 0.999516
0.999889 1 1 0.999889
0.999634 1 1 0.999634
1 1 1 1
0.999938 1 1 0.999938
0.999648 1 1 0.999648
1 1 1 1
1 1 1 1
0.999974 1 1 0.999974
1 1 1 1
1 1 1 1
1 1 1 1
0.965308 0.974688 0.995521 0.994831
0.907814 0.93329 0.982471 0.990058
0.894357 0.927132 0.976544 0.987819
0.999247 1 1 0.999247
0.959309 0.968863 0.994662 0.995452
0.971068 0.980207 0.998266 0.992398
0.880965 0.919701 0.969519 0.987997
0.988909 0.998243 0.994416 0.996212
0.963804 0.975115 0.999605 0.988791
0.871303 0.926435 0.952227 0.987674
0.881817 0.940126 0.94993 0.987417
0.981815 0.991256 0.995864 0.99459
0.953945 0.963299 1.00213 0.988184
0.899193 0.943578 0.964605 0.987929
0.916412 0.96835 0.956391 0.989516
0.967896 0.976806 0.997592 0.993271
0.965999 0.962021 1.01785 0.98653
0.916069 0.953448 0.972543 0.987921
0.925221 0.977357 0.956039 0.990186
0.998955 1 1 0.998955
0.99906 1 1 0.99906
0.999249 1 1 0.999249
0.999097 1 1 0.999097
0.999128 1 1 0.999128
0.999262 1 1 0.999262
0.999323 1 1 0.999323
0.999385 1 1 0.999385
0.990067 1.00569 0.98586 0.998583
0.986263 1 0.987483 0.998765
0.998968 1 1 0.998968
1.00926 1 1.01075 0.998521
1.00748 1 1.00883 0.998663
0.99919 1 1.00034 0.99885
0.998958 1 1.00009 0.998866
0.976525 0.996526 0.980864 0.999048
1.00512 1 1.00643 0.998698
1.00782 1 1.00909 0.998738
1.00031 0.999889 1.00112 0.999303
0.999189 1 1.00029 0.998897
0.968853 0.988032 0.981171 0.999407
1.0113 0.9983 1.01358 0.999454
1.0087 1 1.0099 0.998811
1.00095 1 1.00213 0.998819
0.968233 0.972691 0.99733 0.998082
0.966201 0.973318 0.997384 0.995291
0.923215 0.935472 0.995877 0.990983
1.0019 0.99947 1.00297 0.999459
1.01104 0.997724 1.01392 0.999433
0.966887 0.975159 0.99617 0.995329
0.968141 0.965348 1.01511 0.987967
0.97173 0.971105 1.00578 0.99489
0.920409 0.954138 0.976844 0.987516
0.968682 0.976093 0.997414 0.994981
0.93058 0.985809 0.952153 0.991412
1.00452 0.997415 1.00745 0.999678
0.959335 0.970464 0.990809 0.997702
0.971565 0.981516 0.993785 0.996053
1.00431 0.988542 1.01607 0.999889
0.918186 0.970167 0.956442 0.989523
0.967168 0.967058 1.01246 0.987807
0.922344 0.952537 0.98041 0.987651
1.00811 0.994729 1.01368 0.999771
0.969873 0.981854 0.989572 0.998206
0.960198 0.970315 0.994071 0.995476
0.89241 0.948074 0.952679 0.988043
0.916169 0.955677 0.970594 0.987704
0.980244 0.976092 1.00528 0.998977
0.975549 0.964814 1.02498 0.986482
1.00123 1 1.00187 0.999359
1.00638 0.998444 1.00841 0.99955
1.00355 0.9897 1.01442 0.999582
0.999111 1 1 0.999111
1.00112 1 1.00193 0.999196
1.00677 0.99997 1.00741 0.999396
1.00001 1 1.00083 0.999181
1.00233 0.999545 1.0033 0.999488
1.00623 0.99872 1.00822 0.9993
0.999181 1 1 0.999181
0.999107 1 1 0.999107
1.00008 1 1.00096 0.999122
1.00655 1 1.00783 0.998728
0.999117 1 1 0.999117
1.00064 1 1.00198 0.99866
1.00229 1 1.00413 0.998168
0.999892 1.00007 1.00188 0.99795
0.999153 1 1.0004 0.998749
0.999322 1 1.00109 0.998229
0.999002 1 1.00053 0.998478
1.00046 1 1.0018 0.998663
0.999571 1 1.00114 0.998432
0.999293 1 1.00028 0.999016
0.999492 1 1.00069 0.998799
0.99957 1 1.00111 0.998462
0.999428 1 1 0.999428
0.99911 1 1 0.99911
0.999001 1 1.00011 0.998891
0.999254 1 1 0.999254
0.999512 1 1 0.999512
0.999888 1 1 0.999888
0.999562 1 1 0.999562
0.999902 1 1 0.999902
1 1 1 1
0.999909 1 1 0.999909
1 1 1 1
1 1 1 1
1 1 1 1
1 1 1 1
1 1 1 1
0.999469 1 1 0.999469
0.999841 1 1 0.999841
0.999539 1 1 0.999539
1 1 1 1
0.999886 1 1 0.999886
0.999633 1 1 0.999633
1 1 1 1
1 1 1 1
0.999914 1 1 0.999914
1 1 1 1
1 1 1 1
1 1 1 1
0.959673 0.969563 0.992085 0.997696
0.965747 0.975076 0.995575 0.994835
0.907955 0.934333 0.981466 0.990119
0.999259 1 1 0.999259
0.999221 1 1 0.999221
0.999128 1 1 0.999128
0.9716 0.982496 0.993484 0.995396
0.961201 0.969385 0.996067 0.995473
0.973823 0.980654 1.00067 0.992364
0.987328 0.99122 1.0001 0.995968
0.955646 0.96455 1.00329 0.987519
0.891075 0.935394 0.964614 0.987566
0.920922 0.972245 0.957311 0.989451
0.96607 0.973498 0.997513 0.994845
0.960757 0.961905 1.01141 0.987539
0.911652 0.944221 0.976204 0.989043
0.926436 0.980371 0.953768 0.990792
0.954859 0.965797 0.994611 0.994032
0.977194 0.969709 1.02021 0.98776
0.912444 0.936912 0.984964 0.988751
0.919315 0.968362 0.958291 0.99067
0.998949 1 1 0.998949
0.998956 1 1 0.998953
0.999046 1 1 0.999046
0.999094 1 1 0.999094
0.999156 1 1 0.999156
0.99933 1 1 0.99933
0.983035 0.999019 0.984926 0.999061
0.9952 0.999935 0.995938 0.999324
0.998873 1 1 0.998873
1.00789 1 1.00916 0.998739
1.00559 1 1.00687 0.998724
0.999145 1 1.00027 0.998877
1.00094 1 1.00211 0.998828
0.980652 0.991759 0.989382 0.999412
1.01 1 1.01112 0.998891
1.00642 0.994549 1.01246 0.99948
0.999252 1 1.00031 0.99894
0.996586 0.982256 1.01494 0.999656
0.994664 0.990523 1.00464 0.999547
1.00688 1 1.00788 0.999016
0.98256 0.985541 0.998268 0.998704
0.967085 0.972154 0.996524 0.998256
0.966313 0.972546 0.998216 0.995366
1.00552 0.998297 1.00759 0.999644
0.999731 0.9907 1.00954 0.999582
0.958969 0.969884 0.991009 0.997716
0.970692 0.964614 1.01557 0.990869
0.924298 0.949817 0.984035 0.988921
0.970769 0.979714 0.994161 0.996689
0.922446 0.973456 0.957675 0.989479
1.00709 0.994688 1.01268 0.999788
0.968868 0.981643 0.988603 0.998364
0.96249 0.970975 0.995745 0.995497
0.979084 0.972526 1.01011 0.99667
0.888519 0.946274 0.950744 0.987611
0.90996 0.947944 0.970773 0.98883
0.985843 0.970925 1.02807 0.987644
1.00482 0.979005 1.02659 0.999784
0.960491 0.970415 0.992027 0.997729
0.969258 0.981347 0.995138 0.992507
0.837872 0.898769 0.944426 0.987102
0.893967 0.943544 0.958759 0.988211
0.976866 0.971106 1.01858 0.987587
0.954179 0.967095 0.99105 0.995554
1.00612 0.997809 1.0088 0.999533
1.00749 0.992983 1.01503 0.999586
1.01885 0.998193 1.02117 0.999529
0.999174 1 1 0.999174
1.00244 0.999057 1.0039 0.999487
1.00684 0.99933 1.00817 0.999351
1.01704 1 1.01811 0.99895
1.00065 1 1.00156 0.999093
1.00679 1 1.00815 0.998649
1.01374 1 1.01571 0.998059
1.00018 1 1.00145 0.998734
1.00314 1 1.005 0.998145
1.00336 1.00029 1.0054 0.997678
1.00083 1.00134 1.00191 0.997589
0.999301 1 1.00108 0.998225
1.0001 1.0003 1.00189 0.997921
0.999401 1 1.00123 0.998177
0.999727 1 1.0011 0.998631
0.999029 1 1.00048 0.99855
1.00028 1 1.00145 0.998828
1.00052 1 1.00183 0.998692
0.999502 1 1.00103 0.998476
0.999295 1 1 0.999295
0.999255 1 1.00024 0.999018
0.999437 1 1.00064 0.998794
0.999849 1 1 0.999849
0.999427 1 1 0.999427
0.999102 1 1 0.999102
0.99951 1 1 0.99951
0.999884 1 1 0.999884
1 1 1 1
0.999899 1 1 0.999899
1 1 1 1
1 1 1 1
1 1 1 1
1 1 1 1
1 1 1 1
0.999466 1 1 0.999466
0.999857 1 1 0.999857
0.999484 1 1 0.999484
1 1 1 1
0.999868 1 1 0.999868
0.999562 1 1 0.999562
1 1 1 1
1 1 1 1
0.999882 1 1 0.999882
1 1 1 1
1 1 1 1
1 1 1 1
0.969132 0.98141 0.989276 0.998193
0.959462 0.970258 0.991141 0.997711
0.965582 0.975402 0.995061 0.994845
0.999204 1 1 0.999204
0.999102 1 1 0.999102
0.999271 1 1 0.999271
0.99922 1 1 0.99922
0.999111 1 1 0.999111
0.999121 1 1 0.999121
0.999031 1 1 0.999031
0.961632 0.970722 0.995698 0.994916
0.96991 0.979997 0.993646 0.996036
0.963354 0.969822 0.997827 0.995494
0.929775 0.98481 0.952308 0.991398
0.956621 0.965574 0.99729 0.99342
0.9665 0.964856 1.0132 0.988652
0.916199 0.942711 0.983859 0.987821
0.952933 0.965674 0.993372 0.99339
0.966583 0.963592 1.01609 0.98722
0.924334 0.953706 0.980967 0.988007
0.911617 0.962126 0.956579 0.990512
0.950364 0.964699 0.990137 0.994954
0.969096 0.967504 1.01492 0.986919
0.928326 0.9587 0.979286 0.9888
0.891608 0.949471 0.949652 0.988845
0.999011 1 1 0.999011
0.998948 1 1 0.998948
0.998951 1 1 0.998951
0.999091 1 1 0.999091
0.990098 0.994948 0.995704 0.999419
1.00094 0.99133 1.0102 0.999505
0.998857 1 1 0.998857
1.00063 1 1.0018 0.998836
1.00975 1 1.01079 0.998972
0.999046 1 1.00011 0.998935
1.00766 1 1.00867 0.999002
0.992615 0.980602 1.01309 0.999173
0.99599 0.991647 1.00474 0.999645
1.00265 1 1.00357 0.999084
0.997773 0.977962 1.02114 0.999133
1.00819 0.995724 1.0132 0.999324
0.968291 0.972877 0.997171 0.998111
0.97875 0.983489 0.996328 0.99885
0.966377 0.971776 0.996007 0.998431
1.00572 0.994273 1.01171 0.999805
0.981021 0.973106 1.00912 0.99902
0.967876 0.981324 0.987755 0.998523
0.974808 0.966086 1.02261 0.986722
0.91441 0.945428 0.979354 0.98758
0.965114 0.971606 0.997792 0.995517
0.881931 0.940644 0.949456 0.987495
1.00962 0.981518 1.02882 0.999815
0.959885 0.970748 0.991045 0.997744
0.972196 0.981814 0.997715 0.992472
0.957589 0.968393 0.991305 0.997518
0.829991 0.89701 0.938401 0.986024
0.89734 0.943095 0.963156 0.987882
0.975678 0.967408 1.02113 0.987678
0.998808 0.982241 1.01751 0.999367
0.965759 0.975539 0.995038 0.994911
0.897 0.92745 0.978126 0.988797
0.859879 0.912884 0.953002 0.988388
0.963003 0.960828 1.01462 0.987823
0.943656 0.963717 0.985062 0.994032
1.01135 0.996628 1.01519 0.99959
1.0189 0.99656 1.02291 0.999522
1.01343 1 1.01406 0.999376
1.00731 0.999901 1.00801 0.999402
1.01666 0.999545 1.01813 0.999011
1.01022 1.00026 1.01167 0.998308
1.00718 1 1.00862 0.998569
1.013 1 1.01502 0.998013
1.00695 1.00017 1.00918 0.997619
1.00396 1 1.00585 0.998123
1.00347 1.00016 1.00569 0.997632
1.00308 1.002 1.00364 0.997455
1.00195 1.00436 1 0.997594
1.0008 1.00226 1.00077 0.997771
1.00126 1.00154 1.00218 0.997539
0.998557 1 1.00013 0.998431
0.99901 1 1.00074 0.998268
1.00033 1.00055 1.0019 0.997893
0.999778 1 1.00112 0.998664
0.999706 1 1.00108 0.998625
0.999047 1 1.00043 0.998622
0.9993 1 1.00019 0.999107
1.00013 1 1.00127 0.998857
1.00056 1 1.00184 0.998721
0.999755 1 1 0.999755
0.999295 1 1 0.999295
0.9992 1 1.00018 0.99902
1 1 1 1
0.999844 1 1 0.999844
0.999426 1 1 0.999426
0.99988 1 1 0.99988
1 1 1 1
1 1 1 1
1 1 1 1
1 1 1 1
1 1 1 1
0.999199 1 1 0.999199
0.999428 1 1 0.999428
0.999826 1 1 0.999826
0.999465 1 1 0.999465
1 1 1 1
0.999861 1 1 0.999861
0.9995 1 1 0.9995
1 1 1 1
1 1 1 1
0.999896 1 1 0.999896
1 1 1 1
1 1 1 1
1 1 1 1
0.95907 0.970832 0.990169 0.997693
0.968454 0.981359 0.988478 0.998353
0.958578 0.970975 0.989482 0.997726
0.999213 1 1 0.999213
0.999088 1 1 0.999088
0.999025 1 1 0.999025
0.99909 1 1 0.99909
0.99901 1 1 0.99901
0.999218 1 1 0.999218
0.999095 1 1 0.999095
0.999121 1 1 0.999121
0.999028 1 1 0.999028
0.99907 1 1 0.99907
0.964893 0.974391 0.997741 0.992494
0.964641 0.973238 0.996215 0.994932
0.967749 0.977505 0.993323 0.996674
0.908828 0.960363 0.955323 0.990594
0.923556 0.947961 0.985037 0.989056
0.945312 0.960919 0.991097 0.992596
0.974307 0.97102 1.01599 0.987596
0.95206 0.96598 0.992356 0.993181
0.980703 0.975527 1.01802 0.987513
0.917775 0.952322 0.974932 0.988503
0.892386 0.950922 0.949518 0.988337
0.970748 0.973179 1.00329 0.994229
0.969933 0.969133 1.01308 0.987906
0.884221 0.932558 0.960268 0.987399
0.854742 0.920556 0.940812 0.98692
0.999323 1 1.00001 0.999312
0.999131 1 1.00012 0.999014
0.999086 1 1.00014 0.998947
0.989683 0.978713 1.01254 0.998687
0.997088 0.991797 1.00559 0.999748
0.99916 1 1.00023 0.998931
1.009 1 1.01002 0.998988
1.00298 1 1.00389 0.999091
1.00865 0.996861 1.01252 0.999315
0.995576 0.976073 1.02083 0.999166
1.00802 0.999862 1.00881 0.999357
0.999126 0.985224 1.01519 0.998941
0.967858 0.97535 0.997148 0.995156
0.966828 0.972094 0.996293 0.998283
0.974576 0.981221 0.994227 0.998995
1.01438 0.983739 1.03131 0.999841
0.95871 0.970852 0.992635 0.99482
0.958596 0.971109 0.989332 0.997759
0.972987 0.970376 1.01712 0.985814
0.892492 0.93619 0.965337 0.987555
0.974593 0.982234 0.999781 0.992439
0.824104 0.896876 0.932907 0.984943
0.997278 0.980638 1.01753 0.999451
0.967043 0.976456 0.995422 0.994914
0.88785 0.920811 0.97559 0.98833
0.945533 0.96576 0.983986 0.99499
0.867639 0.91834 0.957007 0.987236
0.953362 0.958955 1.00738 0.986886
0.977142 0.982286 0.996002 0.998756
0.918531 0.93571 0.991026 0.990529
0.866084 0.910324 0.963417 0.987528
0.965879 0.969902 1.00839 0.987565
0.952143 0.965118 0.991282 0.995232
1.01864 0.995223 1.02403 0.999515
1.01515 0.999506 1.01631 0.999355
0.993472 1.00033 0.994269 0.998867
1.01606 0.9991 1.01792 0.999072
1.01074 1.0005 1.01186 0.99839
1.00236 1.00167 1.00272 0.997983
1.01205 1 1.01411 0.997967
1.00581 1.00031 1.00788 0.997631
0.999277 1.00147 1.0001 0.997717
1.0034 1 1.00583 0.997586
1.00334 1.00294 1.00293 0.997472
1.0047 1.00698 1 0.997732
1.00758 1.00975 1 0.997852
1.00359 1.00595 1.00002 0.997637
1.00183 1.00424 1 0.997607
0.999331 1.00129 1 0.99804
1.00016 1.00136 1.00107 0.997727
1.00161 1.00169 1.00244 0.99749
0.998579 1 1 0.998579
0.998508 1 1.00002 0.998484
0.998629 1 1.00032 0.998312
0.999142 1 1.00022 0.998919
0.999859 1 1.00118 0.99868
0.999712 1 1.0011 0.998618
0.99958 1 1 0.99958
0.999349 1 1.00024 0.999108
1.00002 1 1.00114 0.998886
1 1 1 1
0.99975 1 1 0.99975
0.999296 1 1 0.999296
1 1 1 1
1 1 1 1
0.999839 1 1 0.999839
1 1 1 1
1 1 1 1
1 1 1 1
0.999124 1 1 0.999124
0.999379 1 1 0.999379
0.999188 1 1 0.999188
0.999801 1 1 0.999801
0.999427 1 1 0.999427
1 1 1 1
0.999828 1 1 0.999828
0.999464 1 1 0.999464
1 1 1 1
1 1 1 1
0.999864 1 1 0.999864
1 1 1 1
1 1 1 1
1 1 1 1
0.967549 0.9775 0.994412 0.995382
0.958773 0.970211 0.99048 0.997709
0.9681 0.981248 0.988069 0.998514
0.999018 1 1 0.999018
0.999222 1 1 0.999222
0.999074 1 1 0.999074
0.999103 1 1 0.999103
0.999039 1 1 0.999039
0.999006 1 1 0.999006
0.998933 1 1 0.998933
0.998988 1 1 0.998988
0.999122 1 1 0.999122
0.999025 1 1 0.999025
0.999063 1 1 0.999063
0.999141 1 1 0.999141
0.889425 0.924214 0.974151 0.987895
0.967579 0.976693 0.998205 0.99245
0.966387 0.974453 0.996758 0.994949
0.887778 0.948647 0.947041 0.988168
0.924903 0.958667 0.976519 0.987978
0.969331 0.966738 1.01592 0.986969
0.953983 0.964962 0.994511 0.994079
0.970738 0.971937 1.00303 0.995751
0.840224 0.90958 0.936968 0.985893
0.970414 0.967452 1.01654 0.986742
0.88982 0.939422 0.958454 0.988258
0.9626 0.971913 0.994301 0.996095
0.961948 0.96116 1.01252 0.988445
0.864036 0.917426 0.95325 0.987993
1.00003 1 1.00041 0.999627
0.999342 1 1.00003 0.999313
0.999076 1 1.00006 0.999017
0.995893 0.976968 1.0202 0.999192
1.01017 0.999053 1.01183 0.999306
1.00316 1 1.00406 0.999098
1.00779 1 1.00843 0.999356
0.998622 0.986215 1.01361 0.998985
1.00346 0.994881 1.00939 0.999241
0.916294 0.93595 0.98925 0.989637
0.967274 0.974637 0.996601 0.99583
0.965567 0.971269 0.995667 0.998456
0.995767 0.978631 1.01798 0.999535
0.944616 0.967828 0.980241 0.99569
0.967759 0.97736 0.99523 0.994922
0.96103 0.961141 1.01141 0.988603
0.876216 0.92944 0.954331 0.987849
0.881252 0.920173 0.969183 0.988154
0.976884 0.982956 0.995008 0.99881
0.907998 0.933509 0.982296 0.990203
0.880299 0.915753 0.972613 0.988352
0.951983 0.963236 0.99486 0.993425
0.95482 0.966232 0.999967 0.988222
0.966936 0.989065 0.97836 0.99925
0.891659 0.926389 0.973585 0.988624
0.959813 0.974293 0.996355 0.988743
0.965565 0.977456 0.99458 0.993218
1.01755 0.998818 1.01943 0.999335
0.989766 1.00017 0.990637 0.99895
0.982291 1.00212 0.981634 0.998547
1.01166 1.00077 1.01243 0.998472
1.00304 1.00207 1.003 0.997975
1.00067 1.00309 0.999428 0.998156
1.00494 1.00049 1.00682 0.997643
0.999396 1.00108 1.00058 0.997732
1.00763 1.00951 1 0.998132
1.0037 1.00393 1.00229 0.997488
1.00455 1.00683 1 0.997737
1.01117 1.01303 1 0.998159
1.01297 1.01485 1 0.998152
1.0076 1.00981 1 0.997808
1.00753 1.00967 1 0.997873
1.00264 1.00481 1 0.997848
1.00331 1.00565 1 0.997675
1.00175 1.00414 1 0.99762
0.998539 1.00018 1 0.998363
0.999896 1.00171 1.00014 0.998054
0.999768 1.00061 1.00148 0.997683
0.998786 1 1 0.998786
0.998574 1 1 0.998574
0.998537 1 1 0.998537
0.999373 1 1 0.999373
0.999141 1 1.00022 0.998922
0.999909 1 1.00121 0.998697
0.999995 1 1 0.999995
0.999577 1 1 0.999577
0.999353 1 1.00025 0.999108
1 1 1 1
1 1 1 1
0.999745 1 1 0.999745
1 1 1 1
1 1 1 1
1 1 1 1
0.999099 1 1 0.999099
0.999126 1 1 0.999126
0.999313 1 1 0.999313
0.999773 1 1 0.999773
0.99938 1 1 0.99938
0.999177 1 1 0.999177
1 1 1 1
0.999803 1 1 0.999803
0.999427 1 1 0.999427
1 1 1 1
1 1 1 1
0.999831 1 1 0.999831
1 1 1 1
1 1 1 1
1 1 1 1
0.91142 0.930312 0.990129 0.989459
0.967348 0.976521 0.995189 0.995395
0.958782 0.969924 0.990768 0.997724
0.999005 1 1 0.999005
0.998956 1 1 0.998956
0.998936 1 1 0.998936
0.999117 1 1 0.999117
0.999053 1 1 0.999053
0.999002 1 1 0.999002
0.998985 1 1 0.998985
0.998932 1 1 0.998932
0.998854 1 1 0.998854
0.999142 1 1 0.999142
0.999055 1 1 0.999055
0.999136 1 1 0.999136
0.877632 0.913876 0.971889 0.988117
0.885382 0.919119 0.975521 0.987467
0.97087 0.979542 0.998726 0.99241
0.825035 0.896324 0.934615 0.98486
0.890223 0.936574 0.962671 0.987368
0.974769 0.971302 1.01471 0.989026
0.971001 0.969085 1.00801 0.994015
0.960229 0.968974 0.996432 0.994523
0.864248 0.911474 0.960658 0.987018
0.954797 0.958854 1.00747 0.988388
0.960768 0.970754 0.994686 0.995
0.955144 0.968872 0.99793 0.987876
1.0073 1 1.00819 0.999123
0.999849 1 1.00027 0.999583
0.999315 1 1 0.999315
0.99478 0.98387 1.01207 0.999027
1.00745 1 1.0081 0.999356
1.00386 0.995586 1.00918 0.99914
0.996595 0.999468 0.998652 0.998472
0.889202 0.934394 0.962611 0.988597
0.920139 0.936234 0.99244 0.990295
0.968027 0.974539 0.996806 0.9965
0.975251 0.983524 0.992695 0.998886
0.951884 0.963168 0.99393 0.99432
0.908166 0.934482 0.981398 0.99026
0.954578 0.963975 1.00265 0.987638
0.882578 0.921342 0.969838 0.987717
0.970498 0.989882 0.981516 0.998881
0.894649 0.930502 0.973013 0.988136
0.962042 0.976089 0.997751 0.98783
0.969591 0.976625 0.998056 0.994731
0.984567 0.997085 0.988385 0.99905
0.958412 0.978766 0.991299 0.987798
0.977452 0.98871 0.992893 0.99569
0.985992 1 0.986946 0.999033
0.983278 1.00265 0.982129 0.998526
0.983766 1.00544 0.979979 0.998436
1.00336 1.00243 1.00296 0.997968
1.00012 1.00333 0.998648 0.998151
1.00919 1.01347 0.997227 0.998547
0.999366 1.00062 1.001 0.997746
1.00747 1.00936 1 0.998126
1.01572 1.01727 0.999975 0.998498
1.00431 1.00659 1 0.997742
1.01067 1.01254 1 0.998159
1.01439 1.01599 1 0.998422
1.01215 1.01385 1 0.998328
1.01277 1.01461 1 0.998187
1.01173 1.01369 1 0.998074
1.00763 1.00975 1 0.997898
1.00817 1.01038 1 0.997812
1.00748 1.0096 1 0.997894
0.999344 1.00125 1 0.998098
1.00317 1.0053 1 0.997882
1.00294 1.00524 1 0.997712
0.998629 1 1 0.998629
0.998748 1.00039 1 0.998356
1.00021 1.00197 1.00017 0.998068
0.999217 1 1 0.999217
0.998786 1 1 0.998786
0.998569 1 1 0.998569
0.999963 1 1 0.999963
0.999373 1 1 0.999373
0.999186 1 1.00026 0.998925
1 1 1 1
0.999988 1 1 0.999988
0.999573 1 1 0.999573
1 1 1 1
0.999999 1 1 0.999999
1 1 1 1
0.999028 1 1 0.999028
0.999087 1 1 0.999087
0.99924 1 1 0.99924
0.999127 1 1 0.999127
0.999313 1 1 0.999313
0.999724 1 1 0.999724
0.999999 1 1 0.999999
0.999776 1 1 0.999776
0.99938 1 1 0.99938
1 1 1 1
1 1 1 1
0.999805 1 1 0.999805
1 1 1 1
1 1 1 1
1 1 1 1
0.89941 0.929791 0.978893 0.988182
0.911842 0.932863 0.988198 0.98914
0.966393 0.97483 0.995919 0.995408
0.998993 1 1 0.998993
0.998912 1 1 0.998912
0.998983 1 1 0.998983
0.998809 1 1 0.998809
0.998871 1 1 0.998871
0.998983 1 1 0.998983
0.99893 1 1 0.99893
0.998872 1 1 0.998872
0.998762 1 1 0.998762
0.998974 1 1 0.998974
0.99894 1.00033 1.00026 0.99835
0.999373 1 1.00019 0.999182
0.999131 1 1 0.999131
0.957256 0.976997 0.992291 0.987406
0.881687 0.914183 0.976232 0.987934
0.887003 0.922066 0.974304 0.987344
0.863573 0.911611 0.959219 0.987578
0.959492 0.960957 1.01203 0.986601
0.962704 0.968414 0.997876 0.99622
0.962139 0.97165 0.994195 0.995993
0.958093 0.969723 0.99928 0.988719
0.976935 0.991746 0.990025 0.994991
1.00207 1.00132 1.00242 0.99833
1.00576 1 1.00666 0.999104
0.999537 1 1 0.999537
1.00435 0.997285 1.00804 0.999052
0.998772 1.0009 0.999493 0.998376
0.946229 0.974371 0.982255 0.988662
0.89681 0.934178 0.971429 0.988234
0.924083 0.93663 0.995605 0.990959
0.97367 0.990571 0.984416 0.998499
0.963567 0.970932 0.999116 0.993293
0.895718 0.928765 0.976223 0.987907
0.962117 0.974033 0.999111 0.988645
0.982726 0.997154 0.98647 0.999048
0.960114 0.980269 0.990362 0.988972
0.978681 0.989756 0.994651 0.994128
1.00049 1.00538 0.99659 0.998542
0.987853 0.99679 0.993972 0.997044
0.984043 1.00324 0.982333 0.998508
0.985946 1.00502 0.982605 0.99839
1.00436 1.0215 0.98469 0.998507
0.99984 1.00358 0.998123 0.998146
1.0082 1.01254 0.997177 0.998537
1.01554 1.02126 0.995719 0.998676
1.00733 1.00923 1 0.99812
1.01566 1.01741 0.999795 0.998484
1.01675 1.0185 0.999717 0.998568
1.01027 1.01213 1 0.998158
1.01457 1.01619 1 0.998408
1.01223 1.01383 1 0.99842
1.01272 1.01438 1 0.998363
1.01158 1.0134 1 0.998203
1.01259 1.01439 1 0.998222
1.01151 1.01347 1 0.998068
1.0088 1.01081 1 0.998014
1.0026 1.00459 1 0.998023
1.00736 1.00949 1 0.99789
1.00871 1.01092 1 0.997816
0.998581 1.00014 1 0.998441
0.999689 1.00157 1 0.99812
1.00379 1.00589 1 0.997917
0.999089 1 1 0.999089
0.998625 1 1 0.998625
0.99898 1.00063 1 0.99835
0.999894 1 1 0.999894
0.999219 1 1 0.999219
0.998785 1 1 0.998785
1 1 1 1
0.999948 1 1 0.999948
0.999373 1 1 0.999373
1 1 1 1
0.999981 1 1 0.999981
1 1 1 1
0.998835 1 1 0.998835
0.999028 1 1 0.999028
0.999125 1 1 0.999125
0.999075 1 1 0.999075
0.999221 1 1 0.999221
0.999625 1 1 0.999625
0.999312 1 1 0.999312
0.999726 1 1 0.999726
0.999998 1 1 0.999998
1 1 1 1
0.999999 1 1 0.999999
0.999778 1 1 0.999778
1 1 1 1
1 1 1 1
1 1 1 1
0.960617 0.979781 0.991278 0.989068
0.892575 0.931963 0.968747 0.988634
0.920396 0.937857 0.992173 0.989124
0.998888 1 1 0.998888
0.999009 1 1 0.999009
0.998881 1 1 0.998881
0.998819 1 1 0.998819
0.998599 1 1.00002 0.998577
0.998813 1 1 0.998813
0.998889 1 1 0.998889
0.998697 1 1 0.998697
0.999125 1 1.00019 0.998939
0.998598 1 1 0.998598
1.00059 1.00213 1 0.998462
0.998772 1.00128 0.999587 0.997904
0.999293 1.0008 1.00006 0.998434
0.999594 1 1.00037 0.999222
0.974903 0.989806 0.989733 0.995161
0.958746 0.976876 0.993083 0.988277
0.876263 0.915032 0.969562 0.987694
0.969283 0.97555 1.00603 0.987623
0.959964 0.971538 0.991282 0.996777
0.981618 0.993265 0.991478 0.996768
0.994232 1.00403 0.991761 0.998467
0.999659 1.00067 1.00058 0.99841
1.00471 1 1.00563 0.999085
0.997798 1.00112 0.998412 0.998266
0.974233 0.984733 0.994231 0.995078
0.954182 0.975482 0.988418 0.989627
0.890574 0.930801 0.96756 0.988861
0.98342 0.998884 0.985462 0.999044
0.985248 0.991874 0.998013 0.995297
0.962127 0.981009 0.990485 0.990174
0.994719 1.00474 0.991464 0.998551
0.985747 0.995624 0.993598 0.996459
1.0052 1.0218 0.985433 0.9983
1.00677 1.01464 0.994076 0.998154
0.987894 1.00443 0.985175 0.998342
1.00507 1.02138 0.985512 0.998499
1.00896 1.02522 0.985602 0.998521
1.00732 1.01184 0.996994 0.998528
1.0153 1.02087 0.995867 0.998664
1.01327 1.01859 0.996271 0.998502
1.01559 1.01756 0.999594 0.998469
1.01639 1.01831 0.999557 0.998554
1.01379 1.01574 0.999718 0.99836
1.01471 1.01634 1 0.998394
1.01193 1.01353 1 0.998421
1.01194 1.01376 1 0.998204
1.01327 1.01489 1 0.998399
1.01132 1.01311 1 0.99823
1.00951 1.01147 1 0.998062
1.01132 1.01329 1 0.998062
1.00876 1.01078 1 0.998007
1.00376 1.00569 1 0.998076
0.998662 1.00038 1 0.998286
1.00248 1.00445 1 0.998042
1.00711 1.00925 1 0.997883
0.998937 1 1 0.998937
0.998609 1.00017 1 0.998441
1.00002 1.00189 1 0.998141
0.9998 1 1 0.9998
0.999088 1 1 0.999088
0.99862 1 1 0.99862
1 1 1 1
0.999879 1 1 0.999879
0.99922 1 1 0.99922
1 1 1 1
0.999932 1 1 0.999932
1 1 1 1
0.998892 1.00027 1 0.998625
0.998847 1 1 0.998847
0.998985 1 1 0.998985
0.999028 1 1 0.999028
0.99911 1 1 0.99911
0.999489 1 1 0.999489
0.999202 1 1 0.999202
0.999627 1 1 0.999627
0.999991 1 1 0.999991
0.999727 1 1 0.999727
0.999998 1 1 0.999998
1 1 1 1
1 1 1 1
1 1 1 1
1 1 1 1
0.972632 0.986272 0.990721 0.995407
0.955889 0.978731 0.988064 0.988459
0.887984 0.929044 0.967398 0.988015
1.0013 1.00293 1.00007 0.998303
0.998892 1 1 0.998892
0.998829 1 1 0.998829
0.998797 1 1 0.998797
0.99869 1 1.00012 0.998567
0.999193 1.00044 1 0.998754
0.998633 1 1 0.998633
0.999286 1 1.00038 0.998905
0.998642 1 1 0.998642
0.999951 1.0015 1 0.998449
1.00109 1.00315 1 0.997953
1.00339 1.0058 0.999813 0.997789
0.999797 1.00195 0.999984 0.997864
0.999851 1.00134 1 0.998517
0.998867 1.00617 0.993837 0.9989
0.9751 0.99066 0.989806 0.994431
0.961841 0.97773 0.994327 0.989361
0.977187 0.989703 0.991909 0.995407
0.99854 1.00599 0.993882 0.998707
0.999706 1.0002 1.00102 0.99849
1.0018 1.00668 0.996861 0.998286
0.972659 0.981677 0.994581 0.996211
0.949996 0.975953 0.984492 0.988737
0.988166 1.00307 0.986569 0.998557
0.986375 0.996058 0.994484 0.99577
1.00577 1.02252 0.985287 0.998315
1.00598 1.01287 0.994918 0.998261
1.01191 1.02696 0.987045 0.998281
1.0159 1.02015 0.997616 0.998214
1.00608 1.02124 0.98664 0.998491
1.01104 1.02624 0.986637 0.998526
1.00676 1.0183 0.990278 0.998369
1.01497 1.02032 0.996099 0.998652
1.0143 1.0192 0.99669 0.998499
1.01367 1.01695 0.998537 0.998244
1.0161 1.01816 0.999437 0.998541
1.01397 1.01584 0.999782 0.998376
1.01327 1.0152 1 0.998102
1.01164 1.01324 1 0.998422
1.0115 1.01332 1 0.998204
1.01144 1.01344 1 0.998024
1.01106 1.01283 1 0.998256
1.00959 1.01153 1 0.998075
1.00463 1.0066 1 0.998037
1.00871 1.01073 1 0.998
1.00376 1.00571 1 0.998058
0.999555 1.0013 1 0.998259
0.99881 1 1 0.99881
0.99875 1.00044 1 0.99831
1.00235 1.0043 1 0.998062
0.999697 1 1 0.999697
0.998936 1 1 0.998936
0.998652 1.00021 1 0.998441
1 1 1 1
0.999788 1 1 0.999788
0.999086 1 1 0.999086
1 1 1 1
0.999864 1 1 0.999864
1 1 1 1
0.999614 1.00126 1 0.998356
0.998758 1.00013 1 0.998629
0.998817 1 1 0.998817
0.998859 1 1 0.998859
0.998992 1 1 0.998992
0.99935 1 1 0.99935
0.999094 1 1 0.999094
0.999488 1 1 0.999488
0.99997 1 1 0.99997
0.999629 1 1 0.999629
0.999994 1 1 0.999994
1 1 1 1
0.999999 1 1 0.999999
1 1 1 1
1 1 1 1
1.00382 1.01047 0.99453 0.99889
0.970821 0.986077 0.990499 0.993973
0.958775 0.975677 0.993317 0.989287
1.00302 1.00459 1.00001 0.998432
1.00486 1.00682 1 0.998054
1.00101 1.00255 1.00013 0.998337
0.998781 1 1 0.998781
0.9988 1 1.00024 0.998555
0.999585 1.00088 1 0.998705
1.00414 1.00607 1 0.998081
0.998686 1 1 0.998686
0.999202 1.00077 1 0.998434
1.00134 1.00334 1 0.998002
1.00727 1.00964 1 0.997656
1.01214 1.01593 0.998153 0.998108
1.00297 1.00555 0.999659 0.997773
1.00044 1.00262 1 0.997824
1.00195 1.00872 0.994299 0.998984
0.97463 0.990221 0.990642 0.993552
0.999938 1.00739 0.993647 0.998952
1.01387 1.0182 0.997053 0.998699
1.00066 1.00539 0.996935 0.998354
0.971297 0.983612 0.992736 0.994704
1.0061 1.02331 0.984818 0.998331
1.00464 1.01131 0.995026 0.998371
1.01059 1.02685 0.985818 0.998329
1.01826 1.02224 0.99787 0.998226
1.01308 1.02218 0.992837 0.998243
1.02422 1.02814 0.997843 0.998343
1.01286 1.02752 0.987188 0.998531
1.007 1.0179 0.990903 0.998374
1.01657 1.02228 0.996249 0.998154
1.01523 1.01977 0.997045 0.998496
1.01387 1.01673 0.998943 0.998243
1.01577 1.01779 0.999973 0.998035
1.01408 1.01589 0.999828 0.998391
1.01303 1.01496 1 0.998101
1.01428 1.01638 1 0.997935
1.01105 1.01286 1 0.998205
1.01138 1.01338 1 0.998025
1.00594 1.00799 1 0.997973
1.00966 1.01159 1 0.998088
1.00466 1.00663 1 0.998039
0.999773 1.00157 1 0.998203
1.00377 1.00574 1 0.99804
0.999497 1.00125 1 0.998248
0.998734 1 1 0.998734
0.999619 1 1 0.999619
0.99881 1 1 0.99881
0.99883 1.0005 1 0.998334
1 1 1 1
0.999686 1 1 0.999686
0.998935 1 1 0.998935
1 1 1 1
0.999776 1 1 0.999776
1 1 1 1
0.999873 1.00177 1 0.998107
0.999499 1.00117 1 0.998331
0.99858 1 1 0.99858
0.998634 1 1 0.998634
0.998821 1 1 0.998821
0.999208 1 1 0.999208
0.998999 1 1 0.998999
0.99935 1 1 0.99935
0.999922 1 1 0.999922
0.999488 1 1 0.999488
0.999977 1 1 0.999977
1 1 1 1
0.999996 1 1 0.999996
1 1 1 1
1 1 1 1
1.01268 1.0188 0.99549 0.998505
1.00148 1.00949 0.99341 0.998651
0.969325 0.985634 0.988616 0.994778
1.0086 1.01056 1 0.998061
1.00168 1.00309 1 0.998592
1.01222 1.01434 1 0.997905
1.00464 1.00661 1 0.998039
1.00072 1.00217 1.00018 0.998373
1.01443 1.01675 1 0.997718
0.999983 1.00133 1 0.998657
1.00413 1.00612 1 0.998028
1.01924 1.02146 1 0.997822
1.00144 1.0034 1 0.99805
1.00783 1.01022 1 0.99763
1.01148 1.01478 0.998631 0.998116
1.00221 1.0046 0.999863 0.997756
1.00439 1.0106 0.99478 0.999071
1.0234 1.02653 0.998525 0.998425
1.0135 1.01795 0.996928 0.9987
0.999893 1.00409 0.997396 0.998419
1.00933 1.02651 0.984867 0.998378
1.01958 1.02348 0.997942 0.998239
1.01292 1.02244 0.992417 0.998256
1.02481 1.02931 0.997282 0.99835
1.02485 1.02982 0.996925 0.998243
1.00724 1.01738 0.991642 0.998378
1.01667 1.02198 0.996635 0.998161
1.01906 1.02249 0.998623 0.998025
1.01409 1.01654 0.999349 0.998242
1.01539 1.01743 0.999983 0.99802
1.01664 1.01882 1 0.997856
1.01284 1.01476 1 0.9981
1.01413 1.01623 1 0.997934
1.00838 1.01052 1 0.997884
1.01133 1.01333 1 0.998025
1.00615 1.00819 1 0.997974
1.00014 1.00203 1 0.998115
1.0047 1.00667 1 0.998042
0.999856 1.00165 1 0.998205
0.998662 1 1 0.998662
0.999424 1.00119 1 0.998238
0.998733 1 1 0.998733
0.999636 1 1 0.999636
0.999908 1 1 0.999908
0.999634 1 1 0.999634
0.99881 1 1 0.99881
1 1 1 1
0.999675 1 1 0.999675
1 1 1 1
1.01603 1.01812 1 0.997948
1.0042 1.00618 1 0.998027
0.999616 1.00153 1 0.998088
0.999066 1.00067 1 0.998393
0.999374 1.00107 1 0.998306
0.998585 1 1 0.998585
0.999049 1 1 0.999049
0.998826 1 1 0.998826
0.99921 1 1 0.99921
0.999843 1 1 0.999843
0.99935 1 1 0.99935
0.999937 1 1 0.999937
1 1 1 1
0.999985 1 1 0.999985
1 1 1 1
1 1 1 1
1.02416 1.02644 0.999592 0.998188
1.01655 1.02212 0.99596 0.998588
1.00061 1.00962 0.992653 0.998411
1.01666 1.01891 1 0.997788
1.00749 1.00937 1 0.998138
1.0003 1.00155 1 0.99875
1.01253 1.01463 1 0.997928
1.00441 1.0064 1 0.998024
1.02184 1.02409 1 0.997802
1.01335 1.0157 1 0.997683
1.0043 1.00633 1 0.997974
1.01899 1.02122 1 0.997815
1.00948 1.01191 1 0.997604
1.01305 1.01598 0.998983 0.998129
1.02799 1.03067 0.999077 0.998329
1.02502 1.02778 0.998879 0.998429
1.01414 1.01797 0.997535 0.998702
1.01348 1.02343 0.992002 0.998269
1.02591 1.03079 0.996901 0.998356
1.02482 1.03048 0.996239 0.998258
1.02427 1.0266 0.999654 0.998076
1.01671 1.02161 0.997036 0.998168
1.01953 1.02241 0.999162 0.998018
1.01846 1.02066 1 0.997845
1.01502 1.01705 1 0.998005
1.01674 1.01892 1 0.997856
1.01136 1.01359 1 0.997807
1.01396 1.01606 1 0.997932
1.00854 1.01068 1 0.997884
1.00087 1.00286 1 0.998018
1.00634 1.00838 1 0.997975
1.00034 1.00223 1 0.998116
0.998571 1 1 0.998571
0.999944 1.00174 1 0.998207
0.998661 1 1 0.998661
0.999629 1 1 0.999629
0.998731 1 1 0.998731
0.999631 1 1 0.999631
0.999911 1 1 0.999911
0.999955 1 1 0.999955
0.999651 1 1 0.999651
1 1 1 1
1.01796 1.02021 1 0.997797
1.00676 1.00874 1 0.998037
1.01579 1.01779 1 0.99804
0.999659 1.0014 1 0.998259
1.00476 1.00675 1 0.998023
0.999338 1.00127 1 0.998069
0.99883 1.00044 1 0.998392
0.998888 1 1 0.998888
0.998589 1 1 0.998589
0.999052 1 1 0.999052
0.999742 1 1 0.999742
0.999213 1 1 0.999213
0.99986 1 1 0.99986
1 1 1 1
0.999952 1 1 0.999952
1 1 1 1
1 1 1 1
1.02505 1.02703 1 0.998067
1.02359 1.02591 0.999548 0.998185
1.01817 1.02371 0.995921 0.998667
1.02171 1.024 1 0.997768
1.01615 1.0184 1 0.997792
1.00642 1.00822 1 0.998216
1.01277 1.01485 1 0.99795
1.02165 1.02392 1 0.997787
1.01205 1.01443 1 0.997648
1.01682 1.01906 1 0.997809
1.02707 1.02905 0.999936 0.998137
1.02758 1.03028 0.999086 0.998291
1.02669 1.02932 0.999013 0.998433
1.02293 1.025 1 0.997984
1.02468 1.03107 0.995519 0.998273
1.02387 1.02653 0.999337 0.99807
1.02003 1.02217 1 0.997906
1.02001 1.02237 0.999679 0.998011
1.01854 1.02074 1 0.997847
1.01399 1.01627 1 0.997765
1.01682 1.019 1 0.997856
1.01114 1.01337 1 0.997808
1.00204 1.00411 1 0.997936
1.0087 1.01084 1 0.997884
1.00119 1.00318 1 0.998019
0.998477 1 1 0.998477
1.00055 1.00244 1 0.998116
0.998569 1 1 0.998569
0.99961 1 1 0.99961
0.998659 1 1 0.998659
0.999623 1 1 0.999623
0.999913 1 1 0.999913
0.999628 1 1 0.999628
0.999913 1 1 0.999913
1 1 1 1
1.01853 1.02088 1 0.997699
1.00971 1.01188 1 0.997856
1.01837 1.02059 1 0.997821
0.999828 1.00161 1 0.998221
1.00666 1.00864 1 0.998036
1.01563 1.01753 1 0.998131
0.998734 1 1 0.998734
0.999561 1.00131 1 0.998255
1.00543 1.00743 1 0.998018
0.998621 1.00023 1 0.998391
0.998889 1 1 0.998889
0.999646 1 1 0.999646
0.999054 1 1 0.999054
0.999755 1 1 0.999755
1 1 1 1
0.999876 1 1 0.999876
1 1 1 1
1 1 1 1
1.02452 1.02663 1 0.997944
1.02541 1.02741 1 0.998051
1.02403 1.02634 0.999569 0.998183
1.02112 1.02341 1 0.997772
1.01566 1.0179 1 0.997796
1.02163 1.02391 1 0.997772
1.02287 1.02494 1 0.997984
1.02695 1.02892 0.999961 0.998129
1.02675 1.02949 0.999091 0.998254
1.02307 1.02512 1 0.997996
1.02 1.02218 1 0.997869
1.02346 1.02643 0.999035 0.998064
1.01985 1.02202 1 0.997885
1.01575 1.018 1 0.997785
1.01859 1.02079 1 0.997849
1.01365 1.01592 1 0.997768
1.00371 1.00586 1 0.997866
1.01098 1.0132 1 0.997809
1.00255 1.00463 1 0.997936
0.998402 1 1 0.998402
1.00151 1.0035 1 0.998019
0.998475 1 1 0.998475
0.999574 1 1 0.999574
0.998567 1 1 0.998567
0.999601 1 1 0.999601
0.999904 1 1 0.999904
0.999619 1 1 0.999619
0.999918 1 1 0.999918
0.999912 1 1 0.999912
1.02029 1.02249 1 0.997842
1.01234 1.01466 1 0.997721
1.01879 1.02113 1 0.997705
1.00144 1.00339 1 0.998059
1.00953 1.01169 1 0.997864
1.01869 1.02088 1 0.997847
0.998617 1 1 0.998617
0.999757 1.00158 1 0.998179
1.00647 1.00846 1 0.998035
0.999578 1 1 0.999578
0.998736 1 1 0.998736
0.999405 1.00116 1 0.998251
0.998891 1 1 0.998891
0.999655 1 1 0.999655
1 1 1 1
0.999767 1 1 0.999767
1 1 1 1
1 1 1 1
1.02135 1.0235 1 0.997908
1.02405 1.02616 1 0.997943
1.02586 1.02788 1 0.998035
1.02057 1.02285 1 0.997776
1.02078 1.023 1 0.997837
1.0234 1.02546 1 0.997992
1.0268 1.02875 0.999987 0.998122
1.0232 1.02524 1 0.998008
1.01982 1.022 1 0.997876
1.01478 1.01702 1 0.997795
1.01975 1.02194 1 0.997864
1.0155 1.01777 1 0.997778
1.00521 1.00741 1 0.997823
1.0133 1.01557 1 0.997771
1.00422 1.00637 1 0.997868
0.998333 1 1 0.998333
1.00304 1.00512 1 0.997936
0.998401 1 1 0.998401
0.999479 1 1 0.999479
0.998474 1 1 0.998474
0.999541 1 1 0.999541
1 1 1 1
0.999593 1 1 0.999593
0.999912 1 1 0.999912
0.99992 1 1 0.99992
1.01924 1.0214 1 0.997879
1.01361 1.01587 1 0.997769
1.01997 1.02218 1 0.99784
1.00366 1.0058 1 0.99788
1.01244 1.01474 1 0.997742
1.01913 1.02146 1 0.997711
0.998437 1 1 0.998437
1.00147 1.00341 1 0.998057
1.0094 1.01155 1 0.997873
0.999543 1 1 0.999543
0.998579 1 1 0.998579
0.99972 1.00159 1 0.998137
1 1 1 1
0.999588 1 1 0.999588
0.998738 1 1 0.998738
0.999666 1 1 0.999666
1 1 1 1
1 1 1 1
1.02019 1.02239 1 0.997844
1.02179 1.02392 1 0.997917
1.02354 1.02565 1 0.997942
1.01577 1.01806 1 0.997747
1.02 1.02221 1 0.99784
1.02393 1.02598 1 0.998
1.01966 1.02182 1 0.997883
1.01488 1.01713 1 0.997796
1.00524 1.00739 1 0.997863
1.01522 1.01748 1 0.997772
1.00538 1.00754 1 0.997855
0.998204 1 1 0.998204
1.00473 1.00688 1 0.99787
0.998333 1 1 0.998333
0.999428 1 1 0.999428
0.9984 1 1 0.9984
0.999476 1 1 0.999476
1 1 1 1
0.999505 1 1 0.999505
0.999948 1 1 0.999948
0.999918 1 1 0.999918
1.01734 1.01952 1 0.997856
1.01398 1.01621 1 0.997808
1.01916 1.02132 1 0.997881
1.00448 1.00661 1 0.997885
1.01398 1.01625 1 0.997765
1.01966 1.02186 1 0.997839
0.998333 1 1 0.998333
1.00357 1.00566 1 0.997923
1.01251 1.01478 1 0.997763
0.999515 1 1 0.999515
0.998423 1 1 0.998423
1.00149 1.00344 1 0.998056
1 1 1 1
0.999551 1 1 0.999551
0.998542 1 1 0.998542
1 1 1 1
0.999598 1 1 0.999598
1 1 1 1
1.01599 1.01825 1 0.997781
1.01971 1.02192 1 0.99784
1.02224 1.02437 1 0.997926
1.00466 1.00683 1 0.997843
1.01577 1.01805 1 0.997759
1.01928 1.02148 1 0.997844
1.01501 1.01725 1 0.997796
1.00527 1.00743 1 0.997862
0.998159 1 1 0.998159
1.00557 1.0077 1 0.997887
0.998237 1 1 0.998237
0.999362 1 1 0.999362
0.998334 1 1 0.998334
0.999425 1 1 0.999425
1 1 1 1
0.999473 1 1 0.999473
1 1 1 1
0.999906 1 1 0.999906
1.014 1.01621 1 0.997827
1.01757 1.01975 1 0.997861
1.00402 1.00614 1 0.99789
1.01384 1.01607 1 0.997808
1.01909 1.02125 1 0.997882
0.998347 1 1 0.998347
1.00441 1.00654 1 0.997882
1.01435 1.01663 1 0.997761
0.999477 1 1 0.999477
0.998359 1 1 0.998359
1.00346 1.00551 1 0.997966
1 1 1 1
0.99952 1 1 0.99952
0.99841 1 1 0.99841
1 1 1 1
0.999559 1 1 0.999559
1 1 1 1
1.00432 1.00646 1 0.997877
1.01589 1.01816 1 0.997779
1.01915 1.02136 1 0.997835
0.998153 1 1 0.998153
1.00469 1.00686 1 0.997843
1.01573 1.018 1 0.99777
1.0053 1.00746 1 0.997862
0.998162 1 1 0.998162
0.99931 1 1 0.99931
0.998271 1 1 0.998271
0.999359 1 1 0.999359
1 1 1 1
0.999422 1 1 0.999422
1 1 1 1
1 1 1 1
1.00374 1.00587 1 0.997881
1.01365 1.01586 1 0.99783
1.0178 1.01997 1 0.997867
0.998321 1 1 0.998321
1.00427 1.00639 1 0.997888
1.01367 1.0159 1 0.997808
0.999435 1 1 0.999435
0.998346 1 1 0.998346
1.00435 1.00649 1 0.997879
1 1 1 1
0.999481 1 1 0.999481
0.998385 1 1 0.998385
1 1 1 1
0.999526 1 1 0.999526
1 1 1 1
0.998234 1 1 0.998234
1.00431 1.00648 1 0.997844
1.01584 1.0181 1 0.997776
0.9993 1 1 0.9993
0.998153 1 1 0.998153
1.00472 1.00689 1 0.997843
0.998166 1 1 0.998166
0.999309 1 1 0.999309
1 1 1 1
0.999355 1 1 0.999355
1 1 1 1
1 1 1 1
0.998281 1 1 0.998281
1.00382 1.00596 1 0.997873
1.01332 1.01552 1 0.997833
0.999475 1 1 0.999475
0.998319 1 1 0.998319
1.00452 1.00665 1 0.997885
1 1 1 1
0.999436 1 1 0.999436
0.998344 1 1 0.998344
1 1 1 1
0.999484 1 1 0.999484
1 1 1 1
0.999301 1 1 0.999301
0.998206 1 1 0.998206
1.0043 1.0065 1 0.99781
1 1 1 1
0.9993 1 1 0.9993
0.998152 1 1 0.998152
0.999307 1 1 0.999307
1 1 1 1
1 1 1 1
0.999427 1 1 0.999427
0.998281 1 1 0.998281
1.00389 1.00604 1 0.997865
1 1 1 1
0.999395 1 1 0.999395
0.998317 1 1 0.998317
1 1 1 1
0.999437 1 1 0.999437
1 1 1 1
0.999823 1 1 0.999823
0.999362 1 1 0.999362
0.998178 1 1 0.998178
1 1 1 1
0.9993 1 1 0.9993
1 1 1 1
0.999841 1 1 0.999841
0.999393 1 1 0.999393
0.998281 1 1 0.998281
0.999925 1 1 0.999925
0.999393 1 1 0.999393
1 1 1 1
1 1 1 1
0.999319 1 1 0.999319
1 1 1 1
0.999917 1 1 0.999917
0.999353 1 1 0.999353
1 1 1 1
1 1 1 1
1 1 1 1

VECTORS lamdaE float
0.999936 1.00015 0.995417
0.999841 1.00029 0.997852
0.999683 1.00034 0.995563
1.00021 0.999927 0.995243
1.00002 0.999974 0.995483
0.999945 1.00028 0.995224
1.00114 1.00048 0.992715
0.999824 1.00016 0.997892
0.999757 1.00023 0.998078
0.999439 1.00064 0.998101
0.999812 1.00001 0.995785
1.00088 1.00123 0.991919
1.00016 1.00001 0.995148
0.999892 0.999974 0.995417
0.999457 1.00054 0.995681
1.00001 0.999904 0.995441
0.999672 1.00056 0.995357
0.999803 1.00005 0.995646
1.00129 1.00031 0.99265
1.00013 1 0.997726
1.00025 0.999984 0.995101
1.00014 0.999889 0.995405
1.00151 0.999983 0.992557
1.00131 1.00012 0.99276
0.999865 1.00014 0.995359
1.00097 1.00099 0.992487
1.00366 1.0003 0.988598
0.999772 1.00008 0.997962
0.999887 1.00011 0.996708
0.999638 1.00048 0.996707
0.999757 0.999796 0.998085
1.00078 1.00134 0.99193
1.00014 0.999845 0.995284
0.999891 1.00037 0.995329
1.0016 1.00017 0.992953
0.999447 0.99918 0.998605
1.00127 1.00083 0.992926
1.00053 1.00134 0.992424
1.00256 1.00214 0.988057
0.999537 0.998276 0.998901
1.00017 1.00001 0.997687
1.00003 0.999998 0.996558
1.00014 0.999999 0.997696
0.99986 1.00003 0.995438
1.00172 1.00004 0.991593
0.99993 0.999956 0.998
1.00182 1.00011 0.992669
0.999813 0.999843 0.995639
0.999597 1.00012 0.995797
0.999405 1.0009 0.995479
1.00143 1.00013 0.992599
1.00003 1.00001 0.996571
1.00004 0.999981 0.995309
0.99963 1.00041 0.995497
0.999941 0.999878 0.995586
1.00159 0.999946 0.99248
1.00112 1.00084 0.992423
1.00142 1.00003 0.992697
1.00365 1.00032 0.988596
1.00011 1 0.997726
1.00023 1.00001 0.995109
1.00154 1 0.993094
1.00157 1.00002 0.992426
1.00144 0.999962 0.992696
1.00395 0.999951 0.988367
1.00379 1 0.98837
0.999724 0.999509 0.996071
1.00034 1.00158 0.992794
1.00341 1.00092 0.98843
1.00474 1.00002 0.986227
1.00004 1.00014 0.997816
0.999673 0.999568 0.998256
0.999828 1.00032 0.997834
1.0007 1.00142 0.991944
1.00016 0.999974 0.997782
0.999944 1.00031 0.997828
1.0015 1.00012 0.991815
0.999536 0.999256 0.997542
1.00108 1.00091 0.991792
1.0004 1.00139 0.993123
1.00259 1.00208 0.988045
0.999626 0.99869 0.998654
0.999659 0.999903 0.995418
1.0017 0.999968 0.991687
1.00141 1.00041 0.991796
1.00394 1.00017 0.987502
1.0001 1.00101 0.994562
1.00326 1.00106 0.987853
1.00156 1.00333 0.988706
1.0036 1.00214 0.986081
0.999514 0.997919 0.999073
0.999485 0.998204 0.998977
1.00019 0.99998 0.997717
1.00018 1.00001 0.997689
1.00016 1 0.997695
1.00002 1.00001 0.996568
1.00174 1.00003 0.992208
1.00005 0.999963 0.996603
1.00176 1.00012 0.992109
1.00015 0.999996 0.997705
1.00165 0.999972 0.991736
1.00181 1.00011 0.992703
1.00413 0.999761 0.987603
1.00177 1.00001 0.992805
1.00415 0.999957 0.987389
1.00012 1.00001 0.995227
0.999829 0.999973 0.995521
0.999361 1.00074 0.995656
0.999747 0.999847 0.995763
1.00168 0.999946 0.992402
1.00153 0.999943 0.992642
1.00127 1.00065 0.992365
1.00363 1.00034 0.988594
1.00014 1 0.997714
1.00001 1.00001 0.995317
1.00165 0.999984 0.99207
1.00165 1.00001 0.992339
0.999607 0.999707 0.997131
1.00059 1.00148 0.992924
1.00153 0.999911 0.992626
1.00396 0.999928 0.988252
1.00336 1.00098 0.988447
1.00379 1.00007 0.988453
1.00473 1.00003 0.986245
1.00162 0.999991 0.991792
1.00155 1 0.992444
1.00403 0.999705 0.988234
1.00401 0.999871 0.988104
1.0039 0.999872 0.98828
1.00498 0.999586 0.986557
0.999595 0.999115 0.998516
1.00483 0.999806 0.986306
0.999957 1.00159 0.993038
1.00234 1.00224 0.988247
1.00461 1.00049 0.986067
1.00515 0.99985 0.985678
0.999814 1.00077 0.994167
1.0002 1.00337 0.990965
1.00014 1.00001 0.997797
0.999903 1.00029 0.997828
1.00151 1.00011 0.991816
0.999586 0.999005 0.99857
1.00019 1.0016 0.992636
1.00102 1.00097 0.991802
1.00262 1.00201 0.988033
0.999554 0.998617 0.998749
0.999658 0.999817 0.995461
1.0017 1 0.992298
1.0014 1.00043 0.992382
1.00394 1.00019 0.987503
0.999942 1.00105 0.993751
1.00327 1.00105 0.987857
1.00154 1.0033 0.988706
1.00365 1.00208 0.986089
0.999754 1.00053 0.994634
0.999717 0.999266 0.995951
1.00021 1.00237 0.992012
1.00407 1.00007 0.987403
1.00366 1.00051 0.987673
1.00492 1.00004 0.985931
1.00087 1.00347 0.989819
1.00437 1.00068 0.98605
1.00247 1.00377 0.986508
1.00429 1.0013 0.985821
0.99956 0.99765 0.99914
0.999493 0.997871 0.999098
0.999443 0.998129 0.999031
0.999781 1.00035 0.994656
0.999584 0.998789 0.998667
1.00019 0.99997 0.997754
1.00017 0.999999 0.997693
1.00168 1.00013 0.991542
1.00167 1.00004 0.991644
1.00014 1 0.9977
1.00013 0.999999 0.997704
1.00164 0.99998 0.991732
1.00174 1.0001 0.992128
1.00413 0.999756 0.987601
1.00168 1.00004 0.991627
1.00415 0.999957 0.987385
1.00162 0.999966 0.991775
1.00411 0.999687 0.987713
1.00415 0.99985 0.987479
1.00507 0.999175 0.986568
1.00412 1.00002 0.987364
1.00508 0.999534 0.9862
1.00013 0.999997 0.997706
0.999805 1.00002 0.995524
1.00166 0.999977 0.991137
1.00173 1 0.992249
0.999356 0.999837 0.998392
1.0009 1.00129 0.993046
1.00162 0.999883 0.992559
1.00398 0.99989 0.988136
1.00379 1.00014 0.988537
1.00333 1.00105 0.988463
1.00473 1.00005 0.986263
1.00161 0.999979 0.991792
1.00165 1 0.992347
1.00404 0.99969 0.98793
1.00403 0.999909 0.988168
0.999617 0.999192 0.998452
1.00017 1.00142 0.993495
1.00233 1.00237 0.988502
1.0039 0.999903 0.988263
1.00498 0.99948 0.986501
1.0046 1.00052 0.985971
1.00483 0.999854 0.986426
1.00514 0.999844 0.985708
0.999827 1.00079 0.994163
1.00027 1.00325 0.990977
1.00406 0.999689 0.987803
1.00404 0.999802 0.988124
1.005 0.999248 0.986843
1.00501 0.999295 0.986506
1.00492 0.999597 0.986587
1.00521 0.998792 0.986759
0.999868 1.00115 0.99365
1.00517 0.999352 0.986138
1.00118 1.00329 0.989227
1.00378 1.00193 0.985897
1.00513 1.00052 0.985349
1.00517 0.999313 0.986281
1.0005 1.00333 0.990512
1.00011 1.00278 0.991696
1.00069 1.00434 0.989297
1.00163 0.99998 0.991745
0.99949 0.998524 0.998847
0.99966 0.999725 0.995503
1.00128 1.00048 0.991834
1.00394 1.0002 0.987504
0.999866 1.00112 0.993688
1.0015 1.00329 0.988707
1.00327 1.00104 0.987862
1.00369 1.00202 0.986096
0.999735 1.00047 0.994659
0.999727 0.999185 0.995983
1.0001 1.00249 0.992027
1.00406 1.00009 0.987398
1.00367 1.0005 0.987679
1.00492 1.00003 0.985916
1.00079 1.00351 0.989841
1.00441 1.00075 0.986051
1.0025 1.00388 0.986475
1.00434 1.00116 0.98578
0.999827 0.998795 0.996218
1.00046 1.00301 0.990921
1.00007 1.00155 0.993055
1.00037 1.00385 0.990311
1.005 0.999866 0.985974
1.00473 1.0003 0.985967
1.00514 0.999746 0.985822
1.00151 1.00435 0.987793
1.00485 1.00031 0.985701
1.00317 1.00336 0.985648
1.00502 1.00052 0.985457
1.00027 1.00011 0.994144
1.00001 0.998282 0.996385
0.999643 0.997406 0.999171
0.999559 0.997604 0.999151
0.99948 0.997818 0.99912
0.99979 0.999865 0.995144
0.999571 0.998472 0.998805
0.999789 1.0004 0.994634
0.999616 0.998839 0.998615
1.00167 1.00006 0.99162
1.00169 1.00009 0.991559
1.00415 0.999958 0.98738
1.00414 0.999752 0.9876
1.00165 0.999987 0.991731
1.00016 1 0.997696
1.00164 0.999967 0.991774
1.00411 0.999692 0.987712
1.00415 0.999858 0.987476
1.00507 0.999177 0.986565
1.00412 1.00004 0.987356
1.00508 0.999536 0.98619
1.00407 0.999683 0.98778
1.00506 0.999063 0.986707
1.00509 0.999343 0.986375
1.00521 0.998102 0.987421
1.00506 0.9997 0.986068
1.00523 0.998626 0.986856
1.00162 0.999967 0.991793
1.00174 0.99999 0.99225
1.00405 0.999661 0.987628
1.00405 0.999944 0.988233
0.999648 0.999277 0.99838
1.00037 1.00136 0.993863
1.00239 1.00245 0.988755
1.0039 0.999923 0.988246
1.00498 0.999372 0.986446
1.00483 0.999904 0.986546
1.00458 1.00054 0.985876
1.00512 0.999836 0.985737
0.999847 1.00081 0.994158
1.00033 1.00314 0.990987
1.00406 0.999647 0.987737
1.00406 0.999787 0.98811
1.005 0.999163 0.98692
1.00501 0.9994 0.986539
0.999925 1.00114 0.993644
1.00131 1.00324 0.989201
1.00378 1.00197 0.985932
1.00492 0.999652 0.986569
1.00521 0.998651 0.986902
1.00511 1.00051 0.985281
1.00517 0.999347 0.986158
1.00518 0.99928 0.986274
1.00054 1.00325 0.990526
1.00056 1.0043 0.98935
1.00014 1.00277 0.991683
1.00501 0.999163 0.9869
1.00502 0.999225 0.986813
1.00518 0.998173 0.987421
1.00522 0.998478 0.986991
1.00518 0.998842 0.986635
1.00517 0.997487 0.988048
1.00073 1.00327 0.990126
1.00517 0.998483 0.986957
1.00234 1.00341 0.987207
1.00473 1.00165 0.98459
1.00517 1.0004 0.985259
1.00511 0.998525 0.987129
1.00013 1.00205 0.992406
1.00107 1.00351 0.989338
1.00019 1.00459 0.98969
1.00112 1.004 0.989027
1.00405 1.0001 0.987392
0.999732 0.999113 0.996015
0.999711 1.00043 0.994685
1.00003 1.00259 0.992042
1.00368 1.00049 0.987684
1.00493 1.00003 0.985901
1.0007 1.00357 0.989862
1.00253 1.004 0.986441
1.00446 1.00082 0.986052
1.0044 1.00104 0.985739
0.999831 0.998756 0.996231
1.00042 1.00308 0.990924
1.00005 1.00154 0.993084
1.00027 1.004 0.990298
1.005 0.999869 0.98596
1.00476 1.00029 0.98596
1.00514 0.999756 0.985808
1.00146 1.00441 0.987819
1.00489 1.00037 0.985727
1.00324 1.00332 0.985615
1.00497 1.00046 0.98545
0.999935 0.998476 0.996331
1.00014 1.0008 0.993706
1.00088 1.0041 0.989205
1.00013 1.00314 0.991447
1.00039 1.00459 0.989552
1.00517 0.999388 0.986146
1.00505 1.00001 0.985674
1.00512 0.999057 0.986516
1.00192 1.00482 0.986619
1.00506 1.00014 0.985551
1.00405 1.00208 0.985037
1.00026 1.00018 0.994092
1.00023 1.00141 0.992947
1.00026 1.0001 0.994177
1.00026 1.00012 0.994143
1.00005 0.998106 0.996965
1 0.998273 0.996661
0.999796 0.997216 0.998106
0.999652 0.997361 0.999176
0.999563 0.99755 0.999161
0.999829 0.999388 0.995564
0.999581 0.998143 0.998934
0.999794 0.99992 0.995119
0.999604 0.998527 0.998757
0.999799 1.00044 0.994613
0.999644 0.998895 0.998562
1.00412 1.00005 0.987348
1.00415 0.999864 0.987472
1.00507 0.999549 0.986181
1.00506 0.99918 0.986561
1.00411 0.999698 0.987711
1.00163 0.999969 0.991772
1.00407 0.99968 0.98778
1.00505 0.999066 0.986707
1.00508 0.999358 0.986368
1.00522 0.998004 0.987535
1.00505 0.999706 0.986058
1.00523 0.998646 0.986844
1.00503 0.999043 0.98677
1.00519 0.997849 0.98776
1.00523 0.998286 0.987182
1.00519 0.996909 0.988637
1.0052 0.999027 0.986503
1.00518 0.997203 0.98826
1.00406 0.999606 0.987671
1.00408 0.999781 0.988096
1.005 0.999086 0.986996
1.00501 0.999505 0.986572
0.999996 1.00111 0.993636
1.00134 1.00324 0.989178
1.00378 1.00201 0.985966
1.00492 0.999708 0.98655
1.00521 0.998508 0.987045
1.00516 0.999343 0.986178
1.00509 1.0005 0.985212
1.00518 0.999247 0.986265
1.00058 1.00315 0.99054
1.00053 1.00421 0.989404
1.00018 1.00275 0.991671
1.00501 0.999122 0.986838
1.00503 0.999224 0.986804
1.00518 0.998001 0.987599
1.00522 0.99853 0.986968
1.00079 1.00324 0.990105
1.00242 1.00333 0.987183
1.00458 1.00168 0.984742
1.00518 0.998985 0.986537
1.00517 0.997303 0.988262
1.00517 1.00043 0.98514
1.00517 0.998485 0.986975
1.00511 0.998426 0.987257
1.00113 1.00349 0.989339
1.00108 1.00397 0.98902
1.00015 1.00206 0.992392
1.00015 1.00449 0.989805
1.00517 0.998022 0.987608
1.00521 0.99826 0.987401
1.00514 0.997043 0.988507
1.00517 0.996701 0.988816
1.00516 0.997776 0.98774
1.00511 0.996472 0.989165
1.00155 1.00328 0.988731
1.0051 0.997212 0.988233
1.00287 1.00333 0.985849
1.00508 1.0017 0.984195
1.00513 1.00005 0.985464
1.00508 0.998108 0.987542
1.00013 1.00152 0.992943
1.00012 1.00389 0.990519
1.00151 1.00315 0.988955
1.00039 1.00489 0.989178
1.00139 1.00332 0.989276
0.999832 0.998728 0.996244
1.005 0.999872 0.985946
1.00003 1.0015 0.993114
1.00035 1.00319 0.990929
1.00016 1.00413 0.990284
1.00478 1.00028 0.985953
1.00515 0.999767 0.985794
1.00148 1.00439 0.987845
1.00333 1.00328 0.985584
1.00493 1.00043 0.985752
1.00489 1.00041 0.985445
0.999936 0.998465 0.996337
1.00013 1.00078 0.993719
1.00088 1.00405 0.989219
1.00004 1.00323 0.991452
1.00031 1.00466 0.989484
1.00517 0.999398 0.986131
1.00507 1.00002 0.985653
1.00512 0.999036 0.986485
1.00187 1.00487 0.98663
1.0051 1.00012 0.985569
1.00418 1.00197 0.985061
1.00022 1.00037 0.99398
1.00015 1.0022 0.992352
1.00115 1.00444 0.988338
1.00003 1.00436 0.990448
1.00076 1.00433 0.989362
1.00513 0.998504 0.987063
1.00511 0.999567 0.985971
1.00511 0.998338 0.986941
1.00231 1.00438 0.98618
1.0049 1.00077 0.985012
1.00025 1.00019 0.994089
1.00024 1.0014 0.992859
1.0002 1.00144 0.992903
1.00018 1.00215 0.992425
1.00021 1.00144 0.992969
1.00023 1.00014 0.994183
1.00026 1.0001 0.994177
1.00009 0.998013 0.996971
1.00026 1.00013 0.994142
1.00006 0.998115 0.996965
0.999896 0.996989 0.998132
0.999992 0.998271 0.996932
0.999765 0.997175 0.99865
0.999663 0.997316 0.999181
0.999884 0.998959 0.995901
0.999825 0.999439 0.995542
0.99961 0.997846 0.99903
0.999606 0.998208 0.998889
0.999797 0.999977 0.995094
0.999637 0.998576 0.998706
1.00504 0.999712 0.986047
1.00507 0.999363 0.986361
1.00523 0.998661 0.986832
1.00522 0.997905 0.987649
1.00504 0.999069 0.986708
1.00408 0.999679 0.98778
1.00503 0.999042 0.986772
1.00519 0.997855 0.987767
1.00523 0.998298 0.987182
1.00518 0.99671 0.988847
1.0052 0.999032 0.986482
1.00518 0.997085 0.98838
1.00517 0.997886 0.987771
1.00511 0.996789 0.988869
1.0052 0.996663 0.988843
1.00519 0.995735 0.989763
1.00515 0.997821 0.987698
1.00516 0.996182 0.98932
1.00501 0.999077 0.986775
1.00503 0.999231 0.986794
1.00518 0.997824 0.987778
1.00521 0.998578 0.986944
1.00086 1.00321 0.990084
1.00252 1.00326 0.98716
1.0044 1.00164 0.984895
1.00518 0.999131 0.986439
1.00516 0.997119 0.988477
1.00517 0.998488 0.986994
1.00517 1.00047 0.985022
1.00511 0.998331 0.987384
1.0011 1.00354 0.98934
1.00092 1.00406 0.989012
1.00017 1.00208 0.992378
1.00012 1.00443 0.98992
1.00517 0.998028 0.987603
1.00521 0.998325 0.987287
1.00515 0.996953 0.988634
1.00516 0.996792 0.988696
1.00153 1.00342 0.988691
1.00288 1.00334 0.986013
1.00504 1.0016 0.984148
1.00517 0.997938 0.987545
1.00512 0.99624 0.989324
1.00513 1.00008 0.985435
1.00511 0.997233 0.988239
1.00508 0.997898 0.987665
1.00158 1.00312 0.988931
1.00135 1.00322 0.989351
1.00037 1.00498 0.98914
1.00014 1.00151 0.992876
1.00009 1.00379 0.99063
1.00511 0.996809 0.98891
1.00517 0.996506 0.98906
1.00512 0.995675 0.989885
1.00511 0.996365 0.989049
1.00182 1.00365 0.987921
1.00511 0.99678 0.988856
1.00333 1.00317 0.985014
1.00513 1.0016 0.98397
1.00508 0.999567 0.9858
1.00009 1.00098 0.993358
1.0001 1.00315 0.991465
1.00029 1.0044 0.989942
1.0018 1.0027 0.988986
1.00063 1.00477 0.988771
1.00169 1.00237 0.989184
0.999936 0.998459 0.996342
1.00012 1.00075 0.993732
1.00517 0.999408 0.986117
0.999941 1.00333 0.991458
1.0008 1.00409 0.989234
1.00022 1.00472 0.989415
1.0051 1.00002 0.985633
1.00512 0.999016 0.986453
1.0018 1.00492 0.986641
1.00428 1.0019 0.985083
1.00513 1.00009 0.985589
1.00022 1.00037 0.993982
1.0001 1.00222 0.99237
1.00113 1.0045 0.98831
0.999923 1.00447 0.990432
1.00066 1.00425 0.98941
1.00513 0.998514 0.987039
1.00512 0.999565 0.985938
1.00511 0.998376 0.986991
1.00233 1.00422 0.986075
1.00491 1.00093 0.984981
1.00022 1.00164 0.992788
0.999849 1.00361 0.991285
1.00154 1.00391 0.988117
1.00006 1.00489 0.989788
1.00119 1.00334 0.989295
1.00511 0.997039 0.988288
1.00511 0.999532 0.985972
1.00508 0.998278 0.986953
1.00349 1.00312 0.985678
1.00504 1.00073 0.984856
1.00025 1.0002 0.994086
1.00024 1.00142 0.992888
1.00006 1.0022 0.992365
1.00017 1.00146 0.992859
1.00018 1.00147 0.992967
1.00011 1.0022 0.992367
1.00002 1.00264 0.99215
1.0001 1.00227 0.992229
1.00016 1.00153 0.992954
1.00018 1.00024 0.994176
1.00023 1.00015 0.994183
1.00012 0.997982 0.996954
1.00025 1.0001 0.994178
1.0001 0.998032 0.996968
0.999969 0.996866 0.99813
1.00006 0.99812 0.996968
0.999884 0.996964 0.998139
0.99973 0.997121 0.999205
0.99994 0.99858 0.996198
0.999878 0.999009 0.995879
0.999657 0.997571 0.999103
0.999819 0.999498 0.995521
0.999625 0.997903 0.999002
0.999633 0.998261 0.998843
1.0052 0.999036 0.986461
1.00523 0.998313 0.987181
1.00518 0.996965 0.988501
1.00518 0.996509 0.989057
1.00519 0.99786 0.987774
1.00503 0.999042 0.986773
1.00517 0.997953 0.987689
1.00512 0.996911 0.988766
1.00519 0.996733 0.988764
1.00517 0.995512 0.989964
1.00516 0.997847 0.98769
1.00515 0.995968 0.989484
1.00509 0.997013 0.988764
1.00516 0.995387 0.990139
1.00517 0.995528 0.989936
1.00513 0.996128 0.989375
1.00517 0.998033 0.987598
1.0052 0.998388 0.987173
1.00516 0.996869 0.988761
1.00516 0.996884 0.988576
1.00158 1.00348 0.98865
1.00287 1.00335 0.986177
1.00504 1.00153 0.9841
1.00517 0.998099 0.98735
1.00512 0.996016 0.989482
1.00511 0.997255 0.988244
1.00512 1.00009 0.985406
1.00509 0.997688 0.987788
1.00165 1.00313 0.988907
1.00139 1.00299 0.989424
1.00034 1.00504 0.989103
1.00014 1.00149 0.992808
1.00007 1.00371 0.990742
1.00512 0.996851 0.988903
1.00517 0.996562 0.989011
1.00513 0.995753 0.989758
1.00186 1.00367 0.987887
1.00348 1.00319 0.985151
1.00512 1.00156 0.983917
1.00511 0.996395 0.989036
1.00508 0.999365 0.98608
1.0051 0.996733 0.988704
1.0001 1.00091 0.993443
1.0019 1.0026 0.988947
1.00153 1.00226 0.989642
1.00073 1.00484 0.988703
1.00029 1.00445 0.98996
1.0001 1.00313 0.991408
1.00515 0.995877 0.98954
1.00519 0.995421 0.990041
1.00513 0.995309 0.989989
1.00515 0.99567 0.989724
1.00226 1.00345 0.98737
1.00511 0.997621 0.987733
1.0045 1.00305 0.983429
1.00507 1.00167 0.98375
1.00014 1.00027 0.993998
1.0001 1.00246 0.992174
1.00021 1.00381 0.990725
1.00041 1.00501 0.989053
1.00209 1.00204 0.988876
1.00167 1.00337 0.988441
1.00021 1.00036 0.993984
1.00006 1.00222 0.992388
1.00514 0.998523 0.987015
0.999816 1.00456 0.990417
1.00113 1.00453 0.988283
1.00047 1.00412 0.989459
1.00513 0.999563 0.985904
1.00511 0.998423 0.98704
1.00239 1.0041 0.985969
1.00493 1.00108 0.98495
1.00019 1.00162 0.992799
0.999915 1.00356 0.991293
1.00157 1.00397 0.988122
0.999934 1.00495 0.989748
1.00101 1.00317 0.989669
1.00511 0.997029 0.988486
1.0051 0.999518 0.986037
1.0051 0.99835 0.986949
1.00339 1.00322 0.985506
1.00505 1.00075 0.984752
0.999944 1.00249 0.992183
0.999775 1.0046 0.990264
1.00227 1.00306 0.987766
1.00033 1.00423 0.989067
1.00512 0.995579 0.989699
1.00492 0.997607 0.988225
1.00504 0.99966 0.985768
1.00388 1.00171 0.984997
1.00025 1.00141 0.992917
1.00007 1.00221 0.992384
0.999845 1.00288 0.992252
1.00016 1.00151 0.992965
1.00004 1.00224 0.992309
1.00016 1.00154 0.992948
0.99998 1.00262 0.992148
1.00011 1.00227 0.992262
0.999921 1.00279 0.992129
1.00007 1.00272 0.991913
1.00013 1.00236 0.992084
1.00015 1.00164 0.992859
1.00013 1.00032 0.994158
1.00018 1.00022 0.994174
1.00014 0.997982 0.99693
1.00023 1.00013 0.994183
1.00013 0.998008 0.996949
1.00002 0.996784 0.998113
1.00011 0.99805 0.996967
0.999961 0.996832 0.998137
0.999872 0.996941 0.998142
1.00002 0.998214 0.996431
0.999945 0.998603 0.996175
0.999725 0.99726 0.999166
0.99987 0.999063 0.995855
0.999663 0.997623 0.999082
0.999644 0.997955 0.998967
1.00516 0.997872 0.987681
1.00519 0.996805 0.988686
1.00514 0.995758 0.989648
1.00516 0.995307 0.990164
1.00512 0.997036 0.988663
1.00517 0.998021 0.987606
1.00509 0.996991 0.988791
1.00515 0.995516 0.990034
1.00518 0.995521 0.989919
1.00513 0.99609 0.989444
1.00515 0.995747 0.989829
1.0052 0.995062 0.990426
1.00516 0.995167 0.990117
1.00512 0.996894 0.988896
1.00518 0.996616 0.988962
1.00514 0.99583 0.989632
1.00191 1.00369 0.987853
1.00368 1.00322 0.985289
1.00511 1.00156 0.983864
1.00512 0.99642 0.989023
1.00508 0.996684 0.988553
1.00508 0.999167 0.986362
1.00199 1.00249 0.988907
1.00133 1.00219 0.9901
1.00084 1.00491 0.988636
1.00011 1.00084 0.993528
1.00025 1.00445 0.989978
1.0001 1.0031 0.991351
1.00516 0.99596 0.989589
1.00519 0.995377 0.990099
1.00513 0.995325 0.990023
1.00228 1.00348 0.987322
1.00422 1.00301 0.983854
1.00503 1.00149 0.984062
1.00514 0.995719 0.98966
1.00511 0.997576 0.987685
1.00013 1.00025 0.994141
1.0001 1.00246 0.99217
1.00188 1.00202 0.989023
1.00156 1.00345 0.988863
1.00037 1.00492 0.989243
1.00019 1.00383 0.990655
1.00519 0.995045 0.99045
1.00515 0.994943 0.990393
1.00512 0.995164 0.990207
1.00512 0.995852 0.989422
1.00246 1.00288 0.986779
1.00492 1.00021 0.985423
1.00503 1.00331 0.98304
1.00019 0.999882 0.994519
1.00019 1.00107 0.993371
1.00011 1.00171 0.992721
1.00004 1.0034 0.991317
1.00007 1.00451 0.990024
1.00011 1.00481 0.989332
1.00247 1.00094 0.988887
1.00164 1.00338 0.989548
1.00017 1.00164 0.992809
0.999977 1.00355 0.991301
1.00511 0.997023 0.988684
0.999982 1.00503 0.989708
1.00158 1.00409 0.988129
1.00079 1.00306 0.990041
1.00509 0.999486 0.986104
1.00511 0.998409 0.986947
1.00328 1.00329 0.985338
1.00506 1.00077 0.98465
0.999968 1.00256 0.992111
0.999852 1.00453 0.990292
1.00217 1.00312 0.987874
1.00064 1.00431 0.989129
1.00513 0.995451 0.989864
1.00499 0.997624 0.988023
1.00505 0.999626 0.9858
1.00423 1.00187 0.984846
0.999802 1.00335 0.991663
1.0051 0.995182 0.990169
1.00041 1.005 0.989476
1.00224 1.00339 0.987348
1.00495 0.996044 0.989847
1.00482 0.998735 0.986453
1.00466 1.00122 0.985038
1.00007 1.00225 0.992404
0.999829 1.00285 0.992229
0.999577 1.00335 0.992245
1.00016 1.00152 0.992942
1.00011 1.00226 0.992296
0.999891 1.00265 0.992147
1.00016 1.00162 0.992846
1.00011 1.00236 0.992105
0.999846 1.00284 0.992115
1.00011 1.00266 0.99195
1.00006 1.00265 0.992116
1.00001 1.00282 0.991924
1.00016 1.00288 0.991635
1.00025 1.00241 0.991871
1.00018 1.00174 0.99271
1.0001 1.00042 0.994112
1.00013 1.00034 0.994156
1.00014 0.998021 0.996884
1.00018 1.00024 0.994172
1.00014 0.998014 0.996925
1.00006 0.996722 0.998099
1.00013 0.998035 0.996946
1.00002 0.996748 0.998119
0.999955 0.996801 0.998141
1.00018 0.9998 0.994628
1.00008 0.997968 0.99658
1.00002 0.998233 0.996416
0.999812 0.996982 0.999211
0.999948 0.998636 0.996152
0.999725 0.997335 0.999148
0.999674 0.997682 0.999061
1.00514 0.996051 0.989513
1.00518 0.995515 0.989901
1.00514 0.995629 0.989928
1.0051 0.996964 0.988818
1.00515 0.995669 0.98995
1.00521 0.995048 0.990434
1.00515 0.995217 0.990119
1.00521 0.994918 0.990527
1.00519 0.994953 0.99046
1.0049 0.995063 0.990882
1.00516 0.996042 0.989638
1.00519 0.995321 0.990156
1.00513 0.995342 0.990057
1.0023 1.00351 0.987274
1.00392 1.00298 0.984281
1.005 1.00131 0.984373
1.00514 0.995773 0.989596
1.00512 0.997535 0.987638
1.00169 1.00204 0.98917
1.0015 1.00349 0.989283
1.00024 1.00487 0.989435
1.00013 1.00021 0.994285
1.00013 1.00245 0.992166
1.00017 1.00389 0.990584
1.00519 0.995024 0.99042
1.00018 0.999897 0.994516
1.00016 1.00109 0.993309
1.00515 0.994964 0.990408
1.00511 0.995167 0.990188
1.00223 1.00307 0.987229
1.00476 1.00316 0.983186
1.00494 1.00009 0.985349
1.0051 0.995967 0.989318
1.00011 1.0017 0.992899
1.00007 1.00336 0.991301
1.00268 1.00128 0.988665
1.00109 1.00334 0.989906
1.00017 1.00476 0.98948
1.00003 1.00455 0.990104
1.00519 0.994948 0.990351
1.00509 0.99486 0.990576
1.00509 0.995098 0.990014
1.00491 0.996502 0.988859
1.00232 1.00255 0.987762
1.00453 1.00312 0.983998
1.00012 1.00112 0.993274
1.00017 1.0012 0.993267
1.00023 1.00189 0.992609
1.00008 1.0029 0.991551
0.999952 1.00404 0.990924
1.00053 1.0045 0.989407
0.999619 1.00495 0.989852
1.00187 1.00096 0.990015
0.999994 1.0026 0.99204
0.999949 1.00444 0.99032
1.00515 0.995313 0.990029
1.00505 0.997669 0.987822
1.00092 1.00438 0.989192
1.00207 1.00312 0.987979
1.00506 0.999594 0.98583
1.00458 1.00203 0.984694
0.999846 1.00335 0.99162
1.00511 0.995022 0.990314
1.0002 1.00489 0.989591
1.00227 1.00323 0.987223
1.00498 0.995945 0.989769
1.00473 0.998825 0.98669
1.00469 1.00137 0.985079
0.999853 1.00447 0.9908
1.00453 0.994997 0.991931
1.00141 1.00422 0.989003
1.00299 1.00328 0.986677
1.00481 0.996695 0.98906
1.00408 1.00066 0.986089
0.999508 0.996802 0.991682
0.999793 1.00284 0.992208
0.999489 1.00343 0.992239
0.999784 1.00344 0.991962
1.00015 1.00164 0.992834
1.0001 1.00239 0.992127
1.00015 1.00261 0.991988
0.999801 1.00284 0.9921
1.00017 1.00174 0.992708
1.00023 1.00246 0.991863
1.00004 1.00274 0.991986
1.00013 1.00292 0.991638
1.00007 1.00276 0.991914
1.00015 1.00254 0.992024
1.00026 1.00304 0.991304
1.0002 1.00295 0.99152
1.00035 1.00253 0.991606
1.00021 1.00181 0.992473
1.00027 1.00235 0.992054
1.0002 1.00188 0.992381
1.0001 1.00047 0.994063
1.0001 1.00043 0.994111
1.00017 0.998106 0.996279
1.00013 1.00033 0.994154
1.00016 0.998061 0.996601
1.00003 0.996674 0.999183
1.00014 0.998048 0.996922
1.00006 0.996684 0.998104
1.00002 0.996714 0.998123
1.00014 0.999745 0.994725
1.00018 0.999779 0.994633
1.0001 0.997822 0.996694
1.00007 0.997973 0.996833
0.999887 0.996776 0.999245
1.00003 0.998248 0.996401
0.999804 0.997048 0.999199
0.999727 0.997399 0.999129
1.00514 0.995267 0.990121
1.00521 0.995027 0.990443
1.00515 0.995595 0.990072
1.00521 0.994919 0.990523
1.00517 0.994957 0.990444
1.00491 0.995203 0.990552
1.0052 0.99495 0.990406
1.0009 0.995338 0.988431
1.0041 0.994945 0.993499
1.00006 1.00113 0.993501
1.00519 0.995003 0.990391
1.00515 0.994997 0.990422
1.00511 0.995169 0.990168
1.00198 1.00323 0.987679
1.00443 1.00309 0.98333
1.00499 0.999984 0.98528
1.00507 0.996097 0.989212
1.00298 1.00144 0.988446
1.0005 1.00335 0.990267
1.00027 1.00468 0.989631
1.00016 0.999929 0.994512
0.999999 1.0046 0.990185
1.00011 1.00167 0.993076
1.0001 1.00333 0.991284
1.00015 1.00109 0.993248
1.00519 0.994941 0.99037
1.00012 1.0011 0.99337
1.00016 1.00122 0.993264
1.00023 1.00189 0.992517
1.00507 0.994878 0.990561
1.0051 0.995191 0.989956
1.00246 1.0025 0.987791
1.00423 1.00267 0.984448
1.00482 0.996859 0.98879
1.00005 1.00292 0.991662
0.999998 1.00406 0.990749
1.00175 1.00156 0.989871
0.999927 1.00479 0.989902
1.00047 1.00436 0.989499
1.00514 0.994936 0.990551
1.0051 0.994877 0.990522
1.00505 0.996054 0.989162
1.00458 0.998664 0.988332
1.00152 1.00289 0.98912
1.00011 1.00211 0.992307
1.00025 1.00208 0.992067
1.00007 1.00282 0.991735
0.999902 1.00414 0.991077
0.999976 1.00439 0.990362
1.00001 1.00458 0.989766
1.00025 1.00381 0.990286
0.999918 1.00333 0.991576
0.999938 1.00479 0.989705
1.00514 0.994943 0.990456
1.00502 0.995822 0.989691
1.00468 0.998884 0.986926
1.00231 1.00306 0.987101
1.00474 1.00151 0.985121
0.999848 1.00441 0.990925
1.00443 0.994998 0.992047
1.00105 1.00411 0.989159
1.00274 1.00336 0.986657
1.00475 0.996519 0.989396
1.00422 1.00063 0.986049
0.999514 0.996877 0.989689
0.999989 1.00441 0.990634
1.00355 0.996218 0.992137
1.00098 1.00377 0.98936
1.0026 1.00221 0.987396
1.00404 0.997908 0.988174
1.00035 0.995605 0.955006
0.996749 0.995537 0.974195
0.997323 1.00247 0.990622
0.999803 0.996862 0.909533
0.994743 0.997949 0.889242
0.999418 1.00347 0.992232
0.999554 1.00363 0.992014
0.999942 1.00276 0.992215
1.00017 1.00173 0.992706
1.00026 1.00238 0.991856
1.00012 1.00293 0.991641
1.00013 1.0027 0.991904
1.00002 1.00286 0.991856
1.00023 1.00289 0.991474
1.00021 1.00179 0.992544
1.00034 1.00252 0.991621
1.00016 1.00254 0.991961
1.00021 1.00306 0.991372
1.00027 1.00307 0.991363
1.00003 1.00282 0.991733
1.00033 1.00298 0.991266
1.00037 1.0025 0.991544
1.00023 1.00188 0.992368
1.00035 1.00251 0.991698
1.00027 1.00256 0.991793
1.00013 1.00238 0.99213
1.00026 1.00238 0.991988
1.00022 1.0017 0.992662
1.00022 1.00189 0.992372
1.00013 1.00046 0.994022
1.0001 1.00048 0.994061
1.00015 0.998176 0.996252
1.00009 1.00044 0.994109
1.00017 0.998116 0.996278
1.00004 0.996683 0.999175
1.00017 0.9981 0.996319
1.00006 0.996677 0.998627
1.00006 0.996647 0.998108
1.0001 0.999742 0.994808
1.00015 0.999741 0.994725
1.00012 0.997719 0.996768
1.00019 0.999755 0.994637
1.0001 0.997789 0.996948
0.999943 0.996605 0.999273
1.00007 0.998012 0.996549
0.999876 0.99686 0.999228
0.999798 0.997103 0.999187
1.00516 0.994963 0.990429
1.00521 0.994919 0.990518
1.00491 0.995289 0.990222
1.00074 0.995515 0.988532
1.00518 0.994949 0.990393
1.00399 0.995436 0.993018
1.00492 0.996331 0.991208
0.997212 0.995637 0.972719
1.00096 0.996385 0.989979
1.00008 1.00117 0.993453
1.00011 1.00109 0.993495
1.00001 1.00215 0.99257
1.00007 1.00209 0.992552
1.00518 0.994925 0.990389
1.00506 0.994887 0.990546
1.00511 0.995278 0.989896
1.00282 1.00227 0.987821
1.00394 1.00203 0.984893
1.00477 0.997237 0.988717
1.00152 1.00231 0.989726
1.00029 1.00467 0.989949
1.00038 1.0042 0.989589
1.00013 1.00128 0.993259
1.00002 1.00404 0.990573
1.00006 1.00292 0.991775
1.00012 1.0011 0.993467
1.00019 1.00193 0.992424
1.00515 0.994928 0.990538
1.00009 1.00216 0.992425
1.00023 1.00211 0.992216
0.999954 1.00269 0.992032
1.0051 0.994873 0.990446
1.005 0.995885 0.989185
1.00193 1.00235 0.989037
1.00428 0.998496 0.988659
0.999956 1.00402 0.991004
1.00012 1.00444 0.990014
1.00024 1.0041 0.99028
1.00039 1.00447 0.989709
1.00476 0.994806 0.991332
1.00508 0.995451 0.990175
1.00502 0.996663 0.989048
1.00227 1.00021 0.990671
0.999999 1.00327 0.991397
1.00007 1.00337 0.991167
0.999477 1.00452 0.991057
0.999663 1.00516 0.990048
1.00001 0.994927 0.949155
0.999818 1.00436 0.99105
1.00061 1.00406 0.989314
1.00437 0.994952 0.99216
1.00468 0.996375 0.989732
1.00433 1.00056 0.986007
1.00245 1.00345 0.986636
0.99964 0.996681 0.987643
0.999854 1.00457 0.990724
1.00373 0.995941 0.992146
1.00086 1.00385 0.989408
1.00288 1.00187 0.987374
1.00429 0.997984 0.988265
1.00151 0.995857 0.947698
0.996565 0.995614 0.970103
0.997224 1.00224 0.990395
0.999786 0.997567 0.912551
0.994725 0.997867 0.880105
0.999804 1.00365 0.99166
0.999875 0.995302 0.918031
0.995347 0.997454 0.890932
1.00227 1.00025 0.990648
1.00043 1.00362 0.990323
1.00241 1.00078 0.988429
0.996838 1.00368 0.990309
1.00014 0.997208 0.952858
0.994908 0.996995 0.968084
0.99837 0.998801 0.915904
0.994779 0.999235 0.887831
0.999369 1.00381 0.992065
0.999833 1.00298 0.992143
0.999763 1.00207 0.993509
1.00022 1.00175 0.992615
1.00034 1.00254 0.991637
1.00015 1.00297 0.991428
1.00016 1.00308 0.991441
1.00018 1.00253 0.991897
1.00024 1.00185 0.992378
1.00021 1.00313 0.991312
1.00032 1.00296 0.991287
1.00039 1.00248 0.9916
1.00004 1.00276 0.991803
1.00018 1.00317 0.99146
0.999814 1.00291 0.991883
1.00043 1.00293 0.991079
1.00042 1.00255 0.991528
1.00038 1.00249 0.991682
1.00026 1.00256 0.991805
1.00046 1.00257 0.991465
1.0001 1.00276 0.991838
1.00011 1.00246 0.991891
0.999746 1.00365 0.991482
0.999988 1.00264 0.992111
1.00014 1.00239 0.992126
1.00017 1.00166 0.992787
1.00025 1.0024 0.991922
1.00023 1.00171 0.9926
1.00019 1.00039 0.994006
1.00022 1.0019 0.992363
1.00013 1.00046 0.994023
1.00012 0.998181 0.996828
1.00009 1.00049 0.994059
1.00015 0.99816 0.99654
1.00009 0.996713 0.998027
1.00016 0.998128 0.996276
1.00004 0.996691 0.999172
1.00009 0.996682 0.99807
1.00011 1.00127 0.993314
1.00007 0.999787 0.994817
1.0001 0.999732 0.99481
1.00013 0.997681 0.99679
1.00015 0.999737 0.994725
1.00013 0.997693 0.996768
0.999987 0.9965 0.999286
1.00008 0.997797 0.997182
0.999958 0.996677 0.998763
0.999919 0.996911 0.998194
1.00043 0.995656 0.988658
1.00517 0.994952 0.990383
1.00388 0.996147 0.992534
0.996661 0.995479 0.974181
1.00076 0.996305 0.99024
1.00498 0.99576 0.990973
1.00338 0.996821 0.98957
0.996995 0.996794 0.976886
1.00006 0.995599 0.953095
0.999366 0.998148 0.919015
0.994661 0.997973 0.887922
0.999964 1.00214 0.992496
1.00009 1.00116 0.993453
1.00014 1.00104 0.99349
1.00002 1.00216 0.992528
0.999953 1.00297 0.991894
1.00016 1.00267 0.991885
1.00008 1.00238 0.992289
1.00002 1.00219 0.992481
1.00517 0.994903 0.990522
1.0051 0.994868 0.990366
1.00503 0.995625 0.989209
1.00212 1.002 0.988958
1.00399 0.998427 0.988986
1.00023 1.00433 0.990273
1.00071 1.00439 0.989653
1.00032 1.00447 0.989667
1.00017 1.00212 0.992365
0.999963 1.004 0.99093
1.00009 1.00222 0.992543
0.999958 1.00251 0.992328
1.00477 0.994829 0.991385
0.99999 1.00329 0.991476
1.00006 1.00337 0.991326
1.00503 0.995251 0.990088
1.00449 0.996361 0.989503
1.00224 1.00018 0.990516
0.99972 1.0047 0.99063
0.99996 1.00484 0.990107
1.00327 0.996726 0.991863
1.00467 0.995922 0.990832
1.00401 0.995669 0.991112
1.00133 1.00096 0.990886
1.00002 1.00401 0.990643
0.999681 1.00437 0.990819
0.999684 1.00517 0.990346
0.999916 0.994855 0.918967
1.00051 0.995077 0.95755
0.999772 1.00471 0.990814
1.00076 1.00383 0.989458
1.00381 0.995693 0.992158
1.00452 0.998123 0.988356
1.00318 1.00161 0.987357
1.00051 0.995202 0.953354
0.997059 0.995919 0.96937
0.997087 1.00204 0.99014
0.998993 0.997295 0.920561
0.994708 0.997832 0.87079
0.999752 1.00364 0.991678
0.999885 0.995878 0.917001
0.99534 0.997396 0.886381
1.00224 1.00009 0.990685
1.00039 1.00352 0.990394
1.00237 1.00088 0.988965
0.99719 1.0034 0.990937
1.00128 0.997029 0.947268
0.994907 0.996346 0.971904
0.99855 0.999386 0.916467
0.994929 0.999059 0.885707
0.999366 1.00311 0.99328
0.995595 0.996859 0.891247
0.995126 0.998917 0.905913
0.999741 1.00185 0.992791
0.999472 1.00368 0.992287
0.996264 1.00288 0.991594
0.994816 0.999257 0.971458
0.998203 0.999154 0.94535
0.995231 0.999878 0.921945
0.9948 0.996707 0.894914
0.99982 1.00311 0.992072
0.999876 1.00182 0.993463
0.999259 1.00191 0.993924
1.00024 1.00182 0.992388
1.00038 1.00246 0.991656
1.00031 1.00293 0.991308
1.00018 1.0032 0.991261
1.00002 1.00274 0.991874
1.00042 1.00256 0.991521
1.00019 1.0031 0.991412
1.00044 1.00293 0.991088
0.999613 1.00312 0.99201
0.998012 1.00416 0.993629
1.00022 1.0033 0.991198
1.00059 1.0029 0.990966
1.0004 1.00247 0.991666
1.00029 1.00253 0.991817
1.00044 1.00259 0.991451
1.00011 1.00277 0.991818
1.00015 1.00243 0.991961
0.999884 1.00323 0.991682
1.00018 1.0026 0.991708
0.999966 1.00264 0.992062
1.0002 1.0029 0.991528
0.999773 1.00496 0.989777
0.99953 1.00409 0.99122
0.999781 1.00365 0.991475
0.999877 1.00296 0.991979
1.00001 1.00264 0.992106
1.0001 1.00173 0.992814
1.00014 1.00243 0.992122
1.00018 1.00165 0.992792
1.00023 1.00029 0.994014
1.00025 1.00172 0.992538
1.00019 1.00037 0.994011
1.00012 0.998185 0.996832
1.00013 1.00046 0.994025
1.00014 0.998161 0.996544
1.00006 0.996714 0.998042
1.00016 0.998139 0.996254
1.00003 0.99672 0.999166
1.00004 0.996702 0.999169
1.00014 1.00138 0.993357
1.00007 0.999867 0.99473
1.0001 1.00127 0.993318
1.00014 0.997671 0.996784
1.00007 0.999777 0.994819
1.0001 0.999731 0.994811
1.00013 0.997673 0.996787
1.00002 0.996442 0.999288
1.00011 0.997677 0.997248
1.00001 0.996515 0.998796
0.999986 0.996672 0.99828
0.99984 0.99608 0.911356
0.994974 0.997272 0.890105
0.997695 0.99534 0.974612
1.00061 0.995668 0.990517
1.00505 0.994993 0.99074
0.996571 0.995746 0.978233
1.00351 0.996105 0.989871
1.00111 0.995959 0.95251
0.999817 0.997492 0.911009
0.994681 0.997883 0.878662
0.998483 0.995155 0.981863
0.999876 0.99775 0.953381
0.998354 0.998867 0.915
0.994773 0.99831 0.887151
1.00006 1.00309 0.991561
0.999975 1.00215 0.992569
1.00011 1.00112 0.993453
1.00003 1.00213 0.992487
0.99994 1.00288 0.991994
1.00018 1.00304 0.991481
1.00015 1.00265 0.991892
1.00018 1.00266 0.99176
1.0001 1.00236 0.992208
0.999981 1.00228 0.992412
1.00476 0.99488 0.991445
1.00511 0.995109 0.990018
1.00386 0.99616 0.989964
1.00212 1.00035 0.990361
1.00026 1.0046 0.990165
0.999932 1.00488 0.990203
1.00004 1.00332 0.991487
0.999929 1.00331 0.991555
1.00335 0.996173 0.992093
0.999982 1.00413 0.99057
0.999672 1.00448 0.990698
1.00464 0.995852 0.990559
1.00344 0.995731 0.991925
1.00173 1.00107 0.990245
0.999909 1.00515 0.990175
1.00044 0.997971 0.992958
1.0022 0.996285 0.994672
0.99987 1.00329 0.990923
0.999844 1.00446 0.990416
0.999801 1.0047 0.990239
0.999556 1.00512 0.990406
0.994782 0.996968 0.90556
0.999898 0.994889 0.92199
1.00002 0.994937 0.94908
0.999587 1.00381 0.991695
1.00034 1.0034 0.990464
1.00225 0.999761 0.990729
1.00239 1.00099 0.989496
0.999853 0.995557 0.922709
0.999932 0.997068 0.947341
0.994898 0.995662 0.968201
0.997527 1.00231 0.991513
0.998507 0.9989 0.907727
0.995346 0.99727 0.887678
0.994989 0.998859 0.890857
0.999088 1.00309 0.993282
0.995493 0.996109 0.896776
0.995354 0.999084 0.905395
1.00005 1.00182 0.99271
0.999177 1.00376 0.992282
0.996079 1.00043 0.994396
0.994845 0.998361 0.970153
0.997432 0.999029 0.95364
0.997296 0.999899 0.91301
0.994793 0.996671 0.900244
0.99802 1.0031 0.995403
0.995278 0.99676 0.916823
0.994722 0.996616 0.916791
0.995971 1.00228 0.999232
0.994804 0.999962 0.978
0.995381 0.999989 0.953763
0.994813 0.999925 0.91104
0.994873 0.994837 0.898013
0.999968 1.0016 0.993416
0.999366 1.00189 0.994141
0.99766 1.00367 0.995431
1.00041 1.00259 0.991513
1.00046 1.00293 0.991097
1.00021 1.00299 0.991365
0.999435 1.00331 0.99214
1.00053 1.00295 0.990948
1.00017 1.00335 0.991196
0.998016 1.00404 0.994049
0.996166 1.00521 0.996314
0.998543 1.0043 0.9932
1.00037 1.00315 0.991126
1.00045 1.00261 0.991437
1.00012 1.00278 0.991798
1.00016 1.00244 0.99203
1.00018 1.0026 0.991749
0.9999 1.00325 0.991684
0.999996 1.00265 0.992087
1.00008 1.00292 0.991825
0.999408 1.00243 0.99311
1.00102 1.00082 0.991892
1.00024 1.00277 0.991642
0.999982 1.00396 0.990582
1.00119 1.00491 0.987771
0.999796 1.00469 0.99074
0.99963 1.00493 0.990168
0.999628 1.00406 0.991283
0.999738 1.00332 0.991673
0.99982 1.00366 0.991469
0.999937 1.00291 0.991978
1.00005 1.00195 0.992699
1.00007 1.00261 0.9921
1.00013 1.00173 0.99281
1.00023 1.0003 0.994004
1.0002 1.00165 0.992796
1.00023 1.00031 0.994017
1.00011 0.998187 0.99685
1.00019 1.00037 0.994016
1.00013 0.998169 0.996553
1.00001 0.996801 0.998045
1.00016 0.998136 0.996258
1.00004 0.996732 0.998603
1.00003 0.996724 0.999168
1.00016 1.00165 0.992872
1.00011 0.999964 0.994584
1.0001 1.00142 0.993193
1.00015 0.997703 0.996735
1.00007 0.99986 0.994732
1.00007 1.00131 0.99332
1.00003 0.996416 0.999286
1.00014 0.997668 0.996785
1.00007 0.99976 0.994822
1.00014 0.997665 0.996785
1.00001 0.996454 0.999287
0.999985 0.996506 0.999285
0.99488 0.995342 0.898501
0.999868 0.995617 0.916213
0.995193 0.999284 0.905464
0.995162 0.997513 0.887508
0.996905 0.995231 0.975453
1.00354 0.996094 0.990193
1.00036 0.996471 0.951406
0.999802 0.997049 0.919789
0.994707 0.997941 0.869303
0.998373 0.995948 0.980836
1.00125 0.997465 0.944071
0.998552 0.999215 0.915671
0.994782 0.998831 0.882283
0.995446 0.99669 0.97629
0.997834 0.998926 0.945955
0.995839 0.999699 0.908803
0.994822 0.996233 0.889425
1.00004 1.00373 0.990992
1.00002 1.00306 0.991664
0.99995 1.0022 0.99264
0.999907 1.00278 0.992093
1.00032 1.00332 0.990856
1.00017 1.00297 0.991561
1.00011 1.00265 0.991898
1.00033 1.00269 0.991603
1.00022 1.00261 0.991852
1.00012 1.00235 0.992127
1.00353 0.995876 0.992307
1.00447 0.995737 0.990289
1.00312 0.995724 0.992727
1.00219 1.00092 0.989619
1.00006 1.00512 0.990006
0.999744 1.00459 0.990578
0.999975 1.00421 0.990498
0.999973 1.00442 0.990356
1.00071 0.997881 0.993275
0.999903 1.00475 0.990221
0.999758 1.00512 0.990386
1.00238 0.996263 0.994182
1.00046 1.00321 0.990774
0.998622 0.997126 0.994516
0.998481 0.998369 0.999572
0.998931 1.0047 0.991616
0.999977 1.00484 0.989894
0.999534 1.00504 0.990464
0.994786 0.99669 0.92256
0.99477 0.996779 0.903748
0.999885 0.994864 0.913998
0.998833 1.00306 0.993285
0.998984 1.00384 0.99226
1.00027 1.0019 0.99264
0.995464 0.995301 0.897867
0.997828 0.998923 0.946147
0.994855 0.997471 0.970607
0.996219 0.999233 0.997412
0.99597 0.999904 0.921904
0.995694 0.999272 0.904891
0.994821 0.996622 0.900406
0.997915 1.00314 0.995624
0.995373 0.995813 0.919636
0.994711 0.996548 0.916789
0.996201 1.00262 0.998338
0.994833 0.999773 0.979281
0.996151 0.999951 0.946095
0.99486 0.995328 0.898978
0.994858 0.999946 0.917313
0.996055 1.00445 0.998016
0.994598 0.994659 0.937195
0.994752 0.995548 0.920483
0.994812 0.996367 0.889717
0.994941 1.00094 0.993778
0.995137 0.999889 0.956744
0.994931 0.999977 0.915777
0.999538 1.00188 0.99436
0.997981 1.00369 0.99484
0.995564 1.00524 0.997945
1.0005 1.00297 0.990931
1.0001 1.00338 0.991192
0.997993 1.00393 0.994458
1.00028 1.00305 0.991197
0.998585 1.00415 0.993195
0.996224 1.00451 0.99684
0.99592 1.0051 0.997288
0.998789 1.00336 0.993301
1.00017 1.0026 0.99179
0.999912 1.00326 0.991687
1.00004 1.00265 0.992113
0.999553 1.00256 0.992996
1.00006 1.00282 0.991823
0.999801 1.00226 0.992853
1.00041 1.00126 0.992609
1.00083 1.00278 0.990144
1.0003 1.00262 0.991757
1.00035 1.00388 0.990389
1.00153 1.00391 0.987555
1.00162 1.00441 0.987216
1.00007 1.00492 0.989816
1.00098 1.00489 0.987907
0.999877 1.00389 0.991149
0.999719 1.00475 0.990671
0.999475 1.00497 0.99056
0.999727 1.00403 0.991346
0.999786 1.00325 0.991759
1.00002 1.00218 0.992506
0.999987 1.00286 0.991976
1.00008 1.00192 0.9927
1.0002 1.00044 0.993927
1.00015 1.00172 0.992807
1.00024 1.0003 0.994002
1.00006 0.998219 0.996872
1.00024 1.0003 0.99402
1.00011 0.998172 0.996574
0.999954 0.996893 0.998067
1.00015 0.998126 0.996271
0.999994 0.99681 0.998605
0.999999 0.996776 0.99917
1.00024 1.00184 0.992329
1.00016 1.00018 0.994084
1.00016 1.00166 0.99287
1.00016 0.997798 0.996619
1.00011 0.999974 0.994457
1.00009 1.00143 0.993031
1.00003 0.996458 0.999271
1.00015 0.997702 0.996739
1.00007 0.999848 0.994734
1.00003 0.996425 0.999286
1.00014 0.997666 0.996786
1.00001 0.996459 0.999288
0.994931 0.995061 0.919762
0.994862 0.995915 0.902517
0.999851 0.996083 0.917254
1.00043 1.00274 0.991267
0.994729 0.997494 0.920906
0.99523 0.998923 0.905086
0.995293 0.997394 0.891094
0.998457 0.996436 0.979413
0.999574 0.997962 0.953066
0.998394 0.998595 0.906423
0.994754 0.999239 0.884924
0.996266 0.996686 0.972382
0.997491 0.998819 0.953409
0.997251 0.999899 0.91244
0.994812 0.996818 0.891218
0.994888 0.997742 0.968523
0.995408 0.999968 0.952527
0.994867 0.999942 0.917042
0.99487 0.995131 0.897844
1.00021 1.00408 0.990309
1.00006 1.00377 0.990892
1.00003 1.00302 0.991768
1.00034 1.00329 0.990842
1.00031 1.00329 0.990976
1.00016 1.00291 0.991642
1.00035 1.00267 0.991636
1.00024 1.00257 0.991943
1.00085 0.997799 0.993561
1.0025 0.996288 0.993667
1.00004 1.00438 0.990295
1.00104 1.00312 0.990613
0.999999 1.00513 0.990364
0.999917 1.00478 0.990202
0.999989 1.00481 0.989983
0.998297 0.997757 0.995034
0.99971 1.00507 0.990381
0.999481 1.00413 0.991675
0.998573 0.99804 0.999592
0.99996 1.0048 0.989951
0.996878 0.998513 0.995032
0.996458 0.99963 1.00208
0.999007 1.00528 0.991305
0.999891 1.00499 0.990311
0.994607 0.994837 0.941842
0.99478 0.996882 0.922936
0.994756 0.996851 0.90194
0.997738 1.00319 0.995867
0.99616 1.0026 0.997423
0.995373 0.994976 0.922396
0.99545 0.999991 0.954219
0.994837 0.999027 0.976073
0.994849 0.999933 0.916469
0.994704 0.996492 0.916784
0.994846 0.995942 0.899924
0.996262 1.00426 0.997721
0.994613 0.994696 0.937106
0.994735 0.995303 0.924707
0.994889 1.00182 0.997056
0.994804 0.997001 0.891423
0.995046 0.999275 0.952104
0.99512 0.99998 0.920095
0.995127 1.00463 0.998526
0.994644 0.994657 0.941806
0.994715 0.997669 0.921095
0.994763 0.998549 0.887401
0.995875 0.999955 0.916335
0.994915 0.998764 0.986327
0.995521 1.00084 0.944442
0.998302 1.00364 0.994241
0.99565 1.00522 0.997625
0.994892 1.00508 0.999977
1.0002 1.00297 0.991269
0.998605 1.00416 0.99319
0.996283 1.00358 0.997364
0.998922 1.00347 0.993232
0.996132 1.00406 0.9973
0.997741 1.00365 0.995625
0.999723 1.00268 0.992881
0.999982 1.00277 0.991822
0.999925 1.00236 0.992911
0.999501 1.00402 0.991101
0.999761 1.00166 0.993319
1.00063 1.00263 0.99054
1.00167 1.00364 0.988042
1.00392 1.00261 0.985027
1.00072 1.00381 0.990192
1.0018 1.00403 0.987198
1.00255 1.00333 0.987459
1.00038 1.00489 0.988713
1.00163 1.0043 0.98747
0.999801 1.00458 0.990443
1.00011 1.00494 0.989776
1.00077 1.00483 0.988044
1 1.00262 0.99208
0.999835 1.00387 0.991157
0.999647 1.00482 0.990601
0.999838 1.00319 0.991844
1.00006 1.00216 0.992501
1.00016 1.00065 0.993772
1.00011 1.00191 0.992702
1.00021 1.00043 0.993924
1.00002 0.998347 0.996313
1.00025 1.00031 0.994
1.00009 0.998215 0.99632
0.999828 0.996987 0.999188
1.00013 0.998149 0.996294
0.999935 0.996898 0.998616
0.999956 0.996846 0.999172
1.00028 1.00202 0.992081
1.00022 1.00043 0.993709
1.00025 1.00187 0.992415
1.00017 0.997942 0.996458
1.00017 1.00019 0.994039
1.00017 1.00167 0.992868
1.00002 0.996554 0.999242
1.00016 0.997793 0.996628
1.00011 0.999989 0.99433
1.00003 0.996445 0.999276
1.00014 0.9977 0.996743
1.00003 0.996433 0.999287
0.994648 0.994737 0.937793
0.994893 0.995973 0.919561
0.99484 0.996688 0.902728
1.00039 1.00276 0.991352
1.00038 1.00272 0.991296
1.00044 1.00309 0.990998
0.994753 0.9953 0.920047
0.994718 0.996867 0.920905
0.995369 0.998964 0.904706
0.995919 0.996454 0.974632
0.998363 0.999302 0.944893
0.995277 0.999905 0.921766
0.994831 0.997477 0.887869
0.994993 0.997476 0.971604
0.996352 0.999986 0.949818
0.994828 0.999956 0.917937
0.994858 0.995435 0.898691
0.994874 0.997942 0.967338
0.995411 0.999991 0.95379
0.994936 1 0.91626
0.994805 0.997045 0.894615
1.00034 1.00392 0.990214
1.0002 1.00407 0.990301
1.00009 1.00379 0.990793
1.00036 1.0033 0.99082
1.00028 1.00327 0.991097
1.00038 1.00265 0.991668
0.997916 0.998154 0.995539
0.998325 0.99794 0.99963
1.00002 1.00476 0.990073
1.00004 1.00327 0.991738
0.999832 1.00508 0.9903
1.00007 1.00475 0.989829
0.999585 1.00499 0.990371
0.996643 0.997959 0.995386
0.99907 1.00466 0.991942
0.996161 1.00056 1.00141
0.999917 1.00461 0.990458
0.995502 0.997538 0.995794
0.996593 1.00233 0.998112
0.998868 1.00522 0.992122
0.994603 0.994862 0.947224
0.99459 0.994835 0.943344
0.994777 0.996834 0.923293
0.99656 1.00415 0.997413
0.995023 1.00179 0.994443
0.994621 0.994733 0.937015
0.994876 0.999161 0.95536
0.994926 0.999959 0.911887
0.994714 0.995041 0.928934
0.994812 0.997627 0.888155
0.99524 1.00451 0.998882
0.994643 0.994658 0.943434
0.994705 0.997001 0.921101
0.994928 0.998976 0.98229
0.994768 0.998979 0.882676
0.994825 0.999962 0.917184
0.99527 1.00061 0.953356
0.994986 1.00389 0.997652
0.99463 0.99474 0.938124
0.995231 0.999429 0.905808
0.994653 0.997992 0.888728
0.996119 0.999105 0.908765
0.995978 0.999999 0.952669
0.995555 1.00018 0.975619
0.99589 1.00525 0.997345
0.995211 1.0038 0.99993
0.996534 1.00354 0.998538
0.999029 1.00352 0.993164
0.996336 1.00326 0.997319
0.996941 1.00399 0.996042
0.99964 1.0029 0.992973
1.00006 1.00252 0.992969
1.00044 1.00376 0.990698
1.00128 1.00477 0.987676
1.00043 1.00252 0.990945
1.00185 1.00373 0.987721
1.00381 1.00389 0.984597
1.00499 1.00195 0.983766
1.00337 1.00221 0.986004
1.00379 1.00285 0.985027
1.00205 1.00414 0.986841
1.00202 1.00356 0.988125
1.00222 1.00301 0.987981
1.00002 1.005 0.989283
1.00052 1.00489 0.988851
1.00165 1.00419 0.98773
0.999944 1.00366 0.991125
0.999918 1.00452 0.990455
1.00014 1.00494 0.989735
1.00012 1.00099 0.993506
1.00006 1.00259 0.99207
0.999796 1.00386 0.991165
1.00009 1.00215 0.992496
1.00017 1.00066 0.993769
0.999933 0.998551 0.996254
1.00022 1.00044 0.993922
1.00002 0.998345 0.996308
0.999761 0.997149 0.999179
1.00009 0.998203 0.996317
0.999859 0.997014 0.998628
0.999897 0.996944 0.999177
1.00034 1.00213 0.99203
1.00028 1.00063 0.993589
1.00031 1.00201 0.992133
1.00017 0.998124 0.996273
1.00022 1.00043 0.993789
1.00025 1.00189 0.992502
0.999996 0.996688 0.999206
1.00016 0.997933 0.99647
1.00017 1.00021 0.993993
1.00002 0.996532 0.999251
1.00015 0.99779 0.996636
1.00004 0.996438 0.999281
0.994633 0.994647 0.941533
0.994613 0.994695 0.937703
0.994858 0.996663 0.919465
1.00027 1.00294 0.99126
1.00025 1.00338 0.991006
1.00034 1.00278 0.991437
1.00036 1.00277 0.991298
1.00037 1.00316 0.990969
1.0003 1.00311 0.991128
1.00051 1.00323 0.990729
0.99473 0.99645 0.916243
0.994742 0.995339 0.92433
0.994707 0.996101 0.920908
0.994837 0.99564 0.899536
0.994867 0.997411 0.968889
0.99524 0.999987 0.947852
0.99487 0.999933 0.922553
0.994865 0.998314 0.966704
0.995006 1.00001 0.946772
0.995073 0.99999 0.921006
0.994794 0.996773 0.900018
0.995484 0.99681 0.970628
0.994946 1.00055 0.946146
0.99481 0.99992 0.911677
0.994779 0.999283 0.887195
0.999918 1.00431 0.990561
1.00032 1.00394 0.990218
1.0002 1.00408 0.990293
1.0004 1.00329 0.990797
0.996594 0.997713 0.995768
0.996053 1.00135 1.00074
1.00007 1.00479 0.989709
0.999576 1.00503 0.990432
0.999335 1.00436 0.99258
0.999819 1.00466 0.990433
0.998692 1.00522 0.992122
0.995393 0.998706 0.99311
0.996058 1.00347 0.99849
0.99815 1.0049 0.992846
0.99522 0.998745 0.991725
0.997544 1.00451 0.996578
0.994622 0.994838 0.94189
0.994613 0.994812 0.949887
0.994571 0.99481 0.944843
0.995132 1.00434 0.999188
0.994924 0.997707 0.987149
0.994643 0.99466 0.945084
0.996638 1.00083 0.945057
0.994853 0.999943 0.921655
0.994697 0.996213 0.921104
0.994749 0.999303 0.885314
0.99495 1.00248 0.998198
0.994612 0.994702 0.938052
0.995368 0.998885 0.905414
0.994912 1.00066 0.976916
0.994674 0.997885 0.879594
0.997318 0.999899 0.912095
0.994956 1 0.946175
0.995441 1.00468 0.991927
0.995102 0.994838 0.92037
0.995078 0.997225 0.890913
0.99872 0.997924 0.915816
0.995357 0.999963 0.952775
0.994895 1.00001 0.969979
0.995479 1.00269 0.999925
0.995801 1.00425 0.998513
0.998223 1.00089 0.997186
0.996177 1.00431 0.99646
0.998569 1.00314 0.993487
1.00292 1.0003 0.989794
1.0014 1.00343 0.990292
1.00163 1.00469 0.987544
1.00279 1.00414 0.985058
1.00205 1.00382 0.987401
1.00382 1.00388 0.984356
1.00451 1.00334 0.983325
1.00505 1.00102 0.984545
1.00507 1.00225 0.983809
1.00498 1.00207 0.983695
1.00283 1.00243 0.986697
1.00339 1.00231 0.98623
1.00365 1.00313 0.985026
1.00144 1.00437 0.987973
1.00188 1.00349 0.988134
1.00187 1.00272 0.988498
1.00007 1.0047 0.989846
1.00008 1.00499 0.989444
1.00067 1.00488 0.988991
1.00003 1.00173 0.992895
1.00007 1.00351 0.991128
1.00002 1.00449 0.990467
0.999844 0.998772 0.996176
1.00013 1.001 0.993492
1.00011 1.00255 0.992059
1.00018 1.00065 0.993765
0.999933 0.998562 0.996247
0.999669 0.997349 0.999167
1.00003 0.998339 0.996304
0.999752 0.997186 0.999176
0.999826 0.997049 0.999181
1.00027 1.00306 0.991223
1.00039 1.00228 0.991832
1.00033 1.00086 0.993285
1.00034 1.00215 0.992018
1.00014 0.998356 0.996073
1.00028 1.00065 0.993588
1.00029 1.00206 0.992185
0.99996 0.99686 0.999162
1.00016 0.99812 0.996285
1.00023 1.00044 0.99387
1 0.996659 0.999216
1.00016 0.997927 0.996482
1.00003 0.996505 0.999261
0.994636 0.994674 0.936844
0.994641 0.994652 0.943195
0.994581 0.99469 0.937598
1.00034 1.00289 0.991283
1.00018 1.00344 0.990977
1.00008 1.00366 0.990845
1.00015 1.00336 0.990994
1.00027 1.00376 0.990689
1.00034 1.00282 0.991299
1.0003 1.00324 0.990939
1.00031 1.00309 0.991122
1.00042 1.00328 0.990813
1.00015 1.00356 0.991079
0.995158 0.998913 0.905124
0.994723 0.996651 0.916271
0.994728 0.995519 0.928605
0.994812 0.99648 0.900181
0.994932 0.999989 0.912329
0.994893 0.998809 0.965292
0.994934 1.00023 0.953434
0.994901 0.997184 0.967432
0.995127 1.00027 0.953722
0.994847 0.999952 0.918425
0.994956 0.99906 0.884925
0.995022 0.995207 0.972337
0.994933 1.00024 0.954349
0.99572 0.999884 0.921041
0.994752 0.997971 0.887343
0.998806 1.00365 0.99295
0.999895 1.00453 0.990516
1.00028 1.00399 0.990221
0.995201 0.999643 0.990365
0.995581 1.00424 0.998856
0.999811 1.00457 0.990408
0.998154 1.00523 0.992121
0.998314 1.00483 0.992884
0.996854 1.00413 0.996572
0.994931 0.99902 0.991944
0.996336 1.00258 0.997716
0.995945 1.00031 0.991859
0.995047 0.99633 0.922142
0.994613 0.994841 0.943365
0.994624 0.994761 0.952557
0.994956 1.00087 0.998628
0.994904 1.00116 0.972941
0.994595 0.994699 0.937964
0.996561 1.00001 0.951023
0.995245 0.999908 0.921312
0.995582 0.998825 0.905032
0.994702 0.997941 0.870355
0.995224 1.00479 0.992334
0.995029 0.995587 0.920181
0.995297 0.997372 0.888348
0.99491 0.999847 0.97099
0.998544 0.99916 0.916261
0.996291 0.999963 0.948575
0.995863 1.00253 0.989624
0.994929 0.995025 0.899361
0.999425 0.997895 0.919881
0.997824 0.998656 0.945868
0.994854 0.997674 0.972556
0.99511 1.00482 0.998464
0.998061 1.00108 0.997089
1.0028 0.999393 0.992272
0.997565 1.00336 0.993935
1.00191 1.00068 0.990196
1.00395 0.998953 0.988215
1.00195 1.00456 0.987411
1.00288 1.00397 0.985135
1.00439 1.00148 0.985126
1.00384 1.00386 0.984116
1.00441 1.00314 0.983382
1.00495 1.00057 0.985074
1.00512 0.999382 0.985991
1.00511 1.00149 0.983933
1.00499 1.00101 0.984602
1.00469 1.00189 0.984583
1.00504 1.00213 0.983722
1.00495 1.00216 0.983626
1.00237 1.00363 0.986947
1.00278 1.00243 0.986983
1.00339 1.0024 0.986458
1.00087 1.00444 0.988768
1.00128 1.00436 0.988091
1.00175 1.00343 0.988141
0.999934 1.00306 0.991688
1.00019 1.00457 0.989856
1.00016 1.00496 0.989605
0.999751 0.999148 0.996528
1.00006 1.00174 0.992862
1.00018 1.00338 0.991131
0.999589 0.997589 0.997998
0.999841 0.998825 0.996434
1.00014 1.00101 0.993477
0.999931 0.998577 0.99624
0.999662 0.997394 0.99916
0.999742 0.997218 0.999173
1.00018 1.00342 0.990975
1.00037 1.00255 0.991605
1.00023 1.00314 0.99119
1.00034 1.0011 0.993035
1.00035 1.00234 0.991825
1.00011 0.998603 0.995888
1.00032 1.00087 0.993285
1.00037 1.00213 0.992005
0.999913 0.99707 0.999115
1.00014 0.998344 0.996085
1.00027 1.00065 0.993587
0.999965 0.996828 0.999175
1.00016 0.998115 0.996297
1.00001 0.99663 0.999227
0.995639 0.994815 0.923084
0.994634 0.994696 0.936767
0.994652 0.994649 0.944873
1.00034 1.00313 0.991002
1.00033 1.00291 0.991306
1.00012 1.0035 0.990948
1.00021 1.00338 0.991022
1.00021 1.00358 0.990884
1.00017 1.00372 0.990761
1.00024 1.00401 0.990322
0.999902 1.00403 0.990621
1.00038 1.00302 0.991117
1.0003 1.00329 0.990897
1.00007 1.00362 0.99104
0.999415 1.00405 0.992276
0.995255 0.997895 0.889884
0.995548 0.999074 0.904598
0.994719 0.996869 0.916292
0.995217 0.998791 0.890138
0.994839 0.999942 0.918103
0.994938 1.00055 0.946131
0.995517 0.997201 0.965279
0.995059 0.995428 0.974045
0.994734 0.997959 0.878599
0.994915 1.00001 0.950244
0.997265 0.99988 0.912199
0.994879 0.996278 0.974847
0.995574 0.999969 0.954476
0.999357 0.998002 0.91253
0.998838 1.0019 0.995043
0.999053 1.00357 0.992902
0.999847 1.00477 0.99047
0.99484 0.999381 0.992169
0.996317 1.00374 0.996564
0.998429 1.00476 0.992921
0.997585 1.00239 0.997511
0.99549 1.00033 0.991962
0.996997 0.999829 0.993953
0.994859 0.998291 0.899388
0.994958 0.995691 0.92622
0.994603 0.994837 0.944839
0.995042 1.00511 0.992706
0.994913 0.999548 0.971368
0.99487 0.996318 0.920074
0.995254 0.999997 0.947147
0.998668 0.997784 0.907329
0.99547 0.997065 0.891971
0.996048 1.00282 0.989611
0.994966 0.995629 0.903337
0.999819 0.996921 0.912107
0.994877 0.997854 0.968577
0.997533 0.998704 0.953211
0.997783 0.999861 0.992688
0.999852 0.995863 0.912049
0.99987 0.998039 0.953023
0.994864 0.996678 0.968185
0.997921 1.00133 0.997077
1.0021 0.998513 0.992797
1.00383 0.999146 0.989667
1.00089 1.00106 0.9906
1.00351 0.999556 0.988169
1.00464 0.998132 0.987803
1.00294 1.00382 0.985211
1.00419 1.0015 0.985118
1.00495 0.998355 0.987109
1.0043 1.00294 0.983437
1.00495 1.00038 0.9851
1.00507 0.997792 0.987575
1.00514 0.997847 0.987478
1.00515 0.999986 0.985352
1.0051 0.999294 0.986071
1.0051 1.00096 0.984416
1.0051 1.0014 0.984083
1.00492 1.00099 0.984659
1.00379 1.00231 0.985698
1.00447 1.00188 0.984724
1.00496 1.00201 0.983633
1.00192 1.00368 0.987697
1.00243 1.00355 0.986929
1.00276 1.00241 0.987269
1.00034 1.00373 0.990351
1.00091 1.00443 0.988767
1.00112 1.00432 0.98821
0.999677 0.999832 0.995352
1.00007 1.00292 0.991676
1.00033 1.00443 0.989865
0.99949 0.99781 0.999131
0.999736 0.999234 0.99592
1.00011 1.00175 0.992829
0.999586 0.997593 0.999141
0.999826 0.998867 0.996141
0.999657 0.997446 0.999154
1.00043 1.00324 0.99083
1.00022 1.00341 0.990957
1.00035 1.00287 0.991311
1.0003 1.00138 0.992819
1.00033 1.00258 0.991604
1.00022 1.00315 0.991157
1.00005 0.998841 0.995742
1.00033 1.00111 0.993036
1.00032 1.00238 0.991819
0.999859 0.997281 0.999071
1.00011 0.998587 0.995898
1.00031 1.00088 0.993285
0.999919 0.997027 0.999129
1.00014 0.998335 0.996097
0.999971 0.996788 0.999188
0.995404 0.996829 0.891623
0.995419 0.994836 0.922916
0.994626 0.994716 0.936689
1.00019 1.00332 0.990985
1.00084 1.00288 0.990892
1.00023 1.00349 0.990769
1.00024 1.00342 0.991049
1.00033 1.00349 0.990923
1 1.00378 0.990834
1.00006 1.00396 0.990606
1.00018 1.00403 0.990393
1.00011 1.00441 0.99019
0.999849 1.00121 0.993396
1.00016 1.00346 0.991002
0.999511 1.00372 0.992037
0.9998 0.997388 0.908375
0.995237 0.997832 0.885194
0.99582 0.999279 0.904106
0.994704 0.997989 0.869715
0.996826 0.998771 0.920783
0.99489 0.999992 0.949274
0.99534 0.995177 0.971636
0.994967 0.996509 0.973282
0.998535 0.999215 0.915111
0.996211 0.999965 0.947541
0.994902 0.998078 0.973986
0.998733 0.998689 0.945851
1.00207 0.998277 0.993205
0.999031 1.00184 0.9948
0.999254 1.0035 0.992866
0.995022 1.00055 0.992029
0.998568 1.00222 0.997293
0.997616 1.00008 0.993264
0.999675 0.999307 0.990089
0.999934 0.994837 0.91877
0.99491 0.997343 0.900426
0.994767 0.994868 0.930218
0.99614 1.00304 0.989739
0.994888 0.997955 0.966814
0.995082 0.996216 0.9035
0.998678 0.998392 0.944977
0.99982 0.997403 0.920744
0.997569 0.999537 0.990707
0.999873 0.995516 0.916923
1.00132 0.997374 0.94417
0.994888 0.996398 0.971569
0.998924 0.996503 0.992579
1.00004 0.996197 0.952991
0.996276 0.996154 0.974051
1.00147 0.997491 0.993282
1.00366 0.998191 0.98962
1.00494 0.997278 0.98914
1.00298 1.00017 0.988128
1.00436 0.998355 0.987808
1.00479 0.996865 0.988757
1.00404 1.00153 0.985112
1.00486 0.998482 0.987047
1.00509 0.996006 0.989118
1.00495 1.00021 0.985126
1.00507 0.997746 0.98758
1.00511 0.996235 0.989121
1.00511 0.996943 0.988634
1.00514 0.997681 0.987672
1.00517 0.998627 0.986852
1.00515 1.00023 0.985309
1.00516 1.00002 0.985378
1.00509 0.999209 0.986151
1.00489 1.00083 0.985094
1.0051 1.00096 0.984501
1.00509 1.00128 0.984232
1.00304 1.00289 0.986508
1.00376 1.00236 0.985682
1.00432 1.0019 0.984865
1.00104 1.00346 0.989383
1.00198 1.00365 0.987677
1.0025 1.00349 0.986911
0.999783 1.00065 0.994326
1.00045 1.00358 0.99036
1.001 1.00436 0.988765
0.99951 0.99808 0.999013
0.999685 0.999931 0.995303
1.00019 1.00282 0.991664
0.999524 0.997835 0.99852
0.999723 0.999311 0.995893
0.999592 0.997648 0.999131
1.00062 1.00289 0.990865
1.00026 1.00334 0.990865
1.00028 1.00323 0.991
1.00029 1.0034 0.990939
1.00029 1.00293 0.99131
1.00025 1.00172 0.992561
0.999981 0.999084 0.995634
1.00029 1.00137 0.992824
1.00026 1.00265 0.991603
0.999798 0.997477 0.999035
1.00005 0.998827 0.99575
1.00032 1.00111 0.993038
0.999863 0.997245 0.999084
1.00011 0.998576 0.995908
0.999925 0.996987 0.999143
0.999867 0.995266 0.918031
0.995467 0.997101 0.893391
0.995312 0.994856 0.922741
1.00005 1.00353 0.990968
1.00014 1.00374 0.990665
1.00058 1.0029 0.991093
1.00157 1.00295 0.989424
1.00027 1.00384 0.990573
1.00018 1.00394 0.990592
1.00016 1.004 0.990465
1.00001 1.00424 0.990421
1.00041 1.00343 0.989623
1.00079 1.00046 0.992895
1.00422 0.998468 0.988723
0.999795 1.00123 0.993645
0.999727 1.00336 0.991796
0.999242 0.997652 0.95245
0.999692 0.997822 0.91207
0.995289 0.997537 0.886629
0.999161 0.999474 0.905544
0.995885 0.999957 0.951945
0.994907 0.996424 0.974925
0.994868 0.998068 0.976037
0.997438 0.998603 0.954835
0.995974 0.998607 0.975133
1.00343 0.996188 0.992382
1.00143 0.998859 0.993327
0.999226 1.00186 0.994548
0.998385 1.0001 0.992641
1.00085 0.999639 0.988307
1.00003 0.994917 0.94911
0.999917 0.994872 0.922106
0.995029 0.996607 0.901555
0.997202 0.999398 0.988675
0.994883 0.996362 0.968474
0.999863 0.995857 0.9179
1.00002 0.998183 0.952616
0.998311 0.997867 0.992947
1.00123 0.996292 0.952016
0.996543 0.995956 0.97084
1.00132 0.99677 0.991287
0.999185 0.995819 0.979387
1.0035 0.997338 0.98962
1.00489 0.996605 0.989079
1.00497 0.995794 0.990087
1.00411 0.998601 0.987812
1.00472 0.996899 0.988703
1.00511 0.995247 0.98994
1.00474 0.998601 0.986985
1.00509 0.996086 0.989089
1.00509 0.995092 0.990136
1.00507 0.997705 0.987586
1.00512 0.996239 0.989081
1.00511 0.995977 0.989621
1.00512 0.996729 0.98877
1.00513 0.997619 0.987971
1.00514 0.997512 0.987866
1.00517 0.998648 0.986831
1.00517 0.999403 0.98611
1.00512 1.0002 0.985362
1.00515 1.00029 0.985273
1.00517 1.00005 0.985405
1.00419 1.00137 0.985914
1.00483 1.00089 0.985137
1.00508 1.00098 0.984587
1.00184 1.00289 0.988518
1.00306 1.00285 0.986504
1.00375 1.0024 0.985667
1.00007 1.00116 0.993278
1.00111 1.0034 0.989373
1.00198 1.00367 0.987657
0.999586 0.998524 0.998785
0.99983 1.00067 0.994297
1.00059 1.0034 0.990369
0.999558 0.998163 0.998947
0.999699 1.00002 0.995253
0.999567 0.997867 0.999064
1.00156 1.00306 0.988962
1.00066 1.00275 0.990854
1.00037 1.00328 0.99067
1.00012 1.0034 0.9909
1.00023 1.00328 0.990962
1.00023 1.00215 0.992152
1.00024 1.00297 0.991308
1.00024 1.00171 0.992569
0.999894 0.999358 0.995518
0.99973 0.997665 0.999007
0.999983 0.99906 0.995641
1.00029 1.00136 0.992829
0.999802 0.997454 0.999046
1.00005 0.998815 0.995758
0.999869 0.997202 0.999097
1.00047 0.995193 0.955841
0.999875 0.995592 0.916958
0.995423 0.997586 0.890578
1.00005 1.00399 0.990563
1.00037 1.00284 0.991294
1.00037 1.00377 0.990592
1.00146 1.00289 0.989502
1.00278 1.0029 0.987081
1.00065 1.00346 0.989731
0.999892 1.00412 0.990652
1.00094 1.00351 0.989086
1.0006 1.00082 0.992777
1.00244 1.00053 0.989149
1.00445 0.997696 0.989884
1.00445 0.996976 0.989541
1.00372 0.998306 0.989442
0.999477 1.00151 0.993898
0.996055 0.996516 0.974721
1.00022 0.996993 0.950423
0.998466 0.997779 0.920502
0.998112 0.999235 0.945757
0.99484 0.998366 0.977199
0.996259 0.99841 0.979502
1.00008 0.998319 0.99227
1.0036 0.995912 0.992391
1.00108 0.999341 0.993452
1.00265 0.99995 0.986456
0.996845 0.997427 0.975388
1.00037 0.995282 0.957535
0.999899 0.994848 0.913988
0.997852 0.998767 0.993196
0.996576 0.995176 0.972999
1.00036 0.996651 0.950782
1.00115 0.996893 0.991415
0.998698 0.995839 0.978521
1.00381 0.996168 0.991162
1.00313 0.997863 0.988441
1.00481 0.995958 0.988993
1.00492 0.995653 0.990065
1.00511 0.994834 0.990551
1.00465 0.996928 0.988649
1.00512 0.995215 0.989896
1.00508 0.994943 0.990466
1.00508 0.996157 0.989058
1.00509 0.995216 0.990105
1.00512 0.995417 0.990127
1.00513 0.99624 0.989041
1.00511 0.99595 0.989521
1.00511 0.996707 0.988784
1.00512 0.996521 0.988905
1.00513 0.99748 0.988132
1.00518 0.998787 0.986778
1.00517 0.998669 0.986809
1.00517 0.999468 0.986077
1.00516 0.999798 0.985857
1.0047 1.00027 0.98591
1.00512 1.00027 0.985379
1.00515 1.00035 0.985236
1.00287 1.00174 0.987893
1.00417 1.00139 0.985926
1.00476 1.00094 0.985181
1.00036 1.00154 0.992385
1.00187 1.00291 0.98851
1.00308 1.00282 0.986499
0.999725 0.99904 0.998468
1.00015 1.00114 0.993266
1.00119 1.00333 0.989362
0.999662 0.99864 0.998671
0.999869 1.00071 0.994268
0.999619 0.998242 0.998861
1.00277 1.00301 0.986905
1.00165 1.00314 0.988945
1.00108 1.00336 0.989429
1.00065 1.00269 0.990844
1.00045 1.00323 0.99059
1.00039 1.00249 0.99157
1.00019 1.00334 0.990924
1.00022 1.00216 0.992157
0.999814 0.99972 0.9953
1.00023 1.00171 0.992576
0.9999 0.999318 0.99553
0.999666 0.997859 0.998974
0.999735 0.997643 0.999016
0.999985 0.999039 0.995649
0.999805 0.997422 0.999056
0.996569 0.995966 0.976299
1.00063 0.995345 0.94789
0.999852 0.995096 0.92277
1.00446 1.00189 0.984799
1.00049 1.00369 0.990609
1.00135 1.00284 0.989581
1.0009 1.00349 0.989541
1.00277 1.00278 0.987075
1.00252 1.00136 0.988468
1.00147 1.00358 0.988551
1.0004 1.00114 0.992664
1.00277 1.00042 0.989211
1.00447 0.997437 0.989467
1.00481 0.997409 0.98815
1.00422 0.995883 0.991243
1.00436 0.996675 0.989377
1.00313 0.99806 0.99016
1.00007 0.997366 0.993341
0.995914 0.996636 0.973069
0.999878 0.996608 0.949015
0.996348 0.997793 0.977467
1.00028 0.997275 0.994367
1.00323 0.995649 0.992378
1.0011 0.996976 0.988227
0.996614 0.996162 0.977132
1.00004 0.994921 0.949201
1.0007 0.997292 0.99159
0.998499 0.996491 0.977254
1.00351 0.995699 0.991439
1.00303 0.997444 0.988768
1.00463 0.99496 0.991209
1.00447 0.997383 0.990766
1.00489 0.995484 0.990047
1.00511 0.994872 0.99044
1.00511 0.994877 0.990469
1.00511 0.995193 0.989852
1.00507 0.994945 0.990457
1.00514 0.995112 0.990308
1.00509 0.995345 0.990073
1.00511 0.995413 0.990072
1.00512 0.996217 0.989275
1.00511 0.995925 0.989422
1.00511 0.996723 0.988783
1.00518 0.998076 0.987407
1.00513 0.997341 0.988293
1.00518 0.998667 0.986932
1.00518 0.999528 0.986007
1.00517 0.999535 0.986044
1.00516 0.999816 0.985789
1.00481 1.00001 0.986161
1.00352 1.00065 0.987826
1.0047 1.00033 0.985949
1.00511 1.00035 0.985395
1.00085 1.00132 0.991769
1.00282 1.00179 0.987902
1.00416 1.00141 0.985937
0.99981 0.999539 0.998177
1.00053 1.00136 0.992365
1.00189 1.0029 0.988504
0.999787 0.999135 0.99836
1.00024 1.00108 0.993252
0.999739 0.998732 0.998554
1.00435 1.00162 0.985294
1.0027 1.00306 0.986952
1.00202 1.00352 0.987767
1.00174 1.00321 0.988928
1.00112 1.00333 0.989453
1.00063 1.00293 0.990771
1.00054 1.00318 0.990509
1.00028 1.00264 0.991567
0.999777 1.0002 0.994888
1.00018 1.00219 0.992161
0.99982 0.999662 0.99532
0.999619 0.998094 0.998907
0.999905 0.999281 0.995541
0.999668 0.997832 0.998986
0.999739 0.997625 0.999024
1.00083 0.996177 0.991795
0.996883 0.995359 0.972619
1.0001 0.995141 0.956621
1.00368 1.00119 0.986201
1.00512 0.999825 0.985766
1.00444 1.00158 0.984917
1.00113 1.00351 0.989351
1.00274 1.00267 0.987059
1.00288 1.00132 0.988207
1.00509 0.997933 0.987661
1.00311 1.00031 0.989268
1.0045 0.997178 0.989042
1.00482 0.997429 0.988398
1.00501 0.996446 0.98897
1.00435 0.99545 0.991254
1.00415 0.996045 0.990989
1.0045 0.996551 0.989208
1.00017 0.997746 0.993479
0.995832 0.996895 0.971082
1.00059 0.996742 0.996518
1.00418 0.995582 0.992118
1.00082 0.997405 0.988391
0.996682 0.995509 0.974716
1.00353 0.9953 0.991686
1.00297 0.997527 0.989119
1.00467 0.995042 0.991455
1.00456 0.996605 0.990677
1.00512 0.994933 0.990379
1.00518 0.995111 0.990497
1.00512 0.994917 0.990328
1.0051 0.994888 0.990456
1.00514 0.99503 0.990328
1.00507 0.994947 0.990449
1.00513 0.995117 0.990261
1.00515 0.995712 0.98972
1.00511 0.995407 0.990018
1.00512 0.996228 0.989274
1.00518 0.997639 0.987856
1.00511 0.996739 0.988782
1.00518 0.998088 0.987418
1.0052 0.999271 0.986221
1.00517 0.998543 0.987086
1.00518 0.999481 0.98606
1.00487 0.999908 0.986152
1.00516 0.999835 0.985721
1.0048 1.00001 0.986125
1.00371 1.00022 0.98791
1.00119 1.0008 0.991636
1.00348 1.00068 0.987824
1.00469 1.00039 0.985989
0.999877 1 0.997932
1.00091 1.00126 0.991756
1.00276 1.00187 0.987909
0.999867 0.99966 0.998079
1.00065 1.00126 0.992347
0.999847 0.99924 0.998255
1.00499 1.00061 0.985234
1.00432 1.00162 0.985226
1.00332 1.00245 0.986323
1.00264 1.00309 0.986997
1.00194 1.00358 0.987789
1.00109 1.00331 0.989592
1.00115 1.0033 0.989478
1.00051 1.00304 0.990789
0.99989 1.00072 0.994199
1.0002 1.00275 0.991566
0.999776 1.00014 0.994908
0.999601 0.998432 0.998769
0.999826 0.999608 0.99534
0.999612 0.998053 0.998934
0.999671 0.99781 0.998997
1.00429 0.994941 0.992137
1.00099 0.995731 0.990348
0.996706 0.994889 0.972826
1.00513 0.998517 0.986939
1.00401 1.00074 0.986287
1.00513 0.998616 0.986978
1.00512 0.999854 0.98578
1.00443 1.00127 0.985047
1.00512 0.997184 0.98809
1.00323 1.00127 0.987953
1.00508 0.998053 0.987487
1.00513 0.995806 0.98935
1.00481 0.99746 0.988649
1.00497 0.996546 0.988877
1.00432 0.995577 0.991366
1.00389 0.996037 0.990725
1.00015 0.997961 0.993577
1.00514 0.994974 0.990269
1.0042 0.996125 0.992165
1.00059 0.997464 0.988529
1.00469 0.995129 0.991703
1.00459 0.99572 0.990593
1.00512 0.994935 0.990428
1.00517 0.994972 0.99043
1.00518 0.994933 0.990459
1.0051 0.994898 0.990445
1.00514 0.994986 0.990352
1.00518 0.995348 0.990099
1.00513 0.995118 0.990215
1.00515 0.99574 0.989654
1.00518 0.997363 0.988126
1.00513 0.99624 0.989272
1.00518 0.997655 0.987859
1.00522 0.999011 0.986476
1.00517 0.998099 0.98743
1.0052 0.999265 0.986239
1.00493 0.99983 0.986126
1.00518 0.999433 0.986112
1.00487 0.999915 0.986166
1.00381 1.00012 0.987837
1.00479 1.00001 0.98609
1.00371 1.00023 0.9879
1.00126 1.00041 0.993171
1.0001 1.00001 0.995208
1.00124 1.00075 0.992304
1.00345 1.00072 0.987822
0.999934 1.00008 0.997861
1.00103 1.00111 0.991746
0.999926 0.999762 0.997974
1.0052 0.998505 0.987012
1.0051 0.999636 0.985989
1.00502 1.0005 0.985331
1.00445 1.00082 0.985975
1.0043 1.00163 0.985162
1.00334 1.00251 0.986311
1.00202 1.00279 0.988362
1.00187 1.00365 0.987812
1.001 1.00334 0.989622
1.0002 1.00128 0.993171
1.0004 1.00316 0.990806
0.999832 1.00073 0.994215
0.999606 0.998919 0.998529
0.999774 1.00008 0.994927
0.999579 0.998355 0.998826
0.99961 0.998015 0.998957
1.00512 0.995242 0.989968
1.00455 0.994939 0.992258
1.0014 0.995193 0.988926
1.00513 0.997521 0.987814
1.00513 0.998603 0.986815
1.00435 1.00031 0.986362
1.00512 0.998726 0.986915
1.00512 0.999889 0.985795
1.00513 0.996108 0.989475
1.0051 0.997204 0.988003
1.00508 0.99818 0.987316
1.00511 0.99584 0.989361
1.00497 0.996651 0.988784
1.00436 0.995812 0.991503
1.00519 0.995026 0.990457
1.00514 0.994983 0.990417
1.00426 0.99669 0.992217
1.00513 0.994904 0.990472
1.00517 0.994938 0.990363
1.00518 0.994934 0.990426
1.00517 0.995274 0.990323
1.00513 0.99495 0.990376
1.00518 0.995326 0.990054
1.00519 0.99716 0.988337
1.00515 0.995768 0.989588
1.00518 0.997368 0.988132
1.00523 0.998782 0.986705
1.00518 0.997673 0.987863
1.00521 0.999007 0.986488
1.00499 0.999775 0.986099
1.0052 0.999257 0.986258
1.00493 0.99983 0.986138
1.0039 1.0001 0.987696
1.00486 0.999922 0.986179
1.00382 1.00011 0.987834
1.00137 1.00011 0.993308
1.0037 1.00024 0.98789
1.0014 1.00032 0.99312
1.00006 1 0.995372
0.999946 1.00024 0.99651
1.00139 1.00067 0.992857
0.99996 1.00019 0.997808
1.00517 0.997969 0.987609
1.0052 0.999208 0.986263
1.00521 0.998315 0.987145
1.00482 0.999999 0.986163
1.00512 0.999697 0.985909
1.00506 1.00039 0.985428
1.00448 1.00076 0.985963
1.00309 1.0014 0.98777
1.00336 1.00257 0.986297
1.00202 1.00276 0.98836
1.00061 1.00155 0.992123
1.0009 1.00339 0.989652
1.00004 1.00139 0.993203
0.999652 0.999616 0.998186
0.999766 1.00076 0.994231
0.999571 0.998813 0.998627
0.999569 0.998285 0.998873
1.00517 0.995301 0.990007
1.00515 0.995249 0.989953
1.00471 0.994897 0.992346
1.00515 0.996764 0.988764
1.00512 0.99757 0.987793
1.00513 0.998689 0.986686
1.00512 0.998828 0.986852
1.00513 0.996086 0.989353
1.00509 0.997225 0.987915
1.00511 0.995825 0.989373
1.00516 0.995404 0.990202
1.00519 0.995025 0.99043
1.00516 0.99499 0.990565
1.00516 0.995909 0.989584
1.00519 0.994935 0.990394
1.00517 0.995386 0.990144
1.00519 0.996882 0.988823
1.00517 0.995297 0.990009
1.0052 0.997142 0.988343
1.00522 0.998581 0.986916
1.00519 0.997378 0.988139
1.00522 0.998782 0.98671
1.00505 0.999674 0.986108
1.00521 0.999004 0.9865
1.00499 0.99977 0.986113
1.00399 1.0001 0.987542
1.00493 0.99983 0.986151
1.00391 1.00008 0.9877
1.00146 1.00003 0.993259
1.00382 1.0001 0.98783
1.00148 1.00007 0.993225
1.0001 0.999914 0.995425
1.00153 1.00022 0.993077
0.99982 1.00015 0.995513
0.999585 1.0005 0.998044
1.00517 0.99786 0.987607
1.00518 0.998819 0.986767
1.00518 0.998002 0.98749
1.00489 0.999744 0.986546
1.00519 0.999072 0.98635
1.00522 0.998132 0.987277
1.00367 1.00035 0.987786
1.00482 0.999953 0.986151
1.00514 0.999765 0.985828
1.00451 1.00071 0.985951
1.00313 1.00137 0.987762
1.00102 1.00122 0.991623
1.00202 1.00274 0.988358
1.00047 1.00167 0.992148
0.999734 1.00032 0.997881
0.999906 1.00149 0.993231
0.999586 0.999469 0.998323
0.999545 0.998688 0.998712
1.00517 0.995964 0.989442
1.00516 0.995266 0.990023
1.00515 0.995303 0.989936
1.00515 0.996676 0.988823
1.00512 0.99762 0.987772
1.00513 0.99607 0.98923
1.00514 0.996133 0.98956
1.00517 0.995385 0.990203
1.00518 0.995028 0.990404
1.00516 0.995931 0.989638
1.00515 0.996998 0.988625
1.00518 0.9955 0.989964
1.00519 0.996999 0.98859
1.0052 0.998251 0.987341
1.0052 0.997118 0.988349
1.00522 0.998569 0.986917
1.00508 0.999538 0.986187
1.00522 0.998773 0.986714
1.00504 0.999671 0.986118
1.00408 1.00006 0.987405
1.00498 0.999765 0.986127
1.00399 1.00009 0.987548
1.00152 1.00009 0.993074
1.00392 1.00006 0.987703
1.00156 0.999992 0.993156
1.00016 0.999898 0.995346
1.00159 1.00002 0.993152
0.999881 0.999967 0.995592
0.999594 1.00033 0.995639
1.00517 0.997184 0.988405
1.00519 0.998719 0.98678
1.00517 0.997696 0.987767
1.00495 0.999488 0.986611
1.00518 0.998887 0.986685
1.00519 0.998033 0.98737
1.00385 0.999957 0.987896
1.00489 0.99965 0.986441
1.00518 0.998934 0.986438
1.00126 1.00064 0.991739
1.00369 1.00033 0.987795
1.00482 0.999908 0.98614
1.00317 1.00134 0.987754
1.00095 1.00131 0.991628
0.999776 1.00066 0.997779
1.00033 1.00178 0.99218
0.999658 1.00016 0.997989
0.999536 0.999291 0.998448
1.00514 0.996294 0.989251
1.00516 0.995984 0.98944
1.00517 0.995225 0.990039
1.00515 0.996587 0.988882
1.00515 0.997145 0.988518
1.00514 0.996113 0.989592
1.00517 0.995357 0.990203
1.00517 0.995951 0.989692
1.00515 0.996922 0.988678
1.00518 0.998203 0.987489
1.00519 0.997116 0.988358
1.0052 0.998397 0.987166
1.00509 0.999261 0.986456
1.00522 0.998566 0.986919
1.00507 0.999536 0.986196
1.00415 0.999991 0.987332
1.00503 0.999673 0.986129
1.00408 1.00005 0.987411
1.00163 1.00015 0.991606
1.004 1.00008 0.987555
1.00162 1.00006 0.992344
1.00011 0.999942 0.997801
1.00166 0.999968 0.993054
0.999969 0.999887 0.995525
0.999679 1.00002 0.995741
1.00515 0.997014 0.988666
1.00519 0.998429 0.987158
1.00516 0.997273 0.988355
1.00505 0.999273 0.986427
1.00519 0.998715 0.986813
1.00518 0.997531 0.987927
1.00395 0.999778 0.987625
1.00495 0.999491 0.986622
1.00517 0.998955 0.986603
1.00138 1.00015 0.991991
1.00385 0.999915 0.987789
1.00489 0.999549 0.986337
0.999816 1.00058 0.997832
1.00124 1.00066 0.991739
1.00371 1.00031 0.987804
1.00088 1.00137 0.991638
0.999763 1.00053 0.997798
0.99957 0.999999 0.998113
1.00513 0.99709 0.988568
1.00514 0.99631 0.989253
1.00516 0.996004 0.989438
1.00518 0.998192 0.987422
1.00514 0.997069 0.988584
1.00515 0.996097 0.989623
1.00515 0.996842 0.988731
1.00518 0.998186 0.987492
1.00509 0.999155 0.986767
1.0052 0.998545 0.986991
1.00509 0.999372 0.986447
1.0042 0.999829 0.987215
1.00507 0.999529 0.986205
1.00415 0.999986 0.987337
1.00168 1.00013 0.991522
1.00408 1.00005 0.987416
1.00164 1.00014 0.991602
1.00014 0.999976 0.997756
1.00165 1.00005 0.991698
1.00004 0.999934 0.99663
0.999777 0.999854 0.995701
1.00513 0.997339 0.988327
1.00519 0.99829 0.987251
1.00515 0.996996 0.988681
1.00508 0.999294 0.986402
1.00519 0.998476 0.987072
1.00516 0.997364 0.988304
1.00409 0.999678 0.987477
1.00504 0.999369 0.986469
1.00519 0.998712 0.986847
1.00151 0.999901 0.992007
1.00396 0.999779 0.987604
1.00496 0.999494 0.986632
0.999924 1.00029 0.997878
1.00139 1.00013 0.991997
1.00385 0.999874 0.987682
0.999831 1.00052 0.997801
1.00122 1.00067 0.991738
0.999697 1.00047 0.997843
1.00518 0.998055 0.987596
1.00513 0.997135 0.988503
1.00514 0.996326 0.989255
1.00504 0.999023 0.98697
1.00518 0.998123 0.987511
1.00513 0.997001 0.988649
1.00518 0.99817 0.987495
1.00509 0.999157 0.986766
1.00419 0.99971 0.987356
1.00508 0.999484 0.986438
1.00419 0.999876 0.98727
1.00173 1.00006 0.9915
1.00415 0.999978 0.987342
1.00168 1.00013 0.991521
1.00016 1.00001 0.997699
1.00164 1.00014 0.991596
1.00014 0.999988 0.997731
1.00011 0.999888 0.995287
1.00518 0.998244 0.987327
1.00514 0.997195 0.988429
1.00508 0.999205 0.986527
1.00519 0.998297 0.987247
1.00514 0.996975 0.988696
1.00415 0.999712 0.987603
1.00507 0.999298 0.986397
1.0052 0.998523 0.986986
1.00164 0.999865 0.991826
1.00409 0.99973 0.98754
1.00504 0.999468 0.986511
1.00008 1.00005 0.997835
1.00152 0.999893 0.992015
1.00396 0.999773 0.987583
0.999907 1.0003 0.997863
1.00139 1.00012 0.992001
0.999831 1.0005 0.997777
1.00502 0.998995 0.987046
1.00518 0.998108 0.987533
1.00513 0.997181 0.988438
1.0041 0.999634 0.987577
1.00504 0.999035 0.986971
1.00518 0.998049 0.987601
1.00509 0.99916 0.986765
1.0042 0.999703 0.987329
1.00173 1.00002 0.991553
1.00419 0.999921 0.987325
1.00172 1.00007 0.9915
1.0002 1.00001 0.997668
1.00168 1.00013 0.991521
1.00017 1.00001 0.997691
1.00016 0.999997 0.99771
1.00505 0.999128 0.986658
1.00518 0.998088 0.987488
1.00514 0.99705 0.988531
1.00413 0.999695 0.987671
1.00506 0.999209 0.98652
1.00519 0.998303 0.987243
1.00169 0.999945 0.991671
1.00415 0.999718 0.987597
1.00506 0.999302 0.986392
1.00018 0.999944 0.99775
1.00164 0.999881 0.991831
1.00409 0.999774 0.987603
1.00003 1.00008 0.997857
1.00151 0.999901 0.992023
0.999912 1.0003 0.99784
1.00406 0.999691 0.987814
1.00501 0.998959 0.986979
1.00518 0.998157 0.987469
1.00168 0.999972 0.991704
1.00412 0.999617 0.987549
1.00504 0.999047 0.986972
1.00421 0.999692 0.987302
1.00172 1.00001 0.991561
1.00022 1.00001 0.997642
1.00171 1.00008 0.991501
1.00021 1.00002 0.997653
1.00017 1.00002 0.997682
1.00408 0.999677 0.987771
1.00504 0.999037 0.986737
1.00518 0.997936 0.987648
1.00176 1.00001 0.99284
1.00413 0.999691 0.987668
1.00505 0.999214 0.986513
1.0002 0.99995 0.99769
1.00169 0.999964 0.991673
1.00415 0.999725 0.987591
1.00015 0.999977 0.997783
1.00163 0.999907 0.991837
1 1.0001 0.997871
1.00168 0.999972 0.991723
1.00406 0.999645 0.987735
1.00501 0.99892 0.986913
1.00017 0.999999 0.99767
1.00166 0.999972 0.991708
1.00414 0.999603 0.987521
1.00171 1 0.991566
1.00021 1.00001 0.997647
1.00021 1.00002 0.997644
1.00178 0.999987 0.992854
1.00409 0.999672 0.98777
1.00502 0.998944 0.986816
0.999878 0.999987 0.997998
1.00168 1.00001 0.991652
1.00414 0.999686 0.987667
1.00019 0.999961 0.997717
1.00169 0.999984 0.991674
1.00012 0.999997 0.997814
1.00014 0.999997 0.995224
1.0017 0.99997 0.992331
1.00407 0.999602 0.987656
1.00018 0.999998 0.997678
1.00166 0.999971 0.991717
1.00022 1 0.997649
0.999817 1.00001 0.995531
1.00171 0.999986 0.99229
1.00409 0.99967 0.98777
1.00002 0.999987 0.996587
1.00168 1.00001 0.99166
1.00018 0.999973 0.997743
1.00014 0.999993 0.997695
1.00162 0.999971 0.991791
1.00015 0.999997 0.997687
0.999983 0.999994 0.99662
1.00165 0.999988 0.991742
1.00018 0.999975 0.997702
1.00015 0.999989 0.997707
1.00015 0.999986 0.997701

TENSORS stress float
0.00164515 -8.14612e-05 0.000161453
-8.14612e-05 0.000611799 -2.06921e-05
0.000161453 -2.06921e-05 0.000590981
0.00512419 -0.000123045 0.000152012
-0.000123045 0.00266483 1.52435e-05
0.000152012 1.52435e-05 0.00264213
0.00147403 -8.98024e-06 7.71672e-05
-8.98024e-06 0.000521999 -7.71492e-06
7.71672e-05 -7.71492e-06 0.000491569
0.00177649 -4.9832e-05 0.000161445
-4.9832e-05 0.000665504 -1.34043e-05
0.000161445 -1.34043e-05 0.000647176
0.00170532 -7.34079e-05 0.000157643
-7.34079e-05 0.000639653 -1.88216e-05
0.000157643 -1.88216e-05 0.000619908
0.00156734 -7.65614e-05 0.000165255
-7.65614e-05 0.00056278 -2.02077e-05
0.000165255 -2.02077e-05 0.000543437
0.00144977 -5.1111e-05 2.25036e-05
-5.1111e-05 0.000429753 -8.4716e-06
2.25036e-05 -8.4716e-06 0.000352646
0.00495783 -0.000125388 3.17061e-06
-0.000125388 0.00255696 -5.38524e-07
3.17061e-06 -5.38524e-07 0.00254114
0.00518981 1.50909e-05 6.23047e-05
1.50909e-05 0.00265373 3.17789e-06
6.23047e-05 3.17789e-06 0.00264112
0.0049642 -0.000261529 7.79719e-07
-0.000261529 0.00258552 4.2513e-06
7.79719e-07 4.2513e-06 0.00254095
0.00165039 4.93742e-05 0.000151703
4.93742e-05 0.000613914 1.32536e-05
0.000151703 1.32536e-05 0.000603455
0.00069792 0.000158788 2.00837e-05
0.000158788 1.01593e-05 1.27722e-05
2.00837e-05 1.27722e-05 -7.23728e-05
0.00163275 -2.94927e-05 0.00017432
-2.94927e-05 0.000576232 2.08766e-06
0.00017432 2.08766e-06 0.00056432
0.00126906 -1.93655e-05 2.53245e-05
-1.93655e-05 0.000385406 1.14026e-06
2.53245e-05 1.14026e-06 0.000350053
0.00137413 6.71719e-06 -2.2295e-05
6.71719e-06 0.000463826 4.53682e-06
-2.2295e-05 4.53682e-06 0.00043005
0.00151466 -5.13627e-05 5.94195e-05
-5.13627e-05 0.000524816 -3.38744e-06
5.94195e-05 -3.38744e-06 0.000498429
0.00147354 1.02738e-05 8.4142e-05
1.02738e-05 0.000528271 -7.12746e-06
8.4142e-05 -7.12746e-06 0.000492939
0.00148596 -2.81108e-05 6.85027e-05
-2.81108e-05 0.000516766 -7.22311e-06
6.85027e-05 -7.22311e-06 0.000491332
0.00151029 -9.49877e-05 -2.90142e-05
-9.49877e-05 0.000453178 2.6047e-06
-2.90142e-05 2.6047e-06 0.00038498
0.00529122 -0.000105437 0.000198965
-0.000105437 0.00271862 -5.20071e-06
0.000198965 -5.20071e-06 0.00271866
0.00176238 -3.35559e-05 0.000164871
-3.35559e-05 0.000653917 -1.01016e-05
0.000164871 -1.01016e-05 0.000635925
0.00176735 -6.36962e-05 0.000158836
-6.36962e-05 0.000666265 -1.63283e-05
0.000158836 -1.63283e-05 0.000647686
0.0014736 -8.98178e-05 4.22793e-05
-8.98178e-05 0.000410659 -6.3792e-06
4.22793e-05 -6.3792e-06 0.00034186
0.00145837 -6.86148e-05 3.12036e-05
-6.86148e-05 0.000415133 -7.56619e-06
3.12036e-05 -7.56619e-06 0.00034566
0.00135582 -4.57101e-05 0.000148892
-4.57101e-05 0.00043729 -1.66072e-05
0.000148892 -1.66072e-05 0.000421567
0.00141491 -3.41424e-05 1.55635e-05
-3.41424e-05 0.000429365 -9.52463e-06
1.55635e-05 -9.52463e-06 0.000342681
0.00201276 -0.000201445 1.25496e-05
-0.000201445 0.000610867 -5.02119e-06
1.25496e-05 -5.02119e-06 0.000481461
0.00479764 -0.00016728 -0.000128458
-0.00016728 0.00247131 -8.82681e-06
-0.000128458 -8.82681e-06 0.00245054
0.00334352 4.07044e-05 -9.30855e-05
4.07044e-05 0.00158994 -6.45876e-06
-9.30855e-05 -6.45876e-06 0.00157172
0.00322415 -7.53741e-05 -8.67723e-05
-7.53741e-05 0.00155073 -2.88227e-06
-8.67723e-05 -2.88227e-06 0.00152178
0.00451982 -0.000155192 9.43521e-06
-0.000155192 0.00230788 -9.00252e-07
9.43521e-06 -9.00252e-07 0.00229082
0.000621195 0.000146601 -1.6156e-06
0.000146601 -3.31763e-05 -5.29307e-07
-1.6156e-06 -5.29307e-07 -0.000113029
0.00154661 5.01449e-05 0.000164826
5.01449e-05 0.000537235 1.19989e-05
0.000164826 1.19989e-05 0.00051964
0.00172155 0.000113353 0.000166768
0.000113353 0.000655638 1.7383e-05
0.000166768 1.7383e-05 0.000635521
0.00255237 0.000158619 0.00010178
0.000158619 0.00103995 1.23715e-05
0.00010178 1.23715e-05 0.000980036
0.00356698 -0.000208632 8.17065e-06
-0.000208632 0.00176513 2.81784e-06
8.17065e-06 2.81784e-06 0.00173758
0.00260104 0.000183876 9.98574e-05
0.000183876 0.00109429 1.37361e-05
9.98574e-05 1.37361e-05 0.00103032
0.000679886 0.000111643 2.07313e-05
0.000111643 8.1511e-06 1.57803e-05
2.07313e-05 1.57803e-05 -6.33517e-05
0.000932823 0.000162882 8.83988e-06
0.000162882 6.97006e-05 4.51259e-06
8.83988e-06 4.51259e-06 -7.6711e-05
0.0029059 -0.0001031 8.03858e-05
-0.0001031 0.00135651 2.89865e-06
8.03858e-05 2.89865e-06 0.00135969
0.00534934 5.73825e-05 3.86832e-06
5.73825e-05 0.00274173 -1.13323e-06
3.86832e-06 -1.13323e-06 0.00274713
0.00334324 4.39791e-05 -7.62755e-05
4.39791e-05 0.00158195 -2.57444e-06
-7.62755e-05 -2.57444e-06 0.0015666
0.00528356 5.69655e-05 0.000196819
5.69655e-05 0.00270602 1.78472e-06
0.000196819 1.78472e-06 0.00271103
0.00130028 4.9172e-05 2.82394e-05
4.9172e-05 0.000401501 1.61796e-06
2.82394e-05 1.61796e-06 0.000368943
0.000704107 5.74719e-06 1.61387e-05
5.74719e-06 -6.33545e-05 1.67319e-06
1.61387e-05 1.67319e-06 -0.000131954
0.00510838 0.000171039 9.37437e-05
0.000171039 0.00262436 7.79394e-06
9.37437e-05 7.79394e-06 0.00260373
0.00263394 4.66789e-05 0.000101253
4.66789e-05 0.00105458 5.80046e-06
0.000101253 5.80046e-06 0.00100489
0.00118924 -7.46236e-05 -3.94438e-05
-7.46236e-05 0.000351964 5.10796e-06
-3.94438e-05 5.10796e-06 0.000314517
0.0012774 -4.28041e-05 -3.38428e-05
-4.28041e-05 0.000403414 4.97783e-06
-3.38428e-05 4.97783e-06 0.000371155
0.00145711 6.73872e-05 -1.00605e-05
6.73872e-05 0.000525208 5.46437e-06
-1.00605e-05 5.46437e-06 0.000482141
0.00152565 -0.00010958 -8.73271e-05
-0.00010958 0.000454772 1.28453e-05
-8.73271e-05 1.28453e-05 0.00039246
0.00335492 1.66811e-05 -8.13917e-05
1.66811e-05 0.0015955 -1.45479e-06
-8.13917e-05 -1.45479e-06 0.00157715
0.00151625 -3.83841e-05 6.67609e-05
-3.83841e-05 0.000521522 -2.80244e-06
6.67609e-05 -2.80244e-06 0.000495668
0.00134736 2.7268e-05 7.91184e-05
2.7268e-05 0.000456515 -5.33166e-06
7.91184e-05 -5.33166e-06 0.000423611
0.00150938 -4.20122e-05 6.25723e-05
-4.20122e-05 0.000522168 -5.49089e-06
6.25723e-05 -5.49089e-06 0.000497984
0.00152197 -7.89721e-05 -2.32681e-05
-7.89721e-05 0.000433385 8.60646e-07
-2.32681e-05 8.60646e-07 0.000369859
0.00149574 -8.22921e-05 -3.37373e-05
-8.22921e-05 0.000460072 2.26748e-06
-3.37373e-05 2.26748e-06 0.000385256
0.00151463 -9.63337e-05 -2.43513e-05
-9.63337e-05 0.000443786 1.88158e-06
-2.43513e-05 1.88158e-06 0.00037914
0.00200408 -0.000199387 -5.99777e-06
-0.000199387 0.00060462 1.65461e-06
-5.99777e-06 1.65461e-06 0.00047558
0.00523277 4.95357e-05 0.000189516
4.95357e-05 0.00267785 -7.64237e-08
0.000189516 -7.64237e-08 0.00268299
0.00175298 -1.68132e-05 0.000166644
-1.68132e-05 0.000649165 -6.83881e-06
0.000166644 -6.83881e-06 0.000632216
0.00237741 3.21878e-05 2.70974e-05
3.21878e-05 0.000922451 -9.79277e-07
2.70974e-05 -9.79277e-07 0.000864663
0.00148094 -7.32632e-05 3.61286e-05
-7.32632e-05 0.000406855 -4.50589e-06
3.61286e-05 -4.50589e-06 0.000339808
0.00147427 -8.14817e-05 3.81619e-05
-8.14817e-05 0.000413499 -6.92141e-06
3.81619e-05 -6.92141e-06 0.000346233
0.00194522 -0.000122784 1.09255e-05
-0.000122784 0.000524205 -2.57602e-06
1.09255e-05 -2.57602e-06 0.000409851
0.00159828 -0.000158673 1.43782e-05
-0.000158673 0.000350414 -4.94277e-06
1.43782e-05 -4.94277e-06 0.00022648
0.00110003 5.85825e-06 0.000109467
5.85825e-06 0.000294125 -1.19177e-05
0.000109467 -1.19177e-05 0.000280748
0.00107072 7.09849e-06 9.05952e-06
7.09849e-06 0.000261666 -9.3124e-06
9.05952e-06 -9.3124e-06 0.000180802
0.00197498 -0.000216106 1.16429e-05
-0.000216106 0.000616712 -5.26731e-06
1.16429e-05 -5.26731e-06 0.00047762
0.00121222 -0.000182271 7.83008e-06
-0.000182271 6.01179e-05 -2.04636e-06
7.83008e-06 -2.04636e-06 -9.77603e-05
0.00539696 9.63187e-05 -0.00019856
9.63187e-05 0.00277201 -1.43883e-05
-0.00019856 -1.43883e-05 0.00277353
0.00421525 -0.00017237 -0.000106867
-0.00017237 0.00213413 -5.85796e-06
-0.000106867 -5.85796e-06 0.00211631
0.00512234 -9.39946e-05 -0.000158618
-9.39946e-05 0.00263855 -1.0065e-05
-0.000158618 -1.0065e-05 0.00262983
0.000526096 0.000145384 -2.03023e-05
0.000145384 -8.63514e-05 -1.30564e-05
-2.03023e-05 -1.30564e-05 -0.000164536
0.00543348 0.000130987 -2.85838e-06
0.000130987 0.00279133 -1.63698e-06
-2.85838e-06 -1.63698e-06 0.00279179
0.00541864 2.29593e-05 -8.46774e-06
2.29593e-05 0.0027934 -6.00336e-07
-8.46774e-06 -6.00336e-07 0.00279098
0.000562938 0.000114705 -3.1855e-07
0.000114705 -0.000110153 -2.16612e-07
-3.1855e-07 -2.16612e-07 -0.000188358
0.00237345 -0.000112517 -4.71333e-05
-0.000112517 0.00105816 -6.30774e-07
-4.71333e-05 -6.30774e-07 0.00103867
0.000562283 0.000161538 -9.34464e-07
0.000161538 -8.07144e-05 -2.64012e-07
-9.34464e-07 -2.64012e-07 -0.000162921
0.00140042 8.77598e-05 3.09231e-05
8.77598e-05 0.000436557 4.68043e-07
3.09231e-05 4.68043e-07 0.000374373
0.000902926 0.000157176 4.45853e-07
0.000157176 4.97217e-05 -4.52451e-07
4.45853e-07 -4.52451e-07 -9.55733e-05
0.00338619 -0.000105303 0.000104333
-0.000105303 0.00163473 4.51084e-06
0.000104333 4.51084e-06 0.00163604
0.000607779 -5.53746e-05 1.08515e-06
-5.53746e-05 1.58074e-05 7.00671e-06
1.08515e-06 7.00671e-06 -2.1331e-05
0.000678729 8.4169e-05 1.71295e-05
8.4169e-05 -6.29011e-05 8.09302e-06
1.71295e-05 8.09302e-06 -0.000137418
0.000708069 0.000135899 2.17419e-05
0.000135899 -1.45356e-05 1.34532e-05
2.17419e-05 1.34532e-05 -9.6983e-05
0.00100663 0.00013301 1.26659e-05
0.00013301 -5.36538e-06 4.98538e-06
1.26659e-05 4.98538e-06 -0.000137877
0.00214616 2.15742e-05 6.37824e-05
2.15742e-05 0.000883691 8.08903e-06
6.37824e-05 8.08903e-06 0.000840056
0.000961577 0.000159531 1.04765e-05
0.000159531 3.24603e-05 5.38993e-06
1.04765e-05 5.38993e-06 -0.000108308
0.000952547 0.000158902 7.57075e-06
0.000158902 0.000148481 5.23165e-06
7.57075e-06 5.23165e-06 2.45038e-06
0.000922218 0.000192213 3.75029e-06
0.000192213 4.21391e-06 3.53001e-07
3.75029e-06 3.53001e-07 -0.000176151
0.0025744 -0.000112367 4.40464e-05
-0.000112367 0.00116264 2.38935e-06
4.40464e-05 2.38935e-06 0.00116364
0.00277302 -0.000124928 7.65588e-06
-0.000124928 0.00128382 -4.28824e-07
7.65588e-06 -4.28824e-07 0.00128133
0.00541745 8.47359e-06 -0.000192861
8.47359e-06 0.0027773 -7.70516e-06
-0.000192861 -7.70516e-06 0.00278128
0.00538092 4.87472e-05 -0.000200201
4.87472e-05 0.00275819 -4.25385e-06
-0.000200201 -4.25385e-06 0.00276419
0.00533433 7.92249e-05 -1.31449e-07
7.92249e-05 0.00274153 -2.05726e-06
-1.31449e-07 -2.05726e-06 0.0027424
0.00333271 4.45627e-06 -9.10179e-05
4.45627e-06 0.0015742 -2.97764e-06
-9.10179e-05 -2.97764e-06 0.00156131
0.0016524 2.67677e-05 4.31102e-05
2.67677e-05 0.00048683 7.0996e-07
4.31102e-05 7.0996e-07 0.000428541
0.0033897 8.80886e-05 -7.7289e-05
8.80886e-05 0.00161076 -3.69178e-06
-7.7289e-05 -3.69178e-06 0.00159327
0.00167856 6.45676e-05 4.18517e-05
6.45676e-05 0.00050599 1.4005e-06
4.18517e-05 1.4005e-06 0.000444376
0.00530662 0.000142012 0.000199765
0.000142012 0.0027358 4.50452e-06
0.000199765 4.50452e-06 0.00273033
0.000635268 6.88642e-06 1.77125e-05
6.88642e-06 -0.000100555 4.16346e-07
1.77125e-05 4.16346e-07 -0.000167951
0.00265631 1.61196e-05 0.000102011
1.61196e-05 0.00106581 3.78509e-06
0.000102011 3.78509e-06 0.00101794
0.00105374 3.08595e-05 1.2089e-05
3.08595e-05 -1.44915e-05 1.20273e-06
1.2089e-05 1.20273e-06 -0.000130312
0.00255154 8.88572e-05 0.000101966
8.88572e-05 0.0010159 7.23024e-06
0.000101966 7.23024e-06 0.000963476
0.0010645 7.31526e-05 1.18331e-05
7.31526e-05 -8.36321e-07 2.4351e-06
1.18331e-05 2.4351e-06 -0.000123028
0.00163722 3.60512e-05 -0.000172013
3.60512e-05 0.000581524 1.28856e-06
-0.000172013 1.28856e-06 0.000569746
0.00125313 7.77193e-06 -2.58243e-05
7.77193e-06 0.000379013 1.60328e-06
-2.58243e-05 1.60328e-06 0.000345011
0.00134521 0.000128724 2.74722e-06
0.000128724 0.000488302 7.34699e-06
2.74722e-06 7.34699e-06 0.000432147
0.0012153 -6.24043e-05 -4.05235e-05
-6.24043e-05 0.000365339 5.32026e-06
-4.05235e-05 5.32026e-06 0.000331452
0.00163216 -5.83946e-05 -8.71451e-05
-5.83946e-05 0.000489801 7.12426e-06
-8.71451e-05 7.12426e-06 0.00043282
0.00157187 -9.41591e-05 -8.59103e-05
-9.41591e-05 0.000471228 1.14391e-05
-8.59103e-05 1.14391e-05 0.000411876
0.00151511 -0.000114329 -8.91077e-05
-0.000114329 0.000461319 1.33634e-05
-8.91077e-05 1.33634e-05 0.000394453
0.00199443 -0.000197568 -2.36065e-05
-0.000197568 0.000598463 7.82968e-06
-2.36065e-05 7.82968e-06 0.00046976
0.00530165 -8.21294e-05 2.06315e-06
-8.21294e-05 0.00272365 -1.28936e-06
2.06315e-06 -1.28936e-06 0.00272417
0.00148864 4.43585e-05 7.5764e-05
4.43585e-05 0.000504916 -2.29318e-06
7.5764e-05 -2.29318e-06 0.000480398
0.00112767 1.49838e-06 -4.566e-05
1.49838e-06 0.0001887 7.56059e-07
-4.566e-05 7.56059e-07 0.000129152
0.00154407 -4.3464e-05 -2.75709e-05
-4.3464e-05 0.000438648 1.2259e-06
-2.75709e-05 1.2259e-06 0.00037661
0.00262299 5.8285e-05 0.00011265
5.8285e-05 0.0011949 -1.56228e-06
0.00011265 -1.56228e-06 0.00118413
0.00176677 -4.4847e-05 -2.91774e-05
-4.4847e-05 0.000649732 -6.54094e-07
-2.91774e-05 -6.54094e-07 0.000576154
0.00152568 -8.93243e-05 -2.24761e-05
-8.93243e-05 0.000440786 1.3122e-06
-2.24761e-05 1.3122e-06 0.000377537
0.00179525 -0.000114858 -7.95761e-06
-0.000114858 0.000436244 1.37619e-06
-7.95761e-06 1.37619e-06 0.000321049
0.00197899 -0.000216602 -4.95648e-06
-0.000216602 0.000620427 1.4503e-06
-4.95648e-06 1.4503e-06 0.000481016
0.00182071 -0.000167668 -3.37461e-06
-0.000167668 0.000478617 7.71783e-07
-3.37461e-06 7.71783e-07 0.000355299
0.0012442 -0.000183987 3.0323e-07
-0.000183987 7.74187e-05 -4.55046e-08
3.0323e-07 -4.55046e-08 -8.04311e-05
0.000667101 1.13581e-05 1.8077e-05
1.13581e-05 -8.25701e-05 -1.21148e-06
1.8077e-05 -1.21148e-06 -0.000147373
0.00146038 1.7216e-05 2.75539e-05
1.7216e-05 0.000390563 -2.44943e-06
2.75539e-05 -2.44943e-06 0.00032645
0.00161245 -2.71948e-05 1.24506e-05
-2.71948e-05 0.000313813 -1.05044e-06
1.24506e-05 -1.05044e-06 0.000206543
0.00161805 -8.99991e-05 1.22515e-05
-8.99991e-05 0.000327237 -2.19542e-06
1.22515e-05 -2.19542e-06 0.000213004
0.00157008 -0.000133643 1.35045e-05
-0.000133643 0.000317545 -3.79487e-06
1.35045e-05 -3.79487e-06 0.000198192
0.00172814 -0.000136184 2.74228e-06
-0.000136184 0.000291566 -6.98019e-07
2.74228e-06 -6.98019e-07 0.000153892
0.00372992 0.00014463 9.70768e-05
0.00014463 0.001843 -3.55432e-06
9.70768e-05 -3.55432e-06 0.00183387
0.00128387 -0.000167657 6.78099e-06
-0.000167657 7.89402e-05 -1.86073e-06
6.78099e-06 -1.86073e-06 -7.21568e-05
0.000409846 -3.86697e-05 9.4046e-06
-3.86697e-05 -0.000122774 -1.08951e-05
9.4046e-06 -1.08951e-05 -0.000182108
0.000784952 -0.000151265 7.27713e-06
-0.000151265 -3.12753e-06 -6.31147e-06
7.27713e-06 -6.31147e-06 -0.000146862
0.00128286 -0.000208279 8.83732e-06
-0.000208279 0.000128143 -1.93649e-06
8.83732e-06 -1.93649e-06 -4.14908e-05
0.00144352 -0.000218205 4.48258e-06
-0.000218205 0.000120673 3.76941e-07
4.48258e-06 3.76941e-07 -5.02104e-05
0.000466126 9.2678e-06 4.93664e-06
9.2678e-06 -7.85302e-05 -9.00028e-06
4.93664e-06 -9.00028e-06 -0.000125222
0.00065805 -1.27603e-05 1.28081e-06
-1.27603e-05 2.74916e-05 -4.16568e-06
1.28081e-06 -4.16568e-06 -6.93597e-05
0.00543732 0.000142454 -0.000209729
0.000142454 0.00279654 -1.52422e-05
-0.000209729 -1.52422e-05 0.00279579
0.00528244 5.17564e-06 -0.000179978
5.17564e-06 0.00271366 -1.20738e-05
-0.000179978 -1.20738e-05 0.00271402
0.000557604 0.000106596 -1.73701e-05
0.000106596 -0.000114425 -9.37113e-06
-1.73701e-05 -9.37113e-06 -0.00019251
0.00361954 -0.000148138 -9.18264e-05
-0.000148138 0.00178082 -3.38616e-06
-9.18264e-05 -3.38616e-06 0.00177177
0.000447633 7.37913e-05 -1.24195e-05
7.37913e-05 -0.000113293 -1.19866e-05
-1.24195e-05 -1.19866e-05 -0.000177375
0.000513785 0.000147585 -1.94297e-05
0.000147585 -0.000104149 -1.22962e-05
-1.94297e-05 -1.22962e-05 -0.000187659
0.00088927 0.000153867 -9.23171e-06
0.000153867 3.9189e-05 -5.68716e-06
-9.23171e-06 -5.68716e-06 -0.000105334
0.00322702 -0.000121873 5.85472e-06
-0.000121873 0.00154735 -3.03875e-07
5.85472e-06 -3.03875e-07 0.00154536
0.000539996 -6.30155e-05 3.03389e-07
-6.30155e-05 -2.10673e-05 3.36215e-07
3.03389e-07 3.36215e-07 -5.86061e-05
0.00162809 0.000107119 4.14427e-05
0.000107119 0.000489541 2.34119e-06
4.14427e-05 2.34119e-06 0.000423603
0.00155956 0.000151156 3.95174e-05
0.000151156 0.000481157 1.99228e-06
3.95174e-05 1.99228e-06 0.000408271
0.00102038 0.000135767 1.64254e-07
0.000135767 3.84495e-06 -1.36899e-07
1.64254e-07 -1.36899e-07 -0.000129378
0.000621662 2.12844e-05 -6.14047e-07
2.12844e-05 2.40087e-06 1.30102e-07
-6.14047e-07 1.30102e-07 -4.98637e-05
0.000959759 0.000159479 4.89976e-07
0.000159479 3.19303e-05 2.38181e-07
4.89976e-07 2.38181e-07 -0.000108871
0.000853896 0.000144748 3.08399e-07
0.000144748 8.9973e-05 -5.50817e-07
3.08399e-07 -5.50817e-07 -5.35505e-05
0.00101209 0.000199976 -1.1002e-07
0.000199976 5.37543e-05 2.22766e-07
-1.1002e-07 2.22766e-07 -0.000127513
0.000642024 -1.31744e-05 6.47063e-06
-1.31744e-05 2.67865e-05 8.24458e-06
6.47063e-06 8.24458e-06 -1.70744e-05
0.000604456 -6.81802e-05 -1.28685e-06
-6.81802e-05 9.66621e-06 5.83191e-06
-1.28685e-06 5.83191e-06 -2.0997e-05
0.000707272 3.11479e-05 2.70935e-06
3.11479e-05 6.688e-05 3.96512e-06
2.70935e-06 3.96512e-06 -2.42962e-05
0.00104172 0.00011305 1.23804e-05
0.00011305 -1.77691e-08 4.07172e-06
1.23804e-05 4.07172e-06 -0.000128845
0.000986749 0.000150606 1.20674e-05
0.000150606 1.108e-05 5.41307e-06
1.20674e-05 5.41307e-06 -0.000125773
0.0013359 0.000179079 6.64732e-06
0.000179079 9.13585e-05 1.76172e-06
6.64732e-06 1.76172e-06 -6.85869e-05
0.000921274 0.000134253 5.89584e-06
0.000134253 0.000171708 5.44273e-06
5.89584e-06 5.44273e-06 3.97131e-05
0.000879478 0.000181143 4.45254e-06
0.000181143 -9.11167e-05 1.94198e-06
4.45254e-06 1.94198e-06 -0.000258794
0.00091758 0.000190309 3.47227e-06
0.000190309 8.63854e-05 1.00615e-06
3.47227e-06 1.00615e-06 -0.000104249
0.00132894 0.000240164 2.90674e-07
0.000240164 0.000185666 -1.95799e-08
2.90674e-07 -1.95799e-08 -2.80433e-06
0.00240055 -0.000100529 3.39354e-05
-0.000100529 0.00105487 2.85935e-06
3.39354e-05 2.85935e-06 0.00105884
0.00248528 -0.000112391 3.24849e-06
-0.000112391 0.0011116 -3.19699e-07
3.24849e-06 -3.19699e-07 0.00111227
0.00263276 -0.000126595 -4.12137e-05
-0.000126595 0.00120439 -2.39919e-06
-4.12137e-05 -2.39919e-06 0.00120099
0.000477666 2.21441e-05 3.53978e-06
2.21441e-05 -6.93914e-05 -7.76264e-06
3.53978e-06 -7.76264e-06 -0.000110692
0.00344418 0.000131988 8.36513e-05
0.000131988 0.00167249 -3.20161e-06
8.36513e-05 -3.20161e-06 0.00166696
0.00544316 0.00015191 -0.000212666
0.00015191 0.00280226 -1.40713e-05
-0.000212666 -1.40713e-05 0.00280027
0.00536536 4.49895e-05 -0.000195965
4.49895e-05 0.00274742 -6.06698e-06
-0.000195965 -6.06698e-06 0.00275325
0.000660713 7.47775e-05 -1.84833e-05
7.47775e-05 -8.14828e-05 -4.39488e-06
-1.84833e-05 -4.39488e-06 -0.000152702
0.000643514 3.27147e-05 -1.83978e-05
3.27147e-05 -9.34891e-05 -2.0872e-06
-1.83978e-05 -2.0872e-06 -0.000162972
0.0052868 -2.67227e-05 -0.000191384
-2.67227e-05 0.00270568 -9.22794e-07
-0.000191384 -9.22794e-07 0.00271206
0.00526905 1.74329e-05 -6.58992e-07
1.74329e-05 0.00269656 -3.37637e-08
-6.58992e-07 -3.37637e-08 0.00270247
0.000623817 -3.92383e-07 -1.31395e-07
-3.92383e-07 -0.000108386 -1.41067e-07
-1.31395e-07 -1.41067e-07 -0.00017479
0.00163901 2.60225e-05 4.28448e-05
2.60225e-05 0.000479248 1.23393e-06
4.28448e-05 1.23393e-06 0.000420689
0.00105897 3.49978e-05 8.60828e-08
3.49978e-05 -1.14209e-05 -1.11249e-07
8.60828e-08 -1.11249e-07 -0.000127475
0.000634602 6.56118e-05 -3.3855e-07
6.56118e-05 -9.20352e-05 -2.27584e-07
-3.3855e-07 -2.27584e-07 -0.000164631
0.00105805 7.56545e-05 -3.98237e-08
7.56545e-05 -4.18845e-06 -1.75141e-07
-3.98237e-08 -1.75141e-07 -0.000126829
0.000613387 -2.25556e-05 1.80512e-05
-2.25556e-05 -0.000115475 -6.6703e-07
1.80512e-05 -6.6703e-07 -0.000180213
0.00105485 1.36272e-05 1.19293e-05
1.36272e-05 -1.48356e-05 4.66578e-07
1.19293e-05 4.66578e-07 -0.000128936
0.00105123 5.24647e-05 1.19986e-05
5.24647e-05 -1.30904e-05 1.78088e-06
1.19986e-05 1.78088e-06 -0.000131834
0.0014143 4.88192e-05 3.60971e-06
4.88192e-05 6.46571e-05 2.49881e-07
3.60971e-06 2.49881e-07 -6.28197e-05
0.00105898 9.22994e-05 1.19416e-05
9.22994e-05 1.49632e-06 3.20961e-06
1.19416e-05 3.20961e-06 -0.000123928
0.00141472 0.000100651 3.73311e-06
0.000100651 8.18078e-05 4.68159e-07
3.73311e-06 4.68159e-07 -5.64583e-05
0.00526185 -4.42526e-05 -0.000198313
-4.42526e-05 0.00269492 -4.59323e-08
-0.000198313 -4.59323e-08 0.00269932
0.00126061 -0.000110397 -2.76165e-05
-0.000110397 0.000388429 2.92676e-06
-2.76165e-05 2.92676e-06 0.000352195
-0.000218704 -1.00125e-06 -1.32659e-05
-1.00125e-06 -0.000589775 2.09037e-06
-1.32659e-05 2.09037e-06 -0.000665518
0.00162363 -4.00025e-05 -8.82526e-05
-4.00025e-05 0.000480291 5.23321e-06
-8.82526e-05 5.23321e-06 0.000423279
0.00397733 0.000253674 -4.31957e-06
0.000253674 0.00202319 3.64753e-06
-4.31957e-06 3.64753e-06 0.00198153
0.00246303 -0.000133677 -8.42104e-05
-0.000133677 0.00103172 1.27876e-05
-8.42104e-05 1.27876e-05 0.000969262
0.00161477 -7.71528e-05 -8.62643e-05
-7.71528e-05 0.000485975 9.31951e-06
-8.62643e-05 9.31951e-06 0.000428543
0.00161853 -0.000106216 -2.48242e-05
-0.000106216 0.000332621 4.75781e-06
-2.48242e-05 4.75781e-06 0.000216763
0.00203059 -0.000176101 -2.22711e-05
-0.000176101 0.000599793 6.6925e-06
-2.22711e-05 6.6925e-06 0.000477247
0.0020288 -0.000219928 -2.13932e-05
-0.000219928 0.000650793 7.8742e-06
-2.13932e-05 7.8742e-06 0.000510667
0.0012911 -0.000186736 -6.75388e-06
-0.000186736 0.000103144 1.79367e-06
-6.75388e-06 1.79367e-06 -5.48085e-05
0.00061835 8.35135e-06 -2.46711e-08
8.35135e-06 -0.000109267 -4.22334e-08
-2.46711e-08 -4.22334e-08 -0.000174785
0.00156233 -5.50808e-05 -2.75663e-05
-5.50808e-05 0.000447472 3.05593e-07
-2.75663e-05 3.05593e-07 0.000386539
0.0011796 -2.32767e-05 -5.97143e-06
-2.32767e-05 6.40235e-05 2.80808e-07
-5.97143e-06 2.80808e-07 -4.72972e-05
0.00182195 -9.2315e-05 -4.33899e-06
-9.2315e-05 0.000442892 6.30923e-07
-4.33899e-06 6.30923e-07 0.000330213
0.00380776 0.000136282 -3.63214e-06
0.000136282 0.00188681 -5.45514e-07
-3.63214e-06 -5.45514e-07 0.00187907
0.00138198 -4.17363e-05 3.66537e-08
-4.17363e-05 0.000441529 4.92123e-07
3.66537e-08 4.92123e-07 0.000375891
0.00131092 -0.00018029 5.60064e-07
-0.00018029 0.000304374 -1.30924e-06
5.60064e-07 -1.30924e-06 0.000160488
0.00159618 -0.000133178 -4.675e-06
-0.000133178 0.000332261 9.90107e-07
-4.675e-06 9.90107e-07 0.000212936
0.00149659 -0.0001288 -2.56748e-06
-0.0001288 0.000156338 5.68947e-07
-2.56748e-06 5.68947e-07 1.82659e-05
0.00117073 -0.000200617 1.79324e-07
-0.000200617 6.20996e-05 4.54911e-08
1.79324e-07 4.54911e-08 -0.000107977
0.00151538 -0.000177472 2.73719e-07
-0.000177472 0.000210961 -1.79232e-07
2.73719e-07 -1.79232e-07 6.07838e-05
0.00143896 -0.000217048 5.00164e-07
-0.000217048 0.000120841 -3.67746e-08
5.00164e-07 -3.67746e-08 -4.94036e-05
0.0005261 3.79876e-06 -7.03655e-07
3.79876e-06 -4.56156e-05 1.13846e-07
-7.03655e-07 1.13846e-07 -9.25018e-05
0.000663903 -2.86604e-05 -5.2102e-07
-2.86604e-05 2.98206e-05 -4.2645e-08
-5.2102e-07 -4.2645e-08 -6.84886e-05
0.00104788 -1.13646e-05 1.18073e-05
-1.13646e-05 -1.54794e-05 -9.47703e-07
1.18073e-05 -9.47703e-07 -0.00012839
0.00163152 -5.35211e-05 1.19594e-05
-5.35211e-05 0.000327288 -1.50545e-06
1.19594e-05 -1.50545e-06 0.000217316
0.00169964 -3.92755e-05 2.37e-06
-3.92755e-05 0.000244238 -1.02431e-07
2.37e-06 -1.02431e-07 0.000121713
0.00133735 -0.000100189 4.48403e-06
-0.000100189 5.16966e-05 -5.40031e-07
4.48403e-06 -5.40031e-07 -8.19936e-05
0.0016218 -0.000163472 4.66964e-06
-0.000163472 0.000251878 -9.40843e-07
4.66964e-06 -9.40843e-07 0.000108883
0.00166674 -0.000154513 -3.97423e-07
-0.000154513 0.000161234 5.76973e-07
-3.97423e-07 5.76973e-07 2.59988e-05
0.000418523 -1.66017e-05 7.53271e-06
-1.66017e-05 -0.000111354 -9.86094e-06
7.53271e-06 -9.86094e-06 -0.000163306
0.00147049 -0.000200361 2.65294e-06
-0.000200361 0.00010849 5.37128e-07
2.65294e-06 5.37128e-07 -4.8553e-05
0.000633681 -0.000119872 4.30315e-06
-0.000119872 -1.89591e-05 -5.04168e-06
4.30315e-06 -5.04168e-06 -0.000153013
0.000887739 -0.000195957 7.58132e-06
-0.000195957 -2.82051e-05 -4.70584e-06
7.58132e-06 -4.70584e-06 -0.000211574
0.00185756 -0.000269151 3.76434e-06
-0.000269151 0.00039131 2.55431e-07
3.76434e-06 2.55431e-07 0.000201884
0.00177062 -0.000252137 -5.50739e-07
-0.000252137 0.000249815 3.21216e-06
-5.50739e-07 3.21216e-06 8.39775e-05
0.00073752 -6.76525e-05 3.01078e-06
-6.76525e-05 7.14132e-05 -3.87707e-06
3.01078e-06 -3.87707e-06 -4.07699e-05
0.000593465 -4.58937e-06 1.05756e-06
-4.58937e-06 -4.72354e-06 -3.5245e-06
1.05756e-06 -3.5245e-06 -9.10113e-05
0.000960655 -0.000114762 9.01374e-07
-0.000114762 0.00021021 -6.80749e-07
9.01374e-07 -6.80749e-07 6.63124e-05
0.000595887 8.57147e-05 -1.68394e-05
8.57147e-05 -0.000106133 -7.24162e-06
-1.68394e-05 -7.24162e-06 -0.000180991
0.00306884 -0.000142097 -6.05498e-05
-0.000142097 0.00146026 -2.11836e-06
-6.05498e-05 -2.11836e-06 0.00145322
0.000464168 -7.30457e-05 2.0918e-06
-7.30457e-05 -6.03946e-05 -6.65813e-06
2.0918e-06 -6.65813e-06 -9.97803e-05
0.000520983 0.00013039 -1.82619e-05
0.00013039 -0.000116296 -1.13654e-05
-1.82619e-05 -1.13654e-05 -0.000197999
0.00102545 0.000138299 -1.30817e-05
0.000138299 8.15395e-06 -5.23837e-06
-1.30817e-05 -5.23837e-06 -0.000125771
0.00041844 1.27807e-05 -7.71502e-06
1.27807e-05 -0.000111722 -9.92853e-06
-7.71502e-06 -9.92853e-06 -0.000162991
0.000714493 0.000128208 -5.68651e-06
0.000128208 8.66317e-06 -6.06276e-06
-5.68651e-06 -6.06276e-06 -0.000132035
0.00095555 0.000159056 -1.02703e-05
0.000159056 3.0277e-05 -5.08483e-06
-1.02703e-05 -5.08483e-06 -0.000110523
0.00104474 0.000203164 -5.81505e-06
0.000203164 7.04555e-05 -1.56116e-06
-5.81505e-06 -1.56116e-06 -0.000111004
0.000538154 -2.39363e-05 1.4236e-06
-2.39363e-05 -3.11489e-05 3.64688e-07
1.4236e-06 3.64688e-07 -7.45083e-05
0.000555712 -7.16156e-05 -3.33442e-07
-7.16156e-05 -1.7611e-05 2.27063e-07
-3.33442e-07 2.27063e-07 -4.87154e-05
0.00063934 -7.4066e-06 5.12813e-07
-7.4066e-06 2.29383e-05 3.62303e-07
5.12813e-07 3.62303e-07 -6.14701e-05
0.00104158 0.000115281 7.09626e-08
0.000115281 9.62069e-07 -2.44116e-07
7.09626e-08 -2.44116e-07 -0.000128551
0.000996295 0.000152488 3.83261e-07
0.000152488 1.75926e-05 -1.90175e-07
3.83261e-07 -1.90175e-07 -0.000119692
0.00131264 0.00017725 2.13337e-07
0.00017725 8.1666e-05 4.02319e-08
2.13337e-07 4.02319e-08 -7.82212e-05
0.000791632 0.00011821 -2.57883e-07
0.00011821 9.89403e-05 2.73192e-07
-2.57883e-07 2.73192e-07 -3.0704e-05
0.00109948 0.000196054 -3.77523e-07
0.000196054 3.64437e-05 -2.26168e-07
-3.77523e-07 -2.26168e-07 -0.000133251
0.0010903 0.000202811 1.01611e-06
0.000202811 0.000187196 -1.10261e-06
1.01611e-06 -1.10261e-06 -4.51495e-06
0.00121434 0.00023454 -6.02177e-07
0.00023454 0.000113736 8.58552e-07
-6.02177e-07 8.58552e-07 -7.40568e-05
0.000597 -6.35234e-05 -3.1273e-07
-6.35234e-05 -6.28792e-06 4.78903e-06
-3.1273e-07 4.78903e-06 -3.09445e-05
0.000739642 7.77525e-05 4.02663e-06
7.77525e-05 7.78028e-05 3.76325e-06
4.02663e-06 3.76325e-06 -3.11584e-05
0.000675104 -2.27884e-05 6.57381e-07
-2.27884e-05 3.75248e-05 3.33592e-06
6.57381e-07 3.33592e-06 -2.81814e-05
0.000864232 7.90213e-05 7.8352e-07
7.90213e-05 0.000172266 1.06719e-06
7.8352e-07 1.06719e-06 4.04646e-05
0.00136846 0.000154068 5.85689e-06
0.000154068 8.21533e-05 1.08653e-06
5.85689e-06 1.08653e-06 -7.02867e-05
0.00122443 0.000193191 6.96366e-06
0.000193191 6.47495e-05 2.22505e-06
6.96366e-06 2.22505e-06 -0.000100918
0.00155543 0.000225062 1.71832e-06
0.000225062 0.000142085 1.08737e-07
1.71832e-06 1.08737e-07 -2.7618e-05
0.0010117 0.000169033 2.58432e-06
0.000169033 0.000200801 3.8377e-06
2.58432e-06 3.8377e-06 2.74023e-05
0.00130108 0.000231769 9.81577e-07
0.000231769 9.45945e-05 1.09454e-06
9.81577e-07 1.09454e-06 -8.46914e-05
0.00105913 0.000219777 2.57403e-06
0.000219777 0.000125785 -1.52127e-06
2.57403e-06 -1.52127e-06 -9.05972e-05
0.00178966 0.000280161 1.11458e-06
0.000280161 0.000373151 4.12701e-07
1.11458e-06 4.12701e-07 0.000180366
0.000666141 -1.00388e-05 1.91005e-06
-1.00388e-05 1.12644e-05 2.07858e-06
1.91005e-06 2.07858e-06 -3.31673e-05
0.00059226 -4.44099e-05 7.7215e-07
-4.44099e-05 -3.03132e-05 4.2208e-06
7.7215e-07 4.2208e-06 -4.67979e-05
0.00230657 -8.76969e-05 2.89552e-05
-8.76969e-05 0.000991672 3.28511e-06
2.89552e-05 3.28511e-06 0.000998889
0.00234523 -9.85876e-05 2.53313e-06
-9.85876e-05 0.00102214 -2.44334e-07
2.53313e-06 -2.44334e-07 0.00102651
0.00240423 -0.000110022 -3.56756e-05
-0.000110022 0.00106454 -2.66031e-06
-3.56756e-05 -2.66031e-06 0.00106566
0.000500359 2.74629e-05 2.6476e-06
2.74629e-05 -5.89275e-05 -6.57967e-06
2.6476e-06 -6.57967e-06 -9.37841e-05
0.00314455 0.000122525 6.77749e-05
0.000122525 0.00149516 -3.04181e-06
6.77749e-05 -3.04181e-06 0.0014921
0.000543288 2.00456e-05 -2.8943e-07
2.00456e-05 -3.27817e-05 1.44907e-07
-2.8943e-07 1.44907e-07 -7.42962e-05
0.00352398 0.000123536 -2.84337e-06
0.000123536 0.00171659 -3.85131e-07
-2.84337e-06 -3.85131e-07 0.00171299
0.000653083 8.67136e-05 -1.82951e-05
8.67136e-05 -7.99158e-05 -5.74124e-06
-1.82951e-05 -5.74124e-06 -0.000153706
0.000655468 3.11698e-05 -1.78545e-05
3.11698e-05 -8.81725e-05 -3.08259e-06
-1.78545e-05 -3.08259e-06 -0.000157523
0.00105767 7.76054e-05 -1.17062e-05
7.76054e-05 -4.26315e-06 -2.77467e-06
-1.17062e-05 -2.77467e-06 -0.000127258
0.00105819 3.71899e-05 -1.21837e-05
3.71899e-05 -1.18043e-05 -1.4101e-06
-1.21837e-05 -1.4101e-06 -0.000127988
0.000665488 -4.98282e-06 -1.83682e-05
-4.98282e-06 -8.7615e-05 -8.21312e-07
-1.83682e-05 -8.21312e-07 -0.000152252
0.00532392 -9.63375e-05 -0.000205888
-9.63375e-05 0.00273583 2.88369e-06
-0.000205888 2.88369e-06 0.00273724
0.000650412 -7.08182e-07 1.42147e-07
-7.08182e-07 -9.53813e-05 -3.5821e-07
1.42147e-07 -3.5821e-07 -0.000159813
0.00105866 1.82813e-05 -1.34534e-08
1.82813e-05 -1.24092e-05 -1.32098e-07
-1.34534e-08 -1.32098e-07 -0.000126628
0.00105812 5.4136e-05 -1.65223e-08
5.4136e-05 -8.87168e-06 -1.50073e-07
-1.65223e-08 -1.50073e-07 -0.000127868
0.00139828 4.80144e-05 -6.69784e-08
4.80144e-05 5.63629e-05 3.8083e-08
-6.69784e-08 3.8083e-08 -7.12118e-05
0.00105159 9.49652e-05 -3.87809e-08
9.49652e-05 -1.84498e-06 -1.84061e-07
-3.87809e-08 -1.84061e-07 -0.000127986
0.00139475 0.000102162 -4.59766e-08
0.000102162 7.07384e-05 -7.67409e-08
-4.59766e-08 -7.67409e-08 -6.80572e-05
0.0010591 -2.68913e-07 1.18775e-05
-2.68913e-07 -1.07373e-05 -2.85605e-07
1.18775e-05 -2.85605e-07 -0.000124022
0.00140663 2.7805e-05 3.435e-06
2.7805e-05 5.88818e-05 1.46035e-07
3.435e-06 1.46035e-07 -6.57842e-05
0.00142149 7.60448e-05 3.73001e-06
7.60448e-05 7.61e-05 2.44101e-07
3.73001e-06 2.44101e-07 -5.63441e-05
0.00167455 6.97228e-05 -1.01676e-06
6.97228e-05 9.10224e-05 -2.79162e-07
-1.01676e-06 -2.79162e-07 -2.27405e-05
0.00140978 0.000128665 4.21781e-06
0.000128665 8.79436e-05 7.4272e-07
4.21781e-06 7.4272e-07 -5.71393e-05
0.00164273 0.000130988 -5.04652e-07
0.000130988 0.000101247 -9.27418e-07
-5.04652e-07 -9.27418e-07 -2.85796e-05
0.000636153 4.9433e-06 -1.75002e-05
4.9433e-06 -9.82502e-05 9.43577e-07
-1.75002e-05 9.43577e-07 -0.00016477
0.00162806 -1.91255e-05 -8.86751e-05
-1.91255e-05 0.000480195 3.39064e-06
-8.86751e-05 3.39064e-06 0.000424477
0.000730664 -1.81116e-05 -1.34294e-05
-1.81116e-05 -0.000194895 1.60395e-06
-1.34294e-05 1.60395e-06 -0.000310377
0.00201906 -9.34756e-05 -2.19381e-05
-9.34756e-05 0.000554339 3.37003e-06
-2.19381e-05 3.37003e-06 0.000443373
0.00390939 0.000119214 -0.000118189
0.000119214 0.00194245 5.38257e-06
-0.000118189 5.38257e-06 0.00193759
0.00236435 -7.02e-05 -7.13202e-05
-7.02e-05 0.00100058 9.64705e-06
-7.13202e-05 9.64705e-06 0.000945744
0.00196522 -0.00022102 -1.63838e-05
-0.00022102 0.000682946 6.85889e-06
-1.63838e-05 6.85889e-06 0.000537305
0.00160407 -0.00013174 -2.24669e-05
-0.00013174 0.000336222 5.46304e-06
-2.24669e-05 5.46304e-06 0.000217166
0.00126311 -0.000121237 -6.50521e-06
-0.000121237 1.99363e-05 1.34794e-06
-6.50521e-06 1.34794e-06 -0.00011851
0.00175107 -0.000187635 -7.59349e-06
-0.000187635 0.000345344 1.84901e-06
-7.59349e-06 1.84901e-06 0.000196042
0.00101773 -0.000190063 -7.54826e-06
-0.000190063 -2.73801e-05 1.62689e-06
-7.54826e-06 1.62689e-06 -0.000197473
0.00143345 -0.000216008 -3.04088e-06
-0.000216008 0.000119799 -6.29725e-07
-3.04088e-06 -6.29725e-07 -4.98331e-05
0.000600803 -5.05283e-06 -7.13519e-06
-5.05283e-06 -3.55763e-06 8.81665e-06
-7.13519e-06 8.81665e-06 -5.11602e-05
0.000702959 -4.62691e-05 -2.72509e-06
-4.62691e-05 5.29728e-05 3.3823e-06
-2.72509e-06 3.3823e-06 -4.79493e-05
0.0008928 -6.97224e-06 -3.96243e-07
-6.97224e-06 -0.000104422 -9.90045e-08
-3.96243e-07 -9.90045e-08 -0.000218381
0.00163715 -5.45344e-05 -4.95138e-06
-5.45344e-05 0.000329382 5.04713e-07
-4.95138e-06 5.04713e-07 0.000219442
0.00170024 -3.5726e-05 -2.34509e-06
-3.5726e-05 0.000241274 2.94022e-07
-2.34509e-06 2.94022e-07 0.000120192
0.00153215 -0.000103618 3.3977e-07
-0.000103618 0.00016353 -4.40461e-08
3.3977e-07 -4.40461e-08 3.03329e-05
0.000546515 -2.74025e-05 8.43657e-08
-2.74025e-05 -4.0492e-05 2.6055e-07
8.43657e-08 2.6055e-07 -9.3384e-05
0.000849001 -0.00014251 -2.47748e-07
-0.00014251 0.000102198 2.33655e-07
-2.47748e-07 2.33655e-07 -3.52442e-05
0.000970915 -0.000202004 1.71325e-06
-0.000202004 2.14776e-05 -1.58617e-06
1.71325e-06 -1.58617e-06 -0.000162017
0.00168328 -0.000163896 -2.06965e-06
-0.000163896 0.000285803 5.21298e-07
-2.06965e-06 5.21298e-07 0.000142681
0.00167885 -0.00015493 -2.46496e-09
-0.00015493 0.000163069 1.81838e-07
-2.46496e-09 1.81838e-07 3.02867e-05
0.00170185 -0.000259788 -2.11985e-06
-0.000259788 0.000302068 2.46178e-07
-2.11985e-06 2.46178e-07 0.000112508
0.00147917 -0.000200857 3.95831e-07
-0.000200857 0.000112921 -4.77802e-08
3.95831e-07 -4.77802e-08 -4.38844e-05
0.00173086 -0.000251684 6.3038e-07
-0.000251684 0.000223171 5.19746e-07
6.3038e-07 5.19746e-07 5.71106e-05
0.000727697 -7.71223e-05 -1.89071e-07
-7.71223e-05 6.59123e-05 -1.90026e-07
-1.89071e-07 -1.90026e-07 -4.74085e-05
0.000646126 -7.31415e-05 -7.45296e-07
-7.31415e-05 2.1629e-05 -6.69196e-07
-7.45296e-07 -6.69196e-07 -0.00011282
0.000665528 -1.46288e-05 1.84222e-07
-1.46288e-05 3.49264e-05 2.19231e-07
1.84222e-07 2.19231e-07 -5.18732e-05
0.00169652 -1.39587e-05 2.01198e-06
-1.39587e-05 0.000234259 -1.42339e-07
2.01198e-06 -1.42339e-07 0.000113146
0.0016875 -6.72144e-05 2.33732e-06
-6.72144e-05 0.000235872 1.81979e-07
2.33732e-06 1.81979e-07 0.000111208
0.0016481 -5.0746e-05 -1.06558e-06
-5.0746e-05 9.39039e-05 8.11084e-07
-1.06558e-06 8.11084e-07 -1.87762e-05
0.00161198 -0.000126679 -1.58029e-06
-0.000126679 9.95178e-05 9.87368e-07
-1.58029e-06 9.87368e-07 -2.72949e-05
0.00149901 -0.000180776 1.22673e-06
-0.000180776 9.31101e-05 1.22314e-06
1.22673e-06 1.22314e-06 -5.02537e-05
0.00173155 -0.000175765 -2.00217e-06
-0.000175765 0.000123465 1.52452e-06
-2.00217e-06 1.52452e-06 8.46093e-06
0.000684214 -0.000100263 3.79071e-06
-0.000100263 3.70763e-05 -3.47379e-06
3.79071e-06 -3.47379e-06 -8.58581e-05
0.00160752 -0.000234529 -1.07961e-06
-0.000234529 0.000115356 1.95303e-06
-1.07961e-06 1.95303e-06 -3.32662e-05
0.000988382 -0.000192285 2.03714e-06
-0.000192285 0.000138733 -3.95382e-06
2.03714e-06 -3.95382e-06 -3.81377e-05
0.00129521 -0.0002549 5.41724e-06
-0.0002549 0.000135522 -3.5519e-06
5.41724e-06 -3.5519e-06 -7.49549e-05
0.0018436 -0.000286932 1.25078e-06
-0.000286932 0.000332536 3.04803e-06
1.25078e-06 3.04803e-06 0.000136825
0.00188978 -0.000280795 -2.91219e-06
-0.000280795 0.000267776 3.91939e-06
-2.91219e-06 3.91939e-06 0.000111794
0.000611982 -9.19228e-06 1.17263e-06
-9.19228e-06 3.1927e-06 -3.07649e-06
1.17263e-06 -3.07649e-06 -7.23377e-05
0.0007978 -0.000120364 2.14565e-06
-0.000120364 8.96211e-05 7.47397e-07
2.14565e-06 7.47397e-07 -4.87411e-05
0.000580837 -4.99134e-05 8.58872e-07
-4.99134e-05 5.54092e-06 -1.50502e-06
8.58872e-07 -1.50502e-06 -0.000125161
0.0012051 -0.000181517 -7.12897e-07
-0.000181517 0.000340131 1.89696e-06
-7.12897e-07 1.89696e-06 0.000181543
0.00103567 0.000117531 -1.28542e-05
0.000117531 -1.38422e-06 -4.50277e-06
-1.28542e-05 -4.50277e-06 -0.000131587
0.000510397 -6.81523e-05 1.4266e-07
-6.81523e-05 -4.56144e-05 -5.0927e-06
1.4266e-07 -5.0927e-06 -7.54569e-05
0.000444025 -4.14238e-05 -6.09386e-07
-4.14238e-05 -8.07981e-05 -8.3992e-06
-6.09386e-07 -8.3992e-06 -0.000125013
0.000612885 -3.94116e-05 1.09267e-06
-3.94116e-05 1.15861e-05 -3.94212e-06
1.09267e-06 -3.94212e-06 -7.25113e-05
0.00101177 0.000155105 -1.18177e-05
0.000155105 2.74087e-05 -5.86827e-06
-1.18177e-05 -5.86827e-06 -0.000110427
0.00129299 0.000175599 -6.31838e-06
0.000175599 7.39565e-05 -1.72767e-06
-6.31838e-06 -1.72767e-06 -8.58851e-05
0.000664794 9.99468e-05 -3.75478e-06
9.99468e-05 2.74208e-05 -4.0365e-06
-3.75478e-06 -4.0365e-06 -9.9493e-05
0.00130515 0.000218791 -4.80219e-06
0.000218791 0.000312119 -4.53307e-06
-4.80219e-06 -4.53307e-06 0.000118513
0.00134331 0.000212438 -5.61097e-06
0.000212438 0.000177894 -1.75325e-06
-5.61097e-06 -1.75325e-06 6.04729e-06
0.00113312 0.000231158 -3.33371e-06
0.000231158 6.16576e-05 1.75444e-06
-3.33371e-06 1.75444e-06 -0.000125838
0.000570611 -5.96748e-05 -1.06292e-07
-5.96748e-05 -2.34065e-05 8.55105e-08
-1.06292e-07 8.55105e-08 -4.70184e-05
0.000735624 6.75887e-05 3.97237e-07
6.75887e-05 8.06666e-05 -1.97918e-07
3.97237e-07 -1.97918e-07 -3.00598e-05
0.000628555 -3.84149e-05 -6.94301e-07
-3.84149e-05 1.42061e-05 6.34993e-07
-6.94301e-07 6.34993e-07 -5.22801e-05
0.000782955 4.9912e-05 9.29095e-07
4.9912e-05 0.00012337 -4.98667e-07
9.29095e-07 -4.98667e-07 -3.8264e-06
0.00135407 0.000153135 5.63118e-07
0.000153135 7.70543e-05 -9.28743e-08
5.63118e-07 -9.28743e-08 -7.55223e-05
0.0012741 0.000196825 1.93749e-07
0.000196825 9.56032e-05 4.69194e-09
1.93749e-07 4.69194e-09 -7.05571e-05
0.00156338 0.000225668 2.31473e-07
0.000225668 0.00014636 1.67496e-07
2.31473e-07 1.67496e-07 -2.36716e-05
0.000982194 0.000167884 6.78397e-07
0.000167884 0.000186676 7.05081e-07
6.78397e-07 7.05081e-07 1.46304e-05
0.00154758 0.000246987 -6.20061e-07
0.000246987 0.000241108 -4.51745e-07
-6.20061e-07 -4.51745e-07 6.04334e-05
0.00114235 0.000228797 3.67626e-07
0.000228797 0.000172727 -2.44682e-06
3.67626e-07 -2.44682e-06 -4.74334e-05
0.00154974 0.000262353 -2.48522e-06
0.000262353 0.000241139 -4.26717e-07
-2.48522e-06 -4.26717e-07 5.15481e-05
0.000586932 -5.25649e-05 7.5638e-07
-5.25649e-05 -2.47615e-05 4.32936e-06
7.5638e-07 4.32936e-06 -4.42831e-05
0.000685433 -2.53065e-05 1.26122e-06
-2.53065e-05 3.64545e-05 2.49101e-06
1.26122e-06 2.49101e-06 -1.77844e-05
0.000965976 0.000123188 2.14017e-06
0.000123188 0.000204319 1.98204e-06
2.14017e-06 1.98204e-06 5.73569e-05
0.000813889 4.85337e-05 -4.51444e-07
4.85337e-05 0.000146962 2.31104e-06
-4.51444e-07 2.31104e-06 3.66262e-05
0.000936565 0.000123598 1.85168e-07
0.000123598 0.000221993 -5.12483e-07
1.85168e-07 -5.12483e-07 6.82532e-05
0.00160703 0.000195175 1.52749e-06
0.000195175 0.000134833 -9.81393e-07
1.52749e-06 -9.81393e-07 -2.06026e-05
0.00144513 0.000238983 1.23377e-06
0.000238983 0.000125196 1.28497e-06
1.23377e-06 1.28497e-06 -5.29921e-05
0.0017354 0.000263601 -8.30166e-08
0.000263601 0.000194427 -4.68593e-07
-8.30166e-08 -4.68593e-07 2.89759e-05
0.00119086 0.000214399 3.39723e-06
0.000214399 0.000294252 4.91849e-06
3.39723e-06 4.91849e-06 7.90791e-05
0.00162891 0.000279159 2.8059e-06
0.000279159 0.000241498 1.02737e-06
2.8059e-06 1.02737e-06 5.22995e-05
0.00083717 0.000220981 3.19883e-06
0.000220981 -9.03996e-05 -1.80762e-06
3.19883e-06 -1.80762e-06 -0.000305892
0.00066145 -1.37174e-05 2.29879e-06
-1.37174e-05 1.04547e-05 2.07225e-06
2.29879e-06 2.07225e-06 -3.52789e-05
0.000708909 3.2601e-05 2.91829e-07
3.2601e-05 6.16541e-05 9.45622e-07
2.91829e-07 9.45622e-07 -1.23787e-05
0.000682659 -2.96228e-07 1.62851e-06
-2.96228e-07 2.06037e-05 2.07403e-06
1.62851e-06 2.07403e-06 -2.32999e-05
0.00066271 -2.3833e-05 -3.74e-07
-2.3833e-05 1.09027e-05 1.2954e-08
-3.74e-07 1.2954e-08 -3.44062e-05
0.00126108 -5.07102e-05 1.09067e-06
-5.07102e-05 0.000354294 2.50126e-06
1.09067e-06 2.50126e-06 0.000343329
0.000940785 -5.08012e-05 6.89515e-07
-5.08012e-05 0.000173169 -6.53689e-08
6.89515e-07 -6.53689e-08 0.000158404
0.000910843 -4.59193e-05 2.40822e-05
-4.59193e-05 0.000165951 6.99989e-06
2.40822e-05 6.99989e-06 0.000170003
0.00227123 -8.58865e-05 2.53871e-06
-8.58865e-05 0.000970078 -2.194e-07
2.53871e-06 -2.194e-07 0.000977724
0.00229065 -9.61775e-05 -3.21379e-05
-9.61775e-05 0.000989592 -3.04803e-06
-3.21379e-05 -3.04803e-06 0.000994501
0.00051534 4.46712e-05 -3.09164e-07
4.46712e-05 -5.215e-05 -5.74164e-06
-3.09164e-07 -5.74164e-06 -8.30286e-05
0.00287809 0.000116137 4.8407e-05
0.000116137 0.00133598 -3.1072e-06
4.8407e-05 -3.1072e-06 0.00133468
0.000555254 2.61968e-05 -2.61172e-07
2.61968e-05 -2.771e-05 1.66458e-07
-2.61172e-07 1.66458e-07 -6.28807e-05
0.00324322 0.000115459 -3.75904e-06
0.000115459 0.0015502 -3.12519e-07
-3.75904e-06 -3.12519e-07 0.00154893
0.000601353 1.71145e-05 -4.11372e-06
1.71145e-05 -6.26567e-07 7.932e-06
-4.11372e-06 7.932e-06 -4.23991e-05
0.00360394 0.00011374 -0.000103476
0.00011374 0.00176062 4.40687e-06
-0.000103476 4.40687e-06 0.00175902
0.00105473 9.786e-05 -1.2185e-05
9.786e-05 4.33576e-07 -3.52739e-06
-1.2185e-05 -3.52739e-06 -0.000126354
0.00106809 5.82846e-05 -1.19273e-05
5.82846e-05 -2.73533e-06 -2.05549e-06
-1.19273e-05 -2.05549e-06 -0.000122159
0.00137026 0.000100188 -4.12676e-06
0.000100188 5.70468e-05 -6.55405e-07
-4.12676e-06 -6.55405e-07 -8.19526e-05
0.00138158 4.73866e-05 -3.82149e-06
4.73866e-05 4.78813e-05 -1.36229e-07
-3.82149e-06 -1.36229e-07 -7.97979e-05
0.00106077 2.16956e-05 -1.20893e-05
2.16956e-05 -1.09115e-05 -7.86231e-07
-1.20893e-05 -7.86231e-07 -0.000125268
0.000624879 2.17094e-05 -1.80247e-05
2.17094e-05 -0.000109267 -5.47247e-08
-1.80247e-05 -5.47247e-08 -0.000173916
0.00105561 2.02256e-06 8.83021e-09
2.02256e-06 -1.27888e-05 -1.12537e-07
8.83021e-09 -1.12537e-07 -0.000126107
0.0013945 2.94405e-05 -9.13132e-08
2.94405e-05 5.202e-05 -1.28422e-09
-9.13132e-08 -1.28422e-09 -7.27826e-05
0.00139465 7.29811e-05 1.64871e-09
7.29811e-05 6.23222e-05 -6.19696e-08
1.64871e-09 -6.19696e-08 -7.01564e-05
0.00171477 7.05718e-05 -4.99064e-08
7.05718e-05 0.000110323 2.52309e-07
-4.99064e-08 2.52309e-07 -1.53715e-06
0.00138482 0.000127797 -1.97498e-07
0.000127797 7.5361e-05 -6.27626e-08
-1.97498e-07 -6.27626e-08 -6.99352e-05
0.00164973 0.000129355 -1.94657e-07
0.000129355 0.000109856 4.93968e-08
-1.94657e-07 4.93968e-08 -1.99743e-05
0.0013949 6.8251e-06 3.61126e-06
6.8251e-06 5.47719e-05 -6.87149e-08
3.61126e-06 -6.87149e-08 -6.87774e-05
0.00171908 4.15902e-05 -1.69945e-06
4.15902e-05 0.000110011 1.47337e-07
-1.69945e-06 1.47337e-07 2.98032e-06
0.00166077 0.000105836 -8.59531e-07
0.000105836 9.10039e-05 -7.44638e-07
-8.59531e-07 -7.44638e-07 -2.99243e-05
0.0017848 7.73355e-05 -1.44931e-06
7.73355e-05 8.96054e-05 7.20269e-08
-1.44931e-06 7.20269e-08 -3.44854e-06
0.00163397 0.00015731 -1.1157e-07
0.00015731 0.000124834 -1.02062e-06
-1.1157e-07 -1.02062e-06 -1.59059e-05
0.0016998 0.000153209 -2.70638e-06
0.000153209 7.15227e-05 -1.12685e-06
-2.70638e-06 -1.12685e-06 -3.50413e-05
0.000733438 -4.10941e-06 -1.16936e-05
-4.10941e-06 -0.000195565 6.54179e-07
-1.16936e-05 6.54179e-07 -0.000310633
0.00166525 -5.70015e-05 -2.16531e-05
-5.70015e-05 0.000344279 2.45066e-06
-2.16531e-05 2.45066e-06 0.000234354
0.00170551 -2.94211e-05 -6.86668e-06
-2.94211e-05 0.00024112 3.88133e-07
-6.86668e-06 3.88133e-07 0.00012164
0.00172494 -0.000107282 -5.05728e-06
-0.000107282 0.000274294 8.29835e-07
-5.05728e-06 8.29835e-07 0.000141569
0.000685992 -3.96056e-05 -9.92599e-06
-3.96056e-05 3.83929e-05 1.0177e-05
-9.92599e-06 1.0177e-05 -1.67187e-05
0.000902969 -0.000155254 -6.62195e-06
-0.000155254 0.000133881 6.18577e-06
-6.62195e-06 6.18577e-06 -5.82645e-06
0.00107109 -0.000209344 -4.25051e-06
-0.000209344 8.09445e-05 1.39426e-06
-4.25051e-06 1.39426e-06 -0.000102908
0.0017432 -0.000164168 -8.18923e-06
-0.000164168 0.000318851 2.02122e-06
-8.18923e-06 2.02122e-06 0.000175628
0.00168589 -0.000155048 -3.4886e-07
-0.000155048 0.000161983 -6.88919e-07
-3.4886e-07 -6.88919e-07 3.16901e-05
0.00149052 -0.00020148 -2.17287e-06
-0.00020148 0.000118828 -5.51486e-07
-2.17287e-06 -5.51486e-07 -3.77415e-05
0.00155234 -0.000250298 -5.69423e-06
-0.000250298 0.00021708 -2.25496e-07
-5.69423e-06 -2.25496e-07 2.74175e-05
0.00169206 -0.000250857 2.24669e-06
-0.000250857 0.000197228 -2.59384e-06
2.24669e-06 -2.59384e-06 3.10614e-05
0.000716873 -8.33127e-05 -4.01148e-06
-8.33127e-05 5.71712e-05 3.3922e-06
-4.01148e-06 3.3922e-06 -5.56678e-05
0.00049213 -6.45176e-05 -2.29104e-06
-6.45176e-05 -6.49529e-05 -4.92089e-07
-2.29104e-06 -4.92089e-07 -0.000199232
0.000704906 -2.17102e-05 -1.3218e-06
-2.17102e-05 5.64266e-05 3.6521e-06
-1.3218e-06 3.6521e-06 -3.12078e-05
0.00155079 -1.19744e-05 -2.37864e-06
-1.19744e-05 0.000149112 1.6242e-07
-2.37864e-06 1.6242e-07 2.68857e-05
0.00169667 -7.40828e-05 -2.22845e-06
-7.40828e-05 0.000241197 3.82772e-07
-2.22845e-06 3.82772e-07 0.000115973
0.00164877 -4.72903e-05 3.5727e-07
-4.72903e-05 9.33503e-05 3.30688e-07
3.5727e-07 3.30688e-07 -1.60852e-05
0.00164284 -0.000124267 -1.27464e-06
-0.000124267 0.000114305 3.12312e-07
-1.27464e-06 3.12312e-07 -1.25946e-05
0.000760881 -0.000115281 3.43247e-07
-0.000115281 8.08204e-05 1.98607e-07
3.43247e-07 1.98607e-07 -4.41727e-05
0.00106383 -0.000199379 -1.01724e-06
-0.000199379 0.000176791 3.0482e-07
-1.01724e-06 3.0482e-07 -7.43072e-07
0.00114428 -0.000240108 1.09172e-06
-0.000240108 5.58836e-05 -1.03074e-06
1.09172e-06 -1.03074e-06 -0.000150724
0.00155271 -0.00018298 -4.22502e-07
-0.00018298 0.000124757 3.5271e-07
-4.22502e-07 3.5271e-07 -2.06054e-05
0.00176208 -0.00017596 1.31723e-06
-0.00017596 0.000143951 1.56754e-07
1.31723e-06 1.56754e-07 3.28355e-05
0.00172154 -0.00028304 -8.87822e-07
-0.00028304 0.000261107 6.32808e-07
-8.87822e-07 6.32808e-07 6.31618e-05
0.00163454 -0.000234764 1.30457e-07
-0.000234764 0.00013128 2.79138e-07
1.30457e-07 2.79138e-07 -1.69516e-05
0.00193741 -0.000281635 1.38863e-06
-0.000281635 0.000296892 -4.85009e-07
1.38863e-06 -4.85009e-07 0.000143379
0.000937705 -0.000140749 2.37354e-07
-0.000140749 0.000173718 3.39182e-07
2.37354e-07 3.39182e-07 3.08443e-05
0.00105634 -0.00017646 -2.79358e-07
-0.00017646 0.00025836 2.94159e-07
-2.79358e-07 2.94159e-07 9.80478e-05
0.000658441 -1.57129e-05 1.34254e-07
-1.57129e-05 2.96226e-05 1.98449e-07
1.34254e-07 1.98449e-07 -4.65914e-05
0.000477372 -2.16113e-05 -2.11017e-07
-2.16113e-05 -6.08818e-05 -7.42339e-07
-2.11017e-07 -7.42339e-07 -0.000184339
0.00167142 -2.79673e-05 -8.39364e-07
-2.79673e-05 0.00010094 3.34438e-08
-8.39364e-07 3.34438e-08 -8.4494e-06
0.00184057 -8.47396e-05 -6.403e-07
-8.47396e-05 0.000206468 1.04082e-06
-6.403e-07 1.04082e-06 9.10677e-05
0.00161955 -6.14328e-05 4.2634e-07
-6.14328e-05 6.00258e-06 1.00348e-07
4.2634e-07 1.00348e-07 -8.91447e-05
0.00176482 -0.00015302 -3.71751e-06
-0.00015302 0.000108783 1.11648e-06
-3.71751e-06 1.11648e-06 1.12956e-05
0.00169637 -0.00020741 -3.01257e-06
-0.00020741 0.00013074 2.80838e-06
-3.01257e-06 2.80838e-06 2.93733e-06
0.00182917 -0.000175876 1.18069e-06
-0.000175876 0.000152434 2.01125e-08
1.18069e-06 2.01125e-08 5.78442e-05
0.00084345 -0.000166094 1.55105e-06
-0.000166094 0.000102071 -1.28089e-06
1.55105e-06 -1.28089e-06 -5.24488e-05
0.001617 -0.000252088 -4.00412e-06
-0.000252088 7.85153e-05 3.01877e-06
-4.00412e-06 3.01877e-06 -4.97017e-05
0.000451444 -0.000175764 6.30391e-07
-0.000175764 -0.000211841 -5.46592e-06
6.30391e-07 -5.46592e-06 -0.000407821
0.00192377 -0.00032716 3.71716e-06
-0.00032716 0.000451255 -6.00834e-07
3.71716e-06 -6.00834e-07 0.00021991
0.00170119 -0.000298516 1.32e-07
-0.000298516 0.000203918 5.46007e-06
1.32e-07 5.46007e-06 7.46399e-06
0.00190469 -0.000276461 -2.98113e-07
-0.000276461 0.000258185 1.45427e-06
-2.98113e-07 1.45427e-06 0.000110896
0.000613818 -1.66639e-05 1.48558e-06
-1.66639e-05 2.32442e-06 -2.93525e-06
1.48558e-06 -2.93525e-06 -6.52749e-05
0.000561651 -2.1989e-05 -1.96024e-07
-2.1989e-05 -1.28643e-06 -2.09046e-06
-1.96024e-07 -2.09046e-06 -0.000120167
0.000887366 -0.000179727 2.13494e-07
-0.000179727 0.000134678 1.76431e-06
2.13494e-07 1.76431e-06 -2.29341e-05
0.000813864 -0.000125609 1.60415e-06
-0.000125609 0.000147373 1.03498e-06
1.60415e-06 1.03498e-06 -7.07151e-06
0.00129182 -0.000215668 -1.45198e-06
-0.000215668 0.000384071 3.86048e-06
-1.45198e-06 3.86048e-06 0.000220806
0.000553153 -5.66305e-05 -1.02707e-06
-5.66305e-05 -3.48673e-05 -4.41231e-06
-1.02707e-06 -4.41231e-06 -5.76977e-05
0.00134128 0.00015221 -4.73694e-06
0.00015221 7.32158e-05 -1.28449e-06
-4.73694e-06 -1.28449e-06 -7.94897e-05
0.000564395 -5.48912e-05 -1.18831e-07
-5.48912e-05 -1.8136e-05 -2.66912e-06
-1.18831e-07 -2.66912e-06 -8.62698e-05
0.000726925 4.67952e-05 -1.18936e-06
4.67952e-05 7.24639e-05 -3.96206e-06
-1.18936e-06 -3.96206e-06 -3.38631e-05
0.000686787 1.94667e-05 1.64491e-06
1.94667e-05 6.45516e-05 -1.82157e-06
1.64491e-06 -1.82157e-06 -5.7173e-05
0.00131074 0.000199909 -6.52876e-06
0.000199909 0.0001186 -2.14462e-06
-6.52876e-06 -2.14462e-06 -4.80733e-05
0.0015773 0.000226596 -4.61181e-07
0.000226596 0.000154231 3.9249e-07
-4.61181e-07 3.9249e-07 -1.61502e-05
0.00105439 0.000181101 -2.14456e-06
0.000181101 0.000232231 -2.8491e-06
-2.14456e-06 -2.8491e-06 5.85188e-05
0.00128885 0.000243831 -3.0647e-06
0.000243831 0.000254303 -2.55331e-06
-3.0647e-06 -2.55331e-06 2.95319e-05
0.0017571 0.000259811 -3.51989e-06
0.000259811 0.000366254 -1.86072e-06
-3.51989e-06 -1.86072e-06 0.000184464
0.00124172 0.000239447 -7.60727e-06
0.000239447 7.08238e-05 -6.33456e-07
-7.60727e-06 -6.33456e-07 -0.000114964
0.0005829 -5.06054e-05 5.57337e-08
-5.06054e-05 -2.79994e-05 1.61963e-09
5.57337e-08 1.61963e-09 -4.7101e-05
0.000647504 -3.3743e-05 -6.07597e-07
-3.3743e-05 1.64126e-05 2.60921e-07
-6.07597e-07 2.60921e-07 -3.83828e-05
0.000927981 0.000123089 4.198e-07
0.000123089 0.000181951 4.01889e-07
4.198e-07 4.01889e-07 3.58928e-05
0.000711008 -5.59742e-07 -4.75487e-07
-5.59742e-07 8.34533e-05 3.81303e-07
-4.75487e-07 3.81303e-07 -2.09591e-05
0.000711142 8.57697e-05 1.01258e-06
8.57697e-05 8.56152e-05 -4.70656e-07
1.01258e-06 -4.70656e-07 -6.16697e-05
0.00160383 0.000196373 3.37711e-07
0.000196373 0.0001306 -4.96364e-07
3.37711e-07 -4.96364e-07 -2.53874e-05
0.00146985 0.000239673 7.49528e-07
0.000239673 0.00014153 6.48379e-07
7.49528e-07 6.48379e-07 -3.68161e-05
0.00166695 0.000261586 1.55389e-06
0.000261586 0.000155395 2.52471e-07
1.55389e-06 2.52471e-07 -1.06018e-05
0.00112937 0.000209444 1.21029e-06
0.000209444 0.000265897 1.54656e-06
1.21029e-06 1.54656e-06 4.90717e-05
0.00172284 0.000286798 2.89007e-07
0.000286798 0.000290296 -9.53497e-08
2.89007e-07 -9.53497e-08 0.000100566
0.00105142 0.000236379 -1.9917e-06
0.000236379 2.6205e-05 -8.56363e-08
-1.9917e-06 -8.56363e-08 -0.00019017
0.000689115 -2.00591e-05 2.14807e-06
-2.00591e-05 3.06555e-05 2.18241e-06
2.14807e-06 2.18241e-06 -1.78393e-05
0.000776922 3.16005e-05 5.58883e-07
3.16005e-05 0.000111206 1.98853e-06
5.58883e-07 1.98853e-06 2.30878e-05
0.000977802 0.000184768 -1.12449e-06
0.000184768 0.000208822 -9.21981e-08
-1.12449e-06 -9.21981e-08 3.28217e-05
0.000940812 4.16381e-05 -2.878e-07
4.16381e-05 0.000221202 1.09398e-06
-2.878e-07 1.09398e-06 9.42123e-05
0.0012768 0.000106569 -3.73937e-06
0.000106569 0.000383914 -4.02651e-06
-3.73937e-06 -4.02651e-06 0.000231992
0.00167139 0.00020785 -2.69604e-06
0.00020785 0.000126809 -2.66991e-06
-2.69604e-06 -2.66991e-06 -1.48816e-05
0.00164801 0.000289726 1.68268e-06
0.000289726 0.000192466 2.15507e-07
1.68268e-06 2.15507e-07 8.79945e-06
0.00150786 0.000280973 2.12423e-06
0.000280973 3.10311e-05 -1.12971e-06
2.12423e-06 -1.12971e-06 -0.000130507
0.00104359 0.000216439 -3.4355e-07
0.000216439 0.000186179 2.77598e-06
-3.4355e-07 2.77598e-06 -5.20288e-05
0.00139551 0.000285132 5.7939e-06
0.000285132 0.000122416 -4.88133e-07
5.7939e-06 -4.88133e-07 -8.5543e-05
0.000663231 -2.23329e-05 -1.76708e-07
-2.23329e-05 1.23399e-05 3.51427e-09
-1.76708e-07 3.51427e-09 -3.37864e-05
0.000584899 1.08796e-05 1.45925e-06
1.08796e-05 -1.88816e-05 1.34321e-06
1.45925e-06 1.34321e-06 -8.93053e-05
0.0006006 -4.12264e-06 -5.7535e-07
-4.12264e-06 -4.7881e-06 -7.86493e-08
-5.7535e-07 -7.86493e-08 -7.60347e-05
0.000922388 6.74229e-05 6.96361e-07
6.74229e-05 0.000193949 -2.92617e-07
6.96361e-07 -2.92617e-07 0.000106029
0.000715739 5.0829e-05 1.7564e-06
5.0829e-05 6.53021e-05 1.17083e-06
1.7564e-06 1.17083e-06 -7.48439e-06
0.000666689 1.22328e-05 1.59662e-06
1.22328e-05 1.38427e-05 2.10837e-06
1.59662e-06 2.10837e-06 -3.05598e-05
0.000666149 -1.78775e-05 -5.81571e-07
-1.78775e-05 1.26586e-05 2.52144e-08
-5.81571e-07 2.52144e-08 -3.2018e-05
0.00125773 -3.96627e-05 7.72208e-07
-3.96627e-05 0.000347095 2.42769e-06
7.72208e-07 2.42769e-06 0.000337919
0.000662812 -3.29664e-05 -9.07967e-07
-3.29664e-05 1.18761e-05 -2.11388e-06
-9.07967e-07 -2.11388e-06 -3.3855e-05
0.00129048 -4.75798e-05 -5.03997e-06
-4.75798e-05 0.000370911 -1.33025e-06
-5.03997e-06 -1.33025e-06 0.000360413
0.000883239 -3.71971e-05 2.23202e-05
-3.71971e-05 0.000141269 7.19594e-06
2.23202e-05 7.19594e-06 0.00014799
0.00129893 -5.4791e-05 -9.62778e-06
-5.4791e-05 0.000382586 -3.65779e-06
-9.62778e-06 -3.65779e-06 0.000369976
0.00155114 -5.97421e-05 2.03677e-05
-5.97421e-05 0.000540643 1.9364e-06
2.03677e-05 1.9364e-06 0.000547896
0.00224188 -8.40971e-05 -2.85029e-05
-8.40971e-05 0.000951896 -3.49221e-06
-2.85029e-05 -3.49221e-06 0.000959968
0.0005279 5.19431e-05 -2.91157e-07
5.19431e-05 -5.07204e-05 -4.89482e-06
-2.91157e-07 -4.89482e-06 -7.68234e-05
0.000549954 3.5937e-05 6.73781e-08
3.5937e-05 -3.40516e-05 1.86304e-07
6.73781e-08 1.86304e-07 -6.39691e-05
0.00266036 0.000102808 3.78361e-05
0.000102808 0.0012036 -3.403e-06
3.78361e-05 -3.403e-06 0.00120568
0.00297302 0.000109428 -5.73996e-06
0.000109428 0.00138951 -3.00699e-07
-5.73996e-06 -3.00699e-07 0.00138999
0.000612876 2.46354e-05 -3.19727e-06
2.46354e-05 4.98297e-06 6.83303e-06
-3.19727e-06 6.83303e-06 -3.05274e-05
0.00332848 0.000105824 -9.01212e-05
0.000105824 0.00159729 3.97561e-06
-9.01212e-05 3.97561e-06 0.00159823
0.00136084 0.000127128 -4.65666e-06
0.000127128 6.31759e-05 -8.88948e-07
-4.65666e-06 -8.88948e-07 -8.23601e-05
0.00136927 7.3038e-05 -3.98454e-06
7.3038e-05 4.94395e-05 -3.54794e-07
-3.98454e-06 -3.54794e-07 -8.33757e-05
0.00165 0.000128744 8.55439e-08
0.000128744 0.000114732 1.00241e-06
8.55439e-08 1.00241e-06 -1.52371e-05
0.0017545 7.14442e-05 8.37808e-07
7.14442e-05 0.000129221 6.09398e-07
8.37808e-07 6.09398e-07 1.92754e-05
0.00138446 3.2517e-05 -3.44031e-06
3.2517e-05 4.61569e-05 -1.17351e-07
-3.44031e-06 -1.17351e-07 -7.88258e-05
0.00106155 6.70255e-06 -1.18172e-05
6.70255e-06 -9.70892e-06 -4.18113e-08
-1.18172e-05 -4.18113e-08 -0.000122992
0.00139131 1.02441e-05 6.47148e-08
1.02441e-05 5.25182e-05 -2.28127e-08
6.47148e-08 -2.28127e-08 -7.11376e-05
0.00172737 3.16205e-05 -1.06673e-06
3.16205e-05 0.000115637 -1.90631e-08
-1.06673e-06 -1.90631e-08 8.91644e-06
0.00167899 0.000104681 -1.14414e-07
0.000104681 0.000102681 5.68002e-08
-1.14414e-07 5.68002e-08 -1.80716e-05
0.00180607 7.78193e-05 1.47126e-06
7.78193e-05 0.000100795 9.47726e-07
1.47126e-06 9.47726e-07 1.14985e-05
0.00162096 0.000158103 -2.40506e-07
0.000158103 0.000115373 -7.30852e-08
-2.40506e-07 -7.30852e-08 -2.59371e-05
0.00171237 0.000150471 -3.13981e-07
0.000150471 7.59088e-05 9.15468e-07
-3.13981e-07 9.15468e-07 -2.80655e-05
0.00170458 -2.40307e-07 -8.06905e-07
-2.40307e-07 0.000113208 7.99911e-08
-8.06905e-07 7.99911e-08 6.84927e-06
0.00168274 4.21657e-05 -2.06516e-07
4.21657e-05 4.15433e-05 7.38332e-07
-2.06516e-07 7.38332e-07 -4.70437e-05
0.00182485 0.000119292 -3.62049e-06
0.000119292 0.000118111 -9.68308e-07
-3.62049e-06 -9.68308e-07 2.56257e-05
0.00181518 8.25871e-05 1.74134e-06
8.25871e-05 8.97122e-05 9.7086e-08
1.74134e-06 9.7086e-08 1.75258e-05
0.00164542 0.000162892 -1.61181e-06
0.000162892 7.49312e-05 -2.57195e-06
-1.61181e-06 -2.57195e-06 -4.46052e-05
0.00187272 0.000162312 1.76328e-06
0.000162312 0.00013023 7.01806e-08
1.76328e-06 7.01806e-08 4.29126e-05
0.0014018 -1.04076e-05 -5.46522e-06
-1.04076e-05 6.18946e-05 2.91742e-07
-5.46522e-06 2.91742e-07 -6.14482e-05
0.00171303 -7.78734e-05 -6.8962e-06
-7.78734e-05 0.000250537 6.38728e-07
-6.8962e-06 6.38728e-07 0.000124947
0.00164164 -4.51318e-05 1.00352e-06
-4.51318e-05 8.81619e-05 -7.1231e-07
1.00352e-06 -7.1231e-07 -1.81261e-05
0.0016679 -0.00012218 -6.0846e-07
-0.00012218 0.00012569 -2.3735e-07
-6.0846e-07 -2.3735e-07 -1.35043e-06
0.000885373 -0.000134828 -4.96724e-06
-0.000134828 0.00015228 4.73161e-06
-4.96724e-06 4.73161e-06 2.46418e-05
0.00118439 -0.000209948 -3.69451e-06
-0.000209948 0.000241188 4.23862e-06
-3.69451e-06 4.23862e-06 6.24069e-05
0.000809029 -0.000210588 -2.99122e-06
-0.000210588 -0.000128847 6.44176e-07
-2.99122e-06 6.44176e-07 -0.000330266
0.00161003 -0.00018535 -1.77876e-06
-0.00018535 0.000158392 1.11225e-08
-1.77876e-06 1.11225e-08 1.10084e-05
0.00179035 -0.000175943 3.23513e-06
-0.000175943 0.000163134 -2.00214e-06
3.23513e-06 -2.00214e-06 5.59365e-05
0.00166374 -0.00023508 1.71413e-06
-0.00023508 0.000148656 -1.4371e-06
1.71413e-06 -1.4371e-06 8.1517e-07
0.00161414 -0.000281261 -1.34924e-06
-0.000281261 0.000198179 -1.54826e-06
-1.34924e-06 -1.54826e-06 -2.49549e-06
0.00198872 -0.000282289 4.66314e-06
-0.000282289 0.000328618 -6.24525e-06
4.66314e-06 -6.24525e-06 0.000177633
0.000922285 -0.000141246 -1.448e-06
-0.000141246 0.000166203 2.03911e-07
-1.448e-06 2.03911e-07 2.32938e-05
0.00076054 -0.000132454 -1.21679e-06
-0.000132454 8.07859e-05 -1.2935e-06
-1.21679e-06 -1.2935e-06 -6.93572e-05
0.00071476 -2.01284e-05 -1.53042e-06
-2.01284e-05 6.08496e-05 3.24215e-06
-1.53042e-06 3.24215e-06 -1.56385e-05
0.000480091 -3.19926e-06 5.02324e-08
-3.19926e-06 -6.15638e-05 -7.12065e-08
5.02324e-08 -7.12065e-08 -0.000180629
0.00166218 -2.77387e-05 -9.3946e-09
-2.77387e-05 9.61914e-05 5.68589e-08
-9.3946e-09 5.68589e-08 -1.33059e-05
0.00175892 -8.38511e-05 -1.72757e-07
-8.38511e-05 0.000159554 -1.74395e-07
-1.72757e-07 -1.74395e-07 4.2317e-05
0.00169236 -6.1266e-05 1.38704e-06
-6.1266e-05 4.84573e-05 -3.55246e-07
1.38704e-06 -3.55246e-07 -4.44105e-05
0.00169553 -0.000149754 -1.28691e-06
-0.000149754 7.684e-05 5.86136e-07
-1.28691e-06 5.86136e-07 -2.25648e-05
0.00096499 -0.000166963 -3.80557e-07
-0.000166963 0.000170541 9.89964e-07
-3.80557e-07 9.89964e-07 1.61623e-05
0.000719742 -0.000194479 1.32591e-06
-0.000194479 -5.60197e-05 -2.10117e-06
1.32591e-06 -2.10117e-06 -0.000252077
0.001619 -0.000303854 -4.09712e-08
-0.000303854 0.000274438 8.52835e-07
-4.09712e-08 8.52835e-07 4.40638e-05
0.00164436 -0.000204807 -1.40866e-06
-0.000204807 0.00010573 6.70969e-07
-1.40866e-06 6.70969e-07 -2.52336e-05
0.00173661 -0.000175186 2.03647e-06
-0.000175186 9.46883e-05 -1.08075e-06
2.03647e-06 -1.08075e-06 3.37698e-06
0.00169361 -0.000299543 -7.27947e-07
-0.000299543 0.000201569 1.03139e-06
-7.27947e-07 1.03139e-06 4.09661e-06
0.00166578 -0.00025416 -3.72543e-07
-0.00025416 0.00010799 9.63563e-07
-3.72543e-07 9.63563e-07 -2.04234e-05
0.00180031 -0.000271397 3.0541e-06
-0.000271397 0.000189125 -4.55512e-06
3.0541e-06 -4.55512e-06 4.54853e-05
0.00101004 -0.000190578 3.01726e-07
-0.000190578 0.000203426 8.90826e-07
3.01726e-07 8.90826e-07 4.39849e-05
0.00116438 -0.000197779 2.05634e-06
-0.000197779 0.0003042 8.25921e-07
2.05634e-06 8.25921e-07 0.000147457
0.000823891 -9.62246e-05 -3.70174e-07
-9.62246e-05 0.000149082 1.50102e-07
-3.70174e-07 1.50102e-07 -3.13515e-06
0.000516309 2.50247e-06 -9.52046e-07
2.50247e-06 -5.40357e-05 2.07367e-07
-9.52046e-07 2.07367e-07 -0.000123061
0.000488118 7.07032e-06 -2.05293e-07
7.07032e-06 -4.65755e-05 -7.21035e-07
-2.05293e-07 -7.21035e-07 -0.000161044
0.00178179 -3.86687e-05 1.51379e-07
-3.86687e-05 9.54011e-05 -4.54116e-07
1.51379e-07 -4.54116e-07 7.32856e-06
0.00178738 -8.91866e-05 6.76582e-07
-8.91866e-05 9.53885e-05 4.06058e-07
6.76582e-07 4.06058e-07 8.64075e-06
0.00184868 -0.000174756 -7.97533e-07
-0.000174756 0.000129271 -6.10505e-07
-7.97533e-07 -6.10505e-07 4.92855e-05
0.0015631 -0.00020325 -8.9651e-07
-0.00020325 1.45815e-05 8.25724e-07
-8.9651e-07 8.25724e-07 -8.7181e-05
0.000988736 -0.000196895 -9.42787e-07
-0.000196895 0.000176529 -1.63036e-06
-9.42787e-07 -1.63036e-06 1.53207e-06
0.00215203 -0.000297338 -2.94141e-06
-0.000297338 0.000335028 1.50002e-06
-2.94141e-06 1.50002e-06 0.000212276
0.000374091 -0.000188939 1.60221e-06
-0.000188939 -0.000290645 -6.02333e-06
1.60221e-06 -6.02333e-06 -0.00050456
0.0018092 -0.00034604 3.90436e-06
-0.00034604 0.00033396 1.84949e-06
3.90436e-06 1.84949e-06 8.96396e-05
0.00154156 -0.000294557 1.34352e-06
-0.000294557 7.80681e-05 4.16413e-06
1.34352e-06 4.16413e-06 -0.000111952
0.000323695 1.50482e-05 8.1769e-07
1.50482e-05 -0.000165858 -3.58965e-06
8.1769e-07 -3.58965e-06 -0.000227655
0.000773131 -2.54369e-05 1.0016e-06
-2.54369e-05 0.000124029 -1.37768e-06
1.0016e-06 -1.37768e-06 1.7298e-05
0.000938183 -6.10874e-05 -4.15259e-07
-6.10874e-05 0.000211677 -4.94522e-07
-4.15259e-07 -4.94522e-07 7.75323e-05
0.00108517 -0.000203708 -3.36657e-06
-0.000203708 0.000231572 2.16113e-06
-3.36657e-06 2.16113e-06 7.18019e-05
0.000694092 -0.000118142 3.08686e-06
-0.000118142 6.54264e-05 2.84313e-06
3.08686e-06 2.84313e-06 -0.000100616
0.00058682 -0.000167433 4.65425e-07
-0.000167433 -5.88793e-05 1.33714e-06
4.65425e-07 1.33714e-06 -0.000210775
0.000581862 -4.92536e-05 -1.1407e-06
-4.92536e-05 -2.916e-05 -4.25602e-06
-1.1407e-06 -4.25602e-06 -4.79883e-05
0.000613717 -3.66296e-05 -1.85789e-06
-3.66296e-05 -2.45308e-06 -2.08605e-06
-1.85789e-06 -2.08605e-06 -5.71765e-05
0.00160138 0.00019772 -9.48845e-07
0.00019772 0.00012631 -1.58342e-08
-9.48845e-07 -1.58342e-08 -3.02606e-05
0.000620766 -6.43818e-05 1.43287e-06
-6.43818e-05 3.07116e-05 -1.85505e-06
1.43287e-06 -1.85505e-06 -6.99097e-05
0.000799431 0.00011209 -8.88778e-07
0.00011209 0.000106942 -7.06079e-07
-8.88778e-07 -7.06079e-07 -3.53862e-05
0.000476401 5.2219e-05 1.70543e-06
5.2219e-05 -5.59791e-05 -8.81702e-08
1.70543e-06 -8.81702e-08 -0.000196929
0.00153799 0.000243198 -1.13312e-06
0.000243198 0.000182558 -3.84943e-07
-1.13312e-06 -3.84943e-07 3.7843e-06
0.00159581 0.000259128 8.79803e-07
0.000259128 0.000115506 5.97325e-07
8.79803e-07 5.97325e-07 -5.09521e-05
0.000999672 0.000198577 7.25452e-08
0.000198577 0.000199722 -1.51377e-06
7.25452e-08 -1.51377e-06 -1.84484e-05
0.00127506 0.000252045 -1.92696e-06
0.000252045 0.000146909 -5.17662e-07
-1.92696e-06 -5.17662e-07 -6.83358e-05
0.0017941 0.000293262 -4.19704e-06
0.000293262 0.000326574 -1.30407e-06
-4.19704e-06 -1.30407e-06 0.000136349
0.000661678 -2.0937e-05 -2.51562e-07
-2.0937e-05 1.53956e-05 7.92968e-08
-2.51562e-07 7.92968e-08 -3.31397e-05
0.000715888 -1.5773e-05 -8.89827e-07
-1.5773e-05 7.45335e-05 3.49058e-07
-8.89827e-07 3.49058e-07 -1.07489e-05
0.000979802 0.000184627 -8.11721e-07
0.000184627 0.000212435 -2.01404e-07
-8.11721e-07 -2.01404e-07 3.60802e-05
0.000785641 5.66073e-06 1.43281e-07
5.66073e-06 0.00012868 7.5638e-08
1.43281e-07 7.5638e-08 7.54573e-06
0.000961797 0.000121734 5.2256e-07
0.000121734 0.000218367 3.81082e-07
5.2256e-07 3.81082e-07 5.94326e-05
0.00166932 0.000210479 -1.74323e-06
0.000210479 0.00012487 -1.26025e-06
-1.74323e-06 -1.26025e-06 -1.79295e-05
0.00162947 0.000287488 1.30641e-06
0.000287488 0.000178717 3.17798e-07
1.30641e-06 3.17798e-07 -4.93285e-06
0.00163956 0.000284972 5.05626e-07
0.000284972 0.00010689 2.00733e-07
5.05626e-07 2.00733e-07 -5.37514e-05
0.00071815 0.00019285 1.69383e-07
0.00019285 -5.49995e-06 3.44725e-06
1.69383e-07 3.44725e-06 -0.00023886
0.00160994 0.000302405 -1.60394e-06
0.000302405 0.00024918 -6.54841e-07
-1.60394e-06 -6.54841e-07 3.66633e-05
0.000775834 2.43201e-05 9.4652e-07
2.43201e-05 9.94688e-05 1.50111e-06
9.4652e-07 1.50111e-06 2.30904e-05
0.000557396 -1.88285e-05 -9.67588e-07
-1.88285e-05 -9.48815e-06 2.54951e-06
-9.67588e-07 2.54951e-06 -0.000110246
0.000970714 0.00019372 -2.85934e-06
0.00019372 0.000183266 -8.73542e-07
-2.85934e-06 -8.73542e-07 -8.17042e-06
0.000839726 7.35722e-05 -2.94556e-06
7.35722e-05 0.000178363 -2.03632e-06
-2.94556e-06 -2.03632e-06 2.41482e-05
0.000874441 0.000176093 -1.10116e-06
0.000176093 0.000142289 -1.81637e-06
-1.10116e-06 -1.81637e-06 -2.23974e-05
0.00157769 0.000225303 -2.79734e-07
0.000225303 -2.62448e-06 -2.54188e-06
-2.79734e-07 -2.54188e-06 -0.000120906
0.00186266 0.000331629 2.30584e-06
0.000331629 0.000284868 -1.80409e-06
2.30584e-06 -1.80409e-06 9.15686e-05
0.00150598 0.000291339 2.55542e-06
0.000291339 1.89994e-05 1.8105e-07
2.55542e-06 1.8105e-07 -0.000143173
0.00177411 0.000290512 4.02541e-06
0.000290512 0.000520133 6.88881e-06
4.02541e-06 6.88881e-06 0.00026792
0.00167067 0.000325093 -3.92562e-07
0.000325093 0.000260598 -1.01535e-06
-3.92562e-07 -1.01535e-06 4.06858e-05
0.000654312 -2.8467e-05 -1.43169e-06
-2.8467e-05 8.60951e-06 -2.14181e-06
-1.43169e-06 -2.14181e-06 -3.82404e-05
0.000650785 1.44694e-05 7.10968e-07
1.44694e-05 2.10674e-05 3.78784e-07
7.10968e-07 3.78784e-07 -5.00298e-05
0.000589478 -1.1286e-05 -1.72412e-07
-1.1286e-05 -7.77775e-06 6.86673e-07
-1.72412e-07 6.86673e-07 -8.78601e-05
0.000505867 -3.5735e-05 -7.71345e-07
-3.5735e-05 -6.14666e-05 -1.06776e-06
-7.71345e-07 -1.06776e-06 -0.000131487
0.000697845 2.1805e-05 -1.45935e-07
2.1805e-05 5.36052e-05 3.14486e-08
-1.45935e-07 3.14486e-08 -1.77323e-05
0.000723287 2.65401e-05 -1.2998e-07
2.65401e-05 7.04113e-05 -3.60976e-07
-1.2998e-07 -3.60976e-07 -1.06549e-05
0.00083625 5.49664e-05 -5.72261e-07
5.49664e-05 0.000144695 -9.90316e-07
-5.72261e-07 -9.90316e-07 5.42471e-05
0.000594976 -2.2461e-05 7.12417e-07
-2.2461e-05 6.32595e-06 4.05281e-07
7.12417e-07 4.05281e-07 -8.25762e-05
0.000719645 4.02198e-05 7.48233e-07
4.02198e-05 6.27679e-05 1.18331e-06
7.48233e-07 1.18331e-06 -5.80465e-06
0.000669408 1.88949e-05 1.55838e-06
1.88949e-05 1.89532e-05 2.10685e-06
1.55838e-06 2.10685e-06 -2.6319e-05
0.000670331 -5.66604e-06 -7.34808e-07
-5.66604e-06 1.63161e-05 1.63857e-08
-7.34808e-07 1.63857e-08 -2.82602e-05
0.00126455 -2.85478e-05 8.24137e-07
-2.85478e-05 0.000347773 2.37487e-06
8.24137e-07 2.37487e-06 0.000339526
0.000653903 -3.49178e-05 -5.51601e-07
-3.49178e-05 6.93207e-06 -2.09439e-06
-5.51601e-07 -2.09439e-06 -3.83812e-05
0.00129477 -3.6784e-05 -4.32666e-06
-3.6784e-05 0.000368437 -1.39531e-06
-4.32666e-06 -1.39531e-06 0.000359477
0.000892289 -3.0671e-05 1.85382e-05
-3.0671e-05 0.000140622 7.50576e-06
1.85382e-05 7.50576e-06 0.000148603
0.00132005 -4.53474e-05 -8.30484e-06
-4.53474e-05 0.000387672 -5.21945e-06
-8.30484e-06 -5.21945e-06 0.000377385
0.00082998 -3.81753e-05 6.99525e-06
-3.81753e-05 0.000110095 2.80232e-06
6.99525e-06 2.80232e-06 0.000116333
0.00217266 -7.90783e-05 -5.40865e-06
-7.90783e-05 0.000903912 -1.79165e-06
-5.40865e-06 -1.79165e-06 0.00091327
0.000558836 4.13346e-05 1.49197e-07
4.13346e-05 -4.27304e-05 -4.10342e-06
1.49197e-07 -4.10342e-06 -6.23541e-05
0.000551721 4.81356e-05 3.24701e-08
4.81356e-05 -3.69897e-05 1.04685e-07
3.24701e-08 1.04685e-07 -6.31135e-05
0.00248589 8.97489e-05 2.90368e-05
8.97489e-05 0.0010956 -3.69521e-06
2.90368e-05 -3.69521e-06 0.001101
0.000591798 2.97132e-05 -2.58719e-06
2.97132e-05 -1.0718e-05 5.79684e-06
-2.58719e-06 5.79684e-06 -4.02529e-05
0.00274203 0.000103339 -5.17889e-06
0.000103339 0.00125069 -3.42035e-07
-5.17889e-06 -3.42035e-07 0.00125276
0.00305533 0.000100229 -7.38036e-05
0.000100229 0.00143532 3.50765e-06
-7.38036e-05 3.50765e-06 0.00143798
0.00160713 0.000158745 -1.33755e-06
0.000158745 0.000105711 6.61611e-07
-1.33755e-06 6.61611e-07 -3.61472e-05
0.00170109 0.000102661 1.01846e-06
0.000102661 0.000116372 9.42512e-07
1.01846e-06 9.42512e-07 -4.09749e-06
0.0017206 0.000147703 2.41363e-06
0.000147703 7.77936e-05 2.23647e-06
2.41363e-06 2.23647e-06 -2.35802e-05
0.00182432 7.81184e-05 3.22419e-06
7.81184e-05 0.00010995 7.40878e-07
3.22419e-06 7.40878e-07 2.44335e-05
0.00173459 2.41214e-05 -7.43724e-07
2.41214e-05 0.000120988 1.69278e-08
-7.43724e-07 1.69278e-08 1.45295e-05
0.00138686 1.29678e-05 -3.32292e-06
1.29678e-05 4.97984e-05 4.68498e-08
-3.32292e-06 4.68498e-08 -7.39095e-05
0.00168097 2.11411e-06 -9.28812e-07
2.11411e-06 9.96227e-05 -4.77e-08
-9.28812e-07 -4.77e-08 -8.24496e-06
0.00170676 3.78067e-05 1.11742e-06
3.78067e-05 5.84442e-05 -3.19175e-08
1.11742e-06 -3.19175e-08 -3.18587e-05
0.00179688 0.000117629 -1.2608e-06
0.000117629 0.000101968 -4.07592e-07
-1.2608e-06 -4.07592e-07 8.2087e-06
0.00175707 8.12006e-05 2.14019e-06
8.12006e-05 5.61973e-05 4.72813e-07
2.14019e-06 4.72813e-07 -1.26315e-05
0.0016606 0.00016163 -7.30185e-07
0.00016163 8.99079e-05 -1.99283e-07
-7.30185e-07 -1.99283e-07 -2.95826e-05
0.00180287 0.000163515 3.43405e-06
0.000163515 8.88619e-05 1.17391e-06
3.43405e-06 1.17391e-06 4.57165e-06
0.00173203 -3.86427e-06 -9.0845e-07
-3.86427e-06 8.45581e-05 1.28398e-07
-9.0845e-07 1.28398e-07 -5.68011e-06
0.0017171 4.42903e-05 1.89844e-06
4.42903e-05 3.13276e-05 5.18761e-07
1.89844e-06 5.18761e-07 -3.32352e-05
0.00184334 0.000119061 1.45962e-06
0.000119061 8.9438e-05 -3.73121e-07
1.45962e-06 -3.73121e-07 1.84306e-05
0.00184468 0.000198555 -6.1952e-08
0.000198555 0.000121329 -1.3329e-06
-6.1952e-08 -1.3329e-06 3.03354e-05
0.00165111 -2.75045e-05 3.44695e-07
-2.75045e-05 9.07426e-05 1.13451e-07
3.44695e-07 1.13451e-07 -1.88629e-05
0.00167456 -8.48509e-05 9.08659e-07
-8.48509e-05 0.000111323 -1.07809e-06
9.08659e-07 -1.07809e-06 -7.86456e-06
0.00177312 -6.14428e-05 3.15661e-06
-6.14428e-05 9.58236e-05 -6.25168e-07
3.15661e-06 -6.25168e-07 5.21165e-06
0.00163226 -0.000146403 1.64386e-07
-0.000146403 4.8005e-05 -2.71659e-07
1.64386e-07 -2.71659e-07 -5.32728e-05
0.00113194 -0.000180335 -1.60814e-06
-0.000180335 0.000266773 3.00528e-06
-1.60814e-06 3.00528e-06 0.00010944
0.000945032 -0.000210326 4.08362e-07
-0.000210326 7.55877e-05 2.10773e-06
4.08362e-07 2.10773e-06 -0.000119642
0.0014347 -0.000290203 -3.33938e-06
-0.000290203 0.000165781 1.34952e-06
-3.33938e-06 1.34952e-06 -6.48925e-05
0.0015895 -0.00020213 1.27966e-07
-0.00020213 7.94016e-05 -7.34982e-07
1.27966e-07 -7.34982e-07 -5.47196e-05
0.00165494 -0.000175105 3.64251e-06
-0.000175105 4.34137e-05 -2.55857e-06
3.64251e-06 -2.55857e-06 -4.47276e-05
0.00171615 -0.000256364 3.07054e-06
-0.000256364 0.000137615 -9.92278e-07
3.07054e-06 -9.92278e-07 8.98229e-06
0.00167351 -0.000299997 -1.40019e-06
-0.000299997 0.000191453 -3.2927e-06
-1.40019e-06 -3.2927e-06 -6.91883e-06
0.00169473 -0.000266396 2.53675e-06
-0.000266396 0.000120377 -1.0423e-05
2.53675e-06 -1.0423e-05 -1.96612e-05
0.00118003 -0.000205444 9.26918e-07
-0.000205444 0.000300395 1.42339e-07
9.26918e-07 1.42339e-07 0.000138296
0.00104127 -0.000187849 1.40071e-06
-0.000187849 0.000226282 -3.65078e-06
1.40071e-06 -3.65078e-06 7.35115e-05
0.00078929 -7.69948e-05 9.20986e-08
-7.69948e-05 0.00012524 -5.67213e-07
9.20986e-08 -5.67213e-07 -2.54762e-05
0.00040759 1.44494e-05 -1.60986e-06
1.44494e-05 -0.000116034 2.86574e-06
-1.60986e-06 2.86574e-06 -0.000186928
0.000472721 3.32171e-05 5.76975e-07
3.32171e-05 -5.70348e-05 6.18275e-07
5.76975e-07 6.18275e-07 -0.000168388
0.00184082 -4.25607e-05 3.97699e-07
-4.25607e-05 0.00013143 -9.56164e-08
3.97699e-07 -9.56164e-08 4.30691e-05
0.00182373 -9.30032e-05 8.70059e-07
-9.30032e-05 0.000115321 -5.59005e-07
8.70059e-07 -5.59005e-07 2.74175e-05
0.001781 -0.000169883 -1.76141e-06
-0.000169883 9.34892e-05 1.2012e-07
-1.76141e-06 1.2012e-07 1.18232e-05
0.00108682 -0.000203968 -2.43978e-07
-0.000203968 0.000230236 1.13948e-06
-2.43978e-07 1.13948e-06 5.41677e-05
0.00100777 -0.000236912 2.01039e-06
-0.000236912 6.66503e-05 -3.23616e-06
2.01039e-06 -3.23616e-06 -0.000150352
0.00165804 -0.000336504 -3.7622e-07
-0.000336504 0.000250868 8.96533e-07
-3.7622e-07 8.96533e-07 4.36787e-06
0.00159657 -0.000204393 3.4579e-07
-0.000204393 2.97986e-05 -2.33127e-07
3.4579e-07 -2.33127e-07 -7.24159e-05
0.0016208 -0.000295814 8.95121e-07
-0.000295814 0.000124929 -2.53431e-06
8.95121e-07 -2.53431e-06 -5.93993e-05
0.00182294 -0.000279454 -4.85712e-07
-0.000279454 0.000156317 -1.06298e-06
-4.85712e-07 -1.06298e-06 3.33838e-05
0.000356283 2.45e-05 1.02552e-07
2.45e-05 -0.000149561 -8.10399e-07
1.02552e-07 -8.10399e-07 -0.000209042
0.00113068 -0.000206411 -2.69336e-07
-0.000206411 0.000251463 8.60063e-07
-2.69336e-07 8.60063e-07 9.19595e-05
0.000683017 -0.000172957 -5.56952e-07
-0.000172957 4.77747e-06 2.29794e-07
-5.56952e-07 2.29794e-07 -0.000142356
0.000950941 -0.000140283 -4.77213e-07
-0.000140283 0.000216196 3.53551e-07
-4.77213e-07 3.53551e-07 4.36949e-05
0.00102047 -6.08409e-05 -4.69968e-08
-6.08409e-05 0.000259433 -2.49037e-07
-4.69968e-08 -2.49037e-07 0.000125725
0.000652126 5.72877e-06 -3.69812e-07
5.72877e-06 4.91716e-05 3.69178e-07
-3.69812e-07 3.69178e-07 -5.52222e-05
0.00152558 -4.78875e-05 -5.28925e-07
-4.78875e-05 -7.1876e-05 8.66929e-08
-5.28925e-07 8.66929e-08 -0.000147744
0.00195488 -0.000130297 1.44479e-06
-0.000130297 0.000130465 -1.82253e-07
1.44479e-06 -1.82253e-07 6.67943e-05
0.00157521 -0.000194123 6.56114e-07
-0.000194123 -3.8021e-05 -3.70247e-07
6.56114e-07 -3.70247e-07 -0.000116156
0.00197563 -0.000257141 -1.28371e-06
-0.000257141 0.000171924 -9.17733e-07
-1.28371e-06 -9.17733e-07 7.66901e-05
0.00113639 -0.000221356 -2.60784e-06
-0.000221356 0.000232158 -1.65672e-06
-2.60784e-06 -1.65672e-06 4.63859e-05
0.00180994 -0.000311633 1.62111e-06
-0.000311633 0.000168839 4.33294e-06
1.62111e-06 4.33294e-06 1.7383e-05
0.0012874 -0.000298197 -8.68088e-07
-0.000298197 0.000153904 -2.75329e-06
-8.68088e-07 -2.75329e-06 -0.000110317
0.00161256 -0.000348854 -1.85243e-07
-0.000348854 0.000206634 3.94954e-06
-1.85243e-07 3.94954e-06 -4.9853e-05
0.000342387 4.45125e-05 -1.1713e-06
4.45125e-05 -0.00016231 -2.74292e-06
-1.1713e-06 -2.74292e-06 -0.000213679
0.000780084 -6.24108e-06 6.31176e-07
-6.24108e-06 0.000120335 -1.29718e-06
6.31176e-07 -1.29718e-06 2.7828e-05
0.000980888 -8.57574e-05 -5.25265e-07
-8.57574e-05 0.000241876 6.88737e-07
-5.25265e-07 6.88737e-07 0.000118933
0.000874969 -2.0803e-05 -9.39391e-07
-2.0803e-05 0.000177185 6.76158e-07
-9.39391e-07 6.76158e-07 1.79863e-05
0.000769092 -0.000191976 -1.36646e-06
-0.000191976 2.09079e-05 -1.72111e-07
-1.36646e-06 -1.72111e-07 -0.000136807
0.000935267 -0.000193146 -4.42226e-06
-0.000193146 0.000154562 2.30402e-06
-4.42226e-06 2.30402e-06 -1.80862e-05
0.000637531 -2.92789e-05 -2.01543e-06
-2.92789e-05 2.37156e-06 -2.07467e-06
-2.01543e-06 -2.07467e-06 -4.64562e-05
0.000635032 -5.45074e-05 9.87717e-08
-5.45074e-05 2.61123e-05 -1.3197e-06
9.87717e-08 -1.3197e-06 -5.62854e-05
0.00166923 0.000213399 -1.56236e-06
0.000213399 0.000123358 4.19968e-10
-1.56236e-06 4.19968e-10 -2.06068e-05
0.000615588 -2.98077e-05 7.56416e-07
-2.98077e-05 2.82247e-05 -1.03993e-06
7.56416e-07 -1.03993e-06 -8.74768e-05
0.000961579 0.000182666 8.74729e-07
0.000182666 0.000203615 -9.34599e-07
8.74729e-07 -9.34599e-07 2.77899e-05
0.000347979 6.83123e-05 2.205e-06
6.83123e-05 -0.000139399 9.94955e-07
2.205e-06 9.94955e-07 -0.000288745
0.00161988 0.000285836 -1.92999e-07
0.000285836 0.000169951 2.83208e-07
-1.92999e-07 2.83208e-07 -1.37344e-05
0.00179362 0.00029051 -1.22341e-06
0.00029051 0.000193726 1.25275e-06
-1.22341e-06 1.25275e-06 3.37433e-05
0.000540036 0.000180686 -1.19294e-06
0.000180686 -0.00011297 7.75997e-07
-1.19294e-06 7.75997e-07 -0.000342932
0.00184005 0.00032033 -2.41758e-06
0.00032033 0.000386045 8.59423e-07
-2.41758e-06 8.59423e-07 0.000167978
0.000710862 -4.03603e-08 -7.51522e-07
-4.03603e-08 6.01322e-05 1.55777e-07
-7.51522e-07 1.55777e-07 -1.40415e-05
0.000661377 1.87598e-06 3.20721e-07
1.87598e-06 4.98364e-05 1.11814e-06
3.20721e-07 1.11814e-06 -5.23807e-05
0.00115194 0.000209002 -2.64523e-07
0.000209002 0.000296236 -2.55443e-06
-2.64523e-07 -2.55443e-06 0.000100418
0.000553394 9.39404e-06 -6.25151e-07
9.39404e-06 -3.77402e-06 -2.05464e-07
-6.25151e-07 -2.05464e-07 -0.000143374
0.00069426 0.000145222 -1.57881e-06
0.000145222 3.39599e-05 -6.47087e-07
-1.57881e-06 -6.47087e-07 -0.000114977
0.00184962 0.0002354 -2.49325e-06
0.0002354 0.000152096 -1.28377e-06
-2.49325e-06 -1.28377e-06 3.5919e-05
0.00190911 0.000330896 1.2909e-06
0.000330896 0.000313318 -2.17198e-07
1.2909e-06 -2.17198e-07 0.000121791
0.00165636 0.000306991 1.18362e-06
0.000306991 9.83253e-05 1.79998e-06
1.18362e-06 1.79998e-06 -6.5944e-05
0.00139263 0.000262792 2.92859e-06
0.000262792 0.000312676 4.0428e-06
2.92859e-06 4.0428e-06 5.65342e-05
0.00158727 0.000322337 -2.88975e-06
0.000322337 0.000211901 4.62054e-07
-2.88975e-06 4.62054e-07 -1.04382e-05
0.000450196 -2.6483e-05 -3.56978e-07
-2.6483e-05 -7.83956e-05 2.10289e-06
-3.56978e-07 2.10289e-06 -0.000164356
0.000346283 6.91809e-05 -1.20921e-07
6.91809e-05 -0.000106924 1.12673e-06
-1.20921e-07 1.12673e-06 -0.000237865
0.00121056 0.000221289 1.47133e-06
0.000221289 0.00029215 3.22008e-06
1.47133e-06 3.22008e-06 7.96213e-05
-0.000413736 5.27937e-05 2.43427e-06
5.27937e-05 -0.00057091 -2.91233e-08
2.43427e-06 -2.91233e-08 -0.000727056
0.00187695 0.000243486 -2.98808e-06
0.000243486 3.96893e-05 -9.45513e-07
-2.98808e-06 -9.45513e-07 -3.67145e-05
0.00207501 0.000290751 4.75368e-07
0.000290751 0.000273764 -1.52178e-07
4.75368e-07 -1.52178e-07 0.000142289
0.00178183 0.000360051 -1.94728e-06
0.000360051 0.000225042 -3.10811e-06
-1.94728e-06 -3.10811e-06 1.83767e-05
-3.76821e-05 0.00017173 -3.36136e-07
0.00017173 -0.000569181 1.61634e-06
-3.36136e-07 1.61634e-06 -0.000823337
0.000707902 3.8232e-05 -8.64305e-07
3.8232e-05 5.90415e-05 -5.03598e-07
-8.64305e-07 -5.03598e-07 -1.49238e-05
0.000664257 1.77033e-05 -1.69568e-07
1.77033e-05 4.0798e-05 4.23165e-07
-1.69568e-07 4.23165e-07 -4.27592e-05
0.000875954 3.25936e-06 -9.90325e-07
3.25936e-06 0.000164898 -8.00482e-07
-9.90325e-07 -8.00482e-07 8.12841e-05
0.000682599 -1.31163e-05 -1.3273e-06
-1.31163e-05 3.94799e-05 -1.06158e-06
-1.3273e-06 -1.06158e-06 -2.7697e-05
0.000527909 -1.86022e-05 -2.26158e-07
-1.86022e-05 -3.99475e-05 -7.12498e-07
-2.26158e-07 -7.12498e-07 -0.000121477
0.00070574 1.22674e-05 2.05377e-08
1.22674e-05 5.65139e-05 -6.96263e-09
2.05377e-08 -6.96263e-09 -1.31148e-05
0.000691702 5.45814e-05 -4.85487e-07
5.45814e-05 6.98898e-05 -3.28136e-07
-4.85487e-07 -3.28136e-07 -2.47791e-05
0.000661875 8.09624e-06 5.79386e-07
8.09624e-06 4.72805e-05 3.6808e-07
5.79386e-07 3.6808e-07 -4.28967e-05
0.000770502 2.49796e-05 9.72449e-07
2.49796e-05 0.000104822 -7.14652e-08
9.72449e-07 -7.14652e-08 1.5578e-05
0.000737161 -3.04465e-05 1.09153e-06
-3.04465e-05 9.05344e-05 -4.9591e-07
1.09153e-06 -4.9591e-07 -5.87057e-06
0.000581554 3.18421e-05 5.62056e-07
3.18421e-05 -2.14001e-06 1.08607e-06
5.62056e-07 1.08607e-06 -9.28949e-05
0.000693309 5.29189e-05 1.02922e-06
5.29189e-05 5.15892e-05 1.47753e-06
1.02922e-06 1.47753e-06 -2.02389e-05
0.000638136 2.9489e-05 1.08311e-06
2.9489e-05 5.90142e-06 1.97643e-06
1.08311e-06 1.97643e-06 -4.11287e-05
0.000649746 -4.69623e-06 -6.27999e-07
-4.69623e-06 8.32289e-06 1.69195e-08
-6.27999e-07 1.69195e-08 -3.74387e-05
0.00127282 -1.8008e-05 6.40008e-07
-1.8008e-05 0.000350826 2.30849e-06
6.40008e-07 2.30849e-06 0.000342956
0.000651111 -3.13702e-05 -2.81101e-07
-3.13702e-05 6.2968e-06 -2.1291e-06
-2.81101e-07 -2.1291e-06 -3.89304e-05
0.00130207 -2.59019e-05 -3.60086e-06
-2.59019e-05 0.000369716 -1.4654e-06
-3.60086e-06 -1.4654e-06 0.00036151
0.000897096 -2.34201e-05 1.54826e-05
-2.34201e-05 0.000138901 7.82339e-06
1.54826e-05 7.82339e-06 0.000147733
0.00132843 -3.46292e-05 -6.88286e-06
-3.46292e-05 0.000387934 -5.24365e-06
-6.88286e-06 -5.24365e-06 0.000379002
0.000838388 -3.10735e-05 5.67041e-06
-3.10735e-05 0.000108731 2.91057e-06
5.67041e-06 2.91057e-06 0.000116539
0.000774596 -3.74243e-05 -1.62253e-06
-3.74243e-05 7.75776e-05 -2.00416e-06
-1.62253e-06 -2.00416e-06 8.3833e-05
0.000575616 3.46953e-05 4.52678e-07
3.46953e-05 -4.26446e-05 -3.6414e-06
4.52678e-07 -3.6414e-06 -5.71494e-05
0.000572398 4.46426e-05 -8.91161e-08
4.46426e-05 -3.40895e-05 1.02146e-07
-8.91161e-08 1.02146e-07 -5.44175e-05
0.00230311 7.51977e-05 2.31601e-05
7.51977e-05 0.000981508 -3.87571e-06
2.31601e-05 -3.87571e-06 0.000990748
0.00057696 4.01116e-05 -1.66803e-06
4.01116e-05 -2.36913e-05 5.08768e-06
-1.66803e-06 5.08768e-06 -4.89706e-05
0.00255082 9.08927e-05 -4.79019e-06
9.08927e-05 0.00113353 -3.15277e-07
-4.79019e-06 -3.15277e-07 0.00113868
0.00281602 9.71947e-05 -5.45284e-05
9.71947e-05 0.00129245 3.29558e-06
-5.45284e-05 3.29558e-06 0.00129611
0.00167352 0.000160374 9.74539e-07
0.000160374 0.000103589 2.26623e-06
9.74539e-07 2.26623e-06 -1.58667e-05
0.00177273 0.000115908 3.28195e-07
0.000115908 8.8198e-05 4.84787e-07
3.28195e-07 4.84787e-07 -6.83423e-06
0.00173695 0.000164693 4.07497e-06
0.000164693 4.98802e-05 1.76186e-06
4.07497e-06 1.76186e-06 -3.13991e-05
0.00171986 8.02933e-05 2.56225e-06
8.02933e-05 3.52528e-05 1.04026e-06
2.56225e-06 1.04026e-06 -3.01912e-05
0.00173308 3.42529e-05 2.82924e-06
3.42529e-05 7.6762e-05 -2.60035e-07
2.82924e-06 -2.60035e-07 -1.53079e-05
0.00166269 8.80054e-07 -8.32055e-07
8.80054e-07 8.87728e-05 -2.61558e-08
-8.32055e-07 -2.61558e-08 -2.05356e-05
0.00174507 -7.7684e-07 -1.96814e-07
-7.7684e-07 9.29582e-05 -1.46029e-08
-1.96814e-07 -1.46029e-08 3.17572e-06
0.00170079 4.35151e-05 1.90838e-06
4.35151e-05 3.10182e-05 -2.88903e-07
1.90838e-06 -2.88903e-07 -3.5347e-05
0.00183011 0.000122814 3.48063e-07
0.000122814 8.12594e-05 -4.79951e-07
3.48063e-07 -4.79951e-07 1.01044e-05
0.00191716 0.000196315 2.82799e-07
0.000196315 0.000151188 2.69574e-07
2.82799e-07 2.69574e-07 6.18955e-05
0.00166107 -2.84737e-06 -1.48648e-06
-2.84737e-06 1.36514e-05 2.07371e-07
-1.48648e-06 2.07371e-07 -5.62998e-05
0.00196466 8.65478e-05 3.0123e-06
8.65478e-05 0.000102834 1.96401e-07
3.0123e-06 1.96401e-07 5.78817e-05
0.00176173 0.000178207 1.45063e-06
0.000178207 -9.68799e-06 -4.13263e-07
1.45063e-06 -4.13263e-07 -7.97496e-05
0.00190226 -4.62993e-05 1.79012e-06
-4.62993e-05 0.000168724 1.70564e-07
1.79012e-06 1.70564e-07 8.00795e-05
0.00185546 -9.64679e-05 8.14122e-07
-9.64679e-05 0.000132694 -7.54396e-07
8.14122e-07 -7.54396e-07 4.36528e-05
0.00171007 -0.00016432 -9.4595e-07
-0.00016432 5.65476e-05 3.94263e-08
-9.4595e-07 3.94263e-08 -2.67879e-05
0.00119432 -0.000211801 -7.40621e-09
-0.000211801 0.000289241 4.03457e-06
-7.40621e-09 4.03457e-06 0.000112002
0.00176196 -0.000294427 -1.48421e-06
-0.000294427 0.000491627 2.13921e-06
-1.48421e-06 2.13921e-06 0.000270797
0.00154686 -0.00033024 -3.72733e-06
-0.00033024 0.000190076 -5.72596e-08
-3.72733e-06 -5.72596e-08 -5.79231e-05
0.00162504 -0.000205273 6.16832e-07
-0.000205273 4.25605e-05 -7.37221e-07
6.16832e-07 -7.37221e-07 -6.0041e-05
0.00149492 -0.000263911 6.14281e-09
-0.000263911 -2.45671e-05 -3.14916e-06
6.14281e-09 -3.14916e-06 -0.000148131
0.00171251 -0.000298675 -1.77872e-06
-0.000298675 0.000176338 -8.43481e-06
-1.77872e-06 -8.43481e-06 -2.61678e-06
0.00115933 -0.000207792 1.78981e-06
-0.000207792 0.000261919 3.44217e-07
1.78981e-06 3.44217e-07 0.000102837
0.000690985 -0.00017049 -6.80805e-06
-0.00017049 1.84675e-05 -1.11384e-06
-6.80805e-06 -1.11384e-06 -0.000122739
0.00126933 -0.000165925 -1.99879e-07
-0.000165925 0.000408968 -2.81212e-07
-1.99879e-07 -2.81212e-07 0.000225435
0.000399554 1.88535e-05 -1.19264e-07
1.88535e-05 -0.000125145 1.3525e-06
-1.19264e-07 1.3525e-06 -0.000183683
0.000947124 -5.78321e-05 5.93161e-07
-5.78321e-05 0.000213405 6.08828e-07
5.93161e-07 6.08828e-07 8.40551e-05
0.000540152 3.35235e-05 1.34922e-06
3.35235e-05 -2.16168e-05 1.90632e-06
1.34922e-06 1.90632e-06 -0.000123212
0.00172547 -4.88943e-05 -8.34378e-07
-4.88943e-05 4.03039e-05 1.0618e-07
-8.34378e-07 1.0618e-07 -3.5127e-05
0.00196114 -0.000133929 1.09292e-07
-0.000133929 0.000136077 -9.46956e-08
1.09292e-07 -9.46956e-08 7.05186e-05
0.00165062 -0.000194863 -1.4135e-07
-0.000194863 5.8472e-06 4.35378e-07
-1.4135e-07 4.35378e-07 -7.22332e-05
0.00116903 -0.000221787 -7.70152e-08
-0.000221787 0.000246815 1.91823e-06
-7.70152e-08 1.91823e-06 6.11287e-05
0.00107462 -0.000275788 -1.74375e-06
-0.000275788 4.5263e-05 2.05718e-07
-1.74375e-06 2.05718e-07 -0.00020816
0.00168521 -0.000352021 -3.30479e-06
-0.000352021 0.00024649 -7.05649e-08
-3.30479e-06 -7.05649e-08 -3.74074e-06
0.00192957 -0.000260407 1.04382e-06
-0.000260407 0.00014753 -5.70675e-07
1.04382e-06 -5.70675e-07 5.05309e-05
0.00169887 -0.000308297 1.12328e-06
-0.000308297 9.9489e-05 -1.83727e-06
1.12328e-06 -1.83727e-06 -5.2273e-05
0.000497741 3.36203e-05 4.62359e-08
3.36203e-05 -7.44344e-05 -8.2615e-07
4.62359e-08 -8.2615e-07 -0.000122583
0.000786575 -6.37761e-06 -5.00752e-07
-6.37761e-06 0.000123149 2.95877e-07
-5.00752e-07 2.95877e-07 3.11464e-05
0.000390078 -0.000159048 -2.74205e-06
-0.000159048 -0.000193703 2.21467e-06
-2.74205e-06 2.21467e-06 -0.000344368
0.00136534 -0.000215203 -1.76372e-08
-0.000215203 0.000412032 -1.59612e-07
-1.76372e-08 -1.59612e-07 0.000241267
0.000927831 -5.18371e-05 -1.31811e-07
-5.18371e-05 0.000213201 -2.66681e-07
-1.31811e-07 -2.66681e-07 5.38791e-05
0.000854824 -6.0732e-05 -4.06624e-07
-6.0732e-05 0.000168915 1.28616e-06
-4.06624e-07 1.28616e-06 4.58854e-05
0.00192711 -7.65711e-05 2.76702e-06
-7.65711e-05 8.83562e-05 2.43676e-07
2.76702e-06 2.43676e-07 3.94121e-05
0.00185913 -0.000187145 4.46797e-07
-0.000187145 3.14887e-05 -1.12517e-06
4.46797e-07 -1.12517e-06 -1.0011e-05
0.0018245 -0.000217309 3.55615e-07
-0.000217309 6.09496e-05 -7.40491e-07
3.55615e-07 -7.40491e-07 -8.44078e-06
0.00206485 -0.000351844 5.76133e-06
-0.000351844 0.000194127 -1.08517e-06
5.76133e-06 -1.08517e-06 7.3527e-05
9.2602e-05 -0.000155447 -3.56793e-06
-0.000155447 -0.000388145 -2.85987e-06
-3.56793e-06 -2.85987e-06 -0.000583081
0.00173365 -0.000363849 -1.51541e-06
-0.000363849 0.000237788 1.06547e-05
-1.51541e-06 1.06547e-05 6.43965e-06
0.00274239 -0.000444853 1.42196e-06
-0.000444853 0.000941758 -3.74846e-06
1.42196e-06 -3.74846e-06 0.000642254
0.000663937 3.39752e-05 4.41639e-07
3.39752e-05 1.48364e-05 -1.75676e-06
4.41639e-07 -1.75676e-06 -2.63109e-05
0.000712586 -9.12859e-05 2.14166e-06
-9.12859e-05 7.72165e-05 -1.96525e-06
2.14166e-06 -1.96525e-06 1.82819e-07
0.000499959 2.80148e-05 -7.69691e-07
2.80148e-05 -4.46012e-05 -1.86901e-06
-7.69691e-07 -1.86901e-06 -0.000128899
0.00076991 -3.78974e-05 3.82762e-07
-3.78974e-05 0.000129733 1.04933e-06
3.82762e-07 1.04933e-06 1.41531e-05
0.00064077 -1.0727e-05 1.52623e-06
-1.0727e-05 3.8616e-05 -1.78626e-06
1.52623e-06 -1.78626e-06 -8.90721e-05
0.000183188 -9.7494e-05 1.13424e-06
-9.7494e-05 -0.000199516 1.07691e-06
1.13424e-06 1.07691e-06 -0.000358239
0.000218215 -0.000155205 -5.6104e-07
-0.000155205 -0.000338118 -9.45581e-07
-5.6104e-07 -9.45581e-07 -0.000480757
0.0025064 -0.000311993 -8.72529e-06
-0.000311993 0.00111681 2.92123e-06
-8.72529e-06 2.92123e-06 0.000881841
0.000675505 -2.08351e-05 -1.03397e-06
-2.08351e-05 3.54911e-05 -8.97987e-07
-1.03397e-06 -8.97987e-07 -3.48298e-05
0.000825518 7.35675e-06 2.03909e-07
7.35675e-06 0.000146391 -6.11858e-07
2.03909e-07 -6.11858e-07 4.11902e-05
0.00212282 0.000244625 -8.76895e-07
0.000244625 0.000309125 2.70119e-07
-8.76895e-07 2.70119e-07 0.000195206
0.000730518 4.08235e-05 -3.56566e-07
4.08235e-05 0.000105562 4.51433e-07
-3.56566e-07 4.51433e-07 -4.20633e-05
0.00134446 0.000225955 1.18286e-06
0.000225955 0.00041798 -3.24542e-06
1.18286e-06 -3.24542e-06 0.000215557
0.00049127 0.000113198 5.07258e-07
0.000113198 -8.44245e-05 5.39253e-07
5.07258e-07 5.39253e-07 -0.000218166
0.00192052 0.000327092 -1.26501e-06
0.000327092 0.000322676 4.3187e-07
-1.26501e-06 4.3187e-07 0.000133473
0.00178858 0.000321363 -9.99251e-07
0.000321363 0.000167373 3.75056e-06
-9.99251e-07 3.75056e-06 1.30504e-06
0.000971334 0.000233411 -1.61241e-07
0.000233411 8.11524e-05 -5.04698e-07
-1.61241e-07 -5.04698e-07 -0.000178631
0.00148638 0.000318681 -3.27072e-06
0.000318681 0.000151196 2.80825e-06
-3.27072e-06 2.80825e-06 -7.29071e-05
0.000510594 -4.20253e-06 -1.52395e-08
-4.20253e-06 -3.68672e-05 9.42246e-07
-1.52395e-08 9.42246e-07 -0.00012875
0.000488518 7.52459e-05 -6.35104e-07
7.52459e-05 -2.60871e-05 -1.70793e-06
-6.35104e-07 -1.70793e-06 -0.000158885
0.00117648 0.00022021 1.83705e-06
0.00022021 0.000284276 -2.23074e-06
1.83705e-06 -2.23074e-06 6.7394e-05
0.000618678 0.000127075 -1.19266e-06
0.000127075 1.40992e-05 -2.50709e-06
-1.19266e-06 -2.50709e-06 -0.000148161
0.00196438 0.000241479 8.35771e-07
0.000241479 8.65177e-05 -1.14884e-06
8.35771e-07 -1.14884e-06 1.29089e-05
0.00199355 0.000293526 2.7011e-06
0.000293526 0.000232679 7.82313e-07
2.7011e-06 7.82313e-07 9.65813e-05
0.00177948 0.000353652 -1.35523e-06
0.000353652 0.000218122 -6.45951e-08
-1.35523e-06 -6.45951e-08 1.40716e-05
0.00096427 0.000256268 6.23673e-07
0.000256268 -2.44892e-05 1.40509e-06
6.23673e-07 1.40509e-06 -0.000281964
0.000605007 1.882e-05 -3.4613e-07
1.882e-05 1.18589e-05 2.18672e-06
-3.4613e-07 2.18672e-06 -8.08393e-05
0.00196136 0.000190981 -2.32749e-06
0.000190981 6.20243e-05 1.25953e-06
-2.32749e-06 1.25953e-06 1.60388e-05
0.00150011 0.000216313 4.78831e-07
0.000216313 0.00056299 3.51197e-06
4.78831e-07 3.51197e-06 0.000384222
0.00109285 0.000222487 2.35736e-06
0.000222487 0.000212076 4.40989e-06
2.35736e-06 4.40989e-06 -5.73783e-06
0.0023428 0.000288895 -1.39781e-05
0.000288895 0.000329455 -2.48316e-06
-1.39781e-05 -2.48316e-06 0.000241518
0.0011624 0.000330489 -3.14122e-06
0.000330489 -0.000191649 -5.41287e-06
-3.14122e-06 -5.41287e-06 -0.00037899
0.00171023 0.000343534 -2.67633e-06
0.000343534 0.000312732 -4.50519e-07
-2.67633e-06 -4.50519e-07 5.68198e-05
0.000741608 2.91543e-05 -1.38891e-06
2.91543e-05 8.58535e-05 -2.16583e-07
-1.38891e-06 -2.16583e-07 2.64584e-06
0.000753694 1.92924e-05 -7.28139e-07
1.92924e-05 9.82312e-05 -2.26479e-07
-7.28139e-07 -2.26479e-07 1.26587e-05
0.000866536 5.74943e-06 -4.00844e-07
5.74943e-06 0.000174545 6.48336e-07
-4.00844e-07 6.48336e-07 8.62348e-05
0.00067412 -1.37224e-05 -2.74768e-07
-1.37224e-05 4.00506e-05 -1.49734e-06
-2.74768e-07 -1.49734e-06 -3.09071e-05
0.000705393 2.88192e-05 5.39504e-07
2.88192e-05 7.38752e-05 3.46918e-08
5.39504e-07 3.46918e-08 -1.67838e-05
0.000488637 -1.43808e-06 -8.50621e-07
-1.43808e-06 -3.81371e-05 3.45571e-07
-8.50621e-07 3.45571e-07 -0.000135789
0.000681762 -3.59569e-06 -3.5037e-07
-3.59569e-06 5.02636e-05 -4.05462e-08
-3.5037e-07 -4.05462e-08 -2.54208e-05
0.000569888 -2.48527e-05 -6.3035e-07
-2.48527e-05 -2.5474e-06 3.6315e-07
-6.3035e-07 3.6315e-07 -9.66243e-05
0.000631997 -1.98736e-05 6.61141e-07
-1.98736e-05 2.75361e-05 -2.05424e-07
6.61141e-07 -2.05424e-07 -6.10591e-05
0.000798742 2.42538e-05 3.61294e-07
2.42538e-05 0.00013525 6.47238e-08
3.61294e-07 6.47238e-08 3.24046e-05
0.000936204 1.19186e-05 6.012e-07
1.19186e-05 0.000182758 -8.81577e-07
6.012e-07 -8.81577e-07 9.83279e-05
0.00074799 -4.08972e-05 1.21806e-06
-4.08972e-05 8.90085e-05 -4.34226e-07
1.21806e-06 -4.34226e-07 -3.12744e-06
0.000784111 2.34085e-05 4.33457e-07
2.34085e-05 0.000123363 3.16894e-07
4.33457e-07 3.16894e-07 1.79707e-05
0.00067719 2.6746e-05 1.92355e-06
2.6746e-05 6.02218e-05 1.19106e-06
1.92355e-06 1.19106e-06 -4.11397e-05
0.000705601 1.60451e-05 1.22334e-06
1.60451e-05 5.81077e-05 1.5882e-06
1.22334e-06 1.5882e-06 -1.5931e-05
0.000633536 -1.44007e-05 -1.16805e-07
-1.44007e-05 3.56691e-06 1.84849e-06
-1.16805e-07 1.84849e-06 -4.30883e-05
0.000645557 -9.32015e-06 -2.5632e-07
-9.32015e-06 8.80944e-06 4.74724e-08
-2.5632e-07 4.74724e-08 -3.72562e-05
0.00127717 -7.80377e-06 5.16356e-07
-7.80377e-06 0.00035305 2.20596e-06
5.16356e-07 2.20596e-06 0.000344876
0.000661438 -2.24166e-05 4.28851e-07
-2.24166e-05 1.46604e-05 -2.23895e-06
4.28851e-07 -2.23895e-06 -3.07803e-05
0.00130804 -1.56298e-05 -2.69789e-06
-1.56298e-05 0.000371898 -1.52529e-06
-2.69789e-06 -1.52529e-06 0.000363915
0.00089175 -1.60161e-05 1.15787e-05
-1.60161e-05 0.000132541 8.01932e-06
1.15787e-05 8.01932e-06 0.000141938
0.00134136 -2.41109e-05 -4.95013e-06
-2.41109e-05 0.000392809 -5.35179e-06
-4.95013e-06 -5.35179e-06 0.000384459
0.000848387 -2.37535e-05 3.85561e-06
-2.37535e-05 0.000109748 3.02382e-06
3.85561e-06 3.02382e-06 0.000118532
0.000787907 -3.01224e-05 -1.121e-06
-3.01224e-05 7.86352e-05 -1.98604e-06
-1.121e-06 -1.98604e-06 8.66263e-05
0.000687344 9.37126e-06 8.19886e-07
9.37126e-06 2.5371e-05 -1.94791e-06
8.19886e-07 -1.94791e-06 -1.26003e-05
0.00059196 2.74738e-05 4.87939e-07
2.74738e-05 -4.02122e-05 -3.65978e-06
4.87939e-07 -3.65978e-06 -5.11478e-05
0.000596042 3.55479e-05 -1.08671e-08
3.55479e-05 -3.06507e-05 8.12457e-08
-1.08671e-08 8.12457e-08 -4.54288e-05
0.00219083 6.13685e-05 1.95012e-05
6.13685e-05 0.000907874 -4.08026e-06
1.95012e-05 -4.08026e-06 0.00092057
0.000594704 4.88635e-05 9.39466e-07
4.88635e-05 -1.99508e-05 4.59476e-06
9.39466e-07 4.59476e-06 -4.12862e-05
0.00238703 7.76675e-05 -3.43457e-06
7.76675e-05 0.00103103 -2.32463e-07
-3.43457e-06 -2.32463e-07 0.00103958
0.00263193 9.17464e-05 -3.60485e-05
9.17464e-05 0.00118062 3.59723e-06
-3.60485e-05 3.59723e-06 0.0011856
0.00198935 0.000194051 8.80427e-07
0.000194051 0.000180862 2.27692e-06
8.80427e-07 2.27692e-06 9.32846e-05
0.0018237 0.000126653 -3.18407e-07
0.000126653 7.6902e-05 7.72926e-08
-3.18407e-07 7.72926e-08 5.57041e-06
0.0016702 4.51571e-05 1.18387e-06
4.51571e-05 2.21613e-05 -5.20256e-07
1.18387e-06 -5.20256e-07 -4.60528e-05
0.00175327 2.49144e-06 1.18881e-06
2.49144e-06 9.85997e-05 -2.49187e-07
1.18881e-06 -2.49187e-07 9.2915e-06
0.00173425 1.45717e-06 -1.11079e-06
1.45717e-06 5.35456e-05 5.00057e-08
-1.11079e-06 5.00057e-08 -1.3877e-05
0.00196126 8.17985e-05 2.58604e-07
8.17985e-05 0.000100438 3.90599e-08
2.58604e-07 3.90599e-08 5.47711e-05
0.00182678 0.000182263 -9.08971e-07
0.000182263 2.51888e-05 -2.86539e-07
-9.08971e-07 -2.86539e-07 -4.42508e-05
0.00187272 3.84456e-06 2.80842e-06
3.84456e-06 3.79131e-05 2.3219e-08
2.80842e-06 2.3219e-08 3.97336e-06
0.00197835 0.000116526 2.3892e-06
0.000116526 5.67368e-05 3.89191e-07
2.3892e-06 3.89191e-07 1.8467e-05
0.00185604 6.35235e-05 -4.19977e-06
6.35235e-05 3.44386e-05 2.09501e-06
-4.19977e-06 2.09501e-06 5.24712e-05
0.00192667 -5.00032e-05 -1.04452e-06
-5.00032e-05 0.000153283 -1.91514e-07
-1.04452e-06 -1.91514e-07 7.82967e-05
0.00195709 -0.000138538 -2.27939e-06
-0.000138538 0.000134225 4.82776e-07
-2.27939e-06 4.82776e-07 6.70812e-05
0.0017277 -0.000196057 -1.80654e-06
-0.000196057 4.98365e-05 8.64998e-07
-1.80654e-06 8.64998e-07 -2.81337e-05
0.0012118 -0.000223517 -2.05144e-07
-0.000223517 0.000266705 6.05332e-06
-2.05144e-07 6.05332e-06 8.05793e-05
0.000814988 -0.000249863 8.20182e-07
-0.000249863 -8.82719e-05 5.79183e-06
8.20182e-07 5.79183e-06 -0.000332073
0.00177126 -0.000354706 -4.57109e-06
-0.000354706 0.000296779 -3.80499e-06
-4.57109e-06 -3.80499e-06 5.31168e-05
0.00188514 -0.000261473 2.84559e-06
-0.000261473 0.00012442 -6.59396e-07
2.84559e-06 -6.59396e-07 2.60555e-05
0.00157624 -0.000299838 -2.03542e-06
-0.000299838 3.04793e-05 -5.99153e-06
-2.03542e-06 -5.99153e-06 -0.000120565
0.00012044 -0.000135119 -3.71739e-06
-0.000135119 -0.000344441 3.88875e-06
-3.71739e-06 3.88875e-06 -0.000489703
0.00188523 -0.000248332 1.02118e-05
-0.000248332 0.000721557 -3.76711e-06
1.02118e-05 -3.76711e-06 0.000550269
0.000796049 -1.74619e-05 -5.04374e-07
-1.74619e-05 0.000127322 -4.93733e-08
-5.04374e-07 -4.93733e-08 -1.91746e-05
0.000634871 1.40778e-05 -3.42877e-07
1.40778e-05 3.33639e-06 1.01711e-06
-3.42877e-07 1.01711e-06 -4.19468e-05
0.000822076 1.63389e-05 -2.29334e-07
1.63389e-05 0.000141759 1.62815e-06
-2.29334e-07 1.62815e-06 5.01163e-05
0.000790157 -3.06787e-05 9.99984e-08
-3.06787e-05 0.000131251 2.33042e-06
9.99984e-08 2.33042e-06 7.87031e-06
0.00185957 -7.6772e-05 1.90906e-07
-7.6772e-05 4.94371e-05 4.72697e-08
1.90906e-07 4.72697e-08 1.9249e-06
0.000646784 1.15932e-05 1.05989e-06
1.15932e-05 5.37034e-06 8.17432e-08
1.05989e-06 8.17432e-08 -3.57599e-05
0.000590391 -2.63332e-05 -1.42618e-06
-2.63332e-05 -7.77771e-06 -3.96225e-08
-1.42618e-06 -3.96225e-08 -7.56759e-05
0.0018813 -0.000181789 -1.98529e-07
-0.000181789 5.80115e-05 2.74504e-07
-1.98529e-07 2.74504e-07 1.10911e-05
0.00176225 -0.000216859 -1.69775e-06
-0.000216859 2.39081e-05 5.17725e-07
-1.69775e-06 5.17725e-07 -4.67975e-05
0.00038523 -0.000176952 1.72739e-06
-0.000176952 -0.000209337 3.90801e-06
1.72739e-06 3.90801e-06 -0.000401308
0.00197123 -0.000378691 -2.83099e-06
-0.000378691 0.000519559 8.47777e-07
-2.83099e-06 8.47777e-07 0.000222199
0.00150823 -0.00034659 2.18589e-06
-0.00034659 0.000100463 -1.65754e-06
2.18589e-06 -1.65754e-06 -0.000123979
0.00203298 -0.000348645 2.38365e-06
-0.000348645 0.000189692 -1.05001e-06
2.38365e-06 -1.05001e-06 6.73458e-05
0.000753881 -1.80893e-05 1.00416e-06
-1.80893e-05 0.000102947 -9.58322e-07
1.00416e-06 -9.58322e-07 2.03574e-05
0.000772358 -2.52174e-05 1.85281e-07
-2.52174e-05 0.000131334 1.08844e-06
1.85281e-07 1.08844e-06 1.43615e-05
0.000926799 -0.000195342 -2.39986e-06
-0.000195342 6.66437e-05 -4.63435e-07
-2.39986e-06 -4.63435e-07 -8.3876e-05
0.0015011 -0.000233832 1.12761e-05
-0.000233832 0.00053484 -2.70932e-06
1.12761e-05 -2.70932e-06 0.000339504
0.000521053 -8.12533e-05 -2.08389e-06
-8.12533e-05 -1.74484e-05 4.66625e-08
-2.08389e-06 4.66625e-08 -0.000171866
0.000706886 -9.3232e-06 2.64559e-07
-9.3232e-06 8.33634e-05 -6.33234e-07
2.64559e-07 -6.33234e-07 -4.60952e-05
0.00188558 -8.43193e-05 2.61882e-06
-8.43193e-05 2.83148e-06 -1.35746e-07
2.61882e-06 -1.35746e-07 -3.24014e-05
0.00180987 -0.000191751 8.25345e-07
-0.000191751 -1.09866e-05 -8.78267e-07
8.25345e-07 -8.78267e-07 -1.91356e-05
0.00195301 -0.000320122 -9.01327e-07
-0.000320122 5.36062e-05 -1.6167e-06
-9.01327e-07 -1.6167e-06 -2.41457e-05
0.0016289 -0.000387526 2.78216e-06
-0.000387526 4.50198e-05 1.20008e-06
2.78216e-06 1.20008e-06 -0.0001041
0.000607561 -0.000156714 -8.19449e-06
-0.000156714 -8.04993e-05 -6.77109e-06
-8.19449e-06 -6.77109e-06 -0.0002709
0.00280562 -0.000481627 -6.04794e-06
-0.000481627 0.000943832 5.70873e-06
-6.04794e-06 5.70873e-06 0.000629536
0.000453198 5.65813e-05 -1.10016e-06
5.65813e-05 -7.92872e-05 -2.68059e-06
-1.10016e-06 -2.68059e-06 -0.000150782
0.000708784 -5.48281e-05 2.52e-06
-5.48281e-05 6.37124e-05 -1.3002e-06
2.52e-06 -1.3002e-06 -7.25824e-06
0.000934599 -7.31021e-05 1.65211e-06
-7.31021e-05 0.000207408 2.13481e-07
1.65211e-06 2.13481e-07 0.000114608
0.000488142 1.85674e-05 -6.36541e-07
1.85674e-05 -3.45735e-05 1.15895e-06
-6.36541e-07 1.15895e-06 -0.000147632
0.000949429 -4.77722e-05 -1.68524e-07
-4.77722e-05 0.000222829 1.71253e-07
-1.68524e-07 1.71253e-07 0.000107108
0.000990648 -4.7931e-05 2.69668e-06
-4.7931e-05 0.000217246 -3.30073e-07
2.69668e-06 -3.30073e-07 7.57858e-05
-0.000160227 -8.652e-05 6.33804e-06
-8.652e-05 -0.000288467 7.96556e-07
6.33804e-06 7.96556e-07 -0.000545794
0.000358669 -0.000205694 -1.5814e-05
-0.000205694 -0.000238133 2.97174e-06
-1.5814e-05 2.97174e-06 -0.000389807
0.000529729 2.67816e-05 -2.39641e-07
2.67816e-05 -2.20863e-05 -6.98489e-07
-2.39641e-07 -6.98489e-07 -0.000118128
0.000649734 9.36947e-05 -3.55023e-06
9.36947e-05 6.58902e-05 -3.41543e-06
-3.55023e-06 -3.41543e-06 -6.9547e-05
0.00203671 0.000239973 -1.77378e-06
0.000239973 0.000123505 -9.44599e-07
-1.77378e-06 -9.44599e-07 5.26036e-05
0.00192144 0.000297135 -1.32963e-08
0.000297135 0.0001965 2.20738e-06
-1.32963e-08 2.20738e-06 5.56067e-05
0.0015738 0.000177727 -5.50284e-06
0.000177727 0.000548075 -2.46418e-06
-5.50284e-06 -2.46418e-06 0.000384822
0.00105163 0.000210632 -1.82831e-06
0.000210632 0.000222936 -8.25261e-06
-1.82831e-06 -8.25261e-06 3.8301e-06
0.00179975 0.000349141 1.14966e-06
0.000349141 0.000223396 1.53985e-06
1.14966e-06 1.53985e-06 2.13901e-05
0.00194817 0.000337545 7.83107e-07
0.000337545 0.000513293 1.7008e-07
7.83107e-07 1.7008e-07 0.000251557
0.000660285 4.11653e-05 6.6791e-07
4.11653e-05 5.34914e-05 -8.07146e-07
6.6791e-07 -8.07146e-07 -4.73183e-05
0.00190722 0.000183499 2.51302e-07
0.000183499 1.88858e-05 -4.80651e-08
2.51302e-07 -4.80651e-08 -1.81491e-05
0.00094047 0.0001536 8.25235e-07
0.0001536 0.000239131 1.72774e-06
8.25235e-07 1.72774e-06 7.25995e-05
0.000748816 0.000195126 1.51159e-06
0.000195126 1.69948e-05 -1.52782e-07
1.51159e-06 -1.52782e-07 -0.000200517
0.00215976 0.000281276 2.51986e-06
0.000281276 0.000228985 3.59859e-07
2.51986e-06 3.59859e-07 0.000140965
0.00142725 0.000346065 -7.18203e-07
0.000346065 -4.581e-05 -2.18245e-06
-7.18203e-07 -2.18245e-06 -0.000232095
0.00206445 0.000372646 -6.85165e-08
0.000372646 0.000523348 1.76049e-07
-6.85165e-08 1.76049e-07 0.000264013
0.00116394 0.000101962 -2.35615e-06
0.000101962 0.000361947 2.84001e-06
-2.35615e-06 2.84001e-06 0.000227835
0.00235015 0.000198484 -3.24767e-05
0.000198484 0.000314158 -6.14037e-06
-3.24767e-05 -6.14037e-06 0.000310264
0.00240074 0.000326562 -4.02946e-06
0.000326562 0.00102829 4.87876e-07
-4.02946e-06 4.87876e-07 0.000827868
0.00219192 0.000342017 -6.74478e-06
0.000342017 0.000755911 1.58108e-06
-6.74478e-06 1.58108e-06 0.000514862
0.00188143 0.00038207 -1.318e-05
0.00038207 9.34185e-05 -1.0954e-05
-1.318e-05 -1.0954e-05 -2.70936e-05
0.00127465 0.000340743 -1.02299e-05
0.000340743 1.73503e-05 -1.56094e-06
-1.02299e-05 -1.56094e-06 -0.000218152
0.000499988 0.000240682 2.11784e-05
0.000240682 -0.000603459 -1.00056e-05
2.11784e-05 -1.00056e-05 -0.000816054
0.000622918 3.20912e-05 4.25593e-07
3.20912e-05 2.95477e-05 -2.52959e-07
4.25593e-07 -2.52959e-07 -5.91547e-05
0.000735961 1.22035e-05 -4.71383e-08
1.22035e-05 0.000106995 7.23618e-07
-4.71383e-08 7.23618e-07 1.69029e-05
0.00114929 3.22378e-05 3.9253e-07
3.22378e-05 0.000326508 -7.26361e-07
3.9253e-07 -7.26361e-07 0.000233243
0.000667455 -5.57525e-05 -1.5452e-07
-5.57525e-05 4.7163e-05 -1.90552e-06
-1.5452e-07 -1.90552e-06 -3.18174e-05
0.000617791 -4.45428e-05 -1.2465e-06
-4.45428e-05 2.19623e-05 2.76575e-08
-1.2465e-06 2.76575e-08 -6.94336e-05
0.000886357 0.000101947 -4.04853e-07
0.000101947 0.000186932 4.76171e-07
-4.04853e-07 4.76171e-07 8.25963e-05
0.000485699 -3.0836e-05 -1.03123e-06
-3.0836e-05 -5.07803e-05 1.20381e-06
-1.03123e-06 1.20381e-06 -0.000141888
0.000679563 -2.40061e-05 1.9936e-09
-2.40061e-05 5.30174e-05 -2.22791e-08
1.9936e-09 -2.22791e-08 -2.73276e-05
0.000665308 2.95754e-05 -7.31981e-08
2.95754e-05 4.18461e-05 -3.09209e-07
-7.31981e-08 -3.09209e-07 -5.13944e-05
0.000816544 6.90675e-06 -5.60504e-07
6.90675e-06 0.000115913 -3.18714e-07
-5.60504e-07 -3.18714e-07 2.9484e-05
0.000778758 7.20272e-06 3.38901e-07
7.20272e-06 0.000110753 6.34128e-09
3.38901e-07 6.34128e-09 1.22718e-05
0.000807795 -1.9309e-05 -9.99087e-08
-1.9309e-05 0.000122098 -1.29308e-07
-9.99087e-08 -1.29308e-07 2.89287e-05
0.000861115 5.34695e-06 -3.25385e-07
5.34695e-06 0.000135179 -1.49803e-06
-3.25385e-07 -1.49803e-06 5.01729e-05
0.000842605 2.11975e-05 -5.29884e-07
2.11975e-05 0.000135349 -1.41269e-06
-5.29884e-07 -1.41269e-06 3.43938e-05
0.000824849 5.46869e-05 5.40237e-07
5.46869e-05 0.000129048 5.14419e-07
5.40237e-07 5.14419e-07 3.27865e-05
0.000703689 3.46873e-05 3.14666e-07
3.46873e-05 7.43715e-05 1.05537e-06
3.14666e-07 1.05537e-06 -3.22272e-05
0.000551784 -1.70957e-05 -1.88557e-07
-1.70957e-05 -3.36615e-05 1.86536e-06
-1.88557e-07 1.86536e-06 -0.000110058
0.000888934 -1.62757e-05 2.02324e-07
-1.62757e-05 0.000196835 -8.34376e-07
2.02324e-07 -8.34376e-07 8.84044e-05
0.000504026 -3.64135e-06 -5.43549e-07
-3.64135e-06 -5.60293e-05 1.88909e-06
-5.43549e-07 1.88909e-06 -0.000136634
0.000612723 8.83203e-06 -7.74253e-07
8.83203e-06 -6.17779e-06 1.78463e-06
-7.74253e-07 1.78463e-06 -5.46334e-05
0.000625448 1.48786e-05 7.06418e-07
1.48786e-05 2.33717e-07 2.49593e-09
7.06418e-07 2.49593e-09 -4.7193e-05
0.000596831 2.11351e-06 1.646e-07
2.11351e-06 -4.32981e-05 3.65526e-06
1.646e-07 3.65526e-06 -5.61115e-05
0.000635256 -3.17831e-06 -9.01316e-07
-3.17831e-06 3.72192e-06 -2.04568e-06
-9.01316e-07 -2.04568e-06 -4.2965e-05
0.000963072 -5.08216e-06 -1.79188e-06
-5.08216e-06 0.000170253 -1.60595e-06
-1.79188e-06 -1.60595e-06 0.000159944
0.00228429 -1.206e-05 7.39935e-06
-1.206e-05 0.000943629 5.01759e-06
7.39935e-06 5.01759e-06 0.000960844
0.00134857 -1.40968e-05 -2.87967e-06
-1.40968e-05 0.000396037 -5.29828e-06
-2.87967e-06 -5.29828e-06 0.000387808
0.000848123 -1.60302e-05 2.03905e-06
-1.60302e-05 0.000106054 3.09977e-06
2.03905e-06 3.09977e-06 0.000115567
0.000802111 -2.24624e-05 -5.63912e-07
-2.24624e-05 8.18118e-05 -2.01594e-06
-5.63912e-07 -2.01594e-06 9.08787e-05
0.000650081 8.92115e-06 -3.37875e-07
8.92115e-06 6.23232e-06 -1.9528e-06
-3.37875e-07 -1.9528e-06 -3.10991e-05
0.000669631 -3.00927e-06 6.73615e-07
-3.00927e-06 1.61433e-05 -7.11141e-08
6.73615e-07 -7.11141e-08 -2.25361e-05
0.000616843 2.08927e-05 4.00597e-07
2.08927e-05 -2.97071e-05 -3.58635e-06
4.00597e-07 -3.58635e-06 -3.82508e-05
0.000925403 3.26676e-05 -4.16884e-07
3.26676e-05 0.000155032 4.57856e-08
-4.16884e-07 4.57856e-08 0.000145585
0.00213597 4.88098e-05 1.55148e-05
4.88098e-05 0.000869058 -4.25193e-06
1.55148e-05 -4.25193e-06 0.000884366
0.000604411 3.68683e-05 -6.19344e-08
3.68683e-05 -2.54262e-05 3.91825e-06
-6.19344e-08 3.91825e-06 -4.05428e-05
0.00224853 6.36392e-05 -2.7583e-06
6.36392e-05 0.000942462 -1.6138e-07
-2.7583e-06 -1.6138e-07 0.00095451
0.00245745 7.96765e-05 -2.58447e-05
7.96765e-05 0.00107258 3.95079e-06
-2.58447e-05 3.95079e-06 0.00108054
0.0018949 0.000186448 -3.22566e-06
0.000186448 6.17849e-05 -8.84516e-07
-3.22566e-06 -8.84516e-07 -7.08576e-06
0.00194565 7.74468e-05 -1.37715e-06
7.74468e-05 9.09227e-05 -1.86671e-07
-1.37715e-06 -1.86671e-07 4.45727e-05
0.00180983 3.18049e-06 -1.40098e-06
3.18049e-06 9.47175e-05 -3.67315e-07
-1.40098e-06 -3.67315e-07 2.98359e-05
0.00184909 5.592e-06 6.65436e-08
5.592e-06 2.82679e-05 -2.09958e-07
6.65436e-08 -2.09958e-07 -6.26058e-06
0.0019061 0.000114022 2.40849e-10
0.000114022 2.9034e-05 -1.51494e-07
2.40849e-10 -1.51494e-07 -1.06068e-05
0.00175656 5.84128e-05 2.96069e-06
5.84128e-05 -2.99636e-05 3.22272e-07
2.96069e-06 3.22272e-07 -2.00209e-05
0.00190894 1.39904e-05 8.99449e-07
1.39904e-05 -1.11555e-06 6.16701e-08
8.99449e-07 6.16701e-08 -1.00839e-06
0.002631 0.000224255 2.51978e-05
0.000224255 -7.78856e-05 -1.57124e-06
2.51978e-05 -1.57124e-06 -9.22591e-05
0.00199301 3.01866e-05 -2.62779e-05
3.01866e-05 0.000245526 5.5685e-06
-2.62779e-05 5.5685e-06 0.000289386
0.000665254 6.8746e-05 -6.61816e-07
6.8746e-05 4.29925e-05 -1.19259e-06
-6.61816e-07 -1.19259e-06 -2.33932e-05
0.00178915 -7.6775e-05 -2.72435e-06
-7.6775e-05 9.60498e-06 -2.23344e-07
-2.72435e-06 -2.23344e-07 -3.67966e-05
0.00191952 -0.000176108 -8.03535e-07
-0.000176108 9.52554e-05 1.08666e-06
-8.03535e-07 1.08666e-06 4.21089e-05
0.0017041 -0.000217424 9.29566e-07
-0.000217424 -1.03973e-05 1.3344e-06
9.29566e-07 1.3344e-06 -8.19491e-05
0.000599846 -0.000191226 3.6627e-06
-0.000191226 -7.61343e-05 8.14476e-06
3.6627e-06 8.14476e-06 -0.000263639
0.00116415 -0.000308696 2.18137e-06
-0.000308696 8.1201e-05 5.64783e-06
2.18137e-06 5.64783e-06 -0.000214645
0.00137653 -0.000339527 -7.60303e-07
-0.000339527 1.12046e-05 -8.77531e-06
-7.60303e-07 -8.77531e-06 -0.000209174
0.00199141 -0.000347534 -5.50327e-06
-0.000347534 0.00017881 -3.00296e-06
-5.50327e-06 -3.00296e-06 5.40907e-05
0.00160774 -0.000237037 9.55439e-06
-0.000237037 0.000450833 -2.98282e-06
9.55439e-06 -2.98282e-06 0.000292564
0.000461164 -0.000154618 8.44201e-06
-0.000154618 -6.29485e-05 -5.85318e-06
8.44201e-06 -5.85318e-06 -0.000219334
0.000878533 -9.06378e-05 -3.03216e-08
-9.06378e-05 0.000182108 -1.39419e-06
-3.03216e-08 -1.39419e-06 2.75834e-05
0.00064553 -1.36808e-06 -1.16171e-06
-1.36808e-06 4.47475e-06 1.93684e-06
-1.16171e-06 1.93684e-06 -3.60966e-05
0.000820823 -1.44113e-05 6.18499e-07
-1.44113e-05 0.000157667 3.92393e-07
6.18499e-07 3.92393e-07 2.46508e-05
0.000967368 -4.64058e-05 9.21703e-07
-4.64058e-05 0.000231556 2.0502e-07
9.21703e-07 2.0502e-07 0.000148147
0.000782407 -1.8228e-05 -2.53186e-07
-1.8228e-05 0.000134798 3.7767e-07
-2.53186e-07 3.7767e-07 1.81361e-05
0.000462594 -1.87424e-05 -1.53288e-06
-1.87424e-05 -8.68999e-05 1.48309e-06
-1.53288e-06 1.48309e-06 -0.000152001
0.0019181 -9.45417e-05 -1.26474e-07
-9.45417e-05 2.63477e-06 1.16504e-07
-1.26474e-07 1.16504e-07 -2.11846e-05
0.000560512 3.55563e-05 7.40105e-08
3.55563e-05 -1.41845e-05 -1.04749e-06
7.40105e-08 -1.04749e-06 -8.62639e-05
0.000700147 -5.42362e-05 3.00957e-07
-5.42362e-05 6.54645e-05 3.21489e-07
3.00957e-07 3.21489e-07 -9.56386e-06
0.000797757 -4.15052e-05 -3.88012e-07
-4.15052e-05 0.000130507 7.70855e-07
-3.88012e-07 7.70855e-07 3.50131e-05
0.00181144 -0.000196943 9.89466e-07
-0.000196943 -9.14621e-06 -3.08314e-07
9.89466e-07 -3.08314e-07 -2.27378e-05
0.00198774 -0.000319397 -1.05493e-06
-0.000319397 8.64497e-05 -4.90931e-07
-1.05493e-06 -4.90931e-07 4.54935e-06
0.00097916 -0.000206251 3.12716e-06
-0.000206251 0.000117448 -5.30974e-08
3.12716e-06 -5.30974e-08 -7.17754e-05
0.00189217 -0.000404484 4.1378e-06
-0.000404484 0.000466362 3.23835e-07
4.1378e-06 3.23835e-07 0.000160698
0.00182515 -0.000402663 -1.53012e-07
-0.000402663 0.000163424 1.78569e-06
-1.53012e-07 1.78569e-06 7.60037e-06
0.000579211 -7.48978e-06 -3.16884e-07
-7.48978e-06 1.99095e-05 -8.82262e-08
-3.16884e-07 -8.82262e-08 -9.17213e-05
0.000834314 -6.02768e-05 -1.23905e-06
-6.02768e-05 0.000162403 3.30725e-07
-1.23905e-06 3.30725e-07 3.95281e-05
0.000696492 -0.000232374 -3.89096e-06
-0.000232374 -2.96404e-05 1.19776e-06
-3.89096e-06 1.19776e-06 -0.000203985
0.000524361 -9.06086e-05 -3.32062e-07
-9.06086e-05 5.54568e-05 -1.02516e-06
-3.32062e-07 -1.02516e-06 -0.000171523
0.000739966 -6.41427e-05 -7.708e-08
-6.41427e-05 7.65159e-05 -2.87311e-07
-7.708e-08 -2.87311e-07 -6.27981e-05
0.00213452 -0.000185755 -2.74028e-06
-0.000185755 0.000109319 -1.01416e-06
-2.74028e-06 -1.01416e-06 0.000100349
0.00179641 -0.000214818 -6.66677e-06
-0.000214818 -5.50095e-05 1.28958e-06
-6.66677e-06 1.28958e-06 -4.6707e-05
0.00231849 -0.00043852 -4.24043e-06
-0.00043852 0.000285536 -6.03051e-07
-4.24043e-06 -6.03051e-07 0.000157094
0.0029771 -0.000517531 -2.07811e-05
-0.000517531 0.000907595 2.90858e-06
-2.07811e-05 2.90858e-06 0.000688406
0.00099005 -0.000228855 -9.2205e-06
-0.000228855 0.000160004 -3.68371e-06
-9.2205e-06 -3.68371e-06 -6.29512e-05
0.000488168 1.68837e-05 1.3863e-06
1.68837e-05 -5.01319e-05 -2.09208e-06
1.3863e-06 -2.09208e-06 -0.000142186
0.00048077 4.74826e-05 8.46977e-07
4.74826e-05 -5.90954e-05 -2.9822e-07
8.46977e-07 -2.9822e-07 -0.000157309
0.000619427 6.84457e-06 9.82967e-07
6.84457e-06 3.19687e-05 -1.11171e-06
9.82967e-07 -1.11171e-06 -7.46266e-05
0.00117754 -0.000126424 9.03612e-08
-0.000126424 0.0003729 2.36374e-06
9.03612e-08 2.36374e-06 0.000247098
0.00072552 -5.29746e-05 7.39855e-07
-5.29746e-05 7.96533e-05 2.43543e-06
7.39855e-07 2.43543e-06 -3.7765e-05
0.000184394 -5.85865e-05 2.55514e-06
-5.85865e-05 -0.000128902 1.02064e-06
2.55514e-06 1.02064e-06 -0.000358279
0.000585921 -0.000254335 3.62551e-06
-0.000254335 9.27113e-05 -7.34411e-07
3.62551e-06 -7.34411e-07 -0.000189452
0.0007528 7.26292e-05 8.42869e-07
7.26292e-05 0.000118032 -3.98011e-06
8.42869e-07 -3.98011e-06 7.14408e-06
0.000267849 7.17712e-05 2.07343e-07
7.17712e-05 -0.000152396 -1.27269e-06
2.07343e-07 -1.27269e-06 -0.000302599
0.00201107 0.000177958 6.53609e-06
0.000177958 6.56397e-05 2.73417e-08
6.53609e-06 2.73417e-08 3.78866e-05
0.00197428 0.000273465 1.03677e-05
0.000273465 0.00012775 2.00194e-06
1.03677e-05 2.00194e-06 4.03083e-05
0.00176179 0.000364885 7.71004e-06
0.000364885 0.000137246 2.70346e-06
7.71004e-06 2.70346e-06 -4.78311e-05
0.000409671 0.000169006 1.06071e-06
0.000169006 -0.000176952 -2.04448e-06
1.06071e-06 -2.04448e-06 -0.000393629
0.00245326 0.000405529 3.44533e-06
0.000405529 0.000751156 1.59768e-06
3.44533e-06 1.59768e-06 0.000489776
0.001239 8.46845e-05 -1.78341e-07
8.46845e-05 0.000395216 5.73969e-07
-1.78341e-07 5.73969e-07 0.000270929
0.00212106 0.00017264 -2.38269e-06
0.00017264 0.000202274 1.66262e-07
-2.38269e-06 1.66262e-07 0.000206728
0.00147826 0.000232859 -1.56516e-06
0.000232859 0.000503227 -2.55037e-07
-1.56516e-06 -2.55037e-07 0.000320998
0.00157054 0.000290767 -6.33311e-07
0.000290767 0.000430231 1.4319e-06
-6.33311e-07 1.4319e-06 0.000185877
0.00197436 0.000373945 -1.21007e-06
0.000373945 0.000149788 -2.56626e-06
-1.21007e-06 -2.56626e-06 3.35653e-05
0.00155369 0.000368068 -1.73442e-06
0.000368068 0.000169925 3.15195e-06
-1.73442e-06 3.15195e-06 -7.31575e-05
0.0017282 0.000310701 2.67819e-05
0.000310701 -0.00019773 1.22082e-06
2.67819e-05 1.22082e-06 -0.000489087
0.00119288 0.000147208 -3.16663e-06
0.000147208 0.000382987 -7.0732e-07
-3.16663e-06 -7.0732e-07 0.000238797
0.0022841 0.000285481 -3.73334e-05
0.000285481 0.000330456 -1.88739e-05
-3.73334e-05 -1.88739e-05 0.000331861
0.00123136 0.00023302 -4.88174e-06
0.00023302 0.000325718 -4.31588e-07
-4.88174e-06 -4.31588e-07 0.000143438
0.00103567 0.00027885 -3.33815e-06
0.00027885 5.54816e-05 -2.67975e-06
-3.33815e-06 -2.67975e-06 -0.000194347
0.000384043 0.000366173 -1.12903e-05
0.000366173 -0.000586327 -8.58998e-06
-1.12903e-05 -8.58998e-06 -0.000781289
0.00905334 0.000294956 -0.000144716
0.000294956 0.00216185 -3.82605e-05
-0.000144716 -3.82605e-05 0.00121484
0.00498417 0.000600258 0.000122282
0.000600258 0.000700438 -1.14122e-05
0.000122282 -1.14122e-05 0.000196609
0.00147745 0.000446496 2.16193e-05
0.000446496 2.86055e-05 1.44639e-05
2.16193e-05 1.44639e-05 -0.00015274
-0.00480995 -0.000545039 0.000244125
-0.000545039 -0.00154737 1.46614e-06
0.000244125 1.46614e-06 -0.00243594
0.00614478 -0.0016139 -9.29694e-06
-0.0016139 0.00107175 8.13277e-06
-9.29694e-06 8.13277e-06 0.00262812
0.000595047 2.12755e-05 1.67168e-06
2.12755e-05 3.16507e-05 2.45758e-07
1.67168e-06 2.45758e-07 -5.95637e-05
0.000880933 1.38156e-05 6.53155e-07
1.38156e-05 0.000184608 -6.72401e-07
6.53155e-07 -6.72401e-07 9.17965e-05
0.000911481 6.30225e-05 -1.69648e-06
6.30225e-05 0.000191744 -1.81358e-06
-1.69648e-06 -1.81358e-06 9.64204e-05
0.000663675 -5.85337e-05 8.06113e-08
-5.85337e-05 5.04741e-05 -1.59461e-06
8.06113e-08 -1.59461e-06 -3.41472e-05
0.00064065 5.45763e-05 -1.19733e-06
5.45763e-05 3.03118e-05 -1.09475e-06
-1.19733e-06 -1.09475e-06 -6.5949e-05
0.000784687 -3.4162e-05 2.62012e-08
-3.4162e-05 0.000115327 -3.51421e-07
2.62012e-08 -3.51421e-07 1.63512e-05
0.000865983 4.56464e-06 -1.42534e-06
4.56464e-06 0.000153339 1.32114e-06
-1.42534e-06 1.32114e-06 5.97503e-05
0.000733187 -2.36454e-06 -7.30279e-07
-2.36454e-06 6.99152e-05 3.02385e-08
-7.30279e-07 3.02385e-08 -1.84397e-05
0.000761027 6.54036e-05 -1.16178e-06
6.54036e-05 0.000102472 -3.82013e-07
-1.16178e-06 -3.82013e-07 -2.03233e-06
0.000611201 -7.55809e-06 -6.73387e-08
-7.55809e-06 6.13292e-06 6.9463e-07
-6.73387e-08 6.9463e-07 -7.27071e-05
0.000704216 2.05525e-05 6.03462e-08
2.05525e-05 7.19133e-05 -1.37817e-09
6.03462e-08 -1.37817e-09 -3.25341e-05
0.000794912 7.64283e-06 5.92484e-07
7.64283e-06 9.63831e-05 4.9224e-07
5.92484e-07 4.9224e-07 1.08769e-05
0.000835257 2.59325e-05 -5.11193e-07
2.59325e-05 0.00013019 -2.58874e-07
-5.11193e-07 -2.58874e-07 3.22654e-05
0.000980517 6.67994e-05 -6.17936e-07
6.67994e-05 0.000213359 -7.04224e-07
-6.17936e-07 -7.04224e-07 0.00011428
0.000542422 2.93624e-05 4.90867e-07
2.93624e-05 -3.70695e-05 -1.9131e-06
4.90867e-07 -1.9131e-06 -0.000127503
0.00085613 6.36826e-05 1.55243e-06
6.36826e-05 0.000143049 7.91956e-07
1.55243e-06 7.91956e-07 4.21353e-05
0.000634616 -1.49433e-05 9.20617e-07
-1.49433e-05 1.88068e-05 3.14991e-07
9.20617e-07 3.14991e-07 -7.93588e-05
0.000534765 -4.77635e-05 -1.14324e-06
-4.77635e-05 -3.71367e-05 1.55769e-06
-1.14324e-06 1.55769e-06 -0.000119249
0.000813068 9.13285e-06 -6.91928e-07
9.13285e-06 0.000133953 -1.13426e-07
-6.91928e-07 -1.13426e-07 3.1171e-05
0.000818532 4.67131e-05 4.89083e-08
4.67131e-05 0.000135584 -1.78131e-06
4.89083e-08 -1.78131e-06 3.44429e-05
0.000682825 -7.93698e-06 -8.80097e-07
-7.93698e-06 6.81746e-05 -9.68881e-08
-8.80097e-07 -9.68881e-08 -2.9885e-05
0.000813137 -8.43195e-06 1.01272e-06
-8.43195e-06 0.000138943 -5.2608e-07
1.01272e-06 -5.2608e-07 3.87311e-05
0.000696784 -6.72104e-05 -1.90465e-06
-6.72104e-05 5.64121e-05 1.11907e-06
-1.90465e-06 1.11907e-06 -2.18335e-05
0.000535261 -2.00507e-06 1.32706e-07
-2.00507e-06 -3.5078e-05 7.1277e-07
1.32706e-07 7.1277e-07 -0.000117984
0.000639369 -2.52622e-06 -1.03234e-06
-2.52622e-06 5.34793e-06 1.96901e-06
-1.03234e-06 1.96901e-06 -4.23095e-05
0.000629711 -9.49923e-06 5.99834e-07
-9.49923e-06 2.81756e-06 -2.7126e-08
5.99834e-07 -2.7126e-08 -4.51883e-05
0.00062266 7.2037e-06 -3.85527e-07
7.2037e-06 -2.67762e-05 5.26928e-06
-3.85527e-07 5.26928e-06 -4.035e-05
0.000626017 5.38039e-06 -3.77922e-07
5.38039e-06 4.51347e-08 -1.88839e-06
-3.77922e-07 -1.88839e-06 -4.68929e-05
0.000605209 2.11388e-06 3.06627e-07
2.11388e-06 -3.82795e-05 -1.6066e-08
3.06627e-07 -1.6066e-08 -5.11689e-05
0.0023002 -1.32844e-06 -2.69935e-07
-1.32844e-06 0.000952399 5.11322e-06
-2.69935e-07 5.11322e-06 0.000969486
0.000638873 -3.34389e-06 -4.93375e-07
-3.34389e-06 -1.89126e-05 -5.3421e-06
-4.93375e-07 -5.3421e-06 -3.14152e-05
0.00156909 -9.16701e-06 -1.75394e-07
-9.16701e-06 0.000525266 7.05344e-08
-1.75394e-07 7.05344e-08 0.000538608
0.000800385 -1.43855e-05 -7.33408e-08
-1.43855e-05 7.72081e-05 -2.00915e-06
-7.33408e-08 -2.00915e-06 8.70637e-05
0.000652588 -9.32359e-07 5.61367e-07
-9.32359e-07 8.64883e-06 -1.8387e-06
5.61367e-07 -1.8387e-06 -2.71641e-05
0.000660149 -8.69071e-06 4.07299e-07
-8.69071e-06 1.15232e-05 4.11443e-09
4.07299e-07 4.11443e-09 -2.57407e-05
0.000627642 1.40586e-05 2.99929e-07
1.40586e-05 -2.62588e-05 -3.43521e-06
2.99929e-07 -3.43521e-06 -3.31326e-05
0.000647744 -1.48939e-05 -1.76612e-06
-1.48939e-05 3.37403e-06 1.90457e-06
-1.76612e-06 1.90457e-06 -3.52838e-05
0.000912284 2.41575e-05 -1.02274e-07
2.41575e-05 0.000142737 -7.2584e-07
-1.02274e-07 -7.2584e-07 0.000136074
0.00207371 3.60828e-05 1.19108e-05
3.60828e-05 0.000827625 -4.39137e-06
1.19108e-05 -4.39137e-06 0.000845093
0.000604021 2.89117e-05 -4.62016e-07
2.89117e-05 -3.22564e-05 3.65494e-06
-4.62016e-07 3.65494e-06 -4.3808e-05
0.00220188 5.01931e-05 -7.44473e-06
5.01931e-05 0.000909457 1.15597e-06
-7.44473e-06 1.15597e-06 0.000924113
0.00229745 6.56081e-05 -1.98333e-05
6.56081e-05 0.000971858 4.10272e-06
-1.98333e-05 4.10272e-06 0.000983344
0.00183405 0.000111543 -2.68133e-06
0.000111543 1.47412e-06 -6.51975e-07
-2.68133e-06 -6.51975e-07 -3.95895e-05
0.00182446 6.88732e-06 -2.27573e-06
6.88732e-06 1.82569e-05 -4.88475e-07
-2.27573e-06 -4.88475e-07 -1.68714e-05
0.00156336 5.13132e-05 1.18633e-05
5.13132e-05 -0.000147818 6.85908e-08
1.18633e-05 6.85908e-08 -0.000145468
0.00227124 0.000157508 2.81903e-05
0.000157508 -0.00018516 6.7823e-06
2.81903e-05 6.7823e-06 -0.000190212
0.00187734 3.81148e-06 -2.85553e-06
3.81148e-06 -1.44416e-05 -5.29065e-07
-2.85553e-06 -5.29065e-07 -1.44933e-05
0.00178448 4.02684e-05 4.50287e-06
4.02684e-05 0.000136825 -1.52589e-06
4.50287e-06 -1.52589e-06 0.000164848
0.00305861 -4.45467e-06 -2.43118e-05
-4.45467e-06 0.000833743 1.95223e-06
-2.43118e-05 1.95223e-06 0.000812222
0.00265173 -3.94612e-05 0.00011818
-3.94612e-05 -0.000512817 -2.05247e-05
0.00011818 -2.05247e-05 -0.000571393
0.0025935 2.72874e-05 3.29054e-06
2.72874e-05 0.000189848 8.57006e-06
3.29054e-06 8.57006e-06 0.000224553
0.000683651 6.27941e-05 -1.9144e-07
6.27941e-05 5.66927e-05 -1.3372e-06
-1.9144e-07 -1.3372e-06 -1.24505e-05
0.000698111 -8.1446e-06 7.2935e-07
-8.1446e-06 6.6806e-05 -1.36663e-07
7.2935e-07 -1.36663e-07 -3.97991e-06
0.000671466 -7.97245e-05 3.08973e-07
-7.97245e-05 5.40558e-05 -6.73174e-07
3.08973e-07 -6.73174e-07 -3.03356e-05
0.000711485 -3.3246e-05 -9.63614e-07
-3.3246e-05 9.30689e-05 -2.80831e-08
-9.63614e-07 -2.80831e-08 -2.69928e-06
0.00193364 -0.000103636 -4.86772e-06
-0.000103636 -7.46961e-06 1.50996e-07
-4.86772e-06 1.50996e-07 -1.93599e-05
0.00179701 -0.000199855 -9.479e-07
-0.000199855 -1.30603e-05 1.04969e-06
-9.479e-07 1.04969e-06 -3.25327e-05
0.00200644 -0.000316299 -5.17047e-06
-0.000316299 0.000111691 8.93563e-07
-5.17047e-06 8.93563e-07 2.49805e-05
0.00166875 -0.000289555 4.05055e-06
-0.000289555 0.000489613 5.87123e-06
4.05055e-06 5.87123e-06 0.000297489
0.000701485 -0.000307326 7.84855e-06
-0.000307326 -0.00016849 -4.7196e-06
7.84855e-06 -4.7196e-06 -0.000462097
0.00214027 -0.000426023 4.75153e-06
-0.000426023 0.000344676 -3.70406e-06
4.75153e-06 -3.70406e-06 0.000181901
0.000948892 -0.000242017 -4.98332e-06
-0.000242017 0.000129157 2.79359e-07
-4.98332e-06 2.79359e-07 -6.33456e-05
0.00141413 -0.00010276 -7.1731e-07
-0.00010276 0.000514652 -9.50378e-07
-7.1731e-07 -9.50378e-07 0.000316908
0.00040371 -7.72696e-05 -1.69174e-06
-7.72696e-05 -0.000114352 7.36235e-07
-1.69174e-06 7.36235e-07 -0.000249901
0.000713864 -2.89289e-05 -7.07938e-07
-2.89289e-05 6.93549e-05 1.60798e-06
-7.07938e-07 1.60798e-06 -2.57082e-06
0.00061594 -6.96697e-05 -5.97597e-07
-6.96697e-05 4.34673e-05 -4.3994e-07
-5.97597e-07 -4.3994e-07 -8.63007e-05
0.000793608 -8.28132e-06 -5.86242e-07
-8.28132e-06 0.000142343 -4.18811e-08
-5.86242e-07 -4.18811e-08 3.23087e-05
0.000700674 6.30766e-06 9.90841e-08
6.30766e-06 7.17698e-05 8.09651e-07
9.90841e-08 8.09651e-07 -2.28871e-06
0.000603537 1.63698e-05 -1.93701e-06
1.63698e-05 2.20515e-05 2.76805e-06
-1.93701e-06 2.76805e-06 -7.5688e-05
0.00213734 -0.000167213 1.14788e-06
-0.000167213 0.000127964 6.9216e-07
1.14788e-06 6.9216e-07 0.000124976
0.000687852 -2.99077e-06 9.47817e-07
-2.99077e-06 7.259e-05 -4.66531e-07
9.47817e-07 -4.66531e-07 -2.21905e-05
0.000684367 9.57818e-06 1.38213e-06
9.57818e-06 6.59859e-05 -2.53287e-07
1.38213e-06 -2.53287e-07 -3.47793e-05
0.000550891 5.84496e-05 -1.20827e-07
5.84496e-05 -2.02651e-06 1.52947e-06
-1.20827e-07 1.52947e-06 -0.000104764
0.00179757 -0.000217142 -1.53714e-06
-0.000217142 -7.44919e-05 -1.06687e-06
-1.53714e-06 -1.06687e-06 -7.08923e-05
0.00192987 -0.000409289 1.54757e-06
-0.000409289 8.35144e-05 -4.70062e-07
1.54757e-06 -4.70062e-07 -3.70067e-05
0.0012227 -0.000281572 -8.37296e-07
-0.000281572 0.00026926 -1.78797e-06
-8.37296e-07 -1.78797e-06 4.24479e-05
0.00238115 -0.000476632 -4.43982e-06
-0.000476632 0.000588718 1.77468e-06
-4.43982e-06 1.77468e-06 0.000373706
0.00104249 -5.87566e-05 -7.76578e-07
-5.87566e-05 0.000282989 4.43959e-07
-7.76578e-07 4.43959e-07 0.000162979
0.000683485 -7.16177e-05 -3.0077e-07
-7.16177e-05 5.56905e-05 1.05271e-06
-3.0077e-07 1.05271e-06 -7.04138e-05
0.000982283 -0.000289259 2.34752e-06
-0.000289259 0.000317881 -4.60728e-07
2.34752e-06 -4.60728e-07 2.88792e-05
0.00099199 -0.00013299 3.67549e-07
-0.00013299 0.000304951 3.08393e-07
3.67549e-07 3.08393e-07 7.71404e-05
0.00206838 -0.000172807 -1.70571e-05
-0.000172807 4.09252e-05 1.76422e-07
-1.70571e-05 1.76422e-07 8.10044e-05
0.00227053 -0.000341073 -1.74016e-05
-0.000341073 0.000162323 4.16557e-06
-1.74016e-05 4.16557e-06 0.000176412
0.00286831 -0.000545639 -1.20802e-05
-0.000545639 0.000669354 -4.73213e-06
-1.20802e-05 -4.73213e-06 0.000483185
0.00192948 -0.000425318 -2.45993e-06
-0.000425318 0.000547039 5.03718e-06
-2.45993e-06 5.03718e-06 0.00033169
0.000608364 1.10057e-05 -5.32705e-07
1.10057e-05 3.84965e-05 -2.80686e-06
-5.32705e-07 -2.80686e-06 -7.90797e-05
0.000617727 -7.36862e-05 1.32613e-06
-7.36862e-05 4.28237e-05 -3.27465e-06
1.32613e-06 -3.27465e-06 -8.06427e-05
0.000584749 -8.43533e-05 -4.16973e-09
-8.43533e-05 6.40824e-05 2.55365e-06
-4.16973e-09 2.55365e-06 -8.09086e-05
0.000531392 -0.000103465 2.07471e-06
-0.000103465 0.000189941 -4.98127e-06
2.07471e-06 -4.98127e-06 -0.000163528
0.000607114 -0.000286843 2.80888e-05
-0.000286843 -0.00245793 -4.1728e-06
2.80888e-05 -4.1728e-06 -0.00294763
0.00126775 7.31403e-05 7.26023e-07
7.31403e-05 0.000405678 -3.32371e-06
7.26023e-07 -3.32371e-06 0.000289199
0.000439749 0.000134989 2.53759e-06
0.000134989 -8.21403e-05 1.20509e-07
2.53759e-06 1.20509e-07 -0.000247625
0.00187747 0.000152458 3.54921e-05
0.000152458 8.22854e-05 4.98845e-06
3.54921e-05 4.98845e-06 9.27231e-05
0.00206423 0.000366492 1.23956e-05
0.000366492 0.000203831 4.74859e-06
1.23956e-05 4.74859e-06 9.09587e-05
0.00170461 0.000385866 5.14571e-06
0.000385866 0.000255506 5.78206e-06
5.14571e-06 5.78206e-06 3.99325e-06
0.000850923 0.000230778 4.15133e-06
0.000230778 4.96602e-05 2.29342e-06
4.15133e-06 2.29342e-06 -0.000197787
0.00278831 0.000385358 4.63859e-05
0.000385358 0.000143674 1.50281e-05
4.63859e-05 1.50281e-05 -0.000240971
0.00119386 0.000127705 1.71686e-06
0.000127705 0.00038662 -2.41862e-07
1.71686e-06 -2.41862e-07 0.000245435
0.00232834 0.00028664 -9.68325e-06
0.00028664 0.000340921 -1.1656e-06
-9.68325e-06 -1.1656e-06 0.000354707
0.001056 0.000218069 9.57242e-07
0.000218069 0.000241487 -3.51596e-08
9.57242e-07 -3.51596e-08 6.13035e-05
0.0012328 0.000307426 8.2365e-07
0.000307426 0.000171673 -6.48617e-07
8.2365e-07 -6.48617e-07 -8.38197e-05
0.00137092 0.000438855 -4.54255e-06
0.000438855 -9.20421e-05 -1.29002e-06
-4.54255e-06 -1.29002e-06 -0.000283339
0.00330724 -0.00019722 -8.7179e-05
-0.00019722 -0.000988133 -2.9043e-05
-8.7179e-05 -2.9043e-05 -0.00194448
0.00491985 0.000482867 -9.48122e-06
0.000482867 0.000432239 -2.57907e-05
-9.48122e-06 -2.57907e-05 -0.000175603
0.000318392 0.000320412 -2.07525e-06
0.000320412 -0.000476859 7.81971e-06
-2.07525e-06 7.81971e-06 -0.00068177
-0.000978113 -0.000407891 0.000115604
-0.000407891 0.000798468 4.4401e-05
0.000115604 4.4401e-05 -0.000291239
-0.000297664 -0.00159271 -6.60281e-05
-0.00159271 -0.00127611 -8.43682e-05
-6.60281e-05 -8.43682e-05 0.000468534
0.00109533 0.000158253 -3.62971e-06
0.000158253 0.000321407 -3.44312e-06
-3.62971e-06 -3.44312e-06 0.000191986
0.000330484 0.000319211 0.000101808
0.000319211 0.00123939 -2.57044e-05
0.000101808 -2.57044e-05 0.000311443
0.00127084 -0.000538894 -7.30795e-05
-0.000538894 0.00184518 -0.000125526
-7.30795e-05 -0.000125526 0.000825726
0.00283501 0.000427889 -2.57028e-05
0.000427889 0.0006749 -1.12303e-05
-2.57028e-05 -1.12303e-05 0.000688439
0.00108903 0.000152681 -1.10509e-05
0.000152681 0.00025253 -1.59374e-06
-1.10509e-05 -1.59374e-06 6.7695e-05
0.000217529 0.000377287 -1.60664e-05
0.000377287 -0.000402056 -1.37316e-05
-1.60664e-05 -1.37316e-05 -0.000676375
9.15477e-05 0.000367072 2.80959e-05
0.000367072 -0.000618455 5.8622e-05
2.80959e-05 5.8622e-05 -0.000723458
0.0103905 0.000453793 -3.12786e-05
0.000453793 0.003386 -2.6854e-05
-3.12786e-05 -2.6854e-05 0.00193002
0.00346478 0.000814583 4.50137e-06
0.000814583 0.000796614 1.08242e-05
4.50137e-06 1.08242e-05 -0.000355827
0.00187297 -0.00138013 0.000168177
-0.00138013 -0.000324923 0.000128558
0.000168177 0.000128558 7.02653e-05
0.00350657 -0.000797282 5.79707e-06
-0.000797282 -0.00130713 0.000177907
5.79707e-06 0.000177907 9.80177e-05
0.000729811 1.6758e-06 6.58775e-07
1.6758e-06 0.00010838 -9.7734e-07
6.58775e-07 -9.7734e-07 1.54585e-05
0.000850795 6.35229e-05 1.06887e-06
6.35229e-05 0.00016213 9.74683e-07
1.06887e-06 9.74683e-07 6.54748e-05
0.00130943 0.000116324 -2.10537e-06
0.000116324 0.000434097 -2.73553e-06
-2.10537e-06 -2.73553e-06 0.00034899
0.000670052 3.97117e-06 4.4302e-07
3.97117e-06 5.52156e-05 -4.90674e-07
4.4302e-07 -4.90674e-07 -3.2398e-05
0.000761783 2.83304e-05 -3.90116e-08
2.83304e-05 0.000103442 -1.14556e-06
-3.90116e-08 -1.14556e-06 3.83699e-07
0.000586072 -1.39893e-05 -1.09087e-06
-1.39893e-05 -9.20406e-06 -3.91051e-07
-1.09087e-06 -3.91051e-07 -0.000104803
0.000819389 3.18517e-05 -8.1115e-07
3.18517e-05 0.000120754 4.49191e-07
-8.1115e-07 4.49191e-07 2.54374e-05
0.00074001 9.26808e-06 -3.11348e-07
9.26808e-06 6.33953e-05 5.88291e-07
-3.11348e-07 5.88291e-07 -2.25837e-05
0.000525248 -9.22095e-07 3.47517e-07
-9.22095e-07 -3.98267e-05 7.16145e-07
3.47517e-07 7.16145e-07 -0.000123959
0.000851405 2.44384e-05 9.69681e-08
2.44384e-05 0.000140177 1.36673e-07
9.69681e-08 1.36673e-07 4.16431e-05
0.000835489 2.25001e-05 4.53477e-08
2.25001e-05 0.000132624 2.76148e-07
4.53477e-08 2.76148e-07 3.14547e-05
0.00071851 1.75569e-05 6.18119e-07
1.75569e-05 8.04397e-05 -3.72836e-07
6.18119e-07 -3.72836e-07 -2.5717e-05
0.000580603 3.2347e-05 -1.47045e-07
3.2347e-05 -1.53396e-05 -7.14791e-08
-1.47045e-07 -7.14791e-08 -0.000105114
0.00104982 3.32341e-05 5.66078e-08
3.32341e-05 0.000250281 -1.03425e-06
5.66078e-08 -1.03425e-06 0.000156576
0.000307279 4.29165e-05 -1.48359e-06
4.29165e-05 -0.000153465 -3.61933e-06
-1.48359e-06 -3.61933e-06 -0.000248363
0.000783964 -6.93656e-05 -2.24665e-07
-6.93656e-05 0.000101786 5.39974e-07
-2.24665e-07 5.39974e-07 -4.37083e-06
0.000803735 -5.52302e-05 -8.41775e-07
-5.52302e-05 0.000133423 -8.4686e-07
-8.41775e-07 -8.4686e-07 2.31857e-05
0.000823223 -2.03811e-05 -5.22745e-07
-2.03811e-05 0.000144254 -3.48602e-07
-5.22745e-07 -3.48602e-07 3.76425e-05
0.000838445 2.2887e-05 -4.71319e-07
2.2887e-05 0.000139445 -3.0017e-07
-4.71319e-07 -3.0017e-07 4.3222e-05
0.000855349 1.24091e-05 -1.44149e-06
1.24091e-05 0.000165146 -1.91039e-06
-1.44149e-06 -1.91039e-06 4.92882e-05
0.000747478 3.1748e-05 6.4607e-07
3.1748e-05 9.64792e-05 -7.10304e-07
6.4607e-07 -7.10304e-07 -1.14622e-06
0.000434187 -2.86237e-06 4.6013e-07
-2.86237e-06 -0.000104578 -1.66422e-06
4.6013e-07 -1.66422e-06 -0.000189678
0.000646088 2.50266e-05 9.43158e-07
2.50266e-05 4.06626e-05 4.16977e-07
9.43158e-07 4.16977e-07 -5.58184e-05
0.000687966 -2.53913e-05 4.7199e-09
-2.53913e-05 5.52591e-05 2.6874e-07
4.7199e-09 2.6874e-07 -2.94721e-05
0.000727457 -2.51287e-05 -2.25757e-07
-2.51287e-05 8.9094e-05 -2.07417e-08
-2.25757e-07 -2.07417e-08 -6.37256e-06
0.000692763 -3.24963e-05 -1.52751e-06
-3.24963e-05 4.58279e-05 8.96706e-07
-1.52751e-06 8.96706e-07 -2.43453e-05
0.00073109 -1.7317e-05 1.25655e-06
-1.7317e-05 7.60002e-05 -3.83152e-07
1.25655e-06 -3.83152e-07 -1.506e-05
0.000651041 -6.1907e-05 -1.25086e-08
-6.1907e-05 2.82086e-05 1.35607e-07
-1.25086e-08 1.35607e-07 -5.01416e-05
0.000666121 -9.95648e-07 -1.54445e-06
-9.95648e-07 1.72343e-05 2.08667e-06
-1.54445e-06 2.08667e-06 -3.01522e-05
0.000545048 -3.06645e-06 9.58291e-07
-3.06645e-06 -2.28952e-05 -4.83069e-07
9.58291e-07 -4.83069e-07 -0.000110211
0.000640519 6.279e-06 7.68761e-07
6.279e-06 7.467e-06 -2.32541e-08
7.68761e-07 -2.32541e-08 -4.11055e-05
0.00137027 1.65571e-05 -2.70435e-06
1.65571e-05 0.000410856 5.18917e-06
-2.70435e-06 5.18917e-06 0.000400964
0.000633541 2.18643e-05 -1.36593e-07
2.18643e-05 4.91904e-06 -1.81527e-06
-1.36593e-07 -1.81527e-06 -4.30212e-05
0.000987472 8.64644e-06 -1.5597e-06
8.64644e-06 0.000186149 7.94508e-07
-1.5597e-06 7.94508e-07 0.000174666
0.000856094 3.84728e-06 -3.65829e-06
3.84728e-06 0.000109603 4.96501e-06
-3.65829e-06 4.96501e-06 0.000118656
0.000615146 2.04723e-06 8.79182e-08
2.04723e-06 -3.23289e-05 -3.64147e-06
8.79182e-08 -3.64147e-06 -4.53045e-05
0.0023065 2.25151e-07 3.90207e-06
2.25151e-07 0.00095615 -4.49112e-09
3.90207e-06 -4.49112e-09 0.000973175
0.000872348 -3.50451e-06 -3.77895e-06
-3.50451e-06 0.000118715 -5.0112e-06
-3.77895e-06 -5.0112e-06 0.00012832
0.000694877 6.65941e-05 1.4512e-06
6.65941e-05 7.00777e-05 -6.37322e-07
1.4512e-06 -6.37322e-07 -6.03418e-06
0.000651698 1.41667e-05 -7.36477e-07
1.41667e-05 1.08942e-05 -2.02212e-06
-7.36477e-07 -2.02212e-06 -2.57584e-05
0.000645342 -3.86752e-06 7.89468e-07
-3.86752e-06 5.60025e-06 1.83661e-08
7.89468e-07 1.83661e-08 -3.10331e-05
0.000629273 7.93895e-06 1.10487e-07
7.93895e-06 -2.66612e-05 -3.40358e-06
1.10487e-07 -3.40358e-06 -3.28791e-05
0.000667879 -2.14021e-05 -1.51413e-06
-2.14021e-05 1.66611e-05 1.93873e-06
-1.51413e-06 1.93873e-06 -2.12955e-05
0.000608965 1.39748e-05 1.06046e-08
1.39748e-05 -3.76451e-05 -7.58005e-07
1.06046e-08 -7.58005e-07 -4.43196e-05
0.0020529 2.39631e-05 7.99488e-06
2.39631e-05 0.000811683 -4.56197e-06
7.99488e-06 -4.56197e-06 0.000830488
0.00122191 2.98263e-05 -8.28238e-07
2.98263e-05 0.000324156 2.07319e-06
-8.28238e-07 2.07319e-06 0.000318786
0.00149279 3.0938e-05 2.14218e-07
3.0938e-05 0.000488875 1.44863e-06
2.14218e-07 1.44863e-06 0.000502403
0.000921085 3.41216e-05 -1.51818e-05
3.41216e-05 0.000160597 7.29196e-06
-1.51818e-05 7.29196e-06 0.000168307
0.00152669 8.98299e-05 5.53409e-05
8.98299e-05 -0.000490398 1.54027e-05
5.53409e-05 1.54027e-05 -0.000507633
0.00186339 -6.07511e-06 1.60679e-06
-6.07511e-06 -1.82298e-05 2.06328e-07
1.60679e-06 2.06328e-07 -1.95908e-05
0.0018546 5.1489e-05 3.02502e-05
5.1489e-05 0.000192324 -5.96062e-06
3.02502e-05 -5.96062e-06 0.000207773
0.00100542 6.86678e-05 -4.51654e-06
6.86678e-05 -0.000975217 -6.69544e-06
-4.51654e-06 -6.69544e-06 -0.00106718
0.00183223 2.99916e-05 1.47066e-05
2.99916e-05 -0.000143035 1.11571e-06
1.47066e-05 1.11571e-06 -0.000119461
0.00234167 -1.20534e-05 -4.15166e-07
-1.20534e-05 0.000360234 -1.37409e-06
-4.15166e-07 -1.37409e-06 0.000343042
0.00332741 -5.03926e-05 -5.81811e-05
-5.03926e-05 0.000767517 4.425e-06
-5.81811e-05 4.425e-06 0.000756211
0.00325697 -7.66073e-05 0.000122009
-7.66073e-05 0.00052877 -5.91398e-06
0.000122009 -5.91398e-06 0.000310255
0.00879896 -0.000322842 4.46439e-06
-0.000322842 0.00217655 2.05198e-05
4.46439e-06 2.05198e-05 0.000901152
0.00745141 0.00130779 0.000240327
0.00130779 0.00365678 -0.000107559
0.000240327 -0.000107559 0.00373204
0.00361393 0.00135236 8.08838e-06
0.00135236 0.00244763 1.25791e-05
8.08838e-06 1.25791e-05 0.00328056
0.000425416 -7.26961e-05 2.33356e-06
-7.26961e-05 -8.15234e-05 -1.11399e-06
2.33356e-06 -1.11399e-06 -0.000169049
0.000695328 -9.46778e-06 1.17564e-06
-9.46778e-06 6.53732e-05 -1.33471e-07
1.17564e-06 -1.33471e-07 -5.35406e-06
0.000717886 -7.15332e-05 -1.56134e-06
-7.15332e-05 8.32814e-05 1.75001e-06
-1.56134e-06 1.75001e-06 8.10657e-06
0.000643573 -2.83398e-05 -4.13057e-07
-2.83398e-05 4.02967e-05 1.95683e-07
-4.13057e-07 1.95683e-07 -4.62683e-05
0.000761995 7.39659e-05 2.31076e-07
7.39659e-05 0.000124083 4.30319e-07
2.31076e-07 4.30319e-07 1.83877e-05
0.000833469 0.000118297 1.43633e-06
0.000118297 0.000157033 1.05707e-06
1.43633e-06 1.05707e-06 5.18624e-05
0.000774914 -7.63938e-06 1.72139e-06
-7.63938e-06 0.00012301 -2.19261e-06
1.72139e-06 -2.19261e-06 2.80206e-05
0.000633557 -2.80951e-05 -6.66208e-07
-2.80951e-05 4.01733e-05 6.6155e-07
-6.66208e-07 6.6155e-07 -5.00587e-05
0.00212659 -0.000151706 4.46599e-06
-0.000151706 0.000135112 1.04689e-06
4.46599e-06 1.04689e-06 0.000138656
0.00182 -0.000224638 4.94389e-06
-0.000224638 -9.27324e-05 -1.65712e-06
4.94389e-06 -1.65712e-06 -9.18023e-05
0.00164503 -0.000386827 1.56205e-06
-0.000386827 -6.79033e-05 2.42589e-06
1.56205e-06 2.42589e-06 -0.000181184
0.00116425 -0.000301534 6.29988e-06
-0.000301534 0.000223005 3.99185e-06
6.29988e-06 3.99185e-06 -6.41211e-06
0.00193735 -0.000446363 4.96446e-06
-0.000446363 0.000356084 -2.20526e-07
4.96446e-06 -2.20526e-07 0.000143882
0.00128164 -0.000315711 -2.64681e-08
-0.000315711 0.00048724 -4.5829e-07
-2.64681e-08 -4.5829e-07 0.000192748
0.00166755 -0.000201251 -1.10235e-06
-0.000201251 0.000673644 -7.70909e-07
-1.10235e-06 -7.70909e-07 0.000441704
0.00073542 -0.000102231 1.77591e-07
-0.000102231 8.61982e-05 4.5998e-07
1.77591e-07 4.5998e-07 -5.1057e-05
0.000754897 -2.32179e-05 -3.91091e-07
-2.32179e-05 0.000112306 2.23328e-06
-3.91091e-07 2.23328e-06 1.15257e-05
0.000930404 -1.94898e-05 -1.04925e-06
-1.94898e-05 0.00020814 -3.81734e-06
-1.04925e-06 -3.81734e-06 9.41076e-05
0.000959327 -1.64207e-05 9.04608e-07
-1.64207e-05 0.000231872 1.07622e-06
9.04608e-07 1.07622e-06 0.000136873
0.000727561 0.000121398 2.3457e-06
0.000121398 0.00010625 3.43882e-06
2.3457e-06 3.43882e-06 2.82148e-06
0.00177458 -0.000170039 -5.64142e-07
-0.000170039 -8.36569e-05 1.36582e-07
-5.64142e-07 1.36582e-07 -4.81846e-05
0.000718706 2.57507e-05 -1.26657e-06
2.57507e-05 0.000103224 2.31521e-07
-1.26657e-06 2.31521e-07 -1.35691e-05
0.000818759 -6.84026e-05 -1.18206e-06
-6.84026e-05 0.000153005 4.16626e-07
-1.18206e-06 4.16626e-07 3.53986e-05
0.00175398 -0.000328771 1.01678e-06
-0.000328771 -0.000107544 -1.41415e-06
1.01678e-06 -1.41415e-06 -0.000102228
0.0014522 -0.000437791 2.59228e-07
-0.000437791 -6.2352e-05 2.44606e-06
2.59228e-07 2.44606e-06 -0.000221926
0.00160067 -0.000398376 1.08606e-06
-0.000398376 0.000371495 -1.33894e-06
1.08606e-06 -1.33894e-06 0.000143452
0.000881245 -0.000106023 4.0036e-07
-0.000106023 0.000230223 -2.74871e-06
4.0036e-07 -2.74871e-06 6.87246e-05
0.000961636 -0.000142006 -2.57241e-07
-0.000142006 0.000399106 1.55836e-07
-2.57241e-07 1.55836e-07 6.97151e-05
0.00292778 -0.000261501 -2.30993e-05
-0.000261501 0.000590606 4.17745e-06
-2.30993e-05 4.17745e-06 0.000561744
0.00283329 -0.000467867 -2.89843e-05
-0.000467867 0.000543952 4.00425e-06
-2.89843e-05 4.00425e-06 0.000554688
0.00108195 -0.000452537 -7.92912e-06
-0.000452537 -0.000144608 2.54851e-06
-7.92912e-06 2.54851e-06 -0.00030765
0.000451757 -0.000277068 -3.54885e-06
-0.000277068 -0.000118281 1.81822e-05
-3.54885e-06 1.81822e-05 -0.000357533
0.000663008 -0.000115432 1.79701e-06
-0.000115432 6.86671e-05 -7.3587e-07
1.79701e-06 -7.3587e-07 -5.92416e-05
0.00055397 -7.87495e-05 2.51255e-06
-7.87495e-05 2.89557e-05 -4.19974e-06
2.51255e-06 -4.19974e-06 -0.000108982
0.00104678 -4.82197e-05 8.35627e-07
-4.82197e-05 0.000431936 -5.5499e-06
8.35627e-07 -5.5499e-06 0.000152944
-0.00443359 -4.44972e-05 0.000230011
-4.44972e-05 -0.00269387 1.80118e-06
0.000230011 1.80118e-06 -0.00204522
0.00951875 -0.000116276 -1.2892e-05
-0.000116276 0.00290748 4.78203e-07
-1.2892e-05 4.78203e-07 0.0022318
0.00132502 0.000108899 3.42814e-06
0.000108899 0.000457344 -1.22517e-06
3.42814e-06 -1.22517e-06 0.000322467
0.000800093 0.00019625 3.10958e-06
0.00019625 0.000109433 -2.07518e-06
3.10958e-06 -2.07518e-06 -6.7685e-05
0.00213894 0.000267932 2.84484e-05
0.000267932 0.000232344 1.77126e-05
2.84484e-05 1.77126e-05 0.000259674
0.00237365 0.000510544 8.14411e-06
0.000510544 0.000414294 7.88289e-06
8.14411e-06 7.88289e-06 0.000228015
0.00160794 0.000350403 6.97072e-06
0.000350403 0.000384387 1.60369e-06
6.97072e-06 1.60369e-06 0.000123465
0.00902895 0.000422145 4.62689e-05
0.000422145 0.00223943 6.80307e-06
4.62689e-05 6.80307e-06 0.00115547
0.00709242 0.000734438 -0.000132881
0.000734438 0.00119567 -3.02278e-05
-0.000132881 -3.02278e-05 0.000673355
-0.000933573 0.000190253 -4.49356e-07
0.000190253 -0.00103094 -1.83568e-05
-4.49356e-07 -1.83568e-05 -0.00126351
0.00632716 -0.00106189 -4.4629e-05
-0.00106189 0.00313485 2.77927e-05
-4.4629e-05 2.77927e-05 0.0026879
-0.00726246 -0.00161982 -0.000386259
-0.00161982 -0.00368591 -0.000300407
-0.000386259 -0.000300407 -0.00185316
0.000945818 0.000153868 -1.45719e-07
0.000153868 0.000246705 -1.78539e-06
-1.45719e-07 -1.78539e-06 0.000116403
-0.00241363 -0.000467184 8.92238e-05
-0.000467184 -0.00182188 9.39497e-06
8.92238e-05 9.39497e-06 -0.00196681
-0.00198507 -0.000426036 -0.000102172
-0.000426036 0.00078448 -4.95111e-05
-0.000102172 -4.95111e-05 -0.000543866
0.00261824 0.000393106 -5.50697e-06
0.000393106 0.000533677 -1.166e-06
-5.50697e-06 -1.166e-06 0.000568637
0.000870377 0.000176223 -1.9453e-06
0.000176223 0.000161417 7.57858e-07
-1.9453e-06 7.57858e-07 -3.61976e-05
0.000842007 0.00036768 3.89432e-06
0.00036768 -4.8736e-05 1.79467e-06
3.89432e-06 1.79467e-06 -0.000314094
0.000969631 0.000311518 1.22786e-05
0.000311518 -5.63363e-05 1.13328e-05
1.22786e-05 1.13328e-05 -7.35973e-05
0.00766516 0.000336493 -3.82584e-05
0.000336493 0.00150234 -2.25306e-05
-3.82584e-05 -2.25306e-05 -0.000173577
0.00638393 0.00106597 -4.72783e-05
0.00106597 0.00168083 -1.87695e-05
-4.72783e-05 -1.87695e-05 0.000892225
0.00836822 -0.0012718 8.59226e-05
-0.0012718 0.00395586 -3.9583e-05
8.59226e-05 -3.9583e-05 0.00396275
0.00291301 -0.00096154 0.000104969
-0.00096154 -0.00177934 0.000219471
0.000104969 0.000219471 -0.000351374
0.0014658 0.000136638 -1.24678e-05
0.000136638 0.000560164 -6.96082e-06
-1.24678e-05 -6.96082e-06 0.000447442
-0.00447272 0.000118663 -7.32119e-05
0.000118663 0.000443013 -4.46903e-05
-7.32119e-05 -4.46903e-05 -0.00149459
0.00256009 0.000176443 -0.000114856
0.000176443 0.00105175 -0.000167455
-0.000114856 -0.000167455 -0.00086022
0.000567525 0.000322829 -1.47439e-05
0.000322829 -0.000254121 2.87191e-06
-1.47439e-05 2.87191e-06 -0.000263135
0.00132306 0.000374406 -3.96918e-05
0.000374406 0.000479331 -1.25878e-05
-3.96918e-05 -1.25878e-05 0.000247684
0.00248019 0.000299528 -6.89597e-05
0.000299528 0.0011529 -6.26483e-06
-6.89597e-05 -6.26483e-06 0.00083924
0.00319767 0.000853887 -5.29876e-05
0.000853887 0.000412668 -1.50328e-05
-5.29876e-05 -1.50328e-05 6.15864e-05
0.00072346 0.000471872 0.000122533
0.000471872 -0.000201487 9.27184e-05
0.000122533 9.27184e-05 -0.00260728
0.00896221 -0.00136457 2.72018e-05
-0.00136457 0.00283803 0.000186168
2.72018e-05 0.000186168 0.00254789
0.00327279 -0.000599304 -1.61193e-05
-0.000599304 -0.00207205 -2.22213e-05
-1.61193e-05 -2.22213e-05 -0.000733598
0.000903772 8.12398e-05 2.50805e-06
8.12398e-05 0.000199361 3.4267e-06
2.50805e-06 3.4267e-06 9.6789e-05
0.00117773 0.000107939 4.4327e-06
0.000107939 0.00035101 2.61823e-06
4.4327e-06 2.61823e-06 0.000266917
0.000345859 6.37256e-05 5.29003e-07
6.37256e-05 -9.8229e-05 -4.43153e-06
5.29003e-07 -4.43153e-06 -0.000175307
0.000522026 4.40685e-05 1.04235e-06
4.40685e-05 -4.26427e-05 -1.37687e-07
1.04235e-06 -1.37687e-07 -0.000126205
0.000759133 4.39075e-05 -6.40794e-07
4.39075e-05 0.000109857 -1.27769e-06
-6.40794e-07 -1.27769e-06 9.34321e-07
0.000794637 -6.15121e-06 -3.8145e-07
-6.15121e-06 0.00010905 5.67876e-07
-3.8145e-07 5.67876e-07 8.52997e-06
0.000794156 -2.60287e-06 1.11093e-06
-2.60287e-06 0.000112113 -2.82987e-07
1.11093e-06 -2.82987e-07 1.09291e-05
0.000580134 2.56131e-05 -3.43395e-08
2.56131e-05 -1.50093e-05 2.38425e-06
-3.43395e-08 2.38425e-06 -0.000103434
0.000803133 3.98373e-05 3.43428e-08
3.98373e-05 0.00013373 -7.16865e-07
3.43428e-08 -7.16865e-07 2.31026e-05
0.00089049 2.9493e-05 -9.23148e-08
2.9493e-05 0.000158092 2.68759e-07
-9.23148e-08 2.68759e-07 6.40177e-05
0.000815337 -3.2498e-05 -2.11668e-07
-3.2498e-05 0.000122527 4.7757e-07
-2.11668e-07 4.7757e-07 1.45365e-05
0.000269638 3.38467e-05 1.79123e-07
3.38467e-05 -0.00016516 1.93879e-07
1.79123e-07 1.93879e-07 -0.000258642
-9.11972e-05 1.90137e-05 -2.35495e-06
1.90137e-05 -0.000273314 -3.15305e-06
-2.35495e-06 -3.15305e-06 -0.000363896
0.000933179 -4.11893e-06 -2.2527e-06
-4.11893e-06 0.000192053 -2.17169e-06
-2.2527e-06 -2.17169e-06 8.85118e-05
0.000948419 4.29647e-06 -2.62806e-07
4.29647e-06 0.000217079 -1.34081e-06
-2.62806e-07 -1.34081e-06 9.22483e-05
0.000822383 -4.96751e-05 -2.03043e-08
-4.96751e-05 0.000147101 -6.42988e-07
-2.03043e-08 -6.42988e-07 3.756e-05
0.000880682 -1.2892e-05 -4.51386e-07
-1.2892e-05 0.000158284 9.03525e-07
-4.51386e-07 9.03525e-07 6.47818e-05
0.000838555 -3.79183e-05 3.74409e-07
-3.79183e-05 0.000146473 -4.53503e-07
3.74409e-07 -4.53503e-07 3.65888e-05
0.000776089 2.63985e-05 -2.56394e-07
2.63985e-05 0.000110027 -1.12567e-07
-2.56394e-07 -1.12567e-07 1.34057e-05
0.000596508 -2.93846e-05 -8.75832e-08
-2.93846e-05 -9.73243e-06 6.11693e-07
-8.75832e-08 6.11693e-07 -9.59411e-05
0.000665267 3.26928e-05 8.34132e-07
3.26928e-05 4.97907e-05 6.15921e-07
8.34132e-07 6.15921e-07 -4.49483e-05
0.000521016 -4.32124e-06 -5.28374e-07
-4.32124e-06 -3.35705e-05 -3.11233e-06
-5.28374e-07 -3.11233e-06 -0.0001358
0.00056698 -1.89861e-05 1.42367e-06
-1.89861e-05 -1.9454e-05 -9.41024e-07
1.42367e-06 -9.41024e-07 -0.000104589
0.000828778 -5.30882e-06 2.93683e-06
-5.30882e-06 0.00011582 -3.91364e-06
2.93683e-06 -3.91364e-06 2.11975e-05
0.000190701 -3.82391e-05 8.29916e-07
-3.82391e-05 -0.000201967 3.16608e-07
8.29916e-07 3.16608e-07 -0.000343042
0.000340852 2.4187e-05 -4.36025e-07
2.4187e-05 -0.000120782 -7.18346e-07
-4.36025e-07 -7.18346e-07 -0.000224282
0.000732425 1.85097e-05 3.2725e-07
1.85097e-05 8.9304e-05 3.81032e-07
3.2725e-07 3.81032e-07 -8.28181e-06
0.000672056 8.93817e-06 -9.97731e-08
8.93817e-06 4.79405e-05 4.79876e-07
-9.97731e-08 4.79876e-07 -3.73863e-05
0.000735233 -1.06376e-05 -4.82339e-08
-1.06376e-05 9.25368e-05 -1.24685e-08
-4.82339e-08 -1.24685e-08 4.56723e-07
0.000640221 1.0014e-05 -6.05193e-07
1.0014e-05 2.17758e-05 7.97769e-07
-6.05193e-07 7.97769e-07 -5.01867e-05
0.000773963 -7.76955e-06 2.5362e-07
-7.76955e-06 0.000114027 -4.92482e-08
2.5362e-07 -4.92482e-08 1.96476e-05
0.000704936 -3.12948e-05 -3.01124e-07
-3.12948e-05 5.90194e-05 5.08312e-08
-3.01124e-07 5.08312e-08 -1.53187e-05
0.000624263 4.0423e-05 -6.79708e-07
4.0423e-05 -6.24647e-06 2.07146e-06
-6.79708e-07 2.07146e-06 -5.51264e-05
0.000601517 -5.33784e-05 1.25325e-06
-5.33784e-05 -4.68404e-06 -8.0644e-07
1.25325e-06 -8.0644e-07 -8.15324e-05
0.000646371 1.16758e-05 -2.28e-07
1.16758e-05 6.40028e-06 -3.04975e-08
-2.28e-07 -3.04975e-08 -4.12591e-05
0.00136964 2.55548e-05 -4.74418e-06
2.55548e-05 0.000411374 5.24003e-06
-4.74418e-06 5.24003e-06 0.000401083
0.000638783 -8.53997e-06 6.94391e-07
-8.53997e-06 5.85619e-06 -1.83278e-06
6.94391e-07 -1.83278e-06 -4.2258e-05
0.000981176 1.56039e-05 -2.47773e-06
1.56039e-05 0.00018315 7.5129e-07
-2.47773e-06 7.5129e-07 0.000171472
0.000799554 1.44114e-05 -3.44937e-07
1.44114e-05 7.7267e-05 1.952e-06
-3.44937e-07 1.952e-06 8.61446e-05
0.000599171 6.74051e-06 4.13187e-07
6.74051e-06 -4.12941e-05 -3.66673e-06
4.13187e-07 -3.66673e-06 -5.45787e-05
0.00232053 1.26525e-05 3.54739e-06
1.26525e-05 0.000965021 3.91839e-08
3.54739e-06 3.91839e-08 0.000981713
0.0023174 1.80461e-06 -3.20938e-07
1.80461e-06 0.000962575 -5.13833e-06
-3.20938e-07 -5.13833e-06 0.000979475
0.00100438 7.03058e-05 -1.29433e-06
7.03058e-05 0.000243166 -1.46538e-06
-1.29433e-06 -1.46538e-06 0.000170339
0.000656707 2.38684e-05 -8.76017e-07
2.38684e-05 1.49055e-05 -2.21921e-06
-8.76017e-07 -2.21921e-06 -2.35888e-05
0.00068002 -4.40736e-06 7.00811e-07
-4.40736e-06 5.97764e-05 8.3773e-07
7.00811e-07 8.3773e-07 -1.49356e-05
0.000630903 2.16942e-06 7.93738e-09
2.16942e-06 -2.65238e-05 -3.50702e-06
7.93738e-09 -3.50702e-06 -3.26108e-05
0.000647178 -5.82741e-06 2.33748e-07
-5.82741e-06 8.16356e-06 -3.2525e-08
2.33748e-07 -3.2525e-08 -2.84434e-05
0.000652082 -2.05284e-05 -1.31346e-06
-2.05284e-05 9.64597e-06 1.7866e-06
-1.31346e-06 1.7866e-06 -2.71978e-05
0.00061948 7.85717e-06 -1.81435e-07
7.85717e-06 -3.24395e-05 -1.97837e-08
-1.81435e-07 -1.97837e-08 -3.86101e-05
0.00204905 1.2115e-05 3.6057e-06
1.2115e-05 0.000806974 -4.69782e-06
3.6057e-06 -4.69782e-06 0.000826506
0.00120774 1.98614e-05 -6.98289e-07
1.98614e-05 0.000312578 2.0781e-06
-6.98289e-07 2.0781e-06 0.000309087
0.00143489 2.06802e-05 1.44686e-06
2.06802e-05 0.000450021 6.06148e-08
1.44686e-06 6.06148e-08 0.000465423
0.000873443 2.44634e-05 -1.37458e-05
2.44634e-05 0.000126361 7.17741e-06
-1.37458e-05 7.17741e-06 0.000137103
-0.0074158 0.000251474 0.000165634
0.000251474 -0.00337675 7.9447e-07
0.000165634 7.9447e-07 -0.00398834
-0.00204329 0.000123838 0.00017421
0.000123838 0.00102911 1.45906e-05
0.00017421 1.45906e-05 -6.31849e-05
0.0037439 0.000194706 -0.000187323
0.000194706 0.000290066 -9.71659e-07
-0.000187323 -9.71659e-07 0.000269795
0.000458688 3.24993e-05 3.33108e-05
3.24993e-05 -0.000823527 -5.24402e-06
3.33108e-05 -5.24402e-06 -0.000834632
0.00134797 -2.0325e-05 1.79268e-05
-2.0325e-05 -0.000277198 -2.97013e-07
1.79268e-05 -2.97013e-07 -0.000291306
0.000635239 4.54836e-05 8.53903e-06
4.54836e-05 -0.000689356 -4.3581e-06
8.53903e-06 -4.3581e-06 -0.000723643
0.00241482 -8.42569e-05 1.04623e-06
-8.42569e-05 0.000224948 2.98025e-06
1.04623e-06 2.98025e-06 0.000193236
0.00801346 0.000140381 3.10806e-05
0.000140381 0.00156588 -2.79709e-05
3.10806e-05 -2.79709e-05 0.000578239
-0.00347455 0.000731918 -3.33717e-05
0.000731918 -0.00105959 -6.57655e-06
-3.33717e-05 -6.57655e-06 -0.00185776
-0.00180966 0.00144327 -7.95948e-05
0.00144327 -0.000602763 3.6288e-05
-7.95948e-05 3.6288e-05 0.000807355
0.00113474 -0.000175555 5.2197e-05
-0.000175555 -0.000754462 8.97755e-06
5.2197e-05 8.97755e-06 -0.000983969
0.0105833 -9.24228e-05 6.30544e-05
-9.24228e-05 0.00319615 -2.88675e-05
6.30544e-05 -2.88675e-05 0.00182069
0.00146754 0.00136891 0.000111887
0.00136891 -0.000305508 -0.000187951
0.000111887 -0.000187951 0.000286121
0.0051473 0.00104162 -0.000123567
0.00104162 0.000247053 8.89613e-05
-0.000123567 8.89613e-05 0.000793667
0.000728286 6.90324e-05 -8.46862e-07
6.90324e-05 0.000111355 -6.08322e-07
-8.46862e-07 -6.08322e-07 -6.25432e-06
0.000578417 1.19004e-05 -2.87892e-07
1.19004e-05 3.67366e-06 -6.93539e-07
-2.87892e-07 -6.93539e-07 -8.14018e-05
0.000703408 -7.93808e-05 -1.20527e-06
-7.93808e-05 7.43629e-05 1.434e-06
-1.20527e-06 1.434e-06 1.5867e-07
0.000585877 3.80951e-07 -5.3232e-08
3.80951e-07 1.18922e-05 1.01893e-06
-5.3232e-08 1.01893e-06 -7.88295e-05
0.000731749 6.70855e-05 9.23713e-07
6.70855e-05 0.000110679 1.46559e-06
9.23713e-07 1.46559e-06 4.36309e-06
0.000860931 7.23285e-05 1.67311e-08
7.23285e-05 0.000179809 -4.86302e-07
1.67311e-08 -4.86302e-07 6.33681e-05
0.000778186 8.41067e-05 1.64666e-06
8.41067e-05 0.000129784 1.66097e-06
1.64666e-06 1.66097e-06 2.22844e-05
0.000705355 4.56474e-06 1.53964e-06
4.56474e-06 7.53635e-05 -9.4353e-07
1.53964e-06 -9.4353e-07 -2.55389e-05
0.000674787 -1.66466e-05 5.47746e-07
-1.66466e-05 6.78814e-05 -9.75476e-07
5.47746e-07 -9.75476e-07 -3.06025e-05
0.000557093 -8.95689e-06 -5.80141e-07
-8.95689e-06 -1.14624e-05 1.22275e-06
-5.80141e-07 1.22275e-06 -9.66997e-05
0.00149553 -0.000161563 1.41816e-05
-0.000161563 -0.000198406 -8.23975e-07
1.41816e-05 -8.23975e-07 -0.000165883
0.00171914 -0.000334497 1.74505e-05
-0.000334497 -0.000109273 -3.35116e-06
1.74505e-05 -3.35116e-06 -0.000123523
-9.53619e-05 -0.000319508 1.35019e-05
-0.000319508 -0.000864816 2.12976e-06
1.35019e-05 2.12976e-06 -0.000994845
0.0012885 -0.000376631 1.94697e-06
-0.000376631 0.00021328 -1.1032e-06
1.94697e-06 -1.1032e-06 -2.2539e-05
0.00152118 -0.000172505 -3.05413e-07
-0.000172505 0.000678518 6.69436e-06
-3.05413e-07 6.69436e-06 0.000375958
0.00108655 -0.000143484 -3.13938e-07
-0.000143484 0.000350896 1.02146e-06
-3.13938e-07 1.02146e-06 0.000170229
0.000925085 -6.27756e-05 -1.15921e-06
-6.27756e-05 0.000203463 5.0166e-07
-1.15921e-06 5.0166e-07 9.54722e-05
0.000715248 3.56029e-05 -1.67369e-06
3.56029e-05 0.000102076 2.3164e-06
-1.67369e-06 2.3164e-06 -1.19939e-05
0.00170945 -0.00020542 -1.8813e-07
-0.00020542 -3.54591e-05 -1.03588e-06
-1.8813e-07 -1.03588e-06 -3.85564e-05
0.000639937 -4.83704e-05 -2.44561e-07
-4.83704e-05 5.83436e-05 -1.15092e-07
-2.44561e-07 -1.15092e-07 -7.12152e-05
0.00051575 -6.67586e-05 8.32238e-07
-6.67586e-05 1.04262e-05 -1.33477e-06
8.32238e-07 -1.33477e-06 -0.000131051
0.00208484 -0.000424825 4.52634e-06
-0.000424825 0.000170353 -6.21934e-07
4.52634e-06 -6.21934e-07 0.000170851
0.000828995 -0.000428285 1.11969e-06
-0.000428285 -0.000257225 3.16302e-06
1.11969e-06 3.16302e-06 -0.000408294
0.000907933 -0.000334325 8.43178e-06
-0.000334325 0.000125679 -2.69825e-06
8.43178e-06 -2.69825e-06 -0.000133569
0.00138292 -9.59255e-05 -4.66926e-07
-9.59255e-05 0.000595315 -3.29888e-06
-4.66926e-07 -3.29888e-06 0.000331554
0.000896463 -0.000270661 -1.6658e-05
-0.000270661 -0.000136929 -6.4401e-07
-1.6658e-05 -6.4401e-07 -0.000375462
0.00129518 -0.000342337 -2.79031e-05
-0.000342337 6.16429e-05 1.07088e-05
-2.79031e-05 1.07088e-05 2.0118e-05
-0.000285212 -0.000183093 -1.76633e-05
-0.000183093 -0.000343382 3.71744e-05
-1.76633e-05 3.71744e-05 -0.000627285
0.000531807 3.316e-05 6.79381e-07
3.316e-05 -4.16763e-06 1.06342e-06
6.79381e-07 1.06342e-06 -0.000131106
0.000510802 -0.000101118 2.70084e-06
-0.000101118 -5.84566e-07 -1.75984e-06
2.70084e-06 -1.75984e-06 -0.000141956
0.00074044 -6.72896e-05 2.57066e-06
-6.72896e-05 0.000185203 -7.07888e-06
2.57066e-06 -7.07888e-06 -1.10868e-05
0.000558873 0.00013062 -0.000121051
0.00013062 0.00285844 1.6174e-06
-0.000121051 1.6174e-06 0.0016384
0.00203388 -0.000278533 1.83542e-05
-0.000278533 0.00147015 1.66355e-05
1.83542e-05 1.66355e-05 0.00134054
0.00028906 0.000542291 -6.12208e-05
0.000542291 -0.0027376 2.00674e-05
-6.12208e-05 2.00674e-05 -0.00334413
0.000765959 0.000141223 4.64711e-06
0.000141223 0.000156177 1.24552e-06
4.64711e-06 1.24552e-06 2.78981e-05
0.000603894 0.000195928 5.17037e-06
0.000195928 4.11856e-05 4.91554e-06
5.17037e-06 4.91554e-06 -0.000167502
0.00228503 0.000348506 1.61204e-05
0.000348506 0.000332416 1.14249e-05
1.61204e-05 1.14249e-05 0.000383572
0.00163131 0.000370453 1.42584e-05
0.000370453 0.000382251 1.19466e-05
1.42584e-05 1.19466e-05 0.000119014
0.00597739 -0.000565027 4.71364e-05
-0.000565027 0.00234718 3.04963e-05
4.71364e-05 3.04963e-05 0.0024815
0.00141005 -5.54253e-05 -0.000107856
-5.54253e-05 -0.00156292 -8.92763e-06
-0.000107856 -8.92763e-06 -0.00308761
0.00293308 0.000949128 -8.69939e-05
0.000949128 -0.00033218 -2.22087e-05
-8.69939e-05 -2.22087e-05 -0.00110186
0.000475718 0.000188137 2.51251e-05
0.000188137 -0.000174499 -1.98413e-05
2.51251e-05 -1.98413e-05 -0.000157553
-0.00379054 -0.000642245 -6.13655e-05
-0.000642245 -0.00125874 -8.59557e-05
-6.13655e-05 -8.59557e-05 -0.00153411
-0.000287901 -0.000613362 -4.73149e-05
-0.000613362 0.000913226 9.81381e-06
-4.73149e-05 9.81381e-06 -0.00045513
0.00753419 -0.00128169 0.00014715
-0.00128169 0.000640594 0.000120792
0.00014715 0.000120792 0.00213326
0.000680397 0.000103428 4.99094e-06
0.000103428 0.000134675 -2.60699e-06
4.99094e-06 -2.60699e-06 1.49846e-05
-0.00136267 -2.3103e-05 -6.28598e-05
-2.3103e-05 0.00146702 -1.92101e-05
-6.28598e-05 -1.92101e-05 -0.000136305
0.00296265 0.000201058 -1.07708e-05
0.000201058 0.00122963 -4.92883e-05
-1.07708e-05 -4.92883e-05 -0.000749146
0.00110061 0.000316659 -7.78177e-06
0.000316659 7.18227e-05 3.84111e-06
-7.78177e-06 3.84111e-06 1.55228e-05
0.000582691 0.000228969 7.81871e-08
0.000228969 0.000106703 1.86577e-06
7.81871e-08 1.86577e-06 -0.000123097
-8.65244e-05 0.000219413 3.30892e-05
0.000219413 -0.000254766 -3.10171e-05
3.30892e-05 -3.10171e-05 -0.000480969
0.00540049 0.00116539 -8.23571e-06
0.00116539 0.0017018 2.53548e-06
-8.23571e-06 2.53548e-06 0.000983928
0.0100566 0.00042218 4.88208e-05
0.00042218 0.00361904 1.81713e-05
4.88208e-05 1.81713e-05 0.00180789
0.00256636 -0.000863188 1.262e-05
-0.000863188 -0.000894197 -2.63778e-05
1.262e-05 -2.63778e-05 -0.00100278
0.00790121 -0.000838298 7.76055e-06
-0.000838298 0.000951437 -2.5012e-05
7.76055e-06 -2.5012e-05 0.0022101
0.000903415 0.000171277 -1.14283e-05
0.000171277 0.000302501 -8.06303e-06
-1.14283e-05 -8.06303e-06 0.000191772
0.00238548 1.06261e-05 -8.42227e-05
1.06261e-05 0.000761082 -3.55421e-05
-8.42227e-05 -3.55421e-05 -0.000539376
0.000443108 7.05788e-05 -1.54245e-05
7.05788e-05 0.000284619 -7.72919e-05
-1.54245e-05 -7.72919e-05 -0.00107858
-0.000928338 4.05535e-05 -1.76414e-05
4.05535e-05 -0.000459417 -1.67422e-05
-1.76414e-05 -1.67422e-05 -0.000606736
0.00207435 0.000364457 -2.36711e-05
0.000364457 0.000721017 4.5246e-05
-2.36711e-05 4.5246e-05 7.37292e-05
0.0094431 0.000707878 3.08533e-05
0.000707878 0.00392213 -2.08891e-06
3.08533e-05 -2.08891e-06 0.00125758
-0.00693548 -0.00127498 -3.85712e-05
-0.00127498 -0.00404478 8.98397e-05
-3.85712e-05 8.98397e-05 -0.00568246
0.00591297 0.000298906 4.12432e-06
0.000298906 -0.000802988 -0.0001237
4.12432e-06 -0.0001237 0.000640792
0.00102602 9.23368e-05 1.96585e-06
9.23368e-05 0.000253193 6.54836e-06
1.96585e-06 6.54836e-06 0.000173026
0.000916659 0.00010681 -3.83073e-06
0.00010681 0.000233916 -8.82387e-07
-3.83073e-06 -8.82387e-07 0.000152208
0.000816746 8.34791e-05 -5.6245e-06
8.34791e-05 0.000294685 -2.59446e-07
-5.6245e-06 -2.59446e-07 0.000194444
0.000813828 7.71027e-05 -1.97498e-06
7.71027e-05 0.000130587 -7.40941e-07
-1.97498e-06 -7.40941e-07 2.60863e-05
0.000864283 -3.39072e-05 -5.17732e-07
-3.39072e-05 0.000159875 3.91649e-07
-5.17732e-07 3.91649e-07 4.56078e-05
0.0007128 3.41882e-05 3.19015e-07
3.41882e-05 5.59077e-05 1.07953e-06
3.19015e-07 1.07953e-06 -3.93473e-05
0.000265818 2.6876e-05 1.08347e-06
2.6876e-05 -0.000157254 1.90218e-06
1.08347e-06 1.90218e-06 -0.000249933
0.000855063 -1.45878e-06 8.90695e-07
-1.45878e-06 0.000148114 1.1877e-07
8.90695e-07 1.1877e-07 3.44635e-05
0.000886102 1.43277e-05 2.15679e-08
1.43277e-05 0.000169636 -6.07049e-07
2.15679e-08 -6.07049e-07 6.47121e-05
0.000358234 1.44743e-06 -7.43572e-07
1.44743e-06 -4.74912e-06 2.21761e-06
-7.43572e-07 2.21761e-06 -0.000103707
0.000414089 1.17182e-05 -5.86245e-06
1.17182e-05 0.000171443 -2.06511e-06
-5.86245e-06 -2.06511e-06 6.10005e-05
0.000892277 -1.6138e-05 -1.366e-06
-1.6138e-05 0.00026797 -7.04819e-06
-1.366e-06 -7.04819e-06 0.000166929
0.000990409 4.03349e-05 -8.33644e-07
4.03349e-05 0.000237197 -3.08065e-06
-8.33644e-07 -3.08065e-06 0.000121902
0.000859064 -8.53962e-05 1.20854e-06
-8.53962e-05 0.000147993 8.60608e-07
1.20854e-06 8.60608e-07 4.43345e-05
0.000774348 2.86348e-05 -5.63749e-07
2.86348e-05 0.000106375 -9.03259e-08
-5.63749e-07 -9.03259e-08 1.10106e-05
0.000736193 -3.65701e-05 -1.8861e-06
-3.65701e-05 7.13154e-05 2.22802e-06
-1.8861e-06 2.22802e-06 -1.46955e-05
0.000598165 -1.60451e-05 9.84335e-07
-1.60451e-05 1.9121e-06 8.21704e-07
9.84335e-07 8.21704e-07 -9.42566e-05
0.000736712 2.92826e-05 3.26062e-07
2.92826e-05 9.17985e-05 1.98386e-07
3.26062e-07 1.98386e-07 -4.38126e-06
0.00069969 -1.06784e-06 -6.99777e-07
-1.06784e-06 5.60733e-05 1.26161e-07
-6.99777e-07 1.26161e-07 -2.90417e-05
0.000933528 6.33833e-06 2.4921e-07
6.33833e-06 0.000185546 -1.98903e-06
2.4921e-07 -1.98903e-06 9.58765e-05
0.000297312 -2.33454e-05 2.75629e-06
-2.33454e-05 -0.000144612 -3.81002e-06
2.75629e-06 -3.81002e-06 -0.000219363
0.00048914 -8.73204e-05 1.31169e-06
-8.73204e-05 -0.000118752 -9.36628e-07
1.31169e-06 -9.36628e-07 -0.000213206
0.000905355 -2.94192e-05 -1.81304e-06
-2.94192e-05 0.000165548 -3.12776e-07
-1.81304e-06 -3.12776e-07 6.66422e-05
0.000442895 -6.85431e-05 3.38464e-06
-6.85431e-05 -6.90553e-05 1.63042e-06
3.38464e-06 1.63042e-06 -0.000199722
0.00103547 -0.000198977 2.37228e-07
-0.000198977 0.000236096 5.77408e-06
2.37228e-07 5.77408e-06 3.71857e-05
0.00124051 -8.43723e-05 1.54443e-06
-8.43723e-05 0.000396664 -1.47372e-06
1.54443e-06 -1.47372e-06 0.000274298
0.000337886 -5.72864e-05 -1.7213e-06
-5.72864e-05 -0.000105264 -3.52205e-06
-1.7213e-06 -3.52205e-06 -0.000244805
0.000649055 1.30927e-05 -3.52515e-07
1.30927e-05 4.89411e-05 -3.80782e-07
-3.52515e-07 -3.80782e-07 -5.2674e-05
0.000399353 1.2946e-05 4.94434e-07
1.2946e-05 -9.90427e-05 2.57658e-07
4.94434e-07 2.57658e-07 -0.00019169
0.000835091 7.18071e-06 -1.44741e-07
7.18071e-06 0.000147424 5.71802e-07
-1.44741e-07 5.71802e-07 4.85968e-05
0.000754733 -1.86667e-05 -5.82401e-07
-1.86667e-05 0.000102795 4.99925e-07
-5.82401e-07 4.99925e-07 1.0672e-05
0.000661472 -7.91824e-07 -7.10803e-07
-7.91824e-07 3.15586e-05 8.5393e-07
-7.10803e-07 8.5393e-07 -3.91724e-05
0.000819777 -3.79457e-05 3.47719e-07
-3.79457e-05 0.000151251 -3.77249e-07
3.47719e-07 -3.77249e-07 5.08505e-05
0.000705155 -3.52877e-05 -4.80663e-07
-3.52877e-05 6.06865e-05 1.46262e-08
-4.80663e-07 1.46262e-08 -1.31565e-05
0.000639575 3.29448e-05 -1.6368e-06
3.29448e-05 1.57007e-06 1.80184e-06
-1.6368e-06 1.80184e-06 -4.68635e-05
0.000740138 -6.45445e-05 1.47132e-06
-6.45445e-05 8.23362e-05 -9.59056e-07
1.47132e-06 -9.59056e-07 5.66893e-06
0.000674455 3.61438e-06 -2.79993e-07
3.61438e-06 1.92097e-05 1.26626e-08
-2.79993e-07 1.26626e-08 -2.76459e-05
0.00136028 3.48629e-05 -6.98399e-06
3.48629e-05 0.000407739 5.19668e-06
-6.98399e-06 5.19668e-06 0.000397007
0.000656803 -1.61747e-05 1.72691e-06
-1.61747e-05 1.2404e-05 -1.88677e-06
1.72691e-06 -1.88677e-06 -3.53122e-05
0.000983477 2.35411e-05 -3.3616e-06
2.35411e-05 0.000185605 7.09475e-07
-3.3616e-06 7.09475e-07 0.000173556
0.000803066 2.24336e-05 -7.46206e-07
2.24336e-05 8.32931e-05 1.97032e-06
-7.46206e-07 1.97032e-06 9.1143e-05
0.000590931 1.29792e-05 4.57504e-07
1.29792e-05 -4.54773e-05 -3.72671e-06
4.57504e-07 -3.72671e-06 -5.89375e-05
0.00155696 2.15581e-05 5.31334e-06
2.15581e-05 0.000520224 -1.46871e-06
5.31334e-06 -1.46871e-06 0.000532738
0.00231864 1.49347e-05 4.15226e-06
1.49347e-05 0.000964249 -5.04196e-06
4.15226e-06 -5.04196e-06 0.000980858
0.00075347 -2.03553e-06 8.65762e-07
-2.03553e-06 9.01751e-05 -1.61058e-06
8.65762e-07 -1.61058e-06 1.55813e-05
0.000681087 1.83096e-05 -4.91058e-07
1.83096e-05 2.73034e-05 -2.27191e-06
-4.91058e-07 -2.27191e-06 -1.27457e-05
0.000744082 -1.98883e-06 8.64369e-07
-1.98883e-06 9.08433e-05 1.82344e-07
8.64369e-07 1.82344e-07 1.8127e-05
0.000625105 -3.98956e-06 2.21967e-08
-3.98956e-06 -2.98616e-05 -3.63806e-06
2.21967e-08 -3.63806e-06 -3.65497e-05
0.000650127 1.55704e-05 5.09764e-08
1.55704e-05 1.04591e-05 -1.56463e-08
5.09764e-08 -1.56463e-08 -2.75535e-05
0.000675066 -7.45576e-05 -3.03333e-06
-7.45576e-05 5.17341e-05 2.11065e-06
-3.03333e-06 2.11065e-06 -1.88305e-05
0.00205151 2.79907e-07 -9.82878e-07
2.79907e-07 0.000807197 -4.76382e-06
-9.82878e-07 -4.76382e-06 0.000827018
0.000623038 2.06497e-06 -1.47876e-07
2.06497e-06 -3.09331e-05 -5.96079e-09
-1.47876e-07 -5.96079e-09 -3.69942e-05
0.000634109 -1.3809e-05 -1.13995e-06
-1.3809e-05 1.77009e-07 1.92476e-06
-1.13995e-06 1.92476e-06 -3.62088e-05
0.000610634 7.79789e-06 -3.03265e-07
7.79789e-06 -3.76577e-05 3.45202e-06
-3.03265e-07 3.45202e-06 -4.3795e-05
0.00206118 1.33983e-05 -3.44261e-06
1.33983e-05 0.000814231 -3.98951e-08
-3.44261e-06 -3.98951e-08 0.000833679
0.00205602 2.45532e-05 -1.03823e-05
2.45532e-05 0.000813625 4.43485e-06
-1.03823e-05 4.43485e-06 0.000832493
-0.00320896 -0.000181896 -3.52483e-05
-0.000181896 0.000809503 1.30047e-05
-3.52483e-05 1.30047e-05 -0.000817824
-0.00107843 0.000380678 -4.98921e-05
0.000380678 -0.000502827 1.20331e-05
-4.98921e-05 1.20331e-05 -0.00089698
0.00321773 -0.000216497 -0.000164553
-0.000216497 0.000899873 0.00013165
-0.000164553 0.00013165 -0.000861742
-0.00275923 0.00016081 0.000235361
0.00016081 0.0011037 -0.00010388
0.000235361 -0.00010388 0.000121003
0.0013507 0.000178679 -6.88214e-05
0.000178679 -0.000568443 1.29842e-05
-6.88214e-05 1.29842e-05 -0.000723354
0.00223365 -0.000128686 9.38447e-05
-0.000128686 7.85013e-05 -9.94844e-06
9.38447e-05 -9.94844e-06 5.52821e-05
0.0017337 -0.000408867 -7.15684e-05
-0.000408867 -0.00141761 -5.03319e-05
-7.15684e-05 -5.03319e-05 -0.002541
0.00836163 0.000780399 -6.19644e-05
0.000780399 0.00408995 -1.50826e-05
-6.19644e-05 -1.50826e-05 0.00371662
-0.0073612 0.00158313 -0.000388213
0.00158313 -0.00382694 0.000306961
-0.000388213 0.000306961 -0.00184405
0.00253782 -5.64475e-05 -1.02186e-05
-5.64475e-05 -0.000135032 -4.78748e-06
-1.02186e-05 -4.78748e-06 -0.000327817
0.0041396 -0.000231578 3.4611e-05
-0.000231578 5.40625e-05 -4.66877e-05
3.4611e-05 -4.66877e-05 -0.00190098
0.00898209 0.0014674 -5.12712e-05
0.0014674 0.00288853 -5.86456e-05
-5.12712e-05 -5.86456e-05 0.0035479
0.00237977 0.000986192 -5.40837e-05
0.000986192 -0.00144453 0.000121106
-5.40837e-05 0.000121106 -0.000796702
0.00236017 -0.000530954 -5.70445e-05
-0.000530954 -0.000539015 1.59868e-05
-5.70445e-05 1.59868e-05 -0.000829195
0.00246835 -0.000594333 0.000157158
-0.000594333 0.000322418 -0.000113245
0.000157158 -0.000113245 -0.00262052
-0.00533798 0.000659233 -4.78818e-05
0.000659233 -0.00454231 -0.00023804
-4.78818e-05 -0.00023804 -0.00444445
0.00225878 0.000610682 -3.89091e-05
0.000610682 -0.00294608 -6.18307e-06
-3.89091e-05 -6.18307e-06 -0.0017041
0.000803421 -1.33165e-05 1.15666e-06
-1.33165e-05 0.000155146 -2.61388e-07
1.15666e-06 -2.61388e-07 2.88783e-05
0.000736445 5.84292e-05 -1.80219e-06
5.84292e-05 0.000112032 -8.0173e-07
-1.80219e-06 -8.0173e-07 -4.55182e-07
0.000693972 5.202e-05 2.96021e-08
5.202e-05 6.7928e-05 -2.79169e-07
2.96021e-08 -2.79169e-07 -1.39852e-05
0.000642533 6.75175e-05 2.33892e-06
6.75175e-05 6.1198e-05 2.35824e-06
2.33892e-06 2.35824e-06 -4.36201e-05
0.000708348 3.50421e-05 -3.52361e-08
3.50421e-05 9.10869e-05 -6.05536e-07
-3.52361e-08 -6.05536e-07 -3.78854e-05
0.000847898 7.35908e-05 1.88271e-07
7.35908e-05 0.000173827 1.00791e-06
1.88271e-07 1.00791e-06 5.7983e-05
0.000685351 1.97995e-05 -9.42349e-07
1.97995e-05 7.26666e-05 2.285e-06
-9.42349e-07 2.285e-06 -3.10626e-05
0.000895135 0.000108691 -8.38158e-08
0.000108691 0.000203913 -3.52037e-07
-8.38158e-08 -3.52037e-07 8.4214e-05
0.000843768 6.05961e-05 -1.5723e-07
6.05961e-05 0.00017235 5.56288e-07
-1.5723e-07 5.56288e-07 6.06405e-05
0.0006007 -6.04674e-06 -1.88442e-06
-6.04674e-06 2.76328e-05 4.59564e-07
-1.88442e-06 4.59564e-07 -7.42281e-05
0.00111775 -0.000192546 3.21208e-05
-0.000192546 -0.00032951 -1.34343e-05
3.21208e-05 -1.34343e-05 -0.000312378
0.0008742 -0.000361864 2.74763e-05
-0.000361864 -0.0004446 -4.29809e-06
2.74763e-05 -4.29809e-06 -0.000454822
0.00115952 -0.000451485 1.55978e-05
-0.000451485 -6.69027e-05 -2.70652e-06
1.55978e-05 -2.70652e-06 -0.00021375
0.00116626 -0.000375867 9.34405e-06
-0.000375867 0.000255652 -1.77169e-05
9.34405e-06 -1.77169e-05 -3.26767e-05
0.00150154 -0.000126337 -1.37981e-06
-0.000126337 0.000633329 1.15125e-05
-1.37981e-06 1.15125e-05 0.000386852
0.000691798 -8.39832e-05 -1.62904e-06
-8.39832e-05 0.000118427 4.57057e-06
-1.62904e-06 4.57057e-06 -3.13939e-05
0.000627371 6.55986e-05 -6.7469e-07
6.55986e-05 5.50453e-05 -5.08098e-07
-6.7469e-07 -5.08098e-07 -7.77961e-05
0.000721514 -4.89018e-05 -4.67118e-07
-4.89018e-05 0.000108813 1.35887e-06
-4.67118e-07 1.35887e-06 -2.57206e-05
0.00137606 -0.000257268 -1.75634e-06
-0.000257268 8.1073e-05 -2.02683e-07
-1.75634e-06 -2.02683e-07 -7.28359e-05
0.000835554 -7.67674e-06 1.56578e-07
-7.67674e-06 0.000184372 3.70924e-07
1.56578e-07 3.70924e-07 4.07635e-05
0.00125146 -0.000104426 -6.38819e-09
-0.000104426 0.000482712 2.05452e-07
-6.38819e-09 2.05452e-07 0.000275019
0.00115288 -0.000337005 -2.50944e-06
-0.000337005 -4.04523e-05 -1.93639e-06
-2.50944e-06 -1.93639e-06 -7.34689e-05
0.00103738 -0.00023255 -1.34985e-05
-0.00023255 0.000350685 4.65835e-06
-1.34985e-05 4.65835e-06 8.39209e-05
-0.000159912 -0.000339832 -1.39146e-05
-0.000339832 -0.000763586 -1.93996e-05
-1.39146e-05 -1.93996e-05 -0.000741632
0.000700045 -0.000158847 -1.8228e-05
-0.000158847 0.000147774 2.46406e-05
-1.8228e-05 2.46406e-05 5.4275e-05
0.000243297 -5.00662e-05 -5.27835e-06
-5.00662e-05 -4.89046e-05 2.80967e-05
-5.27835e-06 2.80967e-05 -0.000256502
0.000691421 -2.9019e-06 4.54986e-07
-2.9019e-06 7.7394e-05 -4.19766e-07
4.54986e-07 -4.19766e-07 -5.44741e-05
0.000631042 2.26263e-05 2.02534e-06
2.26263e-05 0.000127849 -5.88154e-06
2.02534e-06 -5.88154e-06 -6.36274e-05
0.00167691 -3.66428e-05 -1.5196e-05
-3.66428e-05 0.000740016 -2.69779e-06
-1.5196e-05 -2.69779e-06 -0.0003943
-0.00174488 4.66695e-05 -9.33514e-05
4.66695e-05 0.00193314 -4.66071e-06
-9.33514e-05 -4.66071e-06 0.000407641
-0.00861297 -0.000361018 -0.00025798
-0.000361018 -0.0044464 4.93918e-06
-0.00025798 4.93918e-06 -0.00437517
-6.06232e-05 8.08673e-05 5.639e-06
8.08673e-05 -0.000262422 -2.02437e-06
5.639e-06 -2.02437e-06 -0.000393409
0.000114037 0.000112267 2.93034e-06
0.000112267 -0.000130514 3.65463e-06
2.93034e-06 3.65463e-06 -0.000353863
0.00161029 0.000298656 1.42557e-05
0.000298656 0.000351865 4.33073e-06
1.42557e-05 4.33073e-06 0.000289881
-0.00310384 0.00022465 -2.43395e-05
0.00022465 0.000715256 9.56607e-06
-2.43395e-05 9.56607e-06 -0.00103895
0.0019856 0.0004225 -6.93685e-05
0.0004225 0.000270505 -6.31712e-05
-6.93685e-05 -6.31712e-05 -0.0025938
0.00301882 0.000898454 0.000100573
0.000898454 0.000348146 1.76242e-05
0.000100573 1.76242e-05 -0.000203639
0.000589712 0.000276904 6.06395e-06
0.000276904 6.61231e-06 -1.80399e-05
6.06395e-06 -1.80399e-05 -4.3938e-05
0.0111405 -0.00105374 1.82155e-05
-0.00105374 0.00336761 -7.29127e-05
1.82155e-05 -7.29127e-05 0.00329766
0.00345553 0.000217177 9.92289e-05
0.000217177 0.00151901 6.723e-05
9.92289e-05 6.723e-05 -0.000524872
0.00784167 -0.000738774 3.26517e-05
-0.000738774 0.00115889 1.52348e-06
3.26517e-05 1.52348e-06 0.00250116
0.00099108 0.000173077 1.61498e-06
0.000173077 0.000389969 -2.00142e-06
1.61498e-06 -2.00142e-06 0.000273215
0.002689 1.57238e-05 6.02321e-06
1.57238e-05 0.00109797 -6.55312e-06
6.02321e-06 -6.55312e-06 -4.29444e-05
0.00085783 9.85456e-05 9.69367e-06
9.85456e-05 0.000243758 1.40458e-05
9.69367e-06 1.40458e-05 -0.00115135
-0.000153876 0.000165235 -8.1918e-06
0.000165235 -0.000101422 -1.49653e-06
-8.1918e-06 -1.49653e-06 -0.000282856
0.00263615 0.000531373 -6.33008e-05
0.000531373 0.000843026 -3.5802e-05
-6.33008e-05 -3.5802e-05 0.000186075
0.00232071 0.00114735 5.77245e-05
0.00114735 0.000598536 4.45854e-05
5.77245e-05 4.45854e-05 -0.00234029
0.00479329 0.000118699 -8.49602e-06
0.000118699 -0.00209848 -8.5802e-05
-8.49602e-06 -8.5802e-05 -0.000117697
0.00141645 -0.000761009 -2.44404e-05
-0.000761009 6.09596e-06 -2.34591e-05
-2.44404e-05 -2.34591e-05 -0.00111444
0.000967772 0.000118775 -4.97837e-06
0.000118775 0.000544536 -9.07588e-06
-4.97837e-06 -9.07588e-06 0.000421179
0.000848336 -5.41275e-05 -3.11418e-06
-5.41275e-05 0.000129711 -2.12669e-05
-3.11418e-06 -2.12669e-05 -7.49429e-05
0.00250031 -1.09054e-05 1.97157e-05
-1.09054e-05 0.000357468 -6.95114e-05
1.97157e-05 -6.95114e-05 -0.000675728
0.00241655 0.000646745 4.57837e-05
0.000646745 -0.00284571 4.74036e-06
4.57837e-05 4.74036e-06 -0.00170809
-0.000981291 5.61264e-05 -4.13667e-06
5.61264e-05 -0.000235874 -1.68053e-05
-4.13667e-06 -1.68053e-05 -0.000668298
0.0098983 0.000860576 0.000107368
0.000860576 0.00463059 4.48012e-05
0.000107368 4.48012e-05 0.00144972
-0.00895468 -0.000280424 5.93344e-05
-0.000280424 -0.00102867 0.000128567
5.93344e-05 0.000128567 -0.00260709
0.00167881 0.000172871 1.45935e-05
0.000172871 0.000676553 6.77549e-06
1.45935e-05 6.77549e-06 0.00058715
0.000844163 0.000107064 -3.10779e-06
0.000107064 0.000296734 2.05231e-07
-3.10779e-06 2.05231e-07 0.000189936
0.000511198 8.06744e-05 -9.35993e-06
8.06744e-05 0.000309878 1.60069e-07
-9.35993e-06 1.60069e-07 0.000181921
0.00079013 0.000122919 1.10371e-06
0.000122919 0.000119599 1.32039e-06
1.10371e-06 1.32039e-06 8.91592e-07
0.000750017 4.59901e-05 7.10898e-07
4.59901e-05 8.84936e-05 1.09959e-06
7.10898e-07 1.09959e-06 -1.23776e-05
0.000735297 -1.0972e-06 4.30275e-06
-1.0972e-06 0.000225054 6.58003e-06
4.30275e-06 6.58003e-06 0.000115716
0.000718727 3.84083e-05 -2.48684e-07
3.84083e-05 7.47225e-05 -3.8781e-07
-2.48684e-07 -3.8781e-07 -3.31145e-05
0.000775352 -2.89072e-05 -4.22176e-07
-2.89072e-05 0.000205541 -1.2965e-06
-4.22176e-07 -1.2965e-06 9.94484e-05
0.000348079 1.44973e-05 7.95839e-06
1.44973e-05 0.000130051 3.25113e-06
7.95839e-06 3.25113e-06 1.648e-05
0.00108158 2.10219e-05 -1.16991e-05
2.10219e-05 0.000519062 -1.14911e-05
-1.16991e-05 -1.14911e-05 0.000444179
0.000297732 -3.09933e-05 -2.3911e-06
-3.09933e-05 -8.62927e-05 -6.81388e-06
-2.3911e-06 -6.81388e-06 -0.000183648
0.000645583 -2.54399e-05 6.01989e-07
-2.54399e-05 1.91081e-05 3.12502e-06
6.01989e-07 3.12502e-06 -7.00027e-05
0.000790103 2.97147e-05 -3.0356e-07
2.97147e-05 0.000123288 6.08741e-08
-3.0356e-07 6.08741e-08 2.59015e-05
0.000868293 9.87393e-06 -4.21862e-06
9.87393e-06 0.000151815 2.86827e-06
-4.21862e-06 2.86827e-06 6.64698e-05
0.000720586 -2.49695e-05 1.80936e-06
-2.49695e-05 9.18095e-05 1.90886e-07
1.80936e-06 1.90886e-07 1.57192e-05
0.000733617 1.41498e-05 -1.6759e-07
1.41498e-05 7.45758e-05 1.73098e-07
-1.6759e-07 1.73098e-07 -1.66213e-05
0.000719987 -6.83555e-05 2.55281e-06
-6.83555e-05 8.98719e-05 -1.4399e-07
2.55281e-06 -1.4399e-07 -1.24157e-06
0.000549003 -7.00162e-05 -1.56622e-06
-7.00162e-05 -5.67353e-05 -9.34426e-07
-1.56622e-06 -9.34426e-07 -0.000140796
0.000311318 -0.000136948 5.76102e-06
-0.000136948 -0.000162322 -9.69827e-09
5.76102e-06 -9.69827e-09 -0.000324466
0.00102453 -5.47238e-05 -7.80734e-07
-5.47238e-05 0.000237844 9.04916e-07
-7.80734e-07 9.04916e-07 0.000135028
0.00104693 -0.000123593 -7.18109e-07
-0.000123593 0.00026566 2.1153e-06
-7.18109e-07 2.1153e-06 0.00012587
0.000239574 -0.000153046 1.92512e-07
-0.000153046 -0.000250533 3.67424e-06
1.92512e-07 3.67424e-06 -0.000442118
0.000661244 -0.000172699 -6.2847e-06
-0.000172699 -8.82765e-06 1.09953e-07
-6.2847e-06 1.09953e-07 -0.000207278
0.000970401 -0.000154066 -1.64664e-06
-0.000154066 0.000257902 3.10356e-06
-1.64664e-06 3.10356e-06 9.98122e-05
0.000635001 -0.000160284 1.01164e-06
-0.000160284 1.14489e-05 5.05067e-07
1.01164e-06 5.05067e-07 -0.000178747
0.000847886 -4.68312e-05 6.23336e-07
-4.68312e-05 0.000158735 2.64852e-07
6.23336e-07 2.64852e-07 5.27174e-05
0.00101705 -7.77805e-05 -1.22837e-06
-7.77805e-05 0.000276612 -6.95843e-07
-1.22837e-06 -6.95843e-07 0.00015025
0.00054555 -8.03065e-05 9.93182e-07
-8.03065e-05 2.66464e-05 -7.08884e-06
9.93182e-07 -7.08884e-06 -0.000111177
0.00096415 2.02709e-06 -9.05911e-07
2.02709e-06 0.000222369 -4.41703e-07
-9.05911e-07 -4.41703e-07 0.000122745
0.000546161 5.35701e-06 2.20387e-07
5.35701e-06 -1.33389e-05 -3.37025e-08
2.20387e-07 -3.37025e-08 -0.000107347
0.000654967 1.19386e-05 -3.38388e-07
1.19386e-05 3.03444e-05 7.13303e-07
-3.38388e-07 7.13303e-07 -4.44008e-05
0.000805509 -3.52514e-05 -8.78702e-09
-3.52514e-05 0.000139483 2.03225e-07
-8.78702e-09 2.03225e-07 4.07529e-05
0.000704071 -1.89197e-05 -3.08815e-07
-1.89197e-05 6.17456e-05 1.03763e-08
-3.08815e-07 1.03763e-08 -1.35702e-05
0.000641502 3.24393e-05 -9.74515e-07
3.24393e-05 6.5143e-06 1.79966e-06
-9.74515e-07 1.79966e-06 -4.41129e-05
0.000749143 -5.25478e-05 8.05996e-07
-5.25478e-05 9.11834e-05 -1.00609e-06
8.05996e-07 -1.00609e-06 1.3244e-05
0.000659069 2.41288e-05 -6.54177e-07
2.41288e-05 1.2508e-05 -3.39585e-08
-6.54177e-07 -3.39585e-08 -3.60527e-05
0.00133083 4.55384e-05 -8.06079e-06
4.55384e-05 0.00039478 3.50247e-06
-8.06079e-06 3.50247e-06 0.000383078
0.000680538 -9.19435e-06 2.00188e-06
-9.19435e-06 2.27664e-05 -1.93991e-06
2.00188e-06 -1.93991e-06 -2.42815e-05
0.000967886 3.20546e-05 -4.23333e-06
3.20546e-05 0.000178708 6.32417e-07
-4.23333e-06 6.32417e-07 0.000166194
0.000813154 3.03347e-05 -1.29744e-06
3.03347e-05 9.38822e-05 2.00383e-06
-1.29744e-06 2.00383e-06 0.000100654
0.000577146 1.96459e-05 7.27023e-07
1.96459e-05 -5.25766e-05 -3.852e-06
7.27023e-07 -3.852e-06 -6.62474e-05
0.00155888 3.20264e-05 7.16449e-06
3.20264e-05 0.000525128 -1.3519e-06
7.16449e-06 -1.3519e-06 0.000536629
0.00232405 2.81709e-05 8.17611e-06
2.81709e-05 0.00096992 -4.9047e-06
8.17611e-06 -4.9047e-06 0.000985828
0.000469795 2.45167e-06 1.56827e-07
2.45167e-06 -6.47202e-05 -2.22542e-06
1.56827e-07 -2.22542e-06 -0.000154898
0.000390048 -1.70994e-06 -2.23077e-07
-1.70994e-06 -0.000141809 -3.27059e-06
-2.23077e-07 -3.27059e-06 -0.000188494
0.000779915 9.25562e-06 9.96087e-08
9.25562e-06 0.000110612 7.04771e-08
9.96087e-08 7.04771e-08 3.25258e-05
0.000619968 -1.01786e-05 4.71476e-08
-1.01786e-05 -3.21117e-05 -3.81187e-06
4.71476e-08 -3.81187e-06 -4.04581e-05
0.000509421 5.96473e-06 8.01197e-07
5.96473e-06 -7.20474e-05 -5.10382e-08
8.01197e-07 -5.10382e-08 -0.000113519
0.000476795 -6.93982e-05 -6.46664e-07
-6.93982e-05 -6.17877e-05 1.74013e-06
-6.46664e-07 1.74013e-06 -0.000137338
0.00209256 -1.184e-05 -5.38119e-06
-1.184e-05 0.000831448 -4.80823e-06
-5.38119e-06 -4.80823e-06 0.000850794
0.000624653 -3.93236e-06 -1.33647e-07
-3.93236e-06 -3.00348e-05 -2.77705e-08
-1.33647e-07 -2.77705e-08 -3.66928e-05
0.00063384 -3.83096e-06 -1.04643e-06
-3.83096e-06 7.88513e-07 2.11793e-06
-1.04643e-06 2.11793e-06 -3.69417e-05
0.00206338 1.49917e-06 -3.50061e-06
1.49917e-06 0.000814194 5.77566e-09
-3.50061e-06 5.77566e-09 0.000833964
0.000614744 2.00832e-06 -1.22101e-07
2.00832e-06 -3.55898e-05 3.47443e-06
-1.22101e-07 3.47443e-06 -4.16276e-05
0.0020641 1.46508e-05 -3.5463e-06
1.46508e-05 0.000816091 4.61232e-06
-3.5463e-06 4.61232e-06 0.000835466
0.000782232 -0.000101709 -7.33171e-05
-0.000101709 -8.78338e-05 2.71235e-05
-7.33171e-05 2.71235e-05 -0.00125128
0.00152165 0.000145194 -1.70122e-05
0.000145194 0.00264623 -1.03114e-05
-1.70122e-05 -1.03114e-05 0.00166933
0.00135134 -0.000300869 -0.000177603
-0.000300869 0.00173104 -6.93023e-06
-0.000177603 -6.93023e-06 0.000985364
0.000750793 6.44786e-05 1.25863e-07
6.44786e-05 0.000102343 -7.63521e-08
1.25863e-07 -7.63521e-08 -1.31381e-05
0.00344203 -0.000166904 -2.31825e-05
-0.000166904 0.00195632 8.16033e-05
-2.31825e-05 8.16033e-05 0.000979204
0.00318563 -0.000253716 -5.81306e-05
-0.000253716 0.00100034 5.82126e-06
-5.81306e-05 5.82126e-06 -0.000954842
0.00155307 0.000513985 0.00012021
0.000513985 0.00245561 -0.000121113
0.00012021 -0.000121113 0.00189947
0.00381305 -0.000182686 1.08111e-05
-0.000182686 0.000284927 -2.91617e-05
1.08111e-05 -2.91617e-05 3.94076e-05
0.0104076 -0.000116167 8.53575e-05
-0.000116167 0.00316264 -4.37343e-05
8.53575e-05 -4.37343e-05 0.00147611
-0.00333183 0.00105724 -9.62558e-05
0.00105724 -0.00371923 0.000109682
-9.62558e-05 0.000109682 -0.00286024
0.00447109 0.00109449 1.1518e-05
0.00109449 -0.00018997 3.75315e-05
1.1518e-05 3.75315e-05 0.000417748
0.00469005 -0.00065503 -8.10473e-05
-0.00065503 0.000379483 -1.30064e-07
-8.10473e-05 -1.30064e-07 -0.000222115
0.00949623 -0.00041472 5.25205e-05
-0.00041472 0.00373209 -1.43809e-05
5.25205e-05 -1.43809e-05 0.00170203
0.00559537 0.000764091 4.52394e-05
0.000764091 0.000295226 -8.20821e-05
4.52394e-05 -8.20821e-05 0.000214967
0.00439899 0.000591706 -1.47745e-05
0.000591706 -0.00160452 8.52569e-06
-1.47745e-05 8.52569e-06 -0.000500656
0.00479977 -0.00112582 -2.60778e-06
-0.00112582 0.000758281 -4.93534e-06
-2.60778e-06 -4.93534e-06 -0.000226822
0.0103462 -0.000915467 6.43342e-05
-0.000915467 0.0050814 -4.02787e-05
6.43342e-05 -4.02787e-05 0.00159634
0.00239613 -0.000140344 5.61378e-05
-0.000140344 -0.000181487 -0.000132423
5.61378e-05 -0.000132423 -0.000385212
0.00588361 0.000205887 -2.18517e-05
0.000205887 -0.000781843 5.85298e-05
-2.18517e-05 5.85298e-05 0.000766581
0.00077787 -3.03328e-05 3.97624e-07
-3.03328e-05 0.000133112 -1.12885e-06
3.97624e-07 -1.12885e-06 -2.85664e-06
0.000754659 -4.00894e-05 3.65503e-07
-4.00894e-05 0.000129767 7.82948e-08
3.65503e-07 7.82948e-08 -7.00431e-08
0.000853041 8.53527e-05 -1.2582e-06
8.53527e-05 0.000184365 9.09475e-08
-1.2582e-06 9.09475e-08 6.97727e-05
0.000718524 2.49791e-05 -3.42338e-07
2.49791e-05 7.25596e-05 -8.68829e-07
-3.42338e-07 -8.68829e-07 -4.129e-05
0.000827884 7.74365e-05 -7.57646e-07
7.74365e-05 0.000161798 7.34322e-07
-7.57646e-07 7.34322e-07 3.3485e-05
0.000846956 5.92581e-05 1.28591e-07
5.92581e-05 0.000171757 2.3053e-06
1.28591e-07 2.3053e-06 5.83727e-05
0.000958537 0.000102383 -7.52302e-07
0.000102383 0.000237802 -1.92789e-09
-7.52302e-07 -1.92789e-09 0.000119776
0.000975277 0.00010795 8.24943e-07
0.00010795 0.000256112 2.72483e-06
8.24943e-07 2.72483e-06 0.00013994
0.00142635 -0.000223716 5.04535e-05
-0.000223716 5.08212e-05 -1.63551e-05
5.04535e-05 -1.63551e-05 -4.1517e-06
0.000858211 -0.000319264 7.72941e-06
-0.000319264 -0.000223292 -1.7057e-05
7.72941e-06 -1.7057e-05 -0.000241447
0.000747706 -0.000145154 -1.67868e-06
-0.000145154 0.000133654 9.65302e-07
-1.67868e-06 9.65302e-07 -9.79437e-06
0.00231347 -0.000268898 8.17276e-06
-0.000268898 0.0010214 -2.52759e-05
8.17276e-06 -2.52759e-05 0.000772967
0.00188736 -0.000140483 -2.94264e-06
-0.000140483 0.000839182 7.19746e-06
-2.94264e-06 7.19746e-06 0.000627982
0.000894875 -5.04033e-05 -2.2919e-06
-5.04033e-05 0.000209837 -7.94026e-07
-2.2919e-06 -7.94026e-07 7.05719e-05
0.000804777 1.38895e-05 2.58609e-07
1.38895e-05 0.000152948 -2.10954e-07
2.58609e-07 -2.10954e-07 1.49e-05
0.000407871 -0.000386265 -1.0172e-05
-0.000386265 -0.000514135 -4.23215e-07
-1.0172e-05 -4.23215e-07 -0.000503124
0.00105565 3.87289e-05 -1.20477e-07
3.87289e-05 0.000372636 2.39075e-06
-1.20477e-07 2.39075e-06 0.000172942
0.000990092 -0.000119637 -4.13823e-06
-0.000119637 0.000339579 1.28302e-06
-4.13823e-06 1.28302e-06 0.000133746
0.000379495 -0.000143638 2.78462e-06
-0.000143638 -6.25301e-05 3.86145e-06
2.78462e-06 3.86145e-06 -0.000110083
0.000659316 2.91533e-05 1.60208e-06
2.91533e-05 4.64756e-05 -1.43601e-06
1.60208e-06 -1.43601e-06 -7.53288e-05
0.00136842 -0.000325154 1.93263e-05
-0.000325154 4.25104e-05 -3.08106e-05
1.93263e-05 -3.08106e-05 0.000206988
0.000345575 -0.000115335 -1.02332e-05
-0.000115335 0.000165485 3.05842e-05
-1.02332e-05 3.05842e-05 6.30041e-05
0.000791467 -9.29915e-06 -9.5577e-07
-9.29915e-06 0.000277916 1.02717e-05
-9.5577e-07 1.02717e-05 6.04753e-05
0.00134908 0.00017614 2.11198e-06
0.00017614 0.000501269 -2.63477e-06
2.11198e-06 -2.63477e-06 0.000334945
0.00101582 -3.57575e-05 -9.63048e-06
-3.57575e-05 0.000547012 -4.61908e-06
-9.63048e-06 -4.61908e-06 6.11657e-05
0.00142229 -5.22096e-05 6.07955e-05
-5.22096e-05 0.00064728 -6.17299e-06
6.07955e-05 -6.17299e-06 -0.000498002
-0.00391567 -5.41773e-05 -0.000101096
-5.41773e-05 0.00110393 5.49288e-06
-0.000101096 5.49288e-06 -0.000740087
0.000923309 0.000154332 1.39007e-05
0.000154332 0.000396798 7.61768e-07
1.39007e-05 7.61768e-07 0.000274544
-0.000730318 0.000213472 1.236e-05
0.000213472 -0.000434252 1.13585e-05
1.236e-05 1.13585e-05 -0.000666806
0.00296218 5.85673e-06 7.25391e-05
5.85673e-06 0.00138679 4.09879e-06
7.25391e-05 4.09879e-06 0.000404888
0.00789319 0.000374894 0.000122908
0.000374894 0.00356264 6.4e-05
0.000122908 6.4e-05 0.000547929
0.00279193 0.000603382 -8.7604e-05
0.000603382 0.00108456 -8.07564e-05
-8.7604e-05 -8.07564e-05 9.47324e-05
0.00357184 -0.000458608 -9.02437e-07
-0.000458608 0.000807763 -0.000137612
-9.02437e-07 -0.000137612 -0.000301503
0.00119866 0.000117384 3.35293e-05
0.000117384 0.000218848 0.000105202
3.35293e-05 0.000105202 -0.00121329
0.00388037 -4.56721e-06 8.11347e-07
-4.56721e-06 -0.00340562 -8.31647e-05
8.11347e-07 -8.31647e-05 -0.000867901
0.000724147 0.000138601 7.5946e-07
0.000138601 0.00041111 -1.31983e-06
7.5946e-07 -1.31983e-06 0.000272227
0.000881744 -5.41381e-05 -2.17033e-07
-5.41381e-05 0.000168654 -8.08946e-06
-2.17033e-07 -8.08946e-06 -3.58508e-05
0.00253401 1.27804e-05 3.25261e-05
1.27804e-05 0.000587995 7.70271e-06
3.25261e-05 7.70271e-06 -0.00028523
-0.000878561 0.000114029 -1.16304e-05
0.000114029 -0.00034984 -5.57851e-06
-1.16304e-05 -5.57851e-06 -0.000699028
0.0046906 0.000685116 1.20519e-05
0.000685116 -0.00156735 -8.43797e-06
1.20519e-05 -8.43797e-06 -0.00047629
0.00542371 0.000823934 8.93608e-05
0.000823934 0.00276694 3.9547e-05
8.93608e-05 3.9547e-05 -0.000516682
0.0031637 0.000197162 -5.10931e-05
0.000197162 0.00211498 7.82747e-06
-5.10931e-05 7.82747e-06 0.00121339
0.000187089 0.000148039 -1.86765e-05
0.000148039 0.000182031 -1.39858e-05
-1.86765e-05 -1.39858e-05 -2.95414e-05
0.0017495 3.65825e-05 -6.78071e-07
3.65825e-05 3.92641e-05 -2.3028e-05
-6.78071e-07 -2.3028e-05 -9.02415e-06
0.00351072 -0.00013119 2.5058e-05
-0.00013119 0.00190682 -8.13416e-05
2.5058e-05 -8.13416e-05 0.00097265
0.00554025 0.00112343 0.000122282
0.00112343 6.86688e-05 -8.98869e-05
0.000122282 -8.98869e-05 0.000790348
0.00545476 -8.59126e-05 -7.28553e-05
-8.59126e-05 0.000847676 0.000120455
-7.28553e-05 0.000120455 0.000872985
0.0011817 0.000198236 -1.35418e-05
0.000198236 6.38031e-05 -4.38309e-05
-1.35418e-05 -4.38309e-05 6.66025e-05
-0.000469597 0.000699144 0.00010911
0.000699144 0.00211238 3.70576e-05
0.00010911 3.70576e-05 -0.00281747
0.000759468 0.000128116 2.91547e-06
0.000128116 0.000231883 6.00925e-06
2.91547e-06 6.00925e-06 0.000122304
0.000358687 7.66129e-05 5.98222e-06
7.66129e-05 0.00022306 1.79829e-06
5.98222e-06 1.79829e-06 9.22159e-05
0.00108173 4.09027e-05 -2.75715e-05
4.09027e-05 0.000707162 -1.91397e-05
-2.75715e-05 -1.91397e-05 0.000608536
0.000499504 -1.62062e-05 8.41102e-07
-1.62062e-05 -6.29724e-05 3.27106e-06
8.41102e-07 3.27106e-06 -0.000160315
0.000827327 -3.8113e-05 2.00601e-06
-3.8113e-05 0.000233877 4.04843e-06
2.00601e-06 4.04843e-06 0.00012917
-6.71809e-05 1.09503e-08 -2.76126e-08
1.09503e-08 -0.0001174 5.86045e-06
-2.76126e-08 5.86045e-06 -0.000229539
0.000717033 -5.365e-05 5.65488e-07
-5.365e-05 0.000141667 -4.30138e-07
5.65488e-07 -4.30138e-07 5.13573e-05
0.000119631 -8.2466e-06 3.32353e-06
-8.2466e-06 -3.32457e-05 4.97862e-09
3.32353e-06 4.97862e-09 -0.000111884
0.00114884 -0.000167799 7.16579e-06
-0.000167799 0.000555385 -7.6872e-06
7.16579e-06 -7.6872e-06 0.000390913
0.00116697 -3.70523e-05 -1.75169e-06
-3.70523e-05 0.000342137 3.80758e-06
-1.75169e-06 3.80758e-06 0.000263649
0.000454497 3.12832e-05 -9.74111e-07
3.12832e-05 -7.9693e-05 1.58221e-06
-9.74111e-07 1.58221e-06 -0.000172124
0.00132237 -0.000113067 1.06994e-06
-0.000113067 0.000422812 1.7559e-06
1.06994e-06 1.7559e-06 0.00032303
-4.96776e-05 -0.000118991 4.20586e-06
-0.000118991 -0.000248737 1.44613e-06
4.20586e-06 1.44613e-06 -0.000459633
0.000450573 -4.62095e-05 -4.38893e-06
-4.62095e-05 -8.42455e-05 1.2803e-06
-4.38893e-06 1.2803e-06 -0.000157519
0.000153465 -0.000122696 1.75355e-06
-0.000122696 -0.000252699 -1.06762e-06
1.75355e-06 -1.06762e-06 -0.000402053
0.00102805 -0.0002327 7.88219e-06
-0.0002327 0.000198305 -1.69265e-06
7.88219e-06 -1.69265e-06 -2.44396e-05
0.00131924 -0.000275009 -3.32494e-06
-0.000275009 0.000208141 4.33802e-06
-3.32494e-06 4.33802e-06 -3.10217e-05
0.00164198 -0.000178853 -2.30706e-06
-0.000178853 0.000595899 2.05645e-07
-2.30706e-06 2.05645e-07 0.00044669
0.000625165 -0.000186383 -1.48737e-07
-0.000186383 -4.25228e-05 1.18323e-07
-1.48737e-07 1.18323e-07 -0.000244412
0.00190627 -0.000290367 1.75384e-06
-0.000290367 0.000668449 -1.43958e-06
1.75384e-06 -1.43958e-06 0.000467942
0.000146111 -0.000100656 -2.60241e-06
-0.000100656 -0.000231067 2.19875e-07
-2.60241e-06 2.19875e-07 -0.000406509
0.0008955 -0.000190498 -5.15489e-07
-0.000190498 0.000128872 8.05343e-07
-5.15489e-07 8.05343e-07 -6.76882e-05
0.00064636 -4.26889e-05 8.13349e-08
-4.26889e-05 5.34436e-05 1.14546e-07
8.13349e-08 1.14546e-07 -6.77785e-05
0.00104473 -0.000167636 -3.33908e-06
-0.000167636 0.00030163 2.34748e-06
-3.33908e-06 2.34748e-06 0.000140664
0.00018539 -0.000117545 -1.95635e-06
-0.000117545 -0.000241292 -1.85849e-06
-1.95635e-06 -1.85849e-06 -0.000423216
0.000648561 3.13068e-05 4.79672e-07
3.13068e-05 3.56988e-05 9.89594e-07
4.79672e-07 9.89594e-07 -5.09019e-05
0.000729687 -3.29894e-05 8.29167e-07
-3.29894e-05 9.60738e-05 -1.0273e-07
8.29167e-07 -1.0273e-07 -1.19009e-05
0.00083737 -7.44387e-05 2.39489e-06
-7.44387e-05 0.000182392 -2.73068e-06
2.39489e-06 -2.73068e-06 5.11148e-05
0.00071049 -4.65857e-06 3.32428e-07
-4.65857e-06 8.22265e-05 -3.24455e-07
3.32428e-07 -3.24455e-07 -1.31287e-05
0.000714135 -4.76782e-06 -5.59776e-07
-4.76782e-06 6.98338e-05 -1.27468e-07
-5.59776e-07 -1.27468e-07 -9.66278e-06
0.00063833 3.61551e-05 -1.1933e-06
3.61551e-05 8.13373e-06 1.91689e-06
-1.1933e-06 1.91689e-06 -4.51737e-05
0.000757806 -3.46035e-05 7.00868e-07
-3.46035e-05 9.74784e-05 -8.28574e-07
7.00868e-07 -8.28574e-07 1.81093e-05
0.0006583 2.83193e-05 -4.68904e-07
2.83193e-05 1.49282e-05 -5.80944e-08
-4.68904e-07 -5.80944e-08 -3.51697e-05
0.000596534 4.30568e-05 -1.10053e-06
4.30568e-05 -2.80222e-05 3.88365e-06
-1.10053e-06 3.88365e-06 -4.53108e-05
0.000700678 6.28762e-07 1.96076e-06
6.28762e-07 3.38286e-05 -1.86602e-06
1.96076e-06 -1.86602e-06 -1.33284e-05
0.000599677 3.53486e-05 1.35859e-07
3.53486e-05 -3.28196e-05 1.32617e-08
1.35859e-07 1.32617e-08 -4.81412e-05
0.00220879 6.74486e-05 -4.33671e-06
6.74486e-05 0.000916507 1.80965e-06
-4.33671e-06 1.80965e-06 0.000928074
0.000576006 2.7632e-05 8.62526e-07
2.7632e-05 -5.05551e-05 -3.90824e-06
8.62526e-07 -3.90824e-06 -6.48524e-05
0.00155044 4.21007e-05 8.64121e-06
4.21007e-05 0.000525151 -1.17721e-06
8.64121e-06 -1.17721e-06 0.00053545
0.00231613 4.08221e-05 1.24423e-05
4.08221e-05 0.000969153 -4.67532e-06
1.24423e-05 -4.67532e-06 0.000984056
0.000469815 -5.27484e-06 -1.07483e-07
-5.27484e-06 -7.50899e-05 -2.0693e-06
-1.07483e-07 -2.0693e-06 -0.000162937
0.000368532 -4.18687e-06 -1.75012e-07
-4.18687e-06 -0.000155087 -3.22325e-06
-1.75012e-07 -3.22325e-06 -0.000207121
0.000637546 1.22028e-05 -4.24441e-07
1.22028e-05 3.14423e-05 -8.35989e-07
-4.24441e-07 -8.35989e-07 -5.70168e-05
0.000616295 -1.65152e-05 1.5569e-08
-1.65152e-05 -3.26165e-05 -4.00495e-06
1.5569e-08 -4.00495e-06 -4.34256e-05
0.000362452 -2.44061e-06 -2.92316e-07
-2.44061e-06 -0.00015757 -1.01284e-06
-2.92316e-07 -1.01284e-06 -0.000204985
0.000797637 1.97012e-05 -1.16044e-07
1.97012e-05 0.000128517 1.88855e-06
-1.16044e-07 1.88855e-06 4.54503e-05
0.00215711 -2.42162e-05 -9.68442e-06
-2.42162e-05 0.000870684 -4.79311e-06
-9.68442e-06 -4.79311e-06 0.000888879
0.000618101 -1.0165e-05 -1.57037e-07
-1.0165e-05 -3.31495e-05 -4.31762e-08
-1.57037e-07 -4.31762e-08 -4.14065e-05
0.000343478 -1.50329e-06 4.54792e-07
-1.50329e-06 -0.000167726 2.24485e-06
4.54792e-07 2.24485e-06 -0.000210835
0.00208427 -1.05742e-05 -3.3968e-06
-1.05742e-05 0.000826399 4.16041e-08
-3.3968e-06 4.16041e-08 0.000845901
0.0006217 -3.88289e-06 -5.19596e-08
-3.88289e-06 -3.16545e-05 3.58815e-06
-5.19596e-08 3.58815e-06 -3.82684e-05
0.0020734 2.73389e-06 9.21753e-07
2.73389e-06 0.000820113 4.72218e-06
9.21753e-07 4.72218e-06 0.000839805
0.00117547 7.94286e-06 -5.19868e-07
7.94286e-06 0.00051195 1.57263e-05
-5.19868e-07 1.57263e-05 0.000224461
0.00130169 -7.86337e-05 8.55822e-06
-7.86337e-05 0.000238586 -6.15595e-06
8.55822e-06 -6.15595e-06 -0.000927135
0.00183151 8.17554e-05 2.54543e-05
8.17554e-05 0.00279825 -3.30981e-05
2.54543e-05 -3.30981e-05 0.00195803
0.000803329 7.07735e-05 -1.83229e-07
7.07735e-05 0.000127037 2.77808e-07
-1.83229e-07 2.77808e-07 1.74769e-05
0.000646255 4.16948e-05 1.25136e-07
4.16948e-05 2.11001e-05 -3.97569e-08
1.25136e-07 -3.97569e-08 -7.93077e-05
0.0009213 9.6997e-05 1.26737e-07
9.6997e-05 0.00019094 9.57077e-07
1.26737e-07 9.57077e-07 7.51606e-05
0.00221967 -5.92964e-05 8.59544e-06
-5.92964e-05 0.000219014 0.000132274
8.59544e-06 0.000132274 -0.000835398
0.00313509 -0.000142403 -1.58232e-06
-0.000142403 0.0018428 1.00868e-06
-1.58232e-06 1.00868e-06 0.000800938
0.00345148 -0.000286752 4.60987e-05
-0.000286752 0.00126731 -9.78159e-05
4.60987e-05 -9.78159e-05 -0.000851712
0.00520523 -0.000721597 -5.17094e-05
-0.000721597 0.000911026 2.0908e-07
-5.17094e-05 2.0908e-07 0.000263117
0.00180909 -0.000549618 -9.08264e-05
-0.000549618 0.000131707 7.10399e-05
-9.08264e-05 7.10399e-05 -0.0023638
0.00880515 0.00106313 7.47532e-05
0.00106313 0.00283799 4.42098e-05
7.47532e-05 4.42098e-05 0.00252829
0.00202445 0.000197028 2.61661e-05
0.000197028 -0.00303153 -5.65728e-05
2.61661e-05 -5.65728e-05 -0.00189801
0.00539245 -0.00113449 -1.58248e-05
-0.00113449 0.00139756 4.3062e-06
-1.58248e-05 4.3062e-06 0.000628392
0.0067435 -0.00077941 -3.69294e-07
-0.00077941 0.003037 1.27949e-05
-3.69294e-07 1.27949e-05 4.73741e-05
-0.00236102 0.000586232 -1.75929e-05
0.000586232 -0.000436564 -8.11859e-05
-1.75929e-05 -8.11859e-05 -0.0017325
0.00472888 -8.36939e-06 -1.3779e-05
-8.36939e-06 -0.00213038 3.40842e-05
-1.3779e-05 3.40842e-05 -0.000102843
0.00247043 -0.000778782 -4.08289e-05
-0.000778782 0.000316889 -1.47025e-05
-4.08289e-05 -1.47025e-05 -0.000354244
0.0110731 -0.00105239 -1.26591e-05
-0.00105239 0.00512519 3.77765e-05
-1.26591e-05 3.77765e-05 0.00155822
-0.00901551 -0.000103032 4.64702e-05
-0.000103032 -0.000877667 -0.000161367
4.64702e-05 -0.000161367 -0.00262978
0.00321849 -0.000605987 7.08556e-06
-0.000605987 -0.00197001 -3.03179e-05
7.08556e-06 -3.03179e-05 -0.00065267
0.00075932 3.75833e-05 -3.23446e-07
3.75833e-05 9.95573e-05 -2.11337e-07
-3.23446e-07 -2.11337e-07 -2.65231e-05
0.000715549 9.77378e-07 1.42117e-07
9.77378e-07 9.61393e-05 -6.26443e-07
1.42117e-07 -6.26443e-07 -3.8942e-05
0.000732418 -5.78238e-05 8.71223e-08
-5.78238e-05 0.000117244 3.58138e-07
8.71223e-08 3.58138e-07 -1.53227e-05
0.000760581 4.84792e-05 -4.64843e-07
4.84792e-05 9.95557e-05 -6.11969e-07
-4.64843e-07 -6.11969e-07 -1.70845e-05
0.000898525 0.000116452 1.02576e-06
0.000116452 0.000202918 1.71472e-06
1.02576e-06 1.71472e-06 7.6864e-05
0.00104946 0.00011504 -7.71133e-07
0.00011504 0.000292566 1.13473e-06
-7.71133e-07 1.13473e-06 0.00017262
0.000501034 -0.000390918 1.77457e-05
-0.000390918 -0.000478225 7.217e-06
1.77457e-05 7.217e-06 -0.000503017
-0.000521902 -9.17362e-05 1.63593e-05
-9.17362e-05 -0.000567991 -2.24706e-05
1.63593e-05 -2.24706e-05 -0.000573372
0.000933413 6.05185e-05 -1.3679e-06
6.05185e-05 0.000234198 -2.02175e-07
-1.3679e-06 -2.02175e-07 9.16879e-05
0.00135284 -0.000158131 2.0279e-05
-0.000158131 0.000500732 -3.18319e-05
2.0279e-05 -3.18319e-05 0.00030045
0.00130946 1.81611e-05 -2.47555e-06
1.81611e-05 0.000511048 1.59621e-06
-2.47555e-06 1.59621e-06 0.000308223
0.000700431 1.96279e-05 -5.05095e-08
1.96279e-05 7.10566e-05 5.29656e-07
-5.05095e-08 5.29656e-07 -5.63001e-05
0.000613294 8.90511e-05 2.87097e-07
8.90511e-05 7.66185e-05 2.59032e-08
2.87097e-07 2.59032e-08 -7.58256e-05
0.00022037 -0.000327457 -3.81646e-06
-0.000327457 -0.000540392 -3.03771e-06
-3.81646e-06 -3.03771e-06 -0.0005177
0.000839417 -2.39171e-05 4.09409e-06
-2.39171e-05 0.000298002 -1.75305e-06
4.09409e-06 -1.75305e-06 9.13095e-05
0.000527939 -5.73412e-05 2.22975e-05
-5.73412e-05 0.00028186 1.0174e-07
2.22975e-05 1.0174e-07 0.000175864
0.00104072 6.65055e-05 2.73034e-06
6.65055e-05 0.000274329 -4.15926e-06
2.73034e-06 -4.15926e-06 0.000152492
-0.00251233 0.000136082 -6.15276e-05
0.000136082 -0.00113353 -1.34505e-05
-6.15276e-05 -1.34505e-05 -0.00149591
7.11708e-05 7.88031e-06 6.32592e-06
7.88031e-06 1.50553e-05 3.48734e-05
6.32592e-06 3.48734e-05 -8.48639e-05
0.00127654 4.96131e-06 2.74462e-06
4.96131e-06 0.000542824 1.7665e-06
2.74462e-06 1.7665e-06 0.000371785
0.00110313 -3.02425e-05 1.30537e-06
-3.02425e-05 -1.64639e-05 5.58325e-07
1.30537e-06 5.58325e-07 -0.000432917
0.000844241 -2.81177e-05 -1.48731e-05
-2.81177e-05 0.000414865 -6.71406e-06
-1.48731e-05 -6.71406e-06 4.42018e-06
0.000993428 -3.49488e-05 0.000141127
-3.49488e-05 0.000485136 -4.5286e-06
0.000141127 -4.5286e-06 -0.000705202
0.000817772 0.00017509 1.53783e-05
0.00017509 0.000448527 1.25493e-05
1.53783e-05 1.25493e-05 0.000298777
0.00184112 0.000392784 1.29614e-05
0.000392784 0.000623401 -1.28519e-05
1.29614e-05 -1.28519e-05 0.000399543
0.000918644 -5.45965e-05 3.31756e-06
-5.45965e-05 0.000209755 5.00267e-06
3.31756e-06 5.00267e-06 5.01317e-06
-0.00191527 0.000441851 2.8428e-05
0.000441851 1.00751e-05 3.77526e-05
2.8428e-05 3.77526e-05 -0.00334656
-0.0105245 0.000229585 -6.03082e-05
0.000229585 -0.00370939 -0.000164248
-6.03082e-05 -0.000164248 -0.00548933
0.00252936 3.0518e-05 3.42101e-05
3.0518e-05 0.000804841 6.22994e-05
3.42101e-05 6.22994e-05 0.000108971
0.00220611 0.000329683 -3.35547e-05
0.000329683 -0.00295505 5.75463e-05
-3.35547e-05 5.75463e-05 -0.00186608
0.000462029 0.000143569 5.44125e-06
0.000143569 0.000338052 -1.82853e-06
5.44125e-06 -1.82853e-06 0.000150189
0.00158296 -4.33925e-06 9.27803e-06
-4.33925e-06 -6.71213e-05 -1.5657e-05
9.27803e-06 -1.5657e-05 -4.83175e-05
0.003206 -0.000102476 7.28657e-07
-0.000102476 0.00179322 -1.28884e-06
7.28657e-07 -1.28884e-06 0.000777529
0.00135366 0.000211864 -1.40005e-05
0.000211864 0.000274672 -3.81628e-06
-1.40005e-05 -3.81628e-06 -0.000138751
0.0025943 0.00103107 5.07635e-05
0.00103107 -0.00158252 -0.000119425
5.07635e-05 -0.000119425 -0.000763975
-0.00211938 0.000552834 1.50746e-05
0.000552834 -0.00110891 8.0281e-05
1.50746e-05 8.0281e-05 -0.00193735
0.00677277 -1.02222e-05 6.24149e-05
-1.02222e-05 0.00487035 -2.26323e-05
6.24149e-05 -2.26323e-05 0.000200041
0.00170653 -1.75165e-05 3.44586e-05
-1.75165e-05 0.00126633 -1.69375e-05
3.44586e-05 -1.69375e-05 0.000929972
0.00123067 3.44911e-05 -2.3765e-06
3.44911e-05 0.0004875 -1.33675e-05
-2.3765e-06 -1.33675e-05 0.000210763
0.00330102 -0.000178364 0.000163503
-0.000178364 0.000828141 -0.000133249
0.000163503 -0.000133249 -0.000871778
0.00377161 0.0014029 -7.48969e-06
0.0014029 0.00245223 -1.36565e-05
-7.48969e-06 -1.36565e-05 0.0033621
-0.00500389 0.00064324 4.19583e-05
0.00064324 -0.00458626 0.000227317
4.19583e-05 0.000227317 -0.00446714
0.0121312 -0.000926939 9.46804e-05
-0.000926939 0.00504575 -8.95061e-05
9.46804e-05 -8.95061e-05 0.0016193
0.0042567 -0.000405201 -9.05334e-05
-0.000405201 0.00138625 9.79172e-05
-9.05334e-05 9.79172e-05 0.00127005
0.000772393 9.64472e-05 5.59792e-06
9.64472e-05 0.000455101 4.372e-06
5.59792e-06 4.372e-06 0.000316187
-9.3727e-05 4.38583e-06 -9.60731e-06
4.38583e-06 4.7106e-05 1.9019e-06
-9.60731e-06 1.9019e-06 -8.25029e-05
0.00123565 -0.000235259 1.19003e-05
-0.000235259 0.000788499 -1.44627e-05
1.19003e-05 -1.44627e-05 0.000540735
0.000973227 -6.55768e-05 1.42599e-06
-6.55768e-05 0.000280005 2.46841e-06
1.42599e-06 2.46841e-06 0.00019399
-0.000507759 -2.88429e-05 4.52783e-06
-2.88429e-05 -0.000390101 1.36224e-05
4.52783e-06 1.36224e-05 -0.00047677
0.000149277 -0.000142061 -1.36151e-06
-0.000142061 2.15053e-05 -2.90429e-07
-1.36151e-06 -2.90429e-07 -0.000133044
0.00124608 -0.000246606 2.36423e-05
-0.000246606 0.000549651 -1.45142e-05
2.36423e-05 -1.45142e-05 0.000274738
0.00204051 -0.000160632 -4.06819e-06
-0.000160632 0.000821994 3.78086e-06
-4.06819e-06 3.78086e-06 0.000712831
0.00162771 -0.000271959 1.70824e-06
-0.000271959 0.000627684 1.3904e-07
1.70824e-06 1.3904e-07 0.000405837
0.00118765 -0.000269144 8.42931e-06
-0.000269144 0.000399782 2.36711e-06
8.42931e-06 2.36711e-06 4.41573e-05
5.18264e-05 -0.000103578 -1.7784e-06
-0.000103578 -0.000312895 -4.44119e-07
-1.7784e-06 -4.44119e-07 -0.000447338
0.00122898 -0.000247524 -3.34621e-07
-0.000247524 0.00028657 1.48742e-06
-3.34621e-07 1.48742e-06 5.49573e-05
0.0025604 -0.000410868 2.66947e-06
-0.000410868 0.000912527 2.8255e-06
2.66947e-06 2.8255e-06 0.000607409
0.00176485 -0.000354396 -1.91027e-06
-0.000354396 0.000348068 1.98944e-06
-1.91027e-06 1.98944e-06 8.17133e-05
0.000504829 -0.000195857 6.63429e-07
-0.000195857 -0.00021626 6.81154e-06
6.63429e-07 6.81154e-06 -0.000422934
0.00131402 -0.000275883 -3.90433e-06
-0.000275883 0.0002118 1.94742e-06
-3.90433e-06 1.94742e-06 -2.93342e-05
0.000975775 -0.000216905 -6.15292e-06
-0.000216905 0.000144852 1.55851e-06
-6.15292e-06 1.55851e-06 -6.68558e-05
0.00174577 -0.000265549 5.03101e-06
-0.000265549 0.000612156 -2.86937e-06
5.03101e-06 -2.86937e-06 0.000419252
0.00128729 -0.00023443 2.94787e-06
-0.00023443 0.000320318 -2.7495e-06
2.94787e-06 -2.7495e-06 0.000136466
0.000174772 -4.66925e-05 1.83081e-06
-4.66925e-05 -0.000214109 7.73184e-07
1.83081e-06 7.73184e-07 -0.000365406
0.000718171 -0.000152865 1.54176e-06
-0.000152865 9.95833e-05 -6.20447e-07
1.54176e-06 -6.20447e-07 -8.14399e-05
0.00113747 -0.000208859 5.92023e-06
-0.000208859 0.000270527 -4.63974e-06
5.92023e-06 -4.63974e-06 7.62546e-05
0.000632562 3.68151e-05 1.33939e-06
3.68151e-05 3.41566e-05 1.55955e-06
1.33939e-06 1.55955e-06 -6.90376e-05
0.000886493 -7.34746e-05 -4.59959e-07
-7.34746e-05 0.000196731 1.66535e-07
-4.59959e-07 1.66535e-07 6.81032e-05
0.00105085 -0.000175211 -6.74977e-07
-0.000175211 0.00030571 -5.91593e-07
-6.74977e-07 -5.91593e-07 0.000142975
0.000626309 3.30266e-05 -1.18576e-06
3.30266e-05 5.47075e-06 2.01039e-06
-1.18576e-06 2.01039e-06 -5.23793e-05
0.00073117 1.41255e-06 -6.84304e-07
1.41255e-06 8.10136e-05 -2.80014e-07
-6.84304e-07 -2.80014e-07 -6.20612e-06
0.000614217 -1.9356e-05 1.31361e-07
-1.9356e-05 3.5097e-05 -5.0723e-07
1.31361e-07 -5.0723e-07 -7.50058e-05
0.000769641 -2.47373e-05 6.02228e-07
-2.47373e-05 0.000103672 -1.07162e-06
6.02228e-07 -1.07162e-06 2.18081e-05
0.000666342 1.97474e-05 -2.64967e-07
1.97474e-05 2.20842e-05 -8.47679e-08
-2.64967e-07 -8.47679e-08 -3.01554e-05
0.000581085 5.12047e-05 -9.0258e-07
5.12047e-05 -2.8118e-05 4.13548e-06
-9.0258e-07 4.13548e-06 -4.85313e-05
0.000682367 9.9741e-06 1.89728e-06
9.9741e-06 2.633e-05 -1.81106e-06
1.89728e-06 -1.81106e-06 -2.24735e-05
0.000597956 4.43195e-05 -1.75487e-08
4.43195e-05 -2.7048e-05 -1.0528e-08
-1.75487e-08 -1.0528e-08 -4.44968e-05
0.00225241 7.38218e-05 -2.36529e-05
7.38218e-05 0.000949443 3.78671e-06
-2.36529e-05 3.78671e-06 0.000959679
0.000587952 3.60896e-05 9.34696e-07
3.60896e-05 -3.96196e-05 -3.87103e-06
9.34696e-07 -3.87103e-06 -5.49741e-05
0.00153319 5.23904e-05 1.03006e-05
5.23904e-05 0.000521708 -1.03383e-06
1.03006e-05 -1.03383e-06 0.000530359
0.00231124 5.33318e-05 1.63571e-05
5.33318e-05 0.000971549 -4.35664e-06
1.63571e-05 -4.35664e-06 0.000985054
0.000712282 5.2533e-05 -5.09145e-07
5.2533e-05 6.56844e-05 -1.05336e-06
-5.09145e-07 -1.05336e-06 -2.48745e-05
0.000658261 1.2275e-05 -6.99324e-07
1.2275e-05 1.0948e-05 -2.47574e-06
-6.99324e-07 -2.47574e-06 -4.28062e-05
0.00059382 3.24428e-05 -1.04784e-06
3.24428e-05 4.95523e-06 -8.21335e-07
-1.04784e-06 -8.21335e-07 -8.82026e-05
0.000605117 -2.33219e-05 1.75116e-07
-2.33219e-05 -3.62049e-05 -4.29019e-06
1.75116e-07 -4.29019e-06 -5.00961e-05
0.000496003 6.75849e-06 -1.05931e-06
6.75849e-06 -8.13503e-05 -1.00984e-06
-1.05931e-06 -1.00984e-06 -0.00013222
0.000812023 3.14499e-05 3.47002e-07
3.14499e-05 0.000132711 6.36799e-07
3.47002e-07 6.36799e-07 4.49854e-05
0.00223655 -3.6907e-05 -1.42564e-05
-3.6907e-05 0.000919757 -4.7181e-06
-1.42564e-05 -4.7181e-06 0.000936297
0.000611991 -1.63042e-05 -2.27389e-07
-1.63042e-05 -3.51591e-05 -4.22386e-08
-2.27389e-07 -4.22386e-08 -4.58262e-05
0.000325803 -2.78496e-06 -4.9941e-07
-2.78496e-06 -0.000178603 1.41844e-06
-4.9941e-07 1.41844e-06 -0.000226674
0.00214715 -2.2999e-05 -3.47102e-06
-2.2999e-05 0.000864482 8.1678e-08
-3.47102e-06 8.1678e-08 0.000882927
0.00061778 -1.01957e-05 -7.93046e-08
-1.01957e-05 -3.3251e-05 3.72436e-06
-7.93046e-08 3.72436e-06 -4.14368e-05
0.00208709 -9.29422e-06 5.484e-06
-9.29422e-06 0.000827877 4.74833e-06
5.484e-06 4.74833e-06 0.000847443
0.00167349 -2.94784e-05 -2.08628e-06
-2.94784e-05 2.90875e-06 2.46996e-05
-2.08628e-06 2.46996e-05 -3.41956e-05
0.00119347 -2.81728e-06 -2.3527e-06
-2.81728e-06 0.000440832 -1.27246e-06
-2.3527e-06 -1.27246e-06 0.000205031
0.00173682 -7.09274e-05 9.22118e-05
-7.09274e-05 0.000488642 -2.39569e-05
9.22118e-05 -2.39569e-05 -0.000642001
0.000625602 2.5811e-06 -1.74615e-07
2.5811e-06 1.61362e-06 -6.87042e-07
-1.74615e-07 -6.87042e-07 -9.13894e-05
0.000873194 2.71807e-05 -1.10267e-06
2.71807e-05 0.000151968 -6.39918e-07
-1.10267e-06 -6.39918e-07 4.82068e-05
0.000811604 7.04549e-05 1.20533e-06
7.04549e-05 0.000128946 7.69768e-07
1.20533e-06 7.69768e-07 2.40283e-05
0.000659645 2.62801e-05 1.96182e-07
2.62801e-05 2.30288e-05 1.5171e-07
1.96182e-07 1.5171e-07 -7.28429e-05
0.000783448 4.96341e-05 7.9991e-08
4.96341e-05 0.000110183 2.21017e-07
7.9991e-08 2.21017e-07 -2.9313e-06
0.000769424 3.47433e-05 -7.64376e-07
3.47433e-05 9.3849e-05 -8.84959e-08
-7.64376e-07 -8.84959e-08 -9.87962e-06
0.000923315 0.000160991 7.62299e-07
0.000160991 0.000209143 4.43696e-07
7.62299e-07 4.43696e-07 7.48252e-05
0.000280524 2.76517e-05 3.6457e-05
2.76517e-05 0.000162148 0.000124212
3.6457e-05 0.000124212 -0.00118637
0.00239 -3.72545e-05 -7.89743e-06
-3.72545e-05 0.000582083 4.54824e-05
-7.89743e-06 4.54824e-05 -0.000281215
0.00272728 -0.000112228 1.22435e-05
-0.000112228 0.00169411 -6.47228e-05
1.22435e-05 -6.47228e-05 0.000568046
0.00350682 -0.000130369 -2.49467e-05
-0.000130369 -0.00355462 3.99298e-05
-2.49467e-05 3.99298e-05 -0.00105079
0.00338481 -0.000962385 -4.81696e-05
-0.000962385 0.0011278 5.55516e-05
-4.81696e-05 5.55516e-05 0.000130678
-0.00181711 -0.000994782 1.79693e-05
-0.000994782 -0.000603116 6.2269e-05
1.79693e-05 6.2269e-05 -0.00404327
0.00694279 0.00123544 5.90376e-05
0.00123544 0.00399495 -2.55325e-05
5.90376e-05 -2.55325e-05 0.00228363
0.00400605 -0.000915586 -2.08857e-05
-0.000915586 0.00102517 5.48933e-06
-2.08857e-05 5.48933e-06 0.000284707
0.000198019 -0.000423894 3.53699e-05
-0.000423894 0.00102455 9.98709e-06
3.53699e-05 9.98709e-06 -0.00274779
0.00435126 -4.76094e-05 -1.09923e-05
-4.76094e-05 0.00232721 -6.1293e-06
-1.09923e-05 -6.1293e-06 0.00144014
0.00777007 -0.000845885 -2.76379e-05
-0.000845885 0.000937922 -3.30335e-05
-2.76379e-05 -3.30335e-05 0.00220669
0.000620522 2.36118e-05 -9.39972e-05
2.36118e-05 -0.000761387 5.93048e-05
-9.39972e-05 5.93048e-05 -0.000644634
0.000664888 0.000819958 -1.04301e-05
0.000819958 0.00111901 -9.49822e-05
-1.04301e-05 -9.49822e-05 -0.00256271
-0.00690974 -0.0012617 5.50854e-05
-0.0012617 -0.00415379 -0.000104471
5.50854e-05 -0.000104471 -0.0057918
0.00324228 -0.000799424 1.15873e-05
-0.000799424 -0.00136532 -0.000176316
1.15873e-05 -0.000176316 0.000111536
0.00072005 6.99558e-06 -9.00048e-07
6.99558e-06 7.64335e-05 -6.33193e-07
-9.00048e-07 -6.33193e-07 -3.1621e-05
0.00071108 3.94478e-05 2.97361e-07
3.94478e-05 7.51937e-05 1.86955e-07
2.97361e-07 1.86955e-07 -5.20643e-05
0.000718782 1.55683e-05 -4.49857e-07
1.55683e-05 0.000105733 6.11061e-08
-4.49857e-07 6.11061e-08 -3.44866e-05
0.000796277 4.24263e-05 -9.70024e-08
4.24263e-05 0.000130394 -8.36265e-07
-9.70024e-08 -8.36265e-07 5.68075e-06
0.000131141 -0.000356252 2.70443e-07
-0.000356252 -0.000632554 2.09588e-05
2.70443e-07 2.09588e-05 -0.000688765
0.00108429 -5.03941e-05 -7.36298e-06
-5.03941e-05 0.000601057 -2.82768e-05
-7.36298e-06 -2.82768e-05 0.000509265
0.000585103 1.80189e-05 -1.59954e-06
1.80189e-05 -5.95755e-06 -1.12187e-08
-1.59954e-06 -1.12187e-08 -0.000126815
0.000736915 9.25571e-05 -1.85179e-06
9.25571e-05 0.000152878 1.82895e-06
-1.85179e-06 1.82895e-06 -2.54538e-07
0.00191438 -4.96633e-05 7.05579e-06
-4.96633e-05 0.000900138 -2.41464e-05
7.05579e-06 -2.41464e-05 0.000704614
0.000815361 4.62326e-05 -2.69637e-07
4.62326e-05 0.000146261 9.81648e-07
-2.69637e-07 9.81648e-07 2.73433e-05
0.000840883 5.87785e-05 -1.65941e-06
5.87785e-05 0.000310924 -2.3649e-06
-1.65941e-06 -2.3649e-06 0.000128621
-0.000279359 2.937e-05 2.46426e-05
2.937e-05 -6.59312e-05 -1.3223e-05
2.46426e-05 -1.3223e-05 -0.000515252
0.00073024 -1.3143e-05 3.12334e-05
-1.3143e-05 0.000391548 2.14673e-07
3.12334e-05 2.14673e-07 0.000319008
0.000212282 0.000101765 -4.67179e-07
0.000101765 -7.72825e-05 -2.54485e-06
-4.67179e-07 -2.54485e-06 -0.000206182
0.000226309 -6.45853e-05 -2.40351e-05
-6.45853e-05 0.000669981 -3.78815e-05
-2.40351e-05 -3.78815e-05 -0.000431693
0.00324221 8.02225e-05 1.39123e-05
8.02225e-05 0.00171252 2.09754e-05
1.39123e-05 2.09754e-05 0.00154963
0.00102579 -1.78288e-05 7.18607e-06
-1.78288e-05 0.000530524 4.86878e-06
7.18607e-06 4.86878e-06 5.4648e-05
0.00137323 -3.13604e-05 3.15908e-07
-3.13604e-05 0.000179859 4.32673e-07
3.15908e-07 4.32673e-07 -0.000101253
0.000651499 -2.92257e-05 -5.37636e-06
-2.92257e-05 0.000282352 -9.81498e-06
-5.37636e-06 -9.81498e-06 -6.83842e-05
-2.07854e-05 0.000100215 7.79688e-06
0.000100215 0.000100479 6.61942e-06
7.79688e-06 6.61942e-06 -6.36434e-05
-0.000239399 0.000217151 1.84025e-05
0.000217151 -0.000604844 3.45326e-05
1.84025e-05 3.45326e-05 -0.000724137
0.00142153 -2.44444e-05 1.20349e-05
-2.44444e-05 -0.000159998 1.53181e-07
1.20349e-05 1.53181e-07 -7.97175e-05
0.00388605 -0.000807665 0.000131463
-0.000807665 0.00352542 -0.000127176
0.000131463 -0.000127176 -0.000958785
0.00688535 0.00127803 -5.56671e-05
0.00127803 0.00339195 3.37929e-05
-5.56671e-05 3.37929e-05 0.00195695
0.0028104 -7.87937e-05 -1.60142e-05
-7.87937e-05 0.00164854 6.50736e-05
-1.60142e-05 6.50736e-05 0.000528753
0.00450315 0.00110824 -1.44505e-05
0.00110824 -0.000222553 -3.27926e-05
-1.44505e-05 -3.27926e-05 0.000437739
-0.000267647 9.97928e-05 5.02199e-06
9.97928e-05 0.000268155 6.07441e-06
5.02199e-06 6.07441e-06 -0.000158841
0.00123939 1.95739e-05 2.20511e-06
1.95739e-05 0.000437107 1.2628e-06
2.20511e-06 1.2628e-06 0.000212173
0.00324931 -0.000221846 5.65541e-05
-0.000221846 0.000916017 -5.80237e-06
5.65541e-05 -5.80237e-06 -0.000982417
0.000304788 -0.000119525 1.10705e-06
-0.000119525 -0.000716734 2.42012e-05
1.10705e-06 2.42012e-05 -0.000602987
-0.00163981 0.0014984 8.3456e-05
0.0014984 -0.000568033 -3.48542e-05
8.3456e-05 -3.48542e-05 0.000852314
0.00584866 0.000767371 -3.97852e-05
0.000767371 0.000218357 8.23708e-05
-3.97852e-05 8.23708e-05 0.000290376
-0.00228078 -0.000752846 6.2002e-05
-0.000752846 6.83844e-05 -5.62388e-05
6.2002e-05 -5.62388e-05 -0.00433483
0.0011515 -7.353e-05 4.16727e-05
-7.353e-05 0.000570738 -1.19908e-05
4.16727e-05 -1.19908e-05 0.000394597
0.000912521 -8.68157e-05 5.93973e-05
-8.68157e-05 -9.50082e-05 -2.40221e-05
5.93973e-05 -2.40221e-05 -0.00120445
-0.00182709 0.0001736 -0.000175383
0.0001736 0.0010387 -1.63369e-05
-0.000175383 -1.63369e-05 -1.8513e-05
0.00176564 0.00134297 -0.000114736
0.00134297 -0.000132029 0.000180548
-0.000114736 0.000180548 0.000330869
0.00784658 -0.000484276 2.34475e-05
-0.000484276 0.0035994 -1.96341e-05
2.34475e-05 -1.96341e-05 0.000546973
0.00360213 -0.000376866 -5.997e-05
-0.000376866 0.000933641 6.01898e-05
-5.997e-05 6.01898e-05 0.000623307
-0.00113638 1.48951e-05 1.12129e-05
1.48951e-05 -0.000522367 1.45231e-05
1.12129e-05 1.45231e-05 -0.000684887
0.000214451 -0.000166844 -8.60459e-06
-0.000166844 0.000258327 9.62501e-07
-8.60459e-06 9.62501e-07 1.4766e-05
0.000684942 -0.000240953 2.21987e-05
-0.000240953 0.000221828 -6.53706e-06
2.21987e-05 -6.53706e-06 7.0987e-05
-0.000795004 -0.000112277 -3.33961e-06
-0.000112277 -0.00048437 6.89092e-06
-3.33961e-06 6.89092e-06 -0.000625567
-0.000571728 -0.000130899 1.58891e-06
-0.000130899 -0.000395571 -3.81443e-06
1.58891e-06 -3.81443e-06 -0.000674142
0.00269084 -0.000452132 2.60653e-05
-0.000452132 0.000970594 -5.40713e-06
2.60653e-05 -5.40713e-06 0.000701849
0.00323355 -0.000427769 -6.4797e-06
-0.000427769 0.00146084 2.33998e-06
-6.4797e-06 2.33998e-06 0.00122705
0.00189529 -0.000325352 3.63354e-06
-0.000325352 0.000737342 8.36304e-07
3.63354e-06 8.36304e-07 0.000399516
0.00113921 -0.000320269 7.58695e-06
-0.000320269 0.000144892 -4.41016e-06
7.58695e-06 -4.41016e-06 -0.000191682
0.00150673 -0.000269987 -5.57163e-06
-0.000269987 0.000415946 9.73866e-07
-5.57163e-06 9.73866e-07 0.000175454
0.00225199 -0.000388235 2.45581e-06
-0.000388235 0.000723596 -7.94554e-08
2.45581e-06 -7.94554e-08 0.000419849
0.00206066 -0.000393442 1.99449e-06
-0.000393442 0.000517492 -4.9608e-06
1.99449e-06 -4.9608e-06 0.000217273
0.00176022 -0.000340164 4.47632e-07
-0.000340164 0.000276263 -3.23098e-06
4.47632e-07 -3.23098e-06 4.83235e-05
0.00233432 -0.000387962 -5.24008e-06
-0.000387962 0.000677958 5.08335e-06
-5.24008e-06 5.08335e-06 0.000419179
0.00179404 -0.000357928 -1.4012e-06
-0.000357928 0.000365003 -4.86031e-07
-1.4012e-06 -4.86031e-07 9.39539e-05
0.000288144 -0.00016435 5.08568e-06
-0.00016435 -0.000315089 5.08477e-07
5.08568e-06 5.08477e-07 -0.0004975
0.00102794 -0.000235552 2.9974e-06
-0.000235552 8.08368e-05 -1.34638e-07
2.9974e-06 -1.34638e-07 -0.000124251
0.00135992 -0.000280615 -1.79014e-06
-0.000280615 0.000245175 -2.05417e-06
-1.79014e-06 -2.05417e-06 1.77242e-06
0.00116021 -0.000203436 2.18902e-06
-0.000203436 0.000303063 4.68655e-07
2.18902e-06 4.68655e-07 0.000114354
0.00130641 -0.000225914 -2.15131e-06
-0.000225914 0.000357922 -1.63038e-06
-2.15131e-06 -1.63038e-06 0.000170995
0.00067935 -0.000179535 4.84205e-06
-0.000179535 -2.07286e-05 -3.04881e-06
4.84205e-06 -3.04881e-06 -0.0001883
0.000656749 -3.55049e-05 2.1411e-06
-3.55049e-05 5.77122e-05 1.58684e-06
2.1411e-06 1.58684e-06 -7.52085e-05
0.000550142 -7.97588e-05 -2.43659e-08
-7.97588e-05 8.43578e-06 8.48898e-07
-2.43659e-08 8.48898e-07 -0.000147116
0.00131358 -0.000207658 2.64321e-06
-0.000207658 0.000443706 -2.83129e-06
2.64321e-06 -2.83129e-06 0.000256661
0.000573114 4.68605e-05 -7.3199e-08
4.68605e-05 -1.36066e-05 2.63765e-06
-7.3199e-08 2.63765e-06 -8.40996e-05
0.000732655 -6.63439e-06 -4.07495e-07
-6.63439e-06 9.42724e-05 -5.24909e-07
-4.07495e-07 -5.24909e-07 -1.45365e-05
0.00111051 -9.98838e-05 -3.62192e-07
-9.98838e-05 0.000330277 -6.53589e-07
-3.62192e-07 -6.53589e-07 0.000195223
0.000546618 5.91842e-05 -1.50875e-06
5.91842e-05 -3.77819e-05 5.79882e-06
-1.50875e-06 5.79882e-06 -6.18501e-05
0.000654769 2.99755e-05 -2.81054e-07
2.99755e-05 2.06613e-05 -2.4189e-07
-2.81054e-07 -2.4189e-07 -3.71293e-05
0.000802707 -2.03116e-05 -1.53978e-07
-2.03116e-05 0.000123253 -1.38133e-06
-1.53978e-07 -1.38133e-06 3.33565e-05
0.000675782 1.80702e-05 1.52945e-06
1.80702e-05 2.67739e-05 -1.99103e-06
1.52945e-06 -1.99103e-06 -2.53285e-05
0.000585136 5.31019e-05 3.4663e-08
5.31019e-05 -2.49316e-05 -7.01895e-09
3.4663e-08 -7.01895e-09 -4.57544e-05
0.00228529 8.63496e-05 -2.64602e-05
8.63496e-05 0.000977055 3.42179e-06
-2.64602e-05 3.42179e-06 0.000984447
0.000596821 4.57308e-05 6.43594e-07
4.57308e-05 -2.75803e-05 -3.99271e-06
6.43594e-07 -3.99271e-06 -4.52102e-05
0.00227782 7.58321e-05 2.3503e-06
7.58321e-05 0.000965149 1.87172e-07
2.3503e-06 1.87172e-07 0.000974973
0.0022809 6.5106e-05 1.97707e-05
6.5106e-05 0.000960214 -3.96911e-06
1.97707e-05 -3.96911e-06 0.000972089
0.00073533 3.7367e-05 -5.14488e-07
3.7367e-05 8.74514e-05 -8.91369e-07
-5.14488e-07 -8.91369e-07 -2.08657e-05
0.000775803 6.8515e-05 -5.43112e-07
6.8515e-05 0.000111752 -1.4563e-06
-5.43112e-07 -1.4563e-06 1.09318e-05
0.000663959 4.07068e-06 -8.68435e-07
4.07068e-06 1.33502e-05 -2.55667e-06
-8.68435e-07 -2.55667e-06 -4.4434e-05
0.000734732 6.24775e-05 -8.59759e-08
6.24775e-05 7.84935e-05 1.93435e-08
-8.59759e-08 1.93435e-08 -1.22492e-05
0.000591472 -3.04617e-05 8.6715e-08
-3.04617e-05 -3.9303e-05 -4.6275e-06
8.6715e-08 -4.6275e-06 -5.6898e-05
0.000661359 1.19054e-05 -1.17792e-07
1.19054e-05 1.31529e-05 -6.89961e-08
-1.17792e-07 -6.89961e-08 -4.05905e-05
0.000697594 3.54856e-05 -8.51474e-07
3.54856e-05 5.48042e-05 7.36068e-07
-8.51474e-07 7.36068e-07 -3.06612e-05
0.00233095 -5.00276e-05 -1.87505e-05
-5.00276e-05 0.00097877 -4.62346e-06
-1.87505e-05 -4.62346e-06 0.000993139
0.0006058 -2.29543e-05 -1.96871e-07
-2.29543e-05 -3.57746e-05 -4.9189e-08
-1.96871e-07 -4.9189e-08 -4.95419e-05
0.000632367 1.57099e-05 -5.73155e-07
1.57099e-05 -2.6234e-06 1.51023e-06
-5.73155e-07 1.51023e-06 -5.23194e-05
0.00222213 -3.5706e-05 -3.61368e-06
-3.5706e-05 0.000910835 1.26496e-07
-3.61368e-06 1.26496e-07 0.000927677
0.000611635 -1.61361e-05 -1.2512e-07
-1.61361e-05 -3.53698e-05 3.8804e-06
-1.2512e-07 3.8804e-06 -4.59173e-05
0.00213222 -2.17341e-05 9.69387e-06
-2.17341e-05 0.000855375 4.7165e-06
9.69387e-06 4.7165e-06 0.000874066
0.000898953 -7.12654e-05 3.98401e-06
-7.12654e-05 0.000126224 2.04032e-05
3.98401e-06 2.04032e-05 -5.98602e-05
0.00155924 -4.69433e-05 -1.06106e-05
-4.69433e-05 -7.8133e-05 1.64308e-05
-1.06106e-05 1.64308e-05 -5.79728e-05
0.0012469 -1.52798e-05 1.1745e-06
-1.52798e-05 0.000350272 -1.1714e-05
1.1745e-06 -1.1714e-05 0.000205498
0.000746089 3.75346e-05 -1.62867e-07
3.75346e-05 8.47435e-05 -2.68996e-08
-1.62867e-07 -2.68996e-08 -1.86043e-05
0.000725905 1.45158e-05 2.57478e-07
1.45158e-05 6.74928e-05 7.96888e-08
2.57478e-07 7.96888e-08 -3.45324e-05
0.000618972 1.78799e-05 -2.35084e-06
1.78799e-05 6.8178e-06 -1.91135e-06
-2.35084e-06 -1.91135e-06 -9.59338e-05
0.000544661 -6.64825e-06 -8.17892e-07
-6.64825e-06 -3.61588e-05 -9.97523e-07
-8.17892e-07 -9.97523e-07 -0.000137041
0.00103402 0.000100852 -1.63261e-06
0.000100852 0.000259507 -1.00122e-06
-1.63261e-06 -1.00122e-06 0.000138803
0.000692435 8.09369e-06 -1.05054e-07
8.09369e-06 3.77651e-05 3.27429e-07
-1.05054e-07 3.27429e-07 -5.50078e-05
0.000681198 3.08122e-05 5.98384e-07
3.08122e-05 4.33028e-05 -4.46406e-07
5.98384e-07 -4.46406e-07 -6.3064e-05
0.000763082 4.41099e-05 -1.06702e-07
4.41099e-05 9.35343e-05 -5.88964e-08
-1.06702e-07 -5.88964e-08 -1.29597e-05
0.000868698 7.73897e-05 5.24155e-07
7.73897e-05 0.000157158 4.80009e-07
5.24155e-07 4.80009e-07 4.03389e-05
0.000976808 5.14078e-05 -1.16505e-06
5.14078e-05 0.000232557 -6.24953e-07
-1.16505e-06 -6.24953e-07 0.000117935
0.00226609 0.000102854 0.000110108
0.000102854 0.00101123 0.000165131
0.000110108 0.000165131 -0.000929042
0.000811294 6.34278e-05 1.06762e-05
6.34278e-05 0.000227565 4.31919e-05
1.06762e-05 4.31919e-05 -0.001145
0.00263281 -1.84731e-05 -1.38302e-05
-1.84731e-05 0.000958788 -1.66651e-05
-1.38302e-05 -1.66651e-05 0.000315891
0.00763538 -0.000748184 -5.90557e-05
-0.000748184 0.00101318 -6.79587e-05
-5.90557e-05 -6.79587e-05 0.00234162
-0.0106112 0.000516607 -4.28161e-05
0.000516607 -0.00356216 0.000192261
-4.28161e-05 0.000192261 -0.00543605
0.00534273 -0.000918103 -0.000101679
-0.000918103 0.00188212 5.18097e-05
-0.000101679 5.18097e-05 0.00115341
0.00976451 -0.000562624 -4.81142e-05
-0.000562624 0.00398946 -2.21817e-05
-4.81142e-05 -2.21817e-05 0.000920384
0.00256907 -0.000122136 -2.06411e-05
-0.000122136 0.000313612 5.22263e-05
-2.06411e-05 5.22263e-05 -2.09499e-05
0.0111097 -0.000161719 2.66082e-05
-0.000161719 0.00527688 -1.55784e-05
2.66082e-05 -1.55784e-05 0.0015998
0.0016531 -0.000737772 4.59748e-05
-0.000737772 2.52943e-05 4.41081e-05
4.59748e-05 4.41081e-05 -0.000985668
0.00263535 -0.000947334 -9.65076e-05
-0.000947334 -0.00184858 -0.000211231
-9.65076e-05 -0.000211231 -0.000416205
0.00347604 0.000168098 -8.7893e-05
0.000168098 0.000632572 1.98437e-05
-8.7893e-05 1.98437e-05 0.000162173
0.00907966 0.000586877 -3.55081e-06
0.000586877 0.00405444 2.44096e-05
-3.55081e-06 2.44096e-05 0.00116663
0.00985508 -0.00150878 -6.08273e-06
-0.00150878 0.00308459 -0.000164343
-6.08273e-06 -0.000164343 0.00307074
0.00546866 -0.0014753 4.85497e-05
-0.0014753 0.000870325 5.18611e-06
4.85497e-05 5.18611e-06 0.00239413
0.000295979 4.82003e-05 -6.85528e-07
4.82003e-05 -9.55316e-05 -1.52866e-08
-6.85528e-07 -1.52866e-08 -0.000190082
0.000915174 3.62435e-06 8.10733e-08
3.62435e-06 0.000197355 1.01161e-06
8.10733e-08 1.01161e-06 8.31109e-05
0.000700596 3.71189e-05 1.64289e-08
3.71189e-05 7.03032e-05 3.84602e-07
1.64289e-08 3.84602e-07 -5.69156e-05
0.00103316 1.19862e-05 -3.83152e-05
1.19862e-05 0.00056906 1.55324e-05
-3.83152e-05 1.55324e-05 1.02285e-05
0.000954765 -4.61502e-05 -7.10829e-05
-4.61502e-05 0.00054701 -3.06004e-05
-7.10829e-05 -3.06004e-05 0.000488821
0.000630042 -5.39615e-06 -1.37271e-06
-5.39615e-06 4.14476e-05 3.22381e-06
-1.37271e-06 3.22381e-06 -7.86309e-05
-0.00056804 5.08037e-05 -1.09159e-06
5.08037e-05 -0.000461191 -4.47794e-06
-1.09159e-06 -4.47794e-06 -0.00065687
0.000620917 7.64873e-05 -1.48845e-07
7.64873e-05 0.000160809 -2.78187e-06
-1.48845e-07 -2.78187e-06 2.05445e-05
0.000590424 7.09502e-05 -4.11718e-06
7.09502e-05 0.000296204 4.23276e-06
-4.11718e-06 4.23276e-06 0.0001172
-0.000241972 -1.55042e-05 9.81723e-05
-1.55042e-05 0.000606132 -3.81702e-05
9.81723e-05 -3.81702e-05 -0.000507119
-0.00231275 -7.37623e-06 -2.12823e-05
-7.37623e-06 -0.00129903 1.15356e-05
-2.12823e-05 1.15356e-05 -0.0014356
0.00203839 0.000222945 -1.86369e-05
0.000222945 0.00115225 -3.60697e-05
-1.86369e-05 -3.60697e-05 0.000442862
0.00182032 -5.0275e-06 6.12419e-05
-5.0275e-06 0.000720796 7.57249e-06
6.12419e-05 7.57249e-06 -0.000446099
0.000845921 -2.03831e-05 1.60024e-05
-2.03831e-05 0.000404614 7.23278e-06
1.60024e-05 7.23278e-06 8.61558e-06
0.00166261 -3.85686e-05 -2.07917e-06
-3.85686e-05 0.000384444 -7.2065e-07
-2.07917e-06 -7.2065e-07 0.000232304
-0.0026338 0.000115443 3.44957e-05
0.000115443 -0.000938426 9.58403e-06
3.44957e-05 9.58403e-06 -0.00148958
0.00328883 8.29814e-05 -1.63268e-05
8.29814e-05 0.000838106 -1.29176e-05
-1.63268e-05 -1.29176e-05 0.000424054
0.00129102 2.40212e-06 2.30757e-06
2.40212e-06 0.000365219 8.42646e-06
2.30757e-06 8.42646e-06 0.000235178
0.0153875 -0.0010212 0.00010741
-0.0010212 0.00679327 -1.97901e-05
0.00010741 -1.97901e-05 0.00328537
0.008569 0.00110378 -6.41067e-05
0.00110378 0.00268691 -3.31384e-05
-6.41067e-05 -3.31384e-05 0.00229121
0.00355916 -0.000256045 -4.86624e-05
-0.000256045 0.0011865 9.99013e-05
-4.86624e-05 9.99013e-05 -0.000855372
-0.00711643 0.00165792 0.000394445
0.00165792 -0.00374222 -0.000305408
0.000394445 -0.000305408 -0.00181984
0.000677401 -8.07411e-05 -4.22778e-06
-8.07411e-05 0.00046264 -8.08331e-07
-4.22778e-06 -8.08331e-07 0.000221505
0.00135029 -7.37838e-05 -8.85989e-06
-7.37838e-05 0.000167506 6.22747e-06
-8.85989e-06 6.22747e-06 -0.000974328
-0.00254928 0.000218835 -0.000234616
0.000218835 0.00110357 0.000104481
-0.000234616 0.000104481 0.000161705
0.00191567 -0.00029831 -2.24473e-05
-0.00029831 0.000138067 3.12175e-05
-2.24473e-05 3.12175e-05 -0.000135783
0.00915717 0.00154307 5.33165e-05
0.00154307 0.00297601 5.55046e-05
5.33165e-05 5.55046e-05 0.00352114
0.00751115 -0.000962127 6.80638e-05
-0.000962127 0.00313775 -4.37389e-05
6.80638e-05 -4.37389e-05 0.000355853
0.00144838 -0.000242964 1.11543e-05
-0.000242964 0.000371869 2.52664e-05
1.11543e-05 2.52664e-05 0.000481509
-0.0032119 -0.000162326 2.12479e-05
-0.000162326 0.000768874 -1.28033e-05
2.12479e-05 -1.28033e-05 -0.000831703
0.0074391 0.00137006 -0.000239142
0.00137006 0.00363559 0.000110307
-0.000239142 0.000110307 0.00363765
0.00244282 -0.000490246 -0.000148116
-0.000490246 2.35452e-05 0.000101482
-0.000148116 0.000101482 -0.00281494
0.00244626 -0.000797222 6.17355e-05
-0.000797222 0.000348627 -2.07784e-05
6.17355e-05 -2.07784e-05 -5.96636e-05
-0.00103986 -9.86906e-05 -9.5241e-06
-9.86906e-05 -0.000392751 1.24813e-05
-9.5241e-06 1.24813e-05 -0.000640146
0.000396173 -0.000222526 -4.91796e-06
-0.000222526 0.000102032 3.44289e-06
-4.91796e-06 3.44289e-06 -0.000105819
0.00399169 -0.00052273 3.06041e-05
-0.00052273 0.00155383 3.527e-06
3.06041e-05 3.527e-06 0.00146562
-0.00232834 -2.47208e-05 -6.31315e-06
-2.47208e-05 -0.00131056 7.9657e-06
-6.31315e-06 7.9657e-06 -0.00158983
0.000731004 -0.000280766 2.87325e-06
-0.000280766 -1.27112e-05 3.68925e-07
2.87325e-06 3.68925e-07 -0.000287691
0.00181304 -0.000439965 5.59859e-06
-0.000439965 0.000261321 -1.15724e-07
5.59859e-06 -1.15724e-07 4.18844e-05
0.00245952 -0.000367138 -8.88172e-06
-0.000367138 0.000996178 2.39316e-06
-8.88172e-06 2.39316e-06 0.000678886
0.00125285 -0.00032492 -2.42895e-06
-0.00032492 0.000184105 -2.88341e-06
-2.42895e-06 -2.88341e-06 -0.000133258
0.0020995 -0.000442118 5.34554e-06
-0.000442118 0.000420046 -3.85384e-06
5.34554e-06 -3.85384e-06 0.000174837
0.00195392 -0.000365516 -3.54683e-06
-0.000365516 0.000541575 -1.42346e-06
-3.54683e-06 -1.42346e-06 0.000239393
0.00155892 -0.000352428 -1.53312e-07
-0.000352428 0.000227234 -3.3647e-06
-1.53312e-07 -3.3647e-06 -6.18362e-05
0.00187168 -0.000366651 3.0423e-07
-0.000366651 0.000271201 -6.10541e-06
3.0423e-07 -6.10541e-06 5.14695e-05
0.00164764 -0.000290799 -1.06908e-06
-0.000290799 0.000139211 -3.21918e-06
-1.06908e-06 -3.21918e-06 -4.32631e-05
0.00156309 -0.000323225 2.23737e-06
-0.000323225 0.000176318 -1.5658e-06
2.23737e-06 -1.5658e-06 -6.01399e-05
0.00163829 -0.000330853 1.67258e-06
-0.000330853 0.000211434 -1.27187e-06
1.67258e-06 -1.27187e-06 -1.44906e-05
0.00164547 -0.000298348 -1.73723e-06
-0.000298348 0.000327143 5.04909e-06
-1.73723e-06 5.04909e-06 0.000104828
0.0019462 -0.000358215 -1.62629e-06
-0.000358215 0.000464895 1.91749e-07
-1.62629e-06 1.91749e-07 0.000205728
0.00177602 -0.000357944 -5.92972e-07
-0.000357944 0.000355952 -2.26236e-06
-5.92972e-07 -2.26236e-06 8.05913e-05
0.00108268 -0.000213357 2.86941e-06
-0.000213357 0.000190101 -7.406e-08
2.86941e-06 -7.406e-08 1.02513e-06
0.000574584 -0.000184754 -1.08792e-06
-0.000184754 -0.000146926 -1.87628e-06
-1.08792e-06 -1.87628e-06 -0.000327125
0.00148982 -0.000270928 6.71625e-06
-0.000270928 0.000342968 -6.48039e-06
6.71625e-06 -6.48039e-06 0.000140573
0.000826243 -0.000136863 -7.5267e-08
-0.000136863 0.000127526 1.65291e-07
-7.5267e-08 1.65291e-07 -3.06242e-05
0.000877009 -0.00017353 2.23111e-07
-0.00017353 0.000142387 9.13461e-08
2.23111e-07 9.13461e-08 -4.04038e-05
0.000860297 -0.000185506 -1.6596e-06
-0.000185506 9.96221e-05 5.52515e-07
-1.6596e-06 5.52515e-07 -8.12772e-05
0.000535445 4.75865e-05 1.17715e-06
4.75865e-05 -2.56105e-05 4.064e-06
1.17715e-06 4.064e-06 -0.000115961
0.000783741 -5.63202e-05 8.59179e-07
-5.63202e-05 0.00013583 4.11378e-07
8.59179e-07 4.11378e-07 -4.54652e-06
0.000929869 -0.000118482 -1.92043e-06
-0.000118482 0.000234199 6.96683e-07
-1.92043e-06 6.96683e-07 7.34762e-05
0.00134457 9.54912e-05 -1.36475e-05
9.54912e-05 0.000443049 3.8831e-06
-1.36475e-05 3.8831e-06 0.000414732
0.000650809 2.42524e-05 -5.30244e-07
2.42524e-05 2.67304e-05 -5.84389e-07
-5.30244e-07 -5.84389e-07 -4.28977e-05
0.000846794 -4.26489e-05 -1.29028e-06
-4.26489e-05 0.000163085 -1.876e-06
-1.29028e-06 -1.876e-06 4.84571e-05
0.000757439 4.65579e-05 -2.65677e-05
4.65579e-05 9.28156e-05 3.40096e-06
-2.65677e-05 3.40096e-06 9.30229e-05
0.000985232 7.50278e-05 -7.76706e-06
7.50278e-05 0.000220444 1.35592e-07
-7.76706e-06 1.35592e-07 0.000196575
0.000680163 2.57654e-05 8.37442e-07
2.57654e-05 3.3837e-05 -2.40374e-06
8.37442e-07 -2.40374e-06 -2.37847e-05
0.000591112 5.59607e-05 2.01588e-07
5.59607e-05 -2.02173e-05 -4.27266e-06
2.01588e-07 -4.27266e-06 -4.16663e-05
0.00232382 8.82934e-05 2.51783e-06
8.82934e-05 0.00100036 2.2072e-07
2.51783e-06 2.2072e-07 0.00100732
0.00229591 7.7433e-05 2.31846e-05
7.7433e-05 0.00097664 -3.65527e-06
2.31846e-05 -3.65527e-06 0.00098612
0.000685996 3.10772e-05 -4.48836e-07
3.10772e-05 4.93234e-05 -8.29032e-07
-4.48836e-07 -8.29032e-07 -5.4738e-05
0.000790211 5.30861e-05 -3.74736e-07
5.30861e-05 0.000118171 -1.8299e-06
-3.74736e-07 -1.8299e-06 1.5513e-05
0.000697682 2.32577e-05 5.36246e-08
2.32577e-05 5.51126e-05 2.9458e-08
5.36246e-08 2.9458e-08 -4.55899e-05
0.000668562 -7.3132e-06 -1.09535e-06
-7.3132e-06 1.73006e-05 -2.74892e-06
-1.09535e-06 -2.74892e-06 -4.42203e-05
0.000740914 4.30741e-05 6.55558e-07
4.30741e-05 8.13625e-05 1.84137e-08
6.55558e-07 1.84137e-08 -1.16525e-05
0.000578769 -3.57762e-05 -2.44842e-07
-3.57762e-05 -4.09167e-05 -4.93159e-06
-2.44842e-07 -4.93159e-06 -6.21731e-05
0.000655647 7.40966e-06 -1.26856e-07
7.40966e-06 9.78029e-06 -6.04555e-08
-1.26856e-07 -6.04555e-08 -4.84021e-05
0.000758317 5.72639e-05 5.38072e-07
5.72639e-05 0.000105743 1.62777e-06
5.38072e-07 1.62777e-06 5.42636e-06
0.00244748 -6.32732e-05 -2.44407e-05
-6.32732e-05 0.00105178 -4.43299e-06
-2.44407e-05 -4.43299e-06 0.0010636
0.000591043 -2.96252e-05 -3.57875e-07
-2.96252e-05 -3.98605e-05 -3.40798e-08
-3.57875e-07 -3.40798e-08 -5.72414e-05
0.000651912 1.25599e-05 5.76179e-07
1.25599e-05 8.17417e-06 2.62161e-06
5.76179e-07 2.62161e-06 -4.55763e-05
0.00231593 -4.89298e-05 -3.50528e-06
-4.89298e-05 0.000969399 1.69511e-07
-3.50528e-06 1.69511e-07 0.000984095
0.000602951 -2.26409e-05 -9.53481e-08
-2.26409e-05 -3.73712e-05 4.16238e-06
-9.53481e-08 4.16238e-06 -5.10174e-05
0.00220979 -3.44725e-05 1.39483e-05
-3.44725e-05 0.000903108 4.66835e-06
1.39483e-05 4.66835e-06 0.000920223
0.00326564 -3.03859e-06 6.82764e-05
-3.03859e-06 0.00122543 2.93022e-05
6.82764e-05 2.93022e-05 0.000342759
0.000895946 -6.83718e-05 3.25653e-07
-6.83718e-05 0.000157353 8.34709e-06
3.25653e-07 8.34709e-06 -3.44509e-05
0.00143706 -5.73679e-05 -1.38096e-05
-5.73679e-05 -0.00014156 -1.43667e-06
-1.38096e-05 -1.43667e-06 -8.27453e-05
0.000755645 9.11528e-05 -3.51415e-06
9.11528e-05 8.92544e-05 -1.54019e-07
-3.51415e-06 -1.54019e-07 -2.39256e-05
0.000817825 4.03094e-05 3.87647e-07
4.03094e-05 0.00012276 6.43749e-07
3.87647e-07 6.43749e-07 2.19407e-05
0.000624206 8.46208e-06 8.70121e-07
8.46208e-06 8.8231e-06 8.91128e-07
8.70121e-07 8.91128e-07 -9.1704e-05
0.000806387 1.3192e-05 2.8213e-08
1.3192e-05 0.000109646 -9.77685e-08
2.8213e-08 -9.77685e-08 1.00846e-05
0.000898879 5.37877e-05 -2.71514e-07
5.37877e-05 0.000170116 -7.97957e-08
-2.71514e-07 -7.97957e-08 6.24896e-05
0.000826567 7.73163e-05 4.64213e-07
7.73163e-05 0.000139043 7.30576e-07
4.64213e-07 7.30576e-07 2.33738e-05
0.000790513 6.48546e-05 -2.5683e-06
6.48546e-05 0.00011266 -2.74557e-06
-2.5683e-06 -2.74557e-06 -8.19227e-06
0.000368337 5.73321e-06 -1.17685e-06
5.73321e-06 -0.000125852 -1.11601e-06
-1.17685e-06 -1.11601e-06 -0.00023345
0.000824477 9.76635e-05 2.44767e-07
9.76635e-05 0.000135519 3.33435e-08
2.44767e-07 3.33435e-08 2.25789e-05
0.000724937 -6.62196e-07 1.37786e-06
-6.62196e-07 5.45218e-05 7.31868e-08
1.37786e-06 7.31868e-08 -4.47718e-05
0.000790655 4.58967e-05 -4.38305e-07
4.58967e-05 0.000122426 5.96797e-08
-4.38305e-07 5.96797e-08 1.19583e-05
0.00153147 0.000103478 4.08817e-06
0.000103478 0.000587586 4.93144e-06
4.08817e-06 4.93144e-06 0.000478905
0.00105468 -0.000571442 6.28142e-05
-0.000571442 0.00184348 0.000134635
6.28142e-05 0.000134635 0.000809753
0.00287461 0.000149397 1.28817e-05
0.000149397 0.00127386 4.83074e-05
1.28817e-05 4.83074e-05 -0.000705282
0.00123541 8.58925e-05 -1.09349e-05
8.58925e-05 0.000347974 -3.66499e-05
-1.09349e-05 -3.66499e-05 -0.00104251
0.00748435 -0.0012459 -0.00016734
-0.0012459 0.000715948 -0.000131907
-0.00016734 -0.000131907 0.00214173
0.00467477 -0.000374074 2.52875e-05
-0.000374074 0.000748902 0.000162191
2.52875e-05 0.000162191 -9.33522e-05
0.000459469 -0.000578686 -9.58936e-05
-0.000578686 0.00102559 9.61872e-05
-9.58936e-05 9.61872e-05 -0.00274237
0.00214194 -0.000194904 -4.81482e-05
-0.000194904 0.000377529 7.54976e-05
-4.81482e-05 7.54976e-05 -0.000147101
0.0035181 -0.000103719 1.46155e-05
-0.000103719 0.00070252 4.58696e-05
1.46155e-05 4.58696e-05 0.000426061
-0.000612977 -0.00150712 5.83089e-05
-0.00150712 -0.00138541 7.54837e-05
5.83089e-05 7.54837e-05 0.000326901
0.00520842 0.00060596 6.2701e-06
0.00060596 0.00312011 -5.60975e-06
6.2701e-06 -5.60975e-06 -0.000482185
0.00189723 -0.000809081 -2.24315e-05
-0.000809081 -0.00128025 3.08824e-05
-2.24315e-05 3.08824e-05 -0.00122276
0.00126766 0.00031552 1.81525e-07
0.00031552 -0.000313399 2.86179e-05
1.81525e-07 2.86179e-05 -0.000401313
0.00788792 0.000359614 -2.31638e-05
0.000359614 0.00394353 7.38867e-06
-2.31638e-05 7.38867e-06 0.00112943
0.00120824 -0.00128091 -7.99528e-05
-0.00128091 -0.000687579 -0.000109888
-7.99528e-05 -0.000109888 -0.000262533
0.000624027 0.000226285 2.40191e-06
0.000226285 5.47429e-05 -5.83738e-06
2.40191e-06 -5.83738e-06 -5.27308e-05
0.000767338 6.68501e-05 4.85927e-06
6.68501e-05 0.000164002 -3.70425e-07
4.85927e-06 -3.70425e-07 6.89896e-05
0.00107885 2.99537e-05 -1.50942e-07
2.99537e-05 0.000294158 1.51122e-06
-1.50942e-07 1.51122e-06 0.000178626
0.000274861 -7.38079e-06 -0.000147382
-7.38079e-06 0.000861848 -4.32437e-05
-0.000147382 -4.32437e-05 -0.000219124
-0.00165886 8.33968e-05 8.5168e-06
8.33968e-05 -0.000928855 -1.20546e-05
8.5168e-06 -1.20546e-05 -0.00111612
0.0008876 0.000116677 8.46768e-07
0.000116677 0.000315397 -1.44809e-06
8.46768e-07 -1.44809e-06 0.000167011
0.000632425 0.000231352 8.31289e-06
0.000231352 0.000231058 3.30553e-06
8.31289e-06 3.30553e-06 8.31994e-05
0.000634004 0.00021098 -4.35064e-06
0.00021098 0.000349915 -2.96758e-05
-4.35064e-06 -2.96758e-05 -0.000242934
-0.000159074 0.000359783 1.98765e-05
0.000359783 -0.000488757 -1.16876e-06
1.98765e-05 -1.16876e-06 -0.00073814
-2.31171e-05 0.000129314 0.000113914
0.000129314 0.00248235 1.06955e-05
0.000113914 1.06955e-05 0.000916125
0.00186868 -2.63623e-05 -4.51658e-06
-2.63623e-05 0.000788836 1.37818e-05
-4.51658e-06 1.37818e-05 -0.000162325
0.00064727 -2.24669e-05 4.51877e-06
-2.24669e-05 0.000288868 9.92142e-06
4.51877e-06 9.92142e-06 -4.25147e-05
0.0006284 -8.23297e-05 -2.97563e-05
-8.23297e-05 0.000545865 9.22833e-06
-2.97563e-05 9.22833e-06 0.000299562
0.000558186 -0.00012389 -3.9334e-05
-0.00012389 -0.00104137 -5.21209e-06
-3.9334e-05 -5.21209e-06 -0.000894
0.00172936 -7.03112e-05 -7.69077e-05
-7.03112e-05 0.000365956 2.1428e-05
-7.69077e-05 2.1428e-05 -0.000761186
-0.00129538 -0.000990428 4.62599e-05
-0.000990428 -0.000355668 -6.83744e-05
4.62599e-05 -6.83744e-05 -0.00367965
-0.00288296 0.00108744 9.49499e-05
0.00108744 -0.00366844 -0.000108004
9.49499e-05 -0.000108004 -0.0029482
0.00164473 0.00057426 -0.000118766
0.00057426 0.00242138 0.000121897
-0.000118766 0.000121897 0.00191047
0.00214361 -0.000108776 -9.21373e-06
-0.000108776 0.000528183 1.24051e-06
-9.21373e-06 1.24051e-06 0.000778927
0.00157529 0.000155046 1.67321e-05
0.000155046 0.00264171 9.49999e-06
1.67321e-05 9.49999e-06 0.00170809
-0.00370629 0.000792289 3.12678e-05
0.000792289 -0.00109602 7.42474e-06
3.12678e-05 7.42474e-06 -0.00202895
0.00373534 -0.000889158 1.46426e-05
-0.000889158 0.00127532 -3.30933e-06
1.46426e-05 -3.30933e-06 0.000449912
0.00990646 -0.000323092 7.13364e-06
-0.000323092 0.00353463 -7.74601e-06
7.13364e-06 -7.74601e-06 0.00168687
0.0019476 -0.000427972 -8.98844e-07
-0.000427972 0.000395014 2.22316e-05
-8.98844e-07 2.22316e-05 0.000485075
-0.00733688 0.000303709 -0.000163982
0.000303709 -0.00347631 -1.3743e-06
-0.000163982 -1.3743e-06 -0.0040534
0.010458 -0.000119891 -5.68434e-05
-0.000119891 0.00321831 2.11106e-05
-5.68434e-05 2.11106e-05 0.00175008
0.00446325 -0.00101221 -9.94902e-07
-0.00101221 0.000354769 -6.0974e-06
-9.94902e-07 -6.0974e-06 -0.000349474
0.000423679 -0.00021313 -2.35389e-05
-0.00021313 0.000155094 1.48838e-05
-2.35389e-05 1.48838e-05 -0.00011579
0.00175698 -0.000377959 -3.0254e-06
-0.000377959 0.000306682 1.08516e-06
-3.0254e-06 1.08516e-06 0.000296682
0.00281176 -0.00042876 1.42487e-05
-0.00042876 0.000674426 -2.6811e-06
1.42487e-05 -2.6811e-06 0.0006592
-0.00124619 -0.000107751 -4.27231e-06
-0.000107751 -0.00100592 2.70133e-07
-4.27231e-06 2.70133e-07 -0.00129169
0.00134708 -0.000397347 -3.70334e-06
-0.000397347 4.45026e-05 -1.25918e-06
-3.70334e-06 -1.25918e-06 -0.000182263
0.00219023 -0.000472356 2.96243e-06
-0.000472356 0.000327918 -5.36071e-07
2.96243e-06 -5.36071e-07 0.000145505
0.00132347 -0.000327489 -1.03109e-05
-0.000327489 0.000205059 -2.41847e-06
-1.03109e-05 -2.41847e-06 -9.60002e-05
0.00152978 -0.000393764 2.75659e-07
-0.000393764 0.000130158 3.77313e-07
2.75659e-07 3.77313e-07 -0.000115085
0.00193001 -0.000380797 -1.13176e-06
-0.000380797 0.00020077 -4.96399e-06
-1.13176e-06 -4.96399e-06 2.32742e-05
0.00105529 -0.000312142 -6.42171e-06
-0.000312142 -6.38337e-05 9.72973e-08
-6.42171e-06 9.72973e-08 -0.000342256
0.00163878 -0.000347168 -4.29924e-07
-0.000347168 0.000138601 3.65737e-07
-4.29924e-07 3.65737e-07 -7.72452e-05
0.00176798 -0.000301449 -9.24233e-07
-0.000301449 0.000121752 -5.41907e-06
-9.24233e-07 -5.41907e-06 -2.84968e-05
0.00159144 -0.000238916 -2.77243e-06
-0.000238916 4.67954e-05 -3.44136e-06
-2.77243e-06 -3.44136e-06 -9.22398e-05
0.00149212 -0.000272629 -8.61823e-07
-0.000272629 8.07768e-05 -2.51345e-06
-8.61823e-07 -2.51345e-06 -0.000111397
0.00155704 -0.000278774 6.76923e-07
-0.000278774 9.05803e-05 1.20796e-06
6.76923e-07 1.20796e-06 -8.82172e-05
0.00125704 -0.000272853 -3.48155e-06
-0.000272853 2.87225e-05 3.09019e-07
-3.48155e-06 3.09019e-07 -0.000186382
0.00158633 -0.000321145 2.0597e-06
-0.000321145 0.000194104 -1.60015e-07
2.0597e-06 -1.60015e-07 -3.86378e-05
0.00151277 -0.00032131 7.41462e-07
-0.00032131 0.000144228 2.12131e-06
7.41462e-07 2.12131e-06 -7.9608e-05
0.0012622 -0.000241514 4.1974e-07
-0.000241514 0.00019119 3.30631e-06
4.1974e-07 3.30631e-06 -8.47101e-06
0.00124767 -0.000268157 2.77809e-06
-0.000268157 0.000106785 -1.10899e-06
2.77809e-06 -1.10899e-06 -0.000111684
0.00141751 -0.000316457 -8.36881e-07
-0.000316457 0.000172805 -2.99213e-06
-8.36881e-07 -2.99213e-06 -8.58363e-05
0.000970557 -0.000180722 -1.14965e-06
-0.000180722 0.000151709 1.28304e-06
-1.14965e-06 1.28304e-06 -1.87151e-05
0.00111837 -0.000214958 1.31215e-07
-0.000214958 0.000204592 -1.00029e-06
1.31215e-07 -1.00029e-06 1.61322e-05
0.000884588 -0.000206706 -1.4148e-06
-0.000206706 3.43005e-05 -5.6298e-06
-1.4148e-06 -5.6298e-06 -0.000144515
0.000674603 -4.93823e-05 -6.27808e-07
-4.93823e-05 4.1498e-05 4.49672e-06
-6.27808e-07 4.49672e-06 -7.23546e-05
0.000934886 -0.000135778 4.61271e-07
-0.000135778 0.000189166 2.36715e-07
4.61271e-07 2.36715e-07 2.96601e-05
0.000575572 -0.000140649 -2.43817e-06
-0.000140649 -2.97444e-05 8.51719e-07
-2.43817e-06 8.51719e-07 -0.000205859
0.000448849 7.07069e-05 2.56314e-06
7.07069e-05 -7.04334e-05 6.78409e-06
2.56314e-06 6.78409e-06 -0.000111212
0.000683799 -1.73416e-05 -4.49252e-07
-1.73416e-05 5.7056e-05 -4.39598e-07
-4.49252e-07 -4.39598e-07 -3.65502e-05
0.000959979 -8.32217e-05 3.88776e-07
-8.32217e-05 0.000240559 -1.4918e-06
3.88776e-07 -1.4918e-06 9.32317e-05
0.0024414 0.000121836 -8.34656e-06
0.000121836 0.00108543 1.45223e-06
-8.34656e-06 1.45223e-06 0.00108353
0.000562192 7.20207e-05 -3.0791e-07
7.20207e-05 -1.38618e-05 -2.16093e-07
-3.0791e-07 -2.16093e-07 -4.58158e-05
0.000719769 3.74827e-06 1.66212e-06
3.74827e-06 6.40886e-05 -3.53055e-06
1.66212e-06 -3.53055e-06 -6.04586e-06
0.00238579 9.93962e-05 2.6144e-06
9.93962e-05 0.00104407 2.25024e-07
2.6144e-06 2.25024e-07 0.00104837
0.000587978 6.75733e-05 -1.20312e-06
6.75733e-05 -9.15057e-06 -4.81752e-06
-1.20312e-06 -4.81752e-06 -3.57708e-05
0.00237803 9.03449e-05 2.78911e-05
9.03449e-05 0.00103275 -3.21975e-06
2.78911e-05 -3.21975e-06 0.00103925
0.000876701 9.36584e-05 -8.48368e-07
9.36584e-05 0.000159261 5.48805e-07
-8.48368e-07 5.48805e-07 4.39519e-05
0.000768409 4.40071e-05 -1.36808e-07
4.40071e-05 9.83677e-05 -2.4786e-07
-1.36808e-07 -2.4786e-07 -8.23953e-06
0.000795076 3.41733e-05 -3.69778e-07
3.41733e-05 0.000127152 -2.19775e-06
-3.69778e-07 -2.19775e-06 1.57685e-05
0.000673785 -1.19187e-05 -1.25311e-06
-1.19187e-05 2.41973e-05 -3.15982e-06
-1.25311e-06 -3.15982e-06 -4.14902e-05
0.000731455 2.43608e-05 4.7153e-07
2.43608e-05 8.01579e-05 1.01969e-07
4.7153e-07 1.01969e-07 -1.85108e-05
0.00066061 3.28491e-05 1.10829e-06
3.28491e-05 3.92167e-05 1.1191e-06
1.10829e-06 1.1191e-06 -6.53168e-05
0.000575398 -4.25043e-05 -4.4817e-07
-4.25043e-05 -3.62687e-05 -5.29603e-06
-4.4817e-07 -5.29603e-06 -6.10982e-05
0.000654809 -7.24109e-07 -5.05801e-08
-7.24109e-07 1.06975e-05 -6.14896e-08
-5.05801e-08 -6.14896e-08 -5.1272e-05
0.000728453 4.03909e-05 1.33291e-06
4.03909e-05 7.07329e-05 1.46463e-06
1.33291e-06 1.46463e-06 -1.92968e-05
0.00254987 -7.60342e-05 -3.0734e-05
-7.60342e-05 0.0011173 -4.13489e-06
-3.0734e-05 -4.13489e-06 0.00112656
0.000575083 -3.58669e-05 -3.76358e-07
-3.58669e-05 -4.33153e-05 -2.00812e-08
-3.76358e-07 -2.00812e-08 -6.44433e-05
0.000656946 9.86369e-06 9.4669e-07
9.86369e-06 1.12594e-05 2.70076e-06
9.4669e-07 2.70076e-06 -4.7069e-05
0.00241779 -6.21994e-05 -3.93965e-06
-6.21994e-05 0.00103382 2.20557e-07
-3.93965e-06 2.20557e-07 0.001046
0.000590596 -2.89324e-05 -1.61822e-07
-2.89324e-05 -4.0299e-05 4.51995e-06
-1.61822e-07 4.51995e-06 -5.74959e-05
0.0022913 -4.75481e-05 1.8263e-05
-4.75481e-05 0.000954418 4.56422e-06
1.8263e-05 4.56422e-06 0.000969494
-0.00441856 4.40475e-05 -7.39508e-06
4.40475e-05 0.000396943 4.5902e-05
-7.39508e-06 4.5902e-05 -0.00145159
0.00302276 -4.44183e-05 5.88932e-07
-4.44183e-05 0.00122236 1.13319e-05
5.88932e-07 1.13319e-05 0.000302423
0.000916384 -6.91887e-05 -2.99982e-06
-6.91887e-05 0.00017874 -3.58765e-06
-2.99982e-06 -3.58765e-06 -1.77025e-05
0.000616017 5.47226e-05 -4.84222e-07
5.47226e-05 6.35796e-06 2.75626e-07
-4.84222e-07 2.75626e-07 -0.00010045
0.00156262 0.000221103 -1.1563e-06
0.000221103 0.000560719 1.17294e-06
-1.1563e-06 1.17294e-06 0.000418556
0.000659476 5.58276e-05 -3.07914e-06
5.58276e-05 3.37954e-05 -1.81298e-07
-3.07914e-06 -1.81298e-07 -8.0133e-05
0.000982686 1.25586e-05 6.00548e-07
1.25586e-05 0.000207437 1.85099e-07
6.00548e-07 1.85099e-07 0.000109735
0.0011484 9.11516e-05 2.10406e-06
9.11516e-05 0.000312632 6.94806e-07
2.10406e-06 6.94806e-07 0.000202388
0.00056321 2.59551e-05 2.68903e-07
2.59551e-05 -2.02679e-05 2.75464e-06
2.68903e-07 2.75464e-06 -0.000124332
0.000637098 4.10657e-05 -1.05385e-06
4.10657e-05 3.51062e-05 3.68171e-07
-1.05385e-06 3.68171e-07 -8.21067e-05
0.000777963 5.06616e-05 -2.31384e-07
5.06616e-05 0.000103822 -2.32576e-07
-2.31384e-07 -2.32576e-07 -1.32738e-05
0.000879245 9.41337e-05 -9.40532e-07
9.41337e-05 0.000185457 -2.43581e-06
-9.40532e-07 -2.43581e-06 4.43755e-05
0.000413993 0.000141093 2.31923e-06
0.000141093 -0.000128144 -6.5197e-06
2.31923e-06 -6.5197e-06 -0.000225514
0.000759224 6.34679e-05 6.58355e-07
6.34679e-05 0.000108084 -4.99916e-08
6.58355e-07 -4.99916e-08 -8.37795e-06
0.000931993 9.48671e-05 5.2606e-07
9.48671e-05 0.000244748 2.04142e-06
5.2606e-07 2.04142e-06 0.000132237
-0.00520466 -0.000661514 -0.00026002
-0.000661514 -0.00156404 2.10097e-05
-0.00026002 2.10097e-05 -0.00238767
-0.00229391 -0.000459369 0.000109277
-0.000459369 0.000777801 5.12411e-05
0.000109277 5.12411e-05 -0.000529276
0.00343491 0.000168257 -9.43679e-05
0.000168257 0.00146754 -6.70223e-05
-9.43679e-05 -6.70223e-05 -0.000555513
-0.0074509 -0.0015588 0.000302616
-0.0015588 -0.0036399 0.000261106
0.000302616 0.000261106 -0.00184529
0.0103969 -0.00105389 -7.5841e-05
-0.00105389 0.00317461 7.59605e-05
-7.5841e-05 7.59605e-05 0.00315061
-0.000463567 0.000795081 -1.26993e-06
0.000795081 5.35381e-05 -4.25789e-05
-1.26993e-06 -4.25789e-05 -0.00347843
0.00345566 -5.06949e-05 -0.000151084
-5.06949e-05 0.000979566 5.06617e-05
-0.000151084 5.06617e-05 0.000218969
0.00290466 0.000305137 -1.53082e-05
0.000305137 0.000698263 1.67856e-05
-1.53082e-05 1.67856e-05 0.000427075
0.00766762 -0.00119893 -0.000111581
-0.00119893 0.00373423 4.49425e-05
-0.000111581 4.49425e-05 0.00384314
0.000390509 0.000626976 -2.93712e-06
0.000626976 0.000534377 -1.50811e-05
-2.93712e-06 -1.50811e-05 -0.00229375
0.00124689 0.00052711 -7.04961e-05
0.00052711 0.000174027 -7.08791e-05
-7.04961e-05 -7.08791e-05 -0.000315566
0.00370701 0.00104814 -0.00013208
0.00104814 0.000365262 -8.14975e-05
-0.00013208 -8.14975e-05 -0.00174532
0.00202707 0.000509433 1.42828e-05
0.000509433 0.000481661 -1.92864e-05
1.42828e-05 -1.92864e-05 0.00028425
0.000771594 0.000225003 -4.91774e-06
0.000225003 0.000130689 1.1469e-06
-4.91774e-06 1.1469e-06 2.51048e-05
0.0011533 7.18154e-05 -2.4794e-07
7.18154e-05 0.000374334 -1.6235e-06
-2.4794e-07 -1.6235e-06 0.000280517
-0.000617434 0.000176846 -3.79236e-05
0.000176846 -0.000244597 -3.74836e-05
-3.79236e-05 -3.74836e-05 -0.000733656
0.00281825 0.000350287 -1.44034e-05
0.000350287 0.0013706 -1.04532e-05
-1.44034e-05 -1.04532e-05 0.00120969
0.00113332 0.000465995 1.4435e-05
0.000465995 0.000101832 -3.92884e-06
1.4435e-05 -3.92884e-06 -0.000158756
0.00311933 0.000752438 8.27032e-05
0.000752438 0.000479823 2.66373e-05
8.27032e-05 2.66373e-05 0.000418155
-0.00429967 -3.87178e-05 -0.000247729
-3.87178e-05 -0.00286458 -9.70552e-07
-0.000247729 -9.70552e-07 -0.00210507
-0.00187637 7.69443e-05 9.123e-05
7.69443e-05 0.00173033 1.32386e-06
9.123e-05 1.32386e-06 1.8609e-05
0.00170973 -4.97971e-05 -5.45141e-05
-4.97971e-05 0.000722967 1.99371e-05
-5.45141e-05 1.99371e-05 -6.11639e-05
0.00283906 -0.000222776 -5.40647e-05
-0.000222776 0.000815597 -3.35374e-05
-5.40647e-05 -3.35374e-05 0.00104027
0.00231213 -0.000824358 -4.02852e-05
-0.000824358 0.000305742 3.45408e-06
-4.02852e-05 3.45408e-06 -0.0003424
0.00197414 0.000102236 -1.59189e-05
0.000102236 0.00281975 3.18939e-05
-1.59189e-05 3.18939e-05 0.00199809
0.00159049 -0.000538009 0.00012061
-0.000538009 -1.3439e-05 -9.85791e-05
0.00012061 -9.85791e-05 -0.00240098
0.00931215 0.000809323 4.53268e-05
0.000809323 0.00449839 1.30106e-05
4.53268e-05 1.30106e-05 0.00402703
0.00249144 -0.000577229 -1.65659e-05
-0.000577229 0.000537538 5.97947e-06
-1.65659e-05 5.97947e-06 0.000491625
-0.00103745 0.000429673 3.8486e-05
0.000429673 -0.000520868 -1.19502e-05
3.8486e-05 -1.19502e-05 -0.000938973
0.00386074 -0.000142514 -3.48888e-05
-0.000142514 -0.000118511 4.56121e-05
-3.48888e-05 4.56121e-05 -0.00211127
0.00582927 -0.001038 -3.12988e-05
-0.001038 0.00137422 1.2338e-05
-3.12988e-05 1.2338e-05 0.000649628
-2.09512e-05 -0.000306277 3.10044e-05
-0.000306277 -0.000626633 -7.56828e-06
3.10044e-05 -7.56828e-06 -0.000855288
0.00899772 -0.000331182 2.71758e-05
-0.000331182 0.00221459 -2.95909e-05
2.71758e-05 -2.95909e-05 0.000957811
0.00369058 -0.000484724 4.74766e-05
-0.000484724 -7.94782e-05 -2.89472e-05
4.74766e-05 -2.89472e-05 -0.000317954
-0.000495101 -0.000233833 -1.97821e-05
-0.000233833 -0.000948978 6.16911e-06
-1.97821e-05 6.16911e-06 -0.000879858
0.000782478 -0.000315276 -5.99898e-06
-0.000315276 -0.000416246 -9.09888e-07
-5.99898e-06 -9.09888e-07 -0.000392943
0.00284423 -0.000443167 2.0439e-05
-0.000443167 0.000534826 -1.56968e-05
2.0439e-05 -1.56968e-05 0.00052893
0.000605741 -0.000331962 -1.02701e-05
-0.000331962 -0.000312778 -3.2395e-06
-1.02701e-05 -3.2395e-06 -0.000541015
0.0016926 -0.000431251 -3.26742e-07
-0.000431251 7.87229e-05 -3.50938e-07
-3.26742e-07 -3.50938e-07 -9.36496e-05
0.00210081 -0.000392877 -3.8648e-06
-0.000392877 0.000173176 -8.4395e-07
-3.8648e-06 -8.4395e-07 5.67331e-05
0.00113615 -0.000358296 -2.13665e-06
-0.000358296 -6.82413e-05 2.28966e-06
-2.13665e-06 2.28966e-06 -0.000313742
0.0017855 -0.000369351 -2.57943e-06
-0.000369351 0.000124463 -1.59024e-08
-2.57943e-06 -1.59024e-08 -5.3003e-05
0.00178151 -0.000297107 -2.08685e-06
-0.000297107 3.05207e-05 -1.47687e-06
-2.08685e-06 -1.47687e-06 -8.20015e-05
0.00142149 -0.000328535 2.36688e-06
-0.000328535 1.56474e-05 4.37294e-06
2.36688e-06 4.37294e-06 -0.000196425
0.00169225 -0.000292132 2.19097e-08
-0.000292132 8.52108e-05 5.99332e-07
2.19097e-08 5.99332e-07 -6.29611e-05
0.00178016 -0.000246267 -1.77706e-06
-0.000246267 9.46164e-05 -2.21304e-06
-1.77706e-06 -2.21304e-06 -1.10713e-05
0.0018154 -0.000223274 -1.54081e-06
-0.000223274 0.000172563 -1.06223e-06
-1.54081e-06 -1.06223e-06 6.004e-05
0.00162288 -0.000238187 -2.40805e-06
-0.000238187 6.4891e-05 2.82727e-06
-2.40805e-06 2.82727e-06 -6.99496e-05
0.00171755 -0.000243098 -4.98226e-07
-0.000243098 0.000157049 -5.49751e-06
-4.98226e-07 -5.49751e-06 4.79437e-06
0.00162139 -0.000270295 -3.46755e-06
-0.000270295 0.000177631 -1.60646e-06
-3.46755e-06 -1.60646e-06 -1.40442e-05
0.00159018 -0.000277485 1.10512e-06
-0.000277485 0.00013372 5.70625e-07
1.10512e-06 5.70625e-07 -5.84696e-05
0.00147903 -0.000267268 6.36698e-07
-0.000267268 4.8738e-05 5.95737e-06
6.36698e-07 5.95737e-06 -0.000126404
0.00125588 -0.000243138 -6.46936e-06
-0.000243138 8.75712e-05 1.85246e-06
-6.46936e-06 1.85246e-06 -0.000108864
0.0013841 -0.000281962 1.44129e-08
-0.000281962 9.94101e-05 -1.48877e-07
1.44129e-08 -1.48877e-07 -0.000115464
0.00157617 -0.000316653 3.05938e-06
-0.000316653 0.000193196 7.35423e-07
3.05938e-06 7.35423e-07 -3.5539e-05
0.00111098 -0.000205348 -2.19702e-06
-0.000205348 0.000161221 3.12517e-06
-2.19702e-06 3.12517e-06 -2.20484e-05
0.00123057 -0.000237657 9.58474e-07
-0.000237657 0.000170914 1.0389e-06
9.58474e-07 1.0389e-06 -2.81684e-05
0.00109261 -0.000257384 2.68831e-06
-0.000257384 2.30501e-05 -5.64328e-06
2.68831e-06 -5.64328e-06 -0.000193261
0.000734205 -0.00011209 -4.35996e-06
-0.00011209 4.65857e-05 3.86567e-06
-4.35996e-06 3.86567e-06 -8.49012e-05
0.00106823 -0.000189955 3.31544e-07
-0.000189955 0.000205443 -5.91827e-07
3.31544e-07 -5.91827e-07 3.35592e-05
0.00118163 -0.000218985 -8.60533e-07
-0.000218985 0.000235689 -2.69226e-06
-8.60533e-07 -2.69226e-06 4.73122e-05
0.000443296 2.47391e-05 -1.12636e-06
2.47391e-05 -8.81645e-05 8.6985e-06
-1.12636e-06 8.6985e-06 -0.000134647
0.000745301 -7.33299e-05 2.97026e-07
-7.33299e-05 8.50036e-05 4.1286e-07
2.97026e-07 4.1286e-07 -3.42721e-05
0.00105919 -0.000143447 6.12154e-07
-0.000143447 0.000260724 -3.64964e-07
6.12154e-07 -3.64964e-07 9.77319e-05
0.00271237 0.000128091 -4.19955e-05
0.000128091 0.00124632 2.26098e-06
-4.19955e-05 2.26098e-06 0.00124319
0.000550925 5.36806e-05 -3.29574e-07
5.36806e-05 -1.83899e-05 -5.31681e-07
-3.29574e-07 -5.31681e-07 -5.63682e-05
0.000830218 -6.15682e-05 2.84079e-06
-6.15682e-05 0.000140934 -4.40034e-06
2.84079e-06 -4.40034e-06 4.34551e-05
0.00169174 9.01273e-05 1.86237e-05
9.01273e-05 0.000645495 -4.68719e-08
1.86237e-05 -4.68719e-08 0.000643199
0.000604333 6.52909e-05 -5.16049e-07
6.52909e-05 8.59939e-06 -5.60814e-06
-5.16049e-07 -5.60814e-06 -2.21487e-05
0.0024659 0.000101963 3.43489e-05
0.000101963 0.00109103 -2.67095e-06
3.43489e-05 -2.67095e-06 0.0010949
0.000919079 0.000105238 1.08852e-06
0.000105238 0.000171196 9.45319e-07
1.08852e-06 9.45319e-07 5.58124e-05
0.000650712 4.95509e-05 -2.68435e-07
4.95509e-05 2.3045e-05 5.23043e-07
-2.68435e-07 5.23043e-07 -8.27569e-05
0.000700216 1.50776e-05 -4.91752e-07
1.50776e-05 5.9612e-05 -1.62231e-06
-4.91752e-07 -1.62231e-06 -4.70072e-05
0.00089586 6.54729e-05 9.45196e-07
6.54729e-05 0.000173811 8.0179e-07
9.45196e-07 8.0179e-07 6.3751e-05
0.000725096 1.16522e-05 2.06503e-07
1.16522e-05 7.23395e-05 4.46202e-08
2.06503e-07 4.46202e-08 -2.76703e-05
0.000674249 -1.17919e-05 -1.39585e-06
-1.17919e-05 2.85076e-05 -3.57712e-06
-1.39585e-06 -3.57712e-06 -4.25165e-05
0.000576481 -4.80231e-05 -5.53641e-07
-4.80231e-05 -2.79464e-05 -5.77443e-06
-5.53641e-07 -5.77443e-06 -5.60832e-05
0.000650984 -9.21449e-06 2.21411e-07
-9.21449e-06 1.20537e-05 -8.44391e-08
2.21411e-07 -8.44391e-08 -5.38999e-05
0.000667504 -4.911e-06 2.80981e-07
-4.911e-06 2.92164e-05 1.61006e-06
2.80981e-07 1.61006e-06 -5.8529e-05
0.002622 -8.8031e-05 -3.72606e-05
-8.8031e-05 0.00116575 -3.73001e-06
-3.72606e-05 -3.73001e-06 0.00117261
0.000563276 -3.93735e-05 -4.12162e-07
-3.93735e-05 -4.38123e-05 1.58849e-08
-4.12162e-07 1.58849e-08 -6.81624e-05
0.000646051 6.24048e-06 1.66013e-06
6.24048e-06 7.1913e-06 2.86305e-06
1.66013e-06 2.86305e-06 -5.54097e-05
0.00252624 -7.52853e-05 -4.01463e-06
-7.52853e-05 0.00110298 2.59625e-07
-4.01463e-06 2.59625e-07 0.00111244
0.000573192 -3.49087e-05 9.28711e-08
-3.49087e-05 -4.47249e-05 4.87594e-06
9.28711e-08 4.87594e-06 -6.56397e-05
0.00239618 -6.11601e-05 2.24932e-05
-6.11601e-05 0.00102051 4.43292e-06
2.24932e-05 4.43292e-06 0.001033
0.000488071 0.000286237 -0.00011773
0.000286237 0.00129248 5.50722e-05
-0.00011773 5.50722e-05 0.000396408
-0.00164932 -8.60349e-05 7.13495e-06
-8.60349e-05 0.00130448 1.28466e-05
7.13495e-06 1.28466e-05 -0.000463525
0.00282933 -7.17496e-05 -5.59591e-05
-7.17496e-05 0.00130035 -4.04616e-06
-5.59591e-05 -4.04616e-06 0.000350073
0.000534729 2.41088e-05 2.39844e-06
2.41088e-05 -4.1684e-05 -8.2667e-07
2.39844e-06 -8.2667e-07 -0.000143504
0.000635085 3.43015e-05 1.50848e-06
3.43015e-05 1.85507e-05 2.52905e-07
1.50848e-06 2.52905e-07 -9.31164e-05
0.00118851 0.000183808 -9.24262e-07
0.000183808 0.00035321 5.47934e-07
-9.24262e-07 5.47934e-07 0.000218569
0.00151857 0.000247969 7.57616e-07
0.000247969 0.000493122 -4.67636e-07
7.57616e-07 -4.67636e-07 0.000327036
0.000993231 0.000141826 -5.92484e-06
0.000141826 0.000252925 -2.01318e-06
-5.92484e-06 -2.01318e-06 0.000111707
0.000910043 9.02987e-05 2.07826e-06
9.02987e-05 0.000191203 2.37428e-06
2.07826e-06 2.37428e-06 7.02429e-05
0.000791315 5.93522e-05 3.40902e-06
5.93522e-05 0.000112467 1.85905e-06
3.40902e-06 1.85905e-06 -3.65425e-06
0.000694945 0.000109726 -2.83862e-06
0.000109726 8.33051e-05 -2.67381e-06
-2.83862e-06 -2.67381e-06 -5.20645e-05
-0.000573689 7.49212e-05 -1.56726e-06
7.49212e-05 -0.000669913 -1.45003e-07
-1.56726e-06 -1.45003e-07 -0.000811912
0.00113063 0.000221203 2.70208e-07
0.000221203 0.000222156 -4.24082e-06
2.70208e-07 -4.24082e-06 0.000110725
0.00224329 0.000460771 3.72236e-06
0.000460771 0.000534533 -1.2977e-05
3.72236e-06 -1.2977e-05 0.00034398
0.000561526 0.000158397 -4.68171e-06
0.000158397 -2.58558e-05 -2.86698e-07
-4.68171e-06 -2.86698e-07 -0.000126251
0.000611035 4.47296e-05 2.18299e-06
4.47296e-05 3.41447e-05 -1.04947e-06
2.18299e-06 -1.04947e-06 -6.89339e-05
0.0108788 0.00051845 -6.35434e-05
0.00051845 0.00307859 3.47244e-05
-6.35434e-05 3.47244e-05 0.00175811
-0.000960973 -0.000524105 -0.000131323
-0.000524105 0.000988131 -3.72237e-05
-0.000131323 -3.72237e-05 -1.50654e-05
-0.000580759 -0.000679519 5.6863e-05
-0.000679519 0.000973341 -2.75081e-05
5.6863e-05 -2.75081e-05 -0.000392763
-0.00279354 -0.000594017 -1.74195e-05
-0.000594017 -0.00104973 9.61742e-05
-1.74195e-05 9.61742e-05 -0.00101524
0.0104753 0.000507057 7.31276e-06
0.000507057 0.00498319 -6.51236e-06
7.31276e-06 -6.51236e-06 0.00195292
0.00112685 0.000311768 -5.26394e-05
0.000311768 -0.000211961 -1.72566e-05
-5.26394e-05 -1.72566e-05 -0.000327498
0.00139794 0.000557686 -2.04628e-05
0.000557686 0.000160151 -1.06117e-05
-2.04628e-05 -1.06117e-05 -0.00021435
0.00909603 0.000471707 3.43496e-05
0.000471707 0.00313612 1.8872e-05
3.43496e-05 1.8872e-05 0.00135881
0.0052755 0.00108788 -2.51281e-05
0.00108788 0.000900102 -3.85822e-05
-2.51281e-05 -3.85822e-05 0.000398883
0.00200302 0.000568081 -3.99718e-07
0.000568081 0.000283783 -9.37694e-07
-3.99718e-07 -9.37694e-07 0.00012232
0.000963979 0.000380388 5.32904e-06
0.000380388 4.77055e-05 -2.38898e-06
5.32904e-06 -2.38898e-06 -0.000143504
0.000980974 0.000219992 -1.52438e-05
0.000219992 0.00025461 1.08276e-05
-1.52438e-05 1.08276e-05 0.000152595
0.00260049 0.000606479 -3.8226e-05
0.000606479 0.000724589 -1.23652e-05
-3.8226e-05 -1.23652e-05 0.00047422
0.0022662 0.000690207 -1.75668e-06
0.000690207 1.58501e-05 1.65693e-05
-1.75668e-06 1.65693e-05 -8.32977e-05
0.000464973 -0.000282482 -2.50788e-05
-0.000282482 -0.00262738 -6.1502e-07
-2.50788e-05 -6.1502e-07 -0.00310307
0.00241011 -0.0002918 -1.24691e-06
-0.0002918 0.00139485 -1.67487e-05
-1.24691e-06 -1.67487e-05 0.00139633
-0.00363796 1.14912e-05 0.000112978
1.14912e-05 0.00111124 -8.68872e-06
0.000112978 -8.68872e-06 -0.000734812
0.00236162 -0.000633237 -3.80536e-05
-0.000633237 0.000406719 4.60308e-06
-3.80536e-05 4.60308e-06 0.000287498
0.00352157 -0.000931288 3.08359e-05
-0.000931288 0.000815605 -1.38413e-05
3.08359e-05 -1.38413e-05 -0.000203025
0.00121021 -0.000252391 0.000152623
-0.000252391 0.0015215 1.25025e-05
0.000152623 1.25025e-05 0.000838562
0.0110932 -0.000139964 -0.000100546
-0.000139964 0.00374083 5.44508e-05
-0.000100546 5.44508e-05 0.00209105
0.000730356 -0.000351521 -2.05138e-05
-0.000351521 -0.000323094 -2.08764e-06
-2.05138e-05 -2.08764e-06 -0.000455387
0.0078469 7.00341e-05 -2.74128e-05
7.00341e-05 0.00146147 2.51667e-05
-2.74128e-05 2.51667e-05 0.000490005
0.00454006 -0.000567906 6.46775e-05
-0.000567906 0.000176978 6.46514e-07
6.46775e-05 6.46514e-07 -0.000366167
0.00221391 -0.000350757 3.1862e-05
-0.000350757 0.000418605 -8.64057e-06
3.1862e-05 -8.64057e-06 0.000121072
0.00314221 -0.000182046 -7.88031e-05
-0.000182046 0.000182993 -6.29486e-06
-7.88031e-05 -6.29486e-06 1.61517e-06
-0.000962938 -0.000221245 -1.64413e-05
-0.000221245 -0.00136776 4.31948e-06
-1.64413e-05 4.31948e-06 -0.0013046
0.00154048 -0.000378741 5.66746e-07
-0.000378741 -0.000143059 -8.17011e-07
5.66746e-07 -8.17011e-07 -0.000146917
0.00211676 -0.000305471 1.04812e-05
-0.000305471 6.06695e-05 -6.8709e-06
1.04812e-05 -6.8709e-06 8.54634e-05
0.00131442 -0.000400529 -2.31298e-06
-0.000400529 -0.000107394 2.26662e-06
-2.31298e-06 2.26662e-06 -0.000273457
0.00181093 -0.000366104 -1.86334e-06
-0.000366104 3.67582e-05 -4.44627e-08
-1.86334e-06 -4.44627e-08 -7.72122e-05
0.00204021 -0.000278972 -5.78509e-07
-0.000278972 8.05483e-05 1.46291e-06
-5.78509e-07 1.46291e-06 2.91205e-05
0.00155847 -0.000351433 -2.52981e-06
-0.000351433 5.13846e-06 4.40944e-06
-2.52981e-06 4.40944e-06 -0.000171591
0.00182788 -0.000297489 5.52688e-07
-0.000297489 5.76338e-05 1.51999e-06
5.52688e-07 1.51999e-06 -5.44222e-05
0.00173169 -0.000247438 -3.39557e-07
-0.000247438 3.11225e-06 9.33714e-07
-3.39557e-07 9.33714e-07 -7.81938e-05
0.00163013 -0.000284226 3.0381e-06
-0.000284226 5.51055e-05 5.32934e-06
3.0381e-06 5.32934e-06 -9.11973e-05
0.00174092 -0.000246133 -1.38286e-07
-0.000246133 7.18929e-05 1.1753e-06
-1.38286e-07 1.1753e-06 -3.47345e-05
0.00200895 -0.000241128 3.64392e-07
-0.000241128 0.000247918 -3.3566e-07
3.64392e-07 -3.3566e-07 0.000152428
0.00174411 -0.000222537 -3.65179e-06
-0.000222537 0.000123448 3.48356e-06
-3.65179e-06 3.48356e-06 1.38739e-05
0.00178627 -0.000228504 2.16846e-06
-0.000228504 0.000180897 -3.39574e-06
2.16846e-06 -3.39574e-06 5.41825e-05
0.00165037 -0.000237833 1.31474e-06
-0.000237833 8.05819e-05 7.65002e-06
1.31474e-06 7.65002e-06 -5.01725e-05
0.00172044 -0.00024486 5.52754e-07
-0.00024486 0.000159469 -7.99838e-07
5.52754e-07 -7.99838e-07 6.50854e-06
0.00163794 -0.000234748 -1.54789e-06
-0.000234748 0.000157753 -3.00474e-06
-1.54789e-06 -3.00474e-06 -7.26749e-06
0.00140341 -0.000234155 -5.92087e-06
-0.000234155 0.000111373 4.85132e-07
-5.92087e-06 4.85132e-07 -7.16099e-05
0.00166633 -0.000274569 4.16568e-07
-0.000274569 0.000206399 -6.61556e-07
4.16568e-07 -6.61556e-07 1.31357e-05
0.00168996 -0.000282688 2.37356e-06
-0.000282688 0.000188184 3.4192e-06
2.37356e-06 3.4192e-06 -4.10147e-06
0.00117498 -0.00021309 -6.01469e-06
-0.00021309 0.000108689 2.98527e-06
-6.01469e-06 2.98527e-06 -7.21708e-05
0.00124837 -0.000241508 -1.67735e-06
-0.000241508 8.45325e-05 7.31587e-07
-1.67735e-06 7.31587e-07 -0.000111336
0.0014655 -0.000287603 3.96566e-06
-0.000287603 0.000144641 -1.02944e-06
3.96566e-06 -1.02944e-06 -6.97416e-05
0.00076987 -0.000134551 -5.4322e-06
-0.000134551 1.93366e-05 5.19356e-06
-5.4322e-06 5.19356e-06 -0.000121489
0.00111371 -0.000205595 8.9312e-07
-0.000205595 0.000159922 2.7016e-07
8.9312e-07 2.7016e-07 -2.2958e-05
0.00122772 -0.000236405 3.01803e-06
-0.000236405 0.000166634 -1.85957e-06
3.01803e-06 -1.85957e-06 -3.22615e-05
0.00043985 -3.79088e-05 -8.99336e-06
-3.79088e-05 -0.000111911 1.01799e-05
-8.99336e-06 1.01799e-05 -0.000166652
0.000798053 -0.000126104 -3.15765e-07
-0.000126104 8.23149e-05 1.01547e-07
-3.15765e-07 1.01547e-07 -5.10963e-05
0.00106969 -0.000187856 1.15906e-06
-0.000187856 0.000203949 -1.96535e-06
1.15906e-06 -1.96535e-06 3.28116e-05
0.00323413 0.000150074 -5.7865e-05
0.000150074 0.00155113 2.1938e-06
-5.7865e-05 2.1938e-06 0.00154246
0.000561696 5.88318e-06 6.22067e-07
5.88318e-06 -2.46215e-05 -3.94708e-07
6.22067e-07 -3.94708e-07 -7.09693e-05
0.000850045 -0.000117818 4.16816e-06
-0.000117818 0.000144559 -3.69195e-06
4.16816e-06 -3.69195e-06 2.12916e-05
0.00286431 0.00012771 5.08525e-06
0.00012771 0.00133231 3.7061e-07
5.08525e-06 3.7061e-07 0.0013296
0.000656504 3.88203e-05 2.96274e-06
3.88203e-05 3.83893e-05 -7.11627e-06
2.96274e-06 -7.11627e-06 1.38992e-06
0.00262542 0.000112047 4.58884e-05
0.000112047 0.00118859 -2.23242e-06
4.58884e-05 -2.23242e-06 0.00119023
0.000945958 0.000182539 1.94915e-06
0.000182539 0.000159106 -2.08465e-06
1.94915e-06 -2.08465e-06 2.52755e-06
0.000820255 0.000131301 8.71271e-07
0.000131301 0.000122629 -8.49627e-08
8.71271e-07 -8.49627e-08 5.71888e-07
0.000535734 2.70657e-05 -9.63087e-07
2.70657e-05 -4.18676e-05 -6.32159e-07
-9.63087e-07 -6.32159e-07 -0.000153129
0.000411394 1.50713e-05 9.41932e-07
1.50713e-05 -0.000115348 3.9051e-07
9.41932e-07 3.9051e-07 -0.000215853
0.000603451 -3.09403e-06 -2.02045e-07
-3.09403e-06 1.48551e-07 4.1764e-07
-2.02045e-07 4.1764e-07 -0.000103275
0.00066128 -9.20244e-06 -1.55424e-06
-9.20244e-06 2.37142e-05 -3.6839e-06
-1.55424e-06 -3.6839e-06 -5.51148e-05
0.000651667 -6.88464e-06 4.61527e-07
-6.88464e-06 2.34091e-05 1.85629e-06
4.61527e-07 1.85629e-06 -7.06652e-05
0.000637745 -1.67669e-05 3.24944e-07
-1.67669e-05 9.01309e-06 -1.83427e-07
3.24944e-07 -1.83427e-07 -6.21791e-05
0.000578156 -5.22439e-05 -6.97376e-07
-5.22439e-05 -1.88152e-05 -6.32093e-06
-6.97376e-07 -6.32093e-06 -5.03811e-05
0.00267777 -9.9713e-05 -4.32628e-05
-9.9713e-05 0.00120525 -3.23392e-06
-4.32628e-05 -3.23392e-06 0.0012097
0.000555887 -4.56994e-05 2.54092e-08
-4.56994e-05 -4.04885e-05 8.37411e-09
2.54092e-08 8.37411e-09 -6.81409e-05
0.000618425 -7.8063e-06 1.86907e-06
-7.8063e-06 -5.6017e-06 3.15439e-06
1.86907e-06 3.15439e-06 -7.17892e-05
0.00261517 -8.76959e-05 -3.91451e-06
-8.76959e-05 0.00116133 2.96421e-07
-3.91451e-06 2.96421e-07 0.00116819
0.000553339 -4.0157e-05 4.24833e-07
-4.0157e-05 -4.9423e-05 5.2634e-06
4.24833e-07 5.2634e-06 -7.37973e-05
0.00249664 -7.42996e-05 2.79777e-05
-7.42996e-05 0.00108506 4.22803e-06
2.79777e-05 4.22803e-06 0.00109479
0.0103083 0.000413423 0.000154287
0.000413423 0.0026526 7.26015e-05
0.000154287 7.26015e-05 0.00169372
-0.00255247 -0.000550773 -8.86693e-05
-0.000550773 -0.00178901 -9.46768e-06
-8.86693e-05 -9.46768e-06 -0.00194853
-0.00365629 0.000160245 -3.88407e-05
0.000160245 0.000352521 -3.12461e-05
-3.88407e-05 -3.12461e-05 -0.00175719
0.00063018 7.31193e-06 5.73427e-06
7.31193e-06 1.18635e-05 7.11553e-07
5.73427e-06 7.11553e-07 -9.61034e-05
0.0008266 0.000157944 -7.4264e-07
0.000157944 0.000151665 1.08167e-06
-7.4264e-07 1.08167e-06 2.39095e-05
0.00120324 0.000162656 -8.1958e-08
0.000162656 0.000368889 -2.50153e-07
-8.1958e-08 -2.50153e-07 0.000226301
0.00122692 0.000221609 -2.28161e-06
0.000221609 0.000329411 1.08752e-07
-2.28161e-06 1.08752e-07 0.000168734
0.00141378 0.000262158 1.96549e-05
0.000262158 0.000345489 -1.56978e-06
1.96549e-05 -1.56978e-06 0.000151203
0.000268935 0.000144588 -2.61677e-06
0.000144588 -0.000189085 -1.99311e-06
-2.61677e-06 -1.99311e-06 -0.000340497
0.00050905 0.000111838 -9.30991e-07
0.000111838 -1.31285e-05 -2.06731e-06
-9.30991e-07 -2.06731e-06 -0.000146686
0.000213499 0.000147749 5.1511e-07
0.000147749 -0.00023852 1.28473e-06
5.1511e-07 1.28473e-06 -0.000398881
0.000995856 0.000212978 -7.33918e-07
0.000212978 0.000156481 4.79728e-07
-7.33918e-07 4.79728e-07 4.05874e-05
0.000352066 0.000213089 2.75825e-06
0.000213089 -0.000306861 -2.00923e-07
2.75825e-06 -2.00923e-07 -0.000460369
0.00335903 0.000505897 -3.66849e-06
0.000505897 0.00113838 -4.86305e-06
-3.66849e-06 -4.86305e-06 0.000966138
0.00199899 0.000468293 -5.03655e-06
0.000468293 0.000298559 2.14997e-06
-5.03655e-06 2.14997e-06 0.000130121
0.00160758 0.000408337 3.54451e-06
0.000408337 0.000211614 -3.47991e-06
3.54451e-06 -3.47991e-06 3.74686e-05
0.000437868 0.000165227 -1.37353e-06
0.000165227 -7.89633e-05 5.31959e-06
-1.37353e-06 5.31959e-06 -0.000180947
0.00493619 0.000446553 -2.03817e-05
0.000446553 0.000365095 1.12501e-05
-2.03817e-05 1.12501e-05 0.000353012
0.00786486 0.000348299 5.64222e-05
0.000348299 0.00162543 3.59103e-05
5.64222e-05 3.59103e-05 0.000223911
0.00551375 -0.00100987 5.35474e-05
-0.00100987 0.00307744 -6.13632e-05
5.35474e-05 -6.13632e-05 0.00263155
0.00411359 0.000899954 0.000284595
0.000899954 0.000399907 0.000112685
0.000284595 0.000112685 -0.0024215
0.00167153 0.000534826 -9.03671e-06
0.000534826 0.000175856 1.64229e-05
-9.03671e-06 1.64229e-05 0.000140911
0.00331934 0.000853758 -7.1388e-05
0.000853758 4.1049e-05 -2.34569e-05
-7.1388e-05 -2.34569e-05 -0.000235517
0.00337148 0.00069871 4.26287e-05
0.00069871 0.000564081 2.2192e-05
4.26287e-05 2.2192e-05 0.000563811
0.00278256 0.000625231 3.9898e-06
0.000625231 0.000616776 8.30472e-06
3.9898e-06 8.30472e-06 0.000464635
0.000731875 0.000336333 -6.52193e-06
0.000336333 -1.756e-05 1.43732e-05
-6.52193e-06 1.43732e-05 -0.000199196
0.00344291 0.00078573 -0.00011092
0.00078573 0.000584341 -3.18933e-05
-0.00011092 -3.18933e-05 0.000399863
0.0030136 -0.000195353 -9.19569e-05
-0.000195353 0.000448805 8.54479e-06
-9.19569e-05 8.54479e-06 0.00013155
0.00985099 -0.000220723 3.85045e-06
-0.000220723 0.00297336 -2.79954e-06
3.85045e-06 -2.79954e-06 0.00229025
-0.00832708 -0.000384781 0.000269263
-0.000384781 -0.00456987 -7.55599e-06
0.000269263 -7.55599e-06 -0.00432961
0.00111556 -0.000396909 -3.8439e-05
-0.000396909 -0.0002476 8.94561e-06
-3.8439e-05 8.94561e-06 -0.000317505
0.00596632 -0.000688961 0.000110014
-0.000688961 0.000943446 1.48615e-05
0.000110014 1.48615e-05 0.000396556
0.00135825 -0.000391282 3.93845e-05
-0.000391282 -0.00177531 5.70388e-05
3.93845e-05 5.70388e-05 -0.00290089
0.00147285 -0.000287449 2.07169e-05
-0.000287449 -1.56416e-05 -3.16708e-07
2.07169e-05 -3.16708e-07 -0.000191309
0.00236787 -7.29181e-05 -1.56063e-06
-7.29181e-05 -0.000338166 6.68883e-06
-1.56063e-06 6.68883e-06 -0.000532028
0.00406495 -0.000309332 1.59974e-05
-0.000309332 0.00106202 -6.48111e-06
1.59974e-05 -6.48111e-06 0.00107489
0.00339604 -6.55703e-05 6.94885e-05
-6.55703e-05 0.000786744 -3.69782e-07
6.94885e-05 -3.69782e-07 0.000760396
0.000110395 -0.000312822 -8.02704e-06
-0.000312822 -0.000887214 6.47596e-06
-8.02704e-06 6.47596e-06 -0.000883684
0.00174616 -0.000296654 -1.83075e-07
-0.000296654 -0.000136925 6.36054e-07
-1.83075e-07 6.36054e-07 -0.000113667
0.00172077 -0.000187353 1.0864e-05
-0.000187353 -0.000165917 -6.98398e-07
1.0864e-05 -6.98398e-07 -0.000101228
0.0015482 -0.000343143 1.70347e-06
-0.000343143 -9.10393e-05 6.37856e-07
1.70347e-06 6.37856e-07 -0.000201686
0.00192134 -0.000274866 2.10409e-06
-0.000274866 2.16454e-05 9.92185e-07
2.10409e-06 9.92185e-07 -3.13201e-05
0.00182161 -0.000210018 1.44492e-06
-0.000210018 2.7207e-05 1.5896e-06
1.44492e-06 1.5896e-06 -9.25837e-06
0.00185456 -0.000296807 6.03927e-06
-0.000296807 7.29137e-05 3.78724e-06
6.03927e-06 3.78724e-06 -3.83549e-05
0.00183392 -0.000250102 9.56905e-07
-0.000250102 6.67226e-05 4.34836e-07
9.56905e-07 4.34836e-07 -1.44793e-05
0.00197254 -0.000217955 -8.02268e-07
-0.000217955 0.000194544 1.02254e-06
-8.02268e-07 1.02254e-06 0.000116389
0.00169793 -0.000245242 2.44269e-06
-0.000245242 4.76045e-05 4.10886e-06
2.44269e-06 4.10886e-06 -5.98116e-05
0.0018201 -0.000233705 3.2201e-08
-0.000233705 0.00014555 6.16864e-07
3.2201e-08 6.16864e-07 4.92376e-05
0.00166367 -0.000219441 3.88475e-06
-0.000219441 8.73596e-05 -1.99493e-06
3.88475e-06 -1.99493e-06 -2.2459e-05
0.00167915 -0.000222104 -2.80808e-06
-0.000222104 7.84185e-05 7.53641e-06
-2.80808e-06 7.53641e-06 -2.82756e-05
0.00182686 -0.000228156 -1.99988e-06
-0.000228156 0.000203194 1.03814e-07
-1.99988e-06 1.03814e-07 7.97602e-05
0.00172222 -0.000215114 8.45264e-07
-0.000215114 0.000187106 -1.94647e-06
8.45264e-07 -1.94647e-06 4.04721e-05
0.00172366 -0.000246257 1.72052e-06
-0.000246257 0.00016182 3.49062e-06
1.72052e-06 3.49062e-06 8.24749e-06
0.00168514 -0.000236982 7.24537e-07
-0.000236982 0.000185709 -7.23915e-07
7.24537e-07 -7.23915e-07 1.97775e-05
0.00164489 -0.000218223 -2.96081e-06
-0.000218223 0.000223293 -7.4324e-07
-2.96081e-06 -7.4324e-07 5.72653e-05
0.000977126 -0.000184428 -8.77697e-06
-0.000184428 -6.14138e-05 2.03391e-06
-8.77697e-06 2.03391e-06 -0.000228606
0.00151274 -0.000242523 -1.09799e-06
-0.000242523 0.00017735 -5.78587e-08
-1.09799e-06 -5.78587e-08 -6.89259e-06
0.00170054 -0.000277857 3.81387e-06
-0.000277857 0.000228706 3.48085e-07
3.81387e-06 3.48085e-07 3.40534e-05
0.000952588 -0.000159795 -8.49094e-06
-0.000159795 5.8191e-05 6.04631e-06
-8.49094e-06 6.04631e-06 -8.71499e-05
0.00117753 -0.000211342 2.43591e-07
-0.000211342 0.000109762 6.46355e-07
2.43591e-07 6.46355e-07 -7.03405e-05
0.0011988 -0.000236058 2.66581e-06
-0.000236058 5.74332e-05 -6.50715e-07
2.66581e-06 -6.50715e-07 -0.000137197
0.00044946 -7.17026e-05 -1.29754e-05
-7.17026e-05 -0.000123135 1.14547e-05
-1.29754e-05 1.14547e-05 -0.00018836
0.000866848 -0.000146478 3.03332e-07
-0.000146478 7.55468e-05 7.2076e-08
3.03332e-07 7.2076e-08 -6.72822e-05
0.00113038 -0.000206946 4.08966e-06
-0.000206946 0.00016702 -2.46119e-06
4.08966e-06 -2.46119e-06 -1.56936e-05
0.00388996 0.000158517 -9.26435e-05
0.000158517 0.00193024 3.07971e-06
-9.26435e-05 3.07971e-06 0.00191904
0.000588735 -4.54593e-05 5.4563e-07
-4.54593e-05 -2.84385e-05 -2.69754e-07
5.4563e-07 -2.69754e-07 -8.51475e-05
0.000895038 -0.00014044 5.5556e-06
-0.00014044 0.000135988 -4.51429e-06
5.5556e-06 -4.51429e-06 8.82826e-07
0.00343391 0.000131566 6.44275e-06
0.000131566 0.00166177 2.88663e-07
6.44275e-06 2.88663e-07 0.00165766
0.000686167 -3.94795e-06 7.25845e-06
-3.94795e-06 4.34208e-05 -8.5379e-06
7.25845e-06 -8.5379e-06 -3.06079e-06
0.00301404 0.000109512 7.74323e-05
0.000109512 0.00141451 -2.72862e-06
7.74323e-05 -2.72862e-06 0.00141643
0.00122006 0.000225639 -1.46629e-06
0.000225639 0.000240633 -5.21218e-06
-1.46629e-06 -5.21218e-06 5.40669e-05
0.00127424 0.000209992 3.25945e-07
0.000209992 0.000351402 -6.68885e-08
3.25945e-07 -6.68885e-08 0.00018978
0.000752985 0.000120663 -1.02577e-06
0.000120663 6.13754e-05 -3.76195e-06
-1.02577e-06 -3.76195e-06 -7.75497e-05
0.000680648 0.000144551 -1.85987e-07
0.000144551 5.1436e-05 2.55146e-07
-1.85987e-07 2.55146e-07 -7.60473e-05
0.000569265 4.39061e-05 -2.8209e-07
4.39061e-05 -2.24266e-05 -2.25025e-07
-2.8209e-07 -2.25025e-07 -0.00013762
0.000746279 5.30941e-05 -2.58475e-06
5.30941e-05 8.18498e-05 -3.38467e-06
-2.58475e-06 -3.38467e-06 -1.68581e-05
0.000510456 -1.86568e-05 7.00257e-07
-1.86568e-05 -5.60279e-05 1.60543e-06
7.00257e-07 1.60543e-06 -0.000156965
0.000646153 -1.14007e-05 2.8256e-07
-1.14007e-05 1.76628e-05 -2.71551e-07
2.8256e-07 -2.71551e-07 -6.21288e-05
0.000580093 -4.98218e-05 -1.1502e-06
-4.98218e-05 -1.17681e-05 -6.94042e-06
-1.1502e-06 -6.94042e-06 -4.7058e-05
0.000604566 -2.03543e-05 1.43104e-06
-2.03543e-05 -8.83086e-06 3.49558e-06
1.43104e-06 3.49558e-06 -8.00916e-05
0.000550132 -5.04048e-05 2.20879e-07
-5.04048e-05 -3.57428e-05 -3.98893e-08
2.20879e-07 -3.98893e-08 -6.68028e-05
0.00274383 -0.000110659 -5.01959e-05
-0.000110659 0.00125067 -2.66401e-06
-5.01959e-05 -2.66401e-06 0.00125273
0.00267248 -9.95024e-05 -2.93149e-06
-9.95024e-05 0.0012017 2.89779e-07
-2.93149e-06 2.89779e-07 0.00120607
0.000542274 -4.05909e-05 1.5429e-06
-4.05909e-05 -4.95695e-05 5.65553e-06
1.5429e-06 5.65553e-06 -7.6415e-05
0.00259074 -8.69705e-05 3.40556e-05
-8.69705e-05 0.00114667 3.91495e-06
3.40556e-05 3.91495e-06 0.00115361
0.00312941 -1.64001e-05 -1.95144e-06
-1.64001e-05 -0.000110517 2.40066e-05
-1.95144e-06 2.40066e-05 -8.87303e-05
0.00212038 -0.000493054 4.38402e-05
-0.000493054 -0.00165658 2.13175e-05
4.38402e-05 2.13175e-05 -0.00271356
0.0057516 -0.000641856 -4.14565e-05
-0.000641856 0.00225303 -5.74229e-05
-4.14565e-05 -5.74229e-05 0.00245613
0.00128679 0.00026426 9.41272e-06
0.00026426 0.000123935 5.52758e-06
9.41272e-06 5.52758e-06 -8.88164e-05
0.00142925 0.000188993 3.22919e-06
0.000188993 0.000495526 1.29148e-06
3.22919e-06 1.29148e-06 0.000350022
0.000987737 0.000200167 -2.21239e-06
0.000200167 0.000196428 1.73184e-06
-2.21239e-06 1.73184e-06 4.01633e-05
0.000706894 0.000185531 9.88786e-07
0.000185531 5.45226e-05 1.54854e-06
9.88786e-07 1.54854e-06 -0.000106137
0.00118754 0.000245886 -2.5337e-07
0.000245886 0.000217859 -4.15248e-06
-2.5337e-07 -4.15248e-06 2.43943e-05
0.000716106 0.000227607 1.34934e-06
0.000227607 -9.37525e-05 -3.67723e-07
1.34934e-06 -3.67723e-07 -0.000258592
0.000964286 0.000218389 -1.29547e-06
0.000218389 0.000173368 -1.51269e-06
-1.29547e-06 -1.51269e-06 -5.21963e-06
0.000764196 0.000203014 2.09971e-06
0.000203014 3.87602e-05 5.25677e-06
2.09971e-06 5.25677e-06 -8.11641e-05
0.00119107 0.000282797 1.7196e-06
0.000282797 0.00015329 -3.79273e-07
1.7196e-06 -3.79273e-07 -8.64345e-06
0.00236753 0.00043149 2.56707e-06
0.00043149 0.00059888 6.7395e-06
2.56707e-06 6.7395e-06 0.000434377
0.00167114 0.000408387 -9.91252e-07
0.000408387 0.000121101 -6.30571e-07
-9.91252e-07 -6.30571e-07 -5.536e-05
0.00151714 0.000372775 3.88504e-06
0.000372775 4.64226e-05 6.79904e-06
3.88504e-06 6.79904e-06 -6.8987e-05
0.00109543 0.000405091 -1.96687e-06
0.000405091 -0.000181632 -2.92211e-06
-1.96687e-06 -2.92211e-06 -0.000345556
0.000562136 0.000320253 8.46975e-07
0.000320253 -0.000325348 3.50869e-06
8.46975e-07 3.50869e-06 -0.000477559
0.000842348 0.000266758 1.90481e-05
0.000266758 -0.000373265 2.17044e-05
1.90481e-05 2.17044e-05 -0.000361841
0.005024 0.000578809 -3.82237e-05
0.000578809 0.000247635 -7.16469e-06
-3.82237e-05 -7.16469e-06 0.000132838
0.00194983 0.00015942 0.000195046
0.00015942 -0.00134976 2.04726e-05
0.000195046 2.04726e-05 -0.00281962
0.0010935 0.000669618 8.4234e-06
0.000669618 -0.000879396 -9.81034e-06
8.4234e-06 -9.81034e-06 -0.00121985
0.00220193 0.000555188 -2.5285e-05
0.000555188 0.000226206 -2.09919e-06
-2.5285e-05 -2.09919e-06 0.000197525
0.00176981 0.000526853 -4.60253e-05
0.000526853 0.000132343 -2.11679e-05
-4.60253e-05 -2.11679e-05 -2.08219e-05
0.00232133 -0.000159092 1.05652e-05
-0.000159092 0.000149466 1.95867e-06
1.05652e-05 1.95867e-06 9.98088e-05
0.00127171 -1.0327e-05 -5.86297e-06
-1.0327e-05 -0.000297505 4.21169e-06
-5.86297e-06 4.21169e-06 -0.000483054
0.000695896 0.000545686 7.76072e-05
0.000545686 -0.00252605 -2.70981e-05
7.76072e-05 -2.70981e-05 -0.00317642
0.000391655 -0.00018972 -1.04577e-05
-0.00018972 -0.000604957 2.35598e-05
-1.04577e-05 2.35598e-05 -0.0006504
0.0030658 -8.76778e-05 -1.99385e-05
-8.76778e-05 -0.000122771 3.21157e-05
-1.99385e-05 3.21157e-05 -0.000432678
0.00187663 -0.000207815 -9.61555e-06
-0.000207815 -6.24771e-05 3.3042e-06
-9.61555e-06 3.3042e-06 -2.26167e-05
0.0027245 -9.8854e-05 -6.6631e-06
-9.8854e-05 0.000410244 -2.78694e-06
-6.6631e-06 -2.78694e-06 0.000363883
0.00152395 -0.000120711 2.4801e-05
-0.000120711 -0.000258638 -5.46878e-07
2.4801e-05 -5.46878e-07 -0.000197203
0.00301036 -5.69368e-05 2.3354e-05
-5.69368e-05 0.000836938 1.90798e-06
2.3354e-05 1.90798e-06 0.000793746
0.00142853 -0.000290852 -1.23e-05
-0.000290852 -0.000305272 5.6825e-06
-1.23e-05 5.6825e-06 -0.000287039
0.00174999 -0.000197789 1.34362e-06
-0.000197789 -0.000162677 1.90143e-06
1.34362e-06 1.90143e-06 -0.000109289
0.00189321 -0.000203706 1.34267e-06
-0.000203706 -4.61339e-06 8.24499e-07
1.34267e-06 8.24499e-07 1.58394e-05
0.00178103 -0.000269234 2.46742e-06
-0.000269234 -4.59047e-05 1.2693e-06
2.46742e-06 1.2693e-06 -0.000101025
0.0018239 -0.00022051 4.64022e-07
-0.00022051 2.34093e-05 9.73889e-08
4.64022e-07 9.73889e-08 -1.86045e-05
0.00187325 -0.000206558 1.81244e-07
-0.000206558 0.000100235 1.05264e-06
1.81244e-07 1.05264e-06 3.96947e-05
0.00194148 -0.000253775 7.80025e-07
-0.000253775 0.000133566 1.0595e-06
7.80025e-07 1.0595e-06 5.19299e-05
0.00187457 -0.000222124 -8.338e-07
-0.000222124 0.000139504 5.42067e-08
-8.338e-07 5.42067e-08 5.89255e-05
0.00167451 -0.000197881 1.63167e-06
-0.000197881 6.98927e-05 -6.18437e-08
1.63167e-06 -6.18437e-08 -2.65278e-05
0.00163353 -0.000226493 -1.48045e-06
-0.000226493 4.43201e-05 1.951e-06
-1.48045e-06 1.951e-06 -5.28563e-05
0.00168117 -0.000220241 5.16596e-07
-0.000220241 0.000100496 -6.89914e-07
5.16596e-07 -6.89914e-07 -9.50333e-06
0.00164889 -0.000204148 2.10919e-06
-0.000204148 0.000113253 -1.87481e-06
2.10919e-06 -1.87481e-06 -1.96696e-05
0.0018698 -0.000227729 -4.94047e-06
-0.000227729 0.000226791 5.04807e-06
-4.94047e-06 5.04807e-06 0.000106669
0.00177351 -0.000216128 -9.29516e-07
-0.000216128 0.000213765 9.63748e-08
-9.29516e-07 9.63748e-08 6.99587e-05
0.00153614 -0.000188456 -2.18737e-06
-0.000188456 0.000140823 -3.91372e-07
-2.18737e-06 -3.91372e-07 -1.51258e-05
0.00173425 -0.000239486 2.77715e-06
-0.000239486 0.000214836 1.3201e-06
2.77715e-06 1.3201e-06 4.79306e-05
0.00157406 -0.000215249 9.88366e-07
-0.000215249 0.000182183 -6.30589e-07
9.88366e-07 -6.30589e-07 1.51691e-05
0.0012756 -0.000177772 -7.32427e-06
-0.000177772 8.38981e-05 2.1487e-06
-7.32427e-06 2.1487e-06 -7.28781e-05
0.001003 -0.000159149 -1.0943e-05
-0.000159149 3.64666e-05 5.21652e-06
-1.0943e-05 5.21652e-06 -0.00010208
0.00112035 -0.00019285 -2.12004e-06
-0.00019285 2.16814e-05 4.27144e-07
-2.12004e-06 4.27144e-07 -0.000145936
0.00163333 -0.000251903 3.74967e-06
-0.000251903 0.000250073 -6.1687e-07
3.74967e-06 -6.1687e-07 6.43574e-05
0.000538104 -0.000147557 -1.90917e-05
-0.000147557 -8.96876e-05 1.26122e-05
-1.90917e-05 1.26122e-05 -0.000168495
0.000909787 -0.000158911 7.1573e-07
-0.000158911 3.58589e-05 5.17457e-07
7.1573e-07 5.17457e-07 -0.000109623
0.00119762 -0.000211123 6.62761e-06
-0.000211123 0.000120363 -1.6972e-06
6.62761e-06 -1.6972e-06 -5.91617e-05
0.00442052 0.000176137 -0.00011171
0.000176137 0.00224432 5.36765e-06
-0.00011171 5.36765e-06 0.00222628
0.000606561 -0.000109251 3.99468e-07
-0.000109251 -3.27928e-05 -2.99102e-08
3.99468e-07 -2.99102e-08 -0.000103977
0.000902092 -0.000155186 7.12002e-06
-0.000155186 9.64211e-05 -5.49829e-06
7.12002e-06 -5.49829e-06 -4.80618e-05
0.00403543 0.000138122 5.52543e-06
0.000138122 0.0020103 6.025e-07
5.52543e-06 6.025e-07 0.00200257
0.000728755 -6.37616e-05 1.22453e-05
-6.37616e-05 5.03453e-05 -1.04483e-05
1.22453e-05 -1.04483e-05 -9.13548e-06
0.00360316 0.000107046 0.00010763
0.000107046 0.00175404 -4.79779e-06
0.00010763 -4.79779e-06 0.00175437
0.0011932 0.000237745 -5.7477e-06
0.000237745 9.97449e-05 -1.16445e-06
-5.7477e-06 -1.16445e-06 -9.82552e-05
0.00115242 0.000219593 9.74495e-08
0.000219593 0.000207935 -1.05639e-06
9.74495e-08 -1.05639e-06 2.22473e-05
0.00110137 0.000189673 -1.84523e-06
0.000189673 0.000219168 -3.23973e-06
-1.84523e-06 -3.23973e-06 5.00429e-05
0.00158928 0.000236175 -1.18262e-06
0.000236175 0.00053583 1.16066e-06
-1.18262e-06 1.16066e-06 0.000369437
0.0008463 0.00012958 -1.05655e-06
0.00012958 0.000114534 -1.56353e-06
-1.05655e-06 -1.56353e-06 -2.46897e-05
0.000853168 9.41314e-05 -3.71049e-06
9.41314e-05 0.000138933 -3.57755e-06
-3.71049e-06 -3.57755e-06 2.41427e-05
0.000614406 6.49688e-05 3.80741e-07
6.49688e-05 1.072e-06 3.2737e-07
3.80741e-07 3.2737e-07 -0.000116713
0.000663217 1.07519e-05 -5.4443e-07
1.07519e-05 2.92349e-05 -8.76893e-08
-5.4443e-07 -8.76893e-08 -6.28449e-05
0.000582994 -3.6375e-05 -3.13069e-06
-3.6375e-05 -9.02003e-06 -7.46408e-06
-3.13069e-06 -7.46408e-06 -4.92339e-05
0.000590043 -2.6564e-05 1.24742e-06
-2.6564e-05 -1.29755e-05 3.75285e-06
1.24742e-06 3.75285e-06 -9.22155e-05
0.000536567 -5.35181e-05 3.93226e-07
-5.35181e-05 -3.58892e-05 -1.57071e-07
3.93226e-07 -1.57071e-07 -7.14696e-05
0.00286706 -0.000119976 -6.06753e-05
-0.000119976 0.00132838 -2.14583e-06
-6.06753e-05 -2.14583e-06 0.00132821
0.000524868 -4.86264e-05 1.35039e-06
-4.86264e-05 -5.10829e-05 6.1318e-06
1.35039e-06 6.1318e-06 -8.16066e-05
0.00272855 -0.000111185 -2.21687e-06
-0.000111185 0.00124153 2.68534e-07
-2.21687e-06 2.68534e-07 0.00124329
0.00266732 -9.89645e-05 4.06688e-05
-9.89645e-05 0.00119831 3.49647e-06
4.06688e-05 3.49647e-06 0.00120266
0.000424542 3.36498e-05 8.57286e-06
3.36498e-05 -0.000707641 8.39722e-06
8.57286e-06 8.39722e-06 -0.000693088
0.00418827 1.99074e-05 4.27916e-05
1.99074e-05 0.000286512 7.76563e-06
4.27916e-05 7.76563e-06 0.000120235
0.00953651 0.000489695 -8.27785e-05
0.000489695 0.00285051 -4.4096e-05
-8.27785e-05 -4.4096e-05 0.00171173
0.000362552 0.000189869 1.4752e-06
0.000189869 -0.000411592 2.35925e-06
1.4752e-06 2.35925e-06 -0.000591749
0.00168587 0.000296342 1.3807e-06
0.000296342 0.000229937 2.94674e-06
1.3807e-06 2.94674e-06 4.07506e-05
0.00100152 0.000248167 -3.75153e-06
0.000248167 -4.11619e-05 9.78144e-07
-3.75153e-06 9.78144e-07 -0.000250271
0.00109224 0.000221585 6.77691e-07
0.000221585 0.000267994 1.46324e-06
6.77691e-07 1.46324e-06 9.89772e-05
0.000924314 0.00022558 -1.26958e-06
0.00022558 6.80023e-05 2.45796e-07
-1.26958e-06 2.45796e-07 -0.000123989
0.00127968 0.00027855 6.81881e-06
0.00027855 0.000204521 1.15864e-06
6.81881e-06 1.15864e-06 2.93778e-05
0.00226578 0.000417687 -7.67174e-06
0.000417687 0.000452807 -3.67856e-06
-7.67174e-06 -3.67856e-06 0.000272588
0.00204579 0.000353715 -1.57412e-06
0.000353715 0.000621584 1.61579e-06
-1.57412e-06 1.61579e-06 0.000451036
0.00138403 0.000358241 1.05893e-05
0.000358241 6.02446e-05 1.85463e-05
1.05893e-05 1.85463e-05 -9.6819e-05
0.00204739 0.000430439 -2.21303e-06
0.000430439 0.000330426 9.26611e-07
-2.21303e-06 9.26611e-07 0.000154733
0.00204779 0.000395333 -1.37199e-05
0.000395333 0.000233553 9.31037e-07
-1.37199e-05 9.31037e-07 8.36104e-05
0.000741635 0.000180685 1.22873e-05
0.000180685 -0.000441095 5.27742e-06
1.22873e-05 5.27742e-06 -0.000494889
0.00122196 0.000348995 8.81738e-06
0.000348995 -0.000102346 5.2173e-07
8.81738e-06 5.2173e-07 -0.000218315
0.0011366 0.000402531 -6.34169e-06
0.000402531 -0.000169417 -6.58495e-06
-6.34169e-06 -6.58495e-06 -0.000334007
0.00151091 0.000270125 4.61038e-07
0.000270125 -3.38709e-05 4.49564e-06
4.61038e-07 4.49564e-06 -3.81131e-05
0.00496978 0.000365392 2.99047e-05
0.000365392 0.000145301 -1.28238e-05
2.99047e-05 -1.28238e-05 -8.40411e-05
0.0022041 0.00048476 1.16864e-05
0.00048476 0.000455103 -2.08014e-05
1.16864e-05 -2.08014e-05 0.000424742
0.00136346 -3.77069e-05 2.29127e-05
-3.77069e-05 -5.07895e-05 2.97068e-06
2.29127e-05 2.97068e-06 -7.29781e-05
0.00208104 -9.19441e-05 -1.88532e-05
-9.19441e-05 7.85232e-05 -8.19686e-07
-1.88532e-05 -8.19686e-07 2.21907e-05
0.00118894 0.000151223 2.56697e-05
0.000151223 -0.000737997 -9.36571e-06
2.56697e-05 -9.36571e-06 -0.000988803
0.000597832 -0.00016855 -2.59205e-05
-0.00016855 -0.000706778 1.8741e-05
-2.59205e-05 1.8741e-05 -0.000649995
0.00290745 -0.000152267 -8.65605e-05
-0.000152267 0.000475217 1.07025e-06
-8.65605e-05 1.07025e-06 0.000438696
0.00178637 -0.000150307 1.83791e-06
-0.000150307 -9.74563e-05 -1.37454e-06
1.83791e-06 -1.37454e-06 -3.4555e-05
0.00230908 -6.15868e-05 -7.31508e-06
-6.15868e-05 0.000392394 3.00105e-07
-7.31508e-06 3.00105e-07 0.000348182
0.00195316 -0.000164318 2.44245e-06
-0.000164318 7.91928e-06 1.00799e-06
2.44245e-06 1.00799e-06 7.93532e-06
0.00221551 -2.79545e-05 4.16214e-06
-2.79545e-05 0.000210814 9.59965e-07
4.16214e-06 9.59965e-07 0.000175088
0.00181297 -0.000210164 -4.61584e-06
-0.000210164 -0.000147447 1.42129e-06
-4.61584e-06 1.42129e-06 -0.000101519
0.00188844 -0.000198986 -1.80674e-06
-0.000198986 -4.03638e-07 -7.53934e-08
-1.80674e-06 -7.53934e-08 1.50124e-05
0.00197079 -0.000170323 -1.8864e-06
-0.000170323 7.05702e-05 6.42086e-07
-1.8864e-06 6.42086e-07 3.63978e-05
0.00185162 -0.000230858 -1.70869e-06
-0.000230858 3.32883e-05 -1.03335e-06
-1.70869e-06 -1.03335e-06 -1.35536e-05
0.00179255 -0.000201914 1.01166e-07
-0.000201914 6.0808e-05 -2.89322e-07
1.01166e-07 -2.89322e-07 -3.65193e-06
0.00177909 -0.000177615 3.40849e-07
-0.000177615 7.99157e-05 2.43565e-07
3.40849e-07 2.43565e-07 -2.61956e-06
0.00177585 -0.000225698 -3.01259e-06
-0.000225698 8.42484e-05 -4.48617e-07
-3.01259e-06 -4.48617e-07 1.52695e-06
0.00170849 -0.000198815 2.83137e-07
-0.000198815 8.94467e-05 -1.4394e-07
2.83137e-07 -1.4394e-07 -6.98865e-06
0.00169184 -0.000184262 2.05988e-06
-0.000184262 0.000100776 -7.42669e-07
2.05988e-06 -7.42669e-07 -2.00948e-05
0.0016959 -0.000220889 -2.3651e-06
-0.000220889 0.000112184 5.52304e-07
-2.3651e-06 5.52304e-07 2.01346e-06
0.00167462 -0.000204447 -8.51269e-08
-0.000204447 0.000128847 -3.72414e-07
-8.51269e-08 -3.72414e-07 -3.89469e-06
0.0015295 -0.000174933 -1.18153e-06
-0.000174933 0.000116631 -3.4293e-07
-1.18153e-06 -3.4293e-07 -3.25948e-05
0.00181977 -0.000217035 -1.53333e-06
-0.000217035 0.000237524 3.02748e-06
-1.53333e-06 3.02748e-06 9.65484e-05
0.00153746 -0.00018912 -5.14287e-07
-0.00018912 0.000140782 -1.24381e-07
-5.14287e-07 -1.24381e-07 -1.44089e-05
0.00127783 -0.000158227 -6.70809e-06
-0.000158227 7.07316e-05 2.00887e-06
-6.70809e-06 2.00887e-06 -8.05785e-05
0.00150558 -0.000212538 4.85808e-06
-0.000212538 0.000142317 -4.4094e-07
4.85808e-06 -4.4094e-07 -2.57235e-05
0.0012081 -0.000174679 -3.49372e-08
-0.000174679 4.53742e-05 -4.97004e-08
-3.49372e-08 -4.97004e-08 -0.000111806
0.00101303 -0.000143359 -1.18228e-05
-0.000143359 2.00975e-05 5.26069e-06
-1.18228e-05 5.26069e-06 -0.000110543
0.000481854 -0.000151238 -1.94581e-05
-0.000151238 -0.000136418 1.21734e-05
-1.94581e-05 1.21734e-05 -0.000219136
0.000965591 -0.000156336 2.09775e-07
-0.000156336 1.62858e-05 5.57712e-08
2.09775e-07 5.57712e-08 -0.000122056
0.00125012 -0.000200334 5.31158e-06
-0.000200334 9.72745e-05 -1.50035e-06
5.31158e-06 -1.50035e-06 -7.06564e-05
0.00492018 0.000173337 -0.000126787
0.000173337 0.00253381 7.47759e-06
-0.000126787 7.47759e-06 0.00251324
0.00059963 -0.000137696 -1.46199e-06
-0.000137696 -5.66653e-05 4.64661e-07
-1.46199e-06 4.64661e-07 -0.000136028
0.000881286 -0.000160082 9.1171e-06
-0.000160082 2.29184e-05 -4.84984e-06
9.1171e-06 -4.84984e-06 -0.000123042
0.00460455 0.000158137 1.05437e-05
0.000158137 0.00234733 1.18271e-06
1.05437e-05 1.18271e-06 0.00233141
0.000758781 -0.000112824 1.68699e-05
-0.000112824 4.88486e-05 -1.20683e-05
1.68699e-05 -1.20683e-05 -2.32426e-05
0.00419816 0.000118029 0.000127423
0.000118029 0.00209919 -6.36692e-06
0.000127423 -6.36692e-06 0.00209444
0.00144762 0.00024838 -5.6347e-06
0.00024838 0.000177389 1.47817e-06
-5.6347e-06 1.47817e-06 -1.40486e-05
0.00103347 0.000224362 -1.15283e-06
0.000224362 8.60049e-06 2.17074e-06
-1.15283e-06 2.17074e-06 -0.00018878
0.00100619 0.000193916 -5.58119e-06
0.000193916 7.18244e-05 -1.19792e-06
-5.58119e-06 -1.19792e-06 -0.000107655
0.00108195 0.00021359 -5.25873e-07
0.00021359 0.000173433 1.62683e-06
-5.25873e-07 1.62683e-06 -1.13854e-05
0.00102476 0.000182196 -9.70604e-07
0.000182196 0.000178914 -3.92215e-07
-9.70604e-07 -3.92215e-07 1.08507e-05
0.000947538 0.000139121 -5.29341e-06
0.000139121 0.0001726 -4.93012e-06
-5.29341e-06 -4.93012e-06 3.84914e-05
0.000914149 0.000135819 2.06584e-07
0.000135819 0.000153223 -3.14073e-09
2.06584e-07 -3.14073e-09 1.40077e-05
0.000741777 7.24751e-05 -3.20303e-07
7.24751e-05 7.67149e-05 -8.02599e-08
-3.20303e-07 -8.02599e-08 -3.54243e-05
0.000660022 4.98727e-06 -7.46592e-06
4.98727e-06 2.87994e-05 -8.6241e-06
-7.46592e-06 -8.6241e-06 -1.99395e-05
0.000614045 -1.78422e-05 1.1492e-06
-1.78422e-05 7.84444e-07 3.59709e-06
1.1492e-06 3.59709e-06 -8.85598e-05
0.000525751 -4.45731e-05 -3.23861e-08
-4.45731e-05 -3.98946e-05 -2.42895e-07
-3.23861e-08 -2.42895e-07 -8.05766e-05
0.00311276 -0.000124758 -7.87073e-05
-0.000124758 0.00147567 -2.04897e-06
-7.87073e-05 -2.04897e-06 0.00147385
0.000501985 -5.4815e-05 9.73244e-07
-5.4815e-05 -5.56485e-05 6.70824e-06
9.73244e-07 6.70824e-06 -9.11017e-05
0.00282819 -0.000122958 -2.09635e-06
-0.000122958 0.00130625 2.6337e-07
-2.09635e-06 2.6337e-07 0.00130515
0.00271983 -0.000110833 4.60761e-05
-0.000110833 0.00123614 2.98682e-06
4.60761e-05 2.98682e-06 0.00123785
0.000840047 4.85966e-05 1.13083e-05
4.85966e-05 -0.000393008 -1.8384e-06
1.13083e-05 -1.8384e-06 -0.000394921
0.00181308 -4.57719e-07 -6.90524e-06
-4.57719e-07 -0.000132211 1.10527e-06
-6.90524e-06 1.10527e-06 -0.000122073
0.0039919 2.28504e-06 0.000119427
2.28504e-06 1.83493e-05 6.33324e-06
0.000119427 6.33324e-06 8.19934e-05
0.00180135 0.000334259 -2.25448e-06
0.000334259 0.00021242 1.53704e-06
-2.25448e-06 1.53704e-06 3.82481e-05
0.000757949 0.00023749 7.69013e-07
0.00023749 -0.000194581 -1.11736e-06
7.69013e-07 -1.11736e-06 -0.000378106
0.00188972 0.000298475 -1.42659e-06
0.000298475 0.000246049 3.55055e-06
-1.42659e-06 3.55055e-06 8.04392e-05
0.00174817 0.000299921 1.28686e-06
0.000299921 0.000268121 5.59248e-07
1.28686e-06 5.59248e-07 7.83999e-05
0.000753584 0.000236346 -1.76146e-06
0.000236346 -0.00018624 4.54598e-06
-1.76146e-06 4.54598e-06 -0.000392389
0.00185607 0.000327381 -5.93423e-06
0.000327381 0.000123573 1.55164e-06
-5.93423e-06 1.55164e-06 -2.69931e-05
0.00181121 0.000327121 -1.27938e-06
0.000327121 0.000485971 -1.96856e-07
-1.27938e-06 -1.96856e-07 0.000300849
0.00215442 0.000406181 -1.17232e-07
0.000406181 0.00039541 -1.39534e-06
-1.17232e-07 -1.39534e-06 0.000214294
0.00178064 0.000229033 -1.10954e-05
0.000229033 9.97445e-06 -9.56487e-08
-1.10954e-05 -9.56487e-08 -9.1363e-05
0.00242802 0.000453722 5.73862e-06
0.000453722 0.000543142 4.12321e-06
5.73862e-06 4.12321e-06 0.000367917
0.00198963 0.000393724 -1.26983e-06
0.000393724 0.000198205 4.79233e-07
-1.26983e-06 4.79233e-07 4.62333e-05
0.0009296 0.000196575 1.89552e-06
0.000196575 -0.000310254 2.3574e-06
1.89552e-06 2.3574e-06 -0.000370116
0.00011037 0.00027856 1.22254e-06
0.00027856 -0.000671597 -2.16051e-06
1.22254e-06 -2.16051e-06 -0.000785579
0.00151375 0.000267003 -3.50803e-05
0.000267003 -4.0919e-05 -1.55033e-05
-3.50803e-05 -1.55033e-05 -5.66741e-05
0.00175687 3.30046e-05 1.54094e-06
3.30046e-05 -4.93493e-05 6.74396e-07
1.54094e-06 6.74396e-07 -9.315e-05
0.0020587 -2.17203e-05 6.95391e-07
-2.17203e-05 0.000357858 2.25489e-06
6.95391e-07 2.25489e-06 0.000339613
0.00138422 -9.68054e-06 -5.931e-05
-9.68054e-06 -0.000231545 -8.90876e-06
-5.931e-05 -8.90876e-06 -0.000332193
0.00203737 -0.000177478 -2.4224e-05
-0.000177478 5.44307e-05 6.46e-07
-2.4224e-05 6.46e-07 0.000117421
0.00125892 -6.88671e-05 -8.22036e-06
-6.88671e-05 -0.00024688 -4.60095e-07
-8.22036e-06 -4.60095e-07 -0.000290434
0.0019148 -0.000156567 1.924e-07
-0.000156567 -8.47055e-06 -3.89454e-07
1.924e-07 -3.89454e-07 -5.30902e-06
0.00198598 -2.77814e-05 -2.64351e-06
-2.77814e-05 5.87112e-05 7.48041e-07
-2.64351e-06 7.48041e-07 2.81188e-05
0.00197079 -5.97476e-05 -5.82614e-06
-5.97476e-05 4.39985e-05 -7.61607e-07
-5.82614e-06 -7.61607e-07 1.41038e-05
0.00187792 -0.000193636 -2.99955e-06
-0.000193636 3.28424e-06 -1.17694e-06
-2.99955e-06 -1.17694e-06 1.27449e-05
0.00189986 -0.00016367 5.6285e-07
-0.00016367 3.94811e-05 -1.58533e-07
5.6285e-07 -1.58533e-07 2.96013e-06
0.00199713 -0.000130493 -4.82225e-07
-0.000130493 0.00013366 -4.55459e-07
-4.82225e-07 -4.55459e-07 7.64893e-05
0.00171019 -0.00019771 -8.25307e-07
-0.00019771 2.01062e-05 -1.03099e-06
-8.25307e-07 -1.03099e-06 -4.83777e-05
0.00172576 -0.000174694 5.83873e-08
-0.000174694 5.26349e-05 -5.63445e-08
5.83873e-08 -5.63445e-08 -3.09166e-05
0.00174212 -0.000149708 1.5347e-06
-0.000149708 9.19962e-05 -3.59706e-07
1.5347e-06 -3.59706e-07 -1.78397e-05
0.00174623 -0.00019984 -1.10962e-06
-0.00019984 0.000110698 -1.78537e-07
-1.10962e-06 -1.78537e-07 1.42545e-05
0.00172124 -0.000183979 4.47914e-08
-0.000183979 0.000118982 -1.30143e-07
4.47914e-08 -1.30143e-07 -1.72277e-06
0.00158973 -0.000157061 -2.77128e-07
-0.000157061 0.000119415 -3.78162e-07
-2.77128e-07 -3.78162e-07 -2.173e-05
0.00170111 -0.000204837 -1.83495e-06
-0.000204837 0.000144752 1.01441e-06
-1.83495e-06 1.01441e-06 1.21824e-05
0.00154263 -0.000175158 -1.77226e-07
-0.000175158 0.000122704 -2.29821e-08
-1.77226e-07 -2.29821e-08 -2.6193e-05
0.0013063 -0.000141612 -5.69943e-06
-0.000141612 7.31475e-05 1.67769e-06
-5.69943e-06 1.67769e-06 -7.45148e-05
0.00153908 -0.000189716 1.79679e-06
-0.000189716 0.000140803 3.99918e-07
1.79679e-06 3.99918e-07 -1.36111e-05
0.00130141 -0.000158861 -1.69762e-07
-0.000158861 8.37096e-05 6.62319e-08
-1.69762e-07 6.62319e-08 -6.74041e-05
0.00104102 -0.00012752 -1.24867e-05
-0.00012752 2.2879e-05 5.12346e-06
-1.24867e-05 5.12346e-06 -0.000103983
0.00114438 -0.00017179 6.61384e-06
-0.00017179 9.04206e-06 -1.89817e-06
6.61384e-06 -1.89817e-06 -0.000148562
0.00101051 -0.000141878 1.765e-07
-0.000141878 1.82243e-05 -3.98517e-08
1.765e-07 -3.98517e-08 -0.000112187
0.00232603 -8.40554e-05 -2.20509e-05
-8.40554e-05 0.000928885 7.50579e-06
-2.20509e-05 7.50579e-06 0.000857811
0.00156896 -3.14606e-05 -0.00015542
-3.14606e-05 0.000550864 1.56904e-05
-0.00015542 1.56904e-05 0.000532325
0.00150419 -0.000122078 -2.5814e-06
-0.000122078 0.000455236 -1.97387e-07
-2.5814e-06 -1.97387e-07 0.000375887
0.000939205 -0.00015439 1.07054e-05
-0.00015439 2.33926e-06 -4.94221e-06
1.07054e-05 -4.94221e-06 -0.000135915
0.00507964 0.000131097 3.2806e-06
0.000131097 0.0026177 1.54377e-07
3.2806e-06 1.54377e-07 0.00260264
0.000680156 -0.000157843 2.00251e-05
-0.000157843 -1.12031e-05 -1.2445e-05
2.00251e-05 -1.2445e-05 -9.38044e-05
0.00476127 0.000118392 0.000147892
0.000118392 0.00243046 -9.48122e-06
0.000147892 -9.48122e-06 0.0024195
0.00186127 0.000242843 4.14185e-07
0.000242843 0.000200975 9.65614e-07
4.14185e-07 9.65614e-07 5.21886e-05
0.00152149 0.000244622 -3.23921e-07
0.000244622 0.000150011 2.77764e-06
-3.23921e-07 2.77764e-06 -2.39771e-05
0.00153617 0.000257321 -3.9789e-07
0.000257321 0.000227208 -2.51632e-07
-3.9789e-07 -2.51632e-07 3.59945e-05
0.00118931 0.000206245 -7.08222e-06
0.000206245 8.43182e-05 -1.13177e-06
-7.08222e-06 -1.13177e-06 -8.93346e-05
0.000880908 0.000211594 2.30168e-06
0.000211594 -7.79872e-05 2.57787e-06
2.30168e-06 2.57787e-06 -0.000274876
0.00111133 0.000201544 -1.07178e-06
0.000201544 0.000134081 1.02247e-06
-1.07178e-06 1.02247e-06 -4.69115e-05
0.000914778 0.000156141 -7.69504e-06
0.000156141 9.29662e-05 -4.44326e-06
-7.69504e-06 -4.44326e-06 -5.26035e-05
0.00095686 0.000175282 1.44241e-06
0.000175282 0.000143703 3.29558e-06
1.44241e-06 3.29558e-06 -2.33887e-05
0.000801398 0.00012344 -1.70271e-08
0.00012344 8.99846e-05 -2.88349e-07
-1.70271e-08 -2.88349e-07 -4.13408e-05
0.000785585 7.45711e-05 -1.25503e-05
7.45711e-05 8.8904e-05 -1.09367e-05
-1.25503e-05 -1.09367e-05 2.51234e-05
0.000654448 5.09216e-05 1.88757e-06
5.09216e-05 2.47703e-05 2.8313e-06
1.88757e-06 2.8313e-06 -8.26035e-05
0.000539906 -6.81354e-06 -6.22128e-07
-6.81354e-06 -3.78531e-05 -3.82608e-07
-6.22128e-07 -3.82608e-07 -8.52677e-05
0.0034899 -0.000121392 -0.000103158
-0.000121392 0.00169852 -3.408e-06
-0.000103158 -3.408e-06 0.00169508
0.000461849 -5.30525e-05 7.30326e-07
-5.30525e-05 -7.34578e-05 7.51722e-06
7.30326e-07 7.51722e-06 -0.000115195
0.0030248 -0.000135152 -2.79752e-06
-0.000135152 0.00142658 3.03537e-07
-2.79752e-06 3.03537e-07 0.00142214
0.00279969 -0.000123344 5.141e-05
-0.000123344 0.00128967 2.41186e-06
5.141e-05 2.41186e-06 0.00128837
0.00176967 0.000126461 -3.65435e-06
0.000126461 -4.34885e-05 5.28144e-07
-3.65435e-06 5.28144e-07 -0.000109424
0.00189756 4.11345e-05 1.21307e-05
4.11345e-05 0.000160112 1.32212e-06
1.21307e-05 1.32212e-06 0.000151484
0.00383182 -2.64283e-05 -7.17931e-05
-2.64283e-05 0.000763779 -1.53272e-05
-7.17931e-05 -1.53272e-05 0.000764146
0.00170314 0.000281495 -3.8856e-06
0.000281495 5.55502e-05 1.24566e-06
-3.8856e-06 1.24566e-06 -8.94864e-05
0.00169374 0.000323632 -1.08159e-06
0.000323632 0.000169885 -1.26439e-07
-1.08159e-06 -1.26439e-07 -4.29176e-06
0.00117402 0.00028629 -1.70197e-05
0.00028629 3.50989e-05 -6.5707e-06
-1.70197e-05 -6.5707e-06 -0.000151812
0.00191063 0.000289041 2.33184e-06
0.000289041 0.00026074 6.58479e-07
2.33184e-06 6.58479e-07 9.67295e-05
0.0018154 0.0003034 3.07462e-08
0.0003034 0.000310094 -3.07531e-06
3.07462e-08 -3.07531e-06 0.000119882
0.00215143 0.000226223 -3.01816e-06
0.000226223 0.000235201 1.31581e-06
-3.01816e-06 1.31581e-06 0.000136831
0.00171791 0.000322119 -1.43705e-06
0.000322119 5.43057e-05 8.31025e-07
-1.43705e-06 8.31025e-07 -9.77533e-05
0.00205584 0.000395882 3.13436e-06
0.000395882 0.000343554 -8.93475e-08
3.13436e-06 -8.93475e-08 0.000161341
0.00182246 0.000231595 -9.02237e-07
0.000231595 3.75708e-05 1.0384e-07
-9.02237e-07 1.0384e-07 -6.42552e-05
0.00208634 0.000401655 1.83221e-05
0.000401655 0.000235319 1.83225e-06
1.83221e-05 1.83225e-06 8.07162e-05
0.00147733 0.000217775 -1.80863e-05
0.000217775 -2.16246e-07 -3.0403e-06
-1.80863e-05 -3.0403e-06 -6.56812e-05
0.00198438 4.08547e-05 -5.77208e-06
4.08547e-05 8.04792e-05 -1.93829e-07
-5.77208e-06 -1.93829e-07 3.31801e-05
0.00185771 4.29951e-05 -1.96462e-06
4.29951e-05 9.81798e-06 1.51519e-07
-1.96462e-06 1.51519e-07 -3.5454e-05
0.00289448 -5.54721e-06 -3.86482e-05
-5.54721e-06 0.000850514 -5.84274e-06
-3.86482e-05 -5.84274e-06 0.000828613
0.00185207 -0.000147769 -7.78505e-06
-0.000147769 -4.41262e-05 -1.47525e-06
-7.78505e-06 -1.47525e-06 -3.76723e-05
0.001913 -2.74047e-05 3.27395e-06
-2.74047e-05 -3.58543e-06 -1.04388e-06
3.27395e-06 -1.04388e-06 -3.09392e-05
0.00195872 -6.40339e-05 5.06406e-08
-6.40339e-05 2.26252e-05 1.73405e-07
5.06406e-08 1.73405e-07 -1.54139e-06
0.00195272 -4.58692e-05 -1.52352e-06
-4.58692e-05 0.000118632 -9.91872e-08
-1.52352e-06 -9.91872e-08 6.10139e-05
0.00183281 -0.000156549 2.81145e-06
-0.000156549 1.17176e-05 -9.92365e-07
2.81145e-06 -9.92365e-07 -2.73169e-05
0.00187216 -0.000130019 5.53143e-07
-0.000130019 6.92488e-05 -1.15532e-07
5.53143e-07 -1.15532e-07 6.54446e-06
0.00181237 -0.000107841 3.31757e-06
-0.000107841 0.000106963 -1.25965e-06
3.31757e-06 -1.25965e-06 6.41e-06
0.00167355 -0.000171887 -2.39761e-07
-0.000171887 2.61949e-05 4.24342e-08
-2.39761e-07 4.24342e-08 -5.84522e-05
0.00177151 -0.00015033 -3.14381e-08
-0.00015033 0.00010812 -8.82135e-08
-3.14381e-08 -8.82135e-08 -1.63917e-06
0.00166207 -0.00013265 5.27646e-09
-0.00013265 0.000121809 -4.10051e-07
5.27646e-09 -4.10051e-07 -1.0978e-05
0.00175023 -0.000183576 -1.58966e-06
-0.000183576 0.000137095 4.4586e-07
-1.58966e-06 4.4586e-07 1.65746e-05
0.00159223 -0.000156728 -2.27315e-07
-0.000156728 0.000119845 5.8163e-08
-2.27315e-07 5.8163e-08 -2.1063e-05
0.00134397 -0.000122506 -5.0055e-06
-0.000122506 7.82779e-05 1.33149e-06
-5.0055e-06 1.33149e-06 -6.60302e-05
0.00155436 -0.000175341 8.30856e-07
-0.000175341 0.000128119 2.97615e-07
8.30856e-07 2.97615e-07 -2.04497e-05
0.00132564 -0.0001421 -1.19861e-07
-0.0001421 8.24199e-05 8.13754e-08
-1.19861e-07 8.13754e-08 -6.50283e-05
0.00104763 -0.000112146 -1.24604e-05
-0.000112146 1.61005e-05 4.40688e-06
-1.24604e-05 4.40688e-06 -0.000109238
0.00132543 -0.000159564 6.16418e-06
-0.000159564 9.68901e-05 -1.7953e-06
6.16418e-06 -1.7953e-06 -5.40378e-05
0.00103362 -0.000125365 2.24399e-07
-0.000125365 1.77804e-05 9.47617e-08
2.24399e-07 9.47617e-08 -0.000108591
0.00237209 -9.46219e-05 -2.91695e-05
-9.46219e-05 0.000941724 6.60258e-06
-2.91695e-05 6.60258e-06 0.000878187
0.000998384 -0.000140087 1.1808e-05
-0.000140087 1.10479e-05 -5.26364e-06
1.1808e-05 -5.26364e-06 -0.00011914
0.00248677 -0.000131877 3.41867e-05
-0.000131877 0.00101402 -3.86274e-06
3.41867e-05 -3.86274e-06 0.000949618
0.00168523 -7.22254e-05 -0.000161789
-7.22254e-05 0.00062507 1.95229e-05
-0.000161789 1.95229e-05 0.00060586
0.00338454 1.31529e-05 -0.000160426
1.31529e-05 0.00162699 7.49219e-06
-0.000160426 7.49219e-06 0.00160933
0.00258477 -0.000177941 9.94081e-05
-0.000177941 0.00107489 -1.2814e-05
9.94081e-05 -1.2814e-05 0.00101218
0.00522745 0.000125169 0.000152848
0.000125169 0.00271606 -1.44973e-05
0.000152848 -1.44973e-05 0.00269363
0.00196442 0.000240577 -1.9097e-06
0.000240577 0.000224307 -2.04151e-07
-1.9097e-06 -2.04151e-07 8.69972e-05
0.00157747 0.000213494 2.18124e-06
0.000213494 0.000140616 1.31736e-06
2.18124e-06 1.31736e-06 -1.66609e-05
0.00181785 0.000243288 3.73539e-07
0.000243288 0.000173727 -9.01847e-07
3.73539e-07 -9.01847e-07 2.80751e-05
0.00134615 0.00020219 -6.90963e-06
0.00020219 0.000126849 -8.36707e-07
-6.90963e-06 -8.36707e-07 -3.63909e-05
0.0015534 0.000244373 4.87057e-07
0.000244373 0.000163168 3.71364e-07
4.87057e-07 3.71364e-07 -1.1532e-05
0.00161624 0.000265744 4.55471e-06
0.000265744 0.000272588 -9.71406e-07
4.55471e-06 -9.71406e-07 8.16531e-05
0.00118431 0.000206666 -6.88349e-08
0.000206666 8.18395e-05 5.12787e-08
-6.88349e-08 5.12787e-08 -9.19171e-05
0.000879331 0.0001554 -1.02139e-05
0.0001554 -4.50382e-06 -4.12358e-06
-1.02139e-05 -4.12358e-06 -0.000148218
0.00122439 0.000209764 4.00891e-06
0.000209764 0.000200893 3.35038e-06
4.00891e-06 3.35038e-06 1.82869e-05
0.000860393 0.000148521 -8.14397e-07
0.000148521 6.09179e-05 4.80104e-07
-8.14397e-07 4.80104e-07 -8.34431e-05
0.000756469 0.000136893 -1.88345e-05
0.000136893 5.28283e-05 -1.1922e-05
-1.88345e-05 -1.1922e-05 -2.47268e-05
0.000646636 0.000106265 3.12272e-06
0.000106265 2.97797e-06 3.66196e-06
3.12272e-06 3.66196e-06 -0.000125555
0.000572699 4.98514e-05 -1.88016e-07
4.98514e-05 -2.85654e-05 -3.34591e-07
-1.88016e-07 -3.34591e-07 -8.91505e-05
0.0041319 -0.000111578 -0.000133243
-0.000111578 0.00207683 -7.2451e-06
-0.000133243 -7.2451e-06 0.0020688
0.000415272 -3.09185e-05 2.44526e-06
-3.09185e-05 -0.000103084 8.45818e-06
2.44526e-06 8.45818e-06 -0.000151448
0.00338355 -0.000146406 -4.99323e-06
-0.000146406 0.00164105 3.9239e-07
-4.99323e-06 3.9239e-07 0.0016328
0.00296374 -0.000137839 5.80916e-05
-0.000137839 0.00139159 1.90439e-06
5.80916e-05 1.90439e-06 0.00138647
0.00183952 0.000131723 -3.6769e-06
0.000131723 1.28536e-05 9.77869e-07
-3.6769e-06 9.77869e-07 -5.80692e-05
0.0018298 0.000125152 6.76834e-07
0.000125152 -5.97596e-06 -4.13515e-07
6.76834e-07 -4.13515e-07 -7.13408e-05
0.00255065 3.57253e-05 -4.78418e-05
3.57253e-05 0.000506036 -7.12161e-06
-4.78418e-05 -7.12161e-06 0.000498307
0.0019875 0.000201013 4.88069e-07
0.000201013 0.00016788 1.38637e-06
4.88069e-07 1.38637e-06 5.93505e-05
0.00170571 0.000276482 -6.47337e-07
0.000276482 6.80683e-05 1.86095e-07
-6.47337e-07 1.86095e-07 -7.63716e-05
0.00159187 0.000313676 -3.90522e-07
0.000313676 0.000129418 -3.84726e-06
-3.90522e-07 -3.84726e-06 -4.49083e-05
0.00191619 0.000278307 4.85975e-07
0.000278307 0.000266756 -2.67742e-06
4.85975e-07 -2.67742e-06 0.000104567
0.00195992 0.000216503 -6.78732e-07
0.000216503 0.000125709 -2.42887e-07
-6.78732e-07 -2.42887e-07 2.65867e-05
0.00159129 0.000317074 2.29873e-06
0.000317074 -7.73951e-06 -4.18855e-07
2.29873e-06 -4.18855e-07 -0.00016121
0.00181035 0.000229465 1.27608e-05
0.000229465 5.03038e-05 1.51318e-08
1.27608e-05 1.51318e-08 -5.12045e-05
0.0019248 2.98174e-05 -3.62283e-07
2.98174e-05 8.97267e-05 5.87531e-07
-3.62283e-07 5.87531e-07 2.78935e-05
0.0019359 4.00898e-05 1.43569e-07
4.00898e-05 5.63085e-05 4.47557e-08
1.43569e-07 4.47557e-08 8.10581e-06
0.00202032 5.33895e-05 -5.84288e-06
5.33895e-05 0.000100609 -2.0149e-06
-5.84288e-06 -2.0149e-06 5.57334e-05
0.00159614 -1.56352e-05 -1.47039e-06
-1.56352e-05 -4.91485e-05 1.22204e-07
-1.47039e-06 1.22204e-07 -0.000122272
0.00194927 -7.10984e-05 5.27935e-06
-7.10984e-05 2.81872e-06 1.81724e-08
5.27935e-06 1.81724e-08 -1.53807e-05
0.00187584 -4.74095e-05 -1.12107e-06
-4.74095e-05 7.01595e-05 5.73909e-07
-1.12107e-06 5.73909e-07 1.2169e-05
0.00201701 -5.43258e-05 4.69257e-07
-5.43258e-05 0.000223003 -8.06929e-07
4.69257e-07 -8.06929e-07 0.000134192
0.00173791 -0.000129359 1.66248e-06
-0.000129359 -1.08072e-06 -3.85575e-08
1.66248e-06 -3.85575e-08 -6.90751e-05
0.00181551 -0.000107802 2.03431e-06
-0.000107802 0.000107738 -6.10029e-07
2.03431e-06 -6.10029e-07 7.3937e-06
0.00170651 -9.66214e-05 7.3934e-07
-9.66214e-05 0.000114463 -9.22601e-07
7.3934e-07 -9.22601e-07 -1.0236e-05
0.00180609 -0.000150498 -1.36312e-06
-0.000150498 0.000127336 2.13099e-07
-1.36312e-06 2.13099e-07 1.77311e-05
0.00165463 -0.000130747 -1.61434e-07
-0.000130747 0.00011957 -5.88607e-08
-1.61434e-07 -5.88607e-08 -1.29155e-05
0.00137861 -9.90138e-05 -4.43974e-06
-9.90138e-05 7.70921e-05 9.68648e-07
-4.43974e-06 9.68648e-07 -6.31245e-05
0.00159582 -0.000156353 3.6036e-07
-0.000156353 0.000120922 3.93956e-07
3.6036e-07 3.93956e-07 -1.97329e-05
0.00134819 -0.000122323 -1.34412e-07
-0.000122323 7.81455e-05 9.92904e-08
-1.34412e-07 9.92904e-08 -6.59152e-05
0.00105322 -9.51224e-05 -1.21646e-05
-9.51224e-05 9.77781e-06 3.64667e-06
-1.21646e-05 3.64667e-06 -0.000114627
0.00134575 -0.000142571 5.4167e-06
-0.000142571 9.20626e-05 -1.48972e-06
5.4167e-06 -1.48972e-06 -5.51599e-05
0.00104673 -0.000109654 9.92434e-08
-0.000109654 1.45062e-05 1.62475e-07
9.92434e-08 1.62475e-07 -0.000110167
0.00241895 -0.000108439 -3.66176e-05
-0.000108439 0.000960553 6.14469e-06
-3.66176e-05 6.14469e-06 0.00089958
0.00102121 -0.000123011 1.23875e-05
-0.000123011 9.73714e-06 -4.93971e-06
1.23875e-05 -4.93971e-06 -0.000116102
0.00247951 -0.000129096 3.08384e-05
-0.000129096 0.00100055 -3.36304e-06
3.08384e-05 -3.36304e-06 0.000940978
0.00172465 -6.32338e-05 -0.000157627
-6.32338e-05 0.000644798 1.76157e-05
-0.000157627 1.76157e-05 0.000626033
0.00262042 -0.000153091 9.97753e-05
-0.000153091 0.00108688 -1.48043e-05
9.97753e-05 -1.48043e-05 0.00102673
0.00149007 -5.77842e-06 -7.5386e-05
-5.77842e-06 0.000521693 7.27724e-06
-7.5386e-05 7.27724e-06 0.000492827
0.00507179 0.000239167 9.0305e-06
0.000239167 0.00263174 -3.38604e-06
9.0305e-06 -3.38604e-06 0.00259278
0.00177942 0.00019077 1.11236e-06
0.00019077 0.000102997 8.69176e-07
1.11236e-06 8.69176e-07 -2.51586e-05
0.00175944 0.000208046 -4.74655e-07
0.000208046 0.000200632 -2.63363e-07
-4.74655e-07 -2.63363e-07 5.40822e-05
0.00184862 0.000236306 -2.83357e-06
0.000236306 0.000156006 4.38126e-08
-2.83357e-06 4.38126e-08 1.72142e-05
0.00172314 0.000197621 -4.27046e-06
0.000197621 0.000324025 -5.70008e-07
-4.27046e-06 -5.70008e-07 0.000172187
0.00151886 0.000215818 8.70852e-07
0.000215818 0.00010334 -9.05051e-07
8.70852e-07 -9.05051e-07 -5.31473e-05
0.00178457 0.000244285 -8.76752e-07
0.000244285 0.000152135 -2.86827e-06
-8.76752e-07 -2.86827e-06 9.60404e-06
0.00094428 0.000151695 -1.19633e-05
0.000151695 -1.57503e-05 -4.29576e-06
-1.19633e-05 -4.29576e-06 -0.000151513
0.00125781 0.000196811 5.25639e-08
0.000196811 7.61964e-05 2.33993e-07
5.25639e-08 2.33993e-07 -8.64722e-05
0.00160716 0.000246007 3.05712e-06
0.000246007 0.000187921 -1.05658e-06
3.05712e-06 -1.05658e-06 1.21885e-05
0.00117455 0.000206926 7.00243e-06
0.000206926 7.64557e-05 1.14666e-06
7.00243e-06 1.14666e-06 -9.74027e-05
0.000925778 0.000157701 -7.38575e-07
0.000157701 2.09751e-05 2.911e-07
-7.38575e-07 2.911e-07 -0.000122912
0.000639363 0.000177868 -2.22904e-05
0.000177868 -3.17109e-05 -1.18177e-05
-2.22904e-05 -1.18177e-05 -0.000117529
0.000796704 0.000140526 6.00306e-06
0.000140526 2.37031e-05 5.53279e-06
6.00306e-06 5.53279e-06 -0.000119336
0.000608172 0.0001266 -1.35493e-07
0.0001266 -2.49149e-05 2.86252e-07
-1.35493e-07 2.86252e-07 -0.000102169
0.00492518 -0.000108848 -0.000152342
-0.000108848 0.00254966 -1.31831e-05
-0.000152342 -1.31831e-05 0.00252933
0.000413624 3.65188e-05 8.07559e-06
3.65188e-05 -0.000117116 9.98516e-06
8.07559e-06 9.98516e-06 -0.000174451
0.00394045 -0.000158505 -9.27251e-06
-0.000158505 0.00197365 7.29526e-07
-9.27251e-06 7.29526e-07 0.00195906
0.00325739 -0.000155889 6.8397e-05
-0.000155889 0.00156934 1.63159e-06
6.8397e-05 1.63159e-06 0.00155895
0.00177975 0.000108153 -1.37678e-07
0.000108153 1.5431e-05 1.56626e-06
-1.37678e-07 1.56626e-06 -6.54727e-05
0.00179145 0.000132946 -4.05401e-07
0.000132946 -1.78019e-05 2.14733e-07
-4.05401e-07 2.14733e-07 -8.88566e-05
0.00189067 0.00012868 4.50383e-06
0.00012868 2.47092e-05 -3.95556e-07
4.50383e-06 -3.95556e-07 -4.13803e-05
0.00193682 0.0001972 9.19609e-07
0.0001972 0.000142328 -1.08198e-07
9.19609e-07 -1.08198e-07 3.56184e-05
0.0017022 0.000271016 4.20658e-07
0.000271016 7.74655e-05 -1.46483e-06
4.20658e-07 -1.46483e-06 -6.63475e-05
0.00174479 0.000206357 3.17528e-06
0.000206357 2.65753e-06 -1.3179e-06
3.17528e-06 -1.3179e-06 -9.7311e-05
0.0019003 3.0176e-05 -1.65515e-07
3.0176e-05 0.000126297 3.097e-07
-1.65515e-07 3.097e-07 5.10887e-05
0.0019026 3.03443e-05 9.95678e-07
3.03443e-05 7.90032e-05 -2.39591e-07
9.95678e-07 -2.39591e-07 1.69506e-05
0.00185759 3.97853e-05 5.65305e-06
3.97853e-05 1.86392e-05 2.66006e-07
5.65305e-06 2.66006e-07 -3.04949e-05
0.00172135 -2.23448e-05 -1.96584e-06
-2.23448e-05 2.42502e-05 3.95568e-08
-1.96584e-06 3.95568e-08 -4.81793e-05
0.0017024 -2.85918e-05 6.93028e-07
-2.85918e-05 5.40336e-05 -5.83484e-07
6.93028e-07 -5.83484e-07 -3.7352e-05
0.00180534 -4.87753e-05 6.97248e-07
-4.87753e-05 2.58441e-05 1.05178e-06
6.97248e-07 1.05178e-06 -3.26536e-05
0.00185274 -5.36039e-05 -9.15182e-07
-5.36039e-05 0.000129358 4.24392e-07
-9.15182e-07 4.24392e-07 3.6733e-05
0.00175658 -5.20086e-05 1.48543e-07
-5.20086e-05 0.000130192 -6.86257e-07
1.48543e-07 -6.86257e-07 1.56553e-05
0.00181042 -0.000108112 9.93138e-07
-0.000108112 0.000104197 6.67174e-08
9.93138e-07 6.67174e-08 3.98857e-06
0.00168561 -9.7667e-05 7.8588e-07
-9.7667e-05 0.000105805 -4.48352e-07
7.8588e-07 -4.48352e-07 -1.89935e-05
0.0014097 -6.71785e-05 -4.3537e-06
-6.71785e-05 7.07118e-05 4.32702e-07
-4.3537e-06 4.32702e-07 -6.47472e-05
0.00163433 -0.000130266 -6.9351e-08
-0.000130266 0.000109779 2.15891e-07
-6.9351e-08 2.15891e-07 -2.26153e-05
0.00137441 -9.84385e-05 -2.80011e-08
-9.84385e-05 7.07541e-05 9.81011e-08
-2.80011e-08 9.81011e-08 -6.92997e-05
0.00105157 -7.42685e-05 -1.19483e-05
-7.42685e-05 -2.15396e-06 2.98084e-06
-1.19483e-05 2.98084e-06 -0.000125046
0.00135078 -0.000122027 4.58705e-06
-0.000122027 7.70627e-05 -1.10985e-06
4.58705e-06 -1.10985e-06 -6.6743e-05
0.00105169 -9.23929e-05 -3.14877e-08
-9.23929e-05 8.12707e-06 1.52716e-07
-3.14877e-08 1.52716e-07 -0.000115652
0.00240857 -0.000124469 -4.01779e-05
-0.000124469 0.000951237 5.62235e-06
-4.01779e-05 5.62235e-06 0.000888465
0.00104315 -0.000107138 1.24121e-05
-0.000107138 1.12767e-05 -4.16799e-06
1.24121e-05 -4.16799e-06 -0.00011271
0.00248235 -0.00011993 2.97809e-05
-0.00011993 0.000994388 -2.58729e-06
2.97809e-05 -2.58729e-06 0.000936487
0.00176566 -5.48131e-05 -0.000157771
-5.48131e-05 0.000662701 1.52052e-05
-0.000157771 1.52052e-05 0.000644183
0.00258458 -0.000133269 9.86597e-05
-0.000133269 0.00105714 -1.30314e-05
9.86597e-05 -1.30314e-05 0.00100163
0.00149197 -2.09657e-05 -6.82978e-05
-2.09657e-05 0.00051555 6.77487e-06
-6.82978e-05 6.77487e-06 0.000490398
0.00135585 8.99637e-06 2.378e-05
8.99637e-06 0.000446042 -4.38484e-06
2.378e-05 -4.38484e-06 0.000412816
0.00190096 0.000113531 4.24587e-07
0.000113531 0.000146709 2.06245e-06
4.24587e-07 2.06245e-06 4.5641e-05
0.00168324 0.000171135 -1.0652e-06
0.000171135 0.000122986 4.23957e-07
-1.0652e-06 4.23957e-07 -1.63177e-05
0.00179702 0.000191494 -8.50515e-07
0.000191494 0.000107316 -9.14682e-08
-8.50515e-07 -9.14682e-08 -1.80902e-05
0.00166643 0.000173757 -3.99205e-06
0.000173757 0.000257033 -6.08117e-07
-3.99205e-06 -6.08117e-07 0.00011204
0.00172182 0.000204342 8.71149e-07
0.000204342 0.000182724 1.8251e-07
8.71149e-07 1.8251e-07 3.54317e-05
0.00172654 0.000231871 9.7879e-07
0.000231871 8.48805e-05 -3.18151e-07
9.7879e-07 -3.18151e-07 -5.54409e-05
0.00103562 0.000141205 -1.26841e-05
0.000141205 1.55682e-05 -4.36915e-06
-1.26841e-05 -4.36915e-06 -0.000113467
0.00145017 0.000187407 3.29821e-06
0.000187407 0.000165176 7.85978e-07
3.29821e-06 7.85978e-07 1.24465e-05
0.00145794 0.000217975 1.80546e-06
0.000217975 6.49878e-05 -2.02359e-06
1.80546e-06 -2.02359e-06 -9.06634e-05
0.000571775 0.000164651 -2.19414e-05
0.000164651 -8.62359e-05 -1.04724e-05
-2.19414e-05 -1.04724e-05 -0.000168845
0.000981767 0.000154187 -5.23939e-07
0.000154187 5.50716e-06 1.82692e-08
-5.23939e-07 1.82692e-08 -0.000130413
0.00117154 0.00019141 7.51658e-06
0.00019141 2.71845e-05 1.55739e-06
7.51658e-06 1.55739e-06 -0.000134891
0.000979459 0.000160673 1.00681e-05
0.000160673 5.07906e-05 4.95162e-06
1.00681e-05 4.95162e-06 -9.34308e-05
0.000593415 0.00016591 1.72682e-06
0.00016591 -5.66477e-05 4.56682e-07
1.72682e-06 4.56682e-07 -0.000141516
0.00540194 -8.53324e-05 -0.000156603
-8.53324e-05 0.00283017 -1.75936e-05
-0.000156603 -1.75936e-05 0.0028025
0.000453303 0.000114857 1.42958e-05
0.000114857 -0.000112275 1.18167e-05
1.42958e-05 1.18167e-05 -0.000185693
0.00465001 -0.000147325 -9.57091e-06
-0.000147325 0.00238903 6.46377e-07
-9.57091e-06 6.46377e-07 0.00237001
0.0037301 -0.000177882 8.49713e-05
-0.000177882 0.00185439 2.31939e-06
8.49713e-05 2.31939e-06 0.00183667
0.00176391 7.9161e-05 -2.89316e-07
7.9161e-05 5.0458e-05 3.80404e-07
-2.89316e-07 3.80404e-07 -3.2002e-05
0.00178241 0.000107445 7.34654e-07
0.000107445 2.22127e-05 5.84982e-07
7.34654e-07 5.84982e-07 -5.87746e-05
0.00177777 0.000134354 5.2603e-06
0.000134354 -3.00785e-05 -1.95194e-07
5.2603e-06 -1.95194e-07 -0.000101104
0.0018891 0.000193207 6.74609e-07
0.000193207 0.000117902 -1.20963e-06
6.74609e-07 -1.20963e-06 1.30913e-05
0.00174407 -7.42182e-06 1.6225e-06
-7.42182e-06 7.46497e-05 9.74264e-08
1.6225e-06 9.74264e-08 -1.90973e-05
0.00192404 2.46433e-05 -2.92906e-07
2.46433e-05 0.000137002 -2.64303e-07
-2.92906e-07 -2.64303e-07 6.24407e-05
0.00186016 3.01727e-05 2.25046e-06
3.01727e-05 5.68215e-05 -3.12072e-08
2.25046e-06 -3.12072e-08 -5.39004e-06
0.00184327 -2.67789e-05 -3.77626e-06
-2.67789e-05 9.55327e-05 -1.05663e-06
-3.77626e-06 -1.05663e-06 2.38391e-05
0.001666 -2.1193e-05 -1.51913e-06
-2.1193e-05 3.30807e-05 -3.13955e-08
-1.51913e-06 -3.13955e-08 -5.70433e-05
0.00177177 -2.04919e-05 1.96794e-06
-2.04919e-05 0.000154281 -5.45191e-07
1.96794e-06 -5.45191e-07 4.34299e-05
0.00169005 -5.28801e-05 -2.12671e-06
-5.28801e-05 3.59218e-05 1.56327e-06
-2.12671e-06 1.56327e-06 -6.05213e-05
0.00170852 -5.29723e-05 1.34643e-07
-5.29723e-05 0.000105921 2.90726e-07
1.34643e-07 2.90726e-07 -1.16165e-05
0.00144484 -3.5056e-05 -3.90387e-06
-3.5056e-05 7.07313e-05 1.41825e-07
-3.90387e-06 1.41825e-07 -5.8008e-05
0.00168002 -9.73835e-05 9.332e-07
-9.73835e-05 0.000105723 -1.24603e-08
9.332e-07 -1.24603e-08 -1.89721e-05
0.00140079 -6.53765e-05 1.24876e-08
-6.53765e-05 6.1744e-05 -5.26089e-08
1.24876e-08 -5.26089e-08 -7.34373e-05
0.00105086 -4.94973e-05 -1.19754e-05
-4.94973e-05 -1.22191e-05 2.24203e-06
-1.19754e-05 2.24203e-06 -0.000133356
0.00136775 -9.5815e-05 4.10691e-06
-9.5815e-05 6.30814e-05 -7.6107e-07
4.10691e-06 -7.6107e-07 -7.66014e-05
0.00105223 -7.31611e-05 1.43067e-08
-7.31611e-05 -2.02776e-06 2.00439e-07
1.43067e-08 2.00439e-07 -0.000124656
0.000629728 -6.80765e-05 -1.83359e-05
-6.80765e-05 -9.64166e-05 4.39368e-06
-1.83359e-05 4.39368e-06 -0.000166066
0.00105894 -9.00026e-05 1.20451e-05
-9.00026e-05 1.12614e-05 -3.38411e-06
1.20451e-05 -3.38411e-06 -0.000111878
0.0015649 -7.81962e-05 4.00457e-05
-7.81962e-05 0.000452965 -2.48663e-06
4.00457e-05 -2.48663e-06 0.00039135
0.00528209 -0.000108862 -0.000194869
-0.000108862 0.00270533 1.14802e-05
-0.000194869 1.14802e-05 0.00270714
0.00256654 -0.000109121 9.82631e-05
-0.000109121 0.00103639 -1.06181e-05
9.82631e-05 -1.06181e-05 0.000983599
0.00150683 -3.67194e-05 -6.15538e-05
-3.67194e-05 0.000519001 5.00018e-06
-6.15538e-05 5.00018e-06 0.000494525
0.00127169 -3.87061e-05 3.44944e-05
-3.87061e-05 0.000395049 -4.76855e-06
3.44944e-05 -4.76855e-06 0.000363393
0.00190399 8.21416e-05 1.05496e-06
8.21416e-05 0.000163437 1.2893e-06
1.05496e-06 1.2893e-06 7.02182e-05
0.00178261 0.000115823 3.63676e-07
0.000115823 0.000161723 1.57914e-06
3.63676e-07 1.57914e-06 3.80201e-05
0.00192985 0.00011093 3.76347e-07
0.00011093 0.000169652 6.07736e-09
3.76347e-07 6.07736e-09 6.76636e-05
0.00136271 0.00013446 -4.74487e-06
0.00013446 4.58782e-05 -5.75973e-07
-4.74487e-06 -5.75973e-07 -9.51186e-05
0.0017263 0.000170095 1.43534e-07
0.000170095 0.000147145 -7.28609e-09
1.43534e-07 -7.28609e-09 8.90892e-06
0.00181697 0.000192603 -7.27799e-07
0.000192603 0.000112283 -9.26641e-07
-7.27799e-07 -9.26641e-07 -1.04454e-05
0.000672013 0.000104233 -1.44578e-05
0.000104233 -0.000210439 -4.33001e-06
-1.44578e-05 -4.33001e-06 -0.000336909
0.00168773 0.00017582 1.97479e-06
0.00017582 0.00026941 5.57288e-07
1.97479e-06 5.57288e-07 0.000124304
0.00168222 0.000200644 1.58755e-06
0.000200644 0.000163677 -1.7335e-07
1.58755e-06 -1.7335e-07 1.56064e-05
0.000550549 0.000123823 -1.8976e-05
0.000123823 -0.000110823 -8.52919e-06
-1.8976e-05 -8.52919e-06 -0.000187745
0.000817966 0.000131094 5.3355e-07
0.000131094 -0.000110217 1.45919e-07
5.3355e-07 1.45919e-07 -0.00024008
0.00117127 0.000176838 9.33782e-06
0.000176838 2.56356e-06 1.70772e-06
9.33782e-06 1.70772e-06 -0.000151
0.00547912 -4.56109e-07 -0.000168994
-4.56109e-07 0.0028453 -1.62096e-05
-0.000168994 -1.62096e-05 0.00283295
0.000554599 0.000151452 1.45564e-06
0.000151452 -9.43981e-05 5.34806e-07
1.45564e-06 5.34806e-07 -0.000178176
0.00101241 0.0001565 1.20901e-05
0.0001565 2.28892e-05 4.4033e-06
1.20901e-05 4.4033e-06 -0.000113197
0.000496276 0.000153796 1.93528e-05
0.000153796 -0.000108648 1.20596e-05
1.93528e-05 1.20596e-05 -0.000193713
0.00520985 -8.59336e-05 4.77309e-06
-8.59336e-05 0.00270484 -1.03545e-06
4.77309e-06 -1.03545e-06 0.0026874
0.00436345 -0.000202271 0.000101864
-0.000202271 0.00223684 5.5582e-06
0.000101864 5.5582e-06 0.00220861
0.00180253 5.09871e-05 -8.61891e-07
5.09871e-05 0.000101001 -4.88658e-07
-8.61891e-07 -4.88658e-07 7.05176e-06
0.0017912 7.84509e-05 -1.66637e-07
7.84509e-05 6.27364e-05 4.82414e-07
-1.66637e-07 4.82414e-07 -1.96349e-05
0.00178633 0.000106913 1.76228e-06
0.000106913 3.00155e-05 -3.50174e-07
1.76228e-06 -3.50174e-07 -5.10866e-05
0.00166411 1.84323e-06 2.07366e-06
1.84323e-06 8.3219e-05 -4.25687e-07
2.07366e-06 -4.25687e-07 -2.89864e-05
0.00171652 -5.50307e-06 2.65345e-07
-5.50307e-06 6.3417e-05 1.34103e-07
2.65345e-07 1.34103e-07 -2.90312e-05
0.00195422 1.77271e-05 -1.22296e-06
1.77271e-05 0.000151628 2.38598e-08
-1.22296e-06 2.38598e-08 7.76522e-05
0.00162319 -1.50265e-05 -2.6281e-06
-1.50265e-05 8.31272e-06 7.49207e-07
-2.6281e-06 7.49207e-07 -8.05613e-05
0.0017513 -1.56811e-05 1.09199e-06
-1.56811e-05 0.000141381 -2.60705e-07
1.09199e-06 -2.60705e-07 3.06807e-05
0.00173045 -1.28133e-05 -1.65129e-06
-1.28133e-05 0.00023277 -2.32913e-07
-1.65129e-06 -2.32913e-07 0.000110125
0.00165958 -5.40042e-05 -2.29734e-07
-5.40042e-05 8.15873e-05 9.10267e-07
-2.29734e-07 9.10267e-07 -3.89598e-05
0.00156964 -3.52733e-05 1.11904e-08
-3.52733e-05 0.000142391 7.18115e-08
1.11904e-08 7.18115e-08 1.35613e-05
0.000778507 -2.26075e-05 -1.37429e-05
-2.26075e-05 -0.000175845 1.61499e-06
-1.37429e-05 1.61499e-06 -0.000297358
0.00139763 -6.58015e-05 4.0621e-06
-6.58015e-05 5.60241e-05 -5.45401e-07
4.0621e-06 -5.45401e-07 -7.90804e-05
0.00104501 -4.6345e-05 6.68968e-09
-4.6345e-05 -1.60537e-05 1.2635e-07
6.68968e-09 1.2635e-07 -0.000136822
0.000635139 -2.03572e-05 -1.77176e-05
-2.03572e-05 -9.92969e-05 2.87995e-06
-1.77176e-05 2.87995e-06 -0.000168757
0.00105357 -7.10368e-05 1.19697e-05
-7.10368e-05 -1.60337e-06 -2.57762e-06
1.19697e-05 -2.57762e-06 -0.00012385
0.000640441 -5.29773e-05 -1.80624e-07
-5.29773e-05 -8.92432e-05 3.18127e-07
-1.80624e-07 3.18127e-07 -0.000159852
0.00533134 -3.27843e-06 -0.000186212
-3.27843e-06 0.00272984 7.15108e-06
-0.000186212 7.15108e-06 0.0027336
0.000673383 -6.13083e-05 1.62212e-05
-6.13083e-05 -6.70804e-05 -6.23866e-06
1.62212e-05 -6.23866e-06 -0.000138325
0.00335911 -7.15415e-05 8.99673e-05
-7.15415e-05 0.00159284 -2.65284e-06
8.99673e-05 -2.65284e-06 0.00157628
0.0012117 -6.30501e-05 3.99066e-05
-6.30501e-05 0.000362131 -5.25508e-06
3.99066e-05 -5.25508e-06 0.000327558
0.00181207 7.59026e-05 6.82291e-08
7.59026e-05 0.000130733 1.78285e-07
6.82291e-08 1.78285e-07 3.19574e-05
0.00164099 6.74865e-05 1.65343e-06
6.74865e-05 7.90706e-05 1.78363e-06
1.65343e-06 1.78363e-06 -3.75394e-05
0.00189301 7.94208e-05 -2.32042e-07
7.94208e-05 0.000157418 -2.46645e-07
-2.32042e-07 -2.46645e-07 6.46437e-05
0.00142347 9.58313e-05 -3.6467e-06
9.58313e-05 6.73037e-05 -1.0985e-07
-3.6467e-06 -1.0985e-07 -6.75294e-05
0.00173433 0.000114168 4.94071e-07
0.000114168 0.000130983 1.53851e-07
4.94071e-07 1.53851e-07 6.01733e-06
0.00196149 0.000108167 -9.73348e-07
0.000108167 0.000194308 -1.84654e-06
-9.73348e-07 -1.84654e-06 9.1427e-05
0.000682535 8.3392e-05 -1.39504e-05
8.3392e-05 -0.000219517 -3.25809e-06
-1.39504e-05 -3.25809e-06 -0.000343484
0.00154732 0.00013962 -7.26929e-07
0.00013962 0.00015489 1.22619e-08
-7.26929e-07 1.22619e-08 1.44047e-05
0.00177242 0.000169054 1.17006e-06
0.000169054 0.000173223 -6.0575e-07
1.17006e-06 -6.0575e-07 3.60763e-05
0.000568708 8.85025e-05 -1.7472e-05
8.85025e-05 -0.000116303 -6.53801e-06
-1.7472e-05 -6.53801e-06 -0.00018832
0.000648959 0.000103903 -2.81592e-06
0.000103903 -0.000223417 -5.8406e-07
-2.81592e-06 -5.8406e-07 -0.000350387
0.00171149 0.00017811 8.0633e-06
0.00017811 0.000283223 1.80808e-06
8.0633e-06 1.80808e-06 0.000137975
0.00541685 8.30667e-05 -0.000186455
8.30667e-05 0.00278882 -1.48759e-05
-0.000186455 -1.48759e-05 0.00278748
0.000549115 0.000116958 5.95096e-07
0.000116958 -0.000111539 3.12638e-07
5.95096e-07 3.12638e-07 -0.000189025
0.000600972 0.000121237 1.25046e-05
0.000121237 -0.000235676 4.16913e-06
1.25046e-05 4.16913e-06 -0.000366405
0.00539208 1.34381e-05 1.21863e-05
1.34381e-05 0.00279337 2.48659e-07
1.21863e-05 2.48659e-07 0.00278326
0.000520338 0.000138069 1.87335e-05
0.000138069 -0.00011221 1.04932e-05
1.87335e-05 1.04932e-05 -0.000197085
0.00501538 -0.000128227 0.000139917
-0.000128227 0.00258977 8.11284e-06
0.000139917 8.11284e-06 0.00257424
0.00177311 3.60479e-05 3.88077e-07
3.60479e-05 0.000137404 -4.03159e-07
3.88077e-07 -4.03159e-07 2.7658e-05
0.00175718 4.88817e-05 -8.82107e-07
4.88817e-05 8.05156e-05 2.09963e-07
-8.82107e-07 2.09963e-07 -1.44501e-05
0.00181801 7.74506e-05 2.29951e-07
7.74506e-05 7.47572e-05 -1.51531e-08
2.29951e-07 -1.51531e-08 -7.51535e-06
0.00169857 -3.65084e-06 -1.1764e-06
-3.65084e-06 0.00022037 -3.60972e-07
-1.1764e-06 -3.60972e-07 0.000100445
0.00169333 8.34299e-08 4.44837e-07
8.34299e-08 9.94596e-05 7.28156e-08
4.44837e-07 7.28156e-08 -1.12083e-05
0.00169966 -1.96911e-06 5.32302e-07
-1.96911e-06 5.79949e-05 -2.58049e-08
5.32302e-07 -2.58049e-08 -3.3136e-05
0.00173159 -1.12257e-05 -1.07988e-08
-1.12257e-05 0.000128948 5.62149e-07
-1.07988e-08 5.62149e-07 1.83747e-05
0.00173076 -1.21638e-05 2.34098e-06
-1.21638e-05 0.000232568 -2.28623e-07
2.34098e-06 -2.28623e-07 0.000109914
0.000786121 -8.36683e-06 -1.30542e-05
-8.36683e-06 -0.000173378 6.22589e-07
-1.30542e-05 6.22589e-07 -0.000292605
0.00169545 -3.55894e-05 4.65305e-06
-3.55894e-05 0.000214599 -1.9769e-07
4.65305e-06 -1.9769e-07 8.56753e-05
0.000912017 -2.15977e-05 -2.47984e-06
-2.15977e-05 -9.89665e-05 2.89707e-07
-2.47984e-06 2.89707e-07 -0.000219379
0.000641705 -5.73738e-06 -1.80202e-05
-5.73738e-06 -0.000101577 1.91279e-06
-1.80202e-05 1.91279e-06 -0.000170376
0.00104637 -4.44987e-05 1.16667e-05
-4.44987e-05 -1.57851e-05 -1.97159e-06
1.16667e-05 -1.97159e-06 -0.000136282
0.000626196 -2.62573e-05 6.11531e-07
-2.62573e-05 -0.000105831 -1.02526e-08
6.11531e-07 -1.02526e-08 -0.000174423
0.00534457 -9.84606e-05 -0.000197253
-9.84606e-05 0.00274264 6.89171e-06
-0.000197253 6.89171e-06 0.00274393
0.000628824 -3.76304e-05 1.69375e-05
-3.76304e-05 -9.68003e-05 -3.44093e-06
1.69375e-05 -3.44093e-06 -0.000166952
0.00532785 -3.80758e-05 8.05988e-06
-3.80758e-05 0.00272864 4.10296e-08
8.05988e-06 4.10296e-08 0.00273232
0.00153042 -1.3614e-05 0.00016421
-1.3614e-05 0.0005255 -8.27133e-06
0.00016421 -8.27133e-06 0.000510722
0.00165606 5.29401e-05 1.51425e-06
5.29401e-05 8.84535e-05 3.68852e-07
1.51425e-06 3.68852e-07 -2.57017e-05
0.00178634 8.0081e-05 -2.3197e-06
8.0081e-05 0.000109258 -3.2832e-07
-2.3197e-06 -3.2832e-07 1.21788e-05
0.00144079 5.64775e-05 -3.04198e-06
5.64775e-05 7.75625e-05 1.62975e-07
-3.04198e-06 1.62975e-07 -5.07065e-05
0.00164344 6.63631e-05 5.0515e-07
6.63631e-05 8.153e-05 1.63905e-08
5.0515e-07 1.63905e-08 -3.50943e-05
0.00187839 7.67833e-05 -1.34611e-06
7.67833e-05 0.000149035 -2.20894e-06
-1.34611e-06 -2.20894e-06 5.67049e-05
0.00106029 6.82499e-05 -1.19054e-05
6.82499e-05 -1.0645e-05 -2.03692e-06
-1.19054e-05 -2.03692e-06 -0.000129093
0.00140328 9.52386e-05 6.95912e-08
9.52386e-05 5.67111e-05 1.34104e-07
6.95912e-08 1.34104e-07 -7.82712e-05
0.00168314 0.000112473 -1.08837e-08
0.000112473 9.8617e-05 -9.76046e-07
-1.08837e-08 -9.76046e-07 -2.76227e-05
0.000595488 6.22869e-05 -1.70182e-05
6.22869e-05 -0.000115549 -4.73149e-06
-1.70182e-05 -4.73149e-06 -0.000185302
0.000847403 9.03668e-05 -3.23422e-06
9.03668e-05 -0.000124153 -4.04455e-07
-3.23422e-06 -4.04455e-07 -0.000247719
0.00173874 0.000144961 5.0818e-06
0.000144961 0.00026779 1.03048e-06
5.0818e-06 1.03048e-06 0.000127815
0.00540117 0.000137531 -0.000205748
0.000137531 0.00277517 -1.43887e-05
-0.000205748 -1.43887e-05 0.00277525
0.000576238 8.63599e-05 8.27975e-08
8.63599e-05 -0.000112261 1.03393e-07
8.27975e-08 1.03393e-07 -0.000184382
0.000622121 0.000103523 8.67691e-06
0.000103523 -0.000238727 3.02809e-06
8.67691e-06 3.02809e-06 -0.000366162
0.00535888 0.000101836 1.03305e-05
0.000101836 0.00276217 1.93044e-06
1.03305e-05 1.93044e-06 0.00275788
0.000553078 0.000108785 1.74882e-05
0.000108785 -0.000109735 8.35733e-06
1.74882e-05 8.35733e-06 -0.000187359
0.00532876 8.97396e-06 0.000176459
8.97396e-06 0.00274491 1.20109e-05
0.000176459 1.20109e-05 0.00274297
0.00170773 2.51158e-05 -1.10646e-06
2.51158e-05 0.000228957 -1.8778e-07
-1.10646e-06 -1.8778e-07 0.000110076
0.0017403 3.15874e-05 -7.04235e-07
3.15874e-05 0.000121382 1.2554e-07
-7.04235e-07 1.2554e-07 1.07039e-05
0.00171516 4.65587e-05 -1.32664e-06
4.65587e-05 6.25728e-05 2.75205e-07
-1.32664e-06 2.75205e-07 -3.33695e-05
0.000763486 -9.35044e-06 -1.34608e-05
-9.35044e-06 -0.000181708 -3.62653e-07
-1.34608e-05 -3.62653e-07 -0.000298434
0.00172063 2.56238e-06 2.56218e-06
2.56238e-06 0.000233052 -8.99885e-08
2.56218e-06 -8.99885e-08 0.000113142
0.00171685 -1.76197e-06 -1.74012e-07
-1.76197e-06 0.000112621 3.30289e-07
-1.74012e-07 3.30289e-07 3.50209e-06
0.00173234 -1.18978e-05 6.1818e-06
-1.18978e-05 0.000233119 -2.44172e-09
6.1818e-06 -2.44172e-09 0.000110453
0.000768667 -8.13557e-06 -1.9131e-06
-8.13557e-06 -0.000184045 1.4082e-07
-1.9131e-06 1.4082e-07 -0.000303553
0.000648689 -2.26644e-05 -1.81661e-05
-2.26644e-05 -9.97647e-05 7.24672e-07
-1.81661e-05 7.24672e-07 -0.000167658
0.00103626 -1.98514e-05 9.51287e-06
-1.98514e-05 -2.73798e-05 -1.23697e-06
9.51287e-06 -1.23697e-06 -0.000146683
0.000626845 3.94283e-06 2.01283e-07
3.94283e-06 -0.000110274 6.73345e-08
2.01283e-07 6.73345e-08 -0.000178787
0.00540998 -7.73625e-05 -0.000205747
-7.73625e-05 0.00277763 4.67378e-06
-0.000205747 4.67378e-06 0.00278069
0.000631069 -2.44845e-05 1.76381e-05
-2.44845e-05 -0.000102354 -2.29306e-06
1.76381e-05 -2.29306e-06 -0.000171578
0.00538386 7.95886e-06 -2.97929e-06
7.95886e-06 0.00275791 1.10941e-06
-2.97929e-06 1.10941e-06 0.00276348
0.00535363 -5.93316e-05 0.000197939
-5.93316e-05 0.00274112 -6.31166e-06
0.000197939 -6.31166e-06 0.00274634
0.0014351 3.63562e-05 -3.02356e-06
3.63562e-05 7.80497e-05 -1.07672e-07
-3.02356e-06 -1.07672e-07 -4.70021e-05
0.00167952 5.58106e-05 -5.61979e-07
5.58106e-05 0.000100893 -8.1039e-07
-5.61979e-07 -8.1039e-07 -1.06132e-05
0.00175974 8.45017e-05 -3.75806e-06
8.45017e-05 8.73738e-05 -3.4027e-07
-3.75806e-06 -3.4027e-07 -8.02467e-06
0.00105899 3.75573e-05 -1.17206e-05
3.75573e-05 -1.30575e-05 -1.45014e-06
-1.17206e-05 -1.45014e-06 -0.000127931
0.00140361 5.65026e-05 2.0735e-07
5.65026e-05 5.51624e-05 5.89042e-08
2.0735e-07 5.89042e-08 -7.34815e-05
0.00164484 6.51711e-05 -8.69424e-07
6.51711e-05 8.36557e-05 -1.67973e-06
-8.69424e-07 -1.67973e-06 -3.29804e-05
0.000618665 3.73375e-05 -1.65725e-05
3.73375e-05 -0.000109899 -3.47771e-06
-1.65725e-05 -3.47771e-06 -0.000178456
0.00105154 6.99581e-05 1.16399e-07
6.99581e-05 -1.53176e-05 2.31935e-07
1.16399e-07 2.31935e-07 -0.000134174
0.00138286 9.46228e-05 4.08662e-06
9.46228e-05 4.59139e-05 4.53295e-07
4.08662e-06 4.53295e-07 -8.92223e-05
0.00538804 0.00014403 -0.000218375
0.00014403 0.00276858 -1.2688e-05
-0.000218375 -1.2688e-05 0.00276815
0.000611686 6.35468e-05 2.7679e-07
6.35468e-05 -0.000105966 1.83853e-07
2.7679e-07 1.83853e-07 -0.000175945
0.00100777 9.72246e-05 8.81879e-06
9.72246e-05 -3.14315e-05 2.61362e-06
8.81879e-06 2.61362e-06 -0.000154553
0.00535675 0.000150797 5.55285e-06
0.000150797 0.00275655 2.1108e-06
5.55285e-06 2.1108e-06 0.00275382
0.000586594 8.48121e-05 1.67329e-05
8.48121e-05 -0.000106289 6.6374e-06
1.67329e-05 6.6374e-06 -0.000178451
0.00533287 0.00012244 0.000194169
0.00012244 0.00274454 1.57051e-05
0.000194169 1.57051e-05 0.00274254
0.00107528 1.13963e-05 -1.23594e-05
1.13963e-05 -6.83645e-07 -7.89334e-07
-1.23594e-05 -7.89334e-07 -0.000113689
0.00155367 2.01272e-05 2.89337e-06
2.01272e-05 0.00014083 8.92701e-08
2.89337e-06 8.92701e-08 2.07789e-05
0.00170367 2.62105e-05 -1.52503e-06
2.62105e-05 0.000102717 2.41174e-07
-1.52503e-06 2.41174e-07 -8.90487e-06
0.000670108 2.67243e-05 -1.86372e-05
2.67243e-05 -9.28075e-05 -5.01732e-07
-1.86372e-05 -5.01732e-07 -0.000154301
0.000749744 -3.91338e-06 -2.14631e-06
-3.91338e-06 -0.000190885 -5.3521e-09
-2.14631e-06 -5.3521e-09 -0.000307855
0.00174364 8.82894e-06 6.36081e-06
8.82894e-06 0.000246246 2.0949e-07
6.36081e-06 2.0949e-07 0.000126342
0.000746273 -7.47776e-06 9.17568e-06
-7.47776e-06 -0.0001976 -3.34615e-07
9.17568e-06 -3.34615e-07 -0.000317379
0.000637154 -2.77459e-06 2.11341e-07
-2.77459e-06 -0.000106506 3.33609e-07
2.11341e-07 3.33609e-07 -0.000174179
0.00542979 4.8735e-05 -0.000213118
4.8735e-05 0.00278537 -8.42251e-07
-0.000213118 -8.42251e-07 0.00279096
0.000609006 1.3453e-05 1.72846e-05
1.3453e-05 -0.000120913 -1.18774e-06
1.72846e-05 -1.18774e-06 -0.000188971
0.00541273 -7.69526e-05 -7.88673e-06
-7.69526e-05 0.00277932 1.35944e-06
-7.88673e-06 1.35944e-06 0.00278208
0.00537511 2.96387e-05 0.000190552
2.96387e-05 0.00275331 -2.74993e-06
0.000190552 -2.74993e-06 0.00275826
0.00106233 1.98608e-05 -1.22013e-05
1.98608e-05 -9.63791e-06 -1.23462e-06
-1.22013e-05 -1.23462e-06 -0.000122663
0.00138746 3.57134e-05 -5.45999e-09
3.57134e-05 4.91131e-05 -9.61272e-08
-5.45999e-09 -9.61272e-08 -7.48018e-05
0.00170698 5.85098e-05 -2.53522e-06
5.85098e-05 0.000115534 -1.43426e-06
-2.53522e-06 -1.43426e-06 6.67923e-06
0.00258491 3.98216e-05 -0.000104681
3.98216e-05 0.00102635 -3.07061e-06
-0.000104681 -3.07061e-06 0.000979179
0.00106169 3.98007e-05 1.7817e-07
3.98007e-05 -1.18686e-05 1.8998e-07
1.7817e-07 1.8998e-07 -0.000126942
0.00136657 5.64132e-05 3.70764e-06
5.64132e-05 3.27717e-05 4.10949e-08
3.70764e-06 4.10949e-08 -9.62504e-05
0.00535881 0.000124963 -0.000221651
0.000124963 0.00275266 -9.78025e-06
-0.000221651 -9.78025e-06 0.00275289
0.000649438 5.04182e-05 6.62722e-07
5.04182e-05 -9.06584e-05 2.9019e-07
6.62722e-07 2.9019e-07 -0.00016035
0.00105317 7.19929e-05 1.18859e-05
7.19929e-05 -1.42688e-05 2.48126e-06
1.18859e-05 2.48126e-06 -0.000133513
0.00540019 0.000156862 1.23854e-06
0.000156862 0.00277905 1.62699e-06
1.23854e-06 1.62699e-06 0.00277718
0.000636571 6.62048e-05 1.71093e-05
6.62048e-05 -9.06793e-05 5.41132e-06
1.71093e-05 5.41132e-06 -0.000161222
0.00532101 0.000172721 0.000204004
0.000172721 0.00274154 1.70491e-05
0.000204004 1.70491e-05 0.00273626
0.000706759 8.179e-06 -1.62886e-05
8.179e-06 -6.1253e-05 -1.77945e-06
-1.62886e-05 -1.77945e-06 -0.000128697
0.000907 9.12001e-06 6.34037e-07
9.12001e-06 -9.73579e-05 2.06763e-07
6.34037e-07 2.06763e-07 -0.000211667
0.00139392 1.49155e-05 6.0486e-06
1.49155e-05 4.94936e-05 2.39056e-07
6.0486e-06 2.39056e-07 -7.17075e-05
0.00532415 -9.241e-05 -0.000197546
-9.241e-05 0.00274024 -1.45473e-07
-0.000197546 -1.45473e-07 0.00273653
0.000634719 7.68139e-06 -3.67658e-07
7.68139e-06 -0.000108234 1.96306e-07
-3.67658e-07 1.96306e-07 -0.000172354
0.000742396 1.20271e-06 9.10188e-06
1.20271e-06 -0.000196422 2.14845e-07
9.10188e-06 2.14845e-07 -0.00031362
0.0006068 1.96686e-05 1.76062e-05
1.96686e-05 -0.000123888 2.0829e-07
1.76062e-05 2.0829e-07 -0.000191246
0.00539692 1.34449e-05 2.74562e-06
1.34449e-05 0.00277004 -4.26498e-07
2.74562e-06 -4.26498e-07 0.00277287
0.00543539 1.38838e-05 0.000201954
1.38838e-05 0.00278428 -9.40096e-07
0.000201954 -9.40096e-07 0.00279093
0.00262991 3.02972e-06 -0.00010225
3.02972e-06 0.00104947 -2.03322e-06
-0.00010225 -2.03322e-06 0.0010033
0.00107599 2.25368e-05 2.02398e-08
2.25368e-05 -2.2854e-06 4.05684e-08
2.02398e-08 4.05684e-08 -0.000115405
0.001337 3.52601e-05 3.44454e-06
3.52601e-05 1.86105e-05 -1.3309e-07
3.44454e-06 -1.3309e-07 -0.000104169
0.00501777 -6.47897e-05 -5.48619e-05
-6.47897e-05 0.00256603 1.12645e-07
-5.48619e-05 1.12645e-07 0.00255125
0.000659994 4.13934e-05 -3.61024e-08
4.13934e-05 -8.65411e-05 2.42662e-07
-3.61024e-08 2.42662e-07 -0.000154841
0.0010776 4.25336e-05 1.1805e-05
4.25336e-05 -3.44373e-06 1.8708e-06
1.1805e-05 1.8708e-06 -0.000118674
0.00539962 9.10172e-05 -1.11712e-05
9.10172e-05 0.0027715 -7.33279e-07
-1.11712e-05 -7.33279e-07 0.00277402
0.000678049 6.96366e-05 1.85639e-05
6.96366e-05 -7.31955e-05 4.50423e-06
1.85639e-05 4.50423e-06 -0.000143613
0.00538659 0.000180022 0.000214506
0.000180022 0.00277826 1.63796e-05
0.000214506 1.63796e-05 0.00277303
0.00165993 -4.28794e-05 -0.00017361
-4.28794e-05 0.000594276 4.90731e-07
-0.00017361 4.90731e-07 0.000581444
0.0016429 2.17039e-05 -4.21248e-05
2.17039e-05 0.000475744 2.04891e-07
-4.21248e-05 2.04891e-07 0.000422469
0.000745786 9.23761e-06 1.20297e-05
9.23761e-06 -0.000190015 9.39815e-07
1.20297e-05 9.39815e-07 -0.000305649
0.00534712 -3.80724e-05 8.23271e-06
-3.80724e-05 0.0027489 5.81069e-07
8.23271e-06 5.81069e-07 0.00274895
0.00063832 -1.04054e-05 1.80416e-05
-1.04054e-05 -0.000102327 9.74519e-07
1.80416e-05 9.74519e-07 -0.000168583
0.00541673 -5.66536e-05 0.000216914
-5.66536e-05 0.00278175 -1.1226e-06
0.000216914 -1.1226e-06 0.00278536
0.00128062 -6.12764e-06 -2.65906e-05
-6.12764e-06 0.000396192 -6.78782e-07
-2.65906e-05 -6.78782e-07 0.000362354
0.0016367 1.09807e-05 -4.24841e-05
1.09807e-05 0.000475961 -3.95954e-07
-4.24841e-05 -3.95954e-07 0.000420013
0.00107707 2.37332e-05 1.19686e-05
2.37332e-05 -1.81022e-06 1.34684e-06
1.19686e-05 1.34684e-06 -0.00011505
0.00332709 3.9853e-05 7.95745e-05
3.9853e-05 0.00157172 1.67746e-06
7.95745e-05 1.67746e-06 0.0015583
0.00067006 4.99262e-05 1.86191e-05
4.99262e-05 -8.04745e-05 3.58662e-06
1.86191e-05 3.58662e-06 -0.000149061
0.00542772 8.53964e-05 0.000205461
8.53964e-05 0.00278421 1.03117e-05
0.000205461 1.03117e-05 0.00278881
0.00527227 -2.49723e-05 -8.85819e-06
-2.49723e-05 0.00270858 -1.22203e-06
-8.85819e-06 -1.22203e-06 0.00270798
0.000646787 3.66623e-05 1.90822e-05
3.66623e-05 -0.000101408 1.79898e-06
1.90822e-05 1.79898e-06 -0.000162708
0.00527349 5.46257e-05 0.000201657
5.46257e-05 0.00270385 -3.34741e-07
0.000201657 -3.34741e-07 0.00270639
0.00328799 2.72732e-05 9.35642e-05
2.72732e-05 0.00155394 2.35919e-06
9.35642e-05 2.35919e-06 0.00153989
0.000676595 5.23334e-06 1.80863e-05
5.23334e-06 -7.79398e-05 2.49269e-06
1.80863e-05 2.49269e-06 -0.000144095
0.00536917 -3.57557e-05 0.000198221
-3.57557e-05 0.0027532 4.85233e-06
0.000198221 4.85233e-06 0.00275641
0.00528597 -0.000131918 0.00019643
-0.000131918 0.00272305 -2.04769e-06
0.00019643 -2.04769e-06 0.00271735
0.00528893 -2.06883e-05 0.000195714
-2.06883e-05 0.0027044 2.34636e-06
0.000195714 2.34636e-06 0.00271081
