# vtk DataFile Version 2.0
Wound Healing Simulation
ASCII
DATASET UNSTRUCTURED_GRID
POINTS 3012 float
69.9759 18.75 4
67.2507 60.3285 4
69.976 18.75 2
73.0099 25.446 4
71.1327 20.9142 4
68.6801 16.6661 4
67.8185 19.924 3.96785
67.2507 60.3286 2
71.1327 54.0858 4
68.6801 58.3339 4
65.6939 62.2254 4
65.3042 58.9997 3.9664
74.6784 42.3946 4
73.7221 47.2057 4
69.9759 18.75 0
73.0099 25.446 2
68.6801 16.6661 2
71.1327 20.9142 2
67.819 19.9287 2
74.6792 32.6053 4
73.7222 27.7943 4
72.1454 23.1494 4
70.6102 26.2221 3.97024
68.8798 21.9568 3.96855
67.2507 14.6715 4
66.6291 17.9704 3.96673
65.6702 21.0714 3.96055
67.2507 60.3285 0
71.1327 54.0858 2
68.6801 58.3339 2
65.694 62.2255 2
65.306 58.993 2
72.1454 51.8506 4
69.9759 56.25 4
68.8302 53.1149 3.96849
64.0165 64.0165 4
66.6029 57.1346 3.96765
63.8773 60.7607 3.96244
63.3895 57.72 3.95647
60.3285 67.2507 4
74.6792 42.3947 2
73.7222 47.2057 2
74.9194 39.9526 4
74.2788 44.8158 4
72.1651 42.0856 3.97286
73.0099 49.554 4
71.2456 46.5979 3.97115
73.0099 25.446 0
71.1327 20.9142 0
68.6801 16.6661 0
67.8185 19.924 0.0321463
74.6792 32.6053 2
73.7222 27.7943 2
67.2508 14.6715 2
72.1455 23.1494 2
70.6094 26.2234 2
66.6304 17.9759 2
68.8797 21.9601 2
65.6724 21.0727 2
74.9197 35.0474 4
74.2794 30.1841 4
72.1818 32.9451 3.973
71.2749 28.4332 3.97106
69.8107 24.0596 3.9694
68.2554 26.9791 3.96501
66.6493 22.9724 3.96262
65.694 12.7746 4
65.3148 16.1037 3.96512
64.5734 19.2484 3.95743
63.5851 22.1582 3.96829
71.1327 54.0858 0
65.6939 62.2254 0
68.6801 58.3339 0
65.3042 58.9997 0.0335955
72.1455 51.8506 2
69.9759 56.25 2
68.8303 53.111 2
64.0165 64.0165 2
66.6044 57.1285 2
63.879 60.7532 2
63.3886 57.7189 2
62.2254 65.694 4
58.8861 65.409 3.9719
69.7638 50.99 3.96943
67.7765 55.1693 3.96803
66.5235 52.1687 3.96309
62.3279 62.4219 3.96578
64.5286 55.9811 3.95897
62.1356 59.3523 3.95205
61.557 56.5455 3.96246
58.3339 68.6801 4
60.3285 67.2508 2
73.7221 47.2057 0
74.6784 42.3946 0
74.9197 39.9526 2
74.2794 44.8159 2
72.164 42.0845 2
73.0099 49.554 2
71.2447 46.5962 2
75 37.5 4
72.4024 39.8026 3.97374
71.7791 44.3527 3.97219
69.7635 41.7841 3.96889
70.5709 48.8139 3.9704
68.8352 45.9966 3.96802
74.6792 32.6053 0
73.7222 27.7943 0
67.2507 14.6715 0
72.1454 23.1494 0
70.6102 26.2221 0.0297644
68.8798 21.9568 0.0314457
66.6291 17.9704 0.0332707
65.6702 21.0714 0.0394499
74.9197 35.0474 2
74.2794 30.1841 2
72.1805 32.9453 2
71.2738 28.4342 2
65.694 12.7745 2
65.3158 16.1107 2
69.8102 24.0618 2
68.2574 26.9801 2
64.5685 19.2509 2
66.6516 22.9738 2
63.5849 22.1595 2
72.4103 35.2256 3.97385
71.8008 30.6783 3.97239
69.7993 33.2785 3.96845
68.8914 29.0595 3.96655
67.5069 24.9457 3.96365
65.8834 27.722 3.97579
64.0165 10.9835 4
64.4525 23.9414 3.97214
63.8799 14.3309 3.9625
63.3841 17.5028 3.95395
62.6153 20.4537 3.96487
61.6186 23.1477 3.97379
60.6759 11.1054 3.96753
57.5993 11.5133 3.96084
72.1454 51.8506 0
69.9759 56.25 0
68.8302 53.1149 0.0315133
64.0165 64.0165 0
63.8773 60.7607 0.0375574
66.6029 57.1346 0.0323542
63.3895 57.72 0.0435302
62.2255 65.694 2
58.8902 65.4024 2
69.7635 50.9872 2
67.7773 55.1641 2
66.5249 52.1672 2
62.3311 62.4132 2
64.524 55.9787 2
62.1363 59.3511 2
61.5639 56.5465 2
60.6606 63.9707 3.96478
57.0182 66.7268 3.97093
57.5411 63.6275 3.96742
67.3889 50.1421 3.96456
65.575 54.1284 3.9615
64.2078 51.2695 3.97288
60.747 60.8865 3.95144
62.5236 54.9372 3.96718
60.3872 58.0072 3.9578
59.9214 55.5788 3.96914
56.25 69.9759 4
58.3339 68.6801 2
60.3285 67.2507 0
58.9149 9.6649 3.96814
62.2254 9.30607 4
73.0099 49.554 0
74.2788 44.8158 0
71.2456 46.5979 0.0288494
72.1651 42.0856 0.0271401
74.9194 39.9526 0
75 37.5 2
72.4016 39.8018 2
71.7784 44.3512 2
69.7643 41.7835 2
70.5704 48.8117 2
68.8374 45.9956 2
72.4859 37.5129 3.97365
70.0102 39.6561 3.96887
69.3764 43.8966 3.96879
67.3059 41.4668 3.97656
68.1645 48.0804 3.96641
66.3863 45.371 3.97606
74.9197 35.0474 0
74.2794 30.1841 0
72.1818 32.9451 0.0269968
71.2749 28.4332 0.0289374
65.694 12.7746 0
65.3148 16.1037 0.0348766
69.8107 24.0596 0.0306034
68.2554 26.9791 0.03499
66.6493 22.9724 0.0373787
64.5734 19.2484 0.0425658
63.5851 22.1582 0.0317096
72.4095 35.2252 2
71.7999 30.6791 2
69.8008 33.279 2
68.894 29.0601 2
64.0165 10.9835 2
63.8823 14.3387 2
63.4011 17.4992 2
67.5092 24.9469 2
65.8801 27.7238 2
62.622 20.4533 2
64.4514 23.943 2
61.6187 23.15 2
60.6793 11.112 2
57.5935 11.5037 2
70.0233 35.398 3.96856
69.413 31.1644 3.96762
67.3711 33.6268 3.97635
66.4653 29.6951 3.97619
65.2182 25.799 3.97432
63.6284 28.3915 3.97523
62.3318 12.6606 3.9649
62.3617 24.8258 3.97398
62.1347 15.8342 3.95207
61.5254 18.8316 3.96107
60.7619 21.5587 3.97157
59.7992 24.0069 3.97384
59.2255 12.8374 3.95623
55.8642 10.2998 3.97065
56.3596 13.2269 3.95734
69.7638 50.99 0.0305664
62.2254 65.694 0
58.8861 65.409 0.0280992
67.7765 55.1693 0.0319679
66.5235 52.1687 0.0369137
62.3279 62.4219 0.0342247
62.1356 59.3523 0.0479469
64.5286 55.9811 0.0410317
61.557 56.5455 0.0375368
60.6645 63.9622 2
57.022 66.7212 2
57.5452 63.6434 2
67.3896 50.1406 2
65.5749 54.1266 2
64.2063 51.2683 2
60.732 60.8915 2
62.5281 54.9379 2
60.387 58.0062 2
59.918 55.5764 2
55.0645 67.9298 3.97976
59.2061 62.2946 3.97044
55.7803 64.8346 3.96575
56.291 61.989 3.97785
64.9892 49.3037 3.9747
63.3834 53.1669 3.97011
61.893 50.4559 3.9734
59.1663 59.4207 3.95517
60.6176 54.1004 3.97251
58.824 56.772 3.95981
58.7127 54.9225 3.97078
48.0951 68.5654 3.97716
50.9429 69.9291 3.98356
54.0858 71.1327 4
56.25 69.976 2
58.3339 68.6801 0
57.054 8.34092 3.97502
60.3285 7.74928 4
58.9176 9.6716 2
62.2255 9.30602 2
70.5709 48.8139 0.0296003
71.7791 44.3527 0.027809
68.8352 45.9966 0.0319838
69.7635 41.7841 0.0311093
72.4024 39.8026 0.0262589
75 37.5 0
72.4846 37.5124 2
70.0115 39.6557 2
69.3764 43.8957 2
67.3024 41.4664 2
68.1639 48.079 2
66.3822 45.3702 2
70.0985 37.5239 3.96877
67.5529 39.4995 3.97651
66.9169 43.421 3.97639
65.0768 41.1665 3.97607
65.7275 47.329 3.97569
64.1309 44.7509 3.97553
72.4103 35.2256 0.026151
71.8008 30.6783 0.0276148
69.7993 33.2785 0.0315478
68.8914 29.0595 0.0334468
64.0165 10.9835 0
63.8799 14.3309 0.0375022
63.3841 17.5028 0.0460496
67.5069 24.9457 0.0363534
65.8834 27.722 0.0242109
64.4525 23.9414 0.0278605
62.6153 20.4537 0.0351344
61.6186 23.1477 0.0262081
60.6759 11.1054 0.0324697
57.5993 11.5133 0.0391558
70.0247 35.3982 2
69.4148 31.1649 2
67.3679 33.6273 2
66.4616 29.6965 2
62.3353 12.6681 2
62.1439 15.8348 2
61.5303 18.8321 2
65.2155 25.8008 2
63.6276 28.392 2
60.7617 21.5615 2
62.3606 24.8271 2
59.7968 24.0087 2
59.2219 12.8296 2
56.3533 13.2227 2
55.8648 10.3029 2
67.5943 35.5675 3.97654
66.9695 31.6774 3.97632
65.2345 33.978 3.97616
64.1527 30.3014 3.9753
63.0277 26.5808 3.9747
61.5623 28.965 3.97488
60.7392 14.2773 3.95221
60.3798 25.5913 3.97407
60.3553 17.2818 3.95904
59.7586 20.0547 3.96704
59.0516 22.5553 3.97251
58.2132 24.6631 3.97374
54.0381 9.16632 3.97884
57.8097 14.4675 3.95276
54.7631 12.1358 3.96982
55.1994 14.8307 3.95383
67.3889 50.1421 0.0354395
57.0182 66.7268 0.0290725
60.6606 63.9707 0.035216
57.5411 63.6275 0.0325763
65.575 54.1284 0.0385004
64.2078 51.2695 0.0271154
60.747 60.8865 0.0485593
60.3872 58.0072 0.0422044
62.5236 54.9372 0.0328212
59.9214 55.5788 0.0308604
55.0693 67.9232 2
59.1991 62.3042 2
55.7846 64.829 2
56.288 61.9954 2
64.9869 49.3022 2
63.3835 53.1663 2
61.8922 50.4552 2
59.1876 59.4267 2
60.6163 54.0985 2
58.8319 56.7726 2
58.721 54.9226 2
53.0363 68.9949 3.97996
53.9485 65.968 3.96808
57.792 60.7675 3.94883
54.6423 63.0751 3.96654
55.1331 60.4886 3.97383
62.6353 48.4904 3.97408
61.232 52.3657 3.9729
59.5197 49.7399 3.97273
57.6903 58.0545 3.95664
58.7411 53.6717 3.97244
57.493 55.5053 3.96285
50.099 67.8417 3.97236
47.4472 66.5475 3.9733
46.0509 69.1458 3.97995
48.0998 68.5652 2
48.7973 70.7206 3.98645
50.9485 69.9258 2
51.8506 72.1454 4
54.0858 71.1327 2
56.25 69.9759 0
55.1004 7.14324 3.98769
58.3339 6.31992 4
57.0583 8.34585 2
60.3286 7.74926 2
58.9149 9.6649 0.0318577
62.2254 9.30607 0
68.1645 48.0804 0.033587
69.3764 43.8966 0.0312137
66.3863 45.371 0.0239447
67.3059 41.4668 0.0234362
70.0102 39.6561 0.0311276
72.4859 37.5129 0.0263492
70.1009 37.5238 2
67.5492 39.4993 2
66.9143 43.4198 2
65.0767 41.1662 2
65.7246 47.3274 2
64.1306 44.7508 2
67.6557 37.5261 3.97646
65.3189 39.3508 3.97628
64.6816 42.9525 3.97595
63.1059 40.8695 3.97633
63.4153 46.5845 3.97446
62.1008 44.0888 3.9757
70.0233 35.398 0.0314434
69.413 31.1644 0.0323788
67.3711 33.6268 0.0236501
66.4653 29.6951 0.0238093
62.3318 12.6606 0.0351028
62.1347 15.8342 0.0479277
61.5254 18.8316 0.0389306
65.2182 25.799 0.0256837
63.6284 28.3915 0.0247737
62.3617 24.8258 0.0260156
60.7619 21.5587 0.0284299
59.7992 24.0069 0.02616
59.2255 12.8374 0.04377
56.3596 13.2269 0.0426596
55.8642 10.2998 0.0293475
67.5911 35.5677 2
66.9666 31.6785 2
65.2336 33.9783 2
64.1528 30.3015 2
60.733 14.2766 2
60.3475 17.2853 2
59.7563 20.0581 2
63.0266 26.5815 2
61.5624 28.9651 2
59.0508 22.5582 2
60.3791 25.5919 2
58.2086 24.6654 2
57.8058 14.4582 2
55.1855 14.8132 2
54.0419 9.15899 2
54.7537 12.1302 2
65.4179 35.6949 3.9762
64.6915 32.2308 3.97559
63.6923 34.3093 3.97611
61.887 30.7826 3.97529
60.9614 27.2892 3.97445
60.0143 29.365 3.97535
59.1209 15.82 3.95567
58.5061 26.1105 3.97461
58.6802 18.606 3.96135
58.1295 21.1704 3.96827
57.5514 23.4546 3.97245
57.1201 25.0447 3.97463
52.1045 8.19097 3.96507
53.0462 11.0872 3.95827
56.4727 15.9481 3.95524
53.7421 13.8325 3.95332
54.1698 16.2246 3.9574
55.0645 67.9298 0.0202415
64.9892 49.3037 0.0253041
55.7803 64.8346 0.0342519
59.2061 62.2946 0.0295632
56.291 61.989 0.0221483
63.3834 53.1669 0.0298925
61.893 50.4559 0.0265964
59.1663 59.4207 0.0448301
58.824 56.772 0.0401918
60.6176 54.1004 0.0274853
58.7127 54.9225 0.0292226
53.0422 68.9908 2
53.9525 65.962 2
57.7946 60.7863 2
54.6365 63.0706 2
55.1302 60.4928 2
62.6348 48.4898 2
61.2315 52.3644 2
59.5196 49.7391 2
57.6904 58.0548 2
58.7453 53.6703 2
57.4893 55.5015 2
52.0563 66.97 3.97195
52.922 64.1218 3.9679
56.4504 59.3133 3.95342
53.5968 61.4342 3.9654
54.1172 59.1344 3.96364
60.2084 47.65 3.97358
59.028 51.8256 3.97251
57.0924 49.2664 3.97311
56.3494 56.7255 3.95897
56.3241 53.7531 3.96714
50.1033 67.8381 2
49.3154 65.8657 3.97133
47.4525 66.539 2
46.8678 64.6596 3.97785
45.5498 67.0692 3.97817
43.9705 69.5783 3.98198
46.0548 69.1465 2
46.6047 71.365 3.98809
48.0951 68.5654 0.0228418
48.8026 70.719 2
49.554 73.0099 4
50.9429 69.9291 0.0164415
51.8506 72.1455 2
54.0858 71.1327 0
53.0627 6.08127 3.9793
55.1042 7.14547 2
56.25 5.02411 4
58.3339 6.3199 2
57.054 8.34092 0.0249814
60.3285 7.74928 0
65.7275 47.329 0.0243144
66.9169 43.421 0.0236117
64.1309 44.7509 0.0244712
65.0768 41.1665 0.0239261
67.5529 39.4995 0.0234917
70.0985 37.5239 0.0312288
67.6518 37.5261 2
65.3188 39.3507 2
64.681 42.9522 2
63.1066 40.8697 2
63.4152 46.5839 2
62.1011 44.0891 2
65.4281 37.5067 3.97617
63.2542 39.2413 3.97635
62.6525 42.4598 3.97609
61.6412 40.6294 3.97648
61.2144 45.7399 3.9749
60.5959 43.5364 3.97628
67.5943 35.5675 0.0234635
66.9695 31.6774 0.023682
65.2345 33.978 0.023835
64.1527 30.3014 0.0246983
60.7392 14.2773 0.0477921
60.3553 17.2818 0.0409608
59.7586 20.0547 0.0329583
63.0277 26.5808 0.0253014
61.5623 28.965 0.0251175
60.3798 25.5913 0.0259264
59.0516 22.5553 0.0274862
58.2132 24.6631 0.0262576
57.8097 14.4675 0.0472386
55.1994 14.8307 0.0461682
54.0381 9.16632 0.0211607
54.7631 12.1358 0.0301837
65.4174 35.695 2
64.6911 32.2313 2
63.6934 34.3091 2
61.8871 30.7822 2
59.1368 15.818 2
58.6836 18.6078 2
58.1241 21.1746 2
60.9614 27.2899 2
60.0149 29.3652 2
57.5469 23.4584 2
58.5036 26.1113 2
57.1148 25.0469 2
56.4568 15.9535 2
54.1681 16.2239 2
53.7265 13.8191 2
52.1037 8.19916 2
53.0434 11.0808 2
63.468 35.6709 3.97618
62.2156 33.146 3.97591
59.7119 30.8143 3.97531
58.6656 28.1947 3.97479
57.5898 17.2199 3.95643
56.795 26.1128 3.97456
57.128 19.8038 3.96115
56.6248 22.2293 3.96866
56.3201 24.3599 3.97339
50.1042 7.31981 3.97177
51.1924 10.2243 3.96579
52.1162 12.9193 3.96714
55.2111 17.247 3.95537
52.8431 15.4742 3.96235
53.4748 17.2589 3.95461
53.0363 68.9949 0.0200361
53.9485 65.968 0.0319185
62.6353 48.4904 0.0259226
54.6423 63.0751 0.0334577
57.792 60.7675 0.0511703
55.1331 60.4886 0.0261691
61.232 52.3657 0.0270988
59.5197 49.7399 0.0272696
57.6903 58.0545 0.0433646
57.493 55.5053 0.037146
58.7411 53.6717 0.0275646
52.0606 66.9716 2
52.9194 64.1124 2
56.448 59.3164 2
53.5906 61.4272 2
54.1151 59.1319 2
60.2083 47.6494 2
59.0294 51.8245 2
57.0927 49.2664 2
56.344 56.7256 2
56.3225 53.7502 2
51.1416 65.0572 3.96394
51.9773 62.3829 3.96246
55.1905 58.026 3.95864
52.6702 59.9066 3.95683
53.4322 58.2501 3.96157
57.2215 46.5227 3.97433
56.717 51.4116 3.97276
55.2029 49.1199 3.97508
54.9544 55.4832 3.95899
54.4947 52.9826 3.9598
50.099 67.8417 0.0276447
49.3192 65.8657 2
48.5835 64.0345 3.976
47.4472 66.5475 0.0266976
45.5512 67.0787 2
46.8717 64.6563 2
46.3458 62.9588 3.98778
45.1126 65.1536 3.98164
43.6261 67.4497 3.97963
41.859 69.8673 3.98227
43.9727 69.5804 2
44.3729 71.8594 3.98892
46.0509 69.1458 0.0200531
46.6089 71.3641 2
47.2057 73.7222 4
48.7973 70.7206 0.0135516
49.554 73.0099 2
51.8506 72.1454 0
50.954 5.136 3.98486
53.0648 6.08016 2
54.0858 3.86728 4
55.1004 7.14324 0.0123078
56.25 5.02406 2
58.3339 6.31992 0
63.4153 46.5845 0.0255431
64.6816 42.9525 0.0240539
62.1008 44.0888 0.0243015
63.1059 40.8695 0.0236711
65.3189 39.3508 0.0237215
67.6557 37.5261 0.0235443
65.4275 37.5068 2
63.2555 39.2414 2
62.6533 42.4595 2
61.6415 40.6294 2
61.2146 45.7394 2
60.5955 43.5363 2
63.3196 37.4632 3.97638
61.3298 39.3163 3.97671
60.3235 41.8408 3.97685
59.2882 44.5598 3.97531
65.4179 35.6949 0.0237981
64.6915 32.2308 0.0244131
63.6923 34.3093 0.0238943
61.887 30.7826 0.0247111
59.1209 15.82 0.0443261
58.6802 18.606 0.0386546
58.1295 21.1704 0.0317252
60.9614 27.2892 0.025547
60.0143 29.365 0.0246465
58.5061 26.1105 0.0253894
57.5514 23.4546 0.0275546
57.1201 25.0447 0.0253709
56.4727 15.9481 0.0447593
54.1698 16.2246 0.0425954
53.7421 13.8325 0.0466827
52.1045 8.19097 0.0349336
53.0462 11.0872 0.0417348
63.4694 35.6709 2
62.217 33.1463 2
59.712 30.8141 2
57.5949 17.2209 2
57.1252 19.8056 2
56.6212 22.2338 2
58.6655 28.1941 2
56.3241 24.3613 2
56.7937 26.1121 2
50.1112 7.29454 2
55.2119 17.2423 2
53.4805 17.2488 2
52.8308 15.4704 2
52.1247 12.9236 2
51.1966 10.226 2
61.3708 35.4171 3.97645
59.3058 32.8969 3.97592
57.5331 30.3518 3.97485
56.227 27.755 3.97469
56.1674 18.4632 3.95816
55.2817 25.5515 3.97337
55.6609 20.9152 3.96182
55.2518 23.318 3.96883
48.0569 6.5358 3.97862
49.2974 9.39597 3.97236
50.3705 12.1616 3.96754
51.2666 14.6666 3.97663
54.0241 18.2459 3.95867
52.1 17.3165 3.95626
52.0563 66.97 0.0280463
52.922 64.1218 0.0320985
60.2084 47.65 0.0264215
53.5968 61.4342 0.0346041
56.4504 59.3133 0.046585
54.1172 59.1344 0.0363588
59.028 51.8256 0.0274913
57.0924 49.2664 0.0268899
56.3494 56.7255 0.0410307
56.3241 53.7531 0.0328591
51.1446 65.0599 2
51.9832 62.4142 2
55.1893 58.0239 2
52.6588 59.9016 2
53.4347 58.2514 2
57.2206 46.5218 2
56.7166 51.4095 2
55.2025 49.1189 2
54.9509 55.481 2
54.4914 52.9809 2
50.3002 63.2896 3.9701
51.1137 60.7396 3.96948
53.8731 57.0082 3.96656
52.0007 58.3706 3.96422
55.3646 43.8857 3.97498
54.271 47.4489 3.97477
53.9711 50.923 3.96582
53.3668 54.1906 3.9627
49.3154 65.8657 0.0286663
48.582 64.0554 2
47.9066 62.3822 3.99045
45.5498 67.0692 0.0218286
46.8678 64.6596 0.0221501
43.6281 67.451 2
46.3448 62.9578 2
45.119 65.1423 2
45.9372 61.4708 3.98986
44.7406 63.3742 3.97738
43.3464 65.4746 3.97982
41.6605 67.6693 3.97829
39.7017 70.0142 3.98116
41.8604 69.8691 2
42.1085 72.2038 3.99002
43.9705 69.5783 0.0180168
44.3761 71.8593 2
44.8159 74.2794 4
46.6047 71.365 0.0119095
47.2057 73.7222 2
49.554 73.0099 0
48.7845 4.32558 3.98566
50.9538 5.13592 2
51.8506 2.85458 4
53.0627 6.08127 0.0207005
54.0858 3.86728 2
56.25 5.02411 0
61.2144 45.7399 0.0250969
62.6525 42.4598 0.0239099
60.5959 43.5364 0.023723
61.6412 40.6294 0.0235209
63.2542 39.2413 0.023652
65.4281 37.5067 0.0238292
63.3205 37.4632 2
61.3303 39.3166 2
60.3233 41.8407 2
59.2887 44.5594 2
61.146 37.4516 3.97685
59.2099 39.7808 3.97652
57.8618 42.7398 3.97598
63.468 35.6709 0.0238223
62.2156 33.146 0.0240869
59.7119 30.8143 0.024692
57.5898 17.2199 0.0435663
57.128 19.8038 0.0388492
56.6248 22.2293 0.0313359
58.6656 28.1947 0.0252096
56.795 26.1128 0.0254433
56.3201 24.3599 0.0266108
55.2111 17.247 0.0446258
53.4748 17.2589 0.0453939
52.8431 15.4742 0.037655
50.1042 7.31981 0.0282307
52.1162 12.9193 0.0328593
51.1924 10.2243 0.034208
61.3714 35.4173 2
59.3054 32.8973 2
57.5329 30.3525 2
56.1687 18.463 2
55.6779 20.9111 2
55.2666 23.3199 2
56.2267 27.7552 2
55.2845 25.5557 2
48.052 6.54674 2
49.3001 9.39784 2
54.037 18.2439 2
52.1024 17.3101 2
51.2602 14.6625 2
50.3748 12.1576 2
58.8185 35.2011 3.97626
56.7557 32.4874 3.97501
55.3056 29.6976 3.97494
54.2788 27.0779 3.97374
54.8148 19.5454 3.96096
53.9534 24.5442 3.97104
54.2146 22.0125 3.9659
45.9613 5.89714 3.97886
43.3692 7.4971 3.97867
47.3366 8.66497 3.97114
48.5557 11.4081 3.96702
49.6065 13.9365 3.97851
50.444 16.3552 3.95832
52.7125 19.0326 3.95636
51.0047 18.4262 3.95475
51.1416 65.0572 0.0360607
51.9773 62.3829 0.0375417
57.2215 46.5227 0.0256709
52.6702 59.9066 0.0431674
55.1905 58.026 0.0413598
53.4322 58.2501 0.0384296
56.717 51.4116 0.0272376
55.2029 49.1199 0.0249225
54.9544 55.4832 0.0410117
54.4947 52.9826 0.0401958
50.2954 63.2759 2
51.1115 60.7442 2
53.8665 57.007 2
51.9919 58.3711 2
55.3675 43.885 2
54.2716 47.4487 2
53.9667 50.9208 2
53.3557 54.1898 2
49.5013 61.6429 3.97586
54.0227 41.5332 3.97462
50.344 59.1059 3.9695
51.6937 56.1773 3.96278
52.6456 45.1002 3.97247
52.0342 48.7994 3.96992
51.7989 52.4283 3.95813
48.5835 64.0345 0.0240042
47.9011 62.3883 2
47.2505 60.8976 3.99182
43.6261 67.4497 0.0203665
45.1126 65.1536 0.0183579
46.3458 62.9588 0.0122237
41.6635 67.6704 2
43.3559 65.4695 2
45.9373 61.4787 2
44.7417 63.3676 2
45.6815 60.5141 3.99993
44.4428 61.7364 3.98744
43.129 63.6604 3.98117
41.5415 65.6106 3.97249
39.6316 67.7472 3.97617
37.5265 70.0388 3.9816
39.7026 70.0143 2
39.8164 72.4013 3.99024
41.859 69.8673 0.0177336
42.1105 72.2046 2
42.3947 74.6792 4
44.3729 71.8594 0.0110799
44.8159 74.2794 2
47.2057 73.7222 0
43.85 5.37033 3.97846
46.569 3.6511 3.98703
48.7836 4.32887 2
49.554 1.99015 4
50.954 5.136 0.0151353
51.8506 2.85453 2
54.0858 3.86728 0
59.2882 44.5598 0.0246924
60.3235 41.8408 0.0231488
61.3298 39.3163 0.0232883
63.3196 37.4632 0.023624
61.1463 37.4517 2
59.2084 39.7811 2
57.8596 42.7385 2
58.661 37.5719 3.97681
56.7342 40.528 3.97757
53.3938 39.5921 3.97688
61.3708 35.4171 0.0235502
59.3058 32.8969 0.0240819
57.5331 30.3518 0.025149
56.1674 18.4632 0.0418381
55.6609 20.9152 0.0381835
55.2518 23.318 0.0311721
56.227 27.755 0.025309
55.2817 25.5515 0.0266344
54.0241 18.2459 0.0413254
52.1 17.3165 0.0437409
51.2666 14.6666 0.0233688
48.0569 6.5358 0.0213769
49.2974 9.39597 0.0276375
50.3705 12.1616 0.0324566
58.8167 35.2005 2
45.9615 5.89538 2
43.3697 7.49941 2
56.7553 32.4879 2
55.3074 29.696 2
54.8036 19.5512 2
54.2405 22.0121 2
53.9519 24.553 2
54.2785 27.0774 2
47.3397 8.65607 2
48.558 11.4012 2
52.7173 18.9997 2
51.0143 18.4233 2
50.4562 16.3578 2
49.6027 13.937 2
56.0442 34.8855 3.9773
54.285 31.8372 3.97414
53.1487 28.8603 3.97544
52.6492 26.0278 3.9727
53.3956 20.5437 3.96743
52.7375 23.2207 3.96995
41.3965 7.09445 3.9769
45.348 8.01434 3.98347
42.8557 9.45045 3.97261
46.6377 10.7349 3.97346
47.6644 13.2371 3.97457
48.757 15.5901 3.9743
49.7298 18.0037 3.9568
51.2268 19.7445 3.97687
50.3002 63.2896 0.0299028
51.1137 60.7396 0.0305247
55.3646 43.8857 0.0250163
54.271 47.4489 0.0252271
52.0007 58.3706 0.03578
53.8731 57.0082 0.0334369
53.9711 50.923 0.0341783
53.3668 54.1906 0.0373002
49.504 61.6405 2
54.0137 41.5254 2
50.3413 59.112 2
51.6954 56.1815 2
52.6373 45.0952 2
52.0298 48.7969 2
51.8015 52.4287 2
48.6977 60.0839 3.9955
50.5585 42.312 3.98233
49.4472 57.3913 3.9605
49.9385 54.061 3.95936
50.3089 46.6839 3.97694
50.1404 50.4628 3.95415
46.3468 43.2247 3.95527
47.9066 62.3822 0.00954982
47.2535 60.8954 2
46.4934 59.6837 3.99359
41.6605 67.6693 0.0217077
43.3464 65.4746 0.0201847
44.7406 63.3742 0.0226193
45.9372 61.4708 0.0101421
39.6345 67.7477 2
41.5478 65.6076 2
45.6873 60.5196 2
43.1278 63.6608 2
44.4427 61.7331 2
44.5648 60.1688 3.99368
42.9181 61.9953 3.98
41.5855 63.7763 3.98294
39.6439 65.5833 3.97527
37.5631 67.7302 3.9757
31.7047 65.0917 3.97419
33.3952 67.4686 3.97863
35.3349 69.9507 3.98201
37.5265 70.0408 2
37.5097 72.4552 3.99079
39.7017 70.0142 0.018836
39.8177 72.4012 2
39.9526 74.9197 4
42.1085 72.2038 0.00998228
42.3947 74.6792 2
44.8159 74.2794 0
41.735 4.9775 3.98323
43.85 5.37102 2
44.3252 3.1135 3.98899
46.5703 3.65059 2
47.2057 1.27793 4
48.7845 4.32558 0.0143423
49.554 1.99013 2
51.8506 2.85458 0
57.8618 42.7398 0.0240187
59.2099 39.7808 0.0234826
61.146 37.4516 0.02315
58.6618 37.5722 2
56.734 40.5298 2
53.3883 39.5973 2
55.3641 37.8823 3.97694
47.5677 41.0562 3.96578
51.0683 39.2433 3.9795
39.4391 6.81722 3.97637
58.8185 35.2011 0.0237398
56.7557 32.4874 0.0249927
55.3056 29.6976 0.0250627
54.8148 19.5454 0.0390421
54.2146 22.0125 0.0340971
53.9534 24.5442 0.0289565
54.2788 27.0779 0.0262575
52.7125 19.0326 0.0436376
51.0047 18.4262 0.0452491
50.444 16.3552 0.0416809
45.9613 5.89714 0.0211362
49.6065 13.9365 0.0214915
47.3366 8.66497 0.0288592
48.5557 11.4081 0.0329806
43.3692 7.4971 0.021333
56.0413 34.8868 2
41.3971 7.09641 2
45.3492 8.01358 2
42.8541 9.44946 2
54.2794 31.8364 2
53.143 28.8624 2
53.3949 20.5513 2
52.7207 23.235 2
52.6533 26.0239 2
46.6378 10.726 2
47.6659 13.2233 2
51.2418 19.7418 2
49.7323 17.979 2
48.7695 15.6133 2
53.1652 34.1558 3.97566
51.898 30.9126 3.97473
51.2829 27.7433 3.97503
51.1309 24.6546 3.97233
51.7735 21.5304 3.97201
41.0054 9.06883 3.97642
44.7098 10.0475 3.9789
42.4455 10.9437 4.00266
45.9391 12.8179 3.974
47.5523 14.7622 3.9771
47.8704 17.1828 3.97121
49.4804 20.138 3.98697
49.5013 61.6429 0.024137
50.344 59.1059 0.0305019
54.0227 41.5332 0.0253806
52.6456 45.1002 0.027527
52.0342 48.7994 0.0300841
51.6937 56.1773 0.0372152
51.7989 52.4283 0.0418674
48.6949 60.0861 2
50.5829 42.3393 2
49.4448 57.3855 2
49.9375 54.0632 2
50.3095 46.6832 2
50.1435 50.4625 2
46.356 43.2598 2
47.7764 58.5396 3.99133
48.3398 44.8188 3.98347
48.142 55.6366 3.94829
48.34 52.1853 3.97342
48.4408 48.5096 3.97516
43.982 39.6462 3.80016
44.5676 42.1826 3.84908
44.9643 45.1277 3.96707
41.9283 40.9387 3.5453
41.0581 41.3576 3.34802
47.2505 60.8976 0.00818409
46.5005 59.6842 2
45.3339 58.6497 3.99356
39.6316 67.7472 0.0238327
41.5415 65.6106 0.0275056
43.129 63.6604 0.0188275
44.4428 61.7364 0.0125563
45.6815 60.5141 7.43876e-05
41.5893 63.771 2
37.5654 67.7327 2
39.6485 65.5857 2
44.5612 60.1843 2
42.9179 61.9912 2
41.7286 62.4238 3.98623
42.4361 59.8532 3.98954
39.8833 63.5168 3.98005
37.6405 65.4838 3.97642
35.4641 67.6405 3.97502
33.5796 65.3096 3.97362
31.9739 63.2472 3.99471
29.899 64.682 3.98092
31.6965 65.1002 2
31.3836 67.1818 3.979
33.3965 67.4734 2
33.1591 69.7438 3.98227
35.3344 69.9521 2
35.1969 72.3707 3.9913
37.5265 70.0388 0.0183991
37.5103 72.4559 2
37.5 75 4
39.8164 72.4013 0.00975941
39.9526 74.9197 2
42.3947 74.6792 0
39.6236 4.72348 3.98493
41.7349 4.97833 2
42.0618 2.72052 3.98955
43.85 5.37033 0.021538
44.3253 3.1137 2
44.8158 0.721173 4
46.569 3.6511 0.0129742
47.2057 1.27779 2
49.554 1.99015 0
56.7342 40.528 0.0224299
58.661 37.5719 0.0231881
53.3938 39.5921 0.023118
47.6104 41.0801 2
55.3626 37.8803 2
51.0874 39.2245 2
52.0158 36.6323 3.977
45.482 40.1731 3.8756
48.3728 38.448 3.9617
37.5136 6.68636 3.98111
39.4404 6.81588 2
39.2072 8.71902 3.98564
35.9426 8.51566 3.97555
56.0442 34.8855 0.0226981
54.285 31.8372 0.0258579
53.1487 28.8603 0.024561
53.3956 20.5437 0.0325701
52.7375 23.2207 0.0300495
52.6492 26.0278 0.0273016
51.2268 19.7445 0.023135
49.7298 18.0037 0.0432031
48.757 15.5901 0.0257042
45.348 8.01434 0.0165301
47.6644 13.2371 0.025429
46.6377 10.7349 0.0265433
41.3965 7.09445 0.0231016
42.8557 9.45045 0.0273855
53.1673 34.161 2
41.0028 9.07194 2
44.7102 10.0403 2
42.4445 10.9468 2
51.9015 30.9098 2
51.2845 27.7464 2
51.7596 21.5367 2
51.1178 24.6641 2
45.9382 12.8062 2
47.5472 14.7416 2
49.508 20.1539 2
47.8716 17.1737 2
50.5193 33.1689 3.97442
49.6975 29.7362 3.97675
49.5799 26.2758 3.97132
49.2952 22.7062 3.97372
40.556 11.6342 3.99032
43.8071 11.974 3.97041
45.6709 15.6175 4.00729
47.2065 19.6983 3.97606
44.1877 37.5101 3.81215
48.6977 60.0839 0.00449714
49.4472 57.3913 0.0395008
50.5585 42.312 0.017669
50.3089 46.6839 0.0230571
50.1404 50.4628 0.0458467
49.9385 54.061 0.0406401
46.3468 43.2247 0.0447327
47.7673 58.543 2
48.3535 44.8289 2
48.1365 55.637 2
48.3391 52.1903 2
48.4453 48.5108 2
44.0975 39.6665 2
44.6124 42.2338 2
44.9702 45.1529 2
42.008 41.0076 2
41.1094 41.3687 2
46.5602 57.1196 3.99323
42.4858 39.4169 3.54426
41.4269 40.3654 3.33068
46.6566 46.7378 3.99767
46.614 53.8949 3.95308
46.6521 50.3043 3.97296
43.6671 46.725 3.97565
43.2629 41.6005 3.80728
43.535 43.933 3.83759
41.4037 42.061 3.5607
40.2592 41.6231 3.26377
46.4934 59.6837 0.00640827
45.3276 58.6525 2
43.7504 57.5049 3.99626
37.5631 67.7302 0.0243008
39.6439 65.5833 0.0247253
41.5855 63.7763 0.0170555
42.9181 61.9953 0.0199992
44.5648 60.1688 0.00631601
35.4657 67.6419 2
41.7276 62.4197 2
39.8851 63.5206 2
37.6433 65.4877 2
42.4341 59.8604 2
40.6018 61.5601 3.98907
40.4039 58.0354 3.99338
37.8323 63.1694 3.97462
35.5738 65.4007 3.97386
33.5742 65.3021 2
31.9726 63.2303 2
33.6371 63.3009 3.99191
30.4097 62.7785 3.97933
32.1398 61.947 3.98433
26.9445 61.3472 3.99042
28.0922 64.0704 3.98831
29.8947 64.6753 2
29.4161 66.7331 3.98042
31.7047 65.0917 0.0258147
31.3846 67.1841 2
31.0175 69.4096 3.98275
33.3952 67.4686 0.0213712
33.1579 69.7466 2
32.8955 72.1447 3.99082
35.3349 69.9507 0.0179911
35.1964 72.3714 2
35.0474 74.9194 4
37.5097 72.4552 0.00920501
37.5 75 2
39.9526 74.9197 0
35.619 6.73929 3.97743
37.5237 4.62273 3.98524
39.6231 4.72216 2
39.7887 2.47658 3.99114
41.735 4.9775 0.0167659
42.0618 2.7208 2
42.3946 0.32156 4
44.3252 3.1135 0.0110116
44.8159 0.72056 2
47.2057 1.27793 0
47.5677 41.0562 0.0342188
55.3641 37.8823 0.0230558
51.0683 39.2433 0.0205021
45.5613 40.1627 2
48.4354 38.4563 2
52.007 36.6305 2
49.2449 35.6625 3.97874
45.9893 37.6803 3.82532
44.0179 35.3435 3.80316
41.9792 34.0263 3.54497
41.1057 33.5973 3.3524
37.4579 8.55042 3.97853
37.5149 6.68662 2
39.4391 6.81722 0.0236317
39.2069 8.72335 2
38.971 10.1592 3.99392
35.8992 9.80031 3.98153
34.1533 8.84777 3.97575
35.9412 8.51503 2
53.1652 34.1558 0.0243418
51.898 30.9126 0.025266
51.2829 27.7433 0.0249745
51.7735 21.5304 0.0279863
51.1309 24.6546 0.02767
49.4804 20.138 0.0130259
47.8704 17.1828 0.0287935
47.5523 14.7622 0.0228978
44.7098 10.0475 0.0211031
45.9391 12.8179 0.0260003
41.0054 9.06883 0.0235767
42.4455 10.9437 -0.00266091
50.5458 33.1523 2
40.5587 11.649 2
43.8059 11.9481 2
49.7048 29.7322 2
49.5787 26.2947 2
49.2901 22.6964 2
45.6552 15.5582 2
47.2296 19.7502 2
48.1317 31.726 3.97916
47.8975 28.0657 3.97566
48.446 24.8765 3.96223
46.7172 22.5309 3.9877
38.3017 12.7835 3.97993
42.0403 14.4344 3.99838
44.5656 18.717 3.98831
42.6805 37.4915 3.53258
44.3179 37.4983 2
47.7764 58.5396 0.00866763
48.142 55.6366 0.0517144
48.3398 44.8188 0.0165298
48.4408 48.5096 0.0248395
48.34 52.1853 0.0265821
43.982 39.6462 0.199836
44.5676 42.1826 0.150922
44.9643 45.1277 0.0329268
41.9283 40.9387 0.454701
41.0581 41.3576 0.651977
46.5548 57.123 2
42.5741 39.4281 2
41.4638 40.3647 2
46.6618 46.7424 2
46.6051 53.8971 2
46.6511 50.3171 2
43.7091 46.7469 2
43.3346 41.6552 2
43.6047 43.9737 2
41.4681 42.1579 2
40.3591 41.641 2
45.0525 55.6804 4.00429
41.7103 38.978 3.34214
40.0813 40.3485 3.34096
45.0241 48.3827 4.00504
44.8243 52.1091 3.99624
42.5173 47.7008 3.9854
42.355 45.3646 3.84942
42.4048 43.2163 3.76326
40.6089 42.9041 3.53224
39.0744 41.9373 3.35515
45.3339 58.6497 0.0064406
43.7493 57.5162 2
41.9828 56.0363 3.99582
35.4641 67.6405 0.0249836
37.6405 65.4838 0.0235821
39.8833 63.5168 0.0199494
41.7286 62.4238 0.0137739
42.4361 59.8532 0.0104599
35.5754 65.4091 2
40.6023 61.5487 2
37.8345 63.1751 2
40.4035 58.0483 2
38.8974 56.1918 3.99585
38.234 60.2404 3.98964
35.6082 63.1645 3.97536
33.5796 65.3096 0.0263847
31.9739 63.2472 0.00529006
33.6354 63.3041 2
30.4064 62.7662 2
32.1519 61.9316 2
28.735 62.0913 3.98749
33.361 61.4706 3.9909
31.1472 61.1324 4.00347
27.7067 59.449 3.97174
23.968 58.8672 3.97238
25.1352 60.6684 3.98511
26.9381 61.3563 2
26.2786 63.3862 3.97998
28.093 64.0795 2
27.4805 66.1558 3.97659
29.899 64.682 0.0190761
29.4163 66.7471 2
28.9129 68.9294 3.9799
31.3836 67.1818 0.0210041
31.0155 69.411 2
30.6191 71.7768 3.99026
33.1591 69.7438 0.0177348
32.8939 72.1459 2
32.6054 74.6784 4
35.1969 72.3707 0.00870412
35.0474 74.9197 2
37.5 75 0
33.7225 6.99717 3.97559
35.4363 4.69293 3.98481
35.62 6.73895 2
37.515 2.38908 3.99119
37.5226 4.62213 2
39.6236 4.72348 0.0150696
39.7883 2.47615 2
39.9526 0.0806499 4
42.0618 2.72052 0.0104456
42.3947 0.320817 2
44.8158 0.721173 0
42.5318 35.5536 3.54862
41.4695 34.5792 3.31581
45.482 40.1731 0.124403
48.3728 38.448 0.0382968
52.0158 36.6323 0.0229995
46.0436 37.7019 2
49.2976 35.6744 2
44.132 35.3185 2
42.0586 33.9482 2
41.1269 33.5827 2
46.3854 34.5907 3.91595
43.3143 33.3584 3.79912
41.4389 32.8993 3.56311
40.2731 33.3385 3.2611
37.3097 10.6544 3.98065
37.4581 8.55002 2
37.5136 6.68636 0.0188925
39.2072 8.71902 0.0143641
38.9738 10.1629 2
34.7587 10.4145 3.97458
35.9047 9.79989 2
32.3834 9.39972 3.97142
34.1519 8.8479 2
35.9426 8.51566 0.0244536
50.5193 33.1689 0.0255835
49.6975 29.7362 0.023253
49.5799 26.2758 0.0286836
49.2952 22.7062 0.0262812
47.2065 19.6983 0.0239406
45.6709 15.6175 -0.0072922
43.8071 11.974 0.0295871
40.556 11.6342 0.00968276
48.1506 31.7014 2
38.2973 12.7854 2
42.0471 14.4238 2
47.8865 28.0642 2
48.4454 24.8912 2
46.7099 22.5242 2
44.5917 18.7864 2
46.1668 30.1139 3.9763
46.149 25.5833 3.97767
43.9617 21.8097 3.98388
36.597 13.0011 3.98104
38.6598 14.9558 3.98211
41.6325 18.0821 3.99022
41.8231 37.4567 3.33999
42.7764 37.4921 2
44.1877 37.5101 0.187851
46.5602 57.1196 0.00677178
46.614 53.8949 0.0469162
46.6566 46.7378 0.00233291
46.6521 50.3043 0.0270351
42.4858 39.4169 0.455745
43.2629 41.6005 0.192716
43.535 43.933 0.162414
43.6671 46.725 0.0243487
41.4037 42.061 0.439295
41.4269 40.3654 0.669324
40.2592 41.6231 0.73623
45.0482 55.6801 2
41.7504 38.9831 2
40.1869 40.3336 2
45.0213 48.4102 2
44.8135 52.1094 2
42.5666 47.7266 2
42.4225 45.4537 2
42.4664 43.2514 2
40.6794 43.0027 2
39.0125 41.9896 2
43.3789 54.0728 4.00301
40.0807 38.9064 3.37975
38.9943 40.4549 3.35305
42.8723 49.8205 4.00453
41.2534 46.8334 3.90805
41.1519 44.4103 3.7647
39.3703 43.5842 3.54919
37.5069 42.1098 3.43303
43.7504 57.5049 0.00374441
41.977 56.0246 2
40.2913 54.5871 3.99705
35.5738 65.4007 0.0261376
37.8323 63.1694 0.0253777
40.6018 61.5601 0.0109348
40.4039 58.0354 0.0066165
35.6094 63.1702 2
38.2353 60.2225 2
38.8982 56.1799 2
37.9625 54.876 3.99645
36.9283 57.4481 3.99312
35.3643 60.8402 3.98427
33.6371 63.3009 0.00809275
30.4097 62.7785 0.0206695
32.1398 61.947 0.015666
33.3781 61.4652 2
28.726 62.1039 2
31.1409 61.1292 2
29.5272 60.2683 3.98472
32.3959 59.5942 3.99481
28.2003 58.1918 4.00827
27.7074 59.4606 2
25.5654 58.3924 3.9687
22.9915 58.0057 3.96336
23.5163 60.1461 3.96869
23.9676 58.8667 2
25.1316 60.6667 2
24.499 62.6486 3.96526
26.9445 61.3472 0.00958331
26.279 63.4019 2
25.5744 65.4323 3.97432
28.0922 64.0704 0.0116944
27.4756 66.1391 2
26.8454 68.3219 3.98149
29.4161 66.7331 0.0195828
28.9084 68.933 2
28.3755 71.2605 3.98711
31.0175 69.4096 0.0172541
30.6165 71.7764 2
30.1842 74.2788 4
32.8955 72.1447 0.00917595
32.6053 74.6792 2
35.0474 74.9194 0
31.7881 7.44089 3.97278
33.3491 4.93374 3.98238
33.7235 6.99674 2
35.2458 2.46518 3.99087
35.4343 4.69303 2
35.619 6.73929 0.0225706
37.5 0 4
37.5137 2.38902 2
37.5237 4.62273 0.0147644
39.7887 2.47658 0.00886381
39.9526 0.0802889 2
42.3946 0.32156 0
41.7194 35.9389 3.28199
42.6371 35.5436 2
40.1384 34.592 3.36775
41.5039 34.5717 2
45.9893 37.6803 0.174682
49.2449 35.6625 0.0212613
44.0179 35.3435 0.196842
41.9792 34.0263 0.45503
41.1057 33.5973 0.647605
46.4372 34.5822 2
43.3754 33.3108 2
41.4896 32.8082 2
40.3382 33.3251 2
44.6074 32.094 3.86956
42.4302 31.7451 3.75163
40.6405 32.0559 3.53938
39.0636 33.0282 3.35765
35.702 11.8211 3.97268
37.3167 10.6523 2
37.4579 8.55042 0.0214747
38.971 10.1592 0.00607937
33.1094 11.2675 3.97031
34.7631 10.4094 2
35.8992 9.80031 0.0184717
30.4937 10.064 3.97072
32.3816 9.40457 2
34.1533 8.84777 0.0242526
48.1317 31.726 0.0208367
47.8975 28.0657 0.024341
48.446 24.8765 0.0377725
46.7172 22.5309 0.0123029
44.5656 18.717 0.0116861
42.0403 14.4344 0.00161894
38.3017 12.7835 0.0200698
36.5901 13.0011 2
46.1413 30.0601 2
38.665 14.9286 2
41.5986 18.0465 2
46.1464 25.5718 2
43.9603 21.8077 2
44.3105 28.2963 3.98573
43.1482 24.4876 4.00531
41.0886 21.134 3.9958
35.7894 14.8341 3.99111
38.6114 17.8364 3.99312
40.1342 37.4052 3.41301
41.875 37.4668 2
42.6805 37.4915 0.46742
45.0525 55.6804 -0.00429147
44.8243 52.1091 0.00375858
45.0241 48.3827 -0.00504176
41.7103 38.978 0.657863
42.4048 43.2163 0.236736
42.355 45.3646 0.150584
42.5173 47.7008 0.0146023
40.6089 42.9041 0.467758
40.0813 40.3485 0.659042
39.0744 41.9373 0.644853
43.3743 54.0669 2
40.1499 38.9106 2
38.9412 40.4564 2
42.8506 49.8421 2
41.256 46.8609 2
41.1758 44.4664 2
37.4899 42.1275 2
39.3835 43.6856 2
41.5342 52.5282 4.00592
39.003 38.9664 3.3342
37.4993 40.4858 3.44363
35.9162 41.9604 3.35559
40.5415 49.0007 3.98641
39.5112 45.1219 3.73953
37.4943 43.9087 3.60184
41.9828 56.0363 0.00417856
40.2854 54.5877 2
38.6549 53.3364 3.99896
35.6082 63.1645 0.0246412
38.234 60.2404 0.010358
38.8974 56.1918 0.00415015
35.3768 60.8275 2
36.9336 57.4606 2
37.952 54.8708 2
36.3245 55.0021 3.9958
34.5079 58.3647 3.99492
33.361 61.4706 0.00910193
28.735 62.0913 0.012508
31.1472 61.1324 -0.00346982
32.3971 59.5807 2
29.526 60.2763 2
30.4346 57.5251 3.98306
28.1929 58.1768 2
27.235 56.6176 3.9623
27.7067 59.449 0.0282587
25.5659 58.3899 2
24.1893 56.5419 3.95428
21.7074 57.1218 3.96004
22.1396 59.4185 3.96747
22.9876 58.0078 2
22.8184 61.8507 3.96951
23.5154 60.1466 2
23.968 58.8672 0.027624
25.1352 60.6684 0.0148901
24.4979 62.6628 2
23.7169 64.6406 3.96294
26.2786 63.3862 0.0200199
25.5689 65.4247 2
24.8202 67.5832 3.97033
27.4805 66.1558 0.0234061
26.8404 68.3243 2
26.1712 70.603 3.98721
28.9129 68.9294 0.0201037
28.3714 71.2611 2
27.7943 73.7221 4
30.6191 71.7768 0.00973825
30.1841 74.2794 2
32.6054 74.6784 0
29.8116 8.0217 3.96952
31.2546 5.3426 3.98057
31.7884 7.43772 2
32.9821 2.70361 3.98986
33.3465 4.93361 2
33.7225 6.99717 0.024408
35.0474 0.080333 4
35.244 2.46538 2
35.4363 4.69293 0.0151935
37.5 0 2
37.515 2.38908 0.00880778
39.9526 0.0806499 0
40.2543 35.9759 3.43126
41.779 35.9353 2
42.5318 35.5536 0.451378
28.5581 10.7524 3.9697
38.9691 34.5318 3.32979
40.1488 34.5809 2
41.4695 34.5792 0.684191
46.3854 34.5907 0.0840521
43.3143 33.3584 0.200879
41.4389 32.8993 0.436893
40.2731 33.3385 0.738905
44.6289 32.0586 2
42.5001 31.7009 2
40.7078 31.9597 2
39.0186 32.9772 2
43.1675 30.4195 3.85159
41.1692 30.5215 3.76667
39.3635 31.3761 3.55324
37.4934 32.8803 3.42986
34.1126 12.9935 3.98316
35.7048 11.813 2
37.3097 10.6544 0.0193483
31.2054 12.0536 3.97174
33.1128 11.258 2
34.7587 10.4145 0.0254226
30.4891 10.06 2
32.3834 9.39972 0.0285831
46.1668 30.1139 0.0236968
46.149 25.5833 0.0223327
36.597 13.0011 0.0189624
43.9617 21.8097 0.0161229
41.6325 18.0821 0.00977733
38.6598 14.9558 0.0178938
35.7717 14.8591 2
44.3037 28.31 2
38.6162 17.8394 2
41.1171 21.1196 2
43.1367 24.47 2
33.6546 15.9777 3.99237
42.2837 27.0653 3.96833
40.6816 23.9092 4.00362
38.346 20.673 3.99661
35.8383 17.7463 3.99078
38.9945 37.4855 3.30103
40.1768 37.4142 2
41.8231 37.4567 0.660013
43.3789 54.0728 -0.00300952
42.8723 49.8205 -0.00453078
40.0807 38.9064 0.620253
41.1519 44.4103 0.235296
41.2534 46.8334 0.0919527
39.3703 43.5842 0.450813
38.9943 40.4549 0.646951
37.5069 42.1098 0.566971
41.5201 52.5191 2
38.9619 38.9654 2
37.4768 40.4951 2
40.5302 49.0061 2
35.9687 42.0074 2
39.5478 45.2012 2
37.4864 43.9959 2
39.6461 51.2525 3.99811
37.4898 38.963 3.40401
36.059 40.4789 3.34019
34.7483 41.6524 3.2573
35.6256 43.6053 3.5481
38.5486 47.8139 3.91496
37.4721 45.4106 3.77166
40.2913 54.5871 0.00295403
38.6419 53.348 2
36.7843 52.6746 3.99955
35.3643 60.8402 0.0157255
36.9283 57.4481 0.00687904
37.9625 54.876 0.00354777
34.5059 58.371 2
36.3271 55.0015 2
33.4529 55.1805 4.00579
32.3959 59.5942 0.00518927
29.5272 60.2683 0.0152831
30.4354 57.5213 2
29.0938 55.1358 3.98424
28.2003 58.1918 -0.00827315
27.2381 56.6134 2
25.7912 54.8592 3.95384
22.3803 55.0102 3.95896
25.5654 58.3924 0.0312995
24.1871 56.5421 2
20.5983 56.7551 3.96139
20.8478 58.5603 3.95705
21.707 57.1247 2
21.263 60.9797 3.9647
22.1354 59.4236 2
22.9915 58.0057 0.0366359
21.9426 63.7238 3.96685
22.8159 61.8558 2
23.5163 60.1461 0.0313125
24.499 62.6486 0.0347381
23.7099 64.6396 2
22.8512 66.71 3.96762
25.5744 65.4323 0.0256754
24.8154 67.5766 2
24.015 69.8046 3.98531
26.8454 68.3219 0.0185111
26.1651 70.6018 2
25.446 73.0099 4
28.3755 71.2605 0.012886
27.7943 73.7222 2
30.1842 74.2788 0
27.8235 8.70051 3.97068
29.1567 5.88887 3.97846
29.8114 8.02109 2
30.7281 3.10123 3.98873
31.2515 5.34188 2
31.7881 7.44089 0.0272245
32.6053 0.320823 4
32.9797 2.70394 2
33.3491 4.93374 0.0176231
35.0474 0.0802903 2
35.2458 2.46518 0.00912916
37.5 0 0
38.8579 36.0204 3.31653
40.2258 35.9774 2
41.7194 35.9389 0.718012
28.5557 10.7535 2
26.6439 11.4608 3.97106
29.2532 12.7003 3.97578
37.5047 34.5118 3.44307
38.9782 34.5382 2
40.1384 34.592 0.632254
44.6074 32.094 0.130445
42.4302 31.7451 0.248375
40.6405 32.0559 0.460622
39.0636 33.0282 0.642346
43.2355 30.366 2
41.2179 30.4587 2
39.3775 31.2723 2
37.5092 32.8586 2
41.5766 29.1662 3.8455
39.5348 29.8485 3.76028
37.4918 31.0634 3.60543
35.9224 33.0452 3.36204
31.9609 14.5616 3.98448
34.1137 12.9878 2
35.702 11.8211 0.0273153
31.2048 12.0435 2
33.1094 11.2675 0.0296866
30.4937 10.064 0.0292771
44.3105 28.2963 0.0142731
43.1482 24.4876 -0.00530567
35.7894 14.8341 0.0088894
41.0886 21.134 0.00420155
38.6114 17.8364 0.00687887
33.6344 15.9566 2
35.8439 17.6545 2
42.3381 27.0186 2
38.3047 20.7323 2
40.6491 23.9328 2
33.5944 17.5556 3.99016
40.1004 26.4249 3.95674
37.9817 23.6855 3.99606
35.5444 20.5503 3.99263
37.5303 37.4837 3.42731
38.9463 37.4883 2
40.1342 37.4052 0.586994
41.5342 52.5282 -0.00592114
40.5415 49.0007 0.0135897
39.003 38.9664 0.665796
39.5112 45.1219 0.260465
37.4943 43.9087 0.398158
37.4993 40.4858 0.556367
35.9162 41.9604 0.644406
39.6308 51.2392 2
37.468 38.9738 2
36.0387 40.45 2
38.578 47.8849 2
34.668 41.6691 2
35.6043 43.7111 2
37.4905 45.4901 2
37.6864 50.2275 3.9888
36.1531 39.0025 3.32689
34.8693 40.3778 3.37064
33.9195 41.3972 3.35107
34.3938 42.9361 3.53001
35.4397 45.2044 3.77037
36.959 47.4486 3.86451
38.6549 53.3364 0.00104199
36.813 52.6114 2
34.5665 52.0391 3.99833
34.5079 58.3647 0.00507662
36.3245 55.0021 0.00420358
33.458 55.1789 2
30.9842 53.1436 3.99435
30.4346 57.5251 0.016944
29.1007 55.1368 2
27.4926 53.1237 3.95149
27.235 56.6176 0.0376951
25.8052 54.8561 2
24.3008 53.0927 3.95292
21.3295 52.8094 3.95873
20.4832 55.5111 3.95963
22.384 55.0104 2
24.1893 56.5419 0.0457218
19.7369 57.6491 3.96073
20.5925 56.759 2
19.808 60.0328 3.96767
20.8359 58.5675 2
21.7074 57.1218 0.0399646
20.2732 62.6929 3.9698
21.2691 60.9912 2
22.1396 59.4185 0.0325277
20.9596 65.7036 3.96416
21.9387 63.7141 2
22.8184 61.8507 0.0304906
23.7169 64.6406 0.0370574
22.8475 66.6998 2
21.9189 68.8678 3.98025
24.8202 67.5832 0.0296718
24.0095 69.8001 2
23.1494 72.1454 4
26.1712 70.603 0.0127871
25.446 73.0099 2
27.7943 73.7221 0
25.8647 9.44457 3.96965
27.0717 6.55532 3.97458
27.8229 8.688 2
28.4908 3.64653 3.98799
29.1535 5.88877 2
29.8116 8.0217 0.030483
30.1841 0.720592 4
30.7244 3.10138 2
31.2546 5.3426 0.019434
32.6053 0.320817 2
32.9821 2.70361 0.0101427
35.0474 0.080333 0
37.522 36.0036 3.39084
38.8296 35.9731 2
40.2543 35.9759 0.568742
24.811 12.142 3.96529
23.8218 14.584 3.98124
28.5581 10.7524 0.0302982
26.6393 11.4605 2
29.2473 12.7311 2
27.3197 13.4969 3.97507
29.8385 14.2557 4.0054
36.0054 34.5299 3.36126
37.5413 34.4906 2
38.9691 34.5318 0.67021
37.4934 32.8803 0.570142
43.1675 30.4195 0.14841
41.1692 30.5215 0.23333
39.3635 31.3761 0.446762
41.6058 29.0843 2
39.5399 29.762 2
37.4945 30.9791 2
35.9742 32.9937 2
39.7005 28.4568 3.83808
37.4748 29.5276 3.75437
35.6273 31.3999 3.55127
34.7189 33.362 3.26902
31.0215 16.925 3.99634
31.9518 14.5344 2
34.1126 12.9935 0.016836
31.2054 12.0536 0.0282557
42.2837 27.0653 0.0316658
40.6816 23.9092 -0.00361946
33.6546 15.9777 0.00763229
35.8383 17.7463 0.00922228
38.346 20.673 0.0033872
33.5465 17.5855 2
35.4788 20.5968 2
40.1127 26.4176 2
38.0469 23.6802 2
33.0459 20.1419 3.99618
37.7688 26.0959 3.95395
35.4363 23.3053 4.00399
36.0936 37.4832 3.31047
37.495 37.4816 2
38.9945 37.4855 0.698967
39.6461 51.2525 0.00189363
38.5486 47.8139 0.0850444
37.4898 38.963 0.595986
37.4721 45.4106 0.228337
35.6256 43.6053 0.451897
36.059 40.4789 0.659814
34.7483 41.6524 0.742701
37.6227 50.2652 2
36.2131 38.9825 2
34.8309 40.4002 2
36.9284 47.5242 2
33.8732 41.4118 2
34.3237 43.0294 2
35.4066 45.271 2
35.608 49.4076 3.98069
34.801 38.9686 3.42855
33.5444 40.4154 3.31532
33.5885 42.0976 3.56037
33.8795 44.4479 3.7559
34.7634 46.6151 3.84497
36.7843 52.6746 0.000449117
34.5545 52.0576 2
32.5282 50.7738 4.00513
33.4529 55.1805 -0.00579495
30.9902 53.1398 2
29.1179 51.1218 3.98401
29.0938 55.1358 0.0157564
27.5007 53.116 2
25.9292 51.2953 3.95678
25.7912 54.8592 0.0461579
24.3086 53.094 2
22.9338 51.3504 3.95408
20.2491 51.1839 3.96588
19.6745 53.9378 3.96153
21.3262 52.809 2
18.9241 56.4368 3.96131
20.4789 55.5137 2
22.3803 55.0102 0.0410385
18.5555 58.9158 3.95362
19.7365 57.6503 2
20.5983 56.7551 0.0386109
18.6789 61.6469 3.97714
19.8186 60.0323 2
20.8478 58.5603 0.0429484
19.1559 64.5847 3.96612
20.2702 62.6978 2
21.263 60.9797 0.0353022
19.893 67.8064 3.97826
20.9499 65.7085 2
21.9426 63.7238 0.0331519
22.8512 66.71 0.0323751
21.9131 68.8638 2
20.9142 71.1327 4
24.015 69.8046 0.014694
23.1494 72.1455 2
25.446 73.0099 0
23.1325 12.9661 3.96905
23.9867 10.218 3.96772
25.0267 7.33059 3.97041
25.866 9.43687 2
26.283 4.33151 3.98618
27.068 6.55724 2
27.8235 8.70051 0.0293166
27.7943 1.27781 4
28.4857 3.6483 2
29.1567 5.88887 0.021538
30.1841 0.720551 2
30.7281 3.10123 0.0112676
32.6053 0.320823 0
36.0299 36.0122 3.33831
37.574 36.019 2
38.8579 36.0204 0.683471
24.7927 12.1968 2
23.8184 14.5974 2
22.5886 15.2456 3.97635
25.4027 14.1073 3.97082
24.1577 15.8379 4.00135
26.6439 11.4608 0.0289427
29.2532 12.7003 0.0242155
27.3284 13.4681 2
29.8259 14.2828 2
28.4705 16.0101 3.9908
34.8933 34.6279 3.35209
36.0674 34.5316 2
37.5047 34.5118 0.556929
35.9224 33.0452 0.63796
37.4918 31.0634 0.394567
41.5766 29.1662 0.154498
39.5348 29.8485 0.239721
39.7576 28.3934 2
37.4749 29.4829 2
35.6117 31.3013 2
34.6335 33.3423 2
37.5883 28.1459 3.83347
35.4762 29.8585 3.75302
34.3671 32.0772 3.53374
33.9049 33.6242 3.35301
30.404 19.7854 3.98481
30.9765 16.9345 2
31.9609 14.5616 0.0155156
40.1004 26.4249 0.0432648
37.9817 23.6855 0.0039375
33.5944 17.5556 0.00984089
35.5444 20.5503 0.00736671
33.0339 20.1565 2
35.3645 23.2851 2
37.731 26.0719 2
32.708 22.9246 4.00731
35.2706 25.9483 3.97427
34.8174 37.5204 3.44134
36.083 37.509 2
37.5303 37.4837 0.572688
37.6864 50.2275 0.011201
36.959 47.4486 0.135495
36.1531 39.0025 0.673112
35.4397 45.2044 0.229634
34.3938 42.9361 0.469986
34.8693 40.3778 0.629361
33.9195 41.3972 0.648932
35.6135 49.4165 2
34.772 38.9839 2
33.5068 40.4084 2
34.7141 46.6937 2
33.5232 42.191 2
33.8276 44.5084 2
33.7356 48.5147 3.96772
33.2757 39.0401 3.28264
33.0337 40.9678 3.54427
32.5838 43.254 3.76032
33.1406 45.5988 3.83901
34.5665 52.0391 0.00167182
32.5452 50.7627 2
30.7434 49.2533 4.00383
30.9842 53.1436 0.00564882
29.1271 51.1104 2
27.5025 49.4758 3.97987
27.4926 53.1237 0.048515
25.9393 51.295 2
24.4266 49.688 3.97057
24.3008 53.0927 0.0470763
22.936 51.3474 2
21.6467 49.8163 3.96673
18.9342 49.9228 3.97372
18.7229 52.3967 3.96754
20.2465 51.1827 2
18.0824 55.0151 3.96284
19.6678 53.9387 2
21.3295 52.8094 0.0412731
17.4886 57.6386 3.9596
18.9226 56.438 2
20.4832 55.5111 0.0403668
17.2431 60.4147 3.94868
18.5654 58.9161 2
19.7369 57.6491 0.0392744
17.4186 63.3999 3.96885
18.6776 61.6363 2
19.808 60.0328 0.032335
17.952 66.6076 3.96887
19.1424 64.5825 2
20.2732 62.6929 0.0301962
18.75 69.9759 4
19.8878 67.8003 2
20.9596 65.7036 0.035842
21.9189 68.8678 0.0197474
20.9142 71.1327 2
23.1494 72.1454 0
21.6467 13.7794 3.96862
22.2115 11.1202 3.96337
23.1308 12.9593 2
23.046 8.20802 3.97008
23.9809 10.2482 2
24.1211 5.14592 3.98544
25.0211 7.33012 2
25.8647 9.44457 0.0303493
25.446 1.99014 4
26.277 4.33362 2
27.0717 6.55532 0.0254197
27.7943 1.27778 2
28.4908 3.64653 0.0120078
30.1841 0.720592 0
34.8942 36.0497 3.38897
36.0776 36.0118 2
37.522 36.0036 0.609158
21.4686 16.0519 3.95782
24.811 12.142 0.0347069
23.8218 14.584 0.018762
25.4019 14.0717 2
22.5895 15.239 2
24.1611 15.8575 2
23.454 16.4654 3.96632
25.5076 16.3506 3.98837
27.3197 13.4969 0.0249254
29.8385 14.2557 -0.00539901
28.4562 16.0812 2
27.666 19.1809 3.98907
33.5364 34.6111 3.33596
34.7966 34.6417 2
36.0054 34.5299 0.638744
34.7189 33.362 0.730976
35.6273 31.3999 0.448731
37.4748 29.5276 0.24563
39.7005 28.4568 0.161922
37.5517 28.1125 2
33.862 33.6129 2
35.4598 29.7835 2
34.306 31.9804 2
35.3562 28.2434 3.85748
33.8447 30.5539 3.76566
33.5593 32.9132 3.56414
30.0595 22.4233 4.01127
30.3691 19.8157 2
31.0215 16.925 0.00366113
37.7688 26.0959 0.0460465
35.4363 23.3053 -0.00398785
33.0459 20.1419 0.00381814
32.7223 22.8866 2
35.2767 25.9384 2
32.4229 26.2618 4.0225
33.1521 37.5112 3.32502
34.8005 37.5167 2
36.0936 37.4832 0.689529
35.608 49.4076 0.0193132
34.7634 46.6151 0.155034
34.801 38.9686 0.571452
33.8795 44.4479 0.244097
33.5885 42.0976 0.439629
33.5444 40.4154 0.68468
33.6836 48.5171 2
33.256 39.0455 2
32.9529 41.0477 2
33.1224 45.6707 2
32.5285 43.279 2
32.1154 47.2804 3.97937
32.4782 39.4393 3.55281
31.6992 41.6396 3.80142
31.7157 44.3012 3.83702
32.5282 50.7738 -0.0051297
30.7577 49.2677 2
29.0578 47.6848 3.97661
29.1179 51.1218 0.0159854
27.51 49.4744 2
25.9195 47.9176 3.97698
25.9292 51.2953 0.043218
24.431 49.6861 2
22.975 48.2454 3.97323
22.9338 51.3504 0.0459163
21.6469 49.8136 2
20.1257 48.66 3.97483
17.8097 48.9829 3.9756
17.5868 51.0489 3.97297
18.9361 49.922 2
17.095 53.5417 3.96872
18.7235 52.3953 2
20.2491 51.1839 0.0341235
16.458 56.2164 3.96417
18.0788 55.0163 2
19.6745 53.9378 0.0384732
15.9073 59.0578 3.95647
17.4949 57.6392 2
18.9241 56.4368 0.0386859
15.7998 62.0491 3.9678
17.2293 60.4225 2
18.5555 58.9158 0.0463839
16.0984 65.2977 3.97155
17.4197 63.4124 2
18.6789 61.6469 0.0228649
16.6661 68.6801 4
17.9449 66.6027 2
19.1559 64.5847 0.0338822
18.75 69.9759 2
19.893 67.8064 0.021736
20.9142 71.1327 0
20.3127 14.7818 3.9566
21.6467 13.7771 2
20.5657 12.1426 3.96913
21.1527 9.19192 3.97132
22.2007 11.1403 2
23.1325 12.9661 0.0309503
22.0225 6.08584 3.98518
23.0406 8.21595 2
23.9867 10.218 0.0322764
23.1494 2.85457 4
24.1146 5.151 2
25.0267 7.33059 0.0295888
25.446 1.99012 2
26.283 4.33151 0.0138212
27.7943 1.27781 0
33.2559 35.9921 3.33873
34.8235 36.0517 2
36.0299 36.0122 0.661692
21.4801 16.0575 2
20.5673 17.2369 3.96146
22.3074 16.8642 3.96669
25.4027 14.1073 0.0291776
22.5886 15.2456 0.023645
24.1577 15.8379 -0.00135017
25.5105 16.3452 2
23.4575 16.471 2
24.4657 18.8198 3.97896
27.5348 21.9858 3.99008
28.4705 16.0101 0.00919691
27.6441 19.1697 2
33.0144 34.0256 3.5453
33.5024 34.6137 2
34.8933 34.6279 0.647911
33.9049 33.6242 0.646992
34.3671 32.0772 0.466264
35.4762 29.8585 0.246983
37.5883 28.1459 0.166528
35.3376 28.1959 2
33.5094 32.8221 2
33.7956 30.4814 2
33.3192 28.8965 3.86745
32.5849 31.7518 3.75618
29.5966 24.9231 4.01233
30.0707 22.3832 2
30.404 19.7854 0.0151941
35.2706 25.9483 0.0257285
32.708 22.9246 -0.00730656
32.4032 26.2207 2
30.7271 27.897 3.98959
32.3205 37.4916 3.531
33.1187 37.5128 2
34.8174 37.5204 0.558655
33.7356 48.5147 0.0322794
33.1406 45.5988 0.160988
33.2757 39.0401 0.717364
32.5838 43.254 0.239682
33.0337 40.9678 0.455729
32.074 47.3141 2
32.3866 39.4415 2
31.6312 41.6906 2
31.6347 44.3681 2
30.5243 45.9101 3.97301
30.9897 39.6553 3.80662
30.4028 42.6639 3.86342
30.7434 49.2533 -0.00383159
29.0648 47.6945 2
27.4029 46.1242 3.98588
27.5025 49.4758 0.020133
25.9253 47.9156 2
24.3062 46.5223 3.97587
24.4266 49.688 0.0294285
22.9755 48.2433 2
21.2339 47.1694 3.97491
21.6467 49.8163 0.0332661
20.125 48.6597 2
18.7199 47.8042 3.97549
17.0512 48.3605 3.97507
17.8098 48.9837 2
16.6399 49.8563 3.97459
16.0418 52.1175 3.97319
17.5885 51.0475 2
18.9342 49.9228 0.0262774
15.3809 54.7267 3.96986
17.0969 53.541 2
18.7229 52.3967 0.0324562
14.7126 57.5798 3.96209
16.4607 56.2164 2
18.0824 55.0151 0.0371601
14.2915 60.6317 3.95368
15.9009 59.0608 2
17.4886 57.6386 0.0404
14.3407 63.8521 3.96425
15.8065 62.0559 2
17.2431 60.4147 0.0513206
14.6715 67.2507 4
16.0924 65.2866 2
17.4186 63.3999 0.0311463
16.6661 68.6801 2
17.952 66.6076 0.0311336
18.75 69.9759 0
19.1008 16.0059 3.95738
20.323 14.7697 2
19.0251 13.2766 3.96518
21.6467 13.7794 0.0313773
20.5513 12.1384 2
19.3607 10.3031 3.9696
19.998 7.1483 3.97954
21.1455 9.19309 2
22.2115 11.1202 0.0366288
20.9142 3.86727 4
22.0124 6.08706 2
23.046 8.20802 0.0299237
23.1494 2.85451 2
24.1211 5.14592 0.0145562
25.446 1.99014 0
32.4907 35.5525 3.53727
33.2228 35.9876 2
34.8942 36.0497 0.611032
21.4686 16.0519 0.0421751
22.3222 16.8729 2
20.5832 17.2349 2
19.6472 18.7273 3.96631
22.0382 18.2172 3.97975
25.5076 16.3506 0.0116262
23.454 16.4654 0.0336769
24.4835 18.833 2
22.7979 20.2861 3.96834
25.1555 21.8311 3.98595
27.2606 24.1571 3.97293
27.5597 21.9008 2
27.666 19.1809 0.0109252
31.682 33.3685 3.79919
32.9505 33.9735 2
33.5364 34.6111 0.664037
33.5593 32.9132 0.43586
33.8447 30.5539 0.234337
35.3562 28.2434 0.142519
33.2734 28.8398 2
32.4953 31.6828 2
31.4158 30.2338 3.88506
29.0273 27.0902 4.01445
29.5978 24.8993 2
30.0595 22.4233 -0.0112676
32.4229 26.2618 -0.0224966
30.7274 27.9047 2
30.8065 37.4814 3.81128
32.2052 37.4927 2
33.1521 37.5112 0.674978
32.1154 47.2804 0.0206313
31.7157 44.3012 0.16298
32.4782 39.4393 0.447188
31.6992 41.6396 0.198583
30.5397 45.9271 2
30.8915 39.6751 2
30.3741 42.6957 2
28.9242 44.3272 3.95518
28.7532 40.3108 3.90823
29.0578 47.6848 0.0233937
27.4069 46.1263 2
25.6717 44.6758 3.97819
25.9195 47.9176 0.0230166
24.3078 46.5225 2
22.3499 45.4962 3.97604
22.975 48.2454 0.0267745
21.2348 47.1694 2
19.5197 46.3747 3.97486
20.1257 48.66 0.0251729
18.7206 47.805 2
17.3206 47.3964 3.9747
17.0529 48.3614 2
16.0141 48.7239 3.97458
17.8097 48.9829 0.024396
16.6416 49.8558 2
15.1453 50.7204 3.9738
14.3248 53.2091 3.97317
16.0426 52.1169 2
17.5868 51.0489 0.0270307
13.5701 56.0081 3.96334
15.3818 54.7267 2
17.095 53.5417 0.0312798
12.9292 59.0594 3.95163
14.7138 57.5802 2
16.458 56.2164 0.035833
12.6868 62.2937 3.96439
14.2976 60.6378 2
15.9073 59.0578 0.0435304
12.7746 65.6939 4
14.3368 63.8426 2
15.7998 62.0491 0.0322034
14.6714 67.2507 2
16.0984 65.2977 0.0284474
16.6661 68.6801 0
17.9921 17.4157 3.96
19.1249 15.9998 2
17.5806 14.5267 3.9544
20.3127 14.7818 0.0434039
19.0174 13.2395 2
17.6699 11.5652 3.96871
20.5657 12.1426 0.0308734
19.3504 10.3228 2
18.0582 8.34445 3.97357
18.75 5.0241 4
19.9878 7.15965 2
21.1527 9.19192 0.0286832
20.9142 3.86727 2
22.0225 6.08584 0.0148203
23.1494 2.85457 0
30.9884 35.3484 3.80088
32.3883 35.5442 2
33.2559 35.9921 0.661267
22.3074 16.8642 0.0333056
20.5673 17.2369 0.0385407
22.0661 18.2081 2
19.6528 18.7234 2
18.5945 20.3025 3.96871
21.3707 19.7585 3.97519
24.4657 18.8198 0.0210406
22.8088 20.2849 2
25.1757 21.7916 2
23.0952 22.1749 3.9733
25.584 23.4852 3.96792
26.6728 26.4617 3.98575
27.2611 24.1697 2
27.5348 21.9858 0.00992028
30.1268 32.7935 3.85971
31.612 33.3172 2
33.0144 34.0256 0.454699
32.5849 31.7518 0.243823
33.3192 28.8965 0.132545
31.3922 30.1882 2
28.5301 29.7006 4.00232
29.0175 27.1167 2
29.5966 24.9231 -0.0123318
30.7271 27.897 0.0104105
29.0919 37.4496 3.82815
30.6824 37.4983 2
32.3205 37.4916 0.468996
30.5243 45.9101 0.0269928
30.4028 42.6639 0.136576
30.9897 39.6553 0.193381
28.9322 44.3819 2
28.7067 40.3458 2
27.1231 42.8634 3.9832
26.1157 39.3331 3.97723
27.4029 46.1242 0.0141216
25.6646 44.6836 2
23.6344 43.5628 3.97445
24.3062 46.5223 0.0241341
22.3494 45.4957 2
20.374 44.6316 3.97447
21.2339 47.1694 0.0250924
19.52 46.375 2
17.7135 45.9117 3.97487
18.7199 47.8042 0.024515
17.3211 47.3969 2
15.7932 47.4065 3.97459
17.0512 48.3605 0.0249292
16.016 48.7242 2
14.4714 49.3046 3.97423
16.6399 49.8563 0.0254109
15.1462 50.7198 2
13.394 51.6701 3.97363
12.456 54.3852 3.96748
14.3258 53.2088 2
16.0418 52.1175 0.0268137
11.6555 57.395 3.95701
13.5651 56.0096 2
15.3809 54.7267 0.0301406
11.1419 60.6197 3.9627
12.9272 59.0609 2
14.7126 57.5798 0.037911
10.9835 64.0165 4
12.6843 62.2841 2
14.2915 60.6317 0.0463191
12.7745 65.694 2
14.3407 63.8521 0.0357476
14.6715 67.2507 0
16.8574 18.9332 3.96315
18.0027 17.4115 2
16.2856 15.9578 3.95744
19.1008 16.0059 0.0426166
17.5875 14.5251 2
16.0353 12.8849 3.95859
19.0251 13.2766 0.0348202
17.6483 11.5508 2
16.2105 9.67049 3.96662
19.3607 10.3031 0.030399
18.0493 8.35505 2
16.6661 6.31991 4
18.75 5.02404 2
19.998 7.1483 0.0204635
20.9142 3.86727 0
29.3918 34.9937 3.87551
30.862 35.3218 2
32.4907 35.5525 0.462732
17.3298 21.724 3.97163
22.0382 18.2172 0.0202491
19.6472 18.7273 0.0336924
21.3793 19.755 2
18.5869 20.2957 2
20.5136 22.0133 3.97381
22.7979 20.2861 0.0316593
25.1555 21.8311 0.0140519
23.0992 22.1729 2
25.5721 23.532 2
23.9876 25.1176 3.97209
26.1077 29.0843 3.98347
26.6699 26.4869 2
27.2606 24.1571 0.0270723
28.0196 32.1359 3.97294
30.0767 32.7688 2
31.682 33.3685 0.200812
31.4158 30.2338 0.11494
28.5329 29.657 2
29.0273 27.0902 -0.014446
26.8715 36.9006 3.9532
29.0274 37.4012 2
30.8065 37.4814 0.188718
28.9242 44.3272 0.0448192
28.7532 40.3108 0.0917659
27.0994 42.9013 2
26.0607 39.319 2
24.9144 41.5502 3.97473
23.8128 38.5007 3.97495
25.6717 44.6758 0.0218082
23.6331 43.5697 2
21.3077 42.6132 3.97448
22.3499 45.4962 0.0239601
20.3761 44.6323 2
18.15 44.1178 3.97508
19.5197 46.3747 0.0251414
17.7142 45.9121 2
15.7666 45.8519 3.975
17.3206 47.3964 0.025299
15.7934 47.4067 2
14.005 47.7961 3.97446
16.0141 48.7239 0.0254171
14.4721 49.3046 2
12.6358 50.0679 3.97417
15.1453 50.7204 0.0262014
13.3947 51.6698 2
11.4489 52.7117 3.97106
10.4603 55.6535 3.95961
12.4525 54.386 2
14.3248 53.2091 0.0268321
9.70915 58.8451 3.9643
11.6586 57.3951 2
13.5701 56.0081 0.0366616
9.30605 62.2254 4
11.1405 60.6124 2
12.9292 59.0594 0.0483709
10.9835 64.0165 2
12.6868 62.2937 0.0356112
12.7746 65.6939 0
15.6278 20.4526 3.96906
16.865 18.9298 2
15.0227 17.4895 3.9605
17.9921 17.4157 0.0400039
16.2586 15.9463 2
14.4992 14.3714 3.9548
17.5806 14.5267 0.0456
16.044 12.8866 2
14.453 11.1214 3.96771
17.6699 11.5652 0.0312873
16.2035 9.68525 2
14.6715 7.74927 4
18.0582 8.34445 0.0264311
16.6661 6.31988 2
18.75 5.0241 0
27.3425 34.5174 3.97498
29.3382 35.0033 2
30.9884 35.3484 0.199115
18.6501 22.7315 3.97425
16.216 23.2471 3.97234
17.3306 21.72 2
21.3707 19.7585 0.0248125
18.5945 20.3025 0.0312858
20.5212 22.0124 2
20.7152 24.8805 3.97213
23.0952 22.1749 0.0267036
25.584 23.4852 0.0320758
23.9898 25.1144 2
23.4872 28.381 3.97036
25.6038 31.5938 3.98255
26.1206 28.9815 2
26.6728 26.4617 0.0142524
27.9842 32.1117 2
30.1268 32.7935 0.140287
28.5301 29.7006 -0.00232388
24.5421 36.3634 3.97834
26.8062 36.9081 2
29.0919 37.4496 0.171847
27.1231 42.8634 0.0167957
26.1157 39.3331 0.0227718
24.8806 41.5609 2
23.8036 38.5067 2
22.519 40.459 3.97536
21.8013 37.7871 3.9782
23.6344 43.5628 0.0255488
21.3087 42.6112 2
18.6606 41.9133 3.97565
20.374 44.6316 0.0255345
18.1504 44.1176 2
15.8215 44.0025 3.97517
17.7135 45.9117 0.0251346
15.7664 45.8521 2
13.7009 46.1127 3.97477
15.7932 47.4065 0.0254088
14.0046 47.7961 2
12.024 48.3898 3.97483
14.4714 49.3046 0.0257748
12.6365 50.0675 2
10.5829 50.968 3.9734
13.394 51.6701 0.0263669
11.4491 52.7113 2
9.35884 53.8419 3.962
8.39182 56.9811 3.96697
10.4637 55.6523 2
12.456 54.3852 0.0325176
7.74927 60.3285 4
9.70803 58.8389 2
11.6555 57.395 0.0429853
9.306 62.2255 2
11.1419 60.6197 0.0372963
10.9835 64.0165 0
14.4609 21.9993 3.97245
15.6307 20.4484 2
13.741 19.0699 3.9643
16.8574 18.9332 0.0368533
15.0084 17.4802 2
13.0545 15.9446 3.95446
16.2856 15.9578 0.042561
14.5188 14.3613 2
12.7891 12.695 3.96578
16.0353 12.8849 0.0414145
14.4474 11.1353 2
12.7746 9.30605 4
16.2105 9.67049 0.0333823
14.6715 7.74924 2
16.6661 6.31991 0
25.0144 34.0254 3.97981
27.3167 34.4617 2
29.3918 34.9937 0.12449
18.5467 24.4648 3.97196
18.6577 22.7308 2
15.0295 24.7178 3.97354
16.2148 23.2445 2
17.3298 21.724 0.0283653
20.2688 27.6355 3.97266
20.5136 22.0133 0.0261902
20.7187 24.8806 2
22.8594 31.0552 3.97379
23.9876 25.1176 0.0279119
23.4814 28.3882 2
25.5454 31.6746 2
26.1077 29.0843 0.0165258
28.0196 32.1359 0.0270551
21.8824 36.0235 3.97753
24.5237 36.3783 2
26.8715 36.9006 0.0468043
24.9144 41.5502 0.0252681
23.8128 38.5007 0.0250466
22.5259 40.4611 2
21.7981 37.7869 2
19.4737 38.949 3.97705
21.3077 42.6132 0.0255233
18.6613 41.9131 2
15.8165 41.7924 3.97584
18.15 44.1178 0.0249207
15.8212 44.0022 2
13.462 44.2467 3.97513
15.7666 45.8519 0.0249979
13.7 46.1128 2
11.5324 46.5996 3.97491
14.005 47.7961 0.0255374
12.0246 48.3894 2
9.86074 49.1389 3.97519
12.6358 50.0679 0.0258314
10.5838 50.9672 2
8.38817 51.9619 3.96342
11.4489 52.7117 0.028943
9.35754 53.841 2
7.20039 55.0329 3.96807
6.31991 58.3339 4
8.39062 56.9755 2
10.4603 55.6535 0.040391
7.74924 60.3285 2
9.70915 58.8451 0.0357007
9.30605 62.2254 0
13.8528 25.5931 3.97564
13.3546 23.4988 3.97336
14.4621 21.9956 2
12.5545 20.7032 3.96804
15.6278 20.4526 0.0309359
13.7287 19.0624 2
11.7647 17.6279 3.95388
15.0227 17.4895 0.039505
13.0861 15.9457 2
11.2281 14.3826 3.96242
14.4992 14.3714 0.0451981
12.788 12.7077 2
10.9835 10.9835 4
14.453 11.1214 0.032293
12.7745 9.306 2
14.6715 7.74927 0
22.2407 33.6413 3.97709
25.013 33.969 2
27.3425 34.5174 0.0250168
16.8368 26.7141 3.97372
18.5481 24.465 2
18.6501 22.7315 0.0257461
15.0266 24.7183 2
16.216 23.2471 0.0276583
19.6603 30.4931 3.97487
20.2713 27.6337 2
20.7152 24.8805 0.0278745
22.8735 31.0431 2
23.4872 28.381 0.0296352
25.6038 31.5938 0.0174524
19.0391 36.0455 3.97722
21.8813 36.0189 2
24.5421 36.3634 0.0216642
22.519 40.459 0.024636
21.8013 37.7871 0.0217992
19.4724 38.9495 2
15.2947 39.1363 3.97682
18.6606 41.9133 0.0243499
15.8165 41.7922 2
13.1509 42.1811 3.9758
15.8215 44.0025 0.0248286
13.4613 44.2467 2
11.1111 44.6984 3.97531
13.7009 46.1127 0.0252281
11.5326 46.5994 2
9.24868 47.231 3.97587
12.024 48.3898 0.025166
9.86281 49.1378 2
7.5483 50.0017 3.96482
10.5829 50.968 0.0265998
8.38648 51.9609 2
6.14023 53.0082 3.969
9.35884 53.8419 0.0379971
7.19994 55.0282 2
5.0241 56.25 4
6.31988 58.3339 2
8.39182 56.9811 0.0330287
7.74927 60.3285 0
14.1632 27.0342 3.97449
12.4457 24.9713 3.97489
13.8516 25.5931 2
11.4676 22.3707 3.97229
13.3518 23.4972 2
14.4609 21.9993 0.0275473
12.5485 20.6984 2
10.5432 19.3851 3.95783
13.741 19.0699 0.0357004
11.7757 17.6276 2
9.76879 16.1635 3.96406
13.0545 15.9446 0.0455431
11.2274 14.3901 2
9.30607 12.7746 4
12.7891 12.695 0.0342184
10.9835 10.9835 2
12.7746 9.30605 0
19.1788 33.2936 3.97568
22.2333 33.6487 2
25.0144 34.0254 0.0201889
16.467 29.8876 3.97499
16.8368 26.7166 2
18.5467 24.4648 0.0280436
15.0295 24.7178 0.0264583
19.6563 30.4945 2
20.2688 27.6355 0.027341
22.8594 31.0552 0.0262122
15.9539 36.0729 3.97706
19.0368 36.0462 2
21.8824 36.0235 0.0224691
13.3959 37.8309 3.97708
19.4737 38.949 0.0229525
15.2949 39.1361 2
12.6339 40.0933 3.97639
15.8165 41.7924 0.0241626
13.15 42.1808 2
10.7017 42.7063 3.97559
13.462 44.2467 0.0248696
11.1111 44.6984 2
8.72087 45.2511 3.97598
11.5324 46.5996 0.0250924
9.25152 47.2298 2
6.82361 47.9747 3.96657
9.86074 49.1389 0.0248099
7.54708 50.0008 2
5.21615 50.9112 3.96985
8.38817 51.9619 0.0365799
6.1403 53.0047 2
3.86727 54.0858 4
7.20039 55.0329 0.0319339
5.02404 56.25 2
6.31991 58.3339 0
13.6379 29.2089 3.97408
11.8918 26.6399 3.97463
14.1632 27.0348 2
10.5162 24.0844 3.97475
12.4468 24.9713 2
13.8528 25.5931 0.0243614
9.38374 21.1929 3.96184
11.4668 22.368 2
13.3546 23.4988 0.0266364
12.5545 20.7032 0.0319558
10.551 19.3856 2
8.4241 18.0316 3.96681
11.7647 17.6279 0.046116
9.76892 16.1691 2
7.74928 14.6715 4
11.2281 14.3826 0.037577
9.30602 12.7745 2
10.9835 10.9835 0
15.4422 32.9928 3.97621
19.1793 33.2925 2
22.2407 33.6413 0.0229082
16.4681 29.8872 2
16.8368 26.7141 0.0262843
19.6603 30.4931 0.0251305
13.7101 36.2434 3.97673
15.9541 36.0729 2
19.0391 36.0455 0.0227826
13.3955 37.8309 2
11.9331 38.3027 3.97642
15.2947 39.1363 0.0231799
12.6332 40.0934 2
10.2668 40.7144 3.976
13.1509 42.1811 0.0241978
10.7018 42.7059 2
8.26103 43.2206 3.97608
11.1111 44.6984 0.0246888
8.72421 45.2508 2
6.21054 45.8876 3.96809
9.24868 47.231 0.0241284
6.82302 47.9738 2
4.42686 48.7514 3.9706
7.5483 50.0017 0.0351759
5.21652 50.9087 2
2.85457 51.8506 4
6.14023 53.0082 0.0310031
3.86727 54.0858 2
5.0241 56.25 0
12.7522 31.3747 3.97545
11.2966 28.5447 3.97482
13.6378 29.2086 2
9.7331 25.8993 3.9757
11.8922 26.6402 2
14.1632 27.0342 0.0255074
8.34825 23.0657 3.9639
10.5167 24.0829 2
12.4457 24.9713 0.0251129
7.20595 19.9795 3.96801
9.38666 21.1935 2
11.4676 22.3707 0.0277117
10.5432 19.3851 0.042166
8.42389 18.0359 2
6.31992 16.6661 4
9.76879 16.1635 0.0359393
7.74926 14.6714 2
9.30607 12.7746 0
12.806 34.3662 3.9766
15.4423 32.9933 2
19.1788 33.2936 0.0243239
16.467 29.8876 0.0250149
11.4458 36.6347 3.97638
13.71 36.2435 2
15.9539 36.0729 0.0229416
13.3959 37.8309 0.0229154
11.9323 38.3026 2
9.83268 38.8131 3.97625
12.6339 40.0933 0.0236115
10.2666 40.7142 2
7.85853 41.1831 3.97616
10.7017 42.7063 0.0244103
8.26328 43.2194 2
5.70233 43.7577 3.96897
8.72087 45.2511 0.0240182
6.20916 45.8868 2
3.77199 46.5367 3.97124
6.82361 47.9747 0.0334265
4.42754 48.7496 2
1.99014 49.554 4
5.21615 50.9112 0.030149
2.85451 51.8506 2
3.86727 54.0858 0
11.518 33.002 3.97627
10.5882 30.477 3.97524
12.7512 31.3753 2
9.03538 27.8156 3.97577
11.2965 28.5444 2
13.6379 29.2089 0.0259158
7.45609 25.0155 3.96538
9.73413 25.8987 2
11.8918 26.6399 0.0253728
6.12188 22.0021 3.96936
8.34752 23.0663 2
10.5162 24.0844 0.0252491
5.02411 18.75 4
7.20608 19.983 2
9.38374 21.1929 0.0381564
8.4241 18.0316 0.0331896
6.3199 16.6661 2
7.74928 14.6715 0
11.0118 35.0433 3.97605
12.8054 34.3662 2
15.4422 32.9928 0.0237883
9.47658 36.9974 3.97628
11.4449 36.635 2
13.7101 36.2434 0.0232674
11.9331 38.3027 0.0235806
9.83287 38.8131 2
7.5203 39.1726 3.97639
10.2668 40.7144 0.0239987
7.86201 41.1826 2
5.30548 41.6091 3.9692
8.26103 43.2206 0.023924
5.70218 43.757 2
3.24948 44.2816 3.97215
6.21054 45.8876 0.0319114
3.77292 46.5353 2
1.27781 47.2057 4
4.42686 48.7514 0.0294012
1.99012 49.554 2
2.85457 51.8506 0
10.6212 33.9366 3.97562
9.84306 32.2232 3.9758
11.5172 33.0022 2
8.36801 29.7626 3.97605
10.5882 30.4777 2
12.7522 31.3747 0.0245501
6.68288 27.0341 3.96612
9.03734 27.8161 2
11.2966 28.5447 0.0251774
5.17628 24.0954 3.97006
7.45447 25.0161 2
9.7331 25.8993 0.0243015
3.86728 20.9142 4
6.12242 22.0045 2
8.34825 23.0657 0.0360966
5.02406 18.75 2
7.20595 19.9795 0.0319924
6.31992 16.6661 0
9.27917 35.3111 3.97639
11.0111 35.0433 2
12.806 34.3662 0.0234024
7.2871 37.2125 3.97643
9.47739 36.9975 2
11.4458 36.6347 0.0236211
9.83268 38.8131 0.0237522
7.52365 39.1723 2
5.0278 39.4672 3.969
7.85853 41.1831 0.0238424
5.30475 41.6086 2
2.85971 42.0022 3.97276
5.70233 43.7577 0.0310336
3.25018 44.2805 2
0.720592 44.8159 4
3.77199 46.5367 0.028764
1.27778 47.2057 2
1.99014 49.554 0
9.31114 33.7449 3.97638
10.6208 33.9366 2
7.78965 31.6579 3.97628
9.84441 32.2233 2
11.518 33.002 0.0237298
6.01228 29.0888 3.96638
8.37049 29.7634 2
10.5882 30.477 0.02476
4.36315 26.2489 3.97054
6.68135 27.0346 2
9.03538 27.8156 0.0242287
2.85458 23.1494 4
5.17703 24.0968 2
7.45609 25.0155 0.034619
3.86728 20.9142 2
6.12188 22.0021 0.0306391
5.02411 18.75 0
7.22696 35.3272 3.97657
9.28065 35.3112 2
11.0118 35.0433 0.0239498
4.87184 37.3436 3.96858
7.29059 37.2124 2
9.47658 36.9974 0.0237196
7.5203 39.1726 0.023612
5.02679 39.4668 2
2.60745 39.7144 3.97335
5.30548 41.6091 0.0307976
2.8607 42.0015 2
0.320823 42.3947 4
3.24948 44.2816 0.0278495
0.720551 44.8159 2
1.27781 47.2057 0
7.38848 33.4951 3.97672
9.31289 33.7452 2
10.6212 33.9366 0.0243833
5.4675 31.1478 3.96682
7.7923 31.6584 2
9.84306 32.2232 0.0242007
3.68432 28.4457 3.97133
6.00962 29.0891 2
8.36801 29.7626 0.0239466
1.99015 25.446 4
4.36399 26.2499 2
6.68288 27.0341 0.0338755
2.85453 23.1494 2
5.17628 24.0954 0.0299427
3.86728 20.9142 0
4.88669 35.2587 3.96778
7.22943 35.3274 2
9.27917 35.3111 0.0236093
2.49889 37.4295 3.97403
4.86909 37.3435 2
7.2871 37.2125 0.0235746
5.0278 39.4672 0.0310048
2.60859 39.7141 2
0.080333 39.9526 4
2.85971 42.0022 0.0272449
0.320817 42.3947 2
0.720592 44.8159 0
5.08855 33.2007 3.96711
7.39037 33.4955 2
9.31114 33.7449 0.0236234
3.1484 30.6687 3.97231
5.46381 31.148 2
7.78965 31.6579 0.0237169
1.27793 27.7943 4
3.68539 28.4466 2
6.01228 29.0888 0.033623
1.99013 25.446 2
4.36315 26.2489 0.0294624
2.85458 23.1494 0
2.55084 35.1607 3.97379
4.88422 35.2588 2
7.22696 35.3272 0.0234347
0 37.5 4
2.49975 37.4295 2
4.87184 37.3436 0.031421
2.60745 39.7144 0.026652
0.0802903 39.9526 2
0.320823 42.3947 0
2.76845 32.908 3.97349
5.08609 33.2009 2
7.38848 33.4951 0.023284
0.721173 30.1842 4
3.14974 30.6695 2
5.4675 31.1478 0.0331771
1.27779 27.7943 2
3.68432 28.4457 0.0286734
1.99015 25.446 0
0.0806499 35.0474 4
2.55226 35.1608 2
4.88669 35.2587 0.0322239
0 37.5 2
2.49889 37.4295 0.025971
0.080333 39.9526 0
0.32156 32.6054 4
2.7694 32.9086 2
5.08855 33.2007 0.0328899
0.72056 30.1841 2
3.1484 30.6687 0.0276923
1.27793 27.7943 0
0.0802889 35.0474 2
2.55084 35.1607 0.0262065
0 37.5 0
0.320817 32.6053 2
2.76845 32.908 0.0265125
0.721173 30.1842 0
0.0806499 35.0474 0
0.32156 32.6054 0
CELLS 1910 17190
8 18 6 25 56 2 0 5 16
8 57 23 6 18 17 4 0 2
8 78 36 9 29 31 11 1 7
8 31 11 1 7 79 37 10 30
8 110 57 18 50 48 17 2 14
8 50 18 56 111 14 2 16 49
8 116 62 22 55 52 20 3 15
8 56 25 67 118 16 5 24 53
8 119 63 23 57 54 21 4 17
8 55 22 63 119 15 3 21 54
8 58 26 68 121 18 6 25 56
8 122 65 26 58 57 23 6 18
8 73 31 7 27 142 79 30 71
8 143 78 29 72 73 31 7 27
8 83 147 76 34 32 74 28 8
8 84 148 78 36 33 75 29 9
8 76 34 8 28 148 84 33 75
8 37 79 150 86 10 30 77 35
8 151 87 36 78 80 38 11 31
8 80 38 11 31 152 88 37 79
8 175 100 42 94 96 44 12 40
8 44 96 176 101 12 40 95 43
8 101 176 98 46 43 95 41 13
8 46 98 178 103 13 41 97 45
8 178 103 45 97 147 83 32 74
8 189 116 55 109 106 52 15 47
8 111 56 118 191 49 16 53 107
8 192 119 57 110 108 54 17 48
8 109 55 119 192 47 15 54 108
8 194 122 58 112 110 57 18 50
8 112 58 121 195 50 18 56 111
8 115 61 19 51 197 124 59 113
8 115 61 125 198 51 19 60 114
8 198 125 62 116 114 60 20 52
8 200 127 64 120 116 62 22 55
8 118 67 132 202 53 24 66 117
8 121 68 133 203 56 25 67 118
8 120 64 128 204 55 22 63 119
8 204 128 65 122 119 63 23 57
8 206 134 68 121 123 69 26 58
8 123 69 26 58 207 131 65 122
8 226 147 74 138 140 76 28 70
8 229 148 75 139 143 78 29 72
8 140 76 28 70 229 148 75 139
8 142 79 30 71 231 150 77 141
8 144 80 31 73 232 152 79 142
8 233 151 78 143 144 80 31 73
8 150 86 35 77 235 154 81 145
8 235 154 81 145 146 82 39 91
8 146 82 39 91 236 155 90 165
8 238 157 83 147 149 85 34 76
8 239 158 84 148 151 87 36 78
8 149 85 34 76 239 158 84 148
8 152 88 37 79 241 160 86 150
8 242 161 87 151 153 89 38 80
8 153 89 38 80 243 162 88 152
8 171 98 41 92 265 178 97 169
8 265 178 97 169 226 147 74 138
8 172 96 40 93 266 176 95 170
8 266 176 95 170 171 98 41 92
8 269 175 94 173 172 96 40 93
8 271 180 99 174 175 100 42 94
8 197 124 59 113 271 180 99 174
8 272 181 100 175 177 102 44 96
8 273 182 101 176 179 104 46 98
8 177 102 44 96 273 182 101 176
8 179 104 46 98 275 184 103 178
8 275 184 103 178 238 157 83 147
8 188 115 51 105 283 197 113 186
8 188 115 198 284 105 51 114 187
8 284 198 116 189 187 114 52 106
8 286 200 120 193 189 116 55 109
8 191 118 202 288 107 53 117 190
8 195 121 203 289 111 56 118 191
8 193 120 204 290 109 55 119 192
8 290 204 122 194 192 119 57 110
8 196 123 58 112 292 207 122 194
8 293 206 121 195 196 123 58 112
8 199 126 61 115 297 211 124 197
8 298 212 127 200 198 125 62 116
8 199 126 212 298 115 61 125 198
8 205 129 64 120 300 214 127 200
8 301 217 130 201 202 132 66 117
8 209 136 168 264 301 217 130 201
8 302 219 132 202 203 133 67 118
8 303 220 133 203 206 134 68 121
8 205 129 215 304 120 64 128 204
8 304 215 131 207 204 128 65 122
8 306 221 134 206 208 135 69 123
8 208 135 69 123 307 218 131 207
8 210 137 167 263 309 223 136 209
8 328 238 147 226 230 149 76 140
8 228 146 91 166 329 236 165 260
8 231 150 77 141 330 235 145 227
8 330 235 145 227 228 146 91 166
8 332 239 148 229 233 151 78 143
8 230 149 76 140 332 239 148 229
8 232 152 79 142 334 241 150 231
8 234 153 80 144 335 243 152 232
8 336 242 151 233 234 153 80 144
8 236 155 90 165 338 245 164 259
8 241 160 86 150 339 246 154 235
8 339 246 154 235 237 156 82 146
8 237 156 82 146 340 247 155 236
8 342 249 157 238 240 159 85 149
8 343 250 158 239 242 161 87 151
8 240 159 85 149 343 250 158 239
8 243 162 88 152 345 252 160 241
8 244 163 253 346 153 89 161 242
8 244 163 89 153 347 254 162 243
8 311 224 261 371 210 137 167 263
8 263 167 262 372 209 136 168 264
8 267 179 98 171 375 275 178 265
8 375 275 178 265 328 238 147 226
8 376 273 176 266 267 179 98 171
8 268 177 96 172 376 273 176 266
8 379 272 175 269 268 177 96 172
8 380 271 174 270 269 175 94 173
8 283 197 113 186 380 271 174 270
8 381 277 180 271 272 181 100 175
8 297 211 124 197 381 277 180 271
8 382 278 181 272 274 183 102 177
8 274 183 102 177 383 279 182 273
8 383 279 182 273 276 185 104 179
8 385 281 184 275 342 249 157 238
8 276 185 104 179 385 281 184 275
8 285 199 115 188 393 297 197 283
8 394 298 200 286 284 198 116 189
8 285 199 298 394 188 115 198 284
8 291 205 120 193 396 300 200 286
8 397 301 201 287 288 202 117 190
8 295 209 264 374 397 301 201 287
8 398 302 202 288 289 203 118 191
8 399 303 203 289 293 206 121 195
8 291 205 304 400 193 120 204 290
8 400 304 207 292 290 204 122 194
8 294 208 123 196 402 307 207 292
8 403 306 206 293 294 208 123 196
8 296 210 263 373 405 309 209 295
8 408 312 213 299 297 211 126 199
8 299 213 313 409 199 126 212 298
8 409 313 214 300 298 212 127 200
8 305 216 129 205 411 315 214 300
8 412 318 217 301 302 219 132 202
8 309 223 136 209 412 318 217 301
8 413 320 219 302 303 220 133 203
8 306 221 321 414 206 134 220 303
8 307 218 131 207 415 316 215 304
8 305 216 316 415 205 129 215 304
8 417 322 221 306 308 222 135 208
8 308 222 135 208 418 319 218 307
8 310 225 137 210 420 325 223 309
8 423 326 224 311 310 225 137 210
8 329 236 165 260 441 338 259 368
8 442 342 238 328 333 240 149 230
8 331 237 146 228 443 340 236 329
8 334 241 150 231 444 339 235 330
8 444 339 235 330 331 237 146 228
8 446 343 239 332 336 242 151 233
8 333 240 149 230 446 343 239 332
8 335 243 152 232 448 345 241 334
8 337 244 153 234 449 347 243 335
8 337 244 346 450 234 153 242 336
8 338 245 164 259 452 349 258 367
8 340 247 155 236 453 350 245 338
8 345 252 160 241 454 351 246 339
8 454 351 246 339 341 248 156 237
8 341 248 156 237 455 352 247 340
8 240 159 251 344 342 249 354 457
8 242 161 253 346 343 250 355 458
8 343 250 355 458 240 159 251 344
8 347 254 162 243 460 357 252 345
8 348 255 358 461 244 163 253 346
8 348 255 163 244 462 359 254 347
8 473 360 257 365 363 256 364 482
8 452 349 258 367 365 257 366 485
8 422 324 369 488 311 224 261 371
8 371 261 370 490 263 167 262 372
8 407 311 371 491 296 210 263 373
8 373 263 372 492 295 209 264 374
8 493 385 275 375 442 342 238 328
8 377 276 179 267 493 385 275 375
8 378 274 177 268 494 383 273 376
8 494 383 273 376 377 276 179 267
8 497 382 272 379 378 274 177 268
8 498 381 271 380 379 272 175 269
8 393 297 197 283 498 381 271 380
8 499 387 277 381 382 278 181 272
8 408 312 211 297 499 387 277 381
8 500 388 278 382 384 280 183 274
8 501 389 279 383 386 282 185 276
8 384 280 183 274 501 389 279 383
8 386 282 185 276 503 391 281 385
8 503 391 281 385 457 354 249 342
8 511 408 299 395 393 297 199 285
8 395 299 409 512 285 199 298 394
8 512 409 300 396 394 298 200 286
8 401 305 205 291 514 411 300 396
8 515 412 301 397 398 302 202 288
8 405 309 209 295 515 412 301 397
8 516 413 302 398 399 303 203 289
8 403 306 414 517 293 206 303 399
8 402 307 207 292 518 415 304 400
8 401 305 415 518 291 205 304 400
8 404 308 208 294 520 418 307 402
8 521 417 306 403 404 308 208 294
8 406 310 210 296 523 420 309 405
8 526 423 311 407 406 310 210 296
8 410 314 213 299 527 424 312 408
8 528 425 315 411 409 313 214 300
8 410 314 425 528 299 213 313 409
8 416 317 216 305 530 427 315 411
8 531 430 318 412 413 320 219 302
8 420 325 223 309 531 430 318 412
8 532 432 320 413 414 321 220 303
8 417 322 433 533 306 221 321 414
8 418 319 218 307 534 428 316 415
8 416 317 428 534 305 216 316 415
8 419 323 434 536 308 222 322 417
8 419 323 222 308 537 431 319 418
8 421 327 225 310 539 438 325 420
8 421 327 439 541 310 225 326 423
8 543 437 324 422 423 326 224 311
8 441 338 259 368 559 452 367 486
8 443 340 236 329 560 453 338 441
8 333 240 344 447 442 342 457 561
8 445 341 237 331 562 455 340 443
8 448 345 241 334 563 454 339 444
8 563 454 339 444 445 341 237 331
8 336 242 346 450 446 343 458 565
8 446 343 458 565 333 240 344 447
8 449 347 243 335 567 460 345 448
8 451 348 244 337 568 462 347 449
8 451 348 461 569 337 244 346 450
8 570 463 349 452 473 360 257 365
8 453 350 245 338 570 463 349 452
8 455 352 247 340 571 464 350 453
8 460 357 252 345 572 465 351 454
8 572 465 351 454 456 353 248 341
8 456 353 248 341 573 466 352 455
8 344 251 356 459 457 354 468 575
8 458 355 469 576 344 251 356 459
8 346 253 358 461 458 355 469 576
8 462 359 254 347 578 471 357 460
8 348 255 359 462 461 358 472 579
8 591 474 360 473 475 361 256 363
8 475 361 256 363 594 477 362 479
8 363 256 364 482 479 362 480 603
8 590 473 365 484 481 363 482 605
8 482 364 257 365 606 483 366 485
8 559 452 367 486 484 365 485 607
8 542 436 487 609 422 324 369 488
8 525 422 488 611 407 311 371 491
8 488 369 489 612 371 261 370 490
8 491 371 490 613 373 263 372 492
8 495 386 276 377 614 503 385 493
8 614 503 385 493 561 457 342 442
8 615 501 383 494 495 386 276 377
8 496 384 274 378 615 501 383 494
8 618 500 382 497 496 384 274 378
8 619 499 381 498 497 382 272 379
8 511 408 297 393 619 499 381 498
8 620 505 387 499 500 388 278 382
8 527 424 312 408 620 505 387 499
8 502 390 506 621 384 280 388 500
8 622 507 389 501 504 392 282 386
8 502 390 280 384 622 507 389 501
8 504 392 282 386 624 509 391 503
8 624 509 391 503 575 468 354 457
8 513 410 299 395 630 527 408 511
8 631 528 411 514 512 409 300 396
8 513 410 528 631 395 299 409 512
8 519 416 305 401 633 530 411 514
8 634 531 412 515 516 413 302 398
8 523 420 309 405 634 531 412 515
8 635 532 413 516 517 414 303 399
8 521 417 533 636 403 306 414 517
8 520 418 307 402 637 534 415 518
8 519 416 534 637 401 305 415 518
8 522 419 308 404 639 537 418 520
8 522 419 536 640 404 308 417 521
8 524 421 310 406 642 539 420 523
8 524 421 541 644 406 310 423 526
8 646 543 422 525 526 423 311 407
8 529 426 314 410 647 544 424 527
8 528 425 545 648 411 315 427 530
8 529 426 545 648 410 314 425 528
8 535 429 317 416 649 546 427 530
8 650 548 430 531 532 432 320 413
8 539 438 325 420 650 548 430 531
8 533 433 550 651 414 321 432 532
8 536 434 551 652 417 322 433 533
8 537 431 319 418 653 547 428 534
8 535 429 547 653 416 317 428 534
8 538 435 552 654 419 323 434 536
8 538 435 323 419 655 549 431 537
8 540 440 327 421 657 556 438 539
8 540 440 557 659 421 327 439 541
8 541 439 555 660 423 326 437 543
8 661 554 436 542 543 437 324 422
8 676 570 452 559 590 473 365 484
8 560 453 338 441 676 570 452 559
8 562 455 340 443 677 571 453 560
8 447 344 459 566 561 457 575 678
8 564 456 341 445 679 573 455 562
8 567 460 345 448 680 572 454 563
8 680 572 454 563 564 456 341 445
8 565 458 576 682 447 344 459 566
8 450 346 461 569 565 458 576 682
8 568 462 347 449 684 578 460 567
8 451 348 462 568 569 461 579 685
8 686 580 463 570 591 474 360 473
8 571 464 350 453 686 580 463 570
8 573 466 352 455 687 581 464 571
8 572 465 582 688 460 357 471 578
8 574 467 582 688 456 353 465 572
8 574 467 353 456 689 583 466 573
8 459 356 470 577 575 468 585 691
8 576 469 586 692 459 356 470 577
8 461 358 472 579 576 469 586 692
8 462 359 471 578 579 472 588 694
8 704 591 473 590 593 475 363 481
8 595 476 592 705 475 361 474 591
8 593 475 363 481 707 594 479 602
8 594 477 362 479 709 598 478 600
8 595 476 361 475 711 597 477 594
8 479 362 480 603 600 478 601 720
8 481 363 482 605 602 479 603 722
8 603 480 364 482 723 604 483 606
8 605 482 365 484 724 606 485 607
8 656 553 608 726 542 436 487 609
8 645 542 609 728 525 422 488 611
8 609 487 610 729 488 369 489 612
8 611 488 612 730 491 371 490 613
8 616 504 386 495 731 624 503 614
8 731 624 503 614 678 575 457 561
8 732 622 501 615 616 504 386 495
8 617 502 384 496 732 622 501 615
8 617 502 621 735 496 384 500 618
8 736 620 499 619 618 500 382 497
8 630 527 408 511 736 620 499 619
8 621 506 626 737 500 388 505 620
8 647 544 424 527 737 626 505 620
8 623 508 627 738 502 390 506 621
8 623 508 390 502 739 628 507 622
8 625 510 628 739 504 392 507 622
8 740 629 509 624 691 585 468 575
8 625 510 392 504 740 629 509 624
8 632 529 410 513 744 647 527 630
8 631 528 648 745 514 411 530 633
8 632 529 648 745 513 410 528 631
8 638 535 416 519 746 649 530 633
8 747 650 531 634 635 532 413 516
8 642 539 420 523 747 650 531 634
8 636 533 651 748 517 414 532 635
8 640 536 652 749 521 417 533 636
8 639 537 418 520 750 653 534 637
8 638 535 653 750 519 416 534 637
8 641 538 419 522 751 655 537 639
8 641 538 654 752 522 419 536 640
8 643 540 421 524 753 657 539 642
8 643 540 659 755 524 421 541 644
8 644 541 660 757 526 423 543 646
8 758 661 542 645 646 543 422 525
8 529 426 544 647 648 545 662 759
8 530 427 545 648 649 546 663 760
8 535 429 546 649 653 547 664 761
8 762 666 548 650 651 550 432 532
8 657 556 438 539 762 666 548 650
8 652 551 668 763 533 433 550 651
8 654 552 669 764 536 434 551 652
8 655 549 431 537 765 665 547 653
8 538 435 549 655 654 552 667 766
8 661 554 671 768 542 436 553 656
8 658 558 440 540 769 674 556 657
8 658 558 675 770 540 440 557 659
8 659 557 673 771 541 439 555 660
8 660 555 672 772 543 437 554 661
8 788 686 570 676 704 591 473 590
8 677 571 453 560 788 686 570 676
8 679 573 455 562 789 687 571 677
8 566 459 577 683 678 575 691 790
8 681 574 456 564 791 689 573 679
8 680 572 688 792 567 460 578 684
8 681 574 688 792 564 456 572 680
8 682 576 692 794 566 459 577 683
8 569 461 579 685 682 576 692 794
8 568 462 578 684 685 579 694 796
8 687 581 464 571 798 696 580 686
8 798 696 580 686 705 592 474 591
8 689 583 466 573 799 697 581 687
8 688 582 698 800 578 471 588 694
8 690 584 698 800 574 467 582 688
8 690 584 467 574 801 699 583 689
8 693 587 701 803 577 470 585 691
8 693 587 470 577 804 702 586 692
8 695 589 702 804 579 472 586 692
8 695 589 472 579 805 703 588 694
8 708 595 705 813 593 475 591 704
8 710 596 706 814 595 476 592 705
8 707 594 479 602 816 709 600 719
8 708 595 475 593 817 711 594 707
8 709 598 478 600 819 715 599 717
8 711 597 477 594 820 714 598 709
8 710 596 476 595 822 713 597 711
8 600 478 601 720 717 599 718 832
8 602 479 603 722 719 600 720 834
8 720 601 480 603 835 721 604 723
8 722 603 482 605 836 723 606 724
8 767 670 725 839 656 553 608 726
8 756 656 726 841 645 542 609 728
8 726 608 727 842 609 487 610 729
8 728 609 729 843 611 488 612 730
8 844 740 624 731 790 691 575 678
8 733 625 504 616 844 740 624 731
8 734 623 502 617 845 739 622 732
8 733 625 739 845 616 504 622 732
8 734 623 738 846 617 502 621 735
8 735 621 737 847 618 500 620 736
8 744 647 527 630 847 737 620 736
8 621 506 627 738 737 626 741 848
8 647 544 626 737 759 662 741 848
8 623 508 628 739 738 627 742 849
8 740 629 585 691 850 743 700 802
8 625 510 629 740 739 628 743 850
8 632 529 647 744 745 648 759 854
8 633 530 648 745 746 649 760 855
8 638 535 649 746 750 653 761 856
8 857 762 650 747 748 651 532 635
8 753 657 539 642 857 762 650 747
8 749 652 763 858 636 533 651 748
8 752 654 764 859 640 536 652 749
8 751 655 537 639 860 765 653 750
8 641 538 655 751 752 654 766 861
8 754 658 540 643 862 769 657 753
8 754 658 770 863 643 540 659 755
8 755 659 771 864 644 541 660 757
8 758 661 768 866 645 542 656 756
8 757 660 772 867 646 543 661 758
8 759 662 773 868 648 545 663 760
8 649 546 663 760 761 664 774 871
8 765 665 547 653 872 775 664 761
8 873 777 666 762 763 668 550 651
8 769 674 556 657 873 777 666 762
8 764 669 779 874 652 551 668 763
8 654 552 667 766 764 669 778 875
8 655 549 665 765 766 667 776 876
8 768 671 782 877 656 553 670 767
8 772 672 783 878 661 554 671 768
8 658 558 674 769 770 675 786 879
8 659 557 675 770 771 673 785 881
8 882 784 672 772 771 673 555 660
8 789 687 571 677 897 798 686 788
8 897 798 686 788 813 705 591 704
8 791 689 573 679 898 799 687 789
8 795 693 803 900 683 577 691 790
8 793 690 574 681 901 801 689 791
8 792 688 800 902 684 578 694 796
8 793 690 800 902 681 574 688 792
8 795 693 577 683 903 804 692 794
8 797 695 804 903 685 579 692 794
8 797 695 579 685 904 805 694 796
8 905 806 697 799 798 696 581 687
8 814 706 806 905 705 592 696 798
8 689 583 697 799 801 699 808 907
8 800 698 809 908 694 588 703 805
8 690 584 699 801 800 698 809 908
8 803 701 810 909 691 585 700 802
8 693 587 702 804 803 701 811 910
8 695 589 703 805 804 702 812 911
8 818 710 814 919 708 595 705 813
8 821 712 815 920 710 596 706 814
8 816 709 600 719 922 819 717 831
8 817 711 594 707 923 820 709 816
8 818 710 595 708 924 822 711 817
8 819 715 599 717 926 827 716 829
8 820 714 598 709 927 826 715 819
8 929 825 713 822 820 714 597 711
8 821 712 596 710 930 824 713 822
8 717 599 718 832 829 716 830 942
8 719 600 720 834 831 717 832 944
8 832 718 601 720 945 833 721 835
8 834 720 603 722 946 835 723 836
8 869 780 838 950 767 670 725 839
8 865 767 839 952 756 656 726 841
8 839 725 840 953 726 608 727 842
8 841 726 842 954 728 609 729 843
8 844 740 691 790 955 850 802 899
8 733 625 740 844 845 739 850 955
8 734 623 739 845 846 738 849 956
8 735 621 738 846 847 737 848 957
8 744 647 737 847 854 759 848 957
8 738 627 742 849 848 741 851 958
8 848 741 851 958 759 662 773 868
8 850 743 700 802 959 852 807 906
8 849 742 628 739 959 852 743 850
8 854 759 868 965 745 648 760 855
8 746 649 760 855 856 761 871 966
8 860 765 653 750 967 872 761 856
8 968 873 762 857 858 763 651 748
8 862 769 657 753 968 873 762 857
8 859 764 874 969 749 652 763 858
8 752 654 766 861 859 764 875 970
8 751 655 765 860 861 766 876 971
8 754 658 769 862 863 770 879 972
8 755 659 770 863 864 771 881 974
8 976 882 772 867 864 771 660 757
8 866 768 877 977 756 656 767 865
8 867 772 878 978 758 661 768 866
8 760 663 773 868 871 774 883 980
8 870 781 837 948 982 890 780 869
8 982 890 780 869 877 782 670 767
8 761 664 774 871 872 775 884 984
8 876 776 665 765 985 885 775 872
8 873 777 668 763 986 887 779 874
8 769 674 777 873 879 786 887 986
8 764 669 778 875 874 779 888 987
8 766 667 776 876 875 778 886 988
8 878 783 892 989 768 671 782 877
8 878 783 672 772 990 893 784 882
8 880 787 675 770 991 896 786 879
8 880 787 895 992 770 675 785 881
8 881 785 894 993 771 673 784 882
8 1006 905 799 898 897 798 687 789
8 919 814 905 1006 813 705 798 897
8 791 689 799 898 901 801 907 1007
8 900 803 909 1009 790 691 802 899
8 795 693 804 903 900 803 910 1010
8 902 800 908 1011 796 694 805 904
8 793 690 801 901 902 800 908 1011
8 797 695 805 904 903 804 911 1012
8 799 697 806 905 907 808 912 1013
8 920 815 912 1013 814 706 806 905
8 802 700 810 909 906 807 913 1014
8 801 699 808 907 908 809 914 1015
8 805 703 809 908 911 812 915 1016
8 803 701 811 910 909 810 916 1017
8 911 812 917 1018 804 702 811 910
8 925 821 920 1030 818 710 814 919
8 928 823 921 1031 821 712 815 920
8 922 819 717 831 1033 926 829 941
8 923 820 709 816 1034 927 819 922
8 1035 929 822 924 923 820 711 817
8 925 821 710 818 1036 930 822 924
8 1038 933 825 929 927 826 714 820
8 926 827 716 829 1039 935 828 939
8 927 826 715 819 1040 934 827 926
8 928 823 712 821 1041 931 824 930
8 1042 932 824 930 929 825 713 822
8 829 716 830 942 939 828 940 1058
8 831 717 832 944 941 829 942 1060
8 942 830 718 832 1061 943 833 945
8 944 832 720 834 1062 945 835 946
8 981 889 947 1064 870 781 837 948
8 948 837 949 1067 869 780 838 950
8 975 869 950 1069 865 767 839 952
8 950 838 951 1070 839 725 840 953
8 952 839 953 1071 841 726 842 954
8 955 850 802 899 1072 959 906 1008
8 956 849 739 845 1072 959 850 955
8 846 738 849 956 957 848 958 1073
8 957 848 958 1073 854 759 868 965
8 849 742 852 959 958 851 961 1076
8 960 853 961 1076 906 807 852 959
8 958 851 961 1076 868 773 883 980
8 960 853 807 906 1077 963 913 1014
8 855 760 868 965 966 871 980 1085
8 856 761 871 966 967 872 984 1086
8 971 876 765 860 1087 985 872 967
8 968 873 763 858 1088 986 874 969
8 862 769 873 968 972 879 986 1088
8 859 764 875 970 969 874 987 1089
8 861 766 876 971 970 875 988 1090
8 973 880 770 863 1091 991 879 972
8 973 880 992 1092 863 770 881 974
8 974 881 993 1093 864 771 882 976
8 979 870 948 1066 1094 982 869 975
8 1094 982 869 975 977 877 767 865
8 978 878 772 867 1095 990 882 976
8 978 878 989 1096 866 768 877 977
8 871 774 883 980 984 884 994 1099
8 983 891 999 1100 870 781 889 981
8 1101 1000 890 982 989 892 782 877
8 983 891 781 870 1101 1000 890 982
8 872 775 884 984 985 885 995 1103
8 876 776 885 985 988 886 996 1104
8 986 887 779 874 1105 998 888 987
8 879 786 887 986 991 896 998 1105
8 875 778 886 988 987 888 997 1106
8 990 893 1002 1107 878 783 892 989
8 1108 1003 893 990 993 894 784 882
8 880 787 896 991 992 895 1005 1109
8 993 894 785 881 1110 1004 895 992
8 898 799 905 1006 1007 907 1013 1120
8 1030 920 1013 1120 919 814 905 1006
8 901 801 907 1007 1011 908 1015 1121
8 899 802 909 1009 1008 906 1014 1122
8 900 803 910 1010 1009 909 1017 1123
8 1012 911 1018 1124 903 804 910 1010
8 904 805 908 1011 1012 911 1016 1125
8 1013 912 1020 1127 907 808 914 1015
8 1031 921 1020 1127 920 815 912 1013
8 1019 918 962 1075 1128 1021 913 1014
8 1128 1021 913 1014 1017 916 810 909
8 1015 914 1022 1129 908 809 915 1016
8 1016 915 1023 1130 911 812 917 1018
8 1018 917 1024 1131 910 811 916 1017
8 1037 928 1031 1148 925 821 920 1030
8 928 823 931 1041 1031 921 1032 1149
8 1033 926 829 941 1151 1039 939 1057
8 1034 927 819 922 1152 1040 926 1033
8 1153 1038 929 1035 1034 927 820 923
8 1154 1042 930 1036 1035 929 822 924
8 1037 928 821 925 1155 1041 930 1036
8 1039 935 828 939 1156 1047 938 1055
8 1157 1043 932 1042 1038 933 825 929
8 1038 933 826 927 1158 1045 934 1040
8 1040 934 827 926 1159 1046 935 1039
8 930 824 932 1042 1041 931 1044 1160
8 1051 936 1048 1165 1175 1052 937 1053
8 1156 1047 938 1055 1053 937 1054 1178
8 939 828 940 1058 1055 938 1056 1181
8 941 829 942 1060 1057 939 1058 1183
8 942 830 943 1061 1058 940 1059 1184
8 1060 942 832 944 1185 1061 945 1062
8 1082 964 1063 1188 981 889 947 1064
8 1097 981 1064 1190 979 870 948 1066
8 1064 947 1065 1191 948 837 949 1067
8 1066 948 1067 1193 975 869 950 1069
8 1067 949 1068 1194 950 838 951 1070
8 1069 950 1070 1195 952 839 953 1071
8 956 849 959 1072 1073 958 1076 1197
8 1074 960 1076 1197 1008 906 959 1072
8 1073 958 1076 1197 965 868 980 1085
8 1074 960 906 1008 1198 1077 1014 1122
8 1133 1026 1079 1199 1019 918 962 1075
8 1077 963 913 1014 1200 1080 962 1075
8 960 853 963 1077 1076 961 1078 1201
8 980 883 961 1076 1099 994 1078 1201
8 1210 1083 964 1082 1100 999 889 981
8 966 871 980 1085 1086 984 1099 1215
8 967 872 984 1086 1087 985 1103 1216
8 971 876 985 1087 1090 988 1104 1217
8 1088 986 874 969 1218 1105 987 1089
8 972 879 986 1088 1091 991 1105 1218
8 970 875 988 1090 1089 987 1106 1219
8 973 880 991 1091 1092 992 1109 1220
8 1093 993 881 974 1221 1110 992 1092
8 1222 1108 990 1095 1093 993 882 976
8 1223 1101 982 1094 1096 989 877 977
8 1098 983 870 979 1223 1101 982 1094
8 1095 990 1107 1224 978 878 989 1096
8 1098 983 1100 1225 979 870 981 1097
8 984 884 994 1099 1103 995 1111 1227
8 1102 1001 1115 1228 983 891 999 1100
8 1101 1000 892 989 1229 1116 1002 1107
8 1102 1001 891 983 1229 1116 1000 1101
8 985 885 995 1103 1104 996 1112 1230
8 988 886 996 1104 1106 997 1113 1231
8 1105 998 888 987 1232 1114 997 1106
8 991 896 998 1105 1109 1005 1114 1232
8 1108 1003 1117 1233 990 893 1002 1107
8 1108 1003 894 993 1233 1117 1004 1110
8 992 895 1005 1109 1110 1004 1118 1234
8 1120 1013 1127 1244 1007 907 1015 1121
8 1148 1031 1127 1244 1030 920 1013 1120
8 1121 1015 1129 1245 1011 908 1016 1125
8 1126 1019 1075 1196 1246 1128 1014 1122
8 1246 1128 1014 1122 1123 1017 909 1009
8 1124 1018 1131 1247 1010 910 1017 1123
8 1125 1016 1130 1248 1012 911 1018 1124
8 1127 1020 1137 1254 1015 914 1022 1129
8 1031 921 1032 1149 1127 1020 1137 1254
8 1134 1027 918 1019 1257 1140 1021 1128
8 1257 1140 1021 1128 1131 1024 916 1017
8 1129 1022 1141 1258 1016 915 1023 1130
8 1130 1023 1142 1259 1018 917 1024 1131
8 1261 1144 1025 1132 1133 1026 1079 1199
8 1255 1138 1025 1132 1135 1028 1144 1261
8 1133 1026 918 1019 1262 1145 1027 1134
8 1136 1029 1139 1256 1263 1146 1028 1135
8 1037 928 1041 1155 1148 1031 1149 1275
8 1041 931 1044 1160 1149 1032 1150 1276
8 1151 1039 939 1057 1278 1156 1055 1180
8 1152 1040 926 1033 1279 1159 1039 1151
8 1153 1038 927 1034 1280 1158 1040 1152
8 1281 1157 1042 1154 1153 1038 929 1035
8 1036 930 1042 1154 1155 1041 1160 1282
8 1283 1164 1046 1159 1156 1047 935 1039
8 1165 1048 1164 1283 1053 937 1047 1156
8 1157 1043 933 1038 1284 1161 1045 1158
8 1157 1043 1161 1284 1042 932 1044 1160
8 1040 934 1046 1159 1158 1045 1163 1285
8 1166 1049 1167 1292 1051 936 1048 1165
8 1166 1049 936 1051 1293 1168 1050 1172
8 1051 936 1052 1175 1172 1050 1173 1306
8 1174 1051 1165 1290 1308 1175 1053 1177
8 1053 937 1054 1178 1175 1052 1176 1309
8 1278 1156 1055 1180 1177 1053 1178 1311
8 1055 938 1056 1181 1178 1054 1179 1312
8 1057 939 1058 1183 1180 1055 1181 1314
8 1058 940 1059 1184 1181 1056 1182 1315
8 1060 942 1061 1185 1183 1058 1184 1316
8 1208 1081 1187 1321 1082 964 1063 1188
8 1209 1082 1188 1322 1097 981 1064 1190
8 1188 1063 1189 1323 1064 947 1065 1191
8 1190 1064 1191 1325 1066 948 1067 1193
8 1191 1065 1192 1326 1067 949 1068 1194
8 1067 1193 1069 950 1194 1327 1195 1070
8 1250 1133 1199 1330 1126 1019 1075 1196
8 1198 1077 1014 1122 1331 1200 1075 1196
8 1074 960 1077 1198 1197 1076 1201 1332
8 1085 980 1076 1197 1215 1099 1201 1332
8 1199 1079 1203 1333 1075 962 1080 1200
8 1132 1025 1119 1243 1199 1079 1203 1333
8 1201 1078 963 1077 1334 1202 1080 1200
8 1099 994 1078 1201 1227 1111 1202 1334
8 1343 1207 1081 1208 1210 1083 964 1082
8 1214 1084 1186 1319 1343 1207 1081 1208
8 1345 1210 1082 1209 1225 1100 981 1097
8 1346 1211 1083 1210 1228 1115 999 1100
8 1086 984 1099 1215 1216 1103 1227 1352
8 1087 985 1103 1216 1217 1104 1230 1353
8 1090 988 1104 1217 1219 1106 1231 1354
8 1218 1105 987 1089 1355 1232 1106 1219
8 1091 991 1105 1218 1220 1109 1232 1355
8 1092 992 1109 1220 1221 1110 1234 1356
8 1222 1108 1233 1357 1095 990 1107 1224
8 1222 1108 993 1093 1357 1233 1110 1221
8 1223 1101 989 1096 1358 1229 1107 1224
8 1226 1102 983 1098 1358 1229 1101 1223
8 1226 1102 1228 1359 1098 983 1100 1225
8 1103 995 1111 1227 1230 1112 1235 1360
8 1107 1002 1117 1233 1229 1116 1240 1362
8 1102 1001 1116 1229 1228 1115 1240 1362
8 1104 996 1112 1230 1231 1113 1236 1363
8 1364 1237 1114 1232 1231 1113 997 1106
8 1109 1005 1114 1232 1234 1118 1238 1365
8 1110 1004 1118 1234 1233 1117 1241 1366
8 1242 1374 1255 1138 1119 1243 1132 1025
8 1244 1127 1254 1376 1121 1015 1129 1245
8 1148 1031 1149 1275 1244 1127 1254 1376
8 1245 1129 1258 1377 1125 1016 1130 1248
8 1251 1134 1019 1126 1378 1257 1128 1246
8 1378 1257 1128 1246 1247 1131 1017 1123
8 1248 1130 1259 1379 1124 1018 1131 1247
8 1261 1381 1250 1133 1132 1249 1330 1199
8 1255 1380 1252 1135 1132 1249 1381 1261
8 1250 1133 1019 1126 1382 1262 1134 1251
8 1253 1136 1256 1385 1384 1263 1135 1252
8 1254 1137 1265 1387 1129 1022 1141 1258
8 1149 1032 1150 1276 1254 1137 1265 1387
8 1028 1135 1255 1138 1139 1256 1388 1266
8 1136 1029 1147 1264 1256 1139 1267 1389
8 1390 1268 1140 1257 1259 1142 1024 1131
8 1260 1143 1027 1134 1390 1268 1140 1257
8 1258 1141 1269 1391 1130 1023 1142 1259
8 1262 1145 1027 1134 1393 1271 1143 1260
8 1261 1144 1026 1133 1394 1272 1145 1262
8 1135 1028 1144 1261 1263 1146 1272 1394
8 1136 1029 1146 1263 1264 1147 1273 1395
8 1155 1041 1160 1282 1275 1149 1276 1405
8 1276 1150 1044 1160 1406 1277 1162 1286
8 1408 1283 1159 1279 1278 1156 1039 1151
8 1290 1165 1283 1408 1177 1053 1156 1278
8 1152 1040 1159 1279 1280 1158 1285 1409
8 1281 1157 1038 1153 1410 1284 1158 1280
8 1281 1157 1284 1410 1154 1042 1160 1282
8 1159 1046 1164 1283 1285 1163 1289 1412
8 1292 1167 1289 1412 1165 1048 1164 1283
8 1158 1045 1163 1285 1284 1161 1288 1413
8 1284 1161 1288 1413 1160 1044 1162 1286
8 1291 1166 1292 1418 1174 1051 1165 1290
8 1291 1166 1051 1174 1419 1293 1172 1305
8 1294 1169 1296 1421 1166 1049 1167 1292
8 1293 1168 1050 1172 1422 1295 1171 1303
8 1294 1169 1049 1166 1423 1297 1168 1293
8 1422 1295 1171 1303 1301 1170 1302 1435
8 1172 1050 1173 1306 1303 1171 1304 1438
8 1174 1051 1175 1308 1305 1172 1306 1440
8 1175 1052 1176 1309 1306 1173 1307 1441
8 1177 1053 1178 1311 1308 1175 1309 1443
8 1178 1054 1179 1312 1309 1176 1310 1444
8 1180 1055 1181 1314 1311 1178 1312 1446
8 1056 1181 1312 1179 1182 1315 1447 1313
8 1183 1058 1184 1316 1314 1181 1315 1448
8 1319 1186 1084 1214 1451 1317 1213 1350
8 1319 1186 1318 1453 1208 1081 1187 1321
8 1321 1187 1320 1456 1188 1063 1189 1323
8 1344 1208 1321 1457 1209 1082 1188 1322
8 1322 1188 1323 1458 1190 1064 1191 1325
8 1323 1189 1324 1459 1191 1065 1192 1326
8 1191 1325 1193 1067 1326 1460 1327 1194
8 1242 1374 1243 1119 1328 1462 1335 1204
8 1330 1199 1333 1465 1196 1075 1200 1331
8 1132 1249 1330 1199 1243 1375 1465 1333
8 1332 1201 1077 1198 1466 1334 1200 1331
8 1215 1099 1201 1332 1352 1227 1334 1466
8 1119 1243 1333 1203 1204 1335 1470 1338
8 1333 1203 1338 1470 1200 1080 1202 1334
8 1227 1111 1202 1334 1360 1235 1338 1470
8 1328 1462 1335 1204 1205 1336 1471 1339
8 1337 1206 1340 1472 1464 1329 1205 1336
8 1346 1211 1342 1479 1210 1083 1207 1343
8 1346 1211 1115 1228 1479 1342 1239 1361
8 1348 1212 1084 1214 1479 1342 1207 1343
8 1480 1343 1208 1344 1345 1210 1082 1209
8 1351 1214 1319 1454 1480 1343 1208 1344
8 1481 1346 1210 1345 1359 1228 1100 1225
8 1348 1212 1347 1483 1214 1084 1213 1350
8 1216 1103 1227 1352 1353 1230 1360 1488
8 1217 1104 1230 1353 1354 1231 1363 1489
8 1490 1364 1232 1355 1354 1231 1106 1219
8 1220 1109 1232 1355 1356 1234 1365 1491
8 1221 1110 1234 1356 1357 1233 1366 1492
8 1224 1107 1233 1357 1358 1229 1362 1493
8 1226 1102 1229 1358 1359 1228 1362 1493
8 1230 1112 1235 1360 1363 1236 1367 1496
8 1361 1239 1115 1228 1497 1371 1240 1362
8 1366 1241 1372 1498 1233 1117 1240 1362
8 1364 1237 1113 1231 1499 1368 1236 1363
8 1364 1237 1368 1499 1232 1114 1238 1365
8 1234 1118 1238 1365 1366 1241 1369 1500
8 1507 1373 1242 1374 1388 1266 1138 1255
8 1508 1374 1243 1375 1380 1255 1132 1249
8 1376 1254 1387 1509 1245 1129 1258 1377
8 1275 1149 1276 1405 1376 1254 1387 1509
8 1377 1258 1391 1510 1248 1130 1259 1379
8 1511 1390 1257 1378 1379 1259 1131 1247
8 1383 1260 1134 1251 1511 1390 1257 1378
8 1252 1135 1256 1385 1380 1255 1388 1512
8 1261 1381 1513 1394 1133 1250 1382 1262
8 1135 1252 1384 1263 1261 1381 1513 1394
8 1382 1262 1134 1251 1514 1393 1260 1383
8 1253 1136 1263 1384 1386 1264 1395 1516
8 1253 1136 1264 1386 1385 1256 1389 1517
8 1387 1265 1397 1519 1258 1141 1269 1391
8 1276 1150 1277 1406 1387 1265 1397 1519
8 1256 1139 1267 1389 1388 1266 1398 1520
8 1264 1147 1274 1396 1389 1267 1399 1521
8 1392 1270 1143 1260 1522 1400 1268 1390
8 1390 1268 1142 1259 1522 1400 1269 1391
8 1392 1270 1401 1523 1260 1143 1271 1393
8 1272 1394 1524 1402 1145 1262 1393 1271
8 1395 1273 1146 1263 1524 1402 1272 1394
8 1273 1395 1264 1147 1403 1526 1396 1274
8 1405 1276 1160 1282 1534 1406 1286 1411
8 1414 1287 1407 1535 1286 1162 1277 1406
8 1279 1159 1283 1408 1409 1285 1412 1537
8 1418 1292 1412 1537 1290 1165 1283 1408
8 1280 1158 1285 1409 1410 1284 1413 1538
8 1410 1284 1413 1538 1282 1160 1286 1411
8 1285 1163 1289 1412 1413 1288 1417 1540
8 1421 1296 1417 1540 1292 1167 1289 1412
8 1414 1287 1162 1286 1541 1416 1288 1413
8 1420 1294 1421 1545 1291 1166 1292 1418
8 1419 1293 1172 1305 1546 1422 1303 1437
8 1420 1294 1166 1291 1547 1423 1293 1419
8 1294 1169 1297 1423 1421 1296 1425 1548
8 1423 1297 1168 1293 1549 1424 1295 1422
8 1301 1170 1298 1427 1422 1295 1424 1549
8 1432 1300 1428 1554 1301 1170 1298 1427
8 1431 1299 1428 1554 1560 1430 1300 1432
8 1563 1433 1300 1432 1435 1302 1170 1301
8 1546 1422 1303 1437 1434 1301 1435 1565
8 1303 1171 1304 1438 1435 1302 1436 1566
8 1305 1172 1306 1440 1437 1303 1438 1568
8 1306 1173 1307 1441 1438 1304 1439 1569
8 1308 1175 1309 1443 1440 1306 1441 1571
8 1309 1176 1310 1444 1441 1307 1442 1572
8 1311 1178 1312 1446 1443 1309 1444 1574
8 1179 1312 1444 1310 1313 1447 1575 1445
8 1314 1181 1315 1448 1446 1312 1447 1576
8 1350 1213 1349 1486 1451 1317 1449 1579
8 1451 1317 1450 1581 1319 1186 1318 1453
8 1454 1319 1214 1351 1582 1451 1350 1487
8 1453 1318 1452 1584 1321 1187 1320 1456
8 1454 1319 1453 1585 1344 1208 1321 1457
8 1456 1320 1455 1586 1323 1189 1324 1459
8 1457 1321 1456 1587 1322 1188 1323 1458
8 1458 1323 1459 1588 1325 1191 1326 1460
8 1205 1336 1464 1329 1328 1462 1590 1461
8 1507 1373 1461 1590 1374 1242 1328 1462
8 1508 1374 1462 1591 1375 1243 1335 1467
8 1337 1206 1329 1464 1473 1341 1463 1594
8 1375 1243 1335 1467 1465 1333 1470 1596
8 1465 1333 1470 1596 1331 1200 1334 1466
8 1352 1227 1334 1466 1488 1360 1470 1596
8 1591 1462 1336 1468 1467 1335 1471 1597
8 1469 1337 1472 1598 1595 1464 1336 1468
8 1471 1339 1474 1600 1335 1204 1338 1470
8 1600 1474 1367 1496 1470 1338 1235 1360
8 1336 1205 1340 1472 1471 1339 1475 1601
8 1337 1206 1341 1473 1472 1340 1476 1602
8 1495 1370 1478 1609 1361 1239 1342 1479
8 1348 1212 1342 1479 1483 1347 1478 1609
8 1481 1346 1479 1610 1345 1210 1343 1480
8 1481 1346 1228 1359 1610 1479 1361 1494
8 1484 1348 1214 1351 1610 1479 1343 1480
8 1483 1347 1482 1612 1350 1213 1349 1486
8 1484 1348 1483 1613 1351 1214 1350 1487
8 1353 1230 1360 1488 1489 1363 1496 1616
8 1490 1364 1231 1354 1617 1499 1363 1489
8 1490 1364 1499 1617 1355 1232 1365 1491
8 1356 1234 1365 1491 1492 1366 1500 1619
8 1492 1366 1498 1620 1357 1233 1362 1493
8 1494 1361 1228 1359 1621 1497 1362 1493
8 1495 1370 1239 1361 1622 1504 1371 1497
8 1363 1236 1367 1496 1499 1368 1501 1623
8 1497 1371 1240 1362 1624 1505 1372 1498
8 1625 1503 1372 1498 1500 1369 1241 1366
8 1365 1238 1368 1499 1500 1369 1502 1626
8 1520 1398 1506 1633 1388 1266 1373 1507
8 1634 1507 1374 1508 1512 1388 1255 1380
8 1509 1387 1519 1635 1377 1258 1391 1510
8 1405 1276 1406 1534 1509 1387 1519 1635
8 1515 1392 1260 1383 1636 1522 1390 1511
8 1511 1390 1259 1379 1636 1522 1391 1510
8 1385 1256 1389 1517 1512 1388 1520 1637
8 1513 1394 1262 1382 1638 1524 1393 1514
8 1395 1516 1638 1524 1263 1384 1513 1394
8 1515 1392 1523 1639 1383 1260 1393 1514
8 1516 1395 1526 1640 1386 1264 1396 1518
8 1386 1264 1396 1518 1517 1389 1521 1641
8 1519 1397 1527 1643 1391 1269 1400 1522
8 1535 1407 1527 1643 1406 1277 1397 1519
8 1389 1267 1399 1521 1520 1398 1528 1644
8 1645 1529 1399 1521 1525 1404 1274 1396
8 1392 1270 1400 1522 1523 1401 1531 1646
8 1524 1402 1271 1393 1648 1532 1401 1523
8 1403 1526 1648 1532 1273 1395 1524 1402
8 1525 1404 1274 1396 1649 1533 1403 1526
8 1539 1414 1535 1657 1411 1286 1406 1534
8 1542 1415 1536 1658 1414 1287 1407 1535
8 1409 1285 1412 1537 1538 1413 1540 1660
8 1545 1421 1540 1660 1418 1292 1412 1537
8 1539 1414 1286 1411 1661 1541 1413 1538
8 1540 1417 1544 1663 1413 1288 1416 1541
8 1421 1296 1425 1548 1540 1417 1544 1663
8 1542 1415 1287 1414 1664 1543 1416 1541
8 1420 1294 1423 1547 1545 1421 1548 1666
8 1547 1423 1293 1419 1667 1549 1422 1546
8 1434 1301 1427 1553 1546 1422 1549 1667
8 1423 1297 1424 1549 1548 1425 1550 1668
8 1551 1426 1550 1668 1427 1298 1424 1549
8 1551 1426 1298 1427 1671 1552 1428 1554
8 1562 1432 1554 1674 1434 1301 1427 1553
8 1431 1299 1429 1558 1554 1428 1555 1675
8 1431 1299 1430 1560 1558 1429 1557 1680
8 1560 1430 1300 1432 1683 1559 1433 1563
8 1561 1431 1554 1674 1684 1560 1432 1562
8 1685 1563 1432 1562 1565 1435 1301 1434
8 1435 1302 1436 1566 1563 1433 1564 1686
8 1437 1303 1438 1568 1565 1435 1566 1688
8 1438 1304 1439 1569 1566 1436 1567 1689
8 1440 1306 1441 1571 1568 1438 1569 1691
8 1441 1307 1442 1572 1569 1439 1570 1692
8 1443 1309 1444 1574 1571 1441 1572 1694
8 1310 1444 1572 1442 1445 1575 1695 1573
8 1446 1312 1447 1576 1574 1444 1575 1696
8 1486 1349 1485 1614 1579 1449 1577 1699
8 1451 1317 1449 1579 1581 1450 1578 1701
8 1487 1350 1486 1615 1582 1451 1579 1702
8 1581 1450 1580 1704 1453 1318 1452 1584
8 1582 1451 1581 1705 1454 1319 1453 1585
8 1584 1452 1583 1706 1456 1320 1455 1586
8 1585 1453 1584 1707 1457 1321 1456 1587
8 1587 1456 1586 1708 1458 1323 1459 1588
8 1633 1506 1589 1710 1507 1373 1461 1590
8 1464 1329 1461 1590 1594 1463 1589 1710
8 1468 1336 1462 1591 1595 1464 1590 1711
8 1634 1507 1590 1711 1508 1374 1462 1591
8 1473 1341 1463 1594 1603 1477 1593 1716
8 1469 1337 1464 1595 1599 1473 1594 1717
8 1471 1597 1467 1335 1600 1718 1596 1470
8 1718 1600 1496 1616 1596 1470 1360 1488
8 1336 1468 1597 1471 1472 1598 1719 1601
8 1469 1337 1473 1599 1598 1472 1602 1720
8 1722 1604 1501 1623 1600 1474 1367 1496
8 1475 1601 1471 1339 1604 1722 1600 1474
8 1602 1476 1605 1723 1472 1340 1475 1601
8 1476 1602 1724 1606 1341 1473 1603 1477
8 1483 1347 1478 1609 1612 1482 1608 1731
8 1495 1370 1504 1622 1609 1478 1608 1731
8 1618 1495 1609 1732 1494 1361 1479 1610
8 1484 1348 1479 1610 1613 1483 1609 1732
8 1486 1349 1482 1612 1614 1485 1611 1733
8 1613 1483 1612 1734 1487 1350 1486 1615
8 1489 1363 1496 1616 1617 1499 1623 1736
8 1491 1365 1499 1617 1619 1500 1626 1737
8 1618 1495 1361 1494 1738 1622 1497 1621
8 1739 1625 1498 1620 1619 1500 1366 1492
8 1621 1497 1362 1493 1740 1624 1498 1620
8 1742 1631 1504 1622 1624 1505 1371 1497
8 1743 1628 1502 1626 1623 1501 1368 1499
8 1744 1630 1505 1624 1625 1503 1372 1498
8 1745 1629 1503 1625 1626 1502 1369 1500
8 1520 1398 1528 1644 1633 1506 1632 1751
8 1637 1520 1633 1752 1512 1388 1507 1634
8 1635 1519 1643 1753 1510 1391 1522 1636
8 1657 1535 1643 1753 1534 1406 1519 1635
8 1515 1392 1522 1636 1639 1523 1646 1754
8 1517 1389 1521 1641 1637 1520 1644 1755
8 1524 1638 1756 1648 1393 1514 1639 1523
8 1640 1526 1395 1516 1756 1648 1524 1638
8 1642 1525 1396 1518 1757 1649 1526 1640
8 1758 1645 1521 1641 1642 1525 1396 1518
8 1646 1531 1400 1522 1760 1650 1527 1643
8 1535 1407 1536 1658 1643 1527 1650 1760
8 1521 1399 1529 1645 1644 1528 1651 1761
8 1647 1530 1652 1762 1525 1404 1529 1645
8 1401 1523 1648 1532 1531 1646 1763 1655
8 1525 1404 1533 1649 1647 1530 1654 1765
8 1533 1649 1766 1656 1403 1526 1648 1532
8 1662 1542 1658 1774 1539 1414 1535 1657
8 1542 1415 1543 1664 1658 1536 1659 1775
8 1660 1540 1663 1777 1538 1413 1541 1661
8 1545 1421 1548 1666 1660 1540 1663 1777
8 1662 1542 1414 1539 1778 1664 1541 1661
8 1664 1543 1416 1541 1779 1665 1544 1663
8 1548 1425 1550 1668 1663 1544 1665 1779
8 1547 1423 1549 1667 1666 1548 1668 1781
8 1670 1551 1668 1781 1553 1427 1549 1667
8 1551 1426 1552 1671 1668 1550 1669 1782
8 1670 1551 1427 1553 1784 1671 1554 1674
8 1675 1555 1672 1785 1554 1428 1552 1671
8 1678 1556 1673 1789 1558 1429 1555 1675
8 1561 1431 1558 1681 1674 1554 1675 1790
8 1794 1677 1556 1678 1680 1557 1429 1558
8 1560 1430 1559 1683 1680 1557 1679 1797
8 1561 1431 1560 1684 1681 1558 1680 1798
8 1563 1433 1564 1686 1683 1559 1682 1800
8 1684 1560 1432 1562 1801 1683 1563 1685
8 1565 1435 1566 1688 1685 1563 1686 1802
8 1566 1436 1567 1689 1686 1564 1687 1803
8 1568 1438 1569 1691 1688 1566 1689 1805
8 1569 1439 1570 1692 1689 1567 1690 1806
8 1571 1441 1572 1694 1691 1569 1692 1808
8 1442 1572 1692 1570 1573 1695 1809 1693
8 1574 1444 1575 1696 1694 1572 1695 1810
8 1614 1485 1592 1712 1699 1577 1697 1813
8 1579 1449 1577 1699 1701 1578 1698 1815
8 1615 1486 1614 1735 1702 1579 1699 1816
8 1701 1578 1700 1818 1581 1450 1580 1704
8 1582 1451 1579 1702 1705 1581 1701 1819
8 1704 1580 1703 1820 1584 1452 1583 1706
8 1705 1581 1704 1821 1585 1453 1584 1707
8 1707 1584 1706 1822 1587 1456 1586 1708
8 1710 1589 1506 1633 1824 1709 1632 1751
8 1594 1463 1589 1710 1716 1593 1709 1824
8 1752 1633 1710 1825 1634 1507 1590 1711
8 1595 1464 1590 1711 1717 1594 1710 1825
8 1830 1714 1592 1712 1733 1611 1485 1614
8 1603 1477 1593 1716 1725 1607 1715 1834
8 1599 1473 1594 1717 1721 1603 1716 1835
8 1837 1722 1623 1736 1718 1600 1496 1616
8 1719 1601 1722 1837 1597 1471 1600 1718
8 1602 1720 1598 1472 1723 1838 1719 1601
8 1720 1602 1473 1599 1839 1724 1603 1721
8 1723 1605 1726 1840 1601 1475 1604 1722
8 1840 1726 1628 1743 1722 1604 1501 1623
8 1724 1606 1727 1841 1602 1476 1605 1723
8 1725 1607 1728 1842 1603 1477 1606 1724
8 1612 1482 1608 1731 1733 1611 1730 1849
8 1741 1627 1730 1849 1622 1504 1608 1731
8 1613 1483 1609 1732 1734 1612 1731 1850
8 1618 1495 1622 1738 1732 1609 1731 1850
8 1615 1486 1612 1734 1735 1614 1733 1851
8 1852 1743 1626 1737 1736 1623 1499 1617
8 1853 1745 1625 1739 1737 1626 1500 1619
8 1855 1742 1622 1738 1740 1624 1497 1621
8 1856 1744 1624 1740 1739 1625 1498 1620
8 1741 1627 1504 1622 1857 1746 1631 1742
8 1742 1631 1505 1624 1858 1749 1630 1744
8 1859 1747 1629 1745 1743 1628 1502 1626
8 1860 1748 1630 1744 1745 1629 1503 1625
8 1644 1528 1651 1761 1751 1632 1750 1865
8 1637 1520 1644 1755 1752 1633 1751 1866
8 1754 1646 1522 1636 1867 1760 1643 1753
8 1657 1535 1658 1774 1753 1643 1760 1867
8 1639 1523 1646 1754 1756 1648 1763 1868
8 1641 1521 1645 1758 1755 1644 1761 1869
8 1757 1649 1526 1640 1870 1766 1648 1756
8 1642 1525 1649 1757 1759 1647 1765 1871
8 1759 1647 1762 1872 1642 1525 1645 1758
8 1760 1650 1767 1874 1646 1531 1655 1763
8 1658 1536 1659 1775 1760 1650 1767 1874
8 1762 1652 1768 1875 1645 1529 1651 1761
8 1764 1653 1769 1876 1647 1530 1652 1762
8 1656 1766 1877 1773 1532 1648 1763 1655
8 1771 1879 1765 1654 1653 1764 1647 1530
8 1533 1649 1765 1654 1656 1766 1880 1772
8 1662 1542 1664 1778 1774 1658 1775 1887
8 1664 1543 1665 1779 1775 1659 1776 1888
8 1778 1664 1541 1661 1890 1779 1663 1777
8 1666 1548 1668 1781 1777 1663 1779 1890
8 1782 1669 1780 1891 1668 1550 1665 1779
8 1670 1551 1671 1784 1781 1668 1782 1893
8 1671 1552 1672 1785 1782 1669 1783 1894
8 1790 1675 1785 1896 1674 1554 1671 1784
8 1675 1555 1673 1789 1785 1672 1786 1897
8 1792 1676 1788 1903 1678 1556 1673 1789
8 1795 1678 1789 1904 1681 1558 1675 1790
8 1792 1676 1556 1678 1906 1791 1677 1794
8 1680 1557 1679 1797 1794 1677 1793 1909
8 1910 1794 1678 1795 1798 1680 1558 1681
8 1683 1559 1682 1800 1797 1679 1796 1912
8 1684 1560 1683 1801 1798 1680 1797 1913
8 1686 1564 1687 1803 1800 1682 1799 1915
8 1685 1563 1686 1802 1801 1683 1800 1916
8 1688 1566 1689 1805 1802 1686 1803 1917
8 1689 1567 1690 1806 1803 1687 1804 1918
8 1691 1569 1692 1808 1805 1689 1806 1920
8 1692 1570 1693 1809 1806 1690 1807 1921
8 1694 1572 1695 1810 1808 1692 1809 1922
8 1829 1713 1811 1926 1712 1592 1697 1813
8 1813 1697 1812 1928 1699 1577 1698 1815
8 1735 1614 1712 1828 1816 1699 1813 1929
8 1815 1698 1814 1931 1701 1578 1700 1818
8 1702 1579 1699 1816 1819 1701 1815 1932
8 1818 1700 1817 1933 1704 1580 1703 1820
8 1819 1701 1818 1934 1705 1581 1704 1821
8 1821 1704 1820 1935 1707 1584 1706 1822
8 1824 1709 1632 1751 1937 1823 1750 1865
8 1716 1593 1709 1824 1834 1715 1823 1937
8 1825 1710 1633 1752 1938 1824 1751 1866
8 1717 1594 1710 1825 1835 1716 1824 1938
8 1945 1830 1712 1828 1851 1733 1614 1735
8 1830 1714 1831 1946 1712 1592 1713 1829
8 1947 1832 1714 1830 1849 1730 1611 1733
8 1843 1729 1607 1725 1950 1833 1715 1834
8 1721 1603 1716 1835 1836 1725 1834 1951
8 1836 1725 1842 1953 1721 1603 1724 1839
8 1723 1838 1719 1601 1840 1954 1837 1722
8 1954 1840 1743 1852 1837 1722 1623 1736
8 1724 1839 1720 1602 1841 1955 1838 1723
8 1841 1727 1844 1956 1723 1605 1726 1840
8 1956 1844 1747 1859 1840 1726 1628 1743
8 1728 1842 1724 1606 1845 1957 1841 1727
8 1725 1607 1729 1843 1842 1728 1846 1958
8 1741 1627 1746 1857 1849 1730 1848 1965
8 1734 1612 1731 1850 1851 1733 1849 1966
8 1854 1741 1849 1966 1738 1622 1731 1850
8 1967 1859 1745 1853 1852 1743 1626 1737
8 1968 1860 1744 1856 1853 1745 1625 1739
8 1854 1741 1622 1738 1969 1857 1742 1855
8 1855 1742 1624 1740 1970 1858 1744 1856
8 1857 1746 1631 1742 1971 1861 1749 1858
8 1858 1749 1630 1744 1972 1863 1748 1860
8 1859 1747 1862 1973 1745 1629 1748 1860
8 1875 1768 1864 1977 1761 1651 1750 1865
8 1755 1644 1761 1869 1866 1751 1865 1978
8 1867 1760 1874 1979 1754 1646 1763 1868
8 1774 1658 1775 1887 1867 1760 1874 1979
8 1870 1766 1648 1756 1980 1877 1763 1868
8 1872 1762 1875 1981 1758 1645 1761 1869
8 1757 1649 1766 1870 1871 1765 1880 1982
8 1983 1879 1764 1873 1871 1765 1647 1759
8 1873 1764 1876 1984 1759 1647 1762 1872
8 1877 1773 1655 1763 1986 1881 1767 1874
8 1775 1659 1776 1888 1874 1767 1881 1986
8 1876 1769 1882 1987 1762 1652 1768 1875
8 1878 1770 1883 1988 1764 1653 1769 1876
8 1880 1772 1656 1766 1989 1886 1773 1877
8 1878 1770 1653 1764 1990 1884 1771 1879
8 1765 1654 1772 1880 1879 1771 1885 1991
8 1778 1664 1779 1890 1887 1775 1888 1997
8 1998 1889 1776 1888 1891 1780 1665 1779
8 1893 1782 1891 2000 1781 1668 1779 1890
8 1894 1783 1892 2001 1782 1669 1780 1891
8 1784 1671 1785 1896 1893 1782 1894 2003
8 1897 1786 1895 2004 1785 1672 1783 1894
8 1790 1675 1789 1904 1896 1785 1897 2006
8 1901 1787 1898 2007 1789 1673 1786 1897
8 1903 1788 1900 2013 1789 1673 1787 1901
8 1792 1676 1791 1906 1903 1788 1902 2016
8 1907 1792 1903 2017 1795 1678 1789 1904
8 1906 1791 1677 1794 2019 1905 1793 1909
8 1907 1792 1678 1795 2020 1906 1794 1910
8 1797 1679 1796 1912 1909 1793 1908 2022
8 1798 1680 1797 1913 1910 1794 1909 2023
8 1800 1682 1799 1915 1912 1796 1911 2025
8 1801 1683 1800 1916 1913 1797 1912 2026
8 1803 1687 1804 1918 1915 1799 1914 2028
8 1802 1686 1803 1917 1916 1800 1915 2029
8 1805 1689 1806 1920 1917 1803 1918 2030
8 1806 1690 1807 1921 1918 1804 1919 2031
8 1808 1692 1809 1922 1920 1806 1921 2032
8 1939 1826 1924 2037 1829 1713 1811 1926
8 1926 1811 1925 2039 1813 1697 1812 1928
8 1944 1829 1926 2040 1828 1712 1813 1929
8 1928 1812 1927 2042 1815 1698 1814 1931
8 1929 1813 1928 2043 1816 1699 1815 1932
8 1931 1814 1930 2044 1818 1700 1817 1933
8 1932 1815 1931 2045 1819 1701 1818 1934
8 1934 1818 1933 2046 1821 1704 1820 1935
8 2048 1936 1823 1937 1977 1864 1750 1865
8 1950 1833 1715 1834 2048 1936 1823 1937
8 1938 1824 1751 1866 2049 1937 1865 1978
8 1835 1716 1824 1938 1951 1834 1937 2049
8 1939 1826 1713 1829 2053 1942 1831 1946
8 1940 1827 1923 2035 2053 1942 1826 1939
8 1945 1830 1946 2058 1828 1712 1829 1944
8 2059 1947 1830 1945 1966 1849 1733 1851
8 1947 1832 1730 1849 2060 1948 1848 1965
8 1947 1832 1948 2060 1830 1714 1831 1946
8 1959 1847 1729 1843 2063 1949 1833 1950
8 1952 1843 1725 1836 2064 1950 1834 1951
8 1836 1725 1843 1952 1953 1842 1958 2066
8 1953 1842 1957 2067 1839 1724 1841 1955
8 1841 1955 1838 1723 1956 2068 1954 1840
8 2068 1956 1859 1967 1954 1840 1743 1852
8 1956 1844 1960 2069 1859 1747 1862 1973
8 1845 1957 1841 1727 1960 2069 1956 1844
8 1728 1842 1957 1845 1846 1958 2071 1961
8 1962 2072 1959 1847 1846 1958 1843 1729
8 1971 1861 1964 2077 1857 1746 1848 1965
8 1854 1741 1857 1969 1966 1849 1965 2078
8 1967 1859 1973 2079 1853 1745 1860 1968
8 1970 1858 1744 1856 2080 1972 1860 1968
8 1969 1857 1742 1855 2081 1971 1858 1970
8 1971 1861 1749 1858 2082 1974 1863 1972
8 1973 1862 1975 2083 1860 1748 1863 1972
8 1987 1882 1976 2086 1875 1768 1864 1977
8 1981 1875 1977 2087 1869 1761 1865 1978
8 1980 1877 1763 1868 2088 1986 1874 1979
8 1887 1775 1888 1997 1979 1874 1986 2088
8 1880 1982 2089 1989 1766 1870 1980 1877
8 1984 1876 1987 2090 1872 1762 1875 1981
8 1765 1871 1983 1879 1880 1982 2091 1991
8 1985 1878 1764 1873 2092 1990 1879 1983
8 1985 1878 1988 2093 1873 1764 1876 1984
8 2094 1992 1881 1986 1998 1889 1776 1888
8 1986 1881 1992 2094 1877 1773 1886 1989
8 1988 1883 1993 2095 1876 1769 1882 1987
8 1878 1770 1884 1990 1988 1883 1994 2096
8 1991 1885 1772 1880 2097 1996 1886 1989
8 1879 1771 1885 1991 1990 1884 1995 2098
8 2103 1998 1888 1997 2000 1891 1779 1890
8 2104 1999 1889 1998 2001 1892 1780 1891
8 2003 1894 2001 2106 1893 1782 1891 2000
8 2004 1895 2002 2107 1894 1783 1892 2001
8 2006 1897 2004 2109 1896 1785 1894 2003
8 2007 1898 2005 2110 1897 1786 1895 2004
8 2014 1901 2007 2112 1904 1789 1897 2006
8 2011 1899 2008 2113 1901 1787 1898 2007
8 2119 2010 1899 2011 2013 1900 1787 1901
8 2016 1902 2012 2122 1903 1788 1900 2013
8 2017 1903 2013 2123 1904 1789 1901 2014
8 1906 1791 1905 2019 2016 1902 2015 2125
8 1907 1792 1906 2020 2017 1903 2016 2126
8 1909 1793 1908 2022 2019 1905 2018 2128
8 2020 1906 1794 1910 2129 2019 1909 2023
8 1912 1796 1911 2025 2022 1908 2021 2131
8 1913 1797 1912 2026 2023 1909 2022 2132
8 1915 1799 1914 2028 2025 1911 2024 2134
8 1916 1800 1915 2029 2026 1912 2025 2135
8 1918 1804 1919 2031 2028 1914 2027 2136
8 1917 1803 1918 2030 2029 1915 2028 2137
8 1920 1806 1921 2032 2030 1918 2031 2138
8 1940 1827 1941 2054 2035 1923 2033 2140
8 2035 1923 2034 2143 1939 1826 1924 2037
8 2037 1924 2036 2146 1926 1811 1925 2039
8 2051 1939 2037 2147 1944 1829 1926 2040
8 2039 1925 2038 2149 1928 1812 1927 2042
8 2040 1926 2039 2150 1929 1813 1928 2043
8 2042 1927 2041 2151 1931 1814 1930 2044
8 2043 1928 2042 2152 1932 1815 1931 2045
8 2045 1931 2044 2153 1934 1818 1933 2046
8 2155 2047 1936 2048 2086 1976 1864 1977
8 2063 1949 1833 1950 2155 2047 1936 2048
8 2156 2048 1937 2049 2087 1977 1865 1978
8 2064 1950 1834 1951 2156 2048 1937 2049
8 2051 1939 1829 1944 2160 2053 1946 2058
8 2052 1940 2035 2144 2160 2053 1939 2051
8 2053 1942 1831 1946 2163 2057 1948 2060
8 2055 1943 1827 1940 2163 2057 1942 2053
8 2055 1943 2056 2164 1940 1827 1941 2054
8 2059 1947 1849 1966 2167 2060 1965 2078
8 2059 1947 2060 2167 1945 1830 1946 2058
8 2077 1964 2061 2168 1965 1848 1948 2060
8 2070 1963 1847 1959 2170 2062 1949 2063
8 2065 1959 1843 1952 2171 2063 1950 2064
8 2173 2072 1958 2066 2065 1959 1843 1952
8 1953 1842 1958 2066 2067 1957 2071 2174
8 2068 1956 2069 2175 1967 1859 1973 2079
8 2067 1957 2069 2175 1955 1841 1956 2068
8 1845 1957 2069 1960 1961 2071 2176 2073
8 2069 1960 2073 2176 1973 1862 1975 2083
8 2070 1963 2075 2177 1959 1847 1962 2072
8 1846 1958 2071 1961 1962 2072 2178 2074
8 2077 1964 1861 1971 2182 2076 1974 2082
8 2081 1971 2077 2183 1969 1857 1965 2078
8 2079 1973 2083 2184 1968 1860 1972 2080
8 2081 1971 1858 1970 2185 2082 1972 2080
8 2083 1975 2084 2186 1972 1863 1974 2082
8 2086 1976 1882 1987 2189 2085 1993 2095
8 2090 1987 2086 2190 1981 1875 1977 2087
8 2191 2094 1986 2088 2103 1998 1888 1997
8 2088 1986 2094 2191 1980 1877 1989 2089
8 1991 2091 2192 2097 1880 1982 2089 1989
8 2093 1988 2095 2193 1984 1876 1987 2090
8 1879 1983 2092 1990 1991 2091 2194 2098
8 1985 1878 1990 2092 2093 1988 2096 2195
8 2097 1996 1886 1989 2196 2099 1992 2094
8 2196 2099 1992 2094 2104 1999 1889 1998
8 1994 2096 1988 1883 2100 2197 2095 1993
8 2096 1994 1884 1990 2198 2101 1995 2098
8 1995 2098 2199 2102 1885 1991 2097 1996
8 2203 2104 1998 2103 2106 2001 1891 2000
8 2107 2002 2105 2204 2001 1892 1999 2104
8 2109 2004 2107 2206 2003 1894 2001 2106
8 2110 2005 2108 2207 2004 1895 2002 2107
8 2112 2007 2110 2209 2006 1897 2004 2109
8 2113 2008 2111 2210 2007 1898 2005 2110
8 2120 2011 2113 2212 2014 1901 2007 2112
8 2117 2009 2114 2213 2011 1899 2008 2113
8 2219 2116 2009 2117 2119 2010 1899 2011
8 2222 2118 2010 2119 2122 2012 1900 2013
8 2223 2119 2011 2120 2123 2013 1901 2014
8 2016 1902 2015 2125 2122 2012 2121 2225
8 2126 2016 2122 2226 2017 1903 2013 2123
8 2019 1905 2018 2128 2125 2015 2124 2228
8 2020 1906 2019 2129 2126 2016 2125 2229
8 2022 1908 2021 2131 2128 2018 2127 2231
8 2023 1909 2022 2132 2129 2019 2128 2232
8 2025 1911 2024 2134 2131 2021 2130 2234
8 2026 1912 2025 2135 2132 2022 2131 2235
8 1914 2028 2134 2024 2027 2136 2236 2133
8 2029 1915 2028 2137 2135 2025 2134 2237
8 2030 1918 2031 2138 2137 2028 2136 2238
8 2157 2050 2139 2240 2054 1941 2033 2140
8 2052 1940 2054 2161 2144 2035 2140 2242
8 2140 2033 2141 2243 2035 1923 2034 2143
8 2143 2034 2142 2246 2037 1924 2036 2146
8 2144 2035 2143 2247 2051 1939 2037 2147
8 2146 2036 2145 2249 2039 1925 2038 2149
8 2147 2037 2146 2250 2040 1926 2039 2150
8 2149 2038 2148 2251 2042 1927 2041 2151
8 2150 2039 2149 2252 2043 1928 2042 2152
8 2152 2042 2151 2253 2045 1931 2044 2153
8 2255 2154 2047 2155 2189 2085 1976 2086
8 2170 2062 1949 2063 2255 2154 2047 2155
8 2256 2155 2048 2156 2190 2086 1977 2087
8 2171 2063 1950 2064 2256 2155 2048 2156
8 2258 2159 2050 2157 2164 2056 1941 2054
8 2160 2053 1946 2058 2262 2163 2060 2167
8 2162 2055 1940 2052 2262 2163 2053 2160
8 2162 2055 2164 2263 2052 1940 2054 2161
8 2163 2057 1948 2060 2264 2165 2061 2168
8 2055 1943 2057 2163 2164 2056 2165 2264
8 2182 2076 2166 2268 2077 1964 2061 2168
8 2183 2077 2168 2269 2078 1965 2060 2167
8 2070 1963 2062 2170 2177 2075 2169 2271
8 2172 2070 1959 2065 2272 2170 2063 2171
8 2172 2070 2177 2273 2065 1959 2072 2173
8 2066 1958 2072 2173 2174 2071 2178 2274
8 2067 1957 2071 2174 2175 2069 2176 2275
8 2175 2069 2176 2275 2079 1973 2083 2184
8 2071 1961 2074 2178 2176 2073 2179 2276
8 2176 2073 2179 2276 2083 1975 2084 2186
8 2072 1962 2075 2177 2178 2074 2180 2277
8 2182 2076 1974 2082 2280 2181 2084 2186
8 2183 2077 1971 2081 2281 2182 2082 2185
8 2184 2083 2186 2282 2080 1972 2082 2185
8 2189 2085 1993 2095 2285 2188 2100 2197
8 2190 2086 1987 2090 2286 2189 2095 2193
8 2192 2097 1989 2089 2287 2196 2094 2191
8 2287 2196 2094 2191 2203 2104 1998 2103
8 2194 2098 1991 2091 2288 2199 2097 2192
8 2195 2096 2197 2289 2093 1988 2095 2193
8 2096 2195 2290 2198 1990 2092 2194 2098
8 2097 1996 2099 2196 2199 2102 2200 2291
8 2196 2099 1999 2104 2291 2200 2105 2204
8 2100 2197 2292 2201 1994 2096 2198 2101
8 1995 2098 2198 2101 2102 2199 2293 2202
8 2206 2107 2204 2296 2106 2001 2104 2203
8 2207 2108 2205 2297 2107 2002 2105 2204
8 2209 2110 2207 2299 2109 2004 2107 2206
8 2210 2111 2208 2300 2110 2005 2108 2207
8 2212 2113 2210 2302 2112 2007 2110 2209
8 2213 2114 2211 2303 2113 2008 2111 2210
8 2220 2117 2213 2305 2120 2011 2113 2212
8 2216 2115 2214 2306 2117 2009 2114 2213
8 2216 2115 2009 2117 2311 2217 2116 2219
8 2219 2116 2010 2119 2314 2218 2118 2222
8 2315 2219 2117 2220 2223 2119 2011 2120
8 2122 2012 2121 2225 2222 2118 2221 2317
8 2318 2222 2119 2223 2226 2122 2013 2123
8 2125 2015 2124 2228 2225 2121 2224 2320
8 2126 2016 2125 2229 2226 2122 2225 2321
8 2128 2018 2127 2231 2228 2124 2227 2323
8 2129 2019 2128 2232 2229 2125 2228 2324
8 2131 2021 2130 2234 2231 2127 2230 2326
8 2132 2022 2131 2235 2232 2128 2231 2327
8 2134 2024 2133 2236 2234 2130 2233 2328
8 2135 2025 2134 2237 2235 2131 2234 2329
8 2137 2028 2136 2238 2237 2134 2236 2330
8 2157 2050 2158 2259 2240 2139 2239 2332
8 2257 2157 2240 2334 2161 2054 2140 2242
8 2240 2139 2241 2335 2140 2033 2141 2243
8 2242 2140 2243 2337 2144 2035 2143 2247
8 2243 2141 2244 2338 2143 2034 2142 2246
8 2246 2142 2245 2341 2146 2036 2145 2249
8 2247 2143 2246 2342 2147 2037 2146 2250
8 2249 2145 2248 2343 2149 2038 2148 2251
8 2250 2146 2249 2344 2150 2039 2149 2252
8 2252 2149 2251 2345 2152 2042 2151 2253
8 2169 2271 2347 2254 2062 2170 2255 2154
8 2189 2085 2188 2285 2255 2154 2254 2347
8 2348 2255 2155 2256 2286 2189 2086 2190
8 2272 2170 2063 2171 2348 2255 2155 2256
8 2349 2258 2157 2257 2263 2164 2054 2161
8 2258 2159 2261 2351 2157 2050 2158 2259
8 2258 2159 2056 2164 2351 2261 2165 2264
8 2262 2163 2060 2167 2355 2264 2168 2269
8 2162 2055 2163 2262 2263 2164 2264 2355
8 2357 2266 2165 2264 2268 2166 2061 2168
8 2268 2166 2076 2182 2361 2267 2181 2280
8 2281 2182 2268 2362 2183 2077 2168 2269
8 2271 2169 2270 2364 2177 2075 2180 2277
8 2172 2070 2170 2272 2273 2177 2271 2365
8 2072 2173 2274 2178 2177 2273 2366 2277
8 2071 2174 2275 2176 2178 2274 2367 2276
8 2275 2176 2276 2367 2184 2083 2186 2282
8 2283 2187 2084 2186 2368 2278 2179 2276
8 2178 2074 2180 2277 2276 2179 2278 2368
8 2283 2187 2279 2370 2186 2084 2181 2280
8 2281 2182 2082 2185 2371 2280 2186 2282
8 2188 2285 2374 2284 2100 2197 2292 2201
8 2286 2189 2095 2193 2375 2285 2197 2289
8 2192 2097 2196 2287 2288 2199 2291 2376
8 2287 2196 2104 2203 2376 2291 2204 2296
8 2194 2098 2199 2288 2290 2198 2293 2377
8 2289 2197 2096 2195 2378 2292 2198 2290
8 2291 2200 2105 2204 2379 2294 2205 2297
8 2199 2102 2200 2291 2293 2202 2294 2379
8 2198 2101 2202 2293 2292 2201 2295 2380
8 2299 2207 2297 2383 2206 2107 2204 2296
8 2300 2208 2298 2384 2207 2108 2205 2297
8 2302 2210 2300 2386 2209 2110 2207 2299
8 2303 2211 2301 2387 2210 2111 2208 2300
8 2305 2213 2303 2389 2212 2113 2210 2302
8 2306 2214 2304 2390 2213 2114 2211 2303
8 2310 2216 2306 2392 2220 2117 2213 2305
8 2308 2215 2307 2393 2216 2115 2214 2306
8 2308 2215 2115 2216 2396 2309 2217 2311
8 2310 2216 2117 2220 2398 2311 2219 2315
8 2311 2217 2116 2219 2399 2312 2218 2314
8 2314 2218 2118 2222 2402 2313 2221 2317
8 2315 2219 2119 2223 2403 2314 2222 2318
8 2225 2121 2224 2320 2317 2221 2316 2405
8 2226 2122 2225 2321 2318 2222 2317 2406
8 2228 2124 2227 2323 2320 2224 2319 2408
8 2229 2125 2228 2324 2321 2225 2320 2409
8 2231 2127 2230 2326 2323 2227 2322 2411
8 2232 2128 2231 2327 2324 2228 2323 2412
8 2234 2130 2233 2328 2326 2230 2325 2413
8 2235 2131 2234 2329 2327 2231 2326 2414
8 2237 2134 2236 2330 2329 2234 2328 2415
8 2259 2158 2260 2352 2332 2239 2331 2417
8 2257 2157 2259 2350 2334 2240 2332 2419
8 2240 2139 2239 2332 2335 2241 2333 2420
8 2334 2240 2335 2422 2242 2140 2243 2337
8 2335 2241 2336 2423 2243 2141 2244 2338
8 2337 2243 2338 2425 2247 2143 2246 2342
8 2338 2244 2339 2426 2246 2142 2245 2341
8 2341 2245 2340 2428 2249 2145 2248 2343
8 2342 2246 2341 2429 2250 2146 2249 2344
8 2344 2249 2343 2430 2252 2149 2251 2345
8 2188 2285 2347 2254 2284 2374 2432 2346
8 2347 2254 2346 2432 2271 2169 2270 2364
8 2365 2271 2170 2272 2433 2347 2255 2348
8 2286 2189 2285 2375 2348 2255 2347 2433
8 2349 2258 2351 2435 2257 2157 2259 2350
8 2349 2258 2164 2263 2435 2351 2264 2355
8 2259 2158 2261 2351 2352 2260 2354 2437
8 2356 2265 2354 2437 2264 2165 2261 2351
8 2441 2357 2264 2355 2362 2268 2168 2269
8 2356 2265 2165 2264 2442 2358 2266 2357
8 2443 2359 2266 2357 2361 2267 2166 2268
8 2370 2279 2360 2446 2280 2181 2267 2361
8 2362 2268 2182 2281 2447 2361 2280 2371
8 2180 2277 2368 2278 2270 2364 2449 2363
8 2271 2365 2273 2177 2364 2450 2366 2277
8 2372 2283 2186 2282 2451 2368 2276 2367
8 2178 2274 2367 2276 2277 2366 2451 2368
8 2283 2187 2278 2368 2370 2279 2369 2452
8 2372 2283 2370 2453 2282 2186 2280 2371
8 2284 2374 2455 2373 2201 2292 2380 2295
8 2375 2285 2197 2289 2456 2374 2292 2378
8 2376 2291 2204 2296 2457 2379 2297 2383
8 2288 2199 2291 2376 2377 2293 2379 2457
8 2198 2290 2378 2292 2293 2377 2458 2380
8 2293 2202 2294 2379 2380 2295 2381 2459
8 2384 2298 2381 2459 2297 2205 2294 2379
8 2386 2300 2384 2463 2299 2207 2297 2383
8 2387 2301 2385 2464 2300 2208 2298 2384
8 2389 2303 2387 2466 2302 2210 2300 2386
8 2390 2304 2388 2467 2303 2211 2301 2387
8 2392 2306 2390 2469 2305 2213 2303 2389
8 2393 2307 2391 2470 2306 2214 2304 2390
8 2395 2308 2393 2472 2310 2216 2306 2392
8 2308 2215 2309 2396 2393 2307 2394 2473
8 2395 2308 2216 2310 2475 2396 2311 2398
8 2396 2309 2217 2311 2476 2397 2312 2399
8 2398 2311 2219 2315 2478 2399 2314 2403
8 2399 2312 2218 2314 2479 2400 2313 2402
8 2317 2221 2316 2405 2402 2313 2401 2482
8 2403 2314 2222 2318 2483 2402 2317 2406
8 2320 2224 2319 2408 2405 2316 2404 2485
8 2321 2225 2320 2409 2406 2317 2405 2486
8 2323 2227 2322 2411 2408 2319 2407 2488
8 2324 2228 2323 2412 2409 2320 2408 2489
8 2326 2230 2325 2413 2411 2322 2410 2490
8 2327 2231 2326 2414 2412 2323 2411 2491
8 2329 2234 2328 2415 2414 2326 2413 2492
8 2417 2331 2260 2352 2494 2416 2353 2438
8 2350 2259 2352 2436 2419 2332 2417 2496
8 2332 2239 2331 2417 2420 2333 2418 2497
8 2334 2240 2332 2419 2422 2335 2420 2499
8 2420 2333 2421 2500 2335 2241 2336 2423
8 2422 2335 2423 2502 2337 2243 2338 2425
8 2423 2336 2424 2503 2338 2244 2339 2426
8 2425 2338 2426 2505 2342 2246 2341 2429
8 2426 2339 2427 2506 2341 2245 2340 2428
8 2429 2341 2428 2507 2344 2249 2343 2430
8 2432 2346 2284 2374 2509 2431 2373 2455
8 2432 2346 2431 2509 2364 2270 2363 2449
8 2375 2285 2374 2456 2433 2347 2432 2510
8 2347 2433 2365 2271 2432 2510 2450 2364
8 2350 2259 2351 2435 2436 2352 2437 2514
8 2440 2356 2437 2514 2355 2264 2351 2435
8 2352 2260 2354 2437 2438 2353 2439 2516
8 2356 2265 2358 2442 2437 2354 2439 2516
8 2440 2356 2264 2355 2518 2442 2357 2441
8 2519 2443 2357 2441 2447 2361 2268 2362
8 2443 2359 2444 2520 2357 2266 2358 2442
8 2443 2359 2267 2361 2520 2444 2360 2446
8 2446 2360 2279 2370 2523 2445 2369 2452
8 2453 2370 2446 2524 2371 2280 2361 2447
8 2449 2363 2448 2525 2368 2278 2369 2452
8 2366 2277 2364 2450 2451 2368 2449 2526
8 2372 2283 2368 2451 2453 2370 2452 2527
8 2455 2373 2295 2380 2529 2454 2382 2460
8 2456 2374 2292 2378 2530 2455 2380 2458
8 2377 2293 2379 2457 2458 2380 2459 2531
8 2463 2384 2459 2531 2383 2297 2379 2457
8 2533 2461 2382 2460 2459 2381 2295 2380
8 2464 2385 2461 2533 2384 2298 2381 2459
8 2466 2387 2464 2537 2386 2300 2384 2463
8 2467 2388 2465 2538 2387 2301 2385 2464
8 2469 2390 2467 2540 2389 2303 2387 2466
8 2470 2391 2468 2541 2390 2304 2388 2467
8 2472 2393 2470 2543 2392 2306 2390 2469
8 2393 2307 2394 2473 2470 2391 2471 2544
8 2395 2308 2396 2475 2472 2393 2473 2546
8 2396 2309 2397 2476 2473 2394 2474 2547
8 2475 2396 2311 2398 2549 2476 2399 2478
8 2476 2397 2312 2399 2550 2477 2400 2479
8 2478 2399 2314 2403 2552 2479 2402 2483
8 2479 2400 2313 2402 2553 2480 2401 2482
8 2405 2316 2404 2485 2482 2401 2481 2556
8 2406 2317 2405 2486 2483 2402 2482 2557
8 2408 2319 2407 2488 2485 2404 2484 2559
8 2409 2320 2408 2489 2486 2405 2485 2560
8 2411 2322 2410 2490 2488 2407 2487 2561
8 2412 2323 2411 2491 2489 2408 2488 2562
8 2414 2326 2413 2492 2491 2411 2490 2563
8 2513 2434 2493 2565 2438 2353 2416 2494
8 2496 2417 2352 2436 2567 2494 2438 2515
8 2494 2416 2495 2568 2417 2331 2418 2497
8 2419 2332 2417 2496 2499 2420 2497 2570
8 2497 2418 2498 2571 2420 2333 2421 2500
8 2499 2420 2500 2573 2422 2335 2423 2502
8 2500 2421 2501 2574 2423 2336 2424 2503
8 2502 2423 2503 2576 2425 2338 2426 2505
8 2503 2424 2504 2577 2426 2339 2427 2506
8 2505 2426 2506 2578 2429 2341 2428 2507
8 2509 2431 2373 2455 2580 2508 2454 2529
8 2509 2431 2508 2580 2449 2363 2448 2525
8 2432 2510 2581 2509 2374 2456 2530 2455
8 2432 2510 2450 2364 2509 2581 2526 2449
8 2583 2511 2434 2513 2516 2439 2353 2438
8 2436 2352 2437 2514 2515 2438 2516 2588
8 2440 2356 2442 2518 2514 2437 2516 2588
8 2442 2358 2444 2520 2516 2439 2517 2589
8 2519 2443 2520 2591 2441 2357 2442 2518
8 2519 2443 2361 2447 2591 2520 2446 2524
8 2446 2360 2445 2523 2520 2444 2521 2592
8 2525 2448 2522 2593 2452 2369 2445 2523
8 2524 2446 2370 2453 2594 2523 2452 2527
8 2526 2449 2525 2595 2451 2368 2452 2527
8 2534 2462 2528 2597 2460 2382 2454 2529
8 2530 2455 2380 2458 2598 2529 2460 2532
8 2599 2533 2460 2532 2531 2459 2380 2458
8 2537 2464 2533 2599 2463 2384 2459 2531
8 2534 2462 2382 2460 2601 2535 2461 2533
8 2538 2465 2535 2601 2464 2385 2461 2533
8 2540 2467 2538 2604 2466 2387 2464 2537
8 2541 2468 2539 2605 2467 2388 2465 2538
8 2543 2470 2541 2607 2469 2390 2467 2540
8 2470 2391 2471 2544 2541 2468 2542 2608
8 2472 2393 2473 2546 2543 2470 2544 2610
8 2473 2394 2474 2547 2544 2471 2545 2611
8 2475 2396 2476 2549 2546 2473 2547 2613
8 2476 2397 2477 2550 2547 2474 2548 2614
8 2549 2476 2399 2478 2616 2550 2479 2552
8 2479 2400 2480 2553 2550 2477 2551 2617
8 2552 2479 2402 2483 2619 2553 2482 2557
8 2482 2401 2481 2556 2553 2480 2554 2620
8 2485 2404 2484 2559 2556 2481 2555 2623
8 2486 2405 2485 2560 2557 2482 2556 2624
8 2488 2407 2487 2561 2559 2484 2558 2625
8 2489 2408 2488 2562 2560 2485 2559 2626
8 2491 2411 2490 2563 2562 2488 2561 2627
8 2513 2434 2512 2585 2565 2493 2564 2630
8 2586 2513 2565 2632 2515 2438 2494 2567
8 2565 2493 2566 2633 2494 2416 2495 2568
8 2567 2494 2568 2635 2496 2417 2497 2570
8 2568 2495 2569 2636 2497 2418 2498 2571
8 2570 2497 2571 2638 2499 2420 2500 2573
8 2571 2498 2572 2639 2500 2421 2501 2574
8 2573 2500 2574 2641 2502 2423 2503 2576
8 2574 2501 2575 2642 2503 2424 2504 2577
8 2576 2503 2577 2643 2505 2426 2506 2578
8 2597 2528 2579 2645 2529 2454 2508 2580
8 2580 2508 2579 2645 2525 2448 2522 2593
8 2581 2509 2455 2530 2646 2580 2529 2598
8 2581 2509 2580 2646 2526 2449 2525 2595
8 2583 2511 2582 2648 2513 2434 2512 2585
8 2583 2511 2439 2516 2648 2582 2517 2589
8 2649 2583 2513 2586 2588 2516 2438 2515
8 2589 2517 2444 2520 2653 2587 2521 2592
8 2518 2442 2520 2591 2588 2516 2589 2654
8 2593 2522 2590 2655 2523 2445 2521 2592
8 2524 2446 2523 2594 2591 2520 2592 2656
8 2595 2525 2593 2657 2527 2452 2523 2594
8 2602 2536 2596 2659 2534 2462 2528 2597
8 2600 2534 2597 2660 2532 2460 2529 2598
8 2600 2534 2460 2532 2661 2601 2533 2599
8 2604 2538 2601 2661 2537 2464 2533 2599
8 2602 2536 2462 2534 2663 2603 2535 2601
8 2601 2535 2465 2538 2663 2603 2539 2605
8 2607 2541 2605 2665 2540 2467 2538 2604
8 2608 2542 2606 2666 2541 2468 2539 2605
8 2543 2470 2544 2610 2607 2541 2608 2668
8 2544 2471 2545 2611 2608 2542 2609 2669
8 2546 2473 2547 2613 2610 2544 2611 2671
8 2547 2474 2548 2614 2611 2545 2612 2672
8 2549 2476 2550 2616 2613 2547 2614 2674
8 2550 2477 2551 2617 2614 2548 2615 2675
8 2552 2479 2553 2619 2616 2550 2617 2677
8 2553 2480 2554 2620 2617 2551 2618 2678
8 2557 2482 2556 2624 2619 2553 2620 2680
8 2556 2481 2555 2623 2620 2554 2621 2681
8 2559 2484 2558 2625 2623 2555 2622 2683
8 2560 2485 2559 2626 2624 2556 2623 2684
8 2562 2488 2561 2627 2626 2559 2625 2685
8 2690 2629 2564 2630 2650 2584 2512 2585
8 2586 2513 2585 2651 2632 2565 2630 2691
8 2630 2564 2631 2692 2565 2493 2566 2633
8 2632 2565 2633 2694 2567 2494 2568 2635
8 2633 2566 2634 2695 2568 2495 2569 2636
8 2635 2568 2636 2697 2570 2497 2571 2638
8 2636 2569 2637 2698 2571 2498 2572 2639
8 2638 2571 2639 2700 2573 2500 2574 2641
8 2639 2572 2640 2701 2574 2501 2575 2642
8 2641 2574 2642 2702 2576 2503 2577 2643
8 2597 2528 2596 2659 2645 2579 2644 2704
8 2645 2579 2644 2704 2593 2522 2590 2655
8 2660 2597 2645 2705 2598 2529 2580 2646
8 2646 2580 2645 2705 2595 2525 2593 2657
8 2650 2584 2512 2585 2707 2647 2582 2648
8 2648 2582 2517 2589 2707 2647 2587 2653
8 2649 2583 2648 2708 2586 2513 2585 2651
8 2649 2583 2516 2588 2708 2648 2589 2654
8 2655 2590 2652 2710 2592 2521 2587 2653
8 2654 2589 2520 2591 2711 2653 2592 2656
8 2657 2593 2655 2712 2594 2523 2592 2656
8 2602 2536 2603 2663 2659 2596 2658 2714
8 2662 2602 2659 2715 2600 2534 2597 2660
8 2662 2602 2534 2600 2717 2663 2601 2661
8 2661 2601 2538 2604 2717 2663 2605 2665
8 2666 2606 2664 2718 2605 2539 2603 2663
8 2668 2608 2666 2720 2607 2541 2605 2665
8 2608 2542 2609 2669 2666 2606 2667 2721
8 2610 2544 2611 2671 2668 2608 2669 2723
8 2611 2545 2612 2672 2669 2609 2670 2724
8 2613 2547 2614 2674 2671 2611 2672 2726
8 2614 2548 2615 2675 2672 2612 2673 2727
8 2616 2550 2617 2677 2674 2614 2675 2729
8 2617 2551 2618 2678 2675 2615 2676 2730
8 2619 2553 2620 2680 2677 2617 2678 2732
8 2620 2554 2621 2681 2678 2618 2679 2733
8 2624 2556 2623 2684 2680 2620 2681 2735
8 2681 2621 2555 2623 2736 2682 2622 2683
8 2626 2559 2625 2685 2684 2623 2683 2737
8 2688 2628 2584 2650 2740 2686 2647 2707
8 2688 2628 2687 2742 2650 2584 2629 2690
8 2690 2629 2689 2745 2630 2564 2631 2692
8 2746 2690 2630 2691 2709 2650 2585 2651
8 2691 2630 2692 2747 2632 2565 2633 2694
8 2692 2631 2693 2748 2633 2566 2634 2695
8 2694 2633 2695 2750 2635 2568 2636 2697
8 2695 2634 2696 2751 2636 2569 2637 2698
8 2697 2636 2698 2753 2638 2571 2639 2700
8 2698 2637 2699 2754 2639 2572 2640 2701
8 2700 2639 2701 2755 2641 2574 2642 2702
8 2659 2596 2658 2714 2704 2644 2703 2757
8 2704 2644 2703 2757 2655 2590 2652 2710
8 2660 2597 2659 2715 2705 2645 2704 2758
8 2705 2645 2704 2758 2657 2593 2655 2712
8 2759 2706 2647 2707 2710 2652 2587 2653
8 2709 2650 2585 2651 2760 2707 2648 2708
8 2708 2648 2589 2654 2760 2707 2653 2711
8 2712 2655 2710 2761 2656 2592 2653 2711
8 2763 2713 2658 2714 2718 2664 2603 2663
8 2662 2602 2663 2717 2715 2659 2714 2764
8 2720 2666 2718 2767 2665 2605 2663 2717
8 2768 2719 2664 2718 2721 2667 2606 2666
8 2668 2608 2669 2723 2720 2666 2721 2770
8 2669 2609 2670 2724 2721 2667 2722 2771
8 2671 2611 2672 2726 2723 2669 2724 2773
8 2672 2612 2673 2727 2724 2670 2725 2774
8 2674 2614 2675 2729 2726 2672 2727 2776
8 2675 2615 2676 2730 2727 2673 2728 2777
8 2677 2617 2678 2732 2729 2675 2730 2779
8 2678 2618 2679 2733 2730 2676 2731 2780
8 2680 2620 2681 2735 2732 2678 2733 2782
8 2733 2679 2621 2681 2783 2734 2682 2736
8 2735 2681 2623 2684 2784 2736 2683 2737
8 2740 2686 2647 2707 2787 2738 2706 2759
8 2688 2628 2686 2740 2742 2687 2739 2789
8 2743 2688 2650 2709 2790 2740 2707 2760
8 2742 2687 2741 2792 2690 2629 2689 2745
8 2743 2688 2742 2793 2709 2650 2690 2746
8 2745 2689 2744 2795 2692 2631 2693 2748
8 2746 2690 2745 2796 2691 2630 2692 2747
8 2747 2692 2748 2797 2694 2633 2695 2750
8 2748 2693 2749 2798 2695 2634 2696 2751
8 2750 2695 2751 2800 2697 2636 2698 2753
8 2751 2696 2752 2801 2698 2637 2699 2754
8 2753 2698 2754 2802 2700 2639 2701 2755
8 2763 2713 2756 2804 2714 2658 2703 2757
8 2759 2706 2652 2710 2804 2756 2703 2757
8 2715 2659 2714 2764 2758 2704 2757 2805
8 2758 2704 2757 2805 2712 2655 2710 2761
8 2806 2759 2707 2760 2761 2710 2653 2711
8 2765 2716 2762 2808 2718 2664 2713 2763
8 2809 2763 2714 2764 2767 2718 2663 2717
8 2765 2716 2664 2718 2811 2766 2719 2768
8 2813 2768 2718 2767 2770 2721 2666 2720
8 2814 2769 2719 2768 2771 2722 2667 2721
8 2723 2669 2724 2773 2770 2721 2771 2816
8 2724 2670 2725 2774 2771 2722 2772 2817
8 2726 2672 2727 2776 2773 2724 2774 2819
8 2727 2673 2728 2777 2774 2725 2775 2820
8 2729 2675 2730 2779 2776 2727 2777 2822
8 2730 2676 2731 2780 2777 2728 2778 2823
8 2732 2678 2733 2782 2779 2730 2780 2825
8 2780 2731 2679 2733 2826 2781 2734 2783
8 2782 2733 2681 2735 2827 2783 2736 2784
8 2830 2785 2738 2787 2804 2756 2706 2759
8 2789 2739 2686 2740 2832 2786 2738 2787
8 2790 2740 2707 2760 2833 2787 2759 2806
8 2742 2687 2739 2789 2792 2741 2788 2835
8 2743 2688 2740 2790 2793 2742 2789 2836
8 2792 2741 2791 2838 2745 2689 2744 2795
8 2793 2742 2792 2839 2746 2690 2745 2796
8 2795 2744 2794 2841 2748 2693 2749 2798
8 2796 2745 2795 2842 2747 2692 2748 2797
8 2797 2748 2798 2843 2750 2695 2751 2800
8 2798 2749 2799 2844 2751 2696 2752 2801
8 2800 2751 2801 2845 2753 2698 2754 2802
8 2808 2762 2803 2847 2763 2713 2756 2804
8 2809 2763 2804 2848 2764 2714 2757 2805
8 2806 2759 2710 2761 2848 2804 2757 2805
8 2765 2716 2766 2811 2808 2762 2807 2850
8 2810 2765 2808 2851 2767 2718 2763 2809
8 2810 2765 2718 2767 2852 2811 2768 2813
8 2811 2766 2719 2768 2853 2812 2769 2814
8 2855 2814 2768 2813 2816 2771 2721 2770
8 2856 2815 2769 2814 2817 2772 2722 2771
8 2773 2724 2774 2819 2816 2771 2817 2858
8 2774 2725 2775 2820 2817 2772 2818 2859
8 2776 2727 2777 2822 2819 2774 2820 2861
8 2777 2728 2778 2823 2820 2775 2821 2862
8 2779 2730 2780 2825 2822 2777 2823 2864
8 2823 2778 2731 2780 2865 2824 2781 2826
8 2825 2780 2733 2782 2866 2826 2783 2827
8 2869 2828 2785 2830 2847 2803 2756 2804
8 2871 2829 2786 2832 2830 2785 2738 2787
8 2872 2830 2787 2833 2848 2804 2759 2806
8 2789 2739 2786 2832 2835 2788 2831 2874
8 2836 2789 2740 2790 2875 2832 2787 2833
8 2792 2741 2788 2835 2838 2791 2834 2877
8 2793 2742 2789 2836 2839 2792 2835 2878
8 2838 2791 2837 2880 2795 2744 2794 2841
8 2839 2792 2838 2881 2796 2745 2795 2842
8 2841 2794 2840 2882 2798 2749 2799 2844
8 2842 2795 2841 2883 2797 2748 2798 2843
8 2843 2798 2844 2884 2800 2751 2801 2845
8 2886 2846 2803 2847 2850 2807 2762 2808
8 2851 2808 2847 2887 2809 2763 2804 2848
8 2850 2807 2766 2811 2889 2849 2812 2853
8 2810 2765 2811 2852 2851 2808 2850 2890
8 2852 2811 2768 2813 2891 2853 2814 2855
8 2853 2812 2769 2814 2892 2854 2815 2856
8 2894 2856 2814 2855 2858 2817 2771 2816
8 2817 2772 2818 2859 2856 2815 2857 2895
8 2819 2774 2820 2861 2858 2817 2859 2897
8 2820 2775 2821 2862 2859 2818 2860 2898
8 2822 2777 2823 2864 2861 2820 2862 2900
8 2823 2778 2824 2865 2862 2821 2863 2901
8 2864 2823 2780 2825 2902 2865 2826 2866
8 2904 2867 2828 2869 2886 2846 2803 2847
8 2869 2828 2868 2906 2830 2785 2829 2871
8 2907 2869 2830 2872 2887 2847 2804 2848
8 2871 2829 2870 2909 2832 2786 2831 2874
8 2910 2871 2832 2875 2872 2830 2787 2833
8 2835 2788 2831 2874 2877 2834 2873 2912
8 2836 2789 2832 2875 2878 2835 2874 2913
8 2877 2834 2876 2915 2838 2791 2837 2880
8 2839 2792 2835 2878 2881 2838 2877 2916
8 2880 2837 2879 2917 2841 2794 2840 2882
8 2881 2838 2880 2918 2842 2795 2841 2883
8 2883 2841 2882 2919 2843 2798 2844 2884
8 2921 2885 2846 2886 2889 2849 2807 2850
8 2922 2886 2847 2887 2890 2850 2808 2851
8 2889 2849 2812 2853 2924 2888 2854 2892
8 2890 2850 2811 2852 2925 2889 2853 2891
8 2891 2853 2814 2855 2926 2892 2856 2894
8 2892 2854 2815 2856 2927 2893 2857 2895
8 2858 2817 2859 2897 2894 2856 2895 2929
8 2859 2818 2860 2898 2895 2857 2896 2930
8 2861 2820 2862 2900 2897 2859 2898 2932
8 2862 2821 2863 2901 2898 2860 2899 2933
8 2864 2823 2865 2902 2900 2862 2901 2934
8 2904 2867 2846 2886 2936 2903 2885 2921
8 2904 2867 2903 2936 2869 2828 2868 2906
8 2937 2904 2869 2907 2922 2886 2847 2887
8 2906 2868 2905 2939 2871 2829 2870 2909
8 2907 2869 2906 2940 2872 2830 2871 2910
8 2909 2870 2908 2942 2874 2831 2873 2912
8 2910 2871 2909 2943 2875 2832 2874 2913
8 2912 2873 2911 2945 2877 2834 2876 2915
8 2878 2835 2874 2913 2916 2877 2912 2946
8 2915 2876 2914 2947 2880 2837 2879 2917
8 2916 2877 2915 2948 2881 2838 2880 2918
8 2918 2880 2917 2949 2883 2841 2882 2919
8 2921 2885 2849 2889 2951 2920 2888 2924
8 2952 2921 2886 2922 2925 2889 2850 2890
8 2924 2888 2854 2892 2954 2923 2893 2927
8 2925 2889 2853 2891 2955 2924 2892 2926
8 2926 2892 2856 2894 2956 2927 2895 2929
8 2895 2857 2896 2930 2927 2893 2928 2957
8 2897 2859 2898 2932 2929 2895 2930 2959
8 2898 2860 2899 2933 2930 2896 2931 2960
8 2900 2862 2901 2934 2932 2898 2933 2961
8 2936 2903 2885 2921 2963 2935 2920 2951
8 2936 2903 2935 2963 2906 2868 2905 2939
8 2937 2904 2886 2922 2964 2936 2921 2952
8 2937 2904 2936 2964 2907 2869 2906 2940
8 2939 2905 2938 2966 2909 2870 2908 2942
8 2940 2906 2939 2967 2910 2871 2909 2943
8 2942 2908 2941 2969 2912 2873 2911 2945
8 2943 2909 2942 2970 2913 2874 2912 2946
8 2945 2911 2944 2971 2915 2876 2914 2947
8 2946 2912 2945 2972 2916 2877 2915 2948
8 2948 2915 2947 2973 2918 2880 2917 2949
8 2951 2920 2888 2924 2975 2950 2923 2954
8 2952 2921 2889 2925 2976 2951 2924 2955
8 2927 2893 2928 2957 2954 2923 2953 2978
8 2955 2924 2892 2926 2979 2954 2927 2956
8 2929 2895 2930 2959 2956 2927 2957 2980
8 2930 2896 2931 2960 2957 2928 2958 2981
8 2932 2898 2933 2961 2959 2930 2960 2982
8 2951 2920 2950 2975 2963 2935 2962 2984
8 2963 2935 2962 2984 2939 2905 2938 2966
8 2964 2936 2921 2952 2985 2963 2951 2976
8 2964 2936 2963 2985 2940 2906 2939 2967
8 2966 2938 2965 2987 2942 2908 2941 2969
8 2967 2939 2966 2988 2943 2909 2942 2970
8 2969 2941 2968 2989 2945 2911 2944 2971
8 2970 2942 2969 2990 2946 2912 2945 2972
8 2972 2945 2971 2991 2948 2915 2947 2973
8 2954 2923 2953 2978 2975 2950 2974 2993
8 2976 2951 2924 2955 2994 2975 2954 2979
8 2957 2928 2958 2981 2978 2953 2977 2995
8 2956 2927 2957 2980 2979 2954 2978 2996
8 2959 2930 2960 2982 2980 2957 2981 2997
8 2984 2962 2983 2999 2966 2938 2965 2987
8 2975 2950 2974 2993 2984 2962 2983 2999
8 2976 2951 2975 2994 2985 2963 2984 3000
8 2985 2963 2984 3000 2967 2939 2966 2988
8 2987 2965 2986 3001 2969 2941 2968 2989
8 2988 2966 2987 3002 2970 2942 2969 2990
8 2990 2969 2989 3003 2972 2945 2971 2991
8 2978 2953 2977 2995 2993 2974 2992 3004
8 2979 2954 2978 2996 2994 2975 2993 3005
8 2980 2957 2981 2997 2996 2978 2995 3006
8 2974 2993 2999 2983 2992 3004 3007 2998
8 2983 2999 2987 2965 2998 3007 3001 2986
8 3000 2984 2999 3008 2988 2966 2987 3002
8 2994 2975 2993 3005 3000 2984 2999 3008
8 3002 2987 3001 3009 2990 2969 2989 3003
8 2996 2978 2995 3006 3005 2993 3004 3010
8 3005 2993 3004 3010 3008 2999 3007 3011
8 3008 2999 3007 3011 3002 2987 3001 3009

CELL_TYPES 1910
12
12
12
12
12
12
12
12
12
12
12
12
12
12
12
12
12
12
12
12
12
12
12
12
12
12
12
12
12
12
12
12
12
12
12
12
12
12
12
12
12
12
12
12
12
12
12
12
12
12
12
12
12
12
12
12
12
12
12
12
12
12
12
12
12
12
12
12
12
12
12
12
12
12
12
12
12
12
12
12
12
12
12
12
12
12
12
12
12
12
12
12
12
12
12
12
12
12
12
12
12
12
12
12
12
12
12
12
12
12
12
12
12
12
12
12
12
12
12
12
12
12
12
12
12
12
12
12
12
12
12
12
12
12
12
12
12
12
12
12
12
12
12
12
12
12
12
12
12
12
12
12
12
12
12
12
12
12
12
12
12
12
12
12
12
12
12
12
12
12
12
12
12
12
12
12
12
12
12
12
12
12
12
12
12
12
12
12
12
12
12
12
12
12
12
12
12
12
12
12
12
12
12
12
12
12
12
12
12
12
12
12
12
12
12
12
12
12
12
12
12
12
12
12
12
12
12
12
12
12
12
12
12
12
12
12
12
12
12
12
12
12
12
12
12
12
12
12
12
12
12
12
12
12
12
12
12
12
12
12
12
12
12
12
12
12
12
12
12
12
12
12
12
12
12
12
12
12
12
12
12
12
12
12
12
12
12
12
12
12
12
12
12
12
12
12
12
12
12
12
12
12
12
12
12
12
12
12
12
12
12
12
12
12
12
12
12
12
12
12
12
12
12
12
12
12
12
12
12
12
12
12
12
12
12
12
12
12
12
12
12
12
12
12
12
12
12
12
12
12
12
12
12
12
12
12
12
12
12
12
12
12
12
12
12
12
12
12
12
12
12
12
12
12
12
12
12
12
12
12
12
12
12
12
12
12
12
12
12
12
12
12
12
12
12
12
12
12
12
12
12
12
12
12
12
12
12
12
12
12
12
12
12
12
12
12
12
12
12
12
12
12
12
12
12
12
12
12
12
12
12
12
12
12
12
12
12
12
12
12
12
12
12
12
12
12
12
12
12
12
12
12
12
12
12
12
12
12
12
12
12
12
12
12
12
12
12
12
12
12
12
12
12
12
12
12
12
12
12
12
12
12
12
12
12
12
12
12
12
12
12
12
12
12
12
12
12
12
12
12
12
12
12
12
12
12
12
12
12
12
12
12
12
12
12
12
12
12
12
12
12
12
12
12
12
12
12
12
12
12
12
12
12
12
12
12
12
12
12
12
12
12
12
12
12
12
12
12
12
12
12
12
12
12
12
12
12
12
12
12
12
12
12
12
12
12
12
12
12
12
12
12
12
12
12
12
12
12
12
12
12
12
12
12
12
12
12
12
12
12
12
12
12
12
12
12
12
12
12
12
12
12
12
12
12
12
12
12
12
12
12
12
12
12
12
12
12
12
12
12
12
12
12
12
12
12
12
12
12
12
12
12
12
12
12
12
12
12
12
12
12
12
12
12
12
12
12
12
12
12
12
12
12
12
12
12
12
12
12
12
12
12
12
12
12
12
12
12
12
12
12
12
12
12
12
12
12
12
12
12
12
12
12
12
12
12
12
12
12
12
12
12
12
12
12
12
12
12
12
12
12
12
12
12
12
12
12
12
12
12
12
12
12
12
12
12
12
12
12
12
12
12
12
12
12
12
12
12
12
12
12
12
12
12
12
12
12
12
12
12
12
12
12
12
12
12
12
12
12
12
12
12
12
12
12
12
12
12
12
12
12
12
12
12
12
12
12
12
12
12
12
12
12
12
12
12
12
12
12
12
12
12
12
12
12
12
12
12
12
12
12
12
12
12
12
12
12
12
12
12
12
12
12
12
12
12
12
12
12
12
12
12
12
12
12
12
12
12
12
12
12
12
12
12
12
12
12
12
12
12
12
12
12
12
12
12
12
12
12
12
12
12
12
12
12
12
12
12
12
12
12
12
12
12
12
12
12
12
12
12
12
12
12
12
12
12
12
12
12
12
12
12
12
12
12
12
12
12
12
12
12
12
12
12
12
12
12
12
12
12
12
12
12
12
12
12
12
12
12
12
12
12
12
12
12
12
12
12
12
12
12
12
12
12
12
12
12
12
12
12
12
12
12
12
12
12
12
12
12
12
12
12
12
12
12
12
12
12
12
12
12
12
12
12
12
12
12
12
12
12
12
12
12
12
12
12
12
12
12
12
12
12
12
12
12
12
12
12
12
12
12
12
12
12
12
12
12
12
12
12
12
12
12
12
12
12
12
12
12
12
12
12
12
12
12
12
12
12
12
12
12
12
12
12
12
12
12
12
12
12
12
12
12
12
12
12
12
12
12
12
12
12
12
12
12
12
12
12
12
12
12
12
12
12
12
12
12
12
12
12
12
12
12
12
12
12
12
12
12
12
12
12
12
12
12
12
12
12
12
12
12
12
12
12
12
12
12
12
12
12
12
12
12
12
12
12
12
12
12
12
12
12
12
12
12
12
12
12
12
12
12
12
12
12
12
12
12
12
12
12
12
12
12
12
12
12
12
12
12
12
12
12
12
12
12
12
12
12
12
12
12
12
12
12
12
12
12
12
12
12
12
12
12
12
12
12
12
12
12
12
12
12
12
12
12
12
12
12
12
12
12
12
12
12
12
12
12
12
12
12
12
12
12
12
12
12
12
12
12
12
12
12
12
12
12
12
12
12
12
12
12
12
12
12
12
12
12
12
12
12
12
12
12
12
12
12
12
12
12
12
12
12
12
12
12
12
12
12
12
12
12
12
12
12
12
12
12
12
12
12
12
12
12
12
12
12
12
12
12
12
12
12
12
12
12
12
12
12
12
12
12
12
12
12
12
12
12
12
12
12
12
12
12
12
12
12
12
12
12
12
12
12
12
12
12
12
12
12
12
12
12
12
12
12
12
12
12
12
12
12
12
12
12
12
12
12
12
12
12
12
12
12
12
12
12
12
12
12
12
12
12
12
12
12
12
12
12
12
12
12
12
12
12
12
12
12
12
12
12
12
12
12
12
12
12
12
12
12
12
12
12
12
12
12
12
12
12
12
12
12
12
12
12
12
12
12
12
12
12
12
12
12
12
12
12
12
12
12
12
12
12
12
12
12
12
12
12
12
12
12
12
12
12
12
12
12
12
12
12
12
12
12
12
12
12
12
12
12
12
12
12
12
12
12
12
12
12
12
12
12
12
12
12
12
12
12
12
12
12
12
12
12
12
12
12
12
12
12
12
12
12
12
12
12
12
12
12
12
12
12
12
12
12
12
12
12
12
12
12
12
12
12
12
12
12
12
12
12
12
12
12
12
12
12
12
12
12
12
12
12
12
12
12
12
12
12
12
12
12
12
12
12
12
12
12
12
12
12
12
12
12
12
12
12
12
12
12
12
12
12
12
12
12
12
12
12
12
12
12
12
12
12
12
12
12
12
12
12
12
12
12
12
12
12
12
12
12
12
12
12
12
12
12
12
12
12
12
12
12
12
12
12
12
12
12
12
12
12
12
12
12
12
12
12
12
12
12
12
12
12
12
12
12
12
12
12
12
12
12
12
12
12
12
12
12
12
12
12
12
12
12
12
12
12
12
12
12
12
12
12
12
12
12
12
12
12
12
12
12
12
12
12
12
12
12
12
12
12
12
12
12
12
12
12
12
12
12
12
12
12
12
12
12
12
12
12
12
12
12
12
12
12
12
12
12
12
12
12
12
12
12
12
12
12
12
12
12
12
12
12
12
12
12
12
12
12
12
12
12
12
12
12
12
12
12
12
12
12
12
12
12
12
12
12
12
12
12
12
12
12
12
12
12
12
12
12
12
12
12
12
12
12
12
12
12
12
12
12
12
12
12
12
12
12
12
12
12
12
12
12
12
12
12
12
12
12
12
12
12
12
12
12
12
12
12
12
12
12
12
12
12
12
12
12
12
12
12
12
12
12
12
12
12
12
12
12
12
12
12
12
12
12
12
12
12
12
12
12
12
12
12
12
12
12
12
12
12
12
12
12
12
12
12
12
12
12
12
12
12
12
12
12
12
12
12
12
12
12
12
12
12
12
12
12
12
12
12
12
12
12
12
12
12
12
12
12
12
12
12
12
12
12
12
12
12
12
12
12
12
12
12
12
12
12
12
12
12
12
12
12
12
12
12
12
12
12
12
12
12
12
12
12
12
12
12
12
12
12
12
12
12
12
12
12
12
12
12
12
12
12
12
12
12
12
12
12
12
12
12
12
12
12
12
12
12
12
12
12
12
12
12
12
12
12
12
12
12
12
12
12
12
12
12
12
12
12
12
12
12
12
12
12
12
12
12
12
12
12
12
12
12
12
12
12
12
12
12
12
12
12

POINT_DATA 3012
SCALARS Jp_lamdaP float 4
LOOKUP_TABLE default
0.999243 1 1 0.999243
1 1 1 1
0.999268 1 1 0.999268
0.999198 1 1 0.999198
0.999248 1 1 0.999248
0.999207 1 1 0.999207
1.02358 1.02569 1 0.99794
1 1 1 1
1 1 1 1
1 1 1 1
0.999254 1 1 0.999254
1.02017 1.02241 1 0.997813
0.999292 1 1 0.999292
0.999255 1 1 0.999255
0.999281 1 1 0.999281
0.999244 1 1 0.999244
0.999224 1 1 0.999224
0.999284 1 1 0.999284
1.02341 1.02553 1 0.997931
1 1 1 1
0.999197 1 1 0.999197
0.999225 1 1 0.999225
1.01554 1.01768 1 0.997898
1.02048 1.02257 1 0.997954
0.999186 1 1 0.999186
1.02575 1.02791 1 0.997893
1.0621 1.0663 1 0.996059
0.999995 1 1 0.999995
0.999633 1 1 0.999633
0.999642 1 1 0.999642
0.999996 1 1 0.999996
1.01823 1.02035 1.00011 0.997819
0.99926 1 1 0.99926
0.999283 1 1 0.999283
1.02208 1.02393 1 0.998199
1 1 1 1
1.02402 1.02584 1 0.998231
1.01301 1.01415 1.00106 0.997819
1.0502 1.05438 1.00021 0.995822
1 1 1 1
1 1 1 1
0.999632 1 1 0.999632
1 1 1 1
0.999287 1 1 0.999287
1.00401 1.00621 1 0.997807
1 1 1 1
1.01099 1.01286 1 0.99815
0.999284 1 1 0.999284
0.999311 1 1 0.999311
0.999231 1 1 0.999231
1.02334 1.02546 1 0.997929
0.999615 1 1 0.999615
0.999238 1 1 0.999238
0.999201 1 1 0.999201
0.999268 1 1 0.999268
1.01531 1.01746 1 0.997883
1.02543 1.0276 1 0.997887
1.02029 1.02239 1 0.997944
1.06305 1.06726 1 0.99606
1 1 1 1
0.99923 1 1 0.99923
1.00516 1.0069 1 0.998277
1.01203 1.01416 1 0.997902
1.01829 1.02041 1 0.997929
1.06314 1.06738 1 0.996031
1.06227 1.06647 1 0.996066
0.999183 1 1 0.999183
1.01619 1.01809 1.00024 0.997892
1.06143 1.06566 1 0.996028
1.08225 1.08728 1 0.995369
1 1 1 1
1 1 1 1
1 1 1 1
1.01624 1.01839 1.00006 0.997824
1 1 1 1
1 1 1 1
1.02211 1.02436 1 0.997808
0.999683 1 1 0.999683
1.02317 1.02536 1 0.997857
1.01094 1.01172 1.00114 0.99809
1.05401 1.05844 1 0.995815
1 1 1 1
1.00567 1 1.00667 0.999005
1.01935 1.02167 1 0.99773
1.02302 1.02526 1 0.997816
1.06824 1.07286 1 0.995698
1.007 1.00619 1.00227 0.998537
1.06149 1.06593 1 0.995833
1.04488 1.04617 1.00285 0.99593
1.0821 1.08735 1 0.995177
1 1 1 1
1 1 1 1
1 1 1 1
1 1 1 1
1 1 1 1
0.999646 1 1 0.999646
1.00496 1.00694 1 0.998029
0.999625 1 1 0.999625
1.01236 1.01443 1 0.997959
1 1 1 1
1.00274 1.00487 1 0.997872
1.00708 1.00891 1 0.998184
1.05991 1.06435 1 0.995825
1.01596 1.01782 1 0.998169
1.06755 1.07208 1 0.995773
0.999316 1 1 0.999316
0.999276 1 1 0.999276
0.999209 1 1 0.999209
0.999306 1 1 0.999306
1.01508 1.01724 1 0.997871
1.02011 1.02222 1 0.997938
1.02469 1.02686 1 0.997886
1.06441 1.06862 1 0.99606
1 1 1 1
0.999268 1 1 0.999268
1.00467 1.00675 1 0.997934
1.01177 1.01391 1 0.997884
0.999598 1 1 0.999598
1.01746 1.01906 1.00042 0.998017
1.01804 1.02017 1 0.997917
1.06352 1.06775 1 0.996041
1.06161 1.06584 1 0.996028
1.06311 1.06731 1 0.996065
1.0817 1.08672 1 0.995379
1.00376 1.00588 1 0.997893
1.00792 1.01 1 0.997945
1.05681 1.06134 0.999538 0.996189
1.06069 1.06512 0.999749 0.996089
1.06243 1.06663 1 0.996066
1.09286 1.09968 0.998087 0.995702
1 1 1 1
1.08717 1.09234 0.999769 0.995499
1.00708 1.00713 1.00207 0.997879
1.054 1.05846 1 0.995791
1.0777 1.08286 1 0.995232
1.08218 1.08965 0.997506 0.995629
1.00378 1.00081 1.0045 0.998481
1.01299 1.00361 1.0124 0.996984
1 1 1 1
1 1 1 1
1.02247 1.02471 1 0.997811
1 1 1 1
1.00808 1.00848 1.00168 0.997926
1.023 1.0252 1 0.997862
1.05771 1.06216 1 0.995808
1 1 1 1
1.00644 1.00004 1.00738 0.999028
1.0204 1.02249 1 0.997955
1.02367 1.0257 1 0.998025
1.06731 1.07193 1 0.995693
1.00563 1.0041 1.00326 0.998275
1.06139 1.06583 1 0.995831
1.04494 1.04646 1.00263 0.995924
1.08136 1.08657 1 0.995205
1.00507 1.00126 1.00518 0.998643
1.0081 1 1.00881 0.999295
1.01894 1.00785 1.01357 0.997471
1.06975 1.07439 1 0.99568
1.06771 1.07225 1 0.995767
1.09106 1.09672 0.999395 0.995444
1.03245 1.03166 1.00441 0.99636
1.07905 1.08401 1 0.995424
1.07268 1.07662 1.00124 0.995105
1.09247 1.09765 1 0.995276
1 1 1 1
1 1 1 1
1 1 1 1
1.00504 1.00024 1.00603 0.998775
1 1 1 1
1 1 1 1
1 1 1 1
1.01354 1.0158 1 0.997778
1.00546 1.00762 1 0.997854
1 1 1 1
1 1 1 1
1.003 1.00514 1 0.997872
1.00797 1.00999 1 0.997998
1.05919 1.06362 1 0.995827
1.01672 1.01901 1 0.997754
1.06544 1.06997 1 0.995771
1.00276 1.00489 1 0.997881
1.05727 1.06172 1 0.995813
1.06329 1.06776 1 0.99582
1.09282 1.1017 0.995988 0.995932
1.06978 1.07439 1 0.995713
1.09223 1.1006 0.996543 0.995843
1 1 1 1
0.999307 1 1 0.999307
1.00413 1.0066 1 0.997546
1.01152 1.01368 1 0.997868
1 1 1 1
1.01866 1.02055 1 0.998147
1.0178 1.01993 1 0.997909
1.06387 1.06809 1 0.996052
1.064 1.0682 1 0.996063
1.0608 1.06503 1 0.996029
1.08035 1.08536 1 0.995389
1.00341 1.00553 1 0.997891
1.00776 1.00985 1 0.997928
1.05719 1.06201 0.999429 0.996034
1.06168 1.06601 0.999868 0.996065
1 1 1 1
1.01002 1.01079 1.00117 0.998064
1.05107 1.05485 1.0005 0.995928
1.06296 1.06717 1 0.996055
1.09103 1.09861 0.997337 0.995748
1.07727 1.08242 1 0.995238
1.0874 1.09261 0.999719 0.995513
1.08167 1.08913 0.997501 0.995636
1.00411 1.0015 1.00415 0.998465
1.01433 1.006 1.01133 0.996976
1.05598 1.06041 1 0.995824
1.05884 1.06356 0.999413 0.996153
1.09285 1.10073 0.99696 0.995872
1.09177 1.10018 0.9965 0.99584
1.08908 1.09657 0.99749 0.995662
1.08114 1.0946 0.991608 0.99606
1.00474 1.00328 1.0033 0.998164
1.08161 1.09282 0.993848 0.995866
1.04588 1.04811 1.00192 0.995959
1.07805 1.08335 1 0.995106
1.08429 1.08962 0.999773 0.995333
1.07533 1.09001 0.990482 0.99601
1.01808 1.01281 1.00871 0.996526
1.01443 1.00092 1.01598 0.997559
1.02175 1.01427 1.01133 0.996094
1.02102 1.0233 1 0.997772
1 1 1 1
1.00642 1 1.00737 0.999051
1.02381 1.02601 1 0.997854
1.06657 1.07119 1 0.995689
1.00507 1.00285 1.00394 0.998275
1.04672 1.04908 1.00184 0.995918
1.06061 1.06505 1 0.995829
1.08184 1.08703 1 0.995233
1.00523 1.00099 1.00557 0.998672
1.00747 1 1.00816 0.999313
1.01575 1.00488 1.01338 0.997473
1.06811 1.07275 1 0.995674
1.06621 1.07075 1 0.995765
1.09149 1.09707 0.999478 0.995439
1.03008 1.02961 1.00411 0.996359
1.08018 1.08516 1 0.995413
1.07631 1.08077 1.00079 0.995089
1.09234 1.09749 1 0.995312
1.0074 1 1.00789 0.999513
1.02189 1.01684 1.00808 0.996916
1.01907 1.00224 1.0189 0.997939
1.01695 1.01379 1.00627 0.996859
1.09095 1.09765 0.99833 0.995559
1.08679 1.09189 0.999924 0.995408
1.08581 1.09756 0.993602 0.995661
1.0532 1.05065 1.00709 0.99537
1.08174 1.08729 0.999225 0.995669
1.07972 1.08343 1.00158 0.995008
1.10477 1.10986 1 0.995411
1.0031 1 1.00405 0.999049
1.00072 1 1.00096 0.999763
1 1 1 1
1 1 1 1
1 1 1 1
1.0051 1 1.00596 0.999149
1 1 1 1
1.00501 1.00025 1.00602 0.99875
1 1 1 1
1.01809 1.02039 1 0.997755
1.00899 1.01119 1 0.99782
1.06378 1.0683 1 0.99577
1.05853 1.06297 1 0.995828
1.00332 1.00546 1 0.997875
1 1 1 1
1.0027 1.00483 1 0.997881
1.05714 1.06158 1 0.995814
1.06223 1.06669 1 0.99582
1.0929 1.10175 0.996028 0.995931
1.06802 1.07263 1 0.995707
1.09341 1.10171 0.996611 0.995841
1.05584 1.06028 1 0.995812
1.0929 1.10175 0.996036 0.995914
1.09306 1.10145 0.99645 0.995915
1.07758 1.09243 0.99007 0.996303
1.09166 1.09946 0.997187 0.995714
1.08129 1.09578 0.990577 0.996164
1.00314 1.00526 1 0.997891
1.00759 1.0097 1 0.99791
1.05757 1.06269 0.999297 0.99588
1.0627 1.06693 1 0.996042
0.999998 1 1 0.999998
1.01293 1.01366 1.00103 0.998255
1.04909 1.05252 1.00068 0.996063
1.06347 1.06769 1 0.996044
1.08928 1.09764 0.996582 0.995794
1.08765 1.09289 0.99967 0.995528
1.07859 1.08374 1 0.995245
1.08163 1.08911 0.997473 0.995643
1.00427 1.00212 1.0037 0.998448
1.01692 1.00847 1.01144 0.996969
1.0562 1.06086 0.999753 0.995849
1.05948 1.06406 0.999539 0.996147
1.09216 1.10045 0.99655 0.995901
1.09164 1.09937 0.997168 0.995792
1.00524 1.00425 1.00284 0.998149
1.04373 1.04572 1.00214 0.995961
1.0808 1.08612 1 0.995104
1.08964 1.09641 0.998176 0.995634
1.08098 1.09529 0.990783 0.996114
1.08395 1.08926 0.999766 0.995353
1.08127 1.0926 0.993744 0.995866
1.07493 1.09005 0.990099 0.995992
1.02159 1.01635 1.00866 0.996524
1.02146 1.01192 1.01338 0.996093
1.01596 1.00131 1.0171 0.997566
1.09307 1.10085 0.997053 0.995864
1.09245 1.10111 0.996238 0.995879
1.07698 1.09027 0.991544 0.996234
1.0794 1.09425 0.990239 0.996154
1.0808 1.09541 0.9906 0.996033
1.07562 1.0971 0.983959 0.996404
1.0309 1.02941 1.00525 0.99622
1.07099 1.09248 0.984066 0.996204
1.07453 1.07974 1 0.995178
1.083 1.08849 1 0.994961
1.07716 1.08532 0.996951 0.995516
1.06658 1.08882 0.983235 0.99628
1.01906 1.00329 1.0178 0.997961
1.03621 1.02806 1.01226 0.995712
1.01737 1.00206 1.01875 0.996597
1.02685 1.02119 1.00996 0.995621
1.06653 1.07118 1 0.995668
1.00747 1.00007 1.00808 0.999331
1.00528 1.00045 1.00614 0.998701
1.01546 1.00272 1.01527 0.997475
1.06507 1.0696 1 0.995764
1.09184 1.09732 0.999567 0.995434
1.02537 1.02465 1.00436 0.996359
1.07631 1.08112 1.00048 0.995072
1.08143 1.08643 1 0.995402
1.09001 1.09511 1 0.995347
1.00614 1 1.00661 0.999528
1.01841 1.01254 1.00888 0.996933
1.01925 1.002 1.01932 0.997933
1.01521 1.01102 1.0073 0.996863
1.09236 1.09894 0.998449 0.995553
1.08731 1.09237 0.999965 0.995405
1.08525 1.09705 0.993552 0.995661
1.05285 1.0499 1.00748 0.995361
1.08057 1.08611 0.999271 0.995631
1.07504 1.07859 1.00173 0.994994
1.10476 1.10972 1 0.995531
1.00289 1 1.00323 0.999657
1.01671 1 1.01844 0.998303
1.02936 1.0258 1.0074 0.99609
1.02137 1.00766 1.01642 0.997221
1.01614 1.01373 1.00572 0.996672
1.0836 1.09896 0.990163 0.995811
1.08386 1.09201 0.996894 0.995625
1.0765 1.0943 0.987833 0.995847
1.03958 1.04041 1.00418 0.995047
1.08506 1.09356 0.996448 0.995767
1.06022 1.06465 1.00086 0.994986
1.0055 1 1.00666 0.998847
1.00908 1 1.0108 0.998295
1.00018 1 1.00096 0.999223
1.00203 1 1.00298 0.999052
0.999862 1 1 0.999862
1.00028 1 1.0005 0.999781
0.99998 1 1 0.99998
1 1 1 1
1 1 1 1
1.00263 1 1.00315 0.999485
1 1 1 1
1.00565 1 1.00654 0.999119
1 1 1 1
1.00451 1.00032 1.00546 0.998726
1 1 1 1
1.06594 1.07054 1 0.995701
1.06087 1.06532 1 0.99582
1.09424 1.10243 0.996713 0.995839
1.09291 1.10171 0.996072 0.99593
1.05692 1.06136 1 0.995815
1.00252 1.00465 1 0.99788
1.05606 1.06051 1 0.995812
1.09277 1.10163 0.996028 0.995914
1.09314 1.1016 0.99639 0.995913
1.07698 1.09255 0.989388 0.996319
1.09282 1.10059 0.997218 0.995709
1.08111 1.09543 0.990732 0.996163
1.09267 1.10129 0.996254 0.995902
1.07658 1.09202 0.989494 0.996328
1.07946 1.09358 0.990786 0.996261
1.0807 1.10044 0.985501 0.996512
1.08063 1.09723 0.988831 0.996004
1.0802 1.10293 0.982857 0.996473
1.05626 1.06118 0.999484 0.995875
1.06013 1.06458 0.999679 0.996141
1.09152 1.10019 0.996175 0.995929
1.09142 1.09849 0.997808 0.995744
1.00639 1.00581 1.00245 0.998136
1.04288 1.04451 1.00249 0.995965
1.08357 1.0889 1 0.995103
1.09014 1.09619 0.998864 0.995606
1.08073 1.0959 0.989947 0.996167
1.08078 1.0922 0.993647 0.995867
1.08327 1.08855 0.99977 0.995374
1.07439 1.08994 0.989721 0.995973
1.02561 1.02049 1.00852 0.996521
1.01968 1.01007 1.01348 0.996092
1.01609 1.00191 1.01663 0.997572
1.09244 1.10049 0.996789 0.995887
1.09176 1.1006 0.996076 0.995878
1.07664 1.09077 0.990732 0.996278
1.08019 1.09452 0.990745 0.99613
1.03509 1.03352 1.00531 0.996225
1.07476 1.07994 1.00002 0.995183
1.08321 1.08867 1.00003 0.994958
1.08136 1.09518 0.991372 0.99598
1.07522 1.09737 0.98331 0.996448
1.07794 1.08587 0.997205 0.995478
1.07127 1.09274 0.984092 0.996204
1.06644 1.08932 0.982617 0.996319
1.03401 1.02843 1.00975 0.995718
1.024 1.01877 1.00961 0.995562
1.01598 1.00295 1.01506 0.997966
1.01503 1.00222 1.01616 0.996668
1.07691 1.09071 0.991034 0.996283
1.07945 1.09374 0.990699 0.996193
1.07629 1.09533 0.986138 0.99643
1.07316 1.09887 0.980054 0.996485
1.07319 1.09494 0.98371 0.99636
1.07743 1.10394 0.979312 0.996604
1.05485 1.05772 1.0019 0.995393
1.0639 1.09298 0.976752 0.996557
1.06843 1.07388 1 0.994926
1.07599 1.08167 0.99986 0.994891
1.07375 1.08627 0.992877 0.995566
1.0678 1.09222 0.98123 0.996347
1.01453 1.00463 1.01175 0.99813
1.02464 1.00926 1.01835 0.996941
1.02994 1.03142 1.00326 0.995324
1.01707 1.00695 1.01389 0.996218
1.02471 1.01715 1.01209 0.995392
1.00499 1 1.00545 0.999544
1.09382 1.10028 0.998569 0.995547
1.01767 1.00203 1.01771 0.997927
1.01484 1.00846 1.00941 0.996952
1.01167 1.00757 1.00723 0.996868
1.08777 1.09279 1 0.995403
1.08463 1.09648 0.993499 0.995661
1.05558 1.05445 1.00575 0.995353
1.07409 1.07743 1.00193 0.994979
1.07982 1.08535 0.999314 0.995593
1.10569 1.11052 1 0.99565
1.00222 1 1.00255 0.999668
1.01771 1.0001 1.01933 0.998311
1.02838 1.02461 1.00761 0.996105
1.02072 1.00642 1.01704 0.997207
1.0172 1.01409 1.00655 0.996534
1.08286 1.09828 0.990114 0.995808
1.08348 1.09167 0.99686 0.995626
1.07544 1.09342 0.987669 0.995836
1.04054 1.04208 1.0035 0.995044
1.09039 1.09877 0.996622 0.995735
1.06113 1.06538 1.00096 0.99505
1.00932 1 1.01073 0.998612
1.02109 1.00279 1.0208 0.997501
1.01479 1.01526 1.00384 0.995711
1.0278 1.01564 1.01521 0.996804
1.0276 1.02576 1.00554 0.996272
1.07829 1.10183 0.98253 0.996037
1.0768 1.0885 0.993439 0.99578
1.064 1.08824 0.981598 0.99606
1.01028 1.01145 1.00379 0.995068
1.05533 1.06091 0.999602 0.995131
1.00548 1 1.00664 0.998851
1.00918 1.00005 1.01104 0.998112
1.00966 1 1.0114 0.998279
1.00767 1 1.00956 0.998129
1.00466 1 1.00622 0.998452
0.999606 1 1.00028 0.999329
1.00041 1 1.00118 0.999228
0.999919 1 1 0.999919
1.0018 1 1.00275 0.999055
0.999878 1 1 0.999878
0.999999 1 1 0.999999
1.00003 1 1.00023 0.999799
0.99999 1 1 0.99999
1 1 1 1
1.003 1 1.00333 0.99967
1.0045 1 1.00503 0.999471
1 1 1 1
1 1 1 1
1.00682 1 1.00774 0.99909
1 1 1 1
1.09412 1.10189 0.997238 0.995705
1.09351 1.10207 0.996301 0.995912
1.08106 1.09521 0.990876 0.996163
1.07646 1.09275 0.988713 0.996335
1.09264 1.10151 0.996019 0.995915
1.05651 1.06095 1 0.995812
1.09251 1.10113 0.996254 0.995903
1.07674 1.09193 0.989728 0.996324
1.07963 1.09376 0.99078 0.996262
1.07961 1.10018 0.984718 0.996539
1.08028 1.09699 0.988727 0.996
1.08015 1.10315 0.98259 0.996496
1.07667 1.09144 0.990134 0.9963
1.07936 1.10027 0.98444 0.996499
1.08052 1.10095 0.984829 0.996565
1.08171 1.10813 0.979437 0.996656
1.07963 1.10348 0.982031 0.996292
1.08431 1.11123 0.979017 0.996688
1.09189 1.10017 0.996545 0.995911
1.09105 1.10006 0.995907 0.995877
1.07622 1.09124 0.98988 0.996321
1.08102 1.09481 0.991266 0.996106
1.03664 1.03485 1.00552 0.99623
1.07185 1.07695 1.00007 0.995188
1.08277 1.08806 1.00018 0.994956
1.08199 1.095 0.992162 0.995927
1.07493 1.09764 0.98275 0.996492
1.0717 1.09314 0.984122 0.996204
1.07863 1.08638 0.997407 0.99544
1.06631 1.08984 0.981984 0.996358
1.03303 1.02729 1.0099 0.995723
1.02392 1.01563 1.01271 0.995502
1.01459 1.00277 1.01384 0.99797
1.01276 1.00234 1.01371 0.996739
1.07709 1.09087 0.991053 0.996283
1.07934 1.0936 0.990746 0.996178
1.07567 1.09507 0.985779 0.996458
1.07439 1.09905 0.98103 0.996468
1.05424 1.0544 1.00448 0.995394
1.06823 1.07363 1.00003 0.994945
1.07533 1.08067 1.00018 0.994878
1.07417 1.09528 0.984362 0.996313
1.07486 1.10241 0.978284 0.99666
1.0716 1.08429 0.992715 0.995553
1.06501 1.0941 0.976775 0.996556
1.06627 1.09113 0.980725 0.996422
1.0299 1.02956 1.00501 0.995333
1.02239 1.01445 1.01251 0.995377
1.01961 1.00635 1.01703 0.99622
1.01483 1.0032 1.0135 0.998117
1.02263 1.00456 1.02108 0.99697
1.07803 1.09883 0.984539 0.996476
1.07831 1.1018 0.982146 0.996476
1.07348 1.10848 0.971685 0.996646
1.06995 1.09922 0.976643 0.996651
1.04543 1.05052 1.00002 0.995132
1.06445 1.09656 0.973911 0.996718
1.04787 1.05312 1.00029 0.994727
1.06193 1.06956 0.998074 0.994783
1.06613 1.08563 0.986399 0.995578
1.0093 1 1.01081 0.998506
1.02072 1.00079 1.02267 0.997302
1.02283 1.01301 1.01309 0.996658
1.02124 1.01916 1.00682 0.995245
1.02377 1.00921 1.0188 0.995718
1.02224 1.01215 1.01476 0.995275
1.00123 1 1.00155 0.999679
1.01856 1 1.02027 0.99832
1.08204 1.09751 0.990065 0.995805
1.02308 1.00454 1.02132 0.997192
1.02786 1.02152 1.01012 0.996119
1.01887 1.01505 1.0074 0.996397
1.08281 1.09102 0.996832 0.995627
1.07458 1.09274 0.987506 0.995826
1.03943 1.04132 1.00316 0.995042
1.06057 1.06495 1.00077 0.995114
1.09604 1.10432 0.99679 0.995703
1.01008 1 1.01148 0.998618
1.02279 1.00146 1.02385 0.997505
1.02143 1.02033 1.0055 0.995605
1.02901 1.01409 1.01796 0.996813
1.02788 1.02649 1.00513 0.996244
1.07698 1.10036 0.982652 0.996032
1.08045 1.09214 0.993509 0.995765
1.06697 1.09208 0.980853 0.996081
1.01262 1.01435 1.00324 0.995059
1.05246 1.05804 0.999637 0.995086
1.01529 1.00136 1.01608 0.997865
1.02765 1.00364 1.02691 0.997095
1.00896 1.01047 1.00295 0.995568
1.03693 1.02574 1.01455 0.99641
1.05119 1.05414 1.00111 0.996092
1.06482 1.10099 0.970534 0.996513
1.08288 1.09654 0.991945 0.995561
1.07613 1.09782 0.984193 0.995981
1.01616 1.01673 1.00433 0.995128
1.02326 1.02857 1 0.994841
1.00469 1 1.00584 0.998855
1.00887 1.00018 1.0106 0.998111
1.00183 1 1.00369 0.99815
1.00735 1 1.0091 0.998261
1.00392 1 1.00548 0.998448
1.00884 1 1.01072 0.998137
1.00364 1 1.00538 0.998262
1.00871 1 1.01065 0.998082
1.00098 1 1.00243 0.998554
0.999338 1 1 0.999338
0.999328 1 1 0.999328
0.999955 1 1 0.999955
0.999827 1 1.0006 0.999232
0.99993 1 1 0.99993
1 1 1 1
0.999894 1 1 0.999894
0.999996 1 1 0.999996
1 1 1 1
1.00038 1 1.00057 0.999808
1.00218 1 1.00253 0.999653
1 1 1 1
1.0051 1 1.00565 0.999457
1 1 1 1
1 1 1 1
1.07995 1.09677 0.988624 0.995997
1.07962 1.09375 0.990785 0.996262
1.08009 1.10339 0.982301 0.996519
1.07845 1.09986 0.983909 0.996566
1.0769 1.09185 0.989958 0.996319
1.09223 1.10085 0.996256 0.995903
1.07695 1.09135 0.990486 0.996284
1.07993 1.10026 0.984971 0.996492
1.08024 1.10041 0.985071 0.996551
1.0792 1.10684 0.978287 0.996664
1.08013 1.1037 0.982283 0.996295
1.08129 1.10965 0.977644 0.996723
1.07999 1.09996 0.985323 0.996471
1.08309 1.11104 0.978115 0.99666
1.08036 1.11016 0.97634 0.996737
1.07564 1.11206 0.970446 0.996712
1.07729 1.09105 0.991072 0.996282
1.07929 1.0935 0.990802 0.996163
1.07512 1.09486 0.985427 0.996486
1.07566 1.09928 0.982001 0.996451
1.05586 1.05535 1.00511 0.995395
1.06965 1.07507 1 0.994963
1.07453 1.07949 1.00054 0.994865
1.07501 1.09554 0.984938 0.996266
1.07229 1.10089 0.977231 0.996714
1.06586 1.09493 0.976821 0.996555
1.06951 1.08243 0.99249 0.995539
1.06565 1.09069 0.980477 0.996497
1.02612 1.02546 1.00532 0.995342
1.01752 1.01194 1.0102 0.995362
1.0227 1.00663 1.01982 0.996221
1.01245 1.00237 1.01197 0.998107
1.02183 1.00084 1.02405 0.997
1.07789 1.09859 0.984628 0.996476
1.07898 1.10234 0.982269 0.996473
1.07472 1.10796 0.973269 0.99664
1.04489 1.04979 1.00021 0.995131
1.04849 1.05375 1.00026 0.994755
1.06117 1.06786 0.99895 0.994774
1.0703 1.09893 0.977229 0.996639
1.06668 1.08656 0.985933 0.995712
1.0621 1.09431 0.97379 0.996685
1.00858 1 1.01001 0.998584
1.01777 1.01624 1.00629 0.995244
1.02294 1.01183 1.01571 0.995348
1.02781 1.01153 1.02048 0.995697
1.02488 1.0129 1.01519 0.996684
1.02336 1.0043 1.02179 0.997248
1.08187 1.10895 0.978963 0.996541
1.07871 1.11552 0.970298 0.996612
1.06719 1.10782 0.966509 0.996706
1.05872 1.09958 0.965905 0.99683
1.02587 1.03068 1.00031 0.995017
1.05469 1.08203 0.978381 0.996268
1.03135 1.03539 1.00165 0.994461
1.04303 1.05461 0.994314 0.994676
1.0021 1 1.00303 0.999072
1.01781 1 1.02001 0.997837
1.02016 1.00696 1.01618 0.996978
1.02974 1.00965 1.02381 0.996181
1.01169 1.0062 1.0102 0.995305
1.02818 1.00967 1.02336 0.995088
1.0113 1 1.0127 0.998623
1.01962 1 1.02217 0.997509
1.07568 1.0989 0.982771 0.996028
1.02715 1.01237 1.01783 0.996821
1.02769 1.0256 1.00657 0.995497
1.02653 1.02547 1.00484 0.996214
1.0843 1.09596 0.993585 0.99575
1.06962 1.09566 0.980056 0.996101
1.01581 1.01808 1.00273 0.99505
1.04936 1.05477 0.999831 0.995042
1.01288 1.00021 1.01483 0.997875
1.02654 1.00334 1.02616 0.997042
1.01015 1.01104 1.00358 0.995555
1.03822 1.02862 1.01299 0.996385
1.05671 1.06025 1.00056 0.996112
1.06795 1.10367 0.97098 0.99656
1.0825 1.09611 0.991927 0.995623
1.07634 1.09717 0.984876 0.996081
1.01899 1.01935 1.00458 0.995089
1.02191 1.0273 1.00003 0.994728
1.00963 1 1.01193 0.997723
1.02564 1.00375 1.02504 0.996845
1.0299 1.03048 1.00378 0.995672
1.04809 1.04894 1.00318 0.996027
1.06875 1.12983 0.948987 0.996792
1.05981 1.09723 0.969241 0.996546
1.06095 1.0687 0.9977 0.995032
1.0309 1.03198 1.00426 0.994723
1.00773 1 1.00963 0.998111
1.00338 0.999868 1.0054 0.998121
1.00143 0.998688 1.00429 0.998458
1.00574 1 1.00731 0.998444
1.01156 0.999953 1.01349 0.998143
1.00132 1 1.00278 0.998545
1.00313 0.999414 1.00542 0.998306
1.01048 1 1.01241 0.998095
1.00025 1 1.00164 0.998608
1.00965 1 1.01165 0.998023
1.00623 1 1.00821 0.998032
0.999982 1 1.00148 0.998505
0.999289 1 1 0.999289
0.999334 1 1 0.999334
0.999972 1 1 0.999972
0.999328 1 1 0.999328
0.99996 1 1 0.99996
1 1 1 1
0.999941 1 1 0.999941
1 1 1 1
0.999993 1 1 0.999993
0.999901 1 1 0.999901
1.00223 1 1.00245 0.999782
1 1 1 1
1.00374 1 1.00411 0.999636
1 1 1 1
1 1 1 1
1.08053 1.10383 0.982534 0.996297
1.08005 1.09995 0.985327 0.996538
1.07838 1.10815 0.976304 0.996758
1.07677 1.10563 0.977154 0.996673
1.08049 1.10023 0.985521 0.996484
1.07725 1.09129 0.990828 0.996268
1.07962 1.09981 0.98512 0.996473
1.08211 1.10998 0.97817 0.99665
1.07999 1.11 0.976163 0.99673
1.07487 1.11123 0.970458 0.996726
1.08467 1.11164 0.979061 0.996607
1.07947 1.11652 0.96991 0.996803
1.08167 1.12288 0.966378 0.996812
1.07774 1.09832 0.984734 0.996477
1.07962 1.10285 0.982409 0.99647
1.07582 1.10739 0.974774 0.996634
1.04489 1.04931 1.00067 0.995131
1.04768 1.05299 1.00018 0.994781
1.06084 1.06672 0.999721 0.994764
1.07079 1.09885 0.977761 0.996627
1.05923 1.09209 0.973169 0.996653
1.06723 1.08755 0.985402 0.995846
1.01571 1.01363 1.00685 0.995241
1.02262 1.01156 1.01559 0.995423
1.03188 1.01431 1.02175 0.995677
1.01054 1 1.01189 0.998663
1.02324 1.01094 1.0155 0.996709
1.02617 1.00681 1.0221 0.997191
1.08336 1.10986 0.979502 0.996551
1.07747 1.11538 0.96929 0.996613
1.06767 1.10754 0.967196 0.996699
1.02458 1.02928 1.00043 0.995007
1.02986 1.03407 1.0014 0.994534
1.04697 1.0585 0.994281 0.994798
1.05958 1.10014 0.966196 0.99683
1.05238 1.08026 0.977865 0.996242
1.00308 1 1.00391 0.999168
1.01664 1 1.01885 0.997828
1.00955 1.00573 1.00851 0.995321
1.03132 1.00953 1.02642 0.995291
1.0282 1.01085 1.02107 0.996175
1.02174 1.01013 1.01458 0.996947
1.07973 1.11795 0.96899 0.996715
1.06918 1.12284 0.95539 0.99667
1.05953 1.10727 0.959892 0.996876
1.04111 1.08118 0.966026 0.996807
1.00682 1.01056 1.00133 0.994976
1.03463 1.05767 0.982833 0.995305
1.02259 1.02631 1.00198 0.994402
0.999611 1 1.00015 0.999458
0.999546 1 1.0007 0.99885
1.00995 1 1.01159 0.998374
1.01315 1 1.01592 0.997279
1.01537 1 1.01876 0.996672
1.03911 1.01545 1.02777 0.995646
1.00975 1.0024 1.01169 0.995689
1.05397 1.00546 1.05251 0.995944
1.01446 1 1.01661 0.997884
1.03172 1.00452 1.03018 0.996988
1.07152 1.10669 0.971517 0.996607
1.04327 1.03492 1.01175 0.996361
1.01098 1.01113 1.00433 0.995543
1.06182 1.06546 1.00045 0.996133
1.08214 1.0957 0.991905 0.995684
1.07675 1.09671 0.98557 0.996181
1.02114 1.0213 1.00482 0.99505
1.02025 1.02577 1 0.994616
1.01175 1.00039 1.01375 0.997641
1.02506 1.00477 1.02349 0.996784
1.03778 1.03799 1.00415 0.995661
1.04543 1.04698 1.00248 0.996047
1.06966 1.13127 0.948562 0.996811
1.06773 1.10226 0.972081 0.996491
1.05603 1.06414 0.99727 0.995099
1.03239 1.03402 1.00377 0.994675
1.00692 0.998888 1.0103 0.997758
1.08026 1.14294 0.948149 0.996846
1.01525 1.0053 1.01346 0.996487
1.03869 1.03877 1.00448 0.995475
1.04359 1.10926 0.943669 0.996958
1.0443 1.05687 0.992904 0.995164
1.02184 1.02427 1.00323 0.994412
1.00601 1 1.00793 0.998092
0.999293 0.9975 1.00335 0.99845
1.00115 0.996802 1.00564 0.998723
1.00101 1 1.00248 0.998536
1.01053 1 1.01245 0.998109
1.00323 0.998264 1.00664 0.99835
0.999865 1 1.00137 0.998499
1.0059 1 1.00786 0.998047
1.00123 0.999132 1.00344 0.998663
1.00794 1 1.00994 0.998019
0.996457 0.996266 1.00138 0.998815
1.00397 1 1.00557 0.998412
1.00855 1 1.01071 0.99786
0.99987 1 1.00204 0.99783
0.999009 1 1.00063 0.998379
0.999241 1 1 0.999241
0.999283 1 1 0.999283
0.99998 1 1 0.99998
0.999329 1 1 0.999329
0.999974 1 1 0.999974
1 1 1 1
0.999966 1 1 0.999966
1 1 1 1
1 1 1 1
0.999672 1 1.00014 0.99953
0.999944 1 1 0.999944
0.99989 1 1 0.99989
1 1 1 1
1.00168 1 1.00192 0.999757
1 1 1 1
1 1 1 1
1.07396 1.11026 0.970471 0.99674
1.07961 1.10976 0.976027 0.996722
1.08101 1.10881 0.978212 0.99664
1.07927 1.09966 0.984932 0.996474
1.08412 1.11161 0.978576 0.996626
1.07895 1.11611 0.969813 0.996794
1.07807 1.11921 0.96632 0.996812
1.08101 1.11923 0.968972 0.996784
1.08935 1.13495 0.962826 0.996885
1.10572 1.16554 0.951394 0.997138
1.08471 1.11065 0.980012 0.996561
1.0763 1.11525 0.968354 0.996614
1.06836 1.10731 0.96803 0.996692
1.02519 1.02985 1.00048 0.994998
1.02967 1.03395 1.00126 0.994612
1.05095 1.06246 0.994212 0.99492
1.06041 1.10018 0.966916 0.99683
1.04964 1.0777 0.977664 0.996217
1.01098 1.00622 1.00944 0.995337
1.0371 1.01 1.03149 0.995485
1.02716 1.0102 1.0207 0.996169
1.00153 1 1.00227 0.999264
1.01492 1 1.01714 0.99782
1.02406 1.0136 1.01344 0.996915
1.0789 1.11785 0.968327 0.996724
0.999798 1 1.00035 0.99945
0.999987 1 1.00119 0.998797
1.07044 1.12213 0.957119 0.996673
1.05889 1.10616 0.960291 0.996847
1.00812 1.01119 1.00192 0.995049
1.02423 1.02769 1.0022 0.994444
1.03068 1.05354 0.98293 0.995288
1.03961 1.08039 0.965373 0.996773
1.00864 1 1.01018 0.998476
1.01374 1 1.01653 0.99726
1.01054 1.00232 1.01271 0.99555
1.04779 1.0066 1.04518 0.995921
1.0357 1.01156 1.02835 0.99564
1.01576 1.00241 1.01665 0.996729
1.08656 1.14282 0.95381 0.996816
1.05372 1.12049 0.943459 0.99677
1.04054 1.09421 0.953785 0.997021
1.02149 1.05482 0.971842 0.996462
1.00991 1.00631 1.00815 0.995466
1.01902 1.02927 0.995299 0.994719
0.99971 1 1.00099 0.99872
1.00298 1 1.00417 0.998813
1.0014 1.00021 1.00276 0.998446
1.00712 1 1.00952 0.997623
1.01526 1 1.01828 0.99703
1.0104 1.0004 1.01359 0.996446
1.08074 1.00691 1.07775 0.99589
0.993946 1.00049 0.996405 0.99704
1.00903 1 1.01149 0.997561
1.02154 1.00332 1.02151 0.996722
1.06936 1.13085 0.948637 0.99683
1.0751 1.10671 0.974919 0.996435
1.04299 1.04464 1.00237 0.996065
1.0476 1.04756 1.00441 0.995648
1.05148 1.05986 0.99691 0.995165
1.03481 1.03693 1.00335 0.994628
1.00825 0.998899 1.01163 0.997749
1.08083 1.14622 0.945853 0.996932
1.01615 1.00267 1.01692 0.996583
1.03345 1.03369 1.0044 0.995395
1.04455 1.1102 0.943752 0.996941
1.03884 1.05317 0.991079 0.995277
1.02334 1.02551 1.00348 0.994421
1.019 0.998033 1.02344 0.997624
0.999298 1.08227 0.925869 0.99726
1.00843 0.999738 1.01246 0.996284
1.01439 1.0129 1.00675 0.994758
1.00166 1.04826 0.958927 0.996478
1.00492 1.00798 1.00221 0.994763
0.921449 0.999393 0.926584 0.995062
0.996053 0.995049 1.00257 0.998441
0.999243 0.993719 1.00684 0.998728
1.00261 0.994656 1.00934 0.998668
0.999797 1 1.0013 0.998494
1.00725 1 1.00921 0.998063
1.00658 1 1.00859 0.998016
1.00314 0.99878 1.00565 0.998721
0.998933 1 1.00056 0.998379
1.00063 1 1.00278 0.997861
0.99396 0.993722 1.00146 0.998781
1.01015 1 1.01233 0.997856
1.00534 0.999993 1.007 0.998365
1.00066 0.991729 1.01025 0.99877
1.01017 1 1.01245 0.997755
1.00705 1 1.00925 0.99782
0.998326 1 1.0006 0.997726
0.998371 1 1.00019 0.998181
1.00622 1 1.0083 0.997938
1.0003 1 1.00214 0.998164
0.999225 1 1 0.999225
0.999236 1 1 0.999236
0.999987 1 1 0.999987
0.999277 1 1 0.999277
0.999982 1 1 0.999982
1 1 1 1
0.999977 1 1 0.999977
1 1 1 1
1 1 1 1
0.999638 1 1 0.999638
0.999665 1 1.00013 0.999536
0.999973 1 1 0.999973
0.999937 1 1 0.999937
1 1 1 1
1.00094 1 1.00106 0.999879
1 1 1 1
1 1 1 1
1.07481 1.11612 0.966068 0.996813
1.07849 1.11588 0.969612 0.996785
1.08374 1.11175 0.978088 0.996645
1.08056 1.11883 0.968911 0.996783
1.08701 1.13326 0.962195 0.996874
1.10802 1.16597 0.953111 0.99705
1.10016 1.15481 0.95559 0.996951
0.915705 1.01632 0.907793 0.99252
1.04555 1.10962 0.944413 0.997716
0.999774 1 1.00082 0.998952
1.07819 1.11791 0.967634 0.996732
1.07154 1.12114 0.958947 0.996675
1.05784 1.10491 0.960451 0.996819
1.00475 1.00885 1.00082 0.995118
1.02574 1.02896 1.0024 0.994483
1.02714 1.04954 0.983309 0.99527
1.03871 1.08029 0.96465 0.996739
1.00592 1.00227 1.00826 0.995422
1.0411 1.00746 1.03764 0.995912
1.03366 1.00769 1.03027 0.995632
1.00115 1 1.00171 0.999442
1.01564 1.00386 1.015 0.996783
1.00848 1 1.00992 0.998575
1.01446 1 1.01727 0.997241
1.00054 1 1.00179 0.998745
1.08586 1.14273 0.95326 0.996823
0.999375 1 1.00059 0.998786
1.00375 1 1.00494 0.998817
1.00122 1.00051 1.00231 0.998409
1.05666 1.12066 0.945945 0.996769
1.0373 1.09119 0.953509 0.996968
1.00486 1.00426 1.00511 0.995505
1.01927 1.02936 0.995296 0.994872
1.02229 1.05498 0.972473 0.996444
1.00713 1 1.00946 0.997691
1.01409 1 1.01714 0.997001
1.00513 1.00034 1.00804 0.996778
1.06976 1.00494 1.06894 0.995851
1.0109 1.00378 1.01062 0.99651
1.06016 1.13625 0.935938 0.996897
1.01883 1.10215 0.927241 0.99694
1.02653 1.06677 0.965525 0.996635
1.00793 1.03213 0.98028 0.996202
1.00103 1.00106 1.00345 0.996528
0.99876 1 1.00037 0.998393
1.00487 1.00038 1.00645 0.998054
1.00271 0.998818 1.00564 0.998268
1.01521 1 1.01776 0.997497
1.01379 1 1.01666 0.997175
1.04967 0.999857 1.0532 0.996793
1.03057 1.00335 1.02999 0.997225
1.00977 0.999906 1.01216 0.997737
1.01753 1.0007 1.02021 0.996682
1.08068 1.1507 0.941961 0.997015
1.04638 1.11235 0.9436 0.99692
1.03368 1.04986 0.989147 0.995389
1.0263 1.02687 1.00414 0.995315
1.02406 1.0261 1.0036 0.994432
1.01931 0.998213 1.02342 0.99777
1.00169 1.08465 0.925995 0.997326
1.00527 1.00043 1.00859 0.996282
1.01187 1.00989 1.00725 0.994746
1.00076 1.04525 0.960668 0.996634
1.00638 1.00892 1.00273 0.994766
0.916588 0.996553 0.925738 0.993541
1.02048 0.994392 1.0287 0.997606
0.964636 1.02959 0.939505 0.997239
1.00321 1.00137 1.00601 0.995853
1.00445 1.00272 1.00636 0.995401
0.98745 1.00775 0.983379 0.996422
0.853681 0.967149 0.920138 0.959289
0.812314 0.937681 0.885388 0.978442
0.91818 0.970626 0.95003 0.995723
0.569512 0.748365 0.842866 0.902881
0.487037 0.667923 0.838588 0.869534
0.998116 0.990724 1.00874 0.998733
1.00432 0.991703 1.01402 0.998721
1.00498 0.991867 1.01454 0.998703
0.998502 1 1.00012 0.998379
1.0008 1 1.00291 0.997891
1.01014 1 1.01232 0.997851
1.0049 1 1.00659 0.998317
0.990069 0.991311 1 0.998747
1.0079 1 1.0101 0.997827
0.998223 1 1 0.998223
0.998724 1 1.00099 0.997738
0.999695 0.993471 1.00758 0.998693
1.01049 1 1.01266 0.997854
1.01567 1 1.01779 0.997911
1.01641 0.998148 1.02007 0.998261
1.00827 1 1.01047 0.997824
0.999133 1 1.00155 0.997588
0.999063 1 1.00092 0.998141
1.00225 1 1.00447 0.997797
1.00683 0.999435 1.00937 0.99805
1.00835 1 1.01024 0.998124
1.00604 1 1.00814 0.997918
1.001 1 1.00268 0.998328
1.00107 1 1.00292 0.998158
0.999227 1 1 0.999227
0.999226 1 1 0.999226
0.999993 1 1 0.999993
0.999231 1 1 0.999231
0.99999 1 1 0.99999
1 1 1 1
0.999984 1 1 0.999984
1 1 1 1
1 1 1 1
0.999745 1 1 0.999745
0.999747 1 1.00011 0.999637
0.999991 1 1 0.999991
0.999763 1 1.00022 0.999542
0.999966 1 1 0.999966
1 1 1 1
0.999931 1 1 0.999931
1 1 1 1
1 1 1 1
1.08439 1.13127 0.96157 0.996863
1.07979 1.11809 0.968866 0.996781
1.11324 1.16803 0.955988 0.996964
0.921115 1.01483 0.914427 0.992592
1.0989 1.15536 0.954043 0.996947
1.05376 1.11264 0.949361 0.997593
1.06871 1.1302 0.948374 0.997061
0.86595 0.962352 0.920092 0.977976
0.962934 1.03187 0.939615 0.993166
0.99906 1 1.00004 0.999024
0.999421 1 1.00048 0.998945
1.00002 1 1.00152 0.998498
0.998637 1 1.00008 0.998558
1.08507 1.14287 0.952443 0.99683
1.05918 1.12114 0.947798 0.996768
1.03428 1.08836 0.953256 0.996915
1.00443 1.00421 1.00469 0.995544
1.01923 1.02948 0.994982 0.99503
1.02179 1.05422 0.972717 0.996427
1.01739 1 1.02096 0.996506
1.05829 1.00439 1.05809 0.995811
1.01282 1.00736 1.00888 0.996577
1.0035 1 1.00468 0.998821
1.01346 1.00061 1.01591 0.996976
1.00653 1 1.00879 0.997759
0.998852 1 1 0.998852
1.00098 1.00041 1.0022 0.998373
1.06112 1.13882 0.934659 0.996911
0.999421 0.999999 1.00104 0.998383
1.0035 1.0006 1.00475 0.99816
1.00254 0.997727 1.0062 0.998633
1.02758 1.10646 0.931571 0.996927
1.02589 1.06614 0.965501 0.996633
1.00116 1.0048 0.999852 0.996525
1.00934 1.03253 0.981196 0.996272
1.01438 1 1.01706 0.997359
1.01398 1.00003 1.01702 0.996985
1.03753 1.00421 1.03607 0.997209
1.05076 1.00332 1.05079 0.996651
1.01166 1.08389 0.936178 0.996992
0.991621 1.06578 0.933258 0.996958
1.01072 1.02822 0.986696 0.996238
0.973033 1.0041 0.971538 0.997451
1.00808 0.999294 1.01036 0.998454
1.0083 1 1.01074 0.99759
1.02053 0.999035 1.02344 0.998121
1.07744 1.0015 1.07877 0.997272
0.852855 0.966825 0.926952 0.951635
1.02018 0.998098 1.02426 0.997915
1.00307 1.00091 1.00591 0.996279
1.00462 1.08639 0.927141 0.997401
0.99952 1.04199 0.962329 0.996788
1.00788 1.00986 1.0033 0.994762
1.0102 1.00749 1.00799 0.994732
0.913646 0.995498 0.925231 0.991945
1.01616 0.99467 1.02399 0.997671
0.963578 1.02968 0.938418 0.997209
1.00365 1.00151 1.0063 0.995864
1.00678 1.00547 1.0059 0.995428
0.989317 1.0088 0.984228 0.996402
0.840765 0.966752 0.913583 0.951944
0.815678 0.938684 0.891649 0.974553
0.921901 0.970461 0.953961 0.995809
0.567701 0.746868 0.839121 0.905839
0.48553 0.676152 0.831813 0.863269
1.0066 0.994751 1.01426 0.997689
0.619063 0.777843 0.874312 0.910283
0.527552 0.702686 0.864034 0.868907
0.971128 1.00558 0.96806 0.997602
1.01378 1.00218 1.01478 0.996841
1.01692 1.00654 1.01335 0.997006
0.917779 0.956945 0.962446 0.996495
0.779059 0.930782 0.874768 0.956819
0.783613 0.907199 0.889132 0.971477
0.539425 0.720382 0.819578 0.913646
0.528744 0.751945 0.818484 0.85911
1.00562 0.988783 1.01827 0.998773
1.00643 0.990597 1.01733 0.998676
1.01544 0.993715 1.02305 0.998837
0.998264 1 1 0.998264
0.999298 1 1.00155 0.997751
1.00898 1 1.01117 0.997835
1.01184 1 1.01392 0.997953
0.999505 0.994918 1.006 0.998615
0.998931 1 1.00079 0.998139
1.01578 1 1.01791 0.997905
1.0089 1 1.01114 0.997786
0.999028 1 1.00139 0.997641
1.01562 0.997486 1.01989 0.998323
1.01607 1 1.01791 0.998193
1.03208 0.99656 1.0372 0.998495
1.00795 1 1.01038 0.997601
0.99938 1 1.00171 0.997679
1.00127 1 1.00349 0.997789
1.00606 0.999022 1.00893 0.998127
1.00136 0.999955 1.00356 0.997861
1.0023 0.998166 1.00593 0.99822
1.01031 0.995887 1.01612 0.99839
1.01336 0.999713 1.01566 0.99802
1.01245 1 1.01429 0.998178
1.0105 1 1.01239 0.998127
1.00641 1 1.00805 0.998367
1.00797 1 1.01009 0.997898
1.00144 1 1.00316 0.998286
0.999197 1 1 0.999197
1.00177 1 1.00362 0.998152
0.999231 1 1 0.999231
0.999988 1 1 0.999988
0.999227 1 1 0.999227
0.999993 1 1 0.999993
1 1 1 1
0.999992 1 1 0.999992
1 1 1 1
1 1 1 1
0.999086 1 1.00015 0.998938
0.999779 1 1 0.999779
0.99974 1 1 0.99974
0.999999 1 1 0.999999
0.999755 1 1.00012 0.999636
0.999986 1 1 0.999986
1 1 1 1
0.999959 1 1 0.999959
1 1 1 1
1 1 1 1
0.923393 1.0133 0.918006 0.992662
1.09765 1.15506 0.95321 0.996943
1.05834 1.11465 0.951887 0.997466
0.854044 0.962991 0.905621 0.97929
0.95586 1.0311 0.933154 0.993433
1.07136 1.13291 0.948501 0.997024
0.964953 1.05019 0.923481 0.994968
0.875114 0.974407 0.915598 0.980888
0.855561 0.972585 0.919515 0.956675
0.584457 0.757363 0.842715 0.915731
0.459392 0.646047 0.818767 0.868478
1.00004 1 1.00147 0.998574
0.999374 1 1.00035 0.999022
0.999575 1 1.00064 0.998937
1.00017 1 1.00165 0.998526
1.0006 1 1.00216 0.998447
0.998775 1 1.00058 0.998194
0.999877 1 1.00158 0.998295
0.998901 1 1.00039 0.998512
1.0636 1.14097 0.93507 0.996922
1.03687 1.11089 0.936256 0.996913
1.02563 1.06618 0.96522 0.996631
0.999574 1.00669 0.996397 0.996524
1.01104 1.03309 0.982257 0.99634
1.04562 1.00469 1.04367 0.997191
1.05166 1.00623 1.04882 0.996509
1.01143 1.00036 1.01432 0.99679
1.00236 1.00077 1.00333 0.998262
1.01508 1 1.01791 0.997216
1.00037 1 1.002 0.998374
1.00259 0.997649 1.00595 0.999002
1.00538 1.08346 0.930665 0.997069
1.0073 0.999073 1.00984 0.998401
1.01023 0.999901 1.01251 0.997852
0.991258 1.06414 0.934379 0.996929
1.01085 1.03094 0.984061 0.996401
0.974997 1.00333 0.974378 0.997315
1.02943 0.998684 1.03314 0.997721
1.0676 1.00361 1.06661 0.997322
0.950659 1.03654 0.920197 0.996687
0.995098 1.02198 0.976687 0.99694
0.974129 1.00266 0.974464 0.997001
0.972737 0.995213 0.979505 0.997867
1.01285 0.999938 1.01516 0.997784
1.01943 0.99578 1.02582 0.997986
1.06166 0.998741 1.06546 0.997684
0.652092 0.791847 0.901896 0.913084
0.857491 0.97056 0.919813 0.960524
1.01198 0.996067 1.01828 0.997738
1.00369 1.00132 1.00652 0.995878
0.963885 1.02973 0.938704 0.997178
0.991321 1.01015 0.984918 0.996387
1.00958 1.00842 1.00571 0.995463
0.845799 0.97033 0.911093 0.956721
0.822918 0.951809 0.886586 0.975183
0.923818 0.968369 0.957897 0.995924
0.582581 0.744636 0.854165 0.915947
0.483381 0.68582 0.822677 0.856742
1.00665 0.996638 1.01237 0.997703
0.637662 0.790315 0.885434 0.911243
0.495469 0.669127 0.85703 0.863998
0.971677 1.00671 0.967558 0.997564
1.01411 1.00286 1.01443 0.996835
1.01464 1.00429 1.01319 0.997151
0.913011 0.950835 0.963248 0.996856
0.777412 0.935252 0.873223 0.951913
0.783651 0.904969 0.888693 0.974401
0.561148 0.73483 0.837484 0.91183
0.539824 0.769985 0.817607 0.857483
1.00708 0.994906 1.01383 0.998424
0.52736 0.708772 0.859218 0.865959
0.566383 0.780708 0.834059 0.86981
0.984259 0.989201 0.996426 0.998573
1.02008 1.0023 1.01926 0.998513
0.92483 0.937191 0.991069 0.995703
0.807965 0.896872 0.922222 0.976848
0.712149 0.875159 0.85833 0.948046
0.599695 0.740487 0.886637 0.913414
0.622604 0.850534 0.845473 0.865806
1.00974 0.99316 1.01807 0.99865
1.0129 0.995246 1.01897 0.998787
1.01265 0.992376 1.02137 0.999074
0.998446 1 1.00031 0.998137
0.998907 1 1.00122 0.997694
1.01023 1 1.01251 0.997748
1.01596 1 1.0181 0.997898
1.01444 0.996782 1.01936 0.998385
0.998922 1 1.00125 0.99767
1.01625 1 1.01817 0.998119
1.00706 1 1.00948 0.997603
1.02879 0.994269 1.03621 0.998559
1.04645 0.992208 1.05562 0.999094
1.02257 0.999839 1.02462 0.998159
1.00384 1 1.00629 0.997574
1.00007 1 1.00229 0.99778
1.00521 0.999855 1.00717 0.998203
1.00144 0.999897 1.0037 0.997849
1.00217 0.999735 1.00425 0.998195
1.00313 0.991962 1.01276 0.998518
1.00413 0.999378 1.00657 0.998193
1.01757 0.997231 1.0222 0.998232
0.996956 0.98603 1.01253 0.998564
1.024 1.00044 1.02573 0.997871
1.0083 1.01039 1.00093 0.997
1.02037 0.999324 1.02337 0.997737
1.01375 0.999423 1.01634 0.998025
1.01628 1 1.01845 0.997874
1.01179 0.999929 1.0137 0.998186
1.00863 1 1.01036 0.998295
1.00891 1 1.01081 0.998129
1.00341 1 1.00503 0.998382
0.99944 1 1.00031 0.999132
1.00049 1 1.00225 0.998243
0.999202 1 1 0.999202
0.999967 1 1 0.999967
0.999235 1 1 0.999235
0.999984 1 1 0.999984
1 1 1 1
0.999992 1 1 0.999992
1 1 1 1
1 1 1 1
0.999 1 1.0001 0.998902
0.999726 1 1 0.999726
0.999031 1 1.00009 0.998941
1 1 1 1
0.999778 1 1 0.999778
0.999735 1 1 0.999735
0.999997 1 1 0.999997
1 1 1 1
0.999981 1 1 0.999981
1 1 1 1
1 1 1 1
0.617519 0.776199 0.88118 0.902844
0.510591 0.696579 0.849596 0.86276
0.854256 0.960751 0.907229 0.980077
0.952237 1.03011 0.930231 0.993735
1.07454 1.13726 0.947705 0.996987
0.872326 0.960959 0.924498 0.981902
0.969554 1.04631 0.931017 0.995298
0.858627 0.977162 0.918596 0.956562
0.561356 0.747147 0.829309 0.905975
0.472451 0.668046 0.820155 0.862293
0.885641 0.990008 0.906283 0.987086
0.803773 0.944461 0.888503 0.957834
0.544014 0.726563 0.819835 0.913294
0.546782 0.764164 0.829896 0.862192
1.00135 1 1.00324 0.998114
0.999236 1 1.00063 0.998609
0.999441 1 1.00042 0.999022
0.999752 1 1.0012 0.998556
1.00032 1 1.00172 0.998603
1.0004 1 1.0026 0.99781
0.999174 1 1.00097 0.998204
1.00207 1 1.00431 0.997776
0.999406 1 1.00117 0.998238
0.999372 1 1.00091 0.998466
0.997253 1.08301 0.923454 0.997143
0.990491 1.06218 0.935403 0.996903
1.01136 1.03357 0.981888 0.996564
0.97769 1.00308 0.977443 0.997178
1.05726 1.00586 1.05387 0.997375
1.03999 0.998903 1.04392 0.997328
1.01065 0.999632 1.01293 0.998111
1.00649 0.998736 1.00944 0.998347
0.949866 1.03685 0.918983 0.996873
1.01612 0.999929 1.01852 0.997719
1.01966 0.995838 1.02601 0.99797
0.983441 1.01727 0.969766 0.996881
0.971993 1.00206 0.972871 0.997046
0.977053 0.997138 0.981949 0.997869
1.05401 0.997603 1.05905 0.997632
0.926926 1.00106 0.928978 0.996737
0.970681 0.996885 0.975609 0.998058
1.02067 0.985568 1.03752 0.998167
1.01118 1 1.0136 0.997612
1.02703 0.997376 1.03211 0.997697
1.02908 0.994968 1.03652 0.997838
0.548253 0.719584 0.86479 0.881027
0.643333 0.786958 0.893511 0.914922
0.855855 0.97221 0.924833 0.951868
1.00563 0.995135 1.01286 0.997712
1.01377 1.00284 1.01412 0.99682
0.973727 1.00796 0.968439 0.997522
1.01262 1.00262 1.01272 0.997289
0.646257 0.782837 0.900139 0.917117
0.788808 0.941463 0.88033 0.951749
0.774855 0.903087 0.883067 0.971622
0.913134 0.947413 0.96655 0.997173
0.553248 0.740708 0.826725 0.903466
0.480793 0.653121 0.848847 0.867233
0.553421 0.776811 0.822546 0.866124
1.00653 0.994351 1.01392 0.998357
0.53147 0.708894 0.860089 0.871674
0.588514 0.804066 0.841926 0.869343
0.97949 0.98625 0.994445 0.998693
1.01883 1.00095 1.01945 0.99845
0.921758 0.934403 0.989714 0.996719
0.795102 0.903055 0.904473 0.973448
0.737797 0.879237 0.878588 0.955093
0.597402 0.7469 0.884764 0.904018
0.615428 0.840682 0.839694 0.871816
1.00601 0.991791 1.01492 0.999431
0.609221 0.80241 0.862984 0.879784
0.611163 0.822847 0.850111 0.8737
0.965946 0.941542 1.02621 0.999715
0.850762 0.893465 0.968078 0.983603
0.751969 0.846516 0.932739 0.952368
0.700238 0.845555 0.919635 0.90051
0.674153 0.898984 0.854763 0.877325
1.00938 0.995197 1.01554 0.998736
1.01474 0.991497 1.02441 0.999059
1.02242 0.977995 1.0461 0.999354
0.999362 1 1.0017 0.997662
1.00566 1 1.00808 0.997605
1.01577 1 1.01776 0.998044
1.02639 0.992516 1.03555 0.998624
1.00436 1 1.0068 0.997573
1.02151 0.999261 1.02416 0.998147
1.05221 0.992233 1.06133 0.999173
1.04054 0.976756 1.06589 0.999446
1.04718 0.993174 1.05536 0.999068
1.01598 0.999414 1.01858 0.998036
1.00115 1 1.00332 0.997836
1.00092 1.00012 1.00263 0.99817
0.99537 0.986151 1.01072 0.998643
1.01655 0.997188 1.0212 0.998258
1.00258 0.999825 1.00459 0.99818
0.998707 0.985034 1.0153 0.998598
1.0244 0.999128 1.02711 0.998232
1.02032 0.980567 1.04162 0.998962
1.01079 1.00334 1.00931 0.998132
1.0183 1.00128 1.01912 0.997913
1.00459 1.00205 1.00526 0.997284
1.01385 1.01655 1.00153 0.995826
1.01145 1.00567 1.00846 0.99731
1.0061 1.00788 1.00086 0.997373
1.01824 0.999718 1.02084 0.99773
1.02742 0.999688 1.03025 0.997559
1.01346 0.999212 1.01626 0.998031
1.01699 1 1.01915 0.997878
1.01144 1 1.01345 0.998011
1.01282 1 1.01465 0.998193
1.00999 1 1.01172 0.998294
1.00244 1 1.00344 0.999004
1.00391 1 1.00552 0.998398
1.00015 1 1.00102 0.999134
0.999924 1 1 0.999924
0.999315 1 1.00011 0.999207
0.999955 1 1 0.999955
1 1 1 1
0.99998 1 1 0.99998
1 1 1 1
1 1 1 1
0.999738 1 1.00125 0.998493
0.999633 1 1.00001 0.999625
0.999198 1 1.0004 0.998799
0.999996 1 1 0.999996
0.999733 1 1 0.999733
0.99918 1 1.00024 0.998944
1 1 1 1
1 1 1 1
0.999778 1 1 0.999778
0.999995 1 1 0.999995
1 1 1 1
1 1 1 1
0.511161 0.694668 0.848098 0.86763
0.630865 0.78398 0.884855 0.909409
0.593148 0.811681 0.840454 0.869487
0.508994 0.700438 0.843409 0.861599
0.871245 0.962475 0.924515 0.979121
0.973653 1.04209 0.938412 0.995647
0.849519 0.981578 0.905361 0.955931
0.576451 0.741264 0.849509 0.915421
0.486814 0.695336 0.817813 0.856079
0.893973 0.984263 0.921343 0.985806
0.771908 0.928992 0.876102 0.948416
0.563854 0.736571 0.839923 0.911407
0.532364 0.753137 0.824601 0.857217
0.841251 0.950349 0.902286 0.981067
0.705493 0.848789 0.878027 0.946641
0.624814 0.786598 0.883047 0.899527
0.611218 0.836382 0.845562 0.864264
1.00567 1 1.00806 0.997631
1.00148 1 1.00331 0.998176
0.999062 1 1.00042 0.998642
1.00027 1 1.00151 0.998759
1.00015 1 1.0028 0.997356
1.00014 1 1.00226 0.997884
0.99926 1 1.00105 0.998213
1.00151 1 1.00379 0.997733
1.00098 1 1.00317 0.997814
0.99902 1 1.00084 0.99818
0.949895 1.03749 0.918277 0.99705
0.973555 1.01294 0.964172 0.996828
0.968682 1.00129 0.970257 0.997092
0.980281 0.998804 0.983547 0.997873
1.04115 0.99502 1.0489 0.997575
1.02059 0.997064 1.02569 0.997958
1.01782 1 1.02021 0.997654
1.01103 1 1.0135 0.997564
0.929086 1.00023 0.931773 0.996883
1.02263 0.998198 1.02688 0.997655
1.02911 0.995483 1.03605 0.997816
0.969643 0.998373 0.973116 0.998055
1.0128 0.989639 1.02533 0.998124
0.932048 0.965915 0.967893 0.996945
0.951384 0.949918 1.00233 0.999218
1.04811 0.974452 1.07734 0.998377
1.01279 0.998452 1.01657 0.997827
1.03246 0.994103 1.04066 0.998004
0.624175 0.818876 0.860199 0.886113
0.539587 0.720451 0.852461 0.878581
0.632613 0.77905 0.896331 0.905951
1.00718 0.995433 1.01353 0.998296
1.01775 0.999348 1.02007 0.998384
0.972728 0.983433 0.99028 0.998823
0.523576 0.702747 0.855296 0.871092
0.708497 0.857375 0.872426 0.947193
0.799869 0.900767 0.910431 0.975347
0.911348 0.927959 0.984259 0.997806
0.607145 0.759343 0.87534 0.913434
0.6068 0.821757 0.849431 0.869309
0.610509 0.834139 0.838725 0.872639
1.00432 0.992277 1.01277 0.999376
0.615055 0.807263 0.864101 0.881727
0.605673 0.814994 0.850131 0.874174
0.969296 0.947851 1.02317 0.999467
0.861605 0.905822 0.967059 0.983587
0.727582 0.848244 0.908062 0.944595
0.664228 0.890531 0.851514 0.875944
0.716931 0.844656 0.937807 0.905074
0.986481 0.946524 1.04252 0.999711
0.610539 0.800947 0.863218 0.883058
0.659611 0.870041 0.860399 0.881146
0.6086 0.835045 0.843142 0.864412
0.913524 0.90462 1.01429 0.99562
0.829773 0.883385 0.983944 0.954639
0.78242 0.921863 0.931039 0.911602
1.01803 0.991542 1.0277 0.999043
1.02565 0.983514 1.0436 0.99927
1.04076 0.972762 1.07037 0.999566
1.0052 1 1.00765 0.997573
1.02004 0.998778 1.0232 0.998135
1.05693 0.99076 1.06758 0.999251
1.01917 0.999285 1.02189 0.998049
1.0474 0.993036 1.05571 0.999079
1.04838 0.978833 1.07167 0.999421
1.03429 0.966478 1.07071 0.999489
1.03029 0.988774 1.04297 0.999058
1.01432 0.997216 1.0189 0.998287
1.00255 1.00018 1.00421 0.998165
1.00242 0.986805 1.01721 0.998633
1.02149 0.985311 1.03783 0.998933
1.03117 0.999594 1.03341 0.998242
1.01615 1.00019 1.01718 0.998793
1.01283 0.999974 1.0143 0.998576
1.00385 1.00265 1.00447 0.996745
1.01462 1.00334 1.0133 0.997968
1.00592 1.00442 1.00435 0.997163
1.0047 1.00709 1.00227 0.995372
1.03139 1.03507 1.00129 0.995155
1.01282 1.01346 1.00258 0.996793
1.00945 1.01221 1.00138 0.99589
1.01832 1.00077 1.02042 0.997174
1.01137 1.0058 1.00823 0.99734
1.00356 1.00511 1.00072 0.997741
1.01611 1.00001 1.01842 0.997723
1.02664 0.999768 1.02938 0.997564
1.01724 1 1.0196 0.99769
1.01846 0.999859 1.02076 0.997884
1.01125 1.00044 1.01283 0.998007
1.00663 1 1.00789 0.99875
1.00749 1 1.00921 0.998293
1.00271 1 1.00371 0.998997
0.99988 1 1 0.99988
1.00016 1 1.00102 0.999135
0.999913 1 1 0.999913
1 1 1 1
0.999943 1 1 0.999943
1 1 1 1
1 1 1 1
1.00232 1 1.00424 0.998088
0.999538 1 1.00025 0.99929
0.999976 1 1.00149 0.998492
0.999987 1 1 0.999987
0.999547 1 1 0.999547
0.999089 1 1.00039 0.998697
1 1 1 1
0.999998 1 1 0.999998
0.99974 1 1 0.99974
1 1 1 1
1 1 1 1
1 1 1 1
0.633073 0.834373 0.862539 0.879659
0.526345 0.699965 0.859121 0.875265
0.617639 0.777535 0.874721 0.908125
1.00351 1 1.00589 0.997634
0.601577 0.808928 0.847169 0.877833
0.593621 0.808853 0.844252 0.869297
0.528092 0.722736 0.840929 0.868901
0.899214 0.990485 0.922161 0.984483
0.780086 0.922992 0.883266 0.95687
0.551209 0.738962 0.826329 0.902695
0.519305 0.729104 0.825447 0.862866
0.836373 0.946748 0.904093 0.977131
0.734409 0.868919 0.885507 0.954479
0.612932 0.76506 0.88899 0.901197
0.614496 0.839115 0.845696 0.865931
0.779452 0.894006 0.896948 0.972034
0.736125 0.836888 0.92597 0.949921
0.723614 0.848907 0.940364 0.906465
0.671628 0.892488 0.857741 0.877345
1.00393 1 1.00631 0.997641
1.00584 1 1.00824 0.997623
1.00125 1 1.00302 0.998238
1.00043 1 1.00286 0.997582
1.00151 1 1.00409 0.997433
1.00023 1 1.00228 0.997958
1.00263 1 1.00491 0.997731
1.00048 1 1.00264 0.997851
0.932987 1.00164 0.934267 0.996995
0.970312 1.00114 0.971088 0.998062
1.00975 1 1.01227 0.997513
1.00506 0.993481 1.0136 0.998079
1.03025 0.994832 1.03789 0.997793
1.02388 0.999868 1.02647 0.997611
1.01723 0.999461 1.02003 0.997798
0.933751 0.965571 0.969836 0.997122
1.03123 0.995455 1.03802 0.998003
1.03659 0.981627 1.05766 0.998422
0.95715 0.954468 1.00355 0.999258
1.02247 0.997957 1.02655 0.998065
0.91815 0.925547 0.995808 0.996184
0.981533 0.947312 1.03667 0.999476
1.07159 0.986105 1.08829 0.998536
1.06474 0.994837 1.07218 0.998211
0.605171 0.792029 0.860859 0.887576
0.621815 0.816924 0.860333 0.884734
0.530581 0.719418 0.841869 0.876044
1.00161 0.992281 1.01009 0.999322
0.973485 0.952671 1.02265 0.999219
0.624113 0.815541 0.866129 0.883558
0.745359 0.827318 0.944536 0.953838
0.850915 0.903488 0.962161 0.978849
0.703811 0.834742 0.934088 0.902644
0.603238 0.811185 0.850323 0.87455
0.660247 0.887672 0.850513 0.874526
0.997013 0.960023 1.03888 0.999669
0.611721 0.803217 0.862354 0.883151
0.665705 0.871223 0.865331 0.883019
0.93088 0.916534 1.01716 0.998523
0.612127 0.83722 0.844301 0.865974
0.797997 0.862209 0.974274 0.949965
0.777528 0.908161 0.939718 0.911079
0.989607 0.947769 1.04459 0.999569
0.66044 0.851741 0.871114 0.890125
0.605705 0.809086 0.851884 0.878791
0.542663 0.759463 0.828833 0.862098
0.716595 0.84268 0.938877 0.905737
0.916059 0.91725 1.00961 0.989196
0.847708 0.89602 1.00281 0.943425
1.02767 0.990122 1.03876 0.999188
1.03462 0.964757 1.07292 0.999534
1.01411 0.941313 1.07779 0.999581
1.02211 0.998635 1.0255 0.998062
1.04914 0.991611 1.05897 0.999091
1.05772 0.981647 1.07815 0.999396
1.02753 0.989317 1.03962 0.999045
1.02825 0.96618 1.06479 0.999488
0.984767 0.962398 1.02403 0.999234
1.02386 0.989041 1.03634 0.998903
1.03618 0.996803 1.04132 0.998256
1.02274 0.998565 1.02548 0.998761
1.00174 0.998791 1.00507 0.997893
1.01431 0.997131 1.01823 0.999019
0.998216 1.00265 0.998546 0.997025
1.00813 1.00409 1.00945 0.994622
1.01083 1.01362 1.00283 0.99443
1.00683 1.00724 1.00258 0.997027
1.00487 1.00774 1.00205 0.995117
1.02794 1.03239 1.00053 0.995169
1.02611 1.02764 1.00261 0.995906
1.02817 1.03176 1.00125 0.995272
1.01398 1.0066 1.01039 0.996965
1.01692 1.01679 1.00339 0.996746
1.00476 1.00755 1.00128 0.995959
1.02514 1 1.02775 0.997466
1.01851 1.00098 1.02037 0.997205
1.01169 1.00597 1.00834 0.997369
1.02596 1 1.02846 0.99757
1.01658 1.00034 1.01859 0.997691
1.01275 1 1.01434 0.998433
1.01174 1.00068 1.01308 0.998003
1.0069 1 1.00817 0.998743
1.00014 1 1.00034 0.999802
1.00414 1 1.00516 0.998993
0.99987 1 1 0.99987
1 1 1 1
0.999902 1 1 0.999902
1 1 1 1
1 1 1 1
1.00396 1 1.00598 0.997992
1.0016 1 1.0026 0.999
1.00253 1 1.00437 0.998165
0.999967 1 1 0.999967
0.999462 1 1.0002 0.999258
1.00017 1 1.00168 0.99849
1 1 1 1
0.99999 1 1 0.99999
0.999469 1 1 0.999469
1 1 1 1
0.999999 1 1 0.999999
1 1 1 1
0.612552 0.80168 0.860981 0.88746
0.630257 0.830747 0.862365 0.879746
0.528116 0.698407 0.86404 0.875159
1.0034 1 1.00573 0.997684
1.01044 1 1.01291 0.997567
1.00152 1 1.00375 0.997784
0.666479 0.875688 0.864471 0.880413
0.602711 0.813538 0.84351 0.878297
0.590042 0.809095 0.839025 0.869177
0.837852 0.949952 0.900481 0.979471
0.707689 0.866324 0.862781 0.946808
0.628469 0.755705 0.910861 0.913018
0.616066 0.847029 0.843446 0.862327
0.786822 0.897326 0.898809 0.975571
0.748748 0.847031 0.931393 0.94908
0.720965 0.847775 0.936918 0.907678
0.664375 0.888181 0.854068 0.875829
0.809369 0.890808 0.934159 0.972616
0.79369 0.862146 0.967398 0.951623
0.786166 0.918623 0.93835 0.912036
0.626709 0.851877 0.849084 0.86644
1.00142 0.999087 1.0044 0.997945
1.00335 1 1.00576 0.997602
1.00579 1 1.00819 0.997615
1.00056 1 1.00301 0.997559
1.002 1 1.0045 0.997511
1.00224 1 1.00452 0.99773
0.92821 0.957949 0.971539 0.99734
0.960458 0.954433 1.00705 0.999272
1.01589 0.999871 1.01829 0.997771
1.03016 0.990227 1.04192 0.998466
1.0275 0.996334 1.03335 0.998
1.02289 0.997583 1.02734 0.998083
1.04689 0.987554 1.06195 0.998248
0.917383 0.922121 0.99855 0.996307
1.06413 0.979955 1.08734 0.998678
0.981907 0.9346 1.05147 0.999193
1.0388 0.985648 1.0556 0.998418
0.932624 0.916546 1.02197 0.995669
1.00675 0.948206 1.06289 0.998925
1.02978 0.954831 1.0798 0.998792
0.681411 0.868906 0.881228 0.889914
0.611957 0.796958 0.86487 0.887841
0.618659 0.815068 0.859249 0.883362
1.00805 0.973475 1.03591 0.999627
0.918837 0.91576 1.00718 0.996203
0.611191 0.802842 0.861915 0.883247
0.794078 0.8472 0.981872 0.954602
0.767906 0.912745 0.930428 0.904223
0.668545 0.874236 0.86421 0.884877
0.614491 0.845187 0.8429 0.862556
0.982186 0.940515 1.04463 0.999694
0.655888 0.844055 0.872334 0.890792
0.609503 0.819894 0.845424 0.879314
0.911889 0.913129 1.01507 0.983813
0.527591 0.746233 0.824657 0.857334
0.722078 0.846376 0.941209 0.906431
0.834629 0.891119 0.982698 0.953098
1.00211 0.936405 1.07301 0.997359
0.616398 0.802442 0.864719 0.888326
0.602884 0.816218 0.848825 0.870181
0.462066 0.644672 0.824742 0.869055
0.61099 0.773173 0.879179 0.898836
0.803997 0.860168 0.982642 0.951209
0.872961 0.893612 0.997525 0.979314
1.02908 0.960689 1.07172 0.999501
1.02671 0.957666 1.07257 0.999566
0.994197 0.949582 1.04761 0.999404
1.02363 0.990885 1.03405 0.999032
1.02237 0.966658 1.05817 0.999487
0.987987 0.959893 1.02997 0.999318
1.01516 0.992229 1.02442 0.998728
1.02965 0.997779 1.03326 0.998724
0.998354 1.00103 0.999787 0.997538
1.03371 1.00159 1.03695 0.995289
0.991732 1.00158 0.992835 0.997315
1.00978 1.00372 1.01138 0.994713
1.00882 1.00525 1.00985 0.993768
1.02189 1.02595 1.00191 0.994141
1.01945 1.02364 1.00108 0.994831
1.01104 1.01361 1.00312 0.994369
1.00466 1.00814 1.00169 0.994864
1.01894 1.02245 1.0011 0.99548
1.03145 1.03586 1.00048 0.995268
1.01678 1.01521 1.00526 0.9963
1.02732 1.02863 1.00274 0.996
1.02601 1.02956 1.00117 0.995389
1.02505 1.00355 1.02424 0.997259
1.01608 1.00824 1.01087 0.996947
1.02011 1.01945 1.00397 0.996696
1.02296 1.00076 1.02409 0.998142
1.02414 1.00021 1.02653 0.997465
1.01972 1.00156 1.02095 0.997237
1.01775 1.00112 1.01896 0.997693
1.01247 1.00024 1.01382 0.99843
1.00157 1 1.00191 0.999664
1.00645 1 1.00772 0.998735
1.00043 1 1.00064 0.999787
1 1 1 1
0.999861 1 1 0.999861
1 1 1 1
1 1 1 1
1.00396 1 1.00607 0.997901
1.00314 1 1.00424 0.998907
1.00463 1 1.00663 0.998018
0.999928 1 1 0.999928
1.00093 1 1.00187 0.999058
1.00228 1 1.00404 0.998242
1 1 1 1
0.999974 1 1 0.999974
0.999348 1 1.00012 0.999227
1 1 1 1
0.999993 1 1 0.999993
1 1 1 1
0.657574 0.849306 0.870838 0.889085
0.621094 0.804316 0.870019 0.887569
0.631821 0.83151 0.863614 0.879846
1.02897 1 1.03163 0.997423
1.00989 1.00247 1.00979 0.997634
1.00378 1 1.00606 0.997735
1.00984 1 1.01233 0.99754
1.00124 1 1.00342 0.99783
1.00749 1 1.00975 0.997761
0.996562 0.998437 1 0.998121
0.619307 0.832979 0.850524 0.874148
0.668679 0.87361 0.867533 0.882295
0.612443 0.814886 0.855271 0.87875
0.661483 0.887488 0.852522 0.87428
0.790617 0.905216 0.898188 0.972403
0.760055 0.848112 0.945479 0.947851
0.72679 0.863453 0.922103 0.912833
0.798613 0.89581 0.917841 0.971299
0.798946 0.857064 0.988003 0.943509
0.777669 0.905946 0.941553 0.911691
0.620084 0.845626 0.840567 0.872369
0.847213 0.893248 0.9726 0.975182
0.824808 0.875783 0.998344 0.943357
0.704099 0.84815 0.92115 0.90122
0.535785 0.761125 0.818992 0.859518
1.06057 0.995682 1.0669 0.998375
1.00488 0.999223 1.00769 0.997982
1.00464 1 1.00709 0.997563
1.00234 1 1.00482 0.997537
0.923975 0.924647 1.00284 0.996439
0.981254 0.926146 1.06066 0.998906
1.02481 0.997533 1.0293 0.998101
1.03949 0.989736 1.05208 0.998285
1.04565 0.962393 1.0878 0.998821
1.04066 0.991501 1.05124 0.99842
1.03917 0.956105 1.08821 0.998779
0.934375 0.917874 1.02464 0.9935
1.01016 0.941572 1.07381 0.999103
1.01642 0.964168 1.05535 0.998906
0.930535 0.909606 1.03133 0.991933
0.978751 0.924746 1.05925 0.999195
0.613822 0.794304 0.869628 0.888634
0.675268 0.860234 0.878908 0.893133
0.622055 0.802228 0.873118 0.888093
0.970073 0.926525 1.04721 0.999805
0.921116 0.91752 1.01425 0.989818
0.649563 0.835512 0.872091 0.891469
0.853293 0.902561 1.00083 0.944632
0.722879 0.8578 0.924225 0.911805
0.617591 0.819883 0.856226 0.879754
0.514938 0.720959 0.827781 0.862837
1.00011 0.937312 1.06946 0.997702
0.622628 0.808259 0.867035 0.888466
0.598508 0.807339 0.85209 0.870019
0.877395 0.894347 0.998584 0.982437
0.475306 0.668352 0.824097 0.862959
0.602175 0.752511 0.888969 0.900167
0.804255 0.864781 0.984611 0.944544
0.98479 0.938902 1.05458 0.994587
0.642209 0.844694 0.863859 0.880103
0.508007 0.688555 0.854412 0.863503
0.543047 0.725047 0.819631 0.913804
0.741992 0.824743 0.94531 0.951713
0.822987 0.868777 0.972729 0.973851
1.03281 0.96257 1.07342 0.99959
1.00064 0.948874 1.05516 0.999423
0.985334 0.962165 1.02495 0.999149
0.991906 0.957174 1.03691 0.999402
1.01576 0.978759 1.039 0.998857
1.02471 1.0008 1.02644 0.997515
0.994967 1.00323 0.99456 0.997185
1.0331 1.00185 1.0363 0.995067
1.01914 1.00363 1.02146 0.994124
1.01123 1.0036 1.01286 0.994804
1.01037 1.00554 1.01121 0.99367
1.00874 1.01063 1.00448 0.993675
1.06291 1.06989 0.99888 0.994591
1.03876 1.04366 1.00077 0.994538
1.0217 1.02554 1.00218 0.994085
1.02181 1.02665 1.00013 0.995151
1.01708 1.02154 1.00074 0.994897
1.01128 1.01345 1.00357 0.994306
1.02708 1.02916 1.00255 0.995447
1.01961 1.02315 1.00108 0.995457
1.03439 1.03876 1.00043 0.995367
1.01826 1.0094 1.01204 0.996776
1.01559 1.01252 1.00661 0.996449
1.02855 1.02944 1.00305 0.996096
1.02238 1.004 1.0205 0.997848
1.02284 1.00485 1.02069 0.997264
1.01708 1.00997 1.01015 0.996927
1.00563 1 1.00613 0.999505
1.02088 1.00087 1.02188 0.998145
1.02101 1 1.02361 0.997463
1.01054 1 1.01214 0.998427
1.00264 1 1.00299 0.99965
1 1 1 1
1.00065 1 1.00087 0.999773
1 1 1 1
1 1 1 1
1.02136 1.00124 1.02272 0.997438
1.01694 1.00059 1.01874 0.997642
1.00381 1 1.00517 0.99865
1.00631 1 1.00843 0.997896
0.999966 1 1.00009 0.999873
1.00282 1 1.00392 0.998908
1.00654 1 1.00851 0.998044
1 1 1 1
0.99994 1 1 0.99994
1.00063 1 1.00151 0.999116
1 1 1 1
0.999981 1 1 0.999981
1 1 1 1
0.619037 0.806636 0.868505 0.883623
0.650114 0.842704 0.867011 0.889795
0.620529 0.807889 0.865285 0.887668
1.03092 1.0001 1.03351 0.9974
1.01384 1.00152 1.01465 0.997678
0.999479 1.00136 1.00078 0.997341
1.03147 0.999845 1.03405 0.997658
1.01147 1.00561 1.00808 0.997765
1.01282 1 1.01535 0.997512
1.00036 0.999678 1.00282 0.997873
1.00981 0.999676 1.0124 0.997768
0.997875 0.999359 1.00032 0.998194
1.03201 0.998963 1.03494 0.998211
0.576013 0.792938 0.83478 0.870204
0.61496 0.823194 0.854042 0.874712
0.66466 0.872028 0.862034 0.884189
0.615249 0.842517 0.836292 0.8732
0.772463 0.910911 0.93733 0.904709
0.793017 0.888218 0.921037 0.969362
0.796075 0.85248 0.982198 0.95076
0.837996 0.897702 0.961986 0.970378
0.828278 0.890135 0.978432 0.95102
0.720718 0.844836 0.941123 0.906455
0.545452 0.776686 0.818679 0.857822
0.866009 0.896147 0.992866 0.973313
0.805858 0.850102 0.995852 0.951903
0.609637 0.746235 0.894327 0.913481
0.492527 0.674417 0.839944 0.869463
1.04682 0.997911 1.05014 0.998928
1.06073 0.995072 1.06771 0.998382
1.00949 1 1.01149 0.998022
0.93183 0.916446 1.02583 0.99118
1.01435 0.939624 1.08038 0.999216
1.04023 0.99444 1.0477 0.998422
1.04958 0.952555 1.10321 0.998767
1.02269 0.97076 1.05464 0.998912
0.982295 0.932476 1.05423 0.999233
0.924699 0.904984 1.03001 0.992018
1.00044 0.974485 1.0273 0.999357
0.94301 0.929446 1.02096 0.993762
0.635756 0.828296 0.866315 0.88599
0.626834 0.805576 0.875435 0.888837
0.667331 0.852303 0.873418 0.896449
1.00396 0.949503 1.05953 0.997944
0.872275 0.896915 0.99561 0.976816
0.633318 0.818285 0.870992 0.888593
0.807792 0.86365 0.986517 0.948106
0.61323 0.741889 0.906681 0.911654
0.590363 0.807674 0.840166 0.869997
0.488163 0.69481 0.819989 0.856822
0.98092 0.936513 1.05267 0.995006
0.637557 0.837421 0.86507 0.880083
0.507763 0.694441 0.847915 0.86233
0.836863 0.8845 0.969521 0.975887
0.562116 0.735029 0.838735 0.911792
0.733288 0.83777 0.924433 0.946834
0.919628 0.91675 1.01067 0.992545
0.512195 0.693838 0.85031 0.86816
0.587272 0.759362 0.843924 0.916404
0.707989 0.854148 0.875613 0.946632
0.79226 0.879575 0.922169 0.976753
1.00744 0.951807 1.05904 0.999446
0.986075 0.950616 1.03822 0.999116
0.997537 0.986307 1.01303 0.998373
1.01579 0.963552 1.05529 0.998979
1.01665 0.998937 1.02016 0.997617
0.989302 1.00459 0.988393 0.996348
1.03268 1.00189 1.03608 0.99484
1.01821 1.00508 1.01905 0.994116
1.00396 1.00934 0.999915 0.994756
1.01161 1.00579 1.01229 0.993573
1.00731 1.00995 1.0037 0.993718
1.04563 1.05989 0.991631 0.994878
1.08058 1.09997 0.986792 0.995518
1.07842 1.08433 0.999849 0.994696
1.06308 1.07073 0.998219 0.994626
1.05255 1.05801 1 0.994843
1.03718 1.04183 1.00107 0.994474
1.02163 1.02527 1.00244 0.994029
1.04591 1.05069 1.00029 0.995173
1.01951 1.02438 1.00002 0.995215
1.01441 1.01922 1.00032 0.994962
1.03067 1.02484 1.00978 0.995949
1.02264 1.0236 1.00353 0.99555
1.02117 1.02474 1.0011 0.995434
1.0259 1.00686 1.02154 0.997431
1.02312 1.01092 1.01535 0.996767
1.01558 1.01125 1.00771 0.996598
1.00874 1 1.00939 0.999356
1.02573 1.00567 1.02214 0.997851
1.02268 1.00623 1.01914 0.99727
0.999851 1 1 0.999851
1.0076 1 1.00812 0.999487
1.02158 1.00149 1.02195 0.998149
1.00435 1 1.00472 0.999635
1 1 1 1
1 1 1 1
1.01237 1.00451 1.01063 0.997231
1.02155 1.00097 1.02322 0.997401
1.02353 1.00083 1.02533 0.997419
1.00884 1 1.01045 0.998402
1.01407 1.00045 1.01601 0.997638
1.00094 1 1.00113 0.999807
1.0052 1 1.00655 0.998655
1.00781 1 1.00994 0.997889
1 1 1 1
0.999888 1 1 0.999888
1.00177 1 1.00286 0.99891
1 1 1 1
0.999952 1 1 0.999952
1 1 1 1
0.622767 0.813357 0.864907 0.885268
0.622817 0.81152 0.868424 0.88375
0.650256 0.832534 0.877144 0.890455
1.01484 1.00509 1.01278 0.996962
1.02669 1 1.02939 0.99738
1.01148 1 1.01378 0.997724
1.02599 1 1.02849 0.997567
1.00422 1.00504 1.00183 0.997353
1.00334 1.00175 1.00358 0.998009
1.0189 1.00406 1.018 0.996839
1.0243 0.990391 1.03625 0.998065
1.01008 0.999444 1.01289 0.997777
0.997844 1 0.999575 0.998267
1.0333 0.996748 1.03855 0.998198
1.05263 1.00002 1.05423 0.998467
0.528634 0.705304 0.862757 0.86874
0.595452 0.812906 0.842201 0.869741
0.614056 0.818297 0.857466 0.875145
0.558538 0.782819 0.823582 0.866333
0.708139 0.837269 0.935033 0.904538
0.827689 0.879853 0.997027 0.943519
0.846374 0.900062 0.968139 0.971298
0.86194 0.892273 0.989883 0.975878
0.491047 0.682277 0.83373 0.86325
0.798144 0.857588 0.984097 0.945726
0.608377 0.753541 0.893195 0.903899
0.861656 0.899811 0.978398 0.978739
0.757383 0.842461 0.942086 0.954279
0.545961 0.723914 0.826229 0.912797
0.984306 1.00125 0.983509 0.999564
1.04901 0.998093 1.05213 0.998934
1.05934 0.993721 1.06776 0.998386
0.928727 0.908891 1.02997 0.992091
0.990227 0.944959 1.04867 0.999273
1.03181 0.981441 1.05246 0.998919
0.997287 0.971975 1.02669 0.999371
0.940866 0.930917 1.01695 0.993845
0.960794 0.966209 0.998164 0.996224
0.539729 0.713301 0.863464 0.876312
0.6325 0.824578 0.863999 0.887801
0.633255 0.816002 0.873 0.888942
0.978522 0.932338 1.05457 0.995223
0.831195 0.880595 0.966302 0.976819
0.631806 0.827118 0.867788 0.880243
0.751549 0.83745 0.94809 0.946562
0.551844 0.739634 0.826012 0.903261
0.529488 0.719139 0.846786 0.869499
0.920247 0.910944 1.01778 0.992562
0.528024 0.69919 0.862364 0.875724
0.564214 0.748012 0.832002 0.90659
0.791685 0.888532 0.916897 0.971761
0.737377 0.876226 0.881673 0.954477
0.914724 0.939304 0.977205 0.996547
0.618057 0.774443 0.883688 0.90311
0.808007 0.947382 0.890444 0.957819
0.779064 0.901826 0.889439 0.971257
0.988868 0.942773 1.04985 0.999091
0.984291 0.985289 1.00055 0.998438
0.982383 1.00023 0.984878 0.997238
1.00804 0.997559 1.01282 0.99772
0.991289 1.00451 0.990508 0.996298
0.988017 1.01102 0.981018 0.996156
1.01778 1.00697 1.01673 0.994108
1.00365 1.00927 0.999679 0.994748
1.03322 1.05856 0.980013 0.995967
1.00637 1.00947 1.00319 0.993761
1.04465 1.05912 0.991411 0.994881
1.0728 1.10088 0.978215 0.996197
1.06801 1.09417 0.979662 0.996356
1.085 1.09963 0.991219 0.99543
1.08291 1.10189 0.987149 0.995569
1.08763 1.0934 0.999786 0.994937
1.07625 1.0822 0.999712 0.994783
1.06263 1.07093 0.997574 0.994662
1.07424 1.07958 1 0.995055
1.0523 1.05759 1.00014 0.994857
1.03526 1.03954 1.00148 0.99441
1.05394 1.05583 1.00284 0.995376
1.04357 1.04821 1.00041 0.995168
1.01737 1.02219 1 0.995279
1.02207 1.01275 1.01237 0.996869
1.0334 1.02772 1.00962 0.995938
1.01589 1.01556 1.00469 0.995654
1.00776 1.00038 1.0084 0.998986
1.02483 1.00978 1.01753 0.99742
1.02534 1.01201 1.01647 0.996757
1 1 1 1
1.00844 1.00019 1.00905 0.999205
1.02699 1.00725 1.02179 0.997852
1 1 1 1
1.00871 1 1.00928 0.999437
1 1 1 1
1.01631 1.01187 1.00758 0.996829
1.01127 1.00472 1.00938 0.997168
1.02122 1.00405 1.01992 0.997241
1.01678 1 1.01864 0.998181
1.02412 1.00102 1.02575 0.997398
1.02974 1 1.03242 0.997398
1.00352 1 1.00381 0.999708
1.00886 1 1.01046 0.998408
1.01153 1 1.01393 0.997632
1 1 1 1
1.00092 1 1.00111 0.99982
1.00641 1 1.00776 0.998659
1 1 1 1
0.999902 1 1 0.999902
1 1 1 1
0.523969 0.704364 0.858073 0.866929
0.62727 0.820684 0.863276 0.885378
0.626605 0.817157 0.867521 0.88391
1.02124 1.0039 1.02039 0.996942
1.03468 1.01596 1.02199 0.99651
1.03665 1.00326 1.03649 0.996905
1.02751 1 1.03012 0.997473
1.00812 1.00908 1.00169 0.997366
1.0002 0.999015 1.00294 0.998246
1.02561 0.996676 1.03115 0.997945
1.02103 1.00426 1.0197 0.997058
1.02126 0.998792 1.02522 0.997346
0.971637 0.999648 0.973 0.998951
1.03468 0.998328 1.0383 0.998182
1.04746 0.998754 1.05041 0.998433
0.573723 0.751278 0.846572 0.902064
0.498081 0.672888 0.856774 0.863956
0.610923 0.827183 0.84921 0.8697
0.488923 0.691372 0.825394 0.856776
0.616242 0.762439 0.88499 0.913288
0.786963 0.853155 0.974009 0.947029
0.856473 0.884517 0.995705 0.972471
0.847912 0.892234 0.974407 0.975285
0.568543 0.738974 0.844504 0.91103
0.738944 0.84136 0.927386 0.94704
0.822696 0.901014 0.933587 0.978031
0.711435 0.884847 0.848131 0.947991
0.988513 1 0.989391 0.999113
0.984646 1.00085 0.9843 0.999498
1.04965 0.997444 1.05346 0.998939
0.928104 0.922824 1.01184 0.993958
0.990706 0.96588 1.02633 0.999384
0.963682 0.969815 0.997484 0.996183
0.9435 0.982255 0.965656 0.994707
0.65514 0.79163 0.906845 0.912597
0.533769 0.714348 0.853447 0.875522
0.636748 0.825942 0.866739 0.889467
0.923941 0.920033 1.01149 0.992841
0.795882 0.888616 0.921236 0.972218
0.529756 0.69888 0.86581 0.875488
0.709934 0.872932 0.858481 0.947342
0.577158 0.739641 0.851806 0.916081
0.91092 0.942649 0.971555 0.994633
0.633852 0.785391 0.887043 0.909825
0.774594 0.931816 0.876128 0.948803
0.783884 0.899924 0.893893 0.974452
0.910595 0.967143 0.945278 0.996036
0.856305 0.971788 0.920872 0.956881
0.837266 0.94948 0.900588 0.979155
0.969284 0.982257 0.988295 0.99848
0.977217 1.00027 0.979706 0.997193
0.966457 1.00912 0.960657 0.996945
0.993304 1.00412 0.992948 0.996249
0.98783 1.01031 0.981532 0.996141
1.00694 1.05997 0.953013 0.996808
1.00301 1.00904 0.999277 0.994741
1.02941 1.05621 0.978603 0.995934
1.04824 1.09873 0.957096 0.996819
1.04398 1.05866 0.991205 0.994884
1.07159 1.10077 0.977226 0.996183
1.05931 1.09513 0.970354 0.996843
1.06926 1.09542 0.979315 0.996731
1.06755 1.09439 0.978967 0.996432
1.07213 1.09229 0.985282 0.996204
1.08843 1.09925 0.994634 0.995504
1.08648 1.09999 0.992219 0.995468
1.08577 1.10439 0.987471 0.995621
1.09319 1.0987 0.999867 0.995121
1.08873 1.09461 0.999659 0.994961
1.07455 1.08057 0.999558 0.99487
1.0758 1.081 1 0.995197
1.07683 1.08218 1 0.995054
1.05229 1.05754 1.00017 0.994871
1.02572 1.02576 1.00369 0.996289
1.05496 1.0574 1.00232 0.995389
1.04136 1.04585 1.00055 0.995162
1.00671 1.00065 1.00749 0.998574
1.02523 1.01619 1.01207 0.996859
1.03863 1.03258 1.00997 0.995929
1 1 1 1
1.00768 1.00012 1.00861 0.998964
1.02635 1.01273 1.01608 0.997408
0.999883 1 1 0.999883
1.00878 1 1.00957 0.999212
1 1 1 1
1.02827 1.02054 1.0112 0.996411
1.01406 1.00636 1.01085 0.996837
1.01377 1.00695 1.00976 0.997044
1.0106 1.00567 1.00782 0.997104
1.01895 1.00253 1.01919 0.997249
1.02225 1 1.02435 0.997942
1.006 1 1.00645 0.999549
1.01574 1 1.01759 0.998178
1.02261 1.00019 1.02508 0.997396
1 1 1 1
1.00228 1 1.00256 0.999725
1.00882 1 1.01043 0.998415
1 1 1 1
1.00019 1 1.00036 0.999837
1 1 1 1
0.619104 0.778062 0.87464 0.909745
0.526705 0.706601 0.857095 0.869691
0.62877 0.824188 0.861515 0.885529
1.02494 1.00222 1.02582 0.996923
1.04377 1.0021 1.04513 0.996609
1.02899 1.01421 1.01811 0.996523
1.02204 1.02407 1.00242 0.995606
1.03363 1.0056 1.03079 0.99717
1.0214 0.999899 1.02372 0.997832
1.02145 1.00372 1.02045 0.997277
1.02143 1.00077 1.02322 0.997474
0.997508 1.00991 0.990709 0.996979
0.963855 1.00228 0.963204 0.998398
0.969513 1.00125 0.970651 0.997583
0.978817 1.00123 0.978617 0.998974
1.04137 0.997633 1.04551 0.998402
0.783524 0.934629 0.878291 0.954497
0.571393 0.750069 0.841618 0.905145
0.483741 0.657084 0.849102 0.867028
0.559703 0.745059 0.832069 0.902834
0.743595 0.842433 0.928674 0.950469
0.857694 0.893129 0.981173 0.978752
0.818844 0.895585 0.932496 0.9805
0.741491 0.87851 0.882678 0.956217
0.833214 0.948372 0.89716 0.979282
0.982004 1.00025 0.983469 0.998257
0.991738 0.999408 0.993235 0.999084
0.985144 1.00037 0.985333 0.999434
0.969045 0.975669 0.996972 0.996228
0.953348 0.985894 0.971184 0.99568
0.852183 0.963093 0.929858 0.951585
0.64512 0.787543 0.895688 0.914554
0.526247 0.712692 0.844073 0.874798
0.914107 0.95217 0.96721 0.992572
0.786566 0.910459 0.889182 0.971593
0.6215 0.77972 0.877299 0.908562
0.783871 0.928949 0.881821 0.956913
0.920486 0.969499 0.95311 0.996154
0.859044 0.977101 0.919206 0.956452
0.834024 0.946287 0.903318 0.975697
0.913277 0.997805 0.919493 0.995425
0.884547 0.984674 0.911452 0.985586
0.97521 1.00206 0.975963 0.997179
0.959716 1.00908 0.954036 0.996905
0.965457 1.04639 0.925223 0.997225
0.987439 1.0096 0.981856 0.996124
1.0112 1.06218 0.955097 0.996769
1.03683 1.10197 0.943584 0.997145
1.02564 1.05373 0.977351 0.995901
1.04868 1.09805 0.958118 0.996788
1.05016 1.09891 0.958464 0.997054
1.06992 1.10016 0.976252 0.996169
1.05895 1.09446 0.970644 0.99682
1.06449 1.10052 0.970257 0.99691
1.06677 1.09392 0.978322 0.996787
1.07097 1.09566 0.980864 0.996539
1.06682 1.09426 0.978337 0.996509
1.07107 1.0921 0.984482 0.996197
1.07476 1.08968 0.990319 0.995958
1.09067 1.098 0.997885 0.995433
1.08991 1.09975 0.995535 0.995491
1.08784 1.10019 0.993233 0.995507
1.08681 1.09209 1 0.995158
1.0958 1.10135 0.999859 0.995106
1.0895 1.09549 0.999537 0.994985
1.0415 1.04332 1.00239 0.995879
1.07438 1.07956 1 0.995207
1.07977 1.08514 1 0.995052
1.00516 1.00266 1.00439 0.998111
1.02724 1.02714 1.00381 0.996298
1.05607 1.05848 1.00233 0.995403
1 1 1 1
1.00633 1.00104 1.00676 0.998542
1.02666 1.01942 1.01028 0.996851
1 1 1 1
1.00706 1.00018 1.00794 0.998941
1 1 1 1
1.03522 1.03893 1.00086 0.99557
1.02651 1.02322 1.00684 0.996407
1.02101 1.01064 1.01377 0.996545
1.01247 1.00136 1.0143 0.996846
1.01547 1.00461 1.01387 0.996981
1.02202 1.00546 1.01896 0.997565
1.02067 1.00159 1.02186 0.997255
1.02402 1.00038 1.02576 0.997932
1.01108 1.00026 1.01153 0.999298
1 1 1 1
1.00569 1 1.00613 0.999563
1.01706 1 1.01891 0.998176
1 1 1 1
1.00249 1 1.00276 0.999736
1 1 1 1
0.851294 0.968861 0.916131 0.959093
0.636935 0.789282 0.886071 0.91074
0.519559 0.704621 0.851407 0.866048
1.05435 1.00153 1.05664 0.996311
1.02258 1.01321 1.01276 0.996537
1.03005 1.00747 1.02553 0.996963
1.02087 1.02299 1.00224 0.995694
1.04567 1.05028 1.00016 0.995448
1.00526 1.01647 0.992314 0.99663
1.02514 1.004 1.02351 0.997597
0.998607 1.01118 0.990809 0.996728
0.97157 1.00268 0.970547 0.998375
1.00221 1.00963 0.995691 0.996951
0.973432 1.00425 0.971794 0.997451
0.986189 1.00174 0.987391 0.99705
0.968281 1.00157 0.969003 0.997692
0.986033 1.00068 0.986351 0.998999
0.841256 0.959155 0.895742 0.979167
0.783858 0.940614 0.87439 0.95306
0.587625 0.748692 0.857895 0.914878
0.710733 0.867115 0.865407 0.947129
0.831628 0.897885 0.94343 0.981746
0.841512 0.93697 0.9122 0.984565
0.941341 1.00305 0.942408 0.995827
0.978145 0.999821 0.980141 0.998142
0.994966 0.998692 0.997209 0.999058
0.962139 0.989272 0.975855 0.996636
0.873819 0.972695 0.916808 0.979865
0.856779 0.968323 0.921317 0.960372
0.634643 0.78004 0.898537 0.905475
0.91844 0.964641 0.955633 0.996309
0.831795 0.945261 0.900119 0.977607
0.850709 0.979731 0.908532 0.955727
0.914492 0.996117 0.922105 0.99561
0.890068 0.98256 0.920196 0.984428
0.935886 1.02613 0.915587 0.996143
0.940508 1.0275 0.920657 0.99422
0.952652 1.0091 0.947033 0.996858
0.962281 1.04303 0.925143 0.997233
1.00572 1.09521 0.920944 0.997119
1.0158 1.0649 0.957023 0.99673
1.03655 1.10166 0.943616 0.997119
1.05922 1.10985 0.95725 0.997004
1.04918 1.09763 0.958968 0.996758
1.05145 1.0988 0.959753 0.997035
1.07105 1.10981 0.968105 0.996865
1.05874 1.09405 0.970833 0.996798
1.06332 1.09848 0.970994 0.996905
1.07224 1.10174 0.976503 0.996642
1.06439 1.09262 0.977242 0.996843
1.07048 1.0955 0.980508 0.996584
1.07516 1.09371 0.986773 0.996216
1.07007 1.09198 0.983685 0.996189
1.07492 1.09019 0.989999 0.995949
1.08389 1.0936 0.995363 0.995732
1.08651 1.09186 0.99979 0.995302
1.09212 1.09887 0.99846 0.995389
1.09135 1.10019 0.996474 0.995479
1.05699 1.06152 1 0.995724
1.08509 1.09036 1 0.995166
1.0985 1.10407 0.999857 0.995091
1.00891 1.00895 1.00216 0.997808
1.04067 1.04215 1.00271 0.99588
1.07151 1.07657 1.00008 0.995216
1 1 1 1
1.00612 1.0044 1.00364 0.998082
1.0287 1.02824 1.00416 0.996306
1 1 1 1
1.00633 1.00141 1.00641 0.998512
1 1 1 1
1.06235 1.06736 1 0.995311
1.03491 1.03899 1.00049 0.995584
1.04239 1.04177 1.00477 0.995843
1.02537 1.02537 1.00361 0.996403
1.02558 1.01748 1.01154 0.996459
1.02615 1.01756 1.01142 0.997065
1.01557 1.00117 1.01752 0.996921
1.01912 1.00343 1.01812 0.997571
1.00906 1.00049 1.00959 0.998986
1.02129 1.00033 1.02308 0.997924
1.00842 1 1.00912 0.99931
1 1 1 1
1 1 1 1
1.00401 1 1.00443 0.999579
1 1 1 1
0.869011 0.959943 0.922952 0.980845
0.844287 0.964716 0.920509 0.950742
0.646028 0.780869 0.902569 0.916628
1.07577 1.08199 0.998753 0.995492
1.02607 1.00946 1.01976 0.996761
1.0208 1.02299 1.00208 0.995781
1.00787 1.01915 0.992266 0.99664
1.04748 1.05195 1.00032 0.995435
1.03408 1.03912 0.998589 0.996558
1.00076 1.012 0.992396 0.996479
0.977938 1.00217 0.977434 0.998351
1.00028 1.0112 0.992215 0.996967
0.965063 1.00342 0.964395 0.997284
1.02258 1.02763 0.998863 0.996221
0.960073 1.00854 0.954626 0.997188
0.986318 1.00229 0.986961 0.997066
0.9684 1.00188 0.968715 0.9978
0.926438 1.00469 0.925332 0.996522
0.827288 0.950276 0.890834 0.977261
0.790705 0.948502 0.875777 0.951881
0.837818 0.930529 0.916872 0.981998
0.942883 1.00268 0.942999 0.997199
0.97463 0.999948 0.97662 0.998014
0.949624 1.01756 0.94054 0.992239
0.876016 0.960532 0.929674 0.981001
0.853081 0.96863 0.92532 0.951788
0.921524 0.99568 0.929441 0.995783
0.896815 0.985328 0.925737 0.983182
0.937675 1.02793 0.9155 0.996396
0.949034 1.02785 0.92827 0.994671
0.991342 1.06333 0.935269 0.996826
1.0533 1.12815 0.936661 0.996786
0.958647 1.03893 0.925276 0.997241
1.01268 1.09693 0.925878 0.9971
1.05792 1.12571 0.942749 0.996858
1.03649 1.10104 0.94412 0.997093
1.05599 1.10756 0.956308 0.997002
1.07384 1.11994 0.961963 0.99675
1.05271 1.0985 0.961186 0.997016
1.06847 1.10779 0.967527 0.996878
1.07633 1.10657 0.975996 0.996596
1.06219 1.09638 0.971826 0.9969
1.07288 1.1023 0.976601 0.996639
1.07571 1.09785 0.983436 0.996344
1.06995 1.09528 0.980179 0.99663
1.0747 1.09385 0.986181 0.996261
1.08303 1.09588 0.992307 0.995936
1.07504 1.09073 0.989629 0.995939
1.08352 1.09345 0.995161 0.995737
1.08764 1.09261 0.999992 0.995464
1.06331 1.06787 1 0.995735
1.08635 1.09161 0.999892 0.995281
1.09368 1.09987 0.999023 0.995345
1.01762 1.01969 1.00025 0.99772
1.05532 1.05981 1.00003 0.995724
1.08407 1.08933 1 0.995173
0.999999 1 1 0.999999
1.01158 1.01257 1.00124 0.99779
1.04062 1.04242 1.0024 0.995882
0.999999 1 1 0.999999
1.00711 1.00658 1.00248 0.998053
1 1 1 1
1.08076 1.08613 0.999803 0.995251
1.05955 1.06455 1 0.995303
1.07188 1.07677 1 0.995464
1.03345 1.03775 1.00026 0.995598
1.04748 1.04669 1.00497 0.995804
1.03783 1.03431 1.00682 0.996602
1.02934 1.02358 1.00928 0.996374
1.02146 1.01159 1.01272 0.997072
1.00662 1.00103 1.00691 0.998679
1.01979 1.00131 1.02094 0.99757
1.01008 1.0008 1.01028 0.999004
1 1 1 1
1.00761 1 1.00829 0.999322
1 1 1 1
1 1 1 1
0.928315 1.00965 0.92325 0.995875
0.85834 0.960236 0.915139 0.976775
0.844429 0.966562 0.91059 0.959424
1.07069 1.0787 0.996449 0.996117
1.07667 1.09324 0.988992 0.995811
1.07482 1.08163 0.998102 0.995595
1.00979 1.0214 0.99195 0.996648
1.04904 1.0533 1.00054 0.99542
1.03671 1.04258 0.99781 0.99655
1.05542 1.08021 0.980837 0.996132
0.999472 1.01306 0.989573 0.996983
0.959526 1.00309 0.959338 0.997118
1.02675 1.03183 0.998677 0.996389
1.02198 1.06787 0.960689 0.996186
0.974455 1.03258 0.946294 0.997269
0.973618 1.01215 0.964725 0.997105
0.991253 1.00275 0.991428 0.997081
0.922474 1.00491 0.920811 0.99691
0.837993 0.954474 0.900085 0.975423
0.942865 1.00121 0.943028 0.998623
1.0352 1.09164 0.950947 0.997213
0.944981 1.01715 0.936152 0.992411
0.875463 0.963977 0.928109 0.978525
0.939459 1.0302 0.915006 0.996628
0.95526 1.02824 0.933555 0.99515
0.984594 1.06342 0.928612 0.997048
1.0496 1.12579 0.93529 0.996829
1.0633 1.14224 0.933849 0.996834
1.10811 1.17109 0.949053 0.997021
1.01947 1.09988 0.929604 0.997081
1.06307 1.12914 0.944458 0.996859
1.07642 1.13064 0.955204 0.99669
1.05232 1.10533 0.954914 0.996999
1.07396 1.11961 0.962355 0.996752
1.07419 1.1116 0.969668 0.996575
1.06582 1.10577 0.966875 0.996892
1.07733 1.10748 0.976099 0.996593
1.07802 1.10104 0.982664 0.996362
1.07354 1.10287 0.976692 0.996636
1.07636 1.09845 0.98349 0.996341
1.08168 1.09661 0.99032 0.996026
1.07423 1.09398 0.985591 0.996306
1.08264 1.09578 0.992028 0.995944
1.09109 1.09657 0.999427 0.995575
1.0831 1.09321 0.994991 0.995742
1.08719 1.09237 0.999773 0.99548
1.06318 1.0677 1 0.995773
1.02278 1.02508 1 0.997755
1.0631 1.06765 1 0.995738
1.08635 1.09153 1 0.995259
0.999996 1 1 0.999996
1.01892 1.02089 1.00036 0.997713
1.05315 1.05719 1.00045 0.995724
0.999996 1 1 0.999996
1.01391 1.01506 1.0011 0.997771
0.999997 1 1 0.999997
1.082 1.09137 0.995903 0.995498
1.07916 1.0847 0.999613 0.99528
1.08046 1.08552 1 0.995336
1.05698 1.06198 1 0.995295
1.07157 1.07646 1 0.995459
1.0385 1.04002 1.00233 0.996214
1.05434 1.05368 1.00488 0.995764
1.03321 1.02896 1.00756 0.996602
1.00514 1.00275 1.00409 0.998308
1.01691 1.00761 1.01218 0.997082
1.00684 1.00092 1.00723 0.998702
1 1 1 1
1.00867 1.00015 1.00952 0.999021
1 1 1 1
1 1 1 1
0.979824 1.0606 0.926099 0.99756
0.930063 1.00795 0.927917 0.994407
0.861877 0.96502 0.91331 0.977892
1.06888 1.09232 0.98242 0.996054
1.06844 1.07701 0.995686 0.99634
1.08157 1.10368 0.983897 0.996008
1.07638 1.09396 0.988085 0.995789
1.07336 1.08085 0.997368 0.995697
1.07472 1.1158 0.967083 0.995971
1.03962 1.0463 0.997069 0.99654
1.05263 1.07635 0.98182 0.996071
1.04858 1.11458 0.944267 0.996315
1.02488 1.03596 0.992717 0.996558
1.0217 1.06962 0.958959 0.996074
0.96623 1.03904 0.932424 0.99732
0.982211 1.01458 0.970995 0.997019
0.919159 1.00521 0.916931 0.997229
1.09376 1.15726 0.947907 0.997069
1.03997 1.09751 0.95019 0.997244
0.947131 1.01625 0.938935 0.992597
0.977949 1.06259 0.922865 0.997265
1.04637 1.12318 0.934532 0.996874
1.05475 1.13678 0.930768 0.996852
1.11752 1.17905 0.950637 0.997026
1.09204 1.14757 0.954564 0.996904
1.06808 1.13197 0.946537 0.996861
1.07682 1.12937 0.956627 0.9967
1.07464 1.11581 0.966355 0.996639
1.07421 1.11924 0.962894 0.996755
1.07492 1.11167 0.970281 0.996555
1.07732 1.10268 0.980564 0.996365
1.07836 1.10842 0.976208 0.996589
1.07833 1.10133 0.982694 0.996357
1.08074 1.09642 0.989567 0.996091
1.07703 1.09908 0.983544 0.996338
1.08258 1.09745 0.990387 0.996025
1.0946 1.10089 0.998601 0.995674
1.08224 1.0957 0.991723 0.995952
1.09035 1.09596 0.999301 0.995581
1.06386 1.06837 1 0.995786
1.08652 1.09193 0.999548 0.995495
1.06413 1.06864 1 0.995776
1.02309 1.02491 1 0.998222
0.999199 1 1 0.999199
1.02288 1.02498 1 0.997948
1.06243 1.06698 1 0.99574
0.999999 1 1 0.999999
1.02044 1.02279 1 0.997706
0.999999 1 1 0.999999
1.08776 1.10555 0.987716 0.996142
1.08216 1.09696 0.990651 0.995815
1.08143 1.09178 0.994959 0.995534
1.07834 1.08345 0.999887 0.99539
1.07806 1.08372 0.999461 0.995309
1.07867 1.08374 1 0.995324
1.04268 1.04627 1.00064 0.995935
1.07168 1.07657 1 0.995454
1.04144 1.04332 1.002 0.996211
1.00929 1.01028 1.00109 0.997924
1.02832 1.02258 1.00904 0.996602
1.00584 1.00249 1.00503 0.99833
0.999998 1 1 0.999998
1.00836 1.00143 1.0082 0.998726
1 1 1 1
1 1 1 1
1.08011 1.14496 0.946396 0.996795
0.994524 1.07286 0.929286 0.997523
0.927973 1.00762 0.927478 0.992966
1.07627 1.1057 0.97725 0.996046
1.06549 1.08865 0.982559 0.996095
1.06648 1.07551 0.995023 0.996562
1.08087 1.10134 0.985332 0.996024
1.07611 1.09459 0.987297 0.995766
1.08043 1.13134 0.958548 0.996295
1.06699 1.10924 0.965849 0.995926
1.0499 1.0726 0.98276 0.996009
1.04171 1.10741 0.944149 0.996318
1.02755 1.07322 0.961326 0.995962
0.960031 1.04927 0.917359 0.99738
1.08738 1.13511 0.960812 0.997015
1.09478 1.15777 0.948342 0.997108
1.04456 1.10426 0.948518 0.997276
1.04633 1.13219 0.927068 0.996866
1.12645 1.18749 0.95142 0.997031
1.09447 1.15031 0.954415 0.996907
1.08303 1.11708 0.972651 0.996778
1.0772 1.12802 0.9581 0.99671
1.07554 1.11566 0.967301 0.99662
1.07864 1.10386 0.980661 0.996426
1.07565 1.11175 0.970893 0.996536
1.07787 1.1032 0.980612 0.996364
1.07996 1.09636 0.988864 0.99613
1.07867 1.10164 0.982726 0.996353
1.08147 1.09711 0.989611 0.996088
1.09517 1.10275 0.997372 0.995743
1.08345 1.09826 0.990454 0.996023
1.09304 1.09943 0.99851 0.995677
1.06525 1.06978 1 0.995765
1.08963 1.09536 0.999175 0.995587
1.065 1.06951 1 0.99579
1.02152 1.02331 1 0.998257
1.06549 1.07001 1 0.995779
1.02262 1.02445 1 0.998215
0.999238 1 1 0.999238
0.999621 1 1 0.999621
1.0232 1.02509 1 0.998162
1 1 1 1
1.07809 1.10132 0.98269 0.996158
1.08464 1.09767 0.99215 0.995946
1.08606 1.10376 0.987642 0.996275
1.08558 1.09102 0.999484 0.99553
1.08402 1.09832 0.991133 0.995813
1.08081 1.09218 0.993992 0.99557
1.07839 1.08341 0.999985 0.995379
1.058 1.06243 1 0.995832
1.07657 1.08164 1 0.995313
1.0473 1.05121 1.00035 0.995935
1.01916 1.02135 1.0001 0.997762
1.04232 1.0448 1.00142 0.996208
1.00706 1.00703 1.00209 0.99795
0.999998 1 1 0.999998
1.00567 1.00163 1.00569 0.998353
1 1 1 1
1 1 1 1
1.08086 1.12855 0.960944 0.996668
1.06994 1.13346 0.946986 0.9968
1.00784 1.08206 0.933761 0.997482
1.0783 1.11253 0.972895 0.996233
1.07302 1.1032 0.976518 0.996039
1.06178 1.08478 0.982594 0.996137
1.07993 1.09888 0.986664 0.99604
1.08144 1.13073 0.959985 0.996267
1.05897 1.1021 0.964842 0.995881
1.03154 1.09558 0.94502 0.996321
1.08678 1.12021 0.973224 0.996844
1.08609 1.13288 0.96161 0.99697
1.09557 1.15732 0.949352 0.997145
1.08161 1.10836 0.979112 0.996689
1.0968 1.15283 0.954346 0.996909
1.08263 1.11682 0.972532 0.996763
1.08117 1.1047 0.982088 0.996549
1.0764 1.1155 0.968238 0.996601
1.07904 1.10427 0.98065 0.996429
1.07971 1.0959 0.989017 0.996168
1.07838 1.10366 0.980661 0.996363
1.08016 1.0966 0.988837 0.99613
1.09479 1.10346 0.996334 0.995795
1.08221 1.09781 0.989656 0.996086
1.09411 1.10165 0.997405 0.995745
1.06545 1.07001 1 0.995739
1.09146 1.09792 0.998425 0.995681
1.06692 1.07145 1 0.995769
1.02012 1.02191 1 0.998244
1.06618 1.07068 1 0.995794
1.02108 1.02288 1 0.998241
0.999242 1 1 0.999242
1.02199 1.02382 1 0.998212
0.99926 1 1 0.99926
1 1 1 1
1.07774 1.10006 0.983571 0.996073
1.07935 1.09557 0.989172 0.995978
1.08039 1.10263 0.983611 0.996157
1.09105 1.09734 0.998615 0.995644
1.08383 1.09902 0.99014 0.996001
1.08467 1.10221 0.987635 0.996407
1.06907 1.07356 1 0.995817
1.08703 1.09236 0.999603 0.99552
1.08643 1.10023 0.991616 0.995811
1.07845 1.08347 1 0.995369
1.05894 1.06337 1 0.995829
1.02555 1.02784 1 0.997774
1.05281 1.0571 1 0.995934
1.01598 1.01794 1.0003 0.997777
1 1 1 1
1.0061 1.00512 1.00302 0.997972
0.999997 1 1 0.999997
1 1 1 1
1.0807 1.11275 0.974539 0.996564
1.08193 1.13079 0.960022 0.996641
1.06199 1.12552 0.946576 0.996805
1.07777 1.11168 0.973144 0.996251
1.06973 1.10076 0.975688 0.996032
1.08327 1.13126 0.961192 0.996239
1.08438 1.10991 0.980254 0.996687
1.087 1.12006 0.973559 0.99684
1.08505 1.13096 0.962368 0.996926
1.08208 1.10842 0.979458 0.996711
1.07963 1.09999 0.984914 0.996519
1.08221 1.11654 0.972413 0.996748
1.0816 1.10447 0.982723 0.996512
1.0782 1.09465 0.988665 0.996264
1.07944 1.10469 0.980639 0.996432
1.07957 1.09577 0.989003 0.99617
1.0944 1.10389 0.995556 0.995825
1.08045 1.09693 0.988805 0.996129
1.09415 1.10293 0.996231 0.995796
1.06381 1.06836 1 0.99574
1.09304 1.10055 0.997426 0.995747
1.06727 1.07183 1 0.995743
1.01736 1.01919 1 0.998206
1.06862 1.07316 1 0.995774
1.0193 1.02111 1 0.998221
0.99922 1 1 0.99922
1.02062 1.02243 1 0.998229
0.999278 1 1 0.999278
0.999274 1 1 0.999274
1.07894 1.10138 0.983209 0.996356
1.08089 1.09481 0.991301 0.995945
1.07707 1.10112 0.981991 0.996097
1.09144 1.10036 0.99614 0.995733
1.0802 1.09514 0.990356 0.995962
1.08264 1.10391 0.984518 0.996157
1.06843 1.07292 1 0.995812
1.0909 1.09805 0.997805 0.995673
1.08273 1.10011 0.9881 0.996057
1.02413 1.02636 1 0.997825
1.06667 1.07116 1 0.995815
1.08792 1.09304 0.999804 0.99551
1.05976 1.0642 1 0.995827
1.02446 1.02673 1 0.997781
1 1 1 1
1.01228 1.01389 1.00062 0.997792
0.999998 1 1 0.999998
1 1 1 1
1.08031 1.10422 0.981703 0.996576
1.08064 1.11278 0.974479 0.99655
1.08236 1.13227 0.95917 0.996615
1.07759 1.11098 0.973579 0.996268
1.08003 1.09703 0.987978 0.996478
1.08452 1.11027 0.980038 0.996699
1.08735 1.11994 0.973977 0.996836
1.08256 1.10848 0.979818 0.996733
1.07959 1.10036 0.984542 0.996529
1.0787 1.09326 0.990392 0.996256
1.08208 1.10426 0.983376 0.996476
1.07929 1.09486 0.989525 0.996215
1.09289 1.1031 0.994818 0.995903
1.07944 1.09565 0.98899 0.996173
1.09376 1.10318 0.995623 0.995827
1.06146 1.066 1 0.995745
1.09335 1.10221 0.996151 0.995797
1.06532 1.06988 1 0.995741
1.01304 1.01528 1 0.997789
1.069 1.07356 1 0.995747
1.01598 1.01801 1 0.998001
1 1 1 1
1.01848 1.02032 1 0.9982
0.999262 1 1 0.999262
0.999304 1 1 0.999304
1.07912 1.09749 0.986744 0.996467
1.07841 1.0934 0.990152 0.996095
1.07962 1.10079 0.984367 0.996351
1.0919 1.09955 0.997273 0.995753
1.07989 1.09415 0.990986 0.995945
1.07641 1.10217 0.980423 0.996121
1.06679 1.07133 0.999961 0.995796
1.09202 1.10028 0.996751 0.995734
1.08113 1.09473 0.991594 0.995947
1.02001 1.0222 1 0.997864
1.06646 1.07095 1 0.995812
1.0907 1.09872 0.996989 0.995702
1 1 1 1
1.0252 1.02743 1 0.997832
1.06448 1.06896 1 0.995811
1.02345 1.02572 1 0.997789
1 1 1 1
0.999996 1 1 0.999996
1.07886 1.09469 0.989026 0.996477
1.08153 1.10493 0.982176 0.996582
1.08044 1.1127 0.974383 0.996536
1.07867 1.09119 0.992294 0.996202
1.07901 1.09668 0.987358 0.996487
1.08465 1.11065 0.979816 0.99671
1.07951 1.10072 0.984136 0.996539
1.07863 1.09334 0.990246 0.996257
1.09315 1.10183 0.996225 0.995879
1.08029 1.09499 0.990376 0.996165
1.09341 1.10286 0.995563 0.995849
1.05883 1.06393 0.999417 0.995792
1.09325 1.1026 0.995671 0.995828
1.06267 1.06721 1 0.995746
1.00914 1.01137 1 0.997796
1.06703 1.07159 1 0.995742
1.01185 1.0141 1 0.997788
1 1 1 1
1.01463 1.01691 1 0.997759
0.999602 1 1 0.999602
0.999299 1 1 0.999299
1.07511 1.09083 0.989109 0.996441
1.07794 1.0904 0.992358 0.996193
1.07848 1.09666 0.986899 0.996476
1.09101 1.09847 0.997437 0.995761
1.07891 1.09356 0.990483 0.996084
1.08023 1.10012 0.985517 0.996345
1.0644 1.06921 0.999742 0.995755
1.09229 1.09956 0.997658 0.995717
1.0788 1.09345 0.990619 0.995946
1.01614 1.01833 1 0.997852
1.06574 1.07035 0.999909 0.99579
1.09254 1.10019 0.997303 0.995734
1 1 1 1
1.02133 1.02351 1 0.997871
1.06476 1.06924 1 0.995812
1 1 1 1
1.02625 1.02847 1 0.997839
0.999999 1 1 0.999999
1.07905 1.09072 0.993042 0.996235
1.07792 1.0939 0.988887 0.996465
1.08275 1.10563 0.98266 0.996587
1.09323 1.10157 0.996546 0.995872
1.07817 1.09121 0.991798 0.99622
1.07801 1.09634 0.98674 0.996496
1.07857 1.09343 0.990121 0.996257
1.09244 1.10135 0.996019 0.995879
1.05624 1.06122 0.999497 0.995805
1.09391 1.10262 0.996288 0.995794
1.05981 1.06463 0.9997 0.995766
1.00613 1.00836 1 0.997794
1.06367 1.06822 1 0.995746
1.00813 1.01036 1 0.997795
1 1 1 1
1.01058 1.01282 1 0.997787
1 1 1 1
0.999277 1 1 0.999277
1.07788 1.08929 0.993292 0.99621
1.07366 1.09041 0.988137 0.996453
1.09103 1.09854 0.997325 0.995829
1.07853 1.0909 0.992436 0.996193
1.07782 1.09584 0.98703 0.996485
1.06221 1.06677 1 0.995718
1.09166 1.09914 0.997425 0.995758
1.07952 1.09384 0.990801 0.996073
1.01262 1.01484 1 0.99781
1.06379 1.06846 0.999892 0.995733
1.09284 1.09963 0.99814 0.99568
1 1 1 1
1.01727 1.01946 1 0.997857
1.06474 1.06939 0.999871 0.995783
1 1 1 1
1.02255 1.02472 1 0.997877
1 1 1 1
1.09242 1.10008 0.997138 0.995884
1.0791 1.0906 0.993207 0.996226
1.07695 1.09308 0.988754 0.996453
1.05495 1.0599 0.999516 0.995818
1.09257 1.10098 0.996476 0.995872
1.07763 1.09119 0.99131 0.996237
1.09174 1.10086 0.995816 0.995879
1.05685 1.06193 0.999412 0.995801
1.00452 1.00673 1 0.997807
1.06088 1.06542 1 0.995739
1.00563 1.00786 1 0.997793
1 1 1 1
1.00719 1.00942 1 0.997795
1 1 1 1
1 1 1 1
1.09202 1.09906 0.997711 0.99587
1.07756 1.08945 0.992799 0.996256
1.07233 1.0901 0.987181 0.996464
1.05928 1.0638 1 0.995752
1.09138 1.09888 0.997335 0.995826
1.07912 1.0914 0.99253 0.996192
1.00922 1.01146 1 0.997789
1.06105 1.06561 1 0.995716
1.09224 1.09974 0.997417 0.995754
1 1 1 1
1.01362 1.01584 1 0.997813
1.06303 1.06761 1 0.995711
1 1 1 1
1.01837 1.02055 1 0.997862
1 1 1 1
1.05572 1.0602 1 0.995776
1.09182 1.09983 0.9968 0.995903
1.07917 1.09051 0.993358 0.996218
1.0035 1.00566 1 0.997852
1.05547 1.06048 0.999461 0.995816
1.0919 1.1004 0.996386 0.995872
1.05742 1.0626 0.999325 0.995798
1.00418 1.00639 1 0.997808
1 1 1 1
1.00512 1.00735 1 0.997791
1 1 1 1
1 1 1 1
1.05686 1.06134 1 0.995776
1.09161 1.09895 0.997417 0.9959
1.07713 1.08952 0.992298 0.996302
1.00687 1.00867 1 0.998216
1.0584 1.06292 1 0.995751
1.09159 1.09909 0.997343 0.995823
1 1 1 1
1.01018 1.01241 1 0.997791
1.0599 1.06446 1 0.995714
1 1 1 1
1.01468 1.0169 1 0.997817
1 1 1 1
1.00329 1.00548 1 0.99782
1.055 1.05973 0.999737 0.995799
1.09123 1.09955 0.996492 0.995922
1 1 1 1
1.00339 1.00555 1 0.997849
1.05603 1.06109 0.999412 0.995814
1.00388 1.00609 1 0.997807
1 1 1 1
1 1 1 1
1.00491 1.00671 1 0.998205
1.05641 1.06089 1 0.995778
1.09136 1.09898 0.997129 0.995931
1 1 1 1
1.00725 1.00946 1 0.997809
1.05774 1.06226 1 0.995751
1 1 1 1
1.01114 1.01338 1 0.997792
1 1 1 1
0.999311 1 1 0.999311
1.00384 1.00581 1 0.998041
1.0543 1.05931 0.999452 0.995823
1 1 1 1
1.00323 1.0054 1 0.99785
1 1 1 1
0.999312 1 1 0.999312
1.00526 1.00724 1 0.998026
1.05579 1.06027 1 0.995779
0.999645 1 1 0.999645
1.00795 1.01016 1 0.997814
1 1 1 1
1 1 1 1
1.00397 1.00611 1 0.997868
1 1 1 1
0.999658 1 1 0.999658
1.00566 1.00783 1 0.997854
1 1 1 1
1 1 1 1
1 1 1 1

VECTORS lamdaE float
1.00344 0.999822 0.991602
1.00312 1.00058 0.995652
1.00281 1.00001 0.992091
1.0027 1.00018 0.99217
1.00323 0.999954 0.991733
1.00365 0.999733 0.991441
1.00376 1.00101 0.989045
1.00323 1.00067 0.995555
1.00228 1.00006 0.996533
1.0022 1.00061 0.996478
1.00276 1.00148 0.990866
1.00388 1.00209 0.986231
1.00202 0.999937 0.99314
1.0016 1.00015 0.993409
1.00221 1.00021 0.992552
1.00223 1.00019 0.992646
1.00293 1.00007 0.991891
1.00269 1.00003 0.992221
1.00406 1.00093 0.988749
1.00208 1 0.996304
1.00249 1.00018 0.992394
1.00297 1.00008 0.991943
1.00352 1.00022 0.990232
1.00375 1.00067 0.989461
1.0039 0.999798 0.991119
1.00381 1.00151 0.988419
1.0053 1.00148 0.985249
1.00337 1.00074 0.995442
1.00261 0.99997 0.994311
1.00269 1.00032 0.994142
1.00317 1.00133 0.99536
1.0039 1.00213 0.986177
1.00261 0.999928 0.992292
1.00296 0.999876 0.991923
1.00416 1.00066 0.989333
1.00128 1.00277 0.996294
1.00419 1.00142 0.988713
1.00406 1.00272 0.985225
1.00547 1.00294 0.98298
1.00166 1.00148 0.996202
1.00205 0.999985 0.99631
1.00193 1.00009 0.994799
1.00198 0.999951 0.99638
1.00144 1.0001 0.993626
1.00352 0.999772 0.989471
1.00186 1.00005 0.996705
1.00385 1.00019 0.990319
1.00179 1.00016 0.99312
1.00217 1.00008 0.992694
1.00228 1.00037 0.992327
1.00434 1.00083 0.988469
1.00184 1.00001 0.994926
1.00202 1.00023 0.992875
1.00314 1.00031 0.991526
1.00248 1.0001 0.992419
1.00376 1.00018 0.989949
1.00415 1.00135 0.988138
1.00401 1.00061 0.989172
1.00531 1.00138 0.985428
1.00197 0.999978 0.996362
1.00233 1.00008 0.992688
1.00323 0.999822 0.99135
1.00338 1.00003 0.990637
1.00367 1.00041 0.989824
1.00541 0.999128 0.98766
1.0053 0.999846 0.98695
1.00378 1.0003 0.990794
1.00391 1.00246 0.987453
1.00533 1.00266 0.983956
1.00534 0.997297 0.988633
1.00311 0.999887 0.9958
1.00302 1.00138 0.995493
1.00325 1.00021 0.995704
1.00391 1.00217 0.98612
1.00271 0.99995 0.995931
1.00312 0.999936 0.995788
1.00397 1.00072 0.987622
1.00177 1.00231 0.993719
1.00394 1.00139 0.986949
1.00408 1.00288 0.986353
1.00544 1.00292 0.982954
1.00213 1.00191 0.995749
1.00249 1.00352 0.98747
1.00398 1.00046 0.988021
1.00418 1.00082 0.987255
1.00535 0.999667 0.986609
1.00374 1.00353 0.987242
1.00534 1.00159 0.984482
1.00548 1.0045 0.981407
1.00556 0.999687 0.985653
1.00106 1.00141 0.996711
1.00133 1.00164 0.996433
1.00235 1.00004 0.99609
1.00211 0.999986 0.996274
1.00202 0.999956 0.996371
1.00182 1.00001 0.994953
1.00355 0.999776 0.990206
1.00215 1.00005 0.994637
1.0037 1.0002 0.989589
1.00198 0.999953 0.996397
1.00335 0.99962 0.989789
1.00376 1 0.990613
1.00532 0.997492 0.989164
1.00386 1.00029 0.990088
1.00533 0.997881 0.988694
1.00203 0.999911 0.993152
1.00155 1.00027 0.99336
1.00231 1.00088 0.991923
1.00201 1.00009 0.99289
1.00399 1.00019 0.989667
1.00426 1.00057 0.988892
1.00446 1.00128 0.987861
1.00531 1.00128 0.985603
1.00201 0.999958 0.99638
1.00189 1.00008 0.993164
1.00348 0.999645 0.990287
1.00362 0.999998 0.990357
1.00327 1.00102 0.993116
1.00421 1.00221 0.987529
1.00391 1.00038 0.989542
1.00541 0.998744 0.988078
1.00534 1.00259 0.984148
1.0053 1.00015 0.986675
1.00536 0.99733 0.988603
1.00335 0.999639 0.989787
1.0033 0.999769 0.991025
1.00533 0.997467 0.989547
1.00538 0.998107 0.988798
1.00538 0.998962 0.987785
1.00529 0.995758 0.990778
1.00256 1.00157 0.995786
1.00532 0.996187 0.989829
1.00392 1.00307 0.985049
1.00536 1.00371 0.98208
1.00535 0.998611 0.987325
1.00536 0.99498 0.990773
1.003 1.00361 0.986227
1.0044 1.00405 0.984372
1.00286 0.999925 0.995874
1.00323 0.999947 0.995767
1.00392 1.00078 0.987624
1.00241 1.00175 0.995644
1.00372 1.0032 0.985335
1.00396 1.00134 0.986917
1.00545 1.00278 0.982928
1.00204 1.00172 0.995902
1.00255 1.00358 0.987396
1.004 1.00052 0.988824
1.0042 1.00094 0.988107
1.00534 0.999662 0.986589
1.00331 1.00364 0.985498
1.00537 1.00163 0.984441
1.00546 1.00433 0.981359
1.00558 0.999416 0.985973
1.00314 1.0036 0.986209
1.0021 1.00325 0.988445
1.00287 1.00243 0.986405
1.00541 0.998928 0.987378
1.00533 1.00053 0.98567
1.00529 0.995741 0.990358
1.00462 1.00511 0.98214
1.0055 0.997654 0.988148
1.00563 1.00203 0.983912
1.00565 0.997235 0.987622
1.00061 1.00074 0.997287
1.00083 1.00129 0.996915
1.00115 1.00166 0.996573
1.00228 1.00401 0.987393
1.00177 1.00204 0.996035
1.00259 0.999982 0.995981
1.0022 1.00001 0.996179
1.00348 1.00026 0.988923
1.00337 0.999784 0.989579
1.002 0.999956 0.996355
1.00196 0.999946 0.996395
1.00334 0.999628 0.989787
1.00362 0.999972 0.989911
1.00531 0.997505 0.989174
1.00367 1.00039 0.988518
1.00532 0.997901 0.988702
1.00333 0.999572 0.989858
1.00532 0.997455 0.989208
1.00531 0.997612 0.989026
1.00532 0.994953 0.991863
1.00538 0.998329 0.988106
1.00532 0.994953 0.991666
1.00197 0.999954 0.996387
1.0014 1.00017 0.99364
1.00351 0.999536 0.98942
1.00385 0.99998 0.990075
1.00217 1.0019 0.996037
1.00455 1.00188 0.987618
1.00415 1.00036 0.989263
1.0054 0.998354 0.988496
1.00529 1.00043 0.986398
1.00534 1.00244 0.984354
1.00537 0.997375 0.988571
1.00334 0.999629 0.989787
1.0035 0.999778 0.990756
1.00533 0.997362 0.989529
1.00537 0.998393 0.988524
1.00275 1.0015 0.995652
1.00393 1.00306 0.986284
1.00537 1.00378 0.982448
1.00538 0.999011 0.987782
1.0053 0.995389 0.991098
1.00535 0.998516 0.987413
1.00532 0.996523 0.989515
1.00536 0.994998 0.990723
1.00296 1.00365 0.986163
1.00362 1.00465 0.984298
1.00532 0.997552 0.989114
1.00535 0.997804 0.989267
1.00535 0.995376 0.991256
1.0053 0.994935 0.991566
1.00534 0.996083 0.990008
1.00518 0.994945 0.991542
1.00354 1.00332 0.98549
1.00533 0.994844 0.991069
1.00542 1.00463 0.981157
1.00543 0.99967 0.985899
1.00534 0.996124 0.989692
1.00539 0.994768 0.990826
1.00487 1.00501 0.982053
1.00192 1.00493 0.987354
1.00517 1.00408 0.982553
1.0038 1.00059 0.988057
1.0017 1.00175 0.996161
1.00233 1.00365 0.987328
1.00397 1.00099 0.987278
1.00533 0.999651 0.986572
1.00341 1.00359 0.985567
1.00546 1.0043 0.981313
1.00538 1.00168 0.984393
1.00558 0.999131 0.986297
1.00283 1.00375 0.986365
1.00189 1.00339 0.988428
1.00308 1.00355 0.9865
1.00539 0.998931 0.987379
1.00533 1.00055 0.985632
1.00533 0.995691 0.990378
1.00498 1.00438 0.982071
1.00547 0.997692 0.988125
1.00563 1.00182 0.983882
1.00562 0.996979 0.987839
1.00156 1.00282 0.989937
1.00295 1.00434 0.985114
1.00324 1.00376 0.986045
1.00242 1.00259 0.986806
1.00527 0.995205 0.991086
1.00541 0.996617 0.989244
1.00537 0.994874 0.990924
1.0055 1.00431 0.982122
1.00545 0.995334 0.99016
1.00555 1.00025 0.985602
1.00559 0.996284 0.988691
1.00086 1.00439 0.989634
1.00059 1.00195 0.992083
1.00041 0.999641 0.997797
1.00044 1.00041 0.997507
1.00049 1.00114 0.997174
1.00057 1.00372 0.990139
1.00087 1.00194 0.996571
1.0023 1.00384 0.987283
1.00203 1.00193 0.995959
1.00363 1.00044 0.988517
1.00345 0.999959 0.989276
1.00532 0.997915 0.988715
1.0053 0.997517 0.989184
1.00334 0.999639 0.989792
1.00201 0.999935 0.996391
1.00334 0.999572 0.989864
1.00532 0.997467 0.989215
1.00531 0.997627 0.989037
1.00533 0.994953 0.991862
1.00537 0.998337 0.988117
1.00531 0.994954 0.991675
1.00532 0.997494 0.989184
1.00534 0.994952 0.991887
1.00532 0.994959 0.991789
1.00525 0.994929 0.991734
1.00531 0.994969 0.991467
1.00523 0.994952 0.991538
1.00335 0.999627 0.989794
1.00374 0.999714 0.990489
1.00532 0.997239 0.989515
1.00536 0.99865 0.988251
1.00293 1.00143 0.995506
1.00422 1.00295 0.987227
1.00541 1.00373 0.982799
1.00538 0.999046 0.987779
1.00531 0.995015 0.991418
1.00532 0.99685 0.989201
1.00537 0.998446 0.987501
1.00536 0.995016 0.990672
1.00296 1.00363 0.986099
1.0031 1.00458 0.984232
1.00532 0.997333 0.98937
1.00534 0.99771 0.989287
1.00535 0.995395 0.991227
1.00531 0.995244 0.991291
1.00347 1.00341 0.985464
1.00542 1.00455 0.981202
1.00542 1.00007 0.985569
1.00532 0.996131 0.99009
1.00518 0.994941 0.991465
1.00534 0.995871 0.98993
1.00534 0.994844 0.991028
1.00538 0.994763 0.99079
1.00478 1.0049 0.982066
1.00464 1.00474 0.982809
1.00175 1.00457 0.987506
1.00535 0.995379 0.99133
1.00533 0.995501 0.991055
1.00524 0.994925 0.991828
1.00521 0.994943 0.991508
1.00524 0.994896 0.991171
1.00535 0.994905 0.991089
1.00535 1.00519 0.980963
1.00535 0.99484 0.990834
1.00555 1.00165 0.983868
1.00544 0.997133 0.98828
1.00541 0.995072 0.99053
1.00543 0.994754 0.990642
1.00173 1.0024 0.988569
1.00531 1.00486 0.981568
1.00316 1.00462 0.984667
1.00508 1.00457 0.982187
1.00536 0.998933 0.987381
1.00169 1.00364 0.98841
1.00277 1.00382 0.986488
1.00288 1.00461 0.986581
1.00534 1.00056 0.985598
1.00537 0.995638 0.990399
1.00543 1.00365 0.981976
1.00563 1.00164 0.983848
1.00544 0.99773 0.988101
1.00559 0.996752 0.988054
1.00124 1.003 0.989968
1.00372 1.00395 0.985205
1.00289 1.00395 0.985916
1.00334 1.00231 0.98693
1.0053 0.995164 0.991109
1.00541 0.996544 0.989272
1.00534 0.994871 0.990951
1.00551 1.00421 0.981932
1.00545 0.995534 0.990005
1.00555 1.00015 0.985581
1.00562 0.996331 0.988923
1.00104 1.0023 0.991218
1.00267 1.00518 0.986373
1.00352 1.00515 0.983158
1.00301 1.0026 0.987384
1.0031 1.00261 0.98774
1.00526 0.994918 0.991159
1.00544 0.994869 0.990587
1.0054 0.994855 0.990614
1.00525 1.00342 0.983195
1.00547 0.995207 0.990148
1.00527 0.999305 0.986603
1.00134 1.0049 0.988191
1.00054 1.00511 0.989214
1.0003 1.00385 0.990933
1.00045 1.00453 0.989649
1.00032 1.00112 0.99432
1.00048 1.00189 0.992762
1.00052 0.998962 0.995808
1.00034 0.999684 0.997885
1.00042 1.00024 0.997661
1.00014 1.00265 0.992112
0.999912 1.00076 0.997736
1.00096 1.00336 0.990021
1.00123 1.00196 0.996332
1.00237 1.00364 0.98717
1.00223 1.00182 0.995862
1.00535 0.998357 0.988125
1.0053 0.997644 0.989045
1.00531 0.994956 0.991684
1.00534 0.994953 0.991861
1.00531 0.997481 0.98922
1.00333 0.999562 0.989865
1.00532 0.997498 0.989184
1.00534 0.994952 0.991885
1.00532 0.994959 0.991794
1.00525 0.994927 0.991731
1.00531 0.994958 0.991487
1.00523 0.994954 0.991535
1.00535 0.994952 0.991886
1.00524 0.994933 0.991781
1.00525 0.994932 0.99168
1.00534 0.994909 0.991582
1.00521 0.99495 0.991337
1.00531 0.994931 0.991283
1.00533 0.997134 0.989623
1.00534 0.997641 0.989307
1.00535 0.995414 0.991198
1.00531 0.99557 0.991014
1.00341 1.0035 0.985454
1.00542 1.00468 0.981244
1.0054 1.00039 0.985243
1.00529 0.996181 0.99017
1.00518 0.994937 0.991387
1.00534 0.994846 0.990986
1.00535 0.995603 0.990168
1.00537 0.994763 0.990754
1.00441 1.00519 0.982085
1.0039 1.00523 0.983065
1.00153 1.00451 0.987649
1.00535 0.995173 0.991598
1.00533 0.995474 0.991062
1.00524 0.994922 0.991774
1.00521 0.994943 0.991576
1.00516 1.00517 0.981053
1.00553 1.00179 0.983931
1.00545 0.997328 0.987874
1.00525 0.994901 0.991213
1.00534 0.994901 0.991049
1.0054 0.994994 0.990553
1.00535 0.994842 0.990834
1.00543 0.994766 0.990632
1.00511 1.00492 0.981656
1.0051 1.00441 0.982206
1.00203 1.00299 0.988616
1.00339 1.00427 0.984871
1.00524 0.994929 0.991794
1.00524 0.994925 0.99168
1.00535 0.994913 0.991585
1.00536 0.994893 0.991162
1.00532 0.994902 0.990869
1.00539 0.994867 0.990881
1.00552 1.00339 0.982297
1.00538 0.994828 0.99063
1.00554 0.999512 0.985629
1.00547 0.996216 0.988954
1.00547 0.994772 0.990596
1.0054 0.994784 0.990593
1.00319 1.00224 0.987008
1.0022 1.0046 0.98509
1.00518 1.00416 0.982224
1.00513 1.00512 0.983661
1.00503 1.00437 0.982636
1.00096 1.00307 0.990008
1.00533 0.99512 0.991132
1.0033 1.00411 0.985778
1.00379 1.00368 0.985336
1.0042 1.00183 0.987058
1.00541 0.996474 0.989299
1.00532 0.994868 0.990978
1.00551 1.00404 0.981756
1.00553 1.00005 0.985562
1.00545 0.995727 0.98985
1.00564 0.99636 0.989158
1.00084 1.00241 0.991243
1.00221 1.00519 0.986274
1.00427 1.00468 0.983158
1.00313 1.00274 0.987306
1.00367 1.0019 0.986844
1.00524 0.994918 0.991167
1.00543 0.994867 0.990627
1.00539 0.994854 0.990621
1.00516 1.00356 0.983232
1.0055 0.995245 0.99005
1.00523 0.999523 0.986985
1.00184 1.0051 0.987206
1.00318 1.00517 0.985782
1.0036 1.00507 0.984111
1.0038 1.00263 0.986302
1.0047 1.00327 0.985299
1.00537 0.994867 0.990832
1.00541 0.994843 0.990454
1.00539 0.994765 0.990504
1.00507 1.00193 0.984386
1.00523 0.998059 0.987842
1.00116 1.00499 0.988221
1.00117 1.00511 0.987616
0.999715 1.00512 0.989337
1.00002 1.00504 0.991074
1.00021 1.00491 0.990518
0.999913 1.00347 0.991717
0.999992 1.00405 0.990957
1.00013 1.00057 0.995047
1.00023 1.00474 0.989663
1.00029 1.00101 0.994449
1.00034 0.998109 0.996619
1.00043 1.00194 0.993424
1.00029 0.999122 0.997015
1.00023 0.999612 0.997975
1.00042 1.00265 0.991909
1.00032 1.00205 0.992184
0.999879 1.00019 0.998087
1.00044 1.00099 0.997244
1.00136 1.00302 0.98992
1.00148 1.00221 0.996159
1.0053 0.994946 0.991506
1.00532 0.994959 0.991797
1.00523 0.994954 0.991532
1.00525 0.994925 0.991728
1.00535 0.994952 0.991883
1.00532 0.9975 0.989185
1.00535 0.994952 0.991883
1.00524 0.994933 0.991787
1.00525 0.994931 0.991678
1.00534 0.994906 0.991573
1.00522 0.994952 0.991335
1.00531 0.994926 0.991297
1.00524 0.994933 0.991804
1.00534 0.994913 0.99168
1.00532 0.994908 0.991502
1.00534 0.994894 0.991593
1.00532 0.994918 0.991085
1.00531 0.99491 0.991262
1.00535 0.99495 0.991868
1.00533 0.995447 0.99107
1.00525 0.99492 0.99172
1.00521 0.994942 0.991644
1.00501 1.00514 0.981132
1.0055 1.00205 0.983991
1.00546 0.997512 0.98747
1.00527 0.994906 0.991255
1.00534 0.994898 0.991008
1.00535 0.994844 0.990835
1.00539 0.994907 0.990576
1.00544 0.994771 0.990621
1.00498 1.00499 0.981737
1.00513 1.00469 0.982217
1.00236 1.00355 0.988658
1.00359 1.0035 0.985046
1.00524 0.994929 0.991796
1.00524 0.994926 0.991694
1.00535 0.994912 0.991559
1.00535 0.994895 0.991158
1.00551 1.00361 0.982374
1.0056 0.999558 0.985427
1.00546 0.996145 0.988965
1.00532 0.994904 0.990908
1.00539 0.994862 0.990871
1.00547 0.99474 0.990607
1.00538 0.994829 0.990625
1.00539 0.994786 0.990621
1.00517 1.00452 0.982235
1.00494 1.00452 0.982704
1.00417 1.00443 0.983787
1.00274 1.00301 0.987154
1.0028 1.00508 0.985032
1.00534 0.994902 0.991638
1.00536 0.994897 0.991442
1.00538 0.994854 0.990942
1.00538 0.994858 0.990703
1.00544 1.0027 0.983434
1.00538 0.994767 0.990407
1.0055 0.998545 0.98589
1.00545 0.995677 0.989341
1.00545 0.994732 0.990515
1.00111 1.00508 0.987601
1.00387 1.00512 0.985644
1.00198 1.00433 0.98657
1.0049 1.00478 0.982949
1.00506 1.00341 0.984881
1.00499 1.00362 0.98318
1.00063 1.00257 0.991263
1.0021 1.0052 0.986181
1.00523 0.994919 0.991174
1.0026 1.00274 0.987233
1.00519 1.00465 0.983149
1.00422 1.0014 0.985952
1.00542 0.994864 0.990667
1.00537 0.994853 0.990629
1.00527 1.00371 0.983271
1.00524 0.999779 0.987364
1.00554 0.995277 0.989952
1.00181 1.00513 0.987198
1.00263 1.00521 0.985775
1.00416 1.00497 0.983389
1.00389 1.00207 0.98642
1.00462 1.00215 0.985167
1.00537 0.994866 0.990827
1.00543 0.994845 0.99043
1.00541 0.994754 0.990516
1.00504 1.00214 0.984648
1.00523 0.998224 0.987648
1.00288 1.00516 0.985803
1.00136 1.00527 0.985974
1.00464 1.00327 0.984435
1.00281 1.00263 0.985106
1.00542 1.00093 0.98554
1.00539 0.994802 0.990599
1.00547 0.99546 0.989523
1.00541 0.994746 0.990007
1.00508 1.00097 0.985929
1.00512 0.99911 0.987094
1.00106 1.00496 0.988255
1.00165 1.00509 0.987397
0.999183 1.00454 0.991017
0.999423 1.00508 0.989432
0.999678 1.00503 0.990493
0.998912 1.00469 0.991517
0.998409 1.00426 0.993575
0.998712 1.00512 0.991782
0.999564 1.00483 0.991107
1.00002 1.00306 0.991877
0.999851 1.00344 0.991701
1.00001 1.00024 0.995466
0.999674 1.00411 0.990976
1.00011 1.00048 0.995115
1.00021 0.997882 0.997024
1.00028 1.00084 0.99458
1.00025 0.998283 0.996566
0.999997 0.999217 0.998252
1.00024 1.0022 0.992374
1.00063 1.00197 0.991978
0.999747 0.999896 0.998156
1.00076 1.0015 0.992242
0.999935 1.00005 0.998048
1.00085 1.00126 0.996804
1.00522 0.994953 0.991333
1.00524 0.994931 0.991677
1.00531 0.994922 0.991312
1.00534 0.994903 0.991565
1.00524 0.994932 0.991794
1.00535 0.994952 0.991881
1.00524 0.994935 0.991813
1.00534 0.994914 0.991673
1.00532 0.994912 0.991508
1.00534 0.99489 0.991577
1.00533 0.994918 0.991079
1.00531 0.994903 0.991273
1.00533 0.994906 0.99169
1.00536 0.994887 0.99165
1.00531 0.994877 0.991552
1.00537 0.994884 0.990895
1.00524 0.994929 0.991797
1.00524 0.994926 0.991708
1.00534 0.994911 0.991534
1.00535 0.994896 0.991153
1.00555 1.00376 0.982456
1.00567 0.999597 0.98522
1.00545 0.996077 0.988974
1.00533 0.994906 0.990948
1.00538 0.994856 0.990862
1.00539 0.99483 0.990619
1.00548 0.994716 0.990619
1.00539 0.994789 0.99065
1.00512 1.00476 0.982247
1.00472 1.00465 0.982773
1.00373 1.00405 0.983923
1.0023 1.00379 0.98733
1.00349 1.0053 0.985014
1.00535 0.994904 0.991624
1.00536 0.994898 0.991439
1.00538 0.994855 0.990948
1.00547 1.0027 0.983432
1.00549 0.998797 0.985804
1.00547 0.995511 0.989381
1.00537 0.994862 0.990722
1.00543 0.994713 0.990566
1.0054 0.994772 0.990426
1.00094 1.00493 0.987895
1.0047 1.00454 0.982978
1.00516 1.004 0.982765
1.00461 1.00315 0.984718
1.00263 1.00417 0.986333
1.00312 1.00475 0.985731
1.00536 0.994882 0.991579
1.00539 0.994852 0.991261
1.0054 0.994824 0.990739
1.00539 0.994809 0.990466
1.00526 1.00219 0.984115
1.00538 0.99475 0.990274
1.00542 0.998065 0.987079
1.00541 0.995084 0.98959
1.00028 1.00414 0.989399
1.00188 1.00501 0.987531
1.00319 1.00433 0.987141
1.00174 1.00168 0.990112
1.0047 1.00399 0.983808
1.00501 1.00357 0.983323
1.00145 1.0052 0.98719
1.00234 1.00514 0.985758
1.00537 0.994865 0.990822
1.00404 1.00124 0.986537
1.00475 1.00483 0.982668
1.00422 1.00249 0.985025
1.00545 0.994846 0.990406
1.00543 0.994744 0.990527
1.00496 1.00228 0.984908
1.00521 0.998407 0.987456
1.00262 1.0051 0.985864
1.00281 1.00512 0.985687
1.00445 1.00338 0.984247
1.00424 1.00336 0.98466
1.00539 1.00191 0.985311
1.00539 0.994805 0.990608
1.00546 0.995265 0.989809
1.00539 0.994752 0.990314
1.00513 1.0008 0.985794
1.00507 0.999668 0.98664
1.0001 1.00483 0.988321
1.0004 1.00517 0.987699
1.00502 1.00089 0.986011
1.00505 1.00207 0.985572
1.00545 0.994804 0.990567
1.00537 0.994679 0.990447
1.00525 0.99745 0.988055
1.00515 1.0002 0.985946
1.00236 1.00509 0.98719
0.999512 1.00487 0.990626
0.996852 1.00497 0.994522
0.999198 1.00511 0.990477
0.997235 1.00508 0.991954
0.99962 1.00468 0.991027
0.997856 1.00465 0.993943
0.998879 1.00508 0.991809
0.998514 1.00197 0.996159
0.998033 1.00503 0.993135
0.998638 1.00511 0.991469
1.00005 1.00457 0.990605
0.999999 1.00325 0.991708
0.999914 1.00321 0.991839
0.999886 1.00002 0.995784
0.999684 1.00362 0.991687
0.999982 1.00021 0.995509
1.00006 0.997876 0.997257
1.00007 1.00042 0.995179
1.00016 0.997985 0.996992
1.00013 0.998471 0.9965
1.00036 1.00105 0.99334
1.00027 1.00213 0.992292
0.999928 0.99889 0.998385
1.00046 1.00137 0.99205
0.999894 1.00004 0.998107
1.00022 0.99982 0.99788
1.00535 0.994918 0.991073
1.00532 0.994915 0.991513
1.00531 0.994897 0.991285
1.00533 0.994885 0.99156
1.00534 0.994916 0.991667
1.00524 0.994938 0.991821
1.00533 0.994905 0.991691
1.00535 0.994888 0.991643
1.00533 0.994879 0.991495
1.00535 0.994883 0.990952
1.00536 0.99488 0.991664
1.00537 0.99485 0.991577
1.00535 0.994854 0.991243
1.00535 0.994906 0.99161
1.00536 0.9949 0.991437
1.00539 0.994857 0.990955
1.00547 1.00274 0.983433
1.00546 0.999045 0.985723
1.00548 0.995289 0.989419
1.00537 0.994866 0.99074
1.00541 0.994778 0.990445
1.0054 0.994693 0.990622
1.00472 1.00431 0.983011
1.00508 1.00417 0.98236
1.00373 1.00331 0.984555
1.00102 1.00485 0.98819
1.00382 1.004 0.986068
1.00221 1.00435 0.985789
1.00536 0.994885 0.991597
1.00539 0.994853 0.991234
1.00539 0.99483 0.990756
1.0052 1.00227 0.9841
1.0054 0.99791 0.986985
1.00543 0.99496 0.989742
1.00539 0.994797 0.990438
1.00541 0.994757 0.990272
1.0002 1.00459 0.989625
1.00148 1.00506 0.987478
1.00469 1.00355 0.983576
1.00467 1.00332 0.983472
1.0026 1.00241 0.98886
1.00224 1.00411 0.987412
1.0054 0.994843 0.991482
1.00543 0.994839 0.990891
1.00539 0.99477 0.990526
1.00538 0.994774 0.990195
1.0047 1.00107 0.986019
1.00536 0.99472 0.990353
1.00483 0.997456 0.988387
1.00003 1.00444 0.990398
1.00061 1.00347 0.990628
0.9997 1.00507 0.989037
1.00145 1.00507 0.988006
1.00163 1.00462 0.989832
1.00375 1.00219 0.985585
1.00426 1.00361 0.984902
1.00358 1.00523 0.985218
1.00254 1.00514 0.985931
1.00312 1.00532 0.985397
1.0054 0.994809 0.990616
1.00527 1.00219 0.984223
1.00455 1.00344 0.984062
1.0054 1.00227 0.985093
1.00545 0.995056 0.990096
1.00538 0.994759 0.990619
1.00518 1.00062 0.985662
1.00501 1.00016 0.986186
1.00102 1.00406 0.987923
1.0012 1.00486 0.987102
1.00502 1.00099 0.985688
1.00498 1.0021 0.985423
1.00543 0.994811 0.990576
1.00539 0.994701 0.990456
1.00522 0.997353 0.988113
1.00512 1.00034 0.985983
0.999016 1.00368 0.991754
1.00549 0.994736 0.991018
1.00271 1.00349 0.988675
1.00468 1.00129 0.985758
1.00539 0.994711 0.990735
1.00518 0.996533 0.988171
1.00508 1.00078 0.986005
1.00007 1.00478 0.990243
0.997408 1.00469 0.994641
0.996297 1.00275 0.997064
0.999341 1.00463 0.990942
0.998766 1.00506 0.991829
0.996671 1.00495 0.994317
0.999891 1.00453 0.990579
0.998766 1.00509 0.991597
0.996593 1.00344 0.996503
0.998362 1.00478 0.992919
0.996621 1.00316 0.997888
0.996319 1.00499 0.995725
0.998919 1.0047 0.992508
1.00021 1.00492 0.989775
1.00025 1.00457 0.99004
0.999982 1.0032 0.991736
0.999904 1.00337 0.991687
0.999783 1.00003 0.995945
0.99978 1.00342 0.991805
0.999914 1.00002 0.995798
0.999939 0.997896 0.997498
0.999985 1.0001 0.99556
1.00008 0.997884 0.997233
1.00014 0.998082 0.996952
1.0003 1.00372 0.990725
0.999981 1.00092 0.993871
1.00021 1.00117 0.993299
1.00006 0.998715 0.998525
1.00031 1.00194 0.992212
0.999892 0.999403 0.998297
1.00003 0.999868 0.998109
1.00534 0.994881 0.991009
1.00534 0.994881 0.991437
1.00534 0.994889 0.991635
1.00534 0.994905 0.991692
1.00536 0.994877 0.991674
1.00537 0.99485 0.991561
1.00535 0.994852 0.991182
1.0054 0.99484 0.991526
1.00538 0.994798 0.991587
1.00563 0.994667 0.991504
1.00537 0.994887 0.991616
1.00539 0.994851 0.991208
1.00539 0.994833 0.990774
1.00507 1.00234 0.984088
1.00538 0.997872 0.986899
1.00545 0.994924 0.989886
1.0054 0.994786 0.990409
1.00544 0.994756 0.990267
1.00501 1.00346 0.983342
1.00425 1.00296 0.983574
1.00274 1.00422 0.987616
1.00042 1.00463 0.989852
1.00123 1.00507 0.98742
1.00136 1.00416 0.987689
1.0054 0.994838 0.991477
1.0006 1.00371 0.990371
1.0001 1.00423 0.990534
1.00543 0.994827 0.99089
1.0054 0.994781 0.990552
1.00477 1.00127 0.985774
1.00528 0.996993 0.98864
1.00533 0.994721 0.990331
1.00537 0.994764 0.990127
1.0003 1.00506 0.989097
1.00125 1.00503 0.98795
1.00395 1.00413 0.984479
1.00384 1.00491 0.984076
1.0041 1.00339 0.985199
1.00097 1.00301 0.990589
1.00548 0.994734 0.991406
1.00541 0.9951 0.990521
1.00537 0.994721 0.99052
1.00527 0.994754 0.989917
1.00358 1.00074 0.987574
1.00526 0.995688 0.990146
1.00031 1.00441 0.990105
0.999578 1.00405 0.990557
1.0003 1.00465 0.990692
1.00055 1.00477 0.98915
1.00117 1.0039 0.989838
1.00184 1.00104 0.990082
1.00253 1.00506 0.985388
1.00197 1.00245 0.989906
1.00129 1.0047 0.987541
1.00346 1.00519 0.986501
1.00541 0.994816 0.990583
1.00541 0.994721 0.990466
1.00488 1.00291 0.985275
1.00484 1.00119 0.98535
1.0052 0.99727 0.988173
1.00509 1.00048 0.986021
0.99919 1.00436 0.991696
1.0055 0.994724 0.991157
1.00184 1.00405 0.989178
1.00454 1.00124 0.985649
1.0054 0.994702 0.990799
1.00518 0.99665 0.9884
1.00504 1.00054 0.985906
0.998076 1.00444 0.99422
1.005 0.994669 0.990279
1.00171 1.00326 0.988539
1.00422 1.00306 0.984249
1.00487 0.994947 0.991639
1.00427 1.0001 0.987078
0.998332 0.994735 0.981013
0.997298 1.00492 0.994736
0.996926 1.00277 0.997089
0.995993 1.00297 0.99804
0.999855 1.00443 0.99055
0.99842 1.00507 0.991736
0.999181 1.00457 0.992711
0.995396 1.00371 0.996871
1.00019 1.00452 0.99007
0.999732 1.00501 0.990273
0.996203 1.00206 0.998823
0.99827 1.00492 0.992457
0.996708 1.00473 0.995288
0.994861 1.0052 0.997964
0.998068 1.00505 0.993277
0.99871 1.00478 0.992371
1.00014 1.0046 0.990311
0.999931 1.00475 0.989971
0.999822 1.00434 0.991389
0.999967 1.00416 0.99059
0.999894 1.00308 0.9919
0.999929 1.00328 0.991727
0.999675 0.99997 0.995396
0.99992 1.00326 0.991671
0.999777 1.00001 0.995586
0.99996 0.997823 0.99897
0.999905 1.00001 0.995822
0.999961 0.997826 0.99748
1.0001 0.997893 0.997201
0.999993 1.00316 0.991667
1.00051 1.00346 0.99079
1.00011 1.00018 0.994511
1.00013 1.00082 0.994333
0.999983 0.998265 0.998696
1.00006 1.00157 0.993258
0.999978 0.998533 0.998509
0.999908 0.999825 0.998144
1.00536 0.994852 0.991122
1.00536 0.994851 0.991545
1.00536 0.994873 0.991685
1.0054 0.994839 0.991528
1.0054 0.994802 0.991517
1.00565 0.994681 0.991501
1.00553 0.994761 0.991539
1.00015 0.994661 0.979649
1.00546 0.99464 0.98966
1.00029 1.00396 0.990439
1.0054 0.994835 0.991473
1.00543 0.994822 0.99089
1.00541 0.994796 0.990579
1.00484 1.00144 0.985516
1.00531 0.996123 0.988877
1.0053 0.99472 0.990294
1.00535 0.994758 0.990058
1.00424 1.00429 0.984126
1.00446 1.00496 0.983017
1.00365 1.00298 0.984797
1.00086 1.00332 0.990347
1.00087 1.00238 0.991319
1.00103 1.00506 0.989131
1.00085 1.00504 0.987893
1.0001 1.00446 0.99044
1.00547 0.994757 0.99142
1.00056 1.00411 0.990035
1.00027 1.00424 0.990554
0.9996 1.00453 0.991196
1.00539 0.994907 0.990548
1.00536 0.994718 0.990479
1.00363 1.00175 0.987605
1.00498 0.995431 0.990168
1.00528 0.994745 0.989943
1.00042 1.00484 0.989184
1.0012 1.00376 0.990189
1.00303 1.00274 0.989061
1.00296 1.00517 0.984934
1.00306 0.999972 0.990555
1.00547 0.994702 0.990952
1.00534 0.994831 0.990633
1.00524 0.994714 0.990479
1.00458 0.997371 0.989639
1.00351 1.00013 0.988963
0.999478 1.00341 0.992714
0.999634 1.00501 0.989908
0.998691 1.00342 0.993247
1.00061 1.00274 0.992487
1.00069 1.00014 0.993973
1.00019 1.00141 0.99213
1.00172 1.00088 0.992239
1.0011 1.00364 0.99159
1.00016 1.00424 0.989681
1.00551 0.994707 0.991287
1.00541 0.994695 0.990846
1.00519 0.996772 0.988631
1.00438 1.00134 0.985542
1.005 1.00029 0.985815
0.998142 1.00482 0.995129
1.00449 0.994659 0.990371
1.00213 1.00313 0.988275
1.00453 1.00284 0.984177
1.00467 0.994915 0.991762
1.00444 1.00001 0.987125
0.998243 0.994682 0.979214
0.997446 1.00508 0.99432
1.00302 0.994574 0.990669
1.00235 1.00436 0.986021
1.00389 1.00163 0.986517
1.00346 0.996996 0.993222
0.999716 0.994856 0.933597
0.994823 0.994673 0.956037
0.997226 0.994582 0.983838
0.994803 0.997462 0.840774
0.994793 1.0007 0.801607
0.997789 1.00311 0.99712
0.996471 1.00286 0.998118
0.995041 1.00521 0.99846
1.00023 1.00451 0.990106
0.999508 1.00505 0.990773
0.998223 1.005 0.992394
0.997043 1.00472 0.994837
0.995716 1.00143 0.999723
0.998575 1.00463 0.992751
1.00023 1.00456 0.989944
1.00011 1.0048 0.990146
0.995235 1.00484 0.997854
0.997673 1.00493 0.993738
0.9977 1.00484 0.994232
0.995996 1.0052 0.996237
0.998235 1.00488 0.993149
0.99972 1.00488 0.990271
1.00009 1.00458 0.989918
0.998927 1.00433 0.991811
0.997013 1.00461 0.994892
0.998339 1.00485 0.992547
0.999463 1.00442 0.991836
0.999886 1.00388 0.991198
0.999807 1.00414 0.990513
0.999954 1.00291 0.9921
0.99998 1.00305 0.991922
0.999657 0.999852 0.99555
0.999869 1.0034 0.991713
0.999663 0.999982 0.995405
0.999931 0.99779 0.999012
0.999755 1.00003 0.995236
0.999902 0.997827 0.998275
1.00003 0.997766 0.997458
0.999907 1.00254 0.992526
1.00011 1.00303 0.991702
1.00003 0.999752 0.995114
1.00068 1.00314 0.990853
1.00008 1.00025 0.994933
1.00001 0.997915 0.998838
1.0003 1.00051 0.993774
1.00002 0.998488 0.998615
0.999934 0.998841 0.998496
1.00541 0.994803 0.991447
1.00539 0.994838 0.991529
1.00568 0.994696 0.991521
0.999034 0.994675 0.979318
1.00555 0.994746 0.991542
1.00549 0.994671 0.989732
1.00548 0.994637 0.991309
0.994841 0.994762 0.959635
1.00495 0.994685 0.974755
1.00029 1.00375 0.99074
1.00047 1.00385 0.990453
0.998795 1.00372 0.993005
1.00061 1.00416 0.989945
1.00546 0.99478 0.991434
1.00538 0.994817 0.990577
1.00535 0.994718 0.990438
1.00379 1.00165 0.987646
1.00512 0.99559 0.990226
1.00531 0.994745 0.989989
1.00282 1.00192 0.988144
1.00403 1.00531 0.984483
1.00286 0.998369 0.99108
1.00034 1.00486 0.990564
1.0003 1.00301 0.990589
1.00034 1.00502 0.98922
1.00074 1.00385 0.989956
0.998811 1.00497 0.991805
1.00549 0.994726 0.990932
0.999239 1.0038 0.992124
1.00002 1.00472 0.990055
0.996427 1.00469 0.995479
1.00534 0.994841 0.990624
1.00523 0.994716 0.990462
1.00394 0.998749 0.989155
1.00444 0.997396 0.989702
1.0009 1.00248 0.991774
0.999479 1.00075 0.993427
1.00128 1.00097 0.992243
1.00198 1.00128 0.991053
1.0037 0.99681 0.989571
1.00519 0.994602 0.991026
1.00392 0.998911 0.98969
1.00446 0.998512 0.989624
0.996135 1.0045 0.996413
1.00069 1.00277 0.990948
0.997429 0.998967 1.00064
0.998127 1.00466 0.99293
0.999393 0.997447 0.915692
0.998208 1.00469 0.996076
1.00194 1.00339 0.988002
1.00384 0.994677 0.990506
1.00443 0.994878 0.991873
1.0045 0.999846 0.987146
1.00474 1.00262 0.984097
0.997962 0.994639 0.977011
0.997952 1.00444 0.994574
1.00267 0.994601 0.990653
1.00262 1.00432 0.986015
1.00414 1.00137 0.986706
1.00328 0.997266 0.993141
0.998167 0.99498 0.91894
0.994999 0.994698 0.952644
0.996903 0.994626 0.984258
0.996064 0.997095 0.848694
0.994819 1.00007 0.799918
0.997896 1.00454 0.993746
0.997373 0.995211 0.852852
0.994869 0.999925 0.7995
1.00137 0.994731 0.99455
1.00175 1.00322 0.989248
1.0016 1.00043 0.992889
0.99533 0.99536 0.987303
0.997405 0.994647 0.929781
0.99504 0.994698 0.946354
0.994741 0.998527 0.852543
0.994827 0.996171 0.778086
0.996915 1.00246 0.998206
0.994982 1.00525 0.998296
0.995157 1.00512 0.999433
1.00048 1.00427 0.989907
0.999919 1.00495 0.989976
0.997822 1.00479 0.993137
0.997362 1.00495 0.994194
0.995566 1.00436 0.997747
1.00017 1.00462 0.989872
0.99747 1.00473 0.9945
0.998189 1.00493 0.992692
1.00002 1.00482 0.9902
0.995796 1.00517 0.996601
0.996282 1.00516 0.995831
0.995051 1.00512 0.997663
0.998602 1.00508 0.991803
1.00014 1.00463 0.989993
0.999669 1.00397 0.991706
0.997034 1.00438 0.995317
0.997497 1.00338 0.995132
0.997968 1.00382 0.99473
0.995333 1.00509 0.998156
0.998444 1.00198 0.994798
0.996904 1.00512 0.993576
0.99844 1.00493 0.992516
0.998906 1.00461 0.991267
0.999108 1.00444 0.992285
0.999858 1.00427 0.991127
1.00007 1.00298 0.991982
1.00002 1.00427 0.990429
0.999955 1.00287 0.992136
0.999871 0.999724 0.996132
0.999765 1.00334 0.991945
0.999743 0.999787 0.995843
0.999918 0.997664 0.99778
0.999668 0.99995 0.995404
0.999921 0.997796 0.999025
0.9999 0.997881 0.997573
1.00045 1.00419 0.990253
0.999816 1.0024 0.992761
0.999956 1.00247 0.992512
0.999967 0.999375 0.995556
1.00018 1.00304 0.99174
1.00006 0.999747 0.995085
1.00001 0.99765 0.998957
1.00005 1.00045 0.995249
0.999976 0.998029 0.99797
0.99998 0.998351 0.996785
0.998212 0.994672 0.978962
1.00555 0.994737 0.991546
1.0055 0.994633 0.989791
0.995933 0.994775 0.959331
1.00479 0.994635 0.9747
1.00548 0.994624 0.991431
1.00448 0.994505 0.984063
0.999739 0.994718 0.956055
0.997447 0.995379 0.932012
0.996118 0.995563 0.86685
0.994893 1.00131 0.801644
0.99935 1.00404 0.991552
1.00029 1.00378 0.990809
1.00073 1.0037 0.990468
0.998821 1.0038 0.993013
0.997566 1.00459 0.994399
1.00006 1.00473 0.99054
1.00019 1.00507 0.989367
1.00032 1.00435 0.990102
1.00551 0.994743 0.99091
1.00536 0.994742 0.990612
1.00522 0.99471 0.990443
1.00426 0.998585 0.989335
1.00441 0.99734 0.989751
1.00104 1.00129 0.992237
1.00434 1.0001 0.989997
1.00091 1.00155 0.992869
1.00046 1.00396 0.990149
1.00119 1.00244 0.990991
0.998987 1.00462 0.991543
0.994976 1.00508 0.997379
1.00419 0.995667 0.990016
0.996302 1.00473 0.996107
1.00016 1.00233 0.992561
1.00493 0.994617 0.990997
1.00389 0.999138 0.989532
1.00383 0.998803 0.989751
0.998322 0.999904 0.997887
0.999363 1.00326 0.993254
1.0024 0.996406 0.987966
1.00266 0.999397 0.990773
1.00376 1.00088 0.989453
1.00188 0.998953 0.993106
0.99785 1.00489 0.993977
0.996147 1.00247 0.997672
0.997371 1.00283 0.996641
0.999845 0.999941 0.844862
1.0007 0.994871 0.932375
0.998887 1.00316 0.994827
1.00308 1.00418 0.986024
1.00227 0.994626 0.990632
1.00316 0.997352 0.993084
1.00422 1.001 0.986932
0.999966 0.994847 0.930605
0.995411 0.994702 0.952002
0.996592 0.994677 0.984948
0.994784 0.998468 0.866502
0.994849 0.999224 0.797828
0.998417 1.00424 0.993823
0.999257 0.996512 0.849984
0.994822 0.99796 0.793865
1.00086 0.994832 0.994373
1.00153 1.00325 0.989277
1.00162 1.00028 0.993925
0.995873 0.996241 0.988457
0.995237 0.994646 0.922881
0.995221 0.994694 0.948094
0.994796 0.998676 0.85837
0.994854 0.997002 0.775031
0.996815 1.00517 0.996812
0.994802 0.995077 0.78762
0.99474 0.994732 0.766342
0.997223 1.00019 0.996795
0.999074 1.00276 0.997272
0.994901 0.99785 0.98629
0.995129 0.994763 0.953906
0.994891 0.994554 0.910557
0.994823 0.997382 0.862436
0.994899 0.994905 0.795118
0.995211 1.00527 0.998152
0.995048 1.00485 0.999611
0.994913 1.00524 0.99932
1.00031 1.00455 0.989822
1.00028 1.00491 0.99013
0.998334 1.00502 0.992234
0.99726 1.00431 0.994765
0.995663 1.00514 0.996972
1.00027 1.00485 0.989896
0.99653 1.00506 0.995391
0.998839 1.0051 0.991828
0.995136 1.00507 0.997768
0.994977 1.00515 0.9983
0.996322 1.00508 0.995552
0.999926 1.00492 0.99165
1.00026 1.00351 0.991604
0.997028 1.00404 0.995733
0.997965 1.00308 0.995157
0.998145 1.00322 0.994634
0.995493 1.00515 0.996905
0.999381 1.0012 0.995005
0.995418 1.00472 0.996443
0.997038 1.00288 0.998442
1.00025 1.00451 0.990494
1.00513 1.00144 0.987043
0.997391 1.00444 0.992036
0.998336 1.0025 0.994858
0.998574 1.00519 0.991384
0.997941 1.00509 0.993698
0.999495 1.00452 0.990593
0.999104 1.00509 0.992481
0.999384 1.00437 0.991372
0.999527 1.00368 0.99163
0.999874 1.00453 0.99105
0.999932 1.00294 0.992018
0.999972 0.999787 0.995867
1.00008 1.00262 0.99217
0.999855 0.999701 0.995776
1.00004 0.997426 0.997685
0.999724 0.99981 0.995535
0.999969 0.997605 0.99906
0.99992 0.997742 0.999041
1.00066 1.00462 0.989835
0.999864 1.00277 0.992394
1.00049 1.00402 0.990249
0.999986 0.999238 0.9957
0.999987 1.00221 0.992745
1.00009 1.00229 0.992496
0.99999 0.999392 0.995542
0.999994 0.997406 0.99905
1.00006 0.99982 0.995787
1.00002 0.997697 0.998162
1 0.998009 0.99725
0.999358 0.999182 0.834879
0.994846 0.996373 0.782657
0.995239 0.994795 0.960325
1.00465 0.994596 0.974919
1.00551 0.994649 0.991538
1.00289 0.994732 0.952892
1.00333 0.994593 0.984884
0.999403 0.995101 0.927672
0.994766 0.996562 0.846134
0.994882 0.999974 0.800449
0.999065 0.994689 0.966566
0.994854 0.994647 0.933066
0.994705 0.999257 0.853913
0.995174 0.997807 0.79164
1.00003 1.00428 0.991966
1.00001 1.00382 0.991197
1.00025 1.0037 0.990891
0.998857 1.00347 0.993038
0.997039 1.00397 0.995431
1.00037 1.00491 0.989606
0.999297 1.00485 0.991092
1.00109 1.00511 0.988058
1.00032 1.00506 0.989354
0.999443 1.00508 0.99027
1.00455 0.994755 0.990429
1.00479 0.994641 0.990964
1.00366 0.999426 0.989369
1.00297 0.999109 0.989881
0.999953 1.00312 0.993544
0.998966 1.0011 0.995211
0.999105 1.00234 0.994414
0.996412 1.00468 0.995799
1.00212 0.995642 0.988692
0.997729 1.00494 0.993672
0.996109 1.00273 0.998354
1.00251 0.999132 0.99092
1.00362 1.00197 0.987897
1.00105 0.999497 0.993683
0.997575 1.0033 0.996349
0.999279 0.994685 0.986578
1.00116 1.00157 0.992686
0.996934 1.00396 0.996075
0.998743 1.00465 0.99305
0.996077 1.00506 0.995619
0.994921 1.00503 0.99844
0.994809 0.994749 0.795647
0.999705 0.995617 0.856238
0.999805 0.997437 0.91605
0.998577 1.00407 0.993876
1.00168 1.00346 0.989248
1.00032 0.99496 0.99417
1.00142 0.999886 0.994971
0.999072 1.00023 0.86449
0.994921 0.994662 0.917202
0.994932 0.99464 0.946557
0.996274 0.99725 0.989366
0.994784 0.998729 0.841575
0.994767 0.99627 0.799767
0.995091 0.997388 0.789778
0.996909 1.00497 0.996489
0.994822 0.995897 0.792192
0.994768 0.994758 0.766281
0.99768 0.998606 0.997453
0.998701 1.00272 0.997131
0.99496 0.996801 0.987955
0.995376 0.994757 0.949645
0.99531 0.99457 0.924055
0.994814 0.996855 0.841719
0.995309 0.994893 0.803195
0.995732 1.00496 1.00065
0.994717 0.994757 0.773634
0.994816 0.994837 0.774655
0.994834 1.00197 1.00063
0.994881 0.996635 0.962654
0.9948 0.994744 0.922837
0.995107 0.99489 0.848463
0.995469 0.994907 0.826356
0.994908 1.00467 0.999768
0.994855 1.00523 0.999587
0.994814 1.00519 1.00008
1.00005 1.00503 0.989802
0.999124 1.00511 0.991854
0.996811 1.00495 0.994952
0.995169 1.00504 0.997873
0.999125 1.00489 0.991613
0.996497 1.00505 0.995442
0.994955 1.00509 0.998354
0.994821 1.00519 0.998927
0.995551 1.0051 0.997889
0.997545 1.00505 0.994314
0.998457 1.00287 0.99517
0.997959 1.00286 0.994569
0.995894 1.00518 0.995738
0.995875 1.00422 0.996637
0.999457 1.00079 0.994807
0.995957 1.00279 0.998556
1.00056 1.00234 0.994367
0.99496 1.00522 0.998809
1.00226 1.00024 0.99158
1.00013 1.00374 0.991595
1.00208 1.00292 0.987859
1.00503 1.00153 0.985508
1.00444 1.00161 0.987327
1.00449 1.00109 0.98723
0.999053 1.00412 0.991999
0.998876 1.0052 0.989112
0.998339 1.003 0.994927
0.999166 1.00492 0.991476
1.0014 1.00463 0.98843
0.99843 1.00468 0.993813
0.999608 1.00476 0.990658
0.99995 1.00408 0.990565
1.00031 1.00428 0.991475
1.00011 1.00337 0.991639
1.00025 1.00018 0.995192
0.999916 1.003 0.99206
0.999962 0.99993 0.995353
1.00016 0.997581 0.997434
0.999861 0.999653 0.99547
1.00005 0.997465 0.998379
0.999986 0.99756 0.999054
1.00051 1.00502 0.988716
1 1.00324 0.991772
1.00032 1.00472 0.989657
0.999997 0.999438 0.995483
0.999843 1.00274 0.992419
1.00032 1.00399 0.990239
1.00001 0.997383 0.999057
0.999967 0.999264 0.995699
0.99993 1.00233 0.992737
1.00002 0.999372 0.995529
1 0.997481 0.999024
1.00001 0.997712 0.998908
0.994767 0.99485 0.778505
0.99863 0.996676 0.849418
0.994828 0.994779 0.772055
0.994852 0.996901 0.784887
0.999552 0.99531 0.954638
1.00208 0.994659 0.985756
0.998756 0.994717 0.92241
0.994749 0.996898 0.865148
0.994867 0.998317 0.799562
0.998582 0.994735 0.96514
0.996043 0.994622 0.916422
0.994755 0.998375 0.859651
0.994857 0.99722 0.784663
0.994905 0.994735 0.95846
0.994803 0.99462 0.907514
0.994841 0.996738 0.836238
0.994868 0.994897 0.802584
1.00018 1.00457 0.990606
0.998827 1.00438 0.992131
0.99995 1.00402 0.99084
0.996305 1.00356 0.996407
1.00077 1.00484 0.988804
1.00023 1.0049 0.989785
0.998785 1.00483 0.991636
1.00172 1.00509 0.987562
1.00131 1.00509 0.988079
1.00051 1.00478 0.989333
1.00253 0.99465 0.98931
1.00221 0.998959 0.991081
1.00352 1.00314 0.986358
1.00051 0.999722 0.994274
0.998075 1.00488 0.996039
0.996791 1.00151 0.999049
0.998422 1.00492 0.993329
0.999055 1.0037 0.993074
0.999517 0.995968 0.987271
0.997144 1.00513 0.995155
0.996225 1.00333 0.998503
1.00074 1.00112 0.99259
0.997307 1.00368 0.996193
0.996879 0.998037 0.985744
0.996977 1.00291 0.997483
0.994709 1.00553 0.998372
0.996195 1.00475 0.996714
0.994872 1.00511 0.998024
0.994729 0.994745 0.778042
0.994824 0.9947 0.790357
0.999782 1.00106 0.834854
0.996938 1.00466 0.996225
0.998811 1.00281 0.997019
0.998481 0.997617 0.998072
0.994822 0.995074 0.786404
0.994809 0.994577 0.907885
0.994951 0.994745 0.950978
0.995127 0.995472 0.990066
0.994793 0.996994 0.858811
0.994816 0.994783 0.766989
0.996266 0.994882 0.805357
0.996084 1.00503 1.00046
0.994732 0.994785 0.773293
0.994798 0.994835 0.775788
0.995015 1.00252 0.9992
0.99487 0.99563 0.964317
0.995521 0.994757 0.907427
0.995801 0.994902 0.820652
0.99556 0.995306 0.858035
0.994822 1.00499 1.00196
0.994758 0.994827 0.761028
0.994865 0.994844 0.795905
0.994864 0.994888 0.801932
0.994773 1.00039 0.987101
0.994821 0.995666 0.9297
0.997171 0.994881 0.873642
0.994852 1.0052 0.999857
0.99511 1.00488 0.999845
0.994897 1.00494 0.99951
0.998513 1.00488 0.991593
0.996762 1.00502 0.995332
0.994924 1.00492 0.998418
0.996909 1.00508 0.994485
0.995388 1.00459 0.99801
0.994833 1.005 0.998888
0.994744 1.00512 0.999625
0.995272 1.00511 0.998073
0.996072 1.00365 0.99688
0.999541 1.00035 0.994591
0.994896 1.0027 0.998537
0.994905 1.00492 0.998663
0.998808 1.00152 0.994775
1.00049 1.0011 0.994992
0.999788 1.00132 0.994916
1.00348 1.00122 0.987701
0.999796 1.00293 0.992655
1.00252 1.00265 0.987972
1.00483 1.00271 0.984662
1.00511 1.00173 0.984946
1.00505 1.00095 0.985901
1.00482 1.00149 0.985513
1.00319 1.00402 0.986833
1.00322 1.00254 0.987389
1.0038 1.00097 0.987414
1.00082 1.00373 0.991953
1.00038 1.0052 0.988442
1.00256 1.00517 0.985907
0.999669 1.00501 0.991569
1.00131 1.00506 0.98835
1.00098 1.00483 0.98809
1.00028 1.00497 0.990704
1.00036 1.00372 0.990508
1.00039 1.00048 0.994729
1.00039 1.00276 0.991641
1.00024 1.0002 0.994702
1.00039 0.997825 0.99681
0.999912 1.00007 0.995004
1.00014 0.997546 0.998253
1.00009 0.997436 0.99901
1.0014 1.00513 0.987403
1.00023 1.00362 0.990563
1.00082 1.00504 0.988717
1.00004 0.999799 0.995043
1.00003 1.0032 0.99154
1.00041 1.00472 0.989477
1.00002 0.997504 0.998997
1 0.999401 0.995502
0.999982 1.00247 0.992439
0.999996 0.997389 0.999061
0.99995 0.999281 0.995698
1.00001 0.99748 0.999
0.99478 0.994806 0.773202
0.994792 0.995835 0.792719
0.999547 0.995674 0.849254
1.00129 1.00513 0.987618
0.994774 0.994794 0.775695
0.994805 0.994783 0.7721
0.994854 0.99848 0.797453
0.997657 0.99467 0.965231
0.994826 0.994659 0.93153
0.994742 0.997839 0.842728
0.994844 0.99662 0.796257
0.995173 0.994724 0.955381
0.995058 0.994623 0.923808
0.994866 0.996958 0.842835
0.994933 0.995015 0.802476
0.994956 0.994713 0.948842
0.994821 0.994813 0.91961
0.996478 0.994904 0.860312
0.995125 0.994905 0.826664
0.998184 1.0041 0.993328
0.999334 1.00483 0.991131
0.998711 1.00385 0.992297
1.00151 1.00321 0.989552
1.00095 1.00499 0.988797
1.0001 1.00491 0.989964
1.00188 1.00509 0.987572
1.00144 1.00505 0.988102
0.998959 0.997156 0.987864
0.999904 1.00064 0.992429
0.997624 1.00457 0.9931
0.997377 1.00343 0.996218
0.996466 1.00343 0.998525
0.997221 1.00487 0.994709
0.996119 1.00441 0.99605
0.99657 0.999196 0.985778
0.995635 1.00498 0.997931
0.995012 1.00526 0.998383
0.996374 1.00284 0.997642
0.995037 1.00518 0.996706
0.995704 1.00345 0.983127
0.994705 1.00386 0.999237
0.994751 1.00532 0.999276
0.995024 1.00493 0.997799
0.994724 0.994798 0.759486
0.994719 0.994741 0.774421
0.994834 0.99464 0.784775
0.995994 1.00525 1.00025
0.995039 1.00168 0.997733
0.994747 0.994812 0.772901
0.99476 0.994804 0.923508
0.994862 0.995308 0.960209
0.995702 0.994903 0.857633
0.994779 0.994836 0.776709
0.994892 0.994892 0.814713
0.994865 1.00513 1.00172
0.994761 0.994824 0.761602
0.994877 0.994852 0.793273
0.994738 1.00111 0.99068
0.994879 0.994949 0.801676
0.994831 0.9967 0.923741
0.996554 0.995617 0.874625
0.994732 1.00451 0.996859
0.994832 0.994835 0.778757
0.994787 0.99481 0.777844
0.994862 0.997599 0.789702
0.996688 0.994895 0.860315
0.994803 1.00163 0.968833
0.994952 0.994898 0.916811
0.995327 1.00498 0.99966
0.994981 1.00523 0.999545
0.994676 1.00528 0.998334
0.996351 1.00512 0.994631
0.995352 1.00399 0.998135
0.994825 1.00495 0.998922
0.995351 1.00459 0.997982
0.994729 1.00516 0.999512
0.997103 1.00306 0.999604
0.994892 1.00479 0.998538
0.997108 1.00065 0.995277
0.999183 1.00112 0.995709
1.00127 1.00002 0.991624
0.996693 1.00235 0.997765
1.00274 1.00096 0.988617
1.00468 1.00399 0.98276
1.00466 1.00248 0.984704
1.00319 1.00237 0.987967
1.0049 1.00275 0.984088
1.00513 1.00186 0.98484
1.00515 1.00221 0.984632
1.00489 1.00183 0.984912
1.00417 1.00298 0.986638
1.00398 1.00184 0.985873
1.0046 1.00139 0.985538
1.00226 1.00517 0.98577
1.00223 1.00451 0.986743
1.00185 1.00349 0.987438
1.00132 1.0052 0.987779
1.00286 1.00489 0.985854
1.00198 1.00515 0.985938
1.00094 1.00514 0.988265
1.00125 1.00479 0.988081
1.00041 1.00152 0.992738
1.00117 1.00361 0.990495
1.00055 1.00035 0.993753
1.00016 0.997938 0.998624
1.00029 1.00018 0.994338
1.00029 0.997804 0.997827
1.00019 0.997702 0.998844
1.00119 1.00517 0.987319
1.00065 1.00397 0.989488
1.00125 1.00513 0.987648
1.00016 1.00012 0.994563
1.00028 1.00366 0.990451
1.00097 1.0051 0.988714
1.00004 0.997726 0.998891
1.00007 0.999731 0.995071
0.999967 1.00323 0.991311
1.00001 0.997473 0.999018
1 0.999389 0.995523
0.999988 0.997403 0.999065
0.99473 0.994801 0.767217
0.994767 0.994786 0.77358
0.994797 0.99646 0.791374
1.00151 1.00509 0.987815
1.00036 1.00514 0.98802
1.002 1.00326 0.990293
0.99488 0.994855 0.794626
0.9948 0.994798 0.776845
0.994784 0.994779 0.772314
0.995839 0.994726 0.956244
0.994877 0.994601 0.909147
0.994867 0.997401 0.860543
0.994892 0.994886 0.797336
0.995034 0.994753 0.951679
0.995179 0.994791 0.915329
0.995976 0.994917 0.861386
0.995558 0.9949 0.820856
0.994939 0.994952 0.951369
0.994773 0.996701 0.92481
0.996849 0.994905 0.87379
0.994898 0.994908 0.797854
0.997538 1.0034 0.994975
0.998276 1.00448 0.993379
0.999193 1.00505 0.991653
1.00107 1.00385 0.989407
1.00078 1.00508 0.988795
1.00179 1.00509 0.987579
0.996161 0.999834 0.986157
0.996463 1.003 0.997832
0.997202 1.00348 0.995415
0.995539 1.00516 0.998367
0.996641 1.00465 0.997824
0.995202 1.00525 0.996883
0.995254 1.00524 0.997601
0.995395 1.00239 0.983163
0.994691 1.00529 0.99932
0.994678 1.00483 0.997615
0.995216 1.00537 0.997958
0.994744 1.00271 0.982096
0.99474 1.00512 0.994625
0.995201 1.00415 0.998669
0.994854 0.994851 0.764115
0.994727 0.994802 0.759444
0.994707 0.994738 0.770742
0.994921 1.00524 1.00144
0.994742 1.00209 0.98598
0.994755 0.994821 0.762181
0.994809 0.996917 0.925201
0.996466 0.994885 0.861676
0.994888 0.994847 0.790676
0.994875 0.994876 0.796626
0.994718 1.00468 0.997366
0.994808 0.994838 0.777199
0.99481 0.994792 0.779184
0.994833 1.00231 0.964775
0.994835 0.997461 0.782652
0.995873 0.995259 0.860684
0.994858 0.99736 0.930392
0.994761 1.00519 0.98776
0.994749 0.994806 0.771018
0.994803 0.994777 0.772753
0.994909 1.00164 0.800033
0.994801 0.997371 0.833779
0.994809 0.994892 0.927876
0.994814 1.00178 0.958253
0.995186 1.00512 0.99947
0.994737 1.00515 0.998279
0.995121 1.00523 0.998109
0.995312 1.00415 0.99788
0.994726 1.00525 0.99924
0.996076 1.00297 1
0.998501 1.00289 0.998127
0.998061 1.00085 0.996379
1.00306 0.999639 0.990731
1.00181 1.00466 0.985994
1.00212 1.00106 0.990086
1.00438 1.00387 0.983189
1.00435 1.00349 0.98361
1.00521 0.999589 0.986104
1.00511 1.00144 0.985049
1.0048 1.00247 0.984547
1.00488 1.00291 0.98352
1.00507 1.00281 0.984322
1.00515 1.00156 0.98492
1.0052 1.00204 0.984858
1.00501 1.0026 0.984654
1.00469 1.00176 0.984875
1.00239 1.00313 0.987738
1.00343 1.00223 0.986487
1.00375 1.00253 0.985819
1.00265 1.00524 0.985068
1.00261 1.00519 0.985779
1.00107 1.00454 0.986663
1.0027 1.00495 0.985828
1.00263 1.00516 0.985939
1.00078 1.00253 0.991147
1.00216 1.00461 0.988036
1.00059 1.00139 0.992643
1.0003 0.998406 0.998452
1.00081 1.00009 0.993697
1.00038 0.997979 0.997656
1.00031 0.997719 0.998665
1.00235 1.0051 0.986912
1.00118 1.00448 0.988746
1.00166 1.00514 0.987275
1.00024 1.00053 0.994027
1.00063 1.00407 0.989658
1.00128 1.00513 0.987901
1.00007 0.997849 0.998785
1.00016 1.00006 0.994576
1.00047 1.00366 0.99034
1.00003 0.99765 0.998924
1.00009 0.999655 0.995096
1.00001 0.997453 0.999039
0.994836 0.994841 0.775574
0.994742 0.994818 0.76781
0.994778 0.994762 0.773516
1.00087 1.00528 0.987225
1.00326 1.00221 0.990951
1.00098 1.00498 0.988022
1.00088 1.00504 0.987925
1.0006 1.00185 0.991214
1.0014 1.00233 0.991279
0.998712 1.00101 0.99538
0.994831 0.994839 0.77757
0.994875 0.994853 0.791773
0.994829 0.994817 0.777832
0.99489 0.994895 0.814737
0.995113 0.994741 0.948666
0.994839 0.994832 0.911295
0.996114 0.995292 0.871047
0.995389 0.994858 0.949577
0.994808 0.996983 0.91086
0.996294 0.995128 0.873337
0.995187 0.994896 0.805609
0.994827 0.996098 0.953943
0.995196 0.998586 0.912298
0.995196 0.994907 0.849107
0.994846 0.996789 0.78133
0.995173 1.00542 0.997074
0.996868 1.00383 0.995725
0.997986 1.00447 0.993437
1.00043 1.00484 0.989251
0.995432 1.00191 0.983083
0.994643 1.00521 0.996141
0.995277 1.00534 0.997101
0.99576 1.00524 0.997623
0.994711 1.0053 0.999617
0.995281 1.00538 0.997931
0.995563 1.00419 0.999167
0.994757 1.00235 0.979139
0.994756 1.00523 0.994525
0.995719 1.00342 0.999742
0.996135 1.00062 0.973869
0.995374 1.00451 0.997351
0.994727 0.994821 0.763792
0.994831 0.994855 0.771608
0.994733 0.994821 0.759404
0.994634 1.00531 0.997878
0.994829 1.0017 0.969746
0.994785 0.994838 0.775589
0.994936 0.994886 0.917763
0.995784 0.99508 0.870885
0.994804 0.994813 0.780216
0.994815 0.997392 0.794136
0.994727 1.00505 0.989036
0.994737 0.994819 0.771744
0.994801 0.994811 0.772839
0.994822 1.002 0.958829
0.994893 1.00014 0.798813
0.994808 0.997354 0.840592
0.99484 0.994903 0.91401
0.99539 1.00394 0.982156
0.994811 0.994826 0.774811
0.994862 0.996264 0.781893
0.994727 0.999716 0.85241
0.994815 0.995 0.922444
0.994832 0.998857 0.95411
0.994719 1.00513 0.999133
0.99499 1.00517 0.998172
0.99499 1.00529 0.99778
0.994871 1.00265 1.0004
0.996862 1.00283 0.99866
1.0006 1.00201 0.993973
1.00482 0.99925 0.989852
1.00297 1.00494 0.985287
1.00431 1.00144 0.986154
1.0042 1.0038 0.983615
1.00447 1.0033 0.983651
1.0051 1.00097 0.985403
1.00543 0.996738 0.98835
1.00534 0.999055 0.986848
1.00521 0.99978 0.986126
1.0051 1.00176 0.98534
1.00515 1.00119 0.985095
1.00501 1.00241 0.984387
1.00528 1.00406 0.982892
1.00508 1.00281 0.984445
1.00528 1.00148 0.985006
1.00427 1.00224 0.987108
1.00412 1.00293 0.985435
1.00424 1.00337 0.984674
1.00369 1.00378 0.98566
1.00268 1.00294 0.987686
1.00315 1.00236 0.98633
1.0014 1.00252 0.989925
1.00306 1.00519 0.9852
1.00299 1.00516 0.985788
1.00276 1.00513 0.985939
1.00085 1.00234 0.991149
1.00032 0.999281 0.998067
1.00061 1.00139 0.992569
1.00031 0.99854 0.998334
1.00038 0.997796 0.998545
1.00349 1.00488 0.987056
1.00341 1.00516 0.98609
1.00165 1.00493 0.987647
1.00216 1.00481 0.986908
1.00013 1.00142 0.99335
1.00111 1.00466 0.988723
1.00178 1.00515 0.987226
1.00009 0.998201 0.99865
1.00019 1.00059 0.994045
1.00069 1.00425 0.98982
1.00005 0.997895 0.998814
1.00015 1.00008 0.994597
1.00003 0.997597 0.998958
0.994774 0.994842 0.763714
0.99482 0.994831 0.774109
0.994742 0.994818 0.768448
1.00183 1.00525 0.986775
1.00004 1.00241 0.991673
1.00294 1.00259 0.988142
0.998318 1.00492 0.99113
1.00225 0.998192 0.993184
1.00105 1.00512 0.987796
0.999746 1.00266 0.992289
1.00085 1.00277 0.991258
0.998713 0.999705 0.997872
0.999352 1.00165 0.996048
0.994779 0.994751 0.770765
0.994815 0.994841 0.778814
0.994865 0.99484 0.789121
0.99574 0.994879 0.808024
0.996384 0.994909 0.861682
0.995151 0.994865 0.947892
0.994743 0.996888 0.923901
0.994862 0.997132 0.948107
0.994866 0.998205 0.924539
0.995302 0.995128 0.858624
0.994867 0.997352 0.778326
0.994894 0.999994 0.949071
0.994883 0.995913 0.92391
0.994848 0.997383 0.8638
0.994814 1.00161 0.804105
0.998268 1.00051 0.99822
0.995382 1.00503 0.997367
0.997211 1.0035 0.996492
0.994783 1.00188 0.975525
0.994774 1.00526 0.993416
0.995311 1.00537 0.9978
0.994869 1.00406 0.999423
0.995505 1.00404 0.999695
0.994903 1.00373 0.998003
0.994826 1.00219 0.974766
0.994996 1.00212 1.00352
0.994762 1.00132 0.981927
0.994754 0.994761 0.781624
0.994742 0.994834 0.763389
0.994812 0.994848 0.779609
0.994759 1.00478 0.989156
0.99484 0.999516 0.956174
0.994745 0.994823 0.772438
0.994824 0.994901 0.925354
0.994809 0.997412 0.857791
0.994838 0.994802 0.773211
0.994886 0.998668 0.797974
0.995057 1.0041 0.983127
0.994816 0.994801 0.774694
0.994868 0.9973 0.784046
0.99485 0.998187 0.955719
0.994762 0.998794 0.858648
0.995196 0.994826 0.911851
0.994813 1.00257 0.981008
0.994775 0.995107 0.777627
0.99553 0.995853 0.866802
0.994802 0.9946 0.907013
0.994929 0.99507 0.954349
0.994855 1.0053 0.998271
0.994902 1.00529 0.997584
0.997765 1.00001 0.997193
0.995406 1.00281 0.999177
0.999555 1.00209 0.994826
1.00414 0.996215 0.993181
1.0041 1.00518 0.98456
1.00414 1.0014 0.986096
1.00504 0.996822 0.989158
1.00451 1.00328 0.983698
1.00503 1.00065 0.98543
1.00532 0.997143 0.988358
1.00545 0.994773 0.990438
1.00548 0.996214 0.988509
1.00542 0.996668 0.988383
1.00548 0.998743 0.987144
1.00534 0.999099 0.986787
1.0052 0.999913 0.986148
1.00534 1.00208 0.984414
1.00507 1.00146 0.985199
1.00511 1.00089 0.985143
1.0053 1.00495 0.983209
1.00441 1.0039 0.983471
1.00505 1.00248 0.98457
1.00263 1.00434 0.986703
1.00305 1.00277 0.987015
1.00272 1.00324 0.986023
1.00235 1.00346 0.989768
1.00304 1.00392 0.985812
1.00267 1.00283 0.987625
1.00061 1.00044 0.994284
1.00172 1.00285 0.990224
1.00312 1.0052 0.985344
1.00112 1.00225 0.991119
1.00044 0.99948 0.997921
1.00038 0.998885 0.998207
1.00245 1.00319 0.986449
1.00324 1.00511 0.985919
1.00108 1.00485 0.987428
1.00169 1.00514 0.987335
1.00225 1.00512 0.986146
1.00004 1.00188 0.992948
1.00147 1.00502 0.987652
1.00202 1.00515 0.986892
1.00008 0.998576 0.998498
1.00014 1.00121 0.993412
1.00087 1.00469 0.988701
1.00006 0.998112 0.998693
1.00017 1.00049 0.994062
1.00004 0.997824 0.998844
0.99475 0.994818 0.779169
0.994779 0.994834 0.764391
0.994794 0.994848 0.772306
1.0029 1.00525 0.98449
1.00134 1.00522 0.986404
0.999081 1.00263 0.992607
1.00029 1.00517 0.990403
1.00371 1.00121 0.987834
1.00144 0.99773 0.995628
1.00366 1.00067 0.98897
0.995484 1.00525 0.994893
0.99986 1.00316 0.991131
0.997754 0.996857 1.00014
0.997259 1.00278 0.99615
0.997428 1.00307 0.996077
0.994877 0.999859 0.801082
0.994792 0.994772 0.770601
0.9948 0.994847 0.779731
0.995188 0.997399 0.79279
0.995435 0.994896 0.857657
0.995157 0.998588 0.91266
0.995029 0.995753 0.949042
0.995491 0.999086 0.950411
0.99484 1.0002 0.802578
0.994832 0.996913 0.915198
0.994836 0.997139 0.843221
0.994844 0.996879 0.957509
0.994779 0.994796 0.925118
0.994734 0.998245 0.854354
0.998884 0.997217 1.00248
0.997899 1.00064 0.998184
0.995041 1.00542 0.997646
0.99481 1.00252 0.97538
0.994812 1.00275 0.998639
0.995551 1.00331 0.999752
0.995589 1.00007 1.00386
0.994989 1.00014 0.982173
0.99556 0.99609 0.995487
0.994787 0.994711 0.792135
0.994746 0.99478 0.780221
0.994771 0.994824 0.762611
0.994768 1.00472 0.983069
0.994842 0.999784 0.955403
0.994801 0.994799 0.774842
0.994834 0.994808 0.909678
0.994736 0.997701 0.841502
0.994866 0.999256 0.796641
0.994822 1.00433 0.980748
0.994803 0.996248 0.792306
0.994772 0.996581 0.845635
0.995234 0.99487 0.948187
0.995108 0.994605 0.923208
0.996106 0.997933 0.986955
0.998995 0.999897 0.834325
0.994844 0.994639 0.933287
0.994956 0.994706 0.945995
0.994842 1.00528 0.99745
0.997666 1.0012 0.996747
1.00106 0.9963 0.994649
0.998433 1.00264 0.995684
1.00318 0.997017 0.992938
1.00494 0.994635 0.992355
1.00405 1.00124 0.986042
1.00505 0.996639 0.989028
1.00524 0.995034 0.990431
1.00492 1.0002 0.985456
1.0053 0.99697 0.988271
1.00541 0.994739 0.990353
1.00535 0.994751 0.991049
1.00544 0.994801 0.990509
1.00544 0.994785 0.990438
1.00553 0.995903 0.98879
1.0055 0.996154 0.988682
1.00543 0.996607 0.988419
1.00554 0.998494 0.986889
1.00546 0.998572 0.987003
1.00534 0.999164 0.986721
1.00544 1.00302 0.982529
1.00537 1.00209 0.984332
1.00512 1.00118 0.985056
1.00368 1.00365 0.985188
1.00418 1.00471 0.983264
1.00386 1.00394 0.984051
1.00246 1.00348 0.987119
1.00315 1.00345 0.986573
1.00192 1.00296 0.986909
1.0002 1.0026 0.996847
1.00223 1.00359 0.987674
1.00345 1.00322 0.98592
1.00061 1.00006 0.997524
1.00179 1.00285 0.989441
1.00054 0.999526 0.997773
1.00446 1.00489 0.983793
1.00384 1.00275 0.986353
1.00227 1.0043 0.98611
1.00205 1.00515 0.987392
1.00268 1.00494 0.985912
1.00127 1.00456 0.98778
1.00039 1.00212 0.992359
1.00161 1.00516 0.98733
1.00247 1.00439 0.986202
1.00011 0.999077 0.998422
0.999993 1.00195 0.992935
1.00139 1.00518 0.987656
1.00004 0.998609 0.998545
1.00013 1.00129 0.993458
1.00003 0.99811 0.998732
0.994783 0.995244 0.78572
0.994762 0.99481 0.779262
0.994781 0.994827 0.765191
1.00283 1.0049 0.984889
1.0048 1.003 0.986017
1.00114 1.00444 0.987325
1.00006 1.00528 0.989639
1.00455 1.00083 0.987544
0.997011 0.998686 0.997809
0.998038 1.0026 0.994557
1.00171 1.00174 0.990276
1.0008 1.00118 0.992402
0.998734 1.00221 0.995015
0.997296 1.00299 0.996266
0.998658 1.0028 0.996057
0.994877 0.99853 0.841518
0.994827 0.99843 0.79584
0.994823 0.994791 0.771199
0.994868 0.999238 0.800607
0.994811 0.997316 0.860393
0.994841 0.996039 0.91333
0.994887 1.00031 0.948775
0.995112 0.997423 0.953069
0.994806 0.998841 0.859443
0.995056 0.994778 0.910327
0.994912 0.994825 0.959362
0.994895 0.994547 0.910934
0.998276 0.996634 1.00533
0.998863 0.997292 1.00215
0.997638 1.00073 0.998135
0.995227 1.00039 0.982434
0.996079 0.999226 1.00415
0.995514 0.996454 0.994919
0.995262 0.99468 0.992198
0.999306 0.999953 0.844319
0.994814 0.994679 0.788179
0.994741 0.994806 0.778662
0.994849 1.00403 0.981303
0.995017 0.994988 0.948876
0.99481 0.996299 0.790538
0.994886 0.994584 0.90957
0.994793 0.997584 0.864727
0.995948 0.998048 0.983239
0.998636 0.996393 0.84958
0.995776 0.994613 0.916773
0.995158 0.994741 0.947912
0.997414 0.996036 0.982513
0.997467 0.994878 0.932489
0.994898 0.994732 0.956757
0.997365 1.00222 0.996331
1.00062 0.996322 0.994583
1.00349 0.995651 0.992798
1.00232 0.997347 0.992703
1.00455 0.994656 0.992259
1.00515 0.994577 0.991368
1.00508 0.996547 0.9889
1.00523 0.995137 0.990297
1.0054 0.994619 0.990446
1.00524 0.996781 0.988182
1.00543 0.994732 0.990307
1.00537 0.994753 0.990681
1.00541 0.994828 0.990722
1.00535 0.99475 0.991014
1.00538 0.994766 0.99101
1.00538 0.994824 0.990853
1.00544 0.994818 0.990641
1.00543 0.994793 0.990438
1.00552 0.995983 0.989031
1.00554 0.995863 0.988837
1.00551 0.996087 0.988855
1.00558 1.00027 0.98497
1.00556 0.998568 0.986895
1.00545 0.998433 0.986866
1.00531 1.00335 0.982215
1.00546 1.00326 0.982718
1.00541 1.00212 0.984249
1.00257 1.00409 0.986328
1.00366 1.00408 0.985084
1.00328 1.00477 0.983334
1.00142 1.00164 0.996491
1.00268 1.00361 0.987154
1.00281 1.00341 0.986461
1.00076 1.00181 0.994873
1.00245 1.00326 0.987968
1.00087 1.00083 0.99714
1.00495 1.00401 0.982525
1.00406 1.00487 0.983733
1.00339 1.00319 0.98527
1.00419 1.00247 0.986256
1.00332 1.0042 0.986212
1.00212 1.00519 0.987042
1.00131 1.0025 0.99081
1.0017 1.00515 0.987292
1.00182 1.00512 0.985914
1.00026 0.998857 0.998131
1.00031 1.00212 0.992332
1.00168 1.00517 0.987327
1.00004 0.998756 0.998433
1.00009 1.00164 0.992963
1 0.998469 0.998593
0.997376 0.995366 0.851921
0.994808 0.995848 0.790886
0.994759 0.99481 0.779498
1.00312 1.00488 0.98529
1.00169 1.00513 0.987364
1.00455 1.0023 0.985332
1.00516 0.998934 0.987673
1.003 0.999869 0.990505
1.00068 1.00323 0.994231
1.00238 1.00045 0.991574
1.00146 1.00148 0.992593
1.00483 0.996935 0.990618
1.00179 0.999988 0.993114
1.00263 0.998915 0.992807
1.00022 1.00053 0.995176
0.999086 1.0027 0.996157
0.997395 0.994647 0.928028
0.996072 0.997678 0.848705
0.994776 0.996692 0.80117
0.99478 0.999124 0.843325
0.994782 0.994797 0.921289
0.995276 0.997702 0.957021
0.995094 0.994844 0.961752
0.994997 0.99459 0.926414
0.995544 0.994774 0.957142
0.997444 0.995199 1.00475
0.997619 0.99702 1.00546
0.998882 0.997314 1.00187
0.995309 0.996589 0.994607
0.996361 0.994839 0.993591
0.999473 0.997432 0.915734
0.999663 0.99645 0.854681
0.994836 0.994644 0.783988
0.996033 0.997371 0.978964
0.994974 0.994721 0.946359
0.999201 0.995653 0.84914
0.994811 0.99464 0.931753
0.99772 0.994978 0.982641
0.999268 0.994971 0.927996
0.99521 0.994736 0.953516
0.99966 0.994589 0.982571
0.998219 0.99472 0.965876
1.00025 0.996737 0.994458
1.00251 0.995301 0.992903
1.00488 0.994672 0.99173
1.00408 0.994688 0.992158
1.00505 0.99459 0.991287
1.00536 0.994671 0.990599
1.00521 0.995246 0.990162
1.00539 0.994642 0.990399
1.00541 0.994773 0.990381
1.00545 0.99473 0.99026
1.00537 0.994758 0.990693
1.0054 0.994796 0.990529
1.0054 0.994824 0.990682
1.00542 0.994846 0.990701
1.00535 0.994748 0.990978
1.00538 0.994758 0.991015
1.00538 0.994803 0.990962
1.00541 0.995036 0.990669
1.00538 0.994841 0.990841
1.00544 0.994835 0.990774
1.00551 0.998766 0.986677
1.00552 0.996071 0.988987
1.00553 0.995813 0.988882
1.00545 1.00399 0.981659
1.00557 1.00063 0.985014
1.00559 0.998622 0.986901
1.00332 1.00374 0.985429
1.00504 1.00396 0.982329
1.00547 1.00347 0.982911
1.00168 1.00162 0.996152
1.00287 1.00388 0.986199
1.00348 1.00445 0.985002
1.00146 1.00136 0.996388
1.00285 1.00347 0.987197
1.00129 1.0011 0.996606
1.00529 1.00216 0.985217
1.00513 1.00448 0.982658
1.00375 1.00495 0.982443
1.00399 1.00443 0.983661
1.00315 1.00421 0.984789
1.00235 1.00449 0.985436
1.00304 1.00356 0.986289
1.00185 1.00498 0.986929
1.00211 1.00335 0.988593
1.00046 1.00034 0.997468
1.00079 1.00289 0.990778
1.00134 1.00516 0.987197
1.00012 0.999412 0.998251
0.999836 1.00261 0.992242
1.00001 0.998883 0.998456
0.999917 0.994837 0.93332
0.999642 0.997822 0.848112
0.994817 0.995187 0.785288
1.00125 1.00513 0.987394
1.00498 1.00218 0.984654
1.00358 1.00031 0.989718
1.00504 0.999301 0.987308
1.00532 0.996819 0.988868
1.00492 0.996085 0.990531
1.00223 1.00001 0.992726
1.00487 0.997268 0.989872
1.00207 1.00044 0.992788
1.00439 0.99864 0.989648
1.00231 1.00047 0.990792
1.00302 0.998292 0.993916
1.00238 0.999845 0.993088
1.0009 0.999709 0.995315
0.99494 0.994705 0.957166
0.996029 0.994627 0.922764
0.994798 0.999082 0.866192
0.994808 0.994555 0.909618
0.994862 0.995278 0.962891
0.995575 0.99477 0.964175
0.998542 0.994666 0.989306
0.998697 0.994913 1.00323
0.997121 0.997264 1.0056
0.99718 0.994878 0.994976
0.999404 0.994709 0.955867
1.00081 0.994846 0.932357
0.999248 1.0023 0.833144
0.997778 0.994715 0.983094
0.995601 0.994741 0.954091
0.99815 0.994722 0.922828
0.999713 0.994639 0.983264
0.997676 0.994744 0.964454
1.00147 0.996056 0.986912
1.00417 0.994575 0.983316
1.00137 0.994692 0.993033
1.00419 0.994651 0.991877
1.0053 0.994815 0.990668
1.00493 0.994589 0.991206
1.00537 0.994656 0.990585
1.00544 0.994748 0.990444
1.00539 0.994662 0.990351
1.00542 0.994765 0.990394
1.0054 0.994811 0.990552
1.00537 0.99476 0.990705
1.00541 0.994799 0.990541
1.00541 0.994864 0.990676
1.0054 0.994819 0.990644
1.00542 0.994845 0.990689
1.00536 0.994868 0.990889
1.00539 0.994753 0.99102
1.00538 0.994796 0.990967
1.0054 0.995091 0.990756
1.00543 0.997062 0.988553
1.00542 0.995239 0.990394
1.00539 0.994853 0.990828
1.00543 1.00233 0.983189
1.00551 0.998914 0.986677
1.00553 0.99616 0.988945
1.00371 1.00332 0.985189
1.0053 1.00405 0.98171
1.00555 1.00102 0.985061
1.00229 1.00199 0.995581
1.00327 1.00383 0.985305
1.00469 1.00462 0.982428
1.0019 1.00191 0.995867
1.00311 1.00372 0.986056
1.00159 1.00152 0.996182
1.00548 0.9989 0.986635
1.0051 1.00214 0.984901
1.00543 1.00349 0.98316
1.00494 1.00408 0.98278
1.00481 1.00475 0.982275
1.00373 1.00513 0.983168
1.0043 1.00536 0.984332
1.00356 1.00417 0.985583
1.00245 1.00391 0.986795
1.00233 1.00472 0.986871
1.00171 1.00359 0.988607
1.00075 1.00164 0.996657
1.00028 0.999897 0.997732
1.00059 1.00292 0.990775
0.999997 0.999048 0.998328
0.994906 0.994763 0.96159
0.998009 0.995169 0.916536
0.999348 1.00143 0.863573
1.00547 0.995302 0.989766
1.0039 1.00063 0.988956
1.00497 0.999396 0.986946
1.0051 0.996391 0.990406
1.00536 0.996831 0.988955
1.00535 0.995678 0.989994
1.00473 0.997684 0.989159
1.00153 1.00049 0.992514
1.00448 0.997885 0.989679
1.00241 1.00082 0.989761
1.00342 0.999052 0.990217
1.00369 0.994452 0.99446
1.00196 0.997902 0.994458
1.00181 1.00022 0.99338
0.997568 0.994673 0.987497
0.995149 0.994698 0.955101
0.994984 0.99465 0.917627
0.994951 0.994746 0.964771
0.998557 0.994656 0.991283
0.999423 0.994963 1.00168
1.0046 0.994635 0.974226
1.00132 0.994748 0.952974
0.999779 0.997434 0.916302
0.99947 0.994701 0.983889
0.996196 0.994711 0.964376
1.00131 0.995385 0.987693
1.00261 0.994601 0.983961
1.0031 0.996107 0.989987
1.00552 0.994515 0.990496
1.00368 0.994659 0.992023
1.00531 0.994779 0.990639
1.00545 0.994948 0.990525
1.00538 0.994646 0.990571
1.00544 0.994763 0.990456
1.00541 0.994819 0.990699
1.00542 0.99476 0.990407
1.00541 0.994808 0.990534
1.00539 0.994867 0.990834
1.00541 0.994803 0.990552
1.00541 0.994866 0.990672
1.00536 0.9949 0.990888
1.00541 0.994845 0.990677
1.00537 0.994863 0.990859
1.00528 0.994884 0.991141
1.00537 0.99479 0.990971
1.00541 0.994964 0.990834
1.0054 0.99623 0.989779
1.00536 1.00133 0.984723
1.00546 0.997374 0.988277
1.00542 0.995437 0.990119
1.00391 1.00237 0.985778
1.00544 1.00252 0.983196
1.00551 0.999047 0.986676
1.00289 1.00167 0.995444
1.00365 1.0033 0.985231
1.00535 1.00422 0.981758
1.0024 1.00205 0.995518
1.0032 1.00386 0.985204
1.002 1.00215 0.995676
1.00551 0.996561 0.9886
1.00544 0.999012 0.986655
1.00561 1.00122 0.984745
1.00488 1.00247 0.984595
1.00536 1.00359 0.983125
1.00496 1.00457 0.981838
1.00534 1.00496 0.982113
1.00409 1.00481 0.983176
1.0027 1.00413 0.986049
1.00311 1.0047 0.985591
1.00246 1.00417 0.986883
1.00104 1.00281 0.996161
1.00143 1.00397 0.988617
1.00046 1.00157 0.996966
1.00009 1.00009 0.997964
0.998164 0.994717 0.985247
0.996309 0.994785 0.95553
1.00001 0.994832 0.932783
1.00543 0.994851 0.990118
1.00546 0.994755 0.990357
1.00547 0.995235 0.98985
1.00523 0.996753 0.990261
1.0054 0.996743 0.989049
1.00534 0.995757 0.990001
1.00541 0.995047 0.990113
1.00471 0.997232 0.989697
1.00339 1.00159 0.988727
1.00375 0.998274 0.990387
1.00527 0.994596 0.991325
1.00366 0.994695 0.992935
1.00265 0.994471 0.994437
1.0017 0.997562 0.995016
0.998698 0.994651 0.98731
0.995596 0.994735 0.954285
0.999524 0.994626 0.993373
1.0053 0.994599 0.989058
1.00443 0.994627 0.974104
0.999231 0.994799 0.954546
1.00171 0.99473 0.988347
1.00111 0.99463 0.984634
1.00367 0.995477 0.990265
1.00542 0.994529 0.990748
1.00555 0.99471 0.990936
1.0056 0.994605 0.991384
1.00531 0.994742 0.990612
1.00545 0.994876 0.99055
1.00545 0.99482 0.991014
1.00544 0.994775 0.990467
1.00542 0.994819 0.990702
1.00537 0.994853 0.991025
1.00541 0.994804 0.990516
1.00539 0.994868 0.990835
1.00536 0.994912 0.991016
1.00541 0.994867 0.990669
1.00536 0.9949 0.990888
1.00521 0.994925 0.991298
1.00537 0.994857 0.990828
1.00531 0.994884 0.991091
1.00537 0.995546 0.99056
1.00542 0.99484 0.990912
1.00539 0.996234 0.989754
1.00532 1.00039 0.98583
1.00394 1.00159 0.986655
1.00534 1.00131 0.984754
1.00548 0.997699 0.988001
1.00334 1.001 0.995392
1.00389 1.0024 0.985847
1.00547 1.00261 0.983206
1.00298 1.00164 0.995385
1.00359 1.00338 0.985268
1.00256 1.0022 0.995441
1.00543 0.995204 0.99013
1.00548 0.996488 0.988775
1.00544 0.999391 0.986534
1.00538 0.999106 0.986679
1.00554 1.0011 0.984681
1.00535 1.00427 0.981762
1.00546 1.00343 0.983088
1.00497 1.00474 0.981763
1.00274 1.00422 0.9856
1.00516 1.00372 0.983265
1.00269 1.00411 0.986158
1.00136 1.00276 0.995948
1.0023 1.00425 0.986973
1.00093 1.00242 0.996311
1.00028 1.0011 0.997261
1.00374 0.994764 0.991959
0.99774 0.994725 0.982541
0.995711 0.99479 0.957634
1.00546 0.994731 0.990225
1.00543 0.994882 0.99015
1.00536 0.99483 0.990764
1.00547 0.994768 0.990342
1.00547 0.9952 0.989924
1.00543 0.994688 0.990533
1.00534 0.995795 0.990004
1.00538 0.994889 0.990146
1.00531 0.994726 0.990957
1.00396 0.997497 0.990557
1.00529 0.994578 0.990897
1.00285 0.994859 0.993121
1.0013 0.994468 0.994442
0.999408 0.994625 0.986974
1.00551 0.994679 0.991641
1.00532 0.994579 0.989104
1.00409 0.99461 0.974091
1.00407 0.994819 0.990497
1.00546 0.994542 0.990985
1.00552 0.994711 0.990828
1.00565 0.994604 0.991561
1.00551 0.994753 0.991506
1.00544 0.9948 0.990576
1.00544 0.994818 0.991009
1.00538 0.994847 0.991313
1.00542 0.994818 0.990706
1.00537 0.994856 0.991023
1.00536 0.994901 0.991214
1.00539 0.994868 0.990836
1.00535 0.994912 0.991021
1.00522 0.994953 0.991399
1.00536 0.9949 0.990888
1.00523 0.994925 0.991285
1.00532 0.99511 0.991225
1.00535 0.994883 0.991041
1.00532 0.99563 0.990542
1.00534 0.999593 0.986676
1.00537 0.996241 0.989729
1.00531 1.00038 0.985856
1.00378 1.00127 0.989327
1.00369 0.999986 0.991409
1.00397 1.00157 0.987705
1.00531 1.00129 0.98478
1.00325 1.00091 0.995455
1.00387 1.00237 0.985906
1.00303 1.00159 0.995363
1.00533 0.994909 0.991054
1.00537 0.994836 0.990813
1.00543 0.995181 0.99026
1.00541 0.997548 0.988268
1.00547 0.996413 0.988951
1.00547 0.999184 0.986501
1.00539 1.00341 0.982462
1.00556 1.00114 0.984612
1.00545 1.00417 0.981698
1.00331 1.00384 0.985189
1.00506 1.00499 0.981681
1.00295 1.00412 0.985625
1.00207 1.00276 0.995583
1.00274 1.00408 0.986278
1.00136 1.00267 0.996045
1.0006 1.00248 0.996527
1.0054 0.994771 0.991482
1.00309 0.994796 0.991461
0.997742 0.99474 0.979734
1.00536 0.994823 0.990752
1.00545 0.994746 0.990187
1.00543 0.994839 0.990187
1.00534 0.99483 0.990811
1.00547 0.994778 0.990328
1.00537 0.994797 0.991092
1.0054 0.99468 0.990484
1.00534 0.994824 0.990175
1.00529 0.994712 0.991009
1.00529 0.99458 0.990465
1.00221 0.994601 0.993224
1.00548 0.994774 0.991501
1.00551 0.994678 0.991639
1.00536 0.994559 0.989153
1.00549 0.994708 0.990716
1.0057 0.994605 0.991737
1.00552 0.99475 0.991479
1.00539 0.994852 0.991571
1.00544 0.994815 0.991005
1.00538 0.994849 0.991273
1.00535 0.994895 0.991425
1.00537 0.994859 0.991021
1.00536 0.994902 0.991217
1.00525 0.994934 0.991504
1.00535 0.994913 0.991027
1.00522 0.994953 0.991401
1.00531 0.994946 0.991582
1.00525 0.994925 0.991271
1.0053 0.995156 0.991203
1.00538 0.998898 0.987429
1.00527 0.995713 0.990524
1.00535 0.999588 0.986688
1.00377 1.00085 0.989693
1.00531 1.00035 0.985886
1.00407 1.00107 0.989156
1.00343 0.999765 0.991709
1.00317 1.00033 0.993669
1.00424 1.00152 0.988519
1.00317 1.00082 0.995529
1.0053 0.994901 0.991056
1.00528 0.994895 0.991278
1.00533 0.994916 0.991087
1.00529 0.996138 0.989856
1.00536 0.994828 0.99087
1.00546 0.995165 0.99039
1.00539 0.997371 0.988308
1.00531 1.00193 0.984025
1.00544 0.998995 0.986473
1.00538 1.0035 0.982435
1.0037 1.00293 0.985654
1.00547 1.00395 0.98164
1.00333 1.00375 0.98519
1.00271 1.00215 0.995362
1.00308 1.00395 0.985661
1.00184 1.00249 0.99575
1.00124 1.00262 0.99609
1.00541 0.994807 0.991315
1.00536 0.994774 0.991529
1.00185 0.995258 0.991015
1.00533 0.994856 0.991103
1.00535 0.994817 0.990712
1.00546 0.994762 0.990153
1.00532 0.994838 0.990856
1.00539 0.994802 0.991026
1.00538 0.99467 0.990436
1.00528 0.994691 0.991058
1.00541 0.99484 0.991566
1.00547 0.994779 0.991491
1.00551 0.994672 0.991634
1.00535 0.994872 0.991644
1.00554 0.994747 0.991453
1.00539 0.994851 0.991561
1.00536 0.994895 0.991577
1.00538 0.99485 0.991233
1.00536 0.994895 0.99143
1.00526 0.994919 0.991635
1.00536 0.994903 0.991219
1.00525 0.994934 0.991511
1.00533 0.994943 0.991709
1.00522 0.994952 0.991403
1.00531 0.994954 0.991558
1.00537 0.998302 0.988179
1.00528 0.995197 0.99118
1.0054 0.9989 0.987429
1.00368 1.00058 0.990054
1.00537 0.999578 0.986701
1.00403 1.00071 0.98951
1.00324 0.999808 0.991894
1.00434 1.00087 0.988992
1.00282 0.999954 0.992171
1.00225 1.0007 0.996394
1.0053 0.994908 0.991155
1.00515 0.994922 0.991453
1.00532 0.994907 0.991078
1.00523 0.99624 0.990102
1.00525 0.994891 0.991242
1.00532 0.994922 0.991123
1.00534 1.00038 0.985733
1.00532 0.99606 0.989894
1.00534 0.994811 0.990929
1.00535 0.997236 0.988348
1.00532 1.00204 0.983995
1.00381 1.00186 0.986646
1.00544 1.0036 0.9824
1.00372 1.00285 0.985619
1.00288 1.00136 0.995509
1.00341 1.00372 0.985181
1.0026 1.00217 0.995434
1.00182 1.00236 0.995928
1.00534 0.994864 0.991436
1.0054 0.994801 0.991264
1.00533 0.994784 0.991576
1.00532 0.99486 0.991121
1.00534 0.994811 0.990673
1.00541 0.99481 0.99096
1.00535 0.994879 0.991651
1.00541 0.994846 0.991579
1.00545 0.994784 0.99148
1.00535 0.994874 0.991672
1.00534 0.994909 0.991665
1.00539 0.99485 0.991551
1.00535 0.994898 0.991588
1.00525 0.994921 0.991718
1.00536 0.994896 0.991434
1.00526 0.99492 0.991641
1.00534 0.994951 0.991771
1.00524 0.994935 0.991517
1.00533 0.994942 0.991695
1.00533 0.997822 0.988795
1.00532 0.994965 0.991534
1.00538 0.998295 0.98817
1.0035 1.00041 0.990458
1.00542 0.998903 0.98743
1.00391 1.00048 0.989876
1.00297 0.999922 0.992116
1.00427 1.00059 0.989335
1.0027 0.999888 0.99236
1.00222 1.00017 0.992616
1.00532 0.994901 0.991397
1.00517 0.994952 0.991463
1.00531 0.994902 0.991135
1.00528 0.99567 0.990643
1.00515 0.994933 0.991456
1.00533 0.994912 0.9911
1.00538 0.999463 0.986778
1.00528 0.995756 0.990464
1.00522 0.994888 0.991206
1.00382 1.00116 0.987379
1.00531 1.00045 0.985702
1.00536 0.995938 0.989932
1.00534 1.00213 0.983964
1.0038 1.00187 0.986572
1.00286 1.00076 0.995711
1.00369 1.0028 0.98558
1.00295 1.00143 0.995435
1.00241 1.00206 0.995541
1.00533 0.994897 0.991611
1.00534 0.994862 0.991395
1.00541 0.994796 0.991213
1.0053 0.994863 0.991138
1.00533 0.994916 0.991668
1.00535 0.994879 0.991658
1.00541 0.994852 0.991592
1.00535 0.994876 0.9917
1.00534 0.994907 0.991675
1.00524 0.994932 0.991864
1.00535 0.9949 0.991599
1.00525 0.994924 0.991764
1.00534 0.994949 0.991746
1.00526 0.99492 0.991647
1.00534 0.994952 0.991767
1.00531 0.997499 0.989179
1.00534 0.994942 0.991681
1.00534 0.997811 0.988782
1.00348 1.00024 0.988955
1.0054 0.998296 0.98816
1.00372 1.00035 0.989392
1.00245 1 0.996062
1.00413 1.0004 0.989699
1.00249 0.999945 0.992568
1.0022 0.999948 0.992807
1.00533 0.994916 0.991539
1.00519 0.994937 0.991565
1.00532 0.994904 0.991426
1.00528 0.994967 0.991496
1.00517 0.994945 0.99149
1.00532 0.994896 0.991115
1.00538 0.998045 0.988267
1.00528 0.995697 0.990626
1.00515 0.994944 0.991459
1.00381 1.00072 0.987874
1.00536 0.99903 0.987204
1.00533 0.99525 0.990824
1.00277 1.00039 0.995845
1.00382 1.00116 0.987333
1.00529 1.00052 0.985674
1.00379 1.0019 0.986504
1.00296 1.00081 0.995644
1.00304 1.00149 0.995391
1.00533 0.994922 0.991581
1.00533 0.994899 0.991601
1.00534 0.994858 0.991354
1.00522 0.994941 0.991932
1.00533 0.994913 0.991657
1.00535 0.994878 0.991664
1.00534 0.994906 0.991686
1.00524 0.994932 0.991866
1.00534 0.995283 0.991333
1.00525 0.994928 0.99181
1.00534 0.99514 0.991552
1.00531 0.996982 0.989795
1.00534 0.994952 0.991761
1.00532 0.997477 0.989169
1.00343 0.999961 0.989305
1.00535 0.997794 0.988771
1.00351 1.0002 0.988973
1.00232 1.00004 0.996114
1.00378 1.0003 0.988524
1.00225 1.00004 0.994514
1.00202 0.999943 0.993018
1.00533 0.994923 0.991597
1.00519 0.994941 0.991706
1.00533 0.994915 0.991541
1.00528 0.994968 0.991677
1.00519 0.994939 0.991586
1.00532 0.994906 0.991454
1.00535 0.997802 0.988664
1.00528 0.995287 0.991211
1.00517 0.994939 0.991517
1.00371 1.00054 0.988253
1.00538 0.997983 0.988335
1.00527 0.995723 0.99061
1.00264 1.00018 0.995937
1.0038 1.00075 0.987849
1.00532 0.998611 0.987636
1.00287 1.00039 0.995798
1.00382 1.00116 0.987281
1.00303 1.00084 0.995572
1.0052 0.994937 0.991895
1.00533 0.994921 0.991591
1.00534 0.9949 0.991591
1.00534 0.995328 0.991315
1.00522 0.994937 0.99192
1.00533 0.99491 0.991647
1.00525 0.994931 0.991868
1.00534 0.995333 0.991325
1.00531 0.996929 0.989787
1.00534 0.995343 0.991357
1.00531 0.997171 0.989562
1.00338 0.999744 0.989594
1.00532 0.997459 0.989158
1.00343 0.999967 0.989312
1.0022 1.00001 0.996194
1.00352 1.00017 0.988987
1.00227 1.00005 0.99614
1.00236 1.00002 0.992572
1.00519 0.99493 0.991886
1.00533 0.994923 0.991514
1.00528 0.994954 0.991773
1.00519 0.994942 0.991711
1.00533 0.994915 0.991544
1.00535 0.998289 0.988206
1.00528 0.994968 0.991678
1.00519 0.994941 0.991606
1.00361 1.00044 0.988557
1.00535 0.998095 0.988361
1.00528 0.995602 0.990927
1.00248 1.00014 0.995983
1.00369 1.0006 0.988238
1.00538 0.997922 0.988405
1.00274 1.00018 0.995903
1.00378 1.00079 0.987819
1.00298 1.00038 0.995756
1.00532 0.995387 0.991254
1.00521 0.994936 0.991921
1.00533 0.994921 0.991602
1.00533 0.997067 0.989641
1.00534 0.995377 0.991303
1.00523 0.994934 0.991908
1.00534 0.995386 0.991317
1.00531 0.996992 0.989793
1.00334 0.999617 0.989818
1.00531 0.997349 0.989332
1.00339 0.999736 0.989594
1.00212 0.999978 0.996277
1.00344 0.999969 0.989323
1.00215 1.00003 0.996232
1.00223 1.00006 0.996173
1.00529 0.994946 0.991874
1.00519 0.994931 0.991814
1.00533 0.994922 0.991431
1.00534 0.998166 0.98838
1.00529 0.994953 0.991773
1.00519 0.994943 0.991715
1.00351 1.00028 0.988888
1.00534 0.998316 0.988219
1.00528 0.994968 0.991679
1.00231 1.00018 0.996031
1.00358 1.00049 0.988552
1.00535 0.998392 0.988057
1.00255 1.00014 0.995969
1.00366 1.00067 0.98822
1.00287 1.00015 0.995862
1.00534 0.997803 0.988808
1.00532 0.995175 0.991546
1.00521 0.994936 0.991948
1.00329 0.999601 0.989925
1.00532 0.997105 0.989664
1.00534 0.995428 0.99129
1.00531 0.997052 0.989797
1.00335 0.999596 0.989811
1.00204 0.999956 0.996335
1.0034 0.999728 0.989592
1.00208 0.99998 0.996294
1.0021 1.00005 0.99626
1.00534 0.998041 0.988582
1.00529 0.994946 0.991831
1.00519 0.994932 0.991742
1.00358 1.00012 0.990672
1.00534 0.998195 0.988391
1.00529 0.994953 0.991773
1.00218 1.00017 0.996115
1.00348 1.00034 0.988889
1.00533 0.998348 0.988232
1.00238 1.00016 0.996015
1.00356 1.00054 0.988547
1.00263 1.00012 0.99595
1.00346 0.999619 0.989719
1.00533 0.99757 0.989125
1.00532 0.994945 0.991839
1.00194 0.999959 0.9964
1.00331 0.999569 0.989909
1.00532 0.997143 0.989688
1.00336 0.999571 0.989803
1.00201 0.999947 0.996359
1.00204 0.99999 0.996318
1.00366 0.99987 0.990876
1.00533 0.998048 0.988591
1.00529 0.994946 0.991788
1.00146 1.00019 0.996923
1.0034 1.00011 0.98924
1.00533 0.99822 0.988405
1.00221 1.00018 0.996091
1.00345 1.00039 0.988889
1.00243 1.00014 0.995998
1.00197 0.999808 0.993338
1.00347 0.999666 0.990431
1.00532 0.997352 0.98944
1.00197 0.999955 0.996401
1.00333 0.999546 0.989899
1.002 0.999943 0.996374
1.00126 1.00005 0.993909
1.00353 0.999797 0.990211
1.00533 0.998059 0.988598
1.00173 1.00014 0.99496
1.00337 1.00011 0.989268
1.00225 1.00017 0.996067
1.00197 0.999964 0.996382
1.0033 0.999662 0.989825
1.00195 0.99994 0.996393
1.0017 0.999934 0.995139
1.00338 0.999764 0.989609
1.00209 1.00015 0.996166
1.00195 1 0.996371
1.002 1.00004 0.996283

TENSORS stress float
0.00305705 -0.000213854 0.000349913
-0.000213854 0.00168948 -6.84844e-05
0.000349913 -6.84844e-05 0.00165897
0.00926955 0.000252868 0.000449448
0.000252868 0.00579647 6.31165e-05
0.000449448 6.31165e-05 0.00582011
0.00261067 -0.000140791 0.000135037
-0.000140791 0.00138786 -2.54488e-05
0.000135037 -2.54488e-05 0.00133887
0.00268418 -0.00011765 0.000314422
-0.00011765 0.00144096 -3.71057e-05
0.000314422 -3.71057e-05 0.00142673
0.00296606 -0.000185296 0.000337631
-0.000185296 0.00162774 -5.87254e-05
0.000337631 -5.87254e-05 0.00160183
0.00319101 -0.000227592 0.000368284
-0.000227592 0.00176984 -7.38392e-05
0.000368284 -7.38392e-05 0.00174055
0.00244207 -0.000296885 6.78312e-05
-0.000296885 0.00105435 -1.76389e-05
6.78312e-05 -1.76389e-05 0.000867281
0.00952176 0.000257102 -7.67101e-06
0.000257102 0.00595339 -4.28643e-06
-7.67101e-06 -4.28643e-06 0.00598282
0.00783818 0.000319256 0.000213073
0.000319256 0.00489963 2.66945e-05
0.000213073 2.66945e-05 0.00485903
0.00844711 0.000165113 0.000161476
0.000165113 0.00523564 1.41992e-05
0.000161476 1.41992e-05 0.0052105
0.00287572 0.000290024 0.000406363
0.000290024 0.00160196 7.14951e-05
0.000406363 7.14951e-05 0.00156991
0.000217862 0.000377637 2.6003e-05
0.000377637 -0.000336426 2.78074e-05
2.6003e-05 2.78074e-05 -0.000588299
0.00216088 -2.19502e-05 0.000297886
-2.19502e-05 0.0010923 6.60602e-06
0.000297886 6.60602e-06 0.00110246
0.00191247 1.50718e-05 8.78322e-05
1.50718e-05 0.000958301 4.33708e-06
8.78322e-05 4.33708e-06 0.000902601
0.00222783 -0.000134369 -9.04998e-05
-0.000134369 0.00115294 1.80447e-05
-9.04998e-05 1.80447e-05 0.00107415
0.00230976 -0.00011228 0.000100251
-0.00011228 0.00121502 -7.16682e-06
0.000100251 -7.16682e-06 0.00117374
0.00271467 -0.000135675 0.000147853
-0.000135675 0.00144835 -2.92381e-05
0.000147853 -2.92381e-05 0.00139815
0.00253944 -0.000138948 0.000120781
-0.000138948 0.0013487 -1.86524e-05
0.000120781 -1.86524e-05 0.00130144
0.00257095 -0.000331581 -5.48025e-05
-0.000331581 0.00113922 1.03994e-05
-5.48025e-05 1.03994e-05 0.00096441
0.00694413 -0.000184508 0.000399003
-0.000184508 0.00431395 -2.31113e-05
0.000399003 -2.31113e-05 0.00434815
0.00252098 -9.01734e-05 0.000304457
-9.01734e-05 0.00133528 -2.81592e-05
0.000304457 -2.81592e-05 0.00132579
0.00284553 -0.000150827 0.000326196
-0.000150827 0.00154656 -4.75617e-05
0.000326196 -4.75617e-05 0.00152703
0.00221147 -0.000211095 8.00841e-05
-0.000211095 0.000948263 -1.31745e-05
8.00841e-05 -1.31745e-05 0.000821117
0.00241529 -0.000278734 7.47032e-05
-0.000278734 0.00105496 -1.71131e-05
7.47032e-05 -1.71131e-05 0.000890097
0.00340614 -0.00021782 0.000389812
-0.00021782 0.00189125 -7.40097e-05
0.000389812 -7.40097e-05 0.00186773
0.00248851 -0.000321284 6.63635e-05
-0.000321284 0.00107191 -1.91701e-05
6.63635e-05 -1.91701e-05 0.000855108
0.00236929 -0.00058477 1.29353e-05
-0.00058477 0.000613578 -5.9011e-06
1.29353e-05 -5.9011e-06 0.000267672
0.009785 0.00026044 -0.000500081
0.00026044 0.00611099 -5.90673e-05
-0.000500081 -5.90673e-05 0.0061478
0.00527237 0.000234597 -0.000183457
0.000234597 0.00317526 -2.43798e-05
-0.000183457 -2.43798e-05 0.00314661
0.00573788 0.000198238 -0.000199003
0.000198238 0.00346355 -2.75584e-05
-0.000199003 -2.75584e-05 0.00343863
0.0100679 0.000207578 -7.09351e-06
0.000207578 0.00630871 -3.62991e-06
-7.09351e-06 -3.62991e-06 0.00634053
0.000242232 0.000360891 -4.2385e-07
0.000360891 -0.000314458 -1.21204e-06
-4.2385e-07 -1.21204e-06 -0.000564234
0.00230749 9.07762e-05 0.000313039
9.07762e-05 0.00118468 3.43168e-05
0.000313039 3.43168e-05 0.00117478
0.0025153 0.000187569 0.000340638
0.000187569 0.00134009 5.64052e-05
0.000340638 5.64052e-05 0.00131497
0.00318742 0.00032339 0.000193103
0.00032339 0.00156624 3.18659e-05
0.000193103 3.18659e-05 0.00143265
0.00926332 -0.000116234 9.6577e-05
-0.000116234 0.00581022 5.48296e-06
9.6577e-05 5.48296e-06 0.0057725
0.00350069 0.000448334 0.000215916
0.000448334 0.00181423 4.45855e-05
0.000215916 4.45855e-05 0.00163372
6.35426e-05 0.000332794 2.15505e-05
0.000332794 -0.000407323 3.83606e-05
2.15505e-05 3.83606e-05 -0.000667659
0.0018533 0.000690264 1.92028e-05
0.000690264 0.000352096 5.90264e-06
1.92028e-05 5.90264e-06 -0.000104838
0.00798317 -1.44384e-05 0.000338829
-1.44384e-05 0.0050551 4.74732e-05
0.000338829 4.74732e-05 0.0050624
0.00687129 9.9236e-05 2.45758e-06
9.9236e-05 0.00424853 -2.38653e-06
2.45758e-06 -2.38653e-06 0.00429305
0.00456459 0.000116507 -0.000150454
0.000116507 0.00271599 -8.12281e-06
-0.000150454 -8.12281e-06 0.00270733
0.00675061 5.88579e-05 0.000387585
5.88579e-05 0.00417004 5.86527e-06
0.000387585 5.86527e-06 0.00421635
0.00178096 9.34266e-05 8.91957e-05
9.34266e-05 0.000877346 7.64261e-06
8.91957e-05 7.64261e-06 0.000824755
0.00034665 2.31118e-05 1.16938e-05
2.31118e-05 -0.000246226 3.08056e-06
1.16938e-05 3.08056e-06 -0.000347925
0.00707269 0.000264158 0.000224114
0.000264158 0.00442253 2.43381e-05
0.000224114 2.43381e-05 0.00439453
0.00300029 0.000125628 0.000170878
0.000125628 0.00147366 1.37344e-05
0.000170878 1.37344e-05 0.00140403
0.0019237 -0.000112291 -0.000103384
-0.000112291 0.000982428 1.48939e-05
-0.000103384 1.48939e-05 0.000913639
0.00210051 -0.000150059 -0.000101708
-0.000150059 0.00108899 1.98598e-05
-0.000101708 1.98598e-05 0.0010084
0.00231234 -0.000101985 -7.86698e-05
-0.000101985 0.00118658 1.57918e-05
-7.86698e-05 1.57918e-05 0.00111104
0.00265755 -0.000330989 -0.00018374
-0.000330989 0.00118162 3.80017e-05
-0.00018374 3.80017e-05 0.00102528
0.00445018 -5.57075e-05 -0.000151807
-5.57075e-05 0.00264586 -1.211e-07
-0.000151807 -1.211e-07 0.00263957
0.00221701 -8.99322e-05 0.00010269
-8.99322e-05 0.00115273 -5.65593e-06
0.00010269 -5.65593e-06 0.00111754
0.00303431 -0.000120405 0.000158083
-0.000120405 0.00164514 -3.00788e-05
0.000158083 -3.00788e-05 0.00159471
0.00243279 -0.000125806 0.000108703
-0.000125806 0.0012875 -1.19505e-05
0.000108703 -1.19505e-05 0.00124317
0.00231623 -0.000191936 -4.37969e-05
-0.000191936 0.00100112 4.36625e-06
-4.37969e-05 4.36625e-06 0.000890696
0.00262319 -0.000371589 -6.29471e-05
-0.000371589 0.00116299 1.20991e-05
-6.29471e-05 1.20991e-05 0.00095844
0.00250654 -0.000290523 -4.9349e-05
-0.000290523 0.00110909 7.87382e-06
-4.9349e-05 7.87382e-06 0.000958258
0.00250208 -0.000595165 -9.9595e-06
-0.000595165 0.000700334 2.71742e-06
-9.9595e-06 2.71742e-06 0.000356001
0.00675523 -3.16073e-05 0.000385477
-3.16073e-05 0.00416925 -7.16706e-06
0.000385477 -7.16706e-06 0.00421684
0.00244013 -6.31953e-05 0.000298254
-6.31953e-05 0.00128388 -2.03361e-05
0.000298254 -2.03361e-05 0.00128061
0.00246197 -4.56486e-05 6.17342e-05
-4.56486e-05 0.00116931 -1.57043e-06
6.17342e-05 -1.57043e-06 0.00109058
0.00215768 -0.000163077 7.19523e-05
-0.000163077 0.000927487 -9.01208e-06
7.19523e-05 -9.01208e-06 0.000819971
0.00231742 -0.000247162 7.91085e-05
-0.000247162 0.00100128 -1.55978e-05
7.91085e-05 -1.55978e-05 0.000855721
0.00225636 -0.000373115 1.88903e-06
-0.000373115 0.00044494 -1.47865e-06
1.88903e-06 -1.47865e-06 0.000237543
0.00235164 -0.000524724 7.77689e-06
-0.000524724 0.000557077 -3.06491e-06
7.77689e-06 -3.06491e-06 0.000274035
0.00339783 -0.000196777 0.000397159
-0.000196777 0.00188669 -6.99625e-05
0.000397159 -6.99625e-05 0.00186389
0.00277213 -0.000301556 5.55647e-05
-0.000301556 0.0012969 -1.78428e-05
5.55647e-05 -1.78428e-05 0.00106525
0.00244597 -0.00067683 1.21313e-05
-0.00067683 0.000698232 -5.77106e-06
1.21313e-05 -5.77106e-06 0.000279983
0.00234557 -0.000772717 -2.61385e-06
-0.000772717 0.000328635 2.74924e-06
-2.61385e-06 2.74924e-06 -3.70711e-05
0.00840724 0.000376399 -0.000472456
0.000376399 0.00526261 -6.47316e-05
-0.000472456 -6.47316e-05 0.00527695
0.0099682 0.000170407 -0.000466151
0.000170407 0.00624709 -5.16877e-05
-0.000466151 -5.16877e-05 0.00628062
0.00910272 0.000306917 -0.000481252
0.000306917 0.00567912 -6.19436e-05
-0.000481252 -6.19436e-05 0.00571032
0.000219536 0.000350476 -2.41816e-05
0.000350476 -0.000318618 -2.80862e-05
-2.41816e-05 -2.80862e-05 -0.000569406
0.00777175 0.000299311 -2.67644e-06
0.000299311 0.00484329 -3.13945e-06
-2.67644e-06 -3.13945e-06 0.00486581
0.00851293 0.000356533 -7.19396e-06
0.000356533 0.00531748 -4.53089e-06
-7.19396e-06 -4.53089e-06 0.00533337
0.000382755 0.000226191 -2.93135e-07
0.000226191 -0.000300599 -4.35327e-07
-2.93135e-07 -4.35327e-07 -0.000483734
0.00595065 4.29728e-05 -0.000204607
4.29728e-05 0.00364058 -1.88358e-05
-0.000204607 -1.88358e-05 0.00360726
0.000363263 0.000324394 8.47287e-07
0.000324394 -0.000270983 -3.3785e-07
8.47287e-07 -3.3785e-07 -0.000501107
0.00195588 0.000384695 0.000105066
0.000384695 0.000852507 9.45188e-06
0.000105066 9.45188e-06 0.000631675
0.00172436 0.000705428 -9.32562e-07
0.000705428 0.000240163 2.39923e-07
-9.32562e-07 2.39923e-07 -0.000227272
0.0090512 1.71108e-05 0.000387863
1.71108e-05 0.00572936 5.32267e-05
0.000387863 5.32267e-05 0.0057397
0.000709355 0.000290891 3.43819e-05
0.000290891 3.60774e-05 1.98824e-05
3.43819e-05 1.98824e-05 -0.00010831
0.000522014 0.000182442 1.48707e-05
0.000182442 -0.000208765 1.26752e-05
1.48707e-05 1.26752e-05 -0.00036807
0.00050915 0.000266801 1.82685e-05
0.000266801 -0.000210468 2.29282e-05
1.82685e-05 2.29282e-05 -0.000412788
0.00182869 0.000510231 1.07952e-05
0.000510231 0.000137251 4.68296e-06
1.07952e-05 4.68296e-06 -0.000154595
0.00337568 0.000412988 0.000230706
0.000412988 0.00181598 4.54914e-05
0.000230706 4.54914e-05 0.00164263
0.00174205 0.00063785 2.01603e-05
0.00063785 0.000186375 6.62998e-06
2.01603e-05 6.62998e-06 -0.000215152
0.0016878 0.000690283 2.55588e-05
0.000690283 0.000365125 3.29397e-06
2.55588e-05 3.29397e-06 -0.000161247
0.00216162 0.000919959 -8.66877e-06
0.000919959 0.000305355 -7.78645e-06
-8.66877e-06 -7.78645e-06 -0.000216392
0.00724475 -0.000166281 0.000224749
-0.000166281 0.00460732 3.08249e-05
0.000224749 3.08249e-05 0.00458357
0.0077775 -0.000119507 1.16347e-05
-0.000119507 0.00493337 5.81203e-06
1.16347e-05 5.81203e-06 0.00492265
0.00733212 0.000102611 -0.000408351
0.000102611 0.0045353 -2.53208e-05
-0.000408351 -2.53208e-05 0.0045772
0.00695868 9.23215e-05 -0.000399083
9.23215e-05 0.00430115 -1.5642e-05
-0.000399083 -1.5642e-05 0.00434707
0.0068292 8.45182e-05 -5.16358e-07
8.45182e-05 0.00422543 -4.82925e-06
-5.16358e-07 -4.82925e-06 0.00426989
0.00442758 6.07266e-05 -0.000160668
6.07266e-05 0.00262304 -1.00709e-05
-0.000160668 -1.00709e-05 0.0026212
0.0014719 5.24526e-05 7.66193e-05
5.24526e-05 0.00049768 2.72157e-06
7.66193e-05 2.72157e-06 0.000419693
0.00479183 0.000181341 -0.000155119
0.000181341 0.00287156 -1.09195e-05
-0.000155119 -1.09195e-05 0.00285278
0.00162581 0.000135875 7.78453e-05
0.000135875 0.000560271 4.9008e-06
7.78453e-05 4.9008e-06 0.000460407
0.00678062 9.84659e-05 0.000390608
9.84659e-05 0.00419983 6.97158e-06
0.000390608 6.97158e-06 0.00424057
0.000181166 1.13994e-05 1.39242e-05
1.13994e-05 -0.000344467 1.81879e-06
1.39242e-05 1.81879e-06 -0.000441206
0.00290769 7.30553e-05 0.00016892
7.30553e-05 0.00143283 9.65938e-06
0.00016892 9.65938e-06 0.00137542
0.00159685 0.000118558 6.65459e-06
0.000118558 -6.38051e-05 1.48882e-06
6.65459e-06 1.48882e-06 -0.000185527
0.00290746 0.000188761 0.000175692
0.000188761 0.00139204 1.76304e-05
0.000175692 1.76304e-05 0.00130389
0.00165403 0.000251033 4.9009e-06
0.000251033 -5.17326e-05 1.72661e-06
4.9009e-06 1.72661e-06 -0.000210449
0.0021666 2.62209e-05 -0.000297249
2.62209e-05 0.00109068 6.32137e-06
-0.000297249 6.32137e-06 0.00110415
0.00187997 -4.25607e-05 -8.95313e-05
-4.25607e-05 0.000942588 6.01475e-06
-8.95313e-05 6.01475e-06 0.000884443
0.00255972 -7.99381e-05 -7.63586e-05
-7.99381e-05 0.00133893 1.51997e-05
-7.63586e-05 1.51997e-05 0.00126184
0.00198906 -0.000132369 -0.000106983
-0.000132369 0.00102262 1.82564e-05
-0.000106983 1.82564e-05 0.000948231
0.00244289 -0.000171292 -0.000161799
-0.000171292 0.00106953 1.75756e-05
-0.000161799 1.75756e-05 0.00097578
0.00262285 -0.000274807 -0.000175476
-0.000274807 0.00116733 3.10221e-05
-0.000175476 3.10221e-05 0.00103616
0.00283767 -0.000405567 -0.000193873
-0.000405567 0.00131064 4.24761e-05
-0.000193873 4.24761e-05 0.001117
0.00263216 -0.000607877 -2.97413e-05
-0.000607877 0.000783691 9.82036e-06
-2.97413e-05 9.82036e-06 0.000439998
0.00683274 -0.000131233 2.57027e-06
-0.000131233 0.00423733 -2.24761e-06
2.57027e-06 -2.24761e-06 0.00427542
0.00212394 -2.19321e-06 0.000108955
-2.19321e-06 0.00107789 -6.6844e-06
0.000108955 -6.6844e-06 0.00105628
0.00124248 -3.3015e-05 -7.94035e-05
-3.3015e-05 0.000342218 3.74577e-06
-7.94035e-05 3.74577e-06 0.000266976
0.00224023 -0.000130427 -4.52496e-05
-0.000130427 0.000967544 4.82959e-06
-4.52496e-05 4.82959e-06 0.000875608
0.00663411 -0.0002007 0.000385447
-0.0002007 0.00403316 -4.51732e-05
0.000385447 -4.51732e-05 0.00403607
0.00312968 -0.00037667 -6.09701e-05
-0.00037667 0.00154904 8.39018e-06
-6.09701e-05 8.39018e-06 0.00133733
0.00241239 -0.000242447 -4.54179e-05
-0.000242447 0.00105278 5.69621e-06
-4.54179e-05 5.69621e-06 0.000923045
0.00230289 -0.000376527 -8.37341e-06
-0.000376527 0.000469629 1.37565e-06
-8.37341e-06 1.37565e-06 0.000270049
0.00268479 -0.000708856 -7.27474e-06
-0.000708856 0.000868735 2.22538e-06
-7.27474e-06 2.22538e-06 0.000444323
0.00236458 -0.000524875 -1.1491e-05
-0.000524875 0.000567234 3.66954e-06
-1.1491e-05 3.66954e-06 0.000279276
0.00237472 -0.000775659 1.0891e-06
-0.000775659 0.000352596 -1.36191e-07
1.0891e-06 -1.36191e-07 -1.4383e-05
0.000215316 -4.03041e-06 1.49137e-05
-4.03041e-06 -0.000332974 9.9629e-08
1.49137e-05 9.9629e-08 -0.00042708
0.00211059 -5.13168e-05 6.41174e-05
-5.13168e-05 0.000905605 -3.51361e-06
6.41174e-05 -3.51361e-06 0.000821072
0.00212934 -0.000134708 1.74705e-06
-0.000134708 0.000327912 8.50033e-08
1.74705e-06 8.50033e-08 0.000220085
0.00223565 -0.00029695 2.00428e-07
-0.00029695 0.000416979 -4.12038e-07
2.00428e-07 -4.12038e-07 0.000257417
0.00230937 -0.000453827 3.83113e-06
-0.000453827 0.000498739 -1.83657e-06
3.83113e-06 -1.83657e-06 0.000263778
0.00239633 -0.000500338 3.32923e-06
-0.000500338 0.000195337 -1.90292e-06
3.32923e-06 -1.90292e-06 2.23084e-05
0.00963289 -0.000120125 0.000419162
-0.000120125 0.0060446 -4.74319e-05
0.000419162 -4.74319e-05 0.00606981
0.00227901 -0.000692709 9.20746e-07
-0.000692709 0.00020682 1.32959e-06
9.20746e-07 1.32959e-06 -8.86893e-05
7.21625e-05 -0.000287107 1.86692e-05
-0.000287107 -0.00042747 -3.22902e-05
1.86692e-05 -3.22902e-05 -0.000656925
0.00152578 -0.000742929 -5.47078e-06
-0.000742929 0.000120831 -2.19576e-06
-5.47078e-06 -2.19576e-06 -0.000393629
0.00246561 -0.000858345 -7.29019e-06
-0.000858345 0.000493116 4.54827e-06
-7.29019e-06 4.54827e-06 4.9642e-05
0.00248717 -0.000858416 -1.74035e-07
-0.000858416 0.000328563 -1.42401e-06
-1.74035e-07 -1.42401e-06 -2.03704e-06
0.000339545 -0.000276316 2.35776e-05
-0.000276316 -0.000202906 -2.78034e-05
2.35776e-05 -2.78034e-05 -0.00039992
0.0018707 -0.00034894 4.22492e-06
-0.00034894 0.000841238 1.56428e-06
4.22492e-06 1.56428e-06 0.000473917
0.00800089 0.000330202 -0.000459789
0.000330202 0.00499709 -5.60194e-05
-0.000459789 -5.60194e-05 0.00501731
0.00874971 0.000361907 -0.000477267
0.000361907 0.00547004 -6.60558e-05
-0.000477267 -6.60558e-05 0.00549049
0.000350067 0.000227665 -1.6822e-05
0.000227665 -0.000322205 -1.61716e-05
-1.6822e-05 -1.61716e-05 -0.000507663
0.00930517 7.79762e-05 -0.000407667
7.79762e-05 0.00584648 -4.42495e-05
-0.000407667 -4.42495e-05 0.00587191
0.000145135 0.000311332 -2.49997e-05
0.000311332 -0.000346558 -3.27947e-05
-2.49997e-05 -3.27947e-05 -0.000584685
0.000280046 0.000316684 -1.93158e-05
0.000316684 -0.000324565 -2.52172e-05
-1.93158e-05 -2.52172e-05 -0.000556647
0.00150808 0.000709307 -2.18359e-05
0.000709307 7.27998e-05 -5.74805e-06
-2.18359e-05 -5.74805e-06 -0.000403585
0.00878823 2.89148e-05 -1.39967e-05
2.89148e-05 0.00554909 -4.55131e-08
-1.39967e-05 -4.55131e-08 0.00556421
0.000826453 0.000253026 3.33997e-07
0.000253026 0.00010844 1.30755e-06
3.33997e-07 1.30755e-06 -3.31415e-05
0.0018233 0.000235023 8.42127e-05
0.000235023 0.00065533 8.78223e-06
8.42127e-05 8.78223e-06 0.000516077
0.00194755 0.000334024 9.21156e-05
0.000334024 0.000753158 1.18011e-05
9.21156e-05 1.18011e-05 0.000569728
0.00176233 0.000505883 -3.47163e-07
0.000505883 9.76626e-05 -2.77995e-07
-3.47163e-07 -2.77995e-07 -0.000194955
6.16839e-05 0.000287959 2.45423e-06
0.000287959 -0.000383117 -1.14723e-06
2.45423e-06 -1.14723e-06 -0.000606397
0.00181237 0.000642137 3.1122e-07
0.000642137 0.00023586 -1.20499e-07
3.1122e-07 -1.20499e-07 -0.000167499
0.00130929 0.00066251 1.47256e-07
0.00066251 9.91477e-05 -1.82566e-06
1.47256e-07 -1.82566e-06 -0.000420854
0.00231398 0.000938928 4.67411e-07
0.000938928 0.000406688 8.47012e-07
4.67411e-07 8.47012e-07 -0.000113882
0.000590965 0.000262744 1.91868e-05
0.000262744 -3.27038e-05 2.97205e-05
1.91868e-05 2.97205e-05 -0.000229621
0.000721418 0.000200283 2.61873e-05
0.000200283 9.47079e-05 2.07075e-05
2.61873e-05 2.07075e-05 -4.63749e-05
-0.00137375 0.000432564 1.42682e-05
0.000432564 -0.00114138 -1.19678e-05
1.42682e-05 -1.19678e-05 -0.00152693
0.00183598 0.000436651 8.89819e-06
0.000436651 0.000103276 3.25959e-06
8.89819e-06 3.25959e-06 -0.000140308
0.00179524 0.000571958 1.58546e-05
0.000571958 0.000148 6.15615e-06
1.58546e-05 6.15615e-06 -0.000194039
0.00235422 0.000711038 2.02918e-06
0.000711038 0.000232275 -4.52147e-07
2.02918e-06 -4.52147e-07 -5.87749e-05
0.00115999 0.000563174 2.24047e-05
0.000563174 0.000207031 -9.48431e-07
2.24047e-05 -9.48431e-07 -0.000287081
0.00269077 0.000936419 -6.12324e-06
0.000936419 0.000622809 -5.09307e-06
-6.12324e-06 -5.09307e-06 0.000166463
0.00278716 0.00118737 -1.29377e-05
0.00118737 0.000891832 -1.06335e-05
-1.29377e-05 -1.06335e-05 0.00017426
0.00210259 0.000924295 -1.06393e-05
0.000924295 0.000127311 -5.48635e-06
-1.06393e-05 -5.48635e-06 -0.000349444
0.00607216 -0.000152741 0.000175473
-0.000152741 0.00381792 2.05383e-05
0.000175473 2.05383e-05 0.00379908
0.00684619 -0.000170447 3.03502e-06
-0.000170447 0.00432936 3.16243e-06
3.03502e-06 3.16243e-06 0.00430641
0.00762922 -0.000154632 -0.000229802
-0.000154632 0.00482017 -1.92038e-05
-0.000229802 -1.92038e-05 0.00480649
0.000824754 -0.000302802 2.90958e-05
-0.000302802 0.000157738 -2.66383e-05
2.90958e-05 -2.66383e-05 -1.64148e-05
0.00885952 -4.82447e-05 0.000361542
-4.82447e-05 0.00558891 -4.37838e-05
0.000361542 -4.37838e-05 0.00560218
0.00762227 0.000261748 -0.000440545
0.000261748 0.00474345 -4.41022e-05
-0.000440545 -4.41022e-05 0.00477269
0.00706354 0.000127006 -0.000400845
0.000127006 0.00436784 -2.19336e-05
-0.000400845 -2.19336e-05 0.00441013
0.000267024 0.000135184 -1.48829e-05
0.000135184 -0.00034443 -7.71517e-06
-1.48829e-05 -7.71517e-06 -0.000470359
0.000175422 5.38143e-05 -1.40395e-05
5.38143e-05 -0.000361717 -3.92506e-06
-1.40395e-05 -3.92506e-06 -0.000465149
0.0067752 4.64235e-06 -0.000385517
4.64235e-06 0.0041815 -4.8864e-06
-0.000385517 -4.8864e-06 0.00422908
0.00672092 -8.09646e-06 6.11348e-08
-8.09646e-06 0.00414673 -1.46739e-06
6.11348e-08 -1.46739e-06 0.0041948
0.000161705 5.45693e-06 -5.00965e-08
5.45693e-06 -0.000361244 2.47356e-07
-5.00965e-08 2.47356e-07 -0.000456642
0.00152337 7.05902e-05 7.74178e-05
7.05902e-05 0.000511586 4.17202e-06
7.74178e-05 4.17202e-06 0.000427102
0.00159629 0.000121111 1.15896e-07
0.000121111 -5.07322e-05 -4.33934e-08
1.15896e-07 -4.33934e-08 -0.000173357
0.000364534 0.00014599 -9.12686e-07
0.00014599 -0.000296408 -3.2237e-07
-9.12686e-07 -3.2237e-07 -0.00043796
0.00167126 0.00025197 -1.75668e-07
0.00025197 -1.55627e-05 1.70203e-08
-1.75668e-07 1.70203e-08 -0.000175428
0.000159596 -3.22765e-05 1.47605e-05
-3.22765e-05 -0.000364126 -8.82523e-08
1.47605e-05 -8.82523e-08 -0.00045657
0.00155892 5.55138e-05 5.56882e-06
5.55138e-05 -7.51741e-05 1.02502e-06
5.56882e-06 1.02502e-06 -0.000189264
0.0016112 0.000185738 5.70005e-06
0.000185738 -6.48398e-05 1.85074e-06
5.70005e-06 1.85074e-06 -0.000201229
0.00240566 0.000183738 3.97963e-06
0.000183738 0.000107665 8.91914e-07
3.97963e-06 8.91914e-07 6.398e-05
0.00174974 0.000343242 7.09049e-06
0.000343242 2.01347e-05 2.22668e-06
7.09049e-06 2.22668e-06 -0.000176407
0.00241899 0.000384101 4.70801e-06
0.000384101 0.000153882 1.30427e-06
4.70801e-06 1.30427e-06 5.39315e-05
0.00674987 -9.48753e-05 -0.000388914
-9.48753e-05 0.00417705 7.46443e-06
-0.000388914 7.46443e-06 0.00421877
0.00178199 -0.000169508 -8.90594e-05
-0.000169508 0.000904953 1.26215e-05
-8.90594e-05 1.26215e-05 0.000836883
-6.82226e-05 -1.93352e-05 -8.77505e-06
-1.93352e-05 -0.000526619 1.20426e-06
-8.77505e-06 1.20426e-06 -0.000631692
0.00234983 -0.000121339 -0.000156744
-0.000121339 0.00102918 1.26131e-05
-0.000156744 1.26131e-05 0.000951443
0.00968174 6.24907e-05 -0.000117014
6.24907e-05 0.00602041 6.17113e-06
-0.000117014 6.17113e-06 0.00598961
0.00346312 -0.000444307 -0.00020265
-0.000444307 0.00179018 4.60711e-05
-0.00020265 4.60711e-05 0.00159074
0.00253966 -0.000223123 -0.000168176
-0.000223123 0.00111978 2.38073e-05
-0.000168176 2.38073e-05 0.00100819
0.00234122 -0.000379139 -2.14659e-05
-0.000379139 0.000488474 4.21889e-06
-2.14659e-05 4.21889e-06 0.000296957
0.00235418 -0.000523363 -2.65331e-05
-0.000523363 0.000559725 9.15005e-06
-2.65331e-05 9.15005e-06 0.000267335
0.00278981 -0.000721347 -3.42232e-05
-0.000721347 0.000949822 1.16827e-05
-3.42232e-05 1.16827e-05 0.000525458
0.00241827 -0.000777184 2.24788e-06
-0.000777184 0.000392935 -2.30797e-06
2.24788e-06 -2.30797e-06 2.53574e-05
0.000171419 -5.97871e-06 8.10782e-08
-5.97871e-06 -0.000358562 4.35639e-07
8.10782e-08 4.35639e-07 -0.000453241
0.00219681 -0.000121629 -4.39518e-05
-0.000121629 0.000970495 1.37059e-06
-4.39518e-05 1.37059e-06 0.000889018
0.00196707 -0.000132489 -1.30288e-05
-0.000132489 0.000211837 7.53668e-07
-1.30288e-05 7.53668e-07 0.000103928
0.0022255 -0.00029353 -1.265e-05
-0.00029353 0.000406116 2.20766e-06
-1.265e-05 2.20766e-06 0.000241453
0.00976965 -0.000118078 4.91926e-06
-0.000118078 0.00612793 -1.4735e-06
4.91926e-06 -1.4735e-06 0.00615307
0.00185356 -0.000315783 1.41032e-05
-0.000315783 0.00076441 7.89441e-07
1.41032e-05 7.89441e-07 0.000527753
0.0021525 -0.000741136 6.94693e-06
-0.000741136 0.000551838 -2.98051e-06
6.94693e-06 -2.98051e-06 6.14365e-05
0.00237823 -0.000460373 -1.15706e-05
-0.000460373 0.000545198 3.23237e-06
-1.15706e-05 3.23237e-06 0.000308707
0.00238574 -0.000502906 3.09251e-06
-0.000502906 0.000180562 -1.00356e-06
3.09251e-06 -1.00356e-06 2.05976e-05
0.00246551 -0.00085539 2.06041e-06
-0.00085539 0.000497445 -3.62363e-07
2.06041e-06 -3.62363e-07 5.66736e-05
0.00228113 -0.000687855 3.84269e-07
-0.000687855 0.000210908 3.63547e-07
3.84269e-07 3.63547e-07 -8.80004e-05
0.0024349 -0.000851801 -2.42046e-07
-0.000851801 0.000296085 9.8631e-07
-2.42046e-07 9.8631e-07 -3.34262e-05
0.000230793 -0.000296314 1.67175e-06
-0.000296314 -0.000274453 -2.30613e-07
1.67175e-06 -2.30613e-07 -0.00047349
0.000810834 -0.000369631 -1.18682e-06
-0.000369631 0.000204326 1.59641e-07
-1.18682e-06 1.59641e-07 -0.000194936
0.00154486 -6.25603e-05 4.93605e-06
-6.25603e-05 -6.58149e-05 -1.50244e-07
4.93605e-06 -1.50244e-07 -0.000181844
0.00232064 -0.000214692 3.76201e-07
-0.000214692 0.000459958 -1.77142e-07
3.76201e-07 -1.77142e-07 0.000334683
0.0022294 -0.000193205 3.86664e-06
-0.000193205 -1.0393e-05 -8.24521e-07
3.86664e-06 -8.24521e-07 -7.63446e-05
0.00227531 -0.000404607 1.52174e-06
-0.000404607 5.01082e-05 -9.08474e-07
1.52174e-06 -9.08474e-07 -5.66552e-05
0.00222218 -0.000609045 6.04367e-07
-0.000609045 0.000101952 -9.36383e-07
6.04367e-07 -9.36383e-07 -0.000125575
0.00245632 -0.000518485 5.17463e-06
-0.000518485 0.000165754 -1.60428e-06
5.17463e-06 -1.60428e-06 6.556e-05
0.000165806 -0.000269299 1.72144e-05
-0.000269299 -0.00033986 -3.20343e-05
1.72144e-05 -3.20343e-05 -0.000558911
0.00252411 -0.000768104 1.73772e-06
-0.000768104 0.000273108 -2.0936e-06
1.73772e-06 -2.0936e-06 3.51229e-05
0.00146492 -0.000674138 5.67697e-07
-0.000674138 0.000145063 -5.09578e-06
5.67697e-07 -5.09578e-06 -0.000369266
0.00233368 -0.000968144 2.22978e-06
-0.000968144 0.000445002 2.07428e-06
2.22978e-06 2.07428e-06 -0.00010188
0.0026303 -0.000929077 -1.99479e-06
-0.000929077 0.000504471 -1.01306e-06
-1.99479e-06 -1.01306e-06 8.31893e-05
0.002509 -0.000884664 2.74744e-06
-0.000884664 0.000253688 -1.76198e-06
2.74744e-06 -1.76198e-06 -1.20237e-05
0.0012664 -0.000413762 1.13674e-05
-0.000413762 0.000408605 3.26911e-06
1.13674e-05 3.26911e-06 -3.72532e-05
0.00141545 -0.000296784 3.91457e-06
-0.000296784 0.000695708 -4.94607e-06
3.91457e-06 -4.94607e-06 0.000349174
0.00151879 -0.000556587 7.2954e-06
-0.000556587 0.000589941 5.8757e-06
7.2954e-06 5.8757e-06 4.82044e-05
0.00037352 0.000192235 -1.58412e-05
0.000192235 -0.000308032 -1.21064e-05
-1.58412e-05 -1.21064e-05 -0.000473221
0.00841431 -2.08995e-05 -0.000331908
-2.08995e-05 0.00530474 -3.21978e-05
-0.000331908 -3.21978e-05 0.0053187
0.00025324 0.000191209 -2.14273e-05
0.000191209 -0.000235835 -2.11027e-05
-2.14273e-05 -2.11027e-05 -0.000382854
0.000324282 0.000271006 -1.82276e-05
0.000271006 -0.000325229 -2.10787e-05
-1.82276e-05 -2.10787e-05 -0.000533108
0.00169572 0.000502283 -1.23546e-05
0.000502283 5.65824e-05 -4.93247e-06
-1.23546e-05 -4.93247e-06 -0.000236998
0.000323179 0.000276505 -2.09079e-05
0.000276505 -0.000225667 -2.9567e-05
-2.09079e-05 -2.9567e-05 -0.000442808
0.00119769 0.000667643 -2.22057e-05
0.000667643 -1.12607e-05 -4.61964e-06
-2.22057e-05 -4.61964e-06 -0.000528051
0.00181497 0.000638118 -2.21887e-05
0.000638118 0.000244795 -7.06295e-06
-2.21887e-05 -7.06295e-06 -0.000158421
0.00240901 0.000955726 1.17204e-06
0.000955726 0.000460493 5.80362e-06
1.17204e-06 5.80362e-06 -5.92226e-05
0.000290156 0.0002744 -6.98389e-06
0.0002744 -0.000225672 6.78729e-08
-6.98389e-06 6.78729e-08 -0.000414918
0.000392262 0.00016295 -1.53715e-06
0.00016295 -0.000104622 1.34101e-06
-1.53715e-06 1.34101e-06 -0.000243162
0.000925141 0.000445271 9.88239e-07
0.000445271 0.000260612 2.39464e-07
9.88239e-07 2.39464e-07 -6.08981e-05
0.00177657 0.000431731 -5.00781e-07
0.000431731 7.47459e-05 -3.58467e-07
-5.00781e-07 -3.58467e-07 -0.000169147
0.00177912 0.000567361 -3.50249e-07
0.000567361 0.000148685 -1.79517e-07
-3.50249e-07 -1.79517e-07 -0.000193231
0.0024198 0.000717574 -9.1304e-07
0.000717574 0.000275645 -2.92521e-07
-9.1304e-07 -2.92521e-07 -1.67585e-05
0.000872648 0.00050583 6.85469e-06
0.00050583 -1.22688e-05 -2.14357e-06
6.85469e-06 -2.14357e-06 -0.000476265
0.00261856 0.000923777 -2.08535e-06
0.000923777 0.000570729 -1.10364e-06
-2.08535e-06 -1.10364e-06 0.00011802
0.00249787 0.0011562 -2.76521e-06
0.0011562 0.000670276 -1.66541e-06
-2.76521e-06 -1.66541e-06 -3.56821e-05
0.00204502 0.000914264 -7.4103e-08
0.000914264 7.05873e-05 5.13735e-06
-7.4103e-08 5.13735e-06 -0.00039673
0.00089428 0.000125692 1.49241e-05
0.000125692 0.00027563 2.05287e-05
1.49241e-05 2.05287e-05 0.000148575
-2.76608e-05 0.000579409 5.14676e-06
0.000579409 -0.000382134 -7.79145e-06
5.14676e-06 -7.79145e-06 -0.000783871
0.000810384 0.000270474 -1.43694e-06
0.000270474 0.000256481 -7.09805e-07
-1.43694e-06 -7.09805e-07 -8.41846e-05
-0.00150542 0.000239867 -7.59678e-06
0.000239867 -0.00125622 -2.35136e-06
-7.59678e-06 -2.35136e-06 -0.00163692
0.00237235 0.000615731 2.5909e-06
0.000615731 0.000195114 5.30265e-07
2.5909e-06 5.30265e-07 -2.43411e-05
0.00248973 0.000815633 -1.16186e-06
0.000815633 0.000398629 -2.3179e-06
-1.16186e-06 -2.3179e-06 2.69282e-05
0.00256658 0.000785846 1.68138e-06
0.000785846 0.000274771 1.11694e-06
1.68138e-06 1.11694e-06 2.51629e-05
0.00264997 0.00111044 -1.36961e-05
0.00111044 0.00106466 -1.69055e-05
-1.36961e-05 -1.69055e-05 0.000287304
0.00266424 0.000990382 -5.39579e-06
0.000990382 0.000498851 -1.505e-07
-5.39579e-06 -1.505e-07 6.85301e-05
0.00281247 0.00127401 -1.36009e-05
0.00127401 0.000789168 -1.39133e-05
-1.36009e-05 -1.39133e-05 5.10607e-05
0.00230861 0.000924234 -3.17627e-06
0.000924234 0.000127286 4.46914e-07
-3.17627e-06 4.46914e-07 -0.0003109
0.00114053 0.000176491 -3.61563e-06
0.000176491 0.000540738 8.98291e-06
-3.61563e-06 8.98291e-06 0.00036535
0.000460381 7.93681e-05 8.26947e-06
7.93681e-05 2.6713e-05 1.53554e-05
8.26947e-06 1.53554e-05 -5.04439e-05
0.00478962 -0.00015101 9.47613e-05
-0.00015101 0.00294794 1.38444e-05
9.47613e-05 1.38444e-05 0.00293102
0.00554853 -0.000204548 2.18804e-05
-0.000204548 0.003477 -1.12161e-06
2.18804e-05 -1.12161e-06 0.00344461
0.00623856 -0.000243512 -0.000123463
-0.000243512 0.00395058 -1.72988e-05
-0.000123463 -1.72988e-05 0.00390621
0.00031094 -0.000270062 3.06945e-05
-0.000270062 -0.000108395 -1.85685e-05
3.06945e-05 -1.85685e-05 -0.000239743
0.00741752 3.02893e-05 0.000255261
3.02893e-05 0.00467475 -3.3408e-05
0.000255261 -3.3408e-05 0.00467352
0.000508172 -0.000306353 3.13973e-06
-0.000306353 -6.02041e-05 9.62421e-07
3.13973e-06 9.62421e-07 -0.000236314
0.00917548 -7.76511e-05 6.01228e-06
-7.76511e-05 0.0057863 -1.11362e-06
6.01228e-06 -1.11362e-06 0.00580244
0.000348753 0.000168938 -1.60681e-05
0.000168938 -0.000310137 -9.7507e-06
-1.60681e-05 -9.7507e-06 -0.000456071
0.000204993 5.97196e-05 -1.28849e-05
5.97196e-05 -0.000366002 -4.79814e-06
-1.28849e-05 -4.79814e-06 -0.000476601
0.00169786 0.000252784 -4.94686e-06
0.000252784 2.18249e-05 -1.29344e-06
-4.94686e-06 -1.29344e-06 -0.000139038
0.00160269 0.000123305 -6.21307e-06
0.000123305 -3.37333e-05 -1.3805e-06
-6.21307e-06 -1.3805e-06 -0.000157103
0.000205391 3.13619e-07 -1.44307e-05
3.13619e-07 -0.000336206 -1.76547e-06
-1.44307e-05 -1.76547e-06 -0.000430468
0.00681389 -0.00010385 -0.000396702
-0.00010385 0.00422208 7.39795e-06
-0.000396702 7.39795e-06 0.00426382
0.000196113 -4.16242e-06 -3.62643e-08
-4.16242e-06 -0.000340034 -6.71439e-07
-3.62643e-08 -6.71439e-07 -0.000432235
0.00156827 6.05947e-05 2.30209e-08
6.05947e-05 -6.24915e-05 2.87715e-08
2.30209e-08 2.87715e-08 -0.000177091
0.00163437 0.000185264 3.90623e-08
0.000185264 -3.3647e-05 1.00333e-07
3.90623e-08 1.00333e-07 -0.000170571
0.00242321 0.000181696 -1.30248e-07
0.000181696 0.000119785 1.32869e-07
-1.30248e-07 1.32869e-07 7.61942e-05
0.00173796 0.000340296 -4.29909e-07
0.000340296 2.8283e-05 -1.47473e-07
-4.29909e-07 -1.47473e-07 -0.00016862
0.00241354 0.000383871 -9.15967e-08
0.000383871 0.000143558 1.45611e-07
-9.15967e-08 1.45611e-07 4.33189e-05
0.00154961 -4.64834e-06 4.5559e-06
-4.64834e-06 -6.70916e-05 3.69216e-07
4.5559e-06 3.69216e-07 -0.000180041
0.00241943 8.91261e-05 4.58346e-06
8.91261e-05 0.000110488 4.48631e-07
4.58346e-06 4.48631e-07 7.75722e-05
0.00239444 0.000279735 3.83031e-06
0.000279735 0.000118186 1.19615e-06
3.83031e-06 1.19615e-06 4.99616e-05
0.00222244 0.000184382 3.78625e-06
0.000184382 -3.58021e-05 6.07985e-07
3.78625e-06 6.07985e-07 -2.03042e-05
0.00240849 0.000497966 4.22048e-06
0.000497966 0.00017372 1.5015e-06
4.22048e-06 1.5015e-06 2.31549e-05
0.00227149 0.000362459 4.0621e-06
0.000362459 -7.57448e-06 6.79439e-07
4.0621e-06 6.79439e-07 -4.33166e-05
0.000206398 -1.06199e-05 -1.39235e-05
-1.06199e-05 -0.000330551 8.66204e-08
-1.39235e-05 8.66204e-08 -0.000427041
0.00226296 -7.78843e-05 -0.000154478
-7.78843e-05 0.000996493 8.82263e-06
-0.000154478 8.82263e-06 0.000931946
0.0017812 -0.000130075 -1.65335e-05
-0.000130075 7.95254e-05 1.4557e-06
-1.65335e-05 1.4557e-06 -2.8635e-05
0.00218479 -0.000289989 -1.93801e-05
-0.000289989 0.000371473 3.22137e-06
-1.93801e-05 3.22137e-06 0.00020149
0.0098827 -0.000147201 -0.00044957
-0.000147201 0.00619143 5.69912e-05
-0.00044957 5.69912e-05 0.00621772
0.00368792 -0.000430951 -0.000230065
-0.000430951 0.00197908 4.46923e-05
-0.000230065 4.46923e-05 0.00178227
0.00260633 -0.000753387 -1.31269e-05
-0.000753387 0.000901135 8.19747e-06
-1.31269e-05 8.19747e-06 0.000420347
0.00242878 -0.000465906 -2.59792e-05
-0.000465906 0.000578135 7.44235e-06
-2.59792e-05 7.44235e-06 0.000340318
0.00236844 -0.000504987 -1.24509e-07
-0.000504987 0.000160161 2.77659e-08
-1.24509e-07 2.77659e-08 1.34213e-05
0.00227614 -0.000682644 -1.31838e-08
-0.000682644 0.000210123 1.45179e-07
-1.31838e-08 1.45179e-07 -9.21103e-05
0.00252702 -0.000864337 7.34102e-06
-0.000864337 0.000532718 -3.56642e-06
7.34102e-06 -3.56642e-06 9.07707e-05
0.00237816 -0.000845903 1.8009e-06
-0.000845903 0.000256938 2.35853e-06
1.8009e-06 2.35853e-06 -7.16455e-05
0.000128179 -0.000306517 -2.37561e-05
-0.000306517 -0.000337102 2.9263e-05
-2.37561e-05 2.9263e-05 -0.000540429
-0.000607648 -0.000345649 -4.77556e-06
-0.000345649 -0.000642954 -2.64672e-06
-4.77556e-06 -2.64672e-06 -0.00108587
0.00162368 -6.0248e-05 8.94318e-07
-6.0248e-05 -1.65207e-05 -6.96738e-08
8.94318e-07 -6.96738e-08 -0.000124914
0.00220567 -0.000213248 -1.18472e-05
-0.000213248 0.000374213 1.32843e-06
-1.18472e-05 1.32843e-06 0.000248136
0.00222998 -0.00018911 2.30249e-06
-0.00018911 -1.35088e-05 -3.45717e-07
2.30249e-06 -3.45717e-07 -7.44843e-05
0.00229159 -0.000402023 -1.19518e-06
-0.000402023 8.26713e-05 2.39169e-07
-1.19518e-06 2.39169e-07 -3.62774e-05
9.23682e-05 -0.000288685 -2.44834e-06
-0.000288685 -0.000374076 -4.09207e-07
-2.44834e-06 -4.09207e-07 -0.000599365
0.00140632 -0.000671653 -1.15197e-06
-0.000671653 0.000148252 -2.81387e-07
-1.15197e-06 -2.81387e-07 -0.000372183
0.00241639 -0.000984976 -1.34698e-07
-0.000984976 0.000491037 1.49343e-06
-1.34698e-07 1.49343e-06 -6.83518e-05
0.00231237 -0.000608674 1.33021e-06
-0.000608674 0.00017749 -6.16159e-07
1.33021e-06 -6.16159e-07 -5.4886e-05
0.00239638 -0.000517426 3.51516e-09
-0.000517426 0.000103138 -1.74412e-08
3.51516e-09 -1.74412e-08 1.12102e-05
0.00264041 -0.000929227 2.23207e-06
-0.000929227 0.000508326 -1.85184e-06
2.23207e-06 -1.85184e-06 9.20703e-05
0.00247983 -0.000762685 -6.79973e-07
-0.000762685 0.00024351 2.51193e-07
-6.79973e-07 2.51193e-07 7.42801e-06
0.00244929 -0.000892025 1.65919e-07
-0.000892025 0.000205315 3.13039e-07
1.65919e-07 3.13039e-07 -6.09476e-05
0.000907809 -0.000419907 -2.53878e-06
-0.000419907 0.000170933 3.14782e-07
-2.53878e-06 3.14782e-07 -0.000292188
0.00154769 -0.000528229 1.44717e-06
-0.000528229 0.000636742 9.47129e-07
1.44717e-06 9.47129e-07 0.000101946
0.000700275 -0.000248913 -1.49817e-06
-0.000248913 0.000296258 4.27712e-08
-1.49817e-06 4.27712e-08 -8.01307e-05
0.00224125 -9.54674e-05 4.26724e-06
-9.54674e-05 -4.2133e-06 -3.6325e-07
4.26724e-06 -3.6325e-07 -5.79639e-05
0.00225558 -0.000287392 1.85529e-06
-0.000287392 8.48294e-06 -1.1259e-06
1.85529e-06 -1.1259e-06 -7.15405e-05
0.00231008 -0.000174744 6.45842e-06
-0.000174744 5.78122e-05 -6.19421e-07
6.45842e-06 -6.19421e-07 6.06305e-05
0.00229882 -0.000403842 2.99812e-06
-0.000403842 1.61832e-05 -7.58198e-07
2.99812e-06 -7.58198e-07 -2.85753e-05
0.00238894 -0.000658326 2.35488e-06
-0.000658326 0.000112322 -8.70878e-07
2.35488e-06 -8.70878e-07 -4.02936e-05
0.00255615 -0.00055738 9.34149e-07
-0.00055738 9.87833e-05 7.18514e-08
9.34149e-07 7.18514e-08 5.99309e-05
0.00142971 -0.000539649 1.27538e-05
-0.000539649 0.000354621 -4.74478e-06
1.27538e-05 -4.74478e-06 -0.000142645
0.00254043 -0.000808004 1.97016e-06
-0.000808004 0.000171928 -1.58117e-06
1.97016e-06 -1.58117e-06 1.17389e-05
0.00232258 -0.00111104 1.15926e-06
-0.00111104 0.00055634 -6.244e-09
1.15926e-06 -6.244e-09 -0.000126305
0.00274892 -0.00106717 1.04912e-05
-0.00106717 0.000614088 5.54017e-07
1.04912e-05 5.54017e-07 7.58371e-05
0.00271773 -0.000956736 6.70138e-06
-0.000956736 0.00051551 -3.16981e-06
6.70138e-06 -3.16981e-06 0.000133517
0.00259747 -0.000940099 5.76489e-06
-0.000940099 0.000226306 -2.16171e-06
5.76489e-06 -2.16171e-06 6.84917e-06
-0.00115622 -0.00013522 7.03762e-06
-0.00013522 -0.000937754 -7.91799e-07
7.03762e-06 -7.91799e-07 -0.00128123
0.0019006 -0.000800916 3.36936e-06
-0.000800916 0.000727685 1.0041e-05
3.36936e-06 1.0041e-05 4.69043e-05
4.64196e-05 -0.000322355 2.81364e-05
-0.000322355 -1.79716e-05 5.10471e-06
2.81364e-05 5.10471e-06 -0.000567102
0.00174532 -0.000823362 2.19714e-05
-0.000823362 0.00079331 2.07432e-05
2.19714e-05 2.07432e-05 7.46068e-05
0.00171145 0.000426615 -1.01418e-05
0.000426615 4.18697e-05 -3.59788e-06
-1.01418e-05 -3.59788e-06 -0.00020228
0.000252291 0.000161491 -1.83908e-05
0.000161491 -0.000191384 -2.18556e-05
-1.83908e-05 -2.18556e-05 -0.000328768
0.000406311 0.000246162 -2.41415e-05
0.000246162 -0.000157675 -2.64639e-05
-2.41415e-05 -2.64639e-05 -0.00033557
0.00211093 0.000359524 -4.73153e-07
0.000359524 0.00103312 1.55835e-05
-4.73153e-07 1.55835e-05 0.000721606
0.00174809 0.000563323 -1.75827e-05
0.000563323 0.000135853 -6.01236e-06
-1.75827e-05 -6.01236e-06 -0.000206368
0.00248331 0.000723859 -2.21561e-06
0.000723859 0.000318059 4.15348e-07
-2.21561e-06 4.15348e-07 2.4308e-05
0.000717047 0.000435595 -1.96957e-05
0.000435595 -0.000138183 -8.24615e-06
-1.96957e-05 -8.24615e-06 -0.000566311
0.00224401 0.001111 5.43402e-06
0.001111 0.000497791 5.02356e-06
5.43402e-06 5.02356e-06 -0.000189728
0.0025692 0.000915245 6.76128e-06
0.000915245 0.000533295 5.61807e-06
6.76128e-06 5.61807e-06 8.29187e-05
0.00201241 0.000902971 9.56451e-06
0.000902971 4.42558e-05 1.36295e-05
9.56451e-06 1.36295e-05 -0.000412746
0.000445134 0.000101388 -2.08147e-06
0.000101388 -3.2009e-06 4.74396e-07
-2.08147e-06 4.74396e-07 -0.000129995
0.00135291 0.000451877 -7.7682e-06
0.000451877 0.000491875 4.83223e-06
-7.7682e-06 4.83223e-06 0.000117683
6.85971e-05 0.000275907 2.49967e-06
0.000275907 -0.000210334 -1.88561e-06
2.49967e-06 -1.88561e-06 -0.000561144
0.00048113 0.000339666 -3.25959e-06
0.000339666 -1.03079e-05 1.01475e-05
-3.25959e-06 1.01475e-05 -0.000401154
0.00242473 0.000623864 -8.91722e-07
0.000623864 0.000223234 -4.84439e-07
-8.91722e-07 -4.84439e-07 1.57124e-06
0.00243037 0.000811965 -1.19339e-06
0.000811965 0.000354855 -3.32747e-07
-1.19339e-06 -3.32747e-07 -1.61481e-05
0.0025393 0.000781678 2.97299e-07
0.000781678 0.000259344 1.24447e-07
2.97299e-07 1.24447e-07 1.18365e-05
0.0022247 0.00108307 -1.6059e-07
0.00108307 0.000784157 -1.82946e-06
-1.6059e-07 -1.82946e-06 -2.45342e-06
0.00267102 0.000991088 1.18277e-06
0.000991088 0.000519031 4.61878e-07
1.18277e-06 4.61878e-07 8.40048e-05
0.002683 0.00124338 -1.60125e-06
0.00124338 0.000729047 -3.49059e-06
-1.60125e-06 -3.49059e-06 1.88275e-06
0.00266595 0.000924691 -9.0762e-06
0.000924691 0.000401145 2.98178e-06
-9.0762e-06 2.98178e-06 -2.44544e-05
0.00076912 8.96639e-05 1.09966e-05
8.96639e-05 0.00020962 1.81142e-05
1.09966e-05 1.81142e-05 0.000117782
0.00188082 0.00024641 -1.28442e-07
0.00024641 0.00101049 1.40435e-05
-1.28442e-07 1.40435e-05 0.000691151
2.3256e-05 0.000671588 -4.31903e-06
0.000671588 -0.000325562 -1.9919e-05
-4.31903e-06 -1.9919e-05 -0.000935056
0.000674996 0.000482437 1.28233e-05
0.000482437 0.000154811 3.9265e-07
1.28233e-05 3.9265e-07 -0.000217077
0.00157817 0.000350814 2.17002e-06
0.000350814 0.000510245 1.22999e-05
2.17002e-06 1.22999e-05 0.000115381
0.00251527 0.00065609 1.82477e-06
0.00065609 0.000166981 6.43752e-07
1.82477e-06 6.43752e-07 1.75959e-05
0.00250176 0.00089785 -1.08212e-06
0.00089785 0.000312431 1.22416e-06
-1.08212e-06 1.22416e-06 -3.70325e-05
0.00260071 0.000852099 -1.43148e-06
0.000852099 0.000229578 1.19536e-06
-1.43148e-06 1.19536e-06 3.50304e-06
0.00262303 0.00143719 2.86777e-07
0.00143719 0.00105542 -1.04441e-05
2.86777e-07 -1.04441e-05 0.000106546
0.00291271 0.00103564 -6.0595e-06
0.00103564 0.00056313 5.09816e-07
-6.0595e-06 5.09816e-07 0.000149058
0.00219579 0.00128497 7.77361e-06
0.00128497 0.000310992 -3.74777e-06
7.77361e-06 -3.74777e-06 -0.00041638
0.000893043 0.000183678 2.50571e-07
0.000183678 0.000373855 1.04942e-05
2.50571e-07 1.04942e-05 0.000161917
0.00083747 0.000231784 -9.72274e-06
0.000231784 0.000496427 4.89999e-06
-9.72274e-06 4.89999e-06 0.000181144
0.00092024 0.000141189 -1.64464e-06
0.000141189 0.000398861 4.84426e-06
-1.64464e-06 4.84426e-06 0.00026111
0.00040741 7.59171e-05 -3.3232e-06
7.59171e-05 5.7417e-05 -1.97755e-07
-3.3232e-06 -1.97755e-07 -0.000106475
0.00184439 2.29882e-05 1.87318e-06
2.29882e-05 0.000958245 9.43072e-06
1.87318e-06 9.43072e-06 0.000903734
0.00108326 5.17973e-05 -1.66741e-06
5.17973e-05 0.000445242 -3.86329e-08
-1.66741e-06 -3.86329e-08 0.000374366
0.00122245 6.8652e-06 0.000104495
6.8652e-06 0.000536667 1.9717e-05
0.000104495 1.9717e-05 0.000525933
0.0048214 -0.000152907 1.46022e-05
-0.000152907 0.002974 -1.82905e-06
1.46022e-05 -1.82905e-06 0.00295545
0.00544925 -0.000231727 -9.43453e-05
-0.000231727 0.00342698 -1.62056e-05
-9.43453e-05 -1.62056e-05 0.00338537
0.000530903 -0.000171073 3.42651e-05
-0.000171073 7.67718e-05 -1.08651e-05
3.42651e-05 -1.08651e-05 -1.78292e-05
0.00519981 0.000151996 0.000123878
0.000151996 0.00325703 -1.85597e-05
0.000123878 -1.85597e-05 0.00323068
0.000528839 -0.000236408 -8.28643e-08
-0.000236408 4.26222e-05 2.56906e-06
-8.28643e-08 2.56906e-06 -0.000104481
0.00789975 9.49677e-07 2.04318e-06
9.49677e-07 0.00500596 1.91892e-06
2.04318e-06 1.91892e-06 0.00500487
0.000248758 -0.000310969 -2.84458e-05
-0.000310969 -0.000235709 2.53181e-05
-2.84458e-05 2.53181e-05 -0.000414081
0.00934072 -7.30062e-05 -0.000399361
-7.30062e-05 0.00588762 5.30683e-05
-0.000399361 5.30683e-05 0.00590405
0.00173089 0.000336738 -7.6192e-06
0.000336738 4.29785e-05 -2.18758e-06
-7.6192e-06 -2.18758e-06 -0.000154065
0.00164352 0.000185499 -5.47036e-06
0.000185499 -8.56721e-06 -1.28337e-06
-5.47036e-06 -1.28337e-06 -0.00014632
0.0024204 0.000381569 -4.93486e-06
0.000381569 0.000142033 -1.08902e-06
-4.93486e-06 -1.08902e-06 4.19794e-05
0.00243838 0.000179867 -4.16271e-06
0.000179867 0.000131053 -5.85883e-07
-4.16271e-06 -5.85883e-07 8.74628e-05
0.00157852 6.58852e-05 -5.45385e-06
6.58852e-05 -4.85525e-05 -8.3817e-07
-5.45385e-06 -8.3817e-07 -0.000163647
0.000164411 2.59759e-05 -1.45924e-05
2.59759e-05 -0.000362674 -1.60048e-06
-1.45924e-05 -1.60048e-06 -0.000452937
0.00155597 1.19846e-06 -3.13919e-08
1.19846e-06 -6.23874e-05 -3.06468e-08
-3.13919e-08 -3.06468e-08 -0.000175332
0.00242552 8.72522e-05 -1.30693e-07
8.72522e-05 0.000115715 1.02092e-07
-1.30693e-07 1.02092e-07 8.30835e-05
0.00241876 0.000278752 -1.05797e-08
0.000278752 0.000131294 1.47271e-07
-1.05797e-08 1.47271e-07 6.44079e-05
0.0022212 0.00017997 -3.32425e-07
0.00017997 -4.57384e-05 -6.71871e-08
-3.32425e-07 -6.71871e-08 -2.28275e-05
0.00241635 0.000501939 -4.05474e-07
0.000501939 0.000171506 1.48328e-07
-4.05474e-07 1.48328e-07 2.01386e-05
0.00227812 0.00036442 -9.41818e-08
0.00036442 1.35293e-06 1.69438e-07
-9.41818e-08 1.69438e-07 -3.63299e-05
0.00242087 -4.92635e-06 4.29443e-06
-4.92635e-06 0.000114313 7.34237e-08
4.29443e-06 7.34237e-08 8.27599e-05
0.00218595 8.47463e-05 2.38813e-06
8.47463e-05 -6.94581e-05 1.97815e-07
2.38813e-06 1.97815e-07 -3.55313e-05
0.00223275 0.000260704 4.30392e-06
0.000260704 -2.13848e-05 7.84209e-07
4.30392e-06 7.84209e-07 -2.84465e-05
0.00234756 0.000181944 9.2051e-07
0.000181944 -7.17106e-05 1.19558e-07
9.2051e-07 1.19558e-07 -9.85593e-06
0.00240801 0.000513969 2.98852e-06
0.000513969 6.5903e-05 7.96535e-07
2.98852e-06 7.96535e-07 -8.52076e-06
0.00242095 0.000400016 9.85134e-08
0.000400016 -6.50189e-05 -5.27651e-07
9.85134e-08 -5.27651e-07 -3.36976e-05
0.00172094 -5.81559e-05 -7.28771e-06
-5.81559e-05 4.9094e-05 3.0779e-07
-7.28771e-06 3.0779e-07 -5.14537e-05
0.00211574 -0.000211856 -2.22883e-05
-0.000211856 0.000306299 2.72683e-06
-2.22883e-05 2.72683e-06 0.000179351
0.0022422 -0.00018375 1.7255e-06
-0.00018375 -1.01023e-05 -8.42643e-08
1.7255e-06 -8.42643e-08 -6.60666e-05
0.00232581 -0.000399195 -1.5947e-06
-0.000399195 0.000129562 1.38281e-06
-1.5947e-06 1.38281e-06 -1.14356e-06
6.98822e-05 -0.000316242 -2.31565e-05
-0.000316242 -0.000380608 3.22278e-05
-2.31565e-05 3.22278e-05 -0.000611497
0.00169819 -0.000688291 -3.44989e-06
-0.000688291 0.000345912 4.31603e-06
-3.44989e-06 4.31603e-06 -0.000176161
0.00235833 -0.000988337 4.44629e-06
-0.000988337 0.000437318 -1.041e-06
4.44629e-06 -1.041e-06 -0.000131326
0.00239758 -0.000607576 1.9056e-07
-0.000607576 0.000249797 -9.1288e-08
1.9056e-07 -9.1288e-08 1.27502e-05
0.00233534 -0.000516392 -2.72241e-06
-0.000516392 4.02019e-05 7.53885e-07
-2.72241e-06 7.53885e-07 -4.34154e-05
0.00243713 -0.000757246 -1.72879e-06
-0.000757246 0.000216 1.97683e-06
-1.72879e-06 1.97683e-06 -1.81807e-05
0.00263486 -0.000925965 2.42916e-06
-0.000925965 0.00050364 -1.54554e-06
2.42916e-06 -1.54554e-06 9.36532e-05
0.00239061 -0.000898261 -2.69422e-06
-0.000898261 0.000159563 3.18473e-06
-2.69422e-06 3.18473e-06 -0.000106694
0.000455081 -0.000417659 -1.01836e-05
-0.000417659 -0.00012527 -4.23791e-06
-1.01836e-05 -4.23791e-06 -0.000600378
0.000819357 -0.000429592 -1.49841e-05
-0.000429592 0.000218856 -1.22736e-05
-1.49841e-05 -1.22736e-05 -0.000300238
0.000292584 -0.000253584 1.35227e-06
-0.000253584 6.90171e-05 3.86354e-06
1.35227e-06 3.86354e-06 -0.000327344
0.00233974 -9.24989e-05 3.88321e-06
-9.24989e-05 6.72823e-05 -1.11724e-07
3.88321e-06 -1.11724e-07 2.18218e-05
0.0022086 -0.000291148 2.07903e-06
-0.000291148 -2.01103e-05 -6.0856e-07
2.07903e-06 -6.0856e-07 -9.95298e-05
0.00227094 -0.000168865 -2.79804e-07
-0.000168865 1.15994e-05 1.07846e-07
-2.79804e-07 1.07846e-07 2.33766e-05
0.00235937 -0.000398466 -2.04336e-07
-0.000398466 6.53835e-05 -3.37295e-08
-2.04336e-07 -3.37295e-08 1.779e-05
0.00110124 -0.000546042 -2.42678e-06
-0.000546042 0.000126946 -1.09629e-06
-2.42678e-06 -1.09629e-06 -0.000384009
0.00254463 -0.00115479 2.13544e-06
-0.00115479 0.000703594 -3.09544e-07
2.13544e-06 -3.09544e-07 5.36503e-06
0.00247805 -0.0010428 1.48576e-06
-0.0010428 0.000431778 2.01039e-06
1.48576e-06 2.01039e-06 -0.000109851
0.00243618 -0.000657657 -4.01333e-07
-0.000657657 0.000160452 2.91722e-07
-4.01333e-07 2.91722e-07 2.68418e-07
0.00251949 -0.000559904 8.62835e-08
-0.000559904 6.03153e-05 2.31043e-08
8.62835e-08 2.31043e-08 2.72995e-05
0.0026531 -0.000949804 -7.07567e-07
-0.000949804 0.00046782 -1.56129e-07
-7.07567e-07 -1.56129e-07 8.49799e-05
0.00254766 -0.000809355 -7.18334e-07
-0.000809355 0.0001751 1.77632e-07
-7.18334e-07 1.77632e-07 1.44919e-05
0.00256691 -0.000942589 1.46941e-06
-0.000942589 0.00019718 -2.77681e-07
1.46941e-06 -2.77681e-07 -1.53656e-05
0.00162199 -0.000799484 -3.03506e-06
-0.000799484 0.000586435 -2.03545e-06
-3.03506e-06 -2.03545e-06 -9.55947e-05
0.00156674 -0.00080944 -2.2276e-06
-0.00080944 0.000674385 9.25153e-07
-2.2276e-06 9.25153e-07 -3.66327e-05
0.000487693 -0.000136895 2.39997e-06
-0.000136895 0.000118911 -1.42354e-07
2.39997e-06 -1.42354e-07 -0.000198646
0.000365854 -0.000268074 3.24263e-06
-0.000268074 6.12064e-05 -6.87858e-06
3.24263e-06 -6.87858e-06 -0.000397866
0.00220525 -9.66734e-05 5.02714e-06
-9.66734e-05 -3.04236e-05 -3.47488e-07
5.02714e-06 -3.47488e-07 -1.30306e-05
0.00230759 -0.000279547 3.81961e-06
-0.000279547 2.1651e-05 -1.03717e-06
3.81961e-06 -1.03717e-06 9.9585e-06
0.00234727 -0.00017941 1.40208e-06
-0.00017941 -2.6252e-05 -3.14158e-07
1.40208e-06 -3.14158e-07 2.86071e-05
0.00247844 -0.000443729 -1.28468e-06
-0.000443729 -2.5614e-05 7.05223e-07
-1.28468e-06 7.05223e-07 1.69281e-05
0.00245323 -0.000683815 -5.53849e-07
-0.000683815 6.08237e-05 2.25271e-07
-5.53849e-07 2.25271e-07 -3.37408e-05
0.00259968 -0.000603913 1.39538e-06
-0.000603913 7.48506e-06 -4.38653e-09
1.39538e-06 -4.38653e-09 4.48404e-07
0.00182323 -0.00109332 -3.97609e-06
-0.00109332 0.000467705 6.38817e-06
-3.97609e-06 6.38817e-06 -0.00029061
0.0026715 -0.000878721 2.10439e-06
-0.000878721 0.000151865 -5.20463e-08
2.10439e-06 -5.20463e-08 3.47688e-05
0.00250796 -0.00123779 4.50476e-06
-0.00123779 0.000638088 3.36425e-06
4.50476e-06 3.36425e-06 -8.04665e-05
0.00285116 -0.00109305 1.38245e-05
-0.00109305 0.000650327 -2.45569e-06
1.38245e-05 -2.45569e-06 0.00012146
0.00272657 -0.000989578 3.85165e-06
-0.000989578 0.000448521 -2.19995e-06
3.85165e-06 -2.19995e-06 9.6069e-05
0.00263316 -0.00101095 2.53857e-06
-0.00101095 0.000177634 -2.63794e-06
2.53857e-06 -2.63794e-06 -4.52676e-05
-0.00019177 -0.00027767 1.1233e-05
-0.00027767 -0.00042955 -8.23256e-06
1.1233e-05 -8.23256e-06 -0.000724699
-0.00171719 8.66725e-06 -3.35832e-06
8.66725e-06 -0.00125232 1.47268e-06
-3.35832e-06 1.47268e-06 -0.00174896
0.00169471 -0.00111027 1.95046e-05
-0.00111027 0.000634568 7.26165e-06
1.95046e-05 7.26165e-06 -0.0001911
0.00430539 -0.000912834 1.4904e-05
-0.000912834 0.00261133 1.66935e-05
1.4904e-05 1.66935e-05 0.00198166
0.00209286 -0.00106844 -3.17311e-06
-0.00106844 0.00103954 1.39245e-05
-3.17311e-06 1.39245e-05 0.000173113
-5.93492e-05 7.95981e-05 -8.80212e-06
7.95981e-05 -0.000321302 -2.01238e-05
-8.80212e-06 -2.01238e-05 -0.000444391
0.00247759 0.0006321 -3.6785e-06
0.0006321 0.000251462 -1.17738e-06
-3.6785e-06 -1.17738e-06 2.75475e-05
0.00105663 0.000172618 1.73776e-06
0.000172618 0.00039329 -4.54023e-06
1.73776e-06 -4.54023e-06 5.7984e-05
0.00133948 0.000491179 -1.52779e-05
0.000491179 0.000447032 1.78525e-05
-1.52779e-05 1.78525e-05 0.000112445
0.00207408 0.000350771 -2.10058e-07
0.000350771 0.000961611 1.39979e-05
-2.10058e-07 1.39979e-05 0.000595961
0.00237637 0.000808601 1.42136e-06
0.000808601 0.000315455 2.41221e-06
1.42136e-06 2.41221e-06 -5.48924e-05
0.00250863 0.000776926 -1.58316e-06
0.000776926 0.000241847 -1.24598e-06
-1.58316e-06 -1.24598e-06 -3.34788e-06
0.00171306 0.00109185 1.38982e-05
0.00109185 0.000457216 1.8468e-05
1.38982e-05 1.8468e-05 -0.000355985
0.00253027 0.00122958 4.04353e-06
0.00122958 0.000632226 6.23631e-06
4.04353e-06 6.23631e-06 -9.35116e-05
0.00267339 0.000987603 5.69419e-06
0.000987603 0.000533756 2.64529e-06
5.69419e-06 2.64529e-06 9.61131e-05
0.0030363 0.000934464 1.29561e-05
0.000934464 0.000678658 1.35461e-05
1.29561e-05 1.35461e-05 0.000261271
0.000493031 0.000100618 -3.56759e-06
0.000100618 3.52926e-05 4.67725e-07
-3.56759e-06 4.67725e-07 -5.40553e-05
0.000640271 0.000222257 -1.41358e-06
0.000222257 0.000243838 -1.04206e-06
-1.41358e-06 -1.04206e-06 -0.000103977
0.00112102 0.000704092 9.29169e-06
0.000704092 0.00035393 -4.67511e-06
9.29169e-06 -4.67511e-06 -0.000254921
0.00102307 0.000273274 -3.93596e-06
0.000273274 0.000373297 -3.8024e-06
-3.93596e-06 -3.8024e-06 1.85025e-05
0.000670988 0.000416831 -2.65497e-06
0.000416831 -6.19914e-05 5.39653e-06
-2.65497e-06 5.39653e-06 -0.000503485
0.00248803 0.000652633 -5.26336e-07
0.000652633 0.000151761 -4.75079e-07
-5.26336e-07 -4.75079e-07 3.77539e-06
0.00252511 0.000898029 5.11044e-07
0.000898029 0.00033156 2.16118e-07
5.11044e-07 2.16118e-07 -1.67382e-05
0.00257461 0.000852321 1.17666e-06
0.000852321 0.000217621 4.95271e-07
1.17666e-06 4.95271e-07 -7.97906e-06
0.00259841 0.00142181 2.1472e-06
0.00142181 0.00106252 -1.46916e-07
2.1472e-06 -1.46916e-07 0.000126162
0.00290101 0.00103437 3.27181e-06
0.00103437 0.000525118 1.37361e-07
3.27181e-06 1.37361e-07 0.000109539
0.00287344 0.00136411 -6.56276e-06
0.00136411 0.000795561 9.35486e-07
-6.56276e-06 9.35486e-07 5.26252e-05
0.000960708 0.000217577 -3.82371e-07
0.000217577 0.000414752 9.94276e-06
-3.82371e-07 9.94276e-06 0.000158108
0.00232415 0.000626805 9.07041e-06
0.000626805 0.00139356 8.28597e-06
9.07041e-06 8.28597e-06 0.000925893
0.00150774 0.00100888 -2.13338e-06
0.00100888 0.000660908 -4.58866e-06
-2.13338e-06 -4.58866e-06 -0.000110448
0.00143697 0.000331554 1.15421e-05
0.000331554 0.000349969 -5.99876e-06
1.15421e-05 -5.99876e-06 1.97886e-05
0.00348771 0.000948585 1.20756e-06
0.000948585 0.00153411 3.67746e-06
1.20756e-06 3.67746e-06 0.000940644
0.00257748 0.000702176 -2.32005e-06
0.000702176 8.25584e-05 -8.24545e-07
-2.32005e-06 -8.24545e-07 -1.10205e-05
0.00264526 0.000978136 -2.88951e-06
0.000978136 0.000354893 2.09644e-06
-2.88951e-06 2.09644e-06 3.34491e-06
0.0026598 0.00097268 -4.6797e-07
0.00097268 0.00021865 9.15048e-07
-4.6797e-07 9.15048e-07 -4.29647e-07
0.00194376 0.00144153 1.28415e-05
0.00144153 0.00071298 -2.19339e-06
1.28415e-05 -2.19339e-06 -0.000233661
0.00263793 0.00129871 1.72619e-05
0.00129871 0.000497131 -1.29296e-07
1.72619e-05 -1.29296e-07 -0.00015614
0.000649522 0.000154156 2.66882e-07
0.000154156 0.000217112 -5.06049e-07
2.66882e-07 -5.06049e-07 6.1461e-06
1.52311e-05 0.000273231 -8.16815e-06
0.000273231 -0.000103738 -3.48096e-06
-8.16815e-06 -3.48096e-06 -0.000432266
-0.000890656 0.000110762 9.55272e-07
0.000110762 -0.000626633 -2.56277e-06
9.55272e-07 -2.56277e-06 -0.000939903
0.00221352 0.000382272 -1.59042e-05
0.000382272 0.00147158 -8.22502e-07
-1.59042e-05 -8.22502e-07 0.00111879
0.00167067 0.000307479 -6.92806e-06
0.000307479 0.00102228 -1.92853e-06
-6.92806e-06 -1.92853e-06 0.000759396
0.000607704 0.000123622 -1.74418e-07
0.000123622 0.000199893 1.74083e-06
-1.74418e-07 1.74083e-06 7.73768e-05
0.00055048 7.21418e-05 -2.02681e-06
7.21418e-05 0.00015681 -3.14166e-07
-2.02681e-06 -3.14166e-07 2.25999e-05
0.00165195 3.33806e-05 1.67539e-06
3.33806e-05 0.000835113 6.928e-06
1.67539e-06 6.928e-06 0.000789797
0.000252341 8.065e-05 6.81082e-06
8.065e-05 -5.10345e-05 -7.61679e-06
6.81082e-06 -7.61679e-06 -0.000206221
0.00179489 2.27792e-05 -2.05275e-05
2.27792e-05 0.000923844 -2.61538e-06
-2.05275e-05 -2.61538e-06 0.000875845
0.000751183 -9.31527e-07 7.07165e-05
-9.31527e-07 0.00022293 1.50624e-05
7.07165e-05 1.50624e-05 0.000218675
0.00197045 5.5509e-05 -4.16753e-05
5.5509e-05 0.00104015 -1.28559e-05
-4.16753e-05 -1.28559e-05 0.000980228
0.00267323 -7.26277e-05 9.01402e-05
-7.26277e-05 0.00152615 1.99179e-06
9.01402e-05 1.99179e-06 0.00151093
0.00458719 -0.000171155 -7.64932e-05
-0.000171155 0.00282885 -1.28093e-05
-7.64932e-05 -1.28093e-05 0.00280435
0.000861478 1.4887e-05 3.70169e-06
1.4887e-05 0.000298767 -9.47727e-06
3.70169e-06 -9.47727e-06 0.000204123
0.000199811 -0.000128288 6.85346e-07
-0.000128288 -0.000136951 9.71323e-07
6.85346e-07 9.71323e-07 -0.000244889
0.00480848 0.000198469 5.93292e-05
0.000198469 0.00300515 -1.46717e-05
5.93292e-05 -1.46717e-05 0.00296349
0.00599809 7.98556e-05 -8.44837e-06
7.98556e-05 0.00378171 3.46177e-06
-8.44837e-06 3.46177e-06 0.0037681
0.000854172 -0.000231272 -2.35281e-05
-0.000231272 0.000250437 2.18447e-05
-2.35281e-05 2.18447e-05 8.92135e-05
0.00861404 -1.41229e-05 -0.000350388
-1.41229e-05 0.00546965 5.17971e-05
-0.000350388 5.17971e-05 0.00547089
0.00242656 0.00050642 -4.20137e-06
0.00050642 0.000169656 -1.1104e-06
-4.20137e-06 -1.1104e-06 1.74563e-05
0.00243174 0.000279305 -4.2993e-06
0.000279305 0.000136606 -8.91981e-07
-4.2993e-06 -8.91981e-07 7.06898e-05
0.00228071 0.000366763 -3.81007e-06
0.000366763 6.97931e-06 -2.02368e-07
-3.81007e-06 -2.02368e-07 -3.26316e-05
0.00222106 0.000175251 -3.25376e-06
0.000175251 -5.55395e-05 -3.79738e-07
-3.25376e-06 -3.79738e-07 -2.52632e-05
0.00243281 8.59924e-05 -4.6053e-06
8.59924e-05 0.000121856 -2.25395e-07
-4.6053e-06 -2.25395e-07 8.9494e-05
0.00156462 6.77759e-06 -4.54984e-06
6.77759e-06 -5.85313e-05 -3.92436e-07
-4.54984e-06 -3.92436e-07 -0.000171485
0.00241763 -5.10368e-06 -8.46604e-09
-5.10368e-06 0.00011329 5.80897e-08
-8.46604e-09 5.80897e-08 8.16852e-05
0.00218973 7.67919e-05 -4.18193e-07
7.67919e-05 -6.40456e-05 -5.00963e-08
-4.18193e-07 -5.00963e-08 -3.1857e-05
0.00222915 0.000260133 -1.07454e-07
0.000260133 -2.61119e-05 7.26409e-08
-1.07454e-07 7.26409e-08 -3.29529e-05
0.00234261 0.000184131 1.69911e-07
0.000184131 -8.2039e-05 5.27711e-08
1.69911e-07 5.27711e-08 -1.28458e-05
0.00241395 0.0005133 1.24361e-07
0.0005133 7.07606e-05 -1.04655e-07
1.24361e-07 -1.04655e-07 -2.36865e-06
0.00242803 0.000390731 2.40274e-07
0.000390731 -6.58348e-05 3.68726e-07
2.40274e-07 3.68726e-07 -2.88188e-05
0.00218603 -1.12817e-05 3.26262e-06
-1.12817e-05 -5.92973e-05 -1.26896e-07
3.26262e-06 -1.26896e-07 -2.86908e-05
0.00237667 7.76199e-05 2.98773e-07
7.76199e-05 -5.77754e-05 -2.72299e-07
2.98773e-07 -2.72299e-07 2.53862e-05
0.00236669 0.000262196 -8.51072e-07
0.000262196 -7.12121e-05 -4.28968e-07
-8.51072e-07 -4.28968e-07 -1.87462e-05
0.00247995 0.000194451 -3.92797e-08
0.000194451 -9.90204e-05 -2.46748e-07
-3.92797e-08 -2.46748e-07 1.96033e-05
0.00251027 0.000533856 -2.53097e-07
0.000533856 -2.72383e-06 -4.0648e-07
-2.53097e-07 -4.0648e-07 -1.35109e-05
0.00250526 0.000382713 7.07307e-07
0.000382713 -0.000127047 2.73906e-08
7.07307e-07 2.73906e-08 -5.01663e-05
0.00241543 -8.94005e-05 -9.14191e-07
-8.94005e-05 0.000120633 3.70455e-08
-9.14191e-07 3.70455e-08 8.32344e-05
0.00217949 -0.000294646 2.41746e-06
-0.000294646 -3.83099e-05 8.57462e-08
2.41746e-06 8.57462e-08 -0.000116953
0.00222715 -0.000162913 -3.14138e-06
-0.000162913 -3.71123e-05 2.47863e-07
-3.14138e-06 2.47863e-07 -1.61032e-05
0.00241999 -0.000393674 -5.38157e-06
-0.000393674 0.000115172 1.58338e-06
-5.38157e-06 1.58338e-06 6.44666e-05
0.000857845 -0.000540601 -1.26227e-05
-0.000540601 -3.71942e-05 2.61192e-06
-1.26227e-05 2.61192e-06 -0.000554831
0.00288185 -0.00119647 -9.14921e-07
-0.00119647 0.000951545 -3.45453e-07
-9.14921e-07 -3.45453e-07 0.000240636
0.00220243 -0.00101403 -6.1626e-07
-0.00101403 0.000251247 6.50439e-07
-6.1626e-07 6.50439e-07 -0.000292411
0.00249152 -0.000657702 -4.73826e-06
-0.000657702 0.000214046 1.94851e-06
-4.73826e-06 1.94851e-06 4.59447e-05
0.00248186 -0.000561952 2.76616e-07
-0.000561952 2.18372e-05 -5.82041e-07
2.76616e-07 -5.82041e-07 -6.00818e-06
0.00255001 -0.000810774 -2.06004e-06
-0.000810774 0.000173912 1.61872e-06
-2.06004e-06 1.61872e-06 1.29175e-05
0.00259362 -0.000947711 -5.44238e-06
-0.000947711 0.000421056 3.22463e-06
-5.44238e-06 3.22463e-06 3.55066e-05
0.00256033 -0.000953937 -3.23484e-06
-0.000953937 0.000180529 7.34725e-07
-3.23484e-06 7.34725e-07 -2.86873e-05
0.00154908 -0.000800629 -4.74246e-06
-0.000800629 0.00053414 -1.29952e-05
-4.74246e-06 -1.29952e-05 -0.000148105
0.00202778 -0.000841545 -2.81277e-05
-0.000841545 0.00095552 -1.41477e-05
-2.81277e-05 -1.41477e-05 0.000239442
0.00215365 -0.000129485 1.73305e-06
-0.000129485 0.0012067 6.79379e-06
1.73305e-06 6.79379e-06 0.000895399
-1.00404e-05 -0.000151095 -1.29859e-05
-0.000151095 -0.000265689 -6.57049e-06
-1.29859e-05 -6.57049e-06 -0.000657524
0.00220544 -9.61062e-05 -1.08741e-07
-9.61062e-05 -3.12593e-05 2.46113e-08
-1.08741e-07 2.46113e-08 -1.39998e-05
0.00234241 -0.000282099 1.19933e-06
-0.000282099 4.79642e-05 -2.13472e-07
1.19933e-06 -2.13472e-07 3.52618e-05
0.00231931 -0.00017686 7.31408e-09
-0.00017686 -5.04131e-05 -6.80814e-08
7.31408e-09 -6.80814e-08 8.56699e-06
0.00244243 -0.000442587 -3.27026e-07
-0.000442587 -4.19193e-05 3.10642e-07
-3.27026e-07 3.10642e-07 -8.31895e-06
0.00224622 -0.00108549 -1.32709e-06
-0.00108549 0.000734745 -3.58074e-07
-1.32709e-06 -3.58074e-07 -1.09151e-05
0.00240802 -0.00123044 2.53263e-06
-0.00123044 0.000557944 4.4508e-07
2.53263e-06 4.4508e-07 -0.000161506
0.0027905 -0.00110035 -6.61962e-07
-0.00110035 0.000608676 5.96095e-07
-6.61962e-07 5.96095e-07 7.1464e-05
0.00250346 -0.000686541 -9.54769e-07
-0.000686541 0.000103785 2.508e-07
-9.54769e-07 2.508e-07 1.59423e-06
0.0025786 -0.000601324 6.68505e-07
-0.000601324 -5.80301e-06 -5.80338e-07
6.68505e-07 -5.80338e-07 -1.98118e-06
0.00274105 -0.00100218 -1.97237e-06
-0.00100218 0.000466385 7.27627e-07
-1.97237e-06 7.27627e-07 0.000107982
0.00267754 -0.000882635 -1.15657e-06
-0.000882635 0.000148541 6.12165e-07
-1.15657e-06 6.12165e-07 3.00118e-05
0.00264959 -0.00100426 7.8051e-06
-0.00100426 0.000187124 -2.76407e-06
7.8051e-06 -2.76407e-06 -2.66125e-05
0.00216197 -0.00118746 -1.57147e-07
-0.00118746 0.000953873 -6.73126e-07
-1.57147e-07 -6.73126e-07 8.46446e-05
0.00219819 -0.00107499 -5.44109e-06
-0.00107499 0.00109986 -1.25733e-06
-5.44109e-06 -1.25733e-06 0.000240556
0.00116554 -0.000636163 -6.04792e-06
-0.000636163 0.000615037 3.41005e-06
-6.04792e-06 3.41005e-06 1.84444e-06
3.16638e-05 -0.000202323 -6.1185e-06
-0.000202323 -0.000223146 1.74074e-06
-6.1185e-06 1.74074e-06 -0.00053638
0.000320868 7.53614e-06 -5.19852e-06
7.53614e-06 6.63895e-05 -5.62588e-07
-5.19852e-06 -5.62588e-07 -0.000409879
0.00234538 -0.000111415 -6.52691e-07
-0.000111415 -7.08246e-05 1.14525e-08
-6.52691e-07 1.14525e-08 8.60808e-06
0.00240192 -0.000269324 -1.38555e-06
-0.000269324 -8.31099e-05 -1.77192e-07
-1.38555e-06 -1.77192e-07 -7.44273e-06
0.00261226 -0.00053908 1.14124e-07
-0.00053908 -0.0001 9.52131e-08
1.14124e-07 9.52131e-08 -5.54145e-06
0.00259606 -0.000735631 1.44255e-06
-0.000735631 2.26801e-05 5.5503e-07
1.44255e-06 5.5503e-07 -1.76576e-05
0.00260086 -0.00140226 2.47641e-06
-0.00140226 0.000983602 -1.29727e-06
2.47641e-06 -1.29727e-06 9.95321e-05
0.0028044 -0.00101236 4.69629e-07
-0.00101236 0.000121858 -1.3763e-06
4.69629e-07 -1.3763e-06 -2.10895e-05
0.00189453 -0.00121908 1.84128e-06
-0.00121908 0.000259409 5.35018e-06
1.84128e-06 5.35018e-06 -0.000462999
0.00296642 -0.00117228 1.02318e-06
-0.00117228 0.000704322 -8.98795e-07
1.02318e-06 -8.98795e-07 0.000166573
0.0026697 -0.00103478 -9.36241e-06
-0.00103478 0.000329359 -3.09426e-06
-9.36241e-06 -3.09426e-06 1.96774e-05
-0.000211556 -0.000191205 -1.91614e-06
-0.000191205 -0.000292868 5.68891e-06
-1.91614e-06 5.68891e-06 -0.000577726
0.00373118 -0.000478292 -3.49123e-06
-0.000478292 0.0023194 1.60463e-07
-3.49123e-06 1.60463e-07 0.00183886
-0.000431511 -0.000287588 -1.10358e-05
-0.000287588 -0.000437486 9.25254e-06
-1.10358e-05 9.25254e-06 -0.000893885
0.0029829 -0.00141594 -1.13017e-05
-0.00141594 0.00148904 9.5882e-06
-1.13017e-05 9.5882e-06 0.000524238
0.00394337 -0.000966248 1.83188e-06
-0.000966248 0.00223229 9.96297e-06
1.83188e-06 9.96297e-06 0.00155943
0.00206293 -0.00111342 -1.92196e-05
-0.00111342 0.000970362 1.8177e-05
-1.92196e-05 1.8177e-05 7.70309e-05
0.000284389 0.000105959 -1.42662e-05
0.000105959 -9.90655e-05 -1.74819e-05
-1.42662e-05 -1.74819e-05 -0.000183421
0.000226454 0.000270246 -2.64118e-06
0.000270246 -1.692e-05 -1.49155e-05
-2.64118e-06 -1.49155e-05 -0.000374405
0.00245886 0.000648925 -3.77966e-06
0.000648925 0.000135843 -1.96633e-06
-3.77966e-06 -1.96633e-06 -1.06893e-05
-0.000423355 -3.67472e-05 -8.11387e-06
-3.67472e-05 -0.000481739 -2.26977e-06
-8.11387e-06 -2.26977e-06 -0.000882771
0.00325204 0.000812302 1.66931e-05
0.000812302 0.00168088 6.83249e-06
1.66931e-05 6.83249e-06 0.001062
6.31767e-05 0.000482636 -1.36484e-05
0.000482636 -0.000452074 -1.88669e-06
-1.36484e-05 -1.88669e-06 -0.000952562
0.00254515 0.000897121 4.12868e-07
0.000897121 0.000350808 -1.65995e-06
4.12868e-07 -1.65995e-06 3.98375e-06
0.00254605 0.000852884 1.80744e-06
0.000852884 0.000202846 -8.35232e-07
1.80744e-06 -8.35232e-07 -2.23847e-05
0.00311785 0.00147905 5.01919e-06
0.00147905 0.00142392 7.60585e-06
5.01919e-06 7.60585e-06 0.000475976
0.00367953 0.00145337 -7.66491e-06
0.00145337 0.00135437 4.46599e-06
-7.66491e-06 4.46599e-06 0.000595748
0.00288915 0.00103717 3.04319e-06
0.00103717 0.000482646 -3.77636e-07
3.04319e-06 -3.77636e-07 6.38807e-05
0.00089506 0.000212857 -5.17264e-08
0.000212857 0.000385394 -1.74244e-07
-5.17264e-08 -1.74244e-07 0.000118472
0.00100079 0.000398801 -4.70595e-06
0.000398801 0.000543963 -4.98177e-07
-4.70595e-06 -4.98177e-07 8.82268e-05
0.00178077 0.00107409 7.697e-07
0.00107409 0.000804338 -3.27283e-07
7.697e-07 -3.27283e-07 -1.25032e-05
0.000995584 0.000298926 -1.16879e-06
0.000298926 7.60162e-05 -9.34244e-07
-1.16879e-06 -9.34244e-07 -0.000265218
0.00155463 0.000764971 -2.42725e-09
0.000764971 0.000206117 -4.95094e-06
-2.42725e-09 -4.95094e-06 -0.000340506
0.00257269 0.000700691 -1.97291e-06
0.000700691 9.29856e-05 -1.11465e-06
-1.97291e-06 -1.11465e-06 -2.30946e-06
0.00267516 0.000985807 2.57222e-06
0.000985807 0.000351116 5.10454e-07
2.57222e-06 5.10454e-07 -2.7352e-06
0.00273676 0.000979217 1.0856e-06
0.000979217 0.000233522 1.16231e-06
1.0856e-06 1.16231e-06 2.15982e-05
0.0025108 0.00154771 2.67149e-06
0.00154771 0.00103909 1.60177e-06
2.67149e-06 1.60177e-06 6.58456e-05
0.00261775 0.00132247 -2.31274e-06
0.00132247 0.000532393 -4.01534e-06
-2.31274e-06 -4.01534e-06 -0.000143071
0.00150629 0.000580456 5.46916e-06
0.000580456 0.000835419 3.5773e-06
5.46916e-06 3.5773e-06 0.000440991
-0.00140351 0.000423186 3.42636e-06
0.000423186 -0.00103748 -9.34143e-06
3.42636e-06 -9.34143e-06 -0.00152244
0.00226767 0.00125868 -2.06721e-06
0.00125868 0.00107006 -3.15676e-06
-2.06721e-06 -3.15676e-06 0.000223078
-0.00225355 0.000622452 1.87211e-05
0.000622452 -0.00204635 -9.92325e-07
1.87211e-05 -9.92325e-07 -0.00261037
0.00272574 0.00120542 4.27789e-06
0.00120542 0.000858923 -2.17849e-06
4.27789e-06 -2.17849e-06 0.000175165
0.00273582 0.00082606 -1.76405e-06
0.00082606 2.54761e-05 3.0134e-07
-1.76405e-06 3.0134e-07 2.63841e-06
0.00277392 0.00106066 9.3289e-06
0.00106066 0.000337225 -1.4276e-06
9.3289e-06 -1.4276e-06 -5.41559e-05
0.00243429 0.000925959 7.20315e-06
0.000925959 -4.60038e-05 1.70318e-06
7.20315e-06 1.70318e-06 -0.000269392
0.00295621 0.00163259 2.59257e-05
0.00163259 0.00119335 8.61602e-06
2.59257e-05 8.61602e-06 0.000233916
0.0028737 0.00156871 1.40165e-05
0.00156871 0.000800477 2.8605e-06
1.40165e-05 2.8605e-06 -1.03759e-05
0.00042024 0.000114526 7.99496e-06
0.000114526 6.40077e-05 -1.02545e-05
7.99496e-06 -1.02545e-05 -0.000140122
0.00077437 0.000291396 -2.11815e-06
0.000291396 0.000374808 7.03643e-07
-2.11815e-06 7.03643e-07 5.68766e-05
-0.000477242 0.000136013 -7.62333e-06
0.000136013 -0.000443927 -2.94213e-05
-7.62333e-06 -2.94213e-05 -0.000655699
-0.00146761 -4.50221e-05 1.22579e-05
-4.50221e-05 -0.00105674 -2.05844e-06
1.22579e-05 -2.05844e-06 -0.0013153
0.000603686 0.000144721 -2.91422e-06
0.000144721 0.000291078 3.37516e-07
-2.91422e-06 3.37516e-07 6.38792e-05
-0.000198652 0.000114251 6.06833e-06
0.000114251 -0.000162356 1.04862e-06
6.06833e-06 1.04862e-06 -0.000439153
0.000938078 0.000279606 -2.1001e-06
0.000279606 0.000616587 -2.37634e-06
-2.1001e-06 -2.37634e-06 0.000350042
0.000366518 -3.91924e-06 -1.40216e-05
-3.91924e-06 0.000196862 7.6107e-06
-1.40216e-05 7.6107e-06 -6.58422e-05
0.000947268 0.000164159 -4.21156e-06
0.000164159 0.000476233 -3.03924e-06
-4.21156e-06 -3.03924e-06 0.000297769
0.000486914 0.000107947 9.07593e-07
0.000107947 0.000109533 2.66597e-06
9.07593e-07 2.66597e-06 -5.09852e-06
0.000405879 5.15583e-05 -3.22383e-06
5.15583e-05 5.38178e-05 2.73135e-07
-3.22383e-06 2.73135e-07 -5.84124e-05
0.0015165 9.06836e-06 1.54362e-06
9.06836e-06 0.000744434 5.17475e-06
1.54362e-06 5.17475e-06 0.000707108
-5.43491e-05 -7.66516e-05 1.00806e-05
-7.66516e-05 -0.000237751 -3.19838e-06
1.00806e-05 -3.19838e-06 -0.000366182
0.00159106 2.00705e-05 -1.76854e-05
2.00705e-05 0.000791328 -2.73454e-06
-1.76854e-05 -2.73454e-06 0.000752044
0.000707149 -1.34756e-06 5.59973e-05
-1.34756e-06 0.000194882 1.33312e-05
5.59973e-05 1.33312e-05 0.000192949
0.00170612 2.72351e-05 -2.7305e-05
2.72351e-05 0.000861715 -1.26647e-05
-2.7305e-05 -1.26647e-05 0.000819024
0.000751968 -2.506e-05 3.05972e-05
-2.506e-05 0.000225722 5.25932e-06
3.05972e-05 5.25932e-06 0.000212522
0.00391522 -0.000181417 2.02493e-05
-0.000181417 0.00236674 -7.76539e-06
2.02493e-05 -7.76539e-06 0.0023397
0.000420425 0.000118196 -2.92413e-06
0.000118196 6.67527e-05 -1.02609e-05
-2.92413e-06 -1.02609e-05 -3.97055e-05
0.000442413 -6.09029e-05 -8.59854e-06
-6.09029e-05 2.85788e-05 -1.1997e-06
-8.59854e-06 -1.1997e-06 -7.35053e-05
0.00417637 0.000262516 -4.08398e-05
0.000262516 0.00259567 -1.70622e-05
-4.08398e-05 -1.70622e-05 0.00254269
0.000482016 -0.000172997 -1.70487e-05
-0.000172997 4.45776e-05 1.39092e-05
-1.70487e-05 1.39092e-05 -7.25775e-05
0.0046625 0.000172234 -2.57365e-05
0.000172234 0.00291551 -8.54623e-07
-2.57365e-05 -8.54623e-07 0.00288126
0.00666039 7.77776e-05 -0.000266322
7.77776e-05 0.00426125 5.37254e-05
-0.000266322 5.37254e-05 0.00423219
0.00242065 0.000512695 -3.79647e-06
0.000512695 7.60774e-05 -1.22957e-06
-3.79647e-06 -1.22957e-06 4.20088e-06
0.00222839 0.000259256 -4.08819e-06
0.000259256 -2.77549e-05 -5.14415e-07
-4.08819e-06 -5.14415e-07 -3.44109e-05
0.00243589 0.000381747 8.813e-07
0.000381747 -6.64711e-05 8.72552e-07
8.813e-07 8.72552e-07 -2.36485e-05
0.00233839 0.000186826 1.35311e-06
0.000186826 -9.16513e-05 3.32615e-07
1.35311e-06 3.32615e-07 -1.49469e-05
0.00219099 6.96401e-05 -3.39669e-06
6.96401e-05 -6.04922e-05 -1.33563e-09
-3.39669e-06 -1.33563e-09 -3.00179e-05
0.00241422 -5.65816e-06 -4.17445e-06
-5.65816e-06 0.000112739 1.03084e-07
-4.17445e-06 1.03084e-07 8.11312e-05
0.00219176 -1.26567e-05 2.38701e-07
-1.26567e-05 -5.0279e-05 -2.54792e-08
2.38701e-07 -2.54792e-08 -2.31155e-05
0.00235841 8.00829e-05 4.04091e-07
8.00829e-05 -6.5622e-05 3.23012e-08
4.04091e-07 3.23012e-08 1.25595e-05
0.00238264 0.000262461 -7.36511e-07
0.000262461 -5.39792e-05 -7.59333e-08
-7.36511e-07 -7.59333e-08 -4.08764e-06
0.00244612 0.00019756 5.90034e-07
0.00019756 -0.000126388 1.60495e-07
5.90034e-07 1.60495e-07 3.83194e-06
0.00252418 0.000537646 -2.77542e-07
0.000537646 8.57453e-06 1.85079e-08
-2.77542e-07 1.85079e-08 -5.89937e-06
0.00253204 0.000386813 1.76992e-06
0.000386813 -0.000109329 7.5912e-07
1.76992e-06 7.5912e-07 -2.07626e-05
0.00233117 -1.59251e-05 -1.1154e-06
-1.59251e-05 -7.98962e-05 -4.1341e-08
-1.1154e-06 -4.1341e-08 -2.08934e-06
0.00249405 9.80612e-05 -6.20883e-07
9.80612e-05 -0.000123091 -5.99234e-07
-6.20883e-07 -5.99234e-07 2.03333e-05
0.00253758 0.000276561 2.25729e-07
0.000276561 -0.000107866 -2.00448e-07
2.25729e-07 -2.00448e-07 2.71359e-05
0.00264909 0.000547796 2.0044e-09
0.000547796 -0.000115698 3.53014e-07
2.0044e-09 3.53014e-07 -1.49755e-05
0.00220341 -9.56349e-05 -5.01207e-06
-9.56349e-05 -3.3917e-05 4.78074e-07
-5.01207e-06 4.78074e-07 -1.67778e-05
0.00236829 -0.00028492 -4.12794e-06
-0.00028492 6.87177e-05 1.05633e-06
-4.12794e-06 1.05633e-06 5.49407e-05
0.00228765 -0.000175284 6.62137e-07
-0.000175284 -7.72999e-05 -4.20896e-07
6.62137e-07 -4.20896e-07 -1.43011e-05
0.00241145 -0.000441927 -1.49538e-06
-0.000441927 -5.58648e-05 -3.34267e-07
-1.49538e-06 -3.34267e-07 -3.13517e-05
0.00265993 -0.00111207 3.54463e-06
-0.00111207 0.00101393 -7.39789e-06
3.54463e-06 -7.39789e-06 0.000264699
0.00233865 -0.00123565 7.44361e-06
-0.00123565 0.000488026 -1.30557e-06
7.44361e-06 -1.30557e-06 -0.000236761
0.00271469 -0.00111045 -1.18141e-05
-0.00111045 0.000559176 1.65234e-06
-1.18141e-05 1.65234e-06 1.09203e-05
0.00255577 -0.00068931 -2.80198e-06
-0.00068931 0.000148072 1.202e-06
-2.80198e-06 1.202e-06 3.89331e-05
0.00255887 -0.000599416 1.94687e-06
-0.000599416 -1.82437e-05 -7.36559e-07
1.94687e-06 -7.36559e-07 -3.58165e-06
0.00268391 -0.000885221 -4.87136e-06
-0.000885221 0.000148057 1.2886e-06
-4.87136e-06 1.2886e-06 2.82191e-05
0.002726 -0.00100699 -4.42018e-06
-0.00100699 0.000467448 3.2512e-06
-4.42018e-06 3.2512e-06 0.000106636
0.00263862 -0.000994543 -5.21511e-07
-0.000994543 0.000177175 -4.02099e-07
-5.21511e-07 -4.02099e-07 -2.78839e-05
0.00239866 -0.00120639 -2.26289e-05
-0.00120639 0.00112435 -6.69347e-06
-2.26289e-05 -6.69347e-06 0.000252636
0.00197498 -0.00103593 1.4836e-05
-0.00103593 0.000962004 -1.71534e-05
1.4836e-05 -1.71534e-05 0.000134371
-0.000344507 -0.000364281 -1.76445e-05
-0.000364281 -0.000356861 -6.84081e-06
-1.76445e-05 -6.84081e-06 -0.000943917
0.000378217 -0.000116853 -5.91781e-06
-0.000116853 3.72142e-05 2.56877e-06
-5.91781e-06 2.56877e-06 -0.000269672
0.00229463 -3.57352e-05 -1.70696e-06
-3.57352e-05 0.00128135 -2.20496e-06
-1.70696e-06 -2.20496e-06 0.000844375
0.00233923 -0.000119607 1.52612e-07
-0.000119607 -7.24253e-05 -7.69799e-08
1.52612e-07 -7.69799e-08 5.0713e-06
0.00240669 -0.000270619 1.75082e-06
-0.000270619 -8.15752e-05 -7.22688e-08
1.75082e-06 -7.22688e-08 -8.17783e-06
0.00258358 -0.000532934 -1.08065e-06
-0.000532934 -0.000100105 1.48044e-07
-1.08065e-06 1.48044e-07 -1.9101e-05
0.00270747 -0.00139365 -1.91204e-06
-0.00139365 0.00104711 -3.05794e-07
-1.91204e-06 -3.05794e-07 0.00017167
0.00200513 -0.00122834 5.35528e-06
-0.00122834 0.000322896 -4.72749e-07
5.35528e-06 -4.72749e-07 -0.000401747
0.00286472 -0.00117611 -1.707e-06
-0.00117611 0.000640217 -5.66484e-07
-1.707e-06 -5.66484e-07 9.00029e-05
0.00260133 -0.000725309 2.53235e-07
-0.000725309 3.45602e-05 -3.98251e-07
2.53235e-07 -3.98251e-07 -7.56572e-06
0.00268913 -0.00105648 5.53728e-06
-0.00105648 0.000323032 -2.8246e-06
5.53728e-06 -2.8246e-06 1.11616e-05
0.00280529 -0.00100356 -5.98754e-07
-0.00100356 0.000147656 -6.08604e-07
-5.98754e-07 -6.08604e-07 7.18378e-06
-0.000391946 -2.77919e-05 -3.80043e-06
-2.77919e-05 -0.000452354 -5.94807e-08
-3.80043e-06 -5.94807e-08 -0.000695156
0.00220587 -0.00127075 3.2149e-07
-0.00127075 0.00100868 -9.07674e-07
3.2149e-07 -9.07674e-07 9.84724e-05
0.0025198 -0.00122165 -5.3375e-06
-0.00122165 0.00125536 4.60327e-06
-5.3375e-06 4.60327e-06 0.00030908
0.00214498 -0.000786993 4.56391e-06
-0.000786993 0.00116731 2.81493e-06
4.56391e-06 2.81493e-06 0.000475344
0.000603295 -0.000339306 -1.12705e-06
-0.000339306 0.000183554 -4.43201e-07
-1.12705e-06 -4.43201e-07 -0.000275798
0.00156459 -0.000225246 -3.2912e-06
-0.000225246 0.000857307 2.56129e-06
-3.2912e-06 2.56129e-06 0.000397663
0.00243551 -0.000153244 -1.74016e-06
-0.000153244 -0.000143329 2.4068e-07
-1.74016e-06 2.4068e-07 -1.46243e-05
0.00258957 -0.00035665 1.42862e-06
-0.00035665 -0.000183062 7.87675e-08
1.42862e-06 7.87675e-08 -1.10702e-05
0.00272233 -0.000674033 5.99368e-07
-0.000674033 -7.44985e-05 6.48751e-07
5.99368e-07 6.48751e-07 1.64621e-05
0.00275239 -0.000872062 7.28893e-07
-0.000872062 1.00205e-06 7.95825e-07
7.28893e-07 7.95825e-07 5.46976e-06
0.00271957 -0.0014625 -5.07791e-06
-0.0014625 0.00107986 7.47759e-06
-5.07791e-06 7.47759e-06 0.000181113
0.00282168 -0.00115419 -7.33244e-08
-0.00115419 0.00024553 -6.94314e-06
-7.33244e-08 -6.94314e-06 -2.3585e-05
0.0029326 -0.00149439 -4.53431e-05
-0.00149439 0.000907926 1.12442e-05
-4.53431e-05 1.12442e-05 8.81337e-05
0.00262812 -0.00123192 -3.12637e-05
-0.00123192 0.000489771 2.07666e-09
-3.12637e-05 2.07666e-09 -4.63372e-05
-0.000908907 -9.16446e-06 -1.59321e-06
-9.16446e-06 -0.000821363 2.46622e-07
-1.59321e-06 2.46622e-07 -0.000979119
0.001429 -0.000228834 -3.25897e-06
-0.000228834 0.000905901 6.02661e-06
-3.25897e-06 6.02661e-06 0.000474232
0.00324027 -0.000557693 -1.58642e-05
-0.000557693 0.00195516 8.14755e-06
-1.58642e-05 8.14755e-06 0.00150777
0.000401572 -0.000402526 -5.2585e-07
-0.000402526 5.67513e-05 -7.80379e-06
-5.2585e-07 -7.80379e-06 -0.000390223
0.00294485 -0.00137573 -2.24087e-05
-0.00137573 0.00145204 2.70545e-05
-2.24087e-05 2.70545e-05 0.000504715
0.00224722 -0.00112711 -2.16075e-05
-0.00112711 0.00114255 2.17673e-05
-2.16075e-05 2.17673e-05 0.000184233
0.000137548 0.000155743 1.79036e-06
0.000155743 -7.90914e-05 -9.25112e-06
1.79036e-06 -9.25112e-06 -0.00036606
0.000155523 0.000211194 -4.34754e-06
0.000211194 -5.81313e-05 -5.97368e-06
-4.34754e-06 -5.97368e-06 -0.000453176
0.00256901 0.00069929 -1.38066e-06
0.00069929 0.000104002 -1.19256e-06
-1.38066e-06 -1.19256e-06 6.99331e-06
0.000311718 0.000273693 -1.01061e-05
0.000273693 -0.000366603 9.12703e-06
-1.01061e-05 9.12703e-06 -0.000694683
0.00205103 0.00112655 8.67379e-06
0.00112655 0.000956285 2.22803e-06
8.67379e-06 2.22803e-06 0.000104791
0.000778993 0.000631852 -1.42876e-05
0.000631852 -0.000235668 -5.25506e-06
-1.42876e-05 -5.25506e-06 -0.000738253
0.00270911 0.000993469 3.61596e-06
0.000993469 0.00034886 -2.3246e-06
3.61596e-06 -2.3246e-06 -7.26782e-06
0.0028123 0.000984505 -3.89695e-06
0.000984505 0.000249246 -1.67094e-06
-3.89695e-06 -1.67094e-06 4.53189e-05
0.00282217 0.0016154 -9.23006e-06
0.0016154 0.00120224 9.26755e-07
-9.23006e-06 9.26755e-07 0.000214515
0.00254403 0.00133338 -1.22415e-05
0.00133338 0.000548305 -7.99789e-07
-1.22415e-05 -7.99789e-07 -0.00014648
0.000833314 0.000341122 2.43232e-07
0.000341122 0.000407704 -5.80788e-07
2.43232e-07 -5.80788e-07 2.62443e-05
0.00142908 0.000481513 -2.59728e-06
0.000481513 0.000742512 -8.35007e-06
-2.59728e-06 -8.35007e-06 0.000274557
0.00164895 0.00114067 -3.35796e-06
0.00114067 0.000694206 -1.70844e-06
-3.35796e-06 -1.70844e-06 -0.000122076
0.0017591 0.000626905 1.52391e-06
0.000626905 0.00035167 2.292e-06
1.52391e-06 2.292e-06 -8.63872e-05
0.00365411 0.00121456 -4.54369e-06
0.00121456 0.00152004 6.402e-07
-4.54369e-06 6.402e-07 0.000845867
0.00277887 0.000837518 -2.46104e-06
0.000837518 3.69154e-05 -4.56173e-07
-2.46104e-06 -4.56173e-07 6.69441e-06
0.00283215 0.00101647 2.77736e-06
0.00101647 0.00038619 -1.0853e-06
2.77736e-06 -1.0853e-06 2.3668e-05
0.00278237 0.000951271 5.30281e-07
0.000951271 0.000203237 2.56614e-06
5.30281e-07 2.56614e-06 -2.98757e-05
0.00273242 0.00162144 7.7925e-06
0.00162144 0.00104553 2.36128e-06
7.7925e-06 2.36128e-06 8.02925e-05
0.00289626 0.00166114 -5.60355e-06
0.00166114 0.000820518 1.93875e-06
-5.60355e-06 1.93875e-06 -4.64952e-05
-0.00179676 0.000163377 -1.03348e-05
0.000163377 -0.00129661 -3.38579e-06
-1.03348e-05 -3.38579e-06 -0.00159331
-0.00153176 0.000573297 4.13347e-06
0.000573297 -0.000746801 -1.07875e-05
4.13347e-06 -1.07875e-05 -0.00145091
0.00240155 0.00130408 1.33495e-05
0.00130408 0.000974471 6.48454e-07
1.33495e-05 6.48454e-07 0.000158131
0.00355597 0.000971491 7.30558e-06
0.000971491 0.00138904 -6.26224e-06
7.30558e-06 -6.26224e-06 0.000867862
0.002923 0.000752766 3.99629e-06
0.000752766 -0.000229849 3.74079e-06
3.99629e-06 3.74079e-06 -9.62877e-06
0.00283239 0.00103446 7.84628e-06
0.00103446 5.3224e-05 2.84907e-06
7.84628e-06 2.84907e-06 -4.34185e-05
0.00311211 0.00135327 1.24574e-05
0.00135327 0.000593734 -3.90517e-06
1.24574e-05 -3.90517e-06 -1.9152e-05
0.00268713 0.00172872 1.70702e-05
0.00172872 0.000786841 2.76063e-06
1.70702e-05 2.76063e-06 -0.000201155
0.00204488 0.000340681 1.05115e-05
0.000340681 0.00125998 1.90762e-06
1.05115e-05 1.90762e-06 0.000900363
0.000155423 0.000259896 -4.8843e-06
0.000259896 2.48381e-05 2.83911e-06
-4.8843e-06 2.83911e-06 -0.000231884
-0.000361869 0.000101221 2.14362e-06
0.000101221 -0.00026335 -1.24377e-05
2.14362e-06 -1.24377e-05 -0.000432417
-0.000394928 2.02493e-05 6.4853e-06
2.02493e-05 -0.000388798 1.784e-06
6.4853e-06 1.784e-06 -0.000599636
-0.0029569 -1.26582e-06 4.31558e-06
-1.26582e-06 -0.00186861 -2.6884e-06
4.31558e-06 -2.6884e-06 -0.00217077
0.000736993 0.000104639 -1.32244e-06
0.000104639 0.00033978 -4.72622e-07
-1.32244e-06 -4.72622e-07 0.000157301
0.000724731 0.000278488 1.16846e-05
0.000278488 0.00052282 3.76169e-06
1.16846e-05 3.76169e-06 0.000257695
0.000721723 0.000111692 1.64696e-06
0.000111692 0.000469665 3.08034e-06
1.64696e-06 3.08034e-06 0.000168108
0.00166348 0.000247452 -9.40776e-06
0.000247452 0.00090884 -1.38861e-05
-9.40776e-06 -1.38861e-05 0.000774042
0.000596546 8.27551e-05 -7.36233e-06
8.27551e-05 0.000409613 -1.14602e-06
-7.36233e-06 -1.14602e-06 0.000119557
-0.00026077 7.94181e-05 -7.49847e-06
7.94181e-05 -0.000255647 4.91455e-06
-7.49847e-06 4.91455e-06 -0.000484029
0.000932455 0.000181744 -1.47939e-07
0.000181744 0.000460072 2.20385e-06
-1.47939e-07 2.20385e-06 0.000275658
0.000476526 0.000114757 2.72244e-06
0.000114757 0.000110854 4.29599e-06
2.72244e-06 4.29599e-06 -1.09645e-05
0.000417095 2.66864e-05 -2.03504e-06
2.66864e-05 5.97312e-05 -5.66802e-07
-2.03504e-06 -5.66802e-07 -5.10985e-05
0.00136915 3.64946e-05 8.01686e-07
3.64946e-05 0.000652972 3.60882e-06
8.01686e-07 3.60882e-06 0.000617533
0.000287362 -5.00295e-05 3.91848e-06
-5.00295e-05 -3.01742e-05 -1.69376e-06
3.91848e-06 -1.69376e-06 -0.000135866
0.00146028 1.76773e-05 -1.63647e-05
1.76773e-05 0.000712318 -2.26604e-06
-1.63647e-05 -2.26604e-06 0.000675236
0.000706923 4.07237e-06 5.10762e-05
4.07237e-06 0.000198854 1.22579e-05
5.10762e-05 1.22579e-05 0.000197959
0.00148735 -3.59832e-05 -1.61947e-05
-3.59832e-05 0.000726357 -1.05123e-05
-1.61947e-05 -1.05123e-05 0.000688177
0.000728688 -1.65235e-05 2.53969e-05
-1.65235e-05 0.000208214 4.86166e-06
2.53969e-05 4.86166e-06 0.000200927
0.00066727 -3.54656e-05 6.96346e-06
-3.54656e-05 0.00017209 -6.06294e-06
6.96346e-06 -6.06294e-06 0.000154417
0.000435056 1.05528e-05 4.66539e-06
1.05528e-05 1.19552e-05 -1.0565e-05
4.66539e-06 -1.0565e-05 -4.21808e-05
0.00029032 1.40949e-05 -1.6519e-06
1.40949e-05 -6.01839e-05 5.74464e-07
-1.6519e-06 5.74464e-07 -0.000150066
0.00345869 0.000191222 -2.42402e-05
0.000191222 0.00207809 -1.33179e-05
-2.42402e-05 -1.33179e-05 0.00204909
-0.000698227 -8.02205e-05 -2.11896e-05
-8.02205e-05 -0.000717549 8.02245e-06
-2.11896e-05 8.02245e-06 -0.000824131
0.00466674 0.000166494 -2.92282e-05
0.000166494 0.00288547 -1.58713e-06
-2.92282e-05 -1.58713e-06 0.00285548
0.00471792 6.16021e-05 -0.00017497
6.16021e-05 0.00293903 3.32515e-05
-0.00017497 3.32515e-05 0.00293272
0.00253531 0.000540873 6.65513e-07
0.000540873 1.87334e-05 6.36516e-07
6.65513e-07 6.36516e-07 7.63269e-07
0.00239895 0.000262687 1.0066e-07
0.000262687 -3.70423e-05 -4.55039e-09
1.0066e-07 -4.55039e-09 1.0173e-05
0.00255868 0.000390061 9.36883e-07
0.000390061 -9.2034e-05 1.82732e-06
9.36883e-07 1.82732e-06 8.23598e-06
0.00241048 0.000200535 1.63556e-06
0.000200535 -0.000155473 3.22547e-07
1.63556e-06 3.22547e-07 -1.37322e-05
0.00234189 8.24431e-05 8.80362e-07
8.24431e-05 -7.18469e-05 2.46209e-07
8.80362e-07 2.46209e-07 1.16629e-06
0.00220114 -1.48323e-05 -5.12107e-06
-1.48323e-05 -3.90059e-05 1.7364e-07
-5.12107e-06 1.7364e-07 -1.51935e-05
0.00233546 -1.54889e-05 5.18868e-07
-1.54889e-05 -7.65825e-05 -2.56616e-08
5.18868e-07 -2.56616e-08 2.7813e-06
0.00245798 0.000103723 4.21591e-07
0.000103723 -0.0001403 1.76747e-07
4.21591e-07 1.76747e-07 2.42701e-06
0.00252721 0.000281062 6.93031e-07
0.000281062 -0.000120141 -1.5165e-08
6.93031e-07 -1.5165e-08 1.47498e-05
0.00265921 0.000529521 4.15072e-07
0.000529521 -0.000105224 2.49031e-07
4.15072e-07 2.49031e-07 1.81204e-06
0.00245891 -1.44705e-05 -1.8747e-06
-1.44705e-05 -0.000143054 -1.99601e-07
-1.8747e-06 -1.99601e-07 -4.80736e-06
0.00261281 0.000175768 1.75825e-07
0.000175768 -0.000167785 -8.56089e-07
1.75825e-07 -8.56089e-07 4.60141e-05
0.00275621 0.000375769 2.5268e-06
0.000375769 -0.000171755 -8.08398e-08
2.5268e-06 -8.08398e-08 2.61069e-05
0.00233584 -0.000127484 1.24782e-06
-0.000127484 -7.16907e-05 -2.40265e-07
1.24782e-06 -2.40265e-07 3.72868e-06
0.00241067 -0.000270949 -2.82053e-07
-0.000270949 -8.01723e-05 -3.16029e-07
-2.82053e-07 -3.16029e-07 -9.04056e-06
0.00255217 -0.000526066 -7.18408e-07
-0.000526066 -0.00010235 -9.86457e-08
-7.18408e-07 -9.86457e-08 -3.38006e-05
0.00279721 -0.00139124 -5.05065e-06
-0.00139124 0.00109523 -7.12574e-07
-5.05065e-06 -7.12574e-07 0.000221134
0.0020733 -0.00121393 5.6507e-06
-0.00121393 0.000369327 -3.85742e-06
5.6507e-06 -3.85742e-06 -0.000346255
0.00270392 -0.00116055 5.77321e-07
-0.00116055 0.000540803 1.39947e-06
5.77321e-07 1.39947e-06 -1.28324e-05
0.00260475 -0.000715374 -1.26618e-06
-0.000715374 4.284e-05 1.44074e-07
-1.26618e-06 1.44074e-07 -5.8764e-07
0.00281622 -0.000993538 -2.28758e-06
-0.000993538 0.000176537 1.54695e-06
-2.28758e-06 1.54695e-06 4.32307e-05
0.002726 -0.00107997 6.6255e-06
-0.00107997 0.000327483 -2.48044e-06
6.6255e-06 -2.48044e-06 1.32469e-05
0.00195601 -0.00122325 -4.08659e-07
-0.00122325 0.00085888 -1.09823e-05
-4.08659e-07 -1.09823e-05 -3.8446e-05
0.00202223 -0.00118906 2.20349e-05
-0.00118906 0.000963225 -2.51225e-05
2.20349e-05 -2.51225e-05 -4.51626e-06
-9.02802e-05 -0.000749822 -1.03489e-05
-0.000749822 -0.000117631 -9.98351e-06
-1.03489e-05 -9.98351e-06 -0.000888741
7.17678e-05 1.03474e-05 5.9727e-06
1.03474e-05 -0.000110182 -8.36883e-06
5.9727e-06 -8.36883e-06 -0.000377825
0.00291135 -0.000468997 1.12577e-05
-0.000468997 0.00156759 -7.10523e-06
1.12577e-05 -7.10523e-06 0.00114661
-0.00105445 1.73634e-05 1.05296e-05
1.73634e-05 -0.00088632 2.17873e-06
1.05296e-05 2.17873e-06 -0.00132563
0.00246083 -0.000143907 -3.02749e-07
-0.000143907 -0.000125887 1.3153e-07
-3.02749e-07 1.3153e-07 -1.49459e-06
0.00258455 -0.000372849 7.64573e-08
-0.000372849 -0.00019377 -4.56998e-07
7.64573e-08 -4.56998e-07 -1.67868e-05
0.00270455 -0.00065744 -2.86132e-07
-0.00065744 -7.88636e-05 -9.59226e-08
-2.86132e-07 -9.59226e-08 1.15226e-05
0.00266335 -0.00144856 -1.58458e-06
-0.00144856 0.00103784 6.73099e-07
-1.58458e-06 6.73099e-07 0.000143487
0.00244602 -0.00141376 1.01483e-05
-0.00141376 0.000624901 -3.32416e-06
1.01483e-05 -3.32416e-06 -0.000167981
0.0026988 -0.00122619 -5.54675e-07
-0.00122619 0.000510652 -1.71243e-06
-5.54675e-07 -1.71243e-06 -1.47937e-05
0.0027504 -0.000886122 6.29972e-07
-0.000886122 -5.57425e-06 -4.56149e-07
6.29972e-07 -4.56149e-07 -9.8237e-06
0.00285358 -0.00114654 2.3144e-06
-0.00114654 0.000276344 -1.71805e-06
2.3144e-06 -1.71805e-06 1.40042e-05
-0.000113576 2.69621e-05 8.9596e-08
2.69621e-05 -0.000279573 -6.40161e-06
8.9596e-08 -6.40161e-06 -0.00044553
0.000501936 -0.000173567 -1.60701e-06
-0.000173567 0.000273673 -2.7839e-08
-1.60701e-06 -2.7839e-08 -0.000126452
0.0019675 -0.00123727 -9.29315e-06
-0.00123727 0.000855294 4.57419e-07
-9.29315e-06 4.57419e-07 -4.82212e-05
0.00113036 -0.000908041 2.33029e-06
-0.000908041 0.000486218 2.56445e-06
2.33029e-06 2.56445e-06 -0.000433629
0.00183129 -0.000414378 -3.15595e-06
-0.000414378 0.000902359 -7.02226e-06
-3.15595e-06 -7.02226e-06 0.000453981
0.0010305 -0.000416409 2.06021e-06
-0.000416409 0.000527455 -2.86187e-06
2.06021e-06 -2.86187e-06 7.99117e-05
0.00255584 -0.000195272 1.8459e-06
-0.000195272 -0.000229355 6.27501e-07
1.8459e-06 6.27501e-07 -8.50003e-06
0.00283286 -0.000547896 3.6028e-06
-0.000547896 -0.000208796 2.55762e-07
3.6028e-06 2.55762e-07 3.9145e-05
0.0027452 -0.000822697 2.11852e-06
-0.000822697 -0.000139679 9.4914e-07
2.11852e-06 9.4914e-07 -4.16695e-05
0.00299693 -0.00114511 4.88692e-06
-0.00114511 0.000184016 3.37012e-07
4.88692e-06 3.37012e-07 5.08295e-05
0.00248127 -0.00148727 -2.35165e-06
-0.00148727 0.000968171 -3.76925e-06
-2.35165e-06 -3.76925e-06 7.99578e-05
0.00316719 -0.00147195 2.37806e-06
-0.00147195 0.000622904 -1.46347e-05
2.37806e-06 -1.46347e-05 0.000119511
0.00231913 -0.00150621 -5.59091e-05
-0.00150621 0.000552923 3.75689e-06
-5.59091e-05 3.75689e-06 -0.000271791
0.000380853 2.92664e-05 1.58823e-06
2.92664e-05 1.78079e-05 -5.73366e-06
1.58823e-06 -5.73366e-06 -9.62242e-05
0.000598538 -0.000191787 6.0935e-06
-0.000191787 0.000252887 -5.78714e-06
6.0935e-06 -5.78714e-06 5.94381e-05
-0.00140691 4.2344e-06 -8.84775e-06
4.2344e-06 -0.000991211 4.06595e-06
-8.84775e-06 4.06595e-06 -0.00128986
0.00122584 -0.000365113 -1.22185e-05
-0.000365113 0.000824399 1.49616e-05
-1.22185e-05 1.49616e-05 0.000377415
0.00381378 -0.000198371 -1.3887e-05
-0.000198371 0.00228341 -5.23759e-07
-1.3887e-05 -5.23759e-07 0.00194385
-0.000497351 -0.000345245 -6.09051e-06
-0.000345245 -0.000397746 2.05315e-06
-6.09051e-06 2.05315e-06 -0.00111833
0.00278019 -0.00144922 -4.82428e-05
-0.00144922 0.001228 4.98082e-05
-4.82428e-05 4.98082e-05 0.000282369
0.0036564 -0.00130525 -5.4844e-05
-0.00130525 0.00207786 3.88339e-05
-5.4844e-05 3.88339e-05 0.000942676
0.000787339 0.000170865 7.58404e-06
0.000170865 0.000359213 -3.07509e-06
7.58404e-06 -3.07509e-06 -2.19269e-06
0.00207776 0.000612504 6.99907e-06
0.000612504 0.00118462 2.48531e-05
6.99907e-06 2.48531e-05 0.00065882
0.00282611 0.000851221 -1.27968e-06
0.000851221 4.8271e-05 -1.6112e-06
-1.27968e-06 -1.6112e-06 9.38464e-06
0.00212865 0.000483146 -1.12619e-05
0.000483146 0.000425998 -8.13012e-06
-1.12619e-05 -8.13012e-06 4.0541e-05
0.00173003 0.00112635 3.53887e-06
0.00112635 0.000754035 -4.06634e-06
3.53887e-06 -4.06634e-06 -6.05898e-05
0.0039277 0.00120303 4.15473e-06
0.00120303 0.00170878 8.15827e-06
4.15473e-06 8.15827e-06 0.00104112
0.00286827 0.000969342 -5.01986e-06
0.000969342 0.000420255 -3.20571e-06
-5.01986e-06 -3.20571e-06 8.78507e-05
0.00313552 0.000977727 -3.12311e-06
0.000977727 0.000455 5.31128e-06
-3.12311e-06 5.31128e-06 0.0002116
0.00250048 0.00160926 -1.23357e-05
0.00160926 0.000891983 -4.12338e-06
-1.23357e-05 -4.12338e-06 -7.69507e-05
0.00274574 0.00173701 -2.47405e-05
0.00173701 0.00073691 -3.59869e-06
-2.47405e-05 -3.59869e-06 -0.000181538
-0.00136391 0.000250043 -9.59713e-07
0.000250043 -0.000975648 -4.50106e-07
-9.59713e-07 -4.50106e-07 -0.00133365
-0.000888754 0.000550595 3.88859e-06
0.000550595 -0.000375465 2.05864e-07
3.88859e-06 2.05864e-07 -0.00105564
0.00218425 0.00130814 3.36336e-07
0.00130814 0.000770858 -6.66705e-07
3.36336e-07 -6.66705e-07 -5.9368e-05
0.00311765 0.000915692 -9.22774e-06
0.000915692 0.00122066 -1.20702e-06
-9.22774e-06 -1.20702e-06 0.000690624
0.00284757 0.000713075 -1.24372e-07
0.000713075 -0.000317278 -1.42704e-08
-1.24372e-07 -1.42704e-08 -6.70626e-05
0.00298143 0.00103434 3.17986e-06
0.00103434 0.000149804 -1.20206e-06
3.17986e-06 -1.20206e-06 2.3745e-05
0.00288595 0.00130315 -4.66745e-06
0.00130315 0.000514679 -6.75852e-07
-4.66745e-06 -6.75852e-07 -7.8451e-05
0.00288034 0.00171627 2.13547e-06
0.00171627 0.000900105 1.33269e-06
2.13547e-06 1.33269e-06 -6.69296e-05
-0.00120571 3.39945e-05 -5.6999e-06
3.39945e-05 -0.000840302 -4.65888e-06
-5.6999e-06 -4.65888e-06 -0.00108948
0.00283661 0.00049683 5.70441e-06
0.00049683 -0.000370177 2.90643e-06
5.70441e-06 2.90643e-06 -5.11014e-05
0.00339175 0.000991601 -4.39985e-06
0.000991601 0.00222032 8.04283e-06
-4.39985e-06 8.04283e-06 0.00149846
0.00227667 0.00113386 1.06219e-05
0.00113386 0.000775 -1.59748e-06
1.06219e-05 -1.59748e-06 4.45979e-05
0.0029996 0.00103177 -2.13938e-05
0.00103177 -7.89975e-05 -1.17788e-05
-2.13938e-05 -1.17788e-05 4.31067e-05
0.00220223 0.00125107 7.04393e-06
0.00125107 -2.58246e-05 -1.14451e-05
7.04393e-06 -1.14451e-05 -0.000541997
0.00383955 0.0018798 1.07379e-05
0.0018798 0.00139955 5.44616e-06
1.07379e-05 5.44616e-06 0.000397906
0.000764888 0.000259729 4.52526e-06
0.000259729 0.000451567 1.10673e-05
4.52526e-06 1.10673e-05 0.000152917
0.000709613 0.000214987 -4.51181e-06
0.000214987 0.000436876 1.48286e-07
-4.51181e-06 1.48286e-07 0.000246604
-0.00137042 4.95107e-05 -6.77349e-06
4.95107e-05 -0.00089435 -3.07309e-06
-6.77349e-06 -3.07309e-06 -0.00103627
-9.88216e-05 6.19321e-06 4.41468e-06
6.19321e-06 -0.000230007 1.03317e-06
4.41468e-06 1.03317e-06 -0.000392679
0.000463382 0.000150817 8.31457e-06
0.000150817 0.000283135 -1.19035e-05
8.31457e-06 -1.19035e-05 -4.81489e-06
-0.00106461 0.00014863 -9.34639e-06
0.00014863 -0.000613863 1.1156e-05
-9.34639e-06 1.1156e-05 -0.000846552
0.000473591 5.19958e-05 -1.814e-06
5.19958e-05 0.000151034 -7.97496e-07
-1.814e-06 -7.97496e-07 -2.46105e-05
0.00017649 3.10272e-05 7.62111e-07
3.10272e-05 5.4163e-05 -9.56592e-07
7.62111e-07 -9.56592e-07 -0.000190722
-0.000265743 0.000112944 -1.38535e-06
0.000112944 -0.000241634 2.13219e-06
-1.38535e-06 2.13219e-06 -0.000369622
0.000677618 0.000187369 3.39273e-06
0.000187369 0.000466964 -4.11547e-06
3.39273e-06 -4.11547e-06 0.00017007
0.00128548 0.00021995 -5.8226e-06
0.00021995 0.000751545 -1.23705e-05
-5.8226e-06 -1.23705e-05 0.000643079
0.0002969 0.000115756 1.63487e-07
0.000115756 0.000126735 -1.50209e-05
1.63487e-07 -1.50209e-05 -2.94811e-05
0.00126802 8.63032e-05 -6.60566e-06
8.63032e-05 0.000819232 5.1181e-06
-6.60566e-06 5.1181e-06 0.000529512
0.000629218 6.31685e-05 -6.58484e-06
6.31685e-05 0.000312369 1.04666e-06
-6.58484e-06 1.04666e-06 6.7114e-05
0.000579615 5.19108e-05 1.64393e-07
5.19108e-05 0.000198116 2.64161e-06
1.64393e-07 2.64161e-06 2.6189e-05
0.000416621 -9.6474e-05 -3.0966e-06
-9.6474e-05 5.79912e-05 3.73716e-06
-3.0966e-06 3.73716e-06 -5.64639e-05
0.000411135 1.67129e-05 1.00885e-06
1.67129e-05 4.71357e-05 -5.40864e-07
1.00885e-06 -5.40864e-07 -6.12946e-05
0.0013901 4.10286e-05 4.62524e-06
4.10286e-05 0.000669841 4.64184e-06
4.62524e-06 4.64184e-06 0.000635554
0.000394559 1.61431e-05 2.69307e-06
1.61431e-05 2.44961e-05 -2.56192e-06
2.69307e-06 -2.56192e-06 -7.25678e-05
0.00144498 2.34988e-05 -1.51766e-05
2.34988e-05 0.000706883 -2.32445e-06
-1.51766e-05 -2.32445e-06 0.000670623
0.000817872 9.12954e-06 4.5563e-05
9.12954e-06 0.000275631 1.11406e-05
4.5563e-05 1.11406e-05 0.000275424
0.00138193 -2.22748e-05 -1.48403e-05
-2.22748e-05 0.000657371 -9.09232e-06
-1.48403e-05 -9.09232e-06 0.000624221
0.000753236 -7.93042e-06 2.14664e-05
-7.93042e-06 0.000224913 4.79818e-06
2.14664e-05 4.79818e-06 0.000220391
0.000774319 -2.72746e-05 5.17199e-06
-2.72746e-05 0.000236428 -4.65958e-06
5.17199e-06 -4.65958e-06 0.000226233
0.00042728 -3.99748e-05 4.01945e-07
-3.99748e-05 3.26746e-05 -6.22277e-06
4.01945e-07 -6.22277e-06 -7.18844e-05
0.00015658 4.00905e-05 -6.90508e-07
4.00905e-05 -0.000151961 -9.6863e-06
-6.90508e-07 -9.6863e-06 -0.000207063
0.00021336 3.19593e-05 2.29533e-06
3.19593e-05 -0.000118606 1.39917e-06
2.29533e-06 1.39917e-06 -0.000181967
0.00370959 0.000141547 8.75906e-06
0.000141547 0.00222264 -8.83417e-06
8.75906e-06 -8.83417e-06 0.00220757
-1.31e-05 -1.61773e-05 -4.53523e-06
-1.61773e-05 -0.00026991 1.03223e-05
-4.53523e-06 1.03223e-05 -0.000355951
0.0039961 0.000222955 -1.46866e-05
0.000222955 0.00245 -2.18181e-06
-1.46866e-05 -2.18181e-06 0.00241239
0.00470342 0.000148485 -8.54217e-05
0.000148485 0.00291183 1.28973e-05
-8.54217e-05 1.28973e-05 0.0028887
0.00267197 0.000512949 1.82805e-07
0.000512949 -9.13035e-05 4.86074e-07
1.82805e-07 4.86074e-07 2.1171e-05
0.00251747 0.000286639 -6.45881e-07
0.000286639 -0.00013081 3.97654e-07
-6.45881e-07 3.97654e-07 3.21341e-06
0.00241747 0.000109727 1.45325e-06
0.000109727 -0.000159711 4.87827e-07
1.45325e-06 4.87827e-07 -1.74791e-05
0.0023364 -1.51155e-05 1.86906e-07
-1.51155e-05 -7.56949e-05 -4.64096e-08
1.86906e-07 -4.64096e-08 5.12602e-06
0.00246217 -1.07456e-05 -3.983e-07
-1.07456e-05 -0.000144126 -8.06861e-08
-3.983e-07 -8.06861e-08 -9.00968e-07
0.00256324 0.00017546 7.93281e-07
0.00017546 -0.000201862 2.44052e-07
7.93281e-07 2.44052e-07 1.44338e-05
0.00268239 0.000393511 -5.0406e-07
0.000393511 -0.000198202 1.95463e-08
-5.0406e-07 1.95463e-08 -3.01835e-06
0.00252681 -9.23939e-06 1.13769e-06
-9.23939e-06 -0.000266832 -2.23747e-07
1.13769e-06 -2.23747e-07 -2.97853e-05
0.00284256 0.000222638 3.68829e-06
0.000222638 -0.000221786 -1.78828e-06
3.68829e-06 -1.78828e-06 5.8656e-05
0.00270273 0.000240761 -1.19524e-06
0.000240761 -0.000506999 9.24778e-06
-1.19524e-06 9.24778e-06 -0.000145818
0.00248645 -0.000135382 1.34323e-06
-0.000135382 -0.000107482 -1.69421e-07
1.34323e-06 -1.69421e-07 1.27601e-05
0.00258184 -0.000390247 -2.14286e-06
-0.000390247 -0.000202273 2.89711e-07
-2.14286e-06 2.89711e-07 -2.13154e-05
0.00268053 -0.000641709 -4.65861e-07
-0.000641709 -8.60064e-05 3.63243e-07
-4.65861e-07 3.63243e-07 2.42998e-06
0.00245367 -0.00141953 -3.58612e-06
-0.00141953 0.000892219 -4.53492e-06
-3.58612e-06 -4.53492e-06 5.44331e-06
0.00213571 -0.00137874 2.56263e-05
-0.00137874 0.000438631 -4.62392e-06
2.56263e-05 -4.62392e-06 -0.000346262
0.00284829 -0.00123902 2.04817e-05
-0.00123902 0.000579596 -4.58233e-07
2.04817e-05 -4.58233e-07 5.73538e-05
0.00273631 -0.000897268 5.16453e-07
-0.000897268 -1.35194e-05 -1.51731e-06
5.16453e-07 -1.51731e-06 -2.90877e-05
0.0028811 -0.00113316 4.14784e-06
-0.00113316 0.000311034 4.69188e-06
4.14784e-06 4.69188e-06 5.55957e-05
0.00243159 -0.00130694 1.75142e-05
-0.00130694 0.00112366 -2.89747e-05
1.75142e-05 -2.89747e-05 0.000202394
-0.000446716 -0.000609655 2.7632e-05
-0.000609655 -0.000439216 -2.15124e-05
2.7632e-05 -2.15124e-05 -0.00132646
0.00301165 -0.000564613 8.60051e-06
-0.000564613 0.00163338 1.59171e-06
8.60051e-06 1.59171e-06 0.00118592
0.000776455 -8.13151e-05 -2.90025e-06
-8.13151e-05 0.000313238 9.33199e-06
-2.90025e-06 9.33199e-06 0.000153074
-0.000152207 -1.23451e-05 1.00199e-05
-1.23451e-05 -0.000203981 -9.54662e-06
1.00199e-05 -9.54662e-06 -0.000559605
-0.000574907 -0.00025265 7.95982e-06
-0.00025265 -0.000531723 -9.02741e-06
7.95982e-06 -9.02741e-06 -0.000969559
0.00257604 -0.000196612 1.89267e-07
-0.000196612 -0.000220842 -2.86065e-07
1.89267e-07 -2.86065e-07 4.2289e-06
0.000568881 -6.31506e-05 2.07948e-06
-6.31506e-05 0.000137554 4.32971e-07
2.07948e-06 4.32971e-07 1.56753e-05
0.000443671 -0.000124532 -4.08217e-06
-0.000124532 0.000119472 -4.48389e-07
-4.08217e-06 -4.48389e-07 -4.89769e-05
0.00276667 -0.000539369 1.12806e-08
-0.000539369 -0.000237518 1.04621e-07
1.12806e-08 1.04621e-07 3.97816e-07
0.00277249 -0.000811944 -1.68905e-06
-0.000811944 -0.000103514 5.31028e-07
-1.68905e-06 5.31028e-07 -6.99249e-06
0.00263008 -0.00152786 -1.68256e-06
-0.00152786 0.00104987 2.35e-06
-1.68256e-06 2.35e-06 0.00013619
0.00334249 -0.0016998 1.06108e-05
-0.0016998 0.00110138 -3.19758e-06
1.06108e-05 -3.19758e-06 0.000225878
0.00302657 -0.00143818 3.91959e-06
-0.00143818 0.00056341 -8.91967e-07
3.91959e-06 -8.91967e-07 7.29222e-05
0.00288114 -0.0011367 2.3724e-06
-0.0011367 0.000113365 -1.22634e-06
2.3724e-06 -1.22634e-06 -1.0021e-05
4.53055e-05 -6.76922e-05 -3.43116e-06
-6.76922e-05 -4.30414e-05 -1.56209e-06
-3.43116e-06 -1.56209e-06 -0.00034116
0.000639454 -0.00026693 4.21401e-07
-0.00026693 0.000418865 7.12682e-07
4.21401e-07 7.12682e-07 -1.21132e-05
0.00207609 -0.00126072 1.7133e-05
-0.00126072 0.000885612 6.1939e-06
1.7133e-05 6.1939e-06 -1.91678e-05
0.00218483 -0.00108348 1.77395e-05
-0.00108348 0.00122068 -1.89802e-05
1.77395e-05 -1.89802e-05 0.000149731
0.00146264 -0.000465074 -3.63068e-06
-0.000465074 0.00082895 -5.92233e-07
-3.63068e-06 -5.92233e-07 0.000165039
0.000974186 -0.000333139 1.07578e-05
-0.000333139 0.000477143 -3.76236e-06
1.07578e-05 -3.76236e-06 0.00014331
0.00264645 -0.000252194 3.38677e-06
-0.000252194 -0.000483671 -1.77664e-06
3.38677e-06 -1.77664e-06 -0.000110132
0.00303792 -0.000731577 1.31708e-07
-0.000731577 -0.00014275 3.81457e-06
1.31708e-07 3.81457e-06 0.000133107
0.00319439 -0.00120273 2.28295e-06
-0.00120273 8.07881e-05 -1.87497e-06
2.28295e-06 -1.87497e-06 6.2473e-05
0.00282007 -0.00135731 7.71949e-06
-0.00135731 0.000234511 -4.30868e-06
7.71949e-06 -4.30868e-06 -8.13194e-05
0.000974009 -0.00133588 1.37912e-05
-0.00133588 0.000125486 -8.85935e-06
1.37912e-05 -8.85935e-06 -0.000756501
0.00388647 -0.00198207 -1.36475e-06
-0.00198207 0.00122365 -1.90403e-05
-1.36475e-06 -1.90403e-05 0.000332594
0.000551285 9.11032e-05 -5.34009e-06
9.11032e-05 0.000183755 -5.19277e-06
-5.34009e-06 -5.19277e-06 1.44658e-05
-0.00101512 -9.19327e-05 3.65289e-06
-9.19327e-05 -0.000805034 7.1287e-07
3.65289e-06 7.1287e-07 -0.00100122
0.00178787 -0.000280023 -1.37015e-05
-0.000280023 0.0010514 1.76484e-05
-1.37015e-05 1.76484e-05 0.000820021
0.000296747 -0.000106555 -8.44564e-06
-0.000106555 0.00013799 1.92584e-05
-8.44564e-06 1.92584e-05 -0.00018611
0.00158013 -0.000449976 -1.90778e-05
-0.000449976 0.000994803 3.25458e-05
-1.90778e-05 3.25458e-05 0.000588925
-0.000611262 -0.000126956 -1.62386e-05
-0.000126956 -0.000605732 -1.58274e-05
-1.62386e-05 -1.58274e-05 -0.000875079
0.000328797 -0.000782557 -2.79925e-05
-0.000782557 0.000680587 2.69087e-05
-2.79925e-05 2.69087e-05 -0.000585591
0.00160159 -0.00155263 -0.000105272
-0.00155263 0.000377011 3.2524e-05
-0.000105272 3.2524e-05 -0.000362903
-0.000424513 0.000530981 1.13621e-06
0.000530981 -0.000265019 4.17784e-06
1.13621e-06 4.17784e-06 -0.000679466
0.00428623 0.000822047 -7.27184e-06
0.000822047 0.00271615 3.8169e-06
-7.27184e-06 3.8169e-06 0.00216848
0.00277092 0.000671256 -5.11728e-06
0.000671256 -0.000389429 -4.14194e-06
-5.11728e-06 -4.14194e-06 -0.0001156
0.00312079 0.00103227 -5.93703e-06
0.00103227 0.000243516 -2.15609e-06
-5.93703e-06 -2.15609e-06 8.87228e-05
0.00371264 0.000882788 -9.16543e-06
0.000882788 0.00171405 -7.59357e-07
-9.16543e-06 -7.59357e-07 0.0012061
0.00159218 0.00126025 -1.15536e-05
0.00126025 0.000337884 -9.78291e-06
-1.15536e-05 -9.78291e-06 -0.00049212
0.00271455 0.00125699 -7.77989e-06
0.00125699 0.000468535 1.66498e-06
-7.77989e-06 1.66498e-06 -0.000106146
0.00308734 0.00169653 -2.14398e-05
0.00169653 0.0010178 -4.18118e-06
-2.14398e-05 -4.18118e-06 7.40388e-05
0.000123655 0.000401131 1.48202e-06
0.000401131 0.00014143 1.22597e-07
1.48202e-06 1.22597e-07 -0.000230799
0.00282098 0.00049134 -5.0227e-06
0.00049134 -0.000378135 -5.0588e-06
-5.0227e-06 -5.0588e-06 -4.20117e-05
0.00265479 0.000828287 2.29657e-06
0.000828287 0.00180232 5.41316e-06
2.29657e-06 5.41316e-06 0.00115541
0.0015903 0.00101824 3.35835e-06
0.00101824 0.000402315 2.56316e-06
3.35835e-06 2.56316e-06 -0.000296779
0.00305953 0.000987629 -3.71034e-08
0.000987629 6.72163e-06 -9.04473e-08
-3.71034e-08 -9.04473e-08 0.000131724
0.00263796 0.00133122 -4.19244e-06
0.00133122 0.000244965 -6.96224e-06
-4.19244e-06 -6.96224e-06 -0.000279128
0.00328799 0.00174081 -1.21437e-06
0.00174081 0.00110811 -5.43348e-07
-1.21437e-06 -5.43348e-07 0.000153379
0.00117897 0.000545625 -7.36605e-06
0.000545625 0.00093742 -6.26239e-06
-7.36605e-06 -6.26239e-06 0.000418257
0.00492357 0.00109152 -0.000151283
0.00109152 0.000599542 -5.9439e-05
-0.000151283 -5.9439e-05 0.00118174
0.000437598 0.000737121 -8.92959e-06
0.000737121 0.000264937 2.08832e-05
-8.92959e-06 2.08832e-05 -0.000411809
0.00181244 0.00118302 5.57173e-06
0.00118302 0.000590195 -9.75988e-06
5.57173e-06 -9.75988e-06 -0.000247638
0.00393261 0.00144914 -5.75681e-05
0.00144914 0.000811071 -2.47507e-05
-5.75681e-05 -2.47507e-05 0.000572655
0.00247424 0.0016226 -3.47633e-05
0.0016226 0.00062122 -1.0062e-05
-3.47633e-05 -1.0062e-05 -0.000254887
0.00109631 0.00240794 -7.08617e-06
0.00240794 -0.00404091 -6.52726e-05
-7.08617e-06 -6.52726e-05 -0.00160124
0.000859874 0.000298005 1.07654e-05
0.000298005 0.000601542 1.96987e-05
1.07654e-05 1.96987e-05 0.000390212
0.000170808 0.00020699 -4.1822e-06
0.00020699 0.000159324 -1.73527e-06
-4.1822e-06 -1.73527e-06 -2.72576e-05
-0.000593363 0.000131117 -5.43692e-06
0.000131117 -0.000324063 -2.81313e-07
-5.43692e-06 -2.81313e-07 -0.000518115
0.000216455 -5.31603e-05 4.3746e-06
-5.31603e-05 -2.30851e-05 -1.89711e-06
4.3746e-06 -1.89711e-06 -0.000194962
-0.000444646 3.81552e-05 6.06298e-06
3.81552e-05 -0.000351762 -6.81434e-06
6.06298e-06 -6.81434e-06 -0.000591091
0.00196273 0.000362616 -1.3611e-06
0.000362616 0.00131175 -8.45497e-06
-1.3611e-06 -8.45497e-06 0.000995007
-0.00218277 -1.82402e-05 -1.23228e-05
-1.82402e-05 -0.00139847 1.2332e-05
-1.23228e-05 1.2332e-05 -0.00153511
0.000421994 -1.70136e-06 5.47449e-07
-1.70136e-06 0.000104591 -5.23369e-07
5.47449e-07 -5.23369e-07 -7.17953e-05
0.00039421 0.000104572 7.1324e-07
0.000104572 0.000115199 -2.03535e-07
7.1324e-07 -2.03535e-07 -8.81871e-05
4.27446e-05 0.0001521 3.17802e-06
0.0001521 -1.66726e-05 3.49107e-06
3.17802e-06 3.49107e-06 -0.000103721
3.14748e-05 8.74317e-05 1.25014e-06
8.74317e-05 -5.50818e-06 1.48805e-07
1.25014e-06 1.48805e-07 -0.000273714
0.000188953 0.000106819 1.52744e-06
0.000106819 7.31445e-05 2.84823e-06
1.52744e-06 2.84823e-06 -0.00010381
1.10956e-05 0.000115629 9.45722e-06
0.000115629 0.000125996 -2.08095e-05
9.45722e-06 -2.08095e-05 -6.73971e-05
0.000912608 0.000143622 -3.74322e-06
0.000143622 0.000578735 9.69514e-07
-3.74322e-06 9.69514e-07 0.000312647
0.000732242 0.000130084 -4.6123e-06
0.000130084 0.000399885 1.4956e-06
-4.6123e-06 1.4956e-06 0.000167031
0.000766079 0.000145652 -8.03089e-06
0.000145652 0.000372672 -5.82387e-06
-8.03089e-06 -5.82387e-06 0.000161769
3.37973e-05 -9.60424e-07 -3.68459e-06
-9.60424e-07 -0.000181545 -1.25154e-06
-3.68459e-06 -1.25154e-06 -0.000335913
0.00119837 -0.000241935 1.01848e-05
-0.000241935 0.000771233 -1.23998e-05
1.01848e-05 -1.23998e-05 0.000466945
0.000149621 -7.05205e-05 -2.65814e-06
-7.05205e-05 -8.16364e-05 2.3318e-06
-2.65814e-06 2.3318e-06 -0.000255076
0.000278111 3.95546e-06 -2.89122e-06
3.95546e-06 -2.83689e-05 3.10049e-06
-2.89122e-06 3.10049e-06 -0.000143194
0.000388349 5.3635e-05 2.30254e-06
5.3635e-05 4.58227e-05 -7.83977e-08
2.30254e-06 -7.83977e-08 -7.18663e-05
0.000286507 1.94646e-05 -4.04126e-06
1.94646e-05 -5.50265e-05 6.08729e-06
-4.04126e-06 6.08729e-06 -9.65841e-05
0.000253733 -3.1755e-06 -2.97501e-07
-3.1755e-06 -4.42944e-05 -4.39854e-06
-2.97501e-07 -4.39854e-06 -0.000160858
0.000842256 1.9042e-05 -5.90773e-06
1.9042e-05 0.000311147 -1.71457e-06
-5.90773e-06 -1.71457e-06 0.000272996
0.00284465 1.35448e-05 4.07641e-05
1.35448e-05 0.00162361 7.4822e-06
4.07641e-05 7.4822e-06 0.00163391
0.00144258 7.9837e-05 -2.58343e-05
7.9837e-05 0.000712763 -9.65083e-06
-2.58343e-05 -9.65083e-06 0.000674084
0.000756253 -4.18558e-08 1.98635e-05
-4.18558e-08 0.000230264 4.54179e-06
1.98635e-05 4.54179e-06 0.000228054
0.000775831 -1.72058e-05 4.19533e-06
-1.72058e-05 0.000235395 -3.54298e-06
4.19533e-06 -3.54298e-06 0.000229248
0.000258273 6.22589e-06 -3.61773e-06
6.22589e-06 -5.36724e-05 -7.58433e-06
-3.61773e-06 -7.58433e-06 -0.000156463
0.000595806 -7.32531e-05 6.45351e-07
-7.32531e-05 0.000161352 -3.92409e-07
6.45351e-07 -3.92409e-07 4.44433e-05
0.000291539 2.44325e-05 -9.14e-07
2.44325e-05 -7.55934e-05 -7.4671e-06
-9.14e-07 -7.4671e-06 -0.000117156
0.000990552 4.08705e-05 -1.32528e-07
4.08705e-05 0.000393527 -1.08893e-08
-1.32528e-07 -1.08893e-08 0.000344293
0.00313479 0.00011186 -5.45501e-06
0.00011186 0.00183153 -8.38054e-06
-5.45501e-06 -8.38054e-06 0.00182475
0.000410011 1.90358e-05 -2.09582e-06
1.90358e-05 1.51267e-05 1.06082e-05
-2.09582e-06 1.06082e-05 -5.18028e-05
0.00323771 0.000145845 -8.36361e-07
0.000145845 0.00191198 -6.26971e-08
-8.36361e-07 -6.26971e-08 0.00189607
0.00444936 0.000138562 -3.58232e-05
0.000138562 0.00272134 1.00065e-05
-3.58232e-05 1.00065e-05 0.0026994
0.0026147 0.000409305 -3.02373e-06
0.000409305 -0.000226247 -8.20107e-07
-3.02373e-06 -8.20107e-07 -3.09718e-05
0.00250779 0.000175045 -2.73687e-07
0.000175045 -0.000242742 8.64704e-07
-2.73687e-07 8.64704e-07 -2.24313e-05
0.00247024 -6.85255e-06 9.08481e-07
-6.85255e-06 -0.000143353 6.50447e-08
9.08481e-07 6.50447e-08 4.84829e-06
0.0025056 2.92487e-07 -9.75059e-08
2.92487e-07 -0.000280762 -1.59908e-07
-9.75059e-08 -1.59908e-07 -4.21943e-05
0.00280386 0.000235298 1.08393e-06
0.000235298 -0.000241121 4.40792e-07
1.08393e-06 4.40792e-07 4.08646e-05
0.00285768 0.000204459 6.2371e-06
0.000204459 -0.00040231 -5.05435e-06
6.2371e-06 -5.05435e-06 -5.48799e-05
0.00297645 7.76949e-05 3.77553e-06
7.76949e-05 -0.000299532 1.60469e-06
3.77553e-06 1.60469e-06 5.66172e-05
0.00690807 0.00273646 -1.05543e-05
0.00273646 -0.00204614 2.3186e-05
-1.05543e-05 2.3186e-05 0.000766633
0.00300794 0.000266296 -9.16597e-05
0.000266296 -0.000554904 1.01904e-05
-9.16597e-05 1.01904e-05 0.000130884
0.000320504 0.000123758 -4.2818e-06
0.000123758 3.15464e-05 -3.09965e-06
-4.2818e-06 -3.09965e-06 -0.000129659
0.00258897 -0.000196064 -1.66058e-06
-0.000196064 -0.000219593 -5.4821e-07
-1.66058e-06 -5.4821e-07 1.05484e-05
0.00270494 -0.000527916 -3.89115e-06
-0.000527916 -0.000261256 -4.88527e-07
-3.89115e-06 -4.88527e-07 -3.40464e-05
0.00281258 -0.000798009 2.19962e-07
-0.000798009 -5.84896e-05 -7.81924e-07
2.19962e-07 -7.81924e-07 3.86925e-05
0.00270489 -0.00154764 -9.28905e-06
-0.00154764 0.00111086 -1.29922e-06
-9.28905e-06 -1.29922e-06 0.000184826
0.00250436 -0.00155534 2.89376e-05
-0.00155534 0.00061891 4.2119e-06
2.89376e-05 4.2119e-06 -0.000207454
0.00288786 -0.00140979 -1.08668e-06
-0.00140979 0.000503875 1.41379e-05
-1.08668e-06 1.41379e-05 2.14289e-05
0.00276082 -0.00113329 -2.13395e-07
-0.00113329 3.47641e-05 -3.52829e-06
-2.13395e-07 -3.52829e-06 -8.00149e-05
0.00269507 -0.00130489 7.71268e-05
-0.00130489 0.00120323 -6.97545e-05
7.71268e-05 -6.97545e-05 0.000333541
0.00235931 -0.00113621 7.13561e-05
-0.00113621 0.00128438 -6.62174e-05
7.13561e-05 -6.62174e-05 0.00022584
-0.000856459 -0.000254443 2.46958e-05
-0.000254443 -0.000627743 6.77632e-06
2.46958e-05 6.77632e-06 -0.00131309
0.000538453 -2.55924e-05 -4.53203e-08
-2.55924e-05 0.000109742 6.8279e-06
-4.53203e-08 6.8279e-06 -1.73878e-05
0.000942478 -0.000375801 -3.71058e-06
-0.000375801 0.000471528 -1.43137e-06
-3.71058e-06 -1.43137e-06 0.00012035
0.00176054 -0.000180821 1.15485e-05
-0.000180821 0.00114694 -6.67478e-06
1.15485e-05 -6.67478e-06 0.000800989
-0.000344316 -0.000146617 6.4291e-06
-0.000146617 -0.000272352 -1.30907e-05
6.4291e-06 -1.30907e-05 -0.000664248
0.0006245 -0.000123419 -7.49768e-06
-0.000123419 0.000257286 3.87651e-06
-7.49768e-06 3.87651e-06 7.55852e-05
0.0027422 -0.000270871 -5.23849e-07
-0.000270871 -0.000411166 -8.82526e-07
-5.23849e-07 -8.82526e-07 -4.51727e-05
0.000559072 7.63193e-05 1.25732e-06
7.63193e-05 0.000203106 -2.03161e-06
1.25732e-06 -2.03161e-06 2.27111e-05
0.000816882 -0.000204999 2.1477e-06
-0.000204999 0.000482918 2.84622e-06
2.1477e-06 2.84622e-06 0.000221869
0.000748524 -0.000172495 1.0261e-05
-0.000172495 0.000352264 7.2671e-07
1.0261e-05 7.2671e-07 0.000152031
0.00284827 -0.000723533 2.90977e-06
-0.000723533 -0.000282848 -5.12765e-07
2.90977e-06 -5.12765e-07 -9.99682e-06
0.0031161 -0.00117021 -8.50268e-07
-0.00117021 6.27446e-05 3.9635e-07
-8.50268e-07 3.9635e-07 5.76023e-05
0.0026191 -0.00151912 -6.22995e-06
-0.00151912 0.00101833 2.46283e-06
-6.22995e-06 2.46283e-06 0.000152894
0.00258215 -0.00178166 1.11298e-05
-0.00178166 0.000508674 -1.06681e-06
1.11298e-05 -1.06681e-06 -0.000320781
0.00292051 -0.00138997 3.6196e-07
-0.00138997 0.000291553 8.29759e-07
3.6196e-07 8.29759e-07 -4.54202e-05
0.000159156 -0.000108484 -9.63357e-07
-0.000108484 4.07566e-05 6.80681e-08
-9.63357e-07 6.80681e-08 -0.000275335
0.00195911 -0.000420291 1.09039e-05
-0.000420291 0.00125809 -1.34144e-06
1.09039e-05 -1.34144e-06 0.000842438
0.00391556 -0.00194708 -8.443e-06
-0.00194708 0.0017157 1.39923e-05
-8.443e-06 1.39923e-05 0.000724407
0.00126103 -0.00058948 -5.53489e-06
-0.00058948 0.000830163 7.3311e-06
-5.53489e-06 7.3311e-06 -0.000165396
0.00150087 -0.000297327 8.90195e-06
-0.000297327 0.000737787 1.28397e-05
8.90195e-06 1.28397e-05 0.000408519
0.00301116 -0.000518983 -2.61597e-05
-0.000518983 -0.000412045 5.4797e-06
-2.61597e-05 5.4797e-06 4.59502e-05
0.00277762 -0.000859229 -2.28461e-05
-0.000859229 -0.00035539 1.1195e-05
-2.28461e-05 1.1195e-05 4.39223e-05
0.00316978 -0.00144021 -2.35526e-06
-0.00144021 0.000281778 -9.97748e-06
-2.35526e-06 -9.97748e-06 1.92945e-05
0.00360359 -0.00173991 1.27061e-05
-0.00173991 0.000977149 -1.2811e-05
1.27061e-05 -1.2811e-05 0.000321452
0.00241924 -0.00175982 2.04092e-05
-0.00175982 0.00069821 -8.73844e-07
2.04092e-05 -8.73844e-07 -0.000214954
0.000977896 1.67422e-07 -8.82639e-06
1.67422e-07 0.000512777 6.71897e-07
-8.82639e-06 6.71897e-07 0.000345826
-0.000339334 -0.000105966 -1.08174e-05
-0.000105966 -0.00037857 2.4985e-05
-1.08174e-05 2.4985e-05 -0.000601482
-5.16822e-05 -0.000163539 -6.54407e-06
-0.000163539 -0.000110704 1.02751e-05
-6.54407e-06 1.02751e-05 -0.000297208
0.00240008 -0.000531185 -6.45337e-05
-0.000531185 0.00149353 5.89369e-05
-6.45337e-05 5.89369e-05 0.00112045
0.00092902 -0.000270382 6.86546e-06
-0.000270382 0.000501648 2.7638e-05
6.86546e-06 2.7638e-05 0.000209604
-0.00162939 -3.89819e-05 -4.82392e-06
-3.89819e-05 -0.000540679 3.49626e-06
-4.82392e-06 3.49626e-06 -0.00135922
0.00247206 -0.00197349 -4.31106e-05
-0.00197349 0.00134362 -1.95632e-05
-4.31106e-05 -1.95632e-05 0.000152478
0.00357127 0.000836619 6.98946e-06
0.000836619 0.00234117 3.70458e-06
6.98946e-06 3.70458e-06 0.00186299
-0.000663598 0.000365203 -5.85013e-06
0.000365203 -0.000212268 -1.82745e-06
-5.85013e-06 -1.82745e-06 -0.000758813
0.00277292 0.000478431 1.10841e-05
0.000478431 -0.000428748 5.59418e-06
1.10841e-05 5.59418e-06 -5.69114e-05
0.00312786 0.000945673 1.98301e-05
0.000945673 8.34418e-05 1.25281e-05
1.98301e-05 1.25281e-05 0.000219151
0.00307128 0.00140993 4.75438e-06
0.00140993 0.00051235 3.71198e-06
4.75438e-06 3.71198e-06 -1.80005e-05
0.00111291 0.000932638 -1.01864e-05
0.000932638 0.00016703 -6.3012e-07
-1.01864e-05 -6.3012e-07 -0.000508471
0.00273261 0.00160979 -3.31853e-06
0.00160979 0.00081699 5.05429e-06
-3.31853e-06 5.05429e-06 -9.37129e-05
0.00310761 0.00071756 -2.43285e-07
0.00071756 0.00213454 -2.07203e-06
-2.43285e-07 -2.07203e-06 0.00162132
0.00335531 0.000869346 2.54196e-05
0.000869346 -0.000340781 7.11893e-06
2.54196e-05 7.11893e-06 0.000391354
0.000953385 0.000753013 -7.0456e-06
0.000753013 0.000523866 9.99892e-06
-7.0456e-06 9.99892e-06 -0.000112373
0.0022829 0.00128498 5.10498e-06
0.00128498 0.000889577 -2.96863e-06
5.10498e-06 -2.96863e-06 1.01214e-05
0.00323493 0.0013195 -5.09173e-06
0.0013195 0.00049213 -3.72723e-06
-5.09173e-06 -3.72723e-06 0.000301452
0.00293826 0.00170193 -2.53188e-06
0.00170193 0.000871672 7.5826e-06
-2.53188e-06 7.5826e-06 -3.05846e-05
0.00265196 0.00288663 4.1098e-05
0.00288663 -0.00350017 -2.49726e-06
4.1098e-05 -2.49726e-06 -0.00117303
0.000392228 0.000495696 4.08872e-06
0.000495696 0.000585901 3.40078e-06
4.08872e-06 3.40078e-06 -6.57064e-05
0.00446109 0.00180443 -0.000141947
0.00180443 0.000383479 -5.59947e-05
-0.000141947 -5.59947e-05 0.000613314
0.000630382 0.000867955 -2.32226e-05
0.000867955 0.000107521 1.52947e-05
-2.32226e-05 1.52947e-05 -0.000599029
0.00210708 0.00147715 -1.00169e-05
0.00147715 0.000686348 -2.73535e-05
-1.00169e-05 -2.73535e-05 -0.000231581
0.00460536 0.00205529 -7.1333e-05
0.00205529 0.00148778 -4.06101e-05
-7.1333e-05 -4.06101e-05 0.000766776
0.015575 0.00125327 -0.000981344
0.00125327 -0.00233045 -9.81889e-05
-0.000981344 -9.81889e-05 0.000892382
0.0027552 0.00455021 -0.000288258
0.00455021 -0.00624006 -0.000228507
-0.000288258 -0.000228507 -0.000135169
0.00145695 0.00345919 3.90579e-05
0.00345919 -0.00176292 -9.14932e-06
3.90579e-05 -9.14932e-06 -0.00119939
0.00880795 -0.00945065 0.0043332
-0.00945065 0.00757637 -0.00064934
0.0043332 -0.00064934 -0.00378651
0.0406736 -0.022993 -0.00030894
-0.022993 0.0309305 -2.50525e-05
-0.00030894 -2.50525e-05 0.0107651
0.00277871 0.000401506 1.68244e-05
0.000401506 0.00186622 8.74642e-06
1.68244e-05 8.74642e-06 0.00163274
0.000569711 0.000194539 1.82528e-08
0.000194539 0.000462468 1.0578e-06
1.82528e-08 1.0578e-06 0.00022947
0.000473193 0.000301596 7.02421e-06
0.000301596 0.000505444 -9.28693e-06
7.02421e-06 -9.28693e-06 0.000175926
0.000527358 -6.11055e-05 3.89888e-06
-6.11055e-05 0.000188524 -4.90661e-07
3.89888e-06 -4.90661e-07 4.60093e-06
0.000652087 7.90293e-05 7.26533e-06
7.90293e-05 0.000310887 -2.7119e-06
7.26533e-06 -2.7119e-06 0.000102496
-6.49601e-05 -2.46132e-06 2.40372e-06
-2.46132e-06 -7.10586e-05 -3.52632e-06
2.40372e-06 -3.52632e-06 -0.000336282
0.000304187 0.00011592 5.7926e-06
0.00011592 0.000134963 9.14093e-06
5.7926e-06 9.14093e-06 -3.9549e-05
-0.000786516 0.000114585 5.30482e-06
0.000114585 -0.000527009 1.77008e-05
5.30482e-06 1.77008e-05 -0.000583815
0.00072578 0.000158218 -3.2048e-06
0.000158218 0.000452224 1.93972e-06
-3.2048e-06 1.93972e-06 0.000187126
0.000379282 -1.29584e-05 5.02021e-08
-1.29584e-05 5.97488e-05 3.81278e-07
5.02021e-08 3.81278e-07 -0.000107857
0.000741828 7.98018e-05 -6.27005e-07
7.98018e-05 0.000358892 7.05529e-07
-6.27005e-07 7.05529e-07 0.000145034
0.000239067 0.000147176 -1.7576e-06
0.000147176 0.000218942 -1.86643e-06
-1.7576e-06 -1.86643e-06 5.2815e-05
0.000472866 9.09561e-05 9.68922e-07
9.09561e-05 0.00028951 1.66288e-07
9.68922e-07 1.66288e-07 3.79861e-05
0.00107684 0.000172733 -1.38168e-06
0.000172733 0.000735323 6.21657e-06
-1.38168e-06 6.21657e-06 0.000431834
0.000190305 9.76578e-05 9.6789e-07
9.76578e-05 0.000257115 -9.4029e-06
9.6789e-07 -9.4029e-06 -4.84889e-05
0.000874606 0.000131577 -3.76449e-07
0.000131577 0.000548496 -2.3711e-06
-3.76449e-07 -2.3711e-06 0.000295488
0.000188746 8.7266e-06 -3.5341e-06
8.7266e-06 -4.01281e-05 -7.53787e-06
-3.5341e-06 -7.53787e-06 -0.000226529
7.82323e-05 -6.06889e-05 -1.80422e-06
-6.06889e-05 -0.00014194 -2.14653e-06
-1.80422e-06 -2.14653e-06 -0.000310737
-0.000213898 -5.88213e-05 3.00193e-06
-5.88213e-05 -0.000275419 -9.14233e-06
3.00193e-06 -9.14233e-06 -0.00046064
0.000169282 -6.76225e-05 1.178e-05
-6.76225e-05 7.78536e-05 1.60783e-05
1.178e-05 1.60783e-05 -0.000122974
0.000181995 -7.00666e-05 5.73095e-06
-7.00666e-05 0.000119597 -7.14381e-06
5.73095e-06 -7.14381e-06 -0.000158399
0.00116355 -0.000262738 1.9165e-06
-0.000262738 0.000702921 1.38398e-06
1.9165e-06 1.38398e-06 0.00044167
0.000410293 -0.000144477 -3.35331e-06
-0.000144477 0.000129713 -5.04328e-06
-3.35331e-06 -5.04328e-06 -6.17651e-05
-0.00035134 -5.40985e-05 -1.44007e-06
-5.40985e-05 -0.00041175 1.97796e-06
-1.44007e-06 1.97796e-06 -0.00058572
0.00045341 -8.98792e-05 -1.948e-06
-8.98792e-05 7.36038e-05 2.44021e-06
-1.948e-06 2.44021e-06 -3.20728e-05
0.000451911 -5.86935e-05 2.78661e-06
-5.86935e-05 8.55855e-05 7.32869e-08
2.78661e-06 7.32869e-08 -3.03113e-05
0.000286821 2.56666e-06 5.7935e-06
2.56666e-06 -5.17099e-05 8.04329e-06
5.7935e-06 8.04329e-06 -9.34676e-05
0.000421729 7.99028e-05 -1.34706e-06
7.99028e-05 5.71933e-05 -4.29226e-06
-1.34706e-06 -4.29226e-06 -5.32752e-05
0.000289896 3.45852e-05 4.56727e-07
3.45852e-05 -5.39071e-05 2.38248e-07
4.56727e-07 2.38248e-07 -9.45873e-05
0.00279124 2.07989e-05 2.86921e-05
2.07989e-05 0.00158897 7.06013e-06
2.86921e-05 7.06013e-06 0.00159819
0.000310519 8.77223e-05 -7.21196e-06
8.77223e-05 -3.30946e-05 -9.91037e-06
-7.21196e-06 -9.91037e-06 -8.13556e-05
0.00174258 3.9245e-06 -1.70793e-05
3.9245e-06 0.000888172 -2.39107e-07
-1.70793e-05 -2.39107e-07 0.000891263
0.000809975 -7.83587e-06 2.80183e-06
-7.83587e-06 0.000257859 -2.50971e-06
2.80183e-06 -2.50971e-06 0.000254978
0.00041531 2.46789e-05 -1.15385e-07
2.46789e-05 2.72334e-05 -4.01493e-06
-1.15385e-07 -4.01493e-06 -4.95206e-05
0.000398747 -5.54048e-05 1.08354e-06
-5.54048e-05 3.70317e-05 1.35835e-07
1.08354e-06 1.35835e-07 -6.64544e-05
0.000366892 -2.097e-06 1.96744e-06
-2.097e-06 -2.98036e-05 -6.59461e-06
1.96744e-06 -6.59461e-06 -6.21958e-05
0.00058465 -9.33085e-05 -5.48115e-07
-9.33085e-05 0.000155648 3.12038e-06
-5.48115e-07 3.12038e-06 3.56268e-05
0.00093539 4.04334e-05 1.00011e-06
4.04334e-05 0.000355953 -1.03443e-06
1.00011e-06 -1.03443e-06 0.000314727
0.00289607 7.9141e-05 -5.48773e-07
7.9141e-05 0.00166241 -7.40349e-06
-5.48773e-07 -7.40349e-06 0.00166337
0.000146832 2.66585e-05 -2.00855e-06
2.66585e-05 -0.00017358 9.24535e-06
-2.00855e-06 9.24535e-06 -0.000225653
0.00341564 0.000121108 -8.84337e-06
0.000121108 0.00202446 1.55786e-06
-8.84337e-06 1.55786e-06 0.00201518
0.00356436 0.000174118 3.66036e-05
0.000174118 0.00214312 1.51587e-05
3.66036e-05 1.51587e-05 0.00212098
0.00276252 0.000251123 -3.82463e-06
0.000251123 -0.000260275 -8.87996e-07
-3.82463e-06 -8.87996e-07 2.28336e-05
0.00249525 7.30265e-06 -7.38624e-07
7.30265e-06 -0.00028333 -1.03302e-07
-7.38624e-07 -1.03302e-07 -4.40992e-05
0.00307701 0.000166373 9.53401e-07
0.000166373 -0.000238807 3.03763e-06
9.53401e-07 3.03763e-06 7.62253e-05
0.00283542 0.00208155 0.000179343
0.00208155 -0.00420979 7.80615e-05
0.000179343 7.80615e-05 -0.00123716
0.0029602 3.59126e-05 -9.63617e-07
3.59126e-05 -0.000314117 -3.81935e-07
-9.63617e-07 -3.81935e-07 5.13343e-05
0.00307184 0.000212003 2.50582e-06
0.000212003 -0.00047909 -4.81675e-06
2.50582e-06 -4.81675e-06 0.000122525
0.00341203 -0.000139333 -5.88285e-05
-0.000139333 -9.25999e-06 1.00521e-06
-5.88285e-05 1.00521e-06 0.000431838
0.00391476 0.00184495 -0.000278075
0.00184495 -0.00408311 -2.06362e-06
-0.000278075 -2.06362e-06 9.90778e-06
0.00494095 0.000786473 0.000126241
0.000786473 -0.0018927 6.06063e-05
0.000126241 6.06063e-05 3.20911e-06
0.000439266 0.000106354 4.21876e-07
0.000106354 0.000121954 -3.75727e-06
4.21876e-07 -3.75727e-06 -3.86316e-05
0.000574581 -4.36156e-05 1.7265e-07
-4.36156e-05 0.000217047 -1.77479e-07
1.7265e-07 -1.77479e-07 4.27458e-05
0.000312155 -0.000113389 2.07152e-06
-0.000113389 6.54976e-05 1.57222e-06
2.07152e-06 1.57222e-06 -8.4978e-05
0.000637156 -0.000119748 -7.48988e-07
-0.000119748 0.000276201 4.03998e-06
-7.48988e-07 4.03998e-06 7.75504e-05
0.00285423 -0.000292544 -5.43656e-06
-0.000292544 -0.000328783 2.50483e-06
-5.43656e-06 2.50483e-06 3.08944e-05
0.00275907 -0.000718609 -2.37066e-06
-0.000718609 -0.000342187 -1.82131e-06
-2.37066e-06 -1.82131e-06 -7.9807e-05
0.00304338 -0.00114102 -3.76586e-06
-0.00114102 4.38008e-05 5.45344e-07
-3.76586e-06 5.45344e-07 5.13707e-05
0.00302625 -0.00157562 5.43498e-06
-0.00157562 0.00128555 6.50696e-06
5.43498e-06 6.50696e-06 0.000397183
0.00322943 -0.00193254 -1.66041e-05
-0.00193254 0.000857588 2.24517e-05
-1.66041e-05 2.24517e-05 -7.34485e-06
0.00306608 -0.00141909 -4.32372e-07
-0.00141909 0.000381446 6.84606e-07
-4.32372e-07 6.84606e-07 2.72537e-05
0.000896783 -0.00147286 5.39691e-05
-0.00147286 0.000107813 -2.96589e-05
5.39691e-05 -2.96589e-05 -0.000904572
0.00370542 -0.000687859 4.16996e-05
-0.000687859 0.00202987 -3.24832e-05
4.16996e-05 -3.24832e-05 0.00128842
-0.00051515 -0.000295237 1.69417e-05
-0.000295237 -0.000556556 1.01034e-05
1.69417e-05 1.01034e-05 -0.000897194
0.00194506 -0.000143838 1.08221e-05
-0.000143838 0.00120271 -1.09783e-06
1.08221e-05 -1.09783e-06 0.000954946
-0.000733714 -9.46194e-05 -1.89707e-05
-9.46194e-05 -0.000429117 -2.0322e-05
-1.89707e-05 -2.0322e-05 -0.000844937
0.000300416 -9.52915e-05 3.37926e-06
-9.52915e-05 0.00011021 -1.70416e-05
3.37926e-06 -1.70416e-05 -0.000186899
0.000480722 -4.49461e-05 4.0564e-08
-4.49461e-05 0.000148948 5.06967e-06
4.0564e-08 5.06967e-06 -3.22701e-05
0.000474788 -0.000131535 -6.7277e-06
-0.000131535 0.000180943 2.90106e-07
-6.7277e-06 2.90106e-07 -1.15004e-05
0.00292885 -0.000516099 4.88519e-06
-0.000516099 -0.000467337 -3.47673e-07
4.88519e-06 -3.47673e-07 4.44531e-06
0.000148609 -5.25858e-05 -1.18006e-06
-5.25858e-05 -4.66397e-05 5.64906e-06
-1.18006e-06 5.64906e-06 -0.00020679
0.000345613 -0.00016161 4.83113e-06
-0.00016161 9.01231e-05 -4.75507e-06
4.83113e-06 -4.75507e-06 -0.000152944
-0.000267859 -8.96226e-05 1.58301e-05
-8.96226e-05 -0.000185574 -7.59858e-06
1.58301e-05 -7.59858e-06 -0.000342509
0.00279076 -0.000911484 1.95785e-06
-0.000911484 -0.000349997 -1.03331e-06
1.95785e-06 -1.03331e-06 -1.16999e-05
0.0031287 -0.00142507 1.61979e-06
-0.00142507 0.000256692 -1.90321e-06
1.61979e-06 -1.90321e-06 2.51408e-06
0.00202423 -0.00173387 -9.77406e-06
-0.00173387 0.000472234 -3.00911e-07
-9.77406e-06 -3.00911e-07 -0.000420672
0.00333675 -0.00176336 -3.83415e-06
-0.00176336 0.000802496 1.09884e-06
-3.83415e-06 1.09884e-06 0.000136321
0.00169201 -0.000329241 2.75647e-05
-0.000329241 0.00103793 -1.14904e-05
2.75647e-05 -1.14904e-05 0.000672067
-0.00191426 -5.81818e-05 1.70193e-05
-5.81818e-05 -0.00122315 4.27974e-06
1.70193e-05 4.27974e-06 -0.00157976
0.00114587 -0.00177927 1.03883e-07
-0.00177927 0.000706142 3.10745e-06
1.03883e-07 3.10745e-06 -0.000470676
0.0016275 -0.000706828 -2.44868e-05
-0.000706828 0.000970038 3.49028e-06
-2.44868e-05 3.49028e-06 0.000259934
0.00373037 -0.000761124 -9.22799e-05
-0.000761124 8.44618e-05 3.22903e-05
-9.22799e-05 3.22903e-05 0.000518502
0.00332125 -0.00132329 -4.15219e-05
-0.00132329 0.000100057 2.2762e-05
-4.15219e-05 2.2762e-05 0.000255774
0.00342139 -0.00163181 1.63706e-05
-0.00163181 0.000906925 -2.70204e-05
1.63706e-05 -2.70204e-05 0.000261874
0.00380785 -0.00215219 -7.77249e-06
-0.00215219 0.00125595 -5.23732e-07
-7.77249e-06 -5.23732e-07 0.000436386
7.01639e-05 -0.000208837 4.58863e-06
-0.000208837 0.000132842 -1.43917e-05
4.58863e-06 -1.43917e-05 -0.000109556
0.000548136 -0.000363485 -1.41975e-05
-0.000363485 0.000246582 3.89457e-05
-1.41975e-05 3.89457e-05 -9.5345e-05
0.000656926 -0.000377507 -3.20721e-05
-0.000377507 0.000672942 7.03209e-05
-3.20721e-05 7.03209e-05 0.000267424
-0.000955768 -0.00128375 1.14036e-05
-0.00128375 0.000268225 -4.77983e-05
1.14036e-05 -4.77983e-05 -0.00110071
0.00790222 -0.000408261 -9.23254e-06
-0.000408261 -0.00786538 4.51129e-05
-9.23254e-06 4.51129e-05 -0.0085772
0.00442879 0.000706922 1.64361e-05
0.000706922 0.00291018 1.18276e-06
1.64361e-05 1.18276e-06 0.00241537
0.000401862 0.000649117 -4.76266e-06
0.000649117 0.000180206 -1.03911e-05
-4.76266e-06 -1.03911e-05 -0.000419224
0.00156701 0.000682476 8.80533e-05
0.000682476 -0.00145552 4.11212e-05
8.80533e-05 4.11212e-05 -0.000573225
0.00244422 0.00118307 3.34524e-05
0.00118307 0.000118241 1.30207e-05
3.34524e-05 1.30207e-05 -1.90915e-05
0.0029675 0.00170569 1.52374e-05
0.00170569 0.000887515 1.92553e-05
1.52374e-05 1.92553e-05 -2.00883e-05
0.00247372 0.00134409 1.087e-05
0.00134409 0.00101284 1.27094e-05
1.087e-05 1.27094e-05 0.000100846
0.00328673 0.00324293 0.000151926
0.00324293 -0.00346459 7.85588e-05
0.000151926 7.85588e-05 -0.00130251
0.00108344 0.000532867 4.08059e-06
0.000532867 0.000913419 -7.35834e-06
4.08059e-06 -7.35834e-06 0.000347404
0.00322455 0.00160662 -7.117e-06
0.00160662 -0.00034448 5.06067e-06
-7.117e-06 5.06067e-06 7.71243e-05
0.00128781 0.000978786 -1.38742e-05
0.000978786 0.000519947 1.03401e-05
-1.38742e-05 1.03401e-05 -0.000229272
0.00272546 0.00160167 3.01734e-06
0.00160167 0.00102686 -9.01905e-06
3.01734e-06 -9.01905e-06 7.91092e-05
0.0042783 0.00192279 -1.09429e-05
0.00192279 0.00137754 -9.89195e-07
-1.09429e-05 -9.89195e-07 0.000678155
0.004096 0.000918973 -0.000282212
0.000918973 -0.011188 -0.000193714
-0.000282212 -0.000193714 -0.00906664
0.00669052 0.00500863 -0.000238357
0.00500863 -0.00384241 -0.000129175
-0.000238357 -0.000129175 0.00107712
0.000731873 0.00316463 -1.61522e-05
0.00316463 -0.00202304 -1.53402e-05
-1.61522e-05 -1.53402e-05 -0.00147035
0.0170677 -0.00640331 0.00115917
-0.00640331 0.0105214 0.000135802
0.00115917 0.000135802 0.00221656
0.0436341 -0.0265828 -0.00035282
-0.0265828 0.0319578 -0.000527882
-0.00035282 -0.000527882 0.00990213
6.12648e-06 0.000492532 -3.327e-06
0.000492532 3.52289e-05 -2.19124e-06
-3.327e-06 -2.19124e-06 -0.000465407
0.00342557 -0.00429748 0.00307064
-0.00429748 0.00578291 -0.000273804
0.00307064 -0.000273804 0.000801194
0.0196411 -0.0158866 0.000290202
-0.0158866 0.021785 -0.000296743
0.000290202 -0.000296743 0.0016047
0.00577826 0.00301418 -0.000104315
0.00301418 0.00134557 -3.65298e-05
-0.000104315 -3.65298e-05 0.000775643
0.00201446 0.00115473 -4.35657e-05
0.00115473 0.000830912 -3.86265e-06
-4.35657e-05 -3.86265e-06 6.3181e-05
0.00241746 0.00163246 -6.30674e-05
0.00163246 0.000792297 -5.70693e-05
-6.30674e-05 -5.70693e-05 -4.80894e-05
-0.00127788 0.00283284 0.000172329
0.00283284 -0.00208112 0.00013919
0.000172329 0.00013919 -0.0019792
0.0158205 0.0077408 0.000391561
0.0077408 -0.00527984 -1.95841e-05
0.000391561 -1.95841e-05 0.000517582
0.00723618 0.00770265 -0.000246888
0.00770265 -0.00186057 -0.00025387
-0.000246888 -0.00025387 0.000777713
0.0309154 -0.0116 0.00123698
-0.0116 0.0177746 -9.14475e-05
0.00123698 -9.14475e-05 0.00373858
0.0273521 -0.00187033 -0.00127554
-0.00187033 0.0148264 0.000897977
-0.00127554 0.000897977 0.00684384
0.00126445 0.000223535 1.07853e-05
0.000223535 0.000945176 4.58976e-06
1.07853e-05 4.58976e-06 0.0006854
0.000212126 0.000250511 3.23293e-06
0.000250511 0.000359065 1.17973e-06
3.23293e-06 1.17973e-06 3.09054e-05
0.00121207 0.000536807 4.34622e-06
0.000536807 0.000971813 -1.02422e-05
4.34622e-06 -1.02422e-05 0.000489945
0.000465505 2.83127e-06 4.64141e-06
2.83127e-06 0.000139193 2.02846e-06
4.64141e-06 2.02846e-06 -4.6435e-05
0.000313271 0.000130445 7.22621e-06
0.000130445 4.59833e-05 2.9574e-06
7.22621e-06 2.9574e-06 -0.000148173
-0.000196613 1.81869e-05 3.43374e-06
1.81869e-05 -0.000182057 4.3172e-06
3.43374e-06 4.3172e-06 -0.00040972
0.000415617 0.000116184 -4.79404e-06
0.000116184 0.000279624 1.81279e-06
-4.79404e-06 1.81279e-06 1.68549e-05
0.000247151 0.000149383 -5.5665e-06
0.000149383 0.000187913 1.15731e-05
-5.5665e-06 1.15731e-05 3.80274e-05
0.00024355 1.45458e-05 -2.45006e-07
1.45458e-05 -2.08318e-05 9.16357e-07
-2.45006e-07 9.16357e-07 -0.000198539
0.000771236 0.000112625 3.08443e-06
0.000112625 0.000520582 3.26382e-06
3.08443e-06 3.26382e-06 0.000234234
0.000192037 7.41916e-05 -1.98464e-07
7.41916e-05 8.04184e-05 -3.23514e-06
-1.98464e-07 -3.23514e-06 -0.000165554
0.00064822 9.49424e-05 6.00091e-07
9.49424e-05 0.000313899 3.78245e-07
6.00091e-07 3.78245e-07 8.83275e-05
0.000193876 9.41328e-05 -2.46901e-06
9.41328e-05 0.000262414 -2.00036e-06
-2.46901e-06 -2.00036e-06 -3.50192e-05
0.000465472 7.28069e-05 8.77557e-08
7.28069e-05 0.000364986 1.92516e-06
8.77557e-08 1.92516e-06 9.56853e-05
-0.000460899 4.05541e-05 8.48516e-07
4.05541e-05 5.6052e-05 -5.7669e-06
8.48516e-07 -5.7669e-06 -0.000413062
6.40769e-05 -9.48982e-05 -4.67898e-06
-9.48982e-05 3.00637e-06 -5.14374e-07
-4.67898e-06 -5.14374e-07 -0.000265599
0.00037038 -6.57676e-05 -6.62949e-06
-6.57676e-05 0.000104942 -1.09706e-05
-6.62949e-06 -1.09706e-05 -0.000108979
0.000775818 -3.15172e-05 8.65073e-07
-3.15172e-05 0.000417327 -6.75637e-06
8.65073e-07 -6.75637e-06 0.000194798
0.000516844 -0.000144023 -1.14787e-06
-0.000144023 0.000303986 3.0273e-06
-1.14787e-06 3.0273e-06 0.000107311
-0.000111189 1.15428e-05 -6.37589e-06
1.15428e-05 -0.000167583 1.89324e-06
-6.37589e-06 1.89324e-06 -0.0003142
0.00101212 -0.000196367 1.76602e-05
-0.000196367 0.000582701 1.01749e-05
1.76602e-05 1.01749e-05 0.000389257
0.00158793 -9.79202e-05 -3.41298e-06
-9.79202e-05 0.00113749 1.19766e-05
-3.41298e-06 1.19766e-05 0.000903084
-0.000599098 7.99498e-07 1.88197e-06
7.99498e-07 -0.000345843 -1.4975e-05
1.88197e-06 -1.4975e-05 -0.000675853
-0.00128624 3.46282e-05 1.75349e-07
3.46282e-05 -0.000804515 -1.17982e-05
1.75349e-07 -1.17982e-05 -0.00108336
0.000479272 -0.000218439 1.85357e-07
-0.000218439 0.000333992 6.41028e-07
1.85357e-07 6.41028e-07 2.69485e-05
-0.000663703 1.31407e-05 4.33782e-07
1.31407e-05 -0.000550571 -3.59811e-06
4.33782e-07 -3.59811e-06 -0.000762151
0.00106262 -0.000318503 -4.65373e-06
-0.000318503 0.000599685 -2.15222e-07
-4.65373e-06 -2.15222e-07 0.000365232
0.000808748 -0.000174708 1.77411e-06
-0.000174708 0.000401035 3.27267e-07
1.77411e-06 3.27267e-07 0.000201616
0.000658546 -9.31125e-05 -5.97076e-07
-9.31125e-05 0.000210149 1.06465e-06
-5.97076e-07 1.06465e-06 0.000100558
0.000188289 1.96113e-05 9.24431e-07
1.96113e-05 -1.60373e-05 5.1301e-07
9.24431e-07 5.1301e-07 -0.000222582
0.00044123 -5.2428e-06 3.3473e-06
-5.2428e-06 7.96169e-05 1.2826e-07
3.3473e-06 1.2826e-07 -3.41271e-05
0.00140323 -4.41498e-05 -2.12051e-05
-4.41498e-05 0.000678119 8.20998e-06
-2.12051e-05 8.20998e-06 0.00064713
0.000422259 0.000105167 -2.33699e-06
0.000105167 7.15826e-05 -2.54773e-06
-2.33699e-06 -2.54773e-06 -4.38639e-05
0.000800212 -3.75528e-05 -8.08243e-06
-3.75528e-05 0.000290162 9.08946e-07
-8.08243e-06 9.08946e-07 0.000250416
0.000866345 -1.07286e-05 -2.41432e-05
-1.07286e-05 0.000306126 5.57541e-06
-2.41432e-05 5.57541e-06 0.000307381
0.000250995 -6.40506e-05 7.52527e-06
-6.40506e-05 -7.88356e-05 -6.73829e-06
7.52527e-06 -6.73829e-06 -0.000119731
0.00279906 -2.49024e-06 2.04495e-05
-2.49024e-06 0.0015933 -1.56428e-07
2.04495e-05 -1.56428e-07 0.001602
0.00083686 6.00374e-06 -1.35234e-05
6.00374e-06 0.000289126 -6.20715e-06
-1.35234e-05 -6.20715e-06 0.000286655
0.000716923 0.00010822 3.0568e-06
0.00010822 0.00032742 -2.43441e-06
3.0568e-06 -2.43441e-06 0.000144648
0.000329034 8.13064e-05 -2.32805e-06
8.13064e-05 -4.53866e-08 -5.37203e-06
-2.32805e-06 -5.37203e-06 -9.02035e-05
0.000390514 4.08956e-06 3.37772e-06
4.08956e-06 3.48311e-05 2.28274e-07
3.37772e-06 2.28274e-07 -5.74126e-05
0.000313711 1.92061e-05 6.04896e-07
1.92061e-05 -6.35748e-05 -5.50839e-06
6.04896e-07 -5.50839e-06 -9.11155e-05
0.000603562 -0.000115662 -2.74637e-06
-0.000115662 0.000194738 6.13357e-06
-2.74637e-06 6.13357e-06 7.71433e-05
0.00037894 3.77707e-06 2.19046e-06
3.77707e-06 -2.09637e-05 -1.06118e-06
2.19046e-06 -1.06118e-06 -5.47317e-05
0.00267132 5.55842e-05 -4.17058e-06
5.55842e-05 0.00150741 -6.73104e-06
-4.17058e-06 -6.73104e-06 0.0015135
0.00159475 5.34074e-05 3.21403e-06
5.34074e-05 0.00080024 5.43627e-06
3.21403e-06 5.43627e-06 0.000757365
0.00175228 5.9419e-05 -2.8135e-06
5.9419e-05 0.000902753 2.44582e-06
-2.8135e-06 2.44582e-06 0.000897809
0.000532338 4.45013e-05 6.83715e-06
4.45013e-05 9.57616e-05 1.58689e-05
6.83715e-06 1.58689e-05 7.94468e-05
-0.000380174 0.00162305 0.00020754
0.00162305 -0.00609053 4.39462e-05
0.00020754 4.39462e-05 -0.00277249
0.0028894 -3.16094e-06 -4.90191e-06
-3.16094e-06 -0.00035889 -6.70604e-07
-4.90191e-06 -6.70604e-07 1.33288e-05
0.00294348 0.000156452 7.76644e-05
0.000156452 -0.000544539 -4.15321e-06
7.76644e-05 -4.15321e-06 1.99321e-06
0.00589464 0.00222596 -0.000111706
0.00222596 -0.00430044 -5.03167e-05
-0.000111706 -5.03167e-05 0.000960607
0.00409116 0.000436352 0.000169017
0.000436352 -0.00293307 -1.26871e-05
0.000169017 -1.26871e-05 -0.000556438
0.0033616 -0.000161256 2.76899e-06
-0.000161256 -3.19051e-05 2.93826e-06
2.76899e-06 2.93826e-06 0.000377896
0.00758303 -0.00131743 -0.00011013
-0.00131743 0.000442182 -2.9092e-05
-0.00011013 -2.9092e-05 0.00214481
0.00489044 -0.000660254 -0.000243825
-0.000660254 -0.00493562 -8.6438e-05
-0.000243825 -8.6438e-05 -2.60083e-05
0.0169533 -0.00170467 8.80021e-06
-0.00170467 -0.00293945 -0.000175676
8.80021e-06 -0.000175676 -0.000705981
0.0265198 0.0129688 0.0027539
0.0129688 0.0141906 0.000291283
0.0027539 0.000291283 0.00207843
0.0555491 0.0215391 0.000113004
0.0215391 0.0364796 0.000373505
0.000113004 0.000373505 0.0148861
-8.08117e-05 -0.000120088 7.5289e-06
-0.000120088 -0.000181882 2.72087e-06
7.5289e-06 2.72087e-06 -0.000355886
0.000569401 -2.84353e-05 1.9055e-06
-2.84353e-05 0.000217869 -1.02177e-07
1.9055e-06 -1.02177e-07 5.12703e-05
0.000951137 -0.000161622 2.31555e-08
-0.000161622 0.00049554 3.72674e-06
2.31555e-08 3.72674e-06 0.000298778
0.000500864 -0.000116027 8.48813e-06
-0.000116027 0.000170667 -5.32706e-07
8.48813e-06 -5.32706e-07 2.90955e-05
0.000758854 0.000152243 -2.74246e-06
0.000152243 0.000427644 -6.57771e-06
-2.74246e-06 -6.57771e-06 0.000257465
0.00108341 0.000225045 9.00307e-07
0.000225045 0.000601807 6.25185e-06
9.00307e-07 6.25185e-06 0.000391751
0.00023029 3.77595e-05 3.79826e-06
3.77595e-05 -1.00319e-05 -3.26125e-07
3.79826e-06 -3.26125e-07 -0.000208469
0.00050201 -3.50915e-05 -1.30092e-06
-3.50915e-05 0.000169625 6.8432e-07
-1.30092e-06 6.8432e-07 -1.58305e-05
0.00283989 -0.000514999 2.12528e-05
-0.000514999 -0.000515013 -5.72717e-06
2.12528e-05 -5.72717e-06 -4.68471e-05
0.00270473 -0.000966703 2.05992e-05
-0.000966703 -0.000433459 -8.81089e-06
2.05992e-05 -8.81089e-06 -0.000146705
0.0030572 -0.00140834 -3.72844e-06
-0.00140834 0.000209375 1.11243e-05
-3.72844e-06 1.11243e-05 -3.32742e-05
0.00298972 -0.00183961 1.07751e-06
-0.00183961 0.000962202 1.25278e-05
1.07751e-06 1.25278e-05 0.000106676
0.00324739 -0.00180762 -2.98669e-05
-0.00180762 0.000734837 1.84979e-05
-2.98669e-05 1.84979e-05 3.88563e-05
0.000738438 -0.00171242 4.29686e-05
-0.00171242 0.000481154 1.7652e-05
4.29686e-05 1.7652e-05 -0.00073556
0.00476626 -0.00115952 3.54823e-05
-0.00115952 0.00247818 -7.4248e-06
3.54823e-05 -7.4248e-06 0.00183235
0.00200189 -0.000531592 4.28922e-05
-0.000531592 0.00130774 -5.65663e-05
4.28922e-05 -5.65663e-05 0.000840924
0.000429042 -6.04652e-05 2.78887e-06
-6.04652e-05 0.00011897 -6.89387e-06
2.78887e-06 -6.89387e-06 -0.000107243
0.00123873 -0.000191281 2.36052e-05
-0.000191281 0.000677781 -4.68035e-05
2.36052e-05 -4.68035e-05 0.000343777
-2.2412e-05 -0.000161279 1.27034e-06
-0.000161279 -0.000172482 4.96105e-06
1.27034e-06 4.96105e-06 -0.000334685
-0.000324323 3.4529e-06 -2.99772e-05
3.4529e-06 -0.000200897 -1.27141e-05
-2.99772e-05 -1.27141e-05 -0.00031764
0.00302659 -0.000710546 -1.33401e-06
-0.000710546 -0.000391898 5.69995e-06
-1.33401e-06 5.69995e-06 0.000168588
0.000364407 -8.68595e-05 -6.41438e-06
-8.68595e-05 0.000274698 5.48072e-06
-6.41438e-06 5.48072e-06 5.75035e-05
0.000904044 -0.000324121 -4.04137e-06
-0.000324121 0.000481118 8.30549e-07
-4.04137e-06 8.30549e-07 0.000186058
0.00245179 -0.00124739 1.15667e-05
-0.00124739 -0.000424154 -6.47904e-06
1.15667e-05 -6.47904e-06 -0.000191729
0.00329927 -0.00162037 1.15935e-06
-0.00162037 0.000793519 4.29074e-06
1.15935e-06 4.29074e-06 0.000187825
0.00255966 -0.00190826 2.83832e-06
-0.00190826 0.000579644 -1.29652e-05
2.83832e-06 -1.29652e-05 -0.000169211
0.000435836 -0.000475415 -9.58621e-06
-0.000475415 0.000439239 -2.53822e-05
-9.58621e-06 -2.53822e-05 -0.000100968
0.00086051 -0.00103433 9.98136e-06
-0.00103433 0.00112629 -4.13526e-06
9.98136e-06 -4.13526e-06 -2.85282e-05
0.00613063 -0.00182287 -5.56353e-05
-0.00182287 0.000725802 5.04299e-05
-5.56353e-05 5.04299e-05 0.00153587
0.00265427 -0.00168442 -3.43742e-05
-0.00168442 0.000320237 2.24983e-05
-3.43742e-05 2.24983e-05 -0.000182138
0.00444407 -0.00224136 3.27438e-06
-0.00224136 0.00148599 -3.09334e-06
3.27438e-06 -3.09334e-06 0.000675087
0.0013867 -0.00155953 -5.43354e-05
-0.00155953 0.000423013 9.23951e-06
-5.43354e-05 9.23951e-06 -8.60388e-05
0.00101371 -0.000277433 1.76093e-05
-0.000277433 0.000801821 -2.23676e-06
1.76093e-05 -2.23676e-06 0.000411238
-0.0014804 2.17105e-05 2.68385e-05
2.17105e-05 -0.000688264 2.84931e-05
2.68385e-05 2.84931e-05 -0.00107389
-0.000155874 -0.000496397 -2.85539e-05
-0.000496397 0.000518924 -1.62972e-05
-2.85539e-05 -1.62972e-05 -0.000390779
-0.00642751 -0.0010903 0.00207693
-0.0010903 0.0041399 4.97356e-05
0.00207693 4.97356e-05 -0.00642906
0.016199 -0.000428681 -0.000123563
-0.000428681 -0.00313041 5.78137e-05
-0.000123563 5.78137e-05 -4.40349e-05
0.00196561 0.000597856 8.85743e-06
0.000597856 0.00130038 -1.80789e-05
8.85743e-06 -1.80789e-05 0.000823317
0.00227939 0.00113968 -7.13355e-06
0.00113968 0.00114116 4.37195e-06
-7.13355e-06 4.37195e-06 0.000336891
0.00184226 0.00134418 0.000152238
0.00134418 -0.00113476 6.58511e-05
0.000152238 6.58511e-05 -0.000525585
0.00389019 0.00178937 4.23486e-05
0.00178937 0.0012279 2.37349e-05
4.23486e-05 2.37349e-05 0.000545024
0.00273362 0.00162501 2.1302e-05
0.00162501 0.00100708 1.2199e-05
2.1302e-05 1.2199e-05 5.71879e-05
0.0204622 0.00142612 1.51703e-05
0.00142612 -0.00137592 -0.000283742
1.51703e-05 -0.000283742 0.00196517
0.00769415 0.00585266 -0.000352871
0.00585266 -0.00543986 3.18685e-05
-0.000352871 3.18685e-05 0.000335957
0.000216383 0.0030032 -5.16208e-05
0.0030032 -0.00203807 -4.39252e-05
-5.16208e-05 -4.39252e-05 -0.00162162
0.0212093 -0.0109477 -0.00179484
-0.0109477 0.0138168 0.000704108
-0.00179484 0.000704108 0.00187324
0.0426556 -0.0317525 -0.00175984
-0.0317525 0.0323613 -0.00184648
-0.00175984 -0.00184648 0.00906143
0.00079731 0.000634393 1.04562e-05
0.000634393 0.000566044 -8.716e-06
1.04562e-05 -8.716e-06 1.73797e-05
0.00530296 -0.0101355 0.00173631
-0.0101355 0.00385016 -0.000103047
0.00173631 -0.000103047 -0.00737566
0.0105785 -0.0121257 -0.00151397
-0.0121257 0.0212296 0.000234915
-0.00151397 0.000234915 0.00471371
0.00421635 0.00258508 -1.41641e-06
0.00258508 0.000494469 1.41281e-05
-1.41641e-06 1.41281e-05 0.000105867
0.0012574 0.00108988 -1.48106e-05
0.00108988 0.000469567 1.26617e-05
-1.48106e-05 1.26617e-05 -0.000328916
0.0039162 0.00193956 -1.14617e-05
0.00193956 0.00156171 -3.89661e-06
-1.14617e-05 -3.89661e-06 0.000618528
0.00205228 0.00319237 0.000107707
0.00319237 -4.34587e-07 7.28381e-05
0.000107707 7.28381e-05 -0.00011334
0.0120422 0.00875504 -0.000407072
0.00875504 -0.00790437 -0.000137224
-0.000407072 -0.000137224 -0.00289857
0.00421136 0.00748066 -0.000125084
0.00748066 -0.00179635 -0.000129845
-0.000125084 -0.000129845 0.000474093
0.037392 -0.0117125 0.0011986
-0.0117125 0.0198265 -0.000502894
0.0011986 -0.000502894 0.00537592
0.0364126 -0.00770839 -0.000627676
-0.00770839 0.0159642 0.00119536
-0.000627676 0.00119536 0.00338763
0.00133545 0.000831549 -1.98309e-05
0.000831549 0.000817973 -1.38998e-05
-1.98309e-05 -1.38998e-05 0.000254286
0.00292866 -0.00158775 0.000521456
-0.00158775 0.0100824 -0.000305861
0.000521456 -0.000305861 -0.00154752
0.0125955 0.0064223 -0.00149421
0.0064223 0.00899258 -0.000642001
-0.00149421 -0.000642001 0.0031165
0.00289699 0.00201909 -6.10025e-05
0.00201909 0.000341019 -3.98058e-05
-6.10025e-05 -3.98058e-05 -1.33046e-05
0.00325468 0.0019162 -0.000102166
0.0019162 0.00153073 -4.52328e-05
-0.000102166 -4.52328e-05 0.000562644
0.000630471 0.00235126 -0.000142439
0.00235126 0.000854652 -7.76448e-05
-0.000142439 -7.76448e-05 -0.000198603
-0.00121208 0.00588886 0.000123878
0.00588886 -3.37464e-05 -9.46973e-05
0.000123878 -9.46973e-05 -0.000454973
0.00568327 0.012639 0.0015456
0.012639 -0.00650714 0.000300951
0.0015456 0.000300951 -0.00374767
0.0373147 -0.013896 -0.00188681
-0.013896 0.0238865 0.00153647
-0.00188681 0.00153647 0.00752466
0.0103385 0.00135621 5.99041e-06
0.00135621 -0.00121457 -0.000303498
5.99041e-06 -0.000303498 -0.00456211
0.000570152 0.000327964 -7.20896e-06
0.000327964 0.00058889 1.14263e-05
-7.20896e-06 1.14263e-05 0.000223946
0.00083515 0.000493382 5.82325e-06
0.000493382 0.000726419 1.72982e-06
5.82325e-06 1.72982e-06 0.000282322
0.000283168 0.000452748 2.8766e-06
0.000452748 0.000462433 2.93572e-06
2.8766e-06 2.93572e-06 -2.52552e-05
0.000369573 9.71546e-05 5.82166e-06
9.71546e-05 7.14633e-05 4.26778e-06
5.82166e-06 4.26778e-06 -0.000112977
0.00125422 0.000190243 1.49143e-06
0.000190243 0.000744552 5.60728e-06
1.49143e-06 5.60728e-06 0.00049388
-4.52475e-06 4.87518e-05 1.18917e-06
4.87518e-05 -4.08425e-05 4.39479e-06
1.18917e-06 4.39479e-06 -0.000303277
2.44357e-05 4.47797e-05 8.934e-06
4.47797e-05 4.84568e-05 -2.86175e-06
8.934e-06 -2.86175e-06 -0.000236786
0.000373203 0.000108502 -2.42169e-06
0.000108502 0.000368416 8.61922e-06
-2.42169e-06 8.61922e-06 8.59596e-05
0.000835477 8.36738e-05 -1.519e-06
8.36738e-05 0.000440248 -1.53456e-06
-1.519e-06 -1.53456e-06 0.000205166
0.000287404 5.78053e-05 1.51911e-06
5.78053e-05 0.000246022 -2.81655e-06
1.51911e-06 -2.81655e-06 -3.42183e-05
0.000676974 -2.927e-06 -1.22984e-08
-2.927e-06 0.000416176 2.77923e-06
-1.22984e-08 2.77923e-06 0.000139367
-0.000151632 8.23881e-05 -2.01201e-06
8.23881e-05 0.000248818 1.95497e-07
-2.01201e-06 1.95497e-07 -0.000200461
-4.0377e-05 4.35017e-05 1.71298e-06
4.35017e-05 0.000467249 1.3696e-06
1.71298e-06 1.3696e-06 -0.000126899
3.04756e-05 -6.36272e-05 1.42061e-09
-6.36272e-05 0.00019366 2.46736e-06
1.42061e-09 2.46736e-06 -0.000175269
0.00260859 -0.000156724 -1.22013e-05
-0.000156724 0.00176693 -5.43916e-06
-1.22013e-05 -5.43916e-06 0.00141538
0.00130342 -0.000218333 -4.48777e-06
-0.000218333 0.000776601 -3.77262e-07
-4.48777e-06 -3.77262e-07 0.000536782
0.000608522 -9.47576e-05 -1.31432e-05
-9.47576e-05 0.000339611 -2.76457e-06
-1.31432e-05 -2.76457e-06 0.000167652
0.000547048 -0.000190166 -9.09794e-09
-0.000190166 0.000281931 3.94821e-06
-9.09794e-09 3.94821e-06 0.000112709
0.0004365 -0.000223146 1.37535e-06
-0.000223146 0.000149445 -1.77978e-06
1.37535e-06 -1.77978e-06 -9.74277e-06
0.000144366 -4.32153e-05 -1.31034e-05
-4.32153e-05 0.00024642 8.61948e-06
-1.31034e-05 8.61948e-06 2.67225e-05
0.000876462 -0.000156629 1.90507e-05
-0.000156629 0.000441503 -1.81839e-05
1.90507e-05 -1.81839e-05 0.000246306
-0.00126366 -5.54935e-05 -1.48564e-05
-5.54935e-05 -0.000643213 6.30183e-06
-1.48564e-05 6.30183e-06 -0.000959657
0.00244793 -0.000304591 1.39817e-05
-0.000304591 0.001642 -2.5559e-06
1.39817e-05 -2.5559e-06 0.00143163
0.00128842 -5.31352e-06 1.92397e-05
-5.31352e-06 0.000734479 -1.72196e-05
1.92397e-05 -1.72196e-05 0.000376301
0.0044066 -0.000926412 4.09073e-06
-0.000926412 0.00241887 5.6621e-06
4.09073e-06 5.6621e-06 0.00191317
-0.00353228 -0.000321386 1.0726e-05
-0.000321386 -0.00211123 4.58389e-07
1.0726e-05 4.58389e-07 -0.0025697
1.49411e-05 -7.23042e-05 -9.05294e-07
-7.23042e-05 4.49834e-05 9.80135e-07
-9.05294e-07 9.80135e-07 -0.00027815
-0.000472658 -4.32278e-05 1.586e-05
-4.32278e-05 -0.000304119 -2.35336e-05
1.586e-05 -2.35336e-05 -0.00063998
0.00129179 -0.000222928 -9.10725e-07
-0.000222928 0.000859522 -1.6848e-06
-9.10725e-07 -1.6848e-06 0.000559525
-0.000419734 -4.14862e-05 1.20612e-05
-4.14862e-05 -0.00038275 8.65294e-06
1.20612e-05 8.65294e-06 -0.000632306
0.00220613 -0.000134429 -2.95869e-06
-0.000134429 0.00145186 3.65958e-06
-2.95869e-06 3.65958e-06 0.00114666
0.000242636 -0.000107166 -3.60798e-06
-0.000107166 3.50893e-05 -2.41053e-09
-3.60798e-06 -2.41053e-09 -0.00016385
-5.47321e-05 2.55661e-05 5.9421e-06
2.55661e-05 -0.000252982 -1.11554e-06
5.9421e-06 -1.11554e-06 -0.00036368
0.00113245 -0.000203807 -8.56769e-07
-0.000203807 0.000610084 7.7252e-06
-8.56769e-07 7.7252e-06 0.000414268
0.000338736 -6.21692e-05 -1.20608e-06
-6.21692e-05 -1.01831e-05 -7.27946e-08
-1.20608e-06 -7.27946e-08 -0.000110969
0.00133962 4.65156e-05 -1.03174e-05
4.65156e-05 0.000630943 8.63306e-06
-1.03174e-05 8.63306e-06 0.000598945
0.000416923 -0.000100099 1.40934e-06
-0.000100099 5.11547e-05 -1.28613e-06
1.40934e-06 -1.28613e-06 -5.66737e-05
0.000833849 -3.43394e-05 -1.50392e-05
-3.43394e-05 0.000301027 1.1284e-06
-1.50392e-05 1.1284e-06 0.000266077
0.000678548 6.58239e-06 2.43083e-06
6.58239e-06 0.000167324 1.91915e-06
2.43083e-06 1.91915e-06 0.000168615
0.00036712 -6.36641e-05 6.16754e-06
-6.36641e-05 -6.45357e-06 -5.86004e-06
6.16754e-06 -5.86004e-06 -4.46483e-05
0.002678 -3.34247e-06 6.37671e-06
-3.34247e-06 0.0015094 -9.55953e-09
6.37671e-06 -9.55953e-09 0.00152017
0.00273929 -1.32828e-05 2.30897e-05
-1.32828e-05 0.00155262 -5.91424e-06
2.30897e-05 -5.91424e-06 0.00156187
0.00123611 0.000103876 -3.79781e-07
0.000103876 0.000667911 -2.04669e-06
-3.79781e-07 -2.04669e-06 0.000476316
0.000437475 9.54442e-05 -5.9919e-07
9.54442e-05 8.20217e-05 -6.64036e-06
-5.9919e-07 -6.64036e-06 -2.02239e-05
0.000573258 8.23188e-06 -3.21537e-07
8.23188e-06 0.000222659 9.50241e-07
-3.21537e-07 9.50241e-07 4.46573e-05
0.00036582 1.61639e-05 9.56215e-07
1.61639e-05 -3.06777e-05 -5.69677e-06
9.56215e-07 -5.69677e-06 -5.63394e-05
0.000411401 -2.14627e-05 2.56939e-06
-2.14627e-05 4.69277e-05 -3.67944e-07
2.56939e-06 -3.67944e-07 -4.14791e-05
0.00041108 -9.12218e-05 -3.6639e-06
-9.12218e-05 5.13523e-05 5.54184e-06
-3.6639e-06 5.54184e-06 -4.50297e-05
0.000371872 -6.53023e-06 -6.15897e-08
-6.53023e-06 -2.74047e-05 1.21138e-07
-6.15897e-08 1.21138e-07 -5.43225e-05
0.00242757 3.39676e-05 -7.51241e-06
3.39676e-05 0.00134136 -6.36766e-06
-7.51241e-06 -6.36766e-06 0.00135149
0.00147814 2.48856e-05 -5.36574e-07
2.48856e-05 0.000710073 5.03264e-06
-5.36574e-07 5.03264e-06 0.000680929
0.00164498 4.03956e-05 -1.00868e-05
4.03956e-05 0.000821079 -1.23321e-07
-1.00868e-05 -1.23321e-07 0.000821948
0.000771366 4.08644e-05 1.81334e-06
4.08644e-05 0.000246537 1.29788e-05
1.81334e-06 1.29788e-05 0.000237404
0.00359236 0.00686699 0.00198156
0.00686699 0.00556934 9.3399e-05
0.00198156 9.3399e-05 -0.00570847
0.0128813 0.00899449 0.00342214
0.00899449 0.0182097 0.000234061
0.00342214 0.000234061 0.00338284
0.00123226 0.00218653 -1.47679e-06
0.00218653 -0.00621095 -9.2322e-05
-1.47679e-06 -9.2322e-05 -0.000452861
0.00351785 7.16985e-05 0.000155313
7.16985e-05 -0.00363513 2.7141e-05
0.000155313 2.7141e-05 -0.000956715
0.00345955 -0.000181664 4.83594e-05
-0.000181664 2.5848e-05 -4.42126e-06
4.83594e-05 -4.42126e-06 0.000407127
0.00431417 0.000411714 -7.70903e-07
0.000411714 -0.00333498 -3.88318e-05
-7.70903e-07 -3.88318e-05 0.000651934
0.00515386 -0.00114993 3.71847e-05
-0.00114993 -0.000691902 -2.22093e-07
3.71847e-05 -2.22093e-07 0.000773319
0.0130627 -0.00162291 0.000484109
-0.00162291 -0.00583384 -0.000197003
0.000484109 -0.000197003 -0.00392611
0.0135185 0.00859628 -0.000141655
0.00859628 0.00698631 -0.000133894
-0.000141655 -0.000133894 -0.00202193
0.0497656 0.026525 -0.0006391
0.026525 0.0344931 0.000263008
-0.0006391 0.000263008 0.0121401
0.0043471 -0.0028595 -0.000146786
-0.0028595 -0.00459214 2.51596e-06
-0.000146786 2.51596e-06 0.000166011
0.0138607 -0.00739275 0.000753791
-0.00739275 -0.00555444 -0.000160251
0.000753791 -0.000160251 -0.00229122
0.0329399 0.0121785 3.76943e-05
0.0121785 0.0182027 -0.000641658
3.76943e-05 -0.000641658 0.00372178
0.0384041 0.0074624 -0.000581592
0.0074624 0.0191877 0.00049422
-0.000581592 0.00049422 0.00848468
0.00244908 0.000215556 -5.47587e-06
0.000215556 0.00162832 3.63865e-06
-5.47587e-06 3.63865e-06 0.00130797
0.000610377 3.9392e-05 1.99273e-06
3.9392e-05 0.000241044 -1.06499e-06
1.99273e-06 -1.06499e-06 7.00617e-05
0.000478029 -0.000128915 2.39589e-06
-0.000128915 0.000160875 1.0953e-06
2.39589e-06 1.0953e-06 -6.60027e-06
0.000125036 -3.49079e-05 6.34802e-06
-3.49079e-05 -6.78758e-05 -1.68632e-06
6.34802e-06 -1.68632e-06 -0.000209101
0.000149409 0.000101 3.8356e-06
0.000101 1.36137e-05 5.21092e-07
3.8356e-06 5.21092e-07 -0.000118254
0.000774312 0.000216608 2.29595e-06
0.000216608 0.000393892 6.13892e-06
2.29595e-06 6.13892e-06 0.000147273
0.000345565 8.17499e-05 -3.22417e-06
8.17499e-05 0.000110224 -5.70366e-07
-3.22417e-06 -5.70366e-07 -8.07499e-05
0.000458797 0.000147779 7.72654e-06
0.000147779 0.000146802 4.41534e-06
7.72654e-06 4.41534e-06 -0.000105455
0.000475218 4.58985e-05 3.06574e-08
4.58985e-05 0.000176196 -3.17443e-07
3.06574e-08 -3.17443e-07 -4.01283e-05
-0.000156786 -3.01294e-05 2.67791e-08
-3.01294e-05 -0.000290631 -2.23885e-06
2.67791e-08 -2.23885e-06 -0.000443781
0.00227202 -0.000651974 7.73884e-05
-0.000651974 -0.000923293 -3.00404e-05
7.73884e-05 -3.00404e-05 -0.000211546
0.00184594 -0.00117005 2.35675e-05
-0.00117005 -0.000737894 -1.62464e-05
2.35675e-05 -1.62464e-05 -0.000464532
0.00261096 -0.00151883 -2.05905e-07
-0.00151883 0.000384298 1.56904e-05
-2.05905e-07 1.56904e-05 -0.00015514
0.000678003 -0.00155402 -8.11679e-06
-0.00155402 -0.000446725 1.31237e-05
-8.11679e-06 1.31237e-05 -0.00110111
0.00275138 -0.00101953 2.75218e-05
-0.00101953 0.00211692 7.64794e-05
2.75218e-05 7.64794e-05 0.00106949
7.73206e-06 -0.000853688 -3.20072e-05
-0.000853688 0.000228505 -3.04514e-05
-3.20072e-05 -3.04514e-05 -0.0005396
0.00105995 -0.000318177 1.85269e-05
-0.000318177 0.000614582 -2.85597e-05
1.85269e-05 -2.85597e-05 0.000359285
0.000101184 -2.40182e-05 -5.01304e-06
-2.40182e-05 5.35509e-05 6.39515e-07
-5.01304e-06 6.39515e-07 -0.000134577
0.003927 -0.00154235 1.68372e-06
-0.00154235 -0.000555398 -9.92325e-06
1.68372e-06 -9.92325e-06 0.000443772
0.000331176 -7.61247e-05 -2.6396e-07
-7.61247e-05 0.000360947 1.32343e-06
-2.6396e-07 1.32343e-06 -3.17411e-05
-0.000134039 -0.00016154 -1.15818e-05
-0.00016154 0.000145713 2.69696e-06
-1.15818e-05 2.69696e-06 -0.000222756
0.00201341 -0.0015125 2.48045e-05
-0.0015125 -7.09225e-05 -1.06104e-06
2.48045e-05 -1.06104e-06 -0.000379683
0.00348477 -0.00201962 -3.49515e-06
-0.00201962 0.0010266 -7.75145e-06
-3.49515e-06 -7.75145e-06 0.000232248
0.00055204 -0.00139593 3.16271e-05
-0.00139593 -2.95279e-06 -1.69564e-05
3.16271e-05 -1.69564e-05 -0.00053028
0.000807725 -0.000687378 2.86498e-05
-0.000687378 0.00112138 -4.29714e-05
2.86498e-05 -4.29714e-05 0.000220988
0.00123921 -0.00232103 -2.21741e-05
-0.00232103 -0.00192021 5.31147e-05
-2.21741e-05 5.31147e-05 -0.00113726
0.00320501 -0.00183748 -4.98264e-05
-0.00183748 0.00112492 3.21055e-05
-4.98264e-05 3.21055e-05 0.000419678
-0.000496687 -0.000812311 -8.61355e-05
-0.000812311 0.000205045 2.01059e-05
-8.61355e-05 2.01059e-05 -0.000499306
0.00150895 0.000188333 5.88506e-06
0.000188333 0.00105218 5.22909e-07
5.88506e-06 5.22909e-07 0.000686433
-0.000807068 -4.94739e-06 9.65744e-06
-4.94739e-06 -0.000206946 1.60599e-05
9.65744e-06 1.60599e-05 -0.000692972
0.000206532 -9.73409e-05 1.79492e-05
-9.73409e-05 0.000477482 1.55577e-05
1.79492e-05 1.55577e-05 2.23092e-05
-0.00284008 0.00254303 -0.000910874
0.00254303 0.00907983 -7.27747e-05
-0.000910874 -7.27747e-05 0.000221354
0.00196722 -0.00259046 1.43279e-05
-0.00259046 0.00833041 -4.40601e-05
1.43279e-05 -4.40601e-05 0.00114622
0.00916865 5.17981e-05 -5.87931e-05
5.17981e-05 -0.0079051 -8.17919e-06
-5.87931e-05 -8.17919e-06 -0.00814807
0.000921879 0.000643929 2.22385e-05
0.000643929 0.000686754 -1.64517e-05
2.22385e-05 -1.64517e-05 0.000126491
0.00177815 0.00123394 2.53651e-05
0.00123394 0.000833606 3.09227e-05
2.53651e-05 3.09227e-05 -4.76997e-05
0.00259193 0.00205594 0.000107654
0.00205594 -0.000383597 5.99021e-05
0.000107654 5.99021e-05 -0.000555935
0.00428641 0.00208362 5.68566e-05
0.00208362 0.00177844 4.7167e-05
5.68566e-05 4.7167e-05 0.000764234
0.0201379 -0.0116611 0.000347592
-0.0116611 0.0160841 0.00019215
0.000347592 0.00019215 0.00253241
0.00283405 0.00702464 -0.00109338
0.00702464 -0.014013 -0.000189139
-0.00109338 -0.000189139 -0.00973468
0.00639716 0.00799554 -7.056e-05
0.00799554 -0.00157066 2.56544e-05
-7.056e-05 2.56544e-05 0.000929782
0.00491104 0.00331024 0.00012901
0.00331024 0.00176587 4.3694e-05
0.00012901 4.3694e-05 0.00152942
0.0290569 -0.00858 -0.000565533
-0.00858 0.0144335 -0.000221998
-0.000565533 -0.000221998 0.00194051
0.0101263 -0.0117174 -0.00226883
-0.0117174 0.0226005 0.000123524
-0.00226883 0.000123524 0.00741923
0.0480863 -0.0137557 0.00213562
-0.0137557 0.0206231 0.00044206
0.00213562 0.00044206 0.00536997
0.000811972 0.000778805 1.63131e-05
0.000778805 0.000557461 -5.3471e-06
1.63131e-05 -5.3471e-06 -2.74015e-05
0.00453485 -0.004208 0.000111634
-0.004208 0.0131192 1.92968e-05
0.000111634 1.92968e-05 0.000620837
0.0114681 0.00643393 -0.000344899
0.00643393 0.00579983 -0.000201514
-0.000344899 -0.000201514 -0.00137632
0.00343877 0.00234731 9.60478e-06
0.00234731 0.000783972 6.028e-06
9.60478e-06 6.028e-06 0.000205733
0.00167711 0.00159401 4.41856e-06
0.00159401 0.000789843 7.39154e-06
4.41856e-06 7.39154e-06 -0.000119761
-2.03554e-05 0.00234899 -0.000178256
0.00234899 0.00045459 -0.000120741
-0.000178256 -0.000120741 -0.000395363
0.0045824 0.00838558 0.000124386
0.00838558 0.00117776 5.8731e-05
0.000124386 5.8731e-05 0.000612161
0.0113981 0.0129181 -4.24748e-05
0.0129181 -0.00172665 -1.76833e-05
-4.24748e-05 -1.76833e-05 -0.00155813
0.0192111 -0.00809064 1.99257e-05
-0.00809064 0.016516 -0.000190074
1.99257e-05 -0.000190074 0.00169718
0.0216245 -0.00256421 -0.000229968
-0.00256421 0.00497889 -2.49415e-05
-0.000229968 -2.49415e-05 0.0020171
0.00159046 0.00144563 -1.49294e-05
0.00144563 0.00100441 -1.04375e-05
-1.49294e-05 -1.04375e-05 0.000161356
0.00223654 0.0018319 -0.000846645
0.0018319 0.00481907 -0.000212606
-0.000846645 -0.000212606 -0.00236336
0.00588367 0.00139099 3.24957e-05
0.00139099 0.00211644 -0.000206258
3.24957e-05 -0.000206258 -0.00268696
-0.00109301 0.000973959 -2.43968e-06
0.000973959 4.19611e-05 -3.728e-05
-2.43968e-06 -3.728e-05 -0.000666913
-0.00292932 0.00266942 -5.36863e-05
0.00266942 0.00097962 6.04635e-05
-5.36863e-05 6.04635e-05 -0.000353646
0.00615003 0.0106202 0.000588589
0.0106202 0.00450594 7.37769e-05
0.000588589 7.37769e-05 -0.0015486
0.0165081 -0.00641853 0.000127498
-0.00641853 0.00654815 0.00020632
0.000127498 0.00020632 -0.00468699
0.0217064 -0.00140758 0.000154003
-0.00140758 0.00141832 -0.000329263
0.000154003 -0.000329263 0.000389597
0.000542218 0.000441819 6.74965e-06
0.000441819 0.000534091 2.19934e-05
6.74965e-06 2.19934e-05 0.000136352
0.000579124 0.000465038 -3.21715e-06
0.000465038 0.000658049 -4.96048e-06
-3.21715e-06 -4.96048e-06 0.000157713
0.000574666 0.00049144 1.35854e-05
0.00049144 0.000795761 2.36995e-06
1.35854e-05 2.36995e-06 0.000160715
0.000466456 0.000107673 1.62588e-06
0.000107673 0.000155645 8.60996e-06
1.62588e-06 8.60996e-06 -5.08201e-05
0.00138266 -1.42954e-05 -6.28284e-07
-1.42954e-05 0.000900596 7.3381e-06
-6.28284e-07 7.3381e-06 0.000611187
0.000165496 7.3954e-05 3.81637e-06
7.3954e-05 0.000160948 -4.29199e-07
3.81637e-06 -4.29199e-07 -0.000128532
1.94037e-06 0.000121034 1.27897e-06
0.000121034 0.000347581 1.87915e-06
1.27897e-06 1.87915e-06 -9.47623e-05
0.000708001 -4.9227e-05 5.74337e-06
-4.9227e-05 0.00041609 1.1151e-06
5.74337e-06 1.1151e-06 0.000148597
0.000247811 -2.18516e-05 3.5159e-07
-2.18516e-05 0.000308149 -4.38438e-06
3.5159e-07 -4.38438e-06 -4.11544e-05
-8.77465e-05 5.1408e-05 -7.43327e-08
5.1408e-05 0.000495354 1.15109e-06
-7.43327e-08 1.15109e-06 -0.000145928
-0.000666478 2.49592e-05 5.91929e-06
2.49592e-05 0.000324709 6.25105e-06
5.91929e-06 6.25105e-06 -0.000385355
0.00123136 -0.000127978 9.57482e-06
-0.000127978 0.00123795 -1.00439e-05
9.57482e-06 -1.00439e-05 0.000687871
0.00104176 -0.000108443 -2.66327e-05
-0.000108443 0.000874085 7.00929e-06
-2.66327e-05 7.00929e-06 0.000464438
0.00137646 -0.000248386 5.60621e-06
-0.000248386 0.000847198 8.35698e-06
5.60621e-06 8.35698e-06 0.000649032
-0.000580207 -0.000336696 -8.08849e-06
-0.000336696 -0.000552725 -4.1222e-06
-8.08849e-06 -4.1222e-06 -0.000679339
-0.000689361 -1.99179e-07 2.11982e-05
-1.99179e-07 -0.000218942 -1.51571e-05
2.11982e-05 -1.51571e-05 -0.000438103
-0.000692072 -2.40102e-05 2.23522e-06
-2.40102e-05 -0.000267497 -2.65082e-06
2.23522e-06 -2.65082e-06 -0.000588769
0.000195942 -0.000203851 -1.2808e-06
-0.000203851 -6.29856e-05 3.75132e-06
-1.2808e-06 3.75132e-06 -0.000210109
-7.71818e-05 -0.000225116 -1.27244e-05
-0.000225116 6.27758e-05 4.44749e-06
-1.27244e-05 4.44749e-06 -0.0001137
0.00408717 -0.000364113 1.35972e-05
-0.000364113 0.00250213 -4.18393e-06
1.35972e-05 -4.18393e-06 0.00209729
0.00132126 -0.000140621 2.39916e-06
-0.000140621 0.00124172 7.15096e-06
2.39916e-06 7.15096e-06 0.000826855
0.00170672 -0.000720184 -1.00282e-05
-0.000720184 0.000976646 1.04109e-05
-1.00282e-05 1.04109e-05 0.000397968
0.00155053 -0.000186468 -1.73893e-05
-0.000186468 0.000845809 2.41095e-06
-1.73893e-05 2.41095e-06 0.000518999
0.000161733 -0.000461364 2.12782e-05
-0.000461364 -0.000171014 6.64864e-06
2.12782e-05 6.64864e-06 -0.000556575
0.0023993 -0.0011504 -8.27007e-06
-0.0011504 0.00112634 1.2242e-05
-8.27007e-06 1.2242e-05 0.000382745
0.0030276 -0.000500347 2.60241e-05
-0.000500347 0.00150791 -7.80287e-06
2.60241e-05 -7.80287e-06 0.00119079
0.00248261 -0.000703882 1.89225e-07
-0.000703882 0.00122661 -9.70189e-06
1.89225e-07 -9.70189e-06 0.000791145
1.23973e-05 -0.000354266 4.92318e-07
-0.000354266 2.78758e-05 8.16217e-07
4.92318e-07 8.16217e-07 -0.000375873
-0.00311605 -0.000300926 1.80527e-05
-0.000300926 -0.00190703 -1.82674e-05
1.80527e-05 -1.82674e-05 -0.00240987
0.000871491 -0.000197181 -5.68896e-06
-0.000197181 0.000575984 7.78869e-06
-5.68896e-06 7.78869e-06 0.000273791
0.000797115 -0.000481081 9.1444e-06
-0.000481081 0.000456324 -4.45798e-06
9.1444e-06 -4.45798e-06 0.000112322
0.00104435 -0.000164902 1.77184e-05
-0.000164902 0.000548706 7.96783e-06
1.77184e-05 7.96783e-06 0.000232654
0.00204121 -0.000599149 -1.39429e-05
-0.000599149 0.00133803 1.68421e-05
-1.39429e-05 1.68421e-05 0.00100848
0.000258494 -0.000196119 -1.12935e-06
-0.000196119 0.00014294 -8.10385e-07
-1.12935e-06 -8.10385e-07 -0.000167627
-6.14927e-05 -5.11948e-05 6.96928e-06
-5.11948e-05 -0.000246276 4.7621e-06
6.96928e-06 4.7621e-06 -0.000398709
0.00233487 -0.000384378 -4.58438e-06
-0.000384378 0.00148264 7.58027e-06
-4.58438e-06 7.58027e-06 0.00121962
0.000829736 -0.000129809 7.29703e-07
-0.000129809 0.000333597 8.75596e-07
7.29703e-07 8.75596e-07 0.000206517
0.00155343 -1.10562e-05 -1.87279e-05
-1.10562e-05 0.000769364 9.40219e-06
-1.87279e-05 9.40219e-06 0.000728223
0.000441121 -0.000109781 -1.30388e-06
-0.000109781 8.24546e-05 2.7625e-07
-1.30388e-06 2.7625e-07 -3.37643e-05
0.00079947 -2.23497e-05 -1.79323e-05
-2.23497e-05 0.000272957 9.27652e-07
-1.79323e-05 9.27652e-07 0.00023508
0.000797011 1.57876e-05 4.04311e-06
1.57876e-05 0.000243368 3.14826e-06
4.04311e-06 3.14826e-06 0.00024129
0.000354567 -6.64959e-05 5.12873e-06
-6.64959e-05 -1.96143e-05 -5.85033e-06
5.12873e-06 -5.85033e-06 -5.7705e-05
0.00169892 8.61956e-06 2.1028e-05
8.61956e-06 0.000851383 -2.06704e-06
2.1028e-05 -2.06704e-06 0.00085833
0.00264116 -7.56719e-06 3.10684e-05
-7.56719e-06 0.00148404 -5.94323e-06
3.10684e-05 -5.94323e-06 0.00149549
-6.87838e-05 0.000120787 2.9316e-06
0.000120787 -0.000267654 -1.72126e-06
2.9316e-06 -1.72126e-06 -0.000434801
0.000539293 9.93631e-05 7.10464e-07
9.93631e-05 0.000148148 -6.76261e-06
7.10464e-07 -6.76261e-06 3.62629e-05
0.000374698 3.63545e-05 1.28364e-06
3.63545e-05 6.8315e-05 1.24274e-06
1.28364e-06 1.24274e-06 -0.000103034
0.000367513 1.68215e-05 2.94153e-06
1.68215e-05 -2.92301e-05 -6.50723e-06
2.94153e-06 -6.50723e-06 -5.73051e-05
0.000398074 7.70187e-05 5.86899e-07
7.70187e-05 4.37747e-05 -5.06665e-09
5.86899e-07 -5.06665e-09 -5.02731e-05
0.000134651 -0.000104379 -4.35827e-06
-0.000104379 -0.000106254 5.08429e-06
-4.35827e-06 5.08429e-06 -0.00025798
0.00242843 1.78113e-05 -1.36551e-05
1.78113e-05 0.00134046 -6.56183e-06
-1.36551e-05 -6.56183e-06 0.00135194
0.000359775 1.17938e-05 -5.66342e-07
1.17938e-05 -3.44736e-05 -5.3473e-08
-5.66342e-07 -5.3473e-08 -5.99547e-05
0.000459286 -7.66149e-06 -3.61213e-06
-7.66149e-06 6.25121e-05 4.87567e-06
-3.61213e-06 4.87567e-06 -1.55106e-05
0.00038782 -1.78435e-05 -3.89434e-06
-1.78435e-05 -1.76314e-05 5.83205e-06
-3.89434e-06 5.83205e-06 -4.50641e-05
0.00251142 3.59993e-05 -6.47186e-06
3.59993e-05 0.001398 -1.87298e-07
-6.47186e-06 -1.87298e-07 0.0014073
0.0027076 5.41735e-05 2.95279e-07
5.41735e-05 0.00153189 7.24527e-06
2.95279e-07 7.24527e-06 0.00153732
0.00550966 -0.000387657 -0.000544336
-0.000387657 0.0143075 9.87976e-05
-0.000544336 9.87976e-05 0.00553735
0.00962581 0.00784403 -0.000536823
0.00784403 0.00815202 0.000216613
-0.000536823 0.000216613 -0.00280245
0.0101346 -0.0035394 -0.000553204
-0.0035394 0.00346176 0.000364678
-0.000553204 0.000364678 -0.00266639
0.018415 0.0101205 0.00175271
0.0101205 0.018459 6.33912e-05
0.00175271 6.33912e-05 0.00303308
0.00635445 0.000952775 0.000112729
0.000952775 -0.00255629 3.34692e-05
0.000112729 3.34692e-05 0.00103123
0.00246046 -0.00107416 0.000134082
-0.00107416 -0.00205495 -6.67409e-06
0.000134082 -6.67409e-06 -0.000750125
0.00293936 -0.00142796 0.000695766
-0.00142796 -0.0141038 -4.87345e-05
0.000695766 -4.87345e-05 -0.00963138
0.0218249 0.00977786 -0.00282949
0.00977786 0.0166639 -0.000529743
-0.00282949 -0.000529743 0.00508529
0.0416132 0.0310385 -0.00200505
0.0310385 0.0303481 0.00188147
-0.00200505 0.00188147 0.00763113
0.00603686 -0.00198652 9.25648e-05
-0.00198652 -0.00314467 -1.60224e-05
9.25648e-05 -1.60224e-05 0.000313611
0.00871915 -0.00801914 0.00048968
-0.00801914 -0.00922189 -0.000259019
0.00048968 -0.000259019 -0.00539976
0.0349294 0.0116764 -0.000771474
0.0116764 0.0195464 -0.000502089
-0.000771474 -0.000502089 0.0045461
0.0294652 0.00669908 0.000644445
0.00669908 0.0154417 0.000645449
0.000644445 0.000645449 0.00498831
0.00316308 -0.00471253 -9.40086e-05
-0.00471253 -0.00510783 0.000157073
-9.40086e-05 0.000157073 -0.000874781
-0.000958664 -0.011612 0.00144601
-0.011612 -0.00552537 -0.000356528
0.00144601 -0.000356528 -0.00469883
0.0203291 0.00461069 -0.000989827
0.00461069 0.0119144 -0.00156143
-0.000989827 -0.00156143 -0.000560313
0.0133206 -0.00185736 -0.000341847
-0.00185736 0.00330131 5.02111e-05
-0.000341847 5.02111e-05 -0.000527914
0.00132709 3.98058e-05 6.70189e-06
3.98058e-05 0.000819936 1.51265e-05
6.70189e-06 1.51265e-05 0.000501774
8.6313e-05 -2.82376e-06 -5.42399e-07
-2.82376e-06 -4.05914e-05 -5.26207e-07
-5.42399e-07 -5.26207e-07 -0.000239571
0.00025132 0.000110504 -2.0373e-06
0.000110504 -2.42476e-05 -5.34387e-07
-2.0373e-06 -5.34387e-07 -0.000176889
-0.000667922 -9.919e-05 -1.31843e-05
-9.919e-05 -0.000613965 8.31328e-07
-1.31843e-05 8.31328e-07 -0.000653077
0.00044428 0.000189945 6.20237e-06
0.000189945 0.000147328 2.13421e-05
6.20237e-06 2.13421e-05 -0.000104658
0.000665585 0.000152998 -1.52983e-06
0.000152998 0.000338078 -1.84624e-06
-1.52983e-06 -1.84624e-06 9.21927e-05
-7.10045e-05 -4.80671e-05 1.94825e-06
-4.80671e-05 -0.000172547 -3.24978e-06
1.94825e-06 -3.24978e-06 -0.000342854
0.00110035 0.000262855 1.28091e-05
0.000262855 0.00063513 6.8336e-06
1.28091e-05 6.8336e-06 0.000326167
0.000938555 0.000250786 -1.07307e-06
0.000250786 0.000514319 -3.1157e-06
-1.07307e-06 -3.1157e-06 0.000228414
0.000436515 7.84459e-05 -3.94878e-06
7.84459e-05 0.000151091 -2.98727e-06
-3.94878e-06 -2.98727e-06 -6.7618e-05
0.00305176 -0.00146376 0.000174696
-0.00146376 -0.00101644 -0.00010375
0.000174696 -0.00010375 -2.59076e-05
0.00108194 -0.00136156 -1.13386e-05
-0.00136156 -0.000679381 -1.25798e-05
-1.13386e-05 -1.25798e-05 -0.000787427
0.00272486 -0.00184727 9.57061e-06
-0.00184727 0.000676686 2.60957e-05
9.57061e-06 2.60957e-05 -0.000106478
0.000130194 -0.00133044 2.00773e-05
-0.00133044 -0.000226041 9.62784e-07
2.00773e-05 9.62784e-07 -0.00077243
0.00426652 -0.00072835 -5.42124e-05
-0.00072835 0.00291629 9.33107e-05
-5.42124e-05 9.33107e-05 0.00232855
0.000738871 -0.000306144 -1.26126e-05
-0.000306144 0.000724789 -2.6415e-05
-1.26126e-05 -2.6415e-05 0.000307474
0.00147767 0.000106797 -9.15938e-06
0.000106797 0.00107459 -1.26699e-05
-9.15938e-06 -1.26699e-05 0.00065991
0.000936064 9.8309e-05 -8.45183e-06
9.8309e-05 0.000634527 -1.24772e-06
-8.45183e-06 -1.24772e-06 0.000290155
0.0038066 -0.00252305 -4.98405e-05
-0.00252305 -0.000433328 9.89784e-06
-4.98405e-05 9.89784e-06 0.000299483
0.00129285 -0.000162705 -3.81659e-06
-0.000162705 0.00105752 8.45327e-06
-3.81659e-06 8.45327e-06 0.000592727
0.000864087 -0.000321614 1.48495e-05
-0.000321614 0.000817281 -6.9656e-06
1.48495e-05 -6.9656e-06 0.000343566
0.00135621 -0.00159212 2.41835e-05
-0.00159212 5.60382e-05 -5.83156e-06
2.41835e-05 -5.83156e-06 -0.000503285
0.000184646 -0.000826038 -6.71498e-06
-0.000826038 0.000439142 6.38117e-06
-6.71498e-06 6.38117e-06 -0.000150184
0.00100136 -0.00328035 -1.92676e-05
-0.00328035 -0.000369865 6.0651e-06
-1.92676e-05 6.0651e-06 -0.00109254
0.000605394 -0.0011991 -1.20912e-05
-0.0011991 0.000682967 9.66836e-06
-1.20912e-05 9.66836e-06 4.2101e-05
-0.00109777 -0.00022714 -1.3617e-05
-0.00022714 0.000141828 -1.53968e-05
-1.3617e-05 -1.53968e-05 -0.000663125
0.000855709 0.000117968 2.08192e-05
0.000117968 0.000695766 -5.29152e-06
2.08192e-05 -5.29152e-06 0.00038599
-0.000446854 -0.000118344 4.85382e-06
-0.000118344 9.85491e-05 1.19902e-05
4.85382e-06 1.19902e-05 -0.000387568
0.00349919 0.000247153 -0.000243124
0.000247153 0.00232736 -9.67574e-05
-0.000243124 -9.67574e-05 -0.00273856
-0.00579498 0.000756886 -0.00132347
0.000756886 0.00770764 5.48123e-05
-0.00132347 5.48123e-05 0.0009921
-0.00589816 -0.00476378 -0.00242236
-0.00476378 0.00394611 0.000178564
-0.00242236 0.000178564 -0.00647717
-4.61509e-05 0.00069597 2.5319e-05
0.00069597 0.000113014 -1.3444e-05
2.5319e-05 -1.3444e-05 -0.000502219
0.00187737 0.00155066 1.12291e-05
0.00155066 0.000978851 1.288e-05
1.12291e-05 1.288e-05 7.2984e-05
0.00597888 0.00305658 9.63941e-05
0.00305658 0.00213968 9.39949e-05
9.63941e-05 9.39949e-05 0.00124024
0.00212874 -0.00199592 0.000292386
-0.00199592 0.0136962 9.63836e-05
0.000292386 9.63836e-05 0.00351831
-0.000208259 0.0122048 -0.00138594
0.0122048 -0.00679621 -0.000256443
-0.00138594 -0.000256443 -0.00497878
0.00107245 0.00619385 0.00065121
0.00619385 -0.000763293 0.000380561
0.00065121 0.000380561 -0.000438462
-0.000184385 0.00223654 -7.52939e-06
0.00223654 0.000343978 -5.99039e-05
-7.52939e-06 -5.99039e-05 -8.37069e-05
0.0358528 -0.00856504 0.000447249
-0.00856504 0.0185245 -0.000864384
0.000447249 -0.000864384 0.00578642
0.0113574 0.00697575 0.00174226
0.00697575 0.00435465 0.000468785
0.00174226 0.000468785 -0.00408291
0.0158662 -0.000660068 -4.04982e-05
-0.000660068 0.00470568 8.83356e-05
-4.04982e-05 8.83356e-05 0.00380571
0.00245063 0.00151855 8.65902e-06
0.00151855 0.00150438 4.05302e-07
8.65902e-06 4.05302e-07 0.000664511
0.00416923 0.00307342 -0.000221254
0.00307342 0.00592922 -6.78736e-05
-0.000221254 -6.78736e-05 -0.000931886
0.00521635 0.000988383 0.000227186
0.000988383 0.00308917 -2.67741e-05
0.000227186 -2.67741e-05 -0.00126815
0.000628754 0.0016397 -3.77849e-05
0.0016397 0.000784451 -1.40099e-05
-3.77849e-05 -1.40099e-05 -0.000189187
-0.00161804 0.00391472 -0.000199792
0.00391472 0.000626207 -0.000162431
-0.000199792 -0.000162431 -0.00129229
0.00340779 0.0121859 0.000767032
0.0121859 0.00312787 0.000286019
0.000767032 0.000286019 -0.00312029
0.0159985 -0.00115116 4.50855e-05
-0.00115116 -0.0008277 -0.00020378
4.50855e-05 -0.00020378 -0.00143495
0.0114256 -0.00475134 -0.000100245
-0.00475134 0.00800879 -0.000297994
-0.000100245 -0.000297994 -0.00218581
0.00182895 0.00126084 -1.37514e-06
0.00126084 0.00163097 -1.24447e-05
-1.37514e-06 -1.24447e-05 0.000698301
-0.00238531 0.00153114 0.000199448
0.00153114 0.00420749 0.00010698
0.000199448 0.00010698 -0.00157318
0.0102053 -0.00220202 0.00070589
-0.00220202 0.00126412 3.20946e-05
0.00070589 3.20946e-05 -0.00208304
0.0138763 -0.00213765 0.000372831
-0.00213765 0.00314131 -3.42605e-05
0.000372831 -3.42605e-05 -0.000330005
-0.00310805 0.0011385 7.38149e-05
0.0011385 0.00105923 -7.95172e-06
7.38149e-05 -7.95172e-06 -0.000712773
0.00608418 0.00529694 0.000591768
0.00529694 0.00717645 0.000345083
0.000591768 0.000345083 -0.00147209
0.0155181 -0.00134047 -9.6145e-05
-0.00134047 0.00437025 0.000445293
-9.6145e-05 0.000445293 -0.000704726
0.00095659 0.000502734 1.10219e-05
0.000502734 0.000906178 7.20287e-06
1.10219e-05 7.20287e-06 0.000374888
0.000376516 0.000514068 -8.66818e-06
0.000514068 0.000660379 -2.04863e-06
-8.66818e-06 -2.04863e-06 -1.31327e-05
-0.000503928 0.000228841 2.36433e-05
0.000228841 0.000473655 -5.36023e-06
2.36433e-05 -5.36023e-06 -0.000434927
-0.000720186 -5.94403e-06 7.94373e-06
-5.94403e-06 -0.000547419 6.47974e-06
7.94373e-06 6.47974e-06 -0.000778981
0.00068891 0.000113781 5.68678e-06
0.000113781 0.000580261 -4.1843e-06
5.68678e-06 -4.1843e-06 0.00024106
-0.000194408 4.69601e-05 -9.20624e-07
4.69601e-05 0.000504425 -6.9931e-07
-9.20624e-07 -6.9931e-07 -0.00017943
-0.000126507 -8.39099e-05 -1.38289e-06
-8.39099e-05 9.98578e-05 -1.39155e-07
-1.38289e-06 -1.39155e-07 -0.000287693
0.000134027 -7.04824e-05 -2.01745e-06
-7.04824e-05 0.00061547 -1.24435e-06
-2.01745e-06 -1.24435e-06 2.41728e-05
-0.000335077 2.63807e-05 3.44939e-06
2.63807e-05 0.000533572 7.52552e-07
3.44939e-06 7.52552e-07 -0.00016145
0.000374429 -0.00021823 -1.131e-05
-0.00021823 0.000898462 1.86014e-05
-1.131e-05 1.86014e-05 0.000292207
0.000925746 -0.000115741 8.51561e-07
-0.000115741 0.00101637 -6.98476e-06
8.51561e-07 -6.98476e-06 0.000547567
-0.000716266 5.11734e-06 2.16254e-05
5.11734e-06 -0.000315591 -9.47639e-06
2.16254e-05 -9.47639e-06 -0.000604225
-0.000526137 -0.000225542 -1.10889e-05
-0.000225542 -0.000582681 1.01048e-05
-1.10889e-05 1.01048e-05 -0.000697772
-0.00275169 -0.000100437 6.70176e-06
-0.000100437 -0.00160731 -1.07552e-05
6.70176e-06 -1.07552e-05 -0.00177096
0.000568265 -9.63743e-05 1.46942e-06
-9.63743e-05 0.00074562 3.19199e-06
1.46942e-06 3.19199e-06 0.000339466
-0.000886424 -6.60892e-05 -2.1698e-05
-6.60892e-05 -0.000364922 2.04694e-06
-2.1698e-05 2.04694e-06 -0.000918929
0.00338594 -0.000960535 -1.4314e-06
-0.000960535 0.00210337 1.23805e-05
-1.4314e-06 1.23805e-05 0.00148071
0.00179537 -0.000619171 1.22458e-05
-0.000619171 0.00105774 -7.78156e-07
1.22458e-05 -7.78156e-07 0.000637143
0.00113673 -0.000676521 9.54517e-06
-0.000676521 0.000350366 2.5314e-05
9.54517e-06 2.5314e-05 -9.98211e-05
0.0011367 -0.000282131 -1.01349e-05
-0.000282131 0.00055068 2.33137e-06
-1.01349e-05 2.33137e-06 0.00026828
0.00102028 -0.000549895 -6.37954e-06
-0.000549895 0.000377775 3.33447e-06
-6.37954e-06 3.33447e-06 -3.72506e-05
0.00285431 -0.00122159 -1.71954e-05
-0.00122159 0.0013532 1.42692e-05
-1.71954e-05 1.42692e-05 0.00057249
0.0023038 -0.00133145 2.39053e-06
-0.00133145 0.000911717 -5.57159e-06
2.39053e-06 -5.57159e-06 6.0434e-05
0.00174862 -0.000669654 1.34558e-05
-0.000669654 0.000683868 -3.34818e-06
1.34558e-05 -3.34818e-06 0.000225839
0.0017397 -0.00102542 1.6075e-06
-0.00102542 0.000739312 -4.74262e-07
1.6075e-06 -4.74262e-07 4.05059e-05
0.00242991 -0.000413174 7.96306e-06
-0.000413174 0.00139471 -1.50051e-05
7.96306e-06 -1.50051e-05 0.000961405
0.00144695 -0.000390698 -4.96581e-06
-0.000390698 0.000589176 3.26504e-06
-4.96581e-06 3.26504e-06 0.000247815
0.000760138 -0.000499649 6.31016e-06
-0.000499649 0.000165566 -1.90744e-05
6.31016e-06 -1.90744e-05 -0.000204198
0.00367427 -0.000402263 -7.89213e-06
-0.000402263 0.0022529 9.80415e-06
-7.89213e-06 9.80415e-06 0.00188693
-0.000370006 -0.000507954 2.9252e-06
-0.000507954 -0.000271116 -4.69692e-06
2.9252e-06 -4.69692e-06 -0.000728428
0.000896511 -0.000143558 1.81939e-05
-0.000143558 0.000458546 6.82457e-06
1.81939e-05 6.82457e-06 5.49101e-05
0.0024181 -0.00101933 -2.12412e-05
-0.00101933 0.00141113 2.2806e-05
-2.12412e-05 2.2806e-05 0.00108074
0.00139195 -0.000338016 1.22317e-07
-0.000338016 0.000781257 -7.83699e-07
1.22317e-07 -7.83699e-07 0.000455547
-0.000168298 -0.000156475 9.86016e-06
-0.000156475 -0.000322039 1.83804e-05
9.86016e-06 1.83804e-05 -0.000539607
0.00218643 -0.000247089 -1.05564e-05
-0.000247089 0.00139289 -7.05774e-06
-1.05564e-05 -7.05774e-06 0.00109898
0.00027333 -9.7234e-05 -2.7268e-06
-9.7234e-05 -2.97133e-05 -7.55964e-07
-2.7268e-06 -7.55964e-07 -0.000187603
0.00166006 -5.97951e-05 -3.00706e-05
-5.97951e-05 0.000832895 8.65012e-06
-3.00706e-05 8.65012e-06 0.000788967
0.000577206 -0.000118023 -2.10557e-06
-0.000118023 0.000160628 -5.27067e-07
-2.10557e-06 -5.27067e-07 3.29144e-05
0.000891677 -4.508e-05 -1.68523e-05
-4.508e-05 0.000326231 1.10324e-06
-1.68523e-05 1.10324e-06 0.000282499
0.000774817 2.44373e-05 4.39561e-06
2.44373e-05 0.00022392 3.43477e-06
4.39561e-06 3.43477e-06 0.000214776
0.000410241 -5.78475e-05 3.45936e-06
-5.78475e-05 1.22653e-05 -6.76734e-06
3.45936e-06 -6.76734e-06 -2.93072e-05
0.00185545 2.10481e-05 2.43781e-05
2.10481e-05 0.0009527 -1.66934e-06
2.43781e-05 -1.66934e-06 0.000958115
0.00262533 4.28134e-06 3.45281e-05
4.28134e-06 0.00146865 -6.20627e-06
3.45281e-05 -6.20627e-06 0.00148125
0.000186896 3.65718e-05 3.18242e-06
3.65718e-05 -3.80804e-05 9.72673e-07
3.18242e-06 9.72673e-07 -0.000291995
-0.000126146 3.86553e-05 1.39989e-06
3.86553e-05 -0.00031458 -8.20043e-06
1.39989e-06 -8.20043e-06 -0.0004359
0.000627989 7.91048e-05 3.81339e-07
7.91048e-05 0.000248898 1.45845e-06
3.81339e-07 1.45845e-06 4.05848e-05
0.000357535 1.77636e-05 4.57771e-06
1.77636e-05 -3.41582e-05 -7.18043e-06
4.57771e-06 -7.18043e-06 -6.83932e-05
0.000212395 9.193e-06 1.52278e-06
9.193e-06 -9.05022e-05 2.67708e-07
1.52278e-06 2.67708e-07 -0.000192706
0.000309338 -0.000138927 -7.64517e-07
-0.000138927 3.95755e-05 4.49659e-06
-7.64517e-07 4.49659e-06 -0.000145652
0.00254447 2.91998e-06 -2.04701e-05
2.91998e-06 0.00141813 -6.99575e-06
-2.04701e-05 -6.99575e-06 0.00142911
0.000351022 1.30578e-05 1.89235e-06
1.30578e-05 -3.95378e-05 -1.43776e-07
1.89235e-06 -1.43776e-07 -6.78367e-05
0.000346428 -1.80792e-05 -6.98531e-06
-1.80792e-05 -6.90107e-07 5.71719e-06
-6.98531e-06 5.71719e-06 -8.98907e-05
0.00242227 1.79703e-05 -6.78641e-06
1.79703e-05 0.00133687 -4.45737e-08
-6.78641e-06 -4.45737e-08 0.00134814
0.000343835 -9.77376e-06 -4.83069e-06
-9.77376e-06 -4.47418e-05 5.61262e-06
-4.83069e-06 5.61262e-06 -6.99781e-05
0.00248663 4.06541e-05 1.54557e-05
4.06541e-05 0.00138261 7.63636e-06
1.54557e-05 7.63636e-06 0.00139147
-0.00259823 -0.0030343 -0.000332702
-0.0030343 4.00771e-05 0.000148385
-0.000332702 0.000148385 -0.00568096
0.00880439 0.0062785 -0.000569658
0.0062785 0.0172798 5.97322e-05
-0.000569658 5.97322e-05 0.00525768
0.0121729 0.00410513 -0.00262105
0.00410513 0.00914408 0.000226098
-0.00262105 0.000226098 0.00355299
0.000269855 0.000108742 8.91623e-06
0.000108742 6.12037e-05 1.92956e-06
8.91623e-06 1.92956e-06 -0.000230724
0.0101434 -0.00274931 -0.000317294
-0.00274931 0.00739012 0.000403973
-0.000317294 0.000403973 0.00270404
0.0066931 -0.00244326 -0.000223863
-0.00244326 0.0035582 3.2304e-05
-0.000223863 3.2304e-05 -0.00253457
0.0313987 0.0180633 -5.99667e-05
0.0180633 0.0221133 -0.000840712
-5.99667e-05 -0.000840712 0.00272436
0.00611215 -0.00314644 0.00022392
-0.00314644 -0.00377034 -6.56865e-05
0.00022392 -6.56865e-05 -0.000297367
0.0110111 -0.0066778 0.000447968
-0.0066778 -0.00619316 -0.000366821
0.000447968 -0.000366821 -0.00172139
0.0248974 0.009134 -0.00126268
0.009134 0.0140842 0.00010033
-0.00126268 0.00010033 0.000444558
0.0229516 0.00626686 0.000895842
0.00626686 0.0166613 0.000502043
0.000895842 0.000502043 0.00890755
0.00731792 -0.00574499 -9.52423e-05
-0.00574499 -0.00257687 6.1671e-06
-9.52423e-05 6.1671e-06 0.000547099
0.0103682 -0.0116898 7.20165e-05
-0.0116898 -0.00104976 -0.000117089
7.20165e-05 -0.000117089 -0.00134673
0.0181608 0.00207554 3.26358e-05
0.00207554 0.0139622 -0.000659427
3.26358e-05 -0.000659427 0.00208431
0.0196935 0.00141394 -5.21857e-05
0.00141394 0.00587014 0.000108284
-5.21857e-05 0.000108284 0.000233214
0.00508828 -0.00784344 1.21389e-05
-0.00784344 0.000256917 4.47134e-05
1.21389e-05 4.47134e-05 0.0011815
0.00655228 -0.0100517 0.00051375
-0.0100517 0.00456961 -0.000293704
0.00051375 -0.000293704 -0.000354055
0.0094627 0.00120334 -0.000250158
0.00120334 0.00875153 -0.000466303
-0.000250158 -0.000466303 0.00146267
0.0198142 -0.00121013 -0.000361644
-0.00121013 0.00243374 0.000349178
-0.000361644 0.000349178 0.000706474
-0.000128279 0.000338349 2.735e-05
0.000338349 -0.000137063 2.67005e-05
2.735e-05 2.67005e-05 -0.000377951
0.000458744 -0.00011385 -2.20076e-06
-0.00011385 0.000258386 -3.95387e-06
-2.20076e-06 -3.95387e-06 -2.79073e-05
-0.000710351 -7.05708e-05 2.59923e-06
-7.05708e-05 -0.00062981 -1.18376e-07
2.59923e-06 -1.18376e-07 -0.000771179
0.000903709 0.000240342 1.97017e-05
0.000240342 0.000428942 2.08148e-05
1.97017e-05 2.08148e-05 0.00017922
0.00105724 0.000292914 -5.65603e-06
0.000292914 0.000618268 -5.38739e-06
-5.65603e-06 -5.38739e-06 0.000310682
0.000638871 0.00014045 3.09003e-06
0.00014045 0.000331664 -3.88701e-06
3.09003e-06 -3.88701e-06 8.13246e-05
0.00146818 0.000273827 -1.94165e-06
0.000273827 0.000897478 2.94716e-07
-1.94165e-06 2.94716e-07 0.000569145
0.00119254 0.00024099 -4.3483e-07
0.00024099 0.000706467 4.36398e-06
-4.3483e-07 4.36398e-06 0.000405287
0.00396661 -0.00244958 0.000198893
-0.00244958 -0.000401168 -0.000127243
0.000198893 -0.000127243 0.000492448
-0.00181785 -0.00114875 -1.40812e-05
-0.00114875 -0.00176364 -1.11464e-05
-1.40812e-05 -1.11464e-05 -0.0020997
-0.00115111 9.12337e-05 -1.58593e-05
9.12337e-05 -0.00079125 -8.40583e-06
-1.58593e-05 -8.40583e-06 -0.00102101
-6.42876e-05 -0.000708803 2.05381e-05
-0.000708803 0.000149578 -7.40643e-06
2.05381e-05 -7.40643e-06 -0.000310071
0.00160842 -0.000483142 -4.65162e-05
-0.000483142 0.00119751 1.25452e-06
-4.65162e-05 1.25452e-06 0.000724525
0.000430472 -5.73876e-05 1.55998e-07
-5.73876e-05 0.000495407 -2.66494e-05
1.55998e-07 -2.66494e-05 1.26253e-05
-0.000831764 0.00020129 2.70375e-06
0.00020129 -0.00041081 1.64133e-05
2.70375e-06 1.64133e-05 -0.000722542
0.00191478 -0.00337624 -3.28584e-05
-0.00337624 -5.95642e-05 -4.90477e-06
-3.28584e-05 -4.90477e-06 -0.000746842
0.00101039 -0.000245034 -4.07948e-06
-0.000245034 0.000975272 1.04583e-05
-4.07948e-06 1.04583e-05 0.000474981
-0.000617332 -0.000189071 3.97504e-08
-0.000189071 0.000230188 7.95813e-06
3.97504e-08 7.95813e-06 -0.000431335
-0.00094659 -0.0009763 1.25435e-05
-0.0009763 -0.000348539 1.75587e-06
1.25435e-05 1.75587e-06 -0.000807748
-0.00127983 -8.3249e-05 2.57792e-05
-8.3249e-05 -0.000588801 3.16207e-06
2.57792e-05 3.16207e-06 -0.00094347
0.00304712 -0.00342229 -0.000106763
-0.00342229 0.00262657 -1.03766e-05
-0.000106763 -1.03766e-05 0.000864963
-0.000879583 -0.000867847 1.94784e-05
-0.000867847 0.000107826 -2.7483e-05
1.94784e-05 -2.7483e-05 -0.000619089
0.000359715 -2.24463e-05 1.01925e-05
-2.24463e-05 0.000943227 -2.90513e-05
1.01925e-05 -2.90513e-05 0.000143149
-0.000968059 -0.000186697 3.49671e-05
-0.000186697 3.52082e-05 1.91686e-05
3.49671e-05 1.91686e-05 -0.000739183
0.00227608 -0.000636484 0.00050309
-0.000636484 0.00806579 0.000108809
0.00050309 0.000108809 0.00185415
-0.000370942 1.91311e-05 0.000178974
1.91311e-05 0.00100568 7.06263e-06
0.000178974 7.06263e-06 -0.00402484
-0.0114234 -0.000888623 -0.00163381
-0.000888623 0.00531578 1.64711e-05
-0.00163381 1.64711e-05 0.000729023
0.00222931 0.00138241 3.00629e-05
0.00138241 0.00140872 4.4321e-06
3.00629e-05 4.4321e-06 0.000642165
-0.000463407 0.00189523 3.44542e-05
0.00189523 0.000260174 2.06177e-05
3.44542e-05 2.06177e-05 -0.000924363
0.00506468 0.00362054 0.000984924
0.00362054 0.00574002 0.000229619
0.000984924 0.000229619 -0.00110006
0.00144086 0.00681708 0.000224819
0.00681708 0.00348079 0.000304979
0.000224819 0.000304979 -0.000569143
0.000361921 0.00553877 -0.000349389
0.00553877 0.001898 -0.000289313
-0.000349389 -0.000289313 -0.0011334
0.0113903 -0.00132402 -0.000163629
-0.00132402 0.00872189 -0.000556183
-0.000163629 -0.000556183 0.0012464
0.00598374 0.000174847 -5.11021e-05
0.000174847 0.00408778 6.69942e-05
-5.11021e-05 6.69942e-05 -3.92895e-05
0.0120909 -0.000208559 -4.57457e-05
-0.000208559 -0.00289273 -0.000334317
-4.57457e-05 -0.000334317 -0.00386014
0.000910312 0.00133867 6.78581e-06
0.00133867 0.00104985 -6.14804e-07
6.78581e-06 -6.14804e-07 2.21441e-05
-0.000935087 0.0010841 3.0722e-05
0.0010841 0.00449513 -1.17738e-05
3.0722e-05 -1.17738e-05 -0.00136247
0.00930089 -0.000745494 0.000387125
-0.000745494 0.00121159 6.82659e-06
0.000387125 6.82659e-06 -0.00269545
-0.00232475 0.00157648 -3.92902e-05
0.00157648 0.000602226 -2.18299e-05
-3.92902e-05 -2.18299e-05 -0.00108523
0.0210062 0.00186777 4.31984e-05
0.00186777 0.00580027 -0.000130441
4.31984e-05 -0.000130441 3.87977e-05
0.00367526 0.00381884 0.000494331
0.00381884 0.0072734 0.000336817
0.000494331 0.000336817 -0.00103236
0.0166123 0.000807328 -0.000276796
0.000807328 0.00622193 -3.94438e-05
-0.000276796 -3.94438e-05 -0.000352001
-0.000112865 0.00105246 9.87159e-06
0.00105246 0.00087364 -1.19057e-05
9.87159e-06 -1.19057e-05 -0.000356974
0.00666598 -2.23873e-05 0.000288665
-2.23873e-05 0.0045738 0.000105967
0.000288665 0.000105967 0.000129904
0.00386182 -0.00515206 0.000493486
-0.00515206 0.00561542 -0.000252472
0.000493486 -0.000252472 0.0017898
0.0406594 0.00899927 0.000777811
0.00899927 0.0201136 -0.000493129
0.000777811 -0.000493129 0.00804659
0.0125864 -2.91788e-05 3.58415e-05
-2.91788e-05 0.0102978 0.000655097
3.58415e-05 0.000655097 0.0028368
-0.00221455 0.00130768 -0.000200162
0.00130768 0.00173245 -0.000145427
-0.000200162 -0.000145427 -0.000217651
0.00179084 -0.000505484 0.000173899
-0.000505484 0.00634255 -9.48452e-05
0.000173899 -9.48452e-05 -0.00455216
0.000607619 0.000624804 -1.8055e-06
0.000624804 0.000747916 7.78265e-06
-1.8055e-06 7.78265e-06 4.05016e-05
0.000483496 0.000350331 -4.02755e-07
0.000350331 0.00107762 4.95284e-06
-4.02755e-07 4.95284e-06 0.00023302
0.000811331 -0.000130246 -2.94091e-05
-0.000130246 0.00170781 2.03089e-05
-2.94091e-05 2.03089e-05 0.000897261
-0.00113606 7.98583e-05 1.90041e-05
7.98583e-05 -0.000582355 -5.17904e-06
1.90041e-05 -5.17904e-06 -0.000944462
-0.000746674 1.12467e-05 9.56409e-06
1.12467e-05 0.000126093 6.66436e-06
9.56409e-06 6.66436e-06 -0.000498863
1.88601e-05 5.52964e-05 -1.30399e-05
5.52964e-05 0.000750893 -3.56399e-06
-1.30399e-05 -3.56399e-06 5.39665e-05
0.000182926 -3.14881e-05 -8.02348e-06
-3.14881e-05 0.000533218 1.96809e-06
-8.02348e-06 1.96809e-06 8.50652e-05
1.08512e-06 -0.000171459 2.31566e-06
-0.000171459 0.000719673 2.41779e-06
2.31566e-06 2.41779e-06 9.07403e-05
0.00357923 -0.000816668 1.78713e-05
-0.000816668 0.0024794 -7.87832e-06
1.78713e-05 -7.87832e-06 0.00196016
0.000231566 -6.56602e-05 -1.8724e-06
-6.56602e-05 0.000495316 -8.39811e-06
-1.8724e-06 -8.39811e-06 9.75946e-05
-0.00565336 0.000136774 3.56122e-06
0.000136774 -0.00309593 1.05265e-06
3.56122e-06 1.05265e-06 -0.00377687
0.00106227 -0.00068499 7.63904e-07
-0.00068499 0.000843733 8.2396e-06
7.63904e-07 8.2396e-06 0.000106297
-0.00145146 -0.000332607 2.42389e-05
-0.000332607 -0.000918139 2.51717e-05
2.42389e-05 2.51717e-05 -0.00142269
-0.000430537 -0.000334434 -9.49985e-06
-0.000334434 -0.000254023 -2.62813e-05
-9.49985e-06 -2.62813e-05 -0.00055258
0.000230256 -0.000644605 -1.20705e-05
-0.000644605 -0.000179822 -4.6145e-06
-1.20705e-05 -4.6145e-06 -0.000613667
0.00226932 -0.00126008 -2.1674e-05
-0.00126008 0.000968647 8.31128e-06
-2.1674e-05 8.31128e-06 3.96936e-05
0.00256512 -0.00151753 -1.76315e-05
-0.00151753 0.000977168 3.68004e-06
-1.76315e-05 3.68004e-06 4.24736e-05
0.00231526 -0.000681819 -4.06345e-06
-0.000681819 0.00115552 -1.11634e-05
-4.06345e-06 -1.11634e-05 0.000730871
0.00235566 -0.00116723 -9.35409e-07
-0.00116723 0.00103093 1.78302e-06
-9.35409e-07 1.78302e-06 0.000254567
0.00235366 -0.00140735 1.19907e-05
-0.00140735 0.000861144 -9.28467e-06
1.19907e-05 -9.28467e-06 -2.30588e-06
0.00224768 -0.00104399 8.18128e-06
-0.00104399 0.00100421 -4.72966e-06
8.18128e-06 -4.72966e-06 0.000296359
0.00173851 -0.00125258 4.61113e-06
-0.00125258 0.000568237 -2.41543e-06
4.61113e-06 -2.41543e-06 -0.000260944
0.00316664 -0.000458817 -1.2823e-06
-0.000458817 0.001657 -9.38321e-06
-1.2823e-06 -9.38321e-06 0.00131072
0.000377603 -0.000556292 4.09019e-07
-0.000556292 -0.000160872 -1.49527e-07
4.09019e-07 -1.49527e-07 -0.000626733
0.001014 -0.000887551 -1.27525e-06
-0.000887551 0.000298738 -6.94328e-06
-1.27525e-06 -6.94328e-06 -0.000349802
4.86348e-05 -0.000242159 9.58899e-06
-0.000242159 -4.82976e-05 7.79439e-07
9.58899e-06 7.79439e-07 -0.000530403
0.000640908 -0.000385262 -5.3619e-07
-0.000385262 0.000329841 -1.42641e-06
-5.3619e-07 -1.42641e-06 -0.000144565
-0.000480165 -0.000244304 -8.32127e-06
-0.000244304 -0.000549584 -5.09764e-07
-8.32127e-06 -5.09764e-07 -0.000902998
0.00100697 -0.000654738 -1.86209e-05
-0.000654738 0.000545143 2.7467e-05
-1.86209e-05 2.7467e-05 9.23761e-05
0.00120411 -0.00041661 1.62377e-06
-0.00041661 0.000625115 1.03335e-06
1.62377e-06 1.03335e-06 0.000221903
-0.000512358 -0.000143448 8.84882e-06
-0.000143448 -0.000518338 1.55575e-05
8.84882e-06 1.55575e-05 -0.00083634
0.00054107 -0.000587411 -1.56323e-05
-0.000587411 0.000256019 -8.7891e-06
-1.56323e-05 -8.7891e-06 -0.000108268
0.000384619 -0.000117117 -1.71027e-06
-0.000117117 4.54627e-05 -2.94409e-07
-1.71027e-06 -2.94409e-07 -0.000181936
0.000358167 1.36519e-05 2.5937e-06
1.36519e-05 -3.52858e-05 1.46727e-05
2.5937e-06 1.46727e-05 -0.000102641
0.00194361 -0.000249781 -7.67943e-06
-0.000249781 0.0010651 -6.70427e-06
-7.67943e-06 -6.70427e-06 0.000889537
0.000460699 -6.50235e-05 -2.71278e-06
-6.50235e-05 2.43152e-05 4.20886e-07
-2.71278e-06 4.20886e-07 -2.77671e-05
0.00296096 0.000100787 8.27721e-06
0.000100787 0.00169578 4.52134e-06
8.27721e-06 4.52134e-06 0.0016923
0.000460986 -7.29562e-05 2.46822e-06
-7.29562e-05 3.64124e-05 -7.18881e-06
2.46822e-06 -7.18881e-06 -1.33373e-05
0.00193859 3.20528e-05 3.21069e-05
3.20528e-05 0.00100829 -1.9634e-06
3.21069e-05 -1.9634e-06 0.00100898
0.00300352 1.74073e-05 4.79587e-05
1.74073e-05 0.00172008 -7.4541e-06
4.79587e-05 -7.4541e-06 0.00173083
-0.000337409 0.000111871 2.70067e-06
0.000111871 -0.000389645 7.79791e-06
2.70067e-06 7.79791e-06 -0.00064993
-0.000207537 5.92132e-05 3.16006e-06
5.92132e-05 -0.000358686 -8.86067e-06
3.16006e-06 -8.86067e-06 -0.000518597
0.000181881 0.000149574 -1.00788e-06
0.000149574 -2.39162e-05 1.0924e-06
-1.00788e-06 1.0924e-06 -0.000283234
0.000386427 2.83009e-05 3.45706e-06
2.83009e-05 -1.63473e-05 -8.27511e-06
3.45706e-06 -8.27511e-06 -5.6546e-05
-0.000107861 4.34039e-05 -1.01929e-06
4.34039e-05 -0.000301225 -2.90046e-06
-1.01929e-06 -2.90046e-06 -0.000425409
0.00101986 0.000125597 -1.43985e-06
0.000125597 0.000550619 5.31233e-06
-1.43985e-06 5.31233e-06 0.000311907
0.00276639 -1.22796e-05 -2.92619e-05
-1.22796e-05 0.0015671 -7.40336e-06
-2.92619e-05 -7.40336e-06 0.00157646
0.000365212 1.96341e-05 -2.46687e-07
1.96341e-05 -3.01675e-05 -2.58979e-07
-2.46687e-07 -2.58979e-07 -6.37006e-05
-0.000203459 2.68444e-05 -9.75043e-07
2.68444e-05 -0.000370104 6.26194e-06
-9.75043e-07 6.26194e-06 -0.000472378
0.00251373 1.98308e-06 -5.66295e-06
1.98308e-06 0.00139753 9.54737e-08
-5.66295e-06 9.54737e-08 0.00140854
0.000363678 2.58005e-05 -1.7627e-06
2.58005e-05 -3.06845e-05 6.17084e-06
-1.7627e-06 6.17084e-06 -5.89694e-05
0.00243133 1.8641e-05 1.28914e-05
1.8641e-05 0.00134355 6.61234e-06
1.28914e-05 6.61234e-06 0.00135453
0.000886308 -0.000602774 0.000436085
-0.000602774 0.0076678 0.00025612
0.000436085 0.00025612 0.00386259
-0.00305497 -0.000985508 -5.73732e-05
-0.000985508 0.000128734 1.33791e-05
-5.73732e-05 1.33791e-05 -0.00565163
0.00480446 0.0062556 -0.00122896
0.0062556 0.0157054 -0.000363635
-0.00122896 -0.000363635 0.0038797
0.000988655 0.000255503 -4.18244e-07
0.000255503 0.000554932 4.79419e-07
-4.18244e-07 4.79419e-07 0.000249141
-0.00130314 0.000135788 1.07846e-05
0.000135788 -0.000887859 2.79355e-06
1.07846e-05 2.79355e-06 -0.00123729
0.00304255 0.000444611 3.6772e-05
0.000444611 0.00192171 -4.37132e-08
3.6772e-05 -4.37132e-08 0.00162308
0.0114331 -0.00154386 -0.000670546
-0.00154386 0.000983501 3.36171e-05
-0.000670546 3.36171e-05 -0.00346925
0.0114021 -0.00488086 0.000264221
-0.00488086 0.00635349 6.34036e-05
0.000264221 6.34036e-05 0.00288911
0.0049001 -0.00606752 0.000437807
-0.00606752 0.00233357 -0.000350554
0.000437807 -0.000350554 -0.0026931
0.00833012 -0.00625261 8.56474e-05
-0.00625261 -0.00264726 -0.000151308
8.56474e-05 -0.000151308 0.000795152
0.00310244 -0.0115874 -0.00145552
-0.0115874 -0.00601859 0.000212729
-0.00145552 0.000212729 -0.00389362
0.0343292 0.00985447 0.00123588
0.00985447 0.0215817 0.000409859
0.00123588 0.000409859 0.00611662
0.0110446 -0.00229651 0.000533056
-0.00229651 0.000378579 -0.000337396
0.000533056 -0.000337396 -0.00439508
0.00446148 -0.00723726 5.30361e-06
-0.00723726 -0.00019856 1.08194e-05
5.30361e-06 1.08194e-05 0.00113435
0.00360341 -0.0111432 -0.000411247
-0.0111432 0.00367118 2.21174e-05
-0.000411247 2.21174e-05 -0.0028308
0.0123755 0.00534377 -0.00027568
0.00534377 0.00950922 -0.000465886
-0.00027568 -0.000465886 0.000690661
0.0161098 -0.000726743 -0.000250852
-0.000726743 0.000437192 0.000196796
-0.000250852 0.000196796 -0.00100674
0.00137603 -0.00617416 -0.000268071
-0.00617416 0.00256569 0.000165666
-0.000268071 0.000165666 0.000490857
0.00899723 -0.00522597 -0.000384936
-0.00522597 0.00829597 0.0003972
-0.000384936 0.0003972 0.00118261
0.0150215 -0.000475999 8.19853e-05
-0.000475999 0.0054596 -0.000392403
8.19853e-05 -0.000392403 -0.000478544
0.0106348 0.00141927 -0.000201207
0.00141927 1.36043e-05 0.000300847
-0.000201207 0.000300847 -0.00421096
-0.000340625 0.000152679 1.9345e-05
0.000152679 -0.000235271 3.8659e-05
1.9345e-05 3.8659e-05 -0.00043843
0.000700162 7.4499e-05 -8.49189e-06
7.4499e-05 0.000422358 2.51782e-06
-8.49189e-06 2.51782e-06 0.000175269
0.00118282 -0.000384858 1.11511e-05
-0.000384858 0.000749412 -1.46236e-05
1.11511e-05 -1.46236e-05 0.000448649
0.000574047 0.000207856 2.03036e-06
0.000207856 0.000197971 5.44831e-06
2.03036e-06 5.44831e-06 -3.33813e-05
0.000785735 0.000312227 -3.66495e-06
0.000312227 0.000443015 -1.41129e-05
-3.66495e-06 -1.41129e-05 0.000137457
0.00125822 0.000370619 -8.58113e-06
0.000370619 0.00078554 -5.21923e-06
-8.58113e-06 -5.21923e-06 0.000441881
0.0020816 -0.00297121 8.59373e-05
-0.00297121 0.000204477 -4.11034e-05
8.59373e-05 -4.11034e-05 -0.000245065
0.000138224 -0.00100526 5.4291e-06
-0.00100526 4.21615e-05 -2.50323e-05
5.4291e-06 -2.50323e-05 -0.000302979
-0.000522081 0.000197104 -1.77726e-05
0.000197104 -0.000268729 -3.12296e-05
-1.77726e-05 -3.12296e-05 -0.000583371
0.000567693 -0.000332192 4.21087e-05
-0.000332192 0.000732387 -8.6705e-06
4.21087e-05 -8.6705e-06 0.000146174
0.00282041 -0.000224228 -7.07588e-06
-0.000224228 0.00206969 -3.51341e-05
-7.07588e-06 -3.51341e-05 0.00156578
-0.000581049 7.98411e-06 7.51346e-06
7.98411e-06 -0.000145958 6.46019e-06
7.51346e-06 6.46019e-06 -0.000501134
-0.000331556 1.65593e-05 6.4293e-06
1.65593e-05 0.000477252 1.81669e-05
6.4293e-06 1.81669e-05 -0.00025025
0.00106296 -0.00292921 1.68552e-05
-0.00292921 0.00171283 -2.07486e-05
1.68552e-05 -2.07486e-05 0.000169021
-5.26921e-05 -4.60608e-05 -7.12874e-06
-4.60608e-05 0.00076616 9.77468e-07
-7.12874e-06 9.77468e-07 -9.76387e-05
0.000274425 -0.00085513 -5.45421e-06
-0.00085513 0.00109143 6.89948e-06
-5.45421e-06 6.89948e-06 0.000121689
-4.26031e-05 0.000205272 6.41195e-05
0.000205272 0.00053801 -2.81202e-05
6.41195e-05 -2.81202e-05 -0.000149101
-0.00291535 -0.000641768 -0.000264765
-0.000641768 0.000787586 1.18532e-05
-0.000264765 1.18532e-05 -0.000646001
-0.000926913 -0.000292689 -6.51257e-05
-0.000292689 0.00130362 -3.34988e-05
-6.51257e-05 -3.34988e-05 0.000143534
-0.00157145 -4.17699e-05 5.83509e-05
-4.17699e-05 -2.59683e-05 9.18618e-07
5.83509e-05 9.18618e-07 -0.000828502
0.00229661 0.000911805 2.74649e-05
0.000911805 0.000300357 -3.86564e-05
2.74649e-05 -3.86564e-05 -0.00771981
-0.000353455 0.00196958 0.000356055
0.00196958 0.00747264 5.55654e-05
0.000356055 5.55654e-05 0.00210053
-0.00267141 0.000793088 0.000536246
0.000793088 0.000590821 3.97785e-05
0.000536246 3.97785e-05 -0.00373313
-5.58213e-05 0.00140274 1.83273e-05
0.00140274 0.000445295 2.81444e-05
1.83273e-05 2.81444e-05 -0.000680567
0.00182524 0.00239584 1.12972e-05
0.00239584 0.00218845 -5.4586e-05
1.12972e-05 -5.4586e-05 0.000441537
-0.000477785 0.00125342 -0.000522391
0.00125342 0.00504708 -0.000140763
-0.000522391 -0.000140763 -0.000859879
-0.00149417 0.00234162 0.000378032
0.00234162 0.00648483 0.000369917
0.000378032 0.000369917 -0.000826068
0.0120504 -0.000121041 -0.000202241
-0.000121041 0.00120272 -0.000532792
-0.000202241 -0.000532792 -0.00592544
0.00994906 2.53901e-05 6.6402e-05
2.53901e-05 0.000421992 -6.16088e-05
6.6402e-05 -6.16088e-05 -0.00278336
0.00980319 -0.0023006 -0.000563617
-0.0023006 -0.000488882 0.000325871
-0.000563617 0.000325871 -0.00462025
0.000508648 0.000971024 -2.3042e-05
0.000971024 0.00124554 -5.18087e-06
-2.3042e-05 -5.18087e-06 0.000151993
0.00338846 0.00116292 0.000146451
0.00116292 0.00454727 8.03075e-05
0.000146451 8.03075e-05 0.000264115
0.0108539 -0.00357468 -0.000273086
-0.00357468 0.00576547 -5.67984e-05
-0.000273086 -5.67984e-05 0.00272287
-0.000632764 0.00157462 -0.000215173
0.00157462 0.00352913 -3.28758e-05
-0.000215173 -3.28758e-05 0.000130525
0.0305086 0.00846916 -0.000740059
0.00846916 0.0167168 -0.00065475
-0.000740059 -0.00065475 0.00545573
0.0166378 0.0043006 0.000198937
0.0043006 0.0110988 0.000543588
0.000198937 0.000543588 0.000684538
0.00827155 0.00389375 0.000143988
0.00389375 0.00903759 -6.70663e-06
0.000143988 -6.70663e-06 0.000788652
-9.33323e-06 4.36372e-05 8.38343e-05
4.36372e-05 0.0022271 -1.69491e-05
8.38343e-05 -1.69491e-05 9.8465e-05
0.003842 0.000656375 -0.000529611
0.000656375 0.01017 -7.44804e-06
-0.000529611 -7.44804e-06 0.00593352
0.00311042 -0.00210705 0.000716815
-0.00210705 0.00198369 -0.000276045
0.000716815 -0.000276045 -0.00474079
0.0536162 0.0226139 0.000103593
0.0226139 0.0371038 -0.000321627
0.000103593 -0.000321627 0.0145646
0.0218192 0.0071021 0.00130668
0.0071021 0.0130755 0.00164288
0.00130668 0.00164288 -9.78447e-05
0.0121737 -0.00776962 0.000810227
-0.00776962 0.0100841 -0.000573596
0.000810227 -0.000573596 0.000128462
-3.82015e-05 -0.00100401 -9.46848e-05
-0.00100401 0.00465531 6.90592e-05
-9.46848e-05 6.90592e-05 0.002215
0.00123778 0.000418 -1.43547e-05
0.000418 0.00150208 -3.30306e-06
-1.43547e-05 -3.30306e-06 0.000739375
-0.00036879 -0.000109327 -1.71563e-05
-0.000109327 0.000806904 -8.07135e-06
-1.71563e-05 -8.07135e-06 -0.000133705
0.00101865 -0.00111732 7.31631e-05
-0.00111732 0.00139711 -1.4487e-05
7.31631e-05 -1.4487e-05 0.00019317
-0.00079894 2.75883e-05 1.98449e-06
2.75883e-05 -8.95869e-05 3.66313e-06
1.98449e-06 3.66313e-06 -0.000528139
-0.000401623 -0.00011895 1.59881e-05
-0.00011895 0.000482618 -2.05003e-05
1.59881e-05 -2.05003e-05 -0.000135564
0.00130494 -0.000563718 -8.12271e-06
-0.000563718 0.0012195 1.02075e-06
-8.12271e-06 1.02075e-06 0.000802198
0.00317257 -0.00149637 5.3182e-05
-0.00149637 0.00195629 -1.36472e-05
5.3182e-05 -1.36472e-05 0.000973013
-0.00126811 -0.000398089 7.4225e-06
-0.000398089 -0.000448991 -8.07847e-06
7.4225e-06 -8.07847e-06 -0.00128914
0.00210526 -0.00110407 2.19681e-05
-0.00110407 0.000902451 -6.47926e-06
2.19681e-05 -6.47926e-06 0.000280422
-0.000746624 -0.000811095 -1.20678e-05
-0.000811095 -0.000489268 3.60072e-06
-1.20678e-05 3.60072e-06 -0.00162256
0.000996265 -0.000754003 -1.70392e-05
-0.000754003 0.000319567 -8.48353e-06
-1.70392e-05 -8.48353e-06 -9.9805e-05
0.00181842 -0.00117318 2.21484e-06
-0.00117318 0.00071077 -3.36532e-06
2.21484e-06 -3.36532e-06 -0.000188171
0.00250058 -0.00158854 -2.88092e-05
-0.00158854 0.000861566 3.51065e-06
-2.88092e-05 3.51065e-06 -0.000201007
0.00308728 -0.00170463 -1.48887e-05
-0.00170463 0.00095717 -1.01585e-06
-1.48887e-05 -1.01585e-06 2.88561e-05
0.00263829 -0.00165927 -1.73182e-06
-0.00165927 0.000926623 -1.76378e-06
-1.73182e-06 -1.76378e-06 -4.16344e-05
0.00281082 -0.00153666 -3.00702e-06
-0.00153666 0.00110306 1.81873e-06
-3.00702e-06 1.81873e-06 0.000165589
0.00176349 -0.00108943 -8.16235e-07
-0.00108943 0.000666157 -6.44434e-06
-8.16235e-07 -6.44434e-06 -9.8446e-05
0.00255167 -0.00140859 7.67265e-06
-0.00140859 0.00109437 -9.41252e-06
7.67265e-06 -9.41252e-06 0.000215375
0.00210724 -0.00139222 1.15867e-05
-0.00139222 0.000698172 -3.13507e-06
1.15867e-05 -3.13507e-06 -0.000160691
0.00208222 -0.000684783 -1.0515e-05
-0.000684783 0.000866144 -1.99926e-06
-1.0515e-05 -1.99926e-06 0.000358173
0.00247706 -0.00106304 3.83734e-06
-0.00106304 0.00112365 -4.59838e-06
3.83734e-06 -4.59838e-06 0.000419164
0.000990056 -0.00115202 9.3564e-07
-0.00115202 0.000109435 2.99179e-06
9.3564e-07 2.99179e-06 -0.000691752
0.000433369 -0.000101324 2.61637e-06
-0.000101324 6.23211e-05 -2.24854e-06
2.61637e-06 -2.24854e-06 -0.000324795
0.000106075 -0.000467846 1.8544e-06
-0.000467846 -0.000293259 -7.10822e-07
1.8544e-06 -7.10822e-07 -0.000664359
0.000787485 -0.000607112 -1.61015e-05
-0.000607112 8.00714e-05 7.33264e-06
-1.61015e-05 7.33264e-06 -0.000406025
-6.60483e-06 -0.000260143 1.04097e-05
-0.000260143 -0.000162374 7.73151e-06
1.04097e-05 7.73151e-06 -0.000577845
0.000959826 -0.000409883 -7.39037e-08
-0.000409883 0.000539571 1.29961e-06
-7.39037e-08 1.29961e-06 4.66359e-05
-0.00224333 -0.000523379 -8.22351e-06
-0.000523379 -0.00151293 1.28966e-05
-8.22351e-06 1.28966e-05 -0.00199553
0.000957966 -0.000599436 -1.09614e-05
-0.000599436 0.000455722 -6.1361e-06
-1.09614e-05 -6.1361e-06 4.19132e-05
0.00105328 -0.000217517 4.7231e-07
-0.000217517 0.000474395 1.20658e-06
4.7231e-07 1.20658e-06 0.000170761
0.000362908 -2.80749e-05 3.00744e-06
-2.80749e-05 -2.12349e-05 2.21588e-05
3.00744e-06 2.21588e-05 -0.000127016
0.00217132 -0.00022663 -4.87274e-06
-0.00022663 0.00118686 -1.76403e-05
-4.87274e-06 -1.76403e-05 0.000968819
0.000442097 -3.3222e-05 -8.87486e-06
-3.3222e-05 2.64112e-05 -9.43268e-07
-8.87486e-06 -9.43268e-07 -5.0885e-05
0.00370639 0.000106424 -5.6281e-05
0.000106424 0.00220465 8.95986e-06
-5.6281e-05 8.95986e-06 0.00220043
0.000562736 -7.05698e-05 2.71663e-06
-7.05698e-05 8.24408e-05 -1.24609e-05
2.71663e-06 -1.24609e-05 2.99563e-05
0.00214643 5.97381e-05 3.70282e-05
5.97381e-05 0.00114794 -6.27412e-07
3.70282e-05 -6.27412e-07 0.00114357
0.00304139 3.81255e-05 5.12541e-05
3.81255e-05 0.00174182 -7.41036e-06
5.12541e-05 -7.41036e-06 0.0017509
0.00161559 0.000270935 -1.28508e-06
0.000270935 0.000947346 -8.0059e-06
-1.28508e-06 -8.0059e-06 0.000619861
0.000656462 0.000141654 4.96368e-06
0.000141654 0.000234554 -6.5299e-06
4.96368e-06 -6.5299e-06 3.74028e-05
0.000564848 0.000111565 -9.27597e-07
0.000111565 0.000261498 2.71589e-06
-9.27597e-07 2.71589e-06 -4.06208e-05
0.000396772 5.15759e-05 -1.25988e-06
5.15759e-05 -3.10879e-06 -1.15584e-05
-1.25988e-06 -1.15584e-05 -5.38951e-05
0.000120596 7.49502e-05 -3.02548e-06
7.49502e-05 -0.0001359 -3.92652e-06
-3.02548e-06 -3.92652e-06 -0.000292978
0.000608437 0.000106302 -1.47717e-06
0.000106302 0.000266116 -3.02654e-06
-1.47717e-06 -3.02654e-06 7.00683e-06
0.00286322 -2.97454e-05 -3.37394e-05
-2.97454e-05 0.00163253 -7.81446e-06
-3.37394e-05 -7.81446e-06 0.00164036
0.000330814 6.29148e-06 6.01836e-07
6.29148e-06 -5.14174e-05 -3.75672e-07
6.01836e-07 -3.75672e-07 -9.16457e-05
0.000138426 1.93268e-05 -4.24007e-06
1.93268e-05 -0.000129058 3.19243e-06
-4.24007e-06 3.19243e-06 -0.000262806
0.0026824 -1.40731e-05 -8.19468e-06
-1.40731e-05 0.0015109 1.78511e-07
-8.19468e-06 1.78511e-07 0.00152049
0.000339993 1.01054e-05 -6.15316e-06
1.01054e-05 -4.74471e-05 6.84722e-06
-6.15316e-06 6.84722e-06 -8.0281e-05
0.00250477 2.68813e-06 1.8131e-05
2.68813e-06 0.00139176 6.77138e-06
1.8131e-05 6.77138e-06 0.00140279
0.00532061 -6.96764e-05 -0.000453373
-6.96764e-05 0.00400362 -3.65373e-05
-0.000453373 -3.65373e-05 -0.000508996
-0.00239632 0.000395291 0.000354279
0.000395291 0.00760801 6.49135e-06
0.000354279 6.49135e-06 0.0025449
0.000299498 -0.000795172 -0.000100069
-0.000795172 0.0014482 -0.000306488
-0.000100069 -0.000306488 -0.00475082
-0.00105135 -5.16662e-05 1.30495e-05
-5.16662e-05 -0.000627393 -1.25515e-05
1.30495e-05 -1.25515e-05 -0.00115131
0.00577166 0.000658938 2.35748e-05
0.000658938 0.00352102 1.13999e-05
2.35748e-05 1.13999e-05 0.0031457
-0.000111807 0.000171538 -7.90773e-06
0.000171538 -0.000151993 -1.38068e-06
-7.90773e-06 -1.38068e-06 -0.000457499
-0.000324094 0.000116062 2.9393e-06
0.000116062 -0.0002909 -3.94149e-06
2.9393e-06 -3.94149e-06 -0.000634822
-0.000814039 6.94288e-05 -1.36028e-07
6.94288e-05 -0.000725557 -8.42511e-06
-1.36028e-07 -8.42511e-06 -0.000909792
0.00185713 0.00028539 1.94339e-05
0.00028539 0.00106894 -5.72686e-06
1.94339e-05 -5.72686e-06 0.000802474
-0.000466625 6.55131e-05 2.24137e-05
6.55131e-05 -0.000457079 -2.79803e-05
2.24137e-05 -2.79803e-05 -0.000563434
0.00789132 0.00229896 9.52828e-05
0.00229896 0.00139974 0.000198862
9.52828e-05 0.000198862 -0.00281482
0.0103948 -0.000496066 -0.0002476
-0.000496066 0.00151079 1.84448e-05
-0.0002476 1.84448e-05 -0.00334693
0.00928845 -0.00165843 0.000732268
-0.00165843 0.00720063 -0.000118637
0.000732268 -0.000118637 0.00233421
0.0128591 0.000265693 -8.02923e-05
0.000265693 -0.00204624 0.000268964
-8.02923e-05 0.000268964 -0.00358542
0.00687174 -0.00853266 -0.000102827
-0.00853266 0.000295952 1.77459e-05
-0.000102827 1.77459e-05 0.000985604
9.78526e-05 -0.00920837 -0.000611489
-0.00920837 0.00342901 0.000246429
-0.000611489 0.000246429 -0.00501303
0.0298122 0.00415731 0.000404491
0.00415731 0.0122713 -0.000489663
0.000404491 -0.000489663 0.00305097
0.00515167 -0.00836659 -0.000168039
-0.00836659 0.00264654 0.00011589
-0.000168039 0.00011589 0.000849629
-0.00159484 -0.00262726 -0.000235501
-0.00262726 0.00638737 9.46126e-05
-0.000235501 9.46126e-05 -0.00341848
0.0159789 -0.00013415 0.000614026
-0.00013415 0.00645223 -4.29228e-05
0.000614026 -4.29228e-05 -0.00082577
0.021663 -0.00202276 -1.80741e-05
-0.00202276 0.0046112 1.08634e-05
-1.80741e-05 1.08634e-05 0.0017839
-0.00555491 -0.0011283 -0.000292542
-0.0011283 0.000732544 0.000292801
-0.000292542 0.000292801 -0.000721502
0.00195679 -0.000206282 -0.000221776
-0.000206282 0.00719324 -0.000242097
-0.000221776 -0.000242097 -0.00223431
0.0174793 -0.00583477 -0.000191687
-0.00583477 0.00703481 -0.000230818
-0.000191687 -0.000230818 -0.00419014
0.0283391 -0.00145449 0.00117489
-0.00145449 0.0143999 -0.00086215
0.00117489 -0.00086215 0.00668938
-0.000547279 0.00016551 5.10561e-05
0.00016551 0.000314435 -2.33709e-05
5.10561e-05 -2.33709e-05 -0.000474472
-0.000183817 0.000155902 -2.28399e-06
0.000155902 -0.000102378 -7.29362e-06
-2.28399e-06 -7.29362e-06 -0.000321199
6.48293e-05 -2.89444e-05 -5.81281e-09
-2.89444e-05 3.55151e-05 -2.17619e-05
-5.81281e-09 -2.17619e-05 -0.000222202
0.000298133 0.000157096 -9.55916e-06
0.000157096 6.21808e-05 -7.71433e-06
-9.55916e-06 -7.71433e-06 -0.000190942
0.000761045 -0.00299948 6.73016e-05
-0.00299948 0.00139795 2.63522e-05
6.73016e-05 2.63522e-05 -0.000190899
0.000902342 -0.000800937 -9.81267e-06
-0.000800937 0.00174699 1.06986e-05
-9.81267e-06 1.06986e-05 0.000604698
7.45488e-05 4.08534e-05 -4.22301e-05
4.08534e-05 0.000255249 -2.17486e-05
-4.22301e-05 -2.17486e-05 -9.75542e-05
0.000826374 -0.000188159 -1.8309e-05
-0.000188159 0.000939172 -5.84697e-05
-1.8309e-05 -5.84697e-05 0.000342044
0.000859364 2.30481e-05 -2.67212e-06
2.30481e-05 0.00139986 2.84508e-05
-2.67212e-06 2.84508e-05 0.000670869
0.000543726 0.000221046 -3.08764e-06
0.000221046 0.000785794 8.8028e-06
-3.08764e-06 8.8028e-06 0.000171965
0.000214413 -0.000122206 -3.15991e-06
-0.000122206 0.000950153 -2.94478e-06
-3.15991e-06 -2.94478e-06 0.000177592
-0.000595387 -0.00155055 3.69901e-05
-0.00155055 0.00195553 -1.38515e-05
3.69901e-05 -1.38515e-05 -0.000262053
-2.40892e-05 -0.000169124 -2.14173e-05
-0.000169124 0.00167843 -2.09905e-05
-2.14173e-05 -2.09905e-05 0.00063963
0.000401719 0.000155313 4.31975e-05
0.000155313 0.000629098 -1.41776e-05
4.31975e-05 -1.41776e-05 9.09495e-05
-0.00189829 -0.00029122 -0.000276078
-0.00029122 0.00254903 -4.53694e-06
-0.000276078 -4.53694e-06 -0.00047916
0.00191012 0.000621101 8.64607e-05
0.000621101 0.00218927 6.23628e-06
8.64607e-05 6.23628e-06 0.00132703
-0.00558445 -0.000753678 3.10331e-05
-0.000753678 0.00714317 -0.000180643
3.10331e-05 -0.000180643 0.00242808
0.00360481 -3.42116e-05 6.65606e-05
-3.42116e-05 0.00303539 4.69971e-05
6.65606e-05 4.69971e-05 -0.00276947
-0.00515695 0.00356187 -0.00022962
0.00356187 0.00680746 -0.000116552
-0.00022962 -0.000116552 0.000799918
0.00143213 0.000886758 -1.0313e-05
0.000886758 0.00188964 -3.10098e-06
-1.0313e-05 -3.10098e-06 0.000946062
-0.00135107 0.00193297 0.000375038
0.00193297 0.00221911 0.000129524
0.000375038 0.000129524 0.000110668
0.000928531 -0.000285358 6.42161e-05
-0.000285358 0.00537696 3.42288e-06
6.42161e-05 3.42288e-06 0.00120679
0.00586652 -0.00146096 0.00053114
-0.00146096 0.00683507 -0.000246448
0.00053114 -0.000246448 -0.00426376
0.0320932 0.00378771 -0.000569655
0.00378771 0.013156 0.000475499
-0.000569655 0.000475499 0.00259404
0.00500702 -0.00132805 -0.00072086
-0.00132805 0.00543477 -3.76433e-05
-0.00072086 -3.76433e-05 0.0012229
0.0236169 0.00757719 -0.00103832
0.00757719 0.0184762 -0.000489782
-0.00103832 -0.000489782 0.009566
0.000721957 0.000301523 -8.04021e-05
0.000301523 0.00239159 1.16805e-05
-8.04021e-05 1.16805e-05 0.000312113
-0.00213212 -0.00168093 -0.000284557
-0.00168093 0.00716993 1.54637e-05
-0.000284557 1.54637e-05 0.00321398
0.00120754 -0.00304754 0.00021107
-0.00304754 0.00325601 -6.63931e-05
0.00021107 -6.63931e-05 -0.00347878
-0.0041887 0.000121401 0.000100565
0.000121401 0.00216432 5.82202e-05
0.000100565 5.82202e-05 0.000376528
0.0490315 0.027225 0.000747239
0.027225 0.0352771 -0.000205245
0.000747239 -0.000205245 0.0117393
0.0195423 0.00409939 -3.1303e-05
0.00409939 0.0152238 0.000648172
-3.1303e-05 0.000648172 0.00244578
0.000175391 -0.00238803 0.000512963
-0.00238803 0.00612132 -0.000306362
0.000512963 -0.000306362 -0.00452617
-0.00186782 -0.00128492 -2.89107e-05
-0.00128492 0.00166728 -5.91801e-05
-2.89107e-05 -5.91801e-05 -0.000606014
0.00217327 -0.0018383 0.000471535
-0.0018383 0.000648697 -0.000122817
0.000471535 -0.000122817 -0.00583805
0.00967978 0.00976198 -0.00352085
0.00976198 0.0195805 -0.000191316
-0.00352085 -0.000191316 0.00393142
0.0327787 0.0129266 -3.3391e-05
0.0129266 0.018497 0.000633583
-3.3391e-05 0.000633583 0.00379174
0.00503444 -0.00808371 -0.000430335
-0.00808371 0.0049229 0.000227547
-0.000430335 0.000227547 -0.000237338
0.00257541 -0.00435332 4.93862e-05
-0.00435332 0.00568488 9.81178e-05
4.93862e-05 9.81178e-05 0.00217979
-0.00025566 -0.00019697 1.11551e-05
-0.00019697 0.000793748 -2.97395e-05
1.11551e-05 -2.97395e-05 -0.000249518
0.000691002 -0.000858244 -1.39409e-05
-0.000858244 0.00128623 3.55651e-06
-1.39409e-05 3.55651e-06 5.49324e-05
3.59923e-05 -0.00183206 2.62902e-05
-0.00183206 0.000595811 2.00733e-05
2.62902e-05 2.00733e-05 -0.000748552
-0.00177096 -0.000252957 3.39002e-06
-0.000252957 -0.000442324 -2.94101e-07
3.39002e-06 -2.94101e-07 -0.000772197
-0.000397873 -0.000858668 -1.7172e-05
-0.000858668 0.000138399 5.15091e-06
-1.7172e-05 5.15091e-06 -0.000649735
0.00280646 -0.00149415 3.65009e-05
-0.00149415 0.00132391 -9.59297e-06
3.65009e-05 -9.59297e-06 0.000369667
0.00556186 -0.00187699 -1.07357e-05
-0.00187699 0.00268927 -6.27165e-07
-1.07357e-05 -6.27165e-07 0.00192809
0.00229248 -0.00138293 1.02749e-05
-0.00138293 0.00107105 -3.65697e-06
1.02749e-05 -3.65697e-06 -0.000104351
0.00318333 -0.00191237 -3.98188e-06
-0.00191237 0.00114712 -1.86446e-05
-3.98188e-06 -1.86446e-05 -6.80824e-05
0.00180261 -0.00117244 1.50912e-06
-0.00117244 0.000665849 -1.39245e-05
1.50912e-06 -1.39245e-05 -0.000219762
0.00267167 -0.00161902 1.36703e-06
-0.00161902 0.000961477 -2.85202e-06
1.36703e-06 -2.85202e-06 -0.00011626
0.0041291 -0.00196113 -4.8906e-06
-0.00196113 0.00152385 -1.15946e-05
-4.8906e-06 -1.15946e-05 0.000464727
0.00279684 -0.0012239 -2.1612e-06
-0.0012239 0.000458636 -5.03715e-06
-2.1612e-06 -5.03715e-06 -0.000120573
0.0037007 -0.00171663 -7.10161e-06
-0.00171663 0.00126608 -3.11425e-06
-7.10161e-06 -3.11425e-06 0.000380758
0.00341855 -0.00176855 -3.42409e-06
-0.00176855 0.00113342 -1.06744e-06
-3.42409e-06 -1.06744e-06 0.00018243
0.0032516 -0.0017094 1.22338e-05
-0.0017094 0.00133092 -9.02301e-06
1.22338e-05 -9.02301e-06 0.000366919
0.00241393 -0.00158086 3.67782e-06
-0.00158086 0.000810649 -1.8327e-06
3.67782e-06 -1.8327e-06 -0.000119146
0.0031513 -0.00157626 1.28499e-05
-0.00157626 0.00128448 -3.4232e-06
1.28499e-05 -3.4232e-06 0.000336489
0.00273869 -0.00129237 -1.14398e-06
-0.00129237 0.00129698 2.59427e-06
-1.14398e-06 2.59427e-06 0.000440245
0.00277902 -0.00144013 6.47681e-07
-0.00144013 0.00123921 -2.4596e-06
6.47681e-07 -2.4596e-06 0.000352298
0.0024566 -0.00146766 -4.50442e-06
-0.00146766 0.000910967 6.3233e-06
-4.50442e-06 6.3233e-06 2.7874e-05
0.00295808 -0.000316236 1.20597e-05
-0.000316236 0.00152832 3.47714e-06
1.20597e-05 3.47714e-06 0.00113964
0.00144943 -0.000539232 -1.04077e-05
-0.000539232 0.000539146 5.31397e-06
-1.04077e-05 5.31397e-06 5.21897e-05
0.00165308 -0.000998412 -6.41332e-06
-0.000998412 0.000627166 -2.81307e-07
-6.41332e-06 -2.81307e-07 -7.98603e-05
0.00137361 -0.000331411 6.58397e-06
-0.000331411 0.000543273 -5.64202e-06
6.58397e-06 -5.64202e-06 0.000199538
0.000802431 -0.00027226 -4.40454e-06
-0.00027226 0.00028481 7.92942e-07
-4.40454e-06 7.92942e-07 -0.000108556
-0.000603365 -0.000205368 6.7901e-06
-0.000205368 -0.000719428 8.50605e-06
6.7901e-06 8.50605e-06 -0.00111377
4.37209e-05 -0.000149377 -1.99739e-05
-0.000149377 -0.000276415 2.69437e-05
-1.99739e-05 2.69437e-05 -0.000401495
0.00113122 -0.000306228 3.861e-06
-0.000306228 0.000509659 2.58726e-06
3.861e-06 2.58726e-06 0.000145243
0.00188602 -0.000560976 -5.52158e-06
-0.000560976 0.00110723 -2.66276e-06
-5.52158e-06 -2.66276e-06 0.000638222
0.00134234 -0.000183877 -6.87841e-06
-0.000183877 0.000640932 -1.6393e-05
-6.87841e-06 -1.6393e-05 0.000357466
0.000273336 -8.32417e-05 -7.21781e-07
-8.32417e-05 -0.0001027 -9.19247e-07
-7.21781e-07 -9.19247e-07 -0.000201627
0.00444798 0.000132988 -7.50673e-05
0.000132988 0.00270918 9.60313e-06
-7.50673e-05 9.60313e-06 0.0026964
0.000390326 -8.26139e-05 6.82687e-06
-8.26139e-05 -1.95882e-05 -1.77236e-05
6.82687e-06 -1.77236e-05 -9.24874e-05
0.00375274 0.000106856 1.29491e-05
0.000106856 0.00223669 1.22926e-06
1.29491e-05 1.22926e-06 0.00223196
0.00311964 6.04885e-05 5.82323e-05
6.04885e-05 0.0017961 -8.30499e-06
5.82323e-05 -8.30499e-06 0.00180318
0.00447871 0.000488747 1.89757e-05
0.000488747 0.0029663 -1.55384e-05
1.89757e-05 -1.55384e-05 0.00236405
0.00304903 0.000336887 1.29863e-05
0.000336887 0.00203987 -3.95644e-05
1.29863e-05 -3.95644e-05 0.00152902
0.00082192 0.000153233 5.27508e-06
0.000153233 0.000339717 -1.22983e-05
5.27508e-06 -1.22983e-05 0.000116676
0.000734307 0.000238206 2.13955e-06
0.000238206 0.000393501 1.77596e-06
2.13955e-06 1.77596e-06 4.77501e-05
0.000481593 -3.24833e-05 8.77917e-06
-3.24833e-05 5.86941e-05 -1.40334e-05
8.77917e-06 -1.40334e-05 -1.46062e-06
0.00071677 0.000144869 -5.78072e-07
0.000144869 0.000274648 -7.58476e-07
-5.78072e-07 -7.58476e-07 8.02535e-05
0.000806476 0.000145226 -5.72055e-06
0.000145226 0.000414917 -1.43106e-05
-5.72055e-06 -1.43106e-05 0.000106938
0.0032077 -4.62789e-05 -4.89004e-05
-4.62789e-05 0.00186756 -9.10082e-06
-4.89004e-05 -9.10082e-06 0.00187316
0.000392074 5.58495e-06 -3.41738e-06
5.58495e-06 -5.82151e-06 -3.99806e-07
-3.41738e-06 -3.99806e-07 -5.50254e-05
0.000743026 0.000127508 -7.32801e-06
0.000127508 0.000289165 5.55066e-06
-7.32801e-06 5.55066e-06 0.000128562
0.0029341 -3.43653e-05 -7.83614e-06
-3.43653e-05 0.00168087 5.5331e-07
-7.83614e-06 5.5331e-07 0.00168767
0.000370964 -8.53997e-06 -7.55025e-06
-8.53997e-06 -2.68509e-05 8.12102e-06
-7.55025e-06 8.12102e-06 -6.56488e-05
0.0026478 -1.5304e-05 2.27541e-05
-1.5304e-05 0.00148735 7.01287e-06
2.27541e-05 7.01287e-06 0.00149694
-0.000278682 0.00197734 -0.000157691
0.00197734 0.00590092 -0.000215482
-0.000157691 -0.000215482 -0.000298566
0.00827178 -0.000887523 -9.13918e-05
-0.000887523 0.00587586 -0.000120875
-9.13918e-05 -0.000120875 0.00142625
-0.000202725 -0.000762737 0.000227213
-0.000762737 0.00781711 -0.000113074
0.000227213 -0.000113074 0.00317327
0.000528279 0.000181377 1.30791e-06
0.000181377 0.000517842 -1.32188e-05
1.30791e-06 -1.32188e-05 -0.000132396
-0.000753667 0.000462095 -1.46269e-05
0.000462095 -0.000517553 -1.35966e-05
-1.46269e-05 -1.35966e-05 -0.000916281
0.00141927 0.000484165 1.21419e-05
0.000484165 0.000587165 -2.44664e-05
1.21419e-05 -2.44664e-05 0.000265434
-0.00206473 7.96923e-05 8.86678e-06
7.96923e-05 -0.00101784 2.65459e-05
8.86678e-06 2.65459e-05 -0.00170746
0.000974977 0.000630969 4.20317e-06
0.000630969 0.000399789 -1.22174e-05
4.20317e-06 -1.22174e-05 -4.22497e-05
-2.90122e-05 0.000116888 -1.21353e-05
0.000116888 -8.29117e-05 4.76095e-06
-1.21353e-05 4.76095e-06 -0.000454829
-3.14738e-05 0.000133116 -2.19479e-05
0.000133116 -0.000179564 1.20782e-05
-2.19479e-05 1.20782e-05 -0.000362608
0.00113979 3.81597e-05 1.25623e-05
3.81597e-05 0.000620622 2.57681e-06
1.25623e-05 2.57681e-06 0.000343185
0.0013045 0.000244229 -1.14521e-05
0.000244229 0.000720015 -1.1661e-05
-1.14521e-05 -1.1661e-05 0.000608218
0.00267866 0.000289191 -3.97712e-06
0.000289191 0.00185258 -5.19805e-05
-3.97712e-06 -5.19805e-05 0.0013896
0.0143675 0.00680811 0.00141154
0.00680811 0.00828537 0.000680289
0.00141154 0.000680289 0.00267598
0.00685281 0.00190496 3.69996e-05
0.00190496 0.00352255 5.46707e-05
3.69996e-05 5.46707e-05 -0.00128383
0.0113635 -0.000585515 0.000346904
-0.000585515 0.00138095 6.48731e-06
0.000346904 6.48731e-06 -0.00221797
0.0177742 -0.000162748 -0.000181564
-0.000162748 0.00361529 -0.00011373
-0.000181564 -0.00011373 0.00360719
0.0113893 0.000372228 0.000193881
0.000372228 0.00178294 0.000464539
0.000193881 0.000464539 -0.00590237
0.00441936 -0.00819072 -0.000204426
-0.00819072 0.00291799 0.000115986
-0.000204426 0.000115986 0.000854156
0.00304343 -0.00230301 -0.000737585
-0.00230301 0.00753245 0.000195425
-0.000737585 0.000195425 0.000578754
-0.00164928 -0.00284793 -0.000179744
-0.00284793 0.00233714 0.000207968
-0.000179744 0.000207968 -5.33962e-05
0.0120071 -0.00065204 -0.000538456
-0.00065204 0.0100512 -4.21193e-05
-0.000538456 -4.21193e-05 0.000459541
0.0104547 -0.00468004 0.000116388
-0.00468004 0.00781824 0.00030227
0.000116388 0.00030227 -0.00178191
0.0369237 -0.00738779 0.000619017
-0.00738779 0.0157295 -0.00121564
0.000619017 -0.00121564 0.00345169
-0.000478471 0.000845603 -0.000344868
0.000845603 0.00411907 0.000109974
-0.000344868 0.000109974 0.000833629
0.00255598 0.00194805 -0.000477728
0.00194805 0.00751148 -0.000186523
-0.000477728 -0.000186523 -0.000160384
0.0368378 -0.0135921 0.00195062
-0.0135921 0.0235699 -0.00152781
0.00195062 -0.00152781 0.00716982
0.0416 -0.0229227 0.000256086
-0.0229227 0.0307487 -2.55558e-05
0.000256086 -2.55558e-05 0.0106279
0.00113259 0.000807218 6.31478e-05
0.000807218 0.00111653 9.29533e-06
6.31478e-05 9.29533e-06 0.000235474
-0.000291487 0.000145509 2.08082e-05
0.000145509 0.00047631 1.29255e-06
2.08082e-05 1.29255e-06 -0.000323882
0.0012618 0.000194397 -4.53823e-05
0.000194397 0.000842939 -1.41137e-05
-4.53823e-05 -1.41137e-05 0.000600431
0.000767732 -0.00216632 0.000104826
-0.00216632 0.00248856 1.31367e-05
0.000104826 1.31367e-05 -0.000306776
-0.00196968 -0.000209825 0.000161577
-0.000209825 0.000769129 3.649e-05
0.000161577 3.649e-05 -0.000436673
0.00066804 0.000221902 -5.42397e-05
0.000221902 0.00081881 7.21874e-06
-5.42397e-05 7.21874e-06 0.000253505
-0.00125616 9.16431e-05 -7.94473e-05
9.16431e-05 0.000439573 -3.72678e-06
-7.94473e-05 -3.72678e-06 -0.000479951
0.000603522 0.000360969 -1.56292e-05
0.000360969 0.000819274 3.35344e-06
-1.56292e-05 3.35344e-06 0.000246488
0.00011633 0.000722457 1.70036e-05
0.000722457 0.00110452 1.91287e-07
1.70036e-05 1.91287e-07 0.000219428
-0.00322957 -3.15023e-06 0.000246266
-3.15023e-06 0.0020276 -0.00012263
0.000246266 -0.00012263 -0.000603391
0.00251466 0.00125478 6.45656e-05
0.00125478 0.00153245 8.42371e-05
6.45656e-05 8.42371e-05 0.000872669
0.00059263 0.00157758 -7.6133e-05
0.00157758 0.00227414 -0.000138458
-7.6133e-05 -0.000138458 -0.000268707
-0.000461731 -0.00184974 0.000401819
-0.00184974 0.000787187 0.000149076
0.000401819 0.000149076 -0.00402587
-0.00447714 0.00146495 -0.000345271
0.00146495 0.00716619 -3.5215e-05
-0.000345271 -3.5215e-05 0.00108877
0.00777964 -0.00102205 -0.000288037
-0.00102205 0.0064176 1.35365e-05
-0.000288037 1.35365e-05 0.00303634
-0.000406045 0.00112757 0.000115068
0.00112757 0.00146092 1.04802e-05
0.000115068 1.04802e-05 -0.000757064
-0.000748851 0.000617433 -9.4407e-06
0.000617433 0.00370594 0.000131202
-9.4407e-06 0.000131202 0.000568428
-0.00226408 4.65934e-05 -0.000183104
4.65934e-05 0.00578631 -0.00013681
-0.000183104 -0.00013681 0.00118428
0.0136862 -0.00827117 0.000704562
-0.00827117 0.0113483 -0.000390195
0.000704562 -0.000390195 0.000328364
0.03425 0.0121645 -0.00130292
0.0121645 0.0223042 -0.000483543
-0.00130292 -0.000483543 0.0063827
0.00947454 -0.00427966 -0.000611031
-0.00427966 0.00468463 0.000367618
-0.000611031 0.000367618 -0.000712595
0.0416102 0.0318982 0.00171716
0.0318982 0.031177 -0.00193231
0.00171716 -0.00193231 0.00764164
-0.00152648 -0.00104417 1.51315e-05
-0.00104417 0.00161029 2.90169e-06
1.51315e-05 2.90169e-06 -0.000750947
0.0011721 -0.00137646 0.000174027
-0.00137646 0.0015315 3.87289e-07
0.000174027 3.87289e-07 -0.00486282
0.0164909 0.010424 -0.00172569
0.010424 0.0194825 -9.33467e-05
-0.00172569 -9.33467e-05 0.00338518
-7.89107e-05 -0.00292789 4.30863e-05
-0.00292789 0.00325589 4.71448e-05
4.30863e-05 4.71448e-05 0.000660398
0.0357687 0.0125591 0.000789794
0.0125591 0.0199749 0.000509324
0.000789794 0.000509324 0.00487238
0.00387757 -0.0116559 0.000681859
-0.0116559 0.00406364 -0.000236118
0.000681859 -0.000236118 -0.00245638
-0.000507889 -0.00318143 3.46783e-05
-0.00318143 0.00149484 4.92167e-05
3.46783e-05 4.92167e-05 -0.000881348
0.00507398 0.000310638 0.000181476
0.000310638 0.0148671 -0.000211499
0.000181476 -0.000211499 0.00596751
0.0257075 0.0132876 -0.002739
0.0132876 0.0139665 -0.000229699
-0.002739 -0.000229699 0.00149476
0.000194454 -0.0114666 -0.00143801
-0.0114666 -0.00608893 0.000353057
-0.00143801 0.000353057 -0.00470285
7.14765e-05 -0.00493887 0.000284576
-0.00493887 0.000569928 -0.000240276
0.000284576 -0.000240276 0.000729479
0.000412105 -0.000659069 -8.91454e-05
-0.000659069 0.00110649 2.55719e-05
-8.91454e-05 2.55719e-05 -0.000134048
-8.53751e-05 -0.00143327 -3.03324e-05
-0.00143327 0.000662626 2.11833e-05
-3.03324e-05 2.11833e-05 -0.000584511
-0.000419207 -0.00145388 -1.17027e-05
-0.00145388 -0.000339152 -9.97225e-06
-1.17027e-05 -9.97225e-06 -0.00123363
-0.00336444 -0.000267555 2.7744e-05
-0.000267555 -0.00134732 -5.89536e-06
2.7744e-05 -5.89536e-06 -0.00194814
0.000967789 -0.0012528 9.30296e-06
-0.0012528 0.000336051 -8.13605e-06
9.30296e-06 -8.13605e-06 -0.000507785
0.00465563 -0.00216884 -5.43224e-06
-0.00216884 0.0016378 -2.48125e-06
-5.43224e-06 -2.48125e-06 0.000800454
0.00512558 -0.00190252 -2.62603e-05
-0.00190252 0.00253621 -1.64352e-06
-2.62603e-05 -1.64352e-06 0.00132263
0.00255966 -0.00173748 -1.94171e-06
-0.00173748 0.00081113 -1.2309e-06
-1.94171e-06 -1.2309e-06 -0.000330413
0.00362908 -0.00199618 3.94353e-07
-0.00199618 0.000993314 -1.13817e-05
3.94353e-07 -1.13817e-05 8.61278e-05
0.00280254 -0.00162875 1.54059e-05
-0.00162875 0.00105457 1.63347e-06
1.54059e-05 1.63347e-06 -3.79393e-05
0.00347742 -0.00183879 4.06888e-06
-0.00183879 0.00116806 -4.85315e-06
4.06888e-06 -4.85315e-06 0.000156619
0.00343565 -0.00140442 -1.67975e-06
-0.00140442 0.00076109 -6.64983e-06
-1.67975e-06 -6.64983e-06 0.000191526
0.00245375 -0.000810653 -3.18428e-06
-0.000810653 5.94503e-05 -1.0328e-06
-3.18428e-06 -1.0328e-06 -0.000138165
0.00248359 -0.00115901 -2.72294e-07
-0.00115901 0.000222508 -2.33728e-06
-2.72294e-07 -2.33728e-06 -0.000339746
0.00278591 -0.00122548 4.85557e-06
-0.00122548 0.000431618 -1.53562e-06
4.85557e-06 -1.53562e-06 -0.000141512
0.00365393 -0.00154458 -3.85369e-06
-0.00154458 0.0012799 -4.24695e-06
-3.85369e-06 -4.24695e-06 0.000488322
0.00366726 -0.00172797 -4.58105e-06
-0.00172797 0.00125026 -7.57907e-07
-4.58105e-06 -7.57907e-07 0.000352066
0.00364738 -0.00181514 5.54001e-06
-0.00181514 0.00125086 -3.94969e-06
5.54001e-06 -3.94969e-06 0.000282434
0.00283627 -0.00150679 -1.11331e-05
-0.00150679 0.00109649 -1.28638e-05
-1.11331e-05 -1.28638e-05 0.000198508
0.00255194 -0.00159417 2.45574e-06
-0.00159417 0.000914781 -1.15732e-06
2.45574e-06 -1.15732e-06 -1.22795e-05
0.00192832 -0.00146357 1.54316e-06
-0.00146357 0.000539489 2.79861e-06
1.54316e-06 2.79861e-06 -0.000340034
0.00419743 -0.000944402 1.86315e-05
-0.000944402 0.00228056 1.18276e-05
1.86315e-05 1.18276e-05 0.00163823
0.00108869 -0.00108151 5.33599e-06
-0.00108151 0.000309184 5.15717e-06
5.33599e-06 5.15717e-06 -0.000506726
0.00241779 -0.00138199 -9.75341e-06
-0.00138199 0.0010052 1.14414e-05
-9.75341e-06 1.14414e-05 0.000140343
0.00137312 -0.000444175 4.14544e-06
-0.000444175 0.000485344 -1.24867e-05
4.14544e-06 -1.24867e-05 0.000174695
0.000647359 -0.000466853 -1.6878e-06
-0.000466853 0.000139795 -6.99954e-06
-1.6878e-06 -6.99954e-06 -0.000314749
-0.000814054 -0.000325942 6.65775e-06
-0.000325942 -0.000762707 -4.32857e-06
6.65775e-06 -4.32857e-06 -0.0012426
0.00345045 -0.000172071 -0.00012523
-0.000172071 0.00192294 2.11589e-05
-0.00012523 2.11589e-05 0.00180567
0.000308449 -0.000356232 -3.02138e-06
-0.000356232 -9.45998e-05 8.89927e-07
-3.02138e-06 8.89927e-07 -0.000473268
0.000544538 -0.000535377 -4.19705e-06
-0.000535377 0.000109825 -1.29084e-06
-4.19705e-06 -1.29084e-06 -0.000306976
0.00138618 -3.12935e-05 -0.000127243
-3.12935e-05 0.000645864 1.39119e-05
-0.000127243 1.39119e-05 0.00062105
0.00169208 -0.000136863 -3.53946e-05
-0.000136863 0.000814808 -4.59589e-07
-3.53946e-05 -4.59589e-07 0.000685829
0.00155956 -0.000368361 -3.50399e-06
-0.000368361 0.000748452 -3.67975e-06
-3.50399e-06 -3.67975e-06 0.000404224
0.000748218 -0.000113139 1.47673e-05
-0.000113139 0.000199264 -2.01124e-05
1.47673e-05 -2.01124e-05 9.53685e-05
0.00481088 0.00012774 1.23463e-05
0.00012774 0.0029503 5.39172e-07
1.23463e-05 5.39172e-07 0.00293963
0.00421162 9.14331e-05 8.92098e-05
9.14331e-05 0.00253885 -1.03941e-05
8.92098e-05 -1.03941e-05 0.00253717
-0.00120609 0.000255531 2.19613e-05
0.000255531 -0.000974262 6.8564e-06
2.19613e-05 6.8564e-06 -0.00138471
0.00245379 0.000595004 4.36049e-06
0.000595004 0.00162001 -2.91232e-05
4.36049e-06 -2.91232e-05 0.00107944
-0.000862524 0.000146623 5.35881e-06
0.000146623 -0.00050263 -1.01336e-08
5.35881e-06 -1.01336e-08 -0.00104499
0.000824774 0.000193826 -2.10374e-06
0.000193826 0.000346754 -1.85663e-05
-2.10374e-06 -1.85663e-05 8.47546e-05
0.000325335 0.000253419 7.48649e-06
0.000253419 0.0001909 -6.70311e-07
7.48649e-06 -6.70311e-07 -0.000261198
0.000360212 4.92302e-05 -9.94318e-06
4.92302e-05 -2.5767e-06 -1.72488e-05
-9.94318e-06 -1.72488e-05 -8.19037e-05
0.0005293 0.000129006 -1.78969e-07
0.000129006 0.000162504 1.35098e-06
-1.78969e-07 1.35098e-06 -7.40484e-05
0.000875362 0.000251189 -3.90295e-06
0.000251189 0.000522314 4.52256e-06
-3.90295e-06 4.52256e-06 0.000156166
0.00352557 -6.7484e-05 -6.22441e-05
-6.7484e-05 0.00208668 -1.02231e-05
-6.22441e-05 -1.02231e-05 0.0020889
0.000272553 2.80527e-05 -2.13216e-06
2.80527e-05 -7.61151e-05 5.37337e-08
-2.13216e-06 5.37337e-08 -0.000136393
0.000180407 0.000128536 -4.7238e-06
0.000128536 -9.04769e-05 8.71122e-06
-4.7238e-06 8.71122e-06 -0.000271248
0.00307828 -5.48932e-05 -1.09745e-05
-5.48932e-05 0.00178149 7.10708e-07
-1.09745e-05 7.10708e-07 0.00178535
0.000219986 -1.74071e-05 -9.52066e-06
-1.74071e-05 -0.000119732 1.019e-05
-9.52066e-06 1.019e-05 -0.000166921
0.00284102 -3.43001e-05 2.97438e-05
-3.43001e-05 0.00161888 7.63786e-06
2.97438e-05 7.63786e-06 0.00162601
0.00572455 0.00230722 0.000814422
0.00230722 0.00616584 0.000178294
0.000814422 0.000178294 0.0008546
-0.000519768 0.00201665 -6.36135e-05
0.00201665 0.00498439 5.42042e-07
-6.36135e-05 5.42042e-07 -0.00123303
0.000694338 0.00279447 1.60082e-05
0.00279447 0.00593678 -4.09953e-05
1.60082e-05 -4.09953e-05 0.000381833
0.000196889 0.000567412 -2.9114e-05
0.000567412 3.75746e-06 2.33834e-06
-2.9114e-05 2.33834e-06 -0.000597327
-0.00118039 5.08909e-05 -2.68633e-05
5.08909e-05 -0.000714372 4.92829e-05
-2.68633e-05 4.92829e-05 -0.00127615
-0.00139359 0.000140495 -2.42379e-05
0.000140495 -0.000951269 -1.40869e-05
-2.42379e-05 -1.40869e-05 -0.00127437
0.00212338 0.000198618 1.44837e-05
0.000198618 0.00138938 9.96631e-07
1.44837e-05 9.96631e-07 0.0009383
0.00100424 0.000468565 2.98142e-06
0.000468565 0.000227297 -4.72866e-06
2.98142e-06 -4.72866e-06 -8.17884e-05
0.00161622 0.000698031 -3.12304e-05
0.000698031 0.000816068 -1.40257e-05
-3.12304e-05 -1.40257e-05 0.000477139
0.00193045 0.000655942 8.75286e-06
0.000655942 0.000871305 -3.48959e-05
8.75286e-06 -3.48959e-05 0.000393685
-0.00319124 0.000170191 -3.14644e-05
0.000170191 -0.00149608 9.33874e-06
-3.14644e-05 9.33874e-06 -0.00207576
-0.000850142 5.03428e-05 -1.06032e-05
5.03428e-05 -0.000560981 -4.09739e-06
-1.06032e-05 -4.09739e-06 -0.000890152
-0.00179829 3.40721e-05 -6.88326e-06
3.40721e-05 -0.00138318 2.81995e-05
-6.88326e-06 2.81995e-05 -0.00139154
-0.000596581 7.17581e-05 -1.60974e-05
7.17581e-05 -8.48165e-05 3.31028e-06
-1.60974e-05 3.31028e-06 -0.000584029
-0.000314107 0.000488051 8.37496e-06
0.000488051 0.000261039 1.71684e-05
8.37496e-06 1.71684e-05 -0.000640011
0.0214611 -0.0161262 -0.000371301
-0.0161262 0.0216622 0.000302773
-0.000371301 0.000302773 0.00165994
0.0128733 0.00668109 0.000342842
0.00668109 0.00533643 0.000210197
0.000342842 0.000210197 -0.0013669
0.00673575 0.0012228 0.000369836
0.0012228 0.00505354 -3.65387e-05
0.000369836 -3.65387e-05 -0.000315826
0.0482597 -0.0134644 -0.00199379
-0.0134644 0.0203316 -0.000490662
-0.00199379 -0.000490662 0.00550094
0.0113262 -0.000463823 0.000409058
-0.000463823 0.00791309 0.000668174
0.000409058 0.000668174 0.000823419
0.00196849 0.000138827 -0.00030807
0.000138827 0.00711695 0.000184863
-0.00030807 0.000184863 -0.00229417
-0.00129035 -0.003105 -2.96623e-05
-0.003105 0.00292191 0.000150371
-2.96623e-05 0.000150371 -0.000303208
-0.00156249 -0.00100661 0.00022621
-0.00100661 0.00322863 8.86157e-05
0.00022621 8.86157e-05 0.00074846
0.0450367 -0.0264044 0.000249592
-0.0264044 0.0318924 0.000539409
0.000249592 0.000539409 0.00994994
0.0035087 0.00326943 -0.000245947
0.00326943 0.00753145 -0.000154963
-0.000245947 -0.000154963 -0.0019157
0.0186284 -0.00753841 -5.64446e-05
-0.00753841 0.0163165 0.000220399
-5.64446e-05 0.000220399 0.00115581
-0.000434914 0.00212658 1.83202e-05
0.00212658 0.00281277 -4.33039e-05
1.83202e-05 -4.33039e-05 0.000401591
0.0038781 0.00859349 -0.000362636
0.00859349 0.00383338 3.1688e-05
-0.000362636 3.1688e-05 -0.00117158
0.0316766 -0.0115294 -0.00105851
-0.0115294 0.0179417 5.41426e-06
-0.00105851 5.41426e-06 0.00344269
0.00239497 0.00138628 1.45444e-06
0.00138628 0.00115717 5.87137e-05
1.45444e-06 5.87137e-05 0.000670901
9.60887e-05 0.000594473 3.67467e-06
0.000594473 0.0005458 1.76647e-06
3.67467e-06 1.76647e-06 -0.000337159
-0.000312291 8.96804e-05 -8.2461e-05
8.96804e-05 0.000474854 2.23156e-05
-8.2461e-05 2.23156e-05 -0.000330482
-0.00210444 -0.000402648 -0.000214675
-0.000402648 0.00259173 -4.27646e-05
-0.000214675 -4.27646e-05 0.000168115
-0.000688897 0.000615095 -9.45253e-05
0.000615095 0.000343877 -9.33168e-06
-9.45253e-05 -9.33168e-06 -0.000446588
-0.000407999 0.000314644 -2.37324e-05
0.000314644 0.000244788 -3.25438e-06
-2.37324e-05 -3.25438e-06 -0.000379641
0.00117723 0.00108273 -4.86721e-06
0.00108273 0.000745094 1.50537e-06
-4.86721e-06 1.50537e-06 8.78133e-05
-0.000265807 0.0016694 -0.00012874
0.0016694 0.00174748 -0.000106526
-0.00012874 -0.000106526 -0.000582394
0.00319984 0.00369265 0.00012613
0.00369265 0.00177518 5.87717e-05
0.00012613 5.87717e-05 -0.000116389
-0.00697325 0.00222823 0.000843019
0.00222823 0.00658552 -6.82626e-05
0.000843019 -6.82626e-05 -0.00276466
0.000491422 -0.00174967 -9.36575e-05
-0.00174967 0.00233493 8.76644e-05
-9.36575e-05 8.76644e-05 -0.0015356
-0.00188746 0.000768149 -0.000111588
0.000768149 0.00602088 0.000156584
-0.000111588 0.000156584 4.53349e-05
-0.0022542 -0.000682891 -7.41926e-05
-0.000682891 0.00119187 2.78478e-06
-7.41926e-05 2.78478e-06 -0.00114718
-0.00114062 -0.00195446 2.15544e-05
-0.00195446 0.00224151 -4.9733e-06
2.15544e-05 -4.9733e-06 0.000887533
-0.00484072 -0.00304486 -0.000238645
-0.00304486 0.000670937 0.000181605
-0.000238645 0.000181605 -0.00542869
-0.000772977 -0.00918596 0.000598708
-0.00918596 0.00451611 -0.000348176
0.000598708 -0.000348176 -0.00476005
0.0253238 0.0100974 0.0010775
0.0100974 0.0142479 -0.000204719
0.0010775 -0.000204719 0.000382245
0.0315689 0.0181385 -0.000239528
0.0181385 0.0237433 0.000798374
-0.000239528 0.000798374 0.00297651
0.000154239 -0.00221078 -5.73796e-05
-0.00221078 0.00223704 1.96469e-05
-5.73796e-05 1.96469e-05 0.000145344
0.00997458 0.00592088 0.000697375
0.00592088 0.0181835 -4.09976e-05
0.000697375 -4.09976e-05 0.00547518
0.0132364 0.00893858 0.000121911
0.00893858 0.00753044 0.000137838
0.000121911 0.000137838 -0.00195383
0.00309887 -0.00764855 9.10014e-05
-0.00764855 0.00167589 -5.07837e-05
9.10014e-05 -5.07837e-05 0.000254571
0.0112001 -0.0117683 3.18101e-06
-0.0117683 -0.00193147 1.95126e-05
3.18101e-06 1.95126e-05 -0.0015186
0.00228721 -0.00368834 4.95856e-05
-0.00368834 0.00107745 -1.11328e-05
4.95856e-05 -1.11328e-05 0.000125193
0.00307602 0.00690755 -0.00226375
0.00690755 0.00608909 -5.08885e-05
-0.00226375 -5.08885e-05 -0.00558265
0.0145935 -0.00768447 -0.000705035
-0.00768447 -0.004915 0.000144948
-0.000705035 0.000144948 -0.00192937
0.00526264 -0.00790645 0.000126047
-0.00790645 -0.00138045 -8.83082e-05
0.000126047 -8.83082e-05 0.000554162
0.000176024 -0.00105849 -1.61418e-05
-0.00105849 0.000895814 -1.25848e-05
-1.61418e-05 -1.25848e-05 -0.000283694
0.00229326 -0.00219144 5.21144e-05
-0.00219144 0.000941348 -2.49328e-05
5.21144e-05 -2.49328e-05 -8.64421e-05
0.00225076 -0.00185697 -1.3282e-05
-0.00185697 0.000233799 -1.42277e-05
-1.3282e-05 -1.42277e-05 -0.000408936
-0.000397469 -0.00110494 -8.51661e-07
-0.00110494 -0.000418223 3.58749e-07
-8.51661e-07 3.58749e-07 -0.00116925
0.00240233 -0.00187745 -7.93104e-06
-0.00187745 0.000441773 2.24402e-06
-7.93104e-06 2.24402e-06 -0.000292065
0.00458206 -0.0020525 -4.31354e-06
-0.0020525 0.00129995 -3.23298e-06
-4.31354e-06 -3.23298e-06 0.000633093
0.00206584 -0.00160235 1.34442e-05
-0.00160235 0.000532017 8.03401e-06
1.34442e-05 8.03401e-06 -0.000539135
0.00324487 -0.00193543 -1.10482e-06
-0.00193543 0.000779805 4.12849e-06
-1.10482e-06 4.12849e-06 -0.000111149
0.00312022 -0.00146245 -2.18969e-06
-0.00146245 0.000375873 -1.27331e-06
-2.18969e-06 -1.27331e-06 -3.09405e-05
0.00247112 -0.00165846 7.61784e-06
-0.00165846 0.000616404 2.82322e-06
7.61784e-06 2.82322e-06 -0.000334898
0.00297049 -0.00132888 -3.91093e-06
-0.00132888 0.000488536 4.27643e-06
-3.91093e-06 4.27643e-06 -5.53039e-05
0.00261766 -0.000896027 -1.7013e-07
-0.000896027 2.58827e-05 -1.36927e-06
-1.7013e-07 -1.36927e-06 -0.000109461
0.00265282 -0.000889174 -3.5931e-06
-0.000889174 0.000186772 -1.61657e-07
-3.5931e-06 -1.61657e-07 4.85013e-05
0.0024257 -0.000815087 -5.3345e-06
-0.000815087 0.000119788 7.738e-08
-5.3345e-06 7.738e-08 -0.000131288
0.00239816 -0.000800578 1.16996e-06
-0.000800578 1.04284e-05 2.54644e-06
1.16996e-06 2.54644e-06 -0.000186187
0.00229593 -0.00100719 -6.87286e-06
-0.00100719 0.000163497 -4.08461e-06
-6.87286e-06 -4.08461e-06 -0.000323059
0.00265824 -0.00116489 4.2795e-06
-0.00116489 0.000361108 6.37499e-07
4.2795e-06 6.37499e-07 -0.000195426
0.0028112 -0.00122896 4.06018e-06
-0.00122896 0.000429344 4.77857e-06
4.06018e-06 4.77857e-06 -0.000137931
0.00272935 -0.00132845 -1.07195e-05
-0.00132845 0.000703363 -6.59602e-06
-1.07195e-05 -6.59602e-06 -1.19074e-05
0.00319914 -0.0014972 2.36866e-06
-0.0014972 0.000988562 -1.23931e-06
2.36866e-06 -1.23931e-06 0.000203911
0.0036493 -0.00173953 -2.29079e-06
-0.00173953 0.00124629 -9.11611e-09
-2.29079e-06 -9.11611e-09 0.00033528
0.00156723 -0.0010236 3.78825e-08
-0.0010236 0.000241984 -1.23899e-05
3.78825e-08 -1.23899e-05 -0.000472659
0.0028383 -0.00150278 2.04609e-06
-0.00150278 0.0010787 -1.47876e-06
2.04609e-06 -1.47876e-06 0.000183405
0.00210515 -0.00151606 -2.14786e-07
-0.00151606 0.000648892 6.00799e-06
-2.14786e-07 6.00799e-06 -0.000252439
0.000966876 -0.000542285 -1.48466e-05
-0.000542285 0.00012918 -1.18372e-05
-1.48466e-05 -1.18372e-05 -0.000207391
0.00127741 -0.000885428 3.64711e-06
-0.000885428 0.000444267 4.21601e-06
3.64711e-06 4.21601e-06 -0.000201433
0.000556221 -0.000985142 7.5779e-06
-0.000985142 1.38733e-05 9.36929e-06
7.5779e-06 9.36929e-06 -0.000762468
5.03279e-05 -0.000256096 -3.04542e-05
-0.000256096 -0.000396663 2.21038e-05
-3.04542e-05 2.21038e-05 -0.000542878
0.00108688 -0.000513059 3.02935e-06
-0.000513059 0.000386177 6.38368e-07
3.02935e-06 6.38368e-07 8.39556e-06
-0.00198488 -0.000560867 -9.38668e-06
-0.000560867 -0.00144852 -1.2236e-05
-9.38668e-06 -1.2236e-05 -0.00195827
0.00725504 0.000395023 3.06036e-05
0.000395023 0.00465048 1.30081e-05
3.06036e-05 1.30081e-05 0.00455881
0.000404582 -0.000237403 3.39899e-06
-0.000237403 -0.000120446 7.25734e-07
3.39899e-06 7.25734e-07 -0.000269461
0.000439524 -0.000257037 -1.32811e-05
-0.000257037 -3.37638e-05 6.72542e-06
-1.32811e-05 6.72542e-06 -0.000404678
0.00544609 0.000163141 2.93579e-05
0.000163141 0.00339087 1.7058e-06
2.93579e-05 1.7058e-06 0.00337025
0.000769658 -0.000170728 1.62347e-05
-0.000170728 0.000186787 -1.99989e-05
1.62347e-05 -1.99989e-05 4.38198e-05
0.0048844 0.00012916 0.000106528
0.00012916 0.00299976 -1.38122e-05
0.000106528 -1.38122e-05 0.00298922
0.00252924 0.000675127 -1.26967e-06
0.000675127 0.0013229 2.44258e-05
-1.26967e-06 2.44258e-05 0.000808622
0.001367 0.000436463 4.04119e-06
0.000436463 0.000613114 -1.87347e-07
4.04119e-06 -1.87347e-07 0.000201552
-0.000541835 0.000868367 3.35443e-06
0.000868367 -0.00050458 9.68423e-06
3.35443e-06 9.68423e-06 -0.000967525
0.00192542 0.000427042 -2.00206e-06
0.000427042 0.00101808 -1.83983e-05
-2.00206e-06 -1.83983e-05 0.000724662
0.000846973 0.000277109 9.84472e-08
0.000277109 0.000582815 7.62107e-07
9.84472e-08 7.62107e-07 3.4469e-05
-0.000385517 0.000276382 -6.19776e-06
0.000276382 -0.000129621 1.581e-05
-6.19776e-06 1.581e-05 -0.00070881
0.000643751 4.94585e-05 -5.48945e-06
4.94585e-05 0.000179286 -1.91552e-05
-5.48945e-06 -1.91552e-05 7.76495e-05
0.000660464 0.000193971 -3.78487e-07
0.000193971 0.00024529 1.75187e-06
-3.78487e-07 1.75187e-06 -2.17085e-05
-0.000137879 0.000128616 -1.27244e-05
0.000128616 -0.000184526 3.75018e-05
-1.27244e-05 3.75018e-05 -0.00057789
0.00420767 -0.000100938 -7.68558e-05
-0.000100938 0.00255328 -1.12398e-05
-7.68558e-05 -1.12398e-05 0.0025504
0.000329664 -1.7884e-05 3.34689e-07
-1.7884e-05 -2.63087e-05 -2.26844e-07
3.34689e-07 -2.26844e-07 -0.000102405
0.000589024 0.000106805 -5.96864e-06
0.000106805 0.000220169 1.0826e-05
-5.96864e-06 1.0826e-05 -3.02821e-05
0.0035565 -8.04256e-05 -1.31608e-05
-8.04256e-05 0.00211077 1.22892e-06
-1.31608e-05 1.22892e-06 0.00210958
0.000422272 5.3849e-05 1.93262e-06
5.3849e-05 2.13167e-05 1.34964e-05
1.93262e-06 1.34964e-05 -3.76915e-05
0.00307343 -5.88255e-05 3.12712e-05
-5.88255e-05 0.00177899 8.30282e-06
3.12712e-05 8.30282e-06 0.0017818
0.000932603 -0.00257128 -0.000815227
-0.00257128 0.00886023 0.000202526
-0.000815227 0.000202526 -0.00212668
0.00661099 0.00225973 0.000158474
0.00225973 0.00514813 6.77795e-06
0.000158474 6.77795e-06 0.000371646
0.000416689 0.00253303 0.000476965
0.00253303 0.00481674 0.00018692
0.000476965 0.00018692 -0.00114719
4.31955e-05 0.000427421 -1.1815e-06
0.000427421 -6.56285e-05 3.13845e-06
-1.1815e-06 3.13845e-06 -0.000702576
0.00451716 0.00148373 -3.88496e-06
0.00148373 0.0025032 3.11997e-05
-3.88496e-06 3.11997e-05 0.00164535
-0.00147308 0.000256861 -3.31227e-05
0.000256861 -0.000682152 -2.49837e-06
-3.31227e-05 -2.49837e-06 -0.00150599
0.000518788 0.000337735 -9.59885e-06
0.000337735 0.000458883 -1.49468e-05
-9.59885e-06 -1.49468e-05 -5.24006e-05
0.00220559 0.000630318 -3.15528e-06
0.000630318 0.000919715 -1.36894e-06
-3.15528e-06 -1.36894e-06 0.000592257
-0.00487102 5.93833e-05 3.89357e-05
5.93833e-05 -0.00335361 4.82504e-05
3.89357e-05 4.82504e-05 -0.0034005
-0.00118691 0.000410572 -7.65747e-07
0.000410572 -0.000505425 2.77223e-06
-7.65747e-07 2.77223e-06 -0.00103236
0.000289112 0.000440836 -1.1663e-05
0.000440836 5.49434e-05 -1.10796e-06
-1.1663e-05 -1.10796e-06 -0.000464834
0.000725524 0.00125794 -5.35399e-05
0.00125794 0.000531697 -1.26586e-05
-5.35399e-05 -1.26586e-05 -0.000357086
-0.000666898 0.00102554 -6.86926e-05
0.00102554 -0.0006053 7.70922e-05
-6.86926e-05 7.70922e-05 -0.00113405
-9.78249e-05 0.000247377 -1.00434e-05
0.000247377 0.000158926 3.446e-05
-1.00434e-05 3.446e-05 -0.000321538
0.00222708 0.000989126 3.39716e-05
0.000989126 0.00161885 1.93225e-06
3.39716e-05 1.93225e-06 0.000823101
0.0115378 -0.00979434 -0.00425859
-0.00979434 0.00849284 0.000666157
-0.00425859 0.000666157 -0.00393045
0.0129341 -0.012607 0.00140029
-0.012607 0.0210324 -0.000222105
0.00140029 -0.000222105 0.00437464
0.0120926 0.0068739 -0.00161108
0.0068739 0.00394181 -0.000441694
-0.00161108 -0.000441694 -0.00378617
0.0441099 -0.0314807 0.00167725
-0.0314807 0.0323474 0.00181297
0.00167725 0.00181297 0.00890477
0.034602 -0.00811123 -0.000456861
-0.00811123 0.0183605 0.000744075
-0.000456861 0.000744075 0.0057359
0.00188836 0.00324422 -0.000260671
0.00324422 0.00653541 -0.000310462
-0.000260671 -0.000310462 -0.00161172
0.000557846 -0.000761989 -0.000291889
-0.000761989 0.0053783 8.78439e-05
-0.000291889 8.78439e-05 0.00202453
-0.00012836 0.00223388 -3.95428e-06
0.00223388 0.00318031 2.51185e-05
-3.95428e-06 2.51185e-05 0.000768961
0.0376509 -0.0115862 -0.00122667
-0.0115862 0.0198876 0.000514666
-0.00122667 0.000514666 0.00500036
-0.000911924 0.00919876 -0.000504613
0.00919876 0.00217065 -5.86684e-05
-0.000504613 -5.86684e-05 -0.00372996
0.0010965 0.00574344 -3.72888e-05
0.00574344 0.000933488 -0.000169314
-3.72888e-05 -0.000169314 0.000363332
0.00698905 0.0150645 -0.00141931
0.0150645 -0.00511081 -0.000212394
-0.00141931 -0.000212394 -0.00412902
0.00401918 0.0022851 2.84761e-05
0.0022851 0.00175007 3.95891e-05
2.84761e-05 3.95891e-05 0.000980299
0.00209325 0.00128471 -2.06969e-05
0.00128471 0.000959167 -6.57062e-06
-2.06969e-05 -6.57062e-06 0.000563474
-0.000502641 0.000436435 -6.60088e-05
0.000436435 0.000126752 -7.51115e-06
-6.60088e-05 -7.51115e-06 -0.000668791
0.000509814 0.00201631 -0.00015682
0.00201631 0.00222201 -9.2486e-05
-0.00015682 -9.2486e-05 2.77092e-05
0.00134626 0.00123022 -7.64877e-05
0.00123022 0.0008846 -8.68719e-05
-7.64877e-05 -8.68719e-05 0.000241059
0.00291286 0.00370413 1.50545e-06
0.00370413 0.00135152 -1.8794e-05
1.50545e-06 -1.8794e-05 -0.000378269
0.00106218 0.00427047 0.000241144
0.00427047 -0.00116495 0.000153539
0.000241144 0.000153539 -0.0018592
-0.00771591 -0.000669744 -0.00211015
-0.000669744 0.00429364 -2.87965e-05
-0.00211015 -2.87965e-05 -0.00711179
-0.00914601 0.00130328 0.00137753
0.00130328 0.00715951 -6.10437e-05
0.00137753 -6.10437e-05 -0.000136728
-6.05023e-05 0.00110993 -0.000298997
0.00110993 0.00277502 5.9475e-05
-0.000298997 5.9475e-05 -0.000503872
0.000691729 -0.00258275 -0.00011276
-0.00258275 0.00192155 -7.47036e-05
-0.00011276 -7.47036e-05 -0.000249519
0.00213189 -0.00684063 0.00015693
-0.00684063 0.00153518 8.74296e-05
0.00015693 8.74296e-05 6.07783e-05
0.00610979 0.00591959 0.00142325
0.00591959 0.0167783 0.000434288
0.00142325 0.000434288 0.00448582
0.00558517 -0.0122059 0.00152794
-0.0122059 -0.00630537 -0.000349024
0.00152794 -0.000349024 -0.00371513
0.021678 0.0101976 0.00278043
0.0101976 0.0172289 0.000467827
0.00278043 0.000467827 0.0053601
0.00376353 -0.00485525 -1.74675e-05
-0.00485525 0.00154071 -1.20067e-05
-1.74675e-05 -1.20067e-05 1.20844e-05
0.0100181 0.00820888 0.00058728
0.00820888 0.0086113 -0.000210268
0.00058728 -0.000210268 -0.0028779
0.0087469 -0.00813969 -0.00049698
-0.00813969 -0.00931086 0.000241941
-0.00049698 0.000241941 -0.00542523
0.00360567 -0.00681702 -0.000101283
-0.00681702 -0.00165972 0.000100112
-0.000101283 0.000100112 0.00056413
0.00360111 -0.00375359 6.75997e-05
-0.00375359 -0.000226901 -4.19851e-05
6.75997e-05 -4.19851e-05 8.24147e-05
0.0160424 -0.00183614 -0.000106978
-0.00183614 -0.0029473 0.000164501
-0.000106978 0.000164501 -0.000681957
0.00399968 -0.00482684 0.00013977
-0.00482684 -0.00539619 -0.000209873
0.00013977 -0.000209873 -0.000696553
0.0040197 -0.00269575 -0.000104467
-0.00269575 0.00182115 5.7795e-05
-0.000104467 5.7795e-05 0.000751119
0.000873116 -0.00166209 -1.25526e-05
-0.00166209 -0.000543109 2.17821e-06
-1.25526e-05 2.17821e-06 -0.000966783
0.00591601 -0.00204432 4.74777e-05
-0.00204432 0.00180193 -2.91015e-05
4.74777e-05 -2.91015e-05 0.00141736
-0.000226966 -0.0014975 -4.65731e-06
-0.0014975 -0.000931483 3.90135e-06
-4.65731e-06 3.90135e-06 -0.00156233
0.00316398 -0.00184719 1.65745e-06
-0.00184719 0.000566731 -5.94668e-07
1.65745e-06 -5.94668e-07 -1.35827e-05
0.0036376 -0.0014686 -2.17464e-06
-0.0014686 0.000486732 -1.82834e-06
-2.17464e-06 -1.82834e-06 0.000332505
0.00306925 -0.00190589 1.31627e-05
-0.00190589 0.000678444 1.24713e-05
1.31627e-05 1.24713e-05 -0.000203329
0.00311959 -0.00144495 -4.18833e-06
-0.00144495 0.00037731 2.32363e-06
-4.18833e-06 2.32363e-06 -1.22399e-05
0.00282479 -0.00097928 -9.7245e-07
-0.00097928 -3.36203e-05 6.08242e-08
-9.7245e-07 6.08242e-08 4.3372e-06
0.00238581 -0.00123491 6.4748e-06
-0.00123491 0.000153261 7.63928e-06
6.4748e-06 7.63928e-06 -0.000360153
0.00256546 -0.000885521 -1.14543e-07
-0.000885521 -1.40016e-05 2.94523e-06
-1.14543e-07 2.94523e-06 -0.00013823
0.00271662 -0.00093944 -2.18326e-06
-0.00093944 5.29614e-05 7.92005e-08
-2.18326e-06 7.92005e-08 -8.53899e-06
0.00267931 -0.000904126 -4.51799e-06
-0.000904126 0.00012742 -5.92499e-07
-4.51799e-06 -5.92499e-07 -4.5149e-06
0.00259839 -0.000888779 -3.67336e-06
-0.000888779 0.000139251 1.63843e-06
-3.67336e-06 1.63843e-06 9.61347e-06
0.00255806 -0.000852508 -1.01239e-06
-0.000852508 0.000212215 -1.34669e-06
-1.01239e-06 -1.34669e-06 2.72934e-05
0.0026502 -0.000857002 -6.59157e-06
-0.000857002 0.000349415 -1.06081e-06
-6.59157e-06 -1.06081e-06 5.06765e-05
0.0025816 -0.000815524 1.55145e-06
-0.000815524 0.000239154 1.3798e-06
1.55145e-06 1.3798e-06 -1.65353e-05
0.00234134 -0.000793298 4.62796e-06
-0.000793298 -4.50552e-05 6.07054e-06
4.62796e-06 6.07054e-06 -0.000241247
0.00237424 -0.00100714 -8.48941e-06
-0.00100714 0.00026012 -6.81159e-06
-8.48941e-06 -6.81159e-06 -0.000225316
0.00232934 -0.00103073 -6.47973e-07
-0.00103073 0.000170858 -4.17638e-08
-6.47973e-07 -4.17638e-08 -0.000323762
0.0028244 -0.0011732 9.26764e-06
-0.0011732 0.000489068 4.5246e-06
9.26764e-06 4.5246e-06 -6.26977e-05
0.00203957 -0.00117273 -4.72459e-06
-0.00117273 0.000267392 -8.60984e-06
-4.72459e-06 -8.60984e-06 -0.000414209
0.00292274 -0.00136812 -1.80831e-06
-0.00136812 0.000793976 8.81225e-07
-1.80831e-06 8.81225e-07 6.54396e-05
0.00281399 -0.00146219 5.84519e-06
-0.00146219 0.000737946 3.54765e-06
5.84519e-06 3.54765e-06 -4.37055e-05
0.0005237 -0.000453586 -1.19085e-05
-0.000453586 -0.000322027 5.06579e-06
-1.19085e-05 5.06579e-06 -0.00074558
0.00220817 -0.00110881 -2.55848e-06
-0.00110881 0.000665874 2.70161e-06
-2.55848e-06 2.70161e-06 -6.62792e-05
0.00288896 -0.0015096 1.33415e-05
-0.0015096 0.00108783 9.52057e-06
1.33415e-05 9.52057e-06 0.000190712
0.000156073 -0.000241192 -2.25091e-05
-0.000241192 -0.000289838 2.83238e-05
-2.25091e-05 2.83238e-05 -0.000498374
0.00140462 -0.000559782 -1.12521e-05
-0.000559782 0.000449029 -2.20196e-06
-1.12521e-05 -2.20196e-06 6.96652e-05
-0.000666273 -0.000868193 -7.0272e-06
-0.000868193 -0.000766856 2.3573e-06
-7.0272e-06 2.3573e-06 -0.00144236
0.00809236 0.00018248 -0.000238645
0.00018248 0.00512937 2.13095e-05
-0.000238645 2.13095e-05 0.00510916
0.000833973 -0.000265595 -6.46957e-06
-0.000265595 0.000115594 -1.01284e-06
-6.46957e-06 -1.01284e-06 -4.35654e-05
1.80444e-05 -0.000586955 1.58171e-05
-0.000586955 -0.000192425 4.19132e-06
1.58171e-05 4.19132e-06 -0.00064289
0.00455868 0.000142423 0.000114078
0.000142423 0.00279914 -5.05114e-06
0.000114078 -5.05114e-06 0.00274563
0.000882878 -0.000245352 2.91092e-05
-0.000245352 0.000181843 -2.07199e-05
2.91092e-05 -2.07199e-05 2.9456e-05
0.00660683 0.000101763 0.000215439
0.000101763 0.00414472 -1.95616e-05
0.000215439 -1.95616e-05 0.00413976
0.00101131 0.000761121 -3.28082e-05
0.000761121 0.000154876 1.76545e-05
-3.28082e-05 1.76545e-05 -0.000488851
0.00142897 0.000526172 -9.89799e-06
0.000526172 0.000615418 6.86383e-07
-9.89799e-06 6.86383e-07 0.000125616
-0.000480526 0.000262904 1.6041e-05
0.000262904 -0.000634968 3.47569e-05
1.6041e-05 3.47569e-05 -0.00100863
0.00168611 0.000452134 -1.94147e-06
0.000452134 0.000751339 -1.20396e-05
-1.94147e-06 -1.20396e-05 0.00036848
0.00191162 0.000392365 4.07009e-06
0.000392365 0.00107674 -1.41554e-06
4.07009e-06 -1.41554e-06 0.000641905
0.00169347 0.000388682 2.20215e-06
0.000388682 0.000917072 -9.34171e-06
2.20215e-06 -9.34171e-06 0.000542536
0.00111041 0.000185331 -2.2396e-05
0.000185331 0.000447576 -2.66129e-05
-2.2396e-05 -2.66129e-05 0.000320095
0.000863035 0.000276501 -7.6338e-07
0.000276501 0.000409882 1.01718e-06
-7.6338e-07 1.01718e-06 7.92363e-05
-0.000921043 9.34335e-05 -2.12931e-05
9.34335e-05 -0.000611594 3.45807e-05
-2.12931e-05 3.45807e-05 -0.0011266
0.00378675 -8.60759e-05 -0.000103172
-8.60759e-05 0.00227292 -1.60411e-05
-0.000103172 -1.60411e-05 0.00227419
0.000428942 0.000107405 1.08487e-06
0.000107405 4.23585e-05 -6.58025e-07
1.08487e-06 -6.58025e-07 -5.51391e-05
0.000804806 0.000228291 -3.47375e-06
0.000228291 0.000359818 1.6697e-05
-3.47375e-06 1.6697e-05 8.06701e-05
0.00358239 -9.12803e-05 -1.07372e-05
-9.12803e-05 0.00213517 8.71415e-07
-1.07372e-05 8.71415e-07 0.00213254
0.000141338 4.40546e-06 3.60856e-06
4.40546e-06 -0.000146723 1.5537e-05
3.60856e-06 1.5537e-05 -0.000221327
0.00333212 -8.40932e-05 3.95753e-05
-8.40932e-05 0.00196065 9.54213e-06
3.95753e-05 9.54213e-06 0.00195828
0.00393241 -0.00483254 -0.00321288
-0.00483254 0.00622731 0.000260845
-0.00321288 0.000260845 0.000734564
0.00222388 -0.0043898 -0.000347725
-0.0043898 0.0110854 -9.12619e-05
-0.000347725 -9.12619e-05 -0.000967335
0.00688145 0.00187495 -0.000812833
0.00187495 0.00441937 -0.000206215
-0.000812833 -0.000206215 -8.97645e-05
0.00131599 0.000402174 1.06632e-05
0.000402174 0.000673655 1.14254e-05
1.06632e-05 1.14254e-05 0.000106093
0.00106126 0.000414718 1.5789e-05
0.000414718 0.00076823 -2.25314e-06
1.5789e-05 -2.25314e-06 1.50936e-05
0.0018487 0.00110326 -3.08697e-06
0.00110326 0.000856618 -1.62579e-06
-3.08697e-06 -1.62579e-06 2.48923e-05
0.00266028 0.00150662 2.2759e-06
0.00150662 0.00109353 2.1922e-05
2.2759e-06 2.1922e-05 0.000220403
0.00157773 0.00127227 -5.42123e-05
0.00127227 0.00099891 1.54469e-05
-5.42123e-05 1.54469e-05 -2.40954e-06
0.00576233 0.000926922 1.35625e-05
0.000926922 0.00361743 1.10627e-05
1.35625e-05 1.10627e-05 0.00320247
0.00184963 0.000677643 3.40595e-05
0.000677643 0.00115522 2.63572e-05
3.40595e-05 2.63572e-05 0.000549401
0.00299502 0.00131146 -6.05064e-06
0.00131146 0.00182736 -1.47685e-07
-6.05064e-06 -1.47685e-07 0.000983559
0.00290143 0.00177456 -3.46824e-05
0.00177456 0.00121366 1.07427e-06
-3.46824e-05 1.07427e-06 0.000348104
0.00236532 0.00162969 -3.32879e-05
0.00162969 0.000849527 5.65012e-05
-3.32879e-05 5.65012e-05 0.00028361
0.00218469 0.00223058 4.5613e-05
0.00223058 0.00017135 -2.46361e-05
4.5613e-05 -2.46361e-05 -0.000470756
0.0013662 0.001365 1.98296e-05
0.001365 0.0005453 1.03338e-05
1.98296e-05 1.03338e-05 -8.16569e-05
0.00353231 0.00122961 -1.88396e-05
0.00122961 0.00240677 -3.51888e-06
-1.88396e-05 -3.51888e-06 0.00145961
0.0186611 0.00848831 -0.000246022
0.00848831 -0.0024286 0.000111282
-0.000246022 0.000111282 0.0010373
0.0190658 -0.00692859 -0.00108107
-0.00692859 0.0109162 -0.000157974
-0.00108107 -0.000157974 0.00173752
0.0125075 -0.0121487 0.00220999
-0.0121487 0.0225843 -9.47401e-05
0.00220999 -9.47401e-05 0.00718246
0.029847 -0.00817759 0.000585547
-0.00817759 0.0146885 0.000175172
0.000585547 0.000175172 0.00178325
0.00753667 0.0105029 -0.000366722
0.0105029 0.00481939 -0.000169065
-0.000366722 -0.000169065 -0.000469892
0.00100837 0.00255015 7.49891e-05
0.00255015 0.00393632 6.88646e-05
7.49891e-05 6.88646e-05 0.00138141
0.0016485 0.005534 -0.000202183
0.005534 0.00125156 -0.000126247
-0.000202183 -0.000126247 0.00102574
0.0100993 0.0123081 0.000146421
0.0123081 -0.00131741 0.000147176
0.000146421 0.000147176 -0.00162065
0.00839093 0.00876518 -0.000219404
0.00876518 -0.00105913 -0.000178765
-0.000219404 -0.000178765 0.000210119
0.00172583 0.00229753 5.43796e-06
0.00229753 5.83165e-05 -3.59376e-05
5.43796e-06 -3.59376e-05 -0.000492608
0.00263832 0.00199309 1.89256e-05
0.00199309 0.00100715 6.5315e-06
1.89256e-05 6.5315e-06 0.000321513
0.00174559 0.00117305 7.13395e-06
0.00117305 0.000794368 -5.33223e-05
7.13395e-06 -5.33223e-05 0.000412297
0.00249428 0.00375992 -0.000104273
0.00375992 0.000875598 -7.13986e-05
-0.000104273 -7.13986e-05 -0.000798234
0.00563837 0.00483502 0.000123471
0.00483502 0.00105888 4.00387e-05
0.000123471 4.00387e-05 -0.000130212
0.00796262 -0.000150521 -2.79654e-05
-0.000150521 -0.00708367 -7.78692e-06
-2.79654e-05 -7.78692e-06 -0.00802501
0.00176826 -0.00301037 -5.65046e-05
-0.00301037 0.00857866 6.06445e-05
-5.65046e-05 6.06445e-05 0.000800399
-0.0120078 0.000157714 0.00207709
0.000157714 0.00832022 5.33074e-05
0.00207709 5.33074e-05 0.00299847
0.00394774 -0.0058407 -0.000230772
-0.0058407 0.00112438 0.000146753
-0.000230772 0.000146753 -0.000809193
0.00703989 -0.00848729 -6.19453e-05
-0.00848729 -0.00107802 0.000153041
-6.19453e-05 0.000153041 0.000712597
0.0116814 0.00431529 0.00302246
0.00431529 0.00895966 -0.000237164
0.00302246 -0.000237164 0.00301946
0.0119952 -0.00723899 -0.000502447
-0.00723899 -0.00646645 0.000375658
-0.000502447 0.000375658 -0.00177822
0.00339262 -0.00384773 -4.07943e-05
-0.00384773 -0.000491595 1.65977e-05
-4.07943e-05 1.65977e-05 -0.000340301
0.0134314 -0.00163023 -0.00048204
-0.00163023 -0.00548164 0.00018034
-0.00048204 0.00018034 -0.00361773
0.00779047 -0.00561612 0.00011897
-0.00561612 -0.0029095 -1.38436e-05
0.00011897 -1.38436e-05 0.00061257
0.00388325 -0.00291822 7.43423e-05
-0.00291822 -0.00144269 -8.70847e-05
7.43423e-05 -8.70847e-05 -0.000180073
0.00439534 -0.00230791 0.000179113
-0.00230791 -0.00471015 -6.39091e-05
0.000179113 -6.39091e-05 8.26265e-05
0.00023843 -0.00161063 5.20762e-06
-0.00161063 -0.000973781 2.37688e-05
5.20762e-06 2.37688e-05 -0.00126132
0.00253525 -0.00161845 -3.5816e-05
-0.00161845 -0.000242185 1.18831e-05
-3.5816e-05 1.18831e-05 -0.000193012
0.00477837 -0.00144886 5.28598e-05
-0.00144886 0.000902017 -2.89962e-05
5.28598e-05 -2.89962e-05 0.00108087
0.00148654 -0.00159977 -3.48133e-06
-0.00159977 -0.000302046 1.04105e-05
-3.48133e-06 1.04105e-05 -0.00077897
0.00316746 -0.00144394 -5.88037e-06
-0.00144394 0.00020825 2.11917e-06
-5.88037e-06 2.11917e-06 6.36702e-05
0.00316069 -0.0010568 2.9242e-06
-0.0010568 -1.41785e-05 -1.28462e-06
2.9242e-06 -1.28462e-06 0.000126403
0.00306416 -0.00141922 -1.26663e-05
-0.00141922 0.000351421 9.76971e-06
-1.26663e-05 9.76971e-06 -1.9456e-05
0.0027492 -0.000972112 -3.42752e-07
-0.000972112 -7.8006e-05 1.21212e-06
-3.42752e-07 1.21212e-06 -4.26507e-05
0.00287117 -0.000924841 -1.81118e-06
-0.000924841 -1.80906e-05 -4.64047e-07
-1.81118e-06 -4.64047e-07 3.8313e-05
0.00250133 -0.000870917 3.35697e-06
-0.000870917 -5.73721e-05 5.03026e-06
3.35697e-06 5.03026e-06 -0.000169334
0.00271141 -0.000930247 -1.98219e-07
-0.000930247 6.4569e-05 5.65256e-07
-1.98219e-07 5.65256e-07 2.57975e-06
0.00279158 -0.000892929 -2.4281e-06
-0.000892929 5.08187e-05 -5.463e-07
-2.4281e-06 -5.463e-07 8.68627e-06
0.00263695 -0.000902851 -5.10271e-06
-0.000902851 9.70884e-05 4.57925e-07
-5.10271e-06 4.57925e-07 -2.54524e-05
0.00260067 -0.000848559 -1.18186e-06
-0.000848559 0.000124115 -1.02783e-06
-1.18186e-06 -1.02783e-06 -9.92817e-06
0.00254512 -0.000888357 5.31587e-07
-0.000888357 9.58517e-05 3.65508e-06
5.31587e-07 3.65508e-06 -2.60602e-05
0.00256752 -0.000853291 8.38284e-07
-0.000853291 0.000215465 -5.67527e-07
8.38284e-07 -5.67527e-07 3.73249e-05
0.00254026 -0.000836575 -2.42271e-06
-0.000836575 0.000275771 1.34078e-07
-2.42271e-06 1.34078e-07 3.98631e-05
0.00257824 -0.000877652 -1.34683e-06
-0.000877652 0.000374724 -4.29702e-06
-1.34683e-06 -4.29702e-06 2.43783e-05
0.00269594 -0.000855034 -2.33531e-07
-0.000855034 0.00038135 -2.56845e-07
-2.33531e-07 -2.56845e-07 7.56291e-05
0.00274031 -0.000814968 8.4659e-06
-0.000814968 0.000363711 2.32221e-06
8.4659e-06 2.32221e-06 0.000103801
0.00240365 -0.00103307 -1.02481e-06
-0.00103307 0.000391714 -5.10808e-06
-1.02481e-06 -5.10808e-06 -0.000158774
0.00243585 -0.00103226 -3.69708e-06
-0.00103226 0.000286932 -7.83268e-07
-3.69708e-06 -7.83268e-07 -0.000210767
0.00232926 -0.00104679 7.75725e-06
-0.00104679 0.000160282 3.6067e-06
7.75725e-06 3.6067e-06 -0.000339888
0.0013772 -0.00069375 -1.70259e-05
-0.00069375 0.000129713 1.44068e-06
-1.70259e-05 1.44068e-06 -0.000389784
0.00252561 -0.00122753 -1.72764e-06
-0.00122753 0.000614169 -3.94977e-07
-1.72764e-06 -3.94977e-07 -8.37231e-05
0.00309065 -0.00140614 1.0249e-05
-0.00140614 0.000864359 6.86132e-06
1.0249e-05 6.86132e-06 0.000123102
0.000180067 -0.000285922 -1.68183e-05
-0.000285922 -0.000302293 3.02025e-05
-1.68183e-05 3.02025e-05 -0.00054072
0.000941618 -0.000505471 4.83043e-06
-0.000505471 -1.98309e-05 4.54294e-07
4.83043e-06 4.54294e-07 -0.000465352
0.00275587 -0.0011662 9.8079e-07
-0.0011662 0.00102422 1.16942e-05
9.8079e-07 1.16942e-05 0.000286577
0.00819437 2.9903e-07 -0.000314817
2.9903e-07 0.00514509 2.98431e-05
-0.000314817 2.98431e-05 0.00515793
0.000388002 -0.000288673 -7.51121e-06
-0.000288673 -0.000156912 6.93013e-07
-7.51121e-06 6.93013e-07 -0.000365739
0.00136579 -0.000642975 5.16465e-06
-0.000642975 0.000520707 3.48114e-06
5.16465e-06 3.48114e-06 7.18237e-05
0.00763711 0.000104619 1.50682e-05
0.000104619 0.00481371 -4.41876e-06
1.50682e-05 -4.41876e-06 0.00480738
0.00110984 -0.000301145 3.16411e-05
-0.000301145 0.000295017 -2.53718e-05
3.16411e-05 -2.53718e-05 0.000128025
0.007171 0.00016331 0.00020895
0.00016331 0.00452998 -2.68714e-05
0.00020895 -2.68714e-05 0.00450972
0.0038141 0.00149793 -1.37643e-05
0.00149793 0.00183074 1.87652e-05
-1.37643e-05 1.87652e-05 0.000964613
0.00231792 0.000988149 -1.57535e-06
0.000988149 0.00106236 1.73008e-06
-1.57535e-06 1.73008e-06 0.000344721
-0.000990196 0.000478846 -9.89125e-06
0.000478846 -0.000938414 2.36449e-05
-9.89125e-06 2.36449e-05 -0.00150799
0.00043724 0.000369178 4.11369e-06
0.000369178 2.38519e-05 -1.00365e-05
4.11369e-06 -1.00365e-05 -0.000448043
-0.000281755 0.000466526 1.16839e-06
0.000466526 -0.000480531 -9.57112e-06
1.16839e-06 -9.57112e-06 -0.000875939
-0.000940718 0.000625477 -8.58683e-08
0.000625477 -0.000912398 2.76332e-06
-8.58683e-08 2.76332e-06 -0.00130468
0.000431231 0.000186266 -2.11882e-05
0.000186266 0.000126304 -1.15246e-05
-2.11882e-05 -1.15246e-05 -0.000327194
0.000589602 0.000496129 2.15068e-06
0.000496129 0.000190618 4.2954e-07
2.15068e-06 4.2954e-07 -0.000198126
0.00112708 0.000288921 -3.77273e-05
0.000288921 0.000367614 -2.90329e-05
-3.77273e-05 -2.90329e-05 0.000219796
0.00541354 -0.000136869 -0.000150481
-0.000136869 0.0033882 -2.71911e-05
-0.000150481 -2.71911e-05 0.00337348
0.000416911 0.000129801 4.76196e-06
0.000129801 1.88724e-05 -6.4377e-07
4.76196e-06 -6.4377e-07 -0.000115068
-0.000147328 0.000159845 -5.45393e-06
0.000159845 -0.000201008 2.20752e-05
-5.45393e-06 2.20752e-05 -0.000561892
0.00445473 -0.00014141 -1.68944e-05
-0.00014141 0.00273593 2.11198e-06
-1.68944e-05 2.11198e-06 0.00272209
-8.17945e-05 -5.89406e-05 -1.38214e-05
-5.89406e-05 -0.000261126 1.94504e-05
-1.38214e-05 1.94504e-05 -0.000372919
0.00374889 -0.000110262 5.3249e-05
-0.000110262 0.00225086 1.14882e-05
5.3249e-05 1.14882e-05 0.00224304
0.0160654 0.00127094 0.000934117
0.00127094 -0.00263096 0.000174603
0.000934117 0.000174603 0.00100074
0.00699451 -0.0104733 -0.0017758
-0.0104733 0.00513488 0.000127822
-0.0017758 0.000127822 -0.00681875
-0.000328483 -0.00181021 -0.00035548
-0.00181021 0.0101973 -5.92442e-05
-0.00035548 -5.92442e-05 6.04315e-05
2.0486e-05 0.000196895 8.99262e-06
0.000196895 0.000110226 -1.08877e-05
8.99262e-06 -1.08877e-05 -0.000664336
0.00178506 0.00112605 3.26988e-05
0.00112605 0.000839279 -2.30683e-05
3.26988e-05 -2.30683e-05 -2.33283e-05
0.00264862 0.00134452 -9.92764e-06
0.00134452 0.00147137 -1.13987e-05
-9.92764e-06 -1.13987e-05 0.000566919
0.00227721 0.00147705 -3.96774e-06
0.00147705 0.000873557 -5.59946e-07
-3.96774e-06 -5.59946e-07 -7.82765e-06
0.00227405 0.00136664 2.18675e-05
0.00136664 0.000588797 2.86708e-05
2.18675e-05 2.86708e-05 -0.000146708
0.00176021 0.00165219 -2.20271e-05
0.00165219 0.000474841 1.5783e-05
-2.20271e-05 1.5783e-05 -0.00033884
0.00294289 0.00122859 -2.49897e-06
0.00122859 0.00166244 -1.3858e-05
-2.49897e-06 -1.3858e-05 0.000841411
0.00243109 0.00173014 4.03728e-06
0.00173014 0.000899098 3.68482e-06
4.03728e-06 3.68482e-06 5.32019e-05
0.003321 0.00165925 3.745e-05
0.00165925 0.00158017 1.1254e-05
3.745e-05 1.1254e-05 0.000808944
0.0034287 0.00169849 1.78584e-06
0.00169849 0.00136278 1.07246e-05
1.78584e-06 1.07246e-05 0.000555572
0.00109169 0.00159709 -3.35681e-06
0.00159709 -0.000142731 2.94439e-06
-3.35681e-06 2.94439e-06 -0.000725183
0.00501871 0.00247891 1.77077e-05
0.00247891 0.00172091 2.91515e-05
1.77077e-05 2.91515e-05 0.000838836
0.00308496 0.00226206 1.74097e-05
0.00226206 0.000758821 4.46662e-06
1.74097e-05 4.46662e-06 7.82335e-05
0.00237006 0.00138846 -3.87431e-05
0.00138846 0.00107245 -0.000115032
-3.87431e-05 -0.000115032 0.000427998
0.00598049 0.00460634 4.28014e-05
0.00460634 -0.0051653 0.000102002
4.28014e-05 0.000102002 0.000298916
0.0130832 0.00978788 0.000714447
0.00978788 -0.00663166 0.000316485
0.000714447 0.000316485 -0.00287938
0.0230767 -0.0114084 0.00182576
-0.0114084 0.0144276 -0.000715144
0.00182576 -0.000715144 0.00161545
0.00264241 0.0149519 0.00173532
0.0149519 -0.00469837 0.000545844
0.00173532 0.000545844 -0.0050086
-0.000795139 0.00430703 2.99734e-07
0.00430703 0.000646449 4.80411e-05
2.99734e-07 4.80411e-05 0.000279719
0.0035159 0.00536709 -0.000157784
0.00536709 -0.00192163 -0.000138729
-0.000157784 -0.000138729 0.000214999
0.00775023 0.00438005 5.15672e-05
0.00438005 0.000814981 2.49263e-05
5.15672e-05 2.49263e-05 0.000688578
0.00595771 0.00321338 1.80429e-05
0.00321338 0.00198532 1.0782e-05
1.80429e-05 1.0782e-05 0.00115559
0.00153186 0.00175522 -7.58463e-06
0.00175522 0.000420581 -3.89627e-05
-7.58463e-06 -3.89627e-05 -0.000203441
0.00889099 0.00517836 -0.000157189
0.00517836 0.00248189 0.000100708
-0.000157189 0.000100708 0.00105303
0.00648974 -0.00100107 0.000268696
-0.00100107 -0.00447836 8.38513e-05
0.000268696 8.38513e-05 0.000393264
0.0170948 -0.000333163 5.10467e-05
-0.000333163 -0.00249198 -6.22002e-05
5.10467e-05 -6.22002e-05 0.000406489
-0.00625503 -0.00535837 0.00245432
-0.00535837 0.00428788 -0.000207256
0.00245432 -0.000207256 -0.00727249
0.00374066 -0.00381174 -0.000176031
-0.00381174 -0.000298686 9.89097e-05
-0.000176031 9.89097e-05 -7.33089e-05
0.00755767 -0.00574767 -0.000194032
-0.00574767 -0.00337041 0.00021973
-0.000194032 0.00021973 0.000646683
0.00262118 -0.00119837 -0.00059274
-0.00119837 -0.0136576 6.55374e-05
-0.00059274 6.55374e-05 -0.0096563
0.0042375 -0.00281552 5.6607e-05
-0.00281552 -0.0011734 -1.67263e-06
5.6607e-05 -1.67263e-06 0.000200093
0.0052366 -0.00230691 -0.00011773
-0.00230691 -0.00387501 3.07616e-05
-0.00011773 3.07616e-05 -5.9609e-05
0.00582848 -0.00190153 6.94332e-05
-0.00190153 8.672e-06 -7.25456e-05
6.94332e-05 -7.25456e-05 0.0011856
0.0100864 -0.00158517 0.00021274
-0.00158517 0.00164366 3.81567e-06
0.00021274 3.81567e-06 0.00345444
-0.00143847 -0.00119453 4.88812e-05
-0.00119453 -0.00277552 1.53332e-05
4.88812e-05 1.53332e-05 -0.00217024
0.00280691 -0.00125667 -1.77554e-05
-0.00125667 -0.000361924 2.67394e-06
-1.77554e-05 2.67394e-06 9.42372e-05
0.00302474 -0.000868292 3.34238e-05
-0.000868292 -0.000323133 -1.7944e-05
3.34238e-05 -1.7944e-05 0.000163605
0.00264733 -0.00141627 -2.48117e-06
-0.00141627 -9.99729e-05 3.77749e-06
-2.48117e-06 3.77749e-06 -0.00023255
0.00312251 -0.00105524 3.08645e-07
-0.00105524 -3.08458e-05 8.52376e-07
3.08645e-07 8.52376e-07 0.000112426
0.00299045 -0.000859735 -1.81121e-06
-0.000859735 -0.000118846 -9.74444e-07
-1.81121e-06 -9.74444e-07 7.11879e-07
0.00268751 -0.000968229 8.28402e-07
-0.000968229 -0.000118242 2.89937e-06
8.28402e-07 2.89937e-06 -8.49577e-05
0.00284234 -0.000922981 -7.78268e-08
-0.000922981 -2.72525e-05 1.6745e-07
-7.78268e-08 1.6745e-07 2.02932e-05
0.00275858 -0.000767556 -2.31482e-06
-0.000767556 -6.74805e-05 -6.13424e-07
-2.31482e-06 -6.13424e-07 -2.87717e-05
0.00270818 -0.000923277 1.83165e-06
-0.000923277 7.26796e-05 1.39523e-06
1.83165e-06 1.39523e-06 1.09218e-05
0.00278172 -0.000893774 -2.27792e-07
-0.000893774 6.97555e-05 -2.75431e-07
-2.27792e-07 -2.75431e-07 1.93591e-05
0.00270256 -0.000768354 9.81558e-07
-0.000768354 9.23423e-05 -1.18553e-06
9.81558e-07 -1.18553e-06 3.62053e-05
0.00258865 -0.000901503 -1.55096e-06
-0.000901503 6.08286e-05 1.5897e-06
-1.55096e-06 1.5897e-06 -5.1305e-05
0.00257212 -0.000853269 -1.41207e-06
-0.000853269 9.61263e-05 3.14989e-07
-1.41207e-06 3.14989e-07 -3.38714e-05
0.00253354 -0.000786271 -1.54724e-06
-0.000786271 0.000179862 -1.72012e-07
-1.54724e-06 -1.72012e-07 9.03614e-06
0.00257106 -0.00085218 3.30826e-06
-0.00085218 0.000215084 9.79455e-07
3.30826e-06 9.79455e-07 4.43616e-05
0.00252434 -0.000828217 4.12756e-07
-0.000828217 0.000260981 -3.53351e-07
4.12756e-07 -3.53351e-07 3.1213e-05
0.00257316 -0.000831234 -1.16408e-06
-0.000831234 0.000342048 -3.64692e-07
-1.16408e-06 -3.64692e-07 5.2731e-05
0.00222215 -0.000831757 2.81944e-06
-0.000831757 0.000227315 -7.58131e-06
2.81944e-06 -7.58131e-06 -0.000173188
0.00252241 -0.000875298 4.68378e-08
-0.000875298 0.000333501 -1.5797e-06
4.68378e-08 -1.5797e-06 -2.82484e-05
0.00273709 -0.000853573 5.69307e-06
-0.000853573 0.000410589 7.14006e-07
5.69307e-06 7.14006e-07 9.72835e-05
0.00141738 -0.000699153 -1.94751e-05
-0.000699153 -1.17628e-05 3.61236e-07
-1.94751e-05 3.61236e-07 -0.000478465
0.00259163 -0.00103936 -3.64393e-07
-0.00103936 0.000536529 5.27144e-07
-3.64393e-07 5.27144e-07 -1.27928e-05
0.00249719 -0.00105863 2.35655e-06
-0.00105863 0.000312211 4.73123e-06
2.35655e-06 4.73123e-06 -0.000198449
0.000147028 -0.000308522 -1.97875e-05
-0.000308522 -0.000359008 3.05566e-05
-1.97875e-05 3.05566e-05 -0.000605033
0.00118068 -0.000668202 2.7304e-06
-0.000668202 2.97956e-05 1.58121e-06
2.7304e-06 1.58121e-06 -0.000488608
0.00304609 -0.00128022 1.12511e-06
-0.00128022 0.000994255 7.83929e-06
1.12511e-06 7.83929e-06 0.000281165
0.00932929 -0.000115461 -0.000393605
-0.000115461 0.00584897 4.26127e-05
-0.000393605 4.26127e-05 0.00586756
5.32522e-06 -0.000297827 2.93606e-06
-0.000297827 -0.000409599 1.00099e-06
2.93606e-06 1.00099e-06 -0.000653728
0.00120964 -0.000535366 1.04536e-05
-0.000535366 0.000194441 3.27526e-06
1.04536e-05 3.27526e-06 -0.000274279
0.00870889 -2.05287e-05 -2.73272e-05
-2.05287e-05 0.00549729 -7.98709e-07
-2.73272e-05 -7.98709e-07 0.00550089
0.000528481 -0.000288079 1.60657e-05
-0.000288079 -7.28395e-05 -3.16197e-05
1.60657e-05 -3.16197e-05 -0.000286705
0.00783007 5.59084e-05 0.000309016
5.59084e-05 0.00496586 -4.61448e-05
0.000309016 -4.61448e-05 0.00495802
0.00243608 0.00124257 -1.13348e-05
0.00124257 0.000641115 2.03235e-05
-1.13348e-05 2.03235e-05 -6.23249e-05
0.00277499 0.00133705 2.79092e-06
0.00133705 0.00118085 4.78383e-07
2.79092e-06 4.78383e-07 0.000364333
0.00265483 0.00109834 4.2013e-06
0.00109834 0.00106615 2.00462e-05
4.2013e-06 2.00462e-05 0.000349951
0.00143881 0.000932444 3.23938e-05
0.000932444 0.000524918 -1.53338e-05
3.23938e-05 -1.53338e-05 -0.000197229
0.00118238 0.00062149 -6.68102e-07
0.00062149 0.000276979 -1.44285e-06
-6.68102e-07 -1.44285e-06 -0.00027366
0.000123835 0.000451141 -4.55376e-06
0.000451141 -0.000200422 1.5517e-06
-4.55376e-06 1.5517e-06 -0.00070016
0.00353841 0.000441555 -3.48759e-06
0.000441555 0.00192964 -2.28594e-05
-3.48759e-06 -2.28594e-05 0.00152763
0.00167251 0.000390697 7.7362e-06
0.000390697 0.000763427 -3.99118e-06
7.7362e-06 -3.99118e-06 0.000401147
0.000249191 0.000297096 -3.55931e-05
0.000297096 -0.000243676 -3.22211e-05
-3.55931e-05 -3.22211e-05 -0.000422861
0.00122334 0.000318957 -5.95926e-06
0.000318957 0.000607103 1.49747e-05
-5.95926e-06 1.49747e-05 0.000231014
0.000508517 0.000264115 -6.85101e-06
0.000264115 1.45363e-06 -6.86907e-07
-6.85101e-06 -6.86907e-07 -0.000150071
0.0067917 -0.000157628 -0.000216247
-0.000157628 0.00432826 -3.97614e-05
-0.000216247 -3.97614e-05 0.00429679
0.00474105 -0.000164163 -2.62567e-05
-0.000164163 0.00294529 3.08528e-06
-2.62567e-05 3.08528e-06 0.00292174
-1.073e-05 0.000213688 3.03361e-05
0.000213688 -0.000265771 2.65516e-05
3.03361e-05 2.65516e-05 -0.000385207
0.00376409 -0.000125532 6.76123e-05
-0.000125532 0.00227208 1.25174e-05
6.76123e-05 1.25174e-05 0.0022603
0.00180687 0.00139813 0.000215409
0.00139813 -0.00485779 6.92224e-05
0.000215409 6.92224e-05 -0.000385889
0.00352843 0.000858225 0.000323357
0.000858225 -0.0107722 0.00021666
0.000323357 0.00021666 -0.00975322
0.0220579 -0.0120025 -0.000424419
-0.0120025 0.0176494 -0.000203327
-0.000424419 -0.000203327 0.00311391
0.00229097 0.00111482 1.36394e-05
0.00111482 0.000320623 1.68378e-05
1.36394e-05 1.68378e-05 -0.000208252
0.00291441 0.00131278 2.73299e-05
0.00131278 0.0014797 -1.46143e-05
2.73299e-05 -1.46143e-05 0.000635557
0.0016546 0.00142191 9.6437e-06
0.00142191 0.00048619 -2.43706e-05
9.6437e-06 -2.43706e-05 -0.00039444
0.00257367 0.00174686 3.7383e-06
0.00174686 0.000953324 2.10748e-06
3.7383e-06 2.10748e-06 0.000102713
0.00255019 0.00141367 1.22563e-06
0.00141367 0.000760224 3.62098e-06
1.22563e-06 3.62098e-06 6.98594e-06
0.00288825 0.0015537 5.60801e-06
0.0015537 0.000856171 1.60729e-05
5.60801e-06 1.60729e-05 0.000118135
0.00160979 0.00160208 1.46475e-05
0.00160208 0.000400903 -4.11463e-07
1.46475e-05 -4.11463e-07 -0.00041448
0.00155829 0.00134867 2.96349e-05
0.00134867 0.000620037 -5.63836e-05
2.96349e-05 -5.63836e-05 -8.79575e-05
0.00258296 0.00169901 8.13539e-07
0.00169901 0.000774897 -1.39694e-06
8.13539e-07 -1.39694e-06 6.90314e-06
0.00036235 0.0015632 1.11038e-05
0.0015632 -0.000637675 -3.27551e-05
1.11038e-05 -3.27551e-05 -0.00110581
0.00287348 0.00155522 1.03984e-05
0.00155522 0.000775265 1.27693e-06
1.03984e-05 1.27693e-06 1.82876e-05
0.00398494 0.00157186 7.54431e-05
0.00157186 0.00105509 0.000103224
7.54431e-05 0.000103224 0.000847429
0.00186656 0.00185688 -1.72693e-05
0.00185688 0.000124985 -2.18974e-05
-1.72693e-05 -2.18974e-05 -0.000497948
0.0023545 0.00201544 -2.79683e-05
0.00201544 0.000449955 -8.03522e-06
-2.79683e-05 -8.03522e-06 -0.000122981
0.00252788 0.00208193 1.99044e-05
0.00208193 -0.00279363 7.38125e-05
1.99044e-05 7.38125e-05 -0.000601299
0.00651567 0.00498055 -0.000198383
0.00498055 -0.00482481 -9.66589e-05
-0.000198383 -9.66589e-05 0.000715873
0.00309511 0.00740358 0.00133245
0.00740358 -0.0138169 0.000388617
0.00133245 0.000388617 -0.00973858
0.00192203 0.00507791 -0.000279988
0.00507791 -0.00182538 -0.000156514
-0.000279988 -0.000156514 -6.1826e-05
0.00586766 0.00354979 -2.50382e-05
0.00354979 0.000293572 -1.64224e-05
-2.50382e-05 -1.64224e-05 0.000537111
0.00924865 0.00389331 -0.000256137
0.00389331 0.0034112 -8.83131e-05
-0.000256137 -8.83131e-05 0.00241928
0.00590464 9.68192e-05 -3.24079e-05
9.68192e-05 -0.00138608 -2.60146e-05
-3.24079e-05 -2.60146e-05 0.000437932
0.00297804 -0.000274313 8.29645e-05
-0.000274313 -0.00397668 2.98493e-05
8.29645e-05 2.98493e-05 -0.000211194
0.0105461 -0.000287039 0.000160422
-0.000287039 -0.00684565 -3.40388e-05
0.000160422 -3.40388e-05 -0.00720133
0.00376379 -0.00263793 -9.29024e-05
-0.00263793 -0.00128194 0.000147445
-9.29024e-05 0.000147445 6.12718e-05
0.00428911 -0.00232384 -0.000259282
-0.00232384 -0.00501407 0.00012332
-0.000259282 0.00012332 -0.00136523
0.00414676 -0.00168729 -2.50914e-06
-0.00168729 -0.000882909 1.18724e-05
-2.50914e-06 1.18724e-05 0.000394929
0.00518923 -0.00121484 -9.2679e-05
-0.00121484 -0.000926241 2.31277e-06
-9.2679e-05 2.31277e-06 0.000747468
0.00408019 -0.000776212 0.000131225
-0.000776212 0.000147951 -3.53492e-05
0.000131225 -3.53492e-05 0.000702591
0.00342934 -0.000176488 7.96608e-05
-0.000176488 -0.000237903 -7.74054e-06
7.96608e-05 -7.74054e-06 0.000352431
0.00127405 -0.0010638 -1.86569e-05
-0.0010638 -0.00124926 2.00109e-05
-1.86569e-05 2.00109e-05 -0.00059918
0.00295995 -0.000895468 -6.10223e-06
-0.000895468 -0.000328216 1.5812e-06
-6.10223e-06 1.5812e-06 9.57972e-05
0.0029815 -0.000635379 4.19071e-06
-0.000635379 -0.000269579 -3.53845e-06
4.19071e-06 -3.53845e-06 6.5107e-05
0.00306619 -0.00105065 -1.8201e-06
-0.00105065 -5.14453e-05 1.73131e-06
-1.8201e-06 1.73131e-06 9.17112e-05
0.00298517 -0.000833138 -3.36474e-07
-0.000833138 -8.0212e-05 -3.22511e-07
-3.36474e-07 -3.22511e-07 4.75939e-05
0.00274811 -0.000617453 -2.23502e-06
-0.000617453 -0.000204514 -2.90405e-07
-2.23502e-06 -2.90405e-07 -4.05215e-05
0.00281018 -0.000919282 5.6294e-07
-0.000919282 -3.3928e-05 6.77301e-07
5.6294e-07 6.77301e-07 3.55117e-06
0.00273732 -0.00076919 -4.93023e-07
-0.00076919 -6.59494e-05 -5.0362e-09
-4.93023e-07 -5.0362e-09 -2.47636e-05
0.00263647 -0.000633901 3.89943e-07
-0.000633901 -6.27412e-06 -7.37731e-07
3.89943e-07 -7.37731e-07 4.07924e-06
0.00277239 -0.000893414 7.5491e-07
-0.000893414 9.09327e-05 9.97644e-07
7.5491e-07 9.97644e-07 3.16511e-05
0.00269997 -0.000768706 9.779e-07
-0.000768706 8.74081e-05 -5.96983e-08
9.779e-07 -5.96983e-08 3.04907e-05
0.00252424 -0.000682478 5.45791e-07
-0.000682478 9.61718e-05 -5.4224e-07
5.45791e-07 -5.4224e-07 5.314e-06
0.00254805 -0.000858639 -1.01548e-06
-0.000858639 7.14419e-05 1.87212e-06
-1.01548e-06 1.87212e-06 -5.50004e-05
0.00249893 -0.000789965 -9.92376e-07
-0.000789965 0.000144033 3.04371e-07
-9.92376e-07 3.04371e-07 -2.11186e-05
0.00249499 -0.000754629 -2.06607e-06
-0.000754629 0.000216626 -1.44849e-07
-2.06607e-06 -1.44849e-07 4.07807e-06
0.00251342 -0.000820213 3.40081e-06
-0.000820213 0.000248972 -4.14138e-07
3.40081e-06 -4.14138e-07 2.56527e-05
0.00253711 -0.000827328 -2.70955e-08
-0.000827328 0.000314717 6.9108e-07
-2.70955e-08 6.9108e-07 2.99674e-05
0.00248528 -0.000770633 -6.57525e-07
-0.000770633 0.000375705 -3.71482e-06
-6.57525e-07 -3.71482e-06 4.27265e-05
0.00182943 -0.000633736 -2.00532e-05
-0.000633736 0.000213361 3.91761e-06
-2.00532e-05 3.91761e-06 -0.000178555
0.00233318 -0.000842503 4.01314e-07
-0.000842503 0.000313098 -1.94786e-06
4.01314e-07 -1.94786e-06 -9.71032e-05
0.00247548 -0.00087321 -4.66674e-07
-0.00087321 0.000296575 3.24183e-06
-4.66674e-07 3.24183e-06 -7.62685e-05
0.000110207 -0.000353402 -1.98881e-05
-0.000353402 -0.000413072 2.68622e-05
-1.98881e-05 2.68622e-05 -0.000672678
0.00172519 -0.000716352 -1.42871e-06
-0.000716352 0.000197708 8.9558e-08
-1.42871e-06 8.9558e-08 -0.000267744
0.00275522 -0.00104607 -2.78937e-06
-0.00104607 0.000659889 7.64802e-06
-2.78937e-06 7.64802e-06 0.000111139
0.0100582 -0.000180326 -0.00045818
-0.000180326 0.00629733 5.10607e-05
-0.00045818 5.10607e-05 0.00632425
4.00421e-05 -0.000350352 -6.21821e-07
-0.000350352 -0.000408191 1.61611e-06
-6.21821e-07 1.61611e-06 -0.000673706
0.00164341 -0.000706147 2.04112e-05
-0.000706147 0.000330384 1.08843e-06
2.04112e-05 1.08843e-06 -0.000190215
0.00959666 -0.000144793 -7.44634e-06
-0.000144793 0.00602813 1.84018e-06
-7.44634e-06 1.84018e-06 0.00604814
-0.000274762 -0.000342844 2.32416e-05
-0.000342844 -0.000581803 -3.36854e-05
2.32416e-05 -3.36854e-05 -0.000832848
0.00903408 -5.26372e-05 0.000382801
-5.26372e-05 0.00570845 -5.43708e-05
0.000382801 -5.43708e-05 0.00571475
0.00225098 0.00104819 -3.13277e-06
0.00104819 0.000330612 1.69507e-05
-3.13277e-06 1.69507e-05 -0.000203176
0.00249554 0.00122493 -1.44232e-06
0.00122493 0.000716397 2.38093e-06
-1.44232e-06 2.38093e-06 2.16849e-05
0.0027874 0.0011809 2.22603e-05
0.0011809 0.000898763 2.48686e-05
2.22603e-05 2.48686e-05 0.000213087
0.00215362 0.00122368 5.68406e-06
0.00122368 0.000819775 -2.02445e-05
5.68406e-06 -2.02445e-05 3.66068e-05
0.0025497 0.00109883 5.51564e-06
0.00109883 0.000993126 2.78322e-06
5.51564e-06 2.78322e-06 0.000272616
0.000763608 0.000507922 -3.77557e-05
0.000507922 -0.000110131 4.98242e-06
-3.77557e-05 4.98242e-06 -0.000597398
0.0026039 0.000779981 2.68715e-06
0.000779981 0.00115867 -1.44911e-05
2.68715e-06 -1.44911e-05 0.000569316
0.000570759 0.000412536 1.16835e-06
0.000412536 -2.12593e-05 -1.28997e-06
1.16835e-06 -1.28997e-06 -0.00044303
0.000185747 0.000313045 -3.94038e-05
0.000313045 -0.000318607 -3.46404e-05
-3.94038e-05 -3.46404e-05 -0.00050256
0.00142745 0.000507307 2.66197e-07
0.000507307 0.0005951 -6.90311e-06
2.66197e-07 -6.90311e-06 0.000227873
0.00075193 0.000315961 6.78661e-06
0.000315961 6.80874e-05 -1.56912e-06
6.78661e-06 -1.56912e-06 -9.58229e-05
0.0084173 -0.000253019 -0.000243314
-0.000253019 0.00544167 -4.82282e-05
-0.000243314 -4.82282e-05 0.00537575
0.000407371 0.000245492 3.15564e-05
0.000245492 -4.22581e-05 3.14026e-05
3.15564e-05 3.14026e-05 -0.000197298
0.00646848 -0.000234837 -2.4956e-05
-0.000234837 0.00413729 2.51446e-06
-2.4956e-05 2.51446e-06 0.00408701
0.00494243 -0.000200284 8.0564e-05
-0.000200284 0.00309096 1.80467e-05
8.0564e-05 1.80467e-05 0.00305753
0.000724854 0.00109619 4.52103e-05
0.00109619 -0.00437881 7.57517e-05
4.52103e-05 7.57517e-05 -0.00141574
0.00625158 0.00144367 7.97317e-05
0.00144367 -0.00404588 2.94523e-05
7.97317e-05 2.94523e-05 0.000929346
0.0180987 0.00139077 3.70813e-05
0.00139077 -0.00233419 0.000228861
3.70813e-05 0.000228861 0.00155907
0.00257342 0.00123711 -9.83356e-07
0.00123711 0.0003991 7.23682e-06
-9.83356e-07 7.23682e-06 -0.000134858
0.00278738 0.00115821 3.7484e-06
0.00115821 0.000371325 6.06476e-06
3.7484e-06 6.06476e-06 -2.52397e-05
0.00238348 0.00113321 -1.17409e-06
0.00113321 0.000378536 -4.07378e-06
-1.17409e-06 -4.07378e-06 -0.000149304
0.00329893 0.00181969 2.9171e-05
0.00181969 0.00138136 -7.05241e-06
2.9171e-05 -7.05241e-06 0.000507137
0.00269921 0.00143877 -1.04658e-05
0.00143877 0.000851274 -1.86561e-05
-1.04658e-05 -1.86561e-05 8.81544e-05
0.00300733 0.00161205 8.51557e-06
0.00161205 0.000878867 2.6343e-06
8.51557e-06 2.6343e-06 0.000128165
0.00351308 0.00149379 -1.7061e-05
0.00149379 0.000665412 -1.11621e-06
-1.7061e-05 -1.11621e-06 0.000201909
0.00228572 0.00176206 1.49586e-05
0.00176206 0.000526717 -8.2417e-06
1.49586e-05 -8.2417e-06 -0.000244402
0.0025884 0.00194757 1.00938e-05
0.00194757 0.000629318 0.000104437
1.00938e-05 0.000104437 -1.58089e-05
0.00282152 0.00166577 7.4783e-06
0.00166577 0.000652331 -3.47316e-06
7.4783e-06 -3.47316e-06 -0.000124095
0.00370299 0.00143855 3.85097e-06
0.00143855 0.000588312 3.8439e-05
3.85097e-06 3.8439e-05 0.000370097
0.00288006 0.000768729 0.000102403
0.000768729 0.000241928 1.32769e-05
0.000102403 1.32769e-05 0.000570589
0.000661088 0.00115446 -1.22062e-05
0.00115446 -0.000755664 -3.88551e-05
-1.22062e-05 -3.88551e-05 -0.000785721
0.00109869 0.00168119 -4.49825e-05
0.00168119 -0.00019375 5.95331e-06
-4.49825e-05 5.95331e-06 -0.00080051
0.0052201 0.00231513 6.23094e-05
0.00231513 -0.00117114 1.95846e-05
6.23094e-05 1.95846e-05 0.000852013
0.00975641 0.00481772 -0.000112059
0.00481772 -0.00244871 -9.3667e-05
-0.000112059 -9.3667e-05 0.00192139
0.00704578 0.00317267 -0.0001554
0.00317267 0.00150824 -0.000130488
-0.0001554 -0.000130488 0.00176856
0.00383793 7.85879e-05 0.000127305
7.85879e-05 3.031e-06 9.64449e-06
0.000127305 9.64449e-06 0.000619407
0.00474646 -0.000168341 -0.000186034
-0.000168341 -0.00273734 1.28665e-05
-0.000186034 1.28665e-05 -0.000209847
0.00546069 0.000261695 -0.00010279
0.000261695 -0.00314088 -5.77579e-05
-0.00010279 -5.77579e-05 0.000521822
0.00378794 -0.00165363 -0.000172144
-0.00165363 -0.00100878 0.000118874
-0.000172144 0.000118874 0.000240319
0.000577818 -0.00101139 -0.000111769
-0.00101139 -0.00352435 3.01313e-05
-0.000111769 3.01313e-05 -0.00183847
0.00389023 -0.000753493 1.53387e-05
-0.000753493 -1.08867e-06 -1.12202e-05
1.53387e-05 -1.12202e-05 0.000649497
0.00284067 -0.00018318 -2.40413e-05
-0.00018318 -0.000553016 -2.19611e-06
-2.40413e-05 -2.19611e-06 4.19357e-05
0.00296872 -0.000426936 1.13971e-05
-0.000426936 -0.000456054 -8.66819e-06
1.13971e-05 -8.66819e-06 1.8066e-05
0.00263543 0.000164851 1.14357e-05
0.000164851 -0.000722831 -4.20895e-06
1.14357e-05 -4.20895e-06 -0.000295036
0.00294276 -0.000932175 -2.31775e-05
-0.000932175 -0.000321975 1.35442e-05
-2.31775e-05 1.35442e-05 4.73983e-05
0.00298162 -0.000664577 -3.41633e-06
-0.000664577 -0.000303306 8.01653e-07
-3.41633e-06 8.01653e-07 7.95419e-06
0.00284082 -0.000465829 -2.10803e-06
-0.000465829 -0.000265333 -2.60859e-07
-2.10803e-06 -2.60859e-07 1.91733e-05
0.00298561 -0.000806485 -1.18825e-06
-0.000806485 -4.43143e-05 6.04332e-07
-1.18825e-06 6.04332e-07 9.6535e-05
0.00274698 -0.00062208 3.41444e-07
-0.00062208 -0.000199129 -2.07497e-07
3.41444e-07 -2.07497e-07 -4.13689e-05
0.0026521 -0.000511557 3.9611e-07
-0.000511557 -0.000111905 -1.06097e-07
3.9611e-07 -1.06097e-07 1.12756e-05
0.00271813 -0.000771485 2.55305e-07
-0.000771485 -6.46319e-05 9.68964e-07
2.55305e-07 9.68964e-07 -2.03957e-05
0.00263542 -0.00063188 3.70092e-07
-0.00063188 -1.35377e-05 -1.58279e-07
3.70092e-07 -1.58279e-07 -2.77451e-06
0.00249202 -0.000559992 8.49793e-07
-0.000559992 2.27594e-05 -4.42162e-07
8.49793e-07 -4.42162e-07 -5.65176e-06
0.00269718 -0.000769355 1.65189e-06
-0.000769355 8.2018e-05 8.92533e-07
1.65189e-06 8.92533e-07 2.42958e-05
0.00252244 -0.000682589 5.7618e-07
-0.000682589 9.04799e-05 -1.18514e-07
5.7618e-07 -1.18514e-07 -5.98643e-07
0.00242828 -0.000634003 -2.83869e-06
-0.000634003 0.000138038 3.21815e-07
-2.83869e-06 3.21815e-07 -1.05222e-06
0.00246511 -0.000793973 4.18733e-07
-0.000793973 0.000108627 8.44906e-07
4.18733e-07 8.44906e-07 -5.09613e-05
0.00251377 -0.00076225 3.94572e-07
-0.00076225 0.000226536 -2.1127e-07
3.94572e-07 -2.1127e-07 1.3335e-05
0.00245281 -0.000711879 -1.36779e-06
-0.000711879 0.000288423 -1.83715e-06
-1.36779e-06 -1.83715e-06 9.75234e-06
0.00250056 -0.000824131 7.739e-07
-0.000824131 0.000288298 1.11661e-06
7.739e-07 1.11661e-06 7.44866e-06
0.00242684 -0.000769735 -3.55579e-07
-0.000769735 0.000334659 -3.04201e-08
-3.55579e-07 -3.04201e-08 2.48641e-06
0.00173188 -0.00054007 -1.38009e-05
-0.00054007 0.000124054 3.43594e-06
-1.38009e-05 3.43594e-06 -0.000200477
0.0002833 -0.000319081 -1.76653e-05
-0.000319081 -0.000336933 2.24556e-05
-1.76653e-05 2.24556e-05 -0.000572032
0.00180223 -0.000630512 -3.02213e-08
-0.000630512 0.000195226 1.23238e-07
-3.02213e-08 1.23238e-07 -0.000194711
0.00245446 -0.000855368 -4.25228e-06
-0.000855368 0.000405987 5.15463e-06
-4.25228e-06 5.15463e-06 -1.47613e-05
0.0100367 -0.00025663 -0.000485681
-0.00025663 0.00626881 5.54927e-05
-0.000485681 5.54927e-05 0.0062987
0.000230754 -0.000357519 -4.48758e-07
-0.000357519 -0.000348909 1.84519e-06
-4.48758e-07 1.84519e-06 -0.000602579
0.00192674 -0.000712082 1.92596e-05
-0.000712082 0.000336813 -1.91008e-06
1.92596e-05 -1.91008e-06 -0.000121969
0.0101498 -0.000210907 -4.87645e-06
-0.000210907 0.00635792 3.01714e-06
-4.87645e-06 3.01714e-06 0.0063838
8.65885e-05 -0.000365337 2.05467e-05
-0.000365337 -0.000382825 -3.04646e-05
2.05467e-05 -3.04646e-05 -0.000652836
0.0100866 -0.000191468 0.000460068
-0.000191468 0.00634181 -5.83442e-05
0.000460068 -5.83442e-05 0.00636328
0.00247658 0.0010745 4.61644e-06
0.0010745 0.000332373 1.27593e-05
4.61644e-06 1.27593e-05 -0.000118816
0.00233897 0.00105398 2.37702e-06
0.00105398 0.000401073 -8.55046e-07
2.37702e-06 -8.55046e-07 -0.000129147
0.00266857 0.00105002 1.55916e-05
0.00105002 0.000682607 2.10829e-05
1.55916e-05 2.10829e-05 0.000117095
0.00246785 0.00119977 1.14711e-05
0.00119977 0.00072986 -1.54992e-05
1.14711e-05 -1.54992e-05 4.53232e-05
0.00237395 0.00112084 9.15005e-07
0.00112084 0.000620813 6.62153e-07
9.15005e-07 6.62153e-07 -4.60757e-05
0.0014528 0.000647258 -5.0821e-05
0.000647258 0.000211902 2.23503e-06
-5.0821e-05 2.23503e-06 -0.000282514
0.00255629 0.0010913 -3.10439e-05
0.0010913 0.000905197 -2.42095e-05
-3.10439e-05 -2.42095e-05 0.000204609
0.000841554 0.000481058 -2.07467e-06
0.000481058 -9.91165e-06 1.15065e-06
-2.07467e-06 1.15065e-06 -0.000487512
-0.000227886 0.000307578 -3.2583e-05
0.000307578 -0.000549809 -3.56538e-05
-3.2583e-05 -3.56538e-05 -0.000767651
0.00166539 0.000274792 4.31849e-06
0.000274792 0.000590641 -7.26617e-07
4.31849e-06 -7.26617e-07 0.000239997
0.000264834 0.000287624 5.0901e-06
0.000287624 -0.000263392 -1.1555e-07
5.0901e-06 -1.1555e-07 -0.000447485
0.00885122 -9.6835e-05 -0.000312613
-9.6835e-05 0.00562288 -4.40854e-05
-0.000312613 -4.40854e-05 0.00560714
0.00060714 0.000314136 4.38211e-05
0.000314136 -1.06601e-05 3.22183e-05
4.38211e-05 3.22183e-05 -0.000171155
0.00785937 -0.000179543 3.02437e-06
-0.000179543 0.00501811 -3.8815e-06
3.02437e-06 -3.8815e-06 0.00498336
0.00579983 -0.000262502 0.00011024
-0.000262502 0.00370041 2.7911e-05
0.00011024 2.7911e-05 0.00364187
0.00187129 0.000559235 7.23759e-05
0.000559235 -0.00085387 4.64366e-05
7.23759e-05 4.64366e-05 -0.000138884
0.00150491 0.00124313 5.30635e-05
0.00124313 -0.00427973 -1.31749e-05
5.30635e-05 -1.31749e-05 -0.00141453
0.00649523 0.00242455 0.000302693
0.00242455 -0.00411222 0.000156174
0.000302693 0.000156174 0.00131873
0.00295587 0.00119975 -6.57545e-06
0.00119975 0.000355218 -1.25954e-06
-6.57545e-06 -1.25954e-06 1.15818e-05
0.00272013 0.00127756 -1.03845e-05
0.00127756 0.000485202 -3.80413e-06
-1.03845e-05 -3.80413e-06 -5.52657e-05
0.00264422 0.00087205 6.19893e-06
0.00087205 0.000165795 1.59277e-06
6.19893e-06 1.59277e-06 -3.52191e-05
0.00276125 0.00114381 9.41185e-07
0.00114381 0.000350471 2.58099e-07
9.41185e-07 2.58099e-07 -3.20164e-05
0.00248184 0.00114708 -6.27696e-06
0.00114708 0.000446842 -1.68239e-05
-6.27696e-06 -1.68239e-05 -7.77151e-05
0.00310785 0.00104995 -6.49794e-06
0.00104995 0.000157343 7.75188e-07
-6.49794e-06 7.75188e-07 4.96565e-05
0.00307328 0.00166752 6.62096e-06
0.00166752 0.000872018 -7.22461e-06
6.62096e-06 -7.22461e-06 0.000109162
0.0032558 0.00140748 -3.1595e-07
0.00140748 0.000548223 -1.38857e-06
-3.1595e-07 -1.38857e-06 0.00011133
0.00246898 0.000658858 -4.49935e-06
0.000658858 -0.000455762 4.01403e-06
-4.49935e-06 4.01403e-06 -0.000170999
0.00236322 0.00172484 -5.13604e-06
0.00172484 0.000290516 2.0063e-05
-5.13604e-06 2.0063e-05 -0.000463696
0.00320304 0.0013688 3.10996e-06
0.0013688 0.000307519 -8.46967e-06
3.10996e-06 -8.46967e-06 0.000113591
0.000985456 0.000759824 -5.28902e-05
0.000759824 -0.00110527 -6.27256e-06
-5.28902e-05 -6.27256e-06 -0.000534395
-0.00363535 0.000665093 -1.26561e-05
0.000665093 -0.00309323 -2.53638e-05
-1.26561e-05 -2.53638e-05 -0.00293619
0.00661585 0.0024735 -0.000275579
0.0024735 -0.000342031 -0.000113718
-0.000275579 -0.000113718 0.00154917
0.00287092 0.000285729 7.89743e-06
0.000285729 -0.000397209 8.01684e-07
7.89743e-06 8.01684e-07 -1.81614e-06
0.00369076 9.75422e-05 -1.59467e-06
9.75422e-05 -0.000194945 -8.59178e-06
-1.59467e-06 -8.59178e-06 0.000452751
0.00327137 -0.000488059 -0.000260492
-0.000488059 -0.00375184 -2.95287e-05
-0.000260492 -2.95287e-05 -0.00108631
0.0032492 -0.000694905 -0.000149143
-0.000694905 -0.000423765 4.06026e-05
-0.000149143 4.06026e-05 0.000339973
0.0025762 -0.000205069 -3.14203e-05
-0.000205069 -0.000634427 6.42461e-06
-3.14203e-05 6.42461e-06 -6.53601e-05
0.00284492 -0.000457717 7.91737e-06
-0.000457717 -0.000577105 -9.63028e-07
7.91737e-06 -9.63028e-07 -4.48432e-05
0.00299751 0.000179914 -1.52142e-06
0.000179914 -0.000440167 2.32465e-06
-1.52142e-06 2.32465e-06 -5.05505e-05
0.0028504 -8.39013e-05 6.04991e-07
-8.39013e-05 -0.000361109 -2.46648e-06
6.04991e-07 -2.46648e-06 1.00516e-05
0.00294528 -0.000687192 -1.92718e-06
-0.000687192 -0.0003535 2.93568e-06
-1.92718e-06 2.93568e-06 -6.51482e-05
0.00277153 -0.000445534 3.69616e-07
-0.000445534 -0.000298201 -2.71165e-07
3.69616e-07 -2.71165e-07 -1.9239e-05
0.00266082 -0.000331262 5.04031e-07
-0.000331262 -0.000175322 -4.34816e-07
5.04031e-07 -4.34816e-07 3.79515e-05
0.00274532 -0.000626566 1.51023e-06
-0.000626566 -0.000192157 6.44131e-07
1.51023e-06 6.44131e-07 -4.21481e-05
0.0026357 -0.000510971 3.19524e-07
-0.000510971 -0.000118464 1.0523e-07
3.19524e-07 1.0523e-07 -4.91282e-07
0.00247303 -0.000430158 9.73927e-07
-0.000430158 -4.44329e-05 -2.34337e-07
9.73927e-07 -2.34337e-07 -2.23236e-06
0.00263567 -0.000629733 2.63372e-07
-0.000629733 -2.00984e-05 3.65727e-07
2.63372e-07 3.65727e-07 -8.93419e-06
0.00248805 -0.000559944 2.64971e-07
-0.000559944 1.72402e-05 -3.43815e-08
2.64971e-07 -3.43815e-08 -1.12696e-05
0.00237465 -0.000506848 -3.1384e-06
-0.000506848 7.54409e-05 7.10761e-07
-3.1384e-06 7.10761e-07 -2.30162e-06
0.00252098 -0.000682763 5.405e-07
-0.000682763 8.49041e-05 2.21151e-07
5.405e-07 2.21151e-07 -6.4222e-06
0.00245459 -0.000638451 3.92581e-07
-0.000638451 0.000150804 -3.32119e-07
3.92581e-07 -3.32119e-07 9.6356e-06
0.00245245 -0.000618899 -2.09788e-06
-0.000618899 0.000238223 -5.86749e-07
-2.09788e-06 -5.86749e-07 2.25056e-05
0.0025323 -0.000769848 1.97652e-06
-0.000769848 0.000235811 1.69246e-07
1.97652e-06 1.69246e-07 2.22263e-05
0.00242825 -0.000707051 -7.88527e-07
-0.000707051 0.000276896 -3.25806e-08
-7.88527e-07 -3.25806e-08 -2.29793e-07
0.00168582 -0.000478756 -9.7973e-06
-0.000478756 6.44209e-05 3.01587e-06
-9.7973e-06 3.01587e-06 -0.00021455
0.00237038 -0.000767377 -3.93158e-08
-0.000767377 0.000296157 2.78469e-06
-3.93158e-08 2.78469e-06 -3.44911e-05
0.00174102 -0.000541609 -1.40582e-07
-0.000541609 0.000123093 1.86104e-08
-1.40582e-07 1.86104e-08 -0.000200723
0.00324962 -0.000340918 -6.80598e-05
-0.000340918 0.00162007 1.77061e-05
-6.80598e-05 1.77061e-05 0.00143582
0.00362531 -0.000198811 -0.000392946
-0.000198811 0.00203654 6.61532e-05
-0.000392946 6.61532e-05 0.00201866
0.00184409 -0.000352408 -2.40908e-05
-0.000352408 0.000693904 7.28582e-07
-2.40908e-05 7.28582e-07 0.000473461
0.00173834 -0.000622763 1.75969e-05
-0.000622763 0.00015486 -3.37115e-06
1.75969e-05 -3.37115e-06 -0.000231967
0.00980984 -0.000261524 -6.09429e-06
-0.000261524 0.00613287 3.79462e-06
-6.09429e-06 3.79462e-06 0.00615919
0.000218491 -0.000383423 2.45624e-05
-0.000383423 -0.000351474 -2.57073e-05
2.45624e-05 -2.57073e-05 -0.000611555
0.0101778 -0.000225233 0.000468929
-0.000225233 0.00638137 -6.04795e-05
0.000468929 -6.04795e-05 0.00640324
0.00249723 0.000674778 3.02231e-06
0.000674778 9.8895e-05 -1.3304e-07
3.02231e-06 -1.3304e-07 -3.26367e-05
0.00256367 0.00091729 8.1376e-06
0.00091729 0.000284297 7.35614e-06
8.1376e-06 7.35614e-06 -1.28182e-05
0.00264795 0.0010885 4.12304e-07
0.0010885 0.000440503 -6.69725e-07
4.12304e-07 -6.69725e-07 -2.09288e-06
0.00258838 0.000965088 1.06718e-05
0.000965088 0.00055635 1.64602e-05
1.06718e-05 1.64602e-05 8.26983e-05
0.00247841 0.00106935 3.37331e-06
0.00106935 0.000501072 -1.77569e-05
3.37331e-06 -1.77569e-05 -2.91749e-05
0.00244305 0.0010227 1.89723e-06
0.0010227 0.000528819 6.23966e-07
1.89723e-06 6.23966e-07 -2.80673e-05
0.0016569 0.000703163 -4.15164e-05
0.000703163 0.000260066 -5.19602e-07
-4.15164e-05 -5.19602e-07 -0.000220812
0.00237495 0.00110645 -1.91569e-05
0.00110645 0.00063262 -2.24153e-05
-1.91569e-05 -2.24153e-05 -2.82044e-05
0.00146632 0.000654585 -1.37709e-06
0.000654585 0.000180402 1.04384e-07
-1.37709e-06 1.04384e-07 -0.000311478
-1.17503e-05 0.000362192 -3.15995e-05
0.000362192 -0.000422664 -3.16508e-05
-3.15995e-05 -3.16508e-05 -0.000677122
0.0012505 0.000455767 3.69495e-05
0.000455767 0.00029909 -2.07875e-06
3.69495e-05 -2.07875e-06 -0.000168041
0.000158636 0.000281321 3.35184e-06
0.000281321 -0.00031428 -3.1234e-07
3.35184e-06 -3.1234e-07 -0.000529465
0.00997446 7.36911e-05 -0.000416164
7.36911e-05 0.00629279 -5.33057e-05
-0.000416164 -5.33057e-05 0.00630191
0.000492776 0.000271502 2.98869e-05
0.000271502 -0.00012016 3.32442e-05
2.98869e-05 3.32442e-05 -0.000301421
0.00885742 -9.58049e-05 1.84017e-05
-9.58049e-05 0.0056149 -3.22227e-06
1.84017e-05 -3.22227e-06 0.00560413
0.00751204 -0.000216809 0.000192998
-0.000216809 0.00478966 2.88957e-05
0.000192998 2.88957e-05 0.00475122
0.00262079 0.000328208 2.84171e-06
0.000328208 -0.000510502 5.07201e-06
2.84171e-06 5.07201e-06 -0.000108231
0.00138266 0.000480088 -8.24624e-06
0.000480088 -0.00157825 -1.09495e-05
-8.24624e-06 -1.09495e-05 -0.00058069
0.00315198 0.00151298 -0.000225855
0.00151298 -0.00390557 -8.93421e-05
-0.000225855 -8.93421e-05 -0.00086042
0.00272319 0.00081677 -1.80556e-06
0.00081677 0.000100125 -2.07285e-06
-1.80556e-06 -2.07285e-06 -6.67843e-07
0.00283324 0.00117035 -5.02489e-06
0.00117035 0.000311789 -4.92747e-07
-5.02489e-06 -4.92747e-07 -2.18926e-05
0.0027871 0.00131081 -9.05958e-07
0.00131081 0.000516011 -8.22064e-06
-9.05958e-07 -8.22064e-06 -2.87951e-05
0.00260008 0.00085451 1.63704e-06
0.00085451 0.000161441 1.05724e-06
1.63704e-06 1.05724e-06 -4.36799e-05
0.00273101 0.00113127 -2.95813e-06
0.00113127 0.000327785 -8.17544e-06
-2.95813e-06 -8.17544e-06 -4.26503e-05
0.00296279 0.000651253 4.26489e-06
0.000651253 -8.56983e-05 1.29295e-06
4.26489e-06 1.29295e-06 9.10287e-05
0.00300329 0.00103797 -2.05475e-06
0.00103797 0.00011509 8.43507e-07
-2.05475e-06 8.43507e-07 2.26666e-05
0.00311064 0.00133766 7.92623e-06
0.00133766 0.000496953 -1.50551e-06
7.92623e-06 -1.50551e-06 8.16833e-05
0.00235729 0.000597291 1.24407e-07
0.000597291 -0.000444487 1.42816e-06
1.24407e-07 1.42816e-06 -0.000140174
0.00270359 0.00125809 6.85033e-06
0.00125809 2.30394e-05 -1.38413e-05
6.85033e-06 -1.38413e-05 -0.000136892
-0.00109373 0.000629612 -3.35982e-05
0.000629612 -0.00272717 -7.54779e-06
-3.35982e-05 -7.54779e-06 -0.00164815
0.00276129 0.000155182 3.82121e-06
0.000155182 -0.000284148 7.27173e-08
3.82121e-06 7.27173e-08 2.30811e-05
0.0028555 0.000266569 1.92863e-06
0.000266569 -0.000412478 -1.32659e-06
1.92863e-06 -1.32659e-06 -1.41688e-05
0.00357687 0.000100661 -9.97553e-05
0.000100661 -0.000312747 1.26588e-05
-9.97553e-05 1.26588e-05 0.000323748
0.00271675 -0.000498857 -3.16848e-05
-0.000498857 -0.000723735 1.17628e-05
-3.16848e-05 1.17628e-05 -0.000124657
0.00332685 0.000200819 -5.99853e-06
0.000200819 -0.000193524 3.01733e-06
-5.99853e-06 3.01733e-06 0.000168501
0.00285789 -8.28244e-05 -8.9263e-07
-8.28244e-05 -0.000364473 -8.66337e-07
-8.9263e-07 -8.66337e-07 1.05174e-06
0.00253424 -9.18218e-05 4.42822e-07
-9.18218e-05 -0.000203332 -1.29453e-07
4.42822e-07 -1.29453e-07 -5.96735e-06
0.00269594 -0.0004243 2.20574e-06
-0.0004243 -0.000334829 -6.52225e-07
2.20574e-06 -6.52225e-07 -6.10457e-05
0.00262219 -0.000342511 -3.08111e-08
-0.000342511 -0.000193922 8.97182e-08
-3.08111e-08 8.97182e-08 7.4756e-06
0.00242333 -0.000283185 1.86645e-06
-0.000283185 -9.66465e-05 -7.11741e-07
1.86645e-06 -7.11741e-07 -1.11303e-05
0.00261649 -0.000510196 -8.0163e-07
-0.000510196 -0.000126867 3.02669e-07
-8.0163e-07 3.02669e-07 -1.39593e-05
0.00247176 -0.000428971 2.69345e-08
-0.000428971 -4.84126e-05 5.81064e-08
2.69345e-08 5.81064e-08 -6.2264e-06
0.00232683 -0.000386711 -3.30324e-06
-0.000386711 1.08834e-05 4.73249e-07
-3.30324e-06 4.73249e-07 -1.53606e-05
0.00248411 -0.000559917 -1.88846e-07
-0.000559917 1.14956e-05 2.25748e-07
-1.88846e-07 2.25748e-07 -1.71075e-05
0.00237124 -0.000507967 2.39371e-07
-0.000507967 6.79993e-05 3.35669e-08
2.39371e-07 3.35669e-08 -1.04021e-05
0.00241786 -0.000498371 -3.2572e-06
-0.000498371 0.000175072 4.35794e-07
-3.2572e-06 4.35794e-07 2.53308e-05
0.00248189 -0.000642938 2.87759e-06
-0.000642938 0.000164624 -8.19317e-07
2.87759e-06 -8.19317e-07 2.13533e-05
0.00241954 -0.000612017 -4.74167e-07
-0.000612017 0.00022528 -2.90843e-07
-4.74167e-07 -2.90843e-07 1.14284e-05
0.00168453 -0.000407225 -8.21618e-06
-0.000407225 3.57806e-05 2.1167e-06
-8.21618e-06 2.1167e-06 -0.000198977
0.00239727 -0.00070175 1.12468e-06
-0.00070175 0.000260771 1.17263e-06
1.12468e-06 1.17263e-06 -1.47275e-05
0.00173111 -0.000483184 -5.35837e-08
-0.000483184 8.70908e-05 1.69712e-07
-5.35837e-08 1.69712e-07 -0.000191695
0.00305988 -0.000302148 -7.22087e-05
-0.000302148 0.00149381 1.60463e-05
-7.22087e-05 1.60463e-05 0.00133357
0.00174263 -0.000544347 1.21864e-05
-0.000544347 0.000113624 -3.60202e-06
1.21864e-05 -3.60202e-06 -0.000210018
0.00334699 -0.000368987 6.43036e-05
-0.000368987 0.00168798 -1.18293e-05
6.43036e-05 -1.18293e-05 0.00151852
0.0031102 -0.000199012 -0.0003521
-0.000199012 0.00171697 6.39451e-05
-0.0003521 6.39451e-05 0.00169286
0.00617849 -0.000242836 -0.000336124
-0.000242836 0.00374957 4.7348e-05
-0.000336124 4.7348e-05 0.00374888
0.00352679 -0.000437881 0.000211348
-0.000437881 0.00181645 -4.07361e-05
0.000211348 -4.07361e-05 0.0016359
0.00957518 -0.000259299 0.00045027
-0.000259299 0.00598777 -6.10833e-05
0.00045027 -6.10833e-05 0.00600815
0.00252672 0.00064913 -1.17814e-06
0.00064913 7.61489e-05 -1.60304e-06
-1.17814e-06 -1.60304e-06 7.13971e-06
0.00258009 0.000734386 3.24023e-06
0.000734386 0.000302008 2.5917e-06
3.24023e-06 2.5917e-06 9.55143e-05
0.00250011 0.000659877 4.44596e-07
0.000659877 0.000113596 -1.87252e-07
4.44596e-07 -1.87252e-07 -1.05159e-05
0.00235355 0.000809197 4.64643e-06
0.000809197 0.000309098 1.05286e-05
4.64643e-06 1.05286e-05 -4.81849e-05
0.00261182 0.000917281 3.20912e-07
0.000917281 0.000308009 -2.05546e-07
3.20912e-07 -2.05546e-07 1.0446e-05
0.00287368 0.00110858 -4.44254e-06
0.00110858 0.000584704 -1.18958e-05
-4.44254e-06 -1.18958e-05 0.000149278
0.00236614 0.000942941 8.3131e-07
0.000942941 0.000401715 3.3506e-07
8.3131e-07 3.3506e-07 -6.65701e-05
0.00170075 0.000673006 -2.82665e-05
0.000673006 0.000161066 -4.88548e-07
-2.82665e-05 -4.88548e-07 -0.000266881
0.00208763 0.000978824 -1.4235e-05
0.000978824 0.000289201 -2.02219e-05
-1.4235e-05 -2.02219e-05 -0.000254701
0.00170158 0.000743795 -2.62312e-06
0.000743795 0.000263231 5.57979e-07
-2.62312e-06 5.57979e-07 -0.000234323
0.000300025 0.000395745 -2.93219e-05
0.000395745 -0.000280437 -2.54784e-05
-2.93219e-05 -2.54784e-05 -0.000545804
0.00112505 0.000616886 4.9754e-05
0.000616886 -7.89342e-05 -2.75939e-06
4.9754e-05 -2.75939e-06 -0.000554055
-8.38436e-05 0.000316016 1.43845e-06
0.000316016 -0.00048046 2.03047e-06
1.43845e-06 2.03047e-06 -0.000721065
0.0102578 0.000180926 -0.000447843
0.000180926 0.00644328 -6.02895e-05
-0.000447843 -6.02895e-05 0.00645645
0.000242814 0.000245932 2.94719e-05
0.000245932 -0.000284475 3.46073e-05
2.94719e-05 3.46073e-05 -0.000485104
0.00928895 1.76321e-05 1.37708e-05
1.76321e-05 0.00584399 -1.28011e-06
1.37708e-05 -1.28011e-06 0.00585105
0.00858188 -0.000102678 0.000293535
-0.000102678 0.00542458 2.98964e-05
0.000293535 2.98964e-05 0.00541829
0.00281269 0.00041049 3.42365e-06
0.00041049 -0.000193483 7.13031e-07
3.42365e-06 7.13031e-07 5.00082e-05
0.00249262 0.000340223 2.3277e-06
0.000340223 -0.000505398 -2.77725e-06
2.3277e-06 -2.77725e-06 -0.000107007
0.000127014 0.000439353 -6.45137e-05
0.000439353 -0.00275796 -1.27599e-05
-6.45137e-05 -1.27599e-05 -0.00150191
0.00262987 0.000569605 2.32266e-06
0.000569605 -6.60179e-05 -2.32481e-08
2.32266e-06 -2.32481e-08 4.04634e-08
0.00264732 0.000814279 -8.1395e-07
0.000814279 5.79264e-05 1.08715e-06
-8.1395e-07 1.08715e-06 -3.39918e-05
0.00272798 0.0011404 6.15395e-06
0.0011404 0.00028075 -1.76065e-06
6.15395e-06 -1.76065e-06 -4.20614e-05
0.00257243 0.000837681 -5.10861e-06
0.000837681 0.000167099 -1.55821e-06
-5.10861e-06 -1.55821e-06 -4.1402e-05
0.00287781 0.000640774 -2.3726e-06
0.000640774 -0.000134497 2.28786e-07
-2.3726e-06 2.28786e-07 3.44476e-05
0.00290868 0.00102467 3.30045e-06
0.00102467 8.72688e-05 -1.8741e-06
3.30045e-06 -1.8741e-06 7.47625e-06
0.00223689 0.00060115 1.84504e-06
0.00060115 -0.000403059 -8.59784e-06
1.84504e-06 -8.59784e-06 -0.00010686
0.00258567 0.00012269 1.9957e-06
0.00012269 -0.000185098 2.15874e-07
1.9957e-06 2.15874e-07 4.15664e-06
0.00272311 0.000158518 -4.10924e-07
0.000158518 -0.000288589 -5.20998e-08
-4.10924e-07 -5.20998e-08 9.40043e-06
0.00281934 0.000263642 -1.83017e-05
0.000263642 -0.000432344 2.03186e-06
-1.83017e-05 2.03186e-06 -3.79771e-05
0.00238348 -1.09917e-05 3.16061e-07
-1.09917e-05 -0.000178094 5.34692e-08
3.16061e-07 5.34692e-08 -3.68894e-05
0.00288177 -8.55077e-05 -1.7297e-07
-8.55077e-05 -0.000355151 1.67081e-06
-1.7297e-07 1.67081e-06 3.06813e-06
0.00254466 -9.66272e-05 -1.03031e-08
-9.66272e-05 -0.000195321 2.06632e-07
-1.03031e-08 2.06632e-07 7.56558e-07
0.00239779 -0.000147687 6.8007e-07
-0.000147687 -0.000107111 -1.27647e-07
6.8007e-07 -1.27647e-07 -8.48284e-06
0.00258372 -0.000353457 -2.42638e-07
-0.000353457 -0.000212596 3.2797e-07
-2.42638e-07 3.2797e-07 -2.29343e-05
0.00243048 -0.000279553 5.94353e-07
-0.000279553 -9.39619e-05 -4.54085e-07
5.94353e-07 -4.54085e-07 -7.66854e-06
0.00227935 -0.000266036 -2.53376e-06
-0.000266036 -3.41509e-05 3.58647e-07
-2.53376e-06 3.58647e-07 -2.67325e-05
0.00247298 -0.000427593 -6.25601e-07
-0.000427593 -5.07157e-05 2.90508e-07
-6.25601e-07 2.90508e-07 -8.53347e-06
0.00232693 -0.000385384 2.87048e-08
-0.000385384 8.58367e-06 -3.86063e-08
2.87048e-08 -3.86063e-08 -1.70449e-05
0.00242428 -0.000384357 -3.86257e-06
-0.000384357 0.000145085 7.45999e-07
-3.86257e-06 7.45999e-07 4.76678e-05
0.002369 -0.000509188 3.37365e-06
-0.000509188 6.13025e-05 -7.15697e-07
3.37365e-06 -7.15697e-07 -1.78016e-05
0.00240454 -0.00049469 -1.50236e-07
-0.00049469 0.000173194 -2.20925e-07
-1.50236e-07 -2.20925e-07 2.36997e-05
0.0016924 -0.000328869 -6.53644e-06
-0.000328869 2.22027e-05 1.23586e-06
-6.53644e-06 1.23586e-06 -0.000170784
0.00238344 -0.000604876 1.86514e-06
-0.000604876 0.000210114 -2.6431e-07
1.86514e-06 -2.6431e-07 -1.83588e-06
0.00174303 -0.000412323 -3.77395e-07
-0.000412323 6.37674e-05 2.67144e-07
-3.77395e-07 2.67144e-07 -0.000170832
0.00290875 -0.000266616 -7.57252e-05
-0.000266616 0.00140079 1.45665e-05
-7.57252e-05 1.45665e-05 0.00126019
0.00177895 -0.000488037 8.57095e-06
-0.000488037 0.000111224 -2.88361e-06
8.57095e-06 -2.88361e-06 -0.000167388
0.00317279 -0.000317861 5.82196e-05
-0.000317861 0.00156809 -9.06851e-06
5.82196e-05 -9.06851e-06 0.00142287
0.00299267 -0.000165327 -0.000336948
-0.000165327 0.0016367 5.36087e-05
-0.000336948 5.36087e-05 0.00161782
0.00343278 -0.000368165 0.000198944
-0.000368165 0.00173873 -3.91961e-05
0.000198944 -3.91961e-05 0.00158856
0.0026618 -0.000131669 -0.000131085
-0.000131669 0.00142008 2.25726e-05
-0.000131085 2.25726e-05 0.00137489
0.00856444 -0.000183569 0.000169953
-0.000183569 0.00531881 -1.51699e-05
0.000169953 -1.51699e-05 0.00529158
0.00249202 0.000547989 -1.57871e-07
0.000547989 4.07889e-05 9.20275e-08
-1.57871e-07 9.20275e-08 6.425e-06
0.00247521 0.000616861 -2.43733e-06
0.000616861 0.00017288 -1.02272e-06
-2.43733e-06 -1.02272e-06 5.21578e-05
0.00256937 0.000645887 -2.12289e-06
0.000645887 0.000108634 5.05438e-08
-2.12289e-06 5.05438e-08 3.24426e-05
0.00234361 0.000686344 2.90895e-07
0.000686344 0.000247854 3.95766e-06
2.90895e-07 3.95766e-06 -3.10902e-05
0.00250919 0.000735368 -6.16997e-07
0.000735368 0.000220162 -1.7928e-06
-6.16997e-07 -1.7928e-06 3.24517e-05
0.00249204 0.000643405 -5.21496e-06
0.000643405 0.000121229 -1.55208e-06
-5.21496e-06 -1.55208e-06 4.62293e-06
0.00177263 0.000575846 -1.93035e-05
0.000575846 0.000112157 -1.43414e-06
-1.93035e-05 -1.43414e-06 -0.000230282
0.00237064 0.000814389 1.84217e-06
0.000814389 0.00031319 -2.01865e-08
1.84217e-06 -2.01865e-08 -4.61181e-05
0.00262025 0.000915595 -4.95548e-06
0.000915595 0.000301495 -5.72026e-06
-4.95548e-06 -5.72026e-06 3.80377e-06
0.00214016 0.000918943 -1.0134e-05
0.000918943 0.000246262 -1.69032e-05
-1.0134e-05 -1.69032e-05 -0.000215577
0.00183093 0.000687411 -5.56067e-07
0.000687411 0.000249035 2.10404e-07
-5.56067e-07 2.10404e-07 -0.00018439
0.000441412 0.000367031 -2.49926e-05
0.000367031 -0.000226031 -2.10281e-05
-2.49926e-05 -2.10281e-05 -0.000474897
0.00191423 0.000801525 4.50985e-05
0.000801525 0.000367839 3.05998e-06
4.50985e-05 3.05998e-06 -0.000149438
0.000145264 0.000365999 2.65444e-07
0.000365999 -0.000371885 1.87078e-06
2.65444e-07 1.87078e-06 -0.00063191
0.00969844 0.000256046 -0.000436554
0.000256046 0.00607915 -6.51562e-05
-0.000436554 -6.51562e-05 0.00608652
3.38047e-05 0.000291843 2.92279e-05
0.000291843 -0.000410835 3.11728e-05
2.92279e-05 3.11728e-05 -0.000646734
0.0101358 0.000136179 8.06293e-06
0.000136179 0.00635778 1.99035e-06
8.06293e-06 1.99035e-06 0.00637648
0.00931639 -1.21129e-05 0.000349698
-1.21129e-05 0.0058557 3.23094e-05
0.000349698 3.23094e-05 0.00586675
0.00254005 0.000324651 8.44569e-07
0.000324651 -0.000140889 5.16913e-07
8.44569e-07 5.16913e-07 -5.89161e-06
0.00275161 0.000418548 -1.01329e-06
0.000418548 -0.000268855 8.74862e-07
-1.01329e-06 8.74862e-07 -1.22198e-05
0.00242972 0.000312388 -9.08305e-06
0.000312388 -0.000490718 -1.99953e-06
-9.08305e-06 -1.99953e-06 -8.36059e-05
0.00261651 0.000564916 -5.10407e-07
0.000564916 -6.91282e-05 4.6309e-07
-5.10407e-07 4.6309e-07 -2.539e-06
0.00256454 0.000812425 -3.64447e-07
0.000812425 1.05357e-05 -1.12386e-07
-3.64447e-07 -1.12386e-07 -7.16606e-05
0.00278708 0.000626328 8.87008e-07
0.000626328 -0.000199349 -1.86448e-06
8.87008e-07 -1.86448e-06 -3.3235e-05
0.00247392 0.000111483 1.43697e-06
0.000111483 -0.000110778 1.31354e-07
1.43697e-06 1.31354e-07 1.08427e-05
0.00259021 0.000121079 -6.79392e-08
0.000121079 -0.000174256 -1.43494e-07
-6.79392e-08 -1.43494e-07 1.2149e-05
0.00266227 0.000159471 -3.06324e-06
0.000159471 -0.000314191 -3.95503e-08
-3.06324e-06 -3.95503e-08 -2.30446e-05
0.00242364 -6.30222e-06 -6.53114e-07
-6.30222e-06 -0.000144749 3.40094e-08
-6.53114e-07 3.40094e-08 -7.47665e-06
0.00235204 -3.23717e-05 -1.18951e-07
-3.23717e-05 -7.27077e-05 -9.83346e-08
-1.18951e-07 -9.83346e-08 8.57157e-06
0.00255562 -0.000101563 -1.44867e-06
-0.000101563 -0.000186797 7.49485e-07
-1.44867e-06 7.49485e-07 7.90754e-06
0.00239515 -0.000150177 -7.75301e-07
-0.000150177 -9.93028e-05 2.38591e-07
-7.75301e-07 2.38591e-07 -7.05636e-06
0.00222423 -0.000162294 -2.79607e-06
-0.000162294 -7.26451e-05 5.27234e-07
-2.79607e-06 5.27234e-07 -4.03685e-05
0.00243449 -0.000276127 -3.33702e-07
-0.000276127 -9.29963e-05 -1.89296e-07
-3.33702e-07 -1.89296e-07 -5.93903e-06
0.00227685 -0.000264218 8.98279e-07
-0.000264218 -3.35552e-05 -3.16217e-07
8.98279e-07 -3.16217e-07 -2.57703e-05
0.00245676 -0.000283924 -3.42357e-06
-0.000283924 0.00013402 9.29816e-07
-3.42357e-06 9.29816e-07 7.32004e-05
0.00232144 -0.000384501 3.42582e-06
-0.000384501 2.63584e-06 -6.0438e-07
3.42582e-06 -6.0438e-07 -2.24298e-05
0.0024173 -0.000383496 5.8232e-08
-0.000383496 0.000142066 -1.05842e-07
5.8232e-08 -1.05842e-07 4.55653e-05
0.00168014 -0.00025362 -5.64598e-06
-0.00025362 6.57228e-06 9.30775e-07
-5.64598e-06 9.30775e-07 -0.000152645
0.002394 -0.000490963 3.22357e-06
-0.000490963 0.000173158 -8.81508e-07
3.22357e-06 -8.81508e-07 2.40296e-05
0.00171437 -0.000331339 -3.19526e-07
-0.000331339 2.24356e-05 1.02204e-07
-3.19526e-07 1.02204e-07 -0.000170135
0.00275174 -0.000234951 -7.48768e-05
-0.000234951 0.0013118 1.2219e-05
-7.48768e-05 1.2219e-05 0.0011895
0.00179677 -0.000417248 7.27916e-06
-0.000417248 8.81223e-05 -1.97955e-06
7.27916e-06 -1.97955e-06 -0.000146264
0.00302213 -0.000263018 5.41884e-05
-0.000263018 0.00147075 -6.85885e-06
5.41884e-05 -6.85885e-06 0.00134707
0.0028597 -0.00013259 -0.000322667
-0.00013259 0.00154901 4.31082e-05
-0.000322667 4.31082e-05 0.00153448
0.00329222 -0.000306989 0.000189585
-0.000306989 0.00163626 -3.17103e-05
0.000189585 -3.17103e-05 0.00151018
0.00256131 -0.000120093 -0.000117815
-0.000120093 0.00135763 1.68769e-05
-0.000117815 1.68769e-05 0.00131618
0.00225647 -0.000121315 9.51592e-05
-0.000121315 0.00117215 -1.73647e-05
9.51592e-05 -1.73647e-05 0.00109746
0.00242631 0.000350765 1.09258e-06
0.000350765 -4.68582e-05 -6.86889e-08
1.09258e-06 -6.86889e-08 -7.09296e-06
0.00233885 0.00048124 -2.91983e-06
0.00048124 6.5797e-05 -2.71305e-07
-2.91983e-06 -2.71305e-07 -1.93535e-05
0.00249892 0.000550425 -8.54849e-07
0.000550425 2.1897e-05 -2.92207e-07
-8.54849e-07 -2.92207e-07 2.29804e-06
0.00234464 0.000600216 -2.47146e-07
0.000600216 0.000155026 7.76811e-07
-2.47146e-07 7.76811e-07 -4.35656e-05
0.00246996 0.000614837 -1.53751e-07
0.000614837 0.00018254 1.19247e-08
-1.53751e-07 1.19247e-08 5.08517e-05
0.00260874 0.000643445 5.70917e-07
0.000643445 0.000138534 1.28736e-06
5.70917e-07 1.28736e-06 5.4909e-05
0.00175584 0.000491615 -1.19511e-05
0.000491615 9.36944e-05 -1.55856e-06
-1.19511e-05 -1.55856e-06 -0.000188447
0.00234744 0.000698667 -1.01326e-06
0.000698667 0.00022762 -1.77873e-06
-1.01326e-06 -1.77873e-06 -4.00898e-05
0.00245365 0.000738201 -3.5311e-06
0.000738201 0.000149468 -3.23664e-06
-3.5311e-06 -3.23664e-06 -1.99627e-05
0.000418365 0.000292101 -2.12534e-05
0.000292101 -0.000253892 -1.63002e-05
-2.12534e-05 -1.63002e-05 -0.000465495
0.00174311 0.000564716 3.07229e-07
0.000564716 0.000112744 -7.97632e-08
3.07229e-07 -7.97632e-08 -0.000227404
0.0023662 0.000816239 -3.57609e-06
0.000816239 0.000305769 -1.19904e-05
-3.57609e-06 -1.19904e-05 -5.49738e-05
0.00194668 0.000701955 3.17143e-05
0.000701955 0.000327623 1.02337e-06
3.17143e-05 1.02337e-06 -0.000111756
0.000307078 0.000352613 6.6181e-07
0.000352613 -0.000311035 9.75537e-07
6.6181e-07 9.75537e-07 -0.000559734
0.00904354 0.000335126 -0.000428056
0.000335126 0.00565954 -6.81222e-05
-0.000428056 -6.81222e-05 0.00566107
-5.21218e-05 0.000329331 2.48062e-05
0.000329331 -0.000491753 2.5106e-05
2.48062e-05 2.5106e-05 -0.0007439
0.00986872 0.000243561 8.92884e-06
0.000243561 0.00617606 2.95047e-06
8.92884e-06 2.95047e-06 0.00619406
0.00968023 9.50112e-05 0.000398959
9.50112e-05 0.00605497 4.03819e-05
0.000398959 4.03819e-05 0.00607386
0.00245437 0.000201926 1.40346e-06
0.000201926 -6.6442e-05 -6.70425e-08
1.40346e-06 -6.70425e-08 2.915e-05
0.00250832 0.000330497 5.1174e-07
0.000330497 -0.000170375 5.06956e-07
5.1174e-07 5.06956e-07 -3.46295e-05
0.0027097 0.000431374 -1.21464e-06
0.000431374 -0.000321996 -1.50397e-06
-1.21464e-06 -1.50397e-06 -5.58046e-05
0.0025946 0.000557664 9.69716e-07
0.000557664 -7.84752e-05 -6.51174e-07
9.69716e-07 -6.51174e-07 -1.18401e-05
0.00230403 5.14272e-05 -3.78903e-07
5.14272e-05 -5.49459e-05 4.32095e-08
-3.78903e-07 4.32095e-08 -4.00572e-06
0.00247299 9.85267e-05 1.58081e-07
9.85267e-05 -0.000116246 -5.21557e-08
1.58081e-07 -5.21557e-08 9.14649e-06
0.00259507 0.000119062 -9.72079e-07
0.000119062 -0.000162645 -9.1328e-08
-9.72079e-07 -9.1328e-08 2.01453e-05
0.00246336 -1.22454e-06 -2.65346e-06
-1.22454e-06 -0.00011139 3.013e-08
-2.65346e-06 3.013e-08 2.18295e-05
0.00236328 -2.60503e-05 -7.32665e-07
-2.60503e-05 -7.0443e-05 -1.60771e-07
-7.32665e-07 -1.60771e-07 1.46041e-05
0.00228203 -5.771e-05 -4.08115e-06
-5.771e-05 1.10783e-06 1.70015e-07
-4.08115e-06 1.70015e-07 2.78043e-05
0.00239292 -0.000152493 -8.37997e-07
-0.000152493 -9.12497e-05 4.12212e-07
-8.37997e-07 4.12212e-07 -5.57577e-06
0.00227422 -0.000163462 -1.54731e-06
-0.000163462 -2.67674e-05 2.71439e-07
-1.54731e-06 2.71439e-07 -3.25916e-06
0.00237338 -0.000187853 -2.96743e-06
-0.000187853 5.04416e-05 6.70989e-07
-2.96743e-06 6.70989e-07 1.68216e-05
0.00228071 -0.000261958 4.28165e-06
-0.000261958 -2.97195e-05 -9.38062e-07
4.28165e-06 -9.38062e-07 -2.14762e-05
0.00244683 -0.000281939 5.42468e-07
-0.000281939 0.000131323 -1.51489e-07
5.42468e-07 -1.51489e-07 7.02757e-05
0.00166502 -0.000187442 -6.18204e-06
-0.000187442 -7.34729e-06 1.02382e-06
-6.18204e-06 1.02382e-06 -0.000143084
0.00241697 -0.000381805 3.88695e-06
-0.000381805 0.00014367 -9.54865e-07
3.88695e-06 -9.54865e-07 4.82415e-05
0.00166691 -0.000253732 -1.49186e-07
-0.000253732 -1.75288e-05 9.34791e-09
-1.49186e-07 9.34791e-09 -0.000176129
0.000275443 -0.000125997 -1.54001e-05
-0.000125997 -0.000335259 6.93939e-06
-1.54001e-05 6.93939e-06 -0.000459548
0.00174481 -0.000334081 6.37845e-06
-0.000334081 2.98789e-05 -1.43194e-06
6.37845e-06 -1.43194e-06 -0.000162237
0.00162923 -0.000175513 7.93282e-05
-0.000175513 0.000552459 -7.15566e-06
7.93282e-05 -7.15566e-06 0.000438204
0.00743915 -0.000206713 -0.000417066
-0.000206713 0.00461746 3.68497e-05
-0.000417066 3.68497e-05 0.00465144
0.00315086 -0.000244497 0.000180407
-0.000244497 0.00154522 -2.41199e-05
0.000180407 -2.41199e-05 0.00144036
0.00244054 -0.000105819 -0.000105849
-0.000105819 0.00128567 1.07536e-05
-0.000105849 1.07536e-05 0.00124697
0.00212082 -0.000127996 0.000103863
-0.000127996 0.00109382 -1.79695e-05
0.000103863 -1.79695e-05 0.00102136
0.00238291 0.000237976 8.42787e-07
0.000237976 -1.68725e-05 -6.73028e-07
8.42787e-07 -6.73028e-07 2.10406e-05
0.00228717 0.000364898 -2.23237e-06
0.000364898 3.21129e-06 -4.22851e-07
-2.23237e-06 -4.22851e-07 -2.94438e-05
0.00244207 0.000341037 -3.10954e-07
0.000341037 -1.9554e-05 -1.74307e-08
-3.10954e-07 -1.74307e-08 1.18204e-05
0.00230511 0.000475714 9.14299e-08
0.000475714 0.000102996 5.79173e-07
9.14299e-08 5.79173e-07 -3.95986e-05
0.00236096 0.000484847 5.03554e-09
0.000484847 8.49102e-05 -2.30811e-07
5.03554e-09 -2.30811e-07 2.02942e-06
0.00250781 0.000553086 -7.44331e-08
0.000553086 4.74685e-06 -2.77472e-07
-7.44331e-08 -2.77472e-07 -3.68021e-07
0.00175123 0.0004305 -5.49615e-06
0.0004305 6.34243e-05 3.25993e-07
-5.49615e-06 3.25993e-07 -0.000162372
0.00233773 0.000594942 -1.83568e-06
0.000594942 0.00015513 -9.69844e-07
-1.83568e-06 -9.69844e-07 -4.76053e-05
0.00245976 0.0006115 2.34958e-06
0.0006115 0.000190089 5.81661e-08
2.34958e-06 5.81661e-08 4.7414e-05
0.000383548 0.000218163 -1.75203e-05
0.000218163 -0.00027961 -1.1751e-05
-1.75203e-05 -1.1751e-05 -0.000457038
0.00168028 0.000484175 5.18856e-07
0.000484175 4.95363e-05 3.90357e-07
5.18856e-07 3.90357e-07 -0.000223665
0.00231502 0.000707659 -3.57099e-06
0.000707659 0.000180933 -8.00673e-06
-3.57099e-06 -8.00673e-06 -7.45269e-05
0.00847658 0.000370518 -0.000420127
0.000370518 0.00529746 -6.42191e-05
-0.000420127 -6.42191e-05 0.00529795
0.000369543 0.000292432 2.24888e-07
0.000292432 -0.000292663 9.11705e-07
2.24888e-07 9.11705e-07 -0.00050775
0.00170262 0.000553653 2.17511e-05
0.000553653 0.000104299 8.5821e-07
2.17511e-05 8.5821e-07 -0.000233705
0.000225084 0.000338927 2.30028e-05
0.000338927 -0.000362219 2.11054e-05
2.30028e-05 2.11054e-05 -0.000610953
0.00924856 0.000335608 1.02016e-05
0.000335608 0.00578912 4.09046e-06
1.02016e-05 4.09046e-06 0.00579644
0.0100828 0.000216978 0.00046549
0.000216978 0.00629558 5.10975e-05
0.00046549 5.10975e-05 0.00632247
0.00229089 0.000129763 -1.13778e-06
0.000129763 -4.31398e-05 6.31171e-08
-1.13778e-06 6.31171e-08 -9.46285e-06
0.00244629 0.000195928 -1.10739e-07
0.000195928 -7.47785e-05 3.90636e-08
-1.10739e-07 3.90636e-08 1.75299e-05
0.00247698 0.000336621 -3.80333e-07
0.000336621 -0.000199212 -2.919e-07
-3.80333e-07 -2.919e-07 -6.24989e-05
0.00227871 2.97618e-05 -6.24886e-06
2.97618e-05 3.69107e-05 -2.38335e-07
-6.24886e-06 -2.38335e-07 4.66145e-05
0.00229748 6.02324e-05 8.4822e-07
6.02324e-05 -6.38221e-05 3.8427e-08
8.4822e-07 3.8427e-08 -7.41223e-06
0.00247277 8.4816e-05 -1.46233e-06
8.4816e-05 -0.000121445 -7.28091e-08
-1.46233e-06 -7.28091e-08 7.82839e-06
0.00237518 -1.98378e-05 -6.5615e-07
-1.98378e-05 -6.81623e-05 1.73927e-07
-6.5615e-07 1.73927e-07 2.09656e-05
0.00228594 -5.78028e-05 -1.73615e-07
-5.78028e-05 2.22331e-06 3.47205e-09
-1.73615e-07 3.47205e-09 3.05242e-05
0.00212294 -8.53362e-05 -3.11652e-06
-8.53362e-05 -0.000114692 3.37755e-07
-3.11652e-06 3.37755e-07 -0.000158648
0.00232367 -0.000164904 3.75024e-06
-0.000164904 1.95516e-05 -3.86024e-07
3.75024e-06 -3.86024e-07 3.43795e-05
0.00234106 -0.000190347 3.66806e-07
-0.000190347 3.91886e-05 1.77264e-08
3.66806e-07 1.77264e-08 -6.73825e-06
0.00178307 -0.000123996 -6.44062e-06
-0.000123996 7.3955e-05 6.97824e-07
-6.44062e-06 6.97824e-07 -3.21295e-05
0.00243026 -0.00028096 4.18502e-06
-0.00028096 0.000124755 -1.22874e-06
4.18502e-06 -1.22874e-06 6.3238e-05
0.00163499 -0.000184045 7.99965e-08
-0.000184045 -4.43037e-05 -2.31495e-08
7.99965e-08 -2.31495e-08 -0.000179028
0.000219703 -5.21547e-05 -1.35606e-05
-5.21547e-05 -0.000359273 4.0133e-06
-1.35606e-05 4.0133e-06 -0.000468269
0.00165554 -0.00025239 5.62702e-06
-0.00025239 -4.35238e-05 -1.31078e-06
5.62702e-06 -1.31078e-06 -0.000201125
0.000284562 -0.000110074 -3.27618e-07
-0.000110074 -0.00032282 4.43669e-07
-3.27618e-07 4.43669e-07 -0.000445419
0.00729673 -9.98548e-05 -0.000403399
-9.98548e-05 0.00451429 2.41311e-05
-0.000403399 2.41311e-05 0.00455607
0.000441258 -0.000131904 1.23678e-05
-0.000131904 -0.000235259 -8.99858e-06
1.23678e-05 -8.99858e-06 -0.000371862
0.00480889 -0.000138048 0.000168603
-0.000138048 0.00287437 -1.11571e-05
0.000168603 -1.11571e-05 0.00285981
0.00199209 -0.00010922 0.000105588
-0.00010922 0.00101438 -1.59949e-05
0.000105588 -1.59949e-05 0.000947415
0.00237885 0.00019985 -3.69529e-06
0.00019985 5.58653e-05 -4.66672e-07
-3.69529e-06 -4.66672e-07 7.76295e-05
0.00224353 0.000258996 -5.36809e-06
0.000258996 9.04949e-06 -5.75373e-07
-5.36809e-06 -5.75373e-07 -1.36945e-05
0.00236694 0.000227358 -7.70239e-07
0.000227358 -2.16976e-05 -3.14514e-07
-7.70239e-07 -3.14514e-07 1.71312e-05
0.0023965 0.000386355 -7.80844e-07
0.000386355 0.000154392 4.61919e-09
-7.80844e-07 4.61919e-09 4.48619e-05
0.00230157 0.000361064 -8.45649e-08
0.000361064 1.55907e-05 -2.1429e-07
-8.45649e-08 -2.1429e-07 -1.85581e-05
0.00245962 0.000331654 -1.85235e-07
0.000331654 9.41987e-06 2.16598e-08
-1.85235e-07 2.16598e-08 3.23704e-05
0.0017283 0.000345163 -2.92765e-06
0.000345163 3.92849e-05 -2.45953e-07
-2.92765e-06 -2.45953e-07 -0.00014511
0.00232149 0.000476717 9.26963e-07
0.000476717 0.000125369 6.66621e-08
9.26963e-07 6.66621e-08 -2.75365e-05
0.00238252 0.000488479 3.21109e-06
0.000488479 0.000103447 4.66778e-07
3.21109e-06 4.66778e-07 2.33418e-05
0.000338141 0.000163188 -1.51622e-05
0.000163188 -0.000302461 -8.37667e-06
-1.51622e-05 -8.37667e-06 -0.000455665
0.00173335 0.000421505 2.24729e-06
0.000421505 5.87312e-05 1.27319e-06
2.24729e-06 1.27319e-06 -0.000162679
0.00232972 0.000590011 -3.17023e-06
0.000590011 0.000153747 -3.05596e-06
-3.17023e-06 -3.05596e-06 -5.27653e-05
0.00798222 0.000377862 -0.000422122
0.000377862 0.00499194 -5.88114e-05
-0.000422122 -5.88114e-05 0.00499328
0.000369282 0.000223988 4.71718e-07
0.000223988 -0.000295349 5.07054e-07
4.71718e-07 5.07054e-07 -0.00047657
0.00163139 0.0004798 1.24036e-05
0.0004798 2.29588e-05 4.26719e-07
1.24036e-05 4.26719e-07 -0.000242129
0.0086401 0.000397625 1.15326e-05
0.000397625 0.00541548 6.30241e-06
1.15326e-05 6.30241e-06 0.00541305
0.000316753 0.000291401 1.89476e-05
0.000291401 -0.000335219 1.71768e-05
1.89476e-05 1.71768e-05 -0.000553656
0.00935923 0.000320591 0.000467377
0.000320591 0.00584427 6.11673e-05
0.000467377 6.11673e-05 0.0058635
0.00225637 0.00010328 -6.18469e-06
0.00010328 2.70092e-05 -1.03739e-07
-6.18469e-06 -1.03739e-07 2.55213e-05
0.00228715 0.000137782 -7.04928e-07
0.000137782 -3.82267e-05 -3.14847e-07
-7.04928e-07 -3.14847e-07 -4.16074e-06
0.00243767 0.000190275 -9.61862e-07
0.000190275 -8.32225e-05 1.08496e-07
-9.61862e-07 1.08496e-07 5.66872e-06
0.00212271 4.55061e-06 -2.03539e-06
4.55061e-06 -0.000109217 9.58968e-10
-2.03539e-06 9.58968e-10 -0.000153373
0.00227834 3.31679e-05 -1.47075e-07
3.31679e-05 3.05606e-05 1.86961e-08
-1.47075e-07 1.86961e-08 4.502e-05
0.00229075 6.94393e-05 3.05111e-07
6.94393e-05 -7.28033e-05 2.61788e-07
3.05111e-07 2.61788e-07 -1.09425e-05
0.0022892 -5.80263e-05 3.56928e-06
-5.80263e-05 3.10553e-06 -1.05515e-07
3.56928e-06 -1.05515e-07 3.28359e-05
0.00217609 -8.41417e-05 -1.67551e-06
-8.41417e-05 -7.04404e-05 1.63646e-07
-1.67551e-06 1.63646e-07 -0.000112145
0.00164294 -5.28098e-05 -4.60527e-06
-5.28098e-05 -9.6847e-06 4.24565e-07
-4.60527e-06 4.24565e-07 -0.000108636
0.00232137 -0.000192987 2.51347e-06
-0.000192987 3.76659e-05 -9.93776e-07
2.51347e-06 -9.93776e-07 -2.03809e-05
0.00171577 -0.000125719 3.08086e-06
-0.000125719 1.82271e-05 -2.10608e-07
3.08086e-06 -2.10608e-07 -9.50627e-05
0.000182036 -2.49391e-05 -1.35159e-05
-2.49391e-05 -0.000367674 2.61119e-06
-1.35159e-05 2.61119e-06 -0.000468848
0.00160072 -0.000182462 6.35318e-06
-0.000182462 -8.12091e-05 -1.39214e-06
6.35318e-06 -1.39214e-06 -0.000215268
0.000213006 -5.97228e-05 3.88899e-07
-5.97228e-05 -0.000357064 -3.81476e-07
3.88899e-07 -3.81476e-07 -0.00046501
0.00706501 -0.000183712 -0.000400838
-0.000183712 0.00438316 2.57534e-05
-0.000400838 2.57534e-05 0.00441705
0.000274484 -9.41529e-05 1.33631e-05
-9.41529e-05 -0.000323457 -5.48064e-06
1.33631e-05 -5.48064e-06 -0.000443644
0.00721559 -0.00013337 6.23921e-06
-0.00013337 0.00446719 3.73321e-07
6.23921e-06 3.73321e-07 0.00450704
0.00224638 -6.07351e-05 0.000304703
-6.07351e-05 0.00114975 -2.50215e-05
0.000304703 -2.50215e-05 0.00114475
0.0022872 0.000185245 -7.83265e-06
0.000185245 6.5891e-05 -6.58707e-07
-7.83265e-06 -6.58707e-07 5.06892e-05
0.00228712 0.000201164 -6.89868e-07
0.000201164 -2.08525e-05 -4.77149e-08
-6.89868e-07 -4.77149e-08 1.02973e-05
0.00241319 0.000288384 1.45215e-07
0.000288384 0.000141481 1.85684e-07
1.45215e-07 1.85684e-07 6.25824e-05
0.00225156 0.000259576 5.78547e-07
0.000259576 1.117e-05 2.91777e-08
5.78547e-07 2.91777e-08 -1.21334e-05
0.00235176 0.000216565 -3.16802e-07
0.000216565 -2.62778e-05 -1.4592e-07
-3.16802e-07 -1.4592e-07 1.36784e-05
0.00162682 0.000259228 -1.8773e-06
0.000259228 -2.79394e-05 -5.2591e-07
-1.8773e-06 -5.2591e-07 -0.000197442
0.00240816 0.000387314 3.65455e-07
0.000387314 0.000156557 2.1741e-09
3.65455e-07 2.1741e-09 4.71872e-05
0.00231538 0.000357026 3.43925e-06
0.000357026 2.65712e-05 9.44267e-07
3.43925e-06 9.44267e-07 -8.88399e-06
0.000321181 0.000122656 -1.40794e-05
0.000122656 -0.000300379 -6.10335e-06
-1.40794e-05 -6.10335e-06 -0.000436468
0.00169034 0.000338732 3.16512e-06
0.000338732 2.68728e-05 1.12332e-06
3.16512e-06 1.12332e-06 -0.000163772
0.00233496 0.000477928 -8.68858e-08
0.000477928 0.000145503 -5.00555e-07
-8.68858e-08 -5.00555e-07 -1.86747e-05
0.00760922 0.000349737 -0.000426658
0.000349737 0.00476127 -5.18595e-05
-0.000426658 -5.18595e-05 0.00476743
0.000360146 0.000171988 4.05029e-07
0.000171988 -0.000291549 2.19676e-07
4.05029e-07 2.19676e-07 -0.000448404
0.00171949 0.000412439 8.55712e-06
0.000412439 5.68494e-05 1.87661e-06
8.55712e-06 1.87661e-06 -0.000160104
0.00814593 0.000408423 8.54376e-06
0.000408423 0.00510994 6.23362e-06
8.54376e-06 6.23362e-06 0.00510583
0.000357233 0.000228674 1.61825e-05
0.000228674 -0.000309205 1.24237e-05
1.61825e-05 1.24237e-05 -0.000494175
0.00881332 0.000416846 0.000461394
0.000416846 0.00552624 7.00912e-05
0.000461394 7.00912e-05 0.00552672
0.00208017 9.97152e-05 -1.68879e-07
9.97152e-05 -0.000119931 -3.2003e-07
-1.68879e-07 -3.2003e-07 -0.00017536
0.0022821 0.000103676 -1.89255e-06
0.000103676 5.05367e-05 -7.00579e-08
-1.89255e-06 -7.00579e-08 4.76127e-05
0.00228398 0.000145781 2.00168e-06
0.000145781 -3.26202e-05 6.24994e-08
2.00168e-06 6.24994e-08 1.76428e-06
0.00163477 -3.01351e-06 -3.16302e-06
-3.01351e-06 -3.0328e-06 2.91928e-07
-3.16302e-06 2.91928e-07 -0.000101996
0.0021592 5.41585e-06 -1.71838e-06
5.41585e-06 -7.45832e-05 4.36406e-08
-1.71838e-06 4.36406e-08 -0.000118114
0.00227732 3.61193e-05 4.54832e-06
3.61193e-05 2.39964e-05 2.92856e-07
4.54832e-06 2.92856e-07 4.31405e-05
0.00223099 -8.34021e-05 -9.26193e-07
-8.34021e-05 -2.46788e-05 -1.34329e-08
-9.26193e-07 -1.34329e-08 -6.41994e-05
0.00174142 -5.68164e-05 2.45588e-06
-5.68164e-05 5.34912e-05 -6.63956e-08
2.45588e-06 -6.63956e-08 -4.45096e-05
0.000201337 -3.41013e-05 -1.42757e-05
-3.41013e-05 -0.000346141 1.81529e-06
-1.42757e-05 1.81529e-06 -0.000441877
0.00163948 -0.000126481 9.34732e-06
-0.000126481 -4.61862e-05 -1.53393e-06
9.34732e-06 -1.53393e-06 -0.000166715
0.000191409 -1.38021e-05 1.02851e-08
-1.38021e-05 -0.00036095 6.71303e-08
1.02851e-08 6.71303e-08 -0.000460292
0.00695961 -0.000146892 -0.000400366
-0.000146892 0.00431117 1.9707e-05
-0.000400366 1.9707e-05 0.00435011
0.000246378 -6.44516e-05 1.40432e-05
-6.44516e-05 -0.000327363 -4.00148e-06
1.40432e-05 -4.00148e-06 -0.000435249
0.00706219 -8.59285e-05 -2.68242e-06
-8.59285e-05 0.00436591 3.9798e-06
-2.68242e-06 3.9798e-06 0.00440953
0.00718823 -0.000146416 0.000400684
-0.000146416 0.00445252 -2.38053e-05
0.000400684 -2.38053e-05 0.00449191
0.00237399 0.000190601 8.41007e-07
0.000190601 0.000112788 -3.35177e-07
8.41007e-07 -3.35177e-07 5.17389e-05
0.00222949 0.000186902 -4.43796e-07
0.000186902 1.20781e-05 9.41694e-08
-4.43796e-07 9.41694e-08 1.39686e-06
0.00219406 0.000202571 1.75688e-06
0.000202571 -9.90625e-05 3.47235e-07
1.75688e-06 3.47235e-07 -5.86499e-05
0.00158238 0.000181225 -7.88591e-07
0.000181225 -5.30958e-05 -1.68439e-07
-7.88591e-07 -1.68439e-07 -0.000199928
0.00242191 0.00028676 3.00151e-07
0.00028676 0.000144628 -4.18761e-08
3.00151e-07 -4.18761e-08 6.62274e-05
0.00226073 0.000260372 4.84286e-06
0.000260372 1.43066e-05 3.92782e-07
4.84286e-06 3.92782e-07 -9.73802e-06
0.000276291 8.52679e-05 -1.2901e-05
8.52679e-05 -0.000314717 -4.39675e-06
-1.2901e-05 -4.39675e-06 -0.000436496
0.00166261 0.00025999 -3.55899e-08
0.00025999 1.39695e-05 2.04827e-07
-3.55899e-08 2.04827e-07 -0.000156398
0.00242413 0.000388318 8.38162e-07
0.000388318 0.000162369 -1.16582e-07
8.38162e-07 -1.16582e-07 5.3135e-05
0.0073255 0.000283468 -0.000427782
0.000283468 0.00457176 -4.16899e-05
-0.000427782 -4.16899e-05 0.00459128
0.00033243 0.000131935 3.29484e-07
0.000131935 -0.000295888 1.80172e-07
3.29484e-07 1.80172e-07 -0.000435231
0.00164827 0.000331483 5.69333e-06
0.000331483 1.24772e-05 1.90658e-06
5.69333e-06 1.90658e-06 -0.000183799
0.00773019 0.000370523 5.05738e-06
0.000370523 0.00484448 3.88374e-06
5.05738e-06 3.88374e-06 0.00484828
0.000381312 0.000182114 1.53015e-05
0.000182114 -0.000279874 9.33031e-06
1.53015e-05 9.33031e-06 -0.000441018
0.00834079 0.000453955 0.000460514
0.000453955 0.00525224 7.30598e-05
0.000460514 7.30598e-05 0.00524179
0.00149479 5.51562e-05 -3.58595e-06
5.51562e-05 -9.25987e-05 3.15497e-07
-3.58595e-06 3.15497e-07 -0.000213858
0.0022066 9.75521e-05 -3.15186e-06
9.75521e-05 -2.80302e-05 -2.64956e-07
-3.15186e-06 -2.64956e-07 -7.39559e-05
0.0023098 0.000104361 5.37656e-06
0.000104361 7.49742e-05 4.88538e-07
5.37656e-06 4.88538e-07 7.07457e-05
0.000232249 3.20718e-05 -1.50008e-05
3.20718e-05 -0.000326264 -2.44304e-07
-1.50008e-05 -2.44304e-07 -0.000414545
0.00171587 -1.06691e-06 2.69681e-06
-1.06691e-06 4.91566e-05 7.53049e-08
2.69681e-06 7.53049e-08 -4.88859e-05
0.00220084 8.16385e-06 -1.92777e-06
8.16385e-06 -3.65533e-05 -4.60583e-08
-1.92777e-06 -4.60583e-08 -7.92959e-05
0.00183135 -6.01482e-05 1.07836e-05
-6.01482e-05 0.000111099 -1.0217e-06
1.07836e-05 -1.0217e-06 1.40566e-05
0.000194455 -9.48003e-06 2.60008e-07
-9.48003e-06 -0.000349234 3.73788e-07
2.60008e-07 3.73788e-07 -0.00044474
0.00683682 -6.62077e-06 -0.000400973
-6.62077e-06 0.00421976 5.11241e-06
-0.000400973 5.11241e-06 0.00426839
0.00018723 -2.22963e-06 1.38511e-05
-2.22963e-06 -0.000363188 -1.66532e-06
1.38511e-05 -1.66532e-06 -0.000460641
0.00690557 -0.00014338 -6.91952e-06
-0.00014338 0.00427805 2.44558e-06
-6.91952e-06 2.44558e-06 0.00431639
0.00699531 -6.98158e-05 0.000386817
-6.98158e-05 0.00432182 -1.44399e-05
0.000386817 -1.44399e-05 0.00436587
0.0015675 0.000114193 -2.35204e-06
0.000114193 -4.28423e-05 -1.16745e-07
-2.35204e-06 -1.16745e-07 -0.000174088
0.00233613 0.000186071 -2.53611e-07
0.000186071 7.98267e-05 -2.62463e-07
-2.53611e-07 -2.62463e-07 2.22505e-05
0.00217142 0.000188443 3.66976e-06
0.000188443 -4.1375e-05 -9.24734e-08
3.66976e-06 -9.24734e-08 -4.74894e-05
0.00272357 9.6878e-05 -0.000172345
9.6878e-05 0.00132061 -7.94979e-06
-0.000172345 -7.94979e-06 0.00126043
0.00162102 0.00018283 -1.6521e-08
0.00018283 -1.26105e-05 7.82372e-08
-1.6521e-08 7.82372e-08 -0.000160297
0.00242691 0.000284699 6.77426e-07
0.000284699 0.000146045 -1.83679e-07
6.77426e-07 -1.83679e-07 6.82235e-05
0.00714057 0.000213699 -0.00042379
0.000213699 0.0044415 -3.08358e-05
-0.00042379 -3.08358e-05 0.00447359
0.000301089 0.000105328 4.52958e-07
0.000105328 -0.000299867 4.77545e-07
4.52958e-07 4.77545e-07 -0.000425076
0.00170124 0.000260297 1.75737e-06
0.000260297 5.77262e-05 6.74596e-07
1.75737e-06 6.74596e-07 -0.000113484
0.00743567 0.000301031 2.7085e-06
0.000301031 0.00464461 2.18243e-06
2.7085e-06 2.18243e-06 0.00466212
0.000357342 0.000143543 1.47083e-05
0.000143543 -0.000281721 7.2362e-06
1.47083e-05 7.2362e-06 -0.000424957
0.00784579 0.000405113 0.000447849
0.000405113 0.00493256 6.5018e-05
0.000447849 6.5018e-05 0.00493051
0.00034484 2.18207e-05 -1.18296e-05
2.18207e-05 -0.000241996 -1.27642e-06
-1.18296e-05 -1.27642e-06 -0.000339787
0.00161167 5.57637e-05 -9.87314e-07
5.57637e-05 -9.57582e-06 -2.61678e-08
-9.87314e-07 -2.61678e-08 -0.000122528
0.00230936 9.4145e-05 -1.81364e-06
9.4145e-05 4.56815e-05 1.87334e-07
-1.81364e-06 1.87334e-07 9.00265e-06
0.00671441 -9.85647e-05 -0.000384817
-9.85647e-05 0.00415589 6.95088e-06
-0.000384817 6.95088e-06 0.00419471
0.000192734 1.42235e-05 -6.35376e-07
1.42235e-05 -0.000348711 -3.13931e-07
-6.35376e-07 -3.13931e-07 -0.000439427
0.00180111 -7.07359e-07 9.62178e-06
-7.07359e-07 0.000103511 -6.17664e-07
9.62178e-06 -6.17664e-07 6.35983e-06
0.000173768 1.47798e-05 1.41479e-05
1.47798e-05 -0.000363515 -4.31927e-07
1.41479e-05 -4.31927e-07 -0.000457674
0.00678374 -3.78715e-05 1.45395e-06
-3.78715e-05 0.00419241 -2.16947e-06
1.45395e-06 -2.16947e-06 0.00423531
0.0068708 -7.39022e-05 0.000388759
-7.39022e-05 0.00424179 -1.07551e-05
0.000388759 -1.07551e-05 0.00428653
0.00284451 4.25953e-05 -0.000167473
4.25953e-05 0.00140514 -4.16125e-06
-0.000167473 -4.16125e-06 0.00135358
0.00157998 0.000116971 -2.15802e-07
0.000116971 -2.92834e-05 3.06734e-08
-2.15802e-07 3.06734e-08 -0.00016129
0.00229855 0.000181649 1.71538e-07
0.000181649 4.61472e-05 -4.11714e-07
1.71538e-07 -4.11714e-07 -8.03807e-06
0.00669363 2.30371e-05 -0.000190151
2.30371e-05 0.00415529 -3.04706e-06
-0.000190151 -3.04706e-06 0.00414745
0.000256043 8.22127e-05 4.09182e-07
8.22127e-05 -0.000317204 2.05858e-07
4.09182e-07 2.05858e-07 -0.000429128
0.00166205 0.000185584 1.37676e-06
0.000185584 2.72697e-05 1.20515e-07
1.37676e-06 1.20515e-07 -0.000121414
0.00719464 0.000191992 -6.33818e-06
0.000191992 0.00446886 -1.57813e-06
-6.33818e-06 -1.57813e-06 0.00450249
0.000323272 0.000126134 1.56454e-05
0.000126134 -0.000287808 6.16519e-06
1.56454e-05 6.16519e-06 -0.000415792
0.00750537 0.000321351 0.000440185
0.000321351 0.00469397 5.23516e-05
0.000440185 5.23516e-05 0.00471009
0.0021453 -4.46608e-05 -0.0002951
-4.46608e-05 0.00108453 1.81147e-06
-0.0002951 1.81147e-06 0.00109527
0.00146543 4.39971e-05 -7.5643e-05
4.39971e-05 0.000493314 -5.81466e-07
-7.5643e-05 -5.81466e-07 0.000424135
0.00174335 5.90272e-05 5.60246e-06
5.90272e-05 8.56006e-05 -2.13136e-07
5.60246e-06 -2.13136e-07 -1.88905e-05
0.00676134 -4.56808e-05 6.28506e-06
-4.56808e-05 0.00418067 3.81626e-06
6.28506e-06 3.81626e-06 0.00422537
0.000188915 -1.82359e-06 1.48237e-05
-1.82359e-06 -0.000345015 3.58876e-08
1.48237e-05 3.58876e-08 -0.000439181
0.00678855 -9.4103e-05 0.000400459
-9.4103e-05 0.0042012 -8.39388e-06
0.000400459 -8.39388e-06 0.00424375
0.00169684 3.59025e-05 -8.81272e-05
3.59025e-05 0.000826177 -2.51676e-06
-8.81272e-05 -2.51676e-06 0.000778642
0.0014766 4.28596e-05 -7.60629e-05
4.28596e-05 0.000495795 -2.67594e-06
-7.60629e-05 -2.67594e-06 0.000419589
0.00159445 0.000117913 2.6026e-06
0.000117913 -1.29072e-05 -4.96614e-08
2.6026e-06 -4.96614e-08 -0.000145555
0.00440232 9.99771e-05 0.000151283
9.99771e-05 0.00261388 6.4503e-06
0.000151283 6.4503e-06 0.00260979
0.000231007 9.32786e-05 1.5475e-05
9.32786e-05 -0.000337431 4.686e-06
1.5475e-05 4.686e-06 -0.000450068
0.00724317 0.00018051 0.000417688
0.00018051 0.0044914 3.30503e-05
0.000417688 3.30503e-05 0.00452872
0.00675468 -1.84889e-06 -7.56409e-06
-1.84889e-06 0.00418204 -4.27009e-06
-7.56409e-06 -4.27009e-06 0.00422419
0.000208458 5.88868e-05 1.68723e-05
5.88868e-05 -0.000344701 2.17868e-06
1.68723e-05 2.17868e-06 -0.000434653
0.00669701 3.5287e-05 0.000390959
3.5287e-05 0.00413459 1.00449e-06
0.000390959 1.00449e-06 0.00418208
0.00431056 5.98753e-05 0.000160612
5.98753e-05 0.00255317 8.06703e-06
0.000160612 8.06703e-06 0.0025541
0.000235521 3.09549e-05 1.49765e-05
3.09549e-05 -0.000328697 2.3301e-06
1.49765e-05 2.3301e-06 -0.000429339
0.00701314 5.18803e-05 0.000402122
5.18803e-05 0.00433459 1.71216e-05
0.000402122 1.71216e-05 0.00437863
0.00675951 -8.8307e-05 0.000390039
-8.8307e-05 0.00418569 -3.15018e-06
0.000390039 -3.15018e-06 0.00422537
0.00679885 4.91688e-05 0.000393772
4.91688e-05 0.00419431 1.13406e-05
0.000393772 1.13406e-05 0.0042416
