# vtk DataFile Version 2.0
Wound Healing Simulation
ASCII
DATASET UNSTRUCTURED_GRID
POINTS 3012 float
69.9759 18.75 4
67.2507 60.3285 4
69.976 18.75 2
73.0099 25.446 4
71.1327 20.9142 4
68.6801 16.6661 4
67.8198 19.9246 3.97077
67.2507 60.3286 2
71.1327 54.0858 4
68.6801 58.3339 4
65.6939 62.2254 4
65.307 58.9989 3.97002
74.6784 42.3946 4
73.7221 47.2057 4
69.9759 18.75 0
73.0099 25.446 2
68.6801 16.6661 2
71.1327 20.9142 2
67.8203 19.9288 2
74.6792 32.6053 4
73.7222 27.7943 4
72.1454 23.1494 4
70.6105 26.2213 3.9713
68.8806 21.9566 3.97125
67.2507 14.6715 4
66.6307 17.9718 3.96977
65.7138 21.0529 3.9608
67.2507 60.3285 0
71.1327 54.0858 2
68.6801 58.3339 2
65.694 62.2255 2
65.3082 58.9938 2
72.1454 51.8506 4
69.9759 56.25 4
68.8314 53.1145 3.97126
64.0165 64.0165 4
66.6049 57.1333 3.97081
63.8796 60.7607 3.96704
63.44 57.7436 3.95818
60.3285 67.2507 4
74.6792 42.3947 2
73.7222 47.2057 2
74.9194 39.9526 4
74.2788 44.8158 4
72.1655 42.0858 3.97374
73.0099 49.554 4
71.246 46.5983 3.97214
73.0099 25.446 0
71.1327 20.9142 0
68.6801 16.6661 0
67.8198 19.9246 0.0292334
74.6792 32.6053 2
73.7222 27.7943 2
67.2508 14.6715 2
72.1455 23.1494 2
70.6097 26.2226 2
66.6319 17.9764 2
68.8806 21.9596 2
65.7141 21.0541 2
74.9197 35.0474 4
74.2794 30.1841 4
72.1822 32.9447 3.97373
71.2751 28.4324 3.97199
69.8112 24.0589 3.97133
68.296 26.967 3.96393
66.6874 22.9569 3.96211
65.694 12.7746 4
65.3176 16.1053 3.96901
64.6275 19.2258 3.95904
63.6669 22.1205 3.96526
71.1327 54.0858 0
65.6939 62.2254 0
68.6801 58.3339 0
65.307 58.9989 0.0299805
72.1455 51.8506 2
69.9759 56.25 2
68.8314 53.1112 2
64.0165 64.0165 2
66.606 57.1283 2
63.8806 60.7551 2
63.4315 57.7429 2
62.2254 65.694 4
58.8893 65.4088 3.97442
69.7644 50.99 3.97126
67.7781 55.1684 3.97108
66.5635 52.1839 3.96271
62.3308 62.4218 3.96817
64.5792 56.0026 3.96008
62.1842 59.38 3.95514
61.6394 56.5933 3.9608
58.3339 68.6801 4
60.3285 67.2508 2
73.7221 47.2057 0
74.6784 42.3946 0
74.9197 39.9526 2
74.2794 44.8159 2
72.1644 42.0849 2
73.0099 49.554 2
71.2451 46.5968 2
75 37.5 4
72.4028 39.8027 3.97461
71.7795 44.353 3.97313
69.7787 41.7861 3.96694
70.5712 48.8141 3.97148
68.8621 46.0032 3.96571
74.6792 32.6053 0
73.7222 27.7943 0
67.2507 14.6715 0
72.1454 23.1494 0
70.6105 26.2213 0.0287033
68.8806 21.9566 0.0287545
66.6307 17.9718 0.0302319
65.7138 21.0529 0.0391995
74.9197 35.0474 2
74.2794 30.1841 2
72.1809 32.9449 2
71.2741 28.4333 2
65.694 12.7745 2
65.3183 16.1108 2
69.8108 24.0609 2
68.2993 26.9677 2
64.6209 19.228 2
66.6892 22.958 2
63.6672 22.1208 2
72.4107 35.2253 3.97455
71.8011 30.6776 3.97317
69.8172 33.2753 3.96602
68.9255 29.0506 3.96442
67.5485 24.9314 3.96337
65.9764 27.6948 3.97387
64.0165 10.9835 4
64.5262 23.9095 3.96802
63.8826 14.3317 3.96581
63.4404 17.4789 3.95631
62.6923 20.4123 3.96222
61.7288 23.0876 3.97164
60.6787 11.1039 3.97226
57.6033 11.4939 3.96408
72.1454 51.8506 0
69.9759 56.25 0
68.8314 53.1145 0.0287442
64.0165 64.0165 0
63.8796 60.7607 0.0329611
66.6049 57.1333 0.0291943
63.44 57.7436 0.0418182
62.2255 65.694 2
58.8928 65.4026 2
69.7642 50.9876 2
67.7787 55.164 2
66.5651 52.1831 2
62.3323 62.4133 2
64.5737 56.0015 2
62.1745 59.3793 2
61.64 56.5941 2
60.6636 63.972 3.97382
57.0206 66.7318 3.97937
57.5435 63.6432 3.96805
67.43 50.1553 3.96408
65.6159 54.1458 3.96139
64.2812 51.3023 3.96918
60.7634 60.9029 3.9634
62.6098 54.981 3.96427
60.5009 58.0688 3.95553
60.0415 55.6475 3.96684
56.25 69.9759 4
58.3339 68.6801 2
60.3285 67.2507 0
58.9168 9.66176 3.97493
62.2254 9.30607 4
73.0099 49.554 0
74.2788 44.8158 0
71.246 46.5983 0.0278565
72.1655 42.0858 0.0262603
74.9194 39.9526 0
75 37.5 2
72.4021 39.802 2
71.7789 44.3517 2
69.7815 41.7858 2
70.5707 48.8123 2
68.8666 46.0028 2
72.4864 37.5128 3.97442
70.0226 39.6568 3.96696
69.3971 43.9005 3.96659
67.387 41.4768 3.97676
68.2003 48.0905 3.96491
66.4737 45.3917 3.97601
74.9197 35.0474 0
74.2794 30.1841 0
72.1822 32.9447 0.0262654
71.2751 28.4324 0.0280061
65.694 12.7746 0
65.3176 16.1053 0.0309919
69.8112 24.0589 0.028671
68.296 26.967 0.0360687
66.6874 22.9569 0.0378856
64.6275 19.2258 0.0409562
63.6669 22.1205 0.0347416
72.41 35.2251 2
71.8003 30.6784 2
69.8206 33.2756 2
68.9304 29.051 2
64.0165 10.9835 2
63.8842 14.3392 2
63.4429 17.4774 2
67.5512 24.9323 2
65.9739 27.696 2
62.6973 20.4111 2
64.525 23.9104 2
61.728 23.0888 2
60.682 11.1099 2
57.6028 11.4861 2
70.0396 35.3964 3.96646
69.4371 31.159 3.96514
67.4586 33.6154 3.97655
66.5616 29.6715 3.97518
65.2943 25.7699 3.97087
63.7398 28.3639 3.97503
62.3345 12.6613 3.96737
62.4738 24.7738 3.97427
62.1738 15.8115 3.95481
61.6035 18.7846 3.95919
60.8705 21.4945 3.96771
59.9355 23.9288 3.9735
59.2352 12.8257 3.96273
55.8672 10.2781 3.97322
56.3836 13.1985 3.96445
69.7644 50.99 0.0287436
62.2254 65.694 0
58.8893 65.4088 0.0255805
67.7781 55.1684 0.0289235
66.5635 52.1839 0.0372887
62.3308 62.4218 0.0318263
62.1842 59.38 0.0448566
64.5792 56.0026 0.0399231
61.6394 56.5933 0.0392012
60.667 63.9657 2
57.0246 66.7267 2
57.546 63.6501 2
67.4319 50.1545 2
65.615 54.1449 2
64.2794 51.3016 2
60.7564 60.9052 2
62.611 54.9817 2
60.4915 58.0675 2
60.0411 55.6482 2
55.0661 67.9293 3.98257
59.2121 62.3183 3.96804
55.7907 64.8664 3.97008
56.3105 62.0127 3.98084
65.0716 49.3343 3.97197
63.4654 53.2051 3.96669
62.0097 50.5082 3.9738
59.2435 59.4782 3.95399
60.7362 54.1665 3.97066
58.988 56.8582 3.96069
58.8631 55.0078 3.9712
48.0979 68.5677 3.9794
50.9442 69.9305 3.98647
54.0858 71.1327 4
56.25 69.976 2
58.3339 68.6801 0
57.0551 8.33935 3.97854
60.3285 7.74928 4
58.9201 9.66741 2
62.2255 9.30602 2
70.5712 48.8141 0.0285215
71.7795 44.353 0.0268704
68.8621 46.0032 0.0342853
69.7787 41.7861 0.0330622
72.4028 39.8027 0.0253863
75 37.5 0
72.4851 37.5124 2
70.0258 39.6566 2
69.3993 43.9001 2
67.3841 41.476 2
68.2016 48.0896 2
66.4698 45.3905 2
70.111 37.5235 3.96681
67.6349 39.5041 3.97665
66.999 43.4356 3.97683
65.1697 41.1772 3.97657
65.8208 47.3564 3.97448
64.2256 44.7708 3.97608
72.4107 35.2253 0.025446
71.8011 30.6776 0.0268269
69.8172 33.2753 0.0339765
68.9255 29.0506 0.0355753
64.0165 10.9835 0
63.8826 14.3317 0.0341902
63.4404 17.4789 0.0436912
67.5485 24.9314 0.0366289
65.9764 27.6948 0.026133
64.5262 23.9095 0.0319824
62.6923 20.4123 0.0377807
61.7288 23.0876 0.0283596
60.6787 11.1039 0.027737
57.6033 11.4939 0.0359209
70.0425 35.3965 2
69.4406 31.1593 2
67.456 33.6163 2
66.5585 29.6727 2
62.3376 12.6691 2
62.1718 15.8126 2
61.6131 18.7821 2
65.2923 25.771 2
63.7381 28.3644 2
60.8694 21.4958 2
62.4728 24.7751 2
59.9341 23.9303 2
59.2346 12.8247 2
56.3837 13.1927 2
55.8686 10.2801 2
67.6792 35.561 3.97671
67.0629 31.6589 3.97604
65.3292 33.9653 3.9768
64.2564 30.2787 3.97568
63.1436 26.5411 3.97474
61.6985 28.9247 3.97506
60.7603 14.2595 3.96024
60.5243 25.5331 3.97433
60.4548 17.2237 3.95527
59.8732 19.9823 3.96277
59.1832 22.4697 3.97016
58.3841 24.573 3.97374
54.0332 9.16643 3.98078
57.8682 14.4105 3.95244
54.7748 12.0895 3.96755
55.2561 14.7599 3.95269
67.43 50.1553 0.0359223
57.0206 66.7318 0.0206317
60.6636 63.972 0.0261771
57.5435 63.6432 0.0319507
65.6159 54.1458 0.0386087
64.2812 51.3023 0.030824
60.7634 60.9029 0.0365975
60.5009 58.0688 0.0444714
62.6098 54.981 0.0357312
60.0415 55.6475 0.0331603
55.0705 67.9244 2
59.2092 62.3246 2
55.794 64.8618 2
56.3081 62.0143 2
65.0692 49.3332 2
63.4644 53.2049 2
62.0087 50.5081 2
59.265 59.4872 2
60.7355 54.1669 2
58.9969 56.8613 2
58.8726 55.0104 2
53.0379 68.9968 3.98292
53.9574 65.9929 3.97101
57.846 60.8012 3.95623
54.6595 63.1176 3.9641
55.1746 60.5255 3.97717
62.7512 48.5289 3.97437
61.3502 52.4294 3.97234
59.6757 49.8118 3.97324
57.8126 58.1294 3.95727
58.888 53.7593 3.97272
57.6818 55.6066 3.9635
50.1035 67.8459 3.97566
47.4548 66.5615 3.97509
46.0526 69.1492 3.98172
48.1017 68.5686 2
48.7982 70.7212 3.98792
50.9486 69.9272 2
51.8506 72.1454 4
54.0858 71.1327 2
56.25 69.9759 0
55.0999 7.14256 3.98563
58.3339 6.31992 4
57.0591 8.34452 2
60.3286 7.74926 2
58.9168 9.66176 0.025066
62.2254 9.30607 0
68.2003 48.0905 0.0350853
69.3971 43.9005 0.0334131
66.4737 45.3917 0.0239937
67.387 41.4768 0.0232437
70.0226 39.6568 0.0330399
72.4864 37.5128 0.0255763
70.1147 37.5235 2
67.6321 39.5038 2
66.9968 43.4345 2
65.1687 41.177 2
65.8183 47.3552 2
64.2244 44.7705 2
67.7389 37.5249 3.97661
65.4121 39.3549 3.97674
64.7738 42.9699 3.97652
63.2298 40.883 3.97645
63.5207 46.6089 3.97486
62.2227 44.1142 3.97579
70.0396 35.3964 0.0335385
69.4371 31.159 0.0348631
67.4586 33.6154 0.02345
66.5616 29.6715 0.024821
62.3345 12.6613 0.0326281
62.1738 15.8115 0.045192
61.6035 18.7846 0.040805
65.2943 25.7699 0.0291321
63.7398 28.3639 0.0249723
62.4738 24.7738 0.0257259
60.8705 21.4945 0.032293
59.9355 23.9288 0.0264956
59.2352 12.8257 0.0372654
56.3836 13.1985 0.0355513
55.8672 10.2781 0.0267786
67.6768 35.5617 2
67.0607 31.6598 2
65.3274 33.9657 2
64.2552 30.2792 2
60.7582 14.2598 2
60.4493 17.2246 2
59.8703 19.9838 2
63.1421 26.5423 2
61.6982 28.9247 2
59.1843 22.4706 2
60.5233 25.5337 2
58.3809 24.5757 2
57.8714 14.4062 2
55.2503 14.7515 2
54.0369 9.16124 2
54.7692 12.0898 2
65.5113 35.6883 3.97678
64.7908 32.213 3.97608
63.8096 34.2958 3.97626
62.0208 30.7509 3.97544
61.1052 27.2418 3.97464
60.1759 29.3159 3.97559
59.2133 15.7564 3.95401
58.6825 26.0405 3.97465
58.8233 18.5197 3.95887
58.2723 21.0767 3.96447
57.7114 23.352 3.97088
57.3155 24.9493 3.97546
52.1052 8.18024 3.96745
53.0498 11.0742 3.97892
56.5717 15.8684 3.95443
53.7793 13.7807 3.96944
54.2545 16.1467 3.95606
55.0661 67.9293 0.0174283
65.0716 49.3343 0.0280316
55.7907 64.8664 0.0299184
59.2121 62.3183 0.031962
56.3105 62.0127 0.0191571
63.4654 53.2051 0.0333112
62.0097 50.5082 0.0262027
59.2435 59.4782 0.0460148
58.988 56.8582 0.0393074
60.7362 54.1665 0.0293416
58.8631 55.0078 0.0287965
53.0426 68.9936 2
53.9609 65.9928 2
57.8481 60.8055 2
54.6579 63.1184 2
55.1721 60.5245 2
62.7504 48.5286 2
61.3497 52.4297 2
59.6763 49.8116 2
57.8213 58.1344 2
58.8928 53.7604 2
57.6792 55.6057 2
52.0627 66.983 3.97351
52.9341 64.1582 3.96912
56.5443 59.3812 3.95222
53.6292 61.4925 3.96566
54.1825 59.1982 3.96436
60.3579 47.6986 3.97401
59.1815 51.9032 3.97312
57.293 49.3545 3.97392
56.4899 56.8128 3.96117
56.542 53.8712 3.96806
50.1071 67.8425 2
49.3251 65.8858 3.97447
47.4582 66.5529 2
46.8799 64.6827 3.97754
45.5543 67.0797 3.97836
43.9709 69.5824 3.98324
46.0563 69.1492 2
46.6055 71.3659 3.98941
48.0979 68.5677 0.0206044
48.8026 70.7205 2
49.554 73.0099 4
50.9442 69.9305 0.0135349
51.8506 72.1455 2
54.0858 71.1327 0
53.0619 6.07852 3.98337
55.1041 7.14518 2
56.25 5.02411 4
58.3339 6.3199 2
57.0551 8.33935 0.021465
60.3285 7.74928 0
65.8208 47.3564 0.0255249
66.999 43.4356 0.0231654
64.2256 44.7708 0.0239152
65.1697 41.1772 0.0234257
67.6349 39.5041 0.0233512
70.111 37.5235 0.0331918
67.7364 37.5253 2
65.4111 39.355 2
64.7723 42.9694 2
63.2301 40.883 2
63.5198 46.6082 2
62.2228 44.1142 2
65.5222 37.5054 3.97672
63.3792 39.2473 3.97631
62.7751 42.4807 3.9762
61.79 40.6434 3.97649
61.3486 45.7759 3.97514
60.7397 43.5664 3.97596
67.6792 35.561 0.0232869
67.0629 31.6589 0.0239645
65.3292 33.9653 0.0231964
64.2564 30.2787 0.0243174
60.7603 14.2595 0.0397554
60.4548 17.2237 0.0447285
59.8732 19.9823 0.0372316
63.1436 26.5411 0.025264
61.6985 28.9247 0.024937
60.5243 25.5331 0.0256657
59.1832 22.4697 0.0298394
58.3841 24.573 0.0262636
57.8682 14.4105 0.0475561
55.2561 14.7599 0.0473136
54.0332 9.16643 0.0192209
54.7748 12.0895 0.0324548
65.5101 35.6884 2
64.7896 32.2136 2
63.8101 34.2959 2
62.0207 30.7509 2
59.232 15.7507 2
58.8199 18.5214 2
58.2688 21.0787 2
61.1045 27.242 2
60.1768 29.3159 2
57.7082 23.355 2
58.6798 26.0417 2
57.3133 24.9531 2
56.5513 15.8726 2
54.2598 16.1392 2
53.7683 13.7731 2
52.1073 8.18527 2
53.0507 11.069 2
63.5914 35.6617 3.97619
62.3537 33.125 3.97593
59.8811 30.7721 3.97529
58.8458 28.1314 3.97495
57.7342 17.1298 3.95493
56.9977 26.0246 3.97486
57.2942 19.6976 3.95867
56.7901 22.1174 3.96489
56.5151 24.2502 3.97337
50.1079 7.30026 3.9756
51.2102 10.1978 3.96676
52.1427 12.8787 3.97806
55.3451 17.1433 3.95483
52.901 15.3909 3.96076
53.589 17.1607 3.95574
53.0379 68.9968 0.0170849
53.9574 65.9929 0.0289892
62.7512 48.5289 0.025625
54.6595 63.1176 0.0359005
57.846 60.8012 0.0437743
55.1746 60.5255 0.0228292
61.3502 52.4294 0.0276554
59.6757 49.8118 0.0267605
57.8126 58.1294 0.0427284
57.6818 55.6066 0.0365047
58.888 53.7593 0.0272844
52.0662 66.9796 2
52.9345 64.158 2
56.5404 59.3821 2
53.6274 61.4923 2
54.1758 59.2001 2
60.3582 47.6984 2
59.1839 51.9036 2
57.294 49.3552 2
56.4873 56.8167 2
56.5396 53.8705 2
51.1529 65.0901 3.96943
52.0069 62.4427 3.96386
55.3079 58.1036 3.9609
52.7262 59.9744 3.96026
53.5189 58.3245 3.96224
57.4283 46.5956 3.9749
56.9067 51.5246 3.97258
55.4212 49.244 3.9744
55.108 55.5814 3.96283
54.7112 53.1058 3.96278
50.1035 67.8459 0.0243436
49.3269 65.8867 2
48.5993 64.0694 3.97857
47.4548 66.5615 0.0249091
45.5559 67.0835 2
46.8813 64.6821 2
46.3616 62.9858 3.98176
45.1228 65.1674 3.98007
43.6295 67.4545 3.98023
41.8587 69.8694 3.98331
43.9732 69.5828 2
44.3734 71.8608 3.99017
46.0526 69.1492 0.0182777
46.6085 71.3653 2
47.2057 73.7222 4
48.7982 70.7212 0.0120813
49.554 73.0099 2
51.8506 72.1454 0
50.954 5.13676 3.98651
53.0649 6.07804 2
54.0858 3.86728 4
55.0999 7.14256 0.0143715
56.25 5.02406 2
58.3339 6.31992 0
63.5207 46.6089 0.0251407
64.7738 42.9699 0.0234814
62.2227 44.1142 0.024207
63.2298 40.883 0.0235512
65.4121 39.3549 0.0232558
67.7389 37.5249 0.0233949
65.5212 37.5055 2
63.3799 39.2477 2
62.7758 42.4803 2
61.79 40.6433 2
61.3487 45.7756 2
60.7399 43.5664 2
63.444 37.4614 3.97634
61.4873 39.3243 3.97668
60.4826 41.8647 3.97675
59.454 44.6009 3.97554
65.5113 35.6883 0.0232193
64.7908 32.213 0.0239212
63.8096 34.2958 0.023735
62.0208 30.7509 0.0245552
59.2133 15.7564 0.0459875
58.8233 18.5197 0.0411322
58.2723 21.0767 0.0355278
61.1052 27.2418 0.0253551
60.1759 29.3159 0.0244087
58.6825 26.0405 0.0253542
57.7114 23.352 0.0291225
57.3155 24.9493 0.0245371
56.5717 15.8684 0.0455656
54.2545 16.1467 0.0439404
53.7793 13.7807 0.0305617
52.1052 8.18024 0.0325485
53.0498 11.0742 0.0210782
63.5921 35.6615 2
62.3552 33.1253 2
59.882 30.7723 2
57.7424 17.1279 2
57.2961 19.6975 2
56.7879 22.1206 2
58.8463 28.1305 2
56.5249 24.253 2
56.9966 26.0237 2
50.112 7.29393 2
55.3403 17.1465 2
53.5936 17.1538 2
52.8959 15.3925 2
52.1517 12.8716 2
51.2115 10.1933 2
61.5301 35.4036 3.97636
59.4903 32.8653 3.9758
57.7386 30.2923 3.97498
56.4435 27.6734 3.97515
56.3424 18.3521 3.95625
55.5067 25.4465 3.97443
55.8497 20.7911 3.95718
55.4374 23.1916 3.96587
48.0554 6.53746 3.98064
49.3101 9.37753 3.97109
50.3922 12.1083 3.96896
51.3125 14.6045 3.96647
54.1729 18.1317 3.96028
52.2173 17.2285 3.95379
52.0627 66.983 0.0264902
52.9341 64.1582 0.0308758
60.3579 47.6986 0.0259911
53.6292 61.4925 0.0343446
56.5443 59.3812 0.0477757
54.1825 59.1982 0.0356354
59.1815 51.9032 0.0268773
57.293 49.3545 0.0260756
56.4899 56.8128 0.0388333
56.542 53.8712 0.0319433
51.1539 65.0864 2
52.0069 62.4498 2
55.301 58.1038 2
52.728 59.9778 2
53.513 58.3277 2
57.4285 46.5946 2
56.9056 51.5241 2
55.4203 49.2435 2
55.1071 55.5826 2
54.7101 53.1062 2
50.3189 63.3253 3.97126
51.1645 60.8076 3.97243
54.0006 57.0953 3.96791
52.1186 58.4522 3.97053
55.6023 43.9473 3.97547
54.5101 47.5579 3.97551
54.227 51.0645 3.96611
53.5388 54.3013 3.965
49.3251 65.8858 0.025532
48.5971 64.0792 2
47.9291 62.4177 3.98944
45.5543 67.0797 0.0216397
46.8799 64.6827 0.0224594
43.6302 67.4555 2
46.3608 62.9861 2
45.1257 65.1612 2
45.954 61.5113 3.99349
44.7525 63.3968 3.97482
43.353 65.4828 3.97858
41.663 67.6724 3.97886
39.7012 70.0166 3.98301
41.8604 69.8711 2
42.1085 72.2046 3.99066
43.9709 69.5824 0.0167622
44.3758 71.8601 2
44.8159 74.2794 4
46.6055 71.3659 0.0105916
47.2057 73.7222 2
49.554 73.0099 0
48.7851 4.3252 3.9874
50.955 5.13546 2
51.8506 2.85458 4
53.0619 6.07852 0.0166321
54.0858 3.86728 2
56.25 5.02411 0
61.3486 45.7759 0.0248573
62.7751 42.4807 0.0238035
60.7397 43.5664 0.0240398
61.79 40.6434 0.0235055
63.3792 39.2473 0.0236921
65.5222 37.5054 0.0232776
63.4453 37.4615 2
61.487 39.3248 2
60.4829 41.8644 2
59.455 44.6007 2
61.306 37.45 3.97655
59.402 39.7939 3.97673
58.0489 42.7741 3.97583
63.5914 35.6617 0.0238055
62.3537 33.125 0.0240748
59.8811 30.7721 0.0247078
57.7342 17.1298 0.0450741
57.2942 19.6976 0.0413301
56.7901 22.1174 0.0351111
58.8458 28.1314 0.0250549
56.9977 26.0246 0.0251371
56.5151 24.2502 0.0266289
55.3451 17.1433 0.045171
53.589 17.1607 0.044261
52.901 15.3909 0.0392436
50.1079 7.30026 0.0243954
52.1427 12.8787 0.0219419
51.2102 10.1978 0.033237
61.5301 35.4036 2
59.4894 32.8654 2
57.7402 30.2928 2
56.3443 18.3515 2
55.8699 20.7873 2
55.4481 23.1957 2
56.4451 27.673 2
55.51 25.4485 2
48.054 6.5404 2
49.3098 9.37433 2
54.1727 18.137 2
52.2101 17.2271 2
51.312 14.5928 2
50.395 12.1035 2
59.0227 35.1831 3.97642
56.9853 32.4396 3.97508
55.5432 29.6216 3.97513
54.5204 26.9757 3.97432
54.9969 19.4222 3.96119
54.1963 24.4201 3.97227
54.4236 21.8764 3.96154
45.9622 5.89273 3.9829
43.3722 7.4858 3.981
47.3472 8.64962 3.97227
48.5702 11.3788 3.96925
49.644 13.8714 3.97476
50.5176 16.2912 3.94966
52.865 18.9156 3.9592
51.1289 18.3222 3.95305
51.1529 65.0901 0.0305707
52.0069 62.4427 0.0361354
57.4283 46.5956 0.0251036
52.7262 59.9744 0.039739
55.3079 58.1036 0.0390986
53.5189 58.3245 0.0377561
56.9067 51.5246 0.0274212
55.4212 49.244 0.0255994
55.108 55.5814 0.0371666
54.7112 53.1058 0.0372194
50.316 63.3234 2
51.1645 60.8063 2
53.9928 57.0965 2
52.1098 58.455 2
55.6052 43.947 2
54.5105 47.5589 2
54.2221 51.0632 2
53.534 54.303 2
49.5385 61.6826 3.97518
54.2818 41.5751 3.97414
50.4269 59.1796 3.9666
51.8517 56.2811 3.96717
52.9366 45.1986 3.97264
52.3111 48.9545 3.96958
51.9999 52.5589 3.95887
48.5993 64.0694 0.0214328
47.928 62.4183 2
47.2791 60.9408 3.99003
43.6295 67.4545 0.0197733
45.1228 65.1674 0.0199263
46.3616 62.9858 0.0182369
41.6641 67.6739 2
43.3585 65.4836 2
45.9564 61.5132 2
44.7534 63.3893 2
45.7185 60.5542 4.00345
44.4594 61.7603 3.98044
43.1374 63.6811 3.97845
41.5452 65.6231 3.97413
39.6328 67.7524 3.97828
37.5258 70.0412 3.98321
39.7022 70.0168 2
39.8162 72.402 3.99102
41.8587 69.8694 0.0166901
42.1102 72.2053 2
42.3947 74.6792 4
44.3734 71.8608 0.00982574
44.8159 74.2794 2
47.2057 73.7222 0
43.8516 5.36588 3.9832
46.5705 3.65046 3.9888
48.7844 4.32667 2
49.554 1.99015 4
50.954 5.13676 0.0134862
51.8506 2.85453 2
54.0858 3.86728 0
59.454 44.6009 0.0244642
60.4826 41.8647 0.0232514
61.4873 39.3243 0.0233164
63.444 37.4614 0.0236561
61.3065 37.45 2
59.3999 39.7928 2
58.0486 42.7734 2
58.8698 37.5692 3.97677
56.9523 40.5548 3.97749
53.678 39.6147 3.97645
61.5301 35.4036 0.0236391
59.4903 32.8653 0.024196
57.7386 30.2923 0.0250208
56.3424 18.3521 0.0437471
55.8497 20.7911 0.0428222
55.4374 23.1916 0.0341314
56.4435 27.6734 0.0248527
55.5067 25.4465 0.0255689
54.1729 18.1317 0.0397205
52.2173 17.2285 0.0462061
51.3125 14.6045 0.0335284
48.0554 6.53746 0.0193644
49.3101 9.37753 0.0289144
50.3922 12.1083 0.0310426
59.0212 35.1832 2
45.9614 5.89138 2
43.3708 7.48806 2
56.9836 32.4401 2
55.5456 29.6189 2
54.9877 19.4259 2
54.4535 21.8775 2
54.1915 24.4255 2
54.5232 26.9766 2
47.3459 8.64486 2
48.5721 11.3667 2
52.8542 18.8833 2
51.1249 18.3235 2
50.5296 16.2915 2
49.6394 13.8801 2
56.2923 34.8555 3.97704
54.5563 31.7653 3.97438
53.4213 28.761 3.97594
52.8986 25.9034 3.97416
53.5796 20.4135 3.96484
52.9475 23.0775 3.96779
41.3985 7.08629 3.982
45.3557 8.00921 3.98395
42.8635 9.43446 3.97346
46.6486 10.711 3.97416
47.6887 13.1974 3.97177
48.8218 15.5379 3.97311
49.8407 17.9183 3.9649
51.3815 19.6265 3.98201
50.3189 63.3253 0.0287353
51.1645 60.8076 0.0275691
55.6023 43.9473 0.0245288
54.5101 47.5579 0.0244864
52.1186 58.4522 0.0294721
54.0006 57.0953 0.0320931
54.227 51.0645 0.0338886
53.5388 54.3013 0.0349982
49.539 61.6768 2
54.279 41.5704 2
50.4242 59.1865 2
51.856 56.2859 2
52.9305 45.1966 2
52.3065 48.9526 2
52.0045 52.56 2
48.7553 60.1301 3.99765
50.9078 42.41 3.98341
49.5677 57.4627 3.96565
50.1159 54.1878 3.95983
50.5988 46.8519 3.97715
50.3811 50.6129 3.95227
46.6577 43.3628 3.95969
47.9291 62.4177 0.0105556
47.2832 60.9397 2
46.5494 59.7218 3.99415
41.663 67.6724 0.0211412
43.353 65.4828 0.0214156
44.7525 63.3968 0.0251754
45.954 61.5113 0.00651028
39.6341 67.7529 2
41.5494 65.6187 2
45.718 60.5581 2
43.1363 63.6764 2
44.4595 61.7593 2
44.5817 60.2084 3.99361
42.9314 62.0186 3.97835
41.5922 63.7907 3.97923
39.6465 65.5921 3.976
37.5636 67.7342 3.97683
31.6997 65.1046 3.97301
33.3933 67.4709 3.97747
35.3341 69.952 3.98321
37.5258 70.0431 2
37.5093 72.456 3.99158
39.7012 70.0166 0.0169874
39.8173 72.402 2
39.9526 74.9197 4
42.1085 72.2046 0.00933938
42.3947 74.6792 2
44.8159 74.2794 0
41.7362 4.97282 3.98659
43.8506 5.36649 2
44.3264 3.11235 3.99071
46.5705 3.64989 2
47.2057 1.27793 4
48.7851 4.3252 0.0126013
49.554 1.99013 2
51.8506 2.85458 0
58.0489 42.7741 0.0241692
59.402 39.7939 0.0232712
61.306 37.45 0.0234462
58.8681 37.5705 2
56.9545 40.5546 2
53.6795 39.6147 2
55.6401 37.8825 3.97734
47.9244 41.1348 3.96684
51.4567 39.238 3.97893
39.4416 6.81137 3.98004
59.0227 35.1831 0.0235794
56.9853 32.4396 0.0249174
55.5432 29.6216 0.0248698
54.9969 19.4222 0.0388142
54.4236 21.8764 0.0384579
54.1963 24.4201 0.027729
54.5204 26.9757 0.0256823
52.865 18.9156 0.040795
51.1289 18.3222 0.046951
50.5176 16.2912 0.0503352
45.9622 5.89273 0.0171007
49.644 13.8714 0.0252368
47.3472 8.64962 0.0277317
48.5702 11.3788 0.0307458
43.3722 7.4858 0.0189996
56.2931 34.8596 2
41.3984 7.08838 2
45.3532 8.00867 2
42.8584 9.4384 2
54.5562 31.7672 2
53.418 28.7602 2
53.5837 20.4189 2
52.9179 23.0847 2
52.9063 25.9059 2
46.6471 10.6996 2
47.691 13.1889 2
51.3797 19.6259 2
49.8405 17.9235 2
48.8321 15.57 2
53.4721 34.0904 3.97525
52.1941 30.8397 3.97469
51.5535 27.626 3.97497
51.3964 24.52 3.97156
51.9588 21.3901 3.97873
41.0115 9.05882 3.9776
44.7203 10.0188 3.97738
42.4514 10.9198 4.00533
45.9547 12.7928 3.96821
47.5994 14.7228 3.96873
47.9678 17.1348 3.98145
49.6217 20.0343 3.98798
49.5385 61.6826 0.024821
50.4269 59.1796 0.0334007
54.2818 41.5751 0.0258557
52.9366 45.1986 0.0273585
52.3111 48.9545 0.0304206
51.8517 56.2811 0.0328274
51.9999 52.5589 0.041125
48.7534 60.1269 2
50.9291 42.4298 2
49.5651 57.462 2
50.1163 54.1902 2
50.5994 46.8513 2
50.3842 50.613 2
46.667 43.4072 2
47.8573 58.6085 3.99035
48.6597 44.9191 3.9814
48.2799 55.7321 3.95411
48.5319 52.326 3.98038
48.6953 48.673 3.97127
44.3312 39.6864 3.81698
44.8857 42.2978 3.86465
45.2312 45.3014 3.97775
42.2289 40.9459 3.58433
41.2381 41.5079 3.38312
47.2791 60.9408 0.0099739
46.5446 59.7271 2
45.3907 58.7058 3.99484
39.6328 67.7524 0.0217215
41.5452 65.6231 0.0258704
43.1374 63.6811 0.0215548
44.4594 61.7603 0.019561
45.7185 60.5542 -0.00345249
41.5953 63.7819 2
37.5645 67.7367 2
39.6505 65.5932 2
44.5801 60.2113 2
42.9308 62.0138 2
41.7404 62.4366 3.98468
42.4494 59.9066 3.98849
39.888 63.5274 3.97884
37.6412 65.4889 3.97431
35.4637 67.6434 3.97593
33.5765 65.3188 3.97384
31.9659 63.2611 3.98155
29.8902 64.692 3.97933
31.6969 65.1081 2
31.3796 67.1819 3.97827
33.3933 67.4732 2
33.1581 69.7449 3.98298
35.3335 69.9534 2
35.1964 72.371 3.99173
37.5258 70.0412 0.0167947
37.5098 72.4566 2
37.5 75 4
39.8162 72.402 0.00897671
39.9526 74.9197 2
42.3947 74.6792 0
39.6244 4.72021 3.98705
41.7356 4.97331 2
42.0628 2.71928 3.99168
43.8516 5.36588 0.0167996
44.3258 3.11238 2
44.8158 0.721173 4
46.5705 3.65046 0.0111988
47.2057 1.27779 2
49.554 1.99015 0
56.9523 40.5548 0.0225061
58.8698 37.5692 0.0232331
53.678 39.6147 0.0235468
47.9617 41.1527 2
55.633 37.8786 2
51.4712 39.227 2
52.3782 36.6288 3.9765
45.8513 40.2254 3.88216
48.814 38.4767 3.96851
37.5157 6.67971 3.98361
39.4421 6.81156 2
39.2092 8.70705 3.97937
35.9426 8.50255 3.98022
56.2923 34.8555 0.0229571
54.5563 31.7653 0.0256204
53.4213 28.761 0.0240576
53.5796 20.4135 0.0351588
52.9475 23.0775 0.0322126
52.8986 25.9034 0.025844
51.3815 19.6265 0.0179888
49.8407 17.9183 0.0351038
48.8218 15.5379 0.0268857
45.3557 8.00921 0.0160487
47.6887 13.1974 0.0282264
46.6486 10.711 0.0258407
41.3985 7.08629 0.0179966
42.8635 9.43446 0.0265366
53.4714 34.0931 2
41.0084 9.06372 2
44.7159 10.019 2
42.4482 10.9309 2
52.197 30.8347 2
51.5589 27.625 2
51.9646 21.3879 2
51.3852 24.5265 2
45.9579 12.7813 2
47.5948 14.7086 2
49.6316 20.0582 2
47.9701 17.1397 2
50.8823 33.0783 3.97575
50.0148 29.6108 3.97633
49.8569 26.1336 3.97071
49.5102 22.6069 3.97787
40.5543 11.6154 3.98656
43.8167 11.9444 3.96271
45.7232 15.6013 3.99203
47.3366 19.6306 3.9809
44.6846 37.495 3.82572
48.7553 60.1301 0.00234807
49.5677 57.4627 0.0343534
50.9078 42.41 0.0165918
50.5988 46.8519 0.022852
50.3811 50.6129 0.047733
50.1159 54.1878 0.0401655
46.6577 43.3628 0.0403057
47.8484 58.6138 2
48.6735 44.9344 2
48.2756 55.7352 2
48.5318 52.3308 2
48.6996 48.6737 2
44.4594 39.7073 2
44.9203 42.3309 2
45.2386 45.3248 2
42.2951 41.0093 2
41.2789 41.5341 2
46.6528 57.2059 3.99151
42.86 39.369 3.57592
41.6189 40.4983 3.36385
46.9179 46.9142 3.9903
46.7603 54.0179 3.95906
46.8615 50.4591 3.97345
43.8868 46.9256 3.98471
43.5521 41.6771 3.82157
43.7718 44.0724 3.85147
41.5123 42.1819 3.62447
40.3727 41.7832 3.31061
46.5494 59.7218 0.00584918
45.3817 58.7066 2
43.7972 57.5754 3.99114
37.5636 67.7342 0.0231729
39.6465 65.5921 0.024
41.5922 63.7907 0.0207661
42.9314 62.0186 0.021653
44.5817 60.2084 0.00638594
35.4639 67.6453 2
41.7388 62.4295 2
39.8893 63.5301 2
37.644 65.4924 2
42.4482 59.9058 2
40.6119 61.5842 3.98484
40.4213 58.0815 3.99127
37.8349 63.1819 3.97399
35.5728 65.4099 3.97463
33.5755 65.3143 2
31.9691 63.2547 2
33.6323 63.3112 3.98318
30.3925 62.8088 3.97782
32.1424 61.9642 3.99386
26.9089 61.3897 3.99028
28.078 64.1103 3.98693
29.8897 64.6875 2
29.4108 66.7425 3.97822
31.6997 65.1046 0.0269898
31.3795 67.1828 2
31.0163 69.4104 3.98271
33.3933 67.4709 0.0225321
33.1569 69.7466 2
32.8948 72.1451 3.99095
35.3341 69.952 0.0167878
35.1959 72.3717 2
35.0474 74.9194 4
37.5093 72.456 0.00841908
37.5 75 2
39.9526 74.9197 0
35.6201 6.73154 3.98147
37.5242 4.61923 3.98793
39.6237 4.71993 2
39.7894 2.47563 3.99211
41.7362 4.97282 0.0134052
42.0623 2.71927 2
42.3946 0.32156 4
44.3264 3.11235 0.00928985
44.8159 0.72056 2
47.2057 1.27793 0
47.9244 41.1348 0.0331556
55.6401 37.8825 0.0226624
51.4567 39.238 0.0210664
45.8977 40.2201 2
48.8408 38.4563 2
52.3849 36.6264 2
49.6458 35.581 3.97805
46.4508 37.708 3.85497
44.3574 35.2643 3.82025
42.2808 33.9904 3.58589
41.2798 33.428 3.38524
37.4578 8.54111 3.98293
37.5163 6.68042 2
39.4416 6.81137 0.019964
39.2091 8.70846 2
38.9692 10.1422 3.99187
35.8974 9.78595 3.98213
34.1524 8.83395 3.97789
35.9426 8.50356 2
53.4721 34.0904 0.0247501
52.1941 30.8397 0.0253061
51.5535 27.626 0.0250329
51.9588 21.3901 0.0212681
51.3964 24.52 0.0284378
49.6217 20.0343 0.0120183
47.9678 17.1348 0.0185497
47.5994 14.7228 0.0312651
44.7203 10.0188 0.0226203
45.9547 12.7928 0.0317903
41.0115 9.05882 0.0223967
42.4514 10.9198 -0.00532901
50.9014 33.0601 2
40.5587 11.6315 2
43.8172 11.932 2
50.0279 29.6093 2
49.8599 26.1467 2
49.4997 22.5751 2
45.7094 15.5455 2
47.3432 19.6691 2
48.4801 31.6397 3.98079
48.1795 27.9115 3.97483
48.6921 24.7474 3.97167
46.8921 22.4288 3.99292
38.2958 12.7667 3.97948
42.0547 14.4136 3.98776
44.6761 18.7157 3.99565
43.1774 37.4781 3.58262
44.7959 37.482 2
47.8573 58.6085 0.0096463
48.2799 55.7321 0.0458876
48.6597 44.9191 0.0186035
48.6953 48.673 0.0287259
48.5319 52.326 0.0196154
44.3312 39.6864 0.183022
44.8857 42.2978 0.135352
45.2312 45.3014 0.0222516
42.2289 40.9459 0.41567
41.2381 41.5079 0.616879
46.6481 57.2104 2
42.9527 39.3876 2
41.6409 40.5085 2
46.9236 46.9172 2
46.7538 54.0217 2
46.8612 50.4715 2
43.9292 46.9387 2
43.6239 41.7344 2
43.8308 44.1083 2
41.569 42.2763 2
40.4383 41.8023 2
45.1617 55.7639 4.00195
41.9428 39.0725 3.37304
40.2348 40.4264 3.42651
45.242 48.5531 4.00321
44.9944 52.2508 3.99503
42.7098 47.9027 3.98938
42.5602 45.5564 3.85946
42.618 43.3848 3.80163
40.6319 43.0862 3.58888
39.1167 42.0685 3.39641
45.3907 58.7058 0.00516394
43.7895 57.5896 2
42.0233 56.1159 3.9963
35.4637 67.6434 0.0240686
37.6412 65.4889 0.0256911
39.888 63.5274 0.0211635
41.7404 62.4366 0.0153178
42.4494 59.9066 0.0115124
35.5745 65.4137 2
40.6104 61.5727 2
37.8369 63.1819 2
40.4196 58.0928 2
38.9128 56.2607 3.99636
38.2432 60.2692 3.98558
35.6071 63.1766 3.97338
33.5765 65.3188 0.026157
31.9659 63.2611 0.0184525
33.6342 63.3122 2
30.3944 62.8044 2
32.1473 61.9587 2
28.7029 62.1431 3.98025
33.3599 61.4749 3.9881
31.1035 61.1746 3.99582
27.6493 59.4878 3.97729
23.8979 58.9421 3.98059
25.0912 60.7468 3.98052
26.9089 61.3907 2
26.2543 63.4339 3.9739
28.0785 64.1081 2
27.4712 66.1561 3.97748
29.8902 64.692 0.0206683
29.4099 66.7467 2
28.9099 68.9343 3.98194
31.3796 67.1819 0.0217299
31.0145 69.4107 2
30.6181 71.7769 3.99042
33.1581 69.7449 0.0170174
32.8934 72.1458 2
32.6054 74.6784 4
35.1964 72.371 0.00827003
35.0474 74.9197 2
37.5 75 0
33.7227 6.98763 3.97968
35.4363 4.68915 3.98738
35.6209 6.73242 2
37.5153 2.38816 3.99233
37.5234 4.61909 2
39.6244 4.72021 0.0129519
39.7887 2.47542 2
39.9526 0.0806499 4
42.0628 2.71928 0.00832277
42.3947 0.320817 2
44.8158 0.721173 0
42.8931 35.5787 3.58378
41.6578 34.4263 3.34857
45.8513 40.2254 0.117842
48.814 38.4767 0.0314941
52.3782 36.6288 0.0235044
46.4676 37.7107 2
49.6789 35.6159 2
44.4734 35.2501 2
42.3388 33.9246 2
41.3007 33.4005 2
46.7419 34.4784 3.92658
43.6095 33.2642 3.81387
41.5553 32.7574 3.62774
40.3936 33.1605 3.30914
37.3065 10.6406 3.98118
37.4582 8.54269 2
37.5157 6.67971 0.0163868
39.2092 8.70705 0.0206319
38.9741 10.148 2
34.7556 10.3974 3.97587
35.9019 9.78608 2
32.3804 9.38446 3.97249
34.1518 8.83569 2
35.9426 8.50255 0.019776
50.8823 33.0783 0.0242538
50.0148 29.6108 0.0236691
49.8569 26.1336 0.0292888
49.5102 22.6069 0.0221322
47.3366 19.6306 0.0191014
45.7232 15.6013 0.00796598
43.8167 11.9444 0.0372926
40.5543 11.6154 0.0134355
48.5001 31.6216 2
38.2963 12.7705 2
42.0667 14.4117 2
48.1775 27.9103 2
48.6939 24.7533 2
46.8827 22.418 2
44.6792 18.7751 2
46.4608 29.936 3.97806
46.3842 25.4527 3.97787
44.1007 21.715 3.98604
36.5881 12.9822 3.97998
38.6572 14.9168 3.97969
41.6675 18.0399 3.99117
42.1037 37.448 3.39383
43.2599 37.4788 2
44.6846 37.495 0.174276
46.6528 57.2059 0.00849325
46.7603 54.0179 0.0409415
46.9179 46.9142 0.0097027
46.8615 50.4591 0.0265481
42.86 39.369 0.424083
43.5521 41.6771 0.17843
43.7718 44.0724 0.148526
43.8868 46.9256 0.0152859
41.5123 42.1819 0.375535
41.6189 40.4983 0.636148
40.3727 41.7832 0.689387
45.1571 55.7663 2
41.9662 39.0802 2
40.3188 40.4179 2
45.2405 48.5784 2
44.9873 52.2542 2
42.7604 47.9272 2
42.6317 45.6275 2
42.6654 43.4182 2
40.7025 43.1759 2
39.0842 42.1071 2
43.4794 54.1913 4.0062
40.2961 38.9388 3.45909
39.0183 40.5249 3.4154
43.0485 50.0114 4.00342
41.4044 47.0352 3.91259
41.3159 44.6291 3.7994
39.3686 43.7432 3.57842
37.5097 42.2216 3.46329
43.7972 57.5754 0.00885636
42.0245 56.1065 2
40.324 54.6765 3.99688
35.5728 65.4099 0.025365
37.8349 63.1819 0.0260097
40.6119 61.5842 0.0151578
40.4213 58.0815 0.00873465
35.6102 63.174 2
38.2404 60.2592 2
38.9147 56.2527 2
37.9856 54.9392 3.99506
36.9359 57.4904 3.99546
35.3685 60.868 3.98778
33.6323 63.3112 0.0168173
30.3925 62.8088 0.0221765
32.1424 61.9642 0.00614087
33.3664 61.4703 2
28.7003 62.1508 2
31.1079 61.173 2
29.4641 60.2376 3.98364
32.3825 59.6175 3.99509
28.1401 58.2757 4.00946
27.6518 59.4873 2
25.4915 58.4707 3.9759
22.9069 58.0892 3.97017
23.469 60.212 3.97284
23.8996 58.943 2
25.0923 60.7464 2
24.4674 62.697 3.97401
26.9089 61.3897 0.00972166
26.2543 63.4351 2
25.5601 65.4616 3.974
28.078 64.1103 0.0130735
27.4686 66.153 2
26.8415 68.3227 3.98057
29.4108 66.7425 0.0217827
28.9071 68.9346 2
28.3739 71.262 3.98888
31.0163 69.4104 0.0172931
30.6161 71.7763 2
30.1842 74.2788 4
32.8948 72.1451 0.00904665
32.6053 74.6792 2
35.0474 74.9194 0
31.7871 7.42961 3.97703
33.3485 4.92868 3.98596
33.7237 6.98856 2
35.2459 2.46406 3.99222
35.4352 4.68973 2
35.6201 6.73154 0.0185309
37.5 0 4
37.5141 2.38814 2
37.5242 4.61923 0.0120729
39.7894 2.47563 0.00789305
39.9526 0.0802889 2
42.3946 0.32156 0
41.9414 35.8219 3.3272
42.9989 35.5595 2
40.2933 34.4875 3.44068
41.6731 34.4108 2
46.4508 37.708 0.145028
49.6458 35.581 0.0219531
44.3574 35.2643 0.179754
42.2808 33.9904 0.414108
41.2798 33.428 0.614763
46.7847 34.4813 2
43.6698 33.2042 2
41.6034 32.6671 2
40.4436 33.1417 2
44.9162 31.9516 3.87971
42.6596 31.5519 3.79131
40.6738 31.8555 3.59354
39.1175 32.8845 3.39474
35.6961 11.8018 3.97496
37.3142 10.6421 2
37.4578 8.54111 0.0170667
38.9692 10.1422 0.00812774
33.1044 11.2428 3.97287
34.7587 10.3953 2
35.8974 9.78595 0.0178702
30.4882 10.0396 3.9736
32.3796 9.3856 2
34.1524 8.83395 0.0221058
48.4801 31.6397 0.0192147
48.1795 27.9115 0.0251662
48.6921 24.7474 0.028331
46.8921 22.4288 0.00707875
44.6761 18.7157 0.00435349
42.0547 14.4136 0.0122403
38.2958 12.7667 0.0205172
36.5837 12.9752 2
46.4472 29.8779 2
38.6642 14.8906 2
41.6537 18.0279 2
46.3902 25.4398 2
44.0881 21.7004 2
44.5563 28.0949 3.99351
43.3312 24.366 4.01149
41.2077 21.0625 3.99453
35.7741 14.8146 3.99281
38.6174 17.789 3.99127
40.3527 37.4072 3.48865
42.1334 37.4546 2
43.1774 37.4781 0.417377
45.1617 55.7639 -0.00194537
44.9944 52.2508 0.00497477
45.242 48.5531 -0.00320838
41.9428 39.0725 0.626961
42.618 43.3848 0.198366
42.5602 45.5564 0.140542
42.7098 47.9027 0.0106164
40.6319 43.0862 0.411119
40.2348 40.4264 0.573487
39.1167 42.0685 0.603594
43.473 54.1886 2
40.3443 38.9428 2
38.9958 40.5296 2
43.0355 50.0331 2
41.3963 47.06 2
41.3393 44.6736 2
37.5022 42.2473 2
39.3877 43.8331 2
41.6361 52.6399 4.00318
39.0317 39.003 3.40265
37.5048 40.5646 3.48445
35.8993 42.0892 3.39317
40.6363 49.1625 3.9895
39.5909 45.3144 3.76717
37.507 44.0498 3.6282
42.0233 56.1159 0.00369871
40.3199 54.6841 2
38.6931 53.4107 3.99872
35.6071 63.1766 0.0266164
38.2432 60.2692 0.0144185
38.9128 56.2607 0.00363971
35.3712 60.8515 2
36.9363 57.4974 2
37.98 54.9341 2
36.3431 55.0491 3.99821
34.5121 58.4114 3.99889
33.3599 61.4749 0.0118997
28.7029 62.1431 0.0197464
31.1035 61.1746 0.00418291
32.382 59.6192 2
29.4675 60.2446 2
30.3942 57.6836 3.98309
28.1418 58.2737 2
27.1463 56.7022 3.96338
27.6493 59.4878 0.022711
25.4943 58.4709 2
24.0822 56.639 3.95913
21.5846 57.2185 3.96079
22.081 59.4886 3.97245
22.908 58.0908 2
22.7811 61.9119 3.97218
23.4704 60.2123 2
23.8979 58.9421 0.0194113
25.0912 60.7468 0.0194772
24.4678 62.6992 2
23.6985 64.6701 3.96865
26.2543 63.4339 0.0261028
25.5578 65.4629 2
24.8145 67.5833 3.97544
27.4712 66.1561 0.0225157
26.8385 68.324 2
26.1694 70.603 3.98836
28.9099 68.9343 0.0180635
28.3713 71.2617 2
27.7943 73.7221 4
30.6181 71.7769 0.00957624
30.1841 74.2794 2
32.6054 74.6784 0
29.8104 8.00873 3.97422
31.2536 5.33687 3.98439
31.7879 7.42941 2
32.9818 2.70208 3.9917
33.3473 4.92944 2
33.7227 6.98763 0.0203204
35.0474 0.080333 4
35.2444 2.46442 2
35.4363 4.68915 0.0126174
37.5 0 2
37.5153 2.38816 0.00767283
39.9526 0.0806499 0
40.4187 35.9302 3.49089
41.9801 35.8213 2
42.8931 35.5787 0.416219
28.5505 10.7176 3.97323
39.018 34.443 3.40047
40.3031 34.4829 2
41.6578 34.4263 0.651435
46.7419 34.4784 0.0734229
43.6095 33.2642 0.186127
41.5553 32.7574 0.372264
40.3936 33.1605 0.690859
44.9458 31.9271 2
42.7121 31.5088 2
40.7389 31.7667 2
39.0981 32.8428 2
43.416 30.2361 3.86292
41.3398 30.2984 3.80061
39.3758 31.2047 3.58385
37.5177 32.7529 3.46112
34.1023 12.9666 3.98074
35.7001 11.7919 2
37.3065 10.6406 0.0188189
31.196 12.0154 3.97496
33.1058 11.239 2
34.7556 10.3974 0.0241291
30.484 10.0351 2
32.3804 9.38446 0.0275063
46.4608 29.936 0.0219419
46.3842 25.4527 0.0221258
36.5881 12.9822 0.0200201
44.1007 21.715 0.0139604
41.6675 18.0399 0.00882984
38.6572 14.9168 0.0203067
35.7663 14.8325 2
44.5547 28.0952 2
38.6304 17.7697 2
41.2023 21.0449 2
43.3273 24.3418 2
33.6337 15.9281 3.98896
42.4722 26.8761 3.96748
40.7399 23.7515 3.99988
38.3598 20.6018 3.99342
35.8225 17.6806 3.98389
39.046 37.4827 3.39243
40.3823 37.416 2
42.1037 37.448 0.606168
43.4794 54.1913 -0.00619852
43.0485 50.0114 -0.00342071
40.2961 38.9388 0.540914
41.3159 44.6291 0.200605
41.4044 47.0352 0.0874072
39.3686 43.7432 0.421585
39.0183 40.5249 0.584596
37.5097 42.2216 0.53671
41.624 52.6358 2
39.0064 38.9973 2
37.4947 40.5683 2
40.6182 49.1679 2
35.9259 42.1232 2
39.6231 45.3869 2
37.4981 44.1301 2
39.6813 51.3841 3.99942
37.5078 39 3.46276
36.0219 40.5477 3.41133
34.6453 41.8131 3.30942
35.6453 43.7622 3.57794
38.5917 47.984 3.92036
37.4978 45.6045 3.80019
40.324 54.6765 0.00311774
38.687 53.4228 2
36.7715 52.7736 3.9983
35.3685 60.868 0.0122198
36.9359 57.4904 0.00453958
37.9856 54.9392 0.00493781
34.5088 58.4243 2
36.3491 55.0448 2
33.3617 55.2494 4.00527
32.3825 59.6175 0.00491124
29.4641 60.2376 0.0163587
30.3955 57.6715 2
28.9732 55.214 3.99383
28.1401 58.2757 -0.00946499
27.1504 56.7 2
25.6593 54.9632 3.95749
22.2158 55.1254 3.95874
25.4915 58.4707 0.0241044
24.0847 56.6402 2
20.4766 56.8492 3.96176
20.7686 58.6396 3.96129
21.588 57.2201 2
21.2217 61.0446 3.96831
22.0806 59.4887 2
22.9069 58.0892 0.0298314
21.92 63.7664 3.97136
22.782 61.9145 2
23.469 60.212 0.0271624
24.4674 62.697 0.0259884
23.6965 64.6679 2
22.8429 66.7226 3.97218
25.5601 65.4616 0.0259962
24.8115 67.5799 2
24.0137 69.8046 3.98707
26.8415 68.3227 0.0194339
26.1657 70.6024 2
25.446 73.0099 4
28.3739 71.262 0.0111224
27.7943 73.7222 2
30.1842 74.2788 0
27.8212 8.67215 3.97374
29.1558 5.88523 3.98119
29.8097 8.00551 2
30.7274 3.09954 3.99108
31.2525 5.33635 2
31.7871 7.42961 0.0229686
32.6053 0.320823 4
32.9802 2.70261 2
33.3485 4.92868 0.0140386
35.0474 0.0802903 2
35.2459 2.46406 0.00777616
37.5 0 0
38.9473 35.9684 3.40873
40.3966 35.9261 2
41.9414 35.8219 0.672803
28.5466 10.7163 2
26.634 11.4186 3.97327
29.2389 12.6693 3.97759
37.5268 34.4144 3.48484
39.0396 34.4531 2
40.2933 34.4875 0.559317
44.9162 31.9516 0.120293
42.6596 31.5519 0.208691
40.6738 31.8555 0.406463
39.1175 32.8845 0.605261
43.4519 30.205 2
41.3795 30.2496 2
39.394 31.1138 2
37.5276 32.7242 2
41.7558 28.9636 3.85193
39.6061 29.6257 3.79006
37.5124 30.911 3.62946
35.9103 32.8976 3.40007
31.9424 14.5154 3.9846
34.1059 12.9681 2
35.6961 11.8018 0.0250414
31.1952 12.0046 2
33.1044 11.2428 0.0271282
30.4882 10.0396 0.026398
44.5563 28.0949 0.0064889
43.3312 24.366 -0.0114872
35.7741 14.8146 0.00719463
41.2077 21.0625 0.0054685
38.6174 17.789 0.00873089
33.6161 15.9191 2
35.8412 17.5918 2
42.5392 26.8433 2
38.3298 20.6392 2
40.7238 23.7606 2
33.5709 17.4675 3.99092
40.1892 26.2525 3.96425
38.0087 23.5236 3.9966
35.5153 20.4168 3.99604
37.5312 37.4758 3.48172
39.01 37.475 2
40.3527 37.4072 0.511349
41.6361 52.6399 -0.00317512
40.6363 49.1625 0.0104995
39.0317 39.003 0.597354
39.5909 45.3144 0.23283
37.507 44.0498 0.371796
37.5048 40.5646 0.515554
35.8993 42.0892 0.606828
39.6657 51.3778 2
37.498 39.0026 2
36.0083 40.5264 2
38.6158 48.0515 2
34.5888 41.8327 2
35.6212 43.8509 2
37.5025 45.6703 2
37.6741 50.3421 3.98967
36.0723 39.0245 3.41402
34.7561 40.4646 3.44149
33.7626 41.5455 3.38631
34.3879 43.1167 3.5849
35.3721 45.3822 3.7964
36.935 47.6086 3.87489
38.6931 53.4107 0.00128091
36.787 52.7202 2
34.5238 52.1106 4.00064
34.5121 58.4114 0.00111497
36.3431 55.0491 0.00178654
33.3673 55.2555 2
30.8421 53.2062 3.99682
30.3942 57.6836 0.0169111
28.9774 55.218 2
27.3329 53.2248 3.95448
27.1463 56.7022 0.0366208
25.6643 54.9647 2
24.1111 53.216 3.95366
21.1187 52.9382 3.95845
20.3205 55.6179 3.96064
22.217 55.1256 2
24.0822 56.639 0.0408739
19.6297 57.7338 3.9621
20.4699 56.854 2
19.7582 60.0986 3.97343
20.7579 58.6451 2
21.5846 57.2185 0.039211
20.2427 62.756 3.97046
21.2271 61.0476 2
22.081 59.4886 0.0275453
20.9473 65.7363 3.96925
21.9182 63.7658 2
22.7811 61.9119 0.0278154
23.6985 64.6701 0.0313526
22.8408 66.7203 2
21.9168 68.8698 3.98427
24.8145 67.5833 0.0245645
24.0101 69.8019 2
23.1494 72.1454 4
26.1694 70.603 0.0116391
25.446 73.0099 2
27.7943 73.7221 0
25.8613 9.40469 3.97288
27.0707 6.55121 3.97853
27.8188 8.66898 2
28.49 3.64557 3.98976
29.1539 5.88393 2
29.8104 8.00873 0.025776
30.1841 0.720592 4
30.725 3.09963 2
31.2536 5.33687 0.0156079
32.6053 0.320817 2
32.9818 2.70208 0.0083025
35.0474 0.080333 0
37.5215 35.9577 3.45128
38.9248 35.9348 2
40.4187 35.9302 0.509113
24.7964 12.0946 3.96837
23.7926 14.4972 3.98065
28.5505 10.7176 0.0267665
26.6288 11.4177 2
29.2377 12.6703 2
27.3041 13.4373 3.97361
29.8153 14.2239 3.9959
36.0052 34.4418 3.42246
37.5448 34.4055 2
39.018 34.443 0.599529
37.5177 32.7529 0.538881
43.416 30.2361 0.137075
41.3398 30.2984 0.19939
39.3758 31.2047 0.416152
41.7852 28.8877 2
39.6253 29.5556 2
37.5155 30.8356 2
35.938 32.8618 2
39.7897 28.2491 3.85046
37.4764 29.342 3.78716
35.6588 31.2273 3.58108
34.6403 33.1809 3.3154
30.9803 16.8777 3.99632
31.9368 14.4971 2
34.1023 12.9666 0.0192559
31.196 12.0154 0.0250441
42.4722 26.8761 0.0325243
40.7399 23.7515 0.000116255
33.6337 15.9281 0.0110363
35.8225 17.6806 0.0161102
38.3598 20.6018 0.0065758
33.541 17.515 2
35.4913 20.4825 2
40.1943 26.2314 2
38.0402 23.5155 2
32.991 19.9881 3.99829
37.7573 25.9214 3.95743
35.3851 23.1718 4.01022
36.0355 37.4736 3.39909
37.5078 37.4757 2
39.046 37.4827 0.607568
39.6813 51.3841 0.000577682
38.5917 47.984 0.0796448
37.5078 39 0.537241
37.4978 45.6045 0.199812
35.6453 43.7622 0.422064
36.0219 40.5477 0.588668
34.6453 41.8131 0.690577
37.6469 50.3791 2
36.119 39.0093 2
34.7001 40.4788 2
36.9316 47.6763 2
33.7234 41.5746 2
34.3188 43.2002 2
35.3388 45.4422 2
35.5839 49.5439 3.98103
34.655 39.0047 3.48544
33.383 40.5457 3.35007
33.4939 42.2167 3.62627
33.7311 44.6552 3.79036
34.6686 46.781 3.85217
36.7715 52.7736 0.00170279
34.5083 52.1414 2
32.3939 50.91 4.0026
33.3617 55.2494 -0.00527084
30.845 53.2027 2
28.9562 51.2641 3.98685
28.9732 55.214 0.00617324
27.3388 53.2269 2
25.7283 51.4368 3.95376
25.6593 54.9632 0.0425114
24.1167 53.2202 2
22.7081 51.489 3.9562
20.0319 51.3152 3.96453
19.4841 54.0544 3.96138
21.123 52.9366 2
18.7672 56.5377 3.96262
20.3193 55.6207 2
22.2158 55.1254 0.0412591
18.4773 58.9892 3.95733
19.6257 57.7382 2
20.4766 56.8492 0.0382356
18.6422 61.6927 3.9778
19.7609 60.1014 2
20.7686 58.6396 0.0387145
19.1417 64.6224 3.96768
20.2423 62.7569 2
21.2217 61.0446 0.0316899
19.8903 67.808 3.98259
20.9445 65.7328 2
21.92 63.7664 0.0286371
22.8429 66.7226 0.0278179
21.9127 68.8673 2
20.9142 71.1327 4
24.0137 69.8046 0.0129339
23.1494 72.1455 2
25.446 73.0099 0
23.1165 12.9027 3.97638
23.9768 10.1863 3.97371
25.0242 7.32315 3.97593
25.8596 9.40515 2
26.2821 4.33031 3.9883
27.0676 6.55116 2
27.8212 8.67215 0.0262567
27.7943 1.27781 4
28.4865 3.64655 2
29.1558 5.88523 0.0188076
30.1841 0.720551 2
30.7274 3.09954 0.00891798
32.6053 0.320823 0
36.007 35.9544 3.40755
37.5621 35.9705 2
38.9473 35.9684 0.591266
24.7837 12.1339 2
23.7894 14.5071 2
22.5401 15.1725 3.98605
25.3831 14.0402 3.97466
24.1079 15.7505 4.01483
26.634 11.4186 0.0267336
29.2389 12.6693 0.0224072
27.3147 13.4121 2
29.8067 14.2274 2
28.4257 15.9877 3.99115
34.7801 34.5301 3.42978
36.0319 34.4399 2
37.5268 34.4144 0.515156
35.9103 32.8976 0.59993
37.5124 30.911 0.370542
41.7558 28.9636 0.148067
39.6061 29.6257 0.209936
39.8392 28.1903 2
37.4862 29.2931 2
35.6391 31.1367 2
34.5823 33.1624 2
37.6308 27.9653 3.84808
35.428 29.6418 3.78683
34.3738 31.876 3.59058
33.7664 33.4531 3.38607
30.3333 19.6349 3.98326
30.948 16.8781 2
31.9424 14.5154 0.0153952
40.1892 26.2525 0.0357469
38.0087 23.5236 0.00339982
33.5709 17.4675 0.00908382
35.5153 20.4168 0.00395647
32.9984 20.0111 2
35.3372 23.1547 2
37.7367 25.8976 2
32.6275 22.746 4.00294
35.2482 25.7854 3.98393
34.6464 37.5115 3.50646
36.0292 37.4954 2
37.5312 37.4758 0.518276
37.6741 50.3421 0.0103325
36.935 47.6086 0.125111
36.0723 39.0245 0.585984
35.3721 45.3822 0.203597
34.3879 43.1167 0.415104
34.7561 40.4646 0.558509
33.7626 41.5455 0.613686
35.5644 49.5585 2
34.6303 39.0142 2
33.3642 40.5532 2
34.6033 46.8579 2
33.4381 42.3107 2
33.6881 44.7029 2
33.5982 48.6784 3.97151
33.0772 39.1347 3.33179
32.7525 40.981 3.58436
32.3838 43.421 3.79777
32.9637 45.7841 3.84849
34.5238 52.1106 -0.000640495
32.4102 50.909 2
30.5629 49.4164 4.00371
30.8421 53.2062 0.00318292
28.9641 51.2659 2
27.2912 49.635 3.978
27.3329 53.2248 0.0455162
25.7338 51.4348 2
24.195 49.8342 3.96881
24.1111 53.216 0.0463425
22.713 51.4869 2
21.403 49.9612 3.96783
18.7569 50.0379 3.97343
18.5334 52.5137 3.96672
20.0259 51.3154 2
17.9169 55.1203 3.96244
19.4801 54.0555 2
21.1187 52.9382 0.0415539
17.3592 57.7274 3.95936
18.7686 56.5383 2
20.3205 55.6179 0.0393585
17.1826 60.4651 3.95625
18.4739 58.9951 2
19.6297 57.7338 0.0378999
17.4124 63.4183 3.97384
18.6434 61.6917 2
19.7582 60.0986 0.0265704
17.9469 66.6099 3.97519
19.1375 64.6193 2
20.2427 62.756 0.029544
18.75 69.9759 4
19.8868 67.804 2
20.9473 65.7363 0.0307485
21.9168 68.8698 0.0157342
20.9142 71.1327 2
23.1494 72.1454 0
21.6195 13.7254 3.96687
22.2012 11.0793 3.96668
23.1169 12.8916 2
23.0416 8.19173 3.97275
23.9743 10.2068 2
24.12 5.14491 3.98788
25.0201 7.32351 2
25.8613 9.40469 0.0271168
25.446 1.99014 4
26.2775 4.33175 2
27.0707 6.55121 0.0214675
27.7943 1.27778 2
28.49 3.64557 0.0102363
30.1841 0.720592 0
34.7271 35.999 3.4643
36.0372 35.9631 2
37.5215 35.9577 0.548715
21.3982 15.9753 3.9625
24.7964 12.0946 0.031628
23.7926 14.4972 0.0193489
25.382 14.0125 2
22.5407 15.1636 2
24.1082 15.7595 2
23.3884 16.376 3.96659
25.4594 16.2448 3.98671
27.3041 13.4373 0.0263878
29.8153 14.2239 0.00410313
28.4152 16.019 2
27.5757 19.0478 3.98605
33.3874 34.4587 3.36895
34.6984 34.5391 2
36.0052 34.4418 0.577543
34.6403 33.1809 0.684597
35.6588 31.2273 0.418917
37.4764 29.342 0.212839
39.7897 28.2491 0.149544
37.5842 27.9322 2
33.7312 33.4295 2
35.4186 29.5767 2
34.3163 31.791 2
35.3102 28.0567 3.86463
33.7106 30.3265 3.79501
33.4861 32.772 3.63145
29.9534 22.2425 4.00739
30.3281 19.6348 2
30.9803 16.8777 0.00367587
37.7573 25.9214 0.0425659
35.3851 23.1718 -0.01022
32.991 19.9881 0.00170799
32.6119 22.7074 2
35.2614 25.7778 2
32.2629 26.0575 4.01346
32.9092 37.5022 3.38476
34.6392 37.5027 2
36.0355 37.4736 0.600915
35.5839 49.5439 0.0189652
34.6686 46.781 0.147826
34.655 39.0047 0.514555
33.7311 44.6552 0.209643
33.4939 42.2167 0.37373
33.383 40.5457 0.649932
33.5758 48.6665 2
33.0721 39.1421 2
32.6943 41.0458 2
32.9531 45.8465 2
32.3389 43.4513 2
31.9364 47.4833 3.98599
32.1414 39.3956 3.58583
31.4283 41.7143 3.8166
31.5004 44.4457 3.85259
32.3939 50.91 -0.00260453
30.5724 49.4396 2
28.8269 47.8333 3.97298
28.9562 51.2641 0.0131453
27.294 49.6355 2
25.6701 48.0755 3.97545
25.7283 51.4368 0.0462426
24.1974 49.8326 2
22.7265 48.3922 3.9722
22.7081 51.489 0.0437972
21.4026 49.9592 2
19.9172 48.7661 3.97521
17.6252 49.0683 3.97641
17.4349 51.1517 3.97259
18.7578 50.0367 2
16.9373 53.6433 3.96756
18.5315 52.5137 2
20.0319 51.3152 0.0354692
16.3286 56.304 3.96167
17.9127 55.1218 2
19.4841 54.0544 0.0386249
15.839 59.1194 3.95471
17.359 57.7295 2
18.7672 56.5377 0.0373819
15.7955 62.0754 3.9683
17.1823 60.4687 2
18.4773 58.9892 0.0426653
16.0929 65.2978 3.98082
17.4106 63.428 2
18.6422 61.6927 0.0222034
16.6661 68.6801 4
17.9436 66.6056 2
19.1417 64.6224 0.0323151
18.75 69.9759 2
19.8903 67.808 0.0174072
20.9142 71.1327 0
20.2662 14.7222 3.96814
21.6247 13.7262 2
20.5491 12.0925 3.97167
21.1457 9.16864 3.97332
22.1947 11.0919 2
23.1165 12.9027 0.0236176
22.02 6.08458 3.98595
23.0379 8.19534 2
23.9768 10.1863 0.0262942
23.1494 2.85457 4
24.1145 5.14777 2
25.0242 7.32315 0.02407
25.446 1.99012 2
26.2821 4.33031 0.0117004
27.7943 1.27781 0
33.058 35.8806 3.3733
34.6715 35.9994 2
36.007 35.9544 0.592448
21.405 15.9671 2
20.4737 17.1269 3.95826
22.2284 16.7785 3.95531
25.3831 14.0402 0.0253384
22.5401 15.1725 0.0139505
24.1079 15.7505 -0.0148329
25.4575 16.2459 2
23.3897 16.3776 2
24.3653 18.7096 3.98393
27.398 21.8439 3.99429
28.4257 15.9877 0.00884939
27.5648 19.0595 2
32.7665 34.0051 3.58178
33.3666 34.4529 2
34.7801 34.5301 0.570216
33.7664 33.4531 0.613928
34.3738 31.876 0.409422
35.428 29.6418 0.213175
37.6308 27.9653 0.151922
35.2937 28.0078 2
33.4413 32.6867 2
33.6666 30.2704 2
33.1791 28.6865 3.87498
32.386 31.5575 3.79455
29.4254 24.7102 4.0159
29.9311 22.2276 2
30.3333 19.6349 0.0167391
35.2482 25.7854 0.0160718
32.6275 22.746 -0.00293871
32.2537 26.0216 2
30.5262 27.738 3.98824
31.8432 37.4854 3.57675
32.8973 37.5024 2
34.6464 37.5115 0.49354
33.5982 48.6784 0.0284874
32.9637 45.7841 0.151508
33.0772 39.1347 0.668207
32.3838 43.421 0.202233
32.7525 40.981 0.415642
31.8886 47.5133 2
32.0442 39.4048 2
31.3623 41.7749 2
31.4357 44.5004 2
30.2858 46.1004 3.98106
30.6716 39.7186 3.82347
30.1183 42.7832 3.87327
30.5629 49.4164 -0.00371433
28.8292 47.8373 2
27.1346 46.2458 3.98177
27.2912 49.635 0.0219998
25.6738 48.0739 2
24.0257 46.6519 3.97634
24.195 49.8342 0.0311884
22.7248 48.3912 2
20.9902 47.2705 3.97583
21.403 49.9612 0.0321709
19.9154 48.765 2
18.5141 47.894 3.97636
16.8681 48.4382 3.97616
17.6243 49.0684 2
16.481 49.9367 3.9752
15.9128 52.2056 3.97257
17.4363 51.1509 2
18.7569 50.0379 0.0265669
15.2681 54.8041 3.96592
16.938 53.643 2
18.5334 52.5137 0.0332809
14.6361 57.6356 3.95963
16.3272 56.3053 2
17.9169 55.1203 0.0375594
14.2765 60.6527 3.96714
15.8389 59.1223 2
17.3592 57.7274 0.0406426
14.3373 63.8517 3.97039
15.799 62.0745 2
17.1826 60.4651 0.0437484
14.6715 67.2507 4
16.0893 65.2932 2
17.4124 63.4183 0.0261609
16.6661 68.6801 2
17.9469 66.6099 0.0248097
18.75 69.9759 0
19.0182 15.9126 3.95687
20.2721 14.7115 2
19.0067 13.2152 3.96871
21.6195 13.7254 0.0331294
20.5437 12.0963 2
19.3504 10.2675 3.97098
19.9948 7.14814 3.98461
21.1414 9.16459 2
22.2012 11.0793 0.0333176
20.9142 3.86727 4
22.0134 6.08778 2
23.0416 8.19173 0.0272529
23.1494 2.85451 2
24.12 5.14491 0.0121168
25.446 1.99014 0
32.1613 35.5887 3.57333
33.0485 35.8743 2
34.7271 35.999 0.535701
21.3982 15.9753 0.0375009
22.2339 16.7761 2
20.4799 17.1236 2
19.5374 18.6161 3.95784
21.9489 18.0991 3.99067
25.4594 16.2448 0.0132941
23.3884 16.376 0.0334073
24.3628 18.7193 2
22.6423 20.1569 3.97062
24.994 21.6876 3.99348
27.0658 23.9906 3.98239
27.3984 21.7502 2
27.5757 19.0478 0.0139496
31.4515 33.2765 3.81556
32.7079 33.9531 2
33.3874 34.4587 0.63105
33.4861 32.772 0.368549
33.7106 30.3265 0.20499
35.3102 28.0567 0.13537
33.1379 28.6446 2
32.3172 31.4993 2
31.1951 30.0484 3.89261
28.8193 26.9019 4.01307
29.4152 24.7186 2
29.9534 22.2425 -0.00738707
32.2629 26.0575 -0.0134571
30.5145 27.7136 2
30.3317 37.4735 3.8253
31.7466 37.4846 2
32.9092 37.5022 0.615237
31.9364 47.4833 0.0140057
31.5004 44.4457 0.147411
32.1414 39.3956 0.414168
31.4283 41.7143 0.183398
30.2963 46.112 2
30.5686 39.7257 2
30.0874 42.8152 2
28.6463 44.4502 3.96359
28.417 40.3927 3.91857
28.8269 47.8333 0.0270167
27.1363 46.2454 2
25.3741 44.7785 3.98029
25.6701 48.0755 0.0245542
24.0258 46.6508 2
22.0759 45.588 3.97711
22.7265 48.3922 0.027799
20.9906 47.2694 2
19.2936 46.4573 3.97567
19.9172 48.7661 0.0247888
18.5144 47.8941 2
17.1335 47.4698 3.97553
16.8693 48.4386 2
15.8487 48.7941 3.97524
17.6252 49.0683 0.0235899
16.4824 49.9361 2
15.014 50.7914 3.97473
14.2207 53.277 3.97043
15.9132 52.2054 2
17.4349 51.1517 0.0274051
13.4917 56.0598 3.96165
15.2687 54.8042 2
16.9373 53.6433 0.0324448
12.8822 59.0932 3.95385
14.6352 57.638 2
16.3286 56.304 0.0383326
12.6848 62.2917 3.96716
14.2787 60.6536 2
15.839 59.1194 0.0452925
12.7746 65.6939 4
14.3345 63.8453 2
15.7955 62.0754 0.0317012
14.6714 67.2507 2
16.0929 65.2978 0.0191838
16.6661 68.6801 0
17.8786 17.3168 3.9576
19.0289 15.906 2
17.5476 14.4644 3.96402
20.2662 14.7222 0.0318606
19.0022 13.2055 2
17.6544 11.5188 3.97071
20.5491 12.0925 0.0283265
19.3458 10.2861 2
18.0545 8.34183 3.98135
18.75 5.0241 4
19.988 7.15525 2
21.1457 9.16864 0.0266793
20.9142 3.86727 2
22.02 6.08458 0.0140482
23.1494 2.85457 0
30.6779 35.283 3.81774
32.061 35.5707 2
33.058 35.8806 0.626696
22.2284 16.7785 0.0446934
20.4737 17.1269 0.04174
21.9542 18.0936 2
19.5338 18.6117 2
18.446 20.1858 3.9647
21.2054 19.6346 3.97627
24.3653 18.7096 0.0160703
22.6436 20.1518 2
25.0087 21.6503 2
22.9006 22.0262 3.97852
25.3876 23.3211 3.98092
26.4488 26.2808 3.98293
27.0677 23.9937 2
27.398 21.8439 0.00571432
29.8754 32.6536 3.87252
31.3729 33.226 2
32.7665 34.0051 0.418221
32.386 31.5575 0.205446
33.1791 28.6865 0.125019
31.1749 30.022 2
28.2685 29.5193 4.00757
28.7977 26.9169 2
29.4254 24.7102 -0.0158984
30.5262 27.738 0.011759
28.6557 37.4054 3.85471
30.2324 37.4862 2
31.8432 37.4854 0.423247
30.2858 46.1004 0.0189449
30.1183 42.7832 0.126733
30.6716 39.7186 0.176529
28.6498 44.5068 2
28.3725 40.4073 2
26.8013 42.9367 3.97951
25.7394 39.3938 3.97795
27.1346 46.2458 0.0182331
25.3656 44.7866 2
23.323 43.6281 3.97537
24.0257 46.6519 0.0236579
22.0741 45.589 2
20.1249 44.7037 3.97496
20.9902 47.2705 0.024174
19.2933 46.4582 2
17.517 45.9775 3.97531
18.5141 47.894 0.0236422
17.1339 47.4702 2
15.6314 47.4657 3.97527
16.8681 48.4382 0.0238433
15.8504 48.7941 2
14.333 49.3634 3.97491
16.481 49.9367 0.0247962
15.0148 50.791 2
13.2867 51.7308 3.97344
12.3839 54.4287 3.96461
14.2209 53.2769 2
15.9128 52.2056 0.027428
11.6208 57.4196 3.95816
13.493 56.0602 2
15.2681 54.8041 0.0340795
11.1405 60.6205 3.96676
12.8802 59.0928 2
14.6361 57.6356 0.04037
10.9835 64.0165 4
12.6831 62.2854 2
14.2765 60.6527 0.0328592
12.7745 65.694 2
14.3373 63.8517 0.0296107
14.6715 67.2507 0
16.7266 18.8337 3.96061
17.8793 17.311 2
16.1884 15.8781 3.95592
19.0182 15.9126 0.0431293
17.5522 14.4607 2
16.0314 12.8666 3.96471
19.0067 13.2152 0.0312873
17.6472 11.5207 2
16.2068 9.66965 3.97404
19.3504 10.2675 0.0290216
18.0488 8.34931 2
16.6661 6.31991 4
18.75 5.02404 2
19.9948 7.14814 0.0153867
20.9142 3.86727 0
29.0746 34.9145 3.88374
30.5569 35.2479 2
32.1613 35.5887 0.426667
17.1838 21.6139 3.97053
21.9489 18.0991 0.00933365
19.5374 18.6161 0.0421575
21.2021 19.6292 2
18.4366 20.1804 2
20.3265 21.8771 3.97407
22.6423 20.1569 0.0293792
24.994 21.6876 0.00651715
22.9016 22.0209 2
25.3686 23.3785 2
23.7568 24.9387 3.97097
25.8402 28.8854 3.98438
26.4346 26.292 2
27.0658 23.9906 0.0176131
27.7463 32.0113 3.9768
29.8269 32.6345 2
31.4515 33.2765 0.18444
31.1951 30.0484 0.107392
28.2841 29.4762 2
28.8193 26.9019 -0.0130717
26.4575 36.8836 3.95754
28.6139 37.3891 2
30.3317 37.4735 0.174703
28.6463 44.4502 0.036414
28.417 40.3927 0.0814346
26.7764 42.9673 2
25.6948 39.3838 2
24.5749 41.6281 3.97727
23.4295 38.5154 3.97585
25.3741 44.7785 0.0197051
23.3212 43.6331 2
21.0311 42.673 3.97465
22.0759 45.588 0.0228945
20.1262 44.7046 2
17.9438 44.1728 3.97509
19.2936 46.4573 0.0243332
17.5171 45.9783 2
15.6044 45.9035 3.9753
17.1335 47.4698 0.024474
15.6317 47.466 2
13.8709 47.8434 3.97501
15.8487 48.7941 0.0247559
14.334 49.3631 2
12.5249 50.1185 3.97494
15.014 50.7914 0.0252661
13.2874 51.7304 2
11.3755 52.7493 3.9671
10.4233 55.675 3.96028
12.3837 54.429 2
14.2207 53.277 0.0295655
9.70682 58.8459 3.96939
11.6254 57.4187 2
13.4917 56.0598 0.038345
9.30605 62.2254 4
11.1389 60.6138 2
12.8822 59.0932 0.0461519
10.9835 64.0165 2
12.6848 62.2917 0.0328442
12.7746 65.6939 0
15.5268 20.3686 3.96565
16.7409 18.8329 2
14.9271 17.4173 3.95742
17.8786 17.3168 0.0423951
16.1867 15.8722 2
14.4945 14.3398 3.96528
17.5476 14.4644 0.0359848
16.0344 12.8626 2
14.4506 11.1208 3.97303
17.6544 11.5188 0.0292911
16.2017 9.67839 2
14.6715 7.74927 4
18.0545 8.34183 0.0186518
16.6661 6.31988 2
18.75 5.0241 0
27.0308 34.4267 3.97366
29.0442 34.9221 2
30.6779 35.283 0.182259
18.4813 22.6055 3.97455
16.0834 23.1506 3.97272
17.1817 21.6106 2
21.2054 19.6346 0.0237259
18.446 20.1858 0.035302
20.3293 21.8752 2
20.4959 24.7304 3.97219
22.9006 22.0262 0.0214831
25.3876 23.3211 0.0190782
23.7494 24.9325 2
23.2111 28.2292 3.97108
25.3172 31.5258 3.98325
25.8514 28.8371 2
26.4488 26.2808 0.0170735
27.7132 31.9809 2
29.8754 32.6536 0.127483
28.2685 29.5193 -0.00756986
24.1745 36.3387 3.9783
26.4187 36.8788 2
28.6557 37.4054 0.145289
26.8013 42.9367 0.0204856
25.7394 39.3938 0.0220536
24.5453 41.6341 2
23.4282 38.5132 2
22.1987 40.5157 3.97553
21.4932 37.7862 3.97799
23.323 43.6281 0.0246255
21.0318 42.672 2
18.4332 41.9529 3.97571
20.1249 44.7037 0.0250442
17.9438 44.173 2
15.6527 44.042 3.97528
17.517 45.9775 0.0246925
15.6039 45.9039 2
13.5721 46.1515 3.97525
15.6314 47.4657 0.0247283
13.8712 47.8433 2
11.9152 48.426 3.97496
14.333 49.3634 0.0250918
12.5261 50.118 2
10.5111 51.0009 3.96962
13.2867 51.7308 0.0265647
11.3764 52.7488 2
9.32697 53.8592 3.9618
8.39081 56.9814 3.97018
10.4253 55.674 2
12.3839 54.4287 0.0353887
7.74927 60.3285 4
9.70577 58.8406 2
11.6208 57.4196 0.0418368
9.306 62.2255 2
11.1405 60.6205 0.0332393
10.9835 64.0165 0
14.3547 21.9211 3.97097
15.529 20.3655 2
13.6675 19.0127 3.96145
16.7266 18.8337 0.0393864
14.9272 17.4132 2
13.0486 15.9215 3.95858
16.1884 15.8781 0.0440781
14.5022 14.3353 2
12.7877 12.6956 3.96833
16.0314 12.8666 0.0352889
14.4465 11.131 2
12.7746 9.30605 4
16.2068 9.66965 0.0259632
14.6715 7.74924 2
16.6661 6.31991 0
24.7034 33.9315 3.98172
27.0035 34.4082 2
29.0746 34.9145 0.116262
18.3669 24.3465 3.9732
18.4897 22.6053 2
14.8954 24.6553 3.97417
16.0823 23.1475 2
17.1838 21.6139 0.0294715
20.0651 27.5289 3.97303
20.3265 21.8771 0.0259346
20.4991 24.7293 2
22.5947 30.9571 3.97395
23.7568 24.9387 0.0290289
23.2066 28.2375 2
25.2697 31.5632 2
25.8402 28.8854 0.0156206
27.7463 32.0113 0.0231969
21.585 35.9863 3.97785
24.1697 36.3387 2
26.4575 36.8836 0.0424646
24.5749 41.6281 0.0227289
23.4295 38.5154 0.0241471
22.2029 40.5162 2
21.4969 37.7863 2
19.2184 38.9607 3.97714
21.0311 42.673 0.0253496
18.4328 41.9526 2
15.6367 41.818 3.97589
17.9438 44.1728 0.0249062
15.6517 44.0423 2
13.3303 44.2761 3.97541
15.6044 45.9035 0.0247042
13.5715 46.1516 2
11.4299 46.6267 3.9754
13.8709 47.8434 0.0249888
11.9168 48.4254 2
9.77764 49.1698 3.97256
12.5249 50.1185 0.0250631
10.5124 51.0001 2
8.35168 51.9775 3.96312
11.3755 52.7493 0.0328967
9.32527 53.8584 2
7.19942 55.0337 3.97103
6.31991 58.3339 4
8.38961 56.9766 2
10.4233 55.675 0.0397163
7.74924 60.3285 2
9.70682 58.8459 0.0306142
9.30605 62.2254 0
13.738 25.5373 3.97605
13.2435 23.436 3.97429
14.3557 21.9183 2
12.4813 20.655 3.96449
15.5268 20.3686 0.0343459
13.6604 19.0075 2
11.7186 17.6015 3.95731
14.9271 17.4173 0.0425752
13.059 15.9186 2
11.2266 14.382 3.96531
14.4945 14.3398 0.034722
12.7869 12.7052 2
10.9835 10.9835 4
14.4506 11.1208 0.0269675
12.7745 9.306 2
14.6715 7.74927 0
21.9596 33.5807 3.97663
24.7019 33.9055 2
27.0308 34.4267 0.0263357
16.6805 26.6427 3.97412
18.3701 24.3455 2
18.4813 22.6055 0.0254451
14.8917 24.6542 2
16.0834 23.1506 0.0272799
19.4624 30.4192 3.97469
20.0667 27.5267 2
20.4959 24.7304 0.0278132
22.61 30.9521 2
23.2111 28.2292 0.0289157
25.3172 31.5258 0.0167458
18.791 36.0237 3.97764
21.5882 35.9876 2
24.1745 36.3387 0.0217022
22.1987 40.5157 0.0244672
21.4932 37.7862 0.0220133
19.2184 38.9592 2
15.1177 39.1429 3.97688
18.4332 41.9529 0.0242893
15.6361 41.8178 2
13.0164 42.2004 3.97596
15.6527 44.042 0.0247199
13.3295 44.2761 2
11.0124 44.7196 3.97602
13.5721 46.1515 0.0247502
11.4313 46.6263 2
9.15511 47.2592 3.97464
11.9152 48.426 0.0250423
9.77947 49.1688 2
7.50734 50.0157 3.96421
10.5111 51.0009 0.0303847
8.34952 51.9766 2
6.13956 53.0091 3.97134
9.32697 53.8592 0.0382047
7.19888 55.0295 2
5.0241 56.25 4
6.31988 58.3339 2
8.39081 56.9814 0.0298178
7.74927 60.3285 0
14.0434 26.9839 3.97494
12.348 24.9257 3.97512
13.7354 25.5358 2
11.4036 22.3309 3.96787
13.2434 23.434 2
14.3547 21.9211 0.029033
12.4773 20.6515 2
10.4945 19.3596 3.95971
13.6675 19.0127 0.0385517
11.7356 17.6017 2
9.76707 16.1625 3.96884
13.0486 15.9215 0.0414186
11.2265 14.3881 2
9.30607 12.7746 4
12.7877 12.6956 0.0316711
10.9835 10.9835 2
12.7746 9.30605 0
18.9581 33.2421 3.97565
21.9557 33.5849 2
24.7034 33.9315 0.018283
16.3106 29.8276 3.97504
16.6787 26.6431 2
18.3669 24.3465 0.0267969
14.8954 24.6553 0.0258298
19.4562 30.4192 2
20.0651 27.5289 0.0269663
22.5947 30.9571 0.0260529
15.7676 36.0552 3.97712
18.7922 36.0239 2
21.585 35.9863 0.0221499
13.251 37.828 3.97701
19.2184 38.9607 0.0228624
15.1172 39.1426 2
12.5028 40.1013 3.97646
15.6367 41.818 0.0241143
13.0155 42.2002 2
10.6038 42.7215 3.97618
13.3303 44.2761 0.0245852
11.0134 44.7192 2
8.62929 45.2728 3.9759
11.4299 46.6267 0.0245967
9.15747 47.2582 2
6.78754 47.9852 3.96461
9.77764 49.1698 0.0274417
7.50492 50.0149 2
5.21573 50.912 3.97133
8.35168 51.9775 0.0368756
6.13948 53.006 2
3.86727 54.0858 4
7.19942 55.0337 0.0289719
5.02404 56.25 2
6.31991 58.3339 0
13.5179 29.1673 3.97435
11.7956 26.6067 3.9747
14.0421 26.9841 2
10.4431 24.0475 3.97187
12.3494 24.9246 2
13.738 25.5373 0.0239477
9.34685 21.1726 3.96208
11.4023 22.3291 2
13.2435 23.436 0.0257144
12.4813 20.655 0.0355101
10.5042 19.36 2
8.42314 18.0307 3.97014
11.7186 17.6015 0.0426883
9.76642 16.1672 2
7.74928 14.6715 4
11.2266 14.382 0.034694
9.30602 12.7745 2
10.9835 10.9835 0
15.283 32.9584 3.97625
18.9585 33.2437 2
21.9596 33.5807 0.0233672
16.3106 29.8277 2
16.6805 26.6427 0.0258845
19.4624 30.4192 0.025309
13.563 36.2313 3.97666
15.7686 36.0551 2
18.791 36.0237 0.0223624
13.2502 37.8277 2
11.8109 38.3013 3.97658
15.1177 39.1429 0.0231232
12.5017 40.1015 2
10.1706 40.7214 3.97657
13.0164 42.2004 0.0240384
10.605 42.721 2
8.17379 43.2347 3.97667
11.0124 44.7196 0.0239834
8.63283 45.2717 2
6.18348 45.8941 3.96511
9.15511 47.2592 0.0253644
6.78537 47.9844 2
4.4266 48.7521 3.97141
7.50734 50.0157 0.0357941
5.21599 50.9098 2
2.85457 51.8506 4
6.13956 53.0091 0.0286601
3.86727 54.0858 2
5.0241 56.25 0
12.6363 31.3442 3.97569
11.2034 28.5135 3.97515
13.518 29.1671 2
9.64736 25.8655 3.97394
11.7961 26.6068 2
14.0434 26.9839 0.0250648
8.31216 23.0485 3.964
10.4452 24.0471 2
12.348 24.9257 0.0248825
7.20511 19.9783 3.97128
9.3528 21.1735 2
11.4036 22.3309 0.0321257
10.4945 19.3596 0.0402889
8.42258 18.0352 2
6.31992 16.6661 4
9.76707 16.1625 0.0311566
7.74926 14.6714 2
9.30607 12.7746 0
12.6772 34.346 3.97665
15.2823 32.9591 2
18.9581 33.2421 0.0243545
16.3106 29.8276 0.0249608
11.3331 36.6259 3.97658
13.5631 36.2312 2
15.7676 36.0552 0.0228794
13.251 37.828 0.0229933
11.81 38.301 2
9.74064 38.8117 3.97689
12.5028 40.1013 0.0235427
10.1713 40.7211 2
7.77389 41.1898 3.97662
10.6038 42.7215 0.023822
8.1763 43.2338 2
5.68381 43.7607 3.96579
8.62929 45.2728 0.0240967
6.17971 45.8936 2
3.77167 46.5372 3.97193
6.78754 47.9852 0.0353908
4.42722 48.7504 2
1.99014 49.554 4
5.21573 50.912 0.0286723
2.85451 51.8506 2
3.86727 54.0858 0
11.4136 32.9801 3.97645
10.4992 30.453 3.97569
12.635 31.3443 2
8.94806 27.7875 3.97465
11.2044 28.5138 2
13.5179 29.1673 0.0256533
7.42302 25.0014 3.96451
9.64996 25.8656 2
11.7956 26.6067 0.025302
6.12163 22.0007 3.97172
8.3134 23.0492 2
10.4431 24.0475 0.0281271
5.02411 18.75 4
7.20487 19.9819 2
9.34685 21.1726 0.0379191
8.42314 18.0307 0.0298568
6.3199 16.6661 2
7.74928 14.6715 0
10.9068 35.0295 3.97637
12.6761 34.3461 2
15.283 32.9584 0.0237542
9.38791 36.9907 3.97702
11.3324 36.6259 2
13.563 36.2313 0.0233439
11.8109 38.3013 0.0234232
9.74156 38.8115 2
7.4371 39.1732 3.97657
10.1706 40.7214 0.0234327
7.77734 41.1892 2
5.29126 41.6097 3.96629
8.17379 43.2347 0.0233251
5.68113 43.7603 2
3.24908 44.2818 3.97282
6.18348 45.8941 0.0348944
3.77255 46.5359 2
1.27781 47.2057 4
4.4266 48.7521 0.0285899
1.99012 49.554 2
2.85457 51.8506 0
10.5254 33.9207 3.97618
9.75811 32.2039 3.97642
11.4131 32.9803 2
8.28062 29.7381 3.97516
10.5002 30.4534 2
12.6363 31.3442 0.0243063
6.65213 27.0226 3.96463
8.95094 27.7879 2
11.2034 28.5135 0.024849
5.17626 24.0938 3.97166
7.42115 25.0018 2
9.64736 25.8655 0.026058
3.86728 20.9142 4
6.12176 22.0033 2
8.31216 23.0485 0.0359998
5.02406 18.75 2
7.20511 19.9783 0.0287207
6.31992 16.6661 0
9.19424 35.3 3.97709
10.9063 35.0294 2
12.6772 34.346 0.0233498
7.20362 37.2077 3.97646
9.3893 36.9906 2
11.3331 36.6259 0.0234199
9.74064 38.8117 0.0231106
7.44033 39.1729 2
5.01242 39.4661 3.96655
7.77389 41.1898 0.0233758
5.28899 41.6094 2
2.85928 42.0022 3.9734
5.68381 43.7607 0.0342054
3.24978 44.2809 2
0.720592 44.8159 4
3.77167 46.5372 0.0280715
1.27778 47.2057 2
1.99014 49.554 0
9.2288 33.7306 3.97705
10.5255 33.9209 2
7.70497 31.6398 3.97563
9.76011 32.2044 2
11.4136 32.9801 0.0235546
5.98579 29.0803 3.96489
8.28352 29.7387 2
10.4992 30.453 0.0243062
4.36313 26.2471 3.97186
6.64907 27.023 2
8.94806 27.7875 0.0253523
2.85458 23.1494 4
5.17673 24.0955 2
7.42302 25.0014 0.0354862
3.86728 20.9142 2
6.12163 22.0007 0.0282753
5.02411 18.75 0
7.1443 35.3172 3.97624
9.19622 35.3001 2
10.9068 35.0295 0.0236294
4.85652 37.3412 3.96647
7.20681 37.2075 2
9.38791 36.9907 0.0229789
7.4371 39.1732 0.0234294
5.00992 39.4659 2
2.60712 39.714 3.9738
5.29126 41.6097 0.033707
2.86025 42.0016 2
0.320823 42.3947 4
3.24908 44.2818 0.0271822
0.720551 44.8159 2
1.27781 47.2057 0
7.30653 33.4812 3.97603
9.231 33.731 2
10.5254 33.9207 0.0238235
5.44481 31.1414 3.96536
7.70783 31.6404 2
9.75811 32.2039 0.0235843
3.68426 28.4439 3.97228
5.98178 29.0806 2
8.28062 29.7381 0.024841
1.99015 25.446 4
4.3638 26.2483 2
6.65213 27.0226 0.0353676
2.85453 23.1494 2
5.17626 24.0938 0.0283407
3.86728 20.9142 0
4.8687 35.2551 3.9661
7.14654 35.3173 2
9.19424 35.3 0.0229058
2.49855 37.4288 3.97457
4.85324 37.3412 2
7.20362 37.2077 0.0235402
5.01242 39.4661 0.0334459
2.60826 39.714 2
0.080333 39.9526 4
2.85928 42.0022 0.0266029
0.320817 42.3947 2
0.720592 44.8159 0
5.06527 33.1957 3.96578
7.30873 33.4816 2
9.2288 33.7306 0.0229509
3.14825 30.6671 3.973
5.44025 31.1417 2
7.70497 31.6398 0.0243694
1.27793 27.7943 4
3.6852 28.4449 2
5.98579 29.0803 0.0351131
1.99013 25.446 2
4.36313 26.2471 0.0281438
2.85458 23.1494 0
2.55054 35.1597 3.97435
4.86624 35.2553 2
7.1443 35.3172 0.0237621
0 37.5 4
2.49926 37.4291 2
4.85652 37.3412 0.0335319
2.60712 39.714 0.0261969
0.0802903 39.9526 2
0.320823 42.3947 0
2.76826 32.9067 3.97405
5.06227 33.196 2
7.30653 33.4812 0.0239737
0.721173 30.1842 4
3.14938 30.668 2
5.44481 31.1414 0.0346389
1.27779 27.7943 2
3.68426 28.4439 0.0277226
1.99015 25.446 0
0.0806499 35.0474 4
2.55183 35.1602 2
4.8687 35.2551 0.033905
0 37.5 2
2.49855 37.4288 0.0254289
0.080333 39.9526 0
0.32156 32.6054 4
2.76905 32.9075 2
5.06527 33.1957 0.0342246
0.72056 30.1841 2
3.14825 30.6671 0.0270016
1.27793 27.7943 0
0.0802889 35.0474 2
2.55054 35.1597 0.0256462
0 37.5 0
0.320817 32.6053 2
2.76826 32.9067 0.0259492
0.721173 30.1842 0
0.0806499 35.0474 0
0.32156 32.6054 0
CELLS 1910 17190
8 18 6 25 56 2 0 5 16
8 57 23 6 18 17 4 0 2
8 78 36 9 29 31 11 1 7
8 31 11 1 7 79 37 10 30
8 110 57 18 50 48 17 2 14
8 50 18 56 111 14 2 16 49
8 116 62 22 55 52 20 3 15
8 56 25 67 118 16 5 24 53
8 119 63 23 57 54 21 4 17
8 55 22 63 119 15 3 21 54
8 58 26 68 121 18 6 25 56
8 122 65 26 58 57 23 6 18
8 73 31 7 27 142 79 30 71
8 143 78 29 72 73 31 7 27
8 83 147 76 34 32 74 28 8
8 84 148 78 36 33 75 29 9
8 76 34 8 28 148 84 33 75
8 37 79 150 86 10 30 77 35
8 151 87 36 78 80 38 11 31
8 80 38 11 31 152 88 37 79
8 175 100 42 94 96 44 12 40
8 44 96 176 101 12 40 95 43
8 101 176 98 46 43 95 41 13
8 46 98 178 103 13 41 97 45
8 178 103 45 97 147 83 32 74
8 189 116 55 109 106 52 15 47
8 111 56 118 191 49 16 53 107
8 192 119 57 110 108 54 17 48
8 109 55 119 192 47 15 54 108
8 194 122 58 112 110 57 18 50
8 112 58 121 195 50 18 56 111
8 115 61 19 51 197 124 59 113
8 115 61 125 198 51 19 60 114
8 198 125 62 116 114 60 20 52
8 200 127 64 120 116 62 22 55
8 118 67 132 202 53 24 66 117
8 121 68 133 203 56 25 67 118
8 120 64 128 204 55 22 63 119
8 204 128 65 122 119 63 23 57
8 206 134 68 121 123 69 26 58
8 123 69 26 58 207 131 65 122
8 226 147 74 138 140 76 28 70
8 229 148 75 139 143 78 29 72
8 140 76 28 70 229 148 75 139
8 142 79 30 71 231 150 77 141
8 144 80 31 73 232 152 79 142
8 233 151 78 143 144 80 31 73
8 150 86 35 77 235 154 81 145
8 235 154 81 145 146 82 39 91
8 146 82 39 91 236 155 90 165
8 238 157 83 147 149 85 34 76
8 239 158 84 148 151 87 36 78
8 149 85 34 76 239 158 84 148
8 152 88 37 79 241 160 86 150
8 242 161 87 151 153 89 38 80
8 153 89 38 80 243 162 88 152
8 171 98 41 92 265 178 97 169
8 265 178 97 169 226 147 74 138
8 172 96 40 93 266 176 95 170
8 266 176 95 170 171 98 41 92
8 269 175 94 173 172 96 40 93
8 271 180 99 174 175 100 42 94
8 197 124 59 113 271 180 99 174
8 272 181 100 175 177 102 44 96
8 273 182 101 176 179 104 46 98
8 177 102 44 96 273 182 101 176
8 179 104 46 98 275 184 103 178
8 275 184 103 178 238 157 83 147
8 188 115 51 105 283 197 113 186
8 188 115 198 284 105 51 114 187
8 284 198 116 189 187 114 52 106
8 286 200 120 193 189 116 55 109
8 191 118 202 288 107 53 117 190
8 195 121 203 289 111 56 118 191
8 193 120 204 290 109 55 119 192
8 290 204 122 194 192 119 57 110
8 196 123 58 112 292 207 122 194
8 293 206 121 195 196 123 58 112
8 199 126 61 115 297 211 124 197
8 298 212 127 200 198 125 62 116
8 199 126 212 298 115 61 125 198
8 205 129 64 120 300 214 127 200
8 301 217 130 201 202 132 66 117
8 209 136 168 264 301 217 130 201
8 302 219 132 202 203 133 67 118
8 303 220 133 203 206 134 68 121
8 205 129 215 304 120 64 128 204
8 304 215 131 207 204 128 65 122
8 306 221 134 206 208 135 69 123
8 208 135 69 123 307 218 131 207
8 210 137 167 263 309 223 136 209
8 328 238 147 226 230 149 76 140
8 228 146 91 166 329 236 165 260
8 231 150 77 141 330 235 145 227
8 330 235 145 227 228 146 91 166
8 332 239 148 229 233 151 78 143
8 230 149 76 140 332 239 148 229
8 232 152 79 142 334 241 150 231
8 234 153 80 144 335 243 152 232
8 336 242 151 233 234 153 80 144
8 236 155 90 165 338 245 164 259
8 241 160 86 150 339 246 154 235
8 339 246 154 235 237 156 82 146
8 237 156 82 146 340 247 155 236
8 342 249 157 238 240 159 85 149
8 343 250 158 239 242 161 87 151
8 240 159 85 149 343 250 158 239
8 243 162 88 152 345 252 160 241
8 244 163 253 346 153 89 161 242
8 244 163 89 153 347 254 162 243
8 311 224 261 371 210 137 167 263
8 263 167 262 372 209 136 168 264
8 267 179 98 171 375 275 178 265
8 375 275 178 265 328 238 147 226
8 376 273 176 266 267 179 98 171
8 268 177 96 172 376 273 176 266
8 379 272 175 269 268 177 96 172
8 380 271 174 270 269 175 94 173
8 283 197 113 186 380 271 174 270
8 381 277 180 271 272 181 100 175
8 297 211 124 197 381 277 180 271
8 382 278 181 272 274 183 102 177
8 274 183 102 177 383 279 182 273
8 383 279 182 273 276 185 104 179
8 385 281 184 275 342 249 157 238
8 276 185 104 179 385 281 184 275
8 285 199 115 188 393 297 197 283
8 394 298 200 286 284 198 116 189
8 285 199 298 394 188 115 198 284
8 291 205 120 193 396 300 200 286
8 397 301 201 287 288 202 117 190
8 295 209 264 374 397 301 201 287
8 398 302 202 288 289 203 118 191
8 399 303 203 289 293 206 121 195
8 291 205 304 400 193 120 204 290
8 400 304 207 292 290 204 122 194
8 294 208 123 196 402 307 207 292
8 403 306 206 293 294 208 123 196
8 296 210 263 373 405 309 209 295
8 408 312 213 299 297 211 126 199
8 299 213 313 409 199 126 212 298
8 409 313 214 300 298 212 127 200
8 305 216 129 205 411 315 214 300
8 412 318 217 301 302 219 132 202
8 309 223 136 209 412 318 217 301
8 413 320 219 302 303 220 133 203
8 306 221 321 414 206 134 220 303
8 307 218 131 207 415 316 215 304
8 305 216 316 415 205 129 215 304
8 417 322 221 306 308 222 135 208
8 308 222 135 208 418 319 218 307
8 310 225 137 210 420 325 223 309
8 423 326 224 311 310 225 137 210
8 329 236 165 260 441 338 259 368
8 442 342 238 328 333 240 149 230
8 331 237 146 228 443 340 236 329
8 334 241 150 231 444 339 235 330
8 444 339 235 330 331 237 146 228
8 446 343 239 332 336 242 151 233
8 333 240 149 230 446 343 239 332
8 335 243 152 232 448 345 241 334
8 337 244 153 234 449 347 243 335
8 337 244 346 450 234 153 242 336
8 338 245 164 259 452 349 258 367
8 340 247 155 236 453 350 245 338
8 345 252 160 241 454 351 246 339
8 454 351 246 339 341 248 156 237
8 341 248 156 237 455 352 247 340
8 240 159 251 344 342 249 354 457
8 242 161 253 346 343 250 355 458
8 343 250 355 458 240 159 251 344
8 347 254 162 243 460 357 252 345
8 348 255 358 461 244 163 253 346
8 348 255 163 244 462 359 254 347
8 473 360 257 365 363 256 364 482
8 452 349 258 367 365 257 366 485
8 422 324 369 488 311 224 261 371
8 371 261 370 490 263 167 262 372
8 407 311 371 491 296 210 263 373
8 373 263 372 492 295 209 264 374
8 493 385 275 375 442 342 238 328
8 377 276 179 267 493 385 275 375
8 378 274 177 268 494 383 273 376
8 494 383 273 376 377 276 179 267
8 497 382 272 379 378 274 177 268
8 498 381 271 380 379 272 175 269
8 393 297 197 283 498 381 271 380
8 499 387 277 381 382 278 181 272
8 408 312 211 297 499 387 277 381
8 500 388 278 382 384 280 183 274
8 501 389 279 383 386 282 185 276
8 384 280 183 274 501 389 279 383
8 386 282 185 276 503 391 281 385
8 503 391 281 385 457 354 249 342
8 511 408 299 395 393 297 199 285
8 395 299 409 512 285 199 298 394
8 512 409 300 396 394 298 200 286
8 401 305 205 291 514 411 300 396
8 515 412 301 397 398 302 202 288
8 405 309 209 295 515 412 301 397
8 516 413 302 398 399 303 203 289
8 403 306 414 517 293 206 303 399
8 402 307 207 292 518 415 304 400
8 401 305 415 518 291 205 304 400
8 404 308 208 294 520 418 307 402
8 521 417 306 403 404 308 208 294
8 406 310 210 296 523 420 309 405
8 526 423 311 407 406 310 210 296
8 410 314 213 299 527 424 312 408
8 528 425 315 411 409 313 214 300
8 410 314 425 528 299 213 313 409
8 416 317 216 305 530 427 315 411
8 531 430 318 412 413 320 219 302
8 420 325 223 309 531 430 318 412
8 532 432 320 413 414 321 220 303
8 417 322 433 533 306 221 321 414
8 418 319 218 307 534 428 316 415
8 416 317 428 534 305 216 316 415
8 419 323 434 536 308 222 322 417
8 419 323 222 308 537 431 319 418
8 421 327 225 310 539 438 325 420
8 421 327 439 541 310 225 326 423
8 543 437 324 422 423 326 224 311
8 441 338 259 368 559 452 367 486
8 443 340 236 329 560 453 338 441
8 333 240 344 447 442 342 457 561
8 445 341 237 331 562 455 340 443
8 448 345 241 334 563 454 339 444
8 563 454 339 444 445 341 237 331
8 336 242 346 450 446 343 458 565
8 446 343 458 565 333 240 344 447
8 449 347 243 335 567 460 345 448
8 451 348 244 337 568 462 347 449
8 451 348 461 569 337 244 346 450
8 570 463 349 452 473 360 257 365
8 453 350 245 338 570 463 349 452
8 455 352 247 340 571 464 350 453
8 460 357 252 345 572 465 351 454
8 572 465 351 454 456 353 248 341
8 456 353 248 341 573 466 352 455
8 344 251 356 459 457 354 468 575
8 458 355 469 576 344 251 356 459
8 346 253 358 461 458 355 469 576
8 462 359 254 347 578 471 357 460
8 348 255 359 462 461 358 472 579
8 591 474 360 473 475 361 256 363
8 475 361 256 363 594 477 362 479
8 363 256 364 482 479 362 480 603
8 590 473 365 484 481 363 482 605
8 482 364 257 365 606 483 366 485
8 559 452 367 486 484 365 485 607
8 542 436 487 609 422 324 369 488
8 525 422 488 611 407 311 371 491
8 488 369 489 612 371 261 370 490
8 491 371 490 613 373 263 372 492
8 495 386 276 377 614 503 385 493
8 614 503 385 493 561 457 342 442
8 615 501 383 494 495 386 276 377
8 496 384 274 378 615 501 383 494
8 618 500 382 497 496 384 274 378
8 619 499 381 498 497 382 272 379
8 511 408 297 393 619 499 381 498
8 620 505 387 499 500 388 278 382
8 527 424 312 408 620 505 387 499
8 502 390 506 621 384 280 388 500
8 622 507 389 501 504 392 282 386
8 502 390 280 384 622 507 389 501
8 504 392 282 386 624 509 391 503
8 624 509 391 503 575 468 354 457
8 513 410 299 395 630 527 408 511
8 631 528 411 514 512 409 300 396
8 513 410 528 631 395 299 409 512
8 519 416 305 401 633 530 411 514
8 634 531 412 515 516 413 302 398
8 523 420 309 405 634 531 412 515
8 635 532 413 516 517 414 303 399
8 521 417 533 636 403 306 414 517
8 520 418 307 402 637 534 415 518
8 519 416 534 637 401 305 415 518
8 522 419 308 404 639 537 418 520
8 522 419 536 640 404 308 417 521
8 524 421 310 406 642 539 420 523
8 524 421 541 644 406 310 423 526
8 646 543 422 525 526 423 311 407
8 529 426 314 410 647 544 424 527
8 528 425 545 648 411 315 427 530
8 529 426 545 648 410 314 425 528
8 535 429 317 416 649 546 427 530
8 650 548 430 531 532 432 320 413
8 539 438 325 420 650 548 430 531
8 533 433 550 651 414 321 432 532
8 536 434 551 652 417 322 433 533
8 537 431 319 418 653 547 428 534
8 535 429 547 653 416 317 428 534
8 538 435 552 654 419 323 434 536
8 538 435 323 419 655 549 431 537
8 540 440 327 421 657 556 438 539
8 540 440 557 659 421 327 439 541
8 541 439 555 660 423 326 437 543
8 661 554 436 542 543 437 324 422
8 676 570 452 559 590 473 365 484
8 560 453 338 441 676 570 452 559
8 562 455 340 443 677 571 453 560
8 447 344 459 566 561 457 575 678
8 564 456 341 445 679 573 455 562
8 567 460 345 448 680 572 454 563
8 680 572 454 563 564 456 341 445
8 565 458 576 682 447 344 459 566
8 450 346 461 569 565 458 576 682
8 568 462 347 449 684 578 460 567
8 451 348 462 568 569 461 579 685
8 686 580 463 570 591 474 360 473
8 571 464 350 453 686 580 463 570
8 573 466 352 455 687 581 464 571
8 572 465 582 688 460 357 471 578
8 574 467 582 688 456 353 465 572
8 574 467 353 456 689 583 466 573
8 459 356 470 577 575 468 585 691
8 576 469 586 692 459 356 470 577
8 461 358 472 579 576 469 586 692
8 462 359 471 578 579 472 588 694
8 704 591 473 590 593 475 363 481
8 595 476 592 705 475 361 474 591
8 593 475 363 481 707 594 479 602
8 594 477 362 479 709 598 478 600
8 595 476 361 475 711 597 477 594
8 479 362 480 603 600 478 601 720
8 481 363 482 605 602 479 603 722
8 603 480 364 482 723 604 483 606
8 605 482 365 484 724 606 485 607
8 656 553 608 726 542 436 487 609
8 645 542 609 728 525 422 488 611
8 609 487 610 729 488 369 489 612
8 611 488 612 730 491 371 490 613
8 616 504 386 495 731 624 503 614
8 731 624 503 614 678 575 457 561
8 732 622 501 615 616 504 386 495
8 617 502 384 496 732 622 501 615
8 617 502 621 735 496 384 500 618
8 736 620 499 619 618 500 382 497
8 630 527 408 511 736 620 499 619
8 621 506 626 737 500 388 505 620
8 647 544 424 527 737 626 505 620
8 623 508 627 738 502 390 506 621
8 623 508 390 502 739 628 507 622
8 625 510 628 739 504 392 507 622
8 740 629 509 624 691 585 468 575
8 625 510 392 504 740 629 509 624
8 632 529 410 513 744 647 527 630
8 631 528 648 745 514 411 530 633
8 632 529 648 745 513 410 528 631
8 638 535 416 519 746 649 530 633
8 747 650 531 634 635 532 413 516
8 642 539 420 523 747 650 531 634
8 636 533 651 748 517 414 532 635
8 640 536 652 749 521 417 533 636
8 639 537 418 520 750 653 534 637
8 638 535 653 750 519 416 534 637
8 641 538 419 522 751 655 537 639
8 641 538 654 752 522 419 536 640
8 643 540 421 524 753 657 539 642
8 643 540 659 755 524 421 541 644
8 644 541 660 757 526 423 543 646
8 758 661 542 645 646 543 422 525
8 529 426 544 647 648 545 662 759
8 530 427 545 648 649 546 663 760
8 535 429 546 649 653 547 664 761
8 762 666 548 650 651 550 432 532
8 657 556 438 539 762 666 548 650
8 652 551 668 763 533 433 550 651
8 654 552 669 764 536 434 551 652
8 655 549 431 537 765 665 547 653
8 538 435 549 655 654 552 667 766
8 661 554 671 768 542 436 553 656
8 658 558 440 540 769 674 556 657
8 658 558 675 770 540 440 557 659
8 659 557 673 771 541 439 555 660
8 660 555 672 772 543 437 554 661
8 788 686 570 676 704 591 473 590
8 677 571 453 560 788 686 570 676
8 679 573 455 562 789 687 571 677
8 566 459 577 683 678 575 691 790
8 681 574 456 564 791 689 573 679
8 680 572 688 792 567 460 578 684
8 681 574 688 792 564 456 572 680
8 682 576 692 794 566 459 577 683
8 569 461 579 685 682 576 692 794
8 568 462 578 684 685 579 694 796
8 687 581 464 571 798 696 580 686
8 798 696 580 686 705 592 474 591
8 689 583 466 573 799 697 581 687
8 688 582 698 800 578 471 588 694
8 690 584 698 800 574 467 582 688
8 690 584 467 574 801 699 583 689
8 693 587 701 803 577 470 585 691
8 693 587 470 577 804 702 586 692
8 695 589 702 804 579 472 586 692
8 695 589 472 579 805 703 588 694
8 708 595 705 813 593 475 591 704
8 710 596 706 814 595 476 592 705
8 707 594 479 602 816 709 600 719
8 708 595 475 593 817 711 594 707
8 709 598 478 600 819 715 599 717
8 711 597 477 594 820 714 598 709
8 710 596 476 595 822 713 597 711
8 600 478 601 720 717 599 718 832
8 602 479 603 722 719 600 720 834
8 720 601 480 603 835 721 604 723
8 722 603 482 605 836 723 606 724
8 767 670 725 839 656 553 608 726
8 756 656 726 841 645 542 609 728
8 726 608 727 842 609 487 610 729
8 728 609 729 843 611 488 612 730
8 844 740 624 731 790 691 575 678
8 733 625 504 616 844 740 624 731
8 734 623 502 617 845 739 622 732
8 733 625 739 845 616 504 622 732
8 734 623 738 846 617 502 621 735
8 735 621 737 847 618 500 620 736
8 744 647 527 630 847 737 620 736
8 621 506 627 738 737 626 741 848
8 647 544 626 737 759 662 741 848
8 623 508 628 739 738 627 742 849
8 740 629 585 691 850 743 700 802
8 625 510 629 740 739 628 743 850
8 632 529 647 744 745 648 759 854
8 633 530 648 745 746 649 760 855
8 638 535 649 746 750 653 761 856
8 857 762 650 747 748 651 532 635
8 753 657 539 642 857 762 650 747
8 749 652 763 858 636 533 651 748
8 752 654 764 859 640 536 652 749
8 751 655 537 639 860 765 653 750
8 641 538 655 751 752 654 766 861
8 754 658 540 643 862 769 657 753
8 754 658 770 863 643 540 659 755
8 755 659 771 864 644 541 660 757
8 758 661 768 866 645 542 656 756
8 757 660 772 867 646 543 661 758
8 759 662 773 868 648 545 663 760
8 649 546 663 760 761 664 774 871
8 765 665 547 653 872 775 664 761
8 873 777 666 762 763 668 550 651
8 769 674 556 657 873 777 666 762
8 764 669 779 874 652 551 668 763
8 654 552 667 766 764 669 778 875
8 655 549 665 765 766 667 776 876
8 768 671 782 877 656 553 670 767
8 772 672 783 878 661 554 671 768
8 658 558 674 769 770 675 786 879
8 659 557 675 770 771 673 785 881
8 882 784 672 772 771 673 555 660
8 789 687 571 677 897 798 686 788
8 897 798 686 788 813 705 591 704
8 791 689 573 679 898 799 687 789
8 795 693 803 900 683 577 691 790
8 793 690 574 681 901 801 689 791
8 792 688 800 902 684 578 694 796
8 793 690 800 902 681 574 688 792
8 795 693 577 683 903 804 692 794
8 797 695 804 903 685 579 692 794
8 797 695 579 685 904 805 694 796
8 905 806 697 799 798 696 581 687
8 814 706 806 905 705 592 696 798
8 689 583 697 799 801 699 808 907
8 800 698 809 908 694 588 703 805
8 690 584 699 801 800 698 809 908
8 803 701 810 909 691 585 700 802
8 693 587 702 804 803 701 811 910
8 695 589 703 805 804 702 812 911
8 818 710 814 919 708 595 705 813
8 821 712 815 920 710 596 706 814
8 816 709 600 719 922 819 717 831
8 817 711 594 707 923 820 709 816
8 818 710 595 708 924 822 711 817
8 819 715 599 717 926 827 716 829
8 820 714 598 709 927 826 715 819
8 929 825 713 822 820 714 597 711
8 821 712 596 710 930 824 713 822
8 717 599 718 832 829 716 830 942
8 719 600 720 834 831 717 832 944
8 832 718 601 720 945 833 721 835
8 834 720 603 722 946 835 723 836
8 869 780 838 950 767 670 725 839
8 865 767 839 952 756 656 726 841
8 839 725 840 953 726 608 727 842
8 841 726 842 954 728 609 729 843
8 844 740 691 790 955 850 802 899
8 733 625 740 844 845 739 850 955
8 734 623 739 845 846 738 849 956
8 735 621 738 846 847 737 848 957
8 744 647 737 847 854 759 848 957
8 738 627 742 849 848 741 851 958
8 848 741 851 958 759 662 773 868
8 850 743 700 802 959 852 807 906
8 849 742 628 739 959 852 743 850
8 854 759 868 965 745 648 760 855
8 746 649 760 855 856 761 871 966
8 860 765 653 750 967 872 761 856
8 968 873 762 857 858 763 651 748
8 862 769 657 753 968 873 762 857
8 859 764 874 969 749 652 763 858
8 752 654 766 861 859 764 875 970
8 751 655 765 860 861 766 876 971
8 754 658 769 862 863 770 879 972
8 755 659 770 863 864 771 881 974
8 976 882 772 867 864 771 660 757
8 866 768 877 977 756 656 767 865
8 867 772 878 978 758 661 768 866
8 760 663 773 868 871 774 883 980
8 870 781 837 948 982 890 780 869
8 982 890 780 869 877 782 670 767
8 761 664 774 871 872 775 884 984
8 876 776 665 765 985 885 775 872
8 873 777 668 763 986 887 779 874
8 769 674 777 873 879 786 887 986
8 764 669 778 875 874 779 888 987
8 766 667 776 876 875 778 886 988
8 878 783 892 989 768 671 782 877
8 878 783 672 772 990 893 784 882
8 880 787 675 770 991 896 786 879
8 880 787 895 992 770 675 785 881
8 881 785 894 993 771 673 784 882
8 1006 905 799 898 897 798 687 789
8 919 814 905 1006 813 705 798 897
8 791 689 799 898 901 801 907 1007
8 900 803 909 1009 790 691 802 899
8 795 693 804 903 900 803 910 1010
8 902 800 908 1011 796 694 805 904
8 793 690 801 901 902 800 908 1011
8 797 695 805 904 903 804 911 1012
8 799 697 806 905 907 808 912 1013
8 920 815 912 1013 814 706 806 905
8 802 700 810 909 906 807 913 1014
8 801 699 808 907 908 809 914 1015
8 805 703 809 908 911 812 915 1016
8 803 701 811 910 909 810 916 1017
8 911 812 917 1018 804 702 811 910
8 925 821 920 1030 818 710 814 919
8 928 823 921 1031 821 712 815 920
8 922 819 717 831 1033 926 829 941
8 923 820 709 816 1034 927 819 922
8 1035 929 822 924 923 820 711 817
8 925 821 710 818 1036 930 822 924
8 1038 933 825 929 927 826 714 820
8 926 827 716 829 1039 935 828 939
8 927 826 715 819 1040 934 827 926
8 928 823 712 821 1041 931 824 930
8 1042 932 824 930 929 825 713 822
8 829 716 830 942 939 828 940 1058
8 831 717 832 944 941 829 942 1060
8 942 830 718 832 1061 943 833 945
8 944 832 720 834 1062 945 835 946
8 981 889 947 1064 870 781 837 948
8 948 837 949 1067 869 780 838 950
8 975 869 950 1069 865 767 839 952
8 950 838 951 1070 839 725 840 953
8 952 839 953 1071 841 726 842 954
8 955 850 802 899 1072 959 906 1008
8 956 849 739 845 1072 959 850 955
8 846 738 849 956 957 848 958 1073
8 957 848 958 1073 854 759 868 965
8 849 742 852 959 958 851 961 1076
8 960 853 961 1076 906 807 852 959
8 958 851 961 1076 868 773 883 980
8 960 853 807 906 1077 963 913 1014
8 855 760 868 965 966 871 980 1085
8 856 761 871 966 967 872 984 1086
8 971 876 765 860 1087 985 872 967
8 968 873 763 858 1088 986 874 969
8 862 769 873 968 972 879 986 1088
8 859 764 875 970 969 874 987 1089
8 861 766 876 971 970 875 988 1090
8 973 880 770 863 1091 991 879 972
8 973 880 992 1092 863 770 881 974
8 974 881 993 1093 864 771 882 976
8 979 870 948 1066 1094 982 869 975
8 1094 982 869 975 977 877 767 865
8 978 878 772 867 1095 990 882 976
8 978 878 989 1096 866 768 877 977
8 871 774 883 980 984 884 994 1099
8 983 891 999 1100 870 781 889 981
8 1101 1000 890 982 989 892 782 877
8 983 891 781 870 1101 1000 890 982
8 872 775 884 984 985 885 995 1103
8 876 776 885 985 988 886 996 1104
8 986 887 779 874 1105 998 888 987
8 879 786 887 986 991 896 998 1105
8 875 778 886 988 987 888 997 1106
8 990 893 1002 1107 878 783 892 989
8 1108 1003 893 990 993 894 784 882
8 880 787 896 991 992 895 1005 1109
8 993 894 785 881 1110 1004 895 992
8 898 799 905 1006 1007 907 1013 1120
8 1030 920 1013 1120 919 814 905 1006
8 901 801 907 1007 1011 908 1015 1121
8 899 802 909 1009 1008 906 1014 1122
8 900 803 910 1010 1009 909 1017 1123
8 1012 911 1018 1124 903 804 910 1010
8 904 805 908 1011 1012 911 1016 1125
8 1013 912 1020 1127 907 808 914 1015
8 1031 921 1020 1127 920 815 912 1013
8 1019 918 962 1075 1128 1021 913 1014
8 1128 1021 913 1014 1017 916 810 909
8 1015 914 1022 1129 908 809 915 1016
8 1016 915 1023 1130 911 812 917 1018
8 1018 917 1024 1131 910 811 916 1017
8 1037 928 1031 1148 925 821 920 1030
8 928 823 931 1041 1031 921 1032 1149
8 1033 926 829 941 1151 1039 939 1057
8 1034 927 819 922 1152 1040 926 1033
8 1153 1038 929 1035 1034 927 820 923
8 1154 1042 930 1036 1035 929 822 924
8 1037 928 821 925 1155 1041 930 1036
8 1039 935 828 939 1156 1047 938 1055
8 1157 1043 932 1042 1038 933 825 929
8 1038 933 826 927 1158 1045 934 1040
8 1040 934 827 926 1159 1046 935 1039
8 930 824 932 1042 1041 931 1044 1160
8 1051 936 1048 1165 1175 1052 937 1053
8 1156 1047 938 1055 1053 937 1054 1178
8 939 828 940 1058 1055 938 1056 1181
8 941 829 942 1060 1057 939 1058 1183
8 942 830 943 1061 1058 940 1059 1184
8 1060 942 832 944 1185 1061 945 1062
8 1082 964 1063 1188 981 889 947 1064
8 1097 981 1064 1190 979 870 948 1066
8 1064 947 1065 1191 948 837 949 1067
8 1066 948 1067 1193 975 869 950 1069
8 1067 949 1068 1194 950 838 951 1070
8 1069 950 1070 1195 952 839 953 1071
8 956 849 959 1072 1073 958 1076 1197
8 1074 960 1076 1197 1008 906 959 1072
8 1073 958 1076 1197 965 868 980 1085
8 1074 960 906 1008 1198 1077 1014 1122
8 1133 1026 1079 1199 1019 918 962 1075
8 1077 963 913 1014 1200 1080 962 1075
8 960 853 963 1077 1076 961 1078 1201
8 980 883 961 1076 1099 994 1078 1201
8 1210 1083 964 1082 1100 999 889 981
8 966 871 980 1085 1086 984 1099 1215
8 967 872 984 1086 1087 985 1103 1216
8 971 876 985 1087 1090 988 1104 1217
8 1088 986 874 969 1218 1105 987 1089
8 972 879 986 1088 1091 991 1105 1218
8 970 875 988 1090 1089 987 1106 1219
8 973 880 991 1091 1092 992 1109 1220
8 1093 993 881 974 1221 1110 992 1092
8 1222 1108 990 1095 1093 993 882 976
8 1223 1101 982 1094 1096 989 877 977
8 1098 983 870 979 1223 1101 982 1094
8 1095 990 1107 1224 978 878 989 1096
8 1098 983 1100 1225 979 870 981 1097
8 984 884 994 1099 1103 995 1111 1227
8 1102 1001 1115 1228 983 891 999 1100
8 1101 1000 892 989 1229 1116 1002 1107
8 1102 1001 891 983 1229 1116 1000 1101
8 985 885 995 1103 1104 996 1112 1230
8 988 886 996 1104 1106 997 1113 1231
8 1105 998 888 987 1232 1114 997 1106
8 991 896 998 1105 1109 1005 1114 1232
8 1108 1003 1117 1233 990 893 1002 1107
8 1108 1003 894 993 1233 1117 1004 1110
8 992 895 1005 1109 1110 1004 1118 1234
8 1120 1013 1127 1244 1007 907 1015 1121
8 1148 1031 1127 1244 1030 920 1013 1120
8 1121 1015 1129 1245 1011 908 1016 1125
8 1126 1019 1075 1196 1246 1128 1014 1122
8 1246 1128 1014 1122 1123 1017 909 1009
8 1124 1018 1131 1247 1010 910 1017 1123
8 1125 1016 1130 1248 1012 911 1018 1124
8 1127 1020 1137 1254 1015 914 1022 1129
8 1031 921 1032 1149 1127 1020 1137 1254
8 1134 1027 918 1019 1257 1140 1021 1128
8 1257 1140 1021 1128 1131 1024 916 1017
8 1129 1022 1141 1258 1016 915 1023 1130
8 1130 1023 1142 1259 1018 917 1024 1131
8 1261 1144 1025 1132 1133 1026 1079 1199
8 1255 1138 1025 1132 1135 1028 1144 1261
8 1133 1026 918 1019 1262 1145 1027 1134
8 1136 1029 1139 1256 1263 1146 1028 1135
8 1037 928 1041 1155 1148 1031 1149 1275
8 1041 931 1044 1160 1149 1032 1150 1276
8 1151 1039 939 1057 1278 1156 1055 1180
8 1152 1040 926 1033 1279 1159 1039 1151
8 1153 1038 927 1034 1280 1158 1040 1152
8 1281 1157 1042 1154 1153 1038 929 1035
8 1036 930 1042 1154 1155 1041 1160 1282
8 1283 1164 1046 1159 1156 1047 935 1039
8 1165 1048 1164 1283 1053 937 1047 1156
8 1157 1043 933 1038 1284 1161 1045 1158
8 1157 1043 1161 1284 1042 932 1044 1160
8 1040 934 1046 1159 1158 1045 1163 1285
8 1166 1049 1167 1292 1051 936 1048 1165
8 1166 1049 936 1051 1293 1168 1050 1172
8 1051 936 1052 1175 1172 1050 1173 1306
8 1174 1051 1165 1290 1308 1175 1053 1177
8 1053 937 1054 1178 1175 1052 1176 1309
8 1278 1156 1055 1180 1177 1053 1178 1311
8 1055 938 1056 1181 1178 1054 1179 1312
8 1057 939 1058 1183 1180 1055 1181 1314
8 1058 940 1059 1184 1181 1056 1182 1315
8 1060 942 1061 1185 1183 1058 1184 1316
8 1208 1081 1187 1321 1082 964 1063 1188
8 1209 1082 1188 1322 1097 981 1064 1190
8 1188 1063 1189 1323 1064 947 1065 1191
8 1190 1064 1191 1325 1066 948 1067 1193
8 1191 1065 1192 1326 1067 949 1068 1194
8 1067 1193 1069 950 1194 1327 1195 1070
8 1250 1133 1199 1330 1126 1019 1075 1196
8 1198 1077 1014 1122 1331 1200 1075 1196
8 1074 960 1077 1198 1197 1076 1201 1332
8 1085 980 1076 1197 1215 1099 1201 1332
8 1199 1079 1203 1333 1075 962 1080 1200
8 1132 1025 1119 1243 1199 1079 1203 1333
8 1201 1078 963 1077 1334 1202 1080 1200
8 1099 994 1078 1201 1227 1111 1202 1334
8 1343 1207 1081 1208 1210 1083 964 1082
8 1214 1084 1186 1319 1343 1207 1081 1208
8 1345 1210 1082 1209 1225 1100 981 1097
8 1346 1211 1083 1210 1228 1115 999 1100
8 1086 984 1099 1215 1216 1103 1227 1352
8 1087 985 1103 1216 1217 1104 1230 1353
8 1090 988 1104 1217 1219 1106 1231 1354
8 1218 1105 987 1089 1355 1232 1106 1219
8 1091 991 1105 1218 1220 1109 1232 1355
8 1092 992 1109 1220 1221 1110 1234 1356
8 1222 1108 1233 1357 1095 990 1107 1224
8 1222 1108 993 1093 1357 1233 1110 1221
8 1223 1101 989 1096 1358 1229 1107 1224
8 1226 1102 983 1098 1358 1229 1101 1223
8 1226 1102 1228 1359 1098 983 1100 1225
8 1103 995 1111 1227 1230 1112 1235 1360
8 1107 1002 1117 1233 1229 1116 1240 1362
8 1102 1001 1116 1229 1228 1115 1240 1362
8 1104 996 1112 1230 1231 1113 1236 1363
8 1364 1237 1114 1232 1231 1113 997 1106
8 1109 1005 1114 1232 1234 1118 1238 1365
8 1110 1004 1118 1234 1233 1117 1241 1366
8 1242 1374 1255 1138 1119 1243 1132 1025
8 1244 1127 1254 1376 1121 1015 1129 1245
8 1148 1031 1149 1275 1244 1127 1254 1376
8 1245 1129 1258 1377 1125 1016 1130 1248
8 1251 1134 1019 1126 1378 1257 1128 1246
8 1378 1257 1128 1246 1247 1131 1017 1123
8 1248 1130 1259 1379 1124 1018 1131 1247
8 1261 1381 1250 1133 1132 1249 1330 1199
8 1255 1380 1252 1135 1132 1249 1381 1261
8 1250 1133 1019 1126 1382 1262 1134 1251
8 1253 1136 1256 1385 1384 1263 1135 1252
8 1254 1137 1265 1387 1129 1022 1141 1258
8 1149 1032 1150 1276 1254 1137 1265 1387
8 1028 1135 1255 1138 1139 1256 1388 1266
8 1136 1029 1147 1264 1256 1139 1267 1389
8 1390 1268 1140 1257 1259 1142 1024 1131
8 1260 1143 1027 1134 1390 1268 1140 1257
8 1258 1141 1269 1391 1130 1023 1142 1259
8 1262 1145 1027 1134 1393 1271 1143 1260
8 1261 1144 1026 1133 1394 1272 1145 1262
8 1135 1028 1144 1261 1263 1146 1272 1394
8 1136 1029 1146 1263 1264 1147 1273 1395
8 1155 1041 1160 1282 1275 1149 1276 1405
8 1276 1150 1044 1160 1406 1277 1162 1286
8 1408 1283 1159 1279 1278 1156 1039 1151
8 1290 1165 1283 1408 1177 1053 1156 1278
8 1152 1040 1159 1279 1280 1158 1285 1409
8 1281 1157 1038 1153 1410 1284 1158 1280
8 1281 1157 1284 1410 1154 1042 1160 1282
8 1159 1046 1164 1283 1285 1163 1289 1412
8 1292 1167 1289 1412 1165 1048 1164 1283
8 1158 1045 1163 1285 1284 1161 1288 1413
8 1284 1161 1288 1413 1160 1044 1162 1286
8 1291 1166 1292 1418 1174 1051 1165 1290
8 1291 1166 1051 1174 1419 1293 1172 1305
8 1294 1169 1296 1421 1166 1049 1167 1292
8 1293 1168 1050 1172 1422 1295 1171 1303
8 1294 1169 1049 1166 1423 1297 1168 1293
8 1422 1295 1171 1303 1301 1170 1302 1435
8 1172 1050 1173 1306 1303 1171 1304 1438
8 1174 1051 1175 1308 1305 1172 1306 1440
8 1175 1052 1176 1309 1306 1173 1307 1441
8 1177 1053 1178 1311 1308 1175 1309 1443
8 1178 1054 1179 1312 1309 1176 1310 1444
8 1180 1055 1181 1314 1311 1178 1312 1446
8 1056 1181 1312 1179 1182 1315 1447 1313
8 1183 1058 1184 1316 1314 1181 1315 1448
8 1319 1186 1084 1214 1451 1317 1213 1350
8 1319 1186 1318 1453 1208 1081 1187 1321
8 1321 1187 1320 1456 1188 1063 1189 1323
8 1344 1208 1321 1457 1209 1082 1188 1322
8 1322 1188 1323 1458 1190 1064 1191 1325
8 1323 1189 1324 1459 1191 1065 1192 1326
8 1191 1325 1193 1067 1326 1460 1327 1194
8 1242 1374 1243 1119 1328 1462 1335 1204
8 1330 1199 1333 1465 1196 1075 1200 1331
8 1132 1249 1330 1199 1243 1375 1465 1333
8 1332 1201 1077 1198 1466 1334 1200 1331
8 1215 1099 1201 1332 1352 1227 1334 1466
8 1119 1243 1333 1203 1204 1335 1470 1338
8 1333 1203 1338 1470 1200 1080 1202 1334
8 1227 1111 1202 1334 1360 1235 1338 1470
8 1328 1462 1335 1204 1205 1336 1471 1339
8 1337 1206 1340 1472 1464 1329 1205 1336
8 1346 1211 1342 1479 1210 1083 1207 1343
8 1346 1211 1115 1228 1479 1342 1239 1361
8 1348 1212 1084 1214 1479 1342 1207 1343
8 1480 1343 1208 1344 1345 1210 1082 1209
8 1351 1214 1319 1454 1480 1343 1208 1344
8 1481 1346 1210 1345 1359 1228 1100 1225
8 1348 1212 1347 1483 1214 1084 1213 1350
8 1216 1103 1227 1352 1353 1230 1360 1488
8 1217 1104 1230 1353 1354 1231 1363 1489
8 1490 1364 1232 1355 1354 1231 1106 1219
8 1220 1109 1232 1355 1356 1234 1365 1491
8 1221 1110 1234 1356 1357 1233 1366 1492
8 1224 1107 1233 1357 1358 1229 1362 1493
8 1226 1102 1229 1358 1359 1228 1362 1493
8 1230 1112 1235 1360 1363 1236 1367 1496
8 1361 1239 1115 1228 1497 1371 1240 1362
8 1366 1241 1372 1498 1233 1117 1240 1362
8 1364 1237 1113 1231 1499 1368 1236 1363
8 1364 1237 1368 1499 1232 1114 1238 1365
8 1234 1118 1238 1365 1366 1241 1369 1500
8 1507 1373 1242 1374 1388 1266 1138 1255
8 1508 1374 1243 1375 1380 1255 1132 1249
8 1376 1254 1387 1509 1245 1129 1258 1377
8 1275 1149 1276 1405 1376 1254 1387 1509
8 1377 1258 1391 1510 1248 1130 1259 1379
8 1511 1390 1257 1378 1379 1259 1131 1247
8 1383 1260 1134 1251 1511 1390 1257 1378
8 1252 1135 1256 1385 1380 1255 1388 1512
8 1261 1381 1513 1394 1133 1250 1382 1262
8 1135 1252 1384 1263 1261 1381 1513 1394
8 1382 1262 1134 1251 1514 1393 1260 1383
8 1253 1136 1263 1384 1386 1264 1395 1516
8 1253 1136 1264 1386 1385 1256 1389 1517
8 1387 1265 1397 1519 1258 1141 1269 1391
8 1276 1150 1277 1406 1387 1265 1397 1519
8 1256 1139 1267 1389 1388 1266 1398 1520
8 1264 1147 1274 1396 1389 1267 1399 1521
8 1392 1270 1143 1260 1522 1400 1268 1390
8 1390 1268 1142 1259 1522 1400 1269 1391
8 1392 1270 1401 1523 1260 1143 1271 1393
8 1272 1394 1524 1402 1145 1262 1393 1271
8 1395 1273 1146 1263 1524 1402 1272 1394
8 1273 1395 1264 1147 1403 1526 1396 1274
8 1405 1276 1160 1282 1534 1406 1286 1411
8 1414 1287 1407 1535 1286 1162 1277 1406
8 1279 1159 1283 1408 1409 1285 1412 1537
8 1418 1292 1412 1537 1290 1165 1283 1408
8 1280 1158 1285 1409 1410 1284 1413 1538
8 1410 1284 1413 1538 1282 1160 1286 1411
8 1285 1163 1289 1412 1413 1288 1417 1540
8 1421 1296 1417 1540 1292 1167 1289 1412
8 1414 1287 1162 1286 1541 1416 1288 1413
8 1420 1294 1421 1545 1291 1166 1292 1418
8 1419 1293 1172 1305 1546 1422 1303 1437
8 1420 1294 1166 1291 1547 1423 1293 1419
8 1294 1169 1297 1423 1421 1296 1425 1548
8 1423 1297 1168 1293 1549 1424 1295 1422
8 1301 1170 1298 1427 1422 1295 1424 1549
8 1432 1300 1428 1554 1301 1170 1298 1427
8 1431 1299 1428 1554 1560 1430 1300 1432
8 1563 1433 1300 1432 1435 1302 1170 1301
8 1546 1422 1303 1437 1434 1301 1435 1565
8 1303 1171 1304 1438 1435 1302 1436 1566
8 1305 1172 1306 1440 1437 1303 1438 1568
8 1306 1173 1307 1441 1438 1304 1439 1569
8 1308 1175 1309 1443 1440 1306 1441 1571
8 1309 1176 1310 1444 1441 1307 1442 1572
8 1311 1178 1312 1446 1443 1309 1444 1574
8 1179 1312 1444 1310 1313 1447 1575 1445
8 1314 1181 1315 1448 1446 1312 1447 1576
8 1350 1213 1349 1486 1451 1317 1449 1579
8 1451 1317 1450 1581 1319 1186 1318 1453
8 1454 1319 1214 1351 1582 1451 1350 1487
8 1453 1318 1452 1584 1321 1187 1320 1456
8 1454 1319 1453 1585 1344 1208 1321 1457
8 1456 1320 1455 1586 1323 1189 1324 1459
8 1457 1321 1456 1587 1322 1188 1323 1458
8 1458 1323 1459 1588 1325 1191 1326 1460
8 1205 1336 1464 1329 1328 1462 1590 1461
8 1507 1373 1461 1590 1374 1242 1328 1462
8 1508 1374 1462 1591 1375 1243 1335 1467
8 1337 1206 1329 1464 1473 1341 1463 1594
8 1375 1243 1335 1467 1465 1333 1470 1596
8 1465 1333 1470 1596 1331 1200 1334 1466
8 1352 1227 1334 1466 1488 1360 1470 1596
8 1591 1462 1336 1468 1467 1335 1471 1597
8 1469 1337 1472 1598 1595 1464 1336 1468
8 1471 1339 1474 1600 1335 1204 1338 1470
8 1600 1474 1367 1496 1470 1338 1235 1360
8 1336 1205 1340 1472 1471 1339 1475 1601
8 1337 1206 1341 1473 1472 1340 1476 1602
8 1495 1370 1478 1609 1361 1239 1342 1479
8 1348 1212 1342 1479 1483 1347 1478 1609
8 1481 1346 1479 1610 1345 1210 1343 1480
8 1481 1346 1228 1359 1610 1479 1361 1494
8 1484 1348 1214 1351 1610 1479 1343 1480
8 1483 1347 1482 1612 1350 1213 1349 1486
8 1484 1348 1483 1613 1351 1214 1350 1487
8 1353 1230 1360 1488 1489 1363 1496 1616
8 1490 1364 1231 1354 1617 1499 1363 1489
8 1490 1364 1499 1617 1355 1232 1365 1491
8 1356 1234 1365 1491 1492 1366 1500 1619
8 1492 1366 1498 1620 1357 1233 1362 1493
8 1494 1361 1228 1359 1621 1497 1362 1493
8 1495 1370 1239 1361 1622 1504 1371 1497
8 1363 1236 1367 1496 1499 1368 1501 1623
8 1497 1371 1240 1362 1624 1505 1372 1498
8 1625 1503 1372 1498 1500 1369 1241 1366
8 1365 1238 1368 1499 1500 1369 1502 1626
8 1520 1398 1506 1633 1388 1266 1373 1507
8 1634 1507 1374 1508 1512 1388 1255 1380
8 1509 1387 1519 1635 1377 1258 1391 1510
8 1405 1276 1406 1534 1509 1387 1519 1635
8 1515 1392 1260 1383 1636 1522 1390 1511
8 1511 1390 1259 1379 1636 1522 1391 1510
8 1385 1256 1389 1517 1512 1388 1520 1637
8 1513 1394 1262 1382 1638 1524 1393 1514
8 1395 1516 1638 1524 1263 1384 1513 1394
8 1515 1392 1523 1639 1383 1260 1393 1514
8 1516 1395 1526 1640 1386 1264 1396 1518
8 1386 1264 1396 1518 1517 1389 1521 1641
8 1519 1397 1527 1643 1391 1269 1400 1522
8 1535 1407 1527 1643 1406 1277 1397 1519
8 1389 1267 1399 1521 1520 1398 1528 1644
8 1645 1529 1399 1521 1525 1404 1274 1396
8 1392 1270 1400 1522 1523 1401 1531 1646
8 1524 1402 1271 1393 1648 1532 1401 1523
8 1403 1526 1648 1532 1273 1395 1524 1402
8 1525 1404 1274 1396 1649 1533 1403 1526
8 1539 1414 1535 1657 1411 1286 1406 1534
8 1542 1415 1536 1658 1414 1287 1407 1535
8 1409 1285 1412 1537 1538 1413 1540 1660
8 1545 1421 1540 1660 1418 1292 1412 1537
8 1539 1414 1286 1411 1661 1541 1413 1538
8 1540 1417 1544 1663 1413 1288 1416 1541
8 1421 1296 1425 1548 1540 1417 1544 1663
8 1542 1415 1287 1414 1664 1543 1416 1541
8 1420 1294 1423 1547 1545 1421 1548 1666
8 1547 1423 1293 1419 1667 1549 1422 1546
8 1434 1301 1427 1553 1546 1422 1549 1667
8 1423 1297 1424 1549 1548 1425 1550 1668
8 1551 1426 1550 1668 1427 1298 1424 1549
8 1551 1426 1298 1427 1671 1552 1428 1554
8 1562 1432 1554 1674 1434 1301 1427 1553
8 1431 1299 1429 1558 1554 1428 1555 1675
8 1431 1299 1430 1560 1558 1429 1557 1680
8 1560 1430 1300 1432 1683 1559 1433 1563
8 1561 1431 1554 1674 1684 1560 1432 1562
8 1685 1563 1432 1562 1565 1435 1301 1434
8 1435 1302 1436 1566 1563 1433 1564 1686
8 1437 1303 1438 1568 1565 1435 1566 1688
8 1438 1304 1439 1569 1566 1436 1567 1689
8 1440 1306 1441 1571 1568 1438 1569 1691
8 1441 1307 1442 1572 1569 1439 1570 1692
8 1443 1309 1444 1574 1571 1441 1572 1694
8 1310 1444 1572 1442 1445 1575 1695 1573
8 1446 1312 1447 1576 1574 1444 1575 1696
8 1486 1349 1485 1614 1579 1449 1577 1699
8 1451 1317 1449 1579 1581 1450 1578 1701
8 1487 1350 1486 1615 1582 1451 1579 1702
8 1581 1450 1580 1704 1453 1318 1452 1584
8 1582 1451 1581 1705 1454 1319 1453 1585
8 1584 1452 1583 1706 1456 1320 1455 1586
8 1585 1453 1584 1707 1457 1321 1456 1587
8 1587 1456 1586 1708 1458 1323 1459 1588
8 1633 1506 1589 1710 1507 1373 1461 1590
8 1464 1329 1461 1590 1594 1463 1589 1710
8 1468 1336 1462 1591 1595 1464 1590 1711
8 1634 1507 1590 1711 1508 1374 1462 1591
8 1473 1341 1463 1594 1603 1477 1593 1716
8 1469 1337 1464 1595 1599 1473 1594 1717
8 1471 1597 1467 1335 1600 1718 1596 1470
8 1718 1600 1496 1616 1596 1470 1360 1488
8 1336 1468 1597 1471 1472 1598 1719 1601
8 1469 1337 1473 1599 1598 1472 1602 1720
8 1722 1604 1501 1623 1600 1474 1367 1496
8 1475 1601 1471 1339 1604 1722 1600 1474
8 1602 1476 1605 1723 1472 1340 1475 1601
8 1476 1602 1724 1606 1341 1473 1603 1477
8 1483 1347 1478 1609 1612 1482 1608 1731
8 1495 1370 1504 1622 1609 1478 1608 1731
8 1618 1495 1609 1732 1494 1361 1479 1610
8 1484 1348 1479 1610 1613 1483 1609 1732
8 1486 1349 1482 1612 1614 1485 1611 1733
8 1613 1483 1612 1734 1487 1350 1486 1615
8 1489 1363 1496 1616 1617 1499 1623 1736
8 1491 1365 1499 1617 1619 1500 1626 1737
8 1618 1495 1361 1494 1738 1622 1497 1621
8 1739 1625 1498 1620 1619 1500 1366 1492
8 1621 1497 1362 1493 1740 1624 1498 1620
8 1742 1631 1504 1622 1624 1505 1371 1497
8 1743 1628 1502 1626 1623 1501 1368 1499
8 1744 1630 1505 1624 1625 1503 1372 1498
8 1745 1629 1503 1625 1626 1502 1369 1500
8 1520 1398 1528 1644 1633 1506 1632 1751
8 1637 1520 1633 1752 1512 1388 1507 1634
8 1635 1519 1643 1753 1510 1391 1522 1636
8 1657 1535 1643 1753 1534 1406 1519 1635
8 1515 1392 1522 1636 1639 1523 1646 1754
8 1517 1389 1521 1641 1637 1520 1644 1755
8 1524 1638 1756 1648 1393 1514 1639 1523
8 1640 1526 1395 1516 1756 1648 1524 1638
8 1642 1525 1396 1518 1757 1649 1526 1640
8 1758 1645 1521 1641 1642 1525 1396 1518
8 1646 1531 1400 1522 1760 1650 1527 1643
8 1535 1407 1536 1658 1643 1527 1650 1760
8 1521 1399 1529 1645 1644 1528 1651 1761
8 1647 1530 1652 1762 1525 1404 1529 1645
8 1401 1523 1648 1532 1531 1646 1763 1655
8 1525 1404 1533 1649 1647 1530 1654 1765
8 1533 1649 1766 1656 1403 1526 1648 1532
8 1662 1542 1658 1774 1539 1414 1535 1657
8 1542 1415 1543 1664 1658 1536 1659 1775
8 1660 1540 1663 1777 1538 1413 1541 1661
8 1545 1421 1548 1666 1660 1540 1663 1777
8 1662 1542 1414 1539 1778 1664 1541 1661
8 1664 1543 1416 1541 1779 1665 1544 1663
8 1548 1425 1550 1668 1663 1544 1665 1779
8 1547 1423 1549 1667 1666 1548 1668 1781
8 1670 1551 1668 1781 1553 1427 1549 1667
8 1551 1426 1552 1671 1668 1550 1669 1782
8 1670 1551 1427 1553 1784 1671 1554 1674
8 1675 1555 1672 1785 1554 1428 1552 1671
8 1678 1556 1673 1789 1558 1429 1555 1675
8 1561 1431 1558 1681 1674 1554 1675 1790
8 1794 1677 1556 1678 1680 1557 1429 1558
8 1560 1430 1559 1683 1680 1557 1679 1797
8 1561 1431 1560 1684 1681 1558 1680 1798
8 1563 1433 1564 1686 1683 1559 1682 1800
8 1684 1560 1432 1562 1801 1683 1563 1685
8 1565 1435 1566 1688 1685 1563 1686 1802
8 1566 1436 1567 1689 1686 1564 1687 1803
8 1568 1438 1569 1691 1688 1566 1689 1805
8 1569 1439 1570 1692 1689 1567 1690 1806
8 1571 1441 1572 1694 1691 1569 1692 1808
8 1442 1572 1692 1570 1573 1695 1809 1693
8 1574 1444 1575 1696 1694 1572 1695 1810
8 1614 1485 1592 1712 1699 1577 1697 1813
8 1579 1449 1577 1699 1701 1578 1698 1815
8 1615 1486 1614 1735 1702 1579 1699 1816
8 1701 1578 1700 1818 1581 1450 1580 1704
8 1582 1451 1579 1702 1705 1581 1701 1819
8 1704 1580 1703 1820 1584 1452 1583 1706
8 1705 1581 1704 1821 1585 1453 1584 1707
8 1707 1584 1706 1822 1587 1456 1586 1708
8 1710 1589 1506 1633 1824 1709 1632 1751
8 1594 1463 1589 1710 1716 1593 1709 1824
8 1752 1633 1710 1825 1634 1507 1590 1711
8 1595 1464 1590 1711 1717 1594 1710 1825
8 1830 1714 1592 1712 1733 1611 1485 1614
8 1603 1477 1593 1716 1725 1607 1715 1834
8 1599 1473 1594 1717 1721 1603 1716 1835
8 1837 1722 1623 1736 1718 1600 1496 1616
8 1719 1601 1722 1837 1597 1471 1600 1718
8 1602 1720 1598 1472 1723 1838 1719 1601
8 1720 1602 1473 1599 1839 1724 1603 1721
8 1723 1605 1726 1840 1601 1475 1604 1722
8 1840 1726 1628 1743 1722 1604 1501 1623
8 1724 1606 1727 1841 1602 1476 1605 1723
8 1725 1607 1728 1842 1603 1477 1606 1724
8 1612 1482 1608 1731 1733 1611 1730 1849
8 1741 1627 1730 1849 1622 1504 1608 1731
8 1613 1483 1609 1732 1734 1612 1731 1850
8 1618 1495 1622 1738 1732 1609 1731 1850
8 1615 1486 1612 1734 1735 1614 1733 1851
8 1852 1743 1626 1737 1736 1623 1499 1617
8 1853 1745 1625 1739 1737 1626 1500 1619
8 1855 1742 1622 1738 1740 1624 1497 1621
8 1856 1744 1624 1740 1739 1625 1498 1620
8 1741 1627 1504 1622 1857 1746 1631 1742
8 1742 1631 1505 1624 1858 1749 1630 1744
8 1859 1747 1629 1745 1743 1628 1502 1626
8 1860 1748 1630 1744 1745 1629 1503 1625
8 1644 1528 1651 1761 1751 1632 1750 1865
8 1637 1520 1644 1755 1752 1633 1751 1866
8 1754 1646 1522 1636 1867 1760 1643 1753
8 1657 1535 1658 1774 1753 1643 1760 1867
8 1639 1523 1646 1754 1756 1648 1763 1868
8 1641 1521 1645 1758 1755 1644 1761 1869
8 1757 1649 1526 1640 1870 1766 1648 1756
8 1642 1525 1649 1757 1759 1647 1765 1871
8 1759 1647 1762 1872 1642 1525 1645 1758
8 1760 1650 1767 1874 1646 1531 1655 1763
8 1658 1536 1659 1775 1760 1650 1767 1874
8 1762 1652 1768 1875 1645 1529 1651 1761
8 1764 1653 1769 1876 1647 1530 1652 1762
8 1656 1766 1877 1773 1532 1648 1763 1655
8 1771 1879 1765 1654 1653 1764 1647 1530
8 1533 1649 1765 1654 1656 1766 1880 1772
8 1662 1542 1664 1778 1774 1658 1775 1887
8 1664 1543 1665 1779 1775 1659 1776 1888
8 1778 1664 1541 1661 1890 1779 1663 1777
8 1666 1548 1668 1781 1777 1663 1779 1890
8 1782 1669 1780 1891 1668 1550 1665 1779
8 1670 1551 1671 1784 1781 1668 1782 1893
8 1671 1552 1672 1785 1782 1669 1783 1894
8 1790 1675 1785 1896 1674 1554 1671 1784
8 1675 1555 1673 1789 1785 1672 1786 1897
8 1792 1676 1788 1903 1678 1556 1673 1789
8 1795 1678 1789 1904 1681 1558 1675 1790
8 1792 1676 1556 1678 1906 1791 1677 1794
8 1680 1557 1679 1797 1794 1677 1793 1909
8 1910 1794 1678 1795 1798 1680 1558 1681
8 1683 1559 1682 1800 1797 1679 1796 1912
8 1684 1560 1683 1801 1798 1680 1797 1913
8 1686 1564 1687 1803 1800 1682 1799 1915
8 1685 1563 1686 1802 1801 1683 1800 1916
8 1688 1566 1689 1805 1802 1686 1803 1917
8 1689 1567 1690 1806 1803 1687 1804 1918
8 1691 1569 1692 1808 1805 1689 1806 1920
8 1692 1570 1693 1809 1806 1690 1807 1921
8 1694 1572 1695 1810 1808 1692 1809 1922
8 1829 1713 1811 1926 1712 1592 1697 1813
8 1813 1697 1812 1928 1699 1577 1698 1815
8 1735 1614 1712 1828 1816 1699 1813 1929
8 1815 1698 1814 1931 1701 1578 1700 1818
8 1702 1579 1699 1816 1819 1701 1815 1932
8 1818 1700 1817 1933 1704 1580 1703 1820
8 1819 1701 1818 1934 1705 1581 1704 1821
8 1821 1704 1820 1935 1707 1584 1706 1822
8 1824 1709 1632 1751 1937 1823 1750 1865
8 1716 1593 1709 1824 1834 1715 1823 1937
8 1825 1710 1633 1752 1938 1824 1751 1866
8 1717 1594 1710 1825 1835 1716 1824 1938
8 1945 1830 1712 1828 1851 1733 1614 1735
8 1830 1714 1831 1946 1712 1592 1713 1829
8 1947 1832 1714 1830 1849 1730 1611 1733
8 1843 1729 1607 1725 1950 1833 1715 1834
8 1721 1603 1716 1835 1836 1725 1834 1951
8 1836 1725 1842 1953 1721 1603 1724 1839
8 1723 1838 1719 1601 1840 1954 1837 1722
8 1954 1840 1743 1852 1837 1722 1623 1736
8 1724 1839 1720 1602 1841 1955 1838 1723
8 1841 1727 1844 1956 1723 1605 1726 1840
8 1956 1844 1747 1859 1840 1726 1628 1743
8 1728 1842 1724 1606 1845 1957 1841 1727
8 1725 1607 1729 1843 1842 1728 1846 1958
8 1741 1627 1746 1857 1849 1730 1848 1965
8 1734 1612 1731 1850 1851 1733 1849 1966
8 1854 1741 1849 1966 1738 1622 1731 1850
8 1967 1859 1745 1853 1852 1743 1626 1737
8 1968 1860 1744 1856 1853 1745 1625 1739
8 1854 1741 1622 1738 1969 1857 1742 1855
8 1855 1742 1624 1740 1970 1858 1744 1856
8 1857 1746 1631 1742 1971 1861 1749 1858
8 1858 1749 1630 1744 1972 1863 1748 1860
8 1859 1747 1862 1973 1745 1629 1748 1860
8 1875 1768 1864 1977 1761 1651 1750 1865
8 1755 1644 1761 1869 1866 1751 1865 1978
8 1867 1760 1874 1979 1754 1646 1763 1868
8 1774 1658 1775 1887 1867 1760 1874 1979
8 1870 1766 1648 1756 1980 1877 1763 1868
8 1872 1762 1875 1981 1758 1645 1761 1869
8 1757 1649 1766 1870 1871 1765 1880 1982
8 1983 1879 1764 1873 1871 1765 1647 1759
8 1873 1764 1876 1984 1759 1647 1762 1872
8 1877 1773 1655 1763 1986 1881 1767 1874
8 1775 1659 1776 1888 1874 1767 1881 1986
8 1876 1769 1882 1987 1762 1652 1768 1875
8 1878 1770 1883 1988 1764 1653 1769 1876
8 1880 1772 1656 1766 1989 1886 1773 1877
8 1878 1770 1653 1764 1990 1884 1771 1879
8 1765 1654 1772 1880 1879 1771 1885 1991
8 1778 1664 1779 1890 1887 1775 1888 1997
8 1998 1889 1776 1888 1891 1780 1665 1779
8 1893 1782 1891 2000 1781 1668 1779 1890
8 1894 1783 1892 2001 1782 1669 1780 1891
8 1784 1671 1785 1896 1893 1782 1894 2003
8 1897 1786 1895 2004 1785 1672 1783 1894
8 1790 1675 1789 1904 1896 1785 1897 2006
8 1901 1787 1898 2007 1789 1673 1786 1897
8 1903 1788 1900 2013 1789 1673 1787 1901
8 1792 1676 1791 1906 1903 1788 1902 2016
8 1907 1792 1903 2017 1795 1678 1789 1904
8 1906 1791 1677 1794 2019 1905 1793 1909
8 1907 1792 1678 1795 2020 1906 1794 1910
8 1797 1679 1796 1912 1909 1793 1908 2022
8 1798 1680 1797 1913 1910 1794 1909 2023
8 1800 1682 1799 1915 1912 1796 1911 2025
8 1801 1683 1800 1916 1913 1797 1912 2026
8 1803 1687 1804 1918 1915 1799 1914 2028
8 1802 1686 1803 1917 1916 1800 1915 2029
8 1805 1689 1806 1920 1917 1803 1918 2030
8 1806 1690 1807 1921 1918 1804 1919 2031
8 1808 1692 1809 1922 1920 1806 1921 2032
8 1939 1826 1924 2037 1829 1713 1811 1926
8 1926 1811 1925 2039 1813 1697 1812 1928
8 1944 1829 1926 2040 1828 1712 1813 1929
8 1928 1812 1927 2042 1815 1698 1814 1931
8 1929 1813 1928 2043 1816 1699 1815 1932
8 1931 1814 1930 2044 1818 1700 1817 1933
8 1932 1815 1931 2045 1819 1701 1818 1934
8 1934 1818 1933 2046 1821 1704 1820 1935
8 2048 1936 1823 1937 1977 1864 1750 1865
8 1950 1833 1715 1834 2048 1936 1823 1937
8 1938 1824 1751 1866 2049 1937 1865 1978
8 1835 1716 1824 1938 1951 1834 1937 2049
8 1939 1826 1713 1829 2053 1942 1831 1946
8 1940 1827 1923 2035 2053 1942 1826 1939
8 1945 1830 1946 2058 1828 1712 1829 1944
8 2059 1947 1830 1945 1966 1849 1733 1851
8 1947 1832 1730 1849 2060 1948 1848 1965
8 1947 1832 1948 2060 1830 1714 1831 1946
8 1959 1847 1729 1843 2063 1949 1833 1950
8 1952 1843 1725 1836 2064 1950 1834 1951
8 1836 1725 1843 1952 1953 1842 1958 2066
8 1953 1842 1957 2067 1839 1724 1841 1955
8 1841 1955 1838 1723 1956 2068 1954 1840
8 2068 1956 1859 1967 1954 1840 1743 1852
8 1956 1844 1960 2069 1859 1747 1862 1973
8 1845 1957 1841 1727 1960 2069 1956 1844
8 1728 1842 1957 1845 1846 1958 2071 1961
8 1962 2072 1959 1847 1846 1958 1843 1729
8 1971 1861 1964 2077 1857 1746 1848 1965
8 1854 1741 1857 1969 1966 1849 1965 2078
8 1967 1859 1973 2079 1853 1745 1860 1968
8 1970 1858 1744 1856 2080 1972 1860 1968
8 1969 1857 1742 1855 2081 1971 1858 1970
8 1971 1861 1749 1858 2082 1974 1863 1972
8 1973 1862 1975 2083 1860 1748 1863 1972
8 1987 1882 1976 2086 1875 1768 1864 1977
8 1981 1875 1977 2087 1869 1761 1865 1978
8 1980 1877 1763 1868 2088 1986 1874 1979
8 1887 1775 1888 1997 1979 1874 1986 2088
8 1880 1982 2089 1989 1766 1870 1980 1877
8 1984 1876 1987 2090 1872 1762 1875 1981
8 1765 1871 1983 1879 1880 1982 2091 1991
8 1985 1878 1764 1873 2092 1990 1879 1983
8 1985 1878 1988 2093 1873 1764 1876 1984
8 2094 1992 1881 1986 1998 1889 1776 1888
8 1986 1881 1992 2094 1877 1773 1886 1989
8 1988 1883 1993 2095 1876 1769 1882 1987
8 1878 1770 1884 1990 1988 1883 1994 2096
8 1991 1885 1772 1880 2097 1996 1886 1989
8 1879 1771 1885 1991 1990 1884 1995 2098
8 2103 1998 1888 1997 2000 1891 1779 1890
8 2104 1999 1889 1998 2001 1892 1780 1891
8 2003 1894 2001 2106 1893 1782 1891 2000
8 2004 1895 2002 2107 1894 1783 1892 2001
8 2006 1897 2004 2109 1896 1785 1894 2003
8 2007 1898 2005 2110 1897 1786 1895 2004
8 2014 1901 2007 2112 1904 1789 1897 2006
8 2011 1899 2008 2113 1901 1787 1898 2007
8 2119 2010 1899 2011 2013 1900 1787 1901
8 2016 1902 2012 2122 1903 1788 1900 2013
8 2017 1903 2013 2123 1904 1789 1901 2014
8 1906 1791 1905 2019 2016 1902 2015 2125
8 1907 1792 1906 2020 2017 1903 2016 2126
8 1909 1793 1908 2022 2019 1905 2018 2128
8 2020 1906 1794 1910 2129 2019 1909 2023
8 1912 1796 1911 2025 2022 1908 2021 2131
8 1913 1797 1912 2026 2023 1909 2022 2132
8 1915 1799 1914 2028 2025 1911 2024 2134
8 1916 1800 1915 2029 2026 1912 2025 2135
8 1918 1804 1919 2031 2028 1914 2027 2136
8 1917 1803 1918 2030 2029 1915 2028 2137
8 1920 1806 1921 2032 2030 1918 2031 2138
8 1940 1827 1941 2054 2035 1923 2033 2140
8 2035 1923 2034 2143 1939 1826 1924 2037
8 2037 1924 2036 2146 1926 1811 1925 2039
8 2051 1939 2037 2147 1944 1829 1926 2040
8 2039 1925 2038 2149 1928 1812 1927 2042
8 2040 1926 2039 2150 1929 1813 1928 2043
8 2042 1927 2041 2151 1931 1814 1930 2044
8 2043 1928 2042 2152 1932 1815 1931 2045
8 2045 1931 2044 2153 1934 1818 1933 2046
8 2155 2047 1936 2048 2086 1976 1864 1977
8 2063 1949 1833 1950 2155 2047 1936 2048
8 2156 2048 1937 2049 2087 1977 1865 1978
8 2064 1950 1834 1951 2156 2048 1937 2049
8 2051 1939 1829 1944 2160 2053 1946 2058
8 2052 1940 2035 2144 2160 2053 1939 2051
8 2053 1942 1831 1946 2163 2057 1948 2060
8 2055 1943 1827 1940 2163 2057 1942 2053
8 2055 1943 2056 2164 1940 1827 1941 2054
8 2059 1947 1849 1966 2167 2060 1965 2078
8 2059 1947 2060 2167 1945 1830 1946 2058
8 2077 1964 2061 2168 1965 1848 1948 2060
8 2070 1963 1847 1959 2170 2062 1949 2063
8 2065 1959 1843 1952 2171 2063 1950 2064
8 2173 2072 1958 2066 2065 1959 1843 1952
8 1953 1842 1958 2066 2067 1957 2071 2174
8 2068 1956 2069 2175 1967 1859 1973 2079
8 2067 1957 2069 2175 1955 1841 1956 2068
8 1845 1957 2069 1960 1961 2071 2176 2073
8 2069 1960 2073 2176 1973 1862 1975 2083
8 2070 1963 2075 2177 1959 1847 1962 2072
8 1846 1958 2071 1961 1962 2072 2178 2074
8 2077 1964 1861 1971 2182 2076 1974 2082
8 2081 1971 2077 2183 1969 1857 1965 2078
8 2079 1973 2083 2184 1968 1860 1972 2080
8 2081 1971 1858 1970 2185 2082 1972 2080
8 2083 1975 2084 2186 1972 1863 1974 2082
8 2086 1976 1882 1987 2189 2085 1993 2095
8 2090 1987 2086 2190 1981 1875 1977 2087
8 2191 2094 1986 2088 2103 1998 1888 1997
8 2088 1986 2094 2191 1980 1877 1989 2089
8 1991 2091 2192 2097 1880 1982 2089 1989
8 2093 1988 2095 2193 1984 1876 1987 2090
8 1879 1983 2092 1990 1991 2091 2194 2098
8 1985 1878 1990 2092 2093 1988 2096 2195
8 2097 1996 1886 1989 2196 2099 1992 2094
8 2196 2099 1992 2094 2104 1999 1889 1998
8 1994 2096 1988 1883 2100 2197 2095 1993
8 2096 1994 1884 1990 2198 2101 1995 2098
8 1995 2098 2199 2102 1885 1991 2097 1996
8 2203 2104 1998 2103 2106 2001 1891 2000
8 2107 2002 2105 2204 2001 1892 1999 2104
8 2109 2004 2107 2206 2003 1894 2001 2106
8 2110 2005 2108 2207 2004 1895 2002 2107
8 2112 2007 2110 2209 2006 1897 2004 2109
8 2113 2008 2111 2210 2007 1898 2005 2110
8 2120 2011 2113 2212 2014 1901 2007 2112
8 2117 2009 2114 2213 2011 1899 2008 2113
8 2219 2116 2009 2117 2119 2010 1899 2011
8 2222 2118 2010 2119 2122 2012 1900 2013
8 2223 2119 2011 2120 2123 2013 1901 2014
8 2016 1902 2015 2125 2122 2012 2121 2225
8 2126 2016 2122 2226 2017 1903 2013 2123
8 2019 1905 2018 2128 2125 2015 2124 2228
8 2020 1906 2019 2129 2126 2016 2125 2229
8 2022 1908 2021 2131 2128 2018 2127 2231
8 2023 1909 2022 2132 2129 2019 2128 2232
8 2025 1911 2024 2134 2131 2021 2130 2234
8 2026 1912 2025 2135 2132 2022 2131 2235
8 1914 2028 2134 2024 2027 2136 2236 2133
8 2029 1915 2028 2137 2135 2025 2134 2237
8 2030 1918 2031 2138 2137 2028 2136 2238
8 2157 2050 2139 2240 2054 1941 2033 2140
8 2052 1940 2054 2161 2144 2035 2140 2242
8 2140 2033 2141 2243 2035 1923 2034 2143
8 2143 2034 2142 2246 2037 1924 2036 2146
8 2144 2035 2143 2247 2051 1939 2037 2147
8 2146 2036 2145 2249 2039 1925 2038 2149
8 2147 2037 2146 2250 2040 1926 2039 2150
8 2149 2038 2148 2251 2042 1927 2041 2151
8 2150 2039 2149 2252 2043 1928 2042 2152
8 2152 2042 2151 2253 2045 1931 2044 2153
8 2255 2154 2047 2155 2189 2085 1976 2086
8 2170 2062 1949 2063 2255 2154 2047 2155
8 2256 2155 2048 2156 2190 2086 1977 2087
8 2171 2063 1950 2064 2256 2155 2048 2156
8 2258 2159 2050 2157 2164 2056 1941 2054
8 2160 2053 1946 2058 2262 2163 2060 2167
8 2162 2055 1940 2052 2262 2163 2053 2160
8 2162 2055 2164 2263 2052 1940 2054 2161
8 2163 2057 1948 2060 2264 2165 2061 2168
8 2055 1943 2057 2163 2164 2056 2165 2264
8 2182 2076 2166 2268 2077 1964 2061 2168
8 2183 2077 2168 2269 2078 1965 2060 2167
8 2070 1963 2062 2170 2177 2075 2169 2271
8 2172 2070 1959 2065 2272 2170 2063 2171
8 2172 2070 2177 2273 2065 1959 2072 2173
8 2066 1958 2072 2173 2174 2071 2178 2274
8 2067 1957 2071 2174 2175 2069 2176 2275
8 2175 2069 2176 2275 2079 1973 2083 2184
8 2071 1961 2074 2178 2176 2073 2179 2276
8 2176 2073 2179 2276 2083 1975 2084 2186
8 2072 1962 2075 2177 2178 2074 2180 2277
8 2182 2076 1974 2082 2280 2181 2084 2186
8 2183 2077 1971 2081 2281 2182 2082 2185
8 2184 2083 2186 2282 2080 1972 2082 2185
8 2189 2085 1993 2095 2285 2188 2100 2197
8 2190 2086 1987 2090 2286 2189 2095 2193
8 2192 2097 1989 2089 2287 2196 2094 2191
8 2287 2196 2094 2191 2203 2104 1998 2103
8 2194 2098 1991 2091 2288 2199 2097 2192
8 2195 2096 2197 2289 2093 1988 2095 2193
8 2096 2195 2290 2198 1990 2092 2194 2098
8 2097 1996 2099 2196 2199 2102 2200 2291
8 2196 2099 1999 2104 2291 2200 2105 2204
8 2100 2197 2292 2201 1994 2096 2198 2101
8 1995 2098 2198 2101 2102 2199 2293 2202
8 2206 2107 2204 2296 2106 2001 2104 2203
8 2207 2108 2205 2297 2107 2002 2105 2204
8 2209 2110 2207 2299 2109 2004 2107 2206
8 2210 2111 2208 2300 2110 2005 2108 2207
8 2212 2113 2210 2302 2112 2007 2110 2209
8 2213 2114 2211 2303 2113 2008 2111 2210
8 2220 2117 2213 2305 2120 2011 2113 2212
8 2216 2115 2214 2306 2117 2009 2114 2213
8 2216 2115 2009 2117 2311 2217 2116 2219
8 2219 2116 2010 2119 2314 2218 2118 2222
8 2315 2219 2117 2220 2223 2119 2011 2120
8 2122 2012 2121 2225 2222 2118 2221 2317
8 2318 2222 2119 2223 2226 2122 2013 2123
8 2125 2015 2124 2228 2225 2121 2224 2320
8 2126 2016 2125 2229 2226 2122 2225 2321
8 2128 2018 2127 2231 2228 2124 2227 2323
8 2129 2019 2128 2232 2229 2125 2228 2324
8 2131 2021 2130 2234 2231 2127 2230 2326
8 2132 2022 2131 2235 2232 2128 2231 2327
8 2134 2024 2133 2236 2234 2130 2233 2328
8 2135 2025 2134 2237 2235 2131 2234 2329
8 2137 2028 2136 2238 2237 2134 2236 2330
8 2157 2050 2158 2259 2240 2139 2239 2332
8 2257 2157 2240 2334 2161 2054 2140 2242
8 2240 2139 2241 2335 2140 2033 2141 2243
8 2242 2140 2243 2337 2144 2035 2143 2247
8 2243 2141 2244 2338 2143 2034 2142 2246
8 2246 2142 2245 2341 2146 2036 2145 2249
8 2247 2143 2246 2342 2147 2037 2146 2250
8 2249 2145 2248 2343 2149 2038 2148 2251
8 2250 2146 2249 2344 2150 2039 2149 2252
8 2252 2149 2251 2345 2152 2042 2151 2253
8 2169 2271 2347 2254 2062 2170 2255 2154
8 2189 2085 2188 2285 2255 2154 2254 2347
8 2348 2255 2155 2256 2286 2189 2086 2190
8 2272 2170 2063 2171 2348 2255 2155 2256
8 2349 2258 2157 2257 2263 2164 2054 2161
8 2258 2159 2261 2351 2157 2050 2158 2259
8 2258 2159 2056 2164 2351 2261 2165 2264
8 2262 2163 2060 2167 2355 2264 2168 2269
8 2162 2055 2163 2262 2263 2164 2264 2355
8 2357 2266 2165 2264 2268 2166 2061 2168
8 2268 2166 2076 2182 2361 2267 2181 2280
8 2281 2182 2268 2362 2183 2077 2168 2269
8 2271 2169 2270 2364 2177 2075 2180 2277
8 2172 2070 2170 2272 2273 2177 2271 2365
8 2072 2173 2274 2178 2177 2273 2366 2277
8 2071 2174 2275 2176 2178 2274 2367 2276
8 2275 2176 2276 2367 2184 2083 2186 2282
8 2283 2187 2084 2186 2368 2278 2179 2276
8 2178 2074 2180 2277 2276 2179 2278 2368
8 2283 2187 2279 2370 2186 2084 2181 2280
8 2281 2182 2082 2185 2371 2280 2186 2282
8 2188 2285 2374 2284 2100 2197 2292 2201
8 2286 2189 2095 2193 2375 2285 2197 2289
8 2192 2097 2196 2287 2288 2199 2291 2376
8 2287 2196 2104 2203 2376 2291 2204 2296
8 2194 2098 2199 2288 2290 2198 2293 2377
8 2289 2197 2096 2195 2378 2292 2198 2290
8 2291 2200 2105 2204 2379 2294 2205 2297
8 2199 2102 2200 2291 2293 2202 2294 2379
8 2198 2101 2202 2293 2292 2201 2295 2380
8 2299 2207 2297 2383 2206 2107 2204 2296
8 2300 2208 2298 2384 2207 2108 2205 2297
8 2302 2210 2300 2386 2209 2110 2207 2299
8 2303 2211 2301 2387 2210 2111 2208 2300
8 2305 2213 2303 2389 2212 2113 2210 2302
8 2306 2214 2304 2390 2213 2114 2211 2303
8 2310 2216 2306 2392 2220 2117 2213 2305
8 2308 2215 2307 2393 2216 2115 2214 2306
8 2308 2215 2115 2216 2396 2309 2217 2311
8 2310 2216 2117 2220 2398 2311 2219 2315
8 2311 2217 2116 2219 2399 2312 2218 2314
8 2314 2218 2118 2222 2402 2313 2221 2317
8 2315 2219 2119 2223 2403 2314 2222 2318
8 2225 2121 2224 2320 2317 2221 2316 2405
8 2226 2122 2225 2321 2318 2222 2317 2406
8 2228 2124 2227 2323 2320 2224 2319 2408
8 2229 2125 2228 2324 2321 2225 2320 2409
8 2231 2127 2230 2326 2323 2227 2322 2411
8 2232 2128 2231 2327 2324 2228 2323 2412
8 2234 2130 2233 2328 2326 2230 2325 2413
8 2235 2131 2234 2329 2327 2231 2326 2414
8 2237 2134 2236 2330 2329 2234 2328 2415
8 2259 2158 2260 2352 2332 2239 2331 2417
8 2257 2157 2259 2350 2334 2240 2332 2419
8 2240 2139 2239 2332 2335 2241 2333 2420
8 2334 2240 2335 2422 2242 2140 2243 2337
8 2335 2241 2336 2423 2243 2141 2244 2338
8 2337 2243 2338 2425 2247 2143 2246 2342
8 2338 2244 2339 2426 2246 2142 2245 2341
8 2341 2245 2340 2428 2249 2145 2248 2343
8 2342 2246 2341 2429 2250 2146 2249 2344
8 2344 2249 2343 2430 2252 2149 2251 2345
8 2188 2285 2347 2254 2284 2374 2432 2346
8 2347 2254 2346 2432 2271 2169 2270 2364
8 2365 2271 2170 2272 2433 2347 2255 2348
8 2286 2189 2285 2375 2348 2255 2347 2433
8 2349 2258 2351 2435 2257 2157 2259 2350
8 2349 2258 2164 2263 2435 2351 2264 2355
8 2259 2158 2261 2351 2352 2260 2354 2437
8 2356 2265 2354 2437 2264 2165 2261 2351
8 2441 2357 2264 2355 2362 2268 2168 2269
8 2356 2265 2165 2264 2442 2358 2266 2357
8 2443 2359 2266 2357 2361 2267 2166 2268
8 2370 2279 2360 2446 2280 2181 2267 2361
8 2362 2268 2182 2281 2447 2361 2280 2371
8 2180 2277 2368 2278 2270 2364 2449 2363
8 2271 2365 2273 2177 2364 2450 2366 2277
8 2372 2283 2186 2282 2451 2368 2276 2367
8 2178 2274 2367 2276 2277 2366 2451 2368
8 2283 2187 2278 2368 2370 2279 2369 2452
8 2372 2283 2370 2453 2282 2186 2280 2371
8 2284 2374 2455 2373 2201 2292 2380 2295
8 2375 2285 2197 2289 2456 2374 2292 2378
8 2376 2291 2204 2296 2457 2379 2297 2383
8 2288 2199 2291 2376 2377 2293 2379 2457
8 2198 2290 2378 2292 2293 2377 2458 2380
8 2293 2202 2294 2379 2380 2295 2381 2459
8 2384 2298 2381 2459 2297 2205 2294 2379
8 2386 2300 2384 2463 2299 2207 2297 2383
8 2387 2301 2385 2464 2300 2208 2298 2384
8 2389 2303 2387 2466 2302 2210 2300 2386
8 2390 2304 2388 2467 2303 2211 2301 2387
8 2392 2306 2390 2469 2305 2213 2303 2389
8 2393 2307 2391 2470 2306 2214 2304 2390
8 2395 2308 2393 2472 2310 2216 2306 2392
8 2308 2215 2309 2396 2393 2307 2394 2473
8 2395 2308 2216 2310 2475 2396 2311 2398
8 2396 2309 2217 2311 2476 2397 2312 2399
8 2398 2311 2219 2315 2478 2399 2314 2403
8 2399 2312 2218 2314 2479 2400 2313 2402
8 2317 2221 2316 2405 2402 2313 2401 2482
8 2403 2314 2222 2318 2483 2402 2317 2406
8 2320 2224 2319 2408 2405 2316 2404 2485
8 2321 2225 2320 2409 2406 2317 2405 2486
8 2323 2227 2322 2411 2408 2319 2407 2488
8 2324 2228 2323 2412 2409 2320 2408 2489
8 2326 2230 2325 2413 2411 2322 2410 2490
8 2327 2231 2326 2414 2412 2323 2411 2491
8 2329 2234 2328 2415 2414 2326 2413 2492
8 2417 2331 2260 2352 2494 2416 2353 2438
8 2350 2259 2352 2436 2419 2332 2417 2496
8 2332 2239 2331 2417 2420 2333 2418 2497
8 2334 2240 2332 2419 2422 2335 2420 2499
8 2420 2333 2421 2500 2335 2241 2336 2423
8 2422 2335 2423 2502 2337 2243 2338 2425
8 2423 2336 2424 2503 2338 2244 2339 2426
8 2425 2338 2426 2505 2342 2246 2341 2429
8 2426 2339 2427 2506 2341 2245 2340 2428
8 2429 2341 2428 2507 2344 2249 2343 2430
8 2432 2346 2284 2374 2509 2431 2373 2455
8 2432 2346 2431 2509 2364 2270 2363 2449
8 2375 2285 2374 2456 2433 2347 2432 2510
8 2347 2433 2365 2271 2432 2510 2450 2364
8 2350 2259 2351 2435 2436 2352 2437 2514
8 2440 2356 2437 2514 2355 2264 2351 2435
8 2352 2260 2354 2437 2438 2353 2439 2516
8 2356 2265 2358 2442 2437 2354 2439 2516
8 2440 2356 2264 2355 2518 2442 2357 2441
8 2519 2443 2357 2441 2447 2361 2268 2362
8 2443 2359 2444 2520 2357 2266 2358 2442
8 2443 2359 2267 2361 2520 2444 2360 2446
8 2446 2360 2279 2370 2523 2445 2369 2452
8 2453 2370 2446 2524 2371 2280 2361 2447
8 2449 2363 2448 2525 2368 2278 2369 2452
8 2366 2277 2364 2450 2451 2368 2449 2526
8 2372 2283 2368 2451 2453 2370 2452 2527
8 2455 2373 2295 2380 2529 2454 2382 2460
8 2456 2374 2292 2378 2530 2455 2380 2458
8 2377 2293 2379 2457 2458 2380 2459 2531
8 2463 2384 2459 2531 2383 2297 2379 2457
8 2533 2461 2382 2460 2459 2381 2295 2380
8 2464 2385 2461 2533 2384 2298 2381 2459
8 2466 2387 2464 2537 2386 2300 2384 2463
8 2467 2388 2465 2538 2387 2301 2385 2464
8 2469 2390 2467 2540 2389 2303 2387 2466
8 2470 2391 2468 2541 2390 2304 2388 2467
8 2472 2393 2470 2543 2392 2306 2390 2469
8 2393 2307 2394 2473 2470 2391 2471 2544
8 2395 2308 2396 2475 2472 2393 2473 2546
8 2396 2309 2397 2476 2473 2394 2474 2547
8 2475 2396 2311 2398 2549 2476 2399 2478
8 2476 2397 2312 2399 2550 2477 2400 2479
8 2478 2399 2314 2403 2552 2479 2402 2483
8 2479 2400 2313 2402 2553 2480 2401 2482
8 2405 2316 2404 2485 2482 2401 2481 2556
8 2406 2317 2405 2486 2483 2402 2482 2557
8 2408 2319 2407 2488 2485 2404 2484 2559
8 2409 2320 2408 2489 2486 2405 2485 2560
8 2411 2322 2410 2490 2488 2407 2487 2561
8 2412 2323 2411 2491 2489 2408 2488 2562
8 2414 2326 2413 2492 2491 2411 2490 2563
8 2513 2434 2493 2565 2438 2353 2416 2494
8 2496 2417 2352 2436 2567 2494 2438 2515
8 2494 2416 2495 2568 2417 2331 2418 2497
8 2419 2332 2417 2496 2499 2420 2497 2570
8 2497 2418 2498 2571 2420 2333 2421 2500
8 2499 2420 2500 2573 2422 2335 2423 2502
8 2500 2421 2501 2574 2423 2336 2424 2503
8 2502 2423 2503 2576 2425 2338 2426 2505
8 2503 2424 2504 2577 2426 2339 2427 2506
8 2505 2426 2506 2578 2429 2341 2428 2507
8 2509 2431 2373 2455 2580 2508 2454 2529
8 2509 2431 2508 2580 2449 2363 2448 2525
8 2432 2510 2581 2509 2374 2456 2530 2455
8 2432 2510 2450 2364 2509 2581 2526 2449
8 2583 2511 2434 2513 2516 2439 2353 2438
8 2436 2352 2437 2514 2515 2438 2516 2588
8 2440 2356 2442 2518 2514 2437 2516 2588
8 2442 2358 2444 2520 2516 2439 2517 2589
8 2519 2443 2520 2591 2441 2357 2442 2518
8 2519 2443 2361 2447 2591 2520 2446 2524
8 2446 2360 2445 2523 2520 2444 2521 2592
8 2525 2448 2522 2593 2452 2369 2445 2523
8 2524 2446 2370 2453 2594 2523 2452 2527
8 2526 2449 2525 2595 2451 2368 2452 2527
8 2534 2462 2528 2597 2460 2382 2454 2529
8 2530 2455 2380 2458 2598 2529 2460 2532
8 2599 2533 2460 2532 2531 2459 2380 2458
8 2537 2464 2533 2599 2463 2384 2459 2531
8 2534 2462 2382 2460 2601 2535 2461 2533
8 2538 2465 2535 2601 2464 2385 2461 2533
8 2540 2467 2538 2604 2466 2387 2464 2537
8 2541 2468 2539 2605 2467 2388 2465 2538
8 2543 2470 2541 2607 2469 2390 2467 2540
8 2470 2391 2471 2544 2541 2468 2542 2608
8 2472 2393 2473 2546 2543 2470 2544 2610
8 2473 2394 2474 2547 2544 2471 2545 2611
8 2475 2396 2476 2549 2546 2473 2547 2613
8 2476 2397 2477 2550 2547 2474 2548 2614
8 2549 2476 2399 2478 2616 2550 2479 2552
8 2479 2400 2480 2553 2550 2477 2551 2617
8 2552 2479 2402 2483 2619 2553 2482 2557
8 2482 2401 2481 2556 2553 2480 2554 2620
8 2485 2404 2484 2559 2556 2481 2555 2623
8 2486 2405 2485 2560 2557 2482 2556 2624
8 2488 2407 2487 2561 2559 2484 2558 2625
8 2489 2408 2488 2562 2560 2485 2559 2626
8 2491 2411 2490 2563 2562 2488 2561 2627
8 2513 2434 2512 2585 2565 2493 2564 2630
8 2586 2513 2565 2632 2515 2438 2494 2567
8 2565 2493 2566 2633 2494 2416 2495 2568
8 2567 2494 2568 2635 2496 2417 2497 2570
8 2568 2495 2569 2636 2497 2418 2498 2571
8 2570 2497 2571 2638 2499 2420 2500 2573
8 2571 2498 2572 2639 2500 2421 2501 2574
8 2573 2500 2574 2641 2502 2423 2503 2576
8 2574 2501 2575 2642 2503 2424 2504 2577
8 2576 2503 2577 2643 2505 2426 2506 2578
8 2597 2528 2579 2645 2529 2454 2508 2580
8 2580 2508 2579 2645 2525 2448 2522 2593
8 2581 2509 2455 2530 2646 2580 2529 2598
8 2581 2509 2580 2646 2526 2449 2525 2595
8 2583 2511 2582 2648 2513 2434 2512 2585
8 2583 2511 2439 2516 2648 2582 2517 2589
8 2649 2583 2513 2586 2588 2516 2438 2515
8 2589 2517 2444 2520 2653 2587 2521 2592
8 2518 2442 2520 2591 2588 2516 2589 2654
8 2593 2522 2590 2655 2523 2445 2521 2592
8 2524 2446 2523 2594 2591 2520 2592 2656
8 2595 2525 2593 2657 2527 2452 2523 2594
8 2602 2536 2596 2659 2534 2462 2528 2597
8 2600 2534 2597 2660 2532 2460 2529 2598
8 2600 2534 2460 2532 2661 2601 2533 2599
8 2604 2538 2601 2661 2537 2464 2533 2599
8 2602 2536 2462 2534 2663 2603 2535 2601
8 2601 2535 2465 2538 2663 2603 2539 2605
8 2607 2541 2605 2665 2540 2467 2538 2604
8 2608 2542 2606 2666 2541 2468 2539 2605
8 2543 2470 2544 2610 2607 2541 2608 2668
8 2544 2471 2545 2611 2608 2542 2609 2669
8 2546 2473 2547 2613 2610 2544 2611 2671
8 2547 2474 2548 2614 2611 2545 2612 2672
8 2549 2476 2550 2616 2613 2547 2614 2674
8 2550 2477 2551 2617 2614 2548 2615 2675
8 2552 2479 2553 2619 2616 2550 2617 2677
8 2553 2480 2554 2620 2617 2551 2618 2678
8 2557 2482 2556 2624 2619 2553 2620 2680
8 2556 2481 2555 2623 2620 2554 2621 2681
8 2559 2484 2558 2625 2623 2555 2622 2683
8 2560 2485 2559 2626 2624 2556 2623 2684
8 2562 2488 2561 2627 2626 2559 2625 2685
8 2690 2629 2564 2630 2650 2584 2512 2585
8 2586 2513 2585 2651 2632 2565 2630 2691
8 2630 2564 2631 2692 2565 2493 2566 2633
8 2632 2565 2633 2694 2567 2494 2568 2635
8 2633 2566 2634 2695 2568 2495 2569 2636
8 2635 2568 2636 2697 2570 2497 2571 2638
8 2636 2569 2637 2698 2571 2498 2572 2639
8 2638 2571 2639 2700 2573 2500 2574 2641
8 2639 2572 2640 2701 2574 2501 2575 2642
8 2641 2574 2642 2702 2576 2503 2577 2643
8 2597 2528 2596 2659 2645 2579 2644 2704
8 2645 2579 2644 2704 2593 2522 2590 2655
8 2660 2597 2645 2705 2598 2529 2580 2646
8 2646 2580 2645 2705 2595 2525 2593 2657
8 2650 2584 2512 2585 2707 2647 2582 2648
8 2648 2582 2517 2589 2707 2647 2587 2653
8 2649 2583 2648 2708 2586 2513 2585 2651
8 2649 2583 2516 2588 2708 2648 2589 2654
8 2655 2590 2652 2710 2592 2521 2587 2653
8 2654 2589 2520 2591 2711 2653 2592 2656
8 2657 2593 2655 2712 2594 2523 2592 2656
8 2602 2536 2603 2663 2659 2596 2658 2714
8 2662 2602 2659 2715 2600 2534 2597 2660
8 2662 2602 2534 2600 2717 2663 2601 2661
8 2661 2601 2538 2604 2717 2663 2605 2665
8 2666 2606 2664 2718 2605 2539 2603 2663
8 2668 2608 2666 2720 2607 2541 2605 2665
8 2608 2542 2609 2669 2666 2606 2667 2721
8 2610 2544 2611 2671 2668 2608 2669 2723
8 2611 2545 2612 2672 2669 2609 2670 2724
8 2613 2547 2614 2674 2671 2611 2672 2726
8 2614 2548 2615 2675 2672 2612 2673 2727
8 2616 2550 2617 2677 2674 2614 2675 2729
8 2617 2551 2618 2678 2675 2615 2676 2730
8 2619 2553 2620 2680 2677 2617 2678 2732
8 2620 2554 2621 2681 2678 2618 2679 2733
8 2624 2556 2623 2684 2680 2620 2681 2735
8 2681 2621 2555 2623 2736 2682 2622 2683
8 2626 2559 2625 2685 2684 2623 2683 2737
8 2688 2628 2584 2650 2740 2686 2647 2707
8 2688 2628 2687 2742 2650 2584 2629 2690
8 2690 2629 2689 2745 2630 2564 2631 2692
8 2746 2690 2630 2691 2709 2650 2585 2651
8 2691 2630 2692 2747 2632 2565 2633 2694
8 2692 2631 2693 2748 2633 2566 2634 2695
8 2694 2633 2695 2750 2635 2568 2636 2697
8 2695 2634 2696 2751 2636 2569 2637 2698
8 2697 2636 2698 2753 2638 2571 2639 2700
8 2698 2637 2699 2754 2639 2572 2640 2701
8 2700 2639 2701 2755 2641 2574 2642 2702
8 2659 2596 2658 2714 2704 2644 2703 2757
8 2704 2644 2703 2757 2655 2590 2652 2710
8 2660 2597 2659 2715 2705 2645 2704 2758
8 2705 2645 2704 2758 2657 2593 2655 2712
8 2759 2706 2647 2707 2710 2652 2587 2653
8 2709 2650 2585 2651 2760 2707 2648 2708
8 2708 2648 2589 2654 2760 2707 2653 2711
8 2712 2655 2710 2761 2656 2592 2653 2711
8 2763 2713 2658 2714 2718 2664 2603 2663
8 2662 2602 2663 2717 2715 2659 2714 2764
8 2720 2666 2718 2767 2665 2605 2663 2717
8 2768 2719 2664 2718 2721 2667 2606 2666
8 2668 2608 2669 2723 2720 2666 2721 2770
8 2669 2609 2670 2724 2721 2667 2722 2771
8 2671 2611 2672 2726 2723 2669 2724 2773
8 2672 2612 2673 2727 2724 2670 2725 2774
8 2674 2614 2675 2729 2726 2672 2727 2776
8 2675 2615 2676 2730 2727 2673 2728 2777
8 2677 2617 2678 2732 2729 2675 2730 2779
8 2678 2618 2679 2733 2730 2676 2731 2780
8 2680 2620 2681 2735 2732 2678 2733 2782
8 2733 2679 2621 2681 2783 2734 2682 2736
8 2735 2681 2623 2684 2784 2736 2683 2737
8 2740 2686 2647 2707 2787 2738 2706 2759
8 2688 2628 2686 2740 2742 2687 2739 2789
8 2743 2688 2650 2709 2790 2740 2707 2760
8 2742 2687 2741 2792 2690 2629 2689 2745
8 2743 2688 2742 2793 2709 2650 2690 2746
8 2745 2689 2744 2795 2692 2631 2693 2748
8 2746 2690 2745 2796 2691 2630 2692 2747
8 2747 2692 2748 2797 2694 2633 2695 2750
8 2748 2693 2749 2798 2695 2634 2696 2751
8 2750 2695 2751 2800 2697 2636 2698 2753
8 2751 2696 2752 2801 2698 2637 2699 2754
8 2753 2698 2754 2802 2700 2639 2701 2755
8 2763 2713 2756 2804 2714 2658 2703 2757
8 2759 2706 2652 2710 2804 2756 2703 2757
8 2715 2659 2714 2764 2758 2704 2757 2805
8 2758 2704 2757 2805 2712 2655 2710 2761
8 2806 2759 2707 2760 2761 2710 2653 2711
8 2765 2716 2762 2808 2718 2664 2713 2763
8 2809 2763 2714 2764 2767 2718 2663 2717
8 2765 2716 2664 2718 2811 2766 2719 2768
8 2813 2768 2718 2767 2770 2721 2666 2720
8 2814 2769 2719 2768 2771 2722 2667 2721
8 2723 2669 2724 2773 2770 2721 2771 2816
8 2724 2670 2725 2774 2771 2722 2772 2817
8 2726 2672 2727 2776 2773 2724 2774 2819
8 2727 2673 2728 2777 2774 2725 2775 2820
8 2729 2675 2730 2779 2776 2727 2777 2822
8 2730 2676 2731 2780 2777 2728 2778 2823
8 2732 2678 2733 2782 2779 2730 2780 2825
8 2780 2731 2679 2733 2826 2781 2734 2783
8 2782 2733 2681 2735 2827 2783 2736 2784
8 2830 2785 2738 2787 2804 2756 2706 2759
8 2789 2739 2686 2740 2832 2786 2738 2787
8 2790 2740 2707 2760 2833 2787 2759 2806
8 2742 2687 2739 2789 2792 2741 2788 2835
8 2743 2688 2740 2790 2793 2742 2789 2836
8 2792 2741 2791 2838 2745 2689 2744 2795
8 2793 2742 2792 2839 2746 2690 2745 2796
8 2795 2744 2794 2841 2748 2693 2749 2798
8 2796 2745 2795 2842 2747 2692 2748 2797
8 2797 2748 2798 2843 2750 2695 2751 2800
8 2798 2749 2799 2844 2751 2696 2752 2801
8 2800 2751 2801 2845 2753 2698 2754 2802
8 2808 2762 2803 2847 2763 2713 2756 2804
8 2809 2763 2804 2848 2764 2714 2757 2805
8 2806 2759 2710 2761 2848 2804 2757 2805
8 2765 2716 2766 2811 2808 2762 2807 2850
8 2810 2765 2808 2851 2767 2718 2763 2809
8 2810 2765 2718 2767 2852 2811 2768 2813
8 2811 2766 2719 2768 2853 2812 2769 2814
8 2855 2814 2768 2813 2816 2771 2721 2770
8 2856 2815 2769 2814 2817 2772 2722 2771
8 2773 2724 2774 2819 2816 2771 2817 2858
8 2774 2725 2775 2820 2817 2772 2818 2859
8 2776 2727 2777 2822 2819 2774 2820 2861
8 2777 2728 2778 2823 2820 2775 2821 2862
8 2779 2730 2780 2825 2822 2777 2823 2864
8 2823 2778 2731 2780 2865 2824 2781 2826
8 2825 2780 2733 2782 2866 2826 2783 2827
8 2869 2828 2785 2830 2847 2803 2756 2804
8 2871 2829 2786 2832 2830 2785 2738 2787
8 2872 2830 2787 2833 2848 2804 2759 2806
8 2789 2739 2786 2832 2835 2788 2831 2874
8 2836 2789 2740 2790 2875 2832 2787 2833
8 2792 2741 2788 2835 2838 2791 2834 2877
8 2793 2742 2789 2836 2839 2792 2835 2878
8 2838 2791 2837 2880 2795 2744 2794 2841
8 2839 2792 2838 2881 2796 2745 2795 2842
8 2841 2794 2840 2882 2798 2749 2799 2844
8 2842 2795 2841 2883 2797 2748 2798 2843
8 2843 2798 2844 2884 2800 2751 2801 2845
8 2886 2846 2803 2847 2850 2807 2762 2808
8 2851 2808 2847 2887 2809 2763 2804 2848
8 2850 2807 2766 2811 2889 2849 2812 2853
8 2810 2765 2811 2852 2851 2808 2850 2890
8 2852 2811 2768 2813 2891 2853 2814 2855
8 2853 2812 2769 2814 2892 2854 2815 2856
8 2894 2856 2814 2855 2858 2817 2771 2816
8 2817 2772 2818 2859 2856 2815 2857 2895
8 2819 2774 2820 2861 2858 2817 2859 2897
8 2820 2775 2821 2862 2859 2818 2860 2898
8 2822 2777 2823 2864 2861 2820 2862 2900
8 2823 2778 2824 2865 2862 2821 2863 2901
8 2864 2823 2780 2825 2902 2865 2826 2866
8 2904 2867 2828 2869 2886 2846 2803 2847
8 2869 2828 2868 2906 2830 2785 2829 2871
8 2907 2869 2830 2872 2887 2847 2804 2848
8 2871 2829 2870 2909 2832 2786 2831 2874
8 2910 2871 2832 2875 2872 2830 2787 2833
8 2835 2788 2831 2874 2877 2834 2873 2912
8 2836 2789 2832 2875 2878 2835 2874 2913
8 2877 2834 2876 2915 2838 2791 2837 2880
8 2839 2792 2835 2878 2881 2838 2877 2916
8 2880 2837 2879 2917 2841 2794 2840 2882
8 2881 2838 2880 2918 2842 2795 2841 2883
8 2883 2841 2882 2919 2843 2798 2844 2884
8 2921 2885 2846 2886 2889 2849 2807 2850
8 2922 2886 2847 2887 2890 2850 2808 2851
8 2889 2849 2812 2853 2924 2888 2854 2892
8 2890 2850 2811 2852 2925 2889 2853 2891
8 2891 2853 2814 2855 2926 2892 2856 2894
8 2892 2854 2815 2856 2927 2893 2857 2895
8 2858 2817 2859 2897 2894 2856 2895 2929
8 2859 2818 2860 2898 2895 2857 2896 2930
8 2861 2820 2862 2900 2897 2859 2898 2932
8 2862 2821 2863 2901 2898 2860 2899 2933
8 2864 2823 2865 2902 2900 2862 2901 2934
8 2904 2867 2846 2886 2936 2903 2885 2921
8 2904 2867 2903 2936 2869 2828 2868 2906
8 2937 2904 2869 2907 2922 2886 2847 2887
8 2906 2868 2905 2939 2871 2829 2870 2909
8 2907 2869 2906 2940 2872 2830 2871 2910
8 2909 2870 2908 2942 2874 2831 2873 2912
8 2910 2871 2909 2943 2875 2832 2874 2913
8 2912 2873 2911 2945 2877 2834 2876 2915
8 2878 2835 2874 2913 2916 2877 2912 2946
8 2915 2876 2914 2947 2880 2837 2879 2917
8 2916 2877 2915 2948 2881 2838 2880 2918
8 2918 2880 2917 2949 2883 2841 2882 2919
8 2921 2885 2849 2889 2951 2920 2888 2924
8 2952 2921 2886 2922 2925 2889 2850 2890
8 2924 2888 2854 2892 2954 2923 2893 2927
8 2925 2889 2853 2891 2955 2924 2892 2926
8 2926 2892 2856 2894 2956 2927 2895 2929
8 2895 2857 2896 2930 2927 2893 2928 2957
8 2897 2859 2898 2932 2929 2895 2930 2959
8 2898 2860 2899 2933 2930 2896 2931 2960
8 2900 2862 2901 2934 2932 2898 2933 2961
8 2936 2903 2885 2921 2963 2935 2920 2951
8 2936 2903 2935 2963 2906 2868 2905 2939
8 2937 2904 2886 2922 2964 2936 2921 2952
8 2937 2904 2936 2964 2907 2869 2906 2940
8 2939 2905 2938 2966 2909 2870 2908 2942
8 2940 2906 2939 2967 2910 2871 2909 2943
8 2942 2908 2941 2969 2912 2873 2911 2945
8 2943 2909 2942 2970 2913 2874 2912 2946
8 2945 2911 2944 2971 2915 2876 2914 2947
8 2946 2912 2945 2972 2916 2877 2915 2948
8 2948 2915 2947 2973 2918 2880 2917 2949
8 2951 2920 2888 2924 2975 2950 2923 2954
8 2952 2921 2889 2925 2976 2951 2924 2955
8 2927 2893 2928 2957 2954 2923 2953 2978
8 2955 2924 2892 2926 2979 2954 2927 2956
8 2929 2895 2930 2959 2956 2927 2957 2980
8 2930 2896 2931 2960 2957 2928 2958 2981
8 2932 2898 2933 2961 2959 2930 2960 2982
8 2951 2920 2950 2975 2963 2935 2962 2984
8 2963 2935 2962 2984 2939 2905 2938 2966
8 2964 2936 2921 2952 2985 2963 2951 2976
8 2964 2936 2963 2985 2940 2906 2939 2967
8 2966 2938 2965 2987 2942 2908 2941 2969
8 2967 2939 2966 2988 2943 2909 2942 2970
8 2969 2941 2968 2989 2945 2911 2944 2971
8 2970 2942 2969 2990 2946 2912 2945 2972
8 2972 2945 2971 2991 2948 2915 2947 2973
8 2954 2923 2953 2978 2975 2950 2974 2993
8 2976 2951 2924 2955 2994 2975 2954 2979
8 2957 2928 2958 2981 2978 2953 2977 2995
8 2956 2927 2957 2980 2979 2954 2978 2996
8 2959 2930 2960 2982 2980 2957 2981 2997
8 2984 2962 2983 2999 2966 2938 2965 2987
8 2975 2950 2974 2993 2984 2962 2983 2999
8 2976 2951 2975 2994 2985 2963 2984 3000
8 2985 2963 2984 3000 2967 2939 2966 2988
8 2987 2965 2986 3001 2969 2941 2968 2989
8 2988 2966 2987 3002 2970 2942 2969 2990
8 2990 2969 2989 3003 2972 2945 2971 2991
8 2978 2953 2977 2995 2993 2974 2992 3004
8 2979 2954 2978 2996 2994 2975 2993 3005
8 2980 2957 2981 2997 2996 2978 2995 3006
8 2974 2993 2999 2983 2992 3004 3007 2998
8 2983 2999 2987 2965 2998 3007 3001 2986
8 3000 2984 2999 3008 2988 2966 2987 3002
8 2994 2975 2993 3005 3000 2984 2999 3008
8 3002 2987 3001 3009 2990 2969 2989 3003
8 2996 2978 2995 3006 3005 2993 3004 3010
8 3005 2993 3004 3010 3008 2999 3007 3011
8 3008 2999 3007 3011 3002 2987 3001 3009

CELL_TYPES 1910
12
12
12
12
12
12
12
12
12
12
12
12
12
12
12
12
12
12
12
12
12
12
12
12
12
12
12
12
12
12
12
12
12
12
12
12
12
12
12
12
12
12
12
12
12
12
12
12
12
12
12
12
12
12
12
12
12
12
12
12
12
12
12
12
12
12
12
12
12
12
12
12
12
12
12
12
12
12
12
12
12
12
12
12
12
12
12
12
12
12
12
12
12
12
12
12
12
12
12
12
12
12
12
12
12
12
12
12
12
12
12
12
12
12
12
12
12
12
12
12
12
12
12
12
12
12
12
12
12
12
12
12
12
12
12
12
12
12
12
12
12
12
12
12
12
12
12
12
12
12
12
12
12
12
12
12
12
12
12
12
12
12
12
12
12
12
12
12
12
12
12
12
12
12
12
12
12
12
12
12
12
12
12
12
12
12
12
12
12
12
12
12
12
12
12
12
12
12
12
12
12
12
12
12
12
12
12
12
12
12
12
12
12
12
12
12
12
12
12
12
12
12
12
12
12
12
12
12
12
12
12
12
12
12
12
12
12
12
12
12
12
12
12
12
12
12
12
12
12
12
12
12
12
12
12
12
12
12
12
12
12
12
12
12
12
12
12
12
12
12
12
12
12
12
12
12
12
12
12
12
12
12
12
12
12
12
12
12
12
12
12
12
12
12
12
12
12
12
12
12
12
12
12
12
12
12
12
12
12
12
12
12
12
12
12
12
12
12
12
12
12
12
12
12
12
12
12
12
12
12
12
12
12
12
12
12
12
12
12
12
12
12
12
12
12
12
12
12
12
12
12
12
12
12
12
12
12
12
12
12
12
12
12
12
12
12
12
12
12
12
12
12
12
12
12
12
12
12
12
12
12
12
12
12
12
12
12
12
12
12
12
12
12
12
12
12
12
12
12
12
12
12
12
12
12
12
12
12
12
12
12
12
12
12
12
12
12
12
12
12
12
12
12
12
12
12
12
12
12
12
12
12
12
12
12
12
12
12
12
12
12
12
12
12
12
12
12
12
12
12
12
12
12
12
12
12
12
12
12
12
12
12
12
12
12
12
12
12
12
12
12
12
12
12
12
12
12
12
12
12
12
12
12
12
12
12
12
12
12
12
12
12
12
12
12
12
12
12
12
12
12
12
12
12
12
12
12
12
12
12
12
12
12
12
12
12
12
12
12
12
12
12
12
12
12
12
12
12
12
12
12
12
12
12
12
12
12
12
12
12
12
12
12
12
12
12
12
12
12
12
12
12
12
12
12
12
12
12
12
12
12
12
12
12
12
12
12
12
12
12
12
12
12
12
12
12
12
12
12
12
12
12
12
12
12
12
12
12
12
12
12
12
12
12
12
12
12
12
12
12
12
12
12
12
12
12
12
12
12
12
12
12
12
12
12
12
12
12
12
12
12
12
12
12
12
12
12
12
12
12
12
12
12
12
12
12
12
12
12
12
12
12
12
12
12
12
12
12
12
12
12
12
12
12
12
12
12
12
12
12
12
12
12
12
12
12
12
12
12
12
12
12
12
12
12
12
12
12
12
12
12
12
12
12
12
12
12
12
12
12
12
12
12
12
12
12
12
12
12
12
12
12
12
12
12
12
12
12
12
12
12
12
12
12
12
12
12
12
12
12
12
12
12
12
12
12
12
12
12
12
12
12
12
12
12
12
12
12
12
12
12
12
12
12
12
12
12
12
12
12
12
12
12
12
12
12
12
12
12
12
12
12
12
12
12
12
12
12
12
12
12
12
12
12
12
12
12
12
12
12
12
12
12
12
12
12
12
12
12
12
12
12
12
12
12
12
12
12
12
12
12
12
12
12
12
12
12
12
12
12
12
12
12
12
12
12
12
12
12
12
12
12
12
12
12
12
12
12
12
12
12
12
12
12
12
12
12
12
12
12
12
12
12
12
12
12
12
12
12
12
12
12
12
12
12
12
12
12
12
12
12
12
12
12
12
12
12
12
12
12
12
12
12
12
12
12
12
12
12
12
12
12
12
12
12
12
12
12
12
12
12
12
12
12
12
12
12
12
12
12
12
12
12
12
12
12
12
12
12
12
12
12
12
12
12
12
12
12
12
12
12
12
12
12
12
12
12
12
12
12
12
12
12
12
12
12
12
12
12
12
12
12
12
12
12
12
12
12
12
12
12
12
12
12
12
12
12
12
12
12
12
12
12
12
12
12
12
12
12
12
12
12
12
12
12
12
12
12
12
12
12
12
12
12
12
12
12
12
12
12
12
12
12
12
12
12
12
12
12
12
12
12
12
12
12
12
12
12
12
12
12
12
12
12
12
12
12
12
12
12
12
12
12
12
12
12
12
12
12
12
12
12
12
12
12
12
12
12
12
12
12
12
12
12
12
12
12
12
12
12
12
12
12
12
12
12
12
12
12
12
12
12
12
12
12
12
12
12
12
12
12
12
12
12
12
12
12
12
12
12
12
12
12
12
12
12
12
12
12
12
12
12
12
12
12
12
12
12
12
12
12
12
12
12
12
12
12
12
12
12
12
12
12
12
12
12
12
12
12
12
12
12
12
12
12
12
12
12
12
12
12
12
12
12
12
12
12
12
12
12
12
12
12
12
12
12
12
12
12
12
12
12
12
12
12
12
12
12
12
12
12
12
12
12
12
12
12
12
12
12
12
12
12
12
12
12
12
12
12
12
12
12
12
12
12
12
12
12
12
12
12
12
12
12
12
12
12
12
12
12
12
12
12
12
12
12
12
12
12
12
12
12
12
12
12
12
12
12
12
12
12
12
12
12
12
12
12
12
12
12
12
12
12
12
12
12
12
12
12
12
12
12
12
12
12
12
12
12
12
12
12
12
12
12
12
12
12
12
12
12
12
12
12
12
12
12
12
12
12
12
12
12
12
12
12
12
12
12
12
12
12
12
12
12
12
12
12
12
12
12
12
12
12
12
12
12
12
12
12
12
12
12
12
12
12
12
12
12
12
12
12
12
12
12
12
12
12
12
12
12
12
12
12
12
12
12
12
12
12
12
12
12
12
12
12
12
12
12
12
12
12
12
12
12
12
12
12
12
12
12
12
12
12
12
12
12
12
12
12
12
12
12
12
12
12
12
12
12
12
12
12
12
12
12
12
12
12
12
12
12
12
12
12
12
12
12
12
12
12
12
12
12
12
12
12
12
12
12
12
12
12
12
12
12
12
12
12
12
12
12
12
12
12
12
12
12
12
12
12
12
12
12
12
12
12
12
12
12
12
12
12
12
12
12
12
12
12
12
12
12
12
12
12
12
12
12
12
12
12
12
12
12
12
12
12
12
12
12
12
12
12
12
12
12
12
12
12
12
12
12
12
12
12
12
12
12
12
12
12
12
12
12
12
12
12
12
12
12
12
12
12
12
12
12
12
12
12
12
12
12
12
12
12
12
12
12
12
12
12
12
12
12
12
12
12
12
12
12
12
12
12
12
12
12
12
12
12
12
12
12
12
12
12
12
12
12
12
12
12
12
12
12
12
12
12
12
12
12
12
12
12
12
12
12
12
12
12
12
12
12
12
12
12
12
12
12
12
12
12
12
12
12
12
12
12
12
12
12
12
12
12
12
12
12
12
12
12
12
12
12
12
12
12
12
12
12
12
12
12
12
12
12
12
12
12
12
12
12
12
12
12
12
12
12
12
12
12
12
12
12
12
12
12
12
12
12
12
12
12
12
12
12
12
12
12
12
12
12
12
12
12
12
12
12
12
12
12
12
12
12
12
12
12
12
12
12
12
12
12
12
12
12
12
12
12
12
12
12
12
12
12
12
12
12
12
12
12
12
12
12
12
12
12
12
12
12
12
12
12
12
12
12
12
12
12
12
12
12
12
12
12
12
12
12
12
12
12
12
12
12
12
12
12
12
12
12
12
12
12
12
12
12
12
12
12
12
12
12
12
12
12
12
12
12
12
12
12
12
12
12
12
12
12
12
12
12
12
12
12
12
12
12
12
12
12
12
12
12
12
12
12
12
12
12
12
12
12
12
12
12
12
12
12
12
12
12
12
12
12
12
12
12
12
12
12
12
12
12
12
12
12
12
12
12
12
12
12
12
12
12
12
12
12
12
12
12
12
12
12
12
12
12
12
12
12
12
12
12
12
12
12
12
12
12
12
12
12
12
12
12
12
12
12
12
12
12
12
12
12
12
12
12
12
12
12
12
12
12
12
12
12
12
12
12
12
12
12
12
12
12
12
12
12
12
12
12
12
12
12
12
12
12
12
12
12
12
12
12
12
12
12
12
12
12
12
12
12
12
12
12
12
12
12
12
12
12
12
12
12
12
12
12
12
12
12
12
12
12
12
12

POINT_DATA 3012
SCALARS Jp_lamdaP float 4
LOOKUP_TABLE default
0.999404 1 1 0.999404
1 1 1 1
0.999422 1 1 0.999422
0.999346 1 1 0.999346
0.999406 1 1 0.999406
0.999372 1 1 0.999372
1.01396 1.01574 1 0.998253
1 1 1 1
1 1 1 1
1 1 1 1
0.999444 1 1 0.999444
1.01006 1.01185 1 0.998228
0.999402 1 1 0.999402
0.99938 1 1 0.99938
0.999431 1 1 0.999431
0.999386 1 1 0.999386
0.999383 1 1 0.999383
0.999435 1 1 0.999435
1.01388 1.01566 1 0.998249
1 1 1 1
0.999337 1 1 0.999337
0.99938 1 1 0.99938
1.00713 1.00898 1 0.998169
1.01232 1.0141 1 0.99825
0.999356 1 1 0.999356
1.01405 1.01584 1 0.998231
1.04398 1.04758 1 0.996561
1 1 1 1
0.999704 1 1 0.999704
0.999716 1 1 0.999716
1 1 1 1
1.00804 1.00982 1 0.998237
0.9994 1 1 0.9994
0.999429 1 1 0.999429
1.01371 1.01526 1 0.998477
1 1 1 1
1.01405 1.01554 1 0.998533
1.0034 1.00512 1 0.998283
1.03016 1.03385 1 0.996436
1 1 1 1
1 1 1 1
0.999693 1 1 0.999693
1 1 1 1
0.999404 1 1 0.999404
1.00107 1.00299 1 0.998089
1 1 1 1
1.0057 1.00731 1 0.998396
0.99942 1 1 0.99942
0.999457 1 1 0.999457
0.999387 1 1 0.999387
1.01387 1.01565 1 0.998251
0.999678 1 1 0.999678
0.999373 1 1 0.999373
0.999369 1 1 0.999369
0.999417 1 1 0.999417
1.00688 1.00874 1 0.998159
1.01407 1.01587 1 0.998229
1.01212 1.0139 1 0.998245
1.04451 1.04812 1 0.996555
1 1 1 1
0.999359 1 1 0.999359
1.00133 1.00284 1 0.998493
1.00493 1.00679 1 0.998158
1.00974 1.01155 1 0.998212
1.0431 1.04684 1 0.996427
1.04502 1.04869 1 0.996494
0.99938 1 1 0.99938
1.00626 1.00801 1 0.99827
1.04276 1.04634 1 0.996585
1.06414 1.06869 1 0.995741
1 1 1 1
1 1 1 1
1 1 1 1
1.00618 1.00795 1 0.998244
1 1 1 1
1 1 1 1
1.01377 1.01563 1 0.998166
0.999776 1 1 0.999776
1.01301 1.01479 1 0.998241
1.00207 1.00346 1.00012 0.998502
1.03279 1.03649 1 0.996431
1 1 1 1
1.00397 1 1.00463 0.99934
1.01139 1.01333 1 0.998079
1.01434 1.01618 1 0.998187
1.05114 1.05521 1 0.996142
1.00043 1.00059 1.00094 0.998895
1.04144 1.04522 1 0.996378
1.02349 1.02684 1.00014 0.996598
1.0543 1.05887 1 0.995689
1 1 1 1
1 1 1 1
1 1 1 1
1 1 1 1
1 1 1 1
0.999703 1 1 0.999703
1.00172 1.00345 1 0.998278
0.99969 1 1 0.99969
1.00663 1.0084 1 0.998239
1 1 1 1
1.00021 1.00208 1 0.998138
1.00312 1.00471 1 0.998416
1.04151 1.04553 1 0.99615
1.00909 1.01068 1 0.998424
1.04788 1.05195 1 0.996125
0.999428 1 1 0.999428
0.999405 1 1 0.999405
0.999378 1 1 0.999378
0.999448 1 1 0.999448
1.00662 1.00849 1 0.998151
1.01193 1.01371 1 0.998244
1.01384 1.01564 1 0.998232
1.04528 1.04891 1 0.996548
1 1 1 1
0.999391 1 1 0.999391
1.00092 1.00274 1 0.998185
1.00457 1.00644 1 0.998145
0.999696 1 1 0.999696
1.00773 1.00937 1 0.998378
1.00953 1.01134 1 0.998206
1.04336 1.04711 1 0.996417
1.04216 1.04574 1 0.996577
1.04582 1.04949 1 0.996504
1.06369 1.06823 1 0.995751
1.00042 1.00226 1 0.998162
1.00285 1.00468 1 0.998183
1.03779 1.04145 1 0.996487
1.04034 1.04407 1 0.996427
1.04558 1.04931 1 0.99645
1.07834 1.08307 0.999691 0.99594
1 1 1 1
1.06891 1.07341 1 0.995812
1.00043 1.0016 1.00048 0.998357
1.03319 1.03688 1 0.996444
1.06036 1.06498 1 0.995667
1.06734 1.07176 1 0.995871
1.00253 1 1.00365 0.998879
1.00806 1.00046 1.01015 0.997473
1 1 1 1
1 1 1 1
1.01407 1.01593 1 0.998169
1 1 1 1
1.00083 1.00191 1.00054 0.998385
1.01233 1.01411 1 0.998248
1.03485 1.03857 1 0.996426
1 1 1 1
1.00419 1 1.00483 0.999365
1.01224 1.014 1 0.998264
1.0145 1.01617 1 0.998358
1.05009 1.05416 1 0.996139
1.00074 1.00042 1.00161 0.99872
1.04135 1.04513 1 0.996378
1.02278 1.02613 1.00014 0.996594
1.05411 1.05866 1 0.995701
1.00211 1 1.00307 0.999036
1.00484 1 1.00527 0.999575
1.01005 1.00196 1.01019 0.997899
1.05112 1.05525 1 0.996088
1.04846 1.0524 1 0.996257
1.07323 1.07784 1 0.995723
1.01672 1.01826 1.00153 0.996969
1.05892 1.06338 1 0.995812
1.04211 1.04602 1.00057 0.995701
1.0619 1.06651 1 0.995681
1 1 1 1
1 1 1 1
1 1 1 1
1.00322 1 1.00412 0.999107
1 1 1 1
1 1 1 1
1 1 1 1
1.00734 1.00927 1 0.998088
1.002 1.00388 1 0.99813
1 1 1 1
1 1 1 1
1.00041 1.00227 1 0.998139
1.00366 1.00541 1 0.998262
1.04132 1.04535 1 0.996151
1.0095 1.01144 1 0.998082
1.04632 1.0504 1 0.996123
0.999988 1.00185 1 0.998145
1.03899 1.04302 1 0.996134
1.04457 1.04861 1 0.996154
1.07882 1.08478 0.998406 0.996097
1.04945 1.05357 1 0.996091
1.07946 1.08521 0.998669 0.996019
1 1 1 1
0.999425 1 1 0.999425
1.00045 1.00262 1 0.997839
1.00424 1.00612 1 0.998133
1 1 1 1
1.00948 1.01101 1 0.99849
1.00932 1.01114 1 0.998202
1.04354 1.0473 1 0.996408
1.04676 1.05042 1 0.996515
1.04124 1.04482 1 0.99657
1.06278 1.06731 1 0.995762
1.00024 1.00209 1 0.99816
1.00257 1.00441 1 0.99817
1.03839 1.04221 1 0.996336
1.04112 1.04486 1 0.996421
1 1 1 1
1.0024 1.00367 1.00025 0.998489
1.03213 1.03566 1.00003 0.99656
1.04601 1.04975 1 0.99644
1.07732 1.08261 0.999139 0.995968
1.0603 1.06491 1 0.995668
1.06891 1.07338 1 0.995838
1.0669 1.07132 1 0.99588
1.00216 1 1.0033 0.998866
1.00798 1.00133 1.0092 0.997471
1.03742 1.04142 1 0.996153
1.03876 1.04244 1 0.996468
1.07794 1.0834 0.998886 0.996073
1.07712 1.08358 0.998008 0.996029
1.07312 1.07853 0.999037 0.995946
1.07417 1.08371 0.99493 0.996244
1.00072 1.00011 1.002 0.998613
1.06934 1.07433 0.999281 0.996076
1.0218 1.02512 1.00011 0.996649
1.0565 1.06115 1 0.995619
1.06665 1.07131 1 0.995648
1.06464 1.06996 0.998794 0.996228
1.00647 1.00362 1.00573 0.997118
1.00865 1.00013 1.01066 0.997883
1.00819 1.00553 1.00598 0.996678
1.01274 1.01465 1 0.998117
1 1 1 1
1.00404 1 1.00465 0.999389
1.01427 1.01607 1 0.998225
1.04921 1.05328 1 0.996136
1.00074 1.00007 1.00196 0.998716
1.02323 1.02668 1.00004 0.99659
1.04103 1.04481 1 0.996377
1.05519 1.05973 1 0.995713
1.00254 1 1.00349 0.999061
1.00388 1 1.00429 0.999594
1.00915 1.00083 1.01044 0.997899
1.05025 1.05438 1 0.996083
1.04724 1.05117 1 0.996257
1.07339 1.078 1 0.995717
1.01328 1.0151 1.00123 0.996972
1.05985 1.06432 1 0.995805
1.04714 1.05113 1.00052 0.995688
1.06298 1.06756 1 0.995703
1.00241 1 1.00268 0.999726
1.0106 1.00749 1.00569 0.997404
1.01087 1 1.01253 0.998363
1.01176 1.00761 1.00689 0.997248
1.07782 1.0826 0.999799 0.995788
1.06656 1.07111 1 0.995748
1.07277 1.07814 0.999138 0.995876
1.02799 1.0307 1.00134 0.996038
1.06125 1.06558 1 0.995934
1.05575 1.05884 1.00158 0.995505
1.07573 1.08032 1 0.995746
1.00094 1 1.00164 0.999302
0.999943 1 1.00006 0.999882
1 1 1 1
1 1 1 1
1 1 1 1
1.00376 1 1.00444 0.999329
1 1 1 1
1.00338 1 1.0043 0.999086
1 1 1 1
1.01041 1.01235 1 0.998083
1.00434 1.00624 1 0.998112
1.04527 1.04934 1 0.996122
1.0412 1.04522 1 0.996152
1.00063 1.0025 1 0.998141
1 1 1 1
1.00004 1.0019 1 0.998144
1.03909 1.04312 1 0.996135
1.04406 1.04809 1 0.996153
1.07861 1.08457 0.998403 0.996096
1.04869 1.05281 1 0.996086
1.08054 1.08618 0.998784 0.996016
1.03753 1.04156 1 0.996136
1.07819 1.084 0.998552 0.996078
1.07952 1.08536 0.998524 0.996082
1.07077 1.08157 0.993523 0.996469
1.07991 1.08528 0.999134 0.995908
1.07362 1.08584 0.992375 0.99634
1.00015 1.00199 1 0.998158
1.00229 1.00414 1 0.998157
1.03903 1.043 1 0.996186
1.04196 1.04571 1 0.996414
1 1 1 1
1.00419 1.00553 1.00004 0.998626
1.03128 1.03471 1.00001 0.996674
1.04643 1.05018 1 0.996431
1.07638 1.08228 0.998554 0.995996
1.06872 1.07316 1 0.995864
1.06111 1.06573 1 0.99567
1.06678 1.07118 1 0.995889
1.00195 1 1.0031 0.998853
1.00849 1.0023 1.00873 0.997468
1.03762 1.04162 1 0.996163
1.03942 1.04311 1 0.996461
1.07719 1.08301 0.998522 0.996103
1.07766 1.08356 0.998547 0.995998
1.00059 1.00043 1.00156 0.998601
1.02202 1.02526 1.00019 0.99665
1.05778 1.06242 1 0.995633
1.07356 1.0785 0.999498 0.995916
1.07336 1.0837 0.994136 0.9963
1.06602 1.07067 1 0.995655
1.06932 1.07438 0.99921 0.996079
1.06499 1.07029 0.998829 0.996214
1.00833 1.0056 1.00561 0.997116
1.00933 1.00594 1.00672 0.996673
1.0096 1.00021 1.01153 0.997885
1.07779 1.08323 0.99891 0.996061
1.07791 1.08417 0.998129 0.996092
1.07109 1.08072 0.994681 0.996395
1.0729 1.08494 0.99254 0.996333
1.0698 1.07801 0.996133 0.996235
1.06399 1.08018 0.988364 0.996605
1.00903 1.01121 1.00096 0.996891
1.06236 1.07356 0.993126 0.996418
1.04661 1.05103 1 0.995795
1.06038 1.06533 1 0.995361
1.06152 1.06603 1 0.99577
1.0565 1.0657 0.994847 0.996504
1.01242 1.00061 1.01364 0.998191
1.01275 1.0139 1.00248 0.996397
1.00933 1.00111 1.01124 0.997011
1.01417 1.01247 1.00542 0.996274
1.04944 1.05358 1 0.996077
1.00336 1 1.00375 0.999612
1.00305 1 1.00397 0.999086
1.01 1.00012 1.01201 0.997897
1.04623 1.05016 1 0.996258
1.07343 1.07806 1 0.995711
1.00807 1.01017 1.00095 0.996975
1.04843 1.05264 1.00033 0.995674
1.06086 1.06534 1 0.995798
1.06205 1.06661 1 0.995725
1.00178 1 1.00204 0.99974
1.00816 1.00473 1.00602 0.997414
1.01207 1.00009 1.01364 0.998365
1.0103 1.0058 1.00724 0.997247
1.07743 1.08214 0.999872 0.995782
1.06712 1.07169 1 0.995744
1.07236 1.07767 0.999189 0.995874
1.02568 1.02854 1.00118 0.996039
1.06055 1.06491 1 0.995908
1.0522 1.05514 1.00173 0.995491
1.07515 1.07963 1 0.99585
1.00017 1 1.00035 0.999818
1.00832 1 1.00962 0.998713
1.01389 1.01459 1.00265 0.996671
1.01603 1.00361 1.0148 0.997611
1.00939 1.00931 1.00307 0.997027
1.0738 1.08236 0.996065 0.996012
1.06712 1.07155 1 0.995862
1.06417 1.0736 0.995126 0.996071
1.02604 1.02842 1.00203 0.995664
1.06437 1.06878 0.999851 0.996018
1.04456 1.04847 1.00086 0.995414
1.00154 1 1.00237 0.999168
1.00436 1 1.00579 0.998579
0.999441 1 1.00003 0.999416
1.00009 1 1.00078 0.999305
0.999928 1 1 0.999928
0.999925 1 1.00003 0.999891
0.999999 1 1 0.999999
1 1 1 1
1 1 1 1
1.00255 1 1.00297 0.99958
1 1 1 1
1.00387 1 1.00456 0.999311
1 1 1 1
1.00306 1 1.004 0.999065
1 1 1 1
1.04761 1.05173 1 0.99608
1.04324 1.04727 1 0.996152
1.08118 1.0867 0.998901 0.996013
1.07832 1.08429 0.998398 0.996094
1.03917 1.0432 1 0.996136
1 1.00187 1 0.998143
1.03769 1.04171 1 0.996136
1.07783 1.08365 0.998545 0.996078
1.07965 1.08547 0.998547 0.99608
1.07028 1.08173 0.992908 0.996486
1.07968 1.08491 0.999273 0.995903
1.07349 1.08567 0.992417 0.996339
1.07762 1.08327 0.998717 0.996066
1.06974 1.08119 0.992891 0.996493
1.07227 1.08347 0.993205 0.99643
1.06844 1.08304 0.989795 0.99669
1.07248 1.08461 0.992593 0.996192
1.0685 1.08725 0.98604 0.996667
1.03771 1.04171 0.999995 0.996174
1.04011 1.04381 1 0.996454
1.07645 1.08262 0.998158 0.996133
1.07808 1.08344 0.999078 0.995967
1.00055 1.00083 1.00113 0.99859
1.02282 1.026 1.00025 0.996652
1.05979 1.06442 1 0.995647
1.07402 1.07846 1 0.995886
1.07256 1.08363 0.993399 0.996355
1.06933 1.07446 0.999133 0.996081
1.06501 1.06965 1 0.995662
1.06521 1.07049 0.998859 0.996199
1.01048 1.00796 1.0054 0.997114
1.00909 1.0059 1.00653 0.996668
1.00989 1.00039 1.01164 0.997887
1.07737 1.0828 0.998911 0.996068
1.07716 1.08373 0.997844 0.99609
1.07064 1.08103 0.993923 0.996441
1.07311 1.08456 0.993109 0.996306
1.01349 1.01539 1.00124 0.996892
1.04565 1.05006 1 0.995798
1.06032 1.06521 1.00003 0.995377
1.07048 1.07805 0.996782 0.996183
1.06366 1.08055 0.987681 0.996651
1.06223 1.06679 1 0.99573
1.06284 1.07402 0.993145 0.996418
1.05727 1.06625 0.995021 0.996543
1.01334 1.01466 1.00231 0.996398
1.01169 1.01044 1.00504 0.99622
1.01048 1.00048 1.01182 0.998193
1.00882 1.0008 1.01099 0.997059
1.07045 1.08058 0.994156 0.996446
1.07342 1.08446 0.99343 0.996363
1.06321 1.07817 0.989482 0.996607
1.06165 1.08171 0.984723 0.996684
1.06195 1.07769 0.988785 0.996573
1.06452 1.08442 0.984782 0.996817
1.02692 1.03066 1.00029 0.996079
1.05412 1.07194 0.986557 0.996781
1.04484 1.04962 1 0.995448
1.05542 1.06027 1.00018 0.995246
1.05967 1.06418 0.999958 0.995804
1.0605 1.07055 0.994013 0.996571
1.00911 1.0008 1.00985 0.998475
1.01484 1.0038 1.01376 0.997276
1.01866 1.02135 1.00137 0.995997
1.00931 1.00508 1.00754 0.996693
1.01396 1.00962 1.00829 0.996045
1.00087 1 1.00112 0.999754
1.07703 1.08166 0.999943 0.995775
1.01164 1.00021 1.01308 0.998366
1.00637 1.0024 1.00655 0.997425
1.00835 1.00388 1.00723 0.997246
1.06764 1.07221 1 0.995741
1.07194 1.0772 0.999241 0.995873
1.02737 1.03083 1.0006 0.996039
1.05201 1.05475 1.00193 0.995478
1.06009 1.06447 1 0.995881
1.07538 1.07975 1 0.995954
0.999957 1 1.00013 0.999828
1.00852 1 1.00981 0.998724
1.01191 1.01338 1.00187 0.996682
1.0161 1.00313 1.01537 0.997601
1.00984 1.00953 1.00338 0.996939
1.07395 1.08245 0.996125 0.996008
1.06666 1.0711 0.999995 0.995861
1.06355 1.0731 0.995022 0.996061
1.02708 1.02929 1.00221 0.995661
1.0684 1.07283 0.999872 0.995993
1.04475 1.0485 1.00096 0.99546
1.00335 1 1.00437 0.998983
1.01399 1.00099 1.01505 0.997969
1.00688 1.00989 1.00076 0.996268
1.01996 1.01004 1.01261 0.997242
1.01626 1.01723 1.00229 0.996763
1.06727 1.08249 0.989652 0.996251
1.06222 1.06713 0.999379 0.996014
1.05629 1.06853 0.992233 0.996291
1.00689 1.00753 1.00379 0.995598
1.0411 1.04581 1 0.995491
1.00163 1 1.00246 0.99917
1.00295 1 1.0045 0.998458
1.00469 1 1.00614 0.998557
1.00428 1 1.00595 0.998336
1.00199 1 1.00331 0.99868
0.999484 1 1 0.999484
0.999661 1 1.00024 0.999419
0.99996 1 1 0.99996
1.00014 1 1.00083 0.999307
0.999937 1 1 0.999937
1 1 1 1
0.9999 1 1 0.9999
0.999999 1 1 0.999999
1 1 1 1
1.00103 1 1.00122 0.99981
1.00367 1 1.00411 0.999562
1 1 1 1
1 1 1 1
1.00444 1 1.00515 0.999293
1 1 1 1
1.07967 1.08476 0.999414 0.995899
1.0801 1.08591 0.998566 0.996078
1.07349 1.08562 0.992455 0.996339
1.06988 1.08198 0.992286 0.996502
1.07744 1.08326 0.998538 0.996079
1.03796 1.04198 1 0.996136
1.07735 1.08297 0.998735 0.996066
1.06994 1.0811 0.993162 0.996488
1.07244 1.08368 0.993173 0.996431
1.06752 1.08287 0.989076 0.996718
1.07303 1.08528 0.992501 0.996188
1.06853 1.08728 0.986013 0.996689
1.07003 1.08101 0.993352 0.996464
1.0667 1.08264 0.988565 0.996672
1.06911 1.0849 0.988667 0.996747
1.06986 1.09018 0.984472 0.996834
1.06782 1.08633 0.98642 0.996495
1.07234 1.09407 0.983198 0.996885
1.07696 1.08238 0.998915 0.996075
1.07642 1.08326 0.99758 0.996089
1.07014 1.08131 0.993152 0.996487
1.07335 1.0842 0.993687 0.99628
1.01659 1.01811 1.00162 0.996893
1.0423 1.04669 1 0.9958
1.05973 1.06444 1.00018 0.995393
1.07108 1.07807 0.997373 0.996131
1.06336 1.08091 0.987028 0.996698
1.06343 1.0746 0.99317 0.996418
1.06294 1.06754 1 0.995691
1.05784 1.06666 0.995126 0.996582
1.01521 1.01552 1.00331 0.996399
1.0103 1.00858 1.00555 0.996167
1.00971 1.00032 1.01121 0.998194
1.00844 1.0008 1.01056 0.997106
1.07069 1.08083 0.994155 0.996445
1.07308 1.08411 0.993462 0.996347
1.06294 1.07811 0.989256 0.996636
1.06286 1.08197 0.985622 0.996667
1.02667 1.02947 1.00121 0.996075
1.04364 1.04835 1.00003 0.995476
1.05477 1.05941 1.00039 0.995233
1.06284 1.0779 0.989473 0.996523
1.06251 1.0832 0.983984 0.996872
1.05767 1.06218 0.999963 0.99579
1.05514 1.07301 0.986526 0.996781
1.05935 1.06967 0.993693 0.996643
1.01686 1.01913 1.00177 0.996003
1.01215 1.00904 1.00708 0.996028
1.01028 1.00407 1.00952 0.996692
1.00929 1.00046 1.01038 0.998456
1.01336 1.00169 1.01438 0.997314
1.06528 1.08124 0.988553 0.996652
1.06563 1.08394 0.986402 0.996662
1.06197 1.08869 0.978536 0.996857
1.0574 1.07979 0.982333 0.996872
1.02652 1.03091 1 0.995746
1.05695 1.07683 0.984547 0.99695
1.02837 1.03299 1.00029 0.995234
1.04631 1.05092 1.00051 0.995103
1.0562 1.06189 0.998825 0.995812
1.0049 1 1.00605 0.99886
1.01347 1 1.0158 0.997704
1.01367 1.00593 1.01075 0.996985
1.01283 1.01418 1.00279 0.995884
1.01559 1.00549 1.01389 0.996209
1.01263 1.00854 1.0082 0.995887
0.999906 1 1.00007 0.999838
1.00912 1 1.0104 0.998735
1.07407 1.0825 0.99619 0.996004
1.01704 1.0024 1.01705 0.997592
1.0087 1.01035 1.00168 0.996694
1.01086 1.0103 1.00372 0.996852
1.06602 1.07047 0.999986 0.995861
1.06314 1.0728 0.994923 0.99605
1.02626 1.02823 1.00243 0.995658
1.04383 1.04773 1.00077 0.995506
1.07275 1.07721 0.999894 0.995967
1.00289 1 1.00391 0.998989
1.01468 1.00041 1.01633 0.997973
1.01042 1.01339 1.00087 0.996207
1.02036 1.00891 1.01414 0.997244
1.01695 1.01811 1.00212 0.996742
1.06596 1.08111 0.989699 0.996246
1.06488 1.06977 0.999428 0.996
1.05921 1.0713 0.992375 0.996311
1.00945 1.01066 1.00324 0.995575
1.03893 1.04362 1.00006 0.995454
1.00668 1 1.00839 0.998306
1.01824 1.00159 1.01911 0.997548
1.0062 1.00786 1.00227 0.996097
1.02638 1.01864 1.01073 0.996903
1.03352 1.03599 1.00107 0.996559
1.05675 1.08101 0.980765 0.996737
1.06596 1.07232 0.99822 0.995843
1.06619 1.07659 0.994086 0.996239
1.0121 1.01222 1.00433 0.995571
1.01846 1.02334 1 0.995233
1.00107 1 1.0019 0.999172
1.00241 1 1.00395 0.998467
0.999698 1 1.00136 0.99834
1.00278 1 1.00425 0.998534
1.00125 1 1.00258 0.998677
1.00542 1 1.00711 0.998326
1.00101 1 1.00263 0.998376
1.00522 1 1.00697 0.998267
0.999627 1 1.00087 0.998753
0.999484 1 1 0.999484
0.999484 1 1 0.999484
0.999981 1 1 0.999981
0.999423 1 1 0.999423
0.999967 1 1 0.999967
1 1 1 1
0.999947 1 1 0.999947
1 1 1 1
1 1 1 1
0.999935 1 1 0.999935
1.00135 1 1.00157 0.999783
1 1 1 1
1.00393 1 1.00439 0.999545
1 1 1 1
1 1 1 1
1.07356 1.08592 0.992404 0.996184
1.07243 1.0837 0.993147 0.996432
1.06856 1.08733 0.985982 0.996712
1.06656 1.08266 0.988341 0.996745
1.07018 1.08103 0.993453 0.996483
1.07704 1.08264 0.998755 0.996067
1.07032 1.08105 0.993607 0.996447
1.06724 1.08261 0.989101 0.996665
1.06852 1.08422 0.988757 0.996733
1.06794 1.08922 0.983573 0.996844
1.06793 1.08621 0.986623 0.996497
1.0694 1.09224 0.982119 0.99692
1.06793 1.08286 0.989534 0.996644
1.07018 1.09197 0.983148 0.996837
1.0704 1.09334 0.982045 0.996919
1.06358 1.09217 0.976825 0.996925
1.07098 1.08112 0.994154 0.996445
1.07277 1.08379 0.993481 0.996331
1.06278 1.07815 0.989043 0.996666
1.06409 1.0823 0.986482 0.99665
1.02777 1.03055 1.00123 0.996071
1.04302 1.04773 1 0.995504
1.05407 1.05852 1.00058 0.99522
1.06361 1.078 0.990142 0.996474
1.06048 1.08198 0.983147 0.996927
1.05599 1.07386 0.986532 0.99678
1.05613 1.06061 1 0.995776
1.05958 1.06977 0.993741 0.996716
1.01242 1.01445 1.00201 0.996009
1.01081 1.00899 1.00581 0.996011
1.01208 1.00356 1.01185 0.99669
1.00797 1.00016 1.00938 0.998439
1.0123 1.00011 1.01487 0.997353
1.0651 1.08102 0.988577 0.996653
1.06632 1.08458 0.986456 0.996658
1.06279 1.08808 0.979837 0.99685
1.02638 1.03072 1.00004 0.995745
1.02836 1.03299 1.00026 0.995267
1.04492 1.04927 1.00076 0.995092
1.05764 1.07958 0.982766 0.996859
1.05885 1.06502 0.998252 0.995942
1.05374 1.07382 0.984337 0.996917
1.00489 1 1.00598 0.998923
1.01115 1.01147 1.00383 0.995881
1.01235 1.00652 1.00984 0.995983
1.01805 1.00778 1.01405 0.996199
1.01572 1.00768 1.011 0.997012
1.01507 1.00114 1.01629 0.99767
1.06885 1.08986 0.983946 0.996721
1.0668 1.09541 0.977003 0.996807
1.05587 1.08725 0.974134 0.996926
1.04914 1.08044 0.973886 0.997061
1.01424 1.01843 1.00027 0.995605
1.04965 1.06346 0.990475 0.996504
1.01474 1.01827 1.00165 0.994898
1.03347 1.0376 1.00104 0.994974
1.0004 1 1.00107 0.999331
1.01096 1 1.01279 0.9982
1.01471 1.00462 1.01274 0.997338
1.02074 1.00718 1.01708 0.996448
1.00807 1.00576 1.00646 0.995865
1.01916 1.00682 1.01663 0.995691
1.00249 1 1.0035 0.998994
1.0146 1 1.01666 0.997977
1.06469 1.07978 0.989746 0.996242
1.01962 1.00738 1.01495 0.997245
1.01385 1.01705 1.00071 0.996146
1.0163 1.0178 1.00181 0.996719
1.06765 1.07251 0.999475 0.995986
1.06176 1.07381 0.992419 0.996332
1.01248 1.01423 1.00273 0.995553
1.03658 1.04107 1.00027 0.995418
1.00663 1.00002 1.00831 0.998312
1.01835 1.00113 1.01973 0.99751
1.0065 1.00817 1.00226 0.996096
1.02504 1.01854 1.00951 0.996903
1.0373 1.04034 1.00048 0.996597
1.05938 1.08342 0.98096 0.996784
1.06584 1.07215 0.998222 0.995891
1.0671 1.07682 0.994627 0.996325
1.0139 1.0138 1.00458 0.995536
1.01777 1.02272 1.00003 0.995136
1.0056 1 1.00756 0.998053
1.01692 1.00193 1.0178 0.99721
1.02091 1.02103 1.00378 0.996113
1.03154 1.03223 1.00287 0.99647
1.0586 1.10573 0.960236 0.997021
1.05814 1.07819 0.984576 0.996779
1.0484 1.0536 0.999673 0.995393
1.02362 1.02424 1.00426 0.995163
1.00233 1 1.00386 0.998475
1.00054 1 1.00221 0.99833
0.999873 1 1.00136 0.998513
1.00201 1 1.00334 0.998674
1.00748 1 1.00918 0.998317
0.999716 1 1.00097 0.998748
1.00082 1 1.00241 0.998408
1.00679 1 1.00853 0.998278
0.99929 1 1.00066 0.998629
1.00611 1 1.00795 0.998168
1.00292 1 1.0047 0.998229
0.999079 1 1.00036 0.99872
0.999439 1 1 0.999439
0.999481 1 1 0.999481
0.99999 1 1 0.99999
0.999484 1 1 0.999484
0.999984 1 1 0.999984
1 1 1 1
0.999973 1 1 0.999973
1 1 1 1
1 1 1 1
0.999977 1 1 0.999977
1.00044 1 1.00053 0.999913
1 1 1 1
1.00266 1 1.00291 0.999756
1 1 1 1
1 1 1 1
1.06795 1.08601 0.986821 0.9965
1.06801 1.08361 0.988848 0.996719
1.06653 1.09045 0.981058 0.996955
1.06611 1.08834 0.982674 0.996853
1.06777 1.08257 0.989636 0.996658
1.07059 1.08107 0.993849 0.99643
1.06748 1.0826 0.989346 0.996645
1.06971 1.09141 0.983237 0.996827
1.06918 1.09253 0.98166 0.996914
1.06358 1.09203 0.976943 0.996937
1.07149 1.09218 0.984218 0.996783
1.06882 1.09792 0.976442 0.996982
1.07139 1.1037 0.973638 0.997009
1.06484 1.08074 0.988589 0.996655
1.06693 1.08513 0.986527 0.996655
1.0636 1.08746 0.981151 0.996843
1.02782 1.03209 1.00012 0.995745
1.02759 1.03226 1.00018 0.995298
1.04358 1.04785 1.00085 0.99508
1.05799 1.07954 0.983133 0.996846
1.04992 1.07064 0.983721 0.996883
1.06073 1.06751 0.997569 0.996072
1.00959 1.0089 1.00483 0.995878
1.00807 1.00345 1.00856 0.996081
1.01966 1.00974 1.01369 0.99619
1.00491 1 1.00593 0.998986
1.0152 1.0079 1.01023 0.997037
1.01726 1.00231 1.01733 0.997634
1.06982 1.09041 0.984327 0.99673
1.06576 1.09535 0.976104 0.99681
1.05631 1.08719 0.974604 0.996919
1.01324 1.01762 1.00009 0.995596
1.0141 1.01779 1.0014 0.994977
1.0345 1.03888 1.0007 0.995087
1.05007 1.08069 0.974528 0.997062
1.04544 1.0598 0.989936 0.996479
1.00046 1 1.00104 0.999415
1.01054 1 1.01237 0.998196
1.00466 1.00425 1.00454 0.995893
1.0218 1.00644 1.01946 0.995884
1.02041 1.00808 1.01579 0.996489
1.01502 1.00548 1.01223 0.997294
1.06789 1.09774 0.975834 0.996899
1.057 1.10067 0.963328 0.996884
1.05114 1.08749 0.969383 0.997105
1.03507 1.06404 0.975651 0.997048
1.00245 1.00569 1.00133 0.995452
1.03162 1.0382 0.998118 0.995542
1.01273 1.01538 1.00264 0.99477
0.999666 1 1 0.999666
0.99906 1 1 0.99906
1.00378 1 1.00512 0.998662
1.00859 1 1.01099 0.997626
1.01118 1 1.0143 0.996928
1.03262 1.01095 1.02541 0.996124
1.00467 1.00194 1.00656 0.996182
1.0457 1.00506 1.04417 0.996433
1.00678 1 1.00848 0.998318
1.01962 1.00101 1.02117 0.997472
1.06232 1.08606 0.981251 0.996831
1.02555 1.02036 1.00821 0.996903
1.00683 1.00815 1.0026 0.996096
1.04051 1.04398 1.00004 0.996636
1.06574 1.07199 0.998224 0.995939
1.0682 1.0772 0.99522 0.996411
1.01515 1.01485 1.00482 0.995501
1.01679 1.02186 1 0.99504
1.00667 1 1.0087 0.997992
1.01581 1.00138 1.01728 0.99718
1.02638 1.02612 1.00415 0.996119
1.02964 1.03105 1.00214 0.996503
1.06003 1.10798 0.959558 0.99704
1.06302 1.08183 0.985846 0.996723
1.04472 1.05004 0.999474 0.995455
1.0252 1.02636 1.00377 0.995114
1.00604 0.999872 1.00824 0.997948
1.07102 1.11692 0.961733 0.997056
1.0098 1.00204 1.01097 0.996808
1.02647 1.02794 1.00268 0.995906
1.03926 1.0886 0.957378 0.997177
1.03786 1.04529 0.99735 0.995531
1.01634 1.01829 1.00323 0.994872
1.00189 1 1.00357 0.998321
0.998653 0.999042 1.00111 0.998505
0.999715 0.998217 1.00278 0.998723
0.999364 1 1.00062 0.998743
1.0074 1 1.00912 0.998288
1.00092 0.99964 1.00284 0.998439
0.998841 1 1.00012 0.998716
1.0031 1 1.00487 0.998239
0.99936 0.99982 1.00087 0.998674
1.00509 1 1.00693 0.998172
0.998815 1 1 0.998815
1.00122 1 1.00277 0.998454
1.00707 1 1.00907 0.998012
0.999018 1 1.00093 0.99809
0.998614 1 1 0.998614
0.999391 1 1 0.999391
0.999434 1 1 0.999434
0.999994 1 1 0.999994
0.999478 1 1 0.999478
0.999991 1 1 0.999991
1 1 1 1
0.999987 1 1 0.999987
1 1 1 1
1 1 1 1
0.999723 1 1 0.999723
0.999993 1 1 0.999993
0.999968 1 1 0.999968
1 1 1 1
1.00064 1 1.00074 0.999892
1 1 1 1
1 1 1 1
1.06354 1.09182 0.977078 0.996949
1.06799 1.09171 0.981302 0.996909
1.06923 1.09082 0.983339 0.996817
1.06708 1.08237 0.989186 0.996647
1.07135 1.09242 0.983858 0.996801
1.06865 1.0976 0.976573 0.996973
1.06792 1.10025 0.973517 0.997013
1.06902 1.09883 0.975831 0.996966
1.08107 1.11616 0.971419 0.997063
1.09308 1.1333 0.967105 0.997322
1.07086 1.09104 0.984719 0.99674
1.06482 1.09529 0.975294 0.996812
1.05698 1.08708 0.975324 0.996911
1.01305 1.01748 1.00006 0.995588
1.01465 1.0184 1.00126 0.995059
1.03692 1.04159 1.00032 0.995198
1.05089 1.08055 0.975416 0.997064
1.04104 1.05564 0.989681 0.996455
1.0056 1.00383 1.00586 0.995922
1.02657 1.00716 1.0233 0.996071
1.02029 1.00782 1.01589 0.99653
1.00018 1 1.00068 0.999499
1.01036 1 1.0122 0.998191
1.01614 1.00647 1.01239 0.99725
1.06729 1.09777 0.975254 0.996908
0.999659 1 1 0.999659
0.999011 1 1 0.999011
1.05867 1.09989 0.965528 0.996886
1.04948 1.08586 0.969338 0.997075
1.00376 1.00633 1.00192 0.995533
1.01295 1.01489 1.00332 0.994795
1.02967 1.03725 0.997154 0.995526
1.03436 1.06365 0.975367 0.997018
1.00378 1 1.00502 0.99876
1.00888 1 1.01129 0.997613
1.00536 1.00217 1.00715 0.996056
1.03974 1.00592 1.03727 0.996484
1.02999 1.00785 1.02594 0.996131
1.01276 1.00157 1.01427 0.996952
1.07783 1.11903 0.96608 0.997004
1.04072 1.09911 0.94973 0.997002
1.0351 1.07571 0.964907 0.99725
1.01993 1.0414 0.982602 0.996722
1.00529 1.00284 1.00664 0.99584
1.0134 1.01379 1.00466 0.994977
0.998953 1 1 0.998953
1.00001 1 1.00099 0.999027
0.999012 1.00021 1.00015 0.99866
1.00412 1 1.0062 0.997937
1.0133 1 1.01603 0.997317
1.01016 1.0004 1.01315 0.996643
1.07076 1.00379 1.07065 0.996326
0.992246 1.00049 0.994463 0.997279
1.00713 1 1.00921 0.997932
1.01367 1.00043 1.01613 0.997149
1.06058 1.10898 0.959176 0.997059
1.06738 1.08497 0.987079 0.996668
1.02868 1.03021 1.00198 0.996536
1.03305 1.03251 1.00441 0.996123
1.04145 1.04681 0.999355 0.995516
1.02767 1.02932 1.00335 0.995065
1.00578 0.999596 1.00827 0.99793
1.07281 1.12057 0.960125 0.997133
1.01072 1.00104 1.01283 0.996884
1.02268 1.0242 1.00269 0.995835
1.04023 1.08886 0.958058 0.997155
1.03466 1.04269 0.996649 0.995632
1.01797 1.01965 1.00348 0.994884
1.01289 0.998273 1.01696 0.99773
1.00521 1.0678 0.94372 0.99752
1.00556 1.00059 1.0084 0.996592
1.00755 1.0085 1.00379 0.995286
1.01401 1.04116 0.977166 0.996676
1.00354 1.00618 1.00221 0.995176
0.9428 1.0018 0.944861 0.996029
0.997 0.997481 1.00102 0.998496
0.999182 0.996314 1.00416 0.998728
1.00246 0.998551 1.00526 0.998668
0.998967 1 1.00026 0.998711
1.00487 1 1.00663 0.998249
1.0035 1 1.00533 0.998178
0.999493 1 1.00077 0.998721
0.99874 1 1.00013 0.998613
0.99956 1 1.00146 0.998101
0.998695 0.999914 1 0.998781
1.0074 1 1.00941 0.998011
1.00097 1 1.00256 0.998415
1.00057 0.999584 1.00222 0.99877
1.00315 1 1.0053 0.997862
1.00697 1 1.00901 0.997972
0.998308 1 1.00034 0.997965
0.998429 1 1 0.998429
1.00186 1 1.0037 0.998172
0.998933 1 1.00054 0.998396
0.999371 1 1 0.999371
0.999387 1 1 0.999387
0.999997 1 1 0.999997
0.999429 1 1 0.999429
0.999995 1 1 0.999995
1 1 1 1
0.999992 1 1 0.999992
1 1 1 1
1 1 1 1
0.999786 1 1 0.999786
0.999726 1 1 0.999726
0.999999 1 1 0.999999
0.999989 1 1 0.999989
1 1 1 1
0.99996 1 1 0.99996
1 1 1 1
1 1 1 1
1.06463 1.0971 0.973312 0.997016
1.06858 1.09752 0.976593 0.996964
1.07113 1.09261 0.983476 0.99682
1.06881 1.09876 0.9757 0.996964
1.07774 1.11308 0.971114 0.997056
1.09368 1.13317 0.967834 0.997233
1.08748 1.12966 0.965425 0.997131
0.942763 1.01605 0.933743 0.993707
1.03916 1.08396 0.960594 0.998
0.99916 1 1 0.99916
1.06678 1.09797 0.974596 0.996916
1.06002 1.0992 0.967372 0.996889
1.04739 1.08427 0.968852 0.997046
1.00112 1.00471 1.00082 0.995611
1.01236 1.01356 1.00402 0.994818
1.02696 1.03538 0.996338 0.99551
1.03412 1.06391 0.974932 0.996987
1.00003 1.00221 1.00189 0.995938
1.03236 1.00624 1.02951 0.996545
1.02806 1.00566 1.02623 0.996137
0.999928 1 1.00028 0.999653
1.01376 1.00272 1.01409 0.996975
1.00384 1 1.00499 0.998855
1.00912 1 1.01155 0.997599
0.9991 1 1.00014 0.998963
1.07613 1.11957 0.964084 0.99701
0.999016 1 1 0.999016
1.00048 1 1.00145 0.999031
0.998814 1.00057 0.99962 0.99862
1.04468 1.0997 0.952824 0.996999
1.03274 1.07366 0.964589 0.997199
1.00181 1.0022 1.00374 0.995878
1.01783 1.01821 1.00452 0.995128
1.01874 1.04 0.982795 0.996703
1.00379 1 1.00579 0.998003
1.01196 1 1.01473 0.99727
1.00348 1.00031 1.00612 0.997063
1.06019 1.00358 1.0603 0.996322
1.01046 1.00235 1.01143 0.996696
1.05166 1.11129 0.949095 0.997107
1.01362 1.08345 0.938208 0.997168
1.02458 1.05281 0.976239 0.996872
1.00151 1.02102 0.984358 0.996479
1.00082 1 1.00402 0.996819
0.998542 1 1 0.998542
1.00101 1.00038 1.00231 0.998333
1.00302 1 1.00461 0.998422
1.01498 1 1.01729 0.997726
1.01366 1 1.01639 0.99732
1.04601 0.999932 1.0493 0.996928
1.02656 1.00189 1.02737 0.997337
1.00597 0.999921 1.00816 0.997909
1.01121 1.00008 1.01421 0.996962
1.07395 1.12463 0.957612 0.997207
1.04179 1.09008 0.958453 0.997132
1.03169 1.04043 0.995847 0.995733
1.01747 1.01907 1.00268 0.995764
1.01885 1.0204 1.0036 0.994898
1.01382 0.999253 1.01678 0.997832
1.00777 1.06945 0.944609 0.997578
1.00256 1.00085 1.00513 0.996598
1.00562 1.00626 1.00411 0.995281
1.01136 1.03926 0.976256 0.99682
1.0044 1.00652 1.00273 0.995176
0.942093 1.00037 0.946748 0.994716
1.01351 0.996877 1.01902 0.997705
0.9823 1.02746 0.958434 0.997511
1.00077 1.00137 1.00312 0.996288
1.00422 1.0023 1.00614 0.995796
0.989999 1.0074 0.986086 0.996594
0.880743 0.971345 0.938823 0.965811
0.857582 0.953401 0.915942 0.982047
0.945421 0.975879 0.972208 0.996483
0.635262 0.787066 0.874642 0.922807
0.546819 0.720278 0.846378 0.896972
0.999052 0.994844 1.0055 0.998733
1.00348 0.996131 1.00866 0.998721
1.00471 0.998834 1.00719 0.998703
0.998613 1 1 0.998613
0.999345 1 1.00124 0.998112
1.00645 1 1.00845 0.99801
1.00088 1 1.00251 0.998375
0.998454 0.999706 1 0.998747
1.00724 1 1.0093 0.997961
0.99847 1 1 0.99847
0.998349 1 1.00037 0.997982
1.00016 0.999835 1.00163 0.998697
1.00359 1 1.00566 0.997943
1.00947 1 1.01152 0.997975
1.00744 0.99895 1.01024 0.998277
1.00649 1 1.00857 0.997937
0.99903 1 1.00119 0.997847
0.998475 1 1.00008 0.998394
0.999696 1 1.0017 0.998002
1.00215 1 1.00402 0.998142
1.00219 1 1.00392 0.998283
1.00157 1 1.00344 0.998139
0.999072 1 1.00054 0.998535
0.999321 1 1.00093 0.998393
0.999363 1 1 0.999363
0.999371 1 1 0.999371
0.999999 1 1 0.999999
0.999383 1 1 0.999383
0.999998 1 1 0.999998
1 1 1 1
0.999996 1 1 0.999996
1 1 1 1
1 1 1 1
0.999851 1 1 0.999851
0.999783 1 1 0.999783
1 1 1 1
0.999729 1 1 0.999729
0.999998 1 1 0.999998
1 1 1 1
0.999985 1 1 0.999985
1 1 1 1
1 1 1 1
1.07444 1.10997 0.970852 0.997049
1.06819 1.09824 0.975601 0.996962
1.09579 1.13388 0.969175 0.997146
0.946069 1.01578 0.937182 0.993797
1.08602 1.12862 0.965029 0.997127
1.04557 1.08626 0.964599 0.997871
1.06259 1.10451 0.964695 0.997256
0.897341 0.971521 0.941225 0.981323
0.976088 1.02308 0.959218 0.994629
0.999212 1 1 0.999212
0.999153 1 1 0.999153
0.998643 1 1 0.998643
0.998776 1 1 0.998776
1.07431 1.11971 0.96232 0.997017
1.04851 1.10014 0.955941 0.996997
1.03083 1.07167 0.964639 0.997149
1.00075 1.00178 1.00306 0.995916
1.02166 1.02295 1.00347 0.995282
1.01728 1.038 0.983307 0.996684
1.01611 1 1.01933 0.99684
1.05118 1.00376 1.05111 0.996317
1.01238 1.00366 1.01198 0.996749
1.00095 1 1.00192 0.999035
1.01095 1.00061 1.01314 0.997224
1.00353 1 1.00547 0.998069
0.999079 1 1 0.999079
0.998824 1.00081 0.999435 0.99858
1.05037 1.11232 0.947033 0.997122
0.998597 1 1.00004 0.998553
1.00053 1.0006 1.0015 0.998428
1.00309 0.999305 1.00509 0.998711
1.0215 1.08726 0.942203 0.997155
1.02479 1.05251 0.976715 0.996871
0.997824 1.00101 1.00001 0.996807
1.00277 1.01952 0.986979 0.996551
1.01411 1 1.01654 0.997609
1.01382 1.00003 1.0167 0.997137
1.03277 1.00269 1.03276 0.997317
1.04644 1.00231 1.04737 0.996804
1.00189 1.0677 0.940929 0.997279
0.997728 1.05404 0.949261 0.997171
1.01052 1.02251 0.991734 0.996511
0.971901 1.00151 0.972666 0.997709
1.00784 1 1.00939 0.998455
1.00832 1 1.01046 0.997877
1.02182 0.999502 1.02425 0.998121
1.06502 1.0012 1.0666 0.997326
0.868016 0.968241 0.933681 0.960164
1.01461 0.999078 1.01764 0.997935
1.00067 1.00091 1.00317 0.996602
1.00979 1.07082 0.945229 0.997643
1.00871 1.03701 0.975673 0.996962
1.00541 1.00698 1.0033 0.995171
1.00441 1.00459 1.00457 0.995274
0.942049 1.00054 0.947841 0.993352
1.01086 0.996585 1.0166 0.997764
0.981349 1.02786 0.957155 0.997484
1.00074 1.0015 1.00296 0.996299
1.00544 1.00379 1.00585 0.995814
0.993363 1.00852 0.988359 0.996572
0.870745 0.973635 0.931342 0.960252
0.855388 0.949845 0.920251 0.978599
0.947878 0.976034 0.974514 0.99655
0.630314 0.78264 0.870793 0.924869
0.538621 0.719608 0.839997 0.891065
1.00355 0.996799 1.00896 0.997834
0.668829 0.804974 0.89471 0.928648
0.583387 0.740547 0.878478 0.896753
0.983321 1.00558 0.980113 0.997706
1.00939 1.00169 1.0106 0.997119
1.015 1.00601 1.01184 0.997127
0.935077 0.962289 0.97459 0.997058
0.831157 0.941659 0.915901 0.963698
0.820762 0.917665 0.916243 0.976162
0.611887 0.767096 0.856351 0.93147
0.595594 0.789704 0.847012 0.890423
1.00402 0.993622 1.01171 0.998773
1.0032 0.996721 1.00783 0.998676
1.01411 0.997526 1.01781 0.998837
0.99851 1 1 0.99851
0.998608 1 1.00061 0.998
1.00749 1 1.00956 0.997951
1.00447 1 1.00646 0.998023
0.999324 0.999865 1.00084 0.998624
0.998517 1 1.00012 0.998394
1.01001 1 1.01208 0.997949
1.00667 1 1.00877 0.99792
0.998602 1 1.00071 0.997898
1.00801 0.998815 1.01089 0.998331
1.00865 1 1.01046 0.998201
1.02694 0.998401 1.03013 0.998495
1.0036 1 1.00583 0.997784
0.998952 1 1.00101 0.997939
0.999032 1 1.00104 0.997994
1.00187 1 1.00369 0.998189
1.00046 1 1.00253 0.997939
1.00157 1 1.00332 0.998258
1.0101 0.999908 1.01182 0.998392
1.01344 0.999835 1.01557 0.998066
1.00415 1 1.00589 0.998273
1.00269 1 1.00441 0.998285
1.00174 1 1.00318 0.998566
1.00193 1 1.00383 0.998107
0.999273 1 1.00078 0.998499
0.999335 1 1 0.999335
0.999686 1 1.0013 0.998389
0.999365 1 1 0.999365
0.999994 1 1 0.999994
0.999372 1 1 0.999372
0.999998 1 1 0.999998
1 1 1 1
0.999999 1 1 0.999999
1 1 1 1
1 1 1 1
0.999144 1 1 0.999144
0.999871 1 1 0.999871
0.999847 1 1 0.999847
1 1 1 1
0.99978 1 1 0.99978
1 1 1 1
1 1 1 1
0.999996 1 1 0.999996
1 1 1 1
1 1 1 1
0.948684 1.01521 0.940216 0.993888
1.08496 1.1277 0.964878 0.997124
1.05274 1.08834 0.969487 0.997738
0.884338 0.968979 0.928822 0.982589
0.97344 1.02296 0.956499 0.994873
1.06453 1.10735 0.96401 0.997212
0.984957 1.04037 0.950829 0.9957
0.902322 0.975563 0.939711 0.984266
0.878776 0.975888 0.934716 0.963382
0.642499 0.790451 0.872074 0.932062
0.506715 0.678924 0.833086 0.895886
0.998746 1 1 0.998741
0.999209 1 1 0.999209
0.999145 1 1 0.999145
0.998737 1 1.00007 0.998664
0.999442 1 1.00094 0.998509
0.998407 1 1 0.998407
0.998783 1 1.00023 0.998557
0.998727 1 1 0.998727
1.05131 1.11392 0.946508 0.997134
1.02972 1.0914 0.946198 0.997141
1.02473 1.05279 0.976407 0.99687
0.996825 1.00195 0.998084 0.996797
1.00443 1.01836 0.989667 0.996622
1.04128 1.00333 1.04064 0.997296
1.04688 1.00456 1.0456 0.996681
1.01151 1.00036 1.01424 0.996955
0.999695 1.00077 1.0004 0.998523
1.01472 1 1.01728 0.997485
0.998567 1 1 0.998567
1.00249 0.999126 1.00436 0.999002
0.999441 1.06792 0.938381 0.997331
1.00703 0.999738 1.00888 0.998429
1.01024 1 1.01221 0.998056
0.995897 1.05194 0.949431 0.997144
1.00917 1.02423 0.988584 0.996676
0.975745 1.00163 0.97654 0.997561
1.03224 1.00111 1.03341 0.997758
1.05764 1.00231 1.05798 0.997374
0.963884 1.03304 0.935766 0.9971
0.995797 1.01853 0.980459 0.997163
0.974357 1.00263 0.974464 0.997269
0.972551 0.997794 0.976697 0.997957
1.00962 1 1.01179 0.997855
1.02302 0.999961 1.02508 0.998022
1.05427 0.99941 1.05732 0.997703
0.688797 0.813354 0.908994 0.931645
0.880857 0.975025 0.93424 0.96701
1.00823 0.997504 1.01296 0.997824
1.00042 1.00132 1.0028 0.996313
0.981625 1.02835 0.956997 0.997456
0.996729 1.00994 0.99033 0.996554
1.00689 1.00535 1.00571 0.995838
0.8732 0.972939 0.931388 0.963601
0.860756 0.961253 0.914457 0.979217
0.948037 0.974587 0.976049 0.996628
0.644811 0.784005 0.88202 0.93247
0.530896 0.720071 0.833146 0.884939
1.00369 0.998201 1.00767 0.997842
0.681093 0.815635 0.898251 0.929636
0.557152 0.715847 0.871854 0.892709
0.982693 1.00669 0.978425 0.997684
1.00929 1.00235 1.00983 0.997121
1.01276 1.00386 1.01162 0.997271
0.930618 0.956877 0.975152 0.99734
0.838637 0.952947 0.916976 0.959726
0.818598 0.913722 0.915244 0.978859
0.626437 0.772539 0.872596 0.929275
0.601134 0.802059 0.842971 0.889103
1.00529 0.997767 1.00905 0.998498
0.598131 0.751943 0.888303 0.895468
0.65696 0.828484 0.87874 0.902391
0.983466 0.989312 0.995468 0.998617
1.01668 1.00241 1.01572 0.998538
0.942166 0.948177 0.997188 0.996462
0.838227 0.90627 0.94311 0.980711
0.777132 0.892718 0.909515 0.957129
0.647786 0.770892 0.903019 0.930552
0.670922 0.868628 0.86268 0.89534
1.00313 0.997088 1.00743 0.99865
1.01197 0.998783 1.01444 0.998787
1.01108 0.996942 1.01512 0.999074
0.998394 1 1 0.998394
0.998233 1 1.00028 0.997949
1.00747 1 1.00959 0.997902
1.01088 1 1.01298 0.997924
1.00823 0.998672 1.0112 0.998385
0.998591 1 1.00066 0.997935
1.00881 1 1.01069 0.998141
1.00308 1 1.0053 0.997787
1.02396 0.996587 1.02895 0.998559
1.04287 0.994303 1.0498 0.999094
1.01684 1 1.01867 0.998201
1.00143 1 1.00369 0.997751
0.998534 1 1.00055 0.997987
1.00107 1 1.00284 0.998234
1.00097 1 1.00305 0.997928
1.00251 1.00017 1.00411 0.998237
1.00726 0.999728 1.00903 0.998519
1.00883 0.999636 1.01101 0.998207
1.01442 0.999662 1.01655 0.998237
1.00971 0.997592 1.0136 0.998566
1.0024 1 1.00423 0.99817
1.00173 1.00346 1.00093 0.997346
1.0109 1 1.01302 0.997903
1.01183 0.999818 1.01397 0.998069
1.01266 1 1.01462 0.998066
1.00551 1 1.00725 0.998275
1.00135 1 1.00284 0.99852
1.00253 1 1.00425 0.998287
1.00051 1 1.00194 0.998575
0.99929 1 1 0.99929
0.999065 1 1.0006 0.998463
0.999338 1 1 0.999338
0.999977 1 1 0.999977
0.999368 1 1 0.999368
0.99999 1 1 0.99999
1 1 1 1
0.999998 1 1 0.999998
1 1 1 1
1 1 1 1
0.999125 1 1 0.999125
0.999829 1 1 0.999829
0.999146 1 1 0.999146
1 1 1 1
0.999871 1 1 0.999871
0.999842 1 1 0.999842
1 1 1 1
1 1 1 1
1 1 1 1
1 1 1 1
1 1 1 1
0.668768 0.806009 0.898603 0.923353
0.566075 0.732744 0.865138 0.89297
0.883486 0.967836 0.928394 0.983253
0.972485 1.02288 0.955379 0.995137
1.06341 1.11017 0.960599 0.997171
0.89331 0.958584 0.94562 0.985496
0.984264 1.03858 0.951556 0.995953
0.888267 0.984045 0.936613 0.963759
0.627697 0.787244 0.861952 0.925033
0.518197 0.699938 0.831851 0.89
0.912831 0.993265 0.928849 0.989419
0.856211 0.95758 0.92714 0.964407
0.619465 0.774032 0.859729 0.930885
0.598929 0.792549 0.847597 0.891579
1.00083 1 1.00257 0.998265
0.998785 1 1 0.998785
0.999206 1 1 0.999206
0.998886 1 1.0002 0.998685
0.99918 1 1.00055 0.998633
0.999543 1 1.00147 0.998077
0.998646 1 1.00025 0.998391
0.998636 1 1.00053 0.998105
0.998602 1 1.0001 0.998504
0.998677 1 1 0.998677
0.993849 1.06763 0.933337 0.99738
0.993482 1.04941 0.949442 0.997119
1.009 1.02596 0.986589 0.996842
0.978118 1.00177 0.978919 0.997411
1.04766 1.00374 1.04645 0.997421
1.04374 1.00244 1.04391 0.997399
1.01105 1 1.01284 0.998235
1.00625 0.999312 1.00855 0.998402
0.963523 1.03386 0.934549 0.997238
1.01247 1 1.0147 0.997797
1.02241 0.999479 1.025 0.99799
0.986638 1.01478 0.9751 0.9971
0.972064 1.00205 0.972638 0.997363
0.973942 0.999035 0.976915 0.997919
1.04752 0.999522 1.05049 0.997645
0.950473 1.00239 0.950813 0.997263
0.96618 0.99712 0.970726 0.998192
1.0112 0.993359 1.01983 0.998168
1.01056 1 1.01287 0.99772
1.02237 0.999447 1.02526 0.997735
1.0301 0.99996 1.03238 0.997838
0.625002 0.764298 0.899852 0.908756
0.687468 0.811371 0.908613 0.932511
0.87199 0.974561 0.931685 0.960358
1.00282 0.997376 1.00763 0.997846
1.0089 1.00254 1.00926 0.997117
0.983962 1.00794 0.978504 0.99766
1.01062 1.00222 1.01099 0.997408
0.686815 0.810354 0.907684 0.933749
0.840628 0.952396 0.91923 0.960201
0.814869 0.911046 0.916163 0.97628
0.93166 0.954339 0.978587 0.997597
0.623887 0.779453 0.86707 0.923128
0.548267 0.707714 0.865558 0.895033
0.607165 0.804474 0.842865 0.89544
1.00475 0.997428 1.0089 0.998453
0.600966 0.751212 0.888519 0.900369
0.673636 0.845763 0.883055 0.901963
0.980988 0.986662 0.995513 0.998731
1.01585 1.00107 1.0163 0.998484
0.939654 0.946461 0.995528 0.997268
0.826335 0.911383 0.927223 0.977848
0.808498 0.906332 0.926798 0.962514
0.652604 0.780767 0.904733 0.923864
0.664722 0.86077 0.858088 0.899956
1.00639 0.995334 1.01168 0.999431
0.698719 0.85147 0.900674 0.9111
0.681414 0.855694 0.878959 0.90599
0.972949 0.953473 1.02072 0.999715
0.87552 0.907819 0.977646 0.986472
0.808685 0.876589 0.960697 0.960278
0.74076 0.862657 0.933066 0.920295
0.717531 0.912748 0.871046 0.902503
1.00991 0.999272 1.01193 0.998736
1.01331 0.996625 1.0177 0.999059
1.02603 0.986499 1.04074 0.999354
0.998765 1 1.00084 0.99793
1.00266 1 1.00488 0.997789
1.00822 1 1.01016 0.99808
1.02157 0.99502 1.02809 0.998624
1.00196 1 1.00421 0.997752
1.01614 0.999771 1.01822 0.998191
1.04736 0.993936 1.05462 0.999173
1.04239 0.983359 1.06061 0.999446
1.04678 0.997118 1.05079 0.999068
1.01117 0.999925 1.01318 0.998093
1.00091 1 1.003 0.997916
1.00306 1 1.00486 0.998216
1.00465 0.999678 1.00634 0.998643
1.01405 0.999772 1.01604 0.998261
1.00688 0.999918 1.00877 0.998203
1.01219 0.998256 1.01538 0.998599
1.01081 0.99913 1.01338 0.998331
1.02171 0.995616 1.02728 0.998962
0.997171 1.00151 0.997322 0.998345
1.002 1.00067 1.00316 0.998171
0.998964 1.00064 1.00069 0.997628
1.00791 1.01016 1.00153 0.996249
1.00608 1.00191 1.00653 0.997651
1.00056 1.00211 1.00075 0.997698
1.01093 1 1.01306 0.997896
1.01972 1 1.02192 0.997848
1.00956 1 1.01151 0.998072
1.01195 1 1.01391 0.998068
1.00341 1 1.00508 0.99834
1.00623 1 1.00797 0.998277
1.00196 1 1.00345 0.998516
1.00063 1 1.00141 0.999219
1.00037 1 1.00179 0.998583
0.999718 1 1.00043 0.999291
0.999952 1 1 0.999952
0.999342 1 1 0.999342
0.99997 1 1 0.99997
1 1 1 1
0.999987 1 1 0.999987
1 1 1 1
1 1 1 1
0.998778 1 1 0.998778
0.999752 1 1 0.999752
0.999032 1 1 0.999032
1 1 1 1
0.999835 1 1 0.999835
0.999149 1 1 0.999149
1 1 1 1
1 1 1 1
0.999871 1 1 0.999871
1 1 1 1
1 1 1 1
1 1 1 1
0.58364 0.742528 0.875042 0.898262
0.677554 0.812796 0.898254 0.928033
0.669783 0.845988 0.8783 0.90142
0.563357 0.733649 0.861272 0.891569
0.89235 0.964182 0.941768 0.982726
0.985739 1.03685 0.954313 0.996221
0.88692 0.984957 0.934367 0.963718
0.643309 0.786065 0.878135 0.931966
0.531038 0.724895 0.828669 0.884035
0.917912 0.987982 0.940065 0.988313
0.835573 0.949332 0.919681 0.957039
0.632786 0.780629 0.872887 0.928655
0.587719 0.784625 0.843896 0.887603
0.873723 0.96027 0.924321 0.984368
0.777658 0.881312 0.922924 0.956077
0.681682 0.819536 0.903912 0.920212
0.663556 0.860857 0.863283 0.892881
1.00371 1 1.00588 0.997844
1.0003 1 1.00198 0.998324
0.998828 1 1 0.998828
0.998759 1 1 0.998759
0.998589 1 1.00094 0.997648
0.998764 1 1.00062 0.998142
0.998758 1 1.00038 0.998377
0.998138 1 1.00006 0.998081
0.998453 1 1.00031 0.998145
0.998451 1 1 0.998451
0.964541 1.0351 0.934286 0.997372
0.979423 1.01145 0.971206 0.997042
0.967935 1.00129 0.969154 0.997457
0.975932 1.00063 0.977391 0.997884
1.03896 1 1.04148 0.997584
1.02197 0.999751 1.02431 0.99796
1.01443 1 1.01673 0.99774
1.00998 1 1.01235 0.997658
0.951563 1.00255 0.951659 0.997357
1.01876 0.999731 1.02139 0.997694
1.02987 0.99982 1.03231 0.997816
0.96562 0.998536 0.968785 0.998194
1.00471 0.996004 1.01064 0.998124
0.942076 0.971633 0.971953 0.997559
0.959255 0.963325 0.996538 0.999234
1.04329 0.991895 1.05352 0.998377
1.00797 0.99981 1.01036 0.997827
1.03277 0.999209 1.03566 0.998004
0.713319 0.864976 0.899784 0.916518
0.619573 0.763031 0.895212 0.907036
0.678913 0.807483 0.907799 0.926171
1.00477 0.997891 1.0085 0.998411
1.01535 0.999353 1.0176 0.998429
0.976125 0.984194 0.992944 0.998849
0.594931 0.746621 0.884824 0.900554
0.782603 0.887692 0.921635 0.956578
0.831402 0.908591 0.934202 0.979494
0.928923 0.940248 0.989822 0.998113
0.664128 0.794094 0.898407 0.930908
0.685008 0.856057 0.887287 0.901838
0.663842 0.85819 0.859008 0.9005
1.0042 0.995266 1.00961 0.999376
0.700209 0.853589 0.898411 0.913069
0.678654 0.851812 0.879091 0.906298
0.974886 0.9581 1.01803 0.999503
0.887978 0.920073 0.978431 0.986394
0.780648 0.873855 0.936054 0.954366
0.711767 0.907996 0.869052 0.902003
0.757627 0.865871 0.947448 0.923521
0.993349 0.960565 1.03443 0.999711
0.690565 0.844241 0.892192 0.91681
0.722392 0.893984 0.887296 0.910699
0.66146 0.859256 0.861956 0.893091
0.931873 0.922867 1.01339 0.996415
0.868761 0.907918 0.99465 0.962019
0.817016 0.92788 0.948834 0.928001
1.0162 0.996552 1.0207 0.999043
1.02844 0.990277 1.03929 0.99927
1.03724 0.979673 1.05922 0.999566
1.00255 1 1.00481 0.997753
1.01457 0.999619 1.0168 0.998179
1.05175 0.992355 1.06064 0.999251
1.01266 0.999921 1.01467 0.998101
1.04654 0.997016 1.05064 0.999079
1.04869 0.983632 1.06676 0.999421
1.03656 0.978246 1.06015 0.999489
1.03106 0.996033 1.03614 0.999058
1.01315 0.999772 1.01512 0.998288
1.00638 1.00034 1.00785 0.9982
1.01482 0.99888 1.01735 0.998633
1.02078 0.996778 1.02518 0.998933
1.0115 0.999427 1.01376 0.998344
1.00434 0.999335 1.00619 0.998827
0.997244 0.999935 0.99862 0.998687
1.00448 1.00055 1.00687 0.997081
1.001 1.00145 1.00138 0.998182
1.00044 1.00243 1.00051 0.997505
1.00216 1.00406 1.00227 0.995848
1.02237 1.02552 1.00129 0.995645
1.00891 1.00898 1.00276 0.997179
1.0047 1.00702 1.00138 0.996313
1.01436 1.00026 1.01659 0.997551
1.00744 1.00278 1.00698 0.997676
0.999561 1.00093 1.00059 0.998046
1.0112 1 1.01333 0.99789
1.01816 1 1.02033 0.997874
1.01021 1 1.01211 0.998124
1.01168 1 1.01364 0.99807
1.00345 1 1.00511 0.998339
1.00136 1 1.00228 0.999077
1.00132 1 1.00281 0.998513
1.0006 1 1.00138 0.999215
0.999928 1 1 0.999928
0.999941 1 1.00065 0.999292
0.999945 1 1 0.999945
1 1 1 1
0.999963 1 1 0.999963
1 1 1 1
1 1 1 1
0.998472 1 1.00003 0.998446
0.999475 1 1 0.999475
0.998777 1 1 0.998777
1 1 1 1
0.999685 1 1 0.999685
0.99894 1 1 0.99894
1 1 1 1
1 1 1 1
0.999841 1 1 0.999841
1 1 1 1
1 1 1 1
1 1 1 1
0.708952 0.870575 0.893791 0.911119
0.59354 0.744519 0.882111 0.903755
0.665813 0.805506 0.891663 0.927007
0.99848 1 1.00051 0.997976
0.681172 0.849191 0.881735 0.909731
0.670045 0.845467 0.879368 0.901232
0.578633 0.751567 0.858343 0.896962
0.926654 0.99253 0.945879 0.987048
0.83372 0.939209 0.921215 0.963601
0.629671 0.7912 0.862991 0.922192
0.576479 0.764051 0.846305 0.891527
0.870386 0.956075 0.928156 0.980841
0.802614 0.897844 0.929275 0.96197
0.669066 0.798452 0.909586 0.921248
0.664203 0.860166 0.863418 0.894329
0.812515 0.901452 0.923 0.976533
0.78552 0.865159 0.947578 0.958178
0.769082 0.873117 0.952664 0.924614
0.716684 0.909008 0.87361 0.902489
1.00169 1 1.00397 0.997733
1.00461 1 1.00681 0.997811
1.00012 1 1.00174 0.998384
0.998394 1 1.00057 0.997828
0.99903 1 1.0013 0.997728
0.998799 1 1.00059 0.998206
0.998213 1 1.00013 0.998081
0.998447 1 1.00026 0.998184
0.952775 1.00333 0.952064 0.997427
0.9661 1.00115 0.966729 0.998206
1.00924 1 1.01168 0.997595
0.998308 0.99842 1.00181 0.998079
1.02955 0.998736 1.03314 0.997793
1.01843 1 1.02083 0.997652
1.01136 1 1.01358 0.99781
0.942464 0.969616 0.974216 0.997722
1.02899 0.999508 1.03155 0.998004
1.03345 0.994934 1.04035 0.998422
0.96238 0.967946 0.994965 0.999281
1.01394 1 1.01591 0.998065
0.925765 0.938729 0.989131 0.997027
0.991664 0.965397 1.02775 0.999476
1.06672 0.995644 1.07296 0.998536
1.05139 0.997664 1.05575 0.998211
0.692437 0.841355 0.893528 0.921071
0.7126 0.864608 0.900065 0.915699
0.615199 0.760758 0.893297 0.90526
1.00099 0.99527 1.00643 0.999322
0.977693 0.961648 1.0174 0.999292
0.704957 0.858856 0.897106 0.914952
0.800418 0.861807 0.965946 0.96151
0.876311 0.918002 0.971823 0.982262
0.748714 0.857741 0.9473 0.921451
0.6785 0.85138 0.879105 0.906537
0.710009 0.906501 0.868826 0.901494
1.00138 0.971639 1.03096 0.999669
0.691914 0.846058 0.891998 0.916829
0.726157 0.893378 0.890389 0.912884
0.947562 0.933933 1.01572 0.998888
0.662264 0.858645 0.862308 0.894448
0.836252 0.886225 0.984795 0.95818
0.815086 0.921211 0.953924 0.927536
0.9938 0.960893 1.03461 0.999653
0.729899 0.881486 0.898491 0.921581
0.681726 0.846897 0.884202 0.910392
0.596255 0.790229 0.846183 0.891692
0.763599 0.869016 0.951025 0.923943
0.928193 0.929757 1.007 0.991381
0.881729 0.913015 1.01361 0.952765
1.0295 0.994861 1.03566 0.999188
1.03404 0.975474 1.06053 0.999534
1.01944 0.956699 1.06603 0.999582
1.01489 0.999749 1.01706 0.998109
1.04821 0.995903 1.05348 0.999091
1.05658 0.984898 1.07343 0.999396
1.02575 0.996131 1.03072 0.999045
1.03423 0.980237 1.05562 0.999488
1.00012 0.979392 1.02195 0.999235
1.02022 0.997742 1.02366 0.998903
1.01241 0.999326 1.01476 0.998357
1.00845 0.999382 1.01029 0.998802
1.01042 0.997803 1.01464 0.998033
0.997644 0.998615 1 0.999028
0.999462 1.00059 1.00155 0.997322
1.00703 1.00242 1.00945 0.99519
1.00685 1.0091 1.00283 0.994953
1.00192 1.00429 1.00026 0.997372
1.0024 1.00476 1.00205 0.995613
1.0219 1.02579 1.00053 0.995685
1.0192 1.02024 1.00261 0.996373
1.0194 1.02246 1.00125 0.99576
1.01244 1.00528 1.00982 0.997333
1.01182 1.01134 1.00335 0.997137
1.00042 1.00277 1.00128 0.996381
1.0169 1 1.01904 0.997899
1.014 1.00039 1.01606 0.997583
1.0088 1.00362 1.00747 0.9977
1.01662 1 1.01876 0.997901
1.01015 1 1.01205 0.998126
1.00485 1 1.006 0.998856
1.00418 1 1.00585 0.998338
1.00181 1 1.00274 0.999071
0.999897 1 1 0.999897
1.001 1 1.00179 0.999212
0.999921 1 1 0.999921
1 1 1 1
0.999937 1 1 0.999937
1 1 1 1
1 1 1 1
0.998639 1 1.00029 0.99835
0.999268 1 1.00002 0.999245
0.998551 1 1.00004 0.998509
0.999994 1 1 0.999994
0.99945 1 1 0.99945
0.998774 1 1 0.998774
1 1 1 1
1 1 1 1
0.999618 1 1 0.999618
1 1 1 1
1 1 1 1
1 1 1 1
0.696671 0.847613 0.893435 0.919956
0.709422 0.868543 0.896433 0.911162
0.594927 0.743015 0.8859 0.903817
0.998777 1 1.00076 0.998017
1.00403 1 1.00614 0.9979
0.997999 1 1 0.997999
0.726066 0.897331 0.888991 0.910177
0.679598 0.850403 0.878161 0.910025
0.667995 0.846296 0.875957 0.901089
0.876582 0.963719 0.925295 0.983019
0.770317 0.885587 0.909818 0.956058
0.676096 0.787948 0.922291 0.930344
0.667903 0.867287 0.863775 0.891558
0.818651 0.907496 0.920785 0.979705
0.802592 0.875857 0.95671 0.957814
0.758047 0.863941 0.94812 0.92544
0.712313 0.907006 0.870792 0.901875
0.835373 0.901229 0.948819 0.976927
0.839684 0.89119 0.981934 0.95954
0.817286 0.924193 0.952523 0.928401
0.675056 0.870975 0.865359 0.895649
0.999729 0.999998 1.00176 0.99797
1.00165 1 1.00397 0.997686
1.0037 1 1.00594 0.997777
0.99813 1 1.00032 0.997811
0.998796 1 1.00099 0.997808
0.998145 1 1.00006 0.998081
0.939257 0.962982 0.977414 0.997901
0.963695 0.968151 0.996092 0.999303
1.01115 1 1.01338 0.997794
1.02714 0.998701 1.03005 0.998466
1.02532 1 1.02737 0.998004
1.01283 0.999345 1.01544 0.998083
1.03643 0.992642 1.04594 0.998248
0.931256 0.937212 0.9965 0.997135
1.06149 0.992092 1.07137 0.998678
0.993195 0.955855 1.03983 0.999264
1.02213 0.98982 1.03428 0.998418
0.95424 0.938029 1.02072 0.99663
1.01058 0.962093 1.05132 0.999118
1.02897 0.964022 1.06866 0.998792
0.74756 0.893401 0.906457 0.923108
0.697712 0.844455 0.896688 0.92142
0.711137 0.864389 0.899241 0.914888
1.00981 0.982273 1.02842 0.999627
0.936357 0.932608 1.00707 0.996975
0.692219 0.846299 0.892116 0.91685
0.832889 0.872217 0.992082 0.962531
0.808289 0.924362 0.947893 0.922498
0.728195 0.894121 0.890027 0.915057
0.667918 0.866297 0.86451 0.891838
0.987482 0.955453 1.0338 0.999735
0.727924 0.877427 0.899395 0.922412
0.684815 0.854026 0.880481 0.910714
0.923304 0.92546 1.01115 0.986672
0.585072 0.780711 0.844007 0.887918
0.757213 0.863024 0.949184 0.924368
0.875534 0.911037 1.0005 0.960546
1.0068 0.948271 1.06391 0.997947
0.698049 0.845982 0.896508 0.920387
0.681658 0.853402 0.885448 0.90209
0.509241 0.677859 0.837828 0.896662
0.668803 0.808301 0.899531 0.919833
0.847556 0.888879 0.994407 0.958874
0.893271 0.91254 0.995949 0.982866
1.02889 0.972893 1.05808 0.999501
1.02897 0.96995 1.06129 0.999577
1.00675 0.968703 1.03985 0.999449
1.01896 0.99706 1.02296 0.999032
1.03154 0.982687 1.05025 0.999487
1.00505 0.975446 1.03105 0.999319
1.01037 0.99374 1.018 0.998759
1.01344 0.999748 1.01493 0.998775
1.00769 0.999188 1.01081 0.997725
1.02734 1.00088 1.03085 0.995728
0.994399 1.00022 0.996607 0.997566
1.0082 1.00209 1.01087 0.995271
1.00777 1.00362 1.00985 0.994338
1.01195 1.0155 1.00191 0.994605
1.0134 1.01705 1.00108 0.995341
1.00683 1.00885 1.00312 0.994894
1.00236 1.00531 1.00169 0.995381
1.01618 1.01912 1.0011 0.996017
1.02382 1.02767 1.00048 0.995781
1.01172 1.01014 1.00482 0.996754
1.02108 1.02191 1.00274 0.996461
1.01835 1.02137 1.00117 0.995875
1.0165 1.00268 1.01622 0.997604
1.01331 1.00613 1.00984 0.99732
1.01495 1.01402 1.00383 0.997092
1.01143 1 1.01283 0.998617
1.01544 1 1.01758 0.997897
1.01415 1.00069 1.01588 0.997616
1.0097 1 1.01159 0.998128
1.00453 1 1.00568 0.998853
1.00005 1 1.00022 0.999827
1.00162 1 1.00256 0.999065
0.999887 1 1 0.999887
1 1 1 1
0.999915 1 1 0.999915
1 1 1 1
1 1 1 1
0.998376 1 1.0001 0.998273
0.999441 1 1.00026 0.999186
0.998622 1 1.00024 0.998378
0.999972 1 1 0.999972
0.999296 1 1 0.999296
0.998572 1 1 0.998572
1 1 1 1
0.999996 1 1 0.999996
0.999425 1 1 0.999425
1 1 1 1
1 1 1 1
1 1 1 1
0.7271 0.879312 0.897838 0.920985
0.702557 0.849056 0.89942 0.919989
0.711674 0.867627 0.900145 0.911247
1.02092 1 1.0232 0.997769
1.00677 1.00064 1.00835 0.997794
0.998561 1 1.0005 0.998059
1.00409 1 1.00623 0.997878
0.998552 1 1.00053 0.998024
1.0051 1 1.00715 0.997964
0.997323 0.999155 1 0.998166
0.687476 0.863296 0.878889 0.906074
0.729383 0.895946 0.89226 0.912393
0.684144 0.848707 0.885515 0.91032
0.710752 0.906587 0.869873 0.901266
0.821967 0.912723 0.921856 0.976904
0.808176 0.873984 0.966142 0.957109
0.764471 0.878049 0.936802 0.929382
0.820661 0.902716 0.931639 0.975809
0.842889 0.885021 0.999089 0.953263
0.81371 0.919415 0.95347 0.92822
0.667693 0.864086 0.858361 0.900222
0.871318 0.911251 0.97648 0.97921
0.861942 0.897314 1.00784 0.953111
0.74451 0.86575 0.933851 0.920875
0.599659 0.795286 0.846766 0.890468
1.04061 0.998229 1.04416 0.998375
1.00123 0.999688 1.00355 0.998004
1.00259 1 1.00496 0.997638
0.997922 1 1.00013 0.997794
0.941055 0.940603 1.00323 0.997264
0.993019 0.949768 1.04654 0.999044
1.01069 0.998462 1.01418 0.998101
1.02687 0.99207 1.03686 0.998285
1.04793 0.981578 1.06886 0.998821
1.02403 0.995102 1.03069 0.99842
1.03846 0.964427 1.07808 0.998779
0.952617 0.93617 1.02293 0.994759
1.01065 0.954237 1.05988 0.999283
1.01159 0.9721 1.04177 0.998906
0.940841 0.917312 1.03217 0.993681
0.989248 0.937428 1.05607 0.999253
0.697234 0.841725 0.898837 0.921568
0.743383 0.888742 0.903905 0.925368
0.704655 0.847688 0.901825 0.921762
0.980104 0.946922 1.03524 0.999805
0.930056 0.929386 1.0089 0.991894
0.724385 0.872694 0.899052 0.923257
0.887138 0.919751 1.01129 0.953775
0.759363 0.872744 0.937139 0.928449
0.691155 0.855581 0.886744 0.910995
0.575114 0.759932 0.848674 0.891739
1.00713 0.950109 1.0619 0.998224
0.703213 0.851954 0.896764 0.920434
0.674648 0.845492 0.884706 0.901921
0.895107 0.912469 0.995181 0.985723
0.521473 0.700967 0.835077 0.890856
0.659401 0.788779 0.908158 0.920519
0.844163 0.888438 0.996054 0.953929
0.99028 0.950331 1.04658 0.995661
0.714122 0.876389 0.893994 0.911468
0.563512 0.726579 0.867665 0.893858
0.61949 0.773639 0.859546 0.931594
0.78643 0.852521 0.961257 0.959656
0.844244 0.885657 0.974729 0.977954
1.03741 0.975657 1.06373 0.99959
1.01078 0.96612 1.0468 0.999461
0.981225 0.969039 1.01337 0.999213
1.01002 0.971546 1.04022 0.999402
1.00994 0.982837 1.02874 0.998871
1.01305 1.0008 1.01468 0.99759
1.00424 1.00048 1.00636 0.99742
1.02713 1.00111 1.03058 0.995547
1.01513 1.00277 1.01782 0.994603
1.00987 1.00214 1.01242 0.995352
1.00889 1.0037 1.01099 0.994243
1.00375 1.00513 1.00448 0.994167
1.04513 1.05044 1 0.994941
1.02531 1.0297 1.00077 0.994968
1.01209 1.01543 1.00218 0.994548
1.01486 1.01917 1.00013 0.995652
1.01135 1.01526 1.00074 0.995405
1.00681 1.00843 1.00357 0.994835
1.01721 1.01966 1.00154 0.996059
1.01602 1.01901 1.00108 0.995989
1.02476 1.02856 1.00043 0.995877
1.01032 1.00455 1.00861 0.997156
1.01247 1.00991 1.00568 0.996865
1.02166 1.02225 1.00289 0.99655
1.01496 1.00166 1.01501 0.998289
1.01589 1.00337 1.0149 0.997611
1.01384 1.00716 1.00935 0.997308
1.00208 1 1.00236 0.999722
1.01099 1 1.0124 0.998614
1.01413 1 1.01627 0.997895
1.00467 1 1.00582 0.998849
1.00048 1 1.00067 0.999814
1 1 1 1
0.999877 1 1 0.999877
1 1 1 1
1 1 1 1
1.01533 1 1.01757 0.99779
1.00782 1 1.00979 0.998053
0.999242 1 1.00026 0.998982
0.999689 1 1.00142 0.998268
0.999937 1 1 0.999937
0.999371 1 1.00018 0.999188
0.998839 1 1.00043 0.998407
1 1 1 1
0.999979 1 1 0.999979
0.999346 1 1 0.999346
1 1 1 1
0.999999 1 1 0.999999
1 1 1 1
0.694925 0.846876 0.894857 0.91699
0.722293 0.874827 0.895639 0.921845
0.70271 0.852735 0.895711 0.920013
1.02315 1 1.02544 0.997769
1.00874 1.00059 1.01035 0.997822
0.999216 1.00131 1.0003 0.99761
1.02386 1 1.02611 0.99781
1.00647 1.00157 1.00707 0.997833
1.00606 1 1.00822 0.997854
0.999438 1 1.00139 0.998049
1.00575 0.999715 1.00808 0.997969
0.998449 1 1.00023 0.998217
1.02442 0.999996 1.02622 0.998251
0.660856 0.834463 0.877696 0.902309
0.684735 0.857137 0.881312 0.906446
0.728536 0.89547 0.889546 0.9146
0.666054 0.863014 0.856808 0.900758
0.809268 0.921639 0.951377 0.922951
0.815972 0.89638 0.934485 0.974116
0.846711 0.886187 0.996436 0.958871
0.861537 0.914233 0.966375 0.97515
0.864818 0.910051 0.990769 0.959151
0.761324 0.865739 0.95098 0.924723
0.604717 0.80653 0.843327 0.88907
0.883925 0.908622 0.994744 0.97796
0.847752 0.87883 1.00488 0.959948
0.656747 0.77602 0.90962 0.930389
0.549613 0.723028 0.847858 0.896559
1.03285 0.999054 1.03494 0.998928
1.04213 0.998001 1.04591 0.998382
1.00529 1 1.00726 0.99804
0.951047 0.934427 1.02519 0.99278
1.0125 0.949666 1.06677 0.999429
1.02533 0.997964 1.02904 0.998422
1.05097 0.963377 1.09227 0.998767
1.01611 0.976978 1.04119 0.998912
0.995518 0.947057 1.05195 0.999262
0.94068 0.919631 1.0294 0.993678
1.0093 0.983985 1.0264 0.999345
0.958496 0.944157 1.02036 0.994926
0.719138 0.869252 0.903117 0.916057
0.706852 0.849417 0.902664 0.921896
0.737929 0.883978 0.899872 0.927667
1.01017 0.960516 1.05334 0.998438
0.890295 0.911945 0.995503 0.980668
0.711683 0.859365 0.899702 0.920471
0.849063 0.890562 0.997086 0.956188
0.662744 0.776364 0.918535 0.929361
0.664437 0.840744 0.876312 0.901843
0.532639 0.724904 0.830294 0.884953
0.987677 0.949409 1.04449 0.995998
0.711916 0.869851 0.897936 0.911461
0.56336 0.730284 0.864372 0.892471
0.858463 0.9006 0.972916 0.979748
0.632034 0.780365 0.871646 0.929185
0.783807 0.865192 0.947627 0.956003
0.936391 0.934315 1.00848 0.993794
0.585759 0.743105 0.876904 0.898912
0.644725 0.791941 0.872787 0.932768
0.778465 0.884245 0.92075 0.956148
0.818473 0.891006 0.936704 0.980667
1.01314 0.96536 1.05005 0.999475
0.984511 0.961933 1.02431 0.999183
0.993787 0.987035 1.00846 0.998397
1.00932 0.970368 1.0412 0.998979
1.0077 0.999038 1.01101 0.997686
0.993773 1.00386 0.993464 0.996461
1.02664 1.00105 1.03034 0.995361
1.01358 1.00364 1.01539 0.994597
1.00239 1.00596 1.00137 0.995084
1.00932 1.00361 1.01161 0.994148
1.00347 1.0056 1.0037 0.994208
1.03948 1.04538 0.999136 0.995214
1.07145 1.07897 0.997263 0.995758
1.05795 1.0632 1.00002 0.995045
1.04575 1.05104 0.999993 0.994975
1.03372 1.03864 1 0.995264
1.02413 1.02827 1.00107 0.994907
1.01308 1.01622 1.00244 0.99449
1.02767 1.03207 1 0.995743
1.01314 1.01747 1.00002 0.995723
1.00911 1.01338 1.00032 0.995469
1.01205 1.01191 1.00361 0.996538
1.01398 1.01566 1.00222 0.996127
1.01679 1.0198 1.0011 0.995961
1.01554 1.00192 1.01582 0.997808
1.01334 1.00649 1.00967 0.997153
1.01319 1.00974 1.00646 0.996976
1.00408 1 1.00449 0.999591
1.01499 1.00196 1.01474 0.998287
1.01566 1.00407 1.01396 0.997619
0.999934 1 1 0.999934
1.00307 1 1.00337 0.999708
1.01055 1 1.01195 0.99861
1.00095 1 1.00115 0.999801
1 1 1 1
1 1 1 1
1.01009 1.0027 1.0098 0.997599
1.01425 1 1.01645 0.997834
1.0182 1 1.02048 0.997761
1.00216 1 1.0034 0.998762
1.00632 1 1.00829 0.998047
0.99989 1 1 0.99989
0.999684 1 1.0007 0.998987
1.00035 1 1.00209 0.998262
1 1 1 1
0.999948 1 1 0.999948
0.999198 1 1.00001 0.99919
1 1 1 1
0.999987 1 1 0.999987
1 1 1 1
0.701898 0.856438 0.894827 0.91588
0.698917 0.850815 0.895793 0.917029
0.72322 0.868697 0.902289 0.922692
1.00423 1.00439 1.00241 0.997429
1.02062 1 1.0229 0.997769
1.00485 1 1.00702 0.997854
1.0168 1 1.01909 0.997757
1.00073 1.00284 1.00026 0.997638
1.00251 1.00043 1.00404 0.998043
1.01597 1.00195 1.01693 0.99711
1.01923 0.99549 1.02582 0.998073
1.00615 0.999484 1.00871 0.997975
0.998267 1 1 0.998267
1.02584 0.998811 1.02887 0.998236
1.04333 1.00172 1.04313 0.998474
0.583421 0.741475 0.87777 0.896406
0.676279 0.850358 0.881795 0.901896
0.684838 0.854919 0.883452 0.906734
0.609821 0.808813 0.842136 0.895307
0.753394 0.86046 0.948434 0.923176
0.866248 0.902463 1.00698 0.953219
0.864987 0.91225 0.971603 0.975904
0.880768 0.90683 0.990838 0.980241
0.541481 0.722432 0.841498 0.890705
0.838729 0.883587 0.994005 0.954957
0.661031 0.785357 0.911381 0.923538
0.879986 0.913976 0.980057 0.982403
0.810244 0.873626 0.964209 0.961877
0.619953 0.77148 0.863784 0.930313
0.988251 1.00147 0.987258 0.999533
1.03507 1.00005 1.03613 0.998934
1.04195 0.998428 1.04528 0.998386
0.94357 0.923232 1.02849 0.993719
1.00303 0.958678 1.04702 0.999273
1.02255 0.985427 1.03879 0.998919
1.00574 0.981298 1.02558 0.999346
0.953735 0.942926 1.01656 0.994982
0.980542 0.977417 1.00644 0.996778
0.621844 0.761582 0.902782 0.904445
0.714878 0.866719 0.898398 0.918089
0.710867 0.855022 0.901568 0.922174
0.987966 0.948934 1.04511 0.996198
0.85307 0.898984 0.967667 0.980633
0.708131 0.862608 0.900555 0.91157
0.799991 0.863626 0.968862 0.956087
0.630691 0.792627 0.862159 0.922913
0.581849 0.750732 0.863336 0.897729
0.934402 0.92709 1.01414 0.993834
0.595896 0.74513 0.884351 0.904303
0.630364 0.787734 0.864418 0.925739
0.815727 0.895988 0.93242 0.976407
0.804817 0.903396 0.926035 0.962036
0.927966 0.946799 0.982906 0.997154
0.668521 0.803695 0.900514 0.923706
0.859197 0.960572 0.927506 0.964376
0.813605 0.908626 0.917403 0.976041
0.988509 0.956448 1.03439 0.999159
0.981532 0.986329 0.996651 0.99848
0.991555 1.00043 0.993781 0.997332
1.00264 0.997677 1.00721 0.997783
0.995933 1.00382 0.995708 0.996421
0.999604 1.00835 0.994998 0.996308
1.01285 1.00507 1.01322 0.994591
1.00232 1.0056 1.00166 0.995082
1.03508 1.04743 0.991966 0.996212
1.00337 1.00597 1.00319 0.994249
1.03785 1.04415 0.998741 0.995221
1.06844 1.08119 0.991746 0.99643
1.06518 1.07704 0.992406 0.996555
1.07376 1.07978 0.998746 0.995671
1.0732 1.0807 0.997243 0.995809
1.0636 1.06864 1 0.995277
1.05574 1.06092 1 0.995122
1.04512 1.05038 0.999984 0.995009
1.04893 1.05366 1 0.995515
1.0343 1.03905 1.00014 0.995284
1.02264 1.02642 1.00148 0.994846
1.02917 1.03327 1 0.996031
1.02506 1.02944 1 0.99574
1.01123 1.0155 1 0.995793
1.00935 1.00437 1.00767 0.997308
1.01473 1.01446 1.00375 0.996529
1.01068 1.01139 1.00312 0.996195
1.00484 1 1.00554 0.999305
1.01366 1.00301 1.01284 0.997803
1.01553 1.00864 1.00971 0.997149
1 1 1 1
1.0046 1 1.00509 0.999514
1.01439 1.00209 1.01402 0.998284
1 1 1 1
1.00403 1 1.00435 0.999679
1 1 1 1
1.00602 1.00685 1.00185 0.997332
1.00817 1.00199 1.00864 0.997554
1.01447 1.00053 1.0163 0.997665
1.00808 1 1.00954 0.998549
1.01657 1 1.01878 0.997831
1.02414 1 1.02646 0.997732
1.00013 1 1.00031 0.999819
1.00124 1 1.00248 0.998768
1.00598 1 1.00796 0.998041
1 1 1 1
0.999903 1 1 0.999903
0.999706 1 1.00072 0.998991
1 1 1 1
0.999958 1 1 0.999958
1 1 1 1
0.596796 0.750559 0.886941 0.896492
0.706542 0.86192 0.894938 0.915964
0.703156 0.855585 0.896148 0.917084
1.01056 1.00297 1.0102 0.997397
1.02039 1.00909 1.01427 0.99697
1.02617 1.00229 1.02663 0.997267
1.01643 1 1.01877 0.997703
1.00227 1.00512 0.999501 0.997666
1.0016 0.999242 1.00412 0.998246
1.01989 0.998117 1.02388 0.997982
1.01786 1.00253 1.01805 0.997285
1.01896 1.00019 1.02137 0.997449
0.973147 1.00176 0.972444 0.998965
1.02613 0.999544 1.02843 0.998219
1.03813 1.0005 1.03923 0.998437
0.639467 0.789102 0.878996 0.92193
0.55866 0.717916 0.871966 0.892431
0.687073 0.859982 0.885959 0.901779
0.534842 0.723142 0.836057 0.884639
0.672895 0.796615 0.907746 0.93054
0.826766 0.877483 0.985165 0.956389
0.87862 0.903699 0.994974 0.97716
0.865807 0.90476 0.976983 0.979491
0.633494 0.775895 0.879511 0.928322
0.790913 0.868222 0.952447 0.956439
0.843935 0.910071 0.9447 0.981612
0.777403 0.901342 0.901241 0.957009
0.995476 1 0.996422 0.99905
0.987718 1.00074 0.987503 0.999478
1.03589 0.999296 1.03772 0.99894
0.942858 0.935703 1.01265 0.995058
0.999992 0.976313 1.02492 0.999346
0.982285 0.979995 1.00562 0.996738
0.963026 0.986023 0.981085 0.995506
0.691404 0.81503 0.910911 0.931284
0.616608 0.759228 0.898102 0.904298
0.717692 0.868908 0.897775 0.920019
0.936055 0.933789 1.00841 0.994067
0.819518 0.894287 0.938195 0.976761
0.597194 0.744573 0.886957 0.904286
0.772352 0.890422 0.906791 0.956559
0.644772 0.785703 0.879842 0.932704
0.927377 0.950669 0.979847 0.995562
0.68007 0.813529 0.90038 0.928442
0.838264 0.951598 0.920106 0.957392
0.815501 0.908606 0.916823 0.978955
0.936643 0.973881 0.964817 0.996835
0.881387 0.97606 0.937173 0.963542
0.871375 0.959524 0.924141 0.982677
0.968464 0.984235 0.985412 0.998542
0.985656 1.00036 0.987972 0.997296
0.979844 1.00912 0.973834 0.997078
0.997329 1.00345 0.997504 0.996383
0.999019 1.00794 0.994833 0.996296
1.02071 1.05182 0.973345 0.996994
1.00184 1.00492 1.00186 0.995082
1.03202 1.04575 0.990657 0.996185
1.04883 1.08047 0.973582 0.99705
1.03689 1.04358 0.998356 0.995228
1.06687 1.08063 0.990812 0.996419
1.05434 1.07768 0.981223 0.99706
1.05993 1.07677 0.987382 0.996945
1.06542 1.07802 0.991652 0.996633
1.06602 1.07421 0.995954 0.996405
1.07602 1.08087 0.999773 0.995733
1.0742 1.0799 0.999019 0.995703
1.07564 1.08317 0.99718 0.995861
1.06817 1.07303 1 0.995467
1.06498 1.07001 1 0.995301
1.05402 1.05911 1 0.9952
1.0506 1.05509 1 0.995747
1.05009 1.05482 1 0.995513
1.03505 1.03976 1.00017 0.995304
1.00995 1.01259 1.00052 0.996873
1.02933 1.03342 1 0.996035
1.02265 1.02702 1 0.995738
1.00426 1 1.0053 0.998962
1.01176 1.00665 1.0078 0.997302
1.01818 1.01711 1.00455 0.99652
1 1 1 1
1.00522 1 1.00594 0.999281
1.01359 1.00441 1.01137 0.997798
0.999949 1 1 0.999949
1.00547 1 1.00597 0.999505
1 1 1 1
1.01127 1.0118 1.00244 0.997039
1.00453 1.00336 1.00383 0.997341
1.00766 1.00211 1.00806 0.997496
1.00471 1.00082 1.0064 0.997509
1.01424 1.00067 1.01593 0.997669
1.0135 1 1.01519 0.998329
1.00131 1 1.0016 0.999712
1.00704 1 1.00851 0.998549
1.0167 1 1.01891 0.997829
1 1 1 1
0.999836 1 1 0.999836
1.0004 1 1.00163 0.998773
1 1 1 1
0.999918 1 1 0.999918
1 1 1 1
0.668201 0.805057 0.894159 0.928252
0.599019 0.750284 0.888608 0.898473
0.707893 0.864375 0.894003 0.916065
1.01498 1.00159 1.01605 0.997366
1.03282 1.00196 1.03391 0.997003
1.01699 1.00908 1.01086 0.997017
1.01147 1.01309 1.00242 0.996
1.02779 1.00361 1.0268 0.997363
1.01829 1 1.02044 0.997897
1.01908 1.00325 1.01836 0.997459
1.01983 1.00113 1.02117 0.997569
0.99591 1.00692 0.991876 0.997166
0.961575 1.00149 0.961627 0.998454
0.968145 1.0004 0.970021 0.997665
0.978604 1.0018 0.977843 0.998984
1.03282 1.00009 1.03437 0.998402
0.835747 0.944202 0.920416 0.96167
0.63229 0.783831 0.872823 0.924202
0.549409 0.709011 0.866134 0.89466
0.631697 0.785015 0.872537 0.922247
0.795937 0.873336 0.950834 0.9585
0.874149 0.904605 0.983618 0.982427
0.842256 0.907926 0.942997 0.983748
0.812916 0.908443 0.928859 0.963381
0.859949 0.952915 0.918262 0.98277
0.990572 1.00116 0.991182 0.998223
0.99642 0.999863 0.99753 0.999024
0.987945 1.00037 0.988145 0.999424
0.985977 0.9846 1.00465 0.996762
0.972324 0.988755 0.987182 0.996151
0.869057 0.965697 0.937298 0.960128
0.690859 0.813464 0.910907 0.932346
0.609913 0.754497 0.894 0.904217
0.930665 0.958393 0.977067 0.993861
0.822052 0.920013 0.915191 0.976324
0.670305 0.807814 0.894682 0.927455
0.838418 0.943866 0.921811 0.963626
0.944655 0.975477 0.971373 0.996943
0.890225 0.984405 0.938462 0.963628
0.868327 0.956242 0.926954 0.97962
0.942177 1.0009 0.944893 0.996232
0.910796 0.989344 0.931753 0.988037
0.983195 1.00215 0.983755 0.997291
0.974143 1.00902 0.968311 0.997033
0.980836 1.04309 0.94278 0.997385
0.998162 1.00747 0.994452 0.996283
1.02376 1.05358 0.974658 0.99696
1.03975 1.08549 0.960386 0.997364
1.02865 1.04381 0.989283 0.996158
1.04894 1.08039 0.973791 0.997022
1.04281 1.07913 0.968968 0.997287
1.06456 1.07934 0.989864 0.996407
1.05409 1.07704 0.981597 0.997037
1.0555 1.08092 0.979286 0.997135
1.05812 1.07592 0.986412 0.997002
1.06106 1.07607 0.989262 0.996754
1.06532 1.0786 0.990951 0.99671
1.06593 1.07412 0.995966 0.996397
1.06745 1.07343 0.998265 0.996161
1.07402 1.07867 1 0.995684
1.07609 1.0809 0.999827 0.99572
1.07454 1.07989 0.999309 0.995734
1.06405 1.06873 1 0.995622
1.06969 1.07457 1 0.995458
1.06644 1.07145 1 0.995326
1.02245 1.02601 1 0.996535
1.0495 1.05398 1 0.995752
1.05091 1.05565 1 0.995511
1.0009 1.00003 1.0023 0.998572
1.01373 1.01604 1.00086 0.996877
1.0293 1.03339 1 0.996039
1 1 1 1
1.00364 1 1.00471 0.998935
1.01283 1.00873 1.00678 0.997297
1 1 1 1
1.00501 1 1.00575 0.999256
1 1 1 1
1.024 1.02725 1.00073 0.996101
1.01184 1.01389 1.00095 0.997028
1.00609 1.00474 1.00421 0.997145
1.00426 1.00029 1.00663 0.997352
1.00686 1.00112 1.0083 0.997452
1.01244 1.00146 1.01297 0.998019
1.01678 1.00048 1.01866 0.997672
1.01461 1 1.01631 0.998324
1.00543 1 1.00588 0.999552
1 1 1 1
1.00134 1 1.00161 0.999726
1.00808 1 1.00954 0.99855
1 1 1 1
0.99985 1 1 0.99985
1 1 1 1
0.881001 0.973737 0.936941 0.965656
0.680586 0.8151 0.898451 0.929346
0.595045 0.74872 0.887316 0.895678
1.04041 1.00153 1.04222 0.996736
1.01412 1.01034 1.0067 0.997064
1.02284 1.00329 1.02234 0.99721
1.01072 1.0124 1.00224 0.996105
1.033 1.03721 1.00016 0.99578
1.00082 1.008 0.996014 0.996845
1.02308 1.0025 1.0229 0.997685
0.997493 1.00869 0.991923 0.996955
0.971081 1.00268 0.969999 0.998437
0.996218 1.00442 0.994625 0.997197
0.970601 1.00345 0.969592 0.997599
0.993433 1.00156 0.994727 0.997144
0.967432 1.00083 0.968799 0.997764
0.984579 1.00036 0.985208 0.999004
0.873711 0.96571 0.920722 0.982637
0.843188 0.954618 0.91925 0.960862
0.647584 0.784509 0.886165 0.931501
0.785933 0.896617 0.916587 0.956323
0.854834 0.910361 0.953443 0.984858
0.86448 0.942394 0.929118 0.987305
0.959701 1.00377 0.959489 0.996467
0.987444 1.00028 0.989031 0.99812
0.996646 0.999216 0.998428 0.998999
0.975851 0.989726 0.989166 0.99678
0.900977 0.973274 0.941429 0.983312
0.880857 0.97208 0.937193 0.966884
0.68045 0.808822 0.908586 0.925927
0.942316 0.970841 0.973473 0.997067
0.870201 0.959657 0.923956 0.981415
0.888025 0.984309 0.936371 0.963488
0.939109 0.998806 0.943666 0.996361
0.914304 0.986482 0.939001 0.987042
0.947155 1.02547 0.926735 0.996647
0.961329 1.02388 0.943616 0.995016
0.967515 1.00887 0.961915 0.996981
0.978195 1.04008 0.942962 0.997386
1.00733 1.08221 0.933292 0.997334
1.02781 1.05604 0.976262 0.996925
1.03934 1.08487 0.960581 0.997339
1.05122 1.08819 0.968706 0.997235
1.04965 1.08078 0.974126 0.996993
1.04418 1.07888 0.970489 0.997267
1.06108 1.08914 0.97708 0.997092
1.05414 1.07672 0.981958 0.997014
1.05404 1.07873 0.979933 0.997129
1.06108 1.08203 0.98373 0.99686
1.05654 1.07533 0.985427 0.997059
1.06043 1.07584 0.98884 0.9968
1.06586 1.0759 0.994224 0.996423
1.06591 1.07412 0.995949 0.996389
1.06826 1.07396 0.99854 0.996151
1.07146 1.07627 0.999561 0.995963
1.06723 1.07187 1 0.995673
1.07448 1.07917 1 0.995656
1.0761 1.08086 0.999892 0.995708
1.03889 1.04271 1 0.996337
1.06306 1.06773 1 0.995629
1.07139 1.07629 1 0.995449
1.00068 1.00214 1.00027 0.998275
1.02299 1.02652 1.00003 0.996535
1.04817 1.05264 1 0.995756
1 1 1 1
1.00073 1.00052 1.00167 0.998549
1.01759 1.01947 1.00128 0.99688
1 1 1 1
1.00345 1 1.00455 0.998909
1 1 1 1
1.04188 1.0463 1 0.995776
1.02506 1.02853 1.00049 0.996131
1.0215 1.02351 1.00157 0.99646
1.01257 1.015 1.00059 0.997017
1.00705 1.00631 1.00367 0.997072
1.01135 1.00723 1.0065 0.997609
1.00508 1 1.00769 0.997409
1.01194 1.00103 1.0129 0.998021
1.0056 1 1.00627 0.99934
1.01307 1 1.01478 0.998321
1.00376 1 1.0042 0.999563
1 1 1 1
1 1 1 1
1.00043 1 1.00069 0.999742
1 1 1 1
0.895038 0.966116 0.941594 0.983894
0.870849 0.970149 0.935693 0.959336
0.684492 0.808121 0.90746 0.933392
1.05703 1.06144 1.00007 0.995778
1.01695 1.00246 1.01744 0.997059
1.01114 1.01287 1.00208 0.99621
1.00128 1.0083 0.996168 0.996858
1.0316 1.03555 1.00042 0.995762
1.01696 1.02101 0.999223 0.996812
1.00015 1.01009 0.993397 0.996745
0.977765 1.00279 0.976593 0.998418
0.995025 1.00597 0.991887 0.997211
0.962963 1.00249 0.96302 0.997453
1.02078 1.02176 1.00259 0.996466
0.98327 1.00766 0.978505 0.997234
0.991985 1.00219 0.992667 0.997129
0.968527 1.00134 0.969307 0.997862
0.947397 1.00558 0.944909 0.997066
0.862773 0.958077 0.917985 0.98098
0.842444 0.95785 0.915856 0.960321
0.86429 0.936167 0.937419 0.984855
0.962698 1.0039 0.961256 0.997606
0.987137 0.99999 0.989122 0.998003
0.966895 1.01076 0.962595 0.99377
0.893667 0.957707 0.947686 0.984642
0.870241 0.971524 0.932792 0.960286
0.94083 0.997282 0.946722 0.996484
0.921768 0.988873 0.945506 0.985864
0.950253 1.02741 0.927834 0.996842
0.967786 1.02451 0.949001 0.995396
0.990717 1.0557 0.94118 0.997098
1.05754 1.10415 0.960653 0.997014
0.974438 1.03641 0.94267 0.997386
1.01374 1.08389 0.937796 0.997316
1.04468 1.10368 0.949306 0.997086
1.03841 1.08376 0.960732 0.997315
1.04725 1.08586 0.967119 0.997232
1.06305 1.09857 0.970601 0.996973
1.04527 1.07841 0.97195 0.997247
1.05853 1.08711 0.976536 0.997106
1.06497 1.08708 0.982794 0.99681
1.05254 1.07645 0.980611 0.997123
1.06151 1.08242 0.983779 0.996857
1.06543 1.08056 0.989407 0.996551
1.05971 1.07552 0.988422 0.996846
1.06575 1.07612 0.993879 0.996469
1.07337 1.07887 0.998756 0.996135
1.06909 1.0745 0.998818 0.996141
1.07151 1.07616 0.999721 0.995959
1.06866 1.07319 1 0.995781
1.04617 1.05009 1 0.996271
1.06688 1.07152 1 0.995666
1.07492 1.07964 1 0.995629
1.00886 1.01072 1 0.998154
1.03663 1.04044 1 0.996337
1.06218 1.06683 1 0.995636
1 1 1 1
1.00328 1.00493 1.0001 0.998258
1.02403 1.02759 1 0.996535
1 1 1 1
1.0006 1.00125 1.00083 0.998526
1 1 1 1
1.05781 1.06247 1 0.995618
1.04167 1.0461 1 0.995768
1.04441 1.04857 1 0.996032
1.0258 1.02951 1.00024 0.996162
1.02573 1.0278 1.00156 0.99643
1.0185 1.01833 1.00296 0.99721
1.00774 1.00779 1.00296 0.997
1.0092 1.00449 1.00709 0.997613
1.00304 1 1.00396 0.999092
1.01262 1.00025 1.01438 0.998021
1.00528 1 1.00593 0.999354
1 1 1 1
1.00321 1 1.00364 0.999575
1 1 1 1
1 1 1 1
0.954577 1.01057 0.947888 0.996528
0.886987 0.965524 0.936935 0.980494
0.869934 0.967771 0.930538 0.966006
1.05279 1.05663 1 0.99637
1.06643 1.07335 0.997487 0.996049
1.05577 1.06011 1.00004 0.995873
1.00153 1.00858 0.996125 0.996869
1.02957 1.03322 1.00073 0.995743
1.02007 1.02497 0.998415 0.996803
1.04465 1.05998 0.989119 0.996386
0.994491 1.00777 0.989573 0.997226
0.957934 1.00191 0.958689 0.997308
1.02352 1.02519 1.00176 0.996611
1.02569 1.05527 0.975501 0.996377
0.983902 1.03027 0.957511 0.997369
0.992337 1.01083 0.984493 0.997164
0.993291 1.00273 0.993451 0.997113
0.947921 1.00695 0.943814 0.997423
0.870206 0.962388 0.923332 0.979297
0.963045 1.00311 0.961229 0.998787
1.0385 1.07693 0.966701 0.997536
0.963217 1.00956 0.959919 0.993932
0.896458 0.965403 0.945437 0.982176
0.95332 1.02972 0.928568 0.997022
0.97285 1.0248 0.953307 0.995799
0.984791 1.05589 0.935195 0.997297
1.05425 1.1029 0.958731 0.997044
1.05535 1.11626 0.948242 0.997039
1.10186 1.14274 0.966932 0.997203
1.02031 1.08659 0.941546 0.997297
1.0509 1.10673 0.952326 0.997087
1.06477 1.10818 0.963821 0.996897
1.04321 1.08363 0.965379 0.997229
1.06301 1.09798 0.971092 0.996975
1.06399 1.09225 0.977274 0.996781
1.05596 1.08509 0.975967 0.99712
1.06598 1.08803 0.982868 0.996807
1.0672 1.08421 0.987702 0.996564
1.06197 1.08284 0.983824 0.996855
1.06603 1.08112 0.989455 0.996548
1.07523 1.08348 0.996154 0.996216
1.06561 1.07632 0.993514 0.996515
1.07268 1.07839 0.998555 0.996147
1.07319 1.07767 1 0.995843
1.07158 1.07605 0.999893 0.995955
1.06834 1.07285 1 0.995792
1.04656 1.05049 1 0.996255
1.01504 1.01692 1 0.99815
1.04596 1.04987 1 0.996272
1.06668 1.07134 1 0.995659
1 1 1 1
1.01045 1.01233 1 0.998143
1.0338 1.0376 1 0.996337
1 1 1 1
1.0052 1.00697 1 0.998242
1 1 1 1
1.06757 1.07239 0.999743 0.995765
1.05699 1.06163 1 0.995633
1.05913 1.06358 1 0.995814
1.04085 1.04528 1 0.995759
1.04552 1.04969 1 0.996032
1.02463 1.02735 1.0005 0.996857
1.02962 1.03171 1.00158 0.9964
1.01441 1.01416 1.00303 0.997212
1.00091 1.00044 1.00171 0.99876
1.00755 1.00245 1.00749 0.99762
1.00359 1 1.00448 0.999111
1 1 1 1
1.00463 1 1.00527 0.999368
1 1 1 1
1 1 1 1
0.991525 1.05475 0.942211 0.997712
0.952165 1.0091 0.948008 0.995324
0.889597 0.968364 0.936106 0.981363
1.05942 1.07086 0.993001 0.996296
1.05212 1.05603 0.999702 0.996592
1.07536 1.08743 0.992651 0.996222
1.06596 1.07409 0.996392 0.996028
1.05416 1.05846 0.999965 0.995969
1.06669 1.09362 0.979093 0.996202
1.02351 1.02919 0.99768 0.996794
1.04317 1.05749 0.990095 0.996324
1.04904 1.0977 0.959006 0.996521
1.0217 1.02829 0.996819 0.996757
1.02665 1.05633 0.975522 0.996284
0.982192 1.03534 0.951126 0.997413
0.997872 1.01232 0.988609 0.99709
0.948365 1.00762 0.943341 0.997728
1.08782 1.13307 0.962719 0.99724
1.04498 1.08029 0.969681 0.997563
0.962354 1.00792 0.960458 0.994101
0.979426 1.05562 0.93015 0.997492
1.05119 1.10186 0.956817 0.997075
1.04882 1.11285 0.945244 0.997061
1.10826 1.14823 0.9679 0.9972
1.08237 1.12325 0.966418 0.997085
1.05688 1.10926 0.955563 0.997087
1.06561 1.10716 0.965459 0.996908
1.06456 1.09651 0.973952 0.996831
1.06303 1.09736 0.971652 0.996976
1.06465 1.09244 0.97773 0.996762
1.0663 1.08553 0.985678 0.99656
1.06701 1.089 0.982953 0.996803
1.06758 1.08459 0.987721 0.996559
1.07539 1.08668 0.993316 0.996272
1.06662 1.08167 0.989503 0.996545
1.07499 1.08324 0.996149 0.996216
1.07845 1.08294 0.999958 0.995894
1.07204 1.07796 0.998343 0.996158
1.07295 1.07742 1 0.995849
1.04722 1.05119 1 0.996227
1.06788 1.07238 1 0.995804
1.04751 1.05145 1 0.996256
1.01566 1.01717 1 0.998514
0.999362 1 1 0.999362
1.01531 1.01704 1 0.998302
1.04555 1.04946 1 0.996273
1 1 1 1
1.01261 1.0145 1 0.998133
1 1 1 1
1.07835 1.08935 0.993543 0.996343
1.07158 1.07772 0.998255 0.996035
1.06732 1.07262 0.999261 0.995793
1.05994 1.06443 1 0.995782
1.05692 1.06154 1 0.995649
1.05774 1.06219 1 0.995805
1.02812 1.03167 1 0.996564
1.04678 1.05096 1 0.996031
1.02294 1.02551 1.00065 0.996856
1.00293 1.00442 1.00012 0.998397
1.00992 1.00967 1.00304 0.997214
1.00144 1.00034 1.00233 0.99878
1 1 1 1
1.00392 1 1.0048 0.999131
1 1 1 1
1 1 1 1
1.07385 1.12474 0.957652 0.996977
1.00146 1.0654 0.94214 0.99771
0.948857 1.0093 0.945649 0.994145
1.06805 1.08831 0.985073 0.996262
1.05489 1.06687 0.992404 0.996338
1.05147 1.05541 0.999447 0.996811
1.0743 1.08535 0.993559 0.996236
1.06545 1.07469 0.99538 0.996007
1.07272 1.11151 0.968493 0.9965
1.06125 1.08886 0.978392 0.996159
1.04207 1.05546 0.991015 0.996261
1.04406 1.09212 0.95933 0.996522
1.03245 1.06011 0.977632 0.996191
0.983306 1.04473 0.943592 0.997468
1.07817 1.11309 0.971356 0.997194
1.08909 1.13389 0.963106 0.997279
1.05092 1.08432 0.971538 0.99759
1.04263 1.10995 0.942101 0.997079
1.11497 1.15388 0.968992 0.997198
1.08406 1.12537 0.966105 0.997088
1.07198 1.09758 0.979656 0.996957
1.06642 1.10609 0.967114 0.996918
1.06524 1.09636 0.974716 0.996814
1.06742 1.08665 0.98564 0.996611
1.06535 1.09267 0.978187 0.996742
1.06698 1.08619 0.985713 0.996558
1.07413 1.08691 0.991906 0.996305
1.068 1.085 0.987741 0.996555
1.07535 1.08662 0.993336 0.99627
1.0813 1.08626 0.999506 0.995931
1.07469 1.08295 0.996143 0.996216
1.07874 1.08326 0.999927 0.995898
1.04792 1.05195 1 0.996172
1.07272 1.07719 1 0.995856
1.04869 1.05266 1 0.996229
1.01417 1.01566 1 0.998537
1.04873 1.05267 1 0.996257
1.01526 1.01678 1 0.998507
0.999395 1 1 0.999395
0.999697 1 1 0.999697
1.01566 1.01722 1 0.998469
1 1 1 1
1.06926 1.08634 0.987871 0.996359
1.07431 1.08097 0.997689 0.996146
1.07625 1.08782 0.992858 0.996474
1.0687 1.07317 1 0.99584
1.07399 1.07982 0.998566 0.996029
1.06703 1.07288 0.99872 0.99582
1.06061 1.06512 1 0.99577
1.04128 1.04505 1 0.996391
1.05716 1.06162 1 0.995796
1.03198 1.03554 1 0.996565
1.01064 1.01246 1 0.998201
1.0218 1.02449 1.00052 0.996856
1.00195 1.00296 1.00057 0.99842
1 1 1 1
1.00177 1 1.00297 0.998801
1 1 1 1
1 1 1 1
1.07226 1.10886 0.970035 0.996859
1.06541 1.11524 0.958215 0.996979
1.01014 1.07316 0.943451 0.997701
1.06947 1.09604 0.979258 0.996434
1.06542 1.08588 0.98484 0.996257
1.05014 1.06271 0.99176 0.996383
1.073 1.08319 0.994317 0.996249
1.07242 1.11021 0.969385 0.996474
1.05512 1.08326 0.977821 0.996117
1.03481 1.08135 0.960296 0.996523
1.07544 1.09999 0.980599 0.997022
1.07698 1.11139 0.971804 0.99715
1.09008 1.1343 0.963596 0.997317
1.0709 1.09057 0.985051 0.996864
1.08552 1.12739 0.965675 0.997092
1.07159 1.09731 0.979553 0.996942
1.0696 1.08717 0.987067 0.996727
1.06592 1.0962 0.975498 0.996797
1.0677 1.08695 0.985623 0.996613
1.07363 1.08569 0.992522 0.996337
1.06762 1.0868 0.985749 0.996557
1.07426 1.08702 0.991935 0.996304
1.08192 1.08748 0.998916 0.995967
1.07524 1.08649 0.993358 0.996268
1.08137 1.08639 0.999441 0.995934
1.04676 1.05084 1 0.996118
1.07902 1.08358 0.999897 0.995903
1.04897 1.053 1 0.996175
1.01203 1.01354 1 0.998512
1.05016 1.05413 1 0.996231
1.01351 1.01501 1 0.998521
0.999396 1 1 0.999396
1.01475 1.01627 1 0.998504
0.999411 1 1 0.999411
1 1 1 1
1.06791 1.08573 0.987275 0.99627
1.07458 1.08552 0.993736 0.996165
1.07119 1.08759 0.988519 0.996357
1.07708 1.0815 0.999987 0.995927
1.07488 1.08281 0.99646 0.9962
1.07433 1.08643 0.992231 0.996604
1.05176 1.05567 1 0.996298
1.0689 1.07338 1 0.995828
1.07665 1.08207 0.998971 0.996022
1.06116 1.06568 1 0.995759
1.04202 1.04579 1 0.99639
1.01658 1.01845 1 0.998167
1.03444 1.038 1 0.996566
1.00801 1.00981 1 0.998218
1 1 1 1
1.001 1.00153 1.00103 0.998441
1 1 1 1
1 1 1 1
1.07102 1.09566 0.980706 0.996748
1.07318 1.11051 0.96945 0.996836
1.05946 1.10897 0.958251 0.996982
1.06912 1.09555 0.979352 0.996452
1.06269 1.08338 0.984595 0.996253
1.07314 1.11012 0.970135 0.996449
1.07306 1.09199 0.985764 0.996862
1.07544 1.09981 0.980764 0.997018
1.0759 1.10979 0.972273 0.997107
1.07117 1.09056 0.985293 0.996885
1.06826 1.08333 0.989362 0.996691
1.07118 1.09705 0.979425 0.996927
1.07009 1.08708 0.987636 0.996689
1.07257 1.08426 0.992762 0.996431
1.068 1.08727 0.985608 0.996616
1.07358 1.08567 0.992495 0.99634
1.08127 1.08707 0.998662 0.995992
1.07451 1.08724 0.991959 0.996304
1.08155 1.08719 0.998842 0.995969
1.045 1.0491 1 0.996091
1.08156 1.08665 0.999375 0.995937
1.04758 1.05165 1 0.996121
1.00959 1.01115 1 0.998461
1.05006 1.05409 1 0.996179
1.01128 1.01281 1 0.998491
0.99937 1 1 0.99937
1.01284 1.01435 1 0.99851
0.999426 1 1 0.999426
0.999421 1 1 0.999421
1.06945 1.08682 0.987429 0.996541
1.07518 1.08654 0.9934 0.996126
1.06743 1.08656 0.986041 0.996295
1.07953 1.08557 0.998458 0.995975
1.07504 1.08524 0.994438 0.996149
1.07306 1.0888 0.989146 0.996356
1.05189 1.05586 1 0.996244
1.07625 1.08131 0.999388 0.995936
1.0753 1.08462 0.995137 0.996254
1.01633 1.01817 1 0.998189
1.0503 1.0542 1 0.996297
1.06911 1.0736 1 0.995817
1.043 1.04678 1 0.996389
1.01529 1.01714 1 0.998177
1 1 1 1
1.00581 1.00758 1 0.998235
1 1 1 1
1 1 1 1
1.06969 1.08804 0.986334 0.996752
1.07123 1.09578 0.980802 0.996737
1.07343 1.11147 0.968863 0.996812
1.06908 1.09526 0.979555 0.996469
1.06918 1.0818 0.991662 0.996649
1.07312 1.09222 0.985595 0.996873
1.07544 1.09964 0.980925 0.997013
1.07151 1.09057 0.985567 0.996906
1.06834 1.08379 0.989012 0.9967
1.07326 1.08367 0.993957 0.996415
1.07061 1.087 0.988233 0.996652
1.07353 1.08448 0.993494 0.996379
1.07941 1.08578 0.998053 0.996072
1.07355 1.08566 0.992471 0.996342
1.08063 1.08647 0.998626 0.995994
1.04345 1.04756 1 0.996077
1.0809 1.08661 0.998771 0.99597
1.0457 1.04981 1 0.996093
1.00688 1.0088 1 0.998099
1.04824 1.05232 1 0.996125
1.00871 1.01043 1 0.99829
1 1 1 1
1.01053 1.01207 1 0.998471
0.999406 1 1 0.999406
0.999447 1 1 0.999447
1.06897 1.08297 0.990394 0.996645
1.07427 1.08598 0.992915 0.996269
1.06987 1.08628 0.988321 0.996534
1.07932 1.08547 0.998386 0.995943
1.07464 1.08608 0.993313 0.996126
1.06701 1.08745 0.98482 0.996321
1.04799 1.05202 1 0.996161
1.07948 1.08525 0.9987 0.995976
1.07559 1.08499 0.995182 0.996134
1.01284 1.01465 1 0.998212
1.05033 1.05431 1 0.996225
1.07517 1.08077 0.998863 0.995946
1 1 1 1
1.01696 1.01879 1 0.998198
1.04873 1.05263 1 0.996296
1.01389 1.01573 1 0.998188
1 1 1 1
1 1 1 1
1.06782 1.07993 0.992105 0.996652
1.0705 1.08841 0.986743 0.996758
1.07131 1.09576 0.980894 0.996725
1.0742 1.08337 0.995167 0.996356
1.06835 1.08149 0.991163 0.996659
1.07318 1.09247 0.985415 0.996885
1.06836 1.08423 0.988614 0.99671
1.07315 1.08368 0.99385 0.996415
1.07892 1.08504 0.998278 0.996074
1.07441 1.08464 0.994216 0.996326
1.07954 1.08559 0.99839 0.99603
1.04156 1.04566 1 0.996084
1.08009 1.08597 0.998583 0.995996
1.04406 1.04817 1 0.996078
1.00477 1.00669 1 0.998089
1.04667 1.05078 1 0.996095
1.00627 1.00819 1 0.998097
1 1 1 1
1.00787 1.00979 1 0.99809
0.999675 1 1 0.999675
0.999437 1 1 0.999437
1.06529 1.07748 0.992043 0.996612
1.07486 1.08415 0.995052 0.996356
1.06845 1.08232 0.990506 0.996653
1.07903 1.08452 0.999 0.99594
1.07485 1.08628 0.993195 0.996256
1.07021 1.08565 0.989209 0.996527
1.04487 1.04896 1 0.996101
1.0795 1.08516 0.998856 0.995923
1.07403 1.08558 0.993205 0.996126
1.00937 1.0112 1 0.998189
1.04713 1.05118 1 0.996151
1.07935 1.08492 0.998884 0.995976
1 1 1 1
1.01398 1.01579 1 0.99822
1.04907 1.05307 1 0.996206
1 1 1 1
1.01763 1.01946 1 0.998208
1 1 1 1
1.07494 1.08369 0.995519 0.99639
1.06709 1.07928 0.992035 0.996639
1.07126 1.08871 0.987167 0.996764
1.07889 1.08486 0.998431 0.996067
1.07375 1.08329 0.994799 0.996374
1.06753 1.08119 0.990665 0.996669
1.07306 1.08368 0.993762 0.996416
1.07834 1.08453 0.998204 0.996075
1.03892 1.043 1 0.996095
1.07971 1.08544 0.998725 0.995989
1.04222 1.04632 1 0.996072
1.00298 1.00491 1 0.998072
1.04455 1.04866 1 0.996078
1.00418 1.0061 1 0.998087
1 1 1 1
1.00555 1.00747 1 0.998095
1 1 1 1
0.999409 1 1 0.999409
1.07497 1.08351 0.99574 0.996364
1.06435 1.07735 0.99127 0.996628
1.07885 1.08412 0.999133 0.996
1.07525 1.08456 0.995035 0.996356
1.06794 1.08169 0.9906 0.996661
1.04239 1.04648 1 0.996091
1.07933 1.0847 0.999108 0.995936
1.07554 1.08667 0.993487 0.996244
1.00646 1.00834 1 0.998136
1.04457 1.04867 1 0.996096
1.07973 1.08489 0.999338 0.995903
1 1 1 1
1.0103 1.01213 1 0.998195
1.04635 1.0504 1 0.996142
1 1 1 1
1.01508 1.01688 1 0.998228
1 1 1 1
1.07894 1.08464 0.99866 0.996082
1.07499 1.08359 0.995668 0.99638
1.06636 1.07863 0.991976 0.996625
1.03685 1.0409 1 0.996114
1.07834 1.08433 0.998403 0.996068
1.07325 1.08317 0.994429 0.996393
1.07778 1.08402 0.998159 0.996075
1.03967 1.04377 0.999984 0.996091
1.0016 1.00354 1 0.998074
1.04286 1.04699 1 0.996061
1.00255 1.00449 1 0.99807
1 1 1 1
1.00362 1.00555 1 0.998086
1 1 1 1
1 1 1 1
1.07946 1.08456 0.99926 0.996034
1.07457 1.08356 0.995273 0.996413
1.06347 1.07729 0.990494 0.996644
1.04011 1.04416 1 0.996114
1.07917 1.08437 0.999203 0.995997
1.07561 1.08495 0.995021 0.996355
1.00389 1.0058 1 0.998101
1.04172 1.04581 1 0.996088
1.07957 1.08483 0.999215 0.995933
1 1 1 1
1.00724 1.00912 1 0.998139
1.04425 1.04835 1 0.996092
1 1 1 1
1.01118 1.013 1 0.9982
1 1 1 1
1.03656 1.0406 1 0.996117
1.07844 1.08421 0.998584 0.996084
1.07507 1.08353 0.995807 0.99637
1.00045 1.00234 1 0.998113
1.03751 1.04156 1 0.996111
1.07779 1.08381 0.998373 0.996068
1.0404 1.04454 0.999949 0.996087
1.00124 1.00317 1 0.998075
1 1 1 1
1.00215 1.00409 1 0.998068
1 1 1 1
1 1 1 1
1.03776 1.04179 1 0.996128
1.07896 1.08431 0.998998 0.996066
1.07413 1.08357 0.994811 0.996463
1.00196 1.00352 1 0.998445
1.03936 1.04342 1 0.996113
1.07938 1.08451 0.999275 0.995994
1 1 1 1
1.00459 1.0065 1 0.998102
1.04107 1.04517 1 0.996086
1 1 1 1
1.00803 1.00991 1 0.998143
1 1 1 1
0.999829 1.00174 1 0.998092
1.03658 1.04062 1 0.996122
1.07796 1.08381 0.998512 0.996086
1 1 1 1
1.00023 1.00212 1 0.998111
1.03819 1.04224 0.999999 0.996107
1.00087 1.0028 1 0.998074
1 1 1 1
1 1 1 1
1.00054 1.00211 1 0.998427
1.03758 1.04161 1 0.996129
1.07856 1.08416 0.998734 0.996097
1 1 1 1
1.00231 1.00421 1 0.998104
1.03881 1.04287 1 0.996113
1 1 1 1
1.00528 1.00719 1 0.998103
1 1 1 1
0.999414 1 1 0.999414
1.00006 1.00178 1 0.998281
1.03658 1.04061 1 0.996128
1 1 1 1
0.999986 1.00188 1 0.998113
1 1 1 1
0.999419 1 1 0.999419
1.00075 1.00248 1 0.998277
1.03727 1.0413 1 0.99613
0.999701 1 1 0.999701
1.00291 1.00481 1 0.998108
1 1 1 1
1 1 1 1
0.999965 1.00183 1 0.998135
1 1 1 1
0.999711 1 1 0.999711
1.00102 1.00289 1 0.998131
1 1 1 1
1 1 1 1
1 1 1 1

VECTORS lamdaE float
1.00279 0.999778 0.992323
1.00222 1.00072 0.996133
1.00223 0.999953 0.99275
1.00245 1.0001 0.992404
1.0027 0.999831 0.992382
1.00285 0.999888 0.992196
1.00358 1.00068 0.989461
1.00228 1.0008 0.996065
1.00181 1.00005 0.996838
1.0015 1.00077 0.996834
1.00189 1.00128 0.991805
1.00349 1.00157 0.987392
1.00177 0.999963 0.993313
1.00144 1.00009 0.993547
1.0017 1.00016 0.99315
1.00202 1.00011 0.992851
1.00217 1.00024 0.992595
1.00222 0.999881 0.992818
1.00385 1.00059 0.989225
1.00185 1.00001 0.996444
1.00225 1.00014 0.992585
1.00258 0.999979 0.992387
1.00347 1.00029 0.990089
1.00357 1.00044 0.989753
1.00273 1.00017 0.992036
1.00356 1.00114 0.989022
1.00542 1.00138 0.985112
1.00235 1.00084 0.995987
1.0021 0.999955 0.994763
1.00189 1.00046 0.994698
1.00226 1.00126 0.995909
1.00347 1.00166 0.987348
1.00228 0.999853 0.992689
1.00232 0.99992 0.992636
1.00383 1.00045 0.989917
1.00066 1.00273 0.996658
1.00375 1.00108 0.989537
1.00355 1.00224 0.986597
1.00529 1.00296 0.983181
1.00081 1.00112 0.996924
1.0018 0.999988 0.996469
1.00173 1.00005 0.994954
1.00173 0.999965 0.996531
1.00127 1.00008 0.993758
1.00341 0.999867 0.989464
1.00168 1.00001 0.996841
1.00377 1.00019 0.990321
1.00161 1.00008 0.993297
1.00176 0.999918 0.99324
1.00157 1.00057 0.992979
1.00409 1.00048 0.989005
1.00162 1.00004 0.995046
1.00183 1.00018 0.993031
1.00214 1.00063 0.992376
1.00214 0.999973 0.99283
1.00369 1.00024 0.989846
1.00386 1.00097 0.988797
1.0038 1.00037 0.989513
1.00543 1.00133 0.985229
1.00174 0.99999 0.9965
1.00209 1.00009 0.992849
1.00319 0.999937 0.991239
1.00335 1.00019 0.990341
1.00351 1.00034 0.98996
1.00533 0.999798 0.986945
1.0054 1.00016 0.986321
1.00279 1.00067 0.991525
1.00344 1.00209 0.988217
1.00544 1.0022 0.98418
1.0054 0.998927 0.986863
1.0025 0.999921 0.996205
1.00215 1.00132 0.995945
1.00233 1.0004 0.996167
1.00344 1.00168 0.987303
1.00236 0.999915 0.996204
1.00245 1.00002 0.996214
1.00366 1.00045 0.98832
1.001 1.002 0.994385
1.00354 1.00102 0.987911
1.00355 1.00251 0.987586
1.00532 1.0029 0.983144
1.00122 1.00147 0.996471
1.00148 1.00307 0.989339
1.00378 1.00032 0.988355
1.00381 1.00049 0.988098
1.00533 1.0002 0.986
1.00292 1.00344 0.988887
1.00536 1.00172 0.984318
1.00469 1.00405 0.982765
1.00544 1.00127 0.984384
1.00048 1.00043 0.997383
1.00061 1.00096 0.997094
1.00213 1 0.996267
1.00187 0.999986 0.996436
1.00176 0.999968 0.996524
1.0016 1 0.995101
1.00344 0.999865 0.990198
1.00193 1 0.994824
1.00364 1.00021 0.989588
1.00175 0.999968 0.996538
1.00326 0.999727 0.989769
1.00366 1.00006 0.99061
1.00538 0.998216 0.988108
1.00377 1.00025 0.990184
1.00539 0.998727 0.98758
1.00179 0.999964 0.993284
1.0014 1.0002 0.993481
1.00148 1.00104 0.992707
1.00171 0.999946 0.99327
1.00389 1.00022 0.989605
1.00402 1.00033 0.989279
1.00412 1.00088 0.988579
1.00544 1.00129 0.985342
1.00178 0.999974 0.996518
1.00168 1.00009 0.993294
1.00341 0.999823 0.990078
1.00356 1.00015 0.990096
1.00236 1.00131 0.993688
1.00376 1.00188 0.988442
1.00373 1.00029 0.989718
1.00534 0.999505 0.987311
1.00545 1.00219 0.984315
1.00541 1.00044 0.986117
1.00539 0.998963 0.986879
1.00328 0.999767 0.989701
1.00325 0.999964 0.99067
1.0054 0.998013 0.988787
1.00536 0.99879 0.988
1.00533 0.999622 0.987158
1.00536 0.996369 0.989823
1.00154 1.00171 0.996263
1.00541 0.997794 0.987963
1.00339 1.00309 0.986099
1.00548 1.00323 0.982346
1.00541 1.00013 0.985705
1.00537 0.996097 0.989515
1.00187 1.00363 0.987987
1.0031 1.00435 0.985858
1.00242 0.999909 0.996203
1.0025 1.00007 0.9962
1.00366 1.00046 0.988294
1.0014 1.00161 0.996395
1.00313 1.00276 0.98675
1.00359 1.00094 0.987886
1.00537 1.00287 0.983102
1.00104 1.00147 0.996668
1.00154 1.00322 0.989323
1.00379 1.00037 0.989183
1.00385 1.00057 0.988894
1.00532 1.00021 0.985962
1.00234 1.0035 0.987176
1.00535 1.00175 0.984278
1.00498 1.00371 0.982742
1.00542 1.00101 0.984679
1.00192 1.00333 0.988329
1.00118 1.00269 0.990505
1.00251 1.00353 0.986809
1.00529 0.999622 0.986684
1.00536 1.00089 0.985197
1.00536 0.997274 0.988736
1.00367 1.00415 0.98422
1.00531 0.999308 0.98672
1.00544 1.00319 0.982901
1.00549 0.998674 0.986574
1.00027 0.999664 0.997886
1.00029 1.0003 0.997603
1.00036 1.00089 0.997296
1.0013 1.00346 0.989388
1.00086 1.00156 0.996745
1.00231 0.99995 0.996209
1.00196 0.999998 0.996348
1.00344 1.00026 0.988918
1.00328 0.999873 0.98956
1.00175 0.999967 0.996512
1.00171 0.999962 0.99654
1.00324 0.999736 0.989767
1.00353 1.00003 0.989898
1.00537 0.998225 0.98812
1.00359 1.00033 0.988623
1.00536 0.998741 0.987574
1.00324 0.999693 0.989809
1.00538 0.998161 0.988178
1.00539 0.99839 0.987906
1.00529 0.994957 0.991714
1.00533 0.999148 0.987183
1.00522 0.99527 0.991333
1.00173 0.999971 0.996526
1.00123 1.00016 0.993737
1.00344 0.999767 0.989092
1.00378 1.00014 0.989849
1.00141 1.00214 0.996398
1.0041 1.00131 0.988672
1.00395 1.00026 0.989478
1.00535 0.999204 0.987676
1.00541 1.00071 0.98591
1.00544 1.00212 0.984459
1.00537 0.998997 0.986895
1.00327 0.999758 0.989705
1.00345 0.999985 0.990428
1.00541 0.997924 0.988631
1.00537 0.999107 0.987638
1.00183 1.00166 0.996075
1.00341 1.00281 0.987218
1.00536 1.00349 0.982787
1.00534 0.999642 0.987114
1.00533 0.996123 0.990203
1.0054 1.00002 0.985796
1.00541 0.998085 0.987807
1.00538 0.996142 0.989494
1.00199 1.00348 0.987963
1.00289 1.00426 0.985787
1.00539 0.998316 0.988006
1.00542 0.998358 0.988419
1.00529 0.995748 0.990838
1.00535 0.995481 0.990911
1.00539 0.99722 0.988806
1.0053 0.994948 0.991114
1.00275 1.00344 0.986723
1.00537 0.995237 0.990511
1.00549 1.004 0.982049
1.00552 1.00118 0.984152
1.00541 0.997831 0.987842
1.00537 0.995314 0.990368
1.00396 1.00397 0.984219
1.00159 1.00386 0.9887
1.00449 1.00392 0.983925
1.00361 1.00041 0.988441
1.00081 1.00139 0.996819
1.00141 1.00335 0.989312
1.00366 1.00057 0.988126
1.00532 1.00022 0.985927
1.00247 1.00348 0.987255
1.00535 1.00336 0.982714
1.00533 1.00178 0.984236
1.00539 1.00072 0.98498
1.0018 1.00346 0.988358
1.00092 1.00284 0.990504
1.00259 1.00402 0.986829
1.0053 0.99964 0.98665
1.00535 1.00092 0.98516
1.00535 0.997236 0.988748
1.00414 1.00376 0.984169
1.00532 0.999414 0.986608
1.00545 1.00307 0.982815
1.00546 0.998307 0.986895
1.00069 1.00232 0.991584
1.0031 1.00371 0.98587
1.00199 1.00471 0.987132
1.00277 1.00134 0.987652
1.00534 0.996319 0.989821
1.00533 0.99839 0.987574
1.00532 0.995106 0.990603
1.00502 1.00448 0.98204
1.00537 0.996464 0.989306
1.00532 1.00107 0.98506
1.0055 0.996945 0.988237
1.00044 1.00391 0.990515
1.00028 1.00136 0.993188
1.00022 0.99913 0.998133
1.00021 0.999539 0.997984
1.0002 1.00005 0.997789
1.00069 1.0025 0.991256
1.00036 1.00104 0.997203
1.00138 1.00332 0.989316
1.00111 1.00163 0.996571
1.00354 1.00036 0.988633
1.00338 1.00003 0.98925
1.00534 0.998756 0.987574
1.00536 0.998238 0.988133
1.00325 0.999748 0.989772
1.00176 0.999952 0.996539
1.00325 0.999693 0.989816
1.00537 0.998171 0.988184
1.00538 0.998408 0.987915
1.00529 0.994959 0.991717
1.00532 0.999161 0.987167
1.00526 0.995204 0.991335
1.00538 0.998206 0.988129
1.00531 0.99496 0.991711
1.00526 0.995025 0.991638
1.0051 0.994972 0.991792
1.00525 0.995677 0.990722
1.00517 0.994954 0.991551
1.00328 0.999756 0.989716
1.00366 0.999951 0.990186
1.00541 0.997811 0.988485
1.00539 0.999413 0.987276
1.00201 1.00174 0.995906
1.00367 1.00277 0.988078
1.00518 1.00351 0.983217
1.00534 0.999649 0.987069
1.0053 0.995871 0.990582
1.00541 0.99838 0.987652
1.00541 0.999939 0.985886
1.00539 0.996198 0.989473
1.00212 1.00337 0.98794
1.00279 1.00413 0.98572
1.0054 0.997976 0.988351
1.00541 0.998337 0.988419
1.00529 0.995734 0.990826
1.00531 0.995855 0.990538
1.00273 1.00349 0.986664
1.00509 1.004 0.982072
1.00556 1.00145 0.983903
1.00539 0.997247 0.988774
1.00532 0.994948 0.991115
1.00542 0.997593 0.988105
1.00535 0.995258 0.990474
1.00538 0.995298 0.990256
1.00391 1.00419 0.984196
1.00408 1.00408 0.983793
1.00142 1.00391 0.988675
1.00529 0.995667 0.990957
1.00531 0.9959 0.990527
1.00508 0.994995 0.991885
1.00521 0.994969 0.991382
1.00538 0.994951 0.990848
1.00531 0.994948 0.990948
1.00479 1.00391 0.982896
1.00536 0.994919 0.990657
1.00572 1.00306 0.98221
1.00551 0.999202 0.98603
1.00537 0.996525 0.989182
1.00542 0.995142 0.990343
1.00195 1.00163 0.989813
1.00538 1.0045 0.981675
1.00141 1.0047 0.987032
1.00508 1.00447 0.982113
1.0053 0.999654 0.986619
1.00074 1.00303 0.990503
1.00168 1.00365 0.988389
1.00261 1.00407 0.986837
1.00534 1.00094 0.985124
1.00534 0.9972 0.988759
1.00445 1.00332 0.984124
1.00543 1.00309 0.982719
1.00534 0.999526 0.986497
1.00543 0.997953 0.987217
1.00053 1.00242 0.991593
1.00334 1.00342 0.986022
1.00179 1.00479 0.986981
1.0034 1.00149 0.987742
1.00533 0.996268 0.989836
1.00534 0.998345 0.987574
1.00533 0.995096 0.990638
1.0052 1.00468 0.981875
1.00535 0.996743 0.989027
1.00531 1.00088 0.985056
1.00551 0.996788 0.98857
1.00042 1.00202 0.992323
1.00183 1.00512 0.987328
1.00368 1.00384 0.984245
1.00334 1.00252 0.987196
1.00301 1.0018 0.988344
1.00532 0.994877 0.990959
1.00534 0.995669 0.989952
1.00535 0.994858 0.990627
1.00517 1.00355 0.982889
1.00543 0.995446 0.989978
1.00519 0.999221 0.986702
1.00083 1.0045 0.989231
1.00027 1.0051 0.98965
1.00016 1.00319 0.99155
1.00023 1.004 0.990521
1.00021 1.00041 0.994974
1.00023 1.0012 0.993743
1.0004 0.99827 0.996482
1.00019 0.99906 0.998215
1.00018 0.999509 0.998054
1.00042 1.00171 0.992485
0.99997 1.00016 0.997875
1.00082 1.00246 0.991135
1.00059 1.00115 0.997033
1.00144 1.00317 0.989248
1.00137 1.00163 0.996378
1.0053 0.999176 0.987148
1.00536 0.998423 0.98792
1.0053 0.995158 0.991338
1.00528 0.994961 0.991719
1.00537 0.998182 0.988189
1.00324 0.999687 0.989819
1.00538 0.998212 0.988127
1.00531 0.994959 0.991709
1.00527 0.995008 0.991646
1.00511 0.994973 0.99177
1.00529 0.995607 0.990726
1.00516 0.994954 0.991562
1.00531 0.994967 0.991711
1.00513 0.994956 0.99178
1.0051 0.994982 0.991747
1.00527 0.994951 0.991501
1.00528 0.994894 0.991235
1.00527 0.994945 0.991156
1.0054 0.997641 0.988694
1.00541 0.998332 0.988419
1.0053 0.99573 0.990814
1.00527 0.996235 0.990164
1.00274 1.00344 0.9866
1.00487 1.00439 0.982097
1.0056 1.00167 0.98366
1.0054 0.997267 0.988741
1.00533 0.994947 0.991117
1.00534 0.995276 0.990437
1.00543 0.99734 0.988368
1.00539 0.99527 0.990143
1.00375 1.0044 0.984178
1.0037 1.00463 0.983661
1.00136 1.00411 0.988648
1.00529 0.995328 0.991325
1.00531 0.995911 0.990533
1.00508 0.994994 0.991829
1.00523 0.994969 0.991401
1.00461 1.00414 0.982968
1.0057 1.00308 0.982298
1.00554 0.999361 0.98571
1.00537 0.99499 0.990763
1.00532 0.994953 0.990913
1.00536 0.996385 0.989179
1.00537 0.994919 0.990642
1.00541 0.995102 0.990375
1.00513 1.00462 0.981725
1.00493 1.00485 0.981954
1.00209 1.00177 0.989849
1.00174 1.00426 0.987606
1.00509 0.994995 0.991876
1.00513 0.994977 0.991589
1.00524 0.994978 0.991523
1.00529 0.994948 0.991027
1.00534 0.994931 0.990748
1.00535 0.99496 0.990739
1.00567 1.00442 0.981131
1.00542 0.994892 0.990466
1.00557 1.00138 0.98378
1.00544 0.998379 0.986791
1.00532 0.99593 0.989629
1.00541 0.994926 0.990459
1.00281 1.00261 0.987842
1.00219 1.00039 0.990243
1.00538 1.00485 0.981078
1.00203 1.00507 0.986607
1.00452 1.00548 0.981875
1.00036 1.00246 0.991607
1.00533 0.996216 0.989852
1.00203 1.00509 0.986829
1.00325 1.00338 0.986188
1.00376 1.00155 0.987835
1.00535 0.9983 0.987573
1.00534 0.995081 0.990674
1.00531 1.00454 0.981716
1.00532 1.00073 0.985048
1.00534 0.997016 0.988748
1.00552 0.996633 0.988901
1.00034 1.002 0.992352
1.00156 1.00513 0.98733
1.00413 1.00367 0.984344
1.00311 1.00274 0.987079
1.00347 1.00143 0.98732
1.00532 0.994875 0.990989
1.00534 0.995639 0.989986
1.00534 0.994856 0.990636
1.00517 1.00359 0.982854
1.00545 0.995558 0.989813
1.00519 0.999286 0.987013
1.00127 1.00503 0.988105
1.00318 1.00505 0.986043
1.00371 1.00414 0.984233
1.00395 1.00229 0.986484
1.00461 1.00268 0.985694
1.00533 0.994851 0.99082
1.00536 0.994938 0.990387
1.00532 0.994839 0.990495
1.00503 1.00132 0.984846
1.00518 0.9977 0.98804
1.00068 1.00465 0.989241
1.00058 1.00514 0.988781
0.999603 1.0051 0.989743
1.0003 1.00464 0.990672
1.00021 1.00467 0.990588
1.00002 1.00275 0.992165
0.999986 1.0034 0.991567
1.00007 1.00001 0.995538
1.00006 1.00423 0.990525
1.00018 1.00037 0.995066
1.00029 0.997736 0.997001
1.0002 1.00113 0.994285
1.00021 0.998448 0.997502
1.00014 0.998868 0.9983
0.999916 1.00236 0.992681
1.00051 1.00141 0.992563
0.999921 0.999715 0.99824
1.00023 1.0003 0.997601
1.001 1.00234 0.991023
1.00078 1.00132 0.996875
1.00533 0.995535 0.99073
1.00527 0.99497 0.991653
1.00514 0.994953 0.991572
1.00511 0.994974 0.991749
1.00531 0.994957 0.991706
1.00539 0.998216 0.988126
1.00531 0.994965 0.991706
1.00513 0.994958 0.991786
1.0051 0.994983 0.991747
1.00527 0.994949 0.991473
1.00526 0.994891 0.991257
1.00527 0.994942 0.991164
1.00511 0.994966 0.99182
1.00529 0.994954 0.991555
1.00525 0.994958 0.99137
1.00531 0.994935 0.991423
1.0053 0.994913 0.991005
1.00531 0.994937 0.99107
1.0053 0.994984 0.991694
1.00531 0.995926 0.990538
1.00509 0.994993 0.991773
1.00524 0.994968 0.991421
1.0043 1.00436 0.98304
1.00569 1.00314 0.982379
1.00558 0.999475 0.985395
1.00535 0.995033 0.990679
1.00532 0.994958 0.990877
1.00537 0.994919 0.990627
1.00536 0.996244 0.989176
1.0054 0.995064 0.990408
1.00478 1.00477 0.981771
1.00479 1.00512 0.981793
1.00218 1.00176 0.989871
1.00148 1.00336 0.988189
1.00508 0.994994 0.991877
1.00514 0.994978 0.991631
1.00524 0.994977 0.991486
1.0053 0.994948 0.991025
1.00559 1.0044 0.981229
1.00559 1.00151 0.983614
1.00543 0.998376 0.986767
1.00534 0.994927 0.990785
1.00534 0.994955 0.990742
1.00533 0.995886 0.989642
1.00541 0.994891 0.990454
1.00539 0.994893 0.990577
1.00534 1.00487 0.981156
1.00453 1.00561 0.981879
1.00208 1.00487 0.986581
1.00237 1.00265 0.98814
1.00204 1.00118 0.990137
1.00527 0.994967 0.991485
1.00529 0.994959 0.991286
1.00535 0.994924 0.990758
1.00537 0.99495 0.990564
1.00553 1.00367 0.982008
1.00536 0.994864 0.99043
1.00543 1.0007 0.984013
1.00536 0.99788 0.987351
1.00537 0.995302 0.989884
1.00085 1.00509 0.988321
1.00341 1.00314 0.987784
1.00347 0.999231 0.989424
1.005 1.0051 0.981893
1.00277 1.0059 0.984728
1.00426 1.00589 0.982446
1.00027 1.00205 0.992378
1.00132 1.00516 0.987334
1.00532 0.994873 0.991019
1.00261 1.00307 0.986957
1.00499 1.00371 0.984444
1.00401 1.00093 0.986308
1.00533 0.995615 0.99002
1.00534 0.994853 0.990644
1.00515 1.00357 0.982837
1.0052 0.999382 0.987327
1.00548 0.995654 0.989646
1.0012 1.00506 0.98811
1.00248 1.00507 0.986058
1.00425 1.00447 0.983236
1.00396 1.00174 0.986642
1.00436 1.00203 0.985563
1.00533 0.994855 0.99082
1.00538 0.99494 0.990379
1.00534 0.994827 0.990464
1.00501 1.0013 0.985121
1.00518 0.997815 0.987917
1.00223 1.00511 0.987082
1.00174 1.00511 0.986279
1.00454 1.00276 0.984782
1.00233 1.00188 0.985952
1.00522 1.0013 0.986358
1.00535 0.994815 0.990646
1.00541 0.995524 0.989472
1.00538 0.994874 0.989902
1.00503 0.999813 0.986635
1.00509 0.998642 0.987466
1.00057 1.00469 0.989252
1.0009 1.00512 0.988631
0.999283 1.004 0.991475
0.999407 1.00509 0.989818
0.99975 1.00475 0.990564
0.999371 1.00475 0.990912
0.999682 1.0035 0.992088
0.999263 1.00506 0.990874
0.999711 1.00442 0.991108
1.00007 1.00253 0.992321
1.00004 1.00267 0.992155
1.00003 0.999656 0.995898
0.999883 1.00338 0.991578
1.00011 0.999864 0.9956
1.0002 0.997504 0.997355
1.00019 1.00022 0.995161
1.00025 0.997812 0.996971
0.999976 0.998587 0.998545
0.999954 1.00166 0.993295
1.0002 1.00178 0.992751
0.999714 0.999519 0.998401
1.0008 1.00114 0.992625
1.00001 0.999611 0.998137
1.00046 1.00054 0.997352
1.00523 0.994887 0.991278
1.0051 0.994984 0.991747
1.00527 0.994938 0.991172
1.00527 0.994946 0.991445
1.00513 0.99496 0.991793
1.00531 0.994963 0.991702
1.00511 0.994965 0.991852
1.00529 0.994955 0.991548
1.00525 0.994959 0.991384
1.0053 0.994931 0.991405
1.0053 0.994916 0.991008
1.00532 0.994932 0.991037
1.00528 0.994961 0.991523
1.00534 0.994939 0.991442
1.0053 0.994923 0.991337
1.00536 0.994876 0.990773
1.00508 0.994994 0.991878
1.00514 0.994978 0.991673
1.00524 0.994975 0.991449
1.00531 0.994949 0.991023
1.00555 1.00433 0.981329
1.00561 1.00166 0.983445
1.00543 0.998399 0.986741
1.00534 0.994923 0.990822
1.00533 0.994951 0.990746
1.00541 0.994889 0.990441
1.00533 0.995846 0.989653
1.00538 0.994859 0.990696
1.0054 1.00493 0.981231
1.00423 1.00558 0.981883
1.00275 1.00482 0.98655
1.00212 1.00268 0.988462
1.00235 1.0017 0.990022
1.00527 0.994968 0.991478
1.00529 0.994959 0.9913
1.00536 0.994932 0.990776
1.00555 1.00378 0.982015
1.00544 1.00091 0.983946
1.00534 0.997765 0.98736
1.00537 0.994952 0.990584
1.00535 0.995247 0.990042
1.00538 0.994847 0.990452
1.00047 1.00485 0.988602
1.00487 1.00489 0.981924
1.0041 1.00581 0.982182
1.00296 1.00568 0.984689
1.00322 0.999663 0.989997
1.0035 1.00241 0.987312
1.00533 0.994947 0.991377
1.00535 0.994928 0.991069
1.00537 0.994921 0.990586
1.00533 0.994926 0.990426
1.00524 1.00352 0.982773
1.00534 0.994763 0.99045
1.00526 1.00073 0.98474
1.00534 0.9969 0.987856
1.0001 1.00356 0.990305
1.00134 1.00548 0.98766
1.0044 1.00151 0.987622
1.0033 1.00284 0.986633
1.0043 1.00411 0.98381
1.00464 1.00573 0.981729
1.00105 1.00511 0.988114
1.00186 1.00507 0.986072
1.00533 0.994859 0.99082
1.00398 1.00127 0.986789
1.00496 1.00484 0.982224
1.00373 1.00241 0.985425
1.0054 0.994944 0.990373
1.00537 0.994815 0.990432
1.005 1.00135 0.985396
1.00517 0.99794 0.987795
1.00174 1.0051 0.987153
1.00255 1.00505 0.98588
1.00447 1.00299 0.984523
1.00359 1.00286 0.985511
1.00513 1.00154 0.985855
1.00535 0.994819 0.990643
1.00541 0.995395 0.98972
1.00536 0.995004 0.990093
1.00504 0.999716 0.986641
1.00501 0.998976 0.987196
0.99987 1.00481 0.988647
0.99958 1.00503 0.988071
1.00487 1.00034 0.986642
1.00407 1.00043 0.987406
1.00544 0.994763 0.990461
1.00534 0.994761 0.990416
1.00526 0.997394 0.987885
1.00519 0.999182 0.98668
1.00128 1.0051 0.988485
0.9995 1.00452 0.991101
0.99774 1.00433 0.994263
0.999398 1.00497 0.990548
0.998257 1.00511 0.991147
0.999789 1.00438 0.991053
0.99915 1.00396 0.992467
0.999381 1.00507 0.990966
0.998844 1.00101 0.995697
0.999243 1.00511 0.9912
0.999169 1.005 0.990766
0.999964 1.00428 0.990858
0.999975 1.00264 0.992301
1.00002 1.00255 0.9923
0.999956 0.999486 0.996093
0.999985 1.00276 0.992148
1.00004 0.999586 0.995927
1.00011 0.997411 0.997547
1.00011 0.999763 0.995662
1.00017 0.997561 0.997327
1.00014 0.997931 0.996927
1.00025 1.0004 0.994103
0.999967 1.0017 0.993215
0.999789 0.998643 0.998584
1.00022 1.00139 0.992827
0.999849 0.999518 0.998344
1.00016 0.999489 0.99798
1.00531 0.994919 0.991011
1.00525 0.99496 0.991398
1.00532 0.994927 0.991003
1.0053 0.994928 0.991387
1.00529 0.994956 0.991542
1.00511 0.994965 0.991884
1.00528 0.994958 0.99154
1.00533 0.994938 0.991435
1.00531 0.994928 0.991288
1.00534 0.994876 0.990807
1.00535 0.994942 0.991437
1.00531 0.994913 0.991412
1.00535 0.994883 0.991037
1.00526 0.994969 0.99147
1.00529 0.994959 0.991314
1.00536 0.994936 0.990794
1.00552 1.00384 0.982028
1.00545 1.00116 0.983881
1.00534 0.997644 0.987368
1.00537 0.994952 0.990603
1.0054 0.994851 0.990475
1.00536 0.995158 0.990202
1.00483 1.00478 0.981953
1.00445 1.00584 0.981933
1.00319 1.00562 0.984652
1.00056 1.00486 0.988884
1.0028 1.00034 0.990567
1.00315 1.00185 0.986834
1.00534 0.994952 0.991389
1.00535 0.99492 0.991034
1.00537 0.994921 0.990597
1.00527 1.00339 0.982725
1.00521 1.00062 0.984818
1.00535 0.996805 0.988156
1.00535 0.994927 0.9904
1.00536 0.994787 0.990409
1.00004 1.00394 0.99056
1.00124 1.00545 0.987603
1.00434 1.00389 0.983582
1.00443 1.00574 0.982069
1.00337 1.00348 0.986533
1.0039 1.00048 0.988046
1.00535 0.994918 0.991316
1.0054 0.994896 0.990695
1.00536 0.99489 0.990449
1.0053 0.994814 0.990308
1.00442 1.00222 0.984838
1.00535 0.994739 0.990184
1.00476 1.00011 0.986208
1.0001 1.00295 0.991811
1.00015 1.00332 0.991534
0.999717 1.00534 0.989199
1.00112 1.00518 0.987685
1.0025 1.00463 0.988111
1.00538 1.00237 0.983504
1.00357 1.0039 0.985312
1.00445 1.00299 0.985712
1.0014 1.00512 0.987229
1.0033 1.00511 0.985481
1.00536 0.994821 0.990639
1.0048 1.00293 0.985081
1.00443 1.00312 0.984267
1.00528 1.00169 0.985364
1.00541 0.995246 0.989968
1.00535 0.995132 0.990284
1.00506 0.999595 0.986645
1.00493 0.999263 0.986927
1.00077 1.00455 0.988217
1.00103 1.00514 0.987417
1.00488 1.00042 0.986339
1.00453 1.00105 0.986973
1.00542 0.994771 0.990466
1.00538 0.994783 0.990411
1.0052 0.997328 0.987975
1.00519 0.999312 0.986682
0.998386 1.00452 0.991805
1.00548 0.994745 0.990761
1.0023 1.00478 0.988475
1.00473 0.999344 0.987344
1.00537 0.994769 0.990688
1.00508 0.996933 0.987588
1.00509 1.00047 0.986039
0.999554 1.00458 0.99073
0.998032 1.00373 0.994379
0.996226 1.00379 0.996847
0.999626 1.00425 0.990998
0.999241 1.00509 0.991055
0.997773 1.00509 0.992876
0.999982 1.00409 0.990846
0.999323 1.005 0.99084
0.997259 1.00266 0.99629
0.999337 1.00502 0.991065
0.997122 1.00154 0.998431
0.997195 1.00437 0.994508
0.999169 1.00507 0.991276
1.00022 1.00476 0.989836
1.0003 1.00391 0.990518
1.00003 1.00252 0.992319
0.999986 1.00263 0.992281
0.999832 0.999566 0.996252
0.999957 1.00267 0.99228
0.999964 0.999532 0.996106
0.999983 0.997571 0.997671
1.00005 0.999511 0.995961
1.00011 0.997477 0.997534
1.00019 0.997618 0.997293
1.00018 1.00219 0.992464
1.00004 0.999956 0.994732
1.00016 1.0005 0.994057
0.999959 0.998267 0.998718
0.999983 1.00148 0.993138
0.999805 0.99908 0.998523
0.999978 0.999359 0.998288
1.00532 0.994873 0.99084
1.00531 0.994933 0.99124
1.00532 0.994936 0.991429
1.00528 0.994955 0.991556
1.00535 0.994941 0.991434
1.00531 0.994906 0.991408
1.00534 0.994885 0.990978
1.00535 0.994914 0.99137
1.00532 0.994876 0.991411
1.00561 0.994706 0.991244
1.00534 0.994955 0.991401
1.00535 0.994919 0.990998
1.00537 0.994923 0.990607
1.00535 1.00317 0.982679
1.00521 1.00052 0.984904
1.00533 0.996752 0.988449
1.00536 0.994917 0.990372
1.00537 0.994808 0.990367
1.00422 1.0043 0.983348
1.00406 1.00563 0.982382
1.00296 1.00526 0.986437
1.00024 1.00373 0.990823
1.00077 1.00542 0.987543
1.00364 0.999368 0.988462
1.00534 0.994921 0.991299
1.00025 1.00274 0.991774
0.999861 1.00371 0.99142
1.0054 0.994893 0.9907
1.00537 0.994894 0.990466
1.00464 1.00231 0.984788
1.00499 0.999547 0.986652
1.00527 0.994931 0.990142
1.00529 0.994846 0.990256
1.00026 1.00512 0.989336
1.00136 1.00516 0.987605
1.00316 1.00463 0.984959
1.0045 1.00293 0.984105
1.00503 1.00376 0.983022
1.00204 1.00301 0.988783
1.00541 0.994852 0.991179
1.00541 0.995073 0.990369
1.00534 0.994885 0.990447
1.00523 0.994893 0.989963
1.0033 1.0018 0.987331
1.00501 0.997021 0.989319
1.00016 1.00325 0.991334
0.99959 1.00416 0.990931
1.00105 1.00302 0.990918
1.00079 1.0052 0.988388
1.00102 1.00517 0.988347
1.00086 1.0024 0.989876
1.0031 1.00218 0.986627
1.00191 1.00045 0.991517
1.00102 1.00489 0.9878
1.00311 1.00509 0.986746
1.00539 0.994788 0.990472
1.00541 0.994808 0.990406
1.00497 1.00156 0.986527
1.00488 1.00056 0.986028
1.00513 0.997275 0.988067
1.00519 0.99944 0.986687
0.999146 1.00436 0.991764
1.00547 0.994727 0.990951
1.00135 1.00437 0.989299
1.0047 0.999667 0.987096
1.00538 0.994748 0.990779
1.00512 0.997132 0.987798
1.00512 1.00013 0.986004
0.998161 1.0046 0.994167
1.00505 0.994666 0.990372
1.00171 1.00347 0.989316
1.00433 1.0017 0.98513
1.00505 0.995346 0.990762
1.00353 1.0009 0.986881
0.998987 0.994755 0.982266
0.998239 1.00339 0.994463
0.997041 1.00282 0.996784
0.99588 1.00299 0.998106
1.00002 1.00396 0.990829
0.998995 1.00503 0.990921
0.999882 1.00507 0.990931
0.996211 1.00305 0.996888
1.00029 1.00392 0.990516
0.999959 1.00473 0.990113
0.995917 1.00133 0.999763
0.998961 1.00508 0.991201
0.997873 1.00441 0.99393
0.995217 1.00457 0.997818
0.998584 1.00513 0.992092
0.999384 1.00489 0.991323
1.00056 1.00402 0.990049
1.00032 1.00405 0.990101
1.00019 1.00515 0.990039
1.00005 1.00444 0.990142
0.999924 1.00267 0.992284
0.999969 1.00261 0.992302
0.999717 0.999523 0.99575
1 1.00253 0.992265
0.999821 0.999551 0.99593
0.999978 0.997542 0.999052
0.999963 0.999538 0.996124
1.00001 0.997513 0.997661
1.00012 0.997529 0.997514
0.999969 1.00171 0.993183
1.00024 1.00208 0.992498
1.0001 0.999265 0.995427
1.00008 0.999975 0.995106
0.999946 0.997837 0.998881
1.00007 1.00078 0.99401
0.999908 0.998249 0.99869
0.999857 0.999295 0.998437
1.00534 0.994886 0.990918
1.00532 0.994899 0.991403
1.00535 0.99494 0.991431
1.00535 0.994913 0.991372
1.00535 0.994861 0.99135
1.00563 0.994734 0.991195
1.00542 0.994853 0.991419
1.00079 0.994657 0.979969
1.00551 0.99474 0.98998
1.00014 1.0029 0.991785
1.00534 0.99492 0.991282
1.0054 0.994892 0.990706
1.00537 0.994901 0.990483
1.00475 1.00205 0.984726
1.00512 0.998984 0.987075
1.00505 0.995142 0.990072
1.00529 0.994859 0.990202
1.00352 1.00463 0.98467
1.00491 1.00464 0.982555
1.00456 1.00455 0.982506
1.00026 1.00281 0.99174
1.00235 1.00203 0.989408
1.00066 1.00494 0.989464
1.00147 1.00518 0.98753
0.999712 1.00382 0.991304
1.00541 0.994874 0.991174
1.00019 1.00303 0.9915
0.999995 1.00409 0.990962
1.00013 1.00358 0.991296
1.0054 0.994921 0.990387
1.00531 0.994874 0.990413
1.00278 1.00255 0.987364
1.00492 0.996464 0.989479
1.00525 0.994902 0.989975
1.00071 1.00521 0.988334
1.00124 1.00517 0.988506
1.00287 1.0009 0.990307
1.00339 1.00395 0.985866
1.00295 1.0006 0.989899
1.00548 0.994825 0.990772
1.00537 0.994888 0.990456
1.00526 0.994873 0.990236
1.0047 0.997384 0.989929
1.0023 0.99979 0.99026
1.00012 1.00232 0.992151
1.00082 1.00404 0.98891
0.999593 1.00347 0.991838
1.00098 1.00509 0.989153
1.00061 1.00373 0.991013
1.00012 1.0005 0.99306
1.00168 0.999127 0.993781
1.00062 1.00371 0.991658
0.999679 1.00422 0.990143
1.00548 0.994688 0.99113
1.00541 0.994727 0.990856
1.00516 0.997345 0.988007
1.00461 0.999968 0.986853
1.00514 0.99978 0.985979
0.997824 1.0047 0.995238
1.00464 0.994661 0.990536
1.00156 1.00338 0.989229
1.00461 1.00175 0.984977
1.00484 0.995276 0.991064
1.00394 1.00083 0.986937
0.998832 0.994742 0.980613
0.997415 1.00466 0.994656
1.00361 0.994721 0.990471
1.00246 1.00256 0.987049
1.00321 1.00047 0.98797
1.00339 0.997462 0.99166
0.999975 0.994854 0.936267
0.994884 0.994705 0.958746
0.996622 0.99557 0.985993
0.995794 0.994761 0.844114
0.9947 0.996231 0.803533
0.998061 1.00218 0.996747
0.996121 1.00311 0.998308
0.994935 1.00476 0.998428
1.00037 1.00384 0.99052
0.999801 1.00485 0.990389
0.999238 1.00505 0.991119
0.998333 1.00453 0.993312
0.995067 1.00157 1.00107
0.999158 1.00481 0.991616
1.00048 1.00391 0.990155
1.00042 1.00439 0.990016
0.995735 1.00406 0.997676
0.998271 1.00509 0.992567
0.998667 1.00502 0.992837
0.996532 1.00519 0.995145
0.999208 1.00449 0.991973
1.00043 1.00449 0.989479
1.00025 1.0044 0.98992
0.999711 1.00472 0.990403
0.999336 1.00419 0.99202
0.999205 1.00506 0.991433
0.999876 1.00513 0.990182
1.00005 1.0042 0.990529
1.00001 1.00445 0.990116
0.999877 1.00284 0.992217
0.999928 1.00271 0.992293
0.999673 0.999553 0.995805
0.999932 1.00272 0.99228
0.999702 0.999561 0.995753
0.999939 0.997529 0.99909
0.999801 0.999568 0.995615
0.999933 0.997546 0.99841
1.00005 0.99747 0.997647
0.999931 1.00128 0.993689
1.00007 1.0016 0.993201
1.00007 0.998843 0.995947
1.00027 1.002 0.992531
1.00007 0.999295 0.995782
0.999976 0.997408 0.999038
1.00016 1.00003 0.994592
0.999947 0.998071 0.998806
0.999886 0.99857 0.998662
1.00537 0.994847 0.991289
1.00534 0.994912 0.991375
1.00568 0.994786 0.991169
0.999781 0.994704 0.979885
1.00546 0.994836 0.991362
1.00549 0.994861 0.990054
1.00552 0.994803 0.991138
0.995381 0.994817 0.960916
1.00412 0.994809 0.977256
1.00035 1.00228 0.992118
1.00033 1.00271 0.991767
0.999717 1.00363 0.991668
1.00004 1.00316 0.99166
1.00542 0.994881 0.99117
1.00542 0.994883 0.990407
1.00528 0.994872 0.990379
1.00366 1.00297 0.987391
1.00502 0.995874 0.989691
1.00529 0.994808 0.990009
1.00284 1.00013 0.989024
1.00375 1.0045 0.985134
1.00385 0.99773 0.990001
1.00011 1.00423 0.99099
1.00086 1.00452 0.988694
1.00089 1.00519 0.988276
1.00032 1.0028 0.991666
0.999429 1.0043 0.991761
1.00551 0.994827 0.990754
0.999986 1.00299 0.991771
1.001 1.00416 0.989145
0.99722 1.00389 0.994878
1.00538 0.99494 0.990431
1.00526 0.994859 0.990214
1.00351 0.998808 0.990412
1.00454 0.997327 0.989769
1.00127 1.00511 0.988711
1.00015 1.00345 0.99007
1.00149 0.998561 0.993912
1.00167 1.00035 0.992414
1.00403 0.996672 0.98992
1.00524 0.994793 0.990697
1.0042 0.998091 0.989651
1.00382 0.997439 0.99162
0.996976 1.00475 0.994886
1.00174 1.00481 0.987525
0.9984 1.00221 0.995659
0.997905 1.00249 0.995401
0.999911 0.996048 0.920342
0.997638 1.00455 0.996362
1.00111 1.00345 0.989131
1.0041 0.994699 0.99074
1.00458 0.995191 0.991356
1.00422 1.00066 0.986962
1.0048 1.00189 0.984808
0.998628 0.994733 0.978685
0.997588 1.00438 0.994951
1.0032 0.994712 0.990379
1.00263 1.00304 0.987012
1.00369 1.0003 0.988146
1.00347 0.997834 0.991516
0.999226 0.994862 0.921731
0.995305 0.994753 0.955517
0.996558 0.995908 0.986475
0.996687 0.994819 0.849779
0.994764 0.995831 0.799384
0.997896 1.00374 0.994016
0.998011 0.99483 0.854255
0.994799 0.995063 0.79618
1.00117 0.995472 0.99373
1.00164 1.00122 0.990734
1.00117 1.00097 0.992792
0.995039 0.996016 0.989929
0.997429 0.994705 0.935141
0.994907 0.994776 0.951041
0.994722 0.995888 0.865724
0.994774 0.995009 0.780214
0.996093 1.00301 0.998502
0.99514 1.00483 0.998236
0.995286 1.00502 0.998482
1.00064 1.00376 0.990206
1.00024 1.00449 0.98998
0.998579 1.0048 0.991914
0.998129 1.00511 0.993041
0.996291 1.00336 0.997557
1.00038 1.00424 0.989913
0.998078 1.00503 0.993269
0.999045 1.00468 0.991636
1.00063 1.00447 0.989597
0.996519 1.00507 0.995491
0.997347 1.0049 0.994348
0.995591 1.00497 0.996606
0.999151 1.00505 0.990872
1.00056 1.00453 0.98956
1.00009 1.00455 0.990366
0.998783 1.0041 0.992642
0.998615 1.00418 0.992911
1.00017 1.00275 0.992279
0.997065 1.00364 0.99605
0.997451 1.00448 0.993754
0.998149 1.00497 0.99223
0.999148 1.00514 0.991427
0.999442 1.00494 0.990605
0.999607 1.00524 0.99033
1.00012 1.00441 0.990422
1 1.0029 0.992095
1.0001 1.00447 0.990087
0.999935 1.00275 0.992242
0.999852 0.999594 0.99624
0.999898 1.00276 0.992302
0.999735 0.999541 0.996064
0.999904 0.997482 0.997892
0.999684 0.999564 0.995751
0.999929 0.997545 0.999099
0.999938 0.997586 0.997764
1.00039 1.00256 0.991835
0.999929 1.00109 0.993889
0.999976 1.00126 0.993686
1.00004 0.998633 0.996198
1.00013 1.00156 0.993224
1.00009 0.998823 0.995945
0.999995 0.997143 0.999128
1.00005 0.999482 0.996017
0.999961 0.997581 0.998282
0.999938 0.998026 0.997231
0.999172 0.994708 0.979776
1.00548 0.994831 0.991307
1.00547 0.994819 0.99012
0.996266 0.994775 0.960995
1.00411 0.994717 0.977535
1.0055 0.994853 0.991185
1.00383 0.994616 0.985085
0.998977 0.994765 0.96026
0.998854 0.994867 0.935782
0.99661 0.994757 0.871848
0.994817 0.995875 0.803385
0.999427 1.0034 0.992124
1.0003 1.00239 0.992112
1.00045 1.0026 0.991742
0.999772 1.00324 0.992056
0.998024 1.00511 0.993264
0.999923 1.00382 0.991349
1.00019 1.00425 0.990496
1.00006 1.00316 0.991639
1.00551 0.994852 0.99073
1.00537 0.994876 0.990405
1.00527 0.994842 0.990192
1.00363 0.998403 0.990571
1.00449 0.997459 0.989589
1.00139 0.998145 0.99404
1.0037 0.999566 0.99175
1.00151 1.00424 0.989111
1.00096 1.00395 0.989343
1.00118 1.00512 0.988218
0.999869 1.00385 0.991386
0.995785 1.00408 0.997603
1.00425 0.995695 0.990283
0.997161 1.00467 0.994746
1.00076 1.00432 0.989654
1.00503 0.994808 0.990665
1.00394 0.998458 0.989717
1.00338 0.997232 0.991678
0.999305 1.0018 0.994497
0.999012 1.00149 0.995495
1.00289 0.996426 0.988655
1.00297 0.999086 0.990714
1.00353 0.999523 0.99051
1.00125 0.997916 0.994872
0.998537 1.00474 0.993006
0.997141 1.00422 0.994552
0.997101 1.00229 0.997184
0.999851 0.997528 0.851607
1.00073 0.994884 0.936346
0.998043 1.00395 0.995251
1.00302 1.00333 0.986995
1.00281 0.994724 0.990273
1.00364 0.998052 0.991392
1.00408 1.00012 0.988367
0.999987 0.994832 0.933973
0.995788 0.994764 0.954996
0.996479 0.99652 0.987155
0.995461 0.994805 0.86935
0.99483 0.99491 0.794873
0.998383 1.00375 0.994046
0.999831 0.994889 0.851453
0.994744 0.994894 0.789972
1.00101 0.996219 0.993524
1.0016 1.00132 0.990784
1.00118 1.00057 0.993552
0.995228 0.997087 0.990918
0.996466 0.99468 0.92817
0.994939 0.994781 0.951583
0.994787 0.995178 0.867798
0.994806 0.995333 0.777683
0.996919 1.00453 0.99645
0.994777 0.994804 0.782881
0.994738 0.994743 0.776529
0.996797 1.0013 0.997143
0.998901 1.00175 0.997421
0.994843 0.998582 0.987612
0.994912 0.994801 0.956069
0.994884 0.994639 0.921071
0.994813 0.994904 0.871104
0.994889 0.994896 0.79343
0.995459 1.00498 0.998064
0.995455 1.00499 0.998364
0.994996 1.00422 0.999241
1.00052 1.00412 0.989901
1.00075 1.0045 0.989718
0.999074 1.00496 0.9913
0.99753 1.00486 0.993699
0.996409 1.00488 0.995836
1.00063 1.00462 0.989508
0.997458 1.00497 0.994051
0.999569 1.00497 0.990836
0.995499 1.00506 0.996831
0.995074 1.00482 0.998329
0.99712 1.00513 0.994468
1.00002 1.00473 0.99114
1.00064 1.00397 0.990331
0.998669 1.00387 0.993253
0.998916 1.00389 0.992872
1.00026 1.00242 0.992123
0.996615 1.00368 0.996638
0.998283 1.00374 0.993088
0.996108 1.00509 0.995663
0.997623 1.00177 0.996978
0.999916 1.00308 0.992276
1.00467 0.999732 0.989553
0.998101 1.00444 0.992296
0.997926 1.00438 0.993791
0.998551 1.00499 0.990673
0.998587 1.00496 0.992355
1.00002 1.00485 0.990272
0.999081 1.00509 0.991419
0.9997 1.00471 0.990721
0.999713 1.0034 0.991781
1.00022 1.00444 0.990313
0.999938 1.00285 0.992112
0.999973 0.999619 0.996001
0.999926 1.00274 0.992267
0.99984 0.999581 0.995875
1.00001 0.997404 0.997723
0.999722 0.999564 0.995761
0.999957 0.997449 0.999113
0.999925 0.997523 0.99911
1.00058 1.00291 0.991486
0.999981 1.00127 0.993693
1.00042 1.00245 0.991855
1.00004 0.998528 0.996288
0.999975 1.00106 0.993875
1.00004 1.00119 0.993679
1.00005 0.998631 0.996187
1 0.997019 0.999172
1.00008 0.998862 0.996504
1.00001 0.997198 0.998492
0.999983 0.997526 0.997698
0.999154 0.996035 0.837766
0.994799 0.994878 0.7811
0.995839 0.994773 0.961794
1.00386 0.994682 0.978002
1.00555 0.994981 0.991223
1.00091 0.994779 0.95753
1.00336 0.994743 0.985787
0.999793 0.994861 0.931134
0.995463 0.994735 0.850259
0.994826 0.995419 0.799594
0.998229 0.994788 0.969269
0.995987 0.994713 0.93683
0.994739 0.994697 0.867667
0.994819 0.995993 0.791983
0.99948 1.00422 0.992191
0.999745 1.0031 0.992143
1.00024 1.00248 0.992115
0.999821 1.00278 0.992465
0.997681 1.00432 0.994288
1.0004 1.00425 0.99011
0.999408 1.00419 0.991722
1.00084 1.00446 0.989028
1.00024 1.00419 0.990371
0.999635 1.0037 0.991626
1.00427 0.994872 0.99062
1.00492 0.994815 0.99063
1.00341 0.998801 0.989781
1.00271 0.997167 0.991738
0.999532 1.00159 0.995595
0.999251 1.00157 0.993386
0.999628 1.00417 0.99202
0.997154 1.00458 0.99457
1.0022 0.995686 0.989286
0.998279 1.00503 0.99285
0.99706 1.00436 0.994952
1.00281 0.998946 0.990697
1.00319 1.00001 0.989837
1.0007 0.997773 0.995601
0.997441 1.0023 0.997594
0.999528 0.995427 0.987856
1.00072 1.00075 0.993679
0.996804 1.0026 0.997459
0.998378 1.00401 0.993117
0.996446 1.00525 0.99471
0.995807 1.00438 0.997481
0.994747 0.994788 0.80023
0.999847 0.994889 0.860107
0.999957 0.996105 0.920604
0.998663 1.00388 0.994057
1.00182 1.00149 0.99078
1.00082 0.996726 0.993303
1.00109 1.00007 0.994315
0.999778 0.996074 0.86669
0.995941 0.99472 0.92155
0.994933 0.994732 0.95112
0.995372 0.998065 0.991681
0.994788 0.994844 0.851205
0.994692 0.994867 0.796444
0.994831 0.996041 0.793669
0.996914 1.00461 0.996156
0.994772 0.994815 0.791008
0.994766 0.994755 0.776021
0.997055 0.999626 0.997815
0.998633 1.00171 0.997342
0.994832 0.997261 0.989463
0.995044 0.994784 0.953354
0.994951 0.994655 0.933505
0.994788 0.995501 0.850542
0.995227 0.99489 0.802633
0.995762 1.00399 1.00061
0.99474 0.994788 0.784225
0.994818 0.994831 0.779034
0.994756 1.00223 1.00031
0.994858 0.99654 0.964279
0.994804 0.994783 0.930833
0.994908 0.994901 0.85007
0.995844 0.994903 0.821707
0.995622 1.00493 0.998234
0.995245 1.00455 0.999395
0.994908 1.00426 0.999897
1.00044 1.00471 0.989451
0.999947 1.0048 0.9908
0.997464 1.00521 0.993752
0.995471 1.00514 0.997057
0.999458 1.00483 0.991111
0.99701 1.00515 0.994517
0.995034 1.00484 0.998443
0.994882 1.00484 0.999133
0.994895 1.00475 0.998767
0.997439 1.00514 0.994387
0.999011 1.00409 0.992823
1.00036 1.00215 0.991965
0.995745 1.00386 0.997218
0.996229 1.00486 0.995794
0.999339 1.00308 0.992997
0.996433 1.00281 0.997208
0.998303 1.00319 0.994053
0.994798 1.00494 0.998608
1.00199 0.999842 0.992657
0.999543 1.00263 0.993078
1.0026 1.0003 0.990296
1.00512 0.999155 0.987718
1.00333 1.00142 0.9891
1.0038 0.999369 0.990135
0.999088 1.00412 0.992167
0.999043 1.00517 0.989629
0.99846 1.00427 0.993835
0.999494 1.00504 0.990737
1.00064 1.00505 0.988767
0.999069 1.00503 0.992468
0.999761 1.00499 0.990285
0.99981 1.00407 0.990918
0.999854 1.00467 0.990836
0.999901 1.00336 0.991794
1.00013 0.999812 0.995622
0.999975 1.00281 0.992132
0.999953 0.999689 0.995575
1.0001 0.997524 0.997545
0.999843 0.999551 0.995571
1.00002 0.997412 0.998415
0.999973 0.997436 0.999092
1.00046 1.00401 0.990129
1.00007 1.00158 0.993276
1.00038 1.00311 0.991262
1.00006 0.998588 0.996197
0.999975 1.00123 0.993712
1.00033 1.00245 0.991873
1.00002 0.996983 0.999183
1.00003 0.99856 0.996285
0.999958 1.00113 0.993866
1.00006 0.998622 0.996177
1 0.99705 0.999162
0.999995 0.997162 0.999115
0.994745 0.994804 0.778532
0.999029 0.994879 0.85191
0.994792 0.994766 0.77806
0.994824 0.994855 0.782826
0.999077 0.994857 0.958029
1.00267 0.994816 0.986507
0.999294 0.994782 0.925756
0.996107 0.994762 0.87119
0.994848 0.994886 0.79596
0.998248 0.994805 0.968009
0.996309 0.994683 0.921463
0.994748 0.995101 0.868643
0.994811 0.99539 0.784465
0.994925 0.994804 0.960474
0.994759 0.994666 0.919146
0.994801 0.99499 0.844474
0.994857 0.994888 0.798344
1.00027 1.00443 0.990962
0.998785 1.00429 0.99235
0.999847 1.00304 0.992154
0.997027 1.00371 0.995295
1.00086 1.00381 0.989569
0.999944 1.0047 0.990308
0.99881 1.0042 0.992088
1.00134 1.0043 0.988812
1.00102 1.00466 0.988959
1.00032 1.0041 0.990241
1.00218 0.994793 0.98986
1.0025 0.998818 0.990709
1.00314 1.00045 0.989169
1.00004 0.997648 0.996335
0.998144 1.00249 0.997985
0.997278 1.00431 0.995349
0.9983 1.00513 0.992705
0.999141 1.00348 0.992963
0.999391 0.996361 0.98854
0.997398 1.00514 0.994185
0.997022 1.00324 0.997638
1.0005 1.00044 0.993845
0.997758 1.00148 0.997413
0.996331 1.00068 0.987238
0.996666 1.00233 0.998631
0.994716 1.00513 0.998158
0.996212 1.00436 0.996695
0.995238 1.00515 0.997015
0.994758 0.994776 0.79064
0.994756 0.994747 0.795267
0.999836 0.997504 0.839398
0.996889 1.00467 0.995909
0.998723 1.00141 0.997284
0.997451 0.998706 0.998471
0.99475 0.994802 0.787237
0.994787 0.994649 0.919672
0.994918 0.994777 0.953661
0.99482 0.995733 0.991828
0.994773 0.995694 0.869734
0.994803 0.994769 0.776521
0.995676 0.994879 0.80475
0.996012 1.00367 1.00075
0.994757 0.994801 0.785551
0.9948 0.99483 0.780288
0.994791 1.00252 0.999128
0.99485 0.995702 0.9661
0.995073 0.994784 0.917252
0.99554 0.994897 0.816259
0.995278 0.996831 0.859383
0.994706 1.00492 1.00135
0.994775 0.99483 0.772006
0.994863 0.994846 0.796784
0.994859 0.994889 0.797868
0.994729 0.999686 0.987946
0.994824 0.995394 0.935489
0.997275 0.99487 0.872896
0.995588 1.00487 0.999555
0.995216 1.00446 0.999683
0.995117 1.00503 0.999482
0.999085 1.00478 0.991093
0.996928 1.00526 0.994564
0.994999 1.00475 0.998553
0.996841 1.00522 0.994505
0.994962 1.00458 0.998856
0.994911 1.0048 0.998861
0.99475 1.00451 1.00008
0.994912 1.00437 0.999145
0.996274 1.00459 0.995959
1.00001 1.00244 0.992899
0.995661 1.00379 0.997439
0.994888 1.00501 0.99843
0.997702 1.00385 0.994182
0.999851 1.00085 0.99517
0.998924 1.001 0.995931
1.00289 1.00006 0.98926
0.999351 1.0025 0.993788
1.00279 1.00031 0.9901
1.00473 1.00112 0.986262
1.00517 1.0007 0.985654
1.00475 0.998987 0.987917
1.00461 0.999194 0.987659
1.00192 1.00431 0.988204
1.00223 1.00195 0.989287
1.00266 0.999034 0.990702
1.00004 1.00377 0.992034
0.999828 1.00517 0.989409
1.0011 1.0051 0.98739
1.00036 1.00507 0.990809
1.00094 1.00493 0.988728
1.00049 1.00454 0.989334
0.999914 1.00502 0.99029
1.00009 1.00385 0.990891
1.00018 1.00017 0.995207
1.00004 1.00316 0.991804
1.00012 0.999854 0.995171
1.00028 0.997572 0.997212
0.999938 0.999748 0.99524
1.0001 0.997483 0.998297
1.00006 0.997399 0.999027
1.00086 1.00432 0.988972
1.00017 1.00209 0.99219
1.00057 1.00388 0.990141
1.0001 0.998776 0.99595
1.00013 1.00152 0.993066
1.00036 1.0031 0.99104
1.00003 0.997009 0.999157
1.00006 0.998577 0.996212
1.00004 1.00109 0.993728
1.00001 0.997009 0.999182
1.00002 0.998581 0.996282
1.00001 0.997054 0.999152
0.994807 0.994813 0.782301
0.994757 0.994837 0.793797
0.999177 0.994847 0.850846
1.00092 1.00471 0.988845
0.994781 0.9948 0.783115
0.994787 0.994792 0.777959
0.994866 0.994858 0.797205
0.998153 0.994733 0.967757
0.995962 0.994722 0.936276
0.99467 0.995484 0.851374
0.994786 0.994944 0.796233
0.995485 0.994783 0.957896
0.994841 0.99467 0.932845
0.994778 0.995421 0.849067
0.994874 0.994889 0.799752
0.994931 0.994762 0.952172
0.994795 0.994803 0.928957
0.996345 0.994902 0.862793
0.99543 0.994902 0.821981
0.998668 1.00365 0.993306
0.999391 1.00443 0.991319
0.998871 1.00376 0.992516
1.00126 1.00258 0.990291
1.00103 1.00403 0.989516
0.999835 1.0049 0.990502
1.00145 1.00428 0.988788
1.00117 1.00457 0.988888
0.998583 0.997281 0.989051
0.999907 1.00012 0.993932
0.998596 1.00369 0.992785
0.998749 1.00022 0.99735
0.997734 1.00292 0.997774
0.998157 1.00505 0.993593
0.996682 1.00422 0.99559
0.99595 1.00034 0.987421
0.996289 1.00512 0.996751
0.995798 1.00368 0.998222
0.99599 1.00214 0.99872
0.995486 1.00527 0.996416
0.995047 1.00384 0.984319
0.994867 1.00362 0.999188
0.995324 1.0049 0.998313
0.995758 1.00565 0.996886
0.994742 0.99481 0.774612
0.994749 0.99478 0.787079
0.994762 0.994708 0.790073
0.995896 1.00382 1.00087
0.994816 1.00193 0.997894
0.994772 0.994815 0.786704
0.994761 0.994836 0.932264
0.994841 0.995562 0.962772
0.995567 0.994935 0.858143
0.994783 0.99483 0.78129
0.994892 0.9949 0.810673
0.994743 1.00488 1.00129
0.994775 0.994827 0.772443
0.994873 0.994856 0.795182
0.994769 1.00034 0.991646
0.994875 0.994937 0.799311
0.994835 0.996762 0.928467
0.996684 0.997296 0.87448
0.99494 1.00404 0.997344
0.994837 0.994844 0.78634
0.994793 0.994812 0.785102
0.994809 0.99608 0.790991
0.996497 0.995706 0.862608
0.994908 1.00126 0.97028
0.994923 0.995197 0.921265
0.995486 1.00472 0.999496
0.995026 1.00499 0.999486
0.994751 1.00508 0.998292
0.996395 1.00525 0.994617
0.994815 1.00425 0.998947
0.994951 1.00492 0.998633
0.994807 1.00422 0.999024
0.994696 1.00458 0.999879
0.997164 1.00212 1.00016
0.994916 1.00508 0.998243
0.996507 1.0046 0.994354
0.998671 1.00132 0.996164
0.999767 0.999392 0.993722
0.995856 1.00205 0.998882
1.00244 0.999781 0.990226
1.0043 1.00335 0.983804
1.00464 1.00255 0.984461
1.00308 1.00027 0.98983
1.00461 1.00122 0.985782
1.00499 1.00166 0.984861
1.00481 1.00106 0.986028
1.00497 1.00086 0.985694
1.00399 1.00047 0.988117
1.00427 0.999776 0.987802
1.0045 0.999171 0.987621
1.00109 1.00516 0.98733
1.00121 1.00444 0.988274
1.00101 1.00255 0.989468
1.00068 1.00516 0.989192
1.00158 1.00511 0.987415
1.00096 1.00504 0.987807
1.00113 1.0049 0.988687
1.00075 1.00444 0.989317
1.00023 1.00083 0.993639
1.00046 1.0038 0.990883
1.00026 1.00016 0.994324
1.00014 0.997699 0.998761
1.00013 0.999932 0.994807
1.0002 0.997553 0.99807
1.00014 0.997488 0.998922
1.00084 1.00463 0.988698
1.00038 1.00305 0.990996
1.00077 1.00448 0.989159
1.00016 0.999126 0.995536
1.00029 1.00212 0.992058
1.00066 1.00383 0.990146
1.00005 0.997119 0.999101
1.00013 0.998716 0.995971
1.00014 1.00149 0.992858
1.00003 0.997012 0.999167
1.00005 0.998573 0.996227
1.00001 0.997022 0.999181
0.994762 0.994816 0.781326
0.994799 0.994803 0.782682
0.994753 0.994851 0.79261
1.00099 1.00455 0.988929
1.00027 1.00514 0.988645
1.0016 1.00276 0.990714
0.994874 0.994861 0.795546
0.994794 0.994799 0.784301
0.994803 0.994778 0.778031
0.996229 0.994766 0.958288
0.994862 0.99465 0.919834
0.994781 0.995775 0.869873
0.994879 0.994866 0.794005
0.994911 0.994801 0.953733
0.994857 0.994777 0.924583
0.99612 0.995716 0.862041
0.995351 0.994899 0.816397
0.994896 0.994843 0.952887
0.994834 0.994869 0.930906
0.99717 0.994883 0.872625
0.994882 0.994904 0.7954
0.997834 1.00325 0.994544
0.998908 1.00361 0.993178
0.999163 1.00493 0.99168
1.00113 1.00284 0.990204
1.00065 1.00456 0.989472
1.00144 1.00431 0.988759
0.995697 0.999994 0.987961
0.99584 1.00242 0.998866
0.998078 1.00331 0.994534
0.997261 1.00267 0.998148
0.997607 1.00434 0.99652
0.9956 1.00514 0.996332
0.995622 1.00542 0.996595
0.99496 1.0033 0.984385
0.995084 1.00531 0.998485
0.994549 1.00435 0.997934
0.995287 1.00538 0.99791
0.994677 1.00139 0.98327
0.994848 1.00517 0.994725
0.994684 1.00264 0.999357
0.994868 0.994851 0.775807
0.994754 0.994818 0.773866
0.994743 0.99478 0.78352
0.994784 1.0047 1.0012
0.994804 1.00082 0.987105
0.994774 0.994825 0.772895
0.994797 0.99645 0.928663
0.996119 0.994867 0.860159
0.994888 0.994853 0.793556
0.994876 0.994872 0.793751
0.994893 1.00395 0.997864
0.994819 0.994845 0.785316
0.994811 0.9948 0.786464
0.994892 1.00169 0.967108
0.994794 0.99565 0.783648
0.996003 0.997152 0.860959
0.994857 0.996984 0.935163
0.99484 1.00509 0.988252
0.994769 0.994817 0.783499
0.994782 0.994785 0.778646
0.994805 0.996102 0.802646
0.994787 0.995248 0.842451
0.994801 0.994894 0.932485
0.994826 1.00135 0.960661
0.99511 1.0049 0.999429
0.994775 1.00503 0.998416
0.994874 1.0049 0.998517
0.994929 1.00432 0.998907
0.994624 1.0047 0.999598
0.996248 1.00186 1.00051
0.997886 1.00191 0.998869
0.997389 1.00175 0.997129
1.00192 0.999233 0.992888
1.00174 1.00463 0.986926
1.0019 0.999569 0.991618
1.00436 1.00337 0.984136
1.00429 1.00302 0.983709
1.00514 1.00026 0.985518
1.00508 1.00153 0.984845
1.00474 1.00232 0.98448
1.00469 1.00137 0.985313
1.0046 1.00291 0.984752
1.00508 1.00157 0.984842
1.00445 1.00083 0.986553
1.00469 1.00143 0.986165
1.00448 1.00106 0.985735
1.00235 1.00213 0.988393
1.00358 1.00087 0.987991
1.00388 1.00054 0.987667
1.00152 1.0052 0.986732
1.00161 1.00517 0.987322
1.00035 1.0044 0.988347
1.002 1.00511 0.987451
1.00145 1.00493 0.987827
1.00033 1.0016 0.992649
1.00125 1.00419 0.989285
1.0003 1.00081 0.993588
1.00025 0.998014 0.998633
1.00038 1.00006 0.9943
1.00028 0.997727 0.997903
1.00022 0.99754 0.998806
1.00154 1.00446 0.988444
1.00064 1.00357 0.990351
1.00101 1.00462 0.988636
1.00021 0.999631 0.994948
1.00037 1.00307 0.991091
1.00064 1.0046 0.989355
1.00006 0.997268 0.999005
1.00018 0.999019 0.995565
1.0004 1.00211 0.991929
1.00005 0.997066 0.999118
1.00015 0.998668 0.995991
1.00002 0.997031 0.999178
0.99483 0.994844 0.783932
0.994765 0.994832 0.781799
0.994805 0.994797 0.782902
1.00015 1.00519 0.988729
1.00249 1.00148 0.992517
1.00072 1.00453 0.989025
1.0005 1.005 0.988559
1.00056 1.00223 0.991381
1.00089 1.00259 0.991079
0.998762 1.0019 0.994771
0.994831 0.994832 0.781318
0.994874 0.99486 0.793868
0.994799 0.994828 0.785443
0.994888 0.994901 0.810662
0.995244 0.994799 0.952066
0.994824 0.994804 0.919287
0.99602 0.994893 0.873887
0.995009 0.994997 0.951731
0.994828 0.997534 0.917044
0.996494 0.99673 0.873684
0.995095 0.994927 0.804428
0.994802 0.995569 0.95602
0.994883 0.997557 0.918328
0.994899 0.994979 0.850686
0.994786 0.9954 0.782398
0.995558 1.00546 0.996752
0.997676 1.00367 0.995082
0.998564 1.00417 0.993049
1.00102 1.00343 0.990118
0.994965 1.00247 0.984277
0.994444 1.0047 0.996771
0.995918 1.00526 0.996257
0.996494 1.00533 0.996282
0.994685 1.00543 0.998878
0.995099 1.00534 0.997801
0.99591 1.00351 0.999544
0.995007 1.00193 0.98035
0.995028 1.00524 0.994746
0.995926 1.00275 0.999812
0.995961 1.0009 0.975819
0.994668 1.0029 0.999765
0.994749 0.994829 0.777638
0.994846 0.994851 0.781251
0.994765 0.994835 0.773107
0.9947 1.00412 0.998379
0.994882 1.00128 0.971189
0.994801 0.994846 0.784297
0.994916 0.995959 0.922479
0.995842 0.99496 0.873522
0.994801 0.994827 0.787573
0.994769 0.995178 0.795037
0.994868 1.00506 0.989275
0.994774 0.99483 0.784055
0.994771 0.994801 0.778603
0.994813 1.00148 0.960733
0.99482 0.995334 0.798973
0.994769 0.995575 0.847076
0.994843 0.995896 0.918879
0.9951 1.00399 0.98286
0.994826 0.994817 0.782832
0.994768 0.994881 0.780962
0.994731 0.994697 0.866423
0.994818 0.994877 0.930039
0.994813 0.999537 0.956238
0.9948 1.00491 0.999027
0.994794 1.0048 0.998544
0.995027 1.00461 0.997993
0.995531 1.00141 1.00085
0.996681 1.00241 0.999342
1.00045 1.0009 0.994543
1.00405 0.998917 0.992072
1.00276 1.00473 0.986029
1.00429 1.00197 0.985276
1.00418 1.00329 0.984463
1.00451 1.00301 0.983652
1.00477 1.00119 0.985366
1.00528 0.997604 0.987721
1.0052 0.999827 0.986285
1.00512 1.00046 0.985533
1.00508 1.00146 0.985181
1.00506 1.00131 0.984888
1.00483 1.00211 0.984495
1.00427 1.00437 0.983706
1.00463 1.00265 0.984786
1.0051 1.0015 0.984835
1.00379 1.00164 0.988081
1.00366 1.0016 0.987234
1.00471 1.00182 0.986304
1.00294 1.00261 0.987047
1.00261 1.00209 0.988366
1.00313 1.00171 0.987864
1.00065 1.00204 0.991701
1.00193 1.0052 0.986815
1.00205 1.00515 0.987313
1.00165 1.00485 0.987844
1.0004 1.0016 0.992627
1.00026 0.998481 0.998401
1.00028 1.0009 0.993542
1.00026 0.998066 0.998564
1.00028 0.997629 0.998698
1.00222 1.00433 0.989091
1.00204 1.00514 0.987945
1.00093 1.00411 0.9894
1.0013 1.00453 0.988441
1.00018 1.00026 0.994367
1.00058 1.00373 0.990344
1.00099 1.00494 0.988567
1.00007 0.997632 0.998861
1.0002 0.999612 0.994977
1.00042 1.00313 0.991182
1.00006 0.997264 0.999035
1.0002 0.998985 0.995598
1.00005 0.997056 0.999137
0.994784 0.994845 0.774392
0.994822 0.994834 0.782956
0.994766 0.994824 0.782263
1.00085 1.00521 0.98832
1.00001 1.00126 0.993332
1.002 0.999339 0.990332
0.998204 1.00362 0.991979
1.00174 0.998416 0.994535
1.00079 1.00511 0.988458
0.999808 1.00284 0.992075
1.00059 1.00338 0.991056
0.998815 1.00101 0.996084
0.998847 1.00311 0.995257
0.994765 0.994747 0.778989
0.99481 0.994839 0.782729
0.994872 0.994844 0.792243
0.995334 0.994881 0.806492
0.996098 0.994879 0.860087
0.994913 0.994867 0.950542
0.994817 0.995539 0.929967
0.994863 0.996348 0.951311
0.994884 0.997686 0.93085
0.995087 0.996823 0.860306
0.994812 0.995393 0.779995
0.994984 0.997941 0.952764
0.994759 0.99629 0.93051
0.994794 0.995097 0.87262
0.994715 0.996235 0.806193
0.998333 1.00023 0.997503
0.995336 1.00527 0.997038
0.997838 1.00312 0.995636
0.994667 1.00263 0.976974
0.994789 1.00521 0.99407
0.99508 1.0053 0.997629
0.994697 1.0044 0.999771
0.995376 1.00342 0.999615
0.994696 1.00154 1.0003
0.994783 1.00181 0.976597
0.99579 1.00148 1.00219
0.994881 1.00002 0.984267
0.994784 0.994797 0.792017
0.994771 0.99484 0.776705
0.994828 0.994843 0.786934
0.994894 1.00512 0.989637
0.99485 0.999868 0.958596
0.994791 0.994838 0.784614
0.994822 0.994916 0.931259
0.99477 0.995943 0.867187
0.994788 0.994776 0.778931
0.994845 0.994891 0.79549
0.995181 1.00443 0.983703
0.994816 0.994809 0.782925
0.994796 0.99489 0.782485
0.994839 0.998434 0.957398
0.994737 0.995155 0.867744
0.994913 0.994812 0.92177
0.994772 1.00252 0.981492
0.994736 0.994808 0.778599
0.996338 0.994759 0.871644
0.994788 0.994675 0.918619
0.994907 0.994847 0.956942
0.995179 1.00473 0.998615
0.994895 1.00484 0.997804
0.99776 1.00026 0.99729
0.995514 1.00279 0.999806
0.999291 1.0016 0.995346
1.00431 0.995371 0.992597
1.00388 1.00489 0.985106
1.00424 1.0018 0.985194
1.00491 0.998069 0.988084
1.00479 1.00309 0.983593
1.00472 1.00107 0.985417
1.00493 0.997722 0.988387
1.0053 0.995229 0.990047
1.00531 0.997183 0.987824
1.00531 0.997477 0.987747
1.00526 0.999749 0.986411
1.00519 0.999857 0.986207
1.00501 1.00058 0.98555
1.00533 1.00237 0.98392
1.00497 1.00153 0.98514
1.00509 1.00102 0.98493
1.00449 1.00481 0.984553
1.00382 1.00399 0.98431
1.00472 1.00236 0.984817
1.00222 1.00328 0.988009
1.00275 1.00227 0.987991
1.00315 1.00209 0.987911
1.00119 1.00263 0.991876
1.0028 1.00301 0.987128
1.00289 1.00238 0.988335
1.00044 0.999437 0.995391
1.00076 1.00231 0.991919
1.00221 1.00521 0.986905
1.00053 1.0016 0.992594
1.00031 0.998579 0.998311
1.00028 0.998259 0.99849
1.0017 1.00209 0.988652
1.00239 1.00514 0.987268
1.00012 1.00469 0.989059
1.0011 1.00474 0.988598
1.00132 1.0049 0.987924
1.00003 1.00093 0.993859
1.0008 1.00428 0.989378
1.00117 1.00482 0.988431
1.00005 0.997974 0.998741
1.00019 1.00016 0.994403
1.00046 1.00381 0.990336
1.00005 0.997545 0.998906
1.00021 0.999484 0.995004
1.00006 0.997174 0.999065
0.994767 0.994819 0.790922
0.994789 0.994841 0.774921
0.994803 0.994853 0.781851
1.00282 1.00354 0.986318
1.00062 1.00504 0.987935
0.998733 1.00193 0.994393
0.999862 1.00484 0.991252
1.00342 0.99933 0.990094
1.00009 0.997182 0.998444
1.00369 0.999798 0.989593
0.995312 1.00527 0.995591
0.999405 1.00395 0.991017
0.998683 0.998801 0.997373
0.997235 1.00345 0.995307
0.997817 1.00209 0.996237
0.994807 0.995119 0.797691
0.994786 0.994759 0.778465
0.994795 0.994846 0.783823
0.994833 0.997018 0.795806
0.995268 0.994973 0.858844
0.994907 0.997479 0.91862
0.99553 0.994974 0.951412
0.995443 0.998531 0.953439
0.994774 0.996679 0.801932
0.99481 0.996458 0.922099
0.994787 0.995799 0.852172
0.994871 0.996443 0.959463
0.994795 0.994828 0.93217
0.994716 0.996085 0.868746
0.999737 0.995417 1.00167
0.998557 1.00025 0.997376
0.994894 1.00552 0.997309
0.994818 1.00246 0.976768
0.996013 1.00013 1.00077
0.995962 1.00272 0.999513
0.996445 0.999824 1.00255
0.994874 0.999159 0.984391
0.995634 0.998105 0.993548
0.994733 0.99477 0.795455
0.994775 0.994805 0.791899
0.994796 0.994836 0.775534
0.994792 1.00468 0.98382
0.994828 0.999798 0.956528
0.994796 0.99481 0.783315
0.994834 0.994817 0.917281
0.99466 0.995347 0.850461
0.994845 0.994923 0.796633
0.994803 1.00473 0.981145
0.994751 0.994841 0.793709
0.995581 0.994743 0.849668
0.994994 0.995007 0.951872
0.994879 0.994675 0.932463
0.995378 0.999377 0.988964
0.999205 0.995997 0.837115
0.995919 0.994743 0.937031
0.994939 0.99475 0.950061
0.994741 1.00535 0.997637
0.9974 1.00166 0.996976
1.00078 0.998112 0.993705
0.998271 1.00223 0.996153
1.00367 0.996343 0.992343
1.00499 0.994791 0.991502
1.00412 1.00166 0.985116
1.00485 0.998003 0.987963
1.00501 0.996009 0.989937
1.00466 1.00083 0.985473
1.0049 0.997598 0.988317
1.00535 0.994752 0.990401
1.00527 0.994771 0.991124
1.00527 0.995257 0.990048
1.00533 0.995163 0.990068
1.00539 0.997081 0.987893
1.0053 0.997143 0.988013
1.00535 0.997337 0.987771
1.00541 1.00027 0.985427
1.00524 0.999628 0.986339
1.00518 0.99995 0.986127
1.00548 1.00355 0.982489
1.00523 1.00257 0.983901
1.00484 1.0016 0.985098
1.003 1.0025 0.98714
1.00359 1.00464 0.984495
1.0032 1.00373 0.984926
1.00113 1.00298 0.990018
1.00273 1.00264 0.987926
1.00172 1.00257 0.98789
0.999961 1.00133 0.997531
1.00122 1.0027 0.990182
1.00315 1.00281 0.987196
1.00035 0.999052 0.998026
1.00091 1.00226 0.991255
1.00034 0.998577 0.998215
1.00484 1.00184 0.986138
1.00293 1.00155 0.988042
1.00239 1.00453 0.987185
1.00139 1.00509 0.988202
1.00184 1.00517 0.987274
0.999919 1.00507 0.989019
0.999983 1.00172 0.993281
1.00092 1.00488 0.988613
1.00125 1.0042 0.987893
1.00003 0.998409 0.998609
1.00004 1.00095 0.993866
1.00067 1.00458 0.989354
1.00003 0.997947 0.998774
1.00018 1.00018 0.994429
1.00004 0.99749 0.998951
0.994761 0.994802 0.783943
0.994779 0.994811 0.791187
0.994795 0.994835 0.775539
1.00309 1.00311 0.986341
1.00479 1.00469 0.985097
1.0015 1.00469 0.988072
0.999692 1.00529 0.990497
1.005 0.99888 0.989882
0.996437 0.997176 1.002
0.997518 1.00283 0.995702
1.00179 1.00069 0.991341
1.0006 1.00018 0.993818
0.998634 0.99894 0.997338
0.997455 1.00345 0.995318
0.998807 1.00211 0.99596
0.996202 0.994752 0.844975
0.994757 0.994892 0.791849
0.994811 0.994773 0.778875
0.994831 0.994961 0.797228
0.994768 0.99571 0.871426
0.994813 0.995414 0.91854
0.994781 0.998275 0.952777
0.994873 0.997323 0.956474
0.994787 0.995277 0.869183
0.994871 0.994807 0.918967
0.994903 0.996795 0.961036
0.99489 0.994621 0.9215
0.998882 0.995228 1.00558
0.999758 0.995273 1.00158
0.998238 1.00025 0.997379
0.994835 0.999111 0.984703
0.996195 0.999465 1.00289
0.995803 0.998193 0.99324
0.994963 0.995718 0.991465
0.999609 0.998811 0.849689
0.994745 0.994744 0.7919
0.994771 0.994819 0.791468
0.994847 1.00431 0.981676
0.994995 0.994833 0.950661
0.994747 0.994854 0.792295
0.994884 0.994652 0.920122
0.996119 0.994776 0.870687
0.995323 0.998382 0.985332
0.999088 0.994879 0.851904
0.996225 0.994688 0.921725
0.994955 0.9948 0.951288
0.996356 0.99693 0.985266
0.998864 0.994853 0.936123
0.994919 0.994796 0.958786
0.996854 1.00226 0.996682
1.00022 0.998388 0.993659
1.00328 0.997244 0.991984
1.00297 0.997353 0.992103
1.00481 0.994899 0.991429
1.00512 0.994628 0.991187
1.00481 0.997913 0.987844
1.00494 0.996082 0.98983
1.00532 0.994698 0.990452
1.00486 0.997516 0.988246
1.00535 0.994755 0.990349
1.00528 0.99476 0.990843
1.00531 0.994798 0.990917
1.00525 0.994773 0.991128
1.00528 0.994823 0.991123
1.00531 0.995526 0.990115
1.00527 0.995309 0.99021
1.00535 0.995091 0.990091
1.00546 0.997843 0.987421
1.00538 0.997113 0.987838
1.00529 0.99709 0.988203
1.00546 1.00193 0.98366
1.00546 1.0003 0.985413
1.00523 0.999521 0.986272
1.00477 1.00197 0.984857
1.00549 1.00315 0.982634
1.00511 1.00272 0.983881
1.00134 1.00406 0.988519
1.00294 1.00311 0.987068
1.00274 1.00409 0.984451
1.00051 1.00051 0.997367
1.00134 1.00276 0.990046
1.00274 1.00247 0.987848
1.00032 1.00057 0.995965
1.00125 1.00227 0.990435
1.00042 0.999793 0.997714
1.00528 1.00405 0.982688
1.00363 1.00287 0.986068
1.00325 1.00224 0.986909
1.00386 1.00217 0.987438
1.00226 1.00439 0.98724
1.00146 1.00517 0.987859
1.00034 1.00197 0.992574
1.00107 1.0051 0.988181
1.00035 1.0052 0.987294
1.00005 0.998667 0.998413
0.999938 1.00156 0.993289
1.00091 1.00492 0.988626
0.999985 0.998303 0.998652
1.00005 1.00076 0.993904
1.00001 0.99786 0.998808
0.998207 0.994835 0.853296
0.994764 0.994798 0.789885
0.994784 0.994806 0.791617
1.00313 1.00318 0.986375
1.00232 1.00501 0.986209
1.00445 1.0043 0.984364
1.00523 1.00205 0.984555
1.0014 1.00043 0.992658
0.998763 1.00251 0.995851
1.00144 1.0002 0.993086
1.00077 1.00039 0.993955
1.00454 0.994906 0.992396
1.00185 0.997276 0.995959
1.00157 0.998113 0.995636
1.00029 0.99799 0.997161
0.999455 1.00143 0.995708
0.997428 0.994691 0.933263
0.996782 0.994858 0.849988
0.994712 0.99486 0.797886
0.994771 0.995204 0.853586
0.994789 0.994833 0.930068
0.994915 0.996862 0.958762
0.994954 0.996053 0.962927
0.994855 0.994666 0.935049
0.995759 0.99481 0.960045
0.997079 0.995831 1.00508
0.997647 0.99587 1.00564
0.999995 0.995011 1.00139
0.99561 0.997607 0.993093
0.996136 0.995145 0.992898
0.999904 0.996628 0.919946
0.999765 0.994901 0.85847
0.994755 0.994718 0.788382
0.995348 0.997671 0.981241
0.99491 0.994775 0.950595
0.999201 0.994838 0.850916
0.995917 0.994715 0.936433
0.996385 0.996654 0.985485
0.999697 0.994851 0.931216
0.995352 0.994796 0.956325
0.999645 0.994653 0.984432
0.997694 0.994813 0.968301
0.999799 0.998727 0.993596
1.00238 0.996643 0.992017
1.00497 0.994606 0.991791
1.0046 0.995029 0.991349
1.00506 0.994638 0.991119
1.00528 0.994641 0.990792
1.00485 0.996149 0.989721
1.0053 0.994707 0.990405
1.00533 0.994783 0.990522
1.00536 0.99476 0.990297
1.00527 0.994766 0.990841
1.00533 0.994814 0.990686
1.0053 0.994797 0.990914
1.00535 0.994808 0.990844
1.00524 0.994775 0.99113
1.00527 0.99481 0.991129
1.00525 0.995003 0.990947
1.00536 0.996397 0.989353
1.00532 0.995553 0.99012
1.00527 0.995368 0.990371
1.0054 1.00035 0.985234
1.00547 0.997955 0.987238
1.00536 0.99713 0.987782
1.00526 1.00352 0.983018
1.00549 1.00191 0.983769
1.0055 1.0003 0.985398
1.00254 1.00372 0.986925
1.0043 1.00254 0.984913
1.00549 1.00314 0.982769
1.00045 1.00129 0.997029
1.00155 1.00377 0.988466
1.00296 1.00376 0.986999
1.00045 1.00065 0.997316
1.00153 1.00251 0.990078
1.00051 1.00032 0.997459
1.00531 1.00381 0.983065
1.00531 1.00371 0.982762
1.00327 1.00436 0.984395
1.00271 1.00312 0.985984
1.00267 1.00336 0.986683
1.0018 1.00423 0.986858
1.00207 1.00351 0.987283
1.00123 1.00518 0.987764
1.00084 1.00263 0.991178
1.00007 0.999265 0.998125
1.00011 1.0022 0.992564
1.00064 1.00515 0.988167
0.99999 0.998785 0.998485
0.999902 1.00174 0.993255
0.999956 0.998262 0.998691
0.999966 0.994835 0.936174
0.999851 0.994921 0.850385
0.994752 0.994771 0.783694
1.00292 1.00577 0.984297
1.00409 1.00423 0.983627
1.00265 1.00027 0.990853
1.00497 1.00234 0.984597
1.00525 0.999029 0.986666
1.00429 0.99535 0.991489
1.00115 0.999459 0.994062
1.0048 0.99532 0.991361
1.00176 0.996939 0.995919
1.00417 0.997847 0.990955
1.00206 0.998373 0.993669
1.00167 0.998819 0.99462
1.0014 0.998416 0.995767
1.00129 0.997346 0.996985
0.994954 0.994774 0.959032
0.996893 0.994666 0.928126
0.995683 0.994811 0.868865
0.994794 0.994637 0.920716
0.994892 0.996047 0.963538
0.995748 0.995202 0.966148
0.998667 0.994802 0.990535
0.998585 0.995427 1.00363
0.997139 0.996615 1.00571
0.997877 0.996054 0.994447
0.998933 0.994746 0.959587
1.00059 0.994873 0.936035
0.999603 0.998834 0.837524
0.996237 0.996718 0.985933
0.995925 0.99479 0.95639
0.998973 0.994793 0.925956
0.999266 0.995676 0.985031
0.99757 0.994816 0.967125
1.00217 0.996944 0.987326
1.00342 0.994707 0.984629
1.0014 0.996592 0.992051
1.00433 0.994621 0.99188
1.0052 0.99482 0.990894
1.00499 0.994644 0.991052
1.00528 0.994654 0.990747
1.00538 0.994814 0.990478
1.00529 0.994709 0.990356
1.00534 0.994784 0.990524
1.00536 0.994847 0.990559
1.00527 0.994768 0.990838
1.00533 0.994815 0.990715
1.00534 0.994847 0.990764
1.00528 0.994796 0.990911
1.00534 0.994807 0.990841
1.00532 0.994838 0.990996
1.00527 0.994797 0.991134
1.00525 0.994946 0.990971
1.00527 0.995901 0.990124
1.00534 0.998839 0.986983
1.00537 0.996641 0.989016
1.00532 0.995583 0.990125
1.00532 1.00274 0.983196
1.00539 1.00053 0.985246
1.00549 0.998086 0.987056
1.00325 1.00282 0.986691
1.00471 1.00383 0.983055
1.00551 1.00197 0.983891
1.00137 1.00204 0.996157
1.00252 1.00363 0.986826
1.00373 1.00318 0.984987
1.00089 1.00156 0.996637
1.00179 1.00344 0.988421
1.00064 1.00056 0.997126
1.00533 1.00116 0.984788
1.00528 1.00349 0.982979
1.00469 1.00409 0.982966
1.00533 1.00282 0.982832
1.00437 1.00379 0.984073
1.00317 1.00336 0.985615
1.00277 1.00512 0.986471
1.00252 1.00428 0.986883
1.00133 1.00326 0.989384
1.00124 1.00516 0.98769
1.00053 1.00282 0.991187
1.0002 1.00041 0.997531
1.00002 0.999118 0.998243
0.999883 1.0022 0.992568
0.999926 0.998676 0.998549
0.995351 0.994845 0.962998
0.9992 0.994888 0.919876
0.999787 0.996675 0.865787
1.00531 0.996748 0.988519
1.00395 1.00018 0.9891
1.00469 1.00255 0.984633
1.00465 0.9956 0.991422
1.00527 0.999085 0.986757
1.00524 0.995857 0.990065
1.00506 0.995623 0.990333
1.00124 0.996835 0.995904
1.00454 0.996153 0.990993
1.00182 0.998326 0.993642
1.00353 0.998558 0.990248
1.00321 0.99472 0.99461
1.00122 0.998471 0.994965
1.00117 0.998613 0.9959
0.998215 0.994705 0.988755
0.9955 0.994761 0.95744
0.996352 0.994708 0.921781
0.995319 0.994826 0.96772
0.998715 0.994817 0.992853
0.999179 0.99502 1.00214
1.00404 0.994868 0.97632
0.99987 0.994833 0.957351
1.00007 0.996006 0.920131
0.998517 0.996607 0.985589
0.997057 0.994796 0.966751
1.00148 0.99589 0.988022
1.00262 0.994715 0.985129
1.00328 0.997041 0.990121
1.00541 0.994633 0.99075
1.00376 0.994641 0.991975
1.00518 0.9948 0.990897
1.00538 0.994898 0.990507
1.00529 0.994677 0.990704
1.00538 0.994817 0.990487
1.00539 0.994853 0.990564
1.00534 0.994789 0.990526
1.00535 0.994846 0.990564
1.00533 0.994873 0.990808
1.00532 0.994817 0.990744
1.00535 0.994848 0.990756
1.00531 0.994858 0.990958
1.00534 0.994804 0.990839
1.00531 0.994829 0.990972
1.00531 0.995003 0.991002
1.00526 0.994889 0.990995
1.00527 0.995663 0.990307
1.00532 0.998145 0.987933
1.0053 1.0016 0.984451
1.00532 0.999134 0.98671
1.00537 0.996863 0.98868
1.00354 1.00158 0.98717
1.00529 1.00276 0.983208
1.00539 1.00066 0.985254
1.00217 1.00162 0.995913
1.00323 1.0026 0.986614
1.00435 1.00395 0.983073
1.00162 1.00204 0.996024
1.00246 1.00351 0.986709
1.00117 1.00198 0.996317
1.00535 0.998554 0.986827
1.0053 1.00122 0.984747
1.00542 1.00272 0.983318
1.00526 1.00343 0.982901
1.00494 1.00419 0.982705
1.00369 1.0038 0.984485
1.00534 1.00303 0.983758
1.00322 1.0037 0.985653
1.00179 1.00371 0.988088
1.00244 1.00436 0.986856
1.00128 1.0035 0.989423
1.00049 1.00156 0.99696
1.00034 1.00306 0.991196
1.00002 1.00017 0.997776
0.999957 0.999184 0.998336
0.999032 0.994667 0.985553
0.996423 0.994808 0.957884
0.999985 0.994827 0.935908
1.00539 0.995272 0.989829
1.0053 0.995121 0.990168
1.00533 0.996484 0.988732
1.005 0.995827 0.991356
1.00529 0.999038 0.986857
1.00525 0.995731 0.990104
1.00537 0.994922 0.990005
1.00487 0.995074 0.991038
1.00218 0.998322 0.993637
1.00354 0.998149 0.990964
1.00519 0.994802 0.991128
1.00361 0.99476 0.993267
1.00254 0.994781 0.994495
1.00131 0.998223 0.99531
0.998853 0.994667 0.988617
0.996316 0.994799 0.956529
0.999129 0.99484 0.995304
1.00483 0.995759 0.98945
1.00381 0.995207 0.976399
0.998989 0.994855 0.957806
1.00146 0.994869 0.988607
1.00195 0.994712 0.985656
1.00357 0.995985 0.990473
1.0054 0.994629 0.990915
1.00545 0.994745 0.990983
1.0055 0.994772 0.991357
1.00519 0.994782 0.990897
1.00539 0.994878 0.990521
1.0054 0.99485 0.990853
1.00538 0.994813 0.990496
1.00539 0.99485 0.990587
1.00534 0.994859 0.990893
1.00535 0.994844 0.99057
1.00533 0.994873 0.990805
1.00528 0.994892 0.991044
1.00535 0.994849 0.990749
1.00531 0.994859 0.990957
1.00531 0.994863 0.991173
1.0053 0.99482 0.990949
1.0053 0.995012 0.990916
1.00533 0.997161 0.988887
1.00528 0.995438 0.990491
1.00531 0.998032 0.988065
1.00531 1.00084 0.985301
1.00366 1.00094 0.987769
1.00532 1.00156 0.984483
1.00532 0.999446 0.986438
1.00249 1.00084 0.995991
1.00351 1.0017 0.98723
1.00522 1.00299 0.983219
1.00224 1.00146 0.995919
1.00326 1.00267 0.98655
1.00183 1.00208 0.995926
1.00532 0.996204 0.989163
1.00535 0.998371 0.987123
1.00542 1.00105 0.984885
1.00528 1.00129 0.984699
1.00543 1.00277 0.983194
1.00436 1.00391 0.983334
1.00538 1.00414 0.982438
1.00397 1.00366 0.984472
1.00229 1.00393 0.986902
1.00373 1.00378 0.985717
1.00168 1.00381 0.988117
1.00085 1.00216 0.996507
1.00095 1.00375 0.989459
1.00028 1.00134 0.997153
0.999984 0.999795 0.997993
1.00369 0.994921 0.992249
0.998653 0.994849 0.98296
0.996154 0.994794 0.959036
1.00533 0.994866 0.990332
1.00536 0.995214 0.989916
1.00526 0.994853 0.990839
1.0053 0.99531 0.990119
1.00535 0.996277 0.988933
1.00541 0.994813 0.990424
1.00526 0.995585 0.990131
1.00534 0.994992 0.99001
1.00532 0.994728 0.990872
1.00357 0.997261 0.991673
1.0052 0.994786 0.990772
1.00297 0.994649 0.993497
1.00152 0.994815 0.994414
0.999464 0.994633 0.988232
1.00544 0.99478 0.991521
1.00527 0.994935 0.989454
1.00367 0.994971 0.976567
1.0037 0.994905 0.990804
1.00538 0.994635 0.991073
1.00541 0.994741 0.990942
1.00553 0.994786 0.99147
1.00541 0.994814 0.991391
1.00541 0.994851 0.990537
1.00539 0.994847 0.990851
1.00534 0.994871 0.991157
1.0054 0.994849 0.990609
1.00534 0.994861 0.990895
1.00527 0.994904 0.991184
1.00534 0.994873 0.990802
1.00529 0.994893 0.99104
1.00522 0.994894 0.991376
1.00531 0.994859 0.990956
1.00532 0.994865 0.991137
1.00533 0.996226 0.989952
1.0053 0.995023 0.990831
1.00534 0.997204 0.988874
1.00531 1.00022 0.986005
1.00531 0.997908 0.988198
1.00532 1.00081 0.985329
1.00356 1.00078 0.989992
1.00287 0.999852 0.992308
1.00365 1.00098 0.988732
1.00533 1.0015 0.984513
1.00241 1.00077 0.996055
1.00348 1.00154 0.987289
1.00223 1.00141 0.995952
1.00527 0.994884 0.991073
1.0053 0.995232 0.990483
1.00531 0.996226 0.989393
1.00529 0.999405 0.986538
1.00533 0.998141 0.98742
1.00537 1.00103 0.984821
1.00505 1.00319 0.983137
1.00542 1.00283 0.98307
1.00479 1.00354 0.983298
1.00301 1.00318 0.986278
1.0044 1.00358 0.984467
1.0023 1.00392 0.98694
1.00154 1.00244 0.995978
1.00177 1.00386 0.988159
1.00071 1.00198 0.996692
0.999967 1.00114 0.997389
1.00536 0.994824 0.99131
1.00344 0.99494 0.991697
0.998657 0.995142 0.980417
1.0053 0.994847 0.990769
1.00533 0.994965 0.990276
1.00534 0.995124 0.990019
1.00527 0.994863 0.990864
1.0053 0.995497 0.99007
1.00536 0.994866 0.990859
1.00538 0.99481 0.990371
1.00531 0.995092 0.990017
1.00528 0.994739 0.990916
1.00519 0.994798 0.990414
1.00261 0.994522 0.993683
1.00535 0.994847 0.991443
1.00542 0.994791 0.991521
1.00539 0.994732 0.989458
1.00537 0.994723 0.990892
1.00558 0.994794 0.991582
1.00542 0.994829 0.991368
1.00534 0.994894 0.991421
1.00539 0.994848 0.990849
1.00534 0.994874 0.991117
1.00527 0.99492 0.991343
1.00534 0.994865 0.990897
1.00527 0.994904 0.991183
1.00513 0.994924 0.991598
1.00529 0.994893 0.991036
1.00525 0.994895 0.991355
1.00533 0.995586 0.990785
1.00532 0.994867 0.991102
1.00533 0.996267 0.98994
1.00529 0.999734 0.986591
1.00536 0.997245 0.98886
1.00531 1.0002 0.986041
1.00356 1.0006 0.990168
1.00534 1.00077 0.98536
1.00381 1.00063 0.989831
1.00285 0.999609 0.992432
1.0025 1.00019 0.994327
1.00386 1.00099 0.989479
1.0024 1.00065 0.996103
1.00528 0.99489 0.991034
1.0053 0.994981 0.990871
1.00527 0.994888 0.991104
1.00532 0.997867 0.988104
1.00529 0.99518 0.990616
1.0053 0.996275 0.989624
1.00529 0.999342 0.986522
1.00534 1.00176 0.984191
1.00534 1.001 0.98476
1.00515 1.00312 0.983126
1.00341 1.00204 0.98696
1.00503 1.00342 0.983268
1.00302 1.00329 0.986352
1.00203 1.00189 0.995863
1.0023 1.00386 0.986982
1.00131 1.00218 0.996187
1.00049 1.00194 0.996823
1.00534 0.994885 0.991138
1.00533 0.994818 0.991367
1.00277 0.994834 0.991172
1.00529 0.994918 0.990972
1.00531 0.994847 0.990727
1.00533 0.995042 0.990223
1.00528 0.994872 0.990888
1.00538 0.994878 0.990823
1.00535 0.99481 0.990316
1.00525 0.994762 0.990956
1.00535 0.994894 0.991431
1.00534 0.994851 0.991406
1.00539 0.994802 0.991519
1.00532 0.994913 0.991488
1.00542 0.994849 0.991345
1.00534 0.994892 0.991412
1.00528 0.994925 0.991469
1.00534 0.994875 0.991076
1.00527 0.99492 0.991349
1.0051 0.994954 0.991744
1.00528 0.994904 0.991183
1.00515 0.994924 0.991589
1.00531 0.995191 0.991338
1.00527 0.994896 0.991335
1.00529 0.995635 0.990784
1.00531 0.999329 0.987015
1.00532 0.996308 0.989928
1.00529 0.999721 0.986624
1.00352 1.00051 0.990271
1.0053 1.00018 0.986079
1.00378 1.00048 0.989983
1.00276 0.999696 0.992447
1.00405 1.00046 0.989676
1.00232 0.999761 0.992838
1.00174 1.00055 0.996772
1.00525 0.994939 0.991104
1.00527 0.9949 0.991148
1.00527 0.994895 0.991051
1.00534 0.997208 0.988776
1.00531 0.994908 0.99096
1.00527 0.994891 0.991138
1.00535 1.00058 0.985448
1.00533 0.997783 0.988117
1.00529 0.995106 0.99075
1.0053 0.99928 0.986504
1.00534 1.00181 0.984156
1.00344 1.00125 0.987803
1.00534 1.00301 0.983102
1.00336 1.0021 0.986936
1.00215 1.00115 0.996062
1.003 1.00332 0.986405
1.00196 1.00192 0.995867
1.00115 1.00208 0.996421
1.0053 0.99492 0.991289
1.00536 0.994877 0.991071
1.00529 0.994798 0.99143
1.00529 0.994918 0.990977
1.00531 0.994843 0.990687
1.00538 0.994884 0.990786
1.00531 0.994924 0.991484
1.00535 0.994897 0.991438
1.00536 0.994856 0.99137
1.00532 0.994914 0.991501
1.00526 0.994935 0.991621
1.00534 0.99489 0.991402
1.00528 0.994926 0.991501
1.0051 0.994952 0.991775
1.00528 0.99492 0.991354
1.0051 0.994952 0.991745
1.00529 0.994968 0.991637
1.00517 0.994925 0.991579
1.00527 0.995233 0.991333
1.00536 0.998952 0.987362
1.00524 0.995684 0.990781
1.00533 0.999316 0.987032
1.00343 1.00044 0.990426
1.00528 0.999708 0.986658
1.00374 1.00042 0.990075
1.00263 0.99986 0.992439
1.004 1.00037 0.989806
1.00228 0.999752 0.992873
1.00179 0.999943 0.99323
1.00524 0.994945 0.991319
1.0052 0.994953 0.99136
1.00525 0.994936 0.991077
1.00528 0.996422 0.989847
1.00528 0.99491 0.991121
1.00526 0.994902 0.991067
1.00529 0.999908 0.98633
1.00533 0.996852 0.989173
1.00531 0.994881 0.99105
1.00354 1.00066 0.988269
1.00534 1.00065 0.985403
1.00533 0.997701 0.988131
1.00533 1.00184 0.984122
1.00347 1.00121 0.987756
1.00221 1.00064 0.996199
1.00332 1.00228 0.986926
1.0022 1.00127 0.995986
1.00186 1.00188 0.995934
1.00527 0.99494 0.991489
1.0053 0.994918 0.991247
1.00538 0.994867 0.991004
1.00528 0.994921 0.990983
1.00522 0.994954 0.991658
1.00532 0.994922 0.991486
1.00535 0.994899 0.991446
1.00532 0.994916 0.991514
1.00526 0.994935 0.991626
1.00509 0.994954 0.991916
1.00528 0.994929 0.991533
1.0051 0.994954 0.991836
1.00528 0.994948 0.991656
1.00511 0.994951 0.991745
1.00527 0.995003 0.99163
1.0054 0.998612 0.987692
1.00523 0.995288 0.991328
1.00539 0.998931 0.987362
1.00346 1.00035 0.988801
1.00534 0.999304 0.987048
1.00365 1.0004 0.989342
1.00224 0.99995 0.996221
1.00396 1.00034 0.989877
1.00219 0.999878 0.992866
1.00182 0.999796 0.993283
1.00522 0.994958 0.991478
1.00515 0.994956 0.991524
1.00524 0.994948 0.991356
1.00526 0.995567 0.990914
1.00519 0.994952 0.991328
1.00525 0.994932 0.991049
1.00527 0.9989 0.987534
1.00528 0.996388 0.989844
1.00528 0.994919 0.991093
1.0036 1.00037 0.988485
1.00529 0.999623 0.986631
1.00533 0.996475 0.989568
1.00228 1.00022 0.996268
1.00357 1.00062 0.988231
1.00532 1.0007 0.985356
1.0035 1.00116 0.987711
1.00225 1.00067 0.99616
1.00223 1.00133 0.995896
1.00521 0.994964 0.99157
1.00528 0.994944 0.991474
1.0053 0.994917 0.991206
1.00505 0.994964 0.99203
1.00522 0.99495 0.99163
1.00532 0.99492 0.991489
1.00526 0.994934 0.991632
1.00509 0.994953 0.991914
1.00528 0.995678 0.990958
1.0051 0.994955 0.991897
1.00528 0.995308 0.991324
1.0054 0.997723 0.988662
1.00526 0.995031 0.991622
1.00541 0.998593 0.987685
1.0034 1.00013 0.989124
1.00541 0.998913 0.987366
1.00349 1.00032 0.98881
1.00213 1.00001 0.996255
1.00372 1.00037 0.988441
1.00205 0.999999 0.994655
1.00176 0.999877 0.993292
1.00518 0.994962 0.991641
1.0051 0.994961 0.991755
1.00522 0.994958 0.991492
1.00524 0.995511 0.991096
1.00514 0.994957 0.991559
1.00523 0.994952 0.991392
1.00533 0.998535 0.987816
1.00527 0.995842 0.990553
1.00519 0.994951 0.991296
1.00361 1.00031 0.988564
1.00526 0.99882 0.987575
1.00528 0.996352 0.989842
1.0023 0.999993 0.996263
1.0036 1.00038 0.988467
1.00529 0.999331 0.986934
1.00233 1.00024 0.996245
1.00359 1.00059 0.988193
1.00226 1.00073 0.99613
1.00506 0.994966 0.991926
1.0052 0.994962 0.991602
1.00528 0.994946 0.991459
1.00529 0.995695 0.990947
1.00506 0.994962 0.991994
1.00522 0.994947 0.991602
1.00509 0.994955 0.991912
1.00527 0.995678 0.990955
1.00538 0.99764 0.988765
1.00528 0.995652 0.990992
1.0054 0.998047 0.988285
1.00335 0.999923 0.989407
1.00542 0.998572 0.987678
1.00339 1.00013 0.989132
1.00198 1.00001 0.996324
1.00351 1.00029 0.988816
1.00207 1.00002 0.996275
1.00215 1 0.992724
1.00506 0.994962 0.991893
1.00517 0.99496 0.991572
1.00525 0.995389 0.991275
1.0051 0.994962 0.991759
1.00521 0.994957 0.991505
1.00535 0.999 0.987264
1.00526 0.995428 0.991096
1.00514 0.994957 0.991595
1.00354 1.00032 0.988687
1.00532 0.998854 0.987466
1.00528 0.996127 0.990193
1.00224 0.999967 0.996235
1.00359 1.00035 0.988561
1.00526 0.998743 0.987618
1.00234 1.00001 0.996267
1.0036 1.0004 0.988443
1.0024 1.00025 0.996218
1.00528 0.995771 0.990831
1.00506 0.994964 0.991961
1.0052 0.99496 0.991635
1.00538 0.997695 0.988711
1.00528 0.9957 0.990941
1.00506 0.994957 0.991958
1.00527 0.99567 0.990951
1.00538 0.997631 0.988757
1.00329 0.999804 0.98963
1.0054 0.99838 0.987909
1.00335 0.999924 0.989412
1.0019 0.999996 0.996401
1.00341 1.00014 0.989144
1.00194 1.00004 0.99636
1.00202 1.00004 0.996304
1.00526 0.995279 0.99142
1.00507 0.994964 0.991856
1.00517 0.994959 0.991502
1.00536 0.998821 0.987457
1.00526 0.995322 0.991275
1.0051 0.994964 0.991762
1.00346 1.00027 0.988901
1.00534 0.99903 0.987268
1.00528 0.995345 0.991094
1.00211 1.00002 0.996234
1.00352 1.00036 0.988686
1.00531 0.999166 0.987115
1.00229 0.999969 0.996244
1.00356 1.00039 0.988554
1.0024 1 0.996266
1.00539 0.998463 0.987829
1.00528 0.995453 0.991199
1.00507 0.994962 0.991996
1.00325 0.999754 0.989766
1.00539 0.997668 0.98872
1.00527 0.995701 0.990935
1.00539 0.997628 0.988749
1.00331 0.99978 0.98963
1.00183 0.999985 0.996448
1.00335 0.999925 0.989417
1.00187 1 0.996414
1.00188 1.00005 0.996387
1.00538 0.998642 0.987661
1.00527 0.995245 0.99143
1.00507 0.994965 0.991818
1.00354 1.00013 0.99063
1.00535 0.99884 0.987464
1.00527 0.995255 0.991274
1.00199 1.00007 0.996277
1.00343 1.00031 0.988902
1.00533 0.999061 0.987274
1.00217 1.00001 0.996235
1.0035 1.0004 0.988686
1.00234 0.999958 0.996254
1.00339 0.999759 0.989598
1.00538 0.998138 0.988205
1.00528 0.995138 0.991568
1.00174 0.999978 0.996508
1.00326 0.999731 0.989754
1.0054 0.997648 0.988731
1.00332 0.999754 0.989627
1.0018 0.999978 0.996468
1.00183 1.00002 0.996432
1.0036 0.999944 0.990799
1.00537 0.998649 0.987666
1.00528 0.99521 0.991441
1.00132 1.00011 0.997013
1.00336 1.00016 0.989175
1.00535 0.998858 0.987474
1.00202 1.00006 0.996268
1.00341 1.00035 0.988902
1.00222 0.999996 0.996234
1.00174 0.999885 0.993431
1.00341 0.999787 0.990324
1.00538 0.997806 0.988577
1.00177 0.999974 0.996513
1.00328 0.999714 0.98975
1.00181 0.999971 0.996483
1.00113 1.00005 0.993961
1.00346 0.999902 0.990122
1.00536 0.99866 0.98767
1.00157 1.00008 0.995069
1.00333 1.00016 0.989198
1.00207 1.00005 0.996261
1.00176 0.999973 0.9965
1.00325 0.999789 0.989707
1.00174 0.999964 0.996509
1.00151 0.999961 0.995225
1.00332 0.999891 0.989505
1.00192 1.00007 0.996321
1.00177 0.999995 0.996491
1.00181 1.00001 0.996413

TENSORS stress float
0.00274989 -0.000194715 0.00031872
-0.000194715 0.0014555 -6.00766e-05
0.00031872 -6.00766e-05 0.00142743
0.00829741 0.000185005 0.000392394
0.000185005 0.00507417 5.14466e-05
0.000392394 5.14466e-05 0.00509224
0.00233248 -0.00012387 0.000125407
-0.00012387 0.00117745 -2.27794e-05
0.000125407 -2.27794e-05 0.00113376
0.00252349 -0.000107697 0.000296749
-0.000107697 0.00129492 -3.37435e-05
0.000296749 -3.37435e-05 0.00127912
0.00269969 -0.000168549 0.000308103
-0.000168549 0.00141719 -5.20783e-05
0.000308103 -5.20783e-05 0.00139305
0.00285192 -0.000204979 0.000333531
-0.000204979 0.00151992 -6.35174e-05
0.000333531 -6.35174e-05 0.00149249
0.00222672 -0.000238607 6.36677e-05
-0.000238607 0.00093722 -1.64541e-05
6.36677e-05 -1.64541e-05 0.00078006
0.0084575 0.000178363 -1.00807e-05
0.000178363 0.00516878 -3.59043e-06
-1.00807e-05 -3.59043e-06 0.00519092
0.00735997 0.000287154 0.000191503
0.000287154 0.00448899 2.25093e-05
0.000191503 2.25093e-05 0.00445338
0.00776096 0.000104529 0.000134492
0.000104529 0.00469988 9.95058e-06
0.000134492 9.95058e-06 0.0046784
0.00209626 0.000268833 0.00035348
0.000268833 0.00106162 5.65781e-05
0.00035348 5.65781e-05 0.00103768
0.000250671 0.00030841 2.57124e-05
0.00030841 -0.00026775 2.382e-05
2.57124e-05 2.382e-05 -0.000467965
0.00202928 -2.74359e-05 0.000283415
-2.74359e-05 0.000973941 5.82906e-06
0.000283415 5.82906e-06 0.000980573
0.00178638 9.5607e-06 8.13984e-05
9.5607e-06 0.000842871 3.59112e-06
8.13984e-05 3.59112e-06 0.000789557
0.00198876 -0.000121101 -7.96959e-05
-0.000121101 0.000969396 1.52947e-05
-7.96959e-05 1.52947e-05 0.000900012
0.0021715 -0.000104768 9.51434e-05
-0.000104768 0.00108666 -6.5722e-06
9.51434e-05 -6.5722e-06 0.00104674
0.00240932 -0.000117433 0.000138367
-0.000117433 0.00122847 -2.60263e-05
0.000138367 -2.60263e-05 0.00118271
0.00228542 -0.000124091 0.000112142
-0.000124091 0.00114981 -1.68119e-05
0.000112142 -1.68119e-05 0.00110788
0.00235074 -0.000275227 -4.92865e-05
-0.000275227 0.0010196 8.66191e-06
-4.92865e-05 8.66191e-06 0.000872718
0.0067906 -0.000175437 0.000378937
-0.000175437 0.00412264 -2.02948e-05
0.000378937 -2.02948e-05 0.0041513
0.00237909 -8.121e-05 0.000288644
-8.121e-05 0.00120359 -2.53871e-05
0.000288644 -2.53871e-05 0.00119187
0.00262402 -0.000137486 0.000301495
-0.000137486 0.00136293 -4.29132e-05
0.000301495 -4.29132e-05 0.00134324
0.0021177 -0.000181813 7.82619e-05
-0.000181813 0.000907888 -1.30962e-05
7.82619e-05 -1.30962e-05 0.00078966
0.00219747 -0.000226686 7.07217e-05
-0.000226686 0.000926026 -1.59731e-05
7.07217e-05 -1.59731e-05 0.000784905
0.00275888 -0.000187209 0.000339956
-0.000187209 0.00145483 -6.11314e-05
0.000339956 -6.11314e-05 0.00143145
0.00226388 -0.000249967 6.06663e-05
-0.000249967 0.000968012 -1.74705e-05
6.06663e-05 -1.74705e-05 0.000790461
0.00221534 -0.000485878 1.69153e-05
-0.000485878 0.000595327 -6.33799e-06
1.69153e-05 -6.33799e-06 0.000295922
0.00857684 0.000179442 -0.000426008
0.000179442 0.00523401 -4.47202e-05
-0.000426008 -4.47202e-05 0.00526433
0.00491148 0.00021052 -0.000170365
0.00021052 0.00287574 -2.16564e-05
-0.000170365 -2.16564e-05 0.00284953
0.0051072 0.000155231 -0.000180801
0.000155231 0.00299637 -2.29938e-05
-0.000180801 -2.29938e-05 0.00297369
0.00885068 0.000121554 -3.86767e-06
0.000121554 0.0054248 -2.31774e-06
-3.86767e-06 -2.31774e-06 0.00544871
0.000260536 0.000294662 -1.4213e-06
0.000294662 -0.0002535 -1.09866e-06
-1.4213e-06 -1.09866e-06 -0.000451251
0.00219426 8.42816e-05 0.000297966
8.42816e-05 0.00107866 3.1157e-05
0.000297966 3.1157e-05 0.00106878
0.00230446 0.000176385 0.000311446
0.000176385 0.00117748 4.90505e-05
0.000311446 4.90505e-05 0.00115346
0.00304486 0.00027792 0.000180598
0.00027792 0.00148202 2.86225e-05
0.000180598 2.86225e-05 0.00136981
0.00840939 -0.00019583 6.89167e-05
-0.00019583 0.00518819 4.22129e-06
6.89167e-05 4.22129e-06 0.00514312
0.00324153 0.00038436 0.000198547
0.00038436 0.00165875 3.83076e-05
0.000198547 3.83076e-05 0.00151344
0.000195918 0.000279958 2.63935e-05
0.000279958 -0.000281874 3.29694e-05
2.63935e-05 3.29694e-05 -0.0004833
0.00141725 0.000513 3.05507e-05
0.000513 0.000213693 5.34457e-06
3.05507e-05 5.34457e-06 -0.000157414
0.00668235 -8.99171e-05 0.00025688
-8.99171e-05 0.00413523 3.39994e-05
0.00025688 3.39994e-05 0.00412795
0.00670405 9.32884e-05 2.83656e-06
9.32884e-05 0.00405034 -2.23024e-06
2.83656e-06 -2.23024e-06 0.00408868
0.00443087 0.000108232 -0.000142812
0.000108232 0.00256449 -7.16418e-06
-0.000142812 -7.16418e-06 0.00255486
0.00657662 5.76153e-05 0.000366687
5.76153e-05 0.00396937 5.35689e-06
0.000366687 5.35689e-06 0.00400909
0.00167596 9.32894e-05 8.33034e-05
9.32894e-05 0.000776018 6.76684e-06
8.33034e-05 6.76684e-06 0.000726565
0.000412291 1.76292e-05 1.22582e-05
1.76292e-05 -0.000199026 2.87454e-06
1.22582e-05 2.87454e-06 -0.000297593
0.00695699 0.000256533 0.000213666
0.000256533 0.00425048 2.22405e-05
0.000213666 2.22405e-05 0.00422348
0.00298892 0.000105928 0.000164573
0.000105928 0.00145291 1.25716e-05
0.000164573 1.25716e-05 0.00138628
0.00180215 -0.000105585 -9.75461e-05
-0.000105585 0.000868051 1.37467e-05
-9.75461e-05 1.37467e-05 0.000803417
0.00186493 -0.000138761 -9.16279e-05
-0.000138761 0.000904618 1.74836e-05
-9.16279e-05 1.74836e-05 0.000832977
0.00207978 -8.63726e-05 -6.77966e-05
-8.63726e-05 0.00101627 1.28406e-05
-6.77966e-05 1.28406e-05 0.00094927
0.002431 -0.00027644 -0.000169368
-0.00027644 0.00106036 3.37431e-05
-0.000169368 3.37431e-05 0.000929163
0.00430333 -4.53182e-05 -0.000145941
-4.53182e-05 0.0024888 -7.32627e-07
-0.000145941 -7.32627e-07 0.00248001
0.00208623 -8.29474e-05 9.77483e-05
-8.29474e-05 0.00103 -5.07065e-06
9.77483e-05 -5.07065e-06 0.000995462
0.00258153 -9.29868e-05 0.000142908
-9.29868e-05 0.00133675 -2.47935e-05
0.000142908 -2.47935e-05 0.00129002
0.00222999 -0.000114194 0.000102097
-0.000114194 0.0011191 -1.09307e-05
0.000102097 -1.09307e-05 0.00107834
0.00220039 -0.000159461 -4.02232e-05
-0.000159461 0.000946927 3.63148e-06
-4.02232e-05 3.63148e-06 0.000844349
0.0023808 -0.000297895 -5.68782e-05
-0.000297895 0.00104385 1.01257e-05
-5.68782e-05 1.01257e-05 0.000878328
0.00228651 -0.000240627 -4.3797e-05
-0.000240627 0.000981108 6.45424e-06
-4.3797e-05 6.45424e-06 0.000851426
0.00234571 -0.000496358 -1.03812e-05
-0.000496358 0.000679239 2.79561e-06
-1.03812e-05 2.79561e-06 0.0003804
0.00660806 -2.13254e-05 0.000365579
-2.13254e-05 0.00398578 -5.5851e-06
0.000365579 -5.5851e-06 0.00402696
0.00228899 -5.43862e-05 0.00028226
-5.43862e-05 0.00114818 -1.79713e-05
0.00028226 -1.79713e-05 0.00114165
0.00253849 -3.26661e-05 6.10616e-05
-3.26661e-05 0.00120305 -1.41308e-06
6.10616e-05 -1.41308e-06 0.00112577
0.00202287 -0.000142691 7.0098e-05
-0.000142691 0.000852549 -8.74395e-06
7.0098e-05 -8.74395e-06 0.000748071
0.0021497 -0.000204277 7.55973e-05
-0.000204277 0.000912372 -1.50417e-05
7.55973e-05 -1.50417e-05 0.000783919
0.00204403 -0.000297841 1.91031e-06
-0.000297841 0.00041559 -1.71292e-06
1.91031e-06 -1.71292e-06 0.000221706
0.00212439 -0.00042819 1.19748e-05
-0.00042819 0.000484023 -3.39433e-06
1.19748e-05 -3.39433e-06 0.000232053
0.0028971 -0.00015902 0.000348431
-0.00015902 0.00153802 -5.65869e-05
0.000348431 -5.65869e-05 0.00151508
0.00227257 -0.000207681 5.18681e-05
-0.000207681 0.00101289 -1.60053e-05
5.18681e-05 -1.60053e-05 0.000829345
0.0021827 -0.000546078 1.98356e-05
-0.000546078 0.000608266 -6.27669e-06
1.98356e-05 -6.27669e-06 0.000260172
0.00216607 -0.000649864 9.88214e-07
-0.000649864 0.000304955 3.18027e-06
9.88214e-07 3.18027e-06 -3.19552e-05
0.00785749 0.000342312 -0.00042811
0.000342312 0.00480508 -5.56453e-05
-0.00042811 -5.56453e-05 0.00481578
0.00873054 8.25616e-05 -0.000387201
8.25616e-05 0.00534951 -3.78489e-05
-0.000387201 -3.78489e-05 0.00537309
0.00813413 0.000236364 -0.000409282
0.000236364 0.00495389 -4.80101e-05
-0.000409282 -4.80101e-05 0.00497859
0.000153167 0.000273936 -2.54228e-05
0.000273936 -0.000314509 -2.3632e-05
-2.54228e-05 -2.3632e-05 -0.000510678
0.00751064 0.000283019 -2.07567e-06
0.000283019 0.00457493 -2.84154e-06
-2.07567e-06 -2.84154e-06 0.00459355
0.00791951 0.000313295 -7.96364e-06
0.000313295 0.00483278 -4.06879e-06
-7.96364e-06 -4.06879e-06 0.00484595
0.000364151 0.000186889 1.19646e-07
0.000186889 -0.000271517 -2.94808e-07
1.19646e-07 -2.94808e-07 -0.000426476
0.00482498 7.03032e-08 -0.000171016
7.03032e-08 0.00285967 -1.28458e-05
-0.000171016 -1.28458e-05 0.00282617
0.000320066 0.000272894 1.92007e-06
0.000272894 -0.00024869 -4.12671e-07
1.92007e-06 -4.12671e-07 -0.000436921
0.00201468 0.000323007 8.69871e-05
0.000323007 0.000901347 6.08448e-06
8.69871e-05 6.08448e-06 0.000732186
0.00132283 0.000520293 1.00394e-06
0.000520293 0.000134752 3.4517e-07
1.00394e-06 3.4517e-07 -0.000242561
0.00749079 -4.36901e-05 0.000315954
-4.36901e-05 0.00463395 4.11536e-05
0.000315954 4.11536e-05 0.0046343
0.000426203 0.000202184 3.33477e-05
0.000202184 -9.21747e-05 1.76414e-05
3.33477e-05 1.76414e-05 -0.000210508
0.000459239 0.00014798 1.37861e-05
0.00014798 -0.00021607 1.22785e-05
1.37861e-05 1.22785e-05 -0.000356323
0.000452191 0.000222078 1.807e-05
0.000222078 -0.000205987 2.07495e-05
1.807e-05 2.07495e-05 -0.000374823
0.00159078 0.000411135 1.22169e-05
0.000411135 7.83819e-05 3.79193e-06
1.22169e-05 3.79193e-06 -0.000182155
0.00375441 0.000338233 0.000200889
0.000338233 0.00206205 3.65506e-05
0.000200889 3.65506e-05 0.00193145
0.00151516 0.000502209 2.51854e-05
0.000502209 0.000160967 5.84149e-06
2.51854e-05 5.84149e-06 -0.000176941
0.000798291 0.000457199 2.92271e-05
0.000457199 -7.74551e-05 4.96809e-06
2.92271e-05 4.96809e-06 -0.000457643
0.00194798 0.000752116 6.67701e-06
0.000752116 0.000337781 -6.19146e-06
6.67701e-06 -6.19146e-06 -0.000120988
0.00556195 -0.000148637 0.000183251
-0.000148637 0.00340933 2.1791e-05
0.000183251 2.1791e-05 0.00339329
0.00622198 -0.000150229 9.31688e-06
-0.000150229 0.00383914 4.01011e-06
9.31688e-06 4.01011e-06 0.00382206
0.00719955 8.88229e-05 -0.000388681
8.88229e-05 0.00435445 -2.24812e-05
-0.000388681 -2.24812e-05 0.00439103
0.00680324 8.55272e-05 -0.000378493
8.55272e-05 0.00410986 -1.37988e-05
-0.000378493 -1.37988e-05 0.00414964
0.006661 8.39923e-05 -4.02317e-07
8.39923e-05 0.00402821 -4.60371e-06
-4.02317e-07 -4.60371e-06 0.00406565
0.00429034 5.03372e-05 -0.000153487
5.03372e-05 0.00247187 -9.10489e-06
-0.000153487 -9.10489e-06 0.00246842
0.00153885 4.70104e-05 7.29128e-05
4.70104e-05 0.00053461 2.40303e-06
7.29128e-05 2.40303e-06 0.000458035
0.00464778 0.000172772 -0.000147596
0.000172772 0.00271093 -9.75809e-06
-0.000147596 -9.75809e-06 0.00269186
0.00165007 0.000118531 7.43001e-05
0.000118531 0.000581345 4.32856e-06
7.43001e-05 4.32856e-06 0.000487414
0.00663523 0.000106365 0.000371351
0.000106365 0.00401832 7.26826e-06
0.000371351 7.26826e-06 0.0040519
0.000278734 1.07725e-05 1.56728e-05
1.07725e-05 -0.000277318 1.67141e-06
1.56728e-05 1.67141e-06 -0.000371477
0.00292749 5.95473e-05 0.000162781
5.95473e-05 0.0014264 8.76703e-06
0.000162781 8.76703e-06 0.00136939
0.00137658 9.82819e-05 3.27943e-06
9.82819e-05 -6.28926e-05 9.53357e-07
3.27943e-06 9.53357e-07 -0.000193869
0.00291425 0.000163296 0.00017107
0.000163296 0.00139425 1.63733e-05
0.00017107 1.63733e-05 0.00131421
0.00149691 0.000208892 1.84571e-06
0.000208892 -1.37889e-05 9.30036e-07
1.84571e-06 9.30036e-07 -0.000176254
0.00204938 3.4651e-05 -0.000284424
3.4651e-05 0.000981057 5.25739e-06
-0.000284424 5.25739e-06 0.000990976
0.00176102 -3.44687e-05 -8.33317e-05
-3.44687e-05 0.000831032 5.11872e-06
-8.33317e-05 5.11872e-06 0.000775637
0.00218004 -5.58236e-05 -6.21653e-05
-5.58236e-05 0.00107597 1.16693e-05
-6.21653e-05 1.16693e-05 0.00100906
0.00180864 -0.000123889 -9.91075e-05
-0.000123889 0.00087218 1.66296e-05
-9.91075e-05 1.66296e-05 0.000804451
0.00230924 -0.000136505 -0.000153569
-0.000136505 0.0010037 1.62976e-05
-0.000153569 1.62976e-05 0.000916805
0.00240289 -0.000226376 -0.000162018
-0.000226376 0.00104168 2.78385e-05
-0.000162018 2.78385e-05 0.000929084
0.00252556 -0.000325859 -0.000179535
-0.000325859 0.00114015 3.72479e-05
-0.000179535 3.72479e-05 0.000985967
0.00248852 -0.000509681 -3.4528e-05
-0.000509681 0.00077145 1.08668e-05
-3.4528e-05 1.08668e-05 0.000472329
0.00669049 -0.000126737 2.55424e-06
-0.000126737 0.00405556 -2.18167e-06
2.55424e-06 -2.18167e-06 0.00408748
0.00197871 1.03178e-05 0.000104294
1.03178e-05 0.00094894 -6.09822e-06
0.000104294 -6.09822e-06 0.000926733
0.00122264 -2.35603e-05 -7.67147e-05
-2.35603e-05 0.000330604 3.23214e-06
-7.67147e-05 3.23214e-06 0.000254206
0.00211588 -0.000107753 -4.19612e-05
-0.000107753 0.000901873 4.09934e-06
-4.19612e-05 4.09934e-06 0.000811458
0.00596016 -0.000143913 0.000341065
-0.000143913 0.00354012 -3.49157e-05
0.000341065 -3.49157e-05 0.00353865
0.00293282 -0.0003019 -5.34219e-05
-0.0003019 0.00144657 6.58245e-06
-5.34219e-05 6.58245e-06 0.00127917
0.00224546 -0.000199374 -4.05114e-05
-0.000199374 0.000964911 4.78106e-06
-4.05114e-05 4.78106e-06 0.000850515
0.00218319 -0.000302746 -8.82378e-06
-0.000302746 0.000506224 2.00887e-06
-8.82378e-06 2.00887e-06 0.000319318
0.00241973 -0.000571779 -8.51205e-06
-0.000571779 0.000776112 2.65975e-06
-8.51205e-06 2.65975e-06 0.000424028
0.00223479 -0.000435323 -1.06219e-05
-0.000435323 0.000560365 3.1038e-06
-1.06219e-05 3.1038e-06 0.000303993
0.00219654 -0.000652023 1.07442e-06
-0.000652023 0.000330161 -1.01022e-07
1.07442e-06 -1.01022e-07 -7.13963e-06
0.000298727 2.42873e-06 1.65979e-05
2.42873e-06 -0.00027096 -1.07079e-07
1.65979e-05 -1.07079e-07 -0.000362544
0.00194019 -3.15416e-05 6.19119e-05
-3.15416e-05 0.000795138 -3.31457e-06
6.19119e-05 -3.31457e-06 0.000709869
0.00209299 -0.000110661 5.01242e-07
-0.000110661 0.000439139 2.00748e-07
5.01242e-07 2.00748e-07 0.000322963
0.00207702 -0.000241682 -1.31025e-07
-0.000241682 0.000440841 -3.42328e-07
-1.31025e-07 -3.42328e-07 0.000283047
0.00224786 -0.000369217 7.01947e-06
-0.000369217 0.000548824 -1.66924e-06
7.01947e-06 -1.66924e-06 0.000336494
0.0021242 -0.000419829 1.02636e-06
-0.000419829 9.89936e-05 -2.33233e-07
1.02636e-06 -2.33233e-07 -7.56147e-05
0.00834515 -2.72385e-05 0.000335082
-2.72385e-05 0.00512501 -3.38832e-05
0.000335082 -3.38832e-05 0.00513754
0.00206331 -0.000584699 2.10872e-06
-0.000584699 0.000163121 2.07235e-06
2.10872e-06 2.07235e-06 -0.00011928
0.000428399 -0.000261441 2.27509e-05
-0.000261441 -0.000166368 -2.93027e-05
2.27509e-05 -2.93027e-05 -0.000350531
0.00119318 -0.000542808 1.63687e-05
-0.000542808 3.85464e-05 -4.85456e-06
1.63687e-05 -4.85456e-06 -0.000367071
0.00233949 -0.000721331 -1.51885e-06
-0.000721331 0.000490901 4.47553e-06
-1.51885e-06 4.47553e-06 9.23555e-05
0.00223213 -0.000716106 9.20273e-07
-0.000716106 0.000257072 3.02778e-06
9.20273e-07 3.02778e-06 -5.22378e-05
0.000276195 -0.000213566 2.11728e-05
-0.000213566 -0.000191667 -2.51641e-05
2.11728e-05 -2.51641e-05 -0.000351561
0.00136893 -0.000232655 -1.34319e-06
-0.000232655 0.00056156 -3.11485e-06
-1.34319e-06 -3.11485e-06 0.000259963
0.00764914 0.000310869 -0.000425508
0.000310869 0.00467005 -4.95965e-05
-0.000425508 -4.95965e-05 0.00468545
0.00808635 0.00031356 -0.000427088
0.00031356 0.00493882 -5.50735e-05
-0.000427088 -5.50735e-05 0.00495618
0.00033597 0.000187695 -1.73484e-05
0.000187695 -0.000290752 -1.49756e-05
-1.73484e-05 -1.49756e-05 -0.000447468
0.00804601 -9.40354e-06 -0.000323516
-9.40354e-06 0.00494899 -3.04535e-05
-0.000323516 -3.04535e-05 0.00496224
0.000207998 0.000258123 -2.56038e-05
0.000258123 -0.000274509 -2.65506e-05
-2.56038e-05 -2.65506e-05 -0.00045798
0.000285472 0.000263706 -2.1258e-05
0.000263706 -0.000269896 -2.23609e-05
-2.1258e-05 -2.23609e-05 -0.000458929
0.00133634 0.000532666 -3.43204e-05
0.000532666 0.000128737 -5.97642e-06
-3.43204e-05 -5.97642e-06 -0.000254921
0.0073838 -4.72457e-05 -1.09628e-05
-4.72457e-05 0.00455836 1.51576e-06
-1.09628e-05 1.51576e-06 0.00456118
0.000735001 0.000176449 2.20879e-06
0.000176449 0.000104578 3.82848e-07
2.20879e-06 3.82848e-07 -9.49842e-06
0.00175526 0.000198102 7.86674e-05
0.000198102 0.000631523 7.81451e-06
7.86674e-05 7.81451e-06 0.00051012
0.0018096 0.000281061 8.36244e-05
0.000281061 0.000688415 1.00052e-05
8.36244e-05 1.00052e-05 0.000537005
0.00155706 0.000408572 -1.8627e-07
0.000408572 6.38278e-05 -3.56314e-07
-1.8627e-07 -3.56314e-07 -0.000197727
4.60366e-05 0.000245279 -8.67933e-08
0.000245279 -0.000349528 -3.56545e-07
-8.67933e-08 -3.56545e-07 -0.000522257
0.00147758 0.000498124 5.02204e-07
0.000498124 0.00013726 -1.23582e-08
5.02204e-07 -1.23582e-08 -0.00020099
0.000939203 0.000457709 4.55045e-06
0.000457709 7.9376e-07 -1.72991e-06
4.55045e-06 -1.72991e-06 -0.000373612
0.00197657 0.000762218 -1.77507e-06
0.000762218 0.000352572 1.15558e-07
-1.77507e-06 1.15558e-07 -0.000104706
0.000435414 0.000232401 2.33824e-05
0.000232401 -9.96397e-05 2.399e-05
2.33824e-05 2.399e-05 -0.000242475
0.000786178 0.000111918 1.71541e-05
0.000111918 0.000182002 1.87412e-05
1.71541e-05 1.87412e-05 7.29658e-05
1.17117e-05 0.000330985 2.25167e-06
0.000330985 -0.000288134 -4.20485e-07
2.25167e-06 -4.20485e-07 -0.00057349
0.00154205 0.000344173 8.26038e-06
0.000344173 2.20337e-05 2.78516e-06
8.26038e-06 2.78516e-06 -0.000200112
0.00159203 0.000466302 1.84378e-05
0.000466302 0.000129137 5.19691e-06
1.84378e-05 5.19691e-06 -0.000171436
0.00233657 0.000618619 3.50141e-06
0.000618619 0.00032238 -1.91405e-06
3.50141e-06 -1.91405e-06 4.1798e-05
0.000361275 0.000360992 1.19022e-05
0.000360992 -0.000217161 5.40318e-06
1.19022e-05 5.40318e-06 -0.000561628
0.00231504 0.000764856 1.4498e-06
0.000764856 0.000483142 -5.49033e-06
1.4498e-06 -5.49033e-06 8.23388e-05
0.00223812 0.000871668 3.29487e-06
0.000871668 0.000704803 -9.23152e-06
3.29487e-06 -9.23152e-06 0.000139149
0.0019376 0.000789694 -1.11486e-05
0.000789694 0.000214692 -1.00763e-05
-1.11486e-05 -1.00763e-05 -0.000215724
0.00473415 -0.000155232 0.000114944
-0.000155232 0.00284798 1.23426e-05
0.000114944 1.23426e-05 0.00283297
0.00528449 -0.000183837 1.5171e-05
-0.000183837 0.00322142 4.60507e-07
1.5171e-05 4.60507e-07 0.00319804
0.00585514 -0.000193948 -0.00015214
-0.000193948 0.003595 -1.38569e-05
-0.00015214 -1.38569e-05 0.00356935
0.000619351 -0.000217273 2.29618e-05
-0.000217273 6.04603e-05 -2.13871e-05
2.29618e-05 -2.13871e-05 -7.42297e-05
0.00721555 3.52815e-05 0.000273285
3.52815e-05 0.00443849 -3.01332e-05
0.000273285 -3.01332e-05 0.0044408
0.00745193 0.000251257 -0.000417487
0.000251257 0.00453506 -3.99238e-05
-0.000417487 -3.99238e-05 0.00455951
0.00691447 0.000116752 -0.0003805
0.000116752 0.00417884 -1.93986e-05
-0.0003805 -1.93986e-05 0.00421571
0.000292068 0.000119972 -1.56782e-05
0.000119972 -0.000304606 -7.40755e-06
-1.56782e-05 -7.40755e-06 -0.000421678
0.000247651 4.95228e-05 -1.56458e-05
4.95228e-05 -0.000304714 -3.76086e-06
-1.56458e-05 -3.76086e-06 -0.000404556
0.00660452 -5.31179e-07 -0.000364427
-5.31179e-07 0.00398319 -4.03704e-06
-0.000364427 -4.03704e-06 0.00402411
0.00655934 -5.34803e-06 5.19563e-08
-5.34803e-06 0.00395477 -1.37024e-06
5.19563e-08 -1.37024e-06 0.00399611
0.000250708 3.00723e-06 -1.78764e-07
3.00723e-06 -0.000298949 1.99277e-07
-1.78764e-07 1.99277e-07 -0.000391542
0.00157218 5.80089e-05 7.3779e-05
5.80089e-05 0.0005422 3.71658e-06
7.3779e-05 3.71658e-06 0.000460785
0.00137667 0.000101614 6.14959e-08
0.000101614 -5.74326e-05 7.31217e-09
6.14959e-08 7.31217e-09 -0.000189214
0.000352582 0.000120438 -8.9821e-07
0.000120438 -0.000275126 -4.35073e-07
-8.9821e-07 -4.35073e-07 -0.000403793
0.00144631 0.000208287 -2.15873e-07
0.000208287 -3.30284e-05 -1.3031e-07
-2.15873e-07 -1.3031e-07 -0.000196753
0.000243748 -3.32165e-05 1.64564e-05
-3.32165e-05 -0.000304186 -2.13593e-07
1.64564e-05 -2.13593e-07 -0.000394133
0.00133249 4.41212e-05 2.59347e-06
4.41212e-05 -7.4656e-05 6.71347e-07
2.59347e-06 6.71347e-07 -0.000199088
0.00141374 0.000155127 2.40204e-06
0.000155127 -5.3983e-05 1.04342e-06
2.40204e-06 1.04342e-06 -0.000197968
0.0022144 0.000155451 1.25091e-06
0.000155451 9.42905e-05 9.7686e-07
1.25091e-06 9.7686e-07 3.20854e-05
0.00152741 0.00027571 4.843e-06
0.00027571 7.57408e-06 1.7905e-06
4.843e-06 1.7905e-06 -0.000181608
0.00222437 0.000340864 2.51577e-06
0.000340864 0.000125649 4.33754e-07
2.51577e-06 4.33754e-07 1.26459e-05
0.00659582 -8.93135e-05 -0.000368932
-8.93135e-05 0.00398847 6.21892e-06
-0.000368932 6.21892e-06 0.00402403
0.0016549 -0.000169401 -8.31232e-05
-0.000169401 0.000787484 1.1388e-05
-8.31232e-05 1.1388e-05 0.000723186
-0.000205715 -1.24613e-05 -7.95571e-06
-1.24613e-05 -0.000596627 1.28115e-06
-7.95571e-06 1.28115e-06 -0.000703209
0.0022311 -9.77477e-05 -0.000148564
-9.77477e-05 0.000968121 1.14627e-05
-0.000148564 1.14627e-05 0.000890782
0.00893538 0.000138674 -8.94761e-05
0.000138674 0.00546225 4.22655e-06
-8.94761e-05 4.22655e-06 0.00542603
0.00315779 -0.000357592 -0.000182023
-0.000357592 0.00160192 3.81457e-05
-0.000182023 3.81457e-05 0.00144653
0.00237106 -0.000179179 -0.0001573
-0.000179179 0.00103047 2.17479e-05
-0.0001573 2.17479e-05 0.000932759
0.00231131 -0.000306683 -2.20816e-05
-0.000306683 0.00058991 4.43576e-06
-2.20816e-05 4.43576e-06 0.000410197
0.00231315 -0.000440525 -2.98354e-05
-0.000440525 0.000613704 9.53037e-06
-2.98354e-05 9.53037e-06 0.00035335
0.00253129 -0.000583583 -3.92616e-05
-0.000583583 0.000859275 1.20838e-05
-3.92616e-05 1.20838e-05 0.00050689
0.00219928 -0.000650156 3.96938e-07
-0.000650156 0.000340358 -3.17409e-06
3.96938e-07 -3.17409e-06 3.71462e-06
0.000250706 -8.59793e-07 5.21572e-08
-8.59793e-07 -0.000299631 3.87822e-07
5.21572e-08 3.87822e-07 -0.000391973
0.00206306 -0.000109044 -4.03773e-05
-0.000109044 0.000885037 9.23506e-07
-4.03773e-05 9.23506e-07 0.000801762
0.00177321 -0.000106655 -1.44501e-05
-0.000106655 0.000221815 1.01362e-06
-1.44501e-05 1.01362e-06 0.000102543
0.00205693 -0.000238603 -1.31764e-05
-0.000238603 0.000420134 2.17062e-06
-1.31764e-05 2.17062e-06 0.000257203
0.00867875 -3.84176e-05 4.84616e-06
-3.84176e-05 0.00533681 -6.47269e-07
4.84616e-06 -6.47269e-07 0.00535112
0.00166114 -0.000252959 1.02715e-05
-0.000252959 0.000654422 5.32444e-07
1.02715e-05 5.32444e-07 0.000466084
0.00191225 -0.000566364 2.16057e-06
-0.000566364 0.000517988 -1.86393e-06
2.16057e-06 -1.86393e-06 0.000125539
0.00223761 -0.000372848 -1.08081e-05
-0.000372848 0.000536536 3.1079e-06
-1.08081e-05 3.1079e-06 0.000322574
0.00226052 -0.000431379 2.67731e-06
-0.000431379 0.000189852 -1.03656e-06
2.67731e-06 -1.03656e-06 2.45608e-05
0.00228703 -0.000717402 1.63776e-06
-0.000717402 0.000456782 -1.70853e-07
1.63776e-06 -1.70853e-07 6.01946e-05
0.0022182 -0.000590568 2.22186e-07
-0.000590568 0.000275917 -1.61642e-07
2.22186e-07 -1.61642e-07 -9.52983e-06
0.00226291 -0.000718184 5.77322e-07
-0.000718184 0.000281356 4.85563e-07
5.77322e-07 4.85563e-07 -2.89264e-05
0.000339523 -0.000237187 2.31528e-06
-0.000237187 -0.000163004 7.40776e-07
2.31528e-06 7.40776e-07 -0.000320567
0.000635596 -0.000261048 -3.15906e-07
-0.000261048 0.000111482 -1.1137e-07
-3.15906e-07 -1.1137e-07 -0.000202469
0.00133192 -5.25764e-05 2.79207e-06
-5.25764e-05 -5.7934e-05 -6.02653e-09
2.79207e-06 -6.02653e-09 -0.000185166
0.00214592 -0.000175069 -7.92223e-07
-0.000175069 0.00047586 1.94127e-07
-7.92223e-07 1.94127e-07 0.000343241
0.00212442 -0.000171438 1.31641e-06
-0.000171438 4.98233e-05 -8.41601e-07
1.31641e-06 -8.41601e-07 -3.47425e-05
0.00226527 -0.000358001 -1.91964e-07
-0.000358001 0.000155283 4.90416e-07
-1.91964e-07 4.90416e-07 3.92783e-05
0.0022008 -0.000516518 -1.0774e-06
-0.000516518 0.000197082 8.47327e-07
-1.0774e-06 8.47327e-07 -2.62578e-05
0.00221993 -0.000461882 5.2797e-06
-0.000461882 5.81253e-05 -1.1286e-06
5.2797e-06 -1.1286e-06 -5.62591e-05
0.000329494 -0.000243501 1.77319e-05
-0.000243501 -0.000203137 -3.01307e-05
1.77319e-05 -3.01307e-05 -0.000381275
0.0023044 -0.000650795 7.82886e-07
-0.000650795 0.000248386 9.31594e-07
7.82886e-07 9.31594e-07 2.65278e-06
0.00170776 -0.000496925 1.4991e-05
-0.000496925 0.000453349 -1.05363e-05
1.4991e-05 -1.05363e-05 7.22579e-05
0.00194784 -0.000801401 6.22061e-06
-0.000801401 0.000300619 5.3655e-06
6.22061e-06 5.3655e-06 -0.000189139
0.00250627 -0.000795249 -3.89731e-07
-0.000795249 0.000498177 2.96467e-06
-3.89731e-07 2.96467e-06 0.000113052
0.0024467 -0.000750104 4.15588e-07
-0.000750104 0.000366319 1.81097e-06
4.15588e-07 1.81097e-06 8.08393e-05
0.000625643 -0.000270608 2.16918e-06
-0.000270608 4.65182e-05 -2.67556e-06
2.16918e-06 -2.67556e-06 -0.000281671
0.00105746 -0.000234347 -1.72728e-06
-0.000234347 0.000420092 -3.41302e-06
-1.72728e-06 -3.41302e-06 0.000165056
0.00155047 -0.000399737 -1.13139e-06
-0.000399737 0.000651696 1.86173e-06
-1.13139e-06 1.86173e-06 0.000261111
0.000331799 0.000156802 -1.58371e-05
0.000156802 -0.000297074 -1.17138e-05
-1.58371e-05 -1.17138e-05 -0.000441114
0.00693284 -8.89347e-05 -0.000254337
-8.89347e-05 0.00426677 -2.19852e-05
-0.000254337 -2.19852e-05 0.00426754
0.000577722 0.000147789 -2.03404e-05
0.000147789 1.32768e-05 -1.95706e-05
-2.03404e-05 -1.95706e-05 -9.86425e-05
0.000282517 0.000222515 -1.87525e-05
0.000222515 -0.000308151 -1.88843e-05
-1.87525e-05 -1.88843e-05 -0.00047968
0.00151737 0.000406186 -1.39927e-05
0.000406186 4.39748e-05 -4.30443e-06
-1.39927e-05 -4.30443e-06 -0.000218687
0.000432359 0.000243572 -2.13014e-05
0.000243572 -0.000120765 -2.82427e-05
-2.13014e-05 -2.82427e-05 -0.000287707
0.00127976 0.000477345 -2.89588e-05
0.000477345 0.000193694 -1.15887e-05
-2.89588e-05 -1.15887e-05 -0.00017735
0.0014045 0.000490433 -2.66232e-05
0.000490433 9.11598e-05 -5.98014e-06
-2.66232e-05 -5.98014e-06 -0.000246675
0.00198029 0.0007762 -9.55295e-06
0.0007762 0.000339857 6.81507e-06
-9.55295e-06 6.81507e-06 -0.000118143
0.000384767 0.000228378 -8.13679e-06
0.000228378 -0.00013502 2.06599e-06
-8.13679e-06 2.06599e-06 -0.00027284
0.000381914 8.42249e-05 -8.19784e-07
8.42249e-05 -6.84028e-05 1.40978e-06
-8.19784e-07 1.40978e-06 -0.000173435
0.000953417 0.000295003 -5.92274e-07
0.000295003 0.000282244 1.64646e-08
-5.92274e-07 1.64646e-08 2.56324e-05
0.00152942 0.000343928 -3.14188e-07
0.000343928 2.10485e-05 -1.66888e-07
-3.14188e-07 -1.66888e-07 -0.000202442
0.00153247 0.000459092 2.91735e-08
0.000459092 9.86415e-05 -3.26737e-07
2.91735e-08 -3.26737e-07 -0.000201597
0.0022784 0.000613697 -8.33471e-07
0.000613697 0.000281359 -3.65666e-07
-8.33471e-07 -3.65666e-07 2.05147e-06
0.000810406 0.000363126 1.64161e-06
0.000363126 6.20808e-05 9.52907e-07
1.64161e-06 9.52907e-07 -0.000268067
0.00233701 0.000761493 -1.19836e-06
0.000761493 0.000495997 -4.34897e-07
-1.19836e-06 -4.34897e-07 9.51989e-05
0.00202285 0.00085741 -1.96159e-06
0.00085741 0.000526367 -2.98844e-06
-1.96159e-06 -2.98844e-06 -3.86401e-05
0.00188036 0.000794622 -1.07116e-06
0.000794622 0.000154167 4.05013e-06
-1.07116e-06 4.05013e-06 -0.000272508
0.000607979 6.24554e-05 1.10499e-05
6.24554e-05 9.41857e-05 1.65379e-05
1.10499e-05 1.65379e-05 7.66849e-06
0.000425149 0.000343472 5.88173e-06
0.000343472 -6.54583e-05 1.11664e-07
5.88173e-06 1.11664e-07 -0.000368171
0.000854039 0.000188035 1.50589e-06
0.000188035 0.000300899 2.14776e-06
1.50589e-06 2.14776e-06 2.53141e-05
-0.00120894 0.000182197 -8.72637e-06
0.000182197 -0.00107999 6.24549e-06
-8.72637e-06 6.24549e-06 -0.00138064
0.00232343 0.000530506 2.56919e-06
0.000530506 0.000242268 -2.04539e-06
2.56919e-06 -2.04539e-06 2.50843e-05
0.00226538 0.000691849 2.63895e-06
0.000691849 0.0003635 -2.97104e-06
2.63895e-06 -2.97104e-06 1.91734e-05
0.0022382 0.000667136 7.74294e-07
0.000667136 0.000177752 -1.81073e-06
7.74294e-07 -1.81073e-06 -7.74931e-05
0.00145324 0.000708994 -9.65034e-06
0.000708994 0.000361211 -8.4924e-06
-9.65034e-06 -8.4924e-06 -0.000175882
0.00263108 0.000867871 -6.38382e-06
0.000867871 0.000588356 -4.9439e-06
-6.38382e-06 -4.9439e-06 0.000201701
0.00243352 0.00100277 -1.85172e-05
0.00100277 0.000690437 -1.86971e-05
-1.85172e-05 -1.86971e-05 9.11264e-05
0.00214309 0.000825134 -5.91767e-06
0.000825134 0.000192509 -5.73324e-06
-5.91767e-06 -5.73324e-06 -0.000206022
0.000803182 0.000118149 -2.37655e-06
0.000118149 0.000283622 7.50629e-06
-2.37655e-06 7.50629e-06 0.000148521
0.000564132 3.63296e-05 3.72958e-06
3.63296e-05 7.94778e-05 1.42136e-05
3.72958e-06 1.42136e-05 2.21792e-05
0.00420707 -0.000134056 8.87455e-05
-0.000134056 0.00248816 8.69233e-06
8.87455e-05 8.69233e-06 0.00247872
0.00454938 -0.000179975 1.59057e-05
-0.000179975 0.0027343 -1.74448e-06
1.59057e-05 -1.74448e-06 0.00271192
0.00496525 -0.000236845 -9.11179e-05
-0.000236845 0.00303635 -1.29617e-05
-9.11179e-05 -1.29617e-05 0.00299546
0.000465485 -0.000196497 2.28653e-05
-0.000196497 -7.89195e-06 -1.68935e-05
2.28653e-05 -1.68935e-05 -0.000119458
0.00596642 8.15979e-05 0.000199164
8.15979e-05 0.00364759 -2.44015e-05
0.000199164 -2.44015e-05 0.0036409
0.000535938 -0.000221332 2.2938e-06
-0.000221332 -1.91008e-06 8.76663e-07
2.2938e-06 8.76663e-07 -0.000139556
0.00764841 6.74893e-06 4.10873e-06
6.74893e-06 0.00471018 -8.09961e-08
4.10873e-06 -8.09961e-08 0.0047155
0.000321146 0.000143799 -1.61208e-05
0.000143799 -0.000295845 -9.54285e-06
-1.61208e-05 -9.54285e-06 -0.000427954
0.000269407 4.86259e-05 -1.42921e-05
4.86259e-05 -0.000307554 -4.66992e-06
-1.42921e-05 -4.66992e-06 -0.000412717
0.00141666 0.000208005 -2.6e-06
0.000208005 -4.3046e-05 -1.04442e-06
-2.6e-06 -1.04442e-06 -0.000207956
0.00138494 0.000104528 -3.1791e-06
0.000104528 -4.71386e-05 -7.9322e-07
-3.1791e-06 -7.9322e-07 -0.000179574
0.000292341 -3.79757e-06 -1.60823e-05
-3.79757e-06 -0.000275391 -1.60671e-06
-1.60823e-05 -1.60671e-06 -0.000366611
0.00665037 -0.00010606 -0.000375983
-0.00010606 0.0040279 7.051e-06
-0.000375983 7.051e-06 0.00406263
0.000289237 -3.77885e-06 -1.48837e-08
-3.77885e-06 -0.000275638 -6.78775e-07
-1.48837e-08 -6.78775e-07 -0.000365297
0.00134326 4.95008e-05 4.58129e-09
4.95008e-05 -6.50146e-05 7.40624e-08
4.58129e-09 7.40624e-08 -0.000189862
0.00142144 0.000155539 8.67561e-09
0.000155539 -4.19792e-05 1.03404e-07
8.67561e-09 1.03404e-07 -0.000186643
0.00221342 0.000153304 -4.04712e-08
0.000153304 9.46344e-05 1.22245e-07
-4.04712e-08 1.22245e-07 3.27794e-05
0.00148589 0.00027406 -3.29007e-07
0.00027406 -1.29485e-05 -1.76158e-07
-3.29007e-07 -1.76158e-07 -0.000203319
0.00222074 0.000342645 -4.34308e-07
0.000342645 0.000115506 1.84712e-07
-4.34308e-07 1.84712e-07 1.57703e-06
0.0013169 -6.72924e-06 2.24779e-06
-6.72924e-06 -7.17381e-05 2.2944e-07
2.24779e-06 2.2944e-07 -0.000195783
0.00219968 7.22492e-05 1.49473e-06
7.22492e-05 8.47007e-05 3.54471e-07
1.49473e-06 3.54471e-07 2.9739e-05
0.00222261 0.000245001 1.20253e-06
0.000245001 0.00010971 1.11878e-06
1.20253e-06 1.11878e-06 2.8386e-05
0.00214483 0.000163634 5.32945e-06
0.000163634 -1.0141e-07 7.06313e-07
5.32945e-06 7.06313e-07 -1.35604e-05
0.00222965 0.000433161 3.16487e-06
0.000433161 0.000140518 -2.50422e-07
3.16487e-06 -2.50422e-07 -1.75086e-05
0.00229358 0.000350093 5.11295e-06
0.000350093 6.93835e-05 8.16253e-07
5.11295e-06 8.16253e-07 2.06896e-05
0.000290669 -7.06939e-06 -1.56339e-05
-7.06939e-06 -0.000269775 2.73173e-07
-1.56339e-05 2.73173e-07 -0.000364242
0.00216738 -6.47509e-05 -0.000146426
-6.47509e-05 0.000939517 7.87564e-06
-0.000146426 7.87564e-06 0.000871256
0.00142985 -0.000102461 -1.38443e-05
-0.000102461 -1.25168e-05 1.32314e-06
-1.38443e-05 1.32314e-06 -0.000135293
0.00202883 -0.000236283 -1.95631e-05
-0.000236283 0.000392756 3.60262e-06
-1.95631e-05 3.60262e-06 0.000224538
0.00897093 -6.25595e-05 -0.000386316
-6.25595e-05 0.00551759 4.49124e-05
-0.000386316 4.49124e-05 0.00553238
0.00344162 -0.000371178 -0.000209159
-0.000371178 0.00181943 3.80586e-05
-0.000209159 3.80586e-05 0.0016659
0.00206534 -0.000579168 -2.87011e-05
-0.000579168 0.000662911 9.56943e-06
-2.87011e-05 9.56943e-06 0.00027423
0.00221037 -0.00037548 -2.77101e-05
-0.00037548 0.000511981 7.33195e-06
-2.77101e-05 7.33195e-06 0.000296633
0.00239265 -0.000442868 -5.66932e-07
-0.000442868 0.00027617 -1.4053e-06
-5.66932e-07 -1.4053e-06 0.000120511
0.00238015 -0.000596892 -7.437e-07
-0.000596892 0.000395126 -1.22569e-06
-7.437e-07 -1.22569e-06 0.000106534
0.00230848 -0.000721766 2.88853e-06
-0.000721766 0.000465996 -4.76811e-06
2.88853e-06 -4.76811e-06 6.95495e-05
0.00232415 -0.000724108 3.15257e-07
-0.000724108 0.000323541 -2.06288e-06
3.15257e-07 -2.06288e-06 1.12698e-05
0.00046563 -0.000257785 -2.14064e-05
-0.000257785 -8.66213e-05 2.60667e-05
-2.14064e-05 2.60667e-05 -0.000247113
0.000124407 -0.000246248 -1.06588e-06
-0.000246248 -0.000197063 2.61878e-06
-1.06588e-06 2.61878e-06 -0.00052208
0.00136848 -4.90016e-05 8.76437e-07
-4.90016e-05 -3.75653e-05 -1.09707e-07
8.76437e-07 -1.09707e-07 -0.000158138
0.00211234 -0.000175648 -1.2313e-05
-0.000175648 0.000448561 1.57467e-06
-1.2313e-05 1.57467e-06 0.000316043
0.00210454 -0.000166626 2.61885e-06
-0.000166626 3.1837e-05 -3.28963e-07
2.61885e-06 -3.28963e-07 -4.81574e-05
0.002149 -0.00035231 -1.81093e-06
-0.00035231 8.67069e-05 5.2709e-07
-1.81093e-06 5.2709e-07 -4.13298e-05
0.000254188 -0.000263857 -1.62368e-06
-0.000263857 -0.000239561 -2.78443e-07
-1.62368e-06 -2.78443e-07 -0.000422426
0.000793178 -0.00045813 -4.89696e-06
-0.00045813 -9.8724e-05 -5.85229e-07
-4.89696e-06 -5.85229e-07 -0.000486904
0.00209329 -0.000817877 -1.98479e-07
-0.000817877 0.000391029 1.59439e-06
-1.98479e-07 1.59439e-06 -0.000106899
0.00219749 -0.000514264 -1.02988e-06
-0.000514264 0.000198474 2.57618e-07
-1.02988e-06 2.57618e-07 -2.9203e-05
0.00229882 -0.000471205 7.72109e-07
-0.000471205 0.00010173 -6.73714e-07
7.72109e-07 -6.73714e-07 -6.68946e-06
0.00259343 -0.000803726 1.34226e-06
-0.000803726 0.000554445 -1.7157e-06
1.34226e-06 -1.7157e-06 0.000172288
0.00224576 -0.000644934 1.32401e-07
-0.000644934 0.000207709 7.81145e-07
1.32401e-07 7.81145e-07 -3.68104e-05
0.00232426 -0.000746643 1.8856e-07
-0.000746643 0.000277162 9.73806e-07
1.8856e-07 9.73806e-07 -1.08577e-05
0.000797833 -0.000296747 5.79904e-07
-0.000296747 0.000160061 -5.88478e-07
5.79904e-07 -5.88478e-07 -0.000177716
0.000598353 -0.00030595 5.86358e-07
-0.00030595 3.22355e-05 2.02234e-07
5.86358e-07 2.02234e-07 -0.000344937
0.000668735 -0.000212562 -3.2347e-07
-0.000212562 0.000207364 8.85829e-07
-3.2347e-07 8.85829e-07 -6.85614e-05
0.00208644 -8.3474e-05 1.49856e-06
-8.3474e-05 2.15001e-05 -7.9298e-07
1.49856e-06 -7.9298e-07 -5.13101e-05
0.00209833 -0.000253995 -6.06143e-07
-0.000253995 1.97499e-05 -3.59887e-07
-6.06143e-07 -3.59887e-07 -7.7142e-05
0.00223721 -0.000163905 7.34073e-06
-0.000163905 8.45588e-05 -8.84127e-07
7.34073e-06 -8.84127e-07 6.01059e-05
0.00228213 -0.000378454 3.8877e-06
-0.000378454 5.97681e-05 -3.69398e-07
3.8877e-06 -3.69398e-07 9.17373e-07
0.00230768 -0.000580354 8.99571e-07
-0.000580354 0.000175728 -4.73905e-07
8.99571e-07 -4.73905e-07 1.30982e-06
0.00235619 -0.000491584 1.92536e-06
-0.000491584 7.70788e-05 -5.21734e-08
1.92536e-06 -5.21734e-08 1.89375e-05
0.000822313 -0.000346885 8.03459e-06
-0.000346885 5.8806e-05 -9.52951e-06
8.03459e-06 -9.52951e-06 -0.000277118
0.00231411 -0.000689898 1.53277e-06
-0.000689898 0.000170071 -4.26615e-07
1.53277e-06 -4.26615e-07 -2.42239e-05
0.00203255 -0.000880995 3.32104e-07
-0.000880995 0.000513308 2.1808e-06
3.32104e-07 2.1808e-06 -6.68661e-05
0.00244756 -0.000929718 1.12505e-05
-0.000929718 0.000516577 3.85706e-06
1.12505e-05 3.85706e-06 1.28095e-05
0.00266053 -0.000820266 4.30198e-06
-0.000820266 0.000584296 2.27454e-06
4.30198e-06 2.27454e-06 0.000220104
0.0025313 -0.000802565 1.65952e-06
-0.000802565 0.000377138 -8.59268e-07
1.65952e-06 -8.59268e-07 0.000113056
7.84014e-05 -0.000174906 5.64612e-06
-0.000174906 -0.000171549 1.63898e-06
5.64612e-06 1.63898e-06 -0.000437275
0.00162443 -0.000524832 -8.27567e-06
-0.000524832 0.000552808 -1.79789e-06
-8.27567e-06 -1.79789e-06 0.000109402
-0.000579279 -0.000121369 -2.128e-06
-0.000121369 -0.000516758 -2.16815e-06
-2.128e-06 -2.16815e-06 -0.00086358
0.00143054 -0.000574887 6.37571e-06
-0.000574887 0.00055437 6.28865e-06
6.37571e-06 6.28865e-06 3.07638e-05
0.00151675 0.000344013 -1.04356e-05
0.000344013 1.94869e-05 -3.13349e-06
-1.04356e-05 -3.13349e-06 -0.000205364
0.000222476 7.15838e-05 -1.081e-05
7.15838e-05 -0.000165399 -1.84135e-05
-1.081e-05 -1.84135e-05 -0.000267659
0.000395635 0.000186996 -2.83469e-05
0.000186996 -0.000119543 -2.09177e-05
-2.83469e-05 -2.09177e-05 -0.000255414
0.00108615 0.000248241 -7.53024e-06
0.000248241 0.000357963 4.67301e-06
-7.53024e-06 4.67301e-06 0.000106708
0.00146778 0.000452757 -1.97419e-05
0.000452757 6.29149e-05 -5.5563e-06
-1.97419e-05 -5.5563e-06 -0.000237348
0.00222421 0.000608835 -3.46506e-06
0.000608835 0.000243663 1.8637e-06
-3.46506e-06 1.8637e-06 -3.43408e-05
0.000778647 0.000322797 -1.45756e-05
0.000322797 5.11911e-05 -5.92579e-06
-1.45756e-05 -5.92579e-06 -0.000255927
0.00192458 0.000836069 -6.95211e-06
0.000836069 0.000451427 4.56812e-06
-6.95211e-06 4.56812e-06 -0.000105759
0.00236745 0.000758702 -9.94835e-07
0.000758702 0.000514539 4.96395e-06
-9.94835e-07 4.96395e-06 0.000113709
0.00181325 0.000791932 1.1435e-05
0.000791932 0.000101797 1.62114e-05
1.1435e-05 1.62114e-05 -0.000318093
0.000397989 4.68393e-05 -2.79176e-06
4.68393e-05 -3.43235e-05 3.15478e-07
-2.79176e-06 3.15478e-07 -0.000119484
0.000779 0.000266473 -1.21033e-06
0.000266473 0.000171039 5.74125e-07
-1.21033e-06 5.74125e-07 -0.000122655
0.000290894 0.000188954 5.45316e-06
0.000188954 -5.90045e-05 -1.97108e-06
5.45316e-06 -1.97108e-06 -0.000340043
0.000647586 0.000278898 -6.00331e-06
0.000278898 8.74235e-05 6.92991e-06
-6.00331e-06 6.92991e-06 -0.000219531
0.00226872 0.000525459 -1.83939e-06
0.000525459 0.000208267 -1.24088e-06
-1.83939e-06 -1.24088e-06 -8.2279e-06
0.00223881 0.000691047 -8.15209e-07
0.000691047 0.000341854 -3.23489e-07
-8.15209e-07 -3.23489e-07 -2.45796e-06
0.00229974 0.000671747 2.12443e-07
0.000671747 0.000224055 -1.44246e-07
2.12443e-07 -1.44246e-07 -3.19223e-05
0.00187248 0.000751003 2.35628e-06
0.000751003 0.000643366 -7.51312e-07
2.35628e-06 -7.51312e-07 9.62133e-05
0.0025473 0.000852759 1.51332e-06
0.000852759 0.000546865 1.05592e-06
1.51332e-06 1.05592e-06 0.000159277
0.00220115 0.000959509 -8.79657e-07
0.000959509 0.000558925 -2.02563e-06
-8.79657e-07 -2.02563e-06 -2.66717e-05
0.00234039 0.000818458 -7.95897e-06
0.000818458 0.00034 3.2302e-06
-7.95897e-06 3.2302e-06 -4.40074e-05
0.00062316 4.25211e-05 6.88853e-06
4.25211e-05 0.000112522 1.54232e-05
6.88853e-06 1.54232e-05 4.42436e-05
0.00126067 0.000139076 -2.72229e-06
0.000139076 0.000579004 1.12775e-05
-2.72229e-06 1.12775e-05 0.000335219
5.22859e-07 0.000408704 -1.0327e-05
0.000408704 -0.000399394 -2.83712e-06
-1.0327e-05 -2.83712e-06 -0.000797141
0.00106541 0.000278168 1.12314e-05
0.000278168 0.00043626 -5.46411e-06
1.12314e-05 -5.46411e-06 8.65853e-05
0.00116292 0.000200434 -2.75002e-06
0.000200434 0.000317263 1.58958e-05
-2.75002e-06 1.58958e-05 3.44901e-05
0.002308 0.000575843 2.28178e-07
0.000575843 0.00013742 -1.25217e-06
2.28178e-07 -1.25217e-06 -3.5801e-05
0.00231522 0.000773089 -1.44975e-06
0.000773089 0.000308713 -3.42314e-06
-1.44975e-06 -3.42314e-06 -2.04971e-05
0.00236924 0.000739533 -3.02715e-06
0.000739533 0.000221105 -7.69789e-07
-3.02715e-06 -7.69789e-07 -1.97433e-05
0.00211808 0.00102246 -6.77445e-06
0.00102246 0.000771758 -1.47371e-05
-6.77445e-06 -1.47371e-05 8.20411e-05
0.00269802 0.000909049 -6.97107e-06
0.000909049 0.000548531 -4.46844e-06
-6.97107e-06 -4.46844e-06 0.000166354
0.00198964 0.00101347 3.63219e-06
0.00101347 0.000317049 -1.01248e-05
3.63219e-06 -1.01248e-05 -0.000253738
0.000714646 0.000117051 -2.02447e-06
0.000117051 0.000219456 1.09038e-05
-2.02447e-06 1.09038e-05 6.22546e-05
0.000873166 0.000149478 -7.03246e-06
0.000149478 0.000447333 7.37203e-06
-7.03246e-06 7.37203e-06 0.000204393
0.000583289 8.51705e-05 -2.20196e-06
8.51705e-05 0.000134427 5.74872e-06
-2.20196e-06 5.74872e-06 2.77219e-05
0.000453812 3.88671e-05 -2.08704e-06
3.88671e-05 5.47406e-05 2.08705e-07
-2.08704e-06 2.08705e-07 -7.19341e-05
0.00157548 6.03944e-07 1.44705e-06
6.03944e-07 0.00074422 7.56359e-06
1.44705e-06 7.56359e-06 0.000702568
0.00100366 1.97577e-05 -4.78512e-07
1.97577e-05 0.00037053 -2.29242e-07
-4.78512e-07 -2.29242e-07 0.000316932
0.00100603 -2.00712e-05 7.23804e-05
-2.00712e-05 0.000366042 1.56794e-05
7.23804e-05 1.56794e-05 0.000358635
0.00414029 -0.000148575 1.48675e-05
-0.000148575 0.00244949 -1.49211e-06
1.48675e-05 -1.49211e-06 0.00243588
0.00453398 -0.000196612 -7.89606e-05
-0.000196612 0.00272931 -1.00176e-05
-7.89606e-05 -1.00176e-05 0.00270237
0.000427262 -0.000134641 2.52571e-05
-0.000134641 -1.27463e-05 -1.18055e-05
2.52571e-05 -1.18055e-05 -9.86078e-05
0.00474241 0.000119035 0.0001352
0.000119035 0.00286716 -1.71882e-05
0.0001352 -1.71882e-05 0.00285384
0.000530575 -0.000172156 8.36448e-07
-0.000172156 4.12332e-05 1.48557e-06
8.36448e-07 1.48557e-06 -7.91144e-05
0.00639953 5.15046e-05 -4.83407e-06
5.15046e-05 0.00393174 9.46754e-07
-4.83407e-06 9.46754e-07 0.00392893
0.000382109 -0.000222823 -2.30918e-05
-0.000222823 -0.000103828 2.19989e-05
-2.30918e-05 2.19989e-05 -0.000243895
0.0079713 -3.08813e-06 -0.000336569
-3.08813e-06 0.00491722 4.1764e-05
-0.000336569 4.1764e-05 0.00492406
0.0014364 0.000271344 -6.19923e-06
0.000271344 -3.61502e-05 -2.14935e-06
-6.19923e-06 -2.14935e-06 -0.000227468
0.00140747 0.000156549 -2.54909e-06
0.000156549 -4.1336e-05 -6.03803e-07
-2.54909e-06 -6.03803e-07 -0.000186954
0.00225235 0.000342198 -2.69259e-06
0.000342198 0.000131315 1.48205e-07
-2.69259e-06 1.48205e-07 1.73259e-05
0.0022111 0.000151093 -1.48464e-06
0.000151093 9.48191e-05 -7.58034e-07
-1.48464e-06 -7.58034e-07 3.33226e-05
0.00135591 5.49375e-05 -2.63036e-06
5.49375e-05 -5.3855e-05 -5.53703e-07
-2.63036e-06 -5.53703e-07 -0.000179102
0.000254269 2.7957e-05 -1.63308e-05
2.7957e-05 -0.000300956 -1.36571e-06
-1.63308e-05 -1.36571e-06 -0.00038861
0.00132318 -1.7304e-06 -4.36369e-08
-1.7304e-06 -6.65296e-05 2.05577e-08
-4.36369e-08 2.05577e-08 -0.000190585
0.00220167 7.12011e-05 -5.72437e-08
7.12011e-05 8.87302e-05 9.81919e-08
-5.72437e-08 9.81919e-08 3.39392e-05
0.00223083 0.000243842 -6.87368e-08
0.000243842 0.000111533 3.4203e-07
-6.87368e-08 3.4203e-07 3.07294e-05
0.0021418 0.000159663 -4.08395e-07
0.000159663 -1.11079e-05 -3.50723e-08
-4.08395e-07 -3.50723e-08 -1.80989e-05
0.00223763 0.000433674 -9.94338e-07
0.000433674 0.000148023 1.98994e-08
-9.94338e-07 1.98994e-08 -1.0713e-05
0.00227263 0.000348832 -1.18279e-08
0.000348832 5.66463e-05 2.76931e-07
-1.18279e-08 2.76931e-07 8.21839e-06
0.00219272 -7.58006e-06 1.09001e-06
-7.58006e-06 8.54067e-05 -4.06135e-07
1.09001e-06 -4.06135e-07 3.12995e-05
0.00208381 7.38014e-05 3.97103e-06
7.38014e-05 -4.97822e-05 4.12066e-08
3.97103e-06 4.12066e-08 -4.65986e-05
0.00218583 0.000240569 5.68658e-06
0.000240569 1.90128e-05 1.15303e-06
5.68658e-06 1.15303e-06 -6.50781e-06
0.00222107 0.000151333 2.99599e-06
0.000151333 -1.6538e-05 4.17991e-07
2.99599e-06 4.17991e-07 7.65312e-06
0.00240962 0.000483348 3.18652e-06
0.000483348 0.000149538 7.92984e-08
3.18652e-06 7.92984e-08 5.26173e-05
0.00231528 0.000359534 1.15311e-06
0.000359534 -3.47526e-05 -1.29966e-07
1.15311e-06 -1.29966e-07 -2.47619e-05
0.00140347 -4.57716e-05 -4.71377e-06
-4.57716e-05 -1.6712e-05 3.52976e-07
-4.71377e-06 3.52976e-07 -0.000130633
0.00209349 -0.000175866 -2.30155e-05
-0.000175866 0.000431441 2.76328e-06
-2.30155e-05 2.76328e-06 0.000299095
0.00211493 -0.000160761 3.62099e-06
-0.000160761 3.33782e-05 -2.54604e-07
3.62099e-06 -2.54604e-07 -4.16113e-05
0.00203295 -0.000345638 4.65527e-07
-0.000345638 1.94531e-05 5.74659e-07
4.65527e-07 5.74659e-07 -0.000120332
0.000128503 -0.000277327 -2.33393e-05
-0.000277327 -0.00031362 2.99009e-05
-2.33393e-05 2.99009e-05 -0.000498143
0.000907678 -0.000470774 -1.41233e-05
-0.000470774 -2.56479e-05 6.18045e-06
-1.41233e-05 6.18045e-06 -0.00041844
0.00215164 -0.000830077 4.0077e-06
-0.000830077 0.000418513 -4.19999e-06
4.0077e-06 -4.19999e-06 -8.75871e-05
0.00218499 -0.00051112 -1.32182e-06
-0.00051112 0.000193889 -8.20149e-07
-1.32182e-06 -8.20149e-07 -3.82451e-05
0.00237577 -0.000480096 -2.54293e-06
-0.000480096 0.000144842 -1.31971e-07
-2.54293e-06 -1.31971e-07 4.19563e-05
0.00218763 -0.000638984 -5.65952e-07
-0.000638984 0.000167051 4.42688e-07
-5.65952e-07 4.42688e-07 -7.61666e-05
0.00264685 -0.000807993 1.57404e-07
-0.000807993 0.000591352 -6.14938e-06
1.57404e-07 -6.14938e-06 0.000213259
0.00217473 -0.000738956 -7.96081e-08
-0.000738956 0.000171939 3.47798e-07
-7.96081e-08 3.47798e-07 -0.000117232
0.000672705 -0.000321544 -5.8854e-06
-0.000321544 8.5665e-05 4.73484e-06
-5.8854e-06 4.73484e-06 -0.00026419
0.000254001 -0.000270395 1.30387e-06
-0.000270395 -0.000175859 -4.72267e-07
1.30387e-06 -4.72267e-07 -0.000547373
0.000802474 -0.000262734 3.58892e-06
-0.000262734 0.000309015 3.64201e-06
3.58892e-06 3.64201e-06 1.91472e-05
0.00214527 -7.99992e-05 3.79535e-06
-7.99992e-05 6.19608e-05 -2.5724e-07
3.79535e-06 -2.5724e-07 -3.69102e-06
0.00209771 -0.000259846 1.59269e-06
-0.000259846 2.53367e-05 -5.09895e-07
1.59269e-06 -5.09895e-07 -7.03054e-05
0.00220801 -0.000158438 4.18452e-07
-0.000158438 4.83318e-05 -2.20313e-08
4.18452e-07 -2.20313e-08 3.2156e-05
0.00230112 -0.000372245 -7.51052e-07
-0.000372245 8.30236e-05 2.46579e-07
-7.51052e-07 2.46579e-07 2.01623e-05
0.00089725 -0.000377872 -1.0134e-06
-0.000377872 9.07758e-05 4.50133e-07
-1.0134e-06 4.50133e-07 -0.000260941
0.00212918 -0.000903425 5.43434e-07
-0.000903425 0.000581329 -1.71161e-06
5.43434e-07 -1.71161e-06 -5.70941e-06
0.0022803 -0.000911518 1.00375e-06
-0.000911518 0.000410792 1.83762e-06
1.00375e-06 1.83762e-06 -9.52101e-05
0.00218305 -0.000564453 -8.75285e-07
-0.000564453 9.91202e-05 4.10625e-07
-8.75285e-07 4.10625e-07 -7.99363e-05
0.00236209 -0.000496088 1.05796e-07
-0.000496088 6.7903e-05 9.53717e-08
1.05796e-07 9.53717e-08 1.50872e-05
0.00249155 -0.000807903 -5.95033e-07
-0.000807903 0.000461863 3.24398e-07
-5.95033e-07 3.24398e-07 9.96305e-05
0.00232047 -0.000690497 -7.05423e-07
-0.000690497 0.000170256 6.07404e-07
-7.05423e-07 6.07404e-07 -2.41508e-05
0.0024428 -0.000792314 1.23439e-06
-0.000792314 0.000318266 -5.34382e-07
1.23439e-06 -5.34382e-07 5.78776e-05
0.00126761 -0.000522992 -4.89214e-06
-0.000522992 0.000357987 -1.10177e-06
-4.89214e-06 -1.10177e-06 -0.000101809
0.00137046 -0.000556505 -2.58109e-06
-0.000556505 0.000530704 4.16095e-07
-2.58109e-06 4.16095e-07 1.44178e-05
0.000702346 -0.000179605 2.87605e-06
-0.000179605 0.000212244 6.59029e-07
2.87605e-06 6.59029e-07 -3.71691e-05
0.00036958 -0.00018679 -1.71396e-06
-0.00018679 5.0151e-05 -1.86383e-06
-1.71396e-06 -1.86383e-06 -0.000274926
0.0021728 -8.84241e-05 6.2141e-06
-8.84241e-05 3.31412e-05 -5.31596e-07
6.2141e-06 -5.31596e-07 2.27223e-05
0.00214615 -0.0002585 4.37084e-06
-0.0002585 -2.74372e-05 -1.14616e-06
4.37084e-06 -1.14616e-06 -6.10137e-05
0.00221312 -0.000155796 3.60735e-06
-0.000155796 1.64254e-05 -5.02328e-07
3.60735e-06 -5.02328e-07 4.19749e-05
0.00231054 -0.000390901 -6.34141e-07
-0.000390901 -1.55061e-05 2.55362e-07
-6.34141e-07 2.55362e-07 -3.94494e-06
0.00233492 -0.000606229 -2.40774e-07
-0.000606229 9.8059e-05 6.49959e-07
-2.40774e-07 6.49959e-07 -1.26967e-05
0.00241598 -0.000531193 1.14279e-06
-0.000531193 2.43296e-05 1.41289e-08
1.14279e-06 1.41289e-08 -1.01747e-05
0.00175842 -0.000794279 -7.56096e-06
-0.000794279 0.0005528 4.11847e-06
-7.56096e-06 4.11847e-06 -2.79019e-05
0.00246141 -0.000762119 -2.42926e-07
-0.000762119 0.000175816 -3.21971e-07
-2.42926e-07 -3.21971e-07 2.06241e-05
0.00218635 -0.00104474 4.05909e-06
-0.00104474 0.000553384 5.5432e-06
4.05909e-06 5.5432e-06 -8.55821e-05
0.00253811 -0.000956972 1.13824e-05
-0.000956972 0.000540913 2.16198e-06
1.13824e-05 2.16198e-06 4.2151e-05
0.00250368 -0.000820823 -1.70638e-06
-0.000820823 0.000455467 2.22624e-06
-1.70638e-06 2.22624e-06 0.000100192
0.00243863 -0.00086172 -3.48763e-06
-0.00086172 0.000241288 -3.15297e-06
-3.48763e-06 -3.15297e-06 -2.92219e-05
0.000676702 -0.000228346 3.83219e-06
-0.000228346 0.000172132 -8.54003e-06
3.83219e-06 -8.54003e-06 -8.21802e-05
-0.000366117 -0.000100825 2.04785e-06
-0.000100825 -0.000438676 9.10325e-06
2.04785e-06 9.10325e-06 -0.000753847
0.0016024 -0.000777441 1.50455e-05
-0.000777441 0.000561752 3.51666e-06
1.50455e-05 3.51666e-06 -4.65075e-05
0.00095272 -0.000332018 5.37037e-06
-0.000332018 0.000411929 -1.64875e-06
5.37037e-06 -1.64875e-06 3.48394e-05
0.00132369 -0.000668469 -8.02068e-06
-0.000668469 0.000547777 9.30131e-06
-8.02068e-06 9.30131e-06 -7.79185e-05
6.56707e-05 3.53589e-05 -8.196e-06
3.53589e-05 -0.000245647 -1.62578e-05
-8.196e-06 -1.62578e-05 -0.000325262
0.00221401 0.000520158 -4.26298e-06
0.000520158 0.000174635 4.127e-07
-4.26298e-06 4.127e-07 -4.10828e-05
0.00103691 8.48696e-05 3.62654e-06
8.48696e-05 0.000418711 -6.99444e-06
3.62654e-06 -6.99444e-06 0.000137747
0.000764556 0.00032022 -6.39864e-06
0.00032022 0.000142388 7.63702e-06
-6.39864e-06 7.63702e-06 -0.000129644
0.00171263 0.000334014 -4.01593e-06
0.000334014 0.00077374 1.03411e-05
-4.01593e-06 1.03411e-05 0.000459231
0.00221283 0.000690287 -2.55709e-06
0.000690287 0.000321054 2.87192e-06
-2.55709e-06 2.87192e-06 -2.3288e-05
0.00235402 0.00067566 -2.03362e-07
0.00067566 0.000265611 1.36928e-06
-2.03362e-07 1.36928e-06 9.04407e-06
0.00165917 0.000781333 8.64842e-06
0.000781333 0.000517792 4.85617e-06
8.64842e-06 4.85617e-06 -5.65462e-05
0.00206149 0.00094447 9.91478e-06
0.00094447 0.000468021 1.31314e-05
9.91478e-06 1.31314e-05 -0.000115245
0.00247327 0.000836989 5.38963e-06
0.000836989 0.0005101 7.41121e-06
5.38963e-06 7.41121e-06 0.000122167
0.0025675 0.000822024 1.56911e-05
0.000822024 0.000502434 1.92621e-05
1.56911e-05 1.92621e-05 0.00012869
0.000433173 4.7596e-05 -5.77507e-07
4.7596e-05 -7.39777e-06 1.73713e-07
-5.77507e-07 1.73713e-07 -7.39154e-05
0.000628474 0.000111899 -2.17894e-06
0.000111899 0.000187387 -3.64905e-08
-2.17894e-06 -3.64905e-08 -6.21846e-05
0.00095907 0.000490532 8.89745e-06
0.000490532 0.000235809 -1.01917e-06
8.89745e-06 -1.01917e-06 -0.000174788
0.000640807 0.000180425 1.80517e-06
0.000180425 0.000157579 -5.49155e-06
1.80517e-06 -5.49155e-06 -0.000181207
0.000286882 0.000193295 -2.11449e-06
0.000193295 -0.00024576 4.76003e-06
-2.11449e-06 4.76003e-06 -0.000549566
0.00235938 0.00058108 -1.21465e-06
0.00058108 0.000172336 -7.80535e-07
-1.21465e-06 -7.80535e-07 -2.26219e-06
0.00232107 0.000771177 2.31024e-07
0.000771177 0.000317767 -6.9075e-08
2.31024e-07 -6.9075e-08 -9.97814e-06
0.00236035 0.000739487 1.42476e-06
0.000739487 0.000219164 4.15286e-07
1.42476e-06 4.15286e-07 -2.13191e-05
0.00210445 0.00102239 1.00856e-06
0.00102239 0.000781119 -2.91892e-06
1.00856e-06 -2.91892e-06 8.61714e-05
0.00266175 0.000905882 3.55552e-06
0.000905882 0.000501628 1.99739e-07
3.55552e-06 1.99739e-07 0.000117941
0.00249648 0.00106604 -4.99769e-06
0.00106604 0.000667254 4.85914e-07
-4.99769e-06 4.85914e-07 8.98953e-05
0.000930935 0.000160459 4.64519e-07
0.000160459 0.000343022 1.10232e-05
4.64519e-07 1.10232e-05 0.000161895
0.00261358 0.000450711 -7.36236e-07
0.000450711 0.00151407 5.23439e-06
-7.36236e-07 5.23439e-06 0.00112956
0.000773992 0.000644307 -1.65461e-06
0.000644307 0.000134802 -1.45797e-06
-1.65461e-06 -1.45797e-06 -0.000384494
0.00147163 0.000258996 9.99221e-06
0.000258996 0.000468514 -2.7919e-06
9.99221e-06 -2.7919e-06 0.000171039
0.00294167 0.000726235 5.37678e-07
0.000726235 0.00130599 -3.39975e-06
5.37678e-07 -3.39975e-06 0.000859478
0.00239332 0.000620665 -3.37326e-06
0.000620665 0.000102441 -1.52843e-06
-3.37326e-06 -1.52843e-06 -2.32832e-05
0.00237635 0.000838892 -4.46615e-06
0.000838892 0.000312289 -1.78193e-06
-4.46615e-06 -1.78193e-06 -2.56305e-05
0.00240013 0.0008172 -1.07802e-07
0.0008172 0.000209238 -1.32479e-06
-1.07802e-07 -1.32479e-06 -3.46038e-05
0.00156992 0.00105872 7.39364e-06
0.00105872 0.000496874 -1.13596e-05
7.39364e-06 -1.13596e-05 -0.000210607
0.00222512 0.00103008 1.38274e-05
0.00103008 0.000363734 -4.95507e-06
1.38274e-05 -4.95507e-06 -0.000148658
0.000604921 0.000101035 -3.82307e-07
0.000101035 0.000149153 1.0281e-07
-3.82307e-07 1.0281e-07 -6.09082e-06
0.000445892 0.000233185 -2.6536e-06
0.000233185 0.000106531 1.48999e-06
-2.6536e-06 1.48999e-06 -0.000118078
-0.000523988 0.000101105 4.30875e-07
0.000101105 -0.000468734 -2.88681e-06
4.30875e-07 -2.88681e-06 -0.00069505
0.00179088 0.000303501 -7.16197e-06
0.000303501 0.0010763 -1.48548e-08
-7.16197e-06 -1.48548e-08 0.000801435
0.00149066 0.000247683 -3.13748e-06
0.000247683 0.000828647 2.72432e-06
-3.13748e-06 2.72432e-06 0.000618698
0.000526718 9.37374e-05 -3.87248e-07
9.37374e-05 0.000104884 3.84256e-06
-3.87248e-07 3.84256e-06 4.13861e-06
0.00053897 4.00293e-05 -1.23601e-06
4.00293e-05 0.0001126 -3.00563e-07
-1.23601e-06 -3.00563e-07 4.12931e-06
0.00148938 1.33466e-05 1.69448e-06
1.33466e-05 0.000690976 5.68927e-06
1.69448e-06 5.68927e-06 0.00065645
0.000416718 6.19889e-05 4.44071e-06
6.19889e-05 2.53548e-05 -7.2844e-06
4.44071e-06 -7.2844e-06 -9.51745e-05
0.00159074 -1.12409e-06 -1.53097e-05
-1.12409e-06 0.000754981 -2.21631e-06
-1.53097e-05 -2.21631e-06 0.000716979
0.000751393 -1.63146e-05 5.47497e-05
-1.63146e-05 0.000197688 1.21759e-05
5.47497e-05 1.21759e-05 0.000195667
0.00160692 2.12967e-05 -2.99653e-05
2.12967e-05 0.000769386 -1.06023e-05
-2.99653e-05 -1.06023e-05 0.000723123
0.00229746 -7.48182e-05 6.42613e-05
-7.48182e-05 0.00122517 1.29904e-06
6.42613e-05 1.29904e-06 0.00121645
0.00386404 -0.000149205 -6.2437e-05
-0.000149205 0.00226962 -8.45348e-06
-6.2437e-05 -8.45348e-06 0.00225521
0.000457803 2.54385e-05 2.16328e-06
2.54385e-05 3.46439e-05 -9.51432e-06
2.16328e-06 -9.51432e-06 -4.18513e-05
0.000299677 -0.000104289 1.23666e-06
-0.000104289 -8.94222e-05 9.62209e-07
1.23666e-06 9.62209e-07 -0.00018558
0.00451194 0.0002029 4.799e-05
0.0002029 0.0027293 -1.07652e-05
4.799e-05 -1.07652e-05 0.00269344
0.00513496 0.00010645 -7.85996e-06
0.00010645 0.0031302 9.63698e-07
-7.85996e-06 9.63698e-07 0.00311606
0.000636448 -0.000167776 -1.75788e-05
-0.000167776 0.000106177 1.96399e-05
-1.75788e-05 1.96399e-05 -2.19818e-05
0.00686823 5.37931e-05 -0.000269239
5.37931e-05 0.00424491 3.82407e-05
-0.000269239 3.82407e-05 0.00423799
0.00224624 0.000434967 -3.02801e-06
0.000434967 0.00015428 9.32845e-07
-3.02801e-06 9.32845e-07 -5.39976e-06
0.00220192 0.0002442 -1.6988e-06
0.0002442 8.66649e-05 -4.17342e-07
-1.6988e-06 -4.17342e-07 5.70185e-06
0.00225355 0.000348518 -4.75871e-06
0.000348518 4.48703e-05 -2.03653e-07
-4.75871e-06 -2.03653e-07 -3.49131e-06
0.00214038 0.000155695 -4.63899e-06
0.000155695 -2.17279e-05 -5.5602e-07
-4.63899e-06 -5.5602e-07 -2.21983e-05
0.00220474 7.09555e-05 -1.64798e-06
7.09555e-05 9.37225e-05 -1.29042e-07
-1.64798e-06 -1.29042e-07 3.90758e-05
0.00133698 3.4015e-06 -2.11184e-06
3.4015e-06 -5.75883e-05 -2.75134e-07
-2.11184e-06 -2.75134e-07 -0.000181586
0.00219298 -6.07451e-06 1.51869e-08
-6.07451e-06 8.80813e-05 7.33439e-08
1.51869e-08 7.33439e-08 3.3769e-05
0.00209215 6.6207e-05 -4.8701e-07
6.6207e-05 -4.0814e-05 -6.80593e-08
-4.8701e-07 -6.80593e-08 -3.97905e-05
0.00220062 0.000239961 -9.20905e-08
0.000239961 2.68964e-05 1.40372e-07
-9.20905e-08 1.40372e-07 1.94496e-06
0.0021939 0.000152608 7.7362e-09
0.000152608 -4.30346e-05 4.85933e-08
7.7362e-09 4.85933e-08 -1.20456e-05
0.0023887 0.000483549 2.03703e-07
0.000483549 0.000129617 -2.14198e-08
2.03703e-07 -2.14198e-08 3.37684e-05
0.00229538 0.000349401 2.21708e-07
0.000349401 -5.04617e-05 1.94725e-07
2.21708e-07 1.94725e-07 -3.70221e-05
0.00208536 -1.05126e-05 4.32909e-06
-1.05126e-05 -4.17807e-05 -2.51017e-07
4.32909e-06 -2.51017e-07 -4.05651e-05
0.0022582 6.43157e-05 2.46496e-06
6.43157e-05 4.74125e-06 -4.84449e-07
2.46496e-06 -4.84449e-07 4.87433e-05
0.00220672 0.00022203 3.29971e-07
0.00022203 -6.18002e-05 -3.64145e-08
3.29971e-07 -3.64145e-08 -3.99982e-05
0.00233244 0.000161913 1.03476e-06
0.000161913 -5.63324e-05 8.34301e-08
1.03476e-06 8.34301e-08 1.71301e-05
0.00238874 0.000484416 -1.36869e-07
0.000484416 3.29146e-05 -3.96239e-07
-1.36869e-07 -3.96239e-07 -3.14055e-06
0.00243723 0.000344628 3.29553e-07
0.000344628 -5.4511e-05 1.93289e-07
3.29553e-07 1.93289e-07 -1.1796e-05
0.00220069 -7.66039e-05 1.82911e-06
-7.66039e-05 9.97951e-05 6.19416e-07
1.82911e-06 6.19416e-07 4.12689e-05
0.00211717 -0.000265163 3.82927e-06
-0.000265163 4.26958e-05 -5.41954e-07
3.82927e-06 -5.41954e-07 -5.16279e-05
0.00216573 -0.000153052 -4.04787e-06
-0.000153052 4.12165e-06 4.44964e-07
-4.04787e-06 4.44964e-07 -3.85867e-06
0.00232102 -0.000366733 -5.64114e-06
-0.000366733 0.000107318 1.16245e-06
-5.64114e-06 1.16245e-06 4.02244e-05
0.000582204 -0.000384358 -5.84394e-06
-0.000384358 -0.000100418 8.89582e-06
-5.84394e-06 8.89582e-06 -0.000466984
0.00225233 -0.000918165 -2.07563e-06
-0.000918165 0.000684271 -3.9123e-06
-2.07563e-06 -3.9123e-06 9.42598e-05
0.00208091 -0.000888048 -1.26243e-06
-0.000888048 0.000287153 -2.58929e-06
-1.26243e-06 -2.58929e-06 -0.000219902
0.00205225 -0.000548166 -3.24924e-06
-0.000548166 1.83076e-05 8.76281e-07
-3.24924e-06 8.76281e-07 -0.000164801
0.00236525 -0.000500222 -6.04143e-08
-0.000500222 5.73078e-05 -6.21012e-07
-6.04143e-08 -6.21012e-07 9.65505e-06
0.0023199 -0.000690974 -1.54559e-06
-0.000690974 0.000165156 8.78697e-07
-1.54559e-06 8.78697e-07 -2.93509e-05
0.00234183 -0.000801629 -2.13444e-06
-0.000801629 0.000349931 -3.01095e-06
-2.13444e-06 -3.01095e-06 -1.26902e-05
0.00237851 -0.000791897 1.56516e-06
-0.000791897 0.000272521 2.13314e-07
1.56516e-06 2.13314e-07 1.30257e-05
0.00074361 -0.000495122 5.94237e-06
-0.000495122 3.67456e-05 -5.49514e-06
5.94237e-06 -5.49514e-06 -0.00043393
0.00119057 -0.00050051 -1.31653e-05
-0.00050051 0.000390967 1.40607e-07
-1.31653e-05 1.40607e-07 -9.82993e-05
0.000980947 -0.000184138 1.87739e-06
-0.000184138 0.000383015 4.31684e-06
1.87739e-06 4.31684e-06 0.000140509
-0.000701277 -0.000129882 -2.47056e-06
-0.000129882 -0.000658844 -2.85847e-06
-2.47056e-06 -2.85847e-06 -0.000950774
0.00216883 -8.79783e-05 -1.16e-07
-8.79783e-05 2.83193e-05 2.45338e-08
-1.16e-07 2.45338e-08 1.79444e-05
0.00221695 -0.000262615 1.65558e-06
-0.000262615 2.5746e-05 -4.12312e-07
1.65558e-06 -4.12312e-07 -8.70458e-06
0.00216028 -0.000153615 -2.24393e-08
-0.000153615 -2.43545e-05 -1.99025e-07
-2.24393e-08 -1.99025e-07 3.95987e-06
0.00230123 -0.00038952 -3.6897e-07
-0.00038952 -1.37087e-05 2.74891e-07
-3.6897e-07 2.74891e-07 -1.04635e-05
0.00171755 -0.000748438 -1.59851e-06
-0.000748438 0.000506703 -2.74521e-07
-1.59851e-06 -2.74521e-07 -4.95271e-05
0.00213696 -0.00104284 3.99885e-06
-0.00104284 0.000524443 -6.72882e-08
3.99885e-06 -6.72882e-08 -0.000117728
0.00251654 -0.000971945 -2.92404e-07
-0.000971945 0.000525123 8.40025e-07
-2.92404e-07 8.40025e-07 1.5978e-05
0.00234836 -0.000606145 -9.19171e-07
-0.000606145 0.000115908 1.37785e-07
-9.19171e-07 1.37785e-07 -1.43607e-06
0.00240063 -0.000528775 7.88504e-07
-0.000528775 1.54623e-05 -4.0238e-07
7.88504e-07 -4.0238e-07 -1.0501e-05
0.00250425 -0.000826318 -1.58958e-06
-0.000826318 0.000463121 1.0879e-06
-1.58958e-06 1.0879e-06 0.000105042
0.00242965 -0.000764296 -1.14513e-06
-0.000764296 0.000147341 6.27101e-07
-1.14513e-06 6.27101e-07 -8.28408e-06
0.00247573 -0.00086075 7.06566e-06
-0.00086075 0.000265517 -4.16476e-06
7.06566e-06 -4.16476e-06 1.47298e-06
0.00164315 -0.000791163 1.04837e-06
-0.000791163 0.000601693 -1.73001e-06
1.04837e-06 -1.73001e-06 -1.52234e-05
0.00158217 -0.000704725 7.9942e-07
-0.000704725 0.00069524 1.08334e-06
7.9942e-07 1.08334e-06 7.6141e-05
0.00073843 -0.000322066 1.56272e-06
-0.000322066 0.000293929 -1.71082e-06
1.56272e-06 -1.71082e-06 -9.69642e-05
0.000129976 -0.000139117 -6.57238e-06
-0.000139117 -0.000160087 -2.18689e-07
-6.57238e-06 -2.18689e-07 -0.00041719
0.000235447 -4.52089e-05 -6.23901e-07
-4.52089e-05 -5.58359e-05 1.08181e-06
-6.23901e-07 1.08181e-06 -0.000351353
0.00215989 -9.67709e-05 1.52196e-06
-9.67709e-05 -5.51706e-05 3.17265e-08
1.52196e-06 3.17265e-08 -1.35999e-05
0.00224156 -0.000232138 4.36957e-08
-0.000232138 -5.50141e-05 -4.51334e-07
4.36957e-08 -4.51334e-07 -1.50295e-05
0.00244532 -0.00047407 -1.02526e-06
-0.00047407 -6.09013e-05 -4.99223e-07
-1.02526e-06 -4.99223e-07 -1.41878e-05
0.00242571 -0.000644872 4.12875e-07
-0.000644872 4.41743e-05 1.04061e-06
4.12875e-07 1.04061e-06 -1.35338e-05
0.00201272 -0.00102959 2.88427e-06
-0.00102959 0.000684413 1.4699e-06
2.88427e-06 1.4699e-06 -7.65983e-06
0.00265536 -0.000906472 -2.52917e-06
-0.000906472 0.000181758 -9.32086e-07
-2.52917e-06 -9.32086e-07 -3.90519e-06
0.0016066 -0.00105107 -3.62618e-06
-0.00105107 0.000206458 6.65656e-06
-3.62618e-06 6.65656e-06 -0.000451135
0.00277224 -0.00103891 5.86143e-07
-0.00103891 0.000666019 2.66796e-06
5.86143e-07 2.66796e-06 0.000143581
0.00221774 -0.000817586 -1.33722e-05
-0.000817586 0.000237925 -2.71074e-06
-1.33722e-05 -2.71074e-06 -9.85707e-05
0.000332473 -0.000154022 3.58173e-06
-0.000154022 2.30628e-05 -6.09724e-06
3.58173e-06 -6.09724e-06 -0.000200939
0.0028582 -0.000240012 8.11456e-07
-0.000240012 0.00169323 6.88398e-06
8.11456e-07 6.88398e-06 0.00131449
-8.12811e-05 -0.000127215 -4.12044e-06
-0.000127215 -0.000391242 9.27828e-06
-4.12044e-06 9.27828e-06 -0.000669995
0.00241438 -0.000968599 -5.80782e-06
-0.000968599 0.00109677 4.33544e-06
-5.80782e-06 4.33544e-06 0.000410901
0.00154039 -0.000476344 4.82648e-06
-0.000476344 0.000766781 2.74947e-06
4.82648e-06 2.74947e-06 0.000259202
0.00231338 -0.000878869 -6.33599e-06
-0.000878869 0.0011341 1.20707e-05
-6.33599e-06 1.20707e-05 0.000452581
0.000386702 4.73909e-05 -6.44741e-06
4.73909e-05 -3.50465e-05 -1.59721e-05
-6.44741e-06 -1.59721e-05 -0.000101345
0.000111036 9.50212e-05 -1.63911e-07
9.50212e-05 -0.000130923 -1.07282e-05
-1.63911e-07 -1.07282e-05 -0.000387315
0.00240864 0.000586314 -3.65e-06
0.000586314 0.000206131 -7.54227e-07
-3.65e-06 -7.54227e-07 3.00766e-05
-0.000281886 3.10151e-05 -2.28786e-06
3.10151e-05 -0.00040583 -2.88995e-07
-2.28786e-06 -2.88995e-07 -0.000755445
0.00320944 0.000623055 1.71039e-05
0.000623055 0.00165495 -6.4238e-06
1.71039e-05 -6.4238e-06 0.00124529
-0.000550584 0.000209756 -1.46758e-05
0.000209756 -0.000803869 -3.9596e-07
-1.46758e-05 -3.9596e-07 -0.00113412
0.00232169 0.000767921 1.87487e-06
0.000767921 0.00032517 3.13818e-06
1.87487e-06 3.13818e-06 -6.77609e-07
0.00234968 0.000739846 3.05063e-06
0.000739846 0.000214732 9.75792e-07
3.05063e-06 9.75792e-07 -2.5549e-05
0.0019805 0.00100077 1.01509e-05
0.00100077 0.000722631 1.22612e-05
1.01509e-05 1.22612e-05 3.02841e-05
0.00302883 0.00111443 -2.82484e-06
0.00111443 0.00103303 1.01803e-05
-2.82484e-06 1.01803e-05 0.000452998
0.00260561 0.000903634 5.17946e-06
0.000903634 0.000437769 5.48595e-06
5.17946e-06 5.48595e-06 5.18851e-05
0.000809487 0.000158643 1.01947e-06
0.000158643 0.0002661 -1.38846e-07
1.01947e-06 -1.38846e-07 8.75231e-05
0.000958789 0.000247355 -3.16444e-06
0.000247355 0.00044946 4.07021e-07
-3.16444e-06 4.07021e-07 8.21069e-05
0.00115562 0.000709447 -1.78583e-08
0.000709447 0.000355902 3.94849e-08
-1.78583e-08 3.94849e-08 -0.000200089
0.000924451 0.000221107 4.87138e-07
0.000221107 0.000114536 -1.68525e-06
4.87138e-07 -1.68525e-06 -0.000179825
0.00128138 0.000474155 3.06068e-06
0.000474155 0.00016749 -5.46959e-06
3.06068e-06 -5.46959e-06 -0.00021294
0.00239603 0.000620332 -2.1508e-06
0.000620332 0.000117341 -1.01182e-06
-2.1508e-06 -1.01182e-06 -9.8659e-06
0.00242545 0.000847798 2.58138e-06
0.000847798 0.000325304 4.04874e-07
2.58138e-06 4.04874e-07 -1.50013e-05
0.0024345 0.000824639 1.12715e-06
0.000824639 0.000206219 7.31885e-07
1.12715e-06 7.31885e-07 -3.93459e-05
0.00192387 0.00112379 2.68885e-06
0.00112379 0.000683397 1.09439e-06
2.68885e-06 1.09439e-06 -3.42383e-05
0.00221237 0.0010427 -2.68669e-06
0.0010427 0.000389667 -3.17685e-06
-2.68669e-06 -3.17685e-06 -0.000135304
0.00183576 0.000408422 2.95632e-06
0.000408422 0.000992093 6.73725e-06
2.95632e-06 6.73725e-06 0.000701942
-0.000295133 0.00020751 6.91393e-07
0.00020751 -0.000349022 -2.71472e-06
6.91393e-07 -2.71472e-06 -0.000744236
0.00187091 0.000898401 5.20782e-06
0.000898401 0.000802142 -8.815e-06
5.20782e-06 -8.815e-06 0.000187321
-0.00341837 0.000327807 9.06231e-06
0.000327807 -0.00270729 -5.15073e-06
9.06231e-06 -5.15073e-06 -0.00308054
0.00378242 0.000962942 6.49767e-06
0.000962942 0.00170153 -8.98663e-06
6.49767e-06 -8.98663e-06 0.00119467
0.00257114 0.000730432 -3.16618e-06
0.000730432 8.68624e-05 -7.02301e-07
-3.16618e-06 -7.02301e-07 1.22254e-05
0.00244974 0.000901265 9.166e-06
0.000901265 0.00027678 -3.45045e-06
9.166e-06 -3.45045e-06 -9.427e-05
0.00222959 0.000805628 7.35623e-06
0.000805628 -4.29003e-06 -4.41168e-07
7.35623e-06 -4.41168e-07 -0.000266064
0.00216298 0.00118245 1.80638e-05
0.00118245 0.000741048 -5.11371e-07
1.80638e-05 -5.11371e-07 3.93518e-05
0.0026583 0.00124656 8.11287e-06
0.00124656 0.000722441 -1.47173e-06
8.11287e-06 -1.47173e-06 0.00010165
0.000409265 8.32104e-05 5.2542e-06
8.32104e-05 1.93019e-05 -1.12133e-05
5.2542e-06 -1.12133e-05 -0.000129823
0.000948084 0.00019583 -1.35565e-07
0.00019583 0.000423542 -3.72922e-07
-1.35565e-07 -3.72922e-07 0.000202356
-0.000310914 0.000112686 -4.01966e-06
0.000112686 -0.000394589 -1.60965e-05
-4.01966e-06 -1.60965e-05 -0.000546924
-0.000872876 -2.10355e-05 7.10952e-06
-2.10355e-05 -0.000733212 -4.2318e-06
7.10952e-06 -4.2318e-06 -0.000921579
0.000507389 0.000112275 -1.83166e-06
0.000112275 0.000163764 2.08321e-07
-1.83166e-06 2.08321e-07 -1.62556e-05
0.000132632 0.000114449 3.79321e-06
0.000114449 -3.31474e-05 -9.96717e-08
3.79321e-06 -9.96717e-08 -0.000258186
0.000749294 0.000232619 -1.92251e-06
0.000232619 0.000363061 -5.5588e-06
-1.92251e-06 -5.5588e-06 0.000150144
0.000283773 2.37525e-06 -7.73712e-06
2.37525e-06 6.63764e-05 6.11223e-06
-7.73712e-06 6.11223e-06 -0.000156806
0.000731357 0.000132828 -1.60204e-06
0.000132828 0.000280032 -5.00057e-07
-1.60204e-06 -5.00057e-07 0.000131515
0.000525735 9.68653e-05 1.60881e-06
9.68653e-05 0.000103058 3.40004e-06
1.60881e-06 3.40004e-06 3.8629e-06
0.000435752 3.70678e-05 -3.05265e-06
3.70678e-05 3.81971e-05 1.34986e-07
-3.05265e-06 1.34986e-07 -5.81021e-05
0.0014087 6.70828e-06 1.82591e-06
6.70828e-06 0.000636136 5.0559e-06
1.82591e-06 5.0559e-06 0.000607848
0.000275737 -8.96596e-05 8.73803e-06
-8.96596e-05 -4.80353e-05 -4.61609e-06
8.73803e-06 -4.61609e-06 -0.000159552
0.00146048 4.26543e-06 -1.35185e-05
4.26543e-06 0.000668606 -2.05583e-06
-1.35185e-05 -2.05583e-06 0.000638068
0.00072469 -1.26656e-05 4.39196e-05
-1.26656e-05 0.000179543 1.13341e-05
4.39196e-05 1.13341e-05 0.00018067
0.00153539 1.45973e-06 -2.00438e-05
1.45973e-06 0.000715976 -1.04011e-05
-2.00438e-05 -1.04011e-05 0.000681581
0.000738765 -3.11288e-05 2.23054e-05
-3.11288e-05 0.000189149 4.48122e-06
2.23054e-05 4.48122e-06 0.000181445
0.00346087 -0.000151273 7.56009e-06
-0.000151273 0.00199715 -5.47325e-06
7.56009e-06 -5.47325e-06 0.00198138
0.000377597 9.72244e-05 -3.97617e-06
9.72244e-05 1.32903e-05 -8.47613e-06
-3.97617e-06 -8.47613e-06 -6.82014e-05
0.000367566 -5.04767e-05 -6.37629e-06
-5.04767e-05 -2.9956e-05 -4.21619e-07
-6.37629e-06 -4.21619e-07 -0.000110675
0.00399032 0.000216786 -1.97533e-05
0.000216786 0.00238777 -1.16825e-05
-1.97533e-05 -1.16825e-05 0.00235164
0.000684448 -0.000149017 -1.52901e-05
-0.000149017 0.000152372 1.29595e-05
-1.52901e-05 1.29595e-05 5.31252e-05
0.00439921 0.000150117 -3.51287e-05
0.000150117 0.00265115 3.38365e-07
-3.51287e-05 3.38365e-07 0.00262861
0.00564021 0.000104917 -0.000206332
0.000104917 0.00348009 3.62905e-05
-0.000206332 3.62905e-05 0.00345911
0.00236672 0.000483517 -3.96256e-06
0.000483517 0.000109109 -4.85196e-07
-3.96256e-06 -4.85196e-07 1.446e-05
0.00221584 0.000238547 -5.37292e-06
0.000238547 3.60039e-05 -7.82208e-07
-5.37292e-06 -7.82208e-07 1.17447e-05
0.00227785 0.000339493 4.66762e-07
0.000339493 -6.4641e-05 4.77301e-07
4.66762e-07 4.77301e-07 -4.78316e-05
0.00216711 0.000154344 -4.31154e-07
0.000154344 -6.91468e-05 -4.16869e-08
-4.31154e-07 -4.16869e-08 -3.12638e-05
0.0020983 5.94881e-05 -4.75763e-06
5.94881e-05 -3.31431e-05 2.199e-07
-4.75763e-06 2.199e-07 -3.44946e-05
0.00218967 -4.9317e-06 -1.02986e-06
-4.9317e-06 8.82815e-05 6.21797e-07
-1.02986e-06 6.21797e-07 3.37703e-05
0.0021192 -1.2009e-05 2.79167e-07
-1.2009e-05 -1.45549e-05 -1.25705e-08
2.79167e-07 -1.25705e-08 -1.57402e-05
0.00223955 6.7031e-05 5.52898e-07
6.7031e-05 -2.51092e-06 -1.6999e-08
5.52898e-07 -1.6999e-08 3.63724e-05
0.00223459 0.000223283 -5.42562e-07
0.000223283 -3.6298e-05 -6.44867e-08
-5.42562e-07 -6.44867e-08 -1.574e-05
0.002301 0.000162512 6.46311e-07
0.000162512 -8.14241e-05 1.15069e-07
6.46311e-07 1.15069e-07 1.08065e-06
0.00239553 0.000485708 -3.51752e-07
0.000485708 4.15378e-05 5.88706e-08
-3.51752e-07 5.88706e-08 3.23825e-06
0.00242278 0.000347912 2.03907e-06
0.000347912 -6.37985e-05 6.60145e-07
2.03907e-06 6.60145e-07 -1.20796e-05
0.00217157 -1.68414e-05 3.45645e-07
-1.68414e-05 -4.7424e-05 -1.62764e-07
3.45645e-07 -1.62764e-07 -1.08757e-05
0.0023389 8.24032e-05 9.50761e-07
8.24032e-05 -7.48309e-05 -7.32875e-07
9.50761e-07 -7.32875e-07 1.97389e-05
0.00240901 0.000232322 -7.89607e-07
0.000232322 -6.36896e-05 2.55575e-07
-7.89607e-07 2.55575e-07 2.1576e-05
0.00253598 0.000505748 -1.95478e-06
0.000505748 -4.28238e-05 2.32609e-07
-1.95478e-06 2.32609e-07 8.44037e-06
0.00216726 -8.76044e-05 -6.30692e-06
-8.76044e-05 2.47372e-05 6.30685e-07
-6.30692e-06 6.30685e-07 1.43837e-05
0.00227775 -0.000267208 -3.94417e-06
-0.000267208 7.26935e-05 7.70254e-07
-3.94417e-06 7.70254e-07 3.7381e-05
0.00210827 -0.000152326 -1.86815e-06
-0.000152326 -6.49169e-05 2.97461e-07
-1.86815e-06 2.97461e-07 -3.40973e-05
0.00229751 -0.000388894 -2.60585e-06
-0.000388894 -9.53891e-06 2.41806e-07
-2.60585e-06 2.41806e-07 -1.45171e-05
0.00168286 -0.000732548 8.66686e-06
-0.000732548 0.000476669 -4.51009e-06
8.66686e-06 -4.51009e-06 -7.06695e-05
0.00211569 -0.00104454 1.85935e-06
-0.00104454 0.000508779 -3.45227e-06
1.85935e-06 -3.45227e-06 -0.000136689
0.0025111 -0.000991257 -8.1951e-06
-0.000991257 0.000520312 -2.50278e-06
-8.1951e-06 -2.50278e-06 -1.14698e-06
0.00237165 -0.000606463 -3.32774e-06
-0.000606463 0.000140842 9.13091e-07
-3.32774e-06 9.13091e-07 1.69479e-05
0.00239037 -0.000527141 2.28102e-06
-0.000527141 9.97999e-06 -8.06614e-07
2.28102e-06 -8.06614e-07 -7.3789e-06
0.00240501 -0.000764992 -2.82874e-06
-0.000764992 0.000125574 1.34324e-06
-2.82874e-06 1.34324e-06 -3.03486e-05
0.00245831 -0.000818758 -1.5382e-08
-0.000818758 0.000442706 -8.09199e-07
-1.5382e-08 -8.09199e-07 8.60819e-05
0.00250416 -0.0008562 7.96913e-06
-0.0008562 0.000281893 1.06846e-06
7.96913e-06 1.06846e-06 2.28146e-05
0.00197369 -0.000829547 -1.83086e-05
-0.000829547 0.000841512 -2.29082e-06
-1.83086e-05 -2.29082e-06 0.000214497
0.000834741 -0.000612547 1.28945e-05
-0.000612547 0.000216451 -1.11325e-05
1.28945e-05 -1.11325e-05 -0.000373959
0.00223156 -0.000418207 -1.5803e-06
-0.000418207 0.00122881 -4.2756e-06
-1.5803e-06 -4.2756e-06 0.000822894
5.96452e-05 -4.29648e-05 -4.44931e-06
-4.29648e-05 -0.000196324 -5.2455e-07
-4.44931e-06 -5.2455e-07 -0.000444921
0.00151247 4.64337e-06 7.55696e-06
4.64337e-06 0.000759309 -7.19472e-06
7.55696e-06 -7.19472e-06 0.000466252
0.00214766 -0.000104249 1.60478e-07
-0.000104249 -6.16584e-05 -6.13677e-08
1.60478e-07 -6.13677e-08 -2.11021e-05
0.00226047 -0.000233971 1.85637e-06
-0.000233971 -4.52935e-05 -4.24905e-08
1.85637e-06 -4.24905e-08 -6.62704e-06
0.00243889 -0.000467599 -9.72849e-07
-0.000467599 -4.55914e-05 2.59154e-07
-9.72849e-07 2.59154e-07 -9.87132e-06
0.00226317 -0.00103879 -2.31732e-06
-0.00103879 0.000838255 -3.26951e-07
-2.31732e-06 -3.26951e-07 0.000150316
0.00176345 -0.00105929 6.52143e-06
-0.00105929 0.000303637 -1.06763e-06
6.52143e-06 -1.06763e-06 -0.000353639
0.00257955 -0.0010377 -1.53729e-06
-0.0010377 0.000548571 1.02527e-07
-1.53729e-06 1.02527e-07 1.91771e-05
0.00243782 -0.000637508 4.00145e-07
-0.000637508 5.89347e-05 -4.12695e-07
4.00145e-07 -4.12695e-07 -4.30616e-07
0.00236436 -0.000854465 4.17338e-06
-0.000854465 0.000294089 -4.56782e-06
4.17338e-06 -4.56782e-06 -4.42871e-05
0.00265041 -0.000895748 -1.12574e-06
-0.000895748 0.000208034 -6.86033e-07
-1.12574e-06 -6.86033e-07 2.67805e-05
-0.000515912 3.29871e-06 -1.21076e-06
3.29871e-06 -0.000545241 -2.47299e-07
-1.21076e-06 -2.47299e-07 -0.000744534
0.0017663 -0.000871797 6.07218e-07
-0.000871797 0.00071426 -2.98808e-07
6.07218e-07 -2.98808e-07 4.69601e-05
0.00144109 -0.000771085 -5.17014e-06
-0.000771085 0.000611805 7.80832e-07
-5.17014e-06 7.80832e-07 -7.38307e-05
0.00160724 -0.000492873 -6.84311e-07
-0.000492873 0.000815328 3.46089e-06
-6.84311e-07 3.46089e-06 0.000294121
0.000785987 -0.000222612 -8.52887e-07
-0.000222612 0.000177492 -3.29521e-06
-8.52887e-07 -3.29521e-06 -0.000111761
0.00134317 -9.78325e-05 -1.41238e-07
-9.78325e-05 0.000668421 2.87603e-06
-1.41238e-07 2.87603e-06 0.000300235
0.00228195 -0.000134265 -1.78302e-07
-0.000134265 -9.20779e-05 7.07858e-08
-1.78302e-07 7.07858e-08 -1.11092e-05
0.00246115 -0.000310857 1.50833e-06
-0.000310857 -0.00010725 -2.88875e-07
1.50833e-06 -2.88875e-07 5.1818e-06
0.0025418 -0.000587698 -1.51987e-06
-0.000587698 -3.91866e-05 5.55158e-07
-1.51987e-06 5.55158e-07 8.87619e-06
0.00255501 -0.000772195 -2.18985e-06
-0.000772195 1.32202e-05 1.55606e-06
-2.18985e-06 1.55606e-06 -1.0893e-05
0.0024403 -0.0011405 -5.61084e-06
-0.0011405 0.000961873 3.521e-06
-5.61084e-06 3.521e-06 0.000237271
0.00261615 -0.00102405 -1.88392e-06
-0.00102405 0.000273106 -4.38956e-06
-1.88392e-06 -4.38956e-06 -3.06811e-05
0.00247166 -0.00126365 -5.00951e-05
-0.00126365 0.000735688 7.54825e-06
-5.00951e-05 7.54825e-06 7.74374e-07
0.00228261 -0.00105824 -2.72223e-05
-0.00105824 0.000385475 1.65071e-06
-2.72223e-05 1.65071e-06 -0.000152134
-0.000811842 8.70342e-06 -1.75928e-06
8.70342e-06 -0.000770234 -3.899e-06
-1.75928e-06 -3.899e-06 -0.00089527
0.00111281 -0.000147238 9.70203e-07
-0.000147238 0.000616695 7.3759e-06
9.70203e-07 7.3759e-06 0.000280887
0.00273596 -0.000254829 -6.77074e-06
-0.000254829 0.00149143 1.11697e-05
-6.77074e-06 1.11697e-05 0.00113186
0.000811788 -0.000172244 -5.7431e-06
-0.000172244 0.000232995 -6.1252e-06
-5.7431e-06 -6.1252e-06 -0.000165169
0.00218321 -0.000942237 -1.28101e-06
-0.000942237 0.000964185 1.69962e-05
-1.28101e-06 1.69962e-05 0.000291386
0.00199785 -0.000841489 3.37241e-06
-0.000841489 0.000974227 1.46578e-05
3.37241e-06 1.46578e-05 0.000202987
0.000521738 0.000136418 2.09084e-06
0.000136418 8.13314e-05 -1.08698e-05
2.09084e-06 -1.08698e-05 -9.32993e-05
-0.000544034 9.64452e-05 3.56452e-07
9.64452e-05 -0.000527751 -3.19649e-06
3.56452e-07 -3.19649e-06 -0.000872192
0.00239832 0.000620028 -8.10332e-07
0.000620028 0.000131525 -3.46609e-07
-8.10332e-07 -3.46609e-07 2.82417e-06
0.000479398 0.000184707 -5.21496e-06
0.000184707 -0.000160254 5.84209e-06
-5.21496e-06 5.84209e-06 -0.000453588
0.00199532 0.000831681 8.9138e-06
0.000831681 0.000880969 -1.35265e-06
8.9138e-06 -1.35265e-06 0.000274162
4.32238e-05 0.000245943 -1.21952e-05
0.000245943 -0.000596833 2.17482e-06
-1.21952e-05 2.17482e-06 -0.000905305
0.00248517 0.000857712 4.62215e-06
0.000857712 0.00034455 1.36319e-06
4.62215e-06 1.36319e-06 1.66605e-06
0.00246612 0.000830489 -3.25028e-06
0.000830489 0.000202895 6.17754e-07
-3.25028e-06 6.17754e-07 -4.30573e-05
0.00233586 0.00119485 -5.15821e-06
0.00119485 0.000909179 8.0877e-06
-5.15821e-06 8.0877e-06 0.00017968
0.0022038 0.00105387 -8.22666e-06
0.00105387 0.000426622 3.6514e-06
-8.22666e-06 3.6514e-06 -0.000111657
0.00075493 0.000282411 -2.69982e-07
0.000282411 0.000295148 -5.26198e-07
-2.69982e-07 -5.26198e-07 1.51431e-05
0.0009806 0.000338038 1.0398e-06
0.000338038 0.000448217 -3.52795e-06
1.0398e-06 -3.52795e-06 4.03912e-05
0.00161344 0.000849454 -2.88468e-06
0.000849454 0.000647793 1.62403e-07
-2.88468e-06 1.62403e-07 4.48469e-05
0.000457922 0.000408784 -3.75317e-06
0.000408784 -0.000296769 8.1557e-07
-3.75317e-06 8.1557e-07 -0.000638726
0.00319221 0.000863932 1.75489e-06
0.000863932 0.00131907 1.88094e-06
1.75489e-06 1.88094e-06 0.000837109
0.0026096 0.000738733 -2.51915e-06
0.000738733 9.32409e-05 -4.04436e-07
-2.51915e-06 -4.04436e-07 1.46885e-05
0.0025886 0.000884578 2.77288e-06
0.000884578 0.000372509 -7.56556e-07
2.77288e-06 -7.56556e-07 1.71018e-05
0.00262367 0.000842556 5.54043e-07
0.000842556 0.000254744 2.79174e-06
5.54043e-07 2.79174e-06 -1.7255e-05
0.00212483 0.00119107 4.88672e-06
0.00119107 0.00070796 1.35637e-06
4.88672e-06 1.35637e-06 -8.95981e-07
0.00251572 0.00128679 -5.56384e-06
0.00128679 0.000643175 7.99847e-07
-5.56384e-06 7.99847e-07 -6.99256e-06
-0.00185011 2.54492e-05 -1.0632e-05
2.54492e-05 -0.0013573 -2.39416e-07
-1.0632e-05 -2.39416e-07 -0.00159674
-0.00310707 0.000418247 -1.93156e-06
0.000418247 -0.0018349 -2.61948e-06
-1.93156e-06 -2.61948e-06 -0.0023907
0.00209942 0.000967261 1.38133e-05
0.000967261 0.000812451 -5.89901e-06
1.38133e-05 -5.89901e-06 0.000207177
0.00118903 0.000501462 4.90268e-06
0.000501462 6.15568e-05 -1.25843e-05
4.90268e-06 -1.25843e-05 -0.000279767
0.00275787 0.000683532 3.37315e-07
0.000683532 -0.00016381 1.78493e-06
3.37315e-07 1.78493e-06 -2.06463e-05
0.00266474 0.00088991 6.87364e-06
0.00088991 0.000134427 -3.5621e-07
6.87364e-06 -3.5621e-07 -3.6536e-05
0.00276113 0.00111154 1.18607e-05
0.00111154 0.000484454 -4.5822e-06
1.18607e-05 -4.5822e-06 -2.61215e-05
0.00233101 0.00133383 6.06638e-06
0.00133383 0.000628819 -1.50984e-06
6.06638e-06 -1.50984e-06 -0.000117015
0.00155341 0.000251 5.03555e-06
0.000251 0.000853792 -1.49585e-06
5.03555e-06 -1.49585e-06 0.000600215
0.000381128 0.000217344 -5.1323e-06
0.000217344 9.47964e-05 1.26679e-06
-5.1323e-06 1.26679e-06 -9.55552e-05
0.000508138 0.000134187 -7.31063e-06
0.000134187 0.000190912 -5.96777e-06
-7.31063e-06 -5.96777e-06 6.23598e-05
4.529e-06 4.4145e-05 3.28168e-06
4.4145e-05 -0.000185899 -2.87803e-06
3.28168e-06 -2.87803e-06 -0.00034764
-0.0016332 5.15779e-05 7.5468e-07
5.15779e-05 -0.00112368 -2.23234e-06
7.5468e-07 -2.23234e-06 -0.00136009
0.000771611 8.63655e-05 -1.15117e-06
8.63655e-05 0.00030945 -7.02082e-08
-1.15117e-06 -7.02082e-08 0.000156946
0.000693489 0.000247218 5.19364e-06
0.000247218 0.000366325 2.50873e-06
5.19364e-06 2.50873e-06 0.000149122
0.000706033 9.81786e-05 1.41573e-06
9.81786e-05 0.000374019 2.36775e-06
1.41573e-06 2.36775e-06 0.000119963
0.000419873 0.000129886 -4.81111e-06
0.000129886 5.23083e-05 -9.84449e-06
-4.81111e-06 -9.84449e-06 -4.03725e-05
0.000768573 6.31554e-05 -5.87653e-06
6.31554e-05 0.000423272 -6.87021e-07
-5.87653e-06 -6.87021e-07 0.000160525
-0.000162603 7.71099e-05 -3.49295e-06
7.71099e-05 -0.000253555 4.75115e-06
-3.49295e-06 4.75115e-06 -0.000446735
0.000754372 0.000146739 2.06143e-06
0.000146739 0.000293094 2.24248e-06
2.06143e-06 2.24248e-06 0.000140429
0.000443738 9.81904e-05 2.29804e-06
9.81904e-05 5.69636e-05 3.92993e-06
2.29804e-06 3.92993e-06 -4.58826e-05
0.000422085 2.08322e-05 -1.94542e-06
2.08322e-05 3.11326e-05 -4.12746e-07
-1.94542e-06 -4.12746e-07 -6.45085e-05
0.0012736 2.1727e-05 4.60151e-07
2.1727e-05 0.000552555 3.65965e-06
4.60151e-07 3.65965e-06 0.000525342
0.000426003 -5.19486e-05 3.72998e-06
-5.19486e-05 2.84717e-05 -3.4865e-06
3.72998e-06 -3.4865e-06 -6.45859e-05
0.00135747 6.23141e-06 -1.18593e-05
6.23141e-06 0.000604915 -1.94436e-06
-1.18593e-05 -1.94436e-06 0.000577319
0.000640555 -3.82416e-06 3.95214e-05
-3.82416e-06 0.000126497 1.09436e-05
3.95214e-05 1.09436e-05 0.000129527
0.00139983 -3.67419e-05 -1.23376e-05
-3.67419e-05 0.000631548 -9.32073e-06
-1.23376e-05 -9.32073e-06 0.00060163
0.000704209 -2.15844e-05 1.83051e-05
-2.15844e-05 0.000165171 4.13049e-06
1.83051e-05 4.13049e-06 0.000162681
0.000617418 -3.64834e-05 4.17841e-06
-3.64834e-05 0.000112644 -4.75763e-06
4.17841e-06 -4.75763e-06 0.000101967
0.000409505 3.65681e-05 1.10108e-06
3.65681e-05 -1.55963e-05 -7.59548e-06
1.10108e-06 -7.59548e-06 -6.32979e-05
0.000383443 4.0393e-05 -1.49106e-06
4.0393e-05 -1.1235e-05 1.11762e-07
-1.49106e-06 1.11762e-07 -7.93667e-05
0.0031519 0.000166404 -1.74784e-05
0.000166404 0.00181717 -1.05727e-05
-1.74784e-05 -1.05727e-05 0.00179662
-4.35575e-05 -6.45376e-05 -1.80021e-05
-6.45376e-05 -0.000298132 7.77755e-06
-1.80021e-05 7.77755e-06 -0.000382816
0.00422101 0.000170259 -2.88909e-05
0.000170259 0.00252164 -2.10825e-06
-2.88909e-05 -2.10825e-06 0.00249664
0.00435158 7.3874e-05 -0.000153051
7.3874e-05 0.00261146 2.53139e-05
-0.000153051 2.53139e-05 0.00260732
0.00239981 0.00048655 5.65121e-07
0.00048655 4.91658e-05 6.37686e-07
5.65121e-07 6.37686e-07 8.81915e-06
0.00226187 0.000224555 -1.36523e-06
0.000224555 -1.18117e-05 -4.72254e-07
-1.36523e-06 -4.72254e-07 7.53217e-06
0.00240746 0.000350416 1.92041e-06
0.000350416 -7.38737e-05 1.4375e-06
1.92041e-06 1.4375e-06 -1.30152e-05
0.00227408 0.000163237 5.29649e-07
0.000163237 -0.000103728 -5.51457e-09
5.29649e-07 -5.51457e-09 -1.22295e-05
0.0022189 6.97542e-05 -1.68343e-06
6.97542e-05 -1.10274e-05 5.32134e-07
-1.68343e-06 5.32134e-07 2.27844e-05
0.00215237 -1.46533e-05 -6.0322e-06
-1.46533e-05 1.19247e-05 2.9419e-07
-6.0322e-06 2.9419e-07 8.5104e-06
0.00218311 -1.62773e-05 7.60579e-07
-1.62773e-05 -3.82275e-05 1.09401e-08
7.60579e-07 1.09401e-08 -1.48832e-08
0.00230667 8.71605e-05 4.18479e-07
8.71605e-05 -9.17689e-05 1.64457e-07
4.18479e-07 1.64457e-07 1.7914e-06
0.00240414 0.000238013 8.44996e-07
0.000238013 -6.83638e-05 1.22923e-07
8.44996e-07 1.22923e-07 1.83687e-05
0.00251505 0.000488825 5.64772e-07
0.000488825 -5.80881e-05 2.11316e-07
5.64772e-07 2.11316e-07 -1.63946e-06
0.00230661 -1.64549e-05 -6.29878e-07
-1.64549e-05 -8.57154e-05 -2.70813e-07
-6.29878e-07 -2.70813e-07 8.91264e-07
0.00244715 0.000140121 4.06551e-07
0.000140121 -0.000123082 5.08523e-07
4.06551e-07 5.08523e-07 3.01257e-05
0.00266384 0.000345203 -8.90491e-07
0.000345203 -7.9873e-05 4.32107e-07
-8.90491e-07 4.32107e-07 5.01964e-05
0.00213237 -0.000111494 -1.12631e-06
-0.000111494 -6.98767e-05 -2.09723e-07
-1.12631e-06 -2.09723e-07 -3.01831e-05
0.00227968 -0.00023488 -1.80989e-06
-0.00023488 -3.4435e-05 -2.54417e-08
-1.80989e-06 -2.54417e-08 2.91018e-06
0.00242214 -0.000460106 1.50517e-07
-0.000460106 -3.73279e-05 2.34215e-07
1.50517e-07 2.34215e-07 -1.21567e-05
0.00232012 -0.00103139 -4.93024e-06
-0.00103139 0.000857981 -3.10255e-06
-4.93024e-06 -3.10255e-06 0.000176817
0.00197907 -0.00106625 8.75266e-06
-0.00106625 0.000440973 -4.95688e-06
8.75266e-06 -4.95688e-06 -0.000213326
0.00242881 -0.00103566 7.49459e-07
-0.00103566 0.000459849 -1.13323e-06
7.49459e-07 -1.13323e-06 -7.36972e-05
0.00244969 -0.000631139 -3.75552e-07
-0.000631139 7.13617e-05 -2.31149e-07
-3.75552e-07 -2.31149e-07 1.06696e-05
0.00266708 -0.000886318 2.08517e-06
-0.000886318 0.000246555 9.39382e-07
2.08517e-06 9.39382e-07 7.23281e-05
0.00252678 -0.000895276 1.20482e-05
-0.000895276 0.000362368 -5.17386e-06
1.20482e-05 -5.17386e-06 2.19269e-05
0.00153678 -0.000833324 -1.05085e-06
-0.000833324 0.000590307 -4.41276e-06
-1.05085e-06 -4.41276e-06 -7.10819e-05
0.00209842 -0.000876773 6.81183e-06
-0.000876773 0.00101326 -1.89587e-05
6.81183e-06 -1.89587e-05 0.000310523
0.00198751 -0.000609167 -5.68511e-06
-0.000609167 0.00109548 9.36719e-06
-5.68511e-06 9.36719e-06 0.000525072
0.000121755 4.50574e-05 6.35945e-06
4.50574e-05 -0.000119029 1.94158e-06
6.35945e-06 1.94158e-06 -0.00032217
0.00156595 -0.000276692 9.05675e-06
-0.000276692 0.000669792 -1.05591e-05
9.05675e-06 -1.05591e-05 0.000401659
-0.000956952 3.50195e-05 1.29121e-06
3.50195e-05 -0.00084567 -9.11714e-06
1.29121e-06 -9.11714e-06 -0.00120946
0.00230846 -0.000126829 -3.25796e-07
-0.000126829 -7.32092e-05 5.06923e-08
-3.25796e-07 5.06923e-08 4.68992e-06
0.00244058 -0.000324054 3.75077e-07
-0.000324054 -0.000130221 -7.81945e-08
3.75077e-07 -7.81945e-08 -1.23077e-05
0.00253409 -0.000575203 -4.70688e-07
-0.000575203 -3.99063e-05 -1.20749e-07
-4.70688e-07 -1.20749e-07 7.81631e-06
0.00232484 -0.00112376 -2.77088e-06
-0.00112376 0.000875546 8.81311e-07
-2.77088e-06 8.81311e-07 0.000158256
0.00226642 -0.00122125 9.09621e-06
-0.00122125 0.000625989 -1.59051e-06
9.09621e-06 -1.59051e-06 -9.17126e-05
0.00254206 -0.00107563 -2.08254e-06
-0.00107563 0.000533303 -2.62584e-06
-2.08254e-06 -2.62584e-06 5.67288e-06
0.00259421 -0.000787541 6.84849e-07
-0.000787541 3.84358e-05 -4.37436e-07
6.84849e-07 -4.37436e-07 1.28041e-06
0.00262709 -0.00100507 2.41366e-06
-0.00100507 0.000303638 -1.41701e-06
2.41366e-06 -1.41701e-06 1.05743e-05
-7.56954e-06 4.91687e-05 -2.56372e-06
4.91687e-05 -0.000239197 -3.55424e-06
-2.56372e-06 -3.55424e-06 -0.000364088
0.000752687 -0.000152967 -2.87804e-06
-0.000152967 0.000372198 1.7041e-06
-2.87804e-06 1.7041e-06 4.54833e-05
0.00160107 -0.00087713 -6.51088e-06
-0.00087713 0.000614743 3.63764e-07
-6.51088e-06 3.63764e-07 -3.12329e-05
0.00182575 -0.000778359 -4.70982e-06
-0.000778359 0.000903124 1.73885e-06
-4.70982e-06 1.73885e-06 0.000148412
0.00179324 -0.000166887 -5.07361e-06
-0.000166887 0.000863304 -9.99488e-06
-5.07361e-06 -9.99488e-06 0.000450834
0.000667324 -0.000238533 -1.68701e-06
-0.000238533 0.000157834 -1.60639e-06
-1.68701e-06 -1.60639e-06 -0.000189181
0.00241124 -0.000165443 1.36948e-06
-0.000165443 -0.000151046 -1.01445e-06
1.36948e-06 -1.01445e-06 3.92929e-06
0.00265352 -0.000480185 1.29068e-06
-0.000480185 -0.000166865 -9.66985e-07
1.29068e-06 -9.66985e-07 2.31082e-05
0.00260143 -0.000730358 -5.99761e-07
-0.000730358 -7.63844e-05 2.55294e-06
-5.99761e-07 2.55294e-06 -2.91874e-05
0.00275699 -0.0010052 -1.08448e-06
-0.0010052 0.000168648 -2.07222e-06
-1.08448e-06 -2.07222e-06 2.298e-05
0.00155717 -0.0010506 -9.20513e-06
-0.0010506 0.000463862 -3.02644e-06
-9.20513e-06 -3.02644e-06 -0.000217403
0.00269522 -0.00119722 8.73644e-06
-0.00119722 0.000511091 -4.3171e-06
8.73644e-06 -4.3171e-06 1.9987e-05
0.00243364 -0.00135173 -5.89128e-05
-0.00135173 0.000681255 2.20026e-06
-5.89128e-05 2.20026e-06 -7.87966e-05
0.000471123 5.00925e-05 1.70766e-06
5.00925e-05 5.60164e-05 -3.4879e-06
1.70766e-06 -3.4879e-06 -3.68831e-05
0.000689603 -0.000163239 7.44648e-06
-0.000163239 0.000273754 -8.14656e-06
7.44648e-06 -8.14656e-06 0.000120277
-0.000673338 5.24517e-05 -4.52597e-06
5.24517e-05 -0.000589478 1.60074e-06
-4.52597e-06 1.60074e-06 -0.00080379
0.000238748 -0.00025727 -6.02699e-06
-0.00025727 6.65116e-05 1.54505e-05
-6.02699e-06 1.54505e-05 -0.00027993
0.00341825 -0.000142648 -1.21625e-05
-0.000142648 0.00197848 -1.01547e-05
-1.21625e-05 -1.01547e-05 0.00165227
0.000759396 -0.000339659 -1.2207e-05
-0.000339659 0.000200489 -3.91232e-06
-1.2207e-05 -3.91232e-06 -0.000369295
0.00200587 -0.00101262 -1.28093e-05
-0.00101262 0.000800703 3.95242e-05
-1.28093e-05 3.95242e-05 0.000129194
0.00348879 -0.00107101 -2.67491e-05
-0.00107101 0.00190238 1.63555e-05
-2.67491e-05 1.63555e-05 0.000939816
0.000108935 0.000153693 5.09365e-06
0.000153693 -0.00015193 -4.04371e-06
5.09365e-06 -4.04371e-06 -0.000402414
0.0023488 0.000514109 2.74883e-06
0.000514109 0.00128323 5.2205e-06
2.74883e-06 5.2205e-06 0.000870716
0.00264825 0.00074853 -6.08725e-08
0.00074853 9.81139e-05 -7.51131e-07
-6.08725e-08 -7.51131e-07 1.46203e-05
0.0029352 0.000373826 2.33264e-06
0.000373826 0.0011868 4.09172e-06
2.33264e-06 4.09172e-06 0.000862559
0.00129682 0.000793337 2.47607e-07
0.000793337 0.00045611 1.36069e-06
2.47607e-07 1.36069e-06 -0.000135933
0.0031146 0.000839442 -4.26561e-06
0.000839442 0.00125454 1.18116e-05
-4.26561e-06 1.18116e-05 0.000776553
0.00269413 0.000862703 -5.16874e-06
0.000862703 0.000447108 2.49507e-07
-5.16874e-06 2.49507e-07 0.00010921
0.00302277 0.000880662 -4.40569e-06
0.000880662 0.000516698 7.23508e-06
-4.40569e-06 7.23508e-06 0.000233586
0.00208151 0.00120007 -6.58034e-06
0.00120007 0.000668852 3.86852e-06
-6.58034e-06 3.86852e-06 -4.60361e-05
0.00231843 0.00132461 -1.57718e-05
0.00132461 0.000527522 2.31033e-07
-1.57718e-05 2.31033e-07 -0.000150854
-0.000747672 0.000132467 1.69509e-06
0.000132467 -0.000608325 1.30752e-06
1.69509e-06 1.30752e-06 -0.000905143
-0.000392114 0.000484491 4.88085e-06
0.000484491 -0.000162121 -2.66829e-06
4.88085e-06 -2.66829e-06 -0.000691161
0.00189769 0.000970742 -3.26308e-07
0.000970742 0.000638532 -6.7769e-07
-3.26308e-07 -6.7769e-07 2.05014e-05
0.00253692 0.000659257 -6.65604e-06
0.000659257 0.000972052 -3.79434e-07
-6.65604e-06 -3.79434e-07 0.000583464
0.00269629 0.000651266 1.08043e-07
0.000651266 -0.000239581 -2.01781e-07
1.08043e-07 -2.01781e-07 -7.08653e-05
0.00283498 0.000902486 3.35691e-06
0.000902486 0.00023346 -7.72e-07
3.35691e-06 -7.72e-07 4.44654e-05
0.00254965 0.0010636 -4.20053e-06
0.0010636 0.000411085 -5.12777e-07
-4.20053e-06 -5.12777e-07 -8.1745e-05
0.00255318 0.00133811 1.62069e-06
0.00133811 0.000747456 6.8221e-07
1.62069e-06 6.8221e-07 1.30925e-05
-0.00129956 -5.87744e-06 -5.08361e-06
-5.87744e-06 -0.000925285 -2.81043e-06
-5.08361e-06 -2.81043e-06 -0.00114383
0.00266545 0.000448888 -1.38842e-06
0.000448888 -0.000280603 2.19287e-06
-1.38842e-06 2.19287e-06 -7.69808e-05
0.00394474 0.000914107 -7.28982e-06
0.000914107 0.00253285 9.24194e-06
-7.28982e-06 9.24194e-06 0.00192468
0.00174627 0.000876082 2.73418e-06
0.000876082 0.000433336 -3.73576e-06
2.73418e-06 -3.73576e-06 -0.000101049
0.00281033 0.000881604 -1.92595e-05
0.000881604 -1.56573e-05 -1.22206e-05
-1.92595e-05 -1.22206e-05 4.393e-05
0.00159733 0.000985412 8.88507e-06
0.000985412 -0.000258708 -1.20284e-05
8.88507e-06 -1.20284e-05 -0.000704221
0.00344232 0.00147388 4.40615e-06
0.00147388 0.00121222 3.81362e-06
4.40615e-06 3.81362e-06 0.000440351
3.218e-05 0.000153178 1.7971e-06
0.000153178 -0.000107412 5.78165e-06
1.7971e-06 5.78165e-06 -0.000315458
0.000483281 0.000162692 -1.59299e-06
0.000162692 0.000187406 -3.7337e-07
-1.59299e-06 -3.7337e-07 5.05935e-05
-0.000223987 7.77238e-05 -7.26201e-06
7.77238e-05 -0.000203002 -3.16256e-06
-7.26201e-06 -3.16256e-06 -0.000312704
0.000116889 -3.61549e-06 2.77321e-06
-3.61549e-06 -0.000128347 -1.30437e-06
2.77321e-06 -1.30437e-06 -0.000267113
0.000539084 0.000134647 4.40066e-06
0.000134647 0.000261987 -7.28996e-06
4.40066e-06 -7.28996e-06 1.24449e-05
-0.000318791 0.000175786 -6.09782e-06
0.000175786 -0.000254424 7.20341e-06
-6.09782e-06 7.20341e-06 -0.000448641
0.00048538 2.85853e-05 -1.68506e-06
2.85853e-05 0.000115138 -2.42607e-07
-1.68506e-06 -2.42607e-07 -3.40224e-05
0.000281136 2.57687e-06 3.01283e-08
2.57687e-06 6.00545e-05 -3.9799e-07
3.01283e-08 -3.9799e-07 -0.00015403
-9.73686e-05 9.41712e-05 -8.75756e-06
9.41712e-05 -0.000214914 4.124e-06
-8.75756e-06 4.124e-06 -0.000301668
0.000668763 0.000171723 2.63117e-06
0.000171723 0.00036843 -2.94088e-06
2.63117e-06 -2.94088e-06 0.000101187
0.000996301 0.000168346 7.27611e-07
0.000168346 0.000476101 -7.18147e-06
7.27611e-07 -7.18147e-06 0.000410476
-0.000334108 5.25376e-05 1.10542e-05
5.25376e-05 -0.000340527 -1.18843e-05
1.10542e-05 -1.18843e-05 -0.000468308
0.000633399 0.000128541 -4.79866e-06
0.000128541 0.00035826 6.96865e-06
-4.79866e-06 6.96865e-06 8.46128e-05
0.000568749 3.47124e-05 -4.0171e-06
3.47124e-05 0.0002141 4.75693e-06
-4.0171e-06 4.75693e-06 6.4269e-06
0.000498201 3.4191e-05 1.34705e-06
3.4191e-05 9.96018e-05 2.52871e-06
1.34705e-06 2.52871e-06 -4.50958e-05
0.000439895 -7.73645e-05 -2.00403e-06
-7.73645e-05 4.30509e-05 3.33985e-06
-2.00403e-06 3.33985e-06 -5.49383e-05
0.000442656 1.75667e-05 4.90867e-07
1.75667e-05 3.78306e-05 -4.24931e-07
4.90867e-07 -4.24931e-07 -5.47231e-05
0.00133652 2.74083e-05 3.78127e-06
2.74083e-05 0.000597982 4.09474e-06
3.78127e-06 4.09474e-06 0.000571388
0.000437399 1.63173e-05 2.47968e-06
1.63173e-05 2.33996e-05 -3.16499e-06
2.47968e-06 -3.16499e-06 -6.10514e-05
0.00137247 2.07194e-05 -1.17958e-05
2.07194e-05 0.00062002 -2.11258e-06
-1.17958e-05 -2.11258e-06 0.000592014
0.000773303 1.94842e-06 3.5673e-05
1.94842e-06 0.000218041 9.95193e-06
3.5673e-05 9.95193e-06 0.000220317
0.00131842 -1.84414e-05 -1.10419e-05
-1.84414e-05 0.000577983 -8.50631e-06
-1.10419e-05 -8.50631e-06 0.000552587
0.000745524 -1.28513e-05 1.51678e-05
-1.28513e-05 0.000191758 4.10606e-06
1.51678e-05 4.10606e-06 0.000191825
0.000810442 -2.98283e-05 3.14791e-06
-2.98283e-05 0.000230115 -3.85243e-06
3.14791e-06 -3.85243e-06 0.000225613
0.000500998 -1.82676e-05 1.02099e-06
-1.82676e-05 5.63226e-05 -4.97971e-06
1.02099e-06 -4.97971e-06 -1.89956e-05
0.000195248 3.00336e-05 5.5926e-07
3.00336e-05 -0.000151745 -7.08283e-06
5.5926e-07 -7.08283e-06 -0.000191346
0.000299803 3.68876e-05 1.85586e-06
3.68876e-05 -8.08221e-05 7.57593e-07
1.85586e-06 7.57593e-07 -0.000131941
0.00319244 0.000138473 -6.29304e-06
0.000138473 0.00182548 -8.524e-06
-6.29304e-06 -8.524e-06 0.00181456
-1.91412e-05 3.47525e-06 -3.4604e-06
3.47525e-06 -0.000284263 9.2784e-06
-3.4604e-06 9.2784e-06 -0.000348939
0.00374011 0.00018665 -1.43518e-05
0.00018665 0.00220815 -1.76542e-06
-1.43518e-05 -1.76542e-06 0.00218259
0.00420432 0.000122258 -7.51662e-05
0.000122258 0.00249812 1.04185e-05
-7.51662e-05 1.04185e-05 0.00248475
0.00248826 0.000472538 1.9142e-06
0.000472538 -7.68748e-05 4.27935e-07
1.9142e-06 4.27935e-07 -1.54629e-05
0.00239627 0.000244641 8.83378e-08
0.000244641 -7.46291e-05 -7.98459e-08
8.83378e-08 -7.98459e-08 1.31183e-05
0.00226588 9.18553e-05 1.09153e-07
9.18553e-05 -0.000114269 2.16781e-07
1.09153e-07 2.16781e-07 -2.16705e-05
0.00219813 -1.56555e-05 -1.79691e-06
-1.56555e-05 -2.65005e-05 1.20991e-07
-1.79691e-06 1.20991e-07 1.31061e-05
0.00229595 -1.28369e-05 -4.79025e-07
-1.28369e-05 -9.85606e-05 6.44354e-08
-4.79025e-07 6.44354e-08 -8.06127e-06
0.00240749 0.000137037 9.8516e-07
0.000137037 -0.000145894 2.43931e-07
9.8516e-07 2.43931e-07 7.1799e-06
0.00256229 0.000359299 -6.7073e-07
0.000359299 -0.000126011 -2.391e-07
-6.7073e-07 -2.391e-07 3.60734e-06
0.00237438 -1.51289e-05 2.78875e-06
-1.51289e-05 -0.000186634 -6.14745e-07
2.78875e-06 -6.14745e-07 -1.87496e-05
0.00269966 0.000173193 1.49293e-06
0.000173193 -0.000155479 1.44197e-06
1.49293e-06 1.44197e-06 4.50398e-05
0.00240369 0.000167873 -2.17513e-06
0.000167873 -0.000427614 8.09993e-06
-2.17513e-06 8.09993e-06 -0.000204677
0.0023279 -0.000119744 -1.62535e-07
-0.000119744 -5.99765e-05 -9.83909e-08
-1.62535e-07 -9.83909e-08 1.4917e-05
0.00243184 -0.000337979 -2.5977e-06
-0.000337979 -0.00014392 2.52189e-08
-2.5977e-06 2.52189e-08 -2.20885e-05
0.00252779 -0.000562055 1.79903e-06
-0.000562055 -3.60994e-05 2.30828e-07
1.79903e-06 2.30828e-07 8.90616e-06
0.00220945 -0.00111146 -2.66268e-06
-0.00111146 0.000784165 -7.68574e-07
-2.66268e-06 -7.68574e-07 7.17083e-05
0.00220808 -0.00121468 3.18633e-05
-0.00121468 0.000588804 -2.8806e-06
3.18633e-05 -2.8806e-06 -0.000124596
0.00275312 -0.00109332 1.79127e-05
-0.00109332 0.000643 -3.23622e-06
1.79127e-05 -3.23622e-06 0.000123425
0.00258844 -0.000797748 3.53522e-06
-0.000797748 3.84333e-05 -1.6216e-06
3.53522e-06 -1.6216e-06 -1.09702e-05
0.0025983 -0.000978562 5.34263e-06
-0.000978562 0.000315556 8.12421e-08
5.34263e-06 8.12421e-08 3.3634e-05
0.00148532 -0.000863163 -6.40282e-06
-0.000863163 0.000565238 -1.81322e-05
-6.40282e-06 -1.81322e-05 -0.000103018
0.000992177 -0.000625973 6.57572e-06
-0.000625973 0.0004621 -1.50884e-05
6.57572e-06 -1.50884e-05 -0.000276193
0.0032523 -0.000280786 4.93352e-06
-0.000280786 0.0017917 7.70206e-06
4.93352e-06 7.70206e-06 0.00140054
0.000506065 -1.85841e-05 -1.94519e-06
-1.85841e-05 9.34879e-05 4.72443e-06
-1.94519e-06 4.72443e-06 -2.77743e-05
-0.000450052 -1.05564e-05 4.20126e-06
-1.05564e-05 -0.000416724 -6.85463e-06
4.20126e-06 -6.85463e-06 -0.000729566
-0.000935563 -0.000183293 -5.6696e-06
-0.000183293 -0.000901789 -1.06616e-05
-5.6696e-06 -1.06616e-05 -0.00122834
0.0024062 -0.00016838 1.89648e-07
-0.00016838 -0.000163238 -3.79259e-07
1.89648e-07 -3.79259e-07 -3.86387e-06
0.000443148 -2.1875e-05 1.68543e-06
-2.1875e-05 3.48935e-05 4.98989e-07
1.68543e-06 4.98989e-07 -5.91454e-05
0.000470226 -9.20751e-05 -3.22911e-06
-9.20751e-05 9.99676e-05 -8.24108e-07
-3.22911e-06 -8.24108e-07 -3.07293e-05
0.00261027 -0.000468221 -1.53317e-07
-0.000468221 -0.000170344 1.49522e-07
-1.53317e-07 1.49522e-07 3.77016e-06
0.00259727 -0.000715936 -1.6688e-06
-0.000715936 -6.07718e-05 1.8826e-07
-1.6688e-06 1.8826e-07 -9.56935e-06
0.00222405 -0.00117514 1.33583e-06
-0.00117514 0.000839443 2.81973e-06
1.33583e-06 2.81973e-06 0.000115664
0.00290416 -0.00143125 1.22869e-05
-0.00143125 0.000940353 -1.28549e-06
1.22869e-05 -1.28549e-06 0.000164269
0.00266128 -0.00118585 2.74232e-06
-0.00118585 0.000497701 -1.88425e-06
2.74232e-06 -1.88425e-06 1.58699e-05
0.00270231 -0.00100494 2.25475e-06
-0.00100494 0.000136595 -1.59107e-06
2.25475e-06 -1.59107e-06 -6.74497e-06
0.000458752 -1.9299e-05 -3.05003e-06
-1.9299e-05 0.000154368 -1.58042e-06
-3.05003e-06 -1.58042e-06 -7.42531e-05
0.000662578 -0.000210777 -7.39374e-07
-0.000210777 0.000345994 1.28067e-06
-7.39374e-07 1.28067e-06 -1.16725e-05
0.00141313 -0.000887193 1.37313e-05
-0.000887193 0.000508104 9.01394e-06
1.37313e-05 9.01394e-06 -0.000143992
0.00104753 -0.000722324 2.14718e-05
-0.000722324 0.000504891 -1.6559e-05
2.14718e-05 -1.6559e-05 -0.000381387
0.00107723 -0.000383864 1.83001e-06
-0.000383864 0.000513308 1.79414e-06
1.83001e-06 1.79414e-06 -0.000103296
0.000925773 -0.000184072 5.62329e-06
-0.000184072 0.000384185 -4.21063e-06
5.62329e-06 -4.21063e-06 6.38786e-05
0.00246902 -0.000193435 2.2145e-06
-0.000193435 -0.000374952 -1.78786e-06
2.2145e-06 -1.78786e-06 -0.000121897
0.00277488 -0.000626141 -2.54274e-06
-0.000626141 -0.000193685 2.61705e-06
-2.54274e-06 2.61705e-06 6.65881e-05
0.00305787 -0.00105173 -3.50578e-06
-0.00105173 0.000146539 3.08015e-06
-3.50578e-06 3.08015e-06 0.000101763
0.00265025 -0.00120996 5.09938e-07
-0.00120996 0.000242335 -8.27786e-06
5.09938e-07 -8.27786e-06 -7.89891e-05
0.00131681 -0.00113122 -8.80055e-07
-0.00113122 0.000381456 -4.71294e-06
-8.80055e-07 -4.71294e-06 -0.000352363
0.00360647 -0.00165537 3.97185e-06
-0.00165537 0.00117432 -3.20974e-06
3.97185e-06 -3.20974e-06 0.000382299
0.000366087 5.16099e-05 -1.39691e-07
5.16099e-05 1.32486e-05 -9.50202e-06
-1.39691e-07 -9.50202e-06 -0.000112061
-0.000213491 -4.0057e-05 7.74646e-06
-4.0057e-05 -0.000341292 -2.90694e-06
7.74646e-06 -2.90694e-06 -0.000477191
0.00158054 -0.000232892 -4.19556e-06
-0.000232892 0.000810201 8.71543e-06
-4.19556e-06 8.71543e-06 0.0006348
0.000471148 -2.30021e-05 -2.01831e-06
-2.30021e-05 0.000182899 1.68815e-05
-2.01831e-06 1.68815e-05 -0.000100829
0.00099907 -0.000309013 -9.69888e-06
-0.000309013 0.000550599 2.02108e-05
-9.69888e-06 2.02108e-05 0.00018927
-0.0011836 -0.00015794 -9.51615e-06
-0.00015794 -0.000949244 -3.12012e-05
-9.51615e-06 -3.12012e-05 -0.00122887
-0.00050137 -0.00032541 -3.13507e-05
-0.00032541 -8.29474e-06 -1.14404e-06
-3.13507e-05 -1.14404e-06 -0.00104844
0.00123663 -0.00122754 -4.74804e-05
-0.00122754 0.000162797 2.79599e-05
-4.74804e-05 2.79599e-05 -0.000368753
-0.000313711 0.000311952 9.86504e-07
0.000311952 -0.00024036 -8.54548e-07
9.86504e-07 -8.54548e-07 -0.000613956
0.00363922 0.000669015 -1.11209e-05
0.000669015 0.00229508 -3.25148e-06
-1.11209e-05 -3.25148e-06 0.00182322
0.00261 0.000616625 -2.51808e-06
0.000616625 -0.000323582 -2.4012e-06
-2.51808e-06 -2.4012e-06 -0.000130696
0.00300104 0.000913386 -5.63821e-06
0.000913386 0.000333942 1.95574e-09
-5.63821e-06 1.95574e-09 0.000127328
0.00369746 0.000748747 -9.01699e-06
0.000748747 0.00171327 3.79002e-06
-9.01699e-06 3.79002e-06 0.00131208
0.00167036 0.000972436 -1.47165e-05
0.000972436 0.000447718 6.85636e-07
-1.47165e-05 6.85636e-07 -0.000182812
0.00234747 0.00101538 -6.7834e-06
0.00101538 0.000344662 3.47383e-06
-6.7834e-06 3.47383e-06 -0.000131095
0.00278426 0.00133787 -1.06308e-05
0.00133787 0.00086989 -5.82128e-07
-1.06308e-05 -5.82128e-07 0.000148215
0.000218673 0.000253565 3.63239e-06
0.000253565 0.000115141 5.49054e-07
3.63239e-06 5.49054e-07 -0.000184741
0.00262603 0.000437479 -2.68983e-06
0.000437479 -0.000311542 -3.09459e-06
-2.68983e-06 -3.09459e-06 -8.90637e-05
0.00213152 0.000647803 3.48664e-06
0.000647803 0.00141345 7.19331e-06
3.48664e-06 7.19331e-06 0.000892254
0.001689 0.000848013 4.23494e-06
0.000848013 0.000459495 1.9328e-06
4.23494e-06 1.9328e-06 -7.3571e-05
0.00294324 0.000851947 2.31894e-07
0.000851947 0.00011284 4.71061e-07
2.31894e-07 4.71061e-07 0.000166606
0.00222487 0.00107679 -2.70104e-06
0.00107679 0.000113766 -6.21624e-06
-2.70104e-06 -6.21624e-06 -0.000347896
0.00301256 0.00138069 -2.43995e-06
0.00138069 0.000981954 -3.94678e-07
-2.43995e-06 -3.94678e-07 0.000239654
0.00168912 0.000485186 -6.68153e-06
0.000485186 0.00116346 -3.83043e-06
-6.68153e-06 -3.83043e-06 0.000756671
0.00440824 0.000870164 -0.000123441
0.000870164 0.000605086 -4.44561e-05
-0.000123441 -4.44561e-05 0.00100272
0.00204526 0.000766189 -3.93787e-06
0.000766189 0.00120203 9.87029e-06
-3.93787e-06 9.87029e-06 0.000643064
0.00137356 0.000914684 -3.62314e-06
0.000914684 0.000275955 -1.02537e-05
-3.62314e-06 -1.02537e-05 -0.000345114
0.00356504 0.00121624 -4.65242e-05
0.00121624 0.000718836 -2.57143e-05
-4.65242e-05 -2.57143e-05 0.000440865
0.00119814 0.00110601 -3.04268e-05
0.00110601 -3.71993e-05 -4.48323e-06
-3.04268e-05 -4.48323e-06 -0.00068059
0.00138721 0.00179461 4.82428e-06
0.00179461 -0.00286915 -7.42252e-05
4.82428e-06 -7.42252e-05 -0.00133975
0.000560485 0.00022649 9.41337e-06
0.00022649 0.000284429 1.01042e-05
9.41337e-06 1.01042e-05 0.000126969
0.000191096 0.000151925 3.49896e-07
0.000151925 8.93175e-05 -9.55374e-07
3.49896e-07 -9.55374e-07 -4.84667e-05
-0.0005099 7.50104e-05 2.41939e-06
7.50104e-05 -0.000345302 -2.34217e-06
2.41939e-06 -2.34217e-06 -0.000474893
0.00036693 -6.81345e-05 2.61804e-06
-6.81345e-05 4.06801e-05 -2.62025e-06
2.61804e-06 -2.62025e-06 -0.000111249
-0.00031955 1.43885e-06 2.83635e-06
1.43885e-06 -0.000326526 -4.73469e-06
2.83635e-06 -4.73469e-06 -0.000539308
0.0018137 0.000335488 2.74759e-08
0.000335488 0.00112522 -7.41824e-06
2.74759e-08 -7.41824e-06 0.000836471
-0.00116588 4.77768e-05 -7.50624e-06
4.77768e-05 -0.000852197 1.80447e-05
-7.50624e-06 1.80447e-05 -0.000928568
0.000469343 -9.62298e-06 -2.23389e-07
-9.62298e-06 9.84468e-05 -4.286e-07
-2.23389e-07 -4.286e-07 -5.7199e-05
0.000348729 9.2593e-05 4.89562e-07
9.2593e-05 3.21939e-05 -4.94375e-07
4.89562e-07 -4.94375e-07 -0.000143406
-0.000257914 9.79603e-05 1.74123e-06
9.79603e-05 -0.000278041 2.9551e-06
1.74123e-06 2.9551e-06 -0.000324548
8.16681e-05 0.000101304 1.05549e-06
0.000101304 -3.35823e-05 -3.98427e-07
1.05549e-06 -3.98427e-07 -0.000280238
0.000515941 0.000104973 1.52973e-07
0.000104973 0.000181791 -1.08369e-06
1.52973e-07 -1.08369e-06 4.50726e-05
-0.00012886 8.69011e-05 1.28344e-05
8.69011e-05 -0.000128382 -1.3822e-05
1.28344e-05 -1.3822e-05 -0.000228531
0.000563583 0.000175902 -5.97546e-06
0.000175902 0.000251541 4.47554e-06
-5.97546e-06 4.47554e-06 4.63206e-05
0.000995282 0.000144972 -2.90557e-06
0.000144972 0.000522021 5.00047e-06
-2.90557e-06 5.00047e-06 0.000289616
0.000591925 0.000128405 -5.85032e-06
0.000128405 0.000195978 -1.05327e-06
-5.85032e-06 -1.05327e-06 6.85681e-06
0.000156805 -8.2364e-06 -2.02728e-06
-8.2364e-06 -0.000135436 7.007e-07
-2.02728e-06 7.007e-07 -0.00027812
0.00135285 -0.000137896 2.92742e-06
-0.000137896 0.000799793 -4.56244e-06
2.92742e-06 -4.56244e-06 0.000532461
0.000154534 -5.5152e-05 -1.48229e-06
-5.5152e-05 -0.000117779 3.89386e-06
-1.48229e-06 3.89386e-06 -0.00027041
0.00035681 6.74628e-06 -2.00451e-06
6.74628e-06 -1.23137e-06 3.29945e-06
-2.00451e-06 3.29945e-06 -0.000104167
0.00040103 4.90223e-05 2.25746e-06
4.90223e-05 2.41043e-05 -9.33562e-08
2.25746e-06 -9.33562e-08 -7.68811e-05
0.000302609 2.00682e-05 -2.75353e-06
2.00682e-05 -6.95941e-05 5.37962e-06
-2.75353e-06 5.37962e-06 -0.00010187
0.000308168 -3.78381e-06 -5.70247e-07
-3.78381e-06 -3.71751e-05 -4.10599e-06
-5.70247e-07 -4.10599e-06 -0.000137776
0.000832768 1.77317e-05 -4.81039e-06
1.77317e-05 0.000272432 -1.52277e-06
-4.81039e-06 -1.52277e-06 0.000243089
0.00267474 7.18371e-06 3.22798e-05
7.18371e-06 0.00146068 6.40947e-06
3.22798e-05 6.40947e-06 0.00147254
0.0013961 6.024e-05 -1.97304e-05
6.024e-05 0.000639986 -8.44187e-06
-1.97304e-05 -8.44187e-06 0.000610435
0.000758718 -3.66984e-06 1.45845e-05
-3.66984e-06 0.000204094 4.00673e-06
1.45845e-05 4.00673e-06 0.000205079
0.000824161 -1.88062e-05 2.51966e-06
-1.88062e-05 0.000239687 -3.53028e-06
2.51966e-06 -3.53028e-06 0.000238414
0.000343227 1.14291e-05 -1.29525e-06
1.14291e-05 -2.88278e-05 -6.11337e-06
-1.29525e-06 -6.11337e-06 -0.000102938
0.000532738 -4.53188e-05 5.01162e-07
-4.53188e-05 9.01654e-05 -2.60674e-07
5.01162e-07 -2.60674e-07 6.49002e-06
0.000334986 2.78661e-05 4.37897e-07
2.78661e-05 -6.91613e-05 -5.82441e-06
4.37897e-07 -5.82441e-06 -9.82887e-05
0.000855373 4.83982e-05 3.19854e-10
4.83982e-05 0.000279671 3.11173e-07
3.19854e-10 3.11173e-07 0.000241288
0.00277605 0.000100911 -2.51097e-06
0.000100911 0.00154143 -6.97812e-06
-2.51097e-06 -6.97812e-06 0.00154017
0.000431799 4.71074e-05 1.66378e-06
4.71074e-05 1.17883e-05 8.83803e-06
1.66378e-06 8.83803e-06 -4.22736e-05
0.00300678 0.000138731 -5.05171e-06
0.000138731 0.00170717 -5.07162e-07
-5.05171e-06 -5.07162e-07 0.00169566
0.0040572 0.000153989 -1.66157e-05
0.000153989 0.00240271 8.25335e-06
-1.66157e-05 8.25335e-06 0.00238317
0.00247668 0.000372452 3.71765e-07
0.000372452 -0.000164257 -5.47882e-07
3.71765e-07 -5.47882e-07 -3.4473e-05
0.00237782 0.00013483 -9.26505e-07
0.00013483 -0.000164058 -7.1325e-07
-9.26505e-07 -7.1325e-07 -1.01263e-05
0.00229519 -9.06331e-06 -1.49539e-07
-9.06331e-06 -0.000104207 2.45707e-07
-1.49539e-07 2.45707e-07 -9.83481e-06
0.0023716 -5.66496e-06 -2.00957e-08
-5.66496e-06 -0.000188703 1.06441e-07
-2.00957e-08 1.06441e-07 -1.92384e-05
0.00268086 0.000186445 1.66683e-06
0.000186445 -0.00014573 -2.81691e-07
1.66683e-06 -2.81691e-07 5.17106e-05
0.00257825 0.000144084 3.34897e-06
0.000144084 -0.00032265 -1.73323e-06
3.34897e-06 -1.73323e-06 -0.0001069
0.002808 3.78268e-05 3.88867e-06
3.78268e-05 -0.000204249 4.7887e-06
3.88867e-06 4.7887e-06 5.88714e-05
0.00617082 0.00192618 5.24065e-05
0.00192618 -0.00129703 2.54376e-05
5.24065e-05 2.54376e-05 0.000567997
0.00273686 0.00016319 -5.99824e-05
0.00016319 -0.000212696 1.80769e-05
-5.99824e-05 1.80769e-05 0.000195755
0.000434828 0.000124452 -3.54166e-06
0.000124452 7.43677e-05 -4.94448e-06
-3.54166e-06 -4.94448e-06 -5.30107e-05
0.00240791 -0.000169762 -1.39037e-06
-0.000169762 -0.000172434 1.03176e-06
-1.39037e-06 1.03176e-06 -7.89315e-06
0.00255192 -0.00045621 -1.45467e-06
-0.00045621 -0.000188851 8.74084e-07
-1.45467e-06 8.74084e-07 -2.68855e-05
0.002606 -0.000700592 2.76455e-06
-0.000700592 -3.98847e-05 -1.95285e-06
2.76455e-06 -1.95285e-06 1.8862e-05
0.0020264 -0.00117179 -7.37214e-06
-0.00117179 0.000722596 5.99144e-06
-7.37214e-06 5.99144e-06 -3.21405e-06
0.0031111 -0.00143685 2.73915e-05
-0.00143685 0.00106279 3.62563e-06
2.73915e-05 3.62563e-06 0.000298109
0.0021843 -0.00110687 -9.07668e-06
-0.00110687 0.00024623 2.54914e-06
-9.07668e-06 2.54914e-06 -0.000209252
0.00266537 -0.00100898 6.17933e-06
-0.00100898 0.000111901 1.01629e-06
6.17933e-06 1.01629e-06 -3.07476e-05
0.00201739 -0.000933178 2.9831e-05
-0.000933178 0.000795029 -5.41823e-05
2.9831e-05 -5.41823e-05 0.000190872
0.00229874 -0.000914574 3.43115e-05
-0.000914574 0.00119059 -5.08004e-05
3.43115e-05 -5.08004e-05 0.000349558
0.000336078 -0.000336832 2.82403e-05
-0.000336832 9.69638e-05 1.14336e-05
2.82403e-05 1.14336e-05 -0.000551515
0.000532068 -2.71179e-06 1.04051e-06
-2.71179e-06 9.70398e-05 4.93574e-06
1.04051e-06 4.93574e-06 -1.54726e-06
0.00124207 -0.000179652 1.73029e-06
-0.000179652 0.00060744 1.35575e-05
1.73029e-06 1.35575e-05 0.000254465
0.00126503 -0.000123164 5.19773e-06
-0.000123164 0.000717443 -3.45561e-06
5.19773e-06 -3.45561e-06 0.00046047
0.000822064 -0.000180681 2.82884e-06
-0.000180681 0.000436649 -1.65374e-05
2.82884e-06 -1.65374e-05 8.13251e-05
0.000117182 -6.34803e-05 -8.48485e-06
-6.34803e-05 -0.000131338 7.17263e-06
-8.48485e-06 7.17263e-06 -0.000259365
0.0025859 -0.000218419 -1.65688e-06
-0.000218419 -0.000308872 -1.73731e-06
-1.65688e-06 -1.73731e-06 -4.78909e-05
0.000344569 4.74131e-05 1.065e-06
4.74131e-05 1.58919e-05 -2.32947e-06
1.065e-06 -2.32947e-06 -0.000118117
0.000640317 -0.000127599 2.6612e-06
-0.000127599 0.000270262 2.48262e-06
2.6612e-06 2.48262e-06 8.96199e-05
0.000819424 -0.000121394 9.29507e-06
-0.000121394 0.000311087 8.15415e-07
9.29507e-06 8.15415e-07 0.000162426
0.00264976 -0.000633049 2.33461e-06
-0.000633049 -0.000281856 -7.13325e-07
2.33461e-06 -7.13325e-07 -3.90012e-05
0.00291423 -0.00102096 -8.72376e-07
-0.00102096 8.14769e-05 -7.99e-07
-8.72376e-07 -7.99e-07 5.05658e-05
0.000970699 -0.000985044 3.8324e-06
-0.000985044 0.000155265 -6.37635e-07
3.8324e-06 -6.37635e-07 -0.00047751
0.00273704 -0.0015217 1.27916e-05
-0.0015217 0.0006868 1.26102e-06
1.27916e-05 1.26102e-06 -6.25056e-05
0.00272815 -0.00123212 -3.94618e-08
-0.00123212 0.000294458 3.54482e-07
-3.94618e-08 3.54482e-07 -4.19273e-05
0.000217739 -6.47627e-05 -8.56568e-07
-6.47627e-05 7.9236e-06 -2.0768e-06
-8.56568e-07 -2.0768e-06 -0.000264266
0.00172748 -0.000344644 4.98823e-06
-0.000344644 0.00105132 -2.79911e-07
4.98823e-06 -2.79911e-07 0.000664057
0.0028448 -0.00143502 -3.73566e-06
-0.00143502 0.00113459 6.70109e-06
-3.73566e-06 6.70109e-06 0.000415838
0.00192891 -0.00053247 -7.60128e-07
-0.00053247 0.00114428 1.09784e-05
-7.60128e-07 1.09784e-05 0.000330329
0.00124243 -0.00023972 1.23162e-05
-0.00023972 0.000560882 9.01491e-06
1.23162e-05 9.01491e-06 0.000248338
0.00291374 -0.000436011 -1.87528e-05
-0.000436011 -0.000215834 3.66764e-06
-1.87528e-05 3.66764e-06 0.000105724
0.00249458 -0.000738707 -2.34722e-05
-0.000738707 -0.000373345 1.06867e-05
-2.34722e-05 1.06867e-05 -3.59001e-05
0.00293882 -0.00123917 -1.11167e-05
-0.00123917 0.000255878 -2.67434e-06
-1.11167e-05 -2.67434e-06 4.18876e-06
0.00410453 -0.00161365 7.99214e-06
-0.00161365 0.00132628 1.9572e-07
7.99214e-06 1.9572e-07 0.000730665
0.000110223 -0.00109249 -1.01936e-05
-0.00109249 -0.000476516 2.1908e-05
-1.01936e-05 2.1908e-05 -0.00111774
0.000124845 -3.85691e-05 3.0398e-06
-3.85691e-05 -0.000137732 -2.92679e-06
3.0398e-06 -2.92679e-06 -0.000266397
-0.00035735 -3.08191e-05 -1.61511e-06
-3.08191e-05 -0.000489603 1.26805e-05
-1.61511e-06 1.26805e-05 -0.000661258
0.000160526 -0.000199177 -6.84052e-06
-0.000199177 -3.83345e-05 -4.40803e-06
-6.84052e-06 -4.40803e-06 -0.000234513
0.00198603 -0.000416002 -4.68118e-05
-0.000416002 0.00116481 4.40975e-05
-4.68118e-05 4.40975e-05 0.000797634
0.00175255 -0.000299178 -1.96229e-08
-0.000299178 0.001024 1.95212e-05
-1.96229e-08 1.95212e-05 0.000709878
-0.00141983 -3.71406e-05 -1.16898e-05
-3.71406e-05 -0.000607465 -1.54984e-06
-1.16898e-05 -1.54984e-06 -0.00127907
0.0022778 -0.00151146 -4.95562e-06
-0.00151146 0.00113412 -1.79793e-05
-4.95562e-06 -1.79793e-05 0.000253425
0.00267495 0.000617155 6.02929e-06
0.000617155 0.00167888 -3.99969e-07
6.02929e-06 -3.99969e-07 0.00131515
-0.00109185 0.000215827 -3.70196e-06
0.000215827 -0.00056602 3.86387e-08
-3.70196e-06 3.86387e-08 -0.000979362
0.00257807 0.000420372 1.5147e-05
0.000420372 -0.000351716 2.77593e-06
1.5147e-05 2.77593e-06 -0.000102813
0.00308397 0.000824058 1.89754e-05
0.000824058 0.000236714 1.15e-05
1.89754e-05 1.15e-05 0.000289788
0.00285792 0.00116786 4.00435e-06
0.00116786 0.000487192 4.90124e-06
4.00435e-06 4.90124e-06 1.0601e-05
0.0014888 0.000799994 -5.59433e-06
0.000799994 0.000406797 2.58387e-06
-5.59433e-06 2.58387e-06 -0.000119265
0.00257241 0.00129029 3.1743e-06
0.00129029 0.000748366 6.12596e-06
3.1743e-06 6.12596e-06 3.50121e-05
0.00249378 0.000522121 -5.58055e-07
0.000522121 0.00164148 9.47745e-07
-5.58055e-07 9.47745e-07 0.00127053
0.00318225 0.000686288 1.54708e-05
0.000686288 -8.06364e-05 6.44908e-06
1.54708e-05 6.44908e-06 0.000401183
0.00137647 0.000621421 -6.74125e-06
0.000621421 0.000730065 4.2631e-06
-6.74125e-06 4.2631e-06 0.000252278
0.00199956 0.001023 2.98976e-06
0.001023 0.000674756 -1.76385e-06
2.98976e-06 -1.76385e-06 8.93249e-06
0.00303253 0.00113492 -2.50495e-06
0.00113492 0.000465305 -3.88574e-06
-2.50495e-06 -3.88574e-06 0.000235688
0.00241637 0.00129101 -5.91827e-06
0.00129101 0.000631143 8.4003e-06
-5.91827e-06 8.4003e-06 -6.21105e-05
0.00312427 0.00219739 6.08165e-05
0.00219739 -0.00224602 1.0555e-05
6.08165e-05 1.0555e-05 -0.00089359
0.000512271 0.00038407 5.2654e-06
0.00038407 0.000517401 -6.44797e-07
5.2654e-06 -6.44797e-07 5.3194e-05
0.00464898 0.0014365 -0.000132729
0.0014365 0.000813019 -5.84453e-05
-0.000132729 -5.84453e-05 0.000891337
9.29796e-06 0.00058467 -1.95025e-05
0.00058467 -0.000362649 6.95754e-06
-1.95025e-05 6.95754e-06 -0.000846346
0.000688656 0.000946375 -4.37717e-06
0.000946375 -0.000125797 -2.21405e-05
-4.37717e-06 -2.21405e-05 -0.000757354
0.00275669 0.00147082 -5.26501e-05
0.00147082 0.000529806 -2.72591e-05
-5.26501e-05 -2.72591e-05 3.34004e-05
0.0158054 0.00107448 -0.000892851
0.00107448 0.000100473 -8.99476e-05
-0.000892851 -8.99476e-05 0.00126695
0.00264397 0.00332612 -0.000158328
0.00332612 -0.00497666 -0.000149521
-0.000158328 -0.000149521 -0.000866534
0.000567191 0.00253429 3.0812e-05
0.00253429 -0.00157068 -1.02846e-05
3.0812e-05 -1.02846e-05 -0.00150516
0.00512763 -0.00602295 0.00346263
-0.00602295 0.00377699 2.36025e-05
0.00346263 2.36025e-05 -0.00352057
0.0341348 -0.0169314 -0.000146093
-0.0169314 0.0216632 6.76579e-06
-0.000146093 6.76579e-06 0.00902624
0.00165058 0.00026552 7.6286e-06
0.00026552 0.00101624 8.25816e-06
7.6286e-06 8.25816e-06 0.000851523
0.000554026 0.000133101 5.83577e-07
0.000133101 0.000367088 2.65998e-06
5.83577e-07 2.65998e-06 0.000207216
-9.93819e-05 0.000164134 1.43934e-05
0.000164134 2.75983e-06 -2.76027e-06
1.43934e-05 -2.76027e-06 -0.000196907
0.000547849 -6.30979e-05 1.13501e-06
-6.30979e-05 0.000161289 -1.58694e-06
1.13501e-06 -1.58694e-06 -2.89712e-06
0.00054096 7.11794e-05 4.62891e-06
7.11794e-05 0.000179145 -5.07658e-06
4.62891e-06 -5.07658e-06 -2.30583e-06
0.000572018 -1.89029e-05 2.1486e-06
-1.89029e-05 0.000268864 -7.11736e-06
2.1486e-06 -7.11736e-06 2.84366e-05
0.000898852 0.000124271 5.91262e-06
0.000124271 0.000408007 8.10072e-06
5.91262e-06 8.10072e-06 0.000265352
-3.62252e-05 9.63959e-05 1.57686e-06
9.63959e-05 -0.000110544 1.24576e-05
1.57686e-06 1.24576e-05 -0.000146947
0.000730003 0.000165498 -2.93927e-06
0.000165498 0.000397488 1.423e-06
-2.93927e-06 1.423e-06 0.00014232
0.000389945 -1.37641e-05 4.53536e-07
-1.37641e-05 2.73579e-05 8.26556e-07
4.53536e-07 8.26556e-07 -0.000124962
0.000764926 6.78227e-05 -1.116e-06
6.78227e-05 0.000323495 1.73091e-07
-1.116e-06 1.73091e-07 0.00012796
0.000207733 0.000106701 -1.94413e-06
0.000106701 5.58644e-05 -5.61302e-06
-1.94413e-06 -5.61302e-06 -3.75232e-05
0.00044543 0.000121677 1.40164e-06
0.000121677 0.000172591 1.71389e-06
1.40164e-06 1.71389e-06 -1.87026e-05
0.00164834 0.000222251 -1.43768e-06
0.000222251 0.00100214 9.7003e-06
-1.43768e-06 9.7003e-06 0.000742336
-3.90089e-05 6.97182e-05 2.96038e-06
6.97182e-05 -1.02804e-05 -2.7138e-06
2.96038e-06 -2.7138e-06 -0.000222754
0.000909763 0.000111254 1.09228e-06
0.000111254 0.000483788 1.05933e-06
1.09228e-06 1.05933e-06 0.000254635
0.000181377 2.49421e-05 -2.45289e-06
2.49421e-05 -9.9305e-05 -2.77543e-06
-2.45289e-06 -2.77543e-06 -0.000277408
0.000230042 -6.5222e-05 -5.19952e-07
-6.5222e-05 -7.27009e-05 4.16193e-07
-5.19952e-07 4.16193e-07 -0.000226681
0.000164916 -3.85992e-05 6.02057e-07
-3.85992e-05 -8.0132e-05 -3.42272e-06
6.02057e-07 -3.42272e-06 -0.000253452
0.000870156 -9.34004e-05 5.47861e-06
-9.34004e-05 0.000404692 -2.84355e-06
5.47861e-06 -2.84355e-06 0.000218814
0.000961067 -9.62156e-05 -1.71966e-06
-9.62156e-05 0.000524179 -5.66331e-07
-1.71966e-06 -5.66331e-07 0.000303386
0.000815103 -0.000128945 2.37761e-06
-0.000128945 0.000394093 1.90544e-07
2.37761e-06 1.90544e-07 0.00017333
0.000363987 -0.00012777 -2.6204e-06
-0.00012777 4.16213e-05 1.33109e-06
-2.6204e-06 1.33109e-06 -0.000120537
5.0131e-05 -3.91045e-05 -3.44727e-07
-3.91045e-05 -0.000177526 1.48339e-06
-3.44727e-07 1.48339e-06 -0.000336146
0.000413771 -7.54933e-05 -1.28572e-06
-7.54933e-05 2.53978e-05 3.84986e-06
-1.28572e-06 3.84986e-06 -7.13908e-05
0.000434163 -4.80007e-05 2.34233e-06
-4.80007e-05 4.71857e-05 1.02745e-07
2.34233e-06 1.02745e-07 -5.47667e-05
0.00031765 5.59306e-06 4.99571e-06
5.59306e-06 -5.55976e-05 7.3472e-06
4.99571e-06 7.3472e-06 -8.91997e-05
0.000455164 7.17219e-05 -1.68531e-06
7.17219e-05 4.97225e-05 -3.93001e-06
-1.68531e-06 -3.93001e-06 -4.52512e-05
0.00033033 2.88275e-05 5.8815e-07
2.88275e-05 -5.15716e-05 1.51441e-07
5.8815e-07 1.51441e-07 -8.36668e-05
0.0026209 1.45085e-05 1.86291e-05
1.45085e-05 0.00142678 6.00935e-06
1.86291e-05 6.00935e-06 0.00143771
0.000354842 7.15156e-05 -5.73551e-06
7.15156e-05 -3.2226e-05 -8.71306e-06
-5.73551e-06 -8.71306e-06 -6.9456e-05
0.00167512 7.49346e-07 -1.13471e-05
7.49346e-07 0.000805926 4.39305e-08
-1.13471e-05 4.39305e-08 0.000811675
0.000786283 -8.34264e-06 1.6905e-06
-8.34264e-06 0.000216103 -2.44058e-06
1.6905e-06 -2.44058e-06 0.000216732
0.000370715 2.14598e-05 1.06864e-08
2.14598e-05 -2.80584e-05 -4.27174e-06
1.06864e-08 -4.27174e-06 -8.50901e-05
0.000454052 -4.43093e-05 1.61939e-06
-4.43093e-05 4.12413e-05 3.9258e-08
1.61939e-06 3.9258e-08 -3.33607e-05
0.000421641 2.24221e-06 2.98948e-06
2.24221e-06 -1.92355e-05 -5.20856e-06
2.98948e-06 -5.20856e-06 -3.97035e-05
0.000503832 -6.72875e-05 -2.1535e-06
-6.72875e-05 7.65573e-05 3.26137e-06
-2.1535e-06 3.26137e-06 -1.00272e-05
0.000829553 3.32254e-05 5.38638e-07
3.32254e-05 0.000254657 -8.43162e-07
5.38638e-07 -8.43162e-07 0.000227667
0.00244897 7.11484e-05 -8.6136e-07
7.11484e-05 0.00131785 -6.10182e-06
-8.6136e-07 -6.10182e-06 0.00132432
0.000380081 2.86014e-05 -1.68694e-06
2.86014e-05 -3.64902e-05 6.86367e-06
-1.68694e-06 6.86367e-06 -7.71746e-05
0.00300481 0.000116557 4.62391e-07
0.000116557 0.0016993 2.08729e-06
4.62391e-07 2.08729e-06 0.00169417
0.00338415 0.000154914 2.55866e-05
0.000154914 0.00196158 1.15348e-05
2.55866e-05 1.15348e-05 0.00194602
0.00263896 0.000201258 -2.52198e-06
0.000201258 -0.000152686 -2.83866e-06
-2.52198e-06 -2.83866e-06 4.20431e-05
0.00234723 1.35608e-07 -2.50788e-06
1.35608e-07 -0.000203059 1.45612e-07
-2.50788e-06 1.45612e-07 -3.18723e-05
0.00286848 0.00011481 9.83672e-06
0.00011481 -0.000118709 -2.32098e-06
9.83672e-06 -2.32098e-06 7.48795e-05
0.00284357 0.00146128 0.000150574
0.00146128 -0.00301325 5.1574e-05
0.000150574 5.1574e-05 -0.00107521
0.00275241 9.9045e-07 -4.21469e-06
9.9045e-07 -0.000230923 -1.07697e-06
-4.21469e-06 -1.07697e-06 3.12738e-05
0.00290785 0.00013261 -1.8099e-07
0.00013261 -5.77758e-05 -3.09724e-06
-1.8099e-07 -3.09724e-06 0.000287899
0.0029887 -7.8288e-05 -4.6049e-05
-7.8288e-05 8.08764e-05 -7.07176e-06
-4.6049e-05 -7.07176e-06 0.000337126
0.00329907 0.00117594 -0.000192094
0.00117594 -0.00318776 -5.19646e-06
-0.000192094 -5.19646e-06 -0.000687305
0.00358938 0.000427078 0.00014573
0.000427078 -0.00142079 7.42071e-05
0.00014573 7.42071e-05 -0.000282631
0.000480161 9.37439e-05 9.57736e-07
9.37439e-05 0.000101734 -4.60587e-06
9.57736e-07 -4.60587e-06 -2.30871e-05
0.000571203 -2.42103e-05 -6.72405e-07
-2.42103e-05 0.000172313 -4.05216e-07
-6.72405e-07 -4.05216e-07 3.50755e-05
0.000403546 -0.000124025 -4.06572e-06
-0.000124025 6.19486e-05 3.74445e-07
-4.06572e-06 3.74445e-07 -7.74895e-05
0.000432503 -8.87574e-05 -1.4892e-06
-8.87574e-05 0.000103776 -1.14371e-06
-1.4892e-06 -1.14371e-06 -4.91608e-05
0.0027083 -0.000241239 -2.16702e-06
-0.000241239 -0.000234433 4.57979e-06
-2.16702e-06 4.57979e-06 3.2119e-05
0.00269355 -0.0006427 1.5915e-06
-0.0006427 -0.000234147 -5.93937e-07
1.5915e-06 -5.93937e-07 -2.70262e-05
0.00276334 -0.000993076 6.08898e-07
-0.000993076 1.02399e-05 -1.90012e-06
6.08898e-07 -1.90012e-06 -9.57897e-06
0.00416648 -0.00139774 2.85285e-05
-0.00139774 0.00196554 -1.34297e-06
2.85285e-05 -1.34297e-06 0.00124085
0.00241018 -0.00152802 -2.15171e-05
-0.00152802 0.000468506 8.28649e-06
-2.15171e-05 8.28649e-06 -0.000273706
0.0027895 -0.00125661 3.88858e-06
-0.00125661 0.000334607 2.57792e-06
3.88858e-06 2.57792e-06 -1.56615e-05
-0.000174357 -0.00100617 4.7108e-06
-0.00100617 -0.000488668 -1.69448e-05
4.7108e-06 -1.69448e-05 -0.00127413
0.00269374 -0.000579639 2.79643e-05
-0.000579639 0.00139089 -9.21197e-06
2.79643e-05 -9.21197e-06 0.000733815
-0.000642047 -0.000245942 1.88453e-05
-0.000245942 -0.000653972 1.73263e-05
1.88453e-05 1.73263e-05 -0.00099595
0.0011829 -0.000121918 2.75548e-06
-0.000121918 0.000617786 1.93678e-06
2.75548e-06 1.93678e-06 0.000433576
9.83994e-05 -0.00012148 -1.33534e-05
-0.00012148 6.9265e-05 -1.37831e-05
-1.33534e-05 -1.37831e-05 -0.000342597
0.000532517 -4.13634e-05 -1.38886e-06
-4.13634e-05 0.000196365 -1.16042e-05
-1.38886e-06 -1.16042e-05 -6.79914e-05
0.000527893 -2.66465e-05 -8.00391e-07
-2.66465e-05 0.000157349 6.35596e-06
-8.00391e-07 6.35596e-06 8.71663e-06
0.000914625 -0.000100112 -1.13811e-05
-0.000100112 0.000379232 1.28971e-05
-1.13811e-05 1.28971e-05 0.000236777
0.00283211 -0.000420583 3.59353e-06
-0.000420583 -0.000271445 1.19631e-06
3.59353e-06 1.19631e-06 7.75936e-05
0.000223769 -6.10938e-05 -3.12016e-07
-6.10938e-05 -5.00252e-05 4.21904e-06
-3.12016e-07 4.21904e-06 -0.000194005
0.000596778 -0.000121511 4.92477e-06
-0.000121511 0.000159849 -5.28612e-06
4.92477e-06 -5.28612e-06 -3.95052e-05
-0.000452335 -8.67529e-05 1.4536e-05
-8.67529e-05 -0.000369644 -4.10313e-06
1.4536e-05 -4.10313e-06 -0.000516756
0.00255464 -0.000778281 1.00269e-06
-0.000778281 -0.000337592 -9.34103e-07
1.00269e-06 -9.34103e-07 -5.14704e-05
0.00286409 -0.00122972 1.91774e-06
-0.00122972 0.000208832 -1.70948e-06
1.91774e-06 -1.70948e-06 -3.91953e-05
0.0023863 -0.00149299 -1.53101e-05
-0.00149299 0.000759675 1.12694e-06
-1.53101e-05 1.12694e-06 3.26643e-05
0.0033853 -0.00157243 -6.03012e-06
-0.00157243 0.000896199 -1.51203e-06
-6.03012e-06 -1.51203e-06 0.000311321
0.00202554 -0.000286099 1.89829e-05
-0.000286099 0.00121285 -7.52355e-06
1.89829e-05 -7.52355e-06 0.000836904
-0.00114535 -9.84324e-05 9.00887e-06
-9.84324e-05 -0.000767439 1.72436e-06
9.00887e-06 1.72436e-06 -0.00114731
0.000995806 -0.00140547 1.51171e-07
-0.00140547 0.000538351 2.29767e-07
1.51171e-07 2.29767e-07 -0.000411416
0.0016688 -0.000535903 -1.50091e-05
-0.000535903 0.000939929 -1.32557e-06
-1.50091e-05 -1.32557e-06 0.000364736
0.00403601 -0.000642462 -7.41215e-05
-0.000642462 0.000494983 2.37016e-05
-7.41215e-05 2.37016e-05 0.000853654
0.0028269 -0.00105142 -4.5124e-05
-0.00105142 7.32927e-06 1.98675e-05
-4.5124e-05 1.98675e-05 0.000116156
0.00311945 -0.00139663 -2.45923e-06
-0.00139663 0.000727363 -1.62105e-05
-2.45923e-06 -1.62105e-05 0.000199732
0.00317549 -0.00168189 2.74342e-06
-0.00168189 0.000971275 3.41127e-05
2.74342e-06 3.41127e-05 0.000404292
0.000172934 -0.000237703 -1.41094e-06
-0.000237703 0.000144184 -2.09762e-05
-1.41094e-06 -2.09762e-05 -9.68298e-05
0.00105509 -0.000367206 -1.66092e-05
-0.000367206 0.000534902 1.07745e-05
-1.66092e-05 1.07745e-05 0.000172261
0.000764551 -0.000331561 -2.15382e-05
-0.000331561 0.000629581 7.11283e-05
-2.15382e-05 7.11283e-05 0.00021348
-0.000737714 -0.000930719 1.57914e-05
-0.000930719 0.000216889 -4.43997e-05
1.57914e-05 -4.43997e-05 -0.0008639
0.00654022 -0.000587645 4.37238e-05
-0.000587645 -0.00678752 2.50913e-05
4.37238e-05 2.50913e-05 -0.00728924
0.00342459 0.000489456 1.34885e-05
0.000489456 0.00221556 -4.94234e-06
1.34885e-05 -4.94234e-06 0.00185418
0.00012939 0.000440782 -4.10504e-06
0.000440782 -4.28213e-05 -1.69147e-06
-4.10504e-06 -1.69147e-06 -0.000470499
0.0017776 0.000530515 7.62264e-05
0.000530515 -0.000918189 2.92237e-05
7.62264e-05 2.92237e-05 -0.000338379
0.00233137 0.00103614 2.73828e-05
0.00103614 0.00011804 1.41438e-05
2.73828e-05 1.41438e-05 -5.48719e-05
0.00305379 0.00138645 1.20822e-05
0.00138645 0.000984475 1.6471e-05
1.20822e-05 1.6471e-05 0.00026317
0.00249495 0.00111311 1.59573e-05
0.00111311 0.000985194 1.35631e-05
1.59573e-05 1.35631e-05 0.00027966
0.00451628 0.00260463 0.000115611
0.00260463 -0.00188048 5.64431e-05
0.000115611 5.64431e-05 -0.000745594
0.000925515 0.000378216 2.5803e-06
0.000378216 0.000722435 -5.97919e-06
2.5803e-06 -5.97919e-06 0.000313996
0.00311524 0.00123705 -5.74438e-06
0.00123705 -6.20408e-05 4.37643e-06
-5.74438e-06 4.37643e-06 0.000157056
0.00104201 0.000736473 -9.56853e-06
0.000736473 0.000290874 8.25915e-06
-9.56853e-06 8.25915e-06 -0.000244146
0.00204006 0.00117041 1.51394e-06
0.00117041 0.000640677 -1.02307e-05
1.51394e-06 -1.02307e-05 -4.70035e-05
0.00335383 0.00148521 -1.38834e-05
0.00148521 0.000895215 -9.64633e-07
-1.38834e-05 -9.64633e-07 0.00037398
0.00485019 0.000105638 -0.000248903
0.000105638 -0.00809129 -0.000177393
-0.000248903 -0.000177393 -0.00763671
0.00675618 0.00367096 -0.000211644
0.00367096 -0.0022974 -0.000101709
-0.000211644 -0.000101709 0.000885393
0.00128323 0.0024851 -1.87842e-05
0.0024851 -0.00112814 -4.86412e-06
-1.87842e-05 -4.86412e-06 -0.00114808
0.0106647 -0.00451594 0.000972513
-0.00451594 0.00674399 0.000251177
0.000972513 0.000251177 0.00135829
0.0313254 -0.019423 -0.00052906
-0.019423 0.0207095 -0.000561636
-0.00052906 -0.000561636 0.00737094
-0.000381931 0.000302858 7.42257e-07
0.000302858 -0.000304497 -3.35376e-06
7.42257e-07 -3.35376e-06 -0.000638007
0.00206584 -0.00107688 0.00197694
-0.00107688 0.00443747 2.10247e-05
0.00197694 2.10247e-05 0.00154303
0.0110022 -0.00941327 0.000128575
-0.00941327 0.0131833 -0.00022185
0.000128575 -0.00022185 0.000823417
0.003583 0.00209097 -8.40633e-05
0.00209097 0.000493454 -3.14528e-05
-8.40633e-05 -3.14528e-05 6.26477e-05
0.00116544 0.000781002 -3.5628e-05
0.000781002 0.000273917 -6.95327e-06
-3.5628e-05 -6.95327e-06 -0.000236874
0.00195587 0.00124343 -5.63846e-05
0.00124343 0.000585383 -4.68189e-05
-5.63846e-05 -4.68189e-05 -5.09082e-05
-0.000177142 0.00233721 0.000166013
0.00233721 -0.00124362 0.000135004
0.000166013 0.000135004 -0.00143009
0.0159901 0.00546977 0.00025783
0.00546977 -0.00142212 -3.83545e-06
0.00025783 -3.83545e-06 0.00108052
0.00697144 0.00557291 -0.000144328
0.00557291 -0.00101568 -0.000153906
-0.000144328 -0.000153906 0.00108337
0.0258605 -0.00986726 0.00134365
-0.00986726 0.0120345 0.000206557
0.00134365 0.000206557 0.00244518
0.0207595 -0.0030212 -0.000613825
-0.0030212 0.0104491 0.000799697
-0.000613825 0.000799697 0.00503319
0.000630593 0.000129843 2.5662e-06
0.000129843 0.000460471 4.6411e-06
2.5662e-06 4.6411e-06 0.000282551
0.000283197 0.000201308 1.82705e-06
0.000201308 0.000260996 6.03973e-07
1.82705e-06 6.03973e-07 5.30392e-05
0.000650708 0.000305118 8.62809e-06
0.000305118 0.000549788 -8.05788e-06
8.62809e-06 -8.05788e-06 0.000205329
0.000590856 3.4311e-06 2.43395e-06
3.4311e-06 0.000188517 1.14218e-06
2.43395e-06 1.14218e-06 1.51652e-05
0.000443264 0.00011229 3.43728e-06
0.00011229 9.19954e-05 -4.29621e-07
3.43728e-06 -4.29621e-07 -8.62809e-05
-0.000188539 3.23103e-05 3.19524e-06
3.23103e-05 -0.000228931 -3.69686e-06
3.19524e-06 -3.69686e-06 -0.000446439
0.000831623 0.000139017 -3.88589e-06
0.000139017 0.000431886 -3.39649e-06
-3.88589e-06 -3.39649e-06 0.000237001
0.000394874 0.000114306 -7.90424e-06
0.000114306 0.000143729 5.32288e-06
-7.90424e-06 5.32288e-06 6.14221e-05
0.00029155 4.46123e-06 -2.13819e-07
4.46123e-06 -2.57947e-05 7.43876e-07
-2.13819e-07 7.43876e-07 -0.000186958
0.00091163 0.000123291 1.93155e-06
0.000123291 0.000517796 3.2346e-06
1.93155e-06 3.2346e-06 0.000279132
0.000327496 6.31533e-05 -6.87155e-07
6.31533e-05 0.000100702 -2.11491e-06
-6.87155e-07 -2.11491e-06 -0.000125041
0.000764789 7.5862e-05 1.47189e-06
7.5862e-05 0.000333171 1.86081e-07
1.47189e-06 1.86081e-07 0.000119482
0.00027307 9.02763e-05 -1.34111e-06
9.02763e-05 0.000184496 -3.87697e-06
-1.34111e-06 -3.87697e-06 -3.04652e-05
0.000506772 6.18799e-05 3.59752e-06
6.18799e-05 0.000260634 6.65371e-06
3.59752e-06 6.65371e-06 5.79119e-05
-0.000757783 -3.44284e-06 4.29506e-06
-3.44284e-06 -0.000231048 -6.12875e-06
4.29506e-06 -6.12875e-06 -0.000625302
-6.95553e-07 -7.12088e-05 -1.72484e-06
-7.12088e-05 -0.000125044 2.11098e-06
-1.72484e-06 2.11098e-06 -0.000341988
0.000634118 -6.438e-05 -5.96209e-06
-6.438e-05 0.000241627 -3.05123e-06
-5.96209e-06 -3.05123e-06 3.31142e-05
0.000735704 -5.74681e-05 -3.77853e-07
-5.74681e-05 0.000321343 -3.33596e-06
-3.77853e-07 -3.33596e-06 0.00012186
0.000344961 -8.12798e-05 -5.58692e-06
-8.12798e-05 6.95172e-05 2.18213e-06
-5.58692e-06 2.18213e-06 -9.64962e-05
0.000419713 -1.60557e-05 -9.44898e-06
-1.60557e-05 0.00015811 -2.7874e-06
-9.44898e-06 -2.7874e-06 -2.13586e-05
0.00114843 -0.000192144 1.05849e-05
-0.000192144 0.000512803 -5.20067e-06
1.05849e-05 -5.20067e-06 0.000356249
0.0004588 -5.71004e-05 -4.1099e-06
-5.71004e-05 0.000264764 1.95395e-06
-4.1099e-06 1.95395e-06 6.18017e-05
-0.000752396 -7.11494e-06 6.93533e-08
-7.11494e-06 -0.000437438 -5.86406e-06
6.93533e-08 -5.86406e-06 -0.000755225
-0.000494366 -2.89664e-05 -1.63614e-06
-2.89664e-05 -0.000428974 2.11749e-07
-1.63614e-06 2.11749e-07 -0.000614293
0.00093772 -0.000208106 -2.86721e-07
-0.000208106 0.000505793 1.44244e-06
-2.86721e-07 1.44244e-06 0.000284883
0.000145176 -6.4556e-05 -3.61928e-07
-6.4556e-05 -8.91413e-05 6.13856e-07
-3.61928e-07 6.13856e-07 -0.000255009
0.000595539 -0.000156933 2.17796e-06
-0.000156933 0.000214154 -2.36856e-06
2.17796e-06 -2.36856e-06 2.30767e-05
0.000677129 -0.000153315 6.31753e-07
-0.000153315 0.000251435 2.09326e-07
6.31753e-07 2.09326e-07 8.10468e-05
0.000608092 -7.60246e-05 -1.01204e-06
-7.60246e-05 0.000150299 4.38375e-06
-1.01204e-06 4.38375e-06 5.0583e-05
0.000233157 2.47408e-07 8.12057e-07
2.47408e-07 -3.16666e-05 -1.24493e-06
8.12057e-07 -1.24493e-06 -0.000210772
0.000445195 1.5645e-06 2.95903e-06
1.5645e-06 5.72509e-05 1.08083e-07
2.95903e-06 1.08083e-07 -4.72082e-05
0.00139586 -4.17199e-05 -1.71e-05
-4.17199e-05 0.000640212 7.81611e-06
-1.71e-05 7.81611e-06 0.000612868
0.000455927 9.55095e-05 -2.96047e-06
9.55095e-05 6.27838e-05 -3.23013e-06
-2.96047e-06 -3.23013e-06 -3.9439e-05
0.000807731 -2.93577e-05 -6.44254e-06
-2.93577e-05 0.000265055 7.57885e-07
-6.44254e-06 7.57885e-07 0.000232884
0.000803186 -2.66407e-06 -1.27806e-05
-2.66407e-06 0.000238987 5.02383e-06
-1.27806e-05 5.02383e-06 0.000241766
0.000289846 -4.8738e-05 6.28894e-06
-4.8738e-05 -7.68912e-05 -5.94238e-06
6.28894e-06 -5.94238e-06 -0.000108972
0.0026357 3.5293e-06 1.63399e-05
3.5293e-06 0.00143666 5.14576e-08
1.63399e-05 5.14576e-08 0.00144739
0.00084486 8.339e-06 -1.6814e-05
8.339e-06 0.00026589 -5.84953e-06
-1.6814e-05 -5.84953e-06 0.000267053
0.000586171 8.47788e-05 2.94915e-06
8.47788e-05 0.000186014 -3.96138e-06
2.94915e-06 -3.96138e-06 4.71992e-05
0.000365679 6.94982e-05 -1.97917e-06
6.94982e-05 -1.15646e-05 -5.1263e-06
-1.97917e-06 -5.1263e-06 -7.81507e-05
0.000435226 8.41918e-07 2.02528e-06
8.41918e-07 3.23411e-05 1.89899e-07
2.02528e-06 1.89899e-07 -3.67586e-05
0.000394848 6.68962e-06 2.35453e-06
6.68962e-06 -3.71874e-05 -4.66151e-06
2.35453e-06 -4.66151e-06 -5.4219e-05
0.0005457 -8.77487e-05 -2.82198e-06
-8.77487e-05 0.000114639 5.36133e-06
-2.82198e-06 5.36133e-06 3.08683e-05
0.000424903 6.44305e-06 8.65166e-07
6.44305e-06 -1.7848e-05 -9.06248e-07
8.65166e-07 -9.06248e-07 -3.82637e-05
0.00223715 4.70814e-05 -5.70464e-07
4.70814e-05 0.0011735 -5.66854e-06
-5.70464e-07 -5.66854e-06 0.00118482
0.00138179 4.89824e-05 1.45934e-06
4.89824e-05 0.000620227 3.93215e-06
1.45934e-06 3.93215e-06 0.000591823
0.00159752 5.67842e-05 -1.81813e-06
5.67842e-05 0.000762321 2.06849e-06
-1.81813e-06 2.06849e-06 0.00076297
0.000685729 5.91528e-05 1.3114e-05
5.91528e-05 0.00017635 1.43709e-05
1.3114e-05 1.43709e-05 0.000163936
0.000536877 0.00110626 0.000141743
0.00110626 -0.00421383 2.75176e-05
0.000141743 2.75176e-05 -0.00215437
0.00264718 -3.17274e-05 1.07157e-06
-3.17274e-05 -0.000294332 -2.80341e-06
1.07157e-06 -2.80341e-06 -3.16386e-05
0.00275279 0.000105095 5.73734e-05
0.000105095 -9.22917e-05 -1.39999e-05
5.73734e-05 -1.39999e-05 0.000168566
0.00520977 0.00119975 -0.000117066
0.00119975 -0.00305014 -4.76668e-05
-0.000117066 -4.76668e-05 0.000478331
0.00352729 0.000185782 0.000112718
0.000185782 -0.00156466 -9.7323e-06
0.000112718 -9.7323e-06 -0.00026361
0.00295735 -0.000100377 -3.83626e-06
-0.000100377 4.7793e-05 1.39884e-06
-3.83626e-06 1.39884e-06 0.00028749
0.00543338 -0.000843739 -8.42043e-05
-0.000843739 9.42796e-05 -4.7346e-05
-8.42043e-05 -4.7346e-05 0.00114304
0.00494579 -0.000908644 -6.00903e-05
-0.000908644 -0.00255794 -2.8567e-05
-6.00903e-05 -2.8567e-05 0.000334387
0.020051 -0.00137837 9.67298e-05
-0.00137837 0.000880376 -0.00012084
9.67298e-05 -0.00012084 0.00153508
0.0233814 0.0108352 0.00254491
0.0108352 0.0106058 -0.000203483
0.00254491 -0.000203483 0.00233962
0.0397872 0.0142686 0.000203425
0.0142686 0.0255701 0.000181573
0.000203425 0.000181573 0.0139795
3.24431e-05 -0.000114533 3.76921e-06
-0.000114533 -0.000154711 -2.44716e-06
3.76921e-06 -2.44716e-06 -0.00029257
0.000517845 -1.80189e-05 2.50352e-06
-1.80189e-05 0.000132981 5.53046e-08
2.50352e-06 5.53046e-08 5.00225e-06
0.000640037 -0.000117865 -3.15831e-06
-0.000117865 0.00022975 6.68746e-06
-3.15831e-06 6.68746e-06 8.24254e-05
0.00053557 -7.98658e-05 2.92909e-06
-7.98658e-05 0.00013593 -7.45094e-07
2.92909e-06 -7.45094e-07 6.06905e-06
0.000918667 0.000155965 -5.70888e-06
0.000155965 0.000491571 -8.31015e-06
-5.70888e-06 -8.31015e-06 0.000327055
0.000676885 0.0001645 -7.74242e-07
0.0001645 0.000266622 9.67005e-07
-7.74242e-07 9.67005e-07 0.000104656
0.000706878 2.62659e-05 4.1096e-06
2.62659e-05 0.000281678 -4.25409e-06
4.1096e-06 -4.25409e-06 0.000106458
0.000463984 -1.68071e-05 -1.1478e-06
-1.68071e-05 0.000106511 6.8157e-07
-1.1478e-06 6.8157e-07 -3.83856e-05
0.00271636 -0.000414774 1.72907e-05
-0.000414774 -0.000347237 -6.12782e-06
1.72907e-05 -6.12782e-06 1.74295e-05
0.00245907 -0.000817663 2.1957e-05
-0.000817663 -0.000427676 -9.08198e-06
2.1957e-05 -9.08198e-06 -0.000177767
0.00284549 -0.00122491 4.12545e-06
-0.00122491 0.000188138 3.02835e-06
4.12545e-06 3.02835e-06 -5.09822e-05
0.00249382 -0.00151258 1.05214e-05
-0.00151258 0.000744237 -5.97618e-06
1.05214e-05 -5.97618e-06 6.8664e-05
0.00324597 -0.00156414 -2.44595e-05
-0.00156414 0.000825428 7.76946e-06
-2.44595e-05 7.76946e-06 0.000214765
0.00018299 -0.00139219 1.26317e-05
-0.00139219 0.000152913 2.33173e-05
1.26317e-05 2.33173e-05 -0.000879135
0.00486027 -0.000975042 1.71899e-05
-0.000975042 0.00263396 1.39426e-05
1.71899e-05 1.39426e-05 0.00209428
0.00197606 -0.000477899 2.86479e-05
-0.000477899 0.00124258 -4.20072e-05
2.86479e-05 -4.20072e-05 0.000769804
0.000487378 -4.51379e-05 -6.20412e-06
-4.51379e-05 7.84641e-05 6.54773e-06
-6.20412e-06 6.54773e-06 -0.000105715
0.00106859 -0.000122358 1.38507e-05
-0.000122358 0.000580289 -3.57281e-05
1.38507e-05 -3.57281e-05 0.000220887
0.000669499 -0.000122963 2.55599e-07
-0.000122963 0.000249676 8.45706e-06
2.55599e-07 8.45706e-06 9.27746e-05
0.000389288 2.16265e-05 -6.35516e-06
2.16265e-05 0.000183025 5.56026e-06
-6.35516e-06 5.56026e-06 9.07001e-05
0.00279224 -0.000564359 2.09374e-06
-0.000564359 -0.00027543 5.10915e-06
2.09374e-06 5.10915e-06 0.000190646
0.000297079 -0.000110929 -8.16449e-06
-0.000110929 0.000174336 3.6453e-06
-8.16449e-06 3.6453e-06 -3.83284e-05
0.00104297 -0.000280878 -2.22053e-06
-0.000280878 0.000538368 2.71869e-06
-2.22053e-06 2.71869e-06 0.000225751
0.00210115 -0.000990532 9.17598e-06
-0.000990532 -0.000413466 -5.35778e-06
9.17598e-06 -5.35778e-06 -0.000251817
0.00278986 -0.0013311 1.66451e-06
-0.0013311 0.000537005 5.45642e-06
1.66451e-06 5.45642e-06 6.60243e-05
0.00176696 -0.00146659 2.62521e-07
-0.00146659 0.000150669 -1.71494e-05
2.62521e-07 -1.71494e-05 -0.000352742
0.000910503 -0.000419793 1.31249e-06
-0.000419793 0.000634674 -2.54711e-05
1.31249e-06 -2.54711e-05 0.000112991
0.000849782 -0.000952363 1.3906e-05
-0.000952363 0.00104272 -1.30654e-07
1.3906e-05 -1.30654e-07 6.71493e-05
0.00647245 -0.00140143 -6.18598e-05
-0.00140143 0.00146822 4.21123e-05
-6.18598e-05 4.21123e-05 0.00191336
0.00291143 -0.00139057 -4.65003e-05
-0.00139057 0.000524644 2.0574e-05
-4.65003e-05 2.0574e-05 0.000150621
0.00334778 -0.00171088 -1.86488e-06
-0.00171088 0.000949445 1.7953e-05
-1.86488e-06 1.7953e-05 0.000380717
0.000949092 -0.00103395 -2.83098e-05
-0.00103395 0.000102041 2.48348e-05
-2.83098e-05 2.48348e-05 -0.000139851
0.00109054 -0.000265637 4.85963e-06
-0.000265637 0.000761009 -2.68567e-06
4.85963e-06 -2.68567e-06 0.00041734
-0.000949329 -0.00012084 2.19675e-06
-0.00012084 -0.000445632 1.51416e-05
2.19675e-06 1.51416e-05 -0.00084006
-0.000551197 -0.000348586 -3.33217e-06
-0.000348586 0.000202586 -1.65652e-05
-3.33217e-06 -1.65652e-05 -0.00057199
-0.00783657 -0.000777375 0.00131332
-0.000777375 -0.00125479 -3.88177e-05
0.00131332 -3.88177e-05 -0.00560375
0.0136439 -0.000557596 3.63105e-05
-0.000557596 -0.00156581 5.31436e-05
3.63105e-05 5.31436e-05 0.000266113
0.00186958 0.000420924 2.93205e-06
0.000420924 0.00119566 -9.07259e-06
2.93205e-06 -9.07259e-06 0.000856564
0.00238589 0.000933185 -1.55797e-06
0.000933185 0.00113968 6.87324e-06
-1.55797e-06 6.87324e-06 0.000539711
0.00160718 0.000997273 0.000124256
0.000997273 -0.000887283 6.51249e-05
0.000124256 6.51249e-05 -0.000556307
0.00399238 0.00151258 3.61703e-05
0.00151258 0.00127899 2.03489e-05
3.61703e-05 2.03489e-05 0.000723597
0.00316311 0.00135864 2.49353e-05
0.00135864 0.00126325 6.89349e-06
2.49353e-05 6.89349e-06 0.000529599
0.0198471 0.00100131 9.76495e-05
0.00100131 0.000895248 -0.00021669
9.76495e-05 -0.00021669 0.00208592
0.00875355 0.00444077 -0.00033376
0.00444077 -0.0031592 -6.87232e-06
-0.00033376 -6.87232e-06 0.000717734
0.00249689 0.00256369 -1.67471e-05
0.00256369 -0.000355778 -3.91307e-05
-1.67471e-05 -3.91307e-05 -0.00053094
0.0181126 -0.00845745 -0.00130898
-0.00845745 0.00930092 0.000265594
-0.00130898 0.000265594 0.00172548
0.0262041 -0.0221708 -0.00305604
-0.0221708 0.0199146 -0.00176695
-0.00305604 -0.00176695 0.00604464
0.000701874 0.000465427 7.63e-06
0.000465427 0.000416468 -5.94112e-06
7.63e-06 -5.94112e-06 2.92263e-05
0.00256788 -0.00600351 0.00117137
-0.00600351 0.000147007 6.05081e-05
0.00117137 6.05081e-05 -0.00615796
0.00410111 -0.00727939 -0.00114157
-0.00727939 0.0139446 -4.89397e-05
-0.00114157 -4.89397e-05 0.00300502
0.00406761 0.00199433 -2.20798e-05
0.00199433 0.000685667 5.59906e-06
-2.20798e-05 5.59906e-06 0.000332228
0.0011156 0.000825904 -1.3848e-05
0.000825904 0.000312503 9.05409e-06
-1.3848e-05 9.05409e-06 -0.000242591
0.0026103 0.00141602 -1.5776e-06
0.00141602 0.00091258 -3.26602e-07
-1.5776e-06 -3.26602e-07 0.000220988
0.0021985 0.00244826 9.39562e-05
0.00244826 0.000327396 6.37688e-05
9.39562e-05 6.37688e-05 7.619e-05
0.0143757 0.00594633 -0.000266069
0.00594633 -0.00326824 -0.000135591
-0.000266069 -0.000135591 -0.00183494
0.00303695 0.00515638 -4.21493e-05
0.00515638 -0.00171368 -7.27491e-05
-4.21493e-05 -7.27491e-05 0.000356462
0.0293714 -0.00874859 0.000986663
-0.00874859 0.0139321 -0.000196445
0.000986663 -0.000196445 0.00438653
0.0290402 -0.00665688 -0.000274954
-0.00665688 0.0109799 0.00100504
-0.000274954 0.00100504 0.00281436
0.000899314 0.000539525 -9.6561e-06
0.000539525 0.000454853 -1.61576e-05
-9.6561e-06 -1.61576e-05 9.09212e-05
-0.00391753 0.000375341 0.000156733
0.000375341 0.00731482 -0.000193086
0.000156733 -0.000193086 -0.00262904
0.00909401 0.00308795 -0.000916068
0.00308795 0.00699511 -0.000641299
-0.000916068 -0.000641299 0.00128633
0.00289905 0.00156801 -5.71776e-05
0.00156801 0.000567615 -3.36656e-05
-5.71776e-05 -3.36656e-05 0.000345754
0.00238808 0.00138604 -9.02758e-05
0.00138604 0.00103279 -3.96364e-05
-9.02758e-05 -3.96364e-05 0.000360987
0.00204281 0.00191048 -0.000121617
0.00191048 0.00132399 -4.99102e-05
-0.000121617 -4.99102e-05 0.000384128
-0.00239408 0.00391443 8.5913e-05
0.00391443 -0.000713669 -3.70544e-05
8.5913e-05 -3.70544e-05 -0.000803806
0.00589964 0.00876689 0.00111232
0.00876689 -0.00332413 0.000133815
0.00111232 0.000133815 -0.00308246
0.0305851 -0.0109366 -0.000782455
-0.0109366 0.0179823 0.00114588
-0.000782455 0.00114588 0.00699831
0.0098766 0.001034 -0.000167153
0.001034 -0.00148936 -0.00026895
-0.000167153 -0.00026895 -0.00259186
0.00102705 0.000292878 -9.83785e-06
0.000292878 0.000739336 4.0102e-06
-9.83785e-06 4.0102e-06 0.000504709
0.000856658 0.000340759 4.3775e-06
0.000340759 0.000639465 3.72671e-07
4.3775e-06 3.72671e-07 0.000317359
-0.000506231 0.000240431 3.85296e-06
0.000240431 -0.00012899 -1.43252e-06
3.85296e-06 -1.43252e-06 -0.00045649
0.000413434 8.25672e-05 3.61303e-06
8.25672e-05 5.89721e-05 1.91217e-06
3.61303e-06 1.91217e-06 -0.000108067
0.00122987 0.000134972 1.10782e-06
0.000134972 0.0006595 1.77231e-06
1.10782e-06 1.77231e-06 0.000431164
0.000316624 2.13502e-05 3.26122e-07
2.13502e-05 9.70215e-05 1.88011e-07
3.26122e-07 1.88011e-07 -0.000136946
-3.93661e-05 6.77265e-05 6.71625e-06
6.77265e-05 -5.7278e-05 -6.25699e-06
6.71625e-06 -6.25699e-06 -0.000302961
0.000230712 8.34195e-05 -6.23028e-06
8.34195e-05 0.000152329 2.91979e-06
-6.23028e-06 2.91979e-06 -5.41671e-05
0.000837228 4.74951e-05 -4.39348e-07
4.74951e-05 0.000384823 -1.04849e-06
-4.39348e-07 -1.04849e-06 0.000167493
0.000444803 4.52666e-05 6.57762e-07
4.52666e-05 0.000225529 -2.33223e-06
6.57762e-07 -2.33223e-06 1.44595e-05
0.00081227 -2.5773e-05 -1.9279e-07
-2.5773e-05 0.000413342 2.44314e-06
-1.9279e-07 2.44314e-06 0.00017922
-0.000534465 6.20515e-05 -1.56584e-06
6.20515e-05 -7.56517e-05 -6.39604e-07
-1.56584e-06 -6.39604e-07 -0.000464264
-7.08814e-05 2.07567e-05 1.79882e-06
2.07567e-05 0.000376861 2.20638e-07
1.79882e-06 2.20638e-07 -0.000151298
0.000433799 -4.64478e-05 1.03984e-06
-4.64478e-05 0.000350211 -1.55172e-06
1.03984e-06 -1.55172e-06 4.26582e-05
0.00190322 -8.15263e-05 -7.06378e-06
-8.15263e-05 0.00118553 2.13928e-06
-7.06378e-06 2.13928e-06 0.000905331
0.00111051 -0.000148249 -4.61016e-07
-0.000148249 0.000571022 -2.74644e-06
-4.61016e-07 -2.74644e-06 0.000356444
0.000633739 -0.000115765 -3.87539e-06
-0.000115765 0.000248784 6.24915e-06
-3.87539e-06 6.24915e-06 9.61334e-05
0.000650638 -0.000164322 4.82084e-07
-0.000164322 0.000300719 3.29785e-07
4.82084e-07 3.29785e-07 0.000115296
0.000667353 -0.0001857 4.82688e-07
-0.0001857 0.000193126 -2.00079e-06
4.82688e-07 -2.00079e-06 3.52324e-05
0.000283881 -7.94348e-05 -6.2238e-06
-7.94348e-05 0.00016174 7.3307e-06
-6.2238e-06 7.3307e-06 -1.60915e-05
-0.000799808 -4.12005e-05 1.44028e-06
-4.12005e-05 -0.000551557 -1.06702e-05
1.44028e-06 -1.06702e-05 -0.00080228
-0.000270557 -0.000108564 -1.01569e-05
-0.000108564 -8.18809e-05 4.77423e-06
-1.01569e-05 4.77423e-06 -0.000361439
0.000205467 -0.000130621 5.20307e-06
-0.000130621 9.09984e-05 -6.90368e-06
5.20307e-06 -6.90368e-06 -0.000108629
0.00116498 -0.000163789 2.31195e-05
-0.000163789 0.000492264 -1.28682e-05
2.31195e-05 -1.28682e-05 0.000328885
0.00437945 -0.000754905 -3.02286e-06
-0.000754905 0.00239951 3.23407e-06
-3.02286e-06 3.23407e-06 0.00203093
-0.00134639 -0.000220661 -1.43125e-07
-0.000220661 -0.000913862 4.86715e-07
-1.43125e-07 4.86715e-07 -0.00119099
0.000311763 -3.08444e-05 2.66184e-06
-3.08444e-05 0.000208994 4.88551e-07
2.66184e-06 4.88551e-07 -9.07226e-05
-0.00182927 5.12254e-05 9.75582e-06
5.12254e-05 -0.00120365 -3.93533e-06
9.75582e-06 -3.93533e-06 -0.00150715
0.000731622 -0.000244056 -4.26387e-06
-0.000244056 0.000372582 -1.67645e-06
-4.26387e-06 -1.67645e-06 0.000153938
0.000889556 -5.95929e-05 4.92215e-06
-5.95929e-05 0.000396914 8.10595e-07
4.92215e-06 8.10595e-07 0.000208315
0.00070323 -0.000206347 4.88874e-06
-0.000206347 0.000322155 -1.92374e-06
4.88874e-06 -1.92374e-06 0.000122764
0.000566862 -8.484e-05 -7.70296e-07
-8.484e-05 0.000194298 3.42518e-07
-7.70296e-07 3.42518e-07 2.16501e-05
0.000210118 4.74225e-05 3.19516e-06
4.74225e-05 -9.61513e-05 3.45991e-06
3.19516e-06 3.45991e-06 -0.00020161
0.000801345 -0.000162595 4.25097e-07
-0.000162595 0.000324975 7.5138e-07
4.25097e-07 7.5138e-07 0.000155205
0.000420988 -5.63974e-05 -6.95064e-07
-5.63974e-05 2.22204e-05 1.96589e-07
-6.95064e-07 1.96589e-07 -7.18445e-05
0.00136532 3.65683e-05 -9.6946e-06
3.65683e-05 0.0006136 8.44252e-06
-9.6946e-06 8.44252e-06 0.000586035
0.000444874 -8.65796e-05 1.09174e-06
-8.65796e-05 4.96789e-05 -2.98976e-06
1.09174e-06 -2.98976e-06 -4.98108e-05
0.000836759 -2.8743e-05 -1.27154e-05
-2.8743e-05 0.00027603 1.02631e-06
-1.27154e-05 1.02631e-06 0.000245215
0.000701752 8.97111e-06 2.1151e-06
8.97111e-06 0.000162601 2.19253e-06
2.1151e-06 2.19253e-06 0.000164237
0.000394054 -4.79933e-05 4.9083e-06
-4.79933e-05 -1.2092e-05 -5.45399e-06
4.9083e-06 -5.45399e-06 -4.34406e-05
0.00258111 3.76733e-06 6.66674e-06
3.76733e-06 0.00139905 -1.91544e-08
6.66674e-06 -1.91544e-08 0.00141076
0.00261191 -6.25103e-06 1.3818e-05
-6.25103e-06 0.00142057 -5.3503e-06
1.3818e-05 -5.3503e-06 0.00143145
0.00102349 7.68102e-05 -7.74132e-07
7.68102e-05 0.000462813 -5.03771e-06
-7.74132e-07 -5.03771e-06 0.000319513
0.000472737 8.04999e-05 -1.06062e-06
8.04999e-05 6.44718e-05 -6.35902e-06
-1.06062e-06 -6.35902e-06 -9.95134e-06
0.000507024 -2.39957e-05 -8.58769e-07
-2.39957e-05 0.000128981 9.49597e-07
-8.58769e-07 9.49597e-07 -6.93955e-06
0.000373065 1.44104e-05 1.82876e-06
1.44104e-05 -5.16563e-05 -4.89021e-06
1.82876e-06 -4.89021e-06 -6.76894e-05
0.000406008 -1.24535e-05 2.22361e-06
-1.24535e-05 1.13503e-05 -2.54319e-07
2.22361e-06 -2.54319e-07 -5.41018e-05
0.000453575 -7.86888e-05 -4.36941e-06
-7.86888e-05 4.81795e-05 5.04813e-06
-4.36941e-06 5.04813e-06 -2.44198e-05
0.000408957 4.82719e-07 -6.25262e-07
4.82719e-07 -2.86084e-05 4.1307e-08
-6.25262e-07 4.1307e-08 -4.5701e-05
0.00214217 3.01777e-05 -5.95228e-06
3.01777e-05 0.00110844 -5.60785e-06
-5.95228e-06 -5.60785e-06 0.00112228
0.00124897 2.08169e-05 -1.57554e-06
2.08169e-05 0.000522864 3.81252e-06
-1.57554e-06 3.81252e-06 0.000505512
0.00145956 3.6017e-05 -4.895e-06
3.6017e-05 0.000661908 3.50102e-08
-4.895e-06 3.50102e-08 0.000668905
0.000748638 4.25523e-05 6.02589e-07
4.25523e-05 0.000204553 1.08005e-05
6.02589e-07 1.08005e-05 0.000202101
-0.00366745 0.00409747 0.00136675
0.00409747 0.000126635 -0.000106674
0.00136675 -0.000106674 -0.00673372
0.00507801 0.00437019 0.00280429
0.00437019 0.0125871 -0.000233433
0.00280429 -0.000233433 0.00348787
0.00195406 0.00136143 -0.000105046
0.00136143 -0.00440736 -7.51002e-05
-0.000105046 -7.51002e-05 -0.000487072
0.00309566 -2.94474e-05 6.72463e-05
-2.94474e-05 -0.00193801 -1.84376e-05
6.72463e-05 -1.84376e-05 -0.000474811
0.00320765 -0.000114379 4.71686e-05
-0.000114379 0.000185582 5.97681e-06
4.71686e-05 5.97681e-06 0.000426015
0.00135562 -0.000137842 -0.000112773
-0.000137842 -0.00253213 -3.87704e-05
-0.000112773 -3.87704e-05 0.000130014
0.00472467 -0.000822707 1.38139e-05
-0.000822707 -0.000176099 1.58456e-06
1.38139e-05 1.58456e-06 0.000701065
0.0130275 -0.000981912 0.000388075
-0.000981912 -0.00371814 -0.00015152
0.000388075 -0.00015152 -0.00311144
0.00885807 0.00718151 -3.2979e-05
0.00718151 0.00346907 -0.000105118
-3.2979e-05 -0.000105118 -0.00278482
0.0348627 0.0179442 -0.00085752
0.0179442 0.0231922 0.000311046
-0.00085752 0.000311046 0.0106522
0.00334102 -0.00194707 -5.04331e-05
-0.00194707 -0.00376206 -3.66333e-05
-5.04331e-05 -3.66333e-05 -0.000512682
0.0154826 -0.00536915 0.000452288
-0.00536915 -0.00195653 -8.31895e-05
0.000452288 -8.31895e-05 -0.00136894
0.0272721 0.00954195 0.000493717
0.00954195 0.0120919 -0.000473911
0.000493717 -0.000473911 0.00223203
0.033212 0.00657286 -0.000459414
0.00657286 0.0143602 0.000440117
-0.000459414 0.000440117 0.00722359
0.00146612 0.000212785 -6.8026e-06
0.000212785 0.000874552 -1.91754e-06
-6.8026e-06 -1.91754e-06 0.000635978
0.00037346 2.77977e-05 1.342e-06
2.77977e-05 4.0627e-05 -5.06227e-07
1.342e-06 -5.06227e-07 -8.85238e-05
0.000521889 -0.000117833 2.40028e-06
-0.000117833 0.000147609 4.64095e-06
2.40028e-06 4.64095e-06 1.32388e-05
0.000559899 -2.33316e-05 3.31373e-06
-2.33316e-05 0.00015641 2.78996e-06
3.31373e-06 2.78996e-06 2.66251e-05
0.000463764 6.42703e-05 4.65126e-06
6.42703e-05 0.000170228 -5.88106e-07
4.65126e-06 -5.88106e-07 4.65634e-05
0.000678758 0.000112333 7.98668e-07
0.000112333 0.00027775 1.68038e-06
7.98668e-07 1.68038e-06 6.96345e-05
0.000579092 8.18581e-05 -1.53205e-06
8.18581e-05 0.000222231 1.72653e-06
-1.53205e-06 1.72653e-06 5.92792e-05
0.000427823 0.000126026 5.61793e-06
0.000126026 5.55466e-05 2.83633e-06
5.61793e-06 2.83633e-06 -0.000126421
0.000551515 2.46549e-05 1.25599e-06
2.46549e-05 0.000180849 -1.20526e-06
1.25599e-06 -1.20526e-06 3.75596e-06
0.000254562 -3.21598e-05 6.39552e-07
-3.21598e-05 -4.42863e-05 2.88094e-06
6.39552e-07 2.88094e-06 -0.00017203
0.0012715 -0.000469402 5.58647e-05
-0.000469402 -0.00128876 -2.30937e-05
5.58647e-05 -2.30937e-05 -0.000638584
0.00158269 -0.000929254 3.16553e-05
-0.000929254 -0.000677977 -1.50266e-05
3.16553e-05 -1.50266e-05 -0.000484321
0.00162706 -0.00115913 1.11356e-05
-0.00115913 -0.000118205 4.92299e-06
1.11356e-05 4.92299e-06 -0.000497694
-0.000173129 -0.00116303 -7.46539e-06
-0.00116303 -0.000921612 -1.27732e-05
-7.46539e-06 -1.27732e-05 -0.00136144
0.00261647 -0.000953369 -1.00561e-05
-0.000953369 0.00193881 5.46682e-05
-1.00561e-05 5.46682e-05 0.00108944
-0.00108027 -0.00069451 -6.99058e-06
-0.00069451 -0.000491737 -1.88505e-05
-6.99058e-06 -1.88505e-05 -0.00122293
0.00152884 -0.000344106 1.40858e-05
-0.000344106 0.000883754 -1.13078e-05
1.40858e-05 -1.13078e-05 0.000613256
-0.000101708 -3.72534e-05 1.12288e-06
-3.72534e-05 -0.000117156 7.74074e-06
1.12288e-06 7.74074e-06 -0.000300928
0.00316772 -0.00107856 1.22885e-05
-0.00107856 -0.00050861 -1.14283e-05
1.22885e-05 -1.14283e-05 0.000187408
0.000665821 -0.000146692 -2.64877e-08
-0.000146692 0.000480506 2.33125e-06
-2.64877e-08 2.33125e-06 0.000139855
-0.000325503 -0.000261809 -1.44113e-05
-0.000261809 -2.60868e-05 1.21775e-06
-1.44113e-05 1.21775e-06 -0.000437316
0.0020397 -0.00122979 2.05228e-05
-0.00122979 2.69108e-05 -2.04759e-06
2.05228e-05 -2.04759e-06 -0.000204272
0.00232157 -0.00152367 -1.1827e-06
-0.00152367 0.000377728 -5.59426e-06
-1.1827e-06 -5.59426e-06 -0.000106107
0.00020255 -0.000990443 1.90464e-05
-0.000990443 -0.000290012 -1.61022e-05
1.90464e-05 -1.61022e-05 -0.000585675
0.00114281 -0.00057722 3.03575e-05
-0.00057722 0.00116138 -2.89183e-05
3.03575e-05 -2.89183e-05 0.000447037
0.00198626 -0.00176218 -4.14369e-05
-0.00176218 -0.000798605 4.94759e-05
-4.14369e-05 4.94759e-05 -0.00061608
0.00230421 -0.00136252 -5.36672e-05
-0.00136252 0.000528995 3.06634e-05
-5.36672e-05 3.06634e-05 0.000219458
-0.000469563 -0.000588379 -4.86352e-05
-0.000588379 -5.7242e-05 2.93754e-05
-4.86352e-05 2.93754e-05 -0.000503557
-0.000148409 1.27526e-05 -5.06195e-06
1.27526e-05 -9.60885e-05 2.08502e-06
-5.06195e-06 2.08502e-06 -0.000388186
-0.000800743 -1.41339e-05 -5.84412e-06
-1.41339e-05 -0.000297659 1.97574e-05
-5.84412e-06 1.97574e-05 -0.000715279
0.000257518 -5.71846e-05 6.7703e-06
-5.71846e-05 0.0003718 8.77288e-06
6.7703e-06 8.77288e-06 -2.11954e-05
-0.0026389 0.00154326 -0.000757789
0.00154326 0.00869874 7.38948e-06
-0.000757789 7.38948e-06 0.00113915
6.41809e-05 -0.00255337 -2.0629e-05
-0.00255337 0.00507326 -7.07762e-05
-2.0629e-05 -7.07762e-05 0.001753
0.00670207 0.000447667 -0.00013686
0.000447667 -0.00750668 -3.91394e-05
-0.00013686 -3.91394e-05 -0.00754146
0.00146297 0.00056349 1.63994e-05
0.00056349 0.000942109 -9.18146e-06
1.63994e-05 -9.18146e-06 0.000522616
0.00189118 0.00100003 2.1841e-05
0.00100003 0.000819513 3.14884e-05
2.1841e-05 3.14884e-05 0.000186186
0.004103 0.00178195 0.000102235
0.00178195 0.000655484 5.05672e-05
0.000102235 5.05672e-05 0.000412483
0.00271258 0.00149647 3.79226e-05
0.00149647 0.000980456 3.50739e-05
3.79226e-05 3.50739e-05 0.000254396
0.017213 -0.00706742 0.000369196
-0.00706742 0.0101676 0.000121625
0.000369196 0.000121625 0.00301314
0.00297774 0.00437755 -0.000773172
0.00437755 -0.00964194 -0.000158075
-0.000773172 -0.000158075 -0.00857779
0.00653999 0.00555086 -1.3323e-07
0.00555086 -3.94184e-06 2.11957e-05
-1.3323e-07 2.11957e-05 0.00156982
0.00408241 0.0024191 0.000112468
0.0024191 0.00160408 2.33473e-05
0.000112468 2.33473e-05 0.00129878
0.0201366 -0.00557195 -0.000781911
-0.00557195 0.00891789 -0.000194748
-0.000781911 -0.000194748 0.000533261
0.00502207 -0.00865907 -0.00177125
-0.00865907 0.0152174 -0.000175241
-0.00177125 -0.000175241 0.00462785
0.0410998 -0.0105441 0.00162995
-0.0105441 0.0151774 0.000515161
0.00162995 0.000515161 0.00549388
0.000561839 0.000522886 1.35473e-05
0.000522886 0.000318582 -5.25834e-06
1.35473e-05 -5.25834e-06 -7.3236e-05
-0.000158432 -0.00097367 -0.000123414
-0.00097367 0.00988035 -5.81983e-06
-0.000123414 -5.81983e-06 0.000613874
0.0092511 0.00363735 -0.000319037
0.00363735 0.00498456 -0.000212988
-0.000319037 -0.000212988 -0.00169373
0.00252463 0.00166047 1.29853e-05
0.00166047 0.000514551 4.74108e-06
1.29853e-05 4.74108e-06 0.00016675
0.00120496 0.00115817 9.03602e-06
0.00115817 0.000495591 7.92409e-06
9.03602e-06 7.92409e-06 -0.000149637
0.000890337 0.00189253 -0.000150353
0.00189253 0.00065246 -0.000103854
-0.000150353 -0.000103854 -8.31477e-05
0.00359651 0.00594538 9.70119e-05
0.00594538 0.000662506 5.66643e-05
9.70119e-05 5.66643e-05 0.000769823
0.0123046 0.00937002 -3.81427e-05
0.00937002 -0.00041321 -1.30021e-05
-3.81427e-05 -1.30021e-05 -0.00168417
0.0140906 -0.00627945 0.000116203
-0.00627945 0.0115163 -0.000177248
0.000116203 -0.000177248 0.000855714
0.0198432 -0.00225636 -0.000102037
-0.00225636 0.00366952 -4.79197e-05
-0.000102037 -4.79197e-05 0.00269748
0.00149748 0.00102461 -1.8831e-05
0.00102461 0.0008686 -1.50421e-05
-1.8831e-05 -1.50421e-05 0.00030855
0.00158067 0.000837118 -0.000669116
0.000837118 0.00407079 -0.0001854
-0.000669116 -0.0001854 -0.00323191
0.00336517 0.00171207 -0.000159516
0.00171207 0.00101941 -0.000222199
-0.000159516 -0.000222199 -0.0021902
-0.00104668 0.000672981 -5.79049e-06
0.000672981 -0.000120712 -3.241e-05
-5.79049e-06 -3.241e-05 -0.00062053
-0.00258172 0.00161246 -0.000139138
0.00161246 0.000653495 2.88486e-05
-0.000139138 2.88486e-05 -0.000249072
0.00839926 0.00852472 0.000384466
0.00852472 0.00402481 3.48136e-05
0.000384466 3.48136e-05 -0.00144321
0.0103781 -0.00676938 -6.07904e-06
-0.00676938 0.00365611 0.000230297
-6.07904e-06 0.000230297 -0.00495677
0.0178937 -0.000860328 0.000100516
-0.000860328 -9.63493e-05 -0.000349993
0.000100516 -0.000349993 0.000561485
0.00105759 0.000358365 4.22082e-07
0.000358365 0.000737007 2.34427e-05
4.22082e-07 2.34427e-05 0.000438211
0.000932446 0.000390014 -4.21977e-06
0.000390014 0.000754896 -4.77391e-06
-4.21977e-06 -4.77391e-06 0.000392049
-0.000217525 0.000280036 7.956e-06
0.000280036 0.000236571 -4.19811e-06
7.956e-06 -4.19811e-06 -0.000262313
0.00045414 9.83603e-05 1.18389e-06
9.83603e-05 0.000104507 7.66644e-07
1.18389e-06 7.66644e-07 -8.90771e-05
0.00137678 -2.06447e-05 -1.99341e-06
-2.06447e-05 0.000797896 3.28264e-06
-1.99341e-06 3.28264e-06 0.000545277
0.000379915 7.8201e-05 2.58924e-06
7.8201e-05 0.000187259 -3.33767e-06
2.58924e-06 -3.33767e-06 -3.26273e-05
-0.000187524 0.000124915 7.78439e-07
0.000124915 0.000144706 4.98384e-06
7.78439e-07 4.98384e-06 -0.000239613
0.000729412 -6.2714e-05 2.90084e-06
-6.2714e-05 0.000356504 7.4449e-07
2.90084e-06 7.4449e-07 0.000132175
0.000275246 2.55993e-05 -7.26917e-08
2.55993e-05 0.000240455 -2.75115e-06
-7.26917e-08 -2.75115e-06 -5.7308e-05
3.47163e-05 3.69202e-05 -1.0586e-06
3.69202e-05 0.00048247 1.1942e-06
-1.0586e-06 1.1942e-06 -7.7836e-05
-0.000321283 8.04526e-05 -2.15715e-07
8.04526e-05 0.000404398 4.60928e-06
-2.15715e-07 4.60928e-06 -0.000213262
0.000441906 -5.18216e-05 1.98283e-06
-5.18216e-05 0.000697779 -8.02918e-06
1.98283e-06 -8.02918e-06 0.000179633
0.00111886 -2.24919e-05 -1.02901e-05
-2.24919e-05 0.000792711 5.92149e-06
-1.02901e-05 5.92149e-06 0.000491087
0.00107906 -0.000204987 5.37353e-06
-0.000204987 0.000591455 2.9768e-06
5.37353e-06 2.9768e-06 0.000394579
0.000299405 -0.000205972 -1.90287e-06
-0.000205972 -5.80011e-05 1.79347e-06
-1.90287e-06 1.79347e-06 -0.000214477
-0.000685237 -2.34336e-05 1.495e-05
-2.34336e-05 -0.000453805 6.06152e-06
1.495e-05 6.06152e-06 -0.000591448
-0.000143828 -3.1302e-05 2.52367e-06
-3.1302e-05 -7.53109e-06 2.455e-06
2.52367e-06 2.455e-06 -0.00027963
0.000658557 -9.2835e-05 -1.51608e-10
-9.2835e-05 0.000297043 2.47911e-06
-1.51608e-10 2.47911e-06 7.83307e-05
-0.000734632 -9.03258e-05 -4.54184e-06
-9.03258e-05 -0.000457069 -1.08374e-06
-4.54184e-06 -1.08374e-06 -0.000662368
-0.000183986 -0.000126245 -7.16763e-06
-0.000126245 -0.00020393 -2.64474e-06
-7.16763e-06 -2.64474e-06 -0.000430571
0.000346892 -6.91628e-05 3.39966e-06
-6.91628e-05 0.000440982 -3.11228e-06
3.39966e-06 -3.11228e-06 0.000127054
0.00230644 -0.000558552 -3.5484e-06
-0.000558552 0.00112644 8.69817e-06
-3.5484e-06 8.69817e-06 0.000893212
0.000847105 -0.000174143 -1.99007e-05
-0.000174143 0.000301264 8.01786e-07
-1.99007e-05 8.01786e-07 0.000138676
0.00117229 -0.000452002 1.0331e-05
-0.000452002 0.000396265 7.15561e-06
1.0331e-05 7.15561e-06 0.000119961
0.00238776 -0.00090279 -1.10478e-05
-0.00090279 0.00109079 1.64787e-05
-1.10478e-05 1.64787e-05 0.000555615
0.0025428 -0.000349348 1.588e-05
-0.000349348 0.00125037 -6.64837e-06
1.588e-05 -6.64837e-06 0.00100646
0.00243191 -0.000561497 5.52291e-07
-0.000561497 0.00120579 -7.99577e-06
5.52291e-07 -7.99577e-06 0.000896677
0.000392747 -0.000226908 -2.46163e-07
-0.000226908 0.00015894 -6.76986e-07
-2.46163e-07 -6.76986e-07 -0.000122474
-0.00192276 -0.00014806 3.48054e-06
-0.00014806 -0.00123154 -5.90989e-06
3.48054e-06 -5.90989e-06 -0.00161297
0.00151502 -7.69998e-05 2.4742e-06
-7.69998e-05 0.00094263 2.09355e-06
2.4742e-06 2.09355e-06 0.000661357
0.000657967 -0.000248216 4.64284e-06
-0.000248216 0.000328591 -2.15895e-06
4.64284e-06 -2.15895e-06 3.83403e-05
0.000460155 -9.95034e-05 8.19167e-06
-9.95034e-05 8.68277e-05 1.22984e-06
8.19167e-06 1.22984e-06 -0.000122089
0.00215116 -0.000460235 -8.89348e-06
-0.000460235 0.00129821 2.31249e-06
-8.89348e-06 2.31249e-06 0.00105068
0.000500437 -0.000172264 -4.2942e-07
-0.000172264 0.000165581 -5.01848e-07
-4.2942e-07 -5.01848e-07 -3.41191e-05
0.000172982 -2.97226e-05 3.34974e-06
-2.97226e-05 -0.000123594 5.62503e-06
3.34974e-06 5.62503e-06 -0.0002446
0.00102444 -0.000192259 -2.30564e-06
-0.000192259 0.000512138 2.65965e-06
-2.30564e-06 2.65965e-06 0.000325031
0.00061221 -9.18658e-05 -2.45201e-07
-9.18658e-05 0.000164549 1.59786e-07
-2.45201e-07 1.59786e-07 5.42009e-05
0.0014678 -8.64654e-07 -1.60049e-05
-8.64654e-07 0.000677479 9.12671e-06
-1.60049e-05 9.12671e-06 0.000645036
0.000466607 -9.00597e-05 5.85135e-07
-9.00597e-05 6.81282e-05 -3.8089e-06
5.85135e-07 -3.8089e-06 -3.62597e-05
0.0008202 -1.97359e-05 -1.50521e-05
-1.97359e-05 0.000259129 9.26363e-07
-1.50521e-05 9.26363e-07 0.000227081
0.000814459 1.77537e-05 2.674e-06
1.77537e-05 0.000234131 3.28731e-06
2.674e-06 3.28731e-06 0.000233185
0.000379435 -5.2227e-05 4.25476e-06
-5.2227e-05 -2.55683e-05 -5.94665e-06
4.25476e-06 -5.94665e-06 -5.85961e-05
0.00168886 1.35335e-05 1.76675e-05
1.35335e-05 0.000811436 -1.76808e-06
1.76675e-05 -1.76808e-06 0.000818582
0.00256743 -1.34921e-08 2.39593e-05
-1.34921e-08 0.00138952 -5.57508e-06
2.39593e-05 -5.57508e-06 0.00140157
0.000443987 8.71192e-05 1.3224e-06
8.71192e-05 5.50321e-05 -4.79131e-06
1.3224e-06 -4.79131e-06 -8.65736e-05
0.000531097 8.22173e-05 -4.2978e-07
8.22173e-05 0.0001004 -6.8194e-06
-4.2978e-07 -6.8194e-06 2.02693e-05
0.000553262 2.14231e-05 7.42899e-07
2.14231e-05 0.000148361 5.95409e-07
7.42899e-07 5.95409e-07 1.09059e-05
0.000390571 8.31515e-06 3.67785e-06
8.31515e-06 -4.1027e-05 -5.64244e-06
3.67785e-06 -5.64244e-06 -5.78555e-05
0.000424079 6.68251e-05 3.45834e-07
6.68251e-05 2.41684e-05 -7.42599e-08
3.45834e-07 -7.42599e-08 -4.43838e-05
0.000361492 -0.000119759 -3.88459e-06
-0.000119759 1.56927e-05 5.92025e-06
-3.88459e-06 5.92025e-06 -0.000107223
0.00213653 1.49117e-05 -1.1093e-05
1.49117e-05 0.00110307 -5.67381e-06
-1.1093e-05 -5.67381e-06 0.00111815
0.000393268 8.66637e-06 -5.33935e-07
8.66637e-06 -3.84202e-05 1.28342e-08
-5.33935e-07 1.28342e-08 -5.43895e-05
0.000478769 6.51363e-07 -2.28996e-06
6.51363e-07 4.69923e-05 4.788e-06
-2.28996e-06 4.788e-06 -1.12454e-05
0.000413446 -1.73726e-06 -3.51332e-06
-1.73726e-06 -2.66473e-05 4.87262e-06
-3.51332e-06 4.87262e-06 -4.37601e-05
0.00217416 3.13294e-05 -6.304e-06
3.13294e-05 0.00112977 -1.70878e-07
-6.304e-06 -1.70878e-07 0.00114323
0.00224565 4.88556e-05 8.92136e-07
4.88556e-05 0.0011796 5.92866e-06
8.92136e-07 5.92866e-06 0.00119052
0.000128451 -0.00178489 -0.000436146
-0.00178489 0.0105148 7.42951e-05
-0.000436146 7.42951e-05 0.00435234
0.00659466 0.00450371 -0.000513784
0.00450371 0.00417621 0.000168474
-0.000513784 0.000168474 -0.00210857
0.00428936 -0.00172563 -0.000591153
-0.00172563 0.00182408 0.000334337
-0.000591153 0.000334337 -0.00356564
0.00931125 0.00514683 0.00168383
0.00514683 0.0124843 -0.000177438
0.00168383 -0.000177438 0.0029235
0.0050693 0.00106172 1.73041e-05
0.00106172 -0.00129396 -5.72138e-06
1.73041e-05 -5.72138e-06 0.000843403
0.00335452 -0.000863058 0.000118845
-0.000863058 -0.000896784 2.25574e-05
0.000118845 2.25574e-05 -0.000125662
0.00284162 -0.000768204 0.00057435
-0.000768204 -0.00951649 -2.92095e-05
0.00057435 -2.92095e-05 -0.00835116
0.0247348 0.00712861 -0.00222724
0.00712861 0.0136009 -0.000137612
-0.00222724 -0.000137612 0.00603413
0.027371 0.0216309 -0.00308551
0.0216309 0.0190565 0.0018276
-0.00308551 0.0018276 0.00573395
0.00552953 -0.00148458 8.00197e-05
-0.00148458 -0.00212857 -1.87086e-07
8.00197e-05 -1.87086e-07 0.00024498
0.00800914 -0.00539244 0.00031238
-0.00539244 -0.00655934 -0.000229734
0.00031238 -0.000229734 -0.00601481
0.0295262 0.00938794 -0.000553797
0.00938794 0.0133097 -0.000267023
-0.000553797 -0.000267023 0.00330024
0.02444 0.00607749 0.000373465
0.00607749 0.0107706 0.000561989
0.000373465 0.000561989 0.00382784
0.0025888 -0.00343831 -0.000111343
-0.00343831 -0.00458307 9.42356e-05
-0.000111343 9.42356e-05 -0.00133759
0.00332005 -0.00827368 0.000980469
-0.00827368 -0.00300575 -0.000297129
0.000980469 -0.000297129 -0.00427255
0.0168183 0.00444969 -0.000488606
0.00444969 0.00791651 -0.00125566
-0.000488606 -0.00125566 -0.00174699
0.0113472 -0.000993388 -0.000432622
-0.000993388 0.000833068 6.58494e-05
-0.000432622 6.58494e-05 -0.000783649
0.00189209 -5.08608e-05 -1.81277e-06
-5.08608e-05 0.00116438 1.5203e-05
-1.81277e-06 1.5203e-05 0.000858305
0.000182531 3.43685e-05 -8.14033e-07
3.43685e-05 -1.52507e-05 -1.62143e-06
-8.14033e-07 -1.62143e-06 -0.00018457
0.000540937 0.000123196 2.8498e-06
0.000123196 0.000142621 3.05772e-06
2.8498e-06 3.05772e-06 1.61589e-05
-0.000442688 -0.000100525 -3.00268e-06
-0.000100525 -0.000492381 2.35906e-06
-3.00268e-06 2.35906e-06 -0.000534141
0.000366524 0.000175749 4.4911e-06
0.000175749 4.16837e-05 1.32082e-05
4.4911e-06 1.32082e-05 -0.000166661
0.000540176 9.00584e-05 -1.00139e-06
9.00584e-05 0.000199876 -4.95234e-07
-1.00139e-06 -4.95234e-07 6.03103e-07
-0.000254042 -1.56524e-05 1.43001e-06
-1.56524e-05 -0.000336235 3.22921e-06
1.43001e-06 3.22921e-06 -0.00047252
0.000977318 0.000199414 9.31003e-06
0.000199414 0.000472759 9.74502e-06
9.31003e-06 9.74502e-06 0.000241274
0.000999709 0.000197946 -4.56278e-07
0.000197946 0.000491671 -7.37151e-07
-4.56278e-07 -7.37151e-07 0.000262528
0.000403103 2.25986e-05 -3.16209e-06
2.25986e-05 7.89702e-05 1.81641e-06
-3.16209e-06 1.81641e-06 -9.71483e-05
0.00132678 -0.000934739 0.000131461
-0.000934739 -0.00156903 -7.61217e-05
0.000131461 -7.61217e-05 -0.000796308
0.000789136 -0.00106293 1.01651e-05
-0.00106293 -0.000711792 -1.30797e-05
1.01651e-05 -1.30797e-05 -0.000796479
0.00197349 -0.00144551 1.24007e-05
-0.00144551 0.000194871 8.09826e-06
1.24007e-05 8.09826e-06 -0.000238231
-0.00082928 -0.000930685 5.89451e-06
-0.000930685 -0.000894436 -1.24395e-05
5.89451e-06 -1.24395e-05 -0.00119956
0.00394285 -0.000751654 -7.72766e-05
-0.000751654 0.00265041 6.86855e-05
-7.72766e-05 6.86855e-05 0.00213006
0.000727337 -0.000329465 -5.84331e-07
-0.000329465 0.000637009 -1.26342e-05
-5.84331e-07 -1.26342e-05 0.000210189
0.000668291 3.34146e-05 3.02967e-06
3.34146e-05 0.00045973 -9.06028e-06
3.02967e-06 -9.06028e-06 0.000123453
0.000705661 2.16525e-05 -6.03373e-06
2.16525e-05 0.000424368 2.32566e-06
-6.03373e-06 2.32566e-06 0.000120063
0.00316171 -0.00178576 -3.06974e-05
-0.00178576 -0.0001716 2.87975e-06
-3.06974e-05 2.87975e-06 0.000140496
0.000615487 -6.28611e-05 1.13342e-06
-6.28611e-05 0.000510987 4.45748e-06
1.13342e-06 4.45748e-06 0.000130862
0.0017884 -0.000451879 1.11354e-05
-0.000451879 0.00126484 -6.98828e-06
1.11354e-05 -6.98828e-06 0.000859683
0.00159913 -0.00128974 2.13117e-05
-0.00128974 0.000121754 -3.00621e-06
2.13117e-05 -3.00621e-06 -0.000172738
0.000300215 -0.000681689 -1.90812e-05
-0.000681689 0.000270669 6.49227e-06
-1.90812e-05 6.49227e-06 -0.000108649
0.00287826 -0.00288592 5.48927e-05
-0.00288592 0.000499707 -1.81203e-05
5.48927e-05 -1.81203e-05 -0.000201714
0.00122542 -0.000902591 -1.93541e-05
-0.000902591 0.000777378 2.45897e-05
-1.93541e-05 2.45897e-05 0.000397794
-0.00140865 -0.000172927 7.97804e-06
-0.000172927 -0.000345889 -2.50873e-07
7.97804e-06 -2.50873e-07 -0.00094433
0.000321226 0.00013365 7.42909e-06
0.00013365 0.000233182 -1.12395e-07
7.42909e-06 -1.12395e-07 1.86646e-05
-0.000701847 -0.000249558 -1.09836e-05
-0.000249558 -0.000193047 3.36242e-05
-1.09836e-05 3.36242e-05 -0.000622674
0.00260985 0.000392407 -0.000172469
0.000392407 0.00265812 -5.96236e-05
-0.000172469 -5.96236e-05 -0.00276315
-0.00752479 0.000332557 -0.000863681
0.000332557 0.00773217 2.43683e-06
-0.000863681 2.43683e-06 0.00136955
-0.0116522 -0.00445479 -0.00160662
-0.00445479 -0.00187563 2.67609e-05
-0.00160662 2.67609e-05 -0.0068039
0.000132384 0.000505735 1.72107e-05
0.000505735 0.000137551 -3.72103e-06
1.72107e-05 -3.72103e-06 -0.000292943
0.000829523 0.00107145 5.71066e-06
0.00107145 0.000366524 1.22691e-05
5.71066e-06 1.22691e-05 -0.000277612
0.0037066 0.00200778 6.89761e-05
0.00200778 0.00116205 6.64514e-05
6.89761e-05 6.64514e-05 0.000658554
-0.00133734 0.00150319 0.000206507
0.00150319 0.010991 8.38021e-05
0.000206507 8.38021e-05 0.004005
0.00355989 0.00843694 -0.000905313
0.00843694 -0.00356581 -0.000231212
-0.000905313 -0.000231212 -0.00441783
0.000443738 0.00416489 0.000563233
0.00416489 -0.000675615 0.000260578
0.000563233 0.000260578 -0.000286694
0.00010566 0.00176314 -8.66887e-06
0.00176314 0.000218915 -4.97399e-05
-8.66887e-06 -4.97399e-05 -0.000120701
0.033532 -0.00604367 0.000187365
-0.00604367 0.0146019 -0.000651885
0.000187365 -0.000651885 0.0057036
0.00990149 0.00445194 0.00127899
0.00445194 0.00437965 0.000390368
0.00127899 0.000390368 -0.00314486
0.0142387 -0.000995409 0.000117231
-0.000995409 0.00326036 8.83687e-05
0.000117231 8.83687e-05 0.0037293
0.00190977 0.00105852 1.0019e-05
0.00105852 0.00113408 -6.57821e-07
1.0019e-05 -6.57821e-07 0.000577458
0.00410474 0.00191456 -0.000119134
0.00191456 0.00511913 -2.14179e-05
-0.000119134 -2.14179e-05 -0.000983406
0.00330259 0.00129903 0.000168875
0.00129903 0.00159459 -2.24595e-05
0.000168875 -2.24595e-05 -0.00135232
5.43021e-05 0.00111431 -1.85391e-05
0.00111431 0.000351209 -8.68855e-06
-1.85391e-05 -8.68855e-06 -0.000312168
-0.00116234 0.00271956 -0.000165952
0.00271956 0.000377922 -0.000112486
-0.000165952 -0.000112486 -0.00111634
0.0029113 0.00905782 0.000522958
0.00905782 0.0019545 0.000178091
0.000522958 0.000178091 -0.0030912
0.0139558 -0.00070749 2.01423e-05
-0.00070749 -0.00226913 -0.000224137
2.01423e-05 -0.000224137 -0.00124259
0.0104915 -0.003461 -0.000162262
-0.003461 0.00635904 -0.000262115
-0.000162262 -0.000262115 -0.00187995
0.00141457 0.000906892 -3.69897e-06
0.000906892 0.00126161 -1.59128e-05
-3.69897e-06 -1.59128e-05 0.000579662
-0.0040257 0.00112511 8.8754e-05
0.00112511 0.00208127 8.8843e-05
8.8754e-05 8.8843e-05 -0.00115116
0.00864643 -0.00145456 0.000395733
-0.00145456 0.000702255 -7.62245e-05
0.000395733 -7.62245e-05 -0.00174198
0.0112837 -0.000947732 0.000401315
-0.000947732 0.000771677 -2.42443e-05
0.000401315 -2.42443e-05 -0.000624448
-0.00312454 0.000616133 7.51607e-05
0.000616133 0.000524951 -1.03264e-05
7.51607e-05 -1.03264e-05 -0.000783482
0.00748567 0.00465637 0.00048291
0.00465637 0.0061255 0.000254426
0.00048291 0.000254426 -0.00143175
0.00978063 -0.000584951 -2.88548e-05
-0.000584951 0.00355047 0.000438836
-2.88548e-05 0.000438836 -0.0012775
0.00256898 0.000565576 2.00273e-05
0.000565576 0.0017573 1.47243e-05
2.00273e-05 1.47243e-05 0.0013539
0.000367703 0.000400953 -9.37057e-06
0.000400953 0.000565457 -3.29111e-06
-9.37057e-06 -3.29111e-06 1.89768e-05
0.000469992 0.000412633 2.94704e-06
0.000412633 0.000793725 -1.29185e-05
2.94704e-06 -1.29185e-05 4.51149e-05
-0.00022769 5.98581e-05 5.99213e-06
5.98581e-05 -0.000273597 -2.39201e-06
5.99213e-06 -2.39201e-06 -0.000480842
0.000320241 8.73272e-05 1.01146e-06
8.73272e-05 0.000255041 -3.08449e-06
1.01146e-06 -3.08449e-06 -2.49709e-05
7.39467e-05 3.27041e-05 3.34518e-06
3.27041e-05 0.000578686 1.05404e-06
3.34518e-06 1.05404e-06 -1.95369e-05
8.33332e-06 -1.76816e-05 -1.05215e-06
-1.76816e-05 6.46455e-05 -7.75472e-08
-1.05215e-06 -7.75472e-08 -0.000214184
0.000434779 -7.94747e-05 -7.73247e-07
-7.94747e-05 0.000711121 -2.49147e-06
-7.73247e-07 -2.49147e-06 0.000183961
-0.00027861 3.32975e-05 2.33682e-06
3.32975e-05 0.000491232 8.88977e-07
2.33682e-06 8.88977e-07 -0.000153402
0.00053181 -0.000131405 -9.21336e-06
-0.000131405 0.000860042 1.4119e-05
-9.21336e-06 1.4119e-05 0.000352273
0.000629558 -5.43214e-05 2.29727e-06
-5.43214e-05 0.000710261 -1.37064e-05
2.29727e-06 -1.37064e-05 0.0003182
-0.000186518 -2.15858e-05 1.00462e-05
-2.15858e-05 -6.97181e-05 2.71634e-08
1.00462e-05 2.71634e-08 -0.000314368
0.00125501 -9.81894e-05 -1.42661e-07
-9.81894e-05 0.000604794 4.66344e-06
-1.42661e-07 4.66344e-06 0.000416482
-0.000767806 -7.86959e-05 -3.82594e-06
-7.86959e-05 -0.000435519 2.59237e-06
-3.82594e-06 2.59237e-06 -0.000653785
0.000475986 -7.03786e-05 1.31959e-06
-7.03786e-05 0.000486927 2.05044e-06
1.31959e-06 2.05044e-06 0.000196048
-0.000542448 -3.41066e-05 -7.36696e-06
-3.41066e-05 -0.000357974 -1.13622e-06
-7.36696e-06 -1.13622e-06 -0.000612437
0.00199616 -0.000560336 1.13423e-06
-0.000560336 0.00107019 8.27777e-06
1.13423e-06 8.27777e-06 0.00079784
0.000981199 -0.000350993 -1.35793e-05
-0.000350993 0.000412186 -1.80056e-06
-1.35793e-05 -1.80056e-06 0.000263431
6.80745e-05 -0.000449514 8.1035e-06
-0.000449514 -0.000157712 1.70511e-05
8.1035e-06 1.70511e-05 -0.000563168
0.00121577 -0.000158708 4.58552e-07
-0.000158708 0.000554514 -3.00605e-07
4.58552e-07 -3.00605e-07 0.00039193
0.00136968 -0.000469001 -6.17709e-06
-0.000469001 0.000519137 7.65223e-06
-6.17709e-06 7.65223e-06 0.000235304
0.00251354 -0.000932573 -1.16828e-05
-0.000932573 0.00113568 1.21574e-05
-1.16828e-05 1.21574e-05 0.000558596
0.00197141 -0.000982713 -3.24737e-06
-0.000982713 0.000704627 -1.4364e-06
-3.24737e-06 -1.4364e-06 8.29359e-05
0.00100699 -0.000461635 8.42491e-06
-0.000461635 0.000210065 -1.50521e-07
8.42491e-06 -1.50521e-07 -0.000118453
0.00101079 -0.000691304 6.45236e-06
-0.000691304 0.000241761 -2.09005e-06
6.45236e-06 -2.09005e-06 -0.000228622
0.00180366 -0.000310056 3.73632e-06
-0.000310056 0.000999605 -5.32669e-06
3.73632e-06 -5.32669e-06 0.000629469
0.000913817 -0.000263741 -7.15449e-06
-0.000263741 0.000288574 1.7179e-06
-7.15449e-06 1.7179e-06 2.07709e-05
-0.00011692 -0.000307405 1.88836e-05
-0.000307405 -0.000379432 -1.28384e-05
1.88836e-05 -1.28384e-05 -0.000614194
0.0019995 -0.000236826 -6.87336e-06
-0.000236826 0.00114677 3.4841e-06
-6.87336e-06 3.4841e-06 0.000860523
-0.00033197 -0.00023652 9.13632e-07
-0.00023652 -0.000265007 5.63204e-07
9.13632e-07 5.63204e-07 -0.000629346
-0.000370121 -4.28889e-05 6.35292e-06
-4.28889e-05 -0.000401533 2.81491e-06
6.35292e-06 2.81491e-06 -0.000699095
0.00292212 -0.000603457 -6.76982e-06
-0.000603457 0.0017329 3.92703e-06
-6.76982e-06 3.92703e-06 0.00144158
0.000953432 -0.000254847 -4.52263e-07
-0.000254847 0.000421524 -4.4328e-07
-4.52263e-07 -4.4328e-07 0.000189613
0.000152094 -5.9809e-05 6.88272e-06
-5.9809e-05 -0.000139389 9.97922e-06
6.88272e-06 9.97922e-06 -0.000295054
0.000908719 -0.000265218 -4.25819e-06
-0.000265218 0.000439347 -1.2487e-06
-4.25819e-06 -1.2487e-06 0.00023179
0.000441478 -2.54826e-05 -2.90172e-06
-2.54826e-05 6.63182e-05 -5.92948e-07
-2.90172e-06 -5.92948e-07 -6.95942e-05
0.00151184 -3.24054e-05 -2.60028e-05
-3.24054e-05 0.000704474 7.48671e-06
-2.60028e-05 7.48671e-06 0.000668907
0.000633713 -0.000103029 -3.3455e-07
-0.000103029 0.000182774 -4.14906e-06
-3.3455e-07 -4.14906e-06 6.68826e-05
0.00085361 -2.90761e-05 -1.36725e-05
-2.90761e-05 0.000274956 7.35099e-07
-1.36725e-05 7.35099e-07 0.000239982
0.000821205 2.79524e-05 2.32696e-06
2.79524e-05 0.000232869 3.57056e-06
2.32696e-06 3.57056e-06 0.000228303
0.000406864 -4.96238e-05 4.06706e-06
-4.96238e-05 -1.18528e-05 -7.02869e-06
4.06706e-06 -7.02869e-06 -4.77009e-05
0.00181751 2.57119e-05 2.09137e-05
2.57119e-05 0.000893045 -1.38993e-06
2.09137e-05 -1.38993e-06 0.000898674
0.0026127 1.21907e-05 2.90709e-05
1.21907e-05 0.00141569 -5.90812e-06
2.90709e-05 -5.90812e-06 0.00142796
0.000131683 4.04717e-05 2.42595e-06
4.04717e-05 -0.00013268 1.78652e-06
2.42595e-06 1.78652e-06 -0.000308676
-5.51205e-05 2.63639e-05 6.62651e-07
2.63639e-05 -0.00029484 -8.44854e-06
6.62651e-07 -8.44854e-06 -0.000383944
0.000511753 9.1102e-05 -5.26195e-07
9.1102e-05 0.00011179 8.81325e-07
-5.26195e-07 8.81325e-07 -3.97252e-05
0.000395645 1.44631e-05 2.82785e-06
1.44631e-05 -3.71847e-05 -6.16674e-06
2.82785e-06 -6.16674e-06 -5.73431e-05
0.000279049 5.76941e-06 1.71265e-06
5.76941e-06 -7.99747e-05 5.65879e-08
1.71265e-06 5.65879e-08 -0.000154123
0.000167782 -0.000108465 -3.41502e-07
-0.000108465 -0.000108258 6.63996e-06
-3.41502e-07 6.63996e-06 -0.000245014
0.00217112 -7.80118e-08 -1.50874e-05
-7.80118e-08 0.00112507 -5.84136e-06
-1.50874e-05 -5.84136e-06 0.00114021
0.000388283 9.1633e-06 7.76979e-07
9.1633e-06 -4.22663e-05 -6.70121e-08
7.76979e-07 -6.70121e-08 -5.90831e-05
0.000387342 -1.52079e-05 -5.1741e-06
-1.52079e-05 -7.50361e-06 5.70313e-06
-5.1741e-06 5.70313e-06 -7.1707e-05
0.00215802 1.594e-05 -5.42046e-06
1.594e-05 0.00111775 -1.9804e-08
-5.42046e-06 -1.9804e-08 0.0011325
0.00039793 2.95841e-06 -3.49132e-06
2.95841e-06 -3.49498e-05 4.87669e-06
-3.49132e-06 4.87669e-06 -5.10336e-05
0.00216682 3.25253e-05 6.44687e-06
3.25253e-05 0.00112523 5.95712e-06
6.44687e-06 5.95712e-06 0.00113841
-0.00115742 -0.00211781 -0.000389322
-0.00211781 -0.000141761 0.000161475
-0.000389322 0.000161475 -0.00508105
0.0059587 0.00316187 -0.000353227
0.00316187 0.0130391 8.23187e-05
-0.000353227 8.23187e-05 0.00476569
0.0074492 0.00175833 -0.0019068
0.00175833 0.00633695 0.000363162
-0.0019068 0.000363162 0.00299535
0.000663072 0.000132213 1.1377e-05
0.000132213 0.000261952 6.88224e-06
1.1377e-05 6.88224e-06 4.26841e-05
0.00749274 -0.00176265 -0.000242508
-0.00176265 0.00518318 0.000370846
-0.000242508 0.000370846 0.00163855
0.00475981 -0.00183664 -0.00032979
-0.00183664 0.00267955 3.89251e-05
-0.00032979 3.89251e-05 -0.00289733
0.0241509 0.0109385 0.000138855
0.0109385 0.014923 -0.000648387
0.000138855 -0.000648387 0.00355023
0.00734996 -0.0022618 0.000190326
-0.0022618 -0.001485 -2.51859e-05
0.000190326 -2.51859e-05 0.000468107
0.0141173 -0.00487852 0.000415657
-0.00487852 -0.00206233 -0.000313828
0.000415657 -0.000313828 -0.000347701
0.0207801 0.0073204 -0.0011704
0.0073204 0.00790453 0.00028855
-0.0011704 0.00028855 -0.00139408
0.0181134 0.00536018 0.000432569
0.00536018 0.0120588 0.000333036
0.000432569 0.000333036 0.0067992
0.00761611 -0.00422847 -9.53488e-05
-0.00422847 -0.00149986 -3.04412e-06
-9.53488e-05 -3.04412e-06 0.000647593
0.0115801 -0.00864751 1.30673e-05
-0.00864751 -6.13167e-05 -6.80914e-05
1.30673e-05 -6.80914e-05 -0.00158818
0.0141745 0.00246338 0.000105612
0.00246338 0.0098187 -0.000528611
0.000105612 -0.000528611 0.00109557
0.0172578 0.00140259 -2.8593e-05
0.00140259 0.00328658 8.64512e-05
-2.8593e-05 8.64512e-05 0.000129115
0.00451272 -0.00514522 2.18214e-06
-0.00514522 0.000614342 4.71753e-05
2.18214e-06 4.71753e-05 0.00158819
0.00987732 -0.00818602 0.000392722
-0.00818602 0.00470423 -0.000231486
0.000392722 -0.000231486 0.000673918
0.00729205 0.000554078 -8.02245e-05
0.000554078 0.00674151 -0.000522527
-8.02245e-05 -0.000522527 0.000777214
0.0169779 -0.000735185 -0.000278665
-0.000735185 0.000565079 0.000341275
-0.000278665 0.000341275 0.000651946
0.000343377 0.000217024 1.55951e-05
0.000217024 0.000133774 1.82044e-05
1.55951e-05 1.82044e-05 -8.32595e-05
0.000311872 -7.58518e-05 2.22989e-07
-7.58518e-05 0.000119259 -1.65985e-06
2.22989e-07 -1.65985e-06 -0.000136285
-0.000149944 1.49455e-05 5.61987e-06
1.49455e-05 -0.000260198 2.47335e-06
5.61987e-06 2.47335e-06 -0.000403649
0.00057476 0.000220997 1.20409e-05
0.000220997 0.000124883 2.51358e-05
1.20409e-05 2.51358e-05 -5.03118e-05
0.000969686 0.000277834 -2.13977e-06
0.000277834 0.000469645 -2.85018e-06
-2.13977e-06 -2.85018e-06 0.000229107
0.00085409 0.000154626 1.5134e-07
0.000154626 0.000416868 5.56889e-07
1.5134e-07 5.56889e-07 0.000213156
0.0011888 0.000226856 -2.17819e-06
0.000226856 0.000613905 5.68564e-08
-2.17819e-06 5.68564e-08 0.000376539
0.00111305 0.000270549 1.78764e-06
0.000270549 0.000579468 3.53035e-06
1.78764e-06 3.53035e-06 0.000336447
0.00218 -0.00155201 0.000170927
-0.00155201 -0.000768223 -0.00010667
0.000170927 -0.00010667 -0.00018644
-0.000368515 -0.00105068 -1.28592e-05
-0.00105068 -0.00101344 -1.80295e-05
-1.28592e-05 -1.80295e-05 -0.00119464
-0.000558935 -1.32511e-05 -2.67919e-06
-1.32511e-05 -0.000426039 -1.84358e-05
-2.67919e-06 -1.84358e-05 -0.000674201
0.000876969 -0.000787506 2.39091e-05
-0.000787506 0.000517035 -2.16668e-05
2.39091e-05 -2.16668e-05 0.000171767
0.00338764 -0.000677145 -3.74379e-05
-0.000677145 0.00217238 8.51115e-06
-3.74379e-05 8.51115e-06 0.00177403
0.00146247 -0.000175068 1.61284e-05
-0.000175068 0.00103572 -2.98031e-05
1.61284e-05 -2.98031e-05 0.000623621
-0.000372705 0.000139993 2.00527e-06
0.000139993 -0.000209329 1.45722e-05
2.00527e-06 1.45722e-05 -0.000456932
0.00145402 -0.00252214 -1.67988e-05
-0.00252214 -0.000143935 -4.08581e-06
-1.67988e-05 -4.08581e-06 -0.000683052
0.00138174 -0.000209668 -4.48058e-06
-0.000209668 0.00109451 -7.95029e-07
-4.48058e-06 -7.95029e-07 0.000652885
-0.000578359 -0.000237013 -6.41556e-06
-0.000237013 -1.47485e-06 9.43438e-06
-6.41556e-06 9.43438e-06 -0.000527468
-0.000861022 -0.000719227 1.90226e-05
-0.000719227 -0.000532683 -1.8382e-06
1.90226e-05 -1.8382e-06 -0.000720906
-0.000486601 1.64105e-05 1.19141e-05
1.64105e-05 -0.000224842 -6.61563e-06
1.19141e-05 -6.61563e-06 -0.000469786
0.00211904 -0.00262476 -0.000109481
-0.00262476 0.00165265 -1.95966e-05
-0.000109481 -1.95966e-05 0.000503754
-0.000348224 -0.000712783 -1.51477e-05
-0.000712783 0.000171878 6.3038e-06
-1.51477e-05 6.3038e-06 -0.00037717
0.00028879 0.000115185 4.34358e-06
0.000115185 0.000645415 -9.3441e-06
4.34358e-06 -9.3441e-06 3.37031e-05
0.000803437 0.000120262 2.3968e-06
0.000120262 0.00102491 1.74303e-05
2.3968e-06 1.74303e-05 0.000352084
0.000237532 -4.39974e-05 0.000336665
-4.39974e-05 0.00505132 8.52702e-05
0.000336665 8.52702e-05 0.00158217
-0.000228851 9.32847e-05 0.000226391
9.32847e-05 0.00139283 -2.69657e-05
0.000226391 -2.69657e-05 -0.00434535
-0.0143767 -0.000662586 -0.00082123
-0.000662586 0.00644621 2.39049e-05
-0.00082123 2.39049e-05 0.000916661
0.00191948 0.0010071 2.13677e-05
0.0010071 0.00119284 5.60847e-06
2.13677e-05 5.60847e-06 0.000672408
-0.000396832 0.00138827 2.5235e-05
0.00138827 0.000121877 1.65691e-05
2.5235e-05 1.65691e-05 -0.00071875
0.00590934 0.00250045 0.000748025
0.00250045 0.00528471 0.000192383
0.000748025 0.000192383 0.000151967
0.00498308 0.00603601 0.000239804
0.00603601 0.0034975 0.000243048
0.000239804 0.000243048 -0.000513872
0.00159167 0.00418515 -0.00021721
0.00418515 0.00159889 -0.000205522
-0.00021721 -0.000205522 -0.000447772
0.00601934 -0.00206073 -0.000131072
-0.00206073 0.00636738 -0.000539871
-0.000131072 -0.000539871 0.000141092
0.00413952 0.000608457 0.000109729
0.000608457 0.00207438 0.000137458
0.000109729 0.000137458 -0.00079538
0.0107976 -0.000164734 -4.03043e-05
-0.000164734 -0.00422666 -0.000284533
-4.03043e-05 -0.000284533 -0.00331163
0.000673309 0.000959093 5.14835e-06
0.000959093 0.000762941 -9.93687e-07
5.14835e-06 -9.93687e-07 2.67412e-05
-0.00276654 0.000679614 8.52887e-06
0.000679614 0.00242742 7.88509e-06
8.52887e-06 7.88509e-06 -0.00101872
0.00725789 -0.000599642 0.000259984
-0.000599642 0.000588357 9.43659e-06
0.000259984 9.43659e-06 -0.00188181
-0.00200454 0.00113487 -3.09764e-05
0.00113487 0.000222197 -1.65998e-05
-3.09764e-05 -1.65998e-05 -0.00104353
0.0179974 0.0017619 3.35034e-05
0.0017619 0.00322821 -9.41117e-05
3.35034e-05 -9.41117e-05 3.92472e-05
0.0043083 0.00324817 0.000396496
0.00324817 0.00616191 0.000255736
0.000396496 0.000255736 -0.00101133
0.0152521 0.000670069 -0.000220808
0.000670069 0.0057323 -1.74977e-05
-0.000220808 -1.74977e-05 0.000247813
0.000622991 0.000943 -2.50813e-06
0.000943 0.000935366 -2.17132e-05
-2.50813e-06 -2.17132e-05 4.05846e-06
0.00406706 -1.52049e-05 6.76485e-05
-1.52049e-05 0.00270117 5.13463e-05
6.76485e-05 5.13463e-05 6.10031e-05
0.00391757 -0.00335393 0.000345575
-0.00335393 0.00453951 -0.00028191
0.000345575 -0.00028191 0.00152607
0.0348213 0.00781583 0.000558134
0.00781583 0.0147897 -0.000413891
0.000558134 -0.000413891 0.00685907
0.00987496 -0.000256355 -6.44139e-05
-0.000256355 0.00808726 0.00064234
-6.44139e-05 0.00064234 0.0020365
-0.00181603 0.00105812 -0.000195811
0.00105812 0.00112821 -0.000132992
-0.000195811 -0.000132992 -0.000253481
0.000996922 0.000324441 0.000177664
0.000324441 0.00577018 -2.65549e-06
0.000177664 -2.65549e-06 -0.00454102
0.00095871 0.000542234 4.43116e-06
0.000542234 0.000888506 1.48605e-05
4.43116e-06 1.48605e-05 0.000294954
0.000374075 0.000354877 6.77313e-06
0.000354877 0.000813635 6.36066e-06
6.77313e-06 6.36066e-06 0.000104873
0.000524728 -0.000136931 -1.01868e-05
-0.000136931 0.00130173 2.01052e-05
-1.01868e-05 2.01052e-05 0.000615523
-0.000847527 -3.235e-05 9.73253e-06
-3.235e-05 -0.000469179 -5.9122e-06
9.73253e-06 -5.9122e-06 -0.000755092
-0.000312471 1.64564e-07 4.90561e-06
1.64564e-07 0.000279193 7.09618e-06
4.90561e-06 7.09618e-06 -0.0002687
-7.05522e-05 1.89663e-05 -4.12029e-06
1.89663e-05 0.000653541 -4.28026e-06
-4.12029e-06 -4.28026e-06 -2.0097e-05
-2.16167e-05 -1.3089e-05 1.78571e-07
-1.3089e-05 0.000264963 4.00062e-07
1.78571e-07 4.00062e-07 -8.55922e-05
8.85539e-05 -9.32127e-05 2.30907e-06
-9.32127e-05 0.000616508 2.79259e-06
2.30907e-06 2.79259e-06 8.44672e-05
0.00338583 -0.00069135 1.56572e-05
-0.00069135 0.00218842 -1.25155e-05
1.56572e-05 -1.25155e-05 0.00180425
0.000447091 -7.91259e-05 -6.00345e-06
-7.91259e-05 0.000446455 5.02032e-06
-6.00345e-06 5.02032e-06 0.000172076
-0.00208917 3.35777e-05 7.09893e-06
3.35777e-05 -0.00125767 -5.99472e-07
7.09893e-06 -5.99472e-07 -0.0015314
0.0011372 -0.000488186 -3.35226e-06
-0.000488186 0.000602123 3.44172e-06
-3.35226e-06 3.44172e-06 0.000277328
-0.00328856 -6.31099e-05 2.45589e-05
-6.31099e-05 -0.00192478 1.80849e-05
2.45589e-05 1.80849e-05 -0.00233802
-0.000937924 -0.000150403 3.25526e-05
-0.000150403 -0.000678935 -1.27419e-05
3.25526e-05 -1.27419e-05 -0.000764271
5.54682e-05 -0.000482504 -1.7669e-05
-0.000482504 -0.000215681 -2.48539e-06
-1.7669e-05 -2.48539e-06 -0.000587304
0.00167999 -0.000907522 -4.79871e-06
-0.000907522 0.0006334 -3.225e-07
-4.79871e-06 -3.225e-07 -7.62537e-05
0.00230106 -0.00114937 -1.52714e-05
-0.00114937 0.000839115 2.78944e-06
-1.52714e-05 2.78944e-06 0.000121008
0.00168632 -0.000497133 4.21391e-06
-0.000497133 0.00070308 -8.0424e-06
4.21391e-06 -8.0424e-06 0.000412322
0.00171346 -0.000827137 -3.09e-08
-0.000827137 0.000640713 1.2841e-06
-3.09e-08 1.2841e-06 8.36383e-05
0.00173016 -0.00099944 7.58719e-06
-0.00099944 0.000498554 -8.35638e-06
7.58719e-06 -8.35638e-06 -0.000134852
0.00162522 -0.000733334 5.48416e-06
-0.000733334 0.000598216 1.75467e-06
5.48416e-06 1.75467e-06 9.09983e-05
0.0016869 -0.000937275 3.96646e-06
-0.000937275 0.00054854 -5.10434e-06
3.96646e-06 -5.10434e-06 -5.94512e-05
0.00120472 -0.000291264 -2.10878e-06
-0.000291264 0.000394191 -4.34402e-06
-2.10878e-06 -4.34402e-06 0.000101404
0.000840107 -0.00044908 5.25647e-07
-0.00044908 0.000101342 1.19066e-07
5.25647e-07 1.19066e-07 -0.000239265
0.000585073 -0.000608311 2.32433e-06
-0.000608311 5.60969e-06 -7.68837e-06
2.32433e-06 -7.68837e-06 -0.000436625
-0.000403337 -0.000132008 4.04947e-06
-0.000132008 -0.000375348 -1.39791e-06
4.04947e-06 -1.39791e-06 -0.000742435
0.000346141 -0.000249805 -8.56833e-07
-0.000249805 0.000127434 -4.37481e-07
-8.56833e-07 -4.37481e-07 -0.000257949
-0.000939396 -0.000164387 3.03433e-06
-0.000164387 -0.000800654 -1.98739e-07
3.03433e-06 -1.98739e-07 -0.00109447
0.00142593 -0.000320199 -4.41686e-06
-0.000320199 0.000801355 7.0352e-06
-4.41686e-06 7.0352e-06 0.000459045
0.000833918 -0.000230884 1.37794e-06
-0.000230884 0.000364229 6.67782e-07
1.37794e-06 6.67782e-07 5.83796e-05
-0.000215072 -6.05426e-05 3.68074e-06
-6.05426e-05 -0.000376095 1.11678e-05
3.68074e-06 1.11678e-05 -0.000579046
0.00128917 -0.00041069 -7.87166e-06
-0.00041069 0.000666415 -1.17841e-06
-7.87166e-06 -1.17841e-06 0.000401874
0.000592017 -8.08879e-05 -1.29819e-06
-8.08879e-05 0.000130185 -1.04212e-07
-1.29819e-06 -1.04212e-07 -2.32893e-05
0.000341865 3.94235e-05 3.10178e-06
3.94235e-05 -5.46174e-05 1.16211e-05
3.10178e-06 1.16211e-05 -0.000111583
0.00122298 -0.000143633 -3.44939e-06
-0.000143633 0.000564991 -5.91297e-06
-3.44939e-06 -5.91297e-06 0.00042507
0.000431857 -3.8896e-05 -2.11399e-06
-3.8896e-05 -7.36016e-06 1.09899e-07
-2.11399e-06 1.09899e-07 -5.08961e-05
0.00285974 9.75644e-05 2.51096e-06
9.75644e-05 0.00157957 3.56643e-06
2.51096e-06 3.56643e-06 0.00157919
0.000483864 -5.3078e-05 3.84114e-06
-5.3078e-05 3.20434e-05 -7.73548e-06
3.84114e-06 -7.73548e-06 -8.38268e-06
0.00182162 3.8075e-05 2.52039e-05
3.8075e-05 0.000895345 -1.29358e-06
2.52039e-05 -1.29358e-06 0.000898435
0.00278458 2.79101e-05 3.68477e-05
2.79101e-05 0.00152636 -6.46606e-06
3.68477e-05 -6.46606e-06 0.00153755
0.000156445 6.68245e-05 4.05884e-06
6.68245e-05 -0.000129543 1.09045e-06
4.05884e-06 1.09045e-06 -0.00030311
9.61314e-05 2.15176e-05 2.81581e-06
2.15176e-05 -0.000191569 -6.5071e-06
2.81581e-06 -6.5071e-06 -0.000303507
0.000420267 5.80754e-05 1.34543e-07
5.80754e-05 6.14021e-05 -8.86877e-07
1.34543e-07 -8.86877e-07 -0.000113792
0.000438888 1.2943e-05 3.55407e-06
1.2943e-05 -8.61898e-06 -6.87156e-06
3.55407e-06 -6.87156e-06 -3.40621e-05
5.42224e-05 3.00683e-05 -1.07001e-06
3.00683e-05 -0.000222121 -2.41247e-06
-1.07001e-06 -2.41247e-06 -0.000315579
0.000642983 8.70309e-05 9.18707e-07
8.70309e-05 0.000222933 5.82467e-06
9.18707e-07 5.82467e-06 5.35686e-05
0.00228706 -1.502e-05 -2.10108e-05
-1.502e-05 0.00120127 -5.88103e-06
-2.10108e-05 -5.88103e-06 0.00121544
0.000404926 9.26476e-06 -1.16364e-06
9.26476e-06 -3.29388e-05 -1.51181e-07
-1.16364e-06 -1.51181e-07 -5.23182e-05
-5.08426e-05 1.3547e-05 7.37201e-07
1.3547e-05 -0.000295084 6.37149e-06
7.37201e-07 6.37149e-06 -0.000372028
0.00218072 4.89419e-07 -4.24647e-06
4.89419e-07 0.00113158 9.9167e-08
-4.24647e-06 9.9167e-08 0.00114665
0.000392231 1.04597e-05 -3.0401e-06
1.04597e-05 -3.97291e-05 5.30167e-06
-3.0401e-06 5.30167e-06 -5.62492e-05
0.0021636 1.6947e-05 1.14351e-05
1.6947e-05 0.00112189 5.86157e-06
1.14351e-05 5.86157e-06 0.00113635
0.00105967 -0.000196454 0.000319509
-0.000196454 0.00548595 0.000189554
0.000319509 0.000189554 0.0029265
-0.00100973 -0.00075683 -7.55328e-05
-0.00075683 0.000489596 8.44043e-06
-7.55328e-05 8.44043e-06 -0.00511501
0.00218052 0.00312659 -0.000529541
0.00312659 0.0121335 -0.000144474
-0.000529541 -0.000144474 0.00351709
0.000736714 0.000172992 -3.38076e-07
0.000172992 0.000281543 7.92314e-07
-3.38076e-07 7.92314e-07 7.82773e-05
-0.000489309 0.000128914 8.91441e-06
0.000128914 -0.000459563 4.35089e-06
8.91441e-06 4.35089e-06 -0.000704818
0.00215612 0.000335633 2.39603e-05
0.000335633 0.0012165 1.81921e-05
2.39603e-05 1.81921e-05 0.0010034
0.00964988 -0.00125922 -0.000395101
-0.00125922 0.000622067 0.000119127
-0.000395101 0.000119127 -0.00244307
0.0082389 -0.00307385 0.000198742
-0.00307385 0.00468217 4.752e-05
0.000198742 4.752e-05 0.00213748
0.00481675 -0.00444343 0.000365635
-0.00444343 0.00209751 -0.000363625
0.000365635 -0.000363625 -0.00311133
0.00896331 -0.00492566 1.02367e-06
-0.00492566 -0.00162756 -7.61975e-05
1.02367e-06 -7.61975e-05 0.000738384
0.00412814 -0.00825806 -0.00108144
-0.00825806 -0.00332581 5.3987e-05
-0.00108144 5.3987e-05 -0.00328212
0.0315412 0.00759231 0.000836236
0.00759231 0.0171852 0.000345932
0.000836236 0.000345932 0.00615154
0.00934397 -0.00148641 0.000498079
-0.00148641 -0.000996891 -0.000344373
0.000498079 -0.000344373 -0.00356785
0.00291601 -0.00493517 6.50002e-06
-0.00493517 -0.000806103 1.36908e-05
6.50002e-06 1.36908e-05 0.000753959
0.004782 -0.00840659 -0.000313975
-0.00840659 0.00267941 7.51687e-06
-0.000313975 7.51687e-06 -0.00273373
0.00861999 0.00482799 -0.000161561
0.00482799 0.00800388 -0.000426057
-0.000161561 -0.000426057 0.0005943
0.0140156 -0.000464426 -0.000176952
-0.000464426 -0.00166088 0.000187808
-0.000176952 0.000187808 -0.00113795
-0.000141666 -0.00398875 -0.000188838
-0.00398875 0.00122954 0.00010502
-0.000188838 0.00010502 0.000193481
0.00831814 -0.00440382 -0.000458535
-0.00440382 0.0062435 0.000303678
-0.000458535 0.000303678 -0.000116198
0.00920907 -0.000201449 5.0515e-05
-0.000201449 0.00416013 -0.000412604
5.0515e-05 -0.000412604 -0.000994981
0.0101647 0.00094847 1.78044e-05
0.00094847 -0.000929683 0.000214164
1.78044e-05 0.000214164 -0.00254941
-0.000448836 9.21888e-05 8.93832e-06
9.21888e-05 -0.000375779 2.73406e-05
8.93832e-06 2.73406e-05 -0.000533706
0.00066018 1.09326e-05 -2.13983e-06
1.09326e-05 0.000337479 8.19861e-07
-2.13983e-06 8.19861e-07 0.00011603
0.00103612 -0.00030275 1.27813e-05
-0.00030275 0.000580438 -1.06918e-05
1.27813e-05 -1.06918e-05 0.000325612
0.000503052 0.000197631 -7.71624e-07
0.000197631 8.6313e-05 3.12172e-06
-7.71624e-07 3.12172e-06 -8.92376e-05
0.000784261 0.00025878 -1.79307e-06
0.00025878 0.000361113 -1.02523e-05
-1.79307e-06 -1.02523e-05 0.000125234
0.00118625 0.000257094 -8.17086e-06
0.000257094 0.000608153 -6.19e-06
-8.17086e-06 -6.19e-06 0.000372645
0.00089888 -0.0021388 8.26341e-05
-0.0021388 -0.000179667 -3.49254e-05
8.26341e-05 -3.49254e-05 -0.000570275
-0.000442325 -0.000671328 1.21111e-05
-0.000671328 -0.000405796 -2.96123e-05
1.21111e-05 -2.96123e-05 -0.000514671
0.000130259 0.000262503 -7.92088e-06
0.000262503 9.49111e-05 -2.87229e-05
-7.92088e-06 -2.87229e-05 -0.000193522
0.00171551 -0.000489067 4.7724e-05
-0.000489067 0.00118141 -2.95187e-05
4.7724e-05 -2.95187e-05 0.000726387
0.00315822 -0.000155026 9.94011e-06
-0.000155026 0.00212147 -3.11904e-05
9.94011e-06 -3.11904e-05 0.00171291
-0.000562048 6.87668e-05 1.11116e-05
6.87668e-05 -0.000246105 3.66645e-06
1.11116e-05 3.66645e-06 -0.000508064
-0.000317981 2.63676e-05 3.05058e-06
2.63676e-05 0.00028764 1.32443e-05
3.05058e-06 1.32443e-05 -0.000309736
0.00166513 -0.00239138 -6.14848e-05
-0.00239138 0.00144201 -1.60682e-06
-6.14848e-05 -1.60682e-06 0.000277538
0.000324517 -6.23329e-05 -4.4003e-06
-6.23329e-05 0.000764916 -1.55156e-06
-4.4003e-06 -1.55156e-06 7.87631e-05
0.000100921 -0.00055586 -2.88082e-06
-0.00055586 0.000725664 3.36883e-06
-2.88082e-06 3.36883e-06 -1.71353e-05
0.000535063 0.000257877 2.48627e-05
0.000257877 0.00070303 -4.44855e-05
2.48627e-05 -4.44855e-05 0.000222123
-0.00382605 -0.000293388 -0.000174779
-0.000293388 -0.000310262 1.47943e-05
-0.000174779 1.47943e-05 -0.00149593
-0.000351648 -0.000258795 -3.28554e-05
-0.000258795 0.00108315 -1.93077e-05
-3.28554e-05 -1.93077e-05 0.000214545
-0.00393364 -0.000128562 -2.77186e-05
-0.000128562 -0.00133062 -1.29933e-05
-2.77186e-05 -1.29933e-05 -0.00211286
0.00147325 0.000733667 1.12799e-06
0.000733667 2.77927e-05 -7.002e-06
1.12799e-06 -7.002e-06 -0.00474987
-0.00153807 0.00108101 0.000212752
0.00108101 0.00469674 1.43006e-05
0.000212752 1.43006e-05 0.00133225
-0.00213729 0.000168458 0.000503124
0.000168458 0.000507827 4.9945e-05
0.000503124 4.9945e-05 -0.00503501
-0.000314458 0.00096754 9.65386e-06
0.00096754 0.000125851 2.60927e-05
9.65386e-06 2.60927e-05 -0.000660132
0.000996892 0.00172025 -8.6551e-06
0.00172025 0.00127885 -3.85448e-05
-8.6551e-06 -3.85448e-05 3.15652e-05
-0.00210454 0.000710441 -0.000259946
0.000710441 0.00286467 -7.66739e-05
-0.000259946 -7.66739e-05 -0.000716844
-0.00383603 0.00134295 0.00024922
0.00134295 0.00458492 0.000270687
0.00024922 0.000270687 -0.002024
0.00600408 0.000574909 -0.000219915
0.000574909 -0.000861035 -0.0005329
-0.000219915 -0.0005329 -0.00715736
0.00700368 0.000174091 0.000122357
0.000174091 0.000141871 1.01074e-05
0.000122357 1.01074e-05 -0.0016625
0.00841738 -0.00129318 -0.00049247
-0.00129318 -0.00131658 0.000317083
-0.00049247 0.000317083 -0.00372931
0.000689968 0.000810613 -1.24919e-05
0.000810613 0.00102203 -1.64041e-06
-1.24919e-05 -1.64041e-06 0.000205202
0.00221356 0.000566941 8.10428e-05
0.000566941 0.002659 4.88946e-05
8.10428e-05 4.88946e-05 8.20082e-05
0.00728515 -0.00216804 -0.000188592
-0.00216804 0.0043308 -3.37959e-05
-0.000188592 -3.37959e-05 0.00198797
-7.62308e-05 0.00116792 -0.000168849
0.00116792 0.00288857 -2.65955e-05
-0.000168849 -2.65955e-05 0.000383206
0.0246168 0.00747703 -0.000395904
0.00747703 0.011439 -0.00055922
-0.000395904 -0.00055922 0.00393237
0.012187 0.00387923 0.000111473
0.00387923 0.00907786 0.000472143
0.000111473 0.000472143 0.000712407
0.00747588 0.00233148 0.000102985
0.00233148 0.00802008 1.56125e-06
0.000102985 1.56125e-06 0.000216288
-0.00014071 6.71206e-05 2.9294e-05
6.71206e-05 0.00169143 -1.46509e-05
2.9294e-05 -1.46509e-05 -2.00812e-05
0.00132308 0.000151414 -0.000321844
0.000151414 0.00671077 -7.63065e-06
-0.000321844 -7.63065e-06 0.0038528
0.000615562 -0.0010539 0.000852149
-0.0010539 0.000693118 -0.000284061
0.000852149 -0.000284061 -0.00547462
0.0378221 0.0152066 -9.08875e-05
0.0152066 0.0259851 -0.000162976
-9.08875e-05 -0.000162976 0.0136656
0.0171036 0.00597522 0.000645922
0.00597522 0.00845731 0.00127943
0.000645922 0.00127943 -0.00140073
0.0116008 -0.00610387 0.000642641
-0.00610387 0.00794374 -0.000401534
0.000642641 -0.000401534 -0.00050297
0.000297184 -0.000804381 -9.89352e-05
-0.000804381 0.00358188 5.5535e-05
-9.89352e-05 5.5535e-05 0.00188094
0.00075051 0.000347755 -7.32486e-06
0.000347755 0.0010424 2.97875e-06
-7.32486e-06 2.97875e-06 0.000401536
-0.000175262 -0.000110478 -3.08658e-06
-0.000110478 0.000708558 -7.38961e-06
-3.08658e-06 -7.38961e-06 -5.98048e-05
0.000839006 -0.000766957 6.42509e-05
-0.000766957 0.000989033 -2.19526e-05
6.42509e-05 -2.19526e-05 0.000123111
0.000224634 -5.78368e-05 -2.1396e-06
-5.78368e-05 0.000355525 1.16273e-05
-2.1396e-06 1.16273e-05 6.37597e-05
-0.000396839 -8.12758e-05 1.11192e-05
-8.12758e-05 0.000319626 -1.78668e-05
1.11192e-05 -1.78668e-05 -0.000214834
0.00107475 -0.000444076 -6.58105e-06
-0.000444076 0.000960547 -1.4073e-07
-6.58105e-06 -1.4073e-07 0.000578
0.00170774 -0.000989111 3.2159e-05
-0.000989111 0.00101574 -1.63217e-05
3.2159e-05 -1.63217e-05 0.000389577
-7.47959e-05 -0.000389811 7.35923e-06
-0.000389811 -6.06757e-05 -1.84604e-06
7.35923e-06 -1.84604e-06 -0.000465299
0.00153049 -0.000824411 2.03373e-05
-0.000824411 0.000694626 -7.40246e-06
2.03373e-05 -7.40246e-06 0.000152742
0.000587953 -0.000818857 3.88132e-06
-0.000818857 0.000214298 -5.6457e-06
3.88132e-06 -5.6457e-06 -0.000708579
0.000535279 -0.000523517 -4.4287e-06
-0.000523517 3.9007e-05 5.7202e-07
-4.4287e-06 5.7202e-07 -0.000286571
0.00240544 -0.0010202 -1.82478e-06
-0.0010202 0.00101573 -2.25565e-07
-1.82478e-06 -2.25565e-07 0.000296204
0.00176787 -0.00117472 -2.09195e-05
-0.00117472 0.00046727 -1.30995e-06
-2.09195e-05 -1.30995e-06 -0.000365022
0.00274155 -0.00139302 -1.61682e-05
-0.00139302 0.000812708 -1.183e-06
-1.61682e-05 -1.183e-06 5.5151e-05
0.00236077 -0.00126792 -6.6483e-06
-0.00126792 0.000799475 -1.51038e-06
-6.6483e-06 -1.51038e-06 5.86225e-05
0.00230194 -0.00114706 -5.0195e-06
-0.00114706 0.00082914 5.80851e-07
-5.0195e-06 5.80851e-07 0.000112642
0.00153213 -0.000815469 2.75088e-06
-0.000815469 0.000504836 -6.06759e-06
2.75088e-06 -6.06759e-06 -5.49459e-05
0.00214009 -0.00101115 1.37684e-05
-0.00101115 0.000857051 -1.04272e-05
1.37684e-05 -1.04272e-05 0.000214233
0.00182758 -0.00102715 1.01879e-05
-0.00102715 0.000550229 -3.73204e-06
1.01879e-05 -3.73204e-06 -9.24815e-05
0.000735553 -0.000393261 -1.81243e-06
-0.000393261 3.43677e-05 -2.75083e-06
-1.81243e-06 -2.75083e-06 -0.000323325
0.00207995 -0.000778789 3.89854e-06
-0.000778789 0.000869922 -3.8657e-06
3.89854e-06 -3.8657e-06 0.000356779
0.000715114 -0.000799059 -5.48479e-06
-0.000799059 -4.6145e-05 -1.56946e-06
-5.48479e-06 -1.56946e-06 -0.000615672
-0.000171538 8.24709e-06 -1.03844e-06
8.24709e-06 -0.000336157 -2.85453e-06
-1.03844e-06 -2.85453e-06 -0.00066227
0.000613098 -0.000271679 8.5307e-07
-0.000271679 2.0476e-05 1.31004e-07
8.5307e-07 1.31004e-07 -0.000277558
0.000856341 -0.000460906 -9.50157e-06
-0.000460906 9.78512e-05 9.63775e-07
-9.50157e-06 9.63775e-07 -0.000257503
-0.000195572 -0.000173689 1.22555e-06
-0.000173689 -0.000338797 1.11013e-05
1.22555e-06 1.11013e-05 -0.000618312
0.000880658 -0.000268592 -1.26513e-07
-0.000268592 0.000427399 4.29555e-07
-1.26513e-07 4.29555e-07 6.50872e-05
-0.0017155 -0.000313776 -1.60157e-06
-0.000313776 -0.00116873 4.40529e-06
-1.60157e-06 4.40529e-06 -0.00154865
0.00190839 -0.000367543 -3.86202e-06
-0.000367543 0.00104932 -1.20488e-06
-3.86202e-06 -1.20488e-06 0.000739748
0.000809015 -0.000144145 -3.87421e-07
-0.000144145 0.000270785 3.43585e-07
-3.87421e-07 3.43585e-07 7.04063e-05
0.000260676 -8.3529e-06 1.11522e-06
-8.3529e-06 -0.000105753 1.55275e-05
1.11522e-06 1.55275e-05 -0.000177789
0.00135454 -0.000146161 -9.26856e-07
-0.000146161 0.000617224 -1.01588e-05
-9.26856e-07 -1.01588e-05 0.000459039
0.000391186 -1.46567e-05 -6.03869e-06
-1.46567e-05 -2.65984e-05 -7.00599e-07
-6.03869e-06 -7.00599e-07 -8.3686e-05
0.0033763 0.000104103 -5.12931e-05
0.000104103 0.00192612 6.80825e-06
-5.12931e-05 6.80825e-06 0.00192537
0.00051554 -4.79591e-05 3.41097e-06
-4.79591e-05 4.1729e-05 -1.00167e-05
3.41097e-06 -1.00167e-05 -2.0082e-06
0.00200367 6.14315e-05 3.06881e-05
6.14315e-05 0.00101573 -5.96618e-07
3.06881e-05 -5.96618e-07 0.00101427
0.00287727 4.70664e-05 4.42618e-05
4.70664e-05 0.00158625 -6.28984e-06
4.42618e-05 -6.28984e-06 0.0015959
0.00115955 0.000177812 2.73447e-06
0.000177812 0.000544787 -1.22569e-05
2.73447e-06 -1.22569e-05 0.000336376
0.000504926 8.68904e-05 3.92273e-06
8.68904e-05 8.09219e-05 -5.80576e-06
3.92273e-06 -5.80576e-06 -4.79068e-05
0.000430521 7.82093e-05 -4.86364e-07
7.82093e-05 7.80966e-05 -2.88172e-07
-4.86364e-07 -2.88172e-07 -0.000116308
0.000428795 3.10784e-05 2.38956e-07
3.10784e-05 -8.72052e-06 -8.8987e-06
2.38956e-07 -8.8987e-06 -4.42287e-05
0.000220618 5.29894e-05 -2.58881e-06
5.29894e-05 -0.00010669 -2.81871e-06
-2.58881e-06 -2.81871e-06 -0.000218687
0.000582975 9.49926e-05 -2.61331e-06
9.49926e-05 0.000177222 -2.08749e-06
-2.61331e-06 -2.08749e-06 1.13436e-06
0.00240145 -3.20221e-05 -2.44647e-05
-3.20221e-05 0.00127769 -6.20847e-06
-2.44647e-05 -6.20847e-06 0.00128979
0.000380048 2.17583e-06 1.10976e-06
2.17583e-06 -4.69604e-05 -3.60266e-07
1.10976e-06 -3.60266e-07 -7.19354e-05
9.42127e-05 2.284e-05 -2.19226e-06
2.284e-05 -0.000194145 3.25926e-06
-2.19226e-06 3.25926e-06 -0.000292088
0.00223402 -1.47705e-05 -6.28322e-06
-1.47705e-05 0.0011663 1.36234e-07
-6.28322e-06 1.36234e-07 0.00118079
0.00041019 2.57673e-06 -5.3594e-06
2.57673e-06 -3.03391e-05 5.86513e-06
-5.3594e-06 5.86513e-06 -4.91608e-05
0.00221345 1.88673e-06 1.62795e-05
1.88673e-06 0.00115349 5.84368e-06
1.62795e-05 5.84368e-06 0.00116834
0.0030955 -0.00026085 -0.00021836
-0.00026085 0.00225715 5.29451e-06
-0.00021836 5.29451e-06 -0.000440428
-0.00198872 7.98956e-05 0.000193555
7.98956e-05 0.00501501 -4.26929e-06
0.000193555 -4.26929e-06 0.00164143
-0.000348745 -0.000463813 0.000124162
-0.000463813 0.00156436 -0.000298526
0.000124162 -0.000298526 -0.00485319
-0.000590231 -4.5637e-05 4.4953e-06
-4.5637e-05 -0.000418967 -6.2322e-06
4.4953e-06 -6.2322e-06 -0.000808835
0.00516003 0.000545836 1.78092e-05
0.000545836 0.00311418 1.83702e-05
1.78092e-05 1.83702e-05 0.00282388
0.000219214 0.000153933 -6.71182e-06
0.000153933 -4.64089e-05 -7.17504e-06
-6.71182e-06 -7.17504e-06 -0.000245963
-0.000258098 7.81819e-05 8.17226e-07
7.81819e-05 -0.000332938 -3.84634e-06
8.17226e-07 -3.84634e-06 -0.000577625
-3.5965e-05 9.22122e-05 3.85497e-07
9.22122e-05 -0.000264108 -3.61317e-06
3.85497e-07 -3.61317e-06 -0.00040744
0.000830641 0.000163071 8.47283e-06
0.000163071 0.000350005 1.09554e-05
8.47283e-06 1.09554e-05 0.000133177
0.000130054 0.0001231 1.84616e-05
0.0001231 -6.10237e-05 4.164e-06
1.84616e-05 4.164e-06 -0.000186341
0.00524879 0.00209805 0.000270991
0.00209805 0.000515541 0.000242599
0.000270991 0.000242599 -0.00234327
0.00814657 -0.000437506 -0.000147859
-0.000437506 0.000733199 3.81933e-05
-0.000147859 3.81933e-05 -0.00245462
0.00608243 -0.00104595 0.000526642
-0.00104595 0.00537894 -0.00013292
0.000526642 -0.00013292 0.00201216
0.0112123 0.000168201 -4.14018e-05
0.000168201 -0.00386176 0.000213129
-4.14018e-05 0.000213129 -0.00322969
0.00686861 -0.00622833 -0.000164956
-0.00622833 0.00064792 3.52443e-05
-0.000164956 3.52443e-05 0.00143377
-0.000131877 -0.00700321 -0.000489459
-0.00700321 0.00229348 0.000196649
-0.000489459 0.000196649 -0.00489017
0.0260062 0.00460561 0.000329342
0.00460561 0.01032 -0.000316348
0.000329342 -0.000316348 0.00306617
0.0031119 -0.00536565 -0.000106504
-0.00536565 0.00106071 6.54673e-05
-0.000106504 6.54673e-05 0.000924533
8.51063e-05 -0.00193755 -0.00011845
-0.00193755 0.00616162 7.35671e-05
-0.00011845 7.35671e-05 -0.00280027
0.0154667 0.000252951 0.000404121
0.000252951 0.00594841 -4.19082e-05
0.000404121 -4.19082e-05 0.000116164
0.0199811 -0.00198763 -7.40204e-05
-0.00198763 0.00340196 2.60614e-07
-7.40204e-05 2.60614e-07 0.00264407
-0.00598723 -0.000692745 -0.000231451
-0.000692745 -0.000566963 0.000248695
-0.000231451 0.000248695 -0.00145376
0.000709853 0.000663036 -0.000243066
0.000663036 0.00603701 -0.000215611
-0.000243066 -0.000215611 -0.00293202
0.0107367 -0.00633706 -6.17151e-05
-0.00633706 0.00370205 -0.000270336
-6.17151e-05 -0.000270336 -0.00484061
0.0216589 -0.00267462 0.000580118
-0.00267462 0.0101606 -0.000804072
0.000580118 -0.000804072 0.00500405
0.000297479 7.51204e-05 3.83543e-05
7.51204e-05 0.000525132 -1.16194e-05
3.83543e-05 -1.16194e-05 2.72587e-05
0.000573321 0.000207751 -1.81453e-06
0.000207751 0.000301328 -4.12988e-06
-1.81453e-06 -4.12988e-06 0.000121455
0.00046622 -1.28815e-05 7.4371e-07
-1.28815e-05 0.000231938 -1.11791e-05
7.4371e-07 -1.11791e-05 -2.70423e-06
0.000958176 0.000183498 -6.67104e-06
0.000183498 0.000408545 -1.50873e-05
-6.67104e-06 -1.50873e-05 0.000214513
0.000683293 -0.0021384 7.16491e-05
-0.0021384 0.000848868 2.51692e-05
7.16491e-05 2.51692e-05 -0.000313803
0.000727988 -0.000554515 -8.61382e-06
-0.000554515 0.00127041 -8.87687e-06
-8.61382e-06 -8.87687e-06 0.000395481
0.000277825 8.65766e-05 -4.01372e-05
8.65766e-05 0.000252227 -7.8811e-06
-4.01372e-05 -7.8811e-06 1.32422e-05
0.0012378 -0.000296537 1.86468e-05
-0.000296537 0.00100856 -5.211e-05
1.86468e-05 -5.211e-05 0.000584869
0.000154524 -6.22399e-05 -1.62367e-05
-6.22399e-05 0.000721473 1.12925e-05
-1.62367e-05 1.12925e-05 0.000118375
0.000155011 0.000149142 -4.88383e-07
0.000149142 0.000365931 1.16444e-05
-4.88383e-07 1.16444e-05 -4.61985e-05
0.00106993 -0.000165889 1.91556e-06
-0.000165889 0.00129471 -2.23343e-07
1.91556e-06 -2.23343e-07 0.000658193
0.000646253 -0.00134515 4.93114e-05
-0.00134515 0.00191206 -1.69549e-05
4.93114e-05 -1.69549e-05 7.43663e-05
0.000480672 -0.000166939 -8.70006e-06
-0.000166939 0.00154826 -1.82929e-05
-8.70006e-06 -1.82929e-05 0.000750397
0.000494244 0.000142629 1.44528e-05
0.000142629 0.000574073 -2.21008e-05
1.44528e-05 -2.21008e-05 0.000178242
-0.00156028 6.73081e-05 -0.00025616
6.73081e-05 0.002403 4.25358e-06
-0.00025616 4.25358e-06 -0.000138741
0.000943684 0.000530975 1.71271e-05
0.000530975 0.00145495 -7.40558e-06
1.71271e-05 -7.40558e-06 0.000748971
-0.00405071 -0.00021761 -6.79414e-05
-0.00021761 0.00468313 -0.000120155
-6.79414e-05 -0.000120155 0.00161892
0.0026918 0.000207427 4.33975e-05
0.000207427 0.00154592 2.32373e-05
4.33975e-05 2.32373e-05 -0.00164525
-0.00452718 0.00179656 -0.000134279
0.00179656 0.0040604 -0.000109908
-0.000134279 -0.000109908 0.000156928
0.000632513 0.00062713 -1.16769e-05
0.00062713 0.00113664 1.80764e-06
-1.16769e-05 1.80764e-06 0.000443406
-0.00130306 0.00146829 0.000313092
0.00146829 0.00139038 0.000121576
0.000313092 0.000121576 -9.03362e-05
0.001105 6.00921e-05 0.000105683
6.00921e-05 0.0029965 -1.25472e-05
0.000105683 -1.25472e-05 0.000630999
0.00610444 -0.00196261 0.000418055
-0.00196261 0.00660069 -0.000241144
0.000418055 -0.000241144 -0.00354713
0.0274768 0.00432858 -0.00042401
0.00432858 0.0106799 0.000299084
-0.00042401 0.000299084 0.00260586
0.00334827 -0.00101459 -0.000513702
-0.00101459 0.00368054 5.69548e-05
-0.000513702 5.69548e-05 0.000598805
0.0175114 0.00622274 -0.000470072
0.00622274 0.0129791 -0.000341202
-0.000470072 -0.000341202 0.00685366
0.000687433 0.000253751 -6.28404e-05
0.000253751 0.0019081 5.55745e-06
-6.28404e-05 5.55745e-06 0.000250714
-0.000839193 -0.000757546 -0.00017594
-0.000757546 0.00489398 4.59592e-06
-0.00017594 4.59592e-06 0.00229151
0.00189678 -0.00239031 0.00030058
-0.00239031 0.00247567 -6.82003e-05
0.00030058 -6.82003e-05 -0.00357879
-0.00393064 7.46199e-05 9.882e-05
7.46199e-05 0.000963394 4.57954e-05
9.882e-05 4.57954e-05 -0.000138291
0.0335112 0.0184706 0.000923963
0.0184706 0.0234565 -0.00028412
0.000923963 -0.00028412 0.010168
0.0146273 0.00368121 -0.000116139
0.00368121 0.0104449 0.000521469
-0.000116139 0.000521469 0.00124375
-0.000754181 -0.00209941 0.000353496
-0.00209941 0.00479245 -0.000231448
0.000353496 -0.000231448 -0.00461573
-0.00224835 -0.00090986 -4.12377e-05
-0.00090986 0.000739004 -5.30866e-05
-4.12377e-05 -5.30866e-05 -0.00104522
0.00187701 -0.00148788 0.000467659
-0.00148788 0.000249923 -0.000118789
0.000467659 -0.000118789 -0.00496757
0.00455644 0.00478135 -0.00272489
0.00478135 0.0138238 0.00024231
-0.00272489 0.00024231 0.00442146
0.0266056 0.0101839 -0.000547179
0.0101839 0.0121186 0.000448432
-0.000547179 0.000448432 0.0021931
0.00641667 -0.00624996 -0.000347878
-0.00624996 0.00420837 0.000178584
-0.000347878 0.000178584 0.000167166
0.00354619 -0.00326338 9.79609e-05
-0.00326338 0.00484639 4.62559e-05
9.79609e-05 4.62559e-05 0.00273762
-0.000122153 -0.000110719 1.4007e-05
-0.000110719 0.000669443 -2.07212e-05
1.4007e-05 -2.07212e-05 -0.000171863
0.000384424 -0.000588829 -8.35049e-06
-0.000588829 0.000867226 5.73983e-07
-8.35049e-06 5.73983e-07 -6.21902e-05
0.000104258 -0.00135272 4.48071e-07
-0.00135272 0.000348112 1.20848e-05
4.48071e-07 1.20848e-05 -0.000514197
-0.000992738 -0.000223126 2.60659e-06
-0.000223126 -9.60399e-05 8.43149e-06
2.60659e-06 8.43149e-06 -0.000488231
-3.80883e-05 -0.000654116 -7.05566e-06
-0.000654116 0.000214869 4.15207e-06
-7.05566e-06 4.15207e-06 -0.000340075
0.00195228 -0.00111396 3.49102e-05
-0.00111396 0.000795644 -2.13184e-05
3.49102e-05 -2.13184e-05 0.000135922
0.00604729 -0.00156004 -9.34387e-06
-0.00156004 0.00313007 8.10845e-06
-9.34387e-06 8.10845e-06 0.00247268
0.00257756 -0.0011528 1.25005e-05
-0.0011528 0.001211 -4.3586e-06
1.25005e-05 -4.3586e-06 0.000277869
0.00274619 -0.0014926 1.89756e-06
-0.0014926 0.000903136 -2.15588e-05
1.89756e-06 -2.15588e-05 -5.50405e-05
0.0022596 -0.00100087 -4.00436e-06
-0.00100087 0.000890238 -7.07924e-06
-4.00436e-06 -7.07924e-06 0.000188078
0.0023504 -0.00127206 1.07867e-06
-0.00127206 0.000775737 -2.88311e-06
1.07867e-06 -2.88311e-06 -8.37756e-05
0.00317212 -0.00151729 -8.14434e-06
-0.00151729 0.00104844 -1.1783e-05
-8.14434e-06 -1.1783e-05 0.000214436
0.00260924 -0.00105337 -2.06355e-06
-0.00105337 0.000484481 -7.08564e-06
-2.06355e-06 -7.08564e-06 -2.73031e-05
0.00324756 -0.00141976 -9.57901e-06
-0.00141976 0.00106737 -2.46132e-06
-9.57901e-06 -2.46132e-06 0.000338802
0.00304849 -0.00143576 -4.8429e-06
-0.00143576 0.000978654 -4.90585e-07
-4.8429e-06 -4.90585e-07 0.000207925
0.00251839 -0.00126846 9.75005e-06
-0.00126846 0.00091288 -8.63314e-06
9.75005e-06 -8.63314e-06 0.000191384
0.00198805 -0.00118707 3.97658e-06
-0.00118707 0.000589604 -1.25544e-06
3.97658e-06 -1.25544e-06 -0.000117361
0.00231838 -0.00114375 1.1463e-05
-0.00114375 0.000817086 -3.4467e-06
1.1463e-05 -3.4467e-06 0.000103708
0.001749 -0.000836402 1.81426e-05
-0.000836402 0.000687759 -2.33475e-06
1.81426e-05 -2.33475e-06 8.93471e-05
0.0019128 -0.000985214 -1.62128e-06
-0.000985214 0.000711004 -1.68727e-06
-1.62128e-06 -1.68727e-06 7.54725e-05
0.00178963 -0.00103564 -2.86546e-06
-0.00103564 0.000525958 6.37748e-06
-2.86546e-06 6.37748e-06 -0.000120642
0.00221087 -0.000308702 1.71008e-06
-0.000308702 0.00112917 -2.48599e-06
1.71008e-06 -2.48599e-06 0.000783812
0.00084215 -0.00030725 -7.59271e-06
-0.00030725 0.000165851 3.94318e-06
-7.59271e-06 3.94318e-06 -0.000192425
0.00286532 -0.000849467 -9.4591e-06
-0.000849467 0.00135586 -5.25156e-06
-9.4591e-06 -5.25156e-06 0.000832846
-0.000101048 -0.00015369 -9.36986e-07
-0.00015369 -0.000355865 1.75584e-06
-9.36986e-07 1.75584e-06 -0.000646087
0.000406936 -0.000119877 -9.95443e-07
-0.000119877 1.19722e-05 1.17659e-06
-9.95443e-07 1.17659e-06 -0.000310311
0.000524172 -0.000140885 5.95301e-06
-0.000140885 1.84959e-05 2.62406e-06
5.95301e-06 2.62406e-06 -0.000311073
0.000275222 -7.84972e-05 -1.55233e-05
-7.84972e-05 -0.000117652 2.10506e-05
-1.55233e-05 2.10506e-05 -0.000204613
0.000919367 -0.000180822 1.46693e-06
-0.000180822 0.000342876 9.78221e-07
1.46693e-06 9.78221e-07 8.43898e-05
0.00191172 -0.000406039 -3.41004e-06
-0.000406039 0.00107032 -3.44034e-07
-3.41004e-06 -3.44034e-07 0.000711295
0.00120705 -0.000157039 -1.38845e-06
-0.000157039 0.000517832 -1.0599e-05
-1.38845e-06 -1.0599e-05 0.00031968
0.000398701 -3.81502e-05 -1.21571e-07
-3.81502e-05 -2.90505e-05 -4.33231e-07
-1.21571e-07 -4.33231e-07 -9.75315e-05
0.0037368 0.000140845 -5.60963e-05
0.000140845 0.00217501 7.55421e-06
-5.60963e-05 7.55421e-06 0.00216471
0.000409081 -4.55112e-05 4.73607e-06
-4.55112e-05 -2.28239e-05 -1.28591e-05
4.73607e-06 -1.28591e-05 -7.57195e-05
0.00336392 0.00010399 9.2351e-06
0.00010399 0.00191802 9.81579e-07
9.2351e-06 9.81579e-07 0.00191716
0.00296768 6.95279e-05 4.94672e-05
6.95279e-05 0.00164759 -6.48411e-06
4.94672e-05 -6.48411e-06 0.00165458
0.00361598 0.000129728 1.26837e-05
0.000129728 0.00230619 -6.21044e-06
1.26837e-05 -6.21044e-06 0.00186691
0.00261098 0.000240132 1.23812e-05
0.000240132 0.00164009 -2.55113e-05
1.23812e-05 -2.55113e-05 0.00127844
0.000604873 9.01217e-05 5.83628e-06
9.01217e-05 0.000140243 -9.48121e-06
5.83628e-06 -9.48121e-06 -3.92049e-06
0.000708316 0.000178671 3.38091e-07
0.000178671 0.00027199 1.63917e-06
3.38091e-07 1.63917e-06 5.1791e-05
0.000446512 -2.14324e-05 6.42706e-06
-2.14324e-05 6.37671e-06 -1.05866e-05
6.42706e-06 -1.05866e-05 -3.6396e-05
0.00058755 9.34859e-05 -1.68145e-07
9.34859e-05 0.000139044 -2.85662e-07
-1.68145e-07 -2.85662e-07 9.05681e-06
0.000753575 9.96691e-05 -7.34405e-06
9.96691e-05 0.000283957 -2.29315e-06
-7.34405e-06 -2.29315e-06 9.16069e-05
0.00272803 -5.03004e-05 -3.4617e-05
-5.03004e-05 0.00149612 -6.81968e-06
-3.4617e-05 -6.81968e-06 0.00150468
0.000424989 3.15342e-06 -2.54501e-06
3.15342e-06 -1.17681e-05 -3.37613e-07
-2.54501e-06 -3.37613e-07 -4.58553e-05
0.00055706 8.33066e-05 -6.13599e-06
8.33066e-05 0.000118646 2.92146e-06
-6.13599e-06 2.92146e-06 4.06975e-06
0.00242471 -3.34024e-05 -5.94852e-06
-3.34024e-05 0.00129303 3.48672e-07
-5.94852e-06 3.48672e-07 0.00130498
0.000419662 8.51782e-07 -4.82862e-06
8.51782e-07 -2.28931e-05 6.45431e-06
-4.82862e-06 6.45431e-06 -4.68722e-05
0.0022559 -1.48178e-05 1.92369e-05
-1.48178e-05 0.00118042 5.8455e-06
1.92369e-05 5.8455e-06 0.00119479
-0.00215654 0.00124374 -5.31048e-05
0.00124374 0.00329729 -0.000157284
-5.31048e-05 -0.000157284 -0.000237493
0.00491359 -0.000432182 -4.20201e-05
-0.000432182 0.00346463 -7.88983e-05
-4.20201e-05 -7.88983e-05 0.000976569
0.000322106 -0.00054328 8.37248e-05
-0.00054328 0.00500354 -8.20256e-05
8.37248e-05 -8.20256e-05 0.00209851
0.00047568 3.7052e-07 2.48356e-06
3.7052e-07 0.000369022 -8.83597e-06
2.48356e-06 -8.83597e-06 -0.000120785
3.37045e-05 0.000328582 1.30269e-05
0.000328582 -9.62042e-05 -9.61357e-06
1.30269e-05 -9.61357e-06 -0.000367371
-0.00228291 9.79598e-05 3.58306e-05
9.79598e-05 -0.00181055 -2.55966e-05
3.58306e-05 -2.55966e-05 -0.00196219
-0.00289921 -3.47153e-05 -3.06287e-06
-3.47153e-05 -0.00170551 2.97697e-05
-3.06287e-06 2.97697e-05 -0.00219722
0.00207195 0.00051372 1.17694e-05
0.00051372 0.00111262 -5.12005e-06
1.17694e-05 -5.12005e-06 0.000783816
0.000407835 7.1518e-05 -8.2774e-06
7.1518e-05 9.58621e-05 1.42001e-06
-8.2774e-06 1.42001e-06 -0.000167234
0.000109763 0.000112101 -1.33287e-05
0.000112101 -0.000135395 -1.35316e-05
-1.33287e-05 -1.35316e-05 -0.000283638
0.00122951 -5.4548e-06 8.49327e-06
-5.4548e-06 0.000602658 2.35678e-06
8.49327e-06 2.35678e-06 0.000386756
0.000881729 0.000187707 -4.19337e-06
0.000187707 0.000408046 -7.95009e-06
-4.19337e-06 -7.95009e-06 0.000295206
0.00264468 0.00021268 -2.65488e-06
0.00021268 0.00176312 -1.88565e-05
-2.65488e-06 -1.88565e-05 0.0013808
0.0103972 0.0034208 0.000929449
0.0034208 0.00661679 0.000632454
0.000929449 0.000632454 0.00122337
0.00460826 0.00170566 2.62676e-05
0.00170566 0.00184518 7.59632e-05
2.62676e-05 7.59632e-05 -0.0013617
0.00832269 -0.000377938 0.000196746
-0.000377938 0.000444402 9.71488e-07
0.000196746 9.71488e-07 -0.00177898
0.0152833 -0.000629054 -0.000286111
-0.000629054 0.00249517 -0.000134855
-0.000286111 -0.000134855 0.00367513
0.00533616 0.00080079 0.000168891
0.00080079 -0.000499567 0.000485108
0.000168891 0.000485108 -0.00690298
0.00329315 -0.00537497 -0.000125928
-0.00537497 0.00179635 3.36001e-05
-0.000125928 3.36001e-05 0.00129486
0.00407433 -0.00245901 -0.00045592
-0.00245901 0.00601685 0.000139889
-0.00045592 0.000139889 -0.000710126
-0.00100682 -0.00198237 -0.000116105
-0.00198237 0.00121115 0.000150126
-0.000116105 0.000150126 -1.26666e-05
0.0123862 -0.000349935 -0.000397202
-0.000349935 0.00918224 -2.74243e-06
-0.000397202 -2.74243e-06 0.00101519
0.00994389 -0.00342966 0.000183003
-0.00342966 0.00644124 0.000286505
0.000183003 0.000286505 -0.00145841
0.0294574 -0.00628734 0.000262001
-0.00628734 0.0107657 -0.00101396
0.000262001 -0.00101396 0.00285533
-0.00135033 0.000490957 -0.000245634
0.000490957 0.00257053 0.000139004
-0.000245634 0.000139004 0.000266348
0.00486144 0.00223104 -0.000359173
0.00223104 0.00714729 -0.000133888
-0.000359173 -0.000133888 5.99882e-05
0.0305217 -0.0109667 0.000812904
-0.0109667 0.017822 -0.00116295
0.000812904 -0.00116295 0.00664209
0.0347039 -0.0167369 0.000102295
-0.0167369 0.0217003 -6.87734e-05
0.000102295 -6.87734e-05 0.00920374
0.000332116 0.000444536 4.26508e-05
0.000444536 0.000390189 1.88784e-05
4.26508e-05 1.88784e-05 -0.000146702
-0.000230795 7.37692e-05 1.41399e-05
7.37692e-05 0.000281595 3.95339e-06
1.41399e-05 3.95339e-06 -0.000285743
0.000961745 0.000190088 -3.23497e-05
0.000190088 0.000550511 -1.52176e-05
-3.23497e-05 -1.52176e-05 0.000362436
0.00249417 -0.00175276 8.99876e-05
-0.00175276 0.00265757 1.04523e-06
8.99876e-05 1.04523e-06 0.000394305
-0.00157589 -0.000185423 0.000128639
-0.000185423 0.000622616 1.65098e-05
0.000128639 1.65098e-05 -0.000302346
-2.53325e-05 0.000143738 -2.13604e-05
0.000143738 0.000225323 1.70591e-05
-2.13604e-05 1.70591e-05 -0.000172969
-0.000228997 -0.00027058 6.82114e-06
-0.00027058 0.000689216 -1.36206e-07
6.82114e-06 -1.36206e-07 -0.00013287
-0.000271374 0.000195974 -1.11475e-05
0.000195974 0.000160841 2.75909e-06
-1.11475e-05 2.75909e-06 -0.000249595
-0.000386659 0.000389406 3.08135e-05
0.000389406 0.000506119 7.68937e-06
3.08135e-05 7.68937e-06 -0.000226597
-0.00298526 0.000113526 0.000197081
0.000113526 0.00151174 -9.8153e-05
0.000197081 -9.8153e-05 -0.000814232
0.00203502 0.00104546 6.54592e-05
0.00104546 0.00110934 6.12474e-05
6.54592e-05 6.12474e-05 0.000537964
0.00148045 0.00125275 -0.000119326
0.00125275 0.00206256 -0.000140235
-0.000119326 -0.000140235 1.69548e-05
-5.82056e-05 -0.000668704 0.000342194
-0.000668704 0.00165407 0.000131637
0.000342194 0.000131637 -0.00408836
-0.00346125 0.000760832 -0.00022462
0.000760832 0.00451735 -9.75007e-06
-0.00022462 -9.75007e-06 0.000630783
0.00551027 -0.000581201 -0.000156439
-0.000581201 0.00362329 8.06127e-06
-0.000156439 8.06127e-06 0.00206884
0.000603033 0.000743539 8.03154e-05
0.000743539 0.00150145 2.49152e-05
8.03154e-05 2.49152e-05 -0.000240278
-9.47517e-07 0.000408754 -8.7838e-05
0.000408754 0.0032774 0.000118099
-8.7838e-05 0.000118099 0.000988669
-0.00147826 -0.000192906 -5.45635e-05
-0.000192906 0.00379457 -8.33422e-05
-5.45635e-05 -8.33422e-05 0.000696865
0.014133 -0.00657966 0.00046998
-0.00657966 0.00975629 -0.000291955
0.00046998 -0.000291955 0.000526214
0.0306146 0.00916421 -0.000846089
0.00916421 0.01748 -0.00038018
-0.000846089 -0.00038018 0.00618703
0.00723142 -0.00316977 -0.000580475
-0.00316977 0.00407356 0.000363268
-0.000580475 0.000363268 -0.000893349
0.0265197 0.0221695 0.00294324
0.0221695 0.0192798 -0.00182514
0.00294324 -0.00182514 0.00548533
-0.000325233 -0.000873203 3.6069e-05
-0.000873203 0.00157457 -7.95622e-06
3.6069e-05 -7.95622e-06 -0.000267095
0.000303412 -0.000998552 0.000106121
-0.000998552 0.00128986 5.60578e-06
0.000106121 5.60578e-06 -0.00454128
0.00847104 0.0054299 -0.00169493
0.0054299 0.0131114 0.000155608
-0.00169493 0.000155608 0.00323496
0.000154852 -0.00191347 5.46855e-05
-0.00191347 0.00235034 3.27768e-05
5.46855e-05 3.27768e-05 0.000798134
0.0297296 0.0101101 0.000569685
0.0101101 0.013415 0.000267502
0.000569685 0.000267502 0.00342014
0.00523673 -0.00904923 0.000462887
-0.00904923 0.00307906 -0.00013541
0.000462887 -0.00013541 -0.00205994
-0.00061457 -0.00236095 2.74346e-05
-0.00236095 0.000628706 5.21896e-05
2.74346e-05 5.21896e-05 -0.00106724
-5.72536e-05 -0.00137263 0.00021052
-0.00137263 0.0107348 -0.000139537
0.00021052 -0.000139537 0.00443291
0.0230032 0.0109781 -0.00249206
0.0109781 0.0105463 0.00025838
-0.00249206 0.00025838 0.0021725
0.00376766 -0.00798616 -0.000950407
-0.00798616 -0.0033409 0.000275415
-0.000950407 0.000275415 -0.00417813
-0.000633018 -0.00337022 0.000223491
-0.00337022 -5.22185e-05 -0.000185607
0.000223491 -0.000185607 0.000724209
0.00132905 -0.00067668 -0.000118191
-0.00067668 0.00125381 4.56706e-05
-0.000118191 4.56706e-05 0.00034794
6.09938e-05 -0.00109772 -1.5183e-05
-0.00109772 0.000430867 1.27097e-05
-1.5183e-05 1.27097e-05 -0.000413705
1.38284e-05 -0.00112915 3.87933e-06
-0.00112915 -0.000163846 -2.07322e-05
3.87933e-06 -2.07322e-05 -0.000824391
-0.00186877 -0.00031626 1.38552e-05
-0.00031626 -0.000617624 4.50819e-06
1.38552e-05 4.50819e-06 -0.00111123
0.000616617 -0.00093905 5.33743e-06
-0.00093905 0.00010362 -3.17384e-06
5.33743e-06 -3.17384e-06 -0.000499389
0.0032632 -0.00161283 2.88243e-06
-0.00161283 0.000910067 -9.6274e-06
2.88243e-06 -9.6274e-06 0.000299101
0.00488648 -0.00153364 -3.18383e-05
-0.00153364 0.00239074 8.81798e-06
-3.18383e-05 8.81798e-06 0.00143954
0.00227411 -0.00138135 -3.86721e-06
-0.00138135 0.000631085 -1.55011e-06
-3.86721e-06 -1.55011e-06 -0.000276588
0.00332358 -0.00165499 4.79011e-06
-0.00165499 0.000877418 -1.04175e-05
4.79011e-06 -1.04175e-05 0.000125127
0.00324121 -0.00141016 1.04183e-05
-0.00141016 0.00126044 4.25204e-06
1.04183e-05 4.25204e-06 0.000370557
0.00287379 -0.00145964 3.69082e-06
-0.00145964 0.000883712 -3.82592e-06
3.69082e-06 -3.82592e-06 7.673e-05
0.0029712 -0.001155 -9.08117e-07
-0.001155 0.000646793 -6.81711e-06
-9.08117e-07 -6.81711e-06 0.00012829
0.00217193 -0.00068628 -2.5646e-07
-0.00068628 5.87965e-05 -2.23409e-06
-2.5646e-07 -2.23409e-06 -0.000195727
0.00221739 -0.00101687 6.36838e-07
-0.00101687 0.000183184 -4.35316e-06
6.36838e-07 -4.35316e-06 -0.000318434
0.0025908 -0.00106547 4.07923e-06
-0.00106547 0.000450492 -1.83511e-06
4.07923e-06 -1.83511e-06 -6.41468e-05
0.00308586 -0.0012696 -1.07428e-06
-0.0012696 0.00102581 -4.09893e-06
-1.07428e-06 -4.09893e-06 0.000368366
0.00317981 -0.0014135 -4.69619e-06
-0.0014135 0.00103232 -4.94214e-07
-4.69619e-06 -4.94214e-07 0.000298692
0.00297066 -0.00142642 1.13879e-05
-0.00142642 0.000926771 -3.07663e-06
1.13879e-05 -3.07663e-06 0.000154102
0.00234995 -0.00113884 7.10893e-06
-0.00113884 0.000845121 -1.24585e-05
7.10893e-06 -1.24585e-05 0.000154688
0.00219329 -0.00122085 1.6941e-06
-0.00122085 0.000735095 -9.51615e-07
1.6941e-06 -9.51615e-07 2.60717e-05
0.00166863 -0.00112103 4.56591e-06
-0.00112103 0.000411122 2.18525e-06
4.56591e-06 2.18525e-06 -0.000266892
0.00382398 -0.000717182 6.26838e-06
-0.000717182 0.00210664 8.79176e-06
6.26838e-06 8.79176e-06 0.00164311
0.000979135 -0.000737981 1.29076e-06
-0.000737981 0.0002401 4.2014e-06
1.29076e-06 4.2014e-06 -0.000330463
0.00180542 -0.000965868 -1.2198e-05
-0.000965868 0.000636195 1.0676e-05
-1.2198e-05 1.0676e-05 9.17042e-06
0.000686271 -0.000286407 1.41915e-06
-0.000286407 0.000107304 -5.64269e-06
1.41915e-06 -5.64269e-06 -0.000160721
0.000541214 -0.000249297 -5.23463e-07
-0.000249297 8.64556e-05 -5.44491e-06
-5.23463e-07 -5.44491e-06 -0.000257507
0.00124384 -0.000217304 -2.18184e-06
-0.000217304 0.000459241 -1.13795e-06
-2.18184e-06 -1.13795e-06 0.000107395
0.00265416 -9.1209e-05 -9.52643e-05
-9.1209e-05 0.0014099 1.36842e-05
-9.52643e-05 1.36842e-05 0.00132986
0.000318042 -0.000157843 -1.14149e-06
-0.000157843 -8.81986e-05 1.62526e-06
-1.14149e-06 1.62526e-06 -0.000372485
0.00148114 -0.000244938 -3.08903e-06
-0.000244938 0.000695289 1.75753e-06
-3.08903e-06 1.75753e-06 0.000363276
0.00123461 1.60927e-05 -9.12064e-05
1.60927e-05 0.000522097 9.87416e-06
-9.12064e-05 9.87416e-06 0.000500991
0.00122345 -6.13385e-05 -2.77255e-05
-6.13385e-05 0.000510984 -9.77056e-07
-2.77255e-05 -9.77056e-07 0.000417693
0.00175633 -0.000204786 9.70625e-07
-0.000204786 0.000855045 -9.48369e-06
9.70625e-07 -9.48369e-06 0.000612317
0.000650944 -5.80439e-05 1.1092e-05
-5.80439e-05 0.00012624 -1.49589e-05
1.1092e-05 -1.49589e-05 5.69862e-05
0.00386559 0.00013124 1.28172e-05
0.00013124 0.00225768 1.02616e-06
1.28172e-05 1.02616e-06 0.00225027
0.00359317 0.000100067 6.61825e-05
0.000100067 0.00206784 -7.06944e-06
6.61825e-05 -7.06944e-06 0.00206791
-0.0013844 9.9029e-05 2.25075e-06
9.9029e-05 -0.00109891 1.42573e-05
2.25075e-06 1.42573e-05 -0.00140156
0.00252228 0.000319822 6.58727e-06
0.000319822 0.00159968 -2.1296e-05
6.58727e-06 -2.1296e-05 0.00117293
-0.000912165 7.63909e-05 5.13556e-06
7.63909e-05 -0.000573796 -1.06813e-06
5.13556e-06 -1.06813e-06 -0.00100004
0.000789544 0.000123379 2.17631e-07
0.000123379 0.000265698 -1.18198e-05
2.17631e-07 -1.18198e-05 8.81375e-05
0.000553932 0.000179047 5.29641e-06
0.000179047 0.000249284 -9.67215e-07
5.29641e-06 -9.67215e-07 -6.40605e-05
0.00033401 1.72844e-05 -2.22028e-06
1.72844e-05 -5.23556e-05 -1.40028e-05
-2.22028e-06 -1.40028e-05 -0.000106975
0.000516127 9.18453e-05 3.08649e-07
9.18453e-05 9.2102e-05 1.64305e-07
3.08649e-07 1.64305e-07 -5.76696e-05
0.000793087 0.000101854 -5.43223e-06
0.000101854 0.000353959 9.40217e-06
-5.43223e-06 9.40217e-06 0.000118718
0.00300894 -7.02291e-05 -4.59856e-05
-7.02291e-05 0.00168663 -7.0893e-06
-4.59856e-05 -7.0893e-06 0.00169177
0.000360881 1.20149e-05 -8.77255e-07
1.20149e-05 -4.58836e-05 3.33684e-08
-8.77255e-07 3.33684e-08 -8.9549e-05
0.000419927 9.2867e-05 -3.50136e-06
9.2867e-05 3.08129e-05 6.58245e-06
-3.50136e-06 6.58245e-06 -9.70405e-05
0.00263154 -5.35325e-05 -8.55698e-06
-5.35325e-05 0.00143286 5.65658e-07
-8.55698e-06 5.65658e-07 0.00144104
0.000288998 -2.07611e-05 -8.60361e-06
-2.07611e-05 -0.000100432 8.06611e-06
-8.60361e-06 8.06611e-06 -0.000133314
0.00233393 -3.16052e-05 2.37832e-05
-3.16052e-05 0.0012331 6.00498e-06
2.37832e-05 6.00498e-06 0.00124584
0.00676933 0.00173312 0.000679058
0.00173312 0.00571939 0.000167355
0.000679058 0.000167355 0.00158567
-0.00204411 0.00114926 -2.79442e-05
0.00114926 0.00282089 -1.38072e-05
-2.79442e-05 -1.38072e-05 -0.00099453
0.000570383 0.00143844 -4.33044e-06
0.00143844 0.00355871 -2.55487e-05
-4.33044e-06 -2.55487e-05 0.000286245
0.000181268 0.000417166 -1.5481e-05
0.000417166 -0.000133596 9.36392e-06
-1.5481e-05 9.36392e-06 -0.000497849
-0.000871493 3.04905e-05 -1.68781e-05
3.04905e-05 -0.000585683 3.11589e-05
-1.68781e-05 3.11589e-05 -0.0010125
-0.00049824 0.000122799 -2.42494e-05
0.000122799 -0.000453253 -1.54766e-05
-2.42494e-05 -1.54766e-05 -0.000638101
0.00193193 0.000167542 1.08204e-05
0.000167542 0.00116569 8.34733e-08
1.08204e-05 8.34733e-08 0.000837013
0.000889475 0.000334531 1.2515e-06
0.000334531 0.000176433 -1.07043e-05
1.2515e-06 -1.07043e-05 -1.19331e-05
0.00173165 0.000519977 -2.2026e-05
0.000519977 0.000897938 -8.36839e-06
-2.2026e-05 -8.36839e-06 0.000690519
0.00161396 0.000502549 2.51088e-05
0.000502549 0.000709594 -3.5984e-05
2.51088e-05 -3.5984e-05 0.000325055
-0.0023489 0.000157317 -2.0875e-05
0.000157317 -0.00114793 5.82911e-06
-2.0875e-05 5.82911e-06 -0.00158301
-0.000822998 -9.47869e-08 -4.94674e-06
-9.47869e-08 -0.000633898 -1.63829e-05
-4.94674e-06 -1.63829e-05 -0.000877648
-0.000760098 4.83785e-05 -1.39048e-05
4.83785e-05 -0.000727165 -9.20505e-06
-1.39048e-05 -9.20505e-06 -0.000769035
-0.000692287 5.95795e-05 -8.24452e-06
5.95795e-05 -0.000268951 2.83616e-06
-8.24452e-06 2.83616e-06 -0.000665221
-8.71892e-05 0.000392409 -4.28146e-06
0.000392409 0.000249714 2.0861e-05
-4.28146e-06 2.0861e-05 -0.000431748
0.0120277 -0.00951418 -0.000214149
-0.00951418 0.0132042 0.000207925
-0.000214149 0.000207925 0.000945362
0.0104187 0.00394725 0.00031177
0.00394725 0.00471106 0.000209827
0.00031177 0.000209827 -0.00156976
0.00491766 0.000995013 0.000109443
0.000995013 0.00280984 -6.72426e-05
0.000109443 -6.72426e-05 -0.000783334
0.0418262 -0.0103414 -0.00154712
-0.0103414 0.0150754 -0.000503634
-0.00154712 -0.000503634 0.00567692
0.00626585 -0.00131343 0.000338879
-0.00131343 0.00565918 0.000637726
0.000338879 0.000637726 -0.000153167
0.00138151 -0.000737266 -0.000236739
-0.000737266 0.00599148 0.000192981
-0.000236739 0.000192981 -0.00303146
-7.61139e-05 -0.00253032 -8.92842e-06
-0.00253032 0.00232159 9.84836e-05
-8.92842e-06 9.84836e-05 0.000234363
-0.00103499 -0.000218713 0.000204711
-0.000218713 0.00237716 3.80912e-05
0.000204711 3.80912e-05 0.000731026
0.0329057 -0.0194013 0.000474344
-0.0194013 0.0210475 0.000562093
0.000474344 0.000562093 0.00763471
0.00384449 0.00275447 -0.000245043
0.00275447 0.00634237 -0.00015027
-0.000245043 -0.00015027 -0.00182425
0.0140026 -0.00601496 -0.000156802
-0.00601496 0.0115719 0.000201586
-0.000156802 0.000201586 0.000546524
-0.000508655 0.00130004 9.56914e-06
0.00130004 0.00186413 -2.7335e-06
9.56914e-06 -2.7335e-06 0.000512329
0.00579558 0.00684789 -0.000275054
0.00684789 0.00312523 4.70406e-06
-0.000275054 4.70406e-06 -0.00128677
0.0277918 -0.00966442 -0.00120906
-0.00966442 0.0126201 -0.000284212
-0.00120906 -0.000284212 0.00220418
0.00164777 0.000982247 2.04089e-05
0.000982247 0.000669504 3.14321e-05
2.04089e-05 3.14321e-05 0.000386738
0.000653903 0.000442544 7.22628e-06
0.000442544 0.000632865 3.43122e-06
7.22628e-06 3.43122e-06 3.05672e-05
-0.000680009 3.80727e-05 -4.96028e-05
3.80727e-05 2.47297e-05 5.84579e-06
-4.96028e-05 5.84579e-06 -0.000568153
-0.00186472 -0.000300348 -0.000132597
-0.000300348 0.00201735 -2.49833e-05
-0.000132597 -2.49833e-05 -0.000137279
0.00180264 0.000513375 -5.33423e-05
0.000513375 0.00119727 -2.57818e-06
-5.33423e-05 -2.57818e-06 0.000648088
6.62561e-07 0.000272444 -1.09679e-05
0.000272444 0.000309134 1.06267e-05
-1.09679e-05 1.06267e-05 -0.000145676
0.00152551 0.000952863 4.60539e-06
0.000952863 0.000812102 -8.74474e-07
4.60539e-06 -8.74474e-07 0.000266267
-1.68185e-05 0.00110862 -1.90844e-05
0.00110862 0.00135374 -5.90929e-05
-1.90844e-05 -5.90929e-05 -0.000433199
0.00283464 0.00283564 0.000121164
0.00283564 0.00128208 3.87836e-05
0.000121164 3.87836e-05 -0.000286488
-0.00685632 0.001168 0.000647046
0.001168 0.00665717 -5.33765e-05
0.000647046 -5.33765e-05 -0.00297387
0.00169468 -0.000939161 -4.34703e-05
-0.000939161 0.00270952 0.000103358
-4.34703e-05 0.000103358 -0.00130783
-0.00290996 0.000193698 -5.62595e-05
0.000193698 0.00360917 0.000122588
-5.62595e-05 0.000122588 -0.000102422
-0.00155935 -0.000525917 -6.13005e-05
-0.000525917 0.000902803 1.14109e-05
-6.13005e-05 1.14109e-05 -0.000951791
-0.0017111 -0.00126274 -4.60741e-05
-0.00126274 0.00080789 2.82882e-05
-4.60741e-05 2.82882e-05 0.000357177
-0.00225208 -0.00153106 -0.000303109
-0.00153106 0.00151203 0.000209015
-0.000303109 0.000209015 -0.00466031
-0.00161824 -0.00691865 0.000374532
-0.00691865 0.00303983 -0.000230332
0.000374532 -0.000230332 -0.00481891
0.0211564 0.0081619 0.00104776
0.0081619 0.00789262 -0.000339686
0.00104776 -0.000339686 -0.00147568
0.023286 0.0107288 -0.000381225
0.0107288 0.0154413 0.000628251
-0.000381225 0.000628251 0.00327821
0.000530012 -0.00176524 -4.79731e-05
-0.00176524 0.00181303 1.36026e-05
-4.79731e-05 1.36026e-05 0.000211377
0.00643074 0.00289634 0.000426989
0.00289634 0.0132222 -7.75247e-05
0.000426989 -7.75247e-05 0.00460716
0.00865011 0.00747755 4.79005e-05
0.00747755 0.00388385 0.000117716
4.79005e-05 0.000117716 -0.00273476
0.00237192 -0.00537553 7.73319e-05
-0.00537553 0.00101292 -6.02439e-05
7.73319e-05 -6.02439e-05 0.000779263
0.0123132 -0.00859998 4.26125e-07
-0.00859998 -0.000666613 1.99532e-05
4.26125e-07 1.99532e-05 -0.00157313
0.00286488 -0.00293865 2.9554e-05
-0.00293865 0.00135061 1.37909e-05
2.9554e-05 1.37909e-05 0.000546262
-0.00353685 0.00380132 -0.0015077
0.00380132 0.000938711 0.000169109
-0.0015077 0.000169109 -0.00613497
0.0156727 -0.00555579 -0.000422353
-0.00555579 -0.00176683 7.9488e-05
-0.000422353 7.9488e-05 -0.00122363
0.00481899 -0.00528458 0.000121117
-0.00528458 -0.000496015 -0.000100084
0.000121117 -0.000100084 0.00112825
0.000460318 -0.000890145 -5.0808e-06
-0.000890145 0.00078258 -3.86553e-06
-5.0808e-06 -3.86553e-06 -8.27354e-05
0.00225304 -0.00166664 3.53283e-05
-0.00166664 0.000833787 -1.49912e-05
3.53283e-05 -1.49912e-05 0.000169113
0.00200195 -0.00138069 4.00004e-06
-0.00138069 0.000243941 -1.2539e-05
4.00004e-06 -1.2539e-05 -0.000264804
-0.000362345 -0.000830673 -1.66143e-06
-0.000830673 -0.000413783 1.10386e-05
-1.66143e-06 1.10386e-05 -0.000971765
0.00227512 -0.00151316 -6.85627e-06
-0.00151316 0.000399551 3.79164e-07
-6.85627e-06 3.79164e-07 -0.000207753
0.00361775 -0.00164053 1.27911e-06
-0.00164053 0.00086085 -4.23147e-06
1.27911e-06 -4.23147e-06 0.000290185
0.00167175 -0.00125621 -4.61455e-06
-0.00125621 0.000281141 1.06544e-05
-4.61455e-06 1.06544e-05 -0.000578707
0.00292177 -0.00159277 -7.28389e-07
-0.00159277 0.000666255 3.98799e-06
-7.28389e-07 3.98799e-06 -7.68654e-05
0.00299173 -0.00123312 1.2009e-06
-0.00123312 0.000442785 -3.10351e-06
1.2009e-06 -3.10351e-06 3.17919e-05
0.00238008 -0.00137764 9.77397e-06
-0.00137764 0.00060645 5.31856e-06
9.77397e-06 5.31856e-06 -0.000169526
0.00254598 -0.00109067 -2.37615e-06
-0.00109067 0.000402294 2.80596e-06
-2.37615e-06 2.80596e-06 -9.46754e-05
0.00244482 -0.000772021 1.70688e-06
-0.000772021 0.000100212 -9.6303e-07
1.70688e-06 -9.6303e-07 -0.000106969
0.00246976 -0.000725312 -1.9793e-06
-0.000725312 0.000236169 3.72547e-07
-1.9793e-06 3.72547e-07 5.10313e-05
0.00198273 -0.000678825 -3.33966e-06
-0.000678825 -2.52239e-05 -1.82867e-06
-3.33966e-06 -1.82867e-06 -0.000301093
0.00214953 -0.000680028 1.02737e-06
-0.000680028 3.04075e-05 3.00026e-06
1.02737e-06 3.00026e-06 -0.000219979
0.00207119 -0.000881224 -3.65104e-06
-0.000881224 0.00015915 -5.86668e-06
-3.65104e-06 -5.86668e-06 -0.000281965
0.00235286 -0.0010187 3.95393e-06
-0.0010187 0.000296117 6.32437e-07
3.95393e-06 6.32437e-07 -0.000200174
0.0025399 -0.0010659 3.26361e-06
-0.0010659 0.000407814 5.20635e-06
3.26361e-06 5.20635e-06 -0.000105456
0.00243893 -0.00111166 -1.37547e-06
-0.00111166 0.000650078 -6.83498e-06
-1.37547e-06 -6.83498e-06 3.00166e-05
0.0027823 -0.00123992 1.42671e-06
-0.00123992 0.000833266 -9.45424e-07
1.42671e-06 -9.45424e-07 0.000178907
0.00317476 -0.00141103 2.52139e-06
-0.00141103 0.00103836 1.94195e-07
2.52139e-06 1.94195e-07 0.000299088
0.00205242 -0.000826769 -7.25905e-06
-0.000826769 0.00068951 -2.05064e-06
-7.25905e-06 -2.05064e-06 0.000137964
0.00234729 -0.00112494 1.20969e-06
-0.00112494 0.000852098 6.58798e-08
1.20969e-06 6.58798e-08 0.000168407
0.0018347 -0.00116811 -2.46799e-07
-0.00116811 0.000540478 5.21276e-06
-2.46799e-07 5.21276e-06 -0.000155186
0.000437175 -0.000378032 -1.36003e-05
-0.000378032 -0.000170409 -1.04567e-06
-1.36003e-05 -1.04567e-06 -0.000397614
0.00140831 -0.000670061 2.83145e-06
-0.000670061 0.000541483 2.8016e-07
2.83145e-06 2.8016e-07 9.55352e-05
-8.88041e-05 -0.000623343 -7.84973e-06
-0.000623343 -0.000385312 1.0378e-05
-7.84973e-06 1.0378e-05 -0.000931046
0.0004009 -0.000146387 -2.75426e-05
-0.000146387 -8.25961e-05 1.31237e-05
-2.75426e-05 1.31237e-05 -0.000197574
0.00085504 -0.000391073 4.45616e-06
-0.000391073 0.000267614 -1.56116e-07
4.45616e-06 -1.56116e-07 -3.87809e-05
-0.00159307 -0.000222931 -7.71141e-07
-0.000222931 -0.00129149 -4.49267e-06
-7.71141e-07 -4.49267e-06 -0.00161293
0.00591858 0.000395404 3.90766e-05
0.000395404 0.00370497 1.36882e-05
3.90766e-05 1.36882e-05 0.00361421
0.000419145 -0.000134144 5.23575e-06
-0.000134144 -5.81378e-05 1.83424e-06
5.23575e-06 1.83424e-06 -0.000170371
0.0010129 -0.000139571 -2.80814e-06
-0.000139571 0.00033105 -8.91908e-08
-2.80814e-06 -8.91908e-08 6.33075e-05
0.00420858 0.000153961 1.77875e-05
0.000153961 0.00249475 8.84198e-07
1.77875e-05 8.84198e-07 0.00248066
0.00056409 -8.1705e-05 9.80751e-06
-8.1705e-05 7.73625e-05 -1.71995e-05
9.80751e-06 -1.71995e-05 -3.20297e-05
0.00379522 0.000116847 7.82193e-05
0.000116847 0.00220659 -9.25855e-06
7.82193e-05 -9.25855e-06 0.00220253
0.00233221 0.000479947 -7.06527e-08
0.000479947 0.00109416 9.62495e-06
-7.06527e-08 9.62495e-06 0.000772342
-0.000120896 0.000197879 3.70874e-06
0.000197879 -0.000330846 1.99581e-06
3.70874e-06 1.99581e-06 -0.000633607
0.00162743 0.000741866 -6.73792e-06
0.000741866 0.000933088 -4.20494e-06
-6.73792e-06 -4.20494e-06 0.00051672
0.00150732 0.000272249 -2.8879e-06
0.000272249 0.000713084 -1.29911e-05
-2.8879e-06 -1.29911e-05 0.00050291
0.00124442 0.000183807 -3.90638e-07
0.000183807 0.000801239 5.59675e-07
-3.90638e-07 5.59675e-07 0.0003506
-0.000940725 9.46929e-05 -2.10253e-06
9.46929e-05 -0.000541664 5.47071e-06
-2.10253e-06 5.47071e-06 -0.00099558
0.000554777 1.44261e-05 -4.97056e-06
1.44261e-05 9.79952e-05 -1.58922e-05
-4.97056e-06 -1.58922e-05 3.00287e-05
0.00060086 0.000104812 7.52988e-07
0.000104812 0.000143439 7.25076e-07
7.52988e-07 7.25076e-07 -2.68192e-05
-0.000701772 5.31436e-05 -8.0419e-06
5.31436e-05 -0.000615093 2.59969e-05
-8.0419e-06 2.59969e-05 -0.000893746
0.00340333 -9.06817e-05 -6.25316e-05
-9.06817e-05 0.00195411 -8.01632e-06
-6.25316e-05 -8.01632e-06 0.00195561
0.000400837 -3.11823e-05 1.51434e-06
-3.11823e-05 -7.25364e-06 -5.28467e-07
1.51434e-06 -5.28467e-07 -6.24844e-05
0.000623267 7.33723e-05 -4.7564e-06
7.33723e-05 0.000173091 9.58532e-06
-4.7564e-06 9.58532e-06 1.86273e-05
0.00297284 -7.48668e-05 -1.00945e-05
-7.48668e-05 0.00166386 8.05075e-07
-1.00945e-05 8.05075e-07 0.00166757
0.000395209 2.86483e-05 -4.58295e-07
2.86483e-05 -2.48568e-05 1.01984e-05
-4.58295e-07 1.01984e-05 -6.71327e-05
0.00258434 -5.4326e-05 2.4491e-05
-5.4326e-05 0.00140188 6.34181e-06
2.4491e-05 6.34181e-06 0.00141012
-0.00418023 -0.000133695 -0.000539971
-0.000133695 0.0066488 8.54756e-05
-0.000539971 8.54756e-05 -0.00269644
0.0067108 0.00150444 9.13955e-05
0.00150444 0.00475949 4.438e-06
9.13955e-05 4.438e-06 0.000879073
-0.000961564 0.00123741 0.000253825
0.00123741 0.00281367 0.000113183
0.000253825 0.000113183 -0.00111733
0.000183802 0.000342794 -1.37874e-05
0.000342794 -8.45345e-05 1.23098e-05
-1.37874e-05 1.23098e-05 -0.000518153
0.0054757 0.00137207 2.68853e-05
0.00137207 0.00309119 3.66196e-05
2.68853e-05 3.66196e-05 0.00241023
0.000809335 0.000347863 -1.52144e-05
0.000347863 0.00069581 6.64201e-06
-1.52144e-05 6.64201e-06 2.26153e-05
0.00103355 0.000252429 -1.60511e-05
0.000252429 0.000640093 -1.43702e-05
-1.60511e-05 -1.43702e-05 0.000288415
0.00380082 0.00059413 -7.43356e-06
0.00059413 0.00197781 -8.33529e-06
-7.43356e-06 -8.33529e-06 0.00173474
-0.00214169 0.000103337 -9.82595e-06
0.000103337 -0.0015353 1.82307e-05
-9.82595e-06 1.82307e-05 -0.00157157
-0.000300825 0.000350551 -2.69112e-07
0.000350551 -5.92981e-05 1.05601e-05
-2.69112e-07 1.05601e-05 -0.000450454
0.000564176 0.0002898 -1.74778e-05
0.0002898 0.000236419 -5.19527e-06
-1.74778e-05 -5.19527e-06 -0.000180184
0.00105262 0.000969174 -1.84857e-05
0.000969174 0.000623333 -1.10709e-05
-1.84857e-05 -1.10709e-05 -3.93062e-05
-0.00161829 0.000708782 -4.78716e-05
0.000708782 -0.00126121 7.65688e-05
-4.78716e-05 7.65688e-05 -0.00151596
-0.000181251 3.98769e-05 -1.60687e-05
3.98769e-05 -4.87527e-05 1.04645e-05
-1.60687e-05 1.04645e-05 -0.000392539
0.00193351 0.000671619 2.47247e-05
0.000671619 0.00134195 -3.90196e-06
2.47247e-05 -3.90196e-06 0.000746751
0.00716179 -0.00581882 -0.00341257
-0.00581882 0.00472148 -5.27837e-06
-0.00341257 -5.27837e-06 -0.00343275
0.00553896 -0.00747416 0.00109538
-0.00747416 0.0138604 4.72482e-05
0.00109538 4.72482e-05 0.002872
0.0107983 0.0046252 -0.00126368
0.0046252 0.00402181 -0.000372271
-0.00126368 -0.000372271 -0.00302914
0.0275762 -0.0218762 0.00300338
-0.0218762 0.0201034 0.00176925
0.00300338 0.00176925 0.00603199
0.032571 -0.00573426 -0.000221836
-0.00573426 0.0146729 0.000598
-0.000221836 0.000598 0.00562495
-0.00157847 0.00191873 -0.00017054
0.00191873 0.00446524 -0.000243087
-0.00017054 -0.000243087 -0.00266071
-0.000645604 -7.54536e-07 -0.000189931
-7.54536e-07 0.00362103 2.13547e-05
-0.000189931 2.13547e-05 0.0012284
0.000474241 0.00143335 7.8586e-05
0.00143335 0.0026819 6.06193e-05
7.8586e-05 6.06193e-05 0.00138163
0.0297116 -0.00856292 -0.001012
-0.00856292 0.0140685 0.000200061
-0.001012 0.000200061 0.00395668
-0.00117911 0.00669617 -0.000360255
0.00669617 0.00124064 -4.55061e-05
-0.000360255 -4.55061e-05 -0.00386406
0.00308589 0.00427965 5.36487e-05
0.00427965 0.00139812 -0.00010877
5.36487e-05 -0.00010877 0.00168166
0.00752167 0.0112693 -0.00109337
0.0112693 -0.00270358 -0.000106902
-0.00109337 -0.000106902 -0.00374677
0.0045494 0.00198706 4.26507e-05
0.00198706 0.00197138 3.15603e-06
4.26507e-05 3.15603e-06 0.00133435
0.00155808 0.000938462 -7.55601e-06
0.000938462 0.000556194 -5.4839e-06
-7.55601e-06 -5.4839e-06 0.00032109
-0.000162307 0.000343163 -4.67654e-05
0.000343163 0.00016671 -1.53372e-05
-4.67654e-05 -1.53372e-05 -0.000445879
-0.000387575 0.00110799 -0.000162059
0.00110799 0.00131898 -8.17077e-05
-0.000162059 -8.17077e-05 -0.000246515
0.000596893 0.000913957 -7.58994e-05
0.000913957 0.000285997 -6.2829e-05
-7.58994e-05 -6.2829e-05 -0.000206396
0.00310123 0.00288334 3.56094e-06
0.00288334 0.00126029 -1.43032e-05
3.56094e-06 -1.43032e-05 -0.000222732
-0.0014019 0.00284853 0.000153972
0.00284853 -0.00219045 9.64624e-05
0.000153972 9.64624e-05 -0.0027402
-0.00693263 -0.000820213 -0.00130144
-0.000820213 -0.000653251 7.37412e-05
-0.00130144 7.37412e-05 -0.00549649
-0.0105224 0.000546511 0.000907127
0.000546511 0.0071121 -9.77442e-06
0.000907127 -9.77442e-06 -0.000673216
0.00192075 0.000390561 -0.000262848
0.000390561 0.00260565 3.99621e-05
-0.000262848 3.99621e-05 -0.00015071
0.00112432 -0.00197182 -0.000103883
-0.00197182 0.00152634 -6.87681e-05
-0.000103883 -6.87681e-05 -4.69592e-05
6.94e-05 -0.00429202 0.00022718
-0.00429202 0.000445888 2.73251e-05
0.00022718 2.73251e-05 6.72761e-05
0.00328384 0.00305499 0.000634749
0.00305499 0.0124717 0.000160342
0.000634749 0.000160342 0.00369104
0.00595532 -0.00852319 0.00111998
-0.00852319 -0.00342878 -0.000123117
0.00111998 -0.000123117 -0.00302021
0.0242655 0.00729952 0.00214994
0.00729952 0.0137909 9.59843e-05
0.00214994 9.59843e-05 0.00613278
0.00301234 -0.00359068 -2.33113e-05
-0.00359068 0.00109394 -3.23954e-06
-2.33113e-05 -3.23954e-06 -7.19394e-05
0.00692617 0.00466165 0.00053633
0.00466165 0.00443547 -0.00016196
0.00053633 -0.00016196 -0.00221353
0.00814022 -0.00537642 -0.000318187
-0.00537642 -0.00649391 0.000224632
-0.000318187 0.000224632 -0.0059274
0.00271133 -0.00470404 -4.11863e-05
-0.00470404 -0.00155933 5.19453e-05
-4.11863e-05 5.19453e-05 0.000638243
0.00232458 -0.00265719 4.15337e-05
-0.00265719 -0.000351937 -1.79763e-05
4.15337e-05 -1.79763e-05 -0.000407762
0.0194535 -0.00144837 -0.000137903
-0.00144837 0.00107401 0.000138806
-0.000137903 0.000138806 0.00158937
0.00318678 -0.00342758 0.000140393
-0.00342758 -0.00469243 -0.000155936
0.000140393 -0.000155936 -0.00126313
0.0027497 -0.00191721 -7.45783e-05
-0.00191721 0.000990167 4.82571e-05
-7.45783e-05 4.82571e-05 0.000401839
0.000594893 -0.00117216 -1.57743e-05
-0.00117216 -0.000504843 1.73563e-06
-1.57743e-05 1.73563e-06 -0.000844797
0.005393 -0.00162324 5.16861e-05
-0.00162324 0.00170362 -2.65392e-05
5.16861e-05 -2.65392e-05 0.0013624
0.00111581 -0.00137136 -1.1683e-05
-0.00137136 -0.000188493 8.16719e-06
-1.1683e-05 8.16719e-06 -0.000781321
0.00303913 -0.00155659 9.22519e-07
-0.00155659 0.000577778 -1.33162e-06
9.22519e-07 -1.33162e-06 3.24965e-05
0.00325214 -0.001237 1.09421e-06
-0.001237 0.000396227 -2.34857e-06
1.09421e-06 -2.34857e-06 0.000198749
0.00251622 -0.0015264 7.94493e-06
-0.0015264 0.000455035 1.15577e-05
7.94493e-06 1.15577e-05 -0.00027583
0.00277647 -0.0011948 -4.25538e-06
-0.0011948 0.000322328 1.8226e-06
-4.25538e-06 1.8226e-06 -6.82372e-05
0.00259878 -0.000829196 1.15649e-06
-0.000829196 5.56645e-06 9.24049e-08
1.15649e-06 9.24049e-08 -4.12638e-05
0.00220592 -0.00104213 6.61843e-06
-0.00104213 0.000201125 7.08549e-06
6.61843e-06 7.08549e-06 -0.000279175
0.0023539 -0.000756411 -1.71791e-07
-0.000756411 4.06946e-05 2.34708e-06
-1.71791e-07 2.34708e-06 -0.000154815
0.00251993 -0.00079962 -8.60924e-07
-0.00079962 8.71881e-05 1.38657e-06
-8.60924e-07 1.38657e-06 -1.11523e-05
0.00244281 -0.0007675 -3.33583e-06
-0.0007675 0.000129386 2.28519e-07
-3.33583e-06 2.28519e-07 -1.52703e-05
0.00242591 -0.000724073 -3.65961e-06
-0.000724073 0.000193935 2.15471e-06
-3.65961e-06 2.15471e-06 1.77116e-05
0.00244068 -0.000698231 -1.73477e-07
-0.000698231 0.000297634 -1.95422e-06
-1.73477e-07 -1.95422e-06 8.20587e-05
0.00241191 -0.000735649 -5.5545e-06
-0.000735649 0.000295399 -3.22244e-06
-5.5545e-06 -3.22244e-06 -9.24019e-06
0.00224509 -0.000695859 1.33282e-06
-0.000695859 0.000156857 1.47679e-06
1.33282e-06 1.47679e-06 -0.000121806
0.00211532 -0.00067619 1.99156e-06
-0.00067619 -1.29197e-05 7.80678e-06
1.99156e-06 7.80678e-06 -0.000259813
0.00234121 -0.000882639 -6.12192e-06
-0.000882639 0.000377748 -7.30474e-06
-6.12192e-06 -7.30474e-06 -6.97776e-05
0.00202163 -0.000890279 -5.45963e-07
-0.000890279 0.000110016 9.65945e-08
-5.45963e-07 9.65945e-08 -0.000336783
0.00250442 -0.00102708 7.77439e-06
-0.00102708 0.000411813 5.74579e-06
7.77439e-06 5.74579e-06 -8.14158e-05
0.00186183 -0.000924784 -7.81597e-06
-0.000924784 0.000329162 -6.5377e-06
-7.81597e-06 -6.5377e-06 -0.000240619
0.00260743 -0.00113755 -4.2388e-07
-0.00113755 0.00073489 6.57442e-07
-4.2388e-07 6.57442e-07 0.000107792
0.00252718 -0.00121806 3.87843e-06
-0.00121806 0.000667307 3.7056e-06
3.87843e-06 3.7056e-06 1.40624e-05
0.000809681 -0.000334868 -8.91602e-06
-0.000334868 -4.69023e-06 8.26588e-06
-8.91602e-06 8.26588e-06 -0.000291129
0.00171778 -0.000795645 5.81364e-07
-0.000795645 0.000462688 2.51479e-06
5.81364e-07 2.51479e-06 -7.88499e-05
0.00220312 -0.00109524 -2.03453e-06
-0.00109524 0.000765651 1.04923e-05
-2.03453e-06 1.04923e-05 9.26615e-05
0.000405452 -0.000205199 -2.07044e-05
-0.000205199 -8.97726e-05 2.25624e-05
-2.07044e-05 2.25624e-05 -0.00024746
0.00105137 -0.000402293 -8.48519e-06
-0.000402293 0.000278377 1.56595e-06
-8.48519e-06 1.56595e-06 3.90091e-06
-0.00144842 -0.000567564 4.31757e-07
-0.000567564 -0.00129281 -3.16548e-07
4.31757e-07 -3.16548e-07 -0.00172304
0.00575669 0.000177069 -0.000164834
0.000177069 0.00352018 1.31963e-05
-0.000164834 1.31963e-05 0.00350015
0.000661379 -0.000171478 -3.90025e-06
-0.000171478 7.45764e-05 -1.78773e-06
-3.90025e-06 -1.78773e-06 -4.52726e-05
0.000538082 -0.000371667 1.45229e-05
-0.000371667 0.000107751 -1.60504e-06
1.45229e-05 -1.60504e-06 -0.000220779
0.00341273 0.000147918 8.80054e-05
0.000147918 0.00199051 -5.32387e-07
8.80054e-05 -5.32387e-07 0.00194603
0.000227929 -0.000147144 2.72782e-05
-0.000147144 -0.000182661 -1.3916e-05
2.72782e-05 -1.3916e-05 -0.000300169
0.00501279 0.000125301 0.000152552
0.000125301 0.00302007 -1.27517e-05
0.000152552 -1.27517e-05 0.00301336
0.00200055 0.000618565 -7.99876e-06
0.000618565 0.000780688 9.46487e-06
-7.99876e-06 9.46487e-06 0.000334484
0.000766788 0.000324941 -4.72907e-06
0.000324941 0.000159407 6.0899e-07
-4.72907e-06 6.0899e-07 -0.000145162
0.00010048 0.000209465 7.19903e-06
0.000209465 -0.000249347 4.96995e-06
7.19903e-06 4.96995e-06 -0.00053319
0.00210443 0.00041271 2.58825e-06
0.00041271 0.00111654 -6.10076e-06
2.58825e-06 -6.10076e-06 0.000776798
0.00117869 0.000166093 -3.8669e-07
0.000166093 0.000617551 1.25057e-07
-3.8669e-07 1.25057e-07 0.000243066
0.00132038 0.000157943 8.56783e-07
0.000157943 0.000660284 -1.83619e-05
8.56783e-07 -1.83619e-05 0.000365741
0.000735893 0.000104604 -1.61628e-05
0.000104604 0.000198307 -2.04193e-05
-1.61628e-05 -2.04193e-05 0.000117251
0.000696997 0.000148075 -1.61322e-06
0.000148075 0.000241451 4.501e-07
-1.61322e-06 4.501e-07 9.22864e-06
-0.00221369 -4.89215e-05 -1.49403e-05
-4.89215e-05 -0.00145786 2.52675e-05
-1.49403e-05 2.52675e-05 -0.00187068
0.00353471 -9.94341e-05 -8.17679e-05
-9.94341e-05 0.00204858 -1.05819e-05
-8.17679e-05 -1.05819e-05 0.00204891
0.000216194 5.36188e-05 7.09702e-07
5.36188e-05 -0.000121233 -3.25687e-07
7.09702e-07 -3.25687e-07 -0.000186414
0.000649509 0.000137032 -3.50166e-06
0.000137032 0.000182449 1.13306e-05
-3.50166e-06 1.13306e-05 1.17601e-05
0.00321157 -9.56155e-05 -1.10524e-05
-9.56155e-05 0.00182991 9.63472e-07
-1.10524e-05 9.63472e-07 0.00182933
0.0001726 -3.45586e-06 5.70678e-07
-3.45586e-06 -0.000152417 1.25848e-05
5.70678e-07 1.25848e-05 -0.000207587
0.00285542 -7.67154e-05 3.13022e-05
-7.67154e-05 0.00158666 7.07546e-06
3.13022e-05 7.07546e-06 0.00158975
0.00286131 -0.00167309 -0.00210668
-0.00167309 0.00456208 -2.78195e-05
-0.00210668 -2.78195e-05 0.00139197
-0.00226974 -0.00143643 -8.99149e-05
-0.00143643 0.00835595 -6.60493e-05
-8.99149e-05 -6.60493e-05 -0.0015246
0.00708842 0.00100211 -0.000648917
0.00100211 0.00442533 -0.000169578
-0.000648917 -0.000169578 0.000739919
0.000396485 0.000224806 -3.06855e-06
0.000224806 4.97052e-05 7.08854e-06
-3.06855e-06 7.08854e-06 -0.000379383
0.000759698 0.000278818 1.48286e-05
0.000278818 0.000518914 3.8612e-06
1.48286e-05 3.8612e-06 -0.000126444
0.00293135 0.00101971 -6.49402e-06
0.00101971 0.00148909 5.59857e-07
-6.49402e-06 5.59857e-07 0.000848121
0.00271219 0.00123457 2.46682e-05
0.00123457 0.00117576 1.9246e-05
2.46682e-05 1.9246e-05 0.000422348
0.00154228 0.000949133 -5.46682e-06
0.000949133 0.000987512 2.04089e-05
-5.46682e-06 2.04089e-05 0.000308443
0.00243423 0.000433795 8.34205e-07
0.000433795 0.00153746 7.17441e-07
8.34205e-07 7.17441e-07 0.00122076
0.00140591 0.000416423 1.57583e-05
0.000416423 0.000880921 1.28252e-05
1.57583e-05 1.28252e-05 0.000414985
0.00189628 0.000923631 -6.42397e-06
0.000923631 0.00112773 5.19624e-07
-6.42397e-06 5.19624e-07 0.000482625
0.00179183 0.00129056 -2.59332e-06
0.00129056 0.000519871 6.36003e-06
-2.59332e-06 6.36003e-06 -4.36095e-05
0.00316641 0.00138403 5.72261e-06
0.00138403 0.00126235 5.30294e-05
5.72261e-06 5.30294e-05 0.00092577
0.00216821 0.00168815 4.7496e-05
0.00168815 0.000308998 -7.20183e-06
4.7496e-05 -7.20183e-06 -8.0126e-05
0.00141455 0.00105051 1.54297e-05
0.00105051 0.000506419 7.63083e-06
1.54297e-05 7.63083e-06 0.000109164
0.00247087 0.00089902 -1.0831e-06
0.00089902 0.00165026 3.60659e-06
-1.0831e-06 3.60659e-06 0.000944947
0.0179116 0.00601198 -0.000168972
0.00601198 0.000401699 7.50454e-05
-0.000168972 7.50454e-05 0.00107507
0.0117489 -0.00476741 -0.000943956
-0.00476741 0.00701556 -0.00025009
-0.000943956 -0.00025009 0.00109536
0.00613166 -0.00886017 0.00182688
-0.00886017 0.0152637 0.00019942
0.00182688 0.00019942 0.00447515
0.0217994 -0.00495276 0.000794681
-0.00495276 0.00928851 0.000176281
0.000794681 0.000176281 0.000339187
0.0106167 0.00880672 -0.000245095
0.00880672 0.00460574 -9.61095e-05
-0.000245095 -9.61095e-05 3.3041e-05
-0.00161554 0.0011929 -8.70657e-06
0.0011929 0.00188022 1.8364e-05
-8.70657e-06 1.8364e-05 0.000469691
0.00180814 0.00382623 -0.000144532
0.00382623 0.000709259 -7.25172e-05
-0.000144532 -7.25172e-05 0.00142307
0.011409 0.00944452 4.86844e-05
0.00944452 -0.000456865 7.11523e-05
4.86844e-05 7.11523e-05 -0.00221706
0.00807018 0.00675573 -0.000209492
0.00675573 -0.00077888 -0.000157195
-0.000209492 -0.000157195 0.000505901
0.00144689 0.00184212 2.4022e-05
0.00184212 3.90422e-05 -2.34175e-05
2.4022e-05 -2.34175e-05 -0.000412464
0.00164038 0.00145943 1.7461e-05
0.00145943 0.000490868 2.19499e-06
1.7461e-05 2.19499e-06 1.80815e-05
0.00147705 0.000860799 -3.27661e-05
0.000860799 0.000584915 -3.45919e-05
-3.27661e-05 -3.45919e-05 0.000387796
0.0017375 0.00274509 -9.61555e-05
0.00274509 0.0003704 -5.36497e-05
-9.61555e-05 -5.36497e-05 -0.0010065
0.00207767 0.00326165 0.000125545
0.00326165 -0.000553092 6.80578e-05
0.000125545 6.80578e-05 -0.00141898
0.00690265 -0.000445146 -9.46772e-05
-0.000445146 -0.00596748 2.33711e-05
-9.46772e-05 2.33711e-05 -0.00663862
-0.000322351 -0.00278174 -9.23616e-06
-0.00278174 0.00475309 0.000102958
-9.23616e-06 0.000102958 0.000933853
-0.0142927 -0.000305315 0.000982821
-0.000305315 0.00828923 8.9713e-06
0.000982821 8.9713e-06 0.00244926
0.00268325 -0.0042488 -0.000135943
-0.0042488 0.000460582 7.73388e-05
-0.000135943 7.73388e-05 -0.000983927
0.00680473 -0.00625567 1.29754e-05
-0.00625567 -0.000595752 0.000106103
1.29754e-05 0.000106103 0.00101888
0.00769836 0.00189057 0.00213565
0.00189057 0.00655843 -0.000401764
0.00213565 -0.000401764 0.00284085
0.0143928 -0.00514552 -0.000456535
-0.00514552 -0.00228208 0.000320535
-0.000456535 0.000320535 -0.000557005
0.00233859 -0.0026766 -2.68351e-05
-0.0026766 -0.000364694 1.23211e-05
-2.68351e-05 1.23211e-05 -0.000567155
0.0131995 -0.000905374 -0.000392864
-0.000905374 -0.0034533 0.000128265
-0.000392864 0.000128265 -0.0030294
0.00755236 -0.00400559 0.000110211
-0.00400559 -0.00198513 2.95398e-06
0.000110211 2.95398e-06 0.000533873
0.0030948 -0.00208341 4.93746e-05
-0.00208341 -0.000954688 -6.15727e-05
4.93746e-05 -6.15727e-05 -0.000448865
0.00338201 -0.0016021 0.000101059
-0.0016021 -0.00387147 -2.30896e-05
0.000101059 -2.30896e-05 -0.000560875
-0.000260985 -0.00108293 -8.52848e-06
-0.00108293 -0.00102864 2.015e-05
-8.52848e-06 2.015e-05 -0.00123973
0.00173111 -0.00120592 -2.56069e-05
-0.00120592 -0.000413152 6.86215e-06
-2.56069e-05 6.86215e-06 -0.000416906
0.00427488 -0.0011913 4.67978e-05
-0.0011913 0.000777654 -2.31282e-05
4.67978e-05 -2.31282e-05 0.000894334
0.00237895 -0.00145974 -9.36455e-06
-0.00145974 0.000252562 9.94531e-06
-9.36455e-06 9.94531e-06 -0.000261131
0.0029378 -0.00121923 -4.33973e-06
-0.00121923 0.000215455 1.80851e-06
-4.33973e-06 1.80851e-06 1.73271e-05
0.00295204 -0.000927097 5.17986e-06
-0.000927097 1.39373e-05 -1.62816e-06
5.17986e-06 -1.62816e-06 7.63522e-05
0.0024916 -0.00114327 -1.14507e-05
-0.00114327 0.000168533 8.85329e-06
-1.14507e-05 8.85329e-06 -0.000197386
0.00249206 -0.000819827 -5.07051e-09
-0.000819827 -6.39194e-05 1.5917e-06
-5.07051e-09 1.5917e-06 -0.000108053
0.0026857 -0.00081221 -3.93911e-07
-0.00081221 2.46903e-05 -2.04532e-07
-3.93911e-07 -2.04532e-07 3.7146e-05
0.00227054 -0.000737448 5.54189e-07
-0.000737448 -8.20263e-06 4.84501e-06
5.54189e-07 4.84501e-06 -0.000190644
0.00249532 -0.000790723 -7.82094e-08
-0.000790723 8.53353e-05 7.57071e-07
-7.82094e-08 7.57071e-07 -1.4384e-05
0.00262147 -0.000791701 -1.50328e-06
-0.000791701 9.63445e-05 1.16262e-07
-1.50328e-06 1.16262e-07 1.99403e-05
0.00241929 -0.000771459 -5.15035e-06
-0.000771459 0.000108681 5.47059e-07
-5.15035e-06 5.47059e-07 -2.82197e-05
0.00238647 -0.000722794 -6.44952e-07
-0.000722794 0.000142571 -6.77151e-07
-6.44952e-07 -6.77151e-07 -1.27016e-05
0.00238724 -0.000722981 -4.77044e-07
-0.000722981 0.000158841 3.5294e-06
-4.77044e-07 3.5294e-06 -9.19036e-06
0.00243047 -0.000693783 9.62251e-07
-0.000693783 0.000290833 -5.39365e-07
9.62251e-07 -5.39365e-07 7.63541e-05
0.0023817 -0.000698705 -2.23663e-06
-0.000698705 0.000300521 -9.28552e-07
-2.23663e-06 -9.28552e-07 5.25521e-05
0.00243871 -0.000745356 -1.66104e-06
-0.000745356 0.00037826 -6.80985e-06
-1.66104e-06 -6.80985e-06 4.87739e-05
0.00248901 -0.00074479 -5.17694e-07
-0.00074479 0.000347313 1.24358e-07
-5.17694e-07 1.24358e-07 3.9484e-05
0.00251557 -0.000711677 7.20102e-06
-0.000711677 0.000348057 4.83147e-06
7.20102e-06 4.83147e-06 6.69831e-05
0.00204533 -0.000832812 -8.48406e-06
-0.000832812 0.000284477 -3.8325e-06
-8.48406e-06 -3.8325e-06 -0.000190591
0.00226105 -0.000886585 -2.74242e-06
-0.000886585 0.000310606 -1.00178e-06
-2.74242e-06 -1.00178e-06 -0.000143974
0.00193927 -0.000894634 4.54157e-06
-0.000894634 3.9942e-05 5.43292e-06
4.54157e-06 5.43292e-06 -0.000411196
0.00182762 -0.000565965 -1.57061e-05
-0.000565965 0.000545424 1.41582e-05
-1.57061e-05 1.41582e-05 0.000152629
0.00205622 -0.000940809 -1.48645e-06
-0.000940809 0.000464804 1.35559e-06
-1.48645e-06 1.35559e-06 -0.000105735
0.00270881 -0.0011532 1.85463e-06
-0.0011532 0.000778713 7.7841e-06
1.85463e-06 7.7841e-06 0.000147877
0.000518908 -0.000265481 -2.00551e-05
-0.000265481 -5.77519e-05 2.59166e-05
-2.00551e-05 2.59166e-05 -0.00024458
0.000646559 -0.000331809 2.43011e-06
-0.000331809 -0.000123243 -3.29869e-06
2.43011e-06 -3.29869e-06 -0.00041961
0.00190421 -0.000808306 8.51182e-06
-0.000808306 0.000570236 4.44954e-06
8.51182e-06 4.44954e-06 3.36645e-05
0.00630752 7.19131e-05 -0.000214278
7.19131e-05 0.00385007 1.77447e-05
-0.000214278 1.77447e-05 0.00384845
0.000414273 -0.000214869 -4.05591e-06
-0.000214869 -7.87797e-05 -4.97316e-07
-4.05591e-06 -4.97316e-07 -0.000244508
0.00191553 -0.000558709 1.06842e-05
-0.000558709 0.000915711 -3.95771e-06
1.06842e-05 -3.95771e-06 0.000575028
0.00574641 0.000150431 9.16706e-06
0.000150431 0.00351502 -3.36423e-06
9.16706e-06 -3.36423e-06 0.00349716
0.000814441 -0.000198098 2.36643e-05
-0.000198098 0.000169715 -1.81353e-05
2.36643e-05 -1.81353e-05 4.44146e-05
0.00559494 0.000192606 0.000137258
0.000192606 0.00343039 -1.81403e-05
0.000137258 -1.81403e-05 0.00340298
0.00293531 0.00113154 -7.86838e-06
0.00113154 0.0013162 1.26623e-05
-7.86838e-06 1.26623e-05 0.000612058
0.00169707 0.000674018 -1.8153e-06
0.000674018 0.000633281 1.40514e-06
-1.8153e-06 1.40514e-06 0.000141977
-0.000215187 0.000344349 2.10135e-07
0.000344349 -0.000455027 1.28989e-06
2.10135e-07 1.28989e-06 -0.000808436
-0.00127628 0.000131971 2.76653e-06
0.000131971 -0.00108008 -1.41185e-05
2.76653e-06 -1.41185e-05 -0.00137265
2.15571e-05 0.000375078 5.02975e-06
0.000375078 -0.000296734 -3.15357e-06
5.02975e-06 -3.15357e-06 -0.000576504
-0.000572422 0.000439405 -1.10972e-05
0.000439405 -0.000675166 -8.51165e-06
-1.10972e-05 -8.51165e-06 -0.000947466
-0.000522888 8.93104e-05 -8.19424e-06
8.93104e-05 -0.000464766 2.82499e-06
-8.19424e-06 2.82499e-06 -0.000857592
0.000651025 0.000267906 3.59967e-06
0.000267906 0.000213797 4.82116e-07
3.59967e-06 4.82116e-07 -7.81402e-05
0.000871008 0.000148346 -2.10382e-05
0.000148346 0.000269539 -2.33592e-05
-2.10382e-05 -2.33592e-05 0.000153627
0.00403051 -0.000120958 -0.000103087
-0.000120958 0.0023891 -1.58196e-05
-0.000103087 -1.58196e-05 0.00238319
0.000497068 6.41343e-05 4.92441e-06
6.41343e-05 5.96727e-05 -2.09222e-07
4.92441e-06 -2.09222e-07 -2.52371e-05
-0.000305649 2.24837e-05 -5.67013e-06
2.24837e-05 -0.000362809 1.4771e-05
-5.67013e-06 1.4771e-05 -0.000619576
0.00367744 -0.000124246 -1.31214e-05
-0.000124246 0.00214789 1.50043e-06
-1.31214e-05 1.50043e-06 0.00214103
0.000334981 -7.93737e-05 -1.27844e-05
-7.93737e-05 -2.5625e-05 1.68194e-05
-1.27844e-05 1.68194e-05 -0.000101184
0.0031426 -9.90644e-05 4.24402e-05
-9.90644e-05 0.00178549 7.83151e-06
4.24402e-05 7.83151e-06 0.0017835
0.0162902 0.00102512 0.000800974
0.00102512 -0.000175709 0.000169996
0.000800974 0.000169996 0.00122917
0.00309144 -0.00628749 -0.00121091
-0.00628749 0.000516993 -5.59208e-05
-0.00121091 -5.59208e-05 -0.00618026
-0.00571288 0.000954838 -0.000295208
0.000954838 0.00788121 -9.24864e-05
-0.000295208 -9.24864e-05 -0.00118448
0.000591041 0.000153017 7.64154e-06
0.000153017 0.000332465 -2.87887e-05
7.64154e-06 -2.87887e-05 -0.000325183
0.000761548 0.000746131 -6.66181e-06
0.000746131 0.000173041 -1.60463e-05
-6.66181e-06 -1.60463e-05 -0.000467681
0.00196099 0.000913724 -1.7167e-05
0.000913724 0.00108802 -1.02098e-05
-1.7167e-05 -1.02098e-05 0.000436676
0.00239428 0.00119391 1.67224e-06
0.00119391 0.00101173 -1.83585e-07
1.67224e-06 -1.83585e-07 0.000263452
0.00195608 0.00109364 2.51605e-05
0.00109364 0.000451484 2.97562e-05
2.51605e-05 2.97562e-05 -0.000169564
0.000441488 0.00107406 2.91634e-05
0.00107406 -0.00028355 1.44356e-05
2.91634e-05 1.44356e-05 -0.000823196
0.00145856 0.000801921 -1.26951e-05
0.000801921 0.000835276 -1.07942e-05
-1.26951e-05 -1.07942e-05 0.000214021
0.0016686 0.00128085 2.50972e-06
0.00128085 0.000406919 5.78259e-06
2.50972e-06 5.78259e-06 -0.000153519
0.0023209 0.0012522 2.9658e-05
0.0012522 0.000878054 4.85943e-06
2.9658e-05 4.85943e-06 0.000448917
0.00355862 0.00139067 1.4761e-05
0.00139067 0.00144811 1.17348e-05
1.4761e-05 1.17348e-05 0.000853085
0.0017659 0.00135985 1.18916e-05
0.00135985 0.000207694 7.01014e-06
1.18916e-05 7.01014e-06 -0.000130929
0.00252324 0.00166289 3.01222e-05
0.00166289 0.000570311 1.19419e-05
3.01222e-05 1.19419e-05 -4.15411e-05
0.00217207 0.00164941 1.42741e-05
0.00164941 0.000369985 1.41928e-06
1.42741e-05 1.41928e-06 -1.15798e-05
0.00300378 0.00117037 -4.08843e-05
0.00117037 0.00137986 -0.000104034
-4.08843e-05 -0.000104034 0.000953093
0.00408498 0.00325793 3.1443e-05
0.00325793 -0.00459105 6.22893e-05
3.1443e-05 6.22893e-05 -0.000673755
0.0136477 0.00690411 0.000500617
0.00690411 -0.00298381 0.000273396
0.000500617 0.000273396 -0.00242783
0.0183601 -0.00848422 0.00131939
-0.00848422 0.00967274 -0.000270339
0.00131939 -0.000270339 0.00146654
0.0061257 0.0109674 0.00124672
0.0109674 -0.00236599 0.000489464
0.00124672 0.000489464 -0.00484462
-0.000972953 0.00272587 -2.5939e-05
0.00272587 0.000137544 3.75137e-05
-2.5939e-05 3.75137e-05 0.000535159
0.00360307 0.00403389 -0.000106559
0.00403389 -0.00147977 -8.13149e-05
-0.000106559 -8.13149e-05 0.000481161
0.00733124 0.00356437 5.60482e-05
0.00356437 0.000955881 2.87215e-05
5.60482e-05 2.87215e-05 0.000795751
0.00622265 0.00275335 2.57912e-05
0.00275335 0.00218389 1.24455e-05
2.57912e-05 1.24455e-05 0.00148886
0.00122882 0.00134141 -4.4319e-05
0.00134141 0.000255093 -2.35176e-06
-4.4319e-05 -2.35176e-06 -0.000169325
0.00994771 0.00446809 -0.000215924
0.00446809 0.00314004 2.17407e-06
-0.000215924 2.17407e-06 0.00180275
0.00622545 -0.00119692 7.33291e-05
-0.00119692 -0.00217002 5.75431e-05
7.33291e-05 5.75431e-05 0.000617682
0.0132847 -0.0005134 -4.6875e-05
-0.0005134 -0.00134299 -4.97942e-05
-4.6875e-05 -4.97942e-05 0.00019687
-0.0107976 -0.00474421 0.00164419
-0.00474421 -0.0012214 -5.33668e-05
0.00164419 -5.33668e-05 -0.00670014
0.00250167 -0.00255677 -0.000142442
-0.00255677 -0.000192295 6.41655e-05
-0.000142442 6.41655e-05 -0.000302312
0.00805299 -0.00450868 -0.000106549
-0.00450868 -0.00233121 0.000163901
-0.000106549 0.000163901 0.000476465
0.00283589 -0.00061675 -0.000523055
-0.00061675 -0.00909079 1.28329e-05
-0.000523055 1.28329e-05 -0.0082155
0.00359153 -0.00198077 5.52043e-05
-0.00198077 -0.000664717 -1.19314e-06
5.52043e-05 -1.19314e-06 7.81427e-05
0.00511695 -0.00166835 -0.000103063
-0.00166835 -0.0025878 3.30756e-06
-0.000103063 3.30756e-06 1.02702e-05
0.00724337 -0.0015503 7.41055e-05
-0.0015503 0.00141174 -5.47367e-05
7.41055e-05 -5.47367e-05 0.00215837
0.00771607 -0.00105662 0.000172457
-0.00105662 0.00107712 1.3927e-05
0.000172457 1.3927e-05 0.00232282
-0.00122194 -0.000910398 2.45995e-05
-0.000910398 -0.00224845 1.24905e-05
2.45995e-05 1.24905e-05 -0.00188278
0.00243273 -0.00102022 -1.33839e-05
-0.00102022 -0.000346314 3.65698e-06
-1.33839e-05 3.65698e-06 -2.53301e-05
0.00277189 -0.000735622 3.0345e-05
-0.000735622 -0.000299656 -1.37229e-05
3.0345e-05 -1.37229e-05 9.88532e-05
0.00260853 -0.00120733 -3.69651e-06
-0.00120733 2.12234e-05 4.82659e-06
-3.69651e-06 4.82659e-06 -0.000182367
0.00292054 -0.00092396 7.21207e-07
-0.00092396 6.69269e-06 1.19061e-06
7.21207e-07 1.19061e-06 6.69619e-05
0.00282201 -0.000764815 9.79233e-08
-0.000764815 -4.45527e-05 -1.57798e-06
9.79233e-08 -1.57798e-06 1.0654e-05
0.00238623 -0.000814771 3.83479e-07
-0.000814771 -0.00013807 2.97341e-06
3.83479e-07 2.97341e-06 -0.000181588
0.00265401 -0.000809212 9.48577e-08
-0.000809212 1.85432e-05 3.38445e-07
9.48577e-08 3.38445e-07 2.00136e-05
0.00258741 -0.000681208 -1.45341e-06
-0.000681208 -1.69127e-05 -9.85367e-07
-1.45341e-06 -9.85367e-07 -2.67799e-05
0.00247123 -0.000784291 8.12348e-07
-0.000784291 7.93314e-05 7.60198e-07
8.12348e-07 7.60198e-07 -2.20533e-05
0.00262068 -0.000790006 -5.7146e-08
-0.000790006 0.000123551 -2.09263e-07
-5.7146e-08 -2.09263e-07 4.07012e-05
0.00250199 -0.000683714 1.45685e-06
-0.000683714 0.000103804 -9.12328e-07
1.45685e-06 -9.12328e-07 1.91992e-05
0.00239567 -0.000775631 -3.32001e-06
-0.000775631 8.60987e-05 6.15379e-07
-3.32001e-06 6.15379e-07 -4.28882e-05
0.00236397 -0.000725571 -1.55988e-06
-0.000725571 0.000122213 1.41608e-07
-1.55988e-06 1.41608e-07 -2.83197e-05
0.00240221 -0.000678094 -1.95259e-06
-0.000678094 0.000231615 2.7076e-07
-1.95259e-06 2.7076e-07 4.13149e-05
0.00241031 -0.00068724 2.603e-06
-0.00068724 0.000277551 1.15345e-06
2.603e-06 1.15345e-06 6.50611e-05
0.00235309 -0.00068947 1.33583e-07
-0.00068947 0.0002784 8.03345e-08
1.33583e-07 8.03345e-08 3.13124e-05
0.00240843 -0.000694959 -8.67326e-07
-0.000694959 0.000344049 -2.15144e-06
-8.67326e-07 -2.15144e-06 6.57555e-05
0.00214497 -0.000694442 -4.8445e-06
-0.000694442 0.00028931 -5.3306e-06
-4.8445e-06 -5.3306e-06 -7.27184e-05
0.00236393 -0.000745098 -8.20459e-07
-0.000745098 0.000324422 -1.69379e-06
-8.20459e-07 -1.69379e-06 -1.3068e-05
0.00257146 -0.000755236 4.03543e-06
-0.000755236 0.000403477 4.00113e-06
4.03543e-06 4.00113e-06 9.18497e-05
0.00137027 -0.000565192 -2.21831e-05
-0.000565192 9.21546e-05 4.1859e-06
-2.21831e-05 4.1859e-06 -0.000302084
0.0022747 -0.000851287 -7.64142e-07
-0.000851287 0.000449004 3.64442e-07
-7.64142e-07 3.64442e-07 -2.95345e-05
0.00222807 -0.000896021 1.34455e-06
-0.000896021 0.000274256 5.27324e-06
1.34455e-06 5.27324e-06 -0.000188899
0.000529326 -0.00028733 -2.05309e-05
-0.00028733 -8.15808e-05 2.62113e-05
-2.05309e-05 2.62113e-05 -0.000271903
0.00101529 -0.000505961 9.06092e-06
-0.000505961 4.60573e-05 1.41995e-06
9.06092e-06 1.41995e-06 -0.000342377
0.00233595 -0.000965128 6.96603e-06
-0.000965128 0.000659918 6.04396e-06
6.96603e-06 6.04396e-06 8.63574e-05
0.00825895 -2.59625e-05 -0.000322518
-2.59625e-05 0.00507491 2.91961e-05
-0.000322518 2.91961e-05 0.00508409
0.000178722 -0.000276395 3.99939e-06
-0.000276395 -0.000269871 -4.55973e-08
3.99939e-06 -4.55973e-08 -0.000458859
0.000335956 -0.000305701 -2.28536e-06
-0.000305701 -0.000327437 -8.35147e-06
-2.28536e-06 -8.35147e-06 -0.000633119
0.00712906 3.20742e-05 -1.38269e-05
3.20742e-05 0.00438488 -1.83204e-06
-1.38269e-05 -1.83204e-06 0.00438402
0.000438231 -0.000192256 1.03648e-05
-0.000192256 -6.19232e-05 -2.33754e-05
1.03648e-05 -2.33754e-05 -0.000233867
0.00577141 8.05847e-05 0.000232442
8.05847e-05 0.00353723 -3.2293e-05
0.000232442 -3.2293e-05 0.00352797
0.00227208 0.00103846 -1.7484e-05
0.00103846 0.000659983 1.52508e-05
-1.7484e-05 1.52508e-05 4.2859e-05
0.00224916 0.00103312 -1.48197e-06
0.00103312 0.000869871 -4.37499e-07
-1.48197e-06 -4.37499e-07 0.000198838
0.00122278 0.000708697 -1.13403e-05
0.000708697 0.000274059 7.9087e-06
-1.13403e-05 7.9087e-06 -0.000252225
0.000562986 0.000603683 1.35623e-05
0.000603683 -9.03943e-05 -6.87115e-06
1.35623e-05 -6.87115e-06 -0.00058427
0.00122956 0.000388656 -4.1878e-06
0.000388656 0.000358245 -3.11207e-06
-4.1878e-06 -3.11207e-06 1.04354e-05
-0.000289177 0.000249648 -6.50287e-06
0.000249648 -0.00051054 -2.20601e-06
-6.50287e-06 -2.20601e-06 -0.000824895
0.00251431 0.000265036 1.01314e-06
0.000265036 0.00128883 -4.4952e-06
1.01314e-06 -4.4952e-06 0.00102036
0.00121204 0.000222415 3.26633e-06
0.000222415 0.000498849 -1.33193e-06
3.26633e-06 -1.33193e-06 0.000209026
0.00040687 0.000207553 -3.1989e-05
0.000207553 -8.57446e-05 -2.31883e-05
-3.1989e-05 -2.31883e-05 -0.000217023
0.000513969 0.000212166 -1.08254e-07
0.000212166 0.000136816 2.02001e-05
-1.08254e-07 2.02001e-05 -0.000155441
0.000418525 0.000136688 -8.36955e-07
0.000136688 -1.35322e-05 -5.17509e-07
-8.36955e-07 -5.17509e-07 -0.000123311
0.00511719 -0.000129595 -0.000167642
-0.000129595 0.00311988 -2.33782e-05
-0.000167642 -2.33782e-05 0.00310626
0.00387861 -0.000141343 -1.3823e-05
-0.000141343 0.00229388 1.5412e-06
-1.3823e-05 1.5412e-06 0.00228196
-1.69663e-05 0.000114431 1.78722e-05
0.000114431 -0.000274146 1.93923e-05
1.78722e-05 1.93923e-05 -0.000349734
0.00346566 -0.000126952 5.23153e-05
-0.000126952 0.0020101 8.91852e-06
5.23153e-05 8.91852e-06 0.00200142
0.00140297 0.000764503 0.000151205
0.000764503 -0.00362613 3.51062e-05
0.000151205 3.51062e-05 -0.000644537
0.00501606 -0.000128962 0.000297148
-0.000128962 -0.00746942 0.000179228
0.000297148 0.000179228 -0.00767621
0.0183097 -0.00714603 -0.000379455
-0.00714603 0.0111579 -0.000145867
-0.000379455 -0.000145867 0.0037465
0.00192288 0.000925449 1.4111e-05
0.000925449 0.00019271 1.51849e-05
1.4111e-05 1.51849e-05 -0.000273008
0.00272694 0.000966984 -2.07328e-05
0.000966984 0.00139142 -1.84132e-05
-2.07328e-05 -1.84132e-05 0.000751089
0.00191652 0.00113952 -1.12581e-05
0.00113952 0.000738941 -2.36542e-05
-1.12581e-05 -2.36542e-05 -2.00146e-06
0.00171434 0.00122835 1.87899e-06
0.00122835 0.000494188 2.65025e-06
1.87899e-06 2.65025e-06 -9.92968e-05
0.00221811 0.00112672 8.38906e-07
0.00112672 0.000637991 6.08317e-06
8.38906e-07 6.08317e-06 4.11652e-06
0.00268728 0.00128493 2.33781e-05
0.00128493 0.000824523 2.06068e-05
2.33781e-05 2.06068e-05 0.00023713
0.0014173 0.00123375 -2.10127e-05
0.00123375 0.000233573 -8.68701e-06
-2.10127e-05 -8.68701e-06 -0.000329391
0.000768275 0.000997861 8.36757e-06
0.000997861 4.14863e-05 -5.17869e-05
8.36757e-06 -5.17869e-05 -0.000345801
0.00217739 0.00134213 2.85088e-06
0.00134213 0.000537813 -1.11622e-06
2.85088e-06 -1.11622e-06 1.23904e-06
0.000850086 0.0012833 1.47172e-05
0.0012833 -0.000383669 -3.60246e-05
1.47172e-05 -3.60246e-05 -0.000591697
0.00259903 0.00129012 2.94316e-05
0.00129012 0.00062713 1.1477e-06
2.94316e-05 1.1477e-06 1.23437e-05
0.00265861 0.00116635 4.42771e-05
0.00116635 0.000511685 5.04323e-05
4.42771e-05 5.04323e-05 0.000296991
0.00121673 0.00139595 -1.20516e-05
0.00139595 -0.000102512 -1.26919e-05
-1.20516e-05 -1.26919e-05 -0.000574404
0.00205281 0.00156673 -4.74713e-05
0.00156673 0.000331197 -8.92082e-06
-4.74713e-05 -8.92082e-06 1.77595e-05
0.00293514 0.00156336 2.11446e-05
0.00156336 -0.00163365 4.86897e-05
2.11446e-05 4.86897e-05 -0.000213335
0.0064092 0.00359447 -0.00014481
0.00359447 -0.00325226 -6.20694e-05
-0.00014481 -6.20694e-05 0.000507959
0.00388854 0.00493656 0.000972556
0.00493656 -0.00928135 0.000283499
0.000972556 0.000283499 -0.00847088
0.00292051 0.00363958 -0.000296341
0.00363958 -0.000679166 -0.00014428
-0.000296341 -0.00014428 0.000689703
0.00614738 0.0029822 -3.63347e-05
0.0029822 0.000868792 -1.20098e-05
-3.63347e-05 -1.20098e-05 0.000847556
0.00799787 0.00312528 -0.000240408
0.00312528 0.00289131 -7.05646e-05
-0.000240408 -7.05646e-05 0.00210835
0.00444437 -0.000198286 -4.14941e-05
-0.000198286 -0.000746766 -2.23513e-05
-4.14941e-05 -2.23513e-05 0.000192892
0.000947641 -0.000713024 0.000137024
-0.000713024 -0.00268447 3.44582e-05
0.000137024 3.44582e-05 -0.00021237
0.0080825 -3.82665e-05 0.000278168
-3.82665e-05 -0.00652731 -2.77787e-05
0.000278168 -2.77787e-05 -0.00679123
0.00289788 -0.00175865 -8.9734e-05
-0.00175865 -0.000939794 0.000113008
-8.9734e-05 0.000113008 -6.15958e-05
0.00586594 -0.00166748 -0.000243275
-0.00166748 -0.00255713 7.21963e-05
-0.000243275 7.21963e-05 -0.000318237
0.0036034 -0.00123935 -2.52142e-05
-0.00123935 -0.000733554 1.24142e-05
-2.52142e-05 1.24142e-05 0.000243359
0.00481042 -0.000896619 -4.82271e-05
-0.000896619 -0.000371403 6.22394e-07
-4.82271e-05 6.22394e-07 0.000679739
0.00482103 -0.000633749 0.00011792
-0.000633749 0.000865449 -2.25333e-05
0.00011792 -2.25333e-05 0.0012771
0.00295089 -0.000127964 5.37845e-05
-0.000127964 -6.19293e-05 4.24338e-06
5.37845e-05 4.24338e-06 0.000235375
0.000702274 -0.000825016 -1.68784e-05
-0.000825016 -0.0013286 1.69635e-05
-1.68784e-05 1.69635e-05 -0.000832471
0.00271858 -0.00076445 -4.49253e-06
-0.00076445 -0.000316784 6.04106e-07
-4.49253e-06 6.04106e-07 3.99243e-05
0.00275988 -0.000559832 4.50993e-06
-0.000559832 -0.000277748 -2.57343e-06
4.50993e-06 -2.57343e-06 2.21231e-05
0.00288915 -0.000915826 -3.93098e-06
-0.000915826 7.56712e-06 3.08486e-06
-3.93098e-06 3.08486e-06 6.65124e-05
0.00283225 -0.000739665 -2.84113e-07
-0.000739665 -2.63868e-06 -3.89811e-07
-2.84113e-07 -3.89811e-07 6.523e-05
0.00260278 -0.000548257 -1.15963e-06
-0.000548257 -0.000135307 -8.9538e-07
-1.15963e-06 -8.9538e-07 -3.46187e-05
0.0026226 -0.000803954 -8.18211e-07
-0.000803954 1.63722e-05 6.73879e-07
-8.18211e-07 6.73879e-07 7.43134e-06
0.00258225 -0.00068324 -6.3891e-07
-0.00068324 -3.34448e-06 -5.05133e-08
-6.3891e-07 -5.05133e-08 -1.12329e-05
0.00246274 -0.000561019 6.57578e-07
-0.000561019 2.19277e-05 -6.61103e-07
6.57578e-07 -6.61103e-07 -5.24997e-06
0.00261868 -0.000787019 -2.90264e-07
-0.000787019 0.000151527 -1.59239e-07
-2.90264e-07 -1.59239e-07 6.22093e-05
0.00251418 -0.000685387 1.01954e-06
-0.000685387 0.000109444 -2.09728e-07
1.01954e-06 -2.09728e-07 2.38453e-05
0.00238286 -0.000608971 -2.23792e-07
-0.000608971 0.000127219 -1.10014e-07
-2.23792e-07 -1.10014e-07 1.26309e-05
0.0023416 -0.000728868 -1.93097e-06
-0.000728868 0.000102244 1.26093e-06
-1.93097e-06 1.26093e-06 -4.37467e-05
0.00233379 -0.000677137 -1.06501e-06
-0.000677137 0.000177526 4.40674e-07
-1.06501e-06 4.40674e-07 -8.47003e-06
0.00243703 -0.000656539 -1.28999e-06
-0.000656539 0.000302147 -1.23568e-06
-1.28999e-06 -1.23568e-06 7.31287e-05
0.00233154 -0.000680845 2.69838e-06
-0.000680845 0.000260596 1.45666e-06
2.69838e-06 1.45666e-06 1.42327e-05
0.00235317 -0.000690446 -4.28782e-07
-0.000690446 0.000305657 4.4686e-07
-4.28782e-07 4.4686e-07 3.01679e-05
0.00226818 -0.000635462 -3.05748e-06
-0.000635462 0.000336332 -2.82865e-06
-3.05748e-06 -2.82865e-06 3.01724e-05
0.0015035 -0.000496702 -2.04434e-05
-0.000496702 9.54862e-05 5.66373e-06
-2.04434e-05 5.66373e-06 -0.000236981
0.00212249 -0.000691619 -2.28202e-07
-0.000691619 0.000281839 -1.58511e-06
-2.28202e-07 -1.58511e-06 -8.51783e-05
0.00224779 -0.000741245 8.21514e-07
-0.000741245 0.000241814 3.66759e-06
8.21514e-07 3.66759e-06 -0.000102887
0.000131236 -0.000285865 -2.14236e-05
-0.000285865 -0.000357691 2.35327e-05
-2.14236e-05 2.35327e-05 -0.000559231
0.00135809 -0.000554998 -2.70795e-07
-0.000554998 9.72388e-05 -8.69244e-08
-2.70795e-07 -8.69244e-08 -0.000291271
0.0024344 -0.000863529 5.40973e-06
-0.000863529 0.000564419 5.16312e-06
5.40973e-06 5.16312e-06 8.39867e-05
0.00918629 -9.80893e-05 -0.000403449
-9.80893e-05 0.00563748 3.83515e-05
-0.000403449 3.83515e-05 0.00565951
5.12096e-05 -0.000295628 1.15342e-06
-0.000295628 -0.000374677 2.11563e-06
1.15342e-06 2.11563e-06 -0.000578025
0.000413726 -0.000469683 1.37496e-05
-0.000469683 -0.000333772 -4.71839e-06
1.37496e-05 -4.71839e-06 -0.000720645
0.00866041 -6.66308e-05 -8.79455e-06
-6.66308e-05 0.00533579 1.19998e-06
-8.79455e-06 1.19998e-06 0.00534993
-0.000313358 -0.000310623 2.2274e-05
-0.000310623 -0.000575447 -2.78561e-05
2.2274e-05 -2.78561e-05 -0.000766698
0.00791987 8.31515e-06 0.000335606
8.31515e-06 0.004907 -4.28855e-05
0.000335606 -4.28855e-05 0.00490666
0.00190055 0.000859857 -7.86506e-06
0.000859857 0.000225024 1.42232e-05
-7.86506e-06 1.42232e-05 -0.000247468
0.00221347 0.00102085 -1.66978e-06
0.00102085 0.00063176 1.88802e-06
-1.66978e-06 1.88802e-06 2.0354e-05
0.00207678 0.000879891 -6.86642e-06
0.000879891 0.000585043 1.23495e-05
-6.86642e-06 1.23495e-05 2.63321e-05
0.00195921 0.000976167 6.38383e-06
0.000976167 0.000682844 -1.15044e-05
6.38383e-06 -1.15044e-05 3.49296e-05
0.00160502 0.000738356 -2.48613e-06
0.000738356 0.00048301 -1.0224e-06
-2.48613e-06 -1.0224e-06 -4.68122e-05
0.000186314 0.000349522 -1.3604e-05
0.000349522 -0.000320849 -7.91684e-07
-1.3604e-05 -7.91684e-07 -0.00066196
0.00204766 0.000450316 5.0461e-06
0.000450316 0.000818479 -7.98142e-06
5.0461e-06 -7.98142e-06 0.000459314
0.000386456 0.00030279 3.46933e-06
0.00030279 -0.000120542 -1.11893e-06
3.46933e-06 -1.11893e-06 -0.000400995
0.000350979 0.000247707 -3.46012e-05
0.000247707 -0.000169463 -2.45422e-05
-3.46012e-05 -2.45422e-05 -0.000303688
0.00112577 0.000263739 3.12684e-06
0.000263739 0.000430291 9.26542e-06
3.12684e-06 9.26542e-06 0.000142998
0.000688705 0.000205882 -1.15487e-06
0.000205882 9.59436e-05 -1.28687e-06
-1.15487e-06 -1.28687e-06 -2.75701e-05
0.00664015 -0.000200742 -0.000201751
-0.000200742 0.00414568 -3.12696e-05
-0.000201751 -3.12696e-05 0.00410618
0.000320119 0.000137107 2.0805e-05
0.000137107 -6.85527e-05 2.349e-05
2.0805e-05 2.349e-05 -0.00017583
0.00471524 -0.000190205 -1.99738e-05
-0.000190205 0.00287351 2.1463e-06
-1.99738e-05 2.1463e-06 0.00284327
0.00395874 -0.000162886 6.88215e-05
-0.000162886 0.0023507 1.11921e-05
6.88215e-05 1.11921e-05 0.00233253
0.000523591 0.00060764 3.10041e-05
0.00060764 -0.00319347 2.38899e-05
3.10041e-05 2.38899e-05 -0.00141294
0.00553598 0.000632795 7.64164e-05
0.000632795 -0.00232893 3.31987e-05
7.64164e-05 3.31987e-05 0.000762127
0.017713 0.000982089 3.21135e-05
0.000982089 7.11784e-05 0.000149407
3.21135e-05 0.000149407 0.00186985
0.0023463 0.00106489 1.75076e-06
0.00106489 0.000372055 8.38923e-06
1.75076e-06 8.38923e-06 -0.000103714
0.00239114 0.000969017 1.97979e-06
0.000969017 0.000253107 8.47429e-06
1.97979e-06 8.47429e-06 -0.000130647
0.00194887 0.000934068 -8.48579e-07
0.000934068 0.000211003 -4.79002e-06
-8.48579e-07 -4.79002e-06 -0.000253212
0.00295437 0.00137233 -5.86312e-06
0.00137233 0.00124693 -3.71324e-06
-5.86312e-06 -3.71324e-06 0.000607997
0.00237959 0.00114265 -1.68292e-05
0.00114265 0.000760321 -1.69731e-05
-1.68292e-05 -1.69731e-05 0.000119596
0.00261225 0.00131898 7.03167e-06
0.00131898 0.000726502 1.86016e-06
7.03167e-06 1.86016e-06 0.000136572
0.00281192 0.00124023 -9.02941e-06
0.00124023 0.000364168 6.53463e-07
-9.02941e-06 6.53463e-07 -4.17687e-05
0.00156804 0.00137095 -5.80363e-06
0.00137095 9.9547e-05 -1.12831e-05
-5.80363e-06 -1.12831e-05 -0.000419734
0.00145614 0.00141227 -2.97356e-05
0.00141227 -2.35752e-05 0.000105878
-2.97356e-05 0.000105878 -0.000324295
0.00284515 0.00138863 3.9435e-06
0.00138863 0.000720717 -6.04339e-06
3.9435e-06 -6.04339e-06 9.40776e-05
0.00336698 0.00120983 3.28227e-06
0.00120983 0.000546906 1.67934e-05
3.28227e-06 1.67934e-05 0.000310484
0.00243456 0.000592302 7.48898e-05
0.000592302 0.000166326 7.62406e-06
7.48898e-05 7.62406e-06 0.000395
0.000333092 0.000898843 4.18331e-06
0.000898843 -0.000705466 -1.75777e-05
4.18331e-06 -1.75777e-05 -0.000867554
0.00151669 0.00137499 -5.75079e-05
0.00137499 0.000106044 -6.90714e-07
-5.75079e-05 -6.90714e-07 -0.000362965
0.00431318 0.00170863 3.70936e-05
0.00170863 -0.00085041 1.61928e-05
3.70936e-05 1.61928e-05 0.000451117
0.0107297 0.00371692 -9.75912e-05
0.00371692 -0.000708381 -6.1754e-05
-9.75912e-05 -6.1754e-05 0.0021435
0.0061826 0.00253811 -9.47354e-05
0.00253811 0.00143682 -0.000110393
-9.47354e-05 -0.000110393 0.00150956
0.00366248 -3.01314e-05 8.45075e-05
-3.01314e-05 0.000415881 7.25743e-06
8.45075e-05 7.25743e-06 0.000761341
0.00406195 -0.000265674 -0.000127769
-0.000265674 -0.00122598 1.10416e-05
-0.000127769 1.10416e-05 6.36785e-05
0.00537254 0.000562174 -5.07639e-05
0.000562174 -0.000950117 -3.10335e-05
-5.07639e-05 -3.10335e-05 0.00101442
0.00159429 -0.00112019 -0.000118176
-0.00112019 -0.00191689 8.52894e-05
-0.000118176 8.52894e-05 -0.000862259
0.00225949 -0.000847693 -0.000112207
-0.000847693 -0.00168102 8.61013e-06
-0.000112207 8.61013e-06 -0.000763626
0.00349936 -0.00057518 1.42432e-06
-0.00057518 -1.35168e-06 -7.0078e-06
1.42432e-06 -7.0078e-06 0.000568368
0.00260303 -0.000127905 -1.76272e-05
-0.000127905 -0.000267796 -2.92713e-06
-1.76272e-05 -2.92713e-06 5.07759e-05
0.0027255 -0.000337291 9.17377e-06
-0.000337291 -0.000343051 -1.01416e-06
9.17377e-06 -1.01416e-06 7.72103e-06
0.00252314 0.000107493 1.84307e-06
0.000107493 -0.000444371 7.32311e-07
1.84307e-06 7.32311e-07 -0.000197889
0.00275305 -0.000803197 -2.16174e-05
-0.000803197 -0.000289555 1.06834e-05
-2.16174e-05 1.06834e-05 2.29314e-05
0.00281818 -0.000590256 -3.20915e-06
-0.000590256 -0.000258119 7.03208e-07
-3.20915e-06 7.03208e-07 3.8164e-06
0.00268595 -0.000403152 -4.28347e-07
-0.000403152 -0.000198296 -2.00685e-07
-4.28347e-07 -2.00685e-07 1.52111e-05
0.00283547 -0.000714529 -3.12989e-06
-0.000714529 2.94251e-05 1.29018e-06
-3.12989e-06 1.29018e-06 0.000112565
0.00262083 -0.000552541 2.57655e-07
-0.000552541 -0.000114103 -2.25257e-07
2.57655e-07 -2.25257e-07 -2.01367e-05
0.00249398 -0.00044809 1.03878e-06
-0.00044809 -6.83698e-05 -4.33294e-07
1.03878e-06 -4.33294e-07 -8.78674e-07
0.00257688 -0.000685779 -9.18059e-07
-0.000685779 8.65392e-06 9.0289e-07
-9.18059e-07 9.0289e-07 3.0246e-06
0.00247386 -0.000559965 4.17312e-07
-0.000559965 2.22518e-05 -9.6796e-08
4.17312e-07 -9.6796e-08 -4.86637e-06
0.00234795 -0.000498176 -1.16555e-07
-0.000498176 4.58167e-05 -2.43939e-07
-1.16555e-07 -2.43939e-07 -8.1807e-06
0.00252804 -0.000687436 1.37313e-06
-0.000687436 0.000115795 4.084e-07
1.37313e-06 4.084e-07 2.91471e-05
0.00237764 -0.000609713 5.7703e-07
-0.000609713 0.000119822 -7.46137e-08
5.7703e-07 -7.46137e-08 4.80426e-06
0.0023921 -0.000575924 -2.62511e-06
-0.000575924 0.000206856 4.6158e-07
-2.62511e-06 4.6158e-07 3.96651e-05
0.00226586 -0.000676358 3.6093e-07
-0.000676358 0.00012354 3.05893e-07
3.6093e-07 3.05893e-07 -5.80367e-05
0.00232552 -0.000649653 3.2076e-07
-0.000649653 0.000226736 -5.27712e-07
3.2076e-07 -5.27712e-07 -6.12944e-07
0.00219941 -0.000584526 -2.38263e-06
-0.000584526 0.000222613 -2.2967e-06
-2.38263e-06 -2.2967e-06 -3.8934e-05
0.0023127 -0.000687085 -2.85255e-07
-0.000687085 0.000277992 3.71523e-06
-2.85255e-07 3.71523e-06 4.93213e-06
0.00228663 -0.000639412 -5.71688e-07
-0.000639412 0.000350628 -1.17142e-07
-5.71688e-07 -1.17142e-07 4.53706e-05
0.00149155 -0.000429956 -1.44111e-05
-0.000429956 6.22821e-05 4.94414e-06
-1.44111e-05 4.94414e-06 -0.000222236
0.000334973 -0.000273357 -1.86451e-05
-0.000273357 -0.000266303 2.15984e-05
-1.86451e-05 2.15984e-05 -0.000457793
0.00153174 -0.000498421 5.6016e-08
-0.000498421 0.000114727 1.65311e-07
5.6016e-08 1.65311e-07 -0.000216659
0.0021655 -0.000695152 3.88254e-06
-0.000695152 0.000318039 2.51456e-06
3.88254e-06 2.51456e-06 -5.53205e-05
0.00891967 -0.000176629 -0.000421625
-0.000176629 0.00544362 4.22297e-05
-0.000421625 4.22297e-05 0.00547113
0.000319903 -0.000299601 -1.3011e-06
-0.000299601 -0.000247933 1.00495e-06
-1.3011e-06 1.00495e-06 -0.000447461
0.00154761 -0.000550697 2.09266e-05
-0.000550697 0.000235092 -5.16129e-06
2.09266e-05 -5.16129e-06 -0.000146564
0.00913401 -0.000124954 -1.70747e-06
-0.000124954 0.00560109 2.26789e-06
-1.70747e-06 2.26789e-06 0.00562235
0.000139129 -0.000308693 2.44306e-05
-0.000308693 -0.000321316 -2.63865e-05
2.44306e-05 -2.63865e-05 -0.000529005
0.00909367 -9.97567e-05 0.000396347
-9.97567e-05 0.00560402 -4.43263e-05
0.000396347 -4.43263e-05 0.00561904
0.00207768 0.000879109 2.54256e-06
0.000879109 0.000175697 1.32417e-05
2.54256e-06 1.32417e-05 -0.000231544
0.00205294 0.000881985 2.60212e-06
0.000881985 0.000337513 1.99646e-09
2.60212e-06 1.99646e-09 -0.000137133
0.00236233 0.000855888 7.55469e-07
0.000855888 0.000589903 1.34314e-05
7.55469e-07 1.34314e-05 9.81198e-05
0.0021928 0.0010038 1.47496e-05
0.0010038 0.000640458 -1.09465e-05
1.47496e-05 -1.09465e-05 3.4634e-05
0.00199852 0.000869728 -1.44264e-07
0.000869728 0.00052901 1.73552e-06
-1.44264e-07 1.73552e-06 -2.8702e-05
0.000601025 0.000428518 -2.61929e-05
0.000428518 -0.000204756 3.42885e-07
-2.61929e-05 3.42885e-07 -0.000569019
0.00224461 0.000760443 2.30094e-06
0.000760443 0.000827718 -7.72101e-06
2.30094e-06 -7.72101e-06 0.000306367
0.000605874 0.000330631 2.83783e-07
0.000330631 -5.8906e-05 -7.52744e-07
2.83783e-07 -7.52744e-07 -0.000379117
0.000198417 0.000291428 -3.35077e-05
0.000291428 -0.000265698 -2.86925e-05
-3.35077e-05 -2.86925e-05 -0.000433694
0.00182127 0.000224621 3.28872e-06
0.000224621 0.000769389 2.07717e-06
3.28872e-06 2.07717e-06 0.000510581
0.000263724 0.000230491 4.69649e-06
0.000230491 -0.000217388 -1.36694e-06
4.69649e-06 -1.36694e-06 -0.000353403
0.00770069 -0.000146846 -0.000267404
-0.000146846 0.00479953 -3.51913e-05
-0.000267404 -3.51913e-05 0.00477429
0.000324891 0.000190218 2.81843e-05
0.000190218 -0.000118675 2.52616e-05
2.81843e-05 2.52616e-05 -0.000243487
0.0061222 -0.000186334 -6.91416e-06
-0.000186334 0.00378935 -5.61573e-07
-6.91416e-06 -5.61573e-07 0.00375922
0.00439692 -0.000201361 8.70575e-05
-0.000201361 0.00266437 1.61107e-05
8.70575e-05 1.61107e-05 0.00263225
0.00146385 0.000392683 5.51241e-05
0.000392683 -0.000770715 2.06361e-05
5.51241e-05 2.06361e-05 -0.000255337
0.00157409 0.000714078 1.88006e-05
0.000714078 -0.00298573 -7.68979e-06
1.88006e-05 -7.68979e-06 -0.00118486
0.0056514 0.00132845 0.000295879
0.00132845 -0.00247087 0.000120339
0.000295879 0.000120339 0.000991716
0.00272008 0.0010258 -7.96089e-06
0.0010258 0.000362086 1.93485e-06
-7.96089e-06 1.93485e-06 1.59206e-05
0.00238874 0.00108886 -1.01414e-05
0.00108886 0.000388348 -5.22235e-06
-1.01414e-05 -5.22235e-06 -9.00607e-05
0.00247251 0.000773809 6.10459e-06
0.000773809 0.000177287 4.75232e-06
6.10459e-06 4.75232e-06 -5.26268e-05
0.00255443 0.000974883 1.42524e-06
0.000974883 0.000357903 3.22031e-07
1.42524e-06 3.22031e-07 -1.67613e-05
0.00203825 0.000943271 -7.08037e-06
0.000943271 0.000277925 -1.82359e-05
-7.08037e-06 -1.82359e-05 -0.000184189
0.00292874 0.000935266 -5.23039e-06
0.000935266 0.000199211 2.11326e-06
-5.23039e-06 2.11326e-06 4.04443e-05
0.00248447 0.00134786 -3.04753e-06
0.00134786 0.000596658 -9.49174e-06
-3.04753e-06 -9.49174e-06 4.28825e-06
0.00284973 0.00119579 -1.34126e-06
0.00119579 0.000419556 -1.28839e-06
-1.34126e-06 -1.28839e-06 2.22963e-05
0.00237699 0.000574258 -9.08306e-06
0.000574258 -0.000347325 -8.64561e-07
-9.08306e-06 -8.64561e-07 -0.000171376
0.00251973 0.00143087 -1.78903e-05
0.00143087 0.000445513 2.00087e-05
-1.78903e-05 2.00087e-05 -0.000126506
0.00294429 0.00116025 2.01824e-06
0.00116025 0.000310957 -5.00144e-06
2.01824e-06 -5.00144e-06 8.21761e-05
0.000649914 0.000562238 -2.66235e-05
0.000562238 -0.00103955 -4.69231e-07
-2.66235e-05 -4.69231e-07 -0.000644643
-0.00300146 0.000547389 -2.68106e-05
0.000547389 -0.00248342 -1.46412e-05
-2.68106e-05 -1.46412e-05 -0.00255275
0.00539372 0.0018653 -0.000202669
0.0018653 -0.000238489 -7.88567e-05
-0.000202669 -7.88567e-05 0.000926822
0.00276299 0.000209795 -1.55331e-06
0.000209795 -0.000224861 -2.82857e-06
-1.55331e-06 -2.82857e-06 3.7096e-05
0.00328302 -1.10659e-06 -5.89624e-06
-1.10659e-06 0.000169599 1.23627e-06
-5.89624e-06 1.23627e-06 0.000470397
0.00314151 -0.000368489 -0.000158515
-0.000368489 -0.00183542 -1.65177e-05
-0.000158515 -1.65177e-05 -0.000385892
0.00178711 -0.000488782 -0.000105626
-0.000488782 -0.00110893 2.53912e-05
-0.000105626 2.53912e-05 -0.000365723
0.00224892 -0.000137882 -1.70992e-05
-0.000137882 -0.00047715 -3.02746e-06
-1.70992e-05 -3.02746e-06 -0.000140898
0.0026133 -0.000353822 5.75581e-06
-0.000353822 -0.000442584 -8.31424e-07
5.75581e-06 -8.31424e-07 -4.49893e-05
0.00279584 0.000125499 -2.80397e-06
0.000125499 -0.000265649 4.40283e-07
-2.80397e-06 4.40283e-07 -3.57744e-05
0.00267513 -6.7764e-05 -2.39273e-06
-6.7764e-05 -0.000253244 1.15417e-07
-2.39273e-06 1.15417e-07 1.9488e-06
0.00284956 -0.000615362 -3.94464e-06
-0.000615362 -0.000249166 1.98542e-06
-3.94464e-06 1.98542e-06 -2.42305e-05
0.00261278 -0.000386241 3.20666e-07
-0.000386241 -0.00022837 -3.10252e-07
3.20666e-07 -3.10252e-07 -2.42221e-05
0.00251618 -0.00028918 1.44377e-06
-0.00028918 -0.000113505 -1.1456e-07
1.44377e-06 -1.1456e-07 3.26216e-05
0.0026405 -0.000557122 3.34887e-08
-0.000557122 -9.03585e-05 1.06662e-06
3.34887e-08 1.06662e-06 -4.07623e-06
0.00248881 -0.000446762 2.92844e-07
-0.000446762 -6.84885e-05 1.04704e-07
2.92844e-07 1.04704e-07 -4.75735e-06
0.00232806 -0.000376373 1.84601e-07
-0.000376373 -1.43885e-05 -4.70113e-08
1.84601e-07 -4.70113e-08 -6.51169e-06
0.00248572 -0.00055866 1.27657e-07
-0.00055866 2.30399e-05 4.95585e-07
1.27657e-07 4.95585e-07 -4.02442e-06
0.00236274 -0.000499426 4.01677e-07
-0.000499426 5.20905e-05 -9.97526e-08
4.01677e-07 -9.97526e-08 -2.38286e-06
0.00233424 -0.000471367 -3.91503e-06
-0.000471367 0.000110768 4.58374e-07
-3.91503e-06 4.58374e-07 1.27584e-05
0.00237408 -0.000610648 1.32673e-06
-0.000610648 0.000113605 -7.26465e-08
1.32673e-06 -7.26465e-08 -1.91548e-06
0.00235296 -0.000571932 6.6548e-07
-0.000571932 0.00018106 -1.74411e-07
6.6548e-07 -1.74411e-07 1.4405e-05
0.00222619 -0.000509216 -1.80908e-06
-0.000509216 0.000184806 -1.88411e-06
-1.80908e-06 -1.88411e-06 -2.35795e-05
0.00221316 -0.000642745 6.48414e-07
-0.000642745 0.000150179 3.37074e-07
6.48414e-07 3.37074e-07 -7.53764e-05
0.00227064 -0.000589412 -7.76218e-07
-0.000589412 0.000273748 1.79717e-07
-7.76218e-07 1.79717e-07 1.12239e-05
0.00149448 -0.000376176 -1.07882e-05
-0.000376176 4.08298e-05 3.94308e-06
-1.07882e-05 3.94308e-06 -0.00020725
0.00228103 -0.000640895 2.13654e-06
-0.000640895 0.000349187 2.89467e-06
2.13654e-06 2.89467e-06 4.54315e-05
0.00152144 -0.000433154 -7.85123e-09
-0.000433154 7.40544e-05 2.45824e-07
-7.85123e-09 2.45824e-07 -0.000209919
0.00306658 -0.00028186 -6.20292e-05
-0.00028186 0.00149732 1.59119e-05
-6.20292e-05 1.59119e-05 0.00134611
0.00303296 -0.000158457 -0.000334025
-0.000158457 0.0016154 5.3135e-05
-0.000334025 5.3135e-05 0.00159868
0.00176582 -0.000298361 -1.94543e-05
-0.000298361 0.000661675 4.77879e-07
-1.94543e-05 4.77879e-07 0.000482884
0.00152499 -0.000496569 1.84021e-05
-0.000496569 0.000111584 -5.32426e-06
1.84021e-05 -5.32426e-06 -0.000217974
0.00871679 -0.000179353 -9.2276e-06
-0.000179353 0.00532368 3.05167e-06
-9.2276e-06 3.05167e-06 0.00534537
9.53204e-05 -0.00031717 2.31632e-05
-0.00031717 -0.000394567 -2.36682e-05
2.31632e-05 -2.36682e-05 -0.000599537
0.00907387 -0.000134938 0.000397793
-0.000134938 0.00556763 -4.61986e-05
0.000397793 -4.61986e-05 0.00558399
0.00233855 0.00060557 3.5196e-06
0.00060557 0.000108424 2.04505e-06
3.5196e-06 2.04505e-06 -4.83346e-05
0.00236152 0.000781757 7.11347e-06
0.000781757 0.000280614 8.82716e-06
7.11347e-06 8.82716e-06 -2.54305e-05
0.00241645 0.000903858 9.21292e-07
0.000903858 0.000397735 8.19312e-08
9.21292e-07 8.19312e-08 -5.03465e-06
0.00227345 0.000789684 3.16403e-06
0.000789684 0.000448547 1.20664e-05
3.16403e-06 1.20664e-05 2.94348e-05
0.00211481 0.000900254 7.64845e-06
0.000900254 0.000380165 -1.35981e-05
7.64845e-06 -1.35981e-05 -9.66422e-05
0.002132 0.000829877 6.47033e-07
0.000829877 0.000440379 3.61164e-07
6.47033e-07 3.61164e-07 -4.59851e-05
0.00118039 0.000518704 -3.72837e-05
0.000518704 7.15997e-05 -1.63091e-06
-3.72837e-05 -1.63091e-06 -0.000308494
0.00190027 0.000859785 8.56035e-06
0.000859785 0.000453755 -9.90647e-06
8.56035e-06 -9.90647e-06 -0.000103316
0.000988758 0.00044993 -4.58627e-06
0.00044993 4.25199e-05 3.40401e-07
-4.58627e-06 3.40401e-07 -0.000320545
-9.20763e-05 0.000325236 -3.17188e-05
0.000325236 -0.000461507 -2.56051e-05
-3.17188e-05 -2.56051e-05 -0.000658521
0.0014841 0.000330099 1.58195e-05
0.000330099 0.000499215 -1.90532e-06
1.58195e-05 -1.90532e-06 0.000198677
0.000254659 0.000255541 2.29343e-06
0.000255541 -0.000234438 -8.97331e-07
2.29343e-06 -8.97331e-07 -0.000398846
0.00898809 -1.21868e-05 -0.000357471
-1.21868e-05 0.00556386 -4.14284e-05
-0.000357471 -4.14284e-05 0.00556307
0.00061115 0.000222374 3.44003e-05
0.000222374 -9.98902e-07 2.4752e-05
3.44003e-05 2.4752e-05 -0.000130478
0.00740747 -0.000148539 8.44019e-06
-0.000148539 0.00459524 -3.74054e-06
8.44019e-06 -3.74054e-06 0.00457479
0.00545045 -0.000232678 0.000121324
-0.000232678 0.0033718 2.06528e-05
0.000121324 2.06528e-05 0.00332668
0.00253777 0.000258606 -4.44126e-06
0.000258606 -0.000388825 7.43294e-07
-4.44126e-06 7.43294e-07 -8.69361e-05
0.00171051 0.000322218 5.65397e-06
0.000322218 -0.000925593 -4.65265e-06
5.65397e-06 -4.65265e-06 -0.000257884
0.00371128 0.000856536 -0.000180368
0.000856536 -0.00217541 -2.7659e-05
-0.000180368 -2.7659e-05 -0.000276951
0.00257832 0.000726256 1.73894e-07
0.000726256 0.000127734 1.05609e-06
1.73894e-07 1.05609e-06 -1.22058e-06
0.00268316 0.00101311 -4.56863e-06
0.00101311 0.000377324 -7.44899e-07
-4.56863e-06 -7.44899e-07 3.88617e-05
0.00240255 0.00111065 -1.72649e-06
0.00111065 0.000385957 -1.03156e-05
-1.72649e-06 -1.03156e-05 -9.39645e-05
0.00248795 0.000757604 1.39672e-06
0.000757604 0.000207916 1.26093e-06
1.39672e-06 1.26093e-06 -2.23576e-05
0.00270242 0.000981877 -2.28902e-06
0.000981877 0.000453594 -9.93581e-06
-2.28902e-06 -9.93581e-06 8.63573e-05
0.00281264 0.000570195 5.49906e-06
0.000570195 -4.1009e-05 7.98195e-07
5.49906e-06 7.98195e-07 6.5387e-05
0.00283092 0.000926991 -1.94034e-06
0.000926991 0.000157269 8.56035e-07
-1.94034e-06 8.56035e-07 6.38297e-06
0.00294664 0.0011638 4.57848e-06
0.0011638 0.000505321 -4.38835e-06
4.57848e-06 -4.38835e-06 0.000113424
0.00228385 0.00053327 -6.13382e-08
0.00053327 -0.000332465 5.55864e-07
-6.13382e-08 5.55864e-07 -0.000147849
0.00253749 0.00108995 7.11964e-06
0.00108995 7.34195e-05 -4.37822e-07
7.11964e-06 -4.37822e-07 -0.000144158
-0.000529447 0.000504816 -4.17427e-05
0.000504816 -0.0018832 -8.20905e-06
-4.17427e-05 -8.20905e-06 -0.00129743
0.00261598 0.000117329 -1.77819e-06
0.000117329 -0.000173821 3.71744e-07
-1.77819e-06 3.71744e-07 3.30643e-05
0.00267222 0.000197708 1.23741e-07
0.000197708 -0.000290269 1.16092e-06
1.23741e-07 1.16092e-06 -2.58516e-05
0.00297195 1.77562e-05 -5.80405e-05
1.77562e-05 -2.35544e-05 -4.93397e-06
-5.80405e-05 -4.93397e-06 0.000233893
0.00248176 -0.000373921 -2.51253e-05
-0.000373921 -0.000564334 3.73125e-06
-2.51253e-05 3.73125e-06 -0.000116335
0.00310685 0.00014912 5.28045e-06
0.00014912 -5.69105e-05 1.36211e-06
5.28045e-06 1.36211e-06 0.000154037
0.00269956 -7.31509e-05 -1.10904e-06
-7.31509e-05 -0.000243919 -7.62722e-07
-1.10904e-06 -7.62722e-07 8.7677e-06
0.0023793 -8.27926e-05 9.84523e-07
-8.27926e-05 -0.000134272 4.75779e-07
9.84523e-07 4.75779e-07 -5.75004e-06
0.00253812 -0.00036854 6.83204e-07
-0.00036854 -0.000258439 -7.00184e-07
6.83204e-07 -7.00184e-07 -6.36319e-05
0.00247668 -0.00029813 -2.60562e-08
-0.00029813 -0.000133375 -4.19427e-08
-2.60562e-08 -4.19427e-08 3.28488e-06
0.0022723 -0.000247141 1.28884e-06
-0.000247141 -6.26293e-05 -5.60802e-07
1.28884e-06 -5.60802e-07 -1.86868e-05
0.00248166 -0.000445292 -1.36097e-06
-0.000445292 -6.99219e-05 8.73763e-07
-1.36097e-06 8.73763e-07 -9.9146e-06
0.00233221 -0.000375613 9.69502e-08
-0.000375613 -1.6167e-05 7.44771e-08
9.69502e-08 7.44771e-08 -8.29711e-06
0.00228381 -0.000359026 -4.5949e-06
-0.000359026 4.64189e-05 6.40978e-07
-4.5949e-06 6.40978e-07 9.56492e-07
0.00237804 -0.000500689 8.38106e-07
-0.000500689 5.83525e-05 1.00595e-08
8.38106e-07 1.00595e-08 3.4109e-06
0.00235845 -0.000473114 3.83054e-07
-0.000473114 0.000127737 -1.07873e-07
3.83054e-07 -1.07873e-07 2.88541e-05
0.00227569 -0.000429247 -2.08382e-06
-0.000429247 0.000181096 -8.05494e-07
-2.08382e-06 -8.05494e-07 2.32118e-05
0.00231135 -0.00056767 2.78768e-06
-0.00056767 0.00015405 -4.06761e-07
2.78768e-06 -4.06761e-07 -1.19919e-05
0.00226087 -0.000512384 -8.68545e-07
-0.000512384 0.000206192 -8.96572e-08
-8.68545e-07 -8.96572e-08 -2.76805e-06
0.00146357 -0.000321205 -8.34542e-06
-0.000321205 1.33989e-06 3.01433e-06
-8.34542e-06 3.01433e-06 -0.000215888
0.00234378 -0.000594461 2.44951e-06
-0.000594461 0.000326201 1.90334e-06
2.44951e-06 1.90334e-06 6.26794e-05
0.00151861 -0.000380011 -7.67352e-08
-0.000380011 4.49929e-05 2.22197e-07
-7.67352e-08 2.22197e-07 -0.000202784
0.00297539 -0.000255874 -6.80346e-05
-0.000255874 0.00144069 1.49698e-05
-6.80346e-05 1.49698e-05 0.00130538
0.001557 -0.000438042 1.31516e-05
-0.000438042 8.77447e-05 -4.63131e-06
1.31516e-05 -4.63131e-06 -0.000196184
0.00315979 -0.000312732 5.88869e-05
-0.000312732 0.00156164 -1.03872e-05
5.88869e-05 -1.03872e-05 0.0014222
0.00279201 -0.000176569 -0.000317896
-0.000176569 0.00147137 5.55087e-05
-0.000317896 5.55087e-05 0.00145009
0.00556947 -0.000199674 -0.000309344
-0.000199674 0.00328617 4.02036e-05
-0.000309344 4.02036e-05 0.00328657
0.0033125 -0.000377901 0.000196101
-0.000377901 0.0016768 -3.59765e-05
0.000196101 -3.59765e-05 0.00153243
0.00856423 -0.000188662 0.000394146
-0.000188662 0.00523316 -4.97789e-05
0.000394146 -4.97789e-05 0.00525104
0.00243873 0.000580106 3.97959e-07
0.000580106 0.000115465 -6.94712e-07
3.97959e-07 -6.94712e-07 2.59285e-05
0.00215715 0.000620285 1.746e-06
0.000620285 0.000110648 3.78634e-06
1.746e-06 3.78634e-06 -0.000105748
0.00234503 0.000595432 6.95702e-07
0.000595432 0.000119538 1.73671e-07
6.95702e-07 1.73671e-07 -2.58147e-05
0.00228362 0.000689631 3.74691e-07
0.000689631 0.000354243 9.08171e-06
3.74691e-07 9.08171e-06 2.12206e-05
0.00245014 0.000789686 5.27337e-08
0.000789686 0.000327709 -5.3742e-07
5.27337e-08 -5.3742e-07 2.08127e-05
0.0028059 0.000933825 -2.27568e-06
0.000933825 0.000652839 -1.2387e-05
-2.27568e-06 -1.2387e-05 0.000253797
0.00218168 0.000783625 9.56947e-07
0.000783625 0.000380711 2.84725e-07
9.56947e-07 2.84725e-07 -3.78779e-05
0.00153573 0.000544274 -3.41487e-05
0.000544274 0.000158942 -3.25903e-06
-3.41487e-05 -3.25903e-06 -0.000198743
0.00193845 0.000810172 2.9674e-06
0.000810172 0.00031243 -1.23057e-05
2.9674e-06 -1.23057e-05 -0.00017051
0.00129007 0.000543095 -3.67038e-06
0.000543095 0.000114831 -7.16689e-08
-3.67038e-06 -7.16689e-08 -0.000272877
0.000197268 0.000322193 -2.82192e-05
0.000322193 -0.000311948 -2.27327e-05
-2.82192e-05 -2.27327e-05 -0.00051936
0.00132042 0.000463284 2.8142e-05
0.000463284 0.000254819 4.02937e-06
2.8142e-05 4.02937e-06 -0.000103861
0.000215533 0.00029359 1.85416e-06
0.00029359 -0.000277836 2.31042e-06
1.85416e-06 2.31042e-06 -0.000465792
0.00919884 8.90308e-05 -0.000381909
8.90308e-05 0.00565979 -4.64658e-05
-0.000381909 -4.64658e-05 0.00566653
0.000206107 0.00021575 2.68941e-05
0.00021575 -0.000278215 2.72984e-05
2.68941e-05 2.72984e-05 -0.000434022
0.00838321 -5.73313e-05 1.24751e-05
-5.73313e-05 0.00517433 -1.93764e-06
1.24751e-05 -1.93764e-06 0.00517194
0.00703773 -0.000171701 0.000210641
-0.000171701 0.00435315 2.00723e-05
0.000210641 2.00723e-05 0.00433157
0.00263438 0.000330531 2.20615e-06
0.000330531 -0.000156318 -4.59898e-07
2.20615e-06 -4.59898e-07 1.65351e-05
0.00243936 0.00026294 2.45249e-06
0.00026294 -0.00037233 -1.52613e-06
2.45249e-06 -1.52613e-06 -7.46398e-05
0.000764126 0.000265651 -5.97634e-05
0.000265651 -0.00183141 -3.21004e-06
-5.97634e-05 -3.21004e-06 -0.000973078
0.00251211 0.000500979 4.03423e-06
0.000500979 -2.57169e-05 7.60087e-07
4.03423e-06 7.60087e-07 9.73854e-08
0.00253924 0.000719949 -1.42657e-06
0.000719949 0.000115987 4.41071e-07
-1.42657e-06 4.41071e-07 -8.86331e-06
0.00261729 0.000994882 6.99506e-06
0.000994882 0.000374113 -4.12812e-06
6.99506e-06 -4.12812e-06 4.57951e-05
0.00250095 0.000741192 -4.66532e-06
0.000741192 0.000234917 -4.30003e-06
-4.66532e-06 -4.30003e-06 5.82752e-06
0.00274802 0.000555486 -2.42845e-06
0.000555486 -6.9962e-05 -1.85566e-07
-2.42845e-06 -1.85566e-07 3.34368e-05
0.00272709 0.00091358 1.28188e-06
0.00091358 0.000121789 -3.4171e-06
1.28188e-06 -3.4171e-06 -2.13133e-05
0.00219649 0.000520376 7.18383e-06
0.000520376 -0.000270133 -1.43317e-06
7.18383e-06 -1.43317e-06 -9.1992e-05
0.00244379 9.18278e-05 6.0294e-07
9.18278e-05 -9.98081e-05 5.57525e-07
6.0294e-07 5.57525e-07 1.88895e-05
0.00253596 0.000118534 4.86745e-07
0.000118534 -0.00021505 -3.64281e-07
4.86745e-07 -3.64281e-07 -1.22815e-05
0.00254748 0.000191422 -6.74339e-06
0.000191422 -0.000375663 -2.45645e-07
-6.74339e-06 -2.45645e-07 -0.000110113
0.00225898 -1.50607e-05 -8.92344e-08
-1.50607e-05 -0.000102568 4.59322e-07
-8.92344e-08 4.59322e-07 -2.07548e-05
0.00270689 -8.33516e-05 3.70619e-06
-8.33516e-05 -0.000249276 -6.83242e-07
3.70619e-06 -6.83242e-07 3.02959e-06
0.00238852 -8.73555e-05 -5.31719e-07
-8.73555e-05 -0.000128591 3.05231e-07
-5.31719e-07 3.05231e-07 -8.79045e-07
0.00222721 -0.000129235 4.2155e-07
-0.000129235 -7.74485e-05 6.46904e-09
4.2155e-07 6.46904e-09 -2.50217e-05
0.00243875 -0.000307151 -1.25671e-06
-0.000307151 -0.000151932 3.2939e-07
-1.25671e-06 3.2939e-07 -2.49482e-05
0.00227592 -0.000243602 6.36932e-07
-0.000243602 -6.17127e-05 -3.51498e-07
6.36932e-07 -3.51498e-07 -1.69534e-05
0.00224472 -0.000245021 -3.94078e-06
-0.000245021 2.45506e-05 6.68452e-07
-3.94078e-06 6.68452e-07 4.06576e-06
0.00233784 -0.000374545 1.55908e-07
-0.000374545 -1.70547e-05 1.00012e-07
1.55908e-07 1.00012e-07 -9.13865e-06
0.00231365 -0.00035993 2.20985e-07
-0.00035993 6.62488e-05 -1.81734e-07
2.20985e-07 -1.81734e-07 2.01083e-05
0.00225955 -0.000341383 -2.01887e-06
-0.000341383 0.000140834 -8.2282e-08
-2.01887e-06 -8.2282e-08 2.65375e-05
0.00238413 -0.000474839 4.25462e-06
-0.000474839 0.000146233 -5.91622e-07
4.25462e-06 -5.91622e-07 4.64776e-05
0.00222891 -0.000425826 -7.79994e-07
-0.000425826 0.00014826 -1.06238e-07
-7.79994e-07 -1.06238e-07 -8.95605e-06
0.00140473 -0.000263567 -5.28009e-06
-0.000263567 -4.39189e-05 2.29789e-06
-5.28009e-06 2.29789e-06 -0.000234825
0.00229611 -0.000515476 2.22699e-06
-0.000515476 0.000227998 9.10133e-07
2.22699e-06 9.10133e-07 1.84952e-05
0.00148586 -0.000322329 -3.00961e-07
-0.000322329 7.02202e-06 4.55245e-08
-3.00961e-07 4.55245e-08 -0.000209098
0.00284212 -0.000227517 -7.28784e-05
-0.000227517 0.00136318 1.39242e-05
-7.28784e-05 1.39242e-05 0.00124025
0.00153395 -0.000383395 9.31662e-06
-0.000383395 4.31163e-05 -3.60013e-06
9.31662e-06 -3.60013e-06 -0.000204262
0.00305203 -0.000271235 5.34764e-05
-0.000271235 0.00149089 -8.06741e-06
5.34764e-05 -8.06741e-06 0.00136805
0.00272187 -0.000147676 -0.000306976
-0.000147676 0.00142133 4.74868e-05
-0.000306976 4.74868e-05 0.00140303
0.00323706 -0.000314003 0.000183502
-0.000314003 0.00160675 -3.5131e-05
0.000183502 -3.5131e-05 0.00148317
0.00236928 -0.000111714 -0.000121089
-0.000111714 0.0011954 2.00489e-05
-0.000121089 2.00489e-05 0.00115651
0.00790174 -0.000123355 0.000144098
-0.000123355 0.0047877 -1.09527e-05
0.000144098 -1.09527e-05 0.00476656
0.00241622 0.000483811 -2.57952e-08
0.000483811 7.84425e-05 6.86911e-08
-2.57952e-08 6.86911e-08 3.10694e-05
0.00235769 0.000559735 -2.72704e-06
0.000559735 0.000145695 -7.43418e-07
-2.72704e-06 -7.43418e-07 4.5677e-06
0.00243096 0.000575612 -2.77488e-06
0.000575612 0.000110793 1.93196e-07
-2.77488e-06 1.93196e-07 1.69894e-05
0.00210295 0.000576366 -2.32761e-06
0.000576366 0.000150445 3.47772e-06
-2.32761e-06 3.47772e-06 -0.000113977
0.00224813 0.000640528 -1.12313e-06
0.000640528 0.000146848 -1.98594e-06
-1.12313e-06 -1.98594e-06 -6.19513e-05
0.00234611 0.0005836 -6.7973e-06
0.0005836 0.000128099 -3.93935e-06
-6.7973e-06 -3.93935e-06 -5.57137e-06
0.00159276 0.000473925 -2.48668e-05
0.000473925 8.784e-05 -3.18429e-06
-2.48668e-05 -3.18429e-06 -0.000210424
0.00221524 0.000685077 1.49146e-06
0.000685077 0.000304704 4.54145e-07
1.49146e-06 4.54145e-07 -2.72273e-05
0.00253223 0.000797761 -1.00843e-06
0.000797761 0.000369514 -8.84439e-06
-1.00843e-06 -8.84439e-06 6.08128e-05
0.00208907 0.000776532 -1.45321e-06
0.000776532 0.000314052 -1.12987e-05
-1.45321e-06 -1.12987e-05 -0.000103631
0.00153621 0.000547012 -6.50421e-07
0.000547012 0.000156995 1.90557e-07
-6.50421e-07 1.90557e-07 -0.000203214
0.000371404 0.000314127 -2.58663e-05
0.000314127 -0.000229394 -2.02452e-05
-2.58663e-05 -2.02452e-05 -0.000430131
0.00156059 0.000574193 4.02006e-05
0.000574193 0.00026752 4.09038e-06
4.02006e-05 4.09038e-06 -0.000126981
0.000132272 0.000305537 9.47033e-07
0.000305537 -0.000342218 1.23949e-06
9.47033e-07 1.23949e-06 -0.000546458
0.00867388 0.000177727 -0.000379822
0.000177727 0.00531528 -5.2823e-05
-0.000379822 -5.2823e-05 0.00532074
0.000274489 0.000259742 2.70735e-05
0.000259742 -0.000242972 2.54651e-05
2.70735e-05 2.54651e-05 -0.000425229
0.00908102 5.09507e-05 7.58463e-06
5.09507e-05 0.00557993 1.12773e-06
7.58463e-06 1.12773e-06 0.00559152
0.00821514 -9.09921e-05 0.000286455
-9.09921e-05 0.00506281 2.22867e-05
0.000286455 2.22867e-05 0.00506169
0.00242366 0.000269518 1.41915e-06
0.000269518 -8.05327e-05 -9.19303e-09
1.41915e-06 -9.19303e-09 4.37756e-06
0.00261532 0.0003384 -6.80223e-07
0.0003384 -0.000190778 2.4825e-07
-6.80223e-07 2.4825e-07 -1.16784e-05
0.00235085 0.000253509 -1.50385e-06
0.000253509 -0.000386885 7.09621e-07
-1.50385e-06 7.09621e-07 -8.51848e-05
0.00249714 0.000495723 -3.26278e-07
0.000495723 -3.33291e-05 9.53929e-09
-3.26278e-07 9.53929e-09 -5.50702e-06
0.00250601 0.000715677 -1.38202e-06
0.000715677 0.000108138 -2.28494e-06
-1.38202e-06 -2.28494e-06 -1.32742e-05
0.00266729 0.000539002 -5.74856e-07
0.000539002 -0.000121569 -5.77165e-07
-5.74856e-07 -5.77165e-07 -1.81016e-05
0.00232457 8.70699e-05 5.34671e-07
8.70699e-05 -6.15712e-05 3.11788e-07
5.34671e-07 3.11788e-07 8.00615e-06
0.0024307 9.16523e-05 7.47038e-08
9.16523e-05 -0.000103079 -2.19805e-07
7.47038e-08 -2.19805e-07 1.47101e-05
0.00250925 0.000120298 7.65288e-07
0.000120298 -0.0002161 1.09534e-07
7.65288e-07 1.09534e-07 -1.96388e-05
0.00227924 -1.12351e-05 -5.43052e-07
-1.12351e-05 -8.60944e-05 1.04479e-07
-5.43052e-07 1.04479e-07 -6.53229e-06
0.00224289 -3.27823e-05 -1.44978e-06
-3.27823e-05 -4.80611e-06 4.17316e-07
-1.44978e-06 4.17316e-07 3.42195e-05
0.00240196 -9.15889e-05 -9.50174e-07
-9.15889e-05 -0.000120068 -1.00503e-07
-9.50174e-07 -1.00503e-07 6.89522e-06
0.00224895 -0.000131149 -1.04316e-06
-0.000131149 -5.36343e-05 1.78337e-07
-1.04316e-06 1.78337e-07 -6.80408e-06
0.00212096 -0.000149882 -4.32163e-06
-0.000149882 -5.18254e-05 6.98375e-07
-4.32163e-06 6.98375e-07 -5.59524e-05
0.00227603 -0.000240386 2.76509e-07
-0.000240386 -6.28719e-05 -2.36175e-07
2.76509e-07 -2.36175e-07 -1.73459e-05
0.00224263 -0.000244786 1.20216e-06
-0.000244786 2.43017e-05 -2.9795e-07
1.20216e-06 -2.9795e-07 3.84149e-06
0.00222949 -0.000249564 -1.28261e-06
-0.000249564 9.69086e-05 2.46797e-07
-1.28261e-06 2.46797e-07 1.33772e-05
0.00234048 -0.000361712 4.74978e-06
-0.000361712 8.41876e-05 -9.9153e-07
4.74978e-06 -9.9153e-07 3.71749e-05
0.0022221 -0.000338791 -3.75125e-07
-0.000338791 0.000116841 -1.17854e-07
-3.75125e-07 -1.17854e-07 3.04609e-06
0.00141631 -0.000210345 -3.17292e-06
-0.000210345 -3.8667e-05 1.36553e-06
-3.17292e-06 1.36553e-06 -0.00020713
0.00218091 -0.000422563 2.09966e-06
-0.000422563 0.00011347 1.38004e-07
2.09966e-06 1.38004e-07 -4.31143e-05
0.00145793 -0.000265223 -3.03221e-07
-0.000265223 -1.56396e-05 1.62517e-07
-3.03221e-07 1.62517e-07 -0.000205409
0.00272885 -0.000208513 -7.35876e-05
-0.000208513 0.00130035 1.18745e-05
-7.35876e-05 1.18745e-05 0.0011885
0.00151056 -0.000323793 6.67259e-06
-0.000323793 1.39756e-05 -2.9119e-06
6.67259e-06 -2.9119e-06 -0.000201033
0.00294842 -0.000225175 5.05305e-05
-0.000225175 0.00142689 -6.17188e-06
5.05305e-05 -6.17188e-06 0.00131808
0.00265115 -0.000120214 -0.000300163
-0.000120214 0.0013726 3.90971e-05
-0.000300163 3.90971e-05 0.00135668
0.00313919 -0.000259861 0.000177277
-0.000259861 0.00153823 -2.9145e-05
0.000177277 -2.9145e-05 0.00143198
0.00231233 -0.000104982 -0.000110276
-0.000104982 0.00116035 1.54079e-05
-0.000110276 1.54079e-05 0.00112331
0.00199261 -0.000104451 8.35327e-05
-0.000104451 0.000967224 -1.45965e-05
8.35327e-05 -1.45965e-05 0.000903335
0.00229183 0.000301602 9.85766e-07
0.000301602 -3.15186e-05 2.94536e-07
9.85766e-07 2.94536e-07 -2.02548e-05
0.00235166 0.000447359 -4.2621e-06
0.000447359 0.000113458 -3.3319e-07
-4.2621e-06 -3.3319e-07 2.14741e-05
0.00239516 0.000484557 -5.04029e-07
0.000484557 4.43075e-05 -2.64443e-07
-5.04029e-07 -2.64443e-07 8.64468e-06
0.00230179 0.000526571 -1.14725e-06
0.000526571 0.00021018 9.43428e-07
-1.14725e-06 9.43428e-07 7.98568e-06
0.00232711 0.000553974 -6.96748e-07
0.000553974 0.000132378 -2.89721e-07
-6.96748e-07 -2.89721e-07 -1.39201e-05
0.0024298 0.000573029 -4.49302e-07
0.000573029 0.000110567 1.91373e-07
-4.49302e-07 1.91373e-07 1.19025e-05
0.00151993 0.000392153 -1.70509e-05
0.000392153 2.52133e-05 -3.27899e-06
-1.70509e-05 -3.27899e-06 -0.000223183
0.00218685 0.000587479 3.95559e-07
0.000587479 0.000198988 -1.48693e-06
3.95559e-07 -1.48693e-06 -5.57725e-05
0.00239937 0.000666224 -4.06672e-06
0.000666224 0.000224226 -5.44967e-06
-4.06672e-06 -5.44967e-06 2.22083e-05
0.00039111 0.000248672 -2.21743e-05
0.000248672 -0.000240305 -1.65942e-05
-2.21743e-05 -1.65942e-05 -0.000415533
0.00156093 0.00046549 -5.75601e-08
0.00046549 8.03844e-05 2.68085e-07
-5.75601e-08 2.68085e-07 -0.000216789
0.00212696 0.000678541 8.5013e-07
0.000678541 0.00024188 -9.02426e-06
8.5013e-07 -9.02426e-06 -8.85183e-05
0.00149453 0.000548395 3.62924e-05
0.000548395 0.00012403 3.68082e-06
3.62924e-05 3.68082e-06 -0.000238981
0.00030257 0.000299923 2.34648e-09
0.000299923 -0.000270797 9.92296e-07
2.34648e-09 9.92296e-07 -0.000470914
0.00826035 0.000266426 -0.000378116
0.000266426 0.00504716 -5.6747e-05
-0.000378116 -5.6747e-05 0.00504937
0.000277755 0.000294436 2.64521e-05
0.000294436 -0.000244355 2.11326e-05
2.64521e-05 2.11326e-05 -0.000444818
0.00885784 0.000156073 1.00372e-05
0.000156073 0.00542007 2.1835e-06
1.00372e-05 2.1835e-06 0.00543429
0.00887077 1.25124e-05 0.000347159
1.25124e-05 0.00543845 2.95039e-05
0.000347159 2.95039e-05 0.00545022
0.0023204 0.000165486 7.58711e-07
0.000165486 -2.93553e-05 -2.32595e-07
7.58711e-07 -2.32595e-07 2.60083e-05
0.00238658 0.00027357 5.20851e-07
0.00027357 -0.000111704 3.13698e-07
5.20851e-07 3.13698e-07 -2.78124e-05
0.00257213 0.000347247 -9.29411e-07
0.000347247 -0.000237918 1.29376e-06
-9.29411e-07 1.29376e-06 -5.23157e-05
0.00248563 0.000489365 -1.01482e-06
0.000489365 -3.90114e-05 -4.95429e-07
-1.01482e-06 -4.95429e-07 -9.73494e-06
0.00220821 3.89902e-05 -2.06195e-06
3.89902e-05 7.1415e-06 4.03155e-07
-2.06195e-06 4.03155e-07 2.39912e-05
0.00232064 7.69124e-05 2.76108e-08
7.69124e-05 -6.7423e-05 -1.20413e-08
2.76108e-08 -1.20413e-08 4.95024e-06
0.00240677 9.11073e-05 2.86784e-07
9.11073e-05 -0.000114493 -3.80402e-07
2.86784e-07 -3.80402e-07 2.68804e-06
0.00230302 -6.86697e-06 -2.67306e-06
-6.86697e-06 -6.6817e-05 -6.41184e-07
-2.67306e-06 -6.41184e-07 1.01485e-05
0.00225319 -2.65152e-05 -6.41697e-07
-2.65152e-05 -4.51295e-06 -1.15281e-07
-6.41697e-07 -1.15281e-07 3.80947e-05
0.00216243 -5.8772e-05 -4.82135e-06
-5.8772e-05 3.08763e-07 5.572e-07
-4.82135e-06 5.572e-07 -5.32379e-06
0.0022739 -0.000133 1.82827e-08
-0.000133 -2.72814e-05 2.79339e-07
1.82827e-08 2.79339e-07 1.36168e-05
0.00218973 -0.00015133 -1.64972e-06
-0.00015133 5.26874e-06 2.72469e-07
-1.64972e-06 2.72469e-07 -6.20655e-06
0.00217295 -0.000162162 -1.59492e-06
-0.000162162 4.234e-05 3.91914e-07
-1.59492e-06 3.91914e-07 -1.78185e-05
0.00224527 -0.00024382 6.17795e-06
-0.00024382 2.60094e-05 -1.24836e-06
6.17795e-06 -1.24836e-06 5.75795e-06
0.00223751 -0.000246986 6.37817e-07
-0.000246986 0.000106965 -2.95884e-07
6.37817e-07 -2.95884e-07 2.41933e-05
0.00143641 -0.000158515 -3.12767e-06
-0.000158515 -2.68377e-05 7.92873e-07
-3.12767e-06 7.92873e-07 -0.000176484
0.00220583 -0.000334993 2.26517e-06
-0.000334993 0.000108733 -4.20392e-07
2.26517e-06 -4.20392e-07 -4.06699e-06
0.00143883 -0.000210484 -1.45693e-07
-0.000210484 -2.93128e-05 1.30362e-07
-1.45693e-07 1.30362e-07 -0.000196826
0.000290678 -0.00011097 -1.66345e-05
-0.00011097 -0.000301663 6.91305e-06
-1.66345e-05 6.91305e-06 -0.000419477
0.00150854 -0.000266526 4.35307e-06
-0.000266526 1.22505e-05 -2.03035e-06
4.35307e-06 -2.03035e-06 -0.000176284
0.00160996 -0.000149265 7.52367e-05
-0.000149265 0.000554696 -6.38759e-06
7.52367e-05 -6.38759e-06 0.00044888
0.00730146 -0.00019487 -0.000396979
-0.00019487 0.00442958 3.33075e-05
-0.000396979 3.33075e-05 0.00445907
0.00306178 -0.000206829 0.000172273
-0.000206829 0.00148962 -2.28384e-05
0.000172273 -2.28384e-05 0.00139723
0.00226161 -9.53758e-05 -0.000100597
-9.53758e-05 0.00113208 1.00413e-05
-0.000100597 1.00413e-05 0.00109549
0.00189556 -0.000116487 9.40466e-05
-0.000116487 0.000914568 -1.58674e-05
9.40466e-05 -1.58674e-05 0.000850194
0.00222782 0.00019979 -1.03157e-07
0.00019979 -1.38016e-05 -5.72993e-07
-1.03157e-07 -5.72993e-07 -4.20422e-06
0.00230383 0.000338865 -2.95038e-06
0.000338865 6.03643e-05 -2.40644e-09
-2.95038e-06 -2.40644e-09 1.00285e-05
0.00231098 0.000293743 -4.96559e-07
0.000293743 -4.22547e-06 -1.27947e-07
-4.96559e-07 -1.27947e-07 5.09362e-07
0.00231968 0.000423347 -7.24963e-07
0.000423347 0.000197965 1.14329e-06
-7.24963e-07 1.14329e-06 5.4977e-05
0.00229566 0.00044478 5.48293e-07
0.00044478 7.64756e-05 7.95873e-08
5.48293e-07 7.95873e-08 -1.45015e-05
0.00236995 0.000484763 -6.84899e-07
0.000484763 7.08279e-06 -3.62073e-07
-6.84899e-07 -3.62073e-07 -1.68246e-05
0.00165908 0.000344074 -9.39995e-06
0.000344074 0.000123852 -9.70195e-07
-9.39995e-06 -9.70195e-07 -8.22177e-05
0.00224431 0.000517671 -6.06415e-07
0.000517671 0.000173945 -4.66167e-07
-6.06415e-07 -4.66167e-07 -2.78068e-05
0.00228843 0.000546277 1.97449e-06
0.000546277 0.000114501 -1.06385e-06
1.97449e-06 -1.06385e-06 -3.66939e-05
0.00036551 0.000181635 -1.86963e-05
0.000181635 -0.000263647 -1.25534e-05
-1.86963e-05 -1.25534e-05 -0.000414278
0.00154801 0.000390565 5.48741e-07
0.000390565 5.34393e-05 3.42756e-07
5.48741e-07 3.42756e-07 -0.000189247
0.00223937 0.000594521 1.58439e-06
0.000594521 0.000227962 -7.7833e-06
1.58439e-06 -7.7833e-06 -1.65269e-05
0.00789927 0.000318485 -0.000380637
0.000318485 0.00481529 -5.51412e-05
-0.000380637 -5.51412e-05 0.00481801
0.000341735 0.000246323 4.36958e-07
0.000246323 -0.000277167 7.19116e-07
4.36958e-07 7.19116e-07 -0.000454392
0.00151389 0.000456047 2.69265e-05
0.000456047 6.34136e-05 3.58444e-06
2.69265e-05 3.58444e-06 -0.000232526
0.00024156 0.000287421 2.33558e-05
0.000287421 -0.000306603 2.06272e-05
2.33558e-05 2.06272e-05 -0.000506384
0.00834656 0.000264544 9.50853e-06
0.000264544 0.00509931 2.99345e-06
9.50853e-06 2.99345e-06 0.00510753
0.00890537 0.000132653 0.000401885
0.000132653 0.00543536 3.82206e-05
0.000401885 3.82206e-05 0.00545846
0.00215213 0.000104035 -2.93719e-06
0.000104035 -2.14539e-05 1.2272e-08
-2.93719e-06 1.2272e-08 -1.38308e-05
0.00231504 0.000159871 -1.59148e-07
0.000159871 -3.30009e-05 1.05715e-07
-1.59148e-07 1.05715e-07 1.93178e-05
0.0023523 0.000277228 -9.3687e-07
0.000277228 -0.000139855 3.94459e-07
-9.3687e-07 3.94459e-07 -5.70821e-05
0.00220896 2.02684e-05 -6.77357e-06
2.02684e-05 5.18731e-05 2.00029e-07
-6.77357e-06 2.00029e-07 3.64707e-05
0.00217532 4.57555e-05 7.34604e-07
4.57555e-05 -1.97446e-05 2.71903e-08
7.34604e-07 2.71903e-08 1.48975e-06
0.00231864 6.59212e-05 -8.97156e-07
6.59212e-05 -7.2218e-05 -3.39443e-07
-8.97156e-07 -3.39443e-07 3.08027e-06
0.00226063 -2.05109e-05 5.57667e-07
-2.05109e-05 -6.72577e-06 -3.67551e-07
5.57667e-07 -3.67551e-07 3.99605e-05
0.00216365 -5.74533e-05 -4.81028e-07
-5.74533e-05 2.14703e-07 4.31472e-09
-4.81028e-07 4.31472e-09 -4.25843e-06
0.00209831 -7.51422e-05 -1.38172e-06
-7.51422e-05 5.95831e-06 2.86863e-07
-1.38172e-06 2.86863e-07 -5.98662e-05
0.00225716 -0.000152943 4.53822e-06
-0.000152943 6.20191e-05 -6.25213e-07
4.53822e-06 -6.25213e-07 4.33285e-05
0.0021894 -0.000164541 8.55703e-07
-0.000164541 6.56852e-05 -4.65027e-08
8.55703e-07 -4.65027e-08 -4.55315e-06
0.00152789 -9.98452e-05 -3.52682e-06
-9.98452e-05 3.56399e-05 1.97371e-07
-3.52682e-06 1.97371e-07 -8.62528e-05
0.0022306 -0.000245584 2.51861e-06
-0.000245584 0.000107253 -8.95909e-07
2.51861e-06 -8.95909e-07 2.48428e-05
0.00142475 -0.000154774 7.22476e-08
-0.000154774 -4.16237e-05 1.70802e-08
7.22476e-08 1.70802e-08 -0.000190234
0.000276109 -4.01094e-05 -1.5193e-05
-4.01094e-05 -0.000308027 3.87713e-06
-1.5193e-05 3.87713e-06 -0.000413742
0.00147541 -0.000209849 2.39963e-06
-0.000209849 -1.35414e-05 -1.1964e-06
2.39963e-06 -1.1964e-06 -0.000179855
0.000319135 -9.58702e-05 -4.78071e-07
-9.58702e-05 -0.000280127 5.07952e-07
-4.78071e-07 5.07952e-07 -0.000397176
0.00718338 -8.59728e-05 -0.000384837
-8.59728e-05 0.00434519 2.14398e-05
-0.000384837 2.14398e-05 0.00438165
0.000426397 -0.000108246 1.26101e-05
-0.000108246 -0.000219663 -9.18352e-06
1.26101e-05 -9.18352e-06 -0.000347133
0.00466936 -0.000128486 0.000163645
-0.000128486 0.00271548 -9.97798e-06
0.000163645 -9.97798e-06 0.00270015
0.00185013 -0.000102558 9.86095e-05
-0.000102558 0.000888831 -1.46949e-05
9.86095e-05 -1.46949e-05 0.000826715
0.00225089 0.000167805 -5.02076e-06
0.000167805 6.8563e-05 -6.45467e-07
-5.02076e-06 -6.45467e-07 6.86487e-05
0.00227969 0.000242074 -5.38486e-06
0.000242074 7.72822e-05 -4.14956e-07
-5.38486e-06 -4.14956e-07 3.43327e-05
0.0022216 0.000192139 -7.27192e-07
0.000192139 -1.21402e-05 -3.14255e-07
-7.27192e-07 -3.14255e-07 -1.8667e-06
0.00231832 0.000336918 -8.67815e-07
0.000336918 0.000190146 6.52931e-07
-8.67815e-07 6.52931e-07 7.23859e-05
0.00232227 0.000335879 -1.17358e-07
0.000335879 7.40994e-05 -1.04866e-07
-1.17358e-07 -1.04866e-07 2.24953e-05
0.00233307 0.000286393 4.47746e-07
0.000286393 2.56284e-05 -9.42523e-08
4.47746e-07 -9.42523e-08 2.37504e-05
0.00155345 0.00027366 -4.13017e-06
0.00027366 5.48289e-05 -5.53156e-07
-4.13017e-06 -5.53156e-07 -0.00012217
0.00219878 0.000415957 1.73244e-06
0.000415957 0.000123539 3.36665e-07
1.73244e-06 3.36665e-07 -2.94266e-05
0.00223688 0.000442368 3.70352e-06
0.000442368 3.76573e-05 -1.45591e-07
3.70352e-06 -1.45591e-07 -5.21358e-05
0.000335467 0.000132797 -1.64072e-05
0.000132797 -0.000280366 -9.19237e-06
-1.64072e-05 -9.19237e-06 -0.000414765
0.00157252 0.000334062 1.83715e-06
0.000334062 7.25543e-05 1.11907e-06
1.83715e-06 1.11907e-06 -0.000130753
0.00218662 0.000509676 5.27213e-07
0.000509676 0.000137326 -2.1387e-06
5.27213e-07 -2.1387e-06 -6.38112e-05
0.0076035 0.000343066 -0.000392026
0.000343066 0.00463768 -5.17685e-05
-0.000392026 -5.17685e-05 0.00464074
0.000349752 0.000185831 5.3441e-07
0.000185831 -0.000278877 4.46722e-07
5.3441e-07 4.46722e-07 -0.000432273
0.00157915 0.000391267 1.78696e-05
0.000391267 8.13893e-05 2.34224e-06
1.78696e-05 2.34224e-06 -0.000156295
0.00800738 0.000340763 1.14133e-05
0.000340763 0.00489546 5.38783e-06
1.14133e-05 5.38783e-06 0.00489496
0.000307058 0.000244115 1.98861e-05
0.000244115 -0.000304924 1.70781e-05
1.98861e-05 1.70781e-05 -0.000484245
0.00842195 0.000239844 0.000400144
0.000239844 0.00513122 4.70289e-05
0.000400144 4.70289e-05 0.00514945
0.00214619 8.47241e-05 -6.51606e-06
8.47241e-05 1.59225e-06 4.57132e-08
-6.51606e-06 4.57132e-08 -2.05125e-05
0.0021715 0.000111897 -7.97688e-07
0.000111897 -5.83367e-07 -2.61353e-07
-7.97688e-07 -2.61353e-07 6.98876e-06
0.00230825 0.000154661 -3.82687e-07
0.000154661 -3.69757e-05 1.81572e-07
-3.82687e-07 1.81572e-07 1.21344e-05
0.00209143 -9.43982e-07 -5.11692e-07
-9.43982e-07 4.37784e-06 1.10358e-07
-5.11692e-07 1.10358e-07 -6.0285e-05
0.00217604 2.2224e-05 -5.61855e-07
2.2224e-05 2.41236e-05 1.76828e-08
-5.61855e-07 1.76828e-08 1.21629e-05
0.00214242 5.32563e-05 2.00564e-06
5.32563e-05 -4.66196e-05 -1.25373e-07
2.00564e-06 -1.25373e-07 -2.10423e-05
0.00216684 -5.62687e-05 3.59166e-06
-5.62687e-05 1.8321e-06 -4.20702e-07
3.59166e-06 -4.20702e-07 -1.70601e-06
0.00208458 -7.38708e-05 -1.50578e-06
-7.38708e-05 -2.45693e-07 2.57644e-07
-1.50578e-06 2.57644e-07 -6.51249e-05
0.00145689 -4.03154e-05 -2.87993e-06
-4.03154e-05 9.02215e-06 -9.18949e-08
-2.87993e-06 -9.18949e-08 -0.00010503
0.00218388 -0.000166572 3.22594e-07
-0.000166572 7.26027e-05 -5.68131e-07
3.22594e-07 -5.68131e-07 -7.69598e-06
0.00145328 -0.000100903 3.55888e-06
-0.000100903 -1.97359e-05 -3.83488e-07
3.55888e-06 -3.83488e-07 -0.000148394
0.000260884 -1.75922e-05 -1.55675e-05
-1.75922e-05 -0.000309509 2.35933e-06
-1.55675e-05 2.35933e-06 -0.000408927
0.00140268 -0.00015247 2.5919e-06
-0.00015247 -6.16998e-05 -8.57093e-07
2.5919e-06 -8.57093e-07 -0.000209563
0.000286463 -5.07503e-05 3.82256e-07
-5.07503e-05 -0.00029788 -3.46474e-07
3.82256e-07 -3.46474e-07 -0.00040277
0.00694177 -0.00017657 -0.00038253
-0.00017657 0.00420994 2.31268e-05
-0.00038253 2.31268e-05 0.00423852
0.000328158 -8.05002e-05 1.51859e-05
-8.05002e-05 -0.00027178 -5.45314e-06
1.51859e-05 -5.45314e-06 -0.000387183
0.00709391 -0.000121269 6.80688e-06
-0.000121269 0.00429288 2.37479e-07
6.80688e-06 2.37479e-07 0.00432763
0.00212302 -5.27483e-05 0.000291822
-5.27483e-05 0.00103384 -2.27516e-05
0.000291822 -2.27516e-05 0.00102652
0.0021912 0.000167299 -7.80046e-06
0.000167299 3.57877e-05 -7.18424e-07
-7.80046e-06 -7.18424e-07 8.28234e-07
0.00216526 0.000168639 -8.8545e-07
0.000168639 -1.55117e-06 -9.10836e-08
-8.8545e-07 -9.10836e-08 5.66066e-06
0.00230887 0.000249135 6.18178e-07
0.000249135 0.000167648 5.37096e-07
6.18178e-07 5.37096e-07 7.44516e-05
0.00228254 0.000241682 7.25017e-07
0.000241682 7.55956e-05 3.39232e-08
7.25017e-07 3.39232e-08 3.31944e-05
0.00221282 0.000184291 8.41726e-07
0.000184291 -1.2706e-05 7.0674e-08
8.41726e-07 7.0674e-08 -1.57305e-06
0.00136897 0.000200839 -1.22536e-06
0.000200839 -6.16733e-05 -7.33787e-07
-1.22536e-06 -7.33787e-07 -0.000228795
0.00224933 0.000334495 3.64131e-07
0.000334495 0.000137955 3.17671e-08
3.64131e-07 3.17671e-08 1.96319e-05
0.00233876 0.00033275 4.31165e-06
0.00033275 8.59391e-05 3.41934e-07
4.31165e-06 3.41934e-07 3.29836e-05
0.000328129 9.82661e-05 -1.53761e-05
9.82661e-05 -0.000275765 -6.88785e-06
-1.53761e-05 -6.88785e-06 -0.000398965
0.0014787 0.000267853 3.12071e-06
0.000267853 1.20726e-05 1.04699e-06
3.12071e-06 1.04699e-06 -0.00017066
0.00209752 0.000409641 7.4173e-07
0.000409641 6.29522e-05 -5.23544e-07
7.4173e-07 -5.23544e-07 -0.000100235
0.00735621 0.000326795 -0.000401961
0.000326795 0.00449112 -4.62161e-05
-0.000401961 -4.62161e-05 0.00449694
0.000346701 0.000139777 6.36306e-07
0.000139777 -0.000275956 3.14458e-07
6.36306e-07 3.14458e-07 -0.000412936
0.00149427 0.000324223 9.76342e-06
0.000324223 2.61527e-05 2.86775e-06
9.76342e-06 2.86775e-06 -0.000174191
0.00771642 0.000371086 8.19285e-06
0.000371086 0.00472245 5.69381e-06
8.19285e-06 5.69381e-06 0.00471986
0.000344119 0.000189283 1.72487e-05
0.000189283 -0.000287597 1.32799e-05
1.72487e-05 1.32799e-05 -0.000443666
0.00814273 0.000356217 0.000412935
0.000356217 0.00497903 5.80833e-05
0.000412935 5.80833e-05 0.00498262
0.00204967 8.11764e-05 9.72098e-07
8.11764e-05 -1.95952e-05 -6.56743e-08
9.72098e-07 -6.56743e-08 -9.14553e-05
0.00218069 8.5366e-05 -2.41161e-06
8.5366e-05 3.04874e-05 -1.47943e-07
-2.41161e-06 -1.47943e-07 7.08529e-06
0.00219089 0.000119469 3.76181e-06
0.000119469 2.04605e-05 3.69087e-08
3.76181e-06 3.69087e-08 2.7909e-05
0.0014304 -5.37666e-06 -2.77392e-06
-5.37666e-06 1.09442e-05 3.68185e-09
-2.77392e-06 3.68185e-09 -0.000102142
0.00206829 1.70722e-06 -1.27256e-06
1.70722e-06 -7.08417e-06 8.51706e-08
-1.27256e-06 8.51706e-08 -7.15844e-05
0.00214084 2.36394e-05 4.07554e-06
2.36394e-05 -5.0248e-06 -1.16998e-07
4.07554e-06 -1.16998e-07 -1.35007e-05
0.00205822 -7.28206e-05 -2.08631e-06
-7.28206e-05 -1.522e-05 1.66761e-07
-2.08631e-06 1.66761e-07 -7.94524e-05
0.00145193 -4.31415e-05 2.74427e-06
-4.31415e-05 -4.3215e-06 -1.487e-07
2.74427e-06 -1.487e-07 -0.000118342
0.000271565 -3.42378e-05 -1.62775e-05
-3.42378e-05 -0.000295276 1.39886e-06
-1.62775e-05 1.39886e-06 -0.000390096
0.00139685 -0.000101431 6.45383e-06
-0.000101431 -6.23488e-05 -1.09128e-06
6.45383e-06 -1.09128e-06 -0.000197664
0.000277253 -6.45668e-06 -4.50305e-08
-6.45668e-06 -0.000298725 5.18568e-08
-4.50305e-08 5.18568e-08 -0.000396432
0.00683033 -0.000142771 -0.000381804
-0.000142771 0.00413629 1.76815e-05
-0.000381804 1.76815e-05 0.00416906
0.000332327 -5.771e-05 1.61794e-05
-5.771e-05 -0.000263084 -3.80567e-06
1.61794e-05 -3.80567e-06 -0.000368397
0.00693061 -7.44355e-05 -2.695e-06
-7.44355e-05 0.00418795 3.70277e-06
-2.695e-06 3.70277e-06 0.00422575
0.00705469 -0.000134809 0.000381648
-0.000134809 0.00427046 -2.10698e-05
0.000381648 -2.10698e-05 0.00430479
0.00222007 0.000161467 1.17698e-06
0.000161467 0.000103349 7.00617e-08
1.17698e-06 7.00617e-08 2.70652e-05
0.0021857 0.00016752 -1.30739e-06
0.00016752 2.26321e-05 -1.62941e-07
-1.30739e-06 -1.62941e-07 -7.41408e-06
0.00208228 0.000169697 3.39264e-06
0.000169697 -7.03382e-05 5.31242e-07
3.39264e-06 5.31242e-07 -5.60014e-05
0.00134195 0.000136621 -8.78789e-07
0.000136621 -7.14494e-05 -3.70385e-07
-8.78789e-07 -3.70385e-07 -0.000220654
0.00225106 0.00024636 2.7317e-07
0.00024636 0.000123087 -9.52848e-08
2.7317e-07 -9.52848e-08 2.96708e-05
0.00228939 0.000241317 5.04054e-06
0.000241317 7.69183e-05 1.53447e-07
5.04054e-06 1.53447e-07 3.50498e-05
0.000319722 6.77357e-05 -1.4653e-05
6.77357e-05 -0.000269874 -5.06688e-06
-1.4653e-05 -5.06688e-06 -0.000383507
0.0013993 0.000202674 1.08819e-07
0.000202674 -3.11465e-05 2.32759e-07
1.08819e-07 2.32759e-07 -0.000199322
0.00218292 0.000331915 1.05713e-06
0.000331915 8.7827e-05 -7.3886e-07
1.05713e-06 -7.3886e-07 -3.09894e-05
0.00712773 0.00026458 -0.000406054
0.00026458 0.00434112 -3.70878e-05
-0.000406054 -3.70878e-05 0.00435863
0.000334697 0.00010676 7.44359e-07
0.00010676 -0.000273213 1.99987e-07
7.44359e-07 1.99987e-07 -0.000399015
0.00138603 0.000260588 4.71534e-06
0.000260588 -4.32821e-05 2.35359e-06
4.71534e-06 2.35359e-06 -0.000231466
0.00747396 0.000347068 4.62595e-06
0.000347068 0.00457144 3.65536e-06
4.62595e-06 3.65536e-06 0.00457514
0.000353925 0.000147934 1.57082e-05
0.000147934 -0.000272835 1.01924e-05
1.57082e-05 1.01924e-05 -0.000412995
0.00783655 0.000411929 0.00041754
0.000411929 0.00481368 6.26877e-05
0.00041754 6.26877e-05 0.00480452
0.00127206 4.41752e-05 -4.0465e-06
4.41752e-05 -8.88688e-05 -1.67991e-07
-4.0465e-06 -1.67991e-07 -0.000219156
0.00212204 7.8458e-05 -2.02534e-06
7.8458e-05 3.03613e-05 -9.9136e-08
-2.02534e-06 -9.9136e-08 -3.37581e-05
0.00221761 8.63983e-05 4.46312e-06
8.63983e-05 6.05604e-05 9.79034e-08
4.46312e-06 9.79034e-08 3.5919e-05
0.000310509 3.28955e-05 -1.69615e-05
3.28955e-05 -0.000271578 -7.63501e-07
-1.69615e-05 -7.63501e-07 -0.00035801
0.00142812 -1.71977e-06 2.75185e-06
-1.71977e-06 5.83376e-07 3.12465e-09
2.75185e-06 3.12465e-09 -0.00011231
0.00204079 5.97205e-06 -2.29101e-06
5.97205e-06 -2.18927e-05 1.47548e-08
-2.29101e-06 1.47548e-08 -8.62367e-05
0.00145164 -4.55191e-05 8.73431e-06
-4.55191e-05 -1.38606e-05 -6.98935e-07
8.73431e-06 -6.98935e-07 -0.000127681
0.000279188 -7.90245e-06 2.05866e-07
-7.90245e-06 -0.000288924 4.17834e-07
2.05866e-07 4.17834e-07 -0.000383456
0.00673154 -2.40519e-06 -0.000383438
-2.40519e-06 0.00406213 4.17298e-06
-0.000383438 4.17298e-06 0.00410417
0.000282473 4.96427e-06 1.57735e-05
4.96427e-06 -0.000295517 -1.40621e-06
1.57735e-05 -1.40621e-06 -0.000391439
0.00678789 -0.000140043 -7.35923e-06
-0.000140043 0.00411103 2.37308e-06
-7.35923e-06 2.37308e-06 0.00414321
0.00685963 -5.75954e-05 0.000367483
-5.75954e-05 0.00414205 -1.23948e-05
0.000367483 -1.23948e-05 0.00418015
0.00132639 8.62985e-05 -2.8438e-06
8.62985e-05 -6.18899e-05 -5.11798e-07
-2.8438e-06 -5.11798e-07 -0.000198937
0.00222702 0.00015714 -2.10294e-07
0.00015714 0.000104197 -2.7623e-07
-2.10294e-07 -2.7623e-07 3.16086e-05
0.00217753 0.000167481 2.66864e-06
0.000167481 8.09491e-06 -1.35671e-07
2.66864e-06 -1.35671e-07 -1.70935e-05
0.00277731 8.1755e-05 -0.000168478
8.1755e-05 0.00134093 -7.36351e-06
-0.000168478 -7.36351e-06 0.00128225
0.0013575 0.000137928 3.23113e-08
0.000137928 -5.13668e-05 9.36018e-08
3.23113e-08 9.36018e-08 -0.00020135
0.00218851 0.000243192 4.72285e-07
0.000243192 7.60351e-05 -7.13511e-07
4.72285e-07 -7.13511e-07 -1.75795e-05
0.00696807 0.000194804 -0.000403704
0.000194804 0.00423048 -2.69248e-05
-0.000403704 -2.69248e-05 0.00425946
0.000325926 8.75195e-05 1.01195e-06
8.75195e-05 -0.000265787 5.01565e-07
1.01195e-06 5.01565e-07 -0.00038235
0.00142631 0.000204005 1.7224e-06
0.000204005 -3.04953e-06 9.97771e-07
1.7224e-06 9.97771e-07 -0.000172275
0.00724649 0.000282323 1.76271e-06
0.000282323 0.00441867 1.85596e-06
1.76271e-06 1.85596e-06 0.00443441
0.000349877 0.000117443 1.54826e-05
0.000117443 -0.000264055 7.98039e-06
1.54826e-05 7.98039e-06 -0.000393032
0.00758403 0.000382911 0.000419929
0.000382911 0.00465578 5.81637e-05
0.000419929 5.81637e-05 0.00465305
0.000398884 1.73454e-05 -1.26486e-05
1.73454e-05 -0.000200076 -1.89332e-06
-1.26486e-05 -1.89332e-06 -0.000296343
0.00133797 4.41616e-05 -6.92525e-07
4.41616e-05 -4.78337e-05 6.65702e-08
-6.92525e-07 6.65702e-08 -0.000171666
0.00219556 7.44137e-05 -1.41343e-06
7.44137e-05 8.10214e-05 -1.73255e-07
-1.41343e-06 -1.73255e-07 2.46486e-05
0.00659244 -0.000105938 -0.000367237
-0.000105938 0.00399061 6.51877e-06
-0.000367237 6.51877e-06 0.00402176
0.000267173 1.24426e-05 -7.30505e-07
1.24426e-05 -0.000294513 -2.41608e-07
-7.30505e-07 -2.41608e-07 -0.000383591
0.00143818 5.9234e-07 8.54609e-06
5.9234e-07 -1.55421e-06 -2.64473e-07
8.54609e-06 -2.64473e-07 -0.000114213
0.000260946 1.80123e-05 1.60226e-05
1.80123e-05 -0.000301186 4.37491e-08
1.60226e-05 4.37491e-08 -0.000394239
0.00667379 -3.60802e-05 1.65462e-06
-3.60802e-05 0.00403205 -2.04502e-06
1.65462e-06 -2.04502e-06 0.00406867
0.00676214 -6.68701e-05 0.000371697
-6.68701e-05 0.00408075 -9.32533e-06
0.000371697 -9.32533e-06 0.00411968
0.00287292 2.97268e-05 -0.000163233
2.97268e-05 0.00140601 -3.92446e-06
-0.000163233 -3.92446e-06 0.00135359
0.00131759 8.89035e-05 -1.14847e-07
8.89035e-05 -6.53956e-05 -7.45956e-08
-1.14847e-07 -7.45956e-08 -0.000203235
0.00223166 0.000152985 1.22609e-07
0.000152985 0.000102931 -6.10816e-07
1.22609e-07 -6.10816e-07 3.40282e-05
0.00652689 -5.30497e-06 -0.000176549
-5.30497e-06 0.00395639 -1.21658e-06
-0.000176549 -1.21658e-06 0.00394753
0.000298753 7.08176e-05 7.00078e-07
7.08176e-05 -0.000274321 2.34981e-07
7.00078e-07 2.34981e-07 -0.000380825
0.00137831 0.000140357 1.43836e-06
0.000140357 -2.97032e-05 4.06423e-07
1.43836e-06 4.06423e-07 -0.000180566
0.00703593 0.000172355 -8.42428e-06
0.000172355 0.00426741 -1.77243e-06
-8.42428e-06 -1.77243e-06 0.00429762
0.00032793 0.000109282 1.64929e-05
0.000109282 -0.000265553 6.83753e-06
1.64929e-05 6.83753e-06 -0.000384261
0.00733958 0.000304507 0.000418774
0.000304507 0.00448296 4.72944e-05
0.000418774 4.72944e-05 0.00449727
0.00203086 -5.09037e-05 -0.000283144
-5.09037e-05 0.000977258 1.8549e-06
-0.000283144 1.8549e-06 0.000983633
0.00153177 3.89575e-05 -7.23759e-05
3.89575e-05 0.000531421 -2.57598e-07
-7.23759e-05 -2.57598e-07 0.000462745
0.00139707 4.67326e-05 5.90428e-06
4.67326e-05 -1.10804e-05 1.99789e-07
5.90428e-06 1.99789e-07 -0.000128503
0.00665593 -5.16741e-05 6.60041e-06
-5.16741e-05 0.00402494 3.60425e-06
6.60041e-06 3.60425e-06 0.00406226
0.000278432 -6.36973e-06 1.65926e-05
-6.36973e-06 -0.000279539 6.28854e-07
1.65926e-05 6.28854e-07 -0.000372459
0.00670145 -9.61031e-05 0.000384342
-9.61031e-05 0.00405559 -7.80878e-06
0.000384342 -7.80878e-06 0.00409158
0.00160667 3.04493e-05 -8.26165e-05
3.04493e-05 0.000735483 -2.02544e-06
-8.26165e-05 -2.02544e-06 0.000689566
0.00152655 3.09957e-05 -7.3137e-05
3.09957e-05 0.000528052 -2.14935e-06
-7.3137e-05 -2.14935e-06 0.000453164
0.00131319 8.9827e-05 3.09835e-06
8.9827e-05 -6.49651e-05 2.48009e-07
3.09835e-06 2.48009e-07 -0.000203474
0.00428195 8.6343e-05 0.000143787
8.6343e-05 0.00247075 5.28541e-06
0.000143787 5.28541e-06 0.00246573
0.000276306 8.19206e-05 1.66839e-05
8.19206e-05 -0.00029114 5.19213e-06
1.66839e-05 5.19213e-06 -0.000398118
0.00711286 0.000160276 0.000397772
0.000160276 0.00430823 2.9067e-05
0.000397772 2.9067e-05 0.0043422
0.00662345 -1.29401e-05 -8.24346e-06
-1.29401e-05 0.00400876 -4.07333e-06
-8.24346e-06 -4.07333e-06 0.00404411
0.00026442 5.63714e-05 1.83007e-05
5.63714e-05 -0.000297797 2.64699e-06
1.83007e-05 2.64699e-06 -0.000384805
0.00657542 3.21363e-05 0.000373337
3.21363e-05 0.00396809 3.82979e-07
0.000373337 3.82979e-07 0.00400896
0.00418334 4.62006e-05 0.000154857
4.62006e-05 0.00240896 7.08881e-06
0.000154857 7.08881e-06 0.00240787
0.000287512 1.98037e-05 1.6244e-05
1.98037e-05 -0.000278708 2.82636e-06
1.6244e-05 2.82636e-06 -0.000376229
0.00688889 2.90945e-05 0.000383354
2.90945e-05 0.00416173 1.40999e-05
0.000383354 1.40999e-05 0.00420003
0.0066616 -0.000105043 0.000373196
-0.000105043 0.0040357 -4.31203e-06
0.000373196 -4.31203e-06 0.00406763
0.00669079 3.09679e-05 0.000375759
3.09679e-05 0.0040344 8.89317e-06
0.000375759 8.89317e-06 0.0040759
