# vtk DataFile Version 2.0
Wound Healing Simulation
ASCII
DATASET UNSTRUCTURED_GRID
POINTS 3012 float
69.9759 18.75 4
67.2507 60.3285 4
69.976 18.75 2
73.0099 25.446 4
71.1327 20.9142 4
68.6801 16.6661 4
67.8233 19.9266 3.97717
67.2507 60.3286 2
71.1327 54.0858 4
68.6801 58.3339 4
65.6939 62.2254 4
65.3101 59.0001 3.97658
74.6784 42.3946 4
73.7221 47.2057 4
69.9759 18.75 0
73.0099 25.446 2
68.6801 16.6661 2
71.1327 20.9142 2
67.8238 19.9301 2
74.6792 32.6053 4
73.7222 27.7943 4
72.1454 23.1494 4
70.6125 26.2215 3.97709
68.8836 21.9583 3.97766
67.2507 14.6715 4
66.6347 17.9729 3.97611
65.7908 21.0286 3.96608
67.2507 60.3285 0
71.1327 54.0858 2
68.6801 58.3339 2
65.694 62.2255 2
65.3113 58.9954 2
72.1454 51.8506 4
69.9759 56.25 4
68.8341 53.1131 3.97684
64.0165 64.0165 4
66.6085 57.133 3.97685
63.8831 60.7639 3.97654
63.4949 57.7655 3.96734
60.3285 67.2507 4
74.6792 42.3947 2
73.7222 47.2057 2
74.9194 39.9526 4
74.2788 44.8158 4
72.1669 42.0858 3.9777
73.0099 49.554 4
71.2476 46.598 3.97664
73.0099 25.446 0
71.1327 20.9142 0
68.6801 16.6661 0
67.8233 19.9266 0.0228252
74.6792 32.6053 2
73.7222 27.7943 2
67.2508 14.6715 2
72.1455 23.1494 2
70.6122 26.222 2
66.6356 17.9776 2
68.8838 21.9605 2
65.7899 21.0297 2
74.9197 35.0474 4
74.2794 30.1841 4
72.1837 32.9441 3.97799
71.2767 28.4321 3.97699
69.8136 24.0599 3.97748
68.3418 26.9539 3.96609
66.7566 22.9359 3.96587
65.694 12.7746 4
65.321 16.1052 3.97532
64.7071 19.2001 3.9665
63.8305 22.0577 3.96474
71.1327 54.0858 0
65.6939 62.2254 0
68.6801 58.3339 0
65.3101 59.0001 0.0234172
72.1455 51.8506 2
69.9759 56.25 2
68.8342 53.111 2
64.0165 64.0165 2
66.6093 57.1287 2
63.885 60.7595 2
63.4935 57.7651 2
62.2254 65.694 4
58.8927 65.4132 3.98586
69.7668 50.989 3.9766
67.7815 55.167 3.97703
66.6431 52.2074 3.96568
62.3334 62.4247 3.97877
64.6545 56.0276 3.96688
62.197 59.3937 3.9672
61.7981 56.6641 3.96289
58.3339 68.6801 4
60.3285 67.2508 2
73.7221 47.2057 0
74.6784 42.3946 0
74.9197 39.9526 2
74.2794 44.8159 2
72.1663 42.0855 2
73.0099 49.554 2
71.2473 46.5976 2
75 37.5 4
72.4043 39.8026 3.97856
71.781 44.3529 3.97742
69.7999 41.7901 3.96749
70.5732 48.8135 3.9764
68.907 46.0143 3.96645
74.6792 32.6053 0
73.7222 27.7943 0
67.2507 14.6715 0
72.1454 23.1494 0
70.6125 26.2215 0.0229101
68.8836 21.9583 0.0223401
66.6347 17.9729 0.0238858
65.7908 21.0286 0.0339159
74.9197 35.0474 2
74.2794 30.1841 2
72.183 32.9444 2
71.2764 28.4325 2
65.694 12.7745 2
65.3225 16.1106 2
69.8136 24.0611 2
68.3414 26.9547 2
64.706 19.2011 2
66.756 22.9369 2
63.8307 22.0581 2
72.4121 35.2248 3.97857
71.8026 30.6771 3.97767
69.8361 33.2706 3.96755
68.9615 29.0406 3.9665
67.6058 24.9144 3.96583
66.1247 27.6525 3.96752
64.0165 10.9835 4
64.6928 23.8512 3.96582
63.8869 14.3299 3.97605
63.5065 17.4558 3.96703
62.8566 20.3444 3.96344
61.9649 22.9908 3.96768
60.6817 11.1008 3.98023
57.6076 11.4647 3.97113
72.1454 51.8506 0
69.9759 56.25 0
68.8341 53.1131 0.0231587
64.0165 64.0165 0
63.8831 60.7639 0.0234602
66.6085 57.133 0.023153
63.4949 57.7655 0.0326572
62.2255 65.694 2
58.895 65.4104 2
69.7666 50.9878 2
67.7819 55.1638 2
66.6425 52.2066 2
62.3355 62.4208 2
64.6533 56.027 2
62.1956 59.394 2
61.8 56.6647 2
60.6666 63.9744 3.98203
57.0236 66.7343 3.98814
57.5551 63.6831 3.97335
67.5014 50.1754 3.96556
65.6956 54.1708 3.96617
64.4637 51.3645 3.96549
60.7683 60.922 3.9698
62.7786 55.0499 3.96398
60.6438 58.1403 3.96215
60.2665 55.7522 3.96447
56.25 69.9759 4
58.3339 68.6801 2
60.3285 67.2507 0
58.9189 9.65847 3.98226
62.2254 9.30607 4
73.0099 49.554 0
74.2788 44.8158 0
71.2476 46.598 0.0233632
72.1669 42.0858 0.0223024
74.9194 39.9526 0
75 37.5 2
72.4041 39.8025 2
71.7809 44.3524 2
69.7991 41.7898 2
70.5729 48.813 2
68.9068 46.0137 2
72.4877 37.5126 3.97812
70.0374 39.6583 3.96779
69.4257 43.9074 3.96705
67.5282 41.4919 3.96993
68.2602 48.1062 3.96587
66.6281 45.426 3.969
74.9197 35.0474 0
74.2794 30.1841 0
72.1837 32.9441 0.0220145
71.2767 28.4321 0.0230102
65.694 12.7746 0
65.321 16.1052 0.0246761
69.8136 24.0599 0.0225208
68.3418 26.9539 0.033911
66.7566 22.9359 0.0341317
64.7071 19.2001 0.0334955
63.8305 22.0577 0.0352555
72.412 35.2248 2
71.8024 30.6776 2
69.8354 33.2711 2
68.9612 29.0413 2
64.0165 10.9835 2
63.8891 14.3353 2
63.5051 17.4567 2
67.6053 24.9154 2
66.1245 27.653 2
62.857 20.3447 2
64.6924 23.8519 2
61.9638 22.9916 2
60.6845 11.1052 2
57.6092 11.4586 2
70.0542 35.3938 3.96776
69.4628 31.1519 3.96684
67.595 33.5994 3.96964
66.7029 29.6381 3.96836
65.4553 25.7191 3.96661
63.9791 28.2939 3.9732
62.3387 12.6587 3.97812
62.7137 24.6828 3.96954
62.1928 15.7992 3.96844
61.7779 18.71 3.96258
61.1009 21.3921 3.96529
60.2259 23.7992 3.97122
59.2409 12.8065 3.96917
55.8707 10.2442 3.97374
56.3965 13.1614 3.96828
69.7668 50.989 0.0233967
62.2254 65.694 0
58.8927 65.4132 0.0141429
67.7815 55.167 0.0229689
66.6431 52.2074 0.0343226
62.3334 62.4247 0.0212309
62.197 59.3937 0.0327994
64.6545 56.0276 0.0331249
61.7981 56.6641 0.0371067
60.6687 63.9715 2
57.0257 66.733 2
57.5557 63.6842 2
67.5009 50.1745 2
65.6947 54.17 2
64.4637 51.3641 2
60.7671 60.9231 2
62.779 55.0501 2
60.6447 58.1408 2
60.2666 55.7522 2
55.0695 67.9314 3.98986
59.2144 62.3444 3.97086
55.8022 64.903 3.97816
56.3192 62.0574 3.97093
65.2485 49.3882 3.96661
63.645 53.2722 3.96455
62.2767 50.6074 3.96841
59.3224 59.5336 3.96576
60.9778 54.2708 3.96623
59.2388 56.9758 3.96265
59.1463 55.1374 3.96703
48.1004 68.5759 3.98569
50.9473 69.9314 3.99077
54.0858 71.1327 4
56.25 69.976 2
58.3339 68.6801 0
57.0565 8.33817 3.98447
60.3285 7.74928 4
58.9222 9.66221 2
62.2255 9.30602 2
70.5732 48.8135 0.0236009
71.781 44.3529 0.0225801
68.907 46.0143 0.0335495
69.7999 41.7901 0.0325081
72.4043 39.8026 0.021442
75 37.5 0
72.487 37.5125 2
70.0372 39.6582 2
69.4254 43.907 2
67.5275 41.4917 2
68.2598 48.1054 2
66.6268 45.4255 2
70.1254 37.523 3.96778
67.7713 39.5105 3.9702
67.1479 43.4603 3.96961
65.385 41.1951 3.97685
65.9823 47.4004 3.96784
64.4591 44.8173 3.97401
72.4121 35.2248 0.0214344
71.8026 30.6771 0.0223344
69.8361 33.2706 0.0324547
68.9615 29.0406 0.0334988
64.0165 10.9835 0
63.8869 14.3299 0.0239467
63.5065 17.4558 0.0329742
67.6058 24.9144 0.0341728
66.1247 27.6525 0.0324823
64.6928 23.8512 0.0341829
62.8566 20.3444 0.0365579
61.9649 22.9908 0.0323178
60.6817 11.1008 0.0197738
57.6076 11.4647 0.0288686
70.054 35.394 2
69.4625 31.1524 2
67.5945 33.5997 2
66.7023 29.6386 2
62.3415 12.6635 2
62.1912 15.7999 2
61.7789 18.7099 2
65.4551 25.7197 2
63.9768 28.2947 2
61.0993 21.3928 2
62.7123 24.6837 2
60.2253 23.8001 2
59.2418 12.8069 2
56.3976 13.1587 2
55.8726 10.2448 2
67.8119 35.5527 3.97003
67.2027 31.6343 3.96918
65.5404 33.9436 3.97651
64.4949 30.224 3.9747
63.3839 26.4566 3.97155
62.0015 28.8372 3.97634
60.7695 14.2448 3.96852
60.8244 25.4068 3.97369
60.5938 17.1548 3.96251
60.119 19.8697 3.96258
59.4709 22.3346 3.96735
58.7193 24.4131 3.97406
54.0349 9.14508 3.97644
57.8992 14.3718 3.96773
54.7791 12.0473 3.97129
55.2965 14.7055 3.96528
67.5014 50.1754 0.0344425
57.0236 66.7343 0.0118583
60.6666 63.9744 0.0179661
57.5551 63.6831 0.0266495
65.6956 54.1708 0.0338303
64.4637 51.3645 0.0345051
60.7683 60.922 0.030198
60.6438 58.1403 0.0378461
62.7786 55.0499 0.03602
60.2665 55.7522 0.0355348
55.0712 67.9306 2
59.2148 62.3457 2
55.8026 64.9036 2
56.3179 62.0592 2
65.2483 49.3877 2
63.6453 53.2721 2
62.276 50.6069 2
59.321 59.5346 2
60.9776 54.2706 2
59.2424 56.9766 2
59.1483 55.1373 2
53.0416 68.9995 3.99052
53.9649 66.0081 3.98133
57.8706 60.8397 3.96888
54.6785 63.1934 3.97316
55.1973 60.5739 3.96798
63.014 48.6188 3.97032
61.6056 52.5324 3.96724
60.0208 49.9518 3.97067
57.9931 58.2302 3.96357
59.1813 53.8924 3.96816
58.0094 55.7575 3.96283
50.1072 67.854 3.98488
47.4617 66.5742 3.98119
46.0543 69.1551 3.98632
48.1007 68.5764 2
48.8012 70.7226 3.99108
50.9485 69.9309 2
51.8506 72.1454 4
54.0858 71.1327 2
56.25 69.9759 0
55.1014 7.14202 3.98749
58.3339 6.31992 4
57.0594 8.34 2
60.3286 7.74926 2
58.9189 9.65847 0.0177449
62.2254 9.30607 0
68.2602 48.1062 0.0341287
69.4257 43.9074 0.0329518
66.6281 45.426 0.0309981
67.5282 41.4919 0.0300728
70.0374 39.6583 0.0322149
72.4877 37.5126 0.0218768
70.1248 37.523 2
67.7701 39.5104 2
67.1479 43.46 2
65.382 41.1945 2
65.9823 47.4 2
64.4569 44.8166 2
67.8725 37.5238 3.97026
65.6222 39.3637 3.97713
64.9996 43.0025 3.97608
63.4907 40.9063 3.97709
63.7707 46.6785 3.97202
62.5212 44.1678 3.97642
70.0542 35.3938 0.032235
69.4628 31.1519 0.0331578
67.595 33.5994 0.0303609
66.7029 29.6381 0.0316437
62.3387 12.6587 0.021882
62.1928 15.7992 0.0315615
61.7779 18.71 0.0374176
65.4553 25.7191 0.0333873
63.9791 28.2939 0.0268007
62.7137 24.6828 0.0304567
61.1009 21.3921 0.0347093
60.2259 23.7992 0.028782
59.2409 12.8065 0.0308332
56.3965 13.1614 0.0317165
55.8707 10.2442 0.0262563
67.8106 35.5529 2
67.2028 31.6346 2
65.537 33.9442 2
64.4925 30.2248 2
60.7694 14.2454 2
60.5933 17.1549 2
60.1178 19.8702 2
63.3821 26.4575 2
61.999 28.8383 2
59.4722 22.3353 2
60.8229 25.4078 2
58.7183 24.4145 2
57.8985 14.3716 2
55.2971 14.7044 2
54.0368 9.14422 2
54.7798 12.0456 2
65.7202 35.6761 3.97689
65.0189 32.1788 3.97577
64.0519 34.2727 3.97682
62.322 30.6876 3.97628
61.4083 27.1376 3.97491
60.5363 29.2165 3.97644
59.2976 15.7007 3.96511
59.0384 25.8898 3.97621
59.0626 18.4056 3.96173
58.5754 20.9322 3.96353
58.0351 23.1907 3.96891
57.6819 24.7721 3.97505
52.1104 8.1603 3.97962
53.0521 11.041 3.97258
56.658 15.7933 3.96566
53.7961 13.7352 3.96848
54.3475 16.0661 3.96303
55.0695 67.9314 0.0101416
65.2485 49.3882 0.0333934
55.8022 64.903 0.0218426
59.2144 62.3444 0.0291369
56.3192 62.0574 0.0290748
63.645 53.2722 0.035446
62.2767 50.6074 0.0315898
59.3224 59.5336 0.0342389
59.2388 56.9758 0.0373493
60.9778 54.2708 0.0337661
59.1463 55.1374 0.03297
53.0429 68.999 2
53.9652 66.0087 2
57.8689 60.8407 2
54.6779 63.1944 2
55.196 60.5747 2
63.0127 48.6181 2
61.6055 52.5321 2
60.0211 49.9512 2
57.9923 58.2314 2
59.1838 53.8923 2
58.0062 55.7561 2
52.0684 66.9964 3.98391
52.9504 64.2081 3.97826
56.6302 59.4536 3.96915
53.6698 61.5906 3.97337
54.2363 59.2773 3.97464
60.7012 47.8139 3.97224
59.4996 52.0408 3.96888
57.7023 49.5286 3.97268
56.7209 56.9414 3.96418
56.9385 54.0505 3.96621
50.1073 67.8542 2
49.3355 65.9144 3.98121
47.4618 66.5745 2
46.8904 64.7255 3.9799
45.5569 67.0914 3.9815
43.9717 69.587 3.98695
46.0545 69.1555 2
46.6076 71.3671 3.9913
48.1004 68.5759 0.014314
48.8023 70.7225 2
49.554 73.0099 4
50.9473 69.9314 0.00922869
51.8506 72.1455 2
54.0858 71.1327 0
53.0636 6.07297 3.99002
55.1039 7.14295 2
56.25 5.02411 4
58.3339 6.3199 2
57.0565 8.33817 0.0155273
60.3285 7.74928 0
65.9823 47.4004 0.0321556
67.1479 43.4603 0.030386
64.4591 44.8173 0.0259874
65.385 41.1951 0.0231507
67.7713 39.5105 0.029795
70.1254 37.523 0.032219
67.8719 37.5238 2
65.6188 39.3635 2
64.9966 43.0018 2
63.4885 40.906 2
63.7688 46.6777 2
62.5191 44.167 2
65.7303 37.5034 3.97702
63.6404 39.2568 3.97702
63.0493 42.5142 3.9765
62.0994 40.6689 3.97671
61.6688 45.8609 3.97454
61.0891 43.6237 3.97628
67.8119 35.5527 0.0299716
67.2027 31.6343 0.0308233
65.5404 33.9436 0.0234879
64.4949 30.224 0.0253009
60.7695 14.2448 0.0314845
60.5938 17.1548 0.0374877
60.119 19.8697 0.0374236
63.3839 26.4566 0.028451
62.0015 28.8372 0.0236575
60.8244 25.4068 0.0263147
59.4709 22.3346 0.0326514
58.7193 24.4131 0.0259394
57.8992 14.3718 0.032272
55.2965 14.7055 0.0347213
54.0349 9.14508 0.023563
54.7791 12.0473 0.0287051
65.7169 35.6764 2
65.0162 32.1794 2
64.0494 34.2732 2
62.3198 30.6881 2
59.2963 15.7012 2
59.064 18.4052 2
58.5782 20.9328 2
61.4066 27.1386 2
60.5351 29.217 2
58.0305 23.193 2
59.0375 25.8912 2
57.684 24.7744 2
56.6563 15.7929 2
54.3492 16.067 2
53.7953 13.7284 2
52.1119 8.1595 2
53.0534 11.0385 2
63.8474 35.6459 3.97684
62.6447 33.0842 3.97641
60.2585 30.6851 3.97615
59.2416 28.0032 3.97645
57.9114 17.031 3.96136
57.4078 25.8425 3.97616
57.5972 19.5507 3.9611
57.1423 21.9437 3.96375
56.875 24.0671 3.96979
50.1113 7.28963 3.98405
51.2287 10.1386 3.97495
52.1602 12.8354 3.97363
55.5038 17.0361 3.9622
52.9552 15.3304 3.96682
53.7202 17.0591 3.96369
53.0416 68.9995 0.009484
53.9649 66.0081 0.0186699
63.014 48.6188 0.029682
54.6785 63.1934 0.0268441
57.8706 60.8397 0.0311184
55.1973 60.5739 0.0320195
61.6056 52.5324 0.0327591
60.0208 49.9518 0.0293253
57.9931 58.2302 0.0364312
58.0094 55.7575 0.0371654
59.1813 53.8924 0.0318412
52.0687 66.9969 2
52.9501 64.2085 2
56.6289 59.4544 2
53.6683 61.591 2
54.2347 59.2787 2
60.7006 47.8132 2
59.5004 52.0403 2
57.6991 49.5272 2
56.7186 56.9452 2
56.9351 54.0488 2
51.1661 65.1202 3.98008
52.0384 62.5237 3.97513
55.4469 58.2098 3.96635
52.8139 60.0841 3.9742
53.6053 58.4272 3.9689
57.8994 46.7536 3.97551
57.3008 51.7042 3.96921
55.8622 49.4501 3.97153
55.3762 55.7324 3.96501
55.1358 53.3019 3.96335
50.1072 67.854 0.0151174
49.3355 65.9144 2
48.6154 64.1124 3.97997
47.4617 66.5742 0.0188124
45.557 67.0919 2
46.8907 64.7255 2
46.378 63.0398 3.98242
45.1312 65.1862 3.97939
43.6302 67.4626 3.98259
41.8594 69.8741 3.98656
43.9718 69.5875 2
44.3748 71.8617 3.99144
46.0543 69.1551 0.0136832
46.6086 71.367 2
47.2057 73.7222 4
48.8012 70.7226 0.00892043
49.554 73.0099 2
51.8506 72.1454 0
50.9543 5.13336 3.99123
53.0654 6.07335 2
54.0858 3.86728 4
55.1014 7.14202 0.0125072
56.25 5.02406 2
58.3339 6.31992 0
63.7707 46.6785 0.027981
64.9996 43.0025 0.023922
62.5212 44.1678 0.0235805
63.4907 40.9063 0.0229138
65.6222 39.3637 0.0228701
67.8725 37.5238 0.0297352
65.7269 37.5035 2
63.6384 39.2567 2
63.0474 42.5136 2
62.099 40.6684 2
61.667 45.86 2
61.0878 43.6233 2
63.7037 37.4582 3.97689
61.8121 39.3385 3.97691
60.8337 41.911 3.9767
59.8624 44.6931 3.97667
65.7202 35.6761 0.0231141
65.0189 32.1788 0.0242265
64.0519 34.2727 0.0231801
62.322 30.6876 0.0237188
59.2976 15.7007 0.0348904
59.0626 18.4056 0.0382673
58.5754 20.9322 0.0364686
61.4083 27.1376 0.025093
60.5363 29.2165 0.0235605
59.0384 25.8898 0.0237913
58.0351 23.1907 0.0310936
57.6819 24.7721 0.0249486
56.658 15.7933 0.0343401
54.3475 16.0661 0.0369697
53.7961 13.7352 0.0315188
52.1104 8.1603 0.0203753
53.0521 11.041 0.0274235
63.8453 35.6459 2
62.6436 33.0846 2
60.2583 30.6851 2
57.9096 17.0308 2
57.6044 19.5488 2
57.1391 21.946 2
59.2402 28.0042 2
56.8838 24.0691 2
57.408 25.8455 2
50.1126 7.28788 2
55.5039 17.0363 2
53.721 17.0548 2
52.9552 15.327 2
52.1613 12.8392 2
51.2304 10.1368 2
61.8531 35.3794 3.97657
59.8838 32.8027 3.97635
58.1981 30.1704 3.97619
56.8989 27.5089 3.9768
56.576 18.2227 3.96158
55.9399 25.2398 3.97531
56.1968 20.6189 3.96096
55.8237 22.9962 3.96322
48.0564 6.52988 3.98793
49.3227 9.34162 3.97865
50.4249 12.0221 3.97492
51.3577 14.5497 3.96765
54.3599 18.0002 3.96029
52.3268 17.1295 3.95811
52.0684 66.9964 0.0160926
52.9504 64.2081 0.0217415
60.7012 47.8139 0.0277611
53.6698 61.5906 0.0266336
56.6302 59.4536 0.0308487
54.2363 59.2773 0.0253625
59.4996 52.0408 0.0311174
57.7023 49.5286 0.0273203
56.7209 56.9414 0.0358181
56.9385 54.0505 0.0337939
51.1661 65.1207 2
52.0374 62.5248 2
55.4461 58.2109 2
52.8126 60.0876 2
53.6044 58.4292 2
57.8985 46.7527 2
57.2991 51.703 2
55.8566 49.4484 2
55.3748 55.7322 2
55.1382 53.3022 2
50.3422 63.3695 3.98043
51.2295 60.903 3.97492
54.1666 57.221 3.96835
52.2755 58.5808 3.97141
56.1534 44.0636 3.97694
55.0324 47.7783 3.97429
54.7416 51.2901 3.96565
53.8575 54.4742 3.96562
49.3355 65.9144 0.0187911
48.6155 64.1122 2
47.9558 62.4612 3.98033
45.5569 67.0914 0.0185008
46.8904 64.7255 0.0201033
43.6302 67.4632 2
46.3781 63.0398 2
45.1315 65.1866 2
45.9817 61.5703 3.98796
44.7645 63.4382 3.97857
43.3561 65.4966 3.97961
41.6625 67.6808 3.98211
39.7017 70.0198 3.98619
41.8594 69.8746 2
42.1093 72.2062 3.99181
43.9717 69.587 0.0130475
44.3757 71.8617 2
44.8159 74.2794 4
46.6076 71.3671 0.00870078
47.2057 73.7222 2
49.554 73.0099 0
48.7854 4.32371 3.99221
50.9555 5.133 2
51.8506 2.85458 4
53.0636 6.07297 0.00998414
54.0858 3.86728 2
56.25 5.02411 0
61.6688 45.8609 0.0254602
63.0493 42.5142 0.0234962
61.0891 43.6237 0.0237188
62.0994 40.6689 0.0232939
63.6404 39.2568 0.0229807
65.7303 37.5034 0.0229792
63.7018 37.4581 2
61.8122 39.3385 2
60.8341 41.9107 2
59.8621 44.6923 2
61.6429 37.4441 3.97695
59.8026 39.8152 3.97689
58.5 42.8423 3.97639
63.8474 35.6459 0.0231648
62.6447 33.0842 0.0235936
60.2585 30.6851 0.0238513
57.9114 17.031 0.0386414
57.5972 19.5507 0.0389043
57.1423 21.9437 0.0362544
59.2416 28.0032 0.0235524
57.4078 25.8425 0.0238429
56.875 24.0671 0.0302061
55.5038 17.0361 0.037801
53.7202 17.0591 0.0363109
52.9552 15.3304 0.0331846
50.1113 7.28963 0.0159472
52.1602 12.8354 0.026368
51.2287 10.1386 0.0250506
61.8532 35.3795 2
59.8836 32.8026 2
58.1988 30.1698 2
56.5797 18.2218 2
56.2048 20.6152 2
55.8289 23.0003 2
56.8983 27.5101 2
55.9388 25.2439 2
48.0571 6.52812 2
49.324 9.3393 2
54.3628 18.0003 2
52.3241 17.1224 2
51.3559 14.5476 2
50.4267 12.0202 2
59.4421 35.1481 3.97665
57.4822 32.3473 3.97583
56.0766 29.4665 3.97663
55.0055 26.7657 3.97593
55.25 19.274 3.96175
54.6017 24.2115 3.968
54.7943 21.6828 3.96003
45.9629 5.88379 3.98897
43.3745 7.47647 3.98499
47.3552 8.62915 3.983
48.595 11.3103 3.97458
49.6963 13.7769 3.97218
50.6008 16.1964 3.96938
53.0533 18.762 3.95928
51.2532 18.1756 3.97019
51.1661 65.1202 0.0199171
52.0384 62.5237 0.0248685
57.8994 46.7536 0.0244858
52.8139 60.0841 0.0257999
55.4469 58.2098 0.0336537
53.6053 58.4272 0.0311013
57.3008 51.7042 0.0307871
55.8622 49.4501 0.0284737
55.3762 55.7324 0.034995
55.1358 53.3019 0.03665
50.3417 63.3691 2
51.2277 60.9009 2
54.1667 57.2226 2
52.2738 58.5825 2
56.154 44.0634 2
55.0304 47.777 2
54.7438 51.2898 2
53.8571 54.4758 2
49.5828 61.732 3.97756
54.9274 41.6478 3.97428
50.5374 59.2895 3.96993
52.1084 56.4378 3.96815
53.5828 45.4204 3.97433
52.8972 49.2082 3.96946
52.4269 52.7663 3.96129
48.6154 64.1124 0.0200328
47.9553 62.4602 2
47.3181 60.9925 3.98675
43.6302 67.4626 0.0174128
45.1312 65.1862 0.0206143
46.378 63.0398 0.0175835
41.6628 67.6806 2
43.3563 65.4974 2
45.9806 61.5708 2
44.7648 63.4384 2
45.7542 60.6156 3.9847
44.4797 61.8149 3.97988
43.145 63.7115 3.97878
41.5457 65.634 3.97814
39.632 67.7583 3.98165
37.5259 70.0441 3.98491
39.7017 70.0201 2
39.8164 72.4027 3.99156
41.8594 69.8741 0.0134407
42.11 72.2065 2
42.3947 74.6792 4
44.3748 71.8617 0.00855876
44.8159 74.2794 2
47.2057 73.7222 0
43.852 5.36104 3.98832
46.5715 3.64794 3.9925
48.786 4.32308 2
49.554 1.99015 4
50.9543 5.13336 0.00877202
51.8506 2.85453 2
54.0858 3.86728 0
59.8624 44.6931 0.0233309
60.8337 41.911 0.0233033
61.8121 39.3385 0.0230894
63.7037 37.4582 0.0231128
61.6431 37.444 2
59.8033 39.8149 2
58.5005 42.8419 2
59.296 37.5661 3.9772
57.4359 40.6051 3.97708
54.3327 39.6618 3.97512
61.8531 35.3794 0.0234337
59.8838 32.8027 0.0236466
58.1981 30.1704 0.0238062
56.576 18.2227 0.0384152
56.1968 20.6189 0.0390364
55.8237 22.9962 0.0367778
56.8989 27.5089 0.0231965
55.9399 25.2398 0.0246944
54.3599 18.0002 0.0397129
52.3268 17.1295 0.0418854
51.3577 14.5497 0.032354
48.0564 6.52988 0.012069
49.3227 9.34162 0.0213504
50.4249 12.0221 0.0250795
59.4429 35.1478 2
45.9629 5.88303 2
43.3745 7.47535 2
57.4832 32.3476 2
56.0765 29.4658 2
55.2421 19.2766 2
54.81 21.6848 2
54.5971 24.2146 2
55.0029 26.7677 2
47.3559 8.62545 2
48.5968 11.3074 2
53.0568 18.7498 2
51.2566 18.1714 2
50.6001 16.1959 2
49.6958 13.7788 2
56.8193 34.7994 3.97711
55.1568 31.6204 3.97591
53.9971 28.5701 3.97736
53.3843 25.6841 3.97553
53.8458 20.2418 3.96099
53.3361 22.8694 3.95542
41.3998 7.08203 3.98453
45.3609 7.99609 3.98739
42.8667 9.42067 3.98074
46.6654 10.6627 3.98079
47.7315 13.1243 3.97586
48.904 15.4461 3.96958
49.9555 17.7604 3.9633
51.5653 19.456 3.96754
50.3422 63.3695 0.019568
51.2295 60.903 0.0250784
56.1534 44.0636 0.023065
55.0324 47.7783 0.0257072
52.2755 58.5808 0.0285852
54.1666 57.221 0.0316483
54.7416 51.2901 0.0343527
53.8575 54.4742 0.0343839
49.5814 61.7312 2
54.9199 41.6442 2
50.5354 59.2891 2
52.1113 56.4409 2
53.5791 45.4185 2
52.9053 49.2074 2
52.4284 52.7669 2
48.8288 60.1853 3.97584
51.7146 42.5183 3.98313
49.735 57.5864 3.96721
50.4415 54.3681 3.96306
51.2518 47.128 3.97465
50.8822 50.8453 3.95479
47.3932 43.6109 3.97705
47.9558 62.4612 0.0196725
47.3166 60.9919 2
46.5998 59.7807 3.99224
41.6625 67.6808 0.0178888
43.3561 65.4966 0.0203891
44.7645 63.4382 0.0214342
45.9817 61.5703 0.0120415
39.6325 67.759 2
41.5459 65.6326 2
45.7531 60.6156 2
43.1455 63.7119 2
44.4785 61.8154 2
44.6105 60.2733 3.9933
42.9475 62.0637 3.97475
41.5998 63.8042 3.97801
39.6471 65.5986 3.97727
37.5631 67.7385 3.97958
31.6978 65.1147 3.97747
33.3925 67.4763 3.97949
35.3338 69.9543 3.98498
37.5257 70.0452 2
37.5089 72.457 3.992
39.7017 70.0198 0.0138118
39.8169 72.4029 2
39.9526 74.9197 4
42.1093 72.2062 0.00819014
42.3947 74.6792 2
44.8159 74.2794 0
41.7366 4.96974 3.98868
43.8522 5.35992 2
44.3268 3.11114 3.99281
46.5718 3.64762 2
47.2057 1.27793 4
48.7854 4.32371 0.00778804
49.554 1.99013 2
51.8506 2.85458 0
58.5 42.8423 0.023605
59.8026 39.8152 0.0231062
61.6429 37.4441 0.0230477
59.297 37.5669 2
57.4357 40.6061 2
54.3254 39.6667 2
56.183 37.8805 3.97685
48.7427 41.2301 3.9764
52.3089 39.3014 3.98379
39.4435 6.80553 3.98537
59.4421 35.1481 0.0233543
57.4822 32.3473 0.0241667
56.0766 29.4665 0.0233665
55.25 19.274 0.0382455
54.7943 21.6828 0.0399713
54.6017 24.2115 0.0319984
55.0055 26.7657 0.0240726
53.0533 18.762 0.0407223
51.2532 18.1756 0.0298057
50.6008 16.1964 0.0306205
45.9629 5.88379 0.01103
49.6963 13.7769 0.0278168
47.3552 8.62915 0.0170012
48.595 11.3103 0.0254214
43.3745 7.47647 0.015009
56.8189 34.8002 2
41.3999 7.08142 2
45.3605 7.99537 2
42.8666 9.42011 2
55.1597 31.6188 2
53.997 28.5692 2
53.8483 20.2524 2
53.3307 22.8668 2
53.3805 25.6841 2
46.6663 10.6562 2
47.7324 13.1193 2
51.5749 19.4548 2
49.9552 17.7578 2
48.9005 15.4513 2
54.1563 33.9955 3.97523
52.8779 30.6637 3.97628
52.0975 27.4105 3.97487
51.8505 24.301 3.97839
52.2413 21.1972 3.97149
41.0137 9.0554 3.97933
44.7268 9.99551 3.98597
42.4648 10.9052 3.99523
45.9941 12.7402 3.97363
47.6574 14.6169 3.96989
48.0624 17.0243 3.96677
49.7594 19.8331 3.97172
49.5828 61.732 0.0224422
50.5374 59.2895 0.0300685
54.9274 41.6478 0.0257232
53.5828 45.4204 0.025666
52.8972 49.2082 0.0305422
52.1084 56.4378 0.0318519
52.4269 52.7663 0.0387077
48.826 60.1833 2
51.7328 42.5277 2
49.7327 57.5865 2
50.4422 54.3709 2
51.2575 47.128 2
50.8849 50.8443 2
47.4081 43.6406 2
47.9506 58.7118 3.97887
49.3715 45.1418 3.98097
48.5028 55.8761 3.96229
48.9096 52.5248 3.97624
49.2529 48.9276 3.9722
45.1422 39.8058 3.86194
45.6259 42.5069 3.89785
45.8666 45.6138 3.98277
42.9653 41.0289 3.69898
41.631 41.8529 3.50624
47.3181 60.9925 0.0132544
46.5974 59.7795 2
45.4409 58.7847 3.99404
39.632 67.7583 0.018354
41.5457 65.634 0.021858
43.145 63.7115 0.0212196
44.4797 61.8149 0.0201164
45.7542 60.6156 0.0153008
41.6001 63.8031 2
37.5634 67.7395 2
39.6474 65.5996 2
44.6103 60.2733 2
42.9462 62.0641 2
41.7506 62.4718 3.97709
42.4722 59.9554 3.97943
39.8944 63.5353 3.97634
37.6421 65.4941 3.97636
35.4634 67.6479 3.97942
33.5756 65.3273 3.97602
31.9605 63.2799 3.9759
29.885 64.7063 3.98053
31.6978 65.1155 2
31.3774 67.1864 3.9799
33.3926 67.4773 2
33.1573 69.7479 3.9851
35.3336 69.9553 2
35.1954 72.3715 3.99197
37.5259 70.0441 0.015095
37.5091 72.4576 2
37.5 75 4
39.8164 72.4027 0.00843574
39.9526 74.9197 2
42.3947 74.6792 0
39.6245 4.71756 3.98945
41.7368 4.96916 2
42.0632 2.71833 3.99317
43.852 5.36104 0.0116808
44.3269 3.11043 2
44.8158 0.721173 4
46.5715 3.64794 0.00750362
47.2057 1.27779 2
49.554 1.99015 0
57.4359 40.6051 0.0229189
59.296 37.5661 0.0228036
54.3327 39.6618 0.0248774
48.7706 41.2476 2
56.1825 37.8778 2
52.3062 39.2674 2
53.1674 36.621 3.97807
46.6706 40.3199 3.90033
49.6894 38.5094 3.98469
37.5175 6.67631 3.98555
39.4438 6.80405 2
39.2115 8.69674 3.98265
35.9436 8.4961 3.98423
56.8193 34.7994 0.022893
55.1568 31.6204 0.0240944
53.9971 28.5701 0.0226446
53.8458 20.2418 0.0390093
53.3361 22.8694 0.0445751
53.3843 25.6841 0.0244718
51.5653 19.456 0.0324592
49.9555 17.7604 0.0366959
48.904 15.4461 0.0304223
45.3609 7.99609 0.0126104
47.7315 13.1243 0.0241418
46.6654 10.6627 0.0192118
41.3998 7.08203 0.0154707
42.8667 9.42067 0.0192628
54.1541 33.9958 2
41.0143 9.05563 2
44.7256 9.99545 2
42.4654 10.9065 2
52.875 30.6623 2
52.1047 27.4112 2
52.2446 21.2008 2
51.8476 24.3071 2
45.9951 12.7306 2
47.6543 14.6061 2
49.7705 19.8304 2
48.0586 17.0242 2
51.6717 32.905 3.98234
50.6976 29.3684 3.97757
50.3897 25.916 3.97055
49.7997 22.4293 3.9851
40.5661 11.6169 3.98205
43.8506 11.9104 3.97973
45.7748 15.4536 3.98699
47.4593 19.4381 3.97905
45.5965 37.4784 3.85724
48.8288 60.1853 0.0241589
49.735 57.5864 0.0327884
51.7146 42.5183 0.0168695
51.2518 47.128 0.0253477
50.8822 50.8453 0.0452139
50.4415 54.3681 0.0369396
47.3932 43.6109 0.0229501
47.9479 58.7144 2
49.3878 45.1566 2
48.498 55.8784 2
48.9103 52.5296 2
49.2574 48.9288 2
45.2198 39.8201 2
45.6567 42.5461 2
45.876 45.628 2
43.0008 41.0669 2
41.6631 41.8772 2
46.783 57.3167 3.97707
43.6978 39.3494 3.70053
41.9955 40.7648 3.53274
47.5294 47.1684 3.98231
47.0286 54.1879 3.96213
47.3004 50.67 3.9791
44.3631 47.2446 3.97624
44.2766 41.8483 3.85394
44.3574 44.3593 3.90089
41.9547 42.4701 3.73644
40.6261 42.153 3.50758
46.5998 59.7807 0.00776247
45.4402 58.7817 2
43.8488 57.6763 3.98077
37.5631 67.7385 0.0204184
39.6471 65.5986 0.0227261
41.5998 63.8042 0.0219881
42.9475 62.0637 0.0252479
44.6105 60.2733 0.00670229
35.4637 67.6488 2
41.7497 62.4744 2
39.8942 63.536 2
37.6422 65.4949 2
42.4731 59.954 2
40.6215 61.6158 3.97991
40.4358 58.1394 3.98013
37.8378 63.1912 3.97394
35.573 65.4165 3.97667
33.5759 65.3281 2
31.9608 63.2815 2
33.6299 63.3187 3.9748
30.3796 62.841 3.97981
32.1274 61.9827 3.98535
26.878 61.47 3.97747
28.0654 64.1352 3.97826
29.8846 64.7074 2
29.4074 66.7503 3.98086
31.6978 65.1147 0.0225345
31.3776 67.1871 2
31.0151 69.4131 3.98484
33.3925 67.4763 0.0205064
33.157 69.7488 2
32.8933 72.1459 3.99156
35.3338 69.9543 0.0150198
35.1952 72.3722 2
35.0474 74.9194 4
37.5089 72.457 0.00799764
37.5 75 2
39.9526 74.9197 0
35.6221 6.72743 3.98521
37.5242 4.61691 3.98962
39.6246 4.71622 2
39.7897 2.47503 3.99314
41.7366 4.96974 0.0113164
42.0631 2.71791 2
42.3946 0.32156 4
44.3268 3.11114 0.00719006
44.8159 0.72056 2
47.2057 1.27793 0
48.7427 41.2301 0.0235952
56.183 37.8805 0.0231462
52.3089 39.3014 0.0162074
46.6965 40.3179 2
49.6905 38.505 2
53.1661 36.6412 2
50.4928 35.5679 3.97465
47.3403 37.7681 3.91394
45.1616 35.1691 3.86052
42.9955 33.9306 3.69586
41.6588 33.1115 3.5045
37.459 8.53739 3.98463
37.5177 6.67523 2
39.4435 6.80553 0.0146328
39.2125 8.69502 2
38.9763 10.1324 3.98364
35.8997 9.77849 3.97994
34.1534 8.82801 3.98217
35.9438 8.49371 2
54.1563 33.9955 0.0247652
52.8779 30.6637 0.0237196
52.0975 27.4105 0.0251314
52.2413 21.1972 0.0285127
51.8505 24.301 0.0216056
49.7594 19.8331 0.0282789
48.0624 17.0243 0.0332323
47.6574 14.6169 0.0301116
44.7268 9.99551 0.0140284
45.9941 12.7402 0.0263718
41.0137 9.0554 0.0206711
42.4648 10.9052 0.00477465
51.6792 32.903 2
40.5681 11.619 2
43.8493 11.913 2
50.7195 29.3669 2
50.389 25.9189 2
49.7989 22.4285 2
45.7675 15.4176 2
47.4634 19.4619 2
49.2467 31.5335 3.98732
48.7778 27.6837 3.97819
49.1124 24.5716 3.97591
47.1012 22.1982 3.98856
38.3005 12.746 3.97692
42.0895 14.3092 3.97979
44.7692 18.5784 3.97576
44.1122 37.485 3.71055
45.6882 37.4823 2
47.9506 58.7118 0.0211297
48.5028 55.8761 0.0377093
49.3715 45.1418 0.0190265
49.2529 48.9276 0.0278015
48.9096 52.5248 0.0237594
45.1422 39.8058 0.138063
45.6259 42.5069 0.102145
45.8666 45.6138 0.0172306
42.9653 41.0289 0.301019
41.631 41.8529 0.493764
46.7794 57.3193 2
43.7557 39.3746 2
41.9982 40.7792 2
47.537 47.1692 2
47.0233 54.1924 2
47.3012 50.6805 2
44.3912 47.2281 2
44.3147 41.8796 2
44.4012 44.3833 2
42.0063 42.5177 2
40.6541 42.1634 2
45.3211 55.8998 3.99538
42.3379 39.2229 3.54272
40.5125 40.6437 3.64872
45.7197 48.8171 4.0023
45.3323 52.4574 3.98093
43.0997 48.2351 3.99376
43.0105 45.8798 3.89315
43.1105 43.6141 3.83733
40.7305 43.5074 3.71467
39.1889 42.4148 3.54098
45.4409 58.7847 0.00595513
43.8461 57.6819 2
42.0749 56.2626 3.98544
35.4634 67.6479 0.0205838
37.6421 65.4941 0.0236399
39.8944 63.5353 0.0236634
41.7506 62.4718 0.0229145
42.4722 59.9554 0.0205666
35.5733 65.4172 2
40.6217 61.6141 2
37.8381 63.1914 2
40.4361 58.1386 2
38.9108 56.4238 3.99443
38.2497 60.3016 3.97999
35.6077 63.1854 3.97465
33.5756 65.3273 0.0239769
31.9605 63.2799 0.0241049
33.6302 63.3196 2
30.3798 62.842 2
32.1283 61.9841 2
28.6867 62.1777 3.97996
33.3479 61.4896 3.97705
31.0751 61.2054 3.98046
27.5865 59.5612 3.97959
23.8183 59.0486 3.98909
25.0459 60.8432 3.97719
26.8786 61.4699 2
26.234 63.4641 3.97717
28.0652 64.1336 2
27.4644 66.1749 3.98036
29.885 64.7063 0.019473
29.4073 66.7505 2
28.9076 68.9387 3.98443
31.3774 67.1864 0.0200991
31.0147 69.4136 2
30.6162 71.7773 3.99101
33.1573 69.7479 0.0149032
32.8927 72.1463 2
32.6054 74.6784 4
35.1954 72.3715 0.00802639
35.0474 74.9197 2
37.5 75 0
33.7252 6.98349 3.984
35.4364 4.68705 3.98943
35.6222 6.72607 2
37.5154 2.38747 3.99322
37.5243 4.61605 2
39.6245 4.71756 0.0105469
39.7895 2.4743 2
39.9526 0.0806499 4
42.0632 2.71833 0.00682584
42.3947 0.320817 2
44.8158 0.721173 0
43.7097 35.6215 3.70309
42.0126 34.1952 3.52357
46.6706 40.3199 0.0996657
49.6894 38.5094 0.0153062
53.1674 36.621 0.0219312
47.3365 37.734 2
50.4997 35.5607 2
45.231 35.1458 2
43.0345 33.8906 2
41.686 33.087 2
47.5313 34.3235 3.94726
44.3152 33.1083 3.83863
41.9941 32.4969 3.73397
40.6503 32.8222 3.50637
37.3115 10.6347 3.98121
37.4597 8.5361 2
37.5175 6.67631 0.014451
39.2115 8.69674 0.0173513
38.9787 10.1311 2
34.756 10.3879 3.98095
35.9008 9.77392 2
32.3804 9.37504 3.97842
34.1522 8.82421 2
35.9436 8.4961 0.0157741
51.6717 32.905 0.0176588
50.6976 29.3684 0.0224299
50.3897 25.916 0.0294512
49.7997 22.4293 0.0148999
47.4593 19.4381 0.0209545
45.7748 15.4536 0.0130134
43.8506 11.9104 0.0202651
40.5661 11.6169 0.0179526
49.2657 31.5274 2
38.3009 12.7429 2
42.0932 14.318 2
48.7868 27.6882 2
49.1118 24.5709 2
47.0893 22.1855 2
44.7712 18.6338 2
47.1373 29.6735 3.98576
46.7967 25.3051 3.96859
44.2281 21.572 3.97915
36.585 12.9549 3.97432
38.6815 14.8493 3.97485
41.7358 17.9187 3.9781
42.4893 37.4696 3.57757
44.1642 37.4843 2
45.5965 37.4784 0.14276
46.783 57.3167 0.0229338
47.0286 54.1879 0.0378656
47.5294 47.1684 0.0176909
47.3004 50.67 0.0209033
43.6978 39.3494 0.299468
44.2766 41.8483 0.146062
44.3574 44.3593 0.0991094
44.3631 47.2446 0.0237585
41.9547 42.4701 0.263557
41.9955 40.7648 0.467259
40.6261 42.153 0.492419
45.316 55.9024 2
42.337 39.2278 2
40.5357 40.6279 2
45.7213 48.8357 2
45.3278 52.4589 2
43.1233 48.2541 2
43.0627 45.9225 2
43.157 43.6461 2
40.7654 43.5664 2
39.1867 42.4272 2
43.646 54.3703 3.99637
40.6181 39.0757 3.66505
39.079 40.7158 3.62074
43.427 50.3168 4.00432
41.7292 47.4005 3.93044
41.6412 44.9787 3.84933
39.3388 44.163 3.6843
37.5011 42.5183 3.57702
43.8488 57.6763 0.0192291
42.0759 56.2589 2
40.3841 54.8356 3.9935
35.573 65.4165 0.0233296
37.8378 63.1912 0.0260598
40.6215 61.6158 0.0200942
40.4358 58.1394 0.0198679
35.6079 63.1854 2
38.2496 60.3021 2
38.9124 56.4154 2
37.9871 55.1135 3.99464
36.9339 57.5993 3.99154
35.3655 60.8905 3.979
33.6299 63.3187 0.0252034
30.3796 62.841 0.0201908
32.1274 61.9827 0.0146518
33.3487 61.4902 2
28.6871 62.18 2
31.0761 61.2075 2
29.4171 60.2589 3.97599
32.3663 59.7103 3.98934
28.0541 58.3444 4.00442
27.589 59.561 2
25.4063 58.5655 3.97997
22.7989 58.2024 3.96855
23.415 60.3147 3.97932
23.8206 59.0486 2
25.0469 60.8424 2
24.439 62.7518 3.97725
26.878 61.47 0.0225275
26.2345 63.465 2
25.5494 65.4827 3.97879
28.0654 64.1352 0.0217351
27.4645 66.1747 2
26.8373 68.3274 3.98454
29.4074 66.7503 0.0191405
28.9072 68.9387 2
28.3714 71.2626 3.99044
31.0151 69.4131 0.0151603
30.6154 71.7773 2
30.1842 74.2788 4
32.8933 72.1459 0.00844431
32.6053 74.6792 2
35.0474 74.9194 0
31.7898 7.42311 3.98247
33.349 4.92683 3.98851
33.7248 6.98104 2
35.2458 2.46341 3.99321
35.4362 4.68635 2
35.6221 6.72743 0.0147911
37.5 0 4
37.5149 2.38702 2
37.5242 4.61691 0.0103832
39.7897 2.47503 0.00685819
39.9526 0.0802889 2
42.3946 0.32156 0
42.331 35.7156 3.53459
43.7799 35.5907 2
40.5418 34.3248 3.64847
42.0099 34.1787 2
47.3403 37.7681 0.0860646
50.4928 35.5679 0.0253483
45.1616 35.1691 0.139477
42.9955 33.9306 0.304136
41.6588 33.1115 0.495504
47.5505 34.3465 2
44.3516 33.0849 2
42.0472 32.4473 2
40.6767 32.8113 2
45.6186 31.727 3.91021
43.1468 31.3511 3.83203
40.7618 31.4658 3.71387
39.2074 32.5768 3.53733
35.6949 11.7848 3.97758
37.3143 10.6321 2
37.459 8.53739 0.0153702
38.9763 10.1324 0.0163594
33.1013 11.2273 3.97371
34.7549 10.3814 2
35.8997 9.77849 0.0200637
30.4855 10.0255 3.97821
32.3793 9.37369 2
34.1534 8.82801 0.0178347
49.2467 31.5335 0.0126803
48.7778 27.6837 0.0218132
49.1124 24.5716 0.0240861
47.1012 22.1982 0.0114351
44.7692 18.5784 0.0242422
42.0895 14.3092 0.020214
38.3005 12.746 0.0230807
36.5818 12.9369 2
47.1519 29.6205 2
38.679 14.8286 2
41.7277 17.9169 2
46.8023 25.3031 2
44.2149 21.5475 2
45.0833 27.8141 4.00621
43.6162 24.2325 4.02759
41.2985 20.9318 3.98455
35.7731 14.7957 3.97642
38.6743 17.6511 3.981
40.674 37.4587 3.67924
42.498 37.4737 2
44.1122 37.485 0.289453
45.3211 55.8998 0.00461757
45.3323 52.4574 0.0190701
45.7197 48.8171 -0.00230189
42.3379 39.2229 0.457282
43.1105 43.6141 0.162668
43.0105 45.8798 0.106846
43.0997 48.2351 0.00623964
40.7305 43.5074 0.285331
40.5125 40.6437 0.351283
39.1889 42.4148 0.459018
43.6428 54.3657 2
40.6195 39.0745 2
39.0808 40.7072 2
43.4199 50.3338 2
41.7265 47.433 2
41.6673 45.022 2
37.4983 42.5358 2
39.3538 44.2216 2
41.802 52.8554 3.99798
39.0903 39.1041 3.63497
37.5046 40.77 3.64653
35.8174 42.4235 3.54124
40.8325 49.472 3.99504
39.7457 45.7456 3.82487
37.5006 44.4175 3.71251
42.0749 56.2626 0.0145555
40.3823 54.8437 2
38.7228 53.6672 3.99542
35.6077 63.1854 0.0253536
38.2497 60.3016 0.0200083
38.9108 56.4238 0.00557008
35.366 60.8896 2
36.9347 57.5976 2
37.9882 55.1164 2
36.3226 55.1753 3.9948
34.4952 58.4968 3.99323
33.3479 61.4896 0.0229542
28.6867 62.1777 0.0200404
31.0751 61.2054 0.0195359
32.3675 59.7136 2
29.4185 60.2581 2
30.3277 57.7829 3.98478
28.0573 58.3436 2
27.0103 56.7973 3.96631
27.5865 59.5612 0.0204053
25.4095 58.5655 2
23.9143 56.7621 3.95986
21.3998 57.3499 3.96029
22.0146 59.5834 3.97361
22.8011 58.2035 2
22.7447 62.0038 3.97395
23.4161 60.3139 2
23.8183 59.0486 0.0109125
25.0459 60.8432 0.0228055
24.4398 62.7542 2
23.6846 64.6986 3.9765
26.234 63.4641 0.0228271
25.5494 65.4842 2
24.8098 67.5881 3.9835
27.4644 66.1749 0.0196418
26.837 68.3281 2
26.1666 70.6036 3.99045
28.9076 68.9387 0.0155668
28.3705 71.2624 2
27.7943 73.7221 4
30.6162 71.7773 0.00899464
30.1841 74.2794 2
32.6054 74.6784 0
29.8126 7.99829 3.98088
31.2545 5.33355 3.98754
31.7891 7.42151 2
32.9818 2.70168 3.99283
33.3484 4.92534 2
33.7252 6.98349 0.0159999
35.0474 0.080333 4
35.2452 2.46317 2
35.4364 4.68705 0.010573
37.5 0 2
37.5154 2.38747 0.0067765
39.9526 0.0806499 0
40.6499 35.8617 3.66539
42.332 35.7174 2
43.7097 35.6215 0.296908
28.5459 10.7007 3.97769
39.0872 34.275 3.61958
40.5483 34.3367 2
42.0126 34.1952 0.476435
47.5313 34.3235 0.0527425
44.3152 33.1083 0.161369
41.9941 32.4969 0.266029
40.6503 32.8222 0.493633
45.6517 31.7078 2
43.1901 31.3178 2
40.8009 31.4053 2
39.2108 32.566 2
43.9583 29.9276 3.90511
41.6534 29.9844 3.85154
39.3633 30.8197 3.68255
37.5278 32.4843 3.57622
34.0972 12.9524 3.97369
35.6941 11.7736 2
37.3115 10.6347 0.0187892
31.1903 11.9969 3.9777
33.1011 11.226 2
34.756 10.3879 0.0190457
30.4839 10.0226 2
32.3804 9.37504 0.0215765
47.1373 29.6735 0.0142435
46.7967 25.3051 0.0314053
36.585 12.9549 0.0256815
44.2281 21.572 0.0208547
41.7358 17.9187 0.0218978
38.6815 14.8493 0.0251452
35.7757 14.8033 2
45.0844 27.8121 2
38.6711 17.6569 2
41.2846 20.9239 2
43.6114 24.2135 2
33.6129 15.9034 3.98079
42.7708 26.6509 3.98565
40.7987 23.5212 3.99952
38.4023 20.4182 3.99352
35.8473 17.5517 3.98001
39.106 37.4859 3.65168
40.6689 37.461 2
42.4893 37.4696 0.42243
43.646 54.3703 0.00363151
43.427 50.3168 -0.00432399
40.6181 39.0757 0.334951
41.6412 44.9787 0.150669
41.7292 47.4005 0.0695623
39.3388 44.163 0.315698
39.079 40.7158 0.379262
37.5011 42.5183 0.422979
41.7911 52.8587 2
39.0839 39.0905 2
37.5026 40.7566 2
40.8239 49.4933 2
35.8151 42.4346 2
39.7629 45.8013 2
37.4916 44.4715 2
39.7405 51.6682 4.00256
37.5074 39.11 3.66874
35.9363 40.7301 3.62118
34.3773 42.1707 3.50853
35.6663 44.1799 3.67489
38.6658 48.3918 3.94365
37.5225 46.0345 3.85228
40.3841 54.8356 0.00650346
38.7245 53.6547 2
36.749 52.9668 3.99698
35.3655 60.8905 0.0209998
36.9339 57.5993 0.00845634
37.9871 55.1135 0.00535629
34.4963 58.4954 2
36.3251 55.1685 2
33.2542 55.3654 3.99165
32.3663 59.7103 0.0106598
29.4171 60.2589 0.0240079
30.3308 57.7801 2
28.7924 55.2812 3.9843
28.0541 58.3444 -0.00442415
27.0132 56.7968 2
25.4293 55.0923 3.96075
21.9314 55.2879 3.96004
25.4063 58.5655 0.0200344
23.9166 56.764 2
20.2725 56.9814 3.96308
20.6727 58.7368 3.96979
21.4018 57.3513 2
21.1785 61.1377 3.97437
22.0159 59.5836 2
22.7989 58.2024 0.0314475
21.8995 63.8244 3.97648
22.7458 62.0048 2
23.415 60.3147 0.0206838
24.439 62.7518 0.0227529
23.6847 64.6991 2
22.8384 66.7306 3.98129
25.5494 65.4827 0.0212093
24.8095 67.5891 2
24.0108 69.8048 3.99029
26.8373 68.3274 0.0154606
26.1654 70.6036 2
25.446 73.0099 4
28.3714 71.2626 0.00956111
27.7943 73.7222 2
30.1842 74.2788 0
27.8224 8.65814 3.98087
29.1567 5.88002 3.98591
29.8114 7.99584 2
30.7273 3.09852 3.99258
31.2537 5.33217 2
31.7898 7.42311 0.0175291
32.6053 0.320823 4
32.981 2.70111 2
33.349 4.92683 0.0114918
35.0474 0.0802903 2
35.2458 2.46341 0.00679273
37.5 0 0
39.084 35.8792 3.64129
40.6334 35.8626 2
42.331 35.7156 0.465414
28.5444 10.6986 2
26.6243 11.397 3.97805
29.2305 12.6507 3.98077
37.5179 34.2357 3.64502
39.0981 34.2912 2
40.5418 34.3248 0.351529
45.6186 31.727 0.0897864
43.1468 31.3511 0.167967
40.7618 31.4658 0.286132
39.2074 32.5768 0.462671
43.9895 29.8971 2
41.6826 29.9457 2
39.3704 30.7613 2
37.5275 32.4671 2
42.0824 28.6215 3.87783
39.7369 29.2269 3.84517
37.522 30.5871 3.70984
35.8367 32.5826 3.54216
31.9232 14.4962 3.9797
34.0981 12.9547 2
35.6949 11.7848 0.0224176
31.1894 11.9926 2
33.1013 11.2273 0.0262941
30.4855 10.0255 0.021789
45.0833 27.8141 -0.00621345
43.6162 24.2325 -0.0275898
35.7731 14.7957 0.0235811
41.2985 20.9318 0.015453
38.6743 17.6511 0.0190032
33.6099 15.8962 2
35.8426 17.5544 2
42.788 26.6428 2
38.3863 20.4706 2
40.7836 23.4959 2
33.5525 17.4278 3.98127
40.2175 25.9042 3.95537
38.0406 23.2444 3.9999
35.5784 20.1468 3.99256
37.5113 37.492 3.68495
39.0976 37.4806 2
40.674 37.4587 0.32076
41.802 52.8554 0.00201692
40.8325 49.472 0.0049616
39.0903 39.1041 0.365026
39.7457 45.7456 0.175128
37.5006 44.4175 0.287493
37.5046 40.77 0.353469
35.8174 42.4235 0.45876
39.7304 51.6768 2
37.5088 39.1038 2
35.9336 40.7191 2
38.6786 48.4465 2
34.3514 42.1812 2
35.644 44.2387 2
37.5199 46.0873 2
37.676 50.6909 3.99702
35.9358 39.1188 3.6403
34.5008 40.6692 3.65091
33.3669 41.8738 3.50842
34.2707 43.5187 3.71117
35.2239 45.7594 3.84196
36.9249 47.9998 3.90958
38.7228 53.6672 0.00458059
36.758 52.9616 2
34.4351 52.298 3.99882
34.4952 58.4968 0.00677165
36.3226 55.1753 0.00519946
33.2591 55.3716 2
30.6304 53.2724 3.99843
30.3277 57.7829 0.0152172
28.7948 55.2803 2
27.0534 53.3794 3.95954
27.0103 56.7973 0.033691
25.4315 55.0948 2
23.7702 53.407 3.95731
20.7079 53.1357 3.95909
20.027 55.7752 3.96236
21.9289 55.2906 2
23.9143 56.7621 0.0401408
19.4721 57.8473 3.96639
20.2711 56.9831 2
19.7209 60.1601 3.97151
20.6721 58.738 2
21.3998 57.3499 0.0397093
20.2134 62.8445 3.97298
21.1795 61.1388 2
22.0146 59.5834 0.026386
20.9403 65.7577 3.97932
21.8996 63.8258 2
22.7447 62.0038 0.0260467
23.6846 64.6986 0.0235016
22.8381 66.7309 2
21.9134 68.8719 3.98961
24.8098 67.5881 0.0164995
24.0093 69.8046 2
23.1494 72.1454 4
26.1666 70.6036 0.00955253
25.446 73.0099 2
27.7943 73.7221 0
25.8615 9.3872 3.98
27.0714 6.54429 3.98465
27.8208 8.65656 2
28.4897 3.64443 3.99176
29.1557 5.87848 2
29.8126 7.99829 0.0191161
30.1841 0.720592 4
30.726 3.0981 2
31.2545 5.33355 0.0124555
32.6053 0.320817 2
32.9818 2.70168 0.0071732
35.0474 0.080333 0
37.5102 35.8798 3.66589
39.0698 35.8802 2
40.6499 35.8617 0.334609
24.7807 12.0851 3.97662
23.7609 14.3798 3.97506
28.5459 10.7007 0.0223071
26.6228 11.3949 2
29.2292 12.6489 2
27.298 13.3838 3.97906
29.7902 14.2115 3.98113
35.9411 34.2794 3.62057
37.5247 34.2501 2
39.0872 34.275 0.38042
37.5278 32.4843 0.423776
43.9583 29.9276 0.0948933
41.6534 29.9844 0.148463
39.3633 30.8197 0.317453
42.1108 28.5725 2
39.754 29.1741 2
37.5248 30.5322 2
35.8363 32.5705 2
39.9016 27.8618 3.88359
37.4916 28.9623 3.84789
35.6869 30.8396 3.68707
34.3968 32.8364 3.50963
30.9378 16.8555 3.98484
31.9214 14.4885 2
34.0972 12.9524 0.0263071
31.1903 11.9969 0.0223019
42.7708 26.6509 0.0143536
40.7987 23.5212 0.000484752
33.6129 15.9034 0.0192092
35.8473 17.5517 0.0199928
38.4023 20.4182 0.00648486
33.5476 17.4399 2
35.5876 20.142 2
40.2834 25.8956 2
38.019 23.2044 2
32.8772 19.8295 3.99394
37.6534 25.5523 3.97106
35.2176 22.9049 3.99952
35.9172 37.4929 3.65369
37.5067 37.4922 2
39.106 37.4859 0.348324
39.7405 51.6682 -0.00255833
38.6658 48.3918 0.0563505
37.5074 39.11 0.331265
37.5225 46.0345 0.147719
35.6663 44.1799 0.325113
35.9363 40.7301 0.378824
34.3773 42.1707 0.491472
37.6648 50.7222 2
35.949 39.106 2
34.4774 40.6575 2
36.9061 48.0557 2
33.3345 41.8982 2
34.2395 43.5754 2
35.2036 45.8089 2
35.5493 49.8744 3.9858
34.3945 39.1156 3.6652
33.0107 40.7905 3.52821
33.0404 42.4867 3.73873
33.3867 44.9867 3.8432
34.4304 47.1373 3.88163
36.749 52.9668 0.0030236
34.4319 52.3057 2
32.1832 51.0811 4.0174
33.2542 55.3654 0.00834834
30.6333 53.2767 2
28.6412 51.5003 3.99111
28.7924 55.2812 0.0157014
27.0555 53.3815 2
25.3351 51.6521 3.95484
25.4293 55.0923 0.0392512
23.7691 53.4118 2
22.2647 51.7026 3.95165
19.5396 51.531 3.96095
19.1035 54.2341 3.96175
20.7074 53.1351 2
18.5096 56.6745 3.96335
20.0244 55.7769 2
21.9314 55.2879 0.0399555
18.3875 59.0716 3.9683
19.4713 57.8482 2
20.2725 56.9814 0.0369221
18.6279 61.7328 3.97179
19.7215 60.1621 2
20.6727 58.7368 0.0302067
19.1295 64.6671 3.97826
20.2138 62.8456 2
21.1785 61.1377 0.0256312
19.8877 67.8082 3.98853
20.9397 65.7584 2
21.8995 63.8244 0.0235167
22.8384 66.7306 0.0187062
21.9117 68.8711 2
20.9142 71.1327 4
24.0108 69.8048 0.00971321
23.1494 72.1455 2
25.446 73.0099 0
23.1022 12.8017 3.977
23.9744 10.1766 3.97786
25.025 7.31514 3.98342
25.8597 9.38578 2
26.2815 4.32854 3.99101
27.0701 6.54334 2
27.8224 8.65814 0.0191329
27.7943 1.27781 4
28.488 3.64426 2
29.1567 5.88002 0.0140928
30.1841 0.720551 2
30.7273 3.09852 0.00742009
32.6053 0.320823 0
35.9251 35.8737 3.63299
37.5211 35.8898 2
39.084 35.8792 0.358711
24.7777 12.0808 2
23.7609 14.3838 2
22.4927 15.0623 3.98022
25.3656 13.9252 3.97304
24.0452 15.6415 3.9838
26.6243 11.397 0.0219464
29.2305 12.6507 0.019227
27.2979 13.3814 2
29.7868 14.2088 2
28.3728 15.9827 3.98261
34.5134 34.3436 3.6479
35.9378 34.287 2
37.5179 34.2357 0.354985
35.8367 32.5826 0.457841
37.522 30.5871 0.290155
42.0824 28.6215 0.122167
39.7369 29.2269 0.154828
39.9337 27.8217 2
37.4891 28.9065 2
35.6699 30.7741 2
34.3674 32.8286 2
37.6016 27.5976 3.88709
35.2592 29.248 3.84513
34.2825 31.487 3.7105
33.3848 33.1299 3.50638
30.2241 19.4093 3.98284
30.9335 16.8451 2
31.9232 14.4962 0.020301
40.2175 25.9042 0.0446257
38.0406 23.2444 0.000101113
33.5525 17.4278 0.0187337
35.5784 20.1468 0.00743945
32.875 19.8463 2
35.2153 22.8904 2
37.7147 25.5305 2
32.3808 22.5603 3.99616
35.0806 25.4718 3.99449
34.3459 37.5085 3.68124
35.9202 37.498 2
37.5113 37.492 0.315054
37.676 50.6909 0.00298279
36.9249 47.9998 0.0904201
35.9358 39.1188 0.359695
35.2239 45.7594 0.158035
34.2707 43.5187 0.288831
34.5008 40.6692 0.349093
33.3669 41.8738 0.49158
35.5378 49.8842 2
34.3977 39.112 2
33.0084 40.8036 2
34.4252 47.1834 2
32.9985 42.5342 2
33.3606 45.0283 2
33.3805 48.9398 3.97642
32.6823 39.2622 3.53758
32.0266 41.0517 3.69815
31.8808 43.6313 3.8369
32.5754 46.1138 3.88502
34.4351 52.298 0.00118097
32.1869 51.0936 2
30.1599 49.6614 4.00236
30.6304 53.2724 0.00157372
28.6415 51.4952 2
26.8322 49.872 3.96939
27.0534 53.3794 0.0404611
25.333 51.6515 2
23.7031 50.0636 3.96154
23.7702 53.407 0.0426858
22.264 51.7011 2
20.8561 50.1942 3.96486
18.3381 50.2287 3.969
18.1084 52.7035 3.96363
19.5381 51.5301 2
17.5754 55.2774 3.96253
19.0998 54.2343 2
20.7079 53.1357 0.0409063
17.1654 57.8353 3.96228
18.5071 56.6753 2
20.027 55.7752 0.0376371
17.1466 60.5124 3.96695
18.3876 59.0722 2
19.4721 57.8473 0.0336112
17.4111 63.4573 3.97168
18.6286 61.7337 2
19.7209 60.1601 0.028488
17.9441 66.6164 3.98684
19.129 64.6671 2
20.2134 62.8445 0.0270187
18.75 69.9759 4
19.8857 67.807 2
20.9403 65.7577 0.0206807
21.9134 68.8719 0.0103852
20.9142 71.1327 2
23.1494 72.1454 0
21.5961 13.6288 3.97615
22.1931 11.0392 3.97496
23.1003 12.8058 2
23.0427 8.1818 3.98155
23.9718 10.1746 2
24.1192 5.14334 3.99038
25.0233 7.31441 2
25.8615 9.3872 0.0200008
25.446 1.99014 4
26.2794 4.32888 2
27.0714 6.54429 0.0153474
27.7943 1.27778 2
28.4897 3.64443 0.00823634
30.1841 0.720592 0
34.4071 35.8978 3.66376
35.9345 35.8883 2
37.5102 35.8798 0.334115
21.326 15.8686 3.98301
24.7807 12.0851 0.0233803
23.7609 14.3798 0.0249367
25.3646 13.9168 2
22.4935 15.0614 2
24.0473 15.6469 2
23.2913 16.2716 3.97221
25.4013 16.112 3.98294
27.298 13.3838 0.0209441
29.7902 14.2115 0.0188651
28.3682 15.9876 2
27.4635 18.8394 3.98076
33.0207 34.2206 3.53372
34.4906 34.3587 2
35.9411 34.2794 0.379429
34.3968 32.8364 0.490374
35.6869 30.8396 0.312927
37.4916 28.9623 0.152109
39.9016 27.8618 0.116412
37.5767 27.5597 2
33.3565 33.1079 2
35.2606 29.1867 2
34.2427 31.4251 2
35.1579 27.694 3.89528
33.3842 30.0118 3.84463
33.0647 32.5143 3.73036
29.6889 22.01 4.00131
30.2253 19.4133 2
30.9378 16.8555 0.015157
37.6534 25.5523 0.0289428
35.2176 22.9049 0.000477525
32.8772 19.8295 0.0060578
32.3859 22.5523 2
35.1125 25.4626 2
31.9369 25.8145 4.00568
32.5196 37.5077 3.57805
34.3598 37.5044 2
35.9172 37.4929 0.346311
35.5493 49.8744 0.0142027
34.4304 47.1373 0.118372
34.3945 39.1156 0.334801
33.3867 44.9867 0.156797
33.0404 42.4867 0.261272
33.0107 40.7905 0.471794
33.3702 48.939 2
32.6926 39.2663 2
31.9887 41.0881 2
32.5362 46.1592 2
31.8383 43.6625 2
31.5026 47.7869 3.97948
31.3103 39.3686 3.70321
30.7117 41.881 3.84356
30.9306 44.747 3.89975
32.1832 51.0811 -0.0174
30.1635 49.6863 2
28.2931 48.0468 3.96052
28.6412 51.5003 0.0088911
26.8311 49.8731 2
25.0932 48.3217 3.96676
25.3351 51.6521 0.0451617
23.7025 50.0618 2
22.1301 48.6472 3.97118
22.2647 51.7026 0.0483549
20.8541 50.193 2
19.4415 48.9768 3.97328
17.2195 49.2401 3.97436
17.06 51.3212 3.96801
18.3403 50.2272 2
16.5766 53.8017 3.96488
18.1072 52.7029 2
19.5396 51.531 0.039055
16.0488 56.4315 3.96273
17.5722 55.278 2
19.1035 54.2341 0.0382544
15.7617 59.1818 3.96682
17.1652 57.836 2
18.5096 56.6745 0.0366459
15.7931 62.1112 3.96963
17.1473 60.5141 2
18.3875 59.0716 0.0316957
16.0908 65.2986 3.98535
17.4101 63.459 2
18.6279 61.7328 0.0282137
16.6661 68.6801 4
17.9418 66.6147 2
19.1295 64.6671 0.0217407
18.75 69.9759 2
19.8877 67.8082 0.0114747
20.9142 71.1327 0
20.231 14.6342 3.97162
21.5951 13.6343 2
20.5342 12.0158 3.97549
21.1457 9.15364 3.97961
22.1908 11.0386 2
23.1022 12.8017 0.0230013
22.0184 6.08223 3.99001
23.0403 8.18075 2
23.9744 10.1766 0.0221359
23.1494 2.85457 4
24.1166 5.14407 2
25.025 7.31514 0.0165755
25.446 1.99012 2
26.2815 4.32854 0.00898798
27.7943 1.27781 0
32.6738 35.7569 3.54195
34.4056 35.899 2
35.9251 35.8737 0.367014
21.3278 15.8643 2
20.3346 16.9987 3.9737
22.1235 16.6676 3.96838
25.3656 13.9252 0.0269554
22.4927 15.0623 0.0197809
24.0452 15.6415 0.0162006
25.4028 16.1046 2
23.2941 16.2716 2
24.236 18.531 3.96835
27.123 21.6 3.99447
28.3728 15.9827 0.0173867
27.4608 18.8761 2
32.0595 33.9632 3.69399
33.0228 34.2031 2
34.5134 34.3436 0.352096
33.3848 33.1299 0.493622
34.2825 31.487 0.289501
35.2592 29.248 0.154868
37.6016 27.5976 0.112908
35.1637 27.648 2
32.9912 32.4684 2
33.3582 29.9735 2
32.822 28.3583 3.9062
31.8887 31.3775 3.82932
29.06 24.5045 3.9962
29.6857 22.0218 2
30.2241 19.4093 0.0171587
35.0806 25.4718 0.00551424
32.3808 22.5603 0.00384392
31.9303 25.7888 2
30.025 27.4629 3.97758
30.8988 37.5033 3.70812
32.5268 37.5064 2
34.3459 37.5085 0.318762
33.3805 48.9398 0.0235768
32.5754 46.1138 0.114981
32.6823 39.2622 0.46242
31.8808 43.6313 0.163095
32.0266 41.0517 0.301853
31.4624 47.8067 2
31.2418 39.3934 2
30.6762 41.9033 2
30.8869 44.7855 2
29.7026 46.3959 3.99481
29.854 39.8281 3.86333
29.3988 42.9954 3.90414
30.1599 49.6614 -0.00235939
28.2864 48.0403 2
26.4904 46.494 3.98294
26.8322 49.872 0.0306114
25.0935 48.3197 2
23.3651 46.913 3.97428
23.7031 50.0636 0.0384552
22.128 48.6457 2
20.4354 47.4892 3.97656
20.8561 50.1942 0.0351386
19.4426 48.9752 2
18.0423 48.0764 3.97688
16.4539 48.599 3.97649
17.2212 49.2388 2
16.1328 50.0903 3.97227
15.5915 52.3472 3.96778
17.0615 51.3201 2
18.3381 50.2287 0.0309954
14.9914 54.9268 3.96363
16.5784 53.8011 2
18.1084 52.7035 0.0363666
14.4801 57.7142 3.96264
16.0486 56.4317 2
17.5754 55.2774 0.0374679
14.2719 60.6723 3.96807
15.7635 59.1824 2
17.1654 57.8353 0.0377218
14.3357 63.8562 3.98106
15.793 62.1131 2
17.1466 60.5124 0.0330507
14.6715 67.2507 4
16.0881 65.296 2
17.4111 63.4573 0.0283184
16.6661 68.6801 2
17.9441 66.6164 0.0131602
18.75 69.9759 0
18.9501 15.8198 3.97359
20.2317 14.6318 2
18.987 13.1358 3.97473
21.5961 13.6288 0.0238511
20.5329 12.0174 2
19.3459 10.2442 3.97743
19.9932 7.14717 3.98868
21.1429 9.15382 2
22.1931 11.0392 0.0250413
20.9142 3.86727 4
22.0151 6.08336 2
23.0427 8.1818 0.0184492
23.1494 2.85451 2
24.1192 5.14334 0.00961981
25.446 1.99014 0
31.3318 35.6409 3.69956
32.6808 35.7502 2
34.4071 35.8978 0.336244
21.326 15.8686 0.0169896
22.1254 16.6647 2
20.3364 16.9936 2
19.3081 18.4567 3.95732
21.8135 17.9127 3.98075
25.4013 16.112 0.0170616
23.2913 16.2716 0.0277927
24.2305 18.5503 2
22.3815 19.9754 3.96353
24.7052 21.4814 3.98628
26.6734 23.7984 3.97861
27.1288 21.5465 2
27.4635 18.8394 0.0192353
30.7643 33.1386 3.85385
32.0249 33.914 2
33.0207 34.2206 0.466281
33.0647 32.5143 0.269642
33.3842 30.0118 0.155373
35.1579 27.694 0.104721
32.789 28.3299 2
31.8332 31.3392 2
30.6215 29.749 3.93262
28.2844 26.6565 3.99538
29.0476 24.5118 2
29.6889 22.01 -0.00131313
31.9369 25.8145 -0.00568033
30.0156 27.4392 2
29.4063 37.5037 3.85806
30.845 37.5026 2
32.5196 37.5077 0.421947
31.5026 47.7869 0.0205241
30.9306 44.747 0.100252
31.3103 39.3686 0.296793
30.7117 41.881 0.156445
29.7055 46.3934 2
29.786 39.8429 2
29.369 43.0361 2
27.9523 44.7207 3.97265
27.6159 40.5605 3.93688
28.2931 48.0468 0.0394765
26.4867 46.4912 2
24.6611 45.0309 3.9787
25.0932 48.3217 0.0332382
23.3637 46.913 2
21.4473 45.7609 3.97796
22.1301 48.6472 0.0288165
20.4352 47.4877 2
18.7615 46.6254 3.9769
19.4415 48.9768 0.0267228
18.043 48.0751 2
16.6838 47.6231 3.97661
16.4556 48.5979 2
15.4768 48.941 3.9757
17.2195 49.2401 0.0256428
16.1351 50.0892 2
14.7083 50.9211 3.9709
13.9664 53.3858 3.9659
15.5928 52.3465 2
17.06 51.3212 0.0319917
13.3009 56.1413 3.96295
14.9917 54.9266 2
16.5766 53.8017 0.03512
12.8563 59.1112 3.96791
14.483 57.714 2
16.0488 56.4315 0.0372664
12.6818 62.2973 3.97731
14.2727 60.6721 2
15.7617 59.1818 0.0331796
12.7746 65.6939 4
14.3335 63.8526 2
15.7931 62.1112 0.0303655
14.6714 67.2507 2
16.0908 65.2986 0.0146488
16.6661 68.6801 0
17.6999 17.1955 3.9671
18.9501 15.8177 2
17.5223 14.4041 3.97146
20.231 14.6342 0.0283774
18.9862 13.1381 2
17.6418 11.4639 3.97482
20.5342 12.0158 0.0245098
19.343 10.2456 2
18.0534 8.34033 3.98676
18.75 5.0241 4
19.9894 7.14924 2
21.1457 9.15364 0.0203907
20.9142 3.86727 2
22.0184 6.08223 0.00999349
23.1494 2.85457 0
29.8794 35.1942 3.86244
31.2675 35.6185 2
32.6738 35.7569 0.458052
22.1235 16.6676 0.0316247
20.3346 16.9987 0.0263017
21.8133 17.9121 2
19.3076 18.4526 2
18.1242 20.0092 3.96129
20.9677 19.4474 3.96295
24.236 18.531 0.0316502
22.3771 19.9814 2
24.7103 21.4696 2
22.5325 21.818 3.982
24.9447 23.2392 3.97426
25.8825 26.0394 3.97908
26.6722 23.7918 2
27.123 21.6 0.00552936
29.1525 32.4868 3.90622
30.7052 33.1033 2
32.0595 33.9632 0.306014
31.8887 31.3775 0.170683
32.822 28.3583 0.0937999
30.5984 29.7422 2
27.6116 29.2422 4.01359
28.2701 26.6654 2
29.06 24.5045 0.00379607
30.025 27.4629 0.0224225
27.7415 37.3556 3.91047
29.3376 37.4955 2
30.8988 37.5033 0.291881
29.7026 46.3959 0.00519291
29.3988 42.9954 0.095855
29.854 39.8281 0.136674
27.9446 44.7704 2
27.5885 40.5496 2
26.0202 43.0516 3.98911
24.8772 39.4482 3.97328
26.4904 46.494 0.0170631
24.6506 45.0319 2
22.5649 43.8001 3.9771
23.3651 46.913 0.0257161
21.4442 45.7618 2
19.5122 44.8628 3.97663
20.4354 47.4892 0.0234448
18.7616 46.6255 2
17.0317 46.119 3.97652
18.0423 48.0764 0.0231152
16.6853 47.6221 2
15.237 47.5953 3.97621
16.4539 48.599 0.0235111
15.4789 48.9399 2
14.0159 49.4864 3.9734
16.1328 50.0903 0.0277311
14.7096 50.9204 2
13.038 51.8293 3.968
12.2053 54.5013 3.96398
13.9667 53.3854 2
15.5915 52.3472 0.0322211
11.5428 57.4481 3.96674
13.3015 56.1412 2
14.9914 54.9268 0.0363695
11.1367 60.6236 3.97608
12.8575 59.1105 2
14.4801 57.7142 0.0373559
10.9835 64.0165 4
12.68 62.2934 2
14.2719 60.6723 0.0319294
12.7745 65.694 2
14.3357 63.8562 0.0189442
14.6715 67.2507 0
16.477 18.6982 3.9616
17.6993 17.1939 2
16.1177 15.8141 3.96621
18.9501 15.8198 0.0264076
17.5214 14.4016 2
16.0254 12.8268 3.97223
18.987 13.1358 0.0252669
17.6402 11.4682 2
16.2043 9.66435 3.98522
19.3459 10.2442 0.022573
18.0494 8.34394 2
16.6661 6.31991 4
18.75 5.02404 2
19.9932 7.14717 0.0113205
20.9142 3.86727 0
28.2731 34.8366 3.90345
29.8065 35.1652 2
31.3318 35.6409 0.300443
16.8518 21.4449 3.96677
21.8135 17.9127 0.0192512
19.3081 18.4567 0.0426792
20.9658 19.4451 2
18.1213 20.007 2
19.9238 21.6591 3.97139
22.3815 19.9754 0.0364736
24.7052 21.4814 0.0137158
22.5287 21.8237 2
24.9407 23.2393 2
23.2036 24.7025 3.97318
25.1592 28.633 3.98215
25.8736 26.0423 2
26.6734 23.7984 0.0213872
27.0045 31.8377 3.98031
29.1206 32.4678 2
30.7643 33.1386 0.146154
30.6215 29.749 0.0673752
27.6227 29.222 2
28.2844 26.6565 0.00462105
25.5689 36.8544 3.97091
27.7264 37.365 2
29.4063 37.5037 0.141944
27.9523 44.7207 0.027348
27.6159 40.5605 0.0631158
25.9997 43.0726 2
24.8568 39.4533 2
23.7661 41.8029 3.98249
22.5972 38.522 3.97872
24.6611 45.0309 0.0213044
22.5643 43.8002 2
20.3768 42.8093 3.97586
21.4473 45.7609 0.0220388
19.5128 44.8633 2
17.4306 44.2961 3.97602
18.7615 46.6254 0.0231028
17.0329 46.1189 2
15.1936 46.0157 3.97613
16.6838 47.6231 0.0233931
15.2389 47.5944 2
13.5438 47.9517 3.97519
15.4768 48.941 0.024298
14.0175 49.4856 2
12.2672 50.2111 3.96977
14.7083 50.9211 0.029096
13.0388 51.8287 2
11.2037 52.8137 3.96513
10.3338 55.7045 3.96638
12.2055 54.501 2
13.9664 53.3858 0.0340978
9.70334 58.8466 3.97538
11.5434 57.4475 2
13.3009 56.1413 0.037049
9.30605 62.2254 4
11.1351 60.6196 2
12.8563 59.1112 0.0320864
10.9835 64.0165 2
12.6818 62.2973 0.0226854
12.7746 65.6939 0
15.2617 20.2374 3.96338
16.4778 18.6978 2
14.7679 17.3335 3.96403
17.6999 17.1955 0.0328953
16.1182 15.8124 2
14.4892 14.3176 3.96873
17.5223 14.4041 0.0285376
16.0245 12.823 2
14.4472 11.1162 3.98255
17.6418 11.4639 0.0251836
16.2006 9.66864 2
14.6715 7.74927 4
18.0534 8.34033 0.0132448
16.6661 6.31988 2
18.75 5.0241 0
26.234 34.339 3.97903
28.254 34.8434 2
29.8794 35.1942 0.13756
18.0904 22.405 3.97325
15.7479 22.9893 3.96983
16.8519 21.4446 2
20.9677 19.4474 0.0370482
18.1242 20.0092 0.0387076
19.9211 21.6562 2
20.0268 24.4923 3.97201
22.5325 21.818 0.0179989
24.9447 23.2392 0.0257422
23.1989 24.7014 2
22.5209 27.9581 3.97197
24.5671 31.321 3.97943
25.1635 28.6269 2
25.8825 26.0394 0.0209246
26.9828 31.8029 2
29.1525 32.4868 0.0937761
27.6116 29.2422 -0.0135915
23.3225 36.2883 3.98317
25.5528 36.854 2
27.7415 37.3556 0.0895253
26.0202 43.0516 0.0108911
24.8772 39.4482 0.026724
23.7497 41.8034 2
22.5874 38.5197 2
21.4585 40.6181 3.9752
20.822 37.8036 3.97715
22.5649 43.8001 0.0228957
20.3757 42.8106 2
17.9047 42.0385 3.9759
19.5122 44.8628 0.0233746
17.431 44.2966 2
15.2392 44.1316 3.97584
17.0317 46.119 0.0234752
15.1947 46.0153 2
13.2415 46.2411 3.97591
15.237 47.5953 0.0237872
13.5455 47.9509 2
11.6545 48.5106 3.97159
14.0159 49.4864 0.0266038
12.2685 50.2103 2
10.3337 51.0598 3.96612
13.038 51.8293 0.0319999
11.2043 52.8131 2
9.24259 53.8855 3.96614
8.38688 56.9804 3.97611
10.3345 55.7035 2
12.2053 54.5013 0.0360208
7.74927 60.3285 4
9.70207 58.8424 2
11.5428 57.4481 0.0332587
9.306 62.2255 2
11.1367 60.6236 0.0239236
10.9835 64.0165 0
14.0922 21.8018 3.96617
15.2604 20.2367 2
13.4862 18.9295 3.96376
16.477 18.6982 0.038402
14.7687 17.3323 2
13.0343 15.9052 3.97033
16.1177 15.8141 0.0337866
14.4897 14.3153 2
12.7847 12.6913 3.97988
16.0254 12.8268 0.0277695
14.4441 11.1222 2
12.7746 9.30605 4
16.2043 9.66435 0.0147832
14.6715 7.74924 2
16.6661 6.31991 0
23.9098 33.8749 3.98229
26.2125 34.3316 2
28.2731 34.8366 0.0965537
17.9566 24.1366 3.97163
18.0977 22.4054 2
14.5891 24.522 3.97158
15.7503 22.9895 2
16.8518 21.4449 0.0332297
19.5302 27.3264 3.97414
19.9238 21.6591 0.0286101
20.0239 24.4921 2
21.8821 30.7927 3.97502
23.2036 24.7025 0.0268162
22.5214 27.9596 2
24.5394 31.3165 2
25.1592 28.633 0.0178536
27.0045 31.8377 0.0196859
20.9458 35.9628 3.97657
23.3234 36.2892 2
25.5689 36.8544 0.02909
23.7661 41.8029 0.0175065
22.5972 38.522 0.0212811
21.4631 40.6191 2
20.8224 37.8017 2
18.6582 38.9938 3.97705
20.3768 42.8093 0.0241414
17.904 42.0389 2
15.2249 41.8742 3.97625
17.4306 44.2961 0.0239751
15.2393 44.1318 2
13.004 44.3422 3.97612
15.1936 46.0157 0.0238697
13.2431 46.2404 2
11.171 46.6981 3.97319
13.5438 47.9517 0.0248069
11.6562 48.5099 2
9.60318 49.2215 3.96691
12.2672 50.2111 0.030234
10.3342 51.0592 2
8.27525 51.9999 3.96597
11.2037 52.8137 0.0348662
9.24321 53.8843 2
7.19589 55.0318 3.97707
6.31991 58.3339 4
8.38595 56.9764 2
10.3338 55.7045 0.0336196
7.74924 60.3285 2
9.70334 58.8466 0.0246241
9.30605 62.2254 0
13.459 25.4209 3.97501
12.9945 23.3304 3.96903
14.0916 21.8014 2
12.2933 20.5774 3.96427
15.2617 20.2374 0.0366158
13.4862 18.9285 2
11.666 17.5795 3.96869
14.7679 17.3335 0.0359651
13.0369 15.9045 2
11.223 14.3777 3.97578
14.4892 14.3176 0.0312681
12.7823 12.6965 2
10.9835 10.9835 4
14.4472 11.1162 0.0174473
12.7745 9.306 2
14.6715 7.74927 0
21.3049 33.4794 3.9759
23.9125 33.8625 2
26.234 34.339 0.02097
16.2905 26.4931 3.97334
17.9617 24.1371 2
18.0904 22.405 0.0267474
14.5886 24.5221 2
15.7479 22.9893 0.0301726
18.9287 30.2933 3.97507
19.5304 27.3267 2
20.0268 24.4923 0.0279871
21.8959 30.7933 2
22.5209 27.9581 0.0280308
24.5671 31.321 0.0205683
18.2679 35.9928 3.9776
20.9481 35.9632 2
23.3225 36.2883 0.0168293
21.4585 40.6181 0.024804
20.822 37.8036 0.0228456
18.6561 38.9928 2
14.7248 39.1642 3.97711
17.9047 42.0385 0.0240962
15.2244 41.8739 2
12.7006 42.2418 3.97637
15.2392 44.1316 0.0241637
13.0053 44.3416 2
10.7556 44.7728 3.97479
13.2415 46.2411 0.0240864
11.1731 46.6974 2
8.98937 47.3027 3.96766
11.6545 48.5106 0.0284131
9.60356 49.2209 2
7.44184 50.0338 3.9658
10.3337 51.0598 0.0338804
8.2757 51.9988 2
6.13651 53.0073 3.97749
9.24259 53.8855 0.0338553
7.19533 55.0285 2
5.0241 56.25 4
6.31988 58.3339 2
8.38688 56.9804 0.0238945
7.74927 60.3285 0
13.7328 26.8759 3.97546
12.1051 24.8317 3.97134
13.458 25.421 2
11.2193 22.2612 3.96545
12.995 23.3305 2
14.0922 21.8018 0.033826
12.294 20.5769 2
10.3985 19.329 3.96734
13.4862 18.9295 0.0362405
11.6684 17.5793 2
9.76348 16.1608 3.97572
13.0343 15.9052 0.0296714
11.2213 14.3832 2
9.30607 12.7746 4
12.7847 12.6913 0.0201218
10.9835 10.9835 2
12.7746 9.30605 0
18.4306 33.1799 3.97641
21.3048 33.4822 2
23.9098 33.8749 0.017708
15.9141 29.7259 3.9755
16.2909 26.4934 2
17.9566 24.1366 0.0283717
14.5891 24.522 0.0284162
18.9272 30.2935 2
19.5302 27.3264 0.0258624
21.8821 30.7927 0.0249828
15.3531 36.0353 3.97724
18.2672 35.9933 2
20.9458 35.9628 0.0234296
12.9321 37.8298 3.9772
18.6582 38.9938 0.0229508
14.7243 39.164 2
12.2042 40.1233 3.97688
15.2249 41.8742 0.0237457
12.7017 42.2414 2
10.3537 42.7558 3.97573
13.004 44.3422 0.0238811
10.7575 44.7722 2
8.4667 45.3075 3.96848
11.171 46.6981 0.0268138
8.98939 47.3022 2
6.73259 47.9992 3.96593
9.60318 49.2215 0.033089
7.44218 50.0328 2
5.21322 50.9108 3.97724
8.27525 51.9999 0.0340275
6.13625 53.0051 2
3.86727 54.0858 4
7.19589 55.0318 0.0229289
5.02404 56.25 2
6.31991 58.3339 0
13.2183 29.0896 3.97547
11.5508 26.5285 3.97193
13.7319 26.8761 2
10.277 23.9902 3.96693
12.1068 24.8321 2
13.459 25.4209 0.0249852
9.2512 21.1435 3.96658
11.2192 22.261 2
12.9945 23.3304 0.0309678
12.2933 20.5774 0.0357265
10.4005 19.3291 2
8.41941 18.0315 3.97569
11.666 17.5795 0.0313064
9.76233 16.1659 2
7.74928 14.6715 4
11.223 14.3777 0.0242165
9.30602 12.7745 2
10.9835 10.9835 0
14.9015 32.9164 3.97674
18.4292 33.1791 2
21.3049 33.4794 0.0240964
15.915 29.7262 2
16.2905 26.4931 0.0266588
18.9287 30.2933 0.0249266
13.229 36.2216 3.97685
15.3522 36.035 2
18.2679 35.9928 0.0224008
12.9327 37.8296 2
11.5375 38.3072 3.9772
14.7248 39.1642 0.0228949
12.206 40.1231 2
9.93227 40.7412 3.97634
12.7006 42.2418 0.0236307
10.3568 42.7552 2
8.01373 43.2598 3.96895
10.7556 44.7728 0.0252118
8.46806 45.3069 2
6.13835 45.9044 3.96611
8.98937 47.3027 0.0323378
6.73294 47.9984 2
4.42452 48.7515 3.97685
7.44184 50.0338 0.0341986
5.21318 50.9095 2
2.85457 51.8506 4
6.13651 53.0073 0.02251
3.86727 54.0858 2
5.0241 56.25 0
12.3494 31.3 3.97627
10.9676 28.451 3.97248
13.2187 29.0899 2
9.49449 25.8176 3.96767
11.5522 26.5289 2
13.7328 26.8759 0.0245375
8.23782 23.0258 3.96633
10.2775 23.9903 2
12.1051 24.8317 0.0286624
7.20165 19.9804 3.97668
9.25269 21.1439 2
11.2193 22.2612 0.0345486
10.3985 19.329 0.0326623
8.41887 18.036 2
6.31992 16.6661 4
9.76348 16.1608 0.0242802
7.74926 14.6714 2
9.30607 12.7746 0
12.3871 34.322 3.97671
14.9013 32.9171 2
18.4306 33.1799 0.023585
15.9141 29.7259 0.0245049
11.0766 36.6195 3.97694
13.2292 36.2215 2
15.3531 36.0353 0.022757
12.9321 37.8298 0.0227959
11.5397 38.3068 2
9.51549 38.819 3.97657
12.2042 40.1233 0.0231249
9.9351 40.7407 2
7.62169 41.2048 3.96926
10.3537 42.7558 0.0242713
8.01364 43.2594 2
5.64988 43.7674 3.96645
8.4667 45.3075 0.0315236
6.13863 45.9037 2
3.76993 46.537 3.97671
6.73259 47.9992 0.0340712
4.42474 48.7507 2
1.99014 49.554 4
5.21322 50.9108 0.0227646
2.85451 51.8506 2
3.86727 54.0858 0
11.1667 32.949 3.97688
10.2755 30.4109 3.97346
12.3506 31.3005 2
8.80411 27.7487 3.96809
10.9692 28.4514 2
13.2183 29.0896 0.0245311
7.36287 24.9838 3.96611
9.49462 25.8178 2
11.5508 26.5285 0.0280711
6.11864 22.0028 3.97758
8.23875 23.0263 2
10.277 23.9902 0.033073
5.02411 18.75 4
7.20153 19.9836 2
9.2512 21.1435 0.033418
8.41941 18.0315 0.024307
6.3199 16.6661 2
7.74928 14.6715 0
10.6676 35.0153 3.97668
12.3878 34.3223 2
14.9015 32.9164 0.023264
9.17652 36.9877 3.97644
11.0791 36.6195 2
13.229 36.2216 0.0231478
11.5375 38.3072 0.0228013
9.51831 38.8187 2
7.29724 39.1792 3.96969
9.93227 40.7412 0.0236572
7.62249 41.2045 2
5.26459 41.6134 3.96688
8.01373 43.2598 0.0310455
5.65014 43.7668 2
3.2475 44.2817 3.97705
6.13835 45.9044 0.0338888
3.77025 46.5364 2
1.27781 47.2057 4
4.42452 48.7515 0.023151
1.99012 49.554 2
2.85457 51.8506 0
10.3046 33.9014 3.97617
9.55382 32.1751 3.97449
11.1689 32.9495 2
8.14695 29.7087 3.96858
10.2776 30.4114 2
12.3494 31.3 0.0237333
6.60586 27.0094 3.96623
8.80428 27.7489 2
10.9676 28.451 0.027522
5.17396 24.0951 3.97752
7.36342 24.9842 2
9.49449 25.8176 0.0323298
3.86728 20.9142 4
6.11871 22.0046 2
8.23782 23.0258 0.0336721
5.02406 18.75 2
7.20165 19.9804 0.0233222
6.31992 16.6661 0
8.99412 35.2881 3.97633
10.6702 35.0153 2
12.3871 34.322 0.023293
7.07348 37.2063 3.96984
9.17926 36.9877 2
11.0766 36.6195 0.0230588
9.51549 38.819 0.0234293
7.29857 39.179 2
4.99196 39.4672 3.96727
7.62169 41.2048 0.0307378
5.26523 41.613 2
2.85775 42.002 3.97743
5.64988 43.7674 0.0335534
3.24768 44.2812 2
0.720592 44.8159 4
3.76993 46.537 0.0232886
1.27778 47.2057 2
1.99014 49.554 0
9.03715 33.7116 3.97601
10.3077 33.9016 2
7.57766 31.6188 3.96912
9.55643 32.1755 2
11.1667 32.949 0.0231195
5.95039 29.0704 3.96659
8.14704 29.7089 2
10.2755 30.4109 0.0265431
4.36142 26.2474 3.97723
6.60622 27.0098 2
8.80411 27.7487 0.0319086
2.85458 23.1494 4
5.17416 24.0959 2
7.36287 24.9838 0.0338921
3.86728 20.9142 2
6.11864 22.0028 0.0224187
5.02411 18.75 0
7.02116 35.3094 3.96983
8.99685 35.2882 2
10.6676 35.0153 0.0233173
4.84209 37.3399 3.9676
7.07509 37.2062 2
9.17652 36.9877 0.0235625
7.29724 39.1792 0.0303107
4.9926 39.4669 2
2.60569 39.7136 3.97764
5.26459 41.6134 0.0331227
2.85825 42.0017 2
0.320823 42.3947 4
3.2475 44.2817 0.0229475
0.720551 44.8159 2
1.27781 47.2057 0
7.18569 33.4672 3.96967
9.03969 33.7119 2
10.3046 33.9014 0.0238309
5.42079 31.1342 3.96707
7.57824 31.6189 2
9.55382 32.1751 0.0255106
3.68286 28.4434 3.97714
5.95074 29.0707 2
8.14695 29.7087 0.0314177
1.99015 25.446 4
4.3617 26.2477 2
6.60586 27.0094 0.0337674
2.85453 23.1494 2
5.17396 24.0951 0.0224808
3.86728 20.9142 0
4.8564 35.252 3.96751
7.022 35.3094 2
8.99412 35.2881 0.023665
2.49713 37.4282 3.97842
4.84221 37.34 2
7.07348 37.2063 0.0301564
4.99196 39.4672 0.0327301
2.6063 39.7138 2
0.080333 39.9526 4
2.85775 42.002 0.0225721
0.320817 42.3947 2
0.720592 44.8159 0
5.04981 33.1908 3.96745
7.18654 33.4673 2
9.03715 33.7116 0.0239872
3.14697 30.6662 3.97743
5.42112 31.1346 2
7.57766 31.6188 0.0308846
1.27793 27.7943 4
3.68326 28.4437 2
5.95039 29.0704 0.0334086
1.99013 25.446 2
4.36142 26.2474 0.0227707
2.85458 23.1494 0
2.54923 35.1589 3.97813
4.85715 35.2522 2
7.02116 35.3094 0.0301718
0 37.5 4
2.49725 37.4286 2
4.84209 37.3399 0.0324036
2.60569 39.7136 0.0223601
0.0802903 39.9526 2
0.320823 42.3947 0
2.76688 32.9058 3.97825
5.05011 33.1911 2
7.18569 33.4672 0.0303295
0.721173 30.1842 4
3.14738 30.6666 2
5.42079 31.1342 0.0329283
1.27779 27.7943 2
3.68286 28.4434 0.0228563
1.99015 25.446 0
0.0806499 35.0474 4
2.54993 35.1593 2
4.8564 35.252 0.0324918
0 37.5 2
2.49713 37.4282 0.021581
0.080333 39.9526 0
0.32156 32.6054 4
2.7671 32.9063 2
5.04981 33.1908 0.0325486
0.72056 30.1841 2
3.14697 30.6662 0.0225656
1.27793 27.7943 0
0.0802889 35.0474 2
2.54923 35.1589 0.0218676
0 37.5 0
0.320817 32.6053 2
2.76688 32.9058 0.0217528
0.721173 30.1842 0
0.0806499 35.0474 0
0.32156 32.6054 0
CELLS 1910 17190
8 18 6 25 56 2 0 5 16
8 57 23 6 18 17 4 0 2
8 78 36 9 29 31 11 1 7
8 31 11 1 7 79 37 10 30
8 110 57 18 50 48 17 2 14
8 50 18 56 111 14 2 16 49
8 116 62 22 55 52 20 3 15
8 56 25 67 118 16 5 24 53
8 119 63 23 57 54 21 4 17
8 55 22 63 119 15 3 21 54
8 58 26 68 121 18 6 25 56
8 122 65 26 58 57 23 6 18
8 73 31 7 27 142 79 30 71
8 143 78 29 72 73 31 7 27
8 83 147 76 34 32 74 28 8
8 84 148 78 36 33 75 29 9
8 76 34 8 28 148 84 33 75
8 37 79 150 86 10 30 77 35
8 151 87 36 78 80 38 11 31
8 80 38 11 31 152 88 37 79
8 175 100 42 94 96 44 12 40
8 44 96 176 101 12 40 95 43
8 101 176 98 46 43 95 41 13
8 46 98 178 103 13 41 97 45
8 178 103 45 97 147 83 32 74
8 189 116 55 109 106 52 15 47
8 111 56 118 191 49 16 53 107
8 192 119 57 110 108 54 17 48
8 109 55 119 192 47 15 54 108
8 194 122 58 112 110 57 18 50
8 112 58 121 195 50 18 56 111
8 115 61 19 51 197 124 59 113
8 115 61 125 198 51 19 60 114
8 198 125 62 116 114 60 20 52
8 200 127 64 120 116 62 22 55
8 118 67 132 202 53 24 66 117
8 121 68 133 203 56 25 67 118
8 120 64 128 204 55 22 63 119
8 204 128 65 122 119 63 23 57
8 206 134 68 121 123 69 26 58
8 123 69 26 58 207 131 65 122
8 226 147 74 138 140 76 28 70
8 229 148 75 139 143 78 29 72
8 140 76 28 70 229 148 75 139
8 142 79 30 71 231 150 77 141
8 144 80 31 73 232 152 79 142
8 233 151 78 143 144 80 31 73
8 150 86 35 77 235 154 81 145
8 235 154 81 145 146 82 39 91
8 146 82 39 91 236 155 90 165
8 238 157 83 147 149 85 34 76
8 239 158 84 148 151 87 36 78
8 149 85 34 76 239 158 84 148
8 152 88 37 79 241 160 86 150
8 242 161 87 151 153 89 38 80
8 153 89 38 80 243 162 88 152
8 171 98 41 92 265 178 97 169
8 265 178 97 169 226 147 74 138
8 172 96 40 93 266 176 95 170
8 266 176 95 170 171 98 41 92
8 269 175 94 173 172 96 40 93
8 271 180 99 174 175 100 42 94
8 197 124 59 113 271 180 99 174
8 272 181 100 175 177 102 44 96
8 273 182 101 176 179 104 46 98
8 177 102 44 96 273 182 101 176
8 179 104 46 98 275 184 103 178
8 275 184 103 178 238 157 83 147
8 188 115 51 105 283 197 113 186
8 188 115 198 284 105 51 114 187
8 284 198 116 189 187 114 52 106
8 286 200 120 193 189 116 55 109
8 191 118 202 288 107 53 117 190
8 195 121 203 289 111 56 118 191
8 193 120 204 290 109 55 119 192
8 290 204 122 194 192 119 57 110
8 196 123 58 112 292 207 122 194
8 293 206 121 195 196 123 58 112
8 199 126 61 115 297 211 124 197
8 298 212 127 200 198 125 62 116
8 199 126 212 298 115 61 125 198
8 205 129 64 120 300 214 127 200
8 301 217 130 201 202 132 66 117
8 209 136 168 264 301 217 130 201
8 302 219 132 202 203 133 67 118
8 303 220 133 203 206 134 68 121
8 205 129 215 304 120 64 128 204
8 304 215 131 207 204 128 65 122
8 306 221 134 206 208 135 69 123
8 208 135 69 123 307 218 131 207
8 210 137 167 263 309 223 136 209
8 328 238 147 226 230 149 76 140
8 228 146 91 166 329 236 165 260
8 231 150 77 141 330 235 145 227
8 330 235 145 227 228 146 91 166
8 332 239 148 229 233 151 78 143
8 230 149 76 140 332 239 148 229
8 232 152 79 142 334 241 150 231
8 234 153 80 144 335 243 152 232
8 336 242 151 233 234 153 80 144
8 236 155 90 165 338 245 164 259
8 241 160 86 150 339 246 154 235
8 339 246 154 235 237 156 82 146
8 237 156 82 146 340 247 155 236
8 342 249 157 238 240 159 85 149
8 343 250 158 239 242 161 87 151
8 240 159 85 149 343 250 158 239
8 243 162 88 152 345 252 160 241
8 244 163 253 346 153 89 161 242
8 244 163 89 153 347 254 162 243
8 311 224 261 371 210 137 167 263
8 263 167 262 372 209 136 168 264
8 267 179 98 171 375 275 178 265
8 375 275 178 265 328 238 147 226
8 376 273 176 266 267 179 98 171
8 268 177 96 172 376 273 176 266
8 379 272 175 269 268 177 96 172
8 380 271 174 270 269 175 94 173
8 283 197 113 186 380 271 174 270
8 381 277 180 271 272 181 100 175
8 297 211 124 197 381 277 180 271
8 382 278 181 272 274 183 102 177
8 274 183 102 177 383 279 182 273
8 383 279 182 273 276 185 104 179
8 385 281 184 275 342 249 157 238
8 276 185 104 179 385 281 184 275
8 285 199 115 188 393 297 197 283
8 394 298 200 286 284 198 116 189
8 285 199 298 394 188 115 198 284
8 291 205 120 193 396 300 200 286
8 397 301 201 287 288 202 117 190
8 295 209 264 374 397 301 201 287
8 398 302 202 288 289 203 118 191
8 399 303 203 289 293 206 121 195
8 291 205 304 400 193 120 204 290
8 400 304 207 292 290 204 122 194
8 294 208 123 196 402 307 207 292
8 403 306 206 293 294 208 123 196
8 296 210 263 373 405 309 209 295
8 408 312 213 299 297 211 126 199
8 299 213 313 409 199 126 212 298
8 409 313 214 300 298 212 127 200
8 305 216 129 205 411 315 214 300
8 412 318 217 301 302 219 132 202
8 309 223 136 209 412 318 217 301
8 413 320 219 302 303 220 133 203
8 306 221 321 414 206 134 220 303
8 307 218 131 207 415 316 215 304
8 305 216 316 415 205 129 215 304
8 417 322 221 306 308 222 135 208
8 308 222 135 208 418 319 218 307
8 310 225 137 210 420 325 223 309
8 423 326 224 311 310 225 137 210
8 329 236 165 260 441 338 259 368
8 442 342 238 328 333 240 149 230
8 331 237 146 228 443 340 236 329
8 334 241 150 231 444 339 235 330
8 444 339 235 330 331 237 146 228
8 446 343 239 332 336 242 151 233
8 333 240 149 230 446 343 239 332
8 335 243 152 232 448 345 241 334
8 337 244 153 234 449 347 243 335
8 337 244 346 450 234 153 242 336
8 338 245 164 259 452 349 258 367
8 340 247 155 236 453 350 245 338
8 345 252 160 241 454 351 246 339
8 454 351 246 339 341 248 156 237
8 341 248 156 237 455 352 247 340
8 240 159 251 344 342 249 354 457
8 242 161 253 346 343 250 355 458
8 343 250 355 458 240 159 251 344
8 347 254 162 243 460 357 252 345
8 348 255 358 461 244 163 253 346
8 348 255 163 244 462 359 254 347
8 473 360 257 365 363 256 364 482
8 452 349 258 367 365 257 366 485
8 422 324 369 488 311 224 261 371
8 371 261 370 490 263 167 262 372
8 407 311 371 491 296 210 263 373
8 373 263 372 492 295 209 264 374
8 493 385 275 375 442 342 238 328
8 377 276 179 267 493 385 275 375
8 378 274 177 268 494 383 273 376
8 494 383 273 376 377 276 179 267
8 497 382 272 379 378 274 177 268
8 498 381 271 380 379 272 175 269
8 393 297 197 283 498 381 271 380
8 499 387 277 381 382 278 181 272
8 408 312 211 297 499 387 277 381
8 500 388 278 382 384 280 183 274
8 501 389 279 383 386 282 185 276
8 384 280 183 274 501 389 279 383
8 386 282 185 276 503 391 281 385
8 503 391 281 385 457 354 249 342
8 511 408 299 395 393 297 199 285
8 395 299 409 512 285 199 298 394
8 512 409 300 396 394 298 200 286
8 401 305 205 291 514 411 300 396
8 515 412 301 397 398 302 202 288
8 405 309 209 295 515 412 301 397
8 516 413 302 398 399 303 203 289
8 403 306 414 517 293 206 303 399
8 402 307 207 292 518 415 304 400
8 401 305 415 518 291 205 304 400
8 404 308 208 294 520 418 307 402
8 521 417 306 403 404 308 208 294
8 406 310 210 296 523 420 309 405
8 526 423 311 407 406 310 210 296
8 410 314 213 299 527 424 312 408
8 528 425 315 411 409 313 214 300
8 410 314 425 528 299 213 313 409
8 416 317 216 305 530 427 315 411
8 531 430 318 412 413 320 219 302
8 420 325 223 309 531 430 318 412
8 532 432 320 413 414 321 220 303
8 417 322 433 533 306 221 321 414
8 418 319 218 307 534 428 316 415
8 416 317 428 534 305 216 316 415
8 419 323 434 536 308 222 322 417
8 419 323 222 308 537 431 319 418
8 421 327 225 310 539 438 325 420
8 421 327 439 541 310 225 326 423
8 543 437 324 422 423 326 224 311
8 441 338 259 368 559 452 367 486
8 443 340 236 329 560 453 338 441
8 333 240 344 447 442 342 457 561
8 445 341 237 331 562 455 340 443
8 448 345 241 334 563 454 339 444
8 563 454 339 444 445 341 237 331
8 336 242 346 450 446 343 458 565
8 446 343 458 565 333 240 344 447
8 449 347 243 335 567 460 345 448
8 451 348 244 337 568 462 347 449
8 451 348 461 569 337 244 346 450
8 570 463 349 452 473 360 257 365
8 453 350 245 338 570 463 349 452
8 455 352 247 340 571 464 350 453
8 460 357 252 345 572 465 351 454
8 572 465 351 454 456 353 248 341
8 456 353 248 341 573 466 352 455
8 344 251 356 459 457 354 468 575
8 458 355 469 576 344 251 356 459
8 346 253 358 461 458 355 469 576
8 462 359 254 347 578 471 357 460
8 348 255 359 462 461 358 472 579
8 591 474 360 473 475 361 256 363
8 475 361 256 363 594 477 362 479
8 363 256 364 482 479 362 480 603
8 590 473 365 484 481 363 482 605
8 482 364 257 365 606 483 366 485
8 559 452 367 486 484 365 485 607
8 542 436 487 609 422 324 369 488
8 525 422 488 611 407 311 371 491
8 488 369 489 612 371 261 370 490
8 491 371 490 613 373 263 372 492
8 495 386 276 377 614 503 385 493
8 614 503 385 493 561 457 342 442
8 615 501 383 494 495 386 276 377
8 496 384 274 378 615 501 383 494
8 618 500 382 497 496 384 274 378
8 619 499 381 498 497 382 272 379
8 511 408 297 393 619 499 381 498
8 620 505 387 499 500 388 278 382
8 527 424 312 408 620 505 387 499
8 502 390 506 621 384 280 388 500
8 622 507 389 501 504 392 282 386
8 502 390 280 384 622 507 389 501
8 504 392 282 386 624 509 391 503
8 624 509 391 503 575 468 354 457
8 513 410 299 395 630 527 408 511
8 631 528 411 514 512 409 300 396
8 513 410 528 631 395 299 409 512
8 519 416 305 401 633 530 411 514
8 634 531 412 515 516 413 302 398
8 523 420 309 405 634 531 412 515
8 635 532 413 516 517 414 303 399
8 521 417 533 636 403 306 414 517
8 520 418 307 402 637 534 415 518
8 519 416 534 637 401 305 415 518
8 522 419 308 404 639 537 418 520
8 522 419 536 640 404 308 417 521
8 524 421 310 406 642 539 420 523
8 524 421 541 644 406 310 423 526
8 646 543 422 525 526 423 311 407
8 529 426 314 410 647 544 424 527
8 528 425 545 648 411 315 427 530
8 529 426 545 648 410 314 425 528
8 535 429 317 416 649 546 427 530
8 650 548 430 531 532 432 320 413
8 539 438 325 420 650 548 430 531
8 533 433 550 651 414 321 432 532
8 536 434 551 652 417 322 433 533
8 537 431 319 418 653 547 428 534
8 535 429 547 653 416 317 428 534
8 538 435 552 654 419 323 434 536
8 538 435 323 419 655 549 431 537
8 540 440 327 421 657 556 438 539
8 540 440 557 659 421 327 439 541
8 541 439 555 660 423 326 437 543
8 661 554 436 542 543 437 324 422
8 676 570 452 559 590 473 365 484
8 560 453 338 441 676 570 452 559
8 562 455 340 443 677 571 453 560
8 447 344 459 566 561 457 575 678
8 564 456 341 445 679 573 455 562
8 567 460 345 448 680 572 454 563
8 680 572 454 563 564 456 341 445
8 565 458 576 682 447 344 459 566
8 450 346 461 569 565 458 576 682
8 568 462 347 449 684 578 460 567
8 451 348 462 568 569 461 579 685
8 686 580 463 570 591 474 360 473
8 571 464 350 453 686 580 463 570
8 573 466 352 455 687 581 464 571
8 572 465 582 688 460 357 471 578
8 574 467 582 688 456 353 465 572
8 574 467 353 456 689 583 466 573
8 459 356 470 577 575 468 585 691
8 576 469 586 692 459 356 470 577
8 461 358 472 579 576 469 586 692
8 462 359 471 578 579 472 588 694
8 704 591 473 590 593 475 363 481
8 595 476 592 705 475 361 474 591
8 593 475 363 481 707 594 479 602
8 594 477 362 479 709 598 478 600
8 595 476 361 475 711 597 477 594
8 479 362 480 603 600 478 601 720
8 481 363 482 605 602 479 603 722
8 603 480 364 482 723 604 483 606
8 605 482 365 484 724 606 485 607
8 656 553 608 726 542 436 487 609
8 645 542 609 728 525 422 488 611
8 609 487 610 729 488 369 489 612
8 611 488 612 730 491 371 490 613
8 616 504 386 495 731 624 503 614
8 731 624 503 614 678 575 457 561
8 732 622 501 615 616 504 386 495
8 617 502 384 496 732 622 501 615
8 617 502 621 735 496 384 500 618
8 736 620 499 619 618 500 382 497
8 630 527 408 511 736 620 499 619
8 621 506 626 737 500 388 505 620
8 647 544 424 527 737 626 505 620
8 623 508 627 738 502 390 506 621
8 623 508 390 502 739 628 507 622
8 625 510 628 739 504 392 507 622
8 740 629 509 624 691 585 468 575
8 625 510 392 504 740 629 509 624
8 632 529 410 513 744 647 527 630
8 631 528 648 745 514 411 530 633
8 632 529 648 745 513 410 528 631
8 638 535 416 519 746 649 530 633
8 747 650 531 634 635 532 413 516
8 642 539 420 523 747 650 531 634
8 636 533 651 748 517 414 532 635
8 640 536 652 749 521 417 533 636
8 639 537 418 520 750 653 534 637
8 638 535 653 750 519 416 534 637
8 641 538 419 522 751 655 537 639
8 641 538 654 752 522 419 536 640
8 643 540 421 524 753 657 539 642
8 643 540 659 755 524 421 541 644
8 644 541 660 757 526 423 543 646
8 758 661 542 645 646 543 422 525
8 529 426 544 647 648 545 662 759
8 530 427 545 648 649 546 663 760
8 535 429 546 649 653 547 664 761
8 762 666 548 650 651 550 432 532
8 657 556 438 539 762 666 548 650
8 652 551 668 763 533 433 550 651
8 654 552 669 764 536 434 551 652
8 655 549 431 537 765 665 547 653
8 538 435 549 655 654 552 667 766
8 661 554 671 768 542 436 553 656
8 658 558 440 540 769 674 556 657
8 658 558 675 770 540 440 557 659
8 659 557 673 771 541 439 555 660
8 660 555 672 772 543 437 554 661
8 788 686 570 676 704 591 473 590
8 677 571 453 560 788 686 570 676
8 679 573 455 562 789 687 571 677
8 566 459 577 683 678 575 691 790
8 681 574 456 564 791 689 573 679
8 680 572 688 792 567 460 578 684
8 681 574 688 792 564 456 572 680
8 682 576 692 794 566 459 577 683
8 569 461 579 685 682 576 692 794
8 568 462 578 684 685 579 694 796
8 687 581 464 571 798 696 580 686
8 798 696 580 686 705 592 474 591
8 689 583 466 573 799 697 581 687
8 688 582 698 800 578 471 588 694
8 690 584 698 800 574 467 582 688
8 690 584 467 574 801 699 583 689
8 693 587 701 803 577 470 585 691
8 693 587 470 577 804 702 586 692
8 695 589 702 804 579 472 586 692
8 695 589 472 579 805 703 588 694
8 708 595 705 813 593 475 591 704
8 710 596 706 814 595 476 592 705
8 707 594 479 602 816 709 600 719
8 708 595 475 593 817 711 594 707
8 709 598 478 600 819 715 599 717
8 711 597 477 594 820 714 598 709
8 710 596 476 595 822 713 597 711
8 600 478 601 720 717 599 718 832
8 602 479 603 722 719 600 720 834
8 720 601 480 603 835 721 604 723
8 722 603 482 605 836 723 606 724
8 767 670 725 839 656 553 608 726
8 756 656 726 841 645 542 609 728
8 726 608 727 842 609 487 610 729
8 728 609 729 843 611 488 612 730
8 844 740 624 731 790 691 575 678
8 733 625 504 616 844 740 624 731
8 734 623 502 617 845 739 622 732
8 733 625 739 845 616 504 622 732
8 734 623 738 846 617 502 621 735
8 735 621 737 847 618 500 620 736
8 744 647 527 630 847 737 620 736
8 621 506 627 738 737 626 741 848
8 647 544 626 737 759 662 741 848
8 623 508 628 739 738 627 742 849
8 740 629 585 691 850 743 700 802
8 625 510 629 740 739 628 743 850
8 632 529 647 744 745 648 759 854
8 633 530 648 745 746 649 760 855
8 638 535 649 746 750 653 761 856
8 857 762 650 747 748 651 532 635
8 753 657 539 642 857 762 650 747
8 749 652 763 858 636 533 651 748
8 752 654 764 859 640 536 652 749
8 751 655 537 639 860 765 653 750
8 641 538 655 751 752 654 766 861
8 754 658 540 643 862 769 657 753
8 754 658 770 863 643 540 659 755
8 755 659 771 864 644 541 660 757
8 758 661 768 866 645 542 656 756
8 757 660 772 867 646 543 661 758
8 759 662 773 868 648 545 663 760
8 649 546 663 760 761 664 774 871
8 765 665 547 653 872 775 664 761
8 873 777 666 762 763 668 550 651
8 769 674 556 657 873 777 666 762
8 764 669 779 874 652 551 668 763
8 654 552 667 766 764 669 778 875
8 655 549 665 765 766 667 776 876
8 768 671 782 877 656 553 670 767
8 772 672 783 878 661 554 671 768
8 658 558 674 769 770 675 786 879
8 659 557 675 770 771 673 785 881
8 882 784 672 772 771 673 555 660
8 789 687 571 677 897 798 686 788
8 897 798 686 788 813 705 591 704
8 791 689 573 679 898 799 687 789
8 795 693 803 900 683 577 691 790
8 793 690 574 681 901 801 689 791
8 792 688 800 902 684 578 694 796
8 793 690 800 902 681 574 688 792
8 795 693 577 683 903 804 692 794
8 797 695 804 903 685 579 692 794
8 797 695 579 685 904 805 694 796
8 905 806 697 799 798 696 581 687
8 814 706 806 905 705 592 696 798
8 689 583 697 799 801 699 808 907
8 800 698 809 908 694 588 703 805
8 690 584 699 801 800 698 809 908
8 803 701 810 909 691 585 700 802
8 693 587 702 804 803 701 811 910
8 695 589 703 805 804 702 812 911
8 818 710 814 919 708 595 705 813
8 821 712 815 920 710 596 706 814
8 816 709 600 719 922 819 717 831
8 817 711 594 707 923 820 709 816
8 818 710 595 708 924 822 711 817
8 819 715 599 717 926 827 716 829
8 820 714 598 709 927 826 715 819
8 929 825 713 822 820 714 597 711
8 821 712 596 710 930 824 713 822
8 717 599 718 832 829 716 830 942
8 719 600 720 834 831 717 832 944
8 832 718 601 720 945 833 721 835
8 834 720 603 722 946 835 723 836
8 869 780 838 950 767 670 725 839
8 865 767 839 952 756 656 726 841
8 839 725 840 953 726 608 727 842
8 841 726 842 954 728 609 729 843
8 844 740 691 790 955 850 802 899
8 733 625 740 844 845 739 850 955
8 734 623 739 845 846 738 849 956
8 735 621 738 846 847 737 848 957
8 744 647 737 847 854 759 848 957
8 738 627 742 849 848 741 851 958
8 848 741 851 958 759 662 773 868
8 850 743 700 802 959 852 807 906
8 849 742 628 739 959 852 743 850
8 854 759 868 965 745 648 760 855
8 746 649 760 855 856 761 871 966
8 860 765 653 750 967 872 761 856
8 968 873 762 857 858 763 651 748
8 862 769 657 753 968 873 762 857
8 859 764 874 969 749 652 763 858
8 752 654 766 861 859 764 875 970
8 751 655 765 860 861 766 876 971
8 754 658 769 862 863 770 879 972
8 755 659 770 863 864 771 881 974
8 976 882 772 867 864 771 660 757
8 866 768 877 977 756 656 767 865
8 867 772 878 978 758 661 768 866
8 760 663 773 868 871 774 883 980
8 870 781 837 948 982 890 780 869
8 982 890 780 869 877 782 670 767
8 761 664 774 871 872 775 884 984
8 876 776 665 765 985 885 775 872
8 873 777 668 763 986 887 779 874
8 769 674 777 873 879 786 887 986
8 764 669 778 875 874 779 888 987
8 766 667 776 876 875 778 886 988
8 878 783 892 989 768 671 782 877
8 878 783 672 772 990 893 784 882
8 880 787 675 770 991 896 786 879
8 880 787 895 992 770 675 785 881
8 881 785 894 993 771 673 784 882
8 1006 905 799 898 897 798 687 789
8 919 814 905 1006 813 705 798 897
8 791 689 799 898 901 801 907 1007
8 900 803 909 1009 790 691 802 899
8 795 693 804 903 900 803 910 1010
8 902 800 908 1011 796 694 805 904
8 793 690 801 901 902 800 908 1011
8 797 695 805 904 903 804 911 1012
8 799 697 806 905 907 808 912 1013
8 920 815 912 1013 814 706 806 905
8 802 700 810 909 906 807 913 1014
8 801 699 808 907 908 809 914 1015
8 805 703 809 908 911 812 915 1016
8 803 701 811 910 909 810 916 1017
8 911 812 917 1018 804 702 811 910
8 925 821 920 1030 818 710 814 919
8 928 823 921 1031 821 712 815 920
8 922 819 717 831 1033 926 829 941
8 923 820 709 816 1034 927 819 922
8 1035 929 822 924 923 820 711 817
8 925 821 710 818 1036 930 822 924
8 1038 933 825 929 927 826 714 820
8 926 827 716 829 1039 935 828 939
8 927 826 715 819 1040 934 827 926
8 928 823 712 821 1041 931 824 930
8 1042 932 824 930 929 825 713 822
8 829 716 830 942 939 828 940 1058
8 831 717 832 944 941 829 942 1060
8 942 830 718 832 1061 943 833 945
8 944 832 720 834 1062 945 835 946
8 981 889 947 1064 870 781 837 948
8 948 837 949 1067 869 780 838 950
8 975 869 950 1069 865 767 839 952
8 950 838 951 1070 839 725 840 953
8 952 839 953 1071 841 726 842 954
8 955 850 802 899 1072 959 906 1008
8 956 849 739 845 1072 959 850 955
8 846 738 849 956 957 848 958 1073
8 957 848 958 1073 854 759 868 965
8 849 742 852 959 958 851 961 1076
8 960 853 961 1076 906 807 852 959
8 958 851 961 1076 868 773 883 980
8 960 853 807 906 1077 963 913 1014
8 855 760 868 965 966 871 980 1085
8 856 761 871 966 967 872 984 1086
8 971 876 765 860 1087 985 872 967
8 968 873 763 858 1088 986 874 969
8 862 769 873 968 972 879 986 1088
8 859 764 875 970 969 874 987 1089
8 861 766 876 971 970 875 988 1090
8 973 880 770 863 1091 991 879 972
8 973 880 992 1092 863 770 881 974
8 974 881 993 1093 864 771 882 976
8 979 870 948 1066 1094 982 869 975
8 1094 982 869 975 977 877 767 865
8 978 878 772 867 1095 990 882 976
8 978 878 989 1096 866 768 877 977
8 871 774 883 980 984 884 994 1099
8 983 891 999 1100 870 781 889 981
8 1101 1000 890 982 989 892 782 877
8 983 891 781 870 1101 1000 890 982
8 872 775 884 984 985 885 995 1103
8 876 776 885 985 988 886 996 1104
8 986 887 779 874 1105 998 888 987
8 879 786 887 986 991 896 998 1105
8 875 778 886 988 987 888 997 1106
8 990 893 1002 1107 878 783 892 989
8 1108 1003 893 990 993 894 784 882
8 880 787 896 991 992 895 1005 1109
8 993 894 785 881 1110 1004 895 992
8 898 799 905 1006 1007 907 1013 1120
8 1030 920 1013 1120 919 814 905 1006
8 901 801 907 1007 1011 908 1015 1121
8 899 802 909 1009 1008 906 1014 1122
8 900 803 910 1010 1009 909 1017 1123
8 1012 911 1018 1124 903 804 910 1010
8 904 805 908 1011 1012 911 1016 1125
8 1013 912 1020 1127 907 808 914 1015
8 1031 921 1020 1127 920 815 912 1013
8 1019 918 962 1075 1128 1021 913 1014
8 1128 1021 913 1014 1017 916 810 909
8 1015 914 1022 1129 908 809 915 1016
8 1016 915 1023 1130 911 812 917 1018
8 1018 917 1024 1131 910 811 916 1017
8 1037 928 1031 1148 925 821 920 1030
8 928 823 931 1041 1031 921 1032 1149
8 1033 926 829 941 1151 1039 939 1057
8 1034 927 819 922 1152 1040 926 1033
8 1153 1038 929 1035 1034 927 820 923
8 1154 1042 930 1036 1035 929 822 924
8 1037 928 821 925 1155 1041 930 1036
8 1039 935 828 939 1156 1047 938 1055
8 1157 1043 932 1042 1038 933 825 929
8 1038 933 826 927 1158 1045 934 1040
8 1040 934 827 926 1159 1046 935 1039
8 930 824 932 1042 1041 931 1044 1160
8 1051 936 1048 1165 1175 1052 937 1053
8 1156 1047 938 1055 1053 937 1054 1178
8 939 828 940 1058 1055 938 1056 1181
8 941 829 942 1060 1057 939 1058 1183
8 942 830 943 1061 1058 940 1059 1184
8 1060 942 832 944 1185 1061 945 1062
8 1082 964 1063 1188 981 889 947 1064
8 1097 981 1064 1190 979 870 948 1066
8 1064 947 1065 1191 948 837 949 1067
8 1066 948 1067 1193 975 869 950 1069
8 1067 949 1068 1194 950 838 951 1070
8 1069 950 1070 1195 952 839 953 1071
8 956 849 959 1072 1073 958 1076 1197
8 1074 960 1076 1197 1008 906 959 1072
8 1073 958 1076 1197 965 868 980 1085
8 1074 960 906 1008 1198 1077 1014 1122
8 1133 1026 1079 1199 1019 918 962 1075
8 1077 963 913 1014 1200 1080 962 1075
8 960 853 963 1077 1076 961 1078 1201
8 980 883 961 1076 1099 994 1078 1201
8 1210 1083 964 1082 1100 999 889 981
8 966 871 980 1085 1086 984 1099 1215
8 967 872 984 1086 1087 985 1103 1216
8 971 876 985 1087 1090 988 1104 1217
8 1088 986 874 969 1218 1105 987 1089
8 972 879 986 1088 1091 991 1105 1218
8 970 875 988 1090 1089 987 1106 1219
8 973 880 991 1091 1092 992 1109 1220
8 1093 993 881 974 1221 1110 992 1092
8 1222 1108 990 1095 1093 993 882 976
8 1223 1101 982 1094 1096 989 877 977
8 1098 983 870 979 1223 1101 982 1094
8 1095 990 1107 1224 978 878 989 1096
8 1098 983 1100 1225 979 870 981 1097
8 984 884 994 1099 1103 995 1111 1227
8 1102 1001 1115 1228 983 891 999 1100
8 1101 1000 892 989 1229 1116 1002 1107
8 1102 1001 891 983 1229 1116 1000 1101
8 985 885 995 1103 1104 996 1112 1230
8 988 886 996 1104 1106 997 1113 1231
8 1105 998 888 987 1232 1114 997 1106
8 991 896 998 1105 1109 1005 1114 1232
8 1108 1003 1117 1233 990 893 1002 1107
8 1108 1003 894 993 1233 1117 1004 1110
8 992 895 1005 1109 1110 1004 1118 1234
8 1120 1013 1127 1244 1007 907 1015 1121
8 1148 1031 1127 1244 1030 920 1013 1120
8 1121 1015 1129 1245 1011 908 1016 1125
8 1126 1019 1075 1196 1246 1128 1014 1122
8 1246 1128 1014 1122 1123 1017 909 1009
8 1124 1018 1131 1247 1010 910 1017 1123
8 1125 1016 1130 1248 1012 911 1018 1124
8 1127 1020 1137 1254 1015 914 1022 1129
8 1031 921 1032 1149 1127 1020 1137 1254
8 1134 1027 918 1019 1257 1140 1021 1128
8 1257 1140 1021 1128 1131 1024 916 1017
8 1129 1022 1141 1258 1016 915 1023 1130
8 1130 1023 1142 1259 1018 917 1024 1131
8 1261 1144 1025 1132 1133 1026 1079 1199
8 1255 1138 1025 1132 1135 1028 1144 1261
8 1133 1026 918 1019 1262 1145 1027 1134
8 1136 1029 1139 1256 1263 1146 1028 1135
8 1037 928 1041 1155 1148 1031 1149 1275
8 1041 931 1044 1160 1149 1032 1150 1276
8 1151 1039 939 1057 1278 1156 1055 1180
8 1152 1040 926 1033 1279 1159 1039 1151
8 1153 1038 927 1034 1280 1158 1040 1152
8 1281 1157 1042 1154 1153 1038 929 1035
8 1036 930 1042 1154 1155 1041 1160 1282
8 1283 1164 1046 1159 1156 1047 935 1039
8 1165 1048 1164 1283 1053 937 1047 1156
8 1157 1043 933 1038 1284 1161 1045 1158
8 1157 1043 1161 1284 1042 932 1044 1160
8 1040 934 1046 1159 1158 1045 1163 1285
8 1166 1049 1167 1292 1051 936 1048 1165
8 1166 1049 936 1051 1293 1168 1050 1172
8 1051 936 1052 1175 1172 1050 1173 1306
8 1174 1051 1165 1290 1308 1175 1053 1177
8 1053 937 1054 1178 1175 1052 1176 1309
8 1278 1156 1055 1180 1177 1053 1178 1311
8 1055 938 1056 1181 1178 1054 1179 1312
8 1057 939 1058 1183 1180 1055 1181 1314
8 1058 940 1059 1184 1181 1056 1182 1315
8 1060 942 1061 1185 1183 1058 1184 1316
8 1208 1081 1187 1321 1082 964 1063 1188
8 1209 1082 1188 1322 1097 981 1064 1190
8 1188 1063 1189 1323 1064 947 1065 1191
8 1190 1064 1191 1325 1066 948 1067 1193
8 1191 1065 1192 1326 1067 949 1068 1194
8 1067 1193 1069 950 1194 1327 1195 1070
8 1250 1133 1199 1330 1126 1019 1075 1196
8 1198 1077 1014 1122 1331 1200 1075 1196
8 1074 960 1077 1198 1197 1076 1201 1332
8 1085 980 1076 1197 1215 1099 1201 1332
8 1199 1079 1203 1333 1075 962 1080 1200
8 1132 1025 1119 1243 1199 1079 1203 1333
8 1201 1078 963 1077 1334 1202 1080 1200
8 1099 994 1078 1201 1227 1111 1202 1334
8 1343 1207 1081 1208 1210 1083 964 1082
8 1214 1084 1186 1319 1343 1207 1081 1208
8 1345 1210 1082 1209 1225 1100 981 1097
8 1346 1211 1083 1210 1228 1115 999 1100
8 1086 984 1099 1215 1216 1103 1227 1352
8 1087 985 1103 1216 1217 1104 1230 1353
8 1090 988 1104 1217 1219 1106 1231 1354
8 1218 1105 987 1089 1355 1232 1106 1219
8 1091 991 1105 1218 1220 1109 1232 1355
8 1092 992 1109 1220 1221 1110 1234 1356
8 1222 1108 1233 1357 1095 990 1107 1224
8 1222 1108 993 1093 1357 1233 1110 1221
8 1223 1101 989 1096 1358 1229 1107 1224
8 1226 1102 983 1098 1358 1229 1101 1223
8 1226 1102 1228 1359 1098 983 1100 1225
8 1103 995 1111 1227 1230 1112 1235 1360
8 1107 1002 1117 1233 1229 1116 1240 1362
8 1102 1001 1116 1229 1228 1115 1240 1362
8 1104 996 1112 1230 1231 1113 1236 1363
8 1364 1237 1114 1232 1231 1113 997 1106
8 1109 1005 1114 1232 1234 1118 1238 1365
8 1110 1004 1118 1234 1233 1117 1241 1366
8 1242 1374 1255 1138 1119 1243 1132 1025
8 1244 1127 1254 1376 1121 1015 1129 1245
8 1148 1031 1149 1275 1244 1127 1254 1376
8 1245 1129 1258 1377 1125 1016 1130 1248
8 1251 1134 1019 1126 1378 1257 1128 1246
8 1378 1257 1128 1246 1247 1131 1017 1123
8 1248 1130 1259 1379 1124 1018 1131 1247
8 1261 1381 1250 1133 1132 1249 1330 1199
8 1255 1380 1252 1135 1132 1249 1381 1261
8 1250 1133 1019 1126 1382 1262 1134 1251
8 1253 1136 1256 1385 1384 1263 1135 1252
8 1254 1137 1265 1387 1129 1022 1141 1258
8 1149 1032 1150 1276 1254 1137 1265 1387
8 1028 1135 1255 1138 1139 1256 1388 1266
8 1136 1029 1147 1264 1256 1139 1267 1389
8 1390 1268 1140 1257 1259 1142 1024 1131
8 1260 1143 1027 1134 1390 1268 1140 1257
8 1258 1141 1269 1391 1130 1023 1142 1259
8 1262 1145 1027 1134 1393 1271 1143 1260
8 1261 1144 1026 1133 1394 1272 1145 1262
8 1135 1028 1144 1261 1263 1146 1272 1394
8 1136 1029 1146 1263 1264 1147 1273 1395
8 1155 1041 1160 1282 1275 1149 1276 1405
8 1276 1150 1044 1160 1406 1277 1162 1286
8 1408 1283 1159 1279 1278 1156 1039 1151
8 1290 1165 1283 1408 1177 1053 1156 1278
8 1152 1040 1159 1279 1280 1158 1285 1409
8 1281 1157 1038 1153 1410 1284 1158 1280
8 1281 1157 1284 1410 1154 1042 1160 1282
8 1159 1046 1164 1283 1285 1163 1289 1412
8 1292 1167 1289 1412 1165 1048 1164 1283
8 1158 1045 1163 1285 1284 1161 1288 1413
8 1284 1161 1288 1413 1160 1044 1162 1286
8 1291 1166 1292 1418 1174 1051 1165 1290
8 1291 1166 1051 1174 1419 1293 1172 1305
8 1294 1169 1296 1421 1166 1049 1167 1292
8 1293 1168 1050 1172 1422 1295 1171 1303
8 1294 1169 1049 1166 1423 1297 1168 1293
8 1422 1295 1171 1303 1301 1170 1302 1435
8 1172 1050 1173 1306 1303 1171 1304 1438
8 1174 1051 1175 1308 1305 1172 1306 1440
8 1175 1052 1176 1309 1306 1173 1307 1441
8 1177 1053 1178 1311 1308 1175 1309 1443
8 1178 1054 1179 1312 1309 1176 1310 1444
8 1180 1055 1181 1314 1311 1178 1312 1446
8 1056 1181 1312 1179 1182 1315 1447 1313
8 1183 1058 1184 1316 1314 1181 1315 1448
8 1319 1186 1084 1214 1451 1317 1213 1350
8 1319 1186 1318 1453 1208 1081 1187 1321
8 1321 1187 1320 1456 1188 1063 1189 1323
8 1344 1208 1321 1457 1209 1082 1188 1322
8 1322 1188 1323 1458 1190 1064 1191 1325
8 1323 1189 1324 1459 1191 1065 1192 1326
8 1191 1325 1193 1067 1326 1460 1327 1194
8 1242 1374 1243 1119 1328 1462 1335 1204
8 1330 1199 1333 1465 1196 1075 1200 1331
8 1132 1249 1330 1199 1243 1375 1465 1333
8 1332 1201 1077 1198 1466 1334 1200 1331
8 1215 1099 1201 1332 1352 1227 1334 1466
8 1119 1243 1333 1203 1204 1335 1470 1338
8 1333 1203 1338 1470 1200 1080 1202 1334
8 1227 1111 1202 1334 1360 1235 1338 1470
8 1328 1462 1335 1204 1205 1336 1471 1339
8 1337 1206 1340 1472 1464 1329 1205 1336
8 1346 1211 1342 1479 1210 1083 1207 1343
8 1346 1211 1115 1228 1479 1342 1239 1361
8 1348 1212 1084 1214 1479 1342 1207 1343
8 1480 1343 1208 1344 1345 1210 1082 1209
8 1351 1214 1319 1454 1480 1343 1208 1344
8 1481 1346 1210 1345 1359 1228 1100 1225
8 1348 1212 1347 1483 1214 1084 1213 1350
8 1216 1103 1227 1352 1353 1230 1360 1488
8 1217 1104 1230 1353 1354 1231 1363 1489
8 1490 1364 1232 1355 1354 1231 1106 1219
8 1220 1109 1232 1355 1356 1234 1365 1491
8 1221 1110 1234 1356 1357 1233 1366 1492
8 1224 1107 1233 1357 1358 1229 1362 1493
8 1226 1102 1229 1358 1359 1228 1362 1493
8 1230 1112 1235 1360 1363 1236 1367 1496
8 1361 1239 1115 1228 1497 1371 1240 1362
8 1366 1241 1372 1498 1233 1117 1240 1362
8 1364 1237 1113 1231 1499 1368 1236 1363
8 1364 1237 1368 1499 1232 1114 1238 1365
8 1234 1118 1238 1365 1366 1241 1369 1500
8 1507 1373 1242 1374 1388 1266 1138 1255
8 1508 1374 1243 1375 1380 1255 1132 1249
8 1376 1254 1387 1509 1245 1129 1258 1377
8 1275 1149 1276 1405 1376 1254 1387 1509
8 1377 1258 1391 1510 1248 1130 1259 1379
8 1511 1390 1257 1378 1379 1259 1131 1247
8 1383 1260 1134 1251 1511 1390 1257 1378
8 1252 1135 1256 1385 1380 1255 1388 1512
8 1261 1381 1513 1394 1133 1250 1382 1262
8 1135 1252 1384 1263 1261 1381 1513 1394
8 1382 1262 1134 1251 1514 1393 1260 1383
8 1253 1136 1263 1384 1386 1264 1395 1516
8 1253 1136 1264 1386 1385 1256 1389 1517
8 1387 1265 1397 1519 1258 1141 1269 1391
8 1276 1150 1277 1406 1387 1265 1397 1519
8 1256 1139 1267 1389 1388 1266 1398 1520
8 1264 1147 1274 1396 1389 1267 1399 1521
8 1392 1270 1143 1260 1522 1400 1268 1390
8 1390 1268 1142 1259 1522 1400 1269 1391
8 1392 1270 1401 1523 1260 1143 1271 1393
8 1272 1394 1524 1402 1145 1262 1393 1271
8 1395 1273 1146 1263 1524 1402 1272 1394
8 1273 1395 1264 1147 1403 1526 1396 1274
8 1405 1276 1160 1282 1534 1406 1286 1411
8 1414 1287 1407 1535 1286 1162 1277 1406
8 1279 1159 1283 1408 1409 1285 1412 1537
8 1418 1292 1412 1537 1290 1165 1283 1408
8 1280 1158 1285 1409 1410 1284 1413 1538
8 1410 1284 1413 1538 1282 1160 1286 1411
8 1285 1163 1289 1412 1413 1288 1417 1540
8 1421 1296 1417 1540 1292 1167 1289 1412
8 1414 1287 1162 1286 1541 1416 1288 1413
8 1420 1294 1421 1545 1291 1166 1292 1418
8 1419 1293 1172 1305 1546 1422 1303 1437
8 1420 1294 1166 1291 1547 1423 1293 1419
8 1294 1169 1297 1423 1421 1296 1425 1548
8 1423 1297 1168 1293 1549 1424 1295 1422
8 1301 1170 1298 1427 1422 1295 1424 1549
8 1432 1300 1428 1554 1301 1170 1298 1427
8 1431 1299 1428 1554 1560 1430 1300 1432
8 1563 1433 1300 1432 1435 1302 1170 1301
8 1546 1422 1303 1437 1434 1301 1435 1565
8 1303 1171 1304 1438 1435 1302 1436 1566
8 1305 1172 1306 1440 1437 1303 1438 1568
8 1306 1173 1307 1441 1438 1304 1439 1569
8 1308 1175 1309 1443 1440 1306 1441 1571
8 1309 1176 1310 1444 1441 1307 1442 1572
8 1311 1178 1312 1446 1443 1309 1444 1574
8 1179 1312 1444 1310 1313 1447 1575 1445
8 1314 1181 1315 1448 1446 1312 1447 1576
8 1350 1213 1349 1486 1451 1317 1449 1579
8 1451 1317 1450 1581 1319 1186 1318 1453
8 1454 1319 1214 1351 1582 1451 1350 1487
8 1453 1318 1452 1584 1321 1187 1320 1456
8 1454 1319 1453 1585 1344 1208 1321 1457
8 1456 1320 1455 1586 1323 1189 1324 1459
8 1457 1321 1456 1587 1322 1188 1323 1458
8 1458 1323 1459 1588 1325 1191 1326 1460
8 1205 1336 1464 1329 1328 1462 1590 1461
8 1507 1373 1461 1590 1374 1242 1328 1462
8 1508 1374 1462 1591 1375 1243 1335 1467
8 1337 1206 1329 1464 1473 1341 1463 1594
8 1375 1243 1335 1467 1465 1333 1470 1596
8 1465 1333 1470 1596 1331 1200 1334 1466
8 1352 1227 1334 1466 1488 1360 1470 1596
8 1591 1462 1336 1468 1467 1335 1471 1597
8 1469 1337 1472 1598 1595 1464 1336 1468
8 1471 1339 1474 1600 1335 1204 1338 1470
8 1600 1474 1367 1496 1470 1338 1235 1360
8 1336 1205 1340 1472 1471 1339 1475 1601
8 1337 1206 1341 1473 1472 1340 1476 1602
8 1495 1370 1478 1609 1361 1239 1342 1479
8 1348 1212 1342 1479 1483 1347 1478 1609
8 1481 1346 1479 1610 1345 1210 1343 1480
8 1481 1346 1228 1359 1610 1479 1361 1494
8 1484 1348 1214 1351 1610 1479 1343 1480
8 1483 1347 1482 1612 1350 1213 1349 1486
8 1484 1348 1483 1613 1351 1214 1350 1487
8 1353 1230 1360 1488 1489 1363 1496 1616
8 1490 1364 1231 1354 1617 1499 1363 1489
8 1490 1364 1499 1617 1355 1232 1365 1491
8 1356 1234 1365 1491 1492 1366 1500 1619
8 1492 1366 1498 1620 1357 1233 1362 1493
8 1494 1361 1228 1359 1621 1497 1362 1493
8 1495 1370 1239 1361 1622 1504 1371 1497
8 1363 1236 1367 1496 1499 1368 1501 1623
8 1497 1371 1240 1362 1624 1505 1372 1498
8 1625 1503 1372 1498 1500 1369 1241 1366
8 1365 1238 1368 1499 1500 1369 1502 1626
8 1520 1398 1506 1633 1388 1266 1373 1507
8 1634 1507 1374 1508 1512 1388 1255 1380
8 1509 1387 1519 1635 1377 1258 1391 1510
8 1405 1276 1406 1534 1509 1387 1519 1635
8 1515 1392 1260 1383 1636 1522 1390 1511
8 1511 1390 1259 1379 1636 1522 1391 1510
8 1385 1256 1389 1517 1512 1388 1520 1637
8 1513 1394 1262 1382 1638 1524 1393 1514
8 1395 1516 1638 1524 1263 1384 1513 1394
8 1515 1392 1523 1639 1383 1260 1393 1514
8 1516 1395 1526 1640 1386 1264 1396 1518
8 1386 1264 1396 1518 1517 1389 1521 1641
8 1519 1397 1527 1643 1391 1269 1400 1522
8 1535 1407 1527 1643 1406 1277 1397 1519
8 1389 1267 1399 1521 1520 1398 1528 1644
8 1645 1529 1399 1521 1525 1404 1274 1396
8 1392 1270 1400 1522 1523 1401 1531 1646
8 1524 1402 1271 1393 1648 1532 1401 1523
8 1403 1526 1648 1532 1273 1395 1524 1402
8 1525 1404 1274 1396 1649 1533 1403 1526
8 1539 1414 1535 1657 1411 1286 1406 1534
8 1542 1415 1536 1658 1414 1287 1407 1535
8 1409 1285 1412 1537 1538 1413 1540 1660
8 1545 1421 1540 1660 1418 1292 1412 1537
8 1539 1414 1286 1411 1661 1541 1413 1538
8 1540 1417 1544 1663 1413 1288 1416 1541
8 1421 1296 1425 1548 1540 1417 1544 1663
8 1542 1415 1287 1414 1664 1543 1416 1541
8 1420 1294 1423 1547 1545 1421 1548 1666
8 1547 1423 1293 1419 1667 1549 1422 1546
8 1434 1301 1427 1553 1546 1422 1549 1667
8 1423 1297 1424 1549 1548 1425 1550 1668
8 1551 1426 1550 1668 1427 1298 1424 1549
8 1551 1426 1298 1427 1671 1552 1428 1554
8 1562 1432 1554 1674 1434 1301 1427 1553
8 1431 1299 1429 1558 1554 1428 1555 1675
8 1431 1299 1430 1560 1558 1429 1557 1680
8 1560 1430 1300 1432 1683 1559 1433 1563
8 1561 1431 1554 1674 1684 1560 1432 1562
8 1685 1563 1432 1562 1565 1435 1301 1434
8 1435 1302 1436 1566 1563 1433 1564 1686
8 1437 1303 1438 1568 1565 1435 1566 1688
8 1438 1304 1439 1569 1566 1436 1567 1689
8 1440 1306 1441 1571 1568 1438 1569 1691
8 1441 1307 1442 1572 1569 1439 1570 1692
8 1443 1309 1444 1574 1571 1441 1572 1694
8 1310 1444 1572 1442 1445 1575 1695 1573
8 1446 1312 1447 1576 1574 1444 1575 1696
8 1486 1349 1485 1614 1579 1449 1577 1699
8 1451 1317 1449 1579 1581 1450 1578 1701
8 1487 1350 1486 1615 1582 1451 1579 1702
8 1581 1450 1580 1704 1453 1318 1452 1584
8 1582 1451 1581 1705 1454 1319 1453 1585
8 1584 1452 1583 1706 1456 1320 1455 1586
8 1585 1453 1584 1707 1457 1321 1456 1587
8 1587 1456 1586 1708 1458 1323 1459 1588
8 1633 1506 1589 1710 1507 1373 1461 1590
8 1464 1329 1461 1590 1594 1463 1589 1710
8 1468 1336 1462 1591 1595 1464 1590 1711
8 1634 1507 1590 1711 1508 1374 1462 1591
8 1473 1341 1463 1594 1603 1477 1593 1716
8 1469 1337 1464 1595 1599 1473 1594 1717
8 1471 1597 1467 1335 1600 1718 1596 1470
8 1718 1600 1496 1616 1596 1470 1360 1488
8 1336 1468 1597 1471 1472 1598 1719 1601
8 1469 1337 1473 1599 1598 1472 1602 1720
8 1722 1604 1501 1623 1600 1474 1367 1496
8 1475 1601 1471 1339 1604 1722 1600 1474
8 1602 1476 1605 1723 1472 1340 1475 1601
8 1476 1602 1724 1606 1341 1473 1603 1477
8 1483 1347 1478 1609 1612 1482 1608 1731
8 1495 1370 1504 1622 1609 1478 1608 1731
8 1618 1495 1609 1732 1494 1361 1479 1610
8 1484 1348 1479 1610 1613 1483 1609 1732
8 1486 1349 1482 1612 1614 1485 1611 1733
8 1613 1483 1612 1734 1487 1350 1486 1615
8 1489 1363 1496 1616 1617 1499 1623 1736
8 1491 1365 1499 1617 1619 1500 1626 1737
8 1618 1495 1361 1494 1738 1622 1497 1621
8 1739 1625 1498 1620 1619 1500 1366 1492
8 1621 1497 1362 1493 1740 1624 1498 1620
8 1742 1631 1504 1622 1624 1505 1371 1497
8 1743 1628 1502 1626 1623 1501 1368 1499
8 1744 1630 1505 1624 1625 1503 1372 1498
8 1745 1629 1503 1625 1626 1502 1369 1500
8 1520 1398 1528 1644 1633 1506 1632 1751
8 1637 1520 1633 1752 1512 1388 1507 1634
8 1635 1519 1643 1753 1510 1391 1522 1636
8 1657 1535 1643 1753 1534 1406 1519 1635
8 1515 1392 1522 1636 1639 1523 1646 1754
8 1517 1389 1521 1641 1637 1520 1644 1755
8 1524 1638 1756 1648 1393 1514 1639 1523
8 1640 1526 1395 1516 1756 1648 1524 1638
8 1642 1525 1396 1518 1757 1649 1526 1640
8 1758 1645 1521 1641 1642 1525 1396 1518
8 1646 1531 1400 1522 1760 1650 1527 1643
8 1535 1407 1536 1658 1643 1527 1650 1760
8 1521 1399 1529 1645 1644 1528 1651 1761
8 1647 1530 1652 1762 1525 1404 1529 1645
8 1401 1523 1648 1532 1531 1646 1763 1655
8 1525 1404 1533 1649 1647 1530 1654 1765
8 1533 1649 1766 1656 1403 1526 1648 1532
8 1662 1542 1658 1774 1539 1414 1535 1657
8 1542 1415 1543 1664 1658 1536 1659 1775
8 1660 1540 1663 1777 1538 1413 1541 1661
8 1545 1421 1548 1666 1660 1540 1663 1777
8 1662 1542 1414 1539 1778 1664 1541 1661
8 1664 1543 1416 1541 1779 1665 1544 1663
8 1548 1425 1550 1668 1663 1544 1665 1779
8 1547 1423 1549 1667 1666 1548 1668 1781
8 1670 1551 1668 1781 1553 1427 1549 1667
8 1551 1426 1552 1671 1668 1550 1669 1782
8 1670 1551 1427 1553 1784 1671 1554 1674
8 1675 1555 1672 1785 1554 1428 1552 1671
8 1678 1556 1673 1789 1558 1429 1555 1675
8 1561 1431 1558 1681 1674 1554 1675 1790
8 1794 1677 1556 1678 1680 1557 1429 1558
8 1560 1430 1559 1683 1680 1557 1679 1797
8 1561 1431 1560 1684 1681 1558 1680 1798
8 1563 1433 1564 1686 1683 1559 1682 1800
8 1684 1560 1432 1562 1801 1683 1563 1685
8 1565 1435 1566 1688 1685 1563 1686 1802
8 1566 1436 1567 1689 1686 1564 1687 1803
8 1568 1438 1569 1691 1688 1566 1689 1805
8 1569 1439 1570 1692 1689 1567 1690 1806
8 1571 1441 1572 1694 1691 1569 1692 1808
8 1442 1572 1692 1570 1573 1695 1809 1693
8 1574 1444 1575 1696 1694 1572 1695 1810
8 1614 1485 1592 1712 1699 1577 1697 1813
8 1579 1449 1577 1699 1701 1578 1698 1815
8 1615 1486 1614 1735 1702 1579 1699 1816
8 1701 1578 1700 1818 1581 1450 1580 1704
8 1582 1451 1579 1702 1705 1581 1701 1819
8 1704 1580 1703 1820 1584 1452 1583 1706
8 1705 1581 1704 1821 1585 1453 1584 1707
8 1707 1584 1706 1822 1587 1456 1586 1708
8 1710 1589 1506 1633 1824 1709 1632 1751
8 1594 1463 1589 1710 1716 1593 1709 1824
8 1752 1633 1710 1825 1634 1507 1590 1711
8 1595 1464 1590 1711 1717 1594 1710 1825
8 1830 1714 1592 1712 1733 1611 1485 1614
8 1603 1477 1593 1716 1725 1607 1715 1834
8 1599 1473 1594 1717 1721 1603 1716 1835
8 1837 1722 1623 1736 1718 1600 1496 1616
8 1719 1601 1722 1837 1597 1471 1600 1718
8 1602 1720 1598 1472 1723 1838 1719 1601
8 1720 1602 1473 1599 1839 1724 1603 1721
8 1723 1605 1726 1840 1601 1475 1604 1722
8 1840 1726 1628 1743 1722 1604 1501 1623
8 1724 1606 1727 1841 1602 1476 1605 1723
8 1725 1607 1728 1842 1603 1477 1606 1724
8 1612 1482 1608 1731 1733 1611 1730 1849
8 1741 1627 1730 1849 1622 1504 1608 1731
8 1613 1483 1609 1732 1734 1612 1731 1850
8 1618 1495 1622 1738 1732 1609 1731 1850
8 1615 1486 1612 1734 1735 1614 1733 1851
8 1852 1743 1626 1737 1736 1623 1499 1617
8 1853 1745 1625 1739 1737 1626 1500 1619
8 1855 1742 1622 1738 1740 1624 1497 1621
8 1856 1744 1624 1740 1739 1625 1498 1620
8 1741 1627 1504 1622 1857 1746 1631 1742
8 1742 1631 1505 1624 1858 1749 1630 1744
8 1859 1747 1629 1745 1743 1628 1502 1626
8 1860 1748 1630 1744 1745 1629 1503 1625
8 1644 1528 1651 1761 1751 1632 1750 1865
8 1637 1520 1644 1755 1752 1633 1751 1866
8 1754 1646 1522 1636 1867 1760 1643 1753
8 1657 1535 1658 1774 1753 1643 1760 1867
8 1639 1523 1646 1754 1756 1648 1763 1868
8 1641 1521 1645 1758 1755 1644 1761 1869
8 1757 1649 1526 1640 1870 1766 1648 1756
8 1642 1525 1649 1757 1759 1647 1765 1871
8 1759 1647 1762 1872 1642 1525 1645 1758
8 1760 1650 1767 1874 1646 1531 1655 1763
8 1658 1536 1659 1775 1760 1650 1767 1874
8 1762 1652 1768 1875 1645 1529 1651 1761
8 1764 1653 1769 1876 1647 1530 1652 1762
8 1656 1766 1877 1773 1532 1648 1763 1655
8 1771 1879 1765 1654 1653 1764 1647 1530
8 1533 1649 1765 1654 1656 1766 1880 1772
8 1662 1542 1664 1778 1774 1658 1775 1887
8 1664 1543 1665 1779 1775 1659 1776 1888
8 1778 1664 1541 1661 1890 1779 1663 1777
8 1666 1548 1668 1781 1777 1663 1779 1890
8 1782 1669 1780 1891 1668 1550 1665 1779
8 1670 1551 1671 1784 1781 1668 1782 1893
8 1671 1552 1672 1785 1782 1669 1783 1894
8 1790 1675 1785 1896 1674 1554 1671 1784
8 1675 1555 1673 1789 1785 1672 1786 1897
8 1792 1676 1788 1903 1678 1556 1673 1789
8 1795 1678 1789 1904 1681 1558 1675 1790
8 1792 1676 1556 1678 1906 1791 1677 1794
8 1680 1557 1679 1797 1794 1677 1793 1909
8 1910 1794 1678 1795 1798 1680 1558 1681
8 1683 1559 1682 1800 1797 1679 1796 1912
8 1684 1560 1683 1801 1798 1680 1797 1913
8 1686 1564 1687 1803 1800 1682 1799 1915
8 1685 1563 1686 1802 1801 1683 1800 1916
8 1688 1566 1689 1805 1802 1686 1803 1917
8 1689 1567 1690 1806 1803 1687 1804 1918
8 1691 1569 1692 1808 1805 1689 1806 1920
8 1692 1570 1693 1809 1806 1690 1807 1921
8 1694 1572 1695 1810 1808 1692 1809 1922
8 1829 1713 1811 1926 1712 1592 1697 1813
8 1813 1697 1812 1928 1699 1577 1698 1815
8 1735 1614 1712 1828 1816 1699 1813 1929
8 1815 1698 1814 1931 1701 1578 1700 1818
8 1702 1579 1699 1816 1819 1701 1815 1932
8 1818 1700 1817 1933 1704 1580 1703 1820
8 1819 1701 1818 1934 1705 1581 1704 1821
8 1821 1704 1820 1935 1707 1584 1706 1822
8 1824 1709 1632 1751 1937 1823 1750 1865
8 1716 1593 1709 1824 1834 1715 1823 1937
8 1825 1710 1633 1752 1938 1824 1751 1866
8 1717 1594 1710 1825 1835 1716 1824 1938
8 1945 1830 1712 1828 1851 1733 1614 1735
8 1830 1714 1831 1946 1712 1592 1713 1829
8 1947 1832 1714 1830 1849 1730 1611 1733
8 1843 1729 1607 1725 1950 1833 1715 1834
8 1721 1603 1716 1835 1836 1725 1834 1951
8 1836 1725 1842 1953 1721 1603 1724 1839
8 1723 1838 1719 1601 1840 1954 1837 1722
8 1954 1840 1743 1852 1837 1722 1623 1736
8 1724 1839 1720 1602 1841 1955 1838 1723
8 1841 1727 1844 1956 1723 1605 1726 1840
8 1956 1844 1747 1859 1840 1726 1628 1743
8 1728 1842 1724 1606 1845 1957 1841 1727
8 1725 1607 1729 1843 1842 1728 1846 1958
8 1741 1627 1746 1857 1849 1730 1848 1965
8 1734 1612 1731 1850 1851 1733 1849 1966
8 1854 1741 1849 1966 1738 1622 1731 1850
8 1967 1859 1745 1853 1852 1743 1626 1737
8 1968 1860 1744 1856 1853 1745 1625 1739
8 1854 1741 1622 1738 1969 1857 1742 1855
8 1855 1742 1624 1740 1970 1858 1744 1856
8 1857 1746 1631 1742 1971 1861 1749 1858
8 1858 1749 1630 1744 1972 1863 1748 1860
8 1859 1747 1862 1973 1745 1629 1748 1860
8 1875 1768 1864 1977 1761 1651 1750 1865
8 1755 1644 1761 1869 1866 1751 1865 1978
8 1867 1760 1874 1979 1754 1646 1763 1868
8 1774 1658 1775 1887 1867 1760 1874 1979
8 1870 1766 1648 1756 1980 1877 1763 1868
8 1872 1762 1875 1981 1758 1645 1761 1869
8 1757 1649 1766 1870 1871 1765 1880 1982
8 1983 1879 1764 1873 1871 1765 1647 1759
8 1873 1764 1876 1984 1759 1647 1762 1872
8 1877 1773 1655 1763 1986 1881 1767 1874
8 1775 1659 1776 1888 1874 1767 1881 1986
8 1876 1769 1882 1987 1762 1652 1768 1875
8 1878 1770 1883 1988 1764 1653 1769 1876
8 1880 1772 1656 1766 1989 1886 1773 1877
8 1878 1770 1653 1764 1990 1884 1771 1879
8 1765 1654 1772 1880 1879 1771 1885 1991
8 1778 1664 1779 1890 1887 1775 1888 1997
8 1998 1889 1776 1888 1891 1780 1665 1779
8 1893 1782 1891 2000 1781 1668 1779 1890
8 1894 1783 1892 2001 1782 1669 1780 1891
8 1784 1671 1785 1896 1893 1782 1894 2003
8 1897 1786 1895 2004 1785 1672 1783 1894
8 1790 1675 1789 1904 1896 1785 1897 2006
8 1901 1787 1898 2007 1789 1673 1786 1897
8 1903 1788 1900 2013 1789 1673 1787 1901
8 1792 1676 1791 1906 1903 1788 1902 2016
8 1907 1792 1903 2017 1795 1678 1789 1904
8 1906 1791 1677 1794 2019 1905 1793 1909
8 1907 1792 1678 1795 2020 1906 1794 1910
8 1797 1679 1796 1912 1909 1793 1908 2022
8 1798 1680 1797 1913 1910 1794 1909 2023
8 1800 1682 1799 1915 1912 1796 1911 2025
8 1801 1683 1800 1916 1913 1797 1912 2026
8 1803 1687 1804 1918 1915 1799 1914 2028
8 1802 1686 1803 1917 1916 1800 1915 2029
8 1805 1689 1806 1920 1917 1803 1918 2030
8 1806 1690 1807 1921 1918 1804 1919 2031
8 1808 1692 1809 1922 1920 1806 1921 2032
8 1939 1826 1924 2037 1829 1713 1811 1926
8 1926 1811 1925 2039 1813 1697 1812 1928
8 1944 1829 1926 2040 1828 1712 1813 1929
8 1928 1812 1927 2042 1815 1698 1814 1931
8 1929 1813 1928 2043 1816 1699 1815 1932
8 1931 1814 1930 2044 1818 1700 1817 1933
8 1932 1815 1931 2045 1819 1701 1818 1934
8 1934 1818 1933 2046 1821 1704 1820 1935
8 2048 1936 1823 1937 1977 1864 1750 1865
8 1950 1833 1715 1834 2048 1936 1823 1937
8 1938 1824 1751 1866 2049 1937 1865 1978
8 1835 1716 1824 1938 1951 1834 1937 2049
8 1939 1826 1713 1829 2053 1942 1831 1946
8 1940 1827 1923 2035 2053 1942 1826 1939
8 1945 1830 1946 2058 1828 1712 1829 1944
8 2059 1947 1830 1945 1966 1849 1733 1851
8 1947 1832 1730 1849 2060 1948 1848 1965
8 1947 1832 1948 2060 1830 1714 1831 1946
8 1959 1847 1729 1843 2063 1949 1833 1950
8 1952 1843 1725 1836 2064 1950 1834 1951
8 1836 1725 1843 1952 1953 1842 1958 2066
8 1953 1842 1957 2067 1839 1724 1841 1955
8 1841 1955 1838 1723 1956 2068 1954 1840
8 2068 1956 1859 1967 1954 1840 1743 1852
8 1956 1844 1960 2069 1859 1747 1862 1973
8 1845 1957 1841 1727 1960 2069 1956 1844
8 1728 1842 1957 1845 1846 1958 2071 1961
8 1962 2072 1959 1847 1846 1958 1843 1729
8 1971 1861 1964 2077 1857 1746 1848 1965
8 1854 1741 1857 1969 1966 1849 1965 2078
8 1967 1859 1973 2079 1853 1745 1860 1968
8 1970 1858 1744 1856 2080 1972 1860 1968
8 1969 1857 1742 1855 2081 1971 1858 1970
8 1971 1861 1749 1858 2082 1974 1863 1972
8 1973 1862 1975 2083 1860 1748 1863 1972
8 1987 1882 1976 2086 1875 1768 1864 1977
8 1981 1875 1977 2087 1869 1761 1865 1978
8 1980 1877 1763 1868 2088 1986 1874 1979
8 1887 1775 1888 1997 1979 1874 1986 2088
8 1880 1982 2089 1989 1766 1870 1980 1877
8 1984 1876 1987 2090 1872 1762 1875 1981
8 1765 1871 1983 1879 1880 1982 2091 1991
8 1985 1878 1764 1873 2092 1990 1879 1983
8 1985 1878 1988 2093 1873 1764 1876 1984
8 2094 1992 1881 1986 1998 1889 1776 1888
8 1986 1881 1992 2094 1877 1773 1886 1989
8 1988 1883 1993 2095 1876 1769 1882 1987
8 1878 1770 1884 1990 1988 1883 1994 2096
8 1991 1885 1772 1880 2097 1996 1886 1989
8 1879 1771 1885 1991 1990 1884 1995 2098
8 2103 1998 1888 1997 2000 1891 1779 1890
8 2104 1999 1889 1998 2001 1892 1780 1891
8 2003 1894 2001 2106 1893 1782 1891 2000
8 2004 1895 2002 2107 1894 1783 1892 2001
8 2006 1897 2004 2109 1896 1785 1894 2003
8 2007 1898 2005 2110 1897 1786 1895 2004
8 2014 1901 2007 2112 1904 1789 1897 2006
8 2011 1899 2008 2113 1901 1787 1898 2007
8 2119 2010 1899 2011 2013 1900 1787 1901
8 2016 1902 2012 2122 1903 1788 1900 2013
8 2017 1903 2013 2123 1904 1789 1901 2014
8 1906 1791 1905 2019 2016 1902 2015 2125
8 1907 1792 1906 2020 2017 1903 2016 2126
8 1909 1793 1908 2022 2019 1905 2018 2128
8 2020 1906 1794 1910 2129 2019 1909 2023
8 1912 1796 1911 2025 2022 1908 2021 2131
8 1913 1797 1912 2026 2023 1909 2022 2132
8 1915 1799 1914 2028 2025 1911 2024 2134
8 1916 1800 1915 2029 2026 1912 2025 2135
8 1918 1804 1919 2031 2028 1914 2027 2136
8 1917 1803 1918 2030 2029 1915 2028 2137
8 1920 1806 1921 2032 2030 1918 2031 2138
8 1940 1827 1941 2054 2035 1923 2033 2140
8 2035 1923 2034 2143 1939 1826 1924 2037
8 2037 1924 2036 2146 1926 1811 1925 2039
8 2051 1939 2037 2147 1944 1829 1926 2040
8 2039 1925 2038 2149 1928 1812 1927 2042
8 2040 1926 2039 2150 1929 1813 1928 2043
8 2042 1927 2041 2151 1931 1814 1930 2044
8 2043 1928 2042 2152 1932 1815 1931 2045
8 2045 1931 2044 2153 1934 1818 1933 2046
8 2155 2047 1936 2048 2086 1976 1864 1977
8 2063 1949 1833 1950 2155 2047 1936 2048
8 2156 2048 1937 2049 2087 1977 1865 1978
8 2064 1950 1834 1951 2156 2048 1937 2049
8 2051 1939 1829 1944 2160 2053 1946 2058
8 2052 1940 2035 2144 2160 2053 1939 2051
8 2053 1942 1831 1946 2163 2057 1948 2060
8 2055 1943 1827 1940 2163 2057 1942 2053
8 2055 1943 2056 2164 1940 1827 1941 2054
8 2059 1947 1849 1966 2167 2060 1965 2078
8 2059 1947 2060 2167 1945 1830 1946 2058
8 2077 1964 2061 2168 1965 1848 1948 2060
8 2070 1963 1847 1959 2170 2062 1949 2063
8 2065 1959 1843 1952 2171 2063 1950 2064
8 2173 2072 1958 2066 2065 1959 1843 1952
8 1953 1842 1958 2066 2067 1957 2071 2174
8 2068 1956 2069 2175 1967 1859 1973 2079
8 2067 1957 2069 2175 1955 1841 1956 2068
8 1845 1957 2069 1960 1961 2071 2176 2073
8 2069 1960 2073 2176 1973 1862 1975 2083
8 2070 1963 2075 2177 1959 1847 1962 2072
8 1846 1958 2071 1961 1962 2072 2178 2074
8 2077 1964 1861 1971 2182 2076 1974 2082
8 2081 1971 2077 2183 1969 1857 1965 2078
8 2079 1973 2083 2184 1968 1860 1972 2080
8 2081 1971 1858 1970 2185 2082 1972 2080
8 2083 1975 2084 2186 1972 1863 1974 2082
8 2086 1976 1882 1987 2189 2085 1993 2095
8 2090 1987 2086 2190 1981 1875 1977 2087
8 2191 2094 1986 2088 2103 1998 1888 1997
8 2088 1986 2094 2191 1980 1877 1989 2089
8 1991 2091 2192 2097 1880 1982 2089 1989
8 2093 1988 2095 2193 1984 1876 1987 2090
8 1879 1983 2092 1990 1991 2091 2194 2098
8 1985 1878 1990 2092 2093 1988 2096 2195
8 2097 1996 1886 1989 2196 2099 1992 2094
8 2196 2099 1992 2094 2104 1999 1889 1998
8 1994 2096 1988 1883 2100 2197 2095 1993
8 2096 1994 1884 1990 2198 2101 1995 2098
8 1995 2098 2199 2102 1885 1991 2097 1996
8 2203 2104 1998 2103 2106 2001 1891 2000
8 2107 2002 2105 2204 2001 1892 1999 2104
8 2109 2004 2107 2206 2003 1894 2001 2106
8 2110 2005 2108 2207 2004 1895 2002 2107
8 2112 2007 2110 2209 2006 1897 2004 2109
8 2113 2008 2111 2210 2007 1898 2005 2110
8 2120 2011 2113 2212 2014 1901 2007 2112
8 2117 2009 2114 2213 2011 1899 2008 2113
8 2219 2116 2009 2117 2119 2010 1899 2011
8 2222 2118 2010 2119 2122 2012 1900 2013
8 2223 2119 2011 2120 2123 2013 1901 2014
8 2016 1902 2015 2125 2122 2012 2121 2225
8 2126 2016 2122 2226 2017 1903 2013 2123
8 2019 1905 2018 2128 2125 2015 2124 2228
8 2020 1906 2019 2129 2126 2016 2125 2229
8 2022 1908 2021 2131 2128 2018 2127 2231
8 2023 1909 2022 2132 2129 2019 2128 2232
8 2025 1911 2024 2134 2131 2021 2130 2234
8 2026 1912 2025 2135 2132 2022 2131 2235
8 1914 2028 2134 2024 2027 2136 2236 2133
8 2029 1915 2028 2137 2135 2025 2134 2237
8 2030 1918 2031 2138 2137 2028 2136 2238
8 2157 2050 2139 2240 2054 1941 2033 2140
8 2052 1940 2054 2161 2144 2035 2140 2242
8 2140 2033 2141 2243 2035 1923 2034 2143
8 2143 2034 2142 2246 2037 1924 2036 2146
8 2144 2035 2143 2247 2051 1939 2037 2147
8 2146 2036 2145 2249 2039 1925 2038 2149
8 2147 2037 2146 2250 2040 1926 2039 2150
8 2149 2038 2148 2251 2042 1927 2041 2151
8 2150 2039 2149 2252 2043 1928 2042 2152
8 2152 2042 2151 2253 2045 1931 2044 2153
8 2255 2154 2047 2155 2189 2085 1976 2086
8 2170 2062 1949 2063 2255 2154 2047 2155
8 2256 2155 2048 2156 2190 2086 1977 2087
8 2171 2063 1950 2064 2256 2155 2048 2156
8 2258 2159 2050 2157 2164 2056 1941 2054
8 2160 2053 1946 2058 2262 2163 2060 2167
8 2162 2055 1940 2052 2262 2163 2053 2160
8 2162 2055 2164 2263 2052 1940 2054 2161
8 2163 2057 1948 2060 2264 2165 2061 2168
8 2055 1943 2057 2163 2164 2056 2165 2264
8 2182 2076 2166 2268 2077 1964 2061 2168
8 2183 2077 2168 2269 2078 1965 2060 2167
8 2070 1963 2062 2170 2177 2075 2169 2271
8 2172 2070 1959 2065 2272 2170 2063 2171
8 2172 2070 2177 2273 2065 1959 2072 2173
8 2066 1958 2072 2173 2174 2071 2178 2274
8 2067 1957 2071 2174 2175 2069 2176 2275
8 2175 2069 2176 2275 2079 1973 2083 2184
8 2071 1961 2074 2178 2176 2073 2179 2276
8 2176 2073 2179 2276 2083 1975 2084 2186
8 2072 1962 2075 2177 2178 2074 2180 2277
8 2182 2076 1974 2082 2280 2181 2084 2186
8 2183 2077 1971 2081 2281 2182 2082 2185
8 2184 2083 2186 2282 2080 1972 2082 2185
8 2189 2085 1993 2095 2285 2188 2100 2197
8 2190 2086 1987 2090 2286 2189 2095 2193
8 2192 2097 1989 2089 2287 2196 2094 2191
8 2287 2196 2094 2191 2203 2104 1998 2103
8 2194 2098 1991 2091 2288 2199 2097 2192
8 2195 2096 2197 2289 2093 1988 2095 2193
8 2096 2195 2290 2198 1990 2092 2194 2098
8 2097 1996 2099 2196 2199 2102 2200 2291
8 2196 2099 1999 2104 2291 2200 2105 2204
8 2100 2197 2292 2201 1994 2096 2198 2101
8 1995 2098 2198 2101 2102 2199 2293 2202
8 2206 2107 2204 2296 2106 2001 2104 2203
8 2207 2108 2205 2297 2107 2002 2105 2204
8 2209 2110 2207 2299 2109 2004 2107 2206
8 2210 2111 2208 2300 2110 2005 2108 2207
8 2212 2113 2210 2302 2112 2007 2110 2209
8 2213 2114 2211 2303 2113 2008 2111 2210
8 2220 2117 2213 2305 2120 2011 2113 2212
8 2216 2115 2214 2306 2117 2009 2114 2213
8 2216 2115 2009 2117 2311 2217 2116 2219
8 2219 2116 2010 2119 2314 2218 2118 2222
8 2315 2219 2117 2220 2223 2119 2011 2120
8 2122 2012 2121 2225 2222 2118 2221 2317
8 2318 2222 2119 2223 2226 2122 2013 2123
8 2125 2015 2124 2228 2225 2121 2224 2320
8 2126 2016 2125 2229 2226 2122 2225 2321
8 2128 2018 2127 2231 2228 2124 2227 2323
8 2129 2019 2128 2232 2229 2125 2228 2324
8 2131 2021 2130 2234 2231 2127 2230 2326
8 2132 2022 2131 2235 2232 2128 2231 2327
8 2134 2024 2133 2236 2234 2130 2233 2328
8 2135 2025 2134 2237 2235 2131 2234 2329
8 2137 2028 2136 2238 2237 2134 2236 2330
8 2157 2050 2158 2259 2240 2139 2239 2332
8 2257 2157 2240 2334 2161 2054 2140 2242
8 2240 2139 2241 2335 2140 2033 2141 2243
8 2242 2140 2243 2337 2144 2035 2143 2247
8 2243 2141 2244 2338 2143 2034 2142 2246
8 2246 2142 2245 2341 2146 2036 2145 2249
8 2247 2143 2246 2342 2147 2037 2146 2250
8 2249 2145 2248 2343 2149 2038 2148 2251
8 2250 2146 2249 2344 2150 2039 2149 2252
8 2252 2149 2251 2345 2152 2042 2151 2253
8 2169 2271 2347 2254 2062 2170 2255 2154
8 2189 2085 2188 2285 2255 2154 2254 2347
8 2348 2255 2155 2256 2286 2189 2086 2190
8 2272 2170 2063 2171 2348 2255 2155 2256
8 2349 2258 2157 2257 2263 2164 2054 2161
8 2258 2159 2261 2351 2157 2050 2158 2259
8 2258 2159 2056 2164 2351 2261 2165 2264
8 2262 2163 2060 2167 2355 2264 2168 2269
8 2162 2055 2163 2262 2263 2164 2264 2355
8 2357 2266 2165 2264 2268 2166 2061 2168
8 2268 2166 2076 2182 2361 2267 2181 2280
8 2281 2182 2268 2362 2183 2077 2168 2269
8 2271 2169 2270 2364 2177 2075 2180 2277
8 2172 2070 2170 2272 2273 2177 2271 2365
8 2072 2173 2274 2178 2177 2273 2366 2277
8 2071 2174 2275 2176 2178 2274 2367 2276
8 2275 2176 2276 2367 2184 2083 2186 2282
8 2283 2187 2084 2186 2368 2278 2179 2276
8 2178 2074 2180 2277 2276 2179 2278 2368
8 2283 2187 2279 2370 2186 2084 2181 2280
8 2281 2182 2082 2185 2371 2280 2186 2282
8 2188 2285 2374 2284 2100 2197 2292 2201
8 2286 2189 2095 2193 2375 2285 2197 2289
8 2192 2097 2196 2287 2288 2199 2291 2376
8 2287 2196 2104 2203 2376 2291 2204 2296
8 2194 2098 2199 2288 2290 2198 2293 2377
8 2289 2197 2096 2195 2378 2292 2198 2290
8 2291 2200 2105 2204 2379 2294 2205 2297
8 2199 2102 2200 2291 2293 2202 2294 2379
8 2198 2101 2202 2293 2292 2201 2295 2380
8 2299 2207 2297 2383 2206 2107 2204 2296
8 2300 2208 2298 2384 2207 2108 2205 2297
8 2302 2210 2300 2386 2209 2110 2207 2299
8 2303 2211 2301 2387 2210 2111 2208 2300
8 2305 2213 2303 2389 2212 2113 2210 2302
8 2306 2214 2304 2390 2213 2114 2211 2303
8 2310 2216 2306 2392 2220 2117 2213 2305
8 2308 2215 2307 2393 2216 2115 2214 2306
8 2308 2215 2115 2216 2396 2309 2217 2311
8 2310 2216 2117 2220 2398 2311 2219 2315
8 2311 2217 2116 2219 2399 2312 2218 2314
8 2314 2218 2118 2222 2402 2313 2221 2317
8 2315 2219 2119 2223 2403 2314 2222 2318
8 2225 2121 2224 2320 2317 2221 2316 2405
8 2226 2122 2225 2321 2318 2222 2317 2406
8 2228 2124 2227 2323 2320 2224 2319 2408
8 2229 2125 2228 2324 2321 2225 2320 2409
8 2231 2127 2230 2326 2323 2227 2322 2411
8 2232 2128 2231 2327 2324 2228 2323 2412
8 2234 2130 2233 2328 2326 2230 2325 2413
8 2235 2131 2234 2329 2327 2231 2326 2414
8 2237 2134 2236 2330 2329 2234 2328 2415
8 2259 2158 2260 2352 2332 2239 2331 2417
8 2257 2157 2259 2350 2334 2240 2332 2419
8 2240 2139 2239 2332 2335 2241 2333 2420
8 2334 2240 2335 2422 2242 2140 2243 2337
8 2335 2241 2336 2423 2243 2141 2244 2338
8 2337 2243 2338 2425 2247 2143 2246 2342
8 2338 2244 2339 2426 2246 2142 2245 2341
8 2341 2245 2340 2428 2249 2145 2248 2343
8 2342 2246 2341 2429 2250 2146 2249 2344
8 2344 2249 2343 2430 2252 2149 2251 2345
8 2188 2285 2347 2254 2284 2374 2432 2346
8 2347 2254 2346 2432 2271 2169 2270 2364
8 2365 2271 2170 2272 2433 2347 2255 2348
8 2286 2189 2285 2375 2348 2255 2347 2433
8 2349 2258 2351 2435 2257 2157 2259 2350
8 2349 2258 2164 2263 2435 2351 2264 2355
8 2259 2158 2261 2351 2352 2260 2354 2437
8 2356 2265 2354 2437 2264 2165 2261 2351
8 2441 2357 2264 2355 2362 2268 2168 2269
8 2356 2265 2165 2264 2442 2358 2266 2357
8 2443 2359 2266 2357 2361 2267 2166 2268
8 2370 2279 2360 2446 2280 2181 2267 2361
8 2362 2268 2182 2281 2447 2361 2280 2371
8 2180 2277 2368 2278 2270 2364 2449 2363
8 2271 2365 2273 2177 2364 2450 2366 2277
8 2372 2283 2186 2282 2451 2368 2276 2367
8 2178 2274 2367 2276 2277 2366 2451 2368
8 2283 2187 2278 2368 2370 2279 2369 2452
8 2372 2283 2370 2453 2282 2186 2280 2371
8 2284 2374 2455 2373 2201 2292 2380 2295
8 2375 2285 2197 2289 2456 2374 2292 2378
8 2376 2291 2204 2296 2457 2379 2297 2383
8 2288 2199 2291 2376 2377 2293 2379 2457
8 2198 2290 2378 2292 2293 2377 2458 2380
8 2293 2202 2294 2379 2380 2295 2381 2459
8 2384 2298 2381 2459 2297 2205 2294 2379
8 2386 2300 2384 2463 2299 2207 2297 2383
8 2387 2301 2385 2464 2300 2208 2298 2384
8 2389 2303 2387 2466 2302 2210 2300 2386
8 2390 2304 2388 2467 2303 2211 2301 2387
8 2392 2306 2390 2469 2305 2213 2303 2389
8 2393 2307 2391 2470 2306 2214 2304 2390
8 2395 2308 2393 2472 2310 2216 2306 2392
8 2308 2215 2309 2396 2393 2307 2394 2473
8 2395 2308 2216 2310 2475 2396 2311 2398
8 2396 2309 2217 2311 2476 2397 2312 2399
8 2398 2311 2219 2315 2478 2399 2314 2403
8 2399 2312 2218 2314 2479 2400 2313 2402
8 2317 2221 2316 2405 2402 2313 2401 2482
8 2403 2314 2222 2318 2483 2402 2317 2406
8 2320 2224 2319 2408 2405 2316 2404 2485
8 2321 2225 2320 2409 2406 2317 2405 2486
8 2323 2227 2322 2411 2408 2319 2407 2488
8 2324 2228 2323 2412 2409 2320 2408 2489
8 2326 2230 2325 2413 2411 2322 2410 2490
8 2327 2231 2326 2414 2412 2323 2411 2491
8 2329 2234 2328 2415 2414 2326 2413 2492
8 2417 2331 2260 2352 2494 2416 2353 2438
8 2350 2259 2352 2436 2419 2332 2417 2496
8 2332 2239 2331 2417 2420 2333 2418 2497
8 2334 2240 2332 2419 2422 2335 2420 2499
8 2420 2333 2421 2500 2335 2241 2336 2423
8 2422 2335 2423 2502 2337 2243 2338 2425
8 2423 2336 2424 2503 2338 2244 2339 2426
8 2425 2338 2426 2505 2342 2246 2341 2429
8 2426 2339 2427 2506 2341 2245 2340 2428
8 2429 2341 2428 2507 2344 2249 2343 2430
8 2432 2346 2284 2374 2509 2431 2373 2455
8 2432 2346 2431 2509 2364 2270 2363 2449
8 2375 2285 2374 2456 2433 2347 2432 2510
8 2347 2433 2365 2271 2432 2510 2450 2364
8 2350 2259 2351 2435 2436 2352 2437 2514
8 2440 2356 2437 2514 2355 2264 2351 2435
8 2352 2260 2354 2437 2438 2353 2439 2516
8 2356 2265 2358 2442 2437 2354 2439 2516
8 2440 2356 2264 2355 2518 2442 2357 2441
8 2519 2443 2357 2441 2447 2361 2268 2362
8 2443 2359 2444 2520 2357 2266 2358 2442
8 2443 2359 2267 2361 2520 2444 2360 2446
8 2446 2360 2279 2370 2523 2445 2369 2452
8 2453 2370 2446 2524 2371 2280 2361 2447
8 2449 2363 2448 2525 2368 2278 2369 2452
8 2366 2277 2364 2450 2451 2368 2449 2526
8 2372 2283 2368 2451 2453 2370 2452 2527
8 2455 2373 2295 2380 2529 2454 2382 2460
8 2456 2374 2292 2378 2530 2455 2380 2458
8 2377 2293 2379 2457 2458 2380 2459 2531
8 2463 2384 2459 2531 2383 2297 2379 2457
8 2533 2461 2382 2460 2459 2381 2295 2380
8 2464 2385 2461 2533 2384 2298 2381 2459
8 2466 2387 2464 2537 2386 2300 2384 2463
8 2467 2388 2465 2538 2387 2301 2385 2464
8 2469 2390 2467 2540 2389 2303 2387 2466
8 2470 2391 2468 2541 2390 2304 2388 2467
8 2472 2393 2470 2543 2392 2306 2390 2469
8 2393 2307 2394 2473 2470 2391 2471 2544
8 2395 2308 2396 2475 2472 2393 2473 2546
8 2396 2309 2397 2476 2473 2394 2474 2547
8 2475 2396 2311 2398 2549 2476 2399 2478
8 2476 2397 2312 2399 2550 2477 2400 2479
8 2478 2399 2314 2403 2552 2479 2402 2483
8 2479 2400 2313 2402 2553 2480 2401 2482
8 2405 2316 2404 2485 2482 2401 2481 2556
8 2406 2317 2405 2486 2483 2402 2482 2557
8 2408 2319 2407 2488 2485 2404 2484 2559
8 2409 2320 2408 2489 2486 2405 2485 2560
8 2411 2322 2410 2490 2488 2407 2487 2561
8 2412 2323 2411 2491 2489 2408 2488 2562
8 2414 2326 2413 2492 2491 2411 2490 2563
8 2513 2434 2493 2565 2438 2353 2416 2494
8 2496 2417 2352 2436 2567 2494 2438 2515
8 2494 2416 2495 2568 2417 2331 2418 2497
8 2419 2332 2417 2496 2499 2420 2497 2570
8 2497 2418 2498 2571 2420 2333 2421 2500
8 2499 2420 2500 2573 2422 2335 2423 2502
8 2500 2421 2501 2574 2423 2336 2424 2503
8 2502 2423 2503 2576 2425 2338 2426 2505
8 2503 2424 2504 2577 2426 2339 2427 2506
8 2505 2426 2506 2578 2429 2341 2428 2507
8 2509 2431 2373 2455 2580 2508 2454 2529
8 2509 2431 2508 2580 2449 2363 2448 2525
8 2432 2510 2581 2509 2374 2456 2530 2455
8 2432 2510 2450 2364 2509 2581 2526 2449
8 2583 2511 2434 2513 2516 2439 2353 2438
8 2436 2352 2437 2514 2515 2438 2516 2588
8 2440 2356 2442 2518 2514 2437 2516 2588
8 2442 2358 2444 2520 2516 2439 2517 2589
8 2519 2443 2520 2591 2441 2357 2442 2518
8 2519 2443 2361 2447 2591 2520 2446 2524
8 2446 2360 2445 2523 2520 2444 2521 2592
8 2525 2448 2522 2593 2452 2369 2445 2523
8 2524 2446 2370 2453 2594 2523 2452 2527
8 2526 2449 2525 2595 2451 2368 2452 2527
8 2534 2462 2528 2597 2460 2382 2454 2529
8 2530 2455 2380 2458 2598 2529 2460 2532
8 2599 2533 2460 2532 2531 2459 2380 2458
8 2537 2464 2533 2599 2463 2384 2459 2531
8 2534 2462 2382 2460 2601 2535 2461 2533
8 2538 2465 2535 2601 2464 2385 2461 2533
8 2540 2467 2538 2604 2466 2387 2464 2537
8 2541 2468 2539 2605 2467 2388 2465 2538
8 2543 2470 2541 2607 2469 2390 2467 2540
8 2470 2391 2471 2544 2541 2468 2542 2608
8 2472 2393 2473 2546 2543 2470 2544 2610
8 2473 2394 2474 2547 2544 2471 2545 2611
8 2475 2396 2476 2549 2546 2473 2547 2613
8 2476 2397 2477 2550 2547 2474 2548 2614
8 2549 2476 2399 2478 2616 2550 2479 2552
8 2479 2400 2480 2553 2550 2477 2551 2617
8 2552 2479 2402 2483 2619 2553 2482 2557
8 2482 2401 2481 2556 2553 2480 2554 2620
8 2485 2404 2484 2559 2556 2481 2555 2623
8 2486 2405 2485 2560 2557 2482 2556 2624
8 2488 2407 2487 2561 2559 2484 2558 2625
8 2489 2408 2488 2562 2560 2485 2559 2626
8 2491 2411 2490 2563 2562 2488 2561 2627
8 2513 2434 2512 2585 2565 2493 2564 2630
8 2586 2513 2565 2632 2515 2438 2494 2567
8 2565 2493 2566 2633 2494 2416 2495 2568
8 2567 2494 2568 2635 2496 2417 2497 2570
8 2568 2495 2569 2636 2497 2418 2498 2571
8 2570 2497 2571 2638 2499 2420 2500 2573
8 2571 2498 2572 2639 2500 2421 2501 2574
8 2573 2500 2574 2641 2502 2423 2503 2576
8 2574 2501 2575 2642 2503 2424 2504 2577
8 2576 2503 2577 2643 2505 2426 2506 2578
8 2597 2528 2579 2645 2529 2454 2508 2580
8 2580 2508 2579 2645 2525 2448 2522 2593
8 2581 2509 2455 2530 2646 2580 2529 2598
8 2581 2509 2580 2646 2526 2449 2525 2595
8 2583 2511 2582 2648 2513 2434 2512 2585
8 2583 2511 2439 2516 2648 2582 2517 2589
8 2649 2583 2513 2586 2588 2516 2438 2515
8 2589 2517 2444 2520 2653 2587 2521 2592
8 2518 2442 2520 2591 2588 2516 2589 2654
8 2593 2522 2590 2655 2523 2445 2521 2592
8 2524 2446 2523 2594 2591 2520 2592 2656
8 2595 2525 2593 2657 2527 2452 2523 2594
8 2602 2536 2596 2659 2534 2462 2528 2597
8 2600 2534 2597 2660 2532 2460 2529 2598
8 2600 2534 2460 2532 2661 2601 2533 2599
8 2604 2538 2601 2661 2537 2464 2533 2599
8 2602 2536 2462 2534 2663 2603 2535 2601
8 2601 2535 2465 2538 2663 2603 2539 2605
8 2607 2541 2605 2665 2540 2467 2538 2604
8 2608 2542 2606 2666 2541 2468 2539 2605
8 2543 2470 2544 2610 2607 2541 2608 2668
8 2544 2471 2545 2611 2608 2542 2609 2669
8 2546 2473 2547 2613 2610 2544 2611 2671
8 2547 2474 2548 2614 2611 2545 2612 2672
8 2549 2476 2550 2616 2613 2547 2614 2674
8 2550 2477 2551 2617 2614 2548 2615 2675
8 2552 2479 2553 2619 2616 2550 2617 2677
8 2553 2480 2554 2620 2617 2551 2618 2678
8 2557 2482 2556 2624 2619 2553 2620 2680
8 2556 2481 2555 2623 2620 2554 2621 2681
8 2559 2484 2558 2625 2623 2555 2622 2683
8 2560 2485 2559 2626 2624 2556 2623 2684
8 2562 2488 2561 2627 2626 2559 2625 2685
8 2690 2629 2564 2630 2650 2584 2512 2585
8 2586 2513 2585 2651 2632 2565 2630 2691
8 2630 2564 2631 2692 2565 2493 2566 2633
8 2632 2565 2633 2694 2567 2494 2568 2635
8 2633 2566 2634 2695 2568 2495 2569 2636
8 2635 2568 2636 2697 2570 2497 2571 2638
8 2636 2569 2637 2698 2571 2498 2572 2639
8 2638 2571 2639 2700 2573 2500 2574 2641
8 2639 2572 2640 2701 2574 2501 2575 2642
8 2641 2574 2642 2702 2576 2503 2577 2643
8 2597 2528 2596 2659 2645 2579 2644 2704
8 2645 2579 2644 2704 2593 2522 2590 2655
8 2660 2597 2645 2705 2598 2529 2580 2646
8 2646 2580 2645 2705 2595 2525 2593 2657
8 2650 2584 2512 2585 2707 2647 2582 2648
8 2648 2582 2517 2589 2707 2647 2587 2653
8 2649 2583 2648 2708 2586 2513 2585 2651
8 2649 2583 2516 2588 2708 2648 2589 2654
8 2655 2590 2652 2710 2592 2521 2587 2653
8 2654 2589 2520 2591 2711 2653 2592 2656
8 2657 2593 2655 2712 2594 2523 2592 2656
8 2602 2536 2603 2663 2659 2596 2658 2714
8 2662 2602 2659 2715 2600 2534 2597 2660
8 2662 2602 2534 2600 2717 2663 2601 2661
8 2661 2601 2538 2604 2717 2663 2605 2665
8 2666 2606 2664 2718 2605 2539 2603 2663
8 2668 2608 2666 2720 2607 2541 2605 2665
8 2608 2542 2609 2669 2666 2606 2667 2721
8 2610 2544 2611 2671 2668 2608 2669 2723
8 2611 2545 2612 2672 2669 2609 2670 2724
8 2613 2547 2614 2674 2671 2611 2672 2726
8 2614 2548 2615 2675 2672 2612 2673 2727
8 2616 2550 2617 2677 2674 2614 2675 2729
8 2617 2551 2618 2678 2675 2615 2676 2730
8 2619 2553 2620 2680 2677 2617 2678 2732
8 2620 2554 2621 2681 2678 2618 2679 2733
8 2624 2556 2623 2684 2680 2620 2681 2735
8 2681 2621 2555 2623 2736 2682 2622 2683
8 2626 2559 2625 2685 2684 2623 2683 2737
8 2688 2628 2584 2650 2740 2686 2647 2707
8 2688 2628 2687 2742 2650 2584 2629 2690
8 2690 2629 2689 2745 2630 2564 2631 2692
8 2746 2690 2630 2691 2709 2650 2585 2651
8 2691 2630 2692 2747 2632 2565 2633 2694
8 2692 2631 2693 2748 2633 2566 2634 2695
8 2694 2633 2695 2750 2635 2568 2636 2697
8 2695 2634 2696 2751 2636 2569 2637 2698
8 2697 2636 2698 2753 2638 2571 2639 2700
8 2698 2637 2699 2754 2639 2572 2640 2701
8 2700 2639 2701 2755 2641 2574 2642 2702
8 2659 2596 2658 2714 2704 2644 2703 2757
8 2704 2644 2703 2757 2655 2590 2652 2710
8 2660 2597 2659 2715 2705 2645 2704 2758
8 2705 2645 2704 2758 2657 2593 2655 2712
8 2759 2706 2647 2707 2710 2652 2587 2653
8 2709 2650 2585 2651 2760 2707 2648 2708
8 2708 2648 2589 2654 2760 2707 2653 2711
8 2712 2655 2710 2761 2656 2592 2653 2711
8 2763 2713 2658 2714 2718 2664 2603 2663
8 2662 2602 2663 2717 2715 2659 2714 2764
8 2720 2666 2718 2767 2665 2605 2663 2717
8 2768 2719 2664 2718 2721 2667 2606 2666
8 2668 2608 2669 2723 2720 2666 2721 2770
8 2669 2609 2670 2724 2721 2667 2722 2771
8 2671 2611 2672 2726 2723 2669 2724 2773
8 2672 2612 2673 2727 2724 2670 2725 2774
8 2674 2614 2675 2729 2726 2672 2727 2776
8 2675 2615 2676 2730 2727 2673 2728 2777
8 2677 2617 2678 2732 2729 2675 2730 2779
8 2678 2618 2679 2733 2730 2676 2731 2780
8 2680 2620 2681 2735 2732 2678 2733 2782
8 2733 2679 2621 2681 2783 2734 2682 2736
8 2735 2681 2623 2684 2784 2736 2683 2737
8 2740 2686 2647 2707 2787 2738 2706 2759
8 2688 2628 2686 2740 2742 2687 2739 2789
8 2743 2688 2650 2709 2790 2740 2707 2760
8 2742 2687 2741 2792 2690 2629 2689 2745
8 2743 2688 2742 2793 2709 2650 2690 2746
8 2745 2689 2744 2795 2692 2631 2693 2748
8 2746 2690 2745 2796 2691 2630 2692 2747
8 2747 2692 2748 2797 2694 2633 2695 2750
8 2748 2693 2749 2798 2695 2634 2696 2751
8 2750 2695 2751 2800 2697 2636 2698 2753
8 2751 2696 2752 2801 2698 2637 2699 2754
8 2753 2698 2754 2802 2700 2639 2701 2755
8 2763 2713 2756 2804 2714 2658 2703 2757
8 2759 2706 2652 2710 2804 2756 2703 2757
8 2715 2659 2714 2764 2758 2704 2757 2805
8 2758 2704 2757 2805 2712 2655 2710 2761
8 2806 2759 2707 2760 2761 2710 2653 2711
8 2765 2716 2762 2808 2718 2664 2713 2763
8 2809 2763 2714 2764 2767 2718 2663 2717
8 2765 2716 2664 2718 2811 2766 2719 2768
8 2813 2768 2718 2767 2770 2721 2666 2720
8 2814 2769 2719 2768 2771 2722 2667 2721
8 2723 2669 2724 2773 2770 2721 2771 2816
8 2724 2670 2725 2774 2771 2722 2772 2817
8 2726 2672 2727 2776 2773 2724 2774 2819
8 2727 2673 2728 2777 2774 2725 2775 2820
8 2729 2675 2730 2779 2776 2727 2777 2822
8 2730 2676 2731 2780 2777 2728 2778 2823
8 2732 2678 2733 2782 2779 2730 2780 2825
8 2780 2731 2679 2733 2826 2781 2734 2783
8 2782 2733 2681 2735 2827 2783 2736 2784
8 2830 2785 2738 2787 2804 2756 2706 2759
8 2789 2739 2686 2740 2832 2786 2738 2787
8 2790 2740 2707 2760 2833 2787 2759 2806
8 2742 2687 2739 2789 2792 2741 2788 2835
8 2743 2688 2740 2790 2793 2742 2789 2836
8 2792 2741 2791 2838 2745 2689 2744 2795
8 2793 2742 2792 2839 2746 2690 2745 2796
8 2795 2744 2794 2841 2748 2693 2749 2798
8 2796 2745 2795 2842 2747 2692 2748 2797
8 2797 2748 2798 2843 2750 2695 2751 2800
8 2798 2749 2799 2844 2751 2696 2752 2801
8 2800 2751 2801 2845 2753 2698 2754 2802
8 2808 2762 2803 2847 2763 2713 2756 2804
8 2809 2763 2804 2848 2764 2714 2757 2805
8 2806 2759 2710 2761 2848 2804 2757 2805
8 2765 2716 2766 2811 2808 2762 2807 2850
8 2810 2765 2808 2851 2767 2718 2763 2809
8 2810 2765 2718 2767 2852 2811 2768 2813
8 2811 2766 2719 2768 2853 2812 2769 2814
8 2855 2814 2768 2813 2816 2771 2721 2770
8 2856 2815 2769 2814 2817 2772 2722 2771
8 2773 2724 2774 2819 2816 2771 2817 2858
8 2774 2725 2775 2820 2817 2772 2818 2859
8 2776 2727 2777 2822 2819 2774 2820 2861
8 2777 2728 2778 2823 2820 2775 2821 2862
8 2779 2730 2780 2825 2822 2777 2823 2864
8 2823 2778 2731 2780 2865 2824 2781 2826
8 2825 2780 2733 2782 2866 2826 2783 2827
8 2869 2828 2785 2830 2847 2803 2756 2804
8 2871 2829 2786 2832 2830 2785 2738 2787
8 2872 2830 2787 2833 2848 2804 2759 2806
8 2789 2739 2786 2832 2835 2788 2831 2874
8 2836 2789 2740 2790 2875 2832 2787 2833
8 2792 2741 2788 2835 2838 2791 2834 2877
8 2793 2742 2789 2836 2839 2792 2835 2878
8 2838 2791 2837 2880 2795 2744 2794 2841
8 2839 2792 2838 2881 2796 2745 2795 2842
8 2841 2794 2840 2882 2798 2749 2799 2844
8 2842 2795 2841 2883 2797 2748 2798 2843
8 2843 2798 2844 2884 2800 2751 2801 2845
8 2886 2846 2803 2847 2850 2807 2762 2808
8 2851 2808 2847 2887 2809 2763 2804 2848
8 2850 2807 2766 2811 2889 2849 2812 2853
8 2810 2765 2811 2852 2851 2808 2850 2890
8 2852 2811 2768 2813 2891 2853 2814 2855
8 2853 2812 2769 2814 2892 2854 2815 2856
8 2894 2856 2814 2855 2858 2817 2771 2816
8 2817 2772 2818 2859 2856 2815 2857 2895
8 2819 2774 2820 2861 2858 2817 2859 2897
8 2820 2775 2821 2862 2859 2818 2860 2898
8 2822 2777 2823 2864 2861 2820 2862 2900
8 2823 2778 2824 2865 2862 2821 2863 2901
8 2864 2823 2780 2825 2902 2865 2826 2866
8 2904 2867 2828 2869 2886 2846 2803 2847
8 2869 2828 2868 2906 2830 2785 2829 2871
8 2907 2869 2830 2872 2887 2847 2804 2848
8 2871 2829 2870 2909 2832 2786 2831 2874
8 2910 2871 2832 2875 2872 2830 2787 2833
8 2835 2788 2831 2874 2877 2834 2873 2912
8 2836 2789 2832 2875 2878 2835 2874 2913
8 2877 2834 2876 2915 2838 2791 2837 2880
8 2839 2792 2835 2878 2881 2838 2877 2916
8 2880 2837 2879 2917 2841 2794 2840 2882
8 2881 2838 2880 2918 2842 2795 2841 2883
8 2883 2841 2882 2919 2843 2798 2844 2884
8 2921 2885 2846 2886 2889 2849 2807 2850
8 2922 2886 2847 2887 2890 2850 2808 2851
8 2889 2849 2812 2853 2924 2888 2854 2892
8 2890 2850 2811 2852 2925 2889 2853 2891
8 2891 2853 2814 2855 2926 2892 2856 2894
8 2892 2854 2815 2856 2927 2893 2857 2895
8 2858 2817 2859 2897 2894 2856 2895 2929
8 2859 2818 2860 2898 2895 2857 2896 2930
8 2861 2820 2862 2900 2897 2859 2898 2932
8 2862 2821 2863 2901 2898 2860 2899 2933
8 2864 2823 2865 2902 2900 2862 2901 2934
8 2904 2867 2846 2886 2936 2903 2885 2921
8 2904 2867 2903 2936 2869 2828 2868 2906
8 2937 2904 2869 2907 2922 2886 2847 2887
8 2906 2868 2905 2939 2871 2829 2870 2909
8 2907 2869 2906 2940 2872 2830 2871 2910
8 2909 2870 2908 2942 2874 2831 2873 2912
8 2910 2871 2909 2943 2875 2832 2874 2913
8 2912 2873 2911 2945 2877 2834 2876 2915
8 2878 2835 2874 2913 2916 2877 2912 2946
8 2915 2876 2914 2947 2880 2837 2879 2917
8 2916 2877 2915 2948 2881 2838 2880 2918
8 2918 2880 2917 2949 2883 2841 2882 2919
8 2921 2885 2849 2889 2951 2920 2888 2924
8 2952 2921 2886 2922 2925 2889 2850 2890
8 2924 2888 2854 2892 2954 2923 2893 2927
8 2925 2889 2853 2891 2955 2924 2892 2926
8 2926 2892 2856 2894 2956 2927 2895 2929
8 2895 2857 2896 2930 2927 2893 2928 2957
8 2897 2859 2898 2932 2929 2895 2930 2959
8 2898 2860 2899 2933 2930 2896 2931 2960
8 2900 2862 2901 2934 2932 2898 2933 2961
8 2936 2903 2885 2921 2963 2935 2920 2951
8 2936 2903 2935 2963 2906 2868 2905 2939
8 2937 2904 2886 2922 2964 2936 2921 2952
8 2937 2904 2936 2964 2907 2869 2906 2940
8 2939 2905 2938 2966 2909 2870 2908 2942
8 2940 2906 2939 2967 2910 2871 2909 2943
8 2942 2908 2941 2969 2912 2873 2911 2945
8 2943 2909 2942 2970 2913 2874 2912 2946
8 2945 2911 2944 2971 2915 2876 2914 2947
8 2946 2912 2945 2972 2916 2877 2915 2948
8 2948 2915 2947 2973 2918 2880 2917 2949
8 2951 2920 2888 2924 2975 2950 2923 2954
8 2952 2921 2889 2925 2976 2951 2924 2955
8 2927 2893 2928 2957 2954 2923 2953 2978
8 2955 2924 2892 2926 2979 2954 2927 2956
8 2929 2895 2930 2959 2956 2927 2957 2980
8 2930 2896 2931 2960 2957 2928 2958 2981
8 2932 2898 2933 2961 2959 2930 2960 2982
8 2951 2920 2950 2975 2963 2935 2962 2984
8 2963 2935 2962 2984 2939 2905 2938 2966
8 2964 2936 2921 2952 2985 2963 2951 2976
8 2964 2936 2963 2985 2940 2906 2939 2967
8 2966 2938 2965 2987 2942 2908 2941 2969
8 2967 2939 2966 2988 2943 2909 2942 2970
8 2969 2941 2968 2989 2945 2911 2944 2971
8 2970 2942 2969 2990 2946 2912 2945 2972
8 2972 2945 2971 2991 2948 2915 2947 2973
8 2954 2923 2953 2978 2975 2950 2974 2993
8 2976 2951 2924 2955 2994 2975 2954 2979
8 2957 2928 2958 2981 2978 2953 2977 2995
8 2956 2927 2957 2980 2979 2954 2978 2996
8 2959 2930 2960 2982 2980 2957 2981 2997
8 2984 2962 2983 2999 2966 2938 2965 2987
8 2975 2950 2974 2993 2984 2962 2983 2999
8 2976 2951 2975 2994 2985 2963 2984 3000
8 2985 2963 2984 3000 2967 2939 2966 2988
8 2987 2965 2986 3001 2969 2941 2968 2989
8 2988 2966 2987 3002 2970 2942 2969 2990
8 2990 2969 2989 3003 2972 2945 2971 2991
8 2978 2953 2977 2995 2993 2974 2992 3004
8 2979 2954 2978 2996 2994 2975 2993 3005
8 2980 2957 2981 2997 2996 2978 2995 3006
8 2974 2993 2999 2983 2992 3004 3007 2998
8 2983 2999 2987 2965 2998 3007 3001 2986
8 3000 2984 2999 3008 2988 2966 2987 3002
8 2994 2975 2993 3005 3000 2984 2999 3008
8 3002 2987 3001 3009 2990 2969 2989 3003
8 2996 2978 2995 3006 3005 2993 3004 3010
8 3005 2993 3004 3010 3008 2999 3007 3011
8 3008 2999 3007 3011 3002 2987 3001 3009

CELL_TYPES 1910
12
12
12
12
12
12
12
12
12
12
12
12
12
12
12
12
12
12
12
12
12
12
12
12
12
12
12
12
12
12
12
12
12
12
12
12
12
12
12
12
12
12
12
12
12
12
12
12
12
12
12
12
12
12
12
12
12
12
12
12
12
12
12
12
12
12
12
12
12
12
12
12
12
12
12
12
12
12
12
12
12
12
12
12
12
12
12
12
12
12
12
12
12
12
12
12
12
12
12
12
12
12
12
12
12
12
12
12
12
12
12
12
12
12
12
12
12
12
12
12
12
12
12
12
12
12
12
12
12
12
12
12
12
12
12
12
12
12
12
12
12
12
12
12
12
12
12
12
12
12
12
12
12
12
12
12
12
12
12
12
12
12
12
12
12
12
12
12
12
12
12
12
12
12
12
12
12
12
12
12
12
12
12
12
12
12
12
12
12
12
12
12
12
12
12
12
12
12
12
12
12
12
12
12
12
12
12
12
12
12
12
12
12
12
12
12
12
12
12
12
12
12
12
12
12
12
12
12
12
12
12
12
12
12
12
12
12
12
12
12
12
12
12
12
12
12
12
12
12
12
12
12
12
12
12
12
12
12
12
12
12
12
12
12
12
12
12
12
12
12
12
12
12
12
12
12
12
12
12
12
12
12
12
12
12
12
12
12
12
12
12
12
12
12
12
12
12
12
12
12
12
12
12
12
12
12
12
12
12
12
12
12
12
12
12
12
12
12
12
12
12
12
12
12
12
12
12
12
12
12
12
12
12
12
12
12
12
12
12
12
12
12
12
12
12
12
12
12
12
12
12
12
12
12
12
12
12
12
12
12
12
12
12
12
12
12
12
12
12
12
12
12
12
12
12
12
12
12
12
12
12
12
12
12
12
12
12
12
12
12
12
12
12
12
12
12
12
12
12
12
12
12
12
12
12
12
12
12
12
12
12
12
12
12
12
12
12
12
12
12
12
12
12
12
12
12
12
12
12
12
12
12
12
12
12
12
12
12
12
12
12
12
12
12
12
12
12
12
12
12
12
12
12
12
12
12
12
12
12
12
12
12
12
12
12
12
12
12
12
12
12
12
12
12
12
12
12
12
12
12
12
12
12
12
12
12
12
12
12
12
12
12
12
12
12
12
12
12
12
12
12
12
12
12
12
12
12
12
12
12
12
12
12
12
12
12
12
12
12
12
12
12
12
12
12
12
12
12
12
12
12
12
12
12
12
12
12
12
12
12
12
12
12
12
12
12
12
12
12
12
12
12
12
12
12
12
12
12
12
12
12
12
12
12
12
12
12
12
12
12
12
12
12
12
12
12
12
12
12
12
12
12
12
12
12
12
12
12
12
12
12
12
12
12
12
12
12
12
12
12
12
12
12
12
12
12
12
12
12
12
12
12
12
12
12
12
12
12
12
12
12
12
12
12
12
12
12
12
12
12
12
12
12
12
12
12
12
12
12
12
12
12
12
12
12
12
12
12
12
12
12
12
12
12
12
12
12
12
12
12
12
12
12
12
12
12
12
12
12
12
12
12
12
12
12
12
12
12
12
12
12
12
12
12
12
12
12
12
12
12
12
12
12
12
12
12
12
12
12
12
12
12
12
12
12
12
12
12
12
12
12
12
12
12
12
12
12
12
12
12
12
12
12
12
12
12
12
12
12
12
12
12
12
12
12
12
12
12
12
12
12
12
12
12
12
12
12
12
12
12
12
12
12
12
12
12
12
12
12
12
12
12
12
12
12
12
12
12
12
12
12
12
12
12
12
12
12
12
12
12
12
12
12
12
12
12
12
12
12
12
12
12
12
12
12
12
12
12
12
12
12
12
12
12
12
12
12
12
12
12
12
12
12
12
12
12
12
12
12
12
12
12
12
12
12
12
12
12
12
12
12
12
12
12
12
12
12
12
12
12
12
12
12
12
12
12
12
12
12
12
12
12
12
12
12
12
12
12
12
12
12
12
12
12
12
12
12
12
12
12
12
12
12
12
12
12
12
12
12
12
12
12
12
12
12
12
12
12
12
12
12
12
12
12
12
12
12
12
12
12
12
12
12
12
12
12
12
12
12
12
12
12
12
12
12
12
12
12
12
12
12
12
12
12
12
12
12
12
12
12
12
12
12
12
12
12
12
12
12
12
12
12
12
12
12
12
12
12
12
12
12
12
12
12
12
12
12
12
12
12
12
12
12
12
12
12
12
12
12
12
12
12
12
12
12
12
12
12
12
12
12
12
12
12
12
12
12
12
12
12
12
12
12
12
12
12
12
12
12
12
12
12
12
12
12
12
12
12
12
12
12
12
12
12
12
12
12
12
12
12
12
12
12
12
12
12
12
12
12
12
12
12
12
12
12
12
12
12
12
12
12
12
12
12
12
12
12
12
12
12
12
12
12
12
12
12
12
12
12
12
12
12
12
12
12
12
12
12
12
12
12
12
12
12
12
12
12
12
12
12
12
12
12
12
12
12
12
12
12
12
12
12
12
12
12
12
12
12
12
12
12
12
12
12
12
12
12
12
12
12
12
12
12
12
12
12
12
12
12
12
12
12
12
12
12
12
12
12
12
12
12
12
12
12
12
12
12
12
12
12
12
12
12
12
12
12
12
12
12
12
12
12
12
12
12
12
12
12
12
12
12
12
12
12
12
12
12
12
12
12
12
12
12
12
12
12
12
12
12
12
12
12
12
12
12
12
12
12
12
12
12
12
12
12
12
12
12
12
12
12
12
12
12
12
12
12
12
12
12
12
12
12
12
12
12
12
12
12
12
12
12
12
12
12
12
12
12
12
12
12
12
12
12
12
12
12
12
12
12
12
12
12
12
12
12
12
12
12
12
12
12
12
12
12
12
12
12
12
12
12
12
12
12
12
12
12
12
12
12
12
12
12
12
12
12
12
12
12
12
12
12
12
12
12
12
12
12
12
12
12
12
12
12
12
12
12
12
12
12
12
12
12
12
12
12
12
12
12
12
12
12
12
12
12
12
12
12
12
12
12
12
12
12
12
12
12
12
12
12
12
12
12
12
12
12
12
12
12
12
12
12
12
12
12
12
12
12
12
12
12
12
12
12
12
12
12
12
12
12
12
12
12
12
12
12
12
12
12
12
12
12
12
12
12
12
12
12
12
12
12
12
12
12
12
12
12
12
12
12
12
12
12
12
12
12
12
12
12
12
12
12
12
12
12
12
12
12
12
12
12
12
12
12
12
12
12
12
12
12
12
12
12
12
12
12
12
12
12
12
12
12
12
12
12
12
12
12
12
12
12
12
12
12
12
12
12
12
12
12
12
12
12
12
12
12
12
12
12
12
12
12
12
12
12
12
12
12
12
12
12
12
12
12
12
12
12
12
12
12
12
12
12
12
12
12
12
12
12
12
12
12
12
12
12
12
12
12
12
12
12
12
12
12
12
12
12
12
12
12
12
12
12
12
12
12
12
12
12
12
12
12
12
12
12
12
12
12
12
12
12
12
12
12
12
12
12
12
12
12
12
12
12
12
12
12
12
12
12
12
12
12
12
12
12
12
12
12
12
12
12
12
12
12
12
12
12
12
12
12
12
12
12
12
12
12
12
12
12
12
12
12
12
12
12
12
12
12
12
12
12
12
12
12
12
12
12
12
12
12
12
12
12
12
12
12
12
12
12
12
12
12
12
12
12
12
12
12
12
12
12
12
12
12
12
12
12
12
12
12
12
12
12
12
12
12
12
12
12
12
12
12
12
12
12
12
12
12
12
12
12
12
12
12
12
12
12
12
12
12
12
12
12
12
12
12
12
12
12
12
12
12
12
12
12
12
12
12
12
12
12
12
12
12
12
12
12
12
12
12
12
12
12
12
12
12
12
12
12
12
12
12
12
12
12
12
12
12
12
12
12
12
12
12
12
12
12
12
12
12
12
12
12
12
12
12
12
12
12
12
12
12
12
12
12
12
12
12
12
12
12
12
12
12
12
12
12
12
12
12
12
12
12
12
12
12
12
12
12
12
12
12
12
12
12
12
12
12
12
12
12
12
12
12
12
12
12
12
12
12
12
12
12
12
12
12
12
12
12
12
12
12
12
12
12
12
12
12
12
12
12
12
12
12
12
12
12
12
12
12
12
12
12
12
12
12
12
12
12
12
12
12
12
12
12
12
12
12
12
12
12
12
12
12
12
12
12
12
12
12
12
12
12
12
12
12
12
12
12
12
12
12
12
12
12
12
12
12
12
12
12
12
12
12
12
12
12
12
12
12
12
12
12
12
12
12
12
12
12
12
12
12
12
12
12
12
12
12
12
12
12
12
12
12
12
12
12
12
12
12
12
12
12
12
12
12
12
12
12
12
12

POINT_DATA 3012
SCALARS Jp_lamdaP float 4
LOOKUP_TABLE default
0.999729 1 1 0.999729
1 1 1 1
0.999737 1 1 0.999737
0.999677 1 1 0.999677
0.999731 1 1 0.999731
0.999715 1 1 0.999715
0.998985 1 1 0.998985
1 1 1 1
1 1 1 1
1 1 1 1
0.999804 1 1 0.999804
0.999112 1 1 0.999112
0.99966 1 1 0.99966
0.999676 1 1 0.999676
0.999739 1 1 0.999739
0.9997 1 1 0.9997
0.999721 1 1 0.999721
0.999745 1 1 0.999745
0.998987 1 1 0.998987
1 1 1 1
0.999657 1 1 0.999657
0.999708 1 1 0.999708
0.998857 1 1 0.998857
0.99896 1 1 0.99896
0.999725 1 1 0.999725
0.999006 1 1 0.999006
1.00795 1.01014 1 0.997838
1 1 1 1
0.999855 1 1 0.999855
0.999868 1 1 0.999868
1 1 1 1
0.99912 1 1 0.99912
0.999703 1 1 0.999703
0.999729 1 1 0.999729
0.999115 1 1 0.999115
1 1 1 1
0.9992 1 1 0.9992
0.999213 1 1 0.999213
1.00197 1.00414 1 0.997831
1 1 1 1
1 1 1 1
0.999838 1 1 0.999838
1 1 1 1
0.999677 1 1 0.999677
0.998784 1 1 0.998784
1 1 1 1
0.999016 1 1 0.999016
0.99972 1 1 0.99972
0.999755 1 1 0.999755
0.999722 1 1 0.999722
0.998993 1 1 0.998993
0.999821 1 1 0.999821
0.999678 1 1 0.999678
0.999737 1 1 0.999737
0.999729 1 1 0.999729
0.998855 1 1 0.998855
0.999009 1 1 0.999009
0.998962 1 1 0.998962
1.00838 1.01058 1 0.997823
1 1 1 1
0.999653 1 1 0.999653
0.999025 1 1 0.999025
0.998823 1 1 0.998823
0.998911 1 1 0.998911
1.01128 1.01376 1 0.997557
1.00944 1.01179 1 0.997677
0.999788 1 1 0.999788
0.999113 1 1 0.999113
1.00543 1.00751 1 0.997934
1.02413 1.02724 1 0.996971
1 1 1 1
1 1 1 1
1 1 1 1
0.999128 1 1 0.999128
1 1 1 1
1 1 1 1
0.998968 1 1 0.998968
0.999932 1 1 0.999932
0.999073 1 1 0.999073
0.999309 1 1 0.999309
1.00108 1.00326 1 0.997828
1 1 1 1
1.00075 1 1.00092 0.999833
0.998895 1 1 0.998895
0.999003 1 1 0.999003
1.01188 1.01451 1 0.997405
0.999715 1 1.00018 0.999532
1.00586 1.00815 1 0.997731
0.99931 1.00134 1 0.997977
1.00703 1.0099 1 0.99715
1 1 1 1
1 1 1 1
1 1 1 1
1 1 1 1
1 1 1 1
0.999836 1 1 0.999836
0.998897 1 1 0.998897
0.999841 1 1 0.999841
0.998937 1 1 0.998937
1 1 1 1
0.998789 1 1 0.998789
0.999001 1 1 0.999001
1.01089 1.01375 1 0.997179
0.999052 1 1 0.999052
1.01318 1.01599 1 0.997232
0.999681 1 1 0.999681
0.999698 1 1 0.999698
0.999747 1 1 0.999747
0.999746 1 1 0.999746
0.998854 1 1 0.998854
0.998966 1 1 0.998966
0.999015 1 1 0.999015
1.00879 1.011 1 0.997809
1 1 1 1
0.999674 1 1 0.999674
0.998816 1 1 0.998816
0.998819 1 1 0.998819
0.999894 1 1 0.999894
0.999184 1 1 0.999184
0.998911 1 1 0.998911
1.01122 1.01373 1 0.997517
1.00612 1.00822 1 0.997916
1.00969 1.01201 1 0.997707
1.02405 1.02715 1 0.996977
0.998812 1 1 0.998812
0.998813 1 1 0.998813
1.00964 1.01228 1 0.997399
1.01116 1.01374 1 0.997452
1.01096 1.01342 1 0.997569
1.0329 1.03616 1 0.996858
1 1 1 1
1.02704 1.0302 1 0.99693
0.99955 1 1.00022 0.999331
1.00161 1.00369 1 0.997928
1.0206 1.02366 1 0.997012
1.03206 1.03538 1 0.9968
1.00109 1 1.00147 0.999622
1.0058 1 1.00717 0.998644
1 1 1 1
1 1 1 1
0.998974 1 1 0.998974
1 1 1 1
0.999313 1 1.00003 0.999278
0.999079 1 1 0.999079
1.00008 1.00226 1 0.997825
1 1 1 1
1.00034 1 1.00049 0.999856
0.998991 1 1 0.998991
0.999091 1 1 0.999091
1.01127 1.0139 1 0.997407
0.999883 1 1.00038 0.999501
1.0047 1.00698 1 0.997734
0.998846 1.00087 1 0.997975
1.00737 1.01027 1 0.997135
1.00069 1 1.00102 0.999677
0.99993 1 1 0.99993
1.00215 1 1.00325 0.99891
1.01336 1.0161 1 0.9973
1.00945 1.01191 1 0.997568
1.02954 1.03285 1 0.996792
0.998749 1.00014 1.00036 0.998244
1.01549 1.01847 1 0.997072
1.00446 1.00666 1.00057 0.997242
1.01553 1.01862 1 0.996966
1 1 1 1
1 1 1 1
1 1 1 1
1.00009 1 1.00034 0.999744
1 1 1 1
1 1 1 1
1 1 1 1
0.998857 1 1 0.998857
0.998815 1 1 0.998815
1 1 1 1
1 1 1 1
0.998791 1 1 0.998791
0.998922 1 1 0.998922
1.01127 1.01413 1 0.997179
0.998879 1 1 0.998879
1.01341 1.01622 1 0.997232
0.998785 1 1 0.998785
1.00982 1.01272 1 0.99714
1.01207 1.01489 1 0.997217
1.036 1.03939 1 0.996745
1.01372 1.01651 1 0.997249
1.03829 1.04166 1 0.996767
1 1 1 1
0.999695 1 1 0.999695
0.998587 1 1 0.998587
0.998816 1 1 0.998816
1 1 1 1
0.999257 1 1 0.999257
0.998914 1 1 0.998914
1.01113 1.01368 1 0.997476
1.00998 1.01227 1 0.997736
1.00683 1.00895 1 0.997898
1.02395 1.02705 1 0.996983
0.998809 1 1 0.998809
0.998808 1 1 0.998808
1.00951 1.01226 1 0.997282
1.01113 1.01369 1 0.997478
1 1 1 1
0.99945 1 1.00009 0.99936
1.0028 1.00482 1 0.997999
1.01091 1.01337 1 0.997565
1.03278 1.03606 1 0.996834
1.01995 1.02302 1 0.997003
1.02724 1.03037 1 0.996965
1.03169 1.035 1 0.996809
1.00113 1 1.00152 0.99961
1.00428 1 1.00565 0.998646
1.00926 1.01213 1 0.997162
1.00995 1.01255 1 0.997433
1.0335 1.0368 1 0.996824
1.03319 1.03652 1 0.996792
1.02983 1.03299 1 0.996941
1.0419 1.04517 1 0.996869
1.00055 1 1.00107 0.99948
1.03448 1.03774 1 0.996852
0.999144 1.00093 1.00011 0.998108
1.01315 1.01609 1 0.997108
1.02963 1.03296 1 0.996776
1.0333 1.03648 1 0.996936
1.0031 1 1.00467 0.998434
1.00164 1 1.00273 0.998907
1.00342 1 1.00544 0.997992
0.998921 1 1 0.998921
1 1 1 1
0.999917 1 1.00004 0.999878
0.999035 1 1 0.999035
1.01066 1.01329 1 0.997408
1.00001 1 1.0005 0.999505
0.99837 1.00036 1.00004 0.997974
1.00359 1.00586 1 0.997737
1.00807 1.01098 1 0.997121
1.00052 1 1.00082 0.999698
0.999944 1 1 0.999944
1.00255 1 1.00364 0.998912
1.013 1.01574 1 0.997298
1.0085 1.01095 1 0.997572
1.02966 1.03297 1 0.996788
0.998608 1.00002 1.00034 0.998248
1.01655 1.01953 1 0.997079
1.00373 1.00603 1.00047 0.997237
1.01631 1.01942 1 0.996955
0.999975 1 1 0.999975
1.0007 1 1.00215 0.998554
1.00085 1 1.00159 0.999265
1.00278 1 1.00453 0.998257
1.03374 1.03712 1 0.996741
1.0238 1.02695 1 0.99693
1.03551 1.03895 1 0.996684
1.00122 1.00318 1.00049 0.997552
1.02339 1.02654 1 0.996938
1.01293 1.01446 1.00158 0.99691
1.02475 1.02799 1 0.996849
0.999737 1 1 0.999737
0.999998 1 1 0.999998
1 1 1 1
1 1 1 1
1 1 1 1
0.999848 1 1 0.999848
1 1 1 1
1.00076 1 1.00103 0.99973
1 1 1 1
0.99888 1 1 0.99888
0.99884 1 1 0.99884
1.01374 1.01655 1 0.997231
1.01162 1.01448 1 0.99718
0.998792 1 1 0.998792
1 1 1 1
0.998785 1 1 0.998785
1.01011 1.01301 1 0.997141
1.01245 1.01527 1 0.997217
1.03561 1.03899 1 0.996743
1.01376 1.01656 1 0.997247
1.03826 1.04163 1 0.996764
1.0092 1.0121 1 0.997136
1.035 1.03842 1 0.99671
1.03716 1.04053 1 0.996767
1.04696 1.05077 0.99941 0.996955
1.03761 1.041 1 0.996748
1.04734 1.05064 0.999975 0.996884
0.998807 1 1 0.998807
0.998804 1 1 0.998804
1.00938 1.01225 1 0.997165
1.01112 1.01365 1 0.997504
1 1 1 1
0.999389 1 1 0.999389
1.00392 1.00586 1 0.998069
1.01085 1.01332 1 0.997562
1.0327 1.036 1 0.99681
1.02739 1.03048 1 0.997
1.01932 1.02239 1 0.996994
1.03144 1.03474 1 0.996817
1.00133 1 1.00173 0.999599
1.00356 1 1.00492 0.998648
1.00919 1.01208 1 0.99714
1.00996 1.01256 1 0.997428
1.03348 1.03676 1 0.996837
1.03333 1.03664 1 0.996813
1.00028 1 1.00082 0.999469
0.99987 1.0017 1.00007 0.998105
1.01311 1.01601 1 0.997143
1.03013 1.0333 1 0.996929
1.04205 1.04529 1 0.996902
1.02909 1.03245 1 0.99675
1.03451 1.03777 1 0.996856
1.03351 1.03669 1 0.996935
1.00263 1.00001 1.00418 0.998437
1.00381 1 1.00582 0.997995
1.0026 1 1.0037 0.998905
1.03336 1.03669 1 0.996784
1.03346 1.03672 1 0.996856
1.04654 1.0502 0.999605 0.996907
1.04355 1.04682 0.999996 0.996878
1.03747 1.04069 1 0.996903
1.03923 1.04315 0.999077 0.997164
0.998989 1.0001 1.0006 0.998286
1.03562 1.0387 1 0.997041
1.00409 1.00668 1 0.997427
1.02071 1.0241 1 0.996693
1.02985 1.03327 1 0.99669
1.0289 1.03183 1 0.997165
1.00019 1 1.00104 0.999152
0.99876 1.00018 1.00067 0.997912
1.00707 1 1.00895 0.998141
1.00083 1.00041 1.00266 0.997767
1.01266 1.0154 1 0.997297
0.999959 1 1 0.999959
1.00041 1 1.00069 0.99972
1.00291 1 1.004 0.998913
1.00753 1.00998 1 0.997576
1.02977 1.03309 1 0.996784
0.998531 1 1.00028 0.998252
1.00263 1.00508 1.00033 0.997232
1.01753 1.0205 1 0.997086
1.01649 1.01961 1 0.996945
0.999981 1 1 0.999981
1.0014 1 1.00285 0.998555
1.00037 1 1.0011 0.999274
1.00337 1 1.00513 0.998251
1.03365 1.03704 1 0.996736
1.02394 1.02709 1 0.996929
1.0352 1.03865 1 0.996681
1.00005 1.00205 1.00045 0.997559
1.02322 1.02636 1 0.996943
1.01285 1.01425 1.00173 0.996899
1.02465 1.02781 1 0.996925
0.999993 1 1 0.999993
0.999509 1 1 0.999509
1.00006 1.00052 1.0016 0.997937
1.00276 1 1.00418 0.998588
1.00086 1 1.00292 0.99795
1.03979 1.04322 1 0.996713
1.0295 1.03282 1 0.996784
1.03175 1.03509 1 0.996777
1.00556 1.00641 1.00199 0.99717
1.02271 1.02587 1 0.996912
1.01413 1.01666 1.00086 0.996648
0.999704 1 1 0.999704
0.999227 1 1 0.999227
0.999761 1 1 0.999761
0.999739 1 1 0.999739
1 1 1 1
0.999999 1 1 0.999999
1 1 1 1
1 1 1 1
1 1 1 1
0.999932 1 1 0.999932
1 1 1 1
0.999832 1 1 0.999832
1 1 1 1
1.00098 1 1.00126 0.999717
1 1 1 1
1.01375 1.01655 1 0.997245
1.01276 1.01559 1 0.997216
1.03798 1.04135 1 0.996762
1.03521 1.03859 1 0.996741
1.01048 1.01337 1 0.997141
0.998784 1 1 0.998784
1.00937 1.01227 1 0.997136
1.03471 1.03813 1 0.996711
1.0369 1.04027 1 0.996765
1.04693 1.05102 0.999128 0.996973
1.03694 1.04033 1 0.996745
1.04685 1.05014 0.999982 0.996882
1.03389 1.03731 1 0.996702
1.04566 1.05015 0.998745 0.996976
1.04824 1.05175 0.99973 0.996934
1.04504 1.05166 0.996506 0.997188
1.04293 1.04627 1 0.996804
1.04519 1.05006 0.998142 0.997213
1.00915 1.01207 1 0.997118
1.00997 1.01258 1 0.997424
1.03347 1.03674 1 0.996851
1.03344 1.03673 1 0.996834
1 1 1.00054 0.999458
1.00054 1.00244 1 0.998103
1.01331 1.01618 1 0.997177
1.03045 1.03364 1 0.996918
1.0422 1.0454 1 0.996935
1.03458 1.03784 1 0.996861
1.02839 1.03177 1 0.996725
1.03374 1.03692 1 0.996933
1.00185 1 1.00341 0.99844
1.00403 1 1.00604 0.997998
1.00308 1 1.00419 0.998902
1.03344 1.0368 1 0.996754
1.03369 1.03695 1 0.996854
1.04593 1.04976 0.999406 0.996943
1.04381 1.04712 0.999971 0.996869
0.999261 1.00026 1.00072 0.998283
1.00549 1.00809 1 0.997421
1.01945 1.02275 1.00003 0.99674
1.03773 1.04097 1 0.996881
1.03916 1.04317 0.998942 0.997212
1.03027 1.03373 1 0.996654
1.03533 1.0384 1 0.997044
1.02951 1.03241 1 0.997198
0.999513 1.00043 1.00117 0.997913
1.0011 1.00059 1.00277 0.997741
1.00067 1 1.00152 0.999148
1.00657 1 1.0084 0.998178
1.04606 1.04989 0.999425 0.996924
1.04576 1.04934 0.999671 0.996913
1.04231 1.04886 0.996639 0.997101
1.03984 1.04616 0.996711 0.997232
1.03743 1.04061 0.999786 0.997155
1.0358 1.04182 0.996819 0.997395
0.99925 1.00153 1 0.997725
1.03046 1.03354 0.999631 0.997385
1.00979 1.01284 1 0.99699
1.01979 1.02321 1.00018 0.996478
1.03126 1.03472 1 0.996657
1.02981 1.03267 1 0.997235
0.999426 1 1.00008 0.999345
1.00472 1 1.00633 0.9984
0.999176 1.00151 1 0.997666
1.00408 1 1.0062 0.997889
1.00077 1.00092 1.00217 0.997692
0.999987 1 1 0.999987
1.0335 1.03689 1 0.996731
0.999874 1 1.00059 0.999283
1.00216 1 1.00361 0.998556
1.00404 1 1.00581 0.998246
1.02411 1.02726 1 0.996928
1.03491 1.03836 1 0.996679
0.999033 1.00097 1.00051 0.997565
1.01373 1.01494 1.00193 0.996887
1.02316 1.02629 1 0.996949
1.02492 1.02801 1 0.997
0.999995 1 1 0.999995
0.999517 1 1 0.999517
0.999449 1.00027 1.00125 0.997939
1.0034 1 1.00482 0.998588
1.00124 1 1.00331 0.997931
1.03976 1.0432 1 0.996707
1.0295 1.03283 1 0.996782
1.03171 1.03506 1 0.996766
1.0049 1.0056 1.00213 0.997176
1.02518 1.02836 1 0.996911
1.01422 1.01663 1.00096 0.996668
0.99964 1 1 0.99964
1.00005 1 1.00115 0.998905
1.0001 1.00202 1.00048 0.997605
1.00481 1 1.0066 0.998222
0.9999 1.00017 1.00187 0.997865
1.03692 1.04017 1 0.996879
1.02634 1.02962 1 0.996815
1.0307 1.03382 1 0.996977
1.00265 1.00188 1.00379 0.996985
1.01252 1.01599 1 0.996578
0.999706 1 1 0.999706
0.999154 1 1 0.999154
0.999202 1 1 0.999202
0.998959 1 1 0.998959
0.999241 1 1 0.999241
0.999773 1 1 0.999773
0.999763 1 1 0.999763
1 1 1 1
0.999741 1 1 0.999741
1 1 1 1
1 1 1 1
0.999999 1 1 0.999999
1 1 1 1
1 1 1 1
0.999983 1 1 0.999983
0.999915 1 1 0.999915
1 1 1 1
1 1 1 1
1.0001 1 1.00028 0.999817
1 1 1 1
1.0364 1.03979 1 0.996741
1.03684 1.04021 1 0.996763
1.04654 1.04982 1 0.99688
1.04694 1.05131 0.998846 0.996992
1.03432 1.03773 1 0.996711
1.00947 1.01236 1 0.997136
1.03378 1.0372 1 0.996703
1.04569 1.05006 0.99886 0.996971
1.04797 1.05144 0.99977 0.996934
1.04435 1.05149 0.995984 0.99722
1.04366 1.04701 1 0.996797
1.04489 1.05 0.997892 0.997235
1.04569 1.04986 0.999076 0.996945
1.0431 1.05018 0.996083 0.997162
1.04434 1.05126 0.99614 0.997268
1.04183 1.05128 0.993647 0.997348
1.04249 1.04586 0.999701 0.997071
1.04236 1.05005 0.995222 0.997443
1.03341 1.03681 1 0.996724
1.03388 1.03715 1 0.996851
1.04531 1.04931 0.999212 0.996979
1.04403 1.04738 0.99994 0.996859
0.999635 1.00052 1.00084 0.998281
1.00665 1.00925 1 0.997415
1.01811 1.02121 1.00018 0.996786
1.03796 1.04123 1 0.996859
1.03906 1.0432 0.998769 0.997261
1.03494 1.03801 1 0.997047
1.03072 1.03422 1 0.996617
1.02967 1.03253 1 0.997231
1.0004 1.00071 1.00178 0.997915
1.00142 1.00081 1.0029 0.997715
1.00114 1 1.00199 0.999144
1.00562 1 1.00742 0.998215
1.04581 1.04964 0.999424 0.996924
1.04556 1.04904 0.999791 0.996891
1.04239 1.04902 0.996531 0.997134
1.04027 1.04617 0.997138 0.997214
1.00034 1.00263 1 0.997717
1.0084 1.01137 1.00003 0.997034
1.02037 1.02359 1.00039 0.996468
1.03696 1.0401 0.999875 0.997109
1.03493 1.04112 0.996598 0.997452
1.02885 1.03232 1 0.996642
1.03154 1.03456 0.999698 0.997386
1.03055 1.03335 1 0.997291
0.999629 1.00197 1 0.997664
1.00052 1.00138 1.00146 0.997695
1.00454 1 1.00667 0.997882
0.999637 1 1.00033 0.999308
1.00425 1 1.00583 0.998434
1.04182 1.04946 0.995551 0.99715
1.04116 1.0487 0.995611 0.997184
1.03579 1.04563 0.993131 0.99744
1.03215 1.0381 0.996798 0.997461
1.00186 1.00445 1 0.997421
1.03528 1.03848 0.999358 0.997564
1.00587 1.00888 1.00029 0.996733
1.01796 1.02126 1.00051 0.996262
1.02648 1.02995 1 0.996636
0.999471 1 1 0.999471
1.00159 1 1.00287 0.998721
1.00437 1 1.00623 0.998155
1.00084 1.00326 1 0.997585
1.00402 1 1.0064 0.997637
1.00021 1.00165 1.001 0.997566
0.999996 1 1 0.999996
0.999526 1 1 0.999526
1.03974 1.04318 1 0.996701
1.00416 1 1.00559 0.998587
0.998705 1.00002 1.00074 0.997941
1.00166 1 1.00375 0.997911
1.02939 1.03272 1 0.996781
1.03149 1.03485 1 0.996755
1.00393 1.00447 1.00229 0.997181
1.01346 1.01604 1.00077 0.996688
1.02755 1.03074 1 0.99691
0.999645 1 1 0.999645
0.999836 1 1.00093 0.998909
0.999603 1.00159 1.00041 0.997601
1.0059 1 1.00769 0.998217
0.999839 1.00026 1.00171 0.997867
1.03692 1.04017 1 0.996873
1.02664 1.02993 1 0.996803
1.03046 1.03355 1 0.997003
1.00336 1.00318 1.00324 0.996946
1.01141 1.01486 1.00006 0.99655
0.999106 1 1 0.999106
1.00443 1 1.00596 0.998479
1.00186 1.00239 1.002 0.99748
1.00404 1.00039 1.00568 0.997977
1.00032 1.00157 1.001 0.997757
1.03702 1.04044 0.999362 0.997352
1.02528 1.02866 1 0.996717
1.02674 1.02982 1 0.997011
1.0049 1.00378 1.00433 0.996799
1.0036 1.00726 1 0.996361
0.999709 1 1 0.999709
0.999172 1 1 0.999172
0.99888 1 1 0.99888
0.999178 1 1 0.999178
0.99924 1 1 0.99924
0.998929 1 1 0.998929
0.99881 1 1 0.99881
0.998877 1 1 0.998877
0.999251 1 1 0.999251
0.999768 1 1 0.999768
0.999773 1 1 0.999773
1 1 1 1
0.999765 1 1 0.999765
1 1 1 1
1 1 1 1
1 1 1 1
1 1 1 1
1 1 1 1
0.999999 1 1 0.999999
0.999971 1 1 0.999971
1 1 1 1
0.999898 1 1 0.999898
1 1 1 1
1 1 1 1
1.04434 1.0477 1 0.99679
1.04752 1.05095 0.999798 0.996933
1.0446 1.04994 0.997651 0.997257
1.04362 1.05129 0.995446 0.997252
1.04574 1.05 0.998976 0.996965
1.0338 1.03722 1 0.996703
1.04574 1.04977 0.999233 0.996925
1.04353 1.05027 0.996418 0.997154
1.0444 1.05112 0.99634 0.997251
1.04103 1.0509 0.993234 0.99736
1.04192 1.04518 0.999806 0.997071
1.04081 1.04917 0.994542 0.997485
1.04349 1.05002 0.99663 0.997136
1.04224 1.05231 0.993069 0.997343
1.04199 1.05256 0.992488 0.997452
1.03856 1.04638 0.995 0.997516
1.04561 1.04945 0.999423 0.996924
1.04542 1.04879 0.999915 0.996869
1.04247 1.04917 0.99644 0.997167
1.04075 1.04622 0.99757 0.997197
1.00145 1.00375 1 0.997709
1.00722 1.01017 1 0.997079
1.02081 1.02385 1.00058 0.996458
1.03653 1.03958 1 0.997063
1.03403 1.04036 0.99639 0.99751
1.03286 1.03582 0.999755 0.997388
1.02692 1.03039 1 0.996628
1.03234 1.03509 1 0.997346
1.00022 1.00256 1 0.997661
1.00025 1.00187 1.00069 0.997698
1.00593 1 1.00808 0.997875
0.999854 1 1.00058 0.999272
1.00413 1 1.00567 0.998469
1.0424 1.04996 0.995634 0.997152
1.04138 1.04891 0.995631 0.997179
1.03558 1.0449 0.993636 0.99743
1.00239 1.00499 1 0.997414
1.00627 1.00926 1.00026 0.996777
1.01674 1.01979 1.00076 0.99625
1.03269 1.0385 0.996949 0.997447
1.02809 1.03146 1 0.996736
1.03206 1.03545 0.999188 0.997533
0.999499 1 1 0.999499
1.00134 1.00377 1 0.997574
0.999341 1.00114 1.00051 0.997695
1.00487 1 1.00726 0.997624
1.00461 1 1.00645 0.998176
1.00156 1 1.00287 0.998687
1.04047 1.05063 0.993072 0.997233
1.03883 1.0518 0.990279 0.997361
1.0298 1.04329 0.989519 0.997524
1.03246 1.04178 0.993378 0.997666
1.00341 1.0062 1 0.997227
1.02687 1.02982 0.999989 0.997151
1.00354 1.0056 1.00165 0.99631
1.00919 1.01209 1.00104 0.996097
0.999687 1 1 0.999687
0.999355 1 1.00038 0.998973
1.00257 1 1.00419 0.99839
1.00516 1 1.0074 0.997779
1.00157 1.0036 1.00057 0.997405
1.00634 1.00061 1.00837 0.997382
0.999651 1 1 0.999651
0.99951 1 1.0006 0.998912
1.03714 1.0404 1 0.996866
1.00659 1 1.00839 0.998212
0.99904 1.00118 1.00027 0.997597
0.99939 1 1.00152 0.997869
1.02721 1.03051 1 0.996792
1.03058 1.03365 1 0.99703
1.00434 1.00471 1.00273 0.996907
1.01031 1.01357 1.00027 0.996521
0.999109 1 1 0.999109
1.00444 1 1.00597 0.998476
1.00193 1.00247 1.00198 0.997489
1.00347 1 1.00549 0.997986
0.999962 1.00165 1.00048 0.997844
1.03775 1.04137 0.999122 0.997397
1.02474 1.02809 1 0.996733
1.02842 1.03143 1 0.997083
1.00455 1.00322 1.00458 0.996762
1.00409 1.00779 1.00003 0.996298
0.999067 1 1.00029 0.998779
1.00537 1 1.00728 0.998105
1.00452 1.00339 1.00378 0.997351
1.00035 1.0011 1.00161 0.99764
1.03575 1.05319 0.985757 0.997648
1.03091 1.0339 0.999667 0.997444
1.01478 1.01839 1 0.996459
1.00553 1.00491 1.00426 0.99638
0.999191 1 1 0.999191
0.998893 1 1 0.998893
0.998796 1 1 0.998796
0.999239 1 1 0.999239
0.998898 1 1 0.998898
0.999249 1 1 0.999249
0.998805 1 1 0.998805
0.99889 1 1 0.99889
0.998787 1 1 0.998787
0.998711 1 1 0.998711
0.998841 1 1 0.998841
0.999232 1 1 0.999232
0.999748 1 1 0.999748
0.999767 1 1 0.999767
1 1 1 1
0.999774 1 1 0.999774
1 1 1 1
1 1 1 1
1 1 1 1
1 1 1 1
1 1 1 1
1 1 1 1
0.999996 1 1 0.999996
1 1 1 1
0.99996 1 1 0.99996
1 1 1 1
1 1 1 1
1.04126 1.0444 0.999921 0.997071
1.04449 1.05104 0.996521 0.997235
1.03932 1.04833 0.993864 0.997526
1.0403 1.05059 0.992817 0.997373
1.04399 1.05038 0.996756 0.997147
1.04573 1.04962 0.999388 0.996905
1.04331 1.04996 0.99652 0.997136
1.04201 1.05192 0.993225 0.997334
1.04111 1.05181 0.99236 0.997452
1.04011 1.04762 0.99529 0.997525
1.0429 1.05228 0.993782 0.997287
1.04359 1.05795 0.988899 0.9975
1.04329 1.05671 0.989702 0.997578
1.04298 1.05047 0.995698 0.997154
1.04157 1.04909 0.995638 0.997175
1.03546 1.04419 0.994208 0.997421
1.00269 1.0053 1 0.997408
1.00612 1.00915 1.00018 0.996821
1.01538 1.01835 1.00085 0.996239
1.03321 1.03889 0.997092 0.997434
1.02837 1.03197 0.999014 0.997503
1.02881 1.03208 1 0.996835
1.00093 1.00338 1 0.997562
0.998189 1.00037 1 0.997823
1.00535 1 1.00776 0.997612
0.999526 1 1 0.999526
1.00392 1 1.00574 0.998196
1.00145 1 1.0028 0.998653
1.04117 1.05109 0.993306 0.997241
1.03836 1.05164 0.989978 0.997368
1.02994 1.04287 0.990067 0.997517
1.00193 1.00473 1 0.997218
1.00352 1.00575 1.0014 0.99639
1.00947 1.01244 1.0009 0.996164
1.03261 1.04153 0.993748 0.997671
1.02568 1.02903 0.999612 0.997132
0.999741 1 1 0.999741
0.999294 1 1.00032 0.998972
0.999716 1.00227 1 0.997455
1.00856 1.00063 1.01043 0.997518
1.00496 1 1.00716 0.997818
1.00241 1 1.00405 0.998361
1.0411 1.05524 0.989151 0.997421
1.03085 1.05116 0.98316 0.997482
1.02741 1.04286 0.987439 0.997714
1.02252 1.03138 0.993712 0.997684
1.00169 1.00384 1.00096 0.996897
1.00796 1.01023 1.0014 0.996357
1.00305 1.00432 1.00264 0.9961
0.999869 1 1 0.999869
0.999415 1 1 0.999415
0.999168 1 1 0.999168
0.999725 1 1.00119 0.998541
1.00303 1 1.00498 0.998053
1.00835 1 1.01073 0.997644
0.99915 1.00165 1 0.997504
1.03102 1.0005 1.03284 0.997728
0.999112 1 1 0.999112
1.00472 1 1.00626 0.998473
1.03843 1.04224 0.998904 0.997441
1.00372 1 1.00574 0.997995
1.00224 1.00259 1.00215 0.997498
0.999495 1.00153 1.00004 0.99793
1.02377 1.02711 1 0.996749
1.02985 1.03279 1 0.997155
1.00428 1.00275 1.00482 0.996727
1.00467 1.00847 1 0.996234
0.999258 1 1.00051 0.99875
1.00513 1 1.00703 0.998119
1.00517 1.00364 1.00415 0.99738
1.00021 1.00112 1.00142 0.997677
1.03797 1.05499 0.986163 0.997667
1.03093 1.03379 0.999839 0.997395
1.0157 1.01927 1 0.996503
1.00659 1.0065 1.00377 0.996329
1.00022 1 1.00168 0.998541
1.0362 1.05839 0.98131 0.997673
1.00163 1 1.00385 0.997787
1.00378 1.00401 1.00268 0.9971
1.03337 1.04401 0.99203 0.997762
1.01385 1.01731 1 0.9966
1.00603 1.00666 1.00323 0.996148
0.998906 1 1 0.998906
0.998787 1 1 0.998787
0.998788 1 1 0.998788
0.999248 1 1 0.999248
0.998903 1 1 0.998903
0.9988 1 1 0.9988
0.99923 1 1 0.99923
0.998846 1 1 0.998846
0.998786 1 1 0.998786
0.998731 1 1 0.998731
0.998815 1 1 0.998815
0.998703 1 1 0.998703
0.998814 1 1.00019 0.998626
0.9988 1 1 0.9988
0.99918 1 1 0.99918
0.99972 1 1 0.99972
0.999746 1 1 0.999746
1 1 1 1
0.999765 1 1 0.999765
1 1 1 1
1 1 1 1
1 1 1 1
1 1 1 1
1 1 1 1
0.999896 1 1 0.999896
1 1 1 1
1 1 1 1
1 1 1 1
0.999993 1 1 0.999993
1 1 1 1
1 1 1 1
1.04165 1.04889 0.995558 0.997534
1.04022 1.05097 0.992295 0.997451
1.04174 1.0515 0.993377 0.997325
1.04315 1.0499 0.996427 0.997135
1.04256 1.05222 0.993491 0.997306
1.04358 1.0575 0.989318 0.99749
1.04169 1.05537 0.989425 0.997587
1.04317 1.05777 0.988683 0.997479
1.05071 1.06665 0.987425 0.997599
1.03838 1.05893 0.982712 0.997851
1.04188 1.05153 0.993555 0.997248
1.0379 1.05151 0.989649 0.997375
1.02997 1.04244 0.990503 0.997509
1.00198 1.00473 1.00006 0.997209
1.00405 1.00634 1.00126 0.996472
1.01055 1.01359 1.00078 0.996231
1.03285 1.04138 0.994121 0.997677
1.02475 1.02847 0.999267 0.997114
0.999376 1.00187 1 0.997506
1.01113 1.00101 1.01249 0.997653
1.00575 1 1.00791 0.997857
0.999795 1 1 0.999795
0.999229 1 1.00026 0.998971
1.00257 1 1.00424 0.998332
1.04106 1.05554 0.988821 0.997433
0.999865 1 1 0.999865
0.999387 1 1 0.999387
1.03101 1.05034 0.984069 0.997483
1.02646 1.04249 0.986909 0.997683
1.00172 1.00345 1.00129 0.996986
1.00363 1.00426 1.0033 0.996085
1.00865 1.01149 1.00084 0.996352
1.0214 1.03055 0.993443 0.997662
0.999243 1 1 0.999243
0.999731 1 1.0012 0.998535
1.0001 1.00156 1.00113 0.997407
1.02592 1.00059 1.02748 0.997891
1.00655 1 1.00891 0.997659
1.00341 1 1.00535 0.998072
1.0488 1.065 0.987201 0.997558
1.01371 1.04845 0.969171 0.997622
1.01888 1.03675 0.984857 0.997871
1.0037 1.01338 0.993051 0.997378
1.00226 1.00117 1.00407 0.99703
1.00355 1.00208 1.00547 0.99602
0.999373 1 1 0.999373
0.99937 1 1 0.99937
0.999093 1 1 0.999093
0.998673 1 1 0.998673
1.00102 1 1.00272 0.9983
1.00197 1.00006 1.00416 0.997755
1.04194 1 1.04439 0.997658
1.0024 1.00049 1.004 0.997917
0.999515 1 1.00079 0.998722
1.00445 1 1.00633 0.998134
1.03945 1.05584 0.986767 0.997686
1.03077 1.03357 0.999952 0.997347
1.00007 1.00121 1.00115 0.997713
1.0059 1.00408 1.00441 0.997409
1.01702 1.02051 1.00004 0.996548
1.00766 1.00805 1.00335 0.996278
1.00041 1 1.00189 0.998527
1.03826 1.06103 0.980779 0.997719
1.00191 1 1.00412 0.997808
1.00331 1.00358 1.00269 0.997049
1.03203 1.04316 0.991571 0.997735
1.01386 1.01725 1 0.996672
1.00646 1.00683 1.00348 0.996165
1.00191 1 1.00371 0.998209
1.01667 1.03998 0.979418 0.998137
1.00254 1.00256 1.00246 0.997524
1.00363 1.00318 1.00379 0.996674
1.0162 1.02404 0.99499 0.99734
1.00187 1.00333 1.00221 0.996342
0.988242 1.00459 0.985881 0.99781
0.998779 1 1 0.998779
0.999155 1 1.00037 0.998786
0.998793 1 1.00011 0.998686
0.999227 1 1 0.999227
0.998851 1 1 0.998851
0.998751 1 1 0.998751
0.998787 1 1 0.998787
0.99918 1 1 0.99918
0.998791 1 1 0.998791
0.998782 1 1 0.998782
0.998691 1 1.00006 0.998627
0.998699 1 1 0.998699
0.99877 1 1 0.99877
0.998852 1 1.0004 0.998455
0.999266 1 1.00066 0.998609
0.998696 1 1 0.998696
0.999067 1 1 0.999067
0.998899 1 1.00004 0.998859
0.999048 1 1 0.999048
0.999705 1 1 0.999705
0.999718 1 1 0.999718
1 1 1 1
0.999743 1 1 0.999743
1 1 1 1
1 1 1 1
1 1 1 1
1 1 1 1
1 1 1 1
0.999917 1 1 0.999917
0.999895 1 1 0.999895
1 1 1 1
1 1 1 1
1 1 1 1
1 1 1 1
1 1 1 1
1 1 1 1
1.04025 1.05431 0.989043 0.997597
1.0435 1.0571 0.989634 0.99748
1.04223 1.05218 0.993199 0.997324
1.04319 1.05774 0.988743 0.997477
1.0485 1.06451 0.987333 0.997596
1.03831 1.05785 0.983701 0.997789
1.05111 1.06979 0.98484 0.997664
0.981209 1.01605 0.969168 0.996428
1.01055 1.03691 0.976038 0.998496
0.999483 1 1 0.999483
1.04101 1.05583 0.988494 0.997444
1.03136 1.04959 0.985108 0.997484
1.02559 1.04216 0.986424 0.997651
0.999962 1.00207 1.00082 0.997074
1.00385 1.00378 1.00402 0.99607
1.00913 1.01237 1.00045 0.996348
1.02012 1.02955 0.993189 0.997638
0.998921 1.00159 1.00002 0.997311
1.01959 1 1.02158 0.998055
1.00457 1 1.00692 0.997674
0.99986 1 1 0.99986
1.00378 1 1.0057 0.998091
0.999318 1 1 0.999318
0.999643 1 1.00112 0.998528
0.999358 1 1 0.999358
1.04612 1.06528 0.984419 0.997565
0.999411 1 1 0.999411
0.999368 1 1 0.999368
0.999057 1 1 0.999057
1.01726 1.04843 0.972581 0.997622
1.01965 1.03741 0.985027 0.997826
1.0005 1.00123 1.00222 0.997055
1.00431 1.00265 1.00556 0.996119
1.0032 1.01149 0.994424 0.997365
0.99872 1 1 0.99872
1.00112 1 1.00286 0.99826
1.00752 1.00031 1.0094 0.997827
1.03372 1 1.03611 0.997692
1.0016 1 1.00382 0.997795
1.03182 1.05561 0.979753 0.997662
1.00384 1.04344 0.964207 0.99776
1.01149 1.02285 0.991322 0.997548
0.993796 1.00442 0.992275 0.997129
1.0034 1 1.00592 0.997494
0.998969 1 1 0.998969
0.998888 1 1 0.998888
0.99908 1 1.0003 0.998777
1.00002 1 1.00156 0.998453
1.0021 1 1.004 0.99811
1.02981 1 1.03211 0.997773
1.02698 1.00008 1.02924 0.997733
1.00042 1 1.00191 0.998513
1.00218 1 1.00436 0.997829
1.03963 1.06444 0.978881 0.997764
1.03095 1.04279 0.990917 0.997709
1.01362 1.01693 1 0.996745
1.00269 1.00303 1.00268 0.996998
1.00653 1.00677 1.0036 0.996182
1.00188 1 1.00364 0.99825
1.01492 1.04 0.977678 0.998165
1.00086 1.00168 1.00164 0.997541
1.00295 1.00221 1.00408 0.996681
1.01583 1.02417 0.994399 0.997445
1.00183 1.00278 1.00273 0.996331
0.987563 1.00446 0.986138 0.996997
1.00178 1.00047 1.00325 0.998065
1.0068 1.02153 0.987437 0.998114
1.00078 1.00135 1.00194 0.997487
1.00445 1.0012 1.00644 0.996834
0.994658 1.00588 0.991653 0.997163
0.934403 0.981305 0.972096 0.979537
0.93818 0.976883 0.970484 0.98959
0.978449 0.989427 0.991025 0.99786
0.780652 0.862461 0.938487 0.964472
0.711383 0.839127 0.887857 0.954843
0.999341 1 1.00056 0.998784
0.99937 1 1.00064 0.99873
0.999039 1 1.00032 0.998719
0.999179 1 1 0.999179
0.998781 1 1 0.998781
0.998628 1 1 0.998628
0.998693 1 1 0.998693
0.99875 1 1 0.99875
0.999942 1 1.00136 0.998585
0.999098 1 1 0.999098
0.998714 1 1 0.998714
0.998744 1 1 0.998744
0.999168 1 1.00069 0.998481
1.00112 1 1.00263 0.998493
1.00138 1 1.00285 0.998532
1.00016 1 1.00164 0.998514
0.99871 1 1.00006 0.998647
0.999041 1 1 0.999041
0.998726 1 1 0.998726
0.998686 1 1 0.998683
0.998871 1 1.00001 0.998858
0.998853 1 1.00003 0.998821
0.999146 1 1 0.999146
0.999045 1 1 0.999045
0.9997 1 1 0.9997
0.999705 1 1 0.999705
1 1 1 1
0.999716 1 1 0.999716
1 1 1 1
1 1 1 1
1 1 1 1
1 1 1 1
1 1 1 1
0.999935 1 1 0.999935
0.999914 1 1 0.999914
1 1 1 1
0.999893 1 1 0.999893
1 1 1 1
1 1 1 1
1 1 1 1
1 1 1 1
1 1 1 1
1.04606 1.06214 0.987231 0.997594
1.04323 1.05768 0.988835 0.997475
1.0388 1.05711 0.984917 0.997729
0.984646 1.01587 0.972678 0.996493
1.04815 1.06715 0.984496 0.997663
1.02055 1.03994 0.982947 0.998378
1.03762 1.04913 0.991235 0.997774
0.940832 0.982013 0.968986 0.988729
0.996816 1.01935 0.980676 0.997162
0.999493 1 1 0.999493
0.99948 1 1 0.99948
0.999076 1 1 0.999076
0.999133 1 1 0.999133
1.04401 1.06551 0.982203 0.997572
1.02022 1.04796 0.975843 0.997621
1.02005 1.0378 0.985082 0.99778
0.999481 1.00073 1.00167 0.99708
1.00501 1.00345 1.00536 0.996216
1.00253 1.01004 0.995195 0.997351
1.01435 1 1.01665 0.997737
1.02644 1 1.02878 0.997726
1.00106 1 1.00324 0.997834
0.999367 1 1 0.999367
1.00087 1 1.00266 0.998219
0.998767 1 1 0.998767
0.99945 1 1 0.99945
0.99902 1 1 0.99902
1.02928 1.05534 0.977574 0.997677
0.999014 1 1 0.999014
0.998938 1 1 0.998938
0.998889 1 1 0.998889
1.0076 1.04574 0.965696 0.997756
1.01051 1.02258 0.990626 0.997547
1.00308 1.00005 1.00556 0.997476
0.99548 1.00482 0.9935 0.997186
0.999633 1 1.00121 0.998423
1.00171 1 1.00368 0.998035
1.03141 1.00044 1.03331 0.997718
1.03037 1.00003 1.03269 0.997721
0.999033 1.03884 0.963767 0.997832
0.997103 1.02928 0.970945 0.997732
1.00366 1.009 0.997475 0.997231
0.98837 1.0006 0.989779 0.997977
0.998641 1 1 0.998641
0.999874 1 1.0013 0.998573
1.01047 1 1.01215 0.998334
1.04831 1 1.05073 0.997697
0.909707 0.970128 0.95934 0.977463
1.00227 1 1.00399 0.998291
0.999369 1.00072 1.00109 0.997557
1.01442 1.0398 0.977357 0.998193
1.01598 1.02448 0.994142 0.997549
1.00214 1.00254 1.0033 0.996319
1.00273 1.00159 1.00447 0.996687
0.988213 1.00497 0.987116 0.996165
1.001 1.0002 1.00268 0.998119
1.00698 1.02259 0.986607 0.998103
1.00025 1.00131 1.00144 0.997501
1.00449 1.00156 1.00611 0.996834
0.997602 1.00683 0.993644 0.997171
0.933373 0.986893 0.967528 0.977512
0.933215 0.974314 0.970293 0.987143
0.979815 0.988603 0.993217 0.997879
0.779877 0.859541 0.940171 0.965056
0.696519 0.828217 0.884103 0.951231
1.00023 1.00013 1.00178 0.998319
0.809379 0.882244 0.94895 0.966764
0.752524 0.844368 0.931966 0.956288
0.990337 1.00692 0.985472 0.998027
1.00656 1.00132 1.00742 0.99783
1.0122 1.00455 1.01021 0.997437
0.97228 0.983722 0.990262 0.998088
0.926007 0.968121 0.978084 0.977931
0.91031 0.948776 0.973198 0.985881
0.764671 0.861202 0.918614 0.966578
0.772688 0.889059 0.909746 0.95533
1 1 1.00123 0.998773
1.00015 1 1.00145 0.998698
1.00113 1 1.00226 0.998876
0.999129 1 1 0.999129
0.998732 1 1 0.998732
1.00018 1 1.00162 0.99856
0.999692 1 1.00119 0.998508
0.998719 1 1 0.998719
0.999042 1 1 0.999042
1.00093 1 1.00245 0.998484
1.00052 1 1.00199 0.998529
0.998692 1 1.00001 0.99868
1.00113 1 1.00258 0.998547
1.00306 1 1.00456 0.998507
1.00561 1 1.007 0.998621
0.998758 1 1.00028 0.998479
0.99869 1 1 0.99869
0.998722 1 1 0.998722
0.9987 1 1.00002 0.99868
0.998637 1 1.00009 0.998543
0.99923 1 1.00054 0.998692
0.999473 1 1.00082 0.998658
1.00139 1 1.0029 0.998497
0.999441 1 1.00062 0.998821
0.998981 1 1.00012 0.998858
0.999176 1 1 0.999176
0.998784 1 1 0.998784
0.999121 1 1 0.999121
0.999692 1 1 0.999692
0.999042 1 1 0.999042
0.9997 1 1 0.9997
1 1 1 1
0.999704 1 1 0.999704
1 1 1 1
1 1 1 1
1 1 1 1
1 1 1 1
1 1 1 1
0.999455 1 1 0.999455
0.999936 1 1 0.999936
0.999932 1 1 0.999932
1 1 1 1
0.99991 1 1 0.99991
1 1 1 1
1 1 1 1
1 1 1 1
1 1 1 1
1 1 1 1
0.987383 1.01579 0.975388 0.996563
1.04587 1.06429 0.984991 0.997662
1.02646 1.04284 0.98601 0.998259
0.934573 0.975533 0.967897 0.989788
0.997294 1.01907 0.981275 0.997306
1.03837 1.05254 0.988784 0.997729
1.01095 1.0263 0.987767 0.997235
0.949224 0.976503 0.980964 0.990928
0.932275 0.979156 0.973951 0.977586
0.772826 0.858709 0.931477 0.966191
0.684793 0.804894 0.891701 0.954117
0.999082 1 1 0.999082
0.999491 1 1 0.999491
0.999477 1 1 0.999477
0.999064 1 1 0.999064
0.998828 1 1 0.998828
0.998858 1 1 0.998858
0.999037 1 1 0.999037
0.999099 1 1 0.999099
1.0258 1.05537 0.974233 0.997691
1.01224 1.04906 0.967076 0.997751
1.01002 1.02242 0.990305 0.997546
1.00277 1.00039 1.00493 0.99746
0.997457 1.00484 0.995397 0.997244
1.03394 1 1.03633 0.997702
1.03119 1 1.0336 0.997669
1.00183 1 1.00388 0.997961
0.998989 1 1 0.998989
0.99952 1 1.00113 0.998391
0.99906 1 1 0.99906
0.999002 1 1 0.999002
0.999139 1.03956 0.963204 0.997835
0.998761 1 1.00009 0.99867
0.999451 1 1.00084 0.998614
0.996811 1.02832 0.971588 0.997707
1.00066 1.00871 0.99465 0.997357
0.990872 1.00098 0.992014 0.997871
1.01579 1 1.01762 0.998199
1.04369 1.00004 1.04603 0.99772
0.989471 1.02683 0.965726 0.997815
0.985114 1.00888 0.97864 0.997755
0.98329 1.00137 0.984135 0.997779
0.993686 1.00082 0.994763 0.998102
1.00168 1 1.00335 0.998335
1.00633 1 1.008 0.998346
1.04402 1 1.04611 0.998
0.804017 0.890895 0.932304 0.968013
0.927242 0.976391 0.968618 0.980431
1 1 1.00183 0.998173
0.999576 1.001 1.00107 0.997516
1.00689 1.02365 0.985507 0.998092
0.999973 1.00777 0.99507 0.99718
1.00463 1.00209 1.00571 0.996836
0.92744 0.975987 0.971712 0.977922
0.939595 0.98105 0.969608 0.987765
0.980156 0.987083 0.99508 0.997892
0.780196 0.861246 0.936615 0.967198
0.683997 0.817638 0.882883 0.947523
1.00027 1.00008 1.00188 0.998317
0.805492 0.8873 0.938423 0.96737
0.742538 0.834783 0.931968 0.95443
0.990408 1.00768 0.98481 0.998024
1.00663 1.00162 1.00716 0.997857
1.01059 1.00286 1.01015 0.99759
0.964633 0.977735 0.988351 0.998228
0.932518 0.977996 0.97711 0.975836
0.910165 0.951963 0.967526 0.988184
0.767984 0.857411 0.928318 0.964865
0.770653 0.893259 0.903914 0.954452
1.00203 1 1.00332 0.998709
0.784672 0.85595 0.957128 0.957789
0.857704 0.924541 0.961692 0.964662
0.989636 0.998353 0.992572 0.998687
1.01416 1.00263 1.01287 0.998644
0.974274 0.968656 1.00772 0.998096
0.905681 0.936016 0.978062 0.989295
0.901387 0.940905 0.982645 0.97492
0.774026 0.857348 0.934997 0.965579
0.811113 0.926043 0.914024 0.958281
1.0013 1 1.00263 0.998678
1.00092 1 1.00208 0.998843
1.00445 1 1.00536 0.999092
0.999043 1 1 0.999043
0.998713 1 1 0.998713
1.00115 1 1.00261 0.998544
1.00121 1 1.00274 0.998476
1.00083 1 1.00227 0.998561
0.998688 1 1 0.998688
1.00177 1 1.00327 0.998498
0.998762 1 1.00028 0.998481
1.00643 1 1.00777 0.998672
1.02154 0.99929 1.02318 0.999105
1.00238 1 1.00388 0.99851
0.998442 1 1 0.998442
0.998719 1 1 0.998719
0.998771 1 1.00009 0.998677
0.998826 1 1.00029 0.998538
0.999365 1 1.00068 0.998684
0.999216 1 1.0005 0.998713
1.00113 1 1.00251 0.998619
0.999483 1 1.00092 0.998569
1.00106 1 1.00235 0.998714
0.998885 1 1.00041 0.998477
0.998866 1 1.00093 0.997939
1.00113 1 1.00275 0.998386
1.00127 1 1.00278 0.998495
1.00104 1 1.00232 0.998732
0.999942 1 1.00112 0.998818
0.999161 1 1 0.999161
0.999282 1 1.00042 0.998858
0.999177 1 1 0.999177
0.999687 1 1 0.999687
0.999095 1 1 0.999095
0.999693 1 1 0.999693
0.999999 1 1 0.999999
0.999701 1 1 0.999701
1 1 1 1
1 1 1 1
1 1 1 1
1 1 1 1
1 1 1 1
0.999469 1 1 0.999469
0.999919 1 1 0.999919
0.999456 1 1 0.999456
1 1 1 1
0.999936 1 1 0.999936
0.999929 1 1 0.999929
1 1 1 1
1 1 1 1
1 1 1 1
1 1 1 1
1 1 1 1
0.801721 0.878265 0.94564 0.965321
0.749616 0.842399 0.930555 0.956266
0.936443 0.979902 0.965025 0.990285
0.998465 1.01871 0.982627 0.997454
1.04159 1.05617 0.988482 0.997684
0.931171 0.961659 0.975797 0.992314
1.01035 1.02575 0.987605 0.997349
0.942268 0.989672 0.972721 0.978802
0.776859 0.862258 0.933784 0.964848
0.681746 0.810248 0.885259 0.95046
0.963232 0.996243 0.972452 0.994255
0.931385 0.972546 0.978771 0.978448
0.760576 0.858726 0.916966 0.965906
0.75715 0.878649 0.903269 0.954002
0.999412 1 1.00071 0.9987
0.999112 1 1 0.999112
0.99949 1 1 0.99949
0.999053 1 1 0.999053
0.998875 1 1 0.998875
0.999448 1 1.00076 0.998689
0.998843 1 1 0.998843
0.998786 1 1 0.998786
0.999001 1 1 0.999001
0.999065 1 1 0.999065
1.00027 1.03978 0.964092 0.997839
0.994373 1.02608 0.97135 0.997686
0.997707 1.0087 0.991602 0.997483
0.99277 1.00111 0.993891 0.997765
1.03842 1.00088 1.03985 0.997743
1.02183 1 1.02381 0.998063
0.998657 1 1 0.998657
0.998855 1 1.00016 0.998698
0.990032 1.02712 0.965954 0.997862
1.00252 1 1.00422 0.998307
1.00637 1 1.00807 0.998307
0.98344 1.00716 0.978718 0.997682
0.980949 1.00082 0.982236 0.997873
0.996311 1.00163 0.996662 0.998018
1.03845 1 1.04057 0.997963
0.987086 1.00415 0.984824 0.998154
0.977201 1.00017 0.978453 0.998547
1.01441 1.00079 1.01541 0.998218
1.00612 1 1.00786 0.998273
1.00552 1 1.00739 0.998142
1.02381 1 1.02576 0.998095
0.804951 0.869692 0.960396 0.963726
0.81354 0.889846 0.944452 0.96802
0.916104 0.973168 0.962986 0.977545
1.00009 1 1.00178 0.998315
1.00664 1.00171 1.00705 0.997882
0.992623 1.00862 0.98609 0.998023
1.00921 1.00148 1.01 0.99774
0.79914 0.882242 0.935645 0.968108
0.928715 0.974165 0.97518 0.977608
0.902674 0.948081 0.965641 0.985983
0.961528 0.973464 0.989355 0.998367
0.765538 0.856642 0.927731 0.963264
0.743811 0.837696 0.929909 0.954851
0.758801 0.882647 0.899322 0.955929
1.00258 1 1.00388 0.99871
0.786169 0.859127 0.953449 0.959757
0.867298 0.932884 0.963939 0.964476
0.99124 0.99765 0.994792 0.998776
1.0138 1.00144 1.01376 0.998607
0.971597 0.967627 1.00574 0.998373
0.902956 0.939684 0.973441 0.987132
0.908187 0.946417 0.982037 0.977159
0.795576 0.880049 0.937527 0.964254
0.798029 0.913871 0.909982 0.959625
1.00657 0.999365 1.00778 0.999435
0.876601 0.936179 0.965625 0.969693
0.849601 0.925234 0.947833 0.968794
0.99217 0.978192 1.01458 0.999715
0.927852 0.93638 0.998049 0.99283
0.914888 0.938798 0.998389 0.976104
0.832453 0.901287 0.959012 0.963103
0.828621 0.946626 0.912973 0.958781
1.00082 1 1.00202 0.998808
1.0044 0.999981 1.00534 0.999091
1.02131 0.999528 1.02246 0.999354
0.998687 1 1 0.998687
0.998662 1 1.00018 0.998482
1.00014 1 1.00165 0.99849
1.00715 1 1.00844 0.998722
0.998441 1 1 0.998441
1.00268 1 1.00419 0.998502
1.02658 0.999794 1.02764 0.999178
1.03948 0.996707 1.04349 0.999446
1.02892 0.999873 1.03001 0.999068
0.998467 1 1 0.998467
0.998989 1 1.00046 0.998532
0.999181 1 1.00051 0.998676
0.998768 1 1 0.998768
0.999166 1 1.00058 0.998585
1.00069 1 1.00207 0.99862
1.00147 1 1.00275 0.998727
1.00051 1 1.00191 0.998601
1.00625 1 1.00727 0.998985
0.998481 1.00001 0.999908 0.998563
0.99932 1.0003 1.00052 0.998504
0.998823 1 1.00069 0.99813
0.999642 1.00085 1.00153 0.997274
1.00146 1 1.00317 0.998291
0.998891 1 1.00079 0.998101
1.00087 1 1.00247 0.99841
1.0015 1 1.00292 0.998585
1.00096 1 1.00247 0.998494
1.00072 1 1.00199 0.998731
0.999134 1 1.00005 0.999087
1 1 1.00119 0.998816
0.999159 1 1 0.999159
0.999677 1 1 0.999677
0.999178 1 1 0.999178
0.999687 1 1 0.999687
0.999996 1 1 0.999996
0.999695 1 1 0.999695
0.999998 1 1 0.999998
1 1 1 1
1 1 1 1
1 1 1 1
1 1 1 1
0.999269 1 1 0.999269
0.999889 1 1 0.999889
0.999403 1 1 0.999403
1 1 1 1
0.999923 1 1 0.999923
0.999457 1 1 0.999457
1 1 1 1
1 1 1 1
0.999937 1 1 0.999937
1 1 1 1
1 1 1 1
1 1 1 1
0.782631 0.856826 0.95111 0.960359
0.806946 0.885557 0.942984 0.966326
0.863655 0.932826 0.960276 0.964148
0.743972 0.837986 0.929588 0.955057
0.931683 0.970059 0.970111 0.99003
1.00807 1.02523 0.985749 0.99747
0.948907 0.988205 0.979965 0.979865
0.784337 0.865945 0.937223 0.966429
0.683274 0.819192 0.881002 0.946743
0.961758 0.991966 0.975941 0.993448
0.927091 0.972963 0.977221 0.975064
0.773046 0.867329 0.924225 0.96437
0.759939 0.884232 0.902511 0.95227
0.942368 0.979536 0.970275 0.991528
0.914644 0.945236 0.992986 0.97447
0.796017 0.885243 0.933913 0.962838
0.805063 0.924922 0.91065 0.955813
1.0006 1 1.00213 0.998469
0.998925 1 1.00018 0.998742
0.999141 1 1 0.999141
0.998921 1 1 0.998921
0.998739 1 1.00034 0.998401
0.998954 1 1.00023 0.998725
0.998829 1 1 0.998829
0.998753 1 1 0.998753
0.998821 1 1 0.998821
0.998965 1 1 0.998965
0.991342 1.02837 0.966015 0.997909
0.98493 1.00638 0.981027 0.997612
0.979121 1.00075 0.98038 0.997966
1.0005 1.00279 0.999782 0.997936
1.03175 1 1.0339 0.997926
1.00542 1 1.00716 0.998269
1.00302 1 1.00475 0.998279
1.00539 1 1.00716 0.998243
0.984329 1.00456 0.981666 0.998159
1.00434 1 1.00621 0.998139
1.0244 1 1.02637 0.998083
0.976116 1.00063 0.976968 0.9985
1.01239 1.00174 1.01248 0.998179
0.957628 0.986452 0.972132 0.998609
0.994113 0.996385 0.998485 0.999233
1.03665 0.999736 1.03855 0.998429
1.0025 1 1.00436 0.998151
1.01308 1 1.01498 0.998128
0.884452 0.939361 0.968234 0.972436
0.808055 0.869568 0.964581 0.963382
0.802436 0.883978 0.939101 0.966622
1.00301 1 1.0043 0.998711
1.01367 1.00019 1.01493 0.99857
0.9898 0.996465 0.994442 0.998864
0.791802 0.862846 0.955295 0.960607
0.913923 0.945103 0.992142 0.974668
0.904518 0.937757 0.975709 0.988568
0.962069 0.963741 0.999633 0.998631
0.794358 0.879187 0.935495 0.965814
0.873905 0.937839 0.966295 0.964331
0.802381 0.917385 0.911322 0.959749
1.00492 0.99911 1.00642 0.999398
0.873264 0.934622 0.962289 0.970966
0.850276 0.925871 0.947907 0.96882
0.994982 0.98215 1.01351 0.999558
0.938046 0.944905 1.00021 0.992535
0.893772 0.931736 0.985244 0.973621
0.830473 0.947051 0.913825 0.959597
0.844413 0.908415 0.9644 0.963858
1.00528 0.986103 1.01974 0.999711
0.855766 0.920455 0.951364 0.97725
0.867505 0.943601 0.94774 0.970051
0.805547 0.924434 0.911517 0.955983
0.973375 0.961324 1.01445 0.998113
0.938846 0.951686 1.00956 0.977169
0.877753 0.931821 0.976231 0.964911
1.00435 0.999797 1.00547 0.999087
1.0213 0.99932 1.02274 0.999272
1.0223 0.988796 1.03433 0.999566
0.99844 1 1 0.99844
1.00289 1 1.00441 0.998493
1.03219 1 1.03296 0.999251
0.998509 1 1.00003 0.998474
1.02821 0.999964 1.02919 0.999079
1.04035 0.996839 1.04425 0.999421
1.0294 0.994962 1.03514 0.999489
1.0207 0.999928 1.02174 0.999058
0.999089 1 1.00049 0.998602
1.00065 1 1.00204 0.99862
1.00202 1 1.00328 0.998741
1.00518 1 1.00623 0.99896
1.00004 1 1.00144 0.998604
1.00286 1 1.00398 0.99889
0.998771 1 0.999975 0.998796
1.00129 1 1.00351 0.997796
0.999707 1.00061 1.00057 0.998532
0.999013 1.00039 1.00057 0.99806
0.998313 1.00025 1.00101 0.997058
1.00781 1.00946 1.00129 0.997073
1.00127 1.00053 1.00276 0.997987
0.999371 1.00068 1.00138 0.997312
1.00452 1 1.00611 0.998415
1.00209 1.00001 1.00382 0.998271
0.998906 1 1.00065 0.998262
1.00068 1 1.00225 0.998434
1.00124 1 1.00262 0.998619
0.999042 1 1.00006 0.998982
1.0006 1 1.00188 0.998729
0.999123 1 1.00004 0.999086
0.999637 1 1 0.999637
0.999157 1 1 0.999157
0.999675 1 1 0.999675
0.999994 1 1 0.999994
0.999688 1 1 0.999688
0.999996 1 1 0.999996
1 1 1 1
0.999998 1 1 0.999998
1 1 1 1
1 1 1 1
0.999059 1 1 0.999059
0.999727 1 1 0.999727
0.999267 1 1 0.999267
1 1 1 1
0.999845 1 1 0.999845
0.999337 1 1 0.999337
1 1 1 1
1 1 1 1
0.999927 1 1 0.999927
1 1 1 1
1 1 1 1
1 1 1 1
0.871222 0.936419 0.958759 0.970397
0.777224 0.855926 0.944373 0.961538
0.804727 0.881881 0.944602 0.966027
0.998634 1 1 0.998634
0.8546 0.92278 0.954084 0.970685
0.862361 0.932397 0.959397 0.964028
0.744711 0.842927 0.923889 0.956264
0.968595 0.994378 0.981505 0.992425
0.927217 0.96851 0.978981 0.977919
0.779122 0.879018 0.920687 0.96271
0.755042 0.874462 0.906006 0.953014
0.941204 0.977538 0.973714 0.988823
0.906372 0.942563 0.984254 0.976987
0.80726 0.890421 0.941312 0.963128
0.80147 0.918965 0.91216 0.95613
0.90788 0.945782 0.973304 0.986254
0.908028 0.932079 0.999551 0.974634
0.856787 0.91965 0.96644 0.963997
0.828804 0.945656 0.914154 0.958736
1.00047 1 1.00223 0.998247
1.00161 1 1.00318 0.99843
0.998783 1 1 0.998783
0.998436 1 1 0.998436
0.998838 1 1.00038 0.998458
0.998761 1 1 0.998761
0.99876 1 1 0.99876
0.998855 1 1 0.998855
0.980088 1.00531 0.976709 0.998161
0.973288 1.00046 0.974347 0.998458
1.00489 1 1.00669 0.998214
1.01112 1.00272 1.01025 0.998139
1.02627 1 1.02825 0.998072
1.00376 1 1.00564 0.998137
1.00287 1 1.00472 0.998159
0.963896 0.988518 0.976376 0.998684
1.01263 1 1.01449 0.998165
1.02718 1.00032 1.02844 0.998454
0.989421 0.99616 0.993947 0.999283
1.00263 1 1.00439 0.998243
0.957937 0.976315 0.982555 0.998596
1.00504 0.99229 1.0134 0.99946
1.04632 0.997909 1.05004 0.998547
1.00251 1 1.0042 0.998318
0.867255 0.923826 0.958613 0.979294
0.883518 0.938927 0.967621 0.972475
0.812647 0.869518 0.970467 0.963035
1.00297 0.998648 1.00497 0.999363
0.999002 0.985814 1.01398 0.999404
0.871549 0.934532 0.959256 0.972216
0.920218 0.936423 1.00608 0.976756
0.928771 0.942193 0.996137 0.989577
0.846415 0.911309 0.964757 0.96272
0.850979 0.926786 0.947739 0.968837
0.833437 0.948453 0.914954 0.960413
1.0082 0.990911 1.01778 0.999669
0.857238 0.92147 0.951974 0.977226
0.866123 0.941635 0.946423 0.971878
0.982701 0.967596 1.01605 0.999567
0.80128 0.918173 0.912636 0.95623
0.919585 0.936999 1.00602 0.975538
0.886147 0.94128 0.976153 0.964427
1.00713 0.983747 1.02401 0.999764
0.876053 0.938708 0.953295 0.978977
0.85291 0.921153 0.953724 0.970842
0.755163 0.877584 0.901833 0.95417
0.856811 0.920718 0.965762 0.96358
0.95917 0.957541 1.00566 0.996059
0.943176 0.947611 1.02345 0.972517
1.01916 0.999664 1.02033 0.999191
1.02431 0.990162 1.03496 0.999534
1.00853 0.978883 1.03072 0.999582
0.998482 1 1 0.998482
1.02867 1 1.0296 0.999091
1.04079 0.998282 1.04321 0.999396
1.01555 0.999936 1.01658 0.999045
1.02861 0.996237 1.03302 0.999488
1.01266 0.992991 1.02058 0.999238
1.0038 1 1.00487 0.998935
0.999554 1 1.00095 0.998606
1.00449 1 1.00563 0.998869
1.0078 1 1.00958 0.998243
0.999028 1 1 0.999028
1.00038 1.00001 1.00242 0.997958
1.00163 1.00065 1.00413 0.996861
1.00482 1.00652 1.00188 0.996438
0.999193 1.0008 1.0004 0.997989
0.998694 1.0007 1.00109 0.996901
1.00919 1.01153 1.00053 0.997166
1.00471 1.00451 1.00261 0.997592
1.00738 1.00899 1.00125 0.99715
1.00608 1 1.00787 0.998221
1.00249 1.00128 1.00325 0.997971
0.998879 1.00025 1.00128 0.997352
0.999514 1 1.0007 0.998817
1.00414 1 1.00573 0.998422
1.00276 1 1.00452 0.998252
1.00109 1 1.00244 0.998652
0.999098 1 1.00012 0.998981
0.999561 1 1 0.999561
0.999159 1 1.00007 0.999086
0.999634 1 1 0.999634
0.999992 1 1 0.999992
0.999672 1 1 0.999672
0.999994 1 1 0.999994
1 1 1 1
0.999995 1 1 0.999995
1 1 1 1
1 1 1 1
0.998976 1 1 0.998976
0.999607 1 1 0.999607
0.999098 1 1 0.999098
1 1 1 1
0.999715 1 1 0.999715
0.999265 1 1 0.999265
1 1 1 1
1 1 1 1
0.999801 1 1 0.999801
1 1 1 1
1 1 1 1
1 1 1 1
0.860748 0.922684 0.95411 0.977743
0.874105 0.936191 0.962185 0.970378
0.77731 0.856424 0.943778 0.961691
0.998662 1 1 0.998662
0.998594 1 1 0.998594
0.998511 1 1 0.998511
0.866183 0.944623 0.945426 0.969892
0.851525 0.922318 0.951095 0.970717
0.862321 0.931963 0.959915 0.963913
0.944936 0.980523 0.972729 0.990724
0.900475 0.940495 0.982625 0.974378
0.795617 0.873001 0.943796 0.965631
0.814552 0.928295 0.918638 0.955188
0.911665 0.94893 0.971685 0.988725
0.909669 0.934035 0.998687 0.975194
0.835554 0.896461 0.965854 0.965009
0.829428 0.946891 0.912914 0.959509
0.902666 0.937661 0.975552 0.986804
0.924525 0.940218 1.0074 0.976083
0.877437 0.929958 0.977625 0.965118
0.814322 0.928068 0.915717 0.958198
0.998545 1 1.00027 0.998273
1.00104 1 1.00282 0.998225
1.00158 1 1.0032 0.99839
0.998428 1 1 0.998428
0.998635 1 1.00012 0.998516
0.998767 1 1 0.998767
0.969646 0.988743 0.981921 0.998742
0.985127 0.996226 0.98953 0.999322
1.00311 1 1.00496 0.998166
1.01953 1.00055 1.02052 0.998479
1.0137 1 1.01552 0.998202
1.00341 1 1.0052 0.998218
1.0022 1 1.00386 0.998341
0.965063 0.977078 0.989007 0.998681
1.04393 0.997946 1.04745 0.998684
1.00799 0.988131 1.0207 0.999416
1.00321 1 1.00474 0.998482
0.980014 0.966446 1.0155 0.998562
1.00767 0.981676 1.02704 0.999452
1.03284 0.995845 1.03839 0.998805
0.888861 0.943076 0.960661 0.981108
0.867886 0.924074 0.958577 0.97978
0.882921 0.938464 0.967408 0.972511
1.01224 0.996027 1.01665 0.999627
0.972367 0.965099 1.00894 0.998602
0.858931 0.922557 0.952754 0.977202
0.914359 0.92552 1.00865 0.979464
0.880948 0.937992 0.974622 0.96364
0.865882 0.940013 0.946015 0.973704
0.815836 0.928005 0.920202 0.955365
1.00262 0.980873 1.02239 0.999786
0.877298 0.938841 0.953879 0.97963
0.852422 0.922407 0.95185 0.970875
0.956332 0.953612 1.01029 0.99264
0.758284 0.882975 0.90159 0.952521
0.831832 0.896603 0.961948 0.96446
0.952343 0.951827 1.02501 0.976128
1.00122 0.965443 1.03794 0.999153
0.861426 0.922497 0.954935 0.977865
0.868427 0.936308 0.961715 0.964425
0.683144 0.802459 0.891836 0.954562
0.792377 0.882137 0.93293 0.962823
0.921796 0.937333 1.00815 0.975477
0.935368 0.949199 0.995091 0.99029
1.02845 0.991601 1.03768 0.999501
1.01211 0.984912 1.02804 0.999586
1.01296 0.989816 1.02387 0.999524
1.01043 1 1.01141 0.999032
1.02745 0.997309 1.03075 0.999487
1.01553 0.991461 1.02497 0.99932
1.00875 1 1.00995 0.99882
1.00633 1 1.00749 0.998847
1.0071 1.00001 1.00901 0.998095
1.01572 1.00076 1.01806 0.99694
0.999516 1.00002 1.00137 0.998123
1.00306 1.00112 1.00512 0.996838
1.00441 1.00245 1.00596 0.996013
1.00436 1.00646 1.00191 0.996013
1.00573 1.0079 1.00108 0.996776
1.00457 1.00631 1.00189 0.99639
0.998969 1.00099 1.00124 0.996744
1.00328 1.00475 1.0011 0.997435
1.00921 1.01151 1.00048 0.997252
1.00248 1 1.00464 0.997858
1.00538 1.005 1.00274 0.997648
1.0074 1.00902 1.00117 0.997227
1.00417 1 1.00564 0.99854
1.00512 1 1.00692 0.998221
1.00375 1.00211 1.00368 0.997954
0.99945 1 1 0.99945
0.999767 1 1.00095 0.998815
1.00358 1 1.00516 0.998428
0.998996 1 1.00002 0.998979
0.999557 1 1 0.999557
0.999983 1 1 0.999983
0.99963 1 1 0.99963
0.999989 1 1 0.999989
1 1 1 1
0.999993 1 1 0.999993
1 1 1 1
1 1 1 1
0.998949 1 1 0.998949
0.999597 1 1 0.999597
0.999 1 1 0.999
1 1 1 1
0.999647 1 1 0.999647
0.999137 1 1 0.999137
1 1 1 1
1 1 1 1
0.999703 1 1 0.999703
1 1 1 1
1 1 1 1
1 1 1 1
0.875804 0.938629 0.953219 0.97886
0.862044 0.923287 0.95494 0.977724
0.875184 0.935542 0.964035 0.970383
0.99885 1 1.00033 0.998516
0.998793 1 1.00042 0.998376
0.998691 1 1 0.998691
0.998586 1 1 0.998586
0.998496 1 1 0.998496
0.998491 1 1 0.998491
0.998427 1 1 0.998427
0.848646 0.926792 0.945376 0.96859
0.866981 0.942333 0.946795 0.971737
0.848918 0.921239 0.94926 0.970751
0.830486 0.948242 0.912033 0.96029
0.902702 0.941327 0.972049 0.986543
0.909221 0.931218 1.00058 0.975814
0.844465 0.906309 0.965166 0.965391
0.894586 0.937062 0.968291 0.985934
0.920549 0.933369 1.01301 0.9736
0.886132 0.941429 0.975378 0.965023
0.799149 0.915167 0.910032 0.959557
0.913894 0.941157 0.982522 0.988306
0.931739 0.942288 1.016 0.973236
0.837214 0.905222 0.959985 0.963423
0.772881 0.890734 0.908544 0.955033
1.00703 1 1.00858 0.998471
0.999195 1 1.00091 0.998282
1.00196 1 1.00377 0.998203
0.99842 1 1 0.99842
0.970925 0.976718 0.995275 0.998787
1.00863 0.98485 1.0248 0.999369
1.00245 1 1.00426 0.998194
1.00205 1 1.00369 0.998365
1.03689 0.9971 1.04114 0.998821
1.00241 1 1.00394 0.998476
1.03387 0.99537 1.03994 0.998791
0.977528 0.965135 1.01538 0.997494
1.00637 0.974261 1.03339 0.999585
1.01349 0.994608 1.02008 0.998918
0.962176 0.942012 1.02424 0.997234
1.02127 0.977661 1.04534 0.999296
0.867879 0.923589 0.959485 0.979359
0.886466 0.942291 0.958033 0.981967
0.867965 0.924003 0.958264 0.980265
0.99666 0.976222 1.02114 0.999805
0.962956 0.95876 1.00807 0.996335
0.876849 0.938063 0.953539 0.98029
0.949938 0.95511 1.02212 0.973063
0.83609 0.901843 0.960872 0.964843
0.850816 0.923336 0.949069 0.970908
0.754356 0.873144 0.90632 0.953254
1.00354 0.968126 1.0373 0.999301
0.861469 0.92382 0.95363 0.977849
0.864238 0.933488 0.960086 0.964306
0.937636 0.948762 0.995535 0.992705
0.681146 0.808841 0.885559 0.950954
0.801043 0.885374 0.939598 0.962913
0.920677 0.933257 1.01291 0.973946
0.997794 0.97283 1.02778 0.99794
0.871852 0.937175 0.958426 0.970652
0.749732 0.84182 0.930883 0.956735
0.762057 0.859798 0.917202 0.966332
0.900886 0.92439 0.998557 0.975981
0.906973 0.934648 0.983034 0.987138
1.01412 0.988416 1.02643 0.99959
1.01297 0.987197 1.0266 0.99952
0.990672 0.985998 1.0054 0.999342
1.01839 0.989954 1.02934 0.999402
1.00702 0.994551 1.01365 0.998901
1.00216 1.0008 1.00351 0.997861
1.00669 1.00001 1.00875 0.997947
1.01448 1.00072 1.01695 0.996862
1.00869 1.00043 1.01222 0.996081
1.00466 1.00182 1.00604 0.996814
1.0048 1.00226 1.00664 0.995925
1.00229 1.00216 1.00445 0.99569
1.01383 1.01777 1 0.996124
1.00941 1.01242 1.00077 0.996265
1.00481 1.00669 1.00218 0.995958
1.00231 1.00514 1.00013 0.997061
1.00468 1.00712 1.00074 0.99684
1.00435 1.00613 1.0019 0.996341
1.00016 1.00158 1.00112 0.997471
1.00354 1.00505 1.00108 0.997417
1.00895 1.01121 1.00043 0.997339
1.00506 1 1.00689 0.998175
1.00259 1.00009 1.0046 0.997914
1.00591 1.00533 1.00288 0.997705
0.999748 1 1.00052 0.99923
1.00348 1 1.00494 0.998543
1.00427 1 1.00606 0.998221
0.999969 1 1 0.999969
0.999442 1 1 0.999442
1.00011 1 1.0013 0.998813
0.999552 1 1 0.999552
0.99998 1 1 0.99998
1 1 1 1
0.999987 1 1 0.999987
1 1 1 1
1 1 1 1
0.999745 1 1.00125 0.998501
0.99884 1 1 0.99884
0.999502 1 1 0.999502
0.998946 1 1 0.998946
0.999994 1 1 0.999994
0.999601 1 1 0.999601
0.999025 1 1 0.999025
1 1 1 1
1 1 1 1
0.999686 1 1 0.999686
1 1 1 1
1 1 1 1
1 1 1 1
0.854631 0.920436 0.950229 0.977141
0.875158 0.937715 0.952797 0.979525
0.862996 0.924763 0.954492 0.977702
0.99876 1 1.00023 0.998528
0.999327 1 1.00096 0.998372
0.999303 1 1.00091 0.998393
0.998573 1 1.00019 0.998381
1.00311 1 1.0048 0.99832
0.998577 1 1 0.998577
0.998482 1 1 0.998482
0.998492 1 1 0.998492
0.998431 1 1 0.998431
1.00464 1 1.00617 0.998479
0.8579 0.925652 0.961038 0.96438
0.850439 0.927243 0.946864 0.968639
0.868396 0.941321 0.947568 0.973576
0.801208 0.917951 0.909478 0.959695
0.881732 0.936927 0.976321 0.963914
0.887076 0.9319 0.9667 0.984691
0.927731 0.940516 1.01089 0.975778
0.911491 0.943386 0.980304 0.985604
0.942061 0.951432 1.01472 0.975792
0.847344 0.9093 0.966068 0.964595
0.771736 0.895365 0.903418 0.954069
0.924456 0.938511 0.997332 0.98766
0.927313 0.938236 1.01229 0.976354
0.775459 0.859232 0.935012 0.965232
0.711359 0.839301 0.888436 0.953993
1.0079 1 1.00891 0.999002
1.00834 1 1.00989 0.998473
1.00063 1 1.00234 0.998291
0.978618 0.967897 1.01474 0.996392
1.00947 0.969298 1.04173 0.999727
1.00238 1 1.00391 0.998469
1.03596 0.994927 1.04252 0.998778
1.01471 0.997027 1.01883 0.998925
1.02561 0.982963 1.04413 0.999285
0.96717 0.950418 1.02047 0.997214
1.01907 0.995145 1.02472 0.999345
0.977164 0.963644 1.01667 0.997399
0.882957 0.93899 0.967247 0.972167
0.869017 0.924217 0.959623 0.979837
0.884189 0.941454 0.955583 0.982827
1.00679 0.973322 1.03497 0.999432
0.936039 0.948921 0.99755 0.988848
0.863711 0.925207 0.954701 0.977827
0.924733 0.942317 1.00827 0.973292
0.788539 0.866765 0.942352 0.965403
0.861064 0.930667 0.959565 0.964199
0.682989 0.818258 0.881138 0.947283
0.9973 0.971762 1.02821 0.99812
0.873758 0.936058 0.961689 0.97063
0.744139 0.838084 0.929215 0.955543
0.912132 0.940531 0.981124 0.988464
0.77385 0.867624 0.924514 0.964744
0.89141 0.926141 0.988065 0.974125
0.963489 0.963576 1.00321 0.996708
0.782771 0.857655 0.949955 0.960769
0.77257 0.858516 0.930933 0.966654
0.911647 0.945221 0.989664 0.974554
0.887218 0.930736 0.963669 0.989181
1.01212 0.985086 1.02794 0.999515
0.995205 0.985369 1.01067 0.999316
0.997746 0.996473 1.00277 0.998512
1.00525 0.988652 1.01782 0.998978
1.00163 1.00093 1.00276 0.997946
0.998545 1.00199 0.999491 0.997074
1.0128 1.00065 1.01541 0.996782
1.00702 1.0006 1.01037 0.996091
0.999219 1.00161 1.00137 0.996251
1.0048 1.00195 1.00703 0.995837
1.00245 1.00305 1.0037 0.99572
1.01305 1.01679 1 0.996324
1.03172 1.03521 1 0.996627
1.02216 1.02605 1.00002 0.996193
1.01367 1.01759 1 0.99615
1.00946 1.01296 1 0.996543
1.00787 1.01061 1.00107 0.996215
1.00535 1.00703 1.00244 0.995903
1.00208 1.00487 1 0.997222
1.00099 1.00385 1.00002 0.997135
1.00355 1.00635 1.00032 0.996904
1.00008 1.00018 1.00208 0.997821
1.0007 1.00191 1.0013 0.997504
1.00387 1.00539 1.0011 0.997398
1.00337 1 1.00453 0.998847
1.0046 1 1.00643 0.998178
1.00267 1.00012 1.00459 0.99797
0.999938 1 1 0.999938
1.00019 1 1.00097 0.999222
1.00293 1 1.00439 0.998547
1 1 1 1
0.999962 1 1 0.999962
0.999435 1 1 0.999435
0.999976 1 1 0.999976
1 1 1 1
1 1 1 1
1.00137 1 1.00295 0.998421
0.999124 1 1.0004 0.998722
0.999867 1 1.00138 0.998485
0.99941 1 1 0.99941
0.998883 1 1.00004 0.998839
0.999979 1 1 0.999979
0.999506 1 1 0.999506
0.998943 1 1 0.998943
1 1 1 1
0.999997 1 1 0.999997
0.999604 1 1 0.999604
1 1 1 1
1 1 1 1
1 1 1 1
0.872509 0.93652 0.958003 0.972492
0.857061 0.922022 0.95131 0.977121
0.875095 0.936283 0.953534 0.980194
0.998673 1 1.00027 0.998407
0.999043 1 1.0005 0.99854
0.999453 1 1.00109 0.998368
0.998673 1 1.00029 0.998384
0.999123 1 1.00071 0.998413
1.00156 1 1.00319 0.998375
1.00825 1 1.01014 0.998127
1.00958 1 1.01127 0.998333
0.998494 1 1 0.998494
0.998435 1 1 0.998435
1.00431 1 1.00585 0.998466
1.01512 1 1.01647 0.998677
0.75332 0.844261 0.933531 0.955816
0.867075 0.934036 0.96278 0.964197
0.851541 0.927116 0.948185 0.968676
0.761497 0.886252 0.899213 0.95554
0.851876 0.915964 0.964924 0.96384
0.933772 0.943431 1.01692 0.973296
0.914422 0.938917 0.987428 0.986311
0.923448 0.937388 0.995474 0.989608
0.697655 0.829831 0.884507 0.950495
0.921249 0.934697 1.01203 0.973893
0.79423 0.879558 0.936911 0.963792
0.921188 0.942858 0.986463 0.990424
0.913135 0.934474 0.999858 0.977304
0.764196 0.862662 0.917955 0.965035
0.99964 1 1.00009 0.999546
1.00756 1 1.00856 0.999008
1.00869 1 1.01023 0.998474
0.964094 0.9488 1.01893 0.997244
1.02987 0.988239 1.04289 0.999273
1.01528 0.998563 1.01783 0.998933
1.019 0.996586 1.02316 0.999344
0.974585 0.962984 1.01464 0.997446
0.995185 0.988175 1.00887 0.998236
0.806826 0.870185 0.964761 0.961056
0.880511 0.938227 0.963698 0.973836
0.868312 0.924278 0.958317 0.980311
0.997995 0.970301 1.03034 0.998253
0.902682 0.935951 0.974882 0.989304
0.873092 0.93492 0.962124 0.970631
0.896198 0.919431 0.999255 0.975458
0.78215 0.881449 0.921285 0.963161
0.744824 0.842932 0.92357 0.956735
0.964392 0.961847 1.00589 0.996778
0.777268 0.856413 0.943508 0.961927
0.777573 0.862436 0.933971 0.965341
0.889938 0.931619 0.968534 0.986295
0.905758 0.945361 0.980643 0.97702
0.953902 0.970648 0.984343 0.99838
0.798447 0.875879 0.944024 0.965649
0.932636 0.974905 0.977868 0.978294
0.902441 0.94585 0.967585 0.986069
0.99934 0.984315 1.01598 0.999293
0.989732 0.995973 0.995114 0.998613
0.993773 1.00201 0.994015 0.99775
1.00169 1.0011 1.00256 0.998031
1.00156 1.00242 1.00209 0.997058
1.00023 1.0037 0.999428 0.997114
1.00577 1.0008 1.0089 0.9961
0.999146 1.00122 1.00167 0.996263
1.01867 1.02197 0.999716 0.997054
1.00289 1.00397 1.00319 0.99575
1.01214 1.01586 1 0.996335
1.03215 1.0351 0.999984 0.997172
1.03545 1.03836 1 0.997199
1.0343 1.03788 1 0.996546
1.0315 1.03495 1 0.996667
1.02269 1.02638 1 0.996408
1.02088 1.02473 1 0.996245
1.01329 1.01718 1 0.996175
1.0116 1.01473 1 0.996907
1.00952 1.01285 1.00014 0.996571
1.0064 1.00878 1.00148 0.996164
0.999354 1.00183 1 0.99753
1.00271 1.00551 1 0.997216
0.999802 1.0026 1 0.997208
1.00271 1 1.00427 0.998439
1.00066 1.00058 1.00226 0.997821
1.00117 1.00219 1.00145 0.997537
1.00003 1 1.00018 0.999847
1.00284 1 1.004 0.998843
1.0038 1 1.00563 0.998181
1 1 1 1
0.999925 1 1 0.999925
1.00057 1 1.00136 0.999214
1 1 1 1
0.999956 1 1 0.999956
1 1 1 1
0.999304 1 1.00096 0.998344
1.00083 1 1.00242 0.998413
1.00101 1 1.00242 0.998595
0.999577 1 1.00026 0.999314
0.999361 1 1.00064 0.998721
0.999454 1 1.00099 0.998469
0.999956 1 1 0.999956
0.999414 1 1 0.999414
0.998837 1 1 0.998837
1 1 1 1
0.999984 1 1 0.999984
0.999509 1 1 0.999509
1 1 1 1
0.999999 1 1 0.999999
1 1 1 1
0.78422 0.855877 0.956306 0.958143
0.872154 0.936051 0.958088 0.972497
0.859976 0.924055 0.952463 0.977103
1.00049 1 1.00211 0.998388
1.0028 1.00082 1.0038 0.998179
1.0067 1 1.00846 0.998261
0.999288 1 1.0009 0.998387
0.998973 1 1.00054 0.998433
1.00148 1 1.00306 0.998429
1.00836 1 1.01006 0.998311
1.00775 1 1.00961 0.998154
1.00936 1 1.01135 0.998036
0.991977 1.00046 0.992527 0.998983
1.00319 1 1.00475 0.998454
1.01195 0.999981 1.01334 0.998646
0.776838 0.858608 0.938852 0.963692
0.741753 0.833799 0.932563 0.953937
0.873705 0.939332 0.964807 0.964063
0.685315 0.819105 0.883564 0.946918
0.794602 0.878393 0.937082 0.965346
0.912194 0.931299 1.00356 0.976012
0.931178 0.944108 0.999122 0.987171
0.91389 0.938104 0.985644 0.988377
0.765315 0.855719 0.927793 0.963958
0.897541 0.925368 0.994413 0.975378
0.905963 0.943381 0.970634 0.98939
0.898583 0.94587 0.974356 0.97501
1.00484 1 1.00583 0.999021
0.999271 1 0.999784 0.999487
1.0073 1 1.00829 0.999014
0.973202 0.963501 1.01261 0.99749
1.0189 0.998015 1.0216 0.999344
0.995623 0.988969 1.00858 0.998161
0.985673 0.993407 0.994905 0.997296
0.804893 0.892858 0.931263 0.968018
0.808419 0.869417 0.966701 0.96187
0.880851 0.938946 0.961705 0.975483
0.966388 0.967593 1.00185 0.996914
0.891659 0.932097 0.969336 0.986879
0.777677 0.857293 0.942906 0.962059
0.897421 0.939881 0.979691 0.974619
0.786408 0.868543 0.936415 0.966915
0.958174 0.972938 0.987272 0.997521
0.806389 0.885188 0.942408 0.966652
0.930116 0.975881 0.977344 0.975198
0.908222 0.948038 0.969216 0.98843
0.963238 0.987215 0.977406 0.998266
0.935725 0.981276 0.975414 0.977615
0.940701 0.979775 0.96952 0.990304
0.980602 0.994477 0.987329 0.998703
0.990695 1.00233 0.990651 0.997724
0.981713 1.00742 0.976814 0.997616
1.00338 1.00278 1.00356 0.997042
0.999473 1.00373 0.998648 0.99711
1.02078 1.02968 0.993632 0.997709
0.99884 1.00071 1.00186 0.996275
1.01804 1.0219 0.999182 0.997037
1.03206 1.03812 0.996442 0.997716
1.01117 1.01487 1 0.996346
1.03147 1.03469 0.999721 0.997168
1.03626 1.03953 0.999187 0.997665
1.03298 1.03553 1 0.997541
1.03635 1.0392 1 0.997264
1.03543 1.03849 1 0.997056
1.03509 1.03861 1 0.996612
1.03451 1.03808 1 0.996559
1.03139 1.0348 1 0.996707
1.02264 1.02606 1 0.996665
1.02424 1.0279 1 0.99644
1.01964 1.02343 1 0.996298
1.00538 1.00815 1 0.997256
1.01077 1.01391 1 0.996902
1.00959 1.01287 1.00017 0.996599
0.998491 1.00007 1.00026 0.998158
1.00075 1.00323 1 0.997527
1.00336 1.00617 1 0.997209
1.00062 1 1.00096 0.999655
1.00195 1 1.00352 0.998441
1.0015 1.00103 1.00265 0.99782
1 1 1 1
1.00047 1 1.00064 0.999824
1.00248 1 1.00364 0.998839
1 1 1 1
0.999911 1 1 0.999911
1 1 1 1
0.998304 1.00005 1 0.998255
1.00009 1 1.00173 0.998354
1.00173 1 1.00327 0.998469
1.00009 1 1.00168 0.998404
1.00123 1 1.00264 0.998594
1.00037 1 1.00119 0.999187
0.999929 1 1 0.999929
0.999472 1 1.00016 0.999317
0.999859 1 1.00114 0.998719
1 1 1 1
0.999963 1 1 0.999963
0.999417 1 1 0.999417
1 1 1 1
0.999989 1 1 0.999989
1 1 1 1
0.807605 0.881456 0.947851 0.966626
0.787066 0.859172 0.955854 0.958384
0.871332 0.935488 0.957763 0.972495
1.00245 1 1.00409 0.998369
1.00849 1 1.01037 0.998139
1.00125 1.00046 1.00255 0.998249
0.999543 1.00151 1.00051 0.997528
1.00804 1.00038 1.00954 0.998127
1.00762 1 1.00934 0.99829
1.00623 1 1.00807 0.998181
1.01189 1.00011 1.0137 0.998095
0.997986 1.00016 1 0.99783
0.98299 1.00073 0.983592 0.998657
0.984644 1.00035 0.9865 0.997768
0.992486 1.00029 0.993165 0.999029
1.00724 1 1.00864 0.998614
0.920733 0.968643 0.973282 0.976633
0.775856 0.855462 0.940283 0.964544
0.742097 0.836158 0.929972 0.954339
0.76346 0.857483 0.925339 0.962188
0.909392 0.935648 0.997158 0.974709
0.91627 0.933755 0.99066 0.990527
0.907799 0.94273 0.971793 0.990897
0.910096 0.947554 0.982158 0.977916
0.934682 0.974144 0.969189 0.989994
0.996865 1.00132 0.997329 0.998218
1.00446 1 1.00546 0.998999
0.999087 1 0.999658 0.999428
0.996893 0.990968 1.00788 0.998119
0.990452 0.996867 0.996158 0.997397
0.911774 0.968572 0.963042 0.977485
0.814158 0.891287 0.943541 0.968123
0.809795 0.867616 0.969512 0.962708
0.964977 0.977733 0.990302 0.996619
0.909129 0.948881 0.971489 0.986225
0.806116 0.882246 0.945541 0.966335
0.927292 0.969041 0.978629 0.977815
0.97086 0.987084 0.985206 0.998334
0.943636 0.989564 0.974396 0.978645
0.937207 0.976845 0.971073 0.988003
0.986208 1.00425 0.984277 0.99772
0.960066 0.993974 0.972419 0.993282
0.991629 1.00465 0.989304 0.997716
0.981928 1.007 0.977482 0.997566
1.00043 1.03224 0.971245 0.997872
0.998982 1.00377 0.998123 0.997105
1.02129 1.02984 0.993996 0.997686
1.03092 1.04607 0.987504 0.997982
1.01742 1.02186 0.998635 0.997021
1.03153 1.03829 0.99579 0.997694
1.02883 1.03847 0.992801 0.997903
1.03077 1.03432 0.999403 0.997164
1.03632 1.04003 0.99879 0.997645
1.03402 1.03803 0.9984 0.997733
1.03358 1.03609 0.999992 0.997594
1.03229 1.03506 0.99997 0.997354
1.03724 1.04002 1 0.997328
1.03536 1.03842 1 0.997047
1.0372 1.04045 1 0.996876
1.03172 1.03516 1 0.996678
1.03491 1.03843 1 0.996601
1.03469 1.03825 1 0.996571
1.01583 1.01885 1 0.997038
1.02197 1.02538 1 0.996679
1.02579 1.02943 1 0.996472
0.999204 1.00126 1 0.997947
1.00658 1.00935 1 0.997253
1.00988 1.01302 1 0.996897
1.00012 1 1.0007 0.999421
0.998902 1.00032 1.00043 0.998158
1.00216 1.00465 1 0.997524
1 1 1 1
1.00077 1 1.00114 0.99963
1.00114 1 1.0027 0.998442
1 1 1 1
1.00089 1 1.00109 0.9998
1 1 1 1
1.00142 1.00381 1 0.997616
0.99831 1.00006 1 0.998247
0.999943 1 1.00166 0.998287
1.00108 1 1.00272 0.998364
1.00149 1 1.00305 0.998443
1.00111 1 1.00212 0.998992
1.00144 1 1.00285 0.998593
0.999993 1 1.0008 0.999189
0.999895 1 1 0.999895
1 1 1 1
0.999937 1 1 0.999937
0.999333 1 1.00001 0.999319
1 1 1 1
0.99997 1 1 0.99997
1 1 1 1
0.936131 0.982536 0.972729 0.979481
0.80472 0.886569 0.938371 0.967293
0.794411 0.863807 0.960486 0.957498
1.00993 1 1.01194 0.998017
0.999462 1.00002 1.00113 0.998319
1.0065 1.0003 1.00811 0.998104
1.00077 1.00244 1.00075 0.997589
1.00799 1.01077 1.00016 0.997094
0.998272 1.0005 1 0.997773
1.01492 1.00022 1.01657 0.998152
0.998038 1.00039 1 0.997646
0.987767 1.00081 0.988313 0.998635
0.99614 1.00086 0.997495 0.997787
0.980815 1.00303 0.9799 0.997912
0.995855 1.00129 0.997187 0.99738
0.985198 1.00082 0.98646 0.997904
0.99592 1.00011 0.996732 0.999076
0.937188 0.978622 0.967256 0.99008
0.924276 0.971874 0.973388 0.977025
0.776584 0.856912 0.937558 0.966617
0.918146 0.952671 0.988899 0.974578
0.911056 0.941653 0.975468 0.991839
0.938843 0.973035 0.971672 0.99299
0.989666 1.00377 0.988239 0.997686
0.994762 1.00067 0.995876 0.998214
1.00414 1 1.00516 0.998978
0.991693 0.999353 0.994845 0.997478
0.946764 0.974978 0.98058 0.990293
0.927064 0.974974 0.969874 0.980396
0.802461 0.88521 0.93777 0.966676
0.971905 0.983973 0.989325 0.998392
0.939181 0.979917 0.9685 0.989601
0.94967 0.988687 0.980501 0.979638
0.978723 1.00269 0.978295 0.997753
0.958741 0.990369 0.975326 0.992554
0.980419 1.02425 0.959468 0.997646
1.00059 1.01634 0.98767 0.996792
0.981384 1.00657 0.977415 0.99751
0.998773 1.03098 0.970831 0.997867
1.00576 1.04874 0.961042 0.997902
1.02216 1.03045 0.994271 0.997663
1.03073 1.0459 0.987507 0.997964
1.02467 1.04156 0.985901 0.997853
1.03127 1.03859 0.995271 0.997672
1.02834 1.03779 0.992996 0.997884
1.03367 1.04275 0.993574 0.997704
1.03645 1.0405 0.998483 0.997625
1.0323 1.03636 0.998347 0.997725
1.03367 1.03708 0.999254 0.997453
1.03417 1.03662 0.999996 0.997645
1.03256 1.03527 0.999987 0.997399
1.03589 1.03895 1 0.997051
1.03534 1.03842 1 0.997039
1.03716 1.04042 1 0.996865
1.03467 1.03796 1 0.99683
1.02339 1.02655 1 0.996918
1.03172 1.03515 1 0.996687
1.03467 1.03821 1 0.99659
1.00266 1.00492 1 0.997758
1.01535 1.01836 1 0.997041
1.02139 1.02478 1 0.996693
0.999221 1 1 0.999221
1.00015 1.00221 1 0.997945
1.00753 1.01031 1 0.997249
1 1 1 1
0.999898 1 1.00049 0.999404
0.999232 1.00054 1.00054 0.998159
1 1 1 1
1.00091 1 1.00131 0.999606
1 1 1 1
1.00883 1.01167 1 0.997192
1.00203 1.00441 1 0.997637
1.00218 1.00364 1.00066 0.99788
0.99838 1.00014 1 0.998238
0.99986 1 1.00161 0.99825
1.00081 1 1.00208 0.998727
1.00137 1 1.00296 0.998417
1.00093 1 1.00194 0.998993
1.00014 1 1.0003 0.999842
0.999713 1 1.00052 0.99919
0.999904 1 1 0.999904
1 1 1 1
1 1 1 1
0.999946 1 1 0.999946
1 1 1 1
0.938346 0.978771 0.96773 0.990668
0.929113 0.982069 0.968331 0.977018
0.797155 0.879815 0.936011 0.967988
1.02064 1.0238 1.00007 0.996848
1.0051 1.00024 1.0068 0.99808
1.00224 1.00359 1.00101 0.99765
0.998189 1.00044 1 0.997747
1.00784 1.01036 1.00042 0.997078
1.00196 1.00432 1 0.997648
0.998116 1.00066 1 0.997462
0.990187 1.00073 0.990841 0.998614
0.994415 1.00111 0.995502 0.997805
0.975927 1.0021 0.975994 0.997832
1.00098 1.00693 0.996934 0.997151
1.00121 1.00683 0.997032 0.997376
0.996624 1.00195 0.997337 0.997336
0.98515 1.00134 0.985767 0.99804
0.988194 1.00613 0.983963 0.998185
0.933409 0.977799 0.965302 0.988915
0.927207 0.973596 0.973944 0.977831
0.931885 0.967839 0.971621 0.990974
0.992788 1.00556 0.989001 0.998279
0.994843 1.0002 0.996433 0.998205
0.988638 1.00668 0.985426 0.9966
0.933633 0.962193 0.978436 0.991703
0.914309 0.97182 0.96238 0.977599
0.973883 1.00083 0.975233 0.997785
0.965407 0.992216 0.981226 0.991597
0.98364 1.02529 0.961558 0.99773
1.0009 1.01582 0.98826 0.997011
0.995446 1.03722 0.961904 0.997732
1.03962 1.04871 0.993728 0.997594
0.996337 1.02912 0.970223 0.99786
1.00919 1.05012 0.963054 0.997891
1.01393 1.05092 0.967014 0.997711
1.02982 1.04515 0.987357 0.997946
1.02353 1.0408 0.985525 0.997849
1.03225 1.0476 0.987721 0.99759
1.02758 1.037 0.993033 0.997866
1.03266 1.0418 0.993498 0.997716
1.03633 1.04197 0.997181 0.9974
1.03057 1.03474 0.998256 0.997718
1.03423 1.03757 0.999328 0.997451
1.03796 1.04097 0.999979 0.997131
1.03281 1.03545 1 0.997443
1.03614 1.03917 1 0.997089
1.03664 1.03991 1 0.996863
1.03709 1.04036 1 0.996855
1.03444 1.03775 1 0.99681
1.02657 1.02974 1 0.996929
1.00699 1.00938 1 0.997637
1.02271 1.02586 1 0.996938
1.03171 1.03513 1 0.996697
0.999077 1 1 0.999077
1.00401 1.00626 1 0.997758
1.01501 1.01802 1 0.997043
1 1 1 1
0.999208 1 1 0.999208
1.00118 1.00325 1 0.997943
1 1 1 1
0.999685 1 1.0003 0.999388
1 1 1 1
1.01803 1.02123 1 0.996872
1.00975 1.01259 1 0.997193
1.00756 1.01009 1 0.997501
1.0025 1.00485 1.00001 0.997658
1.00098 1.00255 1.00056 0.997876
1.0005 1.0004 1.00167 0.998433
0.999622 1 1.00141 0.998214
1.00157 1 1.00285 0.998728
1.00069 1 1.00094 0.999742
1.00034 1 1.00135 0.998994
0.999852 1 1 0.999852
1 1 1 1
0.999913 1 1 0.999913
1 1 1 1
1 1 1 1
0.984745 1.01057 0.976371 0.998032
0.932761 0.975721 0.967147 0.988445
0.925133 0.972031 0.971344 0.97983
1.01462 1.01744 1.00001 0.997207
1.0291 1.03235 1 0.996846
1.01844 1.02146 1.00013 0.996907
0.998076 1.00036 1 0.99772
1.00741 1.00964 1.00073 0.99706
1.00283 1.00583 0.9994 0.997612
1.01617 1.02003 0.999097 0.997113
0.993354 1.00144 0.994093 0.997824
0.9726 1.00126 0.973565 0.997751
1.00227 1.00863 0.996453 0.997228
1.01936 1.02566 0.996914 0.996937
1.00927 1.02369 0.988242 0.997636
1.0032 1.00843 0.997465 0.997344
0.997799 1.00262 0.997889 0.997293
0.992314 1.0081 0.985936 0.998386
0.936919 0.979409 0.968597 0.987631
0.993081 1.00625 0.988006 0.998892
1.0206 1.03721 0.985753 0.998211
0.987739 1.00539 0.985682 0.996714
0.937623 0.972029 0.974705 0.989637
0.986973 1.02669 0.963423 0.997809
1.00115 1.0157 0.988399 0.997242
0.994712 1.03783 0.960521 0.997845
1.03964 1.05008 0.99243 0.997607
1.03438 1.05773 0.980281 0.997598
1.06135 1.07325 0.991169 0.997725
1.01294 1.05233 0.964612 0.99788
1.01852 1.05145 0.970903 0.997713
1.0355 1.05599 0.983059 0.997493
1.02276 1.04023 0.985336 0.997845
1.03211 1.04686 0.988286 0.997589
1.03726 1.04758 0.992759 0.997366
1.0317 1.04086 0.993456 0.997729
1.03682 1.04241 0.99723 0.997397
1.04104 1.04446 0.9996 0.997125
1.03473 1.038 0.999405 0.99745
1.0381 1.0411 0.999994 0.99713
1.03969 1.04296 1 0.996866
1.0364 1.03939 1 0.997126
1.03626 1.03951 1 0.996875
1.02888 1.03208 1 0.996898
1.03424 1.03757 1 0.996791
1.02648 1.02965 1 0.996923
1.00919 1.01165 1 0.997568
0.99901 1 1 0.99901
1.00763 1.01002 1 0.997636
1.02209 1.02521 1 0.996958
1 1 1 1
0.999065 1 1 0.999065
1.00529 1.00755 1 0.997757
1 1 1 1
0.999195 1 1 0.999195
1 1 1 1
1.02632 1.02966 1 0.996755
1.01829 1.0215 1 0.996856
1.01237 1.01521 1 0.997195
1.01059 1.01343 1 0.997195
1.00601 1.00852 1 0.997508
1.00042 1.00193 1.00034 0.998151
0.999569 1.00124 1.00046 0.997872
1.00091 1.00018 1.00229 0.998436
1.00046 1 1.00089 0.999563
1.00284 1 1.00412 0.998729
1.00051 1 1.00075 0.999758
1 1 1 1
0.999862 1 1 0.999862
1 1 1 1
1 1 1 1
1.00793 1.03428 0.976353 0.998125
0.982236 1.00952 0.975518 0.997391
0.932231 0.977448 0.964181 0.989171
1.02652 1.02961 1 0.997002
1.01568 1.01834 1 0.997392
1.04433 1.04761 1 0.996872
1.02978 1.03305 1 0.996831
1.01655 1.01946 1.00018 0.996969
1.03743 1.04127 0.999459 0.996854
1.00352 1.00746 0.998511 0.997578
1.01513 1.01874 0.999408 0.997051
1.03816 1.05208 0.989625 0.997115
1.00273 1.01025 0.995247 0.997305
1.01983 1.02623 0.996868 0.99689
1.01023 1.02485 0.988037 0.997667
1.00366 1.00877 0.997625 0.997309
0.996733 1.00996 0.988304 0.998578
1.04824 1.06586 0.985651 0.997779
1.02095 1.03697 0.9863 0.998227
0.986506 1.00409 0.98562 0.996822
0.994742 1.03783 0.960447 0.997957
1.03877 1.05052 0.991173 0.99762
1.03051 1.05708 0.977193 0.997618
1.0619 1.07494 0.990125 0.997721
1.05183 1.06818 0.987047 0.997615
1.02262 1.05161 0.974667 0.997714
1.03604 1.0554 0.984122 0.997503
1.03862 1.05302 0.988914 0.997386
1.03189 1.0461 0.988802 0.997587
1.03696 1.04718 0.992872 0.997347
1.04233 1.04792 0.997551 0.997104
1.03736 1.0429 0.997282 0.997394
1.04113 1.04453 0.999626 0.997122
1.04305 1.04634 1 0.996853
1.03826 1.04125 1 0.99713
1.03946 1.04272 1 0.996869
1.03199 1.03526 1 0.996839
1.03589 1.03913 1 0.996887
1.02903 1.03223 1 0.996903
1.01015 1.01268 1 0.997494
1.02633 1.02951 1 0.996917
1.00939 1.01185 1 0.997566
0.999165 1 1 0.999165
0.999696 1 1 0.999696
0.999079 1 1 0.999079
1.00823 1.01062 1 0.997635
1 1 1 1
0.999054 1 1 0.999054
1 1 1 1
1.05117 1.05439 1 0.996948
1.03612 1.03942 1 0.996821
1.02716 1.03051 1 0.996753
1.01855 1.02158 1 0.997034
1.01877 1.022 1 0.996841
1.0127 1.01555 1 0.997196
1.00322 1.00531 1 0.997915
1.00464 1.00714 1 0.997515
0.999945 1.00133 1.00047 0.998153
0.99945 1 1.00012 0.999328
1.00127 1.00002 1.00282 0.998438
1.00049 1 1.0009 0.999583
1 1 1 1
0.999951 1 1.00018 0.999773
1 1 1 1
1 1 1 1
1.04343 1.06436 0.982762 0.997529
1.01216 1.03905 0.975883 0.99819
0.980109 1.00962 0.97393 0.996758
1.04169 1.04495 1 0.996879
1.02482 1.02785 1 0.997057
1.01637 1.01884 1 0.997574
1.04309 1.04635 1 0.99689
1.03042 1.03371 1 0.996816
1.04648 1.05824 0.991769 0.997095
1.03397 1.03787 0.999428 0.996813
1.01426 1.01736 0.999966 0.996988
1.03719 1.05104 0.98969 0.99711
1.02257 1.02867 0.997222 0.996842
1.01424 1.02955 0.987396 0.997703
1.05154 1.06693 0.987841 0.997713
1.05069 1.06747 0.986449 0.997808
1.02122 1.03691 0.986599 0.998244
1.02787 1.05746 0.974319 0.997637
1.06327 1.07737 0.989177 0.997717
1.05179 1.06917 0.986094 0.997624
1.04382 1.05492 0.99198 0.997473
1.03651 1.05471 0.985194 0.997512
1.03874 1.05263 0.989404 0.997375
1.04377 1.05139 0.995605 0.997135
1.03666 1.04679 0.992978 0.997327
1.04278 1.04837 0.99756 0.997104
1.0457 1.0491 0.999923 0.996839
1.04124 1.0446 0.99966 0.997119
1.04322 1.04651 1 0.996854
1.03467 1.03802 1 0.996773
1.03923 1.04249 1 0.996872
1.03228 1.03555 1 0.996842
1.01124 1.01388 1 0.997396
1.02919 1.03239 1 0.996907
1.01043 1.01297 1 0.997492
0.999174 1 1 0.999174
1.00961 1.01207 1 0.997564
0.99916 1 1 0.99916
0.999716 1 1 0.999716
0.999854 1 1 0.999854
0.999153 1 1 0.999153
1 1 1 1
1.04661 1.04984 1 0.996918
1.04171 1.04497 1 0.996876
1.0502 1.05329 1 0.997067
1.02798 1.03113 1 0.996945
1.0381 1.04143 1 0.99681
1.02804 1.03139 1 0.996751
1.01946 1.0225 1 0.997029
1.00783 1.01012 1 0.997728
1.01305 1.0159 1 0.997196
1.00211 1.0042 1 0.997916
0.999134 1 1 0.999134
0.999357 1.00068 1.00052 0.998157
0.999702 1 1.00036 0.999347
1 1 1 1
1.00062 1 1.00102 0.999603
1 1 1 1
1 1 1 1
1.04434 1.06176 0.98614 0.997418
1.04194 1.06271 0.982892 0.997524
1.01478 1.04152 0.976042 0.998247
1.04757 1.05382 0.997052 0.997007
1.03976 1.04303 0.999983 0.99688
1.02335 1.02631 1 0.997114
1.04167 1.0449 1 0.996908
1.04508 1.05685 0.991767 0.997071
1.03035 1.03429 0.999417 0.996773
1.03278 1.04638 0.989869 0.997105
1.04627 1.05812 0.991242 0.997535
1.05042 1.0656 0.988046 0.997674
1.05298 1.06881 0.987319 0.997836
1.04265 1.05118 0.994507 0.997368
1.05143 1.06986 0.985106 0.997632
1.04366 1.055 0.991768 0.99746
1.04528 1.05285 0.995556 0.997234
1.03894 1.05226 0.989945 0.997363
1.04381 1.05145 0.995583 0.997137
1.04675 1.05034 0.999734 0.996844
1.04318 1.04876 0.997573 0.997103
1.04589 1.0493 0.999914 0.99684
1.03579 1.03919 1 0.996725
1.04328 1.04657 1 0.996855
1.03493 1.03828 1 0.996775
1.01205 1.01479 1 0.997299
1.03255 1.03582 1 0.996845
1.01148 1.01412 1 0.997395
0.999148 1 1 0.999148
1.01071 1.01326 1 0.997491
0.999164 1 1 0.999164
0.99972 1 1 0.99972
0.999158 1 1 0.999158
0.999722 1 1 0.999722
1 1 1 1
1.04674 1.05058 0.999525 0.99682
1.04316 1.04651 1 0.9968
1.04821 1.05147 0.999984 0.996921
1.03371 1.03687 1 0.996961
1.04275 1.04599 1 0.996902
1.04939 1.05236 1 0.997184
1.01133 1.01379 1 0.997572
1.028 1.03116 1 0.996937
1.04023 1.04357 1 0.996798
1.02025 1.02329 1 0.997023
1.00641 1.0087 1 0.997729
0.999027 1 1 0.999027
1.00094 1.00303 1 0.997918
0.999148 1 1 0.999148
1 1 1 1
0.999927 1 1.00056 0.999366
1 1 1 1
1 1 1 1
1.04377 1.0545 0.992521 0.997283
1.04437 1.06211 0.98586 0.997402
1.0422 1.063 0.982872 0.997519
1.04648 1.05301 0.996765 0.997023
1.0376 1.04089 0.99996 0.996881
1.04445 1.05626 0.991747 0.997047
1.04358 1.05294 0.993722 0.99737
1.04667 1.05824 0.991521 0.997529
1.04933 1.06439 0.988183 0.997635
1.04315 1.05156 0.994597 0.997389
1.0459 1.0523 0.996736 0.997177
1.04348 1.0551 0.991518 0.997446
1.04549 1.05279 0.995858 0.997193
1.04664 1.05088 0.999029 0.996927
1.04382 1.05149 0.995558 0.997139
1.04701 1.05067 0.999669 0.996847
1.03556 1.039 1 0.996693
1.04628 1.0497 0.999903 0.996842
1.03612 1.03952 1 0.996726
1.01218 1.01499 1 0.997231
1.03534 1.03868 1 0.996778
1.01211 1.01485 1 0.997299
0.999094 1 1 0.999094
1.01174 1.01438 1 0.997395
0.999133 1 1 0.999133
0.999701 1 1 0.999701
0.999157 1 1 0.999157
0.999735 1 1 0.999735
0.999724 1 1 0.999724
1.04671 1.05207 0.997835 0.997068
1.04556 1.04903 1 0.996693
1.04752 1.05183 0.999055 0.996847
1.03573 1.03899 1 0.996863
1.04238 1.04573 1 0.996791
1.04974 1.05301 0.999972 0.996923
1.01239 1.01497 1 0.997463
1.03362 1.03681 1 0.996923
1.04363 1.04685 1 0.996928
0.998991 1 1 0.998991
1.01059 1.01305 1 0.997575
1.02813 1.03129 1 0.996929
1.00505 1.00734 1 0.997731
0.999038 1 1 0.999038
1 1 1 1
0.999162 1 1 0.999162
1 1 1 1
1 1 1 1
1.04146 1.05016 0.994439 0.997265
1.04357 1.05429 0.992536 0.997276
1.04407 1.06205 0.985643 0.997386
1.04541 1.05221 0.996488 0.997038
1.04558 1.05095 0.997744 0.997136
1.04401 1.05312 0.993958 0.99738
1.04712 1.05832 0.991875 0.997522
1.04368 1.05196 0.994708 0.99741
1.04573 1.05223 0.996631 0.997187
1.04683 1.05109 0.999019 0.996924
1.04577 1.05277 0.996181 0.997152
1.04684 1.0509 0.999258 0.996884
1.03524 1.03864 1 0.996721
1.04719 1.05092 0.999606 0.99685
1.03573 1.03916 1 0.996695
1.01168 1.01454 1 0.997177
1.03619 1.03959 1 0.996728
1.012 1.01481 1 0.997231
0.998882 1 1 0.998882
1.01211 1.01485 1 0.9973
0.999006 1 1 0.999006
1 1 1 1
0.99912 1 1 0.99912
0.99972 1 1 0.99972
0.999743 1 1 0.999743
1.04421 1.04965 0.997647 0.997157
1.046 1.04946 0.999899 0.99681
1.04683 1.05189 0.998127 0.997059
1.03663 1.04005 1 0.996707
1.04496 1.04843 0.999977 0.996713
1.04836 1.05315 0.998574 0.996874
1.01284 1.01561 1 0.997281
1.03591 1.03918 1 0.996862
1.04165 1.04501 1 0.996782
0.998986 1 1 0.998986
1.01231 1.01493 1 0.99742
1.03352 1.03675 1 0.996886
1 1 1 1
0.999002 1 1 0.999002
1.0098 1.01225 1 0.997577
0.99905 1 1 0.99905
1 1 1 1
1 1 1 1
1.04421 1.0495 0.997805 0.997151
1.04188 1.05049 0.994522 0.997272
1.04329 1.05406 0.992493 0.997269
1.04692 1.05063 0.999608 0.996861
1.04488 1.05059 0.997416 0.997149
1.04442 1.05329 0.99418 0.997391
1.04553 1.05215 0.996494 0.997198
1.04657 1.05091 0.998941 0.996925
1.03421 1.03755 1 0.996784
1.04697 1.05085 0.999472 0.996841
1.03515 1.03854 1 0.996729
1.01116 1.01413 1 0.997071
1.03602 1.03945 1 0.996698
1.01157 1.01443 1 0.997177
0.998837 1 1 0.998837
1.01192 1.01473 1 0.997232
0.998879 1 1 0.998879
1 1 1 1
0.998905 1 1 0.998905
0.999842 1 1 0.999842
0.999737 1 1 0.999737
1.04459 1.04924 0.998451 0.997108
1.04684 1.05014 0.999981 0.996871
1.04455 1.04992 0.997721 0.997164
1.03679 1.04021 1 0.996705
1.04645 1.04988 0.999948 0.996794
1.04698 1.05173 0.998429 0.99705
1.01278 1.01564 1 0.997184
1.03651 1.0399 1 0.996738
1.04434 1.04782 0.999951 0.996732
0.998961 1 1 0.998961
1.01281 1.01559 1 0.997267
1.0361 1.03936 1 0.996862
1 1 1 1
0.998995 1 1 0.998995
1.01226 1.01493 1 0.997376
1 1 1 1
0.999013 1 1 0.999013
1 1 1 1
1.04713 1.05088 0.999514 0.99691
1.04362 1.04885 0.997874 0.997135
1.04228 1.05078 0.994618 0.997278
1.03383 1.03717 1 0.996779
1.04658 1.05053 0.999354 0.996884
1.0442 1.05022 0.997092 0.997162
1.04632 1.05072 0.998889 0.996926
1.03428 1.03761 1 0.996784
1.01045 1.01344 1 0.997051
1.03507 1.03846 1 0.996737
1.01111 1.01405 1 0.9971
0.998784 1 1 0.998784
1.01139 1.01425 1 0.997178
0.998835 1 1 0.998835
1 1 1 1
0.998877 1 1 0.998877
1 1 1 1
0.999713 1 1 0.999713
1.04832 1.0517 0.999897 0.996893
1.04399 1.04906 0.998023 0.997131
1.0362 1.03959 1 0.996736
1.04693 1.05024 0.999983 0.99687
1.04497 1.05027 0.99778 0.997171
1.01197 1.0148 1 0.997213
1.03636 1.03979 1 0.996702
1.04687 1.05026 1 0.996778
0.99891 1 1 0.99891
1.01296 1.0158 1 0.997211
1.03637 1.03973 1 0.996768
1 1 1 1
0.998967 1 1 0.998967
1.01278 1.01557 1 0.997254
1 1 1 1
0.999004 1 1 0.999004
1 1 1 1
1.0342 1.03751 1 0.996809
1.04713 1.05075 0.999657 0.996897
1.04305 1.04822 0.997944 0.997119
1.0094 1.01237 1 0.997062
1.03384 1.03718 1 0.996779
1.04623 1.05043 0.999093 0.996906
1.03434 1.03768 1 0.996784
1.01048 1.01347 1 0.997051
0.99875 1 1 0.99875
1.01108 1.01399 1 0.99713
0.998781 1 1 0.998781
1 1 1 1
0.998832 1 1 0.998832
1 1 1 1
1 1 1 1
1.0356 1.03898 1 0.996749
1.04777 1.0513 0.999711 0.99693
1.04331 1.04879 0.99761 0.997154
1.01103 1.01386 1 0.997204
1.03588 1.03927 1 0.996732
1.047 1.05029 1 0.996868
0.998859 1 1 0.998859
1.0123 1.01514 1 0.997211
1.03598 1.03941 1 0.996698
1 1 1 1
0.998913 1 1 0.998913
1.01315 1.01596 1 0.997238
1 1 1 1
0.998973 1 1 0.998973
1 1 1 1
1.00928 1.01217 1 0.997143
1.03407 1.03741 1 0.996778
1.04713 1.05061 0.999802 0.996884
0.998762 1 1 0.998762
1.0095 1.01247 1 0.997059
1.03385 1.03719 1 0.996779
1.01052 1.01351 1 0.997051
0.99875 1 1 0.99875
1 1 1 1
0.998778 1 1 0.998778
1 1 1 1
1 1 1 1
1.01001 1.01286 1 0.997181
1.03525 1.03861 1 0.996763
1.04726 1.05096 0.999508 0.996967
0.999016 1 1 0.999016
1.01134 1.01418 1 0.997202
1.03556 1.03896 1 0.996729
1 1 1 1
0.99886 1 1 0.99886
1.01262 1.01546 1 0.997208
1 1 1 1
0.998917 1 1 0.998917
1 1 1 1
0.998755 1 1 0.998755
1.00945 1.01237 1 0.997116
1.03396 1.03733 1 0.996746
1 1 1 1
0.998761 1 1 0.998761
1.00959 1.01257 1 0.997057
0.998749 1 1 0.998749
1 1 1 1
1 1 1 1
0.998973 1 1 0.998973
1.01033 1.01319 1 0.997181
1.03487 1.03821 1 0.996777
1 1 1 1
0.998828 1 1 0.998828
1.01166 1.0145 1 0.9972
1 1 1 1
0.998861 1 1 0.998861
1 1 1 1
0.999649 1 1 0.999649
0.998871 1 1 0.998871
1.00961 1.01256 1 0.997088
1 1 1 1
0.998762 1 1 0.998762
1 1 1 1
0.999665 1 1 0.999665
0.998892 1 1 0.998892
1.01068 1.01354 1 0.997181
0.999832 1 1 0.999832
0.998828 1 1 0.998828
1 1 1 1
1 1 1 1
0.998784 1 1 0.998784
1 1 1 1
0.99983 1 1 0.99983
0.998807 1 1 0.998807
1 1 1 1
1 1 1 1
1 1 1 1

VECTORS lamdaE float
1.0011 1.00015 0.993952
1.00071 1.00068 0.997076
1.00067 1.00035 0.99423
1.00124 1.00003 0.99387
1.00118 0.999979 0.994018
1.00104 1.00038 0.993776
1.00245 1.00046 0.990978
1.00072 1.0006 0.997082
1.00069 1.00017 0.997478
1.00019 1.00089 0.997519
1.00063 1.00069 0.993998
1.00213 1.0013 0.989864
1.00089 0.999976 0.99427
1.00064 1.00001 0.99443
1.00029 1.00056 0.994479
1.00092 1.00001 0.994184
1.00057 1.00074 0.994029
1.00083 1.00003 0.994308
1.00267 1.00027 0.990854
1.0009 1.00002 0.997126
1.00119 1.00008 0.993866
1.00124 0.999957 0.993959
1.00259 1.00012 0.991099
1.00258 1.00015 0.991084
1.00101 1.00049 0.993654
1.00224 1.001 0.990782
1.00501 1.00058 0.986468
1.00072 1.00056 0.997102
1.00089 1.00006 0.995743
1.00049 1.00063 0.995766
1.00066 1.00057 0.997151
1.00203 1.00144 0.989874
1.00118 0.999821 0.993939
1.00092 1.00026 0.994039
1.00291 1.00007 0.99133
0.999897 1.00073 0.997769
1.00256 1.00079 0.991303
1.00184 1.00175 0.989866
1.00429 1.00149 0.986002
1.00001 0.999309 0.998167
1.00092 0.999987 0.997113
1.00086 1.00001 0.995741
1.00084 0.999975 0.997158
1.00051 1.00003 0.994601
1.00258 0.999937 0.990494
1.0008 0.999963 0.997409
1.00292 1.00005 0.991342
1.00062 0.999941 0.994497
1.0005 1.00007 0.994584
1.0001 1.00113 0.994264
1.00286 1.00009 0.990744
1.00072 1.00004 0.995852
1.00086 1.00009 0.994185
1.0005 1.00095 0.993883
1.00092 0.999933 0.994261
1.00272 1.00008 0.990952
1.0025 1.00073 0.990663
1.00274 1.00005 0.990955
1.00497 1.00059 0.98648
1.00081 1.00001 0.997161
1.00108 1.00007 0.994016
1.00233 1.00001 0.992154
1.00252 1.00014 0.991178
1.00262 1.00007 0.991093
1.0049 1.0002 0.98692
1.00499 1.0002 0.986688
1.00084 1.00041 0.993926
1.00171 1.00193 0.990663
1.00492 1.00089 0.986326
1.00527 1.0003 0.985519
1.00114 1.00009 0.99705
1.00059 1.00049 0.997273
1.00079 1.0005 0.997077
1.00196 1.00151 0.989878
1.00123 0.999952 0.996996
1.00101 1.00028 0.997074
1.00277 1.00002 0.989957
1.00013 1.00054 0.996141
1.00231 1.00084 0.989943
1.00172 1.002 0.990673
1.00438 1.00134 0.985993
1.00029 0.999947 0.997719
1.00009 1.00163 0.993005
1.00295 0.999941 0.989802
1.00273 1.00022 0.989933
1.00505 1.00023 0.986012
1.00121 1.00243 0.99194
1.0047 1.00078 0.986005
1.00357 1.00264 0.986157
1.0052 1.00131 0.984536
0.999873 0.998483 0.998561
0.999877 0.999096 0.998333
1.00114 0.999988 0.996991
1.00097 0.999986 0.997094
1.00088 0.999981 0.997156
1.00075 0.999994 0.995853
1.00263 0.999929 0.991165
1.00098 0.999971 0.995678
1.00285 1.00007 0.990671
1.00085 0.99999 0.997168
1.00244 0.99986 0.990759
1.0028 1.00003 0.991571
1.0049 0.999434 0.987166
1.00295 0.999989 0.991298
1.00503 0.999764 0.986618
1.00086 1 0.994309
1.00052 1.0001 0.994508
0.999995 1.00145 0.994112
1.00061 0.999884 0.994561
1.00286 1.00008 0.990804
1.0029 0.999965 0.990834
1.00276 1.00042 0.990553
1.00494 1.0006 0.986492
1.00086 0.999991 0.997164
1.00075 1.00007 0.994332
1.0025 0.999971 0.991015
1.00265 1.00012 0.991022
1.00058 1.00084 0.99551
1.00208 1.00169 0.990757
1.00276 1.00002 0.990957
1.00492 1.00009 0.986995
1.00486 1.00092 0.986341
1.00498 1.00034 0.986638
1.00527 1.00029 0.98555
1.00242 0.999914 0.990761
1.00242 1.00006 0.991381
1.00477 0.999366 0.987917
1.00485 0.999844 0.987287
1.00495 1.00005 0.986888
1.00528 0.999044 0.987043
1.00023 1.00062 0.997486
1.00527 0.999783 0.986037
1.00127 1.00274 0.989706
1.00447 1.00131 0.985871
1.00527 1.00087 0.985008
1.00521 0.99887 0.986927
1.00052 1.00289 0.990984
1.00124 1.00511 0.987437
1.00123 0.999978 0.997011
1.00097 1.0003 0.997068
1.00278 1.00001 0.989951
1.00028 1.00026 0.997616
1.00138 1.00236 0.989999
1.00229 1.00085 0.989958
1.00446 1.0012 0.985984
1.0001 0.999849 0.997888
0.999976 1.0018 0.99304
1.00297 0.999979 0.990546
1.00274 1.00027 0.990632
1.00505 1.00024 0.985991
1.00085 1.00262 0.990669
1.00474 1.00074 0.985992
1.00366 1.0024 0.986167
1.00524 1.00123 0.984627
1.00032 1.00245 0.991737
1.00001 1.00075 0.994101
1.00124 1.00463 0.988517
1.00509 1.00009 0.986125
1.00495 1.00042 0.98598
1.00533 0.999658 0.986136
1.00275 1.00341 0.986731
1.0053 1.00056 0.985264
1.00493 1.00174 0.984609
1.00526 1.00073 0.985018
0.999859 0.997984 0.99881
0.999823 0.99841 0.998664
0.999781 0.998931 0.998476
1.00021 1.00259 0.991798
1.00005 1.00025 0.997769
1.00123 0.999964 0.996979
1.00103 0.99999 0.997037
1.00272 1.00009 0.990043
1.00252 0.999929 0.990557
1.00086 0.99998 0.997149
1.00082 0.999984 0.997166
1.00243 0.999873 0.990753
1.00272 1.00001 0.990908
1.00488 0.999434 0.98717
1.00283 1.00002 0.989891
1.005 0.999773 0.986612
1.00239 0.999878 0.990804
1.00484 0.999343 0.987342
1.00496 0.999578 0.986907
1.00536 0.997558 0.988409
1.00507 0.99994 0.986339
1.00531 0.998195 0.987795
1.00083 0.99999 0.99716
1.00041 1.00012 0.994649
1.00252 0.999969 0.990008
1.00279 1.00012 0.990865
0.999931 1.00136 0.997479
1.00255 1.00128 0.990854
1.0029 0.999993 0.990823
1.00493 0.999978 0.987069
1.00497 1.00045 0.986588
1.00481 1.00097 0.986355
1.00527 1.00028 0.985582
1.0024 0.999906 0.990763
1.00256 1.00008 0.991221
1.0048 0.999353 0.987621
1.00488 0.999962 0.987186
1.00038 1.00067 0.997383
1.00149 1.0025 0.990512
1.00431 1.00165 0.98611
1.00496 1.0001 0.986851
1.00527 0.998742 0.987323
1.00527 1.0008 0.98507
1.00527 0.999873 0.986051
1.00521 0.998881 0.986949
1.00059 1.00279 0.990967
1.00141 1.00502 0.987441
1.00479 0.999422 0.987332
1.00482 0.999634 0.987602
1.00531 0.998022 0.988047
1.00526 0.998122 0.987973
1.00529 0.999153 0.986797
1.00522 0.996765 0.989248
1.00086 1.00302 0.990233
1.00522 0.997949 0.987884
1.00373 1.00223 0.986083
1.00525 1.00131 0.984469
1.00521 1.00007 0.985875
1.00519 0.997259 0.988692
1.00233 1.00413 0.98673
1.00081 1.00506 0.988379
1.00279 1.00412 0.986179
1.00286 0.999966 0.989889
0.999929 0.999688 0.998073
0.999887 1.00187 0.993072
1.00259 1.0003 0.989989
1.00505 1.00024 0.98597
1.00079 1.0028 0.990626
1.00374 1.00213 0.986177
1.00478 1.00071 0.98598
1.00526 1.00116 0.984719
1.00029 1.00256 0.991746
0.999975 1.00065 0.994148
1.00092 1.00475 0.988499
1.00507 1.00011 0.986105
1.00496 1.0004 0.985965
1.00533 0.999666 0.986111
1.00285 1.00325 0.986738
1.00531 1.00063 0.985196
1.00499 1.00169 0.984591
1.00525 1.00054 0.985152
1.00001 0.999935 0.994884
1.00195 1.00423 0.987489
1.00067 1.00394 0.989915
1.0019 1.00445 0.987316
1.00533 0.999138 0.986703
1.00532 1.00017 0.985598
1.00526 0.998222 0.987528
1.00437 1.00191 0.985363
1.00525 0.999592 0.986301
1.00516 1.00132 0.984796
1.00521 0.999975 0.985829
1.00022 1.00134 0.993139
1.00024 0.998875 0.995535
0.999905 0.997605 0.998944
0.999841 0.997899 0.998864
0.99979 0.998275 0.99875
1.00006 1.00185 0.992763
0.999919 0.999765 0.998047
1.00032 1.00246 0.991775
1.00014 1.00034 0.997662
1.00283 1.00006 0.989893
1.00263 1 0.990292
1.00497 0.999782 0.986607
1.00485 0.99944 0.987174
1.00244 0.999889 0.990753
1.00087 0.999973 0.997164
1.00241 0.999872 0.990807
1.00482 0.999353 0.987342
1.00494 0.99959 0.986909
1.00535 0.997569 0.988408
1.00505 0.999957 0.986322
1.00532 0.998192 0.987776
1.0048 0.999354 0.987379
1.00537 0.997388 0.988561
1.00532 0.997834 0.988173
1.00519 0.995145 0.991016
1.00533 0.998634 0.987271
1.00528 0.996024 0.989932
1.00241 0.999904 0.99077
1.00271 1.00005 0.991062
1.00482 0.999321 0.987327
1.0049 1.00007 0.987085
1.00048 1.00073 0.997273
1.0018 1.0023 0.991132
1.00429 1.00192 0.986346
1.00497 1.00013 0.986813
1.00527 0.998434 0.987603
1.00527 0.999964 0.986066
1.00527 1.00072 0.985133
1.00522 0.99889 0.986971
1.00063 1.0027 0.990951
1.00151 1.00489 0.987442
1.0048 0.99928 0.987429
1.00485 0.99961 0.987582
1.00531 0.997814 0.988296
1.00525 0.998432 0.987658
1.00093 1.0029 0.990235
1.00368 1.00244 0.986084
1.00524 1.00139 0.984419
1.00529 0.99933 0.986651
1.00523 0.996477 0.989523
1.00521 0.999909 0.986039
1.00522 0.997961 0.987894
1.00519 0.997189 0.98866
1.00229 1.00418 0.986734
1.00259 1.00394 0.986192
1.00089 1.00496 0.988389
1.00534 0.99779 0.988251
1.00526 0.997985 0.988225
1.00523 0.995601 0.990491
1.00523 0.995853 0.990089
1.00522 0.996941 0.988847
1.00525 0.995276 0.990545
1.00313 1.00307 0.986337
1.0052 0.996129 0.98955
1.00515 1.00188 0.984287
1.00522 1.00096 0.984772
1.00518 0.998712 0.987173
1.00515 0.996364 0.989559
1.0004 1.00468 0.98948
1.00404 1.00242 0.985651
1.0015 1.005 0.986986
1.00442 1.00272 0.985287
1.00506 1.00012 0.986085
0.999962 1.00062 0.994194
1.00015 1.00271 0.991762
1.00058 1.00496 0.988481
1.00497 1.00039 0.985948
1.00533 0.999675 0.986087
1.00287 1.00312 0.986747
1.00515 1.00167 0.984569
1.00532 1.00069 0.985127
1.00525 1.00034 0.985287
1.00002 0.999825 0.994921
1.00182 1.00426 0.98748
1.0005 1.00407 0.989931
1.00177 1.00458 0.987298
1.00533 0.999145 0.986682
1.00533 1.00017 0.985572
1.00526 0.998214 0.987521
1.00455 1.00179 0.985377
1.00525 0.99971 0.986143
1.00515 1.0012 0.984764
1.0052 0.999888 0.985971
1.00015 0.999245 0.995329
1.00039 1.003 0.99129
1.00316 1.00293 0.986412
1.00116 1.005 0.98847
1.00311 1.00284 0.987086
1.00527 0.99748 0.988317
1.00526 0.998925 0.986782
1.00522 0.997097 0.988513
1.00473 1.00131 0.985213
1.0052 0.998826 0.986987
1.00492 1.00087 0.985435
1.0003 1.00154 0.992817
1.00031 1.00281 0.991569
1.00013 1.00124 0.993406
1.00021 1.00134 0.993136
1.00022 0.998642 0.99634
1.00022 0.998836 0.995888
1.00008 0.997299 0.997675
0.999909 0.997551 0.998961
0.999834 0.997817 0.998905
0.999879 1.00101 0.993893
0.99984 0.999151 0.998379
1.00011 1.00186 0.992739
1.00003 0.999822 0.997944
1.00045 1.00231 0.991754
1.00027 1.00043 0.997559
1.00503 0.999971 0.986306
1.00491 0.999596 0.986911
1.00532 0.99821 0.987756
1.00533 0.99758 0.988408
1.00481 0.999363 0.987342
1.0024 0.999861 0.990806
1.0048 0.999355 0.987381
1.00537 0.997392 0.988562
1.00531 0.997849 0.988162
1.00522 0.995109 0.991012
1.00533 0.99864 0.987253
1.00527 0.996025 0.989932
1.00536 0.997373 0.988588
1.00522 0.995022 0.99115
1.00521 0.995441 0.990631
1.00516 0.994951 0.991211
1.00528 0.996772 0.98912
1.00527 0.995043 0.99063
1.0048 0.999139 0.987526
1.00487 0.999602 0.987562
1.00532 0.997626 0.988545
1.00525 0.998748 0.987344
1.00101 1.00281 0.990242
1.00348 1.00278 0.986089
1.00522 1.00148 0.984367
1.00528 0.99951 0.986506
1.00524 0.996198 0.9898
1.00522 0.997971 0.987903
1.00522 0.99975 0.986202
1.00518 0.997116 0.988628
1.00232 1.00422 0.986736
1.00252 1.00378 0.986205
1.00101 1.00482 0.988399
1.00535 0.997652 0.988377
1.00526 0.997961 0.988223
1.00522 0.995424 0.990712
1.00524 0.996054 0.989891
1.00311 1.0032 0.986329
1.00508 1.00187 0.984315
1.00522 1.00107 0.984667
1.00522 0.997245 0.988568
1.00525 0.995156 0.990614
1.00518 0.998649 0.987126
1.0052 0.996168 0.989536
1.00516 0.996226 0.989642
1.00397 1.00259 0.985639
1.00422 1.00273 0.985126
1.00054 1.00445 0.989499
1.00134 1.005 0.987142
1.00522 0.99508 0.991106
1.00524 0.995842 0.990119
1.00515 0.994957 0.991169
1.00527 0.994902 0.990826
1.00521 0.99545 0.990197
1.00528 0.994907 0.990705
1.00501 1.00168 0.984871
1.0052 0.995151 0.990363
1.00515 1.00199 0.983903
1.00517 1.0004 0.98527
1.00517 0.997959 0.987687
1.00519 0.996285 0.989561
1.00025 1.0038 0.990596
1.00083 1.00514 0.988058
1.00504 1.00186 0.984556
1.00238 1.00455 0.986456
1.00485 1.00324 0.984143
1.00002 0.999724 0.994957
1.00533 0.999151 0.98666
1.00034 1.00413 0.989948
1.00175 1.00426 0.98747
1.00165 1.00466 0.987281
1.00533 1.00018 0.985547
1.00526 0.998206 0.987513
1.00483 1.00143 0.985391
1.00518 1.00111 0.984734
1.00524 0.999824 0.985987
1.0052 0.99981 0.986114
1.00015 0.999192 0.995354
1.0003 1.00304 0.991316
1.00339 1.0028 0.986416
1.0008 1.00505 0.988463
1.00278 1.00285 0.987271
1.00527 0.997466 0.98831
1.00525 0.998913 0.986776
1.00523 0.997057 0.9885
1.00495 1.00126 0.985182
1.00519 0.998899 0.98684
1.00499 1.00086 0.985505
1.00036 1.00204 0.992271
1.00065 1.00431 0.989915
1.00442 1.00119 0.986079
1.00136 1.00485 0.988223
1.00369 1.00082 0.988183
1.00524 0.996353 0.989329
1.00521 0.99789 0.987665
1.00524 0.99632 0.988894
1.00469 1.00105 0.985368
1.00499 0.999555 0.986226
1.0003 1.00153 0.992818
1.00031 1.00284 0.99139
1.00015 1.00296 0.991531
1.00045 1.00314 0.9912
1.00021 1.00282 0.991743
1.00005 1.00116 0.993588
1.00012 1.00122 0.993412
1.00021 0.998541 0.996452
1.0002 1.00137 0.993132
1.00023 0.998635 0.996358
1.00016 0.997066 0.997759
1.00021 0.998815 0.996234
1.00002 0.99731 0.998341
0.999918 0.997476 0.998977
0.999795 1.00009 0.994945
0.999912 1.00107 0.993866
0.999744 0.998495 0.998738
0.999928 0.999278 0.99825
1.00017 1.00188 0.992714
1.00012 0.999942 0.997836
1.00533 0.998643 0.987235
1.00531 0.997845 0.988151
1.00526 0.996012 0.989933
1.00524 0.995073 0.991008
1.00536 0.997398 0.988563
1.0048 0.999356 0.987383
1.00536 0.997377 0.988588
1.00521 0.994999 0.991159
1.00523 0.995427 0.990633
1.00516 0.994947 0.99118
1.00528 0.996737 0.989113
1.00528 0.995041 0.990642
1.00522 0.995017 0.99116
1.00512 0.99496 0.991306
1.00524 0.994931 0.990964
1.00523 0.994945 0.991053
1.00527 0.995613 0.990071
1.00529 0.994905 0.990739
1.00535 0.997509 0.988503
1.00526 0.997949 0.988221
1.00522 0.99524 0.990933
1.00525 0.996251 0.989693
1.00307 1.00334 0.986319
1.00506 1.00186 0.98434
1.00521 1.00112 0.984562
1.00521 0.997544 0.988289
1.00524 0.995035 0.990681
1.00521 0.996211 0.989522
1.00519 0.99859 0.987079
1.00516 0.996071 0.989727
1.00368 1.00292 0.985628
1.00377 1.00277 0.984966
1.0007 1.00427 0.989517
1.00129 1.00501 0.9873
1.00522 0.995087 0.991102
1.00523 0.995853 0.990148
1.00517 0.994954 0.99117
1.00527 0.994903 0.99082
1.00471 1.00204 0.984853
1.00514 1.00204 0.983859
1.00516 1.00038 0.985246
1.00522 0.995606 0.990064
1.00528 0.994898 0.990679
1.00515 0.997999 0.987671
1.0052 0.995159 0.990347
1.00518 0.996075 0.989697
1.00491 1.002 0.984571
1.00462 1.00338 0.983989
1.00231 1.0046 0.986464
1.00025 1.00367 0.99059
1.00068 1.00513 0.988194
1.00514 0.994966 0.991223
1.00524 0.994939 0.990979
1.00527 0.994892 0.990636
1.00524 0.99491 0.99065
1.00509 1.00255 0.983857
1.00521 0.995125 0.990371
1.00506 1.0017 0.983981
1.00512 0.999964 0.985618
1.00514 0.997678 0.987846
0.999911 1.00264 0.991973
1.00045 1.00493 0.989221
1.00127 1.00509 0.987849
1.00512 1.00291 0.983563
1.00293 1.00443 0.985268
1.00493 1.00348 0.98309
1.00015 0.999154 0.995379
1.00022 1.0031 0.991342
1.00526 0.997451 0.988304
1.00039 1.00511 0.988454
1.0034 1.00292 0.986421
1.00248 1.0029 0.987456
1.00524 0.998903 0.98677
1.00523 0.997018 0.988486
1.00511 1.00118 0.985151
1.00505 1.00087 0.985576
1.00518 0.998962 0.986693
1.00031 1.00206 0.992281
1.0003 1.00449 0.989921
1.00457 1.00104 0.986122
1.00107 1.00501 0.988174
1.0035 1.00059 0.988182
1.00524 0.99631 0.989333
1.00521 0.997904 0.987643
1.00524 0.996371 0.988888
1.00475 1.00107 0.985394
1.00501 0.999665 0.986231
1.00043 1.00337 0.990972
0.99988 1.00503 0.989528
1.00488 1.00056 0.985967
1.00143 1.00294 0.988742
1.00485 0.999548 0.987578
1.00526 0.995372 0.989957
1.00523 0.997831 0.987547
1.00525 0.996559 0.988489
1.00475 1.00024 0.986005
1.00509 0.999509 0.986239
1.00029 1.00152 0.992819
1.00032 1.00289 0.9914
1.00005 1.00334 0.991243
1.00005 1.00305 0.991495
1.00013 1.00292 0.991732
1.00015 1.00336 0.991226
0.999995 1.00308 0.991868
1.00004 1.0036 0.990989
1.00011 1.0028 0.991932
1.00002 1.00127 0.993554
1.00005 1.00116 0.993588
1.00015 0.99854 0.996541
1.00011 1.00118 0.993418
1.00022 0.99854 0.996466
1.00018 0.99695 0.997817
1.00025 0.998618 0.996379
1.00013 0.997071 0.997762
0.99994 0.997305 0.999025
0.999854 0.999239 0.995731
0.999806 1.00018 0.994901
0.999695 0.998027 0.998957
0.999951 1.00109 0.99384
0.99981 0.998655 0.99861
1.00002 0.999332 0.998131
1.00528 0.996703 0.989106
1.00525 0.995426 0.990636
1.00528 0.995042 0.990654
1.00516 0.994944 0.99115
1.00521 0.994988 0.991169
1.00536 0.997381 0.988589
1.00522 0.995013 0.99118
1.00513 0.994966 0.991321
1.00522 0.994926 0.991
1.00522 0.994941 0.991022
1.00526 0.995599 0.990092
1.00529 0.9949 0.990687
1.00513 0.994977 0.991293
1.00522 0.994938 0.991094
1.00526 0.994928 0.990852
1.00526 0.994993 0.990512
1.00521 0.995095 0.991097
1.00523 0.995851 0.990177
1.00518 0.99495 0.991171
1.00526 0.994904 0.990816
1.00456 1.0022 0.984837
1.00514 1.00209 0.983817
1.00515 1.00042 0.985223
1.00523 0.995753 0.989931
1.00527 0.994885 0.990653
1.00519 0.995169 0.99033
1.00513 0.998017 0.987653
1.00518 0.99586 0.989831
1.00475 1.00214 0.984586
1.00461 1.0031 0.983832
1.00216 1.00462 0.986473
1.00027 1.00348 0.990593
1.00059 1.00513 0.98833
1.00514 0.994967 0.991212
1.00524 0.994937 0.990973
1.00527 0.994892 0.990663
1.00497 1.00251 0.983896
1.00506 1.00185 0.983938
1.0051 1.00001 0.985604
1.00524 0.994928 0.990617
1.00517 0.997465 0.988137
1.0052 0.99517 0.9903
0.999976 1.0024 0.992195
1.00505 1.00267 0.983591
1.00468 1.0037 0.983254
1.00319 1.0043 0.985386
1.00129 1.00509 0.987962
1.00037 1.00498 0.989132
1.00522 0.994956 0.991062
1.00526 0.994915 0.990782
1.00526 0.994883 0.990606
1.00521 0.994881 0.990603
1.0051 1.00269 0.983527
1.00519 0.995728 0.989649
1.005 1.00161 0.984211
1.00504 1.0003 0.985535
1.00003 1.00085 0.993645
0.999974 1.00432 0.990628
1.00079 1.0051 0.988907
1.00201 1.00503 0.986492
1.005 1.00352 0.982955
1.00467 1.00409 0.983043
1.00026 1.00206 0.99229
1.00002 1.00459 0.989929
1.00524 0.996267 0.989337
1.00073 1.00514 0.988125
1.00474 1.00089 0.986164
1.00318 1.00062 0.988171
1.00521 0.997918 0.987621
1.00525 0.996431 0.988879
1.00483 1.00115 0.985418
1.00505 0.999788 0.986235
1.00029 1.00345 0.990979
1.00017 1.005 0.989359
1.005 1.00047 0.985956
1.0015 1.00315 0.988789
1.00475 0.999573 0.987261
1.00527 0.995373 0.99005
1.00523 0.997754 0.987713
1.00525 0.996706 0.988478
1.00472 1.00031 0.986076
1.00504 0.999682 0.986038
0.999667 1.0039 0.990843
1.00022 1.00503 0.988914
1.00487 1.00004 0.986366
1.00346 1.0004 0.987621
1.00531 0.994853 0.990256
1.00524 0.996119 0.989562
1.00512 0.998817 0.986562
1.00513 0.999483 0.986063
1.00036 1.00288 0.991409
1.00017 1.00331 0.991239
0.999604 1.00372 0.992066
1.00004 1.00305 0.991722
0.99985 1.00357 0.991254
1.00007 1.00284 0.991921
0.999781 1.00309 0.992099
1.00008 1.00368 0.99096
0.999634 1.00199 0.993457
0.999842 1.00398 0.991223
0.999997 1.00382 0.990842
1.00015 1.00279 0.991863
0.999985 1.00151 0.993306
0.999995 1.00126 0.993548
1.00005 0.998612 0.996617
1.00005 1.00113 0.993589
1.00015 0.998561 0.996552
1.00014 0.996957 0.997867
1.00022 0.998547 0.996483
1.00016 0.996949 0.997819
1.0001 0.997085 0.997759
0.999987 0.998563 0.996222
0.999854 0.999349 0.995671
0.999712 0.997601 0.999093
0.999806 1.00031 0.994856
0.999733 0.998102 0.998902
0.999904 0.998773 0.998469
1.00526 0.995584 0.990114
1.00521 0.994921 0.991036
1.00529 0.994894 0.990635
1.00522 0.994937 0.990991
1.00513 0.99497 0.991336
1.00521 0.994996 0.9912
1.00513 0.994974 0.991299
1.00523 0.994939 0.991098
1.00526 0.994924 0.990845
1.00525 0.994982 0.99055
1.00523 0.994951 0.991122
1.00527 0.994921 0.990939
1.00529 0.994884 0.990679
1.00515 0.994968 0.9912
1.00525 0.994938 0.990968
1.00527 0.994894 0.990689
1.00488 1.0025 0.983934
1.00507 1.00196 0.983892
1.00506 0.999985 0.985588
1.00523 0.994955 0.990584
1.00518 0.995228 0.990228
1.00519 0.997208 0.988426
1.005 1.00268 0.983618
1.00435 1.00374 0.983421
1.00351 1.00425 0.985503
1.00004 1.0022 0.992421
1.00117 1.00508 0.988074
1.00022 1.00505 0.989037
1.00522 0.994958 0.991073
1.00526 0.994915 0.990759
1.00526 0.994883 0.990596
1.005 1.00271 0.983574
1.00495 1.00157 0.984152
1.00506 0.999951 0.985887
1.00521 0.994881 0.990559
1.00515 0.995795 0.989588
1.00004 1.00077 0.99386
0.999952 1.00435 0.990606
1.00496 1.00295 0.982935
1.00421 1.00425 0.983748
1.0021 1.00497 0.986697
1.00066 1.0051 0.988759
1.00527 0.994925 0.990939
1.00529 0.994877 0.990516
1.00525 0.994862 0.990593
1.00515 0.9951 0.990345
1.00444 1.00273 0.983663
1.00509 0.998242 0.987411
1.00489 1.00216 0.984092
1.00023 1.00001 0.994473
1.00034 1.0011 0.993279
0.9998 1.00239 0.992588
1.00019 1.00506 0.989557
1.00091 1.0051 0.987929
1.00235 1.00442 0.985346
1.00457 1.00358 0.983384
1.0041 1.0043 0.984633
1.00013 1.00363 0.990986
1.00036 1.00512 0.98919
1.00528 0.995368 0.990142
1.00164 1.00307 0.988841
1.00507 1.00037 0.985948
1.00471 0.999647 0.986951
1.00524 0.997648 0.987882
1.00526 0.996812 0.988471
1.00479 1.00035 0.986145
1.005 0.999801 0.985839
0.999886 1.00394 0.990707
1.00037 1.00505 0.988883
1.00506 0.999898 0.986369
1.00379 1.0006 0.987653
1.00533 0.99485 0.990295
1.00525 0.996034 0.98945
1.00508 0.998771 0.986662
1.00513 0.9996 0.986013
0.999861 1.00413 0.990457
1.00534 0.994896 0.990292
1.00211 1.00417 0.987986
1.00481 0.999538 0.986864
1.00524 0.995237 0.990467
1.00507 0.99791 0.986575
1.0049 1.00075 0.985468
1.00023 1.00335 0.991235
0.999612 1.00353 0.99198
0.998975 1.00326 0.99393
1.00007 1.0028 0.991911
1.00011 1.00379 0.99093
0.999208 1.00347 0.992328
1.00013 1.00277 0.991854
0.999917 1.00394 0.990862
0.999099 1.00235 0.993707
0.999975 1.00383 0.991165
0.999413 1.0006 0.995867
0.999283 1.00293 0.993055
0.999781 1.00463 0.990389
1.00037 1.00381 0.990424
1.00016 1.00312 0.991475
0.999912 1.00194 0.992997
0.999926 1.00164 0.993289
0.99994 0.998846 0.996617
0.999965 1.00133 0.993541
1.00006 0.998662 0.996612
1.00006 0.997012 0.997935
1.00016 0.998575 0.996565
1.00015 0.996945 0.997865
1.00015 0.99695 0.997817
1.00019 1.00017 0.994424
1.00009 0.998194 0.996442
0.999987 0.998632 0.996184
0.999799 0.997219 0.999171
0.999851 0.999456 0.995611
0.999736 0.997696 0.99906
0.99978 0.998212 0.998824
1.00525 0.994972 0.990586
1.00525 0.99492 0.990839
1.00523 0.99494 0.991102
1.00513 0.994972 0.991305
1.00523 0.99495 0.991115
1.00527 0.994919 0.990955
1.00527 0.99489 0.990656
1.00528 0.994919 0.990985
1.00533 0.994922 0.990742
1.00538 0.994978 0.991124
1.00523 0.994959 0.991084
1.00525 0.994914 0.990736
1.00526 0.994883 0.990586
1.00487 1.00273 0.983624
1.00492 1.00187 0.984108
1.00492 0.999688 0.986239
1.0052 0.994883 0.990515
1.00511 0.995963 0.989525
1.00482 1.0031 0.982917
1.00377 1.00463 0.984445
1.00197 1.00486 0.986902
1.00004 1.00063 0.994075
1.00006 1.00428 0.990585
1.00063 1.0051 0.988608
1.00527 0.994925 0.990923
1.00019 1.00004 0.994466
1.00026 1.00117 0.993171
1.00529 0.994887 0.990529
1.00523 0.994861 0.990601
1.00491 1.00275 0.983568
1.00468 1.0021 0.984244
1.00506 0.998045 0.987315
1.00515 0.995007 0.990261
0.999852 1.0024 0.992762
1.00023 1.00499 0.989513
1.00466 1.00379 0.983138
1.00339 1.00398 0.985136
1.00266 1.00462 0.98557
1.001 1.00508 0.987934
1.00533 0.994898 0.990695
1.00529 0.994833 0.990495
1.00517 0.994856 0.990405
1.00511 0.99502 0.990256
1.00416 1.00288 0.984366
1.00435 1.002 0.985203
1.00006 1.00184 0.992673
1.0002 1.00105 0.993492
1.001 1.00058 0.992924
1.0003 1.00322 0.991064
1.00041 1.00509 0.989149
1.0024 1.00437 0.986833
1.00158 1.00499 0.985812
1.00384 1.00062 0.98627
1.00022 1.0038 0.990572
1.00068 1.00505 0.988853
1.00533 0.994849 0.990334
1.00525 0.996023 0.989339
1.00417 1.00075 0.987682
1.00516 0.999768 0.986371
1.00505 0.998759 0.986757
1.00514 0.999728 0.985966
1.00021 1.00399 0.990377
1.00536 0.994894 0.990519
1.00177 1.00412 0.988112
1.00497 0.999638 0.986682
1.00523 0.995212 0.990472
1.00505 0.998122 0.986795
1.00487 1.0006 0.985483
1.00011 1.00486 0.990078
1.00483 0.994828 0.991094
1.00299 1.00253 0.987608
1.00465 1.00111 0.985318
1.00486 0.996047 0.989693
1.00372 1.0013 0.985953
0.998787 0.995997 0.987133
0.999503 1.0035 0.991896
0.998518 1.0034 0.993918
0.999177 1.00231 0.994829
1.00005 1.00286 0.991844
0.999868 1.00409 0.990883
1.00028 1.0035 0.99111
0.998779 1.00246 0.993965
1.0001 1.00318 0.991474
1.00025 1.0039 0.990461
0.999433 1.00074 0.995289
0.999877 1.00462 0.9904
0.999586 1.00283 0.992736
0.998849 1.00121 0.996265
1.00025 1.00461 0.989959
1.00011 1.00463 0.990221
1.00061 1.00398 0.989996
1.00014 1.00362 0.990816
1.0003 1.00424 0.990376
1.00012 1.0038 0.990611
0.999922 1.00206 0.992858
0.99994 1.00192 0.992978
0.999827 0.999008 0.99603
0.999933 1.00162 0.993269
0.999933 0.998907 0.996294
1.00001 0.997187 0.999114
1.00007 0.998712 0.996609
1.00007 0.996987 0.997936
1.00015 0.996932 0.997858
1.00008 1.00019 0.994494
1.0002 1.00006 0.994452
1.0001 0.998086 0.996564
1.00007 0.998212 0.996707
0.999877 0.997007 0.999213
0.99998 0.998705 0.996146
0.999797 0.997326 0.999153
0.999762 0.99776 0.999028
1.00525 0.994895 0.990633
1.00526 0.994917 0.990971
1.00523 0.994951 0.991108
1.00528 0.99492 0.990984
1.00533 0.994917 0.990739
1.00536 0.994961 0.990778
1.00537 0.994906 0.99077
1.00131 0.99495 0.982998
1.00455 0.994947 0.992586
1.00003 1.00156 0.993212
1.00527 0.994924 0.990906
1.00529 0.994896 0.990543
1.00522 0.994857 0.990608
1.00495 1.00237 0.98346
1.00487 1.00183 0.984388
1.00509 0.997961 0.987227
1.00517 0.99501 0.990177
1.00493 1.00357 0.982899
1.00308 1.00369 0.985649
1.00269 1.00479 0.985799
1.00014 1.00012 0.99446
1.0012 1.0051 0.98794
0.999843 1.00239 0.992926
1.00026 1.005 0.989467
1.00026 1.00113 0.993063
1.00533 0.994885 0.990691
1.00006 1.00185 0.992786
1.00012 1.00117 0.993499
1.00081 1.00057 0.993103
1.0053 0.99484 0.990463
1.00517 0.994858 0.990375
1.00357 1.0035 0.984436
1.00463 1.00092 0.985759
1.00509 0.99522 0.990166
0.99996 1.0034 0.991236
1.00055 1.00509 0.988981
1.00378 1.00213 0.986006
1.0023 1.00481 0.985676
1.00223 1.00412 0.987073
1.00528 0.99483 0.990925
1.00518 0.994741 0.990836
1.00513 0.995072 0.989887
1.00494 0.997109 0.989742
1.00213 1.00284 0.987823
0.999687 1.0031 0.99199
1.00087 1.00083 0.992527
1 1.00103 0.992906
1.00005 1.00462 0.991051
1.00025 1.00512 0.989455
1.00072 1.00451 0.988028
1.00253 1.00058 0.988858
1.00073 1.00378 0.990296
1.00121 1.00406 0.988239
1.00538 0.994886 0.990733
1.00524 0.995127 0.990469
1.00504 0.998262 0.987016
1.00502 0.999687 0.986498
1.00483 1.00042 0.985502
1.00049 1.00467 0.990083
1.00464 0.994841 0.991281
1.00304 1.00222 0.987528
1.00485 1.00102 0.985248
1.00499 0.995793 0.989916
1.0039 1.00131 0.986036
0.998709 0.996885 0.985238
1.0002 1.00431 0.990319
1.00307 0.996517 0.99115
1.00364 1.00188 0.986137
1.00304 1.00111 0.987034
1.00311 0.997637 0.990835
0.999963 0.994919 0.946776
0.995808 0.994814 0.96707
0.995584 1.00042 0.988232
0.999462 0.994795 0.869657
0.994704 0.994807 0.834623
0.998184 1.00353 0.99391
0.998364 1.00283 0.995122
0.998431 1.0027 0.995808
1.00008 1.00321 0.991474
1.00032 1.00367 0.990497
0.999992 1.00453 0.990412
0.999822 1.00275 0.992407
0.999429 1.00096 0.994705
1.00015 1.00443 0.990206
1.00013 1.0036 0.990907
1.00054 1.00394 0.990055
0.99905 1.00063 0.995732
1 1.0046 0.990259
1.00032 1.00458 0.990284
0.999152 1.00479 0.991323
1.00012 1.00461 0.990179
1.00052 1.00441 0.989471
1.00023 1.00369 0.990609
1.0004 1.00462 0.98963
1.00049 1.00407 0.990269
0.999756 1.00448 0.990754
1.0002 1.00433 0.990285
1.00021 1.00353 0.991007
1.00016 1.0038 0.990598
0.999948 1.00205 0.992846
0.999936 1.00206 0.992861
0.999799 0.999108 0.996026
0.999918 1.002 0.992961
0.99982 0.999047 0.996021
0.999962 0.9972 0.999136
0.999919 0.998978 0.995973
0.999998 0.997185 0.998518
1.00009 0.996964 0.997934
0.99997 1.00014 0.994711
1.00009 1.0002 0.994497
1.0001 0.997978 0.996685
1.00022 0.999964 0.99448
1.0001 0.998026 0.996832
0.999929 0.996795 0.99925
1.00007 0.998268 0.996418
0.999868 0.997086 0.999198
0.999802 0.997396 0.999135
1.00532 0.994913 0.990736
1.00528 0.994921 0.990983
1.00535 0.994972 0.990441
1.0008 0.994881 0.983121
1.00537 0.994901 0.990785
1.00444 0.995166 0.992268
1.00503 0.99636 0.991295
0.99637 0.994931 0.966167
1.00101 0.996156 0.985241
1.00008 1.00138 0.99337
1.00006 1.0016 0.993182
0.99969 1.00313 0.992154
0.999844 1.00228 0.992766
1.00534 0.99488 0.990687
1.00531 0.994852 0.990432
1.00517 0.994868 0.990345
1.00448 1.00368 0.984505
1.00452 0.999235 0.986315
1.00495 0.995455 0.990069
1.00337 1.00318 0.985748
1.00354 1.00468 0.985534
1.0021 1.00337 0.987307
1.00001 1.00141 0.993507
1.00053 1.00506 0.988816
0.999999 1.00347 0.991409
1.00002 1.00197 0.992898
1.00052 1.00067 0.993268
1.00529 0.994835 0.990931
0.999951 1.00299 0.991923
1.00095 1.00067 0.992751
0.999167 1.00133 0.99441
1.00517 0.994774 0.990738
1.00514 0.995091 0.989893
1.00324 1.00158 0.987793
1.00457 0.996475 0.990155
1.00028 1.00429 0.990578
1.00041 1.00498 0.988841
1.00211 1.00248 0.98871
1.0021 1.00393 0.987545
1.00439 0.994883 0.991801
1.005 0.994818 0.99125
1.00495 0.996171 0.989401
1.00299 0.997956 0.992198
0.998903 1.00399 0.992477
1.00072 1.00144 0.992005
0.998357 1.0047 0.992649
0.999129 1.00486 0.990471
0.999977 0.994892 0.934879
1.00064 1.00455 0.990083
1.00305 1.00219 0.987446
1.00437 0.994866 0.991495
1.00508 0.995689 0.990135
1.00403 1.00131 0.9861
1.00475 1.001 0.985174
0.998574 0.997368 0.983223
1.00029 1.00416 0.990719
1.00291 0.996745 0.991106
1.00348 1.00219 0.986184
1.00364 1.00093 0.987084
1.00356 0.997713 0.990525
1.00034 0.994894 0.934778
0.996133 0.994811 0.963236
0.995684 1.00123 0.988294
0.998816 0.994801 0.874182
0.994702 0.994814 0.824146
1.00005 1.00403 0.99091
0.999785 0.994848 0.880732
0.994706 0.994785 0.828473
1.00038 0.999958 0.992275
1.00193 1.00177 0.989229
1.0014 0.99945 0.992507
0.995014 1.0011 0.989926
0.998498 0.994852 0.944649
0.994889 0.994787 0.959819
0.996868 0.994855 0.889341
0.994721 0.994807 0.820101
0.997721 1.00322 0.995421
0.998143 1.0022 0.995665
0.998415 1.00435 0.994128
1.00018 1.00355 0.990996
1.00047 1.00397 0.990115
0.999747 1.00476 0.990192
0.999786 1.00462 0.990559
0.999375 0.999833 0.9952
1.00022 1.00371 0.990611
1.00007 1.00486 0.990218
1.00002 1.00471 0.990091
1.00065 1.00424 0.989601
0.999085 1.00473 0.99156
0.999573 1.00496 0.991054
0.998322 1.00489 0.992229
1.00026 1.00481 0.989616
1.00048 1.00445 0.9897
1.00046 1.00454 0.989629
1.00036 1.00387 0.990445
1.00045 1.00486 0.989507
0.999938 1.00412 0.990914
0.999607 1.00327 0.991156
0.999617 1.00498 0.990474
0.999643 1.00472 0.990569
0.999897 1.00428 0.990782
1.00009 1.00344 0.9912
1.00012 1.00433 0.990196
1.00021 1.00351 0.990953
1.00001 1.00205 0.992764
1.00023 1.00377 0.990585
0.999945 1.00204 0.992857
0.99994 0.999078 0.9965
0.999917 1.00208 0.992864
0.999831 0.999075 0.996296
0.999921 0.997205 0.997977
0.999813 0.999067 0.996011
0.999959 0.997216 0.999143
1 0.997203 0.99792
1.00016 1.00138 0.993188
0.999934 1.00011 0.994803
0.999979 1.00014 0.994707
1.00007 0.99795 0.996749
1.00009 1.0002 0.9945
1.00011 0.997936 0.996687
0.999971 0.996696 0.999273
1.00009 0.998014 0.997071
0.999943 0.99692 0.998712
0.999909 0.997157 0.998121
1.00033 0.994862 0.983241
1.00536 0.994899 0.990799
1.00415 0.99601 0.991943
0.996523 0.994932 0.966929
1.00096 0.995771 0.985593
1.00505 0.995734 0.991257
1.00336 0.996529 0.987072
0.996955 0.995509 0.969717
0.999977 0.99488 0.944417
0.999039 0.994843 0.890763
0.994652 0.994779 0.833449
0.999767 1.00237 0.992661
1.0001 1.00135 0.993358
1.00015 1.00154 0.993152
0.999843 1.00288 0.992219
0.999436 1.00374 0.992148
1.00038 1.00211 0.991961
1.00009 1.00286 0.992123
1.00002 1.00217 0.992608
1.00529 0.994823 0.990931
1.00519 0.994787 0.990642
1.00515 0.995056 0.989897
1.00329 1.00142 0.987767
1.00438 0.996075 0.990577
1.00236 1.00355 0.988545
1.00336 1.00382 0.987067
1.00087 1.00513 0.988234
1.00076 1.00057 0.992977
1.00024 1.00434 0.990088
1.0003 1.00277 0.991865
0.998623 1.00127 0.995892
1.0043 0.994794 0.992049
0.999139 1.00378 0.992464
1.00053 1.00185 0.992362
1.00484 0.994843 0.991204
1.00486 0.995752 0.98966
1.0026 0.997785 0.991794
0.999451 1.00514 0.991295
1.00066 1.00369 0.99067
1.00315 0.994789 0.991909
1.00417 0.997904 0.990484
1.00483 0.995658 0.990251
1.00099 0.998755 0.993181
0.999579 1.00481 0.990544
0.999207 1.00409 0.991998
0.999315 1.00519 0.991604
0.999807 0.994909 0.88342
1.0003 0.994875 0.947572
1.00047 1.00379 0.991115
1.00366 1.0023 0.986238
1.00282 0.997273 0.991056
1.00404 0.997852 0.990225
1.00407 1.00098 0.987154
0.999982 0.994887 0.94528
0.99614 0.994794 0.962849
0.995941 1.00211 0.988373
0.998381 0.99483 0.889999
0.994707 0.994804 0.813109
1.00005 1.00392 0.99087
0.999803 0.994855 0.880383
0.994673 0.994782 0.821895
1.00062 0.999935 0.992316
1.00195 1.00189 0.989243
1.00141 0.999614 0.992858
0.995306 1.00147 0.990567
0.999457 0.995674 0.938383
0.994855 0.994799 0.962108
0.996623 0.997356 0.888306
0.994743 0.994787 0.818827
0.99933 1.00405 0.993267
0.994706 0.99482 0.82115
0.994744 0.994789 0.832599
0.99782 1.0018 0.996257
0.999874 1.00199 0.994024
0.995112 1.00119 0.988544
0.995066 0.99549 0.963178
0.996325 0.994833 0.933625
0.994738 0.998787 0.892972
0.994826 0.994823 0.822868
0.997916 1.0019 0.995523
0.9988 1.00364 0.993871
0.997777 1.00334 0.99481
1.00019 1.00375 0.990612
1.00076 1.00406 0.989731
1.00003 1.00479 0.990001
0.99985 1.00486 0.990153
0.998754 1.00462 0.991799
1.00045 1.00449 0.989694
0.999612 1.00473 0.990827
1.00037 1.00473 0.989616
0.997916 1.00485 0.992682
0.995981 1.00516 0.996132
0.999196 1.00483 0.991421
1.00045 1.00469 0.989603
1.00052 1.00448 0.989627
1.00035 1.00358 0.990617
1.00041 1.00483 0.98947
1.00001 1.00404 0.990846
0.999491 1.00327 0.991859
0.999246 1.00503 0.990892
0.999394 1.00471 0.990863
0.999051 1.00385 0.992229
1.00063 1.00193 0.992088
1.00138 1.00102 0.990631
0.999292 1.00481 0.990795
0.999733 1.0048 0.990513
0.999706 1.00501 0.99007
0.999687 1.00485 0.990569
1.00002 1.00371 0.991034
0.999909 1.00436 0.990808
1.00013 1.00345 0.991208
1.00005 1.002 0.992687
1.0002 1.00354 0.9909
1 1.00203 0.992781
1.00004 0.999066 0.996326
0.999939 1.00204 0.992867
0.999921 0.999061 0.996161
1.00001 0.99715 0.997871
0.999825 0.999066 0.996005
0.999961 0.997204 0.999147
0.999958 0.997218 0.999149
1.00021 1.00174 0.993065
0.999939 1.00025 0.994675
1.0001 1.0015 0.993199
1.00007 0.99794 0.996765
0.999932 1.00011 0.994804
0.999985 1.00017 0.994703
1.00008 0.997938 0.996742
0.999998 0.996637 0.999279
1.00009 0.997926 0.997166
0.999987 0.996699 0.99877
0.999962 0.996934 0.998211
0.999812 0.994848 0.869321
0.994675 0.994763 0.821731
0.996982 0.9949 0.967171
1.0009 0.995305 0.986013
1.00511 0.994973 0.991219
0.996624 0.995501 0.969895
1.0035 0.995712 0.98756
1.00107 0.99489 0.941714
0.999273 0.994793 0.87415
0.99469 0.994791 0.823151
0.998362 0.994867 0.974946
0.999497 0.994896 0.943902
0.99686 0.99531 0.888967
0.994728 0.994785 0.824913
1.00012 1.00325 0.991579
0.99986 1.00217 0.992788
1.0001 1.00136 0.993348
0.999921 1.00272 0.992284
0.999374 1.00363 0.99234
1.00008 1.0037 0.990976
1.00026 1.00275 0.991746
1.00037 1.00354 0.990616
1.00008 1.00283 0.992002
1.00001 1.00232 0.992449
1.00417 0.994772 0.992284
1.00468 0.994803 0.991163
1.00466 0.99534 0.989917
1.00225 0.998229 0.991388
1.00101 1.00379 0.99087
0.999516 1.00522 0.989953
1.00046 1.0019 0.992753
0.999269 1.00379 0.992444
1.00258 0.994841 0.992309
0.999671 1.00496 0.990342
0.998917 1.00427 0.991855
1.00403 0.9968 0.990795
1.00475 0.995717 0.990078
1.001 0.998894 0.993564
0.999311 1.00515 0.991436
1.00048 0.994826 0.992335
1.00206 0.997981 0.992815
0.99974 1.00109 0.994428
0.998686 1.00515 0.989946
0.999097 1.00512 0.990456
0.998803 1.00511 0.991738
0.99473 0.994852 0.843382
0.999803 0.994896 0.888154
0.999987 0.994892 0.935175
0.999837 1.00399 0.99082
1.00199 1.00185 0.989241
1.00066 0.999927 0.99236
1.00133 0.99966 0.993217
0.999812 0.994882 0.891291
0.99888 0.99486 0.934642
0.994865 0.994873 0.959952
0.995248 1.00198 0.991163
0.996983 0.994861 0.874748
0.994649 0.994785 0.826645
0.994754 0.994799 0.831224
0.998974 1.00343 0.993018
0.9947 0.994821 0.830584
0.994774 0.994796 0.832108
0.997298 1.00119 0.996894
0.999463 1.00199 0.993929
0.995081 0.999226 0.990979
0.99536 0.994882 0.961572
0.996802 0.998516 0.944249
0.994759 0.998642 0.8779
0.994903 0.994812 0.832777
0.99727 1.00384 0.99605
0.994791 0.994838 0.840902
0.994815 0.994788 0.829667
0.994917 1.00244 1.00004
0.995347 0.997277 0.96983
0.994905 0.9999 0.943949
0.995353 0.996773 0.869942
0.995045 0.994858 0.837366
0.999131 1.00294 0.993584
0.997941 1.00363 0.995012
0.996006 1.00407 0.997364
1.0004 1.00455 0.989689
1.0005 1.00468 0.989617
0.999732 1.00457 0.9906
0.997579 1.00476 0.993139
1.00033 1.00476 0.989624
0.999164 1.00487 0.991397
0.995925 1.00485 0.996544
0.995271 1.00497 0.997905
0.995864 1.00495 0.996678
0.999649 1.00438 0.991161
1.00035 1.00485 0.989432
1.00004 1.00391 0.990776
0.999251 1.00347 0.992548
0.99938 1.00477 0.990885
0.999347 1.00501 0.990911
0.999051 1.00406 0.992311
0.999166 1.00456 0.99158
0.997187 1.00494 0.994564
1.00255 0.997581 0.992433
1.00038 1.00173 0.992472
1.00102 1.00151 0.991278
1.00432 1.00107 0.986905
1.00097 1.0033 0.990491
1.00052 1.00116 0.992151
0.99975 1.00458 0.99058
0.999735 1.00508 0.98976
0.999896 1.00457 0.990553
0.999903 1.005 0.990079
1.00002 1.00438 0.990375
0.999998 1.00471 0.99057
1.00018 1.00357 0.991018
1.00012 1.00204 0.992566
1.00029 1.00325 0.991217
1.00013 1.00196 0.992694
1.00014 0.999082 0.996154
1.00003 1.00198 0.992799
1.00004 0.999069 0.995962
1.00007 0.997191 0.997734
0.999924 0.999043 0.995864
0.999991 0.99717 0.998508
0.99997 0.99719 0.999134
1.0002 1.00236 0.992133
1.00005 1.00039 0.994411
1.00014 1.00178 0.992886
1.00006 0.997999 0.996709
0.999954 1.00022 0.994679
1.00006 1.00154 0.993208
1.00002 0.996606 0.999282
1.00006 0.99794 0.996765
0.999939 1.00012 0.994805
1.00009 0.997921 0.996734
0.999998 0.99666 0.999278
0.999969 0.996684 0.999273
0.994684 0.994795 0.825742
0.999807 0.994857 0.880161
0.994761 0.994776 0.830097
0.994695 0.994771 0.820321
0.996546 0.994904 0.967667
1.00351 0.99489 0.98806
0.999979 0.99489 0.938397
0.999352 0.994831 0.890777
0.994721 0.994804 0.812497
0.998528 0.994881 0.97422
1.00078 0.996134 0.930676
0.99677 0.998116 0.886902
0.99473 0.994778 0.818216
0.99541 0.994885 0.967216
0.996745 0.997349 0.932349
0.994792 0.997527 0.871009
0.994817 0.994842 0.820334
1.00045 1.00459 0.990477
0.999914 1.00324 0.991687
0.999939 1.00201 0.992911
0.999236 1.00346 0.992535
1.00059 1.00415 0.989548
0.999978 1.00364 0.991175
1 1.00318 0.991536
1.00082 1.00303 0.990664
1.00046 1.00357 0.990701
1.00008 1.00271 0.991882
1.00223 0.994792 0.99271
1.00401 0.995632 0.991131
1.00463 0.995931 0.98991
1.00091 0.997923 0.993971
1.00026 1.00476 0.991261
0.99919 1.00471 0.991721
0.999718 1.00497 0.990137
0.999986 1.00512 0.989691
1.00003 0.994822 0.992683
0.999722 1.00502 0.99029
0.99939 1.00514 0.99163
1.00199 0.997417 0.993653
1.0004 1.00001 0.994195
0.996916 0.998265 0.992693
0.997114 0.997594 1.00091
0.997919 1.00294 0.994897
0.999858 1.00494 0.990157
0.998468 1.00516 0.992518
0.994823 0.994822 0.846477
0.994724 0.994838 0.839786
0.999805 0.994894 0.872865
0.998966 1.00278 0.992809
0.999281 1.00185 0.993813
0.997316 1.00039 0.997527
0.994679 0.994813 0.829651
0.996951 0.997278 0.933604
0.995403 0.994901 0.961997
0.995244 0.997413 0.993625
0.994779 0.997362 0.894872
0.994783 0.9948 0.832044
0.99495 0.994825 0.833506
0.997501 1.0038 0.996078
0.994795 0.994833 0.843793
0.994802 0.994786 0.830261
0.995311 1.00182 0.999073
0.995236 0.996861 0.971679
0.994964 0.998055 0.932712
0.994933 0.994856 0.834342
0.99491 0.999228 0.877619
0.994986 1.00488 0.999596
0.994792 0.994824 0.840182
0.994856 0.994822 0.835612
0.994806 0.994833 0.821156
0.994823 0.999268 0.99081
0.994875 0.998924 0.947544
0.996208 0.997491 0.884477
0.998344 1.004 0.995232
0.996407 1.00436 0.9971
0.995018 1.00521 0.99885
1.00024 1.00483 0.989644
0.999058 1.0049 0.991369
0.995987 1.00477 0.99695
0.999431 1.00459 0.991079
0.996104 1.00499 0.996648
0.99535 1.00519 0.997932
0.995144 1.00525 0.997822
0.99632 1.0048 0.99617
0.999325 1.0048 0.990916
0.999402 1.00504 0.990928
0.999097 1.00432 0.992411
0.997487 1.00482 0.994434
0.999186 1.0047 0.99148
0.999086 1.00253 0.993666
1.00048 0.998345 0.99523
1.00251 1.00088 0.988495
1.00013 1.00155 0.992835
1.00156 1.00161 0.990795
1.00419 1.00203 0.986029
1.0052 1.00159 0.984456
1.00253 1.00162 0.989071
1.0035 1.00104 0.987193
1.00063 1.00507 0.989023
1.00064 1.00336 0.990803
0.999653 1.00135 0.993653
1.00021 1.00438 0.990363
0.999827 1.00506 0.989795
1.0002 1.00475 0.989726
1.00004 1.00504 0.990089
1.00015 1.00422 0.990392
1.00011 1.00249 0.992111
1.00025 1.00355 0.991002
1.00014 1.00202 0.992554
1.00016 0.999092 0.996081
1.00015 1.00192 0.992701
1.00013 0.999072 0.9958
1.00013 0.997237 0.997616
1.00005 0.999061 0.995646
1.00005 0.997191 0.998413
1.00002 0.997173 0.999087
1.00047 1.00254 0.991352
1.0001 1.00073 0.993711
1.00028 1.0023 0.992128
1.00011 0.998066 0.996562
1.00003 1.00039 0.994264
1.00011 1.00179 0.99271
1.00004 0.996643 0.999266
1.00007 0.997975 0.996717
0.999962 1.00017 0.994684
1.00002 0.996627 0.999281
1.00005 0.997945 0.996765
0.999998 0.996642 0.999278
0.994824 0.994827 0.837704
0.994694 0.994822 0.837018
0.999803 0.994839 0.879669
1.00098 1.00274 0.990534
0.994817 0.994803 0.836674
0.994759 0.994778 0.830049
0.99472 0.994784 0.831101
0.999055 0.995013 0.973285
0.99915 0.994876 0.942502
0.996677 0.994997 0.872354
0.994717 0.994794 0.825301
0.996576 0.994898 0.964433
0.996867 0.999514 0.942604
0.994767 0.998812 0.874032
0.994816 0.99483 0.824749
0.994868 0.994891 0.959668
0.994868 0.998485 0.941405
0.99525 0.999967 0.880395
0.995061 0.994864 0.836897
0.999959 1.00487 0.990061
1.0002 1.00434 0.990306
1.00004 1.0031 0.991796
1.00059 1.00337 0.990442
1.00044 1.00439 0.989822
0.999963 1.00381 0.991371
1.00082 1.00314 0.99063
1.00048 1.00361 0.99078
0.998915 0.995964 0.99286
1.00222 0.996896 0.994406
1.00033 1.00511 0.989435
1.00092 0.999818 0.993966
0.999633 1.00514 0.991521
1.00009 1.00509 0.990132
0.999592 1.00488 0.990267
0.996184 0.997162 0.993427
0.998708 1.00491 0.992627
0.998197 1.00306 0.995129
0.997351 0.998452 1.0011
0.999333 1.00486 0.991484
0.995186 1.00058 0.988808
0.995641 1.00118 1.00029
0.996436 1.00474 0.996081
0.998652 1.00471 0.992999
0.994784 0.994804 0.845864
0.994828 0.994821 0.84471
0.994716 0.994829 0.836133
0.997657 1.00391 0.996104
0.995468 1.00084 0.998116
0.994807 0.994828 0.846528
0.994858 0.999848 0.944155
0.995333 0.996396 0.969058
0.994977 0.99932 0.876328
0.994802 0.994784 0.830709
0.994862 0.994853 0.831364
0.995286 1.0047 0.999284
0.994796 0.994823 0.84012
0.994852 0.994824 0.837539
0.994793 0.999769 0.994484
0.994804 0.994822 0.825274
0.994854 0.996879 0.940328
0.995547 0.998002 0.886691
0.994848 1.00357 0.998471
0.994825 0.99485 0.845067
0.994801 0.994806 0.837416
0.994718 0.994774 0.825427
0.994971 0.999978 0.8802
0.994898 1.00045 0.976906
0.995385 0.998209 0.933418
0.996701 1.00459 0.996848
0.995193 1.00522 0.998805
0.99491 1.00519 0.998327
0.999279 1.0047 0.990998
0.99622 1.0052 0.996622
0.99517 1.00518 0.997944
0.996491 1.00465 0.996126
0.995216 1.00524 0.997901
0.997845 1.00163 0.997569
0.997706 1.0046 0.994294
0.999179 1.00485 0.991392
0.999065 1.00281 0.994157
0.999011 1.00321 0.991968
0.998463 0.999138 0.997931
1.00239 1.00043 0.98952
1.00417 1.00359 0.983667
1.00494 1.00245 0.98365
1.00209 1.00167 0.990285
1.00419 1.00226 0.985292
1.0052 1.00166 0.984417
1.00431 1.00048 0.986688
1.00489 1.00146 0.984804
1.00091 1.00453 0.9886
1.00249 1.00189 0.988893
1.00275 1.00098 0.987487
1.00025 1.00507 0.989145
1.00024 1.00508 0.989246
1.00034 1.00335 0.991122
0.999881 1.00508 0.989831
1.00025 1.00475 0.989735
1.00018 1.00317 0.991319
1.00028 1.00416 0.990409
1.00013 1.00253 0.992092
1.00012 0.999292 0.995264
1.00019 1.00206 0.992542
1.00018 0.999092 0.995391
1.00005 0.997217 0.998988
1.00014 0.999087 0.995473
1.0001 0.997237 0.998316
1.00006 0.997198 0.999026
1.00047 1.00266 0.991208
1.00024 1.00113 0.993083
1.00043 1.00259 0.991491
1.00017 0.998208 0.996331
1.00015 1.00072 0.993636
1.0003 1.00229 0.992119
1.00006 0.996654 0.999233
1.00011 0.998043 0.996576
1.00004 1.00039 0.994117
1.00004 0.996618 0.999272
1.00007 0.997948 0.996725
1.00002 0.996652 0.999281
0.9948 0.994831 0.845228
0.994823 0.994828 0.837875
0.994687 0.994831 0.837066
1.00088 1.00278 0.990706
1.00073 1.00295 0.990565
1.00096 1.00235 0.991165
0.994865 0.994828 0.834902
0.994817 0.994792 0.83715
0.994755 0.99477 0.83005
0.996865 0.994883 0.965667
0.996912 0.995305 0.931332
0.994772 0.999777 0.893251
0.994821 0.994826 0.819585
0.99499 0.99485 0.962783
0.994892 0.999401 0.93811
0.995165 0.998961 0.876874
0.994961 0.994854 0.833725
0.995108 0.995276 0.959428
0.994857 0.99796 0.942624
0.996375 0.997841 0.883761
0.994841 0.994827 0.823423
0.999954 1.00353 0.991212
1.00029 1.00458 0.989861
1.00041 1.00406 0.990133
1.00074 1.00325 0.990384
1.0002 1.00453 0.9901
1.00082 1.00327 0.990596
0.996079 0.995744 0.99423
0.996777 0.999351 1.00139
0.999712 1.00449 0.990373
0.99882 1.0024 0.995318
0.998814 1.00482 0.992729
0.999034 1.00466 0.99168
0.998197 1.00507 0.993066
0.995204 1.00074 0.988782
0.996135 1.005 0.99664
0.996225 1.00164 0.9993
0.998199 1.00462 0.993706
0.994987 1.00263 0.985418
0.99543 1.00403 0.996236
0.996024 1.00516 0.996842
0.994826 0.994829 0.846114
0.994786 0.994812 0.845584
0.994831 0.994818 0.842958
0.995489 1.00429 0.998925
0.994759 1.00017 0.990678
0.994795 0.994823 0.840069
0.994824 0.998761 0.940237
0.995972 0.997493 0.872354
0.994851 0.994822 0.839446
0.994812 0.994829 0.820495
0.994833 1.00342 0.998938
0.994819 0.994851 0.845797
0.994814 0.994803 0.837909
0.994888 0.999583 0.97426
0.99472 0.994776 0.819021
0.995558 0.999804 0.875208
0.995169 0.996196 0.946208
0.994908 1.00511 0.991718
0.994791 0.994843 0.845358
0.994779 0.994793 0.831083
0.99465 0.994787 0.834785
0.994757 0.997389 0.870692
0.994867 0.999387 0.941696
0.994887 1.00084 0.968294
0.995424 1.00516 0.998757
0.99501 1.0051 0.998359
0.997291 1.00236 0.997726
0.996741 1.00444 0.996082
0.99523 1.00523 0.997924
0.996495 1.00352 0.997489
0.999003 0.996939 1.00011
0.999018 1.00313 0.994635
1.00125 1.00238 0.991251
1.00236 1.00448 0.986261
1.00212 1.00002 0.990675
1.00416 1.0034 0.983966
1.00441 1.00436 0.982625
1.00497 1.0018 0.983913
1.00513 1.00178 0.98413
1.00486 1.00253 0.983628
1.00443 1.00239 0.984568
1.00511 1.00106 0.985498
1.00518 1.00174 0.984296
1.00268 1.00236 0.9876
1.00423 1.00058 0.986952
1.00447 1.00135 0.985155
1.00049 1.00507 0.988357
1.00117 1.00453 0.988563
1.00239 1.00227 0.988706
1.0003 1.0038 0.990584
1.00052 1.00492 0.989148
0.999971 1.00507 0.98947
1.00034 1.00464 0.989744
1.00026 1.00311 0.99132
1.00007 0.999726 0.994926
1.00021 1.00247 0.992073
1.00014 0.99933 0.995242
1.00004 0.997354 0.998955
1.00019 0.999123 0.995384
1.0001 0.997252 0.998287
1.00008 0.99723 0.998985
1.00054 1.00305 0.990982
1.00036 1.00137 0.992859
1.00057 1.00256 0.99127
1.00023 0.998438 0.995997
1.00024 1.00114 0.993168
1.00041 1.00262 0.991632
1.00009 0.996724 0.99918
1.00017 0.998176 0.99635
1.00018 1.00071 0.993563
1.00006 0.996664 0.999243
1.00011 0.99802 0.99659
1.00004 0.996631 0.999279
0.994828 0.994845 0.844491
0.994801 0.994846 0.845166
0.994819 0.994842 0.83812
1.00036 1.00421 0.989751
1.00115 1.00398 0.989686
1.00071 1.00286 0.990882
1.00066 1.00316 0.990471
1.00056 1.00254 0.991298
1.00036 1.00299 0.991171
1.00038 1.00213 0.99204
0.994835 0.994793 0.829544
0.994866 0.994832 0.836933
0.994813 0.994807 0.837639
0.994874 0.994849 0.830658
0.994984 0.994842 0.959905
0.994878 0.999912 0.933767
0.995371 0.996901 0.890067
0.994964 0.995887 0.95841
0.994886 0.999436 0.930913
0.995369 0.997951 0.886656
0.994891 0.994819 0.833241
0.995677 0.996999 0.961355
0.995088 0.999459 0.932646
0.995416 0.997193 0.869986
0.994736 0.994809 0.82069
0.998389 1.00485 0.992958
0.999803 1.00385 0.991377
1.0003 1.00476 0.989661
1.00081 1.00338 0.99033
0.995171 1.00038 0.989021
0.996805 1.00229 0.998188
0.998883 1.00489 0.991879
0.997961 1.00505 0.993138
0.996058 1.00516 0.997197
0.998101 1.0043 0.993654
0.996068 1.00503 0.996821
0.996552 1.00203 0.981961
0.994887 1.00501 0.996616
0.996274 1.00427 0.996583
0.994708 1.00438 0.982302
0.995477 1.00363 0.998522
0.994781 0.994814 0.846083
0.994829 0.99483 0.848988
0.994788 0.994824 0.84529
0.994822 1.00332 0.999368
0.994892 0.999054 0.977682
0.994813 0.99485 0.846577
0.995472 0.997479 0.934318
0.995511 0.997574 0.889282
0.994824 0.994812 0.838371
0.994713 0.994793 0.826004
0.994895 1.00442 0.992524
0.994803 0.994842 0.845319
0.994761 0.994788 0.831077
0.994893 1.00013 0.9684
0.994696 0.994796 0.82461
0.994752 0.99874 0.873018
0.995376 0.998896 0.930494
0.99532 1.00448 0.986389
0.99483 0.994825 0.837969
0.994671 0.994764 0.823079
0.996637 0.995231 0.890389
0.994819 0.999384 0.941298
0.994861 0.999989 0.961432
0.995198 1.00514 0.998686
0.996166 1.00324 0.997876
0.996568 0.999258 1.00096
0.995359 1.0052 0.997393
0.997478 0.998678 1.00026
1.00185 0.9981 0.994616
1.00352 1.00145 0.990539
1.00323 1.00419 0.985546
1.0035 1.00443 0.983629
1.00397 1.00341 0.984261
1.0045 1.00432 0.982563
1.00432 1.00428 0.982795
1.00512 1.00042 0.985104
1.0051 1.0011 0.984797
1.00496 1.00199 0.98389
1.00507 1.00168 0.984664
1.0051 1.00166 0.984142
1.00468 1.00269 0.983605
1.00478 1.001 0.986041
1.00492 1.00123 0.985323
1.00516 1.00183 0.984179
1.00166 1.00467 0.987351
1.00268 1.00246 0.987718
1.00414 1.00062 0.987215
1.00041 1.00432 0.989569
1.00083 1.00506 0.988393
1.00131 1.00453 0.988526
1.00007 1.00017 0.994486
1.00037 1.00367 0.990586
1.00073 1.00485 0.98915
1.00028 1.0031 0.991321
1.00007 0.999781 0.994898
0.999988 0.997593 0.998897
1.00016 0.999357 0.99522
1.00004 0.997385 0.998942
1.00007 0.997248 0.998969
1.00008 1.00502 0.989784
1.00071 1.00361 0.990178
1.00045 1.0018 0.992301
1.00055 1.00298 0.990968
1.00025 0.998736 0.995644
1.00035 1.0014 0.992852
1.00058 1.00255 0.991333
1.0001 0.996884 0.999099
1.00022 0.998425 0.996018
1.00024 1.00115 0.993251
1.00008 0.996722 0.999197
1.00016 0.998159 0.99637
1.00006 0.996641 0.999254
0.994794 0.994832 0.839935
0.99481 0.994842 0.84526
0.99481 0.994837 0.845096
1.00046 1.00444 0.989739
1.00077 1.00357 0.989847
1.00002 1.00254 0.99074
0.999978 1.0045 0.989932
1.00137 1.00352 0.990385
1.00072 1.0033 0.990374
1.00039 1.0027 0.991431
1.00043 1.00297 0.991191
1.00036 1.00241 0.992064
0.999248 1.00404 0.992174
0.994754 0.994785 0.832745
0.994815 0.994791 0.830189
0.994865 0.994823 0.838899
0.994954 0.994832 0.833912
0.996069 0.997847 0.872249
0.99489 0.99641 0.956902
0.994893 0.998817 0.942491
0.99499 0.997444 0.958026
0.994881 0.996303 0.944112
0.99491 0.999462 0.878501
0.994757 0.994793 0.819381
0.994782 0.998557 0.962335
0.994832 1.00028 0.943893
0.99473 0.99921 0.8924
0.994698 0.994806 0.834832
0.998176 1.00312 0.995001
0.998145 1.00471 0.993101
0.999809 1.00383 0.991547
0.997315 1.00204 0.97819
0.994749 1.00503 0.997103
0.997933 1.0044 0.993597
0.995899 1.0051 0.996806
0.996594 1.00417 0.996556
0.995268 1.00338 0.99881
0.994891 1.00207 0.981556
0.995767 1.00174 0.999364
0.995775 1.0002 0.987189
0.994819 0.994822 0.845452
0.994788 0.994823 0.845814
0.994828 0.994828 0.851881
0.994898 1.00368 0.992949
0.994864 0.999754 0.965685
0.994815 0.994846 0.845256
0.994884 0.999618 0.941602
0.994738 0.99976 0.891887
0.994743 0.994773 0.831166
0.994721 0.9948 0.814052
0.995585 1.00426 0.987084
0.994815 0.994831 0.838068
0.994696 0.99477 0.821778
0.995042 0.999541 0.962389
0.996645 0.997581 0.887936
0.994928 0.999223 0.936302
0.995134 1.00327 0.984772
0.994683 0.994793 0.826435
0.999009 0.994832 0.89188
0.996609 0.99728 0.932701
0.994861 0.996794 0.964211
0.995608 1.00414 0.998013
0.996248 0.999565 1.00096
0.99878 1.0024 0.99609
0.995937 1.00034 1.00039
1.0007 0.998657 0.995127
1.00333 0.999725 0.989393
1.00413 1.00381 0.984814
1.00353 1.00441 0.983501
1.00419 1.00176 0.98491
1.00471 1.00425 0.982505
1.00437 1.0039 0.982882
1.00487 1.0004 0.985695
1.00524 0.997883 0.987278
1.00521 0.999787 0.985498
1.0051 1.00031 0.985196
1.00512 1.00109 0.984939
1.0051 1.00112 0.984719
1.00496 1.00215 0.983866
1.00509 1.00171 0.984781
1.0049 1.00158 0.984691
1.00507 1.00158 0.984155
1.00367 1.00252 0.986314
1.00435 1.00139 0.986044
1.00477 1.00143 0.985148
1.00067 1.00504 0.988071
1.00173 1.00459 0.987369
1.0028 1.00258 0.987834
1.00008 1.00091 0.994621
1.0006 1.00431 0.989563
1.00115 1.00504 0.988431
0.999987 0.997981 0.997072
1.00007 1.00032 0.994788
1.00044 1.00357 0.990588
1.00007 0.999854 0.99487
0.999992 0.997647 0.998865
1.00004 0.997395 0.998927
1.0002 1.00511 0.989668
1.0006 1.00479 0.989445
0.999901 1.00501 0.989717
1.00049 1.00249 0.991557
1.00051 1.00397 0.990161
1.00022 0.999083 0.995346
1.00044 1.00179 0.992312
1.00066 1.00289 0.990953
1.00009 0.997111 0.999017
1.00025 0.998716 0.99566
1.00035 1.00143 0.992845
1.00009 0.99687 0.999124
1.00021 0.998401 0.996039
1.00008 0.996714 0.999214
0.994791 0.994823 0.847189
0.994805 0.994835 0.839878
0.994798 0.994856 0.84606
1.0007 1.00241 0.990574
1.00015 1.00482 0.989726
1.00065 1.00336 0.990014
1.00049 1.00456 0.989709
1.00075 1.00246 0.990791
1.00074 1.00318 0.991229
1.00243 1.00231 0.988641
0.998806 1.00491 0.991137
1.00053 1.00288 0.991211
0.999992 1.00244 0.992087
0.99913 1.00391 0.992101
0.998263 1.00524 0.992694
0.994702 0.994796 0.828466
0.994782 0.994791 0.832282
0.994813 0.994788 0.830708
0.994765 0.994801 0.831416
0.994912 0.999441 0.877656
0.995495 0.998282 0.932627
0.994859 0.997371 0.957378
0.994947 0.998154 0.962058
0.994705 0.994808 0.824422
0.994849 0.997396 0.936665
0.994755 0.999742 0.877151
0.994912 0.996342 0.966463
0.994881 0.999916 0.94454
0.996611 0.996 0.888267
0.999341 0.997847 0.997979
0.998169 1.00295 0.994963
0.998079 1.0045 0.993236
0.995081 1.00115 0.981363
0.994898 1.00302 0.999074
0.997003 1.00393 0.996529
0.996895 1.00156 0.999436
0.995231 0.999201 0.987352
0.99663 0.99819 0.992277
0.994722 0.994856 0.837981
0.994819 0.994813 0.847289
0.994794 0.994825 0.845496
0.995168 1.00414 0.987459
0.99487 0.999977 0.962242
0.994802 0.994838 0.838326
0.994843 0.99985 0.93253
0.996565 0.99486 0.873708
0.994727 0.994787 0.832316
0.994818 1.00408 0.98479
0.994695 0.994822 0.837561
0.998967 0.994799 0.875204
0.994857 0.995936 0.959925
0.996676 0.999036 0.943101
0.994819 1.00322 0.990086
0.9998 0.994846 0.869534
0.999351 0.994903 0.944778
0.994857 0.994842 0.959143
0.995923 0.999744 1.00101
0.998103 1.00145 0.995727
1.00154 1.00365 0.990676
0.999516 0.999359 0.995644
1.0027 1.00054 0.989233
1.00415 0.999898 0.987484
1.00351 1.00446 0.983375
1.00409 1.00198 0.984875
1.00499 0.997185 0.987877
1.00438 1.00344 0.982969
1.00473 1.00021 0.985723
1.00526 0.996194 0.988866
1.00523 0.996187 0.989318
1.00524 0.998102 0.987158
1.00526 0.997785 0.987406
1.00522 0.999676 0.985662
1.0052 0.999765 0.985663
1.00511 1.00021 0.985288
1.0052 1.00133 0.9845
1.00513 1.00101 0.984908
1.00512 1.00111 0.984639
1.00498 1.00114 0.985403
1.00493 1.00166 0.984792
1.00471 1.00147 0.984715
1.00201 1.00434 0.986922
1.00356 1.00266 0.98627
1.00388 1.00175 0.986049
1.00001 1.00198 0.992729
1.00118 1.00481 0.988078
1.00183 1.00458 0.987384
0.999812 0.998565 0.998611
1.0001 1.00094 0.993636
1.00081 1.00417 0.98956
0.999976 0.997967 0.998755
1.00006 1.00039 0.994357
1 0.997717 0.998831
1.00176 1.00372 0.988811
1.00023 1.00503 0.989531
1.00061 1.00508 0.989084
1.00039 1.00346 0.990737
1.00045 1.00472 0.989419
1.00008 1.00491 0.989652
1.00016 0.999545 0.995006
1.00046 1.00251 0.991579
1.0003 1.00409 0.990143
1.00007 0.997322 0.998952
1.00023 0.999028 0.995362
1.00044 1.00176 0.992324
1.00009 0.997075 0.999041
1.00024 0.998703 0.995675
1.00009 0.99684 0.99915
0.994711 0.994819 0.82322
0.994808 0.994825 0.847395
0.994811 0.994838 0.839835
1.00063 1.0028 0.990545
1.004 1.002 0.987623
1.00122 1.00355 0.989811
1.0005 1.0045 0.989483
1.00161 1.00227 0.990835
0.999779 1.00253 0.99206
0.999425 1.00477 0.990806
1.00167 1.00276 0.98911
1.00159 1.00414 0.988615
0.999592 0.999821 0.995198
0.999705 1.00383 0.992026
0.998561 1.0052 0.992507
0.999356 0.994822 0.868789
0.994673 0.994787 0.822111
0.99479 0.994795 0.832254
0.994714 0.994804 0.813496
0.994782 0.99853 0.893909
0.9948 0.999267 0.932333
0.995073 0.996074 0.959853
0.994862 0.99633 0.964754
0.996824 0.998434 0.886995
0.994859 0.998924 0.933146
0.994882 0.997108 0.967367
0.996455 0.996382 0.9326
1.00097 0.996031 0.998808
0.999255 0.998815 0.997932
0.998181 1.00287 0.994939
0.994846 0.998828 0.987616
0.997705 1.00112 0.999502
0.997115 0.998326 0.991988
0.997328 0.995762 0.990963
0.999805 0.994898 0.882564
0.994712 0.994842 0.836019
0.994827 0.994811 0.849001
0.994851 1.00417 0.985089
0.994846 0.995124 0.958446
0.99469 0.994832 0.837483
0.996748 0.995196 0.9326
0.999111 0.994835 0.892111
0.994852 1.00125 0.986983
0.999804 0.994861 0.880453
1.00017 0.995747 0.931967
0.994877 0.994815 0.961659
0.997098 0.998043 0.988783
0.999974 0.994888 0.945181
0.995454 0.994863 0.96547
0.997854 1.00054 0.995314
1.0007 1.00155 0.99079
1.00389 0.999341 0.99049
1.00216 1.00122 0.989086
1.00409 0.99967 0.987502
1.00512 0.996217 0.989238
1.0041 1.00211 0.984844
1.00495 0.997596 0.987813
1.00522 0.995193 0.989889
1.00462 1.00001 0.985748
1.00526 0.996296 0.988811
1.00524 0.99511 0.990244
1.00522 0.995491 0.990254
1.00523 0.996093 0.989496
1.00521 0.996663 0.989081
1.00527 0.998469 0.987061
1.00523 0.998166 0.987267
1.00527 0.997684 0.987534
1.00526 1.00033 0.985354
1.00523 0.999723 0.985623
1.00519 0.999725 0.985827
1.00518 1.00145 0.984716
1.00518 1.00137 0.984546
1.00513 1.00096 0.98488
1.00326 1.00288 0.986382
1.00482 1.00129 0.985375
1.00475 1.00165 0.984801
1.00034 1.00276 0.991364
1.00212 1.00424 0.986937
1.00355 1.00261 0.986226
0.999909 0.998931 0.998381
1.00014 1.00186 0.992687
1.00157 1.0047 0.988084
0.999912 0.998548 0.997646
1.00014 1.00102 0.993638
0.999994 0.998107 0.998668
1.0032 1.00165 0.988052
1.00114 1.00373 0.989026
1.00056 1.00508 0.988734
1.00025 1.00498 0.989393
1.00039 1.00507 0.989093
1.00053 1.00419 0.989878
1.0001 1.00025 0.994439
1.00033 1.00358 0.990728
1.0002 1.00484 0.989394
1.00004 0.997572 0.998856
1.00015 0.999502 0.995028
1.0004 1.00256 0.991601
1.00006 0.997292 0.99897
1.00024 0.998984 0.995381
1.00009 0.997048 0.999065
0.999796 0.994838 0.880102
0.9947 0.99483 0.828411
0.994819 0.994825 0.84759
1.00052 1.00318 0.990516
1.00114 1.00414 0.988889
1.0032 1.00261 0.987907
1.0049 1.00365 0.983265
1.00124 1.00355 0.988818
0.999634 1.00485 0.990495
1.00116 1.00324 0.989579
1.00085 1.0041 0.989033
1.00356 0.999711 0.987764
1.00181 0.999732 0.992496
1.0035 0.995247 0.993014
1.00032 0.999476 0.995063
0.999329 1.00449 0.992327
0.998485 0.994875 0.943011
0.999551 0.994785 0.873581
0.994656 0.994788 0.826659
0.996867 0.996399 0.873758
0.994875 0.999875 0.941555
0.994857 0.995511 0.965713
0.994904 0.996814 0.969024
0.997072 0.999321 0.944311
0.995739 0.995125 0.968711
1.00039 0.995829 0.998446
1.00031 0.996439 0.998838
0.99906 0.999798 0.997873
0.997798 0.997879 0.991803
0.997994 0.996748 0.991097
0.999972 0.994892 0.934791
0.999804 0.994884 0.887672
0.994697 0.994828 0.834158
0.9949 0.999644 0.983645
0.99495 0.994823 0.95924
0.999805 0.994838 0.880082
0.999104 0.994869 0.943414
0.996761 0.997988 0.98906
1.00073 0.994893 0.941945
0.996435 0.994885 0.963081
1.00066 0.995149 0.98903
0.998654 0.994867 0.973019
0.999553 0.999483 0.990992
1.00343 0.997611 0.990486
1.00482 0.995137 0.991661
1.00392 0.999394 0.987515
1.005 0.996166 0.989101
1.00521 0.994882 0.99037
1.00482 0.998054 0.98775
1.00522 0.995251 0.989836
1.00523 0.994893 0.990439
1.00526 0.996405 0.988756
1.00524 0.995176 0.990207
1.00524 0.994996 0.990533
1.00521 0.995366 0.990324
1.0052 0.995695 0.990161
1.00522 0.995992 0.989675
1.00521 0.996661 0.989074
1.00523 0.997331 0.988345
1.00529 0.999344 0.986371
1.00527 0.998533 0.987039
1.00523 0.99823 0.987377
1.00529 1.00108 0.984687
1.00527 1.00039 0.985233
1.00523 0.999767 0.985581
1.00397 1.0019 0.986104
1.00504 1.00149 0.984741
1.00515 1.00139 0.984592
1.001 1.00285 0.990214
1.00314 1.00305 0.986385
1.00452 1.00158 0.985351
1.00003 0.999722 0.997998
1.00049 1.00263 0.99135
1.00235 1.00417 0.986953
0.999996 0.999108 0.998257
1.00033 1.00167 0.992644
1.00001 0.99855 0.998461
1.00454 1.00241 0.984701
1.00325 1.0015 0.987932
1.00143 1.00422 0.987742
1.00055 1.00369 0.989248
1.0006 1.005 0.988589
1.00075 1.00478 0.988908
1.00027 1.00508 0.989099
1.00035 1.00435 0.989852
1.00014 1.00093 0.993686
1 0.997993 0.998674
1.00007 1.00019 0.994461
1.00026 1.00367 0.990719
1.00002 0.997553 0.998891
1.00014 0.999443 0.995044
1.00007 0.997265 0.99899
0.999975 0.99489 0.946727
0.999816 0.994858 0.87982
0.994682 0.994823 0.82312
1.00101 1.00478 0.987962
1.00259 1.00292 0.988197
1.00217 1.0034 0.988333
1.00443 1.0035 0.983977
1.00495 1.00169 0.984314
1.0034 1.00157 0.986011
1.00026 1.00432 0.989436
1.00417 0.999904 0.986807
1.00175 0.999657 0.992707
1.0035 0.997156 0.99018
1.00432 0.995874 0.991819
1.0031 0.996213 0.992858
1.0031 0.99548 0.993196
0.9999 0.999825 0.994924
0.996028 0.994863 0.966886
0.999451 0.99613 0.93904
0.998355 0.994844 0.888919
0.996706 0.99735 0.932292
0.994899 0.996871 0.969541
0.995433 0.995755 0.9745
0.999266 0.995633 0.992781
1.00091 0.995329 0.998069
0.999684 0.996649 0.998887
0.998981 0.998353 0.991263
0.997066 0.996182 0.967938
1.0001 0.994879 0.947413
0.999806 0.994878 0.872282
0.996159 0.997776 0.989341
0.9969 0.994868 0.964024
0.999979 0.994879 0.938453
1.00009 0.994974 0.989246
0.998569 0.994918 0.972404
1.00299 0.994865 0.9908
1.00301 0.997309 0.985583
1.00275 0.995998 0.990455
1.00447 0.995125 0.991665
1.0051 0.994773 0.991023
1.00497 0.996208 0.988966
1.00521 0.994884 0.990322
1.00525 0.994886 0.990503
1.00523 0.995305 0.989783
1.00523 0.994899 0.990417
1.00526 0.994905 0.990513
1.00524 0.995232 0.99017
1.00523 0.994985 0.990517
1.00524 0.995022 0.990542
1.00521 0.995245 0.990393
1.0052 0.995571 0.990218
1.00522 0.996488 0.989381
1.00521 0.996663 0.989067
1.00523 0.997385 0.988326
1.00527 0.998573 0.987257
1.00531 1.00036 0.985381
1.00529 0.999472 0.9862
1.00526 0.998597 0.987018
1.0046 1.00101 0.985918
1.00527 1.00109 0.984721
1.00528 1.00045 0.985112
1.0015 1.00249 0.989666
1.00385 1.00213 0.986087
1.0049 1.00152 0.984763
1.00037 1.00035 0.997501
1.00107 1.0027 0.990208
1.00303 1.00319 0.986385
1.00019 0.999883 0.997798
1.00053 1.00248 0.991344
1.00011 0.99924 0.9981
1.00476 1.0019 0.984531
1.00479 1.00223 0.984869
1.00385 1.00232 0.985767
1.00306 1.00178 0.987812
1.00161 1.00403 0.987519
1.00155 1.00484 0.987739
1.00056 1.00495 0.988445
1.00067 1.00485 0.988906
1.00017 1.00177 0.992848
1.00025 1.00457 0.989827
1.00008 1.00098 0.993716
0.999954 0.998606 0.998455
0.999982 0.997949 0.998743
1.00003 1.00017 0.994485
1.00001 0.997501 0.99892
0.996968 0.994889 0.968188
0.999973 0.994872 0.934189
0.99981 0.994854 0.890669
1.00518 0.999476 0.985954
1.00319 1.00337 0.98786
1.00394 1.00336 0.984689
1.00408 1.00137 0.98631
1.00497 1.00187 0.984227
1.00454 0.998858 0.987773
1.00477 1.00103 0.98585
1.00144 0.999044 0.992921
1.00398 0.997725 0.98985
1.00416 0.995982 0.991143
1.00478 0.995727 0.98998
1.00347 0.995264 0.993539
1.00313 0.995832 0.992896
1.0029 0.995723 0.993371
0.99909 0.995643 0.991072
0.995878 0.99487 0.965224
0.999028 0.994862 0.934787
0.995022 0.996386 0.972981
0.998973 0.995507 0.995316
1.00088 0.994941 0.99764
1.00153 0.996485 0.982889
0.997095 0.995462 0.968487
0.999978 0.994895 0.934804
0.99936 0.994863 0.989503
0.998881 0.99498 0.971588
1.0021 0.995006 0.991286
1.00295 0.99663 0.986337
1.00399 0.994935 0.991383
1.00455 0.997398 0.990855
1.00419 0.994975 0.991657
1.00508 0.994795 0.990914
1.00529 0.994827 0.990485
1.00521 0.994884 0.990276
1.00524 0.994882 0.990497
1.00529 0.994884 0.990472
1.00523 0.994905 0.990395
1.00526 0.994904 0.990517
1.00526 0.994915 0.990629
1.00521 0.994988 0.990501
1.00524 0.99501 0.990524
1.00522 0.995528 0.990207
1.00521 0.995449 0.990276
1.00522 0.996342 0.989535
1.00526 0.997819 0.988096
1.00524 0.997435 0.988307
1.00527 0.998527 0.987302
1.0053 1.00001 0.985843
1.0049 1.00053 0.985901
1.00531 1.00047 0.985273
1.00529 0.999596 0.986029
1.00213 1.00151 0.989571
1.00451 1.00115 0.985929
1.00525 1.0011 0.984757
1.00066 1.0006 0.997176
1.00171 1.00215 0.989665
1.00374 1.0023 0.986075
1.00051 1.00042 0.997357
1.00121 1.00251 0.990204
1.00036 1.00007 0.997605
1.00527 1.00072 0.984908
1.00502 1.00191 0.984439
1.00504 1.00133 0.984891
1.00511 1.00205 0.985037
1.00408 1.00229 0.985606
1.00251 1.00401 0.986879
1.0019 1.00368 0.987296
1.00126 1.00499 0.987762
1.00038 1.00237 0.991852
1.00052 1.00487 0.988902
1.00008 1.00174 0.992879
0.999934 0.999223 0.99819
1.00001 1.00091 0.993744
0.999941 0.998469 0.998535
0.999964 0.99787 0.998804
1.00077 0.99488 0.987497
0.996753 0.994897 0.964889
0.999974 0.994883 0.94659
1.00503 0.998099 0.987816
1.00525 0.997671 0.987853
1.00518 0.999267 0.986219
1.00473 1.00087 0.986602
1.00501 1.00212 0.984139
1.00458 0.998653 0.98812
1.0051 0.995757 0.989351
1.00458 0.99773 0.989532
1.00411 0.996447 0.990468
1.00468 0.996259 0.990292
1.00511 0.995105 0.990651
1.0038 0.995377 0.992455
1.00314 0.995551 0.993331
1.00342 0.99538 0.992946
0.999743 0.995545 0.991189
0.995723 0.994861 0.963687
0.998972 0.995451 0.997959
1.00444 0.995129 0.990949
1.00136 0.996603 0.983043
0.997134 0.994871 0.966581
1.00171 0.994801 0.991739
1.00285 0.995937 0.987115
1.00403 0.994845 0.992017
1.00458 0.996594 0.990934
1.00527 0.99483 0.990852
1.00537 0.994928 0.991047
1.00505 0.994808 0.990808
1.0053 0.994834 0.990456
1.00531 0.994868 0.990493
1.00523 0.994877 0.990491
1.00529 0.994885 0.99049
1.00526 0.994888 0.990642
1.00525 0.994902 0.990522
1.00526 0.994913 0.99062
1.00525 0.995091 0.990647
1.00524 0.994996 0.990506
1.00523 0.995544 0.990185
1.00526 0.997073 0.988792
1.00523 0.996193 0.98969
1.00526 0.997746 0.988159
1.00531 0.999577 0.986256
1.00527 0.998485 0.987347
1.00531 0.999934 0.98593
1.00499 1.00034 0.985964
1.00249 1.00074 0.98969
1.00488 1.00058 0.985906
1.0053 1.00058 0.985165
1.00082 1.00063 0.997037
1.00217 1.00145 0.989562
1.00439 1.00136 0.985941
1.00072 1.00064 0.99711
1.00184 1.00196 0.989665
1.00061 1.00054 0.997237
1.00529 0.999035 0.986474
1.00525 1.0006 0.985087
1.00519 1.00095 0.985033
1.00516 1.00186 0.984347
1.00512 1.00127 0.984914
1.00332 1.00257 0.986706
1.00439 1.00225 0.985447
1.00241 1.00381 0.986888
1.00069 1.00283 0.990768
1.00097 1.00507 0.987786
1.00025 1.00248 0.991885
1.00001 1.00001 0.997849
1.00003 1.00177 0.99291
0.999891 0.999138 0.998293
0.999915 0.99838 0.998611
1.00431 0.994845 0.992171
1.0009 0.994877 0.985377
0.996596 0.994916 0.964082
1.00513 0.99704 0.988845
1.00502 0.997679 0.988077
1.00528 0.99647 0.98904
1.00525 0.997694 0.987826
1.00518 0.999055 0.986479
1.00523 0.995145 0.989917
1.00466 0.998602 0.988458
1.00511 0.996123 0.989324
1.00525 0.994876 0.990446
1.00455 0.996609 0.990603
1.00506 0.995225 0.99037
1.0036 0.995396 0.992691
1.00257 0.995862 0.993124
1.00019 0.995377 0.991155
1.00532 0.994905 0.99079
1.0044 0.996134 0.991162
1.00122 0.996908 0.983237
1.00394 0.994778 0.992635
1.00457 0.9958 0.991019
1.00526 0.994817 0.990922
1.00538 0.994925 0.990982
1.00534 0.994894 0.990843
1.00532 0.994846 0.990428
1.00531 0.994876 0.990505
1.00525 0.994906 0.990767
1.00529 0.994888 0.990509
1.00526 0.994891 0.990639
1.00525 0.994913 0.990867
1.00526 0.994912 0.990611
1.00524 0.995095 0.990622
1.00525 0.996342 0.989559
1.00524 0.995568 0.990162
1.00525 0.997097 0.988797
1.00532 0.999133 0.986735
1.00526 0.997672 0.988223
1.00531 0.99958 0.986282
1.005 1.00028 0.986027
1.00531 0.999858 0.986016
1.005 1.00035 0.985972
1.00258 1.00033 0.991554
1.00116 1.0002 0.993776
1.00253 1.00073 0.990487
1.00485 1.00063 0.985911
1.00085 1.00065 0.997005
1.00231 1.00126 0.98955
1.00077 1.00068 0.997047
1.00525 0.996291 0.989489
1.00528 0.997914 0.987794
1.0053 0.999037 0.986643
1.00527 1.00037 0.985453
1.00523 1.0005 0.985267
1.00523 1.00097 0.984974
1.00402 1.00142 0.986539
1.00516 1.00123 0.984935
1.00349 1.00215 0.98669
1.00131 1.00269 0.98989
1.00238 1.00364 0.986894
1.00065 1.00294 0.990756
1.00023 1.00066 0.997417
1.00014 1.00253 0.991916
0.999927 0.99977 0.997985
0.999864 0.998981 0.998384
1.00533 0.994864 0.990719
1.00449 0.994828 0.991918
1.00128 0.994869 0.983315
1.00526 0.99567 0.98973
1.00508 0.996989 0.988728
1.00505 0.997226 0.988346
1.00528 0.996621 0.989026
1.00525 0.997703 0.987798
1.00532 0.994855 0.990523
1.00525 0.995118 0.98995
1.00512 0.996507 0.989299
1.00524 0.994881 0.99047
1.00504 0.99531 0.990088
1.00352 0.995425 0.99293
1.00531 0.994933 0.990895
1.00534 0.994911 0.990975
1.00438 0.99681 0.991377
1.00526 0.994801 0.990978
1.00539 0.994922 0.990921
1.00534 0.994894 0.990807
1.00524 0.994942 0.99102
1.00531 0.994884 0.990516
1.00525 0.994906 0.990738
1.00522 0.99492 0.991014
1.00527 0.994893 0.990636
1.00525 0.994912 0.990849
1.00525 0.995743 0.990198
1.00524 0.99509 0.990597
1.00526 0.996369 0.989553
1.00532 0.998723 0.987204
1.00525 0.997121 0.988801
1.00532 0.999134 0.986758
1.00499 1.00023 0.98612
1.00531 0.999581 0.986307
1.00502 1.00026 0.986041
1.00267 1.00007 0.991676
1.00501 1.00034 0.985979
1.00277 1.00023 0.991438
1.00121 0.999978 0.993951
1.0009 1.00048 0.995445
1.00273 1.00067 0.99112
1.00085 1.0007 0.996988
1.00523 0.995367 0.990502
1.00526 0.997586 0.988154
1.00525 0.996118 0.989665
1.00532 0.999687 0.986063
1.00528 0.997972 0.98778
1.0053 0.99904 0.986813
1.00528 1.00038 0.985399
1.00467 1.00056 0.986257
1.00525 1.00098 0.984915
1.00414 1.00116 0.986535
1.00189 1.00191 0.989576
1.00358 1.00178 0.986678
1.00113 1.00285 0.989884
1.00042 1.00114 0.99709
1.00048 1.00308 0.990759
1.00008 1.00052 0.99759
0.999856 0.99965 0.998111
1.00529 0.994876 0.990739
1.0053 0.994863 0.990716
1.00455 0.994819 0.991654
1.00526 0.99492 0.990606
1.00524 0.99571 0.989734
1.00499 0.996958 0.988615
1.00527 0.996775 0.989013
1.00531 0.994882 0.990505
1.00526 0.995085 0.989981
1.0052 0.994886 0.990494
1.00526 0.994961 0.991005
1.0053 0.99493 0.990881
1.00536 0.994918 0.991157
1.0052 0.99497 0.991144
1.00533 0.994894 0.990772
1.00524 0.994945 0.991008
1.00518 0.99496 0.99112
1.00525 0.994907 0.990709
1.00522 0.994921 0.991008
1.00525 0.995392 0.990637
1.00525 0.994911 0.990832
1.00525 0.995767 0.990191
1.00531 0.998369 0.987627
1.00527 0.996398 0.989548
1.00532 0.99872 0.987223
1.00497 1.00014 0.986269
1.00532 0.999134 0.986781
1.00502 1.0002 0.986137
1.00269 1.00005 0.991654
1.00505 1.00024 0.986055
1.00282 1.00001 0.991536
1.00127 0.999864 0.993993
1.00295 1.00011 0.991331
1.00082 1.00015 0.994219
1.00034 1.00082 0.99744
1.00523 0.995241 0.990536
1.00527 0.996795 0.989065
1.00524 0.995458 0.990332
1.00534 0.999357 0.986486
1.00527 0.997273 0.988404
1.00524 0.995948 0.989841
1.00503 1.00005 0.986195
1.00532 0.999693 0.986023
1.00528 0.998026 0.987767
1.00529 1.00039 0.985345
1.00473 1.00046 0.986249
1.00226 1.00116 0.989676
1.00426 1.00091 0.986532
1.00175 1.00211 0.989597
1.00053 1.00123 0.996994
1.00109 1.00297 0.989869
1.00035 1.00099 0.997203
0.999965 1.0003 0.997751
1.00522 0.994899 0.990976
1.00529 0.994878 0.990712
1.0053 0.994862 0.990715
1.00527 0.994952 0.990616
1.00523 0.99575 0.989738
1.0053 0.994907 0.990488
1.00522 0.994971 0.991073
1.00526 0.994957 0.991012
1.00529 0.994928 0.990868
1.0052 0.994969 0.991142
1.00514 0.994966 0.991292
1.00524 0.994947 0.990997
1.00519 0.994961 0.991137
1.00525 0.995251 0.990851
1.00523 0.994922 0.991004
1.00523 0.995404 0.990634
1.0053 0.998071 0.987945
1.00526 0.995783 0.990183
1.0053 0.99836 0.987641
1.00495 1.00001 0.986461
1.00532 0.998717 0.987243
1.00499 1.00012 0.986285
1.00264 1.00015 0.9916
1.00504 1.00018 0.986154
1.00283 1.00001 0.991502
1.00131 0.999885 0.99392
1.00297 0.99995 0.991406
1.00092 0.999918 0.994283
1.00044 1.00034 0.99447
1.00524 0.994957 0.990927
1.00527 0.996406 0.989461
1.00524 0.995105 0.990608
1.00534 0.99863 0.987256
1.00527 0.996902 0.988929
1.00525 0.995542 0.990162
1.00512 0.999888 0.98626
1.00534 0.999083 0.986691
1.00528 0.996965 0.988655
1.00254 1.0004 0.989922
1.00503 1.00003 0.986187
1.00532 0.999701 0.985984
1.00478 1.00036 0.986242
1.00221 1.00124 0.989691
1.00065 1.0011 0.99701
1.0016 1.00231 0.989618
1.00051 1.00116 0.997022
1.00022 1.00089 0.997342
1.00521 0.994934 0.991078
1.00523 0.994904 0.990943
1.00527 0.99488 0.990685
1.00527 0.994985 0.990626
1.00517 0.994967 0.991245
1.00521 0.994969 0.99108
1.00526 0.994952 0.991018
1.00519 0.994968 0.99114
1.00515 0.994964 0.991274
1.00523 0.995633 0.990527
1.00519 0.994961 0.991154
1.00523 0.995494 0.990621
1.00532 0.997454 0.988605
1.00522 0.995422 0.99063
1.00531 0.998067 0.987949
1.00492 0.999829 0.98669
1.00529 0.998364 0.987655
1.00496 0.999995 0.986469
1.00265 1.00022 0.990033
1.005 1.0001 0.986301
1.00278 1.00012 0.990691
1.00112 0.999956 0.997038
1.00297 0.999971 0.991351
1.00099 0.999875 0.994218
1.00059 0.999956 0.994556
1.00524 0.99497 0.991016
1.00526 0.995955 0.98999
1.00524 0.99503 0.990858
1.00531 0.998123 0.987798
1.00526 0.996419 0.989406
1.00525 0.994973 0.99068
1.00509 0.999619 0.986523
1.00534 0.99862 0.987267
1.00526 0.997005 0.988793
1.0027 0.999898 0.990153
1.00509 0.999781 0.986322
1.00533 0.9988 0.986897
1.00082 1.00068 0.99709
1.00255 1.00038 0.989932
1.00503 1 0.986177
1.00215 1.00129 0.989709
1.00065 1.00103 0.996998
1.00048 1.0011 0.997059
1.00519 0.994956 0.991154
1.0052 0.994937 0.991082
1.00524 0.994908 0.99091
1.00523 0.995635 0.990527
1.00517 0.994968 0.99124
1.00521 0.994968 0.991087
1.00516 0.994962 0.991257
1.00523 0.995627 0.990528
1.00534 0.997554 0.988563
1.00522 0.995733 0.99039
1.00533 0.997789 0.988257
1.00487 0.999398 0.987161
1.00532 0.99805 0.987953
1.00493 0.999819 0.986689
1.00261 1.00015 0.99018
1.00497 0.99998 0.986477
1.00266 1.0002 0.990039
1.00107 1.00001 0.997024
1.00281 1.0001 0.989911
1.00098 0.999957 0.99565
1.00067 0.999845 0.994514
1.00524 0.99495 0.991042
1.00527 0.995817 0.990209
1.00523 0.994956 0.991027
1.0053 0.998257 0.987714
1.00527 0.996008 0.989934
1.00524 0.995108 0.990787
1.00503 0.999542 0.986719
1.00531 0.998398 0.98754
1.00526 0.996432 0.989352
1.00275 0.999772 0.990205
1.00506 0.99961 0.986539
1.00534 0.998613 0.987278
1.00101 1.00023 0.997123
1.00273 0.999872 0.990156
1.00507 0.999671 0.986382
1.00083 1.00067 0.997053
1.00257 1.00036 0.98994
1.0006 1.00101 0.997008
1.00522 0.995674 0.990452
1.0052 0.994956 0.991146
1.0052 0.994939 0.991085
1.00533 0.997501 0.988636
1.00523 0.995628 0.990521
1.00517 0.994968 0.991235
1.00522 0.99562 0.99053
1.00534 0.997529 0.988569
1.00482 0.999249 0.987404
1.00534 0.998129 0.987909
1.00489 0.999521 0.987031
1.00256 1.00003 0.990379
1.00494 0.999806 0.986689
1.00258 1.00016 0.990189
1.00101 1.00002 0.997024
1.00265 1.00019 0.990043
1.00105 1.00002 0.997018
1.00107 0.999919 0.993999
1.00526 0.995851 0.990156
1.00525 0.994943 0.991
1.00528 0.998048 0.987979
1.00527 0.995821 0.990219
1.00523 0.994937 0.991037
1.00495 0.999756 0.986711
1.00529 0.998265 0.987709
1.00527 0.996059 0.989877
1.00274 0.999855 0.990184
1.005 0.999682 0.986623
1.00531 0.998677 0.987282
1.00112 0.999991 0.997086
1.00278 0.999768 0.990204
1.00503 0.999594 0.986555
1.00099 1.00028 0.997113
1.00275 0.999862 0.990159
1.00085 1.00067 0.99702
1.0053 0.997574 0.988572
1.00522 0.995684 0.99045
1.0052 0.994956 0.991137
1.0048 0.999188 0.987499
1.00533 0.997481 0.988641
1.00523 0.995622 0.990514
1.00534 0.997507 0.988576
1.00484 0.999239 0.987375
1.00246 0.999985 0.990586
1.0049 0.999645 0.9869
1.00254 1.00004 0.990387
1.00098 1.00002 0.997056
1.00258 1.00017 0.990198
1.00099 1.00004 0.99704
1.00104 1.00003 0.997019
1.00528 0.997859 0.988203
1.00526 0.995673 0.990367
1.00527 0.994935 0.990959
1.00489 0.999673 0.986927
1.00529 0.998057 0.98797
1.00526 0.995814 0.990229
1.00266 0.999977 0.990231
1.00493 0.999777 0.986707
1.00529 0.998273 0.987703
1.00112 0.999933 0.997036
1.00275 0.999871 0.99018
1.00497 0.999818 0.986527
1.0011 1.00004 0.997103
1.00279 0.99978 0.990203
1.00101 1.00028 0.997093
1.00481 0.999484 0.987237
1.0053 0.997418 0.988695
1.00523 0.995692 0.990448
1.00243 0.999911 0.990743
1.00481 0.999171 0.987491
1.00533 0.997457 0.988646
1.00486 0.999224 0.987347
1.00247 0.999959 0.990593
1.00092 1.00002 0.997082
1.00252 1.00005 0.990395
1.00095 1.00003 0.997061
1.00095 1.00006 0.997051
1.00484 0.999565 0.987125
1.00528 0.997663 0.988417
1.00525 0.995512 0.990577
1.00268 1.00001 0.991714
1.00486 0.999682 0.986929
1.00529 0.998066 0.987961
1.00106 0.99996 0.997025
1.00267 0.999995 0.990228
1.0049 0.999799 0.986703
1.00113 0.999959 0.997056
1.00276 0.999892 0.990176
1.0011 1.00006 0.997114
1.00252 0.99991 0.990644
1.0048 0.999344 0.98735
1.00531 0.997263 0.988819
1.00085 0.999985 0.997135
1.00242 0.999909 0.990738
1.00482 0.999158 0.987482
1.00247 0.999936 0.990596
1.00089 1.00001 0.997099
1.00093 1.00004 0.997071
1.00267 0.999963 0.99183
1.00482 0.999569 0.987125
1.00529 0.997461 0.988631
1.00053 1 0.997538
1.00257 1.00002 0.990387
1.00484 0.999689 0.986931
1.00107 0.999969 0.997035
1.00267 1.00001 0.990223
1.00113 0.999978 0.997073
1.00084 0.999955 0.994374
1.00254 0.999912 0.991322
1.0048 0.999202 0.987463
1.00088 0.999988 0.99714
1.00242 0.999911 0.990741
1.00091 0.999998 0.997112
1.00039 0.999991 0.994811
1.00258 0.99995 0.991209
1.0048 0.999578 0.987124
1.00074 0.999992 0.995872
1.00256 1.00002 0.990404
1.00109 0.999976 0.997046
1.00087 0.999975 0.997133
1.00242 0.999905 0.990742
1.00084 0.999989 0.997137
1.00065 0.999971 0.995977
1.00248 0.999943 0.990622
1.001 0.999986 0.997055
1.00089 0.999975 0.997142
1.0009 0.999979 0.997106

TENSORS stress float
0.00205988 -0.000137709 0.000237319
-0.000137709 0.000942863 -3.84206e-05
0.000237319 -3.84206e-05 0.00091781
0.00641815 1.60323e-05 0.000262058
1.60323e-05 0.00365562 2.86522e-05
0.000262058 2.86522e-05 0.00365577
0.00176006 -6.94962e-05 0.000101529
-6.94962e-05 0.000756688 -1.53427e-05
0.000101529 -1.53427e-05 0.000721162
0.00210949 -7.8983e-05 0.000231319
-7.8983e-05 0.000949249 -2.24505e-05
0.000231319 -2.24505e-05 0.000932642
0.00211241 -0.000121744 0.000232289
-0.000121744 0.000965494 -3.38523e-05
0.000232289 -3.38523e-05 0.000943687
0.00200541 -0.000138602 0.000244432
-0.000138602 0.000910521 -3.96486e-05
0.000244432 -3.96486e-05 0.000886003
0.00175417 -0.000123789 4.48163e-05
-0.000123789 0.000666891 -1.24272e-05
4.48163e-05 -1.24272e-05 0.000562505
0.00634773 6.32405e-06 -7.04304e-06
6.32405e-06 0.00360271 -9.47084e-07
-7.04304e-06 -9.47084e-07 0.0036075
0.00624685 0.000180826 0.000131591
0.000180826 0.00352864 1.17024e-05
0.000131591 1.17024e-05 0.00350599
0.00614247 -7.23226e-05 6.55935e-05
-7.23226e-05 0.00346292 3.13555e-06
6.55935e-05 3.13555e-06 0.00344165
0.0018061 0.000176714 0.000246754
0.000176714 0.000781332 2.91114e-05
0.000246754 2.91114e-05 0.000776298
0.000527097 0.000242337 2.62878e-05
0.000242337 -6.25566e-05 1.8646e-05
2.62878e-05 1.8646e-05 -0.000185509
0.00175102 -3.44444e-05 0.000231751
-3.44444e-05 0.000723437 3.70176e-06
0.000231751 3.70176e-06 0.000722501
0.00142483 -6.30204e-07 5.67716e-05
-6.30204e-07 0.000544171 1.60481e-06
5.67716e-05 1.60481e-06 0.000500481
0.00151001 -6.85914e-05 -5.06662e-05
-6.85914e-05 0.000608984 8.85154e-06
-5.06662e-05 8.85154e-06 0.000560055
0.00176317 -7.98105e-05 7.66262e-05
-7.98105e-05 0.000751198 -4.5791e-06
7.66262e-05 -4.5791e-06 0.00071892
0.00176693 -5.58829e-05 0.000110037
-5.58829e-05 0.000768125 -1.61644e-05
0.000110037 -1.61644e-05 0.000728875
0.00177077 -7.93422e-05 9.04305e-05
-7.93422e-05 0.000755672 -1.20179e-05
9.04305e-05 -1.20179e-05 0.000723539
0.00180593 -0.000160205 -3.83152e-05
-0.000160205 0.000695671 5.20459e-06
-3.83152e-05 5.20459e-06 0.000600307
0.00597266 -0.000134977 0.000296394
-0.000134977 0.00336939 -1.17496e-05
0.000296394 -1.17496e-05 0.00338384
0.00205071 -5.7433e-05 0.000230439
-5.7433e-05 0.000911939 -1.67402e-05
0.000230439 -1.67402e-05 0.000897579
0.00213871 -0.000101708 0.000231629
-0.000101708 0.000972418 -2.83663e-05
0.000231629 -2.83663e-05 0.000953721
0.0017142 -0.000129541 6.56139e-05
-0.000129541 0.000629959 -9.89439e-06
6.56139e-05 -9.89439e-06 0.000537967
0.0017484 -0.000131836 5.4334e-05
-0.000131836 0.00065199 -1.18486e-05
5.4334e-05 -1.18486e-05 0.000555148
0.00193351 -0.000114723 0.000242185
-0.000114723 0.000858463 -3.62468e-05
0.000242185 -3.62468e-05 0.000837695
0.00173814 -0.000117311 3.69258e-05
-0.000117311 0.000675833 -1.32265e-05
3.69258e-05 -1.32265e-05 0.00056087
0.00207189 -0.000293777 1.63694e-05
-0.000293777 0.000668647 -6.9694e-06
1.63694e-05 -6.9694e-06 0.000477101
0.00632967 -8.04395e-06 -0.000259898
-8.04395e-06 0.00358216 -1.92999e-05
-0.000259898 -1.92999e-05 0.00359174
0.00404334 0.00013713 -0.000136105
0.00013713 0.00216327 -1.45947e-05
-0.000136105 -1.45947e-05 0.00214201
0.00393334 4.3019e-05 -0.000132284
4.3019e-05 0.00210832 -1.14581e-05
-0.000132284 -1.14581e-05 0.00208709
0.00626036 -6.32179e-05 -4.021e-06
-6.32179e-05 0.00356085 -1.3166e-07
-4.021e-06 -1.3166e-07 0.00356054
0.000485625 0.000223502 -1.51862e-06
0.000223502 -8.55192e-05 -1.00753e-06
-1.51862e-06 -1.00753e-06 -0.000208103
0.00178818 6.50045e-05 0.000237533
6.50045e-05 0.000750055 2.09744e-05
0.000237533 2.09744e-05 0.000736662
0.00192235 0.000151914 0.000242882
0.000151914 0.000864727 3.2489e-05
0.000242882 3.2489e-05 0.000840814
0.00277547 0.000201269 0.000146348
0.000201269 0.00127918 2.0347e-05
0.000146348 2.0347e-05 0.00120125
0.00551295 -0.000331732 -2.96441e-06
-0.000331732 0.00317095 6.43953e-06
-2.96441e-06 6.43953e-06 0.00310661
0.00289653 0.000271697 0.000149415
0.000271697 0.0013933 2.50319e-05
0.000149415 2.50319e-05 0.00130212
0.000469411 0.000204538 2.71255e-05
0.000204538 -9.46984e-05 2.39907e-05
2.71255e-05 2.39907e-05 -0.000214689
0.000868513 0.000226357 1.22395e-05
0.000226357 2.62792e-05 6.10346e-06
1.22395e-05 6.10346e-06 -0.000174113
0.00426988 -0.000106027 0.00015985
-0.000106027 0.00236253 1.21415e-05
0.00015985 1.21415e-05 0.00236315
0.00596925 7.914e-05 3.49911e-06
7.914e-05 0.00335477 -1.734e-06
3.49911e-06 -1.734e-06 0.00337594
0.00385895 8.41139e-05 -0.000113583
8.41139e-05 0.00204606 -4.85309e-06
-0.000113583 -4.85309e-06 0.00203412
0.00582993 5.84443e-05 0.000288998
5.84443e-05 0.00327153 3.99285e-06
0.000288998 3.99285e-06 0.00329317
0.00138982 8.56041e-05 5.95462e-05
8.56041e-05 0.000523745 3.86875e-06
5.95462e-05 3.86875e-06 0.000484864
0.000558887 1.0914e-05 1.55881e-05
1.0914e-05 -0.000115318 1.90745e-06
1.55881e-05 1.90745e-06 -0.000197663
0.00606805 0.00022279 0.000162864
0.00022279 0.00344318 1.53535e-05
0.000162864 1.53535e-05 0.00341844
0.0027941 7.2456e-05 0.000138458
7.2456e-05 0.00126 8.75466e-06
0.000138458 8.75466e-06 0.00120319
0.00136895 -8.22734e-05 -7.07006e-05
-8.22734e-05 0.000524411 8.78779e-06
-7.07006e-05 8.78779e-06 0.000475698
0.00141533 -0.000100119 -6.33095e-05
-0.000100119 0.000555622 1.05632e-05
-6.33095e-05 1.05632e-05 0.00050453
0.00158307 -2.42984e-05 -3.8815e-05
-2.42984e-05 0.000655102 7.96203e-06
-3.8815e-05 7.96203e-06 0.000605171
0.00183925 -0.000163727 -0.000128052
-0.000163727 0.000708959 2.27385e-05
-0.000128052 2.27385e-05 0.000623757
0.00374039 -1.23724e-05 -0.000116219
-1.23724e-05 0.00198225 -1.83532e-06
-0.000116219 -1.83532e-06 0.0019694
0.00173663 -6.20399e-05 8.22203e-05
-6.20399e-05 0.000730636 -3.75709e-06
8.22203e-05 -3.75709e-06 0.000701924
0.00171473 -3.29705e-05 0.000113654
-3.29705e-05 0.00073898 -1.44659e-05
0.000113654 -1.44659e-05 0.000698816
0.00177453 -8.0791e-05 8.21016e-05
-8.0791e-05 0.000755927 -7.92995e-06
8.21016e-05 -7.92995e-06 0.000724441
0.00178393 -0.000108096 -3.06885e-05
-0.000108096 0.000663117 1.95789e-06
-3.06885e-05 1.95789e-06 0.000581566
0.00178961 -0.00016005 -4.42629e-05
-0.00016005 0.000698216 5.81839e-06
-4.42629e-05 5.81839e-06 0.000596037
0.0018033 -0.000150007 -3.29208e-05
-0.000150007 0.000685116 3.68472e-06
-3.29208e-05 3.68472e-06 0.000595422
0.0020491 -0.000292811 -9.05449e-06
-0.000292811 0.000650329 2.42583e-06
-9.05449e-06 2.42583e-06 0.000459067
0.00580674 1.44072e-05 0.00028397
1.44072e-05 0.00325584 -1.51975e-06
0.00028397 -1.51975e-06 0.00327856
0.00200344 -3.4512e-05 0.000228068
-3.4512e-05 0.000885246 -1.14709e-05
0.000228068 -1.14709e-05 0.000874058
0.00244207 -2.47918e-06 4.83914e-05
-2.47918e-06 0.00106705 -8.35139e-07
4.83914e-05 -8.35139e-07 0.00100076
0.0016917 -0.000105515 5.84826e-05
-0.000105515 0.000609382 -6.63477e-06
5.84826e-05 -6.63477e-06 0.000524484
0.00173322 -0.000132682 6.16672e-05
-0.000132682 0.000640084 -1.1238e-05
6.16672e-05 -1.1238e-05 0.000546139
0.00188988 -0.000187697 1.13384e-05
-0.000187697 0.00048723 -2.74971e-06
1.13384e-05 -2.74971e-06 0.000332632
0.00184029 -0.000253288 1.64749e-05
-0.000253288 0.000487632 -5.39376e-06
1.64749e-05 -5.39376e-06 0.000310774
0.00178698 -7.20882e-05 0.00022153
-7.20882e-05 0.000767371 -2.84402e-05
0.00022153 -2.84402e-05 0.000751293
0.00163217 -8.11264e-05 2.75954e-05
-8.11264e-05 0.000630344 -1.29185e-05
2.75954e-05 -1.29185e-05 0.00051423
0.00207435 -0.000316157 1.63313e-05
-0.000316157 0.000713184 -8.0323e-06
1.63313e-05 -8.0323e-06 0.000509052
0.00155331 -0.000364884 6.06468e-06
-0.000364884 0.000150826 -8.95887e-07
6.06468e-06 -8.95887e-07 -8.65811e-05
0.00657395 0.000238228 -0.000316065
0.000238228 0.00373196 -3.32774e-05
-0.000316065 -3.32774e-05 0.00373647
0.00613468 -8.8505e-05 -0.000230903
-8.8505e-05 0.0034846 -1.53802e-05
-0.000230903 -1.53802e-05 0.00348555
0.00637588 6.88417e-05 -0.000275751
6.88417e-05 0.00360185 -2.3573e-05
-0.000275751 -2.3573e-05 0.00361475
0.00044834 0.000216603 -2.49696e-05
0.000216603 -0.000103691 -1.90466e-05
-2.49696e-05 -1.90466e-05 -0.000228481
0.00652137 0.000223311 -2.5023e-06
0.000223311 0.0036959 -2.26644e-06
-2.5023e-06 -2.26644e-06 0.00370375
0.00657801 0.000182593 -8.972e-06
0.000182593 0.00372888 -2.55377e-06
-8.972e-06 -2.55377e-06 0.0037361
0.000400336 0.000129016 1.87118e-07
0.000129016 -0.000192615 -2.99576e-07
1.87118e-07 -2.99576e-07 -0.000299522
0.00344101 -0.000112023 -0.000105428
-0.000112023 0.00184742 -3.55979e-06
-0.000105428 -3.55979e-06 0.00181354
0.000407629 0.000203159 8.63926e-08
0.000203159 -0.000142274 -4.63131e-07
8.63926e-08 -4.63131e-07 -0.000264533
0.00170998 0.000209428 5.23426e-05
0.000209428 0.000676056 2.82784e-06
5.23426e-05 2.82784e-06 0.000576024
0.000842968 0.000222097 2.56335e-07
0.000222097 1.20419e-05 4.46895e-09
2.56335e-07 4.46895e-09 -0.000186548
0.00521811 -0.000126173 0.000193307
-0.000126173 0.00295566 1.80186e-05
0.000193307 1.80186e-05 0.00294723
0.000512029 3.28099e-05 1.17195e-05
3.28099e-05 -5.60104e-06 1.25926e-05
1.17195e-05 1.25926e-05 -7.05241e-05
0.000495094 9.86278e-05 1.56441e-05
9.86278e-05 -0.000154089 9.69725e-06
1.56441e-05 9.69725e-06 -0.000255125
0.000534537 0.000157234 2.0455e-05
0.000157234 -9.57547e-05 1.71409e-05
2.0455e-05 1.71409e-05 -0.00020963
0.00109326 0.000216012 1.48815e-05
0.000216012 2.27137e-06 5.32045e-06
1.48815e-05 5.32045e-06 -0.00018114
0.00290592 0.000170923 0.000130503
0.000170923 0.001434 1.75403e-05
0.000130503 1.75403e-05 0.00136091
0.000924843 0.000234411 1.40225e-05
0.000234411 -1.77651e-06 6.58013e-06
1.40225e-05 6.58013e-06 -0.00019875
0.000921741 0.000233771 1.19246e-05
0.000233771 0.000130224 5.93801e-06
1.19246e-05 5.93801e-06 -7.62252e-05
0.00110362 0.000338233 1.66602e-06
0.000338233 8.29481e-05 -5.01972e-07
1.66602e-06 -5.01972e-07 -0.000179463
0.00330133 -0.000120294 9.77783e-05
-0.000120294 0.00175333 5.1856e-06
9.77783e-05 5.1856e-06 0.00175298
0.00387087 -0.000155701 1.86979e-05
-0.000155701 0.00212293 -3.33496e-07
1.86979e-05 -3.33496e-07 0.00211187
0.00634769 5.2789e-05 -0.000302573
5.2789e-05 0.00357559 -1.44894e-05
-0.000302573 -1.44894e-05 0.00359538
0.00606357 7.00186e-05 -0.000298664
7.00186e-05 0.00340917 -8.92369e-06
-0.000298664 -8.92369e-06 0.00343146
0.00592021 8.39666e-05 -1.64947e-10
8.39666e-05 0.00333255 -3.5694e-06
-1.64947e-10 -3.5694e-06 0.00335073
0.00375586 2.82053e-05 -0.000125538
2.82053e-05 0.00198145 -6.25319e-06
-0.000125538 -6.25319e-06 0.00197435
0.00161998 3.75593e-05 5.96931e-05
3.75593e-05 0.000541889 1.53452e-06
5.96931e-05 1.53452e-06 0.00047548
0.00400974 0.000140344 -0.000116097
0.000140344 0.00214403 -6.62036e-06
-0.000116097 -6.62036e-06 0.00212489
0.00167134 8.97429e-05 6.05196e-05
8.97429e-05 0.000569817 2.87101e-06
6.05196e-05 2.87101e-06 0.000494156
0.00587917 0.000126518 0.000291881
0.000126518 0.00331657 7.12657e-06
0.000291881 7.12657e-06 0.00332941
0.000469522 1.06386e-05 1.87226e-05
1.06386e-05 -0.000165378 9.37492e-07
1.87226e-05 9.37492e-07 -0.000244934
0.00279146 3.67538e-05 0.000137027
3.67538e-05 0.00125985 5.93593e-06
0.000137027 5.93593e-06 0.00120816
0.0010982 5.6371e-05 1.22313e-05
5.6371e-05 -2.26694e-05 9.8054e-07
1.22313e-05 9.8054e-07 -0.000154047
0.00272461 0.000116107 0.000143047
0.000116107 0.00122232 1.14258e-05
0.000143047 1.14258e-05 0.00115951
0.00115344 0.000127784 1.21941e-05
0.000127784 -7.87393e-07 2.12032e-06
1.21941e-05 2.12032e-06 -0.000150393
0.00178136 4.28229e-05 -0.000230962
4.28229e-05 0.000741675 2.58171e-06
-0.000230962 2.58171e-06 0.000742145
0.00138433 -1.27068e-05 -5.75123e-05
-1.27068e-05 0.000525541 2.45243e-06
-5.75123e-05 2.45243e-06 0.000481972
0.00156291 1.21496e-05 -3.05033e-05
1.21496e-05 0.000647926 7.80377e-06
-3.05033e-05 7.80377e-06 0.000596338
0.0013717 -9.65349e-05 -7.17173e-05
-9.65349e-05 0.000528469 1.06294e-05
-7.17173e-05 1.06294e-05 0.00047846
0.00190506 -8.7454e-05 -0.000122982
-8.7454e-05 0.000728174 1.1192e-05
-0.000122982 1.1192e-05 0.000657137
0.00188705 -0.000138196 -0.000125124
-0.000138196 0.000727093 1.91229e-05
-0.000125124 1.91229e-05 0.000648432
0.00179704 -0.000176568 -0.000130976
-0.000176568 0.000694623 2.44465e-05
-0.000130976 2.44465e-05 0.000603242
0.00201614 -0.000290757 -3.16161e-05
-0.000290757 0.00062608 1.07484e-05
-3.16161e-05 1.07484e-05 0.000435487
0.00591207 -0.000100457 2.28971e-06
-0.000100457 0.00333138 -1.80384e-06
2.28971e-06 -1.80384e-06 0.0033472
0.00165877 3.37163e-05 8.98293e-05
3.37163e-05 0.000676703 -4.21907e-06
8.98293e-05 -4.21907e-06 0.00065512
0.00114982 -8.38506e-06 -6.27359e-05
-8.38506e-06 0.000257943 1.74091e-06
-6.27359e-05 1.74091e-06 0.000190152
0.00176193 -6.97891e-05 -3.39869e-05
-6.97891e-05 0.000645974 2.56537e-06
-3.39869e-05 2.56537e-06 0.000569646
0.00408041 -1.20067e-05 0.000226736
-1.20067e-05 0.00220928 -1.23435e-05
0.000226736 -1.23435e-05 0.00219989
0.00231388 -0.000161007 -3.95351e-05
-0.000161007 0.00103636 2.83712e-06
-3.95351e-05 2.83712e-06 0.000932597
0.0018003 -0.000130956 -3.03448e-05
-0.000130956 0.000676783 2.55696e-06
-3.03448e-05 2.55696e-06 0.000591511
0.00191092 -0.000186058 -9.81554e-06
-0.000186058 0.000496253 1.77082e-06
-9.81554e-06 1.77082e-06 0.00034369
0.00203191 -0.000316533 -7.78473e-06
-0.000316533 0.000682054 2.31052e-06
-7.78473e-06 2.31052e-06 0.00047718
0.00194063 -0.000257749 -7.21594e-06
-0.000257749 0.000550843 1.90511e-06
-7.21594e-06 1.90511e-06 0.00037325
0.00158818 -0.000366694 5.9932e-07
-0.000366694 0.000173487 -1.91849e-07
5.9932e-07 -1.91849e-07 -6.34387e-05
0.0005044 1.0744e-05 1.94198e-05
1.0744e-05 -0.000147008 -7.52398e-07
1.94198e-05 -7.52398e-07 -0.000223281
0.00161846 1.59559e-06 4.94109e-05
1.59559e-06 0.000554675 -2.5792e-06
4.94109e-05 -2.5792e-06 0.000480368
0.00175783 -5.80198e-05 1.12861e-05
-5.80198e-05 0.000393855 -5.63298e-07
1.12861e-05 -5.63298e-07 0.000274631
0.00177468 -0.000146084 1.13226e-05
-0.000146084 0.000405533 -1.74355e-06
1.13226e-05 -1.74355e-06 0.000264422
0.00182092 -0.000219276 1.4168e-05
-0.000219276 0.000449631 -3.7377e-06
1.4168e-05 -3.7377e-06 0.000285995
0.0018542 -0.00025848 3.11188e-07
-0.00025848 0.000218759 -9.60851e-09
3.11188e-07 -9.60851e-09 4.99325e-05
0.00575954 0.000138528 0.000190285
0.000138528 0.00328039 -1.42663e-05
0.000190285 -1.42663e-05 0.00326824
0.00157218 -0.000335742 4.83274e-06
-0.000335742 0.000116368 -6.68748e-07
4.83274e-06 -6.68748e-07 -9.85367e-05
0.000316404 -0.000164136 2.07843e-05
-0.000164136 -0.000192464 -1.92977e-05
2.07843e-05 -1.92977e-05 -0.000297669
0.000886394 -0.000238205 1.29283e-05
-0.000238205 3.40471e-05 -8.53807e-06
1.29283e-05 -8.53807e-06 -0.00017069
0.00160162 -0.000403793 7.26819e-06
-0.000403793 0.000241418 -1.67829e-06
7.26819e-06 -1.67829e-06 -2.38468e-05
0.00181341 -0.000439692 3.08066e-06
-0.000439692 0.000197602 1.7107e-06
3.08066e-06 1.7107e-06 -3.65748e-05
0.000485272 -0.000122825 2.05927e-05
-0.000122825 -4.91358e-05 -1.5826e-05
2.05927e-05 -1.5826e-05 -0.000138256
0.00041514 -9.69722e-05 -7.15194e-07
-9.69722e-05 -2.89948e-05 -2.19556e-06
-7.15194e-07 -2.19556e-06 -0.000251826
0.00657536 0.00024532 -0.000326785
0.00024532 0.00373489 -3.22471e-05
-0.000326785 -3.22471e-05 0.00373961
0.0065022 0.00016709 -0.000298067
0.00016709 0.00368027 -2.94609e-05
-0.000298067 -2.94609e-05 0.00369098
0.000403472 0.000126044 -1.8545e-05
0.000126044 -0.000192453 -1.19662e-05
-1.8545e-05 -1.19662e-05 -0.000299571
0.00550426 -0.000160047 -0.000179148
-0.000160047 0.00312895 -1.26187e-05
-0.000179148 -1.26187e-05 0.00311584
0.00043131 0.000184002 -2.36655e-05
0.000184002 -0.000117512 -1.80297e-05
-2.36655e-05 -1.80297e-05 -0.00022337
0.000392932 0.000189145 -2.09226e-05
0.000189145 -0.000149239 -1.75794e-05
-2.09226e-05 -1.75794e-05 -0.000272682
0.000815397 0.000216826 -1.3348e-05
0.000216826 -2.48141e-06 -6.66602e-06
-1.3348e-05 -6.66602e-06 -0.000199034
0.00487564 -0.000137252 7.29122e-06
-0.000137252 0.00274354 -1.44753e-07
7.29122e-06 -1.44753e-07 0.00273543
0.000513448 1.97684e-05 1.31829e-06
1.97684e-05 -2.93249e-08 4.94889e-07
1.31829e-06 4.94889e-07 -6.16386e-05
0.00167432 0.000137655 6.23209e-05
0.000137655 0.000579296 5.13926e-06
6.23209e-05 5.13926e-06 0.000492124
0.00164323 0.000196745 6.19487e-05
0.000196745 0.000596073 5.53309e-06
6.19487e-05 5.53309e-06 0.0004951
0.00105656 0.000214298 5.6866e-08
0.000214298 -1.41103e-05 -2.81202e-07
5.6866e-08 -2.81202e-07 -0.000198078
0.000476362 0.000153486 -7.44749e-08
0.000153486 -7.15839e-05 -2.97496e-07
-7.44749e-08 -2.97496e-07 -0.000164293
0.00092369 0.000231163 7.5998e-07
0.000231163 4.97801e-06 5.992e-08
7.5998e-07 5.992e-08 -0.000190971
0.000790482 0.000216575 2.07743e-07
0.000216575 4.57128e-05 -8.11277e-07
2.07743e-07 -8.11277e-07 -0.000155947
0.00123986 0.000357477 2.86236e-07
0.000357477 0.000160692 -2.37447e-07
2.86236e-07 -2.37447e-07 -0.000105048
0.000437699 0.000104033 1.77376e-05
0.000104033 -6.22626e-05 1.50442e-05
1.77376e-05 1.50442e-05 -0.000146518
0.000609634 -1.49203e-05 5.34211e-06
-1.49203e-05 5.88269e-05 1.04826e-05
5.34211e-06 1.04826e-05 1.1813e-05
0.00126393 0.000148271 4.28328e-06
0.000148271 0.000487984 6.22564e-06
4.28328e-06 6.22564e-06 0.000300034
0.00114118 0.000191761 1.39562e-05
0.000191761 4.18987e-06 4.08346e-06
1.39562e-05 4.08346e-06 -0.000168862
0.00102829 0.000232989 1.49529e-05
0.000232989 4.62593e-06 6.2383e-06
1.49529e-05 6.2383e-06 -0.000187412
0.00173403 0.000360488 4.28403e-06
0.000360488 0.00019369 2.69951e-07
4.28403e-06 2.69951e-07 -2.68107e-05
0.000754421 0.000218228 9.26712e-06
0.000218228 9.06637e-05 6.41597e-06
9.26712e-06 6.41597e-06 -0.000112581
0.00155452 0.000401037 3.65898e-06
0.000401037 0.000250837 -1.0892e-07
3.65898e-06 -1.0892e-07 -9.11837e-06
0.0010593 0.000320296 2.71557e-06
0.000320296 0.000121242 4.8173e-07
2.71557e-06 4.8173e-07 -0.000146162
0.00146961 0.000449087 -5.73372e-06
0.000449087 0.000214106 -3.27884e-06
-5.73372e-06 -3.27884e-06 -7.71065e-05
0.00290565 -0.000128327 5.71954e-05
-0.000128327 0.00150206 3.44461e-06
5.71954e-05 3.44461e-06 0.00149976
0.00322456 -0.000152169 1.25936e-05
-0.000152169 0.00171119 -8.48047e-07
1.25936e-05 -8.48047e-07 0.00170215
0.00360501 -0.000183105 -7.30242e-05
-0.000183105 0.00196231 -4.51417e-06
-7.30242e-05 -4.51417e-06 0.00194368
0.000452419 -9.48011e-05 1.707e-05
-9.48011e-05 -5.13553e-05 -1.401e-05
1.707e-05 -1.401e-05 -0.000125163
0.00514132 0.000180365 0.000150314
0.000180365 0.00292858 -1.52992e-05
0.000150314 -1.52992e-05 0.00290393
0.00651269 0.000209702 -0.000326661
0.000209702 0.00369154 -2.70153e-05
-0.000326661 -2.70153e-05 0.00370163
0.0061477 8.88284e-05 -0.000299622
8.88284e-05 0.00345797 -1.24897e-05
-0.000299622 -1.24897e-05 0.00347883
0.000475916 9.67924e-05 -1.96479e-05
9.67924e-05 -0.000167815 -5.52126e-06
-1.96479e-05 -5.52126e-06 -0.000258643
0.000466727 4.32032e-05 -1.92709e-05
4.32032e-05 -0.000167544 -2.75529e-06
-1.92709e-05 -2.75529e-06 -0.000250692
0.00586393 -7.68334e-06 -0.000286016
-7.68334e-06 0.00328867 -2.33934e-06
-0.000286016 -2.33934e-06 0.00331185
0.00581566 8.99152e-06 -1.99284e-07
8.99152e-06 0.00326026 -8.9412e-07
-1.99284e-07 -8.9412e-07 0.00328343
0.000451206 7.98753e-07 -1.17193e-07
7.98753e-07 -0.000179424 1.08488e-07
-1.17193e-07 1.08488e-07 -0.000257142
0.00161014 3.8358e-05 6.02942e-05
3.8358e-05 0.000530863 2.55923e-06
6.02942e-05 2.55923e-06 0.000462559
0.00105628 5.96693e-05 -9.6687e-08
5.96693e-05 -5.02306e-05 -1.09683e-07
-9.6687e-08 -1.09683e-07 -0.000182359
0.00043912 8.23564e-05 -4.23747e-07
8.23564e-05 -0.000189053 -3.81292e-07
-4.23747e-07 -3.81292e-07 -0.000285703
0.00108766 0.000128469 -2.24913e-07
0.000128469 -4.14904e-05 -1.36411e-07
-2.24913e-07 -1.36411e-07 -0.000192175
0.000443837 -3.11237e-05 1.92887e-05
-3.11237e-05 -0.000185459 -7.02403e-07
1.92887e-05 -7.02403e-07 -0.00026071
0.00105753 2.40068e-05 1.19253e-05
2.40068e-05 -3.94658e-05 5.2246e-07
1.19253e-05 5.2246e-07 -0.000166686
0.00110455 9.17514e-05 1.19854e-05
9.17514e-05 -2.53645e-05 1.60127e-06
1.19854e-05 1.60127e-06 -0.000164604
0.00174271 9.65566e-05 -8.85707e-07
9.65566e-05 8.53704e-05 -3.11891e-07
-8.85707e-07 -3.11891e-07 -2.89074e-05
0.00116092 0.000160904 1.29074e-05
0.000160904 4.4604e-06 2.92547e-06
1.29074e-05 2.92547e-06 -0.000156756
0.00178928 0.000211678 5.93994e-07
0.000211678 0.000112353 -6.50795e-07
5.93994e-07 -6.50795e-07 -3.23355e-05
0.00583353 -6.14531e-05 -0.000290995
-6.14531e-05 0.0032771 2.37391e-06
-0.000290995 2.37391e-06 0.00329695
0.00133258 -0.000152412 -5.90214e-05
-0.000152412 0.00050637 6.85135e-06
-5.90214e-05 6.85135e-06 0.000459352
-0.000260088 -5.17966e-06 -1.23127e-05
-5.17966e-06 -0.000609849 1.78277e-06
-1.23127e-05 1.78277e-06 -0.000701754
0.00187195 -6.20888e-05 -0.0001219
-6.20888e-05 0.000707451 7.93848e-06
-0.0001219 7.93848e-06 0.000639797
0.00611855 0.000297655 -1.563e-05
0.000297655 0.00351574 4.65829e-06
-1.563e-05 4.65829e-06 0.00345868
0.00296229 -0.000247003 -0.000133974
-0.000247003 0.00143127 2.54139e-05
-0.000133974 2.54139e-05 0.00133291
0.00190986 -0.000112631 -0.000123926
-0.000112631 0.000733697 1.50642e-05
-0.000123926 1.50642e-05 0.000659565
0.00190714 -0.000183038 -2.96781e-05
-0.000183038 0.000489765 5.36914e-06
-2.96781e-05 5.36914e-06 0.000339511
0.00201665 -0.000260447 -3.05456e-05
-0.000260447 0.000598436 9.15605e-06
-3.05456e-05 9.15605e-06 0.000420563
0.0020096 -0.000317943 -2.93472e-05
-0.000317943 0.000664261 1.15859e-05
-2.93472e-05 1.15859e-05 0.0004585
0.00162436 -0.000368588 -4.57272e-06
-0.000368588 0.000197128 5.77778e-07
-4.57272e-06 5.77778e-07 -3.93397e-05
0.00044663 5.31004e-06 -2.09937e-08
5.31004e-06 -0.000180665 2.42615e-07
-2.09937e-08 2.42615e-07 -0.000257934
0.00175053 -8.17579e-05 -3.30219e-05
-8.17579e-05 0.000641055 3.85083e-07
-3.30219e-05 3.85083e-07 0.00056857
0.00138799 -5.35307e-05 -9.71303e-06
-5.35307e-05 0.000166119 5.54263e-07
-9.71303e-06 5.54263e-07 4.251e-05
0.00186886 -0.000146764 -8.04673e-06
-0.000146764 0.000463767 1.27782e-06
-8.04673e-06 1.27782e-06 0.000322116
0.00602096 0.00013753 5.58504e-06
0.00013753 0.00344538 8.92207e-07
5.58504e-06 8.92207e-07 0.00343105
0.00166385 -0.000160747 2.69032e-06
-0.000160747 0.000654581 5.78241e-07
2.69032e-06 5.78241e-07 0.00053919
0.00134831 -0.000271472 1.26778e-06
-0.000271472 0.000322139 -1.09244e-06
1.26778e-06 -1.09244e-06 0.000114509
0.00186076 -0.000221389 -8.12337e-06
-0.000221389 0.000473947 2.00011e-06
-8.12337e-06 2.00011e-06 0.000309831
0.00183372 -0.000260602 -1.08678e-06
-0.000260602 0.000201523 7.59578e-08
-1.08678e-06 7.59578e-08 3.67962e-05
0.00159344 -0.000402131 1.04968e-06
-0.000402131 0.000240619 -2.86214e-07
1.04968e-06 -2.86214e-07 -2.32473e-05
0.00171408 -0.000341821 5.66121e-07
-0.000341821 0.000206434 -1.55127e-07
5.66121e-07 -1.55127e-07 -8.34532e-06
0.00185422 -0.000441096 7.1417e-07
-0.000441096 0.000226922 7.97223e-08
7.1417e-07 7.97223e-08 -6.93899e-06
0.000506885 -0.00012719 1.35263e-06
-0.00012719 -3.68052e-05 5.96827e-07
1.35263e-06 5.96827e-07 -0.000129185
0.000717884 -0.000130295 2.06965e-07
-0.000130295 0.000138876 9.83028e-09
2.06965e-07 9.83028e-09 -7.21765e-05
0.0010437 -2.65767e-05 1.20161e-05
-2.65767e-05 -4.01469e-05 -6.21547e-07
1.20161e-05 -6.21547e-07 -0.000167669
0.00183382 -9.83397e-05 1.02328e-05
-9.83397e-05 0.000442283 -1.06453e-06
1.02328e-05 -1.06453e-06 0.000314501
0.00175499 -9.63304e-05 -7.35152e-07
-9.63304e-05 0.0001198 3.25871e-07
-7.35152e-07 3.25871e-07 6.50483e-08
0.00179323 -0.000208666 7.11137e-08
-0.000208666 0.000157546 1.0318e-06
7.11137e-08 1.0318e-06 1.63667e-05
0.00176339 -0.000308577 1.47705e-06
-0.000308577 0.000194962 3.05258e-07
1.47705e-06 3.05258e-07 6.68231e-06
0.00197641 -0.000303874 1.27851e-06
-0.000303874 0.000167718 2.99087e-07
1.27851e-06 2.99087e-07 2.81629e-05
0.000441739 -0.000149302 1.99832e-05
-0.000149302 -9.21037e-05 -1.86007e-05
1.99832e-05 -1.86007e-05 -0.000194078
0.00187931 -0.000404096 1.35254e-06
-0.000404096 0.000192024 1.48284e-06
1.35254e-06 1.48284e-06 -7.12908e-06
0.000594989 -0.000212764 9.09164e-06
-0.000212764 -7.37627e-05 -7.43048e-06
9.09164e-06 -7.43048e-06 -0.000276662
0.00129181 -0.000399637 9.87879e-06
-0.000399637 0.000146222 -2.61461e-06
9.87879e-06 -2.61461e-06 -0.000139169
0.00199615 -0.000497688 3.06136e-06
-0.000497688 0.000373159 9.4229e-07
3.06136e-06 9.4229e-07 9.36457e-05
0.00216395 -0.000478994 -1.90611e-06
-0.000478994 0.000365832 4.0382e-06
-1.90611e-06 4.0382e-06 0.00015764
0.000696765 -0.000202026 1.83348e-06
-0.000202026 0.000109423 -4.5207e-06
1.83348e-06 -4.5207e-06 -0.000127925
0.000623063 -9.42056e-05 -2.87387e-07
-9.42056e-05 7.95568e-05 -4.3325e-06
-2.87387e-07 -4.3325e-06 -8.43254e-05
0.00105724 -0.000258346 -1.93141e-06
-0.000258346 0.000358326 4.78804e-07
-1.93141e-06 4.78804e-07 7.21959e-05
0.000431602 0.000104922 -1.79675e-05
0.000104922 -0.000188276 -9.14721e-06
-1.79675e-05 -9.14721e-06 -0.000290405
0.00447493 -0.000199463 -0.000115068
-0.000199463 0.00251653 -9.57956e-06
-0.000115068 -9.57956e-06 0.00249191
0.000436653 6.30484e-06 -6.59305e-06
6.30484e-06 -4.23752e-05 -1.20159e-05
-6.59305e-06 -1.20159e-05 -0.00010127
0.000389435 0.00015727 -1.98626e-05
0.00015727 -0.000177853 -1.50311e-05
-1.98626e-05 -1.50311e-05 -0.000292864
0.00102121 0.00021289 -1.54838e-05
0.00021289 -2.98111e-05 -5.88715e-06
-1.54838e-05 -5.88715e-06 -0.000214352
0.000505685 0.000143547 -2.2636e-05
0.000143547 -5.50706e-05 -1.67487e-05
-2.2636e-05 -1.67487e-05 -0.000145391
0.000585336 0.000199356 -9.80197e-06
0.000199356 -8.13426e-05 -7.20267e-06
-9.80197e-06 -7.20267e-06 -0.00027933
0.000931202 0.000228867 -1.41187e-05
0.000228867 1.66503e-05 -6.9301e-06
-1.41187e-05 -6.9301e-06 -0.000178465
0.0013564 0.000375812 -3.78856e-06
0.000375812 0.000223909 -4.99171e-07
-3.78856e-06 -4.99171e-07 -4.52213e-05
0.000540478 9.27267e-05 1.00373e-06
9.27267e-05 -2.6128e-06 1.09127e-06
1.00373e-06 1.09127e-06 -8.20013e-05
0.000423865 -3.46317e-05 1.55309e-07
-3.46317e-05 -4.66953e-05 4.66537e-07
1.55309e-07 4.66537e-07 -9.64478e-05
0.000627727 8.97383e-05 1.8208e-06
8.97383e-05 8.25404e-05 -3.11891e-07
1.8208e-06 -3.11891e-07 -8.84005e-05
0.00109586 0.000190969 -1.4212e-07
0.000190969 -1.91831e-05 -3.07435e-07
-1.4212e-07 -3.07435e-07 -0.000193167
0.000999584 0.000229534 2.96731e-07
0.000229534 -5.3137e-06 -1.90087e-07
2.96731e-07 -1.90087e-07 -0.000197018
0.00171218 0.00035925 -9.04136e-08
0.00035925 0.000178779 -1.02987e-07
-9.04136e-08 -1.02987e-07 -4.20554e-05
0.000751854 0.000216424 -6.56488e-07
0.000216424 8.74574e-05 -5.11699e-08
-6.56488e-07 -5.11699e-08 -0.000114986
0.00155882 0.000399819 -1.1901e-07
0.000399819 0.000247915 -2.40455e-07
-1.1901e-07 -2.40455e-07 -1.265e-05
0.00108346 0.000321542 9.7302e-07
0.000321542 0.000138747 -9.75406e-07
9.7302e-07 -9.75406e-07 -0.000127817
0.00142974 0.000458237 -3.68356e-07
0.000458237 0.00017412 1.17646e-06
-3.68356e-07 1.17646e-06 -0.00011852
0.000540009 -3.91197e-05 5.24138e-07
-3.91197e-05 1.83152e-05 8.40112e-06
5.24138e-07 8.40112e-06 -2.03399e-05
0.000991651 0.000162561 5.45044e-06
0.000162561 0.000289862 5.0578e-06
5.45044e-06 5.0578e-06 8.7721e-05
0.000853753 5.52214e-05 1.84979e-06
5.52214e-05 0.000208118 5.80535e-06
1.84979e-06 5.80535e-06 8.34855e-05
0.000915892 0.000139745 1.87398e-06
0.000139745 0.000301538 3.46796e-08
1.87398e-06 3.46796e-08 4.70815e-05
0.00179132 0.000321226 2.18985e-06
0.000321226 0.000172107 -9.74424e-07
2.18985e-06 -9.74424e-07 -2.22227e-05
0.00163886 0.000388341 4.75675e-06
0.000388341 0.000209406 5.34022e-07
4.75675e-06 5.34022e-07 -3.50061e-05
0.00198091 0.000432786 1.08973e-06
0.000432786 0.00024219 -7.0953e-07
1.08973e-06 -7.0953e-07 2.60914e-05
0.00081324 0.000253513 3.73333e-06
0.000253513 2.10435e-05 3.01135e-06
3.73333e-06 3.01135e-06 -0.000215347
0.00208335 0.000534572 -2.25878e-06
0.000534572 0.000455287 -1.23669e-06
-2.25878e-06 -1.23669e-06 0.000172935
0.0016144 0.00046243 -3.23072e-06
0.00046243 0.000394849 -3.78832e-06
-3.23072e-06 -3.78832e-06 7.10725e-05
0.00171039 0.000507582 -2.01326e-07
0.000507582 0.000248264 -8.03107e-07
-2.01326e-07 -8.03107e-07 -4.34432e-05
0.000569172 3.42509e-05 2.5805e-06
3.42509e-05 3.81665e-05 3.42344e-06
2.5805e-06 3.42344e-06 -2.69955e-05
0.000488923 -3.0136e-05 1.1431e-06
-3.0136e-05 -3.26737e-05 6.23547e-06
1.1431e-06 6.23547e-06 -5.81356e-05
0.00265914 -0.000119625 3.63702e-05
-0.000119625 0.00134132 3.70653e-06
3.63702e-05 3.70653e-06 0.00134136
0.00281546 -0.00013887 6.8007e-06
-0.00013887 0.00144832 -7.01424e-07
6.8007e-06 -7.01424e-07 0.00144291
0.00307139 -0.000164092 -4.63817e-05
-0.000164092 0.00161868 -3.49854e-06
-4.63817e-05 -3.49854e-06 0.00160576
0.00040014 -6.5573e-05 1.14032e-05
-6.5573e-05 -7.11547e-05 -1.24368e-05
1.14032e-05 -1.24368e-05 -0.000133772
0.00453418 0.000163856 0.000126648
0.000163856 0.00254541 -1.20066e-05
0.000126648 -1.20066e-05 0.00252735
0.000486166 -9.30433e-05 -4.31472e-07
-9.30433e-05 -3.13243e-05 3.66309e-07
-4.31472e-07 3.66309e-07 -0.000110908
0.00536172 0.000144654 -2.06441e-06
0.000144654 0.00304855 -2.01083e-07
-2.06441e-06 -2.01083e-07 0.00303326
0.000472442 0.000108085 -1.93065e-05
0.000108085 -0.000166281 -7.31098e-06
-1.93065e-05 -7.31098e-06 -0.000264852
0.000482658 3.44754e-05 -1.82886e-05
3.44754e-05 -0.000164309 -3.56561e-06
-1.82886e-05 -3.56561e-06 -0.000249149
0.00104707 0.000129203 -1.21113e-05
0.000129203 -6.83005e-05 -2.36054e-06
-1.21113e-05 -2.36054e-06 -0.000219907
0.00101834 6.17025e-05 -1.19847e-05
6.17025e-05 -7.51885e-05 -1.11167e-06
-1.19847e-05 -1.11167e-06 -0.000207887
0.00050477 -7.73554e-06 -1.93895e-05
-7.73554e-06 -0.000149709 -9.26613e-07
-1.93895e-05 -9.26613e-07 -0.000225562
0.005909 -9.87178e-05 -0.00029774
-9.87178e-05 0.00332861 4.99467e-06
-0.00029774 4.99467e-06 0.00334605
0.000491688 -1.9625e-06 7.71104e-08
-1.9625e-06 -0.000156804 -6.49619e-07
7.71104e-08 -6.49619e-07 -0.000232034
0.00103894 2.92442e-05 -8.70156e-08
2.92442e-05 -5.20804e-05 1.26807e-08
-8.70156e-08 1.26807e-08 -0.000179725
0.00107914 9.35054e-05 -1.89547e-07
9.35054e-05 -4.31958e-05 -7.26141e-08
-1.89547e-07 -7.26141e-08 -0.000183184
0.00172371 9.48139e-05 -5.09238e-08
9.48139e-05 7.67444e-05 1.03769e-07
-5.09238e-08 1.03769e-07 -3.76202e-05
0.00110818 0.000161852 -3.14679e-07
0.000161852 -2.665e-05 -2.51398e-07
-3.14679e-07 -2.51398e-07 -0.000189191
0.00177398 0.000210869 -1.86059e-07
0.000210869 0.000102788 1.0377e-07
-1.86059e-07 1.0377e-07 -4.2262e-05
0.001028 -3.10177e-06 1.19026e-05
-3.10177e-06 -5.10554e-05 -1.92972e-07
1.19026e-05 -1.92972e-07 -0.000177588
0.001705 4.52271e-05 -3.21263e-07
4.52271e-05 6.49768e-05 -8.12834e-08
-3.21263e-07 -8.12834e-08 -4.26342e-05
0.00174802 0.000150988 -8.42674e-07
0.000150988 8.84275e-05 -4.18587e-07
-8.42674e-07 -4.18587e-07 -3.78597e-05
0.00189756 0.000123534 2.09622e-06
0.000123534 4.34229e-05 1.62254e-07
2.09622e-06 1.62254e-07 -2.32466e-05
0.00182528 0.00027288 1.68893e-06
0.00027288 0.000148361 -6.84884e-07
1.68893e-06 -6.84884e-07 -2.0284e-05
0.00199986 0.000249756 2.17341e-06
0.000249756 0.000121082 -1.27871e-06
2.17341e-06 -1.27871e-06 8.68467e-06
0.000477614 -1.99936e-06 -1.85561e-05
-1.99936e-06 -0.000158572 8.60535e-07
-1.85561e-05 8.60535e-07 -0.000238007
0.00184433 -3.78628e-05 -0.000120482
-3.78628e-05 0.000690548 5.28071e-06
-0.000120482 5.28071e-06 0.000627338
0.000981432 -4.80345e-05 -1.68881e-05
-4.80345e-05 -8.37702e-05 1.56076e-06
-1.68881e-05 1.56076e-06 -0.000212119
0.0019414 -0.000146396 -2.73006e-05
-0.000146396 0.000508085 4.05646e-06
-2.73006e-05 4.05646e-06 0.000366046
0.00620533 0.000119479 -0.00022122
0.000119479 0.00355416 2.11572e-05
-0.00022122 2.11572e-05 0.0035415
0.00303085 -0.000231195 -0.000140574
-0.000231195 0.00149025 2.07669e-05
-0.000140574 2.07669e-05 0.00140211
0.00203567 -0.000325042 -2.47579e-05
-0.000325042 0.00074526 1.06296e-05
-2.47579e-05 1.06296e-05 0.000531143
0.00187804 -0.000221836 -2.97816e-05
-0.000221836 0.000483927 7.29724e-06
-2.97816e-05 7.29724e-06 0.000319716
0.00180785 -0.0002626 -3.28676e-06
-0.0002626 0.000180195 -2.79419e-07
-3.28676e-06 -2.79419e-07 1.95722e-05
0.00185726 -0.000347977 -4.40927e-06
-0.000347977 0.000297934 8.90192e-07
-4.40927e-06 8.90192e-07 8.3264e-05
0.0015823 -0.00040036 -6.26687e-06
-0.00040036 0.000237081 8.61855e-07
-6.26687e-06 8.61855e-07 -2.53339e-05
0.00189665 -0.000443049 -1.22577e-06
-0.000443049 0.000255942 -1.69413e-06
-1.22577e-06 -1.69413e-06 2.2262e-05
0.000452423 -0.000136095 -1.85196e-05
-0.000136095 -6.52783e-05 1.72172e-05
-1.85196e-05 1.72172e-05 -0.000163741
0.000790648 -0.0001639 -7.31979e-07
-0.0001639 0.000180407 1.98986e-06
-7.31979e-07 1.98986e-06 -2.95438e-05
0.000994926 -2.14184e-05 7.39061e-08
-2.14184e-05 -7.25175e-05 -9.50397e-09
7.39061e-08 -9.50397e-09 -0.000198324
0.00183054 -9.8827e-05 -8.35074e-06
-9.8827e-05 0.000438563 9.8487e-07
-8.35074e-06 9.8487e-07 0.000310985
0.001819 -9.32731e-05 -3.36565e-07
-9.32731e-05 0.000157945 4.63927e-08
-3.36565e-07 4.63927e-08 4.31443e-05
0.00175886 -0.000207244 -2.03446e-06
-0.000207244 0.000139955 6.85495e-07
-2.03446e-06 6.85495e-07 -6.39009e-06
0.000458056 -0.00016927 1.36465e-07
-0.00016927 -8.45652e-05 7.74112e-08
1.36465e-07 7.74112e-08 -0.000187159
0.000800679 -0.000224469 -2.08505e-07
-0.000224469 4.77112e-05 6.05828e-08
-2.08505e-07 6.05828e-08 -0.000157261
0.00128814 -0.000398274 1.68134e-06
-0.000398274 0.000147392 -5.26667e-07
1.68134e-06 -5.26667e-07 -0.000138281
0.00179735 -0.000308362 -3.19262e-06
-0.000308362 0.000216926 8.8713e-07
-3.19262e-06 8.8713e-07 2.62854e-05
0.00202076 -0.000308556 1.98666e-06
-0.000308556 0.000187015 -7.77247e-07
1.98666e-06 -7.77247e-07 5.21797e-05
0.00204444 -0.000506285 -8.18059e-07
-0.000506285 0.000400669 -3.95673e-07
-8.18059e-07 -3.95673e-07 0.000121357
0.00190062 -0.000405679 5.46449e-07
-0.000405679 0.000205351 -5.69091e-08
5.46449e-07 -5.69091e-08 6.02301e-06
0.00203292 -0.00047259 8.76911e-07
-0.00047259 0.000278689 7.37619e-07
8.76911e-07 7.37619e-07 7.06699e-05
0.00066668 -0.00019185 2.84495e-07
-0.00019185 9.08707e-05 -3.15336e-07
2.84495e-07 -3.15336e-07 -0.000142016
0.000308196 -0.000161024 -8.10307e-07
-0.000161024 -0.000124619 -5.63777e-07
-8.10307e-07 -5.63777e-07 -0.000389154
0.000689273 -0.000115536 7.84873e-07
-0.000115536 0.00012469 3.87897e-08
7.84873e-07 3.87897e-08 -4.91688e-05
0.00176015 -4.29058e-05 -8.17385e-07
-4.29058e-05 0.000118687 1.87264e-07
-8.17385e-07 1.87264e-07 6.48497e-06
0.00187423 -0.000146915 -2.4902e-06
-0.000146915 0.000200039 1.054e-06
-2.4902e-06 1.054e-06 7.64949e-05
0.00186484 -0.000115644 3.76886e-06
-0.000115644 3.14216e-05 -8.98022e-08
3.76886e-06 -8.98022e-08 -4.47906e-05
0.00186578 -0.000245342 -2.6248e-07
-0.000245342 6.36302e-05 1.16725e-06
-2.6248e-07 1.16725e-06 -4.56946e-05
0.00179888 -0.000361455 -4.59992e-07
-0.000361455 9.34562e-05 2.22874e-06
-4.59992e-07 2.22874e-06 -7.17623e-05
0.0021155 -0.00033497 3.29658e-06
-0.00033497 0.000200169 -7.48051e-07
3.29658e-06 -7.48051e-07 9.11854e-05
0.000608668 -0.000222176 5.32836e-06
-0.000222176 -7.32675e-06 -6.95589e-06
5.32836e-06 -6.95589e-06 -0.000218885
0.00188309 -0.000434173 -1.19955e-06
-0.000434173 0.000133257 1.78367e-06
-1.19955e-06 1.78367e-06 -4.10183e-05
0.00131637 -0.000369957 7.15973e-06
-0.000369957 0.000281565 -5.26483e-06
7.15973e-06 -5.26483e-06 -1.41368e-09
0.00170922 -0.000548727 6.08029e-06
-0.000548727 0.000295311 6.82755e-07
6.08029e-06 6.82755e-07 -4.03896e-05
0.00212274 -0.000538012 2.96132e-06
-0.000538012 0.00039494 3.88701e-06
2.96132e-06 3.88701e-06 0.00012737
0.00222113 -0.000499041 -2.52709e-06
-0.000499041 0.000398065 2.47963e-06
-2.52709e-06 2.47963e-06 0.000203033
0.000621545 -7.96333e-05 -8.47848e-07
-7.96333e-05 9.42803e-05 -6.09014e-06
-8.47848e-07 -6.09014e-06 -4.48617e-05
0.000999309 -0.000266867 1.42647e-06
-0.000266867 0.000201572 -1.24724e-06
1.42647e-06 -1.24724e-06 -3.57097e-05
0.000234272 -0.000146425 -1.20856e-06
-0.000146425 -8.09031e-05 1.14332e-06
-1.20856e-06 1.14332e-06 -0.000368315
0.0018956 -0.000368533 -3.67058e-06
-0.000368533 0.000782303 1.05049e-06
-3.67058e-06 1.05049e-06 0.000496405
0.00104762 0.000190297 -1.45616e-05
0.000190297 -4.4572e-05 -4.64069e-06
-1.45616e-05 -4.64069e-06 -0.000219502
0.000396167 -5.30215e-05 3.47002e-06
-5.30215e-05 -5.30929e-05 -1.08985e-05
3.47002e-06 -1.08985e-05 -0.00010767
0.000422355 7.32994e-05 -1.64723e-05
7.32994e-05 -7.42219e-05 -1.3811e-05
-1.64723e-05 -1.3811e-05 -0.000148051
6.9913e-05 5.65621e-05 -1.27424e-06
5.65621e-05 -0.000251027 -6.03372e-06
-1.27424e-06 -6.03372e-06 -0.000419654
0.000967727 0.000226173 -1.52304e-05
0.000226173 -1.71006e-05 -6.73175e-06
-1.52304e-05 -6.73175e-06 -0.000208521
0.00169444 0.000358209 -4.25762e-06
0.000358209 0.000166391 -2.67295e-07
-4.25762e-06 -2.67295e-07 -5.47765e-05
0.000607058 0.000200815 -6.35794e-06
0.000200815 -4.55883e-06 -4.91883e-06
-6.35794e-06 -4.91883e-06 -0.000202922
0.00141236 0.000351315 -5.15799e-06
0.000351315 0.000346424 -4.16582e-06
-5.15799e-06 -4.16582e-06 7.58264e-05
0.00157004 0.000399062 -3.87331e-06
0.000399062 0.000250226 -2.92469e-07
-3.87331e-06 -2.92469e-07 -1.10126e-05
0.0013751 0.000463632 2.03335e-06
0.000463632 0.000129886 3.72776e-06
2.03335e-06 3.72776e-06 -0.000163028
0.000455127 -4.94778e-05 -3.11845e-06
-4.94778e-05 -2.85944e-05 8.92939e-07
-3.11845e-06 8.92939e-07 -6.97767e-05
0.000666967 0.000178803 -4.70581e-07
0.000178803 0.00010384 -7.78855e-07
-4.70581e-07 -7.78855e-07 -0.000105839
0.000633425 3.28133e-05 2.9949e-07
3.28133e-05 7.59022e-05 4.94177e-07
2.9949e-07 4.94177e-07 -4.3295e-05
0.00076353 0.000133239 1.78414e-06
0.000133239 0.000205397 -6.93756e-07
1.78414e-06 -6.93756e-07 -4.7222e-05
0.00176868 0.000319579 -8.34041e-07
0.000319579 0.00015829 -8.15689e-07
-8.34041e-07 -8.15689e-07 -3.62545e-05
0.00162029 0.000387997 -1.01517e-07
0.000387997 0.000197038 -1.56807e-07
-1.01517e-07 -1.56807e-07 -4.80678e-05
0.0019493 0.000429437 3.03158e-07
0.000429437 0.000225506 2.33418e-07
3.03158e-07 2.33418e-07 9.92486e-06
0.00107535 0.000281291 1.8811e-06
0.000281291 0.000192443 7.33694e-07
1.8811e-06 7.33694e-07 -4.81696e-05
0.00197098 0.000516016 -6.13688e-07
0.000516016 0.000394127 1.32583e-07
-6.13688e-07 1.32583e-07 0.000114055
0.00139396 0.000443392 -8.42478e-07
0.000443392 0.000256004 -1.76784e-06
-8.42478e-07 -1.76784e-06 -6.65151e-05
0.00175038 0.000503896 -3.54059e-06
0.000503896 0.000276264 1.50114e-06
-3.54059e-06 1.50114e-06 -9.82633e-06
0.000508567 -3.81103e-05 8.1037e-07
-3.81103e-05 -1.16823e-05 7.02256e-06
8.1037e-07 7.02256e-06 -4.22042e-05
0.000741695 2.88805e-05 1.31615e-06
2.88805e-05 0.000145795 5.30235e-06
1.31615e-06 5.30235e-06 5.19428e-05
0.000627714 0.000215204 3.0477e-06
0.000215204 6.80219e-06 1.3723e-06
3.0477e-06 1.3723e-06 -0.000219313
0.00154157 0.000131698 -1.20375e-06
0.000131698 0.000707284 3.09128e-06
-1.20375e-06 3.09128e-06 0.000481418
0.00137103 0.00030076 -1.20948e-06
0.00030076 0.00051876 -3.17677e-06
-1.20948e-06 -3.17677e-06 0.000259478
0.0020311 0.000385785 3.75804e-07
0.000385785 0.000212717 -2.6076e-06
3.75804e-07 -2.6076e-06 3.19264e-05
0.00194158 0.000483505 4.82101e-07
0.000483505 0.00028778 -7.04787e-07
4.82101e-07 -7.04787e-07 3.52548e-05
0.00199758 0.000470928 -1.08121e-06
0.000470928 0.000229286 -8.5108e-07
-1.08121e-06 -8.5108e-07 2.08626e-05
0.000951915 0.000362345 2.91245e-06
0.000362345 7.85958e-05 2.3683e-06
2.91245e-06 2.3683e-06 -0.000220368
0.00217866 0.000584456 -5.69249e-07
0.000584456 0.000463595 -5.49144e-07
-5.69249e-07 -5.49144e-07 0.000178543
0.00156955 0.000514935 5.50662e-06
0.000514935 0.000297541 -2.66361e-06
5.50662e-06 -2.66361e-06 -3.30842e-05
0.000595437 2.9481e-05 2.63261e-06
2.9481e-05 5.31815e-05 3.71686e-06
2.63261e-06 3.71686e-06 -1.67002e-05
0.000630111 7.46811e-05 -8.71439e-08
7.46811e-05 0.000111078 1.89565e-06
-8.71439e-08 1.89565e-06 -1.09956e-06
0.000588932 4.36555e-05 2.48974e-06
4.36555e-05 5.54685e-05 3.38423e-06
2.48974e-06 3.38423e-06 -7.83951e-06
0.000544315 1.8096e-06 -5.93564e-07
1.8096e-06 2.37234e-05 3.40538e-09
-5.93564e-07 3.40538e-09 -4.17102e-05
0.00127153 -4.3515e-05 9.64406e-07
-4.3515e-05 0.000451678 3.55819e-06
9.64406e-07 3.55819e-06 0.000432756
0.000888854 -4.11619e-05 4.51668e-07
-4.11619e-05 0.000216971 -1.55188e-07
4.51668e-07 -1.55188e-07 0.000193388
0.000850941 -5.24292e-05 2.84451e-05
-5.24292e-05 0.000199959 8.66435e-06
2.84451e-05 8.66435e-06 0.000199192
0.00261502 -0.000118137 6.04406e-06
-0.000118137 0.00131299 -5.81897e-07
6.04406e-06 -5.81897e-07 0.00131334
0.00273802 -0.000137014 -3.92857e-05
-0.000137014 0.00139968 -3.5421e-06
-3.92857e-05 -3.5421e-06 0.00139477
0.000343174 -3.5448e-05 5.8293e-06
-3.5448e-05 -9.78687e-05 -9.72901e-06
5.8293e-06 -9.72901e-06 -0.000146568
0.00393482 0.000152217 9.24052e-05
0.000152217 0.00215945 -6.92669e-06
9.24052e-05 -6.92669e-06 0.00214669
0.000487931 -6.9619e-05 -1.96426e-06
-6.9619e-05 -2.03281e-05 4.61496e-07
-1.96426e-06 4.61496e-07 -8.34018e-05
0.00473332 0.000143149 -1.22059e-05
0.000143149 0.00266225 -1.4234e-06
-1.22059e-05 -1.4234e-06 0.00264855
0.000569049 -9.69094e-05 -1.69335e-05
-9.69094e-05 1.29046e-05 1.41814e-05
-1.69335e-05 1.41814e-05 -6.8334e-05
0.00565043 0.000146175 -0.00019221
0.000146175 0.00323227 2.01019e-05
-0.00019221 2.01019e-05 0.00321453
0.00105613 0.000162569 -1.3181e-05
0.000162569 -5.71331e-05 -3.37307e-06
-1.3181e-05 -3.37307e-06 -0.000220879
0.00103128 9.66592e-05 -1.1914e-05
9.66592e-05 -7.36053e-05 -1.66756e-06
-1.1914e-05 -1.66756e-06 -0.000214655
0.00178657 0.000207214 -1.89192e-06
0.000207214 0.000111725 7.40141e-07
-1.89192e-06 7.40141e-07 -3.29922e-05
0.00170481 9.33168e-05 3.30667e-07
9.33168e-05 6.82787e-05 5.11552e-07
3.30667e-07 5.11552e-07 -4.61949e-05
0.00102573 3.38629e-05 -1.19726e-05
3.38629e-05 -6.21116e-05 -5.29552e-07
-1.19726e-05 -5.29552e-07 -0.000190187
0.000455458 2.90334e-05 -1.92848e-05
2.90334e-05 -0.000180645 -6.41527e-07
-1.92848e-05 -6.41527e-07 -0.000254733
0.00102549 3.66176e-07 -4.67992e-08
3.66176e-07 -5.36084e-05 -1.02025e-07
-4.67992e-08 -1.02025e-07 -0.000180188
0.00170627 4.5934e-05 -9.25574e-08
4.5934e-05 6.85635e-05 1.62071e-07
-9.25574e-08 1.62071e-07 -3.91263e-05
0.00174684 0.000148455 -3.57425e-08
0.000148455 8.81897e-05 1.6962e-07
-3.57425e-08 1.6962e-07 -3.80168e-05
0.00192006 0.000122301 -1.90033e-07
0.000122301 4.95758e-05 2.26182e-07
-1.90033e-07 2.26182e-07 -1.38759e-05
0.00180133 0.000270262 -3.8982e-07
0.000270262 0.000137914 -1.00445e-07
-3.8982e-07 -1.00445e-07 -3.06641e-05
0.0019724 0.000246571 -5.52817e-07
0.000246571 0.000108764 2.26398e-09
-5.52817e-07 2.26398e-09 -3.31079e-06
0.00168404 -6.60615e-07 -1.09273e-07
-6.60615e-07 5.99249e-05 1.58092e-07
-1.09273e-07 1.58092e-07 -4.60805e-05
0.00191632 5.88818e-05 1.69953e-06
5.88818e-05 5.28707e-05 2.7864e-07
1.69953e-06 2.7864e-07 1.08891e-06
0.00191099 0.000182803 2.30452e-06
0.000182803 5.04643e-05 -3.99191e-07
2.30452e-06 -3.99191e-07 -3.4538e-05
0.00199395 0.000119011 7.16225e-06
0.000119011 5.12909e-05 8.09456e-07
7.16225e-06 8.09456e-07 1.74932e-05
0.00207052 0.000327613 1.0135e-06
0.000327613 0.000200254 -1.49099e-06
1.0135e-06 -1.49099e-06 5.40145e-05
0.00196406 0.000267667 2.69948e-06
0.000267667 2.88239e-05 5.77932e-07
2.69948e-06 5.77932e-07 -5.25934e-05
0.00094602 -1.7621e-05 -1.21532e-05
-1.7621e-05 -0.000104989 5.77363e-07
-1.21532e-05 5.77363e-07 -0.000229172
0.00184995 -0.000100157 -2.6741e-05
-0.000100157 0.00044895 2.88607e-06
-2.6741e-05 2.88607e-06 0.000321499
0.00191431 -8.87438e-05 -2.23393e-06
-8.87438e-05 0.000215022 -3.7136e-07
-2.23393e-06 -3.7136e-07 0.0001055
0.00173235 -0.000205696 -2.65448e-06
-0.000205696 0.000127794 5.60013e-07
-2.65448e-06 5.60013e-07 -2.36771e-05
0.000534041 -0.000188866 -2.40294e-05
-0.000188866 -3.65294e-05 1.86014e-05
-2.40294e-05 1.86014e-05 -0.000142267
0.000822378 -0.000225366 -1.09345e-05
-0.000225366 6.40343e-05 7.91381e-06
-1.09345e-05 7.91381e-06 -0.000142153
0.0013006 -0.000399222 -4.92644e-06
-0.000399222 0.000157659 1.96251e-06
-4.92644e-06 1.96251e-06 -0.000128979
0.00183315 -0.000308046 -5.90578e-06
-0.000308046 0.000240058 1.25464e-06
-5.90578e-06 1.25464e-06 4.70952e-05
0.00207556 -0.000313569 1.87942e-07
-0.000313569 0.000213165 -1.56304e-06
1.87942e-07 -1.56304e-06 8.3012e-05
0.00192438 -0.00040749 -9.67195e-07
-0.00040749 0.00021979 -1.35481e-06
-9.67195e-07 -1.35481e-06 2.02617e-05
0.00208073 -0.0005133 -3.56384e-06
-0.0005133 0.00042276 -2.70221e-06
-3.56384e-06 -2.70221e-06 0.000144006
0.00189309 -0.000463593 2.85206e-06
-0.000463593 0.000186481 -2.78723e-06
2.85206e-06 -2.78723e-06 -2.05763e-05
0.000815322 -0.000188918 -4.10593e-06
-0.000188918 0.000171649 4.83332e-06
-4.10593e-06 4.83332e-06 -5.15984e-05
-7.81994e-05 -0.000124478 6.60596e-08
-0.000124478 -0.000363721 -1.07645e-06
6.60596e-08 -1.07645e-06 -0.000625572
0.000805286 -0.00013467 -2.27222e-07
-0.00013467 0.000192622 3.98479e-06
-2.27222e-07 3.98479e-06 1.50258e-05
0.00175229 -4.02173e-05 -6.15966e-07
-4.02173e-05 0.000111423 8.03812e-08
-6.15966e-07 8.03812e-08 1.30869e-06
0.00184945 -0.000154113 -3.03294e-06
-0.000154113 0.000182807 5.13699e-07
-3.03294e-06 5.13699e-07 5.79787e-05
0.00192943 -0.000114354 2.96512e-06
-0.000114354 7.02866e-05 -3.92858e-07
2.96512e-06 -3.92858e-07 4.92447e-07
0.00188302 -0.000241285 -1.42467e-06
-0.000241285 7.36547e-05 5.73705e-07
-1.42467e-06 5.73705e-07 -3.80513e-05
0.00075159 -0.000229534 7.02454e-07
-0.000229534 8.11901e-05 -5.21962e-07
7.02454e-07 -5.21962e-07 -0.000132928
0.00119211 -0.000362285 -1.51179e-06
-0.000362285 0.00019334 -2.50704e-07
-1.51179e-06 -2.50704e-07 -8.68311e-05
0.00167307 -0.000539447 1.36197e-06
-0.000539447 0.000288376 3.28385e-07
1.36197e-06 3.28385e-07 -4.68825e-05
0.00180392 -0.000359894 -1.32095e-06
-0.000359894 0.00010069 9.90222e-07
-1.32095e-06 9.90222e-07 -6.9636e-05
0.0020414 -0.000332442 1.26216e-06
-0.000332442 0.000148153 -4.68089e-07
1.26216e-06 -4.68089e-07 4.27308e-05
0.00201555 -0.000537361 -4.05386e-07
-0.000537361 0.000320265 5.26973e-07
-4.05386e-07 5.26973e-07 5.02641e-05
0.0019287 -0.000435977 -9.15754e-08
-0.000435977 0.000163019 5.70356e-07
-9.15754e-08 5.70356e-07 -1.15919e-05
0.00215619 -0.000485956 1.59262e-06
-0.000485956 0.000349331 -6.09279e-07
1.59262e-06 -6.09279e-07 0.000160247
0.00106065 -0.000272792 3.49777e-08
-0.000272792 0.000247181 7.19489e-07
3.49777e-08 7.19489e-07 1.97376e-06
0.00118908 -0.000310689 -1.14657e-06
-0.000310689 0.000350416 2.39724e-07
-1.14657e-06 2.39724e-07 6.6201e-05
0.000668251 -0.000100959 -2.81819e-07
-0.000100959 0.000119215 -3.59609e-08
-2.81819e-07 -3.59609e-08 -2.31282e-05
6.64069e-05 -8.70518e-05 2.82944e-07
-8.70518e-05 -0.000207299 -1.73471e-06
2.82944e-07 -1.73471e-06 -0.000469501
0.00194452 -6.04129e-05 2.66467e-06
-6.04129e-05 8.01737e-05 1.40493e-07
2.66467e-06 1.40493e-07 2.07238e-05
0.0018121 -0.000180185 2.26832e-06
-0.000180185 3.05221e-06 -1.47624e-07
2.26832e-06 -1.47624e-07 -8.89267e-05
0.0018666 -0.000112274 6.92581e-06
-0.000112274 -4.50226e-06 -6.71386e-07
6.92581e-06 -6.71386e-07 -3.96974e-05
0.00205843 -0.00027577 8.4042e-07
-0.00027577 9.97673e-05 -6.11389e-07
8.4042e-07 -6.11389e-07 3.36789e-05
0.00181948 -0.000384693 -1.70783e-06
-0.000384693 5.39884e-05 7.73703e-07
-1.70783e-06 7.73703e-07 -8.64969e-05
0.0020307 -0.000343615 4.57036e-06
-0.000343615 0.000107645 -1.41126e-06
4.57036e-06 -1.41126e-06 2.44006e-05
0.0012882 -0.000327377 4.57584e-06
-0.000327377 0.000326936 -4.93123e-06
4.57584e-06 -4.93123e-06 7.0703e-05
0.00186184 -0.000451582 -3.1875e-06
-0.000451582 0.000111473 3.75868e-07
-3.1875e-06 3.75868e-07 -4.46751e-05
0.00145104 -0.000516643 2.50238e-06
-0.000516643 0.000292596 1.68335e-07
2.50238e-06 1.68335e-07 -6.06218e-05
0.00188656 -0.000610735 2.95232e-06
-0.000610735 0.00035516 1.93995e-06
2.95232e-06 1.93995e-06 6.33166e-06
0.00196951 -0.000546524 1.6228e-06
-0.000546524 0.00024628 4.23654e-06
1.6228e-06 4.23654e-06 -1.50924e-05
0.00224403 -0.000505725 -4.21738e-06
-0.000505725 0.000380054 -1.78633e-06
-4.21738e-06 -1.78633e-06 0.000186734
0.000558455 -7.8576e-05 -1.05432e-06
-7.8576e-05 5.67012e-05 -5.6253e-06
-1.05432e-06 -5.6253e-06 -5.98802e-05
0.000288464 -0.000108384 -3.84977e-06
-0.000108384 -4.17835e-05 -1.33535e-06
-3.84977e-06 -1.33535e-06 -0.000284907
0.00124918 -0.000346408 1.5022e-06
-0.000346408 0.000311315 -1.50569e-06
1.5022e-06 -1.50569e-06 3.76173e-05
0.00106084 -0.000233319 -3.4953e-06
-0.000233319 0.000378038 3.38634e-06
-3.4953e-06 3.38634e-06 9.58192e-05
0.00219163 -0.000444246 -9.20195e-06
-0.000444246 0.00095534 1.2632e-06
-9.20195e-06 1.2632e-06 0.000631372
0.000349995 -5.2844e-05 -5.45788e-07
-5.2844e-05 -9.19311e-05 -7.72365e-06
-5.45788e-07 -7.72365e-06 -0.000132775
0.00174265 0.000317529 -3.71174e-06
0.000317529 0.000142848 -5.33833e-07
-3.71174e-06 -5.33833e-07 -5.18509e-05
0.000342049 9.67701e-06 2.14724e-07
9.67701e-06 -9.75966e-05 -5.82839e-06
2.14724e-07 -5.82839e-06 -0.000213411
0.000516268 0.000176891 -5.04078e-06
0.000176891 -2.86359e-06 -3.70213e-06
-5.04078e-06 -3.70213e-06 -0.000205203
0.000570626 0.000135497 1.08519e-06
0.000135497 8.52144e-05 -2.93515e-08
1.08519e-06 -2.93515e-08 -0.000166836
0.00159881 0.000387596 -4.72644e-06
0.000387596 0.000182546 -6.00263e-07
-4.72644e-06 -6.00263e-07 -6.32883e-05
0.00191834 0.000426215 1.28687e-07
0.000426215 0.000209037 1.30928e-06
1.28687e-07 1.30928e-06 -6.06237e-06
0.00124366 0.000306141 -4.52432e-06
0.000306141 0.000306304 -3.08299e-06
-4.52432e-06 -3.08299e-06 5.93311e-05
0.00134263 0.000447264 3.50461e-07
0.000447264 0.000214227 5.13861e-07
3.50461e-07 5.13861e-07 -0.000112797
0.0018587 0.0004976 4.47894e-07
0.0004976 0.000331837 2.00923e-06
4.47894e-07 2.00923e-06 5.40293e-05
0.00182797 0.000507656 8.54706e-07
0.000507656 0.000326005 6.90878e-06
8.54706e-07 6.90878e-06 4.32165e-05
0.000478464 -3.29329e-05 -2.57091e-07
-3.29329e-05 -3.14297e-05 1.34113e-07
-2.57091e-07 1.34113e-07 -6.08456e-05
0.000607232 1.56655e-05 -5.42588e-07
1.56655e-05 6.67488e-05 4.96877e-07
-5.42588e-07 4.96877e-07 -2.66102e-05
0.000996398 0.000254849 6.44256e-07
0.000254849 0.000236105 6.83086e-07
6.44256e-07 6.83086e-07 3.88405e-06
0.000693057 7.58167e-05 -7.78988e-07
7.58167e-05 0.000176925 -4.31537e-07
-7.78988e-07 -4.31537e-07 -3.46655e-05
0.000822024 0.000224768 1.58964e-07
0.000224768 0.000158275 3.87315e-07
1.58964e-07 3.87315e-07 -7.33247e-05
0.00200578 0.000384966 -1.24114e-06
0.000384966 0.000196672 -1.56345e-06
-1.24114e-06 -1.56345e-06 1.57746e-05
0.00190051 0.000480025 5.55313e-07
0.000480025 0.000263605 1.84664e-07
5.55313e-07 1.84664e-07 1.15769e-05
0.00193563 0.000467784 1.64123e-06
0.000467784 0.000193675 2.48798e-07
1.64123e-06 2.48798e-07 -1.48544e-05
0.00135154 0.000401747 1.86787e-06
0.000401747 0.000334316 1.0372e-06
1.86787e-06 1.0372e-06 2.61079e-05
0.00203885 0.000569063 1.91947e-06
0.000569063 0.000364898 1.90707e-07
1.91947e-06 1.90707e-07 8.10115e-05
0.00184023 0.000539244 -2.85278e-06
0.000539244 0.000465313 -1.86461e-07
-2.85278e-06 -1.86461e-07 0.000131585
0.000663028 2.55828e-05 1.52705e-06
2.55828e-05 9.56707e-05 4.12735e-06
1.52705e-06 4.12735e-06 1.71698e-05
0.00131251 0.000147799 7.86974e-07
0.000147799 0.000543917 3.16655e-06
7.86974e-07 3.16655e-06 0.000381642
0.000984041 0.000308486 -2.97333e-06
0.000308486 0.000154169 1.65564e-06
-2.97333e-06 1.65564e-06 -9.42308e-05
0.00149194 0.000165616 -1.38835e-06
0.000165616 0.000679747 -8.85429e-07
-1.38835e-06 -8.85429e-07 0.000423318
0.00155985 0.000274423 -5.99454e-06
0.000274423 0.000527724 -7.56613e-07
-5.99454e-06 -7.56613e-07 0.000324051
0.0020035 0.000402125 -3.56244e-06
0.000402125 0.000172938 -2.75195e-06
-3.56244e-06 -2.75195e-06 8.64551e-06
0.00199554 0.000534181 -3.11208e-07
0.000534181 0.000282137 -2.54631e-08
-3.11208e-07 -2.54631e-08 3.01375e-05
0.00178188 0.000505118 5.80801e-06
0.000505118 6.15365e-05 -1.0283e-07
5.80801e-06 -1.0283e-07 -0.000149839
0.000983083 0.000432194 5.07139e-06
0.000432194 0.000124479 -1.45013e-06
5.07139e-06 -1.45013e-06 -0.000222452
0.00150222 0.000539514 9.69523e-06
0.000539514 0.000159267 -3.43513e-07
9.69523e-06 -3.43513e-07 -0.000147396
0.000579053 2.27246e-05 -3.14678e-07
2.27246e-05 4.11846e-05 1.37594e-07
-3.14678e-07 1.37594e-07 -2.73608e-05
0.000432426 5.01174e-05 6.93887e-07
5.01174e-05 -2.50396e-05 2.30323e-06
6.93887e-07 2.30323e-06 -0.000131129
0.000432148 4.55687e-05 -5.91486e-07
4.55687e-05 -2.58245e-05 -2.42241e-07
-5.91486e-07 -2.42241e-07 -0.000125836
0.000953503 0.000134594 -9.62521e-07
0.000134594 0.000312983 -9.47063e-07
-9.62521e-07 -9.47063e-07 0.000185055
0.00066767 0.000102492 1.89864e-06
0.000102492 0.000135414 2.27475e-06
1.89864e-06 2.27475e-06 2.64465e-05
0.00054596 5.42283e-05 2.75593e-06
5.42283e-05 3.48926e-05 3.2703e-06
2.75593e-06 3.2703e-06 -2.83137e-05
0.000542524 8.39208e-06 -6.49027e-07
8.39208e-06 2.69231e-05 -2.3432e-08
-6.49027e-07 -2.3432e-08 -3.60853e-05
0.00124896 -2.9072e-05 8.30863e-07
-2.9072e-05 0.000435561 3.19983e-06
8.30863e-07 3.19983e-06 0.000419407
0.000557843 1.36489e-05 -1.75807e-06
1.36489e-05 2.77433e-05 -3.54586e-06
-1.75807e-06 -3.54586e-06 -3.48745e-05
0.00130767 -3.94343e-05 -7.13792e-06
-3.94343e-05 0.000473653 -1.50121e-06
-7.13792e-06 -1.50121e-06 0.00045581
0.000815415 -3.88685e-05 2.92817e-05
-3.88685e-05 0.000169793 8.52653e-06
2.92817e-05 8.52653e-06 0.000173276
0.00132506 -4.79911e-05 -1.20653e-05
-4.79911e-05 0.000489726 -4.90607e-06
-1.20653e-05 -4.90607e-06 0.000468937
0.00166084 -7.48468e-05 2.78125e-05
-7.48468e-05 0.000707285 1.59433e-06
2.78125e-05 1.59433e-06 0.000709372
0.00255187 -0.000114152 -3.46645e-05
-0.000114152 0.00127219 -3.96382e-06
-3.46645e-05 -3.96382e-06 0.00127348
0.000308457 8.18086e-05 -5.85989e-06
8.18086e-05 -9.18339e-05 -8.0451e-06
-5.85989e-06 -8.0451e-06 -0.000142925
0.000475832 -1.74574e-05 5.7381e-07
-1.74574e-05 -1.03897e-05 6.0691e-07
5.7381e-07 6.0691e-07 -6.49587e-05
0.00326925 0.00017276 1.08827e-05
0.00017276 0.00174327 -6.28167e-06
1.08827e-05 -6.28167e-06 0.00172567
0.00414433 0.000123573 -1.19835e-05
0.000123573 0.00228669 -1.02266e-06
-1.19835e-05 -1.02266e-06 0.0022805
0.000634956 -7.22171e-05 -1.24167e-05
-7.22171e-05 6.82556e-05 1.2131e-05
-1.24167e-05 1.2131e-05 2.35727e-06
0.00496882 0.000121085 -0.000168024
0.000121085 0.00280123 1.66766e-05
-0.000168024 1.66766e-05 0.00279211
0.0017778 0.000268099 -2.59144e-06
0.000268099 0.00012677 5.20379e-07
-2.59144e-06 5.20379e-07 -4.18516e-05
0.00171626 0.000148342 -3.44307e-07
0.000148342 6.88285e-05 6.49196e-07
-3.44307e-07 6.49196e-07 -5.79235e-05
0.00193584 0.000244501 -2.00089e-06
0.000244501 8.96772e-05 1.61549e-06
-2.00089e-06 1.61549e-06 -2.23756e-05
0.00194169 0.000120919 -2.18602e-06
0.000120919 5.48068e-05 4.54877e-07
-2.18602e-06 4.54877e-07 -5.37858e-06
0.00171206 4.79636e-05 2.51605e-07
4.79636e-05 7.59326e-05 4.24795e-07
2.51605e-07 4.24795e-07 -3.18295e-05
0.00103113 5.20447e-06 -1.16866e-05
5.20447e-06 -5.07755e-05 -1.14015e-07
-1.16866e-05 -1.14015e-07 -0.000177305
0.00169718 2.88057e-06 5.85299e-08
2.88057e-06 7.00618e-05 1.66323e-07
5.85299e-08 1.66323e-07 -3.59484e-05
0.00188468 5.06145e-05 -7.95232e-07
5.06145e-05 3.39435e-05 2.07968e-08
-7.95232e-07 2.07968e-08 -1.83839e-05
0.00194107 0.000181979 -6.39409e-07
0.000181979 7.14369e-05 3.1707e-07
-6.39409e-07 3.1707e-07 -1.33429e-05
0.00195158 0.000116393 7.17995e-07
0.000116393 1.82316e-05 2.101e-07
7.17995e-07 2.101e-07 -1.02674e-05
0.00202123 0.000327329 -4.13437e-07
0.000327329 0.000163002 -1.60163e-07
-4.13437e-07 -1.60163e-07 1.64123e-05
0.00197488 0.000262996 5.73221e-08
0.000262996 3.47214e-05 4.16945e-07
5.73221e-08 4.16945e-07 -4.27352e-05
0.00190593 -5.20842e-06 2.36498e-06
-5.20842e-06 5.27337e-05 1.62581e-07
2.36498e-06 1.62581e-07 -4.6157e-07
0.00193428 4.99677e-05 6.55875e-06
4.99677e-05 2.96748e-05 2.23957e-07
6.55875e-06 2.23957e-07 6.54321e-06
0.00199572 0.000187157 3.43529e-06
0.000187157 3.39806e-05 2.65224e-07
3.43529e-06 2.65224e-07 -8.44002e-06
0.00204689 0.00011523 4.44447e-06
0.00011523 4.37453e-05 5.73665e-07
4.44447e-06 5.73665e-07 3.64832e-05
0.00195055 0.000322514 1.27071e-06
0.000322514 7.94881e-05 -8.66452e-07
1.27071e-06 -8.66452e-07 -4.12022e-05
0.00214189 0.000271676 3.7323e-06
0.000271676 8.75752e-05 1.22119e-06
3.7323e-06 1.22119e-06 3.73941e-05
0.0017405 -3.75304e-05 -9.59059e-07
-3.75304e-05 0.000102605 -2.54731e-07
-9.59059e-07 -2.54731e-07 -5.38713e-06
0.00184614 -0.000159443 -3.53746e-06
-0.000159443 0.000178376 -2.24631e-08
-3.53746e-06 -2.24631e-08 5.26295e-05
0.00198284 -0.00011399 2.36915e-07
-0.00011399 0.000102464 -8.62847e-07
2.36915e-07 -8.62847e-07 3.88599e-05
0.00188528 -0.000237371 -1.85001e-06
-0.000237371 7.48547e-05 -1.7813e-08
-1.85001e-06 -1.7813e-08 -3.9309e-05
0.000851265 -0.000232746 -8.60596e-06
-0.000232746 0.000141385 7.6917e-06
-8.60596e-06 7.6917e-06 -7.42478e-05
0.00117205 -0.000364253 -7.39818e-06
-0.000364253 0.000171269 3.55633e-06
-7.39818e-06 3.55633e-06 -0.000109387
0.00154209 -0.000520208 1.55099e-07
-0.000520208 0.000224558 -5.50772e-07
1.55099e-07 -5.50772e-07 -0.00010885
0.00179903 -0.00035786 -1.4025e-06
-0.00035786 0.000101699 -1.31089e-07
-1.4025e-06 -1.31089e-07 -7.3688e-05
0.00196869 -0.000329428 -2.87238e-07
-0.000329428 9.67173e-05 6.60676e-08
-2.87238e-07 6.60676e-08 -4.69208e-06
0.00197512 -0.000437765 1.05669e-06
-0.000437765 0.000194161 -6.49537e-07
1.05669e-06 -6.49537e-07 1.91846e-05
0.00191513 -0.000539262 -2.00971e-06
-0.000539262 0.000248895 -2.89295e-06
-2.00971e-06 -2.89295e-06 -2.4339e-05
0.00205264 -0.000473797 6.79189e-06
-0.000473797 0.00028122 -4.67648e-06
6.79189e-06 -4.67648e-06 9.72708e-05
0.000823823 -0.000247295 -1.43184e-06
-0.000247295 0.000111018 2.00895e-06
-1.43184e-06 2.00895e-06 -0.000135904
-0.000106072 -0.000172131 -1.6265e-07
-0.000172131 -0.000460425 1.92016e-06
-1.6265e-07 1.92016e-06 -0.000723179
0.000808281 -0.0001157 -4.09283e-07
-0.0001157 0.000201029 5.39301e-06
-4.09283e-07 5.39301e-06 5.53133e-05
0.00017969 -5.91384e-05 3.22658e-06
-5.91384e-05 -0.000155875 -2.64339e-06
3.22658e-06 -2.64339e-06 -0.000396976
0.00192805 -5.98311e-05 -1.83091e-08
-5.98311e-05 7.217e-05 1.97023e-07
-1.83091e-08 1.97023e-07 1.25755e-05
0.00185082 -0.000180773 2.38774e-06
-0.000180773 3.15022e-05 -7.95582e-07
2.38774e-06 -7.95582e-07 -6.13993e-05
0.00191213 -0.000113267 1.29914e-06
-0.000113267 2.00142e-05 -3.94794e-07
1.29914e-06 -3.94794e-07 -1.37337e-05
0.00200367 -0.00027124 -1.39449e-06
-0.00027124 7.31274e-05 1.84363e-07
-1.39449e-06 1.84363e-07 3.51808e-06
0.0010832 -0.0002996 -1.85146e-06
-0.0002996 0.000193024 5.43383e-07
-1.85146e-06 5.43383e-07 -5.69753e-05
0.00138606 -0.000499473 2.69713e-06
-0.000499473 0.000266974 -9.15409e-07
2.69713e-06 -9.15409e-07 -8.10986e-05
0.00180288 -0.000611085 -1.48932e-07
-0.000611085 0.000299212 4.49008e-07
-1.48932e-07 4.49008e-07 -5.38643e-05
0.00185723 -0.000384344 -1.41757e-06
-0.000384344 8.57583e-05 7.31631e-07
-1.41757e-06 7.31631e-07 -5.82501e-05
0.00198655 -0.000343995 1.2631e-06
-0.000343995 8.25383e-05 -3.59074e-07
1.2631e-06 -3.59074e-07 1.38271e-06
0.00193893 -0.000547802 -1.40982e-07
-0.000547802 0.000245846 4.71752e-07
-1.40982e-07 4.71752e-07 -1.74251e-05
0.00184542 -0.000452056 -9.44795e-07
-0.000452056 9.3043e-05 1.06121e-06
-9.44795e-07 1.06121e-06 -6.42163e-05
0.00210245 -0.00049113 3.89719e-06
-0.00049113 0.000289057 -5.20589e-06
3.89719e-06 -5.20589e-06 0.000102685
0.00115668 -0.000337082 1.94023e-07
-0.000337082 0.000255052 1.17498e-06
1.94023e-07 1.17498e-06 -1.74798e-05
0.00161044 -0.000377526 2.62942e-06
-0.000377526 0.000581381 1.28663e-06
2.62942e-06 1.28663e-06 0.000273462
0.000969609 -0.000214955 -2.0415e-07
-0.000214955 0.000320262 1.4809e-07
-2.0415e-07 1.4809e-07 3.76834e-05
0.00035608 -4.70142e-05 -2.1464e-06
-4.70142e-05 -6.99354e-05 6.88715e-07
-2.1464e-06 6.88715e-07 -0.000186648
0.000130954 -5.7873e-05 -4.91757e-07
-5.7873e-05 -0.000152358 -6.3994e-07
-4.91757e-07 -6.3994e-07 -0.00037867
0.00188555 -6.14327e-05 5.75369e-06
-6.14327e-05 -4.25396e-06 -9.22294e-08
5.75369e-06 -9.22294e-08 -2.40807e-05
0.00197397 -0.000170111 4.90119e-06
-0.000170111 3.5496e-05 -7.50361e-07
4.90119e-06 -7.50361e-07 1.45298e-06
0.00203821 -0.000318146 1.73607e-06
-0.000318146 3.04638e-05 -3.31413e-07
1.73607e-06 -3.31413e-07 -1.17257e-05
0.00196829 -0.000394213 1.68521e-06
-0.000394213 9.81097e-05 -1.78753e-06
1.68521e-06 -1.78753e-06 -1.85561e-06
0.00158465 -0.000435349 1.45371e-06
-0.000435349 0.000495428 -4.04559e-06
1.45371e-06 -4.04559e-06 0.00017612
0.00216344 -0.000544796 -1.30279e-06
-0.000544796 0.000203187 -3.93427e-06
-1.30279e-06 -3.93427e-06 2.98761e-05
0.00124785 -0.000568911 -4.44331e-06
-0.000568911 0.000156448 2.53883e-06
-4.44331e-06 2.53883e-06 -0.000226817
0.0019307 -0.000674315 3.19656e-06
-0.000674315 0.000333958 2.48483e-07
3.19656e-06 2.48483e-07 -3.40683e-05
0.00184512 -0.00052542 -5.98334e-06
-0.00052542 0.000176063 1.35279e-06
-5.98334e-06 1.35279e-06 -7.46163e-05
2.44839e-05 -9.16867e-06 -2.23833e-06
-9.16867e-06 -0.000268534 -4.9898e-06
-2.23833e-06 -4.9898e-06 -0.000361273
0.000721323 -0.000118552 -2.29275e-06
-0.000118552 0.000217818 3.85233e-07
-2.29275e-06 3.85233e-07 2.13102e-05
0.00104388 -0.000165391 -2.36382e-06
-0.000165391 0.000411806 -2.53864e-06
-2.36382e-06 -2.53864e-06 0.000156042
0.00172171 -0.000433911 -7.22663e-06
-0.000433911 0.000589602 -6.01932e-07
-7.22663e-06 -6.01932e-07 0.000270589
0.000693879 -0.00019219 1.55656e-07
-0.00019219 0.000100838 4.86622e-06
1.55656e-07 4.86622e-06 -0.000189221
0.00146165 -0.000397825 -4.69843e-06
-0.000397825 0.000457175 5.96407e-06
-4.69843e-06 5.96407e-06 0.000130172
0.000456544 -3.45507e-05 -1.35053e-06
-3.45507e-05 -4.47433e-05 -6.47706e-06
-1.35053e-06 -6.47706e-06 -7.40555e-05
0.000531887 8.659e-06 -1.05296e-06
8.659e-06 2.44526e-05 -4.88479e-06
-1.05296e-06 -4.88479e-06 -6.89932e-05
0.00198027 0.000384118 -2.51394e-06
0.000384118 0.000180609 -4.08792e-07
-2.51394e-06 -4.08792e-07 -3.89264e-07
-0.000265073 -1.82132e-05 8.05718e-07
-1.82132e-05 -0.000410322 -2.59235e-06
8.05718e-07 -2.59235e-06 -0.000613271
0.00119579 0.000270051 -3.12151e-06
0.000270051 0.000359832 -7.98746e-07
-3.12151e-06 -7.98746e-07 0.000129377
0.000438721 0.000163445 2.77645e-06
0.000163445 -9.82172e-05 3.76441e-07
2.77645e-06 3.76441e-07 -0.000305409
0.00185992 0.000476236 4.56855e-07
0.000476236 0.00024072 1.01695e-06
4.56855e-07 1.01695e-06 -1.07003e-05
0.00187607 0.000464411 1.50495e-06
0.000464411 0.000160729 7.80588e-07
1.50495e-06 7.80588e-07 -4.78032e-05
0.00157084 0.000420053 4.7034e-07
0.000420053 0.000482182 -8.40619e-07
4.7034e-07 -8.40619e-07 0.000168499
0.00211391 0.000560258 -4.14454e-06
0.000560258 0.000636904 1.52715e-06
-4.14454e-06 1.52715e-06 0.00030373
0.00188055 0.000552159 -7.32764e-07
0.000552159 0.000255091 1.20538e-06
-7.32764e-07 1.20538e-06 -2.7412e-05
0.000587432 2.46976e-05 -3.93925e-07
2.46976e-05 5.09847e-05 4.56043e-07
-3.93925e-07 4.56043e-07 -2.73153e-05
0.000735607 6.59806e-05 -8.92082e-07
6.59806e-05 0.000181648 3.44332e-07
-8.92082e-07 3.44332e-07 3.51082e-05
0.00117269 0.000326171 2.53289e-07
0.000326171 0.000270995 1.69972e-07
2.53289e-07 1.69972e-07 2.13638e-05
0.000936159 0.000116004 8.77536e-07
0.000116004 0.000328747 6.10937e-07
8.77536e-07 6.10937e-07 8.36414e-05
0.000732907 0.000229028 2.8905e-06
0.000229028 3.20998e-05 5.36424e-07
2.8905e-06 5.36424e-07 -0.000167607
0.00195109 0.000402063 -2.33814e-06
0.000402063 0.000143025 -1.71429e-06
-2.33814e-06 -1.71429e-06 -2.20288e-05
0.00198617 0.000532239 1.81537e-06
0.000532239 0.000276251 6.36387e-07
1.81537e-06 6.36387e-07 2.45333e-05
0.00186668 0.000505908 4.36681e-07
0.000505908 0.000113092 -1.14097e-07
4.36681e-07 -1.14097e-07 -9.71615e-05
0.00124145 0.000470259 2.68626e-06
0.000470259 0.000266072 2.57566e-06
2.68626e-06 2.57566e-06 -8.4722e-05
0.00171064 0.000563464 -2.55831e-06
0.000563464 0.000297347 -1.9399e-06
-2.55831e-06 -1.9399e-06 -1.67523e-05
0.000911761 8.42957e-05 7.46466e-07
8.42957e-05 0.000284414 2.75037e-06
7.46466e-07 2.75037e-06 0.00015922
-5.48487e-05 -3.11692e-06 -2.01192e-06
-3.11692e-06 -0.00025688 2.36448e-06
-2.01192e-06 2.36448e-06 -0.000454225
0.00127951 0.000375166 -2.8574e-06
0.000375166 0.000309269 -2.37166e-06
-2.8574e-06 -2.37166e-06 2.72677e-05
-0.000309133 0.000132352 1.38469e-07
0.000132352 -0.000473165 -4.79652e-07
1.38469e-07 -4.79652e-07 -0.000698607
0.00190349 0.00035858 -3.0443e-06
0.00035858 0.000666795 -2.29518e-06
-3.0443e-06 -2.29518e-06 0.000444507
0.00191478 0.000436471 4.04024e-07
0.000436471 4.36029e-05 -1.11081e-06
4.04024e-07 -1.11081e-06 -0.00010359
0.00207003 0.000589997 5.91845e-06
0.000589997 0.000301278 -1.48954e-06
5.91845e-06 -1.48954e-06 2.76947e-05
0.00180436 0.000530198 5.03383e-06
0.000530198 5.99257e-05 1.03609e-06
5.03383e-06 1.03609e-06 -0.000163774
0.0010943 0.000476087 7.693e-06
0.000476087 0.000139022 1.90923e-06
7.693e-06 1.90923e-06 -0.000214496
0.00195283 0.000635454 -3.11569e-07
0.000635454 0.000445431 -4.30499e-07
-3.11569e-07 -4.30499e-07 0.000108528
0.000542387 1.39432e-05 -1.98321e-06
1.39432e-05 1.75549e-05 -3.72976e-06
-1.98321e-06 -3.72976e-06 -5.00791e-05
0.000545613 5.81705e-05 1.25522e-06
5.81705e-05 4.75154e-05 4.44686e-07
1.25522e-06 4.44686e-07 -6.02026e-05
0.000346955 4.46687e-05 -3.16122e-07
4.46687e-05 -8.33696e-05 1.20404e-06
-3.16122e-07 1.20404e-06 -0.000187912
0.000253447 -2.09002e-05 -3.69992e-07
-2.09002e-05 -0.000131308 -2.47144e-06
-3.69992e-07 -2.47144e-06 -0.000232489
0.000607836 5.68195e-05 -3.54563e-07
5.68195e-05 9.78733e-05 2.98793e-08
-3.54563e-07 2.98793e-08 -8.94653e-06
0.000605992 8.25349e-05 -7.46356e-07
8.25349e-05 8.6047e-05 -1.00704e-07
-7.46356e-07 -1.00704e-07 -2.65784e-05
0.000747492 0.000120017 -3.09887e-06
0.000120017 0.000190149 -3.5028e-06
-3.09887e-06 -3.5028e-06 7.26204e-05
0.000332306 6.96938e-06 -7.59356e-08
6.96938e-06 -6.53288e-05 -1.87691e-07
-7.59356e-08 -1.87691e-07 -0.000189046
0.00067366 8.95977e-05 1.01308e-06
8.95977e-05 0.000131336 2.52366e-06
1.01308e-06 2.52366e-06 3.14444e-05
0.000576115 6.29941e-05 3.35517e-06
6.29941e-05 5.72806e-05 3.32485e-06
3.35517e-06 3.32485e-06 -8.28297e-06
0.000540349 1.7404e-05 -2.17355e-06
1.7404e-05 2.97898e-05 2.5571e-10
-2.17355e-06 2.5571e-10 -3.24477e-05
0.0012278 -1.44731e-05 1.1803e-06
-1.44731e-05 0.000424292 2.92484e-06
1.1803e-06 2.92484e-06 0.000409556
0.000465929 -5.97033e-05 1.38661e-06
-5.97033e-05 -1.42206e-05 -3.37922e-06
1.38661e-06 -3.37922e-06 -8.06612e-05
0.00129103 -2.46625e-05 -6.27971e-06
-2.46625e-05 0.00046125 -1.56684e-06
-6.27971e-06 -1.56684e-06 0.000445891
0.000784123 -2.9158e-05 2.54359e-05
-2.9158e-05 0.000146908 8.76764e-06
2.54359e-05 8.76764e-06 0.000152358
0.00133715 -3.65065e-05 -1.07848e-05
-3.65065e-05 0.000491445 -6.52284e-06
-1.07848e-05 -6.52284e-06 0.000474211
0.000770128 -4.18929e-05 9.80984e-06
-4.18929e-05 0.000141439 3.25204e-06
9.80984e-06 3.25204e-06 0.000143387
0.00243489 -0.000107386 -2.6121e-06
-0.000107386 0.00119143 -2.54467e-06
-2.6121e-06 -2.54467e-06 0.00119386
0.000359972 5.72937e-05 -3.11187e-06
5.72937e-05 -8.22892e-05 -4.96717e-06
-3.11187e-06 -4.96717e-06 -0.000114125
0.000419416 2.30804e-05 -3.31236e-06
2.30804e-05 -4.12301e-05 1.40484e-08
-3.31236e-06 1.40484e-08 -8.33561e-05
0.00278702 0.000135583 1.3824e-05
0.000135583 0.00143486 -4.91565e-06
1.3824e-05 -4.91565e-06 0.0014278
0.000575187 -4.6702e-05 -8.3527e-06
-4.6702e-05 4.1899e-05 1.03182e-05
-8.3527e-06 1.03182e-05 -9.59892e-06
0.00347764 0.000132532 -3.13939e-05
0.000132532 0.00186486 -5.03093e-07
-3.13939e-05 -5.03093e-07 0.00185756
0.00427244 9.77771e-05 -0.000145722
9.77771e-05 0.00235953 1.29218e-05
-0.000145722 1.29218e-05 0.00235879
0.0019709 0.000326822 -2.52681e-06
0.000326822 0.000125495 1.1389e-06
-2.52681e-06 1.1389e-06 -2.13991e-05
0.0019825 0.000180316 -1.63671e-06
0.000180316 0.000100679 1.39003e-06
-1.63671e-06 1.39003e-06 1.63837e-05
0.00197769 0.000257514 -1.51767e-06
0.000257514 3.57902e-05 9.69369e-07
-1.51767e-06 9.69369e-07 -3.76984e-05
0.00191046 0.000113986 -3.83948e-06
0.000113986 -1.40189e-05 -1.53942e-07
-3.83948e-06 -1.53942e-07 -3.71241e-05
0.00186702 4.41792e-05 -3.49877e-06
4.41792e-05 2.43577e-05 1.5818e-07
-3.49877e-06 1.5818e-07 -2.86502e-05
0.001705 5.70371e-06 3.60925e-07
5.70371e-06 7.55067e-05 1.86986e-07
3.60925e-07 1.86986e-07 -3.04903e-05
0.00189872 -5.0114e-06 -4.59099e-07
-5.0114e-06 5.17039e-05 6.88775e-08
-4.59099e-07 6.88775e-08 -2.94667e-06
0.00195504 5.03262e-05 1.35893e-06
5.03262e-05 4.69888e-05 7.19e-09
1.35893e-06 7.19e-09 2.06934e-05
0.00200985 0.000186116 -3.67965e-08
0.000186116 4.54529e-05 -7.23182e-08
-3.67965e-08 -7.23182e-08 1.76411e-06
0.00200322 0.000115735 7.51692e-07
0.000115735 1.24902e-05 2.60537e-07
7.51692e-07 2.60537e-07 9.04688e-06
0.00193757 0.000320042 -6.54009e-07
0.000320042 8.06579e-05 -4.43844e-08
-6.54009e-07 -4.43844e-08 -4.01331e-05
0.00208663 0.000273563 3.19249e-06
0.000273563 4.97909e-05 5.87942e-07
3.19249e-06 5.87942e-07 5.24808e-06
0.00191698 -1.01155e-05 5.94368e-06
-1.01155e-05 2.89106e-05 2.20579e-07
5.94368e-06 2.20579e-07 1.23053e-06
0.00198003 5.46077e-05 2.77624e-06
5.46077e-05 -3.74565e-06 -7.43172e-08
2.77624e-06 -7.43172e-08 -2.39267e-07
0.002063 0.000183918 1.73117e-06
0.000183918 1.08817e-05 5.4077e-07
1.73117e-06 5.4077e-07 3.8279e-06
0.00208852 0.000358061 -2.53441e-07
0.000358061 6.54947e-05 6.74049e-07
-2.53441e-07 6.74049e-07 -5.69344e-06
0.00190785 -5.91761e-05 -3.19334e-06
-5.91761e-05 6.13101e-05 2.44394e-07
-3.19334e-06 2.44394e-07 1.55682e-06
0.00187629 -0.000182285 1.30834e-06
-0.000182285 5.13144e-05 -1.17109e-06
1.30834e-06 -1.17109e-06 -4.2679e-05
0.00195528 -0.000114155 -4.64501e-06
-0.000114155 4.36321e-05 2.30877e-07
-4.64501e-06 2.30877e-07 1.11501e-05
0.00195595 -0.000266874 -5.04721e-06
-0.000266874 4.99935e-05 1.32808e-06
-5.04721e-06 1.32808e-06 -2.31469e-05
0.000923517 -0.000283905 -4.78035e-06
-0.000283905 8.77079e-05 4.52064e-06
-4.78035e-06 4.52064e-06 -0.000160334
0.00134351 -0.000485036 1.13572e-08
-0.000485036 0.000251778 -3.72287e-07
1.13572e-08 -3.72287e-07 -9.10048e-05
0.00181644 -0.000622585 -1.63023e-06
-0.000622585 0.000302761 -1.33108e-06
-1.63023e-06 -1.33108e-06 -5.72908e-05
0.00188812 -0.000384043 -2.16701e-06
-0.000384043 0.000113159 3.68557e-07
-2.16701e-06 3.68557e-07 -3.46734e-05
0.00193114 -0.00034427 -1.15366e-06
-0.00034427 5.1195e-05 9.90407e-07
-1.15366e-06 9.90407e-07 -2.80318e-05
0.00184171 -0.000454085 1.38642e-06
-0.000454085 7.96197e-05 1.55411e-06
1.38642e-06 1.55411e-06 -7.89332e-05
0.0019033 -0.000543068 -1.66447e-06
-0.000543068 0.000239426 -2.57067e-06
-1.66447e-06 -2.57067e-06 -2.3587e-05
0.00198689 -0.000477803 7.43638e-06
-0.000477803 0.0002049 -6.57469e-06
7.43638e-06 -6.57469e-06 2.54659e-05
0.000984271 -0.00032023 5.18612e-07
-0.00032023 0.000147853 2.51609e-06
5.18612e-07 2.51609e-06 -0.000122123
0.000978573 -0.000308901 5.31946e-06
-0.000308901 0.000157171 1.15462e-06
5.31946e-06 1.15462e-06 -0.000127998
0.000635708 -0.000178507 3.85613e-06
-0.000178507 0.000118902 -4.23916e-06
3.85613e-06 -4.23916e-06 -0.000166556
0.000142376 -2.86455e-05 3.72009e-07
-2.86455e-05 -0.000202564 4.57897e-06
3.72009e-07 4.57897e-06 -0.000320826
9.57197e-05 -1.47488e-05 3.68697e-06
-1.47488e-05 -0.0001824 1.03115e-07
3.68697e-06 1.03115e-07 -0.000398026
0.00189312 -6.92945e-05 -1.35574e-07
-6.92945e-05 -3.39367e-06 -1.48448e-07
-1.35574e-07 -1.48448e-07 -2.4701e-05
0.00198114 -0.000170369 1.08696e-06
-0.000170369 3.87437e-05 -1.1861e-07
1.08696e-06 -1.1861e-07 3.87362e-06
0.00202687 -0.000312559 -7.2424e-07
-0.000312559 3.8386e-05 3.99911e-08
-7.2424e-07 3.99911e-08 -7.37431e-06
0.00130044 -0.00040756 -1.80162e-06
-0.00040756 0.000311514 -7.69971e-07
-1.80162e-06 -7.69971e-07 -1.1751e-06
0.00136509 -0.000569106 2.9119e-06
-0.000569106 0.000226831 -9.48999e-07
2.9119e-06 -9.48999e-07 -0.000153763
0.00191908 -0.000676142 2.56139e-08
-0.000676142 0.000336752 -1.13603e-07
2.56139e-08 -1.13603e-07 -3.57517e-05
0.00193177 -0.000390898 1.85849e-07
-0.000390898 7.45982e-05 2.53445e-07
1.85849e-07 2.53445e-07 -2.66671e-05
0.00202953 -0.000552628 1.14423e-06
-0.000552628 0.000269892 -3.48524e-06
1.14423e-06 -3.48524e-06 2.00072e-05
0.00204793 -0.000526421 -1.02939e-06
-0.000526421 0.000164328 -4.94322e-07
-1.02939e-06 -4.94322e-07 -5.60048e-06
0.000154654 4.53857e-05 -1.59442e-06
4.53857e-05 -0.000197224 -7.75143e-07
-1.59442e-06 -7.75143e-07 -0.000283357
0.00125072 -0.000384548 -3.49227e-07
-0.000384548 0.000286576 -4.62237e-07
-3.49227e-07 -4.62237e-07 -1.94864e-05
0.00137213 -0.000389965 2.28053e-07
-0.000389965 0.000403699 2.42692e-06
2.28053e-07 2.42692e-06 8.38225e-05
0.00129158 -0.000281372 -4.5076e-07
-0.000281372 0.000484955 3.9512e-07
-4.5076e-07 3.9512e-07 0.000169669
0.00127144 -0.000166355 1.15885e-06
-0.000166355 0.000548462 -2.90976e-06
1.15885e-06 -2.90976e-06 0.000294678
0.000463052 -3.89524e-05 -7.72572e-07
-3.89524e-05 4.86223e-05 1.44037e-06
-7.72572e-07 1.44037e-06 -0.000140449
0.00197369 -8.66773e-05 3.43345e-06
-8.66773e-05 5.03592e-06 3.57306e-08
3.43345e-06 3.57306e-08 4.87573e-06
0.00209168 -0.000218118 1.1913e-06
-0.000218118 3.53488e-07 -1.31257e-07
1.1913e-06 -1.31257e-07 6.61484e-06
0.00210052 -0.000379674 1.36411e-06
-0.000379674 4.2628e-05 -4.62341e-07
1.36411e-06 -4.62341e-07 1.82278e-05
0.0021549 -0.000471156 2.26523e-06
-0.000471156 0.000114824 -1.98595e-06
2.26523e-06 -1.98595e-06 2.72409e-05
0.00161207 -0.000516775 -5.8669e-06
-0.000516775 0.000468422 -4.70439e-08
-5.8669e-06 -4.70439e-08 0.000108608
0.00203222 -0.000597986 3.1313e-06
-0.000597986 0.000195214 -2.44225e-06
3.1313e-06 -2.44225e-06 -2.61581e-05
0.00171224 -0.000675109 -1.3205e-05
-0.000675109 0.000397659 2.49844e-06
-1.3205e-05 2.49844e-06 -2.76004e-05
0.00227394 -0.000740648 -1.003e-05
-0.000740648 0.000556343 3.62247e-07
-1.003e-05 3.62247e-07 0.000161951
9.50159e-05 5.69456e-05 -4.37901e-06
5.69456e-05 -0.000238659 -1.95952e-06
-4.37901e-06 -1.95952e-06 -0.000304292
0.000692424 2.59453e-06 -2.0936e-06
2.59453e-06 0.000179688 -1.2683e-07
-2.0936e-06 -1.2683e-07 3.78715e-05
0.00136916 -0.000191247 -5.02167e-06
-0.000191247 0.000629704 1.99424e-06
-5.02167e-06 1.99424e-06 0.000399886
0.000889433 -7.45325e-05 -1.91406e-06
-7.45325e-05 0.000269829 -1.3064e-06
-1.91406e-06 -1.3064e-06 -3.42481e-06
0.0017741 -0.000495455 -3.38312e-06
-0.000495455 0.000582626 2.0972e-06
-3.38312e-06 2.0972e-06 0.000223625
0.00159079 -0.00040375 -1.08283e-05
-0.00040375 0.000591896 1.54655e-05
-1.08283e-05 1.54655e-05 0.000204279
0.000482948 1.56664e-05 -1.92788e-06
1.56664e-05 -1.30476e-05 -3.94051e-06
-1.92788e-06 -3.94051e-06 -9.00861e-05
0.000199571 1.08461e-05 1.36402e-06
1.08461e-05 -0.000165722 -2.05302e-06
1.36402e-06 -2.05302e-06 -0.000291313
0.00190431 0.000403011 -2.32523e-06
0.000403011 0.000114561 -7.86651e-07
-2.32523e-06 -7.86651e-07 -5.14622e-05
0.000226389 5.59586e-05 5.32438e-07
5.59586e-05 -0.000119159 -1.45628e-07
5.32438e-07 -1.45628e-07 -0.000348333
0.00142394 0.000350241 -1.55148e-06
0.000350241 0.000426519 -8.51747e-07
-1.55148e-06 -8.51747e-07 0.000175353
-5.87104e-06 0.000134071 3.15822e-06
0.000134071 -0.00044136 3.57817e-06
3.15822e-06 3.57817e-06 -0.00061196
0.00197721 0.000530773 1.29993e-06
0.000530773 0.00026877 7.24304e-07
1.29993e-06 7.24304e-07 1.71925e-05
0.00196277 0.000507671 -5.35975e-06
0.000507671 0.000168323 3.19243e-07
-5.35975e-06 3.19243e-07 -4.10562e-05
0.0015825 0.000516614 -2.0042e-06
0.000516614 0.000460793 2.72847e-06
-2.0042e-06 2.72847e-06 0.000102991
0.00200872 0.000595766 -4.56332e-06
0.000595766 0.000490394 -1.07589e-08
-4.56332e-06 -1.07589e-08 0.000166176
0.000688962 4.67457e-05 -8.52519e-07
4.67457e-05 0.000141001 1.16866e-07
-8.52519e-07 1.16866e-07 2.38204e-05
0.000365303 5.62106e-05 1.01002e-06
5.62106e-05 2.38869e-06 5.37937e-07
1.01002e-06 5.37937e-07 -0.000206087
0.00137583 0.00038372 -1.53418e-06
0.00038372 0.000370046 -1.25718e-06
-1.53418e-06 -1.25718e-06 8.69439e-05
0.000265784 0.000101931 -6.99174e-07
0.000101931 -0.000163456 -1.73314e-06
-6.99174e-07 -1.73314e-06 -0.000362178
0.00124591 0.000304817 1.71966e-06
0.000304817 0.000255594 -3.26029e-06
1.71966e-06 -3.26029e-06 4.5108e-05
0.00208257 0.000448834 -2.88722e-06
0.000448834 0.000135257 -1.20143e-06
-2.88722e-06 -1.20143e-06 -9.94794e-06
0.00220105 0.000590966 2.53768e-06
0.000590966 0.000383121 -3.55064e-07
2.53768e-06 -3.55064e-07 0.000114638
0.0020285 0.000555716 3.08695e-06
0.000555716 0.000180669 2.83107e-06
3.08695e-06 2.83107e-06 -4.85559e-05
0.00125933 0.000495954 3.67006e-06
0.000495954 0.000245551 1.72006e-06
3.67006e-06 1.72006e-06 -0.000113954
0.00178651 0.00063577 -4.46692e-06
0.00063577 0.000348334 5.0242e-10
-4.46692e-06 5.0242e-10 3.10954e-06
-0.000340018 9.94827e-06 -1.39833e-06
9.94827e-06 -0.000485195 4.28651e-06
-1.39833e-06 4.28651e-06 -0.000600594
-0.000104064 0.000146331 2.28532e-06
0.000146331 -0.000231757 3.03402e-06
2.28532e-06 3.03402e-06 -0.000496463
0.00118146 0.000382637 1.44378e-06
0.000382637 0.000244737 -1.14008e-06
1.44378e-06 -1.14008e-06 -5.55643e-05
-0.000282683 0.00013998 1.47329e-06
0.00013998 -0.000628468 1.02277e-07
1.47329e-06 1.02277e-07 -0.000820053
0.00214848 0.000450988 2.7396e-06
0.000450988 -8.65688e-05 1.54748e-06
2.7396e-06 1.54748e-06 -9.68892e-05
0.00275555 0.000569641 4.6642e-06
0.000569641 0.000545628 4.16193e-07
4.6642e-06 4.16193e-07 0.000355459
0.00203863 0.000659124 -3.39929e-06
0.000659124 0.000316645 -3.96647e-06
-3.39929e-06 -3.96647e-06 -4.67969e-06
0.00153152 0.000596366 1.03907e-06
0.000596366 0.000302972 -5.94436e-08
1.03907e-06 -5.94436e-08 -7.99743e-05
0.000651056 9.58834e-05 -8.34968e-07
9.58834e-05 0.000119595 -1.56023e-06
-8.34968e-07 -1.56023e-06 6.84226e-06
0.00058905 7.99512e-05 -4.95002e-07
7.99512e-05 7.85848e-05 -1.78981e-07
-4.95002e-07 -1.78981e-07 -3.6631e-05
0.00103548 7.85316e-05 -5.55081e-06
7.85316e-05 0.000354981 -2.27978e-06
-5.55081e-06 -2.27978e-06 0.000253381
0.000585277 3.72079e-05 -1.33675e-06
3.72079e-05 6.41881e-05 -2.54062e-06
-1.33675e-06 -2.54062e-06 -2.8527e-05
0.000218423 3.1427e-05 -2.21787e-07
3.1427e-05 -0.000152432 -6.57087e-07
-2.21787e-07 -6.57087e-07 -0.000257605
0.000616299 4.64156e-05 -4.38725e-07
4.64156e-05 9.85069e-05 1.16281e-07
-4.38725e-07 1.16281e-07 -2.1782e-06
0.000567647 0.000114468 -9.80744e-07
0.000114468 9.48287e-05 5.82949e-07
-9.80744e-07 5.82949e-07 -2.42717e-05
0.000515011 4.41254e-05 1.03246e-06
4.41254e-05 5.33781e-05 9.91678e-08
1.03246e-06 9.91678e-08 -7.584e-05
0.000604772 8.65087e-05 3.03865e-06
8.65087e-05 8.69513e-05 -8.72588e-07
3.03865e-06 -8.72588e-07 1.05062e-07
0.000758898 4.479e-06 3.28723e-06
4.479e-06 0.000201303 -3.68916e-06
3.28723e-06 -3.68916e-06 7.68789e-05
0.000335639 6.45192e-05 3.97763e-07
6.45192e-05 -5.78681e-05 1.82976e-06
3.97763e-07 1.82976e-06 -0.000186213
0.000669541 0.000102633 2.30503e-06
0.000102633 0.00013335 3.25708e-06
2.30503e-06 3.25708e-06 2.84051e-05
0.00048504 7.02402e-05 3.15564e-06
7.02402e-05 8.08459e-06 3.29334e-06
3.15564e-06 3.29334e-06 -6.37919e-05
0.000489205 1.05711e-05 -1.51376e-06
1.05711e-05 3.27146e-06 -2.33297e-07
-1.51376e-06 -2.33297e-07 -6.14712e-05
0.00120593 2.77993e-06 1.46037e-06
2.77993e-06 0.000415897 2.72326e-06
1.46037e-06 2.72326e-06 0.000401273
0.000488545 -4.50661e-05 -5.71566e-08
-4.50661e-05 -2.19413e-06 -2.93791e-06
-5.71566e-08 -2.93791e-06 -6.42448e-05
0.00128878 -9.22374e-06 -5.66419e-06
-9.22374e-06 0.000462144 -1.63332e-06
-5.66419e-06 -1.63332e-06 0.000447817
0.00077338 -1.94011e-05 2.28598e-05
-1.94011e-05 0.000141027 8.8674e-06
2.28598e-05 8.8674e-06 0.000147331
0.00133267 -2.10771e-05 -9.80839e-06
-2.10771e-05 0.000487192 -6.30007e-06
-9.80839e-06 -6.30007e-06 0.000472171
0.000759263 -3.16875e-05 8.49479e-06
-3.16875e-05 0.000130418 3.32831e-06
8.49479e-06 3.32831e-06 0.000134792
0.000719688 -4.18505e-05 -1.06996e-07
-4.18505e-05 0.000109806 -2.81647e-06
-1.06996e-07 -2.81647e-06 0.000111276
0.000423549 4.07609e-05 -7.14095e-07
4.07609e-05 -6.28009e-05 -3.46248e-06
-7.14095e-07 -3.46248e-06 -8.27559e-05
0.000432495 7.06075e-05 -2.68773e-07
7.06075e-05 -3.18205e-05 2.44846e-07
-2.68773e-07 2.44846e-07 -6.80071e-05
0.00240474 0.000107096 1.29138e-05
0.000107096 0.00118809 -4.32856e-06
1.29138e-05 -4.32856e-06 0.00118896
0.00053102 2.44134e-05 -4.54424e-06
2.44134e-05 3.12362e-05 8.45438e-06
-4.54424e-06 8.45438e-06 -1.43693e-05
0.00290785 0.000142984 -4.89895e-06
0.000142984 0.00151058 -5.86692e-07
-4.89895e-06 -5.86692e-07 0.00150156
0.00366898 8.45024e-05 -0.00011958
8.45024e-05 0.00197931 9.41096e-06
-0.00011958 9.41096e-06 0.00198356
0.0019229 0.000317298 -9.85854e-07
0.000317298 8.17589e-05 1.29078e-06
-9.85854e-07 1.29078e-06 -3.91668e-05
0.00203031 0.000185626 -5.27471e-06
0.000185626 6.02526e-05 -6.29645e-07
-5.27471e-06 -6.29645e-07 1.5424e-05
0.00203579 0.000275785 -4.42641e-07
0.000275785 1.42717e-05 -3.00105e-07
-4.42641e-07 -3.00105e-07 -2.46957e-05
0.00196105 0.000116467 -2.93178e-06
0.000116467 -1.83408e-05 -5.46049e-07
-2.93178e-06 -5.46049e-07 -1.80004e-05
0.00197352 5.10223e-05 -5.40095e-06
5.10223e-05 6.26707e-05 -3.1044e-07
-5.40095e-06 -3.1044e-07 3.31897e-05
0.00188101 -7.25522e-06 -4.0098e-06
-7.25522e-06 4.37749e-05 2.18087e-07
-4.0098e-06 2.18087e-07 -1.22184e-05
0.00191983 -8.0107e-06 -2.77584e-07
-8.0107e-06 3.07707e-05 -4.2655e-08
-2.77584e-07 -4.2655e-08 4.1223e-06
0.00199005 5.71342e-05 1.11073e-06
5.71342e-05 7.82932e-06 1.61457e-07
1.11073e-06 1.61457e-07 9.59966e-06
0.00206103 0.000189018 9.57912e-07
0.000189018 1.19278e-05 2.0762e-07
9.57912e-07 2.0762e-07 4.94279e-06
0.00210731 0.000352289 7.04614e-07
0.000352289 6.82567e-05 3.06025e-07
7.04614e-07 3.06025e-07 -2.80843e-06
0.00197354 -1.39101e-05 1.87933e-06
-1.39101e-05 7.02471e-06 -5.91402e-09
1.87933e-06 -5.91402e-09 5.32409e-06
0.00211113 0.000107465 4.11947e-07
0.000107465 -2.61459e-05 -2.38309e-07
4.11947e-07 -2.38309e-07 1.05885e-05
0.00226768 0.000289468 2.12497e-06
0.000289468 4.20852e-05 8.28212e-07
2.12497e-06 8.28212e-07 3.84502e-05
0.00190205 -7.7242e-05 -5.38587e-06
-7.7242e-05 -1.95394e-06 1.71985e-07
-5.38587e-06 1.71985e-07 -2.45693e-05
0.00198535 -0.000170317 -3.2789e-06
-0.000170317 4.04056e-05 1.97431e-07
-3.2789e-06 1.97431e-07 4.85441e-06
0.00201755 -0.000306822 -3.06647e-06
-0.000306822 4.80998e-05 6.47369e-07
-3.06647e-06 6.47369e-07 -1.78845e-06
0.00111683 -0.00038918 -3.94967e-06
-0.00038918 0.000192523 1.83159e-06
-3.94967e-06 1.83159e-06 -0.000115489
0.00144542 -0.000561357 8.88387e-06
-0.000561357 0.000279637 -3.0576e-06
8.88387e-06 -3.0576e-06 -9.51655e-05
0.00177306 -0.000663814 -2.08584e-06
-0.000663814 0.000263288 7.77543e-07
-2.08584e-06 7.77543e-07 -0.000109769
0.00190909 -0.000388048 -1.58776e-06
-0.000388048 5.95715e-05 1.09189e-06
-1.58776e-06 1.09189e-06 -4.2926e-05
0.00195474 -0.000507898 1.69297e-06
-0.000507898 0.000141602 1.78376e-06
1.69297e-06 1.78376e-06 -2.48502e-05
0.00212044 -0.000571882 5.53773e-06
-0.000571882 0.000315538 -6.80341e-06
5.53773e-06 -6.80341e-06 6.76164e-05
0.00115962 -0.000372177 1.7201e-06
-0.000372177 0.000233342 2.18696e-06
1.7201e-06 2.18696e-06 -6.90765e-05
0.000833437 -0.000333029 -8.23387e-06
-0.000333029 7.94639e-05 -3.54825e-07
-8.23387e-06 -3.54825e-07 -0.000221946
0.00215833 -0.000398824 1.55117e-06
-0.000398824 0.001048 -1.73235e-06
1.55117e-06 -1.73235e-06 0.000698723
0.000343029 4.61117e-05 2.72638e-06
4.61117e-05 -8.41903e-05 1.20619e-06
2.72638e-06 1.20619e-06 -0.000167379
0.00113549 -0.000172012 3.61131e-06
-0.000172012 0.000446043 2.49793e-06
3.61131e-06 2.49793e-06 0.000211639
7.23499e-05 3.35229e-05 5.57175e-06
3.35229e-05 -0.000202277 8.36359e-07
5.57175e-06 8.36359e-07 -0.000381624
0.00199398 -8.58627e-05 -4.94457e-07
-8.58627e-05 1.7354e-05 1.25994e-07
-4.94457e-07 1.25994e-07 1.52049e-05
0.00206659 -0.000224628 9.659e-08
-0.000224628 -1.7919e-05 -5.41325e-08
9.659e-08 -5.41325e-08 -1.02145e-05
0.00207963 -0.000373726 -6.30212e-07
-0.000373726 3.68324e-05 2.82709e-07
-6.30212e-07 2.82709e-07 8.99026e-06
0.0014801 -0.000497271 -1.35385e-06
-0.000497271 0.000395666 1.02705e-07
-1.35385e-06 1.02705e-07 4.15269e-05
0.00139134 -0.000633935 2.42559e-06
-0.000633935 0.000213519 -1.31677e-06
2.42559e-06 -1.31677e-06 -0.000201185
0.00230277 -0.000735064 -5.01011e-06
-0.000735064 0.000565427 3.69261e-07
-5.01011e-06 3.69261e-07 0.000183033
0.00209302 -0.000476408 5.33526e-07
-0.000476408 7.99939e-05 -5.10486e-07
5.33526e-07 -5.10486e-07 -1.32648e-05
0.00194395 -0.000583742 1.49342e-06
-0.000583742 0.000149169 -2.55798e-06
1.49342e-06 -2.55798e-06 -6.70564e-05
0.00034051 5.95421e-05 -1.20808e-06
5.95421e-05 -9.02996e-05 -1.10916e-06
-1.20808e-06 -1.10916e-06 -0.000151585
0.000654121 -1.63564e-05 -8.55853e-07
-1.63564e-05 0.00015068 3.74015e-07
-8.55853e-07 3.74015e-07 1.29877e-05
0.000811222 -0.000392107 -4.72662e-06
-0.000392107 1.44701e-07 2.20552e-06
-4.72662e-06 2.20552e-06 -0.000330298
0.00163961 -0.00037984 3.02374e-06
-0.00037984 0.000652538 -4.14759e-07
3.02374e-06 -4.14759e-07 0.000264693
0.00134208 -0.000146296 -1.60798e-07
-0.000146296 0.00055509 -2.08923e-06
-1.60798e-07 -2.08923e-06 0.000276505
0.000842031 -0.000138114 -5.29574e-07
-0.000138114 0.0002979 8.87881e-07
-5.29574e-07 8.87881e-07 7.49737e-05
0.00206348 -0.000117007 -8.59186e-07
-0.000117007 -2.90799e-05 1.93788e-07
-8.59186e-07 1.93788e-07 4.52217e-06
0.00218607 -0.000321439 -1.62149e-06
-0.000321439 -4.54886e-05 7.69453e-07
-1.62149e-06 7.69453e-07 4.0501e-06
0.00217095 -0.000439962 1.82559e-06
-0.000439962 5.12796e-05 3.09732e-08
1.82559e-06 3.09732e-08 3.35152e-05
0.00240304 -0.000640102 7.7904e-06
-0.000640102 0.000255399 -2.11274e-06
7.7904e-06 -2.11274e-06 0.000106571
0.000559393 -0.000449632 3.41463e-07
-0.000449632 -0.000159287 -5.25299e-06
3.41463e-07 -5.25299e-06 -0.000528377
0.00235786 -0.000778053 3.89831e-07
-0.000778053 0.000520901 9.69362e-06
3.89831e-07 9.69362e-06 0.000161227
0.00232032 -0.000796284 -1.4896e-05
-0.000796284 0.000703368 -3.56044e-06
-1.4896e-05 -3.56044e-06 0.000232717
0.000577474 4.8443e-05 4.69765e-07
4.8443e-05 3.90503e-05 -6.03512e-07
4.69765e-07 -6.03512e-07 -7.40374e-06
0.000670176 -0.000133905 4.46416e-06
-0.000133905 0.000146976 -2.07441e-06
4.46416e-06 -2.07441e-06 4.88687e-05
0.000272321 7.20852e-05 -5.96743e-06
7.20852e-05 -9.6754e-05 7.25772e-07
-5.96743e-06 7.25772e-07 -0.000196328
0.000788653 -5.12153e-05 -3.96547e-06
-5.12153e-05 0.000260232 4.64705e-06
-3.96547e-06 4.64705e-06 7.50507e-05
0.000316665 -8.65638e-05 2.08686e-06
-8.65638e-05 -7.12478e-05 -3.68466e-06
2.08686e-06 -3.68466e-06 -0.000290605
-0.000800381 -2.13271e-05 2.37792e-06
-2.13271e-05 -0.000726798 -3.60149e-07
2.37792e-06 -3.60149e-07 -0.0010674
0.00147082 -0.00048798 -1.92058e-05
-0.00048798 0.000398854 1.26572e-05
-1.92058e-05 1.26572e-05 5.29623e-05
0.00295136 -0.000523604 -2.16814e-05
-0.000523604 0.00157163 1.27655e-05
-2.16814e-05 1.27655e-05 0.001
0.000598171 1.60374e-05 -5.2882e-07
1.60374e-05 7.81189e-05 -1.67091e-06
-5.2882e-07 -1.67091e-06 -3.0517e-05
0.000757615 0.000136243 -1.72129e-07
0.000136243 0.00024596 -1.06773e-06
-1.72129e-07 -1.06773e-06 2.64229e-05
0.0022398 0.000460725 -2.54307e-06
0.000460725 0.000221404 -1.32013e-06
-2.54307e-06 -1.32013e-06 7.81307e-05
0.000555073 0.000154733 -3.2645e-06
0.000154733 3.09073e-05 2.62874e-06
-3.2645e-06 2.62874e-06 -0.000183662
0.00138184 0.000383676 -1.77821e-06
0.000383676 0.000374201 4.26578e-07
-1.77821e-06 4.26578e-07 9.0332e-05
0.000814384 0.000262192 -4.13134e-06
0.000262192 -2.00334e-05 -6.50494e-06
-4.13134e-06 -6.50494e-06 -0.000220433
0.00229053 0.000586288 -4.53709e-06
0.000586288 0.000444104 -4.88986e-07
-4.53709e-06 -4.88986e-07 0.0001822
0.00220572 0.000577175 -8.26649e-06
0.000577175 0.00027567 4.85695e-06
-8.26649e-06 4.85695e-06 4.19696e-05
0.00164146 0.000545248 -1.72175e-06
0.000545248 0.000476755 1.04321e-06
-1.72175e-06 1.04321e-06 0.000106986
0.00158513 0.000634449 -1.019e-06
0.000634449 0.000226347 -1.7018e-07
-1.019e-06 -1.7018e-07 -0.000126173
5.35444e-05 4.25285e-05 4.78616e-08
4.25285e-05 -0.000236577 1.46003e-06
4.78616e-08 1.46003e-06 -0.000364756
0.000252355 0.000179698 -8.36293e-07
0.000179698 -1.85904e-05 -3.35322e-06
-8.36293e-07 -3.35322e-06 -0.000281531
0.00150415 0.000427396 1.45159e-06
0.000427396 0.000428866 -4.21117e-07
1.45159e-06 -4.21117e-07 0.000118777
0.000862976 0.000247034 -1.85007e-06
0.000247034 7.82126e-05 1.1174e-06
-1.85007e-06 1.1174e-06 -0.000130728
0.00222672 0.000438479 7.94269e-07
0.000438479 -5.04718e-05 -1.03135e-06
7.94269e-07 -1.03135e-06 -5.81615e-05
0.00250807 0.000562602 3.21796e-06
0.000562602 0.00040416 4.88528e-07
3.21796e-06 4.88528e-07 0.0002096
0.00199746 0.000643678 -2.93501e-07
0.000643678 0.00029614 5.29679e-07
-2.93501e-07 5.29679e-07 -1.86112e-05
0.00165174 0.00060817 7.80457e-07
0.00060817 0.000356297 3.90973e-07
7.80457e-07 3.90973e-07 -2.3854e-05
-5.9613e-05 4.75672e-05 -9.93153e-07
4.75672e-05 -0.000311454 4.59796e-06
-9.93153e-07 4.59796e-06 -0.0004479
0.00216622 0.00034533 6.8646e-06
0.00034533 -0.000144993 3.50264e-06
6.8646e-06 3.50264e-06 -8.69531e-05
0.00214218 0.000415948 6.9172e-06
0.000415948 0.00108248 8.6071e-06
6.9172e-06 8.6071e-06 0.000782198
0.00129405 0.000425774 1.31618e-06
0.000425774 0.000256357 -9.96194e-07
1.31618e-06 -9.96194e-07 -3.74996e-05
0.00258657 0.000548489 -1.6715e-05
0.000548489 0.000301071 -7.04397e-06
-1.6715e-05 -7.04397e-06 0.000203531
0.00109972 0.000596876 -8.42421e-06
0.000596876 -0.000314974 -8.49269e-06
-8.42421e-06 -8.49269e-06 -0.000612306
0.00226127 0.000701935 -2.06215e-06
0.000701935 0.000651552 2.84853e-06
-2.06215e-06 2.84853e-06 0.000246105
0.000786549 9.76534e-05 -1.3297e-06
9.76534e-05 0.000199574 -1.34971e-06
-1.3297e-06 -1.34971e-06 8.37236e-05
0.000649907 9.19305e-05 -2.8308e-06
9.19305e-05 0.00012839 -9.17316e-07
-2.8308e-06 -9.17316e-07 2.11514e-05
0.00152463 9.76056e-05 -3.0921e-06
9.76056e-05 0.000672969 -2.20609e-06
-3.0921e-06 -2.20609e-06 0.000587535
0.00053374 4.79213e-06 2.19219e-07
4.79213e-06 5.02711e-05 -3.24576e-06
2.19219e-07 -3.24576e-06 -5.18741e-05
0.00069566 7.70981e-05 1.65021e-06
7.70981e-05 0.00016892 -4.28628e-07
1.65021e-06 -4.28628e-07 3.57499e-05
4.77785e-05 5.88808e-05 -1.46936e-06
5.88808e-05 -0.000209418 3.61446e-06
-1.46936e-06 3.61446e-06 -0.000320257
0.000572723 1.81238e-05 -1.16981e-06
1.81238e-05 8.06587e-05 1.46397e-08
-1.16981e-06 1.46397e-08 -2.814e-05
0.000338317 -1.58416e-05 -9.16421e-07
-1.58416e-05 -4.36371e-05 4.14648e-08
-9.16421e-07 4.14648e-08 -0.000177502
0.000173199 3.74711e-05 8.28932e-07
3.74711e-05 -0.000163471 5.74666e-07
8.28932e-07 5.74666e-07 -0.000241404
0.000775922 7.76157e-05 8.73289e-07
7.76157e-05 0.00022604 -9.53672e-07
8.73289e-07 -9.53672e-07 8.91075e-05
0.00155408 0.000107884 -4.34391e-08
0.000107884 0.000654808 -2.28558e-06
-4.34391e-08 -2.28558e-06 0.000600938
0.000522914 1.21227e-05 8.5207e-06
1.21227e-05 4.62168e-05 -3.96935e-06
8.5207e-06 -3.96935e-06 -4.24731e-05
0.00034512 8.88214e-05 3.76488e-07
8.88214e-05 -3.1379e-05 1.99894e-06
3.76488e-07 1.99894e-06 -0.000177721
0.000605585 4.40813e-05 2.26488e-06
4.40813e-05 0.000120356 3.01372e-06
2.26488e-06 3.01372e-06 -2.94804e-05
0.000595908 3.51042e-05 2.52143e-06
3.51042e-05 8.80888e-05 3.04617e-06
2.52143e-06 3.04617e-06 -2.19598e-05
0.000486137 -5.01872e-05 -2.25297e-07
-5.01872e-05 7.79775e-06 3.07896e-06
-2.25297e-07 3.07896e-06 -6.56752e-05
0.000509194 6.00226e-06 -3.79805e-08
6.00226e-06 1.68582e-05 -2.70304e-07
-3.79805e-08 -2.70304e-07 -5.03329e-05
0.00127935 1.97214e-05 2.50537e-06
1.97214e-05 0.000468881 2.80818e-06
2.50537e-06 2.80818e-06 0.000451986
0.000512412 -6.40734e-06 1.64885e-07
-6.40734e-06 1.08279e-05 -3.12607e-06
1.64885e-07 -3.12607e-06 -4.9248e-05
0.00129298 6.21495e-06 -4.83182e-06
6.21495e-06 0.000470049 -1.64619e-06
-4.83182e-06 -1.64619e-06 0.000455249
0.000749212 -1.12093e-05 1.79663e-05
-1.12093e-05 0.000129609 8.68263e-06
1.79663e-05 8.68263e-06 0.000136074
0.00134496 -9.78834e-06 -7.59313e-06
-9.78834e-06 0.000496971 -6.30205e-06
-7.59313e-06 -6.30205e-06 0.000482753
0.000779894 -2.24065e-05 6.29661e-06
-2.24065e-05 0.00014254 3.39883e-06
6.29661e-06 3.39883e-06 0.000147992
0.000748385 -3.22576e-05 -4.19252e-08
-3.22576e-05 0.000121826 -2.66527e-06
-4.19252e-08 -2.66527e-06 0.000125918
0.000643259 -3.61464e-06 1.77788e-06
-3.61464e-06 7.67747e-05 -1.76082e-06
1.77788e-06 -1.76082e-06 3.24037e-05
0.000460441 2.85522e-05 3.64437e-07
2.85522e-05 -5.13202e-05 -3.41519e-06
3.64437e-07 -3.41519e-06 -6.53042e-05
0.000468921 4.42424e-05 3.96317e-07
4.42424e-05 -3.26554e-05 2.44217e-07
3.96317e-07 2.44217e-07 -5.38579e-05
0.00217243 8.32625e-05 1.4434e-05
8.32625e-05 0.00103307 -4.10805e-06
1.4434e-05 -4.10805e-06 0.00104048
0.000496713 6.80405e-05 5.72379e-06
6.80405e-05 5.94252e-06 6.76873e-06
5.72379e-06 6.76873e-06 -3.00811e-05
0.00255394 0.000114126 -5.50925e-06
0.000114126 0.00128174 -5.57448e-07
-5.50925e-06 -5.57448e-07 0.00128093
0.00307179 0.000119957 -3.78619e-05
0.000119957 0.00160537 5.06926e-06
-3.78619e-05 5.06926e-06 0.00160121
0.0021236 0.000346832 -6.32271e-08
0.000346832 6.91398e-05 -1.46953e-07
-6.32271e-08 -1.46953e-07 -1.67598e-06
0.00205799 0.000193859 -2.32819e-06
0.000193859 1.35702e-05 -5.4949e-07
-2.32819e-06 -5.4949e-07 6.10483e-06
0.0019972 6.08552e-05 -2.79748e-06
6.08552e-05 1.81898e-05 -2.43824e-07
-2.79748e-06 -2.43824e-07 1.82608e-05
0.00192159 -5.79476e-06 -5.36626e-06
-5.79476e-06 3.21808e-05 -2.38718e-07
-5.36626e-06 -2.38718e-07 6.43137e-06
0.00196511 -8.92838e-06 -9.20595e-07
-8.92838e-06 -8.3128e-07 2.98232e-09
-9.20595e-07 2.98232e-09 2.58052e-07
0.00209176 0.000100462 -7.61484e-08
0.000100462 -2.88218e-05 1.37653e-07
-7.61484e-08 1.37653e-07 4.96744e-06
0.00219905 0.000294642 -1.10844e-06
0.000294642 7.03892e-06 -3.41623e-08
-1.10844e-06 -3.41623e-08 4.96243e-06
0.00207007 -1.05045e-05 -6.98517e-07
-1.05045e-05 -4.42335e-05 -3.46084e-07
-6.98517e-07 -3.46084e-07 -1.69783e-07
0.00227399 0.00015345 4.72253e-06
0.00015345 -3.3265e-05 -4.64379e-07
4.72253e-06 -4.64379e-07 1.16919e-05
0.00243748 0.000104108 6.25674e-06
0.000104108 0.000143827 1.25535e-05
6.25674e-06 1.25535e-05 0.00021266
0.0020091 -8.52739e-05 -3.21768e-06
-8.52739e-05 2.65959e-05 1.06902e-07
-3.21768e-06 1.06902e-07 2.23593e-05
0.00204595 -0.000232483 -1.57891e-06
-0.000232483 -3.43392e-05 -1.61829e-09
-1.57891e-06 -1.61829e-09 -2.52558e-05
0.0020599 -0.000367398 -1.22557e-06
-0.000367398 3.1509e-05 -3.61136e-08
-1.22557e-06 -3.61136e-08 1.17883e-06
0.00127049 -0.000475638 2.546e-06
-0.000475638 0.000264843 1.36473e-07
2.546e-06 1.36473e-07 -8.48362e-05
0.00165714 -0.000658067 8.34665e-06
-0.000658067 0.000368576 4.96929e-07
8.34665e-06 4.96929e-07 -5.02667e-05
0.00200708 -0.000689509 1.5587e-06
-0.000689509 0.000403346 -2.45555e-07
1.5587e-06 -2.45555e-07 3.91643e-05
0.00200557 -0.000479356 -2.45207e-07
-0.000479356 3.07037e-05 2.25635e-06
-2.45207e-07 2.25635e-06 -6.76849e-05
0.00194949 -0.000578193 -4.10958e-06
-0.000578193 0.000159623 -1.03289e-06
-4.10958e-06 -1.03289e-06 -5.36096e-05
0.000620266 -0.00036733 -5.1368e-06
-0.00036733 -0.000110652 -4.67525e-06
-5.1368e-06 -4.67525e-06 -0.000435527
0.00204299 -0.00039676 1.58844e-05
-0.00039676 0.000946459 -9.65943e-06
1.58844e-05 -9.65943e-06 0.000541833
0.00115228 -8.66227e-05 -4.19269e-07
-8.66227e-05 0.0004158 2.49423e-06
-4.19269e-07 2.49423e-06 0.00015844
0.000451858 1.662e-05 1.93195e-06
1.662e-05 -2.38006e-05 6.99859e-08
1.93195e-06 6.99859e-08 -8.07503e-05
0.000790232 3.96775e-05 5.70432e-06
3.96775e-05 0.000230558 5.23633e-07
5.70432e-06 5.23633e-07 9.24101e-05
0.000577459 -9.49603e-05 1.24138e-06
-9.49603e-05 0.000127659 3.61035e-06
1.24138e-06 3.61035e-06 -9.29748e-05
0.00207235 -0.000119824 5.72896e-07
-0.000119824 -3.19226e-05 -4.29196e-08
5.72896e-07 -4.29196e-08 3.81448e-06
0.000509895 1.29417e-05 1.47109e-06
1.29417e-05 -1.84469e-06 2.71882e-07
1.47109e-06 2.71882e-07 -4.81578e-05
0.000436456 -6.77793e-05 -1.97187e-06
-6.77793e-05 -2.5113e-05 -3.74433e-07
-1.97187e-06 -3.74433e-07 -0.00010542
0.00217066 -0.000311126 -2.37033e-07
-0.000311126 -3.44068e-05 1.84652e-07
-2.37033e-07 1.84652e-07 8.36279e-06
0.00210998 -0.000430416 -1.51957e-06
-0.000430416 1.80402e-05 1.39519e-07
-1.51957e-06 1.39519e-07 7.28572e-06
0.00170589 -0.000584097 -1.76976e-06
-0.000584097 0.000500902 1.20295e-06
-1.76976e-06 1.20295e-06 0.000102114
0.00184634 -0.000739197 2.99563e-06
-0.000739197 0.000454117 1.26609e-06
2.99563e-06 1.26609e-06 -1.20942e-05
0.00185333 -0.000721865 4.38049e-06
-0.000721865 0.000232355 -3.93062e-06
4.38049e-06 -3.93062e-06 -0.000112936
0.00217675 -0.000619403 2.9057e-06
-0.000619403 0.000134018 -1.01361e-06
2.9057e-06 -1.01361e-06 -8.83371e-06
0.000661503 1.18489e-06 -2.45799e-07
1.18489e-06 0.000153419 -1.34712e-06
-2.45799e-07 -1.34712e-06 4.89658e-05
0.000706732 -3.98922e-05 4.88207e-07
-3.98922e-05 0.000208403 1.85031e-06
4.88207e-07 1.85031e-06 2.33546e-05
0.00162201 -0.000489396 3.73809e-06
-0.000489396 0.000495399 1.04122e-06
3.73809e-06 1.04122e-06 0.000138152
0.00131694 -0.00035144 1.42243e-05
-0.00035144 0.000576138 -4.54631e-06
1.42243e-05 -4.54631e-06 8.67985e-05
0.000609896 -8.01521e-05 -3.21264e-06
-8.01521e-05 8.31602e-05 -1.05603e-06
-3.21264e-06 -1.05603e-06 -0.000219775
0.000525392 -6.1776e-05 9.96047e-07
-6.1776e-05 7.02077e-05 -2.08372e-06
9.96047e-07 -2.08372e-06 -0.000161254
0.00210081 -0.000138976 2.08338e-06
-0.000138976 -0.000130346 -1.11211e-06
2.08338e-06 -1.11211e-06 -8.13498e-05
0.00215583 -0.000397223 -1.83192e-06
-0.000397223 -0.000177659 2.12632e-06
-1.83192e-06 2.12632e-06 -1.01086e-05
0.00229121 -0.000585274 -5.0526e-06
-0.000585274 6.46655e-05 1.13729e-06
-5.0526e-06 1.13729e-06 2.32276e-05
0.00219024 -0.000788472 7.66003e-06
-0.000788472 0.000228944 -3.15609e-06
7.66003e-06 -3.15609e-06 1.91346e-05
0.00113814 -0.000550885 -5.34586e-07
-0.000550885 0.000209669 -1.16494e-05
-5.34586e-07 -1.16494e-05 -0.000199562
0.00255523 -0.000895407 -1.08768e-05
-0.000895407 0.000771396 1.15158e-05
-1.08768e-05 1.15158e-05 0.000269725
0.000200526 4.75426e-05 -1.56566e-06
4.75426e-05 -0.000159813 -3.74564e-06
-1.56566e-06 -3.74564e-06 -0.000248093
0.000592562 -5.42923e-05 5.09864e-06
-5.42923e-05 7.16931e-05 3.90698e-08
5.09864e-06 3.90698e-08 -4.37658e-06
0.0010519 -0.00013828 6.30948e-07
-0.00013828 0.000348022 6.91981e-06
6.30948e-07 6.91981e-06 0.00024315
0.000532875 2.61808e-05 -4.01016e-06
2.61808e-05 8.17591e-05 7.29754e-06
-4.01016e-06 7.29754e-06 -6.77141e-05
0.00079992 -9.32775e-05 -4.81065e-06
-9.32775e-05 0.000241918 7.72958e-06
-4.81065e-06 7.72958e-06 5.12837e-05
0.00138438 -4.4159e-05 6.90621e-06
-4.4159e-05 0.000503695 -4.80631e-06
6.90621e-06 -4.80631e-06 0.000282263
-0.00112237 -0.00019731 5.12091e-06
-0.00019731 -0.000595617 1.01391e-06
5.12091e-06 1.01391e-06 -0.00129037
-0.000185474 -0.00044469 -3.96926e-05
-0.00044469 -0.000619503 1.16568e-05
-3.96926e-05 1.16568e-05 -0.000949413
0.000461987 5.78977e-05 -7.22185e-07
5.78977e-05 2.54881e-05 -1.35912e-06
-7.22185e-07 -1.35912e-06 -0.000121265
0.00100507 0.000217655 -9.57113e-06
0.000217655 0.000424839 -6.56485e-06
-9.57113e-06 -6.56485e-06 0.000167765
0.00228879 0.000425251 -6.96886e-06
0.000425251 -1.65861e-05 -2.58136e-06
-6.96886e-06 -2.58136e-06 -2.33354e-05
0.00235461 0.000560714 -4.98513e-06
0.000560714 0.000319592 1.34834e-08
-4.98513e-06 1.34834e-08 0.000119927
0.00209014 0.000347028 -6.80466e-06
0.000347028 0.000818958 -1.26814e-06
-6.80466e-06 -1.26814e-06 0.000599378
0.00159092 0.000442831 -4.10102e-06
0.000442831 0.000473808 -3.56418e-06
-4.10102e-06 -3.56418e-06 0.00015935
0.00200908 0.000634385 7.66938e-07
0.000634385 0.000303129 1.96044e-06
7.66938e-07 1.96044e-06 -6.78456e-06
0.00180354 0.00062048 -1.85839e-06
0.00062048 0.0004308 -7.02886e-07
-1.85839e-06 -7.02886e-07 5.29881e-05
0.000465042 8.98559e-05 8.32006e-07
8.98559e-05 2.89346e-05 -1.19421e-06
8.32006e-07 -1.19421e-06 -0.000131882
0.00231115 0.000328629 -2.07098e-06
0.000328629 -5.48957e-05 -1.33738e-06
-2.07098e-06 -1.33738e-06 7.14921e-06
0.00142 0.000295945 1.27359e-06
0.000295945 0.000615262 1.73594e-06
1.27359e-06 1.73594e-06 0.000349115
0.00154044 0.000449911 2.25095e-06
0.000449911 0.000423986 1.0938e-06
2.25095e-06 1.0938e-06 0.000120075
0.00254164 0.000545229 1.56753e-06
0.000545229 0.000284609 3.74064e-07
1.56753e-06 3.74064e-07 0.000187974
0.00163771 0.000638742 -1.84828e-06
0.000638742 -3.99771e-06 -4.67604e-06
-1.84828e-06 -4.67604e-06 -0.000304857
0.00200325 0.000668362 4.7386e-07
0.000668362 0.000512591 4.01846e-07
4.7386e-07 4.01846e-07 0.000112653
0.00113287 0.00023002 -3.47047e-06
0.00023002 0.000485376 4.63549e-06
-3.47047e-06 4.63549e-06 0.00026658
0.00316836 0.000444387 -7.35484e-05
0.000444387 0.000486063 -1.9805e-05
-7.35484e-05 -1.9805e-05 0.000577343
0.00166862 0.000449686 -4.1838e-06
0.000449686 0.000673938 3.06726e-06
-4.1838e-06 3.06726e-06 0.000375718
0.00144305 0.00051637 -2.796e-06
0.00051637 0.000285291 -5.66258e-06
-2.796e-06 -5.66258e-06 -7.41651e-05
0.00186849 0.000675343 -3.44374e-05
0.000675343 -3.88433e-06 -1.94806e-05
-3.44374e-05 -1.94806e-05 -0.000206362
0.00109692 0.00059837 -2.60064e-05
0.00059837 -5.67029e-05 -3.00969e-06
-2.60064e-05 -3.00969e-06 -0.000430765
0.000354736 0.000648219 2.7706e-05
0.000648219 -0.00146172 -3.61363e-05
2.7706e-05 -3.61363e-05 -0.00133652
0.000188546 0.000104671 2.0601e-06
0.000104671 -0.000135926 -6.71215e-07
2.0601e-06 -6.71215e-07 -0.000250068
0.000556108 0.000101062 -5.83048e-07
0.000101062 0.000117157 9.52246e-07
-5.83048e-07 9.52246e-07 2.45267e-05
0.0019534 0.000149903 1.86144e-06
0.000149903 0.000925123 -2.90867e-06
1.86144e-06 -2.90867e-06 0.000841434
0.000467043 -6.395e-05 4.72369e-07
-6.395e-05 2.45101e-05 -3.82794e-06
4.72369e-07 -3.82794e-06 -8.80748e-05
0.000469743 -4.27421e-05 -1.02584e-06
-4.27421e-05 3.49197e-05 -6.87175e-07
-1.02584e-06 -6.87175e-07 -9.60103e-05
0.000955984 0.000168435 -2.101e-08
0.000168435 0.000341435 8.64678e-07
-2.101e-08 8.64678e-07 0.000193423
-9.39459e-05 1.44396e-05 -4.57403e-06
1.44396e-05 -0.000309942 1.03156e-05
-4.57403e-06 1.03156e-05 -0.000386732
0.000552102 -1.51303e-05 -4.44905e-07
-1.51303e-05 7.67589e-05 -6.57997e-08
-4.44905e-07 -6.57997e-08 -4.18445e-05
0.0005097 6.17059e-05 1.36461e-07
6.17059e-05 4.28792e-05 -6.55674e-07
1.36461e-07 -6.55674e-07 -9.18561e-05
0.000952871 8.72243e-05 2.31409e-06
8.72243e-05 0.000286003 4.02698e-06
2.31409e-06 4.02698e-06 0.000227689
0.000587781 5.63881e-05 1.48172e-06
5.63881e-05 0.000101995 7.81731e-07
1.48172e-06 7.81731e-07 -3.68511e-05
0.000662926 3.78997e-05 -1.6475e-06
3.78997e-05 0.000125003 -1.86094e-06
-1.6475e-06 -1.86094e-06 2.97516e-05
0.00161148 0.00011306 -7.43494e-07
0.00011306 0.00070618 -9.4401e-06
-7.43494e-07 -9.4401e-06 0.000652391
0.000889815 0.000116157 -2.13578e-06
0.000116157 0.000260973 -2.18309e-06
-2.13578e-06 -2.18309e-06 0.000117451
0.000937388 0.000119484 1.21934e-06
0.000119484 0.000308517 1.36408e-06
1.21934e-06 1.36408e-06 0.000163725
0.00083393 7.78169e-05 3.81157e-07
7.78169e-05 0.000262631 1.80343e-06
3.81157e-07 1.80343e-06 0.000100046
0.000326065 -2.37219e-05 6.86914e-08
-2.37219e-05 -8.04438e-05 3.23036e-06
6.86914e-08 3.23036e-06 -0.000197052
0.0009823 -4.78929e-05 -2.04164e-07
-4.78929e-05 0.000386271 -1.1134e-06
-2.04164e-07 -1.1134e-06 0.000216546
0.00025026 -3.623e-05 -1.91709e-06
-3.623e-05 -0.000123579 2.93487e-06
-1.91709e-06 2.93487e-06 -0.000244737
0.000479099 3.51253e-06 -2.03827e-06
3.51253e-06 8.34324e-06 3.17962e-06
-2.03827e-06 3.17962e-06 -7.01452e-05
0.000497786 3.50361e-05 2.34852e-06
3.50361e-05 1.73207e-05 -1.48401e-07
2.34852e-06 -1.48401e-07 -5.84888e-05
0.000407842 2.1564e-05 6.31603e-07
2.1564e-05 -6.50379e-05 4.29321e-06
6.31603e-07 4.29321e-06 -8.67895e-05
0.000469454 6.95247e-06 -2.98402e-06
6.95247e-06 -1.455e-06 -3.36574e-06
-2.98402e-06 -3.36574e-06 -7.29103e-05
0.000891772 1.58659e-05 -3.13507e-06
1.58659e-05 0.000228945 -1.58832e-06
-3.13507e-06 -1.58832e-06 0.000210276
0.00256537 -7.95714e-06 1.54695e-05
-7.95714e-06 0.00125782 5.3981e-06
1.54695e-05 5.3981e-06 0.00127119
0.00137874 1.2346e-05 -7.60556e-06
1.2346e-05 0.000523832 -6.28007e-06
-7.60556e-06 -6.28007e-06 0.000508559
0.00077158 -1.27344e-05 5.05686e-06
-1.27344e-05 0.000140237 3.34273e-06
5.05686e-06 3.34273e-06 0.000146379
0.000780348 -2.25235e-05 4.66282e-07
-2.25235e-05 0.000139991 -2.5381e-06
4.66282e-07 -2.5381e-06 0.00014539
0.000517237 1.53968e-05 -1.64503e-06
1.53968e-05 5.47144e-06 -2.05911e-06
-1.64503e-06 -2.05911e-06 -3.95062e-05
0.000564131 -1.69265e-05 9.2031e-07
-1.69265e-05 2.98424e-05 -3.08842e-07
9.2031e-07 -3.08842e-07 -1.55875e-05
0.000521204 2.28729e-05 3.80556e-07
2.28729e-05 -1.70785e-05 -3.45078e-06
3.80556e-07 -3.45078e-06 -2.8765e-05
0.000803873 3.71525e-05 -1.64643e-07
3.71525e-05 0.000164164 9.5129e-08
-1.64643e-07 9.5129e-08 0.000151322
0.00211658 6.62158e-05 1.13007e-05
6.62158e-05 0.000990343 -4.27673e-06
1.13007e-05 -4.27673e-06 0.0010016
0.000501183 5.1532e-05 3.53859e-06
5.1532e-05 -8.98269e-06 4.62137e-06
3.53859e-06 4.62137e-06 -3.25731e-05
0.00229743 8.95252e-05 -2.93554e-06
8.95252e-05 0.00111228 -2.53864e-07
-2.93554e-06 -2.53864e-07 0.00111808
0.00266328 0.00012058 -5.93139e-06
0.00012058 0.00135059 5.5882e-06
-5.93139e-06 5.5882e-06 0.00134819
0.0021402 0.000300343 -2.34813e-06
0.000300343 -2.4696e-05 -1.03096e-06
-2.34813e-06 -1.03096e-06 -2.43682e-05
0.00207101 9.50037e-05 8.36087e-07
9.50037e-05 -3.36232e-05 3.14323e-07
8.36087e-07 3.14323e-07 -1.85536e-06
0.00196235 -4.92449e-06 -2.05408e-06
-4.92449e-06 -5.3444e-06 -1.71375e-07
-2.05408e-06 -1.71375e-07 -1.43594e-06
0.00206156 -7.38221e-06 1.41346e-07
-7.38221e-06 -4.81608e-05 -1.79189e-07
1.41346e-07 -1.79189e-07 -4.36898e-06
0.00225225 0.000157665 -2.73562e-07
0.000157665 -3.05201e-05 3.23632e-07
-2.73562e-07 3.23632e-07 1.33983e-05
0.00213819 8.21096e-05 7.74852e-06
8.21096e-05 -5.64487e-05 -4.64772e-06
7.74852e-06 -4.64772e-06 7.99815e-06
0.00226929 -6.12199e-06 1.76901e-06
-6.12199e-06 -7.50755e-05 -7.52667e-07
1.76901e-06 -7.52667e-07 2.8436e-06
0.00423716 0.000656379 4.42069e-05
0.000656379 -0.000346962 6.96394e-06
4.42069e-05 6.96394e-06 0.000185924
0.00248262 6.09772e-05 -2.74012e-05
6.09772e-05 0.000318518 2.96801e-05
-2.74012e-05 2.96801e-05 0.000490143
0.000496093 0.000102069 -1.67918e-06
0.000102069 3.34306e-05 -6.08541e-07
-1.67918e-06 -6.08541e-07 -5.39379e-05
0.00208056 -0.000121003 1.06399e-07
-0.000121003 -3.48421e-05 -2.30489e-07
1.06399e-07 -2.30489e-07 3.1403e-06
0.00214726 -0.000300518 1.78017e-06
-0.000300518 -2.83318e-05 -5.52494e-07
1.78017e-06 -5.52494e-07 6.86163e-06
0.00205402 -0.000423197 -1.48957e-07
-0.000423197 -1.35533e-05 6.18233e-08
-1.48957e-07 6.18233e-08 -1.8118e-05
0.00107536 -0.000518798 -8.58249e-06
-0.000518798 0.000130086 6.90675e-06
-8.58249e-06 6.90675e-06 -0.000252789
0.00219763 -0.000775634 9.53413e-06
-0.000775634 0.000646916 7.43383e-06
9.53413e-06 7.43383e-06 0.000175433
0.0016978 -0.000708467 -6.56888e-06
-0.000708467 0.000130561 -8.42818e-06
-6.56888e-06 -8.42818e-06 -0.000209219
0.00212633 -0.000612837 -5.69748e-06
-0.000612837 0.000113354 -7.97676e-07
-5.69748e-06 -7.97676e-07 -2.76658e-05
0.00165001 -0.000473553 2.29679e-05
-0.000473553 0.00047676 -1.9518e-05
2.29679e-05 -1.9518e-05 0.000135523
0.000780779 -0.000285708 2.20679e-05
-0.000285708 0.000233625 -1.81455e-05
2.20679e-05 -1.81455e-05 -0.000191545
0.00127784 -8.21733e-05 1.70132e-06
-8.21733e-05 0.000458797 7.48918e-07
1.70132e-06 7.48918e-07 0.000187075
0.000517638 8.84437e-06 7.06643e-07
8.84437e-06 4.44076e-06 1.1027e-06
7.06643e-07 1.1027e-06 -4.20095e-05
0.00105493 -4.64704e-05 1.71111e-06
-4.64704e-05 0.000403743 4.22872e-06
1.71111e-06 4.22872e-06 0.000159524
0.000857835 -2.15083e-05 5.51653e-06
-2.15083e-05 0.000285816 -2.1865e-06
5.51653e-06 -2.1865e-06 0.000178253
0.000743255 -3.83368e-05 3.04462e-06
-3.83368e-05 0.000224428 -3.25229e-06
3.04462e-06 -3.25229e-06 4.17502e-05
0.000215917 -4.1543e-05 -4.14041e-06
-4.1543e-05 -0.000169238 7.72458e-07
-4.14041e-06 7.72458e-07 -0.000245871
0.00215769 -0.000155745 -5.42377e-07
-0.000155745 -0.000125885 -1.00513e-07
-5.42377e-07 -1.00513e-07 -5.39305e-05
0.000378048 2.82184e-05 7.2683e-08
2.82184e-05 -3.85305e-05 -1.99319e-06
7.2683e-08 -1.99319e-06 -0.000132535
0.000586823 -5.53652e-05 2.16267e-06
-5.53652e-05 8.58394e-05 9.01398e-07
2.16267e-06 9.01398e-07 3.82718e-07
0.000842392 -0.000111628 2.22116e-06
-0.000111628 0.000215461 3.13694e-07
2.22116e-06 3.13694e-07 0.000118059
0.00217558 -0.000406499 1.78794e-06
-0.000406499 -0.000145027 -5.89825e-07
1.78794e-06 -5.89825e-07 -1.13544e-05
0.00221886 -0.000583159 7.02073e-07
-0.000583159 2.43278e-05 -1.12182e-06
7.02073e-07 -1.12182e-06 -1.83573e-05
0.000510989 -0.000426636 7.03792e-06
-0.000426636 -0.00014943 -7.32482e-09
7.03792e-06 -7.32482e-09 -0.0005119
0.00248701 -0.00089426 1.26954e-05
-0.00089426 0.000726932 -1.56487e-07
1.26954e-05 -1.56487e-07 0.000238326
0.00229718 -0.000796248 -1.77055e-06
-0.000796248 0.00030937 2.216e-06
-1.77055e-06 2.216e-06 8.38145e-05
0.00020711 -3.31996e-05 -9.03038e-07
-3.31996e-05 -0.00012109 -7.21375e-07
-9.03038e-07 -7.21375e-07 -0.000257756
0.000905808 -9.87546e-05 -1.11473e-06
-9.87546e-05 0.00032168 1.65949e-06
-1.11473e-06 1.65949e-06 0.000114521
0.00148935 -0.000631783 -4.99158e-06
-0.000631783 0.000358075 1.87642e-06
-4.99158e-06 1.87642e-06 -4.18931e-05
0.000326296 -0.000167027 1.82047e-07
-0.000167027 7.44532e-05 -1.73832e-06
1.82047e-07 -1.73832e-06 -0.00046425
0.000945597 -7.80231e-05 9.9181e-07
-7.80231e-05 0.000246342 2.96762e-06
9.9181e-07 2.96762e-06 2.76756e-05
0.00257759 -0.000293415 -4.00791e-06
-0.000293415 0.000118333 -4.48807e-07
-4.00791e-06 -4.48807e-07 0.000197899
0.00196336 -0.000443462 -1.82076e-05
-0.000443462 -0.000255598 5.6916e-06
-1.82076e-05 5.6916e-06 -6.27485e-05
0.00212395 -0.000723225 -9.6364e-06
-0.000723225 6.79698e-05 5.67263e-07
-9.6364e-06 5.67263e-07 -9.58537e-05
0.00383293 -0.00101018 -1.84298e-05
-0.00101018 0.00128749 -2.11419e-06
-1.84298e-05 -2.11419e-06 0.000978402
0.00059515 -0.000558065 -2.41173e-05
-0.000558065 -0.000123319 -4.00005e-06
-2.41173e-05 -4.00005e-06 -0.000525195
0.00017424 -2.39304e-05 1.27736e-06
-2.39304e-05 -0.000160548 2.66494e-07
1.27736e-06 2.66494e-07 -0.000264791
0.00053508 8.1322e-06 -3.71137e-07
8.1322e-06 9.34572e-06 5.83593e-06
-3.71137e-07 5.83593e-06 -8.61343e-05
-0.000735962 -6.66388e-05 -2.65809e-06
-6.66388e-05 -0.000750515 -2.71614e-06
-2.65809e-06 -2.71614e-06 -0.000835486
0.00197926 -0.000256982 -1.44309e-05
-0.000256982 0.000997725 1.76301e-05
-1.44309e-05 1.76301e-05 0.000812771
0.000926396 -9.37527e-05 -5.83495e-06
-9.37527e-05 0.000301662 1.79197e-05
-5.83495e-06 1.79197e-05 0.000116543
-0.00128024 -0.000102909 2.6011e-06
-0.000102909 -0.000544648 3.36296e-06
2.6011e-06 3.36296e-06 -0.00120269
8.44715e-06 -0.000763651 -1.21143e-05
-0.000763651 -0.000127559 -5.16488e-07
-1.21143e-05 -5.16488e-07 -0.00078763
0.00132964 0.000164494 -1.83512e-06
0.000164494 0.000570592 -6.69347e-06
-1.83512e-06 -6.69347e-06 0.0003841
0.000105574 0.00010994 -4.57114e-06
0.00010994 -0.000218193 -3.07503e-06
-4.57114e-06 -3.07503e-06 -0.000434421
0.00243824 0.000304619 5.58138e-06
0.000304619 1.52114e-05 3.96644e-07
5.58138e-06 3.96644e-07 9.05247e-05
0.00242897 0.000538641 1.55654e-05
0.000538641 0.000225121 5.38959e-06
1.55654e-05 5.38959e-06 0.000132893
0.00213373 0.000676463 1.67677e-05
0.000676463 0.000283667 4.17568e-06
1.67677e-05 4.17568e-06 -1.9317e-05
0.00142761 0.000435453 -1.03595e-06
0.000435453 0.000368811 1.12223e-06
-1.03595e-06 1.12223e-06 6.3902e-05
0.00164891 0.000624766 2.5185e-06
0.000624766 0.000321014 3.13242e-06
2.5185e-06 3.13242e-06 -7.0801e-05
0.00180573 0.000236854 1.21893e-07
0.000236854 0.000853122 -1.36348e-07
1.21893e-07 -1.36348e-07 0.000650828
0.0026118 0.000366745 2.41876e-06
0.000366745 0.000200771 2.19641e-06
2.41876e-06 2.19641e-06 0.000314925
0.00122509 0.000359636 -2.45514e-06
0.000359636 0.000378714 2.04808e-06
-2.45514e-06 2.04808e-06 0.000112011
0.00172169 0.000552982 2.90211e-06
0.000552982 0.000481374 -4.43953e-07
2.90211e-06 -4.43953e-07 0.000103083
0.00212704 0.000685579 -3.90819e-06
0.000685579 0.000141183 -3.34115e-06
-3.90819e-06 -3.34115e-06 -4.83398e-05
0.00170937 0.000668615 -4.52094e-06
0.000668615 0.000297593 4.84626e-06
-4.52094e-06 4.84626e-06 -9.30043e-05
0.00311852 0.000921523 4.86815e-05
0.000921523 -0.000276795 4.90905e-06
4.86815e-05 4.90905e-06 -0.000297552
0.000915623 0.000267637 -4.03682e-06
0.000267637 0.000352252 2.61625e-06
-4.03682e-06 2.61625e-06 0.000126081
0.00286132 0.000661885 -8.29218e-05
0.000661885 0.000447012 -3.57118e-05
-8.29218e-05 -3.57118e-05 0.000402395
0.000863046 0.000379378 -4.12361e-06
0.000379378 1.31202e-05 9.28328e-07
-4.12361e-06 9.28328e-07 -0.000276947
7.57723e-05 0.00040878 -8.94197e-07
0.00040878 -0.000487175 -1.51831e-05
-8.94197e-07 -1.51831e-05 -0.000843252
0.000810182 0.000678402 -3.52742e-05
0.000678402 -0.00037207 -1.29807e-05
-3.52742e-05 -1.29807e-05 -0.000599237
0.0138077 0.000348149 -0.000409646
0.000348149 0.00238634 -4.33939e-05
-0.000409646 -4.33939e-05 0.00168135
0.00460283 0.00144883 -4.86763e-06
0.00144883 -0.000993086 -8.38623e-05
-4.86763e-06 -8.38623e-05 -0.000240228
-0.000428277 0.000974913 -1.50205e-07
0.000974913 -0.00116987 1.39912e-07
-1.50205e-07 1.39912e-07 -0.00143696
-0.000572014 -0.00172789 0.00116862
-0.00172789 0.000991716 0.000259252
0.00116862 0.000259252 -0.00179014
0.0181145 -0.00675229 -1.02371e-05
-0.00675229 0.00621279 7.31287e-05
-1.02371e-05 7.31287e-05 0.00520603
-0.000125028 9.60685e-05 6.76497e-06
9.60685e-05 -0.000269452 1.91171e-06
6.76497e-06 1.91171e-06 -0.000368181
0.00109169 0.000106704 -8.50622e-08
0.000106704 0.000442016 -2.56237e-06
-8.50622e-08 -2.56237e-06 0.000360109
0.00204207 0.000234744 6.25587e-07
0.000234744 0.00103942 -3.4647e-07
6.25587e-07 -3.4647e-07 0.00092962
0.000516923 -5.65398e-05 -9.12082e-07
-5.65398e-05 6.42581e-05 -2.85166e-06
-9.12082e-07 -2.85166e-06 -5.93676e-05
0.000401655 6.12314e-05 -1.13847e-06
6.12314e-05 -2.35021e-05 -2.70179e-06
-1.13847e-06 -2.70179e-06 -0.000159538
0.000761381 -1.70248e-05 3.41341e-08
-1.70248e-05 0.000208901 -7.73765e-07
3.41341e-08 -7.73765e-07 6.70593e-05
0.000662315 6.18652e-05 -4.46289e-06
6.18652e-05 0.000118502 7.92772e-06
-4.46289e-06 7.92772e-06 1.83467e-05
0.000414843 6.53786e-05 2.83516e-06
6.53786e-05 -4.40694e-05 7.85972e-06
2.83516e-06 7.85972e-06 -0.000106613
0.000692035 0.000123897 -1.73174e-06
0.000123897 0.000180518 -4.56332e-07
-1.73174e-06 -4.56332e-07 1.8303e-05
0.00042935 -6.49948e-06 4.32349e-07
-6.49948e-06 -7.81598e-06 9.48566e-07
4.32349e-07 9.48566e-07 -0.00012866
0.000686942 4.09164e-05 -5.31013e-07
4.09164e-05 0.000165298 -4.00587e-08
-5.31013e-07 -4.00587e-08 9.89064e-06
0.00047826 7.75604e-05 -9.73102e-07
7.75604e-05 8.39631e-06 -2.18544e-07
-9.73102e-07 -2.18544e-07 -4.54122e-05
0.000684084 0.000103782 -1.32858e-06
0.000103782 0.00014529 -2.60976e-07
-1.32858e-06 -2.60976e-07 4.53634e-06
0.00148228 0.000177108 -1.6466e-06
0.000177108 0.00066006 -5.38117e-07
-1.6466e-06 -5.38117e-07 0.000486743
0.000378244 9.8189e-05 1.22434e-06
9.8189e-05 1.31463e-05 -2.05045e-06
1.22434e-06 -2.05045e-06 -0.000140675
0.000852033 0.00010193 2.62841e-06
0.00010193 0.000266873 7.63935e-07
2.62841e-06 7.63935e-07 0.000111555
0.000503783 -2.72519e-05 1.60507e-06
-2.72519e-05 3.64684e-05 7.6009e-07
1.60507e-06 7.6009e-07 -0.000115753
0.000356232 -6.80629e-05 -1.36822e-06
-6.80629e-05 -5.55573e-05 2.86072e-06
-1.36822e-06 2.86072e-06 -0.000181042
0.000740684 -2.65674e-05 -8.10239e-07
-2.65674e-05 0.000197728 5.96927e-09
-8.10239e-07 5.96927e-09 4.10845e-05
0.00110715 1.48138e-05 9.39178e-08
1.48138e-05 0.000415619 -7.94336e-06
9.39178e-08 -7.94336e-06 0.000263936
0.000578875 -3.44943e-05 -1.46351e-06
-3.44943e-05 0.000127559 -6.37475e-09
-1.46351e-06 -6.37475e-09 -1.90103e-05
0.00077312 -4.74621e-05 1.88726e-06
-4.74621e-05 0.000230997 -5.90586e-07
1.88726e-06 -5.90586e-07 7.87534e-05
0.000659607 -0.000115402 -2.64007e-06
-0.000115402 0.000138761 2.08028e-06
-2.64007e-06 2.08028e-06 1.45902e-05
0.0003297 -2.31513e-05 1.15108e-07
-2.31513e-05 -7.04094e-05 1.14592e-06
1.15108e-07 1.14592e-06 -0.000195262
0.00051356 -4.82301e-05 -2.33157e-06
-4.82301e-05 2.06078e-05 3.42166e-06
-2.33157e-06 3.42166e-06 -5.31204e-05
0.000515346 -3.39145e-05 1.80586e-06
-3.39145e-05 2.81881e-05 7.07812e-08
1.80586e-06 7.07812e-08 -4.90887e-05
0.000473237 3.90354e-06 1.99246e-06
3.90354e-06 -2.20368e-05 6.22466e-06
1.99246e-06 6.22466e-06 -4.49466e-05
0.000533909 4.46194e-05 -1.66911e-06
4.46194e-05 3.42812e-05 -3.36338e-06
-1.66911e-06 -3.36338e-06 -3.81089e-05
0.000433881 2.73136e-05 4.32593e-07
2.73136e-05 -4.77084e-05 6.72791e-08
4.32593e-07 6.72791e-08 -7.01877e-05
0.00250175 2.32756e-06 2.44948e-06
2.32756e-06 0.00122042 5.34312e-06
2.44948e-06 5.34312e-06 0.00123349
0.000500126 3.03656e-05 -2.82474e-06
3.03656e-05 -1.19148e-05 -6.80724e-06
-2.82474e-06 -6.80724e-06 -3.43898e-05
0.00169338 -6.98981e-06 -1.86411e-06
-6.98981e-06 0.000715955 1.43606e-07
-1.86411e-06 1.43606e-07 0.000724805
0.000798287 -1.25983e-05 5.9482e-07
-1.25983e-05 0.000152957 -2.30399e-06
5.9482e-07 -2.30399e-06 0.000159238
0.000485924 -2.40299e-06 2.31506e-07
-2.40299e-06 -1.50589e-05 -1.4909e-06
2.31506e-07 -1.4909e-06 -5.46313e-05
0.000558282 -3.46384e-05 1.66386e-07
-3.46384e-05 3.32431e-05 -2.93182e-08
1.66386e-07 -2.93182e-08 -1.35646e-05
0.000537233 1.30811e-05 9.44054e-07
1.30811e-05 -9.15509e-06 -3.15973e-06
9.44054e-07 -3.15973e-06 -1.84915e-05
0.000503398 -3.09023e-05 -1.8723e-06
-3.09023e-05 -7.88224e-06 9.46586e-07
-1.8723e-06 9.46586e-07 -5.32835e-05
0.000797016 2.71324e-05 -1.01141e-07
2.71324e-05 0.000154824 -7.29508e-07
-1.01141e-07 -7.29508e-07 0.000145248
0.00198691 4.91631e-05 7.69558e-06
4.91631e-05 0.000903935 -4.38963e-06
7.69558e-06 -4.38963e-06 0.000918551
0.000490091 3.29644e-05 4.77491e-08
3.29644e-05 -3.04097e-05 3.42592e-06
4.77491e-08 3.42592e-06 -4.54989e-05
0.00218438 7.00627e-05 -6.17497e-06
7.00627e-05 0.00103525 1.12282e-06
-6.17497e-06 1.12282e-06 0.00104553
0.00238661 9.54037e-05 -6.99243e-06
9.54037e-05 0.00116931 4.83228e-06
-6.99243e-06 4.83228e-06 0.00117371
0.00222482 0.000163116 -2.90192e-06
0.000163116 -2.96167e-05 -1.11753e-06
-2.90192e-06 -1.11753e-06 1.3402e-05
0.0020531 -6.62255e-06 9.04026e-07
-6.62255e-06 -5.16906e-05 -4.07574e-08
9.04026e-07 -4.07574e-08 -8.44056e-06
0.00191751 5.94315e-05 -7.89633e-07
5.94315e-05 -0.000216518 9.07539e-07
-7.89633e-07 9.07539e-07 -0.000155022
0.0024542 0.000481004 7.66613e-05
0.000481004 -0.00116221 1.73602e-05
7.66613e-05 1.73602e-05 -0.00065573
0.00224854 -2.97475e-05 -1.18256e-06
-2.97475e-05 -6.78829e-05 -2.31844e-06
-1.18256e-06 -2.31844e-06 1.04308e-05
0.00214716 6.2056e-05 1.03053e-06
6.2056e-05 0.000130157 -8.55027e-06
1.03053e-06 -8.55027e-06 0.000249758
0.00330223 -3.45952e-05 -2.5464e-05
-3.45952e-05 0.000923453 3.32559e-06
-2.5464e-05 3.32559e-06 0.000929701
0.00296034 3.43187e-06 -8.30294e-06
3.43187e-06 -0.0017166 -2.71694e-05
-8.30294e-06 -2.71694e-05 -0.000883667
0.00270879 0.000174409 0.000101587
0.000174409 -0.00056852 5.5561e-05
0.000101587 5.5561e-05 -0.000114912
0.000584071 8.30181e-05 1.47196e-07
8.30181e-05 8.989e-05 -3.3038e-07
1.47196e-07 -3.3038e-07 1.79168e-06
0.000582062 -4.7701e-06 4.74289e-07
-4.7701e-06 9.59536e-05 -1.10397e-07
4.74289e-07 -1.10397e-07 1.59745e-06
0.000457515 -9.95721e-05 -3.92035e-06
-9.95721e-05 2.52961e-05 8.59125e-07
-3.92035e-06 8.59125e-07 -8.38225e-05
0.000467028 -5.30594e-05 -2.39786e-06
-5.30594e-05 4.58688e-05 1.7436e-06
-2.39786e-06 1.7436e-06 -6.73144e-05
0.00223157 -0.000173744 -3.82789e-06
-0.000173744 -0.000105025 6.66271e-07
-3.82789e-06 6.66271e-07 -1.59918e-05
0.00219005 -0.00041101 2.14839e-06
-0.00041101 -0.000109799 -1.59057e-06
2.14839e-06 -1.59057e-06 -8.02444e-06
0.00216184 -0.000578198 -2.65848e-06
-0.000578198 -5.39879e-06 -1.16651e-07
-2.65848e-06 -1.16651e-07 -4.78357e-05
0.00333917 -0.000739962 1.11352e-05
-0.000739962 0.00146698 7.1805e-06
1.11352e-05 7.1805e-06 0.00105427
0.000479732 -0.000682169 5.62125e-06
-0.000682169 -0.000383088 -3.09519e-06
5.62125e-06 -3.09519e-06 -0.000830757
0.0021152 -0.000773627 3.47738e-06
-0.000773627 0.000232311 -3.39884e-06
3.47738e-06 -3.39884e-06 1.78676e-06
0.00162781 -0.000675196 7.45266e-06
-0.000675196 0.000419558 -1.02087e-05
7.45266e-06 -1.02087e-05 -1.46926e-05
0.00325517 -0.0002417 6.48526e-06
-0.0002417 0.0015951 -3.80139e-06
6.48526e-06 -3.80139e-06 0.00122506
-0.000131501 -2.22974e-05 -2.82754e-06
-2.22974e-05 -0.000443258 2.80359e-06
-2.82754e-06 2.80359e-06 -0.000630874
0.00066624 -5.57942e-05 1.44084e-06
-5.57942e-05 0.000138435 1.51573e-07
1.44084e-06 1.51573e-07 5.24865e-05
0.000566987 -0.000112514 -2.9662e-07
-0.000112514 0.00012841 -7.95928e-06
-2.9662e-07 -7.95928e-06 -8.81039e-05
0.00065518 -1.10466e-05 3.96236e-06
-1.10466e-05 0.000163209 -3.23283e-06
3.96236e-06 -3.23283e-06 2.16381e-05
0.000619738 7.02399e-07 7.3714e-08
7.02399e-07 0.000129283 9.90825e-07
7.3714e-08 9.90825e-07 2.59197e-05
0.000545688 -5.03673e-05 -7.95369e-06
-5.03673e-05 2.63343e-05 2.14917e-06
-7.95369e-06 2.14917e-06 -5.92366e-05
0.00254119 -0.000276694 1.69783e-06
-0.000276694 0.000105561 1.17505e-06
1.69783e-06 1.17505e-06 0.000201867
0.000561056 -2.75783e-05 4.88791e-09
-2.75783e-05 9.42202e-05 9.89738e-07
4.88791e-09 9.89738e-07 -2.6886e-05
0.000829818 -2.60891e-05 5.56061e-06
-2.60891e-05 0.000209707 -4.7069e-07
5.56061e-06 -4.7069e-07 0.000101672
-0.000164803 -1.68471e-05 2.06901e-06
-1.68471e-05 -0.000373338 7.23244e-07
2.06901e-06 7.23244e-07 -0.000440683
0.00192719 -0.000451011 3.44565e-07
-0.000451011 -0.000304645 -1.21848e-06
3.44565e-07 -1.21848e-06 -0.000118542
0.00217703 -0.000724422 2.1078e-06
-0.000724422 9.41252e-05 -1.33262e-06
2.1078e-06 -1.33262e-06 -6.16649e-05
0.00181752 -0.000734616 -1.95897e-06
-0.000734616 0.000549297 -3.49999e-07
-1.95897e-06 -3.49999e-07 0.000121669
0.00244252 -0.000885729 -6.13999e-06
-0.000885729 0.000531151 1.26595e-06
-6.13999e-06 1.26595e-06 0.000234207
0.0013855 -0.000124477 2.12334e-07
-0.000124477 0.000601819 1.21492e-07
2.12334e-07 1.21492e-07 0.000432467
0.000249097 -3.95064e-05 5.17728e-06
-3.95064e-05 -0.000129372 2.28456e-06
5.17728e-06 2.28456e-06 -0.000311147
0.00142537 -0.000876778 4.19169e-06
-0.000876778 0.000697504 -1.96203e-06
4.19169e-06 -1.96203e-06 1.30327e-05
0.00116801 -0.000329607 -4.43238e-06
-0.000329607 0.000524555 -1.74518e-07
-4.43238e-06 -1.74518e-07 5.96761e-05
0.00313262 -0.000394045 -3.50119e-05
-0.000394045 0.00033841 -3.14883e-07
-3.50119e-05 -3.14883e-07 0.00057473
0.0022999 -0.00057788 -4.38171e-05
-0.00057788 8.37111e-05 1.09835e-05
-4.38171e-05 1.09835e-05 0.000147162
0.00237943 -0.000844485 -4.99777e-06
-0.000844485 0.000371246 -6.01059e-06
-4.99777e-06 -6.01059e-06 8.60628e-05
0.00273761 -0.000855088 -1.06527e-05
-0.000855088 0.000892417 1.3628e-06
-1.06527e-05 1.3628e-06 0.000589708
0.000274616 -4.33341e-05 -1.45055e-06
-4.33341e-05 -4.55098e-05 -4.75882e-06
-1.45055e-06 -4.75882e-06 -0.000166583
0.000324819 -0.000100318 -7.09375e-06
-0.000100318 -5.71739e-05 -9.34467e-06
-7.09375e-06 -9.34467e-06 -0.000212585
4.09909e-05 -0.000161956 -5.04351e-06
-0.000161956 2.09191e-05 3.30565e-05
-5.04351e-06 3.30565e-05 -0.000274237
-0.00112088 -0.000593494 -7.53274e-06
-0.000593494 -0.00019052 -2.53343e-05
-7.53274e-06 -2.53343e-05 -0.00112665
0.00198295 -0.000484681 4.21454e-05
-0.000484681 -0.00475239 -2.40128e-06
4.21454e-05 -2.40128e-06 -0.00479466
0.00201102 0.000225718 -1.54964e-06
0.000225718 0.000960445 -4.75922e-06
-1.54964e-06 -4.75922e-06 0.000763908
0.00106814 0.000313046 -1.21659e-06
0.000313046 0.000279079 -3.69255e-07
-1.21659e-06 -3.69255e-07 2.66416e-05
0.00194509 0.000308145 6.47737e-05
0.000308145 -0.000166738 1.72723e-05
6.47737e-05 1.72723e-05 -3.4263e-05
0.0024698 0.000699333 2.8873e-05
0.000699333 0.000335932 1.10404e-05
2.8873e-05 1.10404e-05 0.000154919
0.00215386 0.000721134 1.32321e-05
0.000721134 0.000559951 1.1638e-05
1.32321e-05 1.1638e-05 0.000154417
0.00132528 0.000512771 6.57211e-06
0.000512771 0.000271885 7.87274e-06
6.57211e-06 7.87274e-06 -0.000108693
0.00499351 0.00114755 0.000119053
0.00114755 0.000422208 4.38594e-05
0.000119053 4.38594e-05 0.000213413
0.00150725 0.000279824 4.68212e-06
0.000279824 0.00069624 1.63275e-08
4.68212e-06 1.63275e-08 0.000480757
0.00252998 0.000620282 -2.0495e-05
0.000620282 0.000263513 3.47728e-07
-2.0495e-05 3.47728e-07 0.000240937
0.000900857 0.000385073 -3.43586e-06
0.000385073 7.1622e-05 2.65042e-06
-3.43586e-06 2.65042e-06 -0.000224102
0.00145225 0.000584061 1.91568e-06
0.000584061 0.000302583 -5.29455e-06
1.91568e-06 -5.29455e-06 -8.73153e-05
0.00182594 0.000766396 -1.07054e-05
0.000766396 0.000164369 -7.64003e-08
-1.07054e-05 -7.64003e-08 -8.86614e-05
0.00423142 -0.000617323 -0.000159815
-0.000617323 -0.00410824 -6.62342e-05
-0.000159815 -6.62342e-05 -0.00510242
0.00713337 0.00141106 -0.000103344
0.00141106 0.000186824 -6.4043e-05
-0.000103344 -6.4043e-05 0.000665939
0.000981299 0.00100283 -7.29333e-06
0.00100283 -0.000381909 8.21665e-06
-7.29333e-06 8.21665e-06 -0.000729145
-0.000487482 -0.00150075 0.000425825
-0.00150075 0.00237063 0.000179281
0.000425825 0.000179281 -0.00024744
0.00967195 -0.00673596 -0.000394701
-0.00673596 0.0040927 -0.000370185
-0.000394701 -0.000370185 0.0030075
0.00125283 0.000269715 -1.27489e-05
0.000269715 0.000475064 1.12561e-06
-1.27489e-05 1.12561e-06 0.000275561
0.000696281 0.000529214 0.000596383
0.000529214 0.0035484 6.96273e-05
0.000596383 6.96273e-05 0.00171916
0.00240375 -0.00223413 -0.000166144
-0.00223413 0.00469284 -0.000221095
-0.000166144 -0.000221095 0.00049726
0.00249846 0.000938757 -4.65908e-05
0.000938757 0.000355354 -1.47585e-05
-4.65908e-05 -1.47585e-05 0.000227325
0.000900522 0.000306188 -2.30077e-05
0.000306188 7.93919e-05 -6.74805e-06
-2.30077e-05 -6.74805e-06 -0.000181642
0.000610107 0.000596924 -2.78164e-05
0.000596924 -9.82108e-05 -3.01068e-05
-2.78164e-05 -3.01068e-05 -0.000429243
0.000119607 0.000973988 4.15327e-05
0.000973988 -0.000674256 9.14263e-05
4.15327e-05 9.14263e-05 -0.00102576
0.012158 0.00198829 4.14486e-05
0.00198829 0.00169954 -4.19043e-05
4.14486e-05 -4.19043e-05 0.000374014
0.00369021 0.00204074 -1.79635e-05
0.00204074 1.39396e-05 -4.47803e-05
-1.79635e-05 -4.47803e-05 -5.71067e-05
0.0112572 -0.00559521 0.000880754
-0.00559521 0.00313253 0.000488659
0.000880754 0.000488659 0.000784762
0.0112062 -0.00260941 -5.45148e-05
-0.00260941 0.00232169 0.00052805
-5.45148e-05 0.00052805 0.00142599
0.000474092 9.75087e-05 6.2657e-06
9.75087e-05 9.84031e-05 -1.51804e-06
6.2657e-06 -1.51804e-06 1.58335e-05
0.000349606 0.000125056 8.10942e-06
0.000125056 2.26161e-05 3.49155e-07
8.10942e-06 3.49155e-07 -7.7824e-05
0.00189867 0.000275313 3.61441e-06
0.000275313 0.000971836 -1.89628e-06
3.61441e-06 -1.89628e-06 0.00080786
0.000583327 1.09121e-05 8.23989e-07
1.09121e-05 0.000110572 -8.86939e-07
8.23989e-07 -8.86939e-07 -2.48199e-05
0.000640901 6.27623e-05 -1.20491e-06
6.27623e-05 0.00013214 -2.08316e-06
-1.20491e-06 -2.08316e-06 -1.76814e-05
0.000183757 2.48393e-05 -1.49003e-06
2.48393e-05 -0.000147419 4.7844e-07
-1.49003e-06 4.7844e-07 -0.00029039
0.000619405 9.73768e-05 -7.37365e-06
9.73768e-05 0.000120382 1.31211e-06
-7.37365e-06 1.31211e-06 -2.22776e-05
-0.000661169 4.33727e-05 -4.25736e-06
4.33727e-05 -0.000698548 8.31766e-09
-4.25736e-06 8.31766e-09 -0.00075133
0.000370582 -1.25424e-05 2.3246e-07
-1.25424e-05 -4.00101e-05 9.81379e-07
2.3246e-07 9.81379e-07 -0.00016931
0.00118653 0.00011493 1.39781e-06
0.00011493 0.000469463 -3.33398e-07
1.39781e-06 -3.33398e-07 0.000307848
0.000638836 5.00146e-05 4.70926e-07
5.00146e-05 0.000143615 2.03908e-07
4.70926e-07 2.03908e-07 -1.61987e-05
0.000735192 3.04955e-05 1.25378e-06
3.04955e-05 0.000200544 -4.66715e-07
1.25378e-06 -4.66715e-07 3.36774e-05
0.000478084 0.000102755 -3.53545e-07
0.000102755 7.39976e-05 -1.9018e-06
-3.53545e-07 -1.9018e-06 -7.65631e-05
0.00131833 0.000116043 -1.84795e-06
0.000116043 0.000573605 -1.14808e-06
-1.84795e-06 -1.14808e-06 0.000410288
-0.000253052 4.40439e-05 -5.65671e-06
4.40439e-05 -0.000289639 -3.39122e-06
-5.65671e-06 -3.39122e-06 -0.000475758
0.000654354 -9.76629e-05 -2.58092e-07
-9.76629e-05 0.000146427 -4.28926e-08
-2.58092e-07 -4.28926e-08 -1.30727e-05
0.000779952 -7.62092e-05 -6.9146e-07
-7.62092e-05 0.000238179 -4.18227e-08
-6.9146e-07 -4.18227e-08 7.02846e-05
0.000753753 -4.53112e-05 -1.03308e-07
-4.53112e-05 0.000218553 -4.24898e-07
-1.03308e-07 -4.24898e-07 5.2609e-05
0.000751507 -1.62819e-05 -2.86645e-06
-1.62819e-05 0.000181345 1.87479e-08
-2.86645e-06 1.87479e-08 4.47553e-05
0.00102624 5.75727e-06 -4.84336e-06
5.75727e-06 0.000408766 -3.85473e-06
-4.84336e-06 -3.85473e-06 0.000222433
0.000763216 -3.30943e-05 1.63338e-06
-3.30943e-05 0.000209691 -6.83882e-06
1.63338e-06 -6.83882e-06 7.2785e-05
-0.000958848 -1.23675e-05 -2.34649e-06
-1.23675e-05 -0.000858785 -4.928e-06
-2.34649e-06 -4.928e-06 -0.000975182
0.000634393 -4.28834e-05 1.20474e-06
-4.28834e-05 0.000127627 -9.63664e-07
1.20474e-06 -9.63664e-07 -2.13663e-05
0.0004022 -7.52987e-05 1.36747e-06
-7.52987e-05 -1.1583e-05 1.14441e-06
1.36747e-06 1.14441e-06 -0.000142709
0.000675649 -8.24438e-05 -1.06423e-06
-8.24438e-05 0.00017665 -2.53167e-07
-1.06423e-06 -2.53167e-07 3.22329e-05
0.000526217 -7.77292e-05 -2.25872e-06
-7.77292e-05 3.97602e-05 1.74743e-06
-2.25872e-06 1.74743e-06 -6.87453e-05
0.000445175 -6.43026e-05 3.18476e-06
-6.43026e-05 -8.6043e-07 1.8457e-07
3.18476e-06 1.8457e-07 -0.000133366
0.000533346 -0.000104752 9.24822e-08
-0.000104752 5.75973e-05 2.52332e-07
9.24822e-08 2.52332e-07 -6.51619e-05
0.000549453 -4.74393e-05 -2.44551e-06
-4.74393e-05 4.04462e-05 3.86236e-06
-2.44551e-06 3.86236e-06 -3.41163e-05
0.000424512 -9.7777e-06 1.51512e-06
-9.7777e-06 1.96265e-06 -9.33615e-07
1.51512e-06 -9.33615e-07 -0.00013352
0.000509684 1.44235e-06 1.92351e-06
1.44235e-06 2.55068e-05 7.32196e-08
1.92351e-06 7.32196e-08 -5.25304e-05
0.00144049 -1.88491e-05 -7.3017e-06
-1.88491e-05 0.000571134 6.42747e-06
-7.3017e-06 6.42747e-06 0.000552232
0.000508896 6.03164e-05 -1.29436e-06
6.03164e-05 2.46332e-05 -3.26344e-06
-1.29436e-06 -3.26344e-06 -5.24355e-05
0.000886724 -1.12051e-05 -3.26142e-06
-1.12051e-05 0.000233605 7.40828e-07
-3.26142e-06 7.40828e-07 0.000212825
0.00077682 3.20726e-06 -3.42735e-06
3.20726e-06 0.000153559 4.84873e-06
-3.42735e-06 4.84873e-06 0.000158645
0.000432063 -8.8988e-06 2.60298e-06
-8.8988e-06 -4.90444e-05 -4.6887e-06
2.60298e-06 -4.6887e-06 -7.12197e-05
0.00252713 2.4214e-06 5.98325e-06
2.4214e-06 0.00123638 -1.61023e-08
5.98325e-06 -1.61023e-08 0.0012494
0.00089018 7.91335e-07 -6.70352e-06
7.91335e-07 0.000219206 -5.27918e-06
-6.70352e-06 -5.27918e-06 0.000223962
0.000509965 6.32248e-05 2.46734e-06
6.32248e-05 4.75452e-05 9.74479e-07
2.46734e-06 9.74479e-07 -4.69857e-05
0.000484445 4.69555e-05 -2.17036e-06
4.69555e-05 -5.75947e-06 -1.92581e-06
-2.17036e-06 -1.92581e-06 -5.00364e-05
0.000503861 -6.0855e-06 1.47828e-06
-6.0855e-06 5.54475e-06 5.37414e-08
1.47828e-06 5.37414e-08 -4.02123e-05
0.000513527 8.59945e-06 8.71914e-07
8.59945e-06 -2.30414e-05 -3.02313e-06
8.71914e-07 -3.02313e-06 -3.14642e-05
0.000561842 -5.45112e-05 -1.78416e-06
-5.45112e-05 4.08704e-05 1.93871e-06
-1.78416e-06 1.93871e-06 -9.35078e-06
0.000496928 1.35484e-05 7.66177e-08
1.35484e-05 -3.46675e-05 -7.35003e-07
7.66177e-08 -7.35003e-07 -4.37035e-05
0.00197809 3.38545e-05 5.32301e-06
3.38545e-05 0.000894408 -4.51664e-06
5.32301e-06 -4.51664e-06 0.00091101
0.00108586 3.46244e-05 -5.55374e-07
3.46244e-05 0.000335717 1.69788e-06
-5.55374e-07 1.69788e-06 0.000327374
0.00144759 4.26314e-05 -1.60166e-07
4.26314e-05 0.000568531 1.3962e-06
-1.60166e-07 1.3962e-06 0.000578694
0.00087524 4.6433e-05 -9.23216e-06
4.6433e-05 0.000217847 7.48112e-06
-9.23216e-06 7.48112e-06 0.00022132
0.000865697 0.000327487 8.77819e-05
0.000327487 -0.00190576 1.6597e-05
8.77819e-05 1.6597e-05 -0.00140227
0.0022045 -4.69966e-05 -3.22789e-06
-4.69966e-05 -6.50873e-05 3.98975e-06
-3.22789e-06 3.98975e-06 6.39197e-06
0.0022092 7.22375e-05 3.4692e-05
7.22375e-05 0.000196189 -1.55855e-05
3.4692e-05 -1.55855e-05 0.000298853
0.00235155 0.000291333 -4.44972e-05
0.000291333 -0.00158226 -3.04558e-05
-4.44972e-05 -3.04558e-05 -0.000541894
0.0020519 9.88831e-05 3.42442e-05
9.88831e-05 -0.000707104 -2.08392e-06
3.42442e-05 -2.08392e-06 -0.00039449
0.00251234 -4.37902e-05 3.52823e-06
-4.37902e-05 0.000370727 -7.79535e-06
3.52823e-06 -7.79535e-06 0.000398698
0.00437152 -0.000264743 -4.98081e-05
-0.000264743 0.00105872 -1.41183e-05
-4.98081e-05 -1.41183e-05 0.00108275
0.00268442 -0.000139567 2.16584e-05
-0.000139567 -0.00016669 2.40149e-05
2.16584e-05 2.40149e-05 9.38753e-05
0.0140922 -0.000752629 2.09354e-05
-0.000752629 0.00258324 1.34567e-05
2.09354e-05 1.34567e-05 0.00128556
0.0143711 0.00437781 0.00112561
0.00437781 0.00570494 -0.000421566
0.00112561 -0.000421566 0.00360311
0.0148008 0.00508712 9.46904e-06
0.00508712 0.0097162 4.0902e-06
9.46904e-06 4.0902e-06 0.00791972
0.000268159 -9.8122e-05 7.22134e-07
-9.8122e-05 -8.93912e-05 -3.94261e-07
7.22134e-07 -3.94261e-07 -0.000195015
0.000566642 -9.71435e-06 1.32872e-06
-9.71435e-06 8.00276e-05 -1.38103e-07
1.32872e-06 -1.38103e-07 -9.14445e-06
0.000653733 -8.81256e-05 -7.72049e-07
-8.81256e-05 0.000148064 2.34668e-06
-7.72049e-07 2.34668e-06 4.64938e-05
0.000559577 -4.06535e-05 2.81489e-07
-4.06535e-05 8.38836e-05 5.30455e-07
2.81489e-07 5.30455e-07 -2.5403e-05
0.000750573 8.40102e-05 -3.31589e-06
8.40102e-05 0.000233403 1.52568e-06
-3.31589e-06 1.52568e-06 0.000106546
0.00038137 0.000115416 1.63047e-06
0.000115416 -4.54929e-05 6.92774e-06
1.63047e-06 6.92774e-06 -0.000160279
0.000983632 -1.96997e-05 3.51458e-06
-1.96997e-05 0.000368126 2.98003e-06
3.51458e-06 2.98003e-06 0.00023653
0.000499863 -2.79936e-05 -1.55879e-06
-2.79936e-05 4.79944e-05 1.25702e-06
-1.55879e-06 1.25702e-06 -6.06899e-05
0.00248291 -0.00026164 8.13915e-06
-0.00026164 6.50414e-05 6.60258e-07
8.13915e-06 6.60258e-07 0.000189153
0.00196883 -0.000470475 1.66593e-05
-0.000470475 -0.000315876 -5.77453e-06
1.66593e-05 -5.77453e-06 -0.000142693
0.00212559 -0.000719639 3.91122e-06
-0.000719639 6.35484e-05 1.54211e-06
3.91122e-06 1.54211e-06 -8.60051e-05
0.0017611 -0.000710645 2.10384e-05
-0.000710645 0.000495495 3.21137e-06
2.10384e-05 3.21137e-06 8.86753e-05
0.00193856 -0.000860098 -2.00538e-06
-0.000860098 0.000249366 5.62366e-06
-2.00538e-06 5.62366e-06 -5.01828e-05
0.00342638 -0.00105261 2.87256e-05
-0.00105261 0.00184215 -4.60628e-06
2.87256e-05 -4.60628e-06 0.00111066
0.00387327 -0.00058934 4.39523e-06
-0.00058934 0.00188147 -2.14071e-06
4.39523e-06 -2.14071e-06 0.00151909
0.000696319 -0.000162652 8.42195e-06
-0.000162652 0.000181635 -2.00803e-05
8.42195e-06 -2.00803e-05 -4.41564e-05
0.000555227 -6.04926e-05 6.42455e-07
-6.04926e-05 3.4037e-05 3.28992e-06
6.42455e-07 3.28992e-06 -6.26412e-05
0.000671709 -9.10415e-05 8.92985e-06
-9.10415e-05 0.00013023 -1.78884e-05
8.92985e-06 -1.78884e-05 -1.85722e-05
0.000999902 -4.14062e-05 2.50659e-06
-4.14062e-05 0.00036063 7.7976e-07
2.50659e-06 7.7976e-07 0.000232687
0.000587931 3.17297e-05 3.85627e-06
3.17297e-05 9.81959e-05 -4.16944e-07
3.85627e-06 -4.16944e-07 5.11828e-05
0.00229679 -0.00035482 -8.96534e-07
-0.00035482 -7.23457e-05 3.43351e-06
-8.96534e-07 3.43351e-06 0.00016688
0.000527484 -4.966e-05 -2.4334e-06
-4.966e-05 0.000104192 -7.23595e-07
-2.4334e-06 -7.23595e-07 -2.09486e-05
0.000996921 -0.000153608 -6.49e-06
-0.000153608 0.000343811 5.82103e-06
-6.49e-06 5.82103e-06 0.000204003
0.00177306 -0.000559469 5.69556e-06
-0.000559469 -0.000219835 -2.99387e-06
5.69556e-06 -2.99387e-06 -0.000136996
0.00172288 -0.00075685 1.01673e-06
-0.00075685 -1.36787e-06 -9.60228e-07
1.01673e-06 -9.60228e-07 -0.000225389
0.00088061 -0.00065575 -7.05384e-08
-0.00065575 -0.000160974 -1.55432e-06
-7.05384e-08 -1.55432e-06 -0.000427704
0.00163477 -0.000299813 9.13001e-07
-0.000299813 0.000877638 -1.82317e-05
9.13001e-07 -1.82317e-05 0.000555523
0.00169379 -0.000629077 -1.01025e-06
-0.000629077 0.00123682 2.71636e-06
-1.01025e-06 2.71636e-06 0.0004572
0.00439086 -0.000657103 -4.61022e-05
-0.000657103 0.000953571 1.46572e-05
-4.61022e-05 1.46572e-05 0.00111432
0.00381371 -0.000850132 -5.29525e-05
-0.000850132 0.00114217 1.40166e-05
-5.29525e-05 1.40166e-05 0.000999999
0.00193324 -0.000846603 -5.01255e-06
-0.000846603 0.000217053 -1.38999e-06
-5.01255e-06 -1.38999e-06 -2.36414e-05
-0.00064295 -0.000407242 -1.21521e-05
-0.000407242 -0.000752029 1.95798e-05
-1.21521e-05 1.95798e-05 -0.000905606
0.000335315 -0.000130278 1.72311e-06
-0.000130278 1.55329e-05 7.65767e-06
1.72311e-06 7.65767e-06 -0.000177498
0.000442729 -0.000164381 4.30261e-06
-0.000164381 0.000132029 -6.01981e-07
4.30261e-06 -6.01981e-07 -9.12498e-05
0.0016605 -0.000230834 -3.22427e-06
-0.000230834 0.00119604 -1.97536e-05
-3.22427e-06 -1.97536e-05 0.000581204
-0.00635743 -0.000284393 0.000453254
-0.000284393 -0.0045024 -1.09546e-05
0.000453254 -1.09546e-05 -0.00358495
0.01122 -0.000283294 5.46817e-05
-0.000283294 0.00174516 8.89938e-06
5.46817e-05 8.89938e-06 0.0015083
0.00204297 0.000272732 6.67366e-06
0.000272732 0.000981716 -6.90323e-06
6.67366e-06 -6.90323e-06 0.000792611
0.00155193 0.000461113 -4.05206e-06
0.000461113 0.000490121 4.53417e-06
-4.05206e-06 4.53417e-06 0.000174172
0.00277429 0.000582334 9.08994e-05
0.000582334 0.00043417 3.91273e-05
9.08994e-05 3.91273e-05 0.000422775
0.00305257 0.000879856 2.61316e-05
0.000879856 0.000811778 1.1689e-05
2.61316e-05 1.1689e-05 0.00052991
0.00274859 0.000744314 1.69557e-05
0.000744314 0.00104597 5.87962e-06
1.69557e-05 5.87962e-06 0.000628143
0.0145056 0.000683613 7.50685e-05
0.000683613 0.00309459 -3.33627e-05
7.50685e-05 -3.33627e-05 0.00220111
0.0083799 0.00190236 -0.000196453
0.00190236 -1.22733e-05 2.41084e-05
-0.000196453 2.41084e-05 0.000531719
0.00287706 0.00111935 2.09976e-06
0.00111935 0.000680132 -2.94494e-05
2.09976e-06 -2.94494e-05 0.000212347
0.0121466 -0.00337604 -0.000408281
-0.00337604 0.00517608 -2.52461e-05
-0.000408281 -2.52461e-05 0.00311153
-0.000308188 -0.0069078 -0.00198519
-0.0069078 0.00177242 -0.00130851
-0.00198519 -0.00130851 0.000247517
0.00091812 0.000282576 9.83316e-07
0.000282576 0.000331126 2.68706e-07
9.83316e-07 2.68706e-07 0.000106285
-0.00211482 -0.0019807 0.000365747
-0.0019807 -0.00270973 6.32687e-05
0.000365747 6.32687e-05 -0.00403562
-0.00312394 -0.00165788 -0.000389325
-0.00165788 0.00425178 -0.000176015
-0.000389325 -0.000176015 -0.000259399
0.00329934 0.00092499 -1.75575e-05
0.00092499 0.000753977 2.5096e-07
-1.75575e-05 2.5096e-07 0.000649093
0.00108494 0.000390834 -7.04645e-06
0.000390834 0.000231051 6.87951e-06
-7.04645e-06 6.87951e-06 -7.19613e-05
0.00129129 0.000694111 4.63816e-06
0.000694111 0.000266171 2.67837e-06
4.63816e-06 2.67837e-06 -9.25065e-05
0.00155009 0.000976281 4.58606e-05
0.000976281 0.000256884 2.65498e-05
4.58606e-05 2.65498e-05 5.67408e-06
0.0132696 0.00197117 -0.000131593
0.00197117 0.00126558 -7.96073e-05
-0.000131593 -7.96073e-05 -0.000634031
0.0049958 0.00258987 -5.97612e-05
0.00258987 -3.72523e-06 -4.82051e-05
-5.97612e-05 -4.82051e-05 0.000266917
0.0164316 -0.00414061 0.000423523
-0.00414061 0.00658652 -1.05458e-05
0.000423523 -1.05458e-05 0.00411471
0.0127478 -0.00352116 0.000194548
-0.00352116 0.00149679 0.000629658
0.000194548 0.000629658 0.000502406
0.00265369 0.000392825 -1.9673e-05
0.000392825 0.0013427 -1.31166e-05
-1.9673e-05 -1.31166e-05 0.00114131
-0.0101739 0.00102777 -0.000134718
0.00102777 0.00288753 -0.000123242
-0.000134718 -0.000123242 -0.00272336
0.00447241 0.000692523 -0.000317714
0.000692523 0.0034003 -0.000426078
-0.000317714 -0.000426078 -0.00102342
0.00308322 0.00073538 -2.61176e-05
0.00073538 0.000913903 3.08746e-06
-2.61176e-05 3.08746e-06 0.000879145
0.00203638 0.000683273 -6.52652e-05
0.000683273 0.000814317 -2.56504e-05
-6.52652e-05 -2.56504e-05 0.000480082
0.00171193 0.000755821 -8.1878e-05
0.000755821 0.00117052 -1.81551e-05
-8.1878e-05 -1.81551e-05 0.000494021
-0.000719778 0.00157221 -4.56747e-05
0.00157221 -0.000473616 -3.43552e-05
-4.56747e-05 -3.43552e-05 -0.000666708
-0.000631042 0.00229242 0.000333641
0.00229242 -0.00190896 0.000122448
0.000333641 0.000122448 -0.00476929
0.017504 -0.00494593 0.000261995
-0.00494593 0.0082064 0.000605835
0.000261995 0.000605835 0.00515469
0.00809605 -0.0012258 -0.000138028
-0.0012258 -0.00203069 -0.000128545
-0.000138028 -0.000128545 -0.000914737
-0.00090848 9.02908e-05 2.43605e-06
9.02908e-05 -0.000689516 -8.61661e-06
2.43605e-06 -8.61661e-06 -0.000814595
0.00146915 0.000252916 1.14393e-05
0.000252916 0.000695749 2.97602e-06
1.14393e-05 2.97602e-06 0.000536082
-0.000306845 8.69326e-05 -1.27301e-06
8.69326e-05 -0.000313742 -6.40068e-06
-1.27301e-06 -6.40068e-06 -0.00046013
0.000351166 5.29278e-05 1.94452e-06
5.29278e-05 -5.12917e-05 -9.38647e-07
1.94452e-06 -9.38647e-07 -0.000180176
0.00091064 7.64903e-05 -9.98747e-07
7.64903e-05 0.000316491 -1.98177e-06
-9.98747e-07 -1.98177e-06 0.000143875
0.000619986 4.47676e-06 -1.51314e-06
4.47676e-06 0.000139125 1.50904e-06
-1.51314e-06 1.50904e-06 -2.81334e-05
0.000534564 6.72746e-05 4.60975e-06
6.72746e-05 7.73478e-05 2.81656e-06
4.60975e-06 2.81656e-06 -8.44355e-05
-0.000176286 6.16666e-05 -4.82569e-06
6.16666e-05 -0.000314976 -3.15622e-07
-4.82569e-06 -3.15622e-07 -0.000456847
0.000751348 4.78436e-05 1.02633e-07
4.78436e-05 0.000221136 -9.73566e-07
1.02633e-07 -9.73566e-07 5.35144e-05
0.000741146 7.46809e-05 8.07196e-07
7.46809e-05 0.000210736 -5.70917e-07
8.07196e-07 -5.70917e-07 5.60981e-05
0.000818179 -5.33142e-05 -8.82041e-07
-5.33142e-05 0.000246389 1.81537e-06
-8.82041e-07 1.81537e-06 8.45019e-05
-0.000690394 2.12004e-05 3.09537e-06
2.12004e-05 -0.000530617 5.29431e-07
3.09537e-06 5.29431e-07 -0.000717915
-0.000219334 4.55806e-05 -2.78828e-06
4.55806e-05 -1.67039e-05 3.8452e-06
-2.78828e-06 3.8452e-06 -0.000312923
0.000686127 -2.68523e-05 -4.12737e-06
-2.68523e-05 0.00022069 -6.63703e-06
-4.12737e-06 -6.63703e-06 5.75286e-05
0.000916743 -2.11116e-05 3.1096e-07
-2.11116e-05 0.000333329 -1.18725e-06
3.1096e-07 -1.18725e-06 0.000153475
0.000794474 -7.39298e-05 -1.69548e-07
-7.39298e-05 0.000251045 -1.21566e-06
-1.69548e-07 -1.21566e-06 7.90525e-05
0.00055757 -6.36039e-05 2.98521e-06
-6.36039e-05 5.09306e-05 4.43067e-06
2.98521e-06 4.43067e-06 -7.70838e-05
0.000827537 -7.42861e-05 9.41653e-07
-7.42861e-05 0.00027007 -1.3218e-06
9.41653e-07 -1.3218e-06 9.43848e-05
0.00073752 -3.15217e-05 -1.48518e-06
-3.15217e-05 0.000187067 2.65209e-07
-1.48518e-06 2.65209e-07 5.11016e-05
-0.000224814 -6.01861e-05 1.84405e-06
-6.01861e-05 -0.000398871 3.17275e-06
1.84405e-06 3.17275e-06 -0.000512407
0.000360826 -3.19266e-05 3.87576e-07
-3.19266e-05 -1.22478e-05 -1.02632e-06
3.87576e-07 -1.02632e-06 -0.00015762
0.000171059 -2.01376e-05 -6.39503e-06
-2.01376e-05 -9.93764e-05 -4.57349e-06
-6.39503e-06 -4.57349e-06 -0.000258864
5.78897e-05 -7.23361e-05 2.67337e-06
-7.23361e-05 -0.000189449 -3.54732e-06
2.67337e-06 -3.54732e-06 -0.000320328
0.00108035 -0.000103787 6.31886e-06
-0.000103787 0.000311256 -1.31613e-05
6.31886e-06 -1.31613e-05 0.000210167
-0.000378174 -3.91227e-05 1.05013e-07
-3.91227e-05 -0.000592409 3.53956e-06
1.05013e-07 3.53956e-06 -0.000722628
3.98638e-05 -4.53571e-05 -5.67501e-06
-4.53571e-05 -0.000221635 -2.07863e-06
-5.67501e-06 -2.07863e-06 -0.000368471
0.000718282 -6.2652e-05 7.49555e-07
-6.2652e-05 0.000175164 -8.87241e-07
7.49555e-07 -8.87241e-07 2.46749e-05
0.000271555 -3.99556e-05 3.5258e-07
-3.99556e-05 -9.22589e-05 -8.75097e-07
3.5258e-07 -8.75097e-07 -0.00023816
0.000699462 -9.21354e-05 2.53819e-07
-9.21354e-05 0.000193504 -1.94143e-08
2.53819e-07 -1.94143e-08 4.43952e-05
0.000482694 -1.94049e-05 1.98214e-07
-1.94049e-05 1.93664e-05 1.72304e-06
1.98214e-07 1.72304e-06 -9.40881e-05
0.000859751 -8.41038e-05 -1.10571e-06
-8.41038e-05 0.000285846 5.4251e-07
-1.10571e-06 5.4251e-07 0.000142259
0.000631144 -7.44552e-05 -9.29163e-07
-7.44552e-05 0.000117501 7.46179e-08
-9.29163e-07 7.46179e-08 -4.85871e-08
0.000448257 3.26633e-05 -9.09629e-07
3.26633e-05 -2.32359e-05 3.52587e-06
-9.09629e-07 3.52587e-06 -9.85041e-05
0.000491267 -9.65612e-05 2.14072e-06
-9.65612e-05 2.60724e-05 -1.05005e-06
2.14072e-06 -1.05005e-06 -9.40151e-05
0.000532796 -3.06686e-05 -3.08903e-07
-3.06686e-05 2.73229e-05 1.06915e-07
-3.08903e-07 1.06915e-07 -4.50157e-05
0.00142641 8.28624e-06 -6.87211e-06
8.28624e-06 0.000556588 6.75033e-06
-6.87211e-06 6.75033e-06 0.000537232
0.000513069 -5.23882e-05 1.54305e-06
-5.23882e-05 2.3324e-05 -3.10707e-06
1.54305e-06 -3.10707e-06 -5.18178e-05
0.000892062 -1.14883e-05 -5.38008e-06
-1.14883e-05 0.000231496 7.62381e-07
-5.38008e-06 7.62381e-07 0.000210661
0.000758181 1.31322e-05 7.27672e-07
1.31322e-05 0.000134344 2.12211e-06
7.27672e-07 2.12211e-06 0.000138754
0.000452155 -8.20709e-06 2.17544e-06
-8.20709e-06 -3.79094e-05 -4.44456e-06
2.17544e-06 -4.44456e-06 -5.98043e-05
0.00252155 1.37192e-05 6.47765e-06
1.37192e-05 0.00123296 4.38263e-08
6.47765e-06 4.38263e-08 0.00124605
0.00253558 2.32189e-06 -5.49335e-08
2.32189e-06 0.00124166 -5.10779e-06
-5.49335e-08 -5.10779e-06 0.00125465
0.00100387 7.60406e-05 -4.86327e-07
7.60406e-05 0.000350819 5.96137e-07
-4.86327e-07 5.96137e-07 0.000254033
0.000523461 5.58034e-05 -1.55788e-06
5.58034e-05 2.23654e-05 -2.11244e-06
-1.55788e-06 -2.11244e-06 -2.63524e-05
0.000560141 -1.4235e-05 1.4988e-07
-1.4235e-05 8.0988e-05 8.25647e-07
1.4988e-07 8.25647e-07 -1.36454e-05
0.000508976 5.86173e-06 8.81347e-07
5.86173e-06 -2.57287e-05 -3.24489e-06
8.81347e-07 -3.24489e-06 -3.38477e-05
0.00049155 -1.40307e-05 6.34407e-07
-1.40307e-05 -1.9419e-06 -1.28589e-07
6.34407e-07 -1.28589e-07 -4.58641e-05
0.000553264 -5.38429e-05 -1.39526e-06
-5.38429e-05 3.82583e-05 1.76373e-06
-1.39526e-06 1.76373e-06 -9.22963e-06
0.000503219 7.32644e-06 -4.0949e-07
7.32644e-06 -2.97944e-05 -2.25487e-08
-4.0949e-07 -2.25487e-08 -3.81374e-05
0.0019668 2.01791e-05 2.91786e-07
2.01791e-05 0.000884855 -4.63767e-06
2.91786e-07 -4.63767e-06 0.000902598
0.00110052 2.26262e-05 -7.48523e-07
2.26262e-05 0.000342198 1.90954e-06
-7.48523e-07 1.90954e-06 0.00033612
0.00131843 2.79125e-05 -7.17595e-07
2.79125e-05 0.000482354 6.50437e-10
-7.17595e-07 6.50437e-10 0.000495665
0.000810598 3.32726e-05 -9.96702e-06
3.32726e-05 0.000171271 7.1233e-06
-9.96702e-06 7.1233e-06 0.000178545
-0.00919528 0.000955382 0.000406366
0.000955382 -0.00340804 -1.70447e-05
0.000406366 -1.70447e-05 -0.00570556
-0.00182502 -2.85709e-05 0.000822967
-2.85709e-05 0.00511461 -0.000207899
0.000822967 -0.000207899 0.00195425
0.00286754 0.000282905 -0.000170955
0.000282905 -0.00162455 -2.42381e-05
-0.000170955 -2.42381e-05 -0.000312352
0.00134084 3.62785e-05 2.02756e-05
3.62785e-05 -0.00103974 -3.79032e-05
2.02756e-05 -3.79032e-05 -0.000699243
0.00162784 -6.45767e-05 6.51785e-06
-6.45767e-05 -0.000239876 1.16046e-05
6.51785e-06 1.16046e-05 -0.00021107
-0.000919515 4.76986e-05 -7.69707e-05
4.76986e-05 -0.00121132 -2.16891e-05
-7.69707e-05 -2.16891e-05 -0.00043187
0.0037021 -0.00031353 3.28128e-06
-0.00031353 0.000493416 4.95583e-06
3.28128e-06 4.95583e-06 0.000571512
0.0115047 -2.61922e-05 0.000152177
-2.61922e-05 -7.78274e-05 -5.79069e-05
0.000152177 -5.79069e-05 -0.000950735
0.000108567 0.00288348 -5.20029e-06
0.00288348 0.000477451 -5.31876e-05
-5.20029e-06 -5.31876e-05 -0.00236912
0.00830834 0.00570712 -0.00040262
0.00570712 0.00605068 0.000214089
-0.00040262 0.000214089 0.0045924
0.0021744 -0.000608447 5.81163e-05
-0.000608447 -0.00162549 -4.15616e-05
5.81163e-05 -4.15616e-05 -0.000774634
0.0148705 -0.00172137 0.000190995
-0.00172137 0.00217956 -7.17049e-05
0.000190995 -7.17049e-05 0.000596888
0.0120085 0.00534699 0.000345995
0.00534699 0.00335996 -0.000499473
0.000345995 -0.000499473 0.00112741
0.0159195 0.0035041 -0.000305726
0.0035041 0.00430781 0.00023781
-0.000305726 0.00023781 0.00289226
0.000862681 0.000144154 -2.15495e-06
0.000144154 0.000308736 3.76988e-06
-2.15495e-06 3.76988e-06 0.000149688
0.000388333 3.12926e-05 1.96742e-07
3.12926e-05 -2.64685e-05 -8.87361e-07
1.96742e-07 -8.87361e-07 -0.000125809
0.000579221 -9.45549e-05 5.06055e-07
-9.45549e-05 9.56883e-05 9.28441e-07
5.06055e-07 9.28441e-07 1.33862e-06
0.000614192 3.6667e-06 4.39113e-06
3.6667e-06 0.000123371 -6.16889e-07
4.39113e-06 -6.16889e-07 9.44379e-06
0.000701644 6.71524e-05 1.89301e-06
6.71524e-05 0.000212767 1.19941e-06
1.89301e-06 1.19941e-06 8.43189e-05
0.000558641 1.01286e-05 3.99166e-07
1.01286e-05 0.000111947 6.88352e-06
3.99166e-07 6.88352e-06 -4.40832e-05
0.000709182 9.02208e-05 1.20201e-06
9.02208e-05 0.000178632 2.87382e-06
1.20201e-06 2.87382e-06 4.94768e-05
0.000504003 5.18184e-05 5.15972e-06
5.18184e-05 3.73575e-05 9.8683e-07
5.15972e-06 9.8683e-07 -9.76011e-05
0.000739616 -3.89281e-05 2.62737e-06
-3.89281e-05 0.000216711 -1.18668e-06
2.62737e-06 -1.18668e-06 8.53126e-05
0.00047727 -1.07864e-05 7.20478e-07
-1.07864e-05 2.08342e-05 -2.30121e-06
7.20478e-07 -2.30121e-06 -8.14978e-05
0.00146227 -0.00030852 2.77308e-05
-0.00030852 -0.000466796 -1.76297e-06
2.77308e-05 -1.76297e-06 -0.000240852
0.00115562 -0.000519719 3.75883e-05
-0.000519719 -0.00056599 -8.12738e-06
3.75883e-05 -8.12738e-06 -0.000450688
0.00076284 -0.00063727 1.04766e-05
-0.00063727 -0.000548109 1.68609e-06
1.04766e-05 1.68609e-06 -0.000694981
6.95517e-06 -0.000571719 1.25337e-06
-0.000571719 -0.00063135 1.47764e-06
1.25337e-06 1.47764e-06 -0.000882527
0.00316667 -0.000544899 8.03358e-06
-0.000544899 0.0019459 3.03197e-05
8.03358e-06 3.03197e-05 0.00131556
9.00505e-05 -0.000414049 3.34549e-06
-0.000414049 -5.70725e-05 -2.23831e-06
3.34549e-06 -2.23831e-06 -0.00045754
0.00148887 -0.000201854 3.71026e-06
-0.000201854 0.000631343 -1.1626e-06
3.71026e-06 -1.1626e-06 0.000509565
0.000835701 -4.09896e-05 -1.83276e-06
-4.09896e-05 0.000292299 2.91052e-06
-1.83276e-06 2.91052e-06 0.000162269
0.00222089 -0.000486242 1.15611e-05
-0.000486242 -0.000170507 -7.93772e-06
1.15611e-05 -7.93772e-06 2.90598e-05
0.000499582 -5.93596e-05 2.50458e-07
-5.93596e-05 0.000124861 8.67656e-07
2.50458e-07 8.67656e-07 -8.31184e-05
-0.000223182 -0.000145391 -4.21144e-07
-0.000145391 -0.000261943 -3.97286e-06
-4.21144e-07 -3.97286e-06 -0.000484756
0.00196195 -0.000696754 1.69702e-05
-0.000696754 0.000104337 -3.01969e-06
1.69702e-05 -3.01969e-06 5.20808e-05
0.00177214 -0.000854365 -9.4634e-07
-0.000854365 3.40854e-05 3.55609e-06
-9.4634e-07 3.55609e-06 -0.000140955
0.000220066 -0.000585098 1.72988e-05
-0.000585098 -0.00023633 -1.04537e-05
1.72988e-05 -1.04537e-05 -0.000485305
0.00136967 -0.000312691 2.36732e-06
-0.000312691 0.00102131 -1.47859e-05
2.36732e-06 -1.47859e-05 0.000411854
0.00296732 -0.000830978 -6.22664e-05
-0.000830978 0.000644346 3.00918e-05
-6.22664e-05 3.00918e-05 0.00036015
0.000795071 -0.000592788 -4.36591e-05
-0.000592788 -0.000305975 1.24079e-05
-4.36591e-05 1.24079e-05 -0.000351267
0.000902358 -0.000584586 -7.11106e-05
-0.000584586 0.000471268 5.21334e-05
-7.11106e-05 5.21334e-05 7.88164e-05
-0.00227234 -0.000204333 -3.95147e-06
-0.000204333 -0.0015473 9.17149e-06
-3.95147e-06 9.17149e-06 -0.00176114
-0.000565298 -9.1134e-05 4.19545e-06
-9.1134e-05 -0.000452831 7.97801e-06
4.19545e-06 7.97801e-06 -0.000705099
0.000573641 -5.49256e-05 8.66783e-06
-5.49256e-05 0.000324149 -9.62409e-06
8.66783e-06 -9.62409e-06 -2.73903e-05
-0.00191467 0.00101034 -0.000332282
0.00101034 0.00639524 1.70481e-05
-0.000332282 1.70481e-05 0.00234105
0.000700634 -0.00118998 -4.71135e-06
-0.00118998 0.00197477 2.08048e-05
-4.71135e-06 2.08048e-05 0.00145605
0.00187338 0.0010183 -9.76731e-05
0.0010183 -0.00471019 -4.13295e-05
-9.76731e-05 -4.13295e-05 -0.00500906
0.000304726 0.000228714 8.22296e-06
0.000228714 -1.28881e-05 -3.6128e-06
8.22296e-06 -3.6128e-06 -0.000232917
0.00108428 0.000469419 7.77825e-06
0.000469419 0.000276714 1.87993e-05
7.77825e-06 1.87993e-05 -7.49221e-05
0.00356451 0.000833767 6.11427e-05
0.000833767 0.000897698 2.08918e-05
6.11427e-05 2.08918e-05 0.000814702
0.00152351 0.000747559 1.55515e-05
0.000747559 0.000411579 2.52073e-05
1.55515e-05 2.52073e-05 2.55475e-05
0.0113713 -0.00227615 0.000164945
-0.00227615 0.00398354 4.6995e-05
0.000164945 4.6995e-05 0.00353848
0.00397295 0.000945385 -0.000339303
0.000945385 -0.0035369 -5.08931e-05
-0.000339303 -5.08931e-05 -0.00539019
0.00497179 0.00243812 -1.66595e-05
0.00243812 9.61765e-05 1.71328e-05
-1.66595e-05 1.71328e-05 0.000347352
0.00218525 0.00086636 4.15073e-05
0.00086636 0.000830064 -2.32141e-05
4.15073e-05 -2.32141e-05 0.000635147
0.00275205 -0.00275348 -0.000357986
-0.00275348 0.00195454 -0.000323104
-0.000357986 -0.000323104 -0.000586461
-0.000666202 -0.0025378 -0.000499451
-0.0025378 0.00460494 -0.000171765
-0.000499451 -0.000171765 -9.05772e-06
0.0196843 -0.00441581 0.00054508
-0.00441581 0.00504359 0.000317594
0.00054508 0.000317594 0.00395083
0.000427574 0.000208219 1.52778e-05
0.000208219 4.58947e-05 -4.01357e-06
1.52778e-05 -4.01357e-06 -0.000145345
-0.00400513 0.000384701 -0.000162116
0.000384701 0.00465802 -3.52383e-05
-0.000162116 -3.52383e-05 -5.75023e-05
0.00504028 0.000907197 -8.66841e-05
0.000907197 0.00293204 -0.000150809
-8.66841e-05 -0.000150809 -0.00185806
0.00159007 0.000706152 8.87473e-06
0.000706152 0.000220104 4.43133e-06
8.87473e-06 4.43133e-06 0.000138492
0.000557962 0.000517205 9.8188e-06
0.000517205 0.000104974 4.16636e-06
9.8188e-06 4.16636e-06 -0.000242809
0.000262225 0.000756039 -4.05866e-05
0.000756039 0.000229795 -5.78232e-05
-4.05866e-05 -5.78232e-05 -0.00029277
0.00356154 0.00251605 1.72708e-05
0.00251605 0.00103501 1.81093e-05
1.72708e-05 1.81093e-05 0.000764628
0.0165418 0.00314601 7.00628e-05
0.00314601 0.00431659 1.96945e-05
7.00628e-05 1.96945e-05 0.00222025
0.00631088 -0.00309934 7.61282e-05
-0.00309934 0.00185701 -7.0558e-05
7.61282e-05 -7.0558e-05 -0.00176804
0.0138648 -0.0021215 -2.69693e-06
-0.0021215 0.00196286 -6.39621e-05
-2.69693e-06 -6.39621e-05 0.00324031
0.00058143 0.000364422 -1.03565e-05
0.000364422 0.000174829 -9.17075e-06
-1.03565e-05 -9.17075e-06 -6.16632e-05
0.00217457 0.000183542 -0.000278243
0.000183542 0.00184011 -6.04667e-05
-0.000278243 -6.04667e-05 -0.00207309
0.000535101 0.000517127 -9.1795e-05
0.000517127 -0.0001646 -0.000158676
-9.1795e-05 -0.000158676 -0.0017225
-0.000985759 0.000221056 4.8014e-06
0.000221056 -0.000359022 -2.28545e-05
4.8014e-06 -2.28545e-05 -0.000584528
-0.000437237 0.000473101 -0.000133403
0.000473101 0.00106681 3.09385e-06
-0.000133403 3.09385e-06 0.000216635
0.0140725 0.00384111 9.21256e-05
0.00384111 0.00466298 -3.03834e-05
9.21256e-05 -3.03834e-05 0.00072002
-0.00350572 -0.00437752 -2.43447e-07
-0.00437752 -0.000847361 0.000221225
-2.43447e-07 0.000221225 -0.00496535
0.0109965 0.00054036 4.76485e-05
0.00054036 -0.00146164 -0.00030015
4.76485e-05 -0.00030015 0.00112301
0.000887332 0.000176351 -4.39288e-06
0.000176351 0.000310202 1.42848e-05
-4.39288e-06 1.42848e-05 0.000174006
0.000823023 0.000196044 -9.7811e-06
0.000196044 0.00038236 -4.09703e-06
-9.7811e-06 -4.09703e-06 0.000211289
-0.000413207 8.55261e-05 2.55183e-06
8.55261e-05 -0.000148561 -1.98141e-06
2.55183e-06 -1.98141e-06 -0.000425379
0.000710005 8.60191e-05 -1.62315e-06
8.60191e-05 0.000180891 -2.07115e-06
-1.62315e-06 -2.07115e-06 2.36728e-05
0.00106652 -3.97722e-05 -1.02068e-06
-3.97722e-05 0.00040605 3.344e-06
-1.02068e-06 3.344e-06 0.000236662
0.000466542 7.03231e-05 2.65079e-06
7.03231e-05 3.15341e-05 1.3057e-06
2.65079e-06 1.3057e-06 -0.000115533
-0.00101693 1.29447e-05 2.16512e-06
1.29447e-05 -0.000705681 4.8064e-07
2.16512e-06 4.8064e-07 -0.000893436
0.000766776 -2.78296e-05 1.21686e-06
-2.78296e-05 0.000217519 1.90017e-07
1.21686e-06 1.90017e-07 5.5534e-05
0.000624268 8.18666e-06 -2.20813e-07
8.18666e-06 0.000185705 -2.47894e-06
-2.20813e-07 -2.47894e-06 2.03604e-05
-0.000238468 1.32548e-05 1.15808e-06
1.32548e-05 4.48709e-06 2.64472e-06
1.15808e-06 2.64472e-06 -0.000319768
-0.000260252 5.89201e-05 -5.59263e-06
5.89201e-05 0.00016745 8.40114e-06
-5.59263e-06 8.40114e-06 -0.000280602
1.86285e-05 -2.29382e-06 -2.75871e-06
-2.29382e-06 0.000193922 -1.94402e-06
-2.75871e-06 -1.94402e-06 -0.000161084
0.000763236 7.45118e-06 -1.49696e-06
7.45118e-06 0.000241264 -6.47285e-06
-1.49696e-06 -6.47285e-06 9.53552e-05
0.000666647 -0.00013117 1.43849e-06
-0.00013117 0.000153345 1.04046e-06
1.43849e-06 1.04046e-06 -1.04525e-05
0.000512371 -1.28573e-05 1.1012e-06
-1.28573e-05 3.86013e-05 1.60963e-06
1.1012e-06 1.60963e-06 -9.15197e-05
0.000477333 -8.99382e-05 9.77095e-07
-8.99382e-05 3.79587e-05 9.86017e-06
9.77095e-07 9.86017e-06 -6.63956e-05
0.000278333 -3.65385e-05 2.1322e-06
-3.65385e-05 -5.56818e-05 3.29445e-06
2.1322e-06 3.29445e-06 -0.000199619
0.00062137 -3.92029e-05 1.60332e-07
-3.92029e-05 0.000141372 3.96829e-07
1.60332e-07 3.96829e-07 -1.74165e-06
0.000500183 -4.53605e-05 1.43791e-07
-4.53605e-05 7.63206e-05 -1.81853e-06
1.43791e-07 -1.81853e-06 -5.26519e-05
0.000474298 -4.90974e-05 -6.91852e-06
-4.90974e-05 4.45361e-05 -4.51827e-06
-6.91852e-06 -4.51827e-06 -8.32274e-05
0.000370516 -5.76554e-05 6.38221e-06
-5.76554e-05 0.000141404 -6.66516e-06
6.38221e-06 -6.66516e-06 -2.23984e-05
0.00019321 -0.000149522 -3.59048e-07
-0.000149522 -0.00031735 3.04773e-06
-3.59048e-07 3.04773e-06 -0.000413743
0.000748734 -0.000131249 -8.89744e-06
-0.000131249 0.000130111 -7.67322e-07
-8.89744e-06 -7.67322e-07 2.05529e-05
0.000367686 -0.000155803 6.05311e-06
-0.000155803 -0.000105249 6.64659e-06
6.05311e-06 6.64659e-06 -0.000253165
0.00197527 -0.000456345 1.67714e-06
-0.000456345 0.000768778 1.70883e-05
1.67714e-06 1.70883e-05 0.000475544
0.00161794 -0.000201199 2.26472e-06
-0.000201199 0.00070177 -5.07896e-06
2.26472e-06 -5.07896e-06 0.000519236
-0.000172923 -7.13693e-05 -9.71677e-06
-7.13693e-05 -0.000422581 -4.66554e-06
-9.71677e-06 -4.66554e-06 -0.000545442
0.000532631 -6.59752e-05 1.38473e-07
-6.59752e-05 5.42353e-05 -3.01472e-07
1.38473e-07 -3.01472e-07 -9.15042e-05
-3.25271e-06 -4.73582e-05 -1.05198e-06
-4.73582e-05 -0.000255606 -2.01754e-06
-1.05198e-06 -2.01754e-06 -0.000413509
0.000843374 -8.548e-05 -6.84021e-07
-8.548e-05 0.000246015 9.26069e-07
-6.84021e-07 9.26069e-07 9.50696e-05
0.000757421 -0.000107997 -7.8357e-07
-0.000107997 0.000217501 7.22929e-07
-7.8357e-07 7.22929e-07 5.87611e-05
0.000553532 -5.43494e-05 -2.36916e-07
-5.43494e-05 5.12314e-05 1.62017e-06
-2.36916e-07 1.62017e-06 -6.4413e-05
0.0012491 -0.000155221 -7.17236e-07
-0.000155221 0.000551243 -1.06283e-06
-7.17236e-07 -1.06283e-06 0.000380148
0.000664838 -9.24169e-05 -5.09671e-07
-9.24169e-05 0.000132798 -2.45038e-08
-5.09671e-07 -2.45038e-08 1.41217e-05
0.000513176 1.50636e-05 -2.32505e-06
1.50636e-05 1.42989e-05 2.92966e-06
-2.32505e-06 2.92966e-06 -6.22944e-05
0.000726204 -0.000121997 1.81957e-06
-0.000121997 0.000177014 -2.10291e-06
1.81957e-06 -2.10291e-06 5.51482e-05
0.000599095 -4.67198e-05 -2.15723e-07
-4.67198e-05 6.54483e-05 1.66812e-07
-2.15723e-07 1.66812e-07 -8.85604e-06
0.00144177 1.36647e-05 -1.14817e-05
1.36647e-05 0.000561889 6.98533e-06
-1.14817e-05 6.98533e-06 0.000541225
0.000554927 -6.1072e-05 2.4886e-06
-6.1072e-05 4.75875e-05 -3.39862e-06
2.4886e-06 -3.39862e-06 -2.93365e-05
0.000892364 -5.48252e-06 -6.53965e-06
-5.48252e-06 0.000226061 6.90053e-07
-6.53965e-06 6.90053e-07 0.000204145
0.000787942 2.23695e-05 7.56844e-07
2.23695e-05 0.000150679 2.61438e-06
7.56844e-07 2.61438e-06 0.000153266
0.000455584 -2.05292e-05 1.96721e-06
-2.05292e-05 -4.0531e-05 -4.69836e-06
1.96721e-06 -4.69836e-06 -6.34103e-05
0.00164403 2.26079e-05 9.02697e-06
2.26079e-05 0.000686948 -1.49108e-06
9.02697e-06 -1.49108e-06 0.000695582
0.00250144 1.42903e-05 8.5734e-06
1.42903e-05 0.00122004 -5.13556e-06
8.5734e-06 -5.13556e-06 0.00123314
0.000560032 4.20398e-05 2.0233e-06
4.20398e-05 5.86191e-05 -1.03634e-06
2.0233e-06 -1.03634e-06 -3.90169e-05
0.000603892 5.52046e-05 -8.93069e-07
5.52046e-05 6.70232e-05 -1.69938e-06
-8.93069e-07 -1.69938e-06 1.57043e-05
0.000613969 -6.87879e-07 1.15683e-06
-6.87879e-07 0.000104637 6.35102e-07
1.15683e-06 6.35102e-07 1.07433e-05
0.000495076 1.97492e-06 1.41271e-06
1.97492e-06 -3.32062e-05 -3.5227e-06
1.41271e-06 -3.5227e-06 -4.20827e-05
0.000512947 4.59925e-05 1.19179e-07
4.59925e-05 1.17714e-05 -1.13547e-07
1.19179e-07 -1.13547e-07 -3.45347e-05
0.000555203 -0.000108275 -3.23177e-06
-0.000108275 7.05498e-05 5.02922e-07
-3.23177e-06 5.02922e-07 -1.87485e-05
0.00198613 6.66543e-06 -4.79553e-06
6.66543e-06 0.000895062 -4.71695e-06
-4.79553e-06 -4.71695e-06 0.000913449
0.000488784 4.48753e-06 -2.43509e-07
4.48753e-06 -3.77926e-05 1.54891e-08
-2.43509e-07 1.54891e-08 -4.58963e-05
0.000517421 -1.70203e-05 -1.89087e-06
-1.70203e-05 1.20938e-05 1.82329e-06
-1.89087e-06 1.82329e-06 -3.07255e-05
0.000486155 6.25814e-06 -1.27433e-06
6.25814e-06 -4.08433e-05 3.20935e-06
-1.27433e-06 3.20935e-06 -4.91201e-05
0.00199972 2.16713e-05 -4.97182e-06
2.16713e-05 0.000905502 -8.95016e-08
-4.97182e-06 -8.95016e-08 0.000923038
0.00195614 3.48805e-05 -6.57525e-06
3.48805e-05 0.000880827 4.44058e-06
-6.57525e-06 4.44058e-06 0.000897537
-0.00652387 -0.00137107 -0.000144443
-0.00137107 0.00451871 4.85627e-05
-0.000144443 4.85627e-05 0.000762646
0.00115762 0.00108867 -0.000209671
0.00108867 0.000237199 6.16625e-05
-0.000209671 6.16625e-05 -0.00136626
0.00294309 -0.000870971 -0.00053823
-0.000870971 0.00120856 0.000241512
-0.00053823 0.000241512 -0.00318314
-0.00170196 0.000304097 0.000909975
0.000304097 0.00508285 -0.000312259
0.000909975 -0.000312259 0.0015918
0.00140414 0.000460463 -2.27467e-05
0.000460463 -0.00132195 -2.25908e-05
-2.27467e-05 -2.25908e-05 -0.000644565
0.00252838 -0.00037962 8.65424e-05
-0.00037962 -0.000270865 4.89009e-06
8.65424e-05 4.89009e-06 -0.000195178
0.000629643 -0.000360627 0.000221026
-0.000360627 -0.00414506 -6.68905e-05
0.000221026 -6.68905e-05 -0.00603423
0.0178834 0.0026171 -0.000585504
0.0026171 0.00809151 5.2683e-05
-0.000585504 5.2683e-05 0.00582581
0.000536753 0.00655951 -0.00189181
0.00655951 0.00168451 0.0012935
-0.00189181 0.0012935 0.000224276
0.00417447 -0.000480196 1.7899e-05
-0.000480196 -0.000361278 9.00495e-06
1.7899e-05 9.00495e-06 0.000143608
0.00886048 -0.00164624 0.000128073
-0.00164624 -0.000762946 -0.000114319
0.000128073 -0.000114319 -0.00311029
0.0188674 0.00458404 -0.000258056
0.00458404 0.00566838 -9.91267e-05
-0.000258056 -9.91267e-05 0.00360711
0.0118232 0.00364544 -5.83716e-05
0.00364544 0.00152367 0.000344953
-5.83716e-05 0.000344953 -0.000117636
0.00171639 -0.00138504 -0.000101788
-0.00138504 -0.00260731 1.75694e-05
-0.000101788 1.75694e-05 -0.00181771
0.00499818 -0.00274947 0.000329847
-0.00274947 -0.000183631 -0.000204496
0.000329847 -0.000204496 -0.00406003
0.00232366 0.00291786 8.5299e-05
0.00291786 -0.000493698 -0.000675505
8.5299e-05 -0.000675505 -0.0033367
0.00784906 0.00110047 -0.00022004
0.00110047 -0.00262829 5.46656e-06
-0.00022004 5.46656e-06 -0.00148153
0.00205169 -8.44094e-05 1.87504e-06
-8.44094e-05 0.00110226 1.33103e-05
1.87504e-06 1.33103e-05 0.000865125
0.000515364 0.000115192 -1.75811e-06
0.000115192 7.72217e-05 -2.34101e-06
-1.75811e-06 -2.34101e-06 -6.0675e-05
0.000534272 9.29832e-05 1.20115e-06
9.29832e-05 5.43874e-05 -1.86009e-06
1.20115e-06 -1.86009e-06 -3.96601e-05
0.000394527 3.09001e-05 5.98612e-06
3.09001e-05 2.05602e-05 -2.40221e-07
5.98612e-06 -2.40221e-07 -9.84423e-05
0.000420912 8.16296e-05 3.50663e-06
8.16296e-05 6.6516e-06 2.9662e-06
3.50663e-06 2.9662e-06 -0.000168506
0.000509353 3.78022e-05 -1.51463e-07
3.78022e-05 7.32208e-05 2.19168e-06
-1.51463e-07 2.19168e-06 -7.08501e-05
0.000415622 3.80072e-05 4.99436e-07
3.80072e-05 8.1202e-07 -2.62571e-06
4.99436e-07 -2.62571e-06 -0.000127015
0.000912694 0.000165697 2.94047e-06
0.000165697 0.000319502 4.88374e-06
2.94047e-06 4.88374e-06 0.000154173
0.000865469 0.000119617 1.38947e-08
0.000119617 0.000296123 1.67396e-07
1.38947e-08 1.67396e-07 0.000136366
0.000396055 -1.65924e-05 -4.69395e-06
-1.65924e-05 -6.60341e-06 -5.15714e-06
-4.69395e-06 -5.15714e-06 -0.000132112
0.000526019 -0.000384329 7.15266e-05
-0.000384329 -0.00105795 -3.22548e-05
7.15266e-05 -3.22548e-05 -0.000826847
0.000435511 -0.000589977 2.95726e-05
-0.000589977 -0.000751768 -8.66953e-06
2.95726e-05 -8.66953e-06 -0.000753713
0.00166795 -0.000852162 6.17214e-07
-0.000852162 -7.79871e-05 1.19242e-05
6.17214e-07 1.19242e-05 -0.0002001
-0.000766978 -0.000573401 7.0238e-06
-0.000573401 -0.000760419 -1.75905e-05
7.0238e-06 -1.75905e-05 -0.00109106
0.0031241 -0.000391144 -1.57989e-05
-0.000391144 0.0018779 5.46766e-05
-1.57989e-05 5.46766e-05 0.00140745
0.000917468 -0.000163233 -2.68649e-06
-0.000163233 0.000441337 4.6855e-06
-2.68649e-06 4.6855e-06 0.000202825
0.000327983 0.000115816 -2.95891e-06
0.000115816 1.05666e-05 -1.31423e-05
-2.95891e-06 -1.31423e-05 -0.000195675
0.000587041 -9.75382e-05 -2.00189e-06
-9.75382e-05 0.000189522 8.3811e-06
-2.00189e-06 8.3811e-06 -5.64848e-05
0.00168141 -0.000676897 -2.9052e-07
-0.000676897 -0.000151683 -4.90532e-06
-2.9052e-07 -4.90532e-06 -0.00022295
0.000647724 -4.91733e-05 8.96378e-07
-4.91733e-05 0.000229524 4.59378e-06
8.96378e-07 4.59378e-06 -2.08044e-06
0.00196958 -0.000247776 9.857e-07
-0.000247776 0.00115515 -1.40655e-06
9.857e-07 -1.40655e-06 0.000785751
0.00115024 -0.000637335 1.63245e-06
-0.000637335 -0.000130754 6.36934e-06
1.63245e-06 6.36934e-06 -0.000171447
0.000742731 -0.000607037 -2.1524e-05
-0.000607037 0.000310656 6.62297e-06
-2.1524e-05 6.62297e-06 -5.42134e-05
0.00292204 -0.00122764 3.10596e-05
-0.00122764 0.000476489 -1.60389e-05
3.10596e-05 -1.60389e-05 0.00048954
-0.00142189 -0.000354863 -5.67457e-06
-0.000354863 -0.00110412 2.28338e-05
-5.67457e-06 2.28338e-05 -0.00113203
-0.000745963 -9.14034e-05 1.0043e-05
-9.14034e-05 -0.000285605 3.58762e-06
1.0043e-05 3.58762e-06 -0.000749388
0.000682344 1.29109e-05 -3.04896e-06
1.29109e-05 0.000209446 -1.75243e-06
-3.04896e-06 -1.75243e-06 6.48748e-06
0.000960411 1.15893e-05 7.91233e-06
1.15893e-05 0.000535286 -7.39846e-06
7.91233e-06 -7.39846e-06 0.000251193
0.00134271 7.07644e-05 -2.99807e-05
7.07644e-05 0.0017384 -1.28319e-05
-2.99807e-05 -1.28319e-05 -0.00176787
-0.00570941 0.000354967 -0.000286802
0.000354967 0.00569514 -1.50665e-05
-0.000286802 -1.50665e-05 0.00121633
-0.0125745 -0.00190529 -0.000572334
-0.00190529 -0.00563823 -1.6078e-05
-0.000572334 -1.6078e-05 -0.00591944
-0.000876568 0.000132375 6.64694e-06
0.000132375 -0.000696972 -3.13709e-06
6.64694e-06 -3.13709e-06 -0.000900899
-0.000423473 0.000409683 -3.20745e-06
0.000409683 -0.000375144 1.03236e-05
-3.20745e-06 1.03236e-05 -0.000729315
0.00139137 0.000791048 2.72276e-05
0.000791048 0.000124418 2.27888e-05
2.72276e-05 2.27888e-05 1.72225e-05
-0.00547225 0.00153017 4.12833e-05
0.00153017 0.00490065 4.79954e-05
4.12833e-05 4.79954e-05 0.000768418
0.00565578 0.00267984 -0.000223188
0.00267984 0.000218167 -0.000138527
-0.000223188 -0.000138527 -0.00341396
0.00201406 0.00178282 0.000325094
0.00178282 0.000442273 0.000107609
0.000325094 0.000107609 0.000251268
-0.000165675 0.000722884 2.54062e-05
0.000722884 -0.00018867 -3.85109e-05
2.54062e-05 -3.85109e-05 -0.000390608
0.021966 -0.00319395 -0.000158987
-0.00319395 0.00699348 -0.000287652
-0.000158987 -0.000287652 0.00459053
0.00555264 0.00114027 0.000410488
0.00114027 0.00283391 0.000152009
0.000410488 0.000152009 -0.00232287
0.0133235 -0.00183334 0.000138962
-0.00183334 0.00212447 3.29497e-05
0.000138962 3.29497e-05 0.00350181
0.00111837 0.000415973 4.30519e-06
0.000415973 0.000549494 -1.55419e-06
4.30519e-06 -1.55419e-06 0.000301175
0.00377017 0.00039784 4.23153e-07
0.00039784 0.00268315 1.43631e-05
4.23153e-07 1.43631e-05 -0.000248837
0.00126243 0.000491662 5.13657e-05
0.000491662 4.28526e-05 6.15966e-06
5.13657e-05 6.15966e-06 -0.0015518
-0.000330834 0.000406449 -2.90828e-06
0.000406449 -0.000134298 -4.7688e-06
-2.90828e-06 -4.7688e-06 -0.000418294
0.000599415 0.000983206 -0.000102537
0.000983206 0.000980803 -4.6601e-05
-0.000102537 -4.6601e-05 -0.000224898
0.00120124 0.00354104 0.000158932
0.00354104 0.000535905 9.28535e-05
0.000158932 9.28535e-05 -0.00356903
0.00864845 0.000153515 -1.13099e-05
0.000153515 -0.00330588 -0.000194909
-1.13099e-05 -0.000194909 -0.000447712
0.00433045 -0.00233583 -6.18682e-05
-0.00233583 0.00258766 -0.000140759
-6.18682e-05 -0.000140759 -0.00141768
0.000995238 0.000325937 -4.44397e-06
0.000325937 0.000766165 -1.71015e-05
-4.44397e-06 -1.71015e-05 0.000472658
-0.00219867 0.000103371 8.14708e-06
0.000103371 -0.000116798 1.00713e-05
8.14708e-06 1.00713e-05 -0.00024982
0.00414614 -5.07501e-05 8.12053e-05
-5.07501e-05 -0.000245146 -0.000148869
8.12053e-05 -0.000148869 -0.00128694
0.00785252 0.00123857 0.000228249
0.00123857 -0.00232363 -2.10298e-05
0.000228249 -2.10298e-05 -0.00133272
-0.00204938 0.00011593 2.1714e-05
0.00011593 -8.22666e-05 -3.32346e-05
2.1714e-05 -3.32346e-05 -0.000824373
0.0127235 0.00282488 0.000243641
0.00282488 0.00584268 5.69704e-05
0.000243641 5.69704e-05 0.00100828
-0.00173089 -0.00043819 7.13459e-05
-0.00043819 0.00183998 0.0003552
7.13459e-05 0.0003552 -0.0013278
0.00270511 0.000381357 2.19308e-05
0.000381357 0.00154121 1.1859e-05
2.19308e-05 1.1859e-05 0.00132646
0.00061457 0.000202567 -5.32764e-06
0.000202567 0.000475794 -7.08149e-07
-5.32764e-06 -7.08149e-07 0.000164234
0.000106178 0.000111311 -6.84012e-08
0.000111311 0.0003888 9.90865e-07
-6.84012e-08 9.90865e-07 -6.50546e-06
0.000678815 0.000155791 1.35794e-06
0.000155791 0.000180335 1.29118e-06
1.35794e-06 1.29118e-06 1.04979e-05
0.000378777 4.72584e-05 1.74906e-06
4.72584e-05 2.5069e-05 1.48538e-06
1.74906e-06 1.48538e-06 -0.000132301
0.000409439 -3.30032e-05 7.39384e-06
-3.30032e-05 0.000403871 1.47046e-07
7.39384e-06 1.47046e-07 6.50755e-05
0.000424015 2.31574e-05 2.92706e-07
2.31574e-05 2.50809e-05 -7.76453e-07
2.92706e-07 -7.76453e-07 -0.000110927
0.000629509 -2.53288e-05 -2.05818e-06
-2.53288e-05 0.000544603 -2.42447e-06
-2.05818e-06 -2.42447e-06 0.000199474
0.000489352 5.16254e-05 6.32441e-07
5.16254e-05 0.000592864 -1.90588e-06
6.32441e-07 -1.90588e-06 0.000162589
-0.00026905 2.04699e-05 -1.14677e-05
2.04699e-05 0.000102159 2.45252e-06
-1.14677e-05 2.45252e-06 -0.000265844
0.0002802 -2.20703e-05 1.6253e-09
-2.20703e-05 0.000271414 -5.00468e-06
1.6253e-09 -5.00468e-06 -2.0916e-05
0.000245616 -6.24947e-05 1.03443e-06
-6.24947e-05 -9.86843e-05 7.95733e-06
1.03443e-06 7.95733e-06 -0.000226561
0.000826317 -4.99697e-05 -7.919e-07
-4.99697e-05 0.00026397 1.78701e-06
-7.919e-07 1.78701e-06 0.000120709
0.00115891 -4.68801e-05 -1.07068e-05
-4.68801e-05 0.000478334 8.76291e-06
-1.07068e-05 8.76291e-06 0.000346966
0.000778144 -7.65013e-05 2.56254e-06
-7.65013e-05 0.000361924 -4.44965e-07
2.56254e-06 -4.44965e-07 0.000210151
0.000594073 -4.86323e-05 -7.95609e-07
-4.86323e-05 0.000114606 -6.35343e-07
-7.95609e-07 -6.35343e-07 -1.14834e-05
0.000278065 -0.000141415 -1.70253e-07
-0.000141415 -4.61896e-05 1.48474e-06
-1.70253e-07 1.48474e-06 -0.000190777
7.1957e-05 -0.000129475 -1.01737e-05
-0.000129475 -0.00029762 -1.84746e-06
-1.01737e-05 -1.84746e-06 -0.000365778
-0.00075054 -0.000265281 8.64649e-06
-0.000265281 -0.000745477 1.411e-05
8.64649e-06 1.411e-05 -0.0010133
0.000386102 -0.000168494 5.6475e-06
-0.000168494 -6.99378e-05 -1.23098e-06
5.6475e-06 -1.23098e-06 -0.000186292
0.00121331 -0.00026032 -2.75895e-06
-0.00026032 0.000398446 9.29003e-06
-2.75895e-06 9.29003e-06 0.000221799
0.00200256 -0.000496652 -9.29707e-06
-0.000496652 0.000806891 1.20907e-05
-9.29707e-06 1.20907e-05 0.000480305
0.00155664 -0.000444238 -6.08958e-06
-0.000444238 0.00040465 7.16809e-07
-6.08958e-06 7.16809e-07 8.00886e-05
0.00105117 -0.000282426 -2.84135e-07
-0.000282426 0.000323658 4.23549e-06
-2.84135e-07 4.23549e-06 9.08038e-05
0.000263282 -0.000253356 1.05055e-05
-0.000253356 -0.000268585 -4.04799e-06
1.05055e-05 -4.04799e-06 -0.000512291
0.00118181 -0.000143612 2.03048e-06
-0.000143612 0.000469326 -2.62072e-06
2.03048e-06 -2.62072e-06 0.000259303
0.00133955 -0.000209352 -6.9948e-06
-0.000209352 0.000567752 -4.14405e-07
-6.9948e-06 -4.14405e-07 0.000368914
7.72786e-05 -0.000109382 8.89121e-06
-0.000109382 -0.000228523 -1.52448e-05
8.89121e-06 -1.52448e-05 -0.000344447
0.00109005 -8.9496e-05 6.97165e-08
-8.9496e-05 0.000369594 1.57607e-06
6.97165e-08 1.57607e-06 0.000224184
0.000261858 -7.52629e-05 7.50626e-07
-7.52629e-05 -9.32185e-05 -7.37942e-07
7.50626e-07 -7.37942e-07 -0.000252754
0.000613254 -4.92403e-05 6.15748e-07
-4.92403e-05 7.76237e-05 7.60682e-07
6.15748e-07 7.60682e-07 -4.57416e-05
0.0011636 -0.000174205 -6.04128e-07
-0.000174205 0.000481376 5.38304e-07
-6.04128e-07 5.38304e-07 0.000308619
0.000654091 -7.99704e-05 -3.1081e-07
-7.99704e-05 0.000125177 -1.49187e-07
-3.1081e-07 -1.49187e-07 -1.39925e-06
0.000483641 1.75514e-05 1.19184e-06
1.75514e-05 5.21887e-06 3.53117e-06
1.19184e-06 3.53117e-06 -8.24477e-05
0.000776379 -0.000117516 4.60441e-07
-0.000117516 0.000213837 -2.35882e-06
4.60441e-07 -2.35882e-06 8.5273e-05
0.000517512 9.21918e-06 -1.90757e-06
9.21918e-06 2.18113e-05 -1.69148e-07
-1.90757e-06 -1.69148e-07 -5.84906e-05
0.00139507 2.0019e-05 -1.40741e-05
2.0019e-05 0.000533557 4.74045e-06
-1.40741e-05 4.74045e-06 0.000511894
0.000596996 -5.62853e-05 2.91809e-06
-5.62853e-05 6.71116e-05 -3.60454e-06
2.91809e-06 -3.60454e-06 -9.35223e-06
0.000901878 1.43293e-06 -7.08261e-06
1.43293e-06 0.000227471 6.16956e-07
-7.08261e-06 6.16956e-07 0.000204454
0.000829558 3.23205e-05 -1.07417e-08
3.23205e-05 0.000175186 2.83273e-06
-1.07417e-08 2.83273e-06 0.00017577
0.000467343 -1.22486e-05 2.01495e-06
-1.22486e-05 -3.96257e-05 -5.2948e-06
2.01495e-06 -5.2948e-06 -6.38123e-05
0.0016932 3.47525e-05 1.20662e-05
3.47525e-05 0.000715744 -1.301e-06
1.20662e-05 -1.301e-06 0.000723038
0.00251873 2.92036e-05 1.28551e-05
2.92036e-05 0.00122946 -5.3433e-06
1.28551e-05 -5.3433e-06 0.00124201
0.000322171 1.3789e-05 1.21873e-06
1.3789e-05 -7.50422e-05 -1.8158e-07
1.21873e-06 -1.8158e-07 -0.000198033
0.00020289 1.71056e-05 3.29336e-07
1.71056e-05 -0.000183774 -3.35035e-06
3.29336e-07 -3.35035e-06 -0.000243174
0.00064339 4.43894e-05 1.23767e-08
4.43894e-05 0.000119695 8.69108e-08
1.23767e-08 8.69108e-08 1.39442e-05
0.000493415 6.28546e-07 1.27374e-06
6.28546e-07 -3.54668e-05 -3.6503e-06
1.27374e-06 -3.6503e-06 -4.58932e-05
0.000353359 4.42303e-06 1.53538e-06
4.42303e-06 -9.23728e-05 3.59338e-10
1.53538e-06 3.59338e-10 -0.00014203
0.000314042 -9.35208e-05 -1.84331e-06
-9.35208e-05 -8.15474e-05 -5.41544e-07
-1.84331e-06 -5.41544e-07 -0.000176705
0.00205471 -7.18823e-06 -9.50829e-06
-7.18823e-06 0.000937162 -4.75077e-06
-9.50829e-06 -4.75077e-06 0.000955273
0.000489891 1.38262e-06 -3.0325e-08
1.38262e-06 -3.70649e-05 -6.01571e-08
-3.0325e-08 -6.01571e-08 -4.57289e-05
0.000468454 -1.73274e-05 -2.42849e-06
-1.73274e-05 -1.97069e-05 1.95092e-06
-2.42849e-06 1.95092e-06 -6.34421e-05
0.00200643 8.05045e-06 -4.46853e-06
8.05045e-06 0.000907993 1.05594e-08
-4.46853e-06 1.05594e-08 0.000926191
0.000477115 3.68628e-06 -1.17312e-06
3.68628e-06 -4.45431e-05 3.19399e-06
-1.17312e-06 3.19399e-06 -5.26736e-05
0.0019723 2.28206e-05 -8.31136e-08
2.28206e-05 0.000888429 4.62923e-06
-8.31136e-08 4.62923e-06 0.000905998
-2.91824e-05 -0.000574156 -0.00020273
-0.000574156 -0.000172403 6.69191e-05
-0.00020273 6.69191e-05 -0.0028339
0.00142673 0.000414406 -8.24918e-05
0.000414406 0.0063514 9.87118e-06
-8.24918e-05 9.87118e-06 0.00305305
0.00158571 -0.000184645 -0.000643162
-0.000184645 0.00334553 0.000109955
-0.000643162 0.000109955 0.00167222
0.000695553 0.000115616 3.66993e-06
0.000115616 0.000151707 4.27856e-06
3.66993e-06 4.27856e-06 2.00238e-06
0.00439604 -0.000689304 -4.93389e-05
-0.000689304 0.00297074 0.000193333
-4.93389e-05 0.000193333 0.00110149
0.00393749 -0.00105591 -0.00023308
-0.00105591 0.00159597 1.91157e-05
-0.00023308 1.91157e-05 -0.00273391
0.00791308 0.00223106 0.000327973
0.00223106 0.00642844 -0.00027738
0.000327973 -0.00027738 0.00326271
0.00649745 -0.000764041 8.92984e-05
-0.000764041 0.000841981 -2.20597e-05
8.92984e-05 -2.20597e-05 0.000917943
0.0124876 -0.00173398 0.000225502
-0.00173398 0.00123477 -9.74335e-05
0.000225502 -9.74335e-05 -0.000251193
0.00403428 0.00398325 -0.000475036
0.00398325 -0.00135359 0.00036698
-0.000475036 0.00036698 -0.00331707
0.0118766 0.00364562 5.21002e-05
0.00364562 0.00333115 0.000176119
5.21002e-05 0.000176119 0.0012392
0.00653418 -0.0017036 -0.000123005
-0.0017036 0.000180288 -7.63658e-06
-0.000123005 -7.63658e-06 0.000350054
0.0167953 -0.00292596 4.35677e-05
-0.00292596 0.00459998 -2.78901e-05
4.35677e-05 -2.78901e-05 0.00224239
0.00792778 0.00239261 0.000151071
0.00239261 0.00180782 -0.000287066
0.000151071 -0.000287066 -0.00116376
0.0102747 0.00119083 1.44188e-05
0.00119083 -0.000905268 3.15974e-05
1.44188e-05 3.15974e-05 -0.000282559
0.00312636 -0.00211453 -3.37387e-05
-0.00211453 -5.7073e-05 4.34344e-05
-3.37387e-05 4.34344e-05 -0.000331137
0.0116542 -0.0034585 0.000145864
-0.0034585 0.00487025 -9.59379e-05
0.000145864 -9.59379e-05 0.000643974
0.00793803 -0.000116758 0.000125189
-0.000116758 0.00337571 -0.000380001
0.000125189 -0.000380001 0.00119047
0.0108528 0.000675359 -0.000101432
0.000675359 -0.00137591 0.000208612
-0.000101432 0.000208612 0.000995474
0.000663996 9.88194e-06 2.72054e-06
9.88194e-06 0.000220107 6.01758e-06
2.72054e-06 6.01758e-06 1.1373e-05
0.000820569 -0.00012389 -3.38732e-08
-0.00012389 0.0003318 1.24382e-07
-3.38732e-08 1.24382e-07 0.000108936
0.000758194 0.000140378 2.81467e-07
0.000140378 0.000233691 -4.72616e-06
2.81467e-07 -4.72616e-06 9.09565e-05
0.000584496 0.000108569 2.88641e-07
0.000108569 7.28096e-05 6.97651e-06
2.88641e-07 6.97651e-06 -6.88222e-05
0.00078614 0.000156821 3.44939e-07
0.000156821 0.000253599 6.61709e-07
3.44939e-07 6.61709e-07 7.07298e-05
0.00100353 8.09451e-05 -5.39869e-06
8.09451e-05 0.000386819 -3.49774e-06
-5.39869e-06 -3.49774e-06 0.000240145
0.00102423 0.000159919 -1.31483e-06
0.000159919 0.000389245 -3.87936e-08
-1.31483e-06 -3.87936e-08 0.000222887
0.00108194 0.000175809 8.02177e-07
0.000175809 0.000447902 2.22575e-06
8.02177e-07 2.22575e-06 0.000276939
-0.000265332 -0.000429384 8.95171e-05
-0.000429384 -0.00124987 -5.40219e-05
8.95171e-05 -5.40219e-05 -0.00112873
0.00225561 -0.000761591 7.72065e-06
-0.000761591 0.000434297 -1.49001e-05
7.72065e-06 -1.49001e-05 0.00038654
0.00103859 -0.000228372 1.58619e-07
-0.000228372 0.000479719 -2.09473e-05
1.58619e-07 -2.09473e-05 0.000214225
0.0015476 -0.000661032 1.97503e-05
-0.000661032 0.00073539 -2.94478e-05
1.97503e-05 -2.94478e-05 0.000388621
0.00250503 -0.000394773 -1.59773e-05
-0.000394773 0.00142146 1.52135e-05
-1.59773e-05 1.52135e-05 0.00106464
0.00144281 -0.00013202 9.55066e-08
-0.00013202 0.000701137 -1.95537e-05
9.55066e-08 -1.95537e-05 0.000461606
8.86907e-05 -6.2064e-05 1.99818e-06
-6.2064e-05 -0.000154104 5.9128e-06
1.99818e-06 5.9128e-06 -0.000349367
8.13081e-05 -0.000913007 6.54424e-07
-0.000913007 -0.000958445 -1.73872e-06
6.54424e-07 -1.73872e-06 -0.00089669
0.00131104 4.89369e-05 -7.79888e-07
4.89369e-05 0.000746882 -8.90145e-07
-7.79888e-07 -8.90145e-07 0.000455193
0.000625139 -0.000219256 5.71006e-06
-0.000219256 0.000431326 2.12663e-06
5.71006e-06 2.12663e-06 2.37016e-05
0.000734572 -0.000410128 7.45326e-06
-0.000410128 9.55016e-05 4.5029e-06
7.45326e-06 4.5029e-06 7.42978e-05
0.00120092 0.000121837 -5.29439e-07
0.000121837 0.000513982 -1.4344e-06
-5.29439e-07 -1.4344e-06 0.00034959
0.000182962 -0.00079722 -2.11035e-05
-0.00079722 -0.000421254 -3.79392e-05
-2.11035e-05 -3.79392e-05 -0.000495587
-0.000850734 -0.000376535 -1.10966e-05
-0.000376535 -0.000524739 3.21375e-05
-1.10966e-05 3.21375e-05 -0.000723877
-0.000175663 0.000106626 2.0593e-05
0.000106626 0.000245985 -2.14746e-05
2.0593e-05 -2.14746e-05 -0.000298263
0.00143051 0.000247515 -1.57268e-06
0.000247515 0.000752232 -4.19338e-06
-1.57268e-06 -4.19338e-06 0.000548546
-0.000922482 6.38636e-05 6.70535e-05
6.38636e-05 0.00110413 7.70241e-06
6.70535e-05 7.70241e-06 0.00038538
0.000679823 -3.00112e-05 0.000130782
-3.00112e-05 0.00125821 -2.89113e-05
0.000130782 -2.89113e-05 -0.00221509
-0.00985448 -0.000263024 -0.000222169
-0.000263024 0.0051367 2.16587e-05
-0.000222169 2.16587e-05 0.000114425
0.00162041 0.0004485 1.83924e-05
0.0004485 0.000932957 7.69672e-07
1.83924e-05 7.69672e-07 0.000671921
-0.000924886 0.000542684 7.95508e-06
0.000542684 -0.000498927 1.55405e-05
7.95508e-06 1.55405e-05 -0.000883275
0.00518286 0.000501009 0.000232899
0.000501009 0.00329655 3.85898e-05
0.000232899 3.85898e-05 0.00130618
0.0105967 0.00294106 0.000260079
0.00294106 0.00376193 0.000169029
0.000260079 0.000169029 -0.000300857
0.00304188 0.00168686 -7.57256e-05
0.00168686 0.00193619 -8.12542e-05
-7.57256e-05 -8.12542e-05 0.000607727
0.0051827 -0.00194528 -0.000151564
-0.00194528 0.00347632 -0.000396085
-0.000151564 -0.000396085 0.000328838
0.00215987 0.000438758 0.000109425
0.000438758 0.000240611 0.000179621
0.000109425 0.000179621 -0.00131787
0.00653751 -0.000144027 -3.6844e-05
-0.000144027 -0.00521146 -0.000214347
-3.6844e-05 -0.000214347 -0.00194186
0.000752204 0.00036005 6.48434e-06
0.00036005 0.000606355 2.03949e-06
6.48434e-06 2.03949e-06 0.000289934
-0.00191877 3.31227e-05 -1.86539e-06
3.31227e-05 -7.14307e-05 1.39359e-07
-1.86539e-06 1.39359e-07 -0.000315929
0.00385108 2.26189e-05 8.8292e-05
2.26189e-05 -0.000225988 2.39823e-05
8.8292e-05 2.39823e-05 -0.000651005
-0.00150567 0.000343821 -1.1236e-05
0.000343821 -0.00034048 -8.73286e-06
-1.1236e-05 -8.73286e-06 -0.000984607
0.0100763 0.00131693 -7.23701e-06
0.00131693 -0.000788716 -2.86483e-05
-7.23701e-06 -2.86483e-05 -0.000281098
0.00290483 0.00157415 0.000179235
0.00157415 0.00341135 0.000115959
0.000179235 0.000115959 -0.00186157
0.00580538 0.00062595 -0.000147622
0.00062595 0.00296964 1.1871e-06
-0.000147622 1.1871e-06 -5.7902e-05
0.000489283 0.000358154 -7.34069e-06
0.000358154 0.000497148 -2.45616e-05
-7.34069e-06 -2.45616e-05 4.54874e-05
0.00126814 1.82097e-05 1.34066e-05
1.82097e-05 -0.000128286 -2.20081e-05
1.34066e-05 -2.20081e-05 -0.000130917
0.00373105 -0.000766721 3.8307e-05
-0.000766721 0.00291143 -0.00019813
3.8307e-05 -0.00019813 0.0012235
0.0157608 0.00379957 0.000285188
0.00379957 0.004145 -0.000236781
0.000285188 -0.000236781 0.00280825
0.00735606 -4.73788e-05 -0.000103443
-4.73788e-05 0.00333092 0.000387664
-0.000103443 0.000387664 0.000941508
0.000646242 0.000369463 -9.07224e-06
0.000369463 0.000581527 -0.000119529
-9.07224e-06 -0.000119529 8.25073e-05
0.0030151 0.00151196 0.000233243
0.00151196 0.0050851 3.88118e-05
0.000233243 3.88118e-05 -0.00244499
0.00133113 0.000290884 3.53139e-06
0.000290884 0.000872077 1.11341e-05
3.53139e-06 1.11341e-05 0.00056111
0.000695849 0.000212682 2.92845e-06
0.000212682 0.000704728 -2.5891e-07
2.92845e-06 -2.5891e-07 0.00032311
6.59088e-06 -2.54129e-05 -1.21136e-05
-2.54129e-05 0.000394082 -7.04393e-06
-1.21136e-05 -7.04393e-06 8.50721e-05
0.000108571 -4.95044e-05 9.77232e-07
-4.95044e-05 -0.000184568 6.26722e-06
9.77232e-07 6.26722e-06 -0.000307241
0.00120096 -1.03004e-05 5.09796e-06
-1.03004e-05 0.000864639 -2.79121e-06
5.09796e-06 -2.79121e-06 0.000533029
8.15016e-05 7.21854e-05 3.67097e-06
7.21854e-05 0.000360334 -6.50513e-07
3.67097e-06 -6.50513e-07 -7.86249e-05
0.000428324 -3.58068e-05 1.16467e-06
-3.58068e-05 0.000300592 -1.54664e-07
1.16467e-06 -1.54664e-07 6.13482e-05
2.6612e-05 -9.6427e-06 5.53595e-06
-9.6427e-06 0.000264411 6.59048e-07
5.53595e-06 6.59048e-07 -0.000100623
0.00103892 -0.000244224 -1.272e-06
-0.000244224 0.000670137 -1.23604e-05
-1.272e-06 -1.23604e-05 0.000375863
0.000814422 -8.24892e-05 -5.125e-06
-8.24892e-05 0.000359441 7.92116e-06
-5.125e-06 7.92116e-06 0.000220955
0.000672259 -1.705e-05 -8.65704e-07
-1.705e-05 0.000158983 1.9132e-06
-8.65704e-07 1.9132e-06 3.5873e-05
0.00140299 -0.000238644 2.311e-06
-0.000238644 0.0006193 4.23145e-06
2.311e-06 4.23145e-06 0.000452931
-0.0016227 -0.000212338 1.71717e-05
-0.000212338 -0.00105864 1.00558e-05
1.71717e-05 1.00558e-05 -0.00136751
-1.3098e-05 -0.000115539 6.18362e-06
-0.000115539 -0.000265449 -3.06117e-06
6.18362e-06 -3.06117e-06 -0.000307143
-0.000145478 -0.000299 -7.77834e-07
-0.000299 -0.000418097 -3.43529e-06
-7.77834e-07 -3.43529e-06 -0.000660661
0.00126128 -0.000473971 2.18699e-06
-0.000473971 0.000304032 -2.88636e-06
2.18699e-06 -2.88636e-06 -8.90227e-05
0.00162194 -0.000548615 -3.69974e-06
-0.000548615 0.000398897 -1.18927e-06
-3.69974e-06 -1.18927e-06 1.16397e-05
0.00192396 -0.000354327 4.52529e-06
-0.000354327 0.0008202 -2.21277e-06
4.52529e-06 -2.21277e-06 0.00061641
0.00128509 -0.000416534 2.11451e-06
-0.000416534 0.000349987 4.77937e-07
2.11451e-06 4.77937e-07 3.03206e-05
0.00160842 -0.000453315 2.98398e-06
-0.000453315 0.000421118 -2.27808e-06
2.98398e-06 -2.27808e-06 0.000103255
0.000598723 -0.000271339 -3.38259e-06
-0.000271339 -9.40478e-05 4.84257e-06
-3.38259e-06 4.84257e-06 -0.000347468
0.00102097 -0.000378125 1.84849e-06
-0.000378125 8.99622e-05 -5.22477e-06
1.84849e-06 -5.22477e-06 -0.000214373
0.000465906 -0.000127055 6.30629e-07
-0.000127055 4.38814e-05 -3.16783e-06
6.30629e-07 -3.16783e-06 -0.000196286
0.00112565 -0.000312101 -6.16157e-06
-0.000312101 0.000382493 4.46595e-06
-6.16157e-06 4.46595e-06 0.000130543
-0.00131595 -6.52457e-05 -2.20967e-06
-6.52457e-05 -0.00122263 -8.25491e-06
-2.20967e-06 -8.25491e-06 -0.0014203
0.00036026 -4.65676e-05 4.79245e-07
-4.65676e-05 -7.60325e-05 4.59634e-08
4.79245e-07 4.59634e-08 -0.000214382
0.000521201 -0.000118784 7.3578e-08
-0.000118784 8.32507e-05 1.4767e-07
7.3578e-08 1.4767e-07 -0.00012284
0.00101916 -0.000216844 6.90115e-06
-0.000216844 0.000406536 -1.96255e-06
6.90115e-06 -1.96255e-06 0.000191775
0.00046576 -0.000103896 6.6077e-07
-0.000103896 3.21715e-05 2.11466e-06
6.6077e-07 2.11466e-06 -0.000128578
0.000714079 -7.75428e-05 -1.94397e-07
-7.75428e-05 0.000155626 3.43174e-07
-1.94397e-07 3.43174e-07 2.02985e-05
0.000525695 3.54246e-06 5.59426e-07
3.54246e-06 2.194e-05 4.45497e-06
5.59426e-07 4.45497e-06 -7.15856e-05
0.00088259 -0.000107408 -5.94451e-07
-0.000107408 0.000278257 -9.42988e-07
-5.94451e-07 -9.42988e-07 0.000140364
0.000567549 4.50041e-06 -1.21365e-06
4.50041e-06 5.05284e-05 -2.99765e-07
-1.21365e-06 -2.99765e-07 -3.39739e-05
0.00043175 3.81019e-05 2.38316e-07
3.81019e-05 -5.78041e-05 5.9962e-06
2.38316e-07 5.9962e-06 -8.92835e-05
0.000685842 -5.28676e-05 2.21047e-06
-5.28676e-05 0.000119121 -3.35995e-06
2.21047e-06 -3.35995e-06 4.13367e-05
0.000473325 1.05677e-05 -6.14076e-07
1.05677e-05 -4.08473e-05 -4.95322e-08
-6.14076e-07 -4.95322e-08 -6.74845e-05
0.00252116 8.82876e-05 -2.7903e-06
8.82876e-05 0.00123429 2.41935e-06
-2.7903e-06 2.41935e-06 0.00124023
0.000482615 -2.85679e-06 2.28638e-06
-2.85679e-06 -3.44319e-05 -5.48903e-06
2.28638e-06 -5.48903e-06 -5.99084e-05
0.00172709 4.81124e-05 1.45779e-05
4.81124e-05 0.00073681 -1.07895e-06
1.45779e-05 -1.07895e-06 0.000742172
0.00257685 4.51389e-05 1.9444e-05
4.51389e-05 0.00126505 -5.45098e-06
1.9444e-05 -5.45098e-06 0.00127646
0.000304574 1.50365e-05 1.07061e-06
1.50365e-05 -0.000102481 -4.34688e-07
1.07061e-06 -4.34688e-07 -0.000217573
0.000227686 9.95026e-06 1.0973e-06
9.95026e-06 -0.000170815 -3.11946e-06
1.0973e-06 -3.11946e-06 -0.000239855
0.000496158 3.10617e-05 -5.20926e-07
3.10617e-05 3.08883e-05 -1.15075e-06
-5.20926e-07 -1.15075e-06 -8.81481e-05
0.000511663 -2.42113e-06 1.85516e-06
-2.42113e-06 -2.48843e-05 -4.11919e-06
1.85516e-06 -4.11919e-06 -3.80158e-05
0.000207326 1.35572e-05 -6.10895e-07
1.35572e-05 -0.000181447 -1.68456e-06
-6.10895e-07 -1.68456e-06 -0.000242493
0.000669723 5.23153e-05 -6.04423e-07
5.23153e-05 0.00014732 1.33892e-06
-6.04423e-07 1.33892e-06 3.38977e-05
0.00208453 -2.05647e-05 -1.48247e-05
-2.05647e-05 0.000955027 -4.64302e-06
-1.48247e-05 -4.64302e-06 0.000972735
0.000493871 -1.01749e-06 -5.05288e-07
-1.01749e-06 -3.56125e-05 -6.15199e-08
-5.05288e-07 -6.15199e-08 -4.57548e-05
0.000143922 1.22262e-05 9.56424e-07
1.22262e-05 -0.000219175 1.48544e-06
9.56424e-07 1.48544e-06 -0.00027236
0.00202939 -5.84134e-06 -3.97073e-06
-5.84134e-06 0.000921237 4.8688e-08
-3.97073e-06 4.8688e-08 0.000939552
0.000480422 1.00093e-06 -1.34781e-06
1.00093e-06 -4.33806e-05 3.399e-06
-1.34781e-06 3.399e-06 -5.17723e-05
0.00203601 9.55624e-06 5.17222e-06
9.55624e-06 0.00092671 4.75385e-06
5.17222e-06 4.75385e-06 0.000944615
0.000390937 -3.35071e-05 8.96466e-05
-3.35071e-05 0.00148815 2.64424e-05
8.96466e-05 2.64424e-05 0.00114271
-7.31167e-05 -0.000310789 -3.53718e-05
-0.000310789 0.000274945 -1.37099e-05
-3.53718e-05 -1.37099e-05 -0.00294335
0.000334999 0.000385681 1.10144e-05
0.000385681 0.00603902 -3.60798e-05
1.10144e-05 -3.60798e-05 0.00275002
0.000767545 0.000123781 2.28866e-07
0.000123781 0.000189123 2.02882e-07
2.28866e-07 2.02882e-07 4.82047e-05
0.000463988 8.55562e-05 4.62787e-06
8.55562e-05 -1.5609e-05 3.78362e-06
4.62787e-06 3.78362e-06 -0.000143888
0.00101511 0.000176481 5.41454e-06
0.000176481 0.000342483 5.82632e-06
5.41454e-06 5.82632e-06 0.000198784
0.00484391 -0.00014703 -4.14304e-05
-0.00014703 -0.000430502 0.000224266
-4.14304e-05 0.000224266 -0.00122378
0.00433167 -0.000715744 6.79469e-05
-0.000715744 0.00273302 -2.21444e-06
6.79469e-05 -2.21444e-06 0.00135242
0.00451717 -0.00130552 0.00014152
-0.00130552 0.00192659 -0.000213791
0.00014152 -0.000213791 -0.00252487
0.00816025 -0.00209344 -5.13048e-05
-0.00209344 0.000613737 -2.25889e-05
-5.13048e-05 -2.25889e-05 0.00101072
0.00048427 -0.00237195 -0.000306843
-0.00237195 -0.00172418 9.89577e-05
-0.000306843 9.89577e-05 -0.00475637
0.0225687 0.00336502 0.000152184
0.00336502 0.00892063 0.000127556
0.000152184 0.000127556 0.00559045
0.00626253 4.4629e-05 0.000218099
4.4629e-05 -0.00302797 -0.000196791
0.000218099 -0.000196791 -0.00288177
0.00480003 -0.0023766 -3.58429e-05
-0.0023766 0.000388973 1.5375e-05
-3.58429e-05 1.5375e-05 0.000386847
0.00711134 -0.00305537 -8.81597e-05
-0.00305537 0.00274286 2.24361e-05
-8.81597e-05 2.24361e-05 -0.00158647
-0.00334893 0.00312611 -8.17231e-05
0.00312611 0.00273257 -0.000265124
-8.17231e-05 -0.000265124 -0.00136682
0.00871606 0.0002462 -5.39284e-05
0.0002462 -0.00353587 0.000118805
-5.39284e-05 0.000118805 -0.000526066
0.000793938 -0.0014201 -0.000123364
-0.0014201 0.000251642 3.9574e-05
-0.000123364 3.9574e-05 -4.75361e-05
0.0103321 -0.00250792 -0.000236495
-0.00250792 0.0052401 0.000146843
-0.000236495 0.000146843 0.000490897
-0.00236485 -4.21713e-05 3.47035e-05
-4.21713e-05 0.00185989 -0.000326744
3.47035e-05 -0.000326744 -0.00144882
0.00806514 -0.00120768 9.89907e-05
-0.00120768 -0.00200641 4.6931e-05
9.89907e-05 4.6931e-05 -0.00109412
0.000368817 8.90797e-05 2.55069e-06
8.90797e-05 -2.34396e-05 1.28929e-05
2.55069e-06 1.28929e-05 -0.000168805
0.000776855 -1.99478e-05 2.68075e-06
-1.99478e-05 0.000275288 -2.32135e-06
2.68075e-06 -2.32135e-06 6.0388e-05
0.000714658 -0.000126245 -6.54076e-08
-0.000126245 0.000214243 -9.01624e-06
-6.54076e-08 -9.01624e-06 1.16216e-05
0.000686951 0.000121677 -1.81767e-06
0.000121677 0.0001393 9.32417e-07
-1.81767e-06 9.32417e-07 -8.84446e-06
0.000794087 0.000144593 1.26018e-06
0.000144593 0.000262295 -3.52847e-06
1.26018e-06 -3.52847e-06 8.82121e-05
0.00116198 0.000180212 -3.51791e-06
0.000180212 0.000478579 -2.26308e-06
-3.51791e-06 -2.26308e-06 0.000308707
-0.00116476 -0.000776384 2.35763e-05
-0.000776384 -0.00159937 -5.90895e-06
2.35763e-05 -5.90895e-06 -0.00155042
0.000923475 -0.000341395 3.42949e-05
-0.000341395 0.000201397 -2.86951e-05
3.42949e-05 -2.86951e-05 0.000225717
-2.02563e-05 5.2243e-06 -1.57278e-06
5.2243e-06 -0.000212486 -1.02868e-05
-1.57278e-06 -1.02868e-05 -0.000412711
0.00168063 -0.00040202 4.93222e-05
-0.00040202 0.000979135 -2.54528e-05
4.93222e-05 -2.54528e-05 0.000600395
0.00158259 -5.60916e-05 -5.88436e-06
-5.60916e-05 0.000886332 4.57719e-06
-5.88436e-06 4.57719e-06 0.000609048
0.00041837 9.99789e-05 2.99507e-06
9.99789e-05 7.17215e-05 2.58077e-06
2.99507e-06 2.58077e-06 -0.000105628
0.000965378 0.000159901 -4.72377e-07
0.000159901 0.000460188 -2.17912e-06
-4.72377e-07 -2.17912e-06 0.000283222
0.000370574 -0.000939118 -1.0594e-06
-0.000939118 -0.000354303 -5.64183e-06
-1.0594e-06 -5.64183e-06 -0.000569437
0.000108611 7.08487e-06 -6.68845e-06
7.08487e-06 0.000393423 4.99073e-06
-6.68845e-06 4.99073e-06 -0.000110397
0.0016355 -0.000298221 9.01752e-06
-0.000298221 0.00078413 -9.54908e-06
9.01752e-06 -9.54908e-06 0.000554796
0.00126293 0.00016948 2.74057e-07
0.00016948 0.000633717 -1.03346e-05
2.74057e-07 -1.03346e-05 0.000466909
-0.00290891 -9.74763e-05 -0.000118167
-9.74763e-05 -0.000813003 -1.2009e-05
-0.000118167 -1.2009e-05 -0.00158961
-0.000216039 -0.000136693 -1.75666e-05
-0.000136693 0.000208156 8.67654e-06
-1.75666e-05 8.67654e-06 -0.000130972
0.000281508 0.000140405 -8.08989e-07
0.000140405 0.000447005 9.32256e-06
-8.08989e-07 9.32256e-06 4.91545e-05
-7.21936e-05 9.58743e-05 -5.05839e-06
9.58743e-05 -0.000603042 9.25602e-07
-5.05839e-06 9.25602e-07 -0.0013049
-0.00136995 9.11262e-05 2.53618e-05
9.11262e-05 0.000810539 -1.54412e-05
2.53618e-05 -1.54412e-05 0.000161759
-9.96239e-05 -0.000136554 0.000283327
-0.000136554 0.000768837 1.48399e-05
0.000283327 1.48399e-05 -0.00271581
-0.000162469 0.000320076 -3.2862e-06
0.000320076 5.4429e-05 1.73283e-05
-3.2862e-06 1.73283e-05 -0.000280449
0.000761137 0.000705509 -1.05536e-05
0.000705509 0.000404687 -3.13188e-06
-1.05536e-05 -3.13188e-06 -0.000133028
-0.00175655 3.21966e-06 -1.21636e-05
3.21966e-06 -5.65738e-05 -9.4734e-06
-1.21636e-05 -9.4734e-06 -0.000422025
-0.00407512 0.000673936 4.70077e-05
0.000673936 0.00199507 0.000155796
4.70077e-05 0.000155796 -0.00301127
-0.0039867 0.00126592 -0.000181892
0.00126592 -0.00242356 -0.000415444
-0.000181892 -0.000415444 -0.00618792
0.00325744 7.82535e-05 6.98938e-05
7.82535e-05 -0.000251241 0.000101675
6.98938e-05 0.000101675 -0.000202103
0.00601787 0.000151958 -0.000222032
0.000151958 -0.00275589 0.000200695
-0.000222032 0.000200695 -0.00283792
0.000333727 0.00028697 2.29666e-06
0.00028697 0.000463427 -1.2098e-06
2.29666e-06 -1.2098e-06 7.51191e-05
0.000981973 -7.22415e-06 2.60669e-05
-7.22415e-06 -0.000222482 -2.48312e-05
2.60669e-05 -2.48312e-05 -0.000199548
0.0037509 -0.000573518 -6.91303e-05
-0.000573518 0.00265199 5.59991e-06
-6.91303e-05 5.59991e-06 0.00127974
0.000265048 0.000534645 -9.87111e-05
0.000534645 0.00103469 -6.22261e-06
-9.87111e-05 -6.22261e-06 -0.000129044
0.011354 0.00389042 5.99532e-05
0.00389042 0.00144211 -0.000340484
5.99532e-05 -0.000340484 -9.55388e-05
-0.00084336 0.00238958 6.41948e-05
0.00238958 0.00292059 0.000269247
6.41948e-05 0.000269247 -0.000974842
0.00570371 0.00040712 5.02614e-05
0.00040712 0.00593007 -2.27862e-05
5.02614e-05 -2.27862e-05 -0.000878924
0.000887742 -7.60899e-06 2.9813e-05
-7.60899e-06 0.00136527 -2.78423e-05
2.9813e-05 -2.78423e-05 0.000510603
0.000139258 -9.14871e-05 -7.5568e-05
-9.14871e-05 0.00145829 3.70665e-06
-7.5568e-05 3.70665e-06 0.00105219
0.00235531 -0.000799742 0.000588884
-0.000799742 0.000833837 -0.00023302
0.000588884 -0.00023302 -0.00364525
0.0143233 0.00545652 -3.66484e-05
0.00545652 0.00978483 1.07685e-05
-3.66484e-05 1.07685e-05 0.00792996
0.00166899 0.00305628 -0.000150703
0.00305628 -0.000507729 0.000658798
-0.000150703 0.000658798 -0.00324694
0.0119181 -0.00273586 0.000217988
-0.00273586 0.00549382 -0.000189096
0.000217988 -0.000189096 0.000443945
0.00343645 -0.000694029 -6.88815e-05
-0.000694029 0.00257983 4.53818e-05
-6.88815e-05 4.53818e-05 0.0018418
0.001356 0.0002796 6.02742e-06
0.0002796 0.00108562 5.47845e-06
6.02742e-06 5.47845e-06 0.000701864
-0.000142071 -2.93843e-05 -3.58915e-06
-2.93843e-05 0.000239969 -2.91663e-06
-3.58915e-06 -2.91663e-06 -7.77468e-05
0.00201453 -0.000452871 3.11506e-05
-0.000452871 0.00121856 -1.28141e-05
3.11506e-05 -1.28141e-05 0.00081052
0.000688909 -8.09741e-05 5.40774e-07
-8.09741e-05 0.00041267 3.49402e-06
5.40774e-07 3.49402e-06 0.000214379
0.000124464 -2.16104e-05 -7.83484e-07
-2.16104e-05 0.000304527 -2.65522e-06
-7.83484e-07 -2.65522e-06 -4.66478e-05
0.00019863 -0.000218109 -3.56865e-06
-0.000218109 0.000294332 3.48828e-07
-3.56865e-06 3.48828e-07 -1.64263e-05
0.000505968 -0.000428759 2.30597e-05
-0.000428759 0.000118572 -2.32472e-05
2.30597e-05 -2.32472e-05 -8.42402e-05
0.00249316 -0.000335359 -2.06453e-06
-0.000335359 0.00127885 2.6271e-06
-2.06453e-06 2.6271e-06 0.0010797
0.00230429 -0.000624385 1.36588e-05
-0.000624385 0.00107451 -3.82415e-06
1.36588e-05 -3.82415e-06 0.00071973
0.00158568 -0.000554621 1.02681e-05
-0.000554621 0.000634776 -2.88092e-06
1.02681e-05 -2.88092e-06 0.000106812
0.000339596 -0.0002942 -3.87189e-06
-0.0002942 -0.000167913 -2.29257e-06
-3.87189e-06 -2.29257e-06 -0.000369007
0.00150537 -0.00050003 -2.19966e-06
-0.00050003 0.000399005 3.80276e-07
-2.19966e-06 3.80276e-07 5.77516e-06
0.00216334 -0.000680263 -5.68195e-07
-0.000680263 0.000711596 6.27088e-07
-5.68195e-07 6.27088e-07 0.000219737
0.00180557 -0.000696603 -6.31597e-06
-0.000696603 0.000378364 1.72158e-06
-6.31597e-06 1.72158e-06 -5.29712e-05
0.00162853 -0.000565657 -1.1038e-06
-0.000565657 0.000401344 -4.64595e-07
-1.1038e-06 -4.64595e-07 2.58078e-05
0.00152482 -0.000541772 -4.65831e-06
-0.000541772 0.000334555 1.54543e-06
-4.65831e-06 1.54543e-06 -5.25646e-05
0.00111604 -0.000400778 -2.95015e-06
-0.000400778 0.000214176 -2.99531e-06
-2.95015e-06 -2.99531e-06 -0.000111202
0.00188078 -0.000448113 5.25535e-06
-0.000448113 0.000658546 1.61078e-06
5.25535e-06 1.61078e-06 0.000360622
0.00149381 -0.000445499 4.85542e-06
-0.000445499 0.000354933 -3.02626e-06
4.85542e-06 -3.02626e-06 3.67687e-05
0.000362044 -0.000172521 1.82358e-06
-0.000172521 -0.000124315 9.92015e-07
1.82358e-06 9.92015e-07 -0.000356464
0.000913956 -0.000316294 2.80905e-06
-0.000316294 0.00011596 -5.82177e-07
2.80905e-06 -5.82177e-07 -0.000146918
0.000262326 -0.000287157 -9.60648e-07
-0.000287157 -0.000362578 -7.86395e-06
-9.60648e-07 -7.86395e-06 -0.000641869
-0.000184948 -2.10668e-05 -4.23195e-08
-2.10668e-05 -0.000369921 1.00736e-06
-4.23195e-08 1.00736e-06 -0.000573053
0.00105606 -0.000189646 -4.79338e-07
-0.000189646 0.000411212 -2.14064e-07
-4.79338e-07 -2.14064e-07 0.000161682
0.00114845 -0.000339202 -4.38258e-09
-0.000339202 0.000414614 -2.42957e-06
-4.38258e-09 -2.42957e-06 0.000142486
0.000668352 -2.11031e-05 -1.16305e-06
-2.11031e-05 0.000107524 4.85935e-06
-1.16305e-06 4.85935e-06 2.46476e-06
0.000815654 -0.000105911 -4.24603e-07
-0.000105911 0.000203848 -2.22271e-07
-4.24603e-07 -2.22271e-07 5.60727e-05
0.000157725 -9.47399e-05 1.17804e-06
-9.47399e-05 -0.000130709 1.28984e-06
1.17804e-06 1.28984e-06 -0.000329165
0.000801922 -0.00010469 1.18618e-06
-0.00010469 0.00021643 -8.64043e-07
1.18618e-06 -8.64043e-07 7.4343e-05
0.00061602 -3.86243e-05 -2.52132e-08
-3.86243e-05 7.50719e-05 -2.18909e-07
-2.52132e-08 -2.18909e-07 -1.87664e-05
0.000433828 3.1854e-05 7.36552e-07
3.1854e-05 -5.04215e-05 7.41967e-06
7.36552e-07 7.41967e-06 -8.72512e-05
0.000643822 -4.46933e-05 1.37093e-06
-4.46933e-05 9.25762e-05 -3.70829e-06
1.37093e-06 -3.70829e-06 8.9871e-06
0.000498907 2.28594e-05 -1.80972e-06
2.28594e-05 -1.91455e-05 -2.03079e-07
-1.80972e-06 -2.03079e-07 -4.9682e-05
0.00264896 9.59118e-05 -3.34729e-05
9.59118e-05 0.00132068 4.41979e-06
-3.34729e-05 4.41979e-06 0.0013257
0.000517589 6.56236e-06 2.21361e-06
6.56236e-06 -1.44312e-05 -5.56519e-06
2.21361e-06 -5.56519e-06 -4.09001e-05
0.00170523 6.30261e-05 1.68327e-05
6.30261e-05 0.000726019 -8.22858e-07
1.68327e-05 -8.22858e-07 0.000729458
0.00261885 6.31475e-05 2.42901e-05
6.31475e-05 0.00129258 -5.10762e-06
2.42901e-05 -5.10762e-06 0.00130231
0.000713504 8.62751e-05 3.31373e-06
8.62751e-05 0.000160296 4.61758e-07
3.31373e-06 4.61758e-07 3.31828e-05
0.000528947 4.22977e-05 1.44929e-06
4.22977e-05 1.52214e-05 -2.52837e-06
1.44929e-06 -2.52837e-06 -5.86635e-05
0.000466827 4.84357e-05 -1.11525e-06
4.84357e-05 1.07937e-05 -1.21461e-06
-1.11525e-06 -1.21461e-06 -0.000113913
0.000503046 -1.53247e-06 9.30153e-07
-1.53247e-06 -2.97727e-05 -5.00296e-06
9.30153e-07 -5.00296e-06 -4.71357e-05
0.00035298 3.37266e-05 -2.06797e-06
3.37266e-05 -9.19639e-05 -1.70223e-06
-2.06797e-06 -1.70223e-06 -0.000160456
0.00068247 6.85915e-05 -9.09235e-07
6.85915e-05 0.000149421 -1.34142e-06
-9.09235e-07 -1.34142e-06 3.0498e-05
0.00216698 -3.55037e-05 -1.90277e-05
-3.55037e-05 0.00100659 -4.72728e-06
-1.90277e-05 -4.72728e-06 0.00102295
0.000490669 -5.15316e-06 -9.94099e-08
-5.15316e-06 -3.81029e-05 -1.12919e-07
-9.94099e-08 -1.12919e-07 -5.09247e-05
0.000153503 1.20354e-05 -1.72514e-06
1.20354e-05 -0.000215102 3.96107e-07
-1.72514e-06 3.96107e-07 -0.000277323
0.0021106 -1.97954e-05 -5.07025e-06
-1.97954e-05 0.000971293 1.17784e-07
-5.07025e-06 1.17784e-07 0.000988957
0.000485825 -3.35208e-06 -2.03538e-06
-3.35208e-06 -4.09168e-05 3.46233e-06
-2.03538e-06 3.46233e-06 -5.08216e-05
0.00206134 -4.39079e-06 1.00539e-05
-4.39079e-06 0.000941068 4.76426e-06
1.00539e-05 4.76426e-06 0.000959259
0.00120402 -0.000165417 -3.88093e-05
-0.000165417 -0.000184567 2.93341e-05
-3.88093e-05 2.93341e-05 -0.000229812
-0.000213719 -0.000188357 4.56919e-05
-0.000188357 0.00125822 -2.7952e-06
4.56919e-05 -2.7952e-06 0.000851508
-0.000448705 -0.000336177 0.000146253
-0.000336177 0.000444722 -0.000104425
0.000146253 -0.000104425 -0.00305777
0.000245903 4.60418e-05 3.24421e-06
4.60418e-05 -0.000154798 2.72671e-06
3.24421e-06 2.72671e-06 -0.000283824
0.0018049 9.98762e-05 9.80481e-07
9.98762e-05 0.000791208 2.09054e-06
9.80481e-07 2.09054e-06 0.000638612
0.000723868 0.000132708 -1.78552e-06
0.000132708 0.000162658 -2.98683e-06
-1.78552e-06 -2.98683e-06 2.7715e-05
0.00046931 7.29034e-05 7.01989e-07
7.29034e-05 -2.47224e-05 7.99967e-07
7.01989e-07 7.99967e-07 -0.000144701
0.000515878 9.14919e-05 3.02846e-07
9.14919e-05 2.55136e-05 -3.73132e-07
3.02846e-07 -3.73132e-07 -0.000100389
0.000531939 8.32655e-05 4.6703e-06
8.32655e-05 2.67933e-05 3.11983e-06
4.6703e-06 3.11983e-06 -9.09868e-05
0.000556616 0.000163777 8.13547e-06
0.000163777 8.89588e-05 6.05713e-06
8.13547e-06 6.05713e-06 -5.063e-05
0.00100979 0.000546684 0.00014652
0.000546684 -0.000439087 0.000237252
0.00014652 0.000237252 -0.00168932
0.00404905 -0.000112799 -3.39251e-05
-0.000112799 -0.000212219 5.73125e-05
-3.39251e-05 5.73125e-05 -0.000784053
0.00373731 -0.000533123 0.000132506
-0.000533123 0.00250811 -9.7766e-05
0.000132506 -9.7766e-05 0.00145857
0.0066505 -0.000106584 -6.44179e-06
-0.000106584 -0.00565893 0.000143083
-6.44179e-06 0.000143083 -0.00194299
0.00307853 -0.00206418 -9.37252e-05
-0.00206418 0.000376334 5.66843e-05
-9.37252e-05 5.66843e-05 0.000222591
0.00104749 -0.00312308 -0.000174959
-0.00312308 0.00131463 7.55879e-05
-0.000174959 7.55879e-05 -0.00378906
0.0134784 0.00353981 9.20914e-05
0.00353981 0.0065687 -0.000124197
9.20914e-05 -0.000124197 0.00285317
0.00283746 -0.00185483 -4.98579e-05
-0.00185483 0.000495409 2.21116e-05
-4.98579e-05 2.21116e-05 0.00060571
-0.00122096 -0.000626395 -3.88637e-05
-0.000626395 0.00317887 4.66496e-05
-3.88637e-05 4.66496e-05 -0.00313274
0.00620819 0.000524268 0.000146279
0.000524268 0.00272123 -1.93788e-05
0.000146279 -1.93788e-05 -0.000184244
0.0137098 -0.00206678 -6.42167e-05
-0.00206678 0.00183163 -2.48516e-05
-6.42167e-05 -2.48516e-05 0.00316192
-0.00194753 -0.000298466 -0.00016201
-0.000298466 -0.0005786 0.000118261
-0.00016201 0.000118261 -0.000512617
0.00340858 0.00195798 -0.000156856
0.00195798 0.00456561 -8.36154e-05
-0.000156856 -8.36154e-05 -0.00179121
-0.00343803 -0.00417651 3.08838e-05
-0.00417651 -0.00112669 -0.000221681
3.08838e-05 -0.000221681 -0.00522624
0.0113702 -0.00251513 8.8582e-05
-0.00251513 0.00214113 -0.000521672
8.8582e-05 -0.000521672 0.00145346
0.00097298 2.84249e-05 9.48468e-06
2.84249e-05 0.00043458 3.099e-06
9.48468e-06 3.099e-06 0.000262187
0.000700491 0.000155667 -1.06179e-06
0.000155667 0.000192441 -1.6555e-06
-1.06179e-06 -1.6555e-06 4.04342e-05
0.000769407 -1.18612e-05 9.37433e-07
-1.18612e-05 0.000281546 -3.68083e-06
9.37433e-07 -3.68083e-06 5.18308e-05
0.000964625 0.000132797 -2.86801e-06
0.000132797 0.000334488 -6.97395e-06
-2.86801e-06 -6.97395e-06 0.00016761
-3.30807e-05 -0.000741245 1.49947e-06
-0.000741245 -0.00051038 4.21879e-05
1.49947e-06 4.21879e-05 -0.000736939
0.0040245 -0.000333627 -4.11548e-06
-0.000333627 0.00222877 -2.77327e-05
-4.11548e-06 -2.77327e-05 0.00192397
0.000687337 7.92995e-05 -4.48075e-06
7.92995e-05 0.000215605 -9.20106e-06
-4.48075e-06 -9.20106e-06 5.95938e-05
0.000462173 0.000196125 -1.93905e-06
0.000196125 0.000162384 -1.77672e-06
-1.93905e-06 -1.77672e-06 -1.57616e-05
0.000855858 9.59146e-05 -1.22368e-05
9.59146e-05 0.000769612 1.05329e-05
-1.22368e-05 1.05329e-05 0.000368351
0.000491166 5.68804e-05 3.75343e-06
5.68804e-05 0.000123945 3.69905e-06
3.75343e-06 3.69905e-06 -1.01466e-05
0.000170314 0.00017145 -4.40468e-08
0.00017145 0.000390054 1.03451e-06
-4.40468e-08 1.03451e-06 -2.3456e-05
0.00139274 -0.000340153 3.70574e-06
-0.000340153 0.00128411 3.77902e-06
3.70574e-06 3.77902e-06 0.000303751
5.22527e-05 -0.000125367 2.06716e-05
-0.000125367 0.000525079 1.56979e-06
2.06716e-05 1.56979e-06 0.000161621
-0.000387034 0.000108792 1.52776e-06
0.000108792 -0.000142837 -6.94961e-06
1.52776e-06 -6.94961e-06 -0.000375719
0.00224145 -0.000118846 -2.88649e-05
-0.000118846 0.00312551 -4.08654e-05
-2.88649e-05 -4.08654e-05 0.00157639
0.00122099 0.000313684 -1.11804e-05
0.000313684 0.00112687 2.01122e-05
-1.11804e-05 2.01122e-05 0.000638375
-0.00118877 5.5246e-05 -5.38801e-05
5.5246e-05 0.00114284 4.7507e-06
-5.38801e-05 4.7507e-06 0.000355335
0.000885433 1.60621e-05 7.01295e-06
1.60621e-05 -0.000206849 2.29685e-06
7.01295e-06 2.29685e-06 -0.000370173
-0.00183803 0.000109194 -2.74124e-06
0.000109194 0.000493049 -4.31646e-05
-2.74124e-06 -4.31646e-05 -4.57601e-05
0.000205633 0.0001969 -1.21357e-05
0.0001969 0.000488822 9.71871e-06
-1.21357e-05 9.71871e-06 0.000180166
-0.00130139 0.000665992 0.000109577
0.000665992 -0.000445935 9.41575e-05
0.000109577 9.41575e-05 -0.00104889
0.00072912 3.87561e-06 4.22797e-05
3.87561e-06 -0.000307454 -5.04476e-06
4.22797e-05 -5.04476e-06 -0.000130762
0.00450704 -0.0017564 0.000169843
-0.0017564 0.0048703 -0.000170867
0.000169843 -0.000170867 -0.00258188
0.0150141 0.00315141 -0.000139242
0.00315141 0.00673803 0.000120407
-0.000139242 0.000120407 0.00331519
0.00342191 -0.000430768 -0.000127675
-0.000430768 0.00222208 0.000106913
-0.000127675 0.000106913 0.00129582
0.0112347 0.00378129 -2.49113e-05
0.00378129 0.00337036 -0.000166688
-2.49113e-05 -0.000166688 0.00120473
0.000398197 0.000153626 -5.20664e-05
0.000153626 0.000982119 1.12205e-05
-5.20664e-05 1.12205e-05 0.00014186
0.000203573 -0.000120455 -5.36969e-05
-0.000120455 0.0012146 1.36852e-06
-5.36969e-05 1.36852e-06 0.00099146
0.00344483 -0.00108457 0.000230569
-0.00108457 0.00145526 -2.47937e-05
0.000230569 -2.47937e-05 -0.0028622
-0.00177718 -0.00015174 3.39275e-05
-0.00015174 -0.000438542 2.97193e-05
3.39275e-05 2.97193e-05 -0.000788112
0.00772643 0.00601993 0.000436376
0.00601993 0.00605896 -0.000213191
0.000436376 -0.000213191 0.00457959
0.00676329 0.00246675 -0.000154139
0.00246675 0.00154138 0.000293465
-0.000154139 0.000293465 -0.00135437
-0.00260303 -0.00109545 0.000133291
-0.00109545 0.00230709 -0.000120051
0.000133291 -0.000120051 -0.00438528
-0.00017986 -0.000360349 1.70609e-05
-0.000360349 0.000568921 -2.1849e-05
1.70609e-05 -2.1849e-05 -0.000259981
0.000142552 -0.000537934 0.000217467
-0.000537934 -0.000276859 -5.04527e-05
0.000217467 -5.04527e-05 -0.00288006
-0.00187137 0.000102308 -0.000789759
0.000102308 0.00520975 0.000220204
-0.000789759 0.000220204 0.00207051
0.0120532 0.00558018 -0.000495991
0.00558018 0.00327977 0.000512881
-0.000495991 0.000512881 0.00106952
0.00905628 -0.00264877 -9.30438e-05
-0.00264877 0.00362322 3.78029e-05
-9.30438e-05 3.78029e-05 -4.97088e-08
0.00287503 -0.00114686 -2.12919e-05
-0.00114686 0.00200895 1.84217e-05
-2.12919e-05 1.84217e-05 0.00140341
0.000648144 -6.16106e-05 7.53581e-06
-6.16106e-05 0.000627532 9.25615e-06
7.53581e-06 9.25615e-06 0.00032006
0.000281071 -0.000294665 -6.45912e-08
-0.000294665 0.000366342 -2.83141e-07
-6.45912e-08 -2.83141e-07 -5.3243e-05
0.00101455 -0.000595091 6.80318e-06
-0.000595091 0.000504248 -1.94871e-06
6.80318e-06 -1.94871e-06 0.000321305
-0.000412431 -0.000191449 2.52966e-06
-0.000191449 3.74482e-05 7.14776e-06
2.52966e-06 7.14776e-06 -0.000280882
-0.000780006 -0.000298018 1.4016e-06
-0.000298018 -0.000468583 -1.05704e-06
1.4016e-06 -1.05704e-06 -0.000680382
0.0027193 -0.00072122 4.22057e-05
-0.00072122 0.00109496 -4.26144e-06
4.22057e-05 -4.26144e-06 0.000796186
0.00616107 -0.00105434 -1.45793e-05
-0.00105434 0.00317174 5.16692e-06
-1.45793e-05 5.16692e-06 0.00276053
0.00267762 -0.000692883 7.09663e-06
-0.000692883 0.0011492 -3.20317e-07
7.09663e-06 -3.20317e-07 0.000625723
0.00164086 -0.000674631 1.10492e-05
-0.000674631 0.000411809 -9.37872e-06
1.10492e-05 -9.37872e-06 -0.000134028
0.00150074 -0.000494953 -7.98054e-06
-0.000494953 0.000360125 -3.64609e-06
-7.98054e-06 -3.64609e-06 -2.81586e-05
0.00234793 -0.000711151 2.99993e-06
-0.000711151 0.000790405 -7.87411e-07
2.99993e-06 -7.87411e-07 0.000290324
0.00233987 -0.000756976 2.28092e-06
-0.000756976 0.000716997 -9.62221e-06
2.28092e-06 -9.62221e-06 0.000219076
0.00208954 -0.000653587 -3.08128e-06
-0.000653587 0.000401947 -4.8832e-06
-3.08128e-06 -4.8832e-06 4.58702e-05
0.00220304 -0.000741429 -3.9325e-06
-0.000741429 0.00058167 1.59268e-06
-3.9325e-06 1.59268e-06 0.00016928
0.00205616 -0.000725604 -2.2767e-06
-0.000725604 0.000515418 1.06488e-08
-2.2767e-06 1.06488e-08 7.49615e-05
0.00188547 -0.000560218 7.47803e-06
-0.000560218 0.000599467 1.06834e-06
7.47803e-06 1.06834e-06 0.000249212
0.0013527 -0.000527796 1.61606e-06
-0.000527796 0.000241919 -1.73948e-07
1.61606e-06 -1.73948e-07 -0.000119373
0.00125253 -0.000513216 4.75722e-07
-0.000513216 0.000169825 2.58293e-07
4.75722e-07 2.58293e-07 -0.000212768
0.0016076 -0.000376483 3.54858e-06
-0.000376483 0.000530003 1.60217e-06
3.54858e-06 1.60217e-06 0.000261223
0.001436 -0.000399965 -7.69997e-07
-0.000399965 0.000384574 -1.42271e-06
-7.69997e-07 -1.42271e-06 9.4177e-05
0.00139727 -0.000438966 9.42374e-06
-0.000438966 0.00030101 -3.19042e-06
9.42374e-06 -3.19042e-06 -1.73702e-05
0.000702838 -0.000170001 2.82395e-06
-0.000170001 0.000185465 -1.00401e-06
2.82395e-06 -1.00401e-06 -8.60027e-05
0.000676656 -0.000207024 -1.79156e-06
-0.000207024 8.3338e-05 1.18069e-06
-1.79156e-06 1.18069e-06 -0.000156669
0.00110846 -0.000342867 6.51935e-06
-0.000342867 0.000247682 -7.21193e-06
6.51935e-06 -7.21193e-06 -1.9403e-05
0.000235236 -2.95621e-05 4.34094e-08
-2.95621e-05 -0.000167368 5.08276e-06
4.34094e-08 5.08276e-06 -0.000287726
0.000707105 -7.41811e-05 -8.73296e-07
-7.41811e-05 0.000179494 3.49898e-07
-8.73296e-07 3.49898e-07 -3.25407e-05
0.00134886 -0.0002593 1.37757e-06
-0.0002593 0.000602958 8.86222e-08
1.37757e-06 8.86222e-08 0.000342152
0.000424459 1.2891e-05 -4.11623e-06
1.2891e-05 -5.82551e-05 1.08844e-05
-4.11623e-06 1.08844e-05 -9.83704e-05
0.000646289 -3.39392e-05 -2.24204e-07
-3.39392e-05 8.79399e-05 -6.17313e-08
-2.24204e-07 -6.17313e-08 -1.53098e-05
0.00123155 -0.000154671 8.39963e-08
-0.000154671 0.000465883 -6.72489e-07
8.39963e-08 -6.72489e-07 0.000305455
0.000661358 -4.23347e-05 1.293e-06
-4.23347e-05 0.000101843 -4.01296e-06
1.293e-06 -4.01296e-06 7.97864e-06
0.000481542 2.45501e-05 -5.67233e-08
2.45501e-05 -2.35298e-05 -2.04023e-07
-5.67233e-08 -2.04023e-07 -5.93973e-05
0.00278047 0.000118963 -3.48406e-05
0.000118963 0.00141129 4.20866e-06
-3.48406e-05 4.20866e-06 0.00141098
0.000547875 1.96249e-05 1.18821e-06
1.96249e-05 8.60056e-06 -6.41688e-06
1.18821e-06 -6.41688e-06 -2.1338e-05
0.00266717 9.92811e-05 4.07951e-06
9.92811e-05 0.00133273 4.47539e-07
4.07951e-06 4.47539e-07 0.00133704
0.00259348 8.07497e-05 2.77816e-05
8.07497e-05 0.00128066 -4.63649e-06
2.77816e-05 -4.63649e-06 0.00128843
0.000758845 8.43727e-05 2.58126e-06
8.43727e-05 0.000234183 -3.36766e-06
2.58126e-06 -3.36766e-06 6.06109e-05
0.000789084 0.000110899 5.46472e-06
0.000110899 0.00022164 -2.4826e-08
5.46472e-06 -2.4826e-08 7.00584e-05
0.000580779 3.4346e-05 2.55031e-06
3.4346e-05 4.50408e-05 -3.29563e-06
2.55031e-06 -3.29563e-06 -3.68707e-05
0.000631938 9.81269e-05 2.26351e-07
9.81269e-05 0.000106464 -2.29527e-07
2.26351e-07 -2.29527e-07 -1.86168e-05
0.00048719 -5.2403e-06 4.38904e-07
-5.2403e-06 -3.71518e-05 -6.02317e-06
4.38904e-07 -6.02317e-06 -5.93777e-05
0.000550307 4.55277e-05 2.12059e-07
4.55277e-05 2.86421e-05 -1.44173e-07
2.12059e-07 -1.44173e-07 -4.52879e-05
0.00058894 5.28119e-05 -3.58307e-06
5.28119e-05 7.30202e-05 -9.76046e-07
-3.58307e-06 -9.76046e-07 -4.2994e-05
0.00231442 -5.14311e-05 -2.48704e-05
-5.14311e-05 0.00110012 -4.83169e-06
-2.48704e-05 -4.83169e-06 0.00111408
0.000492888 -7.04794e-06 -7.03505e-07
-7.04794e-06 -3.56021e-05 -1.16418e-07
-7.03505e-07 -1.16418e-07 -5.27048e-05
0.000496074 5.16359e-05 -3.0188e-06
5.16359e-05 -2.11773e-06 7.84624e-07
-3.0188e-06 7.84624e-07 -6.99917e-05
0.00218001 -3.47999e-05 -4.61691e-06
-3.47999e-05 0.00101468 2.17171e-07
-4.61691e-06 2.17171e-07 0.0010311
0.000490766 -5.32117e-06 -2.15443e-06
-5.32117e-06 -3.81711e-05 3.81425e-06
-2.15443e-06 3.81425e-06 -5.07439e-05
0.00209511 -1.89371e-05 1.42334e-05
-1.89371e-05 0.000961438 4.65844e-06
1.42334e-05 4.65844e-06 0.000979215
-0.00170765 6.35457e-05 -1.32425e-05
6.35457e-05 -3.97267e-05 -1.35787e-05
-1.32425e-05 -1.35787e-05 -6.14137e-05
0.00121271 -0.000163507 -1.6265e-05
-0.000163507 -0.000142557 2.14639e-05
-1.6265e-05 2.14639e-05 -4.78152e-05
0.000150724 -0.000176702 7.30036e-06
-0.000176702 0.00120536 -2.96985e-05
7.30036e-06 -2.96985e-05 0.00084502
0.000810122 9.18323e-05 -3.69693e-07
9.18323e-05 0.000227823 7.15244e-07
-3.69693e-07 7.15244e-07 7.35728e-05
0.000490561 8.64653e-05 3.76472e-06
8.64653e-05 -1.56026e-05 -1.12565e-06
3.76472e-06 -1.12565e-06 -0.00015742
-0.00156175 -1.15519e-05 -3.56939e-06
-1.15519e-05 -0.00124902 -8.44192e-06
-3.56939e-06 -8.44192e-06 -0.00136901
8.62358e-06 3.79845e-05 2.54285e-06
3.79845e-05 -0.000282575 9.85953e-06
2.54285e-06 9.85953e-06 -0.000414527
0.00277491 0.00036259 -2.24569e-06
0.00036259 0.00143525 -1.26987e-06
-2.24569e-06 -1.26987e-06 0.00120827
0.000701825 4.46879e-05 -5.02227e-06
4.46879e-05 0.000109027 -3.828e-06
-5.02227e-06 -3.828e-06 -8.31404e-06
0.000527532 8.67207e-05 -4.82327e-06
8.67207e-05 2.70656e-05 -7.59479e-06
-4.82327e-06 -7.59479e-06 -9.02704e-05
0.000702146 6.98367e-05 1.82427e-07
6.98367e-05 0.000133016 -3.73472e-07
1.82427e-07 -3.73472e-07 1.33633e-05
0.000959354 0.000145479 -2.54483e-07
0.000145479 0.000316117 -1.30524e-06
-2.54483e-07 -1.30524e-06 0.000188151
0.000735894 0.000108526 6.25146e-06
0.000108526 0.000282872 -1.07033e-05
6.25146e-06 -1.07033e-05 9.39355e-05
0.00469528 0.00068551 0.000318487
0.00068551 0.00331143 0.000415886
0.000318487 0.000415886 -0.00107936
0.0016474 0.000479496 1.67955e-05
0.000479496 -5.88672e-05 8.4907e-05
1.67955e-05 8.4907e-05 -0.00154238
0.00353321 -9.49925e-05 1.34423e-05
-9.49925e-05 -0.000114358 -1.49234e-05
1.34423e-05 -1.49234e-05 -0.000364939
0.013419 -0.0017539 -0.000214821
-0.0017539 0.00188779 -0.000139889
-0.000214821 -0.000139889 0.00356783
-0.00447122 0.00159828 5.74821e-05
0.00159828 -0.00223422 0.000402738
5.74821e-05 0.000402738 -0.00616056
0.00353536 -0.00192619 -6.95952e-05
-0.00192619 0.00122925 4.6991e-06
-6.95952e-05 4.6991e-06 0.00129108
0.00982109 -0.00180341 -0.00012235
-0.00180341 0.00532879 1.4845e-05
-0.00012235 1.4845e-05 0.000707983
0.000933873 -0.000510653 -3.69664e-05
-0.000510653 0.000587454 8.54653e-05
-3.69664e-05 8.54653e-05 0.000346956
0.00956481 -0.000179621 -0.000112244
-0.000179621 0.00600237 -3.90678e-06
-0.000112244 -3.90678e-06 5.5318e-05
0.00429358 -0.00229728 9.42782e-05
-0.00229728 0.0026636 0.00015734
9.42782e-05 0.00015734 -0.00124107
0.0127759 -0.00339087 -0.000183398
-0.00339087 0.0013104 -0.000616352
-0.000183398 -0.000616352 0.000433451
0.00386729 1.53267e-05 -9.25751e-05
1.53267e-05 0.00291335 8.85443e-05
-9.25751e-05 8.85443e-05 0.00209367
0.0125315 0.00223165 -0.000141625
0.00223165 0.00639801 2.86738e-05
-0.000141625 2.86738e-05 0.00178461
0.0171994 -0.00502919 -0.000203881
-0.00502919 0.0078609 -0.000581152
-0.000203881 -0.000581152 0.00494423
0.0179413 -0.0063818 7.28971e-05
-0.0063818 0.00622682 -5.48872e-05
7.28971e-05 -5.48872e-05 0.00519845
0.000663375 0.000198247 1.1583e-05
0.000198247 0.000318946 7.9093e-07
1.1583e-05 7.9093e-07 9.47991e-05
0.000326905 4.45303e-05 2.36473e-06
4.45303e-05 9.57981e-05 2.49457e-06
2.36473e-06 2.49457e-06 -0.000109882
0.000937712 0.000171386 -6.57918e-06
0.000171386 0.000349424 -1.03269e-05
-6.57918e-06 -1.03269e-05 0.00018685
0.00426049 -0.000462859 -4.30668e-05
-0.000462859 0.00225019 3.69824e-05
-4.30668e-05 3.69824e-05 0.00114726
0.000189935 -8.6268e-05 -8.60379e-06
-8.6268e-05 0.000714893 -4.02235e-05
-8.60379e-06 -4.02235e-05 0.000318575
0.000145424 -2.26897e-06 -7.1474e-06
-2.26897e-06 -9.10626e-05 1.38577e-06
-7.1474e-06 1.38577e-06 -0.000218484
-8.9255e-05 6.74344e-05 3.05091e-06
6.74344e-05 0.000237824 -5.1372e-06
3.05091e-06 -5.1372e-06 -0.000171959
0.000244212 0.000109012 2.06778e-06
0.000109012 0.000208949 -1.12246e-06
2.06778e-06 -1.12246e-06 -3.68156e-05
0.000490119 0.000293516 9.03549e-06
0.000293516 0.000638688 -4.43037e-08
9.03549e-06 -4.43037e-08 0.000150541
-0.00176903 -0.000115246 0.000243809
-0.000115246 0.000707412 -1.31965e-05
0.000243809 -1.31965e-05 -0.000969899
-0.00184428 0.000197725 -1.70993e-05
0.000197725 -0.000944422 1.37281e-05
-1.70993e-05 1.37281e-05 -0.00128522
0.00284487 0.000725735 -0.000130324
0.000725735 0.00212732 -7.12044e-05
-0.000130324 -7.12044e-05 0.000911612
0.00150032 0.000187316 0.000146864
0.000187316 0.00161147 4.66198e-05
0.000146864 4.66198e-05 -0.00187417
-0.00152949 9.7554e-05 -2.63232e-05
9.7554e-05 0.000857617 1.74741e-05
-2.63232e-05 1.74741e-05 0.000103962
0.00190788 -0.000171637 -1.27569e-05
-0.000171637 0.000258328 2.14871e-07
-1.27569e-05 2.14871e-07 0.000575411
-0.000695911 0.000418649 0.00011335
0.000418649 0.000273943 1.60593e-05
0.00011335 1.60593e-05 -0.000646009
0.00147904 0.000296528 -6.89364e-05
0.000296528 0.00173031 7.06533e-05
-6.89364e-05 7.06533e-05 0.000542246
8.22561e-05 -0.000187694 -1.4299e-05
-0.000187694 0.00114597 4.47233e-06
-1.4299e-05 4.47233e-06 0.000787281
0.0162077 -0.00329354 0.000187737
-0.00329354 0.0076781 -8.62101e-05
0.000187737 -8.62101e-05 0.0022762
0.0205393 0.0036698 -5.84435e-05
0.0036698 0.00865438 -0.000118896
-5.84435e-05 -0.000118896 0.00536355
0.00463003 -0.00119658 -0.000181181
-0.00119658 0.00219554 0.000205188
-0.000181181 0.000205188 -0.00208924
0.000216748 0.00685059 0.00196702
0.00685059 0.00168149 -0.0013291
0.00196702 -0.0013291 0.000288301
0.000969505 -0.00040426 2.48938e-05
-0.00040426 0.00118175 -7.73213e-06
2.48938e-05 -7.73213e-06 0.00026923
-7.61297e-05 -0.000388238 3.0142e-05
-0.000388238 0.000202041 1.49862e-05
3.0142e-05 1.49862e-05 -0.00289739
-0.00167694 0.0004424 -0.000926123
0.0004424 0.00504613 0.000314756
-0.000926123 0.000314756 0.00167851
0.000961855 -0.00067368 -2.26751e-06
-0.00067368 0.00097613 3.22061e-05
-2.26751e-06 3.22061e-05 0.000444738
0.018307 0.00491119 0.000265347
0.00491119 0.00537327 8.37051e-05
0.000265347 8.37051e-05 0.00331487
0.00754938 -0.0036311 0.000155169
-0.0036311 0.00256007 -6.68038e-05
0.000155169 -6.68038e-05 -0.00104787
0.00208473 -0.00104741 -1.79871e-05
-0.00104741 0.0011139 3.03125e-05
-1.79871e-05 3.03125e-05 0.000540027
-0.00642244 -0.00134702 0.000109527
-0.00134702 0.00430994 -5.91985e-05
0.000109527 -5.91985e-05 0.000780876
0.0145685 0.00454195 -0.00117462
0.00454195 0.00575752 0.000474399
-0.00117462 0.000474399 0.0037786
0.00499946 -0.00260103 -0.000343234
-0.00260103 -0.000428398 0.000175878
-0.000343234 0.000175878 -0.00392803
0.00199343 -0.00171627 0.000181136
-0.00171627 0.000278826 -9.84528e-05
0.000181136 -9.84528e-05 0.00106605
0.000149612 -0.000345799 -7.11022e-05
-0.000345799 0.000256863 2.59326e-05
-7.11022e-05 2.59326e-05 -0.000128827
0.000679695 -0.000522865 -7.69522e-06
-0.000522865 0.000369794 1.2257e-05
-7.69522e-06 1.2257e-05 0.000111248
0.00345478 -0.000798484 2.79292e-05
-0.000798484 0.00159841 -3.22604e-06
2.79292e-05 -3.22604e-06 0.00128797
-0.00224302 -0.000167198 4.72416e-06
-0.000167198 -0.00113889 1.32875e-05
4.72416e-06 1.32875e-05 -0.00136121
0.000892248 -0.000507482 5.50114e-06
-0.000507482 0.000137861 1.80362e-08
5.50114e-06 1.80362e-08 -0.000140055
0.0023754 -0.000783401 9.14947e-06
-0.000783401 0.000628385 -3.48432e-07
9.14947e-06 -3.48432e-07 0.000291797
0.00365019 -0.000814697 -2.71657e-05
-0.000814697 0.0016023 6.78058e-06
-2.71657e-05 6.78058e-06 0.0010874
0.00146959 -0.000637639 -3.29539e-07
-0.000637639 0.000300684 -8.41854e-07
-3.29539e-07 -8.41854e-07 -0.000220933
0.00181944 -0.000779035 4.56868e-06
-0.000779035 0.000265989 -9.36652e-06
4.56868e-06 -9.36652e-06 -0.000158094
0.00279321 -0.000772624 -3.12385e-06
-0.000772624 0.00101027 3.54604e-06
-3.12385e-06 3.54604e-06 0.0005007
0.00201348 -0.000726682 2.33567e-07
-0.000726682 0.000513307 -4.94815e-06
2.33567e-07 -4.94815e-06 3.37643e-05
0.00250984 -0.000703568 1.39082e-06
-0.000703568 0.000583593 -8.79709e-06
1.39082e-06 -8.79709e-06 0.000235253
0.00169922 -0.00047281 -4.4785e-06
-0.00047281 2.72145e-05 -3.23214e-06
-4.4785e-06 -3.23214e-06 -0.000210969
0.00179668 -0.00064573 -6.12112e-07
-0.00064573 0.000188878 -9.08709e-07
-6.12112e-07 -9.08709e-07 -0.000162766
0.00201186 -0.00064563 2.62191e-06
-0.00064563 0.000352911 -2.99732e-06
2.62191e-06 -2.99732e-06 6.86889e-07
0.00206025 -0.000647825 -9.36749e-07
-0.000647825 0.000566055 -1.933e-07
-9.36749e-07 -1.933e-07 0.000195128
0.00216045 -0.000735672 -2.42207e-06
-0.000735672 0.000568784 7.18238e-08
-2.42207e-06 7.18238e-08 0.000152491
0.00230705 -0.000755994 2.62143e-06
-0.000755994 0.000651438 -3.16027e-06
2.62143e-06 -3.16027e-06 0.000201852
0.00182699 -0.000467992 3.92187e-06
-0.000467992 0.000612668 2.97401e-06
3.92187e-06 2.97401e-06 0.000302031
0.0013195 -0.000492829 2.01469e-06
-0.000492829 0.000271074 6.24288e-07
2.01469e-06 6.24288e-07 -6.18219e-05
0.00111497 -0.000495711 3.2366e-06
-0.000495711 0.000103626 7.36002e-07
3.2366e-06 7.36002e-07 -0.000244262
0.00119234 -0.000314457 -1.23713e-06
-0.000314457 0.000358148 8.40521e-07
-1.23713e-06 8.40521e-07 0.000103311
0.00110062 -0.000317101 -3.55039e-08
-0.000317101 0.000225788 -8.81318e-07
-3.55039e-08 -8.81318e-07 -3.1925e-05
0.00111022 -0.000363836 -4.75217e-06
-0.000363836 0.000184337 -3.25187e-06
-4.75217e-06 -3.25187e-06 -0.000101324
-0.000184092 -5.23895e-05 -1.31496e-06
-5.23895e-05 -0.000411749 5.6661e-06
-1.31496e-06 5.6661e-06 -0.000587379
0.000776712 -0.000188558 1.84406e-06
-0.000188558 0.000229115 -6.15094e-08
1.84406e-06 -6.15094e-08 -4.14317e-05
0.00131615 -0.000264809 -2.24778e-06
-0.000264809 0.000492149 1.6668e-06
-2.24778e-06 1.6668e-06 0.000237049
0.001727 5.00657e-05 -3.51077e-05
5.00657e-05 0.000758036 6.99336e-06
-3.51077e-05 6.99336e-06 0.000714057
0.000712706 -7.22288e-05 1.7682e-07
-7.22288e-05 0.000119851 -7.77924e-07
1.7682e-07 -7.77924e-07 -4.8025e-06
0.0015349 -0.000127067 -2.29702e-06
-0.000127067 0.000691857 -1.20135e-06
-2.29702e-06 -1.20135e-06 0.000469569
0.000740258 4.24909e-05 -4.33205e-05
4.24909e-05 0.000142305 4.90875e-06
-4.33205e-05 4.90875e-06 0.000134541
0.00108256 3.15503e-05 -1.41183e-05
3.15503e-05 0.000353111 -5.25302e-07
-1.41183e-05 -5.25302e-07 0.000313857
0.000681623 -4.42786e-05 2.06713e-06
-4.42786e-05 0.000104619 -4.73742e-06
2.06713e-06 -4.73742e-06 2.42485e-06
0.000558065 2.12707e-05 2.01753e-06
2.12707e-05 2.24871e-05 -7.67258e-06
2.01753e-06 -7.67258e-06 -1.33292e-05
0.00282125 0.000119895 6.99704e-06
0.000119895 0.00143711 6.34053e-07
6.99704e-06 6.34053e-07 0.00143667
0.00265361 0.000100178 3.08905e-05
0.000100178 0.00132488 -4.46872e-06
3.08905e-05 -4.46872e-06 0.00132903
0.00106641 0.000128509 7.29969e-06
0.000128509 0.000406077 1.06786e-06
7.29969e-06 1.06786e-06 0.000228589
0.00120674 0.000141782 3.50841e-06
0.000141782 0.000502012 -1.97981e-06
3.50841e-06 -1.97981e-06 0.000324313
0.00023447 6.67958e-05 -4.14399e-07
6.67958e-05 -0.000114482 1.05751e-06
-4.14399e-07 1.05751e-06 -0.000268053
0.000615981 2.73472e-05 2.95574e-06
2.73472e-05 6.71195e-05 -4.51482e-06
2.95574e-06 -4.51482e-06 -2.55854e-05
0.000809003 0.000100552 6.39512e-07
0.000100552 0.000226827 6.62106e-08
6.39512e-07 6.62106e-08 8.38219e-05
0.000476922 2.48983e-06 -1.25831e-06
2.48983e-06 -3.85153e-05 -7.17386e-06
-1.25831e-06 -7.17386e-06 -6.5552e-05
0.000557217 3.71369e-05 -1.14568e-07
3.71369e-05 3.27402e-05 -3.55123e-07
-1.14568e-07 -3.55123e-07 -4.99662e-05
0.000713062 6.66624e-05 -2.85945e-06
6.66624e-05 0.000178108 2.3381e-07
-2.85945e-06 2.3381e-07 3.71456e-05
0.00251315 -6.89783e-05 -3.25761e-05
-6.89783e-05 0.00122752 -4.73899e-06
-3.25761e-05 -4.73899e-06 0.00123841
0.000471095 -2.97141e-06 -7.41247e-07
-2.97141e-06 -4.66157e-05 -1.13123e-07
-7.41247e-07 -1.13123e-07 -6.86101e-05
0.000564836 4.98074e-05 -6.94418e-07
4.98074e-05 3.85418e-05 2.88663e-06
-6.94418e-07 2.88663e-06 -3.5711e-05
0.00231991 -5.12972e-05 -5.56479e-06
-5.12972e-05 0.00110347 3.30792e-07
-5.56479e-06 3.30792e-07 0.0011175
0.000468468 -1.1851e-05 -3.21831e-06
-1.1851e-05 -5.03298e-05 4.76387e-06
-3.21831e-06 4.76387e-06 -6.72633e-05
0.00218922 -3.34755e-05 1.97006e-05
-3.34755e-05 0.00102037 4.58887e-06
1.97006e-05 4.58887e-06 0.00103693
0.00621578 0.000445141 0.000250515
0.000445141 0.00322698 5.06879e-05
0.000250515 5.06879e-05 0.00135819
-0.00149994 2.21893e-05 -1.34707e-06
2.21893e-05 -4.4651e-05 -4.96165e-06
-1.34707e-06 -4.96165e-06 -0.000233454
0.000810545 -2.43215e-05 -1.96195e-05
-2.43215e-05 -0.000102312 -1.55346e-06
-1.96195e-05 -1.55346e-06 1.91769e-05
-0.000312032 9.34101e-05 -7.02792e-06
9.34101e-05 -0.000491442 -9.52824e-07
-7.02792e-06 -9.52824e-07 -0.00062953
0.000588368 7.9408e-05 -5.49288e-06
7.9408e-05 8.68099e-05 -2.48731e-06
-5.49288e-06 -2.48731e-06 -5.757e-05
0.000147456 6.41974e-05 -1.44752e-07
6.41974e-05 -0.000228861 -2.05845e-06
-1.44752e-07 -2.05845e-06 -0.000364373
0.001044 6.58745e-05 9.04271e-07
6.58745e-05 0.000337722 -4.15937e-07
9.04271e-07 -4.15937e-07 0.000196766
0.000198473 8.72029e-05 -2.09024e-06
8.72029e-05 -0.000191377 -9.57729e-07
-2.09024e-06 -9.57729e-07 -0.000318801
0.00189776 0.000265092 -4.43354e-07
0.000265092 0.000896198 -2.936e-06
-4.43354e-07 -2.936e-06 0.000713394
0.00109876 0.000218322 -6.50686e-06
0.000218322 0.000377942 -1.58334e-05
-6.50686e-06 -1.58334e-05 0.000118801
-0.000630787 6.17529e-05 2.16807e-06
6.17529e-05 -0.000480721 7.77546e-07
2.16807e-06 7.77546e-07 -0.000743455
0.000822756 0.000144258 -4.49715e-06
0.000144258 0.000229058 -4.39605e-06
-4.49715e-06 -4.39605e-06 9.29341e-05
0.000149521 4.6771e-05 -5.68587e-06
4.6771e-05 -0.000214674 -6.59092e-06
-5.68587e-06 -6.59092e-06 -0.000310616
0.000142103 5.1123e-05 1.96531e-07
5.1123e-05 -9.48843e-05 8.61659e-07
1.96531e-07 8.61659e-07 -0.00027082
0.000799489 0.00021784 1.33112e-05
0.00021784 0.000445309 -1.91342e-06
1.33112e-05 -1.91342e-06 0.000137549
0.00199519 -0.00216191 0.000141349
-0.00216191 0.00469053 0.000252617
0.000141349 0.000252617 0.000237694
0.00540926 0.000936775 8.95031e-05
0.000936775 0.00284377 0.000150099
8.95031e-05 0.000150099 -0.00184113
0.00228373 0.000333641 -2.91645e-05
0.000333641 0.000381112 -7.86335e-05
-2.91645e-05 -7.86335e-05 -0.00131842
0.0196035 -0.00419938 -0.000559828
-0.00419938 0.00478155 -0.000319631
-0.000559828 -0.000319631 0.00376815
0.00618839 -0.00153997 0.000219209
-0.00153997 0.00310996 0.000418203
0.000219209 0.000418203 0.000216864
0.00312317 -0.00128749 -0.000186977
-0.00128749 0.00437857 8.75667e-05
-0.000186977 8.75667e-05 -0.00212563
-1.10759e-05 -0.000532692 0.00010428
-0.000532692 0.0010201 1.80134e-05
0.00010428 1.80134e-05 0.000125725
0.000441226 -0.000145184 5.08422e-05
-0.000145184 0.000918373 5.69718e-05
5.08422e-05 5.69718e-05 0.000433335
0.00971545 -0.00657579 0.000366603
-0.00657579 0.0039842 0.000350452
0.000366603 0.000350452 0.00280331
0.00258081 0.00137614 -7.31806e-05
0.00137614 0.00392917 -6.90237e-05
-7.31806e-05 -6.90237e-05 -0.00198422
0.0062929 -0.00303781 -0.000104839
-0.00303781 0.00198503 8.63177e-05
-0.000104839 8.63177e-05 -0.00148889
0.000448166 0.000550809 -2.6789e-05
0.000550809 0.000846846 6.45825e-05
-2.6789e-05 6.45825e-05 0.000622418
0.0113022 0.00298521 -0.000100584
0.00298521 0.00414898 9.83166e-06
-0.000100584 9.83166e-06 0.000552119
0.0110513 -0.00540592 -0.000676887
-0.00540592 0.00277914 -0.000464069
-0.000676887 -0.000464069 0.00033585
-0.000100677 0.000393275 2.5945e-07
0.000393275 -0.000432224 -5.08172e-06
2.5945e-07 -5.08172e-06 -0.000578858
0.000409899 0.000112835 7.41749e-06
0.000112835 0.00014042 2.74476e-06
7.41749e-06 2.74476e-06 -4.5877e-05
4.30231e-05 4.91049e-05 -6.62809e-06
4.91049e-05 -8.24014e-05 -4.77842e-06
-6.62809e-06 -4.77842e-06 -0.000284563
-0.00346105 -0.000317256 -0.000129653
-0.000317256 -0.000201691 -6.12019e-05
-0.000129653 -6.12019e-05 -0.00182822
-0.000953725 0.000211962 1.36489e-05
0.000211962 -0.000255506 -1.94594e-05
1.36489e-05 -1.94594e-05 -0.000739583
0.000888169 0.000146628 -6.83655e-06
0.000146628 0.000557455 6.21154e-06
-6.83655e-06 6.21154e-06 0.00030635
0.000960927 0.000548888 1.6292e-05
0.000548888 0.000519737 3.96723e-06
1.6292e-05 3.96723e-06 0.000151022
-0.00042796 0.000380526 4.90172e-05
0.000380526 0.000538138 -2.7354e-05
4.90172e-05 -2.7354e-05 -0.000514391
0.000250954 0.000987774 4.4652e-05
0.000987774 -0.000254048 5.16575e-06
4.4652e-05 5.16575e-06 -0.000919141
-0.00493889 0.000913568 0.000284421
0.000913568 0.0048739 1.12086e-05
0.000284421 1.12086e-05 -0.000739378
0.00226616 -6.57314e-05 -6.47614e-06
-6.57314e-05 0.0018234 5.32072e-05
-6.47614e-06 5.32072e-05 -0.000643286
-0.00189842 -4.91884e-05 -8.30972e-06
-4.91884e-05 0.000450683 3.66746e-05
-8.30972e-06 3.66746e-05 -7.23269e-05
-0.00046954 -0.000197741 -5.0447e-05
-0.000197741 0.000551535 1.15943e-05
-5.0447e-05 1.15943e-05 -0.000403671
-0.00126203 -0.000313264 -4.90596e-05
-0.000313264 -0.0006038 3.6777e-05
-4.90596e-05 3.6777e-05 -0.000302534
9.99605e-05 -0.000309053 -0.000153836
-0.000309053 0.000465781 8.88895e-05
-0.000153836 8.88895e-05 -0.00278687
-8.14678e-05 -0.00300307 0.00021502
-0.00300307 0.00181603 -8.51397e-05
0.00021502 -8.51397e-05 -0.00332856
0.00475975 0.00423247 0.000526658
0.00423247 -0.00131755 -0.000392884
0.000526658 -0.000392884 -0.00327324
0.00736207 0.00230121 -0.000355719
0.00230121 0.00625433 0.00025538
-0.000355719 0.00025538 0.00315437
0.00132095 -0.000624753 -7.98663e-06
-0.000624753 0.00104647 -3.13359e-06
-7.98663e-06 -3.13359e-06 0.000512428
0.00146373 0.000381346 8.9288e-05
0.000381346 0.00612971 -9.97791e-06
8.9288e-05 -9.97791e-06 0.00298185
-0.000603697 0.00306543 1.33463e-05
0.00306543 0.000243402 5.45619e-05
1.33463e-05 5.45619e-05 -0.00260912
0.00238635 -0.00200585 8.16475e-05
-0.00200585 0.000657001 -3.11718e-05
8.16475e-05 -3.11718e-05 0.000726413
0.0166308 -0.00280272 2.4541e-05
-0.00280272 0.00397499 -9.84557e-06
2.4541e-05 -9.84557e-06 0.0020818
0.00327855 -0.00129174 9.11841e-06
-0.00129174 0.00129872 2.15139e-05
9.11841e-06 2.15139e-05 0.00108108
-0.00898256 0.000940338 -0.000431232
0.000940338 -0.00318692 5.31113e-05
-0.000431232 5.31113e-05 -0.00530482
0.0153531 -0.00179134 -0.000191537
-0.00179134 0.00247346 6.77233e-05
-0.000191537 6.77233e-05 0.000979871
0.00374548 -0.00228117 8.7763e-05
-0.00228117 -0.000160828 -6.28597e-05
8.7763e-05 -6.28597e-05 2.55007e-05
0.000208385 -0.000409769 -1.23787e-05
-0.000409769 0.000193702 1.70601e-05
-1.23787e-05 1.70601e-05 -0.000136094
0.000761783 -0.000628789 -3.63902e-06
-0.000628789 2.57781e-05 4.81812e-07
-3.63902e-06 4.81812e-07 -0.000146401
0.00562342 -0.000935664 2.61195e-05
-0.000935664 0.00243288 -5.63046e-06
2.61195e-05 -5.63046e-06 0.00208815
-0.000821263 -0.000314066 -9.72576e-06
-0.000314066 -0.000745186 7.17554e-06
-9.72576e-06 7.17554e-06 -0.00101124
0.00141575 -0.000676744 -5.82304e-06
-0.000676744 0.000158483 -2.95435e-06
-5.82304e-06 -2.95435e-06 -0.000192884
0.00257597 -0.00086084 5.53204e-06
-0.00086084 0.00055408 -7.05026e-06
5.53204e-06 -7.05026e-06 0.000204648
0.00130954 -0.000602633 -1.41986e-05
-0.000602633 0.000191833 4.04286e-06
-1.41986e-05 4.04286e-06 -0.00030928
0.0018069 -0.000762596 -1.58159e-06
-0.000762596 0.000270593 -4.59038e-07
-1.58159e-06 -4.59038e-07 -0.000157626
0.00161203 -0.000628105 2.03049e-06
-0.000628105 -6.54099e-05 -4.66996e-06
2.03049e-06 -4.66996e-06 -0.000334392
0.00147597 -0.000673828 -6.46463e-06
-0.000673828 0.000195171 1.67406e-06
-6.46463e-06 1.67406e-06 -0.00026515
0.00185108 -0.000625172 -7.13735e-07
-0.000625172 0.000228695 1.34704e-06
-7.13735e-07 1.34704e-06 -0.000103449
0.00185383 -0.000480706 -1.09054e-06
-0.000480706 4.94949e-05 -3.96285e-06
-1.09054e-06 -3.96285e-06 -0.000147631
0.0017933 -0.000393484 -5.53884e-06
-0.000393484 6.33733e-05 -1.25839e-06
-5.53884e-06 -1.25839e-06 -0.000100462
0.00163448 -0.000479387 -5.47077e-06
-0.000479387 7.03511e-06 -1.84146e-06
-5.47077e-06 -1.84146e-06 -0.000240538
0.00173719 -0.00046883 1.21992e-06
-0.00046883 5.45252e-05 2.6497e-06
1.21992e-06 2.6497e-06 -0.000179206
0.00159704 -0.000557597 -4.58755e-06
-0.000557597 0.000127705 -1.71509e-06
-4.58755e-06 -1.71509e-06 -0.00019059
0.00196124 -0.000652296 2.49118e-06
-0.000652296 0.000301369 -4.6063e-07
2.49118e-06 -4.6063e-07 -4.67541e-05
0.00202268 -0.00064587 3.07752e-06
-0.00064587 0.000354224 1.08919e-06
3.07752e-06 1.08919e-06 4.6789e-06
0.00151822 -0.000523629 -2.27638e-06
-0.000523629 0.000293686 -1.34898e-08
-2.27638e-06 -1.34898e-08 -4.45432e-05
0.00191815 -0.000637328 1.05335e-06
-0.000637328 0.000479645 -3.62444e-07
1.05335e-06 -3.62444e-07 0.000108526
0.00207442 -0.000724262 -1.5884e-06
-0.000724262 0.000530457 -1.31515e-06
-1.5884e-06 -1.31515e-06 0.000110943
0.00128766 -0.000320978 -5.02694e-06
-0.000320978 0.000301069 1.19491e-06
-5.02694e-06 1.19491e-06 5.75196e-05
0.00138436 -0.000422245 2.18802e-06
-0.000422245 0.000331516 8.67124e-07
2.18802e-06 8.67124e-07 3.1493e-05
0.000660561 -0.000414794 -1.88395e-06
-0.000414794 -0.0001141 -3.67501e-07
-1.88395e-06 -3.67501e-07 -0.000427683
0.000512434 -0.000172065 -3.84872e-06
-0.000172065 -1.62371e-05 3.2089e-06
-3.84872e-06 3.2089e-06 -0.000232346
0.00109763 -0.000316068 -5.3788e-08
-0.000316068 0.000288885 3.43636e-07
-5.3788e-08 3.43636e-07 3.99927e-05
0.000446334 -0.000247469 -6.13731e-06
-0.000247469 -0.000167793 -1.38643e-06
-6.13731e-06 -1.38643e-06 -0.000412648
0.000399404 -1.96941e-05 -7.11166e-06
-1.96941e-05 -7.27987e-05 1.18265e-05
-7.11166e-06 1.18265e-05 -0.000135028
0.000761011 -0.000129755 5.07496e-07
-0.000129755 0.000169067 4.75084e-07
5.07496e-07 4.75084e-07 -2.06813e-05
0.00104859 -0.000215283 1.21612e-06
-0.000215283 0.000389508 -2.62829e-07
1.21612e-06 -2.62829e-07 0.00012298
0.00335783 0.000198613 -1.00762e-07
0.000198613 0.00179881 3.90273e-06
-1.00762e-07 3.90273e-06 0.00177419
0.000418773 2.86638e-07 -5.86549e-08
2.86638e-07 -6.24459e-05 -1.08987e-07
-5.86549e-08 -1.08987e-07 -0.000113
0.00101739 -0.000103902 2.49529e-06
-0.000103902 0.00030698 -5.87398e-06
2.49529e-06 -5.87398e-06 0.000174279
0.00308725 0.000138354 7.10089e-06
0.000138354 0.00160985 5.56232e-07
7.10089e-06 5.56232e-07 0.00160514
0.000553805 1.13004e-05 3.22645e-06
1.13004e-05 2.19169e-05 -8.70403e-06
3.22645e-06 -8.70403e-06 -2.04274e-05
0.00289537 0.000119385 4.38559e-05
0.000119385 0.00148317 -4.02681e-06
4.38559e-05 -4.02681e-06 0.00148304
0.00165586 0.000246411 6.78307e-06
0.000246411 0.000721548 3.76101e-06
6.78307e-06 3.76101e-06 0.000525142
0.000818488 0.00013179 5.89009e-07
0.00013179 0.000263039 -1.49739e-06
5.89009e-07 -1.49739e-06 7.9408e-05
0.00114706 0.000130451 1.59597e-06
0.000130451 0.000479717 -4.92833e-06
1.59597e-06 -4.92833e-06 0.000276915
0.00060732 3.86692e-05 2.421e-06
3.86692e-05 6.96463e-05 -5.8208e-06
2.421e-06 -5.8208e-06 -3.81992e-05
0.000694137 8.06378e-05 -6.18673e-08
8.06378e-05 0.000169022 1.0611e-06
-6.18673e-08 1.0611e-06 5.66236e-06
0.000426072 9.82695e-05 -9.24053e-07
9.82695e-05 9.9286e-06 3.50961e-06
-9.24053e-07 3.50961e-06 -0.000151372
0.000506893 -4.8925e-06 -1.49706e-06
-4.8925e-06 -1.43816e-05 -8.52624e-06
-1.49706e-06 -8.52624e-06 -4.73165e-05
0.000589663 3.34308e-05 -4.34524e-08
3.34308e-05 5.56307e-05 -2.89034e-07
-4.34524e-08 -2.89034e-07 -3.88075e-05
0.000463343 8.03339e-05 -3.7815e-06
8.03339e-05 2.28126e-06 3.41914e-07
-3.7815e-06 3.41914e-07 -0.000128149
0.0026647 -8.55115e-05 -4.11278e-05
-8.55115e-05 0.00132706 -4.42367e-06
-4.11278e-05 -4.42367e-06 0.00133509
0.000446578 -2.01175e-05 2.12879e-06
-2.01175e-05 -5.61931e-05 -1.2021e-07
2.12879e-06 -1.2021e-07 -8.37555e-05
0.000527966 4.13942e-05 -1.88655e-06
4.13942e-05 1.59435e-05 3.33611e-06
-1.88655e-06 3.33611e-06 -6.71864e-05
0.00249 -6.87947e-05 -6.00657e-06
-6.87947e-05 0.00121285 4.27855e-07
-6.00657e-06 4.27855e-07 0.00122376
0.000464808 -1.04259e-05 -2.26608e-06
-1.04259e-05 -5.02292e-05 5.81061e-06
-2.26608e-06 5.81061e-06 -7.20871e-05
0.00230367 -5.05209e-05 2.27461e-05
-5.05209e-05 0.00109324 4.59174e-06
2.27461e-05 4.59174e-06 0.00110747
-0.00935224 0.000893655 -6.7603e-05
0.000893655 0.00308489 7.9434e-05
-6.7603e-05 7.9434e-05 -0.00227718
0.00586173 0.000281573 -4.01988e-06
0.000281573 0.00322673 -2.54165e-06
-4.01988e-06 -2.54165e-06 0.00144129
-0.00123637 -1.36445e-05 1.97619e-05
-1.36445e-05 -5.05332e-05 2.95994e-06
1.97619e-05 2.95994e-06 -0.000413412
4.06718e-05 9.1792e-05 -2.39917e-06
9.1792e-05 -0.0002612 2.22126e-06
-2.39917e-06 2.22126e-06 -0.000416864
0.00325808 0.00056708 7.9093e-06
0.00056708 0.00164596 9.24371e-06
7.9093e-06 9.24371e-06 0.00133897
0.00151125 0.000157775 -7.39916e-06
0.000157775 0.000688718 -1.08925e-06
-7.39916e-06 -1.08925e-06 0.000450519
0.000648044 6.75291e-05 -6.26717e-06
6.75291e-05 9.29938e-05 -1.01456e-05
-6.26717e-06 -1.01456e-05 -4.99601e-05
0.00213621 0.000227122 2.84815e-06
0.000227122 0.000973006 -2.74789e-07
2.84815e-06 -2.74789e-07 0.00083065
-0.000275758 5.63181e-05 -7.77547e-06
5.63181e-05 -0.000436669 6.29736e-06
-7.77547e-06 6.29736e-06 -0.000567329
0.000271916 7.33675e-05 -1.50531e-06
7.33675e-05 1.19049e-05 4.75565e-06
-1.50531e-06 4.75565e-06 -0.000224153
0.000470991 0.000140516 -3.0681e-06
0.000140516 3.3351e-05 -4.92781e-06
-3.0681e-06 -4.92781e-06 -0.000223865
0.00183616 0.000379661 6.8967e-06
0.000379661 0.000894166 -2.5849e-05
6.8967e-06 -2.5849e-05 0.000527455
0.000309847 0.000405126 -1.09364e-05
0.000405126 -0.000168115 3.27063e-05
-1.09364e-05 3.27063e-05 -0.000314393
0.00136372 4.88015e-05 -8.73269e-06
4.88015e-05 0.000628172 1.04542e-05
-8.73269e-06 1.04542e-05 0.000453607
0.00113242 0.000201164 3.06622e-06
0.000201164 0.000655199 -6.74807e-06
3.06622e-06 -6.74807e-06 0.00035292
-0.00230728 -0.00182322 -0.00114736
-0.00182322 0.000664422 -0.000198188
-0.00114736 -0.000198188 -0.00236452
-0.00330246 -0.00161442 0.000399984
-0.00161442 0.00429341 0.000176691
0.000399984 0.000176691 -0.000391569
0.00607702 0.00115675 -0.000405623
0.00115675 0.00271525 -0.000146247
-0.000405623 -0.000146247 -0.00228148
-0.000524443 -0.0068522 0.00190385
-0.0068522 0.00160585 0.00127296
0.00190385 0.00127296 -0.000119727
0.021585 -0.00317899 4.46693e-05
-0.00317899 0.00710235 0.000287139
4.46693e-05 0.000287139 0.00480695
-0.00252815 0.00144944 -7.91066e-07
0.00144944 0.00174862 -0.000168668
-7.91066e-07 -0.000168668 -0.00349253
-0.00235146 0.000198578 -0.000376016
0.000198578 -1.26276e-06 -6.06788e-05
-0.000376016 -6.06788e-05 -0.00142327
0.00119677 0.000635646 6.65228e-05
0.000635646 0.00128539 4.74115e-05
6.65228e-05 4.74115e-05 0.00105423
0.0169409 -0.00394722 -0.000493566
-0.00394722 0.00698142 1.494e-05
-0.000493566 1.494e-05 0.00451708
-0.00213803 0.0022841 -8.04026e-05
0.0022841 0.000395835 -4.49043e-05
-8.04026e-05 -4.49043e-05 -0.00401964
0.00262577 0.00167147 -1.73379e-05
0.00167147 0.000737077 -6.84729e-05
-1.73379e-05 -6.84729e-05 0.00125441
0.00227848 0.00350337 -0.000303678
0.00350337 -0.001844 -0.000106085
-0.000303678 -0.000106085 -0.00451269
0.00317226 0.00103454 1.95905e-05
0.00103454 0.00113004 -1.15775e-05
1.95905e-05 -1.15775e-05 0.000811384
0.000976493 0.000483283 -6.01751e-06
0.000483283 0.000264646 -8.57132e-07
-6.01751e-06 -8.57132e-07 0.000100628
0.00034205 0.000143723 -4.76819e-06
0.000143723 9.97336e-05 -3.05158e-07
-4.76819e-06 -3.05158e-07 -9.182e-05
-0.00203207 0.000225623 -6.83174e-05
0.000225623 -0.000328739 -6.78775e-05
-6.83174e-05 -6.78775e-05 -0.00124265
0.00241455 0.000734131 -2.92921e-05
0.000734131 0.00124296 -2.10587e-05
-2.92921e-05 -2.10587e-05 0.000856716
0.001503 0.00113894 1.45349e-05
0.00113894 0.000303555 -6.60747e-06
1.45349e-05 -6.60747e-06 -0.000353971
-0.000244417 0.00131718 9.64396e-05
0.00131718 -0.00137627 3.92884e-05
9.64396e-05 3.92884e-05 -0.00166088
-0.00578455 -0.000334525 -0.000471349
-0.000334525 -0.00461859 2.87575e-05
-0.000471349 2.87575e-05 -0.00370243
-0.00720605 0.000424638 0.000298157
0.000424638 0.00486402 1.26036e-05
0.000298157 1.26036e-05 -0.000499958
0.00290668 -0.000114706 -0.000103754
-0.000114706 0.00197379 3.3743e-05
-0.000103754 3.3743e-05 0.000333783
0.00214155 -0.000752999 -3.49888e-05
-0.000752999 0.00111373 -5.08495e-05
-3.49888e-05 -5.08495e-05 0.000592843
-5.86331e-05 -0.00164266 -1.51282e-05
-0.00164266 -0.000609425 4.41416e-05
-1.51282e-05 4.41416e-05 -0.000435238
0.000666925 0.000427045 1.22488e-05
0.000427045 0.00585631 3.39153e-05
1.22488e-05 3.39153e-05 0.00269915
0.00149981 -0.00243678 0.000364149
-0.00243678 -0.00147469 -0.000129989
0.000364149 -0.000129989 -0.00409825
0.0180173 0.00272878 0.000588225
0.00272878 0.00796312 -8.44199e-05
0.000588225 -8.44199e-05 0.00577842
0.00174884 -0.00133233 -1.6335e-05
-0.00133233 0.000386299 5.94698e-06
-1.6335e-05 5.94698e-06 -6.603e-05
0.00116313 0.00111056 0.000201327
0.00111056 0.000159939 -5.8881e-05
0.000201327 -5.8881e-05 -0.00136457
0.0078388 -0.00157852 -0.000125711
-0.00157852 -0.00135769 0.000117819
-0.000125711 0.000117819 -0.00363692
0.00465389 -0.00234594 -1.59714e-05
-0.00234594 0.000150615 2.583e-05
-1.59714e-05 2.583e-05 0.000396921
0.00252151 -0.00112803 7.00373e-05
-0.00112803 0.00029318 -1.37888e-05
7.00373e-05 -1.37888e-05 0.000193835
0.0146018 -0.00072619 -2.72579e-05
-0.00072619 0.0030119 1.94408e-05
-2.72579e-05 1.94408e-05 0.0016253
0.00222169 -0.00139516 0.000106268
-0.00139516 -0.0026458 -8.71683e-05
0.000106268 -8.71683e-05 -0.00179658
-0.000678649 -0.000509045 -3.3982e-05
-0.000509045 -0.000852029 2.19181e-05
-3.3982e-05 2.19181e-05 -0.000903444
0.000253833 -0.00048199 -3.2954e-05
-0.00048199 -0.000520791 2.22936e-06
-3.2954e-05 2.22936e-06 -0.000640483
0.00561993 -0.000971621 6.21557e-05
-0.000971621 0.00207182 -1.91645e-05
6.21557e-05 -1.91645e-05 0.0018948
0.000554499 -0.000574233 -2.06866e-05
-0.000574233 -0.000268998 -5.00287e-06
-2.06866e-05 -5.00287e-06 -0.000625969
0.0020693 -0.000799716 -9.70242e-07
-0.000799716 0.000285574 -2.71411e-06
-9.70242e-07 -2.71411e-06 -4.49317e-05
0.00268281 -0.000739899 1.36363e-06
-0.000739899 0.000338892 -4.1404e-06
1.36363e-06 -4.1404e-06 0.000148669
0.00198213 -0.000767097 -5.73273e-06
-0.000767097 0.000368834 5.18736e-06
-5.73273e-06 5.18736e-06 -6.46701e-05
0.00202981 -0.000665507 -4.43878e-07
-0.000665507 0.000158383 1.49454e-06
-4.43878e-07 1.49454e-06 -0.000115129
0.00205913 -0.000502824 9.15826e-07
-0.000502824 5.78871e-05 -2.35809e-07
9.15826e-07 -2.35809e-07 -7.87395e-05
0.00126148 -0.000554189 4.60364e-06
-0.000554189 -9.04521e-05 6.99867e-06
4.60364e-06 6.99867e-06 -0.00040758
0.00189804 -0.000476306 -3.58455e-07
-0.000476306 8.06569e-05 1.89399e-06
-3.58455e-07 1.89399e-06 -0.000113119
0.00191531 -0.000428114 -3.00898e-06
-0.000428114 5.28208e-05 1.02943e-06
-3.00898e-06 1.02943e-06 -8.43724e-05
0.00207426 -0.000410568 -5.03061e-06
-0.000410568 0.000235745 9.71662e-07
-5.03061e-06 9.71662e-07 9.28464e-05
0.00189791 -0.000399263 -2.95858e-06
-0.000399263 0.000120567 3.4073e-06
-2.95858e-06 3.4073e-06 -3.98248e-05
0.0019605 -0.000416623 -3.16984e-06
-0.000416623 0.000196772 -4.26999e-06
-3.16984e-06 -4.26999e-06 1.8402e-05
0.00190126 -0.000500391 -6.08898e-06
-0.000500391 0.000195949 -2.26292e-06
-6.08898e-06 -2.26292e-06 -5.82447e-05
0.00184221 -0.000495512 1.68716e-06
-0.000495512 0.000137035 7.35472e-07
1.68716e-06 7.35472e-07 -0.000111649
0.00177142 -0.000464592 6.14567e-06
-0.000464592 7.83848e-05 7.31063e-06
6.14567e-06 7.31063e-06 -0.00015084
0.00178032 -0.000540384 -6.92229e-06
-0.000540384 0.000304081 -9.52995e-07
-6.92229e-06 -9.52995e-07 -1.1502e-05
0.00161268 -0.000564567 -5.11727e-07
-0.000564567 0.000124974 1.48598e-07
-5.11727e-07 1.48598e-07 -0.000196043
0.0020828 -0.000655724 6.2192e-06
-0.000655724 0.000387947 2.62621e-07
6.2192e-06 2.62621e-07 4.36979e-05
0.00146387 -0.000386396 -8.79372e-06
-0.000386396 0.000342977 5.26508e-06
-8.79372e-06 5.26508e-06 6.66935e-05
0.00157323 -0.00052482 -3.64778e-07
-0.00052482 0.000331502 8.09786e-07
-3.64778e-07 8.09786e-07 -5.50069e-06
0.0018165 -0.000631997 1.88458e-06
-0.000631997 0.000415307 -4.98251e-08
1.88458e-06 -4.98251e-08 4.33579e-05
0.000773023 -0.000215227 -6.78374e-06
-0.000215227 7.07715e-05 5.64451e-06
-6.78374e-06 5.64451e-06 -0.00013241
0.00110103 -0.000309494 4.73249e-07
-0.000309494 0.000181548 -8.78648e-07
4.73249e-07 -8.78648e-07 -6.2815e-05
0.000935843 -0.000375594 1.47385e-06
-0.000375594 4.73225e-05 -9.66585e-07
1.47385e-06 -9.66585e-07 -0.000242086
0.00041105 -9.86604e-05 -1.80283e-05
-9.86604e-05 -9.2559e-05 1.45088e-05
-1.80283e-05 1.45088e-05 -0.00017242
0.000666442 -0.00017309 -2.8073e-07
-0.00017309 8.9529e-05 9.49079e-07
-2.8073e-07 9.49079e-07 -0.000133704
0.000950865 -0.000331279 2.41468e-06
-0.000331279 0.000192608 -3.74981e-07
2.41468e-06 -3.74981e-07 -5.80844e-05
0.00378043 0.000186351 -7.68332e-05
0.000186351 0.00206467 4.55265e-06
-7.68332e-05 4.55265e-06 0.00204578
0.000500482 -3.73136e-05 8.33397e-07
-3.73136e-05 -1.70691e-05 -4.78771e-07
8.33397e-07 -4.78771e-07 -8.24775e-05
0.00157557 -0.000185641 3.27134e-06
-0.000185641 0.000669686 -6.13419e-06
3.27134e-06 -6.13419e-06 0.000468613
0.002195 0.000119716 4.23717e-05
0.000119716 0.00106414 1.18175e-06
4.23717e-05 1.18175e-06 0.00104751
0.000637098 -5.73726e-06 7.06501e-06
-5.73726e-06 6.84458e-05 -1.08268e-05
7.06501e-06 -1.08268e-05 1.77738e-05
0.00320842 0.000131433 6.60054e-05
0.000131433 0.00168424 -3.81586e-06
6.60054e-05 -3.81586e-06 0.0016814
0.00121322 0.000260486 5.97674e-06
0.000260486 0.000359152 4.64997e-07
5.97674e-06 4.64997e-07 0.000167067
0.000484784 0.00011732 -1.54319e-06
0.00011732 -1.38852e-05 -1.90544e-07
-1.54319e-06 -1.90544e-07 -0.000180356
0.0005425 0.000133663 2.00109e-06
0.000133663 7.24823e-05 -4.94479e-06
2.00109e-06 -4.94479e-06 -0.000118941
0.000580041 0.000122426 -2.06063e-06
0.000122426 0.0001114 4.77161e-06
-2.06063e-06 4.77161e-06 -6.74484e-05
0.000615408 8.16833e-05 6.19464e-07
8.16833e-05 0.000123089 2.38704e-07
6.19464e-07 2.38704e-07 -5.581e-05
0.000817781 7.58737e-05 1.06385e-06
7.58737e-05 0.000193872 -8.21504e-06
1.06385e-06 -8.21504e-06 6.84687e-05
0.00058614 1.39557e-05 -3.63371e-06
1.39557e-05 3.88464e-05 -1.06165e-05
-3.63371e-06 -1.06165e-05 -2.39244e-06
0.000619371 3.62658e-05 3.21154e-07
3.62658e-05 8.24898e-05 -3.47291e-08
3.21154e-07 -3.47291e-08 -2.68143e-05
0.000234408 4.00609e-05 -4.50017e-06
4.00609e-05 -0.000141013 2.04855e-06
-4.50017e-06 2.04855e-06 -0.000283024
0.00281056 -9.93164e-05 -5.48136e-05
-9.93164e-05 0.00142439 -4.37437e-06
-5.48136e-05 -4.37437e-06 0.00142993
0.000447533 2.46326e-06 8.1755e-07
2.46326e-06 -4.88486e-05 -2.44724e-07
8.1755e-07 -2.44724e-07 -8.20334e-05
0.000554204 3.48991e-05 -2.81703e-06
3.48991e-05 4.01264e-05 4.38935e-06
-2.81703e-06 4.38935e-06 -5.65384e-05
0.00263853 -8.58811e-05 -6.5586e-06
-8.58811e-05 0.00131078 5.11566e-07
-6.5586e-06 5.11566e-07 0.0013185
0.000433774 -1.80146e-05 -3.01292e-08
-1.80146e-05 -6.2721e-05 6.86524e-06
-3.01292e-08 6.86524e-06 -9.06427e-05
0.00248129 -6.82434e-05 2.85664e-05
-6.82434e-05 0.00120712 4.70644e-06
2.85664e-05 4.70644e-06 0.00121808
0.000518512 0.000191784 -0.000630138
0.000191784 0.00317414 -3.76935e-05
-0.000630138 -3.76935e-05 0.00128047
-0.00536289 0.000168805 3.66197e-05
0.000168805 0.00395984 3.38349e-06
3.66197e-05 3.38349e-06 -0.0015542
0.00550098 0.000121496 -0.000177938
0.000121496 0.00318541 -4.64766e-05
-0.000177938 -4.64766e-05 0.00152164
0.00030242 4.96434e-05 1.12057e-06
4.96434e-05 -0.000103211 -5.89916e-06
1.12057e-06 -5.89916e-06 -0.00026171
0.000872323 7.73327e-05 5.73301e-06
7.73327e-05 0.000282747 5.34209e-06
5.73301e-06 5.34209e-06 4.0933e-05
0.002491 0.000477375 -2.65629e-06
0.000477375 0.00121034 3.39362e-06
-2.65629e-06 3.39362e-06 0.000924774
0.00206305 0.000551656 7.58986e-06
0.000551656 0.000809462 8.39362e-07
7.58986e-06 8.39362e-07 0.000430857
0.000340813 0.000260642 1.20828e-07
0.000260642 4.11536e-06 -3.41494e-06
1.20828e-07 -3.41494e-06 -0.000298386
0.000451197 0.000105649 -5.17619e-06
0.000105649 0.000121265 8.56676e-06
-5.17619e-06 8.56676e-06 -0.000122305
0.000556595 0.000142124 9.96564e-06
0.000142124 0.000113078 1.13477e-05
9.96564e-06 1.13477e-05 -0.000135272
0.000451987 0.000305753 -6.48631e-06
0.000305753 0.000116611 -3.05166e-06
-6.48631e-06 -3.05166e-06 -0.000258637
-0.000482914 0.000384468 6.07433e-06
0.000384468 -0.000726547 -1.02522e-05
6.07433e-06 -1.02522e-05 -0.00101401
0.00218931 0.000676908 -3.45873e-06
0.000676908 0.000767466 1.70516e-05
-3.45873e-06 1.70516e-05 0.00058706
0.00129349 0.00074745 2.11694e-05
0.00074745 -4.3496e-05 6.43554e-06
2.11694e-05 6.43554e-06 -0.00019074
0.00144924 0.000542939 -7.75909e-06
0.000542939 0.000525181 -3.10984e-06
-7.75909e-06 -3.10984e-06 0.000316385
0.00185527 0.000267322 -8.21078e-06
0.000267322 0.000981664 2.68314e-05
-8.21078e-06 2.68314e-05 0.000722168
0.0134261 0.00199183 -9.92151e-05
0.00199183 0.00203703 6.63148e-05
-9.92151e-05 6.63148e-05 0.000671705
0.00107021 -0.00151077 -0.000445111
-0.00151077 0.00327577 -0.000169546
-0.000445111 -0.000169546 0.000612153
-0.000793504 -0.00257697 0.000530536
-0.00257697 0.00464982 0.00014817
0.000530536 0.00014817 -8.91055e-05
0.00377468 -0.00239499 0.000219696
-0.00239499 0.00190882 0.000300105
0.000219696 0.000300105 -0.000465221
0.0131031 0.00352098 -8.03254e-05
0.00352098 0.00463914 -4.5863e-05
-8.03254e-05 -4.5863e-05 0.000770952
-0.00283245 0.000185934 -5.81762e-05
0.000185934 -0.000427762 -5.20911e-05
-5.81762e-05 -5.20911e-05 -0.000698817
0.00201085 0.00149259 -3.70378e-05
0.00149259 0.00052239 -1.37564e-05
-3.70378e-05 -1.37564e-05 0.00105169
0.0167184 0.00332528 1.95163e-05
0.00332528 0.00437995 3.54668e-05
1.95163e-05 3.54668e-05 0.00211736
0.00621541 0.00287202 -3.97818e-05
0.00287202 0.000245071 -9.15687e-05
-3.97818e-05 -9.15687e-05 0.000334296
0.00180848 0.00103584 1.14954e-05
0.00103584 0.000230584 -2.45477e-06
1.14954e-05 -2.45477e-06 5.97715e-08
0.00153436 0.000803149 7.98911e-06
0.000803149 0.000380577 -2.26552e-06
7.98911e-06 -2.26552e-06 9.63784e-05
0.00178681 0.000520527 -2.18485e-05
0.000520527 0.000790643 2.98486e-06
-2.18485e-05 2.98486e-06 0.000620343
0.00277637 0.00134677 -5.74704e-05
0.00134677 0.00084873 -2.2761e-05
-5.74704e-05 -2.2761e-05 0.000205116
0.00169419 0.00152943 5.21223e-05
0.00152943 -0.000574006 2.99537e-05
5.21223e-05 2.99537e-05 -0.000900923
0.00164561 -0.000350796 -9.58912e-05
-0.000350796 -0.00440916 4.41379e-05
-9.58912e-05 4.41379e-05 -0.00467111
0.00115592 -0.00128968 7.42751e-06
-0.00128968 0.00174038 -1.13406e-05
7.42751e-06 -1.13406e-05 0.00126316
-0.0100024 -0.0001725 0.000258366
-0.0001725 0.00502843 -2.25201e-05
0.000258366 -2.25201e-05 -5.17011e-05
3.59137e-05 -0.00135706 -4.15981e-05
-0.00135706 -0.000736264 5.46118e-06
-4.15981e-05 5.46118e-06 -0.00138827
0.00420875 -0.00240915 2.39511e-05
-0.00240915 0.000226618 3.6062e-05
2.39511e-05 3.6062e-05 9.02838e-05
0.00168894 -0.000163707 0.000673536
-0.000163707 0.00343191 -0.000147261
0.000673536 -0.000147261 0.00174984
0.0131518 -0.00184222 -0.000234291
-0.00184222 0.00166273 0.000111698
-0.000234291 0.000111698 0.000270759
0.00168257 -0.00113117 -3.21587e-05
-0.00113117 -7.61937e-05 -1.16287e-06
-3.21587e-05 -1.16287e-06 -0.000311247
0.0107189 -4.85298e-05 -0.00016285
-4.85298e-05 -0.000324046 4.83404e-05
-0.00016285 4.83404e-05 -0.00129143
0.00656981 -0.00162746 9.97592e-05
-0.00162746 -0.000133867 1.46499e-05
9.97592e-05 1.46499e-05 0.000265885
0.00430243 -0.00103735 6.69796e-05
-0.00103735 0.000967243 -3.3398e-05
6.69796e-05 -3.3398e-05 0.000699427
0.00302638 -0.000635601 -4.34613e-05
-0.000635601 -0.00124961 1.72894e-05
-4.34613e-05 1.72894e-05 -0.00043583
-0.00585366 1.94649e-05 3.39793e-06
1.94649e-05 -0.00383902 2.97799e-06
3.39793e-06 2.97799e-06 -0.00378756
0.00157803 -0.000645644 -1.25312e-05
-0.000645644 -0.000147354 1.28115e-06
-1.25312e-05 1.28115e-06 -0.000176646
0.00314075 -0.000645428 3.07589e-05
-0.000645428 0.000480968 -1.10806e-05
3.07589e-05 -1.10806e-05 0.000535906
0.00115656 -0.000703251 -7.67645e-06
-0.000703251 -0.000189542 6.97463e-06
-7.67645e-06 6.97463e-06 -0.000496783
0.00200256 -0.000676186 -3.08257e-06
-0.000676186 -1.21622e-05 2.90315e-06
-3.08257e-06 2.90315e-06 -0.000196179
0.00228755 -0.000550261 4.56607e-06
-0.000550261 1.07218e-05 -1.0569e-06
4.56607e-06 -1.0569e-06 -3.17754e-05
0.00224622 -0.000679939 -4.92827e-06
-0.000679939 0.000279783 8.77007e-06
-4.92827e-06 8.77007e-06 5.27593e-06
0.00204471 -0.000499578 2.34853e-07
-0.000499578 4.7689e-05 1.41045e-06
2.34853e-07 1.41045e-06 -8.38594e-05
0.00216404 -0.000483886 -9.03513e-07
-0.000483886 0.000101583 8.05963e-07
-9.03513e-07 8.05963e-07 1.93344e-05
0.00193913 -0.000472122 3.38933e-06
-0.000472122 0.000109967 6.09513e-06
3.38933e-06 6.09513e-06 -8.02106e-05
0.00195384 -0.000432691 -1.50615e-07
-0.000432691 7.27522e-05 1.26097e-06
-1.50615e-07 1.26097e-06 -6.31832e-05
0.00211124 -0.000460907 -2.66092e-06
-0.000460907 0.000169871 1.61824e-06
-2.66092e-06 1.61824e-06 3.97058e-05
0.00199461 -0.000411579 -4.09899e-06
-0.000411579 0.000179863 2.89646e-06
-4.09899e-06 2.89646e-06 3.81467e-05
0.00211669 -0.000417241 -1.3635e-06
-0.000417241 0.00028741 -1.4859e-06
-1.3635e-06 -1.4859e-06 0.000137138
0.00199149 -0.00040521 4.39738e-06
-0.00040521 0.000171383 6.56805e-06
4.39738e-06 6.56805e-06 1.42505e-05
0.00196175 -0.000416761 4.65145e-07
-0.000416761 0.000196184 -7.05518e-07
4.65145e-07 -7.05518e-07 1.77493e-05
0.00185832 -0.000429627 -3.00454e-06
-0.000429627 0.000140101 -3.21438e-06
-3.00454e-06 -3.21438e-06 -5.91502e-05
0.00192003 -0.000475533 -4.67454e-06
-0.000475533 0.000281557 -2.83546e-06
-4.67454e-06 -2.83546e-06 2.16779e-05
0.00196337 -0.000507461 -2.40971e-07
-0.000507461 0.00023591 -1.03e-07
-2.40971e-07 -1.03e-07 -2.07075e-05
0.00205684 -0.000511768 7.56116e-06
-0.000511768 0.000272175 3.59468e-06
7.56116e-06 3.59468e-06 2.24279e-05
0.00138928 -0.000411379 -9.15333e-06
-0.000411379 0.000173109 2.37295e-06
-9.15333e-06 2.37295e-06 -0.000108827
0.00169998 -0.000529066 -1.48259e-06
-0.000529066 0.000260397 -1.34181e-07
-1.48259e-06 -1.34181e-07 -5.44146e-05
0.00163316 -0.000570887 4.82667e-06
-0.000570887 0.000125873 1.15571e-06
4.82667e-06 1.15571e-06 -0.000197618
0.00074671 -0.000215154 -9.57068e-06
-0.000215154 -3.97073e-06 6.55245e-06
-9.57068e-06 6.55245e-06 -0.000203309
0.00120264 -0.000367164 1.91702e-06
-0.000367164 0.000175374 4.43735e-07
1.91702e-06 4.43735e-07 -9.84135e-05
0.00160626 -0.000523089 3.95739e-06
-0.000523089 0.000356881 4.15223e-07
3.95739e-06 4.15223e-07 2.18398e-05
0.000521459 -0.000164715 -2.17814e-05
-0.000164715 -4.72023e-05 1.75766e-05
-2.17814e-05 1.75766e-05 -0.000150318
0.000720974 -0.000218731 -4.04508e-07
-0.000218731 4.56157e-05 6.71989e-07
-4.04508e-07 6.71989e-07 -0.000160818
0.00075196 -0.000274578 3.61858e-06
-0.000274578 -4.00089e-05 -2.32399e-06
3.61858e-06 -2.32399e-06 -0.000278745
0.00466437 0.000202476 -0.000113356
0.000202476 0.0026243 8.32187e-06
-0.000113356 8.32187e-06 0.00259969
0.000556209 -0.000113361 -7.71712e-07
-0.000113361 -5.217e-07 -9.03087e-07
-7.71712e-07 -9.03087e-07 -8.83506e-05
0.00113755 -0.000206949 4.29393e-06
-0.000206949 0.000383694 -4.36217e-06
4.29393e-06 -4.36217e-06 0.000153827
0.00407071 0.000166657 1.69574e-05
0.000166657 0.00224136 4.91432e-07
1.69574e-05 4.91432e-07 0.00222801
0.000618764 -5.56416e-05 1.4262e-05
-5.56416e-05 4.93311e-05 -1.31225e-05
1.4262e-05 -1.31225e-05 -2.04932e-05
0.00358363 0.000132548 9.83505e-05
0.000132548 0.00192298 -4.64006e-06
9.83505e-05 -4.64006e-06 0.00192025
0.00111913 0.000371454 3.49707e-06
0.000371454 0.000232141 -5.31405e-06
3.49707e-06 -5.31405e-06 -5.87169e-05
0.000920927 0.000239384 2.13991e-06
0.000239384 0.000181546 -1.49321e-06
2.13991e-06 -1.49321e-06 -1.05963e-05
3.78772e-05 0.000118076 4.43655e-06
0.000118076 -0.000292425 2.22694e-07
4.43655e-06 2.22694e-07 -0.000480932
-0.000740104 2.28005e-05 -3.19422e-06
2.28005e-05 -0.000748856 -8.80746e-07
-3.19422e-06 -8.80746e-07 -0.000908413
0.000339899 7.93645e-05 -1.71444e-08
7.93645e-05 -7.01956e-05 1.47778e-06
-1.71444e-08 1.47778e-06 -0.000251041
0.000840364 8.33945e-05 6.77387e-07
8.33945e-05 0.000205432 -8.24663e-06
6.77387e-07 -8.24663e-06 5.60044e-05
0.000344356 4.83483e-05 -2.27634e-06
4.83483e-05 -6.14519e-05 3.45044e-06
-2.27634e-06 3.45044e-06 -0.000226073
0.000560802 6.07575e-05 -1.62139e-07
6.07575e-05 4.21035e-05 -6.03609e-08
-1.62139e-07 -6.03609e-08 -8.10768e-05
0.000575015 1.65988e-05 -5.14159e-06
1.65988e-05 3.16667e-05 -1.31474e-05
-5.14159e-06 -1.31474e-05 -1.92765e-05
0.00306867 -0.000110525 -7.47264e-05
-0.000110525 0.00159327 -5.16374e-06
-7.47264e-05 -5.16374e-06 0.001596
0.000449285 2.16503e-06 1.09519e-06
2.16503e-06 -4.19196e-05 -3.35778e-07
1.09519e-06 -3.35778e-07 -8.35378e-05
0.000577203 3.27966e-05 -2.94922e-06
3.27966e-05 6.12396e-05 6.37114e-06
-2.94922e-06 6.37114e-06 -4.85779e-05
0.00280065 -0.000103867 -7.32938e-06
-0.000103867 0.00141901 6.26203e-07
-7.32938e-06 6.26203e-07 0.00142297
0.000368117 -4.4221e-05 -4.59809e-06
-4.4221e-05 -9.26829e-05 8.08977e-06
-4.59809e-06 8.08977e-06 -0.00012823
0.00263302 -8.63569e-05 3.54266e-05
-8.63569e-05 0.00130686 4.63698e-06
3.54266e-05 4.63698e-06 0.0013143
0.0139919 0.000529424 0.000403853
0.000529424 0.00225641 0.000100045
0.000403853 0.000100045 0.00165752
-0.00191624 -0.00222236 -0.000375781
-0.00222236 -0.00267945 -6.64453e-05
-0.000375781 -6.64453e-05 -0.00415976
-0.0087883 0.00117858 -0.000161134
0.00117858 0.00319976 -0.000111478
-0.000161134 -0.000111478 -0.00277505
0.00012675 1.75811e-05 1.82875e-05
1.75811e-05 -0.000163308 4.29977e-07
1.82875e-05 4.29977e-07 -0.000427709
0.00178612 0.000379958 -1.29108e-05
0.000379958 0.000795861 1.44766e-06
-1.29108e-05 1.44766e-06 0.000539285
0.00183113 0.000430587 -7.77878e-06
0.000430587 0.00087037 -2.45722e-06
-7.77878e-06 -2.45722e-06 0.000529091
0.00165327 0.000504574 1.28681e-06
0.000504574 0.000575578 -4.26944e-08
1.28681e-06 -4.26944e-08 0.000212571
0.00121883 0.000511942 8.78108e-06
0.000511942 0.000153407 1.47029e-05
8.78108e-06 1.47029e-05 -0.000199461
-0.000649125 0.0003177 1.4939e-05
0.0003177 -0.000831705 1.33297e-06
1.4939e-05 1.33297e-06 -0.00112696
-0.00025176 0.000239212 -8.34638e-06
0.000239212 -0.000227906 1.00085e-05
-8.34638e-06 1.00085e-05 -0.000638664
7.87825e-05 0.000448748 8.89446e-06
0.000448748 -0.000422793 -5.06677e-07
8.89446e-06 -5.06677e-07 -0.000737354
0.00221222 0.000670435 2.4906e-06
0.000670435 0.000838065 5.55328e-06
2.4906e-06 5.55328e-06 0.000607635
-0.000306105 0.000457121 6.14303e-06
0.000457121 -0.000764668 1.2294e-06
6.14303e-06 1.2294e-06 -0.00098697
0.00294004 0.00084874 1.8873e-06
0.00084874 0.000820585 1.11687e-05
1.8873e-06 1.11687e-05 0.00067969
0.00139039 0.000771142 1.60369e-05
0.000771142 2.26669e-05 7.61829e-06
1.60369e-05 7.61829e-06 -0.000224598
0.000759763 0.000679985 3.29724e-06
0.000679985 -0.000353455 -6.70033e-07
3.29724e-06 -6.70033e-07 -0.000452678
0.00061353 0.000443517 3.51136e-06
0.000443517 5.60464e-05 -3.19496e-05
3.51136e-06 -3.19496e-05 -0.000144326
0.00547729 0.00138337 1.50149e-05
0.00138337 -0.00076747 1.55651e-05
1.50149e-05 1.55651e-05 0.000290501
0.0130443 0.00214734 0.000229069
0.00214734 0.00147448 0.000117183
0.000229069 0.000117183 -0.000163686
0.0102383 -0.00324972 0.000368885
-0.00324972 0.00486999 -4.54403e-05
0.000368885 -4.54403e-05 0.00252439
0.00500576 0.00358766 0.000449442
0.00358766 -0.000780415 0.000264239
0.000449442 0.000264239 -0.00487774
0.000233933 0.00100942 -4.96728e-05
0.00100942 0.000101138 -4.51254e-06
-4.96728e-05 -4.51254e-06 0.000608525
0.0036825 0.00210806 -0.000111336
0.00210806 -0.000428242 -4.74077e-05
-0.000111336 -4.74077e-05 -6.29684e-05
0.00560818 0.0018079 7.41338e-05
0.0018079 0.00113262 2.49704e-05
7.41338e-05 2.49704e-05 0.000907939
0.00385784 0.00130354 1.63685e-05
0.00130354 0.00112736 6.39325e-06
1.63685e-05 6.39325e-06 0.000856408
-0.000140456 0.000588935 -2.28874e-05
0.000588935 -0.000466665 9.84494e-06
-2.28874e-05 9.84494e-06 -0.000703614
0.00584685 0.00199438 -0.000166893
0.00199438 0.00133087 -2.07986e-05
-0.000166893 -2.07986e-05 0.000915135
0.00293552 -0.00040487 1.30522e-05
-0.00040487 -1.9269e-05 4.53778e-06
1.30522e-05 4.53778e-06 0.000250127
0.0109912 -0.000482319 -3.20816e-05
-0.000482319 0.00174605 3.64654e-07
-3.20816e-05 3.64654e-07 0.00141026
-0.0119021 -0.00201544 0.000601864
-0.00201544 -0.00565591 5.82482e-06
0.000601864 5.82482e-06 -0.00593671
-0.000115346 -0.000911017 -8.78301e-05
-0.000911017 -0.000923606 2.04726e-05
-8.78301e-05 2.04726e-05 -0.00113375
0.00873613 -0.00208307 4.304e-05
-0.00208307 0.000470674 8.85222e-05
4.304e-05 8.85222e-05 0.00117871
0.00101778 -0.000284897 -0.000225728
-0.000284897 -0.00390102 3.66171e-05
-0.000225728 3.66171e-05 -0.00585367
0.00215171 -0.000797925 2.20224e-05
-0.000797925 -0.000247691 1.59071e-06
2.20224e-05 1.59071e-06 -0.000232174
0.00457351 -0.000528145 -3.6531e-05
-0.000528145 -0.000317607 -5.70585e-06
-3.6531e-05 -5.70585e-06 0.000202304
0.00527519 -0.000724283 3.34622e-05
-0.000724283 0.00118777 -2.67496e-05
3.34622e-05 -2.67496e-05 0.00144481
0.00501772 -0.000327513 8.92707e-05
-0.000327513 0.00128654 5.12811e-06
8.92707e-05 5.12811e-06 0.00130436
-0.00289196 -0.000325313 8.43385e-07
-0.000325313 -0.00267665 7.26365e-06
8.43385e-07 7.26365e-06 -0.00248377
0.00198704 -0.000571396 -3.97624e-06
-0.000571396 -0.00018257 7.2378e-07
-3.97624e-06 7.2378e-07 -5.77528e-05
0.0021466 -0.000427639 2.05354e-05
-0.000427639 -0.000236198 -5.26755e-06
2.05354e-05 -5.26755e-06 -5.98582e-06
0.00175843 -0.00065664 -7.32325e-07
-0.00065664 -0.000143611 6.68257e-06
-7.32325e-07 6.68257e-06 -0.000329027
0.00222765 -0.00054773 1.52111e-06
-0.00054773 -1.82753e-05 1.24477e-06
1.52111e-06 1.24477e-06 -6.26172e-05
0.00223254 -0.000473473 1.33707e-06
-0.000473473 2.20458e-05 -5.06282e-07
1.33707e-06 -5.06282e-07 1.93779e-05
0.00204009 -0.000498196 1.29326e-06
-0.000498196 4.18173e-05 3.74686e-06
1.29326e-06 3.74686e-06 -8.5846e-05
0.00209778 -0.000473684 4.01756e-07
-0.000473684 7.47856e-05 4.18296e-07
4.01756e-07 4.18296e-07 -7.39564e-06
0.00209115 -0.000424188 -2.99368e-06
-0.000424188 6.2846e-05 4.30689e-07
-2.99368e-06 4.30689e-07 -9.20371e-06
0.00198939 -0.000436939 3.88982e-06
-0.000436939 9.07778e-05 1.974e-06
3.88982e-06 1.974e-06 -4.44308e-05
0.00201455 -0.000452031 -1.38048e-07
-0.000452031 0.000129723 1.68601e-07
-1.38048e-07 1.68601e-07 6.39022e-07
0.0019521 -0.000412968 -1.61565e-07
-0.000412968 0.000125934 4.69317e-07
-1.61565e-07 4.69317e-07 -5.43278e-06
0.00192355 -0.000412895 6.26723e-07
-0.000412895 0.000129719 2.89982e-06
6.26723e-07 2.89982e-06 -1.09341e-05
0.002028 -0.000407264 -2.04647e-06
-0.000407264 0.000227998 3.12202e-07
-2.04647e-06 3.12202e-07 8.16437e-05
0.00204475 -0.000411246 -8.72049e-07
-0.000411246 0.000247006 -1.44431e-06
-8.72049e-07 -1.44431e-06 7.90965e-05
0.00196254 -0.000415952 4.85049e-06
-0.000415952 0.000195702 3.15679e-06
4.85049e-06 3.15679e-06 1.74851e-05
0.00191671 -0.000434858 1.55267e-09
-0.000434858 0.000176675 -3.37055e-07
1.55267e-09 -3.37055e-07 -2.41309e-05
0.00194454 -0.000422433 -1.4857e-06
-0.000422433 0.000252949 -2.34031e-06
-1.4857e-06 -2.34031e-06 3.52104e-05
0.00154484 -0.000394978 -8.67287e-06
-0.000394978 0.000166523 6.69953e-07
-8.67287e-06 6.69953e-07 -8.775e-05
0.00186335 -0.000475472 -8.46667e-07
-0.000475472 0.000247049 -8.26071e-07
-8.46667e-07 -8.26071e-07 -1.69425e-05
0.00202241 -0.000514584 4.97704e-06
-0.000514584 0.000274525 1.86688e-06
4.97704e-06 1.86688e-06 1.5414e-05
0.000842244 -0.00023143 -1.24986e-05
-0.00023143 -1.59244e-05 7.83064e-06
-1.24986e-05 7.83064e-06 -0.000216977
0.00141216 -0.000410104 -1.85214e-07
-0.000410104 0.000190972 5.12874e-07
-1.85214e-07 5.12874e-07 -8.94025e-05
0.00161063 -0.000517269 3.04251e-06
-0.000517269 0.000210634 8.34106e-07
3.04251e-06 8.34106e-07 -0.000103379
0.00043203 -0.00017712 -2.11952e-05
-0.00017712 -0.000121104 1.77668e-05
-2.11952e-05 1.77668e-05 -0.00023253
0.000789629 -0.00022109 3.34745e-07
-0.00022109 2.12969e-05 3.4917e-08
3.34745e-07 3.4917e-08 -0.000180809
0.000956883 -0.000348226 9.21254e-06
-0.000348226 1.91908e-05 -2.62692e-06
9.21254e-06 -2.62692e-06 -0.000251936
0.0057037 0.000137147 -0.000186261
0.000137147 0.00323445 1.07029e-05
-0.000186261 1.07029e-05 0.00322558
0.000470607 -0.000172183 -1.88513e-07
-0.000172183 -7.84131e-05 1.0324e-07
-1.88513e-07 1.0324e-07 -0.000182959
0.00064264 -0.000221539 8.7828e-06
-0.000221539 2.72382e-06 -5.88079e-06
8.7828e-06 -5.88079e-06 -0.000205669
0.00500737 0.000135112 5.11074e-06
0.000135112 0.00281484 -4.97325e-07
5.11074e-06 -4.97325e-07 0.00280617
0.000445328 -0.000120937 1.78048e-05
-0.000120937 -6.56595e-05 -1.58214e-05
1.78048e-05 -1.58214e-05 -0.000157876
0.00431852 0.000111422 0.000152075
0.000111422 0.00238443 -1.11962e-05
0.000152075 -1.11962e-05 0.0023831
0.00102146 0.000424169 -4.13237e-06
0.000424169 6.52598e-05 2.43697e-07
-4.13237e-06 2.43697e-07 -0.000248737
0.0017013 0.000428982 -7.65747e-07
0.000428982 0.000590206 -1.47195e-06
-7.65747e-07 -1.47195e-06 0.000291025
0.000612899 0.000239636 -1.47248e-06
0.000239636 -6.86256e-05 -1.79879e-06
-1.47248e-06 -1.79879e-06 -0.000300156
0.000693993 0.000233168 -5.6902e-06
0.000233168 6.3631e-05 -2.80508e-06
-5.6902e-06 -2.80508e-06 -0.000136573
-0.000101144 0.000119929 1.0177e-06
0.000119929 -0.000380518 -7.90502e-07
1.0177e-06 -7.90502e-07 -0.000574088
0.00120792 0.000228294 -2.81857e-06
0.000228294 0.000448692 -5.11359e-06
-2.81857e-06 -5.11359e-06 0.000247185
-5.0218e-05 4.30929e-05 -1.86718e-06
4.30929e-05 -0.000320836 1.80924e-06
-1.86718e-06 1.80924e-06 -0.000494245
0.000730936 9.36533e-05 3.32568e-07
9.36533e-05 0.000143768 -2.61024e-07
3.32568e-07 -2.61024e-07 -6.32533e-06
0.000666842 3.90091e-05 -9.47355e-06
3.90091e-05 8.55575e-05 -1.4952e-05
-9.47355e-06 -1.4952e-05 2.35156e-05
0.000601741 3.89616e-05 -2.14862e-06
3.89616e-05 7.54495e-05 9.17194e-06
-2.14862e-06 9.17194e-06 -4.90275e-05
0.000529956 2.15373e-05 2.19773e-07
2.15373e-05 7.27582e-06 -1.59797e-07
2.19773e-07 -1.59797e-07 -4.31473e-05
0.00352883 -0.000126944 -9.70858e-05
-0.000126944 0.00189042 -6.0421e-06
-9.70858e-05 -6.0421e-06 0.00188845
0.00305923 -0.000122615 -8.21999e-06
-0.000122615 0.00158924 7.58788e-07
-8.21999e-06 7.58788e-07 0.00158859
0.000360121 2.37638e-05 4.28629e-06
2.37638e-05 -9.58837e-05 1.04221e-05
4.28629e-06 1.04221e-05 -0.000136228
0.00274225 -0.00010332 4.33009e-05
-0.00010332 0.00138271 4.43499e-06
4.33009e-05 4.43499e-06 0.00138648
0.00402986 0.000132312 8.26378e-05
0.000132312 -0.000965894 2.36583e-05
8.26378e-05 2.36583e-05 0.000185183
0.00435876 -0.000870493 0.000136338
-0.000870493 -0.00374841 6.57392e-05
0.000136338 6.57392e-05 -0.00483601
0.0110668 -0.00237512 -0.000179575
-0.00237512 0.004167 -8.18308e-05
-0.000179575 -8.18308e-05 0.00362958
0.00126239 0.000521237 9.33805e-06
0.000521237 -4.89646e-07 7.64158e-06
9.33805e-06 7.64158e-06 -0.000309714
0.00375654 0.000638164 -6.49038e-06
0.000638164 0.00199673 6.45721e-06
-6.49038e-06 6.45721e-06 0.00161632
0.00118695 0.000451604 -1.13779e-06
0.000451604 0.000307312 -3.09838e-06
-1.13779e-06 -3.09838e-06 -3.96007e-05
0.00125148 0.00053383 2.95592e-06
0.00053383 0.0003047 8.79992e-07
2.95592e-06 8.79992e-07 -3.5983e-05
0.00143046 0.000534382 -2.03636e-06
0.000534382 0.000295477 3.26564e-06
-2.03636e-06 3.26564e-06 -6.80191e-05
0.00150474 0.000627342 1.79664e-05
0.000627342 0.000278753 1.52004e-05
1.79664e-05 1.52004e-05 -4.10515e-05
0.00198001 0.00064903 -2.70617e-05
0.00064903 0.000696798 -2.24348e-06
-2.70617e-05 -2.24348e-06 0.000320781
0.000803834 0.000541399 1.75011e-05
0.000541399 6.53601e-05 -2.16864e-05
1.75011e-05 -2.16864e-05 -0.000170099
0.0013291 0.000646928 2.67156e-06
0.000646928 0.0001553 -2.63275e-06
2.67156e-06 -2.63275e-06 -0.000100521
0.00166127 0.000726914 5.6035e-06
0.000726914 5.2359e-05 1.80098e-06
5.6035e-06 1.80098e-06 1.03383e-05
0.00178241 0.000759803 1.35544e-05
0.000759803 0.000122566 7.3807e-07
1.35544e-05 7.3807e-07 -0.000134439
0.00161396 0.00068363 2.35115e-05
0.00068363 9.8772e-05 1.61032e-05
2.35115e-05 1.61032e-05 -7.83315e-05
0.000939315 0.000727631 -4.77158e-06
0.000727631 -0.000222039 -5.00358e-06
-4.77158e-06 -5.00358e-06 -0.000454622
0.000776632 0.000672366 -9.80965e-06
0.000672366 -0.000337076 -1.88333e-05
-9.80965e-06 -1.88333e-05 -0.000417816
0.00120777 0.000660722 4.54834e-05
0.000660722 -0.000903592 3.62431e-05
4.54834e-05 3.62431e-05 -0.000680052
0.00594224 0.00143888 -8.49816e-05
0.00143888 -0.00088391 -2.49167e-05
-8.49816e-05 -2.49167e-05 0.000210588
0.00379465 0.00138624 0.000469472
0.00138624 -0.00360388 7.51856e-05
0.000469472 7.51856e-05 -0.00546835
0.000964221 0.00159161 -0.000117935
0.00159161 -0.00124562 -4.36133e-05
-0.000117935 -4.36133e-05 -0.000798806
0.00414052 0.00146734 -3.16184e-05
0.00146734 0.000748285 -8.60007e-06
-3.16184e-05 -8.60007e-06 0.000581636
0.00420084 0.00134651 -0.000125211
0.00134651 0.00123989 -3.44103e-05
-0.000125211 -3.44103e-05 0.000957644
0.00273186 -0.000269865 -5.36638e-05
-0.000269865 -0.000293821 -2.20061e-05
-5.36638e-05 -2.20061e-05 -3.27135e-05
6.9905e-05 -0.000224579 6.03338e-05
-0.000224579 -0.000596275 1.34076e-05
6.03338e-05 1.34076e-05 -9.73872e-05
0.00219647 0.000849956 0.000167596
0.000849956 -0.00460125 -6.27422e-06
0.000167596 -6.27422e-06 -0.00479981
-0.000387675 -0.0005801 -3.57195e-05
-0.0005801 -0.00158014 5.82494e-05
-3.57195e-05 5.82494e-05 -0.00136592
0.00609427 -0.000569281 -0.000128925
-0.000569281 0.000576024 3.85348e-05
-0.000128925 3.85348e-05 0.000664679
0.00247179 -0.000531515 -2.05822e-05
-0.000531515 -0.000297284 1.10092e-05
-2.05822e-05 1.10092e-05 1.48522e-05
0.00409024 -0.000351572 -4.1091e-06
-0.000351572 0.000680269 -3.05939e-06
-4.1091e-06 -3.05939e-06 0.000726326
0.00244518 -0.000313488 5.05574e-05
-0.000313488 -0.000162146 -7.07688e-06
5.05574e-05 -7.07688e-06 0.000146248
0.00356538 -9.37193e-05 3.69741e-05
-9.37193e-05 0.00107614 -1.16524e-06
3.69741e-05 -1.16524e-06 0.00105468
0.000810625 -0.000482808 -2.53378e-05
-0.000482808 -0.00083219 1.03416e-05
-2.53378e-05 1.03416e-05 -0.000644338
0.00203561 -0.000441914 -1.31253e-06
-0.000441914 -0.000327455 1.90493e-06
-1.31253e-06 1.90493e-06 -0.000102732
0.00230732 -0.000390447 3.91475e-06
-0.000390447 -0.000145042 -1.87568e-06
3.91475e-06 -1.87568e-06 3.67857e-05
0.00215683 -0.000539716 -1.97409e-06
-0.000539716 -4.71991e-05 3.41952e-06
-1.97409e-06 3.41952e-06 -9.14388e-05
0.00222638 -0.000467989 1.69915e-07
-0.000467989 2.93889e-05 -1.97251e-07
1.69915e-07 -1.97251e-07 2.81241e-05
0.00217294 -0.000377667 -1.07337e-06
-0.000377667 1.08842e-05 -5.49855e-07
-1.07337e-06 -5.49855e-07 5.20644e-06
0.00202852 -0.00046236 4.76252e-07
-0.00046236 4.67773e-05 6.50588e-07
4.76252e-07 6.50588e-07 -3.39505e-05
0.00208377 -0.000430648 -8.41485e-07
-0.000430648 6.71036e-05 1.62522e-07
-8.41485e-07 1.62522e-07 -6.74401e-06
0.00199393 -0.00037052 -2.04021e-06
-0.00037052 8.19545e-05 9.35828e-07
-2.04021e-06 9.35828e-07 -1.4117e-05
0.00192884 -0.000443668 1.23304e-06
-0.000443668 9.62542e-05 -8.09618e-07
1.23304e-06 -8.09618e-07 -3.15739e-05
0.00191037 -0.000411069 1.12629e-06
-0.000411069 9.67303e-05 -5.32844e-07
1.12629e-06 -5.32844e-07 -3.52831e-05
0.00192226 -0.000384435 2.61504e-07
-0.000384435 0.000127795 -1.28966e-06
2.61504e-07 -1.28966e-06 -1.43505e-05
0.00193914 -0.000397312 -1.94948e-06
-0.000397312 0.000168852 2.61137e-06
-1.94948e-06 2.61137e-06 2.64121e-05
0.00208 -0.000410893 -1.8927e-06
-0.000410893 0.000262846 6.48307e-07
-1.8927e-06 6.48307e-07 9.88535e-05
0.00203089 -0.000398225 -1.11843e-06
-0.000398225 0.000270855 -1.80399e-06
-1.11843e-06 -1.80399e-06 8.08718e-05
0.00197376 -0.000440464 3.10435e-06
-0.000440464 0.000212143 2.45034e-06
3.10435e-06 2.45034e-06 9.6651e-06
0.00195594 -0.00042532 6.03873e-07
-0.00042532 0.000260346 -5.3697e-07
6.03873e-07 -5.3697e-07 4.22971e-05
0.00165962 -0.000356256 -6.61713e-06
-0.000356256 0.000190205 8.82443e-07
-6.61713e-06 8.82443e-07 -3.55784e-05
0.000919474 -0.000233955 -1.36308e-05
-0.000233955 -3.06319e-05 7.24242e-06
-1.36308e-05 7.24242e-06 -0.000227181
0.00152091 -0.000390603 -1.09425e-06
-0.000390603 0.00015965 -1.91804e-07
-1.09425e-06 -1.91804e-07 -9.5324e-05
0.00180695 -0.0004756 2.94278e-06
-0.0004756 0.000212304 6.77587e-07
2.94278e-06 6.77587e-07 -5.58584e-05
0.000425787 -0.000215959 -2.21186e-05
-0.000215959 -0.000127833 1.83659e-05
-2.21186e-05 1.83659e-05 -0.000255361
0.000852373 -0.000236124 7.60998e-07
-0.000236124 -1.4989e-05 1.1374e-07
7.60998e-07 1.1374e-07 -0.000218033
0.00143531 -0.000409465 8.45593e-06
-0.000409465 0.000207744 -1.43336e-06
8.45593e-06 -1.43336e-06 -7.12568e-05
0.00633845 9.29503e-05 -0.000231362
9.29503e-05 0.00360495 1.44198e-05
-0.000231362 1.44198e-05 0.00360346
0.000470247 -0.000219652 -1.10819e-06
-0.000219652 -9.15989e-05 4.10256e-07
-1.10819e-06 4.10256e-07 -0.000211895
0.000771372 -0.000225936 1.12232e-05
-0.000225936 9.35029e-06 -7.21882e-06
1.12232e-05 -7.21882e-06 -0.000195868
0.00595512 0.000120024 -5.52586e-06
0.000120024 0.00339234 -6.13674e-07
-5.52586e-06 -6.13674e-07 0.0033829
0.000521612 -0.000195574 2.32281e-05
-0.000195574 -4.50775e-05 -1.76411e-05
2.32281e-05 -1.76411e-05 -0.000154369
0.00540446 0.000124222 0.000193349
0.000124222 0.00306704 -1.88123e-05
0.000193349 -1.88123e-05 0.00305574
0.00143719 0.000480905 -1.16783e-06
0.000480905 0.000173992 4.00623e-06
-1.16783e-06 4.00623e-06 -0.000136572
0.00153368 0.000482123 -3.60443e-06
0.000482123 0.000373693 -7.44148e-07
-3.60443e-06 -7.44148e-07 4.54661e-05
0.00105928 0.000337113 -6.16319e-06
0.000337113 9.60331e-05 -4.70028e-07
-6.16319e-06 -4.70028e-07 -0.000164892
0.00245249 0.000504268 5.13314e-07
0.000504268 0.0010518 3.11685e-06
5.13314e-07 3.11685e-06 0.000740726
0.000894667 0.000267797 -2.7049e-06
0.000267797 0.00011306 -1.55819e-06
-2.7049e-06 -1.55819e-06 -0.000124552
0.00118313 0.000226115 -7.45e-06
0.000226115 0.000382542 -2.22502e-06
-7.45e-06 -2.22502e-06 0.000171043
-0.000227577 0.000105313 -3.26512e-06
0.000105313 -0.000472101 -1.84885e-06
-3.26512e-06 -1.84885e-06 -0.000665384
0.000749698 0.000127934 -1.00867e-06
0.000127934 0.000154282 -4.89777e-07
-1.00867e-06 -4.89777e-07 -3.26179e-05
0.000635589 7.41576e-05 -1.59272e-05
7.41576e-05 5.31862e-05 -1.61752e-05
-1.59272e-05 -1.61752e-05 -2.36321e-05
0.000369406 6.50769e-05 1.49059e-07
6.50769e-05 -8.57142e-05 8.45493e-06
1.49059e-07 8.45493e-06 -0.000224069
0.000443054 3.34482e-05 -3.68874e-07
3.34482e-05 -4.86933e-05 -4.90592e-07
-3.68874e-07 -4.90592e-07 -0.000108409
0.00399283 -0.000140394 -0.000119757
-0.000140394 0.00218949 -8.10577e-06
-0.000119757 -8.10577e-06 0.00218227
0.000304514 2.64712e-05 5.43902e-06
2.64712e-05 -0.000128248 1.29011e-05
5.43902e-06 1.29011e-05 -0.000177756
0.00341087 -0.000139678 -8.06248e-06
-0.000139678 0.00181887 7.99167e-07
-8.06248e-06 7.99167e-07 0.00181337
0.00299029 -0.000125505 5.22532e-05
-0.000125505 0.00154675 4.42653e-06
5.22532e-05 4.42653e-06 0.00154499
0.000460934 0.00011065 5.22026e-06
0.00011065 -0.0015813 1.40288e-05
5.22026e-06 1.40288e-05 -0.0010834
0.0052241 1.38273e-05 6.3992e-05
1.38273e-05 -0.00023976 1.33212e-05
6.3992e-05 1.33212e-05 0.000749133
0.0130168 0.000786256 -4.73602e-05
0.000786256 0.0025519 3.04292e-06
-4.73602e-05 3.04292e-06 0.00202126
0.00189366 0.000652831 1.92991e-06
0.000652831 0.000345694 4.77207e-06
1.92991e-06 4.77207e-06 3.77348e-05
0.00204695 0.000635591 -4.72947e-07
0.000635591 0.000291799 2.8763e-06
-4.72947e-07 2.8763e-06 6.84247e-06
0.00139626 0.00053897 -7.68399e-08
0.00053897 9.30885e-05 -3.22265e-06
-7.68399e-08 -3.22265e-06 -0.000216266
0.00265132 0.000696056 -4.37534e-06
0.000696056 0.00113381 5.9865e-06
-4.37534e-06 5.9865e-06 0.000761968
0.00176265 0.000567379 -4.78235e-06
0.000567379 0.000515732 -7.70962e-06
-4.78235e-06 -7.70962e-06 0.000138772
0.00183323 0.000670676 6.43382e-06
0.000670676 0.000438464 3.20597e-06
6.43382e-06 3.20597e-06 0.000120542
0.0017258 0.000700085 -1.86438e-06
0.000700085 4.84756e-05 -2.60872e-06
-1.86438e-06 -2.60872e-06 -0.000217606
0.00248045 0.000783338 -1.55583e-05
0.000783338 0.000772894 2.53781e-06
-1.55583e-05 2.53781e-06 0.000488277
0.00122956 0.000677949 -8.02498e-07
0.000677949 -0.000229052 9.46375e-06
-8.02498e-07 9.46375e-06 -0.000208854
0.00263102 0.000846462 -1.51758e-06
0.000846462 0.000602182 1.69311e-06
-1.51758e-06 1.69311e-06 0.000326647
0.00261846 0.000739242 -4.91992e-06
0.000739242 0.000423119 3.22629e-06
-4.91992e-06 3.22629e-06 0.000205996
0.00106444 0.000364324 2.90959e-05
0.000364324 -0.000371229 1.80468e-05
2.90959e-05 1.80468e-05 -0.000361526
0.000753421 0.000604146 1.02362e-05
0.000604146 -0.000339194 -2.3825e-06
1.02362e-05 -2.3825e-06 -0.000508986
0.00115665 0.000747152 -3.10064e-05
0.000747152 -0.000112219 -7.67139e-06
-3.10064e-05 -7.67139e-06 -0.000349095
0.00281804 0.000769394 2.56257e-06
0.000769394 -5.6413e-05 8.41899e-06
2.56257e-06 8.41899e-06 7.21333e-05
0.00610333 0.00101856 -1.20912e-05
0.00101856 -0.000733752 -3.34545e-05
-1.20912e-05 -3.34545e-05 -2.40046e-05
0.00377888 0.0012225 -2.9758e-05
0.0012225 0.000914816 -4.45117e-05
-2.9758e-05 -4.45117e-05 0.000811815
0.00128747 -6.02597e-05 2.74378e-05
-6.02597e-05 -0.000378113 1.97391e-06
2.74378e-05 1.97391e-06 -0.00028148
0.00232751 -0.000208103 -4.66784e-05
-0.000208103 -0.000410078 2.84844e-06
-4.66784e-05 2.84844e-06 -0.000220626
0.00245066 0.000289546 1.76531e-05
0.000289546 -0.000606893 -4.77626e-06
1.76531e-05 -4.77626e-06 -0.000305422
0.000471361 -0.000411831 -5.09951e-05
-0.000411831 -0.0013303 4.27732e-05
-5.09951e-05 4.27732e-05 -0.00100875
0.00296752 -0.000413947 -9.57433e-05
-0.000413947 -1.81259e-06 -5.46419e-06
-9.57433e-05 -5.46419e-06 5.03468e-05
0.00244001 -0.000324409 7.5474e-06
-0.000324409 -7.59668e-05 -3.88389e-06
7.5474e-06 -3.88389e-06 0.000212421
0.00248918 -9.13283e-05 -1.22542e-05
-9.13283e-05 0.00037924 4.17954e-07
-1.22542e-05 4.17954e-07 0.000372119
0.00229305 -0.000225874 1.02272e-05
-0.000225874 -3.14257e-05 -2.88437e-07
1.02272e-05 -2.88437e-07 5.85148e-05
0.00226298 -5.76218e-06 8.09188e-06
-5.76218e-06 -5.27583e-06 1.35818e-06
8.09188e-06 1.35818e-06 2.02943e-05
0.00191596 -0.000461684 -1.41426e-05
-0.000461684 -0.000437955 4.79593e-06
-1.41426e-05 4.79593e-06 -0.000214986
0.00231414 -0.000399974 -2.49155e-06
-0.000399974 -0.000129816 5.80896e-07
-2.49155e-06 5.80896e-07 1.90179e-05
0.00224655 -0.000281943 5.28027e-07
-0.000281943 -5.43316e-05 -1.26387e-06
5.28027e-07 -1.26387e-06 4.83077e-06
0.00221349 -0.000463601 -3.16695e-06
-0.000463601 3.0547e-05 9.5732e-07
-3.16695e-06 9.5732e-07 2.95186e-05
0.00217054 -0.000374758 -1.46472e-07
-0.000374758 2.14851e-05 1.30213e-09
-1.46472e-07 1.30213e-09 1.13061e-05
0.00208165 -0.000316307 -1.32324e-06
-0.000316307 3.10666e-05 3.1717e-07
-1.32324e-06 3.1717e-07 -8.27022e-06
0.00207986 -0.000437544 3.03484e-07
-0.000437544 7.31018e-05 -9.06584e-07
3.03484e-07 -9.06584e-07 -2.8064e-06
0.00199425 -0.000369048 5.58695e-07
-0.000369048 7.84971e-05 -2.01347e-07
5.58695e-07 -2.01347e-07 -1.76152e-05
0.00198871 -0.000340787 -1.22942e-06
-0.000340787 0.000119062 2.89869e-07
-1.22942e-06 2.89869e-07 3.61062e-06
0.00187324 -0.000409367 2.10824e-06
-0.000409367 7.05384e-05 -1.36582e-06
2.10824e-06 -1.36582e-06 -6.21278e-05
0.00193643 -0.000385507 3.38166e-07
-0.000385507 0.000133927 -5.65278e-07
3.38166e-07 -5.65278e-07 -8.75902e-06
0.0019221 -0.000361106 -5.97092e-07
-0.000361106 0.000164081 -1.57163e-06
-5.97092e-07 -1.57163e-06 -1.27246e-06
0.00211239 -0.000410383 -1.19883e-06
-0.000410383 0.000276687 3.33241e-06
-1.19883e-06 3.33241e-06 0.000116631
0.00201118 -0.000397593 -5.8364e-07
-0.000397593 0.000259781 -1.0524e-07
-5.8364e-07 -1.0524e-07 7.09326e-05
0.00163422 -0.000325894 -5.23965e-06
-0.000325894 0.000137262 6.61567e-07
-5.23965e-06 6.61567e-07 -6.88943e-05
0.00197056 -0.000428373 3.32801e-06
-0.000428373 0.00026973 1.4993e-06
3.32801e-06 1.4993e-06 5.13498e-05
0.00169 -0.000360004 -5.30898e-07
-0.000360004 0.000208907 2.78896e-08
-5.30898e-07 2.78896e-08 -1.6321e-05
0.00097471 -0.000219004 -1.44412e-05
-0.000219004 -3.18084e-05 6.83086e-06
-1.44412e-05 6.83086e-06 -0.000219017
0.000365487 -0.000191344 -1.98446e-05
-0.000191344 -0.000181821 1.70201e-05
-1.98446e-05 1.70201e-05 -0.000305599
0.000962108 -0.000238281 2.08181e-07
-0.000238281 -8.50993e-06 6.62467e-08
2.08181e-07 6.62467e-08 -0.00020602
0.00149967 -0.000386479 5.72926e-06
-0.000386479 0.00015429 -1.26329e-06
5.72926e-06 -1.26329e-06 -0.000101441
0.00658586 1.44464e-05 -0.000260798
1.44464e-05 0.00373464 1.73432e-05
-0.000260798 1.73432e-05 0.00374281
0.000430429 -0.000210794 -1.37147e-06
-0.000210794 -0.000132762 1.06025e-06
-1.37147e-06 1.06025e-06 -0.000255742
0.000889746 -0.000241661 1.24215e-05
-0.000241661 3.76887e-06 -6.83676e-06
1.24215e-05 -6.83676e-06 -0.000201342
0.00645033 6.70192e-05 -1.3246e-06
6.70192e-05 0.00367227 2.80978e-07
-1.3246e-06 2.80978e-07 0.00367168
0.000497336 -0.000223983 2.47083e-05
-0.000223983 -8.00362e-05 -1.84044e-05
2.47083e-05 -1.84044e-05 -0.000200251
0.00619809 9.16942e-05 0.000229621
9.16942e-05 0.00353424 -1.95827e-05
0.000229621 -1.95827e-05 0.00352845
0.00167842 0.000542315 -9.77871e-07
0.000542315 0.000179795 4.54656e-06
-9.77871e-07 4.54656e-06 -0.000111475
0.00148476 0.000492976 3.96018e-07
0.000492976 0.000202737 6.36047e-07
3.96018e-07 6.36047e-07 -0.000109121
0.00131432 0.00038606 -6.7099e-06
0.00038606 0.000179597 1.95377e-07
-6.7099e-06 1.95377e-07 -9.02035e-05
0.00169922 0.00050332 8.00452e-07
0.00050332 0.000468906 6.58118e-07
8.00452e-07 6.58118e-07 0.000134514
0.00118112 0.000341285 -1.35824e-06
0.000341285 0.000180456 1.03201e-07
-1.35824e-06 1.03201e-07 -7.89702e-05
0.000937086 0.000222851 -1.06616e-05
0.000222851 0.000152444 -4.11112e-06
-1.06616e-05 -4.11112e-06 -4.62326e-05
0.00132549 0.00030941 -1.9263e-06
0.00030941 0.000386994 -8.54447e-07
-1.9263e-06 -8.54447e-07 0.00014065
0.000652134 0.000195824 4.47147e-07
0.000195824 6.03336e-05 1.36832e-06
4.47147e-07 1.36832e-06 -0.000151071
0.000526327 0.000152695 -2.44766e-05
0.000152695 -3.05462e-05 -1.70667e-05
-2.44766e-05 -1.70667e-05 -0.000124212
0.000190983 7.88691e-05 3.40956e-07
7.88691e-05 -0.000183121 3.90814e-06
3.40956e-07 3.90814e-06 -0.000369991
0.000515422 6.42229e-05 -1.02527e-06
6.42229e-05 -1.55095e-05 -3.87637e-07
-1.02527e-06 -3.87637e-07 -8.96493e-05
0.00483507 -0.000156209 -0.000155042
-0.000156209 0.00272383 -1.17235e-05
-0.000155042 -1.17235e-05 0.0027096
0.00040484 2.9256e-05 7.85015e-06
2.9256e-05 -6.78768e-05 1.49636e-05
7.85015e-06 1.49636e-05 -0.000127863
0.00391416 -0.000162824 -7.45516e-06
-0.000162824 0.002146 8.00154e-07
-7.45516e-06 8.00154e-07 0.00213322
0.00333173 -0.00014848 6.76883e-05
-0.00014848 0.0017712 4.80832e-06
6.76883e-05 4.80832e-06 0.00176293
0.00101988 0.000118928 2.42145e-05
0.000118928 -0.000510655 1.86244e-05
2.42145e-05 1.86244e-05 -0.000338645
0.00258246 0.000133106 -1.08762e-05
0.000133106 -0.00070741 -3.60582e-06
-1.08762e-05 -3.60582e-06 -0.000168731
0.00388888 0.00020235 0.000190033
0.00020235 -0.00147221 5.47764e-05
0.000190033 5.47764e-05 1.59989e-05
0.00257626 0.000699463 -8.54958e-06
0.000699463 0.000552144 -4.91475e-07
-8.54958e-06 -4.91475e-07 0.000277572
0.00170956 0.000653489 -6.67906e-06
0.000653489 0.000220587 -4.34838e-06
-6.67906e-06 -4.34838e-06 -8.26598e-05
0.00208824 0.000524422 -1.17842e-07
0.000524422 0.000172618 4.18757e-06
-1.17842e-07 4.18757e-06 -4.32185e-05
0.00203113 0.000624965 1.11827e-06
0.000624965 0.000282519 3.39933e-07
1.11827e-06 3.39933e-07 4.46208e-07
0.00152586 0.000555712 -5.74502e-07
0.000555712 0.000182098 -1.02672e-05
-5.74502e-07 -1.02672e-05 -0.000127291
0.00190313 0.000547186 -3.37259e-06
0.000547186 6.08564e-07 8.39663e-07
-3.37259e-06 8.39663e-07 -0.000195717
0.00245609 0.000745943 -7.11761e-06
0.000745943 0.000770274 -3.73728e-06
-7.11761e-06 -3.73728e-06 0.000448419
0.00222077 0.000732782 -3.81162e-07
0.000732782 0.000348468 -6.05805e-07
-3.81162e-07 -6.05805e-07 7.29173e-05
0.00199534 0.00039532 -1.04455e-05
0.00039532 -0.000105544 3.51008e-07
-1.04455e-05 3.51008e-07 -0.000147631
0.00312846 0.000906362 -3.54581e-06
0.000906362 0.000871994 4.61306e-06
-3.54581e-06 4.61306e-06 0.000593334
0.0023773 0.000719985 -3.48367e-07
0.000719985 0.00028788 -5.16899e-07
-3.48367e-07 -5.16899e-07 7.02005e-05
0.000667007 0.000354732 2.77505e-06
0.000354732 -0.000558898 2.4977e-06
2.77505e-06 2.4977e-06 -0.000552579
-0.000759393 0.000476792 -2.24399e-05
0.000476792 -0.00112529 -8.31324e-06
-2.24399e-05 -8.31324e-06 -0.00127432
0.00357408 0.000852745 -0.000102373
0.000852745 0.000310195 -3.34907e-05
-0.000102373 -3.34907e-05 0.000360086
0.0020442 7.21222e-05 -1.40358e-06
7.21222e-05 -0.000168047 -7.65843e-07
-1.40358e-06 -7.65843e-07 -0.000100971
0.00252625 -6.92589e-05 7.71314e-06
-6.92589e-05 0.000429649 -7.54776e-08
7.71314e-06 -7.54776e-08 0.000502582
0.00238786 -0.000194837 -7.728e-05
-0.000194837 -0.000308211 9.28023e-06
-7.728e-05 9.28023e-06 -0.000143398
0.00218156 -0.0003297 -5.82665e-05
-0.0003297 -0.000141038 7.61193e-06
-5.82665e-05 7.61193e-06 0.000121456
0.00134956 -0.000100863 -1.06457e-05
-0.000100863 -0.000352718 2.33366e-06
-1.06457e-05 2.33366e-06 -0.000345777
0.00229319 -0.000225807 5.74151e-07
-0.000225807 -4.18694e-05 -1.58369e-06
5.74151e-07 -1.58369e-06 6.78449e-05
0.00229871 -5.89798e-06 -2.72331e-06
-5.89798e-06 -1.38135e-05 1.52854e-06
-2.72331e-06 1.52854e-06 1.92832e-05
0.00229247 -7.38616e-05 3.31407e-07
-7.38616e-05 -2.93018e-05 -4.94335e-08
3.31407e-07 -4.94335e-08 2.66313e-05
0.00232383 -0.000406215 -5.69246e-06
-0.000406215 -0.000107419 1.3598e-06
-5.69246e-06 1.3598e-06 9.22569e-06
0.00220919 -0.000271778 3.94243e-07
-0.000271778 -5.88128e-05 -2.25757e-07
3.94243e-07 -2.25757e-07 -7.43196e-06
0.00214385 -0.000212295 -2.92988e-09
-0.000212295 -4.27218e-06 -2.10761e-07
-2.92988e-09 -2.10761e-07 1.49654e-05
0.00217119 -0.000372033 4.20459e-07
-0.000372033 3.41176e-05 2.29877e-07
4.20459e-07 2.29877e-07 1.96469e-05
0.00207941 -0.000313534 6.51009e-08
-0.000313534 3.48083e-05 1.16868e-07
6.51009e-08 1.16868e-07 -5.11073e-06
0.00204686 -0.000270777 -2.34262e-06
-0.000270777 9.38129e-05 6.80315e-07
-2.34262e-06 6.80315e-07 1.99013e-05
0.00198718 -0.000367168 2.54783e-06
-0.000367168 7.0222e-05 -1.11349e-06
2.54783e-06 -1.11349e-06 -2.58838e-05
0.00195062 -0.000337865 5.03499e-07
-0.000337865 9.36729e-05 -3.06528e-07
5.03499e-07 -3.06528e-07 -2.18752e-05
0.00191015 -0.000308118 -4.13368e-07
-0.000308118 0.000113418 -1.07888e-06
-4.13368e-07 -1.07888e-06 -2.22596e-05
0.00196274 -0.00038736 8.75192e-07
-0.00038736 0.000147475 9.86853e-08
8.75192e-07 9.86853e-08 4.1787e-06
0.00195138 -0.000362348 -3.89132e-07
-0.000362348 0.000184219 -1.27709e-07
-3.89132e-07 -1.27709e-07 1.8753e-05
0.00168127 -0.000296003 -3.24505e-06
-0.000296003 0.00012765 3.28143e-07
-3.24505e-06 3.28143e-07 -5.92751e-05
0.00199121 -0.000396829 6.8305e-07
-0.000396829 0.000248356 1.69989e-06
6.8305e-07 1.69989e-06 6.07002e-05
0.0016672 -0.00032805 -4.4966e-07
-0.00032805 0.000157465 8.58471e-08
-4.4966e-07 8.58471e-08 -4.85079e-05
0.000997858 -0.000197702 -1.45305e-05
-0.000197702 -3.74843e-05 6.0523e-06
-1.45305e-05 6.0523e-06 -0.000215743
0.00171866 -0.000363582 5.55435e-06
-0.000363582 0.000226622 -5.76305e-07
5.55435e-06 -5.76305e-07 1.99075e-06
0.00102187 -0.000220994 7.49635e-08
-0.000220994 -6.06852e-06 1.07683e-07
7.49635e-08 1.07683e-07 -0.000192965
0.00268181 -0.000165869 -4.45387e-05
-0.000165869 0.00123197 1.11426e-05
-4.45387e-05 1.11426e-05 0.00113518
0.00203852 -8.68016e-05 -0.000236276
-8.68016e-05 0.000912483 3.0878e-05
-0.000236276 3.0878e-05 0.000893576
0.00158739 -0.000192497 -1.14042e-05
-0.000192497 0.000567848 -2.47977e-07
-1.14042e-05 -2.47977e-07 0.000453831
0.00100138 -0.000242401 1.35328e-05
-0.000242401 1.20061e-05 -6.66671e-06
1.35328e-05 -6.66671e-06 -0.000186468
0.00663412 -2.55982e-06 -7.1103e-06
-2.55982e-06 0.00377121 7.27414e-07
-7.1103e-06 7.27414e-07 0.00377578
0.000466243 -0.000236293 2.45213e-05
-0.000236293 -0.000110991 -1.79761e-05
2.45213e-05 -1.79761e-05 -0.000236564
0.00652372 4.57647e-05 0.000252811
4.57647e-05 0.00372227 -2.32241e-05
0.000252811 -2.32241e-05 0.00371912
0.00210746 0.000401627 6.06826e-07
0.000401627 0.000169142 9.56484e-07
6.06826e-07 9.56484e-07 5.95781e-06
0.0020066 0.000520268 3.0307e-06
0.000520268 0.000265116 4.87968e-06
3.0307e-06 4.87968e-06 1.90615e-05
0.00197361 0.000567778 1.96691e-07
0.000567778 0.000352975 2.10989e-07
1.96691e-07 2.10989e-07 6.01709e-05
0.00153502 0.0004223 -5.94877e-06
0.0004223 0.000217824 1.08748e-06
-5.94877e-06 1.08748e-06 -4.85654e-05
0.00157366 0.000510806 3.42845e-06
0.000510806 0.000255008 -2.58931e-06
3.42845e-06 -2.58931e-06 -5.97245e-05
0.00133107 0.000389229 -1.18083e-07
0.000389229 0.000185527 4.23757e-07
-1.18083e-07 4.23757e-07 -8.58686e-05
0.000864653 0.000227286 -1.23867e-05
0.000227286 2.65009e-05 -5.29258e-06
-1.23867e-05 -5.29258e-06 -0.000167858
0.0012409 0.000339681 5.64355e-06
0.000339681 0.000226457 1.38029e-06
5.64355e-06 1.38029e-06 -3.05238e-05
0.000706079 0.000204657 1.17505e-06
0.000204657 4.23344e-06 1.53195e-07
1.17505e-06 1.53195e-07 -0.000190274
0.0005851 0.000225492 -2.6948e-05
0.000225492 -8.74503e-06 -1.82382e-05
-2.6948e-05 -1.82382e-05 -0.000122796
0.000352127 0.000167881 3.36599e-06
0.000167881 -0.000131331 2.3896e-06
3.36599e-06 2.3896e-06 -0.000338321
0.000572078 0.000133802 -4.59706e-07
0.000133802 -3.69156e-06 -6.81139e-07
-4.59706e-07 -6.81139e-07 -9.43619e-05
0.00569644 -0.000154151 -0.000196423
-0.000154151 0.0032644 -1.89883e-05
-0.000196423 -1.89883e-05 0.00324182
0.000360657 5.73294e-05 1.27684e-05
5.73294e-05 -0.000108258 1.61756e-05
1.27684e-05 1.61756e-05 -0.000177129
0.00447357 -0.000184358 -1.105e-05
-0.000184358 0.00250573 1.01647e-06
-1.105e-05 1.01647e-06 0.00248491
0.00375002 -0.000171933 8.64619e-05
-0.000171933 0.0020456 5.73219e-06
8.64619e-05 5.73219e-06 0.00203023
0.00216838 0.000203284 -4.44948e-06
0.000203284 -0.000120389 -4.1133e-07
-4.44948e-06 -4.1133e-07 -4.36496e-05
0.00210954 8.04863e-05 2.43809e-05
8.04863e-05 3.03059e-05 -2.9238e-06
2.43809e-05 -2.9238e-06 0.000204762
0.00543698 0.000205334 -0.000109648
0.000205334 0.000598452 -8.38008e-06
-0.000109648 -8.38008e-06 0.00114839
0.00205297 0.000475005 -4.61503e-06
0.000475005 0.00011119 1.47488e-06
-4.61503e-06 1.47488e-06 -6.91982e-05
0.00210626 0.000648594 -3.08447e-06
0.000648594 0.000305405 -1.77136e-07
-3.08447e-06 -1.77136e-07 3.85863e-05
0.00159549 0.000660705 -5.79186e-06
0.000660705 0.000133971 -9.00912e-06
-5.79186e-06 -9.00912e-06 -0.000164755
0.00222213 0.000519216 3.07474e-06
0.000519216 0.00027202 1.39517e-06
3.07474e-06 1.39517e-06 5.91527e-05
0.00199261 0.000613626 1.16414e-06
0.000613626 0.000260309 -3.843e-06
1.16414e-06 -3.843e-06 -1.89504e-05
0.00232635 0.000385696 -3.24094e-07
0.000385696 7.90267e-05 3.05069e-07
-3.24094e-07 3.05069e-07 2.6585e-05
0.0019488 0.000554126 -4.23836e-07
0.000554126 4.95164e-05 5.10153e-07
-4.23836e-07 5.10153e-07 -0.000148051
0.00273653 0.000767927 -3.02257e-06
0.000767927 0.000662688 -1.37691e-06
-3.02257e-06 -1.37691e-06 0.000374583
0.0020234 0.000390989 -2.31771e-07
0.000390989 -7.75974e-05 -5.12756e-07
-2.31771e-07 -5.12756e-07 -0.000118801
0.00216571 0.00070004 1.20889e-05
0.00070004 0.000160758 1.57373e-06
1.20889e-05 1.57373e-06 -5.80865e-05
0.000594815 0.000347094 -3.8826e-05
0.000347094 -0.000579594 -1.75958e-05
-3.8826e-05 -1.75958e-05 -0.000577065
0.00227483 7.74622e-05 5.09141e-07
7.74622e-05 -1.31265e-05 4.09301e-07
5.09141e-07 4.09301e-07 3.62413e-05
0.00221838 8.34198e-05 -2.02457e-06
8.34198e-05 -4.26979e-05 2.83239e-07
-2.02457e-06 2.83239e-07 1.7928e-05
0.00335517 -6.66435e-05 -4.2098e-05
-6.66435e-05 0.000996928 1.98559e-06
-4.2098e-05 1.98559e-06 0.00104596
0.00227181 -0.000222621 -1.68577e-05
-0.000222621 -6.88901e-05 2.27697e-06
-1.68577e-05 2.27697e-06 5.97173e-05
0.00233737 -2.50628e-06 -4.42477e-06
-2.50628e-06 -2.5255e-05 -3.25219e-06
-4.42477e-06 -3.25219e-06 1.50814e-05
0.00225279 -8.02936e-05 -5.10097e-07
-8.02936e-05 -7.1458e-05 -7.31963e-08
-5.10097e-07 -7.31963e-08 -7.67239e-06
0.00202959 -6.62399e-05 -2.15938e-07
-6.62399e-05 -1.55143e-05 3.16922e-07
-2.15938e-07 3.16922e-07 -3.00782e-06
0.00216937 -0.000260654 -3.68064e-07
-0.000260654 -6.35562e-05 6.67991e-07
-3.68064e-07 6.67991e-07 -1.98858e-05
0.00209898 -0.000216149 -1.64386e-07
-0.000216149 -2.36858e-05 -2.00772e-08
-1.64386e-07 -2.00772e-08 -9.92742e-06
0.00204117 -0.000184389 -1.77168e-06
-0.000184389 5.176e-05 1.33509e-08
-1.77168e-06 1.33509e-08 1.48246e-05
0.00208054 -0.000310998 1.56447e-06
-0.000310998 4.0555e-05 4.06069e-08
1.56447e-06 4.06069e-08 6.9791e-08
0.00201118 -0.000268335 3.37575e-07
-0.000268335 6.82128e-05 -5.52363e-08
3.37575e-07 -5.52363e-08 -5.68966e-06
0.00193584 -0.000244906 -1.04242e-06
-0.000244906 8.67687e-05 -7.28041e-07
-1.04242e-06 -7.28041e-07 -2.01191e-05
0.00190333 -0.000334325 2.05385e-06
-0.000334325 6.24135e-05 -7.54995e-07
2.05385e-06 -7.54995e-07 -5.31724e-05
0.00196647 -0.00031137 -2.99747e-07
-0.00031137 0.000146832 -3.98608e-08
-2.99747e-07 -3.98608e-08 1.06907e-05
0.00172963 -0.000254881 -2.10282e-06
-0.000254881 0.000122557 8.92829e-09
-2.10282e-06 8.92829e-09 -4.39679e-05
0.00197756 -0.000363451 5.14653e-07
-0.000363451 0.000202407 1.08073e-06
5.14653e-07 1.08073e-06 3.68306e-05
0.00171543 -0.000298213 -3.48813e-07
-0.000298213 0.000147504 5.32766e-08
-3.48813e-07 5.32766e-08 -3.92264e-05
0.00101927 -0.000176661 -1.39175e-05
-0.000176661 -4.20766e-05 5.00152e-06
-1.39175e-05 5.00152e-06 -0.000212676
0.00170007 -0.00033026 4.13064e-06
-0.00033026 0.000177505 -5.24544e-07
4.13064e-06 -5.24544e-07 -2.82994e-05
0.00105115 -0.000199296 -7.37625e-08
-0.000199296 -9.33656e-06 1.6742e-07
-7.37625e-08 1.6742e-07 -0.000186879
0.00269108 -0.000163457 -5.27228e-05
-0.000163457 0.0012277 1.06399e-05
-5.27228e-05 1.06399e-05 0.00113918
0.00106585 -0.000223142 1.45184e-05
-0.000223142 1.76754e-05 -6.45286e-06
1.45184e-05 -6.45286e-06 -0.000168972
0.00281191 -0.000205357 4.60466e-05
-0.000205357 0.00131208 -6.9263e-06
4.60466e-05 -6.9263e-06 0.00122259
0.00209853 -0.000124686 -0.000238312
-0.000124686 0.000955791 3.56267e-05
-0.000238312 3.56267e-05 0.000934848
0.00424157 -9.12082e-05 -0.000233765
-9.12082e-05 0.00229275 2.2047e-05
-0.000233765 2.2047e-05 0.00228526
0.00289116 -0.000262097 0.000149531
-0.000262097 0.00137599 -2.3512e-05
0.000149531 -2.3512e-05 0.00128625
0.00668068 -1.81776e-05 0.000268528
-1.81776e-05 0.00380875 -2.74862e-05
0.000268528 -2.74862e-05 0.00380925
0.00229152 0.000400493 -1.72705e-06
0.000400493 0.000277342 9.6917e-09
-1.72705e-06 9.6917e-09 0.000136926
0.00182052 0.000399936 3.03772e-06
0.000399936 0.000105189 1.85563e-06
3.03772e-06 1.85563e-06 -8.85549e-05
0.00208881 0.000392288 5.24236e-07
0.000392288 0.000163304 -1.76328e-06
5.24236e-07 -1.76328e-06 7.0899e-06
0.00167855 0.000410231 -4.45857e-06
0.000410231 0.000195556 1.6077e-06
-4.45857e-06 1.6077e-06 -4.7891e-05
0.0020817 0.000526212 6.81808e-07
0.000526212 0.000297453 3.45518e-07
6.81808e-07 3.45518e-07 5.0685e-05
0.002264 0.000593413 1.2367e-06
0.000593413 0.000523314 -3.82445e-06
1.2367e-06 -3.82445e-06 0.000228888
0.00150078 0.000422605 2.04741e-07
0.000422605 0.000189711 4.57628e-07
2.04741e-07 4.57628e-07 -7.83244e-05
0.000953087 0.000251174 -1.4092e-05
0.000251174 -8.41452e-07 -5.4005e-06
-1.4092e-05 -5.4005e-06 -0.000199416
0.00132931 0.000390647 7.89551e-06
0.000390647 0.000180072 1.16773e-06
7.89551e-06 1.16773e-06 -9.26103e-05
0.000778743 0.000220227 -5.77134e-07
0.000220227 -2.40942e-05 -9.62425e-08
-5.77134e-07 -9.62425e-08 -0.00021558
0.000451298 0.000239864 -2.56982e-05
0.000239864 -0.000104168 -1.86819e-05
-2.56982e-05 -1.86819e-05 -0.000228735
0.000352612 0.000182406 8.42979e-06
0.000182406 -0.000214804 2.59279e-06
8.42979e-06 2.59279e-06 -0.000404816
0.000371229 0.000189986 2.63678e-06
0.000189986 -0.000143409 4.19626e-07
2.63678e-06 4.19626e-07 -0.000250287
0.00640666 -9.22707e-05 -0.000232842
-9.22707e-05 0.00368137 -2.35413e-05
-0.000232842 -2.35413e-05 0.00366482
0.000349826 0.000100418 1.90162e-05
0.000100418 -0.000138759 1.60966e-05
1.90162e-05 1.60966e-05 -0.000223546
0.00537021 -0.000173237 -2.22193e-06
-0.000173237 0.00305495 -9.7739e-07
-2.22193e-06 -9.7739e-07 0.0030349
0.0043064 -0.000203996 0.000102941
-0.000203996 0.00240751 7.55526e-06
0.000102941 7.55526e-06 0.00238184
0.00231214 0.000234541 -1.96955e-07
0.000234541 1.91683e-06 4.35001e-07
-1.96955e-07 4.35001e-07 4.22871e-05
0.00211035 0.000209239 1.41883e-06
0.000209239 -0.000143021 7.59321e-08
1.41883e-06 7.59321e-08 -6.77749e-05
0.00288042 4.91386e-05 -8.10678e-05
4.91386e-05 0.00039857 -1.1615e-05
-8.10678e-05 -1.1615e-05 0.000581777
0.00204405 0.000338446 -2.1979e-07
0.000338446 1.86331e-05 1.76391e-07
-2.1979e-07 1.76391e-07 -7.31966e-05
0.0020519 0.000472277 -5.92205e-07
0.000472277 0.000133225 4.3566e-07
-5.92205e-07 4.3566e-07 -4.66169e-05
0.00159871 0.000592175 6.52427e-06
0.000592175 3.79931e-05 -1.97661e-06
6.52427e-06 -1.97661e-06 -0.000219951
0.00235784 0.000513877 -2.23498e-07
0.000513877 0.000372897 -3.13366e-06
-2.23498e-07 -3.13366e-06 0.000163103
0.00226737 0.000372423 -9.39073e-07
0.000372423 5.60847e-05 2.8461e-08
-9.39073e-07 2.8461e-08 6.11418e-06
0.00198162 0.000560008 -1.02138e-06
0.000560008 9.15459e-05 -1.09746e-08
-1.02138e-06 -1.09746e-08 -0.000107188
0.00194718 0.00038043 1.09718e-05
0.00038043 -8.31194e-05 -5.23745e-07
1.09718e-05 -5.23745e-07 -0.000123062
0.00210111 6.21154e-05 1.45293e-06
6.21154e-05 -1.25138e-06 4.75386e-07
1.45293e-06 4.75386e-07 1.8326e-05
0.00220834 7.34503e-05 9.39781e-08
7.34503e-05 -4.25245e-05 3.96214e-09
9.39781e-08 3.96214e-09 5.08023e-06
0.00237746 9.947e-05 -8.2089e-06
9.947e-05 7.63148e-05 -6.13052e-07
-8.2089e-06 -6.13052e-07 0.000130061
0.00196796 -1.24492e-05 -3.76774e-06
-1.24492e-05 1.73616e-05 4.91251e-07
-3.76774e-06 4.91251e-07 9.67644e-06
0.00221762 -9.2409e-05 4.15981e-07
-9.2409e-05 -0.00010958 -7.55986e-07
4.15981e-07 -7.55986e-07 -3.80111e-05
0.00205549 -6.90926e-05 -7.77656e-07
-6.90926e-05 -4.42386e-06 3.04289e-07
-7.77656e-07 3.04289e-07 8.87076e-06
0.00195161 -0.00010481 -3.89169e-06
-0.00010481 -7.09045e-07 4.00333e-07
-3.89169e-06 4.00333e-07 -2.46221e-05
0.00205306 -0.000219816 6.52222e-07
-0.000219816 -4.36652e-05 2.01097e-07
6.52222e-07 2.01097e-07 -3.58186e-05
0.00203528 -0.00018301 1.44094e-06
-0.00018301 4.79946e-05 -3.70305e-07
1.44094e-06 -3.70305e-07 1.13753e-05
0.00198708 -0.000175593 9.36806e-07
-0.000175593 9.82069e-05 -1.02063e-06
9.36806e-07 -1.02063e-06 1.49512e-05
0.00197311 -0.000265181 2.53491e-06
-0.000265181 4.13481e-05 -7.46833e-07
2.53491e-06 -7.46833e-07 -3.24181e-05
0.00197645 -0.000245443 -2.32167e-07
-0.000245443 0.000110205 -1.83223e-07
-2.32167e-07 -1.83223e-07 3.34279e-06
0.00174323 -0.000201568 -1.30474e-06
-0.000201568 0.000109218 -1.86722e-07
-1.30474e-06 -1.86722e-07 -3.71086e-05
0.00202625 -0.000314584 9.17496e-07
-0.000314584 0.000183236 7.40645e-07
9.17496e-07 7.40645e-07 4.667e-05
0.00174563 -0.000255169 -2.98883e-07
-0.000255169 0.000131442 5.3915e-08
-2.98883e-07 5.3915e-08 -3.46416e-05
0.00104187 -0.000152455 -1.31837e-05
-0.000152455 -4.29549e-05 3.83358e-06
-1.31837e-05 3.83358e-06 -0.000205212
0.00175045 -0.000300352 2.36094e-06
-0.000300352 0.00016808 -2.36271e-07
2.36094e-06 -2.36271e-07 -1.84228e-05
0.00107062 -0.000177012 -1.95128e-07
-0.000177012 -1.48066e-05 2.66823e-07
-1.95128e-07 2.66823e-07 -0.000184348
0.00267087 -0.000160301 -6.02109e-05
-0.000160301 0.00121309 1.03791e-05
-6.02109e-05 1.03791e-05 0.00112802
0.0011053 -0.000200937 1.45551e-05
-0.000200937 1.91404e-05 -5.75673e-06
1.45551e-05 -5.75673e-06 -0.000157627
0.00276867 -0.00018694 4.21301e-05
-0.00018694 0.00127569 -5.5004e-06
4.21301e-05 -5.5004e-06 0.00119369
0.00213202 -0.000106739 -0.00023274
-0.000106739 0.000968938 3.12754e-05
-0.00023274 3.12754e-05 0.000950451
0.00292346 -0.000213928 0.000145122
-0.000213928 0.00137654 -2.46438e-05
0.000145122 -2.46438e-05 0.00129587
0.00178339 -6.28617e-05 -9.86464e-05
-6.28617e-05 0.000763203 1.37914e-05
-9.86464e-05 1.37914e-05 0.000730422
0.00630811 4.93452e-05 7.65207e-05
4.93452e-05 0.00356017 -3.40411e-06
7.65207e-05 -3.40411e-06 0.00354037
0.00208427 0.000339553 9.81343e-07
0.000339553 0.000125942 5.69842e-07
9.81343e-07 5.69842e-07 6.99394e-06
0.00213136 0.00037561 3.12753e-07
0.00037561 0.000244844 -4.5631e-08
3.12753e-07 -4.5631e-08 8.1547e-05
0.0021958 0.000397981 -3.88153e-06
0.000397981 0.000207966 -1.46906e-07
-3.88153e-06 -1.46906e-07 6.47826e-05
0.00182886 0.000365785 -1.79698e-06
0.000365785 0.000225213 7.86366e-07
-1.79698e-06 7.86366e-07 1.16604e-05
0.00181661 0.00040575 -6.62711e-07
0.00040575 8.53592e-05 -1.94391e-06
-6.62711e-07 -1.94391e-06 -0.000104969
0.00206994 0.000383054 -4.66813e-06
0.000383054 0.000157214 -5.57348e-06
-4.66813e-06 -5.57348e-06 7.96214e-06
0.00107979 0.000250394 -1.52086e-05
0.000250394 1.39478e-05 -5.05773e-06
-1.52086e-05 -5.05773e-06 -0.000178613
0.00163053 0.000407515 6.87646e-07
0.000407515 0.000165152 3.92347e-07
6.87646e-07 3.92347e-07 -7.88066e-05
0.00215837 0.000531858 2.00613e-06
0.000531858 0.000329838 -3.7304e-06
2.00613e-06 -3.7304e-06 8.247e-05
0.00146651 0.000422565 6.9936e-06
0.000422565 0.00016247 3.4314e-08
6.9936e-06 3.4314e-08 -0.000107098
0.000900888 0.000242543 -8.7424e-07
0.000242543 -2.46584e-05 1.98393e-08
-8.7424e-07 1.98393e-08 -0.000220647
0.00038853 0.000235596 -2.50293e-05
0.000235596 -0.000150198 -1.74692e-05
-2.50293e-05 -1.74692e-05 -0.00027745
0.000686011 0.000210509 1.19983e-05
0.000210509 -7.87657e-05 5.79406e-06
1.19983e-05 5.79406e-06 -0.000266873
0.00041214 0.000227524 2.12693e-06
0.000227524 -0.000122187 6.96398e-07
2.12693e-06 6.96398e-07 -0.000247107
0.0066776 -4.63321e-06 -0.000255655
-4.63321e-06 0.00383242 -2.96242e-05
-0.000255655 -2.96242e-05 0.00382019
0.000442248 0.000172759 2.38009e-05
0.000172759 -0.00010345 1.83335e-05
2.38009e-05 1.83335e-05 -0.000207848
0.00616905 -0.000128436 3.65499e-06
-0.000128436 0.00353166 -1.08443e-06
3.65499e-06 -1.08443e-06 0.00351643
0.00500114 -0.000216716 0.000132243
-0.000216716 0.00284075 9.15217e-06
0.000132243 9.15217e-06 0.00281036
0.00208203 0.000184099 -8.56638e-07
0.000184099 1.27382e-05 -1.58082e-07
-8.56638e-07 -1.58082e-07 4.53518e-06
0.00227217 0.000236042 6.45938e-08
0.000236042 -2.99221e-05 5.72329e-07
6.45938e-08 5.72329e-07 1.31342e-05
0.00211868 0.000214894 3.72425e-06
0.000214894 -0.000142559 -1.0359e-07
3.72425e-06 -1.0359e-07 -6.81022e-05
0.00209578 0.00033692 -3.11542e-07
0.00033692 5.57301e-05 1.14131e-07
-3.11542e-07 1.14131e-07 -3.18093e-05
0.00204339 0.000468454 1.62417e-06
0.000468454 0.000153211 -6.61614e-07
1.62417e-06 -6.61614e-07 -2.58781e-05
0.00223554 0.000361182 1.76107e-06
0.000361182 4.37552e-05 -3.89745e-07
1.76107e-06 -3.89745e-07 -3.9559e-06
0.00199094 6.0156e-05 -1.70463e-06
6.0156e-05 3.47881e-06 3.38143e-07
-1.70463e-06 3.38143e-07 5.96015e-07
0.00208408 5.71849e-05 3.50985e-07
5.71849e-05 -8.26429e-06 -9.92429e-08
3.50985e-07 -9.92429e-08 9.35045e-06
0.00214275 6.9581e-05 -5.28222e-07
6.9581e-05 -7.28445e-05 -4.15988e-07
-5.28222e-07 -4.15988e-07 -2.62655e-05
0.00195951 -1.2208e-05 -1.08366e-06
-1.2208e-05 9.02348e-06 2.8169e-08
-1.08366e-06 2.8169e-08 9.08665e-07
0.00194902 -3.92963e-05 -6.24172e-06
-3.92963e-05 2.81126e-05 6.32467e-07
-6.24172e-06 6.32467e-07 -6.97902e-07
0.00208304 -7.16689e-05 3.99794e-07
-7.16689e-05 7.20277e-06 -6.57092e-08
3.99794e-07 -6.57092e-08 2.1604e-05
0.00197259 -0.000104603 -1.52082e-06
-0.000104603 1.80672e-05 2.75435e-07
-1.52082e-06 2.75435e-07 -8.89152e-06
0.00196626 -0.000112852 -4.19128e-06
-0.000112852 7.72583e-05 3.64606e-07
-4.19128e-06 3.64606e-07 1.34101e-05
0.00203208 -0.000182184 4.47464e-06
-0.000182184 4.64254e-05 -7.82281e-07
4.47464e-06 -7.82281e-07 9.99972e-06
0.00195277 -0.000175775 2.77053e-06
-0.000175775 7.49955e-05 -8.54128e-07
2.77053e-06 -8.54128e-07 -8.19541e-06
0.00172041 -0.000145831 1.648e-06
-0.000145831 8.27696e-05 -5.92406e-07
1.648e-06 -5.92406e-07 -4.75265e-05
0.00200626 -0.000247285 1.45543e-06
-0.000247285 0.000125807 2.02117e-07
1.45543e-06 2.02117e-07 1.86637e-05
0.00173828 -0.000202029 -2.14779e-07
-0.000202029 0.000103554 -7.35634e-08
-2.14779e-07 -7.35634e-08 -4.26112e-05
0.00105379 -0.000122326 -1.25439e-05
-0.000122326 -4.57745e-05 2.9083e-06
-1.25439e-05 2.9083e-06 -0.000198596
0.00176267 -0.000255705 1.25371e-06
-0.000255705 0.000139726 8.01479e-08
1.25371e-06 8.01479e-08 -2.5964e-05
0.00107981 -0.000151224 -3.30772e-07
-0.000151224 -2.19631e-05 2.15212e-07
-3.30772e-07 2.15212e-07 -0.00018307
0.00260423 -0.000163592 -6.27056e-05
-0.000163592 0.00117223 9.11012e-06
-6.27056e-05 9.11012e-06 0.00108909
0.00112139 -0.00017735 1.39558e-05
-0.00017735 1.18723e-05 -4.5978e-06
1.39558e-05 -4.5978e-06 -0.000156578
0.00272913 -0.000161899 4.0402e-05
-0.000161899 0.00124457 -4.17627e-06
4.0402e-05 -4.17627e-06 0.00116738
0.00214964 -8.94227e-05 -0.000231168
-8.94227e-05 0.000973032 2.63698e-05
-0.000231168 2.63698e-05 0.000955997
0.00284592 -0.000180285 0.000142017
-0.000180285 0.00131646 -2.10171e-05
0.000142017 -2.10171e-05 0.00124415
0.00177852 -6.8089e-05 -8.94027e-05
-6.8089e-05 0.000754976 1.11234e-05
-8.94027e-05 1.11234e-05 0.000724937
0.00150768 -6.04451e-05 5.43357e-05
-6.04451e-05 0.000602245 -8.39251e-06
5.43357e-05 -8.39251e-06 0.000555231
0.00202309 0.000215471 -5.53939e-07
0.000215471 5.60843e-05 5.18122e-07
-5.53939e-07 5.18122e-07 -8.34475e-06
0.002062 0.000311725 -8.88958e-07
0.000311725 0.000168582 7.86005e-07
-8.88958e-07 7.86005e-07 3.10295e-05
0.002049 0.000340382 -3.69572e-08
0.000340382 8.47907e-05 1.74211e-07
-3.69572e-08 1.74211e-07 -2.82444e-05
0.00193574 0.000333682 -6.2595e-07
0.000333682 0.000241788 7.43136e-07
-6.2595e-07 7.43136e-07 5.58598e-05
0.00205389 0.000369038 -7.96246e-07
0.000369038 0.000205698 -3.97708e-07
-7.96246e-07 -3.97708e-07 4.10819e-05
0.00209255 0.000395498 -4.58041e-08
0.000395498 0.000133879 -4.33374e-07
-4.58041e-08 -4.33374e-07 -1.21802e-05
0.00115018 0.000228689 -1.56262e-05
0.000228689 2.94831e-05 -4.7019e-06
-1.56262e-05 -4.7019e-06 -0.000152071
0.00175538 0.000365508 2.52866e-06
0.000365508 0.00017235 5.99996e-08
2.52866e-06 5.99996e-08 -3.84592e-05
0.00182543 0.000412487 -1.79869e-06
0.000412487 7.38441e-05 -3.95117e-06
-1.79869e-06 -3.95117e-06 -0.000113203
0.00032205 0.000185263 -2.23218e-05
0.000185263 -0.000213367 -1.43869e-05
-2.23218e-05 -1.43869e-05 -0.00033078
0.00101518 0.00024372 -5.28925e-07
0.00024372 -1.97453e-05 1.2411e-07
-5.28925e-07 1.2411e-07 -0.000211163
0.0015848 0.000405318 6.31122e-06
0.000405318 0.00013537 -7.67787e-07
6.31122e-06 -7.67787e-07 -0.000109243
0.000869529 0.000235855 1.41193e-05
0.000235855 -3.61793e-05 6.1679e-06
1.41193e-05 6.1679e-06 -0.000229965
0.000400414 0.000220899 7.53418e-07
0.000220899 -0.000140308 9.15634e-07
7.53418e-07 9.15634e-07 -0.000268866
0.0068239 9.6184e-05 -0.000270485
9.6184e-05 0.00390384 -3.38484e-05
-0.000270485 -3.38484e-05 0.00389598
0.0003708 0.000209831 2.23981e-05
0.000209831 -0.00014469 1.75235e-05
2.23981e-05 1.75235e-05 -0.00026787
0.00657039 -3.40583e-05 7.23663e-06
-3.40583e-05 0.00375405 -2.50211e-07
7.23663e-06 -2.50211e-07 0.00374889
0.00590941 -0.000160189 0.000185121
-0.000160189 0.00336949 1.03838e-05
0.000185121 1.03838e-05 0.00335328
0.00201629 0.000121204 -4.08095e-06
0.000121204 4.07272e-05 -9.44475e-07
-4.08095e-06 -9.44475e-07 2.53619e-05
0.00208197 0.000187657 9.13599e-07
0.000187657 1.20011e-05 3.51186e-07
9.13599e-07 3.51186e-07 2.8521e-06
0.00222015 0.000237764 -2.99648e-07
0.000237764 -6.59197e-05 -7.44057e-07
-2.99648e-07 -7.44057e-07 -2.06913e-05
0.00215158 0.000334567 2.65225e-06
0.000334567 9.55511e-05 -1.11834e-07
2.65225e-06 -1.11834e-07 1.24194e-05
0.00192365 1.19179e-05 -5.46266e-06
1.19179e-05 3.25486e-05 5.81406e-07
-5.46266e-06 5.81406e-07 -5.67533e-06
0.00197006 5.05383e-05 5.29907e-08
5.05383e-05 -7.95019e-06 7.1402e-08
5.29907e-08 7.1402e-08 -1.22485e-05
0.00206661 5.2155e-05 -7.42246e-07
5.2155e-05 -1.46127e-05 -3.19428e-07
-7.42246e-07 -3.19428e-07 3.1782e-07
0.00194909 -1.06609e-05 1.19587e-06
-1.06609e-05 -2.13226e-07 -7.27058e-07
1.19587e-06 -7.27058e-07 -9.00056e-06
0.00194755 -3.39245e-05 -9.06565e-07
-3.39245e-05 2.57887e-05 -1.22174e-07
-9.06565e-07 -1.22174e-07 -1.99026e-06
0.00190403 -4.80814e-05 -2.61951e-06
-4.80814e-05 4.7324e-05 2.48445e-07
-2.61951e-06 2.48445e-07 -1.75711e-05
0.00199206 -0.000104574 3.31828e-06
-0.000104574 3.56079e-05 -3.75255e-08
3.31828e-06 -3.75255e-08 5.43195e-06
0.00192943 -0.000112481 -1.95762e-06
-0.000112481 6.03202e-05 5.86834e-07
-1.95762e-06 5.86834e-07 -1.0305e-05
0.0018091 -9.36478e-05 -6.75582e-07
-9.36478e-05 0.000128788 -2.15569e-07
-6.75582e-07 -2.15569e-07 1.79631e-05
0.00192724 -0.000174776 5.26486e-06
-0.000174776 5.71424e-05 -7.71016e-07
5.26486e-06 -7.71016e-07 -2.57152e-05
0.00173693 -0.000144123 1.99283e-06
-0.000144123 9.1024e-05 -5.12339e-07
1.99283e-06 -5.12339e-07 -3.86141e-05
0.00104735 -8.92052e-05 -1.21931e-05
-8.92052e-05 -5.44601e-05 2.04821e-06
-1.21931e-05 2.04821e-06 -0.000198178
0.00174751 -0.000200584 7.56813e-07
-0.000200584 0.000108385 2.42652e-08
7.56813e-07 2.42652e-08 -3.71661e-05
0.00106529 -0.000121308 -1.3285e-07
-0.000121308 -3.79447e-05 1.63875e-07
-1.3285e-07 1.63875e-07 -0.000190074
0.000453042 -8.83633e-05 -1.99303e-05
-8.83633e-05 -0.000176753 5.83257e-06
-1.99303e-05 5.83257e-06 -0.000267412
0.00111423 -0.000149724 1.30392e-05
-0.000149724 -2.68425e-06 -3.50713e-06
1.30392e-05 -3.50713e-06 -0.000162589
0.00157956 -0.000106577 5.88941e-05
-0.000106577 0.000524698 -4.36718e-06
5.88941e-05 -4.36718e-06 0.000444815
0.00630562 -0.000152299 -0.000304896
-0.000152299 0.0035582 2.18404e-05
-0.000304896 2.18404e-05 0.00357325
0.00280345 -0.000145626 0.00013965
-0.000145626 0.00128076 -1.66991e-05
0.00013965 -1.66991e-05 0.00121385
0.00178392 -6.93276e-05 -8.08025e-05
-6.93276e-05 0.000756715 7.27769e-06
-8.08025e-05 7.27769e-06 0.000726766
0.00142458 -8.91504e-05 6.59497e-05
-8.91504e-05 0.000554941 -9.96037e-06
6.59497e-05 -9.96037e-06 0.000506863
0.00200579 0.000158993 -2.99734e-06
0.000158993 7.17997e-05 -3.3518e-07
-2.99734e-06 -3.3518e-07 2.10663e-05
0.00201653 0.000232126 -2.4716e-07
0.000232126 0.000124601 1.42902e-06
-2.4716e-07 1.42902e-06 1.82093e-05
0.00201142 0.000211032 7.36915e-07
0.000211032 5.46588e-05 4.18169e-07
7.36915e-07 4.18169e-07 -1.32627e-05
0.00185231 0.000268644 -5.48158e-07
0.000268644 0.000162479 1.03906e-06
-5.48158e-07 1.03906e-06 3.65449e-06
0.00197967 0.000305358 8.39184e-07
0.000305358 0.000120738 9.87632e-08
8.39184e-07 9.87632e-08 -1.62746e-05
0.00201698 0.000341995 4.77411e-07
0.000341995 4.5221e-05 1.69963e-07
4.77411e-07 1.69963e-07 -6.19936e-05
0.00108966 0.000197895 -1.60329e-05
0.000197895 -3.17536e-05 -3.53917e-06
-1.60329e-05 -3.53917e-06 -0.000200353
0.00193082 0.000332157 2.4347e-06
0.000332157 0.00023812 5.86716e-07
2.4347e-06 5.86716e-07 5.27891e-05
0.00196538 0.000361511 -1.51292e-06
0.000361511 0.000160286 -1.49968e-06
-1.51292e-06 -1.49968e-06 -5.52701e-06
0.000331749 0.000131796 -1.95092e-05
0.000131796 -0.000231726 -1.06674e-05
-1.95092e-05 -1.06674e-05 -0.000336191
0.00102021 0.000222219 4.18851e-07
0.000222219 -5.17929e-05 3.59497e-07
4.18851e-07 3.59497e-07 -0.000232348
0.00167068 0.000364372 6.73602e-06
0.000364372 0.000112215 -9.77671e-07
6.73602e-06 -9.77671e-07 -9.56616e-05
0.00675362 0.000176137 -0.000280542
0.000176137 0.00384264 -3.3552e-05
-0.000280542 -3.3552e-05 0.00384122
0.000359232 0.000178214 3.0869e-07
0.000178214 -0.000191631 8.13292e-07
3.0869e-07 8.13292e-07 -0.000309993
0.000945617 0.000236829 1.52525e-05
0.000236829 -5.59549e-05 5.69281e-06
1.52525e-05 5.69281e-06 -0.000246197
0.000364878 0.000205984 2.12853e-05
0.000205984 -0.000158997 1.72582e-05
2.12853e-05 1.72582e-05 -0.000288617
0.00669758 8.57202e-05 1.00084e-05
8.57202e-05 0.00381866 6.9675e-07
1.00084e-05 6.9675e-07 0.00381769
0.00645492 -6.58318e-05 0.000239207
-6.58318e-05 0.00367397 1.47919e-05
0.000239207 1.47919e-05 0.00367336
0.00194375 6.61862e-05 -7.74974e-06
6.61862e-05 4.30527e-05 1.25176e-07
-7.74974e-06 1.25176e-07 1.27046e-06
0.00200246 0.000118167 2.36784e-07
0.000118167 3.09862e-05 4.3223e-08
2.36784e-07 4.3223e-08 1.52247e-05
0.00208216 0.000191305 1.22553e-06
0.000191305 1.11817e-05 3.64366e-07
1.22553e-06 3.64366e-07 1.58676e-06
0.00187637 4.30592e-06 -2.64917e-06
4.30592e-06 4.13965e-05 1.26136e-07
-2.64917e-06 1.26136e-07 -2.83848e-05
0.00193131 1.69514e-05 1.30322e-07
1.69514e-05 3.59504e-05 6.02874e-08
1.30322e-07 6.02874e-08 6.86872e-07
0.00195199 3.98228e-05 1.0787e-06
3.98228e-05 -1.78643e-05 -3.54213e-07
1.0787e-06 -3.54213e-07 -2.34305e-05
0.00194694 -2.93965e-05 3.44436e-06
-2.93965e-05 2.36501e-05 -4.86984e-07
3.44436e-06 -4.86984e-07 -2.76181e-06
0.00188887 -4.62899e-05 -1.29086e-06
-4.62899e-05 3.82747e-05 2.84177e-07
-1.29086e-06 2.84177e-07 -2.57526e-05
0.00188215 -4.1928e-05 1.81579e-06
-4.1928e-05 0.000186466 -5.83119e-07
1.81579e-06 -5.83119e-07 7.97985e-05
0.00188715 -0.000111796 -6.01626e-07
-0.000111796 4.03766e-05 6.67496e-07
-6.01626e-07 6.67496e-07 -3.68674e-05
0.00180361 -9.4688e-05 5.20763e-07
-9.4688e-05 0.000129456 2.37389e-08
5.20763e-07 2.37389e-08 1.28288e-05
0.000992213 -5.15469e-05 -1.29876e-05
-5.15469e-05 -9.426e-05 1.00219e-06
-1.29876e-05 1.00219e-06 -0.000226754
0.00173702 -0.000144248 2.11159e-06
-0.000144248 8.86033e-05 -4.20301e-07
2.11159e-06 -4.20301e-07 -4.08056e-05
0.00105616 -8.55547e-05 -6.81076e-08
-8.55547e-05 -4.89662e-05 1.55156e-07
-6.81076e-08 1.55156e-07 -0.000191889
0.000462633 -2.2887e-05 -1.85336e-05
-2.2887e-05 -0.000175158 3.52143e-06
-1.85336e-05 3.52143e-06 -0.000260909
0.00109824 -0.000119863 1.23619e-05
-0.000119863 -1.83728e-05 -2.60535e-06
1.23619e-05 -2.60535e-06 -0.000169604
0.000460569 -7.26712e-05 -2.29106e-07
-7.26712e-05 -0.000170767 4.26652e-07
-2.29106e-07 4.26652e-07 -0.000262236
0.00625832 -4.49513e-05 -0.000295002
-4.49513e-05 0.00352376 1.34221e-05
-0.000295002 1.34221e-05 0.00354304
0.000500871 -7.44531e-05 1.50188e-05
-7.44531e-05 -0.000147122 -7.69489e-06
1.50188e-05 -7.69489e-06 -0.00024261
0.0039628 -9.94815e-05 0.000131475
-9.94815e-05 0.00211028 -6.45955e-06
0.000131475 -6.45955e-06 0.00209451
0.00138923 -8.54661e-05 7.18609e-05
-8.54661e-05 0.00053323 -9.93586e-06
7.18609e-05 -9.93586e-06 0.000485315
0.0019644 0.00012271 -6.61973e-06
0.00012271 5.85547e-05 -3.4701e-07
-6.61973e-06 -3.4701e-07 4.40875e-06
0.00198101 0.00016804 -6.02754e-07
0.00016804 0.000102229 1.85145e-06
-6.02754e-07 1.85145e-06 1.17105e-05
0.0019842 0.00015401 -6.90857e-07
0.00015401 5.63782e-05 -1.63525e-07
-6.90857e-07 -1.63525e-07 5.97309e-06
0.00178336 0.000202329 -3.80199e-08
0.000202329 0.000110719 9.64437e-07
-3.80199e-08 9.64437e-07 -3.35271e-05
0.00201542 0.000231736 3.79187e-07
0.000231736 0.000121468 2.05885e-07
3.79187e-07 2.05885e-07 1.37149e-05
0.00200548 0.00020647 2.40261e-06
0.00020647 5.69088e-05 2.85015e-07
2.40261e-06 2.85015e-07 -1.45337e-05
0.00107637 0.000161094 -1.45554e-05
0.000161094 -4.94157e-05 -2.54442e-06
-1.45554e-05 -2.54442e-06 -0.000205689
0.00184585 0.000266407 1.16259e-06
0.000266407 0.00016466 5.59183e-07
1.16259e-06 5.59183e-07 1.96539e-06
0.00189651 0.000298864 -2.33508e-07
0.000298864 7.23164e-05 -9.38195e-07
-2.33508e-07 -9.38195e-07 -6.40859e-05
0.000362858 9.38187e-05 -1.82067e-05
9.38187e-05 -0.000229168 -7.56285e-06
-1.82067e-05 -7.56285e-06 -0.000324867
0.00101714 0.000193328 -1.43293e-06
0.000193328 -7.46309e-05 1.13617e-07
-1.43293e-06 1.13617e-07 -0.000242777
0.00193156 0.000331096 5.56739e-06
0.000331096 0.000237971 5.25996e-07
5.56739e-06 5.25996e-07 5.31479e-05
0.00658808 0.000238099 -0.000297016
0.000238099 0.00373804 -3.23549e-05
-0.000297016 -3.23549e-05 0.00373939
0.000371615 0.000130821 -6.95535e-08
0.000130821 -0.000209093 4.17526e-07
-6.95535e-08 4.17526e-07 -0.000314125
0.00089779 0.000216554 1.48763e-05
0.000216554 -0.000128781 4.6534e-06
1.48763e-05 4.6534e-06 -0.000308425
0.00669935 0.000192677 1.37585e-05
0.000192677 0.00381582 3.15334e-06
1.37585e-05 3.15334e-06 0.00381292
0.000383808 0.000169657 1.99524e-05
0.000169657 -0.000177703 1.4274e-05
1.99524e-05 1.4274e-05 -0.00029682
0.00657182 4.92773e-05 0.000263908
4.92773e-05 0.00372887 2.17263e-05
0.000263908 2.17263e-05 0.00373551
0.00187015 4.78632e-05 -3.50332e-06
4.78632e-05 2.6886e-05 2.74584e-07
-3.50332e-06 2.74584e-07 -4.39019e-05
0.00193252 6.94933e-05 -7.70113e-07
6.94933e-05 4.38334e-05 -2.59995e-07
-7.70113e-07 -2.59995e-07 8.24082e-07
0.00198361 0.000115182 3.67104e-06
0.000115182 1.86534e-05 5.33326e-07
3.67104e-06 5.33326e-07 2.38497e-06
0.00186875 -3.68607e-06 2.36257e-06
-3.68607e-06 0.000181126 -4.40791e-07
2.36257e-06 -4.40791e-07 7.65838e-05
0.00185853 5.07564e-06 -1.78743e-06
5.07564e-06 2.72859e-05 2.41744e-07
-1.78743e-06 2.41744e-07 -4.00436e-05
0.00193948 2.33173e-05 6.92054e-06
2.33173e-05 3.97283e-05 -2.53826e-07
6.92054e-06 -2.53826e-07 7.33463e-06
0.00187156 -4.47983e-05 -2.01201e-07
-4.47983e-05 2.81584e-05 4.12694e-07
-2.01201e-07 4.12694e-07 -3.524e-05
0.00185387 -4.10186e-05 3.17556e-06
-4.10186e-05 0.000167247 -2.46924e-07
3.17556e-06 -2.46924e-07 6.08049e-05
0.000989821 -2.04208e-05 -1.26692e-05
-2.04208e-05 -9.01298e-05 3.14629e-07
-1.26692e-05 3.14629e-07 -0.000217078
0.00180493 -9.60682e-05 7.99636e-08
-9.60682e-05 0.000134381 2.37034e-07
7.99636e-08 2.37034e-07 1.1918e-05
0.00101939 -5.16183e-05 -8.71786e-07
-5.16183e-05 -7.57764e-05 8.29422e-09
-8.71786e-07 8.29422e-09 -0.000209866
0.00046938 -7.97688e-06 -1.88575e-05
-7.97688e-06 -0.000171722 2.15524e-06
-1.88575e-05 2.15524e-06 -0.000254497
0.00106594 -8.31748e-05 1.17865e-05
-8.31748e-05 -4.2169e-05 -1.76792e-06
1.17865e-05 -1.76792e-06 -0.00018445
0.000441485 -3.52065e-05 8.68652e-07
-3.52065e-05 -0.000188446 -1.76321e-07
8.68652e-07 -1.76321e-07 -0.000273388
0.0061274 -0.000141623 -0.00029965
-0.000141623 0.00345682 1.46809e-05
-0.00029965 1.46809e-05 0.00347082
0.000431362 -5.59862e-05 1.79558e-05
-5.59862e-05 -0.000188787 -4.49321e-06
1.79558e-05 -4.49321e-06 -0.000279805
0.00621464 -8.13135e-05 7.57962e-06
-8.13135e-05 0.00349919 -4.65687e-08
7.57962e-06 -4.65687e-08 0.00351813
0.0017357 -3.17753e-05 0.000232946
-3.17753e-05 0.000717914 -1.48954e-05
0.000232946 -1.48954e-05 0.000707624
0.00185489 0.000110883 -2.50582e-06
0.000110883 1.24181e-05 3.3981e-07
-2.50582e-06 3.3981e-07 -7.15398e-05
0.00196358 0.000125693 -2.8812e-06
0.000125693 5.02644e-05 -5.65299e-07
-2.8812e-06 -5.65299e-07 -3.47411e-07
0.00174756 0.00013943 9.16065e-07
0.00013943 8.53961e-05 1.18541e-06
9.16065e-07 1.18541e-06 -4.22725e-05
0.00198814 0.000167139 9.33878e-07
0.000167139 0.00010612 2.26377e-07
9.33878e-07 2.26377e-07 1.58034e-05
0.00195403 0.000148889 3.78569e-06
0.000148889 3.45021e-05 -1.25111e-07
3.78569e-06 -1.25111e-07 -1.54475e-05
0.00112256 0.000120742 -1.26676e-05
0.000120742 -1.33251e-05 -1.8738e-06
-1.26676e-05 -1.8738e-06 -0.000160951
0.00178081 0.000201069 1.71751e-07
0.000201069 0.000112606 5.99798e-08
1.71751e-07 5.99798e-08 -3.16339e-05
0.00201084 0.00023116 1.13289e-06
0.00023116 0.000116479 -1.25853e-06
1.13289e-06 -1.25853e-06 7.34086e-06
0.000407447 6.87045e-05 -1.78828e-05
6.87045e-05 -0.000209496 -5.41458e-06
-1.78828e-05 -5.41458e-06 -0.000300498
0.00106131 0.000160687 -1.34665e-06
0.000160687 -5.48667e-05 1.6879e-07
-1.34665e-06 1.6879e-07 -0.000212969
0.00184478 0.000264238 2.56807e-06
0.000264238 0.000170687 1.95877e-07
2.56807e-06 1.95877e-07 4.13845e-06
0.00643599 0.000258625 -0.000313202
0.000258625 0.00365339 -3.03227e-05
-0.000313202 -3.03227e-05 0.00365376
0.00041086 9.66533e-05 -1.06823e-07
9.66533e-05 -0.000201365 1.9081e-07
-1.06823e-07 1.9081e-07 -0.000297583
0.00094667 0.000188813 1.13356e-05
0.000188813 -0.000116632 3.51697e-06
1.13356e-05 3.51697e-06 -0.000284231
0.00658841 0.00026098 1.09818e-05
0.00026098 0.00375032 4.45857e-06
1.09818e-05 4.45857e-06 0.00374601
0.000420221 0.000128474 1.8846e-05
0.000128474 -0.000181589 1.08392e-05
1.8846e-05 1.08392e-05 -0.000286849
0.00668165 0.000191776 0.00029286
0.000191776 0.00379524 3.09869e-05
0.00029286 3.09869e-05 0.0037989
0.00182453 4.1491e-05 3.57217e-06
4.1491e-05 0.000151602 1.76299e-08
3.57217e-06 1.76299e-08 4.49467e-05
0.00186379 4.67743e-05 -2.85435e-06
4.67743e-05 2.79887e-05 -4.67618e-08
-2.85435e-06 -4.67618e-08 -4.42172e-05
0.00192236 7.22761e-05 5.70119e-06
7.22761e-05 4.51423e-05 -1.45758e-07
5.70119e-06 -1.45758e-07 9.66204e-07
0.00098132 -8.89854e-06 -1.29675e-05
-8.89854e-06 -8.61003e-05 -1.07854e-07
-1.29675e-05 -1.07854e-07 -0.000211115
0.00184559 1.21606e-06 3.42919e-06
1.21606e-06 0.000165985 -1.21672e-07
3.42919e-06 -1.21672e-07 6.15168e-05
0.00184088 5.31017e-06 -4.23501e-07
5.31017e-06 1.32849e-05 2.96385e-07
-4.23501e-07 2.96385e-07 -5.15043e-05
0.00183029 -4.04104e-05 4.34776e-06
-4.04104e-05 0.000151095 1.57798e-07
4.34776e-06 1.57798e-07 4.48809e-05
0.000982594 -2.14774e-05 -5.44905e-07
-2.14774e-05 -9.62913e-05 -5.57364e-10
-5.44905e-07 -5.57364e-10 -0.000223516
0.000472442 -3.20291e-05 -1.93291e-05
-3.20291e-05 -0.000168634 1.03664e-06
-1.93291e-05 1.03664e-06 -0.000248359
0.00102701 -5.0726e-05 1.1392e-05
-5.0726e-05 -6.91745e-05 -1.28758e-06
1.1392e-05 -1.28758e-06 -0.000204885
0.000447589 3.41907e-06 3.60949e-07
3.41907e-06 -0.000185903 3.99422e-08
3.60949e-07 3.99422e-08 -0.000267619
0.00607073 -0.000113573 -0.000302305
-0.000113573 0.00342038 1.08244e-05
-0.000302305 1.08244e-05 0.00343741
0.000455008 -4.2167e-05 1.88024e-05
-4.2167e-05 -0.000177809 -3.05161e-06
1.88024e-05 -3.05161e-06 -0.000263911
0.00613087 -3.59285e-05 -3.00944e-06
-3.59285e-05 0.00344723 2.53133e-06
-3.00944e-06 2.53133e-06 0.00346847
0.00619559 -9.6435e-05 0.00029915
-9.6435e-05 0.00348779 -1.30193e-05
0.00029915 -1.30193e-05 0.00350723
0.00168767 8.41585e-05 1.07398e-06
8.41585e-05 5.45634e-05 4.48872e-07
1.07398e-06 4.48872e-07 -6.27035e-05
0.00191605 0.000110458 -3.09307e-06
0.000110458 4.80036e-05 -7.76521e-07
-3.09307e-06 -7.76521e-07 -3.00296e-05
0.00196818 0.00012919 3.20929e-06
0.00012919 4.63316e-05 -1.37014e-07
3.20929e-06 -1.37014e-07 -9.43114e-07
0.00111353 7.75811e-05 -1.21923e-05
7.75811e-05 -1.37939e-05 -1.27617e-06
-1.21923e-05 -1.27617e-06 -0.000151473
0.00175781 0.000138433 2.49034e-07
0.000138433 9.45302e-05 -1.49209e-09
2.49034e-07 -1.49209e-09 -3.32811e-05
0.00198703 0.000166016 6.87562e-07
0.000166016 0.000105077 -1.87892e-06
6.87562e-07 -1.87892e-06 1.48851e-05
0.000441466 4.60464e-05 -1.74728e-05
4.60464e-05 -0.000189289 -3.90486e-06
-1.74728e-05 -3.90486e-06 -0.000276873
0.0010899 0.00012223 3.68601e-07
0.00012223 -3.39757e-05 2.47163e-07
3.68601e-07 2.47163e-07 -0.000182634
0.00177929 0.000199845 7.89593e-07
0.000199845 0.000114776 -7.5097e-07
7.89593e-07 -7.5097e-07 -2.94714e-05
0.00627424 0.000221415 -0.000321855
0.000221415 0.00355436 -2.51315e-05
-0.000321855 -2.51315e-05 0.00356045
0.000442482 7.44219e-05 3.77797e-07
7.44219e-05 -0.00018801 1.61882e-07
3.77797e-07 1.61882e-07 -0.000280103
0.00104491 0.000160113 1.13218e-05
0.000160113 -6.14887e-05 2.8875e-06
1.13218e-05 2.8875e-06 -0.00022135
0.00647498 0.000274027 6.05508e-06
0.000274027 0.00368305 3.33139e-06
6.05508e-06 3.33139e-06 0.00368108
0.00046299 0.000101489 1.82344e-05
0.000101489 -0.000169883 8.25768e-06
1.82344e-05 8.25768e-06 -0.000267141
0.0066112 0.000291996 0.000310038
0.000291996 0.00377039 3.74725e-05
0.000310038 3.74725e-05 0.003763
0.0010332 2.21342e-05 -1.25691e-05
2.21342e-05 -4.75586e-05 -5.1972e-07
-1.25691e-05 -5.1972e-07 -0.000176725
0.00178984 3.81515e-05 3.62731e-06
3.81515e-05 0.00012796 7.53449e-08
3.62731e-06 7.53449e-08 2.33206e-05
0.00185721 4.56331e-05 -2.53818e-06
4.56331e-05 2.87573e-05 -9.2551e-08
-2.53818e-06 -9.2551e-08 -4.49207e-05
0.000508887 3.17926e-05 -1.99191e-05
3.17926e-05 -0.000154324 -6.13822e-07
-1.99191e-05 -6.13822e-07 -0.000226183
0.000961739 -3.04019e-06 -6.8408e-07
-3.04019e-06 -9.9844e-05 -1.34537e-09
-6.8408e-07 -1.34537e-09 -0.000224995
0.00181675 7.36847e-06 4.51081e-06
7.36847e-06 0.000147018 1.38567e-07
4.51081e-06 1.38567e-07 4.26103e-05
0.000972754 -2.21141e-05 1.16375e-05
-2.21141e-05 -0.000104302 -5.57033e-07
1.16375e-05 -5.57033e-07 -0.000231782
0.000469035 -5.52053e-06 3.77903e-07
-5.52053e-06 -0.000170762 3.8195e-07
3.77903e-07 3.8195e-07 -0.000250578
0.00598034 2.07053e-05 -0.000304652
2.07053e-05 0.00335837 9.69939e-07
-0.000304652 9.69939e-07 0.00338158
0.000426103 1.51301e-05 1.83634e-05
1.51301e-05 -0.000200627 -1.24835e-06
1.83634e-05 -1.24835e-06 -0.000280988
0.00603122 -0.00011168 -7.74025e-06
-0.00011168 0.00339763 1.87258e-06
-7.74025e-06 1.87258e-06 0.00341408
0.00606974 -1.74426e-05 0.000287068
-1.74426e-05 0.0034098 -6.59546e-06
0.000287068 -6.59546e-06 0.00343099
0.00107705 4.44782e-05 -1.23956e-05
4.44782e-05 -2.70931e-05 -1.12423e-06
-1.23956e-05 -1.12423e-06 -0.000158602
0.00174111 8.1689e-05 -2.59179e-07
8.1689e-05 8.80686e-05 -3.54119e-07
-2.59179e-07 -3.54119e-07 -2.51202e-05
0.00199508 0.000109973 -3.07226e-06
0.000109973 9.47692e-05 -2.25814e-06
-3.07226e-06 -2.25814e-06 2.27844e-05
0.00267653 6.10885e-05 -0.000141459
6.10885e-05 0.00119401 -4.83969e-06
-0.000141459 -4.83969e-06 0.00114246
0.00106623 7.91757e-05 3.1998e-07
7.91757e-05 -4.37463e-05 1.496e-07
3.1998e-07 1.496e-07 -0.000182252
0.00176634 0.000137315 6.49077e-07
0.000137315 0.000102485 -1.02808e-06
6.49077e-07 -1.02808e-06 -2.54855e-05
0.00613742 0.000162655 -0.000321058
0.000162655 0.00346455 -1.80672e-05
-0.000321058 -1.80672e-05 0.00347868
0.000473348 6.50646e-05 8.92826e-07
6.50646e-05 -0.000167428 4.11672e-07
8.92826e-07 4.11672e-07 -0.000257023
0.00105889 0.000123627 1.26141e-05
0.000123627 -5.35084e-05 2.24516e-06
1.26141e-05 2.24516e-06 -0.000203169
0.00636067 0.000236309 1.39041e-06
0.000236309 0.00360893 1.60414e-06
1.39041e-06 1.60414e-06 0.00361378
0.000487638 8.30223e-05 1.8431e-05
8.30223e-05 -0.000159131 6.44986e-06
1.8431e-05 6.44986e-06 -0.000252981
0.00650385 0.00030752 0.00031997
0.00030752 0.0037135 3.77164e-05
0.00031997 3.77164e-05 0.00370477
0.000573944 1.14703e-05 -1.5945e-05
1.14703e-05 -0.000103484 -1.82492e-06
-1.5945e-05 -1.82492e-06 -0.000184504
0.000989954 2.13782e-05 3.32901e-07
2.13782e-05 -7.82543e-05 2.14902e-07
3.32901e-07 2.14902e-07 -0.000205889
0.00175573 3.37836e-05 3.75748e-06
3.37836e-05 0.000104556 -3.69723e-08
3.75748e-06 -3.69723e-08 1.97828e-06
0.00583202 -0.000100221 -0.000287829
-0.000100221 0.00328481 3.31094e-06
-0.000287829 3.31094e-06 0.00329719
0.000464102 9.20801e-06 -5.87428e-07
9.20801e-06 -0.000177425 -3.95818e-08
-5.87428e-07 -3.95818e-08 -0.000251925
0.000960783 1.67331e-06 1.15502e-05
1.67331e-06 -0.000102285 -4.64276e-08
1.15502e-05 -4.64276e-08 -0.00022751
0.000425042 2.09321e-05 1.85931e-05
2.09321e-05 -0.000199157 1.73279e-07
1.85931e-05 1.73279e-07 -0.000277923
0.00592496 -1.49913e-05 2.11915e-06
-1.49913e-05 0.00333 -1.4818e-06
2.11915e-06 -1.4818e-06 0.00334886
0.00601954 -3.24097e-05 0.000293479
-3.24097e-05 0.00337899 -4.44898e-06
0.000293479 -4.44898e-06 0.00340128
0.00275805 1.4831e-05 -0.00013632
1.4831e-05 0.00124257 -2.77275e-06
-0.00013632 -2.77275e-06 0.0011939
0.00105372 4.76973e-05 9.56768e-08
4.76973e-05 -4.33559e-05 -2.43119e-08
9.56768e-08 -2.43119e-08 -0.000175499
0.00178632 7.93596e-05 7.70932e-07
7.93596e-05 0.000116608 -9.86683e-07
7.70932e-07 -9.86683e-07 7.51327e-06
0.00566159 -3.86789e-05 -0.000122063
-3.86789e-05 0.00318238 4.58625e-07
-0.000122063 4.58625e-07 0.00317052
0.00048351 5.73072e-05 1.35493e-07
5.73072e-05 -0.000160584 2.50181e-07
1.35493e-07 2.50181e-07 -0.0002453
0.0010355 8.14278e-05 1.2145e-05
8.14278e-05 -6.41114e-05 1.55792e-06
1.2145e-05 1.55792e-06 -0.000203391
0.00621107 0.000137831 -1.05918e-05
0.000137831 0.00350475 -1.70837e-06
-1.05918e-05 -1.70837e-06 0.00352018
0.000500823 8.81464e-05 1.96811e-05
8.81464e-05 -0.000149836 5.48991e-06
1.96811e-05 5.48991e-06 -0.000240437
0.00641783 0.000260421 0.00032787
0.000260421 0.00365075 3.2479e-05
0.00032787 3.2479e-05 0.00365272
0.00176855 -5.32303e-05 -0.000231077
-5.32303e-05 0.00073817 1.28159e-06
-0.000231077 1.28159e-06 0.00073598
0.00161559 3.04437e-05 -5.82536e-05
3.04437e-05 0.000533771 1.30595e-07
-5.82536e-05 1.30595e-07 0.000474047
0.000941663 2.3248e-05 1.24917e-05
2.3248e-05 -0.000111696 7.34014e-07
1.24917e-05 7.34014e-07 -0.000237872
0.00590898 -4.68204e-05 7.04844e-06
-4.68204e-05 0.00332577 2.39861e-06
7.04844e-06 2.39861e-06 0.00334345
0.000479899 -1.20503e-05 1.92034e-05
-1.20503e-05 -0.000161267 6.95204e-07
1.92034e-05 6.95204e-07 -0.000239658
0.00596603 -7.904e-05 0.000306571
-7.904e-05 0.00335847 -4.32473e-06
0.000306571 -4.32473e-06 0.00337721
0.00133707 2.06549e-05 -5.79139e-05
2.06549e-05 0.000498108 -9.03902e-07
-5.79139e-05 -9.03902e-07 0.000460657
0.001603 1.77375e-05 -5.88883e-05
1.77375e-05 0.000529164 -1.25992e-06
-5.88883e-05 -1.25992e-06 0.000465367
0.00102062 4.94886e-05 1.22547e-05
4.94886e-05 -6.54038e-05 1.09658e-06
1.22547e-05 1.09658e-06 -0.000198203
0.00373505 6.50718e-05 0.000113672
6.50718e-05 0.00197168 3.28666e-06
0.000113672 3.28666e-06 0.00196345
0.000493557 6.78059e-05 1.99324e-05
6.78059e-05 -0.000154405 4.20866e-06
1.99324e-05 4.20866e-06 -0.000239085
0.006291 0.000125732 0.000312474
0.000125732 0.00354651 1.94278e-05
0.000312474 1.94278e-05 0.00356562
0.00586234 -2.02905e-05 -8.91847e-06
-2.02905e-05 0.00330012 -2.98349e-06
-8.91847e-06 -2.98349e-06 0.00331659
0.000474517 4.94915e-05 2.07662e-05
4.94915e-05 -0.000175299 2.30373e-06
2.07662e-05 2.30373e-06 -0.000246701
0.00582073 3.95385e-05 0.000294531
3.95385e-05 0.00326715 2.10683e-07
0.000294531 2.10683e-07 0.0032884
0.00363154 3.10768e-05 0.000125972
3.10768e-05 0.0019124 4.80272e-06
0.000125972 4.80272e-06 0.00190584
0.00050561 8.25911e-06 1.91476e-05
8.25911e-06 -0.000147163 2.54946e-06
1.91476e-05 2.54946e-06 -0.00022681
0.00609435 -3.72736e-06 0.000300185
-3.72736e-06 0.00342681 8.53576e-06
0.000300185 8.53576e-06 0.00344724
0.00590808 -0.000120198 0.000291897
-0.000120198 0.00333285 -4.10568e-06
0.000291897 -4.10568e-06 0.00334478
0.00591753 5.75648e-06 0.000293676
5.75648e-06 0.00331774 4.85615e-06
0.000293676 4.85615e-06 0.00334126
