# vtk DataFile Version 2.0
Wound Healing Simulation
ASCII
DATASET UNSTRUCTURED_GRID
POINTS 3012 float
69.9759 18.75 4
67.2507 60.3285 4
69.976 18.75 2
73.0099 25.446 4
71.1327 20.9142 4
68.6801 16.6661 4
67.825 19.9262 3.98141
67.2507 60.3286 2
71.1327 54.0858 4
68.6801 58.3339 4
65.6939 62.2254 4
65.3115 59.0007 3.98019
74.6784 42.3946 4
73.7221 47.2057 4
69.9759 18.75 0
73.0099 25.446 2
68.6801 16.6661 2
71.1327 20.9142 2
67.8256 19.9293 2
74.6792 32.6053 4
73.7222 27.7943 4
72.1454 23.1494 4
70.6137 26.2208 3.98087
68.8852 21.958 3.98172
67.2507 14.6715 4
66.6364 17.9723 3.98054
65.795 21.0265 3.97113
67.2507 60.3285 0
71.1327 54.0858 2
68.6801 58.3339 2
65.694 62.2255 2
65.3126 58.997 2
72.1454 51.8506 4
69.9759 56.25 4
68.8358 53.1129 3.98076
64.0165 64.0165 4
66.6102 57.1335 3.98105
63.8848 60.7653 3.98108
63.4979 57.7685 3.97175
60.3285 67.2507 4
74.6792 42.3947 2
73.7222 47.2057 2
74.9194 39.9526 4
74.2788 44.8158 4
72.1679 42.0854 3.98029
73.0099 49.554 4
71.2489 46.5979 3.98003
73.0099 25.446 0
71.1327 20.9142 0
68.6801 16.6661 0
67.825 19.9262 0.0185948
74.6792 32.6053 2
73.7222 27.7943 2
67.2508 14.6715 2
72.1455 23.1494 2
70.6136 26.2213 2
66.6373 17.9762 2
68.8855 21.9601 2
65.7944 21.0273 2
74.9197 35.0474 4
74.2794 30.1841 4
72.1845 32.9433 3.98063
71.2778 28.4313 3.98037
69.815 24.0595 3.98151
68.3449 26.9519 3.96993
66.7604 22.934 3.9705
65.694 12.7746 4
65.3227 16.1043 3.98002
64.7114 19.1971 3.9719
63.8819 22.0392 3.96739
71.1327 54.0858 0
65.6939 62.2254 0
68.6801 58.3339 0
65.3115 59.0007 0.019808
72.1455 51.8506 2
69.9759 56.25 2
68.836 53.111 2
64.0165 64.0165 2
66.611 57.1299 2
63.8864 60.762 2
63.4973 57.7683 2
62.2254 65.694 4
58.8942 65.414 3.99007
69.7684 50.9888 3.98068
67.7832 55.1671 3.98084
66.6473 52.208 3.96955
62.3355 62.4272 3.98514
64.6588 56.0298 3.97167
62.1998 59.3992 3.97061
61.8172 56.6744 3.96721
58.3339 68.6801 4
60.3285 67.2508 2
73.7221 47.2057 0
74.6784 42.3946 0
74.9197 39.9526 2
74.2794 44.8159 2
72.1674 42.0854 2
73.0099 49.554 2
71.2487 46.5977 2
75 37.5 4
72.4052 39.8021 3.98083
71.7822 44.3527 3.98033
69.8025 41.7892 3.96984
70.5747 48.8134 3.98022
68.9104 46.0139 3.96945
74.6792 32.6053 0
73.7222 27.7943 0
67.2507 14.6715 0
72.1454 23.1494 0
70.6137 26.2208 0.0191292
68.8852 21.958 0.0182814
66.6364 17.9723 0.0194558
65.795 21.0265 0.0288672
74.9197 35.0474 2
74.2794 30.1841 2
72.184 32.9436 2
71.2777 28.4317 2
65.694 12.7745 2
65.3241 16.1084 2
69.8151 24.0606 2
68.3449 26.9525 2
64.7108 19.1979 2
66.76 22.9349 2
63.8813 22.0395 2
72.413 35.2241 3.98092
71.8036 30.6762 3.98068
69.8385 33.2685 3.97016
68.9643 29.0385 3.96988
67.6093 24.9126 3.97009
66.1877 27.6367 3.96726
64.0165 10.9835 4
64.7517 23.8328 3.96735
63.8892 14.3281 3.98235
63.5102 17.4513 3.97157
62.9013 20.3259 3.96725
62.0681 22.9543 3.96702
60.6834 11.0984 3.98633
57.6114 11.4522 3.9779
72.1454 51.8506 0
69.9759 56.25 0
68.8358 53.1129 0.0192355
64.0165 64.0165 0
63.8848 60.7653 0.0189217
66.6102 57.1335 0.0189528
63.4979 57.7685 0.0282542
62.2255 65.694 2
58.8955 65.4133 2
69.7684 50.9879 2
67.7836 55.1641 2
66.6468 52.2072 2
62.3374 62.4248 2
64.6582 56.0294 2
62.1992 59.3995 2
61.8166 56.6744 2
60.6682 63.9766 3.98748
57.0254 66.7347 3.99132
57.5571 63.6892 3.98048
67.5055 50.1756 3.96923
65.6997 54.1718 3.97018
64.5316 51.3812 3.96632
60.7714 60.9339 3.97537
62.815 55.0627 3.96707
60.6508 58.1488 3.96481
60.3191 55.7744 3.96704
56.25 69.9759 4
58.3339 68.6801 2
60.3285 67.2507 0
58.9207 9.65661 3.98773
62.2254 9.30607 4
73.0099 49.554 0
74.2788 44.8158 0
71.2489 46.5979 0.0199679
72.1679 42.0854 0.0197072
74.9194 39.9526 0
75 37.5 2
72.4051 39.8023 2
71.7821 44.3525 2
69.802 41.7889 2
70.5745 48.8131 2
68.9104 46.0134 2
72.4885 37.512 3.98051
70.0398 39.657 3.96993
69.4287 43.9068 3.96973
67.5896 41.4959 3.96815
68.264 48.1061 3.9692
66.6984 45.4367 3.96738
74.9197 35.0474 0
74.2794 30.1841 0
72.1845 32.9433 0.0193686
71.2778 28.4313 0.0196274
65.694 12.7746 0
65.3227 16.1043 0.0199763
69.815 24.0595 0.0184882
68.3449 26.9519 0.0300737
66.7604 22.934 0.0294988
64.7114 19.1971 0.0280978
63.8819 22.0392 0.0326105
72.413 35.2242 2
71.8036 30.6767 2
69.838 33.2688 2
68.9643 29.039 2
64.0165 10.9835 2
63.8912 14.3314 2
63.5096 17.4522 2
67.6091 24.9133 2
66.1878 27.637 2
62.9006 20.3261 2
64.7512 23.8332 2
62.0673 22.9547 2
60.6856 11.1008 2
57.6123 11.4508 2
70.0565 35.3919 3.97016
69.4655 31.1497 3.96994
67.6501 33.5917 3.96805
66.7648 29.6246 3.96745
65.5181 25.7016 3.96724
64.0997 28.2653 3.96965
62.3412 12.6556 3.98504
62.8254 24.648 3.96792
62.1963 15.7905 3.97278
61.806 18.6935 3.96697
61.1966 21.354 3.9656
60.3667 23.7481 3.96876
59.2451 12.784 3.97622
55.8739 10.2371 3.98048
56.4036 13.1255 3.97444
69.7684 50.9888 0.019317
62.2254 65.694 0
58.8942 65.414 0.00992912
67.7832 55.1671 0.019158
66.6473 52.208 0.0304486
62.3355 62.4272 0.0148598
62.1998 59.3992 0.0293852
64.6588 56.0298 0.0283326
61.8172 56.6744 0.0327945
60.6698 63.9751 2
57.0263 66.7344 2
57.5573 63.6907 2
67.5052 50.1749 2
65.6991 54.1711 2
64.5313 51.3809 2
60.7712 60.9349 2
62.8145 55.0625 2
60.6504 58.149 2
60.3186 55.7742 2
55.0712 67.9316 3.99189
59.2178 62.3622 3.97674
55.8044 64.9085 3.98446
56.3251 62.0826 3.97522
65.3226 49.4043 3.96652
63.7009 53.2878 3.96653
62.4018 50.638 3.96697
59.3288 59.5486 3.96995
61.0655 54.2982 3.96581
59.2732 56.9952 3.9633
59.2296 55.1676 3.9654
48.1021 68.5775 3.9874
50.949 69.9312 3.99205
54.0858 71.1327 4
56.25 69.976 2
58.3339 68.6801 0
57.0582 8.33638 3.98913
60.3285 7.74928 4
58.9228 9.65802 2
62.2255 9.30602 2
70.5747 48.8134 0.0197811
71.7822 44.3527 0.0196666
68.9104 46.0139 0.0305453
69.8025 41.7892 0.0301564
72.4052 39.8021 0.0191661
75 37.5 0
72.4881 37.5121 2
70.0397 39.6569 2
69.4286 43.9064 2
67.5895 41.4957 2
68.2639 48.1055 2
66.698 45.4363 2
70.1278 37.5213 3.97005
67.8291 39.5114 3.96824
67.213 43.4674 3.96777
65.4986 41.2038 3.97163
66.0577 47.4142 3.96698
64.5915 44.8375 3.96998
72.413 35.2241 0.0190753
71.8036 30.6762 0.0193217
69.8385 33.2685 0.029841
68.9643 29.0385 0.0301183
64.0165 10.9835 0
63.8892 14.3281 0.0176491
63.5102 17.4513 0.0284281
67.6093 24.9126 0.0299096
66.1877 27.6367 0.0327402
64.7517 23.8328 0.0326532
62.9013 20.3259 0.0327545
62.0681 22.9543 0.0329823
60.6834 11.0984 0.0136698
57.6114 11.4522 0.0221045
70.0565 35.3921 2
69.4654 31.1501 2
67.6501 33.5918 2
66.7649 29.6248 2
62.3432 12.6588 2
62.1961 15.7904 2
61.8051 18.6938 2
65.5179 25.7019 2
64.0989 28.2656 2
61.1956 21.3544 2
62.8249 24.6484 2
60.3666 23.7485 2
59.2457 12.7837 2
56.4042 13.1239 2
55.8746 10.2358 2
67.8664 35.5477 3.96828
67.2587 31.6237 3.96777
65.6516 33.9308 3.97164
64.6127 30.2003 3.97028
63.5001 26.4246 3.96894
62.1657 28.7951 3.97341
60.774 14.2282 3.97593
60.9759 25.3577 3.97064
60.605 17.1399 3.96715
60.2034 19.831 3.96416
59.6032 22.281 3.96594
58.8902 24.3487 3.9713
54.0372 9.13849 3.98241
57.9076 14.3428 3.97521
54.7855 12.0202 3.97553
55.3087 14.6642 3.97306
67.5055 50.1756 0.0307662
57.0254 66.7347 0.00867793
60.6682 63.9766 0.012524
57.5571 63.6892 0.0195242
65.6997 54.1718 0.0298191
64.5316 51.3812 0.0336775
60.7714 60.9339 0.0246345
60.6508 58.1488 0.0351913
62.815 55.0627 0.03293
60.3191 55.7744 0.0329647
55.0718 67.9315 2
59.2179 62.3635 2
55.8043 64.9095 2
56.3246 62.0847 2
65.3224 49.4039 2
63.7003 53.2876 2
62.4019 50.6378 2
59.3283 59.5501 2
61.0655 54.2981 2
59.2731 56.9949 2
59.2294 55.1672 2
53.0431 68.9993 3.99196
53.9668 66.0118 3.98596
57.8776 60.8616 3.97494
54.6832 63.2035 3.97978
55.208 60.6016 3.97471
63.144 48.6471 3.96813
61.7158 52.5625 3.96627
60.1886 49.9946 3.96885
58.0073 58.2486 3.96818
59.3021 53.9293 3.96708
58.0976 55.7913 3.96344
50.1088 67.8558 3.98715
47.4629 66.5781 3.984
46.0558 69.1566 3.98757
48.1021 68.5782 2
48.803 70.7225 3.99216
50.9494 69.9312 2
51.8506 72.1454 4
54.0858 71.1327 2
56.25 69.9759 0
55.103 7.14076 3.99056
58.3339 6.31992 4
57.0599 8.33708 2
60.3286 7.74926 2
58.9207 9.65661 0.0122687
62.2254 9.30607 0
68.264 48.1061 0.0307973
69.4287 43.9068 0.0302705
66.6984 45.4367 0.032622
67.5896 41.4959 0.0318496
70.0398 39.657 0.0300748
72.4885 37.512 0.0194879
70.1275 37.5214 2
67.829 39.5113 2
67.2136 43.4672 2
65.4976 41.2035 2
66.0578 47.4139 2
64.5903 44.8371 2
67.9272 37.5217 3.96833
65.7358 39.3667 3.97206
65.118 43.0169 3.971
63.646 40.9196 3.9759
63.9063 46.7038 3.96905
62.6958 44.1984 3.97385
70.0565 35.3919 0.0298412
69.4655 31.1497 0.0300589
67.6501 33.5917 0.0319543
66.7648 29.6246 0.0325512
62.3412 12.6556 0.0149624
62.1963 15.7905 0.0272222
61.806 18.6935 0.0330338
65.5181 25.7016 0.0327602
64.0997 28.2653 0.0303523
62.8254 24.648 0.0320779
61.1966 21.354 0.0343956
60.3667 23.7481 0.0312351
59.2451 12.784 0.0237808
56.4036 13.1255 0.025562
55.8739 10.2371 0.0195222
67.8662 35.5478 2
67.259 31.6239 2
65.6511 33.9309 2
64.6119 30.2006 2
60.7739 14.2286 2
60.6049 17.1392 2
60.2034 19.831 2
63.4995 26.4249 2
62.1643 28.7955 2
59.6051 22.2812 2
60.9756 25.3582 2
58.8894 24.3496 2
57.9075 14.342 2
55.3089 14.664 2
54.0377 9.13711 2
54.7861 12.0182 2
65.8264 35.6681 3.9718
65.133 32.1605 3.97085
64.1981 34.2549 3.97597
62.4802 30.6514 3.97414
61.5684 27.0915 3.97182
60.7233 29.1629 3.977
59.3066 15.6787 3.97203
59.2205 25.8255 3.97428
59.1076 18.3736 3.96508
58.7006 20.8768 3.9633
58.1972 23.1233 3.96659
57.8601 24.6992 3.97323
52.112 8.15549 3.98453
53.0574 11.0239 3.97786
56.671 15.7585 3.97429
53.8067 13.6961 3.97508
54.3685 16.02 3.97459
55.0712 67.9316 0.00811184
65.3226 49.4043 0.0334789
55.8044 64.9085 0.0155425
59.2178 62.3622 0.0232615
56.3251 62.0826 0.024779
63.7009 53.2878 0.0334693
62.4018 50.638 0.0330341
59.3288 59.5486 0.0300504
59.2732 56.9952 0.0366981
61.0655 54.2982 0.0341854
59.2296 55.1676 0.0346008
53.0436 68.9994 2
53.9667 66.0126 2
57.8769 60.8631 2
54.6827 63.2044 2
55.2078 60.6033 2
63.1436 48.6468 2
61.7167 52.5625 2
60.1882 49.994 2
58.0067 58.25 2
59.3036 53.9291 2
58.0966 55.7907 2
52.0701 66.9987 3.98686
52.9532 64.2156 3.98248
56.6421 59.4767 3.97452
53.6789 61.6153 3.97654
54.2523 59.3037 3.97424
60.8829 47.8555 3.96953
59.6453 52.0819 3.96771
57.9016 49.5825 3.97039
56.7573 56.9655 3.9671
57.0742 54.0969 3.96516
50.1088 67.8562 2
49.3369 65.9187 3.98388
47.4629 66.5787 2
46.8923 64.7315 3.9823
45.558 67.0951 3.98411
43.9728 69.5887 3.98773
46.0558 69.1572 2
46.6096 71.3669 3.99218
48.1021 68.5775 0.012605
48.8034 70.7227 2
49.554 73.0099 4
50.949 69.9312 0.00795115
51.8506 72.1455 2
54.0858 71.1327 0
53.0646 6.07207 3.9914
55.1042 7.14086 2
56.25 5.02411 4
58.3339 6.3199 2
57.0582 8.33638 0.0108681
60.3285 7.74928 0
66.0577 47.4142 0.0330182
67.213 43.4674 0.0322262
64.5915 44.8375 0.0300171
65.4986 41.2038 0.0283661
67.8291 39.5114 0.0317574
70.1278 37.5213 0.0299455
67.927 37.5217 2
65.7346 39.3666 2
65.1171 43.0165 2
63.6441 40.9193 2
63.9052 46.7034 2
62.6936 44.1978 2
65.8409 37.5007 3.97193
63.794 39.2608 3.976
63.2097 42.5355 3.97479
62.2791 40.6832 3.97698
61.8564 45.8975 3.97168
61.2977 43.6604 3.97728
67.8664 35.5477 0.0317213
67.2587 31.6237 0.0322341
65.6516 33.9308 0.0283627
64.6127 30.2003 0.0297237
60.774 14.2282 0.0240715
60.605 17.1399 0.0328457
60.2034 19.831 0.0358372
63.5001 26.4246 0.0310592
62.1657 28.7951 0.0265868
60.9759 25.3577 0.0293593
59.6032 22.281 0.0340589
58.8902 24.3487 0.0287
57.9076 14.3428 0.0247872
55.3087 14.6642 0.0269379
54.0372 9.13849 0.0175895
54.7855 12.0202 0.0244705
65.8253 35.6682 2
65.1325 32.1607 2
64.1973 34.255 2
62.4789 30.6518 2
59.3058 15.6789 2
59.1083 18.3727 2
58.7041 20.8768 2
61.5675 27.092 2
60.7227 29.1634 2
58.1963 23.1244 2
59.2201 25.8263 2
57.8598 24.7003 2
56.6707 15.7576 2
54.3683 16.0205 2
53.8069 13.6927 2
52.1122 8.15444 2
53.0577 11.0223 2
63.9942 35.6344 3.97544
62.812 33.057 3.9753
60.4611 30.6343 3.97692
59.4373 27.9386 3.97526
57.9299 16.9994 3.96959
57.6145 25.7626 3.97597
57.687 19.4996 3.96266
57.2948 21.8738 3.9634
57.0655 23.9867 3.96804
50.1124 7.28619 3.98675
51.2324 10.1295 3.9802
52.17 12.8073 3.97657
55.5265 16.9923 3.97314
52.9726 15.2862 3.97249
53.7467 17.0052 3.97832
53.0431 68.9993 0.00803844
53.9668 66.0118 0.0140358
63.144 48.6471 0.0318706
54.6832 63.2035 0.0202221
57.8776 60.8616 0.0250629
55.208 60.6016 0.0252854
61.7158 52.5625 0.0337276
60.1886 49.9946 0.0311501
58.0073 58.2486 0.0318216
58.0976 55.7913 0.0365565
59.3021 53.9293 0.0329155
52.0701 66.9993 2
52.9529 64.2163 2
56.6417 59.4778 2
53.6785 61.6159 2
54.2522 59.3055 2
60.8817 47.8549 2
59.6453 52.0814 2
57.8987 49.5814 2
56.7561 56.9698 2
57.0727 54.0962 2
51.168 65.1255 3.98391
52.0451 62.5335 3.97947
55.4687 58.2347 3.97471
52.8287 60.1203 3.97729
53.6275 58.4538 3.97926
58.1394 46.8117 3.97399
57.4749 51.7558 3.96705
56.0927 49.5135 3.97071
55.439 55.7651 3.9622
55.2874 53.3505 3.96323
50.1088 67.8558 0.0128525
49.3368 65.9191 2
48.618 64.1186 3.98278
47.4629 66.5781 0.0160022
45.558 67.0957 2
46.8923 64.732 2
46.3819 63.0469 3.98205
45.1325 65.1923 3.98226
43.6312 67.4656 3.98422
41.8602 69.876 3.98758
43.9728 69.5892 2
44.3768 71.8618 3.99214
46.0558 69.1566 0.0124291
46.6099 71.3672 2
47.2057 73.7222 4
48.803 70.7225 0.00784456
49.554 73.0099 2
51.8506 72.1454 0
50.9546 5.13239 3.99205
53.0654 6.07206 2
54.0858 3.86728 4
55.103 7.14076 0.00944337
56.25 5.02406 2
58.3339 6.31992 0
63.9063 46.7038 0.0309517
65.118 43.0169 0.0290007
62.6958 44.1984 0.0261546
63.646 40.9196 0.0241011
65.7358 39.3667 0.0279439
67.9272 37.5217 0.0316692
65.8398 37.5007 2
63.7924 39.2607 2
63.2078 42.5351 2
62.2769 40.6827 2
61.8546 45.8968 2
61.2956 43.6597 2
63.8545 37.4552 3.97529
61.999 39.3459 3.97685
61.0433 41.9369 3.97685
60.0911 44.7419 3.9762
65.8264 35.6681 0.0281969
65.133 32.1605 0.0291517
64.1981 34.2549 0.0240294
62.4802 30.6514 0.0258581
59.3066 15.6787 0.0279726
59.1076 18.3736 0.0349221
58.7006 20.8768 0.0366983
61.5684 27.0915 0.0281847
60.7233 29.1629 0.0230021
59.2205 25.8255 0.0257215
58.1972 23.1233 0.0334056
57.8601 24.6992 0.0267746
56.671 15.7585 0.0257114
54.3685 16.02 0.0254096
53.8067 13.6961 0.0249221
52.112 8.15549 0.0154683
53.0574 11.0239 0.0221431
63.9929 35.6345 2
62.8106 33.0574 2
60.4596 30.6349 2
57.9289 16.9995 2
57.6891 19.4981 2
57.297 21.8743 2
59.4364 27.9394 2
57.0646 23.9881 2
57.6146 25.7637 2
50.1126 7.28479 2
55.5264 16.9919 2
53.7462 17.0049 2
52.9727 15.2854 2
52.1705 12.8062 2
51.2327 10.1283 2
62.0372 35.3673 3.97673
60.1012 32.7658 3.97699
58.4361 30.1099 3.97707
57.125 27.4229 3.97652
56.6183 18.1781 3.96777
56.1518 25.1482 3.97352
56.312 20.5522 3.96085
55.9989 22.9126 3.96334
48.0566 6.52804 3.98849
49.3247 9.3348 3.98208
50.4321 12.0024 3.9777
51.373 14.5126 3.9734
54.3973 17.9448 3.97421
52.3501 17.0667 3.97019
52.0701 66.9987 0.0131396
52.9532 64.2156 0.0175195
60.8829 47.8555 0.0304678
53.6789 61.6153 0.0234558
56.6421 59.4767 0.0254771
54.2523 59.3037 0.0257589
59.6453 52.0819 0.0322906
57.9016 49.5825 0.0296131
56.7573 56.9655 0.0328959
57.0742 54.0969 0.0348357
51.1679 65.1261 2
52.0447 62.534 2
55.4683 58.2358 2
52.8286 60.1237 2
53.6271 58.4548 2
58.138 46.8107 2
57.4732 51.755 2
56.0893 49.5124 2
55.4388 55.7655 2
55.2898 53.3509 2
50.346 63.3772 3.98233
51.2409 60.927 3.97651
54.1987 57.2506 3.97458
52.3014 58.6128 3.97489
56.4647 44.1347 3.97738
55.2928 47.848 3.97336
54.9558 51.3513 3.96618
53.9526 54.5116 3.96527
49.3369 65.9187 0.016122
48.618 64.1189 2
47.9617 62.4689 3.98171
45.558 67.0951 0.0158905
46.8923 64.7315 0.0176998
43.6312 67.4662 2
46.3821 63.0473 2
45.1326 65.1929 2
45.9871 61.5779 3.98307
44.7672 63.4467 3.98089
43.3567 65.5014 3.98197
41.6634 67.6842 3.98409
39.7022 70.0228 3.98777
41.8602 69.8765 2
42.1112 72.2066 3.99215
43.9728 69.5887 0.0122689
44.3772 71.862 2
44.8159 74.2794 4
46.6096 71.3669 0.00781661
47.2057 73.7222 2
49.554 73.0099 0
48.7853 4.32296 3.99262
50.9552 5.13192 2
51.8506 2.85458 4
53.0646 6.07207 0.00860125
54.0858 3.86728 2
56.25 5.02411 0
61.8564 45.8975 0.0283157
63.2097 42.5355 0.0252106
61.2977 43.6604 0.0227222
62.2791 40.6832 0.0230229
63.794 39.2608 0.0239983
65.8409 37.5007 0.0280652
63.853 37.4551 2
61.9968 39.3458 2
61.0414 41.9362 2
60.0898 44.7411 2
61.8364 37.4444 3.97741
60.0341 39.8278 3.97724
58.7638 42.8821 3.97727
63.9942 35.6344 0.024562
62.812 33.057 0.0247034
60.4611 30.6343 0.0230773
57.9299 16.9994 0.0304149
57.687 19.4996 0.0373364
57.2948 21.8738 0.036603
59.4373 27.9386 0.0247402
57.6145 25.7626 0.0240272
57.0655 23.9867 0.0319579
55.5265 16.9923 0.0268551
53.7467 17.0052 0.0216843
52.9726 15.2862 0.0275106
50.1124 7.28619 0.0132503
52.17 12.8073 0.0234265
51.2324 10.1295 0.0198034
62.0355 35.3677 2
60.099 32.7662 2
58.4355 30.1108 2
56.6174 18.1785 2
56.3152 20.5494 2
56.0008 22.9138 2
57.1257 27.4239 2
56.1531 25.1496 2
48.0567 6.52686 2
49.325 9.33324 2
54.3974 17.9446 2
52.3497 17.0668 2
51.3728 14.5096 2
50.4326 12.001 2
59.6795 35.1333 3.97717
57.7447 32.3051 3.97689
56.3389 29.3872 3.97738
55.2467 26.6566 3.97728
55.3124 19.2155 3.96511
54.7903 24.1117 3.96395
54.9299 21.6031 3.96
45.9627 5.88284 3.98898
43.3742 7.4741 3.98599
47.3555 8.62583 3.98434
48.5997 11.3001 3.97911
49.7099 13.7544 3.97717
50.6253 16.1567 3.97637
53.1017 18.6915 3.96928
51.2843 18.086 3.97879
51.168 65.1255 0.0160926
52.0451 62.5335 0.0205301
58.1394 46.8117 0.0260069
52.8287 60.1203 0.0227071
55.4687 58.2347 0.0252885
53.6275 58.4538 0.0207388
57.4749 51.7558 0.0329472
56.0927 49.5135 0.029286
55.439 55.7651 0.037804
55.2874 53.3505 0.0367697
50.3459 63.3773 2
51.2404 60.9269 2
54.1985 57.2519 2
52.3011 58.6137 2
56.4638 44.1338 2
55.2921 47.8471 2
54.9571 51.3511 2
53.9532 54.5127 2
49.591 61.7394 3.98106
55.2916 41.6726 3.97606
50.5586 59.3143 3.97432
52.1572 56.4669 3.96788
53.9078 45.5039 3.9747
53.1551 49.2795 3.96964
52.5806 52.8155 3.96265
48.618 64.1186 0.0172242
47.9618 62.4689 2
47.3275 61.0016 3.98433
43.6312 67.4656 0.015779
45.1325 65.1923 0.0177439
46.3819 63.0469 0.017947
41.6636 67.6844 2
43.3567 65.5022 2
45.9874 61.5785 2
44.7674 63.4474 2
45.7641 60.6216 3.98234
44.4834 61.8256 3.98099
43.1465 63.7184 3.98025
41.5463 65.6391 3.98128
39.6327 67.7636 3.98378
37.5261 70.0475 3.98733
39.7021 70.0233 2
39.8179 72.4035 3.99197
41.8602 69.876 0.0124238
42.1114 72.2069 2
42.3947 74.6792 4
44.3768 71.8618 0.00785846
44.8159 74.2794 2
47.2057 73.7222 0
43.8519 5.35974 3.98899
46.5712 3.6474 3.99276
48.7856 4.3225 2
49.554 1.99015 4
50.9546 5.13239 0.00794843
51.8506 2.85453 2
54.0858 3.86728 0
60.0911 44.7419 0.023796
61.0433 41.9369 0.02315
61.999 39.3459 0.0231542
63.8545 37.4552 0.0247139
61.8349 37.4446 2
60.0331 39.8278 2
58.7625 42.8812 2
59.5359 37.5647 3.9774
57.719 40.6292 3.97744
54.7226 39.6868 3.97569
62.0372 35.3673 0.0232743
60.1012 32.7658 0.0230088
58.4361 30.1099 0.0229335
56.6183 18.1781 0.0322274
56.312 20.5522 0.0391487
55.9989 22.9126 0.0366622
57.125 27.4229 0.0234795
56.1518 25.1482 0.0264805
54.3973 17.9448 0.0257857
52.3501 17.0667 0.0298077
51.373 14.5126 0.0266013
48.0566 6.52804 0.0115071
49.3247 9.3348 0.017924
50.4321 12.0024 0.0222962
59.6787 35.1331 2
45.9625 5.8822 2
43.374 7.47344 2
57.7441 32.306 2
56.3384 29.3883 2
55.3118 19.2164 2
54.935 21.6025 2
54.7892 24.1138 2
55.243 26.6588 2
47.3557 8.62385 2
48.6001 11.2984 2
53.1021 18.6911 2
51.2844 18.0875 2
50.6254 16.1566 2
49.7099 13.7533 2
57.1079 34.7756 3.97736
55.466 31.5623 3.97724
54.2603 28.4735 3.97777
53.6038 25.5663 3.97609
53.927 20.1721 3.96524
53.4803 22.7659 3.95601
41.3993 7.07985 3.98625
45.3604 7.99554 3.98649
42.8663 9.41739 3.98296
46.6669 10.6572 3.98146
47.7427 13.111 3.97917
48.925 15.4169 3.97446
49.9911 17.7222 3.97565
51.6202 19.3638 3.97794
50.346 63.3772 0.0176664
51.2409 60.927 0.02349
56.4647 44.1347 0.0226192
55.2928 47.848 0.0266357
52.3014 58.6128 0.0251142
54.1987 57.2506 0.0254175
54.9558 51.3513 0.0338174
53.9526 54.5116 0.0347268
49.5906 61.7391 2
55.2901 41.6718 2
50.5584 59.3157 2
52.157 56.468 2
53.9119 45.5037 2
53.1601 49.2795 2
52.5813 52.8146 2
48.8443 60.1957 3.97882
52.1467 42.5747 3.98135
49.7717 57.6068 3.9724
50.5344 54.4011 3.96555
51.5684 47.2115 3.97659
51.08 50.9042 3.95814
47.8034 43.7127 3.98892
47.9617 62.4689 0.0182871
47.3278 61.0017 2
46.6147 59.788 3.98432
41.6634 67.6842 0.015909
43.3567 65.5014 0.0180347
44.7672 63.4467 0.0191123
45.9871 61.5779 0.0169278
39.633 67.7643 2
41.5462 65.6389 2
45.7642 60.6224 2
43.1466 63.7193 2
44.4836 61.8264 2
44.621 60.2822 3.983
42.9505 62.0727 3.97876
41.6001 63.8117 3.98049
39.6477 65.6062 3.98031
37.5635 67.745 3.98303
31.6972 65.1254 3.98127
33.3925 67.483 3.98275
35.3339 69.9577 3.98747
37.526 70.0484 2
37.5095 72.4581 3.99193
39.7022 70.0228 0.0122291
39.8181 72.4039 2
39.9526 74.9197 4
42.1112 72.2066 0.00784929
42.3947 74.6792 2
44.8159 74.2794 0
41.7365 4.96896 3.98918
43.8519 5.35902 2
44.3264 3.11054 3.99309
46.5714 3.64708 2
47.2057 1.27793 4
48.7853 4.32296 0.00738148
49.554 1.99013 2
51.8506 2.85458 0
58.7638 42.8821 0.0227307
60.0341 39.8278 0.0227589
61.8364 37.4444 0.0225891
59.5357 37.565 2
57.7191 40.6296 2
54.7226 39.6861 2
56.5014 37.8853 3.9772
49.1794 41.2825 3.98812
52.7431 39.3048 3.98321
39.4428 6.80371 3.98609
59.6795 35.1333 0.0228265
57.7447 32.3051 0.0231068
56.3389 29.3872 0.0226178
55.3124 19.2155 0.0348873
54.9299 21.6031 0.0400012
54.7903 24.1117 0.036053
55.2467 26.6566 0.0227175
53.1017 18.6915 0.030723
51.2843 18.086 0.0212069
50.6253 16.1567 0.0236313
45.9627 5.88284 0.0110178
49.7099 13.7544 0.0228347
47.3555 8.62583 0.0156555
48.5997 11.3001 0.0208894
43.3742 7.4741 0.0140088
57.107 34.7752 2
41.3993 7.07884 2
45.3601 7.99496 2
42.8661 9.41686 2
55.4692 31.5616 2
54.2599 28.4742 2
53.9273 20.1741 2
53.4792 22.7642 2
53.6012 25.5679 2
46.6672 10.654 2
47.7431 13.1085 2
51.6209 19.3644 2
49.9903 17.7205 2
48.9245 15.4165 2
54.5214 33.9749 3.9761
53.2086 30.5619 3.97753
52.3555 27.2832 3.97588
52.0143 24.1738 3.97707
52.3316 21.1014 3.97496
41.0138 9.05109 3.98283
44.7254 9.9958 3.98454
42.4683 10.9041 3.98556
46.0037 12.736 3.9775
47.6756 14.5957 3.97386
48.0983 17.0019 3.9738
49.7991 19.7005 3.97416
49.591 61.7394 0.0189403
50.5586 59.3143 0.0256832
55.2916 41.6726 0.0239404
53.9078 45.5039 0.0253022
53.1551 49.2795 0.030364
52.1572 56.4669 0.0321226
52.5806 52.8155 0.0373462
48.844 60.1943 2
52.1584 42.5777 2
49.7713 57.6076 2
50.5344 54.4026 2
51.5718 47.2124 2
51.0807 50.9027 2
47.8135 43.7358 2
47.9762 58.7291 3.9789
49.7569 45.2155 3.97939
48.5622 55.899 3.9759
49.0412 52.5628 3.97573
49.4925 48.9965 3.97203
45.58 39.8448 3.8821
46.0379 42.5873 3.91509
46.2011 45.7523 3.98582
43.3922 41.1008 3.78304
41.8328 41.9833 3.63127
47.3275 61.0016 0.0156743
46.6145 59.7884 2
45.4615 58.7826 3.98166
39.6327 67.7636 0.0162176
41.5463 65.6391 0.0187239
43.1465 63.7184 0.0197506
44.4834 61.8256 0.0190062
45.7641 60.6216 0.0176561
41.6001 63.8118 2
37.5637 67.7459 2
39.6477 65.6069 2
44.6211 60.283 2
42.9507 62.0733 2
41.7535 62.484 3.97962
42.479 59.9696 3.98202
39.8939 63.5446 3.97871
37.6424 65.5043 3.98074
35.4637 67.6544 3.98293
33.5756 65.3374 3.98027
31.9592 63.2946 3.98111
29.8833 64.7174 3.98251
31.6973 65.1262 2
31.3771 67.1934 3.98339
33.3926 67.4837 2
33.1571 69.7515 3.98731
35.3338 69.9586 2
35.195 72.3724 3.99185
37.5261 70.0475 0.0126653
37.5096 72.4586 2
37.5 75 4
39.8179 72.4035 0.00803205
39.9526 74.9197 2
42.3947 74.6792 0
39.6241 4.71641 3.9895
41.7365 4.96811 2
42.0628 2.71805 3.99328
43.8519 5.35974 0.0110126
44.3266 3.11008 2
44.8158 0.721173 4
46.5712 3.6474 0.00723955
47.2057 1.27779 2
49.554 1.99015 0
57.719 40.6292 0.0225618
59.5359 37.5647 0.0225987
54.7226 39.6868 0.0243076
49.1996 41.2927 2
56.5012 37.8857 2
52.7427 39.2963 2
53.5867 36.6312 3.97727
47.1042 40.3668 3.92263
50.1195 38.5188 3.99163
37.5168 6.67508 3.98606
39.4429 6.80254 2
39.2113 8.69439 3.98351
35.9427 8.49488 3.98383
57.1079 34.7756 0.0226369
55.466 31.5623 0.02276
54.2603 28.4735 0.0222348
53.927 20.1721 0.0347606
53.4803 22.7659 0.043994
53.6038 25.5663 0.0239108
51.6202 19.3638 0.0220557
49.9911 17.7222 0.0243539
48.925 15.4169 0.0255442
45.3604 7.99554 0.0135079
47.7427 13.111 0.0208339
46.6669 10.6572 0.018539
41.3993 7.07985 0.0137475
42.8663 9.41739 0.0170429
54.5173 33.9772 2
41.0139 9.05026 2
44.7247 9.99542 2
42.4682 10.9041 2
53.2066 30.5612 2
52.362 27.2857 2
52.3331 21.1019 2
52.0146 24.1752 2
46.0037 12.7311 2
47.6753 14.5929 2
49.7997 19.7007 2
48.0968 16.9996 2
52.0708 32.8894 3.97981
51.0116 29.2449 3.97504
50.5977 25.8102 3.97294
49.884 22.2889 3.98269
40.5691 11.6107 3.98073
43.8579 11.9165 3.98018
45.7951 15.433 3.9814
47.4897 19.3132 3.97748
45.9566 37.4827 3.88255
48.8443 60.1957 0.021177
49.7717 57.6068 0.0276049
52.1467 42.5747 0.0186537
51.5684 47.2115 0.0234083
51.08 50.9042 0.0418576
50.5344 54.4011 0.03445
47.8034 43.7127 0.0110756
47.9757 58.7303 2
49.771 45.2247 2
48.5611 55.9009 2
49.0407 52.5666 2
49.4954 48.9942 2
45.6201 39.8537 2
46.0617 42.6109 2
46.2067 45.7545 2
43.4172 41.1275 2
41.8509 42.0003 2
46.8211 57.331 3.98224
44.1428 39.3866 3.78235
42.1857 40.8547 3.68395
47.8285 47.1952 3.97947
47.1148 54.2144 3.97224
47.4674 50.7154 3.96905
44.5901 47.3483 3.9766
44.6905 41.9173 3.86449
44.673 44.4847 3.93193
42.2862 42.6027 3.79343
40.7642 42.3114 3.66842
46.6147 59.788 0.015675
45.4619 58.7834 2
43.8665 57.7024 3.98375
37.5635 67.745 0.0169696
39.6477 65.6062 0.019687
41.6001 63.8117 0.0195058
42.9505 62.0727 0.0212407
44.621 60.2822 0.0170049
35.4639 67.6556 2
41.7537 62.4844 2
39.8938 63.5451 2
37.6425 65.505 2
42.4793 59.97 2
40.6235 61.6393 3.98046
40.4413 58.1953 3.98087
37.837 63.2052 3.97896
35.5731 65.426 3.98016
33.5757 65.3379 2
31.959 63.2953 2
33.6286 63.3326 3.97949
30.3784 62.8546 3.98185
32.1237 61.9994 3.9833
26.8702 61.4963 3.97984
28.0622 64.1459 3.98219
29.8833 64.718 2
29.4065 66.7577 3.98405
31.6972 65.1254 0.0187255
31.3772 67.1941 2
31.0146 69.4166 3.98728
33.3925 67.483 0.0172502
33.157 69.7521 2
32.892 72.1468 3.99197
35.3339 69.9577 0.0125261
35.1949 72.3729 2
35.0474 74.9194 4
37.5095 72.4581 0.00807455
37.5 75 2
39.9526 74.9197 0
35.6214 6.72629 3.98556
37.5236 4.61599 3.98959
39.6242 4.7154 2
39.7892 2.47455 3.99328
41.7365 4.96896 0.0108206
42.0628 2.71755 2
42.3946 0.32156 4
44.3264 3.11054 0.00691355
44.8159 0.72056 2
47.2057 1.27793 0
49.1794 41.2825 0.0118816
56.5014 37.8853 0.0228046
52.7431 39.3048 0.0167913
47.1234 40.3666 2
50.1278 38.51 2
53.5937 36.6341 2
50.9071 35.5766 3.97662
47.7689 37.7491 3.93628
45.5793 35.1415 3.87993
43.3976 33.8847 3.77596
41.8352 33.012 3.62759
37.4584 8.53629 3.98423
37.5167 6.6739 2
39.4428 6.80371 0.013905
39.2115 8.69295 2
38.9764 10.1291 3.98369
35.8992 9.77654 3.98188
34.1516 8.82523 3.9829
35.9422 8.49335 2
54.5214 33.9749 0.0239009
53.2086 30.5619 0.0224742
52.3555 27.2832 0.0241207
52.3316 21.1014 0.0250442
52.0143 24.1738 0.0229252
49.7991 19.7005 0.0258441
48.0983 17.0019 0.0262022
47.6756 14.5957 0.0261361
44.7254 9.9958 0.0154576
46.0037 12.736 0.0224994
41.0138 9.05109 0.0171676
42.4683 10.9041 0.0144352
52.0773 32.8892 2
40.5697 11.6109 2
43.857 11.9171 2
51.027 29.2464 2
50.6023 25.8135 2
49.8828 22.2854 2
45.7937 15.4246 2
47.4898 19.3198 2
49.6138 31.4768 3.98619
49.0353 27.5824 3.97459
49.2709 24.4928 3.97929
47.1563 22.0572 3.98102
38.3025 12.7415 3.9781
42.1005 14.3071 3.97865
44.7907 18.5072 3.97748
44.4804 37.4905 3.79123
46.0172 37.4887 2
47.9762 58.7291 0.0211001
48.5622 55.899 0.0240971
49.7569 45.2155 0.0206107
49.4925 48.9965 0.0279683
49.0412 52.5628 0.0242666
45.58 39.8448 0.117899
46.0379 42.5873 0.0849068
46.2011 45.7523 0.0141804
43.3922 41.1008 0.216958
41.8328 41.9833 0.368734
46.8201 57.3318 2
44.1771 39.4077 2
42.1796 40.8637 2
47.8309 47.1972 2
47.113 54.2185 2
47.4695 50.7188 2
44.5998 47.3265 2
44.7144 41.9385 2
44.6943 44.5038 2
42.3337 42.6323 2
40.7726 42.3093 2
45.3703 55.9205 3.98929
42.5065 39.2661 3.69511
40.6498 40.7515 3.7826
45.9237 48.8752 3.98849
45.4567 52.5026 3.98113
43.2865 48.3597 3.9985
43.2305 46.0252 3.91319
43.4087 43.6988 3.86319
40.9212 43.7223 3.77997
39.2546 42.6153 3.6862
45.4615 58.7826 0.0183385
43.8667 57.7034 2
42.0942 56.3182 3.98446
35.4637 67.6544 0.0170723
37.6424 65.5043 0.0192566
39.8939 63.5446 0.0212862
41.7535 62.484 0.020377
42.479 59.9696 0.017982
35.5733 65.4276 2
40.6237 61.64 2
37.8368 63.2057 2
40.4415 58.1961 2
38.9205 56.4864 3.9898
38.2507 60.3207 3.97929
35.6069 63.1973 3.97701
33.5756 65.3374 0.0197343
31.9592 63.2946 0.0188873
33.6285 63.3332 2
30.3783 62.855 2
32.1239 62.0001 2
28.6815 62.2 3.98154
33.346 61.5092 3.98123
31.0682 61.2172 3.98106
27.5734 59.5906 3.9809
23.7987 59.0771 3.97911
25.0365 60.8693 3.97998
26.8704 61.497 2
26.2293 63.4769 3.98141
28.0624 64.1463 2
27.4632 66.182 3.98431
29.8833 64.7174 0.0174947
29.4066 66.7582 2
28.9069 68.9427 3.98715
31.3771 67.1934 0.0166092
31.0145 69.4173 2
30.6144 71.7778 3.99186
33.1571 69.7515 0.0126908
32.8918 72.1472 2
32.6054 74.6784 4
35.195 72.3724 0.00815292
35.0474 74.9197 2
37.5 75 0
33.7243 6.9815 3.985
35.4355 4.68628 3.98942
35.6213 6.72522 2
37.5148 2.3871 3.99325
37.5236 4.61519 2
39.6241 4.71641 0.0105009
39.7891 2.47398 2
39.9526 0.0806499 4
42.0628 2.71805 0.00671723
42.3947 0.320817 2
44.8158 0.721173 0
44.1547 35.5924 3.77883
42.1922 34.1315 3.68128
47.1042 40.3668 0.077366
50.1195 38.5188 0.00837293
53.5867 36.6312 0.0227304
47.7724 37.7543 2
50.9198 35.5747 2
45.6113 35.1219 2
43.4269 33.8565 2
41.8543 32.9944 2
47.9368 34.3037 3.9632
44.6896 33.0564 3.8581
42.2891 32.393 3.78795
40.767 32.6884 3.66543
37.311 10.6339 3.98119
37.4583 8.53449 2
37.5168 6.67508 0.0139369
39.2113 8.69439 0.0164883
38.9772 10.1276 2
34.7548 10.3839 3.98126
35.8992 9.7742 2
32.3785 9.37264 3.981
34.1507 8.82339 2
35.9427 8.49488 0.016175
52.0708 32.8894 0.0201936
51.0116 29.2449 0.0249642
50.5977 25.8102 0.0270571
49.884 22.2889 0.017306
47.4897 19.3132 0.0225249
45.7951 15.433 0.0185991
43.8579 11.9165 0.0198176
40.5691 11.6107 0.0192715
49.6271 31.4713 2
38.3025 12.7392 2
42.1007 14.3095 2
49.0398 27.5825 2
49.2738 24.489 2
47.1511 22.0554 2
44.7905 18.522 2
47.4498 29.5787 3.98327
46.9605 25.2414 3.98112
44.2666 21.4412 3.97582
36.5831 12.9401 3.97656
38.6827 14.8183 3.97618
41.7462 17.8723 3.97851
42.6253 37.4841 3.70954
44.5084 37.4907 2
45.9566 37.4827 0.11745
46.8211 57.331 0.0177642
47.1148 54.2144 0.0277626
47.8285 47.1952 0.0205327
47.4674 50.7154 0.0309506
44.1428 39.3866 0.217649
44.6905 41.9173 0.135508
44.673 44.4847 0.0680653
44.5901 47.3483 0.0233969
42.2862 42.6027 0.206568
42.1857 40.8547 0.316051
40.7642 42.3114 0.331582
45.3691 55.9202 2
42.4977 39.2643 2
40.6417 40.7374 2
45.9241 48.8828 2
45.4558 52.5087 2
43.2907 48.3786 2
43.2627 46.0534 2
43.4406 43.7267 2
40.9532 43.7645 2
39.2519 42.6124 2
43.7016 54.4203 3.99573
40.7463 39.1466 3.80528
39.1188 40.8183 3.79046
43.5805 50.4205 4.00428
41.8768 47.569 3.94944
41.7905 45.1159 3.87687
39.3367 44.408 3.78462
37.5042 42.7104 3.70818
43.8665 57.7024 0.0162515
42.0944 56.3189 2
40.4051 54.9139 3.98176
35.5731 65.426 0.0198371
37.837 63.2052 0.0210383
40.6235 61.6393 0.0195422
40.4413 58.1953 0.0191313
35.6068 63.1987 2
38.251 60.3213 2
38.9206 56.4865 2
37.9962 55.2292 3.99091
36.9341 57.6169 3.98306
35.3634 60.9032 3.97725
33.6286 63.3326 0.0205114
30.3784 62.8546 0.0181497
32.1237 61.9994 0.0166966
33.3462 61.5099 2
28.6817 62.2003 2
31.0686 61.2177 2
29.406 60.2866 3.97982
32.3606 59.7409 3.98712
28.0334 58.3717 3.98952
27.5739 59.5914 2
25.3869 58.5911 3.97754
22.7674 58.2313 3.96999
23.4039 60.3468 3.97874
23.7991 59.0781 2
25.0368 60.8702 2
24.4325 62.7687 3.98154
26.8702 61.4963 0.0201566
26.2295 63.4777 2
25.5473 65.4915 3.98347
28.0622 64.1459 0.0178109
27.4632 66.1825 2
26.8364 68.3311 3.98721
29.4065 66.7577 0.015946
28.9068 68.9429 2
28.3693 71.2631 3.99192
31.0146 69.4166 0.0127243
30.614 71.7781 2
30.1842 74.2788 4
32.892 72.1468 0.00803438
32.6053 74.6792 2
35.0474 74.9194 0
31.7888 7.42158 3.98386
33.3479 4.9258 3.9889
33.7239 6.98007 2
35.245 2.46316 3.99317
35.4353 4.68561 2
35.6214 6.72629 0.0144373
37.5 0 4
37.5145 2.38667 2
37.5236 4.61599 0.0104138
39.7892 2.47455 0.00672164
39.9526 0.0802889 2
42.3946 0.32156 0
42.5013 35.7088 3.69676
44.1859 35.5721 2
40.655 34.2442 3.78146
42.1824 34.1238 2
47.7689 37.7491 0.063722
50.9071 35.5766 0.0233798
45.5793 35.1415 0.120072
43.3976 33.8847 0.224039
41.8352 33.012 0.372407
47.9541 34.2953 2
44.7162 33.0384 2
42.3383 32.3598 2
40.7773 32.69 2
45.9628 31.6222 3.93648
43.3997 31.2988 3.86546
40.9199 31.2752 3.78148
39.2558 32.3946 3.68535
35.6934 11.7814 3.97938
37.312 10.6312 2
37.4584 8.53629 0.0157667
38.9764 10.1291 0.0163095
33.0992 11.2224 3.9779
34.7543 10.3811 2
35.8992 9.77654 0.0181246
30.4835 10.0225 3.98055
32.3778 9.37219 2
34.1516 8.82523 0.0170967
49.6138 31.4768 0.0138104
49.0353 27.5824 0.0254082
49.2709 24.4928 0.020715
47.1563 22.0572 0.0189793
44.7907 18.5072 0.0225223
42.1005 14.3071 0.0213479
38.3025 12.7415 0.0218986
36.5827 12.9356 2
47.46 29.5563 2
38.682 14.8142 2
41.7444 17.8766 2
46.967 25.2394 2
44.2648 21.4252 2
45.3143 27.7052 4.0022
43.715 24.1611 4.00725
41.3258 20.8252 3.97967
35.7734 14.7714 3.97722
38.6822 17.6184 3.97835
40.7975 37.4779 3.81448
42.6216 37.4856 2
44.4804 37.4905 0.20877
45.3703 55.9205 0.010709
45.4567 52.5026 0.0188708
45.9237 48.8752 0.0115067
42.5065 39.2661 0.304892
43.4087 43.6988 0.136814
43.2305 46.0252 0.0868086
43.2865 48.3597 0.00150174
40.9212 43.7223 0.220031
40.6498 40.7515 0.217397
39.2546 42.6153 0.313804
43.6993 54.42 2
40.7284 39.1391 2
39.1197 40.8001 2
43.579 50.4374 2
41.8693 47.5901 2
41.8113 45.1456 2
37.5031 42.71 2
39.3541 44.4417 2
41.85 52.9667 3.99462
39.1387 39.1586 3.81205
37.504 40.8668 3.80377
35.7565 42.6229 3.68789
40.8619 49.6222 3.99746
39.8029 45.9654 3.85447
37.5031 44.6372 3.77758
42.0942 56.3182 0.0155396
40.4035 54.9167 2
38.7234 53.7974 3.99573
35.6069 63.1973 0.0229915
38.2507 60.3207 0.0207059
38.9205 56.4864 0.0102038
35.3637 60.9041 2
36.9349 57.6176 2
37.9959 55.2261 2
36.3238 55.314 3.99717
34.4894 58.5089 3.98518
33.346 61.5092 0.0187662
28.6815 62.2 0.0184568
31.0682 61.2172 0.0189428
32.3611 59.7417 2
29.4066 60.2868 2
30.3109 57.8165 3.98428
28.0337 58.3725 2
26.9666 56.8242 3.97553
27.5734 59.5906 0.0190992
25.3874 58.5922 2
23.8604 56.7903 3.96279
21.3492 57.3835 3.9691
21.9994 59.6162 3.9772
22.7676 58.2331 2
22.7373 62.0186 3.97929
23.4042 60.3477 2
23.7987 59.0771 0.0208924
25.0365 60.8693 0.0200231
24.4327 62.7696 2
23.6815 64.7089 3.98307
26.2293 63.4769 0.0185869
25.5474 65.4924 2
24.8085 67.5924 3.98696
27.4632 66.182 0.0156876
26.8364 68.3318 2
26.1645 70.6038 3.99198
28.9069 68.9427 0.0128471
28.369 71.2632 2
27.7943 73.7221 4
30.6144 71.7778 0.00813823
30.1841 74.2794 2
32.6054 74.6784 0
29.8115 7.99615 3.9829
31.2533 5.33281 3.98801
31.7884 7.42076 2
32.9807 2.70145 3.99285
33.3475 4.92479 2
33.7243 6.9815 0.0149985
35.0474 0.080333 4
35.2447 2.46283 2
35.4355 4.68628 0.0105835
37.5 0 2
37.5148 2.3871 0.00675322
39.9526 0.0806499 0
40.75 35.8252 3.80352
42.4925 35.7117 2
44.1547 35.5924 0.221171
28.5442 10.6981 3.97936
39.1176 34.1903 3.78966
40.6441 34.2585 2
42.1922 34.1315 0.318723
47.9368 34.3037 0.0368031
44.6896 33.0564 0.141899
42.2891 32.393 0.212053
40.767 32.6884 0.334566
45.9906 31.6074 2
43.43 31.2676 2
40.954 31.2349 2
39.2575 32.3985 2
44.218 29.8169 3.92877
41.7856 29.8808 3.87533
39.3412 30.5969 3.78335
37.5084 32.308 3.7076
34.0941 12.9432 3.97625
35.6933 11.7768 2
37.311 10.6339 0.0188087
31.1877 11.9928 3.97837
33.0995 11.2218 2
34.7548 10.3839 0.0187389
30.4824 10.0201 2
32.3785 9.37264 0.0190015
47.4498 29.5787 0.0167277
46.9605 25.2414 0.0188771
36.5831 12.9401 0.023439
44.2666 21.4412 0.0241817
41.7462 17.8723 0.0214935
38.6827 14.8183 0.023818
35.7741 14.7766 2
45.318 27.7045 2
38.68 17.6217 2
41.3224 20.814 2
43.7181 24.1494 2
33.6105 15.8913 3.97711
42.9112 26.556 3.9977
40.8668 23.3882 4.01372
38.4133 20.3977 3.98302
35.8521 17.5257 3.97946
39.1443 37.4882 3.83549
40.7814 37.4776 2
42.6253 37.4841 0.290462
43.7016 54.4203 0.00426546
43.5805 50.4205 -0.0042829
40.7463 39.1466 0.194721
41.7905 45.1159 0.123127
41.8768 47.569 0.0505563
39.3367 44.408 0.21538
39.1188 40.8183 0.209541
37.5042 42.7104 0.291816
41.8477 52.9643 2
39.1276 39.1471 2
37.5032 40.8437 2
40.8678 49.6378 2
35.7539 42.6191 2
39.8231 46.0018 2
37.4975 44.6674 2
39.7911 51.8364 4.0016
37.5008 39.1697 3.83809
35.8895 40.832 3.79056
34.2444 42.3205 3.66571
35.6681 44.4219 3.7807
38.6709 48.6115 3.9644
37.518 46.2633 3.87025
40.4051 54.9139 0.0182405
38.7226 53.7917 2
36.742 53.1326 3.9993
35.3634 60.9032 0.0227468
36.9341 57.6169 0.0169371
37.9962 55.2292 0.00909069
34.4905 58.5098 2
36.325 55.3172 2
33.2457 55.4894 3.99515
32.3606 59.7409 0.0128837
29.406 60.2866 0.0201766
30.3114 57.8167 2
28.7266 55.3124 3.97881
28.0334 58.3717 0.0104831
26.9666 56.8249 2
25.3499 55.1298 3.97065
21.8387 55.3306 3.96486
25.3869 58.5911 0.0224633
23.8602 56.7927 2
20.2354 57.0118 3.97166
20.6533 58.7672 3.97291
21.3491 57.3851 2
21.1691 61.1663 3.97708
21.9996 59.6172 2
22.7674 58.2313 0.0300109
21.8954 63.8361 3.98176
22.7376 62.0196 2
23.4039 60.3468 0.0212638
24.4325 62.7687 0.018463
23.6816 64.7097 2
22.8369 66.7354 3.98622
25.5473 65.4915 0.0165281
24.8086 67.5933 2
24.0086 69.805 3.99208
26.8364 68.3311 0.0127942
26.1641 70.6041 2
25.446 73.0099 4
28.3693 71.2631 0.00808185
27.7943 73.7222 2
30.1842 74.2788 0
27.8214 8.65587 3.98245
29.1555 5.8791 3.98696
29.8107 7.99424 2
30.726 3.09851 3.99256
31.2529 5.33205 2
31.7888 7.42158 0.016137
32.6053 0.320823 4
32.9803 2.70096 2
33.3479 4.9258 0.0110991
35.0474 0.0802903 2
35.245 2.46316 0.00682591
37.5 0 0
39.1401 35.829 3.81229
40.7309 35.8314 2
42.5013 35.7088 0.303239
28.5433 10.6971 2
26.6228 11.3943 3.97917
29.2268 12.6494 3.97891
37.5016 34.1537 3.80264
39.1186 34.2095 2
40.655 34.2442 0.21854
45.9628 31.6222 0.0635189
43.3997 31.2988 0.134541
40.9199 31.2752 0.218516
39.2558 32.3946 0.314648
44.2192 29.8056 2
41.8017 29.8564 2
39.3548 30.5606 2
37.5099 32.3073 2
42.2413 28.4767 3.90318
39.8108 29.0302 3.87529
37.511 30.3774 3.77789
35.7631 32.3948 3.68596
31.9167 14.4929 3.97731
34.0951 12.943 2
35.6934 11.7814 0.020619
31.187 11.9892 2
33.0992 11.2224 0.0220983
30.4835 10.0225 0.0194537
45.3143 27.7052 -0.00220118
43.715 24.1611 -0.00724922
35.7734 14.7714 0.0227828
41.3258 20.8252 0.0203329
38.6822 17.6184 0.0216545
33.6093 15.8876 2
35.849 17.5286 2
42.9204 26.5562 2
38.4124 20.3983 2
40.8648 23.3736 2
33.5552 17.4009 3.97818
40.3258 25.7457 3.9883
38.0675 23.037 3.99786
35.5834 20.1118 3.98177
37.4992 37.4992 3.85727
39.1344 37.4876 2
40.7975 37.4779 0.185521
41.85 52.9667 0.00537522
40.8619 49.6222 0.0025411
39.1387 39.1586 0.187952
39.8029 45.9654 0.145535
37.5031 44.6372 0.222424
37.504 40.8668 0.196232
35.7565 42.6229 0.312112
39.7922 51.8401 2
37.5011 39.1554 2
35.8884 40.8142 2
38.6861 48.6518 2
34.2358 42.3193 2
35.6514 44.4576 2
37.5191 46.3011 2
37.6569 50.904 4.00166
35.8663 39.1767 3.81256
34.3591 40.7715 3.78197
33.1703 41.9944 3.6309
34.0759 43.7233 3.78091
35.1858 45.9606 3.86703
36.9078 48.2392 3.93323
38.7234 53.7974 0.0042737
36.7376 53.1377 2
34.395 52.4357 3.99683
34.4894 58.5089 0.0148217
36.3238 55.314 0.00282891
33.2462 55.4926 2
30.5594 53.3426 3.97857
30.3109 57.8165 0.0157194
28.7268 55.3144 2
26.9431 53.4258 3.9715
26.9666 56.8242 0.024465
25.3497 55.1335 2
23.6406 53.4615 3.95839
20.544 53.1969 3.96235
19.9569 55.8127 3.9666
21.8374 55.332 2
23.8604 56.7903 0.0372064
19.4493 57.8735 3.97176
20.2349 57.0132 2
19.7106 60.1928 3.9764
20.6532 58.7678 2
21.3492 57.3835 0.0309007
20.2084 62.856 3.97939
21.1694 61.1678 2
21.9994 59.6162 0.0228049
20.9382 65.7641 3.9853
21.8954 63.837 2
22.7373 62.0186 0.0207148
23.6815 64.7089 0.0169273
22.8369 66.7361 2
21.9112 68.8719 3.99174
24.8085 67.5924 0.0130354
24.0081 69.8052 2
23.1494 72.1454 4
26.1645 70.6038 0.00801707
25.446 73.0099 2
27.7943 73.7221 0
25.8605 9.38475 3.98149
27.0702 6.54317 3.98594
27.8205 8.65496 2
28.4882 3.64459 3.99206
29.1549 5.87784 2
29.8115 7.99615 0.0171024
30.1841 0.720592 4
30.7254 3.09817 2
31.2533 5.33281 0.0119937
32.6053 0.320817 2
32.9807 2.70145 0.00714868
35.0474 0.080333 0
37.5008 35.835 3.83709
39.1276 35.8395 2
40.75 35.8252 0.196476
24.7777 12.0791 3.97924
23.7535 14.3686 3.97789
28.5442 10.6981 0.0206393
26.6221 11.394 2
29.226 12.6482 2
27.2932 13.383 3.97844
29.7831 14.2118 3.9786
35.8887 34.1888 3.78974
37.5029 34.1761 2
39.1176 34.1903 0.210342
37.5084 32.308 0.292395
44.218 29.8169 0.0712328
41.7856 29.8808 0.124673
39.3412 30.5969 0.216651
42.2632 28.4471 2
39.8234 28.9947 2
37.5148 30.3458 2
35.7622 32.3985 2
39.9972 27.6654 3.90542
37.5056 28.7443 3.87058
35.6778 30.6073 3.78607
34.256 32.6952 3.66567
30.9302 16.8553 3.97769
31.9165 14.4867 2
34.0941 12.9432 0.0237546
31.1877 11.9928 0.0216313
42.9112 26.556 0.00229724
40.8668 23.3882 -0.013717
33.6105 15.8913 0.0228861
35.8521 17.5257 0.0205419
38.4133 20.3977 0.0169821
33.551 17.4133 2
35.5855 20.1158 2
40.3271 25.7286 2
38.0594 23.0244 2
32.8687 19.8078 3.98606
37.7813 25.3431 4.00029
35.1948 22.7608 3.99408
35.8552 37.5033 3.83606
37.4992 37.499 2
39.1443 37.4882 0.164511
39.7911 51.8364 -0.00160414
38.6709 48.6115 0.0356031
37.5008 39.1697 0.161914
37.518 46.2633 0.12975
35.6681 44.4219 0.219298
35.8895 40.832 0.209438
34.2444 42.3205 0.334292
37.6442 50.9245 2
35.8791 39.1654 2
34.3674 40.7579 2
36.8887 48.2792 2
33.1517 42.0108 2
34.0481 43.7618 2
35.1706 45.9915 2
35.511 50.0656 3.99269
34.2645 39.173 3.8055
32.811 40.8725 3.68313
32.7164 42.6146 3.79
33.2197 45.1183 3.87293
34.3406 47.3332 3.90809
36.742 53.1326 0.000699398
34.3894 52.4426 2
32.0759 51.1516 4.00482
33.2457 55.4894 0.004854
30.5593 53.3474 2
28.5021 51.5592 3.97945
28.7266 55.3124 0.0211853
26.9425 53.4293 2
25.1713 51.7141 3.95712
25.3499 55.1298 0.0293512
23.6397 53.4637 2
22.0728 51.7718 3.95512
19.3182 51.6045 3.96311
18.9648 54.2867 3.96326
20.5434 53.1962 2
18.4644 56.7053 3.96905
19.9559 55.8139 2
21.8387 55.3306 0.0351373
18.3754 59.0959 3.97063
19.4489 57.8743 2
20.2354 57.0118 0.0283384
18.6209 61.7593 3.97448
19.7109 60.1943 2
20.6533 58.7672 0.0270931
19.1273 64.6739 3.98386
20.2084 62.8572 2
21.1691 61.1663 0.0229227
19.8854 67.8086 3.99167
20.9382 65.7649 2
21.8954 63.8361 0.0182404
22.8369 66.7354 0.0137843
21.9106 68.8719 2
20.9142 71.1327 4
24.0086 69.805 0.00791529
23.1494 72.1455 2
25.446 73.0099 0
23.0972 12.795 3.97876
23.9731 10.1728 3.98074
25.0238 7.31383 3.98494
25.8598 9.38423 2
26.28 4.32873 3.99158
27.0695 6.54248 2
27.8214 8.65587 0.0175452
27.7943 1.27781 4
28.4875 3.64417 2
29.1555 5.8791 0.0130407
30.1841 0.720551 2
30.726 3.09851 0.00744011
32.6053 0.320823 0
35.861 35.8344 3.81106
37.501 35.8493 2
39.1401 35.829 0.18771
24.7772 12.0784 2
23.7537 14.3685 2
22.4827 15.0457 3.97894
25.3594 13.9168 3.97749
24.0299 15.6325 3.97936
26.6228 11.3943 0.0208293
29.2268 12.6494 0.0210874
27.293 13.383 2
29.7817 14.2097 2
28.3613 15.9883 3.97791
34.3613 34.2522 3.7798
35.8882 34.2078 2
37.5016 34.1537 0.197364
35.7631 32.3948 0.314043
37.511 30.3774 0.222114
42.2413 28.4767 0.096816
39.8108 29.0302 0.124712
40.0158 27.6399 2
37.5069 28.7106 2
35.6614 30.5671 2
34.2433 32.6981 2
37.5834 27.3789 3.91809
35.1951 29.045 3.87402
34.0888 31.2905 3.78104
33.1881 33.0225 3.62973
30.2158 19.3682 3.98092
30.9286 16.8482 2
31.9167 14.4929 0.0226928
40.3258 25.7457 0.0117012
38.0675 23.037 0.00214311
33.5552 17.4009 0.0218188
35.5834 20.1118 0.0182334
32.8683 19.821 2
35.1916 22.7502 2
37.777 25.3289 2
32.3176 22.4912 3.99632
35.0182 25.3084 4.00095
34.2062 37.5107 3.81574
35.8657 37.5044 2
37.4992 37.4992 0.142733
37.6569 50.904 -0.00165852
36.9078 48.2392 0.0667671
35.8663 39.1767 0.187443
35.1858 45.9606 0.13297
34.0759 43.7233 0.219088
34.3591 40.7715 0.218026
33.1703 41.9944 0.369101
35.5008 50.0712 2
34.2847 39.1666 2
32.8164 40.8794 2
34.3271 47.3735 2
32.6773 42.6439 2
33.2027 45.1453 2
33.3324 49.0621 3.98701
32.4944 39.2903 3.69906
31.6 41.1153 3.78077
31.5965 43.707 3.86499
32.3888 46.2704 3.90698
34.395 52.4357 0.00317336
32.0767 51.1614 2
29.975 49.6685 3.98522
30.5594 53.3426 0.0214303
28.5008 51.5576 2
26.6304 49.9415 3.96927
26.9431 53.4258 0.0285014
25.17 51.7119 2
23.4772 50.1467 3.96437
23.6406 53.4615 0.0416065
22.0722 51.7704 2
20.6062 50.2765 3.96534
18.1215 50.2992 3.968
17.9238 52.7658 3.96444
19.3168 51.6038 2
17.4632 55.3231 3.96326
18.9615 54.2868 2
20.544 53.1969 0.0376536
17.1457 57.857 3.96721
18.4637 56.7056 2
19.9569 55.8127 0.0334026
17.1396 60.5361 3.97371
18.3754 59.097 2
19.4493 57.8735 0.0282442
17.4084 63.4646 3.98005
18.6211 61.7606 2
19.7106 60.1928 0.0235963
17.9419 66.6171 3.99111
19.1271 64.675 2
20.2084 62.856 0.020607
18.75 69.9759 4
19.8847 67.8084 2
20.9382 65.7641 0.0146986
21.9112 68.8719 0.00826033
20.9142 71.1327 2
23.1494 72.1454 0
21.5885 13.6161 3.97844
22.1912 11.0331 3.97988
23.0972 12.795 2
23.0416 8.18017 3.98409
23.9725 10.172 2
24.1176 5.14353 3.99109
25.0232 7.31318 2
25.8605 9.38475 0.0185146
25.446 1.99014 4
26.279 4.32868 2
27.0702 6.54317 0.01406
27.7943 1.27778 2
28.4882 3.64459 0.00794338
30.1841 0.720592 0
34.2584 35.8432 3.80379
35.8722 35.8454 2
37.5008 35.835 0.162911
21.3099 15.8424 3.98051
24.7777 12.0791 0.0207594
23.7535 14.3686 0.0221066
25.3594 13.9163 2
22.4833 15.046 2
24.0299 15.6329 2
23.2708 16.263 3.97626
25.3859 16.1021 3.97883
27.2932 13.383 0.0215566
29.7831 14.2118 0.0213951
28.3593 15.9902 2
27.4467 18.8196 3.97906
32.8231 34.1465 3.68156
34.3741 34.2667 2
35.8887 34.1888 0.210263
34.256 32.6952 0.334331
35.6778 30.6073 0.213934
37.5056 28.7443 0.129415
39.9972 27.6654 0.0945779
37.5856 27.3429 2
33.1683 33.0066 2
35.1889 29.0041 2
34.0518 31.2459 2
35.0906 27.5013 3.9172
33.2217 29.8972 3.86984
32.7323 32.3957 3.77761
29.6043 21.9644 3.99547
30.2156 19.3792 2
30.9302 16.8553 0.0223092
37.7813 25.3431 -0.000287267
35.1948 22.7608 0.0059209
32.8687 19.8078 0.0139425
32.3178 22.4828 2
35.0356 25.2965 2
31.7921 25.7142 4.00808
32.3647 37.5115 3.71209
34.2272 37.5108 2
35.8552 37.5033 0.163945
35.511 50.0656 0.00731023
34.3406 47.3332 0.0919057
34.2645 39.173 0.194501
33.2197 45.1183 0.127068
32.7164 42.6146 0.210003
32.811 40.8725 0.316874
33.328 49.0601 2
32.5092 39.2886 2
31.5717 41.1402 2
32.3554 46.3015 2
31.5654 43.7347 2
31.2967 47.8995 3.98709
30.8493 39.407 3.78063
30.3077 41.9424 3.85898
30.6255 44.8686 3.92815
32.0759 51.1516 -0.00481771
29.973 49.6696 2
28.0486 48.1255 3.96498
28.5021 51.5592 0.020549
26.6295 49.9394 2
24.8263 48.415 3.97253
25.1713 51.7141 0.0428821
23.4768 50.1445 2
21.8469 48.7394 3.96973
22.0728 51.7718 0.044876
20.6045 50.2755 2
19.1946 49.0555 3.97221
17.02 49.3036 3.97285
16.8708 51.3821 3.96696
18.1233 50.298 2
16.4347 53.852 3.96449
17.9214 52.7656 2
19.3182 51.6045 0.0368916
15.9912 56.4609 3.96627
17.4612 55.3237 2
18.9648 54.2867 0.0367364
15.7558 59.1981 3.9698
17.1456 57.858 2
18.4644 56.7053 0.0309486
15.7903 62.1315 3.97494
17.1399 60.5379 2
18.3754 59.0959 0.0293731
16.0891 65.2996 3.98983
17.4081 63.4662 2
18.6209 61.7593 0.0255228
16.6661 68.6801 4
17.9409 66.6168 2
19.1273 64.6739 0.0161398
18.75 69.9759 2
19.8854 67.8086 0.00833433
20.9142 71.1327 0
20.2217 14.6067 3.97706
21.5888 13.6163 2
20.5306 12.0039 3.97922
21.1444 9.15055 3.98342
22.1909 11.0329 2
23.0972 12.795 0.0212356
22.0167 6.08274 3.99052
23.0409 8.17935 2
23.9731 10.1728 0.0192649
23.1494 2.85457 4
24.1165 5.14361 2
25.0238 7.31383 0.0150575
25.446 1.99012 2
26.28 4.32873 0.00842494
27.7943 1.27781 0
32.4902 35.7291 3.69233
34.2772 35.8536 2
35.861 35.8344 0.188944
21.3105 15.8421 2
20.31 16.9745 3.98085
22.1033 16.6488 3.97406
25.3594 13.9168 0.0225077
22.4827 15.0457 0.0210642
24.0299 15.6325 0.0206376
25.3853 16.1026 2
23.2711 16.2639 2
24.2121 18.4749 3.97373
27.044 21.4868 3.99137
28.3613 15.9883 0.0220944
27.4482 18.8192 2
31.6182 33.9086 3.77838
32.8298 34.1372 2
34.3613 34.2522 0.220198
33.1881 33.0225 0.370267
34.0888 31.2905 0.218964
35.1951 29.045 0.125976
37.5834 27.3789 0.0819063
35.0821 27.46 2
32.6648 32.3654 2
33.2079 29.8776 2
32.6579 28.2105 3.92844
31.5991 31.317 3.86626
28.9 24.4457 3.9816
29.5993 21.9759 2
30.2158 19.3682 0.0190766
35.0182 25.3084 -0.000947989
32.3176 22.4912 0.00368248
31.7943 25.6924 2
29.793 27.3733 3.97143
30.5049 37.5047 3.78972
32.3769 37.5101 2
34.2062 37.5107 0.184265
33.3324 49.0621 0.0129908
32.3888 46.2704 0.0930223
32.4944 39.2903 0.30094
31.5965 43.707 0.135014
31.6 41.1153 0.219232
31.2937 47.9038 2
30.8101 39.4274 2
30.2825 41.959 2
30.6054 44.89 2
29.4074 46.5033 4.00231
29.4103 39.8522 3.8816
29.0147 43.0989 3.92803
29.975 49.6685 0.0147849
28.0473 48.1215 2
26.1761 46.5941 3.97648
26.6304 49.9415 0.0307331
24.8261 48.4125 2
23.0433 47.0172 3.97428
23.4772 50.1467 0.0356337
21.846 48.7382 2
20.1717 47.5748 3.97697
20.6062 50.2765 0.0346559
19.1967 49.054 2
17.8186 48.147 3.97628
16.2588 48.6582 3.97598
17.0214 49.3026 2
15.9499 50.1465 3.97039
15.4402 52.3967 3.96648
16.8712 51.3814 2
18.1215 50.2992 0.0320009
14.8884 54.9648 3.96514
16.4344 53.8519 2
17.9238 52.7658 0.0355618
14.4681 57.7274 3.96695
15.9913 56.4609 2
17.4632 55.3231 0.036737
14.2693 60.6852 3.97387
15.7561 59.1994 2
17.1457 57.857 0.0327913
14.3343 63.8582 3.98646
15.79 62.1326 2
17.1396 60.5361 0.0262884
14.6715 67.2507 4
16.0877 65.2989 2
17.4084 63.4646 0.0199547
16.6661 68.6801 2
17.9419 66.6171 0.0088894
18.75 69.9759 0
18.9367 15.7932 3.97849
20.2221 14.6065 2
18.9809 13.1158 3.97792
21.5885 13.6161 0.0215625
20.5306 12.0039 2
19.3436 10.239 3.9827
19.9912 7.14744 3.99009
21.1439 9.15019 2
22.1912 11.0331 0.0201231
20.9142 3.86727 4
22.0153 6.08298 2
23.0416 8.18017 0.0159123
23.1494 2.85451 2
24.1176 5.14353 0.00891245
25.446 1.99014 0
30.8671 35.6212 3.78316
32.5018 35.7319 2
34.2584 35.8432 0.196214
21.3099 15.8424 0.019488
22.104 16.6491 2
20.3106 16.9736 2
19.2592 18.4242 3.97339
21.7898 17.8676 3.97973
25.3859 16.1021 0.0211662
23.2708 16.263 0.023742
24.2126 18.4758 2
22.3045 19.9181 3.96893
24.6259 21.3595 3.98915
26.5089 23.7534 3.97116
27.0435 21.4842 2
27.4467 18.8196 0.0209395
30.3384 33.0844 3.87249
31.5948 33.8734 2
32.8231 34.1465 0.318445
32.7323 32.3957 0.222392
33.2217 29.8972 0.130158
35.0906 27.5013 0.0828031
32.6205 28.1845 2
31.5635 31.2817 2
30.3128 29.63 3.94718
28.0401 26.5861 3.98705
28.895 24.4619 2
29.6043 21.9644 0.00452668
31.7921 25.7142 -0.00807888
29.7892 27.3427 2
29.0271 37.5175 3.88314
30.4841 37.5055 2
32.3647 37.5115 0.287908
31.2967 47.8995 0.0129084
30.6255 44.8686 0.0718492
30.8493 39.407 0.219365
30.3077 41.9424 0.141023
29.4067 46.5146 2
29.3776 39.872 2
28.9864 43.1253 2
27.5884 44.8082 3.97507
27.1804 40.5924 3.95291
28.0486 48.1255 0.0350212
26.1723 46.5962 2
24.2949 45.1393 3.97615
24.8263 48.415 0.0274679
23.0426 47.0164 2
21.1496 45.8424 3.97834
21.8469 48.7394 0.0302741
20.1709 47.5736 2
18.5012 46.7003 3.97825
19.1946 49.0555 0.0277928
17.8201 48.1459 2
16.4655 47.6874 3.977
16.2598 48.6575 2
15.2949 48.9936 3.97356
17.02 49.3036 0.0271463
15.9512 50.1458 2
14.5576 50.9669 3.96846
13.8586 53.4226 3.96594
15.4414 52.3963 2
16.8708 51.3821 0.0330377
13.264 56.1585 3.96699
14.8876 54.9648 2
16.4347 53.852 0.0355077
12.8531 59.1187 3.97189
14.4687 57.7275 2
15.9912 56.4609 0.0337322
12.6801 62.3003 3.98364
14.2692 60.6857 2
15.7558 59.1981 0.0301976
12.7746 65.6939 4
14.3325 63.8566 2
15.7903 62.1315 0.025059
14.6714 67.2507 2
16.0891 65.2996 0.0101733
16.6661 68.6801 0
17.6764 17.1702 3.97303
18.9371 15.7927 2
17.5131 14.3809 3.97705
20.2217 14.6067 0.0229399
18.9811 13.1156 2
17.6392 11.4587 3.98143
20.5306 12.0039 0.0207832
19.3434 10.2388 2
18.0513 8.34034 3.98979
18.75 5.0241 4
19.9897 7.14824 2
21.1444 9.15055 0.0165792
20.9142 3.86727 2
22.0167 6.08274 0.00948108
23.1494 2.85457 0
29.427 35.1562 3.88396
30.8201 35.5953 2
32.4902 35.7291 0.307667
22.1033 16.6488 0.0259436
20.31 16.9745 0.0191537
21.7906 17.8669 2
19.2597 18.423 2
18.0125 19.962 3.9624
20.8992 19.3985 3.97442
24.2121 18.4749 0.026272
22.3045 19.9178 2
24.6257 21.3605 2
22.4081 21.7497 3.97709
24.7777 23.1973 3.97773
25.6273 25.984 3.97611
26.5107 23.7518 2
27.044 21.4868 0.00862745
28.7181 32.4033 3.93108
30.3071 33.0633 2
31.6182 33.9086 0.22162
31.5991 31.317 0.133744
32.6579 28.2105 0.0715644
30.3072 29.63 2
27.2613 29.1746 4.0059
28.0327 26.5989 2
28.9 24.4457 0.018398
29.793 27.3733 0.028575
27.2927 37.3676 3.93344
28.9748 37.506 2
30.5049 37.5047 0.210279
29.4074 46.5033 -0.00231354
29.0147 43.0989 0.0719693
29.4103 39.8522 0.1184
27.5787 44.8327 2
27.1627 40.598 2
25.6136 43.1174 3.98843
24.4363 39.4516 3.97614
26.1761 46.5941 0.0235186
24.287 45.1403 2
22.1816 43.8928 3.97816
23.0433 47.0172 0.0257177
21.1473 45.8415 2
19.2034 44.9318 3.97787
20.1717 47.5748 0.0230338
18.5019 46.6992 2
16.7853 46.1849 3.97719
17.8186 48.147 0.0237216
16.4668 47.6866 2
15.0417 47.6485 3.97496
16.2588 48.6582 0.0240174
15.2963 48.993 2
13.8594 49.5293 3.97051
15.9499 50.1465 0.0296067
14.5585 50.9665 2
12.9289 51.8634 3.96693
12.1508 54.5207 3.96717
13.8583 53.4225 2
15.4402 52.3967 0.0335197
11.5387 57.4525 3.97117
13.2645 56.1585 2
14.8884 54.9648 0.0348564
11.135 60.6259 3.98122
12.8536 59.1184 2
14.4681 57.7274 0.0330461
10.9835 64.0165 4
12.6783 62.2977 2
14.2693 60.6852 0.0261306
12.7745 65.694 2
14.3343 63.8582 0.013536
14.6715 67.2507 0
16.4183 18.6683 3.96474
17.6766 17.1694 2
16.1058 15.7912 3.97448
18.9367 15.7932 0.0215068
17.5134 14.3802 2
16.0211 12.8131 3.97942
18.9809 13.1158 0.022081
17.6391 11.4583 2
16.2025 9.66346 3.98936
19.3436 10.239 0.0172982
18.0498 8.34155 2
16.6661 6.31991 4
18.75 5.02404 2
19.9912 7.14744 0.00990521
20.9142 3.86727 0
27.8231 34.8001 3.92508
29.394 35.1406 2
30.8671 35.6212 0.216836
16.7253 21.3968 3.96541
21.7898 17.8676 0.0202664
19.2592 18.4242 0.0266107
20.8995 19.3975 2
18.013 19.9611 2
19.7779 21.5988 3.97069
22.3045 19.9181 0.0310654
24.6259 21.3595 0.0108511
22.4081 21.7496 2
24.7781 23.1966 2
22.973 24.6335 3.97271
24.8024 28.566 3.97834
25.6251 25.9818 2
26.5089 23.7534 0.0288428
26.5659 31.7578 3.98297
28.6903 32.3798 2
30.3384 33.0844 0.127507
30.3128 29.63 0.0528245
27.2831 29.1575 2
28.0401 26.5861 0.0129538
25.1223 36.8593 3.98263
27.2769 37.359 2
29.0271 37.5175 0.116855
27.5884 44.8082 0.0249254
27.1804 40.5924 0.0470904
25.5971 43.1287 2
24.4202 39.4519 2
23.3307 41.8128 3.98004
22.1538 38.5205 3.9778
24.2949 45.1393 0.0238493
22.18 43.893 2
20.0256 42.864 3.9769
21.1496 45.8424 0.0216629
19.2034 44.9318 2
17.1556 44.3512 3.97719
18.5012 46.7003 0.0217497
16.7869 46.1842 2
14.9839 46.0691 3.97539
16.4655 47.6874 0.0229981
15.0429 47.648 2
13.3775 47.9927 3.97208
15.2949 48.9936 0.0264387
13.8605 49.5289 2
12.1512 50.243 3.96783
14.5576 50.9669 0.0315434
12.9292 51.8631 2
11.1461 52.8322 3.96724
10.3292 55.7073 3.9712
12.1514 54.5206 2
13.8586 53.4226 0.034065
9.70173 58.8481 3.97987
11.5391 57.4521 2
13.264 56.1585 0.033014
9.30605 62.2254 4
11.1334 60.6227 2
12.8531 59.1187 0.0281142
10.9835 64.0165 2
12.6801 62.3003 0.0163623
12.7746 65.6939 0
15.1654 20.2003 3.96542
16.4187 18.6679 2
14.7567 17.3179 3.96816
17.6764 17.1702 0.026967
16.1061 15.7901 2
14.4843 14.2963 3.97737
17.5131 14.3809 0.022947
16.0211 12.8123 2
14.4453 11.1148 3.98846
17.6392 11.4587 0.0185712
16.2009 9.665 2
14.6715 7.74927 4
18.0513 8.34034 0.0102127
16.6661 6.31988 2
18.75 5.0241 0
25.7825 34.2896 3.99014
27.8012 34.8091 2
29.427 35.1562 0.11604
17.9242 22.3469 3.9698
15.5796 22.9377 3.96781
16.726 21.3967 2
20.8992 19.3985 0.0255784
18.0125 19.962 0.0375958
19.7782 21.5984 2
19.7998 24.4147 3.97037
22.4081 21.7497 0.0229143
24.7777 23.1973 0.0222732
22.9724 24.6332 2
22.1703 27.8663 3.97272
24.1226 31.2377 3.97656
24.8169 28.5659 2
25.6273 25.984 0.0238876
26.549 31.7301 2
28.7181 32.4033 0.0689241
27.2613 29.1746 -0.00590392
22.8751 36.2876 3.98229
25.1054 36.8603 2
27.2927 37.3676 0.0665602
25.6136 43.1174 0.0115749
24.4363 39.4516 0.0238628
23.3208 41.8116 2
22.1463 38.5189 2
21.0569 40.6371 3.97572
20.4501 37.8027 3.97697
22.1816 43.8928 0.0218403
20.0245 42.8647 2
17.6146 42.0728 3.97654
19.2034 44.9318 0.0221328
17.1573 44.351 2
15.0142 44.1799 3.97585
16.7853 46.1849 0.0228149
14.985 46.0687 2
13.0653 46.2807 3.9732
15.0417 47.6485 0.0250417
13.3785 47.9923 2
11.5286 48.5407 3.96865
13.8594 49.5293 0.0294895
12.1518 50.2427 2
10.2718 51.0774 3.96708
12.9289 51.8634 0.0330726
11.1467 52.832 2
9.23806 53.8873 3.97083
8.38513 56.9814 3.98039
10.3297 55.7067 2
12.1508 54.5207 0.0328325
7.74927 60.3285 4
9.70053 58.8447 2
11.5387 57.4525 0.0288286
9.306 62.2255 2
11.135 60.6259 0.0187839
10.9835 64.0165 0
13.9857 21.7653 3.96548
15.1662 20.2003 2
13.4607 18.9139 3.96711
16.4183 18.6683 0.0352554
14.7572 17.317 2
13.0318 15.8913 3.97336
16.1058 15.7912 0.0255242
14.4843 14.2952 2
12.7829 12.6885 3.98666
16.0211 12.8131 0.0205799
14.4437 11.1167 2
12.7746 9.30605 4
16.2025 9.66346 0.0106379
14.6715 7.74924 2
16.6661 6.31991 0
23.4598 33.8309 3.98382
25.7586 34.2807 2
27.8231 34.8001 0.074921
17.7379 24.0697 3.9702
17.925 22.3468 2
14.4027 24.4708 3.96946
15.5808 22.9379 2
16.7253 21.3968 0.0345936
19.2517 27.2417 3.97193
19.7779 21.5988 0.0293079
19.7977 24.4145 2
21.4968 30.708 3.97524
22.973 24.6335 0.0272942
22.1795 27.8676 2
24.104 31.2355 2
24.8024 28.566 0.021664
26.5659 31.7578 0.0170251
20.572 35.9519 3.9771
22.8742 36.2843 2
25.1223 36.8593 0.0173664
23.3307 41.8128 0.0199618
22.1538 38.5205 0.022196
21.063 40.6363 2
20.453 37.802 2
18.3573 39.0064 3.97731
20.0256 42.864 0.0230982
17.6158 42.0728 2
14.9979 41.9003 3.97684
17.1556 44.3512 0.0228092
15.0158 44.1794 2
12.825 44.3789 3.97383
14.9839 46.0691 0.0246079
13.0664 46.2804 2
11.0372 46.7252 3.96931
13.3775 47.9927 0.0279204
11.5292 48.5404 2
9.53598 49.2379 3.96689
12.1512 50.243 0.0321691
10.2722 51.0771 2
8.27095 52.0012 3.97049
11.1461 52.8322 0.0327565
9.23853 53.8865 2
7.1941 55.0322 3.98115
6.31991 58.3339 4
8.38424 56.978 2
10.3292 55.7073 0.0287978
7.74924 60.3285 2
9.70173 58.8481 0.0201331
9.30605 62.2254 0
13.2984 25.3786 3.97217
12.8684 23.2938 3.96704
13.9852 21.7651 2
12.2456 20.5589 3.96746
15.1654 20.2003 0.0345814
13.4617 18.9137 2
11.6636 17.5728 3.97129
14.7567 17.3179 0.0318351
13.0322 15.8907 2
11.2209 14.3743 3.98311
14.4843 14.2963 0.0226324
12.7811 12.6908 2
10.9835 10.9835 4
14.4453 11.1148 0.0115425
12.7745 9.306 2
14.6715 7.74927 0
20.9307 33.4366 3.97588
23.4614 33.8383 2
25.7825 34.2896 0.00985807
16.0586 26.429 3.97191
17.7383 24.0698 2
17.9242 22.3469 0.0301961
14.4027 24.471 2
15.5796 22.9377 0.0321852
18.6297 30.2104 3.9749
19.2507 27.2419 2
19.7998 24.4147 0.0296284
21.4987 30.7083 2
22.1703 27.8663 0.0272808
24.1226 31.2377 0.0234433
17.9686 35.9838 3.97814
20.5719 35.954 2
22.8751 36.2876 0.0177111
21.0569 40.6371 0.0242768
20.4501 37.8027 0.0230256
18.3565 39.0061 2
14.5046 39.1711 3.97762
17.6146 42.0728 0.0234552
14.9993 41.8998 2
12.5243 42.2675 3.97435
15.0142 44.1799 0.0241522
12.8262 44.3786 2
10.6242 44.7949 3.9699
13.0653 46.2807 0.0267966
11.0377 46.725 2
8.91961 47.3172 3.96678
11.5286 48.5407 0.0313476
9.53614 49.2376 2
7.43781 50.0349 3.96997
10.2718 51.0774 0.0329179
8.2713 52.0005 2
6.13476 53.0074 3.98152
9.23806 53.8873 0.0291665
7.19356 55.0294 2
5.0241 56.25 4
6.31988 58.3339 2
8.38513 56.9814 0.019608
7.74927 60.3285 0
13.5639 26.8326 3.97169
11.9755 24.7986 3.9687
13.2977 25.3787 2
11.1489 22.2404 3.96703
12.8688 23.2939 2
13.9857 21.7653 0.0345172
12.2466 20.5589 2
10.3942 19.3248 3.97169
13.4607 18.9139 0.0328868
11.6644 17.5729 2
9.76232 16.1587 3.98004
13.0318 15.8913 0.0266411
11.2191 14.3774 2
9.30607 12.7746 4
12.7829 12.6885 0.0133438
10.9835 10.9835 2
12.7746 9.30605 0
18.1419 33.1448 3.97725
20.933 33.4371 2
23.4598 33.8309 0.0161816
15.6834 29.6638 3.97429
16.0581 26.4294 2
17.7379 24.0697 0.0297957
14.4027 24.4708 0.0305361
18.6274 30.2105 2
19.2517 27.2417 0.028066
21.4968 30.708 0.0247642
15.1217 36.0334 3.97788
17.9708 35.984 2
20.572 35.9519 0.0229047
12.7469 37.8308 3.97757
18.3573 39.0064 0.022687
14.5054 39.171 2
12.0303 40.136 3.97513
14.9979 41.9003 0.0231629
12.5252 42.2673 2
10.231 42.7718 3.97032
12.825 44.3789 0.0261731
10.6246 44.7947 2
8.39874 45.3192 3.96699
11.0372 46.7252 0.0306861
8.91946 47.3169 2
6.72903 48.0002 3.96958
9.53598 49.2379 0.0331136
7.438 50.0343 2
5.21158 50.9109 3.98128
8.27095 52.0012 0.0295066
6.13449 53.0055 2
3.86727 54.0858 4
7.1941 55.0322 0.0188513
5.02404 56.25 2
6.31991 58.3339 0
13.0392 29.0504 3.97122
11.419 26.4984 3.96901
13.5632 26.8327 2
10.2074 23.9716 3.96717
11.9764 24.7989 2
13.2984 25.3786 0.0278349
9.24682 21.1416 3.97042
11.1498 22.2406 2
12.8684 23.2938 0.0329644
12.2456 20.5589 0.032537
10.3952 19.3252 2
8.418 18.0297 3.98009
11.6636 17.5728 0.0287103
9.76102 16.1625 2
7.74928 14.6715 4
11.2209 14.3743 0.0168868
9.30602 12.7745 2
10.9835 10.9835 0
14.6791 32.8823 3.97651
18.1399 33.1452 2
20.9307 33.4366 0.0241171
15.6846 29.6643 2
16.0586 26.429 0.0280903
18.6297 30.2104 0.0251048
13.0394 36.2157 3.97698
15.1226 36.0336 2
17.9686 35.9838 0.0218631
12.7486 37.8308 2
11.374 38.3092 3.97524
14.5046 39.1711 0.0223781
12.0318 40.1358 2
9.81639 40.7506 3.97103
12.5243 42.2675 0.025647
10.232 42.7716 2
7.9482 43.2684 3.96732
10.6242 44.7949 0.0301034
8.39879 45.319 2
6.13506 45.9054 3.9694
8.91961 47.3172 0.0332231
6.72917 47.9997 2
4.4231 48.7516 3.98063
7.43781 50.0349 0.0300267
5.21146 50.9098 2
2.85457 51.8506 4
6.13476 53.0074 0.0184795
3.86727 54.0858 2
5.0241 56.25 0
12.1847 31.2709 3.97246
10.8415 28.4256 3.96923
13.0406 29.0508 2
9.42407 25.8012 3.96726
11.4193 26.4986 2
13.5639 26.8326 0.0283133
8.23345 23.025 3.97039
10.208 23.9718 2
11.9755 24.7986 0.0312997
7.20011 19.9794 3.98056
9.2477 21.1422 2
11.1489 22.2404 0.032975
10.3942 19.3248 0.0283148
8.41723 18.0335 2
6.31992 16.6661 4
9.76232 16.1587 0.0199648
7.74926 14.6714 2
9.30607 12.7746 0
12.2089 34.3044 3.97662
14.6802 32.8827 2
18.1419 33.1448 0.0227515
15.6834 29.6638 0.0257075
10.931 36.6136 3.97449
13.0405 36.2157 2
15.1217 36.0334 0.0221234
12.7469 37.8308 0.022433
11.3755 38.3091 2
9.40707 38.8222 3.97126
12.0303 40.136 0.0248714
9.81728 40.7504 2
7.55928 41.2104 3.96772
10.231 42.7718 0.0296775
7.94764 43.2682 2
5.64694 43.7683 3.96934
8.39874 45.3192 0.0330103
6.13519 45.9049 2
3.76866 46.5372 3.9802
6.72903 48.0002 0.0304201
4.42317 48.7511 2
1.99014 49.554 4
5.21158 50.9109 0.0187161
2.85451 51.8506 2
3.86727 54.0858 0
11.0139 32.9287 3.97437
10.1599 30.3914 3.9697
12.186 31.2712 2
8.73496 27.7349 3.96727
10.8422 28.4258 2
13.0392 29.0504 0.0287762
7.35881 24.9835 3.97006
9.4243 25.8015 2
11.419 26.4984 0.0309868
6.11702 22.0025 3.98138
8.23405 23.0256 2
10.2074 23.9716 0.0328254
5.02411 18.75 4
7.19976 19.9825 2
9.24682 21.1416 0.0295797
8.418 18.0297 0.0199095
6.3199 16.6661 2
7.74928 14.6715 0
10.531 35.005 3.97437
12.2107 34.3046 2
14.6791 32.8823 0.0234911
9.07149 36.9859 3.97169
10.9324 36.6136 2
13.0394 36.2157 0.023018
11.374 38.3092 0.0247574
9.40835 38.822 2
7.23881 39.182 3.96815
9.81639 40.7506 0.0289661
7.5594 41.2102 2
5.26207 41.614 3.96923
7.9482 43.2684 0.0326828
5.64701 43.7679 2
3.24637 44.2819 3.98015
6.13506 45.9054 0.0306016
3.76882 46.5369 2
1.27781 47.2057 4
4.4231 48.7516 0.0193744
1.99012 49.554 2
2.85457 51.8506 0
10.1661 33.8878 3.97485
9.44327 32.1613 3.97042
11.0153 32.9289 2
8.08367 29.6981 3.96751
10.1607 30.3916 2
12.1847 31.2709 0.0275422
6.6024 27.0092 3.96981
8.73473 27.735 2
10.8415 28.4256 0.0307682
5.17238 24.0951 3.98138
7.35911 24.984 2
9.42407 25.8012 0.0327358
3.86728 20.9142 4
6.1169 22.0044 2
8.23345 23.025 0.0296096
5.02406 18.75 2
7.20011 19.9794 0.0194444
6.31992 16.6661 0
8.89171 35.2823 3.9718
10.532 35.0051 2
12.2089 34.3044 0.0233774
7.01996 37.2064 3.96808
9.0722 36.9858 2
10.931 36.6136 0.0255065
9.40707 38.8222 0.0287379
7.23927 39.1819 2
4.98958 39.4674 3.9695
7.55928 41.2104 0.0322784
5.26246 41.6137 2
2.85681 42.0022 3.98012
5.64694 43.7683 0.0306595
3.24643 44.2817 2
0.720592 44.8159 4
3.76866 46.5372 0.0197984
1.27778 47.2057 2
1.99014 49.554 0
8.93076 33.7023 3.97154
10.1672 33.888 2
7.51979 31.6112 3.96774
9.44429 32.1615 2
11.0139 32.9287 0.02563
5.94739 29.0701 3.96985
8.08319 29.6983 2
10.1599 30.3914 0.0303042
4.36006 26.2475 3.98085
6.60251 27.0096 2
8.73496 27.7349 0.0327289
2.85458 23.1494 4
5.17238 24.0959 2
7.35881 24.9835 0.0299446
3.86728 20.9142 2
6.11702 22.0025 0.018617
5.02411 18.75 0
6.96846 35.307 3.96805
8.89247 35.2823 2
10.531 35.005 0.0256318
4.83969 37.3399 3.96991
7.02022 37.2064 2
9.07149 36.9859 0.0283083
7.23881 39.182 0.0318488
4.98996 39.4673 2
2.60483 39.7138 3.98014
5.26207 41.614 0.030772
2.85713 42.0022 2
0.320823 42.3947 4
3.24637 44.2819 0.0198458
0.720551 44.8159 2
1.27781 47.2057 0
7.13021 33.4624 3.96794
8.93127 33.7024 2
10.1661 33.8878 0.02515
5.41809 31.1339 3.97003
7.51962 31.6113 2
9.44327 32.1613 0.0295804
3.68172 28.4434 3.98044
5.94746 29.0705 2
8.08367 29.6981 0.0324941
1.99015 25.446 4
4.36012 26.2478 2
6.6024 27.0092 0.0301872
2.85453 23.1494 2
5.17238 24.0951 0.0186245
3.86728 20.9142 0
4.854 35.2517 3.97005
6.96858 35.3071 2
8.89171 35.2823 0.0281997
2.49625 37.4284 3.98078
4.83971 37.3399 2
7.01996 37.2064 0.0319158
4.98958 39.4674 0.0305027
2.60522 39.7142 2
0.080333 39.9526 4
2.85681 42.0022 0.0198768
0.320817 42.3947 2
0.720592 44.8159 0
5.04742 33.1904 3.97006
7.13008 33.4625 2
8.93076 33.7023 0.028465
3.14596 30.6661 3.98037
5.41819 31.1343 2
7.51979 31.6112 0.0322576
1.27793 27.7943 4
3.68188 28.4436 2
5.94739 29.0701 0.0301464
1.99013 25.446 2
4.36006 26.2475 0.0191489
2.85458 23.1494 0
2.54835 35.159 3.98062
4.85447 35.2519 2
6.96846 35.307 0.0319535
0 37.5 4
2.49628 37.4289 2
4.83969 37.3399 0.0300932
2.60483 39.7138 0.0198596
0.0802903 39.9526 2
0.320823 42.3947 0
2.76598 32.9057 3.98073
5.04756 33.1908 2
7.13021 33.4624 0.0320552
0.721173 30.1842 4
3.14616 30.6665 2
5.41809 31.1339 0.0299706
1.27779 27.7943 2
3.68172 28.4434 0.0195551
1.99015 25.446 0
0.0806499 35.0474 4
2.54882 35.1594 2
4.854 35.2517 0.0299473
0 37.5 2
2.49625 37.4284 0.0192207
0.080333 39.9526 0
0.32156 32.6054 4
2.76608 32.9063 2
5.04742 33.1904 0.0299412
0.72056 30.1841 2
3.14596 30.6661 0.0196347
1.27793 27.7943 0
0.0802889 35.0474 2
2.54835 35.159 0.0193764
0 37.5 0
0.320817 32.6053 2
2.76598 32.9057 0.019269
0.721173 30.1842 0
0.0806499 35.0474 0
0.32156 32.6054 0
CELLS 1910 17190
8 18 6 25 56 2 0 5 16
8 57 23 6 18 17 4 0 2
8 78 36 9 29 31 11 1 7
8 31 11 1 7 79 37 10 30
8 110 57 18 50 48 17 2 14
8 50 18 56 111 14 2 16 49
8 116 62 22 55 52 20 3 15
8 56 25 67 118 16 5 24 53
8 119 63 23 57 54 21 4 17
8 55 22 63 119 15 3 21 54
8 58 26 68 121 18 6 25 56
8 122 65 26 58 57 23 6 18
8 73 31 7 27 142 79 30 71
8 143 78 29 72 73 31 7 27
8 83 147 76 34 32 74 28 8
8 84 148 78 36 33 75 29 9
8 76 34 8 28 148 84 33 75
8 37 79 150 86 10 30 77 35
8 151 87 36 78 80 38 11 31
8 80 38 11 31 152 88 37 79
8 175 100 42 94 96 44 12 40
8 44 96 176 101 12 40 95 43
8 101 176 98 46 43 95 41 13
8 46 98 178 103 13 41 97 45
8 178 103 45 97 147 83 32 74
8 189 116 55 109 106 52 15 47
8 111 56 118 191 49 16 53 107
8 192 119 57 110 108 54 17 48
8 109 55 119 192 47 15 54 108
8 194 122 58 112 110 57 18 50
8 112 58 121 195 50 18 56 111
8 115 61 19 51 197 124 59 113
8 115 61 125 198 51 19 60 114
8 198 125 62 116 114 60 20 52
8 200 127 64 120 116 62 22 55
8 118 67 132 202 53 24 66 117
8 121 68 133 203 56 25 67 118
8 120 64 128 204 55 22 63 119
8 204 128 65 122 119 63 23 57
8 206 134 68 121 123 69 26 58
8 123 69 26 58 207 131 65 122
8 226 147 74 138 140 76 28 70
8 229 148 75 139 143 78 29 72
8 140 76 28 70 229 148 75 139
8 142 79 30 71 231 150 77 141
8 144 80 31 73 232 152 79 142
8 233 151 78 143 144 80 31 73
8 150 86 35 77 235 154 81 145
8 235 154 81 145 146 82 39 91
8 146 82 39 91 236 155 90 165
8 238 157 83 147 149 85 34 76
8 239 158 84 148 151 87 36 78
8 149 85 34 76 239 158 84 148
8 152 88 37 79 241 160 86 150
8 242 161 87 151 153 89 38 80
8 153 89 38 80 243 162 88 152
8 171 98 41 92 265 178 97 169
8 265 178 97 169 226 147 74 138
8 172 96 40 93 266 176 95 170
8 266 176 95 170 171 98 41 92
8 269 175 94 173 172 96 40 93
8 271 180 99 174 175 100 42 94
8 197 124 59 113 271 180 99 174
8 272 181 100 175 177 102 44 96
8 273 182 101 176 179 104 46 98
8 177 102 44 96 273 182 101 176
8 179 104 46 98 275 184 103 178
8 275 184 103 178 238 157 83 147
8 188 115 51 105 283 197 113 186
8 188 115 198 284 105 51 114 187
8 284 198 116 189 187 114 52 106
8 286 200 120 193 189 116 55 109
8 191 118 202 288 107 53 117 190
8 195 121 203 289 111 56 118 191
8 193 120 204 290 109 55 119 192
8 290 204 122 194 192 119 57 110
8 196 123 58 112 292 207 122 194
8 293 206 121 195 196 123 58 112
8 199 126 61 115 297 211 124 197
8 298 212 127 200 198 125 62 116
8 199 126 212 298 115 61 125 198
8 205 129 64 120 300 214 127 200
8 301 217 130 201 202 132 66 117
8 209 136 168 264 301 217 130 201
8 302 219 132 202 203 133 67 118
8 303 220 133 203 206 134 68 121
8 205 129 215 304 120 64 128 204
8 304 215 131 207 204 128 65 122
8 306 221 134 206 208 135 69 123
8 208 135 69 123 307 218 131 207
8 210 137 167 263 309 223 136 209
8 328 238 147 226 230 149 76 140
8 228 146 91 166 329 236 165 260
8 231 150 77 141 330 235 145 227
8 330 235 145 227 228 146 91 166
8 332 239 148 229 233 151 78 143
8 230 149 76 140 332 239 148 229
8 232 152 79 142 334 241 150 231
8 234 153 80 144 335 243 152 232
8 336 242 151 233 234 153 80 144
8 236 155 90 165 338 245 164 259
8 241 160 86 150 339 246 154 235
8 339 246 154 235 237 156 82 146
8 237 156 82 146 340 247 155 236
8 342 249 157 238 240 159 85 149
8 343 250 158 239 242 161 87 151
8 240 159 85 149 343 250 158 239
8 243 162 88 152 345 252 160 241
8 244 163 253 346 153 89 161 242
8 244 163 89 153 347 254 162 243
8 311 224 261 371 210 137 167 263
8 263 167 262 372 209 136 168 264
8 267 179 98 171 375 275 178 265
8 375 275 178 265 328 238 147 226
8 376 273 176 266 267 179 98 171
8 268 177 96 172 376 273 176 266
8 379 272 175 269 268 177 96 172
8 380 271 174 270 269 175 94 173
8 283 197 113 186 380 271 174 270
8 381 277 180 271 272 181 100 175
8 297 211 124 197 381 277 180 271
8 382 278 181 272 274 183 102 177
8 274 183 102 177 383 279 182 273
8 383 279 182 273 276 185 104 179
8 385 281 184 275 342 249 157 238
8 276 185 104 179 385 281 184 275
8 285 199 115 188 393 297 197 283
8 394 298 200 286 284 198 116 189
8 285 199 298 394 188 115 198 284
8 291 205 120 193 396 300 200 286
8 397 301 201 287 288 202 117 190
8 295 209 264 374 397 301 201 287
8 398 302 202 288 289 203 118 191
8 399 303 203 289 293 206 121 195
8 291 205 304 400 193 120 204 290
8 400 304 207 292 290 204 122 194
8 294 208 123 196 402 307 207 292
8 403 306 206 293 294 208 123 196
8 296 210 263 373 405 309 209 295
8 408 312 213 299 297 211 126 199
8 299 213 313 409 199 126 212 298
8 409 313 214 300 298 212 127 200
8 305 216 129 205 411 315 214 300
8 412 318 217 301 302 219 132 202
8 309 223 136 209 412 318 217 301
8 413 320 219 302 303 220 133 203
8 306 221 321 414 206 134 220 303
8 307 218 131 207 415 316 215 304
8 305 216 316 415 205 129 215 304
8 417 322 221 306 308 222 135 208
8 308 222 135 208 418 319 218 307
8 310 225 137 210 420 325 223 309
8 423 326 224 311 310 225 137 210
8 329 236 165 260 441 338 259 368
8 442 342 238 328 333 240 149 230
8 331 237 146 228 443 340 236 329
8 334 241 150 231 444 339 235 330
8 444 339 235 330 331 237 146 228
8 446 343 239 332 336 242 151 233
8 333 240 149 230 446 343 239 332
8 335 243 152 232 448 345 241 334
8 337 244 153 234 449 347 243 335
8 337 244 346 450 234 153 242 336
8 338 245 164 259 452 349 258 367
8 340 247 155 236 453 350 245 338
8 345 252 160 241 454 351 246 339
8 454 351 246 339 341 248 156 237
8 341 248 156 237 455 352 247 340
8 240 159 251 344 342 249 354 457
8 242 161 253 346 343 250 355 458
8 343 250 355 458 240 159 251 344
8 347 254 162 243 460 357 252 345
8 348 255 358 461 244 163 253 346
8 348 255 163 244 462 359 254 347
8 473 360 257 365 363 256 364 482
8 452 349 258 367 365 257 366 485
8 422 324 369 488 311 224 261 371
8 371 261 370 490 263 167 262 372
8 407 311 371 491 296 210 263 373
8 373 263 372 492 295 209 264 374
8 493 385 275 375 442 342 238 328
8 377 276 179 267 493 385 275 375
8 378 274 177 268 494 383 273 376
8 494 383 273 376 377 276 179 267
8 497 382 272 379 378 274 177 268
8 498 381 271 380 379 272 175 269
8 393 297 197 283 498 381 271 380
8 499 387 277 381 382 278 181 272
8 408 312 211 297 499 387 277 381
8 500 388 278 382 384 280 183 274
8 501 389 279 383 386 282 185 276
8 384 280 183 274 501 389 279 383
8 386 282 185 276 503 391 281 385
8 503 391 281 385 457 354 249 342
8 511 408 299 395 393 297 199 285
8 395 299 409 512 285 199 298 394
8 512 409 300 396 394 298 200 286
8 401 305 205 291 514 411 300 396
8 515 412 301 397 398 302 202 288
8 405 309 209 295 515 412 301 397
8 516 413 302 398 399 303 203 289
8 403 306 414 517 293 206 303 399
8 402 307 207 292 518 415 304 400
8 401 305 415 518 291 205 304 400
8 404 308 208 294 520 418 307 402
8 521 417 306 403 404 308 208 294
8 406 310 210 296 523 420 309 405
8 526 423 311 407 406 310 210 296
8 410 314 213 299 527 424 312 408
8 528 425 315 411 409 313 214 300
8 410 314 425 528 299 213 313 409
8 416 317 216 305 530 427 315 411
8 531 430 318 412 413 320 219 302
8 420 325 223 309 531 430 318 412
8 532 432 320 413 414 321 220 303
8 417 322 433 533 306 221 321 414
8 418 319 218 307 534 428 316 415
8 416 317 428 534 305 216 316 415
8 419 323 434 536 308 222 322 417
8 419 323 222 308 537 431 319 418
8 421 327 225 310 539 438 325 420
8 421 327 439 541 310 225 326 423
8 543 437 324 422 423 326 224 311
8 441 338 259 368 559 452 367 486
8 443 340 236 329 560 453 338 441
8 333 240 344 447 442 342 457 561
8 445 341 237 331 562 455 340 443
8 448 345 241 334 563 454 339 444
8 563 454 339 444 445 341 237 331
8 336 242 346 450 446 343 458 565
8 446 343 458 565 333 240 344 447
8 449 347 243 335 567 460 345 448
8 451 348 244 337 568 462 347 449
8 451 348 461 569 337 244 346 450
8 570 463 349 452 473 360 257 365
8 453 350 245 338 570 463 349 452
8 455 352 247 340 571 464 350 453
8 460 357 252 345 572 465 351 454
8 572 465 351 454 456 353 248 341
8 456 353 248 341 573 466 352 455
8 344 251 356 459 457 354 468 575
8 458 355 469 576 344 251 356 459
8 346 253 358 461 458 355 469 576
8 462 359 254 347 578 471 357 460
8 348 255 359 462 461 358 472 579
8 591 474 360 473 475 361 256 363
8 475 361 256 363 594 477 362 479
8 363 256 364 482 479 362 480 603
8 590 473 365 484 481 363 482 605
8 482 364 257 365 606 483 366 485
8 559 452 367 486 484 365 485 607
8 542 436 487 609 422 324 369 488
8 525 422 488 611 407 311 371 491
8 488 369 489 612 371 261 370 490
8 491 371 490 613 373 263 372 492
8 495 386 276 377 614 503 385 493
8 614 503 385 493 561 457 342 442
8 615 501 383 494 495 386 276 377
8 496 384 274 378 615 501 383 494
8 618 500 382 497 496 384 274 378
8 619 499 381 498 497 382 272 379
8 511 408 297 393 619 499 381 498
8 620 505 387 499 500 388 278 382
8 527 424 312 408 620 505 387 499
8 502 390 506 621 384 280 388 500
8 622 507 389 501 504 392 282 386
8 502 390 280 384 622 507 389 501
8 504 392 282 386 624 509 391 503
8 624 509 391 503 575 468 354 457
8 513 410 299 395 630 527 408 511
8 631 528 411 514 512 409 300 396
8 513 410 528 631 395 299 409 512
8 519 416 305 401 633 530 411 514
8 634 531 412 515 516 413 302 398
8 523 420 309 405 634 531 412 515
8 635 532 413 516 517 414 303 399
8 521 417 533 636 403 306 414 517
8 520 418 307 402 637 534 415 518
8 519 416 534 637 401 305 415 518
8 522 419 308 404 639 537 418 520
8 522 419 536 640 404 308 417 521
8 524 421 310 406 642 539 420 523
8 524 421 541 644 406 310 423 526
8 646 543 422 525 526 423 311 407
8 529 426 314 410 647 544 424 527
8 528 425 545 648 411 315 427 530
8 529 426 545 648 410 314 425 528
8 535 429 317 416 649 546 427 530
8 650 548 430 531 532 432 320 413
8 539 438 325 420 650 548 430 531
8 533 433 550 651 414 321 432 532
8 536 434 551 652 417 322 433 533
8 537 431 319 418 653 547 428 534
8 535 429 547 653 416 317 428 534
8 538 435 552 654 419 323 434 536
8 538 435 323 419 655 549 431 537
8 540 440 327 421 657 556 438 539
8 540 440 557 659 421 327 439 541
8 541 439 555 660 423 326 437 543
8 661 554 436 542 543 437 324 422
8 676 570 452 559 590 473 365 484
8 560 453 338 441 676 570 452 559
8 562 455 340 443 677 571 453 560
8 447 344 459 566 561 457 575 678
8 564 456 341 445 679 573 455 562
8 567 460 345 448 680 572 454 563
8 680 572 454 563 564 456 341 445
8 565 458 576 682 447 344 459 566
8 450 346 461 569 565 458 576 682
8 568 462 347 449 684 578 460 567
8 451 348 462 568 569 461 579 685
8 686 580 463 570 591 474 360 473
8 571 464 350 453 686 580 463 570
8 573 466 352 455 687 581 464 571
8 572 465 582 688 460 357 471 578
8 574 467 582 688 456 353 465 572
8 574 467 353 456 689 583 466 573
8 459 356 470 577 575 468 585 691
8 576 469 586 692 459 356 470 577
8 461 358 472 579 576 469 586 692
8 462 359 471 578 579 472 588 694
8 704 591 473 590 593 475 363 481
8 595 476 592 705 475 361 474 591
8 593 475 363 481 707 594 479 602
8 594 477 362 479 709 598 478 600
8 595 476 361 475 711 597 477 594
8 479 362 480 603 600 478 601 720
8 481 363 482 605 602 479 603 722
8 603 480 364 482 723 604 483 606
8 605 482 365 484 724 606 485 607
8 656 553 608 726 542 436 487 609
8 645 542 609 728 525 422 488 611
8 609 487 610 729 488 369 489 612
8 611 488 612 730 491 371 490 613
8 616 504 386 495 731 624 503 614
8 731 624 503 614 678 575 457 561
8 732 622 501 615 616 504 386 495
8 617 502 384 496 732 622 501 615
8 617 502 621 735 496 384 500 618
8 736 620 499 619 618 500 382 497
8 630 527 408 511 736 620 499 619
8 621 506 626 737 500 388 505 620
8 647 544 424 527 737 626 505 620
8 623 508 627 738 502 390 506 621
8 623 508 390 502 739 628 507 622
8 625 510 628 739 504 392 507 622
8 740 629 509 624 691 585 468 575
8 625 510 392 504 740 629 509 624
8 632 529 410 513 744 647 527 630
8 631 528 648 745 514 411 530 633
8 632 529 648 745 513 410 528 631
8 638 535 416 519 746 649 530 633
8 747 650 531 634 635 532 413 516
8 642 539 420 523 747 650 531 634
8 636 533 651 748 517 414 532 635
8 640 536 652 749 521 417 533 636
8 639 537 418 520 750 653 534 637
8 638 535 653 750 519 416 534 637
8 641 538 419 522 751 655 537 639
8 641 538 654 752 522 419 536 640
8 643 540 421 524 753 657 539 642
8 643 540 659 755 524 421 541 644
8 644 541 660 757 526 423 543 646
8 758 661 542 645 646 543 422 525
8 529 426 544 647 648 545 662 759
8 530 427 545 648 649 546 663 760
8 535 429 546 649 653 547 664 761
8 762 666 548 650 651 550 432 532
8 657 556 438 539 762 666 548 650
8 652 551 668 763 533 433 550 651
8 654 552 669 764 536 434 551 652
8 655 549 431 537 765 665 547 653
8 538 435 549 655 654 552 667 766
8 661 554 671 768 542 436 553 656
8 658 558 440 540 769 674 556 657
8 658 558 675 770 540 440 557 659
8 659 557 673 771 541 439 555 660
8 660 555 672 772 543 437 554 661
8 788 686 570 676 704 591 473 590
8 677 571 453 560 788 686 570 676
8 679 573 455 562 789 687 571 677
8 566 459 577 683 678 575 691 790
8 681 574 456 564 791 689 573 679
8 680 572 688 792 567 460 578 684
8 681 574 688 792 564 456 572 680
8 682 576 692 794 566 459 577 683
8 569 461 579 685 682 576 692 794
8 568 462 578 684 685 579 694 796
8 687 581 464 571 798 696 580 686
8 798 696 580 686 705 592 474 591
8 689 583 466 573 799 697 581 687
8 688 582 698 800 578 471 588 694
8 690 584 698 800 574 467 582 688
8 690 584 467 574 801 699 583 689
8 693 587 701 803 577 470 585 691
8 693 587 470 577 804 702 586 692
8 695 589 702 804 579 472 586 692
8 695 589 472 579 805 703 588 694
8 708 595 705 813 593 475 591 704
8 710 596 706 814 595 476 592 705
8 707 594 479 602 816 709 600 719
8 708 595 475 593 817 711 594 707
8 709 598 478 600 819 715 599 717
8 711 597 477 594 820 714 598 709
8 710 596 476 595 822 713 597 711
8 600 478 601 720 717 599 718 832
8 602 479 603 722 719 600 720 834
8 720 601 480 603 835 721 604 723
8 722 603 482 605 836 723 606 724
8 767 670 725 839 656 553 608 726
8 756 656 726 841 645 542 609 728
8 726 608 727 842 609 487 610 729
8 728 609 729 843 611 488 612 730
8 844 740 624 731 790 691 575 678
8 733 625 504 616 844 740 624 731
8 734 623 502 617 845 739 622 732
8 733 625 739 845 616 504 622 732
8 734 623 738 846 617 502 621 735
8 735 621 737 847 618 500 620 736
8 744 647 527 630 847 737 620 736
8 621 506 627 738 737 626 741 848
8 647 544 626 737 759 662 741 848
8 623 508 628 739 738 627 742 849
8 740 629 585 691 850 743 700 802
8 625 510 629 740 739 628 743 850
8 632 529 647 744 745 648 759 854
8 633 530 648 745 746 649 760 855
8 638 535 649 746 750 653 761 856
8 857 762 650 747 748 651 532 635
8 753 657 539 642 857 762 650 747
8 749 652 763 858 636 533 651 748
8 752 654 764 859 640 536 652 749
8 751 655 537 639 860 765 653 750
8 641 538 655 751 752 654 766 861
8 754 658 540 643 862 769 657 753
8 754 658 770 863 643 540 659 755
8 755 659 771 864 644 541 660 757
8 758 661 768 866 645 542 656 756
8 757 660 772 867 646 543 661 758
8 759 662 773 868 648 545 663 760
8 649 546 663 760 761 664 774 871
8 765 665 547 653 872 775 664 761
8 873 777 666 762 763 668 550 651
8 769 674 556 657 873 777 666 762
8 764 669 779 874 652 551 668 763
8 654 552 667 766 764 669 778 875
8 655 549 665 765 766 667 776 876
8 768 671 782 877 656 553 670 767
8 772 672 783 878 661 554 671 768
8 658 558 674 769 770 675 786 879
8 659 557 675 770 771 673 785 881
8 882 784 672 772 771 673 555 660
8 789 687 571 677 897 798 686 788
8 897 798 686 788 813 705 591 704
8 791 689 573 679 898 799 687 789
8 795 693 803 900 683 577 691 790
8 793 690 574 681 901 801 689 791
8 792 688 800 902 684 578 694 796
8 793 690 800 902 681 574 688 792
8 795 693 577 683 903 804 692 794
8 797 695 804 903 685 579 692 794
8 797 695 579 685 904 805 694 796
8 905 806 697 799 798 696 581 687
8 814 706 806 905 705 592 696 798
8 689 583 697 799 801 699 808 907
8 800 698 809 908 694 588 703 805
8 690 584 699 801 800 698 809 908
8 803 701 810 909 691 585 700 802
8 693 587 702 804 803 701 811 910
8 695 589 703 805 804 702 812 911
8 818 710 814 919 708 595 705 813
8 821 712 815 920 710 596 706 814
8 816 709 600 719 922 819 717 831
8 817 711 594 707 923 820 709 816
8 818 710 595 708 924 822 711 817
8 819 715 599 717 926 827 716 829
8 820 714 598 709 927 826 715 819
8 929 825 713 822 820 714 597 711
8 821 712 596 710 930 824 713 822
8 717 599 718 832 829 716 830 942
8 719 600 720 834 831 717 832 944
8 832 718 601 720 945 833 721 835
8 834 720 603 722 946 835 723 836
8 869 780 838 950 767 670 725 839
8 865 767 839 952 756 656 726 841
8 839 725 840 953 726 608 727 842
8 841 726 842 954 728 609 729 843
8 844 740 691 790 955 850 802 899
8 733 625 740 844 845 739 850 955
8 734 623 739 845 846 738 849 956
8 735 621 738 846 847 737 848 957
8 744 647 737 847 854 759 848 957
8 738 627 742 849 848 741 851 958
8 848 741 851 958 759 662 773 868
8 850 743 700 802 959 852 807 906
8 849 742 628 739 959 852 743 850
8 854 759 868 965 745 648 760 855
8 746 649 760 855 856 761 871 966
8 860 765 653 750 967 872 761 856
8 968 873 762 857 858 763 651 748
8 862 769 657 753 968 873 762 857
8 859 764 874 969 749 652 763 858
8 752 654 766 861 859 764 875 970
8 751 655 765 860 861 766 876 971
8 754 658 769 862 863 770 879 972
8 755 659 770 863 864 771 881 974
8 976 882 772 867 864 771 660 757
8 866 768 877 977 756 656 767 865
8 867 772 878 978 758 661 768 866
8 760 663 773 868 871 774 883 980
8 870 781 837 948 982 890 780 869
8 982 890 780 869 877 782 670 767
8 761 664 774 871 872 775 884 984
8 876 776 665 765 985 885 775 872
8 873 777 668 763 986 887 779 874
8 769 674 777 873 879 786 887 986
8 764 669 778 875 874 779 888 987
8 766 667 776 876 875 778 886 988
8 878 783 892 989 768 671 782 877
8 878 783 672 772 990 893 784 882
8 880 787 675 770 991 896 786 879
8 880 787 895 992 770 675 785 881
8 881 785 894 993 771 673 784 882
8 1006 905 799 898 897 798 687 789
8 919 814 905 1006 813 705 798 897
8 791 689 799 898 901 801 907 1007
8 900 803 909 1009 790 691 802 899
8 795 693 804 903 900 803 910 1010
8 902 800 908 1011 796 694 805 904
8 793 690 801 901 902 800 908 1011
8 797 695 805 904 903 804 911 1012
8 799 697 806 905 907 808 912 1013
8 920 815 912 1013 814 706 806 905
8 802 700 810 909 906 807 913 1014
8 801 699 808 907 908 809 914 1015
8 805 703 809 908 911 812 915 1016
8 803 701 811 910 909 810 916 1017
8 911 812 917 1018 804 702 811 910
8 925 821 920 1030 818 710 814 919
8 928 823 921 1031 821 712 815 920
8 922 819 717 831 1033 926 829 941
8 923 820 709 816 1034 927 819 922
8 1035 929 822 924 923 820 711 817
8 925 821 710 818 1036 930 822 924
8 1038 933 825 929 927 826 714 820
8 926 827 716 829 1039 935 828 939
8 927 826 715 819 1040 934 827 926
8 928 823 712 821 1041 931 824 930
8 1042 932 824 930 929 825 713 822
8 829 716 830 942 939 828 940 1058
8 831 717 832 944 941 829 942 1060
8 942 830 718 832 1061 943 833 945
8 944 832 720 834 1062 945 835 946
8 981 889 947 1064 870 781 837 948
8 948 837 949 1067 869 780 838 950
8 975 869 950 1069 865 767 839 952
8 950 838 951 1070 839 725 840 953
8 952 839 953 1071 841 726 842 954
8 955 850 802 899 1072 959 906 1008
8 956 849 739 845 1072 959 850 955
8 846 738 849 956 957 848 958 1073
8 957 848 958 1073 854 759 868 965
8 849 742 852 959 958 851 961 1076
8 960 853 961 1076 906 807 852 959
8 958 851 961 1076 868 773 883 980
8 960 853 807 906 1077 963 913 1014
8 855 760 868 965 966 871 980 1085
8 856 761 871 966 967 872 984 1086
8 971 876 765 860 1087 985 872 967
8 968 873 763 858 1088 986 874 969
8 862 769 873 968 972 879 986 1088
8 859 764 875 970 969 874 987 1089
8 861 766 876 971 970 875 988 1090
8 973 880 770 863 1091 991 879 972
8 973 880 992 1092 863 770 881 974
8 974 881 993 1093 864 771 882 976
8 979 870 948 1066 1094 982 869 975
8 1094 982 869 975 977 877 767 865
8 978 878 772 867 1095 990 882 976
8 978 878 989 1096 866 768 877 977
8 871 774 883 980 984 884 994 1099
8 983 891 999 1100 870 781 889 981
8 1101 1000 890 982 989 892 782 877
8 983 891 781 870 1101 1000 890 982
8 872 775 884 984 985 885 995 1103
8 876 776 885 985 988 886 996 1104
8 986 887 779 874 1105 998 888 987
8 879 786 887 986 991 896 998 1105
8 875 778 886 988 987 888 997 1106
8 990 893 1002 1107 878 783 892 989
8 1108 1003 893 990 993 894 784 882
8 880 787 896 991 992 895 1005 1109
8 993 894 785 881 1110 1004 895 992
8 898 799 905 1006 1007 907 1013 1120
8 1030 920 1013 1120 919 814 905 1006
8 901 801 907 1007 1011 908 1015 1121
8 899 802 909 1009 1008 906 1014 1122
8 900 803 910 1010 1009 909 1017 1123
8 1012 911 1018 1124 903 804 910 1010
8 904 805 908 1011 1012 911 1016 1125
8 1013 912 1020 1127 907 808 914 1015
8 1031 921 1020 1127 920 815 912 1013
8 1019 918 962 1075 1128 1021 913 1014
8 1128 1021 913 1014 1017 916 810 909
8 1015 914 1022 1129 908 809 915 1016
8 1016 915 1023 1130 911 812 917 1018
8 1018 917 1024 1131 910 811 916 1017
8 1037 928 1031 1148 925 821 920 1030
8 928 823 931 1041 1031 921 1032 1149
8 1033 926 829 941 1151 1039 939 1057
8 1034 927 819 922 1152 1040 926 1033
8 1153 1038 929 1035 1034 927 820 923
8 1154 1042 930 1036 1035 929 822 924
8 1037 928 821 925 1155 1041 930 1036
8 1039 935 828 939 1156 1047 938 1055
8 1157 1043 932 1042 1038 933 825 929
8 1038 933 826 927 1158 1045 934 1040
8 1040 934 827 926 1159 1046 935 1039
8 930 824 932 1042 1041 931 1044 1160
8 1051 936 1048 1165 1175 1052 937 1053
8 1156 1047 938 1055 1053 937 1054 1178
8 939 828 940 1058 1055 938 1056 1181
8 941 829 942 1060 1057 939 1058 1183
8 942 830 943 1061 1058 940 1059 1184
8 1060 942 832 944 1185 1061 945 1062
8 1082 964 1063 1188 981 889 947 1064
8 1097 981 1064 1190 979 870 948 1066
8 1064 947 1065 1191 948 837 949 1067
8 1066 948 1067 1193 975 869 950 1069
8 1067 949 1068 1194 950 838 951 1070
8 1069 950 1070 1195 952 839 953 1071
8 956 849 959 1072 1073 958 1076 1197
8 1074 960 1076 1197 1008 906 959 1072
8 1073 958 1076 1197 965 868 980 1085
8 1074 960 906 1008 1198 1077 1014 1122
8 1133 1026 1079 1199 1019 918 962 1075
8 1077 963 913 1014 1200 1080 962 1075
8 960 853 963 1077 1076 961 1078 1201
8 980 883 961 1076 1099 994 1078 1201
8 1210 1083 964 1082 1100 999 889 981
8 966 871 980 1085 1086 984 1099 1215
8 967 872 984 1086 1087 985 1103 1216
8 971 876 985 1087 1090 988 1104 1217
8 1088 986 874 969 1218 1105 987 1089
8 972 879 986 1088 1091 991 1105 1218
8 970 875 988 1090 1089 987 1106 1219
8 973 880 991 1091 1092 992 1109 1220
8 1093 993 881 974 1221 1110 992 1092
8 1222 1108 990 1095 1093 993 882 976
8 1223 1101 982 1094 1096 989 877 977
8 1098 983 870 979 1223 1101 982 1094
8 1095 990 1107 1224 978 878 989 1096
8 1098 983 1100 1225 979 870 981 1097
8 984 884 994 1099 1103 995 1111 1227
8 1102 1001 1115 1228 983 891 999 1100
8 1101 1000 892 989 1229 1116 1002 1107
8 1102 1001 891 983 1229 1116 1000 1101
8 985 885 995 1103 1104 996 1112 1230
8 988 886 996 1104 1106 997 1113 1231
8 1105 998 888 987 1232 1114 997 1106
8 991 896 998 1105 1109 1005 1114 1232
8 1108 1003 1117 1233 990 893 1002 1107
8 1108 1003 894 993 1233 1117 1004 1110
8 992 895 1005 1109 1110 1004 1118 1234
8 1120 1013 1127 1244 1007 907 1015 1121
8 1148 1031 1127 1244 1030 920 1013 1120
8 1121 1015 1129 1245 1011 908 1016 1125
8 1126 1019 1075 1196 1246 1128 1014 1122
8 1246 1128 1014 1122 1123 1017 909 1009
8 1124 1018 1131 1247 1010 910 1017 1123
8 1125 1016 1130 1248 1012 911 1018 1124
8 1127 1020 1137 1254 1015 914 1022 1129
8 1031 921 1032 1149 1127 1020 1137 1254
8 1134 1027 918 1019 1257 1140 1021 1128
8 1257 1140 1021 1128 1131 1024 916 1017
8 1129 1022 1141 1258 1016 915 1023 1130
8 1130 1023 1142 1259 1018 917 1024 1131
8 1261 1144 1025 1132 1133 1026 1079 1199
8 1255 1138 1025 1132 1135 1028 1144 1261
8 1133 1026 918 1019 1262 1145 1027 1134
8 1136 1029 1139 1256 1263 1146 1028 1135
8 1037 928 1041 1155 1148 1031 1149 1275
8 1041 931 1044 1160 1149 1032 1150 1276
8 1151 1039 939 1057 1278 1156 1055 1180
8 1152 1040 926 1033 1279 1159 1039 1151
8 1153 1038 927 1034 1280 1158 1040 1152
8 1281 1157 1042 1154 1153 1038 929 1035
8 1036 930 1042 1154 1155 1041 1160 1282
8 1283 1164 1046 1159 1156 1047 935 1039
8 1165 1048 1164 1283 1053 937 1047 1156
8 1157 1043 933 1038 1284 1161 1045 1158
8 1157 1043 1161 1284 1042 932 1044 1160
8 1040 934 1046 1159 1158 1045 1163 1285
8 1166 1049 1167 1292 1051 936 1048 1165
8 1166 1049 936 1051 1293 1168 1050 1172
8 1051 936 1052 1175 1172 1050 1173 1306
8 1174 1051 1165 1290 1308 1175 1053 1177
8 1053 937 1054 1178 1175 1052 1176 1309
8 1278 1156 1055 1180 1177 1053 1178 1311
8 1055 938 1056 1181 1178 1054 1179 1312
8 1057 939 1058 1183 1180 1055 1181 1314
8 1058 940 1059 1184 1181 1056 1182 1315
8 1060 942 1061 1185 1183 1058 1184 1316
8 1208 1081 1187 1321 1082 964 1063 1188
8 1209 1082 1188 1322 1097 981 1064 1190
8 1188 1063 1189 1323 1064 947 1065 1191
8 1190 1064 1191 1325 1066 948 1067 1193
8 1191 1065 1192 1326 1067 949 1068 1194
8 1067 1193 1069 950 1194 1327 1195 1070
8 1250 1133 1199 1330 1126 1019 1075 1196
8 1198 1077 1014 1122 1331 1200 1075 1196
8 1074 960 1077 1198 1197 1076 1201 1332
8 1085 980 1076 1197 1215 1099 1201 1332
8 1199 1079 1203 1333 1075 962 1080 1200
8 1132 1025 1119 1243 1199 1079 1203 1333
8 1201 1078 963 1077 1334 1202 1080 1200
8 1099 994 1078 1201 1227 1111 1202 1334
8 1343 1207 1081 1208 1210 1083 964 1082
8 1214 1084 1186 1319 1343 1207 1081 1208
8 1345 1210 1082 1209 1225 1100 981 1097
8 1346 1211 1083 1210 1228 1115 999 1100
8 1086 984 1099 1215 1216 1103 1227 1352
8 1087 985 1103 1216 1217 1104 1230 1353
8 1090 988 1104 1217 1219 1106 1231 1354
8 1218 1105 987 1089 1355 1232 1106 1219
8 1091 991 1105 1218 1220 1109 1232 1355
8 1092 992 1109 1220 1221 1110 1234 1356
8 1222 1108 1233 1357 1095 990 1107 1224
8 1222 1108 993 1093 1357 1233 1110 1221
8 1223 1101 989 1096 1358 1229 1107 1224
8 1226 1102 983 1098 1358 1229 1101 1223
8 1226 1102 1228 1359 1098 983 1100 1225
8 1103 995 1111 1227 1230 1112 1235 1360
8 1107 1002 1117 1233 1229 1116 1240 1362
8 1102 1001 1116 1229 1228 1115 1240 1362
8 1104 996 1112 1230 1231 1113 1236 1363
8 1364 1237 1114 1232 1231 1113 997 1106
8 1109 1005 1114 1232 1234 1118 1238 1365
8 1110 1004 1118 1234 1233 1117 1241 1366
8 1242 1374 1255 1138 1119 1243 1132 1025
8 1244 1127 1254 1376 1121 1015 1129 1245
8 1148 1031 1149 1275 1244 1127 1254 1376
8 1245 1129 1258 1377 1125 1016 1130 1248
8 1251 1134 1019 1126 1378 1257 1128 1246
8 1378 1257 1128 1246 1247 1131 1017 1123
8 1248 1130 1259 1379 1124 1018 1131 1247
8 1261 1381 1250 1133 1132 1249 1330 1199
8 1255 1380 1252 1135 1132 1249 1381 1261
8 1250 1133 1019 1126 1382 1262 1134 1251
8 1253 1136 1256 1385 1384 1263 1135 1252
8 1254 1137 1265 1387 1129 1022 1141 1258
8 1149 1032 1150 1276 1254 1137 1265 1387
8 1028 1135 1255 1138 1139 1256 1388 1266
8 1136 1029 1147 1264 1256 1139 1267 1389
8 1390 1268 1140 1257 1259 1142 1024 1131
8 1260 1143 1027 1134 1390 1268 1140 1257
8 1258 1141 1269 1391 1130 1023 1142 1259
8 1262 1145 1027 1134 1393 1271 1143 1260
8 1261 1144 1026 1133 1394 1272 1145 1262
8 1135 1028 1144 1261 1263 1146 1272 1394
8 1136 1029 1146 1263 1264 1147 1273 1395
8 1155 1041 1160 1282 1275 1149 1276 1405
8 1276 1150 1044 1160 1406 1277 1162 1286
8 1408 1283 1159 1279 1278 1156 1039 1151
8 1290 1165 1283 1408 1177 1053 1156 1278
8 1152 1040 1159 1279 1280 1158 1285 1409
8 1281 1157 1038 1153 1410 1284 1158 1280
8 1281 1157 1284 1410 1154 1042 1160 1282
8 1159 1046 1164 1283 1285 1163 1289 1412
8 1292 1167 1289 1412 1165 1048 1164 1283
8 1158 1045 1163 1285 1284 1161 1288 1413
8 1284 1161 1288 1413 1160 1044 1162 1286
8 1291 1166 1292 1418 1174 1051 1165 1290
8 1291 1166 1051 1174 1419 1293 1172 1305
8 1294 1169 1296 1421 1166 1049 1167 1292
8 1293 1168 1050 1172 1422 1295 1171 1303
8 1294 1169 1049 1166 1423 1297 1168 1293
8 1422 1295 1171 1303 1301 1170 1302 1435
8 1172 1050 1173 1306 1303 1171 1304 1438
8 1174 1051 1175 1308 1305 1172 1306 1440
8 1175 1052 1176 1309 1306 1173 1307 1441
8 1177 1053 1178 1311 1308 1175 1309 1443
8 1178 1054 1179 1312 1309 1176 1310 1444
8 1180 1055 1181 1314 1311 1178 1312 1446
8 1056 1181 1312 1179 1182 1315 1447 1313
8 1183 1058 1184 1316 1314 1181 1315 1448
8 1319 1186 1084 1214 1451 1317 1213 1350
8 1319 1186 1318 1453 1208 1081 1187 1321
8 1321 1187 1320 1456 1188 1063 1189 1323
8 1344 1208 1321 1457 1209 1082 1188 1322
8 1322 1188 1323 1458 1190 1064 1191 1325
8 1323 1189 1324 1459 1191 1065 1192 1326
8 1191 1325 1193 1067 1326 1460 1327 1194
8 1242 1374 1243 1119 1328 1462 1335 1204
8 1330 1199 1333 1465 1196 1075 1200 1331
8 1132 1249 1330 1199 1243 1375 1465 1333
8 1332 1201 1077 1198 1466 1334 1200 1331
8 1215 1099 1201 1332 1352 1227 1334 1466
8 1119 1243 1333 1203 1204 1335 1470 1338
8 1333 1203 1338 1470 1200 1080 1202 1334
8 1227 1111 1202 1334 1360 1235 1338 1470
8 1328 1462 1335 1204 1205 1336 1471 1339
8 1337 1206 1340 1472 1464 1329 1205 1336
8 1346 1211 1342 1479 1210 1083 1207 1343
8 1346 1211 1115 1228 1479 1342 1239 1361
8 1348 1212 1084 1214 1479 1342 1207 1343
8 1480 1343 1208 1344 1345 1210 1082 1209
8 1351 1214 1319 1454 1480 1343 1208 1344
8 1481 1346 1210 1345 1359 1228 1100 1225
8 1348 1212 1347 1483 1214 1084 1213 1350
8 1216 1103 1227 1352 1353 1230 1360 1488
8 1217 1104 1230 1353 1354 1231 1363 1489
8 1490 1364 1232 1355 1354 1231 1106 1219
8 1220 1109 1232 1355 1356 1234 1365 1491
8 1221 1110 1234 1356 1357 1233 1366 1492
8 1224 1107 1233 1357 1358 1229 1362 1493
8 1226 1102 1229 1358 1359 1228 1362 1493
8 1230 1112 1235 1360 1363 1236 1367 1496
8 1361 1239 1115 1228 1497 1371 1240 1362
8 1366 1241 1372 1498 1233 1117 1240 1362
8 1364 1237 1113 1231 1499 1368 1236 1363
8 1364 1237 1368 1499 1232 1114 1238 1365
8 1234 1118 1238 1365 1366 1241 1369 1500
8 1507 1373 1242 1374 1388 1266 1138 1255
8 1508 1374 1243 1375 1380 1255 1132 1249
8 1376 1254 1387 1509 1245 1129 1258 1377
8 1275 1149 1276 1405 1376 1254 1387 1509
8 1377 1258 1391 1510 1248 1130 1259 1379
8 1511 1390 1257 1378 1379 1259 1131 1247
8 1383 1260 1134 1251 1511 1390 1257 1378
8 1252 1135 1256 1385 1380 1255 1388 1512
8 1261 1381 1513 1394 1133 1250 1382 1262
8 1135 1252 1384 1263 1261 1381 1513 1394
8 1382 1262 1134 1251 1514 1393 1260 1383
8 1253 1136 1263 1384 1386 1264 1395 1516
8 1253 1136 1264 1386 1385 1256 1389 1517
8 1387 1265 1397 1519 1258 1141 1269 1391
8 1276 1150 1277 1406 1387 1265 1397 1519
8 1256 1139 1267 1389 1388 1266 1398 1520
8 1264 1147 1274 1396 1389 1267 1399 1521
8 1392 1270 1143 1260 1522 1400 1268 1390
8 1390 1268 1142 1259 1522 1400 1269 1391
8 1392 1270 1401 1523 1260 1143 1271 1393
8 1272 1394 1524 1402 1145 1262 1393 1271
8 1395 1273 1146 1263 1524 1402 1272 1394
8 1273 1395 1264 1147 1403 1526 1396 1274
8 1405 1276 1160 1282 1534 1406 1286 1411
8 1414 1287 1407 1535 1286 1162 1277 1406
8 1279 1159 1283 1408 1409 1285 1412 1537
8 1418 1292 1412 1537 1290 1165 1283 1408
8 1280 1158 1285 1409 1410 1284 1413 1538
8 1410 1284 1413 1538 1282 1160 1286 1411
8 1285 1163 1289 1412 1413 1288 1417 1540
8 1421 1296 1417 1540 1292 1167 1289 1412
8 1414 1287 1162 1286 1541 1416 1288 1413
8 1420 1294 1421 1545 1291 1166 1292 1418
8 1419 1293 1172 1305 1546 1422 1303 1437
8 1420 1294 1166 1291 1547 1423 1293 1419
8 1294 1169 1297 1423 1421 1296 1425 1548
8 1423 1297 1168 1293 1549 1424 1295 1422
8 1301 1170 1298 1427 1422 1295 1424 1549
8 1432 1300 1428 1554 1301 1170 1298 1427
8 1431 1299 1428 1554 1560 1430 1300 1432
8 1563 1433 1300 1432 1435 1302 1170 1301
8 1546 1422 1303 1437 1434 1301 1435 1565
8 1303 1171 1304 1438 1435 1302 1436 1566
8 1305 1172 1306 1440 1437 1303 1438 1568
8 1306 1173 1307 1441 1438 1304 1439 1569
8 1308 1175 1309 1443 1440 1306 1441 1571
8 1309 1176 1310 1444 1441 1307 1442 1572
8 1311 1178 1312 1446 1443 1309 1444 1574
8 1179 1312 1444 1310 1313 1447 1575 1445
8 1314 1181 1315 1448 1446 1312 1447 1576
8 1350 1213 1349 1486 1451 1317 1449 1579
8 1451 1317 1450 1581 1319 1186 1318 1453
8 1454 1319 1214 1351 1582 1451 1350 1487
8 1453 1318 1452 1584 1321 1187 1320 1456
8 1454 1319 1453 1585 1344 1208 1321 1457
8 1456 1320 1455 1586 1323 1189 1324 1459
8 1457 1321 1456 1587 1322 1188 1323 1458
8 1458 1323 1459 1588 1325 1191 1326 1460
8 1205 1336 1464 1329 1328 1462 1590 1461
8 1507 1373 1461 1590 1374 1242 1328 1462
8 1508 1374 1462 1591 1375 1243 1335 1467
8 1337 1206 1329 1464 1473 1341 1463 1594
8 1375 1243 1335 1467 1465 1333 1470 1596
8 1465 1333 1470 1596 1331 1200 1334 1466
8 1352 1227 1334 1466 1488 1360 1470 1596
8 1591 1462 1336 1468 1467 1335 1471 1597
8 1469 1337 1472 1598 1595 1464 1336 1468
8 1471 1339 1474 1600 1335 1204 1338 1470
8 1600 1474 1367 1496 1470 1338 1235 1360
8 1336 1205 1340 1472 1471 1339 1475 1601
8 1337 1206 1341 1473 1472 1340 1476 1602
8 1495 1370 1478 1609 1361 1239 1342 1479
8 1348 1212 1342 1479 1483 1347 1478 1609
8 1481 1346 1479 1610 1345 1210 1343 1480
8 1481 1346 1228 1359 1610 1479 1361 1494
8 1484 1348 1214 1351 1610 1479 1343 1480
8 1483 1347 1482 1612 1350 1213 1349 1486
8 1484 1348 1483 1613 1351 1214 1350 1487
8 1353 1230 1360 1488 1489 1363 1496 1616
8 1490 1364 1231 1354 1617 1499 1363 1489
8 1490 1364 1499 1617 1355 1232 1365 1491
8 1356 1234 1365 1491 1492 1366 1500 1619
8 1492 1366 1498 1620 1357 1233 1362 1493
8 1494 1361 1228 1359 1621 1497 1362 1493
8 1495 1370 1239 1361 1622 1504 1371 1497
8 1363 1236 1367 1496 1499 1368 1501 1623
8 1497 1371 1240 1362 1624 1505 1372 1498
8 1625 1503 1372 1498 1500 1369 1241 1366
8 1365 1238 1368 1499 1500 1369 1502 1626
8 1520 1398 1506 1633 1388 1266 1373 1507
8 1634 1507 1374 1508 1512 1388 1255 1380
8 1509 1387 1519 1635 1377 1258 1391 1510
8 1405 1276 1406 1534 1509 1387 1519 1635
8 1515 1392 1260 1383 1636 1522 1390 1511
8 1511 1390 1259 1379 1636 1522 1391 1510
8 1385 1256 1389 1517 1512 1388 1520 1637
8 1513 1394 1262 1382 1638 1524 1393 1514
8 1395 1516 1638 1524 1263 1384 1513 1394
8 1515 1392 1523 1639 1383 1260 1393 1514
8 1516 1395 1526 1640 1386 1264 1396 1518
8 1386 1264 1396 1518 1517 1389 1521 1641
8 1519 1397 1527 1643 1391 1269 1400 1522
8 1535 1407 1527 1643 1406 1277 1397 1519
8 1389 1267 1399 1521 1520 1398 1528 1644
8 1645 1529 1399 1521 1525 1404 1274 1396
8 1392 1270 1400 1522 1523 1401 1531 1646
8 1524 1402 1271 1393 1648 1532 1401 1523
8 1403 1526 1648 1532 1273 1395 1524 1402
8 1525 1404 1274 1396 1649 1533 1403 1526
8 1539 1414 1535 1657 1411 1286 1406 1534
8 1542 1415 1536 1658 1414 1287 1407 1535
8 1409 1285 1412 1537 1538 1413 1540 1660
8 1545 1421 1540 1660 1418 1292 1412 1537
8 1539 1414 1286 1411 1661 1541 1413 1538
8 1540 1417 1544 1663 1413 1288 1416 1541
8 1421 1296 1425 1548 1540 1417 1544 1663
8 1542 1415 1287 1414 1664 1543 1416 1541
8 1420 1294 1423 1547 1545 1421 1548 1666
8 1547 1423 1293 1419 1667 1549 1422 1546
8 1434 1301 1427 1553 1546 1422 1549 1667
8 1423 1297 1424 1549 1548 1425 1550 1668
8 1551 1426 1550 1668 1427 1298 1424 1549
8 1551 1426 1298 1427 1671 1552 1428 1554
8 1562 1432 1554 1674 1434 1301 1427 1553
8 1431 1299 1429 1558 1554 1428 1555 1675
8 1431 1299 1430 1560 1558 1429 1557 1680
8 1560 1430 1300 1432 1683 1559 1433 1563
8 1561 1431 1554 1674 1684 1560 1432 1562
8 1685 1563 1432 1562 1565 1435 1301 1434
8 1435 1302 1436 1566 1563 1433 1564 1686
8 1437 1303 1438 1568 1565 1435 1566 1688
8 1438 1304 1439 1569 1566 1436 1567 1689
8 1440 1306 1441 1571 1568 1438 1569 1691
8 1441 1307 1442 1572 1569 1439 1570 1692
8 1443 1309 1444 1574 1571 1441 1572 1694
8 1310 1444 1572 1442 1445 1575 1695 1573
8 1446 1312 1447 1576 1574 1444 1575 1696
8 1486 1349 1485 1614 1579 1449 1577 1699
8 1451 1317 1449 1579 1581 1450 1578 1701
8 1487 1350 1486 1615 1582 1451 1579 1702
8 1581 1450 1580 1704 1453 1318 1452 1584
8 1582 1451 1581 1705 1454 1319 1453 1585
8 1584 1452 1583 1706 1456 1320 1455 1586
8 1585 1453 1584 1707 1457 1321 1456 1587
8 1587 1456 1586 1708 1458 1323 1459 1588
8 1633 1506 1589 1710 1507 1373 1461 1590
8 1464 1329 1461 1590 1594 1463 1589 1710
8 1468 1336 1462 1591 1595 1464 1590 1711
8 1634 1507 1590 1711 1508 1374 1462 1591
8 1473 1341 1463 1594 1603 1477 1593 1716
8 1469 1337 1464 1595 1599 1473 1594 1717
8 1471 1597 1467 1335 1600 1718 1596 1470
8 1718 1600 1496 1616 1596 1470 1360 1488
8 1336 1468 1597 1471 1472 1598 1719 1601
8 1469 1337 1473 1599 1598 1472 1602 1720
8 1722 1604 1501 1623 1600 1474 1367 1496
8 1475 1601 1471 1339 1604 1722 1600 1474
8 1602 1476 1605 1723 1472 1340 1475 1601
8 1476 1602 1724 1606 1341 1473 1603 1477
8 1483 1347 1478 1609 1612 1482 1608 1731
8 1495 1370 1504 1622 1609 1478 1608 1731
8 1618 1495 1609 1732 1494 1361 1479 1610
8 1484 1348 1479 1610 1613 1483 1609 1732
8 1486 1349 1482 1612 1614 1485 1611 1733
8 1613 1483 1612 1734 1487 1350 1486 1615
8 1489 1363 1496 1616 1617 1499 1623 1736
8 1491 1365 1499 1617 1619 1500 1626 1737
8 1618 1495 1361 1494 1738 1622 1497 1621
8 1739 1625 1498 1620 1619 1500 1366 1492
8 1621 1497 1362 1493 1740 1624 1498 1620
8 1742 1631 1504 1622 1624 1505 1371 1497
8 1743 1628 1502 1626 1623 1501 1368 1499
8 1744 1630 1505 1624 1625 1503 1372 1498
8 1745 1629 1503 1625 1626 1502 1369 1500
8 1520 1398 1528 1644 1633 1506 1632 1751
8 1637 1520 1633 1752 1512 1388 1507 1634
8 1635 1519 1643 1753 1510 1391 1522 1636
8 1657 1535 1643 1753 1534 1406 1519 1635
8 1515 1392 1522 1636 1639 1523 1646 1754
8 1517 1389 1521 1641 1637 1520 1644 1755
8 1524 1638 1756 1648 1393 1514 1639 1523
8 1640 1526 1395 1516 1756 1648 1524 1638
8 1642 1525 1396 1518 1757 1649 1526 1640
8 1758 1645 1521 1641 1642 1525 1396 1518
8 1646 1531 1400 1522 1760 1650 1527 1643
8 1535 1407 1536 1658 1643 1527 1650 1760
8 1521 1399 1529 1645 1644 1528 1651 1761
8 1647 1530 1652 1762 1525 1404 1529 1645
8 1401 1523 1648 1532 1531 1646 1763 1655
8 1525 1404 1533 1649 1647 1530 1654 1765
8 1533 1649 1766 1656 1403 1526 1648 1532
8 1662 1542 1658 1774 1539 1414 1535 1657
8 1542 1415 1543 1664 1658 1536 1659 1775
8 1660 1540 1663 1777 1538 1413 1541 1661
8 1545 1421 1548 1666 1660 1540 1663 1777
8 1662 1542 1414 1539 1778 1664 1541 1661
8 1664 1543 1416 1541 1779 1665 1544 1663
8 1548 1425 1550 1668 1663 1544 1665 1779
8 1547 1423 1549 1667 1666 1548 1668 1781
8 1670 1551 1668 1781 1553 1427 1549 1667
8 1551 1426 1552 1671 1668 1550 1669 1782
8 1670 1551 1427 1553 1784 1671 1554 1674
8 1675 1555 1672 1785 1554 1428 1552 1671
8 1678 1556 1673 1789 1558 1429 1555 1675
8 1561 1431 1558 1681 1674 1554 1675 1790
8 1794 1677 1556 1678 1680 1557 1429 1558
8 1560 1430 1559 1683 1680 1557 1679 1797
8 1561 1431 1560 1684 1681 1558 1680 1798
8 1563 1433 1564 1686 1683 1559 1682 1800
8 1684 1560 1432 1562 1801 1683 1563 1685
8 1565 1435 1566 1688 1685 1563 1686 1802
8 1566 1436 1567 1689 1686 1564 1687 1803
8 1568 1438 1569 1691 1688 1566 1689 1805
8 1569 1439 1570 1692 1689 1567 1690 1806
8 1571 1441 1572 1694 1691 1569 1692 1808
8 1442 1572 1692 1570 1573 1695 1809 1693
8 1574 1444 1575 1696 1694 1572 1695 1810
8 1614 1485 1592 1712 1699 1577 1697 1813
8 1579 1449 1577 1699 1701 1578 1698 1815
8 1615 1486 1614 1735 1702 1579 1699 1816
8 1701 1578 1700 1818 1581 1450 1580 1704
8 1582 1451 1579 1702 1705 1581 1701 1819
8 1704 1580 1703 1820 1584 1452 1583 1706
8 1705 1581 1704 1821 1585 1453 1584 1707
8 1707 1584 1706 1822 1587 1456 1586 1708
8 1710 1589 1506 1633 1824 1709 1632 1751
8 1594 1463 1589 1710 1716 1593 1709 1824
8 1752 1633 1710 1825 1634 1507 1590 1711
8 1595 1464 1590 1711 1717 1594 1710 1825
8 1830 1714 1592 1712 1733 1611 1485 1614
8 1603 1477 1593 1716 1725 1607 1715 1834
8 1599 1473 1594 1717 1721 1603 1716 1835
8 1837 1722 1623 1736 1718 1600 1496 1616
8 1719 1601 1722 1837 1597 1471 1600 1718
8 1602 1720 1598 1472 1723 1838 1719 1601
8 1720 1602 1473 1599 1839 1724 1603 1721
8 1723 1605 1726 1840 1601 1475 1604 1722
8 1840 1726 1628 1743 1722 1604 1501 1623
8 1724 1606 1727 1841 1602 1476 1605 1723
8 1725 1607 1728 1842 1603 1477 1606 1724
8 1612 1482 1608 1731 1733 1611 1730 1849
8 1741 1627 1730 1849 1622 1504 1608 1731
8 1613 1483 1609 1732 1734 1612 1731 1850
8 1618 1495 1622 1738 1732 1609 1731 1850
8 1615 1486 1612 1734 1735 1614 1733 1851
8 1852 1743 1626 1737 1736 1623 1499 1617
8 1853 1745 1625 1739 1737 1626 1500 1619
8 1855 1742 1622 1738 1740 1624 1497 1621
8 1856 1744 1624 1740 1739 1625 1498 1620
8 1741 1627 1504 1622 1857 1746 1631 1742
8 1742 1631 1505 1624 1858 1749 1630 1744
8 1859 1747 1629 1745 1743 1628 1502 1626
8 1860 1748 1630 1744 1745 1629 1503 1625
8 1644 1528 1651 1761 1751 1632 1750 1865
8 1637 1520 1644 1755 1752 1633 1751 1866
8 1754 1646 1522 1636 1867 1760 1643 1753
8 1657 1535 1658 1774 1753 1643 1760 1867
8 1639 1523 1646 1754 1756 1648 1763 1868
8 1641 1521 1645 1758 1755 1644 1761 1869
8 1757 1649 1526 1640 1870 1766 1648 1756
8 1642 1525 1649 1757 1759 1647 1765 1871
8 1759 1647 1762 1872 1642 1525 1645 1758
8 1760 1650 1767 1874 1646 1531 1655 1763
8 1658 1536 1659 1775 1760 1650 1767 1874
8 1762 1652 1768 1875 1645 1529 1651 1761
8 1764 1653 1769 1876 1647 1530 1652 1762
8 1656 1766 1877 1773 1532 1648 1763 1655
8 1771 1879 1765 1654 1653 1764 1647 1530
8 1533 1649 1765 1654 1656 1766 1880 1772
8 1662 1542 1664 1778 1774 1658 1775 1887
8 1664 1543 1665 1779 1775 1659 1776 1888
8 1778 1664 1541 1661 1890 1779 1663 1777
8 1666 1548 1668 1781 1777 1663 1779 1890
8 1782 1669 1780 1891 1668 1550 1665 1779
8 1670 1551 1671 1784 1781 1668 1782 1893
8 1671 1552 1672 1785 1782 1669 1783 1894
8 1790 1675 1785 1896 1674 1554 1671 1784
8 1675 1555 1673 1789 1785 1672 1786 1897
8 1792 1676 1788 1903 1678 1556 1673 1789
8 1795 1678 1789 1904 1681 1558 1675 1790
8 1792 1676 1556 1678 1906 1791 1677 1794
8 1680 1557 1679 1797 1794 1677 1793 1909
8 1910 1794 1678 1795 1798 1680 1558 1681
8 1683 1559 1682 1800 1797 1679 1796 1912
8 1684 1560 1683 1801 1798 1680 1797 1913
8 1686 1564 1687 1803 1800 1682 1799 1915
8 1685 1563 1686 1802 1801 1683 1800 1916
8 1688 1566 1689 1805 1802 1686 1803 1917
8 1689 1567 1690 1806 1803 1687 1804 1918
8 1691 1569 1692 1808 1805 1689 1806 1920
8 1692 1570 1693 1809 1806 1690 1807 1921
8 1694 1572 1695 1810 1808 1692 1809 1922
8 1829 1713 1811 1926 1712 1592 1697 1813
8 1813 1697 1812 1928 1699 1577 1698 1815
8 1735 1614 1712 1828 1816 1699 1813 1929
8 1815 1698 1814 1931 1701 1578 1700 1818
8 1702 1579 1699 1816 1819 1701 1815 1932
8 1818 1700 1817 1933 1704 1580 1703 1820
8 1819 1701 1818 1934 1705 1581 1704 1821
8 1821 1704 1820 1935 1707 1584 1706 1822
8 1824 1709 1632 1751 1937 1823 1750 1865
8 1716 1593 1709 1824 1834 1715 1823 1937
8 1825 1710 1633 1752 1938 1824 1751 1866
8 1717 1594 1710 1825 1835 1716 1824 1938
8 1945 1830 1712 1828 1851 1733 1614 1735
8 1830 1714 1831 1946 1712 1592 1713 1829
8 1947 1832 1714 1830 1849 1730 1611 1733
8 1843 1729 1607 1725 1950 1833 1715 1834
8 1721 1603 1716 1835 1836 1725 1834 1951
8 1836 1725 1842 1953 1721 1603 1724 1839
8 1723 1838 1719 1601 1840 1954 1837 1722
8 1954 1840 1743 1852 1837 1722 1623 1736
8 1724 1839 1720 1602 1841 1955 1838 1723
8 1841 1727 1844 1956 1723 1605 1726 1840
8 1956 1844 1747 1859 1840 1726 1628 1743
8 1728 1842 1724 1606 1845 1957 1841 1727
8 1725 1607 1729 1843 1842 1728 1846 1958
8 1741 1627 1746 1857 1849 1730 1848 1965
8 1734 1612 1731 1850 1851 1733 1849 1966
8 1854 1741 1849 1966 1738 1622 1731 1850
8 1967 1859 1745 1853 1852 1743 1626 1737
8 1968 1860 1744 1856 1853 1745 1625 1739
8 1854 1741 1622 1738 1969 1857 1742 1855
8 1855 1742 1624 1740 1970 1858 1744 1856
8 1857 1746 1631 1742 1971 1861 1749 1858
8 1858 1749 1630 1744 1972 1863 1748 1860
8 1859 1747 1862 1973 1745 1629 1748 1860
8 1875 1768 1864 1977 1761 1651 1750 1865
8 1755 1644 1761 1869 1866 1751 1865 1978
8 1867 1760 1874 1979 1754 1646 1763 1868
8 1774 1658 1775 1887 1867 1760 1874 1979
8 1870 1766 1648 1756 1980 1877 1763 1868
8 1872 1762 1875 1981 1758 1645 1761 1869
8 1757 1649 1766 1870 1871 1765 1880 1982
8 1983 1879 1764 1873 1871 1765 1647 1759
8 1873 1764 1876 1984 1759 1647 1762 1872
8 1877 1773 1655 1763 1986 1881 1767 1874
8 1775 1659 1776 1888 1874 1767 1881 1986
8 1876 1769 1882 1987 1762 1652 1768 1875
8 1878 1770 1883 1988 1764 1653 1769 1876
8 1880 1772 1656 1766 1989 1886 1773 1877
8 1878 1770 1653 1764 1990 1884 1771 1879
8 1765 1654 1772 1880 1879 1771 1885 1991
8 1778 1664 1779 1890 1887 1775 1888 1997
8 1998 1889 1776 1888 1891 1780 1665 1779
8 1893 1782 1891 2000 1781 1668 1779 1890
8 1894 1783 1892 2001 1782 1669 1780 1891
8 1784 1671 1785 1896 1893 1782 1894 2003
8 1897 1786 1895 2004 1785 1672 1783 1894
8 1790 1675 1789 1904 1896 1785 1897 2006
8 1901 1787 1898 2007 1789 1673 1786 1897
8 1903 1788 1900 2013 1789 1673 1787 1901
8 1792 1676 1791 1906 1903 1788 1902 2016
8 1907 1792 1903 2017 1795 1678 1789 1904
8 1906 1791 1677 1794 2019 1905 1793 1909
8 1907 1792 1678 1795 2020 1906 1794 1910
8 1797 1679 1796 1912 1909 1793 1908 2022
8 1798 1680 1797 1913 1910 1794 1909 2023
8 1800 1682 1799 1915 1912 1796 1911 2025
8 1801 1683 1800 1916 1913 1797 1912 2026
8 1803 1687 1804 1918 1915 1799 1914 2028
8 1802 1686 1803 1917 1916 1800 1915 2029
8 1805 1689 1806 1920 1917 1803 1918 2030
8 1806 1690 1807 1921 1918 1804 1919 2031
8 1808 1692 1809 1922 1920 1806 1921 2032
8 1939 1826 1924 2037 1829 1713 1811 1926
8 1926 1811 1925 2039 1813 1697 1812 1928
8 1944 1829 1926 2040 1828 1712 1813 1929
8 1928 1812 1927 2042 1815 1698 1814 1931
8 1929 1813 1928 2043 1816 1699 1815 1932
8 1931 1814 1930 2044 1818 1700 1817 1933
8 1932 1815 1931 2045 1819 1701 1818 1934
8 1934 1818 1933 2046 1821 1704 1820 1935
8 2048 1936 1823 1937 1977 1864 1750 1865
8 1950 1833 1715 1834 2048 1936 1823 1937
8 1938 1824 1751 1866 2049 1937 1865 1978
8 1835 1716 1824 1938 1951 1834 1937 2049
8 1939 1826 1713 1829 2053 1942 1831 1946
8 1940 1827 1923 2035 2053 1942 1826 1939
8 1945 1830 1946 2058 1828 1712 1829 1944
8 2059 1947 1830 1945 1966 1849 1733 1851
8 1947 1832 1730 1849 2060 1948 1848 1965
8 1947 1832 1948 2060 1830 1714 1831 1946
8 1959 1847 1729 1843 2063 1949 1833 1950
8 1952 1843 1725 1836 2064 1950 1834 1951
8 1836 1725 1843 1952 1953 1842 1958 2066
8 1953 1842 1957 2067 1839 1724 1841 1955
8 1841 1955 1838 1723 1956 2068 1954 1840
8 2068 1956 1859 1967 1954 1840 1743 1852
8 1956 1844 1960 2069 1859 1747 1862 1973
8 1845 1957 1841 1727 1960 2069 1956 1844
8 1728 1842 1957 1845 1846 1958 2071 1961
8 1962 2072 1959 1847 1846 1958 1843 1729
8 1971 1861 1964 2077 1857 1746 1848 1965
8 1854 1741 1857 1969 1966 1849 1965 2078
8 1967 1859 1973 2079 1853 1745 1860 1968
8 1970 1858 1744 1856 2080 1972 1860 1968
8 1969 1857 1742 1855 2081 1971 1858 1970
8 1971 1861 1749 1858 2082 1974 1863 1972
8 1973 1862 1975 2083 1860 1748 1863 1972
8 1987 1882 1976 2086 1875 1768 1864 1977
8 1981 1875 1977 2087 1869 1761 1865 1978
8 1980 1877 1763 1868 2088 1986 1874 1979
8 1887 1775 1888 1997 1979 1874 1986 2088
8 1880 1982 2089 1989 1766 1870 1980 1877
8 1984 1876 1987 2090 1872 1762 1875 1981
8 1765 1871 1983 1879 1880 1982 2091 1991
8 1985 1878 1764 1873 2092 1990 1879 1983
8 1985 1878 1988 2093 1873 1764 1876 1984
8 2094 1992 1881 1986 1998 1889 1776 1888
8 1986 1881 1992 2094 1877 1773 1886 1989
8 1988 1883 1993 2095 1876 1769 1882 1987
8 1878 1770 1884 1990 1988 1883 1994 2096
8 1991 1885 1772 1880 2097 1996 1886 1989
8 1879 1771 1885 1991 1990 1884 1995 2098
8 2103 1998 1888 1997 2000 1891 1779 1890
8 2104 1999 1889 1998 2001 1892 1780 1891
8 2003 1894 2001 2106 1893 1782 1891 2000
8 2004 1895 2002 2107 1894 1783 1892 2001
8 2006 1897 2004 2109 1896 1785 1894 2003
8 2007 1898 2005 2110 1897 1786 1895 2004
8 2014 1901 2007 2112 1904 1789 1897 2006
8 2011 1899 2008 2113 1901 1787 1898 2007
8 2119 2010 1899 2011 2013 1900 1787 1901
8 2016 1902 2012 2122 1903 1788 1900 2013
8 2017 1903 2013 2123 1904 1789 1901 2014
8 1906 1791 1905 2019 2016 1902 2015 2125
8 1907 1792 1906 2020 2017 1903 2016 2126
8 1909 1793 1908 2022 2019 1905 2018 2128
8 2020 1906 1794 1910 2129 2019 1909 2023
8 1912 1796 1911 2025 2022 1908 2021 2131
8 1913 1797 1912 2026 2023 1909 2022 2132
8 1915 1799 1914 2028 2025 1911 2024 2134
8 1916 1800 1915 2029 2026 1912 2025 2135
8 1918 1804 1919 2031 2028 1914 2027 2136
8 1917 1803 1918 2030 2029 1915 2028 2137
8 1920 1806 1921 2032 2030 1918 2031 2138
8 1940 1827 1941 2054 2035 1923 2033 2140
8 2035 1923 2034 2143 1939 1826 1924 2037
8 2037 1924 2036 2146 1926 1811 1925 2039
8 2051 1939 2037 2147 1944 1829 1926 2040
8 2039 1925 2038 2149 1928 1812 1927 2042
8 2040 1926 2039 2150 1929 1813 1928 2043
8 2042 1927 2041 2151 1931 1814 1930 2044
8 2043 1928 2042 2152 1932 1815 1931 2045
8 2045 1931 2044 2153 1934 1818 1933 2046
8 2155 2047 1936 2048 2086 1976 1864 1977
8 2063 1949 1833 1950 2155 2047 1936 2048
8 2156 2048 1937 2049 2087 1977 1865 1978
8 2064 1950 1834 1951 2156 2048 1937 2049
8 2051 1939 1829 1944 2160 2053 1946 2058
8 2052 1940 2035 2144 2160 2053 1939 2051
8 2053 1942 1831 1946 2163 2057 1948 2060
8 2055 1943 1827 1940 2163 2057 1942 2053
8 2055 1943 2056 2164 1940 1827 1941 2054
8 2059 1947 1849 1966 2167 2060 1965 2078
8 2059 1947 2060 2167 1945 1830 1946 2058
8 2077 1964 2061 2168 1965 1848 1948 2060
8 2070 1963 1847 1959 2170 2062 1949 2063
8 2065 1959 1843 1952 2171 2063 1950 2064
8 2173 2072 1958 2066 2065 1959 1843 1952
8 1953 1842 1958 2066 2067 1957 2071 2174
8 2068 1956 2069 2175 1967 1859 1973 2079
8 2067 1957 2069 2175 1955 1841 1956 2068
8 1845 1957 2069 1960 1961 2071 2176 2073
8 2069 1960 2073 2176 1973 1862 1975 2083
8 2070 1963 2075 2177 1959 1847 1962 2072
8 1846 1958 2071 1961 1962 2072 2178 2074
8 2077 1964 1861 1971 2182 2076 1974 2082
8 2081 1971 2077 2183 1969 1857 1965 2078
8 2079 1973 2083 2184 1968 1860 1972 2080
8 2081 1971 1858 1970 2185 2082 1972 2080
8 2083 1975 2084 2186 1972 1863 1974 2082
8 2086 1976 1882 1987 2189 2085 1993 2095
8 2090 1987 2086 2190 1981 1875 1977 2087
8 2191 2094 1986 2088 2103 1998 1888 1997
8 2088 1986 2094 2191 1980 1877 1989 2089
8 1991 2091 2192 2097 1880 1982 2089 1989
8 2093 1988 2095 2193 1984 1876 1987 2090
8 1879 1983 2092 1990 1991 2091 2194 2098
8 1985 1878 1990 2092 2093 1988 2096 2195
8 2097 1996 1886 1989 2196 2099 1992 2094
8 2196 2099 1992 2094 2104 1999 1889 1998
8 1994 2096 1988 1883 2100 2197 2095 1993
8 2096 1994 1884 1990 2198 2101 1995 2098
8 1995 2098 2199 2102 1885 1991 2097 1996
8 2203 2104 1998 2103 2106 2001 1891 2000
8 2107 2002 2105 2204 2001 1892 1999 2104
8 2109 2004 2107 2206 2003 1894 2001 2106
8 2110 2005 2108 2207 2004 1895 2002 2107
8 2112 2007 2110 2209 2006 1897 2004 2109
8 2113 2008 2111 2210 2007 1898 2005 2110
8 2120 2011 2113 2212 2014 1901 2007 2112
8 2117 2009 2114 2213 2011 1899 2008 2113
8 2219 2116 2009 2117 2119 2010 1899 2011
8 2222 2118 2010 2119 2122 2012 1900 2013
8 2223 2119 2011 2120 2123 2013 1901 2014
8 2016 1902 2015 2125 2122 2012 2121 2225
8 2126 2016 2122 2226 2017 1903 2013 2123
8 2019 1905 2018 2128 2125 2015 2124 2228
8 2020 1906 2019 2129 2126 2016 2125 2229
8 2022 1908 2021 2131 2128 2018 2127 2231
8 2023 1909 2022 2132 2129 2019 2128 2232
8 2025 1911 2024 2134 2131 2021 2130 2234
8 2026 1912 2025 2135 2132 2022 2131 2235
8 1914 2028 2134 2024 2027 2136 2236 2133
8 2029 1915 2028 2137 2135 2025 2134 2237
8 2030 1918 2031 2138 2137 2028 2136 2238
8 2157 2050 2139 2240 2054 1941 2033 2140
8 2052 1940 2054 2161 2144 2035 2140 2242
8 2140 2033 2141 2243 2035 1923 2034 2143
8 2143 2034 2142 2246 2037 1924 2036 2146
8 2144 2035 2143 2247 2051 1939 2037 2147
8 2146 2036 2145 2249 2039 1925 2038 2149
8 2147 2037 2146 2250 2040 1926 2039 2150
8 2149 2038 2148 2251 2042 1927 2041 2151
8 2150 2039 2149 2252 2043 1928 2042 2152
8 2152 2042 2151 2253 2045 1931 2044 2153
8 2255 2154 2047 2155 2189 2085 1976 2086
8 2170 2062 1949 2063 2255 2154 2047 2155
8 2256 2155 2048 2156 2190 2086 1977 2087
8 2171 2063 1950 2064 2256 2155 2048 2156
8 2258 2159 2050 2157 2164 2056 1941 2054
8 2160 2053 1946 2058 2262 2163 2060 2167
8 2162 2055 1940 2052 2262 2163 2053 2160
8 2162 2055 2164 2263 2052 1940 2054 2161
8 2163 2057 1948 2060 2264 2165 2061 2168
8 2055 1943 2057 2163 2164 2056 2165 2264
8 2182 2076 2166 2268 2077 1964 2061 2168
8 2183 2077 2168 2269 2078 1965 2060 2167
8 2070 1963 2062 2170 2177 2075 2169 2271
8 2172 2070 1959 2065 2272 2170 2063 2171
8 2172 2070 2177 2273 2065 1959 2072 2173
8 2066 1958 2072 2173 2174 2071 2178 2274
8 2067 1957 2071 2174 2175 2069 2176 2275
8 2175 2069 2176 2275 2079 1973 2083 2184
8 2071 1961 2074 2178 2176 2073 2179 2276
8 2176 2073 2179 2276 2083 1975 2084 2186
8 2072 1962 2075 2177 2178 2074 2180 2277
8 2182 2076 1974 2082 2280 2181 2084 2186
8 2183 2077 1971 2081 2281 2182 2082 2185
8 2184 2083 2186 2282 2080 1972 2082 2185
8 2189 2085 1993 2095 2285 2188 2100 2197
8 2190 2086 1987 2090 2286 2189 2095 2193
8 2192 2097 1989 2089 2287 2196 2094 2191
8 2287 2196 2094 2191 2203 2104 1998 2103
8 2194 2098 1991 2091 2288 2199 2097 2192
8 2195 2096 2197 2289 2093 1988 2095 2193
8 2096 2195 2290 2198 1990 2092 2194 2098
8 2097 1996 2099 2196 2199 2102 2200 2291
8 2196 2099 1999 2104 2291 2200 2105 2204
8 2100 2197 2292 2201 1994 2096 2198 2101
8 1995 2098 2198 2101 2102 2199 2293 2202
8 2206 2107 2204 2296 2106 2001 2104 2203
8 2207 2108 2205 2297 2107 2002 2105 2204
8 2209 2110 2207 2299 2109 2004 2107 2206
8 2210 2111 2208 2300 2110 2005 2108 2207
8 2212 2113 2210 2302 2112 2007 2110 2209
8 2213 2114 2211 2303 2113 2008 2111 2210
8 2220 2117 2213 2305 2120 2011 2113 2212
8 2216 2115 2214 2306 2117 2009 2114 2213
8 2216 2115 2009 2117 2311 2217 2116 2219
8 2219 2116 2010 2119 2314 2218 2118 2222
8 2315 2219 2117 2220 2223 2119 2011 2120
8 2122 2012 2121 2225 2222 2118 2221 2317
8 2318 2222 2119 2223 2226 2122 2013 2123
8 2125 2015 2124 2228 2225 2121 2224 2320
8 2126 2016 2125 2229 2226 2122 2225 2321
8 2128 2018 2127 2231 2228 2124 2227 2323
8 2129 2019 2128 2232 2229 2125 2228 2324
8 2131 2021 2130 2234 2231 2127 2230 2326
8 2132 2022 2131 2235 2232 2128 2231 2327
8 2134 2024 2133 2236 2234 2130 2233 2328
8 2135 2025 2134 2237 2235 2131 2234 2329
8 2137 2028 2136 2238 2237 2134 2236 2330
8 2157 2050 2158 2259 2240 2139 2239 2332
8 2257 2157 2240 2334 2161 2054 2140 2242
8 2240 2139 2241 2335 2140 2033 2141 2243
8 2242 2140 2243 2337 2144 2035 2143 2247
8 2243 2141 2244 2338 2143 2034 2142 2246
8 2246 2142 2245 2341 2146 2036 2145 2249
8 2247 2143 2246 2342 2147 2037 2146 2250
8 2249 2145 2248 2343 2149 2038 2148 2251
8 2250 2146 2249 2344 2150 2039 2149 2252
8 2252 2149 2251 2345 2152 2042 2151 2253
8 2169 2271 2347 2254 2062 2170 2255 2154
8 2189 2085 2188 2285 2255 2154 2254 2347
8 2348 2255 2155 2256 2286 2189 2086 2190
8 2272 2170 2063 2171 2348 2255 2155 2256
8 2349 2258 2157 2257 2263 2164 2054 2161
8 2258 2159 2261 2351 2157 2050 2158 2259
8 2258 2159 2056 2164 2351 2261 2165 2264
8 2262 2163 2060 2167 2355 2264 2168 2269
8 2162 2055 2163 2262 2263 2164 2264 2355
8 2357 2266 2165 2264 2268 2166 2061 2168
8 2268 2166 2076 2182 2361 2267 2181 2280
8 2281 2182 2268 2362 2183 2077 2168 2269
8 2271 2169 2270 2364 2177 2075 2180 2277
8 2172 2070 2170 2272 2273 2177 2271 2365
8 2072 2173 2274 2178 2177 2273 2366 2277
8 2071 2174 2275 2176 2178 2274 2367 2276
8 2275 2176 2276 2367 2184 2083 2186 2282
8 2283 2187 2084 2186 2368 2278 2179 2276
8 2178 2074 2180 2277 2276 2179 2278 2368
8 2283 2187 2279 2370 2186 2084 2181 2280
8 2281 2182 2082 2185 2371 2280 2186 2282
8 2188 2285 2374 2284 2100 2197 2292 2201
8 2286 2189 2095 2193 2375 2285 2197 2289
8 2192 2097 2196 2287 2288 2199 2291 2376
8 2287 2196 2104 2203 2376 2291 2204 2296
8 2194 2098 2199 2288 2290 2198 2293 2377
8 2289 2197 2096 2195 2378 2292 2198 2290
8 2291 2200 2105 2204 2379 2294 2205 2297
8 2199 2102 2200 2291 2293 2202 2294 2379
8 2198 2101 2202 2293 2292 2201 2295 2380
8 2299 2207 2297 2383 2206 2107 2204 2296
8 2300 2208 2298 2384 2207 2108 2205 2297
8 2302 2210 2300 2386 2209 2110 2207 2299
8 2303 2211 2301 2387 2210 2111 2208 2300
8 2305 2213 2303 2389 2212 2113 2210 2302
8 2306 2214 2304 2390 2213 2114 2211 2303
8 2310 2216 2306 2392 2220 2117 2213 2305
8 2308 2215 2307 2393 2216 2115 2214 2306
8 2308 2215 2115 2216 2396 2309 2217 2311
8 2310 2216 2117 2220 2398 2311 2219 2315
8 2311 2217 2116 2219 2399 2312 2218 2314
8 2314 2218 2118 2222 2402 2313 2221 2317
8 2315 2219 2119 2223 2403 2314 2222 2318
8 2225 2121 2224 2320 2317 2221 2316 2405
8 2226 2122 2225 2321 2318 2222 2317 2406
8 2228 2124 2227 2323 2320 2224 2319 2408
8 2229 2125 2228 2324 2321 2225 2320 2409
8 2231 2127 2230 2326 2323 2227 2322 2411
8 2232 2128 2231 2327 2324 2228 2323 2412
8 2234 2130 2233 2328 2326 2230 2325 2413
8 2235 2131 2234 2329 2327 2231 2326 2414
8 2237 2134 2236 2330 2329 2234 2328 2415
8 2259 2158 2260 2352 2332 2239 2331 2417
8 2257 2157 2259 2350 2334 2240 2332 2419
8 2240 2139 2239 2332 2335 2241 2333 2420
8 2334 2240 2335 2422 2242 2140 2243 2337
8 2335 2241 2336 2423 2243 2141 2244 2338
8 2337 2243 2338 2425 2247 2143 2246 2342
8 2338 2244 2339 2426 2246 2142 2245 2341
8 2341 2245 2340 2428 2249 2145 2248 2343
8 2342 2246 2341 2429 2250 2146 2249 2344
8 2344 2249 2343 2430 2252 2149 2251 2345
8 2188 2285 2347 2254 2284 2374 2432 2346
8 2347 2254 2346 2432 2271 2169 2270 2364
8 2365 2271 2170 2272 2433 2347 2255 2348
8 2286 2189 2285 2375 2348 2255 2347 2433
8 2349 2258 2351 2435 2257 2157 2259 2350
8 2349 2258 2164 2263 2435 2351 2264 2355
8 2259 2158 2261 2351 2352 2260 2354 2437
8 2356 2265 2354 2437 2264 2165 2261 2351
8 2441 2357 2264 2355 2362 2268 2168 2269
8 2356 2265 2165 2264 2442 2358 2266 2357
8 2443 2359 2266 2357 2361 2267 2166 2268
8 2370 2279 2360 2446 2280 2181 2267 2361
8 2362 2268 2182 2281 2447 2361 2280 2371
8 2180 2277 2368 2278 2270 2364 2449 2363
8 2271 2365 2273 2177 2364 2450 2366 2277
8 2372 2283 2186 2282 2451 2368 2276 2367
8 2178 2274 2367 2276 2277 2366 2451 2368
8 2283 2187 2278 2368 2370 2279 2369 2452
8 2372 2283 2370 2453 2282 2186 2280 2371
8 2284 2374 2455 2373 2201 2292 2380 2295
8 2375 2285 2197 2289 2456 2374 2292 2378
8 2376 2291 2204 2296 2457 2379 2297 2383
8 2288 2199 2291 2376 2377 2293 2379 2457
8 2198 2290 2378 2292 2293 2377 2458 2380
8 2293 2202 2294 2379 2380 2295 2381 2459
8 2384 2298 2381 2459 2297 2205 2294 2379
8 2386 2300 2384 2463 2299 2207 2297 2383
8 2387 2301 2385 2464 2300 2208 2298 2384
8 2389 2303 2387 2466 2302 2210 2300 2386
8 2390 2304 2388 2467 2303 2211 2301 2387
8 2392 2306 2390 2469 2305 2213 2303 2389
8 2393 2307 2391 2470 2306 2214 2304 2390
8 2395 2308 2393 2472 2310 2216 2306 2392
8 2308 2215 2309 2396 2393 2307 2394 2473
8 2395 2308 2216 2310 2475 2396 2311 2398
8 2396 2309 2217 2311 2476 2397 2312 2399
8 2398 2311 2219 2315 2478 2399 2314 2403
8 2399 2312 2218 2314 2479 2400 2313 2402
8 2317 2221 2316 2405 2402 2313 2401 2482
8 2403 2314 2222 2318 2483 2402 2317 2406
8 2320 2224 2319 2408 2405 2316 2404 2485
8 2321 2225 2320 2409 2406 2317 2405 2486
8 2323 2227 2322 2411 2408 2319 2407 2488
8 2324 2228 2323 2412 2409 2320 2408 2489
8 2326 2230 2325 2413 2411 2322 2410 2490
8 2327 2231 2326 2414 2412 2323 2411 2491
8 2329 2234 2328 2415 2414 2326 2413 2492
8 2417 2331 2260 2352 2494 2416 2353 2438
8 2350 2259 2352 2436 2419 2332 2417 2496
8 2332 2239 2331 2417 2420 2333 2418 2497
8 2334 2240 2332 2419 2422 2335 2420 2499
8 2420 2333 2421 2500 2335 2241 2336 2423
8 2422 2335 2423 2502 2337 2243 2338 2425
8 2423 2336 2424 2503 2338 2244 2339 2426
8 2425 2338 2426 2505 2342 2246 2341 2429
8 2426 2339 2427 2506 2341 2245 2340 2428
8 2429 2341 2428 2507 2344 2249 2343 2430
8 2432 2346 2284 2374 2509 2431 2373 2455
8 2432 2346 2431 2509 2364 2270 2363 2449
8 2375 2285 2374 2456 2433 2347 2432 2510
8 2347 2433 2365 2271 2432 2510 2450 2364
8 2350 2259 2351 2435 2436 2352 2437 2514
8 2440 2356 2437 2514 2355 2264 2351 2435
8 2352 2260 2354 2437 2438 2353 2439 2516
8 2356 2265 2358 2442 2437 2354 2439 2516
8 2440 2356 2264 2355 2518 2442 2357 2441
8 2519 2443 2357 2441 2447 2361 2268 2362
8 2443 2359 2444 2520 2357 2266 2358 2442
8 2443 2359 2267 2361 2520 2444 2360 2446
8 2446 2360 2279 2370 2523 2445 2369 2452
8 2453 2370 2446 2524 2371 2280 2361 2447
8 2449 2363 2448 2525 2368 2278 2369 2452
8 2366 2277 2364 2450 2451 2368 2449 2526
8 2372 2283 2368 2451 2453 2370 2452 2527
8 2455 2373 2295 2380 2529 2454 2382 2460
8 2456 2374 2292 2378 2530 2455 2380 2458
8 2377 2293 2379 2457 2458 2380 2459 2531
8 2463 2384 2459 2531 2383 2297 2379 2457
8 2533 2461 2382 2460 2459 2381 2295 2380
8 2464 2385 2461 2533 2384 2298 2381 2459
8 2466 2387 2464 2537 2386 2300 2384 2463
8 2467 2388 2465 2538 2387 2301 2385 2464
8 2469 2390 2467 2540 2389 2303 2387 2466
8 2470 2391 2468 2541 2390 2304 2388 2467
8 2472 2393 2470 2543 2392 2306 2390 2469
8 2393 2307 2394 2473 2470 2391 2471 2544
8 2395 2308 2396 2475 2472 2393 2473 2546
8 2396 2309 2397 2476 2473 2394 2474 2547
8 2475 2396 2311 2398 2549 2476 2399 2478
8 2476 2397 2312 2399 2550 2477 2400 2479
8 2478 2399 2314 2403 2552 2479 2402 2483
8 2479 2400 2313 2402 2553 2480 2401 2482
8 2405 2316 2404 2485 2482 2401 2481 2556
8 2406 2317 2405 2486 2483 2402 2482 2557
8 2408 2319 2407 2488 2485 2404 2484 2559
8 2409 2320 2408 2489 2486 2405 2485 2560
8 2411 2322 2410 2490 2488 2407 2487 2561
8 2412 2323 2411 2491 2489 2408 2488 2562
8 2414 2326 2413 2492 2491 2411 2490 2563
8 2513 2434 2493 2565 2438 2353 2416 2494
8 2496 2417 2352 2436 2567 2494 2438 2515
8 2494 2416 2495 2568 2417 2331 2418 2497
8 2419 2332 2417 2496 2499 2420 2497 2570
8 2497 2418 2498 2571 2420 2333 2421 2500
8 2499 2420 2500 2573 2422 2335 2423 2502
8 2500 2421 2501 2574 2423 2336 2424 2503
8 2502 2423 2503 2576 2425 2338 2426 2505
8 2503 2424 2504 2577 2426 2339 2427 2506
8 2505 2426 2506 2578 2429 2341 2428 2507
8 2509 2431 2373 2455 2580 2508 2454 2529
8 2509 2431 2508 2580 2449 2363 2448 2525
8 2432 2510 2581 2509 2374 2456 2530 2455
8 2432 2510 2450 2364 2509 2581 2526 2449
8 2583 2511 2434 2513 2516 2439 2353 2438
8 2436 2352 2437 2514 2515 2438 2516 2588
8 2440 2356 2442 2518 2514 2437 2516 2588
8 2442 2358 2444 2520 2516 2439 2517 2589
8 2519 2443 2520 2591 2441 2357 2442 2518
8 2519 2443 2361 2447 2591 2520 2446 2524
8 2446 2360 2445 2523 2520 2444 2521 2592
8 2525 2448 2522 2593 2452 2369 2445 2523
8 2524 2446 2370 2453 2594 2523 2452 2527
8 2526 2449 2525 2595 2451 2368 2452 2527
8 2534 2462 2528 2597 2460 2382 2454 2529
8 2530 2455 2380 2458 2598 2529 2460 2532
8 2599 2533 2460 2532 2531 2459 2380 2458
8 2537 2464 2533 2599 2463 2384 2459 2531
8 2534 2462 2382 2460 2601 2535 2461 2533
8 2538 2465 2535 2601 2464 2385 2461 2533
8 2540 2467 2538 2604 2466 2387 2464 2537
8 2541 2468 2539 2605 2467 2388 2465 2538
8 2543 2470 2541 2607 2469 2390 2467 2540
8 2470 2391 2471 2544 2541 2468 2542 2608
8 2472 2393 2473 2546 2543 2470 2544 2610
8 2473 2394 2474 2547 2544 2471 2545 2611
8 2475 2396 2476 2549 2546 2473 2547 2613
8 2476 2397 2477 2550 2547 2474 2548 2614
8 2549 2476 2399 2478 2616 2550 2479 2552
8 2479 2400 2480 2553 2550 2477 2551 2617
8 2552 2479 2402 2483 2619 2553 2482 2557
8 2482 2401 2481 2556 2553 2480 2554 2620
8 2485 2404 2484 2559 2556 2481 2555 2623
8 2486 2405 2485 2560 2557 2482 2556 2624
8 2488 2407 2487 2561 2559 2484 2558 2625
8 2489 2408 2488 2562 2560 2485 2559 2626
8 2491 2411 2490 2563 2562 2488 2561 2627
8 2513 2434 2512 2585 2565 2493 2564 2630
8 2586 2513 2565 2632 2515 2438 2494 2567
8 2565 2493 2566 2633 2494 2416 2495 2568
8 2567 2494 2568 2635 2496 2417 2497 2570
8 2568 2495 2569 2636 2497 2418 2498 2571
8 2570 2497 2571 2638 2499 2420 2500 2573
8 2571 2498 2572 2639 2500 2421 2501 2574
8 2573 2500 2574 2641 2502 2423 2503 2576
8 2574 2501 2575 2642 2503 2424 2504 2577
8 2576 2503 2577 2643 2505 2426 2506 2578
8 2597 2528 2579 2645 2529 2454 2508 2580
8 2580 2508 2579 2645 2525 2448 2522 2593
8 2581 2509 2455 2530 2646 2580 2529 2598
8 2581 2509 2580 2646 2526 2449 2525 2595
8 2583 2511 2582 2648 2513 2434 2512 2585
8 2583 2511 2439 2516 2648 2582 2517 2589
8 2649 2583 2513 2586 2588 2516 2438 2515
8 2589 2517 2444 2520 2653 2587 2521 2592
8 2518 2442 2520 2591 2588 2516 2589 2654
8 2593 2522 2590 2655 2523 2445 2521 2592
8 2524 2446 2523 2594 2591 2520 2592 2656
8 2595 2525 2593 2657 2527 2452 2523 2594
8 2602 2536 2596 2659 2534 2462 2528 2597
8 2600 2534 2597 2660 2532 2460 2529 2598
8 2600 2534 2460 2532 2661 2601 2533 2599
8 2604 2538 2601 2661 2537 2464 2533 2599
8 2602 2536 2462 2534 2663 2603 2535 2601
8 2601 2535 2465 2538 2663 2603 2539 2605
8 2607 2541 2605 2665 2540 2467 2538 2604
8 2608 2542 2606 2666 2541 2468 2539 2605
8 2543 2470 2544 2610 2607 2541 2608 2668
8 2544 2471 2545 2611 2608 2542 2609 2669
8 2546 2473 2547 2613 2610 2544 2611 2671
8 2547 2474 2548 2614 2611 2545 2612 2672
8 2549 2476 2550 2616 2613 2547 2614 2674
8 2550 2477 2551 2617 2614 2548 2615 2675
8 2552 2479 2553 2619 2616 2550 2617 2677
8 2553 2480 2554 2620 2617 2551 2618 2678
8 2557 2482 2556 2624 2619 2553 2620 2680
8 2556 2481 2555 2623 2620 2554 2621 2681
8 2559 2484 2558 2625 2623 2555 2622 2683
8 2560 2485 2559 2626 2624 2556 2623 2684
8 2562 2488 2561 2627 2626 2559 2625 2685
8 2690 2629 2564 2630 2650 2584 2512 2585
8 2586 2513 2585 2651 2632 2565 2630 2691
8 2630 2564 2631 2692 2565 2493 2566 2633
8 2632 2565 2633 2694 2567 2494 2568 2635
8 2633 2566 2634 2695 2568 2495 2569 2636
8 2635 2568 2636 2697 2570 2497 2571 2638
8 2636 2569 2637 2698 2571 2498 2572 2639
8 2638 2571 2639 2700 2573 2500 2574 2641
8 2639 2572 2640 2701 2574 2501 2575 2642
8 2641 2574 2642 2702 2576 2503 2577 2643
8 2597 2528 2596 2659 2645 2579 2644 2704
8 2645 2579 2644 2704 2593 2522 2590 2655
8 2660 2597 2645 2705 2598 2529 2580 2646
8 2646 2580 2645 2705 2595 2525 2593 2657
8 2650 2584 2512 2585 2707 2647 2582 2648
8 2648 2582 2517 2589 2707 2647 2587 2653
8 2649 2583 2648 2708 2586 2513 2585 2651
8 2649 2583 2516 2588 2708 2648 2589 2654
8 2655 2590 2652 2710 2592 2521 2587 2653
8 2654 2589 2520 2591 2711 2653 2592 2656
8 2657 2593 2655 2712 2594 2523 2592 2656
8 2602 2536 2603 2663 2659 2596 2658 2714
8 2662 2602 2659 2715 2600 2534 2597 2660
8 2662 2602 2534 2600 2717 2663 2601 2661
8 2661 2601 2538 2604 2717 2663 2605 2665
8 2666 2606 2664 2718 2605 2539 2603 2663
8 2668 2608 2666 2720 2607 2541 2605 2665
8 2608 2542 2609 2669 2666 2606 2667 2721
8 2610 2544 2611 2671 2668 2608 2669 2723
8 2611 2545 2612 2672 2669 2609 2670 2724
8 2613 2547 2614 2674 2671 2611 2672 2726
8 2614 2548 2615 2675 2672 2612 2673 2727
8 2616 2550 2617 2677 2674 2614 2675 2729
8 2617 2551 2618 2678 2675 2615 2676 2730
8 2619 2553 2620 2680 2677 2617 2678 2732
8 2620 2554 2621 2681 2678 2618 2679 2733
8 2624 2556 2623 2684 2680 2620 2681 2735
8 2681 2621 2555 2623 2736 2682 2622 2683
8 2626 2559 2625 2685 2684 2623 2683 2737
8 2688 2628 2584 2650 2740 2686 2647 2707
8 2688 2628 2687 2742 2650 2584 2629 2690
8 2690 2629 2689 2745 2630 2564 2631 2692
8 2746 2690 2630 2691 2709 2650 2585 2651
8 2691 2630 2692 2747 2632 2565 2633 2694
8 2692 2631 2693 2748 2633 2566 2634 2695
8 2694 2633 2695 2750 2635 2568 2636 2697
8 2695 2634 2696 2751 2636 2569 2637 2698
8 2697 2636 2698 2753 2638 2571 2639 2700
8 2698 2637 2699 2754 2639 2572 2640 2701
8 2700 2639 2701 2755 2641 2574 2642 2702
8 2659 2596 2658 2714 2704 2644 2703 2757
8 2704 2644 2703 2757 2655 2590 2652 2710
8 2660 2597 2659 2715 2705 2645 2704 2758
8 2705 2645 2704 2758 2657 2593 2655 2712
8 2759 2706 2647 2707 2710 2652 2587 2653
8 2709 2650 2585 2651 2760 2707 2648 2708
8 2708 2648 2589 2654 2760 2707 2653 2711
8 2712 2655 2710 2761 2656 2592 2653 2711
8 2763 2713 2658 2714 2718 2664 2603 2663
8 2662 2602 2663 2717 2715 2659 2714 2764
8 2720 2666 2718 2767 2665 2605 2663 2717
8 2768 2719 2664 2718 2721 2667 2606 2666
8 2668 2608 2669 2723 2720 2666 2721 2770
8 2669 2609 2670 2724 2721 2667 2722 2771
8 2671 2611 2672 2726 2723 2669 2724 2773
8 2672 2612 2673 2727 2724 2670 2725 2774
8 2674 2614 2675 2729 2726 2672 2727 2776
8 2675 2615 2676 2730 2727 2673 2728 2777
8 2677 2617 2678 2732 2729 2675 2730 2779
8 2678 2618 2679 2733 2730 2676 2731 2780
8 2680 2620 2681 2735 2732 2678 2733 2782
8 2733 2679 2621 2681 2783 2734 2682 2736
8 2735 2681 2623 2684 2784 2736 2683 2737
8 2740 2686 2647 2707 2787 2738 2706 2759
8 2688 2628 2686 2740 2742 2687 2739 2789
8 2743 2688 2650 2709 2790 2740 2707 2760
8 2742 2687 2741 2792 2690 2629 2689 2745
8 2743 2688 2742 2793 2709 2650 2690 2746
8 2745 2689 2744 2795 2692 2631 2693 2748
8 2746 2690 2745 2796 2691 2630 2692 2747
8 2747 2692 2748 2797 2694 2633 2695 2750
8 2748 2693 2749 2798 2695 2634 2696 2751
8 2750 2695 2751 2800 2697 2636 2698 2753
8 2751 2696 2752 2801 2698 2637 2699 2754
8 2753 2698 2754 2802 2700 2639 2701 2755
8 2763 2713 2756 2804 2714 2658 2703 2757
8 2759 2706 2652 2710 2804 2756 2703 2757
8 2715 2659 2714 2764 2758 2704 2757 2805
8 2758 2704 2757 2805 2712 2655 2710 2761
8 2806 2759 2707 2760 2761 2710 2653 2711
8 2765 2716 2762 2808 2718 2664 2713 2763
8 2809 2763 2714 2764 2767 2718 2663 2717
8 2765 2716 2664 2718 2811 2766 2719 2768
8 2813 2768 2718 2767 2770 2721 2666 2720
8 2814 2769 2719 2768 2771 2722 2667 2721
8 2723 2669 2724 2773 2770 2721 2771 2816
8 2724 2670 2725 2774 2771 2722 2772 2817
8 2726 2672 2727 2776 2773 2724 2774 2819
8 2727 2673 2728 2777 2774 2725 2775 2820
8 2729 2675 2730 2779 2776 2727 2777 2822
8 2730 2676 2731 2780 2777 2728 2778 2823
8 2732 2678 2733 2782 2779 2730 2780 2825
8 2780 2731 2679 2733 2826 2781 2734 2783
8 2782 2733 2681 2735 2827 2783 2736 2784
8 2830 2785 2738 2787 2804 2756 2706 2759
8 2789 2739 2686 2740 2832 2786 2738 2787
8 2790 2740 2707 2760 2833 2787 2759 2806
8 2742 2687 2739 2789 2792 2741 2788 2835
8 2743 2688 2740 2790 2793 2742 2789 2836
8 2792 2741 2791 2838 2745 2689 2744 2795
8 2793 2742 2792 2839 2746 2690 2745 2796
8 2795 2744 2794 2841 2748 2693 2749 2798
8 2796 2745 2795 2842 2747 2692 2748 2797
8 2797 2748 2798 2843 2750 2695 2751 2800
8 2798 2749 2799 2844 2751 2696 2752 2801
8 2800 2751 2801 2845 2753 2698 2754 2802
8 2808 2762 2803 2847 2763 2713 2756 2804
8 2809 2763 2804 2848 2764 2714 2757 2805
8 2806 2759 2710 2761 2848 2804 2757 2805
8 2765 2716 2766 2811 2808 2762 2807 2850
8 2810 2765 2808 2851 2767 2718 2763 2809
8 2810 2765 2718 2767 2852 2811 2768 2813
8 2811 2766 2719 2768 2853 2812 2769 2814
8 2855 2814 2768 2813 2816 2771 2721 2770
8 2856 2815 2769 2814 2817 2772 2722 2771
8 2773 2724 2774 2819 2816 2771 2817 2858
8 2774 2725 2775 2820 2817 2772 2818 2859
8 2776 2727 2777 2822 2819 2774 2820 2861
8 2777 2728 2778 2823 2820 2775 2821 2862
8 2779 2730 2780 2825 2822 2777 2823 2864
8 2823 2778 2731 2780 2865 2824 2781 2826
8 2825 2780 2733 2782 2866 2826 2783 2827
8 2869 2828 2785 2830 2847 2803 2756 2804
8 2871 2829 2786 2832 2830 2785 2738 2787
8 2872 2830 2787 2833 2848 2804 2759 2806
8 2789 2739 2786 2832 2835 2788 2831 2874
8 2836 2789 2740 2790 2875 2832 2787 2833
8 2792 2741 2788 2835 2838 2791 2834 2877
8 2793 2742 2789 2836 2839 2792 2835 2878
8 2838 2791 2837 2880 2795 2744 2794 2841
8 2839 2792 2838 2881 2796 2745 2795 2842
8 2841 2794 2840 2882 2798 2749 2799 2844
8 2842 2795 2841 2883 2797 2748 2798 2843
8 2843 2798 2844 2884 2800 2751 2801 2845
8 2886 2846 2803 2847 2850 2807 2762 2808
8 2851 2808 2847 2887 2809 2763 2804 2848
8 2850 2807 2766 2811 2889 2849 2812 2853
8 2810 2765 2811 2852 2851 2808 2850 2890
8 2852 2811 2768 2813 2891 2853 2814 2855
8 2853 2812 2769 2814 2892 2854 2815 2856
8 2894 2856 2814 2855 2858 2817 2771 2816
8 2817 2772 2818 2859 2856 2815 2857 2895
8 2819 2774 2820 2861 2858 2817 2859 2897
8 2820 2775 2821 2862 2859 2818 2860 2898
8 2822 2777 2823 2864 2861 2820 2862 2900
8 2823 2778 2824 2865 2862 2821 2863 2901
8 2864 2823 2780 2825 2902 2865 2826 2866
8 2904 2867 2828 2869 2886 2846 2803 2847
8 2869 2828 2868 2906 2830 2785 2829 2871
8 2907 2869 2830 2872 2887 2847 2804 2848
8 2871 2829 2870 2909 2832 2786 2831 2874
8 2910 2871 2832 2875 2872 2830 2787 2833
8 2835 2788 2831 2874 2877 2834 2873 2912
8 2836 2789 2832 2875 2878 2835 2874 2913
8 2877 2834 2876 2915 2838 2791 2837 2880
8 2839 2792 2835 2878 2881 2838 2877 2916
8 2880 2837 2879 2917 2841 2794 2840 2882
8 2881 2838 2880 2918 2842 2795 2841 2883
8 2883 2841 2882 2919 2843 2798 2844 2884
8 2921 2885 2846 2886 2889 2849 2807 2850
8 2922 2886 2847 2887 2890 2850 2808 2851
8 2889 2849 2812 2853 2924 2888 2854 2892
8 2890 2850 2811 2852 2925 2889 2853 2891
8 2891 2853 2814 2855 2926 2892 2856 2894
8 2892 2854 2815 2856 2927 2893 2857 2895
8 2858 2817 2859 2897 2894 2856 2895 2929
8 2859 2818 2860 2898 2895 2857 2896 2930
8 2861 2820 2862 2900 2897 2859 2898 2932
8 2862 2821 2863 2901 2898 2860 2899 2933
8 2864 2823 2865 2902 2900 2862 2901 2934
8 2904 2867 2846 2886 2936 2903 2885 2921
8 2904 2867 2903 2936 2869 2828 2868 2906
8 2937 2904 2869 2907 2922 2886 2847 2887
8 2906 2868 2905 2939 2871 2829 2870 2909
8 2907 2869 2906 2940 2872 2830 2871 2910
8 2909 2870 2908 2942 2874 2831 2873 2912
8 2910 2871 2909 2943 2875 2832 2874 2913
8 2912 2873 2911 2945 2877 2834 2876 2915
8 2878 2835 2874 2913 2916 2877 2912 2946
8 2915 2876 2914 2947 2880 2837 2879 2917
8 2916 2877 2915 2948 2881 2838 2880 2918
8 2918 2880 2917 2949 2883 2841 2882 2919
8 2921 2885 2849 2889 2951 2920 2888 2924
8 2952 2921 2886 2922 2925 2889 2850 2890
8 2924 2888 2854 2892 2954 2923 2893 2927
8 2925 2889 2853 2891 2955 2924 2892 2926
8 2926 2892 2856 2894 2956 2927 2895 2929
8 2895 2857 2896 2930 2927 2893 2928 2957
8 2897 2859 2898 2932 2929 2895 2930 2959
8 2898 2860 2899 2933 2930 2896 2931 2960
8 2900 2862 2901 2934 2932 2898 2933 2961
8 2936 2903 2885 2921 2963 2935 2920 2951
8 2936 2903 2935 2963 2906 2868 2905 2939
8 2937 2904 2886 2922 2964 2936 2921 2952
8 2937 2904 2936 2964 2907 2869 2906 2940
8 2939 2905 2938 2966 2909 2870 2908 2942
8 2940 2906 2939 2967 2910 2871 2909 2943
8 2942 2908 2941 2969 2912 2873 2911 2945
8 2943 2909 2942 2970 2913 2874 2912 2946
8 2945 2911 2944 2971 2915 2876 2914 2947
8 2946 2912 2945 2972 2916 2877 2915 2948
8 2948 2915 2947 2973 2918 2880 2917 2949
8 2951 2920 2888 2924 2975 2950 2923 2954
8 2952 2921 2889 2925 2976 2951 2924 2955
8 2927 2893 2928 2957 2954 2923 2953 2978
8 2955 2924 2892 2926 2979 2954 2927 2956
8 2929 2895 2930 2959 2956 2927 2957 2980
8 2930 2896 2931 2960 2957 2928 2958 2981
8 2932 2898 2933 2961 2959 2930 2960 2982
8 2951 2920 2950 2975 2963 2935 2962 2984
8 2963 2935 2962 2984 2939 2905 2938 2966
8 2964 2936 2921 2952 2985 2963 2951 2976
8 2964 2936 2963 2985 2940 2906 2939 2967
8 2966 2938 2965 2987 2942 2908 2941 2969
8 2967 2939 2966 2988 2943 2909 2942 2970
8 2969 2941 2968 2989 2945 2911 2944 2971
8 2970 2942 2969 2990 2946 2912 2945 2972
8 2972 2945 2971 2991 2948 2915 2947 2973
8 2954 2923 2953 2978 2975 2950 2974 2993
8 2976 2951 2924 2955 2994 2975 2954 2979
8 2957 2928 2958 2981 2978 2953 2977 2995
8 2956 2927 2957 2980 2979 2954 2978 2996
8 2959 2930 2960 2982 2980 2957 2981 2997
8 2984 2962 2983 2999 2966 2938 2965 2987
8 2975 2950 2974 2993 2984 2962 2983 2999
8 2976 2951 2975 2994 2985 2963 2984 3000
8 2985 2963 2984 3000 2967 2939 2966 2988
8 2987 2965 2986 3001 2969 2941 2968 2989
8 2988 2966 2987 3002 2970 2942 2969 2990
8 2990 2969 2989 3003 2972 2945 2971 2991
8 2978 2953 2977 2995 2993 2974 2992 3004
8 2979 2954 2978 2996 2994 2975 2993 3005
8 2980 2957 2981 2997 2996 2978 2995 3006
8 2974 2993 2999 2983 2992 3004 3007 2998
8 2983 2999 2987 2965 2998 3007 3001 2986
8 3000 2984 2999 3008 2988 2966 2987 3002
8 2994 2975 2993 3005 3000 2984 2999 3008
8 3002 2987 3001 3009 2990 2969 2989 3003
8 2996 2978 2995 3006 3005 2993 3004 3010
8 3005 2993 3004 3010 3008 2999 3007 3011
8 3008 2999 3007 3011 3002 2987 3001 3009

CELL_TYPES 1910
12
12
12
12
12
12
12
12
12
12
12
12
12
12
12
12
12
12
12
12
12
12
12
12
12
12
12
12
12
12
12
12
12
12
12
12
12
12
12
12
12
12
12
12
12
12
12
12
12
12
12
12
12
12
12
12
12
12
12
12
12
12
12
12
12
12
12
12
12
12
12
12
12
12
12
12
12
12
12
12
12
12
12
12
12
12
12
12
12
12
12
12
12
12
12
12
12
12
12
12
12
12
12
12
12
12
12
12
12
12
12
12
12
12
12
12
12
12
12
12
12
12
12
12
12
12
12
12
12
12
12
12
12
12
12
12
12
12
12
12
12
12
12
12
12
12
12
12
12
12
12
12
12
12
12
12
12
12
12
12
12
12
12
12
12
12
12
12
12
12
12
12
12
12
12
12
12
12
12
12
12
12
12
12
12
12
12
12
12
12
12
12
12
12
12
12
12
12
12
12
12
12
12
12
12
12
12
12
12
12
12
12
12
12
12
12
12
12
12
12
12
12
12
12
12
12
12
12
12
12
12
12
12
12
12
12
12
12
12
12
12
12
12
12
12
12
12
12
12
12
12
12
12
12
12
12
12
12
12
12
12
12
12
12
12
12
12
12
12
12
12
12
12
12
12
12
12
12
12
12
12
12
12
12
12
12
12
12
12
12
12
12
12
12
12
12
12
12
12
12
12
12
12
12
12
12
12
12
12
12
12
12
12
12
12
12
12
12
12
12
12
12
12
12
12
12
12
12
12
12
12
12
12
12
12
12
12
12
12
12
12
12
12
12
12
12
12
12
12
12
12
12
12
12
12
12
12
12
12
12
12
12
12
12
12
12
12
12
12
12
12
12
12
12
12
12
12
12
12
12
12
12
12
12
12
12
12
12
12
12
12
12
12
12
12
12
12
12
12
12
12
12
12
12
12
12
12
12
12
12
12
12
12
12
12
12
12
12
12
12
12
12
12
12
12
12
12
12
12
12
12
12
12
12
12
12
12
12
12
12
12
12
12
12
12
12
12
12
12
12
12
12
12
12
12
12
12
12
12
12
12
12
12
12
12
12
12
12
12
12
12
12
12
12
12
12
12
12
12
12
12
12
12
12
12
12
12
12
12
12
12
12
12
12
12
12
12
12
12
12
12
12
12
12
12
12
12
12
12
12
12
12
12
12
12
12
12
12
12
12
12
12
12
12
12
12
12
12
12
12
12
12
12
12
12
12
12
12
12
12
12
12
12
12
12
12
12
12
12
12
12
12
12
12
12
12
12
12
12
12
12
12
12
12
12
12
12
12
12
12
12
12
12
12
12
12
12
12
12
12
12
12
12
12
12
12
12
12
12
12
12
12
12
12
12
12
12
12
12
12
12
12
12
12
12
12
12
12
12
12
12
12
12
12
12
12
12
12
12
12
12
12
12
12
12
12
12
12
12
12
12
12
12
12
12
12
12
12
12
12
12
12
12
12
12
12
12
12
12
12
12
12
12
12
12
12
12
12
12
12
12
12
12
12
12
12
12
12
12
12
12
12
12
12
12
12
12
12
12
12
12
12
12
12
12
12
12
12
12
12
12
12
12
12
12
12
12
12
12
12
12
12
12
12
12
12
12
12
12
12
12
12
12
12
12
12
12
12
12
12
12
12
12
12
12
12
12
12
12
12
12
12
12
12
12
12
12
12
12
12
12
12
12
12
12
12
12
12
12
12
12
12
12
12
12
12
12
12
12
12
12
12
12
12
12
12
12
12
12
12
12
12
12
12
12
12
12
12
12
12
12
12
12
12
12
12
12
12
12
12
12
12
12
12
12
12
12
12
12
12
12
12
12
12
12
12
12
12
12
12
12
12
12
12
12
12
12
12
12
12
12
12
12
12
12
12
12
12
12
12
12
12
12
12
12
12
12
12
12
12
12
12
12
12
12
12
12
12
12
12
12
12
12
12
12
12
12
12
12
12
12
12
12
12
12
12
12
12
12
12
12
12
12
12
12
12
12
12
12
12
12
12
12
12
12
12
12
12
12
12
12
12
12
12
12
12
12
12
12
12
12
12
12
12
12
12
12
12
12
12
12
12
12
12
12
12
12
12
12
12
12
12
12
12
12
12
12
12
12
12
12
12
12
12
12
12
12
12
12
12
12
12
12
12
12
12
12
12
12
12
12
12
12
12
12
12
12
12
12
12
12
12
12
12
12
12
12
12
12
12
12
12
12
12
12
12
12
12
12
12
12
12
12
12
12
12
12
12
12
12
12
12
12
12
12
12
12
12
12
12
12
12
12
12
12
12
12
12
12
12
12
12
12
12
12
12
12
12
12
12
12
12
12
12
12
12
12
12
12
12
12
12
12
12
12
12
12
12
12
12
12
12
12
12
12
12
12
12
12
12
12
12
12
12
12
12
12
12
12
12
12
12
12
12
12
12
12
12
12
12
12
12
12
12
12
12
12
12
12
12
12
12
12
12
12
12
12
12
12
12
12
12
12
12
12
12
12
12
12
12
12
12
12
12
12
12
12
12
12
12
12
12
12
12
12
12
12
12
12
12
12
12
12
12
12
12
12
12
12
12
12
12
12
12
12
12
12
12
12
12
12
12
12
12
12
12
12
12
12
12
12
12
12
12
12
12
12
12
12
12
12
12
12
12
12
12
12
12
12
12
12
12
12
12
12
12
12
12
12
12
12
12
12
12
12
12
12
12
12
12
12
12
12
12
12
12
12
12
12
12
12
12
12
12
12
12
12
12
12
12
12
12
12
12
12
12
12
12
12
12
12
12
12
12
12
12
12
12
12
12
12
12
12
12
12
12
12
12
12
12
12
12
12
12
12
12
12
12
12
12
12
12
12
12
12
12
12
12
12
12
12
12
12
12
12
12
12
12
12
12
12
12
12
12
12
12
12
12
12
12
12
12
12
12
12
12
12
12
12
12
12
12
12
12
12
12
12
12
12
12
12
12
12
12
12
12
12
12
12
12
12
12
12
12
12
12
12
12
12
12
12
12
12
12
12
12
12
12
12
12
12
12
12
12
12
12
12
12
12
12
12
12
12
12
12
12
12
12
12
12
12
12
12
12
12
12
12
12
12
12
12
12
12
12
12
12
12
12
12
12
12
12
12
12
12
12
12
12
12
12
12
12
12
12
12
12
12
12
12
12
12
12
12
12
12
12
12
12
12
12
12
12
12
12
12
12
12
12
12
12
12
12
12
12
12
12
12
12
12
12
12
12
12
12
12
12
12
12
12
12
12
12
12
12
12
12
12
12
12
12
12
12
12
12
12
12
12
12
12
12
12
12
12
12
12
12
12
12
12
12
12
12
12
12
12
12
12
12
12
12
12
12
12
12
12
12
12
12
12
12
12
12
12
12
12
12
12
12
12
12
12
12
12
12
12
12
12
12
12
12
12
12
12
12
12
12
12
12
12
12
12
12
12
12
12
12
12
12
12
12
12
12
12
12
12
12
12
12
12
12
12
12
12
12
12
12
12
12
12
12
12
12
12
12
12
12
12
12
12
12
12
12
12
12
12
12
12
12
12
12
12
12
12
12
12
12
12
12
12
12
12
12
12
12
12
12
12
12
12
12
12
12
12
12
12
12
12
12
12
12
12
12
12
12
12
12
12
12
12
12
12
12
12
12
12
12
12
12
12
12
12
12
12
12
12
12
12
12
12
12
12
12
12
12
12
12
12
12
12
12
12
12
12
12
12
12
12
12
12
12
12
12
12
12
12
12
12
12
12
12
12
12
12
12
12
12
12
12
12
12
12
12
12
12
12
12
12
12
12
12
12
12
12
12
12
12
12
12
12
12
12
12
12
12
12
12
12
12
12
12
12
12
12
12
12
12
12
12
12
12
12
12
12
12
12
12
12
12
12
12
12
12
12
12
12
12
12
12
12
12
12
12
12
12
12
12
12
12
12
12
12
12
12
12
12
12
12
12
12
12
12
12
12
12
12
12
12
12
12
12
12
12
12
12
12
12
12
12
12
12
12
12
12
12
12
12
12
12
12
12
12
12
12
12
12
12
12
12
12
12
12
12
12
12
12
12
12
12
12
12
12
12
12
12
12
12
12
12
12
12
12
12
12
12
12
12
12
12
12
12
12
12
12
12
12
12
12
12
12
12
12
12
12
12
12
12
12
12
12
12
12
12
12
12
12
12
12
12
12
12
12
12
12
12
12
12
12
12
12
12
12
12
12
12
12
12
12
12
12
12
12
12
12
12
12
12
12
12
12
12
12
12
12
12
12
12
12
12
12
12
12
12
12
12
12
12
12
12
12
12
12
12
12
12
12
12
12
12
12
12
12
12
12
12
12
12
12
12
12
12

POINT_DATA 3012
SCALARS Jp_lamdaP float 4
LOOKUP_TABLE default
0.999882 1 1 0.999882
1 1 1 1
0.999885 1 1 0.999885
0.999842 1 1 0.999842
0.99988 1 1 0.99988
0.999878 1 1 0.999878
0.999403 1 1 0.999403
1 1 1 1
1 1 1 1
1 1 1 1
0.999952 1 1 0.999952
0.999569 1 1 0.999569
0.999803 1 1 0.999803
0.999833 1 1 0.999833
0.999885 1 1 0.999885
0.999856 1 1 0.999856
0.999883 1 1 0.999883
0.999887 1 1 0.999887
0.999406 1 1 0.999406
1 1 1 1
0.999824 1 1 0.999824
0.999864 1 1 0.999864
0.999276 1 1 0.999276
0.999371 1 1 0.999371
0.9999 1 1 0.9999
0.999439 1 1 0.999439
0.998643 1 1 0.998643
1 1 1 1
0.99993 1 1 0.99993
0.999943 1 1 0.999943
1 1 1 1
0.999577 1 1 0.999577
0.999855 1 1 0.999855
0.999877 1 1 0.999877
0.999478 1 1 0.999478
1 1 1 1
0.999568 1 1 0.999568
0.999663 1 1 0.999663
0.998701 1 1 0.998701
1 1 1 1
1 1 1 1
0.999914 1 1 0.999914
1 1 1 1
0.999824 1 1 0.999824
0.999207 1 1 0.999207
1 1 1 1
0.999388 1 1 0.999388
0.999867 1 1 0.999867
0.999892 1 1 0.999892
0.999885 1 1 0.999885
0.999411 1 1 0.999411
0.999899 1 1 0.999899
0.999837 1 1 0.999837
0.999909 1 1 0.999909
0.999876 1 1 0.999876
0.999277 1 1 0.999277
0.999444 1 1 0.999444
0.999374 1 1 0.999374
0.998628 1 1 0.998628
1 1 1 1
0.99981 1 1 0.99981
0.999356 1 1 0.999356
0.999241 1 1 0.999241
0.999324 1 1 0.999324
0.99888 1.00053 1 0.998347
0.998497 1.00001 1 0.998482
0.99995 1 1 0.99995
0.999554 1 1 0.999554
0.998749 1 1 0.998749
1.0017 1.00376 1 0.997949
1 1 1 1
1 1 1 1
1 1 1 1
0.999585 1 1 0.999585
1 1 1 1
1 1 1 1
0.999412 1 1 0.999412
0.999991 1 1 0.999991
0.999519 1 1 0.999519
0.999706 1 1 0.999706
0.998699 1 1 0.998699
1 1 1 1
0.999967 1 1 0.999967
0.999355 1 1 0.999355
0.999449 1 1 0.999449
0.998808 1.00052 1 0.998287
0.999824 1 1 0.999824
0.998599 1 1 0.998599
0.998835 1 1 0.998835
0.998235 1.00004 1 0.998192
1 1 1 1
1 1 1 1
1 1 1 1
1 1 1 1
1 1 1 1
0.999908 1 1 0.999908
0.999277 1 1 0.999277
0.999919 1 1 0.999919
0.99935 1 1 0.99935
1 1 1 1
0.99919 1 1 0.99919
0.999359 1 1 0.999359
0.998835 1.00085 1 0.997983
0.999421 1 1 0.999421
0.999675 1.0016 1 0.998075
0.99982 1 1 0.99982
0.999849 1 1 0.999849
0.999918 1 1 0.999918
0.999885 1 1 0.999885
0.999278 1 1 0.999278
0.999379 1 1 0.999379
0.999449 1 1 0.999449
0.998613 1 1 0.998613
1 1 1 1
0.999824 1 1 0.999824
0.999215 1 1 0.999215
0.999241 1 1 0.999241
0.999975 1 1 0.999975
0.999603 1 1 0.999603
0.999327 1 1 0.999327
0.998858 1.00055 1 0.998308
0.99873 1 1 0.99873
0.998537 1.00003 1 0.998509
1.0021 1.00416 1 0.997952
0.999211 1 1 0.999211
0.999217 1 1 0.999217
0.998613 1.00048 1 0.998134
0.998913 1.00068 1 0.998232
0.998646 1.00028 1 0.998365
1.00704 1.00933 1 0.99773
1 1 1 1
1.00311 1.00525 1 0.997875
0.999766 1 1 0.999766
0.998798 1 1 0.998798
1.00081 1.0028 1 0.998021
1.01015 1.01247 1 0.997705
0.999904 1 1 0.999904
0.999323 1 1.00004 0.999283
1 1 1 1
1 1 1 1
0.999418 1 1 0.999418
1 1 1 1
0.999711 1 1 0.999711
0.999524 1 1 0.999524
0.998696 1 1 0.998696
1 1 1 1
0.999977 1 1 0.999977
0.999405 1 1 0.999405
0.999496 1 1 0.999496
0.998666 1.00038 1 0.99829
0.999841 1 1 0.999841
0.998602 1 1 0.998602
0.998834 1 1 0.998834
0.998383 1.00021 1 0.998176
0.999912 1 1 0.999912
0.999995 1 1 0.999995
0.999452 1 1 0.999452
0.999267 1.00109 1 0.998175
0.998551 1.0001 1 0.998447
1.00511 1.00738 1 0.997745
0.999033 1 1 0.999033
0.99976 1.00169 1 0.998078
0.998913 1.00006 1.00057 0.998286
0.999591 1.00157 1 0.99802
1 1 1 1
1 1 1 1
1 1 1 1
0.999944 1 1 0.999944
1 1 1 1
1 1 1 1
1 1 1 1
0.999308 1 1 0.999308
0.999231 1 1 0.999231
1 1 1 1
1 1 1 1
0.999191 1 1 0.999191
0.99932 1 1 0.99932
0.999 1.00102 1 0.997983
0.999336 1 1 0.999336
0.999644 1.00157 1 0.998075
0.999182 1 1 0.999182
0.998365 1.00044 1 0.997931
0.99936 1.00132 1 0.998038
1.01033 1.01285 1 0.997519
0.999574 1.00146 1 0.998112
1.01022 1.01265 1 0.997599
1 1 1 1
0.999837 1 1 0.999837
0.999063 1 1 0.999063
0.999241 1 1 0.999241
1 1 1 1
0.999653 1 1 0.999653
0.99933 1 1 0.99933
0.998837 1.00057 1 0.998269
0.998577 1.00004 1 0.998537
0.998712 1 1 0.998712
1.00251 1.00456 1 0.997956
0.999208 1 1 0.999208
0.999216 1 1 0.999216
0.998494 1.00045 1 0.998049
0.99895 1.00069 1 0.99826
1 1 1 1
0.999758 1 1 0.999758
0.998843 1 1 0.998843
0.998638 1.00027 1 0.998365
1.00699 1.00932 1 0.997692
1.00088 1.00287 1 0.99801
1.00357 1.00567 1 0.997903
1.00971 1.01202 1 0.997711
0.999895 1 1 0.999895
0.999356 1 1.00007 0.999284
0.998259 1.00031 1 0.997951
0.99886 1.00067 1 0.998188
1.00832 1.01073 1 0.997617
1.00759 1.01001 1 0.997611
1.00467 1.00686 1 0.997825
1.01784 1.0203 1 0.997591
0.999846 1 1 0.999846
1.01205 1.0144 1 0.99768
0.998952 1 1 0.998952
0.998906 1.00075 1 0.998158
1.00812 1.01039 1 0.997758
1.01435 1.0167 1 0.997695
0.999153 1 1 0.999153
0.999452 1 1 0.999452
0.999492 1 1.00072 0.998768
0.999373 1 1 0.999373
1 1 1 1
0.999987 1 1 0.999987
0.999475 1 1 0.999475
0.99851 1.00022 1 0.998292
0.999852 1 1 0.999852
0.998833 1 1 0.998833
0.998605 1 1 0.998605
0.998539 1.00038 1 0.99816
0.999928 1 1 0.999928
0.999997 1 1 0.999997
0.999454 1 1 0.999454
0.999107 1.00093 1 0.998176
0.998504 1.00005 1 0.998452
1.00456 1.00683 1 0.997743
0.999035 1 1 0.999035
0.999362 1.00128 1 0.998088
0.998964 1.00021 1.00047 0.998282
0.999634 1.00163 1 0.998006
1 1 1 1
0.999235 1 1 0.999235
0.999661 1 1 0.999661
0.999349 1 1.00041 0.998936
1.0073 1.00967 1 0.997654
1.00266 1.00476 1 0.997917
1.01335 1.01584 1 0.997543
0.998948 1 1.00044 0.998511
1.00299 1.0051 1 0.9979
1.00097 1.00141 1.00158 0.997981
1.00436 1.0065 1 0.997877
0.999885 1 1 0.999885
1 1 1 1
1 1 1 1
1 1 1 1
1 1 1 1
0.999973 1 1 0.999973
1 1 1 1
0.999934 1 1 0.999934
1 1 1 1
0.999337 1 1 0.999337
0.999275 1 1 0.999275
0.999666 1.00159 1 0.998075
0.999161 1.00118 1 0.997983
0.999193 1 1 0.999193
1 1 1 1
0.999181 1 1 0.999181
0.998484 1.00055 1 0.997931
0.999481 1.00145 1 0.998038
1.01022 1.01273 1 0.997518
0.999508 1.0014 1 0.998111
1.01023 1.01266 1 0.997598
0.99816 1.00024 1 0.997923
1.00955 1.01211 1 0.997472
1.01069 1.01315 1 0.997566
1.02397 1.02652 1 0.997512
1.00934 1.01174 1 0.997621
1.0223 1.02481 1 0.997545
0.999205 1 1 0.999205
0.999215 1 1 0.999215
0.998381 1.00042 1 0.997964
0.998985 1.0007 1 0.998288
1 1 1 1
0.99975 1 1 0.99975
0.998888 1 1 0.998888
0.99863 1.00027 1 0.998364
1.00694 1.00931 1 0.997653
1.00401 1.00609 1 0.997932
1.00092 1.00293 1 0.997999
1.00934 1.01165 1 0.997716
0.999885 1 1 0.999885
0.999427 1 1.00014 0.999285
0.998203 1.00028 1 0.997927
0.998829 1.00064 1 0.998186
1.00855 1.01096 1 0.997611
1.00777 1.01014 1 0.997649
0.999836 1 1 0.999836
0.998949 1 1 0.998949
0.999127 1.00094 1 0.998191
1.00494 1.00713 1 0.997824
1.01818 1.02063 1 0.997597
1.00747 1.00977 1 0.997724
1.01195 1.0143 1 0.997683
1.01466 1.017 1 0.997695
0.999175 1 1.00002 0.999156
0.999556 1 1.00079 0.99877
0.999521 1 1.00007 0.99945
1.00871 1.01118 1 0.997559
1.00867 1.01106 1 0.997641
1.02189 1.02445 1 0.997506
1.0202 1.02271 1 0.997537
1.01427 1.01666 1 0.99765
1.02119 1.02353 1 0.997713
0.999071 1 1 0.999071
1.01644 1.01876 1 0.997715
0.998471 1.00001 1 0.998462
1.00112 1.00335 1 0.997778
1.01159 1.01403 1 0.997589
1.01499 1.0172 1 0.997825
0.999594 1 1 0.999594
0.998747 1 1 0.998747
0.999853 1 1.001 0.99885
0.999278 1 1.00068 0.998603
0.998953 1.00078 1 0.998176
0.999999 1 1 0.999999
0.999944 1 1 0.999944
0.999457 1 1 0.999457
0.998465 1.00001 1 0.998457
1.00402 1.00629 1 0.997741
0.999038 1 1 0.999038
0.998964 1.00036 1.00033 0.998278
0.998923 1.00083 1 0.998099
0.999652 1.00166 1 0.997992
1 1 1 1
0.999235 1 1 0.999235
0.999667 1 1 0.999667
0.999322 1 1.00039 0.998932
1.00703 1.0094 1 0.997651
1.00174 1.00383 1 0.997919
1.01345 1.01595 1 0.997541
0.998965 1 1.00045 0.998516
1.00264 1.00474 1 0.997915
1.00119 1.0015 1.00173 0.997969
1.00423 1.0063 1 0.997944
1 1 1 1
0.999788 1 1 0.999788
0.998785 1 1.00004 0.998744
0.999559 1 1.00041 0.999146
0.999588 1 1.00092 0.998667
1.01664 1.01918 1 0.997508
1.00824 1.01056 1 0.997705
1.01447 1.01697 1 0.997543
1.00018 1.00003 1.00199 0.998159
1.0055 1.00769 1 0.997825
1.00348 1.00492 1.00086 0.997704
0.99987 1 1 0.99987
0.999524 1 1 0.999524
0.999895 1 1 0.999895
0.999887 1 1 0.999887
1 1 1 1
1 1 1 1
1 1 1 1
1 1 1 1
1 1 1 1
0.999992 1 1 0.999992
1 1 1 1
0.999965 1 1 0.999965
1 1 1 1
0.999925 1 1 0.999925
1 1 1 1
0.999423 1.00131 1 0.99811
0.999555 1.00152 1 0.998038
1.01014 1.01257 1 0.997597
1.01008 1.01259 1 0.997517
0.998625 1.0007 1 0.997931
0.99918 1 1 0.99918
0.998206 1.00028 1 0.997922
1.00954 1.0121 1 0.997472
1.01043 1.0129 1 0.997566
1.0242 1.02674 1 0.997521
1.00905 1.01146 1 0.997618
1.02179 1.0243 1 0.997544
1.00912 1.01169 1 0.997461
1.02365 1.02623 1 0.997494
1.02399 1.02652 1 0.997532
1.02902 1.03145 1 0.997641
1.01891 1.02143 1 0.997532
1.02341 1.02573 1 0.99774
0.998159 1.00026 1 0.997902
0.998801 1.00062 1 0.998184
1.00874 1.01117 1 0.997605
1.00794 1.01028 1 0.997687
0.999826 1 1 0.999826
0.998946 1 1 0.998946
0.999365 1.00114 1 0.998224
1.00522 1.00741 1 0.997823
1.01852 1.02096 1 0.997603
1.01187 1.01421 1 0.997686
1.00673 1.00906 1 0.99769
1.01494 1.01728 1 0.997695
0.999158 1 1 0.999158
0.999565 1 1.00079 0.998771
0.99959 1 1.00014 0.999447
1.00885 1.01135 1 0.997524
1.00872 1.01111 1 0.997639
1.0216 1.02415 1 0.997514
1.0205 1.02301 1 0.997541
0.99907 1 1 0.99907
0.998665 1.00021 1 0.998455
1.00107 1.00321 1.00003 0.997828
1.01441 1.0168 1 0.997652
1.02052 1.02283 1 0.997743
1.0117 1.01417 1 0.997558
1.01646 1.01879 1 0.997718
1.01441 1.0166 1 0.997847
0.998754 1 1 0.99875
0.999282 1 1.0007 0.998586
0.99959 1 1 0.99959
0.999872 1 1.001 0.998874
1.02219 1.02479 1 0.997465
1.02235 1.02487 1 0.997539
1.02582 1.02832 1 0.997569
1.023 1.02536 0.999976 0.997717
1.01859 1.02089 1 0.997748
1.02026 1.02243 1 0.997876
0.998669 1 1 0.998669
1.01511 1.0172 1 0.997939
0.998337 1.00022 1 0.998117
1.0055 1.0078 1.00018 0.997543
1.01379 1.01631 1 0.997517
1.01361 1.01577 1 0.997878
0.999685 1 1 0.999685
0.999206 1 1.00019 0.999018
0.99858 1 1 0.99858
1.00018 1 1.00154 0.998637
0.998936 1 1.00038 0.998553
1 1 1 1
1.00669 1.00906 1 0.997648
0.999674 1 1 0.999674
0.999235 1 1 0.999235
0.999391 1 1.00046 0.998929
1.00088 1.00297 1 0.99792
1.0136 1.0161 1 0.997539
0.999026 1 1.00051 0.99852
1.00159 1.0017 1.00193 0.997958
1.00244 1.00452 1 0.997929
1.00424 1.00624 1 0.998011
1 1 1 1
0.999794 1 1 0.999794
0.99884 1 1.00009 0.998746
0.99949 1 1.00034 0.999147
0.9999 1 1.00126 0.998645
1.01688 1.01942 1 0.997503
1.0083 1.01062 1 0.997704
1.01446 1.01696 1 0.997534
1.00033 1.00004 1.00213 0.998164
1.00735 1.00954 1 0.997839
1.00294 1.00427 1.00096 0.997724
0.999843 1 1 0.999843
0.99933 1 1 0.99933
0.998916 1 1.00048 0.99844
1.00017 1 1.00134 0.998831
0.999614 1 1.00109 0.998522
1.01762 1.0201 1 0.997567
1.01006 1.01243 1 0.99766
1.01325 1.01558 1 0.997702
1.0017 1 1.00379 0.997919
1.00437 1.0068 1 0.997579
0.999873 1 1 0.999873
0.999458 1 1 0.999458
0.999503 1 1 0.999503
0.999304 1 1 0.999304
0.999532 1 1 0.999532
0.999898 1 1 0.999898
0.999897 1 1 0.999897
1 1 1 1
0.99989 1 1 0.99989
1 1 1 1
1 1 1 1
1 1 1 1
1 1 1 1
1 1 1 1
0.999999 1 1 0.999999
0.999987 1 1 0.999987
1 1 1 1
1 1 1 1
0.999957 1 1 0.999957
1 1 1 1
1.00883 1.01124 1 0.997616
1.01029 1.01275 1 0.997565
1.02133 1.02385 1 0.997543
1.02445 1.02699 1 0.997529
1.00953 1.01208 1 0.997472
0.998231 1.00031 1 0.997922
1.00907 1.01164 1 0.997462
1.02357 1.02614 1 0.997487
1.02389 1.02642 1 0.997532
1.02813 1.03075 0.999792 0.997666
1.01931 1.02184 1 0.997528
1.02372 1.02602 1 0.997755
1.02282 1.02542 1 0.997461
1.02723 1.03005 0.999657 0.9976
1.02653 1.02886 1 0.997731
1.02708 1.03018 0.99922 0.997776
1.02115 1.02353 1 0.997674
1.02429 1.02653 0.999903 0.997914
1.009 1.01154 1 0.997489
1.00875 1.01114 1 0.997637
1.02134 1.02388 1 0.997522
1.02081 1.02333 1 0.997545
0.99907 1 1 0.99907
0.998865 1.00042 1 0.998449
1.00123 1.00318 1.00018 0.997878
1.01457 1.01695 1 0.997654
1.01981 1.02209 1 0.997774
1.01646 1.01879 1 0.997721
1.01184 1.01435 1 0.997528
1.01378 1.01595 1 0.997869
0.998791 1 1.00004 0.998753
0.999266 1 1.0007 0.998568
0.999585 1 1 0.999585
0.999769 1 1.00087 0.998898
1.02218 1.02478 1 0.997466
1.02199 1.02453 1 0.997527
1.02573 1.02821 1 0.997587
1.02252 1.02488 0.999994 0.997703
0.998664 1 1 0.998664
0.998529 1.00034 1.00003 0.998161
1.00573 1.00782 1.00039 0.997536
1.01832 1.02065 1 0.997722
1.02033 1.02245 1 0.997923
1.01332 1.01585 1 0.997505
1.0151 1.0172 1 0.997941
1.01483 1.01695 1 0.997918
0.998579 1 1 0.998579
0.998734 1 1.00018 0.998555
1.0006 1 1.00197 0.998631
0.999653 1 1 0.999653
0.999106 1 1.00007 0.999039
1.0266 1.02934 0.999758 0.997578
1.02627 1.02874 0.999956 0.997636
1.02137 1.02397 0.999567 0.997896
1.0177 1.01979 1 0.997955
0.998461 1 1 0.998461
1.01738 1.01934 1 0.998081
0.998242 1.00005 1.00029 0.997903
1.00819 1.01039 1.00051 0.997309
1.01326 1.01582 1 0.997483
0.999706 1 1 0.999706
0.999226 1 1 0.999226
0.999478 1 1.00067 0.998806
0.99854 1 1 0.99854
1.0012 1 1.00274 0.998466
0.998494 1 1 0.998494
1 1 1 1
0.9998 1 1 0.9998
1.01716 1.01971 1 0.997498
0.999388 1 1.00024 0.999147
0.998831 1 1.00008 0.998747
1.00033 1 1.00171 0.998623
1.00814 1.01046 1 0.997704
1.0143 1.01681 1 0.997525
1.00045 1 1.00229 0.998168
1.00202 1.0035 1.00077 0.997744
1.00895 1.01112 1 0.997852
0.999848 1 1 0.999848
0.999333 1 1 0.999333
0.998859 1 1.00041 0.998446
1.00049 1 1.00166 0.998829
0.999806 1 1.0013 0.998512
1.01767 1.02016 1 0.997562
1.01058 1.01296 1 0.997651
1.01311 1.01542 1 0.997725
1.00113 1 1.00324 0.997894
1.0036 1.00601 1.00006 0.997548
0.999439 1 1 0.999439
0.999503 1 1.00053 0.998974
1.00026 1 1.002 0.998272
1.00093 1 1.00237 0.998565
0.999399 1 1.001 0.998406
1.01929 1.0214 1 0.997938
1.00937 1.01183 1 0.997575
1.01086 1.01314 1 0.99775
1.00332 1.00126 1.00433 0.997733
1.00054 1.0032 1 0.997345
0.999876 1 1 0.999876
0.999475 1 1 0.999475
0.999215 1 1 0.999215
0.999483 1 1 0.999483
0.999532 1 1 0.999532
0.999275 1 1 0.999275
0.999132 1 1 0.999132
0.999253 1 1 0.999253
0.999536 1 1 0.999536
0.999896 1 1 0.999896
0.999898 1 1 0.999898
1 1 1 1
0.999898 1 1 0.999898
1 1 1 1
1 1 1 1
1 1 1 1
1 1 1 1
1 1 1 1
1 1 1 1
0.999998 1 1 0.999998
1 1 1 1
0.999982 1 1 0.999982
1 1 1 1
1 1 1 1
1.01966 1.0222 1 0.997523
1.02374 1.02627 1 0.997532
1.02403 1.02631 1 0.99777
1.02723 1.03008 0.999541 0.99769
1.02346 1.02605 1 0.99748
1.00903 1.0116 1 0.997462
1.02306 1.02568 1 0.997448
1.02758 1.03026 0.999809 0.997592
1.02629 1.02864 1 0.997711
1.02663 1.02993 0.999 0.997789
1.02055 1.02293 1 0.997674
1.02375 1.02594 0.999914 0.99795
1.02679 1.0293 1 0.997561
1.02735 1.03179 0.997928 0.997764
1.02595 1.02897 0.99916 0.997895
1.02197 1.024 1 0.998012
1.02214 1.02474 1 0.997466
1.02163 1.02418 1 0.997514
1.02562 1.02808 1 0.997604
1.02207 1.02444 1 0.997689
0.998659 1 1 0.998659
0.99848 1.00027 1 0.998206
1.00588 1.00778 1.00058 0.997528
1.01801 1.02036 1 0.997696
1.02041 1.02249 1 0.997971
1.01517 1.01726 1 0.997943
1.01291 1.01546 1 0.997494
1.01595 1.01803 1 0.997958
0.998578 1 1 0.998578
0.998557 1 1 0.998557
1.00135 1 1.00272 0.998625
0.999621 1 1 0.999621
0.999061 1 1 0.999061
1.02661 1.02921 0.999886 0.997581
1.02648 1.02894 0.999976 0.99764
1.02124 1.0238 0.999611 0.997887
0.998454 1 1 0.998454
0.998996 1.0008 1.00026 0.997944
1.00772 1.00968 1.00076 0.997298
1.01823 1.02033 1 0.997944
1.01293 1.01542 1 0.99755
1.01626 1.01823 1 0.998064
0.999716 1 1 0.999716
0.998534 1 1 0.998534
0.998551 1 1 0.998551
1.00105 1 1.0026 0.998453
0.999385 1 1.00057 0.998816
0.999201 1 1 0.999201
1.02709 1.03031 0.999217 0.997657
1.02545 1.03021 0.997565 0.997806
1.01919 1.02273 0.998554 0.997984
1.02262 1.02493 0.999611 0.998132
0.998325 1 1 0.998325
1.0143 1.01655 1 0.997791
1.00065 1.00152 1.00165 0.997499
1.00553 1.00733 1.00104 0.997167
0.999799 1 1 0.999799
0.999349 1 1 0.999349
0.998958 1 1 0.998958
1.0013 1 1.00277 0.998539
0.998452 1 1 0.998452
0.999698 1 1.00134 0.998362
0.999852 1 1 0.999852
0.999336 1 1 0.999336
1.01785 1.02034 1 0.997557
1.00053 1 1.00171 0.998826
0.998722 1 1.00027 0.998452
0.999908 1 1.00141 0.998503
1.01134 1.01373 1 0.997642
1.01321 1.0155 1 0.997749
1.00059 1 1.00273 0.997868
1.00298 1.00521 1.00027 0.997518
0.999441 1 1 0.999441
0.999254 1 1.00027 0.998983
1.00027 1 1.00198 0.998289
1.00119 1 1.00263 0.998569
0.998937 1 1.00048 0.998461
1.01939 1.02146 1 0.997967
1.00891 1.01136 1 0.997577
1.01205 1.01425 1 0.997824
1.00304 1.00076 1.00458 0.997702
1.0013 1.00398 1.00003 0.997301
0.999149 1 1 0.999149
0.999851 1 1.00118 0.998671
1.00191 1 1.00378 0.998127
0.99984 1 1.00154 0.998298
1.02206 1.02825 0.995815 0.998157
1.01581 1.01792 0.999872 0.998048
1.0058 1.00843 1 0.997387
1.00304 1.00144 1.00426 0.997355
0.999491 1 1 0.999491
0.999227 1 1 0.999227
0.999081 1 1 0.999081
0.999532 1 1 0.999532
0.999246 1 1 0.999246
0.999535 1 1 0.999535
0.999114 1 1 0.999114
0.999264 1 1 0.999264
0.99901 1 1 0.99901
0.99909 1 1 0.99909
0.999242 1 1 0.999242
0.999525 1 1 0.999525
0.99989 1 1 0.99989
0.999895 1 1 0.999895
1 1 1 1
0.999898 1 1 0.999898
1 1 1 1
1 1 1 1
1 1 1 1
1 1 1 1
1 1 1 1
1 1 1 1
1 1 1 1
1 1 1 1
0.999996 1 1 0.999996
1 1 1 1
1 1 1 1
1.01991 1.02229 1 0.997674
1.02602 1.02839 1 0.997691
1.02321 1.02535 0.999926 0.997987
1.02619 1.02964 0.998837 0.997803
1.02794 1.03043 1 0.997583
1.02332 1.02596 1 0.997435
1.02667 1.02928 0.999895 0.997567
1.02651 1.03073 0.998148 0.997754
1.02578 1.02897 0.999001 0.997896
1.02338 1.02542 1 0.998013
1.02698 1.031 0.998392 0.997704
1.02731 1.03372 0.995857 0.997934
1.02708 1.03091 0.998251 0.998036
1.02661 1.0291 1 0.997584
1.02668 1.0291 1 0.997643
1.02107 1.02358 0.999666 0.997878
0.998448 1 1 0.998448
0.999865 1.0017 1.00018 0.997985
1.00707 1.00896 1.00085 0.997288
1.01874 1.02085 1 0.997934
1.01529 1.01727 1 0.998046
1.01291 1.01533 1 0.997616
0.998528 1 1 0.998528
0.998608 1 1 0.998608
1.00077 1 1.00233 0.99844
0.999727 1 1 0.999727
0.999157 1 1.00033 0.998826
0.999176 1 1 0.999176
1.0277 1.03074 0.99938 0.997663
1.02613 1.03041 0.998024 0.997813
1.01934 1.02262 0.998818 0.997976
0.998538 1.00022 1 0.998314
1.00072 1.00174 1.0014 0.997583
1.00485 1.00676 1.0009 0.9972
1.02245 1.0247 0.999659 0.998142
1.01497 1.01723 1 0.99778
0.999834 1 1 0.999834
0.999349 1 1 0.999349
0.998471 1 1 0.998471
1.00033 1 1.00191 0.998426
1.00125 1 1.0027 0.998554
0.998936 1 1 0.998936
1.02774 1.03318 0.996877 0.997851
1.01917 1.02746 0.993967 0.997946
1.02026 1.0246 0.997593 0.998172
1.01886 1.02112 0.999617 0.99817
0.999204 1.00021 1.00088 0.998112
1.00478 1.00612 1.0014 0.997276
1.00273 1.00279 1.00264 0.997305
0.999916 1 1 0.999916
0.99958 1 1 0.99958
0.999404 1 1 0.999404
0.999033 1 1 0.999033
0.999378 1 1.00068 0.998703
1.00076 1 1.00234 0.998426
0.998496 1 1 0.998496
1.01033 1 1.01179 0.998556
0.999443 1 1 0.999443
0.999149 1 1.00016 0.998993
1.01937 1.02142 1 0.997995
1.00171 1 1.00314 0.998573
1.00046 1 1.00215 0.998307
0.998553 1 1.00004 0.998517
1.00823 1.01068 1 0.99758
1.01315 1.01528 1 0.997899
1.0029 1.00042 1.00482 0.997672
1.00211 1.00486 1 0.997258
0.999133 1 1 0.999133
1.00018 1 1.00149 0.998683
1.00232 1.00002 1.00415 0.99815
0.999653 1 1.00133 0.998324
1.02337 1.0292 0.996161 0.998167
1.01544 1.01751 0.999949 0.998016
1.00668 1.00928 1 0.997426
1.0029 1.00182 1.00377 0.997316
0.999005 1 1.00005 0.998955
1.02109 1.02969 0.993469 0.998159
1.0008 1 1.00236 0.998443
1.00065 1.00007 1.00268 0.997904
1.02086 1.02414 0.998541 0.998257
1.00654 1.00905 1 0.997507
1.00434 1.00393 1.00323 0.997185
0.99924 1 1 0.99924
0.999078 1 1 0.999078
0.998964 1 1 0.998964
0.999535 1 1 0.999535
0.999276 1 1 0.999276
0.999095 1 1 0.999095
0.999523 1 1 0.999523
0.999245 1 1 0.999245
0.998994 1 1 0.998994
0.999111 1 1 0.999111
0.998919 1 1 0.998919
0.998974 1 1 0.998974
0.99909 1 1 0.99909
0.999233 1 1 0.999233
0.999501 1 1 0.999501
0.999881 1 1 0.999881
0.999889 1 1 0.999889
1 1 1 1
0.999894 1 1 0.999894
1 1 1 1
1 1 1 1
1 1 1 1
1 1 1 1
1 1 1 1
0.999942 1 1 0.999942
1 1 1 1
1 1 1 1
1 1 1 1
1 1 1 1
1 1 1 1
1 1 1 1
1.02481 1.02685 1 0.998015
1.02564 1.02898 0.998851 0.997896
1.02567 1.02971 0.998328 0.997745
1.02658 1.02928 0.999804 0.997574
1.02678 1.0309 0.99827 0.997723
1.02769 1.03385 0.996107 0.997923
1.02665 1.03079 0.997923 0.998049
1.02714 1.03457 0.9949 0.997907
1.03017 1.03734 0.995024 0.998052
1.0145 1.02714 0.989406 0.998262
1.02835 1.03121 0.999549 0.997669
1.02686 1.0307 0.998448 0.99782
1.01943 1.02249 0.999031 0.997967
0.998761 1.0004 1.00006 0.998304
1.00083 1.00191 1.00126 0.997668
1.00413 1.00613 1.00078 0.997233
1.02237 1.02459 0.999675 0.998152
1.0151 1.01737 1 0.997769
0.99849 1 1 0.99849
1.00103 1 1.00254 0.998489
1.00155 1 1.00298 0.998569
0.999869 1 1 0.999869
0.999349 1 1 0.999349
0.998915 1 1 0.998915
1.02726 1.03314 0.996437 0.997864
0.999912 1 1 0.999912
0.999561 1 1 0.999561
1.0191 1.02671 0.994631 0.997945
1.0209 1.02534 0.99752 0.99814
0.999092 1.00007 1.00084 0.998187
1.00308 1.00251 1.0033 0.997278
1.00534 1.00724 1.00084 0.997279
1.0178 1.02013 0.999556 0.998155
0.99946 1 1 0.99946
0.99903 1 1 0.99903
0.998436 1 1 0.998436
1.00691 1 1.00827 0.998655
1.00084 1 1.00243 0.998415
0.999513 1 1.0008 0.998714
1.02983 1.03677 0.995292 0.998014
1.01106 1.02509 0.988203 0.998084
1.01847 1.02375 0.996476 0.998357
1.00572 1.00864 0.999219 0.997884
1.00052 1 1.00234 0.99818
1.00433 1.00174 1.00547 0.997142
0.999577 1 1 0.999577
0.999529 1 1 0.999529
0.999316 1 1 0.999316
0.999052 1 1 0.999052
0.998845 1 1 0.998845
0.999565 1 1.00108 0.998482
1.01593 1 1.01759 0.998375
1.00023 1 1.00155 0.99869
0.999117 1 1 0.999117
1.00019 1 1.0015 0.998694
1.02459 1.03001 0.996554 0.998177
1.01519 1.01724 1 0.997984
0.999412 1 1.00106 0.99835
1.00258 1 1.00441 0.998173
1.0078 1.01032 1.00004 0.997464
1.00273 1.00211 1.00335 0.997278
0.999054 1 1.00011 0.998948
1.02197 1.03153 0.992523 0.998187
1.0006 1 1.00215 0.998459
1.0006 1.00003 1.00269 0.997877
1.01979 1.02332 0.998323 0.99823
1.00708 1.00955 1 0.997552
1.00416 1.00348 1.00348 0.997198
0.999986 1 1.0013 0.99869
1.01635 1.0273 0.990818 0.99851
1 1.00007 1.00168 0.998249
1.00217 1.00076 1.00379 0.997622
1.00979 1.01486 0.997084 0.997917
1.00172 1.00221 1.00221 0.997303
1.00368 1.00765 0.997494 0.998564
0.999076 1 1 0.999076
0.999018 1 1.00006 0.998962
0.998878 1 1.00003 0.998845
0.999522 1 1 0.999522
0.999247 1 1 0.999247
0.999133 1 1 0.999133
0.998978 1 1 0.998978
0.9995 1 1 0.9995
0.999223 1 1 0.999223
0.998901 1 1 0.998901
0.999089 1 1 0.999089
0.998988 1 1 0.998988
0.998891 1 1 0.998891
0.998969 1 1 0.998969
0.999083 1 1 0.999083
0.999169 1 1 0.999169
0.999436 1 1 0.999436
0.999275 1 1 0.999275
0.999432 1 1 0.999432
0.999875 1 1 0.999875
0.999881 1 1 0.999881
1 1 1 1
0.999887 1 1 0.999887
1 1 1 1
1 1 1 1
1 1 1 1
1 1 1 1
1 1 1 1
0.999957 1 1 0.999957
0.999939 1 1 0.999939
1 1 1 1
1 1 1 1
1 1 1 1
1 1 1 1
1 1 1 1
1 1 1 1
1.02626 1.03076 0.997567 0.998062
1.02808 1.03401 0.996341 0.997911
1.02655 1.03079 0.998136 0.997742
1.02697 1.03437 0.994931 0.997905
1.02865 1.03568 0.995152 0.998049
1.01514 1.02682 0.99037 0.998238
1.02713 1.03697 0.992378 0.998117
0.998193 1.01596 0.984671 0.99781
1.0102 1.0253 0.986538 0.998712
0.999652 1 1 0.999652
1.02675 1.03304 0.996025 0.997877
1.01936 1.02606 0.995511 0.997945
1.02152 1.02601 0.997515 0.998108
0.999081 1 1.00082 0.998261
1.00347 1.0022 1.00402 0.997251
1.00623 1.00851 1.00045 0.997282
1.01683 1.01912 0.999618 0.998139
0.998376 1 1 0.998376
1.00351 1 1.00476 0.998756
1.00073 1 1.00233 0.998405
0.999908 1 1 0.999908
0.999516 1 1.00079 0.998726
0.999516 1 1 0.999516
0.999027 1 1 0.999027
0.999541 1 1 0.999541
1.02886 1.03735 0.993777 0.998021
0.999604 1 1 0.999604
0.999528 1 1 0.999528
0.999278 1 1 0.999278
1.01189 1.02473 0.989358 0.998087
1.01824 1.0234 0.996639 0.99831
0.99984 1 1.00164 0.998199
1.00428 1.00156 1.00555 0.997179
1.00503 1.00758 0.999582 0.997882
0.999083 1 1 0.999083
0.998926 1 1.00011 0.99882
1.00275 1 1.00413 0.998624
1.01281 1 1.01442 0.998413
0.999365 1 1.00086 0.998506
1.01852 1.03008 0.990661 0.998101
1.01152 1.0281 0.985644 0.998202
1.01115 1.01514 0.997993 0.998078
1.00342 1.00392 1.00179 0.997716
1.0031 1 1.00484 0.998263
0.999261 1 1 0.999261
0.99916 1 1 0.99916
0.999049 1 1 0.999049
0.998902 1 1.00004 0.998857
0.999233 1 1.00057 0.99866
1.01141 1 1.01303 0.998409
1.01377 1 1.01545 0.998345
0.999113 1 1.00017 0.99894
1.00043 1 1.00196 0.998475
1.02261 1.03346 0.99127 0.998215
1.01865 1.02251 0.99802 0.998204
1.00727 1.00969 1 0.997598
1.00052 1 1.00268 0.99785
1.0037 1.0029 1.0036 0.997211
0.999953 1 1.00123 0.998726
1.01488 1.02688 0.98977 0.998521
0.999589 1.00003 1.00128 0.998276
1.00208 1.00038 1.00408 0.997634
1.01087 1.01545 0.997491 0.997994
1.00201 1.00204 1.00269 0.997289
1.0031 1.00785 0.997184 0.998099
1.00006 1 1.00149 0.998563
1.0055 1.01718 0.989998 0.998506
1.00019 1 1.00194 0.998248
1.00409 1.00013 1.00636 0.997616
1.00244 1.00512 0.999656 0.997673
0.953018 0.979894 0.985573 0.986809
0.974873 0.987017 0.993991 0.993667
0.981908 0.998933 0.984305 0.99863
0.859623 0.90402 0.966886 0.983455
0.820998 0.902565 0.927499 0.980732
0.999001 1 1.00004 0.99896
0.999039 1 1.00018 0.998861
0.998873 1 1 0.998873
0.999499 1 1 0.999499
0.999213 1 1 0.999213
0.999089 1 1 0.999089
0.999003 1 1 0.999003
0.998883 1 1 0.998883
0.999063 1 1 0.999063
0.999459 1 1 0.999459
0.999183 1 1 0.999183
0.998893 1 1 0.998893
0.998972 1 1 0.998972
0.998979 1 1 0.998979
0.998941 1 1 0.998941
0.999007 1 1 0.999007
0.99914 1 1 0.99914
0.999424 1 1 0.999424
0.999204 1 1 0.999204
0.999113 1 1 0.999113
0.999255 1 1 0.999255
0.999246 1 1 0.999246
0.999492 1 1 0.999492
0.99943 1 1 0.99943
0.99987 1 1 0.99987
0.999874 1 1 0.999874
1 1 1 1
0.99988 1 1 0.99988
1 1 1 1
1 1 1 1
1 1 1 1
1 1 1 1
1 1 1 1
0.999965 1 1 0.999965
0.999954 1 1 0.999954
1 1 1 1
0.999936 1 1 0.999936
1 1 1 1
1 1 1 1
1 1 1 1
1 1 1 1
1 1 1 1
1.02713 1.03398 0.995317 0.998046
1.02674 1.03411 0.994964 0.997903
1.01584 1.02636 0.991515 0.998215
1.00019 1.01572 0.986828 0.997852
1.02546 1.03534 0.992332 0.998115
1.01484 1.02729 0.989235 0.998634
1.02472 1.03121 0.99553 0.998164
0.962579 0.98487 0.984396 0.99286
1.00671 1.01935 0.989347 0.998231
0.99966 1 1 0.99966
0.999651 1 1 0.999651
0.999348 1 1 0.999348
0.999376 1 1 0.999376
1.02755 1.03776 0.992116 0.998029
1.01202 1.02392 0.990269 0.998089
1.01791 1.02302 0.996737 0.998262
0.998989 1 1.00077 0.998218
1.004 1.00144 1.00536 0.997216
1.00428 1.00674 0.999669 0.99788
1.00509 1 1.00654 0.998556
1.00975 1 1.01132 0.99845
0.999173 1 1.00064 0.99853
0.999527 1 1 0.999527
0.998921 1 1.00013 0.998795
0.999113 1 1 0.999113
0.999632 1 1 0.999632
0.99924 1 1 0.99924
1.01669 1.02922 0.989695 0.998115
0.999303 1 1 0.999303
0.99919 1 1 0.99919
0.999076 1 1 0.999076
1.01389 1.02993 0.986191 0.998208
1.00979 1.01426 0.997508 0.998075
1.00294 1 1.0047 0.998253
1.00368 1.00425 1.00171 0.997728
0.998993 1 1.00014 0.998854
0.998936 1 1.0003 0.99864
1.01451 1 1.01619 0.998344
1.01242 1 1.01405 0.998384
1.00898 1.02882 0.982508 0.998178
1.00354 1.02273 0.983036 0.998173
1.00501 1.00725 0.999993 0.997787
0.999991 1.00031 1.00138 0.9983
0.99896 1 1 0.99896
0.99917 1 1.00025 0.998916
1.0033 1 1.00465 0.998658
1.02475 1 1.0266 0.998199
0.936707 0.97283 0.976456 0.986085
1.00009 1 1.00133 0.998761
0.999396 1 1.00109 0.998303
1.01309 1.0262 0.988682 0.998532
1.01194 1.01595 0.997983 0.998072
1.00269 1.00213 1.0033 0.997274
1.0021 1 1.00447 0.997645
1.00234 1.00785 0.996906 0.997624
1.0001 1 1.00151 0.998591
1.00496 1.01748 0.989195 0.998492
0.999695 1 1.00144 0.998259
1.00377 1.00005 1.00611 0.997616
1.00287 1.006 0.999182 0.997697
0.952056 0.982015 0.982938 0.986321
0.969782 0.984704 0.992839 0.991949
0.983468 0.996968 0.987783 0.99866
0.862078 0.903301 0.970504 0.983369
0.804692 0.890432 0.923001 0.979099
0.999529 1 1.00079 0.998735
0.882971 0.922468 0.973002 0.983743
0.861228 0.907127 0.966903 0.9819
0.983737 1.00664 0.97882 0.998391
1.00493 1.00004 1.00654 0.99836
1.01081 1.00277 1.01019 0.997852
0.979335 0.99228 0.988151 0.998788
0.951753 0.97224 0.992826 0.986002
0.95667 0.967339 0.997696 0.991254
0.839526 0.904345 0.943673 0.983736
0.868711 0.93845 0.942097 0.982582
0.999294 1 1.00042 0.998876
0.998928 1 1.00006 0.998864
0.999085 1 1 0.999085
0.999481 1 1 0.999481
0.999197 1 1 0.999197
0.999043 1 1 0.999043
0.998975 1 1 0.998975
0.998894 1 1 0.998894
0.999425 1 1 0.999425
0.998975 1 1 0.998975
0.999025 1 1 0.999025
0.999164 1 1 0.999164
0.99894 1 1 0.99894
0.998941 1 1 0.998941
0.999161 1 1.0002 0.998964
0.99899 1 1 0.99899
0.99917 1 1 0.99917
0.999202 1 1 0.999202
0.999099 1 1 0.999099
0.999048 1 1 0.999048
0.999095 1 1 0.999095
0.999039 1 1 0.999039
0.998964 1 1 0.998964
0.999235 1 1 0.999235
0.999255 1 1 0.999255
0.999503 1 1 0.999503
0.999218 1 1 0.999218
0.999473 1 1 0.999473
0.999868 1 1 0.999868
0.999428 1 1 0.999428
0.99987 1 1 0.99987
1 1 1 1
0.999874 1 1 0.999874
1 1 1 1
1 1 1 1
1 1 1 1
1 1 1 1
1 1 1 1
0.99964 1 1 0.99964
0.999964 1 1 0.999964
0.999963 1 1 0.999963
1 1 1 1
0.999951 1 1 0.999951
1 1 1 1
1 1 1 1
1 1 1 1
1 1 1 1
1 1 1 1
1.00196 1.01579 0.988458 0.997897
1.02418 1.03392 0.992456 0.998113
1.01929 1.02953 0.991492 0.998554
0.959686 0.980974 0.984476 0.993726
1.00679 1.01907 0.989612 0.998318
1.02675 1.03397 0.99488 0.998129
1.01661 1.02375 0.994926 0.998086
0.96834 0.983476 0.990203 0.994351
0.95356 0.978589 0.988853 0.985408
0.840234 0.895904 0.954313 0.982761
0.802888 0.877277 0.933551 0.980348
0.999335 1 1 0.999335
0.999659 1 1 0.999659
0.99965 1 1 0.99965
0.999336 1 1 0.999336
0.999141 1 1 0.999141
0.999176 1 1 0.999176
0.99933 1 1 0.99933
0.999355 1 1 0.999355
1.0155 1.02885 0.988877 0.99813
1.01681 1.03251 0.986552 0.998213
1.00859 1.0135 0.997074 0.998073
1.00312 1 1.00488 0.998242
1.00413 1.00437 1.00203 0.997739
1.01504 1 1.01672 0.998343
1.01353 1 1.01519 0.99836
0.99877 1 1.00015 0.99862
0.999221 1 1 0.999221
0.998967 1 1.00012 0.99885
0.999345 1 1 0.999345
0.999103 1 1 0.999103
1.00994 1.0289 0.983382 0.998161
0.998985 1 1 0.998985
0.999012 1 1.00008 0.998931
1.00444 1.02202 0.984616 0.998152
1.00399 1.007 0.999114 0.997893
1.00181 1.00063 1.00295 0.998237
1.00486 1 1.00625 0.998615
1.02193 1 1.02376 0.998208
1.00837 1.02535 0.985256 0.998151
0.985488 1.00685 0.980542 0.998201
0.997187 1.00052 0.998469 0.998196
1.00649 1 1.00817 0.998329
0.998966 1 1.00016 0.998804
1.002 1 1.0033 0.99871
1.02065 1 1.02228 0.998406
0.871055 0.926584 0.955145 0.984218
0.948436 0.976177 0.983916 0.987465
0.999842 1 1.00122 0.998619
0.999336 1 1.00107 0.998271
1.00567 1.01831 0.989095 0.99848
1.00329 1.00704 0.998546 0.997721
1.00331 1 1.00571 0.997617
0.950255 0.977228 0.986742 0.985464
0.972257 0.988588 0.990787 0.992625
0.985384 0.995508 0.991131 0.998687
0.856211 0.904085 0.962869 0.983567
0.790473 0.877793 0.921303 0.977446
0.99914 1 1.0004 0.998737
0.875463 0.925049 0.961656 0.984132
0.85647 0.901617 0.968132 0.981196
0.985637 1.00741 0.979974 0.998383
1.00452 1.00005 1.0061 0.998382
1.00986 1.00137 1.01054 0.997968
0.971042 0.987537 0.98441 0.998869
0.956575 0.979335 0.991702 0.984932
0.958764 0.971112 0.994323 0.992921
0.841966 0.898732 0.953532 0.982492
0.868376 0.9401 0.940678 0.981958
1.0011 1 1.00214 0.998958
0.886832 0.915143 0.985356 0.983465
0.94829 0.966696 0.99319 0.987686
0.98931 1.00037 0.990084 0.998847
1.01222 1.00144 1.01195 0.998827
0.986447 0.979798 1.00772 0.999075
0.942495 0.958434 0.989316 0.99399
0.943753 0.958361 1.00001 0.984746
0.858653 0.915624 0.954169 0.982822
0.897708 0.959402 0.950082 0.984858
0.998859 1 1 0.998856
0.999064 1 1 0.999064
0.999813 1 1.00055 0.999262
0.999426 1 1 0.999426
0.999187 1 1 0.999187
0.999044 1 1 0.999044
0.998971 1 1 0.998971
0.998939 1 1 0.998939
0.999169 1 1 0.999169
0.998948 1 1 0.998948
0.99899 1 1 0.99899
0.999262 1 1.00028 0.998986
1.00426 1 1.00507 0.999197
0.999007 1 1.00009 0.99892
0.998979 1 1 0.998979
0.9992 1 1 0.9992
0.999086 1 1 0.999086
0.999047 1 1 0.999047
0.999092 1 1 0.999092
0.999046 1 1 0.999046
0.999049 1 1 0.999049
0.999 1 1 0.999
0.999027 1 1 0.999027
0.998818 1 1 0.998818
0.999419 1 1.00093 0.998491
0.998847 1 1 0.998847
0.998961 1 1 0.998961
0.999183 1 1 0.999183
0.999234 1 1 0.999234
0.999498 1 1 0.999498
0.999255 1 1 0.999255
0.999503 1 1 0.999503
0.999869 1 1 0.999869
0.999454 1 1 0.999454
0.999869 1 1 0.999869
1 1 1 1
0.99987 1 1 0.99987
1 1 1 1
1 1 1 1
1 1 1 1
1 1 1 1
1 1 1 1
0.99966 1 1 0.99966
0.999956 1 1 0.999956
0.99964 1 1 0.99964
1 1 1 1
0.999965 1 1 0.999965
0.999961 1 1 0.999961
1 1 1 1
1 1 1 1
1 1 1 1
1 1 1 1
1 1 1 1
0.871414 0.915264 0.967841 0.983726
0.866018 0.909419 0.96925 0.982487
0.961554 0.983739 0.983117 0.994233
1.00852 1.01871 0.99158 0.998406
1.02872 1.03634 0.994547 0.998095
0.96253 0.976816 0.989723 0.995607
1.01617 1.02342 0.994768 0.998135
0.957373 0.982758 0.987295 0.986705
0.854372 0.902098 0.963217 0.983262
0.793761 0.875855 0.926015 0.978677
0.98739 0.998857 0.991696 0.996798
0.952467 0.972833 0.992525 0.986439
0.831571 0.898278 0.941381 0.983383
0.863984 0.930848 0.945783 0.981377
0.99906 1 1 0.99906
0.999354 1 1 0.999354
0.999659 1 1 0.999659
0.999323 1 1 0.999323
0.999169 1 1 0.999169
0.999083 1 1 0.999083
0.999176 1 1 0.999176
0.9992 1 1 0.9992
0.999305 1 1 0.999305
0.999334 1 1 0.999334
1.01066 1.02853 0.984452 0.998146
1.00437 1.02032 0.986211 0.998133
1.00315 1.00697 0.998205 0.997999
1.00331 1.00094 1.0042 0.998173
1.01857 1 1.02039 0.998218
1.00653 1 1.00797 0.998572
0.998946 1 1 0.998946
0.999009 1 1 0.999009
1.00799 1.0257 0.984541 0.998159
0.998958 1 1.00017 0.998792
1.00199 1 1.00331 0.998681
0.986305 1.00568 0.982581 0.998125
0.996942 1.00039 0.998235 0.998319
1.00752 1.00052 1.00878 0.998228
1.01807 1 1.01972 0.99838
0.999201 1.00517 0.995598 0.998452
0.988496 1 0.989649 0.998835
1.01385 1.00031 1.01516 0.998402
1.00059 1 1.00182 0.998773
1.00025 1 1.00162 0.998632
1.01195 1 1.01348 0.998493
0.89296 0.921141 0.983526 0.985644
0.879459 0.925886 0.965401 0.983898
0.942707 0.976816 0.978695 0.986091
0.998738 1 1 0.998738
1.00412 1 1.00572 0.998403
0.987963 1.00791 0.98181 0.998375
1.00906 1 1.011 0.998083
0.869359 0.920204 0.960333 0.983769
0.956333 0.977455 0.991623 0.986655
0.954111 0.970886 0.99132 0.991327
0.967131 0.983571 0.984319 0.998951
0.842852 0.899165 0.953858 0.982716
0.858591 0.906098 0.965818 0.981105
0.860118 0.934826 0.936931 0.982017
1.00174 1 1.00277 0.998964
0.887972 0.918592 0.982336 0.984049
0.952713 0.970349 0.994139 0.987614
0.991687 1.00025 0.992513 0.998914
1.01162 1.00033 1.0125 0.998807
0.984502 0.979307 1.00636 0.998956
0.943904 0.960185 0.990792 0.99218
0.945977 0.963181 0.996575 0.985513
0.868148 0.925938 0.953391 0.983424
0.888184 0.95108 0.948189 0.984897
1.00341 0.999757 1.00418 0.999469
0.950869 0.970084 0.989838 0.990255
0.938483 0.960094 0.986499 0.990868
1.00468 0.991395 1.01368 0.999715
0.961824 0.962442 1.00307 0.996301
0.951606 0.959299 1.00727 0.984821
0.903833 0.943733 0.973782 0.983506
0.90392 0.971476 0.945301 0.9843
0.999043 1 1 0.999043
0.999904 1 1.00064 0.999262
1.00973 1 1.01032 0.999419
0.999168 1 1 0.999168
0.998991 1 1 0.998991
0.998955 1 1 0.998955
0.999289 1 1.00028 0.999008
0.998977 1 1 0.998977
0.998948 1 1.00003 0.998917
1.00661 1 1.00738 0.999236
1.0133 0.998505 1.01538 0.999446
1.00493 1 1.00581 0.999127
0.998925 1 1 0.998925
0.999045 1 1 0.999045
0.999089 1 1 0.999089
0.999053 1 1 0.999053
0.999007 1 1 0.999007
0.999048 1 1 0.999048
0.999033 1 1 0.999033
0.998959 1 1 0.998959
0.999123 1 1 0.999123
0.99884 1 1 0.99884
0.998841 1 1 0.998841
0.999295 1 1.00069 0.998601
0.999646 1 1.00153 0.998123
0.999031 1 1.00027 0.998761
0.999367 1 1.00079 0.998576
0.998877 1 1 0.998877
0.999063 1 1 0.999063
0.998958 1 1 0.998958
0.999182 1 1 0.999182
0.999465 1 1 0.999465
0.999232 1 1 0.999232
0.999496 1 1 0.999496
0.999867 1 1 0.999867
0.999503 1 1 0.999503
0.999869 1 1 0.999869
1 1 1 1
0.999869 1 1 0.999869
1 1 1 1
1 1 1 1
1 1 1 1
1 1 1 1
1 1 1 1
0.999543 1 1 0.999543
0.999944 1 1 0.999944
0.999612 1 1 0.999612
1 1 1 1
0.999959 1 1 0.999959
0.99964 1 1 0.99964
1 1 1 1
1 1 1 1
0.999965 1 1 0.999965
1 1 1 1
1 1 1 1
1 1 1 1
0.891182 0.918784 0.984822 0.984907
0.874647 0.920695 0.965967 0.983455
0.950332 0.971883 0.990201 0.987502
0.857183 0.902293 0.967601 0.981816
0.959393 0.979288 0.985806 0.993791
1.01443 1.02323 0.993205 0.998185
0.960878 0.983035 0.989377 0.987956
0.855559 0.905412 0.961289 0.982991
0.78777 0.876803 0.919612 0.976996
0.98371 0.996735 0.990773 0.996123
0.952296 0.973635 0.993104 0.984875
0.842058 0.904959 0.947383 0.982172
0.861948 0.932161 0.942927 0.980645
0.96839 0.98557 0.987212 0.995297
0.956891 0.964973 1.00728 0.984458
0.867532 0.928012 0.951075 0.982918
0.894131 0.960736 0.946265 0.983523
0.999137 1 1.00023 0.998906
0.999089 1 1 0.999089
0.999374 1 1 0.999374
0.999197 1 1 0.999197
0.998922 1 1 0.998922
0.999103 1 1 0.999103
0.999176 1 1 0.999176
0.999171 1 1 0.999171
0.999227 1 1 0.999227
0.99928 1 1 0.99928
1.00813 1.02671 0.983707 0.998166
0.988641 1.00533 0.985322 0.998051
0.996529 1 0.998085 0.998441
1.00947 1.00111 1.01024 0.998129
1.0158 1 1.01747 0.998354
1.00166 1 1.00301 0.998652
0.999031 1 1.00025 0.998779
1.00001 1 1.00125 0.998769
0.995076 1.00591 0.990746 0.998466
1.00025 1 1.00161 0.998641
1.01218 1 1.01371 0.998487
0.987319 1.00019 0.988366 0.998754
1.0135 1.00056 1.01458 0.998382
0.9682 0.991949 0.977087 0.998948
1.00503 0.998989 1.00678 0.99927
1.01647 1 1.01788 0.998614
0.999622 1 1.00097 0.998652
1.00736 1 1.00888 0.998495
0.950687 0.965973 0.992533 0.99158
0.896545 0.921004 0.987528 0.985737
0.872692 0.922146 0.96153 0.984235
1.00234 1 1.00337 0.99897
1.01098 0.999219 1.013 0.998786
0.991934 1 0.992949 0.998978
0.897982 0.924515 0.986333 0.984759
0.955016 0.962795 1.00755 0.984484
0.946615 0.961425 0.991103 0.993434
0.975269 0.976314 1.00012 0.99881
0.869555 0.925147 0.956308 0.982853
0.956942 0.973742 0.995142 0.987544
0.887343 0.950994 0.947295 0.984982
1.00293 0.99947 1.00402 0.999446
0.949148 0.968297 0.989171 0.990955
0.941058 0.962394 0.986831 0.990879
1.00596 0.99317 1.01332 0.999568
0.96496 0.964818 1.00428 0.99588
0.943883 0.95832 1.00106 0.983897
0.907036 0.973624 0.945729 0.985069
0.899215 0.9413 0.971551 0.983263
1.00518 0.994466 1.01106 0.999711
0.933968 0.957746 0.980049 0.995025
0.948906 0.972571 0.984021 0.991511
0.896444 0.961714 0.947708 0.983564
0.991116 0.97752 1.01493 0.998998
0.966786 0.967247 1.01427 0.985461
0.903113 0.934652 0.982361 0.983606
1.00028 1 1.00101 0.999262
1.00878 1 1.00943 0.999363
1.01445 0.997812 1.01712 0.999566
0.998975 1 1 0.998975
0.998914 1 1 0.998914
1.00955 1 1.01029 0.999274
0.998935 1 1 0.998935
1.00472 1 1.00559 0.999132
1.01488 0.998505 1.01699 0.999421
1.00574 0.998082 1.00819 0.999489
1.00324 1 1.00412 0.999126
0.999015 1 1 0.999015
0.999047 1 1 0.999047
0.999039 1 1 0.999039
0.99911 1 1 0.99911
0.998968 1 1 0.998968
0.999396 1 1.00033 0.999064
0.99895 1 1 0.99895
1.00097 1 1.00259 0.99838
0.998864 1 1 0.998864
0.999137 1 1.00057 0.998571
0.998974 1 1.00101 0.997963
0.999347 1 1.00129 0.99806
1.00002 1 1.00143 0.998587
0.999523 1 1.00138 0.998143
0.998951 1 1 0.998951
0.999048 1 1.00031 0.998734
0.999304 1 1.00065 0.99866
0.998907 1 1 0.998907
0.999091 1 1 0.999091
0.999405 1 1 0.999405
0.99918 1 1 0.99918
0.999464 1 1 0.999464
0.999856 1 1 0.999856
0.999495 1 1 0.999495
0.999866 1 1 0.999866
1 1 1 1
0.999869 1 1 0.999869
1 1 1 1
1 1 1 1
1 1 1 1
1 1 1 1
1 1 1 1
0.9994 1 1 0.9994
0.999849 1 1 0.999849
0.999542 1 1 0.999542
1 1 1 1
0.999914 1 1 0.999914
0.999565 1 1 0.999565
1 1 1 1
1 1 1 1
0.999961 1 1 0.999961
1 1 1 1
1 1 1 1
1 1 1 1
0.945804 0.965653 0.988388 0.990952
0.880251 0.916631 0.975189 0.984744
0.87537 0.917898 0.96988 0.983284
0.999085 1 1 0.999085
0.938494 0.958322 0.987578 0.991628
0.95409 0.972904 0.99313 0.987447
0.852605 0.903561 0.961116 0.981781
0.985715 0.997625 0.992709 0.995318
0.954752 0.973516 0.99445 0.9862
0.848431 0.915803 0.943048 0.982382
0.855059 0.926229 0.941389 0.980639
0.970512 0.986504 0.990499 0.993226
0.94323 0.958551 0.998469 0.985526
0.877018 0.931128 0.958373 0.982798
0.892322 0.957319 0.947979 0.983255
0.952873 0.96825 0.992443 0.991613
0.953043 0.95495 1.01455 0.983695
0.902621 0.945954 0.970705 0.982988
0.903003 0.969705 0.946075 0.984293
0.999104 1 1.00035 0.998756
0.999286 1 1.0004 0.998887
0.999117 1 1 0.999117
0.998918 1 1 0.998918
0.998956 1 1 0.998956
0.999123 1 1 0.999123
0.999179 1 1 0.999179
0.999253 1 1 0.999253
0.989457 1.00578 0.985268 0.998478
0.985137 1.00014 0.986311 0.998674
0.999347 1 1.00058 0.998766
1.01284 1.00073 1.01376 0.99836
1.01261 1 1.01415 0.998481
1.00048 1 1.00183 0.99865
0.999832 1 1.00117 0.998661
0.972845 0.993528 0.98019 0.998972
1.00776 1 1.00926 0.998521
1.0136 1 1.015 0.998617
0.999161 0.999051 1.00081 0.999298
1.00028 1 1.00159 0.998692
0.965033 0.984959 0.98047 0.999286
1.00943 0.996446 1.01358 0.999454
1.0216 1 1.02294 0.998689
1.00182 1 1.00318 0.998642
0.946615 0.959936 0.990355 0.995728
0.950094 0.965026 0.992781 0.991686
0.901373 0.921215 0.992521 0.985834
1.00213 0.999138 1.00357 0.999427
1.00862 0.995129 1.01414 0.999425
0.947946 0.966755 0.9888 0.991651
0.958512 0.958827 1.0146 0.985284
0.959969 0.962626 1.00365 0.993614
0.903677 0.944772 0.973604 0.982435
0.942048 0.963121 0.987113 0.99089
0.911274 0.977013 0.946116 0.985834
1.00613 0.995986 1.01051 0.999674
0.933792 0.957231 0.980382 0.995035
0.946526 0.970656 0.982552 0.992456
0.999613 0.98397 1.01607 0.999835
0.893867 0.958622 0.948313 0.983272
0.957234 0.960648 1.01173 0.984898
0.913656 0.948774 0.979861 0.982777
1.0074 0.992424 1.01533 0.999771
0.946507 0.970516 0.97936 0.995815
0.939335 0.959516 0.987193 0.991668
0.864322 0.932787 0.944117 0.981448
0.902567 0.947888 0.968949 0.982702
0.974888 0.971433 1.0052 0.998361
0.968975 0.960424 1.02619 0.983157
1.00694 1 1.00764 0.999307
1.01339 0.997046 1.01685 0.999544
1.0037 0.986751 1.0176 0.999582
0.998944 1 1 0.998944
1.00419 1 1.00506 0.999137
1.01627 0.999166 1.01774 0.999396
1.00139 1 1.00228 0.999115
1.00565 0.998621 1.00756 0.999488
1.00662 0.99781 1.00957 0.999263
0.999096 1 1 0.999096
0.998976 1 1 0.998976
1.00003 1 1.001 0.999034
1.00643 1 1.00787 0.998568
0.999058 1 1 0.999058
1.00045 1 1.00198 0.998471
1.00199 1 1.00413 0.997867
1.00046 1.00104 1.00188 0.997545
0.998944 1 1.0004 0.99854
0.999072 1.0001 1.00109 0.997884
0.998678 1 1.00053 0.998154
1.00071 1 1.00232 0.998398
0.999365 1 1.00125 0.998113
1.00014 1 1.00132 0.998821
0.999961 1 1.00138 0.99858
0.999439 1 1.00128 0.998163
0.9993 1 1 0.9993
0.998972 1 1.00003 0.998944
0.999118 1 1.00041 0.998707
0.99912 1 1 0.99912
0.999403 1 1 0.999403
0.999831 1 1 0.999831
0.999463 1 1 0.999463
0.999854 1 1 0.999854
1 1 1 1
0.999865 1 1 0.999865
1 1 1 1
1 1 1 1
1 1 1 1
1 1 1 1
1 1 1 1
0.999341 1 1 0.999341
0.999784 1 1 0.999784
0.999427 1 1 0.999427
1 1 1 1
0.999843 1 1 0.999843
0.99954 1 1 0.99954
1 1 1 1
1 1 1 1
0.999885 1 1 0.999885
1 1 1 1
1 1 1 1
1 1 1 1
0.935665 0.957412 0.98214 0.995058
0.946779 0.966213 0.988837 0.990949
0.88036 0.917881 0.973895 0.984832
0.9991 1 1 0.9991
0.999056 1 1 0.999056
0.998953 1 1 0.998953
0.945713 0.971237 0.982099 0.991468
0.937366 0.957429 0.987289 0.99165
0.958082 0.974023 0.996194 0.987392
0.977127 0.988147 0.994056 0.994761
0.942515 0.959018 0.998293 0.984472
0.867873 0.920733 0.959008 0.982879
0.899182 0.962348 0.950485 0.983038
0.954596 0.967996 0.992703 0.993406
0.948356 0.95415 1.00945 0.984627
0.893592 0.932873 0.973327 0.984143
0.905101 0.972196 0.945118 0.985048
0.941097 0.957249 0.990763 0.992292
0.966896 0.964819 1.01744 0.984973
0.903958 0.933174 0.984678 0.983765
0.898043 0.958598 0.951312 0.984777
0.998746 1 1 0.998746
0.999312 1 1.00056 0.998752
0.999432 1 1.00056 0.998867
0.998914 1 1 0.998914
0.99899 1 1 0.99899
0.999186 1 1 0.999186
0.979612 0.996048 0.984493 0.99899
0.994136 0.999101 0.995703 0.999324
0.999959 1 1.00129 0.99867
1.01111 1 1.01251 0.998621
1.00845 1 1.00992 0.998547
1.00005 1 1.00138 0.998669
1.00173 1 1.00308 0.998654
0.976838 0.988441 0.988945 0.999308
1.01966 1 1.0209 0.998786
1.00595 0.991912 1.01468 0.99948
0.999998 1 1.00123 0.998768
0.991618 0.977822 1.01461 0.999506
0.99773 0.98833 1.00999 0.999525
1.01589 1 1.01699 0.998914
0.962168 0.974353 0.990772 0.996692
0.946055 0.959922 0.989513 0.995999
0.949793 0.964008 0.993411 0.99179
1.00784 0.997825 1.01041 0.999638
0.994836 0.986061 1.00952 0.99938
0.934415 0.957519 0.980729 0.995045
0.958119 0.955651 1.01447 0.988279
0.913336 0.945674 0.981757 0.983751
0.94513 0.969119 0.981723 0.993403
0.900282 0.962948 0.951011 0.983084
1.00602 0.992455 1.01388 0.999788
0.947054 0.970861 0.979313 0.996084
0.93863 0.958669 0.987301 0.99169
0.973756 0.96803 1.01021 0.995743
0.861018 0.932762 0.9412 0.980752
0.891376 0.936005 0.967943 0.98386
0.978342 0.966347 1.02803 0.984812
1.00259 0.975505 1.02811 0.999666
0.93634 0.958 0.982189 0.995114
0.951338 0.9732 0.989804 0.987607
0.800959 0.875868 0.932603 0.980561
0.869547 0.930276 0.950936 0.982947
0.966918 0.965515 1.01703 0.984688
0.951169 0.962993 0.993372 0.994312
1.01271 0.99617 1.01709 0.999521
1.00725 0.990907 1.01691 0.999586
1.01748 0.995603 1.02246 0.999529
0.999578 1 1.00047 0.999105
1.00537 0.998602 1.00729 0.999487
1.00764 0.998017 1.01032 0.999333
1.01732 1 1.01849 0.99885
1.00061 1 1.00161 0.999005
1.00673 1 1.00827 0.998472
1.01509 1 1.01737 0.997754
1.00001 1 1.00145 0.998563
1.00305 1.00015 1.00508 0.997827
1.0046 1.00148 1.00589 0.997235
1.00272 1.00368 1.00191 0.997145
0.998936 1.00001 1.00108 0.997847
1.00044 1.00105 1.00189 0.99751
0.999215 1.00017 1.00124 0.997804
0.999429 1 1.0011 0.998334
0.998719 1 1.00048 0.99824
1.00106 1 1.00247 0.998587
1.00078 1 1.00235 0.998433
0.999335 1 1.00117 0.998167
0.999399 1 1.00028 0.999123
0.999941 1 1.00112 0.998823
0.999859 1 1.00129 0.998573
0.999778 1 1 0.999778
0.999298 1 1 0.999298
0.99899 1 1.00005 0.998938
0.999401 1 1 0.999401
0.999827 1 1 0.999827
1 1 1 1
0.999851 1 1 0.999851
1 1 1 1
1 1 1 1
1 1 1 1
1 1 1 1
1 1 1 1
0.999334 1 1 0.999334
0.999794 1 1 0.999794
0.999359 1 1 0.999359
1 1 1 1
0.999814 1 1 0.999814
0.999454 1 1 0.999454
1 1 1 1
1 1 1 1
0.999838 1 1 0.999838
1 1 1 1
1 1 1 1
1 1 1 1
0.945731 0.969776 0.979334 0.995785
0.935359 0.957772 0.981437 0.99507
0.946172 0.966701 0.987698 0.990954
0.999035 1 1 0.999035
0.998923 1 1 0.998923
0.999115 1 1 0.999115
0.999053 1 1 0.999053
0.998935 1 1 0.998935
0.998945 1 1 0.998945
0.998845 1 1 0.998845
0.935873 0.959334 0.984613 0.990789
0.94496 0.969226 0.982411 0.992419
0.936251 0.956393 0.987161 0.991672
0.907937 0.975324 0.944315 0.985803
0.943195 0.958023 0.992662 0.9918
0.952094 0.955795 1.01059 0.985689
0.897826 0.933294 0.978532 0.983102
0.937002 0.956559 0.98785 0.991603
0.957148 0.957271 1.01604 0.984086
0.915922 0.949924 0.980661 0.98322
0.887375 0.950397 0.948079 0.98482
0.940008 0.957556 0.988211 0.993386
0.962559 0.962222 1.0169 0.983725
0.905784 0.945413 0.974007 0.98365
0.866326 0.936848 0.941312 0.982378
0.999523 1 1.0007 0.998828
0.998844 1 1.0001 0.998746
0.999461 1 1.00071 0.998748
0.99891 1 1 0.99891
0.985999 0.991227 0.995389 0.999334
1.00125 0.987914 1.014 0.999505
0.998681 1 1.00004 0.998645
1.0015 1 1.00284 0.998667
1.01652 1 1.01766 0.998883
0.999486 1 1.00073 0.998762
1.01666 0.999917 1.01786 0.9989
0.987328 0.975923 1.01282 0.998879
1.00002 0.988295 1.01223 0.999634
1.00721 0.9995 1.00872 0.998999
0.991562 0.973382 1.01994 0.998765
1.01523 0.994151 1.02192 0.999303
0.947076 0.960295 0.990432 0.995762
0.957528 0.972381 0.987711 0.996976
0.945377 0.959868 0.98859 0.99627
1.00337 0.991133 1.01255 0.999805
0.976584 0.969357 1.009 0.998469
0.946827 0.97053 0.979146 0.996355
0.970337 0.963712 1.0238 0.983469
0.895297 0.935085 0.974229 0.982777
0.937741 0.9578 0.987238 0.991712
0.854828 0.926492 0.940763 0.980746
1.00753 0.978573 1.02987 0.999731
0.935777 0.958303 0.981276 0.995127
0.955162 0.974334 0.992683 0.987549
0.953766 0.963293 0.993667 0.99642
0.793854 0.875666 0.926105 0.978908
0.874909 0.930709 0.956572 0.982723
0.964781 0.960769 1.01998 0.984509
0.999178 0.979375 1.02117 0.999071
0.946915 0.966816 0.988235 0.991076
0.86694 0.910132 0.96931 0.982703
0.834066 0.899196 0.943018 0.983617
0.950453 0.95318 1.01232 0.985006
0.934841 0.956457 0.984889 0.992396
1.01077 0.994806 1.01647 0.99959
1.01799 0.994081 1.02454 0.999522
1.01343 0.999764 1.01432 0.999361
1.00885 0.998367 1.01111 0.999402
1.01657 0.998851 1.01883 0.998922
1.01076 1.00071 1.01197 0.998101
1.00723 1 1.00886 0.998376
1.01416 1 1.01649 0.997703
1.00885 1.00017 1.01151 0.997203
1.00416 1.00035 1.00603 0.997788
1.00452 1.00104 1.00633 0.997172
1.00321 1.00209 1.00416 0.996964
1.0044 1.00724 1 0.997174
1.00441 1.00632 1.00077 0.997335
1.00327 1.00401 1.00218 0.997093
0.998299 1.0001 1.00013 0.998076
0.998751 1.00011 1.00074 0.997899
1.00046 1.0011 1.0019 0.997475
0.999475 1 1.00112 0.998361
0.999407 1 1.00108 0.998326
0.998751 1 1.00043 0.998326
1.0002 1 1.00132 0.998881
1.00089 1 1.00227 0.998624
1.00082 1 1.00235 0.998469
0.999655 1 1 0.999655
0.999405 1 1.00028 0.999124
0.999741 1 1.00092 0.998826
1 1 1 1
0.999772 1 1 0.999772
0.999296 1 1 0.999296
0.999823 1 1 0.999823
1 1 1 1
1 1 1 1
1 1 1 1
1 1 1 1
1 1 1 1
0.999029 1 1 0.999029
0.999285 1 1 0.999285
0.999747 1 1 0.999747
0.999333 1 1 0.999333
1 1 1 1
0.999797 1 1 0.999797
0.999377 1 1 0.999377
1 1 1 1
1 1 1 1
0.999845 1 1 0.999845
1 1 1 1
1 1 1 1
1 1 1 1
0.933771 0.958053 0.979543 0.995009
0.946198 0.97028 0.979039 0.996058
0.935114 0.958173 0.980758 0.995081
0.999045 1 1 0.999045
0.998909 1 1 0.998909
0.998845 1 1 0.998845
0.998909 1 1 0.998909
0.998908 1 1.00009 0.99882
0.999051 1 1 0.999051
0.998918 1 1 0.998918
0.998945 1 1 0.998945
0.998845 1 1 0.998845
0.999192 1 1.0003 0.998892
0.946491 0.965598 0.992599 0.987521
0.939885 0.961959 0.986117 0.990808
0.945155 0.967878 0.983041 0.993369
0.885389 0.950255 0.946006 0.984918
0.913843 0.944192 0.983659 0.983937
0.929864 0.952632 0.985265 0.990697
0.965271 0.96448 1.0163 0.98477
0.941142 0.959296 0.989602 0.991384
0.973954 0.971215 1.01842 0.984685
0.901019 0.94202 0.972392 0.983631
0.867274 0.93917 0.940651 0.981711
0.961346 0.967699 1.00073 0.992706
0.963724 0.963963 1.01483 0.985141
0.856828 0.915271 0.95268 0.982645
0.822609 0.903167 0.929137 0.980269
1.00142 1 1.00222 0.999206
1.00097 1 1.00215 0.998829
0.999566 1 1.00082 0.998746
0.985379 0.974387 1.01306 0.998243
1.00228 0.987544 1.01517 0.999748
0.999789 1 1.00103 0.998755
1.01803 0.999905 1.01927 0.998887
1.00819 0.99977 1.00943 0.999007
1.01623 0.996 1.02103 0.999293
0.988245 0.970542 1.01946 0.998803
1.01382 0.999377 1.01512 0.999345
0.994362 0.980904 1.01514 0.998606
0.953148 0.96788 0.993235 0.991486
0.946423 0.960069 0.989716 0.99603
0.952755 0.970498 0.984415 0.99726
1.01265 0.982117 1.03131 0.999791
0.952742 0.964121 0.994767 0.993395
0.93557 0.958569 0.980775 0.995139
0.965165 0.966382 1.01625 0.982775
0.868243 0.921086 0.959092 0.982836
0.959091 0.975549 0.995579 0.987495
0.789675 0.877753 0.920604 0.977245
0.997964 0.977742 1.02152 0.999177
0.94813 0.967579 0.988726 0.991073
0.858093 0.903302 0.967329 0.982035
0.937196 0.95927 0.983429 0.993451
0.844038 0.905564 0.94877 0.982386
0.939583 0.95119 1.00398 0.983877
0.97476 0.978992 0.997363 0.99831
0.891556 0.919647 0.984097 0.985121
0.84268 0.896911 0.95578 0.983004
0.954838 0.964817 1.0052 0.984536
0.936506 0.956374 0.985326 0.99381
1.01763 0.992785 1.02552 0.999515
1.01401 0.998121 1.0166 0.999333
0.993938 1.00089 0.994315 0.998737
1.01526 0.997469 1.01886 0.998994
1.01137 1.00083 1.01235 0.998197
1.00247 1.00194 1.00283 0.997705
1.01293 1 1.01531 0.997653
1.00732 1.00032 1.00981 0.997217
0.999489 1.00147 1.00072 0.997308
1.00426 1.00059 1.00658 0.997109
1.00345 1.00301 1.00347 0.996983
1.00557 1.00826 1 0.997328
1.01314 1.01569 1 0.99749
1.00838 1.01118 1.00002 0.99721
1.00412 1.00695 1 0.99719
1.00116 1.00355 1 0.997616
1.00287 1.00451 1.00107 0.997289
1.00381 1.00434 1.00244 0.997041
0.998231 1 1 0.998231
0.998256 1.00009 1.00002 0.998138
0.998453 1.00018 1.00032 0.997951
0.999753 1 1.00111 0.998649
0.999668 1 1.00129 0.998384
0.999412 1 1.0011 0.998318
0.999631 1 1.00021 0.999425
1.00013 1 1.00125 0.998882
1.00074 1 1.00209 0.998661
0.999999 1 1 0.999999
0.999648 1 1 0.999648
0.999441 1 1.00032 0.999125
1 1 1 1
1 1 1 1
0.999766 1 1 0.999766
1 1 1 1
1 1 1 1
1 1 1 1
0.998946 1 1 0.998946
0.999226 1 1 0.999226
0.999017 1 1 0.999017
0.99971 1 1 0.99971
0.999284 1 1 0.999284
0.999998 1 1 0.999998
0.99975 1 1 0.99975
0.999331 1 1 0.999331
1 1 1 1
1 1 1 1
0.999801 1 1 0.999801
1 1 1 1
1 1 1 1
1 1 1 1
0.94955 0.970134 0.98694 0.991734
0.933274 0.957278 0.979802 0.995022
0.946175 0.970093 0.978934 0.996333
0.998845 1 1 0.998845
0.999055 1 1 0.999055
0.998894 1 1 0.998894
0.998923 1 1 0.998923
0.998861 1 1 0.998861
0.998849 1 1.00003 0.998822
0.999373 1 1.00065 0.998725
0.999489 1 1.0007 0.998794
0.998945 1 1 0.998945
0.998845 1 1 0.998845
0.999272 1 1.00039 0.998883
0.999837 1 1.00083 0.999009
0.860503 0.906963 0.966537 0.981623
0.950537 0.969137 0.993276 0.987448
0.941722 0.962347 0.987628 0.990827
0.86107 0.935183 0.937851 0.981766
0.908128 0.948886 0.973529 0.983068
0.963349 0.962316 1.01758 0.983777
0.945488 0.959917 0.992726 0.992186
0.961151 0.965332 1.00131 0.994366
0.806309 0.891081 0.92457 0.978688
0.960501 0.960377 1.01666 0.983739
0.865127 0.925017 0.951285 0.98315
0.951603 0.964033 0.992291 0.994775
0.952506 0.95599 1.01075 0.985761
0.838849 0.904419 0.943532 0.983009
1.00012 1 1.00052 0.9996
1.00099 1 1.00179 0.999208
1.00203 1 1.0032 0.998829
0.98582 0.968945 1.0186 0.998836
1.01808 0.998735 1.0201 0.999283
1.00915 1 1.01015 0.999014
1.0131 0.99975 1.01402 0.999345
0.994277 0.982346 1.01351 0.998655
1.001 0.992669 1.00939 0.99902
0.894081 0.922044 0.985242 0.984197
0.951567 0.966662 0.991882 0.99244
0.945409 0.959648 0.988824 0.996297
0.998232 0.976345 1.02316 0.999277
0.933762 0.959898 0.978452 0.994195
0.94767 0.968256 0.987552 0.991076
0.948105 0.952207 1.01027 0.985572
0.852334 0.917842 0.945051 0.982623
0.852632 0.903927 0.960535 0.982008
0.975488 0.979378 0.997657 0.998368
0.880637 0.917152 0.974855 0.984953
0.857469 0.903306 0.96515 0.983533
0.938119 0.956104 0.989372 0.99173
0.943505 0.961358 0.995825 0.985544
0.96495 0.987206 0.97836 0.999076
0.871716 0.915857 0.967355 0.983924
0.955048 0.975722 0.992511 0.986197
0.950469 0.968927 0.989332 0.991528
1.01553 0.996695 1.0196 0.999305
0.9899 1.00042 0.990634 0.998838
0.982502 1.00257 0.981634 0.998322
1.01242 1.00103 1.01311 0.998292
1.0034 1.00238 1.00333 0.997697
1.00063 1.00335 0.999428 0.997865
1.00612 1.0005 1.0084 0.997232
0.999587 1.00111 1.00116 0.997321
1.01003 1.01225 1 0.997813
1.00379 1.00395 1.00285 0.997003
1.00529 1.00798 1 0.997334
1.01405 1.01623 1 0.997863
1.01878 1.02097 1 0.997856
1.01455 1.01716 1 0.997429
1.0127 1.01522 1 0.997515
1.00697 1.00957 1 0.997426
1.00758 1.01035 1 0.997251
1.00377 1.00659 1 0.997206
0.999054 1.00108 1 0.997973
1.00139 1.00363 1.00014 0.997636
1.00146 1.00275 1.00148 0.997242
0.998469 1 1 0.998469
0.998382 1.00016 1 0.998226
0.9982 1 1 0.9982
0.999308 1 1.00015 0.999161
0.999566 1 1.00092 0.998651
0.999849 1 1.00145 0.998406
0.999982 1 1 0.999982
0.999589 1 1.00017 0.999421
0.999958 1 1.00108 0.998883
1 1 1 1
0.999996 1 1 0.999996
0.999642 1 1 0.999642
1 1 1 1
1 1 1 1
1 1 1 1
0.998913 1 1 0.998913
0.998947 1 1 0.998947
0.999146 1 1 0.999146
0.999672 1 1 0.999672
0.999226 1 1 0.999226
0.999004 1 1 0.999004
0.999994 1 1 0.999994
0.999712 1 1 0.999712
0.999284 1 1 0.999284
1 1 1 1
0.999999 1 1 0.999999
0.999753 1 1 0.999753
1 1 1 1
1 1 1 1
1 1 1 1
0.884927 0.913933 0.984449 0.983557
0.948649 0.96848 0.987679 0.991743
0.933868 0.957631 0.980052 0.995035
0.998831 1 1 0.998831
0.998774 1 1 0.998774
0.999105 1 1.00036 0.99875
0.998937 1 1 0.998937
0.998877 1 1 0.998877
0.998827 1 1 0.998824
0.999393 1 1.0006 0.99879
0.999373 1 1.00065 0.998727
0.999677 1 1.00104 0.998639
0.999033 1 0.999954 0.999079
0.999031 1 1.00016 0.998874
0.999376 1 1.00038 0.998995
0.854691 0.900891 0.965077 0.98305
0.855037 0.900656 0.96784 0.980895
0.95554 0.973542 0.994052 0.987382
0.790889 0.877214 0.922729 0.977093
0.866319 0.922598 0.9556 0.982628
0.962516 0.963274 1.01333 0.986072
0.961992 0.962835 1.00673 0.992446
0.950321 0.962731 0.993989 0.993079
0.839786 0.897452 0.952853 0.982045
0.943602 0.952674 1.00517 0.985386
0.946773 0.964203 0.988186 0.993662
0.942391 0.96348 0.993115 0.984892
1.00724 1 1.00819 0.999058
0.999825 1 1.00028 0.999543
1.00018 1 1.00097 0.999211
0.992531 0.981969 1.01207 0.9987
1.0122 1 1.01287 0.999344
1.00161 0.993582 1.00918 0.998915
0.992721 0.996783 0.997741 0.99818
0.870692 0.927613 0.953628 0.98428
0.897883 0.92227 0.988404 0.984979
0.951036 0.965766 0.991303 0.993387
0.974805 0.980685 0.995541 0.998457
0.937454 0.955522 0.988468 0.992537
0.881063 0.918442 0.973875 0.985035
0.940974 0.958372 0.997211 0.984592
0.860218 0.908819 0.962661 0.983236
0.968329 0.987956 0.981516 0.998591
0.876234 0.921885 0.966292 0.983637
0.955759 0.976942 0.993369 0.984848
0.956049 0.970123 0.992164 0.993275
0.979792 0.994889 0.98591 0.9989
0.955976 0.980961 0.989064 0.985306
0.966562 0.985853 0.985917 0.994437
0.985896 1 0.986944 0.998938
0.983335 1.00327 0.981801 0.9983
0.983993 1.00626 0.979635 0.998202
1.00391 1.0027 1.00353 0.997688
0.999948 1.00345 0.998648 0.99786
1.0132 1.01775 0.997226 0.998297
0.999489 1.00064 1.00152 0.997335
1.00982 1.01205 1 0.997804
1.01909 1.02109 0.99978 0.998264
1.00484 1.00752 1 0.997341
1.01346 1.01563 1 0.997863
1.01922 1.02106 1 0.998191
1.01687 1.01882 1 0.99808
1.01889 1.02104 1 0.997899
1.01838 1.02068 1 0.997755
1.0139 1.01643 1 0.997512
1.01525 1.01786 1 0.997434
1.01229 1.01478 1 0.99754
1.0025 1.00482 1 0.997693
1.00747 1.01003 1 0.997461
1.00679 1.00952 1 0.997292
0.998397 1.00013 1 0.998268
0.999817 1.00185 1 0.997966
1.00167 1.00385 1.00017 0.997656
0.998965 1 1 0.998965
0.998467 1 1 0.998467
0.99866 1.00044 1 0.998221
0.999918 1 1 0.999918
0.999361 1 1.0002 0.999161
0.99945 1 1.0008 0.998654
1 1 1 1
0.999968 1 1 0.999968
0.999612 1 1.00019 0.999417
1 1 1 1
0.999993 1 1 0.999993
1 1 1 1
0.998846 1 1 0.998846
0.998903 1 1 0.998903
0.99906 1 1 0.99906
0.998947 1 1 0.998947
0.999146 1 1 0.999146
0.99961 1 1 0.99961
0.99999 1 1 0.99999
0.999674 1 1 0.999674
0.999226 1 1 0.999226
1 1 1 1
0.999995 1 1 0.999995
0.999714 1 1 0.999714
1 1 1 1
0.999999 1 1 0.999999
1 1 1 1
0.879584 0.919966 0.971926 0.983722
0.887053 0.917837 0.982895 0.983279
0.947068 0.966219 0.988332 0.991751
0.998817 1 1 0.998817
0.999128 1 1.00041 0.998716
0.998811 1 1 0.998811
0.998537 1 1 0.998537
0.999062 1 1.00039 0.998677
0.999418 1 1.00063 0.998787
0.999352 1 1.00062 0.998729
0.999568 1 1.0009 0.998667
0.998526 1 1 0.998526
0.998338 1.00002 0.999426 0.998895
0.998711 1.00034 1.00026 0.998118
0.999484 1 1.00036 0.999128
0.999275 1 1.0003 0.99898
0.950706 0.97612 0.98899 0.984807
0.857652 0.89986 0.969509 0.98307
0.855923 0.903622 0.965741 0.980815
0.838607 0.898273 0.950512 0.982182
0.948096 0.955256 1.00892 0.98373
0.952788 0.961389 0.996125 0.994909
0.947829 0.963662 0.988714 0.994797
0.947808 0.964966 0.996015 0.986148
0.968041 0.987247 0.986661 0.993802
1.00105 1.00132 1.00148 0.998255
1.00569 1 1.00666 0.999037
0.999485 1 1 0.999485
1.00219 0.995363 1.00804 0.998827
0.997428 1.00008 0.999274 0.998079
0.937847 0.974133 0.97634 0.986081
0.879337 0.927043 0.963943 0.984021
0.902741 0.922872 0.992305 0.985772
0.971667 0.988942 0.984416 0.998087
0.951074 0.965405 0.993474 0.991627
0.877054 0.919686 0.969708 0.983435
0.954596 0.973824 0.994144 0.98603
0.979766 0.995012 0.985745 0.998916
0.958497 0.98403 0.987382 0.986501
0.967784 0.986127 0.988648 0.992668
0.998256 1.00491 0.995006 0.998368
0.981154 0.996197 0.988694 0.996162
0.984284 1.00418 0.981877 0.998282
0.985762 1.00581 0.981878 0.998155
1.00504 1.02494 0.982249 0.998313
0.999548 1.00358 0.998123 0.997854
1.0125 1.0172 0.997088 0.998285
1.01986 1.0269 0.994664 0.998472
1.00977 1.012 1 0.997795
1.01892 1.02124 0.999484 0.998248
1.01892 1.02169 0.998915 0.998376
1.01307 1.01524 1 0.997862
1.01948 1.02139 0.999952 0.998175
1.01748 1.0193 1 0.998211
1.01757 1.01948 1 0.998122
1.01679 1.0189 1 0.99793
1.019 1.0211 1 0.997943
1.01823 1.02053 1 0.997748
1.01654 1.01892 1 0.997663
1.00835 1.01074 1 0.997632
1.01371 1.01625 1 0.997504
1.0159 1.01851 1 0.997438
0.999125 1.00106 1 0.998065
1.00271 1.005 1 0.997715
1.0079 1.01043 1 0.997497
0.998805 1 1 0.998805
0.998577 1.00031 1 0.998263
1.00031 1.00235 1 0.997959
0.999806 1 1 0.999806
0.998966 1 1 0.998966
0.998466 1 1 0.998466
1 1 1 1
0.999897 1 1 0.999897
0.99935 1 1.00019 0.999161
1 1 1 1
0.999954 1 1 0.999954
1 1 1 1
0.998551 1 1 0.998551
0.998845 1 1 0.998845
0.998932 1 1 0.998932
0.998894 1 1 0.998894
0.99904 1 1 0.99904
0.999494 1 1 0.999494
0.999146 1 1 0.999146
0.999612 1 1 0.999612
0.999985 1 1 0.999985
1 1 1 1
0.999991 1 1 0.999991
0.999676 1 1 0.999676
1 1 1 1
0.999997 1 1 0.999997
1 1 1 1
0.955975 0.981485 0.987075 0.986763
0.872001 0.921973 0.960999 0.984182
0.897998 0.924157 0.988378 0.983121
0.999139 1 1.00046 0.998683
0.998847 1 1 0.998847
0.998991 1 1.0003 0.998687
0.998552 1 1 0.998552
1.00001 1.00178 1.00002 0.998211
0.99858 1 1 0.99858
0.999404 1 1.00071 0.998695
0.998434 1 1 0.998434
0.998944 1.00001 1.00007 0.99886
0.998357 1 1 0.998357
0.999801 1.00216 0.999366 0.998278
0.998293 1.00129 0.999302 0.997705
0.998956 1.00081 0.999921 0.99823
1.00007 1 1.0009 0.999177
0.966228 0.987641 0.984251 0.993973
0.95304 0.977036 0.989675 0.985617
0.852307 0.900548 0.962604 0.983199
0.96013 0.971453 1.00381 0.984591
0.94689 0.962986 0.987592 0.99564
0.972174 0.988302 0.987756 0.995874
0.993565 1.0038 0.991504 0.998284
0.998775 1.00067 0.999796 0.99831
1.00464 1 1.00563 0.999016
0.997495 1.00112 0.998415 0.997961
0.968198 0.98263 0.991307 0.993953
0.949529 0.97717 0.98408 0.987433
0.871026 0.922531 0.959204 0.984325
0.980578 0.99611 0.985462 0.99893
0.972471 0.988194 0.990056 0.993973
0.961914 0.98453 0.989186 0.98771
0.992097 1.00409 0.989663 0.998379
0.979108 0.994354 0.989084 0.995535
0.99972 1.02284 0.979221 0.998135
1.0058 1.01494 0.993144 0.997837
0.9872 1.00518 0.983976 0.998104
1.0052 1.02455 0.982784 0.998304
1.00861 1.031 0.979912 0.998341
1.01198 1.01694 0.996843 0.998272
1.01955 1.02665 0.994614 0.998458
1.01452 1.02214 0.994217 0.998319
1.01862 1.02128 0.999159 0.998232
1.0185 1.02144 0.998764 0.998361
1.0184 1.02123 0.999055 0.99817
1.01969 1.02168 0.999891 0.99816
1.01708 1.01896 0.999945 0.998209
1.01686 1.01893 1 0.997962
1.01828 1.02015 1 0.998163
1.01663 1.0187 1 0.997963
1.01707 1.01937 1 0.99774
1.01813 1.02043 1 0.997741
1.01642 1.01881 1 0.997654
1.01155 1.01388 1 0.997708
1.00085 1.00295 1 0.997912
1.00803 1.0104 1 0.997651
1.01355 1.0161 1 0.997495
0.998635 1 1 0.998635
0.999677 1.00162 1 0.998065
1.0031 1.00538 1 0.997737
0.999677 1 1 0.999677
0.998803 1 1 0.998803
0.998789 1.00053 1 0.998259
1 1 1 1
0.999791 1 1 0.999791
0.998966 1 1 0.998966
1 1 1 1
0.999877 1 1 0.999877
1 1 1 1
0.999997 1.00174 1 0.99826
0.998563 1 1 0.998563
0.998729 1 1 0.998729
0.998844 1 1 0.998844
0.998913 1 1 0.998913
0.999332 1 1 0.999332
0.999019 1 1 0.999019
0.999496 1 1 0.999496
0.999971 1 1 0.999971
0.999614 1 1 0.999614
0.999986 1 1 0.999986
1 1 1 1
1 1 1 1
0.999992 1 1 0.999992
1 1 1 1
0.967715 0.985405 0.987664 0.994314
0.952125 0.981789 0.983749 0.985806
0.865926 0.91792 0.958922 0.983767
1.00482 1.00688 1.00007 0.997889
0.99893 1 1.00023 0.998697
0.998567 1 1 0.998567
0.998554 1 1 0.998554
1 1.00168 1.00012 0.998201
0.999905 1.00144 1 0.998467
0.998343 1 1 0.998343
0.999442 1 1.00062 0.998825
0.998444 1.00004 1 0.9984
0.9991 1.00152 0.999333 0.998254
1.00115 1.00346 1 0.997695
1.00309 1.0058 0.999655 0.997648
0.99938 1.00195 0.99977 0.99766
0.999345 1.00134 0.999669 0.998342
0.996092 1.00622 0.991161 0.998765
0.965949 0.988066 0.984378 0.99313
0.956916 0.978292 0.991335 0.9867
0.966673 0.984502 0.987478 0.994341
0.997749 1.00588 0.993299 0.998609
0.99934 1.0002 1.00078 0.998365
0.999113 1.00668 0.994546 0.997924
0.964572 0.976866 0.992199 0.995178
0.94341 0.976817 0.979344 0.986171
0.985487 1.00247 0.984648 0.998386
0.982014 0.995352 0.99179 0.994766
1.00089 1.02369 0.979522 0.998165
1.00477 1.01336 0.993541 0.997965
1.00731 1.02954 0.980248 0.998128
1.01977 1.02516 0.996697 0.998042
1.00521 1.0239 0.983429 0.998296
1.01098 1.03216 0.981114 0.998341
1.00755 1.02456 0.985188 0.998184
1.01901 1.02613 0.994601 0.998444
1.0152 1.02245 0.994587 0.998316
1.01823 1.02303 0.997241 0.998058
1.01817 1.02121 0.998679 0.998346
1.01833 1.02094 0.999258 0.998184
1.01852 1.02069 1 0.99788
1.01666 1.01858 0.999904 0.998206
1.01661 1.01868 1 0.997963
1.01894 1.02126 1 0.997731
1.01645 1.01849 1 0.997996
1.01709 1.01937 1 0.997759
1.01327 1.01563 1 0.997678
1.01627 1.01867 1 0.997646
1.01141 1.01375 1 0.997687
1.003 1.00512 1 0.997894
0.998509 1 1 0.998509
1.00122 1.00329 1 0.997937
1.00765 1.01001 1 0.997671
0.999553 1 1 0.999553
0.998634 1 1 0.998634
1.00018 1.00212 1 0.998065
1 1 1 1
0.999664 1 1 0.999664
0.998802 1 1 0.998802
1 1 1 1
0.999775 1 1 0.999775
1 1 1 1
1.00166 1.00371 1 0.997956
0.999545 1.00128 1 0.998265
0.998492 1 1 0.998492
0.998582 1 1.00001 0.998575
0.998736 1 1 0.998736
0.999155 1 1 0.999155
0.998893 1 1 0.998893
0.999331 1 1 0.999331
0.999938 1 1 0.999938
0.999498 1 1 0.999498
0.999976 1 1 0.999976
1 1 1 1
0.999988 1 1 0.999988
1 1 1 1
1 1 1 1
1.00063 1.0105 0.991485 0.998735
0.96265 0.983952 0.985581 0.992665
0.952246 0.975887 0.988589 0.987037
1.00549 1.00742 1.00001 0.998075
1.00959 1.01193 1 0.997689
1.00427 1.00622 1.00013 0.997928
0.998527 1 1 0.998527
1 1.00157 1.00024 0.998189
1.00046 1.00204 1 0.998412
1.00725 1.00948 1 0.99779
0.99853 1.00009 1 0.998442
0.998334 1.00077 0.999336 0.998229
1.0017 1.00396 1 0.997753
1.00953 1.01213 1 0.997428
1.01111 1.01728 0.995961 0.997966
1.00308 1.006 0.999471 0.997624
1.00014 1.00262 0.999909 0.997614
0.999957 1.00852 0.992623 0.998874
0.967572 0.988113 0.986973 0.992136
0.998392 1.00718 0.992327 0.998942
1.01375 1.02096 0.994348 0.998582
0.997916 1.00539 0.99455 0.998003
0.96397 0.980655 0.989396 0.993521
1.00258 1.02477 0.980121 0.998195
1.00293 1.01202 0.992907 0.998099
1.00635 1.02947 0.97932 0.998188
1.02175 1.02737 0.996475 0.998051
1.01709 1.0293 0.990065 0.998056
1.03136 1.03754 0.995877 0.998163
1.01344 1.03377 0.981964 0.998341
1.00844 1.02417 0.986433 0.998188
1.02064 1.02886 0.994035 0.997967
1.01588 1.02279 0.994918 0.998313
1.01842 1.02265 0.997802 0.998056
1.02207 1.02461 0.999694 0.99783
1.0182 1.02062 0.999432 0.998197
1.0187 1.02086 1 0.997879
1.02159 1.02398 1 0.997663
1.01635 1.01843 1 0.997963
1.01883 1.02115 1 0.997732
1.01535 1.01777 1 0.997626
1.0171 1.01936 1 0.997779
1.01311 1.01546 1 0.997683
1.00384 1.00601 1 0.997838
1.0113 1.01366 1 0.997667
1.00303 1.00516 1 0.997882
0.998438 1 1 0.998435
0.999474 1 1 0.999474
0.998509 1 1 0.998509
1.00161 1.00366 1 0.997962
1 1 1 1
0.999542 1 1 0.999542
0.998633 1 1 0.998633
1 1 1 1
0.999652 1 1 0.999652
1 1 1 1
1.00296 1.00525 1 0.997716
1.00151 1.00358 1 0.997928
0.999158 1.00095 1 0.998212
0.999091 1.00082 1 0.99827
0.998497 1 1 0.998497
0.99896 1 1 0.99896
0.998744 1 1 0.998744
0.999155 1 1 0.999155
0.999868 1 1 0.999868
0.999331 1 1 0.999331
0.999949 1 1 0.999949
1 1 1 1
0.99998 1 1 0.99998
1 1 1 1
1 1 1 1
1.01138 1.02169 0.991489 0.9984
0.997548 1.00952 0.989721 0.998404
0.960227 0.984361 0.981887 0.993477
1.01284 1.01514 1 0.99774
1.00475 1.00653 1 0.998235
1.01906 1.02152 1 0.997587
1.00961 1.01197 1 0.997675
1.00377 1.00564 1.00018 0.997968
1.01911 1.02171 1 0.997451
1.00102 1.00267 1 0.998358
1.00672 1.00901 1 0.997732
1.02441 1.02737 0.999509 0.997606
1.00209 1.00429 1 0.997811
1.01042 1.01306 1 0.997397
1.01111 1.01672 0.9965 0.99798
1.00275 1.00557 0.999593 0.997599
1.00312 1.0104 0.993799 0.998986
1.0267 1.03388 0.994813 0.998238
1.01347 1.0208 0.994223 0.998584
0.997559 1.00409 0.995409 0.998078
1.00557 1.02903 0.978918 0.998249
1.0225 1.02863 0.995967 0.998061
1.01615 1.02961 0.988836 0.998071
1.0315 1.03851 0.995069 0.998166
1.02999 1.03811 0.994098 0.998062
1.0092 1.0236 0.987714 0.998191
1.02052 1.02841 0.99434 0.997974
1.02542 1.03049 0.997236 0.997836
1.01863 1.02229 0.998358 0.998053
1.02179 1.02422 0.999811 0.997813
1.02374 1.0262 1 0.997598
1.01894 1.02111 1 0.997877
1.02139 1.02378 1 0.997662
1.01822 1.02072 1 0.997551
1.01874 1.02106 1 0.997732
1.01542 1.01783 1 0.997628
1.00512 1.00738 1 0.99775
1.01295 1.0153 1 0.997688
1.00407 1.00624 1 0.997841
0.998421 1.00006 1 0.998359
1.00304 1.00518 1 0.997871
0.998441 1.00001 1 0.998433
0.999524 1 1 0.999524
0.999861 1 1 0.999861
0.999502 1 1 0.999502
0.998508 1 1 0.998508
1 1 1 1
0.999531 1 1 0.999531
1 1 1 1
1.02485 1.02728 1 0.997632
1.0113 1.01367 1 0.997665
1.00343 1.00575 1 0.9977
1.00162 1.00361 1 0.998022
1.00126 1.00336 1 0.997901
0.998813 1.0006 1 0.998216
0.99876 1 1 0.99876
0.998502 1 1 0.998502
0.998963 1 1 0.998963
0.999749 1 1 0.999749
0.999156 1 1 0.999156
0.999886 1 1 0.999886
1 1 1 1
0.99996 1 1 0.99996
1 1 1 1
1 1 1 1
1.02791 1.03301 0.997061 0.997992
1.0148 1.0248 0.991741 0.998485
0.995584 1.00962 0.988003 0.998074
1.02174 1.0243 1 0.997506
1.01204 1.01426 1 0.997812
1.00393 1.00555 1 0.998392
1.01895 1.02139 1 0.997608
1.00964 1.01201 1 0.997661
1.02816 1.03068 0.999968 0.997588
1.01725 1.01989 1 0.997413
1.00632 1.00866 1 0.997673
1.02374 1.02656 0.999652 0.9976
1.01219 1.01486 1 0.997367
1.01311 1.01826 0.996941 0.997997
1.03315 1.03908 0.996135 0.99815
1.02858 1.03515 0.995399 0.998248
1.01424 1.02076 0.995019 0.998588
1.01606 1.03075 0.987636 0.998085
1.03238 1.03988 0.994606 0.998169
1.03006 1.03884 0.993466 0.998075
1.02932 1.03446 0.997129 0.997897
1.02024 1.02785 0.994605 0.997982
1.02541 1.02996 0.997753 0.997827
1.02614 1.02861 1 0.997596
1.02147 1.0238 0.999927 0.997796
1.02412 1.02659 1 0.997598
1.02125 1.02382 1 0.997485
1.02115 1.02355 1 0.99766
1.01827 1.02077 1 0.997551
1.00665 1.00902 1 0.997654
1.01547 1.01789 1 0.997629
1.00537 1.00764 1 0.997752
0.998514 1.00025 1 0.998262
1.00431 1.00648 1 0.997843
0.998457 1.0001 1 0.998357
0.999521 1 1 0.999521
0.998445 1.00001 1 0.998431
0.99952 1 1 0.99952
0.999869 1 1 0.999869
0.999932 1 1 0.999932
0.999531 1 1 0.999531
1 1 1 1
1.025 1.02756 1 0.997508
1.01621 1.01857 1 0.997686
1.02478 1.02711 1 0.99773
1.00384 1.00596 1 0.997896
1.01245 1.01482 1 0.997658
1.00398 1.00631 1 0.997685
1.00074 1.00272 1 0.99802
0.998584 1 1 0.998584
0.998517 1.0003 1 0.99822
0.998762 1 1 0.998762
0.999609 1 1 0.999609
0.998967 1 1 0.998967
0.999767 1 1 0.999767
1 1 1 1
0.999904 1 1 0.999904
1 1 1 1
1 1 1 1
1.03141 1.03486 0.998797 0.997874
1.02789 1.03299 0.997068 0.997989
1.01609 1.02651 0.991264 0.998564
1.02815 1.0307 1 0.997526
1.02093 1.02348 1 0.997509
1.01137 1.01351 1 0.997883
1.01872 1.02115 1 0.997628
1.02803 1.03058 0.999952 0.997569
1.0154 1.01807 1 0.997375
1.02174 1.02446 0.99975 0.997593
1.03231 1.0366 0.997905 0.997958
1.03264 1.03836 0.996372 0.998112
1.03064 1.03681 0.995781 0.998258
1.02856 1.0321 0.998774 0.997786
1.03003 1.03944 0.992846 0.998088
1.02899 1.03427 0.996996 0.997886
1.02788 1.03037 0.99991 0.997676
1.02547 1.02946 0.998293 0.997819
1.0269 1.02938 1 0.997598
1.02309 1.0257 1 0.997453
1.02448 1.02695 1 0.997598
1.02098 1.02355 1 0.997486
1.00836 1.01081 1 0.997575
1.0183 1.0208 1 0.997551
1.00695 1.00931 1 0.997655
0.99872 1.00056 1 0.998163
1.00562 1.00788 1 0.997753
0.998591 1.00033 1 0.99826
0.9995 1 1 0.9995
0.998496 1.00014 1 0.998355
0.999514 1 1 0.999514
0.999872 1 1 0.999872
0.999517 1 1 0.999517
0.999871 1 1 0.999871
1 1 1 1
1.02564 1.0283 1 0.99741
1.01815 1.02067 1 0.997527
1.02557 1.02811 1 0.997528
1.00465 1.00679 1 0.997871
1.01625 1.0186 1 0.99769
1.02479 1.02702 1 0.997827
0.99854 1.00011 1 0.998431
1.0034 1.00553 1 0.997891
1.0137 1.01609 1 0.997651
0.999766 1.00175 1 0.998019
0.998586 1 1 0.998586
0.999499 1 1 0.999499
0.998764 1 1 0.998764
0.999622 1 1 0.999622
1 1 1 1
0.999785 1 1 0.999785
1 1 1 1
1 1 1 1
1.03136 1.03398 0.999732 0.997733
1.03135 1.03509 0.998523 0.997859
1.02842 1.0334 0.997186 0.997986
1.02761 1.03015 1 0.997533
1.02007 1.02261 1 0.997512
1.02768 1.03027 0.999936 0.99755
1.0293 1.03196 0.999627 0.997789
1.03233 1.03662 0.99791 0.99795
1.0318 1.03731 0.996608 0.998074
1.02919 1.03263 0.998866 0.997804
1.02714 1.02959 1 0.997628
1.02864 1.03409 0.996843 0.997875
1.02805 1.03053 0.999949 0.997645
1.02347 1.02604 1 0.997491
1.02764 1.03011 1 0.997601
1.02281 1.02542 1 0.997456
1.00991 1.01243 1 0.997512
1.02081 1.02338 1 0.997487
1.00879 1.01124 1 0.997575
0.998983 1.0009 1 0.998085
1.00728 1.00964 1 0.997656
0.998823 1.00066 1 0.998162
0.999457 1 1 0.999457
0.998673 1.00042 1 0.998259
0.999489 1 1 0.999489
0.99986 1 1 0.99986
0.999509 1 1 0.999509
0.999879 1 1 0.999879
0.999871 1 1 0.999871
1.02733 1.02982 1 0.997586
1.02061 1.02328 1 0.997395
1.02596 1.02861 1 0.997423
1.00681 1.00912 1 0.997715
1.01787 1.02038 1 0.997532
1.02608 1.0286 1 0.997548
0.998607 1.00029 1 0.998315
1.00461 1.0068 1 0.997826
1.01617 1.01852 1 0.997694
0.999438 1 1 0.999438
0.998521 1.00009 1 0.998433
1.00297 1.00509 1 0.997886
0.998587 1 1 0.998587
0.999509 1 1 0.999509
1 1 1 1
0.999636 1 1 0.999636
1 1 1 1
1 1 1 1
1.02767 1.03014 0.999902 0.997697
1.0306 1.03341 0.999553 0.997731
1.03151 1.03556 0.998241 0.997844
1.02707 1.02961 1 0.99754
1.02703 1.0295 1 0.997593
1.02988 1.03282 0.999354 0.997799
1.03225 1.03656 0.9979 0.997942
1.02986 1.03317 0.998972 0.997822
1.0266 1.02921 0.999832 0.997639
1.02273 1.02529 1 0.997503
1.02831 1.03077 1 0.997614
1.02321 1.0258 1 0.997476
1.01083 1.01338 1 0.997483
1.0225 1.02511 1 0.997459
1.01019 1.01271 1 0.997514
0.999092 1.00108 1 0.998016
1.00913 1.01159 1 0.997576
0.999033 1.00095 1 0.998085
0.999332 1 1 0.999332
0.99891 1.00075 1 0.998161
0.999412 1 1 0.999412
1 1 1 1
0.99948 1 1 0.99948
0.99987 1 1 0.99987
0.999882 1 1 0.999882
1.02577 1.02819 1 0.997639
1.02169 1.02429 1 0.99746
1.02695 1.02944 1 0.997583
1.00949 1.01199 1 0.997532
1.02066 1.02331 1 0.997417
1.02638 1.02902 1 0.997436
0.998886 1.00076 1 0.998127
1.00687 1.00918 1 0.997713
1.01766 1.02018 1 0.997536
0.999411 1 1 0.999411
0.998517 1.00024 1 0.998274
1.0046 1.00684 1 0.99778
1 1 1 1
0.999448 1 1 0.999448
0.998502 1.00007 1 0.998436
0.999519 1 1 0.999519
1 1 1 1
1 1 1 1
1.0259 1.02837 1 0.997603
1.028 1.03043 0.999932 0.997706
1.02982 1.03281 0.99938 0.997729
1.02378 1.02639 1 0.997451
1.02612 1.02859 1 0.997599
1.03047 1.03367 0.999088 0.997808
1.02604 1.02882 0.999649 0.997649
1.02277 1.02533 1 0.997503
1.01086 1.01336 1 0.997533
1.0229 1.0255 1 0.997461
1.01084 1.01336 1 0.997513
0.99908 1.0012 1 0.997886
1.01053 1.01304 1 0.997516
0.999132 1.00112 1 0.998016
0.99928 1 1 0.99928
0.999108 1.00103 1 0.998084
0.999329 1 1 0.999329
1 1 1 1
0.99936 1 1 0.99936
0.999924 1 1 0.999924
0.999879 1 1 0.999879
1.02343 1.02589 1 0.997602
1.02197 1.02453 1 0.997504
1.02549 1.02792 1 0.997642
1.01053 1.01303 1 0.997535
1.02217 1.02478 1 0.997452
1.02657 1.02906 1 0.99758
0.99942 1.0014 1 0.99802
1.00944 1.01189 1 0.997575
1.02066 1.02328 1 0.997439
0.999384 1 1 0.999384
0.998862 1.00075 1 0.998113
1.00692 1.00923 1 0.997712
1 1 1 1
0.99942 1 1 0.99942
0.99843 1.0002 1 0.998233
1 1 1 1
0.999459 1 1 0.999459
1 1 1 1
1.02397 1.02654 1 0.997492
1.02549 1.02797 1 0.997595
1.02838 1.03078 0.99996 0.997714
1.01005 1.01256 1 0.997519
1.02379 1.02639 1 0.997466
1.02527 1.02773 1 0.997606
1.02282 1.02538 1 0.997504
1.01089 1.01339 1 0.997533
0.998998 1.00115 1 0.997846
1.01086 1.01335 1 0.997543
0.999094 1.00118 1 0.997921
0.999215 1 1 0.999215
0.999142 1.00113 1 0.998017
0.999277 1 1 0.999277
1 1 1 1
0.999326 1 1 0.999326
1 1 1 1
0.999863 1 1 0.999863
1.02222 1.02476 1 0.997525
1.02367 1.02612 1 0.997613
1.01012 1.0126 1 0.997545
1.02197 1.02452 1 0.997503
1.02521 1.02764 1 0.997644
0.999489 1.00145 1 0.99804
1.01041 1.01291 1 0.997532
1.02264 1.02526 1 0.997445
0.99934 1 1 0.99934
0.999453 1.00141 1 0.998049
1.00938 1.01179 1 0.997619
1 1 1 1
0.999389 1 1 0.999389
0.99884 1.00074 1 0.998099
1 1 1 1
0.999428 1 1 0.999428
1 1 1 1
1.00944 1.01191 1 0.997555
1.02388 1.02646 1 0.997486
1.025 1.02748 1 0.997588
0.998496 1.00065 1 0.997847
1.01009 1.0126 1 0.997519
1.02377 1.02636 1 0.997481
1.01092 1.01342 1 0.997532
0.998996 1.00115 1 0.997849
0.999165 1 1 0.999165
0.999123 1.00117 1 0.997955
0.999211 1 1 0.999211
1 1 1 1
0.999274 1 1 0.999274
1 1 1 1
1 1 1 1
1.0095 1.01199 1 0.997542
1.02185 1.02437 1 0.997536
1.02391 1.02635 1 0.997623
0.999097 1.00108 1 0.998017
1.0102 1.01269 1 0.997543
1.02192 1.02448 1 0.997502
0.999292 1 1 0.999292
0.999533 1.0015 1 0.998038
1.01032 1.01282 1 0.997529
1 1 1 1
0.999344 1 1 0.999344
0.999493 1.00142 1 0.998077
1 1 1 1
0.999395 1 1 0.999395
1 1 1 1
0.998222 1.00029 1 0.997935
1.0094 1.01191 1 0.997519
1.02381 1.02639 1 0.997481
0.999161 1 1 0.999161
0.998512 1.00067 1 0.997845
1.01013 1.01264 1 0.997519
0.998994 1.00114 1 0.997851
0.999165 1 1 0.999165
1 1 1 1
0.999208 1 1 0.999208
1 1 1 1
1 1 1 1
0.998517 1.00054 1 0.997981
1.00939 1.01188 1 0.997538
1.02151 1.02402 1 0.997547
0.999358 1 1 0.999358
0.999241 1.00123 1 0.998015
1.0103 1.01279 1 0.99754
1 1 1 1
0.999294 1 1 0.999294
0.999558 1.00152 1 0.998036
1 1 1 1
0.999347 1 1 0.999347
1 1 1 1
0.999163 1 1 0.999163
0.998256 1.00035 1 0.997905
1.00937 1.01191 1 0.997483
1 1 1 1
0.999161 1 1 0.999161
0.998526 1.00068 1 0.997844
0.999163 1 1 0.999163
1 1 1 1
1 1 1 1
0.999311 1 1 0.999311
0.998691 1.00071 1 0.997981
1.00926 1.01175 1 0.997534
1 1 1 1
0.999253 1 1 0.999253
0.999396 1.00139 1 0.998013
1 1 1 1
0.999295 1 1 0.999295
1 1 1 1
0.999781 1 1 0.999781
0.999236 1 1 0.999236
0.998289 1.00041 1 0.997874
1 1 1 1
0.999162 1 1 0.999162
1 1 1 1
0.999799 1 1 0.999799
0.999266 1 1 0.999266
0.998867 1.00089 1 0.997981
0.999903 1 1 0.999903
0.999251 1 1 0.999251
1 1 1 1
1 1 1 1
0.999183 1 1 0.999183
1 1 1 1
0.999896 1 1 0.999896
0.999215 1 1 0.999215
1 1 1 1
1 1 1 1
1 1 1 1

VECTORS lamdaE float
1.00019 1.00015 0.995081
1.00005 1.00042 0.997648
0.999888 1.00035 0.995264
1.00049 0.999929 0.994873
1.00031 0.999954 0.995114
1.00016 1.00031 0.994939
1.00144 1.00048 0.992273
1.00007 1.00032 0.997655
0.99997 1.00023 0.997927
0.999571 1.00071 0.997978
1.00005 1.00031 0.99516
1.00127 1.00123 0.991258
1.00034 1.00001 0.994913
1.00006 0.999992 0.995161
0.999612 1.00056 0.995419
1.00026 0.999905 0.995102
0.999841 1.0006 0.995096
1.00005 1.00003 0.995311
1.00161 1.00033 0.992199
1.00033 1 0.997562
1.00051 0.999989 0.994766
1.00042 0.999878 0.995036
1.00183 0.999992 0.992122
1.00165 1.00012 0.992296
1.00018 1.00027 0.994877
1.00122 1.00099 0.992146
1.00408 1.00031 0.988005
1.00006 1.00026 0.997685
1.00012 1.00011 0.996463
0.999809 1.00054 0.996496
1.00003 1.00008 0.997777
1.00118 1.00136 0.991256
1.00039 0.999842 0.994949
1.00011 1.00037 0.995017
1.00192 1.00018 0.992521
0.999568 0.999496 0.99841
1.00158 1.00083 0.992521
1.00092 1.00164 0.991455
1.00327 1.00177 0.987235
0.999653 0.998456 0.998749
1.00035 1.00001 0.997534
1.00023 1.00001 0.996348
1.00031 0.999995 0.997555
1 1.00004 0.995224
1.00195 1.00003 0.991284
1.00014 0.999964 0.997849
1.0021 1.00011 0.992316
1.00003 0.999844 0.995331
0.999808 1.0001 0.995494
0.999531 1.00093 0.995236
1.00176 1.00015 0.992139
1.00021 1.00002 0.996372
1.00026 0.99999 0.995002
0.999845 1.00062 0.99503
1.00019 0.999864 0.995248
1.00192 0.999957 0.992027
1.00142 1.00078 0.992069
1.00178 1.00002 0.992218
1.00408 1.00032 0.987986
1.00028 0.999999 0.997575
1.00045 1.00002 0.994822
1.00178 1 0.992819
1.00185 1.00003 0.992052
1.00177 0.999966 0.992238
1.00433 0.999945 0.987832
1.00425 0.999975 0.987781
0.999945 0.999778 0.995491
1.00077 1.00169 0.992121
1.00385 1.00075 0.987944
1.00503 1.00006 0.985839
1.00029 1.00014 0.997625
0.999908 0.999851 0.99798
1.00005 1.00038 0.997645
1.00111 1.00146 0.991247
1.00041 0.999977 0.997588
1.00018 1.00032 0.997645
1.00182 1.00013 0.991317
0.999684 0.999576 0.99718
1.00136 1.0009 0.991354
1.0008 1.00168 0.992258
1.00333 1.00169 0.98722
0.99979 0.998918 0.998448
0.999728 1.00036 0.994897
1.00201 0.999989 0.991198
1.00172 1.00042 0.991316
1.00433 1.00022 0.986904
1.0004 1.00148 0.993788
1.00369 1.00099 0.987285
1.00224 1.00342 0.987429
1.00458 1.00137 0.985318
0.999583 0.998032 0.998986
0.999575 0.998373 0.998851
1.00042 0.999993 0.997531
1.00037 1.00001 0.997533
1.00034 0.999998 0.997554
1.00019 1.00002 0.996383
1.00198 1.00001 0.99192
1.00027 0.999973 0.996365
1.00204 1.00013 0.991725
1.00033 0.999992 0.997565
1.00187 0.999947 0.991465
1.00206 1.00011 0.992398
1.00439 0.999695 0.987358
1.00207 1.00003 0.992407
1.00444 0.999905 0.987072
1.0003 1.00001 0.994974
1.00002 0.999985 0.995242
0.999499 1.00103 0.995192
0.999967 0.999828 0.995457
1.00202 0.999961 0.991932
1.00189 0.999937 0.992146
1.00162 1.00052 0.992
1.00407 1.00035 0.987968
1.00032 0.999996 0.997569
1.0002 1.00002 0.995059
1.00189 0.999977 0.991753
1.00194 1.00001 0.991947
0.999824 1.00006 0.99668
1.00102 1.00157 0.992253
1.00188 0.999915 0.992154
1.00435 0.999922 0.987749
1.00383 1.00078 0.987957
1.00424 1.00005 0.987842
1.00501 1.00008 0.985864
1.00184 0.999973 0.991504
1.00179 1.00001 0.992136
1.00431 0.999657 0.987966
1.00435 0.99985 0.987708
1.00432 0.999867 0.987732
1.00519 0.999561 0.986348
0.999713 0.999456 0.998303
1.00511 0.999806 0.98595
1.00023 1.00207 0.992062
1.0032 1.00179 0.98732
1.00492 1.00046 0.985712
1.00522 0.999766 0.985782
0.999888 1.00132 0.993491
1.0002 1.00431 0.99009
1.0004 1.00001 0.9976
1.00012 1.00031 0.997656
1.00183 1.00011 0.991318
0.999759 0.999271 0.998347
1.00055 1.00194 0.9917
1.00132 1.00094 0.99136
1.00339 1.00161 0.987204
0.999698 0.99884 0.998562
0.999713 1.00027 0.994947
1.00202 1.00002 0.991836
1.0017 1.00044 0.991946
1.00433 1.00023 0.9869
1.00016 1.00156 0.992896
1.0037 1.00097 0.987292
1.00227 1.00337 0.987417
1.00454 1.00132 0.985294
0.999913 1.00101 0.993933
0.999744 0.99959 0.99562
1.00029 1.00326 0.991069
1.00442 1.00009 0.986895
1.00404 1.00056 0.987061
1.00511 1.0001 0.985658
1.00131 1.00409 0.988479
1.00475 1.00084 0.985498
1.00378 1.00301 0.985268
1.005 1.00113 0.984949
0.999605 0.997726 0.999093
0.999551 0.997967 0.999031
0.999518 0.998265 0.998934
0.999811 1.00086 0.994093
0.999663 0.999091 0.998492
1.00043 0.999977 0.99756
1.00037 1.00001 0.997524
1.00195 1.00014 0.991141
1.0019 1.00002 0.991345
1.00031 1 0.997555
1.0003 0.999996 0.997563
1.00186 0.999955 0.99146
1.002 1.00009 0.991802
1.00438 0.999693 0.987358
1.00197 1.00006 0.991166
1.00443 0.999904 0.987067
1.00183 0.999943 0.991509
1.00436 0.999632 0.987467
1.00441 0.999786 0.987223
1.00518 0.998964 0.986771
1.00444 1.00001 0.986953
1.00521 0.99936 0.986316
1.0003 0.999993 0.997563
0.999956 1.00003 0.995296
1.00191 0.999969 0.990788
1.00204 1.00001 0.991839
0.999465 1.0003 0.998142
1.00135 1.00134 0.992382
1.00198 0.999887 0.99207
1.00437 0.999884 0.987665
1.00424 1.00011 0.987902
1.00381 1.00083 0.98797
1.00499 1.00009 0.98589
1.00183 0.999959 0.991505
1.0019 1.00001 0.992023
1.00433 0.999636 0.98765
1.00437 0.999889 0.98775
0.999752 0.999544 0.998217
1.00049 1.00184 0.992623
1.00308 1.00202 0.987609
1.00432 0.999897 0.98771
1.00519 0.999428 0.986373
1.0049 1.00048 0.985661
1.00511 0.999856 0.986051
1.00522 0.999758 0.985812
0.999928 1.00132 0.993484
1.0003 1.00411 0.990109
1.00432 0.999638 0.987532
1.00434 0.999773 0.987826
1.00518 0.999104 0.986823
1.00519 0.999165 0.986552
1.00517 0.999565 0.986345
1.00523 0.998503 0.987144
1.00002 1.00171 0.992829
1.00523 0.999224 0.986339
1.00184 1.00357 0.987889
1.00466 1.00117 0.985289
1.0052 1.00046 0.985333
1.0052 0.998938 0.986767
1.00063 1.00417 0.989513
1.00015 1.00354 0.990936
1.00089 1.00471 0.988667
1.00194 1 0.991255
0.999607 0.998746 0.998681
0.999701 1.00016 0.994996
1.00157 1.00049 0.99138
1.00433 1.00023 0.986896
1.00006 1.00165 0.992815
1.00226 1.00334 0.987405
1.00371 1.00095 0.9873
1.00451 1.00127 0.98527
0.999872 1.00097 0.993959
0.999757 0.999477 0.99566
1.00012 1.00345 0.991073
1.00441 1.00011 0.986885
1.00406 1.00055 0.98706
1.00513 1.00009 0.985638
1.00121 1.00416 0.988506
1.00479 1.00084 0.985506
1.00374 1.00299 0.985256
1.00495 1.00099 0.984914
0.999861 0.998994 0.995985
1.00073 1.00376 0.98977
1.00008 1.0023 0.992362
1.00045 1.00462 0.989404
1.00517 0.999854 0.985845
1.00496 1.00044 0.985566
1.0052 0.999591 0.986032
1.0024 1.00427 0.986557
1.00512 1.00057 0.985255
1.0044 1.00238 0.984758
1.00514 1.00093 0.98489
1.00027 1.00043 0.993874
1.00007 0.998415 0.996176
0.999677 0.997493 0.999128
0.999599 0.997686 0.999105
0.99953 0.997908 0.999064
0.999814 1.00024 0.994737
0.999628 0.998704 0.998669
0.999842 1.00091 0.99407
0.999714 0.999139 0.998428
1.00196 1.00009 0.991161
1.00194 1.00008 0.99122
1.00443 0.999904 0.987062
1.00438 0.999693 0.987358
1.00187 0.999963 0.991459
1.00033 0.999996 0.997557
1.00185 0.999945 0.991509
1.00435 0.999638 0.987467
1.00441 0.999791 0.98722
1.00518 0.998973 0.986766
1.00443 1.00002 0.986942
1.00521 0.999363 0.986306
1.00432 0.999629 0.987526
1.00516 0.998865 0.9869
1.0052 0.999136 0.986562
1.0052 0.997501 0.988259
1.0052 0.9996 0.986073
1.00523 0.998184 0.987492
1.00184 0.999946 0.991508
1.00201 0.999988 0.991911
1.00435 0.999602 0.987336
1.00439 0.999921 0.987792
0.999822 0.999657 0.998119
1.00074 1.00172 0.993065
1.00307 1.00217 0.987895
1.00433 0.999915 0.987689
1.00518 0.999291 0.986399
1.0051 0.99991 0.986152
1.0049 1.00051 0.98561
1.00521 0.999749 0.985842
0.999978 1.00131 0.993476
1.00039 1.00392 0.990126
1.00432 0.999585 0.987487
1.00436 0.999756 0.98781
1.00518 0.998982 0.986959
1.00519 0.999302 0.986501
1.0001 1.0017 0.992813
1.00197 1.00344 0.987888
1.0046 1.00124 0.985341
1.00517 0.999646 0.986278
1.00524 0.998327 0.987353
1.00519 1.00045 0.985321
1.00522 0.999217 0.986361
1.0052 0.998887 0.986769
1.00071 1.00401 0.989512
1.00074 1.00465 0.988695
1.00019 1.00349 0.990934
1.00516 0.998992 0.986951
1.00518 0.999055 0.986882
1.00521 0.99765 0.988051
1.00523 0.998056 0.987579
1.00522 0.998593 0.986988
1.00517 0.996954 0.988704
1.0011 1.00394 0.988866
1.00519 0.998018 0.987515
1.00342 1.00307 0.985823
1.00514 1.00117 0.984439
1.0052 1.00009 0.985632
1.00513 0.998023 0.98772
1.00017 1.00261 0.991827
1.00135 1.00398 0.98841
1.00036 1.00495 0.989038
1.0016 1.00393 0.988357
1.0044 1.00012 0.986875
0.999768 0.999376 0.995699
0.999825 1.00094 0.993984
1.00001 1.00357 0.991078
1.00407 1.00055 0.987059
1.00515 1.00009 0.985619
1.00111 1.00423 0.988534
1.0037 1.00301 0.985243
1.00482 1.00085 0.985513
1.00489 1.00087 0.984879
0.999873 0.998933 0.996003
1.00065 1.00387 0.989775
1.00005 1.00225 0.992398
1.00034 1.00486 0.989364
1.00517 0.99986 0.985829
1.00499 1.00042 0.98554
1.0052 0.999596 0.986019
1.00228 1.00428 0.986592
1.00513 1.00063 0.985244
1.0044 1.00223 0.984762
1.00514 1.00092 0.984805
0.999991 0.998614 0.99612
1.00019 1.00125 0.993212
1.00124 1.0045 0.98826
1.00019 1.00394 0.990616
1.00098 1.00433 0.988963
1.00521 0.999118 0.986528
1.00517 1.00008 0.985542
1.00514 0.998809 0.986835
1.00294 1.00366 0.986132
1.00515 1.0002 0.985548
1.0044 1.00188 0.984649
1.00027 1.0005 0.993788
1.00024 1.00181 0.992573
1.00023 1.00044 0.993946
1.00026 1.00043 0.993873
1.0001 0.998239 0.996795
1.00006 0.9984 0.99647
0.999833 0.997303 0.997997
0.999685 0.997453 0.999131
0.999597 0.997639 0.999116
0.999838 0.999633 0.995331
0.999628 0.998289 0.998855
0.99982 1.00031 0.99471
0.99968 0.998775 0.998606
0.999877 1.00093 0.994046
0.999755 0.999199 0.998361
1.00443 1.00003 0.986931
1.00441 0.999794 0.987216
1.00521 0.999379 0.986296
1.00518 0.998982 0.98676
1.00435 0.999643 0.987467
1.00184 0.999947 0.991506
1.00432 0.999627 0.987527
1.00516 0.998868 0.986899
1.0052 0.999151 0.986553
1.0052 0.997368 0.98841
1.0052 0.999609 0.986062
1.00523 0.998198 0.987475
1.00516 0.998844 0.986934
1.00515 0.997146 0.98875
1.00522 0.997745 0.987942
1.00519 0.995979 0.989695
1.00521 0.998678 0.987017
1.00519 0.996592 0.988939
1.00433 0.999537 0.987443
1.00438 0.999752 0.987794
1.00518 0.998873 0.987096
1.00519 0.999439 0.98645
1.00019 1.00167 0.992796
1.00198 1.0034 0.987889
1.00453 1.0013 0.985394
1.00517 0.999727 0.986212
1.00524 0.998152 0.987562
1.00522 0.999209 0.986382
1.00519 1.00043 0.985308
1.0052 0.998834 0.98677
1.00079 1.00388 0.98951
1.0007 1.00465 0.988724
1.00022 1.00341 0.990933
1.00516 0.998944 0.986924
1.00519 0.999054 0.986874
1.00521 0.997417 0.988321
1.00523 0.998145 0.987501
1.00114 1.00395 0.988833
1.00344 1.00297 0.98582
1.00508 1.00127 0.984489
1.00522 0.998771 0.986818
1.00518 0.99675 0.988926
1.00519 1.00009 0.985555
1.00519 0.998028 0.987528
1.00514 0.997899 0.987847
1.00144 1.00397 0.988396
1.00154 1.00397 0.988339
1.0002 1.00259 0.991814
1.0003 1.00486 0.989146
1.00519 0.997383 0.988419
1.00522 0.997796 0.987984
1.00515 0.996186 0.989538
1.00518 0.996049 0.989508
1.00517 0.997254 0.988351
1.00514 0.996 0.98978
1.00223 1.0037 0.987247
1.00512 0.996638 0.988836
1.00411 1.0028 0.984714
1.00515 1.00134 0.984324
1.00518 0.999583 0.985928
1.00511 0.997636 0.988078
1.00015 1.00187 0.99258
1.00021 1.00439 0.989832
1.00205 1.00333 0.98788
1.00061 1.00503 0.988697
1.00191 1.00328 0.988533
0.99988 0.998887 0.996021
1.00518 0.999864 0.985814
1.00002 1.00221 0.992433
1.00053 1.00405 0.98978
1.00022 1.00503 0.989324
1.00502 1.00041 0.985513
1.0052 0.999602 0.986007
1.00227 1.00414 0.986626
1.00439 1.00207 0.984766
1.00514 1.00068 0.985235
1.00516 1.00092 0.984722
0.999996 0.998599 0.996129
1.00016 1.00125 0.993233
1.00123 1.00446 0.988269
1.00006 1.00406 0.99061
1.00083 1.00428 0.988954
1.00521 0.999115 0.986516
1.00518 1.00009 0.985524
1.00514 0.998782 0.986805
1.00291 1.00361 0.986135
1.00518 1.00024 0.985439
1.00463 1.00181 0.984623
1.00027 1.00072 0.993611
1.00017 1.00283 0.991769
1.00179 1.00372 0.988051
1.00031 1.00481 0.989711
1.00129 1.0035 0.9892
1.00516 0.998148 0.987481
1.00514 0.999437 0.986157
1.0051 0.998158 0.987192
1.00308 1.00292 0.986194
1.005 1.0009 0.984798
1.00028 1.0005 0.993784
1.00025 1.00177 0.992509
1.00018 1.00187 0.992528
1.00023 1.00251 0.992039
1.00019 1.00187 0.992606
1.00017 1.00049 0.99398
1.00022 1.00043 0.993946
1.00012 0.99817 0.996818
1.00025 1.00045 0.993872
1.00011 0.998259 0.996798
0.999928 0.997083 0.998026
1.00006 0.998399 0.996758
0.999798 0.997265 0.998572
0.999694 0.997402 0.999135
0.999891 0.999066 0.995807
0.999834 0.999688 0.995304
0.999636 0.997908 0.998997
0.999659 0.998376 0.998785
0.999824 1.00039 0.994683
0.999728 0.998826 0.99854
1.0052 0.999617 0.986052
1.0052 0.999152 0.986544
1.00523 0.998205 0.987458
1.0052 0.997234 0.98856
1.00516 0.998871 0.986898
1.00432 0.999627 0.987528
1.00515 0.998845 0.986937
1.00515 0.997145 0.98876
1.00523 0.997755 0.987932
1.00518 0.995825 0.989864
1.00521 0.998669 0.986995
1.00519 0.996487 0.989072
1.00516 0.997174 0.988719
1.00517 0.99579 0.989936
1.0052 0.99591 0.989723
1.0052 0.995112 0.990463
1.00518 0.997373 0.988238
1.00518 0.995601 0.989931
1.00516 0.998892 0.986898
1.00519 0.99906 0.986865
1.0052 0.997172 0.988591
1.00522 0.99823 0.987422
1.00119 1.00396 0.988802
1.00347 1.00287 0.985816
1.00495 1.00132 0.984537
1.00522 0.998949 0.986648
1.00518 0.996545 0.989149
1.00519 0.998039 0.987541
1.00519 1.0001 0.985478
1.00514 0.997776 0.987975
1.00141 1.00402 0.988382
1.00133 1.00402 0.988321
1.00024 1.00257 0.9918
1.00025 1.0048 0.989255
1.00519 0.99739 0.988412
1.00521 0.997886 0.987856
1.00515 0.995993 0.989762
1.00519 0.996151 0.989388
1.00212 1.00393 0.987207
1.00407 1.0027 0.984769
1.00514 1.00136 0.984291
1.00517 0.997443 0.988141
1.00514 0.995711 0.989964
1.00517 0.999621 0.985905
1.00513 0.99666 0.988836
1.00512 0.997377 0.988213
1.00215 1.00328 0.987848
1.00185 1.0032 0.988603
1.00061 1.00503 0.988669
1.00015 1.00187 0.992508
1.00014 1.00436 0.989958
1.00516 0.995698 0.990103
1.00518 0.995801 0.989905
1.00516 0.995123 0.990409
1.00513 0.995881 0.989606
1.00279 1.00358 0.986363
1.00515 0.996172 0.989471
1.00453 1.00254 0.983981
1.005 1.00136 0.984428
1.00513 0.999183 0.98621
1.00007 1.00118 0.993214
1.0001 1.0037 0.990937
1.00047 1.0047 0.989383
1.00239 1.00309 0.987671
1.00086 1.00481 0.988248
1.00214 1.00253 0.988317
0.999997 0.99859 0.996138
1.00014 1.00123 0.993253
1.0052 0.999113 0.986504
0.999916 1.00421 0.990604
1.00111 1.00457 0.988278
1.00068 1.00424 0.988944
1.00519 1.00009 0.985505
1.00514 0.998756 0.986775
1.00287 1.00356 0.986138
1.00481 1.00178 0.984596
1.0052 1.00026 0.985329
1.00025 1.00072 0.993616
1.00008 1.00287 0.991792
1.00182 1.00367 0.988055
1.00015 1.00489 0.989674
1.00122 1.00335 0.989292
1.00516 0.998164 0.987458
1.00514 0.999436 0.986134
1.00509 0.998188 0.987255
1.00321 1.00285 0.985996
1.005 1.001 0.984812
1.00023 1.00208 0.992383
0.999824 1.00425 0.990617
1.00249 1.00238 0.98808
1.00023 1.00481 0.989486
1.00182 1.00238 0.989146
1.00511 0.996706 0.988705
1.0051 0.999542 0.986042
1.00507 0.998005 0.987293
1.00406 1.00206 0.985639
1.00489 1.00085 0.985061
1.00028 1.00049 0.993781
1.00025 1.00179 0.992533
1.00007 1.0025 0.992066
1.00014 1.00191 0.992485
1.00016 1.00192 0.992601
1.00013 1.00258 0.991987
1.00008 1.00288 0.991853
1.00009 1.00273 0.991789
1.00012 1.00199 0.992612
1.00011 1.0006 0.993981
1.00017 1.00049 0.99398
1.00013 0.998162 0.99682
1.00022 1.00042 0.993947
1.00013 0.998193 0.996818
0.999992 0.99696 0.998035
1.00011 0.998269 0.996803
0.999917 0.997054 0.998033
0.999758 0.997218 0.999159
0.999939 0.998623 0.996181
0.99988 0.999139 0.995776
0.999671 0.997604 0.999094
0.999828 0.999761 0.995278
0.99966 0.997992 0.998955
0.999702 0.998446 0.998722
1.00522 0.998661 0.986974
1.00523 0.997771 0.987922
1.00519 0.996381 0.989204
1.00517 0.995691 0.990033
1.00515 0.997144 0.98877
1.00515 0.998846 0.98694
1.00516 0.997267 0.988602
1.00517 0.995846 0.989921
1.00519 0.995951 0.989696
1.00521 0.995066 0.990516
1.00518 0.997414 0.988227
1.00517 0.995389 0.990115
1.00518 0.995776 0.990022
1.00523 0.994956 0.990672
1.00519 0.995085 0.990469
1.00516 0.995722 0.989792
1.00518 0.997397 0.988404
1.00521 0.997974 0.987728
1.00515 0.995815 0.989985
1.0052 0.996261 0.989267
1.00213 1.00404 0.987169
1.00415 1.00259 0.984826
1.00514 1.00141 0.984258
1.00517 0.997634 0.98793
1.00513 0.99543 0.990146
1.00514 0.996682 0.988836
1.00516 0.999652 0.985882
1.00514 0.997131 0.988349
1.00226 1.00326 0.987816
1.00186 1.00297 0.988672
1.0006 1.00504 0.988639
1.00017 1.00185 0.992438
1.00012 1.00429 0.990085
1.00517 0.995724 0.990096
1.00518 0.995829 0.989841
1.00515 0.995261 0.99031
1.00276 1.0037 0.986351
1.00455 1.00246 0.984069
1.00503 1.0013 0.984403
1.00513 0.995898 0.989597
1.00513 0.998964 0.986503
1.00514 0.996136 0.989319
1.00009 1.00107 0.993327
1.00254 1.00288 0.987605
1.00194 1.00232 0.988902
1.00101 1.00491 0.988188
1.00047 1.00478 0.989407
1.00012 1.00366 0.990872
1.00521 0.99506 0.990464
1.00517 0.995156 0.990474
1.00513 0.994984 0.990377
1.00516 0.995298 0.99016
1.00357 1.00312 0.985616
1.00513 0.997183 0.988203
1.00499 1.00245 0.983255
1.00497 1.00143 0.984269
1.00014 1.00028 0.994035
1.00007 1.00278 0.991916
1.00029 1.00427 0.990173
1.00073 1.00501 0.98854
1.00258 1.00281 0.987189
1.002 1.00369 0.987618
1.00023 1.00072 0.993621
1 1.00289 0.991816
1.00515 0.998178 0.987435
0.99998 1.00497 0.989639
1.00187 1.00361 0.988059
1.00096 1.00327 0.989387
1.00514 0.999436 0.986112
1.00509 0.998222 0.987316
1.00338 1.00281 0.985795
1.005 1.00107 0.984825
1.00018 1.00209 0.992398
0.999901 1.00431 0.990582
1.00257 1.00243 0.988074
1.00007 1.00497 0.989524
1.00163 1.00206 0.98966
1.00512 0.996671 0.988892
1.00509 0.999538 0.986111
1.00508 0.998081 0.987297
1.00399 1.00223 0.985428
1.00495 1.00087 0.984889
0.999896 1.00294 0.991831
0.999775 1.00504 0.989703
1.0032 1.00154 0.987703
1.00076 1.00378 0.988655
1.00517 0.995388 0.98985
1.00507 0.997091 0.988669
1.00499 0.999819 0.985753
1.00435 1.00097 0.985238
1.00027 1.00178 0.992556
1.00009 1.0025 0.992077
0.999842 1.00305 0.99215
1.00012 1.00198 0.992596
1.00003 1.00265 0.991934
1.00011 1.002 0.992605
1.00001 1.00286 0.991889
1.00011 1.00272 0.991827
0.999962 1.00272 0.992163
1.00008 1.00313 0.991526
1.00012 1.00288 0.991599
1.0001 1.00207 0.992549
1.00005 1.0007 0.993946
1.00011 1.00057 0.99398
1.00012 0.998189 0.996811
1.00017 1.00047 0.993981
1.00013 0.998193 0.996818
1.00003 0.99689 0.998031
1.00013 0.998216 0.99682
0.999985 0.996926 0.998041
0.999902 0.997032 0.998035
1.00003 0.998221 0.99644
0.999946 0.998656 0.996151
0.999731 0.997279 0.999166
0.999867 0.999211 0.995743
0.999682 0.997652 0.999067
0.999687 0.998062 0.998895
1.00517 0.997454 0.988216
1.00518 0.995992 0.98967
1.00517 0.995176 0.990298
1.00521 0.994993 0.99057
1.00517 0.995885 0.989906
1.00516 0.997363 0.988485
1.00519 0.995816 0.98998
1.00524 0.994968 0.990643
1.00518 0.995124 0.990432
1.00516 0.995639 0.989888
1.00523 0.995046 0.990613
1.00519 0.994946 0.990651
1.00518 0.995013 0.990413
1.00518 0.995758 0.990089
1.00518 0.995856 0.989776
1.00514 0.995399 0.990211
1.00275 1.00383 0.986339
1.00451 1.0024 0.984154
1.00503 1.00125 0.984377
1.00514 0.995911 0.989589
1.00513 0.996095 0.989167
1.00513 0.998743 0.986797
1.00271 1.00271 0.987537
1.0017 1.00221 0.989487
1.00121 1.00502 0.988128
1.0001 1.00098 0.99344
1.00039 1.00481 0.98943
1.00013 1.00361 0.990807
1.00521 0.995118 0.9905
1.00517 0.995062 0.990521
1.00513 0.995054 0.990419
1.00337 1.00331 0.985596
1.00481 1.00249 0.983383
1.00493 1.00123 0.984582
1.00515 0.995316 0.990119
1.00513 0.997122 0.988142
1.00013 1.00024 0.994193
1.00008 1.00278 0.991913
1.00234 1.00267 0.987532
1.00186 1.00375 0.988114
1.00067 1.005 0.988742
1.00026 1.0043 0.990107
1.00516 0.994936 0.99072
1.00515 0.994928 0.990531
1.00513 0.995043 0.990418
1.00512 0.995044 0.990083
1.00385 1.00295 0.984433
1.00479 1.0004 0.985535
1.00504 1.0027 0.98308
1.00021 0.999833 0.994572
1.00021 1.00098 0.993479
1.00009 1.00172 0.992783
1.00002 1.00383 0.990903
1.00022 1.00482 0.989482
1.00044 1.00468 0.98883
1.00258 1.00182 0.987759
1.00192 1.00356 0.98896
1.00013 1.00213 0.992412
0.999975 1.00439 0.990547
1.00513 0.996632 0.989079
1.00014 1.00502 0.989558
1.00264 1.00252 0.988071
1.00143 1.0018 0.99017
1.00509 0.999519 0.986181
1.00509 0.998146 0.987302
1.00391 1.00236 0.985223
1.00501 1.00087 0.984717
0.999908 1.00302 0.991727
0.999874 1.00496 0.989783
1.00314 1.0016 0.987799
1.00113 1.00383 0.988792
1.00517 0.995317 0.989977
1.00508 0.997094 0.988484
1.00501 0.999771 0.985764
1.00462 1.00107 0.985114
0.999729 1.00372 0.991376
1.0052 0.994896 0.990288
1.0007 1.00492 0.989126
1.00331 1.00205 0.986889
1.00513 0.995852 0.989904
1.00504 0.998551 0.986161
1.00498 1.00104 0.984913
1.00009 1.00255 0.992089
0.999818 1.003 0.99212
0.999544 1.00312 0.992603
1.00012 1.00197 0.992598
1.00012 1.00271 0.991865
0.999841 1.00294 0.991926
1.0001 1.00206 0.992537
1.00009 1.00289 0.99162
0.999788 1.00284 0.992222
1.00015 1.00303 0.991549
0.999956 1.00248 0.992618
0.999918 1.00305 0.991875
1.00019 1.00339 0.991111
1.00026 1.00289 0.991422
1.00012 1.0022 0.992382
1.00002 1.00084 0.993871
1.00005 1.00072 0.993941
1.00011 0.998261 0.996771
1.00011 1.00059 0.993979
1.00012 0.998227 0.996807
1.00006 0.996848 0.998027
1.00014 0.998224 0.996817
1.00003 0.996855 0.998035
0.999981 0.996895 0.998044
1.00019 0.99982 0.994631
1.00009 0.997984 0.996579
1.00003 0.99825 0.996423
0.99982 0.996997 0.999212
0.999949 0.9987 0.996121
0.999735 0.99736 0.999146
0.999699 0.997725 0.99904
1.00516 0.99556 0.989984
1.00518 0.995165 0.990395
1.00524 0.994998 0.990614
1.00519 0.995844 0.989937
1.00523 0.994979 0.990679
1.00518 0.994947 0.99067
1.00517 0.99504 0.99039
1.00518 0.994952 0.990715
1.00521 0.994939 0.990533
1.0052 0.994939 0.99086
1.0052 0.995166 0.990536
1.00518 0.994962 0.990566
1.00512 0.99512 0.990462
1.0032 1.00348 0.985577
1.0047 1.00255 0.983516
1.00488 1.00104 0.984895
1.00515 0.995353 0.990079
1.00514 0.99704 0.988081
1.00212 1.00259 0.987879
1.00178 1.0038 0.988606
1.00046 1.00496 0.988945
1.00012 1.00018 0.99435
1.00013 1.00274 0.991912
1.00024 1.00443 0.990039
1.00517 0.994937 0.990689
1.00019 0.999856 0.994567
1.00017 1.00102 0.993408
1.00514 0.994924 0.990543
1.00513 0.995034 0.990415
1.00364 1.00317 0.984792
1.00497 1.00266 0.983227
1.00486 1.00018 0.985467
1.00512 0.995244 0.990023
1.00009 1.00171 0.992967
1.00008 1.00379 0.990876
1.00284 1.00236 0.987402
1.0013 1.00358 0.989356
1.0005 1.00465 0.989015
1.00018 1.00484 0.989573
1.0052 0.994951 0.990473
1.00514 0.994872 0.990539
1.00512 0.994917 0.990206
1.00474 0.995881 0.989807
1.00346 1.00302 0.985371
1.00443 1.0032 0.983911
1.0001 1.0012 0.993252
1.00018 1.00106 0.993419
1.00036 1.00155 0.992786
1.00013 1.00294 0.991443
0.999988 1.00453 0.990399
1.00097 1.00433 0.988886
0.99979 1.00489 0.989432
1.002 1.00114 0.989412
0.999927 1.0031 0.991625
1.00005 1.00487 0.989867
1.00517 0.995251 0.990103
1.00509 0.997141 0.988301
1.00147 1.00387 0.988929
1.00308 1.00161 0.987892
1.00503 0.999735 0.985772
1.00485 1.00119 0.984987
0.999806 1.00371 0.991331
1.0052 0.994903 0.990404
1.00047 1.00489 0.98918
1.00326 1.00199 0.986862
1.00512 0.995736 0.98989
1.00494 0.998657 0.986435
1.0049 1.00112 0.984968
0.999871 1.00463 0.990655
1.00453 0.995069 0.991736
1.00199 1.00368 0.988541
1.00385 1.00206 0.98638
1.00491 0.996456 0.989251
1.004 1.00101 0.985721
0.998884 0.997254 0.990688
0.999754 1.00301 0.992091
0.999393 1.00324 0.992585
0.999628 1.00334 0.992531
1.00009 1.00208 0.992526
1.00008 1.00292 0.991641
1.00024 1.00294 0.991572
0.999692 1.00284 0.992281
1.00011 1.0022 0.992381
1.00022 1.00296 0.991406
0.999914 1.00249 0.992542
1.00014 1.00346 0.991115
1.00003 1.00297 0.991801
0.999969 1.00261 0.99233
1.00027 1.00349 0.990866
1.0002 1.00349 0.99102
1.00037 1.00303 0.991123
1.00016 1.00233 0.992065
1.00027 1.00277 0.991702
1.00016 1.00239 0.991951
1.00001 1.00087 0.993826
1.00001 1.00084 0.993866
1.00011 0.998355 0.996153
1.00005 1.00071 0.993936
1.00012 0.998308 0.996475
1.00003 0.996832 0.999152
1.00012 0.998266 0.996804
1.00006 0.99681 0.998032
1.00003 0.996822 0.998037
1.00014 0.999813 0.994698
1.0002 0.999781 0.99464
1.0001 0.997868 0.996683
1.00007 0.997991 0.996834
0.999892 0.996815 0.999243
1.00003 0.998275 0.996406
0.999811 0.997066 0.999201
0.999741 0.997411 0.999126
1.00516 0.995063 0.990366
1.00518 0.994948 0.990689
1.00523 0.994923 0.990746
1.00518 0.994952 0.990717
1.0052 0.994938 0.990536
1.0052 0.994948 0.990527
1.00524 0.994981 0.990462
1.00102 0.99485 0.987082
1.0044 0.994926 0.993066
1.00003 1.00126 0.993454
1.00519 0.994938 0.990658
1.00514 0.994918 0.990555
1.00513 0.995026 0.990412
1.0033 1.00332 0.985147
1.00494 1.0026 0.983374
1.00495 0.999986 0.985403
1.00511 0.995462 0.989961
1.00323 1.00256 0.987048
1.00065 1.00359 0.989759
1.00063 1.00461 0.989202
1.00016 0.999904 0.994562
1.00016 1.00489 0.989664
1.00008 1.00169 0.993149
1.00016 1.00374 0.99085
1.00016 1.00101 0.993336
1.0052 0.994947 0.990475
1.00011 1.00116 0.993351
1.00015 1.00111 0.993414
1.00033 1.00157 0.992727
1.00514 0.994891 0.990523
1.00513 0.994918 0.990229
1.00366 1.00288 0.985416
1.00433 1.00257 0.984463
1.00463 0.996344 0.989707
1.00004 1.003 0.991588
1.00009 1.00445 0.990225
1.00191 1.002 0.989128
1.00023 1.00473 0.989472
1.00084 1.00426 0.988979
1.00519 0.995107 0.990523
1.00515 0.994882 0.990491
1.00507 0.995555 0.989743
1.00442 0.998197 0.989008
1.00189 1.00318 0.98842
1.00011 1.00213 0.9923
1.00038 1.00173 0.99226
1.00015 1.00235 0.992004
0.999888 1.00441 0.990971
1.00006 1.00452 0.989944
1.00018 1.00452 0.989441
1.00055 1.00337 0.989921
0.999933 1.00364 0.991283
1.00015 1.00487 0.989232
1.00522 0.994904 0.990514
1.00511 0.995579 0.989874
1.0049 0.998783 0.986709
1.00324 1.00192 0.986838
1.00485 1.00115 0.985024
0.999948 1.00452 0.990759
1.00446 0.995044 0.991856
1.00162 1.00369 0.98863
1.00356 1.00209 0.98644
1.00491 0.996094 0.989596
1.00414 1.00118 0.985688
0.998932 0.997318 0.988587
1.00001 1.00454 0.990499
1.00283 0.997413 0.991853
1.00153 1.00298 0.989185
1.00264 1.00174 0.98758
1.00377 0.997434 0.989062
1.00018 0.995343 0.953099
0.997048 0.994911 0.971991
0.996535 1.00234 0.989979
0.999788 0.996453 0.898163
0.994705 0.996811 0.873079
0.999268 1.00335 0.992568
0.999268 1.00355 0.992626
0.999676 1.00311 0.992423
1.00011 1.0022 0.99238
1.00027 1.00288 0.99139
1.00012 1.0035 0.991118
1.00014 1.0029 0.991726
0.999835 1.00252 0.992467
1.00023 1.00343 0.990981
1.00016 1.00231 0.992138
1.00035 1.00302 0.99115
0.999974 1.00259 0.992246
1.00018 1.00354 0.990991
1.00022 1.00363 0.990975
0.999797 1.00322 0.991699
1.00031 1.00354 0.990791
1.00034 1.00307 0.99105
1.0002 1.00239 0.99192
1.00033 1.00309 0.991186
1.00018 1.00295 0.991584
1.00013 1.00269 0.991871
1.00025 1.0028 0.991642
1.00023 1.00206 0.99233
1.00018 1.0024 0.991935
1.00007 1.00082 0.993806
1.00002 1.00088 0.993824
1.00011 0.998419 0.996132
1.00001 1.00087 0.993861
1.00011 0.99837 0.996151
1.00003 0.996831 0.999148
1.00012 0.998356 0.99618
1.00005 0.996831 0.998575
1.00006 0.996773 0.998035
1.00008 0.999839 0.994782
1.00015 0.999799 0.994702
1.00011 0.997776 0.996765
1.00021 0.999745 0.994648
1.0001 0.997827 0.996939
0.999943 0.996654 0.999272
1.00008 0.998029 0.996552
0.999881 0.99689 0.999228
0.999806 0.997126 0.99919
1.0052 0.994936 0.99054
1.00518 0.994951 0.990718
1.00519 0.994941 0.990194
1.00086 0.994926 0.987207
1.00522 0.994971 0.990464
1.00428 0.995319 0.992667
1.00498 0.996265 0.991108
0.996866 0.994892 0.970998
1.00064 0.996777 0.988755
1.00005 1.00129 0.993398
1.00009 1.0012 0.993447
1.00003 1.00223 0.992485
1.00004 1.00219 0.992524
1.0052 0.994945 0.990477
1.00513 0.994901 0.990507
1.00513 0.994911 0.990252
1.00417 1.00255 0.98546
1.00416 1.0018 0.98501
1.00455 0.996856 0.989603
1.00164 1.00303 0.988842
1.00074 1.00459 0.98951
1.00071 1.00414 0.989072
1.00012 1.0012 0.993409
1.00014 1.00443 0.990049
1.00007 1.00302 0.991734
1.00011 1.00115 0.99345
1.00026 1.00159 0.992664
1.0052 0.995027 0.990519
1.00014 1.00215 0.992393
1.00035 1.00174 0.992441
0.999941 1.00228 0.992444
1.00516 0.994882 0.990399
1.00495 0.995484 0.989766
1.00244 1.00236 0.988334
1.00407 0.998038 0.989415
1 1.0042 0.990815
1.0002 1.00473 0.989518
1.00066 1.00379 0.989839
1.00077 1.00431 0.989339
1.00465 0.99504 0.991375
1.00511 0.995688 0.99008
1.00503 0.996134 0.989574
1.00203 0.999584 0.991617
0.999926 1.00325 0.99157
1.0002 1.00288 0.991429
0.999354 1.00469 0.991098
0.999575 1.00484 0.990172
0.999999 0.994896 0.945482
0.999972 1.00444 0.990863
1.00114 1.00379 0.988717
1.00443 0.994966 0.991976
1.00493 0.995776 0.989939
1.0042 1.00126 0.985649
1.00323 1.00218 0.986496
0.99903 0.997325 0.986427
0.999885 1.0047 0.990633
1.00303 0.997159 0.991882
1.00145 1.00304 0.989193
1.00311 1.0013 0.987544
1.00405 0.997632 0.989082
1.00124 0.995535 0.943909
0.996828 0.995075 0.967705
0.996471 1.00243 0.989762
0.999773 0.996754 0.901635
0.994701 0.996808 0.862473
0.999703 1.00391 0.991575
0.99984 0.995036 0.908192
0.995038 0.996351 0.873796
1.00159 0.999988 0.991306
1.00083 1.00272 0.990331
1.00201 1.0007 0.989187
0.996447 1.00318 0.989661
1.00059 0.996868 0.949651
0.994918 0.996192 0.965499
0.997897 0.998746 0.906405
0.994794 0.997713 0.869179
0.999006 1.00371 0.992719
0.999515 1.00334 0.992348
0.999487 1.00293 0.993356
1.00017 1.00227 0.99221
1.00034 1.00306 0.991178
1.0001 1.00355 0.990944
1.00008 1.00358 0.991117
1.00002 1.00255 0.992162
1.0002 1.00237 0.991929
1.00012 1.00372 0.990934
1.00029 1.00354 0.990794
1.00039 1.00301 0.991119
0.999784 1.00324 0.991781
1 1.00375 0.991285
0.999242 1.00367 0.991933
1.00039 1.00349 0.990639
1.00044 1.00316 0.990936
1.00038 1.00306 0.991161
1.00017 1.00293 0.991635
1.00041 1.00318 0.991005
1.00005 1.00298 0.991739
0.999848 1.00283 0.991842
0.99973 1.00394 0.991234
0.999978 1.00294 0.991864
1.00015 1.00268 0.991867
1.00017 1.00196 0.992536
1.00024 1.0028 0.991581
1.00025 1.00207 0.992262
1.00015 1.00072 0.993789
1.0002 1.00242 0.99192
1.00006 1.00083 0.993809
1.00011 0.998378 0.99673
1.00001 1.0009 0.993822
1.0001 0.99839 0.996432
1.00008 0.996849 0.99797
1.00011 0.998385 0.996149
1.00003 0.996842 0.999146
1.00007 0.996839 0.997998
1.00009 1.00139 0.993228
1.00002 0.999903 0.994801
1.00008 0.999826 0.994785
1.00012 0.997748 0.996792
1.00016 0.999777 0.994705
1.00012 0.99774 0.996767
0.999983 0.996549 0.999287
1.00009 0.997828 0.997173
0.999959 0.996734 0.998758
0.999925 0.996943 0.998192
1.00055 0.995061 0.987354
1.00521 0.994977 0.990468
1.00412 0.996009 0.992262
0.996755 0.994876 0.972282
1.00053 0.996491 0.989029
1.00501 0.995881 0.99095
1.00314 0.997182 0.98866
0.996626 0.996889 0.974948
1.00007 0.995671 0.95035
0.999323 0.998197 0.909921
0.994648 0.997005 0.871652
0.999931 1.00228 0.992457
1.00007 1.00128 0.993395
1.00015 1.00113 0.99344
1.00003 1.00223 0.992475
0.999825 1.00316 0.991907
1.00021 1.00259 0.991852
1.00003 1.00265 0.992183
0.999995 1.00231 0.992435
1.00521 0.994926 0.99051
1.00517 0.994886 0.990306
1.00487 0.995339 0.989791
1.00271 1.00187 0.988255
1.00374 0.997941 0.989827
1.00078 1.00433 0.989756
1.00126 1.00417 0.989237
1.00043 1.0049 0.989095
1.00024 1.00175 0.992624
1.00001 1.00421 0.990658
1.00016 1.00219 0.992488
0.999839 1.00219 0.992882
1.00468 0.994957 0.991483
0.999913 1.00329 0.991635
1.00015 1.00303 0.991573
1.00504 0.995429 0.990036
1.00481 0.995675 0.989762
1.00201 0.999596 0.991264
0.999664 1.00493 0.990607
1.00015 1.00449 0.990258
1.00339 0.996114 0.991775
1.00468 0.996258 0.990499
1.00442 0.995213 0.991167
1.00158 0.999612 0.992055
0.999982 1.00436 0.990413
0.999591 1.00432 0.991033
0.999593 1.00502 0.990703
0.999876 0.994846 0.909672
1.00054 0.994975 0.95503
0.999828 1.0048 0.990768
1.00139 1.00298 0.989204
1.0032 0.996724 0.991916
1.00429 0.99797 0.989105
1.00361 1.00088 0.987517
1.00038 0.99494 0.951569
0.997179 0.995372 0.966932
0.996493 1.00255 0.989505
0.999421 0.996951 0.91165
0.994706 0.99689 0.85155
0.999719 1.00384 0.991571
0.99985 0.995747 0.907075
0.994969 0.996401 0.868432
1.00156 1.00025 0.991355
1.00088 1.00257 0.990388
1.00225 1.00053 0.98978
0.996732 1.00312 0.99026
1.00167 0.996858 0.943095
0.99492 0.995713 0.96937
0.998534 0.999282 0.906627
0.994804 0.997424 0.867166
0.999329 1.00351 0.993006
0.995129 0.996359 0.872252
0.994799 0.997309 0.886889
0.999395 1.00195 0.993371
0.999581 1.00303 0.99265
0.995882 1.00276 0.990313
0.994853 0.998474 0.968603
0.998254 0.999104 0.940747
0.994948 0.999821 0.912356
0.994851 0.994797 0.874516
0.999486 1.0035 0.992274
0.999616 1.00253 0.993323
0.9984 1.00399 0.993235
1.0002 1.00236 0.991938
1.0004 1.00296 0.991187
1.00028 1.00352 0.990797
1.00006 1.00383 0.990893
0.999705 1.00332 0.991863
1.00042 1.00319 0.990931
1.00003 1.00364 0.991197
1.00042 1.00345 0.990662
0.998996 1.00403 0.992077
0.997391 1.00466 0.993861
1.00008 1.00371 0.991043
1.00065 1.00365 0.990165
1.00041 1.00303 0.991136
1.0002 1.00286 0.991687
1.00041 1.00321 0.990969
1.00008 1.00298 0.991708
0.999884 1.00277 0.992032
0.999814 1.00352 0.991538
0.999896 1.00343 0.991341
0.999791 1.00276 0.992181
1.00028 1.00275 0.99155
1.00007 1.00477 0.989335
0.999566 1.00431 0.990953
0.999792 1.00392 0.991224
0.999831 1.00338 0.991664
1 1.00295 0.991854
1.00007 1.00204 0.992584
1.00015 1.00273 0.991864
1.00018 1.00195 0.992544
1.00022 1.00055 0.9938
1.00026 1.00208 0.992194
1.00015 1.0007 0.993799
1.00013 0.99835 0.996716
1.00006 1.00083 0.993813
1.00012 0.998348 0.996435
1.00006 0.996807 0.997986
1.00012 0.998362 0.996138
1.00003 0.996853 0.999141
1.00003 0.996845 0.999144
1.00012 1.00159 0.993228
1.00002 1.00003 0.994704
1.00008 1.00141 0.993234
1.00012 0.997756 0.996779
1.00003 0.999898 0.994803
1.00009 0.999825 0.994787
1.00012 0.997737 0.996789
1.00001 0.996493 0.999288
1.0001 0.997715 0.997245
1 0.996564 0.998797
0.999982 0.996739 0.998272
0.999853 0.995817 0.899903
0.994671 0.996355 0.872169
0.998046 0.994877 0.972331
1.00049 0.995668 0.989327
1.00506 0.995237 0.990794
0.996265 0.995929 0.976079
1.00338 0.996363 0.989006
1.00127 0.995979 0.94926
0.999826 0.997339 0.899925
0.99467 0.996902 0.861
0.998688 0.99502 0.979649
1.00002 0.997886 0.950087
0.998238 0.999135 0.904784
0.994764 0.996386 0.869105
1.00001 1.00331 0.991471
0.999935 1.00226 0.992535
1.00011 1.00123 0.993393
1.00003 1.00221 0.992467
0.999794 1.00303 0.992095
1.00004 1.00354 0.991302
1.00013 1.00278 0.991826
1.00025 1.00299 0.99134
1.00007 1.0026 0.992086
0.999946 1.00243 0.992349
1.0047 0.994902 0.991593
1.00507 0.995162 0.990007
1.00435 0.995389 0.989952
1.00185 0.999685 0.990911
1.00064 1.0042 0.990345
0.999878 1.00509 0.990115
1.00014 1.00302 0.991718
0.999847 1.00336 0.9917
1.0034 0.995573 0.992033
0.999922 1.0046 0.990294
0.99954 1.0044 0.990927
1.00485 0.995883 0.990293
1.00421 0.995345 0.991127
1.00157 0.999524 0.991951
0.999809 1.00497 0.990655
1.00078 0.997337 0.992352
1.00291 0.99567 0.994105
1.00054 1.00115 0.992092
0.999539 1.00477 0.990163
0.999668 1.00503 0.990118
0.999365 1.00511 0.990782
0.994748 0.996353 0.888325
0.999858 0.994867 0.912826
1.00001 0.994902 0.945702
0.999559 1.00395 0.991566
1.00097 1.00243 0.990443
1.00147 1.00043 0.991405
1.00248 1.00041 0.990368
0.999829 0.995271 0.914399
1.0002 0.996603 0.943164
0.994897 0.995215 0.965641
0.99696 1.00215 0.990824
0.998095 0.99893 0.89615
0.994944 0.996401 0.870426
0.99478 0.997048 0.873591
0.999064 1.00341 0.992978
0.995033 0.995584 0.878785
0.994872 0.997428 0.886508
0.999535 1.00163 0.993438
0.999386 1.00302 0.992657
0.995808 0.999857 0.99314
0.994875 0.997921 0.967661
0.997432 0.999385 0.950307
0.997189 0.999906 0.901261
0.99482 0.994791 0.881189
0.997575 1.00397 0.995288
0.994826 0.996263 0.896713
0.994793 0.994758 0.893355
0.995762 1.00213 0.999489
0.994827 0.999778 0.975177
0.995007 0.999972 0.951017
0.99484 0.99962 0.898114
0.994863 0.994807 0.879039
0.999735 1.00216 0.993289
0.99867 1.00385 0.993512
0.996992 1.00495 0.995057
1.00038 1.00325 0.990926
1.00045 1.00342 0.990685
1.00008 1.00348 0.991109
0.998751 1.00438 0.992227
1.00055 1.00376 0.990148
1.00005 1.0038 0.990992
0.997527 1.00464 0.994257
0.995406 1.00526 0.996871
0.998149 1.00461 0.993644
1.00035 1.0039 0.990441
1.00043 1.00323 0.990932
1.00008 1.00299 0.991678
0.999864 1.00277 0.992219
0.999904 1.00336 0.99146
0.999849 1.00351 0.991546
0.999784 1.00288 0.992219
1.00006 1.00301 0.991827
0.998766 1.00316 0.993399
1.00136 1.00012 0.991917
1.00032 1.0026 0.991681
1.0004 1.00371 0.990168
1.00176 1.00464 0.987156
0.999866 1.00486 0.990506
0.999925 1.00482 0.989741
0.99969 1.00424 0.991011
0.999669 1.0038 0.99133
0.999857 1.00389 0.991214
0.999921 1.00329 0.991663
1 1.00236 0.992389
1.00009 1.00289 0.991845
1.00012 1.00201 0.992578
1.00024 1.00053 0.993796
1.00021 1.00192 0.992551
1.00023 1.00057 0.993806
1.00015 0.998322 0.996716
1.00015 1.00069 0.993808
1.00014 0.998328 0.996422
1.00003 0.996886 0.997969
1.00014 0.998322 0.99614
1.00004 0.99683 0.998564
1.00002 0.996841 0.999144
1.00014 1.002 0.992569
1.00007 1.00014 0.994525
1.00008 1.00163 0.993053
1.00012 0.997813 0.996715
1.00002 1.00001 0.994706
1.00006 1.00146 0.993237
1.00003 0.996475 0.999284
1.00012 0.997752 0.996779
1.00003 0.999883 0.994806
1.00012 0.997727 0.996786
1.00001 0.996508 0.999289
0.999982 0.996552 0.999286
0.994697 0.994851 0.878963
0.999873 0.995568 0.906171
0.99482 0.997648 0.886247
0.994679 0.996405 0.869632
0.996063 0.99551 0.973456
1.00344 0.996246 0.989387
1.00017 0.996318 0.947554
0.999815 0.997392 0.910597
0.994702 0.996984 0.850137
0.998389 0.995648 0.978771
1.00136 0.997654 0.939486
0.998421 0.999437 0.905552
0.994786 0.99705 0.863701
0.995715 0.996069 0.973823
0.997766 0.998933 0.941384
0.995595 0.999887 0.896389
0.994839 0.994792 0.86917
1.00004 1.00413 0.990781
0.999981 1.00321 0.991603
0.999916 1.0023 0.992612
0.99976 1.0029 0.992283
1.00039 1.00373 0.990329
1.00004 1.00332 0.991425
1 1.00294 0.991799
1.00041 1.00301 0.991199
1.00026 1.00302 0.991424
1.00009 1.00255 0.991988
1.00355 0.994946 0.992276
1.00488 0.995288 0.9901
1.00444 0.995249 0.991083
1.00169 0.999225 0.991859
1.00005 1.00484 0.990609
0.999644 1.00454 0.990823
0.99982 1.00475 0.990176
0.999933 1.00489 0.989987
1.00084 0.99688 0.992665
0.999873 1.00496 0.990031
0.999665 1.0051 0.990756
1.0031 0.995423 0.993896
1.00111 1.00089 0.991898
0.998518 0.996665 0.994129
0.998262 0.998277 1.00021
0.998605 1.00372 0.99252
0.99997 1.00485 0.98995
0.999333 1.00504 0.990845
0.994837 0.996226 0.901509
0.994747 0.99632 0.885842
0.99985 0.994853 0.902898
0.998825 1.00332 0.992952
0.999274 1.00295 0.992648
0.999725 1.00139 0.99352
0.994928 0.994872 0.879307
0.997503 0.998876 0.941983
0.994864 0.997329 0.967871
0.996045 0.998414 0.996184
0.99541 0.999885 0.912642
0.994993 0.997656 0.886184
0.994835 0.994804 0.881498
0.997523 1.00395 0.995492
0.994884 0.995571 0.899597
0.994774 0.994759 0.893431
0.995972 1.00231 0.998502
0.994857 0.999488 0.976683
0.996118 0.999877 0.941997
0.994856 0.99481 0.879048
0.994843 0.999961 0.905282
0.995641 1.00495 0.998198
0.994695 0.994791 0.911575
0.994796 0.994776 0.896489
0.994831 0.994791 0.869792
0.995088 1.00038 0.992872
0.994962 0.999789 0.954356
0.99496 0.999896 0.905038
0.999033 1.00358 0.993787
0.997552 1.00495 0.994223
0.995294 1.0052 0.998284
1.00051 1.0038 0.990131
0.999998 1.00385 0.990939
0.997571 1.00463 0.994642
1.00022 1.00386 0.990505
0.998146 1.00446 0.993698
0.995718 1.00527 0.9967
0.99533 1.00515 0.998191
0.998087 1.00417 0.993633
0.999901 1.0033 0.991581
0.999878 1.00349 0.991554
0.999813 1.00298 0.99226
0.998969 1.00336 0.993255
0.99998 1.00294 0.991816
0.999752 1.00227 0.993002
1.00059 1.0006 0.992911
1.00137 1.00204 0.989651
1.00037 1.00242 0.991814
1.00084 1.00362 0.989881
1.00243 1.0035 0.986708
1.00238 1.00388 0.986617
1.0003 1.00489 0.98952
1.00144 1.0046 0.987238
0.999867 1.00449 0.990616
0.999776 1.00492 0.990444
0.999755 1.00485 0.990146
0.99981 1.00418 0.99107
0.999728 1.00369 0.991429
0.999983 1.00268 0.992092
0.999996 1.0032 0.991662
1.00005 1.00231 0.992392
1.0002 1.00072 0.993668
1.00016 1.002 0.992573
1.00025 1.00053 0.993792
1.00012 0.998315 0.99674
1.00023 1.00056 0.993813
1.00015 0.998299 0.996428
0.999992 0.99696 0.997982
1.00016 0.998279 0.996132
1.00001 0.996893 0.998555
1.00001 0.996866 0.999144
1.00028 1.00218 0.991975
1.00011 1.00044 0.993928
1.00017 1.00199 0.992568
1.00014 0.997908 0.996582
1.00006 1.00016 0.994385
1.00008 1.00162 0.992879
1.00003 0.996527 0.999265
1.00012 0.997803 0.99672
1.00002 0.99999 0.994708
1.00003 0.996484 0.999285
1.00011 0.997749 0.99678
1.00001 0.996509 0.999289
0.994809 0.994818 0.89726
0.994704 0.995529 0.884818
0.999856 0.995803 0.907077
1.00053 1.00314 0.99076
0.99478 0.995701 0.898688
0.994811 0.996829 0.886045
0.994714 0.996389 0.874509
0.998513 0.995911 0.977443
0.99958 0.998313 0.949472
0.998143 0.998841 0.894497
0.994771 0.997255 0.867095
0.996553 0.995612 0.970011
0.997428 0.998971 0.949923
0.996994 0.999899 0.900444
0.994825 0.995228 0.871806
0.994862 0.996579 0.966083
0.995321 0.999938 0.949436
0.994881 0.999976 0.905773
0.994874 0.994819 0.878779
1.00016 1.00447 0.989986
1.00003 1.00419 0.990618
1.00001 1.00313 0.991734
1.00034 1.00385 0.990347
1.00029 1.00385 0.990504
1.00007 1.00326 0.991547
1.00046 1.00297 0.991229
1.00026 1.00303 0.991506
1.00055 0.996908 0.992914
1.00327 0.995445 0.993647
1.00004 1.00499 0.989811
1.00165 1.00078 0.991689
0.999953 1.00511 0.990728
1 1.005 0.989943
0.999922 1.00487 0.989965
0.997789 0.997196 0.994723
0.999593 1.00491 0.990928
0.999355 1.00353 0.992573
0.998443 0.997678 1.00022
0.999967 1.00489 0.990066
0.996031 0.998698 0.994277
0.995182 1.0004 1.00309
0.998002 1.00518 0.992748
0.999684 1.00475 0.990985
0.994692 0.994773 0.916641
0.994829 0.996301 0.901463
0.99474 0.996342 0.883348
0.997426 1.00399 0.99572
0.995898 1.00204 0.997502
0.994889 0.994825 0.902407
0.995114 0.999988 0.95127
0.99487 0.998981 0.973777
0.994846 0.999952 0.904706
0.994773 0.994763 0.89348
0.994839 0.994827 0.879055
0.995891 1.00487 0.997786
0.99472 0.99479 0.911397
0.994788 0.99477 0.900299
0.994943 1.00114 0.996195
0.994817 0.995359 0.872185
0.994901 0.99906 0.948869
0.99495 0.999891 0.909723
0.995062 1.00425 0.998651
0.994743 0.994784 0.915618
0.994754 0.995904 0.899103
0.994763 0.996477 0.869396
0.995831 0.999983 0.905235
0.994912 0.999588 0.982886
0.994955 1.00046 0.941574
0.998135 1.00497 0.99339
0.995548 1.00512 0.997814
0.994966 1.00507 0.999649
1.00008 1.00385 0.990569
0.998112 1.00438 0.993753
0.996143 1.0049 0.996534
0.998314 1.00418 0.993525
0.995459 1.00447 0.998119
0.997611 1.00335 0.996187
0.999207 1.00347 0.993107
0.999813 1.00294 0.991806
0.999825 1.00242 0.993126
0.999484 1.00371 0.991167
0.999812 1.00102 0.993889
1.0012 1.00191 0.990181
1.00278 1.00289 0.986805
1.00433 1.00214 0.984819
1.00129 1.00352 0.98959
1.00287 1.00362 0.985884
1.0033 1.0031 0.986588
1.00101 1.00439 0.988182
1.00232 1.00383 0.986807
0.999894 1.00491 0.989906
1.00034 1.00489 0.989473
1.00111 1.00458 0.987322
0.999983 1.00321 0.991537
0.999788 1.00448 0.990676
0.999701 1.00497 0.990382
0.999796 1.00358 0.991526
1.00003 1.00265 0.99209
1.00018 1.00103 0.993387
1.0001 1.00227 0.992396
1.00021 1.00072 0.993663
1.00007 0.998448 0.996146
1.00026 1.00055 0.993788
1.00014 0.998309 0.996164
0.999871 0.997023 0.999153
1.00016 0.998279 0.996136
0.99997 0.996967 0.998557
0.99998 0.996923 0.99914
1.00031 1.00241 0.991656
1.00021 1.00075 0.993461
1.00025 1.00222 0.992073
1.00015 0.998075 0.996395
1.00013 1.00045 0.993871
1.00015 1.00202 0.992566
1.00003 0.9966 0.999234
1.00014 0.9979 0.996593
1.00006 1.00018 0.994246
1.00004 0.996504 0.999272
1.00012 0.997791 0.996725
1.00003 0.996495 0.999287
0.994725 0.994777 0.912522
0.994808 0.995511 0.897101
0.994703 0.996184 0.885024
1.00045 1.00317 0.990849
1.00044 1.00332 0.990591
1.00049 1.00361 0.990476
0.994809 0.994767 0.89599
0.994783 0.995418 0.898729
0.994802 0.996471 0.885835
0.99639 0.994976 0.972334
0.99835 0.999354 0.940132
0.99521 0.99991 0.912113
0.994842 0.996055 0.868058
0.994902 0.996519 0.969388
0.996024 0.999961 0.946174
0.994821 0.999856 0.905552
0.99486 0.994821 0.878667
0.994891 0.996766 0.965375
0.994901 0.999745 0.951135
0.99497 0.999974 0.905279
0.994847 0.994815 0.874383
1.00034 1.00424 0.989909
1.0002 1.00449 0.989874
1.00015 1.00412 0.990456
1.00044 1.0037 0.99032
1.00016 1.00388 0.99068
1.00048 1.00296 0.991258
0.997174 0.997636 0.995313
0.998196 0.997303 1.00027
1.00001 1.00469 0.989979
1 1.00302 0.992636
0.999678 1.00485 0.99101
0.999952 1.00475 0.990027
0.999324 1.00476 0.991109
0.995762 0.998548 0.994586
0.998038 1.00509 0.993434
0.995365 1.00095 1.00201
0.999629 1.00428 0.991147
0.994971 0.998433 0.994094
0.996032 1.00199 0.998542
0.998307 1.00515 0.993414
0.994722 0.99474 0.921039
0.994699 0.994766 0.917784
0.994815 0.996327 0.901405
0.996128 1.00483 0.997357
0.994948 1.00115 0.993158
0.994719 0.994789 0.911222
0.994858 0.999218 0.950881
0.994952 0.999883 0.899204
0.994782 0.994744 0.904099
0.994846 0.996297 0.86857
0.995152 1.00398 0.999102
0.994732 0.994789 0.917166
0.994777 0.995516 0.899156
0.994941 0.999645 0.979386
0.994784 0.997255 0.86408
0.99481 0.999955 0.904737
0.994933 1.00011 0.951731
0.995133 1.00486 0.995139
0.994726 0.994776 0.912881
0.994877 0.997945 0.886688
0.994615 0.997158 0.872324
0.995949 0.999214 0.896269
0.995944 0.999926 0.949565
0.995003 1.00035 0.97345
0.995938 1.00511 0.997354
0.995238 1.00416 0.999587
0.996528 1.00348 0.99825
0.998475 1.0043 0.99342
0.995618 1.00413 0.998069
0.996617 1.00407 0.99665
0.999739 1.00207 0.9938
0.999906 1.00268 0.993249
1.00077 1.00334 0.990733
1.00181 1.00437 0.987242
1.00102 1.00182 0.99073
1.00298 1.003 0.986512
1.00405 1.00389 0.9836
1.00495 1.00159 0.984223
1.00401 1.00207 0.985413
1.0043 1.00235 0.984624
1.00333 1.00372 0.985059
1.0028 1.0032 0.987146
1.00302 1.00295 0.986795
1.00045 1.00473 0.988722
1.00115 1.00436 0.988344
1.00228 1.0038 0.986998
0.999937 1.00434 0.990398
1.00005 1.00487 0.989913
1.00036 1.0049 0.989426
1.00017 1.00148 0.992971
1.00007 1.00317 0.991522
0.999711 1.00446 0.990735
1.00008 1.00262 0.992089
1.0002 1.00104 0.993381
0.99999 0.998683 0.996051
1.00022 1.00073 0.993658
1.00008 0.99845 0.996139
0.999811 0.997181 0.999143
1.00014 0.998302 0.99616
0.999905 0.997053 0.998568
0.999933 0.997004 0.999141
1.00035 1.00269 0.991503
1.00029 1.00097 0.993281
1.00035 1.0024 0.991718
1.00017 0.998263 0.996165
1.0002 1.00074 0.993545
1.00027 1.00222 0.992172
1.00002 0.996734 0.999192
1.00015 0.99805 0.996409
1.00015 1.00044 0.993814
1.00003 0.996591 0.999244
1.00013 0.997894 0.996603
1.00004 0.996501 0.999278
0.99474 0.994795 0.915276
0.994726 0.994797 0.912348
0.994805 0.996221 0.897048
1.00031 1.00369 0.990423
1.00053 1.00382 0.99017
1.0004 1.00321 0.99094
1.0004 1.00343 0.990567
1.00035 1.00372 0.990444
1.00029 1.00395 0.9903
1.00038 1.00386 0.990222
0.994787 0.994742 0.892909
0.994807 0.994768 0.899858
0.994786 0.994751 0.898785
0.994845 0.994813 0.878582
0.994901 0.996308 0.966593
0.995197 0.999964 0.943347
0.994859 0.99973 0.912478
0.994886 0.997242 0.964511
0.994884 0.999953 0.942559
0.994949 0.999919 0.910234
0.994814 0.994792 0.881087
0.994996 0.996311 0.968447
0.994912 1.0002 0.942362
0.994795 0.999847 0.898742
0.994788 0.997964 0.868371
0.999626 1.00499 0.990533
1.00022 1.00438 0.989947
1.00025 1.00471 0.989761
1.00056 1.00355 0.990294
0.995608 0.998314 0.995012
0.995552 1.00223 1.00093
0.999933 1.00488 0.98999
0.999267 1.00479 0.991234
0.99844 1.00514 0.994113
0.999591 1.00448 0.991101
0.997996 1.00515 0.993416
0.994869 0.99981 0.991211
0.995471 1.00333 0.998795
0.997683 1.00492 0.994026
0.995086 0.998539 0.989956
0.997356 1.00412 0.997345
0.99469 0.994789 0.916751
0.994714 0.994728 0.923884
0.994716 0.994753 0.918925
0.995012 1.00368 0.999507
0.994939 0.998418 0.983558
0.994728 0.9948 0.918749
0.995971 1.00017 0.942218
0.994844 0.999872 0.911635
0.9948 0.994763 0.899222
0.994768 0.997579 0.867559
0.99497 1.00363 0.995796
0.994726 0.994799 0.912724
0.994851 0.997018 0.886486
0.99492 1.00055 0.974386
0.994655 0.997003 0.861903
0.997025 0.999907 0.900043
0.994889 0.999871 0.941844
0.995382 1.00485 0.9899
0.994807 0.994842 0.897936
0.994652 0.996432 0.87296
0.998635 0.998126 0.905438
0.995216 0.999974 0.949386
0.994897 1.00002 0.967228
0.995303 1.00329 0.999731
0.995878 1.0041 0.998189
0.997269 1.00156 0.997197
0.995727 1.00466 0.997112
0.998554 1.00234 0.994332
1.00294 1.0005 0.990168
1.00209 1.00285 0.990296
1.00222 1.0042 0.987155
1.003 1.00445 0.984382
1.00316 1.00312 0.98622
1.00443 1.00389 0.983153
1.00439 1.00414 0.982654
1.00499 1.00102 0.984805
1.00506 1.00118 0.984583
1.00486 1.00173 0.984206
1.00379 1.00187 0.985837
1.00402 1.00197 0.985583
1.00424 1.00259 0.984429
1.00215 1.00424 0.986973
1.00265 1.00317 0.987116
1.00271 1.0028 0.986998
1.0003 1.00503 0.989046
1.00049 1.00476 0.988953
1.00131 1.00431 0.98851
1.00007 1.00237 0.992185
1.00011 1.00418 0.990415
1.0002 1.00483 0.989922
0.999904 0.998938 0.995931
1.00019 1.00148 0.992954
1.00014 1.00313 0.991508
1.00022 1.00103 0.993375
0.999989 0.998702 0.996039
0.999724 0.99739 0.999125
1.00009 0.998445 0.996131
0.999803 0.997219 0.999139
0.999871 0.997081 0.999146
1.00035 1.00377 0.990407
1.00044 1.00291 0.991168
1.00034 1.00131 0.992875
1.00037 1.00268 0.991492
1.00016 0.998516 0.995919
1.00028 1.00099 0.993281
1.0003 1.00246 0.991779
1 0.996887 0.999138
1.00016 0.99826 0.996181
1.0002 1.00074 0.993627
1.00002 0.996699 0.999204
1.00015 0.998034 0.996424
1.00004 0.99656 0.999254
0.994681 0.994787 0.911255
0.994728 0.994792 0.916859
0.994728 0.994817 0.912154
1.0004 1.00364 0.990455
1.0004 1.00388 0.990178
1.00024 1.00361 0.99039
1.00017 1.00412 0.99014
1.00044 1.00432 0.990062
1.0004 1.0035 0.990543
1.00029 1.00383 0.990412
1.00035 1.0039 0.990302
1.00037 1.004 0.990284
1.0001 1.00456 0.990249
0.994843 0.997672 0.885912
0.994757 0.994762 0.893038
0.994799 0.994763 0.903707
0.99482 0.994791 0.881399
0.994962 0.999967 0.899447
0.994867 0.998423 0.962999
0.994887 0.999988 0.950907
0.994985 0.996691 0.965253
0.994923 0.999709 0.951389
0.99485 0.999977 0.906414
0.994813 0.9977 0.866149
0.995031 0.994965 0.970118
0.994924 1.00001 0.951444
0.995479 0.999886 0.911261
0.994725 0.996992 0.870871
0.998799 1.00376 0.992761
0.999767 1.00487 0.990473
1.00023 1.00439 0.989986
0.994903 1.00051 0.988168
0.995337 1.00399 0.999054
0.999556 1.00451 0.991054
0.997307 1.00519 0.993419
0.99781 1.00458 0.994045
0.996472 1.00364 0.997398
0.994973 0.998786 0.990074
0.996126 1.00201 0.998518
0.996009 0.999882 0.990733
0.994865 0.995933 0.901094
0.994699 0.994779 0.917866
0.994698 0.99472 0.926732
0.995012 1.00246 0.996094
0.994899 1.00101 0.970931
0.994728 0.994814 0.912541
0.995972 0.999976 0.948632
0.995087 0.999916 0.911677
0.99479 0.996592 0.886292
0.994711 0.997011 0.851265
0.995363 1.00508 0.990385
0.994802 0.995297 0.897792
0.994676 0.996507 0.870442
0.9949 1 0.968241
0.998456 0.999255 0.90618
0.996025 0.999943 0.944959
0.994878 1.00429 0.987528
0.994695 0.994847 0.87987
0.999692 0.997768 0.910953
0.997688 0.998801 0.941217
0.99486 0.997249 0.970164
0.995402 1.00494 0.998123
0.997381 1.00211 0.997085
1.00182 1.00169 0.991588
0.997395 1.0027 0.994787
1.00183 1.00071 0.990429
1.00394 0.999624 0.988076
1.00259 1.00399 0.987065
1.0031 1.00426 0.984435
1.00443 1.00164 0.984763
1.00479 1.00388 0.982709
1.00444 1.00374 0.982744
1.00481 1.00088 0.985114
1.00516 0.999124 0.986249
1.0051 1.00061 0.984905
1.00493 1.00092 0.984891
1.00507 1.0014 0.984511
1.00504 1.00122 0.984565
1.00479 1.00187 0.984188
1.00346 1.00302 0.985812
1.00373 1.00193 0.986008
1.00406 1.0019 0.985754
1.00137 1.00435 0.987891
1.00194 1.00422 0.987134
1.00251 1.00317 0.987084
1.00002 1.00385 0.990724
1.00046 1.00492 0.989065
1.00055 1.0048 0.989182
0.999818 0.99944 0.9962
1.00014 1.00238 0.99215
1.00028 1.00401 0.990433
0.999653 0.997637 0.997875
0.999899 0.999024 0.99618
1.00021 1.00148 0.992937
0.999984 0.998729 0.996026
0.99972 0.997433 0.999117
0.999794 0.99725 0.999134
1.00026 1.00403 0.990275
1.00043 1.00324 0.99086
1.00028 1.00386 0.990375
1.00035 1.00165 0.992509
1.00037 1.00301 0.99116
1.00013 0.998814 0.995671
1.00033 1.00131 0.992878
1.00042 1.00264 0.99148
0.99997 0.997088 0.999082
1.00016 0.998498 0.995934
1.00027 1.001 0.99328
1 0.99687 0.999155
1.00015 0.998249 0.996197
1.00002 0.99668 0.999217
0.995099 0.994834 0.902813
0.994711 0.994788 0.911097
0.994723 0.994793 0.918465
1.00057 1.00311 0.990581
1.00038 1.00371 0.990487
1.0003 1.00393 0.990185
1.0003 1.00415 0.990139
1.00048 1.00352 0.990439
1.00036 1.00406 0.990284
1.00071 1.00411 0.989503
0.999791 1.00468 0.990032
1.00043 1.00379 0.990305
1.00007 1.00415 0.990344
0.999956 1.00455 0.990231
0.999432 1.00484 0.991564
0.99521 0.99665 0.872621
0.995105 0.997671 0.88553
0.994753 0.99478 0.893139
0.994834 0.997314 0.872742
0.994848 0.99996 0.906223
0.99494 1.00012 0.942411
0.995031 0.996682 0.963698
0.994969 0.994988 0.971689
0.994712 0.997134 0.860676
0.994896 0.99983 0.946516
0.997013 0.999912 0.900412
0.994874 0.996262 0.972243
0.995304 0.999964 0.951597
0.999171 0.998462 0.902139
0.999158 1.00164 0.994994
0.998956 1.00388 0.992715
0.999665 1.00481 0.990413
0.994865 0.999135 0.990313
0.995743 1.00319 0.997443
0.997808 1.0043 0.994062
0.997331 1.00185 0.99836
0.995523 0.999696 0.990838
0.996968 0.998828 0.993725
0.994753 0.997477 0.882316
0.994859 0.995457 0.904671
0.99472 0.994762 0.918978
0.995136 1.00509 0.990672
0.994862 1.00001 0.968353
0.994794 0.995878 0.897744
0.995118 0.99997 0.942653
0.998471 0.998015 0.895401
0.994756 0.996472 0.875447
0.995194 1.00463 0.987471
0.9947 0.995363 0.88569
0.999821 0.99654 0.901255
0.99492 0.997173 0.966169
0.997447 0.999006 0.949646
0.996848 1.00177 0.991441
0.999837 0.995643 0.900711
1.00003 0.997794 0.950002
0.994884 0.995578 0.96558
0.997391 1.00252 0.997078
1.00122 1.0007 0.991953
1.00327 1.00074 0.989089
1.00073 1.00099 0.990696
1.00332 1.00017 0.988068
1.00459 0.998336 0.987833
1.00318 1.00408 0.984486
1.00428 1.00168 0.984734
1.00499 0.997887 0.987289
1.00449 1.00336 0.982833
1.00476 1.00068 0.98516
1.00508 0.997456 0.9879
1.00514 0.997429 0.98801
1.00519 0.999422 0.985935
1.00515 0.998994 0.986378
1.00512 1.00081 0.984779
1.00508 1.00062 0.984969
1.00489 1.00083 0.984977
1.00477 1.00132 0.985135
1.00489 1.00137 0.984662
1.005 1.00123 0.984546
1.0027 1.00343 0.986625
1.00347 1.00292 0.985805
1.00368 1.00193 0.986179
1.00058 1.00454 0.989199
1.00146 1.00442 0.987865
1.00171 1.00416 0.987297
0.999741 1.00027 0.994798
1.00021 1.00368 0.990721
1.00065 1.00481 0.989084
0.999562 0.997897 0.999051
0.999801 0.999535 0.995527
1.00021 1.00236 0.992114
0.999655 0.99763 0.999091
0.999874 0.999091 0.995864
0.999718 0.997481 0.999108
1.0007 1.00359 0.990072
1.00031 1.00404 0.990231
1.00043 1.0036 0.990516
1.00032 1.00202 0.992195
1.00038 1.00329 0.990855
1.00028 1.00387 0.990342
1.0001 0.99911 0.99543
1.00034 1.00166 0.992512
1.00033 1.00308 0.991152
0.99993 0.997309 0.99902
1.00014 0.998781 0.995685
1.00032 1.00132 0.99288
0.999972 0.997049 0.999099
1.00016 0.998484 0.99595
1 0.996825 0.999171
0.995244 0.996114 0.87268
0.995047 0.994834 0.902705
0.994713 0.994789 0.910942
1.00042 1.00337 0.990526
1.00134 1.00301 0.990224
1.00056 1.00363 0.990174
1.00035 1.00423 0.990139
1.00072 1.0034 0.990487
1.00013 1.00392 0.990505
0.99999 1.00471 0.989987
1.00057 1.00415 0.989612
1.00038 1.00475 0.989412
0.999947 1.00074 0.993647
1.00014 1.0045 0.990212
0.999515 1.00466 0.991227
0.999801 0.997367 0.896395
0.995066 0.996624 0.867234
0.995286 0.997816 0.885221
0.994709 0.99735 0.850218
0.99666 0.999053 0.911336
0.99486 0.999967 0.944408
0.994898 0.995062 0.969475
0.994923 0.996234 0.970932
0.998459 0.99947 0.904833
0.996055 0.999962 0.943045
0.994891 0.997555 0.972233
0.998624 0.998934 0.941281
1.00194 0.997886 0.99414
0.999147 1.00173 0.994827
0.999104 1.00409 0.992682
0.995025 0.99957 0.990896
0.998333 1.00171 0.998193
0.997606 0.998888 0.993227
0.99908 0.998495 0.990632
0.999882 0.99485 0.909316
0.994791 0.996703 0.882489
0.994793 0.994851 0.908154
0.995572 1.00505 0.987587
0.994894 0.997078 0.964155
0.994705 0.995749 0.885834
0.998765 0.998689 0.940151
0.999815 0.997044 0.911794
0.996585 1.00079 0.989314
0.999871 0.995357 0.907045
1.00149 0.997254 0.939828
0.994915 0.995609 0.969065
0.998458 0.996731 0.991846
1.00003 0.995884 0.950745
0.996329 0.995851 0.971354
1.00058 0.999506 0.992262
1.0031 0.999599 0.989049
1.00485 0.997674 0.989191
1.00268 1.00063 0.988065
1.00432 0.998507 0.987828
1.00488 0.996463 0.989051
1.00423 1.0017 0.984707
1.00493 0.998179 0.98721
1.00509 0.995779 0.989395
1.00472 1.0005 0.985205
1.00508 0.997461 0.98789
1.00512 0.995886 0.989528
1.00512 0.996515 0.989211
1.00515 0.997249 0.988221
1.00515 0.998136 0.987482
1.00517 0.999869 0.98573
1.00519 0.99948 0.985976
1.00514 0.998863 0.986507
1.00513 1.00064 0.985055
1.00511 1.0008 0.984774
1.00507 1.0006 0.985033
1.00399 1.00215 0.9857
1.00464 1.00145 0.985127
1.00471 1.00141 0.984814
1.00148 1.00397 0.988198
1.00275 1.00343 0.986616
1.00343 1.00287 0.985797
0.99991 1.00117 0.993574
1.00071 1.00431 0.989208
1.00161 1.00442 0.98784
0.999606 0.998216 0.998901
0.999765 1.00037 0.994744
1.00037 1.00356 0.990718
0.999603 0.997924 0.998388
0.99979 0.999625 0.995505
0.999667 0.997696 0.999068
1.00097 1.00295 0.990224
1.00045 1.00374 0.990162
1.00036 1.00396 0.990154
1.00039 1.00403 0.990187
1.00034 1.00367 0.990514
1.00029 1.00241 0.991855
1.00004 0.999425 0.995227
1.00031 1.00201 0.992199
1.00029 1.00339 0.99085
0.999879 0.997532 0.998957
1.0001 0.999092 0.995441
1.00032 1.00168 0.992514
0.999931 0.997266 0.999039
1.00014 0.998755 0.995698
0.999974 0.997026 0.999115
0.999831 0.99512 0.907851
0.995186 0.99615 0.875485
0.995094 0.994835 0.902579
1.0003 1.0036 0.990471
1.00052 1.0041 0.98969
1.001 1.00298 0.990497
1.00239 1.00355 0.987339
1.00048 1.00409 0.990025
1.00014 1.0047 0.989943
1.00051 1.00416 0.989723
1.00016 1.00467 0.98967
1.00077 1.00347 0.988882
1.00124 0.999755 0.992983
1.00418 0.997351 0.989894
1.00016 1.00057 0.993727
0.999921 1.00397 0.990885
0.99877 0.99747 0.949901
0.999778 0.997886 0.90095
0.994987 0.996553 0.869132
0.999064 0.999749 0.89345
0.995663 0.999955 0.949042
0.994869 0.996156 0.972158
0.994868 0.997553 0.974046
0.99742 0.998753 0.951462
0.995896 0.997645 0.973338
1.00252 0.996071 0.994119
1.00124 0.99856 0.994229
0.999179 1.00184 0.994652
0.998372 0.99871 0.992813
0.999741 0.998511 0.990006
0.999989 0.994905 0.945601
0.999871 0.994877 0.912937
0.994856 0.996066 0.882771
0.996205 1.00005 0.987113
0.994974 0.995345 0.965858
0.999853 0.995652 0.907918
1.00039 0.997901 0.949087
0.997632 0.997811 0.992197
1.00126 0.99593 0.94921
0.996686 0.995239 0.968313
1.00138 0.996199 0.99072
0.999141 0.995703 0.977281
1.00293 0.998702 0.989072
1.00477 0.99679 0.989127
1.00497 0.995872 0.99027
1.00406 0.998687 0.987821
1.00473 0.996637 0.98898
1.00514 0.995082 0.990092
1.00481 0.998475 0.987132
1.00509 0.995866 0.989354
1.00507 0.995013 0.990377
1.00508 0.997467 0.987881
1.00512 0.995912 0.989485
1.00514 0.995532 0.990069
1.00512 0.996271 0.98936
1.00512 0.997121 0.988606
1.00516 0.997067 0.988433
1.00515 0.998148 0.987458
1.00519 0.998982 0.986619
1.00517 1.0002 0.985456
1.00517 0.999914 0.985707
1.00518 0.999536 0.986017
1.00476 1.00081 0.985567
1.00509 1.00069 0.985034
1.00511 1.00079 0.984769
1.00252 1.00279 0.98752
1.00394 1.00219 0.985709
1.00456 1.00156 0.985121
1.0003 1.00165 0.992411
1.00154 1.00388 0.988184
1.00272 1.00351 0.986607
0.999718 0.998757 0.99861
0.999983 1.00119 0.993546
1.00088 1.00409 0.989218
0.999669 0.998328 0.998812
0.999803 1.00046 0.994688
0.999664 0.997959 0.998965
1.00239 1.00351 0.987302
1.00102 1.00284 0.990197
1.0005 1.00389 0.989824
1.00023 1.00382 0.990252
1.0003 1.004 0.990121
1.0003 1.00286 0.991373
1.00028 1.00372 0.990511
1.00027 1.00241 0.991863
0.999961 0.99976 0.995038
0.99981 0.997779 0.998903
1.00004 0.999399 0.995236
1.0003 1.002 0.992203
0.999882 0.997509 0.998977
1.00009 0.999079 0.995452
0.999936 0.997223 0.999058
1.00006 0.995332 0.953684
0.999844 0.995029 0.90705
0.995045 0.996186 0.872041
1.00049 1.00462 0.989208
1.00071 1.00289 0.990772
1.00069 1.00399 0.989936
1.00223 1.00357 0.987513
1.004 1.00254 0.985076
1.00107 1.00358 0.988805
0.999929 1.00471 0.989928
1.00151 1.00347 0.988116
1.00091 0.999966 0.993069
1.00288 1.00005 0.98898
1.00475 0.996226 0.990866
1.00417 0.996568 0.990645
1.00372 0.997186 0.990557
0.999895 1.00079 0.993811
0.995991 0.996078 0.972722
1.00014 0.997218 0.947149
0.998102 0.997611 0.91118
0.997818 0.999419 0.941221
0.994868 0.997937 0.974805
0.995889 0.997774 0.97807
0.999738 0.997898 0.992214
1.00282 0.99574 0.994045
1.00084 0.999061 0.994319
1.00122 0.998546 0.989348
0.996496 0.997526 0.973449
1.00027 0.99504 0.95504
0.999853 0.994864 0.902849
0.996884 0.998657 0.992406
0.996832 0.994876 0.970345
1.0001 0.996665 0.947432
1.00087 0.996201 0.990847
0.998525 0.995764 0.976635
1.00366 0.995591 0.991041
1.00278 0.998276 0.987517
1.00471 0.995952 0.989033
1.00485 0.995696 0.990275
1.00514 0.994856 0.99062
1.00461 0.996797 0.98891
1.00515 0.995069 0.990046
1.00509 0.994939 0.990543
1.00509 0.995943 0.989313
1.00506 0.995113 0.990346
1.00514 0.995101 0.990424
1.00512 0.995943 0.989441
1.00513 0.995512 0.989991
1.00512 0.996203 0.989349
1.00512 0.996034 0.989507
1.00512 0.996977 0.988758
1.00518 0.998301 0.987402
1.00516 0.998162 0.987434
1.00519 0.999044 0.986591
1.00521 0.999694 0.98603
1.00497 1.00021 0.985681
1.00517 1.00024 0.985434
1.00517 0.999961 0.985683
1.00348 1.00139 0.987252
1.00474 1.00086 0.98557
1.00506 1.00074 0.985012
1.0007 1.0018 0.99157
1.0025 1.00284 0.987526
1.00389 1.00222 0.985717
0.99991 0.999317 0.998232
1.0004 1.0016 0.9924
1.00162 1.00378 0.98817
0.999818 0.998878 0.998469
1.00004 1.00122 0.993517
0.99975 0.998416 0.9987
1.00394 1.00279 0.985275
1.00246 1.00349 0.987327
1.0015 1.00404 0.988022
1.001 1.00281 0.990171
1.00059 1.00384 0.98971
1.00055 1.00318 0.990683
1.00024 1.00404 0.990089
1.00028 1.00288 0.991377
0.999882 1.00017 0.994769
1.00026 1.0024 0.991869
0.999959 0.99972 0.995052
0.999738 0.998037 0.998851
0.999817 0.997744 0.99892
1.00004 0.999374 0.995246
0.999882 0.997461 0.998996
0.996793 0.994899 0.974339
1.00025 0.995511 0.94454
0.999827 0.995263 0.914223
1.00512 1.00082 0.984777
1.00089 1.00384 0.989845
1.0021 1.00359 0.98769
1.00147 1.00351 0.988511
1.00399 1.00263 0.985069
1.00347 1.0008 0.987393
1.00222 1.00352 0.987353
1.00057 1.00016 0.993159
1.00335 0.999823 0.988867
1.00461 0.995877 0.99078
1.00483 0.996504 0.989062
1.00416 0.995678 0.991776
1.00407 0.996224 0.990544
1.00322 0.996971 0.991221
0.999954 0.997099 0.992532
0.995844 0.99585 0.971028
0.999501 0.996558 0.945026
0.995626 0.99733 0.976545
0.999951 0.996962 0.994287
1.00252 0.995459 0.993959
1.00064 0.997493 0.986999
0.996406 0.996221 0.974958
1.00001 0.994899 0.945696
1.00011 0.996646 0.991036
0.998469 0.996188 0.975486
1.00325 0.995497 0.991365
1.00279 0.997731 0.987945
1.00447 0.994857 0.991249
1.0045 0.997548 0.990702
1.00475 0.995512 0.99028
1.00514 0.994857 0.990499
1.00518 0.994863 0.990414
1.00515 0.995072 0.990001
1.00509 0.994932 0.990532
1.00516 0.994949 0.990501
1.00506 0.995205 0.990315
1.00514 0.995081 0.990388
1.00514 0.995759 0.989778
1.00513 0.995484 0.989914
1.00513 0.996217 0.989338
1.00517 0.997446 0.988191
1.00513 0.996832 0.988911
1.00518 0.998167 0.987577
1.00522 0.999318 0.986345
1.00518 0.999102 0.986563
1.00521 0.999703 0.985991
1.00508 0.999997 0.985843
1.00393 1.00054 0.987301
1.00496 1.00027 0.985701
1.00517 1.00028 0.985412
1.00121 1.00135 0.991172
1.00343 1.00145 0.98726
1.00472 1.0009 0.985572
1.00004 0.999801 0.997917
1.00088 1.00159 0.991556
1.00248 1.00286 0.987533
0.999991 0.999416 0.998108
1.00052 1.0015 0.992391
0.999917 0.998984 0.998329
1.00491 1.00125 0.984767
1.00384 1.00277 0.985276
1.00296 1.0033 0.986311
1.00252 1.00347 0.987352
1.00158 1.00407 0.987987
1.00087 1.00378 0.989565
1.0007 1.00377 0.989595
1.00039 1.00337 0.990689
0.99986 1.00068 0.994301
1.00022 1.00292 0.991382
0.999877 1.00012 0.994789
0.999682 0.998336 0.998766
0.999958 0.999683 0.995066
0.999741 0.997994 0.99887
0.999821 0.997718 0.998937
1.001 0.995002 0.990959
0.996798 0.994896 0.970844
0.999993 0.994937 0.954289
1.00461 0.999883 0.98621
1.00514 0.999428 0.986207
1.00508 1.00068 0.984909
1.00186 1.00341 0.988214
1.00397 1.00271 0.985059
1.00379 1.00063 0.987338
1.00505 0.997425 0.987929
1.00382 0.999564 0.988752
1.00443 0.995552 0.990686
1.00487 0.996542 0.989288
1.00499 0.995771 0.989711
1.00418 0.995439 0.991637
1.00394 0.99584 0.991628
1.00422 0.995987 0.990435
1.00019 0.997001 0.992666
0.99597 0.995796 0.969232
1.00029 0.996657 0.996435
1.00413 0.995676 0.992003
1.00049 0.997718 0.987179
0.996359 0.995787 0.972691
1.00315 0.99487 0.99166
1.00279 0.997715 0.988407
1.00452 0.99502 0.991579
1.00455 0.996772 0.990651
1.00521 0.994937 0.990395
1.00526 0.994991 0.990592
1.00515 0.994863 0.990379
1.00519 0.994884 0.990398
1.00519 0.994934 0.990369
1.00508 0.99493 0.99052
1.00515 0.994952 0.990469
1.00517 0.995376 0.990165
1.00513 0.995071 0.990352
1.00515 0.995778 0.989768
1.00516 0.996872 0.988775
1.00515 0.996231 0.989327
1.00517 0.997465 0.988193
1.00523 0.998903 0.986713
1.00518 0.998032 0.987752
1.00522 0.999258 0.986417
1.00514 0.999878 0.985863
1.00521 0.999717 0.985951
1.00507 0.999993 0.985846
1.00414 1.00018 0.987303
1.00148 1.00078 0.991218
1.00392 1.00057 0.987293
1.00496 1.00035 0.985721
1.00013 1.00016 0.997692
1.00126 1.00128 0.991172
1.00335 1.00154 0.987268
1.0001 0.999904 0.997817
1.00098 1.00149 0.991548
1.00007 0.999531 0.997988
1.00511 1.00029 0.985396
1.00493 1.00116 0.984785
1.00429 1.0016 0.985627
1.00375 1.00275 0.985277
1.00295 1.00333 0.986319
1.00163 1.00376 0.988203
1.00164 1.0041 0.987952
1.00072 1.00392 0.989594
1.00004 1.0013 0.993427
1.00027 1.00352 0.990696
0.99984 1.00064 0.994321
0.999669 0.99873 0.998603
0.999876 1.00007 0.99481
0.999674 0.998277 0.998801
0.999746 0.997957 0.998887
1.00408 0.994893 0.992524
1.00099 0.995057 0.989293
0.996572 0.994894 0.970459
1.00509 0.998532 0.987225
1.00488 0.999545 0.986226
1.00521 0.998216 0.987325
1.00515 0.999404 0.986225
1.00503 1.00052 0.985043
1.00512 0.996595 0.988686
1.00413 1.00045 0.987283
1.00503 0.997649 0.987877
1.00514 0.99526 0.989966
1.00492 0.99658 0.989517
1.00496 0.995851 0.989603
1.00418 0.995548 0.991758
1.00351 0.995908 0.991472
1.00038 0.996936 0.992725
1.0052 0.994901 0.990457
1.00412 0.996302 0.992053
1.00041 0.997578 0.987345
1.00456 0.995175 0.991903
1.00458 0.995975 0.990606
1.00521 0.994918 0.990442
1.00525 0.995018 0.990501
1.00521 0.994945 0.990582
1.00519 0.9949 0.990382
1.00519 0.994933 0.990392
1.0052 0.995063 0.990451
1.00515 0.994952 0.990437
1.00516 0.99538 0.990109
1.00516 0.996444 0.989181
1.00516 0.995795 0.989758
1.00516 0.996897 0.988774
1.00523 0.998505 0.987124
1.00517 0.997483 0.988195
1.00523 0.998904 0.986734
1.00517 0.999808 0.985905
1.00522 0.999197 0.986489
1.00513 0.999881 0.98588
1.00426 1.00006 0.987226
1.00506 0.999988 0.98585
1.00414 1.00019 0.987296
1.00156 1.0004 0.992794
1.00033 1.00005 0.9949
1.00154 1.00073 0.991902
1.00389 1.0006 0.987286
1.00016 1.00022 0.997647
1.00138 1.00111 0.991168
1.00015 1.00001 0.997724
1.00523 0.998127 0.987445
1.00521 0.999398 0.986189
1.00513 1.00029 0.985476
1.00481 1.00057 0.985736
1.00495 1.00108 0.984802
1.00434 1.00153 0.985605
1.00279 1.0024 0.987419
1.00294 1.00338 0.986328
1.00156 1.00382 0.988208
1.00047 1.0018 0.992207
1.00057 1.00408 0.989621
0.999937 1.00134 0.993458
0.999727 0.999302 0.998292
0.999823 1.00059 0.994341
0.999637 0.998639 0.998672
0.999672 0.998221 0.99883
1.00519 0.994922 0.990358
1.00443 0.994883 0.992496
1.00124 0.994901 0.98767
1.00513 0.997172 0.988235
1.0051 0.998487 0.98707
1.00512 0.999226 0.986243
1.0052 0.998331 0.987285
1.00515 0.999385 0.986243
1.00519 0.995582 0.989929
1.0051 0.996594 0.988638
1.00502 0.997885 0.987826
1.00514 0.995256 0.989971
1.00496 0.99595 0.989494
1.00421 0.995722 0.991903
1.00519 0.994915 0.990695
1.0052 0.994902 0.990609
1.00412 0.996936 0.992109
1.0052 0.994899 0.990483
1.00525 0.994964 0.990411
1.00521 0.994947 0.99053
1.00519 0.994932 0.990751
1.00519 0.994931 0.990414
1.00519 0.995044 0.990412
1.00516 0.996181 0.989494
1.00516 0.995387 0.990053
1.00517 0.996462 0.989184
1.00523 0.998191 0.987466
1.00516 0.996922 0.988773
1.00523 0.998507 0.987136
1.00519 0.999698 0.986002
1.00522 0.998904 0.986756
1.00517 0.999803 0.985923
1.00431 1.00006 0.987119
1.00513 0.999885 0.985898
1.00427 1.00005 0.987225
1.0017 1.0001 0.992895
1.00414 1.00019 0.987288
1.00172 1.00031 0.99272
1.00032 0.999992 0.995036
1.00014 1.00029 0.996284
1.00171 1.00066 0.992461
1.00016 1.00031 0.997616
1.00517 0.997517 0.988187
1.00524 0.999051 0.986449
1.00523 0.997943 0.98762
1.005 1.00006 0.985874
1.00522 0.999466 0.986131
1.00515 1.00028 0.985555
1.00484 1.00052 0.985717
1.00366 1.00102 0.987275
1.0044 1.00147 0.985583
1.00284 1.00234 0.987402
1.00096 1.00172 0.991318
1.00148 1.00389 0.988213
1.00028 1.00195 0.992238
0.999855 1.00005 0.997883
0.999824 1.00139 0.993486
0.999654 0.999184 0.998422
0.99962 0.998551 0.998729
1.00519 0.994961 0.990412
1.00518 0.994939 0.990344
1.00468 0.994897 0.992435
1.00517 0.9963 0.989294
1.00512 0.997232 0.988222
1.00511 0.998445 0.986914
1.00518 0.998449 0.987246
1.00518 0.995592 0.989838
1.00508 0.996599 0.98859
1.00513 0.995257 0.989977
1.00515 0.994938 0.9908
1.00518 0.994922 0.990684
1.00519 0.994907 0.99076
1.00522 0.994982 0.990515
1.00521 0.994951 0.990478
1.00518 0.995001 0.990663
1.00516 0.995929 0.989867
1.00517 0.995027 0.990373
1.00518 0.996152 0.989497
1.0052 0.997986 0.98776
1.00517 0.996485 0.989187
1.00523 0.998193 0.98747
1.0052 0.999544 0.986168
1.00523 0.99851 0.987149
1.00519 0.999688 0.986015
1.00436 1.00006 0.987038
1.00516 0.999796 0.98594
1.00432 1.00005 0.987126
1.00178 1.00003 0.992842
1.00428 1.00003 0.987222
1.00183 1.00005 0.992796
1.00038 0.999887 0.995072
1.00187 1.00021 0.992654
1.00004 1.00015 0.995212
0.99973 1.00056 0.997919
1.00518 0.997426 0.988167
1.00522 0.998566 0.987074
1.00518 0.997569 0.988043
1.00517 0.999749 0.986143
1.00525 0.998873 0.986602
1.00522 0.997761 0.987793
1.00409 1.00033 0.987219
1.00503 1.00003 0.985844
1.00524 0.999532 0.986073
1.00486 1.00047 0.985699
1.00368 1.00097 0.987277
1.00133 1.00121 0.991135
1.00289 1.00228 0.987384
1.00086 1.00185 0.991322
0.99992 1.00062 0.99764
1.00013 1.00206 0.992267
0.999749 0.999889 0.998044
0.999604 0.99903 0.998534
1.00517 0.995479 0.990115
1.0052 0.994954 0.990427
1.00518 0.99495 0.990329
1.00517 0.996198 0.989372
1.00511 0.997287 0.988209
1.00517 0.995598 0.989748
1.00519 0.995056 0.990627
1.00516 0.994941 0.990809
1.00519 0.994929 0.990674
1.00523 0.99498 0.990629
1.00523 0.996111 0.989554
1.00517 0.995075 0.990576
1.00518 0.996087 0.989662
1.00516 0.997638 0.988255
1.0052 0.996118 0.989499
1.00519 0.997965 0.987761
1.00519 0.999358 0.986379
1.00523 0.998185 0.987473
1.00519 0.999532 0.986177
1.0044 1.00001 0.987025
1.00519 0.999677 0.986029
1.00436 1.00005 0.987048
1.00183 1.0001 0.992672
1.00434 1.00003 0.987132
1.0019 0.999986 0.992723
1.00044 0.99988 0.994989
1.00194 1 0.992707
1.00013 0.999942 0.99527
0.99977 1.00033 0.995373
1.00518 0.996727 0.98898
1.00521 0.998427 0.987211
1.00518 0.997234 0.988334
1.00519 0.999392 0.986444
1.00521 0.998655 0.986967
1.00518 0.997621 0.987899
1.00431 0.999933 0.987219
1.00517 0.999631 0.986116
1.00526 0.998698 0.986756
1.00152 1.00066 0.991311
1.00409 1.00032 0.98723
1.00506 1.00001 0.985814
1.00371 1.00092 0.987281
1.00126 1.0013 0.991138
0.999942 1.0008 0.997607
1.00074 1.00197 0.991334
0.999884 1.00046 0.997713
0.999656 0.99971 0.998198
1.00518 0.995345 0.990255
1.00517 0.99552 0.990069
1.00519 0.99495 0.990443
1.00517 0.9961 0.989449
1.00521 0.996302 0.989463
1.00521 0.995063 0.990653
1.00516 0.994945 0.990819
1.00524 0.99496 0.990744
1.00521 0.996071 0.989613
1.00518 0.997667 0.988187
1.0052 0.99624 0.989456
1.00515 0.997829 0.988007
1.00517 0.998998 0.986801
1.00519 0.997954 0.987762
1.00518 0.999353 0.986386
1.00441 0.999935 0.987064
1.00519 0.999528 0.986186
1.00439 1.00001 0.987033
1.00191 1.00016 0.991181
1.00437 1.00005 0.987058
1.00194 1.00007 0.991892
1.00037 0.999934 0.997602
1.00201 0.999959 0.992606
1.00022 0.999868 0.995199
0.999893 0.999994 0.995451
1.00518 0.996337 0.98943
1.0052 0.998113 0.98763
1.00518 0.996809 0.988943
1.00519 0.999187 0.986479
1.0052 0.998431 0.98721
1.00518 0.997039 0.988501
1.00437 0.999718 0.987115
1.00519 0.999397 0.986451
1.00521 0.99874 0.986861
1.0017 1.00014 0.991505
1.0043 0.999892 0.987143
1.00517 0.999505 0.986089
1.00002 1.00064 0.997657
1.00151 1.00067 0.991321
1.00408 1.0003 0.98724
1.0012 1.00136 0.991144
0.999944 1.0007 0.997606
0.999792 1.00036 0.997819
1.00518 0.996181 0.989565
1.00518 0.995431 0.990227
1.00517 0.995558 0.990022
1.0052 0.997709 0.988059
1.0052 0.996189 0.989538
1.00522 0.995074 0.990679
1.0052 0.996037 0.989672
1.00518 0.997648 0.988194
1.00516 0.998925 0.987059
1.00515 0.998017 0.98776
1.00517 0.99914 0.986713
1.00441 0.999738 0.987103
1.00518 0.999341 0.986394
1.00441 0.999932 0.98707
1.00192 1.00014 0.991168
1.0044 1.00001 0.987042
1.00192 1.00015 0.991181
1.00038 0.999976 0.997566
1.00197 1.00005 0.991206
1.00028 0.999927 0.996371
0.999994 0.999833 0.995407
1.00518 0.99656 0.989164
1.0052 0.997945 0.987776
1.00518 0.996319 0.989476
1.00519 0.999234 0.986436
1.0052 0.998168 0.987545
1.00518 0.996895 0.988906
1.00441 0.999646 0.987142
1.00519 0.999302 0.986457
1.0052 0.998437 0.98721
1.00183 0.99989 0.991533
1.00437 0.999717 0.987116
1.0052 0.999404 0.986459
1.00017 1.0003 0.997689
1.00171 1.00012 0.991508
1.0043 0.999852 0.987065
1.00002 1.00059 0.997633
1.00149 1.00066 0.991331
0.999916 1.00065 0.997618
1.00521 0.997539 0.988227
1.00517 0.996261 0.989467
1.00519 0.995518 0.990199
1.00516 0.99882 0.987163
1.0052 0.997619 0.988152
1.00519 0.996079 0.989612
1.00518 0.997633 0.988202
1.00516 0.998929 0.987059
1.00437 0.999643 0.987282
1.00517 0.999285 0.986625
1.00442 0.99979 0.987119
1.00194 1.00006 0.991218
1.00441 0.999927 0.987076
1.00192 1.00014 0.99117
1.00037 1.00001 0.997527
1.00191 1.00014 0.991179
1.00037 0.999989 0.997547
1.00036 0.999884 0.994946
1.00521 0.997841 0.987828
1.00517 0.996376 0.989329
1.0052 0.999125 0.986567
1.00521 0.997952 0.987762
1.00517 0.996298 0.989521
1.00442 0.999694 0.987303
1.00519 0.999244 0.986431
1.0052 0.998221 0.987461
1.00192 0.999866 0.991414
1.00441 0.999687 0.987193
1.00519 0.99942 0.986434
1.00032 1.00005 0.997648
1.00184 0.999882 0.991535
1.00436 0.999708 0.987117
1.00015 1.00032 0.997678
1.00172 1.0001 0.991509
1.00001 1.00057 0.997615
1.00518 0.998794 0.98714
1.00521 0.997616 0.988136
1.00517 0.996343 0.989369
1.00433 0.999594 0.987394
1.00516 0.998826 0.987163
1.0052 0.997524 0.988245
1.00516 0.998935 0.987058
1.00438 0.999634 0.987258
1.0019 1.00001 0.991334
1.00442 0.999841 0.987133
1.00193 1.00007 0.991222
1.00039 1.00001 0.997512
1.00192 1.00014 0.991172
1.00037 1.00002 0.997524
1.00038 0.999997 0.997533
1.0052 0.999022 0.986677
1.00522 0.997629 0.98806
1.00516 0.996195 0.989495
1.00439 0.999682 0.987372
1.00519 0.999134 0.986557
1.00521 0.997959 0.987748
1.00194 0.999951 0.991318
1.0044 0.999699 0.987297
1.00519 0.999253 0.986427
1.0004 0.999948 0.997575
1.00192 0.999881 0.991415
1.0044 0.999722 0.987245
1.00028 1.00009 0.997667
1.00184 0.999889 0.991537
1.00015 1.00032 0.997659
1.00433 0.999664 0.987494
1.00518 0.998749 0.987106
1.00521 0.997692 0.988045
1.00186 0.999957 0.991472
1.00434 0.999576 0.987382
1.00516 0.99883 0.987162
1.0044 0.99962 0.987234
1.00191 0.999997 0.991341
1.00038 1.00001 0.997505
1.00191 1.00008 0.991225
1.00038 1.00002 0.997504
1.00036 1.00003 0.99752
1.00436 0.999666 0.987445
1.00519 0.998901 0.986807
1.00522 0.997419 0.988293
1.002 1.00001 0.992551
1.00438 0.99968 0.987372
1.00519 0.999144 0.986547
1.0004 0.999955 0.997526
1.00194 0.99997 0.991319
1.00439 0.999704 0.987292
1.00038 0.999978 0.997604
1.00192 0.999906 0.991416
1.00026 1.0001 0.99768
1.00191 0.999957 0.991424
1.00433 0.999611 0.987449
1.00517 0.998701 0.987073
1.00032 0.999996 0.997542
1.00185 0.999956 0.991471
1.00435 0.99956 0.98737
1.0019 0.999983 0.991345
1.00036 1.00001 0.997516
1.00038 1.00003 0.997504
1.00203 0.999983 0.992567
1.00436 0.999663 0.987445
1.00518 0.998778 0.986936
1.00003 0.999994 0.997885
1.00191 1.00001 0.991334
1.00438 0.999676 0.987373
1.0004 0.999967 0.997549
1.00194 0.999992 0.991319
1.00036 0.999998 0.99763
1.00031 0.999984 0.995
1.00193 0.999955 0.992052
1.00433 0.999559 0.987403
1.00034 0.999996 0.997546
1.00186 0.999957 0.991476
1.00037 1 0.997521
0.999951 1 0.995343
1.00195 0.999978 0.991994
1.00435 0.999663 0.987444
1.00019 0.999991 0.99641
1.00191 1.00001 0.991344
1.0004 0.999977 0.997572
1.00033 0.999989 0.997547
1.00184 0.999953 0.9915
1.00031 0.999995 0.997547
1.00015 0.999988 0.99645
1.00188 0.999976 0.991437
1.00038 0.999981 0.997542
1.00033 0.999986 0.997558
1.00033 0.999985 0.997548

TENSORS stress float
0.00172331 -9.61496e-05 0.000180627
-9.61496e-05 0.000680847 -2.50036e-05
0.000180627 -2.50036e-05 0.00065933
0.00546934 -0.000104791 0.000175302
-0.000104791 0.00293063 1.86132e-05
0.000175302 1.86132e-05 0.00291008
0.00151178 -2.6766e-05 8.37459e-05
-2.6766e-05 0.000562433 -9.77353e-06
8.37459e-05 -9.77353e-06 0.00053175
0.00186009 -5.76148e-05 0.000181315
-5.76148e-05 0.00073629 -1.57549e-05
0.000181315 -1.57549e-05 0.000718631
0.00179906 -8.67201e-05 0.000177978
-8.67201e-05 0.000716089 -2.26154e-05
0.000177978 -2.26154e-05 0.000696144
0.0016742 -9.27882e-05 0.000185566
-9.27882e-05 0.000650326 -2.47233e-05
0.000185566 -2.47233e-05 0.000630518
0.00147757 -7.11276e-05 2.83385e-05
-7.11276e-05 0.000462062 -9.65502e-06
2.83385e-05 -9.65502e-06 0.000378691
0.00539056 -0.000108879 -6.36877e-06
-0.000108879 0.00287283 4.39018e-07
-6.36877e-06 4.39018e-07 0.00285824
0.00543847 6.62675e-05 8.12048e-05
6.62675e-05 0.00286294 4.93173e-06
8.12048e-05 4.93173e-06 0.00284888
0.00518003 -0.000206274 1.77548e-05
-0.000206274 0.00275456 2.95384e-06
1.77548e-05 2.95384e-06 0.00271998
0.00171017 8.85756e-05 0.000181951
8.85756e-05 0.000668964 1.72687e-05
0.000181951 1.72687e-05 0.000659257
0.000623079 0.000186819 2.27338e-05
0.000186819 -2.90004e-05 1.40292e-05
2.27338e-05 1.40292e-05 -0.000121857
0.00165514 -3.27645e-05 0.000190951
-3.27645e-05 0.000610512 2.481e-06
0.000190951 2.481e-06 0.000602056
0.00128091 -1.14022e-05 3.48693e-05
-1.14022e-05 0.000411006 1.07008e-06
3.48693e-05 1.07008e-06 0.000373769
0.00136401 -1.73206e-05 -2.98453e-05
-1.73206e-05 0.000476571 5.4005e-06
-2.98453e-05 5.4005e-06 0.000440465
0.00156829 -6.16402e-05 6.38821e-05
-6.16402e-05 0.000576772 -3.64461e-06
6.38821e-05 -3.64461e-06 0.000548931
0.00151729 -8.47335e-06 9.02774e-05
-8.47335e-06 0.000572671 -9.2648e-06
9.02774e-05 -9.2648e-06 0.000537933
0.00153866 -4.30274e-05 7.48602e-05
-4.30274e-05 0.000565658 -8.59262e-06
7.48602e-05 -8.59262e-06 0.000539173
0.00155013 -0.000112754 -3.11097e-05
-0.000112754 0.000496211 3.12961e-06
-3.11097e-05 3.12961e-06 0.000421384
0.00547337 -0.00011069 0.000227895
-0.00011069 0.00289158 -6.82577e-06
0.000227895 -6.82577e-06 0.00289569
0.0018339 -3.97714e-05 0.000183651
-3.97714e-05 0.000718331 -1.17744e-05
0.000183651 -1.17744e-05 0.000701472
0.0018587 -7.41894e-05 0.000179097
-7.41894e-05 0.000741621 -1.9443e-05
0.000179097 -1.9443e-05 0.000723368
0.0015237 -0.000103671 4.96526e-05
-0.000103671 0.000459152 -7.53677e-06
4.96526e-05 -7.53677e-06 0.000383862
0.00151475 -8.69972e-05 3.76546e-05
-8.69972e-05 0.000464165 -8.83559e-06
3.76546e-05 -8.83559e-06 0.000387863
0.00156451 -6.47115e-05 0.00017756
-6.47115e-05 0.000577372 -2.11612e-05
0.00017756 -2.11612e-05 0.000560628
0.0014613 -5.7257e-05 2.10972e-05
-5.7257e-05 0.000473429 -1.03939e-05
2.10972e-05 -1.03939e-05 0.000381619
0.00202587 -0.000218901 1.37215e-05
-0.000218901 0.00064232 -6.16597e-06
1.37215e-05 -6.16597e-06 0.000499865
0.00531666 -0.000125562 -0.000169454
-0.000125562 0.00282138 -1.05821e-05
-0.000169454 -1.05821e-05 0.00281047
0.00348949 6.96422e-05 -0.00010521
6.96422e-05 0.00171704 -8.63854e-06
-0.00010521 -8.63854e-06 0.00169853
0.00338251 -4.22482e-05 -9.84e-05
-4.22482e-05 0.00167876 -4.83933e-06
-9.84e-05 -4.83933e-06 0.00165355
0.00511044 -0.000155925 5.59713e-06
-0.000155925 0.00271535 -2.89356e-07
5.59713e-06 -2.89356e-07 0.00269683
0.000592532 0.000176241 -2.37669e-06
0.000176241 -4.76531e-05 -6.332e-07
-2.37669e-06 -6.332e-07 -0.000137821
0.00158639 5.34912e-05 0.000184746
5.34912e-05 0.000580504 1.41944e-05
0.000184746 1.41944e-05 0.000564069
0.0017534 0.000126156 0.000187742
0.000126156 0.00070147 2.1202e-05
0.000187742 2.1202e-05 0.000680121
0.00262826 0.000173268 0.000114511
0.000173268 0.00111616 1.44693e-05
0.000114511 1.44693e-05 0.0010508
0.00399039 -0.000256344 9.4252e-07
-0.000256344 0.0020778 4.24358e-06
9.4252e-07 4.24358e-06 0.00203703
0.00267337 0.00021449 0.000113395
0.00021449 0.00116969 1.63724e-05
0.000113395 1.63724e-05 0.00110008
0.000614685 0.00015174 2.6851e-05
0.00015174 -2.84137e-05 1.78787e-05
2.6851e-05 1.78787e-05 -0.000113048
0.000881986 0.000177683 1.03354e-05
0.000177683 3.20133e-05 5.05103e-06
1.03354e-05 5.05103e-06 -0.000128589
0.00317579 -0.000104187 0.000100339
-0.000104187 0.00156019 4.14784e-06
0.000100339 4.14784e-06 0.00156362
0.0055006 6.56857e-05 3.69042e-06
6.56857e-05 0.00289818 -1.32709e-06
3.69042e-06 -1.32709e-06 0.00290741
0.0034561 5.85213e-05 -8.65239e-05
5.85213e-05 0.00169107 -3.14101e-06
-8.65239e-05 -3.14101e-06 0.00167685
0.00540915 5.92301e-05 0.000223978
5.92301e-05 0.00284676 2.48865e-06
0.000223978 2.48865e-06 0.00285586
0.00129349 6.80904e-05 3.82225e-05
6.80904e-05 0.000416009 2.04851e-06
3.82225e-05 2.04851e-06 0.000383114
0.000676252 8.32615e-06 1.62064e-05
8.32615e-06 -6.87762e-05 1.64428e-06
1.62064e-05 1.64428e-06 -0.000141097
0.00533774 0.000186753 0.000114145
0.000186753 0.00282594 9.84945e-06
0.000114145 9.84945e-06 0.00280393
0.00268546 5.55687e-05 0.000111879
5.55687e-05 0.00111682 6.47751e-06
0.000111879 6.47751e-06 0.0010651
0.00121299 -7.3629e-05 -4.87937e-05
-7.3629e-05 0.000382354 6.09658e-06
-4.87937e-05 6.09658e-06 0.00034258
0.00128318 -6.15319e-05 -4.18905e-05
-6.15319e-05 0.000426104 6.34573e-06
-4.18905e-05 6.34573e-06 0.000389431
0.00143063 3.60814e-05 -1.81459e-05
3.60814e-05 0.000523218 5.54147e-06
-1.81459e-05 5.54147e-06 0.000482065
0.00158511 -0.000123795 -9.80534e-05
-0.000123795 0.000510205 1.55325e-05
-9.80534e-05 1.55325e-05 0.000442092
0.00344345 1.09654e-05 -9.18058e-05
1.09654e-05 0.00169024 -1.8004e-06
-9.18058e-05 -1.8004e-06 0.00167351
0.00156097 -4.54426e-05 7.07048e-05
-4.54426e-05 0.000567596 -3.06866e-06
7.07048e-05 -3.06866e-06 0.000541536
0.00145803 1.5978e-05 9.28416e-05
1.5978e-05 0.000540254 -7.24331e-06
9.28416e-05 -7.24331e-06 0.000504179
0.00156203 -5.36727e-05 6.81059e-05
-5.36727e-05 0.000572732 -6.13559e-06
6.81059e-05 -6.13559e-06 0.000547091
0.00157642 -8.61677e-05 -2.51315e-05
-8.61677e-05 0.000483394 1.1082e-06
-2.51315e-05 1.1082e-06 0.000415009
0.00154115 -0.000104026 -3.61442e-05
-0.000104026 0.000505012 3.24006e-06
-3.61442e-05 3.24006e-06 0.000425283
0.00157071 -0.000111729 -2.65635e-05
-0.000111729 0.000494711 2.30613e-06
-2.65635e-05 2.30613e-06 0.000423534
0.00202238 -0.00021704 -6.90746e-06
-0.00021704 0.000638423 1.85315e-06
-6.90746e-06 1.85315e-06 0.000496217
0.00536952 4.16284e-05 0.000217714
4.16284e-05 0.00282339 -1.50998e-07
0.000217714 -1.50998e-07 0.00283308
0.00180624 -2.11524e-05 0.000183723
-2.11524e-05 0.000704131 -8.04789e-06
0.000183723 -8.04789e-06 0.000688791
0.00241282 2.06694e-05 3.41971e-05
2.06694e-05 0.000972707 -9.37302e-07
3.41971e-05 -9.37302e-07 0.000912591
0.00152547 -8.32226e-05 4.31691e-05
-8.32226e-05 0.000451923 -5.13025e-06
4.31691e-05 -5.13025e-06 0.000380348
0.00152117 -9.67223e-05 4.50008e-05
-9.67223e-05 0.000459162 -8.23391e-06
4.50008e-05 -8.23391e-06 0.000384865
0.00191942 -0.000133503 1.14566e-05
-0.000133503 0.000528052 -2.94515e-06
1.14566e-05 -2.94515e-06 0.00040415
0.00166631 -0.000175986 1.54293e-05
-0.000175986 0.00040647 -5.56366e-06
1.54293e-05 -5.56366e-06 0.000270733
0.00114565 -2.29862e-05 0.000138005
-2.29862e-05 0.000333537 -1.48132e-05
0.000138005 -1.48132e-05 0.000321272
0.00127697 -1.06439e-05 1.23106e-05
-1.06439e-05 0.000388219 -1.07409e-05
1.23106e-05 -1.07409e-05 0.000296511
0.00196954 -0.000234526 1.28107e-05
-0.000234526 0.000635652 -6.3144e-06
1.28107e-05 -6.3144e-06 0.00048441
0.00124503 -0.000209927 7.80031e-06
-0.000209927 7.72494e-05 -2.51078e-06
7.80031e-06 -2.51078e-06 -9.63739e-05
0.00567738 0.000138498 -0.000230136
0.000138498 0.00300454 -1.88526e-05
-0.000230136 -1.88526e-05 0.00300707
0.00474797 -0.000194206 -0.000125966
-0.000194206 0.00251331 -9.296e-06
-0.000125966 -9.296e-06 0.00248887
0.00543064 -4.73961e-05 -0.000192197
-4.73961e-05 0.00287368 -1.26664e-05
-0.000192197 -1.26664e-05 0.0028728
0.000547619 0.000172115 -2.36263e-05
0.000172115 -7.10941e-05 -1.44239e-05
-2.36263e-05 -1.44239e-05 -0.000161599
0.00568972 0.000159124 -3.02278e-06
0.000159124 0.0030109 -1.8388e-06
-3.02278e-06 -1.8388e-06 0.00301295
0.00567981 6.8994e-05 -8.50572e-06
6.8994e-05 0.00301031 -1.1392e-06
-8.50572e-06 -1.1392e-06 0.00301154
0.000533059 0.000120632 -1.87984e-07
0.000120632 -0.000120679 -2.77029e-07
-1.87984e-07 -2.77029e-07 -0.00020688
0.00262572 -0.000126404 -5.59345e-05
-0.000126404 0.0012488 -1.68641e-06
-5.59345e-05 -1.68641e-06 0.00122234
0.00053167 0.000175848 -6.53076e-07
0.000175848 -8.74677e-05 -2.8318e-07
-6.53076e-07 -2.8318e-07 -0.0001793
0.00152842 0.000126308 3.74059e-05
0.000126308 0.000522312 7.75954e-07
3.74059e-05 7.75954e-07 0.000449284
0.000892365 0.000175626 5.97065e-08
0.000175626 3.47096e-05 1.18469e-09
5.97065e-08 1.18469e-09 -0.000125303
0.003767 -0.000109404 0.000126339
-0.000109404 0.00190922 6.62215e-06
0.000126339 6.62215e-06 0.00190972
0.000632743 -3.46582e-05 3.45376e-06
-3.46582e-05 4.25454e-05 8.21431e-06
3.45376e-06 8.21431e-06 1.54035e-06
0.000652394 9.01671e-05 1.7136e-05
9.01671e-05 -7.04781e-05 8.53358e-06
1.7136e-05 8.53358e-06 -0.00015201
0.000689727 0.000144726 2.18924e-05
0.000144726 -1.47067e-05 1.4694e-05
2.18924e-05 1.4694e-05 -0.000105931
0.000985364 0.000144714 1.34824e-05
0.000144714 -7.45841e-06 5.27111e-06
1.34824e-05 5.27111e-06 -0.00015239
0.00240908 5.86145e-05 8.06118e-05
5.86145e-05 0.00106254 1.07956e-05
8.06118e-05 1.07956e-05 0.00101074
0.000943127 0.000171846 1.13645e-05
0.000171846 3.22413e-05 6.28464e-06
1.13645e-05 6.28464e-06 -0.000120951
0.000895425 0.000185742 9.61099e-06
0.000185742 0.000112175 5.1088e-06
9.61099e-06 5.1088e-06 -5.73303e-05
0.00109472 0.000225936 4.87884e-06
0.000225936 8.30582e-05 1.39277e-06
4.87884e-06 1.39277e-06 -0.000113238
0.00272174 -0.000119629 5.5398e-05
-0.000119629 0.00129107 2.2504e-06
5.5398e-05 2.2504e-06 0.00129087
0.00300523 -0.000134269 1.10949e-05
-0.000134269 0.00146491 -3.69177e-07
1.10949e-05 -3.69177e-07 0.00146063
0.00564061 2.09369e-05 -0.000223978
2.09369e-05 0.00297472 -9.26039e-06
-0.000223978 -9.26039e-06 0.00298259
0.0055469 5.60825e-05 -0.000228576
5.60825e-05 0.00292311 -5.47267e-06
-0.000228576 -5.47267e-06 0.00293309
0.00547742 8.26499e-05 -1.78997e-07
8.26499e-05 0.00289298 -2.5511e-06
-1.78997e-07 -2.5511e-06 0.00289801
0.00342121 1.15196e-05 -0.000100624
1.15196e-05 0.00166888 -3.88139e-06
-0.000100624 -3.88139e-06 0.00165779
0.00165585 3.16386e-05 4.78531e-05
3.16386e-05 0.000510876 9.10111e-07
4.78531e-05 9.10111e-07 0.00045033
0.00352668 0.000105164 -8.81354e-05
0.000105164 0.0017361 -4.39613e-06
-8.81354e-05 -4.39613e-06 0.00171793
0.00169098 7.45933e-05 4.69578e-05
7.45933e-05 0.00053382 1.78388e-06
4.69578e-05 1.78388e-06 0.00046851
0.00544549 0.000140341 0.00022675
0.000140341 0.00288442 5.53059e-06
0.00022675 5.53059e-06 0.00288323
0.000603042 9.85364e-06 1.83566e-05
9.85364e-06 -0.000108739 4.59184e-07
1.83566e-05 4.59184e-07 -0.000179355
0.0027062 2.34325e-05 0.000112106
2.34325e-05 0.00112789 4.29926e-06
0.000112106 4.29926e-06 0.00107889
0.00102596 3.44208e-05 1.24034e-05
3.44208e-05 -1.78999e-05 1.21623e-06
1.24034e-05 1.21623e-06 -0.000138772
0.00261124 9.79547e-05 0.000113774
9.79547e-05 0.00108122 8.26696e-06
0.000113774 8.26696e-06 0.00102584
0.00104584 8.18991e-05 1.2117e-05
8.18991e-05 -5.15588e-06 2.47032e-06
1.2117e-05 2.47032e-06 -0.000134447
0.00165731 4.10331e-05 -0.000188958
4.10331e-05 0.000613534 1.61592e-06
-0.000188958 1.61592e-06 0.000605424
0.00126244 1.26483e-06 -3.56428e-05
1.26483e-06 0.000402402 1.69874e-06
-3.56428e-05 1.69874e-06 0.000366217
0.00141147 9.03993e-05 -7.1942e-06
9.03993e-05 0.000531252 6.85416e-06
-7.1942e-06 6.85416e-06 0.000479599
0.00122727 -7.47e-05 -4.94968e-05
-7.47e-05 0.000391675 6.79844e-06
-4.94968e-05 6.79844e-06 0.000353576
0.00169181 -6.6033e-05 -9.74061e-05
-6.6033e-05 0.000543649 8.30819e-06
-9.74061e-05 8.30819e-06 0.000482782
0.00163426 -0.000105855 -9.68111e-05
-0.000105855 0.000525705 1.35838e-05
-9.68111e-05 1.35838e-05 0.000461287
0.00155335 -0.000129044 -9.93459e-05
-0.000129044 0.000502446 1.59387e-05
-9.93459e-05 1.59387e-05 0.000430871
0.00202244 -0.000215651 -2.62249e-05
-0.000215651 0.000637177 9.36122e-06
-2.62249e-05 9.36122e-06 0.000495203
0.0054519 -8.47711e-05 2.031e-06
-8.47711e-05 0.00287876 -1.43807e-06
2.031e-06 -1.43807e-06 0.00288345
0.0015089 4.44474e-05 7.91897e-05
4.44474e-05 0.000536049 -2.81843e-06
7.91897e-05 -2.81843e-06 0.00051274
0.001132 -1.04646e-06 -5.06918e-05
-1.04646e-06 0.000206481 9.19951e-07
-5.06918e-05 9.19951e-07 0.000144615
0.00158606 -5.07207e-05 -2.91375e-05
-5.07207e-05 0.000482877 1.5887e-06
-2.91375e-05 1.5887e-06 0.000416937
0.00297202 4.41007e-05 0.000145853
4.41007e-05 0.00143715 -3.30363e-06
0.000145853 -3.30363e-06 0.00142569
0.00193171 -7.81396e-05 -3.23002e-05
-7.81396e-05 0.000757311 3.53701e-07
-3.23002e-05 3.53701e-07 0.000676787
0.00157926 -0.000101402 -2.44526e-05
-0.000101402 0.000490636 1.55092e-06
-2.44526e-05 1.55092e-06 0.000421451
0.0018205 -0.000127137 -8.6612e-06
-0.000127137 0.000468102 1.50869e-06
-8.6612e-06 1.50869e-06 0.000343736
0.00198741 -0.000236147 -5.65324e-06
-0.000236147 0.000645476 1.84847e-06
-5.65324e-06 1.84847e-06 0.000494015
0.00185232 -0.00018371 -4.32996e-06
-0.00018371 0.000515494 1.05117e-06
-4.32996e-06 1.05117e-06 0.000380301
0.00126089 -0.000211303 2.79326e-07
-0.000211303 8.43823e-05 -1.22587e-07
2.79326e-07 -1.22587e-07 -8.91914e-05
0.000639669 1.29182e-05 1.88727e-05
1.29182e-05 -8.9064e-05 -1.16955e-06
1.88727e-05 -1.16955e-06 -0.000156559
0.00147488 1.5646e-05 3.43735e-05
1.5646e-05 0.000417947 -2.53761e-06
3.43735e-05 -2.53761e-06 0.000351254
0.00163784 -3.15616e-05 1.27794e-05
-3.15616e-05 0.000348136 -1.04966e-06
1.27794e-05 -1.04966e-06 0.000236187
0.0016455 -9.92903e-05 1.25461e-05
-9.92903e-05 0.000359372 -2.36181e-06
1.25461e-05 -2.36181e-06 0.00023777
0.0016313 -0.000148621 1.42811e-05
-0.000148621 0.00036838 -4.22995e-06
1.42811e-05 -4.22995e-06 0.000238508
0.00171667 -0.000160543 1.85317e-06
-0.000160543 0.000266132 -7.26919e-07
1.85317e-06 -7.26919e-07 0.000118305
0.00414542 0.000160284 0.000114599
0.000160284 0.00214871 -5.77562e-06
0.000114599 -5.77562e-06 0.00213495
0.0012886 -0.000194072 6.4872e-06
-0.000194072 7.23893e-05 -2.081e-06
6.4872e-06 -2.081e-06 -9.2872e-05
0.000343659 -7.91562e-05 1.41909e-05
-7.91562e-05 -0.000164012 -1.3281e-05
1.41909e-05 -1.3281e-05 -0.000232724
0.000861586 -0.000176789 9.69973e-06
-0.000176789 2.53779e-05 -6.9561e-06
9.69973e-06 -6.9561e-06 -0.000134756
0.00131255 -0.000235543 9.00065e-06
-0.000235543 0.000149734 -2.89695e-06
9.00065e-06 -2.89695e-06 -3.57811e-05
0.00151521 -0.000270202 3.96481e-06
-0.000270202 0.000132141 3.34617e-07
3.96481e-06 3.34617e-07 -5.53813e-05
0.000419999 -1.87333e-05 7.58164e-06
-1.87333e-05 -9.40564e-05 -1.07932e-05
7.58164e-06 -1.07932e-05 -0.000147748
0.000690598 -3.43473e-05 1.02213e-06
-3.43473e-05 7.09259e-05 -4.29577e-06
1.02213e-06 -4.29577e-06 -4.17564e-05
0.00570911 0.000174654 -0.000241994
0.000174654 0.00302617 -1.95349e-05
-0.000241994 -1.95349e-05 0.0030263
0.00553066 5.04009e-05 -0.000209496
5.04009e-05 0.00292165 -1.57151e-05
-0.000209496 -1.57151e-05 0.00292584
0.000531914 0.000113667 -1.81435e-05
0.000113667 -0.000123051 -1.01816e-05
-1.81435e-05 -1.01816e-05 -0.000209043
0.00405377 -0.000165702 -0.000110521
-0.000165702 0.00209335 -5.25512e-06
-0.000110521 -5.25512e-06 0.00208019
0.000442598 0.000115275 -1.85438e-05
0.000115275 -0.000120935 -1.3911e-05
-1.85438e-05 -1.3911e-05 -0.000194933
0.000484587 0.000160668 -2.02691e-05
0.000160668 -0.000110821 -1.34381e-05
-2.02691e-05 -1.34381e-05 -0.000204304
0.00092203 0.000176319 -1.17272e-05
0.000176319 4.87351e-05 -5.22597e-06
-1.17272e-05 -5.22597e-06 -0.000111079
0.00358101 -0.000129831 7.53077e-06
-0.000129831 0.00180535 -4.44644e-07
7.53077e-06 -4.44644e-07 0.00180191
0.00052863 -4.59218e-05 2.50449e-07
-4.59218e-05 -1.46986e-05 4.77475e-07
2.50449e-07 4.77475e-07 -5.635e-05
0.00165355 0.000117223 4.7087e-05
0.000117223 0.000523702 3.06567e-06
4.7087e-05 3.06567e-06 0.000451971
0.00159696 0.000165974 4.53466e-05
0.000165974 0.00052481 2.76391e-06
4.53466e-05 2.76391e-06 0.000444212
0.000985283 0.000146548 1.68737e-07
0.000146548 -5.18882e-06 -2.25825e-07
1.68737e-07 -2.25825e-07 -0.00015083
0.000622015 5.54813e-05 -6.64719e-07
5.54813e-05 8.75793e-06 1.83891e-07
-6.64719e-07 1.83891e-07 -5.28951e-05
0.000938197 0.000172036 4.85855e-07
0.000172036 2.9734e-05 3.209e-07
4.85855e-07 3.209e-07 -0.000123493
0.00085877 0.000173641 8.02168e-07
0.000173641 8.71071e-05 -1.42559e-06
8.02168e-07 -1.42559e-06 -8.0153e-05
0.000915545 0.000213433 -7.43237e-07
0.000213433 -2.32196e-05 7.00303e-07
-7.43237e-07 7.00303e-07 -0.000218307
0.000672832 1.38496e-05 9.777e-06
1.38496e-05 5.40821e-05 9.89946e-06
9.777e-06 9.89946e-06 3.16322e-06
0.000599105 -6.4233e-05 -1.79031e-07
-6.4233e-05 2.55897e-05 6.64354e-06
-1.79031e-07 6.64354e-06 -9.28702e-06
0.000775788 5.89015e-05 3.25463e-06
5.89015e-05 0.000132878 4.50831e-06
3.25463e-06 4.50831e-06 2.32905e-05
0.00102432 0.000124866 1.29693e-05
0.000124866 -1.99156e-06 4.28681e-06
1.29693e-05 4.28681e-06 -0.000141724
0.000942075 0.00016091 1.28608e-05
0.00016091 -1.82745e-06 6.03664e-06
1.28608e-05 6.03664e-06 -0.00015164
0.00132549 0.000208399 6.09868e-06
0.000208399 7.94977e-05 1.69342e-06
6.09868e-06 1.69342e-06 -9.54958e-05
0.000910246 0.000172128 6.8604e-06
0.000172128 0.000179907 7.17966e-06
6.8604e-06 7.17966e-06 2.08398e-05
0.00109848 0.000217536 5.39099e-06
0.000217536 4.32921e-05 2.74234e-06
5.39099e-06 2.74234e-06 -0.000143855
0.00131058 0.000252188 5.7178e-06
0.000252188 0.000280711 6.25423e-07
5.7178e-06 6.25423e-07 6.25772e-05
0.00152079 0.000275392 3.60774e-07
0.000275392 0.000283319 1.11634e-07
3.60774e-07 1.11634e-07 7.35959e-05
0.00248964 -0.000113863 3.32656e-05
-0.000113863 0.00114846 2.91197e-06
3.32656e-05 2.91197e-06 0.00114943
0.00261112 -0.000127717 5.45026e-06
-0.000127717 0.00122792 -5.00855e-07
5.45026e-06 -5.00855e-07 0.00122505
0.00282203 -0.000145713 -4.34444e-05
-0.000145713 0.00136027 -2.46357e-06
-4.34444e-05 -2.46357e-06 0.00135228
0.000419944 -2.05471e-06 5.35037e-06
-2.05471e-06 -8.84484e-05 -9.10191e-06
5.35037e-06 -9.10191e-06 -0.00013558
0.00376018 0.000141393 0.000100532
0.000141393 0.00191495 -4.72878e-06
0.000100532 -4.72878e-06 0.00190661
0.0057004 0.000167927 -0.000244276
0.000167927 0.00302129 -1.73521e-05
-0.000244276 -1.73521e-05 0.00302216
0.00554385 5.96695e-05 -0.00022543
5.96695e-05 0.00291953 -7.65043e-06
-0.00022543 -7.65043e-06 0.002929
0.000623991 8.60758e-05 -1.95053e-05
8.60758e-05 -9.50118e-05 -4.58398e-06
-1.95053e-05 -4.58398e-06 -0.00017085
0.000603762 3.84723e-05 -1.90718e-05
3.84723e-05 -0.000106307 -2.22428e-06
-1.90718e-05 -2.22428e-06 -0.000179506
0.00541692 -1.77335e-05 -0.000219043
-1.77335e-05 0.0028483 -1.25109e-06
-0.000219043 -1.25109e-06 0.00285905
0.00539074 1.7858e-05 -6.82422e-07
1.7858e-05 0.00283417 -3.38569e-07
-6.82422e-07 -3.38569e-07 0.00284455
0.000586396 6.25514e-07 -1.31721e-07
6.25514e-07 -0.000120511 -7.4116e-08
-1.31721e-07 -7.4116e-08 -0.000189654
0.00164007 3.01138e-05 4.76508e-05
3.01138e-05 0.000500527 1.60053e-06
4.76508e-05 1.60053e-06 0.000439513
0.00100897 3.82185e-05 2.92535e-08
3.82185e-05 -2.81791e-05 -1.3401e-07
2.92535e-08 -1.3401e-07 -0.000149417
0.00059398 7.24783e-05 -4.20177e-07
7.24783e-05 -0.000107874 -2.93402e-07
-4.20177e-07 -2.93402e-07 -0.00018689
0.00101269 8.34871e-05 -9.17312e-08
8.34871e-05 -2.33981e-05 -1.55077e-07
-9.17312e-08 -1.55077e-07 -0.000153222
0.000578745 -2.63455e-05 1.88308e-05
-2.63455e-05 -0.000126665 -8.10176e-07
1.88308e-05 -8.10176e-07 -0.000193581
0.00100819 1.48504e-05 1.2235e-05
1.48504e-05 -2.54323e-05 4.83806e-07
1.2235e-05 4.83806e-07 -0.000144412
0.00101944 5.8251e-05 1.21526e-05
5.8251e-05 -2.20503e-05 1.89212e-06
1.21526e-05 1.89212e-06 -0.000146519
0.00143526 5.71853e-05 1.99133e-06
5.71853e-05 5.2427e-05 1.71632e-07
1.99133e-06 1.71632e-07 -7.59141e-05
0.0010407 0.00010301 1.24236e-05
0.00010301 -2.46197e-06 3.27194e-06
1.24236e-05 3.27194e-06 -0.000136898
0.00146205 0.000125514 2.83333e-06
0.000125514 7.92892e-05 2.95037e-07
2.83333e-06 2.95037e-07 -6.40439e-05
0.00538851 -4.51957e-05 -0.000225456
-4.51957e-05 0.00283579 4.53713e-07
-0.000225456 4.53713e-07 0.00284444
0.00125388 -0.000127237 -3.77226e-05
-0.000127237 0.000403123 3.9045e-06
-3.77226e-05 3.9045e-06 0.000365823
-0.000257977 -1.56177e-06 -1.3016e-05
-1.56177e-06 -0.000612 2.12045e-06
-1.3016e-05 2.12045e-06 -0.000692389
0.00167224 -4.53604e-05 -9.7813e-05
-4.53604e-05 0.00052882 6.002e-06
-9.7813e-05 6.002e-06 0.000468832
0.00451035 0.000322338 9.30979e-06
0.000322338 0.00241555 6.32778e-06
9.30979e-06 6.32778e-06 0.00235344
0.00261208 -0.00016891 -9.96232e-05
-0.00016891 0.00114431 1.60419e-05
-9.96232e-05 1.60419e-05 0.00107247
0.00167611 -8.65127e-05 -9.68643e-05
-8.65127e-05 0.000540082 1.09381e-05
-9.68643e-05 1.09381e-05 0.000478251
0.00169415 -0.000119817 -2.6837e-05
-0.000119817 0.000391713 5.26146e-06
-2.6837e-05 5.26146e-06 0.000267094
0.00202214 -0.000190457 -2.4864e-05
-0.000190457 0.00061506 7.76315e-06
-2.4864e-05 7.76315e-06 0.000480668
0.00202089 -0.000238363 -2.37862e-05
-0.000238363 0.000665645 9.35309e-06
-2.37862e-05 9.35309e-06 0.000513786
0.00127431 -0.000212572 -6.56401e-06
-0.000212572 9.00857e-05 2.09021e-06
-6.56401e-06 2.09021e-06 -8.34447e-05
0.000582697 7.6868e-06 -5.75507e-08
7.6868e-06 -0.000120732 6.20831e-08
-5.75507e-08 6.20831e-08 -0.000189161
0.00159242 -6.33435e-05 -2.86412e-05
-6.33435e-05 0.000486516 3.2164e-07
-2.86412e-05 3.2164e-07 0.000422793
0.00120834 -2.71574e-05 -6.87569e-06
-2.71574e-05 9.54027e-05 3.48646e-07
-6.87569e-06 3.48646e-07 -2.08589e-05
0.00182164 -0.000101072 -5.16125e-06
-0.000101072 0.000461002 7.77736e-07
-5.16125e-06 7.77736e-07 0.000340823
0.00424917 0.000149204 -5.99391e-06
0.000149204 0.0022077 -8.3311e-07
-5.99391e-06 -8.3311e-07 0.00219571
0.00148752 -7.16879e-05 -2.46517e-06
-7.16879e-05 0.000519067 -3.13057e-08
-2.46517e-06 -3.13057e-08 0.000439193
0.00131101 -0.00020108 1.08034e-06
-0.00020108 0.000299109 -1.10601e-06
1.08034e-06 -1.10601e-06 0.000139319
0.00165798 -0.000148315 -5.54723e-06
-0.000148315 0.000383706 1.21324e-06
-5.54723e-06 1.21324e-06 0.000253864
0.00156465 -0.000156553 -2.45836e-06
-0.000156553 0.000175012 4.85744e-07
-2.45836e-06 4.85744e-07 2.76774e-05
0.00124333 -0.000232023 4.09194e-07
-0.000232023 0.000108722 -1.96817e-08
4.09194e-07 -1.96817e-08 -7.75041e-05
0.00149317 -0.000203752 3.18429e-07
-0.000203752 0.000189679 -1.69597e-07
3.18429e-07 -1.69597e-07 2.5082e-05
0.00152668 -0.000269517 6.25709e-07
-0.000269517 0.00014363 -1.75903e-08
6.25709e-07 -1.75903e-08 -4.31396e-05
0.000515226 -2.48339e-05 -7.85221e-07
-2.48339e-05 -4.08799e-05 1.38084e-07
-7.85221e-07 1.38084e-07 -9.50528e-05
0.000660827 -5.36216e-05 -5.35295e-07
-5.36216e-05 5.25001e-05 -1.76851e-08
-5.35295e-07 -1.76851e-08 -6.25115e-05
0.000998385 -1.28807e-05 1.21671e-05
-1.28807e-05 -2.75883e-05 -8.61774e-07
1.21671e-05 -8.61774e-07 -0.000145595
0.00166915 -6.04495e-05 1.21214e-05
-6.04495e-05 0.000367387 -1.62805e-06
1.21214e-05 -1.62805e-06 0.000251892
0.00167287 -4.97758e-05 1.01417e-06
-4.97758e-05 0.000210648 2.73979e-08
1.01417e-06 2.73979e-08 8.47031e-05
0.00145125 -0.000123179 3.1196e-06
-0.000123179 9.33676e-05 -2.95815e-07
3.1196e-06 -2.95815e-07 -4.55675e-05
0.00167315 -0.000193621 3.81737e-06
-0.000193621 0.000269276 -9.58153e-07
3.81737e-06 -9.58153e-07 0.000114221
0.00171735 -0.000194238 -7.18214e-07
-0.000194238 0.000143162 4.89305e-07
-7.18214e-07 4.89305e-07 2.85773e-06
0.00037487 -5.12811e-05 1.12385e-05
-5.12811e-05 -0.000131115 -1.21475e-05
1.12385e-05 -1.21475e-05 -0.000191477
0.00159077 -0.000251786 1.92792e-06
-0.000251786 0.000140923 4.60281e-07
1.92792e-06 4.60281e-07 -2.91664e-05
0.000693784 -0.000149304 5.22044e-06
-0.000149304 1.29355e-05 -7.2595e-06
5.22044e-06 -7.2595e-06 -0.000145833
0.000993326 -0.000231078 9.74401e-06
-0.000231078 1.55824e-05 -3.41058e-06
9.74401e-06 -3.41058e-06 -0.000184073
0.00175245 -0.000311576 3.58805e-06
-0.000311576 0.000319252 -3.62316e-08
3.58805e-06 -3.62316e-08 0.000110316
0.00186556 -0.000307542 -1.71172e-06
-0.000307542 0.000278907 3.27111e-06
-1.71172e-06 3.27111e-06 0.000102152
0.00076421 -9.61192e-05 2.77309e-06
-9.61192e-05 0.000110739 -4.65802e-06
2.77309e-06 -4.65802e-06 -2.14116e-05
0.000625389 -2.0217e-05 5.94121e-07
-2.0217e-05 3.58366e-05 -3.69277e-06
5.94121e-07 -3.69277e-06 -6.41136e-05
0.000997613 -0.000151094 1.47421e-07
-0.000151094 0.000265709 8.13581e-08
1.47421e-07 8.13581e-08 9.53512e-05
0.000564148 9.26009e-05 -1.76004e-05
9.26009e-05 -0.000117876 -7.73277e-06
-1.76004e-05 -7.73277e-06 -0.000199977
0.00338456 -0.000154658 -7.6543e-05
-0.000154658 0.0016947 -2.64987e-06
-7.6543e-05 -2.64987e-06 0.001685
0.000412716 -5.84476e-05 1.46628e-06
-5.84476e-05 -7.69614e-05 -7.83559e-06
1.46628e-06 -7.83559e-06 -0.000120531
0.000490947 0.000139232 -1.88931e-05
0.000139232 -0.00012439 -1.25693e-05
-1.88931e-05 -1.25693e-05 -0.000214971
0.000976667 0.00014815 -1.39171e-05
0.00014815 -7.77725e-06 -5.70374e-06
-1.39171e-05 -5.70374e-06 -0.000154112
0.000373084 4.76842e-05 -1.22915e-05
4.76842e-05 -0.000135173 -1.17925e-05
-1.22915e-05 -1.17925e-05 -0.000194693
0.000777281 0.000159016 -7.14816e-06
0.000159016 3.67572e-05 -7.59368e-06
-7.14816e-06 -7.59368e-06 -0.000127884
0.000937997 0.000172414 -1.1308e-05
0.000172414 3.01813e-05 -5.94765e-06
-1.1308e-05 -5.94765e-06 -0.000123116
0.000728347 0.000200044 -7.28413e-06
0.000200044 -0.0001345 -8.83747e-07
-7.28413e-06 -8.83747e-07 -0.000328154
0.00053549 3.06311e-06 1.80776e-06
3.06311e-06 -2.45865e-05 4.00091e-07
1.80776e-06 4.00091e-07 -7.41238e-05
0.000520215 -6.93368e-05 1.31374e-08
-6.93368e-05 -1.91611e-05 2.65197e-07
1.31374e-08 2.65197e-07 -5.47026e-05
0.000638977 1.60329e-05 7.18415e-07
1.60329e-05 4.54147e-05 3.86576e-07
7.18415e-07 3.86576e-07 -5.4345e-05
0.00100076 0.000125739 -2.05962e-08
0.000125739 -1.32228e-05 -2.36967e-07
-2.05962e-08 -2.36967e-07 -0.000153651
0.000965928 0.000163823 4.83166e-07
0.000163823 1.34229e-05 -2.48919e-07
4.83166e-07 -2.48919e-07 -0.00013708
0.00133718 0.000208203 2.96942e-07
0.000208203 8.95291e-05 3.5142e-08
2.96942e-07 3.5142e-08 -8.552e-05
0.000802341 0.000153237 -5.67542e-07
0.000153237 0.000118677 4.23492e-07
-5.67542e-07 4.23492e-07 -3.75186e-05
0.00120039 0.000223695 -4.09066e-08
0.000223695 0.000105799 1.0016e-08
-4.09066e-08 1.0016e-08 -8.17457e-05
0.00114071 0.00023765 9.3722e-07
0.00023765 0.00018145 -1.98367e-06
9.3722e-07 -1.98367e-06 -3.45439e-05
0.00115146 0.000250856 -8.08992e-07
0.000250856 6.49236e-05 3.42078e-07
-8.08992e-07 3.42078e-07 -0.000141973
0.000560682 -6.95298e-05 -1.81959e-06
-6.95298e-05 -5.25485e-06 5.62054e-06
-1.81959e-06 5.62054e-06 -3.48966e-05
0.000772598 0.000112448 5.14736e-06
0.000112448 0.000115188 4.56207e-06
5.14736e-06 4.56207e-06 -1.57667e-05
0.000698959 -6.37565e-06 1.02422e-06
-6.37565e-06 7.47893e-05 4.19934e-06
1.02422e-06 4.19934e-06 -1.91507e-06
0.000801735 0.000106391 1.64998e-06
0.000106391 0.00017098 -2.03385e-07
1.64998e-06 -2.03385e-07 1.2991e-05
0.00139583 0.000185834 4.80445e-06
0.000185834 8.48537e-05 7.20689e-07
4.80445e-06 7.20689e-07 -7.96498e-05
0.00125563 0.000222068 6.93086e-06
0.000222068 8.44428e-05 2.34905e-06
6.93086e-06 2.34905e-06 -9.86251e-05
0.00167115 0.000278025 1.44196e-06
0.000278025 0.000180444 -1.64285e-07
1.44196e-06 -1.64285e-07 -3.44039e-06
0.00132435 0.000228587 3.19667e-06
0.000228587 0.000377948 4.429e-06
3.19667e-06 4.429e-06 0.000173779
0.00158569 0.000296526 6.30299e-08
0.000296526 0.000263335 -1.82821e-07
6.30299e-08 -1.82821e-07 5.65136e-05
0.00144316 0.000281318 2.62718e-06
0.000281318 0.000305093 -1.55818e-06
2.62718e-06 -1.55818e-06 6.54228e-05
0.00169311 0.000298047 6.69792e-07
0.000298047 0.000315592 1.21539e-07
6.69792e-07 1.21539e-07 0.00010206
0.000635072 2.54572e-06 2.18439e-06
2.54572e-06 1.68323e-05 2.29234e-06
2.18439e-06 2.29234e-06 -3.23674e-05
0.000552437 -4.46751e-05 6.55465e-07
-4.46751e-05 -3.53994e-05 4.57876e-06
6.55465e-07 4.57876e-06 -5.46135e-05
0.00238557 -9.90267e-05 2.84258e-05
-9.90267e-05 0.00107826 3.31619e-06
2.84258e-05 3.31619e-06 0.00108292
0.00243228 -0.000111423 3.18962e-06
-0.000111423 0.00111405 -3.30201e-07
3.18962e-06 -3.30201e-07 0.00111548
0.00251924 -0.000125297 -3.55519e-05
-0.000125297 0.00117375 -2.68791e-06
-3.55519e-05 -2.68791e-06 0.00117128
0.000446348 6.10057e-06 4.12445e-06
6.10057e-06 -7.46158e-05 -7.52132e-06
4.12445e-06 -7.52132e-06 -0.000113438
0.00336277 0.000128577 8.28268e-05
0.000128577 0.0016751 -3.89615e-06
8.28268e-05 -3.89615e-06 0.00167035
0.000531391 -4.18264e-06 -3.38652e-07
-4.18264e-06 -2.53647e-05 1.86991e-07
-3.38652e-07 1.86991e-07 -7.28453e-05
0.00386976 0.000130916 -4.24349e-06
0.000130916 0.00197647 -6.17473e-07
-4.24349e-06 -6.17473e-07 0.00197057
0.000615897 9.59871e-05 -1.9034e-05
9.59871e-05 -9.33826e-05 -6.16781e-06
-1.9034e-05 -6.16781e-06 -0.000173718
0.000622795 3.24794e-05 -1.83482e-05
3.24794e-05 -9.82221e-05 -3.15968e-06
-1.83482e-05 -3.15968e-06 -0.000171456
0.000994817 8.48219e-05 -1.19823e-05
8.48219e-05 -3.35139e-05 -2.7651e-06
-1.19823e-05 -2.7651e-06 -0.000163755
0.000990657 4.02252e-05 -1.23507e-05
4.02252e-05 -3.93468e-05 -1.4652e-06
-1.23507e-05 -1.4652e-06 -0.000160821
0.000635704 -6.2921e-06 -1.90771e-05
-6.2921e-06 -9.52185e-05 -7.34826e-07
-1.90771e-05 -7.34826e-07 -0.000162347
0.00546148 -9.50603e-05 -0.000232741
-9.50603e-05 0.00288409 3.48608e-06
-0.000232741 3.48608e-06 0.00288976
0.000621848 -4.62969e-07 1.4063e-07
-4.62969e-07 -0.000102223 -4.51158e-07
1.4063e-07 -4.51158e-07 -0.000169061
0.00100147 1.95638e-05 -3.54678e-08
1.95638e-05 -2.96781e-05 -1.05406e-07
-3.54678e-08 -1.05406e-07 -0.000148834
0.00101629 5.99727e-05 -6.1857e-08
5.99727e-05 -2.43595e-05 -9.64625e-08
-6.1857e-08 -9.64625e-08 -0.000149149
0.00143586 5.63796e-05 -5.81836e-08
5.63796e-05 5.36341e-05 6.62632e-08
-5.81836e-08 6.62632e-08 -7.48239e-05
0.00101296 0.00010483 -9.48098e-08
0.00010483 -1.69808e-05 -2.31157e-07
-9.48098e-08 -2.31157e-07 -0.000152216
0.0014489 0.00012642 -1.90644e-08
0.00012642 7.16615e-05 -4.32543e-08
-1.90644e-08 -4.32543e-08 -7.2203e-05
0.000999674 -3.14149e-07 1.22043e-05
-3.14149e-07 -2.72521e-05 -3.13732e-07
1.22043e-05 -3.13732e-07 -0.000145452
0.00142352 3.04715e-05 2.17648e-06
3.04715e-05 5.04671e-05 1.26379e-07
2.17648e-06 1.26379e-07 -7.45484e-05
0.00144826 9.14393e-05 2.13115e-06
9.14393e-05 6.1389e-05 1.44901e-07
2.13115e-06 1.44901e-07 -7.33699e-05
0.00175929 8.10328e-05 -1.83709e-06
8.10328e-05 9.67116e-05 -5.28129e-07
-1.83709e-06 -5.28129e-07 -8.74297e-06
0.0014495 0.000158561 3.60175e-06
0.000158561 8.74288e-05 5.6401e-07
3.60175e-06 5.6401e-07 -6.61487e-05
0.00176471 0.000168724 -3.84374e-07
0.000168724 0.000125409 -1.18243e-06
-3.84374e-07 -1.18243e-06 -3.92422e-06
0.00060505 1.68971e-06 -1.82369e-05
1.68971e-06 -0.000105949 1.07356e-06
-1.82369e-05 1.07356e-06 -0.000175909
0.00166832 -2.3471e-05 -9.75898e-05
-2.3471e-05 0.000525579 3.91908e-06
-9.75898e-05 3.91908e-06 0.000467792
0.000753372 -2.14755e-05 -1.42715e-05
-2.14755e-05 -0.000171806 1.67623e-06
-1.42715e-05 1.67623e-06 -0.000292574
0.00198451 -0.000101623 -2.37305e-05
-0.000101623 0.00055451 3.75512e-06
-2.37305e-05 3.75512e-06 0.000435929
0.00445688 0.000126619 -0.000144439
0.000126619 0.00232443 8.63474e-06
-0.000144439 8.63474e-06 0.00231654
0.00260559 -0.000112235 -9.08658e-05
-0.000112235 0.00116657 1.24475e-05
-9.08658e-05 1.24475e-05 0.00110281
0.00193815 -0.000244461 -1.90963e-05
-0.000244461 0.000673608 7.97986e-06
-1.90963e-05 7.97986e-06 0.000511294
0.00166611 -0.000146872 -2.48803e-05
-0.000146872 0.00038781 6.35744e-06
-2.48803e-05 6.35744e-06 0.000258279
0.0014076 -0.000152311 -5.79224e-06
-0.000152311 8.08338e-05 1.18262e-06
-5.79224e-06 1.18262e-06 -6.59842e-05
0.00170439 -0.00021392 -6.9952e-06
-0.00021392 0.00031096 2.07357e-06
-6.9952e-06 2.07357e-06 0.000146969
0.00120435 -0.000230856 -7.67668e-06
-0.000230856 8.54077e-05 2.39104e-06
-7.67668e-06 2.39104e-06 -0.000101885
0.00154411 -0.000269449 -2.4514e-06
-0.000269449 0.000157835 -4.44041e-07
-2.4514e-06 -4.44041e-07 -2.82804e-05
0.000619874 -3.42324e-05 -9.95884e-06
-3.42324e-05 1.88845e-05 1.08415e-05
-9.95884e-06 1.08415e-05 -3.65984e-05
0.000658952 -7.31685e-05 -2.15022e-06
-7.31685e-05 5.24287e-05 3.41184e-06
-2.15022e-06 3.41184e-06 -6.64149e-05
0.000870781 -8.29773e-06 -2.98114e-07
-8.29773e-06 -0.000102306 -4.88506e-08
-2.98114e-07 -4.88506e-08 -0.000221042
0.00167653 -6.14708e-05 -5.68452e-06
-6.14708e-05 0.000370591 5.89351e-07
-5.68452e-06 5.89351e-07 0.000255173
0.00169909 -4.60834e-05 -2.08409e-06
-4.60834e-05 0.000222378 2.61566e-07
-2.08409e-06 2.61566e-07 9.8959e-05
0.00156195 -0.000124916 -2.97406e-07
-0.000124916 0.000159023 1.54648e-07
-2.97406e-07 1.54648e-07 1.93912e-05
0.00052741 -6.23675e-05 -1.68023e-07
-6.23675e-05 -4.36122e-05 3.43303e-07
-1.68023e-07 3.43303e-07 -0.000106151
0.000849771 -0.000172173 -8.17885e-07
-0.000172173 0.000101378 -4.24988e-07
-8.17885e-07 -4.24988e-07 -6.06116e-05
0.0010267 -0.000232318 2.38388e-06
-0.000232318 3.71747e-05 -1.03752e-06
2.38388e-06 -1.03752e-06 -0.000161835
0.00168649 -0.000191846 -2.64088e-06
-0.000191846 0.000275985 6.81253e-07
-2.64088e-06 6.81253e-07 0.000120237
0.00178251 -0.000198119 5.38129e-07
-0.000198119 0.00017555 -6.3392e-08
5.38129e-07 -6.3392e-08 3.8491e-05
0.00172955 -0.000313726 -1.88011e-06
-0.000313726 0.000309123 3.17905e-07
-1.88011e-06 3.17905e-07 9.87178e-05
0.00159509 -0.000251419 4.60644e-07
-0.000251419 0.000144811 -1.14266e-07
4.60644e-07 -1.14266e-07 -2.48284e-05
0.00181291 -0.000306471 6.87307e-07
-0.000306471 0.000242633 5.64942e-07
6.87307e-07 5.64942e-07 6.58324e-05
0.000722855 -0.000107798 -1.60606e-07
-0.000107798 8.60222e-05 -1.93354e-07
-1.60606e-07 -1.93354e-07 -4.82184e-05
0.000583942 -9.29347e-05 -6.02396e-07
-9.29347e-05 9.86363e-06 -6.79265e-07
-6.02396e-07 -6.79265e-07 -0.000146762
0.000671541 -3.16704e-05 1.16068e-08
-3.16704e-05 6.16141e-05 1.55141e-07
1.16068e-08 1.55141e-07 -3.94502e-05
0.00165975 -1.86485e-05 8.71336e-07
-1.86485e-05 0.000197133 1.28776e-08
8.71336e-07 1.28776e-08 7.39704e-05
0.00172892 -8.25338e-05 6.3751e-07
-8.25338e-05 0.00024174 3.48249e-07
6.3751e-07 3.48249e-07 0.000114179
0.00167069 -6.7278e-05 -2.20353e-06
-6.7278e-05 6.38769e-05 1.12887e-06
-2.20353e-06 1.12887e-06 -4.33702e-05
0.00172115 -0.000159307 -2.3914e-06
-0.000159307 0.000110746 1.18496e-06
-2.3914e-06 1.18496e-06 -1.5474e-05
0.00161092 -0.000229781 1.11705e-07
-0.000229781 0.000117603 1.49338e-06
1.11705e-07 1.49338e-06 -3.42544e-05
0.00179788 -0.000220646 -1.84265e-06
-0.000220646 0.00012517 1.21487e-06
-1.84265e-06 1.21487e-06 9.45865e-06
0.000684928 -0.000131923 3.95372e-06
-0.000131923 5.23027e-05 -5.29404e-06
3.95372e-06 -5.29404e-06 -9.56855e-05
0.0016881 -0.000283131 -2.12566e-06
-0.000283131 0.000127337 2.07861e-06
-2.12566e-06 2.07861e-06 -2.80056e-05
0.00119233 -0.000239733 2.95744e-06
-0.000239733 0.000238355 -5.18213e-06
2.95744e-06 -5.18213e-06 3.20671e-05
0.00127927 -0.000299176 5.8394e-06
-0.000299176 0.000123878 -1.61081e-06
5.8394e-06 -1.61081e-06 -0.000106512
0.0018854 -0.00035211 1.09982e-06
-0.00035211 0.000340886 3.27665e-06
1.09982e-06 3.27665e-06 0.000126116
0.00197116 -0.000331872 -3.37593e-06
-0.000331872 0.000303974 3.89242e-06
-3.37593e-06 3.89242e-06 0.000140175
0.000613926 -2.26075e-05 7.51433e-07
-2.26075e-05 2.7565e-05 -3.35675e-06
7.51433e-07 -3.35675e-06 -5.93433e-05
0.000754949 -0.000146774 9.9866e-07
-0.000146774 8.64804e-05 -5.63708e-08
9.9866e-07 -5.63708e-08 -7.47635e-05
0.00049786 -7.63252e-05 -5.27837e-07
-7.63252e-05 -1.64269e-05 3.30325e-08
-5.27837e-07 3.30325e-08 -0.000171671
0.00128021 -0.000212396 -2.21709e-06
-0.000212396 0.00040413 1.78375e-06
-2.21709e-06 1.78375e-06 0.000220846
0.000974807 0.000126765 -1.35132e-05
0.000126765 -2.59647e-05 -4.68125e-06
-1.35132e-05 -4.68125e-06 -0.000167099
0.000456009 -7.02552e-05 1.30126e-06
-7.02552e-05 -5.7198e-05 -6.06926e-06
1.30126e-06 -6.06926e-06 -9.22941e-05
0.000401294 -1.4895e-05 -3.73215e-06
-1.4895e-05 -9.89408e-05 -9.8193e-06
-3.73215e-06 -9.8193e-06 -0.000148286
0.000537983 -1.81352e-05 5.40882e-07
-1.81352e-05 -1.09312e-05 -4.77317e-06
5.40882e-07 -4.77317e-06 -0.000108745
0.000990192 0.000167039 -1.29136e-05
0.000167039 2.88282e-05 -6.73634e-06
-1.29136e-05 -6.73634e-06 -0.00012244
0.00134664 0.000207796 -5.93643e-06
0.000207796 9.82632e-05 -1.69494e-06
-5.93643e-06 -1.69494e-06 -7.68133e-05
0.000682959 0.000131388 -4.61179e-06
0.000131388 4.99252e-05 -4.97037e-06
-4.61179e-06 -4.97037e-06 -0.000102847
0.00105913 0.000230409 -4.7944e-06
0.000230409 0.000134035 -4.89199e-06
-4.7944e-06 -4.89199e-06 -8.05274e-05
0.00131462 0.000230726 -6.24761e-06
0.000230726 0.000176026 -2.53636e-06
-6.24761e-06 -2.53636e-06 -1.20667e-05
0.000757631 0.000223967 -3.80262e-06
0.000223967 -0.00016656 1.61139e-06
-3.80262e-06 1.61139e-06 -0.000370381
0.000528373 -6.60338e-05 -1.98298e-07
-6.60338e-05 -2.66863e-05 1.29369e-07
-1.98298e-07 1.29369e-07 -5.50259e-05
0.000748284 0.000100005 3.30079e-07
0.000100005 0.000107711 -2.97859e-07
3.30079e-07 -2.97859e-07 -2.48955e-05
0.000597904 -2.3104e-05 -5.69961e-07
-2.3104e-05 1.78786e-05 7.46865e-07
-5.69961e-07 7.46865e-07 -5.86966e-05
0.000800719 7.58457e-05 1.4824e-06
7.58457e-05 0.000168278 -9.00726e-07
1.4824e-06 -9.00726e-07 1.48753e-05
0.00139877 0.000185687 1.83279e-07
0.000185687 8.82444e-05 -2.98092e-07
1.83279e-07 -2.98092e-07 -7.64885e-05
0.00126085 0.000221156 3.99103e-07
0.000221156 9.34736e-05 2.37857e-08
3.99103e-07 2.37857e-08 -8.95383e-05
0.00165828 0.000277517 2.18178e-07
0.000277517 0.000171788 1.36813e-07
2.18178e-07 1.36813e-07 -1.23292e-05
0.00106366 0.000207544 7.59622e-07
0.000207544 0.000229257 6.39909e-07
7.59622e-07 6.39909e-07 2.83604e-05
0.00167543 0.00029958 -1.2248e-06
0.00029958 0.000320092 -1.94142e-07
-1.2248e-06 -1.94142e-07 0.000113209
0.00122551 0.000264824 7.0395e-07
0.000264824 0.000176011 -2.60465e-06
7.0395e-07 -2.60465e-06 -6.34026e-05
0.00155878 0.000289162 -2.40563e-06
0.000289162 0.000239202 4.0285e-07
-2.40563e-06 4.0285e-07 2.63635e-05
0.000543942 -5.55865e-05 9.77569e-08
-5.55865e-05 -3.05688e-05 4.82347e-06
9.77569e-08 4.82347e-06 -5.35359e-05
0.000678951 -1.3184e-05 1.4858e-06
-1.3184e-05 5.36499e-05 3.07759e-06
1.4858e-06 3.07759e-06 -8.17573e-06
0.00101619 0.000171309 1.52226e-06
0.000171309 0.000254378 1.45199e-06
1.52226e-06 1.45199e-06 8.26631e-05
0.000863686 5.87688e-05 -9.65139e-07
5.87688e-05 0.000210483 2.6989e-06
-9.65139e-07 2.6989e-06 7.68293e-05
0.00113712 0.000161127 3.63827e-07
0.000161127 0.000352584 -1.91475e-06
3.63827e-07 -1.91475e-06 0.000173182
0.00172766 0.000245305 1.10319e-06
0.000245305 0.000167006 -1.41722e-06
1.10319e-06 -1.41722e-06 2.82791e-06
0.00153938 0.000294576 1.51787e-06
0.000294576 0.000167945 1.64214e-07
1.51787e-06 1.64214e-07 -3.22281e-05
0.00179599 0.000315326 3.22805e-07
0.000315326 0.000210393 -3.68185e-07
3.22805e-07 -3.68185e-07 3.20451e-05
0.0013686 0.000270292 2.16581e-06
0.000270292 0.00037643 5.26889e-06
2.16581e-06 5.26889e-06 0.000141049
0.00183819 0.000354661 1.65659e-06
0.000354661 0.000355121 -4.19485e-07
1.65659e-06 -4.19485e-07 0.000139608
0.000772391 0.000236392 3.04888e-06
0.000236392 -0.000152526 -1.76594e-06
3.04888e-06 -1.76594e-06 -0.000384208
0.000632699 -1.88646e-06 2.51754e-06
-1.88646e-06 1.62983e-05 2.31578e-06
2.51754e-06 2.31578e-06 -3.45298e-05
0.000685882 4.33583e-05 1.44285e-07
4.33583e-05 7.58611e-05 1.05768e-06
1.44285e-07 1.05768e-06 -7.64638e-06
0.000649818 1.24341e-05 1.93304e-06
1.24341e-05 2.77385e-05 2.2568e-06
1.93304e-06 2.2568e-06 -2.10575e-05
0.000622849 -1.90391e-05 -5.41173e-07
-1.90391e-05 1.17659e-05 9.55375e-09
-5.41173e-07 9.55375e-09 -3.85245e-05
0.00125157 -5.17876e-05 9.94134e-07
-5.17876e-05 0.000375072 2.65863e-06
9.94134e-07 2.65863e-06 0.000361683
0.00092315 -5.19263e-05 5.8654e-07
-5.19263e-05 0.000184925 -9.15115e-08
5.8654e-07 -9.15115e-08 0.000167558
0.000899194 -5.01454e-05 2.36803e-05
-5.01454e-05 0.000182166 7.3581e-06
2.36803e-05 7.3581e-06 0.000184097
0.00235084 -9.67537e-05 3.3203e-06
-9.67537e-05 0.00105666 -2.93417e-07
3.3203e-06 -2.93417e-07 0.0010618
0.00237512 -0.000108326 -3.25005e-05
-0.000108326 0.00107949 -3.03725e-06
-3.25005e-05 -3.03725e-06 0.00108158
0.000485054 2.82292e-05 5.63439e-07
2.82292e-05 -5.30038e-05 -6.16128e-06
5.63439e-07 -6.16128e-06 -8.55495e-05
0.00302545 0.000130947 5.2017e-05
0.000130947 0.00147066 -3.07967e-06
5.2017e-05 -3.07967e-06 0.00146596
0.000533079 5.39353e-06 -3.20988e-07
5.39353e-06 -2.40876e-05 2.57328e-07
-3.20988e-07 2.57328e-07 -6.35495e-05
0.00350938 0.000119401 -5.10071e-06
0.000119401 0.00175884 -4.69685e-07
-5.10071e-06 -4.69685e-07 0.00175636
0.000625172 -6.4938e-06 -6.15556e-06
-6.4938e-06 2.71984e-05 9.29948e-06
-6.15556e-06 9.29948e-06 -2.08104e-05
0.00396451 0.000118371 -0.000123738
0.000118371 0.00202912 6.71292e-06
-0.000123738 6.71292e-06 0.0020258
0.000991593 0.00010674 -1.2603e-05
0.00010674 -2.79889e-05 -3.6703e-06
-1.2603e-05 -3.6703e-06 -0.000163944
0.00100077 6.37259e-05 -1.21082e-05
6.37259e-05 -3.30275e-05 -2.07495e-06
-1.21082e-05 -2.07495e-06 -0.000158362
0.00145027 0.000124164 -3.45147e-06
0.000124164 7.28461e-05 -4.30748e-07
-3.45147e-06 -4.30748e-07 -7.11016e-05
0.00143608 5.57624e-05 -2.37881e-06
5.57624e-05 5.48465e-05 -1.36932e-08
-2.37881e-06 -1.36932e-08 -7.37395e-05
0.000999559 2.32081e-05 -1.2326e-05
2.32081e-05 -3.13979e-05 -7.44364e-07
-1.2326e-05 -7.44364e-07 -0.000150734
0.000589152 2.62073e-05 -1.88205e-05
2.62073e-05 -0.000121039 -8.21542e-08
-1.88205e-05 -8.21542e-08 -0.000187765
0.000997675 2.08554e-06 2.33799e-09
2.08554e-06 -2.87763e-05 -1.22735e-07
2.33799e-09 -1.22735e-07 -0.000147007
0.00142128 3.20701e-05 -6.90254e-08
3.20701e-05 4.94609e-05 3.12109e-08
-6.90254e-08 3.12109e-08 -7.56835e-05
0.0014507 8.90403e-05 8.64906e-09
8.90403e-05 6.43039e-05 -1.97299e-09
8.64906e-09 -1.97299e-09 -7.04393e-05
0.00180389 8.11503e-05 -8.55604e-09
8.11503e-05 0.000118681 2.42955e-07
-8.55604e-09 2.42955e-07 1.58711e-05
0.00143729 0.000157839 -2.03276e-07
0.000157839 8.23015e-05 -6.4185e-08
-2.03276e-07 -6.4185e-08 -7.14836e-05
0.00175573 0.000166267 -2.69074e-07
0.000166267 0.000124285 1.68932e-08
-2.69074e-07 1.68932e-08 -4.99573e-06
0.00141946 6.50729e-06 2.48479e-06
6.50729e-06 5.16489e-05 4.88649e-08
2.48479e-06 4.88649e-08 -7.23454e-05
0.00179412 4.4262e-05 -3.11708e-06
4.4262e-05 0.000121567 -6.10465e-08
-3.11708e-06 -6.10465e-08 2.63375e-05
0.00177016 0.000129764 -1.35423e-06
0.000129764 0.000105022 -9.85305e-07
-1.35423e-06 -9.85305e-07 -1.08287e-05
0.0017762 8.31807e-05 1.83864e-06
8.31807e-05 3.60058e-05 7.08138e-08
1.83864e-06 7.08138e-08 -4.34176e-05
0.00175365 0.000204198 1.13469e-08
0.000204198 0.000154285 -1.11421e-06
1.13469e-08 -1.11421e-06 9.43285e-06
0.00172634 0.000187995 -1.08721e-06
0.000187995 4.66917e-05 -1.24271e-06
-1.08721e-06 -1.24271e-06 -5.74011e-05
0.000745652 -5.24678e-06 -1.20601e-05
-5.24678e-06 -0.000175471 6.78528e-07
-1.20601e-05 6.78528e-07 -0.000294992
0.00170487 -6.3869e-05 -2.33301e-05
-6.3869e-05 0.000386118 2.76551e-06
-2.33301e-05 2.76551e-06 0.000270736
0.00174607 -4.00485e-05 -5.62612e-06
-4.00485e-05 0.0002462 1.66849e-07
-5.62612e-06 1.66849e-07 0.000125528
0.0016748 -0.000126873 -4.34405e-06
-0.000126873 0.000225956 9.45013e-07
-4.34405e-06 9.45013e-07 8.56129e-05
0.000717892 -7.79503e-05 -1.40259e-05
-7.79503e-05 6.69957e-05 1.29479e-05
-1.40259e-05 1.29479e-05 1.04976e-06
0.000822525 -0.000178131 -7.91178e-06
-0.000178131 8.53356e-05 6.84166e-06
-7.91178e-06 6.84166e-06 -7.74959e-05
0.000996438 -0.000228362 -5.55538e-06
-0.000228362 2.15202e-05 2.09068e-06
-5.55538e-06 2.09068e-06 -0.000176029
0.00170058 -0.000189973 -7.9904e-06
-0.000189973 0.000283064 2.27191e-06
-7.9904e-06 2.27191e-06 0.000126652
0.00184877 -0.000201902 5.73909e-07
-0.000201902 0.000208557 -9.93107e-07
5.73909e-07 -9.93107e-07 7.47745e-05
0.00159666 -0.000250915 -1.42852e-06
-0.000250915 0.000146962 -5.65054e-07
-1.42852e-06 -5.65054e-07 -2.22213e-05
0.00167797 -0.000313419 -5.28699e-06
-0.000313419 0.000282744 -2.7121e-07
-5.28699e-06 -2.7121e-07 7.13194e-05
0.00175542 -0.000304332 3.24603e-06
-0.000304332 0.000203701 -2.75375e-06
3.24603e-06 -2.75375e-06 2.71202e-05
0.000726736 -0.000115506 -4.05623e-06
-0.000115506 8.41488e-05 4.68761e-06
-4.05623e-06 4.68761e-06 -4.97399e-05
0.00050606 -7.96397e-05 -9.16331e-07
-7.96397e-05 -3.44982e-05 -8.77749e-07
-9.16331e-07 -8.77749e-07 -0.000190009
0.000636481 -3.85258e-05 -1.03268e-06
-3.85258e-05 4.0598e-05 3.46261e-06
-1.03268e-06 3.46261e-06 -6.18841e-05
0.00155219 -1.64257e-05 -2.19347e-06
-1.64257e-05 0.00013277 1.37188e-07
-2.19347e-06 1.37188e-07 8.99787e-06
0.00172872 -8.99065e-05 -2.72193e-06
-8.99065e-05 0.000241059 4.43441e-07
-2.72193e-06 4.43441e-07 0.00011272
0.00171458 -6.41225e-05 1.28978e-06
-6.41225e-05 8.95872e-05 5.53572e-07
1.28978e-06 5.53572e-07 -1.26907e-05
0.00172354 -0.000156143 -1.5585e-06
-0.000156143 0.000110963 4.67127e-07
-1.5585e-06 4.67127e-07 -1.61556e-05
0.000758918 -0.000146816 4.43549e-07
-0.000146816 9.69577e-05 3.3759e-07
4.43549e-07 3.3759e-07 -5.37805e-05
0.00109144 -0.000231654 -1.69297e-06
-0.000231654 0.000172669 -7.29531e-07
-1.69297e-06 -7.29531e-07 -3.14862e-05
0.00133166 -0.000299017 1.8201e-06
-0.000299017 0.00016113 -3.57213e-07
1.8201e-06 -3.57213e-07 -6.85186e-05
0.00161237 -0.000228814 -6.8578e-07
-0.000228814 0.000120451 5.33129e-07
-6.8578e-07 5.33129e-07 -3.42634e-05
0.00184368 -0.000222088 1.57558e-06
-0.000222088 0.000153448 1.49956e-07
1.57558e-06 1.49956e-07 4.19172e-05
0.00177702 -0.000350658 -8.85264e-07
-0.000350658 0.000274205 5.07181e-07
-8.85264e-07 5.07181e-07 5.70573e-05
0.00172029 -0.000283782 1.20709e-07
-0.000283782 0.000146016 3.11141e-07
1.20709e-07 3.11141e-07 -9.06612e-06
0.00199183 -0.000329612 1.78978e-06
-0.000329612 0.000316241 -3.75469e-07
1.78978e-06 -3.75469e-07 0.000155735
0.000961445 -0.000171318 3.60762e-07
-0.000171318 0.000210767 8.29516e-07
3.60762e-07 8.29516e-07 4.38742e-05
0.00114182 -0.00020864 -3.96644e-07
-0.00020864 0.000329509 1.52016e-07
-3.96644e-07 1.52016e-07 0.000143678
0.000640754 -2.80754e-05 2.49404e-08
-2.80754e-05 4.24468e-05 2.07862e-07
2.49404e-08 2.07862e-07 -4.53006e-05
0.000386487 -3.82492e-05 -1.25594e-07
-3.82492e-05 -9.16697e-05 -5.80526e-07
-1.25594e-07 -5.80526e-07 -0.00023705
0.00174482 -3.55342e-05 -2.28802e-06
-3.55342e-05 0.000104543 2.44338e-07
-2.28802e-06 2.44338e-07 4.23012e-06
0.00184845 -0.000107464 -9.38416e-07
-0.000107464 0.00016766 1.39375e-06
-9.38416e-07 1.39375e-06 5.54216e-05
0.0016794 -7.58115e-05 1.20282e-06
-7.58115e-05 1.22979e-05 -1.05461e-08
1.20282e-06 -1.05461e-08 -7.0032e-05
0.00176911 -0.000182422 -3.68443e-06
-0.000182422 6.67681e-05 8.44545e-07
-3.68443e-06 8.44545e-07 -2.6802e-05
0.00172763 -0.000252903 -3.75738e-06
-0.000252903 0.000116633 2.87373e-06
-3.75738e-06 2.87373e-06 -1.4379e-05
0.00199616 -0.000227306 1.87345e-06
-0.000227306 0.000224658 -5.26882e-07
1.87345e-06 -5.26882e-07 0.000129073
0.000959589 -0.000202528 7.58617e-07
-0.000202528 0.000175629 -3.76109e-06
7.58617e-07 -3.76109e-06 -1.1177e-05
0.00163923 -0.000296839 -4.90547e-06
-0.000296839 7.25716e-05 2.73396e-06
-4.90547e-06 2.73396e-06 -6.02294e-05
0.00117579 -0.000273341 2.04226e-06
-0.000273341 0.000178197 -4.50494e-06
2.04226e-06 -4.50494e-06 -5.3742e-05
0.0016336 -0.000371502 2.59721e-07
-0.000371502 0.000277935 1.22854e-06
2.59721e-07 1.22854e-06 2.35386e-05
0.00173136 -0.000361847 8.66145e-07
-0.000361847 0.000200735 5.23017e-06
8.66145e-07 5.23017e-06 -1.25263e-05
0.00196482 -0.000316355 -3.73127e-07
-0.000316355 0.000289766 1.26227e-06
-3.73127e-07 1.26227e-06 0.000136968
0.000551017 -2.92348e-05 1.02644e-06
-2.92348e-05 -1.05608e-05 -3.11114e-06
1.02644e-06 -3.11114e-06 -8.63305e-05
0.000448448 -3.24639e-05 -1.43204e-06
-3.24639e-05 -4.57514e-05 -1.18094e-06
-1.43204e-06 -1.18094e-06 -0.000180685
0.000863374 -0.000202605 -6.70367e-07
-0.000202605 0.000130311 6.51893e-07
-6.70367e-07 6.51893e-07 -5.21404e-05
0.000802145 -0.000144008 4.77531e-07
-0.000144008 0.000170191 1.86413e-06
4.77531e-07 1.86413e-06 -9.10731e-06
0.00139452 -0.000251327 -3.41067e-06
-0.000251327 0.00046337 3.3027e-06
-3.41067e-06 3.3027e-06 0.000275003
0.00050596 -6.02149e-05 -5.50869e-07
-6.02149e-05 -4.27443e-05 -4.90874e-06
-5.50869e-07 -4.90874e-06 -6.94285e-05
0.00139839 0.000185251 -4.58328e-06
0.000185251 9.02053e-05 -1.32171e-06
-4.58328e-06 -1.32171e-06 -7.47256e-05
0.000519535 -3.98111e-05 -2.66293e-07
-3.98111e-05 -2.45107e-05 -3.32982e-06
-2.66293e-07 -3.32982e-06 -0.000101766
0.000715475 7.42311e-05 -1.9434e-06
7.42311e-05 8.5304e-05 -4.63806e-06
-1.9434e-06 -4.63806e-06 -4.13606e-05
0.000694344 4.60057e-05 1.63147e-06
4.60057e-05 0.000101609 -1.50124e-06
1.63147e-06 -1.50124e-06 -4.61103e-05
0.00127107 0.000220776 -6.5668e-06
0.000220776 0.000104852 -2.39115e-06
-6.5668e-06 -2.39115e-06 -7.82049e-05
0.00164864 0.000277326 -1.08599e-07
0.000277326 0.000164651 6.90832e-07
-1.08599e-07 6.90832e-07 -1.97523e-05
0.000868236 0.000196033 -1.46447e-06
0.000196033 0.000118768 -3.53745e-06
-1.46447e-06 -3.53745e-06 -8.18882e-05
0.00102007 0.0002501 -1.53137e-06
0.0002501 5.34156e-05 -3.04948e-06
-1.53137e-06 -3.04948e-06 -0.000186272
0.00175151 0.000302199 -2.82783e-06
0.000302199 0.000367663 -7.46687e-07
-2.82783e-06 -7.46687e-07 0.000160726
0.00146221 0.00028408 -5.66407e-06
0.00028408 0.000183617 2.08619e-06
-5.66407e-06 2.08619e-06 -2.91199e-05
0.000548878 -5.19882e-05 2.60865e-08
-5.19882e-05 -2.94724e-05 1.80695e-09
2.60865e-08 1.80695e-09 -5.15459e-05
0.000634436 -2.21136e-05 -6.28815e-07
-2.21136e-05 2.98915e-05 3.02138e-07
-6.28815e-07 3.02138e-07 -3.22001e-05
0.000937328 0.000163559 -2.04784e-07
0.000163559 0.000208407 9.20165e-07
-2.04784e-07 9.20165e-07 3.76302e-05
0.000697049 1.22318e-05 -6.29049e-07
1.22318e-05 0.000105559 4.24458e-07
-6.29049e-07 4.24458e-07 -1.92262e-05
0.000657072 0.000112122 6.21684e-07
0.000112122 6.30144e-05 -8.15116e-07
6.21684e-07 -8.15116e-07 -0.000106983
0.00171152 0.000245774 -9.98425e-08
0.000245774 0.000155002 -8.18107e-07
-9.98425e-08 -8.18107e-07 -9.60629e-06
0.00154792 0.000295627 4.92523e-07
0.000295627 0.000171787 1.75488e-07
4.92523e-07 1.75488e-07 -2.88385e-05
0.00172178 0.000312332 1.76754e-06
0.000312332 0.000167601 2.09674e-07
1.76754e-06 2.09674e-07 -1.11491e-05
0.00119256 0.000254436 1.05949e-06
0.000254436 0.000280622 1.86734e-06
1.05949e-06 1.86734e-06 4.48154e-05
0.00179445 0.000350869 6.51135e-07
0.000350869 0.000315307 1.98361e-07
6.51135e-07 1.98361e-07 9.91884e-05
0.0012281 0.000274885 -1.74751e-06
0.000274885 0.000112139 1.2033e-07
-1.74751e-06 1.2033e-07 -0.000124253
0.00068227 -8.50661e-06 2.19294e-06
-8.50661e-06 4.82012e-05 2.50106e-06
2.19294e-06 2.50106e-06 -6.10503e-06
0.000837898 4.99396e-05 7.59486e-07
4.99396e-05 0.000177965 2.76217e-06
7.59486e-07 2.76217e-06 7.47894e-05
0.00107345 0.000224598 -2.25424e-06
0.000224598 0.000265934 -7.64239e-07
-2.25424e-06 -7.64239e-07 7.36465e-05
0.00118882 8.26068e-05 2.20387e-07
8.26068e-05 0.000397564 9.41379e-07
2.20387e-07 9.41379e-07 0.000240356
0.00112439 0.000131587 -5.24412e-06
0.000131587 0.000298403 -6.02406e-06
-5.24412e-06 -6.02406e-06 0.000136951
0.00175635 0.000256882 -2.84283e-06
0.000256882 0.000146845 -2.59497e-06
-2.84283e-06 -2.59497e-06 -2.22318e-06
0.00175606 0.000355339 1.7071e-06
0.000355339 0.000236423 2.36569e-07
1.7071e-06 2.36569e-07 3.19957e-05
0.0015266 0.000332102 3.92384e-06
0.000332102 2.74605e-05 -8.91704e-07
3.92384e-06 -8.91704e-07 -0.000149069
0.000871849 0.000239532 -3.00411e-07
0.000239532 6.96552e-05 3.41922e-06
-3.00411e-07 3.41922e-06 -0.000177833
0.00144843 0.000335582 5.95336e-06
0.000335582 0.00014912 -7.5133e-07
5.95336e-06 -7.5133e-07 -8.41588e-05
0.000635209 -9.86913e-06 -1.78577e-07
-9.86913e-06 1.75395e-05 1.5412e-08
-1.78577e-07 1.5412e-08 -3.31751e-05
0.000561502 2.1182e-05 1.49684e-06
2.1182e-05 -8.12791e-06 1.53472e-06
1.49684e-06 1.53472e-06 -8.6765e-05
0.000555858 9.45234e-06 -5.86299e-07
9.45234e-06 -6.74033e-06 -9.36505e-08
-5.86299e-07 -9.36505e-08 -8.54827e-05
0.000926966 8.66186e-05 4.0845e-07
8.66186e-05 0.000224928 -3.88962e-07
4.0845e-07 -3.88962e-07 0.000126551
0.000685417 6.62573e-05 1.83448e-06
6.62573e-05 7.61507e-05 1.35583e-06
1.83448e-06 1.35583e-06 -5.96853e-06
0.000629714 2.47284e-05 1.97923e-06
2.47284e-05 2.0383e-05 2.31989e-06
1.97923e-06 2.31989e-06 -2.92483e-05
0.000627411 -1.12968e-05 -6.39318e-07
-1.12968e-05 1.58777e-05 8.2393e-09
-6.39318e-07 8.2393e-09 -3.35113e-05
0.00124945 -3.94862e-05 7.88462e-07
-3.94862e-05 0.000369737 2.52932e-06
7.88462e-07 2.52932e-06 0.000358278
0.000628654 -2.13322e-05 -1.09497e-06
-2.13322e-05 1.43378e-05 -2.32578e-06
-1.09497e-06 -2.32578e-06 -3.52043e-05
0.00129592 -4.85896e-05 -5.2793e-06
-4.85896e-05 0.000401022 -1.38867e-06
-5.2793e-06 -1.38867e-06 0.000388124
0.000865906 -3.98379e-05 2.29298e-05
-3.98379e-05 0.000153987 7.50518e-06
2.29298e-05 7.50518e-06 0.000158925
0.00131336 -5.71082e-05 -9.48715e-06
-5.71082e-05 0.000417407 -3.8556e-06
-9.48715e-06 -3.8556e-06 0.000402272
0.001575 -6.60418e-05 2.07107e-05
-6.60418e-05 0.000585489 1.91921e-06
2.07107e-05 1.91921e-06 0.000590665
0.00230581 -9.40772e-05 -2.87234e-05
-9.40772e-05 0.00102878 -3.56084e-06
-2.87234e-05 -3.56084e-06 0.00103451
0.00048264 6.1908e-05 -1.83374e-06
6.1908e-05 -5.38357e-05 -5.14119e-06
-1.83374e-06 -5.14119e-06 -8.36567e-05
0.000519006 2.45975e-05 3.35484e-07
2.45975e-05 -3.29293e-05 2.96059e-07
3.35484e-07 2.96059e-07 -6.60038e-05
0.00269765 0.000115689 3.54068e-05
0.000115689 0.00127037 -3.39791e-06
3.54068e-05 -3.39791e-06 0.00126959
0.00313264 0.000110319 -6.59332e-06
0.000110319 0.00153121 -3.87177e-07
-6.59332e-06 -3.87177e-07 0.00153147
0.000624788 4.03889e-06 -4.7891e-06
4.03889e-06 2.92809e-05 7.76054e-06
-4.7891e-06 7.76054e-06 -1.08311e-05
0.00361154 0.000106599 -0.00010964
0.000106599 0.00181588 5.72623e-06
-0.00010964 5.72623e-06 0.00181629
0.00142746 0.00015747 -4.15666e-06
0.00015747 7.80612e-05 -7.02636e-07
-4.15666e-06 -7.02636e-07 -7.59816e-05
0.00143923 8.9498e-05 -2.6764e-06
8.9498e-05 5.86857e-05 -1.48502e-07
-2.6764e-06 -1.48502e-07 -7.64505e-05
0.00174174 0.000164931 -2.50805e-07
0.000164931 0.000119997 1.14559e-06
-2.50805e-07 1.14559e-06 -9.40145e-06
0.00184941 8.11708e-05 1.14986e-06
8.11708e-05 0.000140882 8.85111e-07
1.14986e-06 8.85111e-07 4.07487e-05
0.00141458 3.50625e-05 -2.27974e-06
3.50625e-05 4.61031e-05 -4.62675e-08
-2.27974e-06 -4.62675e-08 -7.9233e-05
0.00100153 6.64913e-06 -1.20916e-05
6.64913e-06 -2.69071e-05 -4.14891e-08
-1.20916e-05 -4.14891e-08 -0.000145104
0.0014105 9.94559e-06 7.52387e-08
9.94559e-06 4.74075e-05 3.72229e-08
7.52387e-08 3.72229e-08 -7.66932e-05
0.00179935 3.49564e-05 -1.71265e-06
3.49564e-05 0.000125914 8.0677e-09
-1.71265e-06 8.0677e-09 3.10902e-05
0.00177865 0.000128542 -2.24997e-07
0.000128542 0.000110391 1.23346e-07
-2.24997e-07 1.23346e-07 -5.35813e-06
0.00179503 8.17654e-05 2.09906e-06
8.17654e-05 4.78916e-05 8.83606e-07
2.09906e-06 8.83606e-07 -2.63633e-05
0.00173141 0.000204787 -2.82814e-07
0.000204787 0.000137202 -7.0599e-08
-2.82814e-07 -7.0599e-08 -8.22449e-06
0.00176488 0.000185872 -4.25548e-07
0.000185872 6.6546e-05 9.75331e-07
-4.25548e-07 9.75331e-07 -3.46744e-05
0.00178356 2.68946e-06 -2.27352e-06
2.68946e-06 0.000124591 3.47193e-07
-2.27352e-06 3.47193e-07 2.97642e-05
0.00173309 4.04602e-05 2.121e-06
4.04602e-05 2.41683e-05 3.56496e-07
2.121e-06 3.56496e-07 -4.59515e-05
0.00186109 0.000138843 -1.13804e-06
0.000138843 9.49979e-05 -7.91385e-07
-1.13804e-06 -7.91385e-07 1.11503e-05
0.00179269 8.94246e-05 4.65541e-06
8.94246e-05 2.45238e-05 5.42112e-07
4.65541e-06 5.42112e-07 -3.30962e-05
0.00172059 0.000205483 -7.48063e-07
0.000205483 8.33234e-05 -2.49245e-06
-7.48063e-07 -2.49245e-06 -3.81109e-05
0.00188294 0.000195852 3.4758e-06
0.000195852 9.72761e-05 6.79838e-07
3.4758e-06 6.79838e-07 1.30734e-05
0.00143327 -1.45001e-05 -4.3286e-06
-1.45001e-05 6.17193e-05 7.07797e-08
-4.3286e-06 7.07797e-08 -6.26867e-05
0.0017387 -9.4402e-05 -6.21251e-06
-9.4402e-05 0.000246159 6.77925e-07
-6.21251e-06 6.77925e-07 0.000117303
0.00173942 -6.20938e-05 3.07593e-06
-6.20938e-05 0.000103983 -1.21796e-06
3.07593e-06 -1.21796e-06 6.55769e-06
0.00171829 -0.000153312 -8.51296e-08
-0.000153312 0.000106803 -1.6731e-07
-8.51296e-08 -1.6731e-07 -2.12897e-05
0.000877525 -0.000171686 -5.29848e-06
-0.000171686 0.000169076 7.19242e-06
-5.29848e-06 7.19242e-06 1.40926e-05
0.0010246 -0.000226158 -5.66584e-06
-0.000226158 0.000127061 3.52576e-06
-5.66584e-06 3.52576e-06 -7.53892e-05
0.00109707 -0.000273107 -1.73259e-06
-0.000273107 3.03651e-05 5.32402e-07
-1.73259e-06 5.32402e-07 -0.000195044
0.00161459 -0.000227922 -1.15044e-06
-0.000227922 0.000123685 1.25179e-07
-1.15044e-06 1.25179e-07 -3.39036e-05
0.00188656 -0.00022313 3.67284e-06
-0.00022313 0.000180381 -1.80653e-06
3.67284e-06 -1.80653e-06 7.30903e-05
0.00175437 -0.000284513 2.5958e-06
-0.000284513 0.000166032 -1.42968e-06
2.5958e-06 -1.42968e-06 1.12072e-05
0.00169101 -0.000352045 -3.87355e-07
-0.000352045 0.000220062 -1.9928e-06
-3.87355e-07 -1.9928e-06 -6.68188e-08
0.00201491 -0.000327423 5.73832e-06
-0.000327423 0.000330416 -6.48593e-06
5.73832e-06 -6.48593e-06 0.000173209
0.000923013 -0.000172372 -7.60573e-08
-0.000172372 0.000189867 1.59477e-06
-7.60573e-08 1.59477e-06 2.23965e-05
0.000661256 -0.000149358 4.47101e-08
-0.000149358 3.74595e-05 -5.21613e-07
4.47101e-08 -5.21613e-07 -0.00013529
0.000707441 -3.25495e-05 -1.18075e-06
-3.25495e-05 7.95422e-05 3.41344e-06
-1.18075e-06 3.41344e-06 -8.52607e-06
0.000332393 -1.11361e-05 8.74089e-07
-1.11361e-05 -0.000128001 -1.52605e-06
8.74089e-07 -1.52605e-06 -0.000266754
0.00173289 -3.55541e-05 9.78573e-09
-3.55541e-05 9.78414e-05 9.13397e-08
9.78573e-09 9.13397e-08 -2.64916e-06
0.0017759 -0.000106395 3.40041e-07
-0.000106395 0.000127336 -2.9527e-07
3.40041e-07 -2.9527e-07 1.29743e-05
0.00172081 -7.50448e-05 2.03571e-06
-7.50448e-05 3.64101e-05 -5.17852e-07
2.03571e-06 -5.17852e-07 -4.18894e-05
0.00174268 -0.000179108 -1.67713e-06
-0.000179108 5.79052e-05 6.83179e-07
-1.67713e-06 6.83179e-07 -3.7697e-05
0.000981879 -0.000197003 -8.85233e-07
-0.000197003 0.000189798 9.05901e-07
-8.85233e-07 9.05901e-07 4.06897e-06
0.000993494 -0.000253608 1.06277e-06
-0.000253608 6.96323e-05 -1.76477e-06
1.06277e-06 -1.76477e-06 -0.000156788
0.00161432 -0.00037325 -1.60781e-08
-0.00037325 0.00026626 7.76387e-07
-1.60781e-08 7.76387e-07 8.4936e-06
0.00168183 -0.000249761 -1.50323e-06
-0.000249761 9.51468e-05 7.53543e-07
-1.50323e-06 7.53543e-07 -3.94048e-05
0.00184207 -0.000223636 2.08082e-06
-0.000223636 0.000130603 -1.08931e-06
2.08082e-06 -1.08931e-06 3.91597e-05
0.00173088 -0.000363336 -7.11089e-07
-0.000363336 0.000204178 6.34919e-07
-7.11089e-07 6.34919e-07 -1.01613e-05
0.00169964 -0.000299883 -5.46692e-07
-0.000299883 0.000105594 1.07633e-06
-5.46692e-07 1.07633e-06 -2.75947e-05
0.00184145 -0.000309473 3.51282e-06
-0.000309473 0.000204548 -5.22961e-06
3.51282e-06 -5.22961e-06 5.62969e-05
0.00103026 -0.000218635 6.31509e-07
-0.000218635 0.000225214 1.43299e-06
6.31509e-07 1.43299e-06 3.99222e-05
0.00122493 -0.00022914 3.01397e-06
-0.00022914 0.000355941 1.18336e-06
3.01397e-06 1.18336e-06 0.000175997
0.000778282 -0.000110785 -2.09003e-07
-0.000110785 0.000151337 -1.92764e-07
-2.09003e-07 -1.92764e-07 -2.72292e-05
0.000471175 -5.67441e-06 -1.26948e-06
-5.67441e-06 -5.77694e-05 3.84525e-07
-1.26948e-06 3.84525e-07 -0.000135016
0.000407593 -2.08357e-06 -3.6797e-07
-2.08357e-06 -7.22963e-05 -6.82516e-07
-3.6797e-07 -6.82516e-07 -0.00020136
0.00181601 -4.95772e-05 9.39822e-07
-4.95772e-05 7.98516e-05 -6.8151e-07
9.39822e-07 -6.8151e-07 1.09342e-05
0.00185552 -0.000106363 2.17726e-06
-0.000106363 9.68583e-05 2.80138e-07
2.17726e-06 2.80138e-07 1.9858e-05
0.00180391 -0.000214189 1.14262e-07
-0.000214189 6.51526e-05 -1.3211e-06
1.14262e-07 -1.3211e-06 -1.08543e-05
0.00162929 -0.000249165 -9.40541e-07
-0.000249165 2.82213e-05 2.63411e-07
-9.40541e-07 2.63411e-07 -7.6253e-05
0.00104716 -0.000234842 -1.86394e-06
-0.000234842 0.000197599 -4.1275e-06
-1.86394e-06 -4.1275e-06 -1.01414e-05
0.00222069 -0.000356727 -3.61721e-06
-0.000356727 0.000348058 9.3579e-07
-3.61721e-06 9.3579e-07 0.000218456
0.00102186 -0.000295063 2.01667e-06
-0.000295063 5.47477e-05 -3.50645e-06
2.01667e-06 -3.50645e-06 -0.000198871
0.00167675 -0.000414788 4.44766e-07
-0.000414788 0.000260304 2.3166e-06
4.44766e-07 2.3166e-06 -1.07248e-05
0.00162875 -0.000350669 1.83486e-06
-0.000350669 0.000114629 4.02966e-06
1.83486e-06 4.02966e-06 -9.00211e-05
0.000268631 1.22866e-05 2.77644e-07
1.22866e-05 -0.000176713 -3.46053e-06
2.77644e-07 -3.46053e-06 -0.000243469
0.000736272 -3.7469e-05 3.50607e-07
-3.7469e-05 0.000133336 -8.31561e-07
3.50607e-07 -8.31561e-07 1.21944e-05
0.000938726 -6.65426e-05 -1.47295e-06
-6.65426e-05 0.000238407 8.21855e-07
-1.47295e-06 8.21855e-07 8.56805e-05
0.0011425 -0.000236736 -5.55228e-06
-0.000236736 0.000276554 -1.25443e-07
-5.55228e-06 -1.25443e-07 8.59598e-05
0.000505135 -0.000123578 2.65596e-06
-0.000123578 -1.83876e-05 3.48348e-06
2.65596e-06 3.48348e-06 -0.000210665
0.000630494 -0.000194391 -8.72526e-07
-0.000194391 -2.34692e-05 -4.41122e-08
-8.72526e-07 -4.41122e-08 -0.000198455
0.000552607 -5.01696e-05 -1.03471e-06
-5.01696e-05 -2.82467e-05 -4.57302e-06
-1.03471e-06 -4.57302e-06 -4.98777e-05
0.000577289 -2.53511e-05 -1.83719e-06
-2.53511e-05 -2.27265e-06 -2.56815e-06
-1.83719e-06 -2.56815e-06 -6.42119e-05
0.00169401 0.00024628 -1.19218e-06
0.00024628 0.000141824 -1.64777e-07
-1.19218e-06 -1.64777e-07 -2.32429e-05
0.000535808 -6.35242e-05 1.36999e-06
-6.35242e-05 9.58409e-06 -2.61749e-06
1.36999e-06 -2.61749e-06 -0.000109455
0.000803914 0.000147584 -1.37397e-06
0.000147584 0.00013189 6.58059e-07
-1.37397e-06 6.58059e-07 -3.543e-05
0.000204314 6.55829e-05 1.53032e-06
6.55829e-05 -0.000209914 1.63084e-06
1.53032e-06 1.63084e-06 -0.000371524
0.0015578 0.000296314 -4.9229e-07
0.000296314 0.000177977 2.87303e-07
-4.9229e-07 2.87303e-07 -2.298e-05
0.00164521 0.000308785 2.08561e-07
0.000308785 0.00012472 2.6578e-07
2.08561e-07 2.6578e-07 -5.43076e-05
0.00100322 0.000237367 1.19848e-06
0.000237367 0.000176906 -1.63404e-06
1.19848e-06 -1.63404e-06 -5.93749e-05
0.00163373 0.000308068 -1.25075e-06
0.000308068 0.000347227 -7.59489e-07
-1.25075e-06 -7.59489e-07 0.000108572
0.00174169 0.000346153 -2.90516e-06
0.000346153 0.000272097 -4.73805e-07
-2.90516e-06 -4.73805e-07 5.55057e-05
0.000632123 -9.06336e-06 -3.23705e-07
-9.06336e-06 1.97474e-05 1.74692e-07
-3.23705e-07 1.74692e-07 -3.45219e-05
0.000697638 -5.35416e-06 -9.71684e-07
-5.35416e-06 9.34562e-05 4.13247e-07
-9.71684e-07 4.13247e-07 -5.11082e-06
0.0010957 0.000226914 -8.79751e-07
0.000226914 0.000279953 -5.59498e-08
-8.79751e-07 -5.59498e-08 8.75225e-05
0.00083683 3.41051e-05 3.97151e-07
3.41051e-05 0.000186575 -2.0405e-07
3.97151e-07 -2.0405e-07 3.65941e-05
0.000829838 0.000143755 9.45361e-07
0.000143755 0.000141635 1.20622e-06
9.45361e-07 1.20622e-06 -2.7018e-05
0.00173374 0.00025844 -1.85984e-06
0.00025844 0.000134903 -1.40352e-06
-1.85984e-06 -1.40352e-06 -1.53975e-05
0.0017242 0.000352595 1.46424e-06
0.000352595 0.000214961 4.10983e-07
1.46424e-06 4.10983e-07 1.06952e-05
0.00166375 0.000337022 4.68725e-07
0.000337022 0.000107789 6.81048e-08
4.68725e-07 6.81048e-08 -6.7636e-05
0.000826527 0.000241212 3.09746e-07
0.000241212 3.58329e-05 3.1911e-06
3.09746e-07 3.1911e-06 -0.000211722
0.00159733 0.000348251 -1.7603e-06
0.000348251 0.000245839 -8.75935e-07
-1.7603e-06 -8.75935e-07 9.13986e-06
0.000776117 3.35188e-05 8.10752e-07
3.35188e-05 0.000129303 1.92489e-06
8.10752e-07 1.92489e-06 4.19641e-05
0.000395226 -8.20977e-06 -1.77029e-06
-8.20977e-06 -7.68945e-05 3.08092e-06
-1.77029e-06 3.08092e-06 -0.000195062
0.0010761 0.000238972 -3.4619e-06
0.000238972 0.000222849 -1.03502e-06
-3.4619e-06 -1.03502e-06 2.13543e-05
0.000659318 0.000108219 -4.65376e-06
0.000108219 0.000105804 -4.2021e-06
-4.65376e-06 -4.2021e-06 -7.27694e-05
0.000782639 0.00020752 -1.0657e-06
0.00020752 8.58162e-05 -2.52374e-06
-1.0657e-06 -2.52374e-06 -9.01947e-05
0.00161525 0.000274109 -7.22102e-08
0.000274109 -1.2465e-06 -2.16505e-06
-7.22102e-08 -2.16505e-06 -0.000126869
0.00189964 0.000392043 3.58437e-06
0.000392043 0.000297543 -1.91765e-06
3.58437e-06 -1.91765e-06 8.08595e-05
0.00154616 0.000349162 3.23829e-06
0.000349162 2.75141e-05 1.97094e-07
3.23829e-06 1.97094e-07 -0.000149602
0.00155317 0.000317526 2.75675e-06
0.000317526 0.000390738 7.34141e-06
2.75675e-06 7.34141e-06 0.000123327
0.00162391 0.000375905 -1.15026e-06
0.000375905 0.000264636 -8.43723e-07
-1.15026e-06 -8.43723e-07 2.13196e-05
0.000613688 -2.07799e-05 -1.41618e-06
-2.07799e-05 6.27682e-06 -2.43711e-06
-1.41618e-06 -2.43711e-06 -4.52547e-05
0.000626891 2.54871e-05 9.59333e-07
2.54871e-05 3.23606e-05 3.29936e-07
9.59333e-07 3.29936e-07 -4.70144e-05
0.000531363 2.57596e-06 -2.82005e-07
2.57596e-06 -2.10245e-05 1.00221e-06
-2.82005e-07 1.00221e-06 -0.000107199
0.000448605 -2.99248e-05 -6.65786e-07
-2.99248e-05 -7.07828e-05 -1.32423e-06
-6.65786e-07 -1.32423e-06 -0.000148569
0.00066766 3.27816e-05 -2.57783e-07
3.27816e-05 6.46429e-05 2.5104e-08
-2.57783e-07 2.5104e-08 -1.59946e-05
0.000691089 4.36066e-05 -2.67395e-07
4.36066e-05 7.54841e-05 -3.55849e-07
-2.67395e-07 -3.55849e-07 -1.39117e-05
0.000823645 7.40568e-05 -1.17256e-06
7.40568e-05 0.000161712 -1.59777e-06
-1.17256e-06 -1.59777e-06 6.27147e-05
0.000531043 -1.45737e-05 6.42304e-07
-1.45737e-05 -5.18697e-06 3.63037e-07
6.42304e-07 3.63037e-07 -0.000104582
0.000692171 5.53076e-05 8.88447e-07
5.53076e-05 7.58506e-05 1.46001e-06
8.88447e-07 1.46001e-06 -1.55417e-06
0.000636369 3.13246e-05 2.0345e-06
3.13246e-05 2.87003e-05 2.34636e-06
2.0345e-06 2.34636e-06 -2.20665e-05
0.000627169 -1.75821e-06 -1.10132e-06
-1.75821e-06 1.89166e-05 1.08261e-08
-1.10132e-06 1.08261e-08 -3.07137e-05
0.00125445 -2.74976e-05 8.86312e-07
-2.74976e-05 0.000370831 2.46536e-06
8.86312e-07 2.46536e-06 0.000360364
0.000598078 -4.36869e-05 -1.53756e-07
-4.36869e-05 1.56967e-06 -2.29921e-06
-1.53756e-07 -2.29921e-06 -4.94664e-05
0.00129671 -3.64257e-05 -4.54482e-06
-3.64257e-05 0.000397516 -1.44385e-06
-4.54482e-06 -1.44385e-06 0.000386338
0.000865246 -3.24496e-05 1.92231e-05
-3.24496e-05 0.000148158 7.83596e-06
1.92231e-05 7.83596e-06 0.000154582
0.00133375 -4.62907e-05 -8.34098e-06
-4.62907e-05 0.000423064 -5.4574e-06
-8.34098e-06 -5.4574e-06 0.0004104
0.000811666 -4.07643e-05 7.06274e-06
-4.07643e-05 0.000121317 2.94203e-06
7.06274e-06 2.94203e-06 0.000125717
0.00224208 -8.82274e-05 -4.75952e-06
-8.82274e-05 0.000982873 -1.93376e-06
-4.75952e-06 -1.93376e-06 0.000989963
0.000513987 4.47382e-05 -5.57754e-07
4.47382e-05 -4.8087e-05 -3.93021e-06
-5.57754e-07 -3.93021e-06 -6.88292e-05
0.000519938 4.4213e-05 -7.998e-07
4.4213e-05 -3.54846e-05 2.28139e-08
-7.998e-07 2.28139e-08 -6.33274e-05
0.00248354 9.99036e-05 2.63004e-05
9.99036e-05 0.00113669 -3.63827e-06
2.63004e-05 -3.63827e-06 0.00114006
0.000576516 1.13157e-05 -3.86226e-06
1.13157e-05 -1.65062e-06 6.40121e-06
-3.86226e-06 6.40121e-06 -3.35785e-05
0.00282114 0.000115981 -9.19136e-06
0.000115981 0.00134298 -5.55978e-07
-9.19136e-06 -5.55978e-07 0.00134235
0.00325237 9.86114e-05 -9.15242e-05
9.86114e-05 0.00159943 4.66202e-06
-9.15242e-05 4.66202e-06 0.00160243
0.00170825 0.000205207 -1.65673e-06
0.000205207 0.000120013 7.23252e-07
-1.65673e-06 7.23252e-07 -2.59631e-05
0.00179046 0.0001264 1.16898e-06
0.0001264 0.000117951 1.25903e-06
1.16898e-06 1.25903e-06 2.44054e-06
0.00180599 0.000183884 1.09494e-06
0.000183884 8.77138e-05 2.19489e-06
1.09494e-06 2.19489e-06 -1.06379e-05
0.0018436 8.09082e-05 1.56513e-06
8.09082e-05 7.72509e-05 1.21675e-06
1.56513e-06 1.21675e-06 8.45628e-06
0.00180327 2.8098e-05 -3.90568e-07
2.8098e-05 0.000129745 1.47861e-07
-3.90568e-07 1.47861e-07 3.52585e-05
0.00140845 1.26835e-05 -2.17422e-06
1.26835e-05 4.68849e-05 4.67807e-08
-2.17422e-06 4.67807e-08 -7.72332e-05
0.00174994 3.9796e-06 -1.4235e-06
3.9796e-06 0.00010352 1.79043e-08
-1.4235e-06 1.79043e-08 6.54622e-06
0.00177473 3.85024e-05 1.85586e-06
3.85024e-05 5.15707e-05 3.72606e-09
1.85586e-06 3.72606e-09 -2.03261e-05
0.00185963 0.000137513 -1.40851e-06
0.000137513 9.63827e-05 -6.40027e-07
-1.40851e-06 -6.40027e-07 1.20594e-05
0.00182573 9.06185e-05 1.88963e-06
9.06185e-05 4.18424e-05 5.28838e-07
1.88963e-06 5.28838e-07 -1.27189e-05
0.00174446 0.000204494 -8.07459e-07
0.000204494 0.000104861 -2.5947e-07
-8.07459e-07 -2.5947e-07 -1.65732e-05
0.00184339 0.000197097 3.59603e-06
0.000197097 7.41979e-05 1.46621e-06
3.59603e-06 1.46621e-06 -6.74941e-06
0.00179424 -7.05731e-06 6.49984e-08
-7.05731e-06 7.69149e-05 1.2516e-07
6.49984e-08 1.2516e-07 5.54696e-06
0.00186398 4.32993e-05 4.63324e-06
4.32993e-05 5.04661e-05 1.35215e-07
4.63324e-06 1.35215e-07 1.03919e-05
0.00186888 0.00014186 3.51837e-06
0.00014186 6.32217e-05 8.51535e-07
3.51837e-06 8.51535e-07 2.40951e-06
0.00187412 0.000242329 7.79619e-07
0.000242329 0.000106614 -7.92756e-07
7.79619e-07 -7.92756e-07 1.20641e-05
0.00172295 -3.55697e-05 1.39325e-06
-3.55697e-05 9.25478e-05 -2.64331e-08
1.39325e-06 -2.64331e-08 -8.10616e-06
0.0017033 -0.000106994 2.34988e-06
-0.000106994 8.71561e-05 -1.25625e-06
2.34988e-06 -1.25625e-06 -2.94805e-05
0.00178065 -7.46172e-05 4.02499e-06
-7.46172e-05 7.19495e-05 -1.6799e-06
4.02499e-06 -1.6799e-06 -2.38236e-06
0.00173049 -0.000175805 -4.5048e-07
-0.000175805 5.66215e-05 6.12303e-08
-4.5048e-07 6.12303e-08 -4.08823e-05
0.00110284 -0.000207348 -1.17496e-06
-0.000207348 0.000262511 4.85272e-06
-1.17496e-06 4.85272e-06 7.40156e-05
0.00111141 -0.000261033 -1.91993e-07
-0.000261033 0.000135301 1.14197e-06
-1.91993e-07 1.14197e-06 -8.93707e-05
0.00163466 -0.000378838 -6.20393e-07
-0.000378838 0.000279133 -2.97439e-07
-6.20393e-07 -2.97439e-07 1.71999e-05
0.00163606 -0.000246755 4.44003e-07
-0.000246755 7.39599e-05 -5.28659e-07
4.44003e-07 -5.28659e-07 -6.41491e-05
0.00169701 -0.000220477 3.64434e-06
-0.000220477 4.18894e-05 -2.07819e-06
3.64434e-06 -2.07819e-06 -4.55307e-05
0.00175282 -0.000302596 3.73437e-06
-0.000302596 0.000134149 -5.29997e-07
3.73437e-06 -5.29997e-07 5.83542e-07
0.00172596 -0.000363902 -1.74895e-06
-0.000363902 0.000203976 -2.80265e-06
-1.74895e-06 -2.80265e-06 -1.11611e-05
0.00172888 -0.000303168 2.66429e-06
-0.000303168 0.000127145 -1.14756e-05
2.66429e-06 -1.14756e-05 -1.6714e-05
0.0012364 -0.000238181 2.26569e-06
-0.000238181 0.000344451 2.44603e-06
2.26569e-06 2.44603e-06 0.000155447
0.00103251 -0.00021 3.42802e-06
-0.00021 0.000232181 -2.16706e-06
3.42802e-06 -2.16706e-06 6.01769e-05
0.00071023 -9.05604e-05 1.54461e-06
-9.05604e-05 0.000107455 -2.67454e-06
1.54461e-06 -2.67454e-06 -7.14295e-05
0.000372386 9.65725e-06 -1.08923e-06
9.65725e-06 -0.000115396 2.92843e-06
-1.08923e-06 2.92843e-06 -0.000194743
0.000418352 2.64695e-05 1.49804e-06
2.64695e-05 -6.76746e-05 -6.82895e-08
1.49804e-06 -6.82895e-08 -0.000192987
0.00186582 -5.46701e-05 -4.82127e-08
-5.46701e-05 0.000111455 -1.20776e-07
-4.82127e-08 -1.20776e-07 4.10469e-05
0.00181005 -0.000109018 1.2967e-06
-0.000109018 6.76489e-05 -7.34428e-07
1.2967e-06 -7.34428e-07 -1.09868e-05
0.00181666 -0.000208591 -2.1596e-06
-0.000208591 7.9438e-05 2.5445e-07
-2.1596e-06 2.5445e-07 1.42822e-06
0.00114124 -0.000241253 -9.81722e-07
-0.000241253 0.000253649 3.59934e-07
-9.81722e-07 3.59934e-07 4.46824e-05
0.00107867 -0.000292942 1.75085e-06
-0.000292942 7.78213e-05 -2.22005e-06
1.75085e-06 -2.22005e-06 -0.000171095
0.00163729 -0.000417712 -2.78475e-07
-0.000417712 0.000239278 4.67587e-07
-2.78475e-07 4.67587e-07 -3.57531e-05
0.00165544 -0.000250296 4.47581e-07
-0.000250296 3.83436e-05 -3.08396e-07
4.47581e-07 -3.08396e-07 -6.64747e-05
0.00169148 -0.000350715 7.1435e-07
-0.000350715 0.00015421 -2.19176e-06
7.1435e-07 -2.19176e-06 -4.4023e-05
0.00189099 -0.000335024 -3.60027e-07
-0.000335024 0.000171806 -1.06385e-06
-3.60027e-07 -1.06385e-06 4.27568e-05
0.000309181 3.30022e-05 -2.55209e-07
3.30022e-05 -0.000157366 -8.6732e-07
-2.55209e-07 -8.6732e-07 -0.000220437
0.00115534 -0.000236635 -1.35875e-07
-0.000236635 0.000272688 1.6029e-06
-1.35875e-07 1.6029e-06 8.34384e-05
0.00065532 -0.000193606 6.61703e-08
-0.000193606 -1.75616e-06 8.54298e-07
6.61703e-08 8.54298e-07 -0.000168688
0.00095139 -0.00016049 -6.53971e-07
-0.00016049 0.000246096 3.47994e-07
-6.53971e-07 3.47994e-07 4.59343e-05
0.00110194 -7.41704e-05 1.79603e-07
-7.41704e-05 0.000335616 -6.07939e-07
1.79603e-07 -6.07939e-07 0.000182416
0.000619527 8.89633e-07 -4.46267e-07
8.89633e-07 5.73613e-05 5.18963e-07
-4.46267e-07 5.18963e-07 -6.05987e-05
0.00164957 -6.14561e-05 2.01491e-06
-6.14561e-05 -5.2728e-05 -2.60556e-07
2.01491e-06 -2.60556e-07 -0.000109227
0.00202361 -0.000150824 2.22638e-06
-0.000150824 0.000122851 -3.13357e-07
2.22638e-06 -3.13357e-07 7.43704e-05
0.00160637 -0.000240733 1.47849e-06
-0.000240733 -6.06272e-05 -1.147e-06
1.47849e-06 -1.147e-06 -0.000132233
0.00203619 -0.000313896 -6.80497e-07
-0.000313896 0.000170948 -1.95903e-06
-6.80497e-07 -1.95903e-06 7.07771e-05
0.00145174 -0.000289666 -4.23521e-06
-0.000289666 0.000386616 -5.08989e-06
-4.23521e-06 -5.08989e-06 0.000161068
0.00186219 -0.000372837 1.01339e-06
-0.000372837 0.000176905 4.22063e-06
1.01339e-06 4.22063e-06 1.27081e-05
0.00139549 -0.000378883 -1.89436e-06
-0.000378883 0.000213217 8.50152e-07
-1.89436e-06 8.50152e-07 -8.48869e-05
0.00170134 -0.000437541 -1.93756e-06
-0.000437541 0.00026843 2.71358e-06
-1.93756e-06 2.71358e-06 -1.71138e-05
0.00030613 5.12241e-05 -1.83535e-06
5.12241e-05 -0.000163399 -2.25141e-06
-1.83535e-06 -2.25141e-06 -0.000216643
0.000724018 -8.44042e-07 -8.98083e-08
-8.44042e-07 0.000116502 -7.05744e-07
-8.98083e-08 -7.05744e-07 1.52606e-05
0.000968191 -0.000102588 -1.72402e-06
-0.000102588 0.000264752 1.89396e-06
-1.72402e-06 1.89396e-06 0.000126308
0.00089342 -2.78241e-05 -2.24657e-06
-2.78241e-05 0.000212737 2.84863e-06
-2.24657e-06 2.84863e-06 2.79798e-05
0.000619958 -0.000208485 -3.10938e-06
-0.000208485 -5.70823e-05 -3.74368e-06
-3.10938e-06 -3.74368e-06 -0.00024993
0.000975721 -0.000221328 -6.42113e-06
-0.000221328 0.000206696 1.21195e-06
-6.42113e-06 1.21195e-06 2.36405e-06
0.000590485 -1.70685e-05 -2.1888e-06
-1.70685e-05 -3.97732e-06 -2.34585e-06
-2.1888e-06 -2.34585e-06 -5.80962e-05
0.000567411 -4.24647e-05 2.59639e-07
-4.24647e-05 1.17903e-05 -1.86537e-06
2.59639e-07 -1.86537e-06 -8.06206e-05
0.00171408 0.00026047 -2.10491e-06
0.00026047 0.000123533 -4.41124e-07
-2.10491e-06 -4.41124e-07 -2.80813e-05
0.000457589 -1.18397e-05 7.73723e-07
-1.18397e-05 -4.0903e-05 -1.30713e-06
7.73723e-07 -1.30713e-06 -0.000182205
0.00111169 0.000228344 1.03793e-06
0.000228344 0.000290163 -1.78273e-07
1.03793e-06 -1.78273e-07 9.82839e-05
0.00019808 7.42e-05 2.82224e-06
7.42e-05 -0.000239231 2.21797e-06
2.82224e-06 2.21797e-06 -0.000390818
0.001698 0.000350606 -7.03551e-07
0.000350606 0.000194952 2.58741e-07
-7.03551e-07 2.58741e-07 -9.29729e-06
0.001812 0.00034289 -2.69443e-06
0.00034289 0.000192014 1.14244e-06
-2.69443e-06 1.14244e-06 1.74987e-05
0.000938951 0.000256238 -1.5609e-06
0.000256238 9.51805e-05 4.84109e-07
-1.5609e-06 4.84109e-07 -0.000154344
0.00173106 0.000358691 -2.07784e-06
0.000358691 0.000334575 1.37917e-06
-2.07784e-06 1.37917e-06 9.38818e-05
0.000696363 1.0669e-05 -8.49655e-07
1.0669e-05 7.93639e-05 1.86714e-07
-8.49655e-07 1.86714e-07 -4.33213e-06
0.000636399 1.72043e-05 6.98163e-07
1.72043e-05 6.36946e-05 1.38986e-06
6.98163e-07 1.38986e-06 -5.56898e-05
0.00132124 0.00026137 -9.93176e-07
0.00026137 0.0003784 -2.94431e-06
-9.93176e-07 -2.94431e-06 0.000170243
0.000543972 3.10865e-05 -8.48145e-07
3.10865e-05 1.06151e-05 -4.51292e-07
-8.48145e-07 -4.51292e-07 -0.000144556
0.00058621 0.000171234 -2.04043e-06
0.000171234 -3.85285e-05 -9.31103e-07
-2.04043e-06 -9.31103e-07 -0.000193457
0.00187102 0.000285194 -2.84651e-06
0.000285194 0.00014494 -1.29579e-06
-2.84651e-06 -1.29579e-06 2.13955e-05
0.00197191 0.000393137 1.76813e-06
0.000393137 0.000343042 -2.29804e-07
1.76813e-06 -2.29804e-07 0.000128134
0.00170883 0.000367393 1.78258e-06
0.000367393 0.0001106 2.42506e-06
1.78258e-06 2.42506e-06 -6.92838e-05
0.0013177 0.000300036 3.5922e-06
0.000300036 0.000265655 4.37905e-06
3.5922e-06 4.37905e-06 -7.07612e-06
0.00156041 0.000377506 -2.94963e-06
0.000377506 0.000221693 5.47818e-07
-2.94963e-06 5.47818e-07 -2.60986e-05
0.000394961 -2.01489e-05 -1.0166e-06
-2.01489e-05 -8.69282e-05 2.589e-06
-1.0166e-06 2.589e-06 -0.000181423
0.000114501 7.74917e-05 2.60845e-07
7.74917e-05 -0.000209037 8.14762e-07
2.60845e-07 8.14762e-07 -0.000365259
0.00120365 0.00025973 2.10502e-06
0.00025973 0.00026981 3.74751e-06
2.10502e-06 3.74751e-06 4.62715e-05
-0.000626851 6.40735e-05 3.54933e-06
6.40735e-05 -0.000704249 -2.46181e-07
3.54933e-06 -2.46181e-07 -0.000873295
0.00192513 0.000296698 -1.902e-06
0.000296698 1.3989e-05 -4.44886e-07
-1.902e-06 -4.44886e-07 -4.8356e-05
0.00235686 0.000364835 7.29179e-07
0.000364835 0.000412 -6.89232e-07
7.29179e-07 -6.89232e-07 0.000269686
0.00180694 0.000422161 -1.95102e-06
0.000422161 0.000248591 -3.52163e-06
-1.95102e-06 -3.52163e-06 1.46654e-05
0.000413994 0.000254841 -1.49775e-06
0.000254841 -0.000322243 1.61149e-06
-1.49775e-06 1.61149e-06 -0.00059436
0.000681208 5.42787e-05 -9.07241e-07
5.42787e-05 6.93953e-05 -7.28023e-07
-9.07241e-07 -7.28023e-07 -1.2979e-05
0.000616836 3.28796e-05 -7.54284e-08
3.28796e-05 3.61335e-05 3.74506e-07
-7.54284e-08 3.74506e-07 -5.48324e-05
0.000908562 2.3496e-05 -1.95194e-06
2.3496e-05 0.000205834 -1.40185e-06
-1.95194e-06 -1.40185e-06 0.000118695
0.000657878 3.50702e-06 -1.43759e-06
3.50702e-06 4.94983e-05 -1.30323e-06
-1.43759e-06 -1.30323e-06 -2.41686e-05
0.000458003 -6.66105e-06 -1.66588e-07
-6.66105e-06 -5.89352e-05 -7.69161e-07
-1.66588e-07 -7.69161e-07 -0.000148101
0.000672474 2.33888e-05 1.22937e-08
2.33888e-05 6.62057e-05 4.07899e-09
1.22937e-08 4.07899e-09 -1.22269e-05
0.000671816 7.34739e-05 -6.05608e-07
7.34739e-05 8.22873e-05 -3.26949e-07
-6.05608e-07 -3.26949e-07 -2.06777e-05
0.000617075 1.84605e-05 7.33146e-07
1.84605e-05 4.80944e-05 3.91988e-07
7.33146e-07 3.91988e-07 -5.30485e-05
0.000763369 4.59423e-05 7.75733e-07
4.59423e-05 0.00011993 -1.23049e-06
7.75733e-07 -1.23049e-06 2.8369e-05
0.000699633 -2.33479e-05 1.2631e-06
-2.33479e-05 9.56467e-05 -1.26802e-06
1.2631e-06 -1.26802e-06 -1.1113e-05
0.000541246 4.28902e-05 5.38153e-07
4.28902e-05 1.3992e-06 1.33928e-06
5.38153e-07 1.33928e-06 -0.000101276
0.000664413 6.6984e-05 1.17765e-06
6.6984e-05 6.48147e-05 1.8693e-06
1.17765e-06 1.8693e-06 -1.61043e-05
0.000584825 4.07389e-05 1.57978e-06
4.07389e-05 4.20495e-06 2.14703e-06
1.57978e-06 2.14703e-06 -4.89541e-05
0.000601576 -3.10827e-06 -9.86308e-07
-3.10827e-06 9.15805e-06 3.56376e-09
-9.86308e-07 3.56376e-09 -4.22317e-05
0.00126032 -1.61417e-05 7.12953e-07
-1.61417e-05 0.000374115 2.3827e-06
7.12953e-07 2.3827e-06 0.000363979
0.000600487 -4.0431e-05 2.98684e-08
-4.0431e-05 5.09873e-06 -2.31205e-06
2.98684e-08 -2.31205e-06 -4.57149e-05
0.00130277 -2.46618e-05 -3.81068e-06
-2.46618e-05 0.000399622 -1.5183e-06
-3.81068e-06 -1.5183e-06 0.000389227
0.000864452 -2.45486e-05 1.61319e-05
-2.45486e-05 0.000144096 8.13725e-06
1.61319e-05 8.13725e-06 0.00015146
0.00134033 -3.42696e-05 -6.95968e-06
-3.42696e-05 0.000423417 -5.46755e-06
-6.95968e-06 -5.46755e-06 0.000412266
0.000812536 -3.28694e-05 5.69835e-06
-3.28694e-05 0.00011612 3.04428e-06
5.69835e-06 3.04428e-06 0.000122296
0.000750216 -3.9566e-05 -1.30224e-06
-3.9566e-05 8.44447e-05 -2.1338e-06
-1.30224e-06 -2.1338e-06 8.88958e-05
0.000539878 3.65487e-05 2.77939e-07
3.65487e-05 -4.39398e-05 -3.37871e-06
2.77939e-07 -3.37871e-06 -5.87836e-05
0.000533705 5.11914e-05 -4.36523e-10
5.11914e-05 -3.45999e-05 1.35285e-07
-4.36523e-10 1.35285e-07 -5.67738e-05
0.0022677 8.28259e-05 2.09737e-05
8.28259e-05 0.00100076 -3.76474e-06
2.09737e-05 -3.76474e-06 0.00100865
0.000548507 3.6436e-05 -2.3644e-06
3.6436e-05 -1.92806e-05 5.43721e-06
-2.3644e-06 5.43721e-06 -4.6769e-05
0.00254419 0.000101357 -6.11382e-06
0.000101357 0.00117274 -4.43819e-07
-6.11382e-06 -4.43819e-07 0.00117581
0.0029042 9.3112e-05 -7.03181e-05
9.3112e-05 0.00138916 3.75903e-06
-7.03181e-05 3.75903e-06 0.00139389
0.00176216 0.00020328 -1.85372e-08
0.00020328 0.000123154 2.10159e-06
-1.85372e-08 2.10159e-06 1.72799e-06
0.00185636 0.00013601 -1.53074e-06
0.00013601 9.69725e-05 6.08787e-07
-1.53074e-06 6.08787e-07 1.21967e-05
0.00180254 0.000198079 2.29955e-06
0.000198079 5.02994e-05 1.19814e-06
2.29955e-06 1.19814e-06 -2.73713e-05
0.00181793 9.12131e-05 -2.0313e-06
9.12131e-05 3.52201e-05 -2.47485e-07
-2.0313e-06 -2.47485e-07 -1.66922e-05
0.00179024 3.67032e-05 1.76196e-06
3.67032e-05 6.35889e-05 -2.98123e-07
1.76196e-06 -2.98123e-07 -1.03796e-05
0.00171928 2.00586e-06 -3.53759e-07
2.00586e-06 8.38667e-05 -5.93239e-09
-3.53759e-07 -5.93239e-09 -1.51898e-05
0.0017961 -4.07677e-06 -2.12054e-08
-4.07677e-06 7.74941e-05 -7.03658e-08
-2.12054e-08 -7.03658e-08 6.32292e-06
0.00184166 4.25368e-05 1.04758e-06
4.25368e-05 4.80877e-05 1.45335e-07
1.04758e-06 1.45335e-07 5.53014e-06
0.00187792 0.000146987 6.66817e-07
0.000146987 6.59367e-05 -3.77364e-07
6.66817e-07 -3.77364e-07 5.14576e-06
0.00190903 0.00023933 1.61243e-07
0.00023933 0.000113889 1.55215e-07
1.61243e-07 1.55215e-07 2.18388e-05
0.00180393 -1.0353e-05 1.40517e-06
-1.0353e-05 3.66676e-05 -5.23329e-07
1.40517e-06 -5.23329e-07 -8.11258e-06
0.00192265 8.85677e-05 3.1231e-06
8.85677e-05 3.19262e-05 -7.73696e-08
3.1231e-06 -7.73696e-08 8.56899e-06
0.00193985 0.000213488 2.9765e-06
0.000213488 5.01209e-05 2.59231e-07
2.9765e-06 2.59231e-07 -1.19792e-05
0.00192804 -5.97074e-05 7.56176e-07
-5.97074e-05 0.000150358 3.57853e-07
7.56176e-07 3.57853e-07 7.8578e-05
0.00176057 -0.000111569 6.97193e-08
-0.000111569 3.64453e-05 -7.22331e-07
6.97193e-08 -7.22331e-07 -4.38598e-05
0.00182702 -0.000202784 -1.8873e-06
-0.000202784 9.31946e-05 6.54854e-07
-1.8873e-06 6.54854e-07 1.31487e-05
0.0013179 -0.000255101 -5.70664e-07
-0.000255101 0.000357542 4.79391e-06
-5.70664e-07 4.79391e-06 0.000146131
0.000999267 -0.000278505 7.82352e-07
-0.000278505 2.14145e-05 4.66595e-07
7.82352e-07 4.66595e-07 -0.000220423
0.00157457 -0.000419287 -3.28387e-07
-0.000419287 0.000206146 -1.3975e-06
-3.28387e-07 -1.3975e-06 -7.18256e-05
0.00167642 -0.000251287 5.05543e-07
-0.000251287 4.53356e-05 -2.21259e-07
5.05543e-07 -2.21259e-07 -5.97725e-05
0.00157097 -0.000315928 1.17254e-06
-0.000315928 -2.37048e-06 -2.7892e-06
1.17254e-06 -2.7892e-06 -0.000131353
0.00177121 -0.000353714 -1.91527e-06
-0.000353714 0.000200523 -7.81123e-06
-1.91527e-06 -7.81123e-06 8.09285e-06
0.00123985 -0.000243348 3.57119e-06
-0.000243348 0.00031263 4.71478e-06
3.57119e-06 4.71478e-06 0.000123159
0.000697416 -0.000193532 -7.17747e-06
-0.000193532 3.31188e-05 1.58972e-06
-7.17747e-06 1.58972e-06 -0.00012644
0.00155149 -0.000204428 9.8675e-07
-0.000204428 0.000609129 9.36936e-08
9.8675e-07 9.36936e-08 0.000394219
0.000369112 2.33042e-05 4.72208e-07
2.33042e-05 -0.000122689 7.98447e-07
4.72208e-07 7.98447e-07 -0.000184476
0.000953947 -7.77249e-05 1.86195e-06
-7.77249e-05 0.000243942 -8.0835e-07
1.86195e-06 -8.0835e-07 9.78473e-05
0.000486072 3.44791e-05 2.46571e-06
3.44791e-05 -2.8571e-05 1.59633e-06
2.46571e-06 1.59633e-06 -0.000143118
0.00176545 -6.19775e-05 -5.39815e-07
-6.19775e-05 1.61802e-05 1.2727e-07
-5.39815e-07 1.2727e-07 -4.15401e-05
0.00196034 -0.000155673 1.10111e-07
-0.000155673 8.61999e-05 -1.94802e-07
1.10111e-07 -1.94802e-07 3.41112e-05
0.00174785 -0.000243912 -1.16908e-07
-0.000243912 2.58022e-05 4.60053e-07
-1.16908e-07 4.60053e-07 -4.78636e-05
0.00118951 -0.000263115 -1.82759e-06
-0.000263115 0.000236036 3.163e-07
-1.82759e-06 3.163e-07 1.43074e-05
0.00112614 -0.00034894 -4.18207e-07
-0.00034894 5.96312e-05 -6.14e-07
-4.18207e-07 -6.14e-07 -0.000228639
0.00174001 -0.00043493 -3.45999e-06
-0.00043493 0.000293423 1.77636e-07
-3.45999e-06 1.77636e-07 1.58382e-05
0.00198183 -0.000317229 9.19634e-07
-0.000317229 0.00014327 -4.00217e-07
9.19634e-07 -4.00217e-07 4.07594e-05
0.00170681 -0.000366831 1.17938e-06
-0.000366831 7.88458e-05 -2.91388e-06
1.17938e-06 -2.91388e-06 -8.54784e-05
0.00046389 4.27261e-05 -2.4508e-07
4.27261e-05 -7.29792e-05 -9.31925e-07
-2.4508e-07 -9.31925e-07 -0.000122393
0.000741611 -9.35136e-06 -5.80553e-07
-9.35136e-06 0.000125548 3.11571e-07
-5.80553e-07 3.11571e-07 2.48454e-05
0.000288725 -0.000176506 -2.97196e-06
-0.000176506 -0.000247716 4.44366e-06
-2.97196e-06 4.44366e-06 -0.00043007
0.00139264 -0.000242598 5.21047e-07
-0.000242598 0.000463988 -3.56052e-07
5.21047e-07 -3.56052e-07 0.00025923
0.000993223 -6.74998e-05 -8.78415e-08
-6.74998e-05 0.000280076 -8.80574e-07
-8.78415e-08 -8.80574e-07 9.45052e-05
0.000848621 -7.50443e-05 -4.83615e-07
-7.50443e-05 0.000194774 1.36575e-06
-4.83615e-07 1.36575e-06 5.59738e-05
0.00188863 -7.96935e-05 2.40347e-06
-7.96935e-05 2.90157e-05 8.9091e-08
2.40347e-06 8.9091e-08 -2.22106e-06
0.00196992 -0.000222946 6.77153e-07
-0.000222946 4.43633e-05 -9.04876e-07
6.77153e-07 -9.04876e-07 2.17342e-05
0.00191485 -0.000265998 5.99617e-07
-0.000265998 8.05134e-05 -1.51012e-06
5.99617e-07 -1.51012e-06 1.51573e-05
0.00183847 -0.000409468 4.97301e-06
-0.000409468 3.03968e-05 -2.24447e-06
4.97301e-06 -2.24447e-06 -9.44708e-05
0.00045569 -0.000233763 -5.27143e-06
-0.000233763 -0.000227581 -6.15036e-06
-5.27143e-06 -6.15036e-06 -0.000474038
0.00176885 -0.000439404 -1.06444e-06
-0.000439404 0.000270305 1.17401e-05
-1.06444e-06 1.17401e-05 7.62762e-06
0.00188368 -0.000460077 -1.62045e-06
-0.000460077 0.000457306 -1.06223e-06
-1.62045e-06 -1.06223e-06 0.000128117
0.000625644 4.33177e-05 2.14441e-07
4.33177e-05 1.44569e-05 -1.32352e-06
2.14441e-07 -1.32352e-06 -2.74791e-05
0.000691018 -0.000103051 2.65892e-06
-0.000103051 9.09685e-05 -1.71196e-06
2.65892e-06 -1.71196e-06 1.08039e-05
0.000464435 4.47903e-05 -2.00581e-06
4.47903e-05 -4.44958e-05 -1.10721e-06
-2.00581e-06 -1.10721e-06 -0.000130485
0.000684241 -4.50391e-05 -8.4023e-07
-4.50391e-05 0.00011014 2.30678e-06
-8.4023e-07 2.30678e-06 -1.81744e-05
0.000624472 -2.60795e-05 1.0056e-06
-2.60795e-05 4.90004e-05 -4.60933e-07
1.0056e-06 -4.60933e-07 -9.45912e-05
6.00941e-05 -8.91083e-05 -1.48779e-07
-8.91083e-05 -0.000263095 1.34103e-06
-1.48779e-07 1.34103e-06 -0.000442405
3.29537e-05 -0.000173828 -3.25839e-06
-0.000173828 -0.000417641 -5.3464e-06
-3.25839e-06 -5.3464e-06 -0.000591303
0.00256288 -0.000348289 -1.05697e-05
-0.000348289 0.00121073 2.47855e-06
-1.05697e-05 2.47855e-06 0.000920615
0.000640399 -9.02521e-06 -1.13653e-06
-9.02521e-06 4.10902e-05 -9.53737e-07
-1.13653e-06 -9.53737e-07 -3.72794e-05
0.000887393 2.50437e-05 4.41837e-07
2.50437e-05 0.000214491 -1.64024e-06
4.41837e-07 -1.64024e-06 9.07447e-05
0.00211175 0.00029485 -1.54644e-06
0.00029485 0.000284067 -3.27499e-07
-1.54644e-06 -3.27499e-07 0.000162846
0.000854561 6.83436e-05 -1.22441e-06
6.83436e-05 0.000202716 2.80614e-06
-1.22441e-06 2.80614e-06 3.64608e-05
0.00160274 0.000288424 8.01177e-07
0.000288424 0.000556193 -2.40182e-06
8.01177e-07 -2.40182e-06 0.0003388
0.000404724 0.000135899 -6.52683e-07
0.000135899 -0.000151006 1.19682e-06
-6.52683e-07 1.19682e-06 -0.000286433
0.00201616 0.000390981 -3.43366e-06
0.000390981 0.000374831 1.36642e-07
-3.43366e-06 1.36642e-07 0.000162402
0.00184338 0.00038359 -2.41208e-06
0.00038359 0.00017856 4.87351e-06
-2.41208e-06 4.87351e-06 -3.68318e-06
0.00101637 0.000278626 -4.21422e-07
0.000278626 0.000100575 -6.35093e-07
-4.21422e-07 -6.35093e-07 -0.000177251
0.0015082 0.000380849 1.66412e-07
0.000380849 0.000182463 1.46015e-06
1.66412e-07 1.46015e-06 -6.95233e-05
0.000402634 8.41942e-06 -1.7603e-07
8.41942e-06 -7.39693e-05 1.18676e-06
-1.7603e-07 1.18676e-06 -0.000175379
0.000359363 9.68245e-05 -5.70925e-07
9.68245e-05 -6.24478e-05 -2.1397e-06
-5.70925e-07 -2.1397e-06 -0.000223653
0.00126637 0.000268024 3.34425e-06
0.000268024 0.000317986 -1.78767e-06
3.34425e-06 -1.78767e-06 8.81421e-05
0.000623832 0.000158859 -1.48865e-06
0.000158859 2.11495e-05 -3.34627e-06
-1.48865e-06 -3.34627e-06 -0.000157588
0.00201247 0.000290925 1.02612e-06
0.000290925 6.11326e-05 -8.82849e-07
1.02612e-06 -8.82849e-07 -5.31706e-07
0.0021048 0.000357553 3.28552e-06
0.000357553 0.000276419 6.70425e-07
3.28552e-06 6.70425e-07 0.0001302
0.00181119 0.000416613 -1.16384e-06
0.000416613 0.000243864 2.61187e-07
-1.16384e-06 2.61187e-07 1.25209e-05
0.001124 0.00032085 2.94729e-07
0.00032085 6.61822e-05 6.03927e-08
2.94729e-07 6.03927e-08 -0.00020934
0.000481179 3.3001e-05 -1.15761e-06
3.3001e-05 -3.54806e-05 2.73204e-06
-1.15761e-06 2.73204e-06 -0.00013616
0.0019021 0.000234834 -8.59269e-07
0.000234834 -3.71876e-05 1.70647e-06
-8.59269e-07 1.70647e-06 -5.78386e-05
0.00153666 0.000258467 6.90691e-07
0.000258467 0.000625216 2.6986e-06
6.90691e-07 2.6986e-06 0.000415426
0.00123143 0.000276344 3.54474e-06
0.000276344 0.000259961 4.02085e-06
3.54474e-06 4.02085e-06 2.38895e-05
0.00250986 0.000355425 -1.77252e-05
0.000355425 0.000402834 -4.46375e-06
-1.77252e-05 -4.46375e-06 0.000303977
0.00115202 0.000390897 -3.23658e-06
0.000390897 -0.000213021 -7.1901e-06
-3.23658e-06 -7.1901e-06 -0.0004267
0.00204336 0.000432804 -1.92401e-06
0.000432804 0.000508996 3.36557e-06
-1.92401e-06 3.36557e-06 0.000222285
0.00068844 4.74579e-05 -1.22052e-06
4.74579e-05 7.83537e-05 -5.07113e-07
-1.22052e-06 -5.07113e-07 -1.21989e-05
0.000725065 3.97951e-05 -1.2314e-06
3.97951e-05 0.000103935 -4.98137e-07
-1.2314e-06 -4.98137e-07 1.38785e-05
0.000923264 2.7028e-05 -1.5992e-06
2.7028e-05 0.000227303 8.63731e-08
-1.5992e-06 8.63731e-08 0.000141615
0.000633591 -7.56777e-06 -6.7137e-09
-7.56777e-06 4.56332e-05 -1.89089e-06
-6.7137e-09 -1.89089e-06 -3.44399e-05
0.000675203 4.23369e-05 8.25672e-07
4.23369e-05 8.3835e-05 4.55155e-08
8.25672e-07 4.55155e-08 -1.79989e-05
0.000391351 1.09422e-05 -8.15239e-07
1.09422e-05 -7.02135e-05 9.41365e-07
-8.15239e-07 9.41365e-07 -0.000175366
0.000642053 1.74135e-06 -5.67355e-07
1.74135e-06 5.79025e-05 -9.88114e-09
-5.67355e-07 -9.88114e-09 -2.72997e-05
0.000510359 -2.31779e-05 -6.48364e-07
-2.31779e-05 -8.98011e-06 3.85563e-07
-6.48364e-07 3.85563e-07 -0.000115556
0.000565615 -2.53791e-06 4.78582e-07
-2.53791e-06 9.45814e-06 6.29986e-08
4.78582e-07 6.29986e-08 -7.96911e-05
0.000776846 3.58425e-05 4.61726e-07
3.58425e-05 0.000151352 -1.45988e-07
4.61726e-07 -1.45988e-07 3.64306e-05
0.00106742 3.6698e-05 3.88582e-07
3.6698e-05 0.000286765 -1.29579e-06
3.88582e-07 -1.29579e-06 0.000205579
0.000699782 -2.62359e-05 1.71347e-06
-2.62359e-05 8.70928e-05 -1.919e-06
1.71347e-06 -1.919e-06 -8.76635e-06
0.000764083 3.17463e-05 -9.87069e-09
3.17463e-05 0.000142071 7.4086e-08
-9.87069e-09 7.4086e-08 2.22389e-05
0.00063821 3.25526e-05 1.89135e-06
3.25526e-05 6.80875e-05 1.55384e-06
1.89135e-06 1.55384e-06 -4.63795e-05
0.00066428 2.05207e-05 1.42605e-06
2.05207e-05 6.44904e-05 1.87758e-06
1.42605e-06 1.87758e-06 -1.89641e-05
0.000587134 -2.54569e-05 -2.02789e-07
-2.54569e-05 5.12109e-06 1.94385e-06
-2.02789e-07 1.94385e-06 -4.75298e-05
0.000601429 -8.0646e-06 -3.23471e-07
-8.0646e-06 1.15029e-05 2.7529e-08
-3.23471e-07 2.7529e-08 -4.00007e-05
0.00127539 -5.73689e-06 6.59318e-07
-5.73689e-06 0.000383986 2.26961e-06
6.59318e-07 2.26961e-06 0.000373358
0.000610597 -2.71588e-05 7.06155e-07
-2.71588e-05 1.31141e-05 -2.42948e-06
7.06155e-07 -2.42948e-06 -3.73076e-05
0.00130754 -1.35603e-05 -2.88545e-06
-1.35603e-05 0.000402671 -1.57e-06
-2.88545e-06 -1.57e-06 0.000392413
0.000857585 -1.67215e-05 1.20609e-05
-1.67215e-05 0.000137863 8.29025e-06
1.20609e-05 8.29025e-06 0.000145771
0.001352 -2.28175e-05 -4.97165e-06
-2.28175e-05 0.000429087 -5.57746e-06
-4.97165e-06 -5.57746e-06 0.000418547
0.000822901 -2.5012e-05 3.79132e-06
-2.5012e-05 0.000118249 3.15276e-06
3.79132e-06 3.15276e-06 0.000125492
0.000769035 -3.17507e-05 -8.71742e-07
-3.17507e-05 8.91037e-05 -2.10965e-06
-8.71742e-07 -2.10965e-06 9.54777e-05
0.00066206 1.09327e-05 1.0362e-06
1.09327e-05 3.21818e-05 -1.51755e-06
1.0362e-06 -1.51755e-06 -6.42161e-06
0.000553979 2.83069e-05 4.13769e-07
2.83069e-05 -4.28634e-05 -3.46291e-06
4.13769e-07 -3.46291e-06 -5.40786e-05
0.000560706 3.75432e-05 1.03147e-07
3.75432e-05 -3.10555e-05 1.1119e-07
1.03147e-07 1.1119e-07 -4.62814e-05
0.00215138 6.71342e-05 1.84418e-05
6.71342e-05 0.000923076 -3.96959e-06
1.84418e-05 -3.96959e-06 0.000934899
0.000562584 5.57689e-05 2.48859e-06
5.57689e-05 -1.59893e-05 4.75601e-06
2.48859e-06 4.75601e-06 -3.95734e-05
0.00236916 8.63233e-05 -4.02594e-06
8.63233e-05 0.00106164 -3.05738e-07
-4.02594e-06 -3.05738e-07 0.00106865
0.00265502 0.000103365 -3.32155e-05
0.000103365 0.00123834 3.6094e-06
-3.32155e-05 3.6094e-06 0.001241
0.0019494 0.000236689 -5.29124e-07
0.000236689 0.000124345 1.55259e-06
-5.29124e-07 1.55259e-06 3.47519e-05
0.00188823 0.000152224 -2.61972e-06
0.000152224 6.94697e-05 -4.59166e-07
-2.61972e-06 -4.59166e-07 8.60477e-06
0.0018431 4.43903e-05 -2.16127e-06
4.43903e-05 5.96069e-05 1.52198e-08
-2.16127e-06 1.52198e-08 1.48632e-05
0.00178079 -9.34173e-07 1.35796e-07
-9.34173e-07 6.76145e-05 -1.42549e-07
1.35796e-07 -1.42549e-07 -3.453e-06
0.00181341 -6.19812e-06 -1.15743e-06
-6.19812e-06 4.04048e-05 -1.24623e-07
-1.15743e-06 -1.24623e-07 -1.89437e-06
0.00190984 8.39392e-05 2.09e-07
8.39392e-05 2.77421e-05 -5.56288e-08
2.09e-07 -5.56288e-08 2.77414e-06
0.00193353 0.000217408 -5.91232e-07
0.000217408 4.4975e-05 -1.51701e-07
-5.91232e-07 -1.51701e-07 -1.5093e-05
0.00191563 -2.63043e-08 2.36225e-06
-2.63043e-08 2.22497e-05 -3.86315e-07
2.36225e-06 -3.86315e-07 1.07468e-05
0.00199978 0.000125571 2.24508e-06
0.000125571 1.93657e-05 -4.85739e-07
2.24508e-06 -4.85739e-07 -1.54356e-07
0.00217657 7.33409e-05 -4.01256e-06
7.33409e-05 0.000175021 3.16875e-06
-4.01256e-06 3.16875e-06 0.000204199
0.00187273 -6.26784e-05 -3.15448e-06
-6.26784e-05 7.93888e-05 5.10045e-08
-3.15448e-06 5.10045e-08 2.04136e-05
0.00189682 -0.000161493 -3.46505e-06
-0.000161493 4.76342e-05 9.56356e-07
-3.46505e-06 9.56356e-07 -7.90223e-06
0.00188731 -0.00024689 -2.63987e-06
-0.00024689 0.000110444 1.59577e-06
-2.63987e-06 1.59577e-06 3.51073e-05
0.000985463 -0.000241663 -2.82946e-07
-0.000241663 0.00011779 5.91258e-06
-2.82946e-07 5.91258e-06 -0.000101024
0.00110496 -0.000342781 1.12199e-06
-0.000342781 5.02434e-05 1.47579e-06
1.12199e-06 1.47579e-06 -0.000232923
0.00174111 -0.000427331 -3.70738e-06
-0.000427331 0.000300644 -2.69751e-06
-3.70738e-06 -2.69751e-06 3.17799e-05
0.00194171 -0.000319236 2.81462e-06
-0.000319236 0.00012464 4.96603e-07
2.81462e-06 4.96603e-07 2.03876e-05
0.0015028 -0.000352971 -3.29996e-06
-0.000352971 -3.97987e-05 -6.02305e-06
-3.29996e-06 -6.02305e-06 -0.000202629
9.59066e-05 -0.000156563 -1.35225e-06
-0.000156563 -0.000356309 9.91555e-06
-1.35225e-06 9.91555e-06 -0.000530433
0.00196456 -0.000280847 1.31459e-05
-0.000280847 0.000814272 -3.07958e-06
1.31459e-05 -3.07958e-06 0.000605153
0.000698814 -2.68902e-05 3.42298e-07
-2.68902e-05 9.58054e-05 -8.90029e-07
3.42298e-07 -8.90029e-07 -7.35739e-05
0.000569849 1.53101e-05 -6.16532e-08
1.53101e-05 -1.21288e-05 5.35637e-07
-6.16532e-08 5.35637e-07 -5.82465e-05
0.000807687 2.27192e-05 1.1245e-06
2.27192e-05 0.000161065 9.98216e-07
1.1245e-06 9.98216e-07 6.10715e-05
0.000874631 -4.90117e-05 8.80884e-07
-4.90117e-05 0.000212182 1.46533e-06
8.80884e-07 1.46533e-06 7.14338e-05
0.00190208 -8.20237e-05 2.29788e-07
-8.20237e-05 3.05721e-05 -1.10457e-07
2.29788e-07 -1.10457e-07 2.70727e-06
0.000604328 1.71457e-05 9.96404e-07
1.71457e-05 1.56762e-06 1.16001e-07
9.96404e-07 1.16001e-07 -3.97797e-05
0.000548758 -3.43831e-05 -1.7315e-06
-3.43831e-05 -9.48075e-06 -4.73368e-08
-1.7315e-06 -4.73368e-08 -7.89871e-05
0.00194471 -0.000213705 -2.52177e-07
-0.000213705 4.61889e-05 2.38498e-07
-2.52177e-07 2.38498e-07 1.85328e-05
0.0018698 -0.000265815 -1.46344e-06
-0.000265815 5.09905e-05 2.56809e-07
-1.46344e-06 2.56809e-07 -1.39006e-05
0.000721602 -0.00025511 -3.52489e-07
-0.00025511 -6.39155e-05 2.03464e-06
-3.52489e-07 2.03464e-06 -0.000308384
0.00183624 -0.000454703 -2.41572e-07
-0.000454703 0.000439831 3.04305e-07
-2.41572e-07 3.04305e-07 0.00010705
0.00156485 -0.000427217 2.90989e-06
-0.000427217 0.000132925 -1.39352e-06
2.90989e-06 -1.39352e-06 -0.000122738
0.00203142 -0.000417722 2.48808e-06
-0.000417722 0.000150958 -8.88787e-07
2.48808e-06 -8.88787e-07 2.36445e-05
0.000724129 -1.32994e-05 9.06878e-07
-1.32994e-05 0.000113566 -1.11163e-06
9.06878e-07 -1.11163e-06 2.69909e-05
0.00073076 -2.87719e-05 2.55729e-07
-2.87719e-05 0.00013767 1.26033e-06
2.55729e-07 1.26033e-06 7.28448e-06
0.000952919 -0.000232116 -3.43204e-06
-0.000232116 0.000116053 -1.2095e-06
-3.43204e-06 -1.2095e-06 -7.02074e-05
0.00154257 -0.000259831 1.34914e-05
-0.000259831 0.000608918 -3.4965e-06
1.34914e-05 -3.4965e-06 0.000366089
0.000473239 -8.38318e-05 -2.57611e-06
-8.38318e-05 -2.88768e-05 -5.04742e-08
-2.57611e-06 -5.04742e-08 -0.000205577
0.000682303 -2.5829e-05 4.82824e-07
-2.5829e-05 9.28247e-05 -7.63596e-07
4.82824e-07 -7.63596e-07 -5.49696e-05
0.00192452 -9.16763e-05 2.5252e-06
-9.16763e-05 -2.2365e-05 -1.12047e-06
2.5252e-06 -1.12047e-06 -4.21288e-05
0.00187414 -0.000244025 -4.90432e-07
-0.000244025 -4.36054e-05 -2.82709e-07
-4.90432e-07 -2.82709e-07 -1.38997e-05
0.0020208 -0.000373945 -2.63981e-06
-0.000373945 5.80265e-05 -2.44187e-06
-2.63981e-06 -2.44187e-06 -2.19857e-05
0.00159329 -0.000471114 2.43505e-06
-0.000471114 1.63586e-05 2.70164e-07
2.43505e-06 2.70164e-07 -0.000141648
0.000827124 -0.000233669 -8.87512e-06
-0.000233669 1.70346e-05 -8.05458e-06
-8.87512e-06 -8.05458e-06 -0.000226852
0.00248764 -0.000547512 -6.68088e-06
-0.000547512 0.000780748 6.64335e-06
-6.68088e-06 6.64335e-06 0.000424504
0.000412714 5.30155e-05 -1.1178e-06
5.30155e-05 -8.157e-05 -2.22713e-06
-1.1178e-06 -2.22713e-06 -0.000155654
0.0006649 -5.81969e-05 2.99754e-06
-5.81969e-05 6.08265e-05 -8.49539e-07
2.99754e-06 -8.49539e-07 -1.06147e-05
0.000927503 -8.39229e-05 1.48845e-06
-8.39229e-05 0.000227939 1.24459e-06
1.48845e-06 1.24459e-06 0.000131791
0.000431838 1.68072e-05 -1.58733e-06
1.68072e-05 -4.45306e-05 2.54819e-06
-1.58733e-06 2.54819e-06 -0.000165363
0.000931234 -6.39827e-05 -1.52407e-06
-6.39827e-05 0.000240727 2.06707e-06
-1.52407e-06 2.06707e-06 0.000111183
0.00102414 -4.67564e-05 2.27738e-06
-4.67564e-05 0.000250917 1.00652e-06
2.27738e-06 1.00652e-06 9.10334e-05
-0.000468394 -9.23738e-05 6.25155e-06
-9.23738e-05 -0.000422653 6.92309e-07
6.25155e-06 6.92309e-07 -0.000741866
5.24294e-05 -0.00023037 -1.89019e-05
-0.00023037 -0.000394326 2.58319e-06
-1.89019e-05 2.58319e-06 -0.000574638
0.000406515 4.66674e-05 7.86726e-08
4.66674e-05 -6.63697e-05 -1.04755e-06
7.86726e-08 -1.04755e-06 -0.000173003
0.000803979 0.000130962 -3.70963e-06
0.000130962 0.000196969 -2.88334e-06
-3.70963e-06 -2.88334e-06 3.15951e-05
0.00209784 0.000286202 -2.95421e-06
0.000286202 0.000108047 -1.09183e-06
-2.95421e-06 -1.09183e-06 4.64631e-05
0.00192801 0.000354334 -6.60091e-07
0.000354334 0.000182489 1.67491e-06
-6.60091e-07 1.67491e-06 3.18535e-05
0.00179041 0.000224535 -7.04098e-06
0.000224535 0.000685369 -2.31737e-06
-7.04098e-06 -2.31737e-06 0.000505828
0.00127284 0.000270017 -3.29687e-06
0.000270017 0.000331549 -9.08714e-06
-3.29687e-06 -9.08714e-06 9.79887e-05
0.00181992 0.000412048 8.03631e-07
0.000412048 0.000240782 1.62487e-06
8.03631e-07 1.62487e-06 1.13915e-05
0.00174985 0.000377354 -3.57631e-07
0.000377354 0.00041084 -9.91697e-07
-3.57631e-07 -9.91697e-07 0.000132005
0.000587341 6.03225e-05 7.94144e-07
6.03225e-05 3.85958e-05 -9.12812e-07
7.94144e-07 -9.12812e-07 -7.2492e-05
0.00200508 0.000224914 -6.56176e-07
0.000224914 1.13831e-05 -4.892e-07
-6.56176e-07 -4.892e-07 -1.51271e-06
0.00099649 0.00018673 9.00396e-07
0.00018673 0.000302073 1.56715e-06
9.00396e-07 1.56715e-06 0.000108511
0.000949842 0.000251572 1.20794e-06
0.000251572 0.00010691 4.00987e-07
1.20794e-06 4.00987e-07 -0.000128104
0.00227656 0.000346541 3.00217e-06
0.000346541 0.000276649 6.53353e-07
3.00217e-06 6.53353e-07 0.000179736
0.00145 0.000409834 -7.7631e-07
0.000409834 -4.37536e-05 -3.25901e-06
-7.7631e-07 -3.25901e-06 -0.000256384
0.00202032 0.000429779 1.03136e-07
0.000429779 0.000510351 4.11582e-07
1.03136e-07 4.11582e-07 0.00022305
0.00117061 0.000138018 -3.72614e-06
0.000138018 0.000401731 3.11622e-06
-3.72614e-06 3.11622e-06 0.000251042
0.00245228 0.00025368 -4.27373e-05
0.00025368 0.000322536 -1.06798e-05
-4.27373e-05 -1.06798e-05 0.000335531
0.00237744 0.000382005 -5.97434e-06
0.000382005 0.0010385 3.49853e-07
-5.97434e-06 3.49853e-07 0.000810684
0.00223786 0.000405217 -7.2431e-06
0.000405217 0.000757972 -3.15498e-07
-7.2431e-06 -3.15498e-07 0.000493966
0.00196021 0.000462874 -2.02891e-05
0.000462874 0.000126275 -1.27156e-05
-2.02891e-05 -1.27156e-05 -1.61363e-05
0.00106065 0.000378889 -1.45012e-05
0.000378889 -8.66768e-05 -8.5181e-07
-1.45012e-05 -8.5181e-07 -0.000352852
0.000656814 0.000322975 2.76127e-05
0.000322975 -0.000621956 -1.8742e-05
2.76127e-05 -1.8742e-05 -0.000847168
0.000521509 5.44646e-05 8.67438e-07
5.44646e-05 -5.94958e-06 -4.35673e-07
8.67438e-07 -4.35673e-07 -9.99695e-05
0.000665059 3.49306e-05 -1.614e-07
3.49306e-05 8.87197e-05 8.85914e-07
-1.614e-07 8.85914e-07 -8.85004e-08
0.00136492 6.34012e-05 1.57453e-07
6.34012e-05 0.000485423 -4.98618e-07
1.57453e-07 -4.98618e-07 0.000393794
0.000613643 -5.9279e-05 1.58993e-07
-5.9279e-05 4.74183e-05 -2.35737e-06
1.58993e-07 -2.35737e-06 -4.15291e-05
0.000556928 -4.19086e-05 -1.07918e-06
-4.19086e-05 1.40215e-05 -4.38165e-08
-1.07918e-06 -4.38165e-08 -8.90007e-05
0.000916693 0.000122058 -1.39832e-07
0.000122058 0.000233421 7.12705e-07
-1.39832e-07 7.12705e-07 0.000116171
0.000406287 -1.61509e-05 -1.31423e-06
-1.61509e-05 -7.54461e-05 3.09983e-06
-1.31423e-06 3.09983e-06 -0.000166441
0.000637088 -2.29433e-05 -1.23388e-07
-2.29433e-05 5.99215e-05 -3.80107e-08
-1.23388e-07 -3.80107e-08 -3.06439e-05
0.000634698 3.91542e-05 -9.88487e-08
3.91542e-05 5.23771e-05 -3.84328e-07
-9.88487e-08 -3.84328e-07 -5.25638e-05
0.000862381 3.02198e-05 -1.19169e-06
3.02198e-05 0.000168852 1.10171e-07
-1.19169e-06 1.10171e-07 8.67246e-05
0.000755825 1.82049e-05 4.18414e-07
1.82049e-05 0.000125542 -8.81667e-08
4.18414e-07 -8.81667e-08 1.44914e-05
0.000775584 -3.82889e-06 -4.59544e-08
-3.82889e-06 0.000128889 -2.64787e-07
-4.59544e-08 -2.64787e-07 3.07563e-05
0.00087406 2.82566e-05 -5.17603e-07
2.82566e-05 0.00017374 -2.93629e-06
-5.17603e-07 -2.93629e-06 8.90995e-05
0.000805333 3.49161e-05 -1.46188e-06
3.49161e-05 0.000142532 -2.20348e-06
-1.46188e-06 -2.20348e-06 2.99038e-05
0.000809764 7.05478e-05 4.27692e-07
7.05478e-05 0.000148879 3.64142e-07
4.27692e-07 3.64142e-07 4.07184e-05
0.000690328 4.12623e-05 2.5283e-07
4.12623e-05 9.83391e-05 1.23549e-06
2.5283e-07 1.23549e-06 -2.2635e-05
0.000483431 -1.99268e-05 -1.64159e-07
-1.99268e-05 -4.51509e-05 2.05727e-06
-1.64159e-07 2.05727e-06 -0.000131723
0.000885919 -2.68484e-05 6.59553e-08
-2.68484e-05 0.000231299 -1.00532e-06
6.59553e-08 -1.00532e-06 0.000109295
0.000426047 -1.1617e-05 -8.17321e-07
-1.1617e-05 -7.5007e-05 2.23446e-06
-8.17321e-07 2.23446e-06 -0.00016573
0.000560201 6.8193e-06 -1.12866e-06
6.8193e-06 -7.80845e-06 1.9543e-06
-1.12866e-06 1.9543e-06 -6.26412e-05
0.000576993 2.02264e-05 1.16243e-06
2.02264e-05 1.05107e-06 -9.92951e-09
1.16243e-06 -9.92951e-09 -5.27697e-05
0.000547933 3.63845e-06 3.04597e-07
3.63845e-06 -4.66333e-05 3.73172e-06
3.04597e-07 3.73172e-06 -6.20704e-05
0.000587241 -1.28281e-06 -1.48941e-06
-1.28281e-06 4.84604e-06 -2.23961e-06
-1.48941e-06 -2.23961e-06 -4.79582e-05
0.000940635 -2.69645e-06 -1.92866e-06
-2.69645e-06 0.000185924 -1.64858e-06
-1.92866e-06 -1.64858e-06 0.000173026
0.00235876 -1.31547e-05 7.86652e-06
-1.31547e-05 0.00102855 5.18226e-06
7.86652e-06 5.18226e-06 0.00104438
0.00135759 -1.19339e-05 -2.9865e-06
-1.19339e-05 0.000432934 -5.49831e-06
-2.9865e-06 -5.49831e-06 0.000422406
0.000821166 -1.6728e-05 2.0383e-06
-1.6728e-05 0.000114769 3.20997e-06
2.0383e-06 3.20997e-06 0.000122768
0.000782824 -2.34927e-05 -3.20353e-07
-2.34927e-05 9.30299e-05 -2.13228e-06
-3.20353e-07 -2.13228e-06 0.000100564
0.000618003 7.74057e-06 -4.77172e-07
7.74057e-06 9.07089e-06 -1.50214e-06
-4.77172e-07 -1.50214e-06 -2.90968e-05
0.000632145 -3.35738e-06 9.79021e-07
-3.35738e-06 1.5841e-05 -1.08492e-07
9.79021e-07 -1.08492e-07 -2.3689e-05
0.000581001 2.15278e-05 3.46817e-07
2.15278e-05 -3.01486e-05 -3.39134e-06
3.46817e-07 -3.39134e-06 -3.9188e-05
0.000887156 3.42623e-05 -3.77261e-07
3.42623e-05 0.000156214 4.81944e-08
-3.77261e-07 4.81944e-08 0.000146419
0.00211641 5.36844e-05 1.4557e-05
5.36844e-05 0.000895526 -4.18357e-06
1.4557e-05 -4.18357e-06 0.000910015
0.000568447 3.98212e-05 5.64854e-07
3.98212e-05 -2.53844e-05 3.74494e-06
5.64854e-07 3.74494e-06 -4.12045e-05
0.00221299 7.01114e-05 -2.88181e-06
7.01114e-05 0.000960782 -1.83864e-07
-2.88181e-06 -1.83864e-07 0.000971814
0.00242859 8.87804e-05 -2.20228e-05
8.87804e-05 0.00109738 3.95414e-06
-2.20228e-05 3.95414e-06 0.00110373
0.0019282 0.000221277 -4.44364e-06
0.000221277 3.93895e-05 -1.49292e-06
-4.44364e-06 -1.49292e-06 -1.83857e-05
0.00189718 7.97512e-05 -2.27884e-06
7.97512e-05 2.34445e-05 3.44258e-07
-2.27884e-06 3.44258e-07 -3.01383e-06
0.0018375 -4.18007e-06 -3.64375e-06
-4.18007e-06 5.32003e-05 6.87214e-08
-3.64375e-06 6.87214e-08 1.34528e-05
0.00190853 1.07536e-07 9.51475e-08
1.07536e-07 2.10277e-05 -1.51742e-07
9.51475e-08 -1.51742e-07 9.38441e-06
0.00197879 0.000125172 2.59765e-07
0.000125172 2.25323e-05 9.78335e-08
2.59765e-07 9.78335e-08 1.56377e-06
0.00189262 6.25342e-05 4.33694e-06
6.25342e-05 1.60946e-06 2.16788e-07
4.33694e-06 2.16788e-07 2.42351e-05
0.00196289 7.37663e-06 -4.88002e-07
7.37663e-06 -1.63513e-05 -9.62645e-07
-4.88002e-07 -9.62645e-07 -5.90782e-06
0.0028572 0.000305118 3.26408e-05
0.000305118 -0.000273619 6.36422e-06
3.26408e-05 6.36422e-06 -0.000131617
0.00217809 3.80717e-05 -2.88483e-05
3.80717e-05 0.000316028 1.0005e-05
-2.88483e-05 1.0005e-05 0.000380357
0.000608061 7.90097e-05 -9.25532e-07
7.90097e-05 3.69068e-05 -4.78653e-07
-9.25532e-07 -4.78653e-07 -3.4324e-05
0.00190836 -8.3807e-05 -2.23476e-06
-8.3807e-05 2.89453e-05 4.89491e-08
-2.23476e-06 4.89491e-08 4.25229e-06
0.00190897 -0.000204704 -7.11215e-07
-0.000204704 4.29235e-05 8.98278e-07
-7.11215e-07 8.98278e-07 8.598e-06
0.00183142 -0.00026752 2.44701e-07
-0.00026752 2.59858e-05 1.87195e-06
2.44701e-07 1.87195e-06 -3.93491e-05
0.000555902 -0.000236381 6.18713e-07
-0.000236381 -0.000150699 8.77536e-06
6.18713e-07 8.77536e-06 -0.000386746
0.00186597 -0.000455445 2.32733e-06
-0.000455445 0.000464644 4.90713e-06
2.32733e-06 4.90713e-06 0.000128457
0.0014371 -0.000423128 1.99361e-08
-0.000423128 3.6785e-05 -7.99066e-06
1.99361e-08 -7.99066e-06 -0.000214718
0.00225211 -0.000430151 -3.62758e-06
-0.000430151 0.000286587 -1.61882e-06
-3.62758e-06 -1.61882e-06 0.000154831
0.00174635 -0.000284059 1.44174e-05
-0.000284059 0.000566837 -5.42834e-07
1.44174e-05 -5.42834e-07 0.000369713
0.000423063 -0.000165791 1.04176e-05
-0.000165791 -4.73535e-05 -4.85689e-06
1.04176e-05 -4.85689e-06 -0.00024422
0.0010082 -0.000110168 1.04982e-06
-0.000110168 0.000279591 -2.16758e-06
1.04982e-06 -2.16758e-06 0.000102478
0.000606376 4.36392e-06 -8.2312e-07
4.36392e-06 2.21146e-06 1.53271e-06
-8.2312e-07 1.53271e-06 -3.82042e-05
0.000837201 -1.68332e-05 1.90888e-06
-1.68332e-05 0.000193995 -9.08549e-07
1.90888e-06 -9.08549e-07 4.12088e-05
0.000920463 -3.96836e-05 1.87629e-06
-3.96836e-05 0.000235961 -4.79746e-07
1.87629e-06 -4.79746e-07 0.000148279
0.000836624 -2.38808e-05 8.00727e-07
-2.38808e-05 0.000196711 -6.66935e-07
8.00727e-07 -6.66935e-07 6.52151e-05
0.000401286 -2.49867e-05 -1.91763e-06
-2.49867e-05 -0.000102772 9.45714e-07
-1.91763e-06 9.45714e-07 -0.000168945
0.00195126 -0.000105127 -2.50148e-07
-0.000105127 -2.77942e-05 6.33801e-08
-2.50148e-07 6.33801e-08 -3.49666e-05
0.000508632 3.57965e-05 5.38317e-08
3.57965e-05 -1.97723e-05 -1.24933e-06
5.38317e-08 -1.24933e-06 -9.60292e-05
0.000654315 -5.35244e-05 7.50597e-07
-5.35244e-05 6.21164e-05 4.32609e-07
7.50597e-07 4.32609e-07 -1.34216e-05
0.000786723 -5.32305e-05 -1.21746e-07
-5.32305e-05 0.000144424 7.6838e-07
-1.21746e-07 7.6838e-07 4.84995e-05
0.0018968 -0.000247315 1.17503e-06
-0.000247315 -2.18165e-05 -1.78512e-07
1.17503e-06 -1.78512e-07 -3.61291e-06
0.00204072 -0.000372969 -5.20136e-07
-0.000372969 8.0476e-05 -3.71479e-07
-5.20136e-07 -3.71479e-07 -1.435e-06
0.0012636 -0.000289471 5.98132e-06
-0.000289471 0.000249188 -1.52067e-07
5.98132e-06 -1.52067e-07 5.51618e-06
0.0020122 -0.000505527 5.54954e-06
-0.000505527 0.000528295 2.19257e-07
5.54954e-06 2.19257e-07 0.000183178
0.00183438 -0.000483689 -7.84581e-07
-0.000483689 0.000168197 1.40481e-06
-7.84581e-07 1.40481e-06 1.40513e-06
0.000491966 -1.09227e-05 -4.49549e-07
-1.09227e-05 -5.53192e-06 -1.94105e-07
-4.49549e-07 -1.94105e-07 -0.000124174
0.000826491 -7.35596e-05 -1.56819e-06
-7.35596e-05 0.000185542 4.97278e-07
-1.56819e-06 4.97278e-07 4.65232e-05
0.000639435 -0.000278289 -6.11485e-06
-0.000278289 -4.33445e-05 -4.32713e-08
-6.11485e-06 -4.32713e-08 -0.000258973
0.000541771 -0.000106256 -1.9246e-07
-0.000106256 9.3824e-05 -1.30187e-06
-1.9246e-07 -1.30187e-06 -0.000176682
0.000718428 -6.95631e-05 -6.59149e-08
-6.95631e-05 7.6181e-05 -1.86741e-07
-6.59149e-08 -1.86741e-07 -7.96026e-05
0.00236475 -0.000216166 -2.61414e-06
-0.000216166 0.000193775 -1.69491e-06
-2.61414e-06 -1.69491e-06 0.00019695
0.00176538 -0.000260939 -1.05321e-05
-0.000260939 -0.000135515 1.68626e-06
-1.05321e-05 1.68626e-06 -9.03381e-05
0.00248421 -0.000523991 -6.86548e-06
-0.000523991 0.000355474 -3.77358e-06
-6.86548e-06 -3.77358e-06 0.000213652
0.00279369 -0.000596731 -1.93732e-05
-0.000596731 0.000811506 2.79147e-06
-1.93732e-05 2.79147e-06 0.000579781
0.00131899 -0.000322499 -1.48665e-05
-0.000322499 0.000330891 -2.81566e-06
-1.48665e-05 -2.81566e-06 7.20082e-05
0.000443917 6.26629e-06 1.29732e-06
6.26629e-06 -5.49527e-05 -6.89624e-07
1.29732e-06 -6.89624e-07 -0.000150427
0.000497183 4.54265e-05 4.58824e-07
4.54265e-05 -3.32399e-05 6.43335e-07
4.58824e-07 6.43335e-07 -0.000132843
0.000442391 2.69326e-08 1.21088e-07
2.69326e-08 -5.5198e-05 -1.03132e-06
1.21088e-07 -1.03132e-06 -0.000161012
0.00131393 -0.000151483 -2.19877e-06
-0.000151483 0.000489172 4.59158e-06
-2.19877e-06 4.59158e-06 0.000351352
0.000455406 -5.54712e-05 -6.30683e-07
-5.54712e-05 -5.59307e-05 5.53466e-06
-6.30683e-07 5.53466e-06 -0.000186618
-3.85314e-05 -7.4964e-05 2.09019e-06
-7.4964e-05 -0.000193407 3.58322e-06
2.09019e-06 3.58322e-06 -0.000485022
0.000214821 -0.000324398 4.39072e-06
-0.000324398 -8.53454e-05 -1.13682e-06
4.39072e-06 -1.13682e-06 -0.000432101
0.000748118 9.63052e-05 1.3626e-06
9.63052e-05 0.000146958 -4.40606e-06
1.3626e-06 -4.40606e-06 2.2091e-05
0.000201368 8.74291e-05 3.05909e-07
8.74291e-05 -0.000171482 -1.46168e-06
3.05909e-07 -1.46168e-06 -0.000343582
0.00211778 0.000213403 7.48782e-06
0.000213403 6.37148e-05 -4.15121e-08
7.48782e-06 -4.15121e-08 6.07437e-05
0.00199297 0.000334767 1.30775e-05
0.000334767 0.000123197 3.45114e-06
1.30775e-05 3.45114e-06 2.95353e-05
0.00193165 0.000442096 9.67672e-06
0.000442096 0.000223488 3.57764e-06
9.67672e-06 3.57764e-06 1.05615e-05
0.000727271 0.0002331 1.11564e-06
0.0002331 -1.44097e-05 -6.05008e-07
1.11564e-06 -6.05008e-07 -0.000248405
0.00199994 0.000427219 2.01856e-06
0.000427219 0.000511433 9.0975e-07
2.01856e-06 9.0975e-07 0.000224887
0.0013537 0.000117702 -8.18306e-08
0.000117702 0.000492582 4.14041e-07
-8.18306e-08 4.14041e-07 0.000353078
0.0022022 0.000218686 -2.434e-06
0.000218686 0.000204943 4.56939e-07
-2.434e-06 4.56939e-07 0.000225921
0.00152891 0.000278919 -1.73807e-06
0.000278919 0.00054364 5.30705e-07
-1.73807e-06 5.30705e-07 0.000338437
0.0015331 0.000340192 -4.4985e-07
0.000340192 0.000384493 1.03047e-06
-4.4985e-07 1.03047e-06 0.000120501
0.00196278 0.000448838 -1.60915e-06
0.000448838 0.000129564 -3.16391e-06
-1.60915e-06 -3.16391e-06 -2.80494e-06
0.00165465 0.000433287 -2.90151e-06
0.000433287 0.000246335 4.77921e-06
-2.90151e-06 4.77921e-06 -3.20828e-05
0.00199788 0.000425588 3.26335e-05
0.000425588 -0.000185573 3.69508e-06
3.26335e-05 3.69508e-06 -0.000493622
0.00117908 0.000190126 -5.12359e-06
0.000190126 0.000417431 -8.71195e-07
-5.12359e-06 -8.71195e-07 0.000252273
0.00228482 0.000356356 -4.98835e-05
0.000356356 0.000339711 -2.50705e-05
-4.98835e-05 -2.50705e-05 0.000326129
0.00124936 0.000273915 -5.55634e-06
0.000273915 0.000319123 -1.02075e-06
-5.55634e-06 -1.02075e-06 0.0001223
0.000712587 0.000295503 -2.24144e-06
0.000295503 -0.000120619 -3.80526e-06
-2.24144e-06 -3.80526e-06 -0.000385758
7.42485e-05 0.000395119 -1.57046e-05
0.000395119 -0.000743174 -6.23983e-06
-1.57046e-05 -6.23983e-06 -0.000935838
0.0104073 0.000357724 -0.000191225
0.000357724 0.00229546 -3.95309e-05
-0.000191225 -3.95309e-05 0.00141568
0.00567393 0.000796843 0.000130174
0.000796843 0.000742828 -2.21817e-05
0.000130174 -2.21817e-05 0.000398987
0.000991691 0.00056098 1.91446e-05
0.00056098 -0.000294855 1.12604e-05
1.91446e-05 1.12604e-05 -0.000512949
-0.00470719 -0.000751435 0.000377216
-0.000751435 -0.00110619 3.44858e-05
0.000377216 3.44858e-05 -0.00243069
0.00842075 -0.00242139 -2.35874e-05
-0.00242139 0.00179604 1.21778e-05
-2.35874e-05 1.21778e-05 0.00317674
0.000474854 4.36949e-05 3.33837e-06
4.36949e-05 -1.2981e-05 8.7181e-07
3.33837e-06 8.7181e-07 -0.000103703
0.000859806 3.89892e-05 1.23537e-06
3.89892e-05 0.000208611 -5.50026e-07
1.23537e-06 -5.50026e-07 0.000117412
0.000965467 9.07465e-05 -2.56872e-06
9.07465e-05 0.000265875 -1.5604e-06
-2.56872e-06 -1.5604e-06 0.00016392
0.000621267 -6.00628e-05 -5.58358e-08
-6.00628e-05 5.82206e-05 -1.81374e-06
-5.58358e-08 -1.81374e-06 -3.70974e-05
0.00061715 5.77248e-05 -1.10875e-06
5.77248e-05 4.55707e-05 -1.47164e-06
-1.10875e-06 -1.47164e-06 -6.32578e-05
0.000761029 -3.03576e-05 3.6741e-07
-3.03576e-05 0.000130723 -3.09111e-07
3.6741e-07 -3.09111e-07 1.90904e-05
0.000847156 2.03027e-05 -1.3073e-06
2.03027e-05 0.000167496 2.63511e-06
-1.3073e-06 2.63511e-06 6.75903e-05
0.000583974 1.9917e-05 -1.50636e-06
1.9917e-05 9.53218e-06 2.13716e-06
-1.50636e-06 2.13716e-06 -7.3378e-05
0.000758736 7.65391e-05 -1.49109e-06
7.65391e-05 0.000132101 -5.0253e-07
-1.49109e-06 -5.0253e-07 1.39317e-05
0.000559774 -8.64999e-06 1.5918e-08
-8.64999e-06 5.98159e-06 7.32527e-07
1.5918e-08 7.32527e-07 -8.35052e-05
0.000673223 2.22307e-05 9.63927e-08
2.22307e-05 8.51729e-05 8.39975e-08
9.63927e-08 8.39975e-08 -3.28474e-05
0.000731854 2.91738e-05 8.53032e-07
2.91738e-05 9.02808e-05 -1.75961e-07
8.53032e-07 -1.75961e-07 4.77672e-06
0.000817054 4.18622e-05 -5.68521e-07
4.18622e-05 0.000148927 -6.96026e-08
-5.68521e-07 -6.96026e-08 4.069e-05
0.00101091 8.65556e-05 -1.27601e-06
8.65556e-05 0.000265918 -1.20742e-06
-1.27601e-06 -1.20742e-06 0.000154941
0.000389332 4.22179e-05 8.5981e-08
4.22179e-05 -9.20755e-05 -2.847e-06
8.5981e-08 -2.847e-06 -0.000188543
0.000836124 7.89546e-05 1.6045e-06
7.89546e-05 0.000162689 5.74549e-07
1.6045e-06 5.74549e-07 4.95256e-05
0.000585683 -1.91754e-05 1.15744e-06
-1.91754e-05 2.0696e-05 7.42568e-08
1.15744e-06 7.42568e-08 -9.03247e-05
0.000473351 -5.1854e-05 -1.24151e-06
-5.1854e-05 -4.5491e-05 1.77198e-06
-1.24151e-06 1.77198e-06 -0.000138637
0.000781816 -3.28962e-06 -9.6003e-07
-3.28962e-06 0.000146548 -3.79691e-08
-9.6003e-07 -3.79691e-08 3.14001e-05
0.000790524 3.45116e-05 -1.03073e-07
3.45116e-05 0.000152501 -2.67238e-06
-1.03073e-07 -2.67238e-06 4.2392e-05
0.000670077 -2.06415e-05 -9.32731e-07
-2.06415e-05 8.97816e-05 -1.81797e-07
-9.32731e-07 -1.81797e-07 -1.81852e-05
0.000796585 -2.1737e-05 1.13036e-06
-2.1737e-05 0.000161099 -5.69015e-07
1.13036e-06 -5.69015e-07 4.97505e-05
0.000677552 -8.22708e-05 -2.35487e-06
-8.22708e-05 7.33794e-05 1.36924e-06
-2.35487e-06 1.36924e-06 -1.46453e-05
0.000475971 -9.58858e-06 1.06163e-07
-9.58858e-06 -4.34554e-05 7.97351e-07
1.06163e-07 7.97351e-07 -0.000136331
0.000598642 -1.66616e-05 -1.37734e-06
-1.66616e-05 8.2332e-06 2.28406e-06
-1.37734e-06 2.28406e-06 -4.43388e-05
0.000589685 -1.65594e-05 9.76608e-07
-1.65594e-05 8.23566e-06 -1.01068e-08
9.76608e-07 -1.01068e-08 -4.59993e-05
0.000585963 5.80102e-06 -2.93586e-07
5.80102e-06 -2.30374e-05 5.42866e-06
-2.93586e-07 5.42866e-06 -3.90976e-05
0.000589181 1.65794e-05 -8.21828e-07
1.65794e-05 6.43857e-06 -2.05839e-06
-8.21828e-07 -2.05839e-06 -4.60954e-05
0.000559251 3.04168e-06 3.90902e-07
3.04168e-06 -3.9672e-05 -9.31746e-09
3.90902e-07 -9.31746e-09 -5.521e-05
0.00235771 -1.66027e-06 -6.72112e-07
-1.66027e-06 0.00102756 5.26148e-06
-6.72112e-07 5.26148e-06 0.00104336
0.000599452 -5.72037e-07 -6.08304e-07
-5.72037e-07 -1.66479e-05 -5.59111e-06
-6.08304e-07 -5.59111e-06 -3.18995e-05
0.00159223 -9.84076e-06 -2.53583e-08
-9.84076e-06 0.000572068 8.30636e-08
-2.53583e-08 8.30636e-08 0.00058388
0.000782 -1.4875e-05 1.37411e-07
-1.4875e-05 8.99843e-05 -2.09525e-06
1.37411e-07 -2.09525e-06 9.83398e-05
0.000612854 -9.37021e-06 8.16237e-07
-9.37021e-06 8.46025e-06 -1.42483e-06
8.16237e-07 -1.42483e-06 -2.86085e-05
0.000629951 -1.67649e-05 4.26992e-07
-1.67649e-05 1.63182e-05 -3.9141e-08
4.26992e-07 -3.9141e-08 -2.23578e-05
0.00059618 1.42018e-05 3.65186e-07
1.42018e-05 -2.34979e-05 -3.17739e-06
3.65186e-07 -3.17739e-06 -3.08193e-05
0.000610487 -1.38465e-05 -1.43718e-06
-1.38465e-05 2.14336e-06 1.38206e-06
-1.43718e-06 1.38206e-06 -3.69241e-05
0.000869463 2.52124e-05 -6.505e-08
2.52124e-05 0.000141481 -7.15681e-07
-6.505e-08 -7.15681e-07 0.000134358
0.00205285 3.98469e-05 1.10794e-05
3.98469e-05 0.000852855 -4.31163e-06
1.10794e-05 -4.31163e-06 0.00086964
0.000567251 3.01244e-05 -4.12565e-07
3.01244e-05 -3.37505e-05 3.43959e-06
-4.12565e-07 3.43959e-06 -4.56054e-05
0.00217534 5.56349e-05 -7.23242e-06
5.56349e-05 0.000932634 1.12405e-06
-7.23242e-06 1.12405e-06 0.000946468
0.00227334 7.3012e-05 -1.71114e-05
7.3012e-05 0.000997644 4.03838e-06
-1.71114e-05 4.03838e-06 0.00100793
0.00194831 0.000124664 -2.71937e-06
0.000124664 2.07986e-05 -1.61356e-07
-2.71937e-06 -1.61356e-07 -1.87747e-06
0.00190405 -3.06595e-07 -2.03472e-06
-3.06595e-07 2.15994e-05 2.45395e-07
-2.03472e-06 2.45395e-07 9.81137e-06
0.00157997 5.19539e-05 1.03446e-05
5.19539e-05 -0.000188683 -1.22252e-06
1.03446e-05 -1.22252e-06 -0.000172405
0.00231484 0.000221874 3.6252e-05
0.000221874 -0.00039759 7.87261e-06
3.6252e-05 7.87261e-06 -0.000319786
0.00192585 -5.57469e-06 -2.50389e-06
-5.57469e-06 -2.8448e-05 -3.13244e-07
-2.50389e-06 -3.13244e-07 -1.73484e-05
0.00191275 4.82631e-05 3.89643e-06
4.82631e-05 0.000169124 -1.61799e-06
3.89643e-06 -1.61799e-06 0.000218325
0.00279771 -1.32988e-05 -2.63574e-05
-1.32988e-05 0.000691456 3.0429e-06
-2.63574e-05 3.0429e-06 0.000669487
0.00203476 -3.76365e-05 6.48083e-05
-3.76365e-05 -0.00118908 -1.5412e-05
6.48083e-05 -1.5412e-05 -0.00109705
0.00259139 7.30779e-05 2.47792e-05
7.30779e-05 2.84083e-05 1.43695e-05
2.47792e-05 1.43695e-05 0.000135414
0.000637038 6.83793e-05 -7.2505e-09
6.83793e-05 5.72839e-05 -6.47621e-07
-7.2505e-09 -6.47621e-07 -1.72272e-05
0.00066246 -9.15927e-06 5.95231e-07
-9.15927e-06 7.35691e-05 -2.08435e-07
5.95231e-07 -2.08435e-07 -2.3196e-06
0.000636768 -9.14415e-05 -4.86594e-07
-9.14415e-05 5.8873e-05 8.36303e-07
-4.86594e-07 8.36303e-07 -3.16576e-05
0.000640134 -3.83821e-05 -9.75546e-07
-3.83821e-05 8.08232e-05 1.24267e-06
-9.75546e-07 1.24267e-06 -2.13053e-05
0.0019853 -0.000116588 -4.35784e-06
-0.000116588 -2.87845e-05 8.48019e-07
-4.35784e-06 8.48019e-07 -2.20336e-05
0.00190458 -0.000245886 7.55028e-07
-0.000245886 -5.02538e-06 3.39336e-07
7.55028e-07 3.39336e-07 4.12213e-06
0.00204156 -0.000368669 -3.40978e-06
-0.000368669 9.17857e-05 2.64365e-06
-3.40978e-06 2.64365e-06 9.35599e-06
0.00224074 -0.000402527 7.34737e-06
-0.000402527 0.00078558 4.60577e-06
7.34737e-06 4.60577e-06 0.000533505
0.00115527 -0.000432029 8.97129e-06
-0.000432029 6.53458e-05 -3.96402e-06
8.97129e-06 -3.96402e-06 -0.000267084
0.00221445 -0.000507331 4.27016e-06
-0.000507331 0.000391898 -3.90384e-06
4.27016e-06 -3.90384e-06 0.000216707
0.00100842 -0.000295856 -5.09166e-06
-0.000295856 0.000186051 2.59119e-06
-5.09166e-06 2.59119e-06 -5.66056e-05
0.00177752 -0.000136295 2.90851e-07
-0.000136295 0.000743384 -5.98389e-07
2.90851e-07 -5.98389e-07 0.000517333
0.000340869 -8.14204e-05 -7.48894e-07
-8.14204e-05 -0.00014415 -1.08358e-06
-7.48894e-07 -1.08358e-06 -0.000293343
0.000687281 -3.67043e-05 -3.06382e-07
-3.67043e-05 7.98175e-05 1.1777e-06
-3.06382e-07 1.1777e-06 6.09743e-06
0.000651736 -8.46951e-05 3.0237e-07
-8.46951e-05 9.18554e-05 -2.20646e-06
3.0237e-07 -2.20646e-06 -5.60952e-05
0.000809081 -5.20033e-06 6.85797e-07
-5.20033e-06 0.000181927 -7.77599e-07
6.85797e-07 -7.77599e-07 6.33536e-05
0.000655593 8.80756e-06 3.02512e-07
8.80756e-06 7.32223e-05 1.05966e-07
3.02512e-07 1.05966e-07 -5.8965e-06
0.000564493 8.53589e-06 -2.69529e-06
8.53589e-06 1.38313e-05 2.51457e-06
-2.69529e-06 2.51457e-06 -8.12426e-05
0.00225642 -0.000196222 1.1069e-06
-0.000196222 0.000143001 5.83103e-07
1.1069e-06 5.83103e-07 0.000158302
0.000662253 -1.11102e-05 1.1499e-06
-1.11102e-05 8.24831e-05 -3.71682e-07
1.1499e-06 -3.71682e-07 -1.80511e-05
0.00069891 8.96793e-06 2.31385e-06
8.96793e-06 9.40177e-05 -1.69002e-07
2.31385e-06 -1.69002e-07 -8.38204e-06
0.000440252 4.48026e-05 1.40093e-07
4.48026e-05 -5.17362e-05 1.50767e-06
1.40093e-07 1.50767e-06 -0.000149166
0.001762 -0.000264474 -9.35412e-07
-0.000264474 -0.000159824 -1.7291e-06
-9.35412e-07 -1.7291e-06 -0.00012036
0.00201224 -0.000485402 1.2872e-06
-0.000485402 0.000112067 -4.28976e-07
1.2872e-06 -4.28976e-07 -1.90687e-05
0.00149953 -0.000375826 -9.37664e-07
-0.000375826 0.000420035 -4.29036e-07
-9.37664e-07 -4.29036e-07 0.000152083
0.00217055 -0.000549565 -5.249e-06
-0.000549565 0.000480056 2.06803e-06
-5.249e-06 2.06803e-06 0.000251714
0.00107563 -7.07749e-05 -1.01233e-06
-7.07749e-05 0.000331273 6.04794e-07
-1.01233e-06 6.04794e-07 0.00020088
0.000529754 -7.5574e-05 -2.03878e-07
-7.5574e-05 -1.20079e-05 9.60078e-07
-2.03878e-07 9.60078e-07 -0.000151666
0.000989707 -0.000371084 3.18265e-06
-0.000371084 0.000351662 -1.15561e-06
3.18265e-06 -1.15561e-06 -5.65985e-06
0.00113345 -0.000177134 3.80383e-07
-0.000177134 0.000422162 -2.02974e-07
3.80383e-07 -2.02974e-07 0.000148087
0.00240198 -0.000227663 -2.15043e-05
-0.000227663 0.00015308 3.6006e-07
-2.15043e-05 3.6006e-07 0.000243423
0.00236719 -0.000401271 -2.28386e-05
-0.000401271 0.000193986 5.62504e-06
-2.28386e-05 5.62504e-06 0.00020402
0.00284818 -0.000639593 -1.03497e-05
-0.000639593 0.000647945 -6.55444e-06
-1.03497e-05 -6.55444e-06 0.000442248
0.0016435 -0.000471345 -4.03637e-06
-0.000471345 0.000389362 3.82006e-06
-4.03637e-06 3.82006e-06 0.00017128
0.000561429 -2.35936e-06 -1.43626e-06
-2.35936e-06 3.9248e-05 -2.13567e-06
-1.43626e-06 -2.13567e-06 -8.22806e-05
0.000539134 -7.20347e-05 -6.10384e-07
-7.20347e-05 1.66352e-05 -4.4616e-06
-6.10384e-07 -4.4616e-06 -0.000111604
0.000501321 -0.000109729 -1.92785e-06
-0.000109729 7.06233e-05 7.75532e-06
-1.92785e-06 7.75532e-06 -0.000105992
-5.31939e-05 -0.000158245 -3.18323e-07
-0.000158245 -5.52927e-05 -7.33045e-06
-3.18323e-07 -7.33045e-06 -0.000491455
0.000838831 -0.000367261 3.00303e-05
-0.000367261 -0.00302767 -4.06326e-06
3.00303e-05 -4.06326e-06 -0.00336025
0.00145787 0.000109422 7.44222e-07
0.000109422 0.000544016 -3.62254e-06
7.44222e-07 -3.62254e-06 0.0004123
0.000513808 0.000166903 3.61334e-06
0.000166903 -3.95071e-05 1.10442e-06
3.61334e-06 1.10442e-06 -0.000224415
0.00198156 0.000192606 4.81782e-05
0.000192606 0.000100352 9.06607e-06
4.81782e-05 9.06607e-06 0.000125945
0.00206074 0.000441836 1.69703e-05
0.000441836 0.00018189 7.17561e-06
1.69703e-05 7.17561e-06 5.72171e-05
0.00183474 0.000454257 5.6822e-06
0.000454257 0.000361888 6.95306e-06
5.6822e-06 6.95306e-06 7.31164e-05
0.000833871 0.000275308 6.15648e-06
0.000275308 1.35082e-05 2.99515e-06
6.15648e-06 2.99515e-06 -0.000251272
0.00329378 0.000527697 7.43171e-05
0.000527697 0.00028649 2.30697e-05
7.43171e-05 2.30697e-05 -0.000159606
0.00127609 0.000170506 2.90861e-06
0.000170506 0.000474383 3.25447e-07
2.90861e-06 3.25447e-07 0.000313579
0.00239364 0.000359762 -1.29794e-05
0.000359762 0.000378308 -1.24896e-06
-1.29794e-05 -1.24896e-06 0.000379936
0.00109942 0.00026079 1.19571e-06
0.00026079 0.000252239 5.63265e-07
1.19571e-06 5.63265e-07 5.58591e-05
0.0012588 0.000360528 2.14973e-06
0.000360528 0.000189243 -1.88468e-06
2.14973e-06 -1.88468e-06 -8.64267e-05
0.00121931 0.000484036 -5.86779e-06
0.000484036 -0.000154549 -1.53194e-06
-5.86779e-06 -1.53194e-06 -0.000351932
0.00291922 -0.000268706 -0.000112016
-0.000268706 -0.00206843 -3.34793e-05
-0.000112016 -3.34793e-05 -0.00304851
0.00558858 0.0006539 -1.82693e-05
0.0006539 0.000507288 -4.06246e-05
-1.82693e-05 -4.06246e-05 -7.73469e-08
0.000399952 0.000436961 -8.50656e-06
0.000436961 -0.000457513 7.67177e-06
-8.50656e-06 7.67177e-06 -0.000731569
-0.00159917 -0.000551968 0.000169375
-0.000551968 0.00102484 7.14241e-05
0.000169375 7.14241e-05 -0.000452516
0.000878159 -0.00241081 -0.00011909
-0.00241081 -0.000760304 -0.00013316
-0.00011909 -0.00013316 0.000814401
0.00103785 0.000185421 -5.35816e-06
0.000185421 0.000321265 -3.29723e-06
-5.35816e-06 -3.29723e-06 0.000176656
0.000517807 0.000407921 0.000184511
0.000407921 0.0017374 -1.46022e-05
0.000184511 -1.46022e-05 0.000598246
0.00118972 -0.000756568 -0.000111053
-0.000756568 0.00246472 -0.000172408
-0.000111053 -0.000172408 0.00069894
0.00240913 0.000524047 -2.82734e-05
0.000524047 0.000393078 -9.00661e-06
-2.82734e-05 -9.00661e-06 0.000433555
0.00088259 0.000172064 -1.27205e-05
0.000172064 0.000116564 -2.84401e-06
-1.27205e-05 -2.84401e-06 -7.54182e-05
-0.00011926 0.000390125 -2.0914e-05
0.000390125 -0.000555196 -1.55301e-05
-2.0914e-05 -1.55301e-05 -0.00084567
0.000177535 0.000484402 3.23433e-05
0.000484402 -0.0006192 6.70273e-05
3.23433e-05 6.70273e-05 -0.000769716
0.0121387 0.000746461 -1.90205e-05
0.000746461 0.00368122 -3.75023e-05
-1.90205e-05 -3.75023e-05 0.00217217
0.00291121 0.000991459 1.33174e-05
0.000991459 0.000520431 7.4506e-06
1.33174e-05 7.4506e-06 -0.000605289
0.00299026 -0.00213691 0.000292121
-0.00213691 -0.000132572 0.000212563
0.000292121 0.000212563 3.05443e-05
0.00570546 -0.00114337 -2.07552e-05
-0.00114337 -0.000525933 0.000242994
-2.07552e-05 0.000242994 0.000561505
0.000551347 2.31806e-05 1.83902e-06
2.31806e-05 4.36609e-05 -1.40596e-06
1.83902e-06 -1.40596e-06 -4.8686e-05
0.000778662 8.35674e-05 1.93782e-06
8.35674e-05 0.000163866 9.75075e-07
1.93782e-06 9.75075e-07 6.09687e-05
0.0015729 0.000153607 -3.32975e-06
0.000153607 0.000637097 -3.06903e-06
-3.32975e-06 -3.06903e-06 0.000536712
0.000631858 4.76307e-06 7.13255e-07
4.76307e-06 6.55497e-05 -4.48316e-07
7.13255e-07 -4.48316e-07 -3.40549e-05
0.000736816 3.57152e-05 -6.16439e-08
3.57152e-05 0.000120962 -1.44881e-06
-6.16439e-08 -1.44881e-06 4.71065e-06
0.000533032 -5.39994e-06 -1.14335e-06
-5.39994e-06 -1.33071e-05 -7.25424e-08
-1.14335e-06 -7.25424e-08 -0.000119898
0.000804402 4.90777e-05 -5.70743e-07
4.90777e-05 0.000141996 1.35983e-06
-5.70743e-07 1.35983e-06 3.7667e-05
0.000674754 3.01721e-05 -5.25646e-07
3.01721e-05 5.40563e-05 4.94252e-07
-5.25646e-07 4.94252e-07 -3.20512e-05
0.00045451 -2.73282e-06 2.75137e-07
-2.73282e-06 -5.26204e-05 7.84493e-07
2.75137e-07 7.84493e-07 -0.000148149
0.000829865 3.67899e-05 3.23328e-07
3.67899e-05 0.000161603 5.51621e-07
3.23328e-07 5.51621e-07 5.19495e-05
0.000802183 3.1349e-05 2.55846e-07
3.1349e-05 0.00014432 3.64804e-07
2.55846e-07 3.64804e-07 3.08928e-05
0.000702533 2.04198e-05 5.60802e-07
2.04198e-05 0.000104515 -3.45509e-07
5.60802e-07 -3.45509e-07 -1.6175e-05
0.000502751 4.7003e-05 -3.14683e-07
4.7003e-05 -2.40309e-05 -6.18824e-07
-3.14683e-07 -6.18824e-07 -0.00012027
0.00110358 5.51882e-05 -5.34893e-07
5.51882e-05 0.000320688 -2.05515e-06
-5.34893e-07 -2.05515e-06 0.000218669
-5.76865e-05 3.52718e-05 -1.73447e-06
3.52718e-05 -0.000317759 -3.77703e-06
-1.73447e-06 -3.77703e-06 -0.00041857
0.000750573 -7.60328e-05 3.82373e-08
-7.60328e-05 0.000116087 8.03432e-09
3.82373e-08 8.03432e-09 -3.03282e-06
0.000785938 -5.72127e-05 -1.03387e-06
-5.72127e-05 0.00015759 -8.92738e-07
-1.03387e-06 -8.92738e-07 3.07581e-05
0.000808112 -2.70614e-05 -5.66272e-07
-2.70614e-05 0.000170069 -3.80292e-07
-5.66272e-07 -3.80292e-07 4.8283e-05
0.000801957 7.47163e-06 -7.91221e-07
7.47163e-06 0.000150881 -2.06639e-07
-7.91221e-07 -2.06639e-07 4.69884e-05
0.000842868 6.28791e-06 -2.52714e-06
6.28791e-06 0.000196819 -2.37392e-06
-2.52714e-06 -2.37392e-06 6.53651e-05
0.000736327 1.32201e-05 9.43625e-07
1.32201e-05 0.000116376 -1.40133e-06
9.43625e-07 -1.40133e-06 1.33447e-05
0.000135399 -1.74343e-05 1.12444e-07
-1.74343e-05 -0.000246562 -1.94511e-06
1.12444e-07 -1.94511e-06 -0.000336637
0.000611466 5.14389e-06 1.03864e-06
5.14389e-06 3.75142e-05 2.30511e-08
1.03864e-06 2.30511e-08 -6.3126e-05
0.000658952 -4.30885e-05 3.34207e-08
-4.30885e-05 6.21112e-05 1.9159e-07
3.34207e-08 1.9159e-07 -2.94713e-05
0.000718465 -4.08187e-05 -2.25061e-07
-4.08187e-05 0.000111966 -1.71554e-08
-2.25061e-07 -1.71554e-08 6.90537e-06
0.000669577 -4.83078e-05 -1.97037e-06
-4.83078e-05 5.77024e-05 1.04931e-06
-1.97037e-06 1.04931e-06 -1.93384e-05
0.000701429 -3.28122e-05 1.57799e-06
-3.28122e-05 8.64916e-05 -2.918e-07
1.57799e-06 -2.918e-07 -1.38119e-05
0.000619053 -7.62522e-05 -2.13524e-09
-7.62522e-05 3.66742e-05 2.115e-07
-2.13524e-09 2.115e-07 -5.12426e-05
0.000633545 -1.50542e-05 -1.89481e-06
-1.50542e-05 2.39494e-05 2.49423e-06
-1.89481e-06 2.49423e-06 -2.81377e-05
0.000500742 -6.17051e-06 1.22979e-06
-6.17051e-06 -1.97912e-05 -6.42968e-07
1.22979e-06 -6.42968e-07 -0.000118956
0.000595044 4.05864e-06 1.15634e-06
4.05864e-06 9.4365e-06 -1.54862e-08
1.15634e-06 -1.54862e-08 -4.50354e-05
0.0013832 1.30786e-05 -2.9234e-06
1.30786e-05 0.000450036 5.36559e-06
-2.9234e-06 5.36559e-06 0.000438195
0.00058746 3.18286e-05 -5.09931e-07
3.18286e-05 7.01191e-06 -2.0311e-06
-5.09931e-07 -2.0311e-06 -4.70871e-05
0.000964909 5.9782e-06 -1.6773e-06
5.9782e-06 0.000201933 8.17379e-07
-1.6773e-06 8.17379e-07 0.000188158
0.000839054 3.3548e-06 -4.01962e-06
3.3548e-06 0.000125071 5.0571e-06
-4.01962e-06 5.0571e-06 0.000132703
0.000569268 1.44262e-06 2.01922e-07
1.44262e-06 -3.34881e-05 -3.73703e-06
2.01922e-07 -3.73703e-06 -4.91259e-05
0.00236773 1.02396e-07 4.40966e-06
1.02396e-07 0.00103362 -7.61763e-09
4.40966e-06 -7.61763e-09 0.00104935
0.000854959 -3.16669e-06 -4.13142e-06
-3.16669e-06 0.000134488 -5.16041e-06
-4.13142e-06 -5.16041e-06 0.000142407
0.00062217 6.53013e-05 1.81343e-06
6.53013e-05 5.5177e-05 1.65353e-07
1.81343e-06 1.65353e-07 -2.66693e-05
0.000596595 2.42425e-05 -1.20323e-06
2.42425e-05 3.66051e-06 -1.75409e-06
-1.20323e-06 -1.75409e-06 -3.48466e-05
0.000604798 -6.58579e-06 9.17035e-07
-6.58579e-06 5.42376e-06 8.79976e-09
9.17035e-07 8.79976e-09 -3.2859e-05
0.00059951 8.22114e-06 2.66269e-07
8.22114e-06 -2.23612e-05 -3.1336e-06
2.66269e-07 -3.1336e-06 -2.90407e-05
0.00062859 -3.10014e-05 -1.69039e-06
-3.10014e-05 1.6863e-05 1.46788e-06
-1.69039e-06 1.46788e-06 -2.30379e-05
0.00056808 1.4122e-05 1.03684e-08
1.4122e-05 -4.07284e-05 -7.5783e-07
1.03684e-08 -7.5783e-07 -4.77657e-05
0.00202505 2.66689e-05 7.38954e-06
2.66689e-05 0.000832697 -4.46903e-06
7.38954e-06 -4.46903e-06 0.000850987
0.00117072 3.14978e-05 -6.83021e-07
3.14978e-05 0.000321508 1.87721e-06
-6.83021e-07 1.87721e-06 0.00031566
0.00148335 3.42729e-05 1.23762e-07
3.42729e-05 0.000514173 1.4124e-06
1.23762e-07 1.4124e-06 0.00052695
0.000898277 3.75309e-05 -1.371e-05
3.75309e-05 0.000171158 7.16642e-06
-1.371e-05 7.16642e-06 0.000178158
0.00152002 0.000141107 6.84755e-05
0.000141107 -0.00072215 1.29883e-05
6.84755e-05 1.29883e-05 -0.000646213
0.00191207 -1.80248e-05 2.3856e-06
-1.80248e-05 -2.64852e-05 5.95738e-07
2.3856e-06 5.95738e-07 -1.695e-05
0.00195843 5.99355e-05 3.43798e-05
5.99355e-05 0.00021296 -9.21237e-06
3.43798e-05 -9.21237e-06 0.000251048
0.00142545 0.000109765 -1.38022e-05
0.000109765 -0.00111187 -8.99971e-06
-1.38022e-05 -8.99971e-06 -0.000888669
0.00181558 5.68583e-05 1.82779e-05
5.68583e-05 -0.000321781 3.02594e-07
1.82779e-05 3.02594e-07 -0.000212603
0.0023149 -1.9013e-05 -1.95579e-07
-1.9013e-05 0.000355212 -1.95802e-06
-1.95579e-07 -1.95802e-06 0.000335932
0.00333893 -7.40655e-05 -5.98556e-05
-7.40655e-05 0.000737177 2.69563e-06
-5.98556e-05 2.69563e-06 0.000713175
0.00303089 -6.98344e-05 9.49441e-05
-6.98344e-05 0.000334659 -1.5769e-06
9.49441e-05 -1.5769e-06 0.000229419
0.00984466 -0.000428466 1.47823e-05
-0.000428466 0.00228442 3.25284e-05
1.47823e-05 3.25284e-05 0.000850857
0.00884768 0.00182149 0.000377629
0.00182149 0.00416082 -0.000164388
0.000377629 -0.000164388 0.0040229
0.00531576 0.00196386 -2.2828e-05
0.00196386 0.00382699 2.23381e-05
-2.2828e-05 2.23381e-05 0.00431594
0.000416598 -8.47406e-05 2.17306e-06
-8.47406e-05 -6.10676e-05 1.15968e-07
2.17306e-06 1.15968e-07 -0.000154922
0.000657778 -1.10034e-05 1.3351e-06
-1.10034e-05 7.14062e-05 -1.6271e-07
1.3351e-06 -1.6271e-07 -4.91331e-06
0.000693206 -7.81674e-05 -1.6545e-06
-7.81674e-05 9.72798e-05 1.19042e-06
-1.6545e-06 1.19042e-06 1.61637e-05
0.000629457 -3.94253e-05 -2.44259e-07
-3.94253e-05 5.64341e-05 2.53314e-07
-2.44259e-07 2.53314e-07 -3.55641e-05
0.000654406 6.41629e-05 -8.69567e-07
6.41629e-05 9.18953e-05 1.89218e-06
-8.69567e-07 1.89218e-06 -1.83281e-05
0.000703443 0.000121482 1.49568e-06
0.000121482 0.000104896 3.59027e-06
1.49568e-06 3.59027e-06 -4.93753e-06
0.000818508 -9.9982e-06 2.63589e-06
-9.9982e-06 0.000183489 -2.11662e-07
2.63589e-06 -2.11662e-07 7.85062e-05
0.000584109 -2.87718e-05 -8.95757e-07
-2.87718e-05 3.86327e-05 8.96448e-07
-8.95757e-07 8.96448e-07 -5.78121e-05
0.0021103 -0.000180935 4.22643e-06
-0.000180935 6.55532e-05 1.96771e-06
4.22643e-06 1.96771e-06 9.18406e-05
0.00179599 -0.000275308 7.92608e-06
-0.000275308 -0.000173336 -1.41261e-06
7.92608e-06 -1.41261e-06 -0.000139392
0.00158816 -0.000451443 3.66146e-06
-0.000451443 -0.000108531 4.84697e-06
3.66146e-06 4.84697e-06 -0.00023
0.00144524 -0.000396752 1.01502e-05
-0.000396752 0.000378301 1.299e-06
1.01502e-05 1.299e-06 0.000103332
0.00170609 -0.000516734 3.77502e-06
-0.000516734 0.000238052 1.14174e-07
3.77502e-06 1.14174e-07 1.22917e-05
0.00200591 -0.000438464 3.43038e-06
-0.000438464 0.000923768 -6.32865e-07
3.43038e-06 -6.32865e-07 0.000553064
0.00211581 -0.00026798 -4.94349e-08
-0.00026798 0.000944222 -2.5582e-06
-4.94349e-08 -2.5582e-06 0.000679534
0.00072681 -0.000122412 2.69507e-06
-0.000122412 0.000108759 -2.8327e-06
2.69507e-06 -2.8327e-06 -4.6338e-05
0.000678923 -2.3585e-05 3.66184e-07
-2.3585e-05 8.48144e-05 2.33207e-06
3.66184e-07 2.33207e-06 -1.36796e-05
0.000889251 -3.77112e-05 1.23516e-06
-3.77112e-05 0.000207957 -6.31423e-06
1.23516e-06 -6.31423e-06 8.51007e-05
0.000924387 -2.21996e-05 1.47765e-06
-2.21996e-05 0.000239545 2.36655e-07
1.47765e-06 2.36655e-07 0.000137615
0.000686473 0.000101716 2.35682e-06
0.000101716 9.7269e-05 2.53411e-06
2.35682e-06 2.53411e-06 5.11269e-06
0.00197222 -0.000218018 5.29354e-08
-0.000218018 -3.00211e-05 1.6063e-06
5.29354e-08 1.6063e-06 4.7852e-05
0.000678775 1.38172e-05 -1.61277e-06
1.38172e-05 0.000108559 2.93581e-07
-1.61277e-06 2.93581e-07 -1.18248e-05
0.000833025 -8.30455e-05 -2.13133e-06
-8.30455e-05 0.000182161 1.40726e-06
-2.13133e-06 1.40726e-06 6.19709e-05
0.00176487 -0.000381936 1.8064e-06
-0.000381936 -0.000127522 -1.53749e-06
1.8064e-06 -1.53749e-06 -0.000121709
0.00167661 -0.000546634 7.31364e-07
-0.000546634 2.83495e-05 1.13125e-06
7.31364e-07 1.13125e-06 -0.000150465
0.00115191 -0.000428801 -1.1225e-06
-0.000428801 0.00012454 -2.25155e-06
-1.1225e-06 -2.25155e-06 -0.00010804
0.000975325 -0.000143692 3.95519e-07
-0.000143692 0.000335071 -4.08961e-06
3.95519e-07 -4.08961e-06 0.000140225
0.00112448 -0.000235068 -1.2358e-06
-0.000235068 0.000560875 1.18633e-06
-1.2358e-06 1.18633e-06 0.000160158
0.00340796 -0.000347208 -3.17097e-05
-0.000347208 0.000739754 6.68395e-06
-3.17097e-05 6.68395e-06 0.000750959
0.00276113 -0.000544405 -3.10452e-05
-0.000544405 0.000512677 4.80751e-06
-3.10452e-05 4.80751e-06 0.000494286
0.00158798 -0.000584974 -9.19608e-06
-0.000584974 8.68591e-05 9.44891e-07
-9.19608e-06 9.44891e-07 -9.61103e-05
0.000728921 -0.000330273 -1.2423e-05
-0.000330273 3.14192e-05 1.55873e-05
-1.2423e-05 1.55873e-05 -0.000197189
0.000672736 -0.000132229 1.41531e-06
-0.000132229 0.000108765 6.56932e-07
1.41531e-06 6.56932e-07 -3.36674e-05
0.00048423 -0.000106164 2.66043e-06
-0.000106164 3.27215e-05 -2.53585e-06
2.66043e-06 -2.53585e-06 -0.000126815
0.00103064 -9.86308e-05 3.45761e-07
-9.86308e-05 0.000509971 -6.16862e-06
3.45761e-07 -6.16862e-06 0.000167173
-0.00485263 -8.08195e-05 0.000265006
-8.08195e-05 -0.00340253 1.03841e-06
0.000265006 1.03841e-06 -0.00242781
0.0101526 -0.000140915 3.22101e-06
-0.000140915 0.00281968 -6.22117e-07
3.22101e-06 -6.22117e-07 0.00221841
0.00147944 0.000149712 5.27361e-06
0.000149712 0.000581447 -2.18201e-06
5.27361e-06 -2.18201e-06 0.000431036
0.000821694 0.000235584 3.60819e-06
0.000235584 0.000108711 -9.05384e-07
3.60819e-06 -9.05384e-07 -8.4899e-05
0.00217544 0.000332614 4.38776e-05
0.000332614 0.00024363 2.34955e-05
4.38776e-05 2.34955e-05 0.000263779
0.00247472 0.000582581 1.24625e-05
0.000582581 0.000496231 6.47789e-06
1.24625e-05 6.47789e-06 0.000293901
0.00191063 0.000434485 9.65711e-06
0.000434485 0.000552465 2.94328e-07
9.65711e-06 2.94328e-07 0.000266989
0.0106145 0.000546425 4.52344e-05
0.000546425 0.00271387 1.68458e-05
4.52344e-05 1.68458e-05 0.00158225
0.00748134 0.000963232 -0.000156968
0.000963232 0.0010003 -2.92318e-05
-0.000156968 -2.92318e-05 0.000599049
6.02407e-05 0.00033123 6.19393e-06
0.00033123 -0.000494729 -1.94892e-05
6.19393e-06 -1.94892e-05 -0.00083056
0.00892114 -0.00147243 -9.4061e-05
-0.00147243 0.00418702 2.13281e-05
-9.4061e-05 2.13281e-05 0.00351928
-0.00751035 -0.00243988 -0.000638989
-0.00243988 -0.00336999 -0.000485388
-0.000638989 -0.000485388 -0.00186809
0.000960934 0.000179792 -5.23608e-07
0.000179792 0.000285407 -1.91496e-06
-5.23608e-07 -1.91496e-06 0.000141
-0.00234781 -0.000728186 0.000133487
-0.000728186 -0.0021177 1.72931e-05
0.000133487 1.72931e-05 -0.0023707
-0.00272107 -0.00054506 -0.000155824
-0.00054506 0.00141909 -7.8885e-05
-0.000155824 -7.8885e-05 -0.000687475
0.00280469 0.000489183 -9.83312e-06
0.000489183 0.000622515 -5.75299e-07
-9.83312e-06 -5.75299e-07 0.000655599
0.000835771 0.000214521 -2.97731e-06
0.000214521 0.000123337 1.13049e-06
-2.97731e-06 1.13049e-06 -8.70576e-05
0.00101583 0.000445363 3.9561e-06
0.000445363 5.87462e-05 1.82539e-06
3.9561e-06 1.82539e-06 -0.000226664
0.00112531 0.000421746 1.66021e-05
0.000421746 3.30029e-06 1.40219e-05
1.66021e-05 1.40219e-05 -3.36314e-05
0.0088692 0.000586492 -5.76259e-05
0.000586492 0.00136871 -2.90465e-05
-5.76259e-05 -2.90465e-05 -0.000440407
0.00628729 0.00139424 -5.97049e-05
0.00139424 0.00155332 -2.4936e-05
-5.97049e-05 -2.4936e-05 0.000792438
0.0103932 -0.00171733 0.000132895
-0.00171733 0.00469917 -4.97199e-05
0.000132895 -4.97199e-05 0.00448111
0.00491918 -0.0014063 0.000145675
-0.0014063 -0.00126386 0.00031149
0.000145675 0.00031149 -0.000182574
0.00152896 0.000170066 -1.60798e-05
0.000170066 0.000626918 -8.11161e-06
-1.60798e-05 -8.11161e-06 0.000498015
-0.00579829 0.000305883 -9.18639e-05
0.000305883 0.00101101 -5.15849e-05
-9.18639e-05 -5.15849e-05 -0.00174755
0.00319528 0.000310639 -0.000164679
0.000310639 0.00170469 -0.000224934
-0.000164679 -0.000224934 -0.00101256
0.00146326 0.000430539 -1.65895e-05
0.000430539 0.000170982 5.72125e-06
-1.65895e-05 5.72125e-06 0.000164415
0.0011138 0.000411439 -4.61096e-05
0.000411439 0.00035583 -1.6642e-05
-4.61096e-05 -1.6642e-05 0.000105497
0.00227787 0.000372917 -6.16506e-05
0.000372917 0.00120883 -6.03917e-06
-6.16506e-05 -6.03917e-06 0.000816445
0.00215269 0.000977262 -3.93017e-05
0.000977262 0.000173537 -1.61295e-05
-3.93017e-05 -1.61295e-05 -0.000109009
0.0011371 0.000775467 0.000154757
0.000775467 -0.00013477 0.000111911
0.000154757 0.000111911 -0.00281316
0.0100493 -0.0019785 7.98774e-05
-0.0019785 0.00341041 0.000270471
7.98774e-05 0.000270471 0.00284988
0.00437868 -0.000878361 -4.92723e-05
-0.000878361 -0.00201025 -4.86813e-05
-4.92723e-05 -4.86813e-05 -0.000824961
0.000829257 0.000103096 3.70878e-06
0.000103096 0.000201666 3.15481e-06
3.70878e-06 3.15481e-06 9.20534e-05
0.00127296 0.00013426 5.82649e-06
0.00013426 0.000453174 2.64284e-06
5.82649e-06 2.64284e-06 0.000356055
0.000109502 4.85754e-05 2.25231e-06
4.85754e-05 -0.000165382 -3.79543e-06
2.25231e-06 -3.79543e-06 -0.000261154
0.000461594 4.48174e-05 1.3374e-06
4.48174e-05 -4.93602e-05 -1.16184e-07
1.3374e-06 -1.16184e-07 -0.000144348
0.000763003 5.24699e-05 -6.65378e-07
5.24699e-05 0.000146113 -1.13522e-06
-6.65378e-07 -1.13522e-06 2.22507e-05
0.000745409 -5.59416e-06 -4.04331e-07
-5.59416e-06 0.000111167 1.1107e-06
-4.04331e-07 1.1107e-06 -1.83336e-06
0.000775402 2.51662e-06 2.27587e-06
2.51662e-06 0.000136837 5.98144e-07
2.27587e-06 5.98144e-07 2.38555e-05
0.000530597 3.95406e-05 8.18664e-07
3.95406e-05 -4.83503e-06 2.55249e-06
8.18664e-07 2.55249e-06 -9.95983e-05
0.000772698 4.33903e-05 -2.08066e-08
4.33903e-05 0.000150766 -8.1615e-07
-2.08066e-08 -8.1615e-07 2.38701e-05
0.000872334 4.31986e-05 -4.03059e-08
4.31986e-05 0.00018327 2.66714e-07
-4.03059e-08 2.66714e-07 8.08013e-05
0.000786399 -3.37377e-05 -4.97111e-07
-3.37377e-05 0.000139125 5.77773e-07
-4.97111e-07 5.77773e-07 1.82915e-05
4.14659e-05 3.5056e-05 -2.15721e-07
3.5056e-05 -0.000245953 7.35929e-07
-2.15721e-07 7.35929e-07 -0.000346988
-0.000654654 2.0946e-05 -7.66308e-07
2.0946e-05 -0.000515274 -1.61929e-06
-7.66308e-07 -1.61929e-06 -0.000654119
0.000881416 -1.15898e-06 -2.64334e-06
-1.15898e-06 0.000198486 -4.07707e-06
-2.64334e-06 -4.07707e-06 8.61825e-05
0.000946686 1.1071e-05 -6.69725e-07
1.1071e-05 0.000253347 -1.19349e-06
-6.69725e-07 -1.19349e-06 0.000107397
0.000817474 -5.71382e-05 6.59111e-09
-5.71382e-05 0.000179285 -7.89237e-07
6.59111e-09 -7.89237e-07 5.39084e-05
0.000861305 -3.15168e-05 -1.47016e-08
-3.15168e-05 0.000179258 1.43833e-06
-1.47016e-08 1.43833e-06 7.87904e-05
0.000842416 -5.24615e-05 1.80828e-07
-5.24615e-05 0.000185551 -6.43412e-07
1.80828e-07 -6.43412e-07 6.06458e-05
0.000763443 7.1167e-06 -3.02036e-07
7.1167e-06 0.000128689 -8.68378e-08
-3.02036e-07 -8.68378e-08 2.66452e-05
0.000420526 -4.49888e-05 3.56179e-07
-4.49888e-05 -7.59356e-05 1.09448e-06
3.56179e-07 1.09448e-06 -0.000167064
0.000636571 1.44821e-05 9.18208e-07
1.44821e-05 5.5821e-05 5.74317e-07
9.18208e-07 5.74317e-07 -4.30841e-05
0.000404684 -1.69086e-05 -1.76856e-06
-1.69086e-05 -5.89082e-05 -3.63442e-06
-1.76856e-06 -3.63442e-06 -0.000174659
0.000391251 -3.73012e-05 1.93945e-06
-3.73012e-05 -9.31556e-05 -1.00014e-06
1.93945e-06 -1.00014e-06 -0.000181093
0.000766206 -2.84904e-05 3.94724e-06
-2.84904e-05 9.39152e-05 -5.1908e-06
3.94724e-06 -5.1908e-06 -1.56073e-06
2.91382e-05 -4.2744e-05 7.38212e-07
-4.2744e-05 -0.000297833 1.09555e-06
7.38212e-07 1.09555e-06 -0.000448633
0.000327449 1.1164e-05 -4.98084e-07
1.1164e-05 -0.000117501 -7.38932e-07
-4.98084e-07 -7.38932e-07 -0.000225808
0.000724413 -1.69256e-06 2.21467e-07
-1.69256e-06 0.000102524 3.49699e-07
2.21467e-07 3.49699e-07 -8.4047e-08
0.00064907 -7.95008e-06 5.16438e-08
-7.95008e-06 5.69762e-05 3.80035e-07
5.16438e-08 3.80035e-07 -3.46617e-05
0.000721138 -2.51172e-05 -1.68931e-07
-2.51172e-05 0.00011132 -5.95677e-08
-1.68931e-07 -5.95677e-08 1.06804e-05
0.000587993 2.56594e-06 -6.54682e-07
2.56594e-06 1.70433e-05 8.49994e-07
-6.54682e-07 8.49994e-07 -6.15817e-05
0.000764104 -2.20651e-05 2.66868e-07
-2.20651e-05 0.000136672 3.5375e-08
2.66868e-07 3.5375e-08 3.30151e-05
0.000676556 -4.33133e-05 -4.33474e-07
-4.33133e-05 6.98315e-05 1.01311e-07
-4.33474e-07 1.01311e-07 -1.23641e-05
0.000579603 3.84279e-05 -8.85947e-07
3.84279e-05 -9.21741e-06 2.3307e-06
-8.85947e-07 2.3307e-06 -6.21614e-05
0.000561387 -6.72212e-05 1.72513e-06
-6.72212e-05 -2.16242e-06 -1.01174e-06
1.72513e-06 -1.01174e-06 -8.82375e-05
0.000608852 -8.67315e-07 -2.53057e-07
-8.67315e-07 9.07962e-06 -9.38437e-09
-2.53057e-07 -9.38437e-09 -4.26095e-05
0.00138016 2.30717e-05 -4.74879e-06
2.30717e-05 0.00044741 5.49714e-06
-4.74879e-06 5.49714e-06 0.000435261
0.000596466 -2.1331e-05 9.53595e-07
-2.1331e-05 8.60499e-06 -2.08434e-06
9.53595e-07 -2.08434e-06 -4.47479e-05
0.000955705 1.19645e-05 -2.66669e-06
1.19645e-05 0.000195421 7.54486e-07
-2.66669e-06 7.54486e-07 0.00018178
0.00077058 1.46393e-05 -1.46933e-07
1.46393e-05 8.32519e-05 2.01263e-06
-1.46933e-07 2.01263e-06 9.10004e-05
0.000555846 3.35081e-06 6.48476e-07
3.35081e-06 -4.22124e-05 -3.75724e-06
6.48476e-07 -3.75724e-06 -5.78004e-05
0.00237275 1.35089e-05 4.13683e-06
1.35089e-05 0.00103689 5.17486e-08
4.13683e-06 5.17486e-08 0.00105243
0.00236825 1.89628e-06 -5.47905e-07
1.89628e-06 0.00103399 -5.25427e-06
-5.47905e-07 -5.25427e-06 0.00104966
0.000998487 7.21613e-05 -1.0696e-06
7.21613e-05 0.000272159 -6.54273e-07
-1.0696e-06 -6.54273e-07 0.000192466
0.00061161 3.42515e-05 -1.14597e-06
3.42515e-05 1.54497e-05 -1.92488e-06
-1.14597e-06 -1.92488e-06 -2.5836e-05
0.000646193 -7.9546e-06 6.38983e-07
-7.9546e-06 6.82777e-05 8.82193e-07
6.38983e-07 8.82193e-07 -1.26882e-05
0.000600441 3.04152e-06 1.73643e-07
3.04152e-06 -2.21336e-05 -3.31025e-06
1.73643e-07 -3.31025e-06 -2.88428e-05
0.000603827 -1.13048e-05 2.04328e-07
-1.13048e-05 8.10153e-06 -2.79804e-08
2.04328e-07 -2.79804e-08 -3.06262e-05
0.000621055 -3.0801e-05 -1.4257e-06
-3.0801e-05 1.59027e-05 1.3436e-06
-1.4257e-06 1.3436e-06 -2.31628e-05
0.000582912 7.94122e-06 -2.05358e-07
7.94122e-06 -3.22242e-05 -2.18656e-08
-2.05358e-07 -2.18656e-08 -3.8839e-05
0.00201758 1.40562e-05 2.95737e-06
1.40562e-05 0.000825841 -4.63225e-06
2.95737e-06 -4.63225e-06 0.000844938
0.00115554 2.0714e-05 -6.71156e-07
2.0714e-05 0.000309467 1.85116e-06
-6.71156e-07 1.85116e-06 0.000305622
0.00140349 2.27923e-05 9.24697e-07
2.27923e-05 0.000461845 1.48452e-08
9.24697e-07 1.48452e-08 0.000476753
0.000865186 2.70804e-05 -1.28643e-05
2.70804e-05 0.000145674 7.03731e-06
-1.28643e-05 7.03731e-06 0.000155614
-0.00830538 0.000396222 0.000208676
0.000396222 -0.00362973 4.03537e-06
0.000208676 4.03537e-06 -0.00454665
-0.00192187 5.05445e-05 0.000254492
5.05445e-05 0.00197154 3.74084e-06
0.000254492 3.74084e-06 0.000395181
0.00446303 0.000224606 -0.000220974
0.000224606 0.000266148 -1.99819e-05
-0.000220974 -1.99819e-05 0.000611935
0.000469786 4.4048e-05 3.03427e-05
4.4048e-05 -0.000965082 -8.35226e-06
3.03427e-05 -8.35226e-06 -0.000920749
0.00152204 -2.82512e-05 1.84729e-05
-2.82512e-05 -0.00017072 -7.34106e-07
1.84729e-05 -7.34106e-07 -0.000188386
0.000241576 5.32033e-05 -8.84119e-06
5.32033e-05 -0.000754106 -6.85325e-06
-8.84119e-06 -6.85325e-06 -0.000704814
0.00260305 -0.000114976 -9.27929e-07
-0.000114976 0.000259209 4.06991e-06
-9.27929e-07 4.06991e-06 0.000223356
0.00914381 0.000121327 5.11294e-05
0.000121327 0.00141255 -3.1658e-05
5.11294e-05 -3.1658e-05 0.000389516
-0.00326042 0.00109434 -2.61235e-05
0.00109434 -0.000796838 -1.33196e-05
-2.61235e-05 -1.33196e-05 -0.00202436
-0.000990877 0.00211758 -0.000129947
0.00211758 0.000326171 6.59466e-05
-0.000129947 6.59466e-05 0.00140939
0.00185256 -0.000241424 6.25016e-05
-0.000241424 -0.000655155 -2.18774e-06
6.25016e-05 -2.18774e-06 -0.000726182
0.0123318 -0.000378591 9.65454e-05
-0.000378591 0.0033883 -3.26868e-05
9.65454e-05 -3.26868e-05 0.0018846
0.00324741 0.00204068 0.000132981
0.00204068 0.000275969 -0.000259069
0.000132981 -0.000259069 0.000655259
0.00662054 0.00150629 -0.000203354
0.00150629 0.000881513 0.000127463
-0.000203354 0.000127463 0.000873833
0.000702274 8.31579e-05 -1.85573e-06
8.31579e-05 0.000128941 1.4885e-06
-1.85573e-06 1.4885e-06 1.85484e-06
0.000511793 1.52336e-05 -1.7053e-07
1.52336e-05 -9.90323e-06 -7.50012e-07
-1.7053e-07 -7.50012e-07 -9.99048e-05
0.000678643 -8.67874e-05 -1.00488e-06
-8.67874e-05 8.85424e-05 8.90672e-07
-1.00488e-06 8.90672e-07 8.05446e-06
0.000562719 -6.3244e-06 5.18143e-07
-6.3244e-06 2.36731e-05 -3.28661e-07
5.18143e-07 -3.28661e-07 -7.23997e-05
0.000643284 5.95531e-05 9.26341e-07
5.95531e-05 9.1322e-05 1.44609e-06
9.26341e-07 1.44609e-06 -1.92014e-05
0.000863757 6.90638e-05 1.10636e-07
6.90638e-05 0.000223787 2.00005e-06
1.10636e-07 2.00005e-06 9.48818e-05
0.000753967 8.91899e-05 1.62154e-06
8.91899e-05 0.000145174 1.87226e-06
1.62154e-06 1.87226e-06 3.0606e-05
0.000649652 1.46598e-05 2.65293e-06
1.46598e-05 6.75925e-05 4.44852e-08
2.65293e-06 4.44852e-08 -4.42084e-05
0.000696672 -2.20389e-05 1.10799e-06
-2.20389e-05 0.000113117 -9.25312e-07
1.10799e-06 -9.25312e-07 4.92786e-06
0.000525219 -8.28299e-06 -5.70363e-07
-8.28299e-06 -5.22962e-06 -3.87017e-07
-5.70363e-07 -3.87017e-07 -9.57404e-05
0.00157665 -0.000202624 1.89182e-05
-0.000202624 -0.000189087 -1.28397e-06
1.89182e-05 -1.28397e-06 -0.000124141
0.00141615 -0.000370215 2.20909e-05
-0.000370215 -0.000305648 -3.65161e-06
2.20909e-05 -3.65161e-06 -0.000307276
5.85628e-05 -0.000411846 1.28684e-05
-0.000411846 -0.000827742 3.41549e-06
1.28684e-05 3.41549e-06 -0.000971562
0.000318972 -0.000359031 3.61054e-06
-0.000359031 -0.000315021 -1.37331e-06
3.61054e-06 -1.37331e-06 -0.000551407
0.00218536 -0.000286056 1.40812e-06
-0.000286056 0.00111132 7.94392e-06
1.40812e-06 7.94392e-06 0.000748764
0.00107116 -0.000192406 2.17696e-06
-0.000192406 0.000394045 -1.1785e-06
2.17696e-06 -1.1785e-06 0.000174064
0.00100643 -8.98412e-05 -2.29491e-07
-8.98412e-05 0.000271921 -2.24563e-07
-2.29491e-07 -2.24563e-07 0.00016207
0.000702964 2.1862e-05 -1.44892e-06
2.1862e-05 0.000123164 1.69976e-06
-1.44892e-06 1.69976e-06 5.64011e-06
0.00192866 -0.000262189 5.99377e-06
-0.000262189 -1.67699e-05 -2.95157e-06
5.99377e-06 -2.95157e-06 1.96784e-05
0.000691209 -6.37805e-05 -3.04616e-07
-6.37805e-05 0.000122998 -2.89253e-07
-3.04616e-07 -2.89253e-07 -2.14257e-05
0.000322698 -8.55577e-05 7.62931e-07
-8.55577e-05 -5.60736e-05 -1.6425e-06
7.62931e-07 -1.6425e-06 -0.000219133
0.00218488 -0.000509945 7.16713e-06
-0.000509945 0.000219777 -5.9821e-07
7.16713e-06 -5.9821e-07 0.000191105
0.00126819 -0.000561834 7.03233e-07
-0.000561834 -9.9883e-05 4.13781e-06
7.03233e-07 4.13781e-06 -0.000269035
0.00053489 -0.000346939 8.07577e-06
-0.000346939 -7.52834e-05 -5.68104e-06
8.07577e-06 -5.68104e-06 -0.00032317
0.00149641 -0.000153954 -5.47908e-07
-0.000153954 0.000747151 -3.79612e-06
-5.47908e-07 -3.79612e-06 0.000424937
0.00203105 -0.000413627 -2.79643e-05
-0.000413627 0.000418078 4.60885e-06
-2.79643e-05 4.60885e-06 0.000146038
0.00146404 -0.000441296 -3.91731e-05
-0.000441296 0.000116372 9.01633e-06
-3.91731e-05 9.01633e-06 4.1345e-05
3.67701e-06 -0.000219615 -2.41334e-05
-0.000219615 -0.000213732 3.72245e-05
-2.41334e-05 3.72245e-05 -0.00049765
-0.000234904 -1.17301e-06 -3.06423e-07
-1.17301e-06 -0.000408439 1.95191e-06
-3.06423e-07 1.95191e-06 -0.000555003
0.000404083 -0.000115099 2.37262e-06
-0.000115099 -1.64433e-05 -7.93859e-07
2.37262e-06 -7.93859e-07 -0.000181237
0.000723628 -9.41404e-05 3.46968e-06
-9.41404e-05 0.000247676 -4.4062e-06
3.46968e-06 -4.4062e-06 5.41371e-06
5.57304e-05 0.000265009 -0.000160012
0.000265009 0.00374886 5.20996e-06
-0.000160012 5.20996e-06 0.00193849
0.00176386 -0.000419582 1.6045e-05
-0.000419582 0.00139817 2.37608e-05
1.6045e-05 2.37608e-05 0.00134137
0.000901834 0.000710633 -6.31434e-05
0.000710633 -0.00309439 8.67787e-06
-6.31434e-05 8.67787e-06 -0.00359332
0.000673231 0.000158592 6.04084e-06
0.000158592 0.000130805 1.7648e-06
6.04084e-06 1.7648e-06 -1.0457e-05
0.000892095 0.000267133 6.31594e-06
0.000267133 0.000182978 8.44526e-06
6.31594e-06 8.44526e-06 -4.54498e-05
0.00292626 0.000434057 2.738e-05
0.000434057 0.000706798 1.11604e-05
2.738e-05 1.11604e-05 0.000734616
0.00220695 0.000496686 1.8514e-05
0.000496686 0.000699824 1.31355e-05
1.8514e-05 1.31355e-05 0.000415589
0.00711488 -0.000839596 7.17684e-05
-0.000839596 0.00261487 4.00164e-05
7.17684e-05 4.00164e-05 0.00281321
0.00271133 5.19656e-05 -0.000151415
5.19656e-05 -0.00181886 -9.86355e-06
-0.000151415 -9.86355e-06 -0.00352832
0.00295056 0.00125492 -7.18503e-05
0.00125492 -0.00037449 -1.32436e-05
-7.18503e-05 -1.32436e-05 -0.00105929
0.000441104 0.000261559 2.47785e-05
0.000261559 -0.000162423 -2.3279e-05
2.47785e-05 -2.3279e-05 -0.000151694
-0.00345202 -0.000963328 -0.000105132
-0.000963328 -0.000899706 -0.000133895
-0.000105132 -0.000133895 -0.0014011
-0.000661888 -0.000875491 -9.39144e-05
-0.000875491 0.00145484 -7.48956e-06
-9.39144e-05 -7.48956e-06 -0.000673481
0.00949179 -0.00183567 0.000223362
-0.00183567 0.00115796 0.000169443
0.000223362 0.000169443 0.00230117
0.00063379 0.000124169 6.40685e-06
0.000124169 0.000129751 -2.22771e-06
6.40685e-06 -2.22771e-06 -5.34875e-06
-0.00205381 7.51852e-05 -8.3666e-05
7.51852e-05 0.00210303 -2.41817e-05
-8.3666e-05 -2.41817e-05 -0.000231825
0.00356011 0.000353494 -1.9775e-05
0.000353494 0.00173857 -7.53852e-05
-1.9775e-05 -7.53852e-05 -0.00107428
0.00134461 0.000405865 -4.83511e-06
0.000405865 0.000151875 4.62355e-06
-4.83511e-06 4.62355e-06 0.000106982
0.000522372 0.000281002 9.48755e-07
0.000281002 6.79181e-05 2.08172e-06
9.48755e-07 2.08172e-06 -0.000179115
-0.000478812 0.000269479 2.01749e-05
0.000269479 -0.000317003 -3.77007e-05
2.01749e-05 -3.77007e-05 -0.000602125
0.00537298 0.00148363 -8.29116e-06
0.00148363 0.00184033 6.33648e-06
-8.29116e-06 6.33648e-06 0.00121284
0.0115507 0.000869058 5.90602e-05
0.000869058 0.00400478 2.19159e-05
5.90602e-05 2.19159e-05 0.00200925
0.00402695 -0.00129152 2.43801e-05
-0.00129152 -0.000347221 -4.3775e-05
2.43801e-05 -4.3775e-05 -0.000888962
0.00917034 -0.00118886 7.74621e-06
-0.00118886 0.00118434 -3.29932e-05
7.74621e-06 -3.29932e-05 0.00234323
0.000798749 0.000196509 -1.02639e-05
0.000196509 0.000277595 -1.02565e-05
-1.02639e-05 -1.02565e-05 0.000141972
0.00275018 6.62291e-05 -0.000115378
6.62291e-05 0.00100055 -3.11789e-05
-0.000115378 -3.11789e-05 -0.000769213
-1.45011e-05 8.94453e-05 -3.47722e-05
8.94453e-05 0.000100038 -9.26137e-05
-3.47722e-05 -9.26137e-05 -0.00147467
-0.0009269 7.50771e-05 -1.19773e-05
7.50771e-05 -0.000430528 -1.79833e-05
-1.19773e-05 -1.79833e-05 -0.000591026
0.0015616 0.000369339 -4.02051e-05
0.000369339 0.000891382 4.21743e-05
-4.02051e-05 4.21743e-05 0.000184992
0.00963847 0.00126326 4.41029e-05
0.00126326 0.00385616 1.37229e-06
4.41029e-05 1.37229e-06 0.000839577
-0.00682863 -0.00189268 -4.21487e-05
-0.00189268 -0.00367079 0.000120107
-4.21487e-05 0.000120107 -0.00579607
0.00755325 0.000407924 1.72362e-05
0.000407924 -0.000915183 -0.000175213
1.72362e-05 -0.000175213 0.00101052
0.00098444 0.000105946 2.34297e-06
0.000105946 0.000269989 6.58948e-06
2.34297e-06 6.58948e-06 0.000180378
0.00100892 0.000124081 -4.97451e-06
0.000124081 0.000363992 -1.33647e-06
-4.97451e-06 -1.33647e-06 0.000255763
0.000321495 7.95998e-05 -2.47287e-06
7.95998e-05 0.000125846 -3.35879e-06
-2.47287e-06 -3.35879e-06 -4.88366e-05
0.000768373 7.9009e-05 -2.46276e-06
7.9009e-05 0.000138102 -9.01634e-07
-2.46276e-06 -9.01634e-07 1.85112e-05
0.000864322 -2.752e-05 -8.4159e-07
-2.752e-05 0.000195054 1.19301e-06
-8.4159e-07 1.19301e-06 6.69883e-05
0.000620449 3.87668e-05 9.03537e-07
3.87668e-05 3.39803e-05 2.12864e-06
9.03537e-07 2.12864e-06 -6.96438e-05
0.000141002 3.45456e-05 1.73201e-06
3.45456e-05 -0.000173548 2.68621e-06
1.73201e-06 2.68621e-06 -0.000274465
0.000828842 -3.56249e-06 1.07172e-06
-3.56249e-06 0.000166693 1.40426e-07
1.07172e-06 1.40426e-07 3.45027e-05
0.000856727 2.52693e-05 1.97356e-07
2.52693e-05 0.000188156 -9.39371e-07
1.97356e-07 -9.39371e-07 7.36222e-05
0.000253823 -7.81115e-06 6.58216e-07
-7.81115e-06 1.6065e-05 1.30379e-06
6.58216e-07 1.30379e-06 -0.000130212
-0.000758386 5.9652e-06 -2.67698e-06
5.9652e-06 -0.000358209 -7.46528e-07
-2.67698e-06 -7.46528e-07 -0.00057163
0.000959489 -5.56285e-06 -2.28189e-06
-5.56285e-06 0.000374835 -7.23724e-06
-2.28189e-06 -7.23724e-06 0.000242274
0.000965291 4.39117e-05 -1.65526e-06
4.39117e-05 0.000259882 -3.92575e-06
-1.65526e-06 -3.92575e-06 0.000126384
0.000884855 -0.000106563 1.69168e-06
-0.000106563 0.000198311 8.51624e-07
1.69168e-06 8.51624e-07 8.00316e-05
0.000752312 8.54165e-06 -3.50803e-07
8.54165e-06 0.000118378 3.79491e-08
-3.50803e-07 3.79491e-08 1.80842e-05
0.000647236 -5.40973e-05 -1.78513e-06
-5.40973e-05 5.96909e-05 3.13884e-06
-1.78513e-06 3.13884e-06 -3.03496e-05
0.000500171 -3.24388e-05 1.76775e-06
-3.24388e-05 -1.42258e-05 1.38945e-06
1.76775e-06 1.38945e-06 -0.00012178
0.000718454 1.02434e-05 2.81879e-07
1.02434e-05 0.000104329 1.90302e-08
2.81879e-07 1.90302e-08 3.65012e-06
0.00060837 -2.35928e-05 -7.24723e-07
-2.35928e-05 3.35472e-05 -1.21829e-08
-7.24723e-07 -1.21829e-08 -5.33906e-05
0.000949 -1.90479e-05 -2.75111e-07
-1.90479e-05 0.000216709 -2.85531e-06
-2.75111e-07 -2.85531e-06 0.000125217
8.64583e-05 -3.85724e-05 3.32976e-06
-3.85724e-05 -0.000214859 -4.43014e-06
3.32976e-06 -4.43014e-06 -0.000294309
0.000276139 -9.20076e-05 1.62803e-06
-9.20076e-05 -0.000243929 -8.03067e-07
1.62803e-06 -8.03067e-07 -0.000338413
0.000839952 -5.65268e-05 -2.58382e-06
-5.65268e-05 0.000142736 -3.78583e-07
-2.58382e-06 -3.78583e-07 4.25585e-05
0.000520907 -9.82401e-05 5.12171e-06
-9.82401e-05 -2.53851e-05 3.31116e-06
5.12171e-06 3.31116e-06 -0.000167321
0.00118869 -0.00023718 -1.66027e-06
-0.00023718 0.000327777 7.39555e-06
-1.66027e-06 7.39555e-06 0.000106704
0.00127566 -0.000113284 1.71573e-06
-0.000113284 0.000447331 -1.33782e-06
1.71573e-06 -1.33782e-06 0.000311415
0.000288286 -7.0711e-05 -2.10308e-06
-7.0711e-05 -0.000132306 -4.78437e-06
-2.10308e-06 -4.78437e-06 -0.000283128
0.000641835 -5.4971e-06 -2.64165e-07
-5.4971e-06 5.78686e-05 -1.00578e-07
-2.64165e-07 -1.00578e-07 -4.86217e-05
0.000366228 1.00904e-06 4.40056e-07
1.00904e-06 -9.69564e-05 -2.62818e-08
4.40056e-07 -2.62818e-08 -0.000197153
0.000850806 -1.41946e-05 -6.18723e-07
-1.41946e-05 0.000175643 8.87189e-07
-6.18723e-07 8.87189e-07 7.07971e-05
0.000738449 -3.49065e-05 -5.65041e-07
-3.49065e-05 0.000119386 6.07759e-07
-5.65041e-07 6.07759e-07 1.8418e-05
0.000624429 -1.66346e-05 -6.30722e-07
-1.66346e-05 3.42964e-05 8.68642e-07
-6.30722e-07 8.68642e-07 -4.29179e-05
0.00083325 -5.35286e-05 -5.59599e-08
-5.35286e-05 0.000189406 -5.42535e-07
-5.59599e-08 -5.42535e-07 7.80992e-05
0.000681912 -4.92725e-05 -5.74975e-07
-4.92725e-05 7.33627e-05 -2.82933e-08
-5.74975e-07 -2.82933e-08 -7.64419e-06
0.000598919 3.01484e-05 -1.95407e-06
3.01484e-05 7.37188e-07 1.85143e-06
-1.95407e-06 1.85143e-06 -5.19839e-05
0.00071565 -8.03572e-05 1.85363e-06
-8.03572e-05 9.58955e-05 -1.13462e-06
1.85363e-06 -1.13462e-06 1.09567e-05
0.000648408 -9.52903e-06 -2.62788e-07
-9.52903e-06 2.76948e-05 3.86295e-08
-2.62788e-07 3.86295e-08 -2.32839e-05
0.00137114 3.28101e-05 -7.33283e-06
3.28101e-05 0.000442138 5.46496e-06
-7.33283e-06 5.46496e-06 0.000429618
0.000621474 -2.86441e-05 1.96764e-06
-2.86441e-05 1.83827e-05 -2.16148e-06
1.96764e-06 -2.16148e-06 -3.45944e-05
0.000960414 2.03377e-05 -3.57501e-06
2.03377e-05 0.000197507 7.14203e-07
-3.57501e-06 7.14203e-07 0.000183561
0.000779863 2.32313e-05 -4.53663e-07
2.32313e-05 9.16802e-05 2.09131e-06
-4.53663e-07 2.09131e-06 9.82579e-05
0.000551471 8.98682e-06 4.9632e-07
8.98682e-06 -4.59578e-05 -3.86933e-06
4.9632e-07 -3.86933e-06 -6.14367e-05
0.00156091 2.28714e-05 5.65284e-06
2.28714e-05 0.000554402 -1.49014e-06
5.65284e-06 -1.49014e-06 0.000565832
0.00235386 1.59534e-05 4.20154e-06
1.59534e-05 0.00102584 -5.14888e-06
4.20154e-06 -5.14888e-06 0.00104139
0.000704585 7.91164e-06 1.27816e-06
7.91164e-06 8.94619e-05 -1.4423e-06
1.27816e-06 -1.4423e-06 6.74099e-06
0.000652638 2.95665e-05 -6.39831e-07
2.95665e-05 3.70438e-05 -1.83253e-06
-6.39831e-07 -1.83253e-06 -6.04013e-06
0.00070179 -3.077e-06 1.14492e-06
-3.077e-06 9.47061e-05 3.07847e-07
1.14492e-06 3.07847e-07 1.54083e-05
0.000589135 -2.63369e-06 3.06295e-07
-2.63369e-06 -2.81347e-05 -3.46341e-06
3.06295e-07 -3.46341e-06 -3.57092e-05
0.000603541 2.298e-05 6.76131e-08
2.298e-05 9.17703e-06 -2.48979e-08
6.76131e-08 -2.48979e-08 -3.11832e-05
0.000659564 -8.78775e-05 -3.4725e-06
-8.78775e-05 7.0653e-05 1.37831e-06
-3.4725e-06 1.37831e-06 -6.08973e-06
0.00203127 1.53185e-06 -1.76464e-06
1.53185e-06 0.000832665 -4.73631e-06
-1.76464e-06 -4.73631e-06 0.00085203
0.000584334 2.68529e-06 -1.80612e-07
2.68529e-06 -3.13593e-05 -9.5711e-09
-1.80612e-07 -9.5711e-09 -3.80409e-05
0.000597936 -2.00447e-05 -1.41727e-06
-2.00447e-05 3.5243e-06 1.61147e-06
-1.41727e-06 1.61147e-06 -3.46061e-05
0.000566584 7.70975e-06 -4.7255e-07
7.70975e-06 -4.19133e-05 3.20603e-06
-4.7255e-07 3.20603e-06 -4.84834e-05
0.00203628 1.55096e-05 -3.81198e-06
1.55096e-05 0.000837136 -4.65556e-08
-3.81198e-06 -4.65556e-08 0.000856116
0.00202681 2.74595e-05 -9.62413e-06
2.74595e-05 0.000833783 4.34469e-06
-9.62413e-06 4.34469e-06 0.000852144
-0.00427417 -0.000381268 -5.15164e-05
-0.000381268 0.0015506 1.89034e-05
-5.15164e-05 1.89034e-05 -0.000718786
-0.000704379 0.000506454 -7.9371e-05
0.000506454 -0.000413581 1.97387e-05
-7.9371e-05 1.97387e-05 -0.000985968
0.00371275 -0.000390888 -0.00025272
-0.000390888 0.00115647 0.000168622
-0.00025272 0.000168622 -0.00130126
-0.002952 0.000103883 0.000356384
0.000103883 0.00198566 -0.000154634
0.000356384 -0.000154634 0.000409526
0.000285639 0.000263985 -2.24011e-05
0.000263985 -0.00127407 4.06685e-06
-2.24011e-05 4.06685e-06 -0.00126345
0.00243253 -0.000168781 9.94913e-05
-0.000168781 8.90384e-05 -8.93468e-06
9.94913e-05 -8.93468e-06 7.92261e-05
0.00105569 -0.000412132 -2.32666e-05
-0.000412132 -0.00219566 -6.26051e-05
-2.32666e-05 -6.26051e-05 -0.00363057
0.0103694 0.00109003 -0.000121144
0.00109003 0.00506951 -1.99473e-05
-0.000121144 -1.99473e-05 0.00440779
-0.00764753 0.00236782 -0.00060942
0.00236782 -0.00349164 0.000469759
-0.00060942 0.000469759 -0.00186848
0.00276432 -0.000111554 -4.37844e-06
-0.000111554 -0.000246292 -5.02701e-06
-4.37844e-06 -5.02701e-06 -0.000338859
0.00485395 -0.000454284 5.09662e-05
-0.000454284 -0.000179647 -6.00257e-05
5.09662e-05 -6.00257e-05 -0.00230628
0.0109419 0.00199406 -8.13116e-05
0.00199406 0.0034041 -7.92897e-05
-8.13116e-05 -7.92897e-05 0.00384007
0.00381055 0.00146505 -6.9805e-05
0.00146505 -0.0010979 0.000176296
-6.9805e-05 0.000176296 -0.000951561
0.00308992 -0.000693508 -6.94096e-05
-0.000693508 -0.00053573 1.903e-05
-6.94096e-05 1.903e-05 -0.00053154
0.00293027 -0.000956202 0.000200243
-0.000956202 0.000161972 -0.000128222
0.000200243 -0.000128222 -0.00315128
-0.00443429 0.00110011 -6.8012e-05
0.00110011 -0.00410899 -0.000327782
-6.8012e-05 -0.000327782 -0.00435975
0.00363572 0.000848889 -8.66471e-05
0.000848889 -0.00297747 6.55801e-06
-8.66471e-05 6.55801e-06 -0.00177825
0.00100155 -2.13135e-05 7.21732e-07
-2.13135e-05 0.000314452 3.62625e-06
7.21732e-07 3.62625e-06 0.000168032
0.000689217 7.09662e-05 -1.76702e-06
7.09662e-05 0.000114549 -1.22901e-06
-1.76702e-06 -1.22901e-06 -5.62564e-06
0.0006418 6.3719e-05 4.32865e-08
6.3719e-05 6.25186e-05 -1.55145e-06
4.32865e-08 -1.55145e-06 -2.34873e-05
0.000646265 6.26025e-05 3.27531e-06
6.26025e-05 9.67713e-05 6.94794e-07
3.27531e-06 6.94794e-07 -1.23677e-05
0.000647941 4.59947e-05 6.51707e-07
4.59947e-05 8.32743e-05 1.24672e-06
6.51707e-07 1.24672e-06 -6.03067e-05
0.00073767 6.81953e-05 -5.25999e-08
6.81953e-05 0.000145135 1.34916e-06
-5.25999e-08 1.34916e-06 2.08931e-05
0.000614328 2.69677e-05 -1.43173e-07
2.69677e-05 6.35998e-05 -4.89373e-08
-1.43173e-07 -4.89373e-08 -4.77024e-05
0.000883197 0.000126648 1.09729e-06
0.000126648 0.00022887 1.668e-06
1.09729e-06 1.668e-06 9.49713e-05
0.000836367 7.89788e-05 -8.97338e-08
7.89788e-05 0.000200568 3.68526e-07
-8.97338e-08 3.68526e-07 7.47162e-05
0.000518139 -6.18454e-06 -2.98465e-06
-6.18454e-06 7.25444e-06 -1.54733e-06
-2.98465e-06 -1.54733e-06 -0.000102284
0.000681974 -0.000205305 3.78987e-05
-0.000205305 -0.000660032 -1.84984e-05
3.78987e-05 -1.84984e-05 -0.000605994
0.000936522 -0.000446015 2.92426e-05
-0.000446015 -0.0004456 -4.95448e-06
2.92426e-05 -4.95448e-06 -0.000472962
0.0018707 -0.000621964 1.50109e-05
-0.000621964 0.000202734 7.55196e-07
1.50109e-05 7.55196e-07 2.85591e-05
0.000445625 -0.000381078 6.03388e-06
-0.000381078 -0.00013363 -1.13579e-05
6.03388e-06 -1.13579e-05 -0.000414455
0.00189514 -0.0001885 -2.17388e-06
-0.0001885 0.000928317 1.43047e-05
-2.17388e-06 1.43047e-05 0.000638974
0.000650546 -9.62335e-05 -1.10771e-06
-9.62335e-05 0.000138728 3.16954e-06
-1.10771e-06 3.16954e-06 -3.08354e-05
0.000482176 7.29107e-05 -6.02992e-08
7.29107e-05 5.30066e-06 -2.66354e-06
-6.02992e-08 -2.66354e-06 -0.000140487
0.000697351 -5.55711e-05 -5.36969e-07
-5.55711e-05 0.000138768 2.98048e-06
-5.36969e-07 2.98048e-06 -2.17884e-05
0.00141742 -0.000336532 1.42599e-06
-0.000336532 1.98683e-05 -1.13889e-06
1.42599e-06 -1.13889e-06 -0.000138546
0.000706875 -2.20056e-05 2.56391e-08
-2.20056e-05 0.000150313 1.09002e-06
2.56391e-08 1.09002e-06 -1.5564e-05
0.00146667 -0.000145554 -2.77534e-07
-0.000145554 0.000677142 -2.28305e-07
-2.77534e-07 -2.28305e-07 0.000425784
0.00147248 -0.000454523 1.60738e-06
-0.000454523 8.04922e-05 1.02135e-06
1.60738e-06 1.02135e-06 2.0111e-05
0.000918308 -0.000311075 -1.63462e-05
-0.000311075 0.0002705 4.69313e-06
-1.63462e-05 4.69313e-06 -1.03383e-05
0.000861136 -0.000539227 -1.14278e-05
-0.000539227 -0.000318295 -2.43925e-05
-1.14278e-05 -2.43925e-05 -0.000304334
0.00105784 -0.00025985 -1.70627e-05
-0.00025985 0.00037053 1.79653e-05
-1.70627e-05 1.79653e-05 0.000246693
-0.000914621 -3.48645e-05 1.08527e-06
-3.48645e-05 -0.000607802 2.19386e-05
1.08527e-06 2.19386e-05 -0.000891376
0.000695324 9.9298e-06 -8.54192e-07
9.9298e-06 0.000114154 -4.4194e-06
-8.54192e-07 -4.4194e-06 -3.3297e-05
0.000622278 4.02577e-05 2.22591e-06
4.02577e-05 0.000184438 -3.05408e-06
2.22591e-06 -3.05408e-06 -3.85599e-05
0.00173355 -4.90964e-05 -1.8918e-05
-4.90964e-05 0.00111542 -5.0345e-06
-1.8918e-05 -5.0345e-06 -0.000564573
-0.0025934 0.000103477 -0.000128273
0.000103477 0.00284887 -5.37686e-06
-0.000128273 -5.37686e-06 0.000649924
-0.00966884 -0.000598599 -0.000304123
-0.000598599 -0.00512623 3.79022e-06
-0.000304123 3.79022e-06 -0.00493358
-0.000187066 9.36797e-05 6.16403e-06
9.36797e-05 -0.000318941 -1.87653e-06
6.16403e-06 -1.87653e-06 -0.00046621
7.01646e-05 0.000177868 2.66748e-06
0.000177868 -0.000158676 4.92113e-06
2.66748e-06 4.92113e-06 -0.000400176
0.00155996 0.000388154 1.915e-05
0.000388154 0.000263599 7.24599e-06
1.915e-05 7.24599e-06 0.000225151
-0.00388639 0.000463631 -1.89074e-05
0.000463631 0.00139906 1.54663e-05
-1.89074e-05 1.54663e-05 -0.00106146
0.00141525 0.000792772 -9.11603e-05
0.000792772 -4.04307e-05 -9.12948e-05
-9.11603e-05 -9.12948e-05 -0.00336798
0.0029449 0.00109853 0.000156728
0.00109853 0.000467691 3.76324e-05
0.000156728 3.76324e-05 1.52865e-05
0.00028296 0.000325859 6.70554e-06
0.000325859 -6.03304e-05 -2.67827e-05
6.70554e-06 -2.67827e-05 -0.000123632
0.012642 -0.00143967 1.30268e-06
-0.00143967 0.00366894 -0.000112971
1.30268e-06 -0.000112971 0.0033105
0.00408145 0.000384594 0.000145425
0.000384594 0.00188974 7.58528e-05
0.000145425 7.58528e-05 -0.00101633
0.00934597 -0.00105164 6.29084e-05
-0.00105164 0.00142254 1.65165e-05
6.29084e-05 1.65165e-05 0.00265482
0.000906918 0.000200858 1.72775e-06
0.000200858 0.000388524 -2.06325e-06
1.72775e-06 -2.06325e-06 0.000245076
0.00331103 7.98906e-05 9.95211e-06
7.98906e-05 0.00150775 -1.53384e-06
9.95211e-06 -1.53384e-06 2.73793e-05
0.00051957 0.000111336 1.54019e-05
0.000111336 0.000124525 1.06951e-05
1.54019e-05 1.06951e-05 -0.00148441
-0.000263167 0.00020561 -7.37967e-06
0.00020561 -0.000146217 -1.70217e-06
-7.37967e-06 -1.70217e-06 -0.000346753
0.00219868 0.000601253 -7.49832e-05
0.000601253 0.00100556 -3.86551e-05
-7.49832e-05 -3.86551e-05 0.000172345
0.00280967 0.00165168 7.79771e-05
0.00165168 0.000946273 5.77319e-05
7.79771e-05 5.77319e-05 -0.00226377
0.00578889 0.000161598 -1.04549e-05
0.000161598 -0.0024094 -0.0001117
-1.04549e-05 -0.0001117 -0.000159858
0.00209009 -0.00118619 -3.22076e-05
-0.00118619 0.000452371 -4.48233e-05
-3.22076e-05 -4.48233e-05 -0.00121041
0.000894344 0.000153935 -6.64157e-06
0.000153935 0.000576327 -1.1852e-05
-6.64157e-06 -1.1852e-05 0.000410993
0.00048231 -6.26157e-05 -4.99316e-06
-6.26157e-05 5.20058e-05 -8.06321e-06
-4.99316e-06 -8.06321e-06 5.71643e-05
0.00268698 1.47049e-05 2.88161e-05
1.47049e-05 0.000304856 -8.15618e-05
2.88161e-05 -8.15618e-05 -0.000847462
0.00374832 0.000886103 9.17736e-05
0.000886103 -0.00281474 -1.00944e-05
9.17736e-05 -1.00944e-05 -0.00177883
-0.000720605 0.000106012 -3.30678e-06
0.000106012 -7.62866e-06 -1.85989e-05
-3.30678e-06 -1.85989e-05 -0.000521376
0.0104903 0.00125353 0.00012753
0.00125353 0.00512451 4.91863e-05
0.00012753 4.91863e-05 0.00148212
-0.00890655 -0.000340071 7.00556e-05
-0.000340071 -0.00057223 0.000195648
7.00556e-05 0.000195648 -0.00255362
0.00195828 0.000213023 1.74967e-05
0.000213023 0.00092402 9.0915e-06
1.74967e-05 9.0915e-06 0.00079923
0.000581779 0.000118689 -4.54145e-06
0.000118689 0.000249948 -4.43031e-07
-4.54145e-06 -4.43031e-07 6.61864e-05
0.000180173 7.35036e-05 -2.49101e-06
7.35036e-05 0.000227895 -2.50111e-06
-2.49101e-06 -2.50111e-06 1.67031e-05
0.000758246 0.000134297 7.43108e-07
0.000134297 0.000135804 1.26294e-06
7.43108e-07 1.26294e-06 -2.20306e-06
0.000717809 6.26614e-05 9.87958e-07
6.26614e-05 0.000101955 2.09687e-06
9.87958e-07 2.09687e-06 -8.32046e-06
0.00092736 4.27076e-07 6.86061e-06
4.27076e-07 0.000421772 6.67846e-06
6.86061e-06 6.67846e-06 0.000261147
0.000671283 4.46894e-05 -1.87064e-07
4.46894e-05 8.13101e-05 -2.38037e-07
-1.87064e-07 -2.38037e-07 -4.36707e-05
0.000799864 -2.1344e-05 -1.16542e-06
-2.1344e-05 0.000287715 -1.72386e-06
-1.16542e-06 -1.72386e-06 0.000152499
-9.90098e-05 2.93948e-05 4.81541e-06
2.93948e-05 9.27581e-06 3.45717e-06
4.81541e-06 3.45717e-06 -0.000210194
0.000879289 9.37107e-06 -8.7228e-06
9.37107e-06 0.000491859 -8.41264e-06
-8.7228e-06 -8.41264e-06 0.000382011
0.000128946 -3.77903e-05 -3.66329e-06
-3.77903e-05 -0.000112306 -8.40998e-06
-3.66329e-06 -8.40998e-06 -0.000233454
0.000583635 -4.5593e-05 2.5968e-06
-4.5593e-05 2.24267e-05 3.77987e-06
2.5968e-06 3.77987e-06 -7.60155e-05
0.000784452 1.09297e-05 -7.61762e-07
1.09297e-05 0.00014332 1.48414e-07
-7.61762e-07 1.48414e-07 4.11779e-05
0.00088887 -1.74118e-05 -5.91346e-06
-1.74118e-05 0.000196532 4.08194e-06
-5.91346e-06 4.08194e-06 0.000110033
0.000699635 -4.57393e-05 3.30689e-06
-4.57393e-05 0.00013385 -9.55658e-08
3.30689e-06 -9.55658e-08 5.2621e-05
0.000614698 -9.46421e-06 -6.23518e-07
-9.46421e-06 2.75958e-05 1.98072e-07
-6.23518e-07 1.98072e-07 -6.53477e-05
0.000764778 -8.93657e-05 3.33716e-06
-8.93657e-05 0.000141026 -3.7436e-07
3.33716e-06 -3.7436e-07 4.53621e-05
0.000401525 -8.20857e-05 -2.4115e-06
-8.20857e-05 -0.0001364 -1.162e-06
-2.4115e-06 -1.162e-06 -0.000218308
-0.000128314 -0.000155674 8.04476e-06
-0.000155674 -0.00042046 8.12036e-07
8.04476e-06 8.12036e-07 -0.00059855
0.000927075 -8.14299e-05 -1.07281e-06
-8.14299e-05 0.000199937 1.01221e-06
-1.07281e-06 1.01221e-06 9.43415e-05
0.00113551 -0.000159734 -4.55363e-07
-0.000159734 0.000320147 2.59532e-06
-4.55363e-07 2.59532e-06 0.000166027
0.000717531 -0.000225035 -3.42008e-06
-0.000225035 1.08765e-05 4.91281e-06
-3.42008e-06 4.91281e-06 -0.000209683
0.000915447 -0.000219822 -4.2732e-06
-0.000219822 0.000129689 3.5061e-07
-4.2732e-06 3.5061e-07 -8.98454e-05
0.00101773 -0.000180505 -2.06576e-06
-0.000180505 0.000313395 3.99144e-06
-2.06576e-06 3.99144e-06 0.000133799
0.000397478 -0.000157144 1.90116e-06
-0.000157144 -0.00012952 -1.25668e-07
1.90116e-06 -1.25668e-07 -0.000335328
0.000875346 -6.89602e-05 1.14891e-06
-6.89602e-05 0.000202047 -1.21824e-08
1.14891e-06 -1.21824e-08 8.31361e-05
0.00104312 -0.000106401 -1.43357e-06
-0.000106401 0.00032004 -4.56987e-07
-1.43357e-06 -4.56987e-07 0.000180074
0.00047441 -9.23818e-05 2.77698e-06
-9.23818e-05 -1.04364e-05 -9.81617e-06
2.77698e-06 -9.81617e-06 -0.000159558
0.000950573 -2.22459e-05 -6.15851e-07
-2.22459e-05 0.000230029 -3.24321e-07
-6.15851e-07 -3.24321e-07 0.000125445
0.000498718 -6.96229e-06 3.04359e-07
-6.96229e-06 -1.71911e-05 -8.90813e-08
3.04359e-07 -8.90813e-08 -0.000119449
0.000621669 -4.85925e-06 -3.44024e-07
-4.85925e-06 3.41364e-05 6.22515e-07
-3.44024e-07 6.22515e-07 -4.79579e-05
0.000799731 -5.09737e-05 -1.24439e-07
-5.09737e-05 0.000165048 3.2528e-07
-1.24439e-07 3.2528e-07 5.53901e-05
0.000682069 -3.13485e-05 -1.33338e-07
-3.13485e-05 7.57013e-05 4.96168e-08
-1.33338e-07 4.96168e-08 -7.77077e-06
0.000600655 3.02449e-05 -5.77986e-07
3.02449e-05 6.78796e-06 1.87058e-06
-5.77986e-07 1.87058e-06 -4.94022e-05
0.000736596 -6.48836e-05 6.3704e-07
-6.48836e-05 0.00011246 -1.17409e-06
6.3704e-07 -1.17409e-06 2.59618e-05
0.000623039 2.1535e-05 -9.24177e-07
2.1535e-05 1.53805e-05 -5.40133e-08
-9.24177e-07 -5.40133e-08 -3.79996e-05
0.00133204 4.52782e-05 -8.33404e-06
4.52782e-05 0.000422101 3.62964e-06
-8.33404e-06 3.62964e-06 0.000408739
0.000654895 -2.14194e-05 2.26121e-06
-2.14194e-05 3.25114e-05 -2.16165e-06
2.26121e-06 -2.16165e-06 -1.9248e-05
0.000941985 2.9598e-05 -4.50822e-06
2.9598e-05 0.000187057 6.31334e-07
-4.50822e-06 6.31334e-07 0.000172729
0.000802866 3.19013e-05 -1.05504e-06
3.19013e-05 0.000108794 2.14014e-06
-1.05504e-06 2.14014e-06 0.000114249
0.000534998 1.59542e-05 8.17067e-07
1.59542e-05 -5.67304e-05 -4.072e-06
8.17067e-07 -4.072e-06 -7.23215e-05
0.0015685 3.42502e-05 7.68446e-06
3.42502e-05 0.000561748 -1.35306e-06
7.68446e-06 -1.35306e-06 0.000572113
0.00235122 3.05058e-05 7.87627e-06
3.05058e-05 0.00102604 -5.05221e-06
7.87627e-06 -5.05221e-06 0.00104098
0.000451649 4.76611e-06 8.47298e-07
4.76611e-06 -4.91504e-05 -6.77849e-07
8.47298e-07 -6.77849e-07 -0.000150416
0.00032482 3.35336e-06 -5.67507e-08
3.35336e-06 -0.000156714 -3.23417e-06
-5.67507e-08 -3.23417e-06 -0.000207718
0.000747901 1.835e-05 3.82796e-08
1.835e-05 0.000120827 1.17599e-07
3.82796e-08 1.17599e-07 3.36868e-05
0.000583889 -7.84682e-06 2.74104e-07
-7.84682e-06 -3.09914e-05 -3.6431e-06
2.74104e-07 -3.6431e-06 -4.03092e-05
0.000455784 3.83521e-06 1.09012e-06
3.83521e-06 -8.00161e-05 -7.44776e-08
1.09012e-06 -7.44776e-08 -0.000123926
0.00043961 -7.89711e-05 -1.33159e-06
-7.89711e-05 -5.91277e-05 7.94516e-07
-1.33159e-06 7.94516e-07 -0.000141206
0.00209207 -1.14669e-05 -6.13044e-06
-1.14669e-05 0.000868953 -4.78724e-06
-6.13044e-06 -4.78724e-06 0.000887755
0.000585303 -2.69941e-06 -1.07302e-07
-2.69941e-06 -3.05486e-05 -4.35653e-08
-1.07302e-07 -4.35653e-08 -3.80328e-05
0.000584848 -1.12192e-05 -1.51117e-06
-1.12192e-05 -3.15105e-06 1.78567e-06
-1.51117e-06 1.78567e-06 -4.26214e-05
0.00204318 2.89198e-06 -3.83837e-06
2.89198e-06 0.000839868 9.71617e-09
-3.83837e-06 9.71617e-09 0.000859182
0.000568861 2.46268e-06 -3.56214e-07
2.46268e-06 -4.02112e-05 3.29459e-06
-3.56214e-07 3.29459e-06 -4.68688e-05
0.00203481 1.68982e-05 -2.59898e-06
1.68982e-05 0.000836394 4.53737e-06
-2.59898e-06 4.53737e-06 0.000855318
0.000442412 -0.000179233 -9.50394e-05
-0.000179233 -0.000165935 2.84511e-05
-9.50394e-05 2.84511e-05 -0.00170095
0.00148621 0.000162488 -2.86023e-05
0.000162488 0.00348766 -7.59632e-06
-2.86023e-05 -7.59632e-06 0.00204701
0.00112154 -0.00033899 -0.000262832
-0.00033899 0.00202564 4.96205e-06
-0.000262832 4.96205e-06 0.00107466
0.00075944 7.94968e-05 1.776e-06
7.94968e-05 0.000135798 6.10048e-07
1.776e-06 6.10048e-07 5.81742e-06
0.00366247 -0.000251407 -3.31197e-05
-0.000251407 0.00231645 9.28008e-05
-3.31197e-05 9.28008e-05 0.00104494
0.00358685 -0.000437926 -9.43893e-05
-0.000437926 0.00120389 7.69541e-06
-9.43893e-05 7.69541e-06 -0.00151921
0.00230644 0.000688032 0.000183268
0.000688032 0.0032327 -0.000163309
0.000183268 -0.000163309 0.00212264
0.00382233 -0.000227523 2.54014e-05
-0.000227523 0.000144054 -3.29749e-05
2.54014e-05 -3.29749e-05 -0.000139739
0.0115213 -0.00041081 0.000114232
-0.00041081 0.00311567 -6.11963e-05
0.000114232 -6.11963e-05 0.00147164
-0.00217782 0.00160864 -0.000128445
0.00160864 -0.00365333 0.000148946
-0.000128445 0.000148946 -0.00299721
0.00557629 0.00159212 4.09222e-05
0.00159212 0.000182064 4.69013e-05
4.09222e-05 4.69013e-05 0.000156658
0.00487562 -0.000821449 -8.69039e-05
-0.000821449 0.000247351 -9.81275e-07
-8.69039e-05 -9.81275e-07 -0.000166636
0.0105837 -0.000816378 5.59812e-05
-0.000816378 0.00385432 -1.45227e-05
5.59812e-05 -1.45227e-05 0.00171224
0.0066936 0.00105516 6.72693e-05
0.00105516 0.000600563 -0.000123421
6.72693e-05 -0.000123421 0.000149683
0.00548713 0.000775958 -6.38334e-06
0.000775958 -0.00158776 1.21076e-05
-6.38334e-06 1.21076e-05 -0.000637458
0.00402157 -0.00128177 2.05438e-05
-0.00128177 0.000429662 1.0452e-06
2.05438e-05 1.0452e-06 -0.000388598
0.0113099 -0.001398 9.30432e-05
-0.001398 0.00535569 -4.88635e-05
9.30432e-05 -4.88635e-05 0.00167468
0.00357988 -0.000135103 6.56087e-05
-0.000135103 0.000434805 -0.000183688
6.56087e-05 -0.000183688 -6.77005e-05
0.00726208 0.000399421 -4.27675e-05
0.000399421 -0.000883201 0.000104748
-4.27675e-05 0.000104748 0.000942013
0.000672636 -2.29998e-05 6.8026e-07
-2.29998e-05 0.00010673 1.89061e-06
6.8026e-07 1.89061e-06 -4.4616e-05
0.000816839 -5.99318e-05 -1.45034e-07
-5.99318e-05 0.000210513 -5.10712e-08
-1.45034e-07 -5.10712e-08 5.93069e-05
0.000812905 9.4668e-05 -5.98421e-07
9.4668e-05 0.000192567 -2.28953e-06
-5.98421e-07 -2.28953e-06 7.00889e-05
0.00073816 4.3731e-05 6.62712e-07
4.3731e-05 0.000114039 2.41827e-06
6.62712e-07 2.41827e-06 -1.33808e-05
0.000818016 9.47546e-05 -5.41205e-07
9.47546e-05 0.000192504 7.39938e-07
-5.41205e-07 7.39938e-07 4.80893e-05
0.000889414 6.30805e-05 -1.31114e-06
6.30805e-05 0.000233777 4.90202e-08
-1.31114e-06 4.90202e-08 0.000110766
0.000985648 0.000117144 -9.17139e-07
0.000117144 0.000286601 -1.15353e-07
-9.17139e-07 -1.15353e-07 0.000153497
0.000967773 0.000123828 7.87532e-07
0.000123828 0.000288588 2.48437e-06
7.87532e-07 2.48437e-06 0.000157076
0.000330441 -0.00022765 4.9107e-05
-0.00022765 -0.000632412 -2.11855e-05
4.9107e-05 -2.11855e-05 -0.000647765
0.00170126 -0.000471511 9.15502e-06
-0.000471511 0.000176145 -1.24567e-05
9.15502e-06 -1.24567e-05 0.000123337
0.00086816 -0.000171248 -6.49937e-07
-0.000171248 0.000246957 -2.73624e-06
-6.49937e-07 -2.73624e-06 7.80541e-05
0.00196346 -0.000389388 1.76704e-05
-0.000389388 0.000835837 -2.19865e-05
1.76704e-05 -2.19865e-05 0.000559205
0.00220629 -0.000194784 -4.15219e-06
-0.000194784 0.00109625 6.53098e-06
-4.15219e-06 6.53098e-06 0.000840447
0.000980001 -7.34663e-05 -1.5286e-06
-7.34663e-05 0.000299963 -3.3054e-06
-1.5286e-06 -3.3054e-06 0.000134059
0.000607454 -3.31073e-06 7.56374e-07
-3.31073e-06 7.21212e-05 2.35864e-06
7.56374e-07 2.35864e-06 -8.02023e-05
0.000218151 -0.000498625 -6.60276e-06
-0.000498625 -0.000676747 -6.53418e-07
-6.60276e-06 -6.53418e-07 -0.00063946
0.00123825 5.09597e-05 2.1254e-07
5.09597e-05 0.000540434 6.72116e-07
2.1254e-07 6.72116e-07 0.000310404
0.000955305 -0.000167305 -1.49204e-05
-0.000167305 0.000400729 3.06329e-06
-1.49204e-05 3.06329e-06 0.000139152
0.000558792 -0.000188822 9.18751e-06
-0.000188822 5.05836e-05 4.40459e-06
9.18751e-06 4.40459e-06 -1.72924e-05
0.000906954 5.71331e-05 1.73052e-06
5.71331e-05 0.000222421 -2.7192e-06
1.73052e-06 -2.7192e-06 8.57947e-05
0.00120201 -0.000415855 1.8627e-05
-0.000415855 -4.08556e-05 -3.43196e-05
1.8627e-05 -3.43196e-05 0.00012369
-0.000203094 -0.000110883 7.9636e-06
-0.000110883 -0.000100967 2.3332e-05
7.9636e-06 2.3332e-05 -0.000206055
-7.15197e-05 3.8123e-05 1.76781e-06
3.8123e-05 -1.92436e-05 7.51547e-06
1.76781e-06 7.51547e-06 -0.000359068
0.00136985 0.000195159 1.77321e-06
0.000195159 0.000564858 -5.14728e-06
1.77321e-06 -5.14728e-06 0.000386746
0.000517647 -2.05512e-05 -4.87868e-06
-2.05512e-05 0.000699066 -9.05299e-06
-4.87868e-06 -9.05299e-06 6.6573e-05
0.00130597 -5.3036e-05 7.93311e-05
-5.3036e-05 0.000936937 -9.21988e-06
7.93311e-05 -9.21988e-06 -0.000764304
-0.00530033 -6.05982e-05 -0.000142107
-6.05982e-05 0.00202508 5.65427e-06
-0.000142107 5.65427e-06 -0.000634549
0.00100489 0.000194422 1.44961e-05
0.000194422 0.000503381 3.44171e-06
1.44961e-05 3.44171e-06 0.00035213
-0.00112175 0.000255897 7.68755e-06
0.000255897 -0.000639414 1.09146e-05
7.68755e-06 1.09146e-05 -0.000902772
0.00372672 7.06633e-05 8.93195e-05
7.06633e-05 0.00192795 2.31319e-06
8.93195e-05 2.31319e-06 0.000718152
0.00779262 0.0007965 0.000143791
0.0007965 0.00349623 7.85595e-05
0.000143791 7.85595e-05 9.95318e-05
0.00321281 0.000830186 -0.000104861
0.000830186 0.00150738 -8.53237e-05
-0.000104861 -8.53237e-05 0.000442763
0.00446397 -0.000760937 -8.80654e-06
-0.000760937 0.00138487 -0.000203171
-8.80654e-06 -0.000203171 -8.90856e-05
0.000925404 0.000135285 5.00997e-05
0.000135285 0.000173634 0.000118092
5.00997e-05 0.000118092 -0.00141848
0.00419783 -3.85573e-05 -1.14274e-05
-3.85573e-05 -0.00398231 -0.000111761
-1.14274e-05 -0.000111761 -0.00131389
0.000700409 0.000173823 5.25075e-07
0.000173823 0.000467935 -1.7659e-06
5.25075e-07 -1.7659e-06 0.00028431
0.000447662 -5.83605e-05 1.24558e-06
-5.83605e-05 6.8456e-05 -1.85774e-06
1.24558e-06 -1.85774e-06 5.89903e-05
0.00277486 4.15217e-05 3.65243e-05
4.15217e-05 0.00046612 1.59019e-05
3.65243e-05 1.59019e-05 -0.000311732
-0.000935166 0.000148953 -7.45565e-06
0.000148953 -0.000335049 -5.29525e-06
-7.45565e-06 -5.29525e-06 -0.000749847
0.00572079 0.000866507 5.73014e-06
0.000866507 -0.0015226 -1.22478e-05
5.73014e-06 -1.22478e-05 -0.0006261
0.00496199 0.000975412 0.000117097
0.000975412 0.00300958 5.68273e-05
0.000117097 5.68273e-05 -0.000804975
0.00336373 0.000378627 -6.95548e-05
0.000378627 0.00235203 6.07511e-06
-6.95548e-05 6.07511e-06 0.00107114
0.000431961 0.00019425 -1.64439e-05
0.00019425 0.000346254 -1.675e-05
-1.64439e-05 -1.675e-05 8.94774e-05
0.00170472 6.41835e-05 8.88077e-06
6.41835e-05 -0.000188276 -1.37664e-05
8.88077e-06 -1.37664e-05 -1.67598e-05
0.00374611 -0.000204215 3.66847e-05
-0.000204215 0.00230599 -9.38344e-05
3.66847e-05 -9.38344e-05 0.00107705
0.00680993 0.0016215 0.000186003
0.0016215 0.000625199 -0.000127144
0.000186003 -0.000127144 0.000790376
0.00660631 -0.000144894 -8.41889e-05
-0.000144894 0.00146609 0.000179028
-8.41889e-05 0.000179028 0.00116006
0.000819189 0.000180291 -1.39701e-05
0.000180291 4.27751e-05 -6.2912e-05
-1.39701e-05 -6.2912e-05 -6.68091e-05
-0.000723267 0.00102105 0.000124491
0.00102105 0.00262598 3.2466e-05
0.000124491 3.2466e-05 -0.00309387
0.00096763 0.000171944 3.32157e-06
0.000171944 0.000438738 1.03494e-05
3.32157e-06 1.03494e-05 0.000251775
0.000162168 9.26351e-05 2.78105e-06
9.26351e-05 0.000211675 1.63595e-06
2.78105e-06 1.63595e-06 -4.26253e-06
0.00104902 1.28824e-05 -1.30291e-05
1.28824e-05 0.00075857 -1.36371e-05
-1.30291e-05 -1.36371e-05 0.000619579
0.000374451 -2.27794e-05 1.24392e-06
-2.27794e-05 -0.000105337 4.21477e-06
1.24392e-06 4.21477e-06 -0.000217306
0.00067409 -2.54467e-05 2.12814e-06
-2.54467e-05 0.000217599 5.45969e-06
2.12814e-06 5.45969e-06 8.30151e-05
0.000259806 -1.07524e-05 1.93688e-06
-1.07524e-05 0.000192888 3.05086e-06
1.93688e-06 3.05086e-06 -2.95983e-05
0.000583049 -6.3203e-05 5.93868e-07
-6.3203e-05 0.000129339 -3.86832e-07
5.93868e-07 -3.86832e-07 2.1163e-05
0.000101602 -1.16928e-05 1.26968e-06
-1.16928e-05 3.86312e-05 1.55529e-06
1.26968e-06 1.55529e-06 -7.44518e-05
0.00113204 -0.000199811 9.2409e-06
-0.000199811 0.000590526 -8.87189e-06
9.2409e-06 -8.87189e-06 0.000410585
0.00127054 -6.41331e-05 -1.67932e-06
-6.41331e-05 0.000459156 4.08451e-06
-1.67932e-06 4.08451e-06 0.000374594
0.00017017 5.73819e-06 -1.18838e-06
5.73819e-06 -0.000224532 1.75819e-06
-1.18838e-06 1.75819e-06 -0.000317281
0.00141706 -0.000146879 1.23448e-06
-0.000146879 0.000507739 2.18174e-06
1.23448e-06 2.18174e-06 0.000400908
-0.000496778 -0.000138385 5.31292e-06
-0.000138385 -0.000486151 1.78044e-06
5.31292e-06 1.78044e-06 -0.000712507
0.000415364 -6.45897e-05 -5.68332e-06
-6.45897e-05 -9.51034e-05 8.19382e-07
-5.68332e-06 8.19382e-07 -0.000163334
2.52299e-05 -0.000154212 2.40002e-06
-0.000154212 -0.00033563 -1.17805e-06
2.40002e-06 -1.17805e-06 -0.000499559
0.0010724 -0.00028391 1.06834e-05
-0.00028391 0.000187483 -2.71383e-06
1.06834e-05 -2.71383e-06 -6.63173e-05
0.00132041 -0.00032173 -4.65902e-06
-0.00032173 0.000209427 3.48325e-06
-4.65902e-06 3.48325e-06 -5.15176e-05
0.00176003 -0.00022161 -2.86195e-06
-0.00022161 0.000672023 6.88556e-08
-2.86195e-06 6.88556e-08 0.000505402
0.000899625 -0.000242868 -6.10822e-07
-0.000242868 8.86846e-05 4.14327e-07
-6.10822e-07 4.14327e-07 -0.000145554
0.00215084 -0.000344273 2.72049e-06
-0.000344273 0.000822745 -1.07363e-06
2.72049e-06 -1.07363e-06 0.00059403
0.000239149 -0.000127889 -1.40794e-06
-0.000127889 -0.000184448 2.07663e-06
-1.40794e-06 2.07663e-06 -0.000379433
0.000946429 -0.000219035 -1.75541e-07
-0.000219035 0.00015375 -3.2645e-07
-1.75541e-07 -3.2645e-07 -6.25338e-05
0.000530583 -6.13995e-05 3.45587e-07
-6.13995e-05 1.30924e-05 -4.67547e-07
3.45587e-07 -4.67547e-07 -0.00012988
0.00105184 -0.000194208 -3.91614e-06
-0.000194208 0.000334513 2.38994e-06
-3.91614e-06 2.38994e-06 0.00015174
-0.000386778 -7.79869e-05 -2.3944e-06
-7.79869e-05 -0.000581549 -3.87945e-06
-2.3944e-06 -3.87945e-06 -0.000773253
0.000586605 1.82884e-05 8.47915e-07
1.82884e-05 2.33966e-05 1.04389e-06
8.47915e-07 1.04389e-06 -7.34846e-05
0.000737671 -5.40859e-05 8.3362e-07
-5.40859e-05 0.000128506 -2.04405e-07
8.3362e-07 -2.04405e-07 8.01698e-06
0.000823781 -9.94403e-05 3.31862e-06
-9.94403e-05 0.000199608 -2.89173e-06
3.31862e-06 -2.89173e-06 5.52757e-05
0.000649618 -1.71565e-05 2.1118e-07
-1.71565e-05 7.32229e-05 -1.56034e-07
2.1118e-07 -1.56034e-07 -3.12492e-05
0.000693859 -1.72164e-05 -6.47815e-07
-1.72164e-05 8.51609e-05 -1.34302e-07
-6.47815e-07 -1.34302e-07 -4.16047e-06
0.000591025 3.44355e-05 -5.91265e-07
3.44355e-05 3.49701e-06 2.25887e-06
-5.91265e-07 2.25887e-06 -5.6749e-05
0.000753958 -4.37144e-05 5.61429e-07
-4.37144e-05 0.000124645 -7.25783e-07
5.61429e-07 -7.25783e-07 3.54518e-05
0.000622711 2.64406e-05 -7.87354e-07
2.64406e-05 1.82741e-05 -1.17779e-07
-7.87354e-07 -1.17779e-07 -3.73592e-05
0.000561405 4.23617e-05 -1.0748e-06
4.23617e-05 -3.05905e-05 4.08893e-06
-1.0748e-06 4.08893e-06 -4.99019e-05
0.000683002 -1.23717e-05 2.17193e-06
-1.23717e-05 4.69709e-05 -2.00234e-06
2.17193e-06 -2.00234e-06 -4.46303e-06
0.00056453 3.31874e-05 1.59822e-07
3.31874e-05 -3.55393e-05 6.46018e-09
1.59822e-07 6.46018e-09 -5.25594e-05
0.00223993 7.37864e-05 -4.03571e-06
7.37864e-05 0.000971653 1.88718e-06
-4.03571e-06 1.88718e-06 0.000981926
0.000535525 2.48622e-05 9.57453e-07
2.48622e-05 -5.52433e-05 -4.12933e-06
9.57453e-07 -4.12933e-06 -7.14551e-05
0.00156749 4.53991e-05 9.16615e-06
4.53991e-05 0.000565213 -1.16128e-06
9.16615e-06 -1.16128e-06 0.000574262
0.0023519 4.44342e-05 1.24776e-05
4.44342e-05 0.00102954 -4.84189e-06
1.24776e-05 -4.84189e-06 0.00104341
0.000400132 3.38762e-06 7.20779e-07
3.38762e-06 -9.29197e-05 -1.72936e-06
7.20779e-07 -1.72936e-06 -0.000190541
0.000343117 -1.39054e-07 1.9137e-07
-1.39054e-07 -0.000147882 -2.80391e-06
1.9137e-07 -2.80391e-06 -0.000205647
0.000575483 1.61717e-05 -4.30689e-07
1.61717e-05 2.2579e-05 -1.03485e-06
-4.30689e-07 -1.03485e-06 -7.5653e-05
0.00058538 -1.36856e-05 4.08528e-07
-1.36856e-05 -2.85016e-05 -3.90396e-06
4.08528e-07 -3.90396e-06 -4.05652e-05
0.000313694 2.35774e-06 -4.17645e-07
2.35774e-06 -0.000163629 -1.20013e-06
-4.17645e-07 -1.20013e-06 -0.000215586
0.000746378 2.91146e-05 -2.5016e-07
2.91146e-05 0.000128835 1.72903e-06
-2.5016e-07 1.72903e-06 3.63832e-05
0.00214589 -2.44606e-05 -1.07496e-05
-2.44606e-05 0.000901894 -4.75242e-06
-1.07496e-05 -4.75242e-06 0.000919697
0.000579867 -8.15274e-06 -2.12249e-07
-8.15274e-06 -3.32996e-05 -4.70772e-08
-2.12249e-07 -4.70772e-08 -4.24931e-05
0.000282243 2.88026e-06 6.23188e-07
2.88026e-06 -0.000181197 1.78756e-06
6.23188e-07 1.78756e-06 -0.000227499
0.00207119 -9.98913e-06 -3.58964e-06
-9.98913e-06 0.00085629 4.16408e-08
-3.58964e-06 4.16408e-08 0.000875327
0.000576987 -2.76819e-06 -3.02929e-07
-2.76819e-06 -3.55771e-05 3.41569e-06
-3.02929e-07 3.41569e-06 -4.29375e-05
0.00205837 4.28703e-06 1.9478e-06
4.28703e-06 0.000849027 4.66941e-06
1.9478e-06 4.66941e-06 0.000868224
0.000827514 -6.876e-07 1.11976e-05
-6.876e-07 0.000466305 8.81922e-06
1.11976e-05 8.81922e-06 0.000315094
0.000895608 -0.000128544 1.89725e-06
-0.000128544 0.000141523 -1.08639e-05
1.89725e-06 -1.08639e-05 -0.00144846
0.00167398 7.7574e-05 2.95998e-05
7.7574e-05 0.00355386 -3.21481e-05
2.95998e-05 -3.21481e-05 0.00229425
0.000739504 8.55807e-05 -1.72757e-07
8.55807e-05 0.000117142 3.43269e-07
-1.72757e-07 3.43269e-07 -5.10397e-06
0.000556267 5.93876e-05 1.48365e-06
5.93876e-05 -6.23005e-06 -3.5461e-07
1.48365e-06 -3.5461e-07 -0.000121318
0.000955816 0.00012126 2.37324e-06
0.00012126 0.000244917 2.86025e-06
2.37324e-06 2.86025e-06 0.000113056
0.00264174 -5.31298e-05 2.9066e-06
-5.31298e-05 0.000166588 0.000155841
2.9066e-06 0.000155841 -0.000808061
0.00345667 -0.000219861 7.1041e-06
-0.000219861 0.00228504 -2.56465e-06
7.1041e-06 -2.56465e-06 0.00107926
0.00365726 -0.000484832 6.49978e-05
-0.000484832 0.00135778 -0.000119863
6.49978e-05 -0.000119863 -0.00164329
0.00563511 -0.000945918 -8.99313e-05
-0.000945918 0.000723733 -6.57064e-07
-8.99313e-05 -6.57064e-07 0.000311608
0.00228992 -0.000872178 -0.000125379
-0.000872178 5.31425e-05 7.90148e-05
-0.000125379 7.90148e-05 -0.00256043
0.0111841 0.00149534 9.90549e-05
0.00149534 0.0038603 4.7081e-05
9.90549e-05 4.7081e-05 0.00313893
0.0030292 0.000233593 7.23061e-05
0.000233593 -0.00300221 -9.31108e-05
7.23061e-05 -9.31108e-05 -0.00211715
0.00528178 -0.00139665 -1.60354e-05
-0.00139665 0.00116555 3.42178e-06
-1.60354e-05 3.42178e-06 0.000503426
0.00643762 -0.00117078 -2.06886e-05
-0.00117078 0.00301848 2.06006e-05
-2.06886e-05 2.06006e-05 -0.00034691
-0.00291755 0.00108682 -3.16873e-05
0.00108682 2.00019e-06 -0.000123518
-3.16873e-05 -0.000123518 -0.00189065
0.0056621 0.000102905 -1.56118e-05
0.000102905 -0.0024725 4.87195e-05
-1.56118e-05 4.87195e-05 -0.00017456
0.00179376 -0.000849181 -3.86494e-05
-0.000849181 0.000281581 -1.89249e-05
-3.86494e-05 -1.89249e-05 -0.000295548
0.0110842 -0.0014262 -7.19535e-05
-0.0014262 0.00492317 5.45231e-05
-7.19535e-05 5.45231e-05 0.00111221
-0.00915336 -0.00011272 3.78776e-05
-0.00011272 -0.000407035 -0.000190102
3.78776e-05 -0.000190102 -0.00265681
0.00407435 -0.000892008 3.99385e-05
-0.000892008 -0.00195234 -1.56025e-05
3.99385e-05 -1.56025e-05 -0.000882014
0.000699363 5.02458e-05 1.9577e-07
5.02458e-05 9.42403e-05 7.6815e-06
1.9577e-07 7.6815e-06 -4.37974e-05
0.000641611 2.39977e-06 6.87691e-07
2.39977e-06 8.9352e-05 -6.24974e-07
6.87691e-07 -6.24974e-07 -6.59285e-05
0.000806891 -7.73072e-05 7.73024e-07
-7.73072e-05 0.000198117 -2.17341e-06
7.73024e-07 -2.17341e-06 4.4046e-05
0.000740678 6.37419e-05 -7.34462e-07
6.37419e-05 0.000114747 -6.68091e-07
-7.34462e-07 -6.68091e-07 -1.5701e-05
0.000786805 0.000114862 9.41661e-07
0.000114862 0.00017622 -3.42575e-07
9.41661e-07 -3.42575e-07 3.68319e-05
0.00107791 0.000130801 -1.93718e-06
0.000130801 0.000343752 -7.63956e-07
-1.93718e-06 -7.63956e-07 0.000208443
-0.000159766 -0.000473779 1.83002e-05
-0.000473779 -0.000890529 8.72208e-06
1.83002e-05 8.72208e-06 -0.000882362
-0.000730881 -0.000102272 1.75653e-05
-0.000102272 -0.000685246 -1.94234e-05
1.75653e-05 -1.94234e-05 -0.000702218
0.000582096 4.88478e-05 -1.45191e-06
4.88478e-05 6.33974e-05 -1.14373e-06
-1.45191e-06 -1.14373e-06 -9.55423e-05
0.00208916 -0.000275677 4.17842e-05
-0.000275677 0.000996469 -3.1679e-05
4.17842e-05 -3.1679e-05 0.000746608
0.00151981 1.40273e-05 -3.31238e-06
1.40273e-05 0.00069385 1.31966e-07
-3.31238e-06 1.31966e-07 0.000466127
0.000603195 3.92433e-05 -2.62935e-07
3.92433e-05 5.11194e-05 2.08653e-06
-2.62935e-07 2.08653e-06 -8.86912e-05
0.000631705 0.000111044 5.02701e-07
0.000111044 0.000135287 -1.12153e-06
5.02701e-07 -1.12153e-06 -2.78227e-05
0.000480928 -0.000445863 -1.2382e-06
-0.000445863 -0.000400103 -4.09915e-06
-1.2382e-06 -4.09915e-06 -0.000396894
0.000769188 -1.80081e-05 -9.93432e-07
-1.80081e-05 0.000419987 1.85063e-09
-9.93432e-07 1.85063e-09 0.000135054
0.000378009 -8.47421e-05 1.09502e-05
-8.47421e-05 0.000268995 -8.89516e-07
1.09502e-05 -8.89516e-07 0.000136823
0.000749046 7.83614e-05 3.71804e-06
7.83614e-05 0.000149964 -1.20177e-05
3.71804e-06 -1.20177e-05 2.1967e-05
-0.00243092 0.000120273 -7.43135e-05
0.000120273 -0.00097021 -1.15803e-05
-7.43135e-05 -1.15803e-05 -0.00139836
-0.000449367 3.45035e-05 1.70289e-05
3.45035e-05 -0.000195573 2.68511e-05
1.70289e-05 2.68511e-05 -0.000334253
0.00144937 1.07675e-05 5.71739e-06
1.07675e-05 0.000754482 1.68114e-06
5.71739e-06 1.68114e-06 0.000534555
0.000893139 -2.05738e-05 -9.69133e-07
-2.05738e-05 -0.00010473 8.00096e-07
-9.69133e-07 8.00096e-07 -0.000615778
0.000336356 -1.64989e-05 -1.60289e-05
-1.64989e-05 0.000505846 -1.15877e-05
-1.60289e-05 -1.15877e-05 -2.82653e-05
0.000776234 -3.78274e-05 0.000175021
-3.78274e-05 0.000733908 -9.53822e-06
0.000175021 -9.53822e-06 -0.00101466
0.000494797 0.00018654 1.05989e-05
0.00018654 0.000339151 1.48876e-05
1.05989e-05 1.48876e-05 0.000139644
0.00116503 0.000419752 9.96317e-06
0.000419752 0.000299916 -1.24918e-05
9.96317e-06 -1.24918e-05 5.86402e-06
0.000454325 -5.92504e-05 1.08544e-05
-5.92504e-05 4.63773e-05 2.73191e-06
1.08544e-05 2.73191e-06 2.00798e-05
-0.00277437 0.000534405 4.45223e-05
0.000534405 0.000299901 6.37846e-05
4.45223e-05 6.37846e-05 -0.00352837
-0.0101772 0.000528251 -8.14285e-05
0.000528251 -0.00365436 -0.000234548
-8.14285e-05 -0.000234548 -0.00582359
0.00276855 4.79433e-05 3.53374e-05
4.79433e-05 0.000631298 6.11906e-05
3.53374e-05 6.11906e-05 0.000156254
0.00324843 0.000321841 -7.38364e-05
0.000321841 -0.00282456 9.27156e-05
-7.38364e-05 9.27156e-05 -0.0020051
0.000510399 0.000173018 7.12442e-06
0.000173018 0.000389004 -1.44173e-06
7.12442e-06 -1.44173e-06 0.000167908
0.00151282 -3.09826e-07 1.37057e-05
-3.09826e-07 -0.000309186 -2.41528e-05
1.37057e-05 -2.41528e-05 -0.000105355
0.00349288 -0.000159839 -6.90506e-06
-0.000159839 0.00227044 2.29368e-06
-6.90506e-06 2.29368e-06 0.00107565
0.00119859 0.000212769 -4.26895e-05
0.000212769 0.000522847 -4.24804e-06
-4.26895e-05 -4.24804e-06 -7.99214e-05
0.00387836 0.00151744 6.39342e-05
0.00151744 -0.00126273 -0.000172737
6.39342e-05 -0.000172737 -0.000925431
-0.00266806 0.00102421 3.00136e-05
0.00102421 -0.000674016 0.000120263
3.00136e-05 0.000120263 -0.00211123
0.00698892 6.64739e-05 6.03954e-05
6.64739e-05 0.00550505 -2.56156e-05
6.03954e-05 -2.56156e-05 0.000247391
0.00174442 -7.98315e-05 6.01791e-05
-7.98315e-05 0.00139502 -2.08756e-05
6.01791e-05 -2.08756e-05 0.000940249
0.000920164 2.99157e-05 -1.38164e-05
2.99157e-05 0.000476443 -8.27111e-06
-1.38164e-05 -8.27111e-06 0.000330526
0.00378123 -0.000344708 0.000257505
-0.000344708 0.00112513 -0.00016812
0.000257505 -0.00016812 -0.00127626
0.00529475 0.00202725 3.65454e-06
0.00202725 0.00381053 -1.44098e-05
3.65454e-06 -1.44098e-05 0.00438211
-0.00390435 0.00109598 3.26006e-05
0.00109598 -0.00414475 0.000325464
3.26006e-05 0.000325464 -0.00434533
0.0132744 -0.00136441 0.000125903
-0.00136441 0.00543936 -0.000106983
0.000125903 -0.000106983 0.00163905
0.00324558 -0.000419175 -6.74757e-05
-0.000419175 0.00120801 7.58005e-05
-6.74757e-05 7.58005e-05 0.000921337
0.000668166 0.000148477 8.06881e-06
0.000148477 0.000492437 6.09128e-06
8.06881e-06 6.09128e-06 0.000271116
0.000224789 4.00858e-06 -2.5199e-05
4.00858e-06 0.000260807 1.40817e-06
-2.5199e-05 1.40817e-06 0.00010669
0.0010845 -0.000276668 1.7735e-05
-0.000276668 0.000751367 -8.61727e-06
1.7735e-05 -8.61727e-06 0.000453795
0.00101568 -8.43176e-05 1.14536e-06
-8.43176e-05 0.000363066 3.61406e-06
1.14536e-06 3.61406e-06 0.000266487
-4.76446e-05 -2.93114e-05 3.4985e-06
-2.93114e-05 -5.05657e-05 7.74883e-06
3.4985e-06 7.74883e-06 -0.000167628
0.000265945 -0.000187171 -1.04632e-06
-0.000187171 0.0001441 -7.06611e-07
-1.04632e-06 -7.06611e-07 -2.94887e-05
0.00134219 -0.000308483 2.33862e-05
-0.000308483 0.00062268 -1.56123e-05
2.33862e-05 -1.56123e-05 0.000338349
0.00224522 -0.000208274 -6.21256e-06
-0.000208274 0.000977003 4.42015e-06
-6.21256e-06 4.42015e-06 0.000857846
0.0019041 -0.000359107 3.39986e-06
-0.000359107 0.000789458 -3.68001e-07
3.39986e-06 -3.68001e-07 0.000545329
0.00139045 -0.000338166 1.05236e-05
-0.000338166 0.000526906 2.08771e-06
1.05236e-05 2.08771e-06 0.000122975
0.000235298 -0.000145895 -2.69061e-06
-0.000145895 -0.000221073 -4.62212e-07
-2.69061e-06 -4.62212e-07 -0.000367627
0.00143741 -0.000316026 -1.12432e-06
-0.000316026 0.000361332 1.23385e-06
-1.12432e-06 1.23385e-06 9.59906e-05
0.00176342 -0.000410088 -5.658e-07
-0.000410088 0.000476573 2.12375e-06
-5.658e-07 2.12375e-06 0.000127895
0.00172113 -0.000424569 -3.67635e-06
-0.000424569 0.000331893 3.3261e-06
-3.67635e-06 3.3261e-06 3.94398e-05
0.00103239 -0.000277614 -3.42427e-07
-0.000277614 8.30658e-05 4.38395e-06
-3.42427e-07 4.38395e-06 -0.000152379
0.00128765 -0.000320914 -2.58479e-06
-0.000320914 0.000191411 1.67644e-06
-2.58479e-06 1.67644e-06 -7.38054e-05
0.00110483 -0.000263182 -7.74291e-06
-0.000263182 0.000177989 2.52419e-06
-7.74291e-06 2.52419e-06 -7.02635e-05
0.00172705 -0.000298593 5.20004e-06
-0.000298593 0.000605742 -1.01401e-06
5.20004e-06 -1.01401e-06 0.000387551
0.00147559 -0.000280256 2.8307e-06
-0.000280256 0.000430258 -2.91077e-06
2.8307e-06 -2.91077e-06 0.000216523
2.01104e-05 -5.90912e-05 1.42036e-06
-5.90912e-05 -0.000301543 2.19266e-07
1.42036e-06 2.19266e-07 -0.000473391
0.000799673 -0.000184254 1.89547e-06
-0.000184254 0.000148327 -1.20447e-06
1.89547e-06 -1.20447e-06 -5.38555e-05
0.00104805 -0.000224977 5.71628e-06
-0.000224977 0.00021952 -4.79612e-06
5.71628e-06 -4.79612e-06 5.66499e-06
0.000498822 2.11145e-05 1.44427e-06
2.11145e-05 -2.0147e-05 1.70072e-06
1.44427e-06 1.70072e-06 -0.000138262
0.000890951 -9.78254e-05 -3.15585e-07
-9.78254e-05 0.00023016 5.86196e-07
-3.15585e-07 5.86196e-07 7.83228e-05
0.00105652 -0.0002047 -1.05837e-06
-0.0002047 0.00033927 -6.4667e-07
-1.05837e-06 -6.4667e-07 0.000153957
0.00060116 2.04845e-05 -1.05847e-06
2.04845e-05 1.10929e-05 2.46642e-06
-1.05847e-06 2.46642e-06 -5.47308e-05
0.000725098 -1.64541e-05 -5.90032e-07
-1.64541e-05 0.000102768 -2.64607e-07
-5.90032e-07 -2.64607e-07 4.20409e-06
0.000592977 -3.84755e-05 -2.96177e-07
-3.84755e-05 5.17203e-05 -1.0613e-07
-2.96177e-07 -1.0613e-07 -7.09147e-05
0.000766208 -3.63014e-05 3.73371e-07
-3.63014e-05 0.000130712 -1.07843e-06
3.73371e-07 -1.07843e-06 3.7823e-05
0.00063946 7.02689e-06 -2.78962e-07
7.02689e-06 2.82859e-05 -1.62099e-07
-2.78962e-07 -1.62099e-07 -3.01929e-05
0.00054506 5.1648e-05 -4.9877e-07
5.1648e-05 -3.08828e-05 4.58537e-06
-4.9877e-07 4.58537e-06 -5.40217e-05
0.000653033 -2.82878e-06 1.8357e-06
-2.82878e-06 3.23098e-05 -1.90224e-06
1.8357e-06 -1.90224e-06 -2.12996e-05
0.000567921 4.40913e-05 -1.55917e-07
4.40913e-05 -2.64675e-05 -4.24107e-08
-1.55917e-07 -4.24107e-08 -4.60603e-05
0.0022959 8.12065e-05 -2.44769e-05
8.12065e-05 0.00101258 3.82727e-06
-2.44769e-05 3.82727e-06 0.00102142
0.000554935 3.40647e-05 1.02572e-06
3.40647e-05 -4.10912e-05 -4.04843e-06
1.02572e-06 -4.04843e-06 -5.81957e-05
0.00154203 5.6644e-05 1.09915e-05
5.6644e-05 0.000555954 -1.00304e-06
1.09915e-05 -1.00304e-06 0.000563372
0.00235246 5.84701e-05 1.64022e-05
5.84701e-05 0.00103452 -4.49301e-06
1.64022e-05 -4.49301e-06 0.00104688
0.00070385 6.43523e-05 3.56085e-07
6.43523e-05 9.06741e-05 -1.05509e-06
3.56085e-07 -1.05509e-06 -1.31509e-05
0.000631244 2.34548e-05 -3.09292e-07
2.34548e-05 2.00352e-05 -2.35754e-06
-3.09292e-07 -2.35754e-06 -4.03165e-05
0.00056691 3.93585e-05 -1.15922e-06
3.93585e-05 1.65134e-05 -1.10414e-06
-1.15922e-06 -1.10414e-06 -8.84751e-05
0.000569046 -1.93147e-05 5.20924e-07
-1.93147e-05 -3.62732e-05 -4.30331e-06
5.20924e-07 -4.30331e-06 -5.16737e-05
0.000448174 1.56942e-05 -1.3957e-06
1.56942e-05 -8.56005e-05 -1.18428e-06
-1.3957e-06 -1.18428e-06 -0.000142125
0.000780241 4.07539e-05 -2.63237e-07
4.07539e-05 0.00014343 -6.99993e-07
-2.63237e-07 -6.99993e-07 4.58167e-05
0.00224992 -3.83304e-05 -1.55283e-05
-3.83304e-05 0.000965844 -4.70287e-06
-1.55283e-05 -4.70287e-06 0.000981894
0.000572191 -1.36291e-05 -2.06582e-07
-1.36291e-05 -3.66558e-05 -6.77768e-08
-2.06582e-07 -6.77768e-08 -4.84661e-05
0.000257901 1.72338e-06 -8.15279e-07
1.72338e-06 -0.000196767 9.78395e-07
-8.15279e-07 9.78395e-07 -0.000249437
0.00215244 -2.32895e-05 -3.95314e-06
-2.32895e-05 0.000905526 9.61916e-08
-3.95314e-06 9.61916e-08 0.000923478
0.000574752 -8.59325e-06 -4.61785e-07
-8.59325e-06 -3.61988e-05 3.51166e-06
-4.61785e-07 3.51166e-06 -4.52996e-05
0.00208082 -8.53633e-06 6.62875e-06
-8.53633e-06 0.000861838 4.72636e-06
6.62875e-06 4.72636e-06 0.000880918
0.00158283 -4.42428e-05 -1.29561e-05
-4.42428e-05 -0.000212869 1.58908e-05
-1.29561e-05 1.58908e-05 -4.21194e-05
0.000876093 -2.64304e-05 6.47387e-06
-2.64304e-05 0.000424133 -2.29261e-06
6.47387e-06 -2.29261e-06 0.00032204
0.00144874 -0.000116591 0.000104694
-0.000116591 0.000388698 -2.82263e-05
0.000104694 -2.82263e-05 -0.0011116
0.000547208 1.92524e-05 6.38471e-07
1.92524e-05 -2.25778e-05 -6.23851e-07
6.38471e-07 -6.23851e-07 -0.000129681
0.000939743 5.19064e-05 -5.02201e-07
5.19064e-05 0.000204548 4.74628e-07
-5.02201e-07 4.74628e-07 8.59441e-05
0.000799887 9.37521e-05 -1.61377e-07
9.37521e-05 0.000151103 -3.35147e-08
-1.61377e-07 -3.35147e-08 3.25403e-05
0.000591016 4.34276e-05 2.12935e-07
4.34276e-05 7.05538e-06 1.87998e-07
2.12935e-07 1.87998e-07 -0.000102756
0.000711221 5.91709e-05 6.70534e-08
5.91709e-05 9.81423e-05 4.72832e-07
6.70534e-08 4.72832e-07 -2.79365e-05
0.000696484 5.46808e-05 1.18276e-06
5.46808e-05 8.07709e-05 -8.22081e-07
1.18276e-06 -8.22081e-07 -3.9486e-05
0.000655456 0.000145456 3.19363e-06
0.000145456 8.69172e-05 4.16412e-06
3.19363e-06 4.16412e-06 -5.82535e-05
-1.61735e-05 4.36657e-05 5.85509e-05
4.36657e-05 1.14169e-05 0.000153652
5.85509e-05 0.000153652 -0.00143403
0.00260862 -4.04438e-05 -9.29068e-06
-4.04438e-05 0.000468337 4.91734e-05
-9.29068e-06 4.91734e-05 -0.000325658
0.00296816 -0.000159726 3.11116e-05
-0.000159726 0.00213583 -6.37259e-05
3.11116e-05 -6.37259e-05 0.000977093
0.00404385 -0.000113963 -9.06799e-06
-0.000113963 -0.00410838 5.29453e-05
-9.06799e-06 5.29453e-05 -0.00129195
0.00305661 -0.00114421 -8.92416e-05
-0.00114421 0.000995721 6.30126e-05
-8.92416e-05 6.30126e-05 0.000114374
-0.0018407 -0.00134166 -2.23509e-05
-0.00134166 -0.000253999 7.89073e-05
-2.23509e-05 7.89073e-05 -0.00412766
0.0085559 0.00173768 7.62413e-05
0.00173768 0.00459754 -5.25198e-05
7.62413e-05 -5.25198e-05 0.00263749
0.00338112 -0.00102882 -2.65862e-05
-0.00102882 0.000902372 4.82055e-06
-2.65862e-05 4.82055e-06 0.000372073
-0.000293712 -0.000497343 3.28922e-05
-0.000497343 0.00154444 2.47637e-05
3.28922e-05 2.47637e-05 -0.00291593
0.00454325 0.000140143 1.08698e-05
0.000140143 0.00248868 -9.79987e-06
1.08698e-05 -9.79987e-06 0.00118959
0.00887987 -0.00119659 -3.16183e-05
-0.00119659 0.00113887 -3.88364e-05
-3.16183e-05 -3.88364e-05 0.00230194
-0.0015796 1.79178e-05 -0.000167356
1.79178e-05 -0.00149366 7.56582e-05
-0.000167356 7.56582e-05 -0.00134452
0.000813182 0.00123209 -4.90365e-05
0.00123209 0.00191076 -8.44622e-05
-4.90365e-05 -8.44622e-05 -0.00257875
-0.00676559 -0.00188694 4.7323e-05
-0.00188694 -0.00377078 -0.00012711
4.7323e-05 -0.00012711 -0.00584092
0.00532933 -0.00113333 3.6843e-05
-0.00113333 -0.000592009 -0.000247214
3.6843e-05 -0.000247214 0.000571077
0.000876508 2.17215e-05 3.07988e-06
2.17215e-05 0.000210168 -3.32114e-07
3.07988e-06 -3.32114e-07 9.00228e-05
0.000640289 6.00491e-05 2.77191e-07
6.00491e-05 6.7436e-05 -1.07817e-06
2.77191e-07 -1.07817e-06 -7.17398e-05
0.000900056 -7.89953e-06 7.17158e-07
-7.89953e-06 0.00025776 -2.63234e-06
7.17158e-07 -2.63234e-06 8.83319e-05
0.000780198 5.11616e-05 -1.05013e-06
5.11616e-05 0.000145948 -4.25662e-06
-1.05013e-06 -4.25662e-06 6.5431e-06
0.000167848 -0.000404253 -5.61687e-06
-0.000404253 -0.000584055 2.93513e-05
-5.61687e-06 2.93513e-05 -0.000660835
0.00212383 -6.49328e-05 -2.13001e-05
-6.49328e-05 0.00125216 -2.55085e-05
-2.13001e-05 -2.55085e-05 0.00111806
0.000697415 3.4978e-05 -2.47992e-06
3.4978e-05 8.59308e-05 -3.2274e-06
-2.47992e-06 -3.2274e-06 -3.61134e-05
0.000692501 0.000143227 -1.41329e-06
0.000143227 0.000182349 5.00281e-06
-1.41329e-06 5.00281e-06 1.53693e-05
0.00279733 -5.00094e-05 1.47944e-05
-5.00094e-05 0.00152122 -2.16069e-05
1.47944e-05 -2.16069e-05 0.00130217
0.00088431 6.40522e-05 1.27053e-06
6.40522e-05 0.000222292 3.38357e-06
1.27053e-06 3.38357e-06 0.000100951
0.000639076 0.00010605 -2.40466e-06
0.00010605 0.000320036 -1.58292e-06
-2.40466e-06 -1.58292e-06 7.45602e-05
0.000168364 1.9009e-05 4.89189e-05
1.9009e-05 0.000291633 -1.58891e-05
4.89189e-05 -1.58891e-05 -0.000247563
0.000224518 1.66728e-05 2.45197e-05
1.66728e-05 0.000207441 -7.82622e-07
2.45197e-05 -7.82622e-07 8.56824e-05
0.000624235 0.000133678 -3.96489e-07
0.000133678 0.000255835 -7.56253e-06
-3.96489e-07 -7.56253e-06 8.46932e-05
-0.000132774 -8.55716e-05 -3.12649e-05
-8.55716e-05 0.00056009 -4.48172e-05
-3.12649e-05 -4.48172e-05 -0.000634117
0.00391988 0.000142883 2.39257e-05
0.000142883 0.00214987 2.24666e-05
2.39257e-05 2.24666e-05 0.00193841
0.000558115 -2.19451e-06 -4.21748e-07
-2.19451e-06 0.000703376 1.14099e-05
-4.21748e-07 1.14099e-05 7.02053e-05
0.00132567 -3.22288e-05 -1.55313e-07
-3.22288e-05 0.000108621 6.74166e-07
-1.55313e-07 6.74166e-07 -0.000135895
0.000178497 -1.70603e-05 9.50132e-07
-1.70603e-05 0.000318302 -1.64414e-05
9.50132e-07 -1.64414e-05 -0.000108181
-0.000197338 9.62196e-05 -9.22828e-07
9.62196e-05 4.98457e-05 6.61132e-06
-9.22828e-07 6.61132e-06 -0.000135496
-0.000938502 0.000301237 5.899e-05
0.000301237 -0.000803323 4.76179e-05
5.899e-05 4.76179e-05 -0.00104476
0.00133163 -2.82315e-05 1.74242e-05
-2.82315e-05 -0.000382799 -6.23944e-06
1.74242e-05 -6.23944e-06 -0.000137996
0.00343485 -0.00104328 0.000118135
-0.00104328 0.00366587 -0.000124089
0.000118135 -0.000124089 -0.00161361
0.00872514 0.00178621 -7.20339e-05
0.00178621 0.00412279 4.97718e-05
-7.20339e-05 4.97718e-05 0.00242335
0.00301784 -9.70873e-05 -3.51423e-05
-9.70873e-05 0.0021142 6.55075e-05
-3.51423e-05 6.55075e-05 0.000957703
0.00565758 0.00160425 -3.48852e-05
0.00160425 0.000194598 -4.45284e-05
-3.48852e-05 -4.45284e-05 0.000238697
-0.000158656 0.000133016 -3.07607e-05
0.000133016 0.000393233 9.16525e-06
-3.07607e-05 9.16525e-06 -0.00013662
0.000961635 1.17659e-05 -7.7702e-06
1.17659e-05 0.000424949 2.40522e-06
-7.7702e-06 2.40522e-06 0.000343861
0.0036228 -0.00039523 9.22252e-05
-0.00039523 0.00112896 -9.26496e-06
9.22252e-05 -9.26496e-06 -0.00153367
4.11166e-06 -0.000189181 6.47537e-06
-0.000189181 -0.000510265 2.45834e-05
6.47537e-06 2.45834e-05 -0.00053524
-0.000954907 0.00217913 0.000135745
0.00217913 0.000350778 -6.22589e-05
0.000135745 -6.22589e-05 0.00144959
0.00689796 0.00105171 -6.25125e-05
0.00105171 0.000439783 0.000123072
-6.25125e-05 0.000123072 0.000172678
-0.00286485 -0.000786569 7.33366e-05
-0.000786569 0.000478918 -7.1607e-05
7.33366e-05 -7.1607e-05 -0.00458713
0.000471842 -0.000128968 3.90199e-05
-0.000128968 0.000394312 -7.59066e-06
3.90199e-05 -7.59066e-06 4.48288e-05
0.00061102 -0.000159402 8.36688e-05
-0.000159402 -0.00018604 -2.97553e-05
8.36688e-05 -2.97553e-05 -0.00167781
-0.00186128 0.000105399 -0.000254227
0.000105399 0.00193587 2.4538e-06
-0.000254227 2.4538e-06 0.000385857
0.00354189 0.00201481 -0.000186714
0.00201481 0.000337886 0.000267859
-0.000186714 0.000267859 0.000610084
0.00808303 -0.000830084 7.27258e-07
-0.000830084 0.00363781 -2.85432e-06
7.27258e-07 -2.85432e-06 0.000347214
0.00318312 -0.000509945 -5.99138e-05
-0.000509945 0.00104936 4.90924e-05
-5.99138e-05 4.90924e-05 0.000719677
-0.000815975 4.6574e-05 2.8524e-05
4.6574e-05 -0.000332503 1.01199e-05
2.8524e-05 1.01199e-05 -0.000507363
0.000115653 -0.000188396 -3.97248e-06
-0.000188396 0.000241074 6.47777e-07
-3.97248e-06 6.47777e-07 -5.40835e-05
-0.000441564 -0.000206319 1.07066e-05
-0.000206319 -0.000339992 -4.71761e-06
1.07066e-05 -4.71761e-06 -0.000517924
-0.00052254 -0.00016205 -6.07685e-06
-0.00016205 -0.000265064 6.75916e-06
-6.07685e-06 6.75916e-06 -0.000428883
-0.000676775 -0.000163318 -3.93287e-07
-0.000163318 -0.000442499 -4.27697e-06
-3.93287e-07 -4.27697e-06 -0.000724173
0.00339641 -0.000589339 2.93364e-05
-0.000589339 0.00137536 -2.59597e-06
2.93364e-05 -2.59597e-06 0.00107435
0.00421882 -0.000586285 -8.70342e-06
-0.000586285 0.00201117 3.1555e-06
-8.70342e-06 3.1555e-06 0.0017478
0.00223728 -0.00041643 5.64405e-06
-0.00041643 0.000922873 5.36465e-07
5.64405e-06 5.36465e-07 0.000543103
0.00122553 -0.000389359 7.94733e-06
-0.000389359 0.000210886 -5.39047e-06
7.94733e-06 -5.39047e-06 -0.000189546
0.00178233 -0.000347423 -7.891e-06
-0.000347423 0.000522137 1.76476e-06
-7.891e-06 1.76476e-06 0.000246087
0.002197 -0.000458764 1.04677e-06
-0.000458764 0.00068148 4.44007e-07
1.04677e-06 4.44007e-07 0.000324636
0.00191728 -0.000455279 8.2045e-07
-0.000455279 0.000478462 -5.49309e-06
8.2045e-07 -5.49309e-06 0.000123781
0.00193538 -0.000427293 -1.0546e-06
-0.000427293 0.00037987 -2.50904e-06
-1.0546e-06 -2.50904e-06 0.000122593
0.00178729 -0.000424839 -1.24654e-06
-0.000424839 0.000355515 3.05188e-06
-1.24654e-06 3.05188e-06 8.21339e-05
0.00168188 -0.000424925 -8.58172e-07
-0.000424925 0.000312349 -2.366e-07
-8.58172e-07 -2.366e-07 1.48856e-05
0.000664572 -0.000227671 5.75838e-06
-0.000227671 -0.000121476 1.59224e-06
5.75838e-06 1.59224e-06 -0.000330091
0.00117135 -0.000283685 1.8855e-06
-0.000283685 0.000159219 1.37207e-07
1.8855e-06 1.37207e-07 -6.98953e-05
0.00119565 -0.000314134 4.49222e-07
-0.000314134 0.000141183 -2.88941e-06
4.49222e-07 -2.88941e-06 -0.000127634
0.00125735 -0.000241019 3.39619e-06
-0.000241019 0.000362599 1.64749e-06
3.39619e-06 1.64749e-06 0.000147548
0.00126436 -0.000253568 -1.98401e-06
-0.000253568 0.000331171 -1.50716e-06
-1.98401e-06 -1.50716e-06 0.000120176
0.000707127 -0.000207754 4.80329e-06
-0.000207754 -1.60833e-05 -5.07043e-06
4.80329e-06 -5.07043e-06 -0.000213411
0.000502497 -6.28673e-05 2.50682e-06
-6.28673e-05 -9.86778e-06 1.48116e-06
2.50682e-06 1.48116e-06 -0.000169066
0.000500346 -0.000100705 -6.48947e-07
-0.000100705 -7.81944e-06 1.05365e-06
-6.48947e-07 1.05365e-06 -0.000186203
0.00137186 -0.000241644 2.6883e-06
-0.000241644 0.000487252 -4.13351e-06
2.6883e-06 -4.13351e-06 0.000277867
0.000504422 2.88669e-05 1.24264e-08
2.88669e-05 -3.6933e-05 3.04441e-06
1.24264e-08 3.04441e-06 -0.00011644
0.000727094 -2.60181e-05 -4.71281e-07
-2.60181e-05 0.000118777 -5.73213e-07
-4.71281e-07 -5.73213e-07 -8.00441e-06
0.00123606 -0.000135192 6.04043e-07
-0.000135192 0.000437148 -3.71121e-07
6.04043e-07 -3.71121e-07 0.000277582
0.00050807 6.16932e-05 -6.8346e-07
6.16932e-05 -4.147e-05 6.64481e-06
-6.8346e-07 6.64481e-06 -6.93403e-05
0.000639904 1.68062e-05 -2.66492e-07
1.68062e-05 3.19881e-05 -2.77717e-07
-2.66492e-07 -2.77717e-07 -3.37443e-05
0.000851948 -3.96574e-05 -1.9688e-07
-3.96574e-05 0.000180154 -1.55803e-06
-1.9688e-07 -1.55803e-06 7.69763e-05
0.000663627 5.55392e-06 1.44347e-06
5.55392e-06 4.14063e-05 -2.26248e-06
1.44347e-06 -2.26248e-06 -1.7009e-05
0.000548869 5.51189e-05 -5.93483e-08
5.51189e-05 -2.70633e-05 -2.30826e-08
-5.93483e-08 -2.30826e-08 -5.10391e-05
0.00235313 9.63525e-05 -2.65682e-05
9.63525e-05 0.00105516 3.47822e-06
-2.65682e-05 3.47822e-06 0.00106053
0.000567678 4.63255e-05 1.93294e-07
4.63255e-05 -2.6294e-05 -4.32026e-06
1.93294e-07 -4.32026e-06 -4.62538e-05
0.00232563 8.39602e-05 2.61571e-06
8.39602e-05 0.00103116 2.32574e-07
2.61571e-06 2.32574e-07 0.00103943
0.00231188 7.14527e-05 1.98169e-05
7.14527e-05 0.00101629 -4.04492e-06
1.98169e-05 -4.04492e-06 0.00102698
0.000719645 5.56956e-05 -7.87966e-08
5.56956e-05 0.000105178 -6.35171e-07
-7.87966e-08 -6.35171e-07 -2.07678e-05
0.000773027 8.40567e-05 3.73997e-07
8.40567e-05 0.000142039 -1.37943e-06
3.73997e-07 -1.37943e-06 2.44082e-05
0.000645014 1.50453e-05 -2.95593e-07
1.50453e-05 2.79105e-05 -2.6873e-06
-2.95593e-07 -2.6873e-06 -3.80455e-05
0.000711613 7.64176e-05 -9.17382e-08
7.64176e-05 9.45261e-05 2.94574e-09
-9.17382e-08 2.94574e-09 -9.31814e-06
0.000559216 -2.36569e-05 -2.97852e-09
-2.36569e-05 -3.82193e-05 -4.87469e-06
-2.97852e-09 -4.87469e-06 -5.75139e-05
0.000631121 2.35857e-05 -4.49656e-08
2.35857e-05 2.06006e-05 -9.27207e-08
-4.49656e-08 -9.27207e-08 -3.97502e-05
0.000642362 4.11115e-05 -1.9199e-06
4.11115e-05 5.0251e-05 2.98389e-07
-1.9199e-06 2.98389e-07 -4.59634e-05
0.00234697 -5.24085e-05 -2.03513e-05
-5.24085e-05 0.00102658 -4.63342e-06
-2.03513e-05 -4.63342e-06 0.00104046
0.00056985 -1.96289e-05 -2.79061e-07
-1.96289e-05 -3.55258e-05 -6.47944e-08
-2.79061e-07 -6.47944e-08 -5.08214e-05
0.000568679 2.66493e-05 -1.20006e-06
2.66493e-05 -1.43245e-05 8.52862e-07
-1.20006e-06 8.52862e-07 -6.96529e-05
0.00222282 -3.68717e-05 -3.98928e-06
-3.68717e-05 0.00094931 1.48786e-07
-3.98928e-06 1.48786e-07 0.000965725
0.000572981 -1.34784e-05 -5.13516e-07
-1.34784e-05 -3.64495e-05 3.71375e-06
-5.13516e-07 3.71375e-06 -4.80457e-05
0.00212704 -2.19168e-05 1.07309e-05
-2.19168e-05 0.000890084 4.68455e-06
1.07309e-05 4.68455e-06 0.000908312
0.000627189 -8.21347e-05 3.96909e-06
-8.21347e-05 4.45468e-05 8.28374e-06
3.96909e-06 8.28374e-06 7.93384e-05
0.00149023 -7.93694e-05 -1.49814e-05
-7.93694e-05 -0.000313066 2.40275e-05
-1.49814e-05 2.40275e-05 -9.73852e-05
0.000927935 -4.6416e-05 6.76154e-06
-4.6416e-05 0.000380933 -1.20906e-05
6.76154e-06 -1.20906e-05 0.00032288
0.000724991 5.59513e-05 -2.08507e-07
5.59513e-05 9.98795e-05 6.7279e-08
-2.08507e-07 6.7279e-08 -2.06311e-05
0.000718004 3.81809e-05 9.77273e-07
3.81809e-05 7.58826e-05 -1.66403e-07
9.77273e-07 -1.66403e-07 -3.98153e-05
0.000230989 2.91115e-05 -2.84625e-06
2.91115e-05 -0.000209547 -4.01259e-06
-2.84625e-06 -4.01259e-06 -0.00031989
0.000420185 8.50932e-06 2.28275e-07
8.50932e-06 -8.71844e-05 -1.88527e-07
2.28275e-07 -1.88527e-07 -0.000203136
0.00130185 0.000142981 -5.05242e-07
0.000142981 0.000447545 -1.13988e-06
-5.05242e-07 -1.13988e-06 0.000305888
0.000646579 2.5388e-05 -1.30419e-06
2.5388e-05 3.34181e-05 6.63531e-07
-1.30419e-06 6.63531e-07 -7.25423e-05
0.000663434 4.82229e-05 -1.73177e-06
4.82229e-05 6.15309e-05 -2.74912e-06
-1.73177e-06 -2.74912e-06 -5.79209e-05
0.000775285 5.97561e-05 -9.60537e-08
5.97561e-05 0.0001276 -1.84914e-07
-9.60537e-08 -1.84914e-07 5.19424e-06
0.000959867 9.37577e-05 2.06037e-07
9.37577e-05 0.000246135 1.33014e-07
2.06037e-07 1.33014e-07 0.000114034
0.00103719 6.79649e-05 1.88777e-06
6.79649e-05 0.000303074 -1.03339e-06
1.88777e-06 -1.03339e-06 0.000169027
0.00298648 0.000214454 0.00015739
0.000214454 0.00168494 0.000221488
0.00015739 0.000221488 -0.00103352
0.000485676 7.24503e-05 8.65853e-06
7.24503e-05 9.19932e-05 6.07915e-05
8.65853e-06 6.07915e-05 -0.00147416
0.00258497 -4.3471e-05 -1.10134e-05
-4.3471e-05 0.000727606 -3.56023e-06
-1.10134e-05 -3.56023e-06 0.000126107
0.00916757 -0.00104718 -9.20139e-05
-0.00104718 0.00128011 -0.000100266
-9.20139e-05 -0.000100266 0.00263377
-0.0104568 0.000819327 -2.70933e-05
0.000819327 -0.00348357 0.000233424
-2.70933e-05 0.000233424 -0.00585673
0.00547189 -0.00112365 -0.000123976
-0.00112365 0.00209996 5.00867e-05
-0.000123976 5.00867e-05 0.00158672
0.0106278 -0.000920933 -4.98798e-05
-0.000920933 0.00466343 -6.45986e-06
-4.98798e-05 -6.45986e-06 0.00114001
0.00223782 -0.000176862 -1.26479e-05
-0.000176862 0.000505336 5.76313e-05
-1.26479e-05 5.76313e-05 0.000215128
0.0114486 -0.000114805 1.58269e-07
-0.000114805 0.00574133 -1.37855e-05
1.58269e-07 -1.37855e-05 0.00145896
0.00223761 -0.00116554 5.03546e-05
-0.00116554 0.000491015 6.52455e-05
5.03546e-05 6.52455e-05 -0.00108035
0.00447989 -0.00136667 -0.000132807
-0.00136667 -0.00133253 -0.000298978
-0.000132807 -0.000298978 -0.000252649
0.00339428 5.3371e-05 -0.000125643
5.3371e-05 0.000889884 4.28395e-05
-0.000125643 4.28395e-05 0.000348849
0.0097024 0.000946507 -3.47461e-05
0.000946507 0.00450468 1.8982e-05
-3.47461e-05 1.8982e-05 0.00105337
0.0109371 -0.00204186 -6.09548e-05
-0.00204186 0.00364526 -0.000252748
-6.09548e-05 -0.000252748 0.00335772
0.00752049 -0.00222229 6.92223e-05
-0.00222229 0.00158573 3.29837e-06
6.92223e-05 3.29837e-06 0.00287896
0.000112023 6.69062e-05 2.29321e-06
6.69062e-05 -0.000163477 -4.58469e-06
2.29321e-06 -4.58469e-06 -0.000290336
0.000959161 2.06804e-05 9.39676e-07
2.06804e-05 0.000272267 2.88496e-06
9.39676e-07 2.88496e-06 0.000133263
0.000711543 6.81057e-05 -1.47304e-06
6.81057e-05 0.00011129 -5.7546e-06
-1.47304e-06 -5.7546e-06 -3.12099e-05
0.00168917 -9.76017e-05 -4.03557e-05
-9.76017e-05 0.00103346 2.32556e-05
-4.03557e-05 2.32556e-05 0.00034723
0.00105126 -3.98386e-05 -7.11142e-05
-3.98386e-05 0.000691763 -2.4601e-05
-7.11142e-05 -2.4601e-05 0.000587536
0.000763986 9.58217e-06 -2.71705e-06
9.58217e-06 0.000154165 5.85965e-06
-2.71705e-06 5.85965e-06 3.1757e-05
-0.0011308 0.000101235 -6.32856e-06
0.000101235 -0.000643031 -3.67972e-06
-6.32856e-06 -3.67972e-06 -0.000924177
0.000518009 7.59786e-05 2.35155e-07
7.59786e-05 0.000193523 -2.86659e-06
2.35155e-07 -2.86659e-06 1.24405e-05
0.000628873 0.000120652 -2.44161e-06
0.000120652 0.000388209 3.12754e-06
-2.44161e-06 3.12754e-06 0.000137316
-0.000341368 -7.0037e-05 0.000127798
-7.0037e-05 0.000676509 -4.16147e-05
0.000127798 -4.16147e-05 -0.000509749
-0.00232502 2.34105e-06 -2.29413e-05
2.34105e-06 -0.00125804 1.31688e-05
-2.29413e-05 1.31688e-05 -0.00145606
0.00251961 0.000285002 -3.9053e-05
0.000285002 0.00153716 -4.16525e-05
-3.9053e-05 -4.16525e-05 0.000735956
0.00182871 1.86106e-05 8.05517e-05
1.86106e-05 0.00102443 1.2294e-05
8.05517e-05 1.2294e-05 -0.00075817
0.00035029 -4.52706e-06 1.64193e-05
-4.52706e-06 0.000518663 1.26133e-05
1.64193e-05 1.26133e-05 -2.53044e-05
0.00177659 -6.37529e-05 4.46806e-07
-6.37529e-05 0.0003165 -5.62694e-07
4.46806e-07 -5.62694e-07 0.000332586
-0.00196659 0.00022762 8.21106e-05
0.00022762 -0.000557315 8.59741e-06
8.21106e-05 8.59741e-06 -0.0012033
0.00336094 0.000126481 -2.80656e-05
0.000126481 0.00145063 6.42541e-06
-2.80656e-05 6.42541e-06 0.000820128
0.000969557 -1.99612e-05 -5.02702e-06
-1.99612e-05 0.000382369 1.06155e-05
-5.02702e-06 1.06155e-05 0.000334312
0.0160292 -0.00149552 0.000122447
-0.00149552 0.00690115 -3.4122e-05
0.000122447 -3.4122e-05 0.00295279
0.0106668 0.00155868 -7.05278e-05
0.00155868 0.00359168 -4.67247e-05
-7.05278e-05 -4.67247e-05 0.00281944
0.00370209 -0.000440584 -7.35882e-05
-0.000440584 0.00124838 0.000121373
-7.35882e-05 0.000121373 -0.00167119
-0.00740122 0.00243412 0.000636323
0.00243412 -0.00339662 -0.000478406
0.000636323 -0.000478406 -0.0018293
0.000941288 -0.000162927 9.19478e-06
-0.000162927 0.000763557 -3.5532e-06
9.19478e-06 -3.5532e-06 0.000340482
0.000982093 -0.000126259 -2.38972e-06
-0.000126259 5.87353e-05 1.06311e-05
-2.38972e-06 1.06311e-05 -0.0014981
-0.00280815 0.000174586 -0.000359112
0.000174586 0.00193165 0.000154905
-0.000359112 0.000154905 0.000413996
0.00169932 -0.000333159 -2.46375e-05
-0.000333159 0.000353341 3.58261e-05
-2.46375e-05 3.58261e-05 4.19232e-05
0.0111491 0.00206653 8.75002e-05
0.00206653 0.00345767 7.49445e-05
8.75002e-05 7.49445e-05 0.0038086
0.00756016 -0.00141285 8.05546e-05
-0.00141285 0.00314756 -5.20522e-05
8.05546e-05 -5.20522e-05 0.000120305
0.000829801 -0.000288679 5.01495e-06
-0.000288679 0.000198805 2.34071e-05
5.01495e-06 2.34071e-05 0.000196157
-0.00404248 -0.000354803 3.59117e-05
-0.000354803 0.00153267 -2.04347e-05
3.59117e-05 -2.04347e-05 -0.000620946
0.00969505 0.00190657 -0.000384618
0.00190657 0.00451871 0.000181134
-0.000384618 0.000181134 0.00434335
0.00245954 -0.000831072 -0.000189243
-0.000831072 -0.000245393 0.000130601
-0.000189243 0.000130601 -0.0033598
0.00240427 -0.000882348 8.94151e-05
-0.000882348 0.000450911 -4.06162e-05
8.94151e-05 -4.06162e-05 0.000309592
-0.000134769 -0.000178374 -4.29373e-05
-0.000178374 7.77559e-05 1.27314e-05
-4.29373e-05 1.27314e-05 -0.000190713
0.000580629 -0.000263631 -4.6433e-07
-0.000263631 0.000250703 4.88522e-06
-4.6433e-07 4.88522e-06 1.57611e-05
0.00379263 -0.00058756 3.21796e-05
-0.00058756 0.00152128 2.73117e-06
3.21796e-05 2.73117e-06 0.00138876
-0.00259405 -4.47318e-05 -2.33789e-06
-4.47318e-05 -0.00144522 9.41363e-06
-2.33789e-06 9.41363e-06 -0.00172223
0.000695358 -0.000329923 2.75047e-06
-0.000329923 -1.0256e-05 1.63144e-06
2.75047e-06 1.63144e-06 -0.000314649
0.00241823 -0.000565909 4.8322e-06
-0.000565909 0.000601047 3.37634e-07
4.8322e-06 3.37634e-07 0.000339621
0.00290057 -0.000474423 -1.22487e-05
-0.000474423 0.00121906 3.66391e-06
-1.22487e-05 3.66391e-06 0.000866952
0.00131652 -0.000390417 -2.28418e-06
-0.000390417 0.000231742 -3.74904e-06
-2.28418e-06 -3.74904e-06 -0.000144182
0.00198581 -0.000520274 4.383e-06
-0.000520274 0.000361433 -5.13063e-06
4.383e-06 -5.13063e-06 7.15453e-05
0.00257798 -0.000501702 -3.93031e-06
-0.000501702 0.000858674 -1.8909e-06
-3.93031e-06 -1.8909e-06 0.000495004
0.00158815 -0.000429239 4.83636e-08
-0.000429239 0.000269898 -3.1493e-06
4.83636e-08 -3.1493e-06 -7.06048e-05
0.00200927 -0.000442663 -2.11744e-07
-0.000442663 0.000361825 -6.42395e-06
-2.11744e-07 -6.42395e-06 0.000112042
0.00168629 -0.000347203 -2.74281e-06
-0.000347203 0.000135231 -3.099e-06
-2.74281e-06 -3.099e-06 -6.41475e-05
0.00161781 -0.000410034 2.28671e-06
-0.000410034 0.000187168 -7.25405e-07
2.28671e-06 -7.25405e-07 -6.77362e-05
0.00175919 -0.000412431 1.9221e-06
-0.000412431 0.000282427 -2.2375e-06
1.9221e-06 -2.2375e-06 2.88886e-05
0.0017071 -0.000360393 -6.89065e-07
-0.000360393 0.000365912 2.64393e-06
-6.89065e-07 2.64393e-06 0.000118948
0.00175949 -0.000423017 -1.83431e-06
-0.000423017 0.000357951 1.28682e-07
-1.83431e-06 1.28682e-07 8.03847e-05
0.00168042 -0.000429487 1.40641e-06
-0.000429487 0.000313629 -3.64745e-06
1.40641e-06 -3.64745e-06 1.08252e-05
0.00130884 -0.000265697 3.71092e-06
-0.000265697 0.000300296 9.07313e-07
3.71092e-06 9.07313e-07 8.37835e-05
0.00082484 -0.000238708 4.84139e-07
-0.000238708 -2.41099e-05 -5.72675e-07
4.84139e-07 -5.72675e-07 -0.00023074
0.0013945 -0.000298413 4.62108e-06
-0.000298413 0.000283398 -3.98765e-06
4.62108e-06 -3.98765e-06 5.98673e-05
0.000635545 -0.000162722 -1.43667e-07
-0.000162722 2.63972e-05 -4.64885e-07
-1.43667e-07 -4.64885e-07 -0.000158089
0.000907091 -0.000203398 7.71298e-08
-0.000203398 0.000160147 -5.0012e-07
7.71298e-08 -5.0012e-07 -4.72467e-05
0.000866575 -0.000214159 -3.11785e-06
-0.000214159 9.47391e-05 -1.30235e-06
-3.11785e-06 -1.30235e-06 -0.000110173
0.000443412 2.85624e-05 9.41316e-07
2.85624e-05 -6.48691e-05 4.66811e-06
9.41316e-07 4.66811e-06 -0.000169475
0.000780304 -8.78519e-05 1.20575e-06
-8.78519e-05 0.000159257 7.46842e-07
1.20575e-06 7.46842e-07 -9.00573e-06
0.00104977 -0.000146579 -2.49131e-06
-0.000146579 0.000326435 7.74196e-07
-2.49131e-06 7.74196e-07 0.000140697
0.0013922 9.50977e-05 -1.50751e-05
9.50977e-05 0.000497673 4.48643e-06
-1.50751e-05 4.48643e-06 0.000465336
0.000660919 5.34354e-06 -4.06799e-07
5.34354e-06 5.1091e-05 -6.47029e-07
-4.06799e-07 -6.47029e-07 -2.90207e-05
0.000943778 -6.50492e-05 -2.15429e-06
-6.50492e-05 0.000250916 -1.73736e-06
-2.15429e-06 -1.73736e-06 0.000115551
0.000750933 4.93595e-05 -2.79261e-05
4.93595e-05 0.000108069 3.56753e-06
-2.79261e-05 3.56753e-06 0.000106593
0.000978561 7.55225e-05 -8.28578e-06
7.55225e-05 0.00023996 1.05533e-08
-8.28578e-06 1.05533e-08 0.00021262
0.000681226 1.19946e-05 8.92628e-07
1.19946e-05 5.4165e-05 -2.84405e-06
8.92628e-07 -2.84405e-06 -1.14358e-05
0.000559576 5.98763e-05 -8.40632e-07
5.98763e-05 -1.85827e-05 -4.9435e-06
-8.40632e-07 -4.9435e-06 -4.37737e-05
0.00239272 9.85327e-05 3.48612e-06
9.85327e-05 0.00107949 3.15615e-07
3.48612e-06 3.15615e-07 0.00108441
0.00234218 8.604e-05 2.26373e-05
8.604e-05 0.001042 -3.77428e-06
2.26373e-05 -3.77428e-06 0.00104982
0.000700428 5.35087e-05 4.44447e-07
5.35087e-05 7.94995e-05 2.36253e-07
4.44447e-07 2.36253e-07 -3.86078e-05
0.000787852 7.10155e-05 2.09837e-07
7.10155e-05 0.00014707 -1.78402e-06
2.09837e-07 -1.78402e-06 2.70674e-05
0.0006387 4.25799e-05 -1.75862e-07
4.25799e-05 4.37626e-05 2.13862e-07
-1.75862e-07 2.13862e-07 -7.18156e-05
0.000649354 4.22783e-06 -5.27954e-07
4.22783e-06 3.1129e-05 -2.86818e-06
-5.27954e-07 -2.86818e-06 -3.99351e-05
0.000728696 5.90346e-05 6.13856e-07
5.90346e-05 0.000103258 3.34831e-08
6.13856e-07 3.34831e-08 -4.43552e-06
0.000556418 -2.57386e-05 -6.63462e-07
-2.57386e-05 -3.49591e-05 -5.37102e-06
-6.63462e-07 -5.37102e-06 -5.83958e-05
0.000627255 1.84384e-05 -4.82397e-08
1.84384e-05 1.87398e-05 -9.8586e-08
-4.82397e-08 -9.8586e-08 -4.76786e-05
0.000741824 6.61123e-05 -4.45208e-07
6.61123e-05 0.000128017 1.708e-06
-4.45208e-07 1.708e-06 1.28101e-05
0.00248116 -6.70459e-05 -2.65752e-05
-6.70459e-05 0.00111063 -4.48257e-06
-2.65752e-05 -4.48257e-06 0.00112185
0.000552377 -2.51601e-05 -3.97776e-07
-2.51601e-05 -4.22364e-05 -4.34402e-08
-3.97776e-07 -4.34402e-08 -6.14623e-05
0.000616307 2.55408e-05 3.52359e-07
2.55408e-05 1.26299e-05 2.47211e-06
3.52359e-07 2.47211e-06 -4.77088e-05
0.00235039 -5.15602e-05 -4.13544e-06
-5.15602e-05 0.00102826 2.14311e-07
-4.13544e-06 2.14311e-07 0.00104234
0.000557518 -1.98707e-05 -6.82733e-07
-1.98707e-05 -4.26239e-05 4.14195e-06
-6.82733e-07 4.14195e-06 -5.77911e-05
0.00222472 -3.56017e-05 1.54429e-05
-3.56017e-05 0.000950003 4.62825e-06
1.54429e-05 4.62825e-06 0.000966625
0.004229 5.38981e-05 9.3969e-05
5.38981e-05 0.00167571 2.55773e-05
9.3969e-05 2.55773e-05 0.000593284
0.000575935 -7.71716e-05 -1.24919e-06
-7.71716e-05 6.87533e-05 1.16627e-06
-1.24919e-06 1.16627e-06 9.42556e-05
0.00136251 -7.98052e-05 -1.57132e-05
-7.98052e-05 -0.000368846 4.71833e-06
-1.57132e-05 4.71833e-06 -0.000118542
0.00060573 0.00010388 -5.03114e-06
0.00010388 1.56642e-05 -1.35435e-06
-5.03114e-06 -1.35435e-06 -0.000107352
0.000823192 5.98382e-05 -5.05948e-07
5.98382e-05 0.00015344 5.53256e-07
-5.05948e-07 5.53256e-07 3.65936e-05
0.000532804 2.77531e-05 4.04063e-07
2.77531e-05 -3.21332e-05 -1.07355e-08
4.04063e-07 -1.07355e-08 -0.000144973
0.000795048 3.24077e-05 -9.31366e-08
3.24077e-05 0.000125356 -1.09944e-07
-9.31366e-08 -1.09944e-07 1.0199e-05
0.000790987 7.36744e-05 -5.73587e-07
7.36744e-05 0.000118723 8.25837e-09
-5.73587e-07 8.25837e-09 1.78009e-06
0.00102321 0.000117937 8.84085e-07
0.000117937 0.0002795 4.23976e-07
8.84085e-07 4.23976e-07 0.000146663
0.000875269 9.50964e-05 -1.05339e-06
9.50964e-05 0.000174367 -5.95982e-06
-1.05339e-06 -5.95982e-06 2.95922e-05
9.99619e-05 2.04419e-05 2.32507e-07
2.04419e-05 -0.000250257 -7.68498e-07
2.32507e-07 -7.68498e-07 -0.000377114
0.000809523 0.000112369 -1.50428e-06
0.000112369 0.000157629 6.44075e-07
-1.50428e-06 6.44075e-07 2.64397e-05
0.000493828 1.56058e-05 -1.79184e-06
1.56058e-05 -4.3315e-05 -3.03364e-06
-1.79184e-06 -3.03364e-06 -0.00015501
0.000618208 5.62981e-05 -2.35201e-07
5.62981e-05 5.66305e-05 7.36118e-07
-2.35201e-07 7.36118e-07 -7.26922e-05
0.00165491 0.000154919 7.74843e-06
0.000154919 0.000701867 5.67816e-06
7.74843e-06 5.67816e-06 0.000563289
0.00108291 -0.000812587 0.000108791
-0.000812587 0.00244005 0.000183841
0.000108791 0.000183841 0.000661239
0.00353405 0.000283544 2.25684e-05
0.000283544 0.00179656 7.47895e-05
2.25684e-05 7.47895e-05 -0.000992387
0.000786556 8.57288e-05 -2.21807e-05
8.57288e-05 0.000261363 -3.65998e-05
-2.21807e-05 -3.65998e-05 -0.00142518
0.00919987 -0.00177458 -0.000239429
-0.00177458 0.00118982 -0.000178797
-0.000239429 -0.000178797 0.00222635
0.00539468 -0.000618039 5.58901e-05
-0.000618039 0.0012348 0.000223027
5.58901e-05 0.000223027 1.06578e-05
0.000761843 -0.000764942 -9.43026e-05
-0.000764942 0.00179345 8.95322e-05
-9.43026e-05 8.95322e-05 -0.00276678
0.00119291 -0.000284492 -7.84478e-07
-0.000284492 0.000203765 7.10705e-05
-7.84478e-07 7.10705e-05 -0.000365798
0.00266118 -0.000133699 2.48912e-05
-0.000133699 0.00063482 5.13107e-05
2.48912e-05 5.13107e-05 0.000269654
0.000359745 -0.00227804 0.000108312
-0.00227804 -0.000831817 0.000123163
0.000108312 0.000123163 0.000630803
0.00493498 0.000851486 -4.68771e-06
0.000851486 0.00353688 -2.10306e-05
-4.68771e-06 -2.10306e-05 -0.00069708
0.00271682 -0.00118292 -3.7317e-05
-0.00118292 -0.0009304 4.73662e-05
-3.7317e-05 4.73662e-05 -0.00127087
0.000930609 0.000336965 -2.47384e-06
0.000336965 -7.53686e-05 4.47839e-05
-2.47384e-06 4.47839e-05 -0.000169671
0.0082326 0.000858609 -3.79361e-05
0.000858609 0.0039157 -1.18099e-05
-3.79361e-05 -1.18099e-05 0.000818342
0.00308496 -0.00194386 -0.000193083
-0.00194386 -0.000188969 -0.000184226
-0.000193083 -0.000184226 8.16563e-06
0.000929473 0.000310672 5.38822e-06
0.000310672 0.000225829 -1.29191e-05
5.38822e-06 -1.29191e-05 9.04643e-05
0.000651428 8.94896e-05 3.01579e-06
8.94896e-05 0.000139532 -5.64676e-07
3.01579e-06 -5.64676e-07 1.71382e-05
0.000519016 3.88809e-05 -2.33296e-06
3.88809e-05 2.47287e-05 -2.16966e-06
-2.33296e-06 -2.16966e-06 -0.000122698
-2.75512e-05 -6.24511e-05 -0.000162535
-6.24511e-05 0.000949191 -4.42916e-05
-0.000162535 -4.42916e-05 -0.000183592
-0.00220973 0.000131691 5.73306e-06
0.000131691 -0.00117071 -1.53679e-05
5.73306e-06 -1.53679e-05 -0.00144434
0.000132381 0.00010621 -2.39309e-06
0.00010621 -1.93001e-05 4.91684e-06
-2.39309e-06 4.91684e-06 -0.000217283
0.000553111 0.000291938 1.09771e-05
0.000291938 0.000238302 3.40979e-06
1.09771e-05 3.40979e-06 2.65865e-05
0.000747848 0.000246188 -2.71633e-06
0.000246188 0.00053287 -3.26438e-05
-2.71633e-06 -3.26438e-05 -0.000151506
-0.000128807 0.00046719 2.69477e-05
0.00046719 -0.000481615 6.32179e-06
2.69477e-05 6.32179e-06 -0.000802991
-0.000964397 0.000278047 0.000150476
0.000278047 0.00316194 7.78535e-06
0.000150476 7.78535e-06 0.000777851
0.00201629 -2.02211e-05 -5.80564e-06
-2.02211e-05 0.0011553 2.01698e-05
-5.80564e-06 2.01698e-05 -0.000262918
0.000128753 -1.77259e-05 1.74053e-06
-1.77259e-05 0.000329139 1.54939e-05
1.74053e-06 1.54939e-05 -0.000109274
0.000190881 -0.000116642 -4.37152e-05
-0.000116642 0.000470819 4.21341e-06
-4.37152e-05 4.21341e-06 3.45877e-05
0.000246877 -9.78675e-05 -5.06835e-05
-9.78675e-05 -0.000900098 1.41393e-05
-5.06835e-05 1.41393e-05 -0.0006669
0.00150228 -0.000104625 -8.94905e-05
-0.000104625 0.000263945 2.88535e-05
-8.94905e-05 2.88535e-05 -0.00120978
-0.0017645 -0.00132789 6.37043e-05
-0.00132789 -4.43598e-05 -9.20218e-05
6.37043e-05 -9.20218e-05 -0.00395802
-0.00159856 0.00163186 0.000165208
0.00163186 -0.00351511 -0.000160889
0.000165208 -0.000160889 -0.00299033
0.00240898 0.00076733 -0.000182449
0.00076733 0.00320928 0.000156841
-0.000182449 0.000156841 0.00217875
0.00175871 -0.000162262 -8.25661e-06
-0.000162262 0.000578407 -3.61753e-07
-8.25661e-06 -3.61753e-07 0.000683843
0.00156304 0.000178069 2.89883e-05
0.000178069 0.003436 7.35994e-06
2.89883e-05 7.35994e-06 0.00206102
-0.00356332 0.00116406 2.69622e-05
0.00116406 -0.000910528 1.28709e-05
2.69622e-05 1.28709e-05 -0.00226397
0.00358337 -0.00103903 3.57897e-05
-0.00103903 0.00125387 -1.00475e-05
3.57897e-05 -1.00475e-05 0.000620637
0.0109378 -0.000719887 1.50766e-05
-0.000719887 0.00360051 -1.07349e-05
1.50766e-05 -1.07349e-05 0.00169729
0.00307324 -0.000627526 -1.1235e-05
-0.000627526 0.000997883 2.426e-05
-1.1235e-05 2.426e-05 0.001044
-0.008095 0.000447685 -0.000203989
0.000447685 -0.00369117 5.79646e-06
-0.000203989 5.79646e-06 -0.00454879
0.0120745 -0.000392046 -8.64007e-05
-0.000392046 0.00325354 2.67899e-05
-8.64007e-05 2.67899e-05 0.00172431
0.00352886 -0.00117813 1.75132e-05
-0.00117813 -5.4504e-05 -1.96685e-05
1.75132e-05 -1.96685e-05 -0.000579707
0.00128015 -0.000277068 -1.65363e-05
-0.000277068 0.000667207 1.62159e-05
-1.65363e-05 1.62159e-05 0.000371225
0.00171491 -0.000447337 -4.1667e-06
-0.000447337 0.000323811 1.31957e-06
-4.1667e-06 1.31957e-06 0.000281731
0.00290118 -0.000508559 1.32435e-05
-0.000508559 0.000763794 -4.239e-06
1.32435e-05 -4.239e-06 0.00070686
-0.00187345 -8.28935e-05 -3.77853e-06
-8.28935e-05 -0.00132205 -1.40296e-07
-3.77853e-06 -1.40296e-07 -0.00163391
0.00139935 -0.0004663 -4.7738e-06
-0.0004663 0.000102321 -2.41645e-06
-4.7738e-06 -2.41645e-06 -0.000164634
0.00228468 -0.000563774 2.94427e-06
-0.000563774 0.000385958 -7.27764e-07
2.94427e-06 -7.27764e-07 0.000170552
0.00137715 -0.000390744 -1.31316e-05
-0.000390744 0.000242001 -2.36638e-06
-1.31316e-05 -2.36638e-06 -0.000112967
0.00156042 -0.000476123 6.7021e-08
-0.000476123 0.000146116 3.44466e-07
6.7021e-08 3.44466e-07 -0.000144842
0.00166693 -0.00042983 -2.16659e-07
-0.00042983 3.83111e-05 -5.20324e-06
-2.16659e-07 -5.20324e-06 -0.000157663
0.00128029 -0.000406129 -3.09961e-06
-0.000406129 7.50143e-05 -2.18871e-07
-3.09961e-06 -2.18871e-07 -0.000252409
0.00162117 -0.000407548 -3.76786e-07
-0.000407548 0.000146668 6.26853e-07
-3.76786e-07 6.26853e-07 -9.6682e-05
0.00175177 -0.000344622 -2.1361e-06
-0.000344622 0.000104431 -5.02151e-06
-2.1361e-06 -5.02151e-06 -5.69057e-05
0.00162232 -0.000274926 -4.0229e-06
-0.000274926 4.36174e-05 -3.10175e-06
-4.0229e-06 -3.10175e-06 -9.98956e-05
0.00155283 -0.00033455 -2.56395e-06
-0.00033455 8.09411e-05 -2.12569e-06
-2.56395e-06 -2.12569e-06 -0.000124124
0.00163109 -0.000335574 9.78665e-07
-0.000335574 0.000109278 1.40728e-06
9.78665e-07 1.40728e-06 -8.50854e-05
0.00149846 -0.000355987 -2.15085e-06
-0.000355987 0.000165656 -6.71406e-07
-2.15085e-06 -6.71406e-07 -7.46063e-05
0.00163153 -0.000406115 1.57514e-06
-0.000406115 0.000205264 -2.35442e-07
1.57514e-06 -2.35442e-07 -4.68684e-05
0.0016108 -0.000399493 1.57623e-06
-0.000399493 0.000200654 1.17587e-07
1.57623e-06 1.17587e-07 -4.92756e-05
0.00141065 -0.000291057 -9.92065e-07
-0.000291057 0.000254424 1.47603e-06
-9.92065e-07 1.47603e-06 3.53299e-05
0.0014325 -0.000338249 1.63e-06
-0.000338249 0.000211265 -7.99667e-07
1.63e-06 -7.99667e-07 -3.19725e-05
0.00162998 -0.000411555 -2.20563e-06
-0.000411555 0.000302097 -1.89059e-06
-2.20563e-06 -1.89059e-06 2.12957e-05
0.00096131 -0.000207723 -1.03917e-06
-0.000207723 0.000139678 2.71207e-06
-1.03917e-06 2.71207e-06 -5.38249e-05
0.00119458 -0.000253996 1.10009e-06
-0.000253996 0.000226258 3.8844e-07
1.10009e-06 3.8844e-07 1.29203e-05
0.000947436 -0.000245825 -9.22733e-07
-0.000245825 5.09779e-05 -4.29574e-06
-9.22733e-07 -4.29574e-06 -0.000153386
0.000707694 -7.54965e-05 -7.63622e-07
-7.54965e-05 7.81135e-05 5.34158e-06
-7.63622e-07 5.34158e-06 -5.80398e-05
0.000941847 -0.000169941 -1.56445e-07
-0.000169941 0.000204685 -1.18999e-07
-1.56445e-07 -1.18999e-07 1.76687e-05
0.00046151 -0.000158634 -4.05458e-06
-0.000158634 -9.88574e-05 -4.2332e-07
-4.05458e-06 -4.2332e-07 -0.000297293
0.000393271 4.79555e-05 6.01044e-07
4.79555e-05 -9.39413e-05 7.74929e-06
6.01044e-07 7.74929e-06 -0.000137482
0.000695996 -4.08043e-05 -5.05338e-07
-4.08043e-05 8.32806e-05 -4.78657e-07
-5.05338e-07 -4.78657e-07 -2.76645e-05
0.00113927 -0.000119896 9.11105e-07
-0.000119896 0.000374376 -1.30117e-06
9.11105e-07 -1.30117e-06 0.000197364
0.00257099 0.000138056 -6.96152e-06
0.000138056 0.00120241 1.75538e-06
-6.96152e-06 1.75538e-06 0.00119642
0.000531546 5.78995e-05 -3.77668e-07
5.78995e-05 -1.87178e-05 -2.52317e-07
-3.77668e-07 -2.52317e-07 -5.29373e-05
0.000763998 -1.62739e-05 1.95492e-06
-1.62739e-05 0.000109645 -4.16066e-06
1.95492e-06 -4.16066e-06 2.78415e-05
0.00247302 0.000111058 3.66265e-06
0.000111058 0.00113456 3.03752e-07
3.66265e-06 3.03752e-07 0.00113654
0.000562667 5.94984e-05 -3.58017e-07
5.94984e-05 -7.75123e-06 -5.40547e-06
-3.58017e-07 -5.40547e-06 -3.63921e-05
0.00244553 0.000100755 2.81586e-05
0.000100755 0.00111158 -3.28267e-06
2.81586e-05 -3.28267e-06 0.00111603
0.000893837 0.000117824 3.95638e-07
0.000117824 0.00018817 1.65718e-06
3.95638e-07 1.65718e-06 5.59533e-05
0.000780159 6.60701e-05 -1.99211e-08
6.60701e-05 0.000128993 -1.39334e-07
-1.99211e-08 -1.39334e-07 7.31001e-06
0.000805565 5.51624e-05 2.93681e-08
5.51624e-05 0.000163112 -2.41348e-06
2.93681e-08 -2.41348e-06 3.33931e-05
0.000655433 1.12441e-06 -8.89145e-07
1.12441e-06 3.83237e-05 -3.39313e-06
-8.89145e-07 -3.39313e-06 -3.82846e-05
0.000724401 4.13826e-05 3.44154e-07
4.13826e-05 0.000103346 2.09546e-07
3.44154e-07 2.09546e-07 -1.09632e-05
0.000587509 5.43833e-05 7.62143e-07
5.43833e-05 2.11447e-05 1.11545e-06
7.62143e-07 1.11545e-06 -9.93846e-05
0.000558871 -2.885e-05 -1.09581e-06
-2.885e-05 -2.87467e-05 -5.8601e-06
-1.09581e-06 -5.8601e-06 -5.63127e-05
0.000631743 1.02571e-05 -2.95566e-08
1.02571e-05 2.31891e-05 -7.39962e-08
-2.95566e-08 -7.39962e-08 -4.88027e-05
0.000709025 5.72515e-05 5.69652e-07
5.72515e-05 8.76317e-05 1.47102e-06
5.69652e-07 1.47102e-06 -1.61479e-05
0.0026122 -8.13312e-05 -3.41008e-05
-8.13312e-05 0.00119386 -4.22118e-06
-3.41008e-05 -4.22118e-06 0.00120225
0.000539303 -2.58871e-05 -4.23385e-07
-2.58871e-05 -4.53998e-05 -7.89678e-08
-4.23385e-07 -7.89678e-08 -6.85633e-05
0.000627045 2.10923e-05 4.61001e-07
2.10923e-05 1.95148e-05 2.80344e-06
4.61001e-07 2.80344e-06 -4.715e-05
0.00245502 -6.60093e-05 -4.61026e-06
-6.60093e-05 0.00109461 2.82827e-07
-4.61026e-06 2.82827e-07 0.00110613
0.000546833 -2.48668e-05 -6.73422e-07
-2.48668e-05 -4.55998e-05 4.71245e-06
-6.73422e-07 4.71245e-06 -6.46199e-05
0.00231011 -4.99344e-05 1.96854e-05
-4.99344e-05 0.00100389 4.5322e-06
1.96854e-05 4.5322e-06 0.0010184
-0.00561751 0.000215749 -6.83936e-06
0.000215749 0.00110785 4.36584e-05
-6.83936e-06 4.36584e-05 -0.0015212
0.00402341 -2.4501e-06 -1.8457e-06
-2.4501e-06 0.00179714 7.14552e-06
-1.8457e-06 7.14552e-06 0.000677532
0.000600674 -7.96059e-05 -8.1415e-06
-7.96059e-05 4.43305e-05 -4.39303e-06
-8.1415e-06 -4.39303e-06 5.98746e-05
0.000531044 7.13298e-05 -1.2129e-06
7.13298e-05 -3.28497e-05 1.0219e-06
-1.2129e-06 1.0219e-06 -0.00014914
0.00197908 0.000289675 -5.98392e-07
0.000289675 0.000832832 2.7265e-06
-5.98392e-07 2.7265e-06 0.000661728
0.000775041 7.39728e-05 -3.13608e-06
7.39728e-05 0.000108857 -7.16458e-07
-3.13608e-06 -7.16458e-07 -1.84135e-05
0.00104064 3.5529e-05 -5.544e-07
3.5529e-05 0.000264121 -6.94619e-07
-5.544e-07 -6.94619e-07 0.000151015
0.00129018 0.000123361 2.01923e-06
0.000123361 0.000408652 5.90608e-07
2.01923e-06 5.90608e-07 0.00028692
0.000547173 4.76352e-05 -1.88229e-06
4.76352e-05 -1.59278e-05 2.54514e-06
-1.88229e-06 2.54514e-06 -0.000127951
0.000593226 6.62381e-05 -1.16263e-06
6.62381e-05 4.57219e-05 1.17869e-06
-1.16263e-06 1.17869e-06 -9.27323e-05
0.000737337 7.47001e-05 -1.29543e-06
7.47001e-05 9.22063e-05 -1.25976e-06
-1.29543e-06 -1.25976e-06 -4.56371e-05
0.000902591 0.000139071 1.00151e-06
0.000139071 0.000223792 -4.04737e-06
1.00151e-06 -4.04737e-06 5.07281e-05
0.000387083 0.000194307 2.00996e-06
0.000194307 -0.000147831 -4.10622e-06
2.00996e-06 -4.10622e-06 -0.00025336
0.000993823 8.61133e-05 -1.98523e-06
8.61133e-05 0.00028396 -2.95826e-07
-1.98523e-06 -2.95826e-07 0.000144612
0.00109624 0.000137066 4.6329e-07
0.000137066 0.000379946 3.01403e-06
4.6329e-07 3.01403e-06 0.000239245
-0.00521612 -0.000876421 -0.00038375
-0.000876421 -0.00121557 -3.26389e-06
-0.00038375 -3.26389e-06 -0.00249738
-0.0029777 -0.000608435 0.000158686
-0.000608435 0.00138171 7.99944e-05
0.000158686 7.99944e-05 -0.000736655
0.00420686 0.000319508 -0.000140668
0.000319508 0.00190477 -7.38481e-05
-0.000140668 -7.38481e-05 -0.000960713
-0.00786411 -0.00233613 0.000526211
-0.00233613 -0.00325825 0.000419604
0.000526211 0.000419604 -0.00187467
0.0131267 -0.00142912 -5.9612e-05
-0.00142912 0.00402096 0.000128549
-5.9612e-05 0.000128549 0.00379766
-0.00128052 0.00101414 1.33273e-06
0.00101414 0.000248881 -7.00835e-05
1.33273e-06 -7.00835e-05 -0.00384403
0.00233965 -1.51093e-05 -0.000139439
-1.51093e-05 0.000851679 3.69465e-05
-0.000139439 3.69465e-05 -5.22365e-05
0.00247131 0.000392217 -3.04027e-06
0.000392217 0.000764124 2.28979e-05
-3.04027e-06 2.28979e-05 0.000495905
0.00936543 -0.00157629 -0.000167086
-0.00157629 0.00447016 5.37102e-05
-0.000167086 5.37102e-05 0.00430409
-9.51782e-05 0.00100665 -1.00746e-05
0.00100665 0.000483144 -2.66986e-05
-1.00746e-05 -2.66986e-05 -0.00277013
0.00162321 0.000727145 -4.44595e-05
0.000727145 0.000275246 -6.24642e-05
-4.44595e-05 -6.24642e-05 0.000112451
0.00438542 0.00150962 -0.000176384
0.00150962 0.000338829 -0.000100807
-0.000176384 -0.000100807 -0.00193789
0.0022289 0.000616674 1.67384e-05
0.000616674 0.000606398 -2.21952e-05
1.67384e-05 -2.21952e-05 0.000378829
0.000838227 0.000284496 -4.38886e-06
0.000284496 0.000172604 7.26354e-07
-4.38886e-06 7.26354e-07 4.5976e-05
0.00133065 0.00010169 -4.80251e-06
0.00010169 0.000520982 3.83785e-06
-4.80251e-06 3.83785e-06 0.000407834
-0.0010512 0.000185863 -4.45561e-05
0.000185863 -0.000445732 -4.55973e-05
-4.45561e-05 -4.55973e-05 -0.00103308
0.00281834 0.000432467 -1.88287e-05
0.000432467 0.0014177 -1.40955e-05
-1.88287e-05 -1.40955e-05 0.00120157
0.00119227 0.000584631 1.31539e-05
0.000584631 0.000135736 -3.95369e-06
1.31539e-05 -3.95369e-06 -0.000191017
0.00317766 0.000942604 9.81635e-05
0.000942604 0.000514513 3.14394e-05
9.81635e-05 3.14394e-05 0.000400474
-0.00462595 -7.6981e-05 -0.000283099
-7.6981e-05 -0.00360134 3.48525e-06
-0.000283099 3.48525e-06 -0.00250758
-0.00300272 0.000164184 0.000128658
0.000164184 0.00246614 2.23021e-06
0.000128658 2.23021e-06 -5.77175e-05
0.00203786 -4.99523e-05 -6.88789e-05
-4.99523e-05 0.00120533 2.77962e-05
-6.88789e-05 2.77962e-05 9.4281e-05
0.00363093 -0.00034084 -6.45875e-05
-0.00034084 0.00143237 -3.53297e-05
-6.45875e-05 -3.53297e-05 0.00150988
0.00153775 -0.000895156 -2.78467e-05
-0.000895156 7.30841e-06 1.20495e-05
-2.78467e-05 1.20495e-05 -0.000446891
0.00169227 0.000124043 -2.01584e-05
0.000124043 0.0034339 3.278e-05
-2.01584e-05 3.278e-05 0.00218442
0.00260759 -0.000848387 0.000158558
-0.000848387 0.000123197 -0.000124424
0.000158558 -0.000124424 -0.00231573
0.0105095 0.00113457 0.000119448
0.00113457 0.00499158 5.31023e-06
0.000119448 5.31023e-06 0.00421341
0.00269272 -0.000739702 -2.17638e-05
-0.000739702 0.000639333 7.48284e-06
-2.17638e-05 7.48284e-06 0.000540146
-0.000683664 0.000556502 7.32115e-05
0.000556502 -0.000494989 -1.88739e-05
7.32115e-05 -1.88739e-05 -0.00106768
0.00456034 -0.000369275 -5.11052e-05
-0.000369275 -0.000443373 5.53166e-05
-5.11052e-05 5.53166e-05 -0.00256579
0.00583225 -0.0012917 -3.32676e-05
-0.0012917 0.00122002 1.51395e-05
-3.32676e-05 1.51395e-05 0.000673365
0.00114323 -0.000493251 4.38202e-05
-0.000493251 -0.00012506 -9.47116e-06
4.38202e-05 -9.47116e-06 -0.000319217
0.0100339 -0.000429121 1.46296e-05
-0.000429121 0.00237919 -2.9974e-05
1.46296e-05 -2.9974e-05 0.000931687
0.00390138 -0.000682026 6.79577e-05
-0.000682026 -0.000393153 -3.87362e-05
6.79577e-05 -3.87362e-05 -0.000324838
-0.000813397 -0.000273876 -1.93861e-05
-0.000273876 -0.00111402 7.25803e-06
-1.93861e-05 7.25803e-06 -0.00105815
0.00059941 -0.000364103 -9.12077e-06
-0.000364103 -0.000487924 -1.08936e-06
-9.12077e-06 -1.08936e-06 -0.000490857
0.00328243 -0.00054301 2.79568e-05
-0.00054301 0.000781757 -1.72833e-05
2.79568e-05 -1.72833e-05 0.000743329
0.000161932 -0.00034704 -1.10457e-05
-0.00034704 -0.000514027 -5.3705e-06
-1.10457e-05 -5.3705e-06 -0.000779514
0.00172663 -0.000511707 2.30583e-08
-0.000511707 0.000104141 -2.46894e-07
2.30583e-08 -2.46894e-07 -9.90764e-05
0.00215662 -0.000463723 -2.09041e-06
-0.000463723 0.000172958 -1.3051e-06
-2.09041e-06 -1.3051e-06 3.99045e-05
0.00141429 -0.000454757 -2.31943e-06
-0.000454757 7.49907e-05 3.78195e-06
-2.31943e-06 3.78195e-06 -0.000218353
0.00183297 -0.000439435 -2.1478e-06
-0.000439435 0.000129365 5.9473e-07
-2.1478e-06 5.9473e-07 -6.99275e-05
0.00182177 -0.000342174 -8.28205e-07
-0.000342174 3.96089e-05 -1.26824e-06
-8.28205e-07 -1.26824e-06 -8.15839e-05
0.00130754 -0.000377577 4.3049e-06
-0.000377577 -2.69006e-05 4.21791e-06
4.3049e-06 4.21791e-06 -0.00026441
0.00171138 -0.000335717 -6.97962e-08
-0.000335717 8.90381e-05 8.32469e-07
-6.97962e-08 8.32469e-07 -7.0374e-05
0.00179208 -0.000282834 -3.50985e-06
-0.000282834 8.47973e-05 -1.48008e-06
-3.50985e-06 -1.48008e-06 -2.59938e-05
0.00192893 -0.000264129 -2.39395e-06
-0.000264129 0.00022625 -6.36722e-07
-2.39395e-06 -6.36722e-07 0.000111104
0.00169351 -0.000276685 -2.47911e-06
-0.000276685 8.17086e-05 3.06184e-06
-2.47911e-06 3.06184e-06 -5.73198e-05
0.00174743 -0.000289258 -1.19431e-06
-0.000289258 0.000150766 -5.42711e-06
-1.19431e-06 -5.42711e-06 -7.41242e-06
0.00166034 -0.000331164 -3.81022e-06
-0.000331164 0.00017892 -1.8789e-06
-3.81022e-06 -1.8789e-06 -2.88437e-05
0.00167033 -0.000341657 1.1868e-06
-0.000341657 0.00014771 4.45946e-07
1.1868e-06 4.45946e-07 -5.77474e-05
0.00157811 -0.000323883 2.95462e-06
-0.000323883 8.4103e-05 5.55947e-06
2.95462e-06 5.55947e-06 -0.000105181
0.00139803 -0.000299419 -6.06352e-06
-0.000299419 0.000169766 1.98463e-06
-6.06352e-06 1.98463e-06 -4.76305e-05
0.0014626 -0.000353444 -3.09449e-07
-0.000353444 0.000141933 2.3578e-07
-3.09449e-07 2.3578e-07 -9.77193e-05
0.00166203 -0.000404187 1.84511e-06
-0.000404187 0.000231787 6.10719e-07
1.84511e-06 6.10719e-07 -1.79298e-05
0.00119271 -0.00023925 -3.89144e-06
-0.00023925 0.000191723 3.37e-06
-3.89144e-06 3.37e-06 -9.89019e-06
0.00125467 -0.000278118 2.38604e-07
-0.000278118 0.000161604 2.88118e-07
2.38604e-07 2.88118e-07 -5.63903e-05
0.00122401 -0.00032223 2.26736e-06
-0.00032223 9.48384e-05 -2.69931e-06
2.26736e-06 -2.69931e-06 -0.000145234
0.000776444 -0.000141679 -5.01347e-06
-0.000141679 8.24789e-05 4.79486e-06
-5.01347e-06 4.79486e-06 -7.30945e-05
0.00108116 -0.000218918 9.63226e-07
-0.000218918 0.000209002 -2.24308e-07
9.63226e-07 -2.24308e-07 1.3575e-05
0.00100649 -0.000236595 9.46165e-07
-0.000236595 0.000110969 -1.52698e-06
9.46165e-07 -1.52698e-06 -9.8836e-05
0.000379726 -4.36991e-06 -4.22861e-06
-4.36991e-06 -0.0001189 1.04379e-05
-4.22861e-06 1.04379e-05 -0.000171649
0.000724294 -0.00010127 4.24065e-07
-0.00010127 9.15694e-05 5.52092e-07
4.24065e-07 5.52092e-07 -5.13554e-05
0.00127436 -0.000188974 1.74072e-07
-0.000188974 0.000399999 -1.18289e-06
1.74072e-07 -1.18289e-06 0.00020732
0.00292841 0.000146527 -4.6227e-05
0.000146527 0.00141774 2.31817e-06
-4.6227e-05 2.31817e-06 0.00141034
0.000533127 3.38976e-05 -3.20437e-07
3.38976e-05 -1.72945e-05 -6.50767e-07
-3.20437e-07 -6.50767e-07 -5.97709e-05
0.000920027 -8.74352e-05 2.56502e-06
-8.74352e-05 0.000216266 -4.85933e-06
2.56502e-06 -4.85933e-06 9.88746e-05
0.00176895 9.98257e-05 2.17573e-05
9.98257e-05 0.00072186 2.61268e-07
2.17573e-05 2.61268e-07 0.000716472
0.000605152 5.05976e-05 1.02023e-06
5.05976e-05 2.26637e-05 -6.42483e-06
1.02023e-06 -6.42483e-06 -1.06263e-05
0.00257015 0.000113659 3.71309e-05
0.000113659 0.00119232 -2.67661e-06
3.71309e-05 -2.67661e-06 0.00119389
0.00090178 0.000127109 2.94061e-06
0.000127109 0.000174486 9.0244e-07
2.94061e-06 9.0244e-07 4.46421e-05
0.000603463 6.84877e-05 -1.98727e-07
6.84877e-05 1.14075e-05 3.52832e-07
-1.98727e-07 3.52832e-07 -0.00010819
0.000662929 4.20679e-05 -4.34511e-07
4.20679e-05 5.79879e-05 -1.45381e-06
-4.34511e-07 -1.45381e-06 -6.29336e-05
0.000908972 8.84303e-05 4.94368e-07
8.84303e-05 0.00020824 6.53968e-07
4.94368e-07 6.53968e-07 8.14357e-05
0.000712402 3.19054e-05 2.04932e-07
3.19054e-05 8.89266e-05 5.9437e-08
2.04932e-07 5.9437e-08 -2.58953e-05
0.000666818 3.85349e-06 -1.2193e-06
3.85349e-06 4.76351e-05 -4.00625e-06
-1.2193e-06 -4.00625e-06 -3.53476e-05
0.000563386 -3.04282e-05 -1.67383e-06
-3.04282e-05 -2.00457e-05 -6.5552e-06
-1.67383e-06 -6.5552e-06 -5.14995e-05
0.00062843 2.7598e-06 2.26284e-07
2.7598e-06 2.39263e-05 -7.34785e-08
2.26284e-07 -7.34785e-08 -5.32488e-05
0.000644372 1.2997e-05 -2.23297e-07
1.2997e-05 3.7992e-05 1.61213e-06
-2.23297e-07 1.61213e-06 -6.21987e-05
0.00271375 -9.46924e-05 -4.24347e-05
-9.46924e-05 0.0012605 -3.86308e-06
-4.24347e-05 -3.86308e-06 0.00126613
0.000532145 -2.5392e-05 -1.6224e-07
-2.5392e-05 -4.4402e-05 -6.09157e-08
-1.6224e-07 -6.09157e-08 -7.15746e-05
0.000616129 1.58354e-05 9.65776e-07
1.58354e-05 1.67159e-05 3.01771e-06
9.65776e-07 3.01771e-06 -5.64648e-05
0.00258227 -8.06941e-05 -4.88249e-06
-8.06941e-05 0.00117561 3.24947e-07
-4.88249e-06 3.24947e-07 0.00118418
0.000527357 -2.96792e-05 -3.19514e-07
-2.96792e-05 -5.21357e-05 5.29806e-06
-3.19514e-07 5.29806e-06 -7.54123e-05
0.00245375 -6.5241e-05 2.45251e-05
-6.5241e-05 0.00109337 4.43875e-06
2.45251e-05 4.43875e-06 0.00110505
0.000201051 0.00032353 -0.00020405
0.00032353 0.00164269 3.01573e-05
-0.00020405 3.01573e-05 0.000548457
-0.00255122 -1.70206e-05 1.21104e-05
-1.70206e-05 0.00184394 1.42999e-05
1.21104e-05 1.42999e-05 -0.000773845
0.00384389 -4.72991e-05 -6.93272e-05
-4.72991e-05 0.00198698 -6.06556e-06
-6.93272e-05 -6.06556e-06 0.000840741
0.000488459 3.97676e-05 2.20511e-06
3.97676e-05 -6.25707e-05 -1.43808e-06
2.20511e-06 -1.43808e-06 -0.000172807
0.000656921 4.77151e-05 2.31975e-06
4.77151e-05 3.57968e-05 7.83406e-07
2.31975e-06 7.83406e-07 -9.3561e-05
0.00142375 0.000232409 -1.52764e-06
0.000232409 0.000513877 8.23285e-07
-1.52764e-06 8.23285e-07 0.000356038
0.0014631 0.000282066 3.31568e-06
0.000282066 0.000459399 -2.07617e-06
3.31568e-06 -2.07617e-06 0.000251039
0.00106556 0.000183899 -6.86841e-06
0.000183899 0.000324738 -1.16168e-06
-6.86841e-06 -1.16168e-06 0.000158173
0.000900676 0.000112957 7.43245e-07
0.000112957 0.000227831 3.20698e-06
7.43245e-07 3.20698e-06 8.25982e-05
0.000751579 8.94661e-05 3.87759e-06
8.94661e-05 0.000105826 3.08837e-06
3.87759e-06 3.08837e-06 -3.19941e-05
0.000564618 0.00014024 -4.2835e-06
0.00014024 3.75933e-05 -3.48088e-06
-4.2835e-06 -3.48088e-06 -0.000128794
-0.000666333 0.000101153 -2.93535e-07
0.000101153 -0.000725738 -4.59746e-07
-2.93535e-07 -4.59746e-07 -0.000891899
0.00145939 0.000301089 2.53081e-06
0.000301089 0.000392168 -2.27706e-06
2.53081e-06 -2.27706e-06 0.000268114
0.00209971 0.000527844 2.95763e-06
0.000527844 0.000465081 -1.02494e-05
2.95763e-06 -1.02494e-05 0.000263869
0.00070597 0.000225924 -5.95228e-06
0.000225924 4.83916e-05 -5.92374e-07
-5.95228e-06 -5.92374e-07 -6.70856e-05
0.000644661 8.86245e-05 -3.45864e-07
8.86245e-05 7.44532e-05 -1.48506e-06
-3.45864e-07 -1.48506e-06 -5.38436e-05
0.0110543 0.000822643 -8.89288e-05
0.000822643 0.00274362 3.69919e-05
-8.89288e-05 3.69919e-05 0.00131845
-0.000300211 -0.000700815 -0.00018499
-0.000700815 0.00189658 -6.10245e-05
-0.00018499 -6.10245e-05 0.000506687
-0.00117047 -0.000969165 9.71057e-05
-0.000969165 0.00144081 -9.11621e-06
9.71057e-05 -9.11621e-06 -0.000698803
-0.00170007 -0.000853425 2.1361e-05
-0.000853425 -0.000434848 0.000147142
2.1361e-05 0.000147142 -0.00068873
0.0110798 0.00104574 6.07947e-07
0.00104574 0.00497939 -4.02362e-07
6.07947e-07 -4.02362e-07 0.00177879
0.000306954 0.000311004 -3.95518e-05
0.000311004 -0.000326463 -2.48822e-05
-3.95518e-05 -2.48822e-05 -0.000471397
0.00153578 0.000705098 -2.17622e-05
0.000705098 0.00027037 -1.17267e-05
-2.17622e-05 -1.17267e-05 0.00013899
0.0101858 0.000943582 2.75274e-05
0.000943582 0.00329275 2.22748e-05
2.75274e-05 2.22748e-05 0.00136221
0.00568827 0.00144463 -4.02222e-05
0.00144463 0.00090411 -4.52471e-05
-4.02222e-05 -4.52471e-05 0.000474831
0.00174462 0.000640813 2.09668e-06
0.000640813 0.00019591 -6.65884e-06
2.09668e-06 -6.65884e-06 2.53892e-05
0.00106762 0.000465682 5.82707e-06
0.000465682 0.000121057 -1.04326e-06
5.82707e-06 -1.04326e-06 -9.25673e-05
0.000831316 0.000256388 -1.64638e-05
0.000256388 0.000180095 1.78437e-05
-1.64638e-05 1.78437e-05 6.28848e-05
0.00271306 0.000752776 -4.40465e-05
0.000752776 0.000787412 -1.88555e-05
-4.40465e-05 -1.88555e-05 0.000474985
0.00220145 0.000862203 -7.78212e-07
0.000862203 -7.82383e-05 1.90041e-05
-7.78212e-07 1.90041e-05 -0.000205034
0.000872237 -0.000335037 -3.3703e-05
-0.000335037 -0.00309834 1.73171e-05
-3.3703e-05 1.73171e-05 -0.0033613
0.0022484 -0.000448573 -1.05023e-06
-0.000448573 0.00129321 -2.16251e-05
-1.05023e-06 -2.16251e-05 0.00137355
-0.00509418 2.69408e-05 0.00015378
2.69408e-05 0.00189042 -6.25856e-06
0.00015378 -6.25856e-06 -0.000804774
0.00171947 -0.000753437 -2.70409e-05
-0.000753437 3.83625e-05 7.0807e-06
-2.70409e-05 7.0807e-06 -0.000138325
0.00317112 -0.00114045 3.22608e-05
-0.00114045 0.000489907 -8.54968e-06
3.22608e-05 -8.54968e-06 -0.00035785
0.00125647 -0.000289672 0.000237184
-0.000289672 0.00194959 -1.11892e-05
0.000237184 -1.11892e-05 0.00107009
0.0124193 -0.000451393 -0.00013216
-0.000451393 0.0036604 6.60427e-05
-0.00013216 6.60427e-05 0.00205647
0.000843926 -0.000500878 -2.74327e-05
-0.000500878 -0.000348376 -3.37647e-06
-2.74327e-05 -3.37647e-06 -0.000469628
0.00855925 5.93988e-05 -5.70827e-05
5.93988e-05 0.00115257 2.89237e-05
-5.70827e-05 2.89237e-05 0.000123886
0.00458611 -0.000747279 7.41453e-05
-0.000747279 -0.00011543 4.91518e-06
7.41453e-05 4.91518e-06 -0.000425547
0.0033564 -0.000521249 4.96795e-05
-0.000521249 0.000905523 -1.11051e-05
4.96795e-05 -1.11051e-05 0.000600989
0.00339821 -0.000270774 -9.24912e-05
-0.000270774 2.11915e-05 4.95693e-06
-9.24912e-05 4.95693e-06 2.97416e-05
-0.00116909 -0.000259942 -1.4415e-05
-0.000259942 -0.00146131 3.65403e-06
-1.4415e-05 3.65403e-06 -0.00141935
0.00156589 -0.000445754 -1.48003e-07
-0.000445754 -0.000131208 -7.23986e-07
-1.48003e-07 -7.23986e-07 -0.000149431
0.00237959 -0.000382 1.58288e-05
-0.000382 0.000176088 -9.57574e-06
1.58288e-05 -9.57574e-06 0.000203947
0.00122317 -0.000467501 -1.94953e-06
-0.000467501 -0.000148297 3.13746e-06
-1.94953e-06 3.13746e-06 -0.000342455
0.00182299 -0.00043145 -2.09123e-06
-0.00043145 1.61594e-05 2.71653e-07
-2.09123e-06 2.71653e-07 -0.000113936
0.00204424 -0.000336884 1.22201e-06
-0.000336884 4.56784e-05 1.04109e-06
1.22201e-06 1.04109e-06 -7.29244e-06
0.00181309 -0.00043401 -3.29663e-06
-0.00043401 0.000123517 5.77396e-06
-3.29663e-06 5.77396e-06 -7.73804e-05
0.00186533 -0.000343676 3.34753e-07
-0.000343676 6.47356e-05 1.60554e-06
3.34753e-07 1.60554e-06 -5.53392e-05
0.00180669 -0.000298388 -4.17212e-07
-0.000298388 3.67209e-05 1.66773e-06
-4.17212e-07 1.66773e-06 -4.77002e-05
0.00167549 -0.000328304 4.23362e-06
-0.000328304 7.44815e-05 5.31477e-06
4.23362e-06 5.31477e-06 -8.33155e-05
0.00175924 -0.000283903 -3.43957e-07
-0.000283903 6.45626e-05 1.26276e-06
-3.43957e-07 1.26276e-06 -4.71947e-05
0.00202117 -0.000285139 -6.96912e-07
-0.000285139 0.000231995 3.34701e-07
-6.96912e-07 3.34701e-07 0.000131931
0.00180956 -0.000259707 -3.96992e-06
-0.000259707 0.000147816 3.49408e-06
-3.96992e-06 3.49408e-06 3.63981e-05
0.00184339 -0.00027188 1.83708e-06
-0.00027188 0.000198489 -3.18294e-06
1.83708e-06 -3.18294e-06 6.85399e-05
0.00176404 -0.000278933 2.41689e-06
-0.000278933 0.000119434 7.63965e-06
2.41689e-06 7.63965e-06 -1.52486e-05
0.00174751 -0.000290889 3.54592e-07
-0.000290889 0.000150098 -7.91463e-07
3.54592e-07 -7.91463e-07 -8.79651e-06
0.00168361 -0.000286117 -1.38067e-06
-0.000286117 0.000151424 -3.18513e-06
-1.38067e-06 -3.18513e-06 -2.29431e-05
0.00152953 -0.000292393 -5.20686e-06
-0.000292393 0.000173462 -3.27022e-07
-5.20686e-06 -3.27022e-07 -2.94421e-05
0.00169743 -0.000334452 3.65044e-07
-0.000334452 0.000202224 -3.49765e-07
3.65044e-07 -3.49765e-07 -6.75878e-06
0.00178609 -0.000348881 3.51595e-06
-0.000348881 0.000214058 2.68496e-06
3.51595e-06 2.68496e-06 8.14484e-06
0.00114591 -0.000232886 -6.8789e-06
-0.000232886 8.90323e-05 2.47245e-06
-6.8789e-06 2.47245e-06 -0.00010332
0.00133896 -0.000293898 -1.04582e-06
-0.000293898 0.000136604 4.42776e-07
-1.04582e-06 4.42776e-07 -8.04355e-05
0.00142946 -0.000350807 2.55522e-06
-0.000350807 0.000120045 3.40033e-07
2.55522e-06 3.40033e-07 -0.000118959
0.000810789 -0.000159951 -6.89775e-06
-0.000159951 3.86445e-05 6.42669e-06
-6.89775e-06 6.42669e-06 -0.00012124
0.0011286 -0.000233342 8.73385e-07
-0.000233342 0.000153643 4.91078e-07
8.73385e-07 4.91078e-07 -4.69595e-05
0.00121356 -0.000274325 2.8718e-06
-0.000274325 0.000136 -1.60478e-06
2.8718e-06 -1.60478e-06 -8.19597e-05
0.000406971 -7.3403e-05 -1.35606e-05
-7.3403e-05 -0.000128031 1.22569e-05
-1.35606e-05 1.22569e-05 -0.000192134
0.000791539 -0.000156166 -4.58002e-07
-0.000156166 9.04358e-05 2.21904e-07
-4.58002e-07 2.21904e-07 -6.71453e-05
0.00110493 -0.000217166 1.57786e-06
-0.000217166 0.000221809 -1.92964e-06
1.57786e-06 -1.92964e-06 2.74128e-05
0.00358438 0.000166554 -7.28111e-05
0.000166554 0.00180777 2.51741e-06
-7.28111e-05 2.51741e-06 0.00179553
0.000550604 -2.371e-05 1.02751e-06
-2.371e-05 -2.29062e-05 -3.64377e-07
1.02751e-06 -3.64377e-07 -7.674e-05
0.000856871 -0.000149101 4.69554e-06
-0.000149101 0.000170804 -4.48065e-06
4.69554e-06 -4.48065e-06 2.15757e-05
0.00312329 0.000140077 8.56035e-06
0.000140077 0.00152961 4.08545e-07
8.56035e-06 4.08545e-07 0.00152448
0.000678587 1.64727e-05 5.29318e-06
1.64727e-05 6.28514e-05 -8.57529e-06
5.29318e-06 -8.57529e-06 2.09709e-05
0.00279564 0.000121865 5.58634e-05
0.000121865 0.00133001 -2.09846e-06
5.58634e-05 -2.09846e-06 0.00132999
0.00122814 0.000237365 4.21885e-06
0.000237365 0.000326484 -4.40533e-06
4.21885e-06 -4.40533e-06 0.000131869
0.000827194 0.000151458 1.12903e-06
0.000151458 0.000140912 -2.47686e-07
1.12903e-06 -2.47686e-07 2.99955e-06
0.000456062 4.96362e-05 2.05892e-07
4.96362e-05 -7.18117e-05 -5.83469e-07
2.05892e-07 -5.83469e-07 -0.000197945
0.000304251 2.98204e-05 7.17662e-08
2.98204e-05 -0.000164015 -3.30787e-07
7.17662e-08 -3.30787e-07 -0.000275983
0.000538513 1.709e-05 -3.10277e-07
1.709e-05 -1.84216e-05 6.40099e-07
-3.10277e-07 6.40099e-07 -0.000136051
0.000662699 9.6336e-06 -1.49356e-06
9.6336e-06 4.53852e-05 -4.0868e-06
-1.49356e-06 -4.0868e-06 -4.61656e-05
0.000624121 1.16674e-05 2.29105e-07
1.16674e-05 2.78018e-05 1.89692e-06
2.29105e-07 1.89692e-06 -7.91151e-05
0.000617578 -2.39337e-06 3.28699e-07
-2.39337e-06 2.03749e-05 -2.02304e-07
3.28699e-07 -2.02304e-07 -6.27082e-05
0.00056809 -3.36554e-05 -2.07092e-06
-3.36554e-05 -1.02252e-05 -7.32722e-06
-2.07092e-06 -7.32722e-06 -4.57008e-05
0.00282197 -0.00010848 -5.0418e-05
-0.00010848 0.00133252 -3.37706e-06
-5.0418e-05 -3.37706e-06 0.00133512
0.00052829 -2.83514e-05 1.17602e-07
-2.83514e-05 -4.06864e-05 -1.93617e-08
1.17602e-07 -1.93617e-08 -7.17629e-05
0.000591053 3.60549e-06 1.29119e-06
3.60549e-06 3.45774e-06 3.46802e-06
1.29119e-06 3.46802e-06 -7.41655e-05
0.00271693 -9.51953e-05 -5.12437e-06
-9.51953e-05 0.00126207 3.90815e-07
-5.12437e-06 3.90815e-07 0.0012675
0.000509809 -2.47554e-05 1.08216e-06
-2.47554e-05 -5.72235e-05 5.84051e-06
1.08216e-06 5.84051e-06 -8.42262e-05
0.00255745 -7.98421e-05 3.04076e-05
-7.98421e-05 0.0011602 4.27037e-06
3.04076e-05 4.27037e-06 0.00116901
0.0112039 0.000517409 0.000197916
0.000517409 0.00259424 5.81579e-05
0.000197916 5.81579e-05 0.001684
-0.00309612 -0.000868066 -0.000130632
-0.000868066 -0.00235602 -1.71861e-05
-0.000130632 -1.71861e-05 -0.00259848
-0.00522461 0.000374465 -6.89169e-05
0.000374465 0.000694026 -3.82856e-05
-6.89169e-05 -3.82856e-05 -0.00246415
0.000669524 2.38001e-05 8.63869e-06
2.38001e-05 3.63648e-05 1.89034e-06
8.63869e-06 1.89034e-06 -9.41491e-05
0.000941561 0.000189456 -3.12315e-06
0.000189456 0.000237328 1.64695e-06
-3.12315e-06 1.64695e-06 9.12092e-05
0.00132855 0.000206408 -6.37135e-08
0.000206408 0.000468055 -7.19352e-07
-6.37135e-08 -7.19352e-07 0.000299058
0.00129208 0.000263883 -4.08413e-06
0.000263883 0.000369344 1.06539e-06
-4.08413e-06 1.06539e-06 0.000165753
0.00115353 0.00029082 1.32089e-05
0.00029082 0.000145313 1.26397e-06
1.32089e-05 1.26397e-06 -8.73234e-05
0.000162632 0.000170304 -5.98992e-07
0.000170304 -0.000249284 -2.67693e-06
-5.98992e-07 -2.67693e-06 -0.000426903
0.000363531 0.000134342 -2.60376e-06
0.000134342 -6.30825e-05 -2.41677e-06
-2.60376e-06 -2.41677e-06 -0.000225849
0.000200921 0.00018993 1.15966e-06
0.00018993 -0.000249892 1.80375e-06
1.15966e-06 1.80375e-06 -0.000441058
0.00101373 0.000273341 5.49076e-07
0.000273341 0.000159932 6.60408e-07
5.49076e-07 6.60408e-07 3.29949e-05
0.000595458 0.000291412 5.54045e-06
0.000291412 -0.000185199 1.60631e-06
5.54045e-06 1.60631e-06 -0.000364235
0.00344434 0.00060088 -3.72575e-06
0.00060088 0.00118021 -3.80904e-06
-3.72575e-06 -3.80904e-06 0.000996677
0.00206717 0.000553312 -5.51549e-06
0.000553312 0.000359071 3.86099e-06
-5.51549e-06 3.86099e-06 0.000174659
0.00149515 0.000474835 3.64951e-06
0.000474835 0.000154279 -2.80406e-06
3.64951e-06 -2.80406e-06 -2.86045e-05
0.000394562 0.000219623 -2.28915e-06
0.000219623 -0.000115062 3.63219e-06
-2.28915e-06 3.63219e-06 -0.000234817
0.00561798 0.000643214 -1.86858e-05
0.000643214 0.00033402 8.91908e-06
-1.86858e-05 8.91908e-06 0.000561728
0.0094415 0.000655398 9.04622e-05
0.000655398 0.00186686 4.81819e-05
9.04622e-05 4.81819e-05 0.000322702
0.00540878 -0.00137519 9.57518e-05
-0.00137519 0.00309351 -5.72346e-05
9.57518e-05 -5.72346e-05 0.00233278
0.00391137 0.0013738 0.000333318
0.0013738 1.69303e-05 0.000151134
0.000333318 0.000151134 -0.00325372
0.001199 0.000600011 -3.95741e-05
0.000600011 0.000150841 -1.91955e-07
-3.95741e-05 -1.91955e-07 0.000251936
0.0033702 0.00111171 -8.36587e-05
0.00111171 -5.7187e-05 -2.57783e-05
-8.36587e-05 -2.57783e-05 -0.000231787
0.00382276 0.000911294 4.15791e-05
0.000911294 0.000659047 2.05719e-05
4.15791e-05 2.05719e-05 0.000623477
0.00303063 0.000756237 7.9595e-06
0.000756237 0.000760821 6.90389e-06
7.9595e-06 6.90389e-06 0.00059125
0.000627579 0.000400335 -9.5318e-06
0.000400335 -5.88904e-05 1.92729e-05
-9.5318e-06 1.92729e-05 -0.00025753
0.00394495 0.00101395 -0.000121256
0.00101395 0.000744711 -2.8668e-05
-0.000121256 -2.8668e-05 0.000542986
0.00287494 -0.000223231 -6.56121e-05
-0.000223231 0.000357726 9.15654e-06
-6.56121e-05 9.15654e-06 0.0001255
0.010024 -0.00028328 -9.79955e-06
-0.00028328 0.00262606 4.07918e-06
-9.79955e-06 4.07918e-06 0.00201407
-0.00922732 -0.000647125 0.000314918
-0.000647125 -0.00523098 -8.78657e-06
0.000314918 -8.78657e-06 -0.00485793
0.000274312 -0.00047287 -4.4245e-05
-0.00047287 -0.000744951 8.51854e-06
-4.4245e-05 8.51854e-06 -0.000793336
0.00682875 -0.000966114 0.000116466
-0.000966114 0.000948178 2.75639e-05
0.000116466 2.75639e-05 0.000741412
0.00137068 -0.000383107 -1.11667e-05
-0.000383107 -0.00216768 5.89131e-05
-1.11667e-05 5.89131e-05 -0.00358697
0.00149473 -0.000380669 1.73188e-05
-0.000380669 -0.000142714 1.09126e-06
1.73188e-05 1.09126e-06 -0.000279089
0.00275182 -0.000149332 -6.53122e-06
-0.000149332 -0.000385844 5.7511e-06
-6.53122e-06 5.7511e-06 -0.000444602
0.00418006 -0.000391304 2.22142e-05
-0.000391304 0.000983857 -8.68797e-06
2.22142e-05 -8.68797e-06 0.00106041
0.00362483 -0.000104635 7.07532e-05
-0.000104635 0.000855778 1.28009e-06
7.07532e-05 1.28009e-06 0.000818813
-0.000109214 -0.000358247 -8.30312e-06
-0.000358247 -0.00102524 7.98175e-06
-8.30312e-06 7.98175e-06 -0.00101904
0.00177347 -0.000356903 -3.75231e-07
-0.000356903 -0.000151898 5.61866e-07
-3.75231e-07 5.61866e-07 -0.000115462
0.00181785 -0.000245857 1.38042e-05
-0.000245857 -0.000181384 -2.49164e-06
1.38042e-05 -2.49164e-06 -7.80803e-05
0.00155705 -0.000405555 1.66196e-07
-0.000405555 -0.000112272 1.93689e-06
1.66196e-07 1.93689e-06 -0.00023956
0.00196285 -0.000334791 1.88173e-06
-0.000334791 4.19688e-06 9.29587e-07
1.88173e-06 9.29587e-07 -4.93735e-05
0.00189851 -0.000272158 9.16343e-07
-0.000272158 3.89551e-05 1.2258e-06
9.16343e-07 1.2258e-06 9.76277e-06
0.00189014 -0.000343404 4.3758e-06
-0.000343404 7.90366e-05 3.68274e-06
4.3758e-06 3.68274e-06 -3.936e-05
0.00185685 -0.000298048 8.26415e-07
-0.000298048 7.21811e-05 4.26514e-07
8.26415e-07 4.26514e-07 -1.17639e-05
0.00193203 -0.000266913 -1.98133e-06
-0.000266913 0.0001409 1.52693e-06
-1.98133e-06 1.52693e-06 6.177e-05
0.00172942 -0.000284553 4.18886e-06
-0.000284553 4.66289e-05 3.59898e-06
4.18886e-06 3.59898e-06 -6.58816e-05
0.00184165 -0.000278062 2.23254e-07
-0.000278062 0.000134552 5.71497e-07
2.23254e-07 5.71497e-07 3.42416e-05
0.00169543 -0.000262047 3.42006e-06
-0.000262047 8.40531e-05 -1.52157e-06
3.42006e-06 -1.52157e-06 -2.88107e-05
0.00169939 -0.000255803 -2.42538e-06
-0.000255803 7.48459e-05 7.17966e-06
-2.42538e-06 7.17966e-06 -3.29326e-05
0.00187265 -0.000269899 -2.17561e-06
-0.000269899 0.000213221 5.57115e-08
-2.17561e-06 5.57115e-08 8.69293e-05
0.00178633 -0.000264492 6.57259e-07
-0.000264492 0.000193204 -1.98857e-06
6.57259e-07 -1.98857e-06 4.12824e-05
0.00174869 -0.000292098 2.17218e-06
-0.000292098 0.000149998 3.62388e-06
2.17218e-06 3.62388e-06 -9.48667e-06
0.00172385 -0.000289027 5.77287e-07
-0.000289027 0.000176861 -6.41765e-07
5.77287e-07 -6.41765e-07 1.39562e-06
0.00172315 -0.000268193 -2.26769e-06
-0.000268193 0.00024106 -1.24299e-06
-2.26769e-06 -1.24299e-06 6.07847e-05
0.00105747 -0.000212825 -8.86681e-06
-0.000212825 -1.30583e-05 2.4231e-06
-8.86681e-06 2.4231e-06 -0.000194097
0.00155564 -0.000294716 -9.80671e-07
-0.000294716 0.000192363 -2.80147e-07
-9.80671e-07 -2.80147e-07 -1.1428e-05
0.00172879 -0.000336851 3.83538e-06
-0.000336851 0.000222307 8.46623e-07
3.83538e-06 8.46623e-07 1.22848e-05
0.00094006 -0.000176505 -1.02548e-05
-0.000176505 4.96075e-05 6.28458e-06
-1.02548e-05 6.28458e-06 -0.00010844
0.00118349 -0.000235924 -1.08516e-07
-0.000235924 0.000107434 2.57753e-07
-1.08516e-07 2.57753e-07 -8.53955e-05
0.00127554 -0.000288277 1.79199e-06
-0.000288277 9.98389e-05 -6.65878e-07
1.79199e-06 -6.65878e-07 -0.000116893
0.000437827 -0.000107411 -1.74312e-05
-0.000107411 -0.000132158 1.33503e-05
-1.74312e-05 1.33503e-05 -0.000206636
0.000851432 -0.000167339 5.67278e-07
-0.000167339 6.44632e-05 4.11241e-07
5.67278e-07 4.11241e-07 -9.68866e-05
0.00107485 -0.000228599 5.68927e-06
-0.000228599 0.000121173 -2.29951e-06
5.68927e-06 -2.29951e-06 -7.86264e-05
0.00434505 0.000176324 -0.000112261
0.000176324 0.00225784 4.76669e-06
-0.000112261 4.76669e-06 0.0022423
0.000572174 -8.03548e-05 4.35622e-07
-8.03548e-05 -3.25517e-05 -2.85623e-07
4.35622e-07 -2.85623e-07 -9.97332e-05
0.000825299 -0.000170406 6.37562e-06
-0.000170406 0.000107626 -5.75197e-06
6.37562e-06 -5.75197e-06 -5.13001e-05
0.00381219 0.000140284 8.34813e-06
0.000140284 0.00193601 3.97113e-07
8.34813e-06 3.97113e-07 0.00193004
0.000713933 -3.31601e-05 1.04895e-05
-3.31601e-05 6.94879e-05 -1.04795e-05
1.04895e-05 -1.04795e-05 1.45713e-05
0.00329888 0.000110707 9.74657e-05
0.000110707 0.00162706 -3.83805e-06
9.74657e-05 -3.83805e-06 0.00162913
0.00147775 0.000286008 -3.77132e-06
0.000286008 0.000362443 -3.98055e-06
-3.77132e-06 -3.98055e-06 0.000138915
0.00140493 0.000253173 7.60234e-07
0.000253173 0.000433665 2.55373e-07
7.60234e-07 2.55373e-07 0.000236283
0.000691292 0.00014388 -2.10417e-07
0.00014388 3.72167e-05 -5.63516e-06
-2.10417e-07 -5.63516e-06 -0.000129202
0.000682025 0.000163362 -1.86458e-06
0.000163362 6.7937e-05 -6.06275e-08
-1.86458e-06 -6.06275e-08 -7.68182e-05
0.000458431 6.26458e-05 1.55164e-07
6.26458e-05 -6.99391e-05 -5.01234e-07
1.55164e-07 -5.01234e-07 -0.000200965
0.000774582 8.54002e-05 -2.94662e-06
8.54002e-05 0.000120177 -4.16214e-06
-2.94662e-06 -4.16214e-06 4.58669e-06
0.000410477 -1.19718e-06 4.19383e-07
-1.19718e-06 -9.80541e-05 1.53756e-06
4.19383e-07 1.53756e-06 -0.000211638
0.000637103 8.59698e-06 1.40181e-07
8.59698e-06 3.24778e-05 -2.50007e-07
1.40181e-07 -2.50007e-07 -5.94686e-05
0.000573714 -2.97278e-05 -2.76965e-06
-2.97278e-05 -1.79259e-06 -8.13248e-06
-2.76965e-06 -8.13248e-06 -4.15869e-05
0.000578778 -4.66307e-06 1.17383e-06
-4.66307e-06 -2.164e-06 3.94987e-06
1.17383e-06 3.94987e-06 -8.46013e-05
0.000522006 -3.14977e-05 2.68162e-07
-3.14977e-05 -3.74442e-05 -5.47513e-08
2.68162e-07 -5.47513e-08 -7.24506e-05
0.00293342 -0.000120698 -5.99385e-05
-0.000120698 0.00140683 -2.76827e-06
-5.99385e-05 -2.76827e-06 0.00140664
0.00281056 -0.000108855 -4.01802e-06
-0.000108855 0.00132524 3.95382e-07
-4.01802e-06 3.95382e-07 0.00132759
0.000497978 -2.23052e-05 2.52985e-06
-2.23052e-05 -5.90455e-05 6.51143e-06
2.52985e-06 6.51143e-06 -8.94513e-05
0.00267691 -9.44665e-05 3.73119e-05
-9.44665e-05 0.00123788 3.98687e-06
3.73119e-05 3.98687e-06 0.00124341
0.00330188 1.82816e-05 1.96648e-05
1.82816e-05 -0.0002916 9.19566e-06
1.96648e-05 9.19566e-06 -0.000162603
0.00285662 -0.000569999 6.2144e-05
-0.000569999 -0.00207223 2.74763e-05
6.2144e-05 2.74763e-05 -0.00314367
0.00742666 -0.00092386 -8.15058e-05
-0.00092386 0.00279898 -5.92161e-05
-8.15058e-05 -5.92161e-05 0.00312867
0.0013155 0.000324556 5.99453e-06
0.000324556 0.000109118 4.24315e-06
5.99453e-06 4.24315e-06 -0.000123247
0.00151908 0.00023079 1.82606e-06
0.00023079 0.000570255 1.56225e-06
1.82606e-06 1.56225e-06 0.000397864
0.00120873 0.000254564 -5.82918e-06
0.000254564 0.000331273 6.59541e-06
-5.82918e-06 6.59541e-06 0.000130611
0.000722162 0.000227877 1.35165e-06
0.000227877 6.32553e-05 2.43558e-06
1.35165e-06 2.43558e-06 -0.000128302
0.00123611 0.000300217 -4.82324e-07
0.000300217 0.000201422 -1.49837e-06
-4.82324e-07 -1.49837e-06 -3.55438e-05
0.000880253 0.000313221 5.75182e-06
0.000313221 -4.26544e-05 4.03668e-06
5.75182e-06 4.03668e-06 -0.000245943
0.00106679 0.000278961 -4.87955e-06
0.000278961 0.000228095 -2.86125e-06
-4.87955e-06 -2.86125e-06 1.14865e-05
0.000514766 0.000244081 3.23322e-06
0.000244081 -0.000101641 3.60134e-06
3.23322e-06 3.60134e-06 -0.000229595
0.0013766 0.000366162 2.7125e-06
0.000366162 0.000241126 -7.19955e-07
2.7125e-06 -7.19955e-07 5.04765e-05
0.00233179 0.000507037 3.61431e-06
0.000507037 0.000576174 6.78827e-06
3.61431e-06 6.78827e-06 0.000411485
0.00170011 0.000489316 1.27762e-06
0.000489316 0.000135671 -3.16594e-07
1.27762e-06 -3.16594e-07 -5.50315e-05
0.00164609 0.000455758 4.68227e-06
0.000455758 0.000124432 9.08735e-06
4.68227e-06 9.08735e-06 -6.70853e-06
0.001181 0.000484532 -2.80971e-06
0.000484532 -0.000112869 -3.05668e-06
-2.80971e-06 -3.05668e-06 -0.000289044
0.000667701 0.000398407 1.64405e-07
0.000398407 -0.000272605 1.70971e-06
1.64405e-07 1.70971e-06 -0.000432253
0.00139529 0.00036182 2.69332e-05
0.00036182 -0.00026434 3.01877e-05
2.69332e-05 3.01877e-05 -0.000212414
0.00513691 0.000749801 -4.87647e-05
0.000749801 -0.000100711 -1.36578e-05
-4.87647e-05 -1.36578e-05 5.09003e-05
0.00203232 0.00039513 0.000274107
0.00039513 -0.00200832 3.39724e-05
0.000274107 3.39724e-05 -0.00372397
0.000523032 0.000823246 -1.13076e-05
0.000823246 -0.00122104 -2.22669e-05
-1.13076e-05 -2.22669e-05 -0.00136924
0.00257894 0.000730174 -2.56602e-05
0.000730174 0.000305136 -2.80025e-06
-2.56602e-05 -2.80025e-06 0.000248038
0.00239941 0.000686128 -6.04085e-05
0.000686128 0.000453039 -2.25486e-05
-6.04085e-05 -2.25486e-05 0.000281434
0.00232457 -0.000186537 -7.91974e-06
-0.000186537 4.98208e-05 -5.72921e-06
-7.91974e-06 -5.72921e-06 3.408e-05
0.000977057 -5.5106e-05 8.53972e-06
-5.5106e-05 -0.000251738 6.05207e-06
8.53972e-06 6.05207e-06 -0.000404417
0.00111723 0.000703364 8.99687e-05
0.000703364 -0.00299374 -2.42006e-05
8.99687e-05 -2.42006e-05 -0.00353321
-0.000339147 -0.000248331 -1.75956e-05
-0.000248331 -0.00113167 2.81141e-05
-1.75956e-05 2.81141e-05 -0.00110776
0.00357939 -0.000129178 -3.57714e-05
-0.000129178 -1.99558e-05 3.58239e-05
-3.57714e-05 3.58239e-05 -0.000317717
0.0022026 -0.000282788 -1.48506e-05
-0.000282788 -2.04495e-05 5.38104e-06
-1.48506e-05 5.38104e-06 8.23207e-05
0.00304329 -0.000135515 -3.20357e-06
-0.000135515 0.000500719 -3.18426e-06
-3.20357e-06 -3.18426e-06 0.000456309
0.00152442 -0.000161573 2.99685e-05
-0.000161573 -0.000368438 -1.0759e-06
2.99685e-05 -1.0759e-06 -0.000236683
0.00318139 -4.9867e-05 2.44465e-05
-4.9867e-05 0.000938232 7.95832e-07
2.44465e-05 7.95832e-07 0.000897993
0.00118425 -0.000329573 -1.65429e-05
-0.000329573 -0.00046305 8.48971e-06
-1.65429e-05 8.48971e-06 -0.000421011
0.00177453 -0.000255732 6.19725e-07
-0.000255732 -0.000223723 2.15541e-06
6.19725e-07 2.15541e-06 -0.000131125
0.0019596 -0.000253448 1.75613e-06
-0.000253448 -4.71949e-05 -1.17281e-08
1.75613e-06 -1.17281e-08 7.55217e-06
0.00189141 -0.000331638 7.00167e-07
-0.000331638 -2.7904e-05 1.75145e-06
7.00167e-07 1.75145e-06 -8.23194e-05
0.00189946 -0.000279579 3.54404e-07
-0.000279579 3.70692e-05 8.90482e-08
3.54404e-07 8.90482e-08 2.50966e-06
0.00192194 -0.000251489 -1.2671e-06
-0.000251489 8.5384e-05 7.79359e-07
-1.2671e-06 7.79359e-07 2.9e-05
0.00189876 -0.000298081 9.53404e-07
-0.000298081 0.000103176 4.86309e-07
9.53404e-07 4.86309e-07 1.9039e-05
0.00183819 -0.000269481 -6.616e-07
-0.000269481 9.13336e-05 4.18295e-08
-6.616e-07 4.18295e-08 8.87446e-06
0.00173412 -0.000238093 5.2534e-07
-0.000238093 7.73937e-05 3.19428e-07
5.2534e-07 3.19428e-07 -2.11586e-05
0.00165013 -0.000270306 -2.35748e-07
-0.000270306 3.04822e-05 1.07936e-06
-2.35748e-07 1.07936e-06 -7.0091e-05
0.00172774 -0.000263593 7.51874e-07
-0.000263593 0.000103265 -6.74411e-07
7.51874e-07 -6.74411e-07 -9.92724e-06
0.00173166 -0.000249959 1.93053e-06
-0.000249959 0.000125703 -2.04672e-06
1.93053e-06 -2.04672e-06 -7.94334e-06
0.0018977 -0.000267489 -5.01068e-06
-0.000267489 0.000225761 4.76514e-06
-5.01068e-06 4.76514e-06 0.000103184
0.00185188 -0.000266083 -1.267e-06
-0.000266083 0.000228901 3.09325e-07
-1.267e-06 3.09325e-07 8.02725e-05
0.00166079 -0.000240404 -1.45882e-06
-0.000240404 0.00017612 -8.9181e-07
-1.45882e-06 -8.9181e-07 9.73748e-06
0.00176013 -0.000292083 2.47933e-06
-0.000292083 0.000199923 1.72943e-06
2.47933e-06 1.72943e-06 2.33e-05
0.00167803 -0.000267267 1.01874e-06
-0.000267267 0.000215189 -6.66138e-07
1.01874e-06 -6.66138e-07 3.39289e-05
0.00128926 -0.000204476 -7.18242e-06
-0.000204476 8.63863e-05 2.13407e-06
-7.18242e-06 2.13407e-06 -8.45953e-05
0.000959208 -0.000169587 -1.16371e-05
-0.000169587 2.20857e-05 5.89e-06
-1.16371e-05 5.89e-06 -0.000127756
0.00116373 -0.0002203 -1.96273e-06
-0.0002203 4.91159e-05 4.12558e-07
-1.96273e-06 4.12558e-07 -0.000132807
0.00158165 -0.000297402 3.29742e-06
-0.000297402 0.000211387 -4.78271e-07
3.29742e-06 -4.78271e-07 6.60765e-06
0.000530213 -0.000170023 -2.12454e-05
-0.000170023 -8.81521e-05 1.40454e-05
-2.12454e-05 1.40454e-05 -0.000178445
0.000883816 -0.000173582 5.10333e-07
-0.000173582 1.89781e-05 2.41795e-07
5.10333e-07 2.41795e-07 -0.000138844
0.00120319 -0.000237389 7.06789e-06
-0.000237389 0.000115808 -2.20898e-06
7.06789e-06 -2.20898e-06 -7.7236e-05
0.0049242 0.000196388 -0.000131007
0.000196388 0.00260858 8.51078e-06
-0.000131007 8.51078e-06 0.00258439
0.000579487 -0.000144132 -6.70013e-07
-0.000144132 -4.51444e-05 9.05287e-08
-6.70013e-07 9.05287e-08 -0.000127863
0.00083183 -0.000172597 8.58145e-06
-0.000172597 5.54335e-05 -6.02914e-06
8.58145e-06 -6.02914e-06 -0.000107273
0.00451976 0.000151872 8.67505e-06
0.000151872 0.00235603 1.032e-06
8.67505e-06 1.032e-06 0.00234439
0.000734553 -0.000100666 1.65045e-05
-0.000100666 6.0959e-05 -1.27457e-05
1.65045e-05 -1.27457e-05 -9.89258e-06
0.00402079 0.000110518 0.000130771
0.000110518 0.00205214 -7.05085e-06
0.000130771 -7.05085e-06 0.0020514
0.00119579 0.000275263 -4.28057e-06
0.000275263 9.27231e-05 -2.77356e-07
-4.28057e-06 -2.77356e-07 -0.000126834
0.00117849 0.000257576 -1.90459e-06
0.000257576 0.000190978 -4.77557e-07
-1.90459e-06 -4.77557e-07 -2.77055e-05
0.00101052 0.000211097 -3.69875e-06
0.000211097 0.000150348 -2.36734e-06
-3.69875e-06 -2.36734e-06 -4.45921e-05
0.00156765 0.000267421 -2.52913e-06
0.000267421 0.000532371 3.58169e-06
-2.52913e-06 3.58169e-06 0.00033254
0.0008955 0.000162935 -1.10243e-06
0.000162935 0.000158555 -1.98244e-06
-1.10243e-06 -1.98244e-06 -1.11784e-05
0.000890829 0.000134708 -3.80724e-06
0.000134708 0.000183899 -5.48936e-06
-3.80724e-06 -5.48936e-06 4.51323e-05
0.000483129 7.8198e-05 -2.3086e-07
7.8198e-05 -5.73118e-05 1.86111e-07
-2.3086e-07 1.86111e-07 -0.000192168
0.000663184 3.62138e-05 -6.29391e-07
3.62138e-05 4.75446e-05 -1.57935e-07
-6.29391e-07 -1.57935e-07 -5.86284e-05
0.000590835 -1.36094e-05 -5.05283e-06
-1.36094e-05 8.11316e-06 -9.00007e-06
-5.05283e-06 -9.00007e-06 -3.75699e-05
0.000561489 -8.75646e-06 1.11977e-06
-8.75646e-06 -1.05834e-05 4.22859e-06
1.11977e-06 4.22859e-06 -0.000101385
0.000510562 -3.32948e-05 3.95673e-07
-3.32948e-05 -3.75383e-05 -1.59724e-07
3.95673e-07 -1.59724e-07 -7.74019e-05
0.00310396 -0.000128967 -7.45907e-05
-0.000128967 0.00151504 -2.32099e-06
-7.45907e-05 -2.32099e-06 0.00151286
0.000482587 -2.94267e-05 2.57472e-06
-2.94267e-05 -6.07906e-05 7.17809e-06
2.57472e-06 7.17809e-06 -9.5299e-05
0.00290778 -0.000122519 -3.15547e-06
-0.000122519 0.0013914 3.64975e-07
-3.15547e-06 3.64975e-07 0.0013905
0.00280762 -0.000108811 4.57728e-05
-0.000108811 0.00132308 3.6186e-06
4.57728e-05 3.6186e-06 0.00132529
0.000285734 5.10795e-05 1.58512e-05
5.10795e-05 -0.000962704 7.84689e-06
1.58512e-05 7.84689e-06 -0.000894483
0.0046057 2.37125e-05 5.42588e-05
2.37125e-05 0.000283504 8.84929e-07
5.42588e-05 8.84929e-07 0.000318222
0.0104455 0.000624567 -7.9142e-05
0.000624567 0.0029066 -2.05551e-05
-7.9142e-05 -2.05551e-05 0.00185038
0.000915273 0.000310484 2.11919e-06
0.000310484 -0.00014954 2.36953e-06
2.11919e-06 2.36953e-06 -0.000356938
0.00170666 0.000372558 1.96153e-06
0.000372558 0.000231474 2.54633e-06
1.96153e-06 2.54633e-06 2.11821e-05
0.00123977 0.000325849 -4.8953e-08
0.000325849 6.80621e-05 -1.06652e-06
-4.8953e-08 -1.06652e-06 -0.000163978
0.00117232 0.00027506 -2.06338e-06
0.00027506 0.000311271 2.03841e-06
-2.06338e-06 2.03841e-06 0.000107917
0.00128344 0.000305585 -1.52784e-06
0.000305585 0.000236319 -9.83482e-07
-1.52784e-06 -9.83482e-07 -4.1816e-06
0.00143557 0.000365683 7.70856e-06
0.000365683 0.00025349 9.11726e-07
7.70856e-06 9.11726e-07 4.23469e-05
0.00180578 0.000462582 -4.04779e-06
0.000462582 0.00018172 -1.8448e-06
-4.04779e-06 -1.8448e-06 -1.76676e-05
0.00211041 0.000437389 -4.97422e-06
0.000437389 0.000639852 7.14529e-07
-4.97422e-06 7.14529e-07 0.000438229
0.0011599 0.000409476 1.05789e-05
0.000409476 -6.24896e-05 1.68956e-05
1.05789e-05 1.68956e-05 -0.000209015
0.0021539 0.000520913 -3.08974e-06
0.000520913 0.00038639 1.69754e-07
-3.08974e-06 1.69754e-07 0.000194493
0.00196563 0.000463241 -1.12194e-05
0.000463241 0.000180294 1.56967e-06
-1.12194e-05 1.56967e-06 1.89587e-05
0.000678886 0.000229123 1.50269e-05
0.000229123 -0.000490854 7.61229e-06
1.50269e-05 7.61229e-06 -0.000529167
0.00106143 0.000411756 9.96508e-06
0.000411756 -0.000173717 -8.20213e-08
9.96508e-06 -8.20213e-08 -0.000302094
0.00112632 0.000473411 -8.49976e-06
0.000473411 -0.000149005 -8.25492e-06
-8.49976e-06 -8.25492e-06 -0.000324128
0.00177344 0.000370254 3.49508e-06
0.000370254 -7.1629e-05 6.35103e-06
3.49508e-06 6.35103e-06 -6.16309e-05
0.00539694 0.000498909 3.04655e-05
0.000498909 5.35763e-05 -1.7289e-05
3.04655e-05 -1.7289e-05 -5.38607e-05
0.00270272 0.000642883 9.72167e-06
0.000642883 0.000623561 -2.85968e-05
9.72167e-06 -2.85968e-05 0.000574386
0.00149372 -4.14249e-05 2.33554e-05
-4.14249e-05 -4.02083e-06 -2.54861e-06
2.33554e-05 -2.54861e-06 -8.57353e-06
0.00214666 -0.000126054 -2.57172e-05
-0.000126054 4.41168e-06 -1.43141e-07
-2.57172e-05 -1.43141e-07 -1.2605e-05
0.00146769 0.000165507 2.93296e-05
0.000165507 -0.000591845 -6.38072e-06
2.93296e-05 -6.38072e-06 -0.000789039
0.000255483 -0.000197061 -3.0298e-05
-0.000197061 -0.0010259 2.28054e-05
-3.0298e-05 2.28054e-05 -0.000909814
0.00324809 -0.000204859 -9.25939e-05
-0.000204859 0.000549269 -1.05834e-06
-9.25939e-05 -1.05834e-06 0.000535419
0.00189298 -0.00019233 3.33357e-06
-0.00019233 -0.000118916 -2.70761e-06
3.33357e-06 -2.70761e-06 6.85196e-07
0.00231837 -6.5137e-05 -8.93325e-06
-6.5137e-05 0.000390701 3.20202e-07
-8.93325e-06 3.20202e-07 0.000354625
0.00202253 -0.000181144 3.08104e-06
-0.000181144 1.29743e-06 1.48839e-06
3.08104e-06 1.48839e-06 1.90243e-05
0.00208025 -2.5574e-05 4.44211e-06
-2.5574e-05 8.24166e-05 1.16012e-07
4.44211e-06 1.16012e-07 6.40718e-05
0.00175921 -0.00026922 -7.37119e-06
-0.00026922 -0.000258129 2.8421e-06
-7.37119e-06 2.8421e-06 -0.000173896
0.00198277 -0.000250538 -1.86098e-06
-0.000250538 -2.41186e-05 2.28849e-08
-1.86098e-06 2.28849e-08 2.0461e-05
0.00196899 -0.000199822 -2.12554e-06
-0.000199822 1.81224e-05 -1.11064e-07
-2.12554e-06 -1.11064e-07 -2.5402e-06
0.00190581 -0.000286559 -1.69088e-06
-0.000286559 3.78168e-05 -7.67723e-07
-1.69088e-06 -7.67723e-07 -1.56534e-06
0.00185489 -0.000246472 2.67306e-07
-0.000246472 5.58655e-05 -1.29437e-07
2.67306e-07 -1.29437e-07 -5.43458e-06
0.00191766 -0.000219154 -9.87201e-07
-0.000219154 0.000120386 4.18908e-07
-9.87201e-07 4.18908e-07 3.82394e-05
0.00175592 -0.000272263 -1.67669e-06
-0.000272263 4.85786e-05 -9.33766e-07
-1.67669e-06 -9.33766e-07 -3.69833e-05
0.00177094 -0.000239014 3.9031e-07
-0.000239014 9.54809e-05 -1.3446e-07
3.9031e-07 -1.3446e-07 -3.21825e-06
0.00176167 -0.000224853 1.4519e-06
-0.000224853 0.000104756 -1.00746e-06
1.4519e-06 -1.00746e-06 -1.21885e-05
0.00176152 -0.000265252 -1.56512e-06
-0.000265252 0.000123265 1.56779e-07
-1.56512e-06 1.56779e-07 9.73878e-06
0.00175872 -0.000250538 -3.11875e-08
-0.000250538 0.00014233 -3.12525e-07
-3.11875e-08 -3.12525e-07 8.68903e-06
0.00163073 -0.000221597 -2.8975e-07
-0.000221597 0.000129283 -9.00163e-07
-2.8975e-07 -9.00163e-07 -2.58377e-05
0.00191494 -0.000267627 -1.83643e-06
-0.000267627 0.000263093 3.40751e-06
-1.83643e-06 3.40751e-06 0.000117757
0.00167337 -0.000241508 -6.44314e-07
-0.000241508 0.000184147 -8.31559e-08
-6.44314e-07 -8.31559e-08 1.88247e-05
0.00131219 -0.000185575 -6.45874e-06
-0.000185575 7.92015e-05 1.9579e-06
-6.45874e-06 1.9579e-06 -8.50856e-05
0.00163947 -0.000266637 4.39175e-06
-0.000266637 0.000193037 -3.53577e-08
4.39175e-06 -3.53577e-08 1.07568e-05
0.00126408 -0.000204364 -1.05083e-07
-0.000204364 7.11607e-05 -6.21723e-08
-1.05083e-07 -6.21723e-08 -0.000100139
0.000982002 -0.000153765 -1.26312e-05
-0.000153765 1.26563e-05 5.99088e-06
-1.26312e-05 5.99088e-06 -0.000129792
0.000452843 -0.000162421 -1.99091e-05
-0.000162421 -0.000142791 1.32901e-05
-1.99091e-05 1.32901e-05 -0.000235144
0.000936651 -0.000167479 2.14536e-07
-0.000167479 9.27376e-06 -3.08368e-08
2.14536e-07 -3.08368e-08 -0.00014036
0.00127607 -0.000228214 5.51758e-06
-0.000228214 0.000114752 -1.80906e-06
5.51758e-06 -1.80906e-06 -6.81205e-05
0.00536544 0.000131754 -0.000164134
0.000131754 0.0028437 8.82461e-06
-0.000164134 8.82461e-06 0.00283274
0.000560039 -0.000163753 -2.0003e-06
-0.000163753 -7.56577e-05 6.04401e-07
-2.0003e-06 6.04401e-07 -0.000164083
0.000844602 -0.000172783 1.02286e-05
-0.000172783 -7.1233e-07 -5.61057e-06
1.02286e-05 -5.61057e-06 -0.000158655
0.00509576 0.000152337 7.08611e-06
0.000152337 0.00269561 7.21943e-07
7.08611e-06 7.21943e-07 0.0026803
0.000693251 -0.000147635 2.04403e-05
-0.000147635 1.75759e-05 -1.38598e-05
2.04403e-05 -1.38598e-05 -6.64157e-05
0.00470712 0.000124585 0.000152771
0.000124585 0.00245906 -9.42444e-06
0.000152771 -9.42444e-06 0.00245169
0.00135422 0.000297699 -3.19267e-06
0.000297699 0.000131777 1.10052e-06
-3.19267e-06 1.10052e-06 -7.83864e-05
0.00113681 0.00027014 4.6907e-07
0.00027014 5.6208e-05 4.38782e-07
4.6907e-07 4.38782e-07 -0.000162
0.00109303 0.000226388 -6.79236e-06
0.000226388 9.67022e-05 -1.62168e-06
-6.79236e-06 -1.62168e-06 -9.83115e-05
0.000884244 0.000229941 -5.85223e-07
0.000229941 2.24463e-05 2.99523e-06
-5.85223e-07 2.99523e-06 -0.000191507
0.00103964 0.000212614 -1.65817e-06
0.000212614 0.000169777 8.58508e-07
-1.65817e-06 8.58508e-07 -2.55446e-05
0.000891207 0.000169436 -6.33761e-06
0.000169436 0.000146355 -5.51843e-06
-6.33761e-06 -5.51843e-06 -1.32554e-05
0.00105385 0.000177461 -6.25957e-07
0.000177461 0.000252775 8.92113e-07
-6.25957e-07 8.92113e-07 8.0482e-05
0.000732994 0.0001066 -9.83839e-08
0.0001066 9.34938e-05 -4.13928e-07
-9.83839e-08 -4.13928e-07 -4.14366e-05
0.000702721 3.62301e-05 -1.03933e-05
3.62301e-05 6.57346e-05 -1.12401e-05
-1.03933e-05 -1.12401e-05 7.6927e-06
0.000593831 2.80539e-06 1.24274e-06
2.80539e-06 6.35646e-06 4.07888e-06
1.24274e-06 4.07888e-06 -9.57175e-05
0.000505478 -2.18298e-05 -1.27893e-07
-2.18298e-05 -3.94451e-05 -2.68606e-07
-1.27893e-07 -2.68606e-07 -8.51142e-05
0.00340997 -0.000130297 -9.72613e-05
-0.000130297 0.00170126 -2.85555e-06
-9.72613e-05 -2.85555e-06 0.00169808
0.000460228 -3.42409e-05 2.44742e-06
-3.42409e-05 -6.64896e-05 7.88017e-06
2.44742e-06 7.88017e-06 -0.000106102
0.00304743 -0.000135574 -3.08054e-06
-0.000135574 0.00148248 3.53859e-07
-3.08054e-06 3.53859e-07 0.0014783
0.00289041 -0.000122578 5.27629e-05
-0.000122578 0.00138068 3.14093e-06
5.27629e-05 3.14093e-06 0.00137958
0.000579923 5.79509e-05 1.81236e-05
5.79509e-05 -0.000556493 -2.66635e-06
1.81236e-05 -2.66635e-06 -0.000519758
0.00201985 2.48764e-05 -7.11032e-06
2.48764e-05 -0.000223036 -1.22414e-06
-7.11032e-06 -1.22414e-06 -0.000138362
0.00424879 3.64113e-05 0.00013992
3.64113e-05 -0.000275174 4.06449e-05
0.00013992 4.06449e-05 0.000137895
0.0021145 0.000432041 -1.96506e-06
0.000432041 0.000379042 9.41514e-07
-1.96506e-06 9.41514e-07 0.000177883
0.00124245 0.000358089 2.21537e-07
0.000358089 2.63726e-05 -2.19816e-06
2.21537e-07 -2.19816e-06 -0.000187526
0.00194771 0.000356486 -2.48951e-07
0.000356486 0.000244094 3.19258e-06
-2.48951e-07 3.19258e-06 6.41803e-05
0.00172426 0.000372288 8.19578e-07
0.000372288 0.000240773 2.42788e-07
8.19578e-07 2.42788e-07 3.09491e-05
0.00115044 0.000326961 1.23671e-06
0.000326961 1.71462e-05 -4.89668e-06
1.23671e-06 -4.89668e-06 -0.000214632
0.00183738 0.0003822 -2.11105e-06
0.0003822 8.82253e-05 1.50793e-06
-2.11105e-06 1.50793e-06 -7.14973e-05
0.00204881 0.000424025 -3.58878e-06
0.000424025 0.000583839 -1.31471e-06
-3.58878e-06 -1.31471e-06 0.000363635
0.0019833 0.000469147 -3.44543e-08
0.000469147 0.000292557 -5.84405e-07
-3.44543e-08 -5.84405e-07 9.11737e-05
0.00179255 0.000271878 -4.67269e-06
0.000271878 -1.52227e-05 3.59437e-08
-4.67269e-06 3.59437e-08 -0.000114246
0.00265008 0.000556528 4.50748e-06
0.000556528 0.000659975 2.74074e-06
4.50748e-06 2.74074e-06 0.000466325
0.00193093 0.000462878 -1.6078e-06
0.000462878 0.000152862 1.36876e-07
-1.6078e-06 1.36876e-07 -1.07905e-05
0.000872191 0.000242944 3.88272e-06
0.000242944 -0.000350439 2.8658e-06
3.88272e-06 2.8658e-06 -0.000399193
-0.000258092 0.00032078 -1.31021e-06
0.00032078 -0.000851935 -4.32846e-06
-1.31021e-06 -4.32846e-06 -0.000972988
0.00195036 0.00037928 -5.06136e-05
0.00037928 7.95252e-06 -2.42928e-05
-5.06136e-05 -2.42928e-05 -1.10561e-05
0.00183522 3.9692e-05 6.78259e-07
3.9692e-05 -6.18855e-05 -1.98446e-06
6.78259e-07 -1.98446e-06 -7.26212e-05
0.00215312 -3.37058e-05 9.45675e-07
-3.37058e-05 0.000397763 2.42274e-06
9.45675e-07 2.42274e-06 0.000396477
0.00160936 -4.49474e-05 -5.72359e-05
-4.49474e-05 -0.000195257 -3.88933e-06
-5.72359e-05 -3.88933e-06 -0.000289317
0.00225425 -0.000221119 -3.23204e-05
-0.000221119 0.000124288 1.69086e-06
-3.23204e-05 1.69086e-06 0.000227344
0.00135228 -7.37455e-05 -7.57132e-06
-7.37455e-05 -0.000211065 5.90938e-07
-7.57132e-06 5.90938e-07 -0.000241839
0.0019662 -0.000174605 1.40099e-07
-0.000174605 -3.25927e-05 -6.34528e-07
1.40099e-07 -6.34528e-07 -5.10119e-06
0.0020789 -2.65682e-05 -3.22904e-06
-2.65682e-05 6.0739e-05 1.12458e-06
-3.22904e-06 1.12458e-06 4.83767e-05
0.0020625 -6.458e-05 -4.11698e-06
-6.458e-05 4.21683e-05 -2.45859e-07
-4.11698e-06 -2.45859e-07 3.56992e-05
0.00199442 -0.000246224 -3.73597e-06
-0.000246224 -4.66973e-06 -2.13351e-07
-3.73597e-06 -2.13351e-07 2.95617e-05
0.00195452 -0.000191647 4.71423e-07
-0.000191647 2.09424e-05 -2.17695e-07
4.71423e-07 -2.17695e-07 -1.4047e-06
0.00204886 -0.0001588 -1.16483e-06
-0.0001588 0.000113125 -2.95038e-07
-1.16483e-06 -2.95038e-07 6.77918e-05
0.00178992 -0.000242143 7.94658e-07
-0.000242143 2.7058e-05 -1.16733e-06
7.94658e-07 -1.16733e-06 -3.92647e-05
0.00183189 -0.000214979 8.05792e-08
-0.000214979 7.47681e-05 -7.61183e-08
8.05792e-08 -7.61183e-08 -8.9802e-06
0.00176154 -0.00018091 7.5917e-07
-0.00018091 6.61927e-05 -4.17947e-07
7.5917e-07 -4.17947e-07 -3.46509e-05
0.00181148 -0.000240127 1.90161e-07
-0.000240127 0.000114984 -4.66233e-07
1.90161e-07 -4.66233e-07 1.61503e-05
0.00178743 -0.000224968 1.83349e-08
-0.000224968 0.000121279 -2.1815e-07
1.83349e-08 -2.1815e-07 4.33728e-06
0.00168345 -0.000198894 6.93679e-07
-0.000198894 0.000122523 -7.68676e-07
6.93679e-07 -7.68676e-07 -1.98518e-05
0.00178606 -0.000251192 -1.30054e-06
-0.000251192 0.000158936 1.25505e-06
-1.30054e-06 1.25505e-06 2.52885e-05
0.00165355 -0.000222249 -2.95482e-07
-0.000222249 0.000142654 -4.6958e-08
-2.95482e-07 -4.6958e-08 -1.21458e-05
0.00135724 -0.000169277 -5.0581e-06
-0.000169277 8.53137e-05 1.51856e-06
-5.0581e-06 1.51856e-06 -7.39487e-05
0.00168556 -0.000242501 1.10465e-06
-0.000242501 0.00019183 9.08449e-07
1.10465e-06 9.08449e-07 2.76015e-05
0.00132611 -0.000186372 -1.60184e-07
-0.000186372 8.57941e-05 7.24022e-08
-1.60184e-07 7.24022e-08 -7.83074e-05
0.000984808 -0.000135693 -1.32352e-05
-0.000135693 -6.691e-07 5.52756e-06
-1.32352e-05 5.52756e-06 -0.00013845
0.00123823 -0.000204279 6.3499e-06
-0.000204279 5.55922e-05 -1.81064e-06
6.3499e-06 -1.81064e-06 -0.000116035
0.00097737 -0.000151988 2.5365e-07
-0.000151988 9.3582e-06 5.95568e-08
2.5365e-07 5.95568e-08 -0.000132716
0.00240798 -0.000108264 -2.82424e-05
-0.000108264 0.00100331 8.31854e-06
-2.82424e-05 8.31854e-06 0.000926603
0.00168163 -4.54372e-05 -0.000176624
-4.54372e-05 0.000639593 1.90342e-05
-0.000176624 1.90342e-05 0.000621733
0.0015281 -0.000143992 -4.91969e-06
-0.000143992 0.000488466 -3.36325e-07
-4.91969e-06 -3.36325e-07 0.000401704
0.000920238 -0.000165802 1.14242e-05
-0.000165802 1.89144e-07 -5.73473e-06
1.14242e-05 -5.73473e-06 -0.000149324
0.00546731 0.000114421 -5.73285e-06
0.000114421 0.00290947 -7.7824e-07
-5.73285e-06 -7.7824e-07 0.00289568
0.000623988 -0.00018396 2.22658e-05
-0.00018396 -3.75115e-05 -1.37711e-05
2.22658e-05 -1.37711e-05 -0.000129696
0.00525247 0.000132261 0.00016737
0.000132261 0.00279113 -1.36418e-05
0.00016737 -1.36418e-05 0.00277417
0.00191489 0.000284937 9.19432e-07
0.000284937 0.000192131 5.17727e-07
9.19432e-07 5.17727e-07 3.63823e-05
0.00162034 0.000309978 9.43805e-07
0.000309978 0.000177899 2.63532e-06
9.43805e-07 2.63532e-06 -1.51669e-05
0.00154025 0.000316877 -1.48655e-07
0.000316877 0.000233916 -5.7458e-08
-1.48655e-07 -5.7458e-08 2.13854e-05
0.00123454 0.00023736 -6.64449e-06
0.00023736 0.000108621 -1.96767e-06
-6.64449e-06 -1.96767e-06 -7.95607e-05
0.00109719 0.000266622 5.14722e-06
0.000266622 3.22107e-05 5.22414e-07
5.14722e-06 5.22414e-07 -0.000184972
0.00111795 0.00022793 -4.82272e-07
0.00022793 0.000111889 3.43419e-07
-4.82272e-07 3.43419e-07 -8.31993e-05
0.000819477 0.000171241 -9.26224e-06
0.000171241 2.53771e-05 -4.7285e-06
-9.26224e-06 -4.7285e-06 -0.000135551
0.00110428 0.000217092 1.84301e-06
0.000217092 0.000210277 4.51686e-06
1.84301e-06 4.51686e-06 1.40454e-05
0.00080374 0.000155178 -4.78553e-07
0.000155178 9.60641e-05 4.467e-07
-4.78553e-07 4.467e-07 -6.13627e-05
0.000772394 0.000117296 -1.72895e-05
0.000117296 9.02862e-05 -1.33891e-05
-1.72895e-05 -1.33891e-05 1.35023e-05
0.000611778 7.76452e-05 1.94191e-06
7.76452e-05 2.01514e-05 4.03943e-06
1.94191e-06 4.03943e-06 -0.000108363
0.000525805 2.37217e-05 -9.44482e-07
2.37217e-05 -3.49282e-05 -5.58155e-07
-9.44482e-07 -5.58155e-07 -9.03531e-05
0.00394201 -0.000124692 -0.000128449
-0.000124692 0.00201937 -5.6694e-06
-0.000128449 -5.6694e-06 0.00201407
0.000409217 -2.96969e-05 2.55813e-06
-2.96969e-05 -9.25192e-05 8.85713e-06
2.55813e-06 8.85713e-06 -0.000138658
0.00329413 -0.000147092 -4.16089e-06
-0.000147092 0.00163582 3.70601e-07
-4.16089e-06 3.70601e-07 0.00162842
0.00300202 -0.000137072 5.97136e-05
-0.000137072 0.00145564 2.52967e-06
5.97136e-05 2.52967e-06 0.00145083
0.00185826 0.000148142 4.04886e-07
0.000148142 -4.0695e-05 -8.6737e-07
4.04886e-07 -8.6737e-07 -8.2669e-05
0.00192672 4.64704e-05 1.55455e-05
4.64704e-05 0.00015292 1.32399e-06
1.55455e-05 1.32399e-06 0.000178668
0.00420444 1.34145e-05 -9.37453e-05
1.34145e-05 0.000725149 -1.27167e-05
-9.37453e-05 -1.27167e-05 0.000843971
0.00175451 0.000330276 -2.53368e-06
0.000330276 5.97898e-05 1.32118e-06
-2.53368e-06 1.32118e-06 -9.48694e-05
0.0018021 0.000405891 -1.4889e-06
0.000405891 0.00021498 -1.08959e-07
-1.4889e-06 -1.08959e-07 1.59826e-05
0.00150897 0.00039912 -1.42267e-05
0.00039912 0.000169247 -6.99133e-06
-1.42267e-05 -6.99133e-06 -4.96369e-05
0.00198331 0.000347461 2.57809e-06
0.000347461 0.000273432 8.97981e-07
2.57809e-06 8.97981e-07 9.57147e-05
0.00174056 0.000371804 -1.34328e-06
0.000371804 0.000250459 -2.36141e-06
-1.34328e-06 -2.36141e-06 4.10604e-05
0.0021614 0.000270015 1.36973e-06
0.000270015 0.000205517 1.05594e-06
1.36973e-06 1.05594e-06 0.000104208
0.0017131 0.000375896 -1.19661e-06
0.000375896 3.23909e-05 7.94144e-07
-1.19661e-06 7.94144e-07 -0.000127979
0.00218936 0.000478158 -1.3678e-07
0.000478158 0.000418535 -5.93758e-07
-1.3678e-07 -5.93758e-07 0.000214706
0.00180029 0.00027734 -9.81825e-07
0.00027734 -3.43824e-06 -9.41579e-10
-9.81825e-07 -9.41579e-10 -0.000104431
0.00204025 0.00047242 1.75448e-05
0.00047242 0.000194483 1.56258e-06
1.75448e-05 1.56258e-06 2.75863e-05
0.00130273 0.000256662 -2.43987e-05
0.000256662 -9.40671e-05 -5.36847e-06
-2.43987e-05 -5.36847e-06 -0.000151959
0.00201206 4.94478e-05 -4.35648e-06
4.94478e-05 3.74552e-05 -2.5297e-07
-4.35648e-06 -2.5297e-07 1.66267e-05
0.0019307 5.0675e-05 -2.37433e-06
5.0675e-05 -6.95311e-07 3.35896e-07
-2.37433e-06 3.35896e-07 -1.51318e-05
0.00285974 -2.20317e-05 -3.88738e-05
-2.20317e-05 0.000833841 7.32667e-07
-3.88738e-05 7.32667e-07 0.000826852
0.00188905 -0.000166502 -8.00513e-06
-0.000166502 -8.36878e-05 -1.5109e-06
-8.00513e-06 -1.5109e-06 -4.65065e-05
0.00197501 -2.6293e-05 3.00054e-06
-2.6293e-05 -2.35448e-05 -5.60257e-07
3.00054e-06 -5.60257e-07 -3.19282e-05
0.00202947 -6.89534e-05 -3.88429e-07
-6.89534e-05 7.80577e-06 8.17675e-08
-3.88429e-07 8.17675e-08 6.41178e-06
0.00192376 -5.00407e-05 -2.14527e-06
-5.00407e-05 4.86749e-05 -7.97049e-08
-2.14527e-06 -7.97049e-08 1.75101e-05
0.00193708 -0.000182361 2.55306e-06
-0.000182361 2.31313e-05 -3.54293e-07
2.55306e-06 -3.54293e-07 -4.68071e-07
0.00190418 -0.000157523 3.72216e-07
-0.000157523 3.95332e-05 -2.18422e-08
3.72216e-07 -2.18422e-08 -1.11361e-05
0.00181608 -0.000123214 2.84909e-06
-0.000123214 7.168e-05 -1.34679e-06
2.84909e-06 -1.34679e-06 -1.54014e-05
0.0017451 -0.000210655 1.2308e-06
-0.000210655 2.90129e-05 -2.45249e-07
1.2308e-06 -2.45249e-07 -5.6338e-05
0.00181468 -0.000182921 -2.71242e-09
-0.000182921 9.41545e-05 -3.31457e-08
-2.71242e-09 -3.31457e-08 -6.78738e-06
0.0017617 -0.000165712 9.42264e-07
-0.000165712 0.000126907 -6.04923e-07
9.42264e-07 -6.04923e-07 -2.75081e-06
0.00181301 -0.000224942 -7.95605e-07
-0.000224942 0.000137955 4.82271e-07
-7.95605e-07 4.82271e-07 2.10434e-05
0.00170665 -0.000199328 -2.45674e-07
-0.000199328 0.000136042 -3.63309e-08
-2.45674e-07 -3.63309e-08 -6.09749e-06
0.00139778 -0.000148551 -3.9957e-06
-0.000148551 8.59351e-05 1.05205e-06
-3.9957e-06 1.05205e-06 -6.72866e-05
0.00167666 -0.000222934 -1.32357e-07
-0.000222934 0.000156287 7.47567e-07
-1.32357e-07 7.47567e-07 1.80422e-06
0.00136437 -0.000169435 -1.26041e-07
-0.000169435 8.74372e-05 8.65855e-08
-1.26041e-07 8.65855e-08 -7.14979e-05
0.000983173 -0.00011897 -1.30735e-05
-0.00011897 -1.13338e-05 4.83374e-06
-1.30735e-05 4.83374e-06 -0.000146963
0.0013427 -0.000187364 5.64503e-06
-0.000187364 9.38698e-05 -1.63837e-06
5.64503e-06 -1.63837e-06 -7.00686e-05
0.000993092 -0.000134195 1.63766e-07
-0.000134195 2.79876e-06 9.65626e-08
1.63766e-07 9.65626e-08 -0.000134441
0.00246286 -0.000116058 -3.59653e-05
-0.000116058 0.00102129 7.55744e-06
-3.59653e-05 7.55744e-06 0.000951789
0.000963886 -0.000149927 1.26407e-05
-0.000149927 1.04623e-06 -5.76448e-06
1.26407e-05 -5.76448e-06 -0.000140661
0.00257452 -0.000154101 3.69712e-05
-0.000154101 0.00109601 -4.60483e-06
3.69712e-05 -4.60483e-06 0.00102554
0.00175422 -8.5623e-05 -0.000181
-8.5623e-05 0.000688756 2.329e-05
-0.000181 2.329e-05 0.000669384
0.00355084 -1.46549e-05 -0.00017797
-1.46549e-05 0.00176533 1.09279e-05
-0.00017797 1.09279e-05 0.00175149
0.00266474 -0.000205878 0.000112781
-0.000205878 0.00115426 -1.52556e-05
0.000112781 -1.52556e-05 0.00108625
0.00555645 0.000100787 0.000177986
0.000100787 0.00297152 -1.73953e-05
0.000177986 -1.73953e-05 0.00295308
0.00205386 0.000283588 -1.71262e-06
0.000283588 0.000246717 -6.7507e-07
-1.71262e-06 -6.7507e-07 0.000105503
0.00155776 0.000255659 2.67842e-06
0.000255659 8.63459e-05 9.84038e-07
2.67842e-06 9.84038e-07 -8.32761e-05
0.0019054 0.000284356 4.21371e-07
0.000284356 0.000183388 -1.13587e-06
4.21371e-07 -1.13587e-06 3.17402e-05
0.0012765 0.000227968 -6.39284e-06
0.000227968 8.3006e-05 -1.31785e-06
-6.39284e-06 -1.31785e-06 -9.62882e-05
0.00168344 0.000311912 5.56904e-07
0.000311912 0.000207044 4.32997e-07
5.56904e-07 4.32997e-07 1.33481e-05
0.00174183 0.000337702 2.63912e-06
0.000337702 0.000344299 -6.95844e-07
2.63912e-06 -6.95844e-07 0.00012917
0.00119868 0.000232363 8.12603e-08
0.000232363 9.23969e-05 -7.08148e-08
8.12603e-08 -7.08148e-08 -9.47033e-05
0.000899257 0.000171362 -1.0807e-05
0.000171362 7.10697e-06 -5.71679e-06
-1.0807e-05 -5.71679e-06 -0.000146937
0.00114045 0.000229468 6.44381e-06
0.000229468 0.000125198 2.55481e-06
6.44381e-06 2.55481e-06 -6.99795e-05
0.0008432 0.0001678 -6.55668e-07
0.0001678 3.6398e-05 6.35573e-07
-6.55668e-07 6.35573e-07 -0.000123776
0.000653916 0.000171047 -2.17154e-05
0.000171047 -3.68573e-07 -1.36635e-05
-2.17154e-05 -1.36635e-05 -9.02208e-05
0.000689031 0.000137597 3.65874e-06
0.000137597 3.00322e-05 5.85105e-06
3.65874e-06 5.85105e-06 -0.000124731
0.000546346 9.07491e-05 -7.36038e-07
9.07491e-05 -3.88526e-05 -3.51835e-08
-7.36038e-07 -3.51835e-08 -0.000110823
0.00476597 -0.000119306 -0.000161056
-0.000119306 0.00251355 -1.13437e-05
-0.000161056 -1.13437e-05 0.00250036
0.000344945 -1.95663e-06 4.90349e-06
-1.95663e-06 -0.000134237 1.02879e-05
4.90349e-06 1.02879e-05 -0.000189095
0.00377039 -0.000159549 -7.42466e-06
-0.000159549 0.00192522 4.95579e-07
-7.42466e-06 4.95579e-07 0.00191318
0.00320551 -0.000153346 6.86643e-05
-0.000153346 0.00158451 2.02074e-06
6.86643e-05 2.02074e-06 0.00157532
0.00189364 0.000158476 -8.46702e-07
0.000158476 -6.24704e-06 5.1175e-07
-8.46702e-07 5.1175e-07 -6.59837e-05
0.00184075 0.000147637 6.9465e-07
0.000147637 -4.95274e-05 -2.21665e-07
6.9465e-07 -2.21665e-07 -9.16486e-05
0.00294657 3.65065e-05 -6.36697e-05
3.65065e-05 0.000693833 -5.46349e-06
-6.36697e-05 -5.46349e-06 0.0007182
0.00201067 0.000240595 1.36464e-06
0.000240595 0.000153017 9.91356e-07
1.36464e-06 9.91356e-07 4.25359e-05
0.00176225 0.000325857 -5.86764e-07
0.000325857 7.97699e-05 2.95131e-07
-5.86764e-07 2.95131e-07 -7.43079e-05
0.00149488 0.000380341 -5.01974e-07
0.000380341 5.23631e-05 -2.23536e-06
-5.01974e-07 -2.23536e-06 -0.000144601
0.00202146 0.000338212 -7.11465e-07
0.000338212 0.000304838 -2.34762e-06
-7.11465e-07 -2.34762e-06 0.000129402
0.00201665 0.000261104 -1.10889e-06
0.000261104 0.00012263 -2.24151e-07
-1.10889e-06 -2.24151e-07 2.10283e-05
0.00160006 0.000369739 -6.65551e-07
0.000369739 -1.75749e-05 -2.51321e-07
-6.65551e-07 -2.51321e-07 -0.000178526
0.00180384 0.000279616 7.03239e-06
0.000279616 1.79941e-05 -5.61336e-07
7.03239e-06 -5.61336e-07 -8.42423e-05
0.0019079 4.60004e-05 -1.34104e-06
4.60004e-05 3.26803e-05 3.04751e-07
-1.34104e-06 3.04751e-07 -4.36576e-06
0.0019717 4.92282e-05 5.61533e-07
4.92282e-05 2.25169e-05 -2.29727e-08
5.61533e-07 -2.29727e-08 -9.01497e-07
0.00198589 6.07734e-05 -6.2096e-06
6.07734e-05 3.3807e-05 4.91967e-07
-6.2096e-06 4.91967e-07 1.77414e-05
0.00157212 -1.08291e-05 -2.54755e-06
-1.08291e-05 -0.000112621 2.82364e-08
-2.54755e-06 2.82364e-08 -0.000161178
0.00199492 -7.75339e-05 4.35442e-06
-7.75339e-05 -2.71993e-05 -3.98696e-07
4.35442e-06 -3.98696e-07 -2.38677e-05
0.00190008 -5.24841e-05 -9.91929e-07
-5.24841e-05 3.37456e-05 4.60154e-07
-9.91929e-07 4.60154e-07 1.88384e-06
0.00187682 -6.67371e-05 -6.67764e-07
-6.67371e-05 0.000103727 -7.24102e-07
-6.67764e-07 -7.24102e-07 2.92839e-05
0.00176307 -0.000156315 2.65071e-06
-0.000156315 -3.22138e-05 -3.26963e-07
2.65071e-06 -3.26963e-07 -8.84373e-05
0.00184549 -0.00012429 2.23529e-06
-0.00012429 8.13191e-05 -7.02787e-07
2.23529e-06 -7.02787e-07 -5.51739e-06
0.00181319 -0.000116577 2.45237e-06
-0.000116577 0.000133246 -1.33275e-06
2.45237e-06 -1.33275e-06 1.54737e-05
0.00187406 -0.000184578 -5.67733e-07
-0.000184578 0.000125829 3.46618e-07
-5.67733e-07 3.46618e-07 2.48708e-05
0.00176607 -0.000164192 -1.19773e-07
-0.000164192 0.000131715 -3.94494e-08
-1.19773e-07 -3.94494e-08 2.37873e-06
0.00143723 -0.000120727 -3.19247e-06
-0.000120727 8.43747e-05 5.61134e-07
-3.19247e-06 5.61134e-07 -6.12942e-05
0.00172807 -0.00019959 -7.3428e-07
-0.00019959 0.000148723 6.14037e-07
-7.3428e-07 6.14037e-07 6.83861e-06
0.00139607 -0.000148068 -1.43558e-07
-0.000148068 8.25764e-05 1.38185e-07
-1.43558e-07 1.38185e-07 -7.02966e-05
0.000993272 -0.000101493 -1.26963e-05
-0.000101493 -1.54218e-05 3.91948e-06
-1.26963e-05 3.91948e-06 -0.000149002
0.00136923 -0.000169415 4.51824e-06
-0.000169415 8.82986e-05 -1.27546e-06
4.51824e-06 -1.27546e-06 -7.02852e-05
0.00100221 -0.000117441 1.94228e-08
-0.000117441 -2.02767e-06 1.97165e-07
1.94228e-08 1.97165e-07 -0.000136968
0.00249822 -0.000125457 -4.37367e-05
-0.000125457 0.00103553 7.28857e-06
-4.37367e-05 7.28857e-06 0.000968386
0.000998955 -0.000132666 1.3221e-05
-0.000132666 4.72379e-06 -5.38414e-06
1.3221e-05 -5.38414e-06 -0.00013194
0.00256789 -0.000147468 3.37069e-05
-0.000147468 0.00108131 -3.8753e-06
3.37069e-05 -3.8753e-06 0.00101602
0.00180641 -7.47177e-05 -0.000177457
-7.47177e-05 0.000714415 2.08877e-05
-0.000177457 2.08877e-05 0.000696003
0.00271714 -0.000171838 0.000112205
-0.000171838 0.00117588 -1.73124e-05
0.000112205 -1.73124e-05 0.00111041
0.00153046 -2.23608e-05 -8.14141e-05
-2.23608e-05 0.000563713 9.04688e-06
-8.14141e-05 9.04688e-06 0.000534781
0.00529016 0.000183265 2.69124e-05
0.000183265 0.00280602 -2.38437e-06
2.69124e-05 -2.38437e-06 0.00277603
0.00185933 0.000229949 7.29217e-07
0.000229949 0.000117171 3.54144e-07
7.29217e-07 3.54144e-07 -1.30319e-05
0.00182719 0.000252705 -1.15004e-08
0.000252705 0.000200391 -6.3205e-07
-1.15004e-08 -6.3205e-07 4.49716e-05
0.00191539 0.000277866 -3.30147e-06
0.000277866 0.000163114 7.21383e-08
-3.30147e-06 7.21383e-08 2.00519e-05
0.00167735 0.000225667 -3.75496e-06
0.000225667 0.000284992 -8.11541e-07
-3.75496e-06 -8.11541e-07 0.000117523
0.00159543 0.000262808 5.47995e-07
0.000262808 0.000101514 -1.22542e-06
5.47995e-07 -1.22542e-06 -6.66501e-05
0.00189593 0.000283894 -2.71317e-06
0.000283894 0.000174612 -3.32556e-06
-2.71317e-06 -3.32556e-06 2.70796e-05
0.000972648 0.000166053 -1.27155e-05
0.000166053 1.15937e-05 -5.44732e-06
-1.27155e-05 -5.44732e-06 -0.000136557
0.00125935 0.000226242 1.45351e-09
0.000226242 7.43378e-05 2.81722e-07
1.45351e-09 2.81722e-07 -0.000104876
0.00174505 0.000313798 2.90886e-06
0.000313798 0.0002343 -1.41117e-06
2.90886e-06 -1.41117e-06 3.99573e-05
0.00114702 0.000226023 7.36967e-06
0.000226023 6.76803e-05 2.07409e-06
7.36967e-06 2.07409e-06 -0.000118133
0.000890502 0.000170529 -3.19957e-07
0.000170529 1.41342e-06 -3.14183e-07
-3.19957e-07 -3.14183e-07 -0.000152341
0.000591423 0.000202441 -2.43632e-05
0.000202441 -5.20592e-05 -1.36005e-05
-2.43632e-05 -1.36005e-05 -0.0001462
0.000853718 0.000165057 8.18436e-06
0.000165057 3.99693e-05 5.85213e-06
8.18436e-06 5.85213e-06 -0.000119526
0.000569579 0.000163501 1.22639e-06
0.000163501 -4.67122e-05 5.04434e-07
1.22639e-06 5.04434e-07 -0.000135102
0.00541283 -0.000125372 -0.000168652
-0.000125372 0.00291606 -1.85099e-05
-0.000168652 -1.85099e-05 0.0028857
0.000371696 7.54868e-05 1.21881e-05
7.54868e-05 -0.000139605 1.25895e-05
1.21881e-05 1.25895e-05 -0.000206973
0.00449318 -0.000174314 -1.28548e-05
-0.000174314 0.00236272 1.20627e-06
-1.28548e-05 1.20627e-06 0.00234219
0.00357766 -0.000173394 8.25529e-05
-0.000173394 0.00181383 2.12001e-06
8.25529e-05 2.12001e-06 0.00179868
0.00186228 0.000128576 -5.62356e-07
0.000128576 3.10617e-05 1.63583e-06
-5.62356e-07 1.63583e-06 -4.18766e-05
0.00192468 0.000162045 7.92169e-07
0.000162045 7.14651e-06 2.98654e-07
7.92169e-07 2.98654e-07 -5.04354e-05
0.00185185 0.000153105 4.61519e-07
0.000153105 -4.76527e-05 8.6248e-07
4.61519e-07 8.6248e-07 -9.13348e-05
0.00197917 0.000236298 2.87079e-07
0.000236298 0.000137913 -7.35901e-08
2.87079e-07 -7.35901e-08 2.98701e-05
0.00175643 0.000320729 -9.11623e-07
0.000320729 9.26028e-05 -1.05298e-06
-9.11623e-07 -1.05298e-06 -6.08332e-05
0.00185873 0.000251448 -3.9212e-07
0.000251448 3.40267e-05 -1.07402e-06
-3.9212e-07 -1.07402e-06 -6.77977e-05
0.00182878 4.98224e-05 -5.91529e-07
4.98224e-05 4.60042e-05 -1.67027e-08
-5.91529e-07 -1.67027e-08 -1.03921e-05
0.00191317 4.42022e-05 4.91602e-07
4.42022e-05 3.77745e-05 -1.10948e-07
4.91602e-07 -1.10948e-07 6.92671e-07
0.00196777 4.98634e-05 3.44325e-06
4.98634e-05 3.13446e-05 4.15603e-07
3.44325e-06 4.15603e-07 5.22856e-06
0.00175835 -1.59362e-05 -2.40906e-06
-1.59362e-05 -3.55257e-06 4.96425e-08
-2.40906e-06 4.96425e-08 -5.11239e-05
0.00173852 -3.55501e-05 -2.76383e-07
-3.55501e-05 3.83539e-05 -4.67725e-07
-2.76383e-07 -4.67725e-07 -4.01006e-05
0.00188504 -5.48823e-05 1.03245e-06
-5.48823e-05 2.38658e-05 5.82129e-07
1.03245e-06 5.82129e-07 -8.56022e-06
0.00184984 -6.67745e-05 -1.32356e-06
-6.67745e-05 8.79081e-05 4.98067e-07
-1.32356e-06 4.98067e-07 9.57029e-06
0.00184937 -6.79589e-05 3.20216e-07
-6.79589e-05 0.000155777 -4.50043e-07
3.20216e-07 -4.50043e-07 5.07226e-05
0.00186542 -0.000125591 1.79102e-06
-0.000125591 8.57701e-05 -3.85252e-08
1.79102e-06 -3.85252e-08 -8.93776e-07
0.00177084 -0.000117172 1.70044e-06
-0.000117172 0.000111098 -6.74933e-07
1.70044e-06 -6.74933e-07 -6.85579e-06
0.00145999 -8.40896e-05 -2.3712e-06
-8.40896e-05 7.50424e-05 -8.59806e-09
-2.3712e-06 -8.59806e-09 -6.27267e-05
0.00175903 -0.000164114 -1.00256e-06
-0.000164114 0.00012928 4.83722e-07
-1.00256e-06 4.83722e-07 1.63299e-08
0.00142761 -0.000120189 -8.62331e-08
-0.000120189 7.53074e-05 7.67458e-08
-8.62331e-08 7.67458e-08 -7.01395e-05
0.000996408 -7.98167e-05 -1.23746e-05
-7.98167e-05 -2.38242e-05 2.9953e-06
-1.23746e-05 2.9953e-06 -0.000154209
0.00139963 -0.00014778 3.5713e-06
-0.00014778 8.18724e-05 -7.8086e-07
3.5713e-06 -7.8086e-07 -7.06493e-05
0.00100794 -9.94882e-05 -8.77538e-08
-9.94882e-05 -8.38188e-06 2.35026e-07
-8.77538e-08 2.35026e-07 -0.000141308
0.00248263 -0.00013918 -4.75211e-05
-0.00013918 0.00102291 6.61833e-06
-4.75211e-05 6.61833e-06 0.000954996
0.00102144 -0.00011596 1.30717e-05
-0.00011596 7.20985e-06 -4.53475e-06
1.30717e-05 -4.53475e-06 -0.000127018
0.00256288 -0.000133635 3.24203e-05
-0.000133635 0.00107038 -2.95135e-06
3.24203e-05 -2.95135e-06 0.00100741
0.00184592 -6.3947e-05 -0.00017739
-6.3947e-05 0.000731497 1.79634e-05
-0.00017739 1.79634e-05 0.000713592
0.00267154 -0.00014803 0.0001109
-0.00014803 0.00113754 -1.50867e-05
0.0001109 -1.50867e-05 0.00107769
0.00154112 -3.49361e-05 -7.39769e-05
-3.49361e-05 0.000562604 7.96827e-06
-7.39769e-05 7.96827e-06 0.000536827
0.00136086 -1.33719e-05 3.20806e-05
-1.33719e-05 0.000467218 -5.0879e-06
3.20806e-05 -5.0879e-06 0.000431772
0.00191881 0.000135222 -4.17469e-07
0.000135222 0.000129274 1.83681e-06
-4.17469e-07 1.83681e-06 3.14613e-05
0.00178622 0.0002113 -1.12141e-06
0.0002113 0.000144329 2.40646e-07
-1.12141e-06 2.40646e-07 4.22672e-07
0.0018498 0.00022992 -7.63268e-07
0.00022992 0.000104696 -1.16048e-07
-7.63268e-07 -1.16048e-07 -2.24683e-05
0.0017171 0.000207715 -3.08569e-06
0.000207715 0.000267266 -5.78165e-07
-3.08569e-06 -5.78165e-07 0.000110271
0.00176979 0.000247941 4.96987e-07
0.000247941 0.000171924 8.8463e-09
4.96987e-07 8.8463e-09 1.5446e-05
0.0017792 0.000272405 4.24805e-07
0.000272405 8.13741e-05 1.27539e-07
4.24805e-07 1.27539e-07 -6.36118e-05
0.000996163 0.000151267 -1.35547e-05
0.000151267 -2.35039e-07 -5.08593e-06
-1.35547e-05 -5.08593e-06 -0.000141696
0.00148981 0.000219973 3.21579e-06
0.000219973 0.000171726 7.32359e-07
3.21579e-06 7.32359e-07 3.85141e-06
0.00164013 0.000270342 5.35353e-07
0.000270342 0.000121256 -1.9119e-06
5.35353e-07 -1.9119e-06 -4.54725e-05
0.000537512 0.000174475 -2.24769e-05
0.000174475 -9.34017e-05 -1.21216e-05
-2.24769e-05 -1.21216e-05 -0.000185576
0.000957851 0.000165339 -6.61976e-07
0.000165339 3.84453e-06 2.48683e-07
-6.61976e-07 2.48683e-07 -0.000144203
0.00125724 0.000225543 7.58607e-06
0.000225543 7.43986e-05 2.37733e-06
7.58607e-06 2.37733e-06 -0.000104862
0.00090019 0.000171209 1.11458e-05
0.000171209 6.55975e-06 5.29003e-06
1.11458e-05 5.29003e-06 -0.000147157
0.00054964 0.000185298 1.65464e-06
0.000185298 -7.25892e-05 4.63802e-07
1.65464e-06 4.63802e-07 -0.000167663
0.0056994 -3.6177e-05 -0.000185691
-3.6177e-05 0.0030626 -2.0777e-05
-0.000185691 -2.0777e-05 0.00304239
0.000460163 0.000153814 1.97974e-05
0.000153814 -0.000111908 1.37182e-05
1.97974e-05 1.37182e-05 -0.000195994
0.00520957 -0.000129634 -2.13774e-06
-0.000129634 0.00277569 -3.04317e-07
-2.13774e-06 -3.04317e-07 0.00275819
0.00421541 -0.00020226 0.000101825
-0.00020226 0.00220405 4.27327e-06
0.000101825 4.27327e-06 0.00217892
0.00175682 8.97309e-05 -1.99767e-06
8.97309e-05 1.46843e-05 1.1216e-06
-1.99767e-06 1.1216e-06 -5.34216e-05
0.00185817 0.000128053 1.13644e-06
0.000128053 3.26523e-05 7.38728e-07
1.13644e-06 7.38728e-07 -3.94309e-05
0.00194012 0.000165613 -3.51097e-07
0.000165613 9.79829e-06 -6.36239e-08
-3.51097e-07 -6.36239e-08 -4.55275e-05
0.00195243 0.000231754 1.46033e-06
0.000231754 0.000125418 -6.5448e-07
1.46033e-06 -6.5448e-07 1.98962e-05
0.00181566 -6.59531e-07 2.18248e-06
-6.59531e-07 9.06695e-05 -3.81501e-07
2.18248e-06 -3.81501e-07 9.90792e-06
0.0019093 4.3576e-05 6.93136e-07
4.3576e-05 8.58967e-05 -1.26044e-07
6.93136e-07 -1.26044e-07 3.25775e-05
0.00191835 4.2417e-05 2.48664e-06
4.2417e-05 4.34765e-05 1.13405e-07
2.48664e-06 1.13405e-07 6.52597e-06
0.00192198 -1.88135e-05 -2.18765e-06
-1.88135e-05 9.15236e-05 4.08592e-07
-2.18765e-06 4.08592e-07 4.48665e-05
0.00173447 -2.73082e-05 -2.05188e-06
-2.73082e-05 3.77494e-05 -2.79607e-07
-2.05188e-06 -2.79607e-07 -3.80369e-05
0.00179136 -2.9781e-05 2.11566e-06
-2.9781e-05 0.000132595 -5.32865e-07
2.11566e-06 -5.32865e-07 2.88753e-05
0.0018174 -6.67176e-05 -1.9211e-06
-6.67176e-05 6.81008e-05 1.23022e-06
-1.9211e-06 1.23022e-06 -1.42237e-05
0.00175652 -6.81437e-05 -2.67223e-07
-6.81437e-05 0.000104488 3.64415e-07
-2.67223e-07 3.64415e-07 -4.89168e-06
0.00152906 -4.89173e-05 -2.87803e-06
-4.89173e-05 0.000101046 5.94478e-09
-2.87803e-06 5.94478e-09 -2.6526e-05
0.00174231 -0.000116486 1.03069e-06
-0.000116486 9.70088e-05 -4.72085e-08
1.03069e-06 -4.72085e-08 -2.08935e-05
0.00145005 -8.20574e-05 4.8694e-07
-8.20574e-05 6.70008e-05 -2.06294e-07
4.8694e-07 -2.06294e-07 -7.03686e-05
0.000993198 -5.45328e-05 -1.22348e-05
-5.45328e-05 -3.38416e-05 2.22973e-06
-1.22348e-05 2.22973e-06 -0.000160898
0.00142078 -0.000117608 2.91701e-06
-0.000117608 6.83058e-05 -4.49462e-07
2.91701e-06 -4.49462e-07 -7.66511e-05
0.00100216 -7.89637e-05 -5.2663e-08
-7.89637e-05 -2.10075e-05 1.70653e-07
-5.2663e-08 1.70653e-07 -0.000151092
0.000601197 -7.85474e-05 -1.94518e-05
-7.85474e-05 -0.000106593 4.74225e-06
-1.94518e-05 4.74225e-06 -0.000180791
0.00102342 -9.7525e-05 1.26165e-05
-9.7525e-05 -8.55238e-07 -3.50604e-06
1.26165e-05 -3.50604e-06 -0.000133107
0.00158409 -8.84727e-05 4.51935e-05
-8.84727e-05 0.000481879 -2.91849e-06
4.51935e-05 -2.91849e-06 0.000415464
0.00554778 -0.000117789 -0.000226148
-0.000117789 0.0029252 1.40228e-05
-0.000226148 1.40228e-05 0.00293063
0.00264594 -0.000120689 0.000110045
-0.000120689 0.00111157 -1.22282e-05
0.000110045 -1.22282e-05 0.00105511
0.00155592 -4.66426e-05 -6.65738e-05
-4.66426e-05 0.00056744 5.54464e-06
-6.65738e-05 5.54464e-06 0.000541852
0.00128338 -5.61751e-05 4.31889e-05
-5.61751e-05 0.0004211 -5.97232e-06
4.31889e-05 -5.97232e-06 0.000385527
0.00189986 9.40726e-05 -1.65475e-07
9.40726e-05 0.000135951 1.79167e-06
-1.65475e-07 1.79167e-06 5.13215e-05
0.00185049 0.000145985 4.37036e-07
0.000145985 0.000166868 1.43175e-06
4.37036e-07 1.43175e-06 4.26525e-05
0.00196327 0.000132532 4.44804e-07
0.000132532 0.000162397 2.47051e-08
4.44804e-07 2.47051e-08 6.38911e-05
0.00148996 0.000165829 -3.67156e-06
0.000165829 9.72179e-05 -4.41949e-07
-3.67156e-06 -4.41949e-07 -5.15614e-05
0.00177763 0.000208305 3.47633e-07
0.000208305 0.0001393 1.3062e-09
3.47633e-07 1.3062e-09 -3.87359e-06
0.00183579 0.000230025 7.72675e-08
0.000230025 8.88244e-05 -3.32604e-07
7.72675e-08 -3.32604e-07 -3.53762e-05
0.000705649 0.000117499 -1.5325e-05
0.000117499 -0.000188905 -4.64229e-06
-1.5325e-05 -4.64229e-06 -0.000325726
0.00173911 0.000209163 2.40766e-06
0.000209163 0.000280109 6.44317e-07
2.40766e-06 6.44317e-07 0.00012311
0.00170656 0.000242783 3.71801e-07
0.000242783 0.000139862 -2.83625e-07
3.71801e-07 -2.83625e-07 -1.76476e-05
0.000510466 0.000129361 -1.9502e-05
0.000129361 -0.00012715 -9.59033e-06
-1.9502e-05 -9.59033e-06 -0.000212041
0.000808888 0.000142243 4.70974e-07
0.000142243 -0.00010981 2.58144e-07
4.70974e-07 2.58144e-07 -0.000251915
0.0012911 0.00021359 9.14287e-06
0.00021359 5.15744e-05 1.96396e-06
9.14287e-06 1.96396e-06 -0.000116603
0.00575394 4.93035e-05 -0.000198963
4.93035e-05 0.00306878 -2.00813e-05
-0.000198963 -2.00813e-05 0.003061
0.000519288 0.000161533 1.18158e-06
0.000161533 -0.00010298 6.61055e-07
1.18158e-06 6.61055e-07 -0.000195984
0.000929892 0.00016392 1.24106e-05
0.00016392 -1.14213e-05 6.17243e-06
1.24106e-05 6.17243e-06 -0.000159325
0.000470579 0.00016935 2.05836e-05
0.00016935 -0.00011418 1.33887e-05
2.05836e-05 1.33887e-05 -0.000210479
0.00556422 -4.69819e-05 8.52892e-06
-4.69819e-05 0.00297299 -8.43362e-07
8.52892e-06 -8.43362e-07 0.00295998
0.00497018 -0.00018294 0.000135651
-0.00018294 0.00264218 7.13541e-06
0.000135651 7.13541e-06 0.0026188
0.00182669 6.24714e-05 -1.44136e-06
6.24714e-05 9.29046e-05 -7.11278e-07
-1.44136e-06 -7.11278e-07 1.21033e-05
0.00184683 9.08123e-05 2.57006e-07
9.08123e-05 6.64443e-05 5.30207e-07
2.57006e-07 5.30207e-07 -2.55605e-06
0.00185135 0.00012736 1.55993e-06
0.00012736 3.28184e-05 -1.80969e-09
1.55993e-06 -1.80969e-09 -3.84653e-05
0.00169392 4.2698e-06 2.41603e-06
4.2698e-06 6.60627e-05 -5.21999e-07
2.41603e-06 -5.21999e-07 -3.97611e-05
0.00174808 1.65729e-06 6.71871e-07
1.65729e-06 5.54144e-05 3.77231e-08
6.71871e-07 3.77231e-08 -2.3844e-05
0.00199241 3.61016e-05 9.26274e-07
3.61016e-05 0.000127587 -1.36726e-08
9.26274e-07 -1.36726e-08 7.7226e-05
0.00173651 -2.03815e-05 -2.71903e-06
-2.03815e-05 4.08281e-05 8.5146e-07
-2.71903e-06 8.5146e-07 -3.21846e-05
0.00176857 -2.53512e-05 9.70553e-07
-2.53512e-05 0.000118668 -1.10438e-07
9.70553e-07 -1.10438e-07 1.5205e-05
0.00173065 -1.85923e-05 -9.09035e-07
-1.85923e-05 0.000219361 -4.26149e-07
-9.09035e-07 -4.26149e-07 9.76612e-05
0.00166044 -6.83525e-05 -1.60252e-06
-6.83525e-05 5.17466e-05 1.06912e-06
-1.60252e-06 1.06912e-06 -6.19539e-05
0.00159265 -4.88051e-05 4.91391e-08
-4.88051e-05 0.000139544 6.59286e-08
4.91391e-08 6.59286e-08 1.06957e-05
0.000777685 -2.64188e-05 -1.38205e-05
-2.64188e-05 -0.000166749 1.40382e-06
-1.38205e-05 1.40382e-06 -0.00029194
0.00143391 -8.20671e-05 3.12254e-06
-8.20671e-05 5.52681e-05 -4.4051e-07
3.12254e-06 -4.4051e-07 -8.19748e-05
0.000997018 -5.149e-05 -3.52169e-08
-5.149e-05 -3.24807e-05 1.27116e-07
-3.52169e-08 1.27116e-07 -0.000159107
0.000603109 -2.04244e-05 -1.83278e-05
-2.04244e-05 -0.000109182 3.10323e-06
-1.83278e-05 3.10323e-06 -0.000182563
0.00101966 -7.74251e-05 1.22871e-05
-7.74251e-05 -1.18896e-05 -2.65014e-06
1.22871e-05 -2.65014e-06 -0.000141526
0.000606667 -6.18066e-05 -2.07535e-07
-6.18066e-05 -0.000101278 3.30344e-07
-2.07535e-07 3.30344e-07 -0.000176974
0.00556251 -1.22963e-05 -0.000217433
-1.22963e-05 0.00293051 8.53813e-06
-0.000217433 8.53813e-06 0.00293812
0.000634768 -6.59047e-05 1.60601e-05
-6.59047e-05 -8.27684e-05 -6.65028e-06
1.60601e-05 -6.65028e-06 -0.000160323
0.00350027 -7.7561e-05 0.000101957
-7.7561e-05 0.00171758 -3.63401e-06
0.000101957 -3.63401e-06 0.00170138
0.0012312 -7.14979e-05 4.92651e-05
-7.14979e-05 0.000392186 -6.52726e-06
4.92651e-05 -6.52726e-06 0.000354108
0.00180327 8.89201e-05 -6.93261e-07
8.89201e-05 0.000100612 1.45003e-07
-6.93261e-07 1.45003e-07 1.16393e-05
0.00171763 8.72101e-05 2.36681e-06
8.72101e-05 9.00416e-05 2.24467e-06
2.36681e-06 2.24467e-06 -2.38261e-05
0.00193173 9.16049e-05 -1.71172e-08
9.16049e-05 0.000156691 -3.69043e-07
-1.71172e-08 -3.69043e-07 7.29954e-05
0.0014596 0.000117912 -2.4245e-06
0.000117912 6.51193e-05 -1.9185e-07
-2.4245e-06 -1.9185e-07 -7.57103e-05
0.00181617 0.000144873 5.55083e-07
0.000144873 0.000142822 1.59626e-07
5.55083e-07 1.59626e-07 1.73148e-05
0.00201353 0.000129715 -8.2786e-08
0.000129715 0.000198994 -1.87479e-06
-8.2786e-08 -1.87479e-06 9.9826e-05
0.000755294 9.71019e-05 -1.45761e-05
9.71019e-05 -0.000175041 -3.52577e-06
-1.45761e-05 -3.52577e-06 -0.000307159
0.00160855 0.000168259 -1.94239e-07
0.000168259 0.000169741 1.8149e-07
-1.94239e-07 1.8149e-07 2.07949e-05
0.00177096 0.000205346 8.38842e-07
0.000205346 0.000135813 -4.61489e-07
8.38842e-07 -4.61489e-07 -6.61983e-06
0.000526177 9.17383e-05 -1.79148e-05
9.17383e-05 -0.000135648 -7.12499e-06
-1.79148e-05 -7.12499e-06 -0.000214132
0.000687741 0.000117073 -2.83217e-06
0.000117073 -0.00019873 -4.12164e-07
-2.83217e-06 -4.12164e-07 -0.000335775
0.00176521 0.000211062 8.09954e-06
0.000211062 0.000295399 1.97172e-06
8.09954e-06 1.97172e-06 0.000138321
0.00570363 0.000127346 -0.000216782
0.000127346 0.00302282 -1.90271e-05
-0.000216782 -1.90271e-05 0.00302309
0.000518253 0.000123456 4.08812e-07
0.000123456 -0.000123272 3.75021e-07
4.08812e-07 3.75021e-07 -0.000208636
0.000626141 0.000133751 1.32949e-05
0.000133751 -0.000216847 4.94065e-06
1.32949e-05 4.94065e-06 -0.000359665
0.00565728 6.3103e-05 1.24434e-05
6.3103e-05 0.00301265 1.01259e-06
1.24434e-05 1.01259e-06 0.00300606
0.000484422 0.000147861 1.89797e-05
0.000147861 -0.000122223 1.20612e-05
1.89797e-05 1.20612e-05 -0.00021591
0.00544149 -7.85185e-05 0.000178135
-7.85185e-05 0.00289139 1.06385e-05
0.000178135 1.06385e-05 0.00288437
0.00180098 4.4081e-05 9.55348e-07
4.4081e-05 0.000118968 -6.09909e-07
9.55348e-07 -6.09909e-07 1.54675e-05
0.00177326 5.99161e-05 -1.65161e-06
5.99161e-05 6.71135e-05 4.78501e-07
-1.65161e-06 4.78501e-07 -1.53183e-05
0.00194253 9.16003e-05 1.46627e-06
9.16003e-05 0.000121318 6.11086e-08
1.46627e-06 6.11086e-08 5.14776e-05
0.00173657 -1.78681e-06 1.29818e-07
-1.78681e-06 0.000227975 -3.21771e-07
1.29818e-07 -3.21771e-07 0.000108228
0.00170157 2.39567e-06 2.01494e-07
2.39567e-06 6.93367e-05 2.79805e-08
2.01494e-07 2.79805e-08 -3.48211e-05
0.00168723 5.34971e-06 9.82448e-07
5.34971e-06 2.37778e-05 1.84978e-07
9.82448e-07 1.84978e-07 -5.39678e-05
0.00174821 -2.1173e-05 -3.48154e-07
-2.1173e-05 0.000106348 4.90111e-07
-3.48154e-07 4.90111e-07 3.10776e-06
0.00173839 -1.87074e-05 2.65934e-06
-1.87074e-05 0.000223472 -1.96715e-07
2.65934e-06 -1.96715e-07 0.000101792
0.000791238 -8.97881e-06 -1.33144e-05
-8.97881e-06 -0.000158544 5.42689e-07
-1.33144e-05 5.42689e-07 -0.000280921
0.0016593 -4.88459e-05 3.30012e-06
-4.88459e-05 0.000179791 4.63462e-08
3.30012e-06 4.63462e-08 4.96617e-05
0.000889168 -2.57343e-05 -2.3153e-06
-2.57343e-05 -0.000101423 2.30692e-07
-2.3153e-06 2.30692e-07 -0.000225961
0.000607611 -6.18641e-06 -1.85696e-05
-6.18641e-06 -0.000110696 2.01015e-06
-1.85696e-05 2.01015e-06 -0.000182769
0.0010052 -4.96293e-05 1.1865e-05
-4.96293e-05 -2.82787e-05 -1.94449e-06
1.1865e-05 -1.94449e-06 -0.000154582
0.000587967 -3.02569e-05 7.60102e-07
-3.02569e-05 -0.000119773 -3.9641e-08
7.60102e-07 -3.9641e-08 -0.000191885
0.00552215 -0.00010956 -0.000226354
-0.00010956 0.00291453 8.81524e-06
-0.000226354 8.81524e-06 0.00291906
0.000585218 -4.55363e-05 1.77027e-05
-4.55363e-05 -0.000114095 -3.72979e-06
1.77027e-05 -3.72979e-06 -0.000189531
0.00554172 -4.81616e-05 7.84413e-06
-4.81616e-05 0.00291921 -3.83815e-08
7.84413e-06 -3.83815e-08 0.00292694
0.00155804 -1.8546e-05 0.000183222
-1.8546e-05 0.000560959 -9.89599e-06
0.000183222 -9.89599e-06 0.000547409
0.00165861 6.49588e-05 2.44873e-06
6.49588e-05 5.19698e-05 4.05244e-07
2.44873e-06 4.05244e-07 -5.87463e-05
0.00178631 9.30756e-05 -3.11491e-06
9.30756e-05 8.38744e-05 -6.44441e-07
-3.11491e-06 -6.44441e-07 -2.45749e-06
0.00146316 7.13939e-05 -1.55315e-06
7.13939e-05 6.65083e-05 1.11656e-07
-1.55315e-06 1.11656e-07 -6.58827e-05
0.00172388 8.60779e-05 6.00826e-07
8.60779e-05 9.3332e-05 1.60299e-07
6.00826e-07 1.60299e-07 -2.06164e-05
0.00195692 8.92808e-05 -8.53614e-07
8.92808e-05 0.000173308 -2.96857e-06
-8.53614e-07 -2.96857e-06 9.05352e-05
0.00104582 7.64118e-05 -1.23706e-05
7.64118e-05 -1.00993e-05 -2.39295e-06
-1.23706e-05 -2.39295e-06 -0.000135388
0.00145889 0.000117768 7.42484e-08
0.000117768 6.58847e-05 6.96076e-08
7.42484e-08 6.96076e-08 -7.5116e-05
0.00177783 0.000143637 1.01265e-07
0.000143637 0.000116474 -8.72758e-07
1.01265e-07 -8.72758e-07 -1.03262e-05
0.000552518 6.48597e-05 -1.74429e-05
6.48597e-05 -0.00013327 -5.14806e-06
-1.74429e-05 -5.14806e-06 -0.000208332
0.000863243 0.000101561 -3.10246e-06
0.000101561 -0.000110411 -3.18068e-07
-3.10246e-06 -3.18068e-07 -0.000242068
0.00173082 0.000170603 4.53118e-06
0.000170603 0.000244591 1.15238e-06
4.53118e-06 1.15238e-06 9.55085e-05
0.00565462 0.00017388 -0.000235292
0.00017388 0.00299396 -1.83359e-05
-0.000235292 -1.83359e-05 0.0029941
0.000544835 9.06798e-05 3.63589e-08
9.06798e-05 -0.000125565 1.52886e-07
3.63589e-08 1.52886e-07 -0.000204193
0.000668651 0.000116657 9.40144e-06
0.000116657 -0.000209481 3.60639e-06
9.40144e-06 3.60639e-06 -0.000346701
0.00565042 0.000147395 1.0641e-05
0.000147395 0.00300024 2.66544e-06
1.0641e-05 2.66544e-06 0.00299662
0.000530375 0.000116188 1.82346e-05
0.000116188 -0.000117481 9.57634e-06
1.82346e-05 9.57634e-06 -0.000202868
0.00558545 5.75557e-05 0.000204803
5.75557e-05 0.00295955 1.59124e-05
0.000204803 1.59124e-05 0.0029606
0.00172353 2.98365e-05 6.95257e-07
2.98365e-05 0.000223087 -1.08657e-07
6.95257e-07 -1.08657e-07 0.000103115
0.0017589 3.95904e-05 -1.18971e-06
3.95904e-05 9.72956e-05 9.60625e-08
-1.18971e-06 9.60625e-08 -7.57691e-06
0.00171859 5.70692e-05 -1.58317e-06
5.70692e-05 4.12805e-05 5.63639e-07
-1.58317e-06 5.63639e-07 -4.27453e-05
0.000786627 -7.83471e-06 -1.38008e-05
-7.83471e-06 -0.00015568 -1.38051e-07
-1.38008e-05 -1.38051e-07 -0.000276573
0.00174182 4.0737e-06 3.04061e-06
4.0737e-06 0.000231007 -1.67407e-07
3.04061e-06 -1.67407e-07 0.000111219
0.00170521 3.72735e-07 -1.23311e-06
3.72735e-07 7.02926e-05 4.34128e-07
-1.23311e-06 4.34128e-07 -3.21854e-05
0.00175044 -1.918e-05 6.05733e-06
-1.918e-05 0.000230121 2.1331e-08
6.05733e-06 2.1331e-08 0.000108458
0.000782998 -9.11904e-06 -1.76722e-06
-9.11904e-06 -0.000164236 9.20972e-08
-1.76722e-06 9.20972e-08 -0.000286837
0.000609028 -2.77035e-05 -1.8907e-05
-2.77035e-05 -0.000110802 7.41708e-07
-1.8907e-05 7.41708e-07 -0.000180916
0.00098485 -2.42427e-05 1.00607e-05
-2.42427e-05 -4.52692e-05 -1.15493e-06
1.00607e-05 -1.15493e-06 -0.000169172
0.00058823 4.50983e-06 3.12113e-07
4.50983e-06 -0.000122363 8.89049e-08
3.12113e-07 8.89049e-08 -0.000193858
0.00555906 -8.70051e-05 -0.000233365
-8.70051e-05 0.00293396 6.18712e-06
-0.000233365 6.18712e-06 0.00294058
0.0005983 -3.24079e-05 1.84605e-05
-3.24079e-05 -0.000112221 -2.51699e-06
1.84605e-05 -2.51699e-06 -0.000185404
0.00555595 -3.09365e-06 -3.02067e-06
-3.09365e-06 0.00292586 1.4959e-06
-3.02067e-06 1.4959e-06 0.00293541
0.0055492 -6.69776e-05 0.000226486
-6.69776e-05 0.00292209 -7.87302e-06
0.000226486 -7.87302e-06 0.00293107
0.00144031 4.39699e-05 -1.45787e-06
4.39699e-05 5.85314e-05 -3.1326e-08
-1.45787e-06 -3.1326e-08 -6.9774e-05
0.00171681 6.82381e-05 -1.27662e-06
6.82381e-05 8.47723e-05 -1.22389e-06
-1.27662e-06 -1.22389e-06 -2.19868e-05
0.00177636 9.76493e-05 -4.3303e-06
9.76493e-05 7.13008e-05 -1.2147e-06
-4.3303e-06 -1.2147e-06 -1.24207e-05
0.00104758 4.36335e-05 -1.21618e-05
4.36335e-05 -8.52035e-06 -1.82293e-06
-1.21618e-05 -1.82293e-06 -0.00012951
0.0014494 7.13352e-05 1.75362e-07
7.13352e-05 5.81156e-05 3.15008e-08
1.75362e-07 3.15008e-08 -7.46667e-05
0.0017296 8.48446e-05 -1.06726e-06
8.48446e-05 9.67167e-05 -1.72684e-06
-1.06726e-06 -1.72684e-06 -1.73053e-05
0.00057893 4.02172e-05 -1.70415e-05
4.02172e-05 -0.000123723 -3.74011e-06
-1.70415e-05 -3.74011e-06 -0.000196809
0.0010153 7.75794e-05 2.13891e-07
7.75794e-05 -2.73611e-05 2.20927e-07
2.13891e-07 2.20927e-07 -0.00015314
0.00145901 0.000117668 3.0274e-06
0.000117668 6.68056e-05 3.99515e-07
3.0274e-06 3.99515e-07 -7.43784e-05
0.00559519 0.00016859 -0.000247258
0.00016859 0.00296116 -1.59343e-05
-0.000247258 -1.59343e-05 0.00296184
0.000576075 6.74424e-05 3.23106e-07
6.74424e-05 -0.000119408 1.60322e-07
3.23106e-07 1.60322e-07 -0.000194906
0.000968496 0.000105981 9.43321e-06
0.000105981 -4.75312e-05 3.02378e-06
9.43321e-06 3.02378e-06 -0.000178686
0.00563499 0.000187483 6.09187e-06
0.000187483 0.00298912 2.56583e-06
6.09187e-06 2.56583e-06 0.00298651
0.000566457 9.07251e-05 1.7462e-05
9.07251e-05 -0.000113206 7.4379e-06
1.7462e-05 7.4379e-06 -0.000192085
0.0056294 0.00016947 0.000224279
0.00016947 0.00298736 2.07206e-05
0.000224279 2.07206e-05 0.00298461
0.0010204 1.35454e-05 -1.28487e-05
1.35454e-05 -1.58389e-05 -7.6154e-07
-1.28487e-05 -7.6154e-07 -0.000134606
0.00160352 2.54744e-05 3.47348e-06
2.54744e-05 0.000153267 1.02676e-07
3.47348e-06 1.02676e-07 3.25955e-05
0.00171783 3.43798e-05 -3.55405e-06
3.43798e-05 7.59289e-05 2.35038e-07
-3.55405e-06 2.35038e-07 -3.03315e-05
0.000635458 2.94844e-05 -1.93711e-05
2.94844e-05 -0.000102218 -4.4399e-07
-1.93711e-05 -4.4399e-07 -0.000165471
0.00076482 -2.37602e-06 -1.98201e-06
-2.37602e-06 -0.000169213 6.9479e-08
-1.98201e-06 6.9479e-08 -0.000290255
0.00174469 1.02056e-05 6.02099e-06
1.02056e-05 0.000232633 1.15208e-07
6.02099e-06 1.15208e-07 0.000112789
0.000771606 -8.89961e-06 9.84417e-06
-8.89961e-06 -0.000171866 -3.82896e-07
9.84417e-06 -3.82896e-07 -0.000294673
0.000602125 -4.09287e-06 2.55677e-07
-4.09287e-06 -0.000114678 2.96656e-07
2.55677e-07 2.96656e-07 -0.000184914
0.00553383 4.17043e-05 -0.000239149
4.17043e-05 0.0029153 -5.99769e-07
-0.000239149 -5.99769e-07 0.00292541
0.000565014 1.54957e-05 1.79902e-05
1.54957e-05 -0.000136779 -1.16815e-06
1.79902e-05 -1.16815e-06 -0.000207404
0.00554162 -8.58745e-05 -7.83785e-06
-8.58745e-05 0.00292438 1.50362e-06
-7.83785e-06 1.50362e-06 0.00293068
0.00552676 1.70322e-05 0.000218261
1.70322e-05 0.00290905 -3.48805e-06
0.000218261 -3.48805e-06 0.00291824
0.00102904 2.32776e-05 -1.26365e-05
2.32776e-05 -1.43397e-05 -1.37285e-06
-1.26365e-05 -1.37285e-06 -0.000133362
0.00144306 4.35413e-05 -1.37051e-07
4.35413e-05 5.94187e-05 -8.93393e-08
-1.37051e-07 -8.93393e-08 -6.68059e-05
0.00177674 7.1286e-05 -4.23455e-06
7.1286e-05 0.000118327 -1.90263e-06
-4.23455e-06 -1.90263e-06 1.55407e-05
0.00261869 4.82017e-05 -0.000115442
4.82017e-05 0.00107874 -3.63273e-06
-0.000115442 -3.63273e-06 0.00103062
0.0010189 4.5543e-05 2.40745e-07
4.5543e-05 -2.57017e-05 1.35013e-07
2.40745e-07 1.35013e-07 -0.00014703
0.0014366 7.12159e-05 2.64066e-06
7.12159e-05 5.02283e-05 8.24984e-08
2.64066e-06 8.24984e-08 -8.29539e-05
0.00553791 0.000135118 -0.000249768
0.000135118 0.002926 -1.19304e-05
-0.000249768 -1.19304e-05 0.00292976
0.000611431 5.64604e-05 8.08825e-07
5.64604e-05 -0.000102798 3.22979e-07
8.08825e-07 3.22979e-07 -0.000177315
0.000989278 7.89076e-05 1.22712e-05
7.89076e-05 -4.19607e-05 2.79542e-06
1.22712e-05 2.79542e-06 -0.00016821
0.00562989 0.000180481 1.69255e-06
0.000180481 0.00298382 1.65491e-06
1.69255e-06 1.65491e-06 0.00298342
0.000610086 7.25127e-05 1.78127e-05
7.25127e-05 -9.84177e-05 5.91014e-06
1.78127e-05 5.91014e-06 -0.000174899
0.00561849 0.000213442 0.000235859
0.000213442 0.00298703 2.22156e-05
0.000235859 2.22156e-05 0.00298047
0.000679886 9.10921e-06 -1.63537e-05
9.10921e-06 -6.57437e-05 -1.7807e-06
-1.63537e-05 -1.7807e-06 -0.000136741
0.000883504 1.16491e-05 6.69559e-07
1.16491e-05 -9.65154e-05 2.4441e-07
6.69559e-07 2.4441e-07 -0.000216184
0.00148021 2.07428e-05 5.44306e-06
2.07428e-05 8.14051e-05 1.46686e-07
5.44306e-06 1.46686e-07 -3.99321e-05
0.00540943 -9.30707e-05 -0.000222803
-9.30707e-05 0.0028583 7.96596e-07
-0.000222803 7.96596e-07 0.0028588
0.000598134 7.8221e-06 -4.96433e-07
7.8221e-06 -0.000119292 1.6565e-07
-4.96433e-07 1.6565e-07 -0.000185259
0.000754971 2.61488e-06 9.6849e-06
2.61488e-06 -0.000175921 1.45346e-07
9.6849e-06 1.45346e-07 -0.000297074
0.000564139 2.06701e-05 1.82242e-05
2.06701e-05 -0.000137318 1.50689e-07
1.82242e-05 1.50689e-07 -0.000207003
0.00548934 5.92843e-06 2.55609e-06
5.92843e-06 0.00289344 -8.05178e-07
2.55609e-06 -8.05178e-07 0.00290031
0.00555314 4.85177e-07 0.000227644
4.85177e-07 0.0029222 -1.63285e-06
0.000227644 -1.63285e-06 0.00293293
0.00268286 6.64858e-06 -0.000112355
6.64858e-06 0.00111331 -2.28603e-06
-0.000112355 -2.28603e-06 0.00106643
0.00102622 2.60888e-05 4.408e-08
2.60888e-05 -1.71824e-05 1.01374e-07
4.408e-08 1.01374e-07 -0.000136422
0.00144091 4.32615e-05 2.38278e-06
4.32615e-05 5.76118e-05 -1.19774e-07
2.38278e-06 -1.19774e-07 -6.65315e-05
0.00515437 -5.91041e-05 -7.49139e-05
-5.91041e-05 0.00271079 4.31615e-07
-7.49139e-05 4.31615e-07 0.00269659
0.000626414 4.87523e-05 5.45383e-08
4.87523e-05 -9.60332e-05 2.20398e-07
5.45383e-08 2.20398e-07 -0.000168067
0.00100637 4.79662e-05 1.20886e-05
4.79662e-05 -3.39383e-05 2.13498e-06
1.20886e-05 2.13498e-06 -0.00015555
0.00558487 0.000104623 -1.0924e-05
0.000104623 0.00294915 -1.09084e-06
-1.0924e-05 -1.09084e-06 0.00295471
0.000640853 7.81228e-05 1.928e-05
7.81228e-05 -8.48804e-05 4.93164e-06
1.928e-05 4.93164e-06 -0.000160004
0.00563821 0.000204622 0.000246337
0.000204622 0.00299602 2.05985e-05
0.000246337 2.05985e-05 0.0029921
0.00166686 -4.91586e-05 -0.000189929
-4.91586e-05 0.000619839 6.6278e-07
-0.000189929 6.6278e-07 0.000610591
0.00165151 2.50262e-05 -4.67399e-05
2.50262e-05 0.000501786 2.07588e-07
-4.67399e-05 2.07588e-07 0.000447157
0.000745931 1.21457e-05 1.24181e-05
1.21457e-05 -0.000177392 9.45189e-07
1.24181e-05 9.45189e-07 -0.000298019
0.0054645 -3.97183e-05 7.87855e-06
-3.97183e-05 0.00288547 1.18325e-06
7.87855e-06 1.18325e-06 0.00289004
0.000613463 -1.2158e-05 1.87235e-05
-1.2158e-05 -0.000105413 8.47981e-07
1.87235e-05 8.47981e-07 -0.000174361
0.00552005 -6.22113e-05 0.00024218
-6.22113e-05 0.0029124 -1.89387e-06
0.00024218 -1.89387e-06 0.00291992
0.00126741 7.18257e-06 -3.6668e-05
7.18257e-06 0.000407242 -6.57494e-07
-3.6668e-05 -6.57494e-07 0.000373269
0.00164223 1.21329e-05 -4.71071e-05
1.21329e-05 0.000500051 -5.83482e-07
-4.71071e-05 -5.83482e-07 0.000442358
0.00101212 2.74976e-05 1.23484e-05
2.74976e-05 -2.62966e-05 1.6217e-06
1.23484e-05 1.6217e-06 -0.000145782
0.00341011 4.80996e-05 8.89574e-05
4.80996e-05 0.00166381 2.06303e-06
8.89574e-05 2.06303e-06 0.00165209
0.000633178 5.83465e-05 1.94838e-05
5.83465e-05 -9.17907e-05 3.84672e-06
1.94838e-05 3.84672e-06 -0.000163981
0.00562996 9.50429e-05 0.000235509
9.50429e-05 0.00297069 1.25667e-05
0.000235509 1.25667e-05 0.00297897
0.0054129 -2.23386e-05 -8.88303e-06
-2.23386e-05 0.00285751 -1.80905e-06
-8.88303e-06 -1.80905e-06 0.00286133
0.000615279 4.23177e-05 2.00709e-05
4.23177e-05 -0.000111908 1.9299e-06
2.00709e-05 1.9299e-06 -0.000175096
0.00538542 5.113e-05 0.000228686
5.113e-05 0.00283593 -3.16437e-08
0.000228686 -3.16437e-08 0.00284324
0.00335999 2.62099e-05 0.000102754
2.62099e-05 0.00163828 3.05543e-06
0.000102754 3.05543e-06 0.00162668
0.000644798 4.72433e-06 1.87317e-05
4.72433e-06 -8.69036e-05 2.63642e-06
1.87317e-05 2.63642e-06 -0.000156139
0.0055317 -2.76594e-05 0.000227133
-2.76594e-05 0.00291555 5.59742e-06
0.000227133 5.59742e-06 0.00292301
0.00544344 -0.000128103 0.0002246
-0.000128103 0.0028813 -2.79131e-06
0.0002246 -2.79131e-06 0.00288018
0.00543115 -1.2455e-05 0.000223875
-1.2455e-05 0.00285398 2.87831e-06
0.000223875 2.87831e-06 0.00286474
