# vtk DataFile Version 2.0
Wound Healing Simulation
ASCII
DATASET UNSTRUCTURED_GRID
POINTS 3012 float
69.9759 18.75 4
67.2507 60.3285 4
69.976 18.75 2
73.0099 25.446 4
71.1327 20.9142 4
68.6801 16.6661 4
67.8222 19.9262 3.9751
67.2507 60.3286 2
71.1327 54.0858 4
68.6801 58.3339 4
65.6939 62.2254 4
65.3091 58.9993 3.9738
74.6784 42.3946 4
73.7221 47.2057 4
69.9759 18.75 0
73.0099 25.446 2
68.6801 16.6661 2
71.1327 20.9142 2
67.823 19.9303 2
74.6792 32.6053 4
73.7222 27.7943 4
72.1454 23.1494 4
70.6117 26.2216 3.97487
68.8826 21.9579 3.97547
67.2507 14.6715 4
66.6334 17.973 3.97388
65.7821 21.0306 3.96365
67.2507 60.3285 0
71.1327 54.0858 2
68.6801 58.3339 2
65.694 62.2255 2
65.3101 58.9945 2
72.1454 51.8506 4
69.9759 56.25 4
68.8332 53.1136 3.97499
64.0165 64.0165 4
66.6074 57.1327 3.97475
63.8823 60.7633 3.97345
63.4921 57.7639 3.96541
60.3285 67.2507 4
74.6792 42.3947 2
73.7222 47.2057 2
74.9194 39.9526 4
74.2788 44.8158 4
72.1664 42.0856 3.97634
73.0099 49.554 4
71.2469 46.598 3.97471
73.0099 25.446 0
71.1327 20.9142 0
68.6801 16.6661 0
67.8222 19.9262 0.0249043
74.6792 32.6053 2
73.7222 27.7943 2
67.2508 14.6715 2
72.1455 23.1494 2
70.6112 26.2223 2
66.6349 17.9777 2
68.8829 21.9607 2
65.7792 21.0327 2
74.9197 35.0474 4
74.2794 30.1841 4
72.1831 32.9443 3.97666
71.2761 28.4322 3.97524
69.8128 24.0597 3.97522
68.3389 26.955 3.96421
66.7493 22.9376 3.96372
65.694 12.7746 4
65.3197 16.1059 3.97206
64.7021 19.2014 3.96365
63.7917 22.0725 3.96432
71.1327 54.0858 0
65.6939 62.2254 0
68.6801 58.3339 0
65.3091 58.9993 0.0262029
72.1455 51.8506 2
69.9759 56.25 2
68.8333 53.111 2
64.0165 64.0165 2
66.6083 57.1285 2
63.8838 60.7581 2
63.4904 57.7639 2
62.2254 65.694 4
58.8917 65.4128 3.98305
69.7659 50.9894 3.97471
67.7804 55.1673 3.97509
66.6323 52.2054 3.96383
62.3325 62.4245 3.97694
64.6516 56.0272 3.96427
62.1953 59.391 3.96516
61.7663 56.6508 3.96135
58.3339 68.6801 4
60.3285 67.2508 2
73.7221 47.2057 0
74.6784 42.3946 0
74.9197 39.9526 2
74.2794 44.8159 2
72.1657 42.0854 2
73.0099 49.554 2
71.2464 46.5976 2
75 37.5 4
72.4038 39.8025 3.97741
71.7806 44.3529 3.97609
69.7987 41.7898 3.96684
70.5725 48.8138 3.97442
68.9048 46.0135 3.96529
74.6792 32.6053 0
73.7222 27.7943 0
67.2507 14.6715 0
72.1454 23.1494 0
70.6117 26.2216 0.0251317
68.8826 21.9579 0.0245255
66.6334 17.973 0.02612
65.7821 21.0306 0.0363538
74.9197 35.0474 2
74.2794 30.1841 2
72.1824 32.9446 2
71.2757 28.4327 2
65.694 12.7745 2
65.3211 16.111 2
69.8126 24.0613 2
68.3397 26.9561 2
64.6967 19.2037 2
66.7491 22.9394 2
63.791 22.0734 2
72.4117 35.225 3.97746
71.8021 30.6773 3.97621
69.8349 33.2712 3.96678
68.9601 29.0414 3.96513
67.6014 24.9157 3.96389
66.0845 27.6635 3.96845
64.0165 10.9835 4
64.653 23.8651 3.96584
63.8857 14.3305 3.97281
63.5032 17.4572 3.96403
62.8179 20.3602 3.96235
61.9041 23.0151 3.96859
60.6808 11.1018 3.97797
57.6053 11.4751 3.9691
72.1454 51.8506 0
69.9759 56.25 0
68.8332 53.1136 0.0250114
64.0165 64.0165 0
63.8823 60.7633 0.0265525
66.6074 57.1327 0.0252507
63.4921 57.7639 0.0345886
62.2255 65.694 2
58.8938 65.4089 2
69.7657 50.9878 2
67.781 55.1638 2
66.6317 52.2041 2
62.3348 62.4197 2
64.6476 56.026 2
62.1926 59.391 2
61.7655 56.6512 2
60.6658 63.9735 3.97962
57.0226 66.7336 3.98596
57.5521 63.6736 3.97126
67.491 50.1734 3.96409
65.6887 54.1696 3.96392
64.4178 51.3503 3.966
60.7674 60.9177 3.96825
62.7411 55.036 3.96331
60.618 58.1274 3.96017
60.2112 55.7292 3.96471
56.25 69.9759 4
58.3339 68.6801 2
60.3285 67.2507 0
58.9181 9.65976 3.97931
62.2254 9.30607 4
73.0099 49.554 0
74.2788 44.8158 0
71.2469 46.598 0.0252906
72.1664 42.0856 0.0236589
74.9194 39.9526 0
75 37.5 2
72.4036 39.8024 2
71.7803 44.3524 2
69.7979 41.7895 2
70.5719 48.813 2
68.9053 46.013 2
72.4872 37.5126 3.97702
70.0363 39.6582 3.96724
69.4248 43.907 3.9664
67.4951 41.4883 3.97286
68.2526 48.1046 3.96456
66.5858 45.4174 3.97075
74.9197 35.0474 0
74.2794 30.1841 0
72.1831 32.9443 0.0233436
71.2761 28.4322 0.0247586
65.694 12.7746 0
65.3197 16.1059 0.0279396
69.8128 24.0597 0.0247829
68.3389 26.955 0.0357905
66.7493 22.9376 0.0362795
64.7021 19.2014 0.0363499
63.7917 22.0725 0.0356838
72.4115 35.225 2
71.8018 30.6779 2
69.8341 33.2719 2
68.9597 29.0425 2
64.0165 10.9835 2
63.8877 14.336 2
63.5013 17.4584 2
67.6022 24.9171 2
66.0836 27.6643 2
62.8159 20.3612 2
64.6519 23.8662 2
61.903 23.0162 2
60.6835 11.1063 2
57.6062 11.4684 2
70.0531 35.3942 3.96727
69.4616 31.1526 3.96586
67.5605 33.6037 3.97201
66.662 29.6472 3.96943
65.416 25.7316 3.96729
63.9155 28.3123 3.9753
62.3376 12.6589 3.97603
62.6499 24.7057 3.97089
62.1899 15.8013 3.96537
61.7401 18.7261 3.96043
61.0401 21.4182 3.96557
60.1482 23.8321 3.97264
59.239 12.8104 3.96637
55.8682 10.2592 3.97272
56.3933 13.1732 3.96921
69.7659 50.9894 0.0252941
62.2254 65.694 0
58.8917 65.4128 0.0169499
67.7804 55.1673 0.0249108
66.6323 52.2054 0.0361677
62.3325 62.4245 0.0230614
62.1953 59.391 0.0348392
64.6516 56.0272 0.0357309
61.7663 56.6508 0.0386459
60.6681 63.9705 2
57.0251 66.7314 2
57.5532 63.6784 2
67.4919 50.1723 2
65.6855 54.1681 2
64.4175 51.3499 2
60.7658 60.9195 2
62.7403 55.036 2
60.6213 58.1293 2
60.2096 55.7291 2
55.0684 67.9311 3.98762
59.213 62.3367 3.96877
55.8005 64.9003 3.9742
56.3157 62.0437 3.9714
65.2014 49.3751 3.96738
63.6013 53.2576 3.9646
62.2036 50.5842 3.96994
59.3152 59.5249 3.96136
60.9148 54.2471 3.96723
59.1814 56.9511 3.96142
59.0721 55.108 3.9678
48.0996 68.5739 3.98366
50.9462 69.9312 3.9896
54.0858 71.1327 4
56.25 69.976 2
58.3339 68.6801 0
57.0555 8.33888 3.98163
60.3285 7.74928 4
58.9211 9.6639 2
62.2255 9.30602 2
70.5725 48.8138 0.0255829
71.7806 44.3529 0.0239117
68.9048 46.0135 0.0347115
69.7987 41.7898 0.0331596
72.4038 39.8025 0.0225937
75 37.5 0
72.4865 37.5125 2
70.0361 39.6581 2
69.4243 43.9065 2
67.4932 41.4881 2
68.2546 48.104 2
66.5834 45.4168 2
70.1244 37.5231 3.96731
67.741 39.5091 3.9731
67.1069 43.4541 3.97153
65.3162 41.1878 3.97652
65.9377 47.3893 3.96932
64.3891 44.8016 3.97603
72.4117 35.225 0.0225411
71.8021 30.6773 0.0237887
69.8349 33.2712 0.0332225
68.9601 29.0414 0.0348666
64.0165 10.9835 0
63.8857 14.3305 0.0271907
63.5032 17.4572 0.0359652
67.6014 24.9157 0.0361052
66.0845 27.6635 0.0315537
64.653 23.8651 0.0341621
62.8179 20.3602 0.037649
61.9041 23.0151 0.0314084
60.6808 11.1018 0.0220316
57.6053 11.4751 0.0308975
70.0529 35.3945 2
69.4613 31.1534 2
67.5586 33.6042 2
66.6598 29.648 2
62.3403 12.6641 2
62.1881 15.8024 2
61.7394 18.7264 2
65.415 25.7327 2
63.9134 28.3136 2
61.0386 21.4192 2
62.6482 24.707 2
60.1465 23.8334 2
59.2396 12.8106 2
56.3945 13.1708 2
55.8705 10.257 2
67.7794 35.555 3.97257
67.165 31.6409 3.971
65.4727 33.9521 3.97678
64.4267 30.2404 3.97625
63.3173 26.4776 3.97322
61.9155 28.8645 3.97606
60.7677 14.2469 3.9665
60.7426 25.4386 3.97502
60.5657 17.1689 3.95987
60.0556 19.8978 3.96198
59.3947 22.3694 3.96838
58.6293 24.4544 3.97451
54.0336 9.14844 3.97252
57.8957 14.3796 3.96484
54.7749 12.0715 3.96776
55.2918 14.7206 3.96496
67.491 50.1734 0.0359088
57.0226 66.7336 0.0140351
60.6658 63.9735 0.0203804
57.5521 63.6736 0.0287357
65.6887 54.1696 0.036081
64.4178 51.3503 0.0339951
60.7674 60.9177 0.0317527
60.618 58.1274 0.0398275
62.7411 55.036 0.0366852
60.2112 55.7292 0.0352885
55.0707 67.9292 2
59.2128 62.3394 2
55.8011 64.8987 2
56.3145 62.044 2
65.2004 49.3745 2
63.6011 53.2574 2
62.203 50.5837 2
59.3154 59.5283 2
60.9148 54.2471 2
59.1873 56.9528 2
59.0763 55.1089 2
53.0404 68.9993 3.98913
53.9631 66.0046 3.97782
57.8671 60.8323 3.96863
54.6731 63.173 3.97077
55.193 60.5629 3.97491
62.9393 48.5974 3.97227
61.5377 52.5086 3.96855
59.9252 49.9202 3.97262
57.9566 58.2105 3.9607
59.1032 53.8621 3.96949
57.9293 55.7244 3.96299
50.1062 67.8518 3.98269
47.4603 66.5698 3.97844
46.0536 69.1532 3.98474
48.1006 68.5738 2
48.8001 70.7225 3.99011
50.948 69.9303 2
51.8506 72.1454 4
54.0858 71.1327 2
56.25 69.9759 0
55.1005 7.1432 3.98522
58.3339 6.31992 4
57.0588 8.34238 2
60.3286 7.74926 2
58.9181 9.65976 0.0206915
62.2254 9.30607 0
68.2526 48.1046 0.0354437
69.4248 43.907 0.0336004
66.5858 45.4174 0.0292543
67.4951 41.4883 0.0271371
70.0363 39.6582 0.0327648
72.4872 37.5126 0.0229786
70.1237 37.5232 2
67.7387 39.509 2
67.106 43.4538 2
65.3132 41.1873 2
65.9369 47.3887 2
64.3875 44.8007 2
67.8415 37.5242 3.97296
65.5556 39.361 3.97661
64.9282 42.9894 3.97668
63.4107 40.8994 3.97658
63.6984 46.6603 3.97439
62.4284 44.1463 3.97618
70.0531 35.3942 0.0327287
69.4616 31.1526 0.0341364
67.5605 33.6037 0.0279947
66.662 29.6472 0.0305688
62.3376 12.6589 0.0239719
62.1899 15.8013 0.0346345
61.7401 18.7261 0.0395685
65.416 25.7316 0.0327122
63.9155 28.3123 0.0246998
62.6499 24.7057 0.0291065
61.0401 21.4182 0.0344343
60.1482 23.8321 0.0273561
59.239 12.8104 0.0336267
56.3933 13.1732 0.0307863
55.8682 10.2592 0.027279
67.7769 35.5553 2
67.1637 31.6415 2
65.4689 33.9529 2
64.4237 30.2417 2
60.7673 14.248 2
60.5629 17.1693 2
60.054 19.8987 2
63.3154 26.4789 2
61.9135 28.8653 2
59.3958 22.3703 2
60.7403 25.4399 2
58.6273 24.4559 2
57.8945 14.38 2
55.2932 14.7172 2
54.036 9.14827 2
54.776 12.067 2
65.6543 35.6811 3.97666
64.9474 32.1916 3.97647
63.9781 34.2808 3.97655
62.2325 30.7054 3.97622
61.3264 27.1678 3.97573
60.4333 29.244 3.97626
59.2876 15.7108 3.96032
58.9433 25.9323 3.97616
59.0039 18.4333 3.96018
58.4974 20.9692 3.96372
57.95 23.2326 3.96981
57.5841 24.8185 3.97526
52.1092 8.1636 3.97634
53.048 11.0586 3.96939
56.6457 15.8101 3.96005
53.7883 13.7602 3.96575
54.332 16.0907 3.96059
55.0684 67.9311 0.0123818
65.2014 49.3751 0.0326228
55.8005 64.9003 0.0257989
59.213 62.3367 0.0312273
56.3157 62.0437 0.0286009
63.6013 53.2576 0.0353976
62.2036 50.5842 0.0300554
59.3152 59.5249 0.038643
59.1814 56.9511 0.0385767
60.9148 54.2471 0.0327715
59.0721 55.108 0.0322013
53.0426 68.9982 2
53.9641 66.0039 2
57.8656 60.8334 2
54.6725 63.1743 2
55.1905 60.5632 2
62.9377 48.5966 2
61.538 52.5085 2
59.9263 49.9199 2
57.954 58.2116 2
59.1073 53.8626 2
57.9256 55.7231 2
52.0672 66.9938 3.98128
52.9468 64.2003 3.97501
56.6189 59.4423 3.96445
53.6605 61.565 3.97097
54.2258 59.2659 3.97211
60.5999 47.7837 3.97403
59.4137 52.0095 3.97056
57.588 49.4872 3.97394
56.666 56.9134 3.96316
56.8385 54.011 3.96679
50.1071 67.8513 2
49.3337 65.91 3.97838
47.4607 66.5695 2
46.8879 64.7182 3.97701
45.556 67.0874 3.97934
43.9713 69.5854 3.98582
46.0546 69.1532 2
46.6066 71.3669 3.99062
48.0996 68.5739 0.0163381
48.8018 70.722 2
49.554 73.0099 4
50.9462 69.9312 0.0104011
51.8506 72.1455 2
54.0858 71.1327 0
53.0628 6.07349 3.98842
55.1039 7.14479 2
56.25 5.02411 4
58.3339 6.3199 2
57.0555 8.33888 0.0183656
60.3285 7.74928 0
65.9377 47.3893 0.0306839
67.1069 43.4541 0.0284729
64.3891 44.8016 0.0239677
65.3162 41.1878 0.0234797
67.741 39.5091 0.0269028
70.1244 37.5231 0.0326859
67.8394 37.5244 2
65.5523 39.3608 2
64.925 42.9884 2
63.4099 40.8991 2
63.6966 46.6594 2
62.4271 44.1459 2
65.6646 37.5048 3.9766
63.5602 39.2536 3.97666
62.9637 42.5045 3.97635
62.0048 40.6604 3.9766
61.5737 45.8339 3.97565
60.9802 43.606 3.9761
67.7794 35.555 0.0274322
67.165 31.6409 0.0289993
65.4727 33.9521 0.0232192
64.4267 30.2404 0.0237505
60.7677 14.2469 0.033498
60.5657 17.1689 0.0401307
60.0556 19.8978 0.0380165
63.3173 26.4776 0.0267754
61.9155 28.8645 0.0239421
60.7426 25.4386 0.0249801
59.3947 22.3694 0.0316184
58.6293 24.4544 0.0254864
57.8957 14.3796 0.0351628
55.2918 14.7206 0.0350445
54.0336 9.14844 0.0274808
54.7749 12.0715 0.0322436
65.6507 35.6812 2
64.9439 32.1925 2
63.9765 34.2813 2
62.2308 30.7057 2
59.2865 15.7097 2
59.0137 18.4311 2
58.4967 20.9705 2
61.3247 27.169 2
60.4329 29.2447 2
57.9411 23.2359 2
58.9422 25.9335 2
57.5891 24.8202 2
56.6439 15.8099 2
54.3374 16.0845 2
53.7877 13.749 2
52.1113 8.16328 2
53.0494 11.0572 2
63.7702 35.6509 3.97646
62.5571 33.0959 3.97621
60.1478 30.7101 3.97593
59.1312 28.039 3.97601
57.874 17.0539 3.95916
57.2968 25.8932 3.97601
57.5213 19.5883 3.95989
57.0486 21.9893 3.96412
56.7762 24.1157 3.97069
50.1103 7.29264 3.98179
51.2254 10.149 3.97307
52.1536 12.8642 3.9688
55.4713 17.0643 3.95851
52.9401 15.36 3.96325
53.6904 17.0899 3.95821
53.0404 68.9993 0.010873
53.9631 66.0046 0.0221785
62.9393 48.5974 0.0277346
54.6731 63.173 0.0292269
57.8671 60.8323 0.0313746
55.193 60.5629 0.0250863
61.5377 52.5086 0.0314546
59.9252 49.9202 0.0273759
57.9566 58.2105 0.039303
57.9293 55.7244 0.0370056
59.1032 53.8621 0.0305111
52.0683 66.9938 2
52.9463 64.2018 2
56.6168 59.4426 2
53.6587 61.5664 2
54.2222 59.2678 2
60.5994 47.783 2
59.4151 52.0094 2
57.5871 49.4864 2
56.6618 56.9167 2
56.8355 54.0099 2
51.164 65.1154 3.97706
52.0312 62.5071 3.97161
55.4174 58.1893 3.96103
52.7958 60.0589 3.9686
53.5881 58.4069 3.96604
57.7658 46.7082 3.97581
57.1954 51.6639 3.97073
55.7325 49.4008 3.97329
55.3102 55.6993 3.96421
55.0236 53.2567 3.96343
50.1062 67.8518 0.0173123
49.3338 65.9095 2
48.612 64.1059 3.97795
47.4603 66.5698 0.0215597
45.5564 67.0879 2
46.8885 64.7175 2
46.374 63.0298 3.9823
45.1297 65.1799 3.97743
43.6297 67.4596 3.98138
41.8591 69.8725 3.98552
43.972 69.5858 2
44.374 71.8614 3.99102
46.0536 69.1532 0.0152606
46.608 71.3666 2
47.2057 73.7222 4
48.8001 70.7225 0.0098946
49.554 73.0099 2
51.8506 72.1454 0
50.9537 5.13411 3.9903
53.0654 6.07439 2
54.0858 3.86728 4
55.1005 7.1432 0.0147826
56.25 5.02406 2
58.3339 6.31992 0
63.6984 46.6603 0.0256106
64.9282 42.9894 0.023319
62.4284 44.1463 0.0238169
63.4107 40.8994 0.0234226
65.5556 39.361 0.0233934
67.8415 37.5242 0.0270361
65.661 37.5047 2
63.5597 39.2535 2
62.9631 42.5043 2
62.0058 40.6603 2
61.5724 45.833 2
60.9798 43.606 2
63.6244 37.4591 3.97656
61.7125 39.3341 3.97675
60.7249 41.8955 3.97657
59.7377 44.6602 3.97609
65.6543 35.6811 0.0233385
64.9474 32.1916 0.0235272
63.9781 34.2808 0.0234481
62.2325 30.7054 0.0237767
59.2876 15.7108 0.0396822
59.0039 18.4333 0.0398164
58.4974 20.9692 0.0362824
61.3264 27.1678 0.0242729
60.4333 29.244 0.0237376
58.9433 25.9323 0.0238369
57.95 23.2326 0.0301928
57.5841 24.8185 0.0247407
56.6457 15.8101 0.0399545
54.332 16.0907 0.0394127
53.7883 13.7602 0.0342544
52.1092 8.1636 0.0236562
53.048 11.0586 0.030606
63.7693 35.6509 2
62.5572 33.0963 2
60.1482 30.7103 2
57.875 17.0536 2
57.5376 19.584 2
57.0446 21.9919 2
59.1306 28.0398 2
56.7924 24.1168 2
57.2991 25.896 2
50.1124 7.29034 2
55.4759 17.0612 2
53.7018 17.0791 2
52.9393 15.3509 2
52.1546 12.8682 2
51.2274 10.146 2
61.756 35.3852 3.97648
59.7672 32.8201 3.9761
58.0654 30.2039 3.97577
56.7749 27.5547 3.97638
56.5239 18.2552 3.96005
55.8215 25.2943 3.9751
56.1108 20.6634 3.96079
55.7205 23.0474 3.96409
48.0558 6.53243 3.98597
49.3204 9.34674 3.97587
50.4192 12.042 3.97197
51.3437 14.5772 3.96427
54.3107 18.0364 3.95905
52.3038 17.1592 3.95873
52.0672 66.9938 0.0187236
52.9468 64.2003 0.0249902
60.5999 47.7837 0.0259666
53.6605 61.565 0.029028
56.6189 59.4423 0.0355456
54.2258 59.2659 0.0278925
59.4137 52.0095 0.0294439
57.588 49.4872 0.0260583
56.666 56.9134 0.0368395
56.8385 54.011 0.0332067
51.1637 65.1154 2
52.0297 62.5087 2
55.4157 58.1905 2
52.7947 60.0623 2
53.5861 58.4096 2
57.7654 46.7075 2
57.1921 51.6628 2
55.7272 49.3993 2
55.3073 55.6991 2
55.024 53.257 2
50.3373 63.3634 3.97883
51.2142 60.8756 3.97528
54.1289 57.1946 3.96728
52.2332 58.5532 3.96842
55.9901 44.0285 3.97646
54.881 47.7233 3.97502
54.6072 51.2381 3.96599
53.7754 54.4345 3.96593
49.3337 65.91 0.0216247
48.612 64.1043 2
47.9492 62.4533 3.9812
45.556 67.0874 0.0206552
46.8879 64.7182 0.0229862
43.6299 67.4603 2
46.3742 63.0295 2
45.1305 65.1797 2
45.9748 61.5589 3.98981
44.7622 63.4274 3.97684
43.3557 65.4919 3.97817
41.6623 67.6782 3.98103
39.7015 70.0183 3.98494
41.8597 69.8729 2
42.1088 72.2057 3.99144
43.9713 69.5854 0.0141841
44.3752 71.8613 2
44.8159 74.2794 4
46.6066 71.3669 0.00937603
47.2057 73.7222 2
49.554 73.0099 0
48.7852 4.32437 3.99121
50.9556 5.13371 2
51.8506 2.85458 4
53.0628 6.07349 0.0115787
54.0858 3.86728 2
56.25 5.02411 0
61.5737 45.8339 0.0243461
62.9637 42.5045 0.0236463
60.9802 43.606 0.0239027
62.0048 40.6604 0.0234019
63.5602 39.2536 0.0233361
65.6646 37.5048 0.0234049
63.6238 37.459 2
61.7137 39.3341 2
60.7263 41.8956 2
59.738 44.6596 2
61.5414 37.4455 3.97692
59.6777 39.8076 3.97679
58.3604 42.8211 3.97603
63.7702 35.6509 0.0235369
62.5571 33.0959 0.0237943
60.1478 30.7101 0.0240707
57.874 17.0539 0.0408364
57.5213 19.5883 0.0401124
57.0486 21.9893 0.0358753
59.1312 28.039 0.0239857
57.2968 25.8932 0.0239883
56.7762 24.1157 0.029307
55.4713 17.0643 0.0414901
53.6904 17.0899 0.0417924
52.9401 15.36 0.0367504
50.1103 7.29264 0.0182117
52.1536 12.8642 0.0311992
51.2254 10.149 0.0269301
61.757 35.3852 2
59.7675 32.82 2
58.0665 30.2033 2
56.5269 18.2538 2
56.1339 20.6568 2
55.7302 23.0518 2
56.7752 27.5564 2
55.8287 25.2999 2
48.0568 6.53131 2
49.3224 9.34479 2
54.3291 18.034 2
52.2969 17.1513 2
51.3408 14.5779 2
50.4212 12.0423 2
59.3133 35.1569 3.97658
57.3356 32.373 3.97559
55.9252 29.5083 3.97608
54.875 26.8244 3.97555
55.1928 19.3116 3.96224
54.499 24.2638 3.97293
54.6995 21.7318 3.96037
45.9625 5.8862 3.9879
43.3744 7.48017 3.98371
47.3534 8.634 3.98076
48.5904 11.3241 3.97353
49.6841 13.7979 3.9687
50.582 16.2305 3.96168
53.0038 18.8037 3.96296
51.2217 18.2137 3.9612
51.164 65.1154 0.0229387
52.0312 62.5071 0.0283851
57.7658 46.7082 0.0241884
52.7958 60.0589 0.0314049
55.4174 58.1893 0.0389682
53.5881 58.4069 0.0339587
57.1954 51.6639 0.0292723
55.7325 49.4008 0.0267146
55.3102 55.6993 0.0357861
55.0236 53.2567 0.0365661
50.3364 63.362 2
51.2123 60.8744 2
54.1274 57.1963 2
52.2301 58.5557 2
55.9907 44.0286 2
54.8782 47.722 2
54.6038 51.237 2
53.774 54.4363 2
49.5724 61.7247 3.97493
54.7273 41.6262 3.97404
50.5075 59.2658 3.97013
52.0427 56.4023 3.96742
53.395 45.3585 3.97421
52.7426 49.1506 3.96975
52.306 52.717 3.9602
48.612 64.1059 0.0220478
47.9486 62.45 2
47.308 60.984 3.99402
43.6297 67.4596 0.0186156
45.1297 65.1799 0.0225721
46.374 63.0298 0.0177
41.6629 67.6775 2
43.3568 65.4927 2
45.9738 61.5589 2
44.7626 63.4266 2
45.7422 60.6046 3.99024
44.4749 61.8016 3.97921
43.1437 63.703 3.97817
41.5456 65.6304 3.97633
39.632 67.7553 3.98023
37.5259 70.0427 3.98404
39.7019 70.0185 2
39.8162 72.4024 3.99139
41.8591 69.8725 0.0144779
42.1096 72.206 2
42.3947 74.6792 4
44.374 71.8614 0.00897613
44.8159 74.2794 2
47.2057 73.7222 0
43.852 5.36282 3.98724
46.5714 3.64875 3.99178
48.7861 4.32408 2
49.554 1.99015 4
50.9537 5.13411 0.00969923
51.8506 2.85453 2
54.0858 3.86728 0
59.7377 44.6602 0.0239089
60.7249 41.8955 0.0234298
61.7125 39.3341 0.0232517
63.6244 37.4591 0.0234437
61.5423 37.4454 2
59.6792 39.8072 2
58.361 42.8213 2
59.1677 37.5657 3.9773
57.2848 40.5898 3.97726
54.1264 39.6412 3.97544
61.756 35.3852 0.0235169
59.7672 32.8201 0.0239004
58.0654 30.2039 0.0242349
56.5239 18.2552 0.0399471
56.1108 20.6634 0.0392077
55.7205 23.0474 0.0359129
56.7749 27.5547 0.0236181
55.8215 25.2943 0.0249018
54.3107 18.0364 0.0409494
52.3038 17.1592 0.0412659
51.3437 14.5772 0.0357324
48.0558 6.53243 0.0140289
49.3204 9.34674 0.0241306
50.4192 12.042 0.0280263
59.314 35.1562 2
45.9631 5.88463 2
43.3747 7.47761 2
57.3365 32.3735 2
55.9249 29.5077 2
55.1836 19.3172 2
54.7362 21.7331 2
54.5003 24.2697 2
54.8734 26.8261 2
47.355 8.63128 2
48.5925 11.322 2
53.0176 18.7767 2
51.2292 18.208 2
50.5791 16.2292 2
49.6832 13.8021 2
56.6577 34.8139 3.97714
54.9817 31.6586 3.97562
53.8406 28.6196 3.97695
53.2529 25.7409 3.9745
53.7821 20.2825 3.96048
53.2392 22.9223 3.95734
41.4003 7.0842 3.9835
45.3598 8.00013 3.98656
42.8666 9.42694 3.97709
46.6628 10.6704 3.97845
47.7213 13.1368 3.97358
48.8875 15.4744 3.96844
49.9268 17.7942 3.9578
51.5178 19.4995 3.97338
50.3373 63.3634 0.0211722
51.2142 60.8756 0.0247219
55.9901 44.0285 0.0235391
54.881 47.7233 0.0249828
52.2332 58.5532 0.0315797
54.1289 57.1946 0.0327152
54.6072 51.2381 0.0340106
53.7754 54.4345 0.0340708
49.5707 61.7222 2
54.7176 41.6217 2
50.5045 59.2675 2
52.0453 56.406 2
53.3901 45.3563 2
52.7395 49.1485 2
52.3088 52.7173 2
48.8091 60.1746 3.97848
51.4785 42.4949 3.98332
49.6896 57.5611 3.96415
50.351 54.3282 3.96198
51.0663 47.0627 3.97549
50.7426 50.7905 3.95491
47.1692 43.5442 3.97376
47.9492 62.4533 0.0188007
47.3059 60.9809 2
46.5836 59.7762 3.9942
41.6623 67.6782 0.0189661
43.3557 65.4919 0.0218262
44.7622 63.4274 0.0231641
45.9748 61.5589 0.0101916
39.6328 67.7558 2
41.5465 65.628 2
45.7421 60.6043 2
43.1435 63.7021 2
44.473 61.8031 2
44.5991 60.259 3.9961
42.9435 62.0552 3.97484
41.599 63.7993 3.97695
39.6467 65.5946 3.97574
37.5632 67.736 3.9784
31.6982 65.1127 3.97554
33.3931 67.4743 3.97827
35.3341 69.9532 3.98434
37.5259 70.0441 2
37.509 72.4566 3.99195
39.7015 70.0183 0.0150582
39.8168 72.4024 2
39.9526 74.9197 4
42.1088 72.2057 0.00855961
42.3947 74.6792 2
44.8159 74.2794 0
41.7368 4.97083 3.98804
43.8523 5.36093 2
44.327 3.11169 3.99241
46.572 3.64819 2
47.2057 1.27793 4
48.7852 4.32437 0.00879261
49.554 1.99013 2
51.8506 2.85458 0
58.3604 42.8211 0.0239701
59.6777 39.8076 0.0232062
61.5414 37.4455 0.023085
59.1691 37.5661 2
57.2857 40.5914 2
54.1168 39.6491 2
56.0118 37.8746 3.97679
48.5043 41.2161 3.97065
52.0662 39.2778 3.98193
39.444 6.80743 3.98409
59.3133 35.1569 0.0234238
57.3356 32.373 0.0244136
55.9252 29.5083 0.0239168
55.1928 19.3116 0.0377573
54.6995 21.7318 0.0396316
54.499 24.2638 0.0270705
54.875 26.8244 0.0244478
53.0038 18.8037 0.0370363
51.2217 18.2137 0.0388007
50.582 16.2305 0.0383211
45.9625 5.8862 0.0120974
49.6841 13.7979 0.0313039
47.3534 8.634 0.0192448
48.5904 11.3241 0.0264708
43.3744 7.48017 0.0162855
56.6572 34.8141 2
41.4005 7.08385 2
45.3606 7.99783 2
42.8671 9.42447 2
54.984 31.6576 2
53.8395 28.6208 2
53.7876 20.2999 2
53.2257 22.9255 2
53.249 25.7424 2
46.6647 10.6653 2
47.722 13.1335 2
51.5414 19.499 2
49.9262 17.7954 2
48.8806 15.4862 2
53.9475 34.0151 3.97484
52.6808 30.7166 3.97531
51.9515 27.4747 3.97474
51.7437 24.3673 3.97848
52.1762 21.2455 3.97484
41.0136 9.05822 3.97733
44.7262 10.0023 3.98513
42.4601 10.9111 4.00384
45.9837 12.7462 3.96882
47.6447 14.6501 3.96639
48.0358 17.0494 3.96667
49.7287 19.8976 3.97988
49.5724 61.7247 0.0250698
50.5075 59.2658 0.0298697
54.7273 41.6262 0.0259628
53.395 45.3585 0.0257902
52.7426 49.1506 0.0302533
52.0427 56.4023 0.0325754
52.306 52.717 0.0397995
48.8058 60.1715 2
51.4907 42.5064 2
49.6868 57.5612 2
50.3522 54.3305 2
51.0688 47.0615 2
50.7467 50.7903 2
47.18 43.5779 2
47.9216 58.6889 3.98782
49.1588 45.0863 3.98095
48.4404 55.8457 3.95888
48.8034 52.4784 3.97645
49.0982 48.8665 3.97015
44.9006 39.7738 3.84835
45.402 42.4688 3.88878
45.6809 45.5389 3.98282
42.7378 40.9956 3.65887
41.5112 41.7601 3.45873
47.308 60.984 0.00598214
46.582 59.7698 2
45.4205 58.7712 3.99466
39.632 67.7553 0.0197657
41.5456 65.6304 0.0236699
43.1437 63.703 0.0218313
44.4749 61.8016 0.0207899
45.7422 60.6046 0.00975544
41.5992 63.7972 2
37.5638 67.7377 2
39.648 65.5952 2
44.5998 60.2605 2
42.9413 62.055 2
41.747 62.4616 3.97673
42.4617 59.9491 3.98251
39.8939 63.5311 3.97612
37.6416 65.4906 3.97505
35.4638 67.6457 3.97833
33.5761 65.3239 3.97444
31.9606 63.2722 3.97677
29.8863 64.7024 3.97937
31.6978 65.1121 2
31.3781 67.1854 3.97883
33.3927 67.4751 2
33.1577 69.7469 3.98428
35.3336 69.9547 2
35.1959 72.3713 3.99202
37.5259 70.0427 0.0159643
37.5093 72.4572 2
37.5 75 4
39.8162 72.4024 0.00860671
39.9526 74.9197 2
42.3947 74.6792 0
39.6249 4.71852 3.9891
41.7369 4.97033 2
42.0635 2.71869 3.99281
43.852 5.36282 0.0127638
44.3271 3.11073 2
44.8158 0.721173 4
46.5714 3.64875 0.00822362
47.2057 1.27779 2
49.554 1.99015 0
57.2848 40.5898 0.0227386
59.1677 37.5657 0.0227042
54.1264 39.6412 0.0245557
48.5269 41.2231 2
56.0133 37.8712 2
52.0603 39.2414 2
52.9246 36.6138 3.97771
46.4347 40.2926 3.89409
49.4443 38.5032 3.98323
37.518 6.67696 3.98518
39.4446 6.80563 2
39.2115 8.70001 3.98172
35.944 8.49784 3.98341
56.6577 34.8139 0.0228579
54.9817 31.6586 0.0243846
53.8406 28.6196 0.0230459
53.7821 20.2825 0.0395221
53.2392 22.9223 0.0426625
53.2529 25.7409 0.0254996
51.5178 19.4995 0.026618
49.9268 17.7942 0.0421988
48.8875 15.4744 0.031562
45.3598 8.00013 0.0134398
47.7213 13.1368 0.0264227
46.6628 10.6704 0.0215501
41.4003 7.0842 0.0165003
42.8666 9.42694 0.0229055
53.9461 34.0123 2
41.0148 9.05973 2
44.7264 9.9992 2
42.4614 10.9116 2
52.6745 30.7142 2
51.9586 27.4769 2
52.1734 21.2553 2
51.7312 24.372 2
45.9847 12.7387 2
47.6369 14.6198 2
49.7496 19.88 2
48.032 17.0589 2
51.4434 32.9351 3.98214
50.5135 29.4357 3.97735
50.2543 25.9717 3.97011
49.7403 22.4938 3.98556
40.5634 11.6204 3.98401
43.8393 11.9164 3.97668
45.7613 15.4956 3.98953
47.4358 19.5095 3.97997
45.3607 37.4833 3.84664
48.8091 60.1746 0.0215159
49.6896 57.5611 0.035851
51.4785 42.4949 0.0166803
51.0663 47.0627 0.0245065
50.7426 50.7905 0.0450925
50.351 54.3282 0.0380208
47.1692 43.5442 0.0262447
47.9179 58.6948 2
49.1751 45.1018 2
48.4361 55.8483 2
48.8042 52.4832 2
49.1025 48.8688 2
44.9988 39.7997 2
45.4301 42.489 2
45.6885 45.5579 2
42.793 41.0493 2
41.5499 41.785 2
46.7446 57.2946 3.9801
43.4522 39.3484 3.65747
41.8894 40.7014 3.46641
47.3561 47.1142 3.98393
46.9529 54.1507 3.95967
47.1762 50.6207 3.97768
44.2326 47.1671 3.984
44.0517 41.8096 3.84733
44.1762 44.2733 3.88356
41.799 42.3968 3.70325
40.5504 42.0501 3.43324
46.5836 59.7762 0.00579977
45.4205 58.7696 2
43.828 57.6519 3.98298
37.5632 67.736 0.0215996
39.6467 65.5946 0.0242587
41.599 63.7993 0.0230487
42.9435 62.0552 0.0251636
44.5991 60.259 0.00389879
35.4638 67.6478 2
41.7454 62.4645 2
39.8932 63.5312 2
37.6424 65.4924 2
42.4642 59.9462 2
40.6173 61.6029 3.98189
40.4252 58.124 3.98422
37.837 63.1868 3.97261
35.5729 65.4133 3.97648
33.5762 65.3242 2
31.9621 63.2757 2
33.6293 63.3149 3.97523
30.3809 62.8344 3.98102
32.1296 61.9751 3.9873
26.8829 61.4535 3.98016
28.0675 64.1316 3.97942
29.8856 64.7029 2
29.4082 66.748 3.97904
31.6982 65.1127 0.0244563
31.3779 67.1852 2
31.0156 69.4126 3.98424
33.3931 67.4743 0.0217273
33.157 69.7477 2
32.894 72.1457 3.99135
35.3341 69.9532 0.015661
35.1955 72.372 2
35.0474 74.9194 4
37.509 72.4566 0.00804822
37.5 75 2
39.9526 74.9197 0
35.6224 6.72853 3.98436
37.5247 4.61751 3.98942
39.6249 4.71693 2
39.79 2.47536 3.99291
41.7368 4.97083 0.0119556
42.0633 2.7183 2
42.3946 0.32156 4
44.327 3.11169 0.00759098
44.8159 0.72056 2
47.2057 1.27793 0
48.5043 41.2161 0.0293487
56.0118 37.8746 0.0232128
52.0662 39.2778 0.0180706
46.4543 40.2994 2
49.4429 38.5013 2
52.9264 36.6414 2
50.2501 35.5591 3.97422
47.0925 37.7553 3.90003
44.9271 35.1938 3.84733
42.7863 33.9576 3.65778
41.5481 33.1969 3.45748
37.4594 8.5376 3.9845
37.5185 6.67642 2
39.444 6.80743 0.0159132
39.2134 8.69755 2
38.9759 10.1365 3.98541
35.9003 9.78065 3.98005
34.154 8.82983 3.98136
35.9451 8.49522 2
53.9475 34.0151 0.025163
52.6808 30.7166 0.0246863
51.9515 27.4747 0.025258
52.1762 21.2455 0.0251614
51.7437 24.3673 0.0215232
49.7287 19.8976 0.0201211
48.0358 17.0494 0.0333306
47.6447 14.6501 0.0336142
44.7262 10.0023 0.014874
45.9837 12.7462 0.0311795
41.0136 9.05822 0.0226746
42.4601 10.9111 -0.00383778
51.4559 32.9296 2
40.566 11.6243 2
43.8388 11.9088 2
50.5312 29.436 2
50.2498 25.9777 2
49.7251 22.4832 2
45.7499 15.4416 2
47.4382 19.5402 2
49.0318 31.5548 3.98562
48.6205 27.7406 3.97638
49.0106 24.6143 3.98088
47.0602 22.2795 3.99006
38.2989 12.7525 3.97704
42.0805 14.3289 3.98029
44.75 18.6222 3.97385
43.8752 37.485 3.67086
45.4597 37.4877 2
47.9216 58.6889 0.0121788
48.4404 55.8457 0.0411182
49.1588 45.0863 0.0190499
49.0982 48.8665 0.0298508
48.8034 52.4784 0.0235512
44.9006 39.7738 0.151649
45.402 42.4688 0.111223
45.6809 45.5389 0.0171815
42.7378 40.9956 0.341127
41.5112 41.7601 0.541268
46.7411 57.3013 2
43.5257 39.3752 2
41.898 40.7146 2
47.3641 47.1109 2
46.9477 54.1551 2
47.1781 50.6294 2
44.2673 47.1649 2
44.1131 41.8431 2
44.2337 44.3022 2
41.8566 42.4557 2
40.5844 42.0657 2
45.2738 55.8737 4.00024
42.2336 39.1901 3.47693
40.4395 40.582 3.57878
45.5836 48.7561 4.00179
45.2354 52.4119 3.98585
42.9934 48.1615 3.99392
42.878 45.8012 3.87806
42.9673 43.5732 3.83063
40.6764 43.3817 3.67882
39.1641 42.3073 3.48669
45.4205 58.7712 0.00534371
43.8259 57.6608 2
42.0509 56.2308 3.98863
35.4638 67.6457 0.0216678
37.6416 65.4906 0.0249545
39.8939 63.5311 0.0238829
41.747 62.4616 0.0232729
42.4617 59.9491 0.0174861
35.5736 65.4163 2
40.6173 61.6014 2
37.8375 63.186 2
40.4256 58.1282 2
38.9036 56.3739 3.99362
38.2454 60.2841 3.98151
35.6069 63.1811 3.97241
33.5761 65.3239 0.0255597
31.9606 63.2722 0.0232317
33.6311 63.3163 2
30.3819 62.8371 2
32.1314 61.9775 2
28.6887 62.1734 3.98007
33.3485 61.4806 3.97914
31.0799 61.1998 3.98356
27.598 59.5475 3.98009
23.8341 59.0226 3.99343
25.0535 60.8204 3.97639
26.884 61.4541 2
26.2372 63.4612 3.97588
28.0669 64.1297 2
27.4654 66.1714 3.97878
29.8863 64.7024 0.0206267
29.4076 66.7477 2
28.9083 68.9377 3.98328
31.3781 67.1854 0.021174
31.0148 69.4124 2
30.617 71.7773 3.99078
33.1577 69.7469 0.0157154
32.8931 72.1461 2
32.6054 74.6784 4
35.1959 72.3713 0.00798141
35.0474 74.9197 2
37.5 75 0
33.7255 6.98466 3.98302
35.4368 4.68766 3.989
35.6229 6.72714 2
37.5158 2.38772 3.99303
37.5247 4.61681 2
39.6249 4.71852 0.0109048
39.7897 2.4745 2
39.9526 0.0806499 4
42.0635 2.71869 0.00718972
42.3947 0.320817 2
44.8158 0.721173 0
43.4719 35.6179 3.66197
41.9138 34.2507 3.45328
46.4347 40.2926 0.105909
49.4443 38.5032 0.0167687
52.9246 36.6138 0.0222903
47.0883 37.7351 2
50.2621 35.5593 2
45.0093 35.1745 2
42.8298 33.9083 2
41.5762 33.1712 2
47.3 34.3622 3.94114
44.1081 33.1546 3.83546
41.8525 32.5623 3.70177
40.5807 32.9163 3.43223
37.3119 10.6349 3.98147
37.461 8.53756 2
37.518 6.67696 0.0148175
39.2115 8.70001 0.0182804
38.9795 10.1342 2
34.7571 10.3904 3.97995
35.9027 9.77544 2
32.3809 9.37598 3.97773
34.1533 8.82536 2
35.944 8.49784 0.0165923
51.4434 32.9351 0.0178574
50.5135 29.4357 0.0226534
50.2543 25.9717 0.0298889
49.7403 22.4938 0.0144352
47.4358 19.5095 0.0200305
45.7613 15.4956 0.0104692
43.8393 11.9164 0.0233247
40.5634 11.6204 0.0159908
49.0525 31.5399 2
38.3007 12.7477 2
42.0872 14.3418 2
48.6213 27.7427 2
49.0026 24.6195 2
47.0452 22.2799 2
44.7535 18.6891 2
46.9575 29.7343 3.98339
46.6938 25.331 3.97289
44.1995 21.6267 3.98061
36.586 12.9663 3.97467
38.6766 14.8692 3.97511
41.7195 17.958 3.97816
42.401 37.4646 3.51361
43.9375 37.4865 2
45.3607 37.4833 0.153358
46.7446 57.2946 0.0198952
46.9529 54.1507 0.0403339
47.3561 47.1142 0.016071
47.1762 50.6207 0.0223191
43.4522 39.3484 0.342535
44.0517 41.8096 0.152675
44.1762 44.2733 0.11644
44.2326 47.1671 0.0160034
41.799 42.3968 0.29675
41.8894 40.7014 0.533588
40.5504 42.0501 0.566758
45.2703 55.8765 2
42.2388 39.1974 2
40.4795 40.5686 2
45.5845 48.7754 2
45.2306 52.4145 2
43.0293 48.1766 2
42.9368 45.8521 2
43.0205 43.6054 2
40.7223 43.4519 2
39.1598 42.3253 2
43.5957 54.3289 3.99612
40.5396 39.0348 3.60003
39.0598 40.6588 3.54774
43.3142 50.2502 4.0036
41.6364 47.3051 3.9243
41.5468 44.8958 3.84139
39.3456 44.0321 3.6468
37.5017 42.4281 3.53201
43.828 57.6519 0.0170158
42.0549 56.2236 2
40.3647 54.7893 3.99481
35.5729 65.4133 0.0235243
37.837 63.1868 0.0273855
40.6173 61.6029 0.0181088
40.4252 58.124 0.0157764
35.6082 63.1787 2
38.2441 60.2848 2
38.9063 56.3557 2
37.978 55.0491 3.99486
36.9266 57.5648 3.99132
35.3642 60.8791 3.9795
33.6293 63.3149 0.0247683
30.3809 62.8344 0.0189771
32.1296 61.9751 0.0126961
33.3498 61.4812 2
28.6897 62.1768 2
31.0815 61.205 2
29.4246 60.2562 3.97703
32.3693 59.6946 3.99626
28.0708 58.3343 4.01522
27.5999 59.5466 2
25.4228 58.5432 3.97947
22.8228 58.1784 3.96772
23.4239 60.2868 3.97687
23.8364 59.023 2
25.0551 60.8196 2
24.4434 62.7414 3.97651
26.8829 61.4535 0.0198409
26.2376 63.4602 2
25.5505 65.4802 3.97747
28.0675 64.1316 0.0205777
27.4651 66.1717 2
26.8381 68.3256 3.98305
29.4082 66.748 0.0209591
28.9074 68.9373 2
28.3723 71.2626 3.98999
31.0156 69.4126 0.0157583
30.6158 71.777 2
30.1842 74.2788 4
32.894 72.1457 0.00865275
32.6053 74.6792 2
35.0474 74.9194 0
31.7899 7.42394 3.98165
33.3494 4.92742 3.98796
33.7253 6.98204 2
35.2463 2.46361 3.99307
35.4367 4.68693 2
35.6224 6.72853 0.0156363
37.5 0 4
37.5151 2.38729 2
37.5247 4.61751 0.0105802
39.79 2.47536 0.00708561
39.9526 0.0802889 2
42.3946 0.32156 0
42.2282 35.737 3.46017
43.5547 35.5877 2
40.484 34.3717 3.57939
41.914 34.2332 2
47.0925 37.7553 0.0999741
50.2501 35.5591 0.0257808
44.9271 35.1938 0.152666
42.7863 33.9576 0.342224
41.5481 33.1969 0.542522
47.3304 34.3782 2
44.1524 33.1172 2
41.9051 32.5017 2
40.6109 32.9001 2
45.4216 31.7818 3.89982
43.0178 31.3887 3.82366
40.7203 31.5814 3.67844
39.1837 32.6762 3.48194
35.6964 11.7885 3.97621
37.3162 10.6339 2
37.4594 8.5376 0.015496
38.9759 10.1365 0.0145877
33.1021 11.2284 3.97296
34.7567 10.3824 2
35.9003 9.78065 0.0199492
30.4866 10.0279 3.97716
32.3803 9.37455 2
34.154 8.82983 0.0186446
49.0318 31.5548 0.014381
48.6205 27.7406 0.0236162
49.0106 24.6143 0.0191224
47.0602 22.2795 0.00994436
44.75 18.6222 0.0261495
42.0805 14.3289 0.019708
38.2989 12.7525 0.0229621
36.5831 12.9448 2
46.9637 29.6806 2
38.6758 14.8476 2
41.7113 17.9601 2
46.6931 25.3334 2
44.1838 21.6025 2
44.9427 27.8756 3.99494
43.5499 24.2677 4.02478
41.2763 20.9719 3.99042
35.7708 14.8061 3.97977
38.6597 17.6873 3.98332
40.5962 37.4458 3.61727
42.4135 37.4691 2
43.8752 37.485 0.329138
45.2738 55.8737 -0.000243188
45.2354 52.4119 0.0141546
45.5836 48.7561 -0.00178977
42.2336 39.1901 0.523073
42.9673 43.5732 0.169368
42.878 45.8012 0.121942
42.9934 48.1615 0.00608224
40.6764 43.3817 0.321176
40.4395 40.582 0.421223
39.1641 42.3073 0.513307
43.5926 54.3258 2
40.5527 39.0353 2
39.0586 40.6554 2
43.3064 50.2634 2
41.6393 47.3414 2
41.5665 44.942 2
37.4968 42.4506 2
39.3632 44.1015 2
41.7459 52.7929 4.00016
39.0691 39.0759 3.5539
37.5044 40.7137 3.58396
35.8472 42.3169 3.48364
40.7824 49.3888 3.99395
39.7042 45.6195 3.80734
37.4996 44.3022 3.68207
42.0509 56.2308 0.011368
40.3639 54.7977 2
38.7195 53.5874 3.9965
35.6069 63.1811 0.0275898
38.2454 60.2841 0.018494
38.9036 56.3739 0.00637997
35.3639 60.8709 2
36.928 57.5733 2
37.978 55.0467 2
36.3151 55.133 3.99738
34.4937 58.4777 3.99353
33.3485 61.4806 0.0208611
28.6887 62.1734 0.0199341
31.0799 61.1998 0.0164426
32.3691 59.6972 2
29.4261 60.2553 2
30.3406 57.7766 3.98626
28.0741 58.3326 2
27.0431 56.7812 3.96932
27.598 59.5475 0.0199112
25.4258 58.5427 2
23.954 56.733 3.95959
21.4443 57.3187 3.95844
22.0267 59.5608 3.98023
22.8248 58.18 2
22.7504 61.9829 3.97282
23.4254 60.2868 2
23.8341 59.0226 0.00656718
25.0535 60.8204 0.0236059
24.4443 62.7438 2
23.6866 64.6954 3.97494
26.2372 63.4612 0.0241172
25.5504 65.4816 2
24.8105 67.5868 3.98196
27.4654 66.1714 0.0212189
26.8371 68.3267 2
26.1676 70.6033 3.98972
28.9083 68.9377 0.0167187
28.371 71.2622 2
27.7943 73.7221 4
30.617 71.7773 0.00921864
30.1841 74.2794 2
32.6054 74.6784 0
29.8128 7.99999 3.97981
31.2547 5.33407 3.987
31.7894 7.4224 2
32.9823 2.70181 3.99264
33.3489 4.92589 2
33.7255 6.98466 0.0169765
35.0474 0.080333 4
35.2455 2.46334 2
35.4368 4.68766 0.0110024
37.5 0 2
37.5158 2.38772 0.00697177
39.9526 0.0806499 0
40.5943 35.8844 3.60568
42.2366 35.7376 2
43.4719 35.6179 0.338033
28.5468 10.7021 3.97724
39.073 34.3238 3.54411
40.4954 34.3788 2
41.9138 34.2507 0.546724
47.3 34.3622 0.0588583
44.1081 33.1546 0.164537
41.8525 32.5623 0.298231
40.5807 32.9163 0.567771
45.457 31.7661 2
43.066 31.3521 2
40.7666 31.5106 2
39.1861 32.6576 2
43.8132 30.0152 3.89146
41.5704 30.0597 3.84213
39.3761 30.9389 3.64597
37.532 32.564 3.52939
34.0997 12.9525 3.97514
35.6965 11.7751 2
37.3119 10.6349 0.0185309
31.1926 12.0001 3.97783
33.1027 11.227 2
34.7571 10.3904 0.0200452
30.4843 10.0225 2
32.3809 9.37598 0.0222673
46.9575 29.7343 0.0166086
46.6938 25.331 0.0271115
36.586 12.9663 0.0253327
44.1995 21.6267 0.0193928
41.7195 17.958 0.0218355
38.6766 14.8692 0.0248888
35.7737 14.8124 2
44.9365 27.8732 2
38.6591 17.691 2
41.2589 20.9624 2
43.5365 24.2496 2
33.6165 15.9103 3.98735
42.7114 26.7084 3.98352
40.7734 23.5738 3.99417
38.385 20.4656 3.99381
35.8445 17.5747 3.98614
39.0897 37.4872 3.56477
40.6015 37.4505 2
42.401 37.4646 0.486386
43.5957 54.3289 0.00388279
43.3142 50.2502 -0.00360226
40.5396 39.0348 0.399971
41.5468 44.8958 0.158612
41.6364 47.3051 0.0757039
39.3456 44.0321 0.353204
39.0598 40.6588 0.452256
37.5017 42.4281 0.467988
41.7372 52.794 2
39.0613 39.0635 2
37.5001 40.7051 2
40.7623 49.4048 2
35.8471 42.3338 2
39.7224 45.68 2
37.4941 44.3674 2
39.7116 51.5835 4.00275
37.5093 39.0777 3.59424
35.9571 40.6737 3.54888
34.4539 42.0667 3.43481
35.6524 44.0489 3.63754
38.655 48.2716 3.93425
37.531 45.9127 3.84106
40.3647 54.7893 0.00518869
38.7182 53.5843 2
36.7637 52.9097 3.99684
35.3642 60.8791 0.0204982
36.9266 57.5648 0.00868101
37.978 55.0491 0.00513749
34.4919 58.476 2
36.319 55.1223 2
33.2742 55.3363 3.99288
32.3693 59.6946 0.00374432
29.4246 60.2562 0.0229678
30.3433 57.7718 2
28.8409 55.2839 3.98921
28.0708 58.3343 -0.0152249
27.0466 56.7795 2
25.4897 55.0633 3.95531
22.005 55.2471 3.96041
25.4228 58.5432 0.0205275
23.9568 56.7348 2
20.318 56.9506 3.96283
20.6888 58.7169 3.96495
21.4471 57.32 2
21.186 61.1109 3.97259
22.028 59.5621 2
22.8228 58.1784 0.0322823
21.9025 63.8148 3.97439
22.7519 61.9842 2
23.4239 60.2868 0.0231291
24.4434 62.7414 0.023495
23.6864 64.6948 2
22.8391 66.7288 3.97892
25.5505 65.4802 0.0225345
24.8095 67.5872 2
24.0118 69.805 3.98961
26.8381 68.3256 0.0169505
26.1658 70.6033 2
25.446 73.0099 4
28.3723 71.2626 0.0100085
27.7943 73.7222 2
30.1842 74.2788 0
27.8226 8.65965 3.98018
29.1569 5.88093 3.98521
29.8113 7.99611 2
30.7279 3.09858 3.99237
31.2541 5.33262 2
31.7899 7.42394 0.0183482
32.6053 0.320823 4
32.9813 2.70126 2
33.3494 4.92742 0.0120396
35.0474 0.0802903 2
35.2463 2.46361 0.00693345
37.5 0 0
39.0501 35.9066 3.5648
40.5758 35.8833 2
42.2282 35.737 0.539834
28.5447 10.6991 2
26.6256 11.3998 3.97784
29.2335 12.6508 3.98139
37.5277 34.2844 3.58347
39.0915 34.3398 2
40.484 34.3717 0.420609
45.4216 31.7818 0.10018
43.0178 31.3887 0.17634
40.7203 31.5814 0.321556
39.1837 32.6762 0.518064
43.8429 29.9817 2
41.5982 30.0159 2
39.3857 30.8714 2
37.5341 32.5391 2
41.9933 28.7057 3.86256
39.7095 29.3411 3.82986
37.5283 30.6902 3.6869
35.8671 32.6769 3.48909
31.9293 14.4993 3.98103
34.0999 12.9575 2
35.6964 11.7885 0.023793
31.1904 11.9915 2
33.1021 11.2284 0.0270408
30.4866 10.0279 0.022835
44.9427 27.8756 0.00505777
43.5499 24.2677 -0.0247761
35.7708 14.8061 0.020231
41.2763 20.9719 0.00958289
38.6597 17.6873 0.0166765
33.6098 15.8943 2
35.8399 17.566 2
42.7504 26.6865 2
38.3675 20.5223 2
40.767 23.5558 2
33.5521 17.4546 3.9824
40.2059 26.0137 3.95733
38.0287 23.3256 3.9978
35.5554 20.2294 3.99653
37.5165 37.4872 3.60983
39.0757 37.4786 2
40.5962 37.4458 0.382731
41.7459 52.7929 -0.000161868
40.7824 49.3888 0.00604575
39.0691 39.0759 0.446103
39.7042 45.6195 0.192657
37.4996 44.3022 0.317928
37.5044 40.7137 0.416044
35.8472 42.3169 0.516363
39.6925 51.5869 2
37.5108 39.0748 2
35.9543 40.6626 2
38.6738 48.3319 2
34.4251 42.0824 2
35.6327 44.1137 2
37.5223 45.9722 2
37.6809 50.5771 3.99423
35.9705 39.0863 3.56435
34.5701 40.6077 3.58222
33.4873 41.7791 3.46146
34.3357 43.3954 3.67223
35.2595 45.645 3.827
36.9211 47.8795 3.89905
38.7195 53.5874 0.00349753
36.7614 52.8785 2
34.4616 52.2341 3.99907
34.4937 58.4777 0.00646562
36.3151 55.133 0.00261839
33.2803 55.3455 2
30.6831 53.2483 3.99442
30.3406 57.7766 0.0137436
28.8433 55.2788 2
27.1312 53.3504 3.95712
27.0431 56.7812 0.0306753
25.4936 55.0645 2
23.8608 53.3591 3.95439
20.819 53.0854 3.95821
20.1018 55.7368 3.9616
22.005 55.2488 2
23.954 56.733 0.0404141
19.5032 57.8212 3.96249
20.3153 56.9527 2
19.7275 60.1426 3.97513
20.688 58.7183 2
21.4443 57.3187 0.041556
20.2177 62.8213 3.97136
21.187 61.1126 2
22.0267 59.5608 0.0197712
20.9412 65.7543 3.97612
21.9027 63.8183 2
22.7504 61.9829 0.0271837
23.6866 64.6954 0.0250564
22.8382 66.7287 2
21.9146 68.872 3.98875
24.8105 67.5868 0.0180362
24.0096 69.8041 2
23.1494 72.1454 4
26.1676 70.6033 0.0102787
25.446 73.0099 2
27.7943 73.7221 0
25.862 9.38932 3.97883
27.0716 6.54526 3.98381
27.8205 8.65739 2
28.4903 3.64453 3.99153
29.1557 5.87858 2
29.8128 7.99999 0.0201875
30.1841 0.720592 4
30.7263 3.09823 2
31.2547 5.33407 0.0129977
32.6053 0.320817 2
32.9823 2.70181 0.00735508
35.0474 0.080333 0
37.5125 35.9023 3.58885
39.0336 35.8982 2
40.5943 35.8844 0.394322
24.7835 12.0874 3.97631
23.768 14.3976 3.97747
28.5468 10.7021 0.0227619
26.6235 11.3961 2
29.2305 12.6491 2
27.3008 13.3848 3.97802
29.7965 14.2102 3.98304
35.9658 34.3242 3.54975
37.5359 34.2908 2
39.073 34.3238 0.455889
37.532 32.564 0.470613
43.8132 30.0152 0.108536
41.5704 30.0597 0.157869
39.3761 30.9389 0.354029
42.0282 28.6446 2
39.7347 29.2838 2
37.5302 30.6244 2
35.8686 32.6612 2
39.8749 27.9751 3.8767
37.4887 29.0707 3.83231
35.6854 30.9564 3.6476
34.4737 32.9288 3.43649
30.9459 16.8544 3.99147
31.9231 14.4849 2
34.0997 12.9525 0.0248577
31.1926 12.0001 0.0221667
42.7114 26.7084 0.016481
40.7734 23.5738 0.00583394
33.6165 15.9103 0.0126482
35.8445 17.5747 0.0138621
38.385 20.4656 0.00619214
33.5445 17.4626 2
35.5607 20.2342 2
40.276 25.9928 2
38.0162 23.2875 2
32.8962 19.8545 3.99582
37.6619 25.6511 3.96501
35.2577 22.9765 4.00409
35.9488 37.4832 3.5673
37.5076 37.4865 2
39.0897 37.4872 0.435227
39.7116 51.5835 -0.00275411
38.655 48.2716 0.065745
37.5093 39.0777 0.405758
37.531 45.9127 0.158938
35.6524 44.0489 0.362457
35.9571 40.6737 0.451122
34.4539 42.0667 0.565189
37.662 50.6157 2
35.9916 39.0741 2
34.5314 40.6034 2
36.9086 47.9419 2
33.4505 41.8061 2
34.2877 43.463 2
35.2385 45.6998 2
35.5669 49.7701 3.98495
34.4645 39.0786 3.60335
33.1179 40.7269 3.4591
33.1965 42.4132 3.70757
33.4883 44.9031 3.83094
34.4993 47.0322 3.87136
36.7637 52.9097 0.00315568
34.4515 52.2458 2
32.2585 51.044 4.00926
33.2742 55.3363 0.00712175
30.6872 53.2499 2
28.7338 51.4533 3.98185
28.8409 55.2839 0.0107873
27.1337 53.348 2
25.4416 51.5925 3.95301
25.4897 55.0633 0.0446943
23.863 53.3653 2
22.3889 51.6472 3.952
19.6808 51.4746 3.96165
19.2028 54.1896 3.96125
20.8219 53.0836 2
18.5729 56.641 3.9631
20.1005 55.7382 2
22.005 55.2471 0.0395911
18.3997 59.0542 3.96494
19.5008 57.8229 2
20.318 56.9506 0.0371723
18.6322 61.7131 3.97172
19.728 60.1447 2
20.6888 58.7169 0.0350454
19.1307 64.6648 3.97513
20.2183 62.8252 2
21.186 61.1109 0.0274134
19.8888 67.8081 3.98625
20.9403 65.7536 2
21.9025 63.8148 0.0256066
22.8391 66.7288 0.0210844
21.9118 68.8705 2
20.9142 71.1327 4
24.0118 69.805 0.0103884
23.1494 72.1455 2
25.446 73.0099 0
23.1064 12.813 3.97705
23.9748 10.1781 3.97604
25.0252 7.31642 3.98226
25.8592 9.38707 2
26.2822 4.3286 3.99062
27.0699 6.54396 2
27.8226 8.65965 0.019816
27.7943 1.27781 4
28.488 3.64426 2
29.1569 5.88093 0.0147881
30.1841 0.720551 2
30.7279 3.09858 0.00762694
32.6053 0.320823 0
35.9538 35.8915 3.55399
37.5342 35.911 2
39.0501 35.9066 0.435202
24.7799 12.0852 2
23.768 14.4014 2
22.5027 15.0887 3.97797
25.3701 13.94 3.97167
24.0571 15.6566 3.98647
26.6256 11.3998 0.0221623
29.2335 12.6508 0.0186107
27.301 13.383 2
29.7889 14.2084 2
28.383 15.9771 3.98522
34.5896 34.3931 3.57766
35.9643 34.3272 2
37.5277 34.2844 0.416529
35.8671 32.6769 0.510906
37.5283 30.6902 0.3131
41.9933 28.7057 0.137443
39.7095 29.3411 0.170136
39.9026 27.9314 2
37.4867 29.0123 2
35.6703 30.8834 2
34.4398 32.9147 2
37.6304 27.7051 3.87154
35.3187 29.3564 3.82792
34.3429 31.5984 3.67743
33.5061 33.214 3.4591
30.241 19.4483 3.9817
30.9373 16.8414 2
31.9293 14.4993 0.0189683
40.2059 26.0137 0.0426656
38.0287 23.3256 0.00219866
33.5521 17.4546 0.0176006
35.5554 20.2294 0.0034655
32.8977 19.8838 2
35.2522 22.9671 2
37.7127 25.6307 2
32.4514 22.5939 3.99706
35.1396 25.5603 3.98971
34.4235 37.5057 3.62151
35.9486 37.4935 2
37.5165 37.4872 0.390171
37.6809 50.5771 0.00577402
36.9211 47.8795 0.100948
35.9705 39.0863 0.435652
35.2595 45.645 0.172995
34.3357 43.3954 0.327765
34.5701 40.6077 0.417783
33.4873 41.7791 0.538543
35.5481 49.7838 2
34.4582 39.0769 2
33.1109 40.7399 2
34.4705 47.0893 2
33.1516 42.4729 2
33.461 44.95 2
33.4313 48.8672 3.97324
32.7902 39.2308 3.46472
32.2451 41.0177 3.6597
32.0268 43.5876 3.8291
32.6877 46.0223 3.8725
34.4616 52.2341 0.00093163
32.2684 51.0505 2
30.2771 49.6037 4.00049
30.6831 53.2483 0.00557733
28.7372 51.4494 2
26.9617 49.8175 3.9747
27.1312 53.3504 0.0428765
25.443 51.5955 2
23.8417 50.0028 3.96568
23.8608 53.3591 0.0456115
22.3912 51.6452 2
21.0103 50.1335 3.96402
18.4605 50.1783 3.9701
18.2277 52.6546 3.96416
19.6786 51.4736 2
17.6604 55.2392 3.96232
19.2016 54.1893 2
20.819 53.0854 0.0417887
17.2101 57.8095 3.96086
18.5694 56.6423 2
20.1018 55.7368 0.0384004
17.148 60.5013 3.9667
18.3991 59.0553 2
19.5032 57.8212 0.0375071
17.414 63.4413 3.96936
18.6336 61.7143 2
19.7275 60.1426 0.0248742
17.9448 66.6155 3.98444
19.1301 64.6628 2
20.2177 62.8213 0.028644
18.75 69.9759 4
19.886 67.8057 2
20.9412 65.7543 0.0238762
21.9146 68.872 0.011246
20.9142 71.1327 2
23.1494 72.1454 0
21.6023 13.6462 3.97462
22.1951 11.0461 3.9735
23.1042 12.8157 2
23.0425 8.18319 3.97985
23.972 10.1787 2
24.1199 5.14347 3.99003
25.0227 7.3152 2
25.862 9.38932 0.0211687
25.446 1.99014 4
26.2793 4.32915 2
27.0716 6.54526 0.0161864
27.7943 1.27778 2
28.4903 3.64453 0.00847321
30.1841 0.720592 0
34.492 35.9257 3.59891
35.9659 35.9071 2
37.5125 35.9023 0.411147
21.3382 15.8941 3.97775
24.7835 12.0874 0.0236946
23.768 14.3976 0.0225272
25.369 13.9197 2
22.5042 15.0832 2
24.0607 15.6619 2
23.3076 16.2961 3.96644
25.4143 16.1262 3.98595
27.3008 13.3848 0.0219819
29.7965 14.2102 0.0169618
28.3743 15.991 2
27.4818 18.8785 3.98343
33.1308 34.2737 3.46875
34.5495 34.406 2
35.9658 34.3242 0.450248
34.4737 32.9288 0.563507
35.6854 30.9564 0.3524
37.4887 29.0707 0.16769
39.8749 27.9751 0.1233
37.6011 27.6653 2
33.4729 33.1891 2
35.3172 29.2939 2
34.2989 31.5295 2
35.2097 27.7978 3.88637
33.4831 30.0812 3.83244
33.2196 32.579 3.70566
29.7654 22.0522 4.00666
30.2434 19.4605 2
30.9459 16.8544 0.00852839
37.6619 25.6511 0.0349857
35.2577 22.9765 -0.00408724
32.8962 19.8545 0.00418469
32.4538 22.5841 2
35.168 25.5518 2
32.0306 25.8651 4.00627
32.6154 37.503 3.51224
34.4333 37.4995 2
35.9488 37.4832 0.432702
35.5669 49.7701 0.0150511
34.4993 47.0322 0.128638
34.4645 39.0786 0.396648
33.4883 44.9031 0.169058
33.1965 42.4132 0.292431
33.1179 40.7269 0.540905
33.4136 48.8686 2
32.7977 39.2392 2
32.2017 41.0662 2
32.6596 46.0739 2
31.9749 43.6215 2
31.6248 47.7132 3.9813
31.5554 39.3658 3.66229
30.9307 41.8314 3.84107
31.1016 44.6569 3.88335
32.2585 51.044 -0.00925768
30.2858 49.633 2
28.4431 47.9931 3.96733
28.7338 51.4533 0.0181455
26.962 49.82 2
25.258 48.2589 3.96519
25.4416 51.5925 0.0469923
23.8445 50.0017 2
22.3011 48.5791 3.971
22.3889 51.6472 0.0480016
21.0105 50.1325 2
19.5816 48.9198 3.97354
17.3366 49.1936 3.975
17.1707 51.2763 3.96914
18.4626 50.1765 2
16.6748 53.7614 3.96543
18.2253 52.6544 2
19.6808 51.4746 0.0383519
16.1111 56.4022 3.96202
17.6601 55.2395 2
19.2028 54.1896 0.0387484
15.7677 59.1697 3.96279
17.2052 57.8116 2
18.5729 56.641 0.0368991
15.7937 62.1012 3.96815
17.1497 60.5033 2
18.3997 59.0542 0.035063
16.0914 65.2977 3.98246
17.413 63.4465 2
18.6322 61.7131 0.0282797
16.6661 68.6801 4
17.942 66.6125 2
19.1307 64.6648 0.0248688
18.75 69.9759 2
19.8888 67.8081 0.0137508
20.9142 71.1327 0
20.2381 14.6551 3.96789
21.6001 13.6581 2
20.5374 12.0288 3.9737
21.1459 9.15637 3.97715
22.192 11.0436 2
23.1064 12.813 0.0229482
22.0191 6.08212 3.98935
23.0401 8.18308 2
23.9748 10.1781 0.0239584
23.1494 2.85457 4
24.1163 5.14435 2
25.0252 7.31642 0.0177391
25.446 1.99012 2
26.2822 4.3286 0.00938043
27.7943 1.27781 0
32.7807 35.7803 3.4771
34.4755 35.9255 2
35.9538 35.8915 0.446006
21.3415 15.8874 2
20.354 17.0204 3.96668
22.1406 16.6937 3.96473
25.3701 13.94 0.0283291
22.5027 15.0887 0.0220336
24.0571 15.6566 0.0135269
25.4162 16.1212 2
23.3119 16.2928 2
24.2631 18.5745 3.96959
27.1985 21.6719 3.99378
28.383 15.9771 0.0147827
27.4793 18.9219 2
32.2847 33.9768 3.65396
33.1262 34.2571 2
34.5896 34.3931 0.422344
33.5061 33.214 0.540902
34.3429 31.5984 0.322573
35.3187 29.3564 0.172084
37.6304 27.7051 0.128461
35.2098 27.7497 2
33.1463 32.5186 2
33.4528 30.0393 2
32.9351 28.4424 3.89501
32.0366 31.4052 3.81998
29.1635 24.5467 4.00797
29.7533 22.0745 2
30.241 19.4483 0.0182954
35.1396 25.5603 0.0102949
32.4514 22.5939 0.00293927
32.0201 25.8377 2
30.174 27.5269 3.97618
31.1444 37.4924 3.66751
32.6191 37.5023 2
34.4235 37.5057 0.378486
33.4313 48.8672 0.0267608
32.6877 46.0223 0.1275
32.7902 39.2308 0.535278
32.0268 43.5876 0.170895
32.2451 41.0177 0.340295
31.5774 47.7385 2
31.4775 39.3871 2
30.884 41.8699 2
31.0574 44.6973 2
29.8735 46.3222 3.98985
30.0947 39.7936 3.85033
29.6129 42.9417 3.89495
30.2771 49.6037 -0.000494725
28.4409 47.994 2
26.6768 46.4243 3.98001
26.9617 49.8175 0.0253033
25.2597 48.2575 2
23.5561 46.8419 3.97322
23.8417 50.0028 0.0343228
22.3013 48.579 2
20.5928 47.4272 3.97647
21.0103 50.1335 0.0359842
19.5825 48.9182 2
18.1743 48.0244 3.97693
16.5684 48.5549 3.97653
17.3369 49.1924 2
16.2346 50.0496 3.97343
15.6844 52.31 3.9692
17.172 51.2752 2
18.4605 50.1783 0.0299033
15.0647 54.896 3.9639
16.6758 53.7611 2
18.2277 52.6546 0.0358428
14.5077 57.6985 3.96159
16.1118 56.4024 2
17.6604 55.2392 0.037679
14.2716 60.6676 3.96748
15.7704 59.1705 2
17.2101 57.8095 0.039138
14.3363 63.8541 3.97808
15.7945 62.1029 2
17.148 60.5013 0.0332959
14.6715 67.2507 4
16.0891 65.294 2
17.414 63.4413 0.0306411
16.6661 68.6801 2
17.9448 66.6155 0.0155559
18.75 69.9759 0
18.9587 15.8374 3.97552
20.2395 14.6524 2
18.9912 13.1529 3.97275
21.6023 13.6462 0.0253841
20.5358 12.0292 2
19.3463 10.2476 3.97446
19.9938 7.14746 3.98737
21.1429 9.15656 2
22.1951 11.0461 0.0264958
20.9142 3.86727 4
22.0149 6.08417 2
23.0425 8.18319 0.0201498
23.1494 2.85451 2
24.1199 5.14347 0.00997283
25.446 1.99014 0
31.5821 35.6332 3.65735
32.7834 35.7717 2
34.492 35.9257 0.401085
21.3382 15.8941 0.0222543
22.1435 16.6867 2
20.356 17.0169 2
19.3631 18.4912 3.95753
21.8382 17.9453 3.97669
25.4143 16.1262 0.0140473
23.3076 16.2961 0.0335646
24.2528 18.5966 2
22.4473 20.0184 3.97517
24.7806 21.5334 3.98821
26.7885 23.8298 3.98402
27.204 21.589 2
27.4818 18.8785 0.0165706
30.9852 33.1697 3.84281
32.2397 33.9234 2
33.1308 34.2737 0.531246
33.2196 32.579 0.294343
33.4831 30.0812 0.167564
35.2097 27.7978 0.113631
32.8956 28.4096 2
31.9809 31.3617 2
30.7943 29.8214 3.92078
28.4404 26.7102 3.99691
29.1493 24.547 2
29.7654 22.0522 -0.00665676
32.0306 25.8651 -0.00627152
30.1658 27.5032 2
29.6506 37.4901 3.8479
31.0781 37.4905 2
32.6154 37.503 0.487762
31.6248 47.7132 0.0186972
31.1016 44.6569 0.116646
31.5554 39.3658 0.337713
30.9307 41.8314 0.158926
29.877 46.326 2
30.0185 39.807 2
29.5803 42.9698 2
28.1571 44.6478 3.9688
27.8517 40.5103 3.93071
28.4431 47.9931 0.0326672
26.6755 46.4253 2
24.869 44.9557 3.97902
25.258 48.2589 0.0348115
23.5551 46.8412 2
21.6226 45.7087 3.9778
22.3011 48.5791 0.029001
20.5935 47.4261 2
18.9124 46.577 3.9765
19.5816 48.9198 0.0264623
18.1751 48.0231 2
16.8109 47.5783 3.9763
16.5697 48.5538 2
15.5815 48.9014 3.97553
17.3366 49.1936 0.0249972
16.2364 50.0486 2
14.7971 50.8874 3.97259
14.0367 53.3578 3.96689
15.6856 52.3094 2
17.1707 51.2763 0.0308621
13.3448 56.1231 3.96141
15.065 54.8959 2
16.6748 53.7614 0.0345654
12.859 59.1069 3.96567
14.512 57.6983 2
16.1111 56.4022 0.0379831
12.6823 62.2967 3.97602
14.273 60.6675 2
15.7677 59.1697 0.037215
12.7746 65.6939 4
14.3341 63.8508 2
15.7937 62.1012 0.0318497
14.6714 67.2507 2
16.0914 65.2977 0.0175428
16.6661 68.6801 0
17.7273 17.2184 3.96241
18.9586 15.8361 2
17.5275 14.4219 3.96795
20.2381 14.6551 0.0321106
18.9907 13.1573 2
17.6438 11.4715 3.97327
20.5374 12.0288 0.026304
19.3426 10.2484 2
18.0541 8.34109 3.98501
18.75 5.0241 4
19.9891 7.15012 2
21.1459 9.15637 0.0228518
20.9142 3.86727 2
22.0191 6.08212 0.0106542
23.1494 2.85457 0
30.1237 35.2085 3.84892
31.5053 35.609 2
32.7807 35.7803 0.522897
22.1406 16.6937 0.0352711
20.354 17.0204 0.0333218
21.8368 17.9444 2
19.3556 18.4848 2
18.2017 20.047 3.9617
21.0292 19.4889 3.96553
24.2631 18.5745 0.0304117
22.4374 20.025 2
24.7869 21.5177 2
22.6285 21.8642 3.98044
25.0662 23.2679 3.97182
26.0465 26.0847 3.9787
26.7852 23.8241 2
27.1985 21.6719 0.0062213
29.3779 32.5169 3.89489
30.9141 33.1343 2
32.2847 33.9768 0.346045
32.0366 31.4052 0.180016
32.9351 28.4424 0.104995
30.772 29.8109 2
27.8112 29.2918 4.014
28.4277 26.7171 2
29.1635 24.5467 -0.00796591
30.174 27.5269 0.0238209
28.0007 37.3646 3.8951
29.5758 37.4836 2
31.1444 37.4924 0.332486
29.8735 46.3222 0.0101456
29.6129 42.9417 0.105055
30.0947 39.7936 0.149669
28.1523 44.7035 2
27.8193 40.5117 2
26.2496 43.0231 3.98603
25.1261 39.4369 3.97193
26.6768 46.4243 0.0199869
24.8584 44.9575 2
22.7868 43.7469 3.97562
23.5561 46.8419 0.0267766
21.6193 45.7102 2
19.689 44.8147 3.97611
20.5928 47.4272 0.0235324
18.9121 46.5774 2
17.1719 46.0771 3.9761
18.1743 48.0244 0.0230653
16.8121 47.5777 2
15.3487 47.5555 3.97593
16.5684 48.5549 0.0234687
15.5834 48.9005 2
14.1071 49.4545 3.97483
16.2346 50.0496 0.0265743
14.7983 50.8867 2
13.1065 51.804 3.96936
12.251 54.4838 3.96343
14.0373 53.3573 2
15.6844 52.31 0.0307983
11.5464 57.4457 3.96406
13.345 56.1231 2
15.0647 54.896 0.036105
11.1376 60.6219 3.9723
12.8608 59.1061 2
14.5077 57.6985 0.0384129
10.9835 64.0165 4
12.6806 62.2923 2
14.2716 60.6676 0.032519
12.7745 65.694 2
14.3363 63.8541 0.0219247
14.6715 67.2507 0
16.5378 18.7278 3.96191
17.7205 17.2149 2
16.1224 15.8258 3.96526
18.9587 15.8374 0.0244813
17.5276 14.419 2
16.0281 12.8416 3.97008
18.9912 13.1529 0.0272548
17.6417 11.4799 2
16.2053 9.66536 3.98251
19.3463 10.2476 0.0255443
18.049 8.34579 2
16.6661 6.31991 4
18.75 5.02404 2
19.9938 7.14746 0.0126269
20.9142 3.86727 0
28.5176 34.8531 3.89669
30.0355 35.1721 2
31.5821 35.6332 0.342645
16.9444 21.4844 3.96741
21.8382 17.9453 0.023305
19.3631 18.4912 0.042467
21.0177 19.4848 2
18.2016 20.0448 2
20.0306 21.7072 3.97151
22.4473 20.0184 0.0248338
24.7806 21.5334 0.0117898
22.6253 21.8695 2
25.0576 23.2718 2
23.3597 24.7502 3.97194
25.3629 28.6848 3.98383
26.039 26.0912 2
26.7885 23.8298 0.0159751
27.2329 31.8767 3.98176
29.3411 32.4952 2
30.9852 33.1697 0.157188
30.7943 29.8214 0.0792175
27.8232 29.2691 2
28.4404 26.7102 0.00309054
25.8239 36.8475 3.97134
27.9791 37.3658 2
29.6506 37.4901 0.152098
28.1571 44.6478 0.0311959
27.8517 40.5103 0.0692889
26.2261 43.0461 2
25.0998 39.4402 2
24.005 41.7657 3.98217
22.8443 38.5229 3.97964
24.869 44.9557 0.0209801
22.7842 43.7481 2
20.5739 42.767 3.9752
21.6226 45.7087 0.0222038
19.6895 44.8152 2
17.5833 44.2579 3.97548
18.9124 46.577 0.0234967
17.1723 46.0773 2
15.314 45.9818 3.97575
16.8109 47.5783 0.0236953
15.3502 47.5548 2
13.6383 47.9203 3.97566
15.5815 48.9014 0.0244711
14.1088 49.4537 2
12.3383 50.1876 3.97152
14.7971 50.8874 0.0274053
13.1073 51.8033 2
11.2475 52.798 3.96499
10.3433 55.7015 3.96386
12.2518 54.4833 2
14.0367 53.3578 0.0331091
9.70452 58.8454 3.97241
11.548 57.4449 2
13.3448 56.1231 0.038587
9.30605 62.2254 4
11.1363 60.6179 2
12.859 59.1069 0.0343305
10.9835 64.0165 2
12.6823 62.2967 0.0239836
12.7746 65.6939 0
15.3298 20.2667 3.96394
16.5398 18.7273 2
14.7936 17.3485 3.96314
17.7273 17.2184 0.0375947
16.1242 15.8242 2
14.4904 14.3234 3.96766
17.5275 14.4219 0.0320461
16.0274 12.8381 2
14.4477 11.1172 3.97999
17.6438 11.4715 0.0267275
16.2007 9.67114 2
14.6715 7.74927 4
18.0541 8.34109 0.0149931
16.6661 6.31988 2
18.75 5.0241 0
26.4774 34.3659 3.97456
28.5005 34.8602 2
30.1237 35.2085 0.151081
18.2073 22.4526 3.97453
15.8495 23.0284 3.97151
16.948 21.4843 2
21.0292 19.4889 0.0344697
18.2017 20.047 0.0382969
20.0301 21.7053 2
20.1549 24.5475 3.97197
22.6285 21.8642 0.0195568
25.0662 23.2679 0.0281772
23.3558 24.7519 2
22.726 28.02 3.97159
24.7986 31.3745 3.98235
25.3689 28.6721 2
26.0465 26.0847 0.0212975
27.2062 31.8378 2
29.3779 32.5169 0.105107
27.8112 29.2918 -0.0140041
23.5752 36.2998 3.97921
25.8035 36.8434 2
28.0007 37.3646 0.104903
26.2496 43.0231 0.0139705
25.1261 39.4369 0.0280735
23.9831 41.7641 2
22.8301 38.5175 2
21.6854 40.5872 3.97454
21.0331 37.7996 3.97671
22.7868 43.7469 0.0243779
20.5737 42.7671 2
18.0639 42.011 3.97566
19.689 44.8147 0.0238892
17.5835 44.2582 2
15.3633 44.1039 3.9754
17.1719 46.0771 0.0239031
15.3144 45.9816 2
13.3386 46.2114 3.97581
15.3487 47.5555 0.0240725
13.64 47.9195 2
11.729 48.4889 3.97346
14.1071 49.4545 0.0251744
12.34 50.1867 2
10.3786 51.0453 3.96633
13.1065 51.804 0.0306378
11.2481 52.7973 2
9.25515 53.8824 3.96396
8.38791 56.98 3.97412
10.348 55.6997 2
12.251 54.4838 0.0365668
7.74927 60.3285 4
9.70332 58.8412 2
11.5464 57.4457 0.0359433
9.306 62.2255 2
11.1376 60.6219 0.0277005
10.9835 64.0165 0
14.167 21.83 3.9675
15.3286 20.2657 2
13.524 18.9456 3.96264
16.5378 18.7278 0.0380945
14.7947 17.3475 2
13.036 15.9086 3.9688
16.1224 15.8258 0.0347438
14.4923 14.3219 2
12.7855 12.6929 3.97701
16.0281 12.8416 0.0299238
14.4445 11.1244 2
12.7746 9.30605 4
16.2053 9.66536 0.0174852
14.6715 7.74924 2
16.6661 6.31991 0
24.1514 33.8831 3.98069
26.4572 34.3651 2
28.5176 34.8531 0.10331
18.0825 24.1859 3.97294
18.2154 22.4531 2
14.6836 24.5572 3.9735
15.8519 23.0283 2
16.9444 21.4844 0.0325886
19.696 27.3867 3.97402
20.0306 21.7072 0.0284858
20.1488 24.5461 2
22.1045 30.8389 3.97441
23.3597 24.7502 0.0280552
22.7257 28.0227 2
24.7638 31.3729 2
25.3629 28.6848 0.0161703
27.2329 31.8767 0.0182424
21.152 35.9655 3.97667
23.5736 36.3007 2
25.8239 36.8475 0.02866
24.005 41.7657 0.0178332
22.8443 38.5229 0.0203565
21.6901 40.5895 2
21.033 37.7983 2
18.8281 38.982 3.97708
20.5739 42.767 0.0248024
18.0637 42.011 2
15.3482 41.8566 3.97598
17.5833 44.2579 0.0245181
15.3629 44.1038 2
13.1026 44.3211 3.97575
15.314 45.9818 0.0242482
13.3399 46.2108 2
11.2443 46.6784 3.97509
13.6383 47.9203 0.0243354
11.7311 48.4879 2
9.6486 49.2082 3.96777
12.3383 50.1876 0.0284827
10.3794 51.0444 2
8.286 51.9974 3.96402
11.2475 52.798 0.0350065
9.25701 53.8807 2
7.197 55.0319 3.97515
6.31991 58.3339 4
8.38668 56.9758 2
10.3433 55.7015 0.0361355
7.74924 60.3285 2
9.70452 58.8454 0.0275916
9.30605 62.2254 0
13.5442 25.4502 3.97607
13.07 23.3563 3.97045
14.1669 21.8295 2
12.341 20.5944 3.96381
15.3298 20.2667 0.0360619
13.5252 18.9448 2
11.6695 17.5815 3.96696
14.7936 17.3485 0.0368641
13.0395 15.9077 2
11.2237 14.3788 3.97321
14.4904 14.3234 0.0323394
12.7834 12.699 2
10.9835 10.9835 4
14.4477 11.1172 0.0200091
12.7745 9.306 2
14.6715 7.74927 0
21.499 33.5022 3.97639
24.1552 33.8689 2
26.4774 34.3659 0.0254431
16.4102 26.5382 3.9745
18.0864 24.1859 2
18.2073 22.4526 0.0254745
14.6828 24.5571 2
15.8495 23.0284 0.0284876
19.0986 30.3298 3.97469
19.6965 27.387 2
20.1549 24.5475 0.0280312
22.1224 30.8404 2
22.726 28.02 0.0284103
24.7986 31.3745 0.0176509
18.4318 36.0014 3.97774
21.1542 35.9651 2
23.5752 36.2998 0.0207918
21.6854 40.5872 0.0254589
21.0331 37.7996 0.0232871
18.8267 38.9815 2
14.8433 39.157 3.97696
18.0639 42.011 0.0243367
15.3476 41.8563 2
12.7974 42.2306 3.97606
15.3633 44.1039 0.0246038
13.1033 44.3208 2
10.8323 44.7548 3.97624
13.3386 46.2114 0.0241858
11.2467 46.6773 2
9.03575 47.2909 3.96895
11.729 48.4889 0.0265358
9.64959 49.2073 2
7.4491 50.0319 3.9641
10.3786 51.0453 0.0336716
8.28592 51.9959 2
6.13756 53.0077 3.9754
9.25515 53.8824 0.0360433
7.19624 55.0282 2
5.0241 56.25 4
6.31988 58.3339 2
8.38791 56.98 0.0258796
7.74927 60.3285 0
13.8265 26.9081 3.97568
12.1792 24.8545 3.97354
13.5437 25.4503 2
11.2715 22.2776 3.96583
13.0702 23.3563 2
14.167 21.83 0.0325037
12.3435 20.5944 2
10.4039 19.3297 3.96465
13.524 18.9456 0.0373632
11.6729 17.5812 2
9.76461 16.1623 3.9723
13.036 15.9086 0.0312046
11.2224 14.3845 2
9.30607 12.7746 4
12.7855 12.6929 0.0229883
10.9835 10.9835 2
12.7746 9.30605 0
18.5906 33.1914 3.97598
21.4976 33.5057 2
24.1514 33.8831 0.0193061
16.035 29.758 3.97548
16.4098 26.538 2
18.0825 24.1859 0.0270617
14.6836 24.5572 0.0265011
19.0968 30.3297 2
19.696 27.3867 0.0259792
22.1045 30.8389 0.025593
15.4794 36.0375 3.97736
18.4312 36.002 2
21.152 35.9655 0.0233346
13.0282 37.828 3.97696
18.8281 38.982 0.0229212
14.8429 39.1568 2
12.2971 40.1153 3.97657
15.3482 41.8566 0.0240195
12.7976 42.2302 2
10.4342 42.7416 3.97625
13.1026 44.3211 0.0242506
10.8347 44.7538 2
8.5134 45.2979 3.97006
11.2443 46.6784 0.0249078
9.03636 47.2903 2
6.73735 47.9978 3.9643
9.6486 49.2082 0.0322324
7.44795 50.0308 2
5.21416 50.9112 3.97501
8.286 51.9974 0.0359834
6.13725 53.0049 2
3.86727 54.0858 4
7.197 55.0319 0.0248503
5.02404 56.25 2
6.31991 58.3339 0
13.3098 29.1147 3.97514
11.624 26.5487 3.97449
13.8263 26.9082 2
10.3243 24.0039 3.96776
12.182 24.8551 2
13.5442 25.4502 0.0239334
9.26766 21.1463 3.96462
11.2718 22.2776 2
13.07 23.3563 0.0295452
12.341 20.5944 0.0361945
10.4122 19.3314 2
8.42077 18.0319 3.97383
11.6695 17.5815 0.0330355
9.76384 16.1671 2
7.74928 14.6715 4
11.2237 14.3788 0.0267901
9.30602 12.7745 2
10.9835 10.9835 0
15.0215 32.9235 3.97624
18.5894 33.1908 2
21.499 33.5022 0.0236145
16.0353 29.7581 2
16.4102 26.5382 0.025496
19.0986 30.3298 0.0253071
13.3309 36.2211 3.97673
15.4789 36.0375 2
18.4318 36.0014 0.0222613
13.028 37.8279 2
11.6218 38.3038 3.97686
14.8433 39.157 0.023041
12.2979 40.1153 2
10.0104 40.7334 3.9764
12.7974 42.2306 0.0239375
10.4374 42.7409 2
8.05566 43.253 3.97134
10.8323 44.7548 0.0237599
8.51604 45.2972 2
6.13994 45.9035 3.96481
9.03575 47.2909 0.0310513
6.73582 47.997 2
4.42531 48.7516 3.97462
7.4491 50.0319 0.0359006
5.21424 50.9094 2
2.85457 51.8506 4
6.13756 53.0077 0.0245966
3.86727 54.0858 2
5.0241 56.25 0
12.4395 31.3113 3.97611
11.0355 28.4674 3.97541
13.31 29.1148 2
9.53892 25.8293 3.96889
11.6267 26.5494 2
13.8265 26.9081 0.0243243
8.25172 23.028 3.96474
10.326 24.0045 2
12.1792 24.8545 0.0264634
7.20288 19.9798 3.97509
9.27411 21.1481 2
11.2715 22.2776 0.0341726
10.4039 19.3297 0.0353468
8.41978 18.036 2
6.31992 16.6661 4
9.76461 16.1623 0.0277029
7.74926 14.6714 2
9.30607 12.7746 0
12.4761 34.326 3.97649
15.0209 32.9242 2
18.5906 33.1914 0.0240215
16.035 29.758 0.0245162
11.1569 36.6198 3.97662
13.3306 36.2211 2
15.4794 36.0375 0.022635
13.0282 37.828 0.0230417
11.6229 38.3035 2
9.58963 38.8161 3.97668
12.2971 40.1153 0.0234331
10.0134 40.7329 2
7.65848 41.2008 3.97215
10.4342 42.7416 0.0237462
8.05668 43.2526 2
5.65108 43.7666 3.96558
8.5134 45.2979 0.0299371
6.14012 45.9029 2
3.77061 46.5368 3.97478
6.73735 47.9978 0.0357039
4.42583 48.7506 2
1.99014 49.554 4
5.21416 50.9112 0.0249875
2.85451 51.8506 2
3.86727 54.0858 0
11.2455 32.9569 3.97657
10.3416 30.4231 3.97618
12.4399 31.3119 2
8.84672 27.7583 3.96923
11.0377 28.4682 2
13.3098 29.1147 0.0248554
7.37193 24.9851 3.96466
9.54047 25.8299 2
11.624 26.5487 0.0255117
6.11986 22.0019 3.97573
8.25322 23.0294 2
10.3243 24.0039 0.032243
5.02411 18.75 4
7.20232 19.9833 2
9.26766 21.1463 0.0353794
8.42077 18.0319 0.0261663
6.3199 16.6661 2
7.74928 14.6715 0
10.7408 35.0182 3.97653
12.4756 34.3262 2
15.0215 32.9235 0.0237649
9.24607 36.9882 3.97678
11.1583 36.6199 2
13.3309 36.2211 0.0232705
11.6218 38.3038 0.0231449
9.59289 38.8158 2
7.33298 39.1775 3.97234
10.0104 40.7334 0.0236042
7.6604 41.2004 2
5.26589 41.6127 3.96607
8.05566 43.253 0.028657
5.65142 43.766 2
3.24802 44.2815 3.9755
6.13994 45.9035 0.0351869
3.77108 46.5364 2
1.27781 47.2057 4
4.42531 48.7516 0.025384
1.99012 49.554 2
2.85457 51.8506 0
10.3745 33.9059 3.9763
9.61766 32.1833 3.97651
11.2471 32.9574 2
8.18492 29.7159 3.96978
10.3442 30.424 2
12.4395 31.3113 0.0238889
6.61061 27.0101 3.96479
8.84788 27.7589 2
11.0355 28.4674 0.0245932
5.17496 24.0942 3.97546
7.37087 24.9861 2
9.53892 25.8293 0.0311122
3.86728 20.9142 4
6.11964 22.0043 2
8.25172 23.028 0.0352634
5.02406 18.75 2
7.20288 19.9798 0.024906
6.31992 16.6661 0
9.05905 35.2913 3.97699
10.7425 35.0183 2
12.4761 34.326 0.0235102
7.10997 37.2065 3.97207
9.24944 36.988 2
11.1569 36.6198 0.0233753
9.58963 38.8161 0.0233194
7.33535 39.1773 2
4.99301 39.4667 3.96674
7.65848 41.2008 0.0278546
5.26661 41.6123 2
2.8583 42.0016 3.97593
5.65108 43.7666 0.0344205
3.24828 44.281 2
0.720592 44.8159 4
3.77061 46.5368 0.0252206
1.27778 47.2057 2
1.99014 49.554 0
9.09928 33.7169 3.97698
10.377 33.9062 2
7.61368 31.6238 3.97073
9.62084 32.184 2
11.2455 32.9569 0.0234262
5.95199 29.0707 3.96513
8.18654 29.7164 2
10.3416 30.4231 0.0238165
4.36219 26.2469 3.97513
6.60863 27.0106 2
8.84672 27.7583 0.0307703
2.85458 23.1494 4
5.17516 24.0956 2
7.37193 24.9851 0.035341
3.86728 20.9142 2
6.11986 22.0019 0.0242719
5.02411 18.75 0
7.05828 35.3111 3.97168
9.06276 35.2914 2
10.7408 35.0182 0.0234654
4.8431 37.3397 3.96717
7.11268 37.2064 2
9.24607 36.9882 0.0232203
7.33298 39.1775 0.0276611
4.99375 39.4664 2
2.60614 39.7133 3.97645
5.26589 41.6127 0.0339315
2.85889 42.0015 2
0.320823 42.3947 4
3.24802 44.2815 0.024496
0.720551 44.8159 2
1.27781 47.2057 0
7.22182 33.4705 3.97134
9.10285 33.7174 2
10.3745 33.9059 0.0236978
5.42223 31.1346 3.9658
7.6157 31.6241 2
9.61766 32.1833 0.0234906
3.68354 28.4433 3.97522
5.95226 29.0712 2
8.18492 29.7159 0.0302229
1.99015 25.446 4
4.3627 26.2476 2
6.61061 27.0101 0.0352118
2.85453 23.1494 2
5.17496 24.0942 0.0245412
3.86728 20.9142 0
4.85739 35.252 3.96701
7.06022 35.3112 2
9.05905 35.2913 0.0230079
2.49757 37.428 3.97733
4.8433 37.3398 2
7.10997 37.2065 0.0279306
4.99301 39.4667 0.0332636
2.60684 39.7136 2
0.080333 39.9526 4
2.8583 42.0016 0.0240676
0.320817 42.3947 2
0.720592 44.8159 0
5.05096 33.191 3.96664
7.2239 33.4708 2
9.09928 33.7169 0.0230162
3.14757 30.6662 3.97578
5.42259 31.1352 2
7.61368 31.6238 0.0292713
1.27793 27.7943 4
3.68407 28.4435 2
5.95199 29.0707 0.0348732
1.99013 25.446 2
4.36219 26.2469 0.024874
2.85458 23.1494 0
2.54966 35.1588 3.97704
4.85823 35.2524 2
7.05828 35.3111 0.0283212
0 37.5 4
2.49776 37.4285 2
4.8431 37.3397 0.0328257
2.60614 39.7133 0.0235529
0.0802903 39.9526 2
0.320823 42.3947 0
2.76738 32.9057 3.97698
5.0513 33.1915 2
7.22182 33.4705 0.0286639
0.721173 30.1842 4
3.14803 30.6667 2
5.42223 31.1346 0.0341961
1.27779 27.7943 2
3.68354 28.4433 0.0247828
1.99015 25.446 0
0.0806499 35.0474 4
2.55044 35.1593 2
4.85739 35.252 0.0329946
0 37.5 2
2.49757 37.428 0.0226749
0.080333 39.9526 0
0.32156 32.6054 4
2.76765 32.9064 2
5.05096 33.191 0.0333648
0.72056 30.1841 2
3.14757 30.6662 0.0242229
1.27793 27.7943 0
0.0802889 35.0474 2
2.54966 35.1588 0.0229589
0 37.5 0
0.320817 32.6053 2
2.76738 32.9057 0.0230166
0.721173 30.1842 0
0.0806499 35.0474 0
0.32156 32.6054 0
CELLS 1910 17190
8 18 6 25 56 2 0 5 16
8 57 23 6 18 17 4 0 2
8 78 36 9 29 31 11 1 7
8 31 11 1 7 79 37 10 30
8 110 57 18 50 48 17 2 14
8 50 18 56 111 14 2 16 49
8 116 62 22 55 52 20 3 15
8 56 25 67 118 16 5 24 53
8 119 63 23 57 54 21 4 17
8 55 22 63 119 15 3 21 54
8 58 26 68 121 18 6 25 56
8 122 65 26 58 57 23 6 18
8 73 31 7 27 142 79 30 71
8 143 78 29 72 73 31 7 27
8 83 147 76 34 32 74 28 8
8 84 148 78 36 33 75 29 9
8 76 34 8 28 148 84 33 75
8 37 79 150 86 10 30 77 35
8 151 87 36 78 80 38 11 31
8 80 38 11 31 152 88 37 79
8 175 100 42 94 96 44 12 40
8 44 96 176 101 12 40 95 43
8 101 176 98 46 43 95 41 13
8 46 98 178 103 13 41 97 45
8 178 103 45 97 147 83 32 74
8 189 116 55 109 106 52 15 47
8 111 56 118 191 49 16 53 107
8 192 119 57 110 108 54 17 48
8 109 55 119 192 47 15 54 108
8 194 122 58 112 110 57 18 50
8 112 58 121 195 50 18 56 111
8 115 61 19 51 197 124 59 113
8 115 61 125 198 51 19 60 114
8 198 125 62 116 114 60 20 52
8 200 127 64 120 116 62 22 55
8 118 67 132 202 53 24 66 117
8 121 68 133 203 56 25 67 118
8 120 64 128 204 55 22 63 119
8 204 128 65 122 119 63 23 57
8 206 134 68 121 123 69 26 58
8 123 69 26 58 207 131 65 122
8 226 147 74 138 140 76 28 70
8 229 148 75 139 143 78 29 72
8 140 76 28 70 229 148 75 139
8 142 79 30 71 231 150 77 141
8 144 80 31 73 232 152 79 142
8 233 151 78 143 144 80 31 73
8 150 86 35 77 235 154 81 145
8 235 154 81 145 146 82 39 91
8 146 82 39 91 236 155 90 165
8 238 157 83 147 149 85 34 76
8 239 158 84 148 151 87 36 78
8 149 85 34 76 239 158 84 148
8 152 88 37 79 241 160 86 150
8 242 161 87 151 153 89 38 80
8 153 89 38 80 243 162 88 152
8 171 98 41 92 265 178 97 169
8 265 178 97 169 226 147 74 138
8 172 96 40 93 266 176 95 170
8 266 176 95 170 171 98 41 92
8 269 175 94 173 172 96 40 93
8 271 180 99 174 175 100 42 94
8 197 124 59 113 271 180 99 174
8 272 181 100 175 177 102 44 96
8 273 182 101 176 179 104 46 98
8 177 102 44 96 273 182 101 176
8 179 104 46 98 275 184 103 178
8 275 184 103 178 238 157 83 147
8 188 115 51 105 283 197 113 186
8 188 115 198 284 105 51 114 187
8 284 198 116 189 187 114 52 106
8 286 200 120 193 189 116 55 109
8 191 118 202 288 107 53 117 190
8 195 121 203 289 111 56 118 191
8 193 120 204 290 109 55 119 192
8 290 204 122 194 192 119 57 110
8 196 123 58 112 292 207 122 194
8 293 206 121 195 196 123 58 112
8 199 126 61 115 297 211 124 197
8 298 212 127 200 198 125 62 116
8 199 126 212 298 115 61 125 198
8 205 129 64 120 300 214 127 200
8 301 217 130 201 202 132 66 117
8 209 136 168 264 301 217 130 201
8 302 219 132 202 203 133 67 118
8 303 220 133 203 206 134 68 121
8 205 129 215 304 120 64 128 204
8 304 215 131 207 204 128 65 122
8 306 221 134 206 208 135 69 123
8 208 135 69 123 307 218 131 207
8 210 137 167 263 309 223 136 209
8 328 238 147 226 230 149 76 140
8 228 146 91 166 329 236 165 260
8 231 150 77 141 330 235 145 227
8 330 235 145 227 228 146 91 166
8 332 239 148 229 233 151 78 143
8 230 149 76 140 332 239 148 229
8 232 152 79 142 334 241 150 231
8 234 153 80 144 335 243 152 232
8 336 242 151 233 234 153 80 144
8 236 155 90 165 338 245 164 259
8 241 160 86 150 339 246 154 235
8 339 246 154 235 237 156 82 146
8 237 156 82 146 340 247 155 236
8 342 249 157 238 240 159 85 149
8 343 250 158 239 242 161 87 151
8 240 159 85 149 343 250 158 239
8 243 162 88 152 345 252 160 241
8 244 163 253 346 153 89 161 242
8 244 163 89 153 347 254 162 243
8 311 224 261 371 210 137 167 263
8 263 167 262 372 209 136 168 264
8 267 179 98 171 375 275 178 265
8 375 275 178 265 328 238 147 226
8 376 273 176 266 267 179 98 171
8 268 177 96 172 376 273 176 266
8 379 272 175 269 268 177 96 172
8 380 271 174 270 269 175 94 173
8 283 197 113 186 380 271 174 270
8 381 277 180 271 272 181 100 175
8 297 211 124 197 381 277 180 271
8 382 278 181 272 274 183 102 177
8 274 183 102 177 383 279 182 273
8 383 279 182 273 276 185 104 179
8 385 281 184 275 342 249 157 238
8 276 185 104 179 385 281 184 275
8 285 199 115 188 393 297 197 283
8 394 298 200 286 284 198 116 189
8 285 199 298 394 188 115 198 284
8 291 205 120 193 396 300 200 286
8 397 301 201 287 288 202 117 190
8 295 209 264 374 397 301 201 287
8 398 302 202 288 289 203 118 191
8 399 303 203 289 293 206 121 195
8 291 205 304 400 193 120 204 290
8 400 304 207 292 290 204 122 194
8 294 208 123 196 402 307 207 292
8 403 306 206 293 294 208 123 196
8 296 210 263 373 405 309 209 295
8 408 312 213 299 297 211 126 199
8 299 213 313 409 199 126 212 298
8 409 313 214 300 298 212 127 200
8 305 216 129 205 411 315 214 300
8 412 318 217 301 302 219 132 202
8 309 223 136 209 412 318 217 301
8 413 320 219 302 303 220 133 203
8 306 221 321 414 206 134 220 303
8 307 218 131 207 415 316 215 304
8 305 216 316 415 205 129 215 304
8 417 322 221 306 308 222 135 208
8 308 222 135 208 418 319 218 307
8 310 225 137 210 420 325 223 309
8 423 326 224 311 310 225 137 210
8 329 236 165 260 441 338 259 368
8 442 342 238 328 333 240 149 230
8 331 237 146 228 443 340 236 329
8 334 241 150 231 444 339 235 330
8 444 339 235 330 331 237 146 228
8 446 343 239 332 336 242 151 233
8 333 240 149 230 446 343 239 332
8 335 243 152 232 448 345 241 334
8 337 244 153 234 449 347 243 335
8 337 244 346 450 234 153 242 336
8 338 245 164 259 452 349 258 367
8 340 247 155 236 453 350 245 338
8 345 252 160 241 454 351 246 339
8 454 351 246 339 341 248 156 237
8 341 248 156 237 455 352 247 340
8 240 159 251 344 342 249 354 457
8 242 161 253 346 343 250 355 458
8 343 250 355 458 240 159 251 344
8 347 254 162 243 460 357 252 345
8 348 255 358 461 244 163 253 346
8 348 255 163 244 462 359 254 347
8 473 360 257 365 363 256 364 482
8 452 349 258 367 365 257 366 485
8 422 324 369 488 311 224 261 371
8 371 261 370 490 263 167 262 372
8 407 311 371 491 296 210 263 373
8 373 263 372 492 295 209 264 374
8 493 385 275 375 442 342 238 328
8 377 276 179 267 493 385 275 375
8 378 274 177 268 494 383 273 376
8 494 383 273 376 377 276 179 267
8 497 382 272 379 378 274 177 268
8 498 381 271 380 379 272 175 269
8 393 297 197 283 498 381 271 380
8 499 387 277 381 382 278 181 272
8 408 312 211 297 499 387 277 381
8 500 388 278 382 384 280 183 274
8 501 389 279 383 386 282 185 276
8 384 280 183 274 501 389 279 383
8 386 282 185 276 503 391 281 385
8 503 391 281 385 457 354 249 342
8 511 408 299 395 393 297 199 285
8 395 299 409 512 285 199 298 394
8 512 409 300 396 394 298 200 286
8 401 305 205 291 514 411 300 396
8 515 412 301 397 398 302 202 288
8 405 309 209 295 515 412 301 397
8 516 413 302 398 399 303 203 289
8 403 306 414 517 293 206 303 399
8 402 307 207 292 518 415 304 400
8 401 305 415 518 291 205 304 400
8 404 308 208 294 520 418 307 402
8 521 417 306 403 404 308 208 294
8 406 310 210 296 523 420 309 405
8 526 423 311 407 406 310 210 296
8 410 314 213 299 527 424 312 408
8 528 425 315 411 409 313 214 300
8 410 314 425 528 299 213 313 409
8 416 317 216 305 530 427 315 411
8 531 430 318 412 413 320 219 302
8 420 325 223 309 531 430 318 412
8 532 432 320 413 414 321 220 303
8 417 322 433 533 306 221 321 414
8 418 319 218 307 534 428 316 415
8 416 317 428 534 305 216 316 415
8 419 323 434 536 308 222 322 417
8 419 323 222 308 537 431 319 418
8 421 327 225 310 539 438 325 420
8 421 327 439 541 310 225 326 423
8 543 437 324 422 423 326 224 311
8 441 338 259 368 559 452 367 486
8 443 340 236 329 560 453 338 441
8 333 240 344 447 442 342 457 561
8 445 341 237 331 562 455 340 443
8 448 345 241 334 563 454 339 444
8 563 454 339 444 445 341 237 331
8 336 242 346 450 446 343 458 565
8 446 343 458 565 333 240 344 447
8 449 347 243 335 567 460 345 448
8 451 348 244 337 568 462 347 449
8 451 348 461 569 337 244 346 450
8 570 463 349 452 473 360 257 365
8 453 350 245 338 570 463 349 452
8 455 352 247 340 571 464 350 453
8 460 357 252 345 572 465 351 454
8 572 465 351 454 456 353 248 341
8 456 353 248 341 573 466 352 455
8 344 251 356 459 457 354 468 575
8 458 355 469 576 344 251 356 459
8 346 253 358 461 458 355 469 576
8 462 359 254 347 578 471 357 460
8 348 255 359 462 461 358 472 579
8 591 474 360 473 475 361 256 363
8 475 361 256 363 594 477 362 479
8 363 256 364 482 479 362 480 603
8 590 473 365 484 481 363 482 605
8 482 364 257 365 606 483 366 485
8 559 452 367 486 484 365 485 607
8 542 436 487 609 422 324 369 488
8 525 422 488 611 407 311 371 491
8 488 369 489 612 371 261 370 490
8 491 371 490 613 373 263 372 492
8 495 386 276 377 614 503 385 493
8 614 503 385 493 561 457 342 442
8 615 501 383 494 495 386 276 377
8 496 384 274 378 615 501 383 494
8 618 500 382 497 496 384 274 378
8 619 499 381 498 497 382 272 379
8 511 408 297 393 619 499 381 498
8 620 505 387 499 500 388 278 382
8 527 424 312 408 620 505 387 499
8 502 390 506 621 384 280 388 500
8 622 507 389 501 504 392 282 386
8 502 390 280 384 622 507 389 501
8 504 392 282 386 624 509 391 503
8 624 509 391 503 575 468 354 457
8 513 410 299 395 630 527 408 511
8 631 528 411 514 512 409 300 396
8 513 410 528 631 395 299 409 512
8 519 416 305 401 633 530 411 514
8 634 531 412 515 516 413 302 398
8 523 420 309 405 634 531 412 515
8 635 532 413 516 517 414 303 399
8 521 417 533 636 403 306 414 517
8 520 418 307 402 637 534 415 518
8 519 416 534 637 401 305 415 518
8 522 419 308 404 639 537 418 520
8 522 419 536 640 404 308 417 521
8 524 421 310 406 642 539 420 523
8 524 421 541 644 406 310 423 526
8 646 543 422 525 526 423 311 407
8 529 426 314 410 647 544 424 527
8 528 425 545 648 411 315 427 530
8 529 426 545 648 410 314 425 528
8 535 429 317 416 649 546 427 530
8 650 548 430 531 532 432 320 413
8 539 438 325 420 650 548 430 531
8 533 433 550 651 414 321 432 532
8 536 434 551 652 417 322 433 533
8 537 431 319 418 653 547 428 534
8 535 429 547 653 416 317 428 534
8 538 435 552 654 419 323 434 536
8 538 435 323 419 655 549 431 537
8 540 440 327 421 657 556 438 539
8 540 440 557 659 421 327 439 541
8 541 439 555 660 423 326 437 543
8 661 554 436 542 543 437 324 422
8 676 570 452 559 590 473 365 484
8 560 453 338 441 676 570 452 559
8 562 455 340 443 677 571 453 560
8 447 344 459 566 561 457 575 678
8 564 456 341 445 679 573 455 562
8 567 460 345 448 680 572 454 563
8 680 572 454 563 564 456 341 445
8 565 458 576 682 447 344 459 566
8 450 346 461 569 565 458 576 682
8 568 462 347 449 684 578 460 567
8 451 348 462 568 569 461 579 685
8 686 580 463 570 591 474 360 473
8 571 464 350 453 686 580 463 570
8 573 466 352 455 687 581 464 571
8 572 465 582 688 460 357 471 578
8 574 467 582 688 456 353 465 572
8 574 467 353 456 689 583 466 573
8 459 356 470 577 575 468 585 691
8 576 469 586 692 459 356 470 577
8 461 358 472 579 576 469 586 692
8 462 359 471 578 579 472 588 694
8 704 591 473 590 593 475 363 481
8 595 476 592 705 475 361 474 591
8 593 475 363 481 707 594 479 602
8 594 477 362 479 709 598 478 600
8 595 476 361 475 711 597 477 594
8 479 362 480 603 600 478 601 720
8 481 363 482 605 602 479 603 722
8 603 480 364 482 723 604 483 606
8 605 482 365 484 724 606 485 607
8 656 553 608 726 542 436 487 609
8 645 542 609 728 525 422 488 611
8 609 487 610 729 488 369 489 612
8 611 488 612 730 491 371 490 613
8 616 504 386 495 731 624 503 614
8 731 624 503 614 678 575 457 561
8 732 622 501 615 616 504 386 495
8 617 502 384 496 732 622 501 615
8 617 502 621 735 496 384 500 618
8 736 620 499 619 618 500 382 497
8 630 527 408 511 736 620 499 619
8 621 506 626 737 500 388 505 620
8 647 544 424 527 737 626 505 620
8 623 508 627 738 502 390 506 621
8 623 508 390 502 739 628 507 622
8 625 510 628 739 504 392 507 622
8 740 629 509 624 691 585 468 575
8 625 510 392 504 740 629 509 624
8 632 529 410 513 744 647 527 630
8 631 528 648 745 514 411 530 633
8 632 529 648 745 513 410 528 631
8 638 535 416 519 746 649 530 633
8 747 650 531 634 635 532 413 516
8 642 539 420 523 747 650 531 634
8 636 533 651 748 517 414 532 635
8 640 536 652 749 521 417 533 636
8 639 537 418 520 750 653 534 637
8 638 535 653 750 519 416 534 637
8 641 538 419 522 751 655 537 639
8 641 538 654 752 522 419 536 640
8 643 540 421 524 753 657 539 642
8 643 540 659 755 524 421 541 644
8 644 541 660 757 526 423 543 646
8 758 661 542 645 646 543 422 525
8 529 426 544 647 648 545 662 759
8 530 427 545 648 649 546 663 760
8 535 429 546 649 653 547 664 761
8 762 666 548 650 651 550 432 532
8 657 556 438 539 762 666 548 650
8 652 551 668 763 533 433 550 651
8 654 552 669 764 536 434 551 652
8 655 549 431 537 765 665 547 653
8 538 435 549 655 654 552 667 766
8 661 554 671 768 542 436 553 656
8 658 558 440 540 769 674 556 657
8 658 558 675 770 540 440 557 659
8 659 557 673 771 541 439 555 660
8 660 555 672 772 543 437 554 661
8 788 686 570 676 704 591 473 590
8 677 571 453 560 788 686 570 676
8 679 573 455 562 789 687 571 677
8 566 459 577 683 678 575 691 790
8 681 574 456 564 791 689 573 679
8 680 572 688 792 567 460 578 684
8 681 574 688 792 564 456 572 680
8 682 576 692 794 566 459 577 683
8 569 461 579 685 682 576 692 794
8 568 462 578 684 685 579 694 796
8 687 581 464 571 798 696 580 686
8 798 696 580 686 705 592 474 591
8 689 583 466 573 799 697 581 687
8 688 582 698 800 578 471 588 694
8 690 584 698 800 574 467 582 688
8 690 584 467 574 801 699 583 689
8 693 587 701 803 577 470 585 691
8 693 587 470 577 804 702 586 692
8 695 589 702 804 579 472 586 692
8 695 589 472 579 805 703 588 694
8 708 595 705 813 593 475 591 704
8 710 596 706 814 595 476 592 705
8 707 594 479 602 816 709 600 719
8 708 595 475 593 817 711 594 707
8 709 598 478 600 819 715 599 717
8 711 597 477 594 820 714 598 709
8 710 596 476 595 822 713 597 711
8 600 478 601 720 717 599 718 832
8 602 479 603 722 719 600 720 834
8 720 601 480 603 835 721 604 723
8 722 603 482 605 836 723 606 724
8 767 670 725 839 656 553 608 726
8 756 656 726 841 645 542 609 728
8 726 608 727 842 609 487 610 729
8 728 609 729 843 611 488 612 730
8 844 740 624 731 790 691 575 678
8 733 625 504 616 844 740 624 731
8 734 623 502 617 845 739 622 732
8 733 625 739 845 616 504 622 732
8 734 623 738 846 617 502 621 735
8 735 621 737 847 618 500 620 736
8 744 647 527 630 847 737 620 736
8 621 506 627 738 737 626 741 848
8 647 544 626 737 759 662 741 848
8 623 508 628 739 738 627 742 849
8 740 629 585 691 850 743 700 802
8 625 510 629 740 739 628 743 850
8 632 529 647 744 745 648 759 854
8 633 530 648 745 746 649 760 855
8 638 535 649 746 750 653 761 856
8 857 762 650 747 748 651 532 635
8 753 657 539 642 857 762 650 747
8 749 652 763 858 636 533 651 748
8 752 654 764 859 640 536 652 749
8 751 655 537 639 860 765 653 750
8 641 538 655 751 752 654 766 861
8 754 658 540 643 862 769 657 753
8 754 658 770 863 643 540 659 755
8 755 659 771 864 644 541 660 757
8 758 661 768 866 645 542 656 756
8 757 660 772 867 646 543 661 758
8 759 662 773 868 648 545 663 760
8 649 546 663 760 761 664 774 871
8 765 665 547 653 872 775 664 761
8 873 777 666 762 763 668 550 651
8 769 674 556 657 873 777 666 762
8 764 669 779 874 652 551 668 763
8 654 552 667 766 764 669 778 875
8 655 549 665 765 766 667 776 876
8 768 671 782 877 656 553 670 767
8 772 672 783 878 661 554 671 768
8 658 558 674 769 770 675 786 879
8 659 557 675 770 771 673 785 881
8 882 784 672 772 771 673 555 660
8 789 687 571 677 897 798 686 788
8 897 798 686 788 813 705 591 704
8 791 689 573 679 898 799 687 789
8 795 693 803 900 683 577 691 790
8 793 690 574 681 901 801 689 791
8 792 688 800 902 684 578 694 796
8 793 690 800 902 681 574 688 792
8 795 693 577 683 903 804 692 794
8 797 695 804 903 685 579 692 794
8 797 695 579 685 904 805 694 796
8 905 806 697 799 798 696 581 687
8 814 706 806 905 705 592 696 798
8 689 583 697 799 801 699 808 907
8 800 698 809 908 694 588 703 805
8 690 584 699 801 800 698 809 908
8 803 701 810 909 691 585 700 802
8 693 587 702 804 803 701 811 910
8 695 589 703 805 804 702 812 911
8 818 710 814 919 708 595 705 813
8 821 712 815 920 710 596 706 814
8 816 709 600 719 922 819 717 831
8 817 711 594 707 923 820 709 816
8 818 710 595 708 924 822 711 817
8 819 715 599 717 926 827 716 829
8 820 714 598 709 927 826 715 819
8 929 825 713 822 820 714 597 711
8 821 712 596 710 930 824 713 822
8 717 599 718 832 829 716 830 942
8 719 600 720 834 831 717 832 944
8 832 718 601 720 945 833 721 835
8 834 720 603 722 946 835 723 836
8 869 780 838 950 767 670 725 839
8 865 767 839 952 756 656 726 841
8 839 725 840 953 726 608 727 842
8 841 726 842 954 728 609 729 843
8 844 740 691 790 955 850 802 899
8 733 625 740 844 845 739 850 955
8 734 623 739 845 846 738 849 956
8 735 621 738 846 847 737 848 957
8 744 647 737 847 854 759 848 957
8 738 627 742 849 848 741 851 958
8 848 741 851 958 759 662 773 868
8 850 743 700 802 959 852 807 906
8 849 742 628 739 959 852 743 850
8 854 759 868 965 745 648 760 855
8 746 649 760 855 856 761 871 966
8 860 765 653 750 967 872 761 856
8 968 873 762 857 858 763 651 748
8 862 769 657 753 968 873 762 857
8 859 764 874 969 749 652 763 858
8 752 654 766 861 859 764 875 970
8 751 655 765 860 861 766 876 971
8 754 658 769 862 863 770 879 972
8 755 659 770 863 864 771 881 974
8 976 882 772 867 864 771 660 757
8 866 768 877 977 756 656 767 865
8 867 772 878 978 758 661 768 866
8 760 663 773 868 871 774 883 980
8 870 781 837 948 982 890 780 869
8 982 890 780 869 877 782 670 767
8 761 664 774 871 872 775 884 984
8 876 776 665 765 985 885 775 872
8 873 777 668 763 986 887 779 874
8 769 674 777 873 879 786 887 986
8 764 669 778 875 874 779 888 987
8 766 667 776 876 875 778 886 988
8 878 783 892 989 768 671 782 877
8 878 783 672 772 990 893 784 882
8 880 787 675 770 991 896 786 879
8 880 787 895 992 770 675 785 881
8 881 785 894 993 771 673 784 882
8 1006 905 799 898 897 798 687 789
8 919 814 905 1006 813 705 798 897
8 791 689 799 898 901 801 907 1007
8 900 803 909 1009 790 691 802 899
8 795 693 804 903 900 803 910 1010
8 902 800 908 1011 796 694 805 904
8 793 690 801 901 902 800 908 1011
8 797 695 805 904 903 804 911 1012
8 799 697 806 905 907 808 912 1013
8 920 815 912 1013 814 706 806 905
8 802 700 810 909 906 807 913 1014
8 801 699 808 907 908 809 914 1015
8 805 703 809 908 911 812 915 1016
8 803 701 811 910 909 810 916 1017
8 911 812 917 1018 804 702 811 910
8 925 821 920 1030 818 710 814 919
8 928 823 921 1031 821 712 815 920
8 922 819 717 831 1033 926 829 941
8 923 820 709 816 1034 927 819 922
8 1035 929 822 924 923 820 711 817
8 925 821 710 818 1036 930 822 924
8 1038 933 825 929 927 826 714 820
8 926 827 716 829 1039 935 828 939
8 927 826 715 819 1040 934 827 926
8 928 823 712 821 1041 931 824 930
8 1042 932 824 930 929 825 713 822
8 829 716 830 942 939 828 940 1058
8 831 717 832 944 941 829 942 1060
8 942 830 718 832 1061 943 833 945
8 944 832 720 834 1062 945 835 946
8 981 889 947 1064 870 781 837 948
8 948 837 949 1067 869 780 838 950
8 975 869 950 1069 865 767 839 952
8 950 838 951 1070 839 725 840 953
8 952 839 953 1071 841 726 842 954
8 955 850 802 899 1072 959 906 1008
8 956 849 739 845 1072 959 850 955
8 846 738 849 956 957 848 958 1073
8 957 848 958 1073 854 759 868 965
8 849 742 852 959 958 851 961 1076
8 960 853 961 1076 906 807 852 959
8 958 851 961 1076 868 773 883 980
8 960 853 807 906 1077 963 913 1014
8 855 760 868 965 966 871 980 1085
8 856 761 871 966 967 872 984 1086
8 971 876 765 860 1087 985 872 967
8 968 873 763 858 1088 986 874 969
8 862 769 873 968 972 879 986 1088
8 859 764 875 970 969 874 987 1089
8 861 766 876 971 970 875 988 1090
8 973 880 770 863 1091 991 879 972
8 973 880 992 1092 863 770 881 974
8 974 881 993 1093 864 771 882 976
8 979 870 948 1066 1094 982 869 975
8 1094 982 869 975 977 877 767 865
8 978 878 772 867 1095 990 882 976
8 978 878 989 1096 866 768 877 977
8 871 774 883 980 984 884 994 1099
8 983 891 999 1100 870 781 889 981
8 1101 1000 890 982 989 892 782 877
8 983 891 781 870 1101 1000 890 982
8 872 775 884 984 985 885 995 1103
8 876 776 885 985 988 886 996 1104
8 986 887 779 874 1105 998 888 987
8 879 786 887 986 991 896 998 1105
8 875 778 886 988 987 888 997 1106
8 990 893 1002 1107 878 783 892 989
8 1108 1003 893 990 993 894 784 882
8 880 787 896 991 992 895 1005 1109
8 993 894 785 881 1110 1004 895 992
8 898 799 905 1006 1007 907 1013 1120
8 1030 920 1013 1120 919 814 905 1006
8 901 801 907 1007 1011 908 1015 1121
8 899 802 909 1009 1008 906 1014 1122
8 900 803 910 1010 1009 909 1017 1123
8 1012 911 1018 1124 903 804 910 1010
8 904 805 908 1011 1012 911 1016 1125
8 1013 912 1020 1127 907 808 914 1015
8 1031 921 1020 1127 920 815 912 1013
8 1019 918 962 1075 1128 1021 913 1014
8 1128 1021 913 1014 1017 916 810 909
8 1015 914 1022 1129 908 809 915 1016
8 1016 915 1023 1130 911 812 917 1018
8 1018 917 1024 1131 910 811 916 1017
8 1037 928 1031 1148 925 821 920 1030
8 928 823 931 1041 1031 921 1032 1149
8 1033 926 829 941 1151 1039 939 1057
8 1034 927 819 922 1152 1040 926 1033
8 1153 1038 929 1035 1034 927 820 923
8 1154 1042 930 1036 1035 929 822 924
8 1037 928 821 925 1155 1041 930 1036
8 1039 935 828 939 1156 1047 938 1055
8 1157 1043 932 1042 1038 933 825 929
8 1038 933 826 927 1158 1045 934 1040
8 1040 934 827 926 1159 1046 935 1039
8 930 824 932 1042 1041 931 1044 1160
8 1051 936 1048 1165 1175 1052 937 1053
8 1156 1047 938 1055 1053 937 1054 1178
8 939 828 940 1058 1055 938 1056 1181
8 941 829 942 1060 1057 939 1058 1183
8 942 830 943 1061 1058 940 1059 1184
8 1060 942 832 944 1185 1061 945 1062
8 1082 964 1063 1188 981 889 947 1064
8 1097 981 1064 1190 979 870 948 1066
8 1064 947 1065 1191 948 837 949 1067
8 1066 948 1067 1193 975 869 950 1069
8 1067 949 1068 1194 950 838 951 1070
8 1069 950 1070 1195 952 839 953 1071
8 956 849 959 1072 1073 958 1076 1197
8 1074 960 1076 1197 1008 906 959 1072
8 1073 958 1076 1197 965 868 980 1085
8 1074 960 906 1008 1198 1077 1014 1122
8 1133 1026 1079 1199 1019 918 962 1075
8 1077 963 913 1014 1200 1080 962 1075
8 960 853 963 1077 1076 961 1078 1201
8 980 883 961 1076 1099 994 1078 1201
8 1210 1083 964 1082 1100 999 889 981
8 966 871 980 1085 1086 984 1099 1215
8 967 872 984 1086 1087 985 1103 1216
8 971 876 985 1087 1090 988 1104 1217
8 1088 986 874 969 1218 1105 987 1089
8 972 879 986 1088 1091 991 1105 1218
8 970 875 988 1090 1089 987 1106 1219
8 973 880 991 1091 1092 992 1109 1220
8 1093 993 881 974 1221 1110 992 1092
8 1222 1108 990 1095 1093 993 882 976
8 1223 1101 982 1094 1096 989 877 977
8 1098 983 870 979 1223 1101 982 1094
8 1095 990 1107 1224 978 878 989 1096
8 1098 983 1100 1225 979 870 981 1097
8 984 884 994 1099 1103 995 1111 1227
8 1102 1001 1115 1228 983 891 999 1100
8 1101 1000 892 989 1229 1116 1002 1107
8 1102 1001 891 983 1229 1116 1000 1101
8 985 885 995 1103 1104 996 1112 1230
8 988 886 996 1104 1106 997 1113 1231
8 1105 998 888 987 1232 1114 997 1106
8 991 896 998 1105 1109 1005 1114 1232
8 1108 1003 1117 1233 990 893 1002 1107
8 1108 1003 894 993 1233 1117 1004 1110
8 992 895 1005 1109 1110 1004 1118 1234
8 1120 1013 1127 1244 1007 907 1015 1121
8 1148 1031 1127 1244 1030 920 1013 1120
8 1121 1015 1129 1245 1011 908 1016 1125
8 1126 1019 1075 1196 1246 1128 1014 1122
8 1246 1128 1014 1122 1123 1017 909 1009
8 1124 1018 1131 1247 1010 910 1017 1123
8 1125 1016 1130 1248 1012 911 1018 1124
8 1127 1020 1137 1254 1015 914 1022 1129
8 1031 921 1032 1149 1127 1020 1137 1254
8 1134 1027 918 1019 1257 1140 1021 1128
8 1257 1140 1021 1128 1131 1024 916 1017
8 1129 1022 1141 1258 1016 915 1023 1130
8 1130 1023 1142 1259 1018 917 1024 1131
8 1261 1144 1025 1132 1133 1026 1079 1199
8 1255 1138 1025 1132 1135 1028 1144 1261
8 1133 1026 918 1019 1262 1145 1027 1134
8 1136 1029 1139 1256 1263 1146 1028 1135
8 1037 928 1041 1155 1148 1031 1149 1275
8 1041 931 1044 1160 1149 1032 1150 1276
8 1151 1039 939 1057 1278 1156 1055 1180
8 1152 1040 926 1033 1279 1159 1039 1151
8 1153 1038 927 1034 1280 1158 1040 1152
8 1281 1157 1042 1154 1153 1038 929 1035
8 1036 930 1042 1154 1155 1041 1160 1282
8 1283 1164 1046 1159 1156 1047 935 1039
8 1165 1048 1164 1283 1053 937 1047 1156
8 1157 1043 933 1038 1284 1161 1045 1158
8 1157 1043 1161 1284 1042 932 1044 1160
8 1040 934 1046 1159 1158 1045 1163 1285
8 1166 1049 1167 1292 1051 936 1048 1165
8 1166 1049 936 1051 1293 1168 1050 1172
8 1051 936 1052 1175 1172 1050 1173 1306
8 1174 1051 1165 1290 1308 1175 1053 1177
8 1053 937 1054 1178 1175 1052 1176 1309
8 1278 1156 1055 1180 1177 1053 1178 1311
8 1055 938 1056 1181 1178 1054 1179 1312
8 1057 939 1058 1183 1180 1055 1181 1314
8 1058 940 1059 1184 1181 1056 1182 1315
8 1060 942 1061 1185 1183 1058 1184 1316
8 1208 1081 1187 1321 1082 964 1063 1188
8 1209 1082 1188 1322 1097 981 1064 1190
8 1188 1063 1189 1323 1064 947 1065 1191
8 1190 1064 1191 1325 1066 948 1067 1193
8 1191 1065 1192 1326 1067 949 1068 1194
8 1067 1193 1069 950 1194 1327 1195 1070
8 1250 1133 1199 1330 1126 1019 1075 1196
8 1198 1077 1014 1122 1331 1200 1075 1196
8 1074 960 1077 1198 1197 1076 1201 1332
8 1085 980 1076 1197 1215 1099 1201 1332
8 1199 1079 1203 1333 1075 962 1080 1200
8 1132 1025 1119 1243 1199 1079 1203 1333
8 1201 1078 963 1077 1334 1202 1080 1200
8 1099 994 1078 1201 1227 1111 1202 1334
8 1343 1207 1081 1208 1210 1083 964 1082
8 1214 1084 1186 1319 1343 1207 1081 1208
8 1345 1210 1082 1209 1225 1100 981 1097
8 1346 1211 1083 1210 1228 1115 999 1100
8 1086 984 1099 1215 1216 1103 1227 1352
8 1087 985 1103 1216 1217 1104 1230 1353
8 1090 988 1104 1217 1219 1106 1231 1354
8 1218 1105 987 1089 1355 1232 1106 1219
8 1091 991 1105 1218 1220 1109 1232 1355
8 1092 992 1109 1220 1221 1110 1234 1356
8 1222 1108 1233 1357 1095 990 1107 1224
8 1222 1108 993 1093 1357 1233 1110 1221
8 1223 1101 989 1096 1358 1229 1107 1224
8 1226 1102 983 1098 1358 1229 1101 1223
8 1226 1102 1228 1359 1098 983 1100 1225
8 1103 995 1111 1227 1230 1112 1235 1360
8 1107 1002 1117 1233 1229 1116 1240 1362
8 1102 1001 1116 1229 1228 1115 1240 1362
8 1104 996 1112 1230 1231 1113 1236 1363
8 1364 1237 1114 1232 1231 1113 997 1106
8 1109 1005 1114 1232 1234 1118 1238 1365
8 1110 1004 1118 1234 1233 1117 1241 1366
8 1242 1374 1255 1138 1119 1243 1132 1025
8 1244 1127 1254 1376 1121 1015 1129 1245
8 1148 1031 1149 1275 1244 1127 1254 1376
8 1245 1129 1258 1377 1125 1016 1130 1248
8 1251 1134 1019 1126 1378 1257 1128 1246
8 1378 1257 1128 1246 1247 1131 1017 1123
8 1248 1130 1259 1379 1124 1018 1131 1247
8 1261 1381 1250 1133 1132 1249 1330 1199
8 1255 1380 1252 1135 1132 1249 1381 1261
8 1250 1133 1019 1126 1382 1262 1134 1251
8 1253 1136 1256 1385 1384 1263 1135 1252
8 1254 1137 1265 1387 1129 1022 1141 1258
8 1149 1032 1150 1276 1254 1137 1265 1387
8 1028 1135 1255 1138 1139 1256 1388 1266
8 1136 1029 1147 1264 1256 1139 1267 1389
8 1390 1268 1140 1257 1259 1142 1024 1131
8 1260 1143 1027 1134 1390 1268 1140 1257
8 1258 1141 1269 1391 1130 1023 1142 1259
8 1262 1145 1027 1134 1393 1271 1143 1260
8 1261 1144 1026 1133 1394 1272 1145 1262
8 1135 1028 1144 1261 1263 1146 1272 1394
8 1136 1029 1146 1263 1264 1147 1273 1395
8 1155 1041 1160 1282 1275 1149 1276 1405
8 1276 1150 1044 1160 1406 1277 1162 1286
8 1408 1283 1159 1279 1278 1156 1039 1151
8 1290 1165 1283 1408 1177 1053 1156 1278
8 1152 1040 1159 1279 1280 1158 1285 1409
8 1281 1157 1038 1153 1410 1284 1158 1280
8 1281 1157 1284 1410 1154 1042 1160 1282
8 1159 1046 1164 1283 1285 1163 1289 1412
8 1292 1167 1289 1412 1165 1048 1164 1283
8 1158 1045 1163 1285 1284 1161 1288 1413
8 1284 1161 1288 1413 1160 1044 1162 1286
8 1291 1166 1292 1418 1174 1051 1165 1290
8 1291 1166 1051 1174 1419 1293 1172 1305
8 1294 1169 1296 1421 1166 1049 1167 1292
8 1293 1168 1050 1172 1422 1295 1171 1303
8 1294 1169 1049 1166 1423 1297 1168 1293
8 1422 1295 1171 1303 1301 1170 1302 1435
8 1172 1050 1173 1306 1303 1171 1304 1438
8 1174 1051 1175 1308 1305 1172 1306 1440
8 1175 1052 1176 1309 1306 1173 1307 1441
8 1177 1053 1178 1311 1308 1175 1309 1443
8 1178 1054 1179 1312 1309 1176 1310 1444
8 1180 1055 1181 1314 1311 1178 1312 1446
8 1056 1181 1312 1179 1182 1315 1447 1313
8 1183 1058 1184 1316 1314 1181 1315 1448
8 1319 1186 1084 1214 1451 1317 1213 1350
8 1319 1186 1318 1453 1208 1081 1187 1321
8 1321 1187 1320 1456 1188 1063 1189 1323
8 1344 1208 1321 1457 1209 1082 1188 1322
8 1322 1188 1323 1458 1190 1064 1191 1325
8 1323 1189 1324 1459 1191 1065 1192 1326
8 1191 1325 1193 1067 1326 1460 1327 1194
8 1242 1374 1243 1119 1328 1462 1335 1204
8 1330 1199 1333 1465 1196 1075 1200 1331
8 1132 1249 1330 1199 1243 1375 1465 1333
8 1332 1201 1077 1198 1466 1334 1200 1331
8 1215 1099 1201 1332 1352 1227 1334 1466
8 1119 1243 1333 1203 1204 1335 1470 1338
8 1333 1203 1338 1470 1200 1080 1202 1334
8 1227 1111 1202 1334 1360 1235 1338 1470
8 1328 1462 1335 1204 1205 1336 1471 1339
8 1337 1206 1340 1472 1464 1329 1205 1336
8 1346 1211 1342 1479 1210 1083 1207 1343
8 1346 1211 1115 1228 1479 1342 1239 1361
8 1348 1212 1084 1214 1479 1342 1207 1343
8 1480 1343 1208 1344 1345 1210 1082 1209
8 1351 1214 1319 1454 1480 1343 1208 1344
8 1481 1346 1210 1345 1359 1228 1100 1225
8 1348 1212 1347 1483 1214 1084 1213 1350
8 1216 1103 1227 1352 1353 1230 1360 1488
8 1217 1104 1230 1353 1354 1231 1363 1489
8 1490 1364 1232 1355 1354 1231 1106 1219
8 1220 1109 1232 1355 1356 1234 1365 1491
8 1221 1110 1234 1356 1357 1233 1366 1492
8 1224 1107 1233 1357 1358 1229 1362 1493
8 1226 1102 1229 1358 1359 1228 1362 1493
8 1230 1112 1235 1360 1363 1236 1367 1496
8 1361 1239 1115 1228 1497 1371 1240 1362
8 1366 1241 1372 1498 1233 1117 1240 1362
8 1364 1237 1113 1231 1499 1368 1236 1363
8 1364 1237 1368 1499 1232 1114 1238 1365
8 1234 1118 1238 1365 1366 1241 1369 1500
8 1507 1373 1242 1374 1388 1266 1138 1255
8 1508 1374 1243 1375 1380 1255 1132 1249
8 1376 1254 1387 1509 1245 1129 1258 1377
8 1275 1149 1276 1405 1376 1254 1387 1509
8 1377 1258 1391 1510 1248 1130 1259 1379
8 1511 1390 1257 1378 1379 1259 1131 1247
8 1383 1260 1134 1251 1511 1390 1257 1378
8 1252 1135 1256 1385 1380 1255 1388 1512
8 1261 1381 1513 1394 1133 1250 1382 1262
8 1135 1252 1384 1263 1261 1381 1513 1394
8 1382 1262 1134 1251 1514 1393 1260 1383
8 1253 1136 1263 1384 1386 1264 1395 1516
8 1253 1136 1264 1386 1385 1256 1389 1517
8 1387 1265 1397 1519 1258 1141 1269 1391
8 1276 1150 1277 1406 1387 1265 1397 1519
8 1256 1139 1267 1389 1388 1266 1398 1520
8 1264 1147 1274 1396 1389 1267 1399 1521
8 1392 1270 1143 1260 1522 1400 1268 1390
8 1390 1268 1142 1259 1522 1400 1269 1391
8 1392 1270 1401 1523 1260 1143 1271 1393
8 1272 1394 1524 1402 1145 1262 1393 1271
8 1395 1273 1146 1263 1524 1402 1272 1394
8 1273 1395 1264 1147 1403 1526 1396 1274
8 1405 1276 1160 1282 1534 1406 1286 1411
8 1414 1287 1407 1535 1286 1162 1277 1406
8 1279 1159 1283 1408 1409 1285 1412 1537
8 1418 1292 1412 1537 1290 1165 1283 1408
8 1280 1158 1285 1409 1410 1284 1413 1538
8 1410 1284 1413 1538 1282 1160 1286 1411
8 1285 1163 1289 1412 1413 1288 1417 1540
8 1421 1296 1417 1540 1292 1167 1289 1412
8 1414 1287 1162 1286 1541 1416 1288 1413
8 1420 1294 1421 1545 1291 1166 1292 1418
8 1419 1293 1172 1305 1546 1422 1303 1437
8 1420 1294 1166 1291 1547 1423 1293 1419
8 1294 1169 1297 1423 1421 1296 1425 1548
8 1423 1297 1168 1293 1549 1424 1295 1422
8 1301 1170 1298 1427 1422 1295 1424 1549
8 1432 1300 1428 1554 1301 1170 1298 1427
8 1431 1299 1428 1554 1560 1430 1300 1432
8 1563 1433 1300 1432 1435 1302 1170 1301
8 1546 1422 1303 1437 1434 1301 1435 1565
8 1303 1171 1304 1438 1435 1302 1436 1566
8 1305 1172 1306 1440 1437 1303 1438 1568
8 1306 1173 1307 1441 1438 1304 1439 1569
8 1308 1175 1309 1443 1440 1306 1441 1571
8 1309 1176 1310 1444 1441 1307 1442 1572
8 1311 1178 1312 1446 1443 1309 1444 1574
8 1179 1312 1444 1310 1313 1447 1575 1445
8 1314 1181 1315 1448 1446 1312 1447 1576
8 1350 1213 1349 1486 1451 1317 1449 1579
8 1451 1317 1450 1581 1319 1186 1318 1453
8 1454 1319 1214 1351 1582 1451 1350 1487
8 1453 1318 1452 1584 1321 1187 1320 1456
8 1454 1319 1453 1585 1344 1208 1321 1457
8 1456 1320 1455 1586 1323 1189 1324 1459
8 1457 1321 1456 1587 1322 1188 1323 1458
8 1458 1323 1459 1588 1325 1191 1326 1460
8 1205 1336 1464 1329 1328 1462 1590 1461
8 1507 1373 1461 1590 1374 1242 1328 1462
8 1508 1374 1462 1591 1375 1243 1335 1467
8 1337 1206 1329 1464 1473 1341 1463 1594
8 1375 1243 1335 1467 1465 1333 1470 1596
8 1465 1333 1470 1596 1331 1200 1334 1466
8 1352 1227 1334 1466 1488 1360 1470 1596
8 1591 1462 1336 1468 1467 1335 1471 1597
8 1469 1337 1472 1598 1595 1464 1336 1468
8 1471 1339 1474 1600 1335 1204 1338 1470
8 1600 1474 1367 1496 1470 1338 1235 1360
8 1336 1205 1340 1472 1471 1339 1475 1601
8 1337 1206 1341 1473 1472 1340 1476 1602
8 1495 1370 1478 1609 1361 1239 1342 1479
8 1348 1212 1342 1479 1483 1347 1478 1609
8 1481 1346 1479 1610 1345 1210 1343 1480
8 1481 1346 1228 1359 1610 1479 1361 1494
8 1484 1348 1214 1351 1610 1479 1343 1480
8 1483 1347 1482 1612 1350 1213 1349 1486
8 1484 1348 1483 1613 1351 1214 1350 1487
8 1353 1230 1360 1488 1489 1363 1496 1616
8 1490 1364 1231 1354 1617 1499 1363 1489
8 1490 1364 1499 1617 1355 1232 1365 1491
8 1356 1234 1365 1491 1492 1366 1500 1619
8 1492 1366 1498 1620 1357 1233 1362 1493
8 1494 1361 1228 1359 1621 1497 1362 1493
8 1495 1370 1239 1361 1622 1504 1371 1497
8 1363 1236 1367 1496 1499 1368 1501 1623
8 1497 1371 1240 1362 1624 1505 1372 1498
8 1625 1503 1372 1498 1500 1369 1241 1366
8 1365 1238 1368 1499 1500 1369 1502 1626
8 1520 1398 1506 1633 1388 1266 1373 1507
8 1634 1507 1374 1508 1512 1388 1255 1380
8 1509 1387 1519 1635 1377 1258 1391 1510
8 1405 1276 1406 1534 1509 1387 1519 1635
8 1515 1392 1260 1383 1636 1522 1390 1511
8 1511 1390 1259 1379 1636 1522 1391 1510
8 1385 1256 1389 1517 1512 1388 1520 1637
8 1513 1394 1262 1382 1638 1524 1393 1514
8 1395 1516 1638 1524 1263 1384 1513 1394
8 1515 1392 1523 1639 1383 1260 1393 1514
8 1516 1395 1526 1640 1386 1264 1396 1518
8 1386 1264 1396 1518 1517 1389 1521 1641
8 1519 1397 1527 1643 1391 1269 1400 1522
8 1535 1407 1527 1643 1406 1277 1397 1519
8 1389 1267 1399 1521 1520 1398 1528 1644
8 1645 1529 1399 1521 1525 1404 1274 1396
8 1392 1270 1400 1522 1523 1401 1531 1646
8 1524 1402 1271 1393 1648 1532 1401 1523
8 1403 1526 1648 1532 1273 1395 1524 1402
8 1525 1404 1274 1396 1649 1533 1403 1526
8 1539 1414 1535 1657 1411 1286 1406 1534
8 1542 1415 1536 1658 1414 1287 1407 1535
8 1409 1285 1412 1537 1538 1413 1540 1660
8 1545 1421 1540 1660 1418 1292 1412 1537
8 1539 1414 1286 1411 1661 1541 1413 1538
8 1540 1417 1544 1663 1413 1288 1416 1541
8 1421 1296 1425 1548 1540 1417 1544 1663
8 1542 1415 1287 1414 1664 1543 1416 1541
8 1420 1294 1423 1547 1545 1421 1548 1666
8 1547 1423 1293 1419 1667 1549 1422 1546
8 1434 1301 1427 1553 1546 1422 1549 1667
8 1423 1297 1424 1549 1548 1425 1550 1668
8 1551 1426 1550 1668 1427 1298 1424 1549
8 1551 1426 1298 1427 1671 1552 1428 1554
8 1562 1432 1554 1674 1434 1301 1427 1553
8 1431 1299 1429 1558 1554 1428 1555 1675
8 1431 1299 1430 1560 1558 1429 1557 1680
8 1560 1430 1300 1432 1683 1559 1433 1563
8 1561 1431 1554 1674 1684 1560 1432 1562
8 1685 1563 1432 1562 1565 1435 1301 1434
8 1435 1302 1436 1566 1563 1433 1564 1686
8 1437 1303 1438 1568 1565 1435 1566 1688
8 1438 1304 1439 1569 1566 1436 1567 1689
8 1440 1306 1441 1571 1568 1438 1569 1691
8 1441 1307 1442 1572 1569 1439 1570 1692
8 1443 1309 1444 1574 1571 1441 1572 1694
8 1310 1444 1572 1442 1445 1575 1695 1573
8 1446 1312 1447 1576 1574 1444 1575 1696
8 1486 1349 1485 1614 1579 1449 1577 1699
8 1451 1317 1449 1579 1581 1450 1578 1701
8 1487 1350 1486 1615 1582 1451 1579 1702
8 1581 1450 1580 1704 1453 1318 1452 1584
8 1582 1451 1581 1705 1454 1319 1453 1585
8 1584 1452 1583 1706 1456 1320 1455 1586
8 1585 1453 1584 1707 1457 1321 1456 1587
8 1587 1456 1586 1708 1458 1323 1459 1588
8 1633 1506 1589 1710 1507 1373 1461 1590
8 1464 1329 1461 1590 1594 1463 1589 1710
8 1468 1336 1462 1591 1595 1464 1590 1711
8 1634 1507 1590 1711 1508 1374 1462 1591
8 1473 1341 1463 1594 1603 1477 1593 1716
8 1469 1337 1464 1595 1599 1473 1594 1717
8 1471 1597 1467 1335 1600 1718 1596 1470
8 1718 1600 1496 1616 1596 1470 1360 1488
8 1336 1468 1597 1471 1472 1598 1719 1601
8 1469 1337 1473 1599 1598 1472 1602 1720
8 1722 1604 1501 1623 1600 1474 1367 1496
8 1475 1601 1471 1339 1604 1722 1600 1474
8 1602 1476 1605 1723 1472 1340 1475 1601
8 1476 1602 1724 1606 1341 1473 1603 1477
8 1483 1347 1478 1609 1612 1482 1608 1731
8 1495 1370 1504 1622 1609 1478 1608 1731
8 1618 1495 1609 1732 1494 1361 1479 1610
8 1484 1348 1479 1610 1613 1483 1609 1732
8 1486 1349 1482 1612 1614 1485 1611 1733
8 1613 1483 1612 1734 1487 1350 1486 1615
8 1489 1363 1496 1616 1617 1499 1623 1736
8 1491 1365 1499 1617 1619 1500 1626 1737
8 1618 1495 1361 1494 1738 1622 1497 1621
8 1739 1625 1498 1620 1619 1500 1366 1492
8 1621 1497 1362 1493 1740 1624 1498 1620
8 1742 1631 1504 1622 1624 1505 1371 1497
8 1743 1628 1502 1626 1623 1501 1368 1499
8 1744 1630 1505 1624 1625 1503 1372 1498
8 1745 1629 1503 1625 1626 1502 1369 1500
8 1520 1398 1528 1644 1633 1506 1632 1751
8 1637 1520 1633 1752 1512 1388 1507 1634
8 1635 1519 1643 1753 1510 1391 1522 1636
8 1657 1535 1643 1753 1534 1406 1519 1635
8 1515 1392 1522 1636 1639 1523 1646 1754
8 1517 1389 1521 1641 1637 1520 1644 1755
8 1524 1638 1756 1648 1393 1514 1639 1523
8 1640 1526 1395 1516 1756 1648 1524 1638
8 1642 1525 1396 1518 1757 1649 1526 1640
8 1758 1645 1521 1641 1642 1525 1396 1518
8 1646 1531 1400 1522 1760 1650 1527 1643
8 1535 1407 1536 1658 1643 1527 1650 1760
8 1521 1399 1529 1645 1644 1528 1651 1761
8 1647 1530 1652 1762 1525 1404 1529 1645
8 1401 1523 1648 1532 1531 1646 1763 1655
8 1525 1404 1533 1649 1647 1530 1654 1765
8 1533 1649 1766 1656 1403 1526 1648 1532
8 1662 1542 1658 1774 1539 1414 1535 1657
8 1542 1415 1543 1664 1658 1536 1659 1775
8 1660 1540 1663 1777 1538 1413 1541 1661
8 1545 1421 1548 1666 1660 1540 1663 1777
8 1662 1542 1414 1539 1778 1664 1541 1661
8 1664 1543 1416 1541 1779 1665 1544 1663
8 1548 1425 1550 1668 1663 1544 1665 1779
8 1547 1423 1549 1667 1666 1548 1668 1781
8 1670 1551 1668 1781 1553 1427 1549 1667
8 1551 1426 1552 1671 1668 1550 1669 1782
8 1670 1551 1427 1553 1784 1671 1554 1674
8 1675 1555 1672 1785 1554 1428 1552 1671
8 1678 1556 1673 1789 1558 1429 1555 1675
8 1561 1431 1558 1681 1674 1554 1675 1790
8 1794 1677 1556 1678 1680 1557 1429 1558
8 1560 1430 1559 1683 1680 1557 1679 1797
8 1561 1431 1560 1684 1681 1558 1680 1798
8 1563 1433 1564 1686 1683 1559 1682 1800
8 1684 1560 1432 1562 1801 1683 1563 1685
8 1565 1435 1566 1688 1685 1563 1686 1802
8 1566 1436 1567 1689 1686 1564 1687 1803
8 1568 1438 1569 1691 1688 1566 1689 1805
8 1569 1439 1570 1692 1689 1567 1690 1806
8 1571 1441 1572 1694 1691 1569 1692 1808
8 1442 1572 1692 1570 1573 1695 1809 1693
8 1574 1444 1575 1696 1694 1572 1695 1810
8 1614 1485 1592 1712 1699 1577 1697 1813
8 1579 1449 1577 1699 1701 1578 1698 1815
8 1615 1486 1614 1735 1702 1579 1699 1816
8 1701 1578 1700 1818 1581 1450 1580 1704
8 1582 1451 1579 1702 1705 1581 1701 1819
8 1704 1580 1703 1820 1584 1452 1583 1706
8 1705 1581 1704 1821 1585 1453 1584 1707
8 1707 1584 1706 1822 1587 1456 1586 1708
8 1710 1589 1506 1633 1824 1709 1632 1751
8 1594 1463 1589 1710 1716 1593 1709 1824
8 1752 1633 1710 1825 1634 1507 1590 1711
8 1595 1464 1590 1711 1717 1594 1710 1825
8 1830 1714 1592 1712 1733 1611 1485 1614
8 1603 1477 1593 1716 1725 1607 1715 1834
8 1599 1473 1594 1717 1721 1603 1716 1835
8 1837 1722 1623 1736 1718 1600 1496 1616
8 1719 1601 1722 1837 1597 1471 1600 1718
8 1602 1720 1598 1472 1723 1838 1719 1601
8 1720 1602 1473 1599 1839 1724 1603 1721
8 1723 1605 1726 1840 1601 1475 1604 1722
8 1840 1726 1628 1743 1722 1604 1501 1623
8 1724 1606 1727 1841 1602 1476 1605 1723
8 1725 1607 1728 1842 1603 1477 1606 1724
8 1612 1482 1608 1731 1733 1611 1730 1849
8 1741 1627 1730 1849 1622 1504 1608 1731
8 1613 1483 1609 1732 1734 1612 1731 1850
8 1618 1495 1622 1738 1732 1609 1731 1850
8 1615 1486 1612 1734 1735 1614 1733 1851
8 1852 1743 1626 1737 1736 1623 1499 1617
8 1853 1745 1625 1739 1737 1626 1500 1619
8 1855 1742 1622 1738 1740 1624 1497 1621
8 1856 1744 1624 1740 1739 1625 1498 1620
8 1741 1627 1504 1622 1857 1746 1631 1742
8 1742 1631 1505 1624 1858 1749 1630 1744
8 1859 1747 1629 1745 1743 1628 1502 1626
8 1860 1748 1630 1744 1745 1629 1503 1625
8 1644 1528 1651 1761 1751 1632 1750 1865
8 1637 1520 1644 1755 1752 1633 1751 1866
8 1754 1646 1522 1636 1867 1760 1643 1753
8 1657 1535 1658 1774 1753 1643 1760 1867
8 1639 1523 1646 1754 1756 1648 1763 1868
8 1641 1521 1645 1758 1755 1644 1761 1869
8 1757 1649 1526 1640 1870 1766 1648 1756
8 1642 1525 1649 1757 1759 1647 1765 1871
8 1759 1647 1762 1872 1642 1525 1645 1758
8 1760 1650 1767 1874 1646 1531 1655 1763
8 1658 1536 1659 1775 1760 1650 1767 1874
8 1762 1652 1768 1875 1645 1529 1651 1761
8 1764 1653 1769 1876 1647 1530 1652 1762
8 1656 1766 1877 1773 1532 1648 1763 1655
8 1771 1879 1765 1654 1653 1764 1647 1530
8 1533 1649 1765 1654 1656 1766 1880 1772
8 1662 1542 1664 1778 1774 1658 1775 1887
8 1664 1543 1665 1779 1775 1659 1776 1888
8 1778 1664 1541 1661 1890 1779 1663 1777
8 1666 1548 1668 1781 1777 1663 1779 1890
8 1782 1669 1780 1891 1668 1550 1665 1779
8 1670 1551 1671 1784 1781 1668 1782 1893
8 1671 1552 1672 1785 1782 1669 1783 1894
8 1790 1675 1785 1896 1674 1554 1671 1784
8 1675 1555 1673 1789 1785 1672 1786 1897
8 1792 1676 1788 1903 1678 1556 1673 1789
8 1795 1678 1789 1904 1681 1558 1675 1790
8 1792 1676 1556 1678 1906 1791 1677 1794
8 1680 1557 1679 1797 1794 1677 1793 1909
8 1910 1794 1678 1795 1798 1680 1558 1681
8 1683 1559 1682 1800 1797 1679 1796 1912
8 1684 1560 1683 1801 1798 1680 1797 1913
8 1686 1564 1687 1803 1800 1682 1799 1915
8 1685 1563 1686 1802 1801 1683 1800 1916
8 1688 1566 1689 1805 1802 1686 1803 1917
8 1689 1567 1690 1806 1803 1687 1804 1918
8 1691 1569 1692 1808 1805 1689 1806 1920
8 1692 1570 1693 1809 1806 1690 1807 1921
8 1694 1572 1695 1810 1808 1692 1809 1922
8 1829 1713 1811 1926 1712 1592 1697 1813
8 1813 1697 1812 1928 1699 1577 1698 1815
8 1735 1614 1712 1828 1816 1699 1813 1929
8 1815 1698 1814 1931 1701 1578 1700 1818
8 1702 1579 1699 1816 1819 1701 1815 1932
8 1818 1700 1817 1933 1704 1580 1703 1820
8 1819 1701 1818 1934 1705 1581 1704 1821
8 1821 1704 1820 1935 1707 1584 1706 1822
8 1824 1709 1632 1751 1937 1823 1750 1865
8 1716 1593 1709 1824 1834 1715 1823 1937
8 1825 1710 1633 1752 1938 1824 1751 1866
8 1717 1594 1710 1825 1835 1716 1824 1938
8 1945 1830 1712 1828 1851 1733 1614 1735
8 1830 1714 1831 1946 1712 1592 1713 1829
8 1947 1832 1714 1830 1849 1730 1611 1733
8 1843 1729 1607 1725 1950 1833 1715 1834
8 1721 1603 1716 1835 1836 1725 1834 1951
8 1836 1725 1842 1953 1721 1603 1724 1839
8 1723 1838 1719 1601 1840 1954 1837 1722
8 1954 1840 1743 1852 1837 1722 1623 1736
8 1724 1839 1720 1602 1841 1955 1838 1723
8 1841 1727 1844 1956 1723 1605 1726 1840
8 1956 1844 1747 1859 1840 1726 1628 1743
8 1728 1842 1724 1606 1845 1957 1841 1727
8 1725 1607 1729 1843 1842 1728 1846 1958
8 1741 1627 1746 1857 1849 1730 1848 1965
8 1734 1612 1731 1850 1851 1733 1849 1966
8 1854 1741 1849 1966 1738 1622 1731 1850
8 1967 1859 1745 1853 1852 1743 1626 1737
8 1968 1860 1744 1856 1853 1745 1625 1739
8 1854 1741 1622 1738 1969 1857 1742 1855
8 1855 1742 1624 1740 1970 1858 1744 1856
8 1857 1746 1631 1742 1971 1861 1749 1858
8 1858 1749 1630 1744 1972 1863 1748 1860
8 1859 1747 1862 1973 1745 1629 1748 1860
8 1875 1768 1864 1977 1761 1651 1750 1865
8 1755 1644 1761 1869 1866 1751 1865 1978
8 1867 1760 1874 1979 1754 1646 1763 1868
8 1774 1658 1775 1887 1867 1760 1874 1979
8 1870 1766 1648 1756 1980 1877 1763 1868
8 1872 1762 1875 1981 1758 1645 1761 1869
8 1757 1649 1766 1870 1871 1765 1880 1982
8 1983 1879 1764 1873 1871 1765 1647 1759
8 1873 1764 1876 1984 1759 1647 1762 1872
8 1877 1773 1655 1763 1986 1881 1767 1874
8 1775 1659 1776 1888 1874 1767 1881 1986
8 1876 1769 1882 1987 1762 1652 1768 1875
8 1878 1770 1883 1988 1764 1653 1769 1876
8 1880 1772 1656 1766 1989 1886 1773 1877
8 1878 1770 1653 1764 1990 1884 1771 1879
8 1765 1654 1772 1880 1879 1771 1885 1991
8 1778 1664 1779 1890 1887 1775 1888 1997
8 1998 1889 1776 1888 1891 1780 1665 1779
8 1893 1782 1891 2000 1781 1668 1779 1890
8 1894 1783 1892 2001 1782 1669 1780 1891
8 1784 1671 1785 1896 1893 1782 1894 2003
8 1897 1786 1895 2004 1785 1672 1783 1894
8 1790 1675 1789 1904 1896 1785 1897 2006
8 1901 1787 1898 2007 1789 1673 1786 1897
8 1903 1788 1900 2013 1789 1673 1787 1901
8 1792 1676 1791 1906 1903 1788 1902 2016
8 1907 1792 1903 2017 1795 1678 1789 1904
8 1906 1791 1677 1794 2019 1905 1793 1909
8 1907 1792 1678 1795 2020 1906 1794 1910
8 1797 1679 1796 1912 1909 1793 1908 2022
8 1798 1680 1797 1913 1910 1794 1909 2023
8 1800 1682 1799 1915 1912 1796 1911 2025
8 1801 1683 1800 1916 1913 1797 1912 2026
8 1803 1687 1804 1918 1915 1799 1914 2028
8 1802 1686 1803 1917 1916 1800 1915 2029
8 1805 1689 1806 1920 1917 1803 1918 2030
8 1806 1690 1807 1921 1918 1804 1919 2031
8 1808 1692 1809 1922 1920 1806 1921 2032
8 1939 1826 1924 2037 1829 1713 1811 1926
8 1926 1811 1925 2039 1813 1697 1812 1928
8 1944 1829 1926 2040 1828 1712 1813 1929
8 1928 1812 1927 2042 1815 1698 1814 1931
8 1929 1813 1928 2043 1816 1699 1815 1932
8 1931 1814 1930 2044 1818 1700 1817 1933
8 1932 1815 1931 2045 1819 1701 1818 1934
8 1934 1818 1933 2046 1821 1704 1820 1935
8 2048 1936 1823 1937 1977 1864 1750 1865
8 1950 1833 1715 1834 2048 1936 1823 1937
8 1938 1824 1751 1866 2049 1937 1865 1978
8 1835 1716 1824 1938 1951 1834 1937 2049
8 1939 1826 1713 1829 2053 1942 1831 1946
8 1940 1827 1923 2035 2053 1942 1826 1939
8 1945 1830 1946 2058 1828 1712 1829 1944
8 2059 1947 1830 1945 1966 1849 1733 1851
8 1947 1832 1730 1849 2060 1948 1848 1965
8 1947 1832 1948 2060 1830 1714 1831 1946
8 1959 1847 1729 1843 2063 1949 1833 1950
8 1952 1843 1725 1836 2064 1950 1834 1951
8 1836 1725 1843 1952 1953 1842 1958 2066
8 1953 1842 1957 2067 1839 1724 1841 1955
8 1841 1955 1838 1723 1956 2068 1954 1840
8 2068 1956 1859 1967 1954 1840 1743 1852
8 1956 1844 1960 2069 1859 1747 1862 1973
8 1845 1957 1841 1727 1960 2069 1956 1844
8 1728 1842 1957 1845 1846 1958 2071 1961
8 1962 2072 1959 1847 1846 1958 1843 1729
8 1971 1861 1964 2077 1857 1746 1848 1965
8 1854 1741 1857 1969 1966 1849 1965 2078
8 1967 1859 1973 2079 1853 1745 1860 1968
8 1970 1858 1744 1856 2080 1972 1860 1968
8 1969 1857 1742 1855 2081 1971 1858 1970
8 1971 1861 1749 1858 2082 1974 1863 1972
8 1973 1862 1975 2083 1860 1748 1863 1972
8 1987 1882 1976 2086 1875 1768 1864 1977
8 1981 1875 1977 2087 1869 1761 1865 1978
8 1980 1877 1763 1868 2088 1986 1874 1979
8 1887 1775 1888 1997 1979 1874 1986 2088
8 1880 1982 2089 1989 1766 1870 1980 1877
8 1984 1876 1987 2090 1872 1762 1875 1981
8 1765 1871 1983 1879 1880 1982 2091 1991
8 1985 1878 1764 1873 2092 1990 1879 1983
8 1985 1878 1988 2093 1873 1764 1876 1984
8 2094 1992 1881 1986 1998 1889 1776 1888
8 1986 1881 1992 2094 1877 1773 1886 1989
8 1988 1883 1993 2095 1876 1769 1882 1987
8 1878 1770 1884 1990 1988 1883 1994 2096
8 1991 1885 1772 1880 2097 1996 1886 1989
8 1879 1771 1885 1991 1990 1884 1995 2098
8 2103 1998 1888 1997 2000 1891 1779 1890
8 2104 1999 1889 1998 2001 1892 1780 1891
8 2003 1894 2001 2106 1893 1782 1891 2000
8 2004 1895 2002 2107 1894 1783 1892 2001
8 2006 1897 2004 2109 1896 1785 1894 2003
8 2007 1898 2005 2110 1897 1786 1895 2004
8 2014 1901 2007 2112 1904 1789 1897 2006
8 2011 1899 2008 2113 1901 1787 1898 2007
8 2119 2010 1899 2011 2013 1900 1787 1901
8 2016 1902 2012 2122 1903 1788 1900 2013
8 2017 1903 2013 2123 1904 1789 1901 2014
8 1906 1791 1905 2019 2016 1902 2015 2125
8 1907 1792 1906 2020 2017 1903 2016 2126
8 1909 1793 1908 2022 2019 1905 2018 2128
8 2020 1906 1794 1910 2129 2019 1909 2023
8 1912 1796 1911 2025 2022 1908 2021 2131
8 1913 1797 1912 2026 2023 1909 2022 2132
8 1915 1799 1914 2028 2025 1911 2024 2134
8 1916 1800 1915 2029 2026 1912 2025 2135
8 1918 1804 1919 2031 2028 1914 2027 2136
8 1917 1803 1918 2030 2029 1915 2028 2137
8 1920 1806 1921 2032 2030 1918 2031 2138
8 1940 1827 1941 2054 2035 1923 2033 2140
8 2035 1923 2034 2143 1939 1826 1924 2037
8 2037 1924 2036 2146 1926 1811 1925 2039
8 2051 1939 2037 2147 1944 1829 1926 2040
8 2039 1925 2038 2149 1928 1812 1927 2042
8 2040 1926 2039 2150 1929 1813 1928 2043
8 2042 1927 2041 2151 1931 1814 1930 2044
8 2043 1928 2042 2152 1932 1815 1931 2045
8 2045 1931 2044 2153 1934 1818 1933 2046
8 2155 2047 1936 2048 2086 1976 1864 1977
8 2063 1949 1833 1950 2155 2047 1936 2048
8 2156 2048 1937 2049 2087 1977 1865 1978
8 2064 1950 1834 1951 2156 2048 1937 2049
8 2051 1939 1829 1944 2160 2053 1946 2058
8 2052 1940 2035 2144 2160 2053 1939 2051
8 2053 1942 1831 1946 2163 2057 1948 2060
8 2055 1943 1827 1940 2163 2057 1942 2053
8 2055 1943 2056 2164 1940 1827 1941 2054
8 2059 1947 1849 1966 2167 2060 1965 2078
8 2059 1947 2060 2167 1945 1830 1946 2058
8 2077 1964 2061 2168 1965 1848 1948 2060
8 2070 1963 1847 1959 2170 2062 1949 2063
8 2065 1959 1843 1952 2171 2063 1950 2064
8 2173 2072 1958 2066 2065 1959 1843 1952
8 1953 1842 1958 2066 2067 1957 2071 2174
8 2068 1956 2069 2175 1967 1859 1973 2079
8 2067 1957 2069 2175 1955 1841 1956 2068
8 1845 1957 2069 1960 1961 2071 2176 2073
8 2069 1960 2073 2176 1973 1862 1975 2083
8 2070 1963 2075 2177 1959 1847 1962 2072
8 1846 1958 2071 1961 1962 2072 2178 2074
8 2077 1964 1861 1971 2182 2076 1974 2082
8 2081 1971 2077 2183 1969 1857 1965 2078
8 2079 1973 2083 2184 1968 1860 1972 2080
8 2081 1971 1858 1970 2185 2082 1972 2080
8 2083 1975 2084 2186 1972 1863 1974 2082
8 2086 1976 1882 1987 2189 2085 1993 2095
8 2090 1987 2086 2190 1981 1875 1977 2087
8 2191 2094 1986 2088 2103 1998 1888 1997
8 2088 1986 2094 2191 1980 1877 1989 2089
8 1991 2091 2192 2097 1880 1982 2089 1989
8 2093 1988 2095 2193 1984 1876 1987 2090
8 1879 1983 2092 1990 1991 2091 2194 2098
8 1985 1878 1990 2092 2093 1988 2096 2195
8 2097 1996 1886 1989 2196 2099 1992 2094
8 2196 2099 1992 2094 2104 1999 1889 1998
8 1994 2096 1988 1883 2100 2197 2095 1993
8 2096 1994 1884 1990 2198 2101 1995 2098
8 1995 2098 2199 2102 1885 1991 2097 1996
8 2203 2104 1998 2103 2106 2001 1891 2000
8 2107 2002 2105 2204 2001 1892 1999 2104
8 2109 2004 2107 2206 2003 1894 2001 2106
8 2110 2005 2108 2207 2004 1895 2002 2107
8 2112 2007 2110 2209 2006 1897 2004 2109
8 2113 2008 2111 2210 2007 1898 2005 2110
8 2120 2011 2113 2212 2014 1901 2007 2112
8 2117 2009 2114 2213 2011 1899 2008 2113
8 2219 2116 2009 2117 2119 2010 1899 2011
8 2222 2118 2010 2119 2122 2012 1900 2013
8 2223 2119 2011 2120 2123 2013 1901 2014
8 2016 1902 2015 2125 2122 2012 2121 2225
8 2126 2016 2122 2226 2017 1903 2013 2123
8 2019 1905 2018 2128 2125 2015 2124 2228
8 2020 1906 2019 2129 2126 2016 2125 2229
8 2022 1908 2021 2131 2128 2018 2127 2231
8 2023 1909 2022 2132 2129 2019 2128 2232
8 2025 1911 2024 2134 2131 2021 2130 2234
8 2026 1912 2025 2135 2132 2022 2131 2235
8 1914 2028 2134 2024 2027 2136 2236 2133
8 2029 1915 2028 2137 2135 2025 2134 2237
8 2030 1918 2031 2138 2137 2028 2136 2238
8 2157 2050 2139 2240 2054 1941 2033 2140
8 2052 1940 2054 2161 2144 2035 2140 2242
8 2140 2033 2141 2243 2035 1923 2034 2143
8 2143 2034 2142 2246 2037 1924 2036 2146
8 2144 2035 2143 2247 2051 1939 2037 2147
8 2146 2036 2145 2249 2039 1925 2038 2149
8 2147 2037 2146 2250 2040 1926 2039 2150
8 2149 2038 2148 2251 2042 1927 2041 2151
8 2150 2039 2149 2252 2043 1928 2042 2152
8 2152 2042 2151 2253 2045 1931 2044 2153
8 2255 2154 2047 2155 2189 2085 1976 2086
8 2170 2062 1949 2063 2255 2154 2047 2155
8 2256 2155 2048 2156 2190 2086 1977 2087
8 2171 2063 1950 2064 2256 2155 2048 2156
8 2258 2159 2050 2157 2164 2056 1941 2054
8 2160 2053 1946 2058 2262 2163 2060 2167
8 2162 2055 1940 2052 2262 2163 2053 2160
8 2162 2055 2164 2263 2052 1940 2054 2161
8 2163 2057 1948 2060 2264 2165 2061 2168
8 2055 1943 2057 2163 2164 2056 2165 2264
8 2182 2076 2166 2268 2077 1964 2061 2168
8 2183 2077 2168 2269 2078 1965 2060 2167
8 2070 1963 2062 2170 2177 2075 2169 2271
8 2172 2070 1959 2065 2272 2170 2063 2171
8 2172 2070 2177 2273 2065 1959 2072 2173
8 2066 1958 2072 2173 2174 2071 2178 2274
8 2067 1957 2071 2174 2175 2069 2176 2275
8 2175 2069 2176 2275 2079 1973 2083 2184
8 2071 1961 2074 2178 2176 2073 2179 2276
8 2176 2073 2179 2276 2083 1975 2084 2186
8 2072 1962 2075 2177 2178 2074 2180 2277
8 2182 2076 1974 2082 2280 2181 2084 2186
8 2183 2077 1971 2081 2281 2182 2082 2185
8 2184 2083 2186 2282 2080 1972 2082 2185
8 2189 2085 1993 2095 2285 2188 2100 2197
8 2190 2086 1987 2090 2286 2189 2095 2193
8 2192 2097 1989 2089 2287 2196 2094 2191
8 2287 2196 2094 2191 2203 2104 1998 2103
8 2194 2098 1991 2091 2288 2199 2097 2192
8 2195 2096 2197 2289 2093 1988 2095 2193
8 2096 2195 2290 2198 1990 2092 2194 2098
8 2097 1996 2099 2196 2199 2102 2200 2291
8 2196 2099 1999 2104 2291 2200 2105 2204
8 2100 2197 2292 2201 1994 2096 2198 2101
8 1995 2098 2198 2101 2102 2199 2293 2202
8 2206 2107 2204 2296 2106 2001 2104 2203
8 2207 2108 2205 2297 2107 2002 2105 2204
8 2209 2110 2207 2299 2109 2004 2107 2206
8 2210 2111 2208 2300 2110 2005 2108 2207
8 2212 2113 2210 2302 2112 2007 2110 2209
8 2213 2114 2211 2303 2113 2008 2111 2210
8 2220 2117 2213 2305 2120 2011 2113 2212
8 2216 2115 2214 2306 2117 2009 2114 2213
8 2216 2115 2009 2117 2311 2217 2116 2219
8 2219 2116 2010 2119 2314 2218 2118 2222
8 2315 2219 2117 2220 2223 2119 2011 2120
8 2122 2012 2121 2225 2222 2118 2221 2317
8 2318 2222 2119 2223 2226 2122 2013 2123
8 2125 2015 2124 2228 2225 2121 2224 2320
8 2126 2016 2125 2229 2226 2122 2225 2321
8 2128 2018 2127 2231 2228 2124 2227 2323
8 2129 2019 2128 2232 2229 2125 2228 2324
8 2131 2021 2130 2234 2231 2127 2230 2326
8 2132 2022 2131 2235 2232 2128 2231 2327
8 2134 2024 2133 2236 2234 2130 2233 2328
8 2135 2025 2134 2237 2235 2131 2234 2329
8 2137 2028 2136 2238 2237 2134 2236 2330
8 2157 2050 2158 2259 2240 2139 2239 2332
8 2257 2157 2240 2334 2161 2054 2140 2242
8 2240 2139 2241 2335 2140 2033 2141 2243
8 2242 2140 2243 2337 2144 2035 2143 2247
8 2243 2141 2244 2338 2143 2034 2142 2246
8 2246 2142 2245 2341 2146 2036 2145 2249
8 2247 2143 2246 2342 2147 2037 2146 2250
8 2249 2145 2248 2343 2149 2038 2148 2251
8 2250 2146 2249 2344 2150 2039 2149 2252
8 2252 2149 2251 2345 2152 2042 2151 2253
8 2169 2271 2347 2254 2062 2170 2255 2154
8 2189 2085 2188 2285 2255 2154 2254 2347
8 2348 2255 2155 2256 2286 2189 2086 2190
8 2272 2170 2063 2171 2348 2255 2155 2256
8 2349 2258 2157 2257 2263 2164 2054 2161
8 2258 2159 2261 2351 2157 2050 2158 2259
8 2258 2159 2056 2164 2351 2261 2165 2264
8 2262 2163 2060 2167 2355 2264 2168 2269
8 2162 2055 2163 2262 2263 2164 2264 2355
8 2357 2266 2165 2264 2268 2166 2061 2168
8 2268 2166 2076 2182 2361 2267 2181 2280
8 2281 2182 2268 2362 2183 2077 2168 2269
8 2271 2169 2270 2364 2177 2075 2180 2277
8 2172 2070 2170 2272 2273 2177 2271 2365
8 2072 2173 2274 2178 2177 2273 2366 2277
8 2071 2174 2275 2176 2178 2274 2367 2276
8 2275 2176 2276 2367 2184 2083 2186 2282
8 2283 2187 2084 2186 2368 2278 2179 2276
8 2178 2074 2180 2277 2276 2179 2278 2368
8 2283 2187 2279 2370 2186 2084 2181 2280
8 2281 2182 2082 2185 2371 2280 2186 2282
8 2188 2285 2374 2284 2100 2197 2292 2201
8 2286 2189 2095 2193 2375 2285 2197 2289
8 2192 2097 2196 2287 2288 2199 2291 2376
8 2287 2196 2104 2203 2376 2291 2204 2296
8 2194 2098 2199 2288 2290 2198 2293 2377
8 2289 2197 2096 2195 2378 2292 2198 2290
8 2291 2200 2105 2204 2379 2294 2205 2297
8 2199 2102 2200 2291 2293 2202 2294 2379
8 2198 2101 2202 2293 2292 2201 2295 2380
8 2299 2207 2297 2383 2206 2107 2204 2296
8 2300 2208 2298 2384 2207 2108 2205 2297
8 2302 2210 2300 2386 2209 2110 2207 2299
8 2303 2211 2301 2387 2210 2111 2208 2300
8 2305 2213 2303 2389 2212 2113 2210 2302
8 2306 2214 2304 2390 2213 2114 2211 2303
8 2310 2216 2306 2392 2220 2117 2213 2305
8 2308 2215 2307 2393 2216 2115 2214 2306
8 2308 2215 2115 2216 2396 2309 2217 2311
8 2310 2216 2117 2220 2398 2311 2219 2315
8 2311 2217 2116 2219 2399 2312 2218 2314
8 2314 2218 2118 2222 2402 2313 2221 2317
8 2315 2219 2119 2223 2403 2314 2222 2318
8 2225 2121 2224 2320 2317 2221 2316 2405
8 2226 2122 2225 2321 2318 2222 2317 2406
8 2228 2124 2227 2323 2320 2224 2319 2408
8 2229 2125 2228 2324 2321 2225 2320 2409
8 2231 2127 2230 2326 2323 2227 2322 2411
8 2232 2128 2231 2327 2324 2228 2323 2412
8 2234 2130 2233 2328 2326 2230 2325 2413
8 2235 2131 2234 2329 2327 2231 2326 2414
8 2237 2134 2236 2330 2329 2234 2328 2415
8 2259 2158 2260 2352 2332 2239 2331 2417
8 2257 2157 2259 2350 2334 2240 2332 2419
8 2240 2139 2239 2332 2335 2241 2333 2420
8 2334 2240 2335 2422 2242 2140 2243 2337
8 2335 2241 2336 2423 2243 2141 2244 2338
8 2337 2243 2338 2425 2247 2143 2246 2342
8 2338 2244 2339 2426 2246 2142 2245 2341
8 2341 2245 2340 2428 2249 2145 2248 2343
8 2342 2246 2341 2429 2250 2146 2249 2344
8 2344 2249 2343 2430 2252 2149 2251 2345
8 2188 2285 2347 2254 2284 2374 2432 2346
8 2347 2254 2346 2432 2271 2169 2270 2364
8 2365 2271 2170 2272 2433 2347 2255 2348
8 2286 2189 2285 2375 2348 2255 2347 2433
8 2349 2258 2351 2435 2257 2157 2259 2350
8 2349 2258 2164 2263 2435 2351 2264 2355
8 2259 2158 2261 2351 2352 2260 2354 2437
8 2356 2265 2354 2437 2264 2165 2261 2351
8 2441 2357 2264 2355 2362 2268 2168 2269
8 2356 2265 2165 2264 2442 2358 2266 2357
8 2443 2359 2266 2357 2361 2267 2166 2268
8 2370 2279 2360 2446 2280 2181 2267 2361
8 2362 2268 2182 2281 2447 2361 2280 2371
8 2180 2277 2368 2278 2270 2364 2449 2363
8 2271 2365 2273 2177 2364 2450 2366 2277
8 2372 2283 2186 2282 2451 2368 2276 2367
8 2178 2274 2367 2276 2277 2366 2451 2368
8 2283 2187 2278 2368 2370 2279 2369 2452
8 2372 2283 2370 2453 2282 2186 2280 2371
8 2284 2374 2455 2373 2201 2292 2380 2295
8 2375 2285 2197 2289 2456 2374 2292 2378
8 2376 2291 2204 2296 2457 2379 2297 2383
8 2288 2199 2291 2376 2377 2293 2379 2457
8 2198 2290 2378 2292 2293 2377 2458 2380
8 2293 2202 2294 2379 2380 2295 2381 2459
8 2384 2298 2381 2459 2297 2205 2294 2379
8 2386 2300 2384 2463 2299 2207 2297 2383
8 2387 2301 2385 2464 2300 2208 2298 2384
8 2389 2303 2387 2466 2302 2210 2300 2386
8 2390 2304 2388 2467 2303 2211 2301 2387
8 2392 2306 2390 2469 2305 2213 2303 2389
8 2393 2307 2391 2470 2306 2214 2304 2390
8 2395 2308 2393 2472 2310 2216 2306 2392
8 2308 2215 2309 2396 2393 2307 2394 2473
8 2395 2308 2216 2310 2475 2396 2311 2398
8 2396 2309 2217 2311 2476 2397 2312 2399
8 2398 2311 2219 2315 2478 2399 2314 2403
8 2399 2312 2218 2314 2479 2400 2313 2402
8 2317 2221 2316 2405 2402 2313 2401 2482
8 2403 2314 2222 2318 2483 2402 2317 2406
8 2320 2224 2319 2408 2405 2316 2404 2485
8 2321 2225 2320 2409 2406 2317 2405 2486
8 2323 2227 2322 2411 2408 2319 2407 2488
8 2324 2228 2323 2412 2409 2320 2408 2489
8 2326 2230 2325 2413 2411 2322 2410 2490
8 2327 2231 2326 2414 2412 2323 2411 2491
8 2329 2234 2328 2415 2414 2326 2413 2492
8 2417 2331 2260 2352 2494 2416 2353 2438
8 2350 2259 2352 2436 2419 2332 2417 2496
8 2332 2239 2331 2417 2420 2333 2418 2497
8 2334 2240 2332 2419 2422 2335 2420 2499
8 2420 2333 2421 2500 2335 2241 2336 2423
8 2422 2335 2423 2502 2337 2243 2338 2425
8 2423 2336 2424 2503 2338 2244 2339 2426
8 2425 2338 2426 2505 2342 2246 2341 2429
8 2426 2339 2427 2506 2341 2245 2340 2428
8 2429 2341 2428 2507 2344 2249 2343 2430
8 2432 2346 2284 2374 2509 2431 2373 2455
8 2432 2346 2431 2509 2364 2270 2363 2449
8 2375 2285 2374 2456 2433 2347 2432 2510
8 2347 2433 2365 2271 2432 2510 2450 2364
8 2350 2259 2351 2435 2436 2352 2437 2514
8 2440 2356 2437 2514 2355 2264 2351 2435
8 2352 2260 2354 2437 2438 2353 2439 2516
8 2356 2265 2358 2442 2437 2354 2439 2516
8 2440 2356 2264 2355 2518 2442 2357 2441
8 2519 2443 2357 2441 2447 2361 2268 2362
8 2443 2359 2444 2520 2357 2266 2358 2442
8 2443 2359 2267 2361 2520 2444 2360 2446
8 2446 2360 2279 2370 2523 2445 2369 2452
8 2453 2370 2446 2524 2371 2280 2361 2447
8 2449 2363 2448 2525 2368 2278 2369 2452
8 2366 2277 2364 2450 2451 2368 2449 2526
8 2372 2283 2368 2451 2453 2370 2452 2527
8 2455 2373 2295 2380 2529 2454 2382 2460
8 2456 2374 2292 2378 2530 2455 2380 2458
8 2377 2293 2379 2457 2458 2380 2459 2531
8 2463 2384 2459 2531 2383 2297 2379 2457
8 2533 2461 2382 2460 2459 2381 2295 2380
8 2464 2385 2461 2533 2384 2298 2381 2459
8 2466 2387 2464 2537 2386 2300 2384 2463
8 2467 2388 2465 2538 2387 2301 2385 2464
8 2469 2390 2467 2540 2389 2303 2387 2466
8 2470 2391 2468 2541 2390 2304 2388 2467
8 2472 2393 2470 2543 2392 2306 2390 2469
8 2393 2307 2394 2473 2470 2391 2471 2544
8 2395 2308 2396 2475 2472 2393 2473 2546
8 2396 2309 2397 2476 2473 2394 2474 2547
8 2475 2396 2311 2398 2549 2476 2399 2478
8 2476 2397 2312 2399 2550 2477 2400 2479
8 2478 2399 2314 2403 2552 2479 2402 2483
8 2479 2400 2313 2402 2553 2480 2401 2482
8 2405 2316 2404 2485 2482 2401 2481 2556
8 2406 2317 2405 2486 2483 2402 2482 2557
8 2408 2319 2407 2488 2485 2404 2484 2559
8 2409 2320 2408 2489 2486 2405 2485 2560
8 2411 2322 2410 2490 2488 2407 2487 2561
8 2412 2323 2411 2491 2489 2408 2488 2562
8 2414 2326 2413 2492 2491 2411 2490 2563
8 2513 2434 2493 2565 2438 2353 2416 2494
8 2496 2417 2352 2436 2567 2494 2438 2515
8 2494 2416 2495 2568 2417 2331 2418 2497
8 2419 2332 2417 2496 2499 2420 2497 2570
8 2497 2418 2498 2571 2420 2333 2421 2500
8 2499 2420 2500 2573 2422 2335 2423 2502
8 2500 2421 2501 2574 2423 2336 2424 2503
8 2502 2423 2503 2576 2425 2338 2426 2505
8 2503 2424 2504 2577 2426 2339 2427 2506
8 2505 2426 2506 2578 2429 2341 2428 2507
8 2509 2431 2373 2455 2580 2508 2454 2529
8 2509 2431 2508 2580 2449 2363 2448 2525
8 2432 2510 2581 2509 2374 2456 2530 2455
8 2432 2510 2450 2364 2509 2581 2526 2449
8 2583 2511 2434 2513 2516 2439 2353 2438
8 2436 2352 2437 2514 2515 2438 2516 2588
8 2440 2356 2442 2518 2514 2437 2516 2588
8 2442 2358 2444 2520 2516 2439 2517 2589
8 2519 2443 2520 2591 2441 2357 2442 2518
8 2519 2443 2361 2447 2591 2520 2446 2524
8 2446 2360 2445 2523 2520 2444 2521 2592
8 2525 2448 2522 2593 2452 2369 2445 2523
8 2524 2446 2370 2453 2594 2523 2452 2527
8 2526 2449 2525 2595 2451 2368 2452 2527
8 2534 2462 2528 2597 2460 2382 2454 2529
8 2530 2455 2380 2458 2598 2529 2460 2532
8 2599 2533 2460 2532 2531 2459 2380 2458
8 2537 2464 2533 2599 2463 2384 2459 2531
8 2534 2462 2382 2460 2601 2535 2461 2533
8 2538 2465 2535 2601 2464 2385 2461 2533
8 2540 2467 2538 2604 2466 2387 2464 2537
8 2541 2468 2539 2605 2467 2388 2465 2538
8 2543 2470 2541 2607 2469 2390 2467 2540
8 2470 2391 2471 2544 2541 2468 2542 2608
8 2472 2393 2473 2546 2543 2470 2544 2610
8 2473 2394 2474 2547 2544 2471 2545 2611
8 2475 2396 2476 2549 2546 2473 2547 2613
8 2476 2397 2477 2550 2547 2474 2548 2614
8 2549 2476 2399 2478 2616 2550 2479 2552
8 2479 2400 2480 2553 2550 2477 2551 2617
8 2552 2479 2402 2483 2619 2553 2482 2557
8 2482 2401 2481 2556 2553 2480 2554 2620
8 2485 2404 2484 2559 2556 2481 2555 2623
8 2486 2405 2485 2560 2557 2482 2556 2624
8 2488 2407 2487 2561 2559 2484 2558 2625
8 2489 2408 2488 2562 2560 2485 2559 2626
8 2491 2411 2490 2563 2562 2488 2561 2627
8 2513 2434 2512 2585 2565 2493 2564 2630
8 2586 2513 2565 2632 2515 2438 2494 2567
8 2565 2493 2566 2633 2494 2416 2495 2568
8 2567 2494 2568 2635 2496 2417 2497 2570
8 2568 2495 2569 2636 2497 2418 2498 2571
8 2570 2497 2571 2638 2499 2420 2500 2573
8 2571 2498 2572 2639 2500 2421 2501 2574
8 2573 2500 2574 2641 2502 2423 2503 2576
8 2574 2501 2575 2642 2503 2424 2504 2577
8 2576 2503 2577 2643 2505 2426 2506 2578
8 2597 2528 2579 2645 2529 2454 2508 2580
8 2580 2508 2579 2645 2525 2448 2522 2593
8 2581 2509 2455 2530 2646 2580 2529 2598
8 2581 2509 2580 2646 2526 2449 2525 2595
8 2583 2511 2582 2648 2513 2434 2512 2585
8 2583 2511 2439 2516 2648 2582 2517 2589
8 2649 2583 2513 2586 2588 2516 2438 2515
8 2589 2517 2444 2520 2653 2587 2521 2592
8 2518 2442 2520 2591 2588 2516 2589 2654
8 2593 2522 2590 2655 2523 2445 2521 2592
8 2524 2446 2523 2594 2591 2520 2592 2656
8 2595 2525 2593 2657 2527 2452 2523 2594
8 2602 2536 2596 2659 2534 2462 2528 2597
8 2600 2534 2597 2660 2532 2460 2529 2598
8 2600 2534 2460 2532 2661 2601 2533 2599
8 2604 2538 2601 2661 2537 2464 2533 2599
8 2602 2536 2462 2534 2663 2603 2535 2601
8 2601 2535 2465 2538 2663 2603 2539 2605
8 2607 2541 2605 2665 2540 2467 2538 2604
8 2608 2542 2606 2666 2541 2468 2539 2605
8 2543 2470 2544 2610 2607 2541 2608 2668
8 2544 2471 2545 2611 2608 2542 2609 2669
8 2546 2473 2547 2613 2610 2544 2611 2671
8 2547 2474 2548 2614 2611 2545 2612 2672
8 2549 2476 2550 2616 2613 2547 2614 2674
8 2550 2477 2551 2617 2614 2548 2615 2675
8 2552 2479 2553 2619 2616 2550 2617 2677
8 2553 2480 2554 2620 2617 2551 2618 2678
8 2557 2482 2556 2624 2619 2553 2620 2680
8 2556 2481 2555 2623 2620 2554 2621 2681
8 2559 2484 2558 2625 2623 2555 2622 2683
8 2560 2485 2559 2626 2624 2556 2623 2684
8 2562 2488 2561 2627 2626 2559 2625 2685
8 2690 2629 2564 2630 2650 2584 2512 2585
8 2586 2513 2585 2651 2632 2565 2630 2691
8 2630 2564 2631 2692 2565 2493 2566 2633
8 2632 2565 2633 2694 2567 2494 2568 2635
8 2633 2566 2634 2695 2568 2495 2569 2636
8 2635 2568 2636 2697 2570 2497 2571 2638
8 2636 2569 2637 2698 2571 2498 2572 2639
8 2638 2571 2639 2700 2573 2500 2574 2641
8 2639 2572 2640 2701 2574 2501 2575 2642
8 2641 2574 2642 2702 2576 2503 2577 2643
8 2597 2528 2596 2659 2645 2579 2644 2704
8 2645 2579 2644 2704 2593 2522 2590 2655
8 2660 2597 2645 2705 2598 2529 2580 2646
8 2646 2580 2645 2705 2595 2525 2593 2657
8 2650 2584 2512 2585 2707 2647 2582 2648
8 2648 2582 2517 2589 2707 2647 2587 2653
8 2649 2583 2648 2708 2586 2513 2585 2651
8 2649 2583 2516 2588 2708 2648 2589 2654
8 2655 2590 2652 2710 2592 2521 2587 2653
8 2654 2589 2520 2591 2711 2653 2592 2656
8 2657 2593 2655 2712 2594 2523 2592 2656
8 2602 2536 2603 2663 2659 2596 2658 2714
8 2662 2602 2659 2715 2600 2534 2597 2660
8 2662 2602 2534 2600 2717 2663 2601 2661
8 2661 2601 2538 2604 2717 2663 2605 2665
8 2666 2606 2664 2718 2605 2539 2603 2663
8 2668 2608 2666 2720 2607 2541 2605 2665
8 2608 2542 2609 2669 2666 2606 2667 2721
8 2610 2544 2611 2671 2668 2608 2669 2723
8 2611 2545 2612 2672 2669 2609 2670 2724
8 2613 2547 2614 2674 2671 2611 2672 2726
8 2614 2548 2615 2675 2672 2612 2673 2727
8 2616 2550 2617 2677 2674 2614 2675 2729
8 2617 2551 2618 2678 2675 2615 2676 2730
8 2619 2553 2620 2680 2677 2617 2678 2732
8 2620 2554 2621 2681 2678 2618 2679 2733
8 2624 2556 2623 2684 2680 2620 2681 2735
8 2681 2621 2555 2623 2736 2682 2622 2683
8 2626 2559 2625 2685 2684 2623 2683 2737
8 2688 2628 2584 2650 2740 2686 2647 2707
8 2688 2628 2687 2742 2650 2584 2629 2690
8 2690 2629 2689 2745 2630 2564 2631 2692
8 2746 2690 2630 2691 2709 2650 2585 2651
8 2691 2630 2692 2747 2632 2565 2633 2694
8 2692 2631 2693 2748 2633 2566 2634 2695
8 2694 2633 2695 2750 2635 2568 2636 2697
8 2695 2634 2696 2751 2636 2569 2637 2698
8 2697 2636 2698 2753 2638 2571 2639 2700
8 2698 2637 2699 2754 2639 2572 2640 2701
8 2700 2639 2701 2755 2641 2574 2642 2702
8 2659 2596 2658 2714 2704 2644 2703 2757
8 2704 2644 2703 2757 2655 2590 2652 2710
8 2660 2597 2659 2715 2705 2645 2704 2758
8 2705 2645 2704 2758 2657 2593 2655 2712
8 2759 2706 2647 2707 2710 2652 2587 2653
8 2709 2650 2585 2651 2760 2707 2648 2708
8 2708 2648 2589 2654 2760 2707 2653 2711
8 2712 2655 2710 2761 2656 2592 2653 2711
8 2763 2713 2658 2714 2718 2664 2603 2663
8 2662 2602 2663 2717 2715 2659 2714 2764
8 2720 2666 2718 2767 2665 2605 2663 2717
8 2768 2719 2664 2718 2721 2667 2606 2666
8 2668 2608 2669 2723 2720 2666 2721 2770
8 2669 2609 2670 2724 2721 2667 2722 2771
8 2671 2611 2672 2726 2723 2669 2724 2773
8 2672 2612 2673 2727 2724 2670 2725 2774
8 2674 2614 2675 2729 2726 2672 2727 2776
8 2675 2615 2676 2730 2727 2673 2728 2777
8 2677 2617 2678 2732 2729 2675 2730 2779
8 2678 2618 2679 2733 2730 2676 2731 2780
8 2680 2620 2681 2735 2732 2678 2733 2782
8 2733 2679 2621 2681 2783 2734 2682 2736
8 2735 2681 2623 2684 2784 2736 2683 2737
8 2740 2686 2647 2707 2787 2738 2706 2759
8 2688 2628 2686 2740 2742 2687 2739 2789
8 2743 2688 2650 2709 2790 2740 2707 2760
8 2742 2687 2741 2792 2690 2629 2689 2745
8 2743 2688 2742 2793 2709 2650 2690 2746
8 2745 2689 2744 2795 2692 2631 2693 2748
8 2746 2690 2745 2796 2691 2630 2692 2747
8 2747 2692 2748 2797 2694 2633 2695 2750
8 2748 2693 2749 2798 2695 2634 2696 2751
8 2750 2695 2751 2800 2697 2636 2698 2753
8 2751 2696 2752 2801 2698 2637 2699 2754
8 2753 2698 2754 2802 2700 2639 2701 2755
8 2763 2713 2756 2804 2714 2658 2703 2757
8 2759 2706 2652 2710 2804 2756 2703 2757
8 2715 2659 2714 2764 2758 2704 2757 2805
8 2758 2704 2757 2805 2712 2655 2710 2761
8 2806 2759 2707 2760 2761 2710 2653 2711
8 2765 2716 2762 2808 2718 2664 2713 2763
8 2809 2763 2714 2764 2767 2718 2663 2717
8 2765 2716 2664 2718 2811 2766 2719 2768
8 2813 2768 2718 2767 2770 2721 2666 2720
8 2814 2769 2719 2768 2771 2722 2667 2721
8 2723 2669 2724 2773 2770 2721 2771 2816
8 2724 2670 2725 2774 2771 2722 2772 2817
8 2726 2672 2727 2776 2773 2724 2774 2819
8 2727 2673 2728 2777 2774 2725 2775 2820
8 2729 2675 2730 2779 2776 2727 2777 2822
8 2730 2676 2731 2780 2777 2728 2778 2823
8 2732 2678 2733 2782 2779 2730 2780 2825
8 2780 2731 2679 2733 2826 2781 2734 2783
8 2782 2733 2681 2735 2827 2783 2736 2784
8 2830 2785 2738 2787 2804 2756 2706 2759
8 2789 2739 2686 2740 2832 2786 2738 2787
8 2790 2740 2707 2760 2833 2787 2759 2806
8 2742 2687 2739 2789 2792 2741 2788 2835
8 2743 2688 2740 2790 2793 2742 2789 2836
8 2792 2741 2791 2838 2745 2689 2744 2795
8 2793 2742 2792 2839 2746 2690 2745 2796
8 2795 2744 2794 2841 2748 2693 2749 2798
8 2796 2745 2795 2842 2747 2692 2748 2797
8 2797 2748 2798 2843 2750 2695 2751 2800
8 2798 2749 2799 2844 2751 2696 2752 2801
8 2800 2751 2801 2845 2753 2698 2754 2802
8 2808 2762 2803 2847 2763 2713 2756 2804
8 2809 2763 2804 2848 2764 2714 2757 2805
8 2806 2759 2710 2761 2848 2804 2757 2805
8 2765 2716 2766 2811 2808 2762 2807 2850
8 2810 2765 2808 2851 2767 2718 2763 2809
8 2810 2765 2718 2767 2852 2811 2768 2813
8 2811 2766 2719 2768 2853 2812 2769 2814
8 2855 2814 2768 2813 2816 2771 2721 2770
8 2856 2815 2769 2814 2817 2772 2722 2771
8 2773 2724 2774 2819 2816 2771 2817 2858
8 2774 2725 2775 2820 2817 2772 2818 2859
8 2776 2727 2777 2822 2819 2774 2820 2861
8 2777 2728 2778 2823 2820 2775 2821 2862
8 2779 2730 2780 2825 2822 2777 2823 2864
8 2823 2778 2731 2780 2865 2824 2781 2826
8 2825 2780 2733 2782 2866 2826 2783 2827
8 2869 2828 2785 2830 2847 2803 2756 2804
8 2871 2829 2786 2832 2830 2785 2738 2787
8 2872 2830 2787 2833 2848 2804 2759 2806
8 2789 2739 2786 2832 2835 2788 2831 2874
8 2836 2789 2740 2790 2875 2832 2787 2833
8 2792 2741 2788 2835 2838 2791 2834 2877
8 2793 2742 2789 2836 2839 2792 2835 2878
8 2838 2791 2837 2880 2795 2744 2794 2841
8 2839 2792 2838 2881 2796 2745 2795 2842
8 2841 2794 2840 2882 2798 2749 2799 2844
8 2842 2795 2841 2883 2797 2748 2798 2843
8 2843 2798 2844 2884 2800 2751 2801 2845
8 2886 2846 2803 2847 2850 2807 2762 2808
8 2851 2808 2847 2887 2809 2763 2804 2848
8 2850 2807 2766 2811 2889 2849 2812 2853
8 2810 2765 2811 2852 2851 2808 2850 2890
8 2852 2811 2768 2813 2891 2853 2814 2855
8 2853 2812 2769 2814 2892 2854 2815 2856
8 2894 2856 2814 2855 2858 2817 2771 2816
8 2817 2772 2818 2859 2856 2815 2857 2895
8 2819 2774 2820 2861 2858 2817 2859 2897
8 2820 2775 2821 2862 2859 2818 2860 2898
8 2822 2777 2823 2864 2861 2820 2862 2900
8 2823 2778 2824 2865 2862 2821 2863 2901
8 2864 2823 2780 2825 2902 2865 2826 2866
8 2904 2867 2828 2869 2886 2846 2803 2847
8 2869 2828 2868 2906 2830 2785 2829 2871
8 2907 2869 2830 2872 2887 2847 2804 2848
8 2871 2829 2870 2909 2832 2786 2831 2874
8 2910 2871 2832 2875 2872 2830 2787 2833
8 2835 2788 2831 2874 2877 2834 2873 2912
8 2836 2789 2832 2875 2878 2835 2874 2913
8 2877 2834 2876 2915 2838 2791 2837 2880
8 2839 2792 2835 2878 2881 2838 2877 2916
8 2880 2837 2879 2917 2841 2794 2840 2882
8 2881 2838 2880 2918 2842 2795 2841 2883
8 2883 2841 2882 2919 2843 2798 2844 2884
8 2921 2885 2846 2886 2889 2849 2807 2850
8 2922 2886 2847 2887 2890 2850 2808 2851
8 2889 2849 2812 2853 2924 2888 2854 2892
8 2890 2850 2811 2852 2925 2889 2853 2891
8 2891 2853 2814 2855 2926 2892 2856 2894
8 2892 2854 2815 2856 2927 2893 2857 2895
8 2858 2817 2859 2897 2894 2856 2895 2929
8 2859 2818 2860 2898 2895 2857 2896 2930
8 2861 2820 2862 2900 2897 2859 2898 2932
8 2862 2821 2863 2901 2898 2860 2899 2933
8 2864 2823 2865 2902 2900 2862 2901 2934
8 2904 2867 2846 2886 2936 2903 2885 2921
8 2904 2867 2903 2936 2869 2828 2868 2906
8 2937 2904 2869 2907 2922 2886 2847 2887
8 2906 2868 2905 2939 2871 2829 2870 2909
8 2907 2869 2906 2940 2872 2830 2871 2910
8 2909 2870 2908 2942 2874 2831 2873 2912
8 2910 2871 2909 2943 2875 2832 2874 2913
8 2912 2873 2911 2945 2877 2834 2876 2915
8 2878 2835 2874 2913 2916 2877 2912 2946
8 2915 2876 2914 2947 2880 2837 2879 2917
8 2916 2877 2915 2948 2881 2838 2880 2918
8 2918 2880 2917 2949 2883 2841 2882 2919
8 2921 2885 2849 2889 2951 2920 2888 2924
8 2952 2921 2886 2922 2925 2889 2850 2890
8 2924 2888 2854 2892 2954 2923 2893 2927
8 2925 2889 2853 2891 2955 2924 2892 2926
8 2926 2892 2856 2894 2956 2927 2895 2929
8 2895 2857 2896 2930 2927 2893 2928 2957
8 2897 2859 2898 2932 2929 2895 2930 2959
8 2898 2860 2899 2933 2930 2896 2931 2960
8 2900 2862 2901 2934 2932 2898 2933 2961
8 2936 2903 2885 2921 2963 2935 2920 2951
8 2936 2903 2935 2963 2906 2868 2905 2939
8 2937 2904 2886 2922 2964 2936 2921 2952
8 2937 2904 2936 2964 2907 2869 2906 2940
8 2939 2905 2938 2966 2909 2870 2908 2942
8 2940 2906 2939 2967 2910 2871 2909 2943
8 2942 2908 2941 2969 2912 2873 2911 2945
8 2943 2909 2942 2970 2913 2874 2912 2946
8 2945 2911 2944 2971 2915 2876 2914 2947
8 2946 2912 2945 2972 2916 2877 2915 2948
8 2948 2915 2947 2973 2918 2880 2917 2949
8 2951 2920 2888 2924 2975 2950 2923 2954
8 2952 2921 2889 2925 2976 2951 2924 2955
8 2927 2893 2928 2957 2954 2923 2953 2978
8 2955 2924 2892 2926 2979 2954 2927 2956
8 2929 2895 2930 2959 2956 2927 2957 2980
8 2930 2896 2931 2960 2957 2928 2958 2981
8 2932 2898 2933 2961 2959 2930 2960 2982
8 2951 2920 2950 2975 2963 2935 2962 2984
8 2963 2935 2962 2984 2939 2905 2938 2966
8 2964 2936 2921 2952 2985 2963 2951 2976
8 2964 2936 2963 2985 2940 2906 2939 2967
8 2966 2938 2965 2987 2942 2908 2941 2969
8 2967 2939 2966 2988 2943 2909 2942 2970
8 2969 2941 2968 2989 2945 2911 2944 2971
8 2970 2942 2969 2990 2946 2912 2945 2972
8 2972 2945 2971 2991 2948 2915 2947 2973
8 2954 2923 2953 2978 2975 2950 2974 2993
8 2976 2951 2924 2955 2994 2975 2954 2979
8 2957 2928 2958 2981 2978 2953 2977 2995
8 2956 2927 2957 2980 2979 2954 2978 2996
8 2959 2930 2960 2982 2980 2957 2981 2997
8 2984 2962 2983 2999 2966 2938 2965 2987
8 2975 2950 2974 2993 2984 2962 2983 2999
8 2976 2951 2975 2994 2985 2963 2984 3000
8 2985 2963 2984 3000 2967 2939 2966 2988
8 2987 2965 2986 3001 2969 2941 2968 2989
8 2988 2966 2987 3002 2970 2942 2969 2990
8 2990 2969 2989 3003 2972 2945 2971 2991
8 2978 2953 2977 2995 2993 2974 2992 3004
8 2979 2954 2978 2996 2994 2975 2993 3005
8 2980 2957 2981 2997 2996 2978 2995 3006
8 2974 2993 2999 2983 2992 3004 3007 2998
8 2983 2999 2987 2965 2998 3007 3001 2986
8 3000 2984 2999 3008 2988 2966 2987 3002
8 2994 2975 2993 3005 3000 2984 2999 3008
8 3002 2987 3001 3009 2990 2969 2989 3003
8 2996 2978 2995 3006 3005 2993 3004 3010
8 3005 2993 3004 3010 3008 2999 3007 3011
8 3008 2999 3007 3011 3002 2987 3001 3009

CELL_TYPES 1910
12
12
12
12
12
12
12
12
12
12
12
12
12
12
12
12
12
12
12
12
12
12
12
12
12
12
12
12
12
12
12
12
12
12
12
12
12
12
12
12
12
12
12
12
12
12
12
12
12
12
12
12
12
12
12
12
12
12
12
12
12
12
12
12
12
12
12
12
12
12
12
12
12
12
12
12
12
12
12
12
12
12
12
12
12
12
12
12
12
12
12
12
12
12
12
12
12
12
12
12
12
12
12
12
12
12
12
12
12
12
12
12
12
12
12
12
12
12
12
12
12
12
12
12
12
12
12
12
12
12
12
12
12
12
12
12
12
12
12
12
12
12
12
12
12
12
12
12
12
12
12
12
12
12
12
12
12
12
12
12
12
12
12
12
12
12
12
12
12
12
12
12
12
12
12
12
12
12
12
12
12
12
12
12
12
12
12
12
12
12
12
12
12
12
12
12
12
12
12
12
12
12
12
12
12
12
12
12
12
12
12
12
12
12
12
12
12
12
12
12
12
12
12
12
12
12
12
12
12
12
12
12
12
12
12
12
12
12
12
12
12
12
12
12
12
12
12
12
12
12
12
12
12
12
12
12
12
12
12
12
12
12
12
12
12
12
12
12
12
12
12
12
12
12
12
12
12
12
12
12
12
12
12
12
12
12
12
12
12
12
12
12
12
12
12
12
12
12
12
12
12
12
12
12
12
12
12
12
12
12
12
12
12
12
12
12
12
12
12
12
12
12
12
12
12
12
12
12
12
12
12
12
12
12
12
12
12
12
12
12
12
12
12
12
12
12
12
12
12
12
12
12
12
12
12
12
12
12
12
12
12
12
12
12
12
12
12
12
12
12
12
12
12
12
12
12
12
12
12
12
12
12
12
12
12
12
12
12
12
12
12
12
12
12
12
12
12
12
12
12
12
12
12
12
12
12
12
12
12
12
12
12
12
12
12
12
12
12
12
12
12
12
12
12
12
12
12
12
12
12
12
12
12
12
12
12
12
12
12
12
12
12
12
12
12
12
12
12
12
12
12
12
12
12
12
12
12
12
12
12
12
12
12
12
12
12
12
12
12
12
12
12
12
12
12
12
12
12
12
12
12
12
12
12
12
12
12
12
12
12
12
12
12
12
12
12
12
12
12
12
12
12
12
12
12
12
12
12
12
12
12
12
12
12
12
12
12
12
12
12
12
12
12
12
12
12
12
12
12
12
12
12
12
12
12
12
12
12
12
12
12
12
12
12
12
12
12
12
12
12
12
12
12
12
12
12
12
12
12
12
12
12
12
12
12
12
12
12
12
12
12
12
12
12
12
12
12
12
12
12
12
12
12
12
12
12
12
12
12
12
12
12
12
12
12
12
12
12
12
12
12
12
12
12
12
12
12
12
12
12
12
12
12
12
12
12
12
12
12
12
12
12
12
12
12
12
12
12
12
12
12
12
12
12
12
12
12
12
12
12
12
12
12
12
12
12
12
12
12
12
12
12
12
12
12
12
12
12
12
12
12
12
12
12
12
12
12
12
12
12
12
12
12
12
12
12
12
12
12
12
12
12
12
12
12
12
12
12
12
12
12
12
12
12
12
12
12
12
12
12
12
12
12
12
12
12
12
12
12
12
12
12
12
12
12
12
12
12
12
12
12
12
12
12
12
12
12
12
12
12
12
12
12
12
12
12
12
12
12
12
12
12
12
12
12
12
12
12
12
12
12
12
12
12
12
12
12
12
12
12
12
12
12
12
12
12
12
12
12
12
12
12
12
12
12
12
12
12
12
12
12
12
12
12
12
12
12
12
12
12
12
12
12
12
12
12
12
12
12
12
12
12
12
12
12
12
12
12
12
12
12
12
12
12
12
12
12
12
12
12
12
12
12
12
12
12
12
12
12
12
12
12
12
12
12
12
12
12
12
12
12
12
12
12
12
12
12
12
12
12
12
12
12
12
12
12
12
12
12
12
12
12
12
12
12
12
12
12
12
12
12
12
12
12
12
12
12
12
12
12
12
12
12
12
12
12
12
12
12
12
12
12
12
12
12
12
12
12
12
12
12
12
12
12
12
12
12
12
12
12
12
12
12
12
12
12
12
12
12
12
12
12
12
12
12
12
12
12
12
12
12
12
12
12
12
12
12
12
12
12
12
12
12
12
12
12
12
12
12
12
12
12
12
12
12
12
12
12
12
12
12
12
12
12
12
12
12
12
12
12
12
12
12
12
12
12
12
12
12
12
12
12
12
12
12
12
12
12
12
12
12
12
12
12
12
12
12
12
12
12
12
12
12
12
12
12
12
12
12
12
12
12
12
12
12
12
12
12
12
12
12
12
12
12
12
12
12
12
12
12
12
12
12
12
12
12
12
12
12
12
12
12
12
12
12
12
12
12
12
12
12
12
12
12
12
12
12
12
12
12
12
12
12
12
12
12
12
12
12
12
12
12
12
12
12
12
12
12
12
12
12
12
12
12
12
12
12
12
12
12
12
12
12
12
12
12
12
12
12
12
12
12
12
12
12
12
12
12
12
12
12
12
12
12
12
12
12
12
12
12
12
12
12
12
12
12
12
12
12
12
12
12
12
12
12
12
12
12
12
12
12
12
12
12
12
12
12
12
12
12
12
12
12
12
12
12
12
12
12
12
12
12
12
12
12
12
12
12
12
12
12
12
12
12
12
12
12
12
12
12
12
12
12
12
12
12
12
12
12
12
12
12
12
12
12
12
12
12
12
12
12
12
12
12
12
12
12
12
12
12
12
12
12
12
12
12
12
12
12
12
12
12
12
12
12
12
12
12
12
12
12
12
12
12
12
12
12
12
12
12
12
12
12
12
12
12
12
12
12
12
12
12
12
12
12
12
12
12
12
12
12
12
12
12
12
12
12
12
12
12
12
12
12
12
12
12
12
12
12
12
12
12
12
12
12
12
12
12
12
12
12
12
12
12
12
12
12
12
12
12
12
12
12
12
12
12
12
12
12
12
12
12
12
12
12
12
12
12
12
12
12
12
12
12
12
12
12
12
12
12
12
12
12
12
12
12
12
12
12
12
12
12
12
12
12
12
12
12
12
12
12
12
12
12
12
12
12
12
12
12
12
12
12
12
12
12
12
12
12
12
12
12
12
12
12
12
12
12
12
12
12
12
12
12
12
12
12
12
12
12
12
12
12
12
12
12
12
12
12
12
12
12
12
12
12
12
12
12
12
12
12
12
12
12
12
12
12
12
12
12
12
12
12
12
12
12
12
12
12
12
12
12
12
12
12
12
12
12
12
12
12
12
12
12
12
12
12
12
12
12
12
12
12
12
12
12
12
12
12
12
12
12
12
12
12
12
12
12
12
12
12
12
12
12
12
12
12
12
12
12
12
12
12
12
12
12
12
12
12
12
12
12
12
12
12
12
12
12
12
12
12
12
12
12
12
12
12
12
12
12
12
12
12
12
12
12
12
12
12
12
12
12
12
12
12
12
12
12
12
12
12
12
12
12
12
12
12
12
12
12
12
12
12
12
12
12
12
12
12
12
12
12
12
12
12
12
12
12
12
12
12
12
12
12
12
12
12
12
12
12
12
12
12
12
12
12
12
12
12
12
12
12
12
12
12
12
12
12
12
12
12
12
12
12
12
12
12
12
12
12
12
12
12
12
12
12
12
12
12
12
12
12
12
12
12
12
12
12
12
12
12
12
12
12
12
12
12
12
12
12
12
12
12
12
12
12
12
12
12
12
12
12
12
12
12
12
12
12
12
12
12
12
12
12
12
12
12
12
12
12
12
12
12
12
12
12
12
12
12
12
12
12
12
12
12
12
12
12
12
12
12
12
12
12
12
12
12
12
12
12
12
12
12
12
12
12
12
12
12
12
12
12
12
12
12
12
12
12
12
12
12
12
12
12
12
12
12
12
12
12
12
12
12
12
12
12
12
12
12
12
12
12
12
12
12
12
12
12
12
12
12
12
12
12
12
12
12
12
12
12
12
12
12
12
12
12
12
12
12
12
12
12
12
12
12
12
12
12
12
12
12
12
12
12
12
12
12
12
12
12
12
12
12
12
12
12
12
12
12
12
12
12
12
12
12
12
12
12
12
12
12
12
12
12
12
12
12
12
12
12
12
12
12
12
12
12
12
12
12
12
12
12
12
12
12
12
12
12
12
12
12
12
12
12
12
12
12
12
12
12
12
12
12
12
12
12
12
12
12
12
12
12
12
12
12
12
12
12
12
12
12
12
12
12
12
12
12
12
12
12
12
12
12
12
12
12
12
12
12
12
12
12
12
12
12
12
12
12
12
12
12
12
12
12
12
12
12
12
12
12
12
12
12
12
12
12
12
12
12
12

POINT_DATA 3012
SCALARS Jp_lamdaP float 4
LOOKUP_TABLE default
0.999637 1 1 0.999637
1 1 1 1
0.999648 1 1 0.999648
0.999582 1 1 0.999582
0.999639 1 1 0.999639
0.999616 1 1 0.999616
1.00013 1.00136 1 0.998764
1 1 1 1
1 1 1 1
1 1 1 1
0.999712 1 1 0.999712
0.998898 1.00004 1 0.998862
0.999586 1 1 0.999586
0.999589 1 1 0.999589
0.999651 1 1 0.999651
0.99961 1 1 0.99961
0.999624 1 1 0.999624
0.999658 1 1 0.999658
1.00024 1.00147 1 0.998765
1 1 1 1
0.999565 1 1 0.999565
0.999615 1 1 0.999615
0.998834 1.00019 1 0.998643
0.999893 1.00115 1 0.998743
0.999618 1 1 0.999618
0.999342 1.00057 1 0.998775
1.01678 1.01939 1 0.997439
1 1 1 1
0.999811 1 1 0.999811
0.999824 1 1 0.999824
1 1 1 1
0.998967 1.0001 1 0.998871
0.999614 1 1 0.999614
0.999642 1 1 0.999642
1.00067 1.00175 1 0.998922
1 1 1 1
0.999613 1.00061 1 0.999003
0.998962 1 1 0.998962
1.00897 1.01159 1 0.997415
1 1 1 1
1 1 1 1
0.999795 1 1 0.999795
1 1 1 1
0.999598 1 1 0.999598
0.998575 1 1 0.998575
1 1 1 1
0.998897 1.00007 1 0.998825
0.999635 1 1 0.999635
0.999671 1 1 0.999671
0.999625 1 1 0.999625
1.00035 1.00158 1 0.99877
0.99978 1 1 0.99978
0.99959 1 1 0.99959
0.999633 1 1 0.999633
0.999641 1 1 0.999641
0.998752 1.00011 1 0.998639
0.999625 1.00085 1 0.998778
0.999883 1.00114 1 0.998744
1.01692 1.01954 1 0.997425
1 1 1 1
0.999568 1 1 0.999568
0.998863 1 1 0.998863
0.998616 1 1 0.998616
0.999236 1.00054 1 0.998695
1.0195 1.02238 1 0.997184
1.01785 1.02061 1 0.997294
0.999684 1 1 0.999684
0.998874 1 1 0.998874
1.01395 1.01646 1 0.997526
1.03697 1.04056 1 0.996548
1 1 1 1
1 1 1 1
1 1 1 1
0.99889 1.00001 1 0.998879
1 1 1 1
1 1 1 1
1.00038 1.00166 1 0.998728
0.999892 1 1 0.999892
0.999225 1.0004 1 0.998829
0.999126 1 1.00004 0.999088
1.00752 1.01014 1 0.997412
1 1 1 1
1.00124 1 1.00152 0.999721
1.00009 1.00145 1 0.998648
1.00017 1.00141 1 0.99876
1.02121 1.0243 1 0.996993
0.999715 1 1.00036 0.999358
1.01362 1.01635 1 0.997314
1.00409 1.00653 1 0.997568
1.01913 1.02252 1 0.996677
1 1 1 1
1 1 1 1
1 1 1 1
1 1 1 1
1 1 1 1
0.999798 1 1 0.999798
0.99871 1 1 0.99871
0.999796 1 1 0.999796
0.998994 1.00027 1 0.998723
1 1 1 1
0.998593 1 1 0.998593
0.998823 1 1 0.998823
1.01785 1.02108 1 0.996833
0.999518 1.00066 1 0.998858
1.02228 1.0255 1 0.996854
0.999608 1 1 0.999608
0.999614 1 1 0.999614
0.999643 1 1 0.999643
0.999662 1 1 0.999662
0.998685 1.00005 1 0.998637
0.999893 1.00115 1 0.998747
0.999815 1.00103 1 0.998784
1.01699 1.01963 1 0.997411
1 1 1 1
0.999592 1 1 0.999592
0.998623 1 1 0.998623
0.99861 1 1 0.998609
0.999843 1 1 0.999843
0.99898 1.00003 1 0.998954
0.999165 1.00047 1 0.998695
1.01957 1.02248 1 0.997149
1.01416 1.01669 1 0.997509
1.0182 1.02093 1 0.997319
1.03687 1.04046 1 0.996556
0.998616 1 1 0.998616
0.998617 1 1 0.998617
1.01701 1.01998 1 0.997087
1.01946 1.02242 1 0.997103
1.01912 1.02199 1 0.997197
1.047 1.05066 1 0.996513
1 1 1 1
1.04042 1.04403 1 0.996535
0.999355 1 1.00028 0.999072
1.00829 1.01082 1 0.997497
1.03358 1.03715 1 0.996561
1.0425 1.04621 1 0.996455
1.00144 1 1.00202 0.999423
1.00654 1 1.00826 0.998292
1 1 1 1
1 1 1 1
1.00025 1.00152 1 0.998733
1 1 1 1
0.999233 1 1.0002 0.999035
0.999187 1.00035 1 0.998836
1.00646 1.00908 1 0.997408
1 1 1 1
1.001 1 1.00126 0.999745
1.00032 1.00156 1 0.99877
0.999994 1.00112 1 0.998873
1.02063 1.02371 1 0.996993
1.00001 1 1.00072 0.999289
1.01263 1.01535 1 0.997317
1.00298 1.00539 1.00003 0.997567
1.02057 1.02398 1 0.996668
1.00117 1 1.00166 0.999509
1.00028 1 1.00042 0.999864
1.00372 1 1.00513 0.998597
1.02317 1.02636 1 0.996895
1.0179 1.02081 1 0.997152
1.04364 1.0474 1 0.996408
1.00115 1.00266 1.00064 0.997858
1.02939 1.03286 1 0.996642
1.01327 1.01598 1.00057 0.996763
1.02898 1.03257 1 0.996525
1 1 1 1
1 1 1 1
1 1 1 1
1.0013 1 1.00173 0.999577
1 1 1 1
1 1 1 1
1 1 1 1
0.999102 1.00048 1 0.998623
0.998609 1 1 0.998609
1 1 1 1
1 1 1 1
0.998594 1 1 0.998594
0.998722 1 1 0.998722
1.01857 1.0218 1 0.996833
0.999587 1.00095 1 0.998636
1.02234 1.02556 1 0.996853
0.998592 1 1 0.998592
1.01639 1.01965 1 0.996803
1.02009 1.02331 1 0.996856
1.05226 1.05598 1 0.996477
1.02347 1.02669 1 0.996856
1.05364 1.05737 1 0.996465
1 1 1 1
0.999617 1 1 0.999617
0.998357 1 1 0.998357
0.998604 1 1 0.998604
1 1 1 1
0.999207 1.00017 1 0.999036
0.999111 1.00042 1 0.998696
1.01962 1.02257 1 0.997115
1.01865 1.02136 1 0.997344
1.01435 1.0169 1 0.997492
1.03687 1.04044 1 0.996564
0.998613 1 1 0.998613
0.99861 1 1 0.99861
1.01694 1.02005 1 0.996957
1.01955 1.0225 1 0.997123
1 1 1 1
0.999255 1 1.00013 0.999126
1.00986 1.01231 1 0.997579
1.01929 1.02216 1 0.997192
1.04688 1.05055 1 0.996504
1.03312 1.03669 1 0.996555
1.04067 1.04425 1 0.996569
1.04209 1.04579 1 0.996464
1.00127 1 1.00186 0.999412
1.0052 1 1.00692 0.998294
1.01626 1.0195 1 0.996824
1.01786 1.02081 1 0.997103
1.04929 1.05294 1 0.996532
1.04772 1.05147 0.999935 0.996494
1.04428 1.04786 1 0.996583
1.05275 1.05669 0.999642 0.996633
1.00045 1 1.0012 0.999249
1.04527 1.04888 1 0.996554
1.00316 1.00538 1.00011 0.997687
1.02675 1.03022 1 0.996627
1.03985 1.04363 1 0.996376
1.0423 1.04578 1 0.996675
1.00313 1.00038 1.00471 0.99805
1.0055 1 1.00692 0.998592
1.00348 1.00043 1.00546 0.997601
1.00033 1.00165 1 0.998678
1 1 1 1
1.00026 1 1.00049 0.999769
0.999695 1.0009 1 0.998794
1.02011 1.02318 1 0.996993
1.00019 1 1.0009 0.999291
1.00148 1.00389 1.00004 0.997565
1.01142 1.01414 1 0.997319
1.0219 1.02533 1 0.996659
1.0011 1 1.00157 0.999531
0.999905 1 1.00002 0.999882
1.00457 1 1.00598 0.998597
1.02258 1.02576 1 0.996893
1.01728 1.02019 1 0.997155
1.04376 1.04753 1 0.996402
1.00006 1.0017 1.0005 0.997862
1.03053 1.034 1 0.996644
1.01326 1.01608 1.00047 0.996757
1.02982 1.03341 1 0.996522
0.999935 1 1 0.999935
1.00183 1.00051 1.00312 0.998198
1.00312 1 1.00411 0.999009
1.00475 1.00051 1.00633 0.997909
1.04806 1.05186 1 0.996386
1.03787 1.04149 1 0.996518
1.04691 1.05072 1 0.996374
1.00671 1.00915 1.00049 0.997102
1.03475 1.03832 1 0.996567
1.02515 1.02718 1.00158 0.996449
1.03744 1.04113 1 0.996453
0.999637 1 1 0.999637
0.999984 1 1 0.999984
1 1 1 1
1 1 1 1
1 1 1 1
1.00052 1 1.00079 0.999722
1 1 1 1
1.00159 1 1.00203 0.999562
1 1 1 1
0.99979 1.00116 1 0.998637
0.998657 1.00004 1 0.99862
1.02247 1.0257 1 0.996852
1.01926 1.0225 1 0.996833
0.998596 1 1 0.998596
1 1 1 1
0.998591 1 1 0.998591
1.01674 1.02 1 0.996804
1.02076 1.02398 1 0.996855
1.05134 1.05506 1 0.996476
1.02307 1.0263 1 0.996853
1.05354 1.05728 1 0.996462
1.01597 1.01923 1 0.996801
1.05028 1.05402 1 0.996453
1.0535 1.05722 1 0.996484
1.05543 1.06188 0.997129 0.996785
1.05239 1.05617 1 0.996422
1.05785 1.06218 0.999246 0.996681
0.998611 1 1 0.998611
0.998603 1 1 0.998603
1.01688 1.02012 1 0.996827
1.01965 1.02257 1 0.997142
1 1 1 1
0.999181 1 1 0.999181
1.01131 1.01368 1 0.99766
1.01944 1.02231 1 0.997186
1.04677 1.05045 1 0.996495
1.04081 1.04435 1 0.996604
1.03275 1.03632 1 0.99655
1.04181 1.0455 1 0.996473
1.00128 1 1.00188 0.9994
1.00447 1 1.00618 0.998296
1.01615 1.0194 1 0.996808
1.01795 1.02091 1 0.997098
1.04904 1.05281 0.999866 0.996557
1.04787 1.0516 0.999958 0.996499
1.00013 1 1.00089 0.999238
1.00468 1.00692 1.00009 0.997685
1.02607 1.02951 1 0.996658
1.04446 1.04806 1 0.996564
1.05259 1.05664 0.999486 0.996678
1.0396 1.0434 1 0.996359
1.04505 1.04866 1 0.996558
1.04246 1.04595 1 0.996671
1.00301 1.00057 1.00439 0.998052
1.0041 1.00057 1.00594 0.997601
1.00573 1 1.00715 0.998591
1.04867 1.05234 1 0.996505
1.04912 1.05294 0.99981 0.996567
1.05525 1.06077 0.998073 0.99672
1.05364 1.0582 0.999005 0.99668
1.04813 1.05191 0.999757 0.996649
1.047 1.05448 0.995923 0.996973
1.00006 1.00159 1.0006 0.997881
1.04437 1.04804 0.999673 0.996818
1.01395 1.01708 1 0.996925
1.0315 1.03539 1 0.996238
1.03854 1.04234 1 0.996356
1.03659 1.03983 0.999956 0.996934
1.00352 1 1.00465 0.998876
0.999933 1.00179 1.00067 0.997478
1.00868 1 1.01094 0.997762
1.00309 1.00311 1.00266 0.99733
1.02204 1.02523 1 0.99689
0.9999 1 1 0.9999
1.00123 1 1.00168 0.999554
1.00626 1 1.00767 0.998597
1.0165 1.0194 1 0.997158
1.04384 1.04761 1 0.996397
0.999041 1.00077 1.00041 0.997867
1.01327 1.01624 1.00033 0.99675
1.03175 1.03522 1 0.996647
1.02971 1.0333 1 0.996519
0.999946 1 1 0.999946
1.00255 1.00028 1.00407 0.9982
1.00282 1 1.00381 0.999018
1.00501 1.00029 1.00683 0.997902
1.04805 1.05185 1 0.99638
1.038 1.04163 1 0.996515
1.04645 1.05026 1 0.996371
1.00519 1.00765 1.00045 0.997109
1.03439 1.03795 1 0.996564
1.02401 1.0259 1.00173 0.996437
1.03717 1.04077 1 0.996536
0.999969 1 1 0.999969
1.00078 1 1.00147 0.999312
1.0031 1.00365 1.00191 0.997544
1.00641 1 1.00814 0.998276
1.00229 1.00146 1.00322 0.997616
1.05178 1.05554 1 0.99644
1.04057 1.04429 1 0.996438
1.04187 1.04552 1 0.996512
1.01007 1.01138 1.00199 0.996716
1.03329 1.03684 1 0.996574
1.02148 1.02447 1.00086 0.996229
0.999587 1 1 0.999587
0.999052 1 1 0.999052
0.999677 1 1 0.999677
0.999639 1 1 0.999639
0.999991 1 1 0.999991
0.999987 1 1 0.999987
1 1 1 1
1 1 1 1
1 1 1 1
0.999937 1 1.00008 0.999858
1 1 1 1
1.00096 1 1.00125 0.999705
1 1 1 1
1.00152 1 1.00198 0.999547
1 1 1 1
1.0228 1.02603 1 0.99685
1.02128 1.0245 1 0.996854
1.05315 1.05689 1 0.996459
1.05039 1.0541 1 0.996474
1.01716 1.02042 1 0.996804
0.99859 1 1 0.99859
1.01605 1.01931 1 0.996801
1.04997 1.05371 1 0.996453
1.05266 1.05638 1 0.996482
1.05565 1.06242 0.996806 0.996803
1.05178 1.05556 1 0.996418
1.05782 1.06202 0.999366 0.996679
1.04886 1.0526 1 0.996445
1.05528 1.06217 0.996693 0.996808
1.05661 1.06231 0.997877 0.996754
1.05124 1.06035 0.99437 0.99702
1.05501 1.05866 0.999982 0.996568
1.05213 1.06179 0.993858 0.997028
1.01606 1.01933 1 0.996793
1.01805 1.02102 1 0.997092
1.04879 1.05269 0.999717 0.996581
1.04803 1.05171 1 0.996503
0.999814 1 1.00059 0.999227
1.00629 1.00855 1.00007 0.997684
1.02593 1.02934 1 0.996688
1.04465 1.04827 1 0.996545
1.05241 1.05662 0.999292 0.996723
1.04487 1.04847 1 0.996563
1.03924 1.04306 1 0.996342
1.04265 1.04614 1 0.996667
1.00263 1.00082 1.00376 0.998053
1.00479 1.00091 1.00629 0.997602
1.0058 1 1.00722 0.99859
1.04872 1.05243 1 0.996483
1.04921 1.05301 0.999828 0.996565
1.0548 1.0606 0.997765 0.996764
1.05338 1.05799 0.998977 0.996661
1.00128 1.00264 1.00077 0.997879
1.01473 1.01786 1 0.996921
1.0302 1.03402 1.00003 0.996278
1.04831 1.05202 0.999861 0.996614
1.04671 1.05467 0.995413 0.997023
1.03928 1.04312 1 0.996318
1.04454 1.04822 0.999666 0.99682
1.03753 1.04071 0.999973 0.996969
1.00151 1.00286 1.00117 0.997478
1.00348 1.00343 1.00277 0.997295
1.00389 1 1.00502 0.998873
1.00809 1 1.01031 0.997802
1.05485 1.06077 0.99765 0.996758
1.0558 1.06113 0.99826 0.996711
1.04643 1.05577 0.9942 0.996936
1.0456 1.0565 0.992611 0.99705
1.04565 1.05074 0.998202 0.996955
1.04384 1.05393 0.993209 0.997205
1.00414 1.00692 1 0.997242
1.03798 1.04369 0.99733 0.997183
1.01822 1.02182 1 0.996486
1.02903 1.03293 1.00018 0.99605
1.03999 1.0438 1 0.996346
1.03849 1.04162 1 0.997001
1.00041 1 1.00129 0.999117
1.00944 1 1.0114 0.998059
1.00249 1.00533 1 0.997175
1.0048 1.00088 1.00645 0.997473
1.00448 1.00503 1.00228 0.997182
0.999957 1 1 0.999957
1.04797 1.05178 1 0.996374
1.00194 1 1.00292 0.999027
1.00314 1.00018 1.00477 0.998201
1.00496 1.00005 1.00703 0.997896
1.03825 1.04189 1 0.996513
1.04605 1.04986 1 0.996368
1.00412 1.00651 1.00051 0.997115
1.02446 1.02615 1.00193 0.996424
1.03417 1.03774 1 0.996561
1.03761 1.04113 1 0.996618
0.999974 1 1 0.999974
1.00036 1 1.00104 0.999322
1.0015 1.00261 1.00134 0.997548
1.00754 1 1.00928 0.998274
1.00237 1.00115 1.00363 0.997596
1.05164 1.05541 1 0.996434
1.04042 1.04414 1 0.996436
1.0419 1.04556 1 0.9965
1.01068 1.01186 1.00213 0.996718
1.03587 1.03944 1 0.996566
1.02185 1.02471 1.00096 0.996253
0.999585 1 1.00009 0.999492
1.00283 1 1.00419 0.998646
1.00118 1.00351 1.00048 0.997196
1.00835 1.00119 1.00926 0.997904
1.00296 1.00339 1.00203 0.99755
1.04874 1.05239 0.999881 0.996648
1.03617 1.0398 1 0.996511
1.04147 1.04489 0.999998 0.996725
1.00401 1.00369 1.00379 0.996544
1.01989 1.02378 1 0.9962
0.99959 1 1 0.99959
0.998969 1 1 0.998969
0.999046 1 1.00002 0.999026
0.998777 1 1.00001 0.99877
0.999082 1 1 0.999078
0.9997 1 1 0.9997
0.999679 1 1 0.999679
0.999996 1 1 0.999996
0.999641 1 1 0.999641
0.999993 1 1 0.999993
1 1 1 1
0.999989 1 1 0.999989
1 1 1 1
1 1 1 1
0.999952 1 1 0.999952
1.00027 1 1.00043 0.999838
1 1 1 1
1 1 1 1
1.00143 1 1.00174 0.999689
1 1 1 1
1.05123 1.05501 1 0.996413
1.0521 1.05582 1 0.99648
1.05805 1.06214 0.99947 0.996677
1.05593 1.06303 0.996492 0.996821
1.04956 1.0533 1 0.996453
1.01607 1.01933 1 0.996801
1.04892 1.05266 1 0.996446
1.05512 1.06194 0.996761 0.996802
1.05715 1.06279 0.997929 0.996754
1.05054 1.06018 0.993834 0.997051
1.05575 1.05941 0.999983 0.996562
1.05237 1.06172 0.994126 0.99705
1.05515 1.06158 0.997154 0.996777
1.04912 1.05901 0.993643 0.996996
1.05141 1.06165 0.993235 0.997092
1.05071 1.06329 0.99097 0.997173
1.05299 1.05838 0.99804 0.996867
1.05023 1.06364 0.990107 0.997256
1.0487 1.05242 1 0.996461
1.04928 1.05305 0.999858 0.996563
1.05434 1.0604 0.997472 0.996808
1.05298 1.05766 0.998929 0.996642
1.00243 1.00361 1.00095 0.997876
1.01445 1.01758 1 0.996917
1.02834 1.03195 1.00018 0.996318
1.04848 1.05208 1 0.996579
1.04644 1.05483 0.994959 0.997073
1.04459 1.04828 0.999658 0.996822
1.03987 1.04376 1 0.99628
1.03769 1.04081 1 0.997005
1.00303 1.00378 1.00179 0.997478
1.0036 1.00344 1.0029 0.99726
1.00421 1 1.00535 0.998869
1.00726 1 1.00944 0.997843
1.05477 1.06071 0.997633 0.996757
1.05533 1.06049 0.998438 0.996691
1.04658 1.05598 0.99412 0.996968
1.0465 1.05677 0.993227 0.997032
1.00486 1.00765 1 0.997234
1.01666 1.02017 1.00003 0.996527
1.02891 1.03261 1.00039 0.996039
1.04595 1.05064 0.998626 0.996905
1.04269 1.05313 0.992805 0.997261
1.03616 1.03997 1 0.996331
1.03886 1.0445 0.997413 0.997184
1.03932 1.04238 1 0.997062
1.00225 1.00509 1 0.997175
1.00402 1.00519 1.00166 0.997176
1.00596 1.00123 1.00727 0.997467
1.00099 1 1.00191 0.999081
1.00909 1 1.01101 0.9981
1.04758 1.05781 0.993328 0.996982
1.0476 1.05832 0.992837 0.997009
1.04343 1.05795 0.988996 0.997246
1.03915 1.04994 0.992433 0.997268
1.00763 1.01077 1 0.996899
1.04303 1.0489 0.997032 0.997359
1.01007 1.01359 1.00029 0.99624
1.02458 1.02832 1.00051 0.995854
1.03251 1.03631 1 0.996333
0.999515 1 1.0002 0.999312
1.00586 1 1.00744 0.998438
1.00665 1 1.00886 0.997804
1.00335 1.00632 1 0.997047
1.00476 1.0012 1.0064 0.997173
1.00535 1.00627 1.00207 0.997022
0.999979 1 1 0.999979
0.999839 1 1.00051 0.999331
1.05149 1.05526 1 0.996428
1.00889 1 1.01064 0.998272
0.999513 1.00122 1.00074 0.997552
1.00242 1.00095 1.0039 0.997576
1.04007 1.0438 1 0.996434
1.04191 1.04558 1 0.996489
1.01045 1.01146 1.00229 0.996721
1.02101 1.02403 1.00077 0.996278
1.03846 1.04204 1 0.996558
0.999499 1 1 0.999498
1.00309 1 1.00445 0.99865
1.00197 1.00438 1.00041 0.99719
1.00933 1.00094 1.01051 0.997897
1.0032 1.00392 1.00174 0.997549
1.04842 1.05202 0.999939 0.996642
1.0369 1.04054 1 0.996498
1.04159 1.045 0.999982 0.996751
1.00502 1.00528 1.00324 0.996507
1.01856 1.02242 1.00006 0.996171
0.999578 1 1.00068 0.998898
1.00926 1 1.01107 0.998208
1.00305 1.00401 1.002 0.997053
1.00884 1.00391 1.00726 0.997674
1.01068 1.01229 1.001 0.997413
1.04536 1.05197 0.996564 0.997139
1.03691 1.04066 1 0.996403
1.03964 1.04305 1 0.996736
1.00706 1.00634 1.00433 0.9964
1.00877 1.01284 1 0.99598
0.999593 1 1 0.999593
0.998987 1 1 0.998987
0.998699 1 1 0.998699
0.999004 1 1 0.999
0.999079 1 1 0.999077
0.998875 1 1.00013 0.998742
0.998869 1 1.00021 0.998664
0.999134 1 1.00045 0.998681
0.999102 1 1 0.999102
0.999694 1 1 0.999694
0.9997 1 1 0.9997
0.999999 1 1 0.999999
0.999681 1 1 0.999681
0.999997 1 1 0.999997
1 1 1 1
0.999995 1 1 0.999995
1 1 1 1
1 1 1 1
0.999991 1 1 0.999991
0.999934 1 1 0.999934
1 1 1 1
1.00072 1 1.0009 0.999818
1 1 1 1
1 1 1 1
1.05645 1.0601 1 0.996555
1.05741 1.063 0.997976 0.996754
1.05255 1.06157 0.994409 0.997072
1.04979 1.05997 0.993293 0.997081
1.05499 1.06174 0.996832 0.996797
1.04908 1.05282 1 0.996446
1.05508 1.06137 0.99731 0.996758
1.04969 1.05919 0.994025 0.996989
1.05062 1.061 0.993114 0.997077
1.04953 1.06281 0.990285 0.997184
1.05268 1.05778 0.998304 0.996868
1.0481 1.06226 0.989347 0.997296
1.04977 1.05892 0.994369 0.996971
1.05076 1.06442 0.98997 0.99717
1.05097 1.06528 0.989269 0.99727
1.0451 1.05953 0.989033 0.997319
1.05475 1.06071 0.997617 0.996757
1.05493 1.05994 0.998604 0.996671
1.04677 1.05621 0.994049 0.997
1.04748 1.05715 0.993822 0.997015
1.00624 1.00903 1 0.997226
1.01595 1.01945 1 0.996569
1.02886 1.03236 1.00058 0.996028
1.04624 1.05059 0.999002 0.996855
1.04146 1.05231 0.992354 0.997318
1.04007 1.04565 0.997473 0.997185
1.03329 1.03711 1 0.996316
1.04168 1.04468 1 0.997123
1.00184 1.00468 1 0.997175
1.00398 1.00614 1.00069 0.99717
1.00726 1.00128 1.00854 0.997461
1.00142 1 1.00238 0.999047
1.00882 1 1.0107 0.998142
1.04789 1.05807 0.993368 0.996984
1.04817 1.05896 0.992786 0.997005
1.04336 1.05717 0.98967 0.997238
1.00731 1.01045 1 0.996895
1.01067 1.01418 1.00026 0.996281
1.023 1.02648 1.00076 0.995843
1.03959 1.05 0.992811 0.997254
1.03598 1.03968 1 0.996445
1.03942 1.04554 0.99681 0.997326
0.999528 1 1.00018 0.999349
1.0035 1.00642 1.00006 0.997039
1.00329 1.00508 1.00107 0.997145
1.00717 1.00245 1.00756 0.997165
1.00702 1 1.00921 0.997828
1.00588 1 1.00749 0.998402
1.04913 1.06238 0.990438 0.997059
1.04721 1.06501 0.986073 0.997174
1.03718 1.05575 0.985042 0.997328
1.03683 1.05252 0.987598 0.997469
1.00695 1.01028 1 0.996703
1.03495 1.03903 0.999147 0.996925
1.00478 1.00732 1.00165 0.995838
1.01333 1.01665 1.00104 0.995693
0.999608 1 1 0.999608
1.00115 1 1.0024 0.998757
1.00594 1 1.00786 0.998096
1.00663 1 1.00929 0.997361
1.00325 1.00491 1.00148 0.996874
1.00818 1.00295 1.00839 0.996851
0.999504 1 1 0.999504
1.00342 1 1.00477 0.998655
1.04829 1.05183 0.999997 0.996636
1.01011 1.00061 1.01163 0.997891
1.00282 1.00538 1.00027 0.997185
1.0028 1.00374 1.00152 0.997548
1.03781 1.04147 1 0.996486
1.04185 1.04525 0.999971 0.996776
1.0065 1.00731 1.00273 0.99647
1.01725 1.02091 1.00027 0.996142
0.999467 1 1.00057 0.998901
1.00948 1 1.01131 0.998196
1.00363 1.0046 1.00198 0.997061
1.00793 1.00362 1.00664 0.997679
1.01149 1.01356 1.00048 0.997483
1.04678 1.05348 0.996443 0.997186
1.03643 1.04015 1 0.996427
1.04088 1.04423 0.999979 0.996811
1.00722 1.00628 1.00458 0.996366
1.0089 1.01302 1.00003 0.995907
1.00053 1 1.00196 0.998574
1.0092 1.00038 1.01101 0.997826
1.00923 1.00849 1.00378 0.99696
1.0096 1.01072 1.00161 0.997298
1.04342 1.06846 0.979077 0.997439
1.04079 1.04564 0.99814 0.997211
1.02416 1.02817 1 0.996093
1.01173 1.01151 1.00426 0.995986
0.999006 1 1 0.999006
0.998725 1 1.00001 0.998711
0.998672 1 1 0.998672
0.999115 1 1.00004 0.999075
0.998951 1 1.00024 0.998714
0.999102 1 1 0.9991
0.998768 1 1.0001 0.998672
0.999242 1 1.00055 0.998691
0.998726 1 1 0.998726
0.999537 1 1.00101 0.998533
0.999343 1 1.0007 0.998644
0.999082 1 1 0.999082
0.999663 1 1 0.999663
0.999693 1 1 0.999693
1 1 1 1
0.9997 1 1 0.9997
1 1 1 1
1 1 1 1
0.999998 1 1 0.999998
1 1 1 1
1 1 1 1
1 1 1 1
0.999983 1 1 0.999983
1 1 1 1
0.999916 1 1 0.999916
1 1 1 1
1 1 1 1
1.05228 1.0571 0.99857 0.99687
1.04994 1.06048 0.992982 0.997061
1.04609 1.06097 0.988603 0.997335
1.04839 1.0624 0.989584 0.997195
1.05028 1.05939 0.994403 0.996982
1.05496 1.0611 0.99746 0.996739
1.04954 1.05879 0.994275 0.996971
1.05063 1.06409 0.990158 0.997161
1.04957 1.06444 0.988726 0.997269
1.04629 1.06041 0.989323 0.997329
1.05185 1.0644 0.991063 0.997115
1.05242 1.07104 0.985255 0.997322
1.05096 1.07099 0.983869 0.997387
1.04817 1.05832 0.993398 0.996986
1.04868 1.05952 0.992746 0.997
1.0434 1.0564 0.990444 0.99723
1.00699 1.01014 1 0.996891
1.01057 1.01412 1.00018 0.996321
1.02105 1.02446 1.00085 0.99583
1.04009 1.0501 0.993208 0.99724
1.03523 1.04175 0.996434 0.997293
1.03812 1.04171 1 0.996556
1.00269 1.00527 1.0004 0.997031
0.999141 1.00188 1 0.997267
1.00874 1.00324 1.00835 0.997157
0.999562 1 1.00017 0.999388
1.00652 1 1.00868 0.997853
1.00612 1 1.00776 0.998367
1.04992 1.0629 0.990691 0.997067
1.04654 1.06473 0.985698 0.99718
1.03741 1.05543 0.985567 0.99732
1.00426 1.00759 1 0.996696
1.00479 1.0075 1.0014 0.995914
1.01351 1.0169 1.0009 0.995775
1.03708 1.05221 0.988116 0.997472
1.03171 1.03655 0.998427 0.996904
0.999672 1 1 0.999672
1.0012 1 1.00245 0.998755
1.00062 1.00331 1.0004 0.996921
1.01017 1.00227 1.01091 0.997003
1.00606 1.00016 1.00851 0.997408
1.0058 1 1.00776 0.998058
1.0498 1.06868 0.985045 0.997243
1.03859 1.06598 0.976962 0.997282
1.03426 1.05563 0.982197 0.997515
1.02727 1.04037 0.989908 0.997476
1.00245 1.00475 1.00132 0.9964
1.01439 1.01699 1.0014 0.996048
1.00557 1.00732 1.00264 0.995627
0.999834 1 1 0.999834
0.999326 1 1 0.999326
0.999209 1 1.00017 0.999041
1.00184 1 1.00357 0.998281
1.00702 1 1.00933 0.997713
1.00889 1.00014 1.01161 0.997167
0.999657 1.00192 1.00073 0.997016
1.03333 1.00111 1.03502 0.99726
0.999342 1 1.00044 0.998904
1.01005 1 1.01189 0.998183
1.04824 1.05499 0.99636 0.997232
1.0083 1.00431 1.0063 0.997683
1.00442 1.0052 1.00215 0.99707
1.01212 1.01457 1.00004 0.997553
1.03573 1.03942 1 0.996452
1.04201 1.04532 0.999953 0.996886
1.0073 1.00616 1.00482 0.996334
1.00876 1.01298 1 0.995833
1.00105 1 1.00252 0.998539
1.00832 1.00013 1.01038 0.997833
1.01165 1.01051 1.00415 0.996986
1.00894 1.01021 1.00142 0.997333
1.04546 1.07071 0.978906 0.997459
1.04203 1.04643 0.998639 0.997159
1.02389 1.02785 1 0.996143
1.01324 1.01356 1.00377 0.995933
1.00219 1 1.00386 0.998331
1.04731 1.07514 0.976593 0.997465
1.00248 1.00026 1.00476 0.997474
1.0112 1.0118 1.00268 0.996736
1.037 1.05674 0.983715 0.997564
1.02099 1.02489 0.999959 0.996234
1.0097 1.01076 1.00323 0.995725
0.998723 1 1 0.998723
0.998661 1 1 0.998661
0.99881 1 1.00006 0.998746
0.999098 1 1 0.999098
0.999343 1 1.00064 0.998702
0.998784 1 1.0001 0.99868
0.999079 1 1 0.999079
0.999435 1 1.00079 0.998649
0.99874 1 1 0.99874
0.999236 1 1.00069 0.998549
0.998815 1 1 0.998815
0.998753 1 1.00014 0.998618
0.999652 1 1.00124 0.998415
0.998597 1 1.00001 0.998584
0.999012 1 1 0.999012
0.999623 1 1 0.999623
0.99966 1 1 0.99966
1 1 1 1
0.999691 1 1 0.999691
1 1 1 1
1 1 1 1
1 1 1 1
1 1 1 1
1 1 1 1
0.99986 1 1 0.99986
1 1 1 1
0.999998 1 1 0.999998
1 1 1 1
0.999975 1 1 0.999975
1 1 1 1
1 1 1 1
1.04742 1.06129 0.98957 0.997339
1.04814 1.06352 0.988237 0.997267
1.05046 1.06372 0.99036 0.997152
1.04931 1.05865 0.994188 0.99697
1.05149 1.0643 0.990799 0.997134
1.05221 1.07046 0.985607 0.997313
1.04878 1.06876 0.983875 0.997395
1.052 1.07093 0.984984 0.997303
1.06194 1.0825 0.983545 0.997413
1.05501 1.07926 0.979814 0.997677
1.05068 1.06339 0.990949 0.997075
1.04581 1.06447 0.985244 0.997186
1.03754 1.05512 0.985987 0.997312
1.00358 1.00685 1.00006 0.996689
1.00549 1.00826 1.00126 0.995993
1.01607 1.01951 1.00078 0.995858
1.03731 1.05169 0.988821 0.997476
1.02872 1.03399 0.998011 0.996884
1.00114 1.00368 1.00051 0.996968
1.01374 1.00297 1.01362 0.997153
1.00692 1.00046 1.00902 0.997455
0.999736 1 1 0.999736
1.00112 1 1.00237 0.998753
1.0058 1 1.0078 0.998021
1.04967 1.06898 0.984641 0.997253
0.999829 1 1 0.999829
0.999291 1 1 0.999291
1.03928 1.06517 0.978352 0.997284
1.03264 1.05452 0.981716 0.997484
1.00319 1.00486 1.00185 0.996485
1.00574 1.00682 1.00332 0.995622
1.01508 1.01835 1.00075 0.996039
1.02617 1.0399 0.989323 0.99745
0.999323 1 1.0002 0.999124
1.00181 1 1.00354 0.998273
1.00139 1.00183 1.00266 0.996911
1.02874 1.00117 1.0302 0.997419
1.00728 1.00018 1.00994 0.997184
1.00639 1 1.00868 0.997729
1.05921 1.08201 0.981513 0.997367
1.01995 1.06348 0.961545 0.997419
1.0221 1.04694 0.97855 0.997665
1.00803 1.02125 0.98986 0.997168
1.00506 1.00265 1.00584 0.996578
1.00529 1.0042 1.0055 0.995613
0.999254 1 1 0.999254
0.999289 1 1 0.999289
0.998989 1 1 0.998989
0.998673 1 1.0002 0.998473
1.00477 1 1.00676 0.99802
1.00559 1.00016 1.00808 0.997373
1.048 1 1.05095 0.997201
1.00162 1.00049 1.00355 0.99758
1.00157 1 1.00307 0.998503
1.00709 1 1.00927 0.997841
1.04675 1.07193 0.978978 0.997478
1.04283 1.04683 0.999069 0.997107
1.00815 1.00964 1.00115 0.997369
1.01425 1.01282 1.00441 0.997011
1.02395 1.02783 1.00004 0.996192
1.01505 1.01585 1.00335 0.99588
1.00236 1 1.00405 0.998313
1.05009 1.07855 0.976031 0.997521
1.00325 1.00019 1.00557 0.997503
1.00943 1.01008 1.00269 0.996675
1.03583 1.0558 0.983501 0.997538
1.02008 1.02388 0.99997 0.996317
1.0108 1.0116 1.00348 0.995741
1.00531 1 1.00732 0.998009
1.01413 1.04738 0.970248 0.997948
1.0041 1.00314 1.00377 0.997204
1.00467 1.00466 1.00379 0.996232
1.01756 1.02899 0.991755 0.997108
1.00252 1.00438 1.00221 0.995944
0.977259 1.0035 0.976456 0.997336
0.998611 0.999944 1.00002 0.99865
0.999189 0.999598 1.00085 0.998746
0.999392 1 1.00072 0.998668
0.999076 1 1 0.999076
0.999724 1 1.00107 0.998654
0.99887 1 1.0003 0.998566
0.998755 1 1 0.998755
0.999012 1 1 0.999012
0.998727 1 1.00015 0.998577
0.998781 1 1 0.998781
0.999492 1 1.00108 0.998416
0.998729 1 1.00013 0.9986
0.998833 1 1.00006 0.99877
0.998773 1 1.00054 0.998235
1.0004 1 1.00202 0.998389
0.998536 1 1.00007 0.998463
0.998871 1 1 0.998871
0.999158 1 1.00052 0.998643
0.998876 1 1.00003 0.998841
0.999602 1 1 0.999602
0.99962 1 1 0.99962
1 1 1 1
0.999656 1 1 0.999656
1 1 1 1
1 1 1 1
1 1 1 1
1 1 1 1
1 1 1 1
0.999887 1 1 0.999887
0.999861 1 1 0.999861
1 1 1 1
1 1 1 1
1 1 1 1
0.999997 1 1 0.999997
1 1 1 1
1 1 1 1
1.04686 1.06689 0.98378 0.997403
1.05188 1.06988 0.985836 0.997303
1.05118 1.06426 0.990535 0.997153
1.052 1.07085 0.985055 0.997301
1.05947 1.08023 0.98333 0.997409
1.0542 1.07742 0.980805 0.997603
1.06382 1.08854 0.979756 0.997478
0.973374 1.01605 0.962196 0.995633
1.01376 1.04596 0.970796 0.998377
0.999395 1 1 0.999395
1.04956 1.06928 0.984255 0.997264
1.04008 1.0644 0.979812 0.997285
1.03095 1.0535 0.981088 0.997454
1.0001 1.00272 1.00082 0.996568
1.00452 1.00491 1.00402 0.995615
1.01428 1.01811 1.0002 0.99603
1.02496 1.03947 0.988585 0.997424
0.998893 1.00199 1.0001 0.996808
1.02171 1.00024 1.02394 0.997581
1.00531 1 1.00814 0.997202
0.999824 1 1 0.999824
1.00708 1 1.00936 0.997745
0.999434 1 1.00023 0.999206
1.00183 1 1.00357 0.998265
0.999257 1 1 0.999257
1.05582 1.08223 0.978162 0.997375
0.999299 1 1 0.999299
0.999288 1 1 0.999288
0.998816 1.00002 0.999844 0.998954
1.02436 1.06389 0.96534 0.997418
1.02251 1.04718 0.978775 0.997618
1.00161 1.00206 1.00294 0.996607
1.00879 1.00751 1.00556 0.995735
1.00713 1.01906 0.991116 0.997151
0.99879 1 1.00026 0.998528
1.00489 1 1.00693 0.997972
1.00757 1.00031 1.00981 0.997469
1.03809 1.00003 1.04095 0.997227
1.00474 1.00013 1.00721 0.997422
1.03723 1.07074 0.97115 0.997481
1.00274 1.05358 0.95406 0.997571
1.01475 1.03019 0.987657 0.997321
0.991857 1.00782 0.987211 0.996908
1.00359 1 1.00641 0.997204
0.998827 1 1 0.998827
0.998765 1 1 0.998765
0.999874 1 1.00118 0.998692
1.00483 1 1.00659 0.998259
1.00762 1 1.00979 0.997854
1.03567 0.999827 1.0385 0.997453
1.03008 1.00163 1.03098 0.997502
1.0023 1 1.00401 0.998295
1.00367 1 1.00615 0.997531
1.05199 1.08281 0.973899 0.997576
1.03519 1.05567 0.983046 0.997512
1.01955 1.02327 0.99996 0.996399
1.00737 1.0081 1.00268 0.996614
1.01155 1.01221 1.0036 0.995759
1.00476 1 1.00673 0.99805
1.01349 1.04775 0.96926 0.997986
1.00145 1.002 1.00224 0.997215
1.00382 1.00352 1.00408 0.996234
1.01673 1.02917 0.990665 0.997224
1.00299 1.00434 1.00273 0.995937
0.977008 1.00349 0.977164 0.996367
1.00543 1.00065 1.0069 0.997896
1.00306 1.02389 0.981683 0.99793
1.00051 1.00137 1.00207 0.997085
1.00435 1.00146 1.00644 0.996475
0.992296 1.00605 0.989319 0.996974
0.917703 0.9777 0.962082 0.975628
0.915298 0.969622 0.955977 0.987446
0.970133 0.984921 0.987485 0.997469
0.737952 0.842059 0.919671 0.952913
0.658768 0.805807 0.870843 0.938775
0.999163 0.999123 1.0013 0.998746
1.00031 0.99941 1.00218 0.998721
0.999898 1 1.00119 0.998705
0.999011 1 1 0.999011
0.998589 1 1.00002 0.998569
0.999165 1 1.00075 0.998417
0.998682 1 1.0001 0.998581
0.998747 1 1 0.998747
1.00105 1 1.00269 0.998365
0.998905 1 1 0.998905
0.998507 1 1.00002 0.998483
0.998906 1 1.00018 0.998728
0.999075 1 1.0008 0.998277
1.00222 1 1.00393 0.998288
1.00286 1 1.00447 0.998396
1.00175 1 1.00345 0.998299
0.998861 1 1.00047 0.99839
0.998837 1 1 0.998837
0.998738 1 1.00026 0.998478
0.998947 1 1.00047 0.99848
0.998983 1 1.00032 0.998666
0.999214 1 1.00061 0.998603
0.998958 1 1 0.998958
0.99891 1 1.00007 0.998838
0.999597 1 1 0.999597
0.999602 1 1 0.999602
1 1 1 1
0.999617 1 1 0.999617
1 1 1 1
1 1 1 1
1 1 1 1
1 1 1 1
1 1 1 1
0.999917 1 1 0.999917
0.999884 1 1 0.999884
1 1 1 1
0.999861 1 1 0.999861
1 1 1 1
1 1 1 1
1 1 1 1
1 1 1 1
1 1 1 1
1.05664 1.07764 0.983067 0.997406
1.05205 1.07078 0.985166 0.997299
1.05386 1.07586 0.981976 0.997529
0.974519 1.01587 0.963432 0.995708
1.06076 1.08586 0.979354 0.997478
1.02614 1.04947 0.979485 0.998248
1.0442 1.06109 0.986444 0.997605
0.929658 0.980348 0.961215 0.986557
0.992332 1.01935 0.976902 0.996511
0.999416 1 1 0.999416
0.999391 1 1 0.999391
0.998939 1 1 0.998939
0.999031 1 1 0.999031
1.05343 1.08247 0.975728 0.997382
1.02836 1.06375 0.969241 0.997416
1.02295 1.04719 0.979226 0.997571
1.00046 1.00091 1.00293 0.996636
1.01327 1.01211 1.00531 0.995856
1.00636 1.01728 0.992104 0.997134
1.01741 1 1.02011 0.997356
1.03063 1.00005 1.03342 0.997253
1.00302 1.00004 1.00553 0.99747
0.999288 1 1 0.999288
1.00325 1 1.00534 0.997923
0.99885 1 1.00027 0.998584
0.999343 1 1 0.999343
0.998922 1.00003 0.99997 0.998918
1.03497 1.07066 0.969095 0.997496
0.998866 1 1 0.998866
0.998827 1.00002 0.999985 0.998825
0.999452 0.999981 1.00062 0.998847
1.00807 1.05631 0.956662 0.997563
1.01426 1.03017 0.9872 0.99732
1.00379 1.00058 1.00604 0.997186
0.994835 1.00797 0.989959 0.99698
1.00324 1 1.00505 0.998202
1.00684 1 1.00911 0.997745
1.03668 1.00154 1.0377 0.997481
1.03615 1.00018 1.03869 0.997377
0.996395 1.04476 0.955928 0.99768
0.995271 1.03445 0.964479 0.997559
1.00522 1.01177 0.996522 0.996989
0.983967 1.00094 0.985141 0.997873
1.00013 1 1.00158 0.998547
1.00143 1 1.00299 0.998437
1.01378 0.999851 1.01572 0.998239
1.05601 1 1.05865 0.997512
0.894936 0.96826 0.950292 0.97262
1.00506 1 1.00699 0.99809
0.999288 1.00089 1.00118 0.997225
1.01429 1.0478 0.969939 0.998026
1.01598 1.02879 0.990182 0.99734
1.0034 1.00419 1.0033 0.995928
1.00339 1.0027 1.00447 0.996235
0.977465 1.00478 0.977341 0.995371
1.00408 1.00024 1.0059 0.997953
1.0027 1.02501 0.980275 0.997915
1.00027 1.00143 1.00175 0.997101
1.00456 1.00199 1.00611 0.996478
0.995914 1.00711 0.991885 0.99697
0.915881 0.98414 0.956792 0.972668
0.908713 0.966421 0.954911 0.984685
0.973968 0.985587 0.990692 0.997495
0.734993 0.837634 0.919843 0.953927
0.644741 0.79557 0.86744 0.934259
1.0018 0.999885 1.00379 0.998133
0.766111 0.858492 0.933159 0.956312
0.69642 0.812174 0.912296 0.93991
0.988053 1.00618 0.984036 0.997912
1.00761 1.00154 1.0085 0.997579
1.01322 1.00496 1.01092 0.997329
0.964393 0.977548 0.988744 0.997773
0.899321 0.958519 0.963468 0.973815
0.881863 0.939946 0.954373 0.983061
0.726091 0.837723 0.905958 0.956715
0.716581 0.858826 0.889866 0.937638
1.00198 0.999077 1.00414 0.998773
1.00101 0.999648 1.00269 0.998679
1.00433 1 1.0055 0.998841
0.99894 1 1 0.99894
0.998504 1 1 0.998504
1.00167 1 1.00333 0.998342
0.999618 1 1.0013 0.998318
0.998685 1 1 0.998685
0.998838 1 1 0.998838
1.00254 1 1.00427 0.998275
1.00211 1 1.00381 0.998308
0.99856 1 1.00013 0.998429
1.00307 1 1.00465 0.998423
1.00481 1 1.00647 0.998352
1.01195 1 1.01344 0.99853
1.00054 1 1.00231 0.998233
0.998882 1 1.00044 0.998444
0.998538 1 1.00006 0.998474
0.99931 1 1.00082 0.998489
0.999574 1 1.00127 0.998303
0.999269 1 1.00075 0.998523
1.0008 1 1.00229 0.998511
1.0049 1 1.0066 0.998309
0.999804 1 1.00118 0.998627
0.9989 1 1.00023 0.998667
0.998995 1 1 0.998995
0.998994 1 1.00043 0.998564
0.998929 1 1 0.998929
0.999585 1 1 0.999585
0.998891 1 1.00006 0.998834
0.999598 1 1 0.999598
0.999999 1 1 0.999999
0.999602 1 1 0.999602
1 1 1 1
1 1 1 1
1 1 1 1
1 1 1 1
1 1 1 1
0.99937 1 1 0.99937
0.999922 1 1 0.999922
0.999913 1 1 0.999913
1 1 1 1
0.99988 1 1 0.99988
1 1 1 1
1 1 1 1
1 1 1 1
1 1 1 1
1 1 1 1
0.976407 1.01564 0.965437 0.995788
1.05846 1.08293 0.979876 0.997477
1.03357 1.05266 0.983711 0.998117
0.922695 0.974266 0.958872 0.987688
0.991786 1.01909 0.976443 0.996686
1.04358 1.06497 0.982318 0.99756
1.00338 1.02779 0.979398 0.996781
0.937122 0.975265 0.971521 0.989056
0.916061 0.977362 0.962835 0.973458
0.735632 0.839773 0.915755 0.956576
0.624846 0.764738 0.871144 0.93793
0.998976 1 1 0.998976
0.999414 1 1 0.999414
0.999386 1 1 0.999386
0.998933 1 1 0.998933
0.998706 1 1 0.998706
0.99872 1 1 0.99872
0.998903 1 1 0.998903
0.99899 1 1 0.99899
1.03138 1.07098 0.965434 0.99751
1.01391 1.06021 0.95868 0.997554
1.01381 1.03025 0.986687 0.997319
1.00319 1.00169 1.00435 0.997169
0.997403 1.00759 0.992819 0.997054
1.04009 1.00098 1.04172 0.99746
1.03598 1.00066 1.03809 0.997301
1.00764 1 1.01003 0.997637
0.998609 1.00004 0.999687 0.998886
1.00329 1 1.00515 0.998143
0.998906 1 1 0.998906
0.999002 1 1 0.999002
0.995304 1.04549 0.954196 0.997697
1.00007 1 1.00151 0.998562
1.00175 1 1.00327 0.998487
0.993508 1.03294 0.964201 0.997533
1.00239 1.01222 0.993135 0.997129
0.986036 1.0012 0.987072 0.997751
1.02242 1.00009 1.02434 0.998033
1.05203 1.0013 1.05324 0.997544
0.979311 1.02748 0.955373 0.99764
0.986954 1.0107 0.978898 0.997554
0.977012 1.00166 0.977747 0.997592
0.987341 1.00118 0.988125 0.998033
1.00482 1 1.00669 0.998141
1.01111 1 1.01291 0.998222
1.04994 1 1.05219 0.997859
0.768666 0.867942 0.924293 0.958158
0.912592 0.975796 0.957629 0.976609
1.00162 0.999697 1.00392 0.99801
0.999949 1.00127 1.00157 0.997118
1.00249 1.02647 0.97869 0.997901
0.998992 1.00861 0.993482 0.996966
1.00489 1.00271 1.00571 0.996485
0.913107 0.974856 0.961798 0.973862
0.91325 0.973683 0.951928 0.985299
0.975393 0.984315 0.993402 0.997518
0.739913 0.839386 0.920597 0.957522
0.63198 0.785475 0.865514 0.929603
1.001 0.999772 1.0031 0.998133
0.766426 0.865451 0.925274 0.9571
0.68197 0.798758 0.91082 0.937384
0.987981 1.00721 0.982966 0.997908
1.0077 1.00196 1.00814 0.997598
1.0114 1.00327 1.01065 0.99748
0.957429 0.97159 0.987451 0.997948
0.910046 0.97041 0.965585 0.97122
0.877961 0.937197 0.950534 0.985546
0.732132 0.835629 0.917625 0.954796
0.715846 0.864987 0.883547 0.936656
1.00318 1 1.00456 0.998628
0.727703 0.824424 0.938135 0.94089
0.799628 0.897573 0.939242 0.948508
0.987333 0.995281 0.99334 0.998666
1.01491 1.00257 1.01373 0.998595
0.966367 0.96312 1.00579 0.997592
0.888445 0.927103 0.97114 0.986781
0.865366 0.925781 0.96386 0.96979
0.736346 0.830205 0.92805 0.955708
0.76544 0.907463 0.896464 0.940913
1.00198 0.999391 1.00394 0.998654
1.00345 1 1.00465 0.998801
1.00642 0.999494 1.00786 0.999074
0.998839 1 1 0.998839
0.998468 1 1 0.998468
1.00284 1 1.00453 0.998317
1.00312 1 1.00487 0.998263
1.00303 1 1.00459 0.99845
0.998796 1 1.00035 0.998442
1.00341 1 1.00509 0.998329
1.0006 1 1.00237 0.998235
1.01157 0.999853 1.01315 0.99859
1.03104 0.99884 1.03317 0.999094
1.00656 1 1.00821 0.998363
0.999949 1 1.00176 0.998193
0.998499 1 1.00003 0.99847
0.999738 1 1.00124 0.998497
0.99996 1 1.00167 0.998295
0.999622 1 1.00111 0.998511
0.999685 1 1.00109 0.9986
1.00282 1 1.00438 0.99845
1.00171 1 1.00331 0.998405
1.00203 0.99988 1.00354 0.998614
0.999117 1 1.00075 0.998367
0.998756 1.00007 1.00093 0.997755
1.00413 1 1.00593 0.998207
1.00408 1 1.00578 0.99831
1.00371 1 1.0052 0.998511
1.00051 1 1.00189 0.998624
0.998974 1 1 0.998974
0.99911 1 1.00044 0.998668
0.998996 1 1 0.998996
0.999575 1 1 0.999575
0.9989 1 1 0.9989
0.999588 1 1 0.999588
0.999995 1 1 0.999995
0.9996 1 1 0.9996
0.999999 1 1 0.999999
1 1 1 1
1 1 1 1
1 1 1 1
1 1 1 1
0.999376 1 1 0.999376
0.9999 1 1 0.9999
0.999371 1 1 0.999371
1 1 1 1
0.999923 1 1 0.999923
0.99991 1 1 0.99991
1 1 1 1
1 1 1 1
1 1 1 1
1 1 1 1
1 1 1 1
0.759861 0.856305 0.930256 0.9539
0.687833 0.807352 0.907189 0.939123
0.923226 0.977187 0.95604 0.988221
0.993372 1.01899 0.97792 0.996867
1.04606 1.06897 0.981006 0.997515
0.919257 0.958563 0.968241 0.990451
1.00395 1.02703 0.980535 0.996933
0.9283 0.989493 0.962702 0.974505
0.733954 0.841528 0.914439 0.953775
0.626704 0.774906 0.866476 0.933376
0.951916 0.996172 0.962447 0.992859
0.913877 0.969226 0.967769 0.974296
0.724724 0.837291 0.90537 0.956027
0.702316 0.850034 0.882024 0.936734
1.00003 1 1.00148 0.998549
0.999012 1 1 0.999012
0.999412 1 1 0.999412
0.998927 1 1 0.998927
0.998764 1 1 0.998764
0.999588 1 1.00109 0.998503
0.998697 1 1 0.998697
0.998583 1 1 0.998583
0.998862 1 1 0.998862
0.998949 1 1 0.998949
0.994947 1.04557 0.95376 0.997713
0.990293 1.03022 0.963638 0.997511
1.00013 1.01294 0.990053 0.997269
0.98837 1.00139 0.989346 0.997629
1.04697 1.00308 1.04629 0.997577
1.03152 1.00027 1.03348 0.997828
1.00062 1 1.00209 0.998538
0.999991 0.999977 1.00144 0.998576
0.980071 1.02783 0.955718 0.997711
1.00584 1 1.00775 0.998104
1.01079 1 1.01264 0.998174
0.983893 1.00883 0.977729 0.997492
0.975012 1.00134 0.975961 0.997689
0.988313 1.00201 0.988335 0.997967
1.04349 1 1.04578 0.997812
0.978031 1.00373 0.976392 0.997957
0.969275 0.999014 0.971801 0.998385
1.01359 1.00091 1.01451 0.998186
1.00869 1 1.01066 0.99805
1.01013 1 1.0122 0.997952
1.02713 1 1.02922 0.997965
0.75366 0.840217 0.945046 0.949141
0.775761 0.866762 0.933908 0.95835
0.901111 0.9723 0.952758 0.972738
1.00049 0.999543 1.00282 0.998132
1.00735 1.00195 1.00778 0.997615
0.990523 1.00828 0.984449 0.997906
1.00989 1.00192 1.01035 0.997626
0.762691 0.860519 0.924532 0.958664
0.904341 0.966829 0.961614 0.972707
0.875517 0.934138 0.953291 0.983168
0.954328 0.967548 0.988199 0.998116
0.72653 0.836445 0.912419 0.951968
0.681487 0.799243 0.908754 0.93828
0.708969 0.857341 0.880294 0.939391
1.00333 0.999806 1.00492 0.998616
0.729597 0.826697 0.935144 0.943752
0.81149 0.908595 0.941867 0.94825
0.98713 0.993241 0.995084 0.998757
1.01502 1.00167 1.01479 0.99855
0.963685 0.961673 1.00405 0.998051
0.880979 0.93069 0.961556 0.984433
0.8854 0.935669 0.972652 0.972881
0.753681 0.850669 0.929656 0.953025
0.754171 0.896666 0.891747 0.943186
1.00742 0.998896 1.00911 0.999431
0.828528 0.914504 0.948923 0.954753
0.79923 0.905799 0.926297 0.952555
0.985843 0.971314 1.01525 0.999715
0.911779 0.927493 0.992024 0.990962
0.890192 0.923622 0.992024 0.971554
0.803222 0.887597 0.951584 0.950982
0.792657 0.935261 0.898959 0.942785
1.00331 1 1.00455 0.998761
1.00674 0.999115 1.00857 0.999068
1.02338 0.996394 1.02775 0.999354
0.998939 1 1.0005 0.99844
1.00056 1 1.00232 0.998238
1.00158 1 1.00327 0.998307
1.01135 0.999691 1.01303 0.998649
1.00036 1 1.00217 0.998192
1.00626 1 1.00792 0.998354
1.03572 0.999598 1.03699 0.999173
1.044 0.996209 1.04855 0.999446
1.03555 0.999223 1.03733 0.999068
1.00067 1 1.00237 0.9983
1.00012 1 1.00184 0.998287
0.999625 1 1.00113 0.998499
0.998837 1 1.00015 0.998686
1.00141 1 1.00299 0.998423
1.002 1 1.00355 0.998451
1.0028 1 1.00418 0.998632
1.00101 1 1.00255 0.998464
1.00713 0.999163 1.00902 0.998963
0.99676 1.0003 0.997979 0.998476
0.999764 1.00054 1.00084 0.998384
0.998671 1 1.00069 0.997978
1.00154 1.0031 1.00153 0.996915
1.00269 1.00005 1.00455 0.998101
0.998786 1 1.00079 0.997995
1.00388 1 1.00567 0.99822
1.00685 1 1.00851 0.998347
1.003 1 1.0047 0.99831
1.00342 1 1.00492 0.998511
0.999336 1 1.00047 0.998871
1.00086 1 1.00224 0.998622
0.998972 1 1 0.998972
0.999557 1 1 0.999557
0.998998 1 1 0.998998
0.999576 1 1 0.999576
0.999987 1 1 0.999987
0.99959 1 1 0.99959
0.999993 1 1 0.999993
1 1 1 1
0.999998 1 1 0.999998
1 1 1 1
1 1 1 1
0.999135 1 1 0.999135
0.999858 1 1 0.999858
0.999302 1 1 0.999302
1 1 1 1
0.999904 1 1 0.999904
0.999372 1 1 0.999372
1 1 1 1
1 1 1 1
0.999924 1 1 0.999924
1 1 1 1
1 1 1 1
1 1 1 1
0.721778 0.822782 0.929421 0.943858
0.766516 0.863479 0.928688 0.955872
0.805273 0.90712 0.93665 0.947766
0.683981 0.804624 0.906505 0.937735
0.920182 0.968131 0.962048 0.987968
1.00192 1.02648 0.978916 0.997095
0.93271 0.986817 0.969081 0.975326
0.744097 0.844706 0.920726 0.956739
0.632083 0.788192 0.863472 0.928739
0.950653 0.990744 0.967294 0.991979
0.907204 0.968653 0.965717 0.96981
0.738663 0.845573 0.915488 0.954208
0.702085 0.852943 0.880949 0.934371
0.924939 0.975883 0.957901 0.989451
0.881378 0.929608 0.978292 0.969157
0.760664 0.865422 0.92428 0.950958
0.759946 0.90488 0.895234 0.938113
1.00172 1 1.00347 0.99826
0.999337 1 1.00074 0.998595
0.999047 1 1 0.999047
0.998822 1 1 0.998822
0.998552 1 1.0004 0.998151
0.998899 1 1.00035 0.998549
0.998674 1 1 0.998674
0.99855 1 1 0.99855
0.998629 1 1.00001 0.998622
0.998821 1 1 0.998821
0.981279 1.02898 0.955758 0.997782
0.98296 1.00776 0.977899 0.997434
0.972505 1.00129 0.973409 0.997785
0.991321 1.00326 0.990178 0.997903
1.03593 1 1.03825 0.997765
1.01047 1 1.01236 0.998127
1.00626 1 1.00821 0.998066
1.00785 1 1.00986 0.998009
0.975855 1.00395 0.973988 0.997972
1.00869 1 1.01077 0.997939
1.02751 1 1.02963 0.997948
0.967999 0.999599 0.969966 0.998372
1.00969 1.00196 1.00959 0.998143
0.951915 0.98155 0.971402 0.99836
0.982333 0.988025 0.995001 0.999234
1.03918 0.999641 1.04122 0.998396
1.0048 1 1.00685 0.997958
1.01878 1 1.02077 0.998046
0.838875 0.921106 0.950358 0.958297
0.754301 0.839399 0.947458 0.948454
0.764737 0.861278 0.929082 0.955685
1.00344 0.999804 1.00504 0.998605
1.01549 1.00065 1.01636 0.998504
0.983722 0.991182 0.993617 0.998849
0.731864 0.828251 0.93552 0.944529
0.879924 0.929713 0.976258 0.969464
0.88504 0.92855 0.966739 0.985935
0.955473 0.957574 0.999299 0.998505
0.755919 0.855511 0.92417 0.956088
0.818601 0.914186 0.944474 0.948086
0.758634 0.899524 0.89399 0.943381
1.00581 0.998798 1.00764 0.999381
0.82579 0.91356 0.945234 0.956297
0.799192 0.905583 0.926397 0.952633
0.988112 0.974985 1.01392 0.999545
0.924049 0.937762 0.994582 0.990745
0.863716 0.916669 0.973245 0.968135
0.792701 0.934798 0.898905 0.943361
0.818058 0.894785 0.959983 0.952362
1.00162 0.979166 1.02323 0.999711
0.809948 0.900321 0.934615 0.962559
0.82512 0.929685 0.929924 0.954407
0.758839 0.903535 0.895039 0.938345
0.961382 0.950323 1.01404 0.997628
0.91824 0.938516 1.00573 0.972825
0.863191 0.931821 0.970819 0.954194
1.00747 0.998721 1.00971 0.99906
1.02311 0.996388 1.02757 0.99927
1.02268 0.98458 1.03915 0.999566
1.00042 1 1.00223 0.998192
1.00538 1 1.00705 0.998345
1.0402 0.999705 1.04129 0.999251
1.00114 1 1.00284 0.998305
1.03475 0.999309 1.03642 0.999079
1.0457 0.995994 1.05051 0.999421
1.03438 0.991601 1.04367 0.999489
1.0218 0.998528 1.02427 0.999058
1.00102 1 1.00258 0.998443
1.0015 1 1.00305 0.998452
1.00342 1 1.00478 0.998653
1.00647 0.999467 1.00808 0.998934
1.00062 1 1.00216 0.998462
1.0018 1 1.00296 0.998845
0.997793 1.00011 0.99893 0.998753
1.00229 1.00029 1.00448 0.997532
1.0003 1.00106 1.00084 0.998404
0.999259 1.00081 1.00057 0.997887
0.998772 1.00111 1.00101 0.996652
1.01326 1.01541 1.00129 0.996592
1.00237 1.00187 1.00276 0.997745
1.0004 1.00206 1.00138 0.996969
1.00904 1 1.01092 0.99814
1.00383 1.0005 1.00524 0.998097
0.998878 1 1.00065 0.998234
1.00383 1 1.00561 0.998233
1.00615 1 1.00778 0.998382
1.00046 1 1.00173 0.998733
1.00327 1 1.00476 0.99851
0.999344 1 1.00047 0.998872
0.999494 1 1 0.999494
0.998969 1 1 0.998969
0.999555 1 1 0.999555
0.999981 1 1 0.999981
0.999577 1 1 0.999577
0.999985 1 1 0.999985
1 1 1 1
0.999991 1 1 0.999991
1 1 1 1
1 1 1 1
0.998885 1 1 0.998885
0.999665 1 1 0.999665
0.999133 1 1 0.999133
1 1 1 1
0.999808 1 1 0.999808
0.999229 1 1 0.999229
1 1 1 1
1 1 1 1
0.999909 1 1 0.999909
1 1 1 1
1 1 1 1
1 1 1 1
0.825797 0.918528 0.941131 0.95528
0.720656 0.822677 0.925863 0.946133
0.762133 0.859206 0.928435 0.955394
0.99843 1 1 0.99843
0.805675 0.903805 0.933368 0.955064
0.804081 0.906743 0.935797 0.947619
0.688868 0.812495 0.901956 0.940005
0.958617 0.993756 0.973533 0.990866
0.902648 0.959898 0.96582 0.973637
0.74174 0.85802 0.908777 0.951255
0.696719 0.840613 0.885627 0.93586
0.922226 0.971663 0.962122 0.986487
0.884009 0.932428 0.974822 0.97256
0.767135 0.863371 0.933901 0.951422
0.756121 0.899629 0.895239 0.938834
0.880799 0.93113 0.96192 0.983395
0.876577 0.915188 0.987557 0.96988
0.831639 0.90648 0.962891 0.952795
0.794005 0.934625 0.901159 0.942725
1.0011 1 1.00307 0.998035
1.00296 1 1.00475 0.998215
0.998857 1 1.00022 0.998641
0.998248 1 1.00002 0.998232
0.998784 1 1.00056 0.998221
0.998594 1 1 0.998594
0.998556 1 1 0.998556
0.998685 1 1.00003 0.99866
0.97279 1.00465 0.970246 0.997982
0.966586 1.00075 0.967442 0.998365
1.00742 1 1.00947 0.997968
1.00607 1.00297 1.005 0.998098
1.02931 1 1.03145 0.997931
1.00822 1 1.01032 0.997926
1.0053 1 1.00735 0.99797
0.955513 0.981402 0.975115 0.998468
1.01711 1 1.01908 0.998071
1.02872 1.00032 1.03 0.998431
0.979355 0.98935 0.990605 0.999286
1.00733 1 1.00923 0.998112
0.94756 0.966176 0.982555 0.998144
1.00196 0.98552 1.01722 0.999475
1.05101 0.997261 1.05544 0.998536
1.01594 1 1.01773 0.998238
0.819784 0.903002 0.940412 0.965368
0.838429 0.921203 0.949876 0.958174
0.756569 0.838391 0.952152 0.947754
1.00375 0.998648 1.00578 0.999335
0.99106 0.978002 1.01398 0.99938
0.825511 0.914868 0.942081 0.957804
0.889534 0.917772 0.996813 0.97233
0.912976 0.935428 0.988403 0.98745
0.816588 0.893823 0.960693 0.950969
0.800091 0.906737 0.926205 0.952688
0.793895 0.935327 0.899198 0.94394
1.00611 0.986071 1.02066 0.999669
0.811572 0.901755 0.93503 0.962527
0.824534 0.927471 0.929427 0.956518
0.970351 0.955778 1.01587 0.999392
0.754545 0.897925 0.894941 0.938968
0.895383 0.921983 1.00063 0.970537
0.868901 0.938 0.971268 0.953737
0.999473 0.973574 1.02686 0.999746
0.835674 0.922776 0.938546 0.964906
0.803122 0.90053 0.933547 0.955317
0.699872 0.848115 0.880751 0.936938
0.830087 0.905632 0.962513 0.952282
0.949725 0.949127 1.00592 0.994745
0.926327 0.936706 1.02284 0.96684
1.02059 0.997081 1.02441 0.999188
1.02486 0.985381 1.04055 0.999534
1.01239 0.973597 1.04028 0.999582
1.00181 1 1.0035 0.998311
1.03716 0.999372 1.03876 0.999091
1.04882 0.997039 1.05257 0.999396
1.01691 0.998793 1.01911 0.999045
1.03434 0.993396 1.04174 0.999488
1.01052 0.98858 1.02298 0.999235
1.00578 0.999829 1.00705 0.998905
1.00038 1 1.00192 0.998461
1.00438 1 1.00557 0.998824
1.01082 0.999866 1.01284 0.998136
0.999028 1 1 0.999028
0.999967 1.00023 1.00201 0.997727
1.00225 1.00101 1.00494 0.996322
1.00524 1.00746 1.00188 0.995932
0.999903 1.00171 1.0004 0.997792
0.99932 1.0017 1.00116 0.996463
1.01441 1.01725 1.00053 0.996681
1.00826 1.00843 1.00261 0.997219
1.0123 1.0144 1.00125 0.996685
1.00748 1 1.00955 0.997942
1.00475 1.00369 1.00335 0.997719
0.998974 1.00067 1.00128 0.997025
1.00489 1 1.00637 0.998539
1.00836 1 1.01023 0.998158
1.00506 1.00094 1.00603 0.998093
1.00573 1 1.00733 0.998417
1.00103 1 1.0023 0.998733
0.999527 1 1.00015 0.999376
0.999552 1 1.00068 0.998872
0.99949 1 1 0.99949
0.999975 1 1 0.999975
0.999552 1 1 0.999552
0.99998 1 1 0.99998
1 1 1 1
0.999984 1 1 0.999984
1 1 1 1
1 1 1 1
0.998797 1 1 0.998797
0.999514 1 1 0.999514
0.998931 1 1 0.998931
1 1 1 1
0.999649 1 1 0.999649
0.999131 1 1 0.999131
1 1 1 1
1 1 1 1
0.999757 1 1 0.999757
1 1 1 1
1 1 1 1
1 1 1 1
0.816349 0.903293 0.937861 0.963627
0.828364 0.918034 0.944575 0.955269
0.721322 0.822563 0.926684 0.9463
0.998466 1 1 0.998466
0.998393 1 1 0.998393
0.998343 1 1 0.998343
0.824595 0.931289 0.927971 0.954162
0.802242 0.903232 0.929906 0.95514
0.80313 0.906137 0.935449 0.947485
0.928292 0.977082 0.961116 0.988503
0.866221 0.925519 0.965834 0.969038
0.76008 0.848328 0.937443 0.955763
0.767095 0.908443 0.900805 0.93739
0.883203 0.93586 0.956988 0.98615
0.884929 0.920714 0.990646 0.970209
0.811784 0.884706 0.962181 0.95364
0.792771 0.935138 0.89878 0.943233
0.882638 0.926 0.968777 0.983893
0.90011 0.926226 1.00048 0.971336
0.86315 0.929847 0.972564 0.954458
0.769342 0.910481 0.898062 0.940897
0.998763 1 1.00064 0.998121
1.00176 1 1.00376 0.998004
1.00286 1 1.0047 0.99817
0.998232 1 1.00001 0.998221
0.998629 1 1.00034 0.998291
0.998562 1 1 0.998562
0.957356 0.978202 0.980101 0.99856
0.974952 0.988532 0.986932 0.999321
1.00561 1 1.00764 0.997982
1.02017 1.00052 1.02121 0.998466
1.01752 1 1.01946 0.998095
1.00943 1 1.01135 0.998109
1.01369 0.998766 1.0167 0.998265
0.954964 0.966271 0.990043 0.998238
1.04853 0.996447 1.05366 0.998678
1.00599 0.981451 1.02565 0.999369
1.00925 0.998135 1.01273 0.998423
0.976288 0.960588 1.01842 0.997965
1.00705 0.976863 1.03156 0.999369
1.03499 0.986743 1.05016 0.998792
0.848543 0.928118 0.94512 0.96735
0.821659 0.903695 0.941352 0.965867
0.837847 0.921206 0.949336 0.95805
1.01157 0.992756 1.01933 0.999627
0.959205 0.952768 1.00863 0.998147
0.812978 0.902712 0.935686 0.962497
0.89131 0.910455 1.00448 0.974607
0.863672 0.935592 0.969946 0.951733
0.824812 0.925932 0.929238 0.958626
0.767673 0.907592 0.902088 0.937642
0.995207 0.970789 1.02538 0.999779
0.836559 0.922228 0.939327 0.965698
0.804143 0.903414 0.93167 0.955397
0.945554 0.944693 1.01005 0.990952
0.700286 0.851028 0.880362 0.934695
0.806527 0.882487 0.959155 0.952843
0.935583 0.943151 1.02093 0.971636
1.00208 0.958843 1.04631 0.998836
0.817192 0.902332 0.939679 0.963781
0.813367 0.912811 0.939776 0.948159
0.624092 0.762475 0.872125 0.93852
0.753223 0.85827 0.92294 0.95088
0.900431 0.922871 1.00524 0.970596
0.923938 0.939954 0.99473 0.988169
1.02652 0.986027 1.04158 0.999501
1.01693 0.980485 1.0376 0.999586
1.01096 0.984102 1.02779 0.999512
1.01135 0.999146 1.01319 0.999032
1.03162 0.994661 1.03769 0.999487
1.01424 0.986383 1.02895 0.999319
1.00832 0.999693 1.00984 0.998803
1.00706 1 1.00827 0.998802
1.00871 0.999956 1.01083 0.997947
1.02083 1.00085 1.02352 0.996533
0.997546 1.00005 0.999568 0.997925
1.00372 1.00129 1.00612 0.996324
1.00452 1.00252 1.00658 0.995446
1.00624 1.00884 1.00191 0.995521
1.00814 1.0108 1.00108 0.996293
1.00514 1.00733 1.00195 0.99588
0.999593 1.00209 1.00124 0.996275
1.00713 1.00906 1.0011 0.99699
1.01473 1.01753 1.00048 0.996767
1.00261 1.00046 1.00464 0.997529
1.00989 1.00987 1.00274 0.997289
1.01193 1.01402 1.00117 0.996778
1.00904 1 1.01083 0.998232
1.00701 1.00044 1.00865 0.99794
1.0072 1.00568 1.00383 0.997691
0.999974 1 1.00075 0.999223
1.00425 1 1.00573 0.998537
1.00728 1 1.00912 0.998176
1.00095 1 1.00222 0.998732
0.999595 1 1.00022 0.999371
0.999957 1 1 0.999957
0.999485 1 1 0.999485
0.999971 1 1 0.999971
1 1 1 1
0.999979 1 1 0.999979
1 1 1 1
1 1 1 1
0.99876 1 1 0.99876
0.999493 1 1 0.999493
0.998825 1 1 0.998825
0.999998 1 1 0.999998
0.999557 1 1 0.999557
0.998977 1 1 0.998977
1 1 1 1
1 1 1 1
0.999633 1 1 0.999633
1 1 1 1
1 1 1 1
1 1 1 1
0.834879 0.922645 0.937978 0.96471
0.818941 0.90414 0.939981 0.963603
0.830033 0.917 0.947524 0.955291
1.00042 1 1.00215 0.998279
1.00067 1 1.00253 0.998146
0.998502 1 1 0.998502
0.99838 1 1 0.99838
0.998336 1 1 0.998336
0.998601 1 1.00028 0.998323
0.99831 1 1 0.99831
0.800817 0.909185 0.924886 0.952342
0.826831 0.92939 0.930302 0.9563
0.801029 0.901604 0.930098 0.95522
0.792361 0.935767 0.897211 0.943757
0.879016 0.933324 0.957396 0.983723
0.884389 0.916754 0.99404 0.97048
0.820312 0.896238 0.958303 0.955108
0.872912 0.927141 0.957853 0.982936
0.899008 0.9188 1.01099 0.967823
0.867493 0.936355 0.97072 0.954401
0.755761 0.898521 0.891797 0.943169
0.900119 0.931758 0.980147 0.985611
0.913077 0.928949 1.01594 0.967491
0.807165 0.890798 0.952444 0.951357
0.717711 0.861282 0.88896 0.937394
1.01608 1 1.0177 0.998405
1.00034 1 1.00221 0.998141
1.00282 1 1.00486 0.997973
0.99821 1 1 0.99821
0.962792 0.966766 0.997522 0.998364
1.00813 0.979423 1.03007 0.999258
1.00881 1 1.01072 0.998105
1.01137 0.99878 1.01434 0.998293
1.04044 0.99383 1.04813 0.998821
1.00807 0.999457 1.01021 0.998423
1.03727 0.986982 1.05224 0.998779
0.97568 0.960267 1.01947 0.996642
1.00548 0.967721 1.03952 0.999517
1.01109 0.988324 1.02416 0.998906
0.953404 0.930111 1.02892 0.99623
1.01055 0.964196 1.04881 0.999296
0.821023 0.902547 0.942203 0.965474
0.846542 0.927193 0.942659 0.968554
0.823451 0.904201 0.942395 0.966363
0.990513 0.966361 1.02519 0.999805
0.951457 0.9489 1.00764 0.995091
0.835478 0.920803 0.938785 0.9665
0.934667 0.946474 1.02068 0.967513
0.811153 0.889725 0.955259 0.95439
0.805099 0.905439 0.93062 0.955472
0.69595 0.838924 0.88615 0.936155
1.00324 0.961348 1.0446 0.999018
0.818498 0.905161 0.938258 0.963761
0.807508 0.908207 0.937876 0.948018
0.926406 0.940205 0.994573 0.9907
0.626938 0.774021 0.867186 0.934029
0.758307 0.855962 0.931491 0.951068
0.899462 0.920176 1.00965 0.968142
0.995147 0.96705 1.03184 0.997299
0.827326 0.920383 0.94069 0.955568
0.68786 0.805954 0.908193 0.939749
0.727016 0.8393 0.90553 0.956586
0.86689 0.903395 0.988029 0.971217
0.88825 0.919721 0.981092 0.984395
1.02249 0.984649 1.03886 0.99959
1.01274 0.981468 1.03237 0.999512
0.984367 0.978964 1.00621 0.999309
1.01901 0.984689 1.03547 0.999402
1.0058 0.992207 1.01483 0.998893
1.00193 1.0008 1.00337 0.99777
1.00681 1.00003 1.00905 0.997758
1.01859 1.00079 1.02144 0.996421
1.0103 1.00045 1.01434 0.995569
1.00548 1.00185 1.00733 0.996326
1.0052 1.00229 1.00759 0.995355
1.00182 1.00222 1.00448 0.995146
1.02206 1.02648 1 0.995692
1.0142 1.01769 1.00077 0.995813
1.00655 1.00894 1.00218 0.995464
1.00588 1.00919 1.00013 0.996594
1.00691 1.00984 1.00074 0.996357
1.00509 1.00714 1.00215 0.995828
1.00431 1.00616 1.00112 0.997051
1.00698 1.00896 1.00108 0.996965
1.01478 1.01755 1.00043 0.996852
1.00589 1.00028 1.00779 0.997834
1.00342 1.0012 1.00463 0.997597
1.01124 1.01101 1.00288 0.99736
1.00309 1 1.00414 0.998957
1.0077 1 1.00948 0.998237
1.0066 1.00088 1.0078 0.997937
0.999923 1 1 0.999923
1.00057 1 1.00135 0.999216
1.004 1 1.00547 0.998535
0.999818 1 1.00045 0.999367
0.999949 1 1 0.999949
1 1 1 1
0.999966 1 1 0.999966
1 1 1 1
1 1 1 1
1.00315 1 1.00489 0.99827
0.999025 1 1.00041 0.998613
0.99937 1 1 0.99937
0.998756 1 1 0.998756
0.999985 1 1 0.999985
0.999495 1 1 0.999495
0.998852 1 1 0.998852
1 1 1 1
0.999999 1 1 0.999999
0.9996 1 1 0.9996
1 1 1 1
1 1 1 1
1 1 1 1
0.809798 0.900594 0.934277 0.962436
0.832884 0.920301 0.937333 0.965519
0.819786 0.906498 0.938531 0.963573
1.00079 1 1.00251 0.99829
1.00213 1 1.00399 0.998149
1.00051 1 1.00233 0.998178
1.00168 1 1.00352 0.998159
1.00687 1 1.00877 0.998115
0.99846 1 1.00009 0.998367
0.99833 1 1 0.99833
0.998484 1 1.00016 0.998326
0.998315 1 1 0.998315
1.00974 1 1.01138 0.998375
0.800103 0.899368 0.938211 0.948218
0.801115 0.908092 0.926237 0.952451
0.828264 0.928662 0.930575 0.958428
0.758181 0.900782 0.892214 0.943374
0.864665 0.934304 0.972036 0.952088
0.868108 0.92283 0.95839 0.981545
0.908004 0.927415 1.00836 0.970955
0.896098 0.934707 0.975748 0.982522
0.922514 0.939973 1.01072 0.971021
0.82145 0.895138 0.962701 0.953234
0.717552 0.867814 0.883082 0.936323
0.91065 0.926424 0.99809 0.984854
0.904563 0.920996 1.01081 0.971658
0.739381 0.832826 0.929292 0.955348
0.658295 0.805182 0.871631 0.93798
1.01568 1 1.01672 0.998977
1.01747 1 1.01908 0.998416
1.00315 1 1.005 0.998161
0.97777 0.962605 1.02059 0.995264
1.00779 0.961529 1.04845 0.999675
1.00806 1 1.00965 0.998423
1.04078 0.98634 1.05649 0.998767
1.01289 0.991505 1.02268 0.998913
1.0165 0.9716 1.04696 0.999284
0.959195 0.940512 1.02378 0.996179
1.01688 0.992169 1.02558 0.999345
0.97123 0.957505 1.0177 0.996696
0.837725 0.920868 0.949688 0.957907
0.824103 0.904352 0.943372 0.965965
0.844337 0.925968 0.940274 0.969763
1.00471 0.967554 1.03926 0.999176
0.922115 0.937186 0.997407 0.986476
0.822304 0.907942 0.93976 0.963734
0.902738 0.927358 1.00532 0.968303
0.749878 0.838891 0.935662 0.955358
0.801177 0.90358 0.935401 0.947902
0.631713 0.786797 0.863839 0.929447
0.993172 0.965403 1.03132 0.997524
0.828101 0.917559 0.94449 0.955547
0.68437 0.804346 0.906704 0.938388
0.897322 0.92905 0.979703 0.985859
0.740151 0.846601 0.915766 0.954679
0.862665 0.910403 0.977946 0.968932
0.952876 0.952114 1.00499 0.995833
0.722314 0.823663 0.928624 0.944357
0.73588 0.839564 0.915732 0.95716
0.878012 0.92956 0.974509 0.969252
0.866454 0.918016 0.956552 0.986704
1.01173 0.978604 1.03436 0.999513
0.986991 0.976414 1.01156 0.999284
0.995215 0.992467 1.00433 0.998449
1.00229 0.983506 1.02014 0.998979
1.00178 1.00077 1.00316 0.997856
0.997965 1.00202 0.999119 0.996833
1.01621 1.00069 1.01927 0.996308
1.00901 1.00088 1.01261 0.995573
0.999158 1.00198 1.00137 0.995817
1.00543 1.00198 1.00822 0.995265
1.00206 1.0032 1.0037 0.99518
1.01981 1.02399 1 0.995915
1.04372 1.0476 1 0.996297
1.03229 1.03665 1.00002 0.995777
1.02218 1.02657 1 0.995722
1.01677 1.02075 1 0.9961
1.0128 1.01602 1.00107 0.995759
1.00716 1.00935 1.00244 0.995408
1.00894 1.01223 1 0.996751
1.0043 1.00763 1.00002 0.996668
1.00545 1.00874 1.00032 0.996421
1.00158 1.00208 1.00208 0.997429
1.00354 1.00517 1.0013 0.997088
1.00706 1.00904 1.0011 0.996939
1.00786 1 1.00936 0.998513
1.00662 1.00068 1.00811 0.997837
1.00427 1.00182 1.0048 0.997665
0.999893 1 1.00003 0.999862
1.00361 1 1.00466 0.998949
1.00699 1 1.00877 0.998243
0.999996 1 1 0.999996
0.999911 1 1 0.999911
1.00105 1 1.00184 0.999209
0.99994 1 1 0.99994
1 1 1 1
1 1 1 1
1.0055 1 1.00735 0.998165
1.00099 1 1.00254 0.99846
1.00393 1 1.00569 0.99825
0.999418 1 1.00018 0.999241
0.999246 1 1.00064 0.998611
0.999961 1 1 0.999961
0.999374 1 1 0.999374
0.998753 1 1 0.998753
1 1 1 1
0.99999 1 1 0.99999
0.999498 1 1 0.999498
1 1 1 1
1 1 1 1
1 1 1 1
0.824606 0.915069 0.940469 0.958181
0.813236 0.903147 0.935616 0.962412
0.833143 0.917693 0.939499 0.966331
0.999116 1.00055 1.00039 0.998177
1.00102 1 1.00273 0.998301
1.00188 1 1.00374 0.998153
1.00027 1 1.00212 0.99815
1.00046 1 1.00227 0.998202
1.00419 1 1.00599 0.998215
1.01217 1 1.01439 0.997808
1.01538 1 1.01723 0.998177
0.998363 1 1.00003 0.998329
0.99832 1 1 0.99832
1.0098 1 1.01146 0.998359
1.0234 0.999571 1.0253 0.998571
0.696689 0.811578 0.913803 0.939411
0.811384 0.910156 0.94041 0.947967
0.801967 0.907854 0.927385 0.952534
0.711312 0.860846 0.87996 0.939014
0.821401 0.897523 0.961038 0.952289
0.91682 0.933226 1.01535 0.967564
0.895985 0.926662 0.983367 0.983249
0.909197 0.92653 0.994381 0.986837
0.645596 0.796716 0.867985 0.933565
0.898602 0.920101 1.00839 0.968507
0.756778 0.85274 0.931698 0.952526
0.909655 0.935594 0.984001 0.988084
0.888324 0.920924 0.991526 0.972845
0.727109 0.839346 0.906922 0.955188
0.996462 1 0.996922 0.999539
1.0149 1 1.01593 0.998982
1.01767 1 1.01927 0.998428
0.958492 0.942311 1.02105 0.996205
1.0227 0.979073 1.04532 0.999273
1.01425 0.995285 1.02016 0.99892
1.01601 0.992347 1.02452 0.999344
0.967629 0.956019 1.01545 0.996741
0.992332 0.985871 1.00876 0.997808
0.75417 0.839635 0.949578 0.945907
0.834848 0.920028 0.945418 0.959804
0.8244 0.905308 0.942246 0.966446
0.994347 0.96456 1.03328 0.997677
0.887447 0.9248 0.972514 0.986732
0.826702 0.914883 0.945633 0.955566
0.869773 0.903078 0.992954 0.969955
0.745321 0.861189 0.90925 0.951835
0.690375 0.812943 0.902848 0.940612
0.953572 0.949369 1.00856 0.995904
0.721393 0.823292 0.925669 0.94659
0.735213 0.841738 0.915197 0.95438
0.865824 0.919181 0.957844 0.983409
0.882622 0.935059 0.970489 0.972624
0.947201 0.96298 0.985596 0.99799
0.756999 0.853247 0.92972 0.954264
0.915987 0.971666 0.967641 0.974223
0.874191 0.931505 0.954544 0.983162
0.989951 0.974532 1.01657 0.999264
0.986708 0.992258 0.995862 0.998538
0.994736 1.00113 0.996045 0.997563
1.00214 1.00089 1.00332 0.997941
1.00119 1.00249 1.0019 0.996811
1.00045 1.00425 0.999428 0.996793
1.00778 1.00126 1.01098 0.995577
0.999049 1.00157 1.00167 0.995825
1.02419 1.02876 0.998808 0.996745
1.00237 1.004 1.00319 0.995214
1.01863 1.0228 1 0.995926
1.04435 1.04823 0.999394 0.996904
1.04668 1.05001 0.99987 0.996958
1.04612 1.05009 1 0.996213
1.04412 1.04795 1 0.996343
1.0339 1.03805 1 0.996001
1.03064 1.03494 1 0.995838
1.02185 1.02621 1 0.995751
1.02262 1.02628 1 0.996438
1.01704 1.02085 1.00014 0.996126
1.0115 1.01436 1.00148 0.995705
1.00495 1.00789 1 0.997084
1.00878 1.01207 1 0.996746
1.00268 1.00596 1 0.996743
1.00345 1.00026 1.00514 0.998066
1.00329 1.00353 1.00234 0.997425
1.00243 1.00387 1.00145 0.997125
1.00095 1 1.00123 0.999719
1.00579 1 1.00729 0.99851
1.00641 1.00112 1.00747 0.99784
1 1 1 1
1.00021 1 1.00037 0.999839
1.00349 1 1.00455 0.998941
1 1 1 1
0.999899 1 1 0.999899
1 1 1 1
1.00028 1.0004 1.00184 0.99804
1.00431 1 1.00618 0.998149
1.00461 1 1.00631 0.998313
1.00024 1 1.00114 0.999103
1.00151 1 1.00305 0.998457
1.00421 1 1.00599 0.998229
0.999927 1 1 0.999927
0.999271 1 1.00003 0.999246
0.999009 1 1.0004 0.998608
1 1 1 1
0.999969 1 1 0.999969
0.999378 1 1 0.999378
1 1 1 1
0.999994 1 1 0.999994
1 1 1 1
0.727629 0.824559 0.93732 0.941457
0.826053 0.916413 0.940719 0.958201
0.816946 0.905973 0.936973 0.96239
1.00138 1.0002 1.00304 0.998156
1.00542 1.00265 1.00495 0.997825
1.00928 1.00012 1.01119 0.99799
1.00162 1 1.00349 0.998141
1.0002 1 1.00198 0.998224
1.00453 1 1.00623 0.998315
1.0143 1 1.01619 0.998138
1.01177 1.00004 1.01388 0.997868
1.01458 1.00067 1.01618 0.997762
0.987023 1.00102 0.987037 0.998969
1.0083 1 1.00998 0.998342
1.01941 0.999793 1.0211 0.998548
0.735784 0.838125 0.922115 0.952043
0.681469 0.797767 0.911762 0.93689
0.818837 0.916351 0.942781 0.947817
0.633595 0.787373 0.866169 0.929028
0.758805 0.855539 0.928175 0.955566
0.886792 0.914701 0.999063 0.970398
0.91565 0.932457 0.99772 0.98422
0.898328 0.927524 0.982462 0.985811
0.729847 0.833917 0.917602 0.953795
0.870263 0.910349 0.985576 0.969957
0.88606 0.933125 0.961945 0.987128
0.867939 0.93309 0.959172 0.969771
1.00282 1 1.0038 0.999021
0.996808 1 0.997323 0.999484
1.01426 1 1.01529 0.998987
0.964166 0.954883 1.01297 0.996789
1.01482 0.991812 1.02387 0.999344
0.993349 0.987416 1.00828 0.997748
0.979077 0.991122 0.991005 0.996813
0.769985 0.869901 0.923864 0.958086
0.753632 0.837979 0.950139 0.94654
0.836179 0.921556 0.943527 0.961663
0.956837 0.956184 1.00464 0.996066
0.868752 0.918985 0.960788 0.98392
0.72248 0.823837 0.926321 0.946723
0.862718 0.924999 0.962122 0.969388
0.746884 0.847203 0.920854 0.957359
0.95036 0.965449 0.987413 0.99692
0.766955 0.863113 0.929256 0.95624
0.910408 0.971234 0.966298 0.970065
0.877644 0.933937 0.953322 0.985737
0.958731 0.984062 0.976345 0.997864
0.920905 0.979519 0.965696 0.973557
0.920822 0.97499 0.955834 0.988082
0.977618 0.990992 0.987874 0.998613
0.990945 1.00152 0.991886 0.997535
0.981979 1.0078 0.976904 0.997417
1.00314 1.00281 1.00356 0.99679
0.999796 1.00438 0.998648 0.996789
1.02366 1.03656 0.99008 0.997448
0.99887 1.00118 1.00186 0.995834
1.0231 1.02847 0.998046 0.996725
1.03899 1.04995 0.99205 0.997489
1.01772 1.02187 1 0.995937
1.04331 1.04776 0.998846 0.996897
1.04436 1.05084 0.996364 0.997457
1.04324 1.04701 0.999062 0.997335
1.04756 1.05101 0.999688 0.99703
1.04566 1.049 1 0.996808
1.0476 1.05151 1 0.996277
1.04614 1.05009 1 0.996231
1.04483 1.04862 1 0.996388
1.03542 1.03932 1 0.996243
1.03559 1.03972 1 0.996032
1.029 1.03323 1 0.995899
1.01675 1.02003 1 0.996785
1.02193 1.02559 1 0.996435
1.01724 1.02099 1.00017 0.996152
0.999253 1.00123 1.00026 0.997764
1.00651 1.00945 1 0.997081
1.00931 1.01261 1 0.996741
1.0018 1 1.00233 0.99947
1.0033 1.00049 1.00475 0.998067
1.00557 1.00516 1.003 0.997421
1 1 1 1
1.00166 1 1.00197 0.999694
1.00483 1 1.00634 0.998507
0.999994 1 1 0.999994
1.00078 1 1.00095 0.999825
1 1 1 1
0.999085 1.00115 1 0.997934
1.00122 1.00027 1.00289 0.998058
1.00456 1 1.00641 0.99817
1.00247 1 1.00434 0.998133
1.00492 1 1.00661 0.998314
1.00221 1 1.00328 0.998936
0.999882 1 1 0.999882
0.999989 1 1.00088 0.999105
1.00255 1 1.0041 0.998455
1 1 1 1
0.999938 1 1 0.999938
0.99925 1 1 0.99925
1 1 1 1
0.999976 1 1 0.999976
1 1 1 1
0.765072 0.858175 0.932447 0.956098
0.730277 0.826517 0.937809 0.942153
0.826074 0.916844 0.940287 0.958215
1.00394 1 1.00581 0.998135
1.01147 1 1.01367 0.997832
1.00317 1.00164 1.00363 0.9979
1.00374 1.00583 1.00092 0.997
1.01155 1.00126 1.01246 0.997839
1.01295 1 1.01487 0.9981
1.00992 1 1.01201 0.997928
1.01721 1.00065 1.01874 0.997846
0.99926 1.00248 0.999247 0.997543
0.977701 1.00174 0.977423 0.998546
0.975928 1.00035 0.977831 0.997703
0.987025 1.00086 0.987161 0.999007
1.014 1 1.01549 0.998525
0.899538 0.961842 0.961871 0.972297
0.731675 0.833681 0.920612 0.953326
0.679986 0.797685 0.909037 0.937751
0.727293 0.837449 0.913344 0.950861
0.880784 0.921447 0.985465 0.969969
0.902365 0.923754 0.988547 0.988163
0.886889 0.932014 0.962341 0.98882
0.888873 0.938654 0.972617 0.973627
0.912829 0.967866 0.954645 0.987945
0.993847 1.00132 0.994311 0.998218
1.00195 1 1.00296 0.998999
0.997311 1 0.997881 0.999428
0.995423 0.990257 1.00751 0.997729
0.984781 0.994215 0.993442 0.997049
0.897131 0.966623 0.954217 0.972639
0.776837 0.868376 0.933407 0.958409
0.752155 0.834748 0.951275 0.947208
0.955247 0.970711 0.988232 0.995788
0.882834 0.940112 0.954981 0.983342
0.764099 0.859759 0.929878 0.955756
0.902441 0.960011 0.965503 0.973618
0.965894 0.98375 0.983871 0.997946
0.930429 0.989541 0.964993 0.974373
0.917854 0.970773 0.959347 0.985553
0.976047 1.00381 0.974936 0.997339
0.949091 0.99343 0.963327 0.991738
0.991406 1.00393 0.989972 0.99753
0.98074 1.00754 0.975972 0.99737
0.995636 1.03561 0.963605 0.997717
0.99922 1.00433 0.998123 0.996784
1.02492 1.03734 0.990579 0.99742
1.03609 1.05772 0.981734 0.997774
1.02187 1.02814 0.997194 0.996706
1.03858 1.0501 0.991546 0.997465
1.03363 1.04961 0.987041 0.9977
1.04199 1.04707 0.998251 0.99689
1.0442 1.05115 0.995939 0.997436
1.04162 1.04999 0.994476 0.997536
1.04341 1.04742 0.998772 0.99739
1.04178 1.04534 0.999445 0.997147
1.0482 1.05179 0.999482 0.997102
1.04549 1.04885 1 0.9968
1.04753 1.0511 1 0.9966
1.0448 1.04867 1 0.996309
1.04741 1.05133 1 0.996265
1.04613 1.05007 1 0.996249
1.03004 1.03358 1 0.996574
1.03521 1.0391 1 0.996251
1.03739 1.04149 1 0.996062
1.00273 1.00521 1 0.997536
1.01642 1.0197 1 0.996783
1.02102 1.02468 1 0.996432
1.0003 1 1.00111 0.99919
1.00055 1.00228 1.0005 0.997765
1.00776 1.01071 1 0.997077
1 1 1 1
1.00155 1 1.00211 0.999445
1.00265 1.00072 1.00387 0.998068
1 1 1 1
1.00198 1 1.00231 0.999669
1 1 1 1
1.00475 1.00764 1 0.997136
0.999513 1.0016 1 0.99792
1.00045 1.00024 1.00226 0.997953
1.00268 1 1.00461 0.998077
1.00396 1 1.00583 0.998137
1.00412 1 1.00542 0.9987
1.00562 1 1.00732 0.998314
1.00198 1 1.00305 0.998937
1.00011 1 1.00029 0.999818
1 1 1 1
0.999894 1 1 0.999894
0.999553 1 1.00045 0.999107
1 1 1 1
0.999948 1 1 0.999948
1 1 1 1
0.92039 0.980074 0.962646 0.975542
0.766151 0.86502 0.925533 0.956965
0.734412 0.829276 0.941388 0.940745
1.013 1 1.01536 0.997673
1.00108 1.00114 1.00196 0.997975
1.00968 1.00134 1.01056 0.99779
1.00476 1.00655 1.00113 0.997087
1.01524 1.01851 1.00016 0.996627
0.999805 1.00241 1 0.997404
1.02122 1.00101 1.02231 0.997928
1.00029 1.00314 0.999816 0.997343
0.983773 1.00211 0.983152 0.998529
0.995512 1.00181 0.996124 0.997578
0.973533 1.00341 0.972385 0.997774
0.994646 1.00137 0.995992 0.997282
0.977921 1.00082 0.979248 0.997828
0.991087 1.00077 0.991269 0.999047
0.921046 0.975069 0.95612 0.987947
0.906193 0.968156 0.962586 0.972381
0.7375 0.83494 0.923197 0.95678
0.887109 0.939346 0.974341 0.96926
0.893892 0.932482 0.968481 0.989814
0.914964 0.963211 0.958133 0.991417
0.982943 1.00377 0.981834 0.997372
0.991794 1.00067 0.992936 0.998181
1.00112 1 1.00215 0.998978
0.986423 0.996257 0.992843 0.997267
0.934831 0.973514 0.971638 0.988294
0.912371 0.973652 0.959553 0.976559
0.764907 0.862488 0.927982 0.955688
0.965042 0.979683 0.987006 0.998024
0.922725 0.976436 0.957213 0.987233
0.93369 0.987262 0.969883 0.975104
0.968849 1.00201 0.96943 0.997393
0.947858 0.989371 0.966794 0.990947
0.969675 1.02454 0.948915 0.997401
0.991227 1.01712 0.978215 0.996241
0.978477 1.00728 0.974016 0.997315
0.993316 1.03382 0.963027 0.997712
1.00474 1.05836 0.951509 0.997721
1.02677 1.0387 0.991095 0.997392
1.03577 1.05748 0.981678 0.997754
1.03227 1.05427 0.981434 0.997651
1.03864 1.0505 0.991256 0.997441
1.03368 1.04902 0.987666 0.997681
1.04179 1.05568 0.989305 0.997504
1.04429 1.0516 0.995626 0.997414
1.03965 1.04782 0.994658 0.997528
1.0424 1.04897 0.996471 0.997257
1.04374 1.04795 0.998529 0.997445
1.04216 1.04566 0.999459 0.997193
1.04608 1.04943 0.999984 0.996819
1.04543 1.04879 1 0.996791
1.04759 1.05118 1 0.996589
1.04681 1.05049 1 0.996503
1.03776 1.04141 1 0.99649
1.04493 1.0488 1 0.996309
1.04715 1.05109 1 0.996253
1.00988 1.01258 1 0.997336
1.02899 1.03253 1 0.996578
1.03491 1.0388 1 0.996259
0.999159 1 1.0002 0.998961
1.00468 1.00717 1 0.997534
1.01593 1.01921 1 0.996782
1 1 1 1
0.999992 1 1.00082 0.999173
1.00177 1.00329 1.00072 0.997765
1 1 1 1
1.00149 1 1.00207 0.999421
1 1 1 1
1.01584 1.01918 1 0.996722
1.00692 1.00978 1 0.997165
1.00539 1.00728 1.00066 0.997456
0.999256 1.00135 1 0.997907
1.00017 1.00007 1.0022 0.997907
1.00279 1.00036 1.00405 0.998388
1.0034 1 1.00531 0.998104
1.00437 1 1.00568 0.998702
1.00151 1 1.00179 0.999724
1.00215 1 1.00322 0.998937
1.00005 1 1.00022 0.999829
1 1 1 1
1 1 1 1
0.999906 1 1 0.999906
1 1 1 1
0.925158 0.975482 0.959274 0.988675
0.911388 0.979264 0.957421 0.972076
0.759856 0.857849 0.92415 0.958468
1.03121 1.03481 1.00007 0.99646
1.0079 1.00116 1.00901 0.997743
1.00588 1.00737 1.00135 0.997173
1.00005 1.00266 1 0.997392
1.01411 1.01714 1.00042 0.996609
1.00403 1.00686 0.99985 0.997341
0.999923 1.00279 1 0.997143
0.985434 1.00173 0.9852 0.998511
0.99343 1.00221 0.993638 0.99759
0.967167 1.0024 0.967118 0.997655
1.0048 1.01196 0.995994 0.996916
0.998618 1.00697 0.994368 0.997322
0.995274 1.002 0.996024 0.99725
0.97878 1.00134 0.97948 0.997952
0.980998 1.00613 0.977106 0.99787
0.915909 0.972348 0.954721 0.98663
0.906447 0.969604 0.960925 0.972878
0.909418 0.956784 0.960892 0.98918
0.985757 1.00524 0.982472 0.998118
0.991753 1.0002 0.993405 0.998137
0.982798 1.00668 0.980374 0.995818
0.920252 0.958676 0.969875 0.989736
0.89996 0.970585 0.953195 0.972765
0.966055 0.999856 0.968667 0.997446
0.95531 0.991383 0.973432 0.989914
0.973594 1.02584 0.951433 0.997516
0.993948 1.01688 0.980869 0.996516
0.992348 1.04119 0.955425 0.997555
1.0438 1.05992 0.987348 0.99741
0.99033 1.03147 0.962325 0.997706
1.00931 1.05969 0.954647 0.997705
1.02152 1.06617 0.960514 0.997507
1.03471 1.05673 0.981389 0.997733
1.03013 1.05289 0.980694 0.997647
1.0414 1.0623 0.982894 0.997387
1.03338 1.04825 0.988122 0.997662
1.04025 1.05438 0.989059 0.997517
1.04428 1.05478 0.992816 0.997206
1.03756 1.04561 0.994768 0.99752
1.04291 1.04945 0.996499 0.997255
1.04821 1.05226 0.999221 0.996929
1.04247 1.04591 0.999471 0.997239
1.04648 1.04978 0.999992 0.996862
1.04884 1.05244 1 0.996577
1.04765 1.05124 1 0.996577
1.04657 1.05026 1 0.996486
1.04038 1.044 1 0.996526
1.01618 1.01902 1 0.997213
1.03707 1.04071 1 0.996504
1.04507 1.04894 1 0.996309
0.999099 1.00029 1 0.998811
1.0113 1.014 1 0.997335
1.02815 1.03168 1 0.996581
1 1 1 1
0.999035 1.00003 1.00006 0.998948
1.00682 1.00931 1 0.997532
1 1 1 1
0.999575 1 1.00042 0.999156
1 1 1 1
1.03047 1.03415 1 0.996434
1.01784 1.02119 1 0.996719
1.01517 1.01817 1 0.997051
1.0095 1.01233 1.00001 0.997194
1.00459 1.0066 1.00056 0.997449
1.00267 1.00252 1.0021 0.998058
0.999818 1 1.00196 0.997861
1.00344 1.0001 1.00497 0.998389
1.00172 1 1.00214 0.999579
1.0038 1 1.0051 0.998703
1.00069 1 1.00095 0.999735
1 1 1 1
0.999839 1 1 0.999839
1 1 1 1
1 1 1 1
0.978159 1.01057 0.970264 0.997597
0.919821 0.972788 0.958835 0.986146
0.909697 0.970272 0.960726 0.975896
1.02192 1.02509 1.00001 0.9969
1.04144 1.04505 1 0.99655
1.0293 1.03275 1.00013 0.996531
1.00061 1.00324 1 0.997378
1.01299 1.01571 1.00073 0.996588
1.0052 1.00894 0.998974 0.997318
1.02282 1.02797 0.998117 0.996863
0.992863 1.0033 0.991979 0.997601
0.963712 1.00189 0.964273 0.997534
1.00586 1.01375 0.995189 0.99701
1.02318 1.03342 0.993321 0.996747
1.00335 1.02536 0.980947 0.997543
1.00203 1.00888 0.995917 0.997277
0.996681 1.00262 0.996846 0.997216
0.985428 1.00787 0.979566 0.998126
0.919675 0.97509 0.957322 0.985216
0.985807 1.0055 0.981506 0.998887
1.02357 1.04682 0.979738 0.998014
0.980529 1.00542 0.979217 0.995947
0.923832 0.969701 0.964752 0.987505
0.976594 1.02745 0.952764 0.997625
0.996451 1.01712 0.982815 0.996805
0.989758 1.04165 0.952372 0.9977
1.04307 1.06132 0.985338 0.997428
1.03859 1.07218 0.971185 0.997416
1.07364 1.09227 0.985359 0.997554
1.01381 1.06178 0.957034 0.99769
1.02716 1.06757 0.964548 0.997507
1.04471 1.07212 0.977082 0.997292
1.02825 1.05165 0.980064 0.997643
1.04112 1.0614 0.983469 0.997387
1.04481 1.06053 0.987977 0.997171
1.03879 1.0531 0.988854 0.99753
1.04482 1.05531 0.992836 0.997203
1.04953 1.05625 0.996695 0.996937
1.04339 1.04991 0.996529 0.997253
1.04857 1.05259 0.999252 0.996928
1.05207 1.05564 1 0.996612
1.04688 1.05013 1 0.996906
1.04834 1.05192 1 0.996592
1.04345 1.0471 1 0.996517
1.04636 1.05006 1 0.99647
1.04032 1.04394 1 0.996524
1.01846 1.02137 1 0.997148
1.00005 1.00129 1 0.998754
1.01632 1.01916 1 0.997213
1.03656 1.04018 1 0.996519
1 1 1 1
0.999302 1.0005 1 0.998799
1.0128 1.01551 1 0.997335
1 1 1 1
0.998935 1 1 0.998934
1 1 1 1
1.03897 1.04273 1 0.996393
1.03001 1.03371 1 0.996427
1.02394 1.02728 1 0.99675
1.01914 1.0225 1 0.996716
1.0141 1.0171 1 0.997058
1.00529 1.00719 1.00035 0.997769
1.00319 1.0053 1.00046 0.997443
1.00228 1.00168 1.00255 0.99806
1.00052 1 1.00117 0.999353
1.005 1 1.00662 0.998391
1.00167 1 1.00208 0.999596
1 1 1 1
1.00036 1 1.00061 0.999747
1 1 1 1
1 1 1 1
1.0049 1.04008 0.968119 0.997994
0.975097 1.00952 0.969012 0.99679
0.920674 0.974679 0.957169 0.98686
1.03618 1.03956 1 0.996746
1.02337 1.02635 1 0.997098
1.05635 1.05994 0.99998 0.99663
1.04199 1.04562 1 0.996533
1.02743 1.03074 1.00018 0.996604
1.047 1.05491 0.995854 0.996633
1.00643 1.01126 0.997929 0.997296
1.02299 1.02758 0.998727 0.996801
1.04238 1.06473 0.982034 0.996915
1.00571 1.01538 0.993351 0.997105
1.02375 1.03413 0.993254 0.996686
1.00444 1.02759 0.97984 0.997578
1.00277 1.00913 0.996457 0.99723
0.990438 1.00963 0.982596 0.998364
1.05944 1.08309 0.980527 0.997594
1.02635 1.0465 0.982665 0.998039
0.9794 1.00418 0.979166 0.996071
0.987893 1.04132 0.950743 0.997843
1.04137 1.06156 0.98349 0.997447
1.03395 1.07107 0.967816 0.997439
1.07546 1.09453 0.984994 0.997546
1.06226 1.08586 0.980785 0.997432
1.03253 1.06861 0.968647 0.997508
1.04544 1.07148 0.978344 0.997302
1.04611 1.06584 0.984252 0.997198
1.04081 1.06046 0.984042 0.997386
1.04484 1.06032 0.988209 0.997152
1.04824 1.0587 0.993173 0.996923
1.04538 1.05586 0.992859 0.997199
1.04982 1.05652 0.996719 0.996933
1.05498 1.05886 0.9997 0.996633
1.04894 1.05293 0.999282 0.996927
1.05193 1.05551 1 0.996615
1.04764 1.05133 1 0.996483
1.04783 1.0514 1 0.996606
1.04345 1.04709 1 0.996522
1.01935 1.02233 1 0.997079
1.04021 1.04384 1 0.996523
1.01869 1.0216 1 0.997147
1.00099 1.00202 1 0.998971
0.999599 1 1 0.999599
1.0003 1.00145 1 0.998847
1.01605 1.01889 1 0.997212
1 1 1 1
0.999454 1.00067 1 0.998787
1 1 1 1
1.06192 1.06541 1 0.996724
1.04787 1.05153 1 0.996523
1.03984 1.0436 1 0.9964
1.03185 1.03536 1 0.996611
1.02999 1.03369 1 0.99642
1.02512 1.02846 1 0.996747
1.01041 1.01292 1 0.997526
1.01361 1.01659 1 0.997065
1.00389 1.00565 1.00048 0.997771
0.999202 1 1.00012 0.99908
1.00164 1.00075 1.00282 0.998062
1.0008 1 1.00143 0.999372
1 1 1 1
1.00118 1 1.00157 0.999613
1 1 1 1
1 1 1 1
1.05171 1.08138 0.975152 0.997341
1.0094 1.04652 0.966419 0.998044
0.971942 1.00962 0.966553 0.995997
1.05285 1.05823 0.998255 0.99666
1.03301 1.03633 1 0.996796
1.02453 1.02731 1 0.997293
1.05487 1.05843 0.999988 0.996647
1.04259 1.04624 1 0.996516
1.0543 1.07487 0.983917 0.996895
1.04357 1.05187 0.995501 0.996593
1.02294 1.02676 0.999541 0.996738
1.04057 1.06277 0.982146 0.996912
1.02732 1.03715 0.993872 0.996624
1.00959 1.03419 0.97854 0.997621
1.06246 1.08259 0.983837 0.997533
1.06261 1.08558 0.981169 0.99763
1.02822 1.04649 0.984448 0.998065
1.03088 1.0713 0.964721 0.99746
1.07827 1.09775 0.984682 0.997539
1.06236 1.08681 0.98001 0.997439
1.05261 1.0676 0.988632 0.997297
1.04616 1.07076 0.97966 0.997312
1.04651 1.06558 0.984883 0.997185
1.04966 1.06084 0.992477 0.99696
1.0449 1.06016 0.98844 0.997133
1.04898 1.05943 0.993189 0.996922
1.05682 1.06167 0.998784 0.996646
1.05009 1.05676 0.996745 0.996929
1.05516 1.05905 0.999693 0.996634
1.05063 1.05438 1 0.996441
1.05182 1.05539 1 0.996618
1.0477 1.05139 1 0.996487
1.02053 1.02362 1 0.996987
1.04344 1.04708 1 0.996528
1.02004 1.02303 1 0.997079
1.00086 1.00188 1 0.998984
1.01896 1.02187 1 0.997146
1.00103 1.00207 1 0.998965
0.999624 1 1 0.999624
0.999808 1 1 0.999808
1.00076 1.00182 1 0.998948
1 1 1 1
1.05621 1.06123 0.998538 0.996727
1.05292 1.05652 1 0.996595
1.06073 1.06412 0.999958 0.996849
1.04249 1.04609 1 0.996555
1.04995 1.05362 1 0.996511
1.0407 1.04446 1 0.996406
1.03288 1.0364 1 0.996603
1.01548 1.01821 1 0.997324
1.02605 1.0294 1 0.996745
1.00861 1.01111 1 0.997526
0.999103 1.00023 1 0.998871
1.00233 1.00404 1.00052 0.997774
0.999491 1 1.00039 0.999098
1 1 1 1
1.0012 1 1.00181 0.999392
1 1 1 1
1 1 1 1
1.05317 1.07646 0.981077 0.997228
1.04842 1.07788 0.975267 0.997337
1.01218 1.05006 0.965772 0.998085
1.05389 1.06715 0.990724 0.996814
1.04993 1.05558 0.997987 0.99666
1.0302 1.03346 1 0.996848
1.05319 1.05672 0.999994 0.996663
1.05276 1.07295 0.984253 0.996871
1.04007 1.04875 0.995156 0.996553
1.03424 1.05598 0.982443 0.996908
1.05677 1.07122 0.989121 0.997359
1.06076 1.08068 0.984037 0.997493
1.06555 1.08757 0.982049 0.997666
1.05128 1.0624 0.992316 0.997198
1.06184 1.08736 0.979032 0.997446
1.05251 1.06768 0.98848 0.997283
1.05163 1.06176 0.993373 0.997064
1.04693 1.06531 0.985536 0.997172
1.04977 1.061 0.99243 0.996962
1.05704 1.063 0.997719 0.996665
1.04968 1.06012 0.99321 0.996921
1.05635 1.0612 0.998779 0.996647
1.05172 1.0555 1 0.996415
1.05523 1.05912 0.999687 0.996634
1.05073 1.05448 1 0.996444
1.02137 1.02455 1 0.9969
1.0477 1.05139 1 0.996491
1.02115 1.02424 1 0.996988
1.00017 1.00121 1 0.998958
1.0208 1.02379 1 0.997078
1.0007 1.00173 1 0.998972
0.999628 1 1 0.999628
1.00104 1.00208 1 0.998962
0.999633 1 1 0.999633
1 1 1 1
1.05427 1.06192 0.996146 0.996632
1.05536 1.05915 0.999862 0.996559
1.0579 1.06297 0.998506 0.996724
1.04887 1.05245 1 0.99659
1.05433 1.05792 0.999979 0.996632
1.05973 1.06303 0.999923 0.996973
1.02086 1.02376 1 0.997167
1.04221 1.04583 1 0.996545
1.05219 1.05588 1 0.996499
1.0339 1.03743 1 0.996595
1.01482 1.01754 1 0.997325
1.00055 1.00178 1 0.998771
1.00717 1.00967 1 0.997528
0.999167 1.00028 1 0.998886
1 1 1 1
0.999754 1 1.00064 0.999116
1 1 1 1
1 1 1 1
1.05122 1.06679 0.988267 0.997103
1.05315 1.07672 0.980845 0.997211
1.04762 1.07715 0.975183 0.997334
1.05332 1.06662 0.990669 0.996831
1.04669 1.05259 0.997723 0.99666
1.05232 1.07217 0.984583 0.996847
1.05312 1.06449 0.992105 0.997196
1.05698 1.07137 0.989184 0.997353
1.05918 1.07894 0.984185 0.997453
1.05172 1.06263 0.992489 0.997218
1.05079 1.05973 0.994539 0.997014
1.05242 1.06778 0.988306 0.997269
1.05186 1.06171 0.993678 0.997024
1.05654 1.06329 0.996893 0.996754
1.04989 1.06117 0.992383 0.996964
1.0566 1.06261 0.997668 0.996668
1.05182 1.05562 1 0.996401
1.05607 1.06094 0.998759 0.996648
1.05245 1.05624 1 0.996417
1.02151 1.02474 1 0.996844
1.05097 1.05471 1 0.996448
1.02166 1.02484 1 0.996901
0.999477 1.00058 1 0.998902
1.02184 1.02493 1 0.996988
0.999976 1.00104 1 0.99894
0.999606 1 1 0.999606
1.00051 1.00155 1 0.998964
0.999647 1 1 0.999647
0.999636 1 1 0.999636
1.05343 1.06344 0.993675 0.996891
1.05664 1.06095 0.999455 0.99648
1.05449 1.06319 0.995139 0.99666
1.05145 1.0551 1 0.996532
1.05457 1.05834 0.999892 0.996546
1.05957 1.06468 0.998474 0.996723
1.02347 1.02649 1 0.997063
1.04873 1.05234 1 0.996565
1.05554 1.05911 0.999955 0.996669
1.00165 1.0029 1 0.998749
1.02068 1.02358 1 0.997169
1.04222 1.04584 1 0.996536
1.01376 1.01648 1 0.997326
1.00001 1.00123 1 0.998783
1 1 1 1
0.999013 1.00011 1 0.998901
1 1 1 1
1 1 1 1
1.05001 1.06149 0.992068 0.99709
1.05155 1.06694 0.988445 0.997094
1.05258 1.07635 0.980665 0.997193
1.05279 1.06613 0.990607 0.996848
1.05132 1.05873 0.996015 0.996972
1.05323 1.06454 0.992155 0.997207
1.05724 1.07151 0.989303 0.997347
1.05218 1.06287 0.992684 0.997238
1.05093 1.05999 0.994413 0.997024
1.0568 1.06269 0.99772 0.996738
1.05214 1.06168 0.994009 0.996984
1.05686 1.06317 0.997349 0.996703
1.05136 1.05546 0.999656 0.996459
1.05608 1.06213 0.997628 0.996671
1.05257 1.05637 1 0.996403
1.02046 1.02373 1 0.996805
1.05292 1.05671 1 0.996418
1.0213 1.02453 1 0.996845
0.998861 1.00022 1 0.998646
1.02201 1.02519 1 0.996902
0.999241 1.00045 1 0.99879
1 1 1 1
0.999765 1.00084 1 0.998925
0.999631 1 1 0.999631
0.999659 1 1 0.999659
1.05169 1.06 0.995163 0.996984
1.05555 1.06102 0.998226 0.996614
1.05389 1.06312 0.994426 0.996881
1.05173 1.05553 1 0.996407
1.05564 1.06033 0.999086 0.996492
1.05475 1.06449 0.994146 0.996688
1.023 1.02619 1 0.996898
1.05147 1.05513 1 0.996533
1.05383 1.05758 0.99992 0.996533
1.00107 1.00232 1 0.998754
1.02287 1.02593 1 0.997024
1.04845 1.05209 1 0.99654
1 1 1 1
1.00134 1.00258 1 0.99876
1.02013 1.02303 1 0.997171
0.999748 1.00095 1 0.998796
1 1 1 1
1 1 1 1
1.04987 1.05706 0.996199 0.996983
1.05035 1.06161 0.992271 0.997097
1.05181 1.06708 0.988579 0.997086
1.05665 1.06171 0.998552 0.996677
1.05075 1.05851 0.99567 0.996985
1.05335 1.06459 0.992201 0.997218
1.05101 1.06024 0.99424 0.997034
1.05643 1.06246 0.997584 0.996739
1.05039 1.05431 0.999768 0.996516
1.05709 1.063 0.997777 0.996651
1.05169 1.05562 0.999821 0.99645
1.01896 1.0223 1 0.996728
1.05347 1.05727 1 0.996405
1.02005 1.02332 1 0.996806
0.998612 1 1 0.998612
1.0211 1.02433 1 0.996846
0.998719 1.00008 1 0.998644
1 1 1 1
0.998903 1.00024 1 0.99866
0.999794 1 1 0.999794
0.999652 1 1 0.999652
1.05013 1.05707 0.996478 0.99694
1.05639 1.06104 0.998925 0.996686
1.05151 1.05971 0.995259 0.996991
1.0518 1.0556 1 0.996399
1.05657 1.0617 0.998565 0.996598
1.05433 1.06277 0.995165 0.996871
1.02186 1.02513 1 0.99681
1.05138 1.05516 1 0.996422
1.05458 1.05965 0.998702 0.996504
0.999906 1.00118 1 0.998731
1.02271 1.02591 1 0.996885
1.05149 1.05515 1 0.996533
1 1 1 1
1.00133 1.00257 1 0.998763
1.02255 1.02564 1 0.996985
1 1 1 1
1.00115 1.00238 1 0.998772
1 1 1 1
1.05611 1.06103 0.998627 0.996722
1.04942 1.05662 0.996205 0.996968
1.05063 1.06166 0.992486 0.997103
1.04979 1.05366 0.999813 0.996512
1.05606 1.06144 0.998232 0.996698
1.05018 1.05828 0.995334 0.996997
1.0561 1.06223 0.997476 0.99674
1.05024 1.05427 0.999667 0.996516
1.01786 1.02121 1 0.996719
1.05204 1.0558 1 0.996442
1.01881 1.02213 1 0.996749
0.998569 1 1 0.998569
1.01957 1.02283 1 0.996807
0.998609 1 1 0.998609
1 1 1 1
0.998642 1 1 0.998642
1 1 1 1
0.999625 1 1 0.999625
1.05723 1.0619 0.998901 0.996699
1.04936 1.05685 0.995945 0.996962
1.05117 1.05493 1 0.996441
1.05692 1.06158 0.998916 0.996685
1.05138 1.05948 0.995344 0.996999
1.02008 1.02332 1 0.996835
1.05108 1.05488 1 0.996395
1.05763 1.0624 0.998924 0.996583
0.998972 1.00029 1 0.998678
1.02199 1.02524 1 0.996831
1.05097 1.05472 1 0.996437
1 1 1 1
1.00021 1.00148 1 0.998737
1.02249 1.0257 1 0.996872
1 1 1 1
1.00151 1.00275 1 0.998772
1 1 1 1
1.04984 1.05359 0.9999 0.996538
1.05601 1.06084 0.998731 0.99671
1.04901 1.0562 0.996225 0.996953
1.01723 1.02057 1 0.996734
1.04963 1.05357 0.999745 0.996512
1.05544 1.06115 0.997893 0.99672
1.0501 1.05423 0.999565 0.996516
1.01796 1.02131 1 0.996718
0.998546 1 1 0.998546
1.01868 1.02198 1 0.99677
0.998566 1 1 0.998566
1 1 1 1
0.998607 1 1 0.998607
1 1 1 1
1 1 1 1
1.05085 1.05458 1 0.996463
1.05693 1.0618 0.998665 0.996744
1.04857 1.0566 0.995404 0.996983
1.01897 1.0222 1 0.996839
1.05077 1.05452 1 0.996437
1.05744 1.06212 0.998908 0.996684
0.998632 1 1 0.998632
1.02057 1.02381 1 0.996833
1.05042 1.05423 1 0.996392
1 1 1 1
0.999259 1.00058 1 0.998682
1.0223 1.02553 1 0.996851
1 1 1 1
1.00047 1.00173 1 0.998743
1 1 1 1
1.01753 1.0208 1 0.996798
1.04958 1.05345 0.999818 0.996514
1.05592 1.06067 0.998815 0.996697
0.998565 1 1 0.998565
1.01739 1.02073 1 0.996731
1.04948 1.05348 0.999687 0.996513
1.01806 1.02141 1 0.996717
0.998546 1 1 0.998546
1 1 1 1
0.998564 1 1 0.998564
1 1 1 1
1 1 1 1
1.01817 1.02141 1 0.996828
1.05048 1.05423 0.999947 0.996487
1.05666 1.06169 0.998471 0.996789
0.998843 1 1 0.998843
1.01928 1.02251 1 0.996837
1.05034 1.0541 1 0.996434
1 1 1 1
0.998706 1.00007 1 0.998633
1.02091 1.02416 1 0.99683
1 1 1 1
0.999428 1.00074 1 0.998685
1 1 1 1
0.998553 1 1 0.998553
1.01768 1.02097 1 0.996777
1.04935 1.05332 0.999742 0.996489
1 1 1 1
0.998564 1 1 0.998564
1.01754 1.02088 1 0.996729
0.998545 1 1 0.998545
1 1 1 1
1 1 1 1
0.998807 1 1 0.998807
1.01842 1.02166 1 0.996828
1.05006 1.05388 0.999862 0.996511
1 1 1 1
0.998611 1 1 0.998611
1.01959 1.02283 1 0.996836
1 1 1 1
0.998863 1.00023 1 0.998634
1 1 1 1
0.99958 1 1 0.99958
0.998691 1 1 0.998691
1.01781 1.02112 1 0.996757
1 1 1 1
0.998565 1 1 0.998565
1 1 1 1
0.999594 1 1 0.999594
0.998706 1 1 0.998706
1.01871 1.02195 1 0.996828
0.999794 1 1 0.999794
0.998611 1 1 0.998611
1 1 1 1
1 1 1 1
0.998587 1 1 0.998587
1 1 1 1
0.999795 1 1 0.999795
0.998603 1 1 0.998603
1 1 1 1
1 1 1 1
1 1 1 1

VECTORS lamdaE float
1.00162 1.00006 0.993412
1.00119 1.0008 0.996723
1.00112 1.00029 0.993734
1.00169 1.00005 0.9933
1.00168 0.999942 0.993447
1.00161 1.0003 0.993199
1.00294 1.00046 0.990355
1.0012 1.00074 0.996703
1.00106 1.00012 0.997265
1.00059 1.00089 0.997278
1.00099 1.00102 0.993293
1.00275 1.00122 0.988907
1.00116 0.999988 0.993951
1.00097 1.00001 0.994026
1.00066 1.00053 0.994029
1.00134 1.00003 0.993658
1.00104 1.00068 0.993486
1.00127 0.999999 0.993787
1.00317 1.00029 0.990205
1.00119 1.00002 0.996914
1.00157 1.0001 0.993412
1.00171 0.999973 0.993365
1.00303 1.00015 0.990537
1.00303 1.00019 0.990482
1.00164 1.00053 0.992856
1.00282 1.00094 0.990058
1.00526 1.00094 0.985749
1.0012 1.00071 0.996704
1.00129 1.00001 0.995409
1.00093 1.00063 0.995378
1.00108 1.00081 0.996757
1.00264 1.00138 0.988926
1.00158 0.9998 0.993472
1.00136 1.00015 0.993566
1.00333 1.00008 0.990785
1.00007 1.0011 0.997548
1.00315 1.00065 0.990598
1.00236 1.00194 0.988845
1.0048 1.00137 0.985352
1.00028 0.999704 0.99784
1.0012 0.999992 0.996904
1.00119 1.00001 0.995416
1.00111 0.99997 0.996969
1.00075 1.00005 0.99431
1.00286 0.99994 0.990117
1.00117 0.999953 0.997183
1.00332 1.00008 0.990845
1.00099 0.99996 0.994016
1.00088 1.00005 0.994113
1.00052 1.00107 0.993751
1.00339 1.00011 0.99007
1.00099 1.00004 0.995601
1.00119 1.00012 0.993767
1.00106 1.00103 0.993131
1.00135 0.999942 0.993718
1.00319 1.00011 0.990358
1.00311 1.00068 0.989917
1.00323 1.00009 0.990324
1.00525 1.00091 0.985783
1.00109 1 0.996964
1.00141 1.00008 0.993633
1.00259 0.999994 0.991858
1.00287 1.00017 0.990767
1.00306 1.00013 0.990499
1.00522 1.00021 0.986478
1.00524 1.00035 0.986248
1.00131 1.00055 0.993176
1.00243 1.0019 0.989728
1.00526 1.00126 0.985431
1.00528 1.00023 0.985658
1.00159 1.00003 0.996773
1.00098 1.00071 0.996939
1.00129 1.00053 0.996733
1.00259 1.00149 0.988933
1.00165 0.999918 0.996714
1.00147 1.00021 0.996793
1.00319 1.00002 0.989334
1.00034 1.00087 0.995757
1.00292 1.00067 0.98915
1.00222 1.00217 0.989796
1.00488 1.00123 0.985339
1.00056 1.0002 0.997431
1.0004 1.00225 0.991995
1.00335 0.999994 0.989178
1.00322 1.00013 0.98926
1.00526 1.00042 0.985618
1.00162 1.00263 0.991238
1.0051 1.00088 0.985327
1.00386 1.00277 0.985564
1.00534 1.00143 0.984285
1.00008 0.998878 0.998263
1.00012 0.999448 0.998018
1.00152 0.999989 0.996706
1.00125 0.99999 0.996883
1.00115 0.999977 0.996963
1.00102 1.00001 0.995604
1.0029 0.999931 0.990819
1.00136 0.999958 0.995325
1.00323 1.0001 0.99013
1.00111 0.999982 0.996985
1.00269 0.999829 0.990436
1.0031 1.00005 0.991204
1.00498 0.999279 0.987341
1.00336 1.00003 0.990757
1.00524 0.999613 0.986567
1.00114 0.999996 0.993991
1.00081 1.00012 0.994126
1.00045 1.00153 0.993403
1.001 0.999894 0.994068
1.00335 1.00012 0.990179
1.00341 1 0.990175
1.00337 1.00041 0.989785
1.00525 1.00089 0.985815
1.00113 0.999983 0.996975
1.00104 1.00008 0.993987
1.00278 0.99995 0.990703
1.00303 1.00014 0.990582
1.00106 1.00098 0.994931
1.00282 1.00169 0.989776
1.00324 1.00007 0.990333
1.00523 1.00005 0.986662
1.00524 1.00125 0.985471
1.00524 1.00053 0.986127
1.00528 1.00023 0.98569
1.00267 0.999871 0.990446
1.0027 1.00007 0.991079
1.00489 0.999097 0.988186
1.0051 0.999674 0.98718
1.00523 1.00007 0.986577
1.00535 0.998473 0.987573
1.00061 1.00082 0.997184
1.0053 0.999498 0.98637
1.00182 1.00286 0.988645
1.00498 1.00159 0.984823
1.00528 1.00106 0.98491
1.00524 0.998127 0.98766
1.00099 1.00301 0.990106
1.00215 1.00446 0.986802
1.00166 0.999936 0.996734
1.00145 1.00025 0.996778
1.00321 0.999992 0.989319
1.00055 1.00054 0.997322
1.00185 1.00248 0.989067
1.00289 1.00067 0.989174
1.00498 1.00113 0.985329
1.00039 1.00017 0.997581
1.00031 1.0023 0.992013
1.00337 1.00002 0.989963
1.00326 1.00018 0.989989
1.00526 1.00043 0.985592
1.00121 1.00281 0.989907
1.00516 1.00084 0.985312
1.00409 1.00237 0.985546
1.00534 1.00134 0.984446
1.00079 1.00258 0.990863
1.00019 1.00154 0.993073
1.0018 1.00467 0.987681
1.00526 1.00017 0.985886
1.00524 1.00064 0.985402
1.00529 0.999302 0.986684
1.00318 1.00328 0.98612
1.00532 1.00048 0.985466
1.00515 1.00211 0.983963
1.00531 1.00036 0.985263
1.00002 0.998384 0.998561
1.00001 0.998834 0.998389
1.00003 0.999324 0.998182
1.00071 1.00286 0.990794
1.00034 1.00061 0.997439
1.00165 0.999943 0.996692
1.00135 0.999995 0.996789
1.00306 1.00015 0.989484
1.00277 0.999935 0.990194
1.00113 0.999976 0.996947
1.00109 0.999975 0.996981
1.00268 0.999841 0.990429
1.00301 1.00004 0.990495
1.00496 0.999286 0.987339
1.00322 1.00008 0.989271
1.0052 0.999649 0.986565
1.00263 0.999832 0.990511
1.00492 0.999159 0.987541
1.00507 0.999447 0.986998
1.00533 0.996514 0.989682
1.00527 0.999901 0.986194
1.00534 0.997366 0.988792
1.0011 0.999982 0.996974
1.00065 1.00014 0.99434
1.00281 0.999943 0.989694
1.00319 1.00014 0.990395
1.00034 1.00155 0.997138
1.00329 1.00131 0.989826
1.0034 1.00004 0.990169
1.00525 0.999874 0.986847
1.00525 1.00068 0.986002
1.00521 1.00124 0.985515
1.00528 1.00023 0.985724
1.00265 0.999864 0.99045
1.00286 1.00009 0.990894
1.00493 0.999072 0.987909
1.00513 0.999856 0.987007
1.00076 1.00084 0.997066
1.00209 1.00261 0.989532
1.0048 1.00191 0.985064
1.00524 1.00012 0.986534
1.00536 0.998103 0.987972
1.00529 1.00096 0.984992
1.0053 0.999637 0.986326
1.00525 0.998148 0.987675
1.00104 1.00293 0.990088
1.00218 1.00439 0.986804
1.00489 0.999225 0.987538
1.00498 0.999423 0.987728
1.00532 0.99718 0.989009
1.00538 0.997242 0.988737
1.00533 0.998703 0.98724
1.00526 0.995851 0.990202
1.00131 1.00308 0.989368
1.00526 0.997026 0.988785
1.00419 1.00259 0.985046
1.00532 1.00169 0.984055
1.00523 0.999645 0.986307
1.00521 0.996393 0.989569
1.00298 1.00372 0.985955
1.00141 1.00503 0.987599
1.00382 1.00228 0.98619
1.00325 1 0.989272
1.00019 0.999997 0.997752
1.00019 1.0024 0.992028
1.0031 1.00019 0.989306
1.00526 1.00044 0.985566
1.00114 1.00299 0.989831
1.00427 1.00197 0.985525
1.00521 1.0008 0.985293
1.00534 1.00123 0.984605
1.00074 1.00269 0.990874
1.00008 1.00157 0.993106
1.00147 1.00479 0.987648
1.00526 1.00019 0.985858
1.00524 1.00064 0.985379
1.00529 0.999304 0.986661
1.00331 1.0031 0.986133
1.00531 1.00058 0.98536
1.00528 1.00205 0.983918
1.00532 1.00008 0.98547
1.00012 1.00072 0.99394
1.00262 1.00387 0.986837
1.0011 1.00464 0.988648
1.00296 1.00265 0.987416
1.00529 0.998613 0.987429
1.00529 0.999985 0.985949
1.00523 0.997273 0.988578
1.00482 1.00215 0.984492
1.00524 0.998839 0.987126
1.00533 1.00133 0.984611
1.00533 0.999145 0.986489
1.00023 1.00223 0.992278
1.00027 0.999442 0.99495
1.00003 0.99785 0.998751
0.999987 0.998247 0.998635
0.999949 0.998688 0.99849
1.00027 1.00263 0.991697
1.00017 1.00024 0.997702
1.00076 1.00278 0.990755
1.00046 1.00065 0.997352
1.0032 1.00011 0.989272
1.00292 1.00002 0.989858
1.00516 0.999688 0.986562
1.00494 0.9993 0.987337
1.00269 0.999858 0.990428
1.00114 0.999964 0.996979
1.00265 0.999826 0.990514
1.0049 0.99917 0.987546
1.00507 0.999452 0.986995
1.00532 0.996533 0.98969
1.00525 0.99992 0.98617
1.00532 0.997349 0.988792
1.00488 0.999151 0.987598
1.0053 0.996367 0.989893
1.00537 0.996877 0.989272
1.0053 0.994939 0.991248
1.00529 0.997941 0.988179
1.00522 0.995224 0.990911
1.00266 0.999863 0.99046
1.00303 1.00006 0.99071
1.00496 0.999026 0.987635
1.00516 1.00001 0.986834
1.0009 1.00089 0.996925
1.00245 1.00244 0.990205
1.00479 1.00217 0.985301
1.00525 1.00016 0.98649
1.00536 0.997737 0.988371
1.00529 0.999782 0.986283
1.0053 1.00084 0.985072
1.00524 0.998168 0.98769
1.00108 1.00286 0.990071
1.00223 1.00429 0.986808
1.00489 0.999021 0.987731
1.00501 0.999389 0.987702
1.00532 0.997026 0.98918
1.00538 0.997659 0.988334
1.00138 1.00303 0.989369
1.0041 1.00279 0.985076
1.00532 1.00181 0.983928
1.00532 0.998925 0.987082
1.00524 0.995615 0.990433
1.00524 0.999411 0.986538
1.00526 0.997051 0.988781
1.00521 0.996354 0.989488
1.003 1.00385 0.985908
1.00371 1.00256 0.986024
1.00143 1.00488 0.987644
1.00531 0.996954 0.989281
1.00536 0.997238 0.988917
1.00526 0.99522 0.991
1.00527 0.995058 0.99097
1.00526 0.99606 0.989744
1.00522 0.994979 0.990926
1.00353 1.00339 0.985419
1.00522 0.995364 0.990341
1.00529 1.00258 0.983325
1.00526 1.00073 0.984937
1.0052 0.997984 0.987906
1.00518 0.99585 0.99008
1.00087 1.00501 0.988283
1.00459 1.00257 0.984832
1.00293 1.00368 0.986214
1.00503 1.00218 0.984828
1.00525 1.00021 0.98583
1.00003 1.00153 0.993136
1.00059 1.00289 0.990894
1.00116 1.00484 0.987613
1.00526 1.00064 0.985354
1.00528 0.999307 0.98664
1.00344 1.00282 0.986151
1.00532 1.00202 0.983873
1.00531 1.0007 0.985254
1.00532 0.999816 0.985677
1.00011 1.00067 0.993983
1.00253 1.00372 0.986875
1.0009 1.00476 0.98863
1.00286 1.0027 0.987432
1.00529 0.998615 0.987406
1.00529 0.999985 0.985926
1.00523 0.997261 0.988575
1.00493 1.00213 0.984482
1.00523 0.999017 0.986905
1.0053 1.0012 0.984588
1.00533 0.999003 0.98666
1.00022 0.99994 0.994588
1.00074 1.00399 0.98989
1.00383 1.00226 0.986111
1.00207 1.00409 0.987908
1.00375 1.00022 0.988548
1.00524 0.996428 0.989479
1.00523 0.998072 0.987717
1.00522 0.996032 0.989632
1.00504 1.00198 0.984321
1.00525 0.997785 0.987957
1.00511 1.00016 0.985786
1.00037 1.00245 0.99183
1.00034 1.0039 0.990471
1.00009 1.00204 0.992717
1.00019 1.00227 0.992277
1.00023 0.999174 0.995923
1.00026 0.999386 0.995352
1.00021 0.997438 0.997375
1.00003 0.997799 0.998791
0.999971 0.998152 0.998696
0.999918 1.00201 0.992903
0.999981 0.999743 0.998077
1.00037 1.00254 0.991688
1.00028 1.00032 0.997597
1.00083 1.00269 0.990717
1.00058 1.00068 0.997263
1.00524 0.999937 0.986149
1.00506 0.999448 0.986992
1.00531 0.997357 0.988791
1.00532 0.99655 0.989698
1.00488 0.999181 0.98755
1.00265 0.999814 0.990512
1.00488 0.999152 0.987603
1.00531 0.996374 0.989896
1.00534 0.996896 0.989282
1.00529 0.994936 0.991246
1.0053 0.997931 0.988163
1.00524 0.995207 0.990924
1.00531 0.996402 0.98987
1.00529 0.994959 0.991274
1.00525 0.994992 0.991183
1.00523 0.994962 0.991221
1.00524 0.9957 0.990315
1.00525 0.994899 0.990952
1.0049 0.99882 0.987925
1.00504 0.999381 0.987675
1.00532 0.996908 0.98935
1.00539 0.99808 0.987932
1.00147 1.00298 0.989375
1.00389 1.00313 0.98511
1.00532 1.00194 0.983801
1.00531 0.999134 0.986924
1.00523 0.995386 0.990664
1.00526 0.997077 0.988777
1.00525 0.999185 0.98677
1.00521 0.996297 0.989406
1.00302 1.00409 0.985858
1.00356 1.00271 0.985856
1.00141 1.00469 0.987687
1.00531 0.996755 0.98951
1.00536 0.997201 0.98893
1.00527 0.995095 0.991121
1.00526 0.995301 0.990751
1.00346 1.00357 0.98542
1.00527 1.00262 0.983372
1.00526 1.0009 0.98475
1.00526 0.996331 0.989474
1.00523 0.99495 0.990916
1.00521 0.997868 0.98788
1.00522 0.995386 0.990315
1.00519 0.995744 0.990121
1.00434 1.00284 0.984806
1.00488 1.00216 0.984599
1.00104 1.00487 0.988299
1.00277 1.0036 0.986231
1.00526 0.994959 0.99133
1.00527 0.995333 0.990748
1.00521 0.994947 0.991288
1.0052 0.994907 0.990993
1.00524 0.994968 0.990731
1.00526 0.994915 0.990784
1.00516 1.00282 0.983536
1.00521 0.994988 0.990616
1.00524 1.00212 0.983657
1.00523 0.999888 0.985691
1.0052 0.997225 0.988407
1.00521 0.995864 0.989965
1.00061 1.00449 0.989299
1.00157 1.00509 0.986697
1.00511 1.00305 0.983352
1.00472 1.00296 0.98536
1.00495 1.00361 0.983266
1.00008 1.00057 0.994025
1.0053 0.998617 0.987384
1.00067 1.00487 0.988612
1.0024 1.00368 0.986913
1.00282 1.00262 0.987447
1.00529 0.999985 0.985904
1.00524 0.997249 0.988573
1.00518 1.00194 0.984469
1.00528 1.00113 0.984567
1.00523 0.999182 0.986685
1.00533 0.99888 0.986831
1.0002 0.999885 0.99462
1.00052 1.00412 0.989905
1.00408 1.00188 0.98619
1.00169 1.0042 0.987833
1.0037 1.00028 0.988119
1.00524 0.996399 0.989487
1.00523 0.998055 0.987715
1.00522 0.995982 0.989633
1.00508 1.00205 0.984238
1.00526 0.997871 0.98778
1.00516 1.00018 0.985928
1.00045 1.00312 0.991099
1.00112 1.00504 0.988675
1.00448 1.00169 0.985576
1.00272 1.00251 0.988078
1.0049 1.00043 0.98759
1.00528 0.995356 0.990317
1.00521 0.996791 0.988756
1.00523 0.995535 0.989804
1.00493 1.00127 0.984805
1.00511 0.998753 0.986843
1.00036 1.00248 0.99183
1.00048 1.00365 0.990271
1.00011 1.00407 0.990439
1.00051 1.00417 0.990228
1.00015 1.00385 0.990894
1.00001 1.00179 0.993077
1.00006 1.00203 0.99273
1.00018 0.999006 0.996134
1.00018 1.0023 0.992275
1.00025 0.999131 0.995954
1.00025 0.997182 0.997522
1.00025 0.99936 0.995745
1.00013 0.997485 0.998127
1.00003 0.997699 0.998825
0.999803 1.00087 0.994185
0.999995 1.00189 0.992897
0.99979 0.999009 0.998512
1.00011 0.999803 0.997923
1.00046 1.0024 0.991679
1.00038 1.00042 0.997499
1.00531 0.997918 0.988148
1.00532 0.996894 0.989292
1.00525 0.995195 0.990938
1.00528 0.994931 0.991243
1.00531 0.99638 0.989899
1.00488 0.999153 0.987607
1.00531 0.996405 0.989869
1.00528 0.99496 0.991281
1.00527 0.994978 0.991197
1.00523 0.994962 0.991194
1.00523 0.995666 0.99033
1.00526 0.994906 0.990951
1.00528 0.99496 0.991304
1.00524 0.994944 0.991301
1.00524 0.994951 0.991087
1.00528 0.994943 0.991114
1.00527 0.994996 0.990744
1.00532 0.994901 0.990822
1.00531 0.99655 0.989739
1.00535 0.997153 0.988943
1.00527 0.99495 0.991242
1.00524 0.995549 0.990532
1.0034 1.00366 0.985421
1.00523 1.00261 0.983414
1.00525 1.00101 0.98456
1.00526 0.996601 0.989203
1.00524 0.994909 0.990905
1.00523 0.995408 0.990289
1.00522 0.997763 0.987855
1.00519 0.995602 0.990168
1.00398 1.00332 0.984783
1.00491 1.00221 0.984372
1.00123 1.00475 0.988315
1.00268 1.0034 0.986251
1.00527 0.994959 0.991323
1.00527 0.995294 0.990799
1.00521 0.994945 0.991263
1.00521 0.994913 0.991008
1.00496 1.00303 0.983552
1.00523 1.0022 0.983552
1.00522 0.999873 0.985674
1.00525 0.995013 0.990674
1.00526 0.994917 0.990761
1.00519 0.997241 0.988408
1.00521 0.994955 0.990599
1.00521 0.995683 0.990077
1.00507 1.0031 0.983416
1.00489 1.00375 0.983069
1.00412 1.00268 0.985393
1.0006 1.00431 0.989356
1.00147 1.00509 0.986842
1.00523 0.994949 0.991254
1.00523 0.99494 0.991098
1.00528 0.994902 0.990703
1.00525 0.9949 0.99072
1.00517 1.0032 0.982908
1.00523 0.994993 0.99049
1.00513 1.00148 0.984026
1.00518 0.99927 0.986225
1.00516 0.996931 0.988602
0.999993 1.00361 0.990939
1.00115 1.0051 0.988097
1.00215 1.00507 0.986398
1.00499 1.00414 0.982626
1.00499 1.00289 0.984286
1.00496 1.00322 0.98273
1.00018 0.999842 0.994652
1.00035 1.00428 0.989918
1.00524 0.996371 0.989495
1.00136 1.00434 0.987756
1.00428 1.00175 0.986273
1.00364 1.00052 0.987695
1.00522 0.998039 0.987713
1.00522 0.995934 0.989634
1.00519 1.00202 0.984155
1.00518 1.00021 0.986072
1.00528 0.997945 0.987602
1.00038 1.00318 0.991103
1.00073 1.00508 0.988676
1.00479 1.00155 0.985312
1.00258 1.00252 0.988082
1.00449 0.999754 0.987414
1.00526 0.995321 0.99034
1.00523 0.99681 0.988734
1.00524 0.995575 0.989778
1.00494 1.0013 0.9849
1.00512 0.998864 0.986825
1.00072 1.00441 0.98972
1.00051 1.00476 0.988628
1.00482 1.00191 0.984833
1.00322 1.00101 0.987635
1.00498 1.00071 0.986624
1.00524 0.99497 0.990444
1.00527 0.996898 0.988395
1.00529 0.99586 0.989227
1.00498 1.0001 0.986044
1.00511 0.998995 0.986753
1.00034 1.00248 0.99183
1.00049 1.00378 0.990248
0.999983 1.00396 0.990687
0.999944 1.00417 0.990406
1.00001 1.00399 0.990889
1.00001 1.00445 0.990339
0.999927 1.00345 0.991631
0.999898 1.00457 0.990247
0.999977 1.00362 0.991376
0.999997 1.00178 0.993112
1 1.00178 0.993081
1.0001 0.998931 0.99632
1.00002 1.002 0.992741
1.00019 0.998975 0.996166
1.00022 0.997065 0.997654
1.00026 0.999086 0.995989
1.00021 0.997225 0.99752
1.00002 0.997512 0.998901
0.999823 0.999838 0.995179
0.999848 1.0009 0.994138
0.999734 0.998375 0.998815
1.00012 1.00177 0.992892
0.99991 0.999191 0.998352
1.00022 0.999935 0.997781
1.00523 0.995621 0.990346
1.00528 0.994967 0.99121
1.00526 0.994914 0.990951
1.00524 0.994963 0.991166
1.00528 0.99496 0.991288
1.00531 0.996409 0.989869
1.00527 0.994961 0.991319
1.00524 0.994944 0.991307
1.00523 0.994949 0.991106
1.00527 0.99494 0.9911
1.00528 0.995004 0.990769
1.00531 0.994899 0.99077
1.00524 0.994948 0.991299
1.00528 0.994932 0.991196
1.00529 0.994938 0.990959
1.00531 0.99487 0.990629
1.00527 0.994959 0.991316
1.00528 0.995262 0.990849
1.00521 0.994943 0.991238
1.00521 0.994918 0.991023
1.00481 1.00309 0.983567
1.00523 1.00232 0.98345
1.00521 0.999916 0.985658
1.00525 0.995066 0.990617
1.00525 0.994918 0.990738
1.00522 0.994935 0.990583
1.00517 0.997227 0.988406
1.0052 0.99558 0.990187
1.00478 1.00319 0.983479
1.0049 1.00383 0.982876
1.00358 1.00288 0.985424
1.00061 1.00409 0.989424
1.0015 1.0051 0.986989
1.00522 0.99495 0.991248
1.00523 0.994937 0.991122
1.00528 0.994909 0.990731
1.00515 1.00322 0.982964
1.00514 1.00171 0.983924
1.00516 0.999316 0.986225
1.00525 0.994902 0.990723
1.00518 0.996794 0.988831
1.00522 0.995026 0.99045
0.999951 1.00341 0.991177
1.00479 1.00406 0.982713
1.00474 1.0045 0.982405
1.0046 1.00315 0.984389
1.0024 1.00484 0.986404
1.00092 1.00509 0.988113
1.00527 0.994937 0.99115
1.0053 0.994906 0.990874
1.00529 0.994901 0.99061
1.00525 0.994867 0.990592
1.00509 1.00307 0.983123
1.00519 0.995292 0.990308
1.00505 1.00109 0.984698
1.0051 0.99926 0.986391
0.999951 1.00171 0.992838
1.00028 1.00491 0.989724
1.00171 1.0051 0.98778
1.00292 1.00493 0.985002
1.00466 1.0045 0.983269
1.00489 1.00376 0.983033
1.0003 1.00325 0.991108
1.00028 1.00511 0.988679
1.00523 0.995284 0.990364
1.00242 1.00246 0.988083
1.00512 1.00138 0.985044
1.00383 0.999613 0.987229
1.00524 0.99683 0.988712
1.00524 0.995612 0.98975
1.00496 1.00141 0.984991
1.00514 0.998999 0.986806
1.00051 1.00445 0.989728
1.00098 1.00478 0.988362
1.00482 1.00189 0.984803
1.00368 1.00097 0.98752
1.00477 1.00097 0.986297
1.00526 0.995016 0.99047
1.00526 0.996811 0.988611
1.00528 0.995905 0.989327
1.00492 1.00008 0.986109
1.00505 0.999214 0.986539
0.999616 1.0044 0.990018
1.0008 1.00378 0.988863
1.0048 1.00071 0.986012
1.00433 1.0002 0.986696
1.00534 0.994857 0.990386
1.00527 0.995471 0.990053
1.00524 0.998012 0.987134
1.00511 0.999347 0.986289
1.00065 1.00376 0.990226
1.00014 1.00394 0.990643
0.999253 1.00382 0.992809
0.999873 1.00415 0.990884
0.999459 1.00478 0.990451
0.999945 1.00363 0.991362
0.999591 1.00345 0.992033
0.999933 1.00474 0.990169
0.99974 1.00111 0.994237
0.999755 1.00443 0.990909
0.999801 1.00455 0.990362
1.0001 1.0034 0.991396
0.999966 1.002 0.992884
0.999961 1.00178 0.993102
0.999983 0.99897 0.996444
0.99998 1.00175 0.993087
1.00011 0.998933 0.99634
1.00014 0.997089 0.99776
1.0002 0.998951 0.996199
1.00021 0.997092 0.997649
1.00017 0.997275 0.99751
0.99996 0.999074 0.995774
0.999826 0.999969 0.995113
0.999726 0.99788 0.998987
0.999856 1.00099 0.994088
0.999779 0.998476 0.998733
1.00005 0.999263 0.998177
1.00528 0.995011 0.990794
1.00523 0.994947 0.991124
1.0053 0.9949 0.990719
1.00527 0.994936 0.991086
1.00524 0.994944 0.991313
1.00527 0.994964 0.991335
1.00524 0.994949 0.99131
1.00528 0.994931 0.991192
1.00529 0.994931 0.990944
1.00531 0.994867 0.990642
1.00527 0.994933 0.991223
1.00528 0.994924 0.991101
1.00533 0.994889 0.990744
1.00522 0.994951 0.991242
1.00524 0.994935 0.991146
1.00528 0.994915 0.990758
1.00518 1.00319 0.983023
1.00513 1.00185 0.983819
1.00514 0.999213 0.986222
1.00524 0.994903 0.990726
1.00523 0.995045 0.990409
1.00521 0.996568 0.989054
1.0047 1.00392 0.982799
1.00492 1.00459 0.9821
1.00431 1.00314 0.984491
0.999988 1.00323 0.991423
1.00278 1.00454 0.986408
1.00061 1.00509 0.988121
1.00527 0.994939 0.991166
1.0053 0.994903 0.990841
1.00529 0.994897 0.990602
1.00504 1.00316 0.98315
1.00495 1.00098 0.98461
1.0051 0.999002 0.986736
1.00524 0.99487 0.990561
1.00503 0.99535 0.990256
0.99996 1.00169 0.993057
1.00019 1.0049 0.989698
1.00468 1.00332 0.983146
1.00474 1.0037 0.983234
1.00343 1.00456 0.985128
1.00147 1.0051 0.987589
1.00529 0.994907 0.991094
1.00533 0.994856 0.990584
1.00529 0.994897 0.990549
1.00521 0.994891 0.990335
1.00449 1.00241 0.984084
1.00516 0.996831 0.988879
1.00496 1.00122 0.984847
1.00013 1.00078 0.993895
1.00023 1.00194 0.992697
0.999604 1.00359 0.991778
1.00071 1.00505 0.98881
1.00143 1.00507 0.986806
1.00397 1.00417 0.983595
1.00344 1.00424 0.984619
1.00378 1.00506 0.984561
1.00025 1.00454 0.989736
1.00137 1.00477 0.988095
1.00527 0.99506 0.990495
1.00416 1.00011 0.987409
1.00482 1.00186 0.984778
1.00472 1.00123 0.985981
1.00526 0.996698 0.988829
1.00528 0.995935 0.989429
1.00493 1.00001 0.986173
1.00502 0.999362 0.986328
1.00018 1.00416 0.989851
1.00118 1.00392 0.988559
1.00491 1.00071 0.985856
1.00476 1.00047 0.986722
1.00534 0.994837 0.990392
1.00529 0.995399 0.989992
1.00519 0.997965 0.987249
1.00514 0.999419 0.986281
0.999644 1.00433 0.990352
1.00537 0.994891 0.990397
1.003 1.00319 0.988204
1.00482 0.999808 0.986572
1.0053 0.994872 0.990687
1.0052 0.99713 0.987099
1.00507 1.00048 0.985694
1.00026 1.00396 0.990598
0.999121 1.00363 0.992719
0.998225 1.0022 0.995916
0.999945 1.00356 0.991348
0.999953 1.0049 0.990089
0.998559 1.00415 0.992427
1.00011 1.00331 0.991387
0.999821 1.00461 0.990366
0.998791 1.00188 0.994636
0.999898 1.00439 0.99078
0.999269 0.999654 0.997266
0.998989 1.00284 0.99353
0.999692 1.00498 0.990208
1.00033 1.00447 0.989853
1.00019 1.00355 0.990998
0.999921 1.00229 0.992668
0.999898 1.00214 0.992863
0.99986 0.999168 0.996498
0.99992 1.00187 0.993092
0.999998 0.999006 0.996444
1.00003 0.997197 0.997849
1.00012 0.998914 0.996363
1.00015 0.997095 0.997754
1.0002 0.997121 0.997638
1.00013 1.00073 0.99399
1.00003 0.998643 0.9961
0.999947 0.999166 0.995729
0.999801 0.997525 0.999079
0.999829 1.00008 0.995049
0.99976 0.997999 0.998947
0.999853 0.998627 0.998619
1.00531 0.994864 0.990655
1.00529 0.994922 0.990928
1.00528 0.99493 0.991188
1.00523 0.994948 0.991321
1.00527 0.994932 0.991228
1.00528 0.994923 0.991113
1.00531 0.994891 0.990706
1.00528 0.994915 0.991158
1.00534 0.994909 0.990945
1.00548 0.995109 0.991078
1.00527 0.994941 0.991183
1.0053 0.994896 0.990809
1.0053 0.994897 0.990593
1.00483 1.00329 0.983179
1.00498 1.00141 0.984546
1.00485 0.998869 0.987074
1.00524 0.994883 0.990529
1.00498 0.995449 0.990206
1.00431 1.00379 0.983026
1.00435 1.00428 0.983394
1.00339 1.00418 0.985254
0.999959 1.00159 0.993274
1.00012 1.00493 0.989669
1.0013 1.0051 0.987393
1.00529 0.994906 0.991074
1.00011 1.00078 0.993884
1.00015 1.00198 0.992551
1.00533 0.994868 0.990597
1.00528 0.994896 0.99056
1.00475 1.00264 0.983984
1.00472 1.00115 0.985083
1.00508 0.996621 0.98879
1.00522 0.994892 0.990293
0.99969 1.00352 0.991944
1.0007 1.00505 0.98876
1.00369 1.0041 0.984478
1.00373 1.00458 0.983985
1.00419 1.00439 0.98356
1.00161 1.00508 0.98675
1.00538 0.994867 0.990819
1.00534 0.994835 0.990478
1.00525 0.994861 0.990416
1.00519 0.994924 0.990353
1.00408 1.00219 0.985258
1.00456 1.00052 0.986654
1.00007 1.00243 0.992107
0.999934 1.00211 0.992876
1.00146 1.00057 0.992373
1.00057 1.00384 0.989948
1.00095 1.0051 0.988268
1.00256 1.00451 0.986285
1.00258 1.00509 0.984286
1.00241 1.00121 0.988695
1.00068 1.00397 0.989685
1.00158 1.00412 0.988251
1.00535 0.994818 0.990397
1.0053 0.995385 0.989934
1.00523 1.00094 0.986745
1.00495 1.00074 0.985696
1.00514 0.997936 0.987362
1.00517 0.999515 0.986276
1.00029 1.00396 0.990233
1.00538 0.99493 0.990628
1.00214 1.00333 0.988382
1.00497 0.999996 0.986372
1.0053 0.994877 0.990708
1.00519 0.997319 0.987298
1.00496 1.00033 0.985671
0.999445 1.00495 0.991334
1.00496 0.9948 0.99077
1.00238 1.00255 0.988225
1.00469 1.00133 0.985048
1.0051 0.995587 0.989942
1.00369 1.00098 0.986322
0.998784 0.995092 0.986055
0.998861 1.00364 0.992639
0.997746 1.00261 0.995949
0.998118 1.00166 0.997094
1.00001 1.00337 0.991377
0.999743 1.00475 0.990371
1.00036 1.00404 0.990655
0.998295 1.00215 0.995052
1.00012 1.00365 0.991
1.00024 1.00442 0.989934
0.999305 0.99944 0.997064
0.999758 1.00495 0.990217
0.999405 1.00285 0.993064
0.998106 1.00129 0.997398
1.00042 1.00409 0.990218
1.00014 1.00488 0.989975
1.00072 1.0043 0.989587
1.00013 1.00399 0.990426
1.00034 1.00478 0.989947
1.00009 1.00423 0.990206
0.999901 1.00236 0.992604
0.999916 1.0023 0.992651
0.999736 0.999253 0.995955
0.999888 1.00213 0.992842
0.999846 0.999211 0.996174
0.999993 0.997347 0.999095
1.00001 0.999049 0.996445
1.00005 0.997175 0.997847
1.00016 0.997101 0.997743
1.00004 1.00061 0.994175
1.00015 1.00063 0.994021
1.00008 0.998384 0.99633
1.00002 0.998657 0.996382
0.999861 0.997246 0.999148
0.999926 0.999287 0.995683
0.999802 0.9976 0.999058
0.999793 0.998026 0.998909
1.00529 0.994893 0.990668
1.00528 0.994922 0.991125
1.00527 0.99493 0.991233
1.00528 0.994915 0.991159
1.00534 0.994909 0.990916
1.00547 0.995015 0.990847
1.00543 0.994877 0.99094
1.00132 0.994851 0.98152
1.00484 0.995042 0.991987
1.00011 1.00183 0.992846
1.00529 0.994906 0.991054
1.00533 0.994878 0.99061
1.00526 0.994889 0.990572
1.00481 1.00231 0.98386
1.00495 1.00069 0.9853
1.00486 0.996518 0.988696
1.00522 0.994884 0.990253
1.00424 1.00326 0.984388
1.00428 1.00419 0.983475
1.00403 1.00437 0.983524
1.0001 1.0008 0.993876
1.00216 1.00508 0.986693
0.999737 1.00345 0.992095
1.00068 1.00506 0.988708
1.00011 1.00199 0.992406
1.00537 0.994859 0.990822
1.00004 1.00241 0.992267
0.999917 1.00217 0.992897
1.00102 1.0007 0.992778
1.00534 0.994841 0.99045
1.00523 0.994866 0.990379
1.00328 1.00313 0.985354
1.00481 0.999241 0.98714
1.00518 0.994912 0.990289
1.0004 1.00385 0.990149
1.0012 1.00509 0.988101
1.00267 1.00257 0.988022
1.00313 1.00493 0.984024
1.003 1.00381 0.986458
1.00536 0.994778 0.990971
1.00525 0.994798 0.990715
1.00518 0.994975 0.989922
1.00506 0.996855 0.990358
1.0018 1.00179 0.989101
0.999452 1.00352 0.991872
1.00142 1.001 0.991715
1.00004 1.00023 0.993119
1.00083 1.00435 0.990158
1.00053 1.00506 0.989131
1.00097 1.00415 0.988125
1.00188 1.00005 0.991124
1.00121 1.00352 0.99011
1.00115 1.00343 0.988566
1.00539 0.994971 0.990849
1.00531 0.994835 0.99072
1.00518 0.997466 0.987496
1.00502 1.00013 0.98617
1.00487 1.00017 0.985653
0.999912 1.0047 0.991312
1.00467 0.994836 0.990977
1.00266 1.0024 0.988027
1.00479 1.00134 0.984962
1.00506 0.995485 0.990221
1.00398 1.00084 0.9864
0.998551 0.996194 0.984152
0.9985 1.00438 0.992709
1.00306 0.995762 0.991111
1.00328 1.00234 0.986121
1.00303 1.00107 0.987039
1.00345 0.997543 0.990684
0.999959 0.994876 0.943334
0.995174 0.99478 0.96462
0.995693 0.999248 0.988041
0.999149 0.9948 0.858245
0.99471 0.99485 0.819794
0.997404 1.00291 0.995973
0.997576 1.00185 0.997295
0.997544 1.00301 0.996907
1.00008 1.00369 0.991002
1.00024 1.00433 0.990014
0.999917 1.00486 0.990228
0.999675 1.00301 0.992579
0.999267 0.998915 0.996854
1.00004 1.00492 0.990028
1.00018 1.00396 0.990505
1.00063 1.00431 0.989608
0.998463 1.00039 0.996827
0.99997 1.00433 0.990597
1.00046 1.00452 0.990632
0.998652 1.00432 0.992575
1.00002 1.00471 0.990318
1.00055 1.00464 0.989081
1.00017 1.00407 0.990349
1.00028 1.00498 0.989407
1.00037 1.00413 0.990672
0.999655 1.00494 0.990605
1.00017 1.00475 0.989936
1.00026 1.00396 0.990551
1.00014 1.00422 0.990206
0.999905 1.0024 0.992596
0.999909 1.00238 0.992608
0.999707 0.999311 0.995985
0.999879 1.0024 0.992635
0.999721 0.999296 0.995951
0.999942 0.997342 0.999127
0.999823 0.999269 0.995853
0.999963 0.997345 0.998486
1.00008 0.997157 0.997842
0.999915 1.00043 0.994514
1.00002 1.00066 0.99418
1.00009 0.998203 0.996521
1.00017 1.00052 0.994052
1.00007 0.998332 0.996618
0.999917 0.996951 0.999206
1.00004 0.998717 0.996044
0.999861 0.997381 0.999119
0.999813 0.997704 0.999039
1.00533 0.994909 0.990887
1.00528 0.994916 0.99116
1.00545 0.99491 0.990624
1.00065 0.994843 0.981686
1.00543 0.994877 0.990945
1.00467 0.994971 0.991821
1.00525 0.9958 0.991179
0.996155 0.994889 0.964285
1.00158 0.995241 0.983535
1.00016 1.00154 0.993124
1.00007 1.002 0.992808
0.999388 1.00384 0.991878
0.999855 1.00243 0.992578
1.00537 0.994855 0.990825
1.00535 0.994852 0.990422
1.00523 0.994875 0.990342
1.00416 1.00359 0.985458
1.00467 0.997355 0.987655
1.00519 0.99491 0.990226
1.0023 1.00318 0.98731
1.00465 1.00481 0.983749
1.0032 1.0022 0.98662
0.999874 1.00226 0.992922
1.00106 1.00509 0.987949
1.00029 1.00394 0.990351
0.999943 1.00258 0.992423
1.00052 1.00096 0.99315
1.00536 0.994782 0.990974
0.999798 1.0035 0.991646
1.0015 1.00056 0.991982
0.998158 1.00119 0.995707
1.00526 0.994821 0.990632
1.00519 0.995044 0.989936
1.00314 1.00061 0.989117
1.0047 0.995911 0.990609
1.00091 1.00447 0.989474
1.00085 1.00471 0.988248
1.00162 1.00147 0.991057
1.00245 1.00346 0.987533
1.00428 0.995228 0.99152
1.00514 0.995028 0.990996
1.00506 0.995904 0.989658
1.00352 0.996333 0.993232
0.99784 1.00463 0.99345
1.00111 1.00158 0.991325
0.998073 1.00466 0.99325
0.99925 1.00449 0.991446
0.999989 0.994884 0.929733
1.00017 1.00454 0.991289
1.00271 1.00268 0.987822
1.00429 0.994877 0.991214
1.00504 0.995423 0.990495
1.00416 1.00074 0.986457
1.00466 1.00145 0.984868
0.998432 0.996962 0.982106
0.998978 1.00422 0.992774
1.00297 0.996049 0.991003
1.00324 1.00269 0.986124
1.0036 1.00098 0.987153
1.00379 0.997644 0.99044
0.99995 0.994863 0.930274
0.995548 0.994804 0.961195
0.995648 0.999778 0.988279
0.998062 0.994773 0.863074
0.99472 0.994848 0.810948
0.999186 1.00422 0.991763
0.999786 0.994819 0.869279
0.994726 0.994813 0.811798
1.00041 0.999452 0.992641
1.00156 1.00195 0.989544
1.00147 0.999553 0.99257
0.994905 0.998228 0.990872
0.997618 0.99482 0.942336
0.994893 0.994781 0.957165
0.996296 0.994831 0.881373
0.994731 0.994817 0.801752
0.99711 1.0021 0.997509
0.997336 1.00241 0.996784
0.997449 1.00458 0.995643
1.00025 1.0039 0.990581
1.00058 1.00429 0.98963
0.99956 1.00503 0.990082
0.999662 1.0046 0.990975
0.999004 0.999656 0.996264
1.00022 1.004 0.990353
1.0002 1.00455 0.990477
0.999898 1.00486 0.990129
1.00071 1.00462 0.989219
0.998581 1.00414 0.992871
0.99939 1.00438 0.992105
0.997365 1.00505 0.99368
1.00005 1.00506 0.989541
1.0005 1.00469 0.98947
1.00041 1.00496 0.989382
1.00014 1.00368 0.990978
1.00022 1.00498 0.989874
0.999915 1.00362 0.99153
0.999109 1.00264 0.992381
0.999075 1.00498 0.99111
0.999479 1.00478 0.990713
0.9998 1.00471 0.99063
1.00009 1.00405 0.990632
1.00005 1.00476 0.989925
1.00025 1.00396 0.990478
0.999996 1.00239 0.992478
1.00019 1.00423 0.990206
0.999928 1.00234 0.992607
0.999902 0.99928 0.996417
0.999883 1.0024 0.992612
0.999757 0.999281 0.996241
0.999892 0.997316 0.997974
0.999709 0.999309 0.995946
0.999936 0.997357 0.999137
0.999952 0.997374 0.997874
1.00027 1.00151 0.992916
0.99992 1.0003 0.994655
0.999917 1.00047 0.994506
1.00005 0.998129 0.996632
0.999998 1.00072 0.994185
1.00009 0.998168 0.996518
0.999963 0.996832 0.99924
1.00006 0.998331 0.996863
0.999919 0.997124 0.998629
0.999884 0.997444 0.997944
1.00016 0.994825 0.981826
1.00544 0.994878 0.990948
1.00454 0.995335 0.991642
0.996386 0.994843 0.964824
1.00173 0.995105 0.983915
1.00525 0.995538 0.991162
1.00346 0.996227 0.986408
0.997366 0.994848 0.967423
0.999975 0.994867 0.941674
0.997643 0.994811 0.882926
0.994659 0.994807 0.818431
0.999677 1.00252 0.99261
1.00018 1.0015 0.99311
1.00017 1.0019 0.992767
0.99973 1.00325 0.992048
0.999005 1.00425 0.992507
1.00053 1.0021 0.991874
1.00023 1.00295 0.991839
1.00013 1.0022 0.992451
1.00538 0.994789 0.990968
1.00527 0.994841 0.990555
1.00519 0.995083 0.989946
1.00309 1.00095 0.989128
1.00455 0.995507 0.990856
1.00129 1.0022 0.99097
1.00384 1.0037 0.986952
1.00178 1.00493 0.987374
1.00146 1.00023 0.992239
1.00104 1.00458 0.988752
1.00037 1.00314 0.991435
0.996952 1.00187 0.99825
1.00427 0.994854 0.991801
0.998281 1.00432 0.993342
1.00085 1.00185 0.992054
1.00486 0.994921 0.990966
1.00467 0.995873 0.990036
1.00275 0.99654 0.992921
0.999487 1.00507 0.991447
1.00037 1.00314 0.991684
1.00334 0.994922 0.991067
1.00381 0.998624 0.990553
1.0045 0.995519 0.991341
1.00087 0.997712 0.99426
0.999335 1.00482 0.991024
0.998674 1.0046 0.992372
0.999457 1.00494 0.991995
0.999788 0.994917 0.871739
1.00023 0.994863 0.943926
0.999868 1.00372 0.992847
1.00342 1.00291 0.986139
1.00289 0.996668 0.99089
1.00409 0.997766 0.990209
1.00408 1.00097 0.987292
0.999987 0.99485 0.941615
0.995837 0.994801 0.960696
0.995642 0.999909 0.988553
0.997541 0.99483 0.881211
0.994739 0.994829 0.801583
0.99949 1.0042 0.991724
0.999812 0.99485 0.868289
0.994693 0.994798 0.805023
1.00048 0.999387 0.992587
1.00157 1.00213 0.989554
1.00137 0.999716 0.992985
0.994901 0.9993 0.99164
0.998381 0.995019 0.935978
0.994918 0.994795 0.958384
0.995754 0.995021 0.881113
0.994749 0.994811 0.800086
0.998378 1.00421 0.994469
0.994721 0.994799 0.802055
0.994745 0.994775 0.810315
0.996946 1.00195 0.996902
0.999867 1.00173 0.994896
0.994898 0.999354 0.988675
0.995038 0.994874 0.960061
0.995296 0.994782 0.931067
0.994754 0.995263 0.88577
0.994832 0.994845 0.807356
0.997407 1.00184 0.996668
0.997942 1.00391 0.995363
0.996712 1.00395 0.995988
1.00025 1.00394 0.990357
1.00082 1.00447 0.989357
0.999959 1.00497 0.989938
0.999881 1.0046 0.990324
0.998159 1.00401 0.993169
1.0005 1.00473 0.989453
0.999465 1.00411 0.991717
1.00029 1.00499 0.989561
0.996977 1.00495 0.994021
0.995983 1.0052 0.99647
0.998722 1.00488 0.992162
1.00057 1.00505 0.989433
1.00055 1.00476 0.989359
0.999996 1.00334 0.991278
1.00011 1.00492 0.989817
1.00005 1.00346 0.991435
0.998873 1.00313 0.993021
0.998928 1.00464 0.991559
0.99855 1.00509 0.991773
0.998524 1.00308 0.99387
1.00026 1.0018 0.992841
1.00285 0.999277 0.990909
0.999089 1.00487 0.991032
0.999317 1.00485 0.991151
0.999541 1.00501 0.990067
0.99954 1.00495 0.99072
1.00007 1.00415 0.990519
0.99974 1.00475 0.990653
1.00012 1.00404 0.990669
1.00002 1.00248 0.992259
1.00026 1.00402 0.990405
0.999975 1.0024 0.992492
1.00003 0.999245 0.99621
0.999924 1.00234 0.992619
0.999881 0.99925 0.996067
1 0.997255 0.99782
0.999752 0.999264 0.995951
0.99995 0.997305 0.999147
0.999932 0.997353 0.999146
1.00035 1.00191 0.992751
0.999956 1.00046 0.994483
1.00016 1.00171 0.992928
1.00005 0.998086 0.996674
0.999909 1.00032 0.994653
0.99991 1.00052 0.994499
1.00006 0.998128 0.996621
0.999991 0.996743 0.999255
1.00007 0.998186 0.997018
0.999973 0.996834 0.998708
0.999935 0.997137 0.99811
0.999793 0.994825 0.856022
0.994695 0.994777 0.801862
0.996448 0.994846 0.965257
1.00142 0.994902 0.984401
1.00526 0.99479 0.991158
0.997047 0.995055 0.966837
1.0035 0.995273 0.986938
1.00064 0.994872 0.938012
0.998164 0.994774 0.863554
0.994704 0.994825 0.809865
0.997831 0.994781 0.973273
0.99824 0.99485 0.942319
0.996555 0.994852 0.881396
0.994763 0.994827 0.808781
1 1.00343 0.991752
0.999817 1.0023 0.992727
1.00011 1.00162 0.9931
0.999867 1.00297 0.992217
0.998827 1.00413 0.992872
1.0003 1.0035 0.990801
1.00023 1.00288 0.991745
1.00057 1.00341 0.990423
1.00018 1.00295 0.991721
0.999967 1.00256 0.992318
1.00408 0.994762 0.992067
1.00472 0.994852 0.990936
1.00425 0.995895 0.990416
1.00226 0.997044 0.992608
1.00087 1.00263 0.991917
0.999549 1.00512 0.989677
1.00028 1.00214 0.992877
0.998435 1.00418 0.993215
1.00242 0.994997 0.991527
0.999414 1.00494 0.990799
0.998364 1.00492 0.992234
1.0035 0.997678 0.990709
1.00419 0.995584 0.991613
1.00108 0.99795 0.994505
0.999231 1.00492 0.99163
1.0002 0.995312 0.990118
1.00118 0.998811 0.993833
0.998588 1.00166 0.995316
0.998803 1.00448 0.990483
0.998435 1.00498 0.991325
0.998766 1.00486 0.992234
0.994721 0.994836 0.825322
0.999786 0.994879 0.877078
1 0.994878 0.930124
0.999356 1.00409 0.991663
1.00183 1.00237 0.989533
1.00054 0.999142 0.992525
1.00116 0.9998 0.993404
0.999818 0.994879 0.881152
0.997892 0.99483 0.930501
0.994848 0.994814 0.957242
0.994897 1.0006 0.992301
0.996635 0.994836 0.865944
0.994665 0.99479 0.810792
0.994777 0.994825 0.814757
0.998241 1.00359 0.994177
0.994708 0.994808 0.812039
0.994767 0.994779 0.809723
0.997107 1.00038 0.997522
0.9994 1.00163 0.994785
0.994879 0.998199 0.991018
0.995404 0.994833 0.958908
0.996316 0.996029 0.942351
0.994722 0.997236 0.868315
0.994978 0.994841 0.817655
0.996943 1.00366 0.997107
0.994778 0.994826 0.818572
0.994812 0.994799 0.807062
0.994978 1.00224 1.00005
0.995227 0.996938 0.967824
0.99482 0.997307 0.941062
0.995053 0.995403 0.860969
0.995367 0.994878 0.826587
0.998384 1.00278 0.995043
0.997063 1.00422 0.996137
0.995633 1.00419 0.998139
1.00037 1.00478 0.989434
1.00042 1.00506 0.989584
0.999602 1.00378 0.991329
0.996788 1.0048 0.994365
1.0002 1.00506 0.989446
0.998664 1.00491 0.992126
0.995724 1.00519 0.996788
0.995015 1.00504 0.998267
0.995875 1.00517 0.996738
0.999331 1.00509 0.991441
1.00016 1.00501 0.989756
1.00011 1.00308 0.991338
0.998515 1.0034 0.993642
0.998603 1.00509 0.991868
0.999196 1.00458 0.991558
0.998427 1.00334 0.993969
0.998611 1.00454 0.992578
0.995991 1.00509 0.99644
1.00202 0.997519 0.994124
0.999832 1.00147 0.993516
1.00131 1.00074 0.991621
1.00484 1.00021 0.987098
1.00196 1.00146 0.990856
1.00165 0.998952 0.992883
0.999632 1.00462 0.990765
0.99976 1.00512 0.989515
0.999617 1.00464 0.991193
0.999881 1.00506 0.990068
1.00017 1.00458 0.989906
0.999939 1.00482 0.990727
1.0003 1.00394 0.990507
1.00011 1.00267 0.992005
1.00032 1.00375 0.990707
1.0001 1.00246 0.992266
1.00015 0.999298 0.995975
1.00001 1.00234 0.992507
1.00002 0.999256 0.995826
1.0001 0.997295 0.997668
0.999888 0.999223 0.995771
0.999995 0.997259 0.998481
0.999963 0.997275 0.999127
1.00027 1.00251 0.991889
1.0001 1.00058 0.994178
1.00024 1.00195 0.99257
1.00005 0.998137 0.99662
0.999973 1.00041 0.994491
1.00015 1.00168 0.99294
1.00002 0.996702 0.999264
1.00004 0.998088 0.996674
0.99991 1.00035 0.994652
1.00007 0.998116 0.99661
0.999992 0.996783 0.999252
0.999959 0.996831 0.999236
0.994689 0.994771 0.804845
0.999767 0.994842 0.868261
0.994752 0.994768 0.807506
0.994712 0.994773 0.801235
0.997176 0.994881 0.96501
1.0034 0.994807 0.987472
0.999854 0.994844 0.933647
0.999055 0.994818 0.88274
0.994749 0.994832 0.80106
0.998433 0.994834 0.972321
0.998864 0.995632 0.928274
0.995939 0.99566 0.879899
0.994723 0.99482 0.801404
0.995129 0.99482 0.964929
0.996199 0.995786 0.929597
0.994853 0.997405 0.860673
0.994824 0.994875 0.806674
1.00075 1.00448 0.990426
0.999664 1.00338 0.991861
1.00001 1.002 0.99284
0.99851 1.00377 0.993243
1.00092 1.00362 0.989596
1.00022 1.00341 0.991
0.999792 1.00334 0.991621
1.00108 1.00286 0.990478
1.00065 1.00353 0.990509
1.00024 1.00274 0.991604
1.00204 0.99478 0.991978
1.00326 0.996981 0.990872
1.00371 0.995666 0.991888
1.00082 0.997242 0.994768
1.00033 1.0049 0.991246
0.998762 1.00509 0.992107
0.999494 1.00501 0.99057
1.00007 1.00461 0.990201
0.999866 0.995699 0.990634
0.999368 1.00499 0.99103
0.999499 1.00474 0.992072
1.00106 0.998526 0.994426
0.999563 1.00048 0.995135
0.996448 1.00003 0.989741
0.996796 0.999339 1.00029
0.996551 1.00371 0.996029
0.999144 1.00438 0.991901
0.99767 1.00504 0.993672
0.994807 0.994813 0.824737
0.994714 0.994815 0.821191
0.999799 0.994892 0.859701
0.998272 1.00325 0.993946
0.999112 1.0013 0.994671
0.997312 0.999769 0.998142
0.994682 0.994793 0.810462
0.996341 0.995654 0.930839
0.995489 0.994862 0.958442
0.994848 0.996385 0.99368
0.994781 0.996911 0.887047
0.994775 0.994783 0.809829
0.995161 0.994846 0.818944
0.997326 1.00358 0.996996
0.994788 0.994825 0.821406
0.994802 0.994799 0.807994
0.995209 1.00149 0.999141
0.995213 0.996071 0.96974
0.994808 0.995937 0.929396
0.995148 0.994867 0.8225
0.99505 0.998652 0.869421
0.994927 1.00467 1.00015
0.994794 0.994829 0.812327
0.994869 0.994832 0.816319
0.994819 0.994861 0.807036
0.994781 0.998715 0.990044
0.99487 0.998192 0.944372
0.997502 0.996426 0.87805
0.99751 1.0048 0.996312
0.995767 1.00473 0.997909
0.995184 1.0048 0.999182
1.00013 1.00506 0.989459
0.998678 1.00499 0.992087
0.995522 1.00522 0.997099
0.998948 1.0051 0.991442
0.995993 1.00517 0.996742
0.995185 1.00492 0.998218
0.994929 1.00521 0.998453
0.995618 1.00509 0.997059
0.998471 1.00507 0.99198
0.999407 1.00465 0.991557
0.998459 1.00387 0.994093
0.996274 1.00496 0.996315
0.998563 1.00467 0.992484
0.998932 1.00179 0.994927
0.999357 0.997771 0.997896
1.0023 0.999878 0.98978
0.999434 1.00116 0.994136
1.00186 1.00069 0.99118
1.00444 1.00171 0.985932
1.0049 1.00254 0.984179
1.00384 0.998959 0.989982
1.00393 1.00019 0.987507
1.00092 1.00509 0.988631
1.00116 1.00191 0.99128
1.00039 0.998682 0.99483
1.00019 1.00445 0.990499
0.99997 1.00512 0.989552
1.00029 1.00505 0.989137
1.00023 1.00507 0.990071
1.00032 1.00448 0.989914
1.00015 1.00306 0.991451
1.00042 1.00384 0.990492
1.00016 1.00257 0.991998
1.00018 0.999404 0.995816
1.00011 1.00244 0.992272
1.00013 0.999327 0.995583
1.00019 0.997329 0.997495
1.00003 0.999278 0.995501
1.00008 0.997277 0.998371
1.00003 0.99724 0.999067
1.00061 1.00268 0.991046
1.00013 1.00092 0.993473
1.00042 1.00237 0.991882
1.00011 0.998185 0.996464
1.00007 1.00059 0.994024
1.00017 1.00201 0.992392
1.00004 0.996715 0.999249
1.00006 0.998106 0.996631
0.999986 1.00033 0.994499
1.00002 0.996723 0.999262
1.00003 0.998105 0.996675
0.999992 0.99676 0.999249
0.99482 0.994819 0.815024
0.994698 0.994806 0.817915
0.999777 0.994812 0.867209
1.00115 1.00258 0.99052
0.994817 0.994799 0.813691
0.994754 0.994769 0.807467
0.994744 0.994779 0.814229
0.999 0.994862 0.971525
0.997767 0.994829 0.9415
0.996228 0.99485 0.863496
0.994692 0.994823 0.810556
0.996314 0.994827 0.962527
0.996363 0.997128 0.940849
0.994752 0.996315 0.864083
0.994838 0.994861 0.810572
0.994809 0.994821 0.956815
0.994804 0.995414 0.938931
0.995455 0.999838 0.872907
0.995147 0.99489 0.826709
0.999519 1.00466 0.990868
1.00015 1.00429 0.990395
0.999849 1.00334 0.991972
1.00076 1.00284 0.990695
1.0007 1.00402 0.989831
1.00017 1.00374 0.991197
1.00108 1.003 0.99043
1.00065 1.00357 0.990589
0.99868 0.997341 0.990995
1.00056 0.998121 0.994939
1.00027 1.00473 0.989915
1.00062 0.999671 0.994963
0.999691 1.00463 0.991914
0.999871 1.00504 0.99074
0.998973 1.00433 0.991891
0.995995 0.999415 0.99037
0.998104 1.00486 0.993782
0.997409 1.00308 0.996302
0.996212 1.00026 1.00042
0.998619 1.00417 0.993204
0.994794 1.00141 0.987318
0.995442 1.00281 0.998669
0.99597 1.00478 0.997067
0.997301 1.00519 0.994997
0.994779 0.99481 0.817768
0.994811 0.994815 0.822221
0.994704 0.9948 0.816946
0.997573 1.00364 0.996861
0.995441 1.0005 0.998208
0.994804 0.994827 0.824052
0.994772 0.996782 0.941892
0.99563 0.99606 0.966994
0.99511 0.997849 0.867735
0.994804 0.994799 0.808708
0.994891 0.994861 0.818415
0.995331 1.00448 0.999812
0.994797 0.994827 0.812418
0.994869 0.994841 0.817077
0.994791 0.999353 0.993784
0.994833 0.994849 0.810756
0.994848 0.996389 0.936596
0.996109 0.997439 0.880176
0.994813 1.00324 0.998442
0.994838 0.994842 0.819383
0.994802 0.994805 0.814936
0.994759 0.994821 0.808888
0.995798 0.999841 0.871681
0.994857 1.00099 0.974336
0.995575 0.997548 0.929629
0.996077 1.00502 0.997691
0.995091 1.00511 0.999168
0.994889 1.0052 0.998425
0.998452 1.00513 0.991442
0.995748 1.0052 0.99675
0.994984 1.00521 0.998178
0.995649 1.00497 0.996994
0.994939 1.00518 0.998475
0.997657 1.00229 0.997802
0.996389 1.00488 0.996172
0.998481 1.00469 0.992408
0.998676 1.00202 0.995591
0.998697 1.00134 0.99343
0.996832 0.998043 1.00148
1.00196 0.999671 0.991075
1.00435 1.0045 0.982412
1.00451 1.00295 0.983975
1.00238 1.00058 0.990685
1.00429 1.00207 0.985305
1.00509 1.00228 0.984018
1.00503 0.999955 0.986598
1.00461 1.00226 0.984529
1.00204 1.0027 0.98881
1.00332 0.999658 0.989729
1.00311 1.00015 0.987942
1.00049 1.00512 0.988475
1.00044 1.00502 0.988887
1.00036 1.00223 0.991691
1.00011 1.00511 0.989588
1.00045 1.00501 0.989158
1.00022 1.00406 0.990412
1.00046 1.00452 0.989922
1.00021 1.00312 0.991434
1.00015 0.999628 0.994905
1.00027 1.00255 0.991992
1.00021 0.999412 0.995068
1.00011 0.997336 0.998916
1.00013 0.999387 0.995239
1.00015 0.997321 0.998242
1.0001 0.997267 0.998992
1.00053 1.00282 0.990979
1.0003 1.00135 0.992817
1.00054 1.00272 0.991201
1.00018 0.998334 0.996217
1.00022 1.00088 0.993398
1.00046 1.00234 0.991873
1.00008 0.996705 0.999214
1.00012 0.99816 0.996479
1.00008 1.00059 0.993871
1.00004 0.9967 0.999255
1.00007 0.998071 0.996642
1.00001 0.996763 0.99926
0.994797 0.99483 0.819645
0.994816 0.994818 0.815334
0.994691 0.994823 0.817736
1.00106 1.00258 0.990683
1.00063 1.00301 0.990517
1.00121 1.00177 0.99147
0.994877 0.994837 0.815388
0.994816 0.994796 0.814469
0.994755 0.994759 0.807527
0.996789 0.994813 0.963082
0.995628 0.994765 0.928993
0.994794 0.997952 0.885581
0.994829 0.994841 0.804947
0.994982 0.995008 0.959186
0.994903 0.997172 0.934985
0.995406 0.997441 0.869528
0.995124 0.994877 0.822332
0.995707 0.995115 0.95632
0.994845 0.997167 0.939513
0.996432 0.9963 0.879443
0.994839 0.994844 0.80843
0.999696 1.00274 0.992354
1.00018 1.00393 0.990679
1.00023 1.00392 0.990362
1.00093 1.00273 0.990636
1.00038 1.00429 0.990069
1.00104 1.00319 0.990382
0.99602 0.998095 0.991144
0.99607 1.00115 1.00069
0.999437 1.00358 0.991881
0.998545 1.00236 0.99648
0.998459 1.00446 0.993885
0.997987 1.00395 0.993816
0.996893 1.00485 0.99525
0.994791 1.00193 0.987163
0.995678 1.00509 0.997453
0.995546 1.00331 0.998007
0.996906 1.00509 0.995062
0.994882 1.0026 0.984795
0.995473 1.00508 0.995205
0.995072 1.00421 0.998737
0.994849 0.994836 0.816946
0.994783 0.994819 0.816996
0.994814 0.994812 0.819748
0.995742 1.00382 0.999437
0.994799 0.999598 0.98962
0.994794 0.994826 0.81252
0.994824 0.997612 0.936166
0.996739 0.996434 0.864987
0.994869 0.994842 0.817812
0.994827 0.994834 0.805459
0.994792 1.00309 0.998921
0.994828 0.994844 0.819536
0.99482 0.994804 0.815772
0.994869 0.999827 0.971802
0.994718 0.994817 0.801933
0.99579 0.999228 0.867053
0.994891 0.995596 0.94321
0.994867 1.00516 0.990349
0.99479 0.994838 0.820036
0.994774 0.994785 0.80884
0.994674 0.994815 0.819913
0.994801 0.997394 0.859734
0.99486 0.998484 0.938308
0.994872 1.0012 0.96615
0.995092 1.00508 0.999119
0.994908 1.0052 0.998358
0.996088 1.00411 0.997488
0.995878 1.00478 0.996935
0.994942 1.00512 0.998504
0.996294 1.0039 0.997796
0.999269 0.999229 0.997907
0.998364 1.00237 0.996241
1.00109 1.00105 0.992468
1.0022 1.00492 0.985803
1.00143 0.999491 0.99263
1.00424 1.00426 0.983275
1.00429 1.00473 0.98228
1.00501 1.00143 0.984269
1.00503 1.00184 0.984359
1.00451 1.00305 0.983827
1.00442 1.00236 0.984696
1.00509 1.00156 0.984752
1.0051 1.00217 0.984097
1.00412 1.00038 0.987612
1.00465 1.00007 0.986934
1.00426 1.002 0.98488
1.0009 1.00503 0.98793
1.00198 1.00303 0.988742
1.00271 1.0005 0.989466
1.00046 1.00467 0.989422
1.00082 1.00511 0.988476
1.00016 1.00497 0.989142
1.00067 1.00496 0.989181
1.00037 1.00386 0.99042
1.00008 1.00024 0.994378
1.00034 1.00298 0.991418
1.00017 0.99967 0.994879
1.00013 0.997474 0.998876
1.00022 0.999418 0.995067
1.00017 0.997362 0.998169
1.00014 0.997329 0.998927
1.00078 1.00316 0.99062
1.00042 1.00163 0.992549
1.00068 1.00266 0.991036
1.00026 0.998561 0.995855
1.0003 1.00134 0.992902
1.00055 1.00269 0.991359
1.00011 0.996768 0.999158
1.00019 0.998279 0.996236
1.00026 1.00084 0.993324
1.00008 0.996723 0.999225
1.00012 0.998135 0.996493
1.00005 0.996716 0.999261
0.994834 0.994839 0.818416
0.9948 0.994844 0.819755
0.994813 0.994827 0.815678
1.00003 1.00472 0.989763
1.00099 1.00421 0.990258
1.00088 1.00269 0.990853
1.00054 1.00339 0.990406
1.00066 1.00193 0.991685
1.00025 1.00287 0.991396
0.999948 1.00172 0.992973
0.994831 0.994807 0.807687
0.99488 0.994846 0.816252
0.99481 0.994819 0.815264
0.994895 0.994872 0.818017
0.995257 0.995097 0.957099
0.994827 0.998343 0.929726
0.995454 0.995227 0.883559
0.995229 0.995086 0.955544
0.994861 0.998366 0.926811
0.995592 0.997455 0.880718
0.99491 0.99484 0.818514
0.995959 0.996527 0.959761
0.994947 0.998844 0.928454
0.994977 0.995913 0.86153
0.994738 0.994818 0.802789
0.99758 1.00464 0.994338
0.999405 1.0033 0.992708
1.00027 1.00412 0.990491
1.00096 1.00296 0.990585
0.99481 1.00174 0.987155
0.995619 1.00383 0.997205
0.99756 1.0048 0.994428
0.996912 1.00474 0.995511
0.995473 1.00514 0.997929
0.99671 1.00507 0.995216
0.995352 1.00432 0.998765
0.995533 1.00222 0.981492
0.995169 1.00525 0.995436
0.995747 1.00412 0.997552
0.994904 1.00477 0.979698
0.995224 1.00294 0.999189
0.994777 0.994818 0.818397
0.994842 0.994837 0.820202
0.994789 0.994835 0.816203
0.994791 1.0031 0.999383
0.994861 1.00003 0.975089
0.994819 0.99484 0.819735
0.995069 0.997534 0.930678
0.996347 0.996063 0.881742
0.994829 0.994826 0.816519
0.994686 0.994823 0.810826
0.994876 1.00468 0.991256
0.994807 0.994838 0.82017
0.994758 0.994783 0.808858
0.994867 0.99979 0.96614
0.994713 0.994825 0.811431
0.994727 0.997163 0.862368
0.99494 0.998613 0.926311
0.994893 1.0047 0.985177
0.994834 0.994818 0.815197
0.994687 0.994783 0.803495
0.996283 0.99484 0.882957
0.994765 0.997039 0.938242
0.994794 0.999979 0.95937
0.994924 1.00527 0.998689
0.995499 1.00442 0.997566
0.996747 1.00033 0.998654
0.99524 1.00512 0.99778
0.997507 1.00087 0.998291
1.00196 1.00031 0.992551
1.00356 1.00063 0.991515
1.0031 1.00501 0.985064
1.00404 1.00323 0.983784
1.00388 1.00412 0.984137
1.00442 1.00465 0.982222
1.00447 1.00383 0.983094
1.00522 0.99957 0.985713
1.00511 1.00086 0.985131
1.00504 1.00161 0.984219
1.00509 1.00163 0.984536
1.00502 1.00169 0.984367
1.00443 1.0032 0.983676
1.00512 1.0012 0.985328
1.00504 1.00179 0.984612
1.00511 1.00206 0.984181
1.00271 1.00324 0.987422
1.00355 1.00079 0.988065
1.00434 1.0001 0.987273
1.00061 1.00497 0.988454
1.00129 1.00479 0.987994
1.0017 1.0034 0.988672
1.00018 1.00083 0.99362
1.00059 1.00451 0.989436
1.00108 1.0051 0.988476
1.00045 1.00377 0.990426
1.0001 1.00031 0.994344
1.00008 0.997727 0.998795
1.00018 0.999711 0.994854
1.00013 0.997473 0.998861
1.00015 0.997321 0.998895
1.00009 1.00511 0.989928
1.00073 1.00436 0.989691
1.00057 1.00208 0.991856
1.00065 1.00324 0.9906
1.00027 0.998913 0.995467
1.00042 1.00165 0.992541
1.00071 1.00263 0.991094
1.00014 0.996916 0.999068
1.00025 0.998551 0.995876
1.00031 1.00134 0.992984
1.00011 0.996759 0.999175
1.0002 0.998248 0.996257
1.00008 0.996708 0.999236
0.994801 0.994837 0.81274
0.994821 0.994834 0.8186
0.99481 0.994834 0.819859
1.00025 1.00483 0.989755
1.00025 1.00364 0.990454
1.00045 1.00307 0.989462
0.999287 1.00449 0.990447
1.0013 1.0034 0.99071
1.00069 1.00377 0.990294
1.00051 1.00204 0.991899
1.00029 1.00315 0.991425
1.00032 1.00163 0.993027
0.998894 1.00391 0.993241
0.994753 0.994776 0.810707
0.994815 0.994808 0.808685
0.994883 0.994842 0.817049
0.9951 0.994843 0.819707
0.995638 0.996307 0.86615
0.994862 0.995062 0.954445
0.994825 0.997214 0.938973
0.995356 0.996331 0.955931
0.994893 0.996022 0.940359
0.995022 0.998705 0.870098
0.994755 0.994818 0.801186
0.994896 0.998619 0.959076
0.994861 1.00039 0.940025
0.994781 0.996587 0.885807
0.994712 0.994859 0.821323
0.998475 1.00155 0.996196
0.997195 1.00445 0.994746
0.999391 1.00311 0.993079
0.995721 1.00214 0.977924
0.994971 1.00525 0.995619
0.996484 1.00497 0.995362
0.994944 1.00459 0.998788
0.996038 1.00405 0.997525
0.995192 1.00228 0.999538
0.994861 1.00259 0.979144
0.996048 1.00119 0.999997
0.995602 1.00026 0.985888
0.994813 0.994821 0.823814
0.994792 0.99483 0.817639
0.994832 0.994835 0.823512
0.994899 1.00419 0.991551
0.994858 0.999642 0.963749
0.994824 0.994844 0.820299
0.994835 0.998996 0.938186
0.994769 0.99795 0.883179
0.994744 0.994761 0.809055
0.994741 0.994838 0.80266
0.99534 1.00474 0.985909
0.994816 0.994822 0.815391
0.99471 0.994785 0.802935
0.995039 0.999078 0.960449
0.995764 0.995158 0.880845
0.994863 0.997313 0.932805
0.995185 1.0027 0.9829
0.994694 0.994777 0.80569
0.997718 0.994821 0.884158
0.996036 0.995855 0.929786
0.99485 0.996275 0.961514
0.99558 1.00503 0.997657
0.996253 1.0018 0.998561
0.999011 1.00195 0.995548
0.995866 1.00305 0.998664
1.00082 1.0004 0.993516
1.00399 0.998711 0.989762
1.00393 1.00505 0.984309
1.00386 1.00348 0.983676
1.00443 1.0003 0.986
1.00466 1.00464 0.982166
1.00453 1.00334 0.983185
1.00499 0.999688 0.986113
1.0053 0.997021 0.988026
1.00524 0.999123 0.986078
1.00523 0.999501 0.985787
1.00517 1.00073 0.985322
1.00512 1.00089 0.985049
1.00507 1.00174 0.984166
1.00519 1.002 0.984344
1.00504 1.00154 0.984551
1.00501 1.00157 0.984372
1.00447 1.00152 0.986163
1.0046 1.0016 0.985503
1.00498 1.00206 0.984473
1.00126 1.0048 0.987301
1.0025 1.00325 0.987415
1.00317 1.0011 0.988515
1.00013 1.00191 0.993712
1.00092 1.00492 0.98847
1.00164 1.0045 0.98806
1.00014 0.998315 0.996555
1.00018 1.00103 0.993992
1.00072 1.0044 0.989449
1.00013 1.0004 0.994308
1.00009 0.997819 0.998737
1.00013 0.997494 0.998844
1.00077 1.0048 0.989002
1.00089 1.0051 0.98891
0.9996 1.00512 0.989852
1.00051 1.00318 0.990913
1.00057 1.0044 0.989665
1.00023 0.999318 0.99512
1.00051 1.00218 0.991875
1.00069 1.00327 0.990576
1.00013 0.997181 0.998979
1.00028 0.998885 0.995484
1.00041 1.00168 0.992534
1.00013 0.996917 0.999096
1.00024 0.998522 0.995896
1.00011 0.99676 0.999192
0.994784 0.994822 0.824933
0.994806 0.994838 0.812858
0.994806 0.99485 0.818795
1.00221 1.00147 0.988846
0.999866 1.00501 0.989743
0.999977 1.00364 0.990671
1.00016 1.00504 0.990121
1.00141 1.00261 0.989578
1.00049 1.00332 0.991855
1.00321 1.00261 0.98706
0.997798 1.00501 0.992329
1.00014 1.00323 0.991449
1.00011 1.00116 0.993078
0.998376 1.00385 0.993172
0.998312 1.00431 0.993724
0.994726 0.994809 0.812224
0.994771 0.99478 0.810159
0.99481 0.994809 0.809491
0.994793 0.994879 0.815569
0.99495 0.998443 0.868728
0.994962 0.998514 0.928618
0.99494 0.995552 0.956105
0.994902 0.999105 0.958508
0.994728 0.994886 0.812262
0.994884 0.996335 0.931978
0.99474 0.997407 0.868606
0.994888 0.996495 0.964067
0.994825 0.998592 0.941416
0.995761 0.994856 0.882977
0.999886 0.994981 1.00022
0.99842 1.00148 0.996105
0.997012 1.00436 0.995129
0.994889 1.00188 0.978922
0.995284 1.0014 0.999848
0.996572 1.00406 0.99751
0.997091 1.00051 1.00024
0.995189 0.999162 0.986045
0.996289 0.998569 0.992012
0.994712 0.99483 0.820005
0.99481 0.994813 0.825015
0.994801 0.994832 0.816786
0.994967 1.00444 0.986154
0.994856 0.999965 0.960064
0.994799 0.994828 0.815784
0.994829 0.998458 0.927823
0.996049 0.994851 0.864932
0.994752 0.994805 0.815572
0.994785 1.00485 0.982818
0.994703 0.994818 0.818516
0.99786 0.994766 0.864692
0.994858 0.99578 0.957289
0.99614 0.996819 0.941242
0.994885 1.00232 0.989385
0.999811 0.994845 0.856212
0.99803 0.994843 0.943335
0.994839 0.994827 0.956337
0.995621 1.00295 0.998509
0.998304 1.00141 0.995358
1.00113 1.00245 0.991694
0.999787 1.00029 0.994481
1.00319 0.999399 0.989549
1.00448 0.999118 0.988073
1.00381 1.00373 0.983563
1.00437 1.00051 0.985902
1.00505 0.99669 0.988472
1.00459 1.00277 0.983278
1.00492 0.99955 0.986092
1.00532 0.995918 0.989143
1.00527 0.995587 0.98992
1.00528 0.997207 0.988003
1.00531 0.996968 0.988143
1.00526 0.998997 0.986261
1.00523 0.999102 0.986263
1.00521 0.999459 0.985861
1.00526 1.00115 0.984618
1.00517 1.00064 0.985275
1.00512 1.00088 0.984966
1.00517 1.00149 0.984733
1.00507 1.00195 0.984386
1.00499 1.00143 0.984567
1.00272 1.00355 0.986561
1.00416 1.00189 0.986069
1.004 1.002 0.985681
1.0003 1.00259 0.991624
1.00176 1.00473 0.987322
1.00234 1.00344 0.987404
0.999837 0.99925 0.998355
1.00022 1.00185 0.992582
1.00118 1.00485 0.988485
1.00011 0.998252 0.998535
1.00019 1.00108 0.993481
1.00011 0.997875 0.998672
1.0031 1.00301 0.987733
1.00085 1.00468 0.988856
1.00115 1.00509 0.98841
1.00063 1.0041 0.989854
1.00062 1.00509 0.988886
0.999806 1.00518 0.98978
1.00015 0.999991 0.994638
1.00048 1.00316 0.990929
1.00039 1.00434 0.989637
1.00011 0.997388 0.9989
1.00024 0.999278 0.995136
1.00044 1.00222 0.991892
1.00013 0.99713 0.999005
1.00028 0.99886 0.995499
1.00012 0.996872 0.999124
0.994723 0.994798 0.804431
0.994804 0.994824 0.825263
0.994814 0.994838 0.813003
1.00206 1.00232 0.988736
1.00487 1.00159 0.986571
1.00237 1.00315 0.987871
1.00003 1.0049 0.989791
1.00265 1.00227 0.989694
0.999043 1.00244 0.992962
0.998802 1.00463 0.991815
1.00213 1.00312 0.988087
1.00226 1.00202 0.989434
0.99902 0.999728 0.996238
0.999145 1.00388 0.993089
0.998535 1.00447 0.993635
0.998644 0.994803 0.858058
0.994696 0.994798 0.805755
0.994779 0.994783 0.810285
0.994745 0.994839 0.802668
0.994805 0.997353 0.887172
0.994862 0.997583 0.927532
0.994885 0.997016 0.957122
0.994867 0.99685 0.961826
0.99603 0.996429 0.88097
0.994839 0.996599 0.929285
0.994855 0.997378 0.965114
0.995841 0.994784 0.929908
0.999802 0.995458 1.00193
0.999587 0.99615 1.0002
0.998201 1.00137 0.996083
0.994909 0.998893 0.986363
0.997738 0.999724 1.00048
0.996714 0.998778 0.991646
0.996399 0.996505 0.99025
0.99979 0.994929 0.870636
0.994703 0.994819 0.817332
0.994817 0.994815 0.826036
0.994785 1.00501 0.983158
0.994855 0.994892 0.955571
0.994697 0.994831 0.818174
0.995523 0.994774 0.930324
0.998784 0.994816 0.884171
0.994891 1.00034 0.98609
0.999766 0.994852 0.868568
0.998204 0.995139 0.929686
0.994841 0.994792 0.957917
0.996625 0.998344 0.987372
0.99996 0.994886 0.942444
0.995154 0.994803 0.96345
0.997611 1.00064 0.995156
1.00022 1.00108 0.991726
1.00363 0.999734 0.990573
1.00239 1.00034 0.989354
1.00421 0.999011 0.988029
1.00517 0.996381 0.98907
1.00429 1.00076 0.985811
1.00491 0.997184 0.988422
1.00528 0.994986 0.990012
1.00484 0.999414 0.986068
1.00532 0.995946 0.98909
1.00527 0.994962 0.990465
1.00528 0.99511 0.990507
1.00528 0.995549 0.990055
1.00524 0.995946 0.989856
1.00528 0.997571 0.987984
1.00528 0.997254 0.988136
1.00533 0.996903 0.988261
1.00529 0.999815 0.985833
1.00526 0.999048 0.986214
1.00522 0.999057 0.986449
1.00531 1.00162 0.984253
1.00528 1.00116 0.984649
1.00518 1.00059 0.985228
1.00355 1.00274 0.986036
1.00511 1.00158 0.984733
1.00489 1.00192 0.98443
1.00077 1.00303 0.990463
1.00278 1.00357 0.986532
1.00398 1.00198 0.985979
1.00007 0.999474 0.998065
1.00046 1.0025 0.991598
1.00213 1.0046 0.987342
1.00002 0.999137 0.997202
1.00036 1.00172 0.992594
1.00012 0.998514 0.998414
1.00444 1.00076 0.987352
1.00233 1.00296 0.987834
1.00119 1.00484 0.987933
1.00079 1.00466 0.988702
1.00078 1.00511 0.988456
1.00091 1.00471 0.988959
1.00015 1.0008 0.993857
1.00054 1.0042 0.989837
1.00015 1.00511 0.988862
1.00008 0.99775 0.998758
1.00014 0.999894 0.994667
1.00046 1.00317 0.990946
1.0001 0.997396 0.998924
1.00023 0.999248 0.995161
1.00012 0.99711 0.999031
0.999745 0.99482 0.868596
0.994708 0.994806 0.810226
0.994814 0.994823 0.825624
1.00179 1.00256 0.98863
1.00243 1.00355 0.987067
1.00443 1.00216 0.986553
1.00499 1.00342 0.983453
1.00217 1.00293 0.988116
0.999475 1.00491 0.991349
1.00168 1.0035 0.989106
1.00148 1.0021 0.990121
1.00453 0.996841 0.989225
1.00212 0.99874 0.993262
1.00231 0.9963 0.994667
1.0002 0.998929 0.995979
0.99957 1.00301 0.993547
0.997746 0.994854 0.939985
0.998727 0.994773 0.862679
0.99467 0.994795 0.81132
0.996145 0.994849 0.866875
0.994825 0.99838 0.938907
0.994852 0.995782 0.963229
0.994851 0.996824 0.966796
0.996531 0.997616 0.942112
0.995734 0.994797 0.965935
0.999161 0.99665 1.00001
0.999074 0.996033 1.00198
0.999256 0.997504 1.00013
0.997217 0.998211 0.991398
0.997367 0.997093 0.990374
0.999984 0.994894 0.929593
0.999792 0.994886 0.876449
0.994689 0.994801 0.814778
0.994902 0.999417 0.982485
0.995106 0.994783 0.956649
0.999804 0.994812 0.867678
0.997792 0.994817 0.942551
0.996361 0.998188 0.987617
1.00026 0.994873 0.93827
0.995961 0.99483 0.961264
1.00041 0.994971 0.987155
0.998024 0.994818 0.97142
0.99923 0.999473 0.991801
1.0028 0.998212 0.990616
1.0051 0.995237 0.991235
1.004 0.998725 0.987975
1.00511 0.996205 0.988983
1.00528 0.994859 0.99034
1.0047 0.997645 0.988372
1.00529 0.995047 0.98996
1.00526 0.994847 0.990488
1.00531 0.995963 0.989038
1.00526 0.994995 0.990435
1.00528 0.994866 0.990619
1.00527 0.995062 0.990564
1.00526 0.995293 0.990503
1.00528 0.995505 0.990189
1.00523 0.995928 0.989858
1.00522 0.99647 0.989311
1.00528 0.998604 0.987183
1.00528 0.997633 0.987967
1.00528 0.997301 0.988269
1.00534 1.0012 0.984545
1.0053 0.999903 0.985688
1.00526 0.999103 0.986167
1.00434 1.00201 0.985452
1.00524 1.00165 0.984306
1.00529 1.00119 0.984679
1.00126 1.00311 0.989451
1.00337 1.00301 0.986039
1.00486 1.00182 0.984731
1.0002 1.00023 0.997649
1.00089 1.00285 0.990453
1.00299 1.00366 0.986502
1.00014 0.999669 0.997916
1.00059 1.00237 0.99157
1.00014 0.999086 0.998147
1.00517 1.00265 0.984147
1.004 1.0008 0.987269
1.00265 1.00298 0.987164
1.00177 1.00295 0.987952
1.00125 1.00479 0.987766
1.00114 1.00508 0.988123
1.00058 1.00514 0.988497
1.00064 1.00485 0.988927
1.00019 1.00164 0.992902
1.00005 0.998294 0.99851
1.0001 1.00074 0.993882
1.00039 1.00428 0.989819
1.00006 0.997679 0.998811
1.00015 0.999793 0.994682
1.00009 0.997353 0.998947
0.999968 0.994884 0.943128
0.999815 0.994853 0.867911
0.994685 0.994795 0.804328
1.00209 1.0047 0.986256
1.0037 1.0026 0.986536
1.0033 1.00286 0.987481
1.00454 1.00323 0.983868
1.00519 1.00079 0.984906
1.00366 1.00021 0.986982
1.00062 1.00253 0.990771
1.00457 0.996162 0.989578
1.00216 0.998421 0.993305
1.00428 0.995361 0.990498
1.00376 0.997175 0.992363
1.00239 0.997023 0.993535
1.00191 0.996518 0.994538
0.999642 0.999653 0.995729
0.995725 0.994817 0.964213
0.998664 0.995919 0.935456
0.997611 0.994832 0.87995
0.995799 0.996208 0.929603
0.994905 0.996852 0.967234
0.995517 0.995739 0.971694
0.99928 0.994817 0.992209
0.999957 0.995992 0.999441
0.998401 0.996339 1.00206
0.9987 0.998997 0.990541
0.99739 0.995193 0.965729
1.00006 0.994872 0.943661
0.999802 0.994904 0.858958
0.995955 0.998247 0.98797
0.996349 0.994843 0.961679
0.999797 0.994845 0.933665
0.999803 0.995774 0.987536
0.998397 0.994846 0.970527
1.00291 0.995348 0.9896
1.00347 0.996287 0.984813
1.00178 0.997047 0.990645
1.00458 0.9952 0.991252
1.00525 0.994845 0.990772
1.00504 0.996131 0.988897
1.00528 0.994855 0.990289
1.0053 0.994914 0.990462
1.00529 0.995126 0.989906
1.00527 0.99486 0.990468
1.00531 0.994906 0.990499
1.00525 0.995035 0.990405
1.00528 0.994879 0.990623
1.00529 0.994911 0.990634
1.00527 0.99502 0.990621
1.00526 0.995243 0.990516
1.00523 0.995742 0.990198
1.00523 0.995917 0.989859
1.00522 0.996493 0.989308
1.00526 0.997779 0.988132
1.00531 1.00028 0.985553
1.00529 0.998786 0.986937
1.00527 0.997698 0.98795
1.00511 1.00104 0.985124
1.00533 1.00122 0.984593
1.00531 0.999995 0.985543
1.00189 1.00276 0.988661
1.00413 1.00231 0.985468
1.00519 1.00169 0.984357
1.00061 1.00075 0.997193
1.00134 1.00301 0.989441
1.0032 1.00329 0.986041
1.00041 1.00039 0.997465
1.00093 1.00272 0.990452
1.00029 0.999877 0.997738
1.00522 1.00148 0.984621
1.00517 1.0022 0.984298
1.0045 1.00197 0.985243
1.00387 1.00142 0.987186
1.00268 1.00308 0.986968
1.0022 1.00423 0.987127
1.00124 1.00471 0.987602
1.00099 1.00509 0.988134
1.00042 1.00236 0.991908
1.00042 1.00505 0.988899
1.00009 1.00179 0.992921
1.00003 0.999098 0.998206
1.00002 0.998233 0.998603
1.00006 1.00076 0.993914
1.00005 0.997645 0.998856
0.996715 0.99488 0.966217
0.999917 0.994876 0.929088
0.999818 0.994879 0.88052
1.00526 0.998671 0.9867
1.0045 1.00279 0.986865
1.00415 1.00298 0.984283
1.00434 0.999979 0.987426
1.00518 1.00099 0.984865
1.00496 0.997406 0.9884
1.00494 0.997102 0.98994
1.00194 0.997531 0.993363
1.00475 0.996109 0.990494
1.00354 0.997456 0.991309
1.00466 0.996471 0.989706
1.00328 0.994896 0.9943
1.00239 0.996655 0.993633
1.00187 0.996708 0.994397
0.998676 0.994807 0.990772
0.995768 0.994824 0.962642
0.998436 0.994821 0.930058
0.995193 0.996273 0.971144
0.998881 0.994837 0.994942
1.00015 0.995384 0.99882
1.00234 0.994838 0.98144
0.99745 0.99487 0.965539
0.999994 0.994879 0.929716
0.998879 0.995967 0.987919
0.998691 0.994858 0.969864
1.00204 0.995003 0.990113
1.00324 0.995562 0.985662
1.00389 0.995287 0.990853
1.00511 0.99635 0.990899
1.00409 0.995091 0.991261
1.0052 0.99487 0.990683
1.00537 0.994911 0.990337
1.00528 0.994855 0.990239
1.00529 0.994904 0.990468
1.00535 0.994906 0.990422
1.00527 0.994871 0.990448
1.0053 0.9949 0.990513
1.0053 0.994906 0.990647
1.00527 0.994891 0.990626
1.00529 0.99491 0.990625
1.00526 0.995042 0.990719
1.00525 0.995194 0.99053
1.00524 0.995608 0.990288
1.00525 0.996844 0.989162
1.00522 0.996512 0.989306
1.00526 0.997687 0.988221
1.00529 0.999828 0.986165
1.00527 1.0008 0.985172
1.00531 1.00044 0.985386
1.00529 0.998963 0.986691
1.00277 1.0015 0.988529
1.00502 1.00118 0.985123
1.00532 1.00122 0.984642
1.00098 1.00095 0.996833
1.00216 1.00246 0.988643
1.00396 1.00252 0.985488
1.00074 1.00081 0.997053
1.0015 1.00291 0.989437
1.00056 1.00051 0.997306
1.00525 1.00012 0.985554
1.00523 1.00149 0.984531
1.00514 1.00132 0.984874
1.00519 1.00172 0.98445
1.00471 1.00178 0.985187
1.00317 1.00341 0.986465
1.00283 1.0028 0.986771
1.00211 1.00433 0.987138
1.00071 1.00277 0.990878
1.00085 1.00511 0.988135
1.00023 1.00247 0.991933
1.00005 0.9998 0.997873
0.999961 1.00184 0.992941
0.999986 0.998928 0.998318
1 0.998082 0.998687
1.00028 0.995191 0.98649
0.996582 0.994891 0.962458
0.999983 0.994865 0.942917
1.00522 0.996976 0.988519
1.00524 0.996652 0.988874
1.00526 0.998395 0.986963
1.00497 0.999322 0.987864
1.00516 1.00126 0.984829
1.00508 0.997331 0.988644
1.00523 0.995457 0.989513
1.00502 0.995866 0.990492
1.00329 0.998198 0.99026
1.00444 0.996977 0.990119
1.00512 0.994968 0.99081
1.00372 0.994836 0.993024
1.00293 0.994936 0.993983
1.00263 0.996226 0.993745
0.999381 0.994796 0.990825
0.995825 0.994826 0.961299
0.998863 0.994903 0.997808
1.00496 0.994965 0.990409
1.00227 0.995342 0.981563
0.997654 0.994866 0.964177
1.00174 0.994785 0.990578
1.00303 0.994805 0.986528
1.00393 0.99511 0.991525
1.00512 0.995537 0.990997
1.00539 0.994784 0.99093
1.00548 0.994812 0.991167
1.00521 0.994886 0.990594
1.00539 0.99491 0.990314
1.00537 0.99489 0.990513
1.00527 0.994892 0.990474
1.00535 0.994903 0.990449
1.00532 0.994906 0.990637
1.00529 0.994894 0.990528
1.0053 0.994906 0.990643
1.00526 0.994908 0.990897
1.00529 0.994909 0.990615
1.00526 0.995041 0.990694
1.00526 0.996058 0.98987
1.00524 0.995472 0.990379
1.00526 0.996782 0.989191
1.00531 0.999233 0.986733
1.00526 0.9976 0.988309
1.00529 0.999727 0.986288
1.00527 1.0006 0.985376
1.00303 1.00066 0.988909
1.00523 1.00083 0.985181
1.00533 1.00061 0.985218
1.00132 1.00088 0.996596
1.00282 1.00145 0.988516
1.00485 1.00141 0.985123
1.00111 1.001 0.996707
1.00235 1.00226 0.988619
1.0009 1.00093 0.996899
1.00524 0.998307 0.987357
1.00524 0.999973 0.985754
1.00527 1.00093 0.985066
1.00523 1.00145 0.984436
1.0052 1.00128 0.98485
1.00367 1.00249 0.986302
1.00494 1.00166 0.985135
1.00309 1.00309 0.986454
1.00106 1.00312 0.989829
1.00183 1.00434 0.987155
1.00062 1.0029 0.990904
1.00019 1.00062 0.997505
1.00011 1.00263 0.991956
0.999991 0.999685 0.998002
0.999928 0.998802 0.998424
1.00431 0.995242 0.991826
1.00037 0.995062 0.984271
0.99651 0.994917 0.962099
1.00526 0.995826 0.989715
1.00521 0.996547 0.988838
1.00525 0.995568 0.990079
1.00523 0.996716 0.988841
1.00526 0.99809 0.987222
1.00534 0.994872 0.990179
1.00513 0.997465 0.988879
1.00524 0.995728 0.989524
1.0053 0.994809 0.990569
1.00434 0.997322 0.99053
1.00512 0.995064 0.99049
1.00335 0.995005 0.993294
1.00229 0.99546 0.993672
0.99978 0.994789 0.990663
1.00547 0.99487 0.990853
1.00497 0.995481 0.99044
1.002 0.995614 0.981767
1.00384 0.994796 0.992185
1.00509 0.994752 0.991106
1.00536 0.99479 0.990973
1.00551 0.994837 0.991074
1.0054 0.994842 0.990989
1.00541 0.994911 0.990294
1.00536 0.994891 0.990527
1.00531 0.994897 0.990825
1.00535 0.994901 0.990477
1.00532 0.994906 0.990633
1.00524 0.994913 0.990973
1.00531 0.994906 0.990639
1.00526 0.994909 0.990875
1.00528 0.995427 0.990561
1.00526 0.99504 0.99067
1.00527 0.996092 0.989855
1.00534 0.99858 0.987413
1.00526 0.996718 0.98922
1.0053 0.999238 0.986758
1.00526 1.00046 0.985563
1.00529 0.999624 0.986412
1.00528 1.00059 0.985392
1.00303 1.00032 0.990986
1.00168 1.00022 0.993222
1.00306 1.00067 0.989757
1.00521 1.00086 0.985187
1.00134 1.00086 0.996604
1.00295 1.00125 0.988499
1.0012 1.00105 0.996616
1.00522 0.995468 0.990426
1.00523 0.996992 0.988841
1.00523 0.998276 0.987557
1.00526 1.0003 0.985654
1.00524 0.99983 0.985954
1.00526 1.00098 0.984994
1.00441 1.0013 0.98596
1.00525 1.00124 0.984826
1.00383 1.00201 0.986283
1.0018 1.00285 0.988915
1.00323 1.00276 0.98644
1.00104 1.0032 0.989817
1.0005 1.0012 0.997058
1.00049 1.00295 0.990934
1.00007 1.00036 0.997652
0.99992 0.99954 0.99812
1.00543 0.994814 0.99082
1.0043 0.995149 0.991509
1.00081 0.994895 0.982118
1.00528 0.994997 0.990475
1.00522 0.995845 0.989596
1.00521 0.996137 0.989159
1.00523 0.995742 0.990029
1.00523 0.996785 0.988807
1.00537 0.994824 0.990571
1.00534 0.994871 0.990172
1.00525 0.995936 0.989533
1.00526 0.994808 0.990615
1.00511 0.995096 0.990168
1.00317 0.994743 0.993559
1.00533 0.994894 0.991091
1.00548 0.994849 0.990932
1.00506 0.995872 0.990467
1.00534 0.9948 0.990994
1.00554 0.99487 0.990983
1.00541 0.994848 0.990941
1.0053 0.994916 0.991122
1.00536 0.994894 0.990541
1.00531 0.994901 0.990787
1.00525 0.994942 0.991065
1.00532 0.994907 0.990629
1.00525 0.994914 0.990967
1.00529 0.995038 0.991004
1.00527 0.99491 0.990854
1.00527 0.995447 0.990544
1.00536 0.997966 0.988048
1.00527 0.996126 0.989839
1.00533 0.99859 0.987434
1.00526 1.00029 0.985758
1.0053 0.999244 0.986782
1.00528 1.00043 0.985587
1.0031 1.00011 0.991087
1.00528 1.00058 0.985407
1.00324 1.00021 0.990852
1.00171 0.999899 0.993456
1.00135 1.00053 0.99504
1.00327 1.00065 0.990428
1.00132 1.00086 0.996628
1.00524 0.994954 0.990936
1.00523 0.996644 0.989237
1.00522 0.995377 0.990543
1.00529 0.999392 0.986532
1.00524 0.997044 0.988829
1.00523 0.998248 0.987757
1.00526 1.00031 0.985594
1.00504 1.00064 0.9856
1.00526 1.00103 0.984921
1.00461 1.00106 0.985957
1.00255 1.00181 0.988588
1.00396 1.00163 0.986269
1.00161 1.00303 0.988916
1.00084 1.00148 0.996691
1.00091 1.00334 0.989819
1.00033 1.00103 0.997239
0.999998 1.00023 0.997792
1.00532 0.994895 0.990812
1.00536 0.994816 0.990874
1.00411 0.995128 0.991192
1.00529 0.994846 0.990782
1.00527 0.99506 0.990418
1.00518 0.995869 0.989485
1.00522 0.995914 0.989978
1.00536 0.994824 0.990571
1.00534 0.99487 0.990165
1.00523 0.994811 0.990661
1.00528 0.994945 0.991156
1.00532 0.994896 0.991066
1.00548 0.994826 0.991009
1.00528 0.994937 0.991211
1.00541 0.99485 0.990894
1.0053 0.994917 0.991111
1.00525 0.99494 0.991172
1.00531 0.994904 0.990749
1.00524 0.99494 0.991073
1.0053 0.994932 0.991182
1.00525 0.994914 0.990961
1.00528 0.995044 0.990986
1.00537 0.997433 0.988632
1.00525 0.995468 0.990526
1.00537 0.997977 0.98806
1.00525 1.0001 0.986003
1.00532 0.998601 0.987455
1.00528 1.00026 0.985784
1.00313 1.00011 0.991037
1.00529 1.00041 0.985611
1.00329 1.00003 0.990923
1.00177 0.999807 0.993452
1.00345 1.00009 0.990726
1.00124 1.00009 0.993767
1.00068 1.00088 0.997207
1.00522 0.994883 0.991034
1.00523 0.995786 0.990149
1.00524 0.995002 0.990888
1.0053 0.998992 0.986995
1.00523 0.996338 0.989485
1.00523 0.995287 0.990662
1.00527 1.00026 0.985702
1.00529 0.999383 0.986496
1.00525 0.997096 0.988819
1.00527 1.00032 0.985533
1.00512 1.00055 0.985599
1.00287 1.0009 0.988924
1.00475 1.00083 0.985959
1.00239 1.00203 0.988625
1.00104 1.00138 0.996631
1.00154 1.00315 0.988907
1.00072 1.00136 0.996824
1.00017 1.00084 0.997407
1.00528 0.994931 0.990995
1.00533 0.994893 0.990763
1.00532 0.994815 0.99093
1.00529 0.994847 0.990795
1.00526 0.995124 0.990363
1.00536 0.994825 0.990571
1.00527 0.994956 0.991181
1.00528 0.994941 0.991173
1.00531 0.994898 0.991041
1.00528 0.994941 0.991204
1.00522 0.994943 0.991346
1.00529 0.994917 0.9911
1.00525 0.994942 0.9912
1.0053 0.994945 0.991197
1.00524 0.994939 0.991082
1.0053 0.994931 0.991168
1.00536 0.996999 0.989148
1.00527 0.995049 0.990969
1.00539 0.997432 0.98863
1.00517 0.99995 0.98633
1.00537 0.997989 0.988073
1.00527 1.00008 0.98602
1.00307 1.00019 0.991009
1.00529 1.00024 0.98581
1.0033 1.00006 0.990861
1.00179 0.999877 0.993341
1.00347 0.999963 0.990768
1.00136 0.999864 0.99379
1.00079 1.00031 0.994062
1.00519 0.994925 0.991134
1.00523 0.995181 0.990854
1.00521 0.994879 0.991009
1.00532 0.997974 0.98801
1.00524 0.995855 0.99009
1.00524 0.995047 0.990839
1.00529 1.00004 0.985944
1.0053 0.998606 0.987325
1.00524 0.996031 0.989732
1.00299 1.00028 0.989366
1.00526 1.00027 0.985684
1.00528 0.999373 0.98646
1.00523 1.00044 0.985594
1.00285 1.00094 0.988938
1.00114 1.00099 0.996744
1.00224 1.00227 0.988655
1.00101 1.00134 0.99663
1.00058 1.00126 0.996975
1.00527 0.994952 0.991138
1.00528 0.994933 0.99097
1.00533 0.994892 0.990714
1.0053 0.994847 0.990808
1.00521 0.994958 0.991354
1.00527 0.994951 0.991188
1.00528 0.994936 0.991189
1.00528 0.994945 0.991196
1.00523 0.994941 0.991337
1.00528 0.995135 0.991035
1.00525 0.994943 0.991228
1.0053 0.995065 0.991086
1.00534 0.996522 0.98972
1.00529 0.99493 0.991155
1.00537 0.996992 0.989137
1.00507 0.999732 0.986709
1.00541 0.997446 0.988627
1.00519 0.999903 0.986341
1.003 1.0003 0.989417
1.00529 1.00005 0.986039
1.00323 1.00016 0.99002
1.00156 0.999952 0.996716
1.00346 1.00002 0.990685
1.00143 0.999858 0.993689
1.00098 0.999918 0.994112
1.00519 0.994953 0.991204
1.00525 0.995007 0.991052
1.00519 0.99493 0.99116
1.00538 0.997266 0.98875
1.00525 0.995326 0.990619
1.00521 0.994874 0.990983
1.00528 0.999559 0.98647
1.00532 0.997983 0.988026
1.00524 0.995918 0.99003
1.00311 0.999895 0.989558
1.00528 0.999871 0.986085
1.00529 0.998219 0.987655
1.00128 1.00052 0.996841
1.00303 1.00023 0.989362
1.00527 1.00028 0.98566
1.00282 1.001 0.988961
1.00117 1.001 0.996695
1.00095 1.00131 0.99667
1.00519 0.994966 0.991281
1.00526 0.994957 0.991137
1.00529 0.994935 0.990946
1.00526 0.995176 0.991097
1.00521 0.994956 0.991327
1.00527 0.994946 0.991195
1.00523 0.99494 0.991328
1.00528 0.995183 0.991033
1.00533 0.996781 0.989436
1.00531 0.995199 0.990974
1.00534 0.996845 0.989354
1.00498 0.999123 0.987532
1.00538 0.996971 0.989127
1.00508 0.999723 0.986715
1.00292 1.00019 0.989684
1.00521 0.999862 0.986351
1.00303 1.00026 0.989427
1.00146 1.00002 0.996723
1.00326 1.00016 0.989177
1.0014 0.999967 0.995236
1.00107 0.999831 0.994035
1.00516 0.99496 0.991345
1.00527 0.994951 0.991229
1.00519 0.994956 0.991209
1.0054 0.9974 0.988582
1.00525 0.994974 0.991101
1.00518 0.994936 0.991186
1.00526 0.999396 0.986666
1.00537 0.997643 0.988354
1.00526 0.995478 0.990384
1.00318 0.999831 0.98954
1.00527 0.99952 0.986487
1.00531 0.997996 0.988043
1.00146 1.00012 0.996845
1.00314 0.999849 0.989556
1.00527 0.999697 0.986226
1.0013 1.00053 0.996808
1.00305 1.00017 0.98936
1.00113 1.00103 0.996652
1.00524 0.995233 0.991008
1.0052 0.994964 0.991305
1.00526 0.994961 0.991136
1.00533 0.996783 0.989454
1.00526 0.995219 0.99107
1.00522 0.994955 0.9913
1.00528 0.99523 0.991031
1.00533 0.996814 0.989443
1.00492 0.998939 0.987821
1.00535 0.997156 0.98899
1.005 0.999309 0.987273
1.00284 1.00004 0.989963
1.00507 0.999709 0.986721
1.00289 1.00021 0.989696
1.00135 1.00004 0.996763
1.00305 1.00022 0.989436
1.00143 1.00004 0.996732
1.00149 0.999929 0.99346
1.00523 0.995301 0.990973
1.00516 0.994959 0.99128
1.00537 0.997165 0.988895
1.00526 0.994949 0.99124
1.00518 0.994958 0.991214
1.00521 0.999684 0.986497
1.00539 0.997417 0.988585
1.00525 0.994939 0.99115
1.00316 0.999929 0.989503
1.00525 0.999579 0.986482
1.00536 0.998025 0.987959
1.00155 0.999937 0.996783
1.00319 0.999821 0.989539
1.00526 0.999479 0.986506
1.00145 1.00016 0.996848
1.00318 0.999813 0.989553
1.00134 1.00056 0.996772
1.00533 0.996881 0.989321
1.00523 0.995271 0.991037
1.0052 0.994962 0.99133
1.0049 0.998883 0.987893
1.00532 0.996821 0.989455
1.00525 0.995265 0.991043
1.00532 0.996851 0.98945
1.00494 0.998915 0.987787
1.00272 0.999961 0.990244
1.00501 0.999496 0.987013
1.00282 1.00005 0.989974
1.00128 1.00002 0.996824
1.00289 1.00023 0.989709
1.00131 1.00006 0.996791
1.00139 1.00004 0.99675
1.00534 0.997026 0.989154
1.00523 0.995143 0.991113
1.00517 0.994956 0.991216
1.00509 0.999614 0.986806
1.00537 0.997179 0.988904
1.00525 0.994946 0.991251
1.00307 1.00002 0.989606
1.00517 0.999737 0.986494
1.00538 0.99743 0.988588
1.00153 0.999922 0.996735
1.00316 0.999945 0.989502
1.00525 0.99975 0.986299
1.00155 0.999966 0.996808
1.00321 0.999821 0.989536
1.00148 1.00016 0.996841
1.00493 0.999299 0.98739
1.00533 0.996722 0.989523
1.00523 0.995309 0.991065
1.00267 0.999872 0.990453
1.00491 0.998853 0.987888
1.00532 0.996853 0.989455
1.00497 0.998885 0.987753
1.00273 0.999934 0.990254
1.00121 1.00002 0.996871
1.0028 1.00006 0.989983
1.00125 1.00003 0.996835
1.00126 1.00008 0.996811
1.005 0.999433 0.987155
1.00534 0.996849 0.989348
1.00523 0.994968 0.991254
1.00303 1.00005 0.99126
1.00507 0.999625 0.986809
1.00538 0.997196 0.988913
1.00143 0.999958 0.996748
1.00305 1.00006 0.989603
1.00514 0.999793 0.98649
1.00155 0.999932 0.996752
1.00315 0.999966 0.989499
1.00156 0.999978 0.99683
1.00277 0.999869 0.990343
1.00492 0.999108 0.987587
1.00532 0.996561 0.989725
1.00111 0.999978 0.996946
1.00265 0.99987 0.990448
1.00492 0.998826 0.987884
1.00273 0.999909 0.99026
1.00117 1.00001 0.996898
1.00122 1.00005 0.996854
1.00297 0.999951 0.991496
1.00498 0.999437 0.987158
1.00534 0.996687 0.989541
1.00081 1.00001 0.997347
1.0029 1.00005 0.989862
1.00504 0.999631 0.986812
1.00146 0.999969 0.996747
1.00302 1.00011 0.989599
1.00157 0.999939 0.996769
1.0011 0.999937 0.9941
1.0028 0.999874 0.991029
1.00492 0.998917 0.987782
1.00114 0.999982 0.996955
1.00266 0.999872 0.990451
1.00118 0.999996 0.99692
1.00062 0.999992 0.99454
1.00288 0.999932 0.990835
1.00496 0.999446 0.98716
1.00104 0.999997 0.995577
1.00289 1.00005 0.989885
1.00148 0.99997 0.996749
1.00113 0.999965 0.996947
1.00267 0.999862 0.990437
1.0011 0.999984 0.996953
1.0009 0.999962 0.995747
1.00277 0.999923 0.990232
1.00135 0.999988 0.996787
1.00116 0.999965 0.996949
1.00121 0.999974 0.996878

TENSORS stress float
0.00228712 -0.000157829 0.000265198
-0.000157829 0.00110825 -4.57388e-05
0.000265198 -4.57388e-05 0.00108195
0.00712044 7.06328e-05 0.000308208
7.06328e-05 0.00416287 3.54294e-05
0.000308208 3.54294e-05 0.0041696
0.00190454 -8.79484e-05 0.000110657
-8.79484e-05 0.000865618 -1.78609e-05
0.000110657 -1.78609e-05 0.000827256
0.00225803 -8.94493e-05 0.000256197
-8.94493e-05 0.00106584 -2.61334e-05
0.000256197 -2.61334e-05 0.00104927
0.00231411 -0.000138681 0.000258996
-0.000138681 0.00111526 -4.02781e-05
0.000258996 -4.02781e-05 0.00109242
0.00230469 -0.000162599 0.000277187
-0.000162599 0.00111968 -4.74283e-05
0.000277187 -4.74283e-05 0.00109369
0.00188106 -0.000149874 5.24437e-05
-0.000149874 0.000754566 -1.46545e-05
5.24437e-05 -1.46545e-05 0.000637795
0.00704469 6.20223e-05 -7.74753e-06
6.20223e-05 0.00410657 -1.6958e-06
-7.74753e-06 -1.6958e-06 0.00411797
0.0066301 0.000221634 0.000152639
0.000221634 0.00384879 1.52812e-05
0.000152639 1.52812e-05 0.00382165
0.00667014 -1.42951e-05 8.8012e-05
-1.42951e-05 0.00385389 4.5396e-06
8.8012e-05 4.5396e-06 0.00383435
0.00200333 0.000205998 0.000284021
0.000205998 0.000937842 3.78407e-05
0.000284021 3.78407e-05 0.000927162
0.000394044 0.000260841 2.66734e-05
0.000260841 -0.000144065 2.04714e-05
2.66734e-05 2.04714e-05 -0.000286485
0.00184012 -3.2606e-05 0.000249741
-3.2606e-05 0.000803121 4.12981e-06
0.000249741 4.12981e-06 0.000804704
0.00151004 3.42776e-06 6.59281e-05
3.42776e-06 0.000615783 1.8511e-06
6.59281e-05 1.8511e-06 0.000568241
0.00160556 -8.71965e-05 -5.9419e-05
-8.71965e-05 0.000688726 1.09722e-05
-5.9419e-05 1.09722e-05 0.00063255
0.00190612 -8.89939e-05 8.34886e-05
-8.89939e-05 0.000862015 -5.24058e-06
8.34886e-05 -5.24058e-06 0.000826841
0.00192607 -7.68874e-05 0.000121036
-7.68874e-05 0.00088415 -1.92831e-05
0.000121036 -1.92831e-05 0.000841961
0.00191035 -9.46457e-05 9.87708e-05
-9.46457e-05 0.00086322 -1.37525e-05
9.87708e-05 -1.37525e-05 0.000827768
0.00196623 -0.000186105 -4.18962e-05
-0.000186105 0.000806607 6.22511e-06
-4.18962e-05 6.22511e-06 0.000699024
0.00623191 -0.0001479 0.000325196
-0.0001479 0.00360755 -1.43497e-05
0.000325196 -1.43497e-05 0.00362673
0.00220259 -6.62023e-05 0.000253027
-6.62023e-05 0.00103225 -1.94152e-05
0.000253027 -1.94152e-05 0.00101901
0.00230781 -0.000114792 0.0002573
-0.000114792 0.00110227 -3.3497e-05
0.0002573 -3.3497e-05 0.00108283
0.00184807 -0.000142414 7.21695e-05
-0.000142414 0.000732725 -1.11788e-05
7.21695e-05 -1.11788e-05 0.00063183
0.00187594 -0.000152847 6.09193e-05
-0.000152847 0.000744259 -1.41848e-05
6.09193e-05 -1.41848e-05 0.000635935
0.0022031 -0.000141833 0.000279953
-0.000141833 0.00104645 -4.43156e-05
0.000279953 -4.43156e-05 0.00102258
0.00188699 -0.000148532 4.59713e-05
-0.000148532 0.000778028 -1.49058e-05
4.59713e-05 -1.49058e-05 0.000648881
0.00207721 -0.000342298 1.98404e-05
-0.000342298 0.000637371 -8.51852e-06
1.98404e-05 -8.51852e-06 0.000413718
0.0070034 4.61695e-05 -0.000306462
4.61695e-05 0.00407003 -2.57754e-05
-0.000306462 -2.57754e-05 0.004086
0.00432027 0.000163604 -0.000149135
0.000163604 0.00238638 -1.70963e-05
-0.000149135 -1.70963e-05 0.00236356
0.00434008 8.02243e-05 -0.000149829
8.02243e-05 0.00240509 -1.52752e-05
-0.000149829 -1.52752e-05 0.00238383
0.00693868 -1.15388e-05 -3.41453e-06
-1.15388e-05 0.00405037 -5.85845e-07
-3.41453e-06 -5.85845e-07 0.00405787
0.000400483 0.000243247 -1.11875e-06
0.000243247 -0.000138075 -1.27084e-06
-1.11875e-06 -1.27084e-06 -0.000280326
0.00190558 7.10676e-05 0.000260006
7.10676e-05 0.000843491 2.45866e-05
0.000260006 2.45866e-05 0.000831391
0.00203096 0.000161411 0.000266899
0.000161411 0.000955541 3.7937e-05
0.000266899 3.7937e-05 0.000931132
0.00285139 0.000216247 0.000159371
0.000216247 0.00135019 2.34352e-05
0.000159371 2.34352e-05 0.00126504
0.00607441 -0.000284967 1.73852e-05
-0.000284967 0.00356998 4.58899e-06
1.73852e-05 4.58899e-06 0.00351653
0.00296577 0.000294824 0.000167481
0.000294824 0.0014643 2.92229e-05
0.000167481 2.92229e-05 0.00136256
0.000413854 0.000230218 2.62435e-05
0.000230218 -0.000124194 2.76226e-05
2.62435e-05 2.76226e-05 -0.000266601
0.000916361 0.000276674 1.49917e-05
0.000276674 1.21177e-05 6.23625e-06
1.49917e-05 6.23625e-06 -0.000219108
0.00491499 -0.000111809 0.000185606
-0.000111809 0.00283729 1.8264e-05
0.000185606 1.8264e-05 0.00283392
0.00621419 8.42861e-05 3.33717e-06
8.42861e-05 0.00358263 -1.91582e-06
3.33717e-06 -1.91582e-06 0.00360943
0.00408075 9.36239e-05 -0.000125043
9.36239e-05 0.00223269 -5.86435e-06
-0.000125043 -5.86435e-06 0.00222134
0.00606022 5.80473e-05 0.000315853
5.80473e-05 0.00348861 4.44439e-06
0.000315853 4.44439e-06 0.00351618
0.00144961 8.8261e-05 6.73047e-05
8.8261e-05 0.000583529 4.43352e-06
6.73047e-05 4.43352e-06 0.000541096
0.000493502 1.19775e-05 1.5015e-05
1.19775e-05 -0.000145905 1.77194e-06
1.5015e-05 1.77194e-06 -0.000233651
0.00647619 0.000238884 0.000183831
0.000238884 0.0037746 1.79202e-05
0.000183831 1.79202e-05 0.00374877
0.00287171 7.94445e-05 0.000149737
7.94445e-05 0.00133982 9.49534e-06
0.000149737 9.49534e-06 0.00127986
0.00148065 -8.92771e-05 -8.05838e-05
-8.92771e-05 0.000612562 1.04193e-05
-8.05838e-05 1.04193e-05 0.000558312
0.00152064 -0.000114235 -7.26768e-05
-0.000114235 0.000641977 1.31602e-05
-7.26768e-05 1.31602e-05 0.000583525
0.00166629 -4.53444e-05 -4.7237e-05
-4.53444e-05 0.000721491 9.12672e-06
-4.7237e-05 9.12672e-06 0.000665152
0.00200834 -0.000187958 -0.00014338
-0.000187958 0.000824178 2.70961e-05
-0.00014338 2.70961e-05 0.000728517
0.00390862 -2.33471e-05 -0.000126734
-2.33471e-05 0.0021357 -1.6036e-06
-0.000126734 -1.6036e-06 0.0021244
0.00183966 -6.90357e-05 8.82474e-05
-6.90357e-05 0.000818427 -4.11153e-06
8.82474e-05 -4.11153e-06 0.00078783
0.00196808 -5.44023e-05 0.000127099
-5.44023e-05 0.000909499 -1.8577e-05
0.000127099 -1.8577e-05 0.000864784
0.00191531 -9.25347e-05 8.96577e-05
-9.25347e-05 0.000865041 -9.02394e-06
8.96577e-05 -9.02394e-06 0.000830194
0.00192486 -0.000120451 -3.39765e-05
-0.000120451 0.000769918 2.44301e-06
-3.39765e-05 2.44301e-06 0.000681162
0.00197702 -0.000190683 -4.92968e-05
-0.000190683 0.000825813 7.1769e-06
-4.92968e-05 7.1769e-06 0.000709904
0.00195891 -0.000169868 -3.63061e-05
-0.000169868 0.000795151 4.4516e-06
-3.63061e-05 4.4516e-06 0.000695236
0.00209207 -0.000344156 -1.03489e-05
-0.000344156 0.000643678 2.7216e-06
-1.03489e-05 2.7216e-06 0.000420596
0.00604525 2.19695e-06 0.00031194
2.19695e-06 0.00347701 -2.6311e-06
0.00031194 -2.6311e-06 0.00350588
0.00210564 -4.08968e-05 0.000247243
-4.08968e-05 0.000975407 -1.33596e-05
0.000247243 -1.33596e-05 0.000965985
0.0024496 -1.13632e-05 5.32398e-05
-1.13632e-05 0.00110328 -1.00383e-06
5.32398e-05 -1.00383e-06 0.00103386
0.00179784 -0.000115414 6.45263e-05
-0.000115414 0.000698991 -7.39641e-06
6.45263e-05 -7.39641e-06 0.000607462
0.00186871 -0.000149307 6.80486e-05
-0.000149307 0.000742274 -1.32434e-05
6.80486e-05 -1.32434e-05 0.00063789
0.00193717 -0.000223226 9.54991e-06
-0.000223226 0.000472246 -2.93453e-06
9.54991e-06 -2.93453e-06 0.000300148
0.0019374 -0.000299317 1.64544e-05
-0.000299317 0.000509048 -6.12068e-06
1.64544e-05 -6.12068e-06 0.000308372
0.00190589 -9.64843e-05 0.000251323
-9.64843e-05 0.000863968 -3.59205e-05
0.000251323 -3.59205e-05 0.00084435
0.00189059 -0.000114773 3.59713e-05
-0.000114773 0.000794617 -1.39301e-05
3.59713e-05 -1.39301e-05 0.000661973
0.00206784 -0.000372111 2.14483e-05
-0.000372111 0.0006774 -9.46448e-06
2.14483e-05 -9.46448e-06 0.000434648
0.0017453 -0.00045049 7.53793e-06
-0.00045049 0.000196125 -8.76959e-07
7.53793e-06 -8.76959e-07 -7.44055e-05
0.00702637 0.000277472 -0.000355307
0.000277472 0.00409695 -4.06625e-05
-0.000355307 -4.06625e-05 0.00410302
0.006794 -3.9834e-05 -0.000272726
-3.9834e-05 0.00396158 -2.0527e-05
-0.000272726 -2.0527e-05 0.00397077
0.00699486 0.000125045 -0.000323281
0.000125045 0.00406003 -3.08584e-05
-0.000323281 -3.08584e-05 0.00407777
0.000433603 0.000238166 -2.55793e-05
0.000238166 -0.000111749 -2.07484e-05
-2.55793e-05 -2.07484e-05 -0.000257002
0.00690929 0.00024758 -2.412e-06
0.00024758 0.00401821 -2.44925e-06
-2.412e-06 -2.44925e-06 0.00402931
0.0070378 0.000229783 -9.1259e-06
0.000229783 0.00409578 -3.14625e-06
-9.1259e-06 -3.14625e-06 0.00410505
0.000348613 0.000135324 3.70285e-07
0.000135324 -0.000230319 -2.69745e-07
3.70285e-07 -2.69745e-07 -0.000348321
0.0037868 -8.50905e-05 -0.000122758
-8.50905e-05 0.00210512 -5.47677e-06
-0.000122758 -5.47677e-06 0.00207283
0.000352678 0.000215468 5.73908e-07
0.000215468 -0.000180083 -5.72285e-07
5.73908e-07 -5.72285e-07 -0.000317797
0.00177225 0.000240092 6.03656e-05
0.000240092 0.00073545 3.66197e-06
6.03656e-05 3.66197e-06 0.00061703
0.000857971 0.000270116 5.89346e-07
0.000270116 -1.61329e-05 2.65224e-07
5.89346e-07 2.65224e-07 -0.000245247
0.00571607 -0.000137909 0.000211346
-0.000137909 0.00335404 2.56267e-05
0.000211346 2.56267e-05 0.00333766
0.000628627 7.37987e-05 1.81514e-05
7.37987e-05 6.82349e-05 1.38916e-05
1.81514e-05 1.38916e-05 -9.89538e-06
0.00045889 0.000105108 1.48543e-05
0.000105108 -0.000179068 1.07969e-05
1.48543e-05 1.07969e-05 -0.000290577
0.000459772 0.000164285 1.95705e-05
0.000164285 -0.000147234 1.84283e-05
1.95705e-05 1.84283e-05 -0.000273141
0.00120315 0.000265653 1.56143e-05
0.000265653 1.74506e-05 5.82912e-06
1.56143e-05 5.82912e-06 -0.000191206
0.0030822 0.000227501 0.000150035
0.000227501 0.00157171 2.15845e-05
0.000150035 2.15845e-05 0.00148863
0.00096254 0.000287895 1.84738e-05
0.000287895 -2.29639e-05 7.01701e-06
1.84738e-05 7.01701e-06 -0.000252904
0.000860253 0.000272459 1.36156e-05
0.000272459 8.16811e-05 5.60812e-06
1.36156e-05 5.60812e-06 -0.000154976
0.00133796 0.000452284 3.88369e-06
0.000452284 0.000158205 -2.29817e-06
3.88369e-06 -2.29817e-06 -0.000158819
0.00386644 -0.000127337 0.000119209
-0.000127337 0.00216149 8.42103e-06
0.000119209 8.42103e-06 0.00215866
0.00442862 -0.000170159 2.49118e-05
-0.000170159 0.00253892 -6.80988e-07
2.49118e-05 -6.80988e-07 0.00252239
0.00670903 6.60427e-05 -0.000336238
6.60427e-05 0.00387669 -1.71597e-05
-0.000336238 -1.71597e-05 0.00390208
0.00630121 7.55587e-05 -0.000326211
7.55587e-05 0.00363338 -1.04405e-05
-0.000326211 -1.04405e-05 0.00366121
0.00615305 8.3929e-05 -5.51191e-08
8.3929e-05 0.00355178 -3.92501e-06
-5.51191e-08 -3.92501e-06 0.00357625
0.00391303 3.53113e-05 -0.000135656
3.53113e-05 0.00212873 -7.30509e-06
-0.000135656 -7.30509e-06 0.00212291
0.00158797 3.9358e-05 6.46749e-05
3.9358e-05 0.000544602 1.80577e-06
6.46749e-05 1.80577e-06 0.000474993
0.00425644 0.000153756 -0.00012798
0.000153756 0.00234783 -7.73083e-06
-0.00012798 -7.73083e-06 0.00232826
0.00165309 9.43337e-05 6.63187e-05
9.43337e-05 0.00057673 3.32195e-06
6.63187e-05 3.32195e-06 0.000495057
0.00609837 0.000119448 0.000318423
0.000119448 0.00352629 7.31918e-06
0.000318423 7.31918e-06 0.00354589
0.000391294 1.03962e-05 1.82562e-05
1.03962e-05 -0.000205133 8.36216e-07
1.82562e-05 8.36216e-07 -0.000289178
0.00280633 4.1424e-05 0.000146352
4.1424e-05 0.00130509 6.33923e-06
0.000146352 6.33923e-06 0.00125157
0.00112216 6.87666e-05 1.14307e-05
6.87666e-05 -4.43853e-05 6.95001e-07
1.14307e-05 6.95001e-07 -0.000178434
0.00279784 0.00012481 0.000154985
0.00012481 0.00129513 1.30591e-05
0.000154985 1.30591e-05 0.00122785
0.00123018 0.000153967 1.02636e-05
0.000153967 -1.20593e-05 1.383e-06
1.02636e-05 1.383e-06 -0.000170816
0.00185503 4.15999e-05 -0.000248728
4.15999e-05 0.000810346 3.27342e-06
-0.000248728 3.27342e-06 0.000814211
0.0014441 -1.9765e-05 -6.60102e-05
-1.9765e-05 0.000582401 3.10589e-06
-6.60102e-05 3.10589e-06 0.000534823
0.00168048 -1.4359e-05 -4.11137e-05
-1.4359e-05 0.000730742 8.65306e-06
-4.11137e-05 8.65306e-06 0.00067219
0.0014894 -0.000106199 -8.17571e-05
-0.000106199 0.00062097 1.29151e-05
-8.17571e-05 1.29151e-05 0.000564664
0.00205314 -9.91042e-05 -0.000135167
-9.91042e-05 0.000839934 1.30488e-05
-0.000135167 1.30488e-05 0.000763272
0.0020518 -0.000156128 -0.000138792
-0.000156128 0.000841123 2.28529e-05
-0.000138792 2.28529e-05 0.000754499
0.00199665 -0.000206129 -0.000148802
-0.000206129 0.000831364 2.88332e-05
-0.000148802 2.88332e-05 0.000727213
0.00211264 -0.000346018 -3.6022e-05
-0.000346018 0.000654974 1.26946e-05
-3.6022e-05 1.26946e-05 0.000432612
0.00613975 -0.000108617 2.37814e-06
-0.000108617 0.00354907 -1.92525e-06
2.37814e-06 -1.92525e-06 0.00357006
0.00174773 2.70223e-05 9.50758e-05
2.70223e-05 0.000753934 -4.80408e-06
9.50758e-05 -4.80408e-06 0.000732511
0.0011645 -1.2183e-05 -6.77079e-05
-1.2183e-05 0.000283474 2.14722e-06
-6.77079e-05 2.14722e-06 0.000213088
0.00187417 -7.94672e-05 -3.70099e-05
-7.94672e-05 0.000738252 3.10076e-06
-3.70099e-05 3.10076e-06 0.000657103
0.00450482 -5.26588e-05 0.000259587
-5.26588e-05 0.0025165 -1.8661e-05
0.000259587 -1.8661e-05 0.00251006
0.00254676 -0.000201102 -4.52078e-05
-0.000201102 0.00119676 4.35236e-06
-4.52078e-05 4.35236e-06 0.00107652
0.00195184 -0.000146236 -3.3574e-05
-0.000146236 0.00078843 3.1604e-06
-3.3574e-05 3.1604e-06 0.000694552
0.00199459 -0.000223315 -9.79949e-06
-0.000223315 0.000504305 1.77262e-06
-9.79949e-06 1.77262e-06 0.000336083
0.00208064 -0.000376919 -8.79143e-06
-0.000376919 0.000683161 2.41249e-06
-8.79143e-06 2.41249e-06 0.0004395
0.00201718 -0.000302626 -9.07052e-06
-0.000302626 0.000559734 2.3797e-06
-9.07052e-06 2.3797e-06 0.000357471
0.0017957 -0.00045338 9.34636e-07
-0.00045338 0.00022926 -1.70262e-07
9.34636e-07 -1.70262e-07 -4.09199e-05
0.000426487 9.14997e-06 1.90488e-05
9.14997e-06 -0.000186598 -6.14217e-07
1.90488e-05 -6.14217e-07 -0.00026711
0.00171229 -6.75984e-06 5.49708e-05
-6.75984e-06 0.000635093 -2.77484e-06
5.49708e-05 -2.77484e-06 0.000557284
0.00186421 -7.3832e-05 9.75533e-06
-7.3832e-05 0.000427109 -3.37582e-07
9.75533e-06 -3.37582e-07 0.000307821
0.00183583 -0.000174914 1.00893e-05
-0.000174914 0.000398432 -1.37473e-06
1.00893e-05 -1.37473e-06 0.000247778
0.00194391 -0.000261772 1.21342e-05
-0.000261772 0.000486536 -4.05827e-06
1.21342e-05 -4.05827e-06 0.000304474
0.00193148 -0.000316239 -4.95038e-09
-0.000316239 0.000178495 -2.30657e-07
-4.95038e-09 -2.30657e-07 -1.68465e-07
0.00641794 8.90301e-05 0.000233239
8.90301e-05 0.0037496 -1.84887e-05
0.000233239 -1.84887e-05 0.00374798
0.00174243 -0.000413359 4.85451e-06
-0.000413359 0.000139368 -7.02865e-07
4.85451e-06 -7.02865e-07 -9.99263e-05
0.000198806 -0.000186617 2.0223e-05
-0.000186617 -0.000270813 -2.20867e-05
2.0223e-05 -2.20867e-05 -0.000396888
0.000958682 -0.000295867 1.60257e-05
-0.000295867 4.24845e-05 -9.36928e-06
1.60257e-05 -9.36928e-06 -0.000202982
0.00186099 -0.000504051 1.11482e-05
-0.000504051 0.000332995 -1.60069e-06
1.11482e-05 -1.60069e-06 2.26529e-05
0.00196225 -0.00052239 2.67431e-06
-0.00052239 0.00022645 2.11095e-06
2.67431e-06 2.11095e-06 -2.93509e-05
0.000453067 -0.000154897 2.25735e-05
-0.000154897 -7.39817e-05 -1.7535e-05
2.25735e-05 -1.7535e-05 -0.000180583
0.000716598 -0.000143585 -5.33809e-07
-0.000143585 0.000140377 -7.40005e-07
-5.33809e-07 -7.40005e-07 -0.00010599
0.00698863 0.00027194 -0.000363035
0.00027194 0.00407407 -3.83001e-05
-0.000363035 -3.83001e-05 0.00408188
0.00703566 0.000218483 -0.00034236
0.000218483 0.00409244 -3.73699e-05
-0.00034236 -3.73699e-05 0.00410551
0.000334531 0.000133152 -1.83619e-05
0.000133152 -0.000240719 -1.32689e-05
-1.83619e-05 -1.32689e-05 -0.000359048
0.00606176 -0.000114774 -0.000217535
-0.000114774 0.00353666 -1.61634e-05
-0.000217535 -1.61634e-05 0.00353378
0.000294737 0.000205793 -2.2962e-05
0.000205793 -0.000198585 -2.1224e-05
-2.2962e-05 -2.1224e-05 -0.000325336
0.000325471 0.000200463 -2.0947e-05
0.000200463 -0.00019529 -1.8586e-05
-2.0947e-05 -1.8586e-05 -0.000333791
0.000918435 0.000271553 -1.65561e-05
0.000271553 2.65118e-05 -6.71375e-06
-1.65561e-05 -6.71375e-06 -0.000201694
0.00549323 -0.000122037 -3.51174e-06
-0.000122037 0.00319703 1.21624e-06
-3.51174e-06 1.21624e-06 0.00319065
0.000497584 5.86805e-05 1.77607e-06
5.86805e-05 -1.06286e-05 3.8381e-07
1.77607e-06 3.8381e-07 -8.55108e-05
0.00167961 0.000147837 6.82797e-05
0.000147837 0.000594125 6.0847e-06
6.82797e-05 6.0847e-06 0.000498463
0.00166588 0.000210772 6.97992e-05
0.000210772 0.000620686 7.00217e-06
6.97992e-05 7.00217e-06 0.00050926
0.0011738 0.000264662 2.01455e-08
0.000264662 4.41282e-06 -3.06397e-07
2.01455e-08 -3.06397e-07 -0.000205181
0.000433757 0.000179734 -2.22098e-07
0.000179734 -9.41906e-05 -4.12961e-07
-2.22098e-07 -4.12961e-07 -0.000204687
0.00102216 0.000288825 1.35717e-06
0.000288825 2.07562e-05 3.48e-08
1.35717e-06 3.48e-08 -0.000208612
0.000813337 0.000257974 4.29238e-07
0.000257974 4.51494e-05 -1.00017e-06
4.29238e-07 -1.00017e-06 -0.000185685
0.00148219 0.000474839 -4.55189e-07
0.000474839 0.000235408 -4.31187e-07
-4.55189e-07 -4.31187e-07 -8.52853e-05
0.000432612 0.000134056 1.90424e-05
0.000134056 -7.02982e-05 1.68971e-05
1.90424e-05 1.68971e-05 -0.000171096
0.000621004 2.06772e-05 1.01273e-05
2.06772e-05 7.57833e-05 1.26505e-05
1.01273e-05 1.26505e-05 1.67433e-05
0.00138588 0.000210793 4.93645e-06
0.000210793 0.000584505 3.2158e-06
4.93645e-06 3.2158e-06 0.000361917
0.00122869 0.000231704 1.16474e-05
0.000231704 -1.05229e-06 4.13522e-06
1.16474e-05 4.13522e-06 -0.000192911
0.00114427 0.000290122 1.89584e-05
0.000290122 3.09246e-05 7.0154e-06
1.89584e-05 7.0154e-06 -0.000192609
0.00194315 0.000443088 3.84614e-06
0.000443088 0.00024406 -2.07957e-07
3.84614e-06 -2.07957e-07 3.53394e-07
0.000645953 0.000223358 1.01292e-05
0.000223358 1.40346e-05 5.67536e-06
1.01292e-05 5.67536e-06 -0.00021019
0.00187668 0.000518652 5.0762e-06
0.000518652 0.000370496 -1.38241e-06
5.0762e-06 -1.38241e-06 6.51746e-05
0.00119332 0.000426102 1.7075e-06
0.000426102 0.000171851 -2.89168e-06
1.7075e-06 -2.89168e-06 -0.000158292
0.00157657 0.000555961 -5.72158e-06
0.000555961 0.000193325 -5.32661e-06
-5.72158e-06 -5.32661e-06 -0.000144757
0.00342196 -0.000135065 7.78397e-05
-0.000135065 0.00187398 4.68927e-06
7.78397e-05 4.68927e-06 0.00186951
0.00380145 -0.000166899 1.53042e-05
-0.000166899 0.0021282 -9.65332e-07
1.53042e-05 -9.65332e-07 0.00211483
0.00426138 -0.000212138 -8.89212e-05
-0.000212138 0.00243908 -7.66043e-06
-8.89212e-05 -7.66043e-06 0.00241218
0.000534215 -0.000142406 2.20168e-05
-0.000142406 -3.88333e-06 -1.55014e-05
2.20168e-05 -1.55014e-05 -9.68823e-05
0.00582163 0.000136847 0.000193943
0.000136847 0.00340814 -1.86305e-05
0.000193943 -1.86305e-05 0.0033945
0.00691516 0.000227607 -0.000361612
0.000227607 0.00402138 -3.16288e-05
-0.000361612 -3.16288e-05 0.004036
0.00641658 9.94403e-05 -0.000330401
9.94403e-05 0.00370166 -1.47148e-05
-0.000330401 -1.47148e-05 0.00372795
0.000386994 9.81948e-05 -1.89023e-05
9.81948e-05 -0.000218467 -5.63262e-06
-1.89023e-05 -5.63262e-06 -0.000317996
0.000375911 4.34343e-05 -1.87273e-05
4.34343e-05 -0.000214498 -2.75536e-06
-1.87273e-05 -2.75536e-06 -0.000302947
0.0060974 -4.84809e-06 -0.000313755
-4.84809e-06 0.00350782 -2.80124e-06
-0.000313755 -2.80124e-06 0.00353684
0.00603615 4.22302e-06 -9.7596e-08
4.22302e-06 0.00347089 -1.0744e-06
-9.7596e-08 -1.0744e-06 0.00350005
0.000369431 8.16051e-07 -2.52763e-08
8.16051e-07 -0.000221591 1.87941e-07
-2.52763e-08 1.87941e-07 -0.000303864
0.00156641 4.1123e-05 6.52491e-05
4.1123e-05 0.000525455 3.12584e-06
6.52491e-05 3.12584e-06 0.000452863
0.00108663 7.22741e-05 2.01609e-08
7.22741e-05 -7.13577e-05 -7.81104e-08
2.01609e-08 -7.81104e-08 -0.000206454
0.000381673 8.69715e-05 -7.15846e-07
8.69715e-05 -0.000225523 -3.92439e-07
-7.15846e-07 -3.92439e-07 -0.000331799
0.00117873 0.000154418 -1.3165e-07
0.000154418 -4.30281e-05 -2.14219e-07
-1.3165e-07 -2.14219e-07 -0.000203077
0.000366523 -3.19688e-05 1.88345e-05
-3.19688e-05 -0.0002246 -8.33e-07
1.88345e-05 -8.33e-07 -0.000304056
0.00107581 3.01155e-05 1.10974e-05
3.01155e-05 -6.25117e-05 2.92823e-07
1.10974e-05 2.92823e-07 -0.000190893
0.00114646 0.000111738 1.0848e-05
0.000111738 -4.49576e-05 1.15804e-06
1.0848e-05 1.15804e-06 -0.000189887
0.00186277 0.000114162 9.77662e-07
0.000114162 4.90977e-05 -4.05814e-07
9.77662e-07 -4.05814e-07 -5.03753e-05
0.00124709 0.000191878 9.6534e-06
0.000191878 -4.56877e-06 2.55238e-06
9.6534e-06 2.55238e-06 -0.000179062
0.0020356 0.00026574 5.8245e-07
0.00026574 0.000172177 -7.60453e-07
5.8245e-07 -7.60453e-07 2.95842e-05
0.00605696 -7.02168e-05 -0.000317529
-7.02168e-05 0.00349122 3.52351e-06
-0.000317529 3.52351e-06 0.00351623
0.00139299 -0.000158681 -6.69157e-05
-0.000158681 0.000568746 8.24103e-06
-6.69157e-05 8.24103e-06 0.000515977
-0.000239896 -7.25885e-06 -1.18698e-05
-7.25885e-06 -0.0005965 1.67525e-06
-1.18698e-05 1.67525e-06 -0.000693241
0.00198122 -7.05475e-05 -0.000132826
-7.05475e-05 0.00079854 9.09772e-06
-0.000132826 9.09772e-06 0.000727277
0.00681896 0.000248457 -3.72279e-05
0.000248457 0.00399769 3.59268e-06
-3.72279e-05 3.59268e-06 0.00394999
0.00316484 -0.000283269 -0.000154148
-0.000283269 0.0015835 2.99483e-05
-0.000154148 2.99483e-05 0.0014689
0.0020656 -0.000126293 -0.00013663
-0.000126293 0.000847114 1.78781e-05
-0.00013663 1.78781e-05 0.00076645
0.00205087 -0.000223113 -2.98967e-05
-0.000223113 0.000535418 5.60113e-06
-2.98967e-05 5.60113e-06 0.000371313
0.00207278 -0.000304567 -3.24244e-05
-0.000304567 0.000593921 1.09475e-05
-3.24244e-05 1.09475e-05 0.00039043
0.00208738 -0.000379632 -3.64519e-05
-0.000379632 0.000684587 1.35892e-05
-3.64519e-05 1.35892e-05 0.000440795
0.00184644 -0.000456515 -6.11013e-06
-0.000456515 0.000261953 7.36024e-07
-6.11013e-06 7.36024e-07 -7.94977e-06
0.000368981 4.13381e-06 -1.30705e-08
4.13381e-06 -0.00022073 3.44517e-07
-1.30705e-08 3.44517e-07 -0.00030224
0.00184331 -8.93716e-05 -3.5403e-05
-8.93716e-05 0.000724544 5.23758e-07
-3.5403e-05 5.23758e-07 0.000648173
0.00151805 -6.94387e-05 -1.11879e-05
-6.94387e-05 0.000208531 7.40996e-07
-1.11879e-05 7.40996e-07 8.50441e-05
0.00192219 -0.00017633 -9.53045e-06
-0.00017633 0.000452341 1.5021e-06
-9.53045e-06 1.5021e-06 0.000299801
0.00664175 8.80649e-05 5.08634e-06
8.80649e-05 0.00389234 4.58033e-07
5.08634e-06 4.58033e-07 0.00388863
0.00177409 -0.000195367 6.03262e-06
-0.000195367 0.00073292 7.58369e-07
6.03262e-06 7.58369e-07 0.000597227
0.0013488 -0.00032429 1.49499e-06
-0.00032429 0.000286415 -1.21257e-06
1.49499e-06 -1.21257e-06 3.89884e-05
0.00198593 -0.000264632 -9.46506e-06
-0.000264632 0.000510334 2.47657e-06
-9.46506e-06 2.47657e-06 0.00032761
0.0020165 -0.000322896 -4.89983e-08
-0.000322896 0.000228488 -1.20491e-07
-4.89983e-08 -1.20491e-07 5.5817e-05
0.00185176 -0.000503174 9.13813e-07
-0.000503174 0.000329418 -2.10508e-07
9.13813e-07 -2.10508e-07 2.06362e-05
0.00186172 -0.000417909 4.8234e-07
-0.000417909 0.000217835 -2.50375e-07
4.8234e-07 -2.50375e-07 -2.20892e-05
0.00200313 -0.000523911 8.63712e-07
-0.000523911 0.000256622 1.61168e-07
8.63712e-07 1.61168e-07 9.2104e-07
0.000458489 -0.000168195 1.97207e-06
-0.000168195 -7.63839e-05 4.6061e-07
1.97207e-06 4.6061e-07 -0.000182586
0.000686181 -0.000186807 1.41624e-06
-0.000186807 0.00011438 3.40021e-07
1.41624e-06 3.40021e-07 -0.000124912
0.00107624 -3.43586e-05 1.13679e-05
-3.43586e-05 -5.81515e-05 -5.43223e-07
1.13679e-05 -5.43223e-07 -0.000186801
0.00193104 -0.000121618 9.06576e-06
-0.000121618 0.000465475 -6.71902e-07
9.06576e-06 -6.71902e-07 0.000333809
0.00183709 -0.000122671 1.32454e-06
-0.000122671 6.27974e-05 1.48673e-08
1.32454e-06 1.48673e-08 -4.83296e-05
0.00185736 -0.000259462 -5.67974e-08
-0.000259462 9.52027e-05 7.11946e-07
-5.67974e-08 7.11946e-07 -4.61335e-05
0.00185951 -0.000372877 2.16315e-07
-0.000372877 0.000163395 2.40451e-07
2.16315e-07 2.40451e-07 -4.0924e-05
0.00209476 -0.000363158 3.07132e-06
-0.000363158 0.000171528 -7.99514e-07
3.07132e-06 -7.99514e-07 3.34007e-05
0.000318504 -0.000173358 2.01577e-05
-0.000173358 -0.000173589 -2.09857e-05
2.01577e-05 -2.09857e-05 -0.000293618
0.00200219 -0.000480949 1.17503e-06
-0.000480949 0.000200026 1.41331e-06
1.17503e-06 1.41331e-06 -1.28588e-05
0.00064734 -0.000254275 1.11536e-05
-0.000254275 -5.85437e-05 -9.14216e-06
1.11536e-05 -9.14216e-06 -0.000297447
0.00155883 -0.000521928 1.28632e-05
-0.000521928 0.000235468 -1.97132e-06
1.28632e-05 -1.97132e-06 -0.000112588
0.0021821 -0.00058673 3.91845e-06
-0.00058673 0.000433814 1.14216e-06
3.91845e-06 1.14216e-06 0.000121323
0.00228031 -0.000561482 -5.10281e-08
-0.000561482 0.000390867 3.7794e-06
-5.10281e-08 3.7794e-06 0.00016409
0.000493949 -0.000206417 1.06043e-06
-0.000206417 -2.68532e-05 -4.32611e-06
1.06043e-06 -4.32611e-06 -0.000283157
0.00082332 -0.000128817 -2.17947e-07
-0.000128817 0.000232299 -1.28515e-06
-2.17947e-07 -1.28515e-06 1.40659e-05
0.000822595 -0.000266179 -8.50682e-07
-0.000266179 0.000182438 2.49767e-06
-8.50682e-07 2.49767e-06 -0.000109609
0.000351361 0.000110936 -1.73836e-05
0.000110936 -0.000242034 -1.0265e-05
-1.73836e-05 -1.0265e-05 -0.000354813
0.00500012 -0.000172221 -0.000150663
-0.000172221 0.00289846 -1.20705e-05
-0.000150663 -1.20705e-05 0.00288161
0.000363293 4.68093e-05 -1.32193e-05
4.68093e-05 -9.29449e-05 -1.36773e-05
-1.32193e-05 -1.36773e-05 -0.000161453
0.000308065 0.000163659 -1.97707e-05
0.000163659 -0.000233636 -1.6304e-05
-1.97707e-05 -1.6304e-05 -0.000360706
0.00114321 0.0002639 -1.66337e-05
0.0002639 -9.93992e-06 -6.39787e-06
-1.66337e-05 -6.39787e-06 -0.00022051
0.000413712 0.000169861 -2.29009e-05
0.000169861 -0.00010881 -1.9305e-05
-2.29009e-05 -1.9305e-05 -0.000217944
0.000617168 0.000237402 -1.20369e-05
0.000237402 -7.72922e-05 -7.50451e-06
-1.20369e-05 -7.50451e-06 -0.000302018
0.00104304 0.000286341 -1.92664e-05
0.000286341 4.1364e-05 -8.07075e-06
-1.92664e-05 -8.07075e-06 -0.000186813
0.00159342 0.000493773 -5.48074e-06
0.000493773 0.000291726 1.06429e-06
-5.48074e-06 1.06429e-06 -3.17158e-05
0.000485105 0.000132372 -1.41082e-06
0.000132372 -4.49273e-05 1.36367e-06
-1.41082e-06 1.36367e-06 -0.000138003
0.000450603 -1.29968e-06 8.48334e-07
-1.29968e-06 -2.28365e-05 5.17159e-07
8.48334e-07 5.17159e-07 -8.14354e-05
0.000714858 0.00013846 2.33134e-06
0.00013846 0.000147968 -5.8174e-07
2.33134e-06 -5.8174e-07 -5.71266e-05
0.00120462 0.000231579 -1.38673e-07
0.000231579 -1.07329e-05 -3.07912e-07
-1.38673e-07 -3.07912e-07 -0.000203725
0.00110803 0.000286474 3.80483e-07
0.000286474 1.34889e-05 -1.96446e-07
3.80483e-07 -1.96446e-07 -0.00021001
0.0019176 0.000441293 -3.05439e-07
0.000441293 0.000226553 -1.28699e-07
-3.05439e-07 -1.28699e-07 -1.72596e-05
0.000672991 0.000225752 -3.02689e-07
0.000225752 3.40829e-05 7.26897e-08
-3.02689e-07 7.26897e-08 -0.000187778
0.00183751 0.000512768 -3.55973e-07
0.000512768 0.000341272 -4.07404e-07
-3.55973e-07 -4.07404e-07 3.56154e-05
0.00136964 0.000448303 -1.19095e-07
0.000448303 0.000280263 -1.07254e-06
-1.19095e-07 -1.07254e-06 -5.50409e-05
0.00157236 0.000566132 -6.75299e-07
0.000566132 0.00017268 1.89296e-06
-6.75299e-07 1.89296e-06 -0.000165065
0.00051544 -1.40608e-05 3.04731e-06
-1.40608e-05 1.58437e-05 1.10796e-05
3.04731e-06 1.10796e-05 -3.20681e-05
0.00105732 0.000195963 5.77614e-06
0.000195963 0.000330386 2.56614e-06
5.77614e-06 2.56614e-06 0.000105412
0.00100921 9.14922e-05 2.03444e-06
9.14922e-05 0.000327419 5.9101e-06
2.03444e-06 5.9101e-06 0.000163958
0.000951393 0.00021701 5.99748e-07
0.00021701 0.000308551 8.54341e-07
5.99748e-07 8.54341e-07 3.46124e-05
0.00198448 0.000391182 1.09191e-06
0.000391182 0.000208355 -1.81393e-06
1.09191e-06 -1.81393e-06 7.58263e-07
0.00187933 0.000486264 5.00057e-06
0.000486264 0.000279805 -2.78331e-07
5.00057e-06 -2.78331e-07 7.02473e-07
0.00210264 0.000509152 8.67264e-08
0.000509152 0.000251585 -1.27857e-06
8.67264e-08 -1.27857e-06 2.22981e-05
0.000946693 0.00034379 3.85006e-06
0.00034379 8.79445e-05 -4.26934e-08
3.85006e-06 -4.26934e-08 -0.000205462
0.00227733 0.000634972 -3.83207e-06
0.000634972 0.000508377 -2.61999e-06
-3.83207e-06 -2.61999e-06 0.000194749
0.00190762 0.000613832 -4.70872e-06
0.000613832 0.000514209 -7.59483e-06
-4.70872e-06 -7.59483e-06 0.000116479
0.00195147 0.000614971 -1.12435e-06
0.000614971 0.000313565 -2.34736e-06
-1.12435e-06 -2.34736e-06 -1.33996e-05
0.00057051 5.42163e-05 1.92301e-06
5.42163e-05 6.7619e-05 5.24911e-06
1.92301e-06 5.24911e-06 -1.41752e-05
0.000474301 -1.23616e-05 2.01474e-06
-1.23616e-05 -2.25048e-05 7.83868e-06
2.01474e-06 7.83868e-06 -5.45595e-05
0.00296634 -0.000122886 5.0317e-05
-0.000122886 0.00157665 4.47269e-06
5.0317e-05 4.47269e-06 0.0015751
0.00325959 -0.000150099 9.34286e-06
-0.000150099 0.00177418 -9.13623e-07
9.34286e-06 -9.13623e-07 0.00176519
0.00359764 -0.000182673 -6.15751e-05
-0.000182673 0.00200237 -4.77733e-06
-6.15751e-05 -4.77733e-06 0.00198377
0.000416214 -0.000123073 1.93162e-05
-0.000123073 -5.39651e-05 -1.46936e-05
1.93162e-05 -1.46936e-05 -0.000133028
0.00524124 0.000166737 0.000154216
0.000166737 0.00305956 -1.73386e-05
0.000154216 -1.73386e-05 0.00303825
0.000494964 -0.000141911 1.20658e-06
-0.000141911 -3.0153e-05 4.93174e-07
1.20658e-06 4.93174e-07 -0.000127113
0.00603659 0.000117709 5.5991e-06
0.000117709 0.00353731 7.17562e-07
5.5991e-06 7.17562e-07 0.00352635
0.000371039 0.000112329 -1.84049e-05
0.000112329 -0.000229977 -8.01365e-06
-1.84049e-05 -8.01365e-06 -0.000338548
0.000404254 3.54158e-05 -1.77526e-05
3.54158e-05 -0.000204925 -3.16935e-06
-1.77526e-05 -3.16935e-06 -0.0002962
0.00113957 0.00015451 -1.0226e-05
0.00015451 -6.69607e-05 -1.74825e-06
-1.0226e-05 -1.74825e-06 -0.000228164
0.00107587 7.52882e-05 -1.15562e-05
7.52882e-05 -8.29759e-05 -7.97815e-07
-1.15562e-05 -7.97815e-07 -0.000218867
0.000424128 -7.62788e-06 -1.89271e-05
-7.62788e-06 -0.000190344 -7.19194e-07
-1.89271e-05 -7.19194e-07 -0.000270872
0.00612947 -0.000100724 -0.00032438
-0.000100724 0.00354145 5.70381e-06
-0.00032438 5.70381e-06 0.00356448
0.00041379 -2.55258e-06 7.32809e-08
-2.55258e-06 -0.000195869 -6.94592e-07
7.32809e-08 -6.94592e-07 -0.000275206
0.00105609 3.53911e-05 -1.10113e-07
3.53911e-05 -7.67414e-05 5.95298e-08
-1.10113e-07 5.95298e-08 -0.00020563
0.00115004 0.000114416 -1.47555e-07
0.000114416 -4.85196e-05 5.22019e-08
-1.47555e-07 5.22019e-08 -0.000194344
0.0018885 0.000112925 -2.04541e-07
0.000112925 7.42467e-05 3.23966e-07
-2.04541e-07 3.23966e-07 -2.50316e-05
0.00120276 0.000193016 -3.29612e-07
0.000193016 -2.83412e-05 -2.64047e-07
-3.29612e-07 -2.64047e-07 -0.000204405
0.00196386 0.000261908 -1.49815e-07
0.000261908 0.000126407 1.80305e-07
-1.49815e-07 1.80305e-07 -1.61092e-05
0.00104725 -3.85903e-06 1.11563e-05
-3.85903e-06 -7.55297e-05 -3.23199e-07
1.11563e-05 -3.23199e-07 -0.000202732
0.00184748 5.484e-05 1.76995e-06
5.484e-05 5.11017e-05 1.80689e-09
1.76995e-06 1.80689e-09 -3.97931e-05
0.00195518 0.000187972 5.87262e-07
0.000187972 0.000110402 -9.62709e-07
5.87262e-07 -9.62709e-07 -7.05599e-06
0.002077 0.000142317 4.55077e-06
0.000142317 7.44131e-05 7.99486e-07
4.55077e-06 7.99486e-07 2.85457e-05
0.00199628 0.000330857 9.10816e-07
0.000330857 0.000166536 -1.07132e-06
9.10816e-07 -1.07132e-06 -6.32596e-06
0.00203573 0.000288759 2.45133e-06
0.000288759 7.34858e-05 2.66702e-07
2.45133e-06 2.66702e-07 -2.83475e-05
0.000399257 -3.10291e-06 -1.80717e-05
-3.10291e-06 -0.000198406 8.42059e-07
-1.80717e-05 8.42059e-07 -0.000282152
0.00194062 -4.50039e-05 -0.000130356
-4.50039e-05 0.000775671 6.09937e-06
-0.000130356 6.09937e-06 0.000710356
0.00113528 -6.42865e-05 -1.85715e-05
-6.42865e-05 -3.28629e-05 1.62083e-06
-1.85715e-05 1.62083e-06 -0.000160943
0.00197565 -0.000176109 -2.86627e-05
-0.000176109 0.000483902 4.40417e-06
-2.86627e-05 4.40417e-06 0.000329802
0.00684301 6.50223e-05 -0.000266884
6.50223e-05 0.00401241 2.6554e-05
-0.000266884 2.6554e-05 0.00401082
0.00333515 -0.000273143 -0.000162065
-0.000273143 0.00170944 2.55038e-05
-0.000162065 2.55038e-05 0.0016043
0.00204917 -0.000384356 -2.89098e-05
-0.000384356 0.000722947 1.15409e-05
-2.89098e-05 1.15409e-05 0.00046722
0.00201798 -0.000266849 -3.05715e-05
-0.000266849 0.000527821 8.40961e-06
-3.05715e-05 8.40961e-06 0.00034464
0.00210311 -0.000329774 -2.0245e-06
-0.000329774 0.00027932 -4.00442e-07
-2.0245e-06 -4.00442e-07 0.000112547
0.00198238 -0.000422384 -3.76435e-06
-0.000422384 0.00029865 1.04844e-06
-3.76435e-06 1.04844e-06 5.80912e-05
0.00185031 -0.000503126 -8.73618e-06
-0.000503126 0.000329085 7.02307e-07
-8.73618e-06 7.02307e-07 2.18102e-05
0.00203923 -0.00052546 -9.70764e-07
-0.00052546 0.000282529 -1.81359e-06
-9.70764e-07 -1.81359e-06 2.68526e-05
0.00042673 -0.000176203 -2.13572e-05
-0.000176203 -9.11647e-05 1.88015e-05
-2.13572e-05 1.88015e-05 -0.000203254
0.000684124 -0.000213964 -1.0401e-07
-0.000213964 0.000116968 4.9359e-07
-1.0401e-07 4.9359e-07 -0.000124778
0.0010852 -2.93504e-05 4.29146e-07
-2.93504e-05 -5.4298e-05 5.0613e-08
4.29146e-07 5.0613e-08 -0.000179401
0.00191104 -0.000121671 -9.77581e-06
-0.000121671 0.000449743 1.26297e-06
-9.77581e-06 1.26297e-06 0.000318294
0.0018689 -0.000119572 5.83626e-07
-0.000119572 8.02967e-05 -2.34033e-07
5.83626e-07 -2.34033e-07 -2.57432e-05
0.00187506 -0.00026005 -2.62585e-06
-0.00026005 0.000113277 8.34103e-07
-2.62585e-06 8.34103e-07 -3.54048e-05
0.000419937 -0.000195309 3.26754e-07
-0.000195309 -0.000110678 2.1796e-07
3.26754e-07 2.1796e-07 -0.000231981
0.000798796 -0.000268772 -5.22026e-07
-0.000268772 2.79753e-05 -1.70202e-07
-5.22026e-07 -1.70202e-07 -0.000214693
0.00152722 -0.000516495 1.8507e-06
-0.000516495 0.000222669 -2.22898e-07
1.8507e-06 -2.22898e-07 -0.000125798
0.00190828 -0.000374219 -2.85854e-06
-0.000374219 0.000198191 8.69876e-07
-2.85854e-06 8.69876e-07 -9.28923e-06
0.00208447 -0.000364797 2.34998e-06
-0.000364797 0.000156885 -9.35343e-07
2.34998e-06 -9.35343e-07 2.43538e-05
0.00222426 -0.000595107 -6.17067e-07
-0.000595107 0.000455249 -7.46751e-07
-6.17067e-07 -7.46751e-07 0.000144225
0.00203418 -0.0004832 5.42751e-07
-0.0004832 0.00022196 6.24257e-09
5.42751e-07 6.24257e-09 8.53652e-06
0.00211771 -0.000553604 7.55203e-07
-0.000553604 0.00028216 8.58845e-07
7.55203e-07 8.58845e-07 5.48017e-05
0.000643025 -0.000208916 4.07989e-07
-0.000208916 6.66494e-05 -5.12171e-07
4.07989e-07 -5.12171e-07 -0.000188404
0.000709551 -0.000212224 1.13302e-06
-0.000212224 8.51173e-05 9.88932e-07
1.13302e-06 9.88932e-07 -0.000188206
0.000741198 -0.000149926 4.94371e-07
-0.000149926 0.000183271 1.18794e-07
4.94371e-07 1.18794e-07 -3.92989e-05
0.00182222 -5.58834e-05 1.46815e-06
-5.58834e-05 5.4872e-05 -9.44235e-08
1.46815e-06 -9.44235e-08 -4.59687e-05
0.00197415 -0.000187051 -9.98961e-07
-0.000187051 0.000151814 6.02574e-07
-9.98961e-07 6.02574e-07 3.23242e-05
0.00200249 -0.000133351 6.84398e-06
-0.000133351 4.59585e-05 -8.61895e-07
6.84398e-06 -8.61895e-07 -1.28572e-05
0.00204174 -0.00030018 1.78374e-06
-0.00030018 9.79377e-05 -5.96665e-07
1.78374e-06 -5.96665e-07 -1.59744e-06
0.00194936 -0.000430285 -3.76442e-07
-0.000430285 0.000115378 1.47461e-06
-3.76442e-07 1.47461e-06 -5.58714e-05
0.00213797 -0.0003859 3.86689e-06
-0.0003859 0.000128803 -1.21779e-06
3.86689e-06 -1.21779e-06 3.72857e-05
0.000629389 -0.000241339 6.93282e-06
-0.000241339 7.22944e-06 -7.7465e-06
6.93282e-06 -7.7465e-06 -0.000231411
0.00199383 -0.000508754 6.98575e-07
-0.000508754 0.000147751 8.8991e-07
6.98575e-07 8.8991e-07 -3.85269e-05
0.00136753 -0.000481038 9.38344e-06
-0.000481038 0.000274614 -3.22892e-06
9.38344e-06 -3.22892e-06 -8.14372e-05
0.00191894 -0.000663923 6.6204e-06
-0.000663923 0.000357974 2.1178e-06
6.6204e-06 2.1178e-06 -3.113e-05
0.00228409 -0.00062354 5.99815e-06
-0.00062354 0.00045086 3.46656e-06
5.99815e-06 3.46656e-06 0.000157192
0.00232571 -0.00058446 -9.27276e-07
-0.00058446 0.000425102 1.93617e-06
-9.27276e-07 1.93617e-06 0.000204373
0.000435286 -0.000118628 -4.3928e-07
-0.000118628 8.86716e-06 -5.82641e-06
-4.3928e-07 -5.82641e-06 -0.000180982
0.00129677 -0.000323834 1.91217e-07
-0.000323834 0.000388107 -3.81669e-06
1.91217e-07 -3.81669e-06 0.000115795
0.000613352 -0.00021772 -5.78258e-07
-0.00021772 0.000139227 6.12591e-06
-5.78258e-07 6.12591e-06 -0.000192791
0.00182668 -0.000412135 -4.45561e-06
-0.000412135 0.000743763 3.85074e-06
-4.45561e-06 3.85074e-06 0.000422456
0.00117035 0.000231235 -1.28774e-05
0.000231235 -2.72864e-05 -4.69102e-06
-1.28774e-05 -4.69102e-06 -0.000221434
0.000305865 -2.77456e-05 9.2177e-07
-2.77456e-05 -9.80006e-05 -1.35251e-05
9.2177e-07 -1.35251e-05 -0.000163082
0.000430474 0.000109483 -2.19181e-05
0.000109483 -7.73897e-05 -1.44894e-05
-2.19181e-05 -1.44894e-05 -0.00016539
-3.5447e-05 0.000109806 -3.24877e-06
0.000109806 -0.000307686 -1.99051e-06
-3.24877e-06 -1.99051e-06 -0.000519183
0.00108794 0.000283812 -1.96049e-05
0.000283812 7.30284e-06 -7.58515e-06
-1.96049e-05 -7.58515e-06 -0.00021622
0.00188918 0.000439085 -3.62066e-06
0.000439085 0.00020753 2.67044e-07
-3.62066e-06 2.67044e-07 -3.63009e-05
0.000604381 0.000218843 -7.0433e-06
0.000218843 -9.38901e-06 -3.67598e-06
-7.0433e-06 -3.67598e-06 -0.000226814
0.00134599 0.000449292 -4.37839e-06
0.000449292 0.000263165 -1.38218e-07
-4.37839e-06 -1.38218e-07 -7.25364e-05
0.00184723 0.000511665 -5.50718e-06
0.000511665 0.000342552 7.49857e-07
-5.50718e-06 7.49857e-07 3.56473e-05
0.00153466 0.000570039 3.42902e-06
0.000570039 0.000138288 7.59739e-06
3.42902e-06 7.59739e-06 -0.000197383
0.00045303 -2.97193e-05 -3.71539e-06
-2.97193e-05 -1.51148e-05 8.4427e-07
-3.71539e-06 8.4427e-07 -6.63481e-05
0.000647174 0.000208361 -1.39817e-06
0.000208361 8.73526e-05 -7.09146e-07
-1.39817e-06 -7.09146e-07 -0.000145739
0.000642462 7.92603e-05 9.38545e-07
7.92603e-05 9.96486e-05 -2.86029e-07
9.38545e-07 -2.86029e-07 -5.77237e-05
0.000809544 0.000195306 -5.65306e-07
0.000195306 0.000202908 9.48586e-08
-5.65306e-07 9.48586e-08 -5.84691e-05
0.00196588 0.000389481 -1.39819e-06
0.000389481 0.000196286 -1.16364e-06
-1.39819e-06 -1.16364e-06 -1.1406e-05
0.00184839 0.000484554 -4.48562e-07
0.000484554 0.000259683 -2.53061e-07
-4.48562e-07 -2.53061e-07 -1.98009e-05
0.00208033 0.000505552 2.2779e-07
0.000505552 0.000241724 2.35936e-07
2.2779e-07 2.35936e-07 1.33042e-05
0.00113668 0.000354893 3.19731e-06
0.000354893 0.000222151 -6.61808e-08
3.19731e-06 -6.61808e-08 -7.11059e-05
0.00216989 0.000617236 3.71242e-07
0.000617236 0.000451169 5.46738e-07
3.71242e-07 5.46738e-07 0.000138619
0.00164683 0.000587903 -1.13054e-06
0.000587903 0.000354609 -1.83818e-06
-1.13054e-06 -1.83818e-06 -4.00384e-05
0.00195633 0.000604917 -4.73369e-06
0.000604917 0.000321438 2.15614e-06
-4.73369e-06 2.15614e-06 3.10754e-06
0.000541495 -1.8794e-05 1.89935e-06
-1.8794e-05 2.56153e-05 9.15393e-06
1.89935e-06 9.15393e-06 -1.27602e-05
0.000933714 7.09992e-05 1.56346e-06
7.09992e-05 0.000287034 7.58973e-06
1.56346e-06 7.58973e-06 0.000161368
0.000768737 0.000246733 4.98715e-07
0.000246733 6.79277e-05 2.34989e-06
4.98715e-07 2.34989e-06 -0.000179281
0.00150901 0.000176054 1.29638e-06
0.000176054 0.000718009 -7.47308e-07
1.29638e-06 -7.47308e-07 0.000441288
0.00110023 0.000297442 -2.48859e-06
0.000297442 0.000329619 3.47791e-06
-2.48859e-06 3.47791e-06 8.48646e-05
0.00214796 0.000451248 -8.81808e-08
0.000451248 0.000212285 -3.16512e-06
-8.81808e-08 -3.16512e-06 2.70277e-05
0.002088 0.000570945 -1.13518e-06
0.000570945 0.000313886 -1.69509e-06
-1.13518e-06 -1.69509e-06 3.90045e-05
0.00210525 0.000554115 -2.53736e-06
0.000554115 0.000236731 -1.53493e-06
-2.53736e-06 -1.53493e-06 1.39185e-05
0.00142272 0.000532333 5.49623e-06
0.000532333 0.000379745 -7.46254e-07
5.49623e-06 -7.46254e-07 -1.32191e-05
0.0023504 0.000679975 -3.06657e-06
0.000679975 0.000502541 -2.31497e-06
-3.06657e-06 -2.31497e-06 0.000191133
0.00164273 0.000637784 6.75642e-06
0.000637784 0.000285194 -4.56491e-06
6.75642e-06 -4.56491e-06 -0.000101569
0.000575838 5.06253e-05 1.79636e-06
5.06253e-05 6.73064e-05 5.61756e-06
1.79636e-06 5.61756e-06 -2.05776e-05
0.000644717 0.000106636 -4.82983e-07
0.000106636 0.000156244 3.10982e-06
-4.82983e-07 3.10982e-06 1.79648e-05
0.000591911 6.09591e-05 1.73603e-06
6.09591e-05 8.77742e-05 4.83657e-06
1.73603e-06 4.83657e-06 9.71851e-06
0.000524445 1.41309e-05 -7.09633e-07
1.41309e-05 3.97606e-05 -5.45634e-08
-7.09633e-07 -5.45634e-08 -4.19302e-05
0.00136796 -3.1676e-05 1.56137e-06
-3.1676e-05 0.00054336 4.60608e-06
1.56137e-06 4.60608e-06 0.000518363
0.000914208 -2.52624e-05 2.67032e-07
-2.52624e-05 0.000257181 -1.76593e-07
2.67032e-07 -1.76593e-07 0.000227244
0.000840765 -4.73343e-05 3.69445e-05
-4.73343e-05 0.000213216 9.87941e-06
3.69445e-05 9.87941e-06 0.000210583
0.00294217 -0.000127752 8.00002e-06
-0.000127752 0.00156198 -7.67014e-07
8.00002e-06 -7.67014e-07 0.00155914
0.00317176 -0.000153602 -4.88883e-05
-0.000153602 0.00171944 -4.38983e-06
-4.88883e-05 -4.38983e-06 0.00170943
0.000409692 -7.22201e-05 1.03068e-05
-7.22201e-05 -4.0402e-05 -1.23115e-05
1.03068e-05 -1.23115e-05 -0.00010284
0.00460914 0.000174437 0.000110072
0.000174437 0.00265758 -1.17155e-05
0.000110072 -1.17155e-05 0.00263584
0.000519904 -0.000118025 -1.17409e-06
-0.000118025 1.13591e-05 7.81553e-07
-1.17409e-06 7.81553e-07 -7.28652e-05
0.00546684 0.000138987 -6.62081e-06
0.000138987 0.0031941 -2.94784e-07
-6.62081e-06 -2.94784e-07 0.00317853
0.000489377 -0.000143262 -2.0989e-05
-0.000143262 -3.66879e-05 1.6366e-05
-2.0989e-05 1.6366e-05 -0.000135894
0.00624394 0.000120063 -0.000224809
0.000120063 0.00367161 2.53455e-05
-0.000224809 2.53455e-05 0.00365833
0.00115827 0.000194194 -1.0407e-05
0.000194194 -5.32287e-05 -3.02141e-06
-1.0407e-05 -3.02141e-06 -0.000230807
0.00112035 0.000117787 -1.15181e-05
0.000117787 -7.14689e-05 -1.02105e-06
-1.15181e-05 -1.02105e-06 -0.000218502
0.00193123 0.000255753 -1.62497e-06
0.000255753 0.000107004 1.14922e-06
-1.62497e-06 1.14922e-06 -3.46302e-05
0.00190747 0.000111677 -8.99e-07
0.000111677 9.51699e-05 1.18387e-06
-8.99e-07 1.18387e-06 -3.93761e-06
0.00103708 4.0269e-05 -1.11181e-05
4.0269e-05 -9.10247e-05 -2.01234e-07
-1.11181e-05 -2.01234e-07 -0.000220447
0.000376346 2.89094e-05 -1.8838e-05
2.89094e-05 -0.000221448 -6.56489e-07
-1.8838e-05 -6.56489e-07 -0.000299332
0.00104028 7.09342e-08 -5.5087e-08
7.09342e-08 -7.99179e-05 -4.50854e-08
-5.5087e-08 -4.50854e-08 -0.000207147
0.00186833 5.56067e-05 -7.7847e-08
5.56067e-05 6.83441e-05 1.85942e-07
-7.7847e-08 1.85942e-07 -2.2545e-05
0.00194115 0.000184015 -9.41834e-08
0.000184015 0.000106574 -2.89035e-08
-9.41834e-08 -2.89035e-08 -1.03633e-05
0.00206673 0.000139131 -1.0914e-07
0.000139131 5.83721e-05 2.5527e-08
-1.0914e-07 2.5527e-08 1.60518e-05
0.00198572 0.00032869 -5.05081e-07
0.00032869 0.000163286 -1.31642e-08
-5.05081e-07 -1.31642e-08 -9.26854e-06
0.00206424 0.000290541 -4.19739e-07
0.000290541 9.48822e-05 2.90255e-07
-4.19739e-07 2.90255e-07 -7.84851e-06
0.00185464 -5.53733e-07 1.99266e-06
-5.53733e-07 6.67264e-05 1.29095e-07
1.99266e-06 1.29095e-07 -2.28899e-05
0.00204158 6.71733e-05 3.79647e-06
6.71733e-05 4.56458e-05 3.03333e-07
3.79647e-06 3.03333e-07 1.19877e-05
0.00202746 0.000210055 3.64091e-06
0.000210055 5.1594e-05 9.9298e-07
3.64091e-06 9.9298e-07 -1.44245e-05
0.00202275 0.000126274 5.71589e-06
0.000126274 9.4688e-06 7.65534e-07
5.71589e-06 7.65534e-07 -6.79146e-06
0.00214985 0.000381846 1.37363e-06
0.000381846 0.000174477 -7.93671e-07
1.37363e-06 -7.93671e-07 3.03345e-05
0.00209705 0.000305195 2.68124e-06
0.000305195 1.71512e-05 6.79432e-07
2.68124e-06 6.79432e-07 -3.14452e-05
0.00109107 -2.537e-05 -1.18821e-05
-2.537e-05 -5.21473e-05 7.0551e-07
-1.18821e-05 7.0551e-07 -0.000173819
0.00192482 -0.000122848 -2.8285e-05
-0.000122848 0.000455952 3.02361e-06
-2.8285e-05 3.02361e-06 0.000324584
0.00195544 -0.000115557 -2.29599e-06
-0.000115557 0.000133011 -3.72243e-07
-2.29599e-06 -3.72243e-07 3.25489e-05
0.00189981 -0.00026048 -3.16569e-06
-0.00026048 0.000136322 7.35494e-07
-3.16569e-06 7.35494e-07 -1.97933e-05
0.000562955 -0.000226543 -2.63504e-05
-0.000226543 -2.25921e-05 2.10279e-05
-2.63504e-05 2.10279e-05 -0.000145232
0.00085321 -0.000277975 -1.26502e-05
-0.000277975 5.98092e-05 8.8208e-06
-1.26502e-05 8.8208e-06 -0.000186633
0.00153104 -0.000517122 -8.61302e-06
-0.000517122 0.000228711 1.92359e-06
-8.61302e-06 1.92359e-06 -0.000121974
0.00194079 -0.00037441 -4.38181e-06
-0.00037441 0.000221963 1.25705e-06
-4.38181e-06 1.25705e-06 1.15474e-05
0.00208219 -0.000366884 1.07033e-07
-0.000366884 0.000146845 -7.09126e-07
1.07033e-07 -7.09126e-07 2.01607e-05
0.00206477 -0.000485382 -1.05583e-06
-0.000485382 0.000242876 -1.05023e-06
-1.05583e-06 -1.05023e-06 2.89134e-05
0.00227715 -0.000603409 -3.3579e-06
-0.000603409 0.000485273 -3.80354e-06
-3.3579e-06 -3.80354e-06 0.000175912
0.00193401 -0.000540877 7.31046e-07
-0.000540877 0.00016031 -2.16528e-06
7.31046e-07 -2.16528e-06 -6.60524e-05
0.000960311 -0.000223113 -5.77352e-06
-0.000223113 0.0002574 5.27588e-06
-5.77352e-06 5.27588e-06 8.18493e-06
0.000325271 -0.000166782 2.05213e-06
-0.000166782 -0.000161147 -1.19921e-06
2.05213e-06 -1.19921e-06 -0.000430565
0.000503723 -0.000179229 -4.41158e-07
-0.000179229 3.37014e-05 8.47252e-07
-4.41158e-07 8.47252e-07 -0.000189339
0.00186627 -5.27464e-05 7.66583e-07
-5.27464e-05 8.07313e-05 -6.50774e-08
7.66583e-07 -6.50774e-08 -1.61019e-05
0.00192834 -0.000193737 -2.25417e-06
-0.000193737 0.000122771 1.65487e-07
-2.25417e-06 1.65487e-07 1.77966e-06
0.00203548 -0.000131249 2.28731e-06
-0.000131249 6.11178e-05 -3.46466e-07
2.28731e-06 -3.46466e-07 8.56607e-06
0.00201166 -0.00029054 -1.18305e-06
-0.00029054 8.38514e-05 5.04639e-07
-1.18305e-06 5.04639e-07 -1.79012e-05
0.000749738 -0.000251681 8.53376e-07
-0.000251681 8.04463e-05 -3.4698e-07
8.53376e-07 -3.4698e-07 -0.000163058
0.00144728 -0.00049206 -7.46923e-07
-0.00049206 0.000318724 -3.41104e-07
-7.46923e-07 -3.41104e-07 -3.92999e-05
0.0018522 -0.000655376 5.36824e-07
-0.000655376 0.000331051 1.03837e-06
5.36824e-07 1.03837e-06 -6.02475e-05
0.00192424 -0.000426129 -1.15733e-06
-0.000426129 0.000105303 1.00562e-06
-1.15733e-06 1.00562e-06 -7.15398e-05
0.0021295 -0.000390115 6.20249e-07
-0.000390115 0.000113268 -3.78555e-07
6.20249e-07 -3.78555e-07 2.6221e-05
0.00215392 -0.000619135 -2.18716e-07
-0.000619135 0.000356716 3.96392e-07
-2.18716e-07 3.96392e-07 6.21035e-05
0.0020039 -0.000508652 -3.38655e-07
-0.000508652 0.000151557 7.6197e-07
-3.38655e-07 7.6197e-07 -3.48503e-05
0.00223391 -0.000567273 5.20179e-07
-0.000567273 0.000358767 -5.37885e-07
5.20179e-07 -5.37885e-07 0.000144701
0.00103913 -0.000308134 -1.17177e-06
-0.000308134 0.000235101 7.77489e-07
-1.17177e-06 7.77489e-07 -4.46125e-05
0.00111308 -0.000341987 -1.33276e-06
-0.000341987 0.000287836 2.34302e-06
-1.33276e-06 2.34302e-06 -2.53258e-05
0.000673391 -0.000132942 1.83952e-08
-0.000132942 0.000155862 -7.51797e-07
1.83952e-08 -7.51797e-07 -3.87885e-05
0.000109938 -0.00012684 1.73056e-06
-0.00012684 -0.000204912 -2.06201e-06
1.73056e-06 -2.06201e-06 -0.000506641
0.00205252 -6.95115e-05 5.96184e-06
-6.95115e-05 7.44412e-05 -3.90204e-07
5.96184e-06 -3.90204e-07 3.17134e-05
0.00197799 -0.000214269 4.42533e-06
-0.000214269 2.45805e-05 -1.16325e-06
4.42533e-06 -1.16325e-06 -5.24593e-05
0.00201839 -0.000122989 6.74501e-06
-0.000122989 4.43717e-05 -9.80464e-07
6.74501e-06 -9.80464e-07 3.01009e-05
0.00208033 -0.000314258 1.50791e-06
-0.000314258 3.14928e-05 -6.69487e-07
1.50791e-06 -6.69487e-07 -7.38435e-06
0.00199835 -0.000457124 -3.02686e-07
-0.000457124 9.48476e-05 -5.25487e-07
-3.02686e-07 -5.25487e-07 -4.63103e-05
0.0021344 -0.000405809 3.84878e-06
-0.000405809 7.69146e-05 -1.4845e-06
3.84878e-06 -1.4845e-06 8.06528e-06
0.00135084 -0.000414864 6.32231e-06
-0.000414864 0.0003802 -5.54137e-06
6.32231e-06 -5.54137e-06 5.2915e-05
0.00204177 -0.00054278 -2.36631e-06
-0.00054278 0.000148644 -7.71378e-08
-2.36631e-06 -7.71378e-08 -1.58571e-05
0.00166427 -0.000664764 -6.61408e-06
-0.000664764 0.000381138 3.92927e-06
-6.61408e-06 3.92927e-06 -5.26466e-05
0.00208682 -0.000723636 5.094e-06
-0.000723636 0.000415759 2.71172e-06
5.094e-06 2.71172e-06 1.87975e-05
0.00210761 -0.000627165 1.99737e-06
-0.000627165 0.000286062 3.59065e-06
1.99737e-06 3.59065e-06 2.56453e-07
0.00230007 -0.000604156 -1.04739e-05
-0.000604156 0.000367309 -1.98178e-06
-1.04739e-05 -1.98178e-06 0.000141899
0.000483397 -0.000122005 -1.69042e-06
-0.000122005 2.9161e-05 -6.79316e-06
-1.69042e-06 -6.79316e-06 -0.000118881
-5.2191e-05 -0.000143783 -3.67282e-06
-0.000143783 -0.000207306 -1.42955e-06
-3.67282e-06 -1.42955e-06 -0.000532594
0.00134514 -0.000442847 -2.5755e-06
-0.000442847 0.000407679 -2.86123e-06
-2.5755e-06 -2.86123e-06 5.66609e-05
0.00283359 -0.000468404 -4.17323e-06
-0.000468404 0.00145157 1.16348e-05
-4.17323e-06 1.16348e-05 0.001107
0.00163895 -0.00045549 -1.53429e-05
-0.00045549 0.000625375 9.95187e-06
-1.53429e-05 9.95187e-06 0.000249908
0.000297514 -3.55983e-05 -1.20964e-06
-3.55983e-05 -0.000111151 -1.04114e-05
-1.20964e-06 -1.04114e-05 -0.000161162
0.00194865 0.000387512 -3.35824e-06
0.000387512 0.00018572 -2.63696e-07
-3.35824e-06 -2.63696e-07 -2.19705e-05
0.000224568 4.51926e-05 -8.26623e-07
4.51926e-05 -0.000153982 -6.57434e-06
-8.26623e-07 -6.57434e-06 -0.000306116
0.000353107 0.000203188 -6.90521e-06
0.000203188 -0.000121202 1.3696e-07
-6.90521e-06 1.3696e-07 -0.000337852
0.000608773 0.000183616 -1.24267e-06
0.000183616 6.00693e-05 2.48255e-06
-1.24267e-06 2.48255e-06 -0.000188445
0.00180594 0.000482179 -4.9272e-06
0.000482179 0.000231477 1.99013e-07
-4.9272e-06 1.99013e-07 -4.83595e-05
0.00206057 0.000502278 1.17185e-06
0.000502278 0.000232992 1.94372e-06
1.17185e-06 1.94372e-06 5.37065e-06
0.0013985 0.000394474 -2.88752e-06
0.000394474 0.000409689 -3.48218e-06
-2.88752e-06 -3.48218e-06 0.000103634
0.00152633 0.000584864 6.2083e-07
0.000584864 0.00027369 4.09692e-06
6.2083e-07 4.09692e-06 -0.000124765
0.00204851 0.000597559 1.90182e-06
0.000597559 0.000383612 3.81433e-06
1.90182e-06 3.81433e-06 7.27141e-05
0.00200832 0.000604826 4.54715e-06
0.000604826 0.000356203 1.08514e-05
4.54715e-06 1.08514e-05 4.31141e-05
0.000453938 -1.46253e-05 -8.88905e-07
-1.46253e-05 -2.82316e-05 2.88756e-07
-8.88905e-07 2.88756e-07 -6.58822e-05
0.000588511 5.19922e-05 9.95096e-09
5.19922e-05 7.55783e-05 4.19807e-07
9.95096e-09 4.19807e-07 -4.60125e-05
0.000915619 0.000278382 1.2692e-06
0.000278382 0.000167151 1.72209e-06
1.2692e-06 1.72209e-06 -8.20357e-05
0.000627942 0.000125059 8.63627e-07
0.000125059 0.000154914 -1.45643e-06
8.63627e-07 -1.45643e-06 -0.000108848
0.000450321 0.000208283 -1.78466e-06
0.000208283 -0.000110498 3.51205e-06
-1.78466e-06 3.51205e-06 -0.000331607
0.00212243 0.0004499 -1.85862e-06
0.0004499 0.000196527 -1.94599e-06
-1.85862e-06 -1.94599e-06 1.15704e-05
0.00204614 0.000566464 5.42651e-07
0.000566464 0.000290205 1.48597e-07
5.42651e-07 1.48597e-07 1.62961e-05
0.00203747 0.0005498 1.66188e-06
0.0005498 0.000196509 1.48884e-07
1.66188e-06 1.48884e-07 -2.59545e-05
0.00147304 0.000536675 1.86264e-06
0.000536675 0.000416836 -3.10539e-07
1.86264e-06 -3.10539e-07 1.97873e-05
0.00223798 0.000667287 2.53033e-06
0.000667287 0.000418085 4.46887e-07
2.53033e-06 4.46887e-07 0.000107137
0.00200281 0.000674797 -3.65455e-06
0.000674797 0.000513238 3.09805e-08
-3.65455e-06 3.09805e-08 0.000121234
0.000675829 5.41805e-05 7.35558e-07
5.41805e-05 0.000130092 6.0879e-06
7.35558e-07 6.0879e-06 3.05289e-05
0.00166087 0.000196532 9.07082e-08
0.000196532 0.000816764 2.2751e-06
9.07082e-08 2.2751e-06 0.000594999
0.00102436 0.000384139 -9.43323e-07
0.000384139 0.000224035 5.65774e-06
-9.43323e-07 5.65774e-06 -8.00243e-05
0.00114983 0.000150722 6.07501e-06
0.000150722 0.000417425 -2.94863e-06
6.07501e-06 -2.94863e-06 0.000152604
0.00303196 0.000408173 -4.65663e-06
0.000408173 0.00141112 -2.60911e-07
-4.65663e-06 -2.60911e-07 0.00115447
0.00212498 0.000475577 -3.96973e-06
0.000475577 0.000168843 -2.16756e-06
-3.96973e-06 -2.16756e-06 -2.81931e-06
0.00207866 0.000619298 -2.2533e-06
0.000619298 0.000274629 -1.2488e-06
-2.2533e-06 -1.2488e-06 2.95436e-06
0.00198467 0.000600287 4.48722e-06
0.000600287 0.000121696 -3.74518e-07
4.48722e-06 -3.74518e-07 -0.000111723
0.0011577 0.000581406 1.06994e-05
0.000581406 0.000238551 -4.85537e-06
1.06994e-05 -4.85537e-06 -0.0001959
0.00164526 0.000663443 1.16574e-05
0.000663443 0.000182683 -2.03183e-06
1.16574e-05 -2.03183e-06 -0.000171397
0.000580843 4.44909e-05 -3.78952e-07
4.44909e-05 6.8099e-05 1.73255e-07
-3.78952e-07 1.73255e-07 -1.79514e-05
0.0003344 7.21328e-05 6.86066e-07
7.21328e-05 -6.58515e-05 3.23007e-06
6.86066e-07 3.23007e-06 -0.000193413
0.00029617 6.33712e-05 -3.00622e-07
6.33712e-05 -8.18599e-05 -3.54788e-07
-3.00622e-07 -3.54788e-07 -0.000203646
0.00113272 0.000172643 -2.0622e-06
0.000172643 0.000470371 -1.22748e-06
-2.0622e-06 -1.22748e-06 0.000312366
0.000727813 0.000124598 8.86317e-07
0.000124598 0.000213323 3.14023e-06
8.86317e-07 3.14023e-06 8.07534e-05
0.000541215 6.85388e-05 2.03584e-06
6.85388e-05 6.12004e-05 4.18144e-06
2.03584e-06 4.18144e-06 -1.43681e-05
0.000522767 1.89339e-05 -7.47327e-07
1.89339e-05 4.44988e-05 -3.85786e-08
-7.47327e-07 -3.85786e-08 -3.27919e-05
0.00132271 -1.64125e-05 1.45358e-06
-1.64125e-05 0.000514008 4.07725e-06
1.45358e-06 4.07725e-06 0.000492637
0.000540515 3.23332e-05 -9.41602e-07
3.23332e-05 4.39998e-05 -5.31354e-06
-9.41602e-07 -5.31354e-06 -3.38568e-05
0.00138311 -2.53093e-05 -8.84942e-06
-2.53093e-05 0.000552009 -1.65789e-06
-8.84942e-06 -1.65789e-06 0.000528825
0.000775831 -3.38109e-05 3.55727e-05
-3.38109e-05 0.000165479 9.65976e-06
3.55727e-05 9.65976e-06 0.00016741
0.00141402 -3.18518e-05 -1.62679e-05
-3.18518e-05 0.000575401 -6.10439e-06
-1.62679e-05 -6.10439e-06 0.000548982
0.00178695 -7.59821e-05 3.58081e-05
-7.59821e-05 0.000817316 1.42708e-06
3.58081e-05 1.42708e-06 0.000817033
0.00284573 -0.000123939 -4.15558e-05
-0.000123939 0.00149969 -4.59819e-06
-4.15558e-05 -4.59819e-06 0.00149767
0.000297159 7.32162e-05 -5.95792e-06
7.32162e-05 -8.29218e-05 -9.78424e-06
-5.95792e-06 -9.78424e-06 -0.000142898
0.0004084 -5.22259e-05 -6.32034e-07
-5.22259e-05 -3.71541e-05 5.9701e-07
-6.32034e-07 5.9701e-07 -0.00010611
0.00372739 0.000189712 1.79395e-05
0.000189712 0.00208944 -7.4787e-06
1.79395e-05 -7.4787e-06 0.00206435
0.00477282 0.000135777 -1.6533e-05
0.000135777 0.00275533 -1.6114e-06
-1.6533e-05 -1.6114e-06 0.00274218
0.000532305 -0.00012112 -1.80681e-05
-0.00012112 1.51521e-05 1.408e-05
-1.80681e-05 1.408e-05 -7.19965e-05
0.00569774 0.000136079 -0.00019258
0.000136079 0.00334456 2.44292e-05
-0.00019258 2.44292e-05 0.00332658
0.00196403 0.000326306 -1.97339e-06
0.000326306 0.000152381 1.2492e-06
-1.97339e-06 1.2492e-06 -1.99381e-05
0.00190038 0.000182574 -7.91496e-07
0.000182574 8.45252e-05 1.00284e-06
-7.91496e-07 1.00284e-06 -3.26432e-05
0.00209388 0.000293819 -2.34995e-06
0.000293819 0.000115307 5.2054e-07
-2.34995e-06 5.2054e-07 1.14185e-05
0.00205838 0.000136001 -4.15143e-06
0.000136001 4.31768e-05 -5.85556e-07
-4.15143e-06 -5.85556e-07 4.32646e-06
0.00188931 5.75571e-05 -1.75238e-06
5.75571e-05 8.63844e-05 4.27616e-07
-1.75238e-06 4.27616e-07 -4.51029e-06
0.00104612 4.8517e-06 -1.0817e-05
4.8517e-06 -7.6119e-05 1.1769e-07
-1.0817e-05 1.1769e-07 -0.000203256
0.00186207 2.60958e-06 9.00863e-08
2.60958e-06 7.22097e-05 1.52267e-07
9.00863e-08 1.52267e-07 -1.74731e-05
0.00203619 5.83539e-05 -6.80648e-07
5.83539e-05 4.47647e-05 1.86231e-09
-6.80648e-07 1.86231e-09 1.09672e-05
0.00206586 0.000211593 -1.11225e-07
0.000211593 7.24669e-05 2.66959e-07
-1.11225e-07 2.66959e-07 6.33186e-06
0.0020217 0.000125855 1.44475e-07
0.000125855 2.61612e-06 1.13324e-08
1.44475e-07 1.13324e-08 -8.52709e-06
0.00211715 0.000381965 -4.0114e-07
0.000381965 0.000147888 1.01543e-07
-4.0114e-07 1.01543e-07 3.65431e-06
0.00209376 0.000298475 1.65249e-07
0.000298475 1.71654e-05 1.22454e-07
1.65249e-07 1.22454e-07 -3.1732e-05
0.00202388 -5.81115e-06 4.79889e-06
-5.81115e-06 4.45002e-05 1.08346e-07
4.79889e-06 1.08346e-07 8.71711e-06
0.00202981 5.47524e-05 5.03216e-06
5.47524e-05 2.43606e-05 2.3431e-07
5.03216e-06 2.3431e-07 2.19074e-05
0.00207361 0.000202992 2.19042e-06
0.000202992 9.01438e-06 3.03773e-07
2.19042e-06 3.03773e-07 -1.02052e-05
0.00210893 0.000130692 1.5613e-06
0.000130692 -4.44456e-06 2.9001e-07
1.5613e-06 2.9001e-07 1.06264e-05
0.00205095 0.000377957 1.05971e-06
0.000377957 5.22726e-05 3.12752e-07
1.05971e-06 3.12752e-07 -5.92058e-05
0.00226882 0.000304327 2.33761e-06
0.000304327 5.25446e-05 6.38515e-07
2.33761e-06 6.38515e-07 4.01907e-05
0.00190188 -4.94997e-05 -2.07439e-06
-4.94997e-05 0.000101739 -2.17925e-07
-2.07439e-06 -2.17925e-07 8.94329e-06
0.00187791 -0.000198385 -3.31897e-06
-0.000198385 8.86807e-05 -1.27137e-07
-3.31897e-06 -1.27137e-07 -3.34647e-05
0.00203677 -0.000129377 -2.24613e-06
-0.000129377 5.57076e-05 2.16519e-07
-2.24613e-06 2.16519e-07 9.11839e-06
0.00199038 -0.000281849 -3.38629e-06
-0.000281849 7.67372e-05 7.93367e-07
-3.38629e-06 7.93367e-07 -2.72262e-05
0.000728843 -0.000251506 -9.90726e-06
-0.000251506 6.33598e-05 8.97469e-06
-9.90726e-06 8.97469e-06 -0.000182459
0.00140254 -0.00048587 -9.77696e-06
-0.00048587 0.000291117 2.37165e-06
-9.77696e-06 2.37165e-06 -6.41725e-05
0.00165876 -0.000632816 2.02191e-06
-0.000632816 0.000230097 -1.97149e-06
2.02191e-06 -1.97149e-06 -0.000160934
0.00189508 -0.000421617 -1.82796e-06
-0.000421617 9.33316e-05 4.45958e-07
-1.82796e-06 4.45958e-07 -8.93444e-05
0.0020976 -0.000392561 -1.63157e-06
-0.000392561 8.33535e-05 5.74056e-07
-1.63157e-06 5.74056e-07 6.04353e-07
0.00201192 -0.000508165 -8.96695e-07
-0.000508165 0.00015503 4.69717e-07
-8.96695e-07 4.69717e-07 -3.14382e-05
0.00203139 -0.000620471 -4.52487e-06
-0.000620471 0.000267949 -3.18322e-06
-4.52487e-06 -3.18322e-06 -2.97852e-05
0.00210423 -0.000554232 6.7006e-06
-0.000554232 0.000274224 -3.94501e-06
6.7006e-06 -3.94501e-06 6.48026e-05
0.000849623 -0.000288298 -4.35086e-07
-0.000288298 0.000125259 2.90313e-06
-4.35086e-07 2.90313e-06 -0.000158286
0.000960438 -0.000302317 4.06485e-06
-0.000302317 0.000159861 -1.07591e-06
4.06485e-06 -1.07591e-06 -0.000138799
0.00098167 -0.000141615 -1.61696e-07
-0.000141615 0.000343383 5.37775e-06
-1.61696e-07 5.37775e-06 0.000145804
-0.000374533 -8.06605e-05 1.49976e-06
-8.06605e-05 -0.000533835 -7.30815e-06
1.49976e-06 -7.30815e-06 -0.000809586
0.00205333 -6.94077e-05 -2.28557e-07
-6.94077e-05 7.51509e-05 8.45255e-08
-2.28557e-07 8.45255e-08 3.25079e-05
0.00200692 -0.000215276 2.83923e-06
-0.000215276 4.92769e-05 -8.19004e-07
2.83923e-06 -8.19004e-07 -2.89234e-05
0.0019896 -0.000121608 8.53004e-07
-0.000121608 2.11259e-05 -1.80675e-07
8.53004e-07 -1.80675e-07 7.9418e-06
0.00208645 -0.0003139 -6.63729e-07
-0.0003139 4.23464e-05 1.78736e-07
-6.63729e-07 1.78736e-07 -2.23348e-06
0.00121954 -0.000387369 -2.87376e-06
-0.000387369 0.000281415 6.3222e-08
-2.87376e-06 6.3222e-08 -3.50566e-05
0.00157197 -0.000642639 1.43863e-06
-0.000642639 0.000337513 -2.9288e-07
1.43863e-06 -2.9288e-07 -9.00952e-05
0.00201459 -0.000730014 -4.57201e-07
-0.000730014 0.000369314 4.03514e-07
-4.57201e-07 4.03514e-07 -3.4345e-05
0.00197937 -0.000451238 -1.26224e-06
-0.000451238 8.99124e-05 5.05478e-07
-1.26224e-06 5.05478e-07 -5.54327e-05
0.00210176 -0.000404952 1.03431e-06
-0.000404952 5.76122e-05 -2.88353e-07
1.03431e-06 -2.88353e-07 -7.19617e-06
0.00210425 -0.00063015 -3.94987e-07
-0.00063015 0.000309584 3.94262e-07
-3.94987e-07 3.94262e-07 2.16912e-05
0.00199349 -0.000541448 -8.9858e-07
-0.000541448 0.000111649 9.68794e-07
-8.9858e-07 9.68794e-07 -5.34728e-05
0.00218962 -0.00059188 3.68055e-06
-0.00059188 0.000292131 -4.47066e-06
3.68055e-06 -4.47066e-06 7.34167e-05
0.00142703 -0.000451104 -1.07386e-06
-0.000451104 0.000461395 -1.16552e-06
-1.07386e-06 -1.16552e-06 0.000109279
0.00142577 -0.000431363 -1.42043e-06
-0.000431363 0.000473456 1.51631e-06
-1.42043e-06 1.51631e-06 0.00010894
0.0010101 -0.000296252 1.62769e-06
-0.000296252 0.000291773 -5.43788e-07
1.62769e-06 -5.43788e-07 -2.42863e-05
0.000294372 -9.27642e-05 -2.43723e-06
-9.27642e-05 -9.11032e-05 1.03604e-06
-2.43723e-06 1.03604e-06 -0.000240245
-5.5885e-05 -9.99484e-05 -1.10194e-06
-9.99484e-05 -0.000233457 -1.24129e-06
-1.10194e-06 -1.24129e-06 -0.000537239
0.00197235 -6.84593e-05 4.45888e-06
-6.84593e-05 -9.18077e-06 -1.84875e-07
4.45888e-06 -1.84875e-07 -9.89645e-06
0.00202328 -0.000187972 3.29522e-06
-0.000187972 -3.91149e-06 -7.83381e-07
3.29522e-06 -7.83381e-07 -1.63215e-05
0.00215182 -0.000371118 6.29105e-07
-0.000371118 1.57113e-07 -4.1661e-07
6.29105e-07 -4.1661e-07 -1.89967e-05
0.00212064 -0.000476344 1.56441e-06
-0.000476344 9.07907e-05 -1.98995e-06
1.56441e-06 -1.98995e-06 4.73216e-06
0.00142385 -0.000541732 -3.8505e-06
-0.000541732 0.000391004 2.46185e-07
-3.8505e-06 2.46185e-07 -1.18625e-05
0.00226707 -0.000652702 -7.46253e-06
-0.000652702 0.000185593 -5.27813e-06
-7.46253e-06 -5.27813e-06 -5.51736e-06
0.00134384 -0.000707233 -2.14375e-05
-0.000707233 0.000183808 7.74303e-06
-2.14375e-05 7.74303e-06 -0.000274616
0.00214565 -0.000793221 -9.86196e-08
-0.000793221 0.000412 8.41184e-07
-9.86196e-08 8.41184e-07 -4.07015e-06
0.00196697 -0.00060029 -1.58866e-05
-0.00060029 0.000222551 7.20648e-07
-1.58866e-05 7.20648e-07 -4.94893e-05
7.80174e-05 -1.81202e-05 -2.79394e-06
-1.81202e-05 -0.0002123 -5.91096e-06
-2.79394e-06 -5.91096e-06 -0.000328387
0.000936847 -0.000168306 -3.34155e-06
-0.000168306 0.000407836 -1.24323e-06
-3.34155e-06 -1.24323e-06 0.000135806
0.000981139 -0.000242174 -1.62683e-06
-0.000242174 0.000391957 -3.95944e-06
-1.62683e-06 -3.95944e-06 8.35873e-05
0.00181941 -0.000558179 -1.59041e-05
-0.000558179 0.00069301 5.80238e-06
-1.59041e-05 5.80238e-06 0.000284162
0.00206663 -0.000387014 -3.6659e-06
-0.000387014 0.000902479 1.16776e-05
-3.6659e-06 1.16776e-05 0.000562788
0.000647667 -0.000393351 -1.8241e-05
-0.000393351 -4.86868e-05 1.80588e-05
-1.8241e-05 1.80588e-05 -0.000421279
0.000382917 -1.23781e-05 -2.53352e-06
-1.23781e-05 -7.20677e-05 -8.48042e-06
-2.53352e-06 -8.48042e-06 -0.000109114
0.000439307 3.86904e-05 -4.11782e-07
3.86904e-05 -1.31207e-05 -7.80758e-06
-4.11782e-07 -7.80758e-06 -0.000131576
0.00209537 0.000448377 -2.74432e-06
0.000448377 0.00018017 -4.22587e-07
-2.74432e-06 -4.22587e-07 -4.46628e-06
-0.000103304 4.0705e-05 2.79938e-07
4.0705e-05 -0.000310167 -1.07705e-06
2.79938e-07 -1.07705e-06 -0.000565444
0.00131824 0.000306632 -1.49301e-08
0.000306632 0.000418683 -1.08601e-07
-1.49301e-08 -1.08601e-07 0.000174778
5.33912e-05 0.000145671 -4.76285e-06
0.000145671 -0.000386385 1.79007e-06
-4.76285e-06 1.79007e-06 -0.00059034
0.00200452 0.000561463 2.07335e-06
0.000561463 0.000268235 1.88956e-06
2.07335e-06 1.88956e-06 -4.51512e-06
0.00198189 0.000546324 2.65698e-06
0.000546324 0.000163747 1.17075e-06
2.65698e-06 1.17075e-06 -5.84489e-05
0.00155377 0.000540846 -1.34672e-06
0.000540846 0.000476829 4.43862e-07
-1.34672e-06 4.43862e-07 7.6146e-05
0.00229065 0.000696873 -4.77089e-06
0.000696873 0.000700832 4.2001e-06
-4.77089e-06 4.2001e-06 0.000310209
0.00211941 0.000655048 1.54166e-06
0.000655048 0.000329136 3.17973e-06
1.54166e-06 3.17973e-06 1.83867e-05
0.000603999 4.87351e-05 -3.16441e-07
4.87351e-05 8.76195e-05 5.76799e-07
-3.16441e-07 5.76799e-07 -1.15197e-05
0.000769654 9.26193e-05 -1.31432e-06
9.26193e-05 0.00024708 -4.32998e-08
-1.31432e-06 -4.32998e-08 4.24654e-05
0.00119313 0.000406843 1.09038e-06
0.000406843 0.000315528 2.14844e-06
1.09038e-06 2.14844e-06 4.756e-06
0.000804578 0.00011765 1.67866e-06
0.00011765 0.000196078 -1.53628e-06
1.67866e-06 -1.53628e-06 -6.44869e-05
0.000809853 0.000226258 3.70068e-06
0.000226258 3.77367e-06 -2.14778e-06
3.70068e-06 -2.14778e-06 -0.000216033
0.00205631 0.000473301 -2.29801e-06
0.000473301 0.000132806 -1.42023e-06
-2.29801e-06 -1.42023e-06 -3.97955e-05
0.00211461 0.000622181 1.99882e-06
0.000622181 0.000292789 6.18039e-07
1.99882e-06 6.18039e-07 2.05425e-05
0.00203934 0.00060084 1.15419e-06
0.00060084 0.000150993 2.32515e-07
1.15419e-06 2.32515e-07 -8.13223e-05
0.00139257 0.000620103 2.18932e-06
0.000620103 0.000364577 6.90725e-07
2.18932e-06 6.90725e-07 -7.41224e-05
0.00181077 0.000684589 -2.0746e-06
0.000684589 0.000300312 -2.03992e-06
-2.0746e-06 -2.03992e-06 -6.19762e-05
0.00124394 0.000144574 1.53513e-06
0.000144574 0.000529611 3.52288e-06
1.53513e-06 3.52288e-06 0.000368262
-0.000272357 1.54836e-05 -1.23853e-06
1.54836e-05 -0.00035612 8.48614e-07
-1.23853e-06 8.48614e-07 -0.000623073
0.0013885 0.000487039 -1.10175e-06
0.000487039 0.000434954 -3.76659e-06
-1.10175e-06 -3.76659e-06 6.74572e-05
-0.000251904 0.000148834 5.61841e-06
0.000148834 -0.000600345 -7.2577e-07
5.61841e-06 -7.2577e-07 -0.000825898
0.00252218 0.000549705 -2.00379e-06
0.000549705 0.00103552 -4.68394e-06
-2.00379e-06 -4.68394e-06 0.000723221
0.00204464 0.000517795 2.11252e-08
0.000517795 3.32476e-05 -2.81493e-07
2.11252e-08 -2.81493e-07 -0.000109685
0.00218084 0.000684942 9.19296e-06
0.000684942 0.000295596 -2.34061e-06
9.19296e-06 -2.34061e-06 -6.27974e-06
0.00210907 0.00063594 9.88026e-06
0.00063594 0.000154756 1.47275e-06
9.88026e-06 1.47275e-06 -9.5984e-05
0.00157659 0.000668221 1.19143e-05
0.000668221 0.000421568 -1.58639e-07
1.19143e-05 -1.58639e-07 -1.6306e-05
0.00211416 0.00078876 4.15664e-06
0.00078876 0.000496079 -6.51345e-07
4.15664e-06 -6.51345e-07 9.48961e-05
0.000542264 3.60456e-05 -1.40474e-06
3.60456e-05 4.21385e-05 -5.6068e-06
-1.40474e-06 -5.6068e-06 -4.23918e-05
0.000517332 8.65492e-05 1.25612e-06
8.65492e-05 5.3939e-05 2.33208e-07
1.25612e-06 2.33208e-07 -7.70579e-05
0.000233215 6.95828e-05 -3.54668e-07
6.95828e-05 -0.000129094 1.38277e-06
-3.54668e-07 1.38277e-06 -0.000248512
2.89929e-06 -2.14827e-05 7.0933e-07
-2.14827e-05 -0.000260146 -3.86557e-06
7.0933e-07 -3.86557e-06 -0.000382436
0.000590073 6.95137e-05 -4.4339e-07
6.95137e-05 0.000125697 1.06742e-07
-4.4339e-07 1.06742e-07 -3.12091e-06
0.000502705 9.95095e-05 -2.15217e-07
9.95095e-05 6.16555e-05 -7.20642e-08
-2.15217e-07 -7.20642e-08 -7.49068e-05
0.000713061 0.000145922 -2.89429e-06
0.000145922 0.000208511 -4.50046e-06
-2.89429e-06 -4.50046e-06 7.21986e-05
0.000270266 3.33815e-05 -2.23028e-06
3.33815e-05 -6.83847e-05 -7.36832e-08
-2.23028e-06 -7.36832e-08 -0.000215273
0.000678502 0.000103165 4.81578e-08
0.000103165 0.000170861 2.92869e-06
4.81578e-08 2.92869e-06 5.45879e-05
0.000553093 7.55588e-05 2.88932e-06
7.55588e-05 7.12542e-05 4.03264e-06
2.88932e-06 4.03264e-06 -5.62351e-06
0.000513792 2.60354e-05 -2.64826e-06
2.60354e-05 4.1729e-05 5.07557e-08
-2.64826e-06 5.07557e-08 -3.22257e-05
0.00127624 -9.15186e-07 1.98111e-06
-9.15186e-07 0.000487689 3.56405e-06
1.98111e-06 3.56405e-06 0.000468462
0.000395198 -6.83759e-05 3.45105e-06
-6.83759e-05 -2.72555e-05 -4.62565e-06
3.45105e-06 -4.62565e-06 -0.000108704
0.00134307 -1.1457e-05 -7.6566e-06
-1.1457e-05 0.000526427 -1.70891e-06
-7.6566e-06 -1.70891e-06 0.000506406
0.000731345 -2.4137e-05 3.08044e-05
-2.4137e-05 0.000135932 9.60903e-06
3.08044e-05 9.60903e-06 0.000140162
0.00140099 -2.10311e-05 -1.41954e-05
-2.10311e-05 0.000562491 -7.84151e-06
-1.41954e-05 -7.84151e-06 0.000540363
0.000759187 -3.94867e-05 1.27086e-05
-3.94867e-05 0.000154944 3.56881e-06
1.27086e-05 3.56881e-06 0.000154294
0.0026706 -0.000117943 -1.20545e-06
-0.000117943 0.00138074 -3.10035e-06
-1.20545e-06 -3.10035e-06 0.00137935
0.000284702 6.46467e-05 -4.42522e-06
6.46467e-05 -0.000102243 -6.21384e-06
-4.42522e-06 -6.21384e-06 -0.000145133
0.000399969 6.57802e-06 -3.62537e-06
6.57802e-06 -3.61031e-05 2.86194e-07
-3.62537e-06 2.86194e-07 -8.84155e-05
0.00310811 0.000162855 -1.57584e-06
0.000162855 0.00169043 -7.1592e-06
-1.57584e-06 -7.1592e-06 0.00167486
0.000534699 -8.42521e-05 -1.2456e-05
-8.42521e-05 3.40483e-05 1.22664e-05
-1.2456e-05 1.22664e-05 -3.58203e-05
0.00404492 0.000142012 -3.62308e-05
0.000142012 0.00228278 -1.14155e-07
-3.62308e-05 -1.14155e-07 0.00227029
0.00503284 0.000107074 -0.000172533
0.000107074 0.00291228 1.97288e-05
-0.000172533 1.97288e-05 0.0029053
0.00207562 0.000381624 -2.34133e-06
0.000381624 0.000115849 1.10253e-06
-2.34133e-06 1.10253e-06 -2.85006e-05
0.00210884 0.000211883 -3.24615e-06
0.000211883 9.807e-05 -3.86652e-07
-3.24615e-06 -3.86652e-07 3.21794e-05
0.00208961 0.000291187 -1.05302e-06
0.000291187 1.72724e-05 -7.54244e-08
-1.05302e-06 -7.54244e-08 -3.19106e-05
0.00202185 0.000125588 -2.18701e-06
0.000125588 -3.20545e-06 -3.33457e-07
-2.18701e-06 -3.33457e-07 -9.22467e-06
0.00202964 5.10893e-05 -5.50188e-06
5.10893e-05 4.31583e-05 -9.33418e-08
-5.50188e-06 -9.33418e-08 9.12483e-06
0.00186821 5.11993e-06 -1.93316e-06
5.11993e-06 7.58347e-05 2.33738e-07
-1.93316e-06 2.33738e-07 -1.38755e-05
0.00203441 -6.77332e-06 -1.21924e-07
-6.77332e-06 5.59213e-05 1.87654e-08
-1.21924e-07 1.87654e-08 1.86695e-05
0.00203004 5.54076e-05 1.25841e-06
5.54076e-05 2.7851e-05 3.50141e-08
1.25841e-06 3.50141e-08 2.17851e-05
0.00208354 0.000200725 -1.63283e-07
0.000200725 1.92743e-05 -4.15335e-08
-1.63283e-07 -4.15335e-08 1.72666e-06
0.00209295 0.000131869 6.26376e-07
0.000131869 -1.96003e-05 1.72483e-07
6.26376e-07 1.72483e-07 1.90614e-06
0.00208796 0.000379553 -4.9854e-07
0.000379553 8.54558e-05 2.78513e-07
-4.9854e-07 2.78513e-07 -2.82657e-05
0.0022013 0.000304534 2.72949e-06
0.000304534 8.92195e-06 3.74189e-07
2.72949e-06 3.74189e-07 3.36356e-06
0.00198275 -1.28432e-05 4.23403e-06
-1.28432e-05 4.29236e-06 2.48696e-07
4.23403e-06 2.48696e-07 -3.81115e-06
0.00210265 6.29532e-05 7.87806e-09
6.29532e-05 -1.84939e-05 -1.37593e-08
7.87806e-09 -1.37593e-08 1.26602e-05
0.00217061 0.000202167 -7.31508e-07
0.000202167 -1.44144e-05 -2.66866e-07
-7.31508e-07 -2.66866e-07 5.02776e-06
0.00222953 0.000415945 -6.40398e-07
0.000415945 3.06163e-05 5.82316e-07
-6.40398e-07 5.82316e-07 -2.53471e-06
0.002055 -6.94345e-05 -6.21147e-06
-6.94345e-05 7.59581e-05 5.18088e-07
-6.21147e-06 5.18088e-07 3.33762e-05
0.00203678 -0.000217066 -1.26391e-06
-0.000217066 7.50937e-05 1.0536e-07
-1.26391e-06 1.0536e-07 -4.3446e-06
0.0019597 -0.000120507 -4.93941e-06
-0.000120507 -2.68153e-06 9.01921e-07
-4.93941e-06 9.01921e-07 -1.49385e-05
0.0020986 -0.000313957 -5.34991e-06
-0.000313957 5.53183e-05 1.19956e-06
-5.34991e-06 1.19956e-06 5.16747e-06
0.000988323 -0.000371177 -6.77432e-06
-0.000371177 0.00012668 2.99072e-06
-6.77432e-06 2.99072e-06 -0.000188182
0.00155175 -0.000630175 1.27426e-05
-0.000630175 0.00033253 -4.06158e-06
1.27426e-05 -4.06158e-06 -9.085e-05
0.00202021 -0.000744821 -2.62722e-06
-0.000744821 0.000369645 -2.46193e-06
-2.62722e-06 -2.46193e-06 -4.27453e-05
0.00197142 -0.000446367 -3.48945e-06
-0.000446367 9.13437e-05 1.28643e-06
-3.48945e-06 1.28643e-06 -5.79735e-05
0.00206905 -0.000404552 -4.51647e-07
-0.000404552 3.82872e-05 1.25841e-06
-4.51647e-07 1.25841e-06 -2.21909e-05
0.00195882 -0.000542149 1.42785e-07
-0.000542149 8.02063e-05 1.99244e-06
1.42785e-07 1.99244e-06 -8.58021e-05
0.00205437 -0.000616645 -2.19019e-06
-0.000616645 0.00029967 -2.28632e-06
-2.19019e-06 -2.28632e-06 1.5292e-05
0.00215458 -0.000581379 1.52286e-05
-0.000581379 0.000257124 -6.02712e-06
1.52286e-05 -6.02712e-06 4.50184e-05
0.000937496 -0.000392147 3.13685e-07
-0.000392147 0.000155577 4.95012e-07
3.13685e-07 4.95012e-07 -0.000181374
0.00136899 -0.000431578 1.68274e-05
-0.000431578 0.000416074 -8.4315e-06
1.68274e-05 -8.4315e-06 5.76049e-05
-2.77738e-05 -0.000156224 1.1892e-06
-0.000156224 -0.000351605 -1.27822e-05
1.1892e-06 -1.27822e-05 -0.000655597
0.000102005 -8.2384e-05 4.50605e-07
-8.2384e-05 -0.000212855 5.36322e-06
4.50605e-07 5.36322e-06 -0.000363689
0.000242921 -7.09774e-05 4.90573e-06
-7.09774e-05 -6.05269e-05 4.08626e-07
4.90573e-06 4.08626e-07 -0.000352147
0.00196034 -7.68793e-05 9.73446e-08
-7.68793e-05 -1.8972e-05 -1.71068e-07
9.73446e-08 -1.71068e-07 -2.07853e-05
0.00205929 -0.000189502 1.4254e-06
-0.000189502 1.49835e-05 -9.95848e-09
1.4254e-06 -9.95848e-09 2.53553e-06
0.00215606 -0.000364717 -6.48549e-07
-0.000364717 1.95724e-05 6.02695e-08
-6.48549e-07 6.02695e-08 -4.58161e-06
0.00148808 -0.000549282 -1.24956e-06
-0.000549282 0.000430285 -6.95629e-07
-1.24956e-06 -6.95629e-07 2.66469e-05
0.00152336 -0.000709851 3.67829e-06
-0.000709851 0.000291068 -8.45225e-07
3.67829e-06 -8.45225e-07 -0.000164781
0.00216044 -0.000802489 -2.37061e-07
-0.000802489 0.000427425 -3.18963e-07
-2.37061e-07 -3.18963e-07 4.68201e-06
0.00210257 -0.000472631 3.95839e-07
-0.000472631 8.31687e-05 1.24381e-07
3.95839e-07 1.24381e-07 -5.42713e-06
0.00214933 -0.000637334 2.36595e-06
-0.000637334 0.000303335 -3.84219e-06
2.36595e-06 -3.84219e-06 2.73174e-05
0.00219661 -0.000631736 -1.53102e-06
-0.000631736 0.000176349 -2.87367e-07
-1.53102e-06 -2.87367e-07 -9.26264e-06
3.91541e-05 4.37368e-05 -1.95258e-06
4.37368e-05 -0.000247868 -9.12058e-07
-1.95258e-06 -9.12058e-07 -0.000352822
0.00134627 -0.000497065 8.4373e-09
-0.000497065 0.000394973 -1.99312e-06
8.4373e-09 -1.99312e-06 3.83311e-06
0.00146108 -0.000491584 -3.7258e-06
-0.000491584 0.000477668 1.78584e-06
-3.7258e-06 1.78584e-06 7.66728e-05
0.00158885 -0.000366956 -9.76475e-07
-0.000366956 0.000638402 2.65161e-06
-9.76475e-07 2.65161e-06 0.000280826
0.00126676 -0.000274737 1.69249e-06
-0.000274737 0.000566053 -2.29926e-06
1.69249e-06 -2.29926e-06 0.000252317
0.00041036 -8.92369e-05 -9.69666e-07
-8.92369e-05 6.51582e-05 1.38496e-06
-9.69666e-07 1.38496e-06 -0.000192888
0.00206369 -9.93613e-05 1.24149e-06
-9.93613e-05 -2.53218e-05 1.71857e-07
1.24149e-06 1.71857e-07 -2.67062e-06
0.002225 -0.000254454 1.5396e-07
-0.000254454 -2.31531e-05 1.18665e-07
1.5396e-07 1.18665e-07 1.46841e-05
0.00223341 -0.000449344 6.10183e-07
-0.000449344 1.80754e-05 -4.68553e-07
6.10183e-07 -4.68553e-07 1.32569e-05
0.00226919 -0.000566089 9.85607e-07
-0.000566089 8.09137e-05 -2.88866e-06
9.85607e-07 -2.88866e-06 1.32362e-05
0.0016882 -0.000649702 -1.48587e-05
-0.000649702 0.000510896 6.3029e-06
-1.48587e-05 6.3029e-06 6.81919e-05
0.00242953 -0.000742891 -9.27346e-06
-0.000742891 0.000365552 -7.10142e-06
-9.27346e-06 -7.10142e-06 0.000108809
0.00193727 -0.000835301 -4.6098e-05
-0.000835301 0.000512115 6.78924e-06
-4.6098e-05 6.78924e-06 1.21731e-05
0.00234137 -0.000863357 -2.85176e-05
-0.000863357 0.000551922 8.04e-07
-2.85176e-05 8.04e-07 0.000108229
-7.0725e-05 5.17717e-05 -6.27328e-06
5.17717e-05 -0.000319852 -2.76496e-06
-6.27328e-06 -2.76496e-06 -0.000399333
0.00092216 -3.84498e-06 -3.48516e-06
-3.84498e-06 0.000369939 -3.38728e-07
-3.48516e-06 -3.38728e-07 0.000181887
0.00190141 -0.000293918 -6.4212e-06
-0.000293918 0.00102002 -4.61554e-07
-6.4212e-06 -4.61554e-07 0.000715601
0.000699978 -0.000167724 -1.28621e-07
-0.000167724 0.000159195 -5.92048e-06
-1.28621e-07 -5.92048e-06 -0.000159265
0.00277353 -0.000702768 -2.54515e-05
-0.000702768 0.00125046 1.42522e-05
-2.54515e-05 1.42522e-05 0.000798728
0.00164714 -0.000490932 -4.8403e-06
-0.000490932 0.000643778 2.21926e-05
-4.8403e-06 2.21926e-05 0.000198989
0.000531973 3.48417e-05 -1.06968e-06
3.48417e-05 4.36837e-05 -6.14942e-06
-1.06968e-06 -6.14942e-06 -5.42762e-05
-0.000297991 2.64054e-05 8.82406e-07
2.64054e-05 -0.000428991 -1.05633e-06
8.82406e-07 -1.05633e-06 -0.000617427
0.00198611 0.000471446 -1.69368e-06
0.000471446 9.42515e-05 -8.26111e-07
-1.69368e-06 -8.26111e-07 -7.94288e-05
0.000332205 8.08985e-05 -2.10271e-06
8.08985e-05 -0.00010723 2.76111e-06
-2.10271e-06 2.76111e-06 -0.000360406
0.00136217 0.00043039 -1.99426e-06
0.00043039 0.000406026 -5.37649e-06
-1.99426e-06 -5.37649e-06 8.90885e-05
-0.00126946 3.47374e-05 -5.39298e-06
3.47374e-05 -0.00130577 -9.36361e-07
-5.39298e-06 -9.36361e-07 -0.00147599
0.00214922 0.000625339 3.19684e-06
0.000625339 0.000308802 1.83941e-06
3.19684e-06 1.83941e-06 3.58699e-05
0.00206939 0.000598941 -6.21806e-06
0.000598941 0.000164576 2.723e-07
-6.21806e-06 2.723e-07 -6.62831e-05
0.00174593 0.000672543 -5.21409e-06
0.000672543 0.000563759 4.47322e-06
-5.21409e-06 4.47322e-06 0.000116748
0.00205275 0.000714145 -7.31361e-06
0.000714145 0.000466551 1.21551e-06
-7.31361e-06 1.21551e-06 9.29316e-05
0.000807015 0.000106946 -5.38171e-07
0.000106946 0.000243942 4.60307e-08
-5.38171e-07 4.60307e-08 9.60366e-05
0.000519162 9.65883e-05 1.56877e-06
9.65883e-05 0.000134702 -2.00832e-07
1.56877e-06 -2.00832e-07 -0.000146644
0.00128352 0.000469079 -3.44537e-06
0.000469079 0.000365794 -1.21309e-06
-3.44537e-06 -1.21309e-06 4.17336e-06
0.000632781 0.000181338 4.15123e-07
0.000181338 -6.29945e-05 -8.45589e-07
4.15123e-07 -8.45589e-07 -0.000288673
0.00193137 0.000444527 2.73667e-06
0.000444527 0.000644585 -2.05279e-06
2.73667e-06 -2.05279e-06 0.000361779
0.0022003 0.000533167 -2.51229e-06
0.000533167 0.000114998 -8.3592e-07
-2.51229e-06 -8.3592e-07 -2.88613e-05
0.00232418 0.000685257 2.81448e-06
0.000685257 0.000387783 -5.79209e-07
2.81448e-06 -5.79209e-07 9.25135e-05
0.00229539 0.000659767 1.98073e-06
0.000659767 0.00026045 2.74157e-06
1.98073e-06 2.74157e-06 5.90689e-06
0.00153972 0.000668196 3.98377e-06
0.000668196 0.000401688 1.1819e-06
3.98377e-06 1.1819e-06 -3.93426e-05
0.0019667 0.000797718 -4.84448e-06
0.000797718 0.000411324 3.24081e-07
-4.84448e-06 3.24081e-07 -2.25176e-06
-0.000976645 8.59039e-06 -4.04695e-06
8.59039e-06 -0.000859044 6.80706e-06
-4.04695e-06 6.80706e-06 -0.00100208
-0.000647139 0.000236735 1.07302e-06
0.000236735 -0.000522379 1.28532e-06
1.07302e-06 1.28532e-06 -0.000853948
0.00148522 0.000528487 4.25926e-06
0.000528487 0.000447605 -3.21726e-06
4.25926e-06 -3.21726e-06 6.97024e-05
0.000278396 0.000249431 2.59479e-06
0.000249431 -0.000389479 -3.35938e-06
2.59479e-06 -3.35938e-06 -0.000621065
0.002441 0.000538147 5.15974e-06
0.000538147 -4.03815e-05 2.1775e-06
5.15974e-06 2.1775e-06 -1.7254e-05
0.00269929 0.000661894 8.74946e-06
0.000661894 0.000428865 1.31621e-06
8.74946e-06 1.31621e-06 0.000224815
0.00223849 0.000787682 7.70627e-06
0.000787682 0.000353641 -3.52278e-06
7.70627e-06 -3.52278e-06 -1.46084e-05
0.00168315 0.000774627 2.05558e-06
0.000774627 0.000350747 -8.517e-07
2.05558e-06 -8.517e-07 -0.000115999
0.000819681 0.000132018 -6.296e-07
0.000132018 0.000255751 -2.86244e-06
-6.296e-07 -2.86244e-06 0.000114009
0.000509443 0.000122926 -1.44553e-06
0.000122926 6.00736e-05 -8.89131e-07
-1.44553e-06 -8.89131e-07 -7.3026e-05
0.00136412 0.000120132 -8.79549e-06
0.000120132 0.000600436 -4.16767e-06
-8.79549e-06 -4.16767e-06 0.000495197
0.000505541 4.72293e-05 -1.91657e-07
4.72293e-05 4.72736e-05 -3.37523e-06
-1.91657e-07 -3.37523e-06 -6.31177e-05
-0.000174506 4.37723e-05 3.11058e-07
4.37723e-05 -0.000358748 -1.42297e-06
3.11058e-07 -1.42297e-06 -0.000483939
0.000607449 5.47462e-05 -7.62274e-07
5.47462e-05 0.000128234 2.29705e-07
-7.62274e-07 2.29705e-07 1.1363e-05
0.000487964 0.000138041 5.12751e-07
0.000138041 8.68455e-05 9.15385e-07
5.12751e-07 9.15385e-07 -4.80779e-05
0.000482762 6.43018e-05 8.9159e-07
6.43018e-05 7.73101e-05 1.21915e-07
8.9159e-07 1.21915e-07 -7.96939e-05
0.000670015 0.000120358 5.33293e-06
0.000120358 0.000139674 -3.09823e-06
5.33293e-06 -3.09823e-06 5.50388e-05
0.000700861 2.46962e-05 3.04775e-06
2.46962e-05 0.000209122 -4.8517e-06
3.04775e-06 -4.8517e-06 5.96877e-05
0.000172672 6.86177e-05 -4.41281e-07
6.86177e-05 -0.000123512 2.44063e-06
-4.41281e-07 2.44063e-06 -0.000271647
0.00067247 0.0001155 2.095e-06
0.0001155 0.000168607 4.03737e-06
2.095e-06 4.03737e-06 4.86891e-05
0.000459082 8.06509e-05 2.9045e-06
8.06509e-05 1.85072e-05 3.95887e-06
2.9045e-06 3.95887e-06 -6.456e-05
0.000449864 1.72744e-05 -1.55446e-06
1.72744e-05 4.08058e-06 -3.34329e-07
-1.55446e-06 -3.34329e-07 -7.06811e-05
0.00123698 8.07265e-06 1.20664e-06
8.07265e-06 0.000468706 3.12178e-06
1.20664e-06 3.12178e-06 0.000449875
0.000438058 -4.23853e-05 7.28507e-07
-4.23853e-05 -8.24479e-06 -3.54635e-06
7.28507e-07 -3.54635e-06 -8.01593e-05
0.00132512 -4.77259e-06 -7.31973e-06
-4.77259e-06 0.000518339 -1.72148e-06
-7.31973e-06 -1.72148e-06 0.000499968
0.000727811 -1.44783e-05 2.81773e-05
-1.44783e-05 0.000136128 9.41376e-06
2.81773e-05 9.41376e-06 0.000141358
0.0013678 -1.83578e-05 -1.09773e-05
-1.83578e-05 0.000542115 -7.25712e-06
-1.09773e-05 -7.25712e-06 0.000522772
0.000745004 -2.8767e-05 1.10257e-05
-2.8767e-05 0.000143017 3.59244e-06
1.10257e-05 3.59244e-06 0.000145408
0.000737513 -4.14085e-05 5.81163e-07
-4.14085e-05 0.000140963 -3.45523e-06
5.81163e-07 -3.45523e-06 0.000139184
0.000376537 4.49547e-05 -1.91332e-06
4.49547e-05 -6.72524e-05 -4.26573e-06
-1.91332e-06 -4.26573e-06 -9.50616e-05
0.000392156 7.1152e-05 -5.05848e-07
7.1152e-05 -3.32532e-05 3.21556e-07
-5.05848e-07 3.21556e-07 -7.84065e-05
0.00261977 0.000124135 5.0623e-06
0.000124135 0.00136956 -5.55984e-06
5.0623e-06 -5.55984e-06 0.00136476
0.000484782 6.16635e-06 -6.26651e-06
6.16635e-06 1.8741e-05 1.05e-05
-6.26651e-06 1.05e-05 -3.62343e-05
0.00324597 0.000160823 -1.98586e-05
0.000160823 0.00177567 -2.05948e-06
-1.98586e-05 -2.05948e-06 0.00176025
0.00422683 8.44944e-05 -0.000142066
8.44944e-05 0.00239221 1.45338e-05
-0.000142066 1.45338e-05 0.00239336
0.00211873 0.00038063 -8.85118e-07
0.00038063 0.000115437 3.62058e-07
-8.85118e-07 3.62058e-07 -4.6978e-07
0.00209802 0.00019922 -4.05746e-06
0.00019922 3.14007e-05 -6.22563e-07
-4.05746e-06 -6.22563e-07 1.54655e-05
0.00212939 0.000304444 5.64653e-07
0.000304444 -3.78871e-05 5.19847e-07
5.64653e-07 5.19847e-07 -3.66741e-05
0.00207318 0.000133181 3.28598e-07
0.000133181 -3.78737e-05 -1.87732e-08
3.28598e-07 -1.87732e-08 -9.74003e-06
0.00203005 5.62588e-05 -4.0437e-06
5.62588e-05 3.09704e-05 -3.42622e-07
-4.0437e-06 -3.42622e-07 2.13609e-05
0.00204919 -9.70328e-06 -6.95628e-06
-9.70328e-06 7.01693e-05 7.4158e-08
-6.95628e-06 7.4158e-08 3.15576e-05
0.00199535 -1.11377e-05 1.16088e-07
-1.11377e-05 1.34893e-05 -3.11983e-08
1.16088e-07 -3.11983e-08 6.18443e-06
0.00208742 6.57065e-05 1.13398e-06
6.57065e-05 -2.37235e-05 1.28968e-07
1.13398e-06 1.28968e-07 5.45751e-06
0.00216722 0.000208929 1.1062e-06
0.000208929 -1.75555e-05 2.10781e-07
1.1062e-06 2.10781e-07 5.21424e-06
0.0022297 0.000404852 5.58489e-07
0.000404852 2.39486e-05 1.56827e-07
5.58489e-07 1.56827e-07 -7.86762e-06
0.00205591 -1.66022e-05 -4.99607e-07
-1.66022e-05 -3.26587e-05 8.90444e-08
-4.99607e-07 8.90444e-08 -9.62229e-06
0.00221699 0.00011717 -2.10393e-06
0.00011717 -5.86214e-05 -4.97934e-07
-2.10393e-06 -4.97934e-07 1.13128e-05
0.00239505 0.000316697 1.40596e-06
0.000316697 -3.38772e-08 -1.65946e-07
1.40596e-06 -1.65946e-07 4.15168e-05
0.00194833 -8.51899e-05 -4.08316e-06
-8.51899e-05 -2.88337e-05 2.01217e-07
-4.08316e-06 2.01217e-07 -3.16303e-05
0.00209612 -0.000190498 -3.38727e-06
-0.000190498 3.51616e-05 6.08825e-07
-3.38727e-06 6.08825e-07 2.26748e-05
0.0021567 -0.000357782 -2.12151e-06
-0.000357782 3.75185e-05 5.88993e-07
-2.12151e-06 5.88993e-07 7.60636e-06
0.00161153 -0.000564032 2.37089e-06
-0.000564032 0.000504108 -1.04507e-06
2.37089e-06 -1.04507e-06 9.83701e-05
0.00152579 -0.000685648 2.41808e-05
-0.000685648 0.000298166 -7.71981e-06
2.41808e-05 -7.71981e-06 -0.000147008
0.00196587 -0.00078894 1.39772e-06
-0.00078894 0.000327285 2.7706e-07
1.39772e-06 2.7706e-07 -9.60148e-05
0.00208571 -0.00046884 -1.54415e-06
-0.00046884 7.59108e-05 1.60482e-06
-1.54415e-06 1.60482e-06 -1.52634e-05
0.00213263 -0.000611088 8.696e-06
-0.000611088 0.000170515 3.21115e-06
8.696e-06 3.21115e-06 -8.13955e-06
0.00224648 -0.000671429 1.56768e-05
-0.000671429 0.000338529 -6.73181e-06
1.56768e-05 -6.73181e-06 5.8593e-05
0.00104956 -0.000453133 8.46846e-06
-0.000453133 0.000210381 -6.77363e-06
8.46846e-06 -6.77363e-06 -0.000168623
0.0016446 -0.000530436 1.98911e-05
-0.000530436 0.000605373 -1.77115e-05
1.98911e-05 -1.77115e-05 0.000197184
0.000984044 -0.000375319 -1.03658e-06
-0.000375319 0.000289208 -1.17134e-05
-1.03658e-06 -1.17134e-05 -8.3603e-05
0.00022106 3.90352e-05 4.12275e-06
3.90352e-05 -0.000137367 1.99086e-06
4.12275e-06 1.99086e-06 -0.000237858
0.0017858 -0.000300796 3.10092e-06
-0.000300796 0.000857273 4.23756e-06
3.10092e-06 4.23756e-06 0.000554407
-0.000314831 3.14018e-06 6.76368e-06
3.14018e-06 -0.000401786 4.25264e-07
6.76368e-06 4.25264e-07 -0.00064481
0.00207912 -9.68376e-05 -5.67586e-07
-9.68376e-05 -1.58988e-05 1.39437e-07
-5.67586e-07 1.39437e-07 4.79249e-06
0.00219423 -0.000262513 9.55232e-08
-0.000262513 -4.57306e-05 -1.13794e-07
9.55232e-08 -1.13794e-07 -6.17934e-06
0.00222093 -0.000441238 -6.67304e-07
-0.000441238 1.6146e-05 3.41512e-07
-6.67304e-07 3.41512e-07 8.63695e-06
0.00172387 -0.000650159 -7.03558e-07
-0.000650159 0.000552153 8.65491e-07
-7.03558e-07 8.65491e-07 0.000109307
0.00133522 -0.000754516 5.8205e-06
-0.000754516 0.000164899 -2.21961e-06
5.8205e-06 -2.21961e-06 -0.000314505
0.00242598 -0.000851555 -3.85094e-06
-0.000851555 0.000600997 -2.95117e-07
-3.85094e-06 -2.95117e-07 0.000173366
0.00223426 -0.000574636 2.55989e-07
-0.000574636 6.23088e-05 -4.86047e-07
2.55989e-07 -4.86047e-07 -1.32516e-05
0.00199963 -0.000689543 2.47081e-06
-0.000689543 0.000134066 -1.01137e-06
2.47081e-06 -1.01137e-06 -0.000106407
0.000240899 6.04172e-05 -1.81651e-06
6.04172e-05 -0.000125522 -1.34727e-06
-1.81651e-06 -1.34727e-06 -0.000201467
0.000645662 -3.5365e-05 -8.57646e-07
-3.5365e-05 0.000185602 9.60752e-07
-8.57646e-07 9.60752e-07 6.65194e-06
0.000955353 -0.000497161 -3.21269e-06
-0.000497161 0.000125664 2.17798e-06
-3.21269e-06 2.17798e-06 -0.00026966
0.00141055 -0.000439004 -5.68285e-06
-0.000439004 0.000507651 1.07075e-06
-5.68285e-06 1.07075e-06 6.90647e-05
0.00163762 -0.000238674 -6.81438e-07
-0.000238674 0.000732838 -1.31764e-06
-6.81438e-07 -1.31764e-06 0.000406517
0.00103672 -0.000210738 -5.02355e-07
-0.000210738 0.000466265 1.71104e-06
-5.02355e-07 1.71104e-06 0.00017371
0.00218706 -0.000134662 -1.87571e-06
-0.000134662 -5.90286e-05 1.05807e-06
-1.87571e-06 1.05807e-06 1.08411e-05
0.00233634 -0.00037724 -2.05381e-06
-0.00037724 -8.54034e-05 9.60892e-07
-2.05381e-06 9.60892e-07 7.08577e-06
0.00231491 -0.000540544 2.43101e-06
-0.000540544 1.73622e-05 -1.04477e-06
2.43101e-06 -1.04477e-06 1.6652e-05
0.00238457 -0.000738563 6.50731e-06
-0.000738563 0.0001635 -4.48632e-06
6.50731e-06 -4.48632e-06 9.56347e-06
0.000981442 -0.000602912 -1.19443e-05
-0.000602912 8.95568e-05 -7.49797e-06
-1.19443e-05 -7.49797e-06 -0.000350313
0.00280156 -0.000940454 -7.50992e-06
-0.000940454 0.000725256 -1.24728e-08
-7.50992e-06 -1.24728e-08 0.000322781
0.00239367 -0.00096351 -5.10606e-05
-0.00096351 0.000708107 -2.94528e-06
-5.10606e-05 -2.94528e-06 0.000160767
0.000544161 4.49863e-05 -2.67416e-07
4.49863e-05 4.80809e-05 3.10564e-08
-2.67416e-07 3.10564e-08 -9.02769e-06
0.000709104 -0.000149467 3.77831e-06
-0.000149467 0.000215045 -8.98588e-07
3.77831e-06 -8.98588e-07 9.74743e-05
0.000323307 8.8082e-05 -8.65074e-06
8.8082e-05 -2.49442e-05 -9.4203e-08
-8.65074e-06 -9.4203e-08 -0.00014874
0.000863554 -7.41985e-05 -4.56453e-06
-7.41985e-05 0.000348161 2.66813e-06
-4.56453e-06 2.66813e-06 0.000115306
-0.000185604 -0.000155123 2.32713e-06
-0.000155123 -0.000348885 -8.43524e-06
2.32713e-06 -8.43524e-06 -0.000628406
0.000189366 -0.000176289 6.47837e-06
-0.000176289 -0.000111572 -1.37631e-06
6.47837e-06 -1.37631e-06 -0.000522008
0.00121957 -0.000560224 -4.20992e-05
-0.000560224 0.00031346 2.77849e-05
-4.20992e-05 2.77849e-05 -8.42075e-05
0.0030832 -0.00057025 -3.36334e-05
-0.00057025 0.00172678 2.00432e-05
-3.36334e-05 2.00432e-05 0.00104829
0.000321197 5.56728e-05 -2.73175e-07
5.56728e-05 -7.85176e-05 -2.057e-06
-2.73175e-07 -2.057e-06 -0.000207987
0.0010998 0.00024414 -8.63148e-07
0.00024414 0.000478633 3.50771e-07
-8.63148e-07 3.50771e-07 0.000190609
0.00235631 0.000548907 -2.59607e-06
0.000548907 0.000197336 -1.46421e-06
-2.59607e-06 -1.46421e-06 5.22341e-05
0.000378202 0.000199294 -3.95883e-06
0.000199294 -0.000204289 1.45176e-06
-3.95883e-06 1.45176e-06 -0.000457095
0.00116442 0.000450545 -1.86547e-06
0.000450545 0.000288121 3.16211e-07
-1.86547e-06 3.16211e-07 -6.93594e-05
0.0017615 0.000387131 -4.13586e-06
0.000387131 0.000517238 -1.66938e-06
-4.13586e-06 -1.66938e-06 0.000251731
0.00244824 0.000681548 -7.34947e-06
0.000681548 0.000470245 -1.60554e-07
-7.34947e-06 -1.60554e-07 0.000183
0.00246855 0.000682292 -1.12521e-05
0.000682292 0.000359361 4.94057e-06
-1.12521e-05 4.94057e-06 0.000101567
0.00161462 0.000685541 -4.8684e-06
0.000685541 0.000444449 1.70004e-06
-4.8684e-06 1.70004e-06 -2.18008e-06
0.00179407 0.000805449 -6.79867e-06
0.000805449 0.00030868 -1.00799e-07
-6.79867e-06 -1.00799e-07 -0.000116003
-0.000224995 7.08943e-05 1.17837e-06
7.08943e-05 -0.00037995 1.42867e-06
1.17837e-06 1.42867e-06 -0.00054886
2.31592e-05 0.000282229 -2.51668e-07
0.000282229 -0.000109773 -2.50861e-06
-2.51668e-07 -2.50861e-06 -0.000443353
0.00157306 0.000550543 1.54322e-06
0.000550543 0.00048011 1.71433e-07
1.54322e-06 1.71433e-07 9.16006e-05
0.00172111 0.000384814 -4.02796e-06
0.000384814 0.000534785 1.64172e-06
-4.02796e-06 1.64172e-06 0.000274864
0.00241971 0.00051694 6.59241e-07
0.00051694 -7.48856e-05 -8.68567e-07
6.59241e-07 -8.68567e-07 -3.99674e-05
0.00258783 0.000663211 3.41687e-06
0.000663211 0.00036233 -7.81019e-09
3.41687e-06 -7.81019e-09 0.000150208
0.0021553 0.000764642 -2.51709e-06
0.000764642 0.000323233 -1.27325e-08
-2.51709e-06 -1.27325e-08 -3.62498e-05
0.0019042 0.00079325 1.09842e-06
0.00079325 0.000460717 1.08883e-07
1.09842e-06 1.08883e-07 -2.11739e-06
-0.000508867 3.69236e-05 -3.49856e-06
3.69236e-05 -0.000545416 5.29361e-06
-3.49856e-06 5.29361e-06 -0.000712147
0.00229119 0.000391232 1.25367e-05
0.000391232 -0.000194347 3.36394e-06
1.25367e-05 3.36394e-06 -0.000108159
0.00309671 0.000590429 8.23034e-06
0.000590429 0.00174043 9.61597e-06
8.23034e-06 9.61597e-06 0.00137492
0.00133913 0.000526553 3.32353e-06
0.000526553 0.000254856 -3.56506e-06
3.32353e-06 -3.56506e-06 -9.97272e-05
0.00257504 0.000643998 -1.28271e-05
0.000643998 0.000168803 -7.49948e-06
-1.28271e-05 -7.49948e-06 0.00010706
0.00125654 0.000712561 4.29447e-06
0.000712561 -0.000300767 -8.52913e-06
4.29447e-06 -8.52913e-06 -0.000639151
0.00280101 0.000919593 1.32775e-06
0.000919593 0.000917298 3.83463e-06
1.32775e-06 3.83463e-06 0.000423755
0.000758099 0.000129704 -1.27309e-06
0.000129704 0.000217982 -2.98404e-06
-1.27309e-06 -2.98404e-06 8.13738e-05
0.000605104 0.000120918 -3.81484e-06
0.000120918 0.000149104 -1.67483e-06
-3.81484e-06 -1.67483e-06 3.71918e-05
0.000989419 0.000109919 -2.47651e-06
0.000109919 0.000395903 4.19012e-06
-2.47651e-06 4.19012e-06 0.000325138
0.000474035 7.99214e-06 1.14867e-06
7.99214e-06 4.51699e-05 -3.90227e-06
1.14867e-06 -3.90227e-06 -7.18399e-05
0.000651112 8.96165e-05 2.78114e-06
8.96165e-05 0.000189161 -1.35461e-06
2.78114e-06 -1.35461e-06 2.63732e-05
-0.000431815 9.27159e-05 -2.98749e-06
9.27159e-05 -0.000455066 5.85012e-06
-2.98749e-06 5.85012e-06 -0.000579027
0.000544438 2.44516e-05 -1.55214e-06
2.44516e-05 9.28382e-05 1.54313e-08
-1.55214e-06 1.54313e-08 -2.99607e-05
0.000299222 -7.54795e-06 -9.65189e-07
-7.54795e-06 -2.88678e-05 -2.56454e-07
-9.65189e-07 -2.56454e-07 -0.000187447
5.91397e-05 6.2914e-05 -1.17213e-06
6.2914e-05 -0.000213246 2.22787e-06
-1.17213e-06 2.22787e-06 -0.000285008
0.000793948 0.000113958 1.14663e-06
0.000113958 0.000281278 -1.63911e-06
1.14663e-06 -1.63911e-06 0.000119688
0.00180768 0.000153842 -6.23139e-07
0.000153842 0.000840437 -1.14151e-06
-6.23139e-07 -1.14151e-06 0.000794027
0.000342363 3.00968e-05 1.0713e-05
3.00968e-05 -4.01599e-05 -8.27338e-06
1.0713e-05 -8.27338e-06 -0.00012832
0.00031836 0.000116647 6.18056e-07
0.000116647 -6.75471e-06 2.68001e-06
6.18056e-07 2.68001e-06 -0.000177296
0.000576907 5.52722e-05 1.31861e-06
5.52722e-05 0.000139181 4.32082e-06
1.31861e-06 4.32082e-06 -3.05508e-05
0.000557533 3.10201e-05 2.32832e-06
3.10201e-05 9.05766e-05 3.55959e-06
2.32832e-06 3.55959e-06 -3.30499e-05
0.000482617 -6.22764e-05 -1.02086e-06
-6.22764e-05 2.92101e-05 3.17907e-06
-1.02086e-06 3.17907e-06 -5.36966e-05
0.000482075 1.28296e-05 4.25181e-07
1.28296e-05 2.35283e-05 -4.00774e-07
4.25181e-07 -4.00774e-07 -5.28982e-05
0.00130856 2.97673e-05 3.47325e-06
2.97673e-05 0.000521928 3.35921e-06
3.47325e-06 3.35921e-06 0.000500925
0.00048633 6.87299e-06 4.97704e-07
6.87299e-06 1.63638e-05 -3.66888e-06
4.97704e-07 -3.66888e-06 -5.13637e-05
0.00132071 1.40616e-05 -7.07909e-06
1.40616e-05 0.000522029 -1.76893e-06
-7.07909e-06 -1.76893e-06 0.000502921
0.000741393 -7.29284e-06 2.31927e-05
-7.29284e-06 0.000149676 9.09464e-06
2.31927e-05 9.09464e-06 0.000154618
0.00134749 -9.81083e-06 -8.62336e-06
-9.81083e-06 0.000532238 -6.93938e-06
-8.62336e-06 -6.93938e-06 0.000514458
0.000767284 -1.91514e-05 8.70066e-06
-1.91514e-05 0.000158036 3.58967e-06
8.70066e-06 3.58967e-06 0.000161846
0.000763105 -3.10231e-05 4.30855e-07
-3.10231e-05 0.00015234 -3.11569e-06
4.30855e-07 -3.11569e-06 0.000153936
0.00062187 -1.40482e-05 1.48067e-06
-1.40482e-05 9.08868e-05 -1.23012e-06
1.48067e-06 -1.23012e-06 3.82986e-05
0.000394292 2.80713e-05 -2.45263e-07
2.80713e-05 -6.81859e-05 -3.69078e-06
-2.45263e-07 -3.69078e-06 -8.79031e-05
0.000412328 4.88449e-05 3.27475e-07
4.88449e-05 -4.1795e-05 2.67274e-07
3.27475e-07 2.67274e-07 -7.13341e-05
0.00241612 9.70279e-05 1.04429e-05
9.70279e-05 0.00122927 -4.81159e-06
1.04429e-05 -4.81159e-06 0.00123193
0.000469366 6.07698e-05 4.84408e-06
6.07698e-05 8.35548e-06 7.71155e-06
4.84408e-06 7.71155e-06 -3.42938e-05
0.0028163 0.000135098 -4.85256e-06
0.000135098 0.00149594 -5.5918e-07
-4.85256e-06 -5.5918e-07 0.00148859
0.00348075 0.000117805 -5.62818e-05
0.000117805 0.00191256 6.42118e-06
-5.62818e-05 6.42118e-06 0.0019063
0.00223653 0.000394668 6.73356e-07
0.000394668 2.11775e-05 -1.52198e-07
6.73356e-07 -1.52198e-07 -9.18767e-06
0.00216675 0.00021582 -2.474e-07
0.00021582 -1.77054e-05 2.90417e-07
-2.474e-07 2.90417e-07 7.80257e-06
0.00207268 6.94887e-05 2.91781e-08
6.94887e-05 -2.77865e-05 -4.07189e-08
2.91781e-08 -4.07189e-08 -7.57675e-07
0.00200593 -9.34821e-06 -4.31092e-06
-9.34821e-06 2.16338e-05 -2.97054e-07
-4.31092e-06 -2.97054e-07 1.50867e-05
0.00206334 -1.14355e-05 -9.68823e-07
-1.14355e-05 -2.92956e-05 -3.81791e-08
-9.68823e-07 -3.81791e-08 -3.62446e-06
0.00220392 0.000110624 -8.97238e-09
0.000110624 -5.69922e-05 3.60455e-07
-8.97238e-09 3.60455e-07 1.04002e-05
0.00231985 0.000323745 -1.20322e-06
0.000323745 -3.28233e-05 -1.14376e-07
-1.20322e-06 -1.14376e-07 7.57199e-06
0.00218416 -1.10902e-05 -2.51593e-06
-1.10902e-05 -7.43751e-05 1.77514e-07
-2.51593e-06 1.77514e-07 4.66456e-06
0.00242969 0.000166079 3.50205e-06
0.000166079 -5.24844e-05 -1.35909e-06
3.50205e-06 -1.35909e-06 2.83855e-05
0.00260139 0.000123679 1.30999e-05
0.000123679 0.000125945 1.26062e-05
1.30999e-05 1.26062e-05 0.000214552
0.00209342 -9.4848e-05 -1.09668e-06
-9.4848e-05 -6.88633e-06 -1.18368e-07
-1.09668e-06 -1.18368e-07 1.1786e-05
0.00216724 -0.00027204 -4.98278e-07
-0.00027204 -6.71786e-05 -2.55115e-07
-4.98278e-07 -2.55115e-07 -2.55288e-05
0.00221351 -0.00043269 -1.23445e-07
-0.00043269 1.73866e-05 -1.72884e-07
-1.23445e-07 -1.72884e-07 8.07828e-06
0.00142266 -0.000622268 1.10621e-05
-0.000622268 0.000369087 -4.31447e-06
1.10621e-05 -4.31447e-06 -7.01371e-05
0.00190437 -0.000819716 3.27996e-05
-0.000819716 0.000492918 -2.01445e-06
3.27996e-05 -2.01445e-06 -1.09614e-06
0.00198635 -0.000775972 1.55574e-05
-0.000775972 0.00035907 -1.69939e-06
1.55574e-05 -1.69939e-06 -4.19835e-05
0.00219918 -0.000580613 1.51587e-06
-0.000580613 4.82385e-05 3.13144e-06
1.51587e-06 3.13144e-06 -3.62217e-05
0.00188718 -0.000666646 1.2204e-05
-0.000666646 9.00047e-05 4.13408e-06
1.2204e-05 4.13408e-06 -0.000142216
0.000531281 -0.000437371 2.06895e-05
-0.000437371 -0.000125569 -2.12897e-05
2.06895e-05 -2.12897e-05 -0.00051204
0.00137646 -0.000408818 1.9629e-05
-0.000408818 0.000539184 -2.13854e-05
1.9629e-05 -2.13854e-05 8.5333e-05
0.00113957 -0.000145908 -2.65114e-06
-0.000145908 0.000387867 2.27356e-06
-2.65114e-06 2.27356e-06 8.73094e-05
0.000419854 1.69592e-05 2.91411e-06
1.69592e-05 -1.47229e-05 8.49758e-07
2.91411e-06 8.49758e-07 -8.63827e-05
0.000505494 2.45641e-05 7.50817e-06
2.45641e-05 8.95588e-05 1.13522e-06
7.50817e-06 1.13522e-06 -8.2774e-05
0.00035272 -0.000148317 1.64365e-06
-0.000148317 1.98795e-05 7.40782e-06
1.64365e-06 7.40782e-06 -0.000259829
0.00219752 -0.000137413 5.68098e-07
-0.000137413 -6.15379e-05 -8.15367e-08
5.68098e-07 -8.15367e-08 1.08085e-05
0.000480742 7.88998e-06 1.82666e-06
7.88998e-06 8.33616e-06 3.45124e-07
1.82666e-06 3.45124e-07 -4.87331e-05
0.000388709 -7.60024e-05 -2.52994e-06
-7.60024e-05 -2.18399e-05 -6.17959e-07
-2.52994e-06 -6.17959e-07 -0.000117686
0.00231009 -0.000366534 -2.14388e-07
-0.000366534 -7.82276e-05 1.25525e-07
-2.14388e-07 1.25525e-07 3.6159e-06
0.002268 -0.000527059 -1.85841e-06
-0.000527059 -4.37913e-07 3.99326e-07
-1.85841e-06 3.99326e-07 6.3777e-06
0.00182521 -0.000716037 -1.5134e-06
-0.000716037 0.000584945 2.13824e-06
-1.5134e-06 2.13824e-06 0.000112234
0.00191584 -0.000899697 9.39676e-06
-0.000899697 0.00046123 6.03811e-07
9.39676e-06 6.03811e-07 -7.77302e-05
0.00213153 -0.000871036 2.1388e-06
-0.000871036 0.000331047 -5.76845e-06
2.1388e-06 -5.76845e-06 -5.26623e-05
0.00235084 -0.000734694 2.95911e-06
-0.000734694 0.000146162 -9.35507e-07
2.95911e-06 -9.35507e-07 -3.14516e-06
0.000659921 1.10114e-05 -8.368e-07
1.10114e-05 0.000194615 -1.39224e-06
-8.368e-07 -1.39224e-06 6.69859e-05
0.000771065 -6.38979e-05 1.27719e-06
-6.38979e-05 0.000288611 2.10471e-06
1.27719e-06 2.10471e-06 5.73058e-05
0.00146604 -0.000562568 5.14222e-06
-0.000562568 0.000484567 6.37614e-06
5.14222e-06 6.37614e-06 6.98789e-05
0.0013366 -0.00042218 1.19581e-05
-0.00042218 0.000630962 -9.73177e-06
1.19581e-05 -9.73177e-06 5.47459e-05
0.000997087 -0.00017378 1.13423e-08
-0.00017378 0.000317414 -2.94865e-07
1.13423e-08 -2.94865e-07 -4.44461e-05
0.00019636 -0.000121085 8.46502e-07
-0.000121085 -0.000103322 -2.69509e-06
8.46502e-07 -2.69509e-06 -0.000391063
0.00220041 -0.000160666 8.43819e-07
-0.000160666 -0.000215072 4.31511e-07
8.43819e-07 4.31511e-07 -0.000113814
0.00231338 -0.000472244 -7.94028e-07
-0.000472244 -0.000233307 2.96093e-06
-7.94028e-07 2.96093e-06 -1.50291e-05
0.0025378 -0.000732766 -3.82566e-06
-0.000732766 9.22685e-05 -2.30834e-06
-3.82566e-06 -2.30834e-06 5.69925e-05
0.00258324 -0.000959319 1.27288e-05
-0.000959319 0.000363295 -6.32156e-06
1.27288e-05 -6.32156e-06 0.000113094
0.00124584 -0.000684971 -5.30947e-06
-0.000684971 0.000286862 -2.10476e-05
-5.30947e-06 -2.10476e-05 -0.00020174
0.00324544 -0.00114519 -1.23347e-05
-0.00114519 0.00110386 7.05527e-06
-1.23347e-05 7.05527e-06 0.00052105
0.000202471 5.66192e-05 -2.76886e-06
5.66192e-05 -0.000134415 -4.33761e-06
-2.76886e-06 -4.33761e-06 -0.0002369
0.000527476 -4.64639e-05 4.10626e-06
-4.64639e-05 7.21866e-05 1.13629e-06
4.10626e-06 1.13629e-06 -1.97511e-05
0.00125818 -0.00017279 -3.72573e-06
-0.00017279 0.000495615 1.59889e-05
-3.72573e-06 1.59889e-05 0.00037471
0.000407958 1.05587e-05 -4.57983e-06
1.05587e-05 2.07437e-05 5.16635e-06
-4.57983e-06 5.16635e-06 -0.000151037
0.000799734 -0.000116084 -4.83407e-06
-0.000116084 0.000286297 8.34533e-06
-4.83407e-06 8.34533e-06 3.76837e-05
0.00101048 -8.78675e-05 1.29935e-05
-8.78675e-05 0.000321916 -1.14827e-05
1.29935e-05 -1.14827e-05 5.70284e-05
-0.000807296 -0.00035347 -1.59064e-06
-0.00035347 -0.000323574 1.45175e-06
-1.59064e-06 1.45175e-06 -0.00116165
0.000141778 -0.00056351 -6.42872e-05
-0.00056351 -0.000358142 2.89896e-05
-6.42872e-05 2.89896e-05 -0.000725477
0.000470926 9.37683e-05 -1.33492e-06
9.37683e-05 8.32053e-05 -2.3629e-06
-1.33492e-06 -2.3629e-06 -0.000121725
0.000881286 0.000292358 -1.07252e-05
0.000292358 0.000393649 -5.9003e-06
-1.07252e-05 -5.9003e-06 7.76724e-05
0.00239587 0.000495025 -9.21561e-06
0.000495025 -0.000102497 -2.73232e-06
-9.21561e-06 -2.73232e-06 -5.8366e-05
0.00254262 0.00066914 -8.78e-06
0.00066914 0.00033872 -1.02482e-06
-8.78e-06 -1.02482e-06 0.000117843
0.00360377 0.000518821 -5.88507e-06
0.000518821 0.00169899 1.43104e-06
-5.88507e-06 1.43104e-06 0.00142596
0.00150838 0.00055242 -4.65787e-06
0.00055242 0.000423252 -1.40519e-06
-4.65787e-06 -1.40519e-06 2.83359e-05
0.00208836 0.000743377 -6.13785e-06
0.000743377 0.000301923 1.93339e-06
-6.13785e-06 1.93339e-06 -4.96452e-05
0.00213506 0.000809687 -5.08281e-06
0.000809687 0.0005784 -8.00708e-07
-5.08281e-06 -8.00708e-07 0.000119606
0.000313009 0.000119269 1.38452e-06
0.000119269 -3.32176e-06 -1.30381e-06
1.38452e-06 -1.30381e-06 -0.000212459
0.0024603 0.000376265 -2.4168e-06
0.000376265 -8.60572e-05 -2.00998e-06
-2.4168e-06 -2.00998e-06 5.21662e-06
0.0014432 0.000368019 8.57147e-07
0.000368019 0.000692356 1.43474e-06
8.57147e-07 1.43474e-06 0.00038201
0.00165766 0.000556042 2.39173e-06
0.000556042 0.000485436 1.13482e-06
2.39173e-06 1.13482e-06 0.000118975
0.00262053 0.000637939 1.60477e-06
0.000637939 0.000214527 3.20696e-07
1.60477e-06 3.20696e-07 0.000150917
0.00174551 0.00075877 -1.91823e-06
0.00075877 -8.91572e-06 -4.73119e-06
-1.91823e-06 -4.73119e-06 -0.000353297
0.00225629 0.00084153 -2.14198e-07
0.00084153 0.000621131 4.09816e-07
-2.14198e-07 4.09816e-07 0.000143312
0.00131458 0.000311066 -2.8851e-06
0.000311066 0.000725926 7.99444e-07
-2.8851e-06 7.99444e-07 0.000443447
0.00359854 0.000556639 -7.99509e-05
0.000556639 0.000574489 -1.98533e-05
-7.99509e-05 -1.98533e-05 0.000738628
0.000976878 0.000482016 -8.49611e-06
0.000482016 0.000338656 5.27498e-06
-8.49611e-06 5.27498e-06 -1.51094e-05
0.00155325 0.000635469 -3.6089e-06
0.000635469 0.000354205 -7.54798e-06
-3.6089e-06 -7.54798e-06 -7.55634e-05
0.0024135 0.000847803 -3.27464e-05
0.000847803 0.000216068 -2.03275e-05
-3.27464e-05 -2.03275e-05 -1.71168e-05
0.00112768 0.000723784 -2.32463e-05
0.000723784 -5.471e-05 -3.1116e-06
-2.32463e-05 -3.1116e-06 -0.000489917
0.000432123 0.000893093 3.41144e-05
0.000893093 -0.00188483 -3.63131e-05
3.41144e-05 -3.63131e-05 -0.00145042
-0.00016259 0.000135206 4.55527e-06
0.000135206 -0.000291073 -1.27918e-06
4.55527e-06 -1.27918e-06 -0.000414125
0.000434491 0.000111276 2.57268e-06
0.000111276 0.00010103 2.57508e-06
2.57268e-06 2.57508e-06 1.62469e-05
0.00162039 0.000163374 2.25758e-06
0.000163374 0.000798202 3.01138e-06
2.25758e-06 3.01138e-06 0.000723798
0.000390482 -6.49773e-05 1.05818e-06
-6.49773e-05 3.66289e-06 -4.56071e-06
1.05818e-06 -4.56071e-06 -0.00012189
0.00033647 -3.19921e-05 -4.00657e-07
-3.19921e-05 -1.06294e-05 -1.61457e-06
-4.00657e-07 -1.61457e-06 -0.000164836
0.00119512 0.000205201 3.63038e-07
0.000205201 0.00053429 5.38396e-07
3.63038e-07 5.38396e-07 0.00036038
-0.000152006 4.14624e-05 -7.36436e-06
4.14624e-05 -0.000321312 1.43518e-05
-7.36436e-06 1.43518e-05 -0.000390359
0.000511509 -1.48951e-05 -2.8651e-07
-1.48951e-05 7.9243e-05 -1.60945e-07
-2.8651e-07 -1.60945e-07 -5.3587e-05
0.000420468 7.32686e-05 2.07626e-07
7.32686e-05 1.63264e-05 -7.67032e-07
2.07626e-07 -7.67032e-07 -0.000134919
0.00128375 0.00013444 2.32057e-06
0.00013444 0.00050907 4.57794e-06
2.32057e-06 4.57794e-06 0.000464366
0.000468339 7.66795e-05 1.70213e-06
7.66795e-05 6.55628e-05 8.24503e-07
1.70213e-06 8.24503e-07 -9.3087e-05
0.000694024 6.51841e-05 -1.16515e-06
6.51841e-05 0.000173772 -2.08908e-06
-1.16515e-06 -2.08908e-06 7.2965e-05
0.0015046 0.000142441 -3.17591e-06
0.000142441 0.000693997 -1.38336e-05
-3.17591e-06 -1.38336e-05 0.000640419
0.000850236 0.000150205 -2.28572e-06
0.000150205 0.000251381 -2.59864e-06
-2.28572e-06 -2.59864e-06 0.00010366
0.00095365 0.000139511 1.70626e-06
0.000139511 0.000361954 2.16649e-06
1.70626e-06 2.16649e-06 0.00019067
0.000885428 0.000105572 -3.12428e-07
0.000105572 0.000327745 2.15279e-06
-3.12428e-07 2.15279e-06 0.000147635
0.000225307 -2.38747e-05 -1.07029e-06
-2.38747e-05 -0.000122227 2.24794e-06
-1.07029e-06 2.24794e-06 -0.000249557
0.00118414 -9.7338e-05 5.933e-07
-9.7338e-05 0.000566325 -1.16952e-06
5.933e-07 -1.16952e-06 0.000365559
0.000144776 -4.49177e-05 -1.18788e-06
-4.49177e-05 -0.000168423 4.00257e-06
-1.18788e-06 4.00257e-06 -0.000300777
0.000441904 3.89885e-06 -2.07092e-06
3.89885e-06 9.92609e-06 3.11863e-06
-2.07092e-06 3.11863e-06 -7.75167e-05
0.000459565 3.98012e-05 2.50323e-06
3.98012e-05 1.87372e-05 -1.34806e-07
2.50323e-06 -1.34806e-07 -6.67421e-05
0.000370013 2.14136e-05 -4.56769e-07
2.14136e-05 -6.49625e-05 4.66385e-06
-4.56769e-07 4.66385e-06 -8.98668e-05
0.000411518 5.45931e-06 -2.2184e-06
5.45931e-06 -1.10962e-05 -4.02408e-06
-2.2184e-06 -4.02408e-06 -9.35709e-05
0.000878643 1.65724e-05 -3.72314e-06
1.65724e-05 0.000250385 -1.53e-06
-3.72314e-06 -1.53e-06 0.000228317
0.00264751 -2.76636e-06 2.1498e-05
-2.76636e-06 0.00135428 5.65202e-06
2.1498e-05 5.65202e-06 0.00136678
0.00140474 2.90771e-05 -1.14959e-05
2.90771e-05 0.000576272 -7.06758e-06
-1.14959e-05 -7.06758e-06 0.000556537
0.000766933 -9.54651e-06 7.80709e-06
-9.54651e-06 0.000162294 3.49586e-06
7.80709e-06 3.49586e-06 0.000166607
0.000804951 -2.09311e-05 7.48509e-07
-2.09311e-05 0.000178246 -2.81401e-06
7.48509e-07 -2.81401e-06 0.000181662
0.000475982 1.36852e-05 -2.07365e-06
1.36852e-05 6.38177e-06 -2.24896e-06
-2.07365e-06 -2.24896e-06 -4.63596e-05
0.000548317 -2.83942e-05 7.70408e-07
-2.83942e-05 4.81657e-05 -3.28559e-07
7.70408e-07 -3.28559e-07 -6.24629e-06
0.000480974 2.31856e-05 1.84333e-07
2.31856e-05 -1.9794e-05 -3.45276e-06
1.84333e-07 -3.45276e-06 -3.53543e-05
0.000798622 3.98423e-05 -4.51462e-08
3.98423e-05 0.000189224 1.74395e-07
-4.51462e-08 1.74395e-07 0.00017053
0.00225448 7.51831e-05 8.15026e-06
7.51831e-05 0.00111845 -4.65287e-06
8.15026e-06 -4.65287e-06 0.0011264
0.00047019 5.81432e-05 5.29428e-06
5.81432e-05 3.72094e-07 5.81388e-06
5.29428e-06 5.81388e-06 -3.26684e-05
0.00249719 0.000103478 -2.82553e-06
0.000103478 0.00128226 -2.8521e-07
-2.82553e-06 -2.8521e-07 0.00128332
0.0028786 0.000141625 1.10368e-05
0.000141625 0.00153662 8.24131e-06
1.10368e-05 8.24131e-06 0.00152783
0.00224062 0.000330321 -1.40354e-06
0.000330321 -7.16176e-05 1.17932e-07
-1.40354e-06 1.17932e-07 -3.11589e-05
0.00218689 0.000105673 3.36473e-06
0.000105673 -5.90059e-05 3.74154e-07
3.36473e-06 3.74154e-07 7.01829e-06
0.00207267 -6.95425e-06 2.9054e-07
-6.95425e-06 -2.53499e-05 -3.54457e-07
2.9054e-07 -3.54457e-07 2.98051e-06
0.00216682 -6.86259e-06 8.33467e-08
-6.86259e-06 -8.40954e-05 -2.76497e-07
8.33467e-08 -2.76497e-07 -5.25765e-06
0.00238326 0.000171968 -2.12342e-07
0.000171968 -6.72141e-05 4.21496e-07
-2.12342e-07 4.21496e-07 1.29255e-05
0.00236712 9.90974e-05 8.21797e-06
9.90974e-05 -3.39898e-05 -6.47109e-06
8.21797e-06 -6.47109e-06 4.8852e-05
0.00245593 1.27146e-06 -4.92764e-07
1.27146e-06 -0.000103621 -1.38371e-06
-4.92764e-07 -1.38371e-06 2.15712e-05
0.00466395 0.000929874 6.9469e-05
0.000929874 -0.000567918 1.54668e-05
6.9469e-05 1.54668e-05 0.000195091
0.00295083 8.04168e-05 -2.27026e-05
8.04168e-05 0.000476098 3.03939e-05
-2.27026e-05 3.03939e-05 0.000703957
0.000481448 0.000112446 -2.81877e-06
0.000112446 4.93294e-05 -9.7739e-07
-2.81877e-06 -9.7739e-07 -4.94492e-05
0.00220262 -0.000138252 1.22317e-06
-0.000138252 -6.71111e-05 -1.10378e-06
1.22317e-06 -1.10378e-06 7.7584e-06
0.00228346 -0.000355624 2.14868e-06
-0.000355624 -7.18792e-05 -6.46551e-07
2.14868e-06 -6.46551e-07 -1.05356e-06
0.00222384 -0.000516571 -7.03762e-08
-0.000516571 -2.00154e-05 7.24799e-07
-7.03762e-08 7.24799e-07 -5.02821e-06
0.0012649 -0.000659333 4.40543e-06
-0.000659333 0.000264748 1.05243e-05
4.40543e-06 1.05243e-05 -0.000191537
0.00221349 -0.000923383 3.16068e-05
-0.000923383 0.000628743 9.58618e-06
3.16068e-05 9.58618e-06 9.26788e-05
0.00126163 -0.000774791 -1.52656e-06
-0.000774791 -0.000159054 -2.40619e-06
-1.52656e-06 -2.40619e-06 -0.000519037
0.00229592 -0.000730887 -4.71155e-06
-0.000730887 0.000114881 2.60286e-06
-4.71155e-06 2.60286e-06 -2.85932e-05
0.00159605 -0.00054827 5.06199e-05
-0.00054827 0.00047479 -3.75231e-05
5.06199e-05 -3.75231e-05 0.000103658
0.00142373 -0.000452763 3.01592e-05
-0.000452763 0.00062956 -3.70258e-05
3.01592e-05 -3.70258e-05 0.00010902
0.000517112 -6.70025e-05 4.4427e-07
-6.70025e-05 -1.97846e-05 5.12496e-06
4.4427e-07 5.12496e-06 -0.000343298
0.00047975 1.03543e-05 2.62528e-06
1.03543e-05 8.77158e-06 7.57464e-07
2.62528e-06 7.57464e-07 -4.91029e-05
0.00147513 -0.0001349 1.02303e-06
-0.0001349 0.000698152 9.01325e-06
1.02303e-06 9.01325e-06 0.000389526
0.000879532 -2.31783e-05 8.03172e-06
-2.31783e-05 0.000345142 -1.61656e-06
8.03172e-06 -1.61656e-06 0.000212567
0.000675008 -5.95889e-05 3.3583e-06
-5.95889e-05 0.000218327 -2.08438e-06
3.3583e-06 -2.08438e-06 -7.59654e-06
9.02002e-05 -4.56469e-05 -3.51106e-06
-4.56469e-05 -0.000218519 -8.61638e-07
-3.51106e-06 -8.61638e-07 -0.000309554
0.00227682 -0.000178947 -2.82874e-07
-0.000178947 -0.000200005 1.58248e-07
-2.82874e-07 1.58248e-07 -7.12056e-05
0.000335845 2.91137e-05 5.20742e-07
2.91137e-05 -3.82712e-05 -2.62911e-06
5.20742e-07 -2.62911e-06 -0.000145738
0.00059542 -6.31706e-05 2.78009e-06
-6.31706e-05 0.000133309 1.01974e-06
2.78009e-06 1.01974e-06 3.02351e-05
0.000996814 -0.00014416 4.75966e-06
-0.00014416 0.000332686 7.46867e-08
4.75966e-06 7.46867e-08 0.000222731
0.00233418 -0.000486763 2.12502e-06
-0.000486763 -0.000201009 -8.87845e-07
2.12502e-06 -8.87845e-07 -2.30711e-05
0.00244141 -0.000726007 5.32134e-07
-0.000726007 4.06035e-05 -5.58105e-07
5.32134e-07 -5.58105e-07 5.51293e-06
0.00054511 -0.000535956 7.2165e-06
-0.000535956 -0.00012037 -2.32418e-07
7.2165e-06 -2.32418e-07 -0.000538755
0.0027425 -0.00109783 2.03069e-05
-0.00109783 0.000796441 3.04282e-07
2.03069e-05 3.04282e-07 0.000239527
0.00245809 -0.000952474 -6.61578e-07
-0.000952474 0.000309222 2.19095e-06
-6.61578e-07 2.19095e-06 4.93793e-05
0.000293879 -2.6502e-05 -4.26935e-07
-2.6502e-05 -4.88562e-05 3.12105e-07
-4.26935e-07 3.12105e-07 -0.000214659
0.00114635 -0.00014059 -3.34468e-07
-0.00014059 0.000526663 3.81516e-06
-3.34468e-07 3.81516e-06 0.000250537
0.0018412 -0.000781729 1.83568e-07
-0.000781729 0.000636925 1.89049e-06
1.83568e-07 1.89049e-06 0.0001693
8.6367e-05 -0.000244543 -2.00046e-06
-0.000244543 -1.71036e-05 3.37077e-06
-2.00046e-06 3.37077e-06 -0.000665789
0.00127974 -0.000142315 1.43847e-06
-0.000142315 0.000494876 5.83277e-06
1.43847e-06 5.83277e-06 0.000222942
0.00272557 -0.000339821 -8.03728e-06
-0.000339821 6.35715e-05 2.84742e-06
-8.03728e-06 2.84742e-06 0.000203919
0.00209428 -0.000542156 -1.56313e-05
-0.000542156 -0.00032173 7.32043e-06
-1.56313e-05 7.32043e-06 -6.73712e-05
0.00221477 -0.000855991 -6.66212e-06
-0.000855991 4.46333e-05 -3.45436e-06
-6.66212e-06 -3.45436e-06 -0.000142203
0.0047308 -0.00130267 -4.57039e-06
-0.00130267 0.00171353 -4.20508e-06
-4.57039e-06 -4.20508e-06 0.00133183
-6.53699e-05 -0.000647881 -1.89682e-05
-0.000647881 -0.000504718 -7.62873e-06
-1.89682e-05 -7.62873e-06 -0.000957957
2.38991e-06 -2.9218e-05 1.03628e-06
-2.9218e-05 -0.000242616 2.23476e-06
1.03628e-06 2.23476e-06 -0.000353311
0.000855649 2.40676e-06 -5.1981e-06
2.40676e-06 0.000213011 1.50616e-05
-5.1981e-06 1.50616e-05 0.000102739
-0.00154172 -0.000128167 -7.26493e-06
-0.000128167 -0.00124637 2.6153e-06
-7.26493e-06 2.6153e-06 -0.00133118
0.0021288 -0.000308657 -2.84367e-05
-0.000308657 0.0011171 2.77619e-05
-2.84367e-05 2.77619e-05 0.000884323
0.000939801 -0.000117497 -5.48011e-06
-0.000117497 0.000379612 2.76243e-05
-5.48011e-06 2.76243e-05 0.00012546
-0.00134415 -0.000137783 6.57991e-06
-0.000137783 -0.000428079 -4.40327e-08
6.57991e-06 -4.40327e-08 -0.00120977
0.00058423 -0.000839157 -2.61169e-05
-0.000839157 0.000195971 1.42221e-05
-2.61169e-05 1.42221e-05 -0.000475895
0.00173719 0.000299433 -5.41053e-06
0.000299433 0.000888908 -7.00547e-06
-5.41053e-06 -7.00547e-06 0.000645033
-0.000606444 0.000107784 -5.67061e-06
0.000107784 -0.000594362 -2.15545e-06
-5.67061e-06 -2.15545e-06 -0.000840674
0.00260627 0.000351699 1.08631e-06
0.000351699 -1.54608e-06 1.29408e-06
1.08631e-06 1.29408e-06 0.000105248
0.0026091 0.000628437 1.15276e-05
0.000628437 0.000218731 5.89486e-06
1.15276e-05 5.89486e-06 0.000158186
0.00218384 0.000799538 5.1844e-06
0.000799538 0.000252355 3.07167e-06
5.1844e-06 3.07167e-06 -9.64441e-05
0.00161349 0.000543876 -2.20271e-06
0.000543876 0.000489799 2.41215e-06
-2.20271e-06 2.41215e-06 0.000121844
0.00173987 0.000769281 2.22429e-06
0.000769281 0.00034076 3.57002e-06
2.22429e-06 3.57002e-06 -0.00012182
0.00210892 0.000358359 8.92963e-07
0.000358359 0.00114371 -8.52316e-07
8.92963e-07 -8.52316e-07 0.000895271
0.00283508 0.00044987 6.39255e-06
0.00044987 0.000171528 3.33201e-06
6.39255e-06 3.33201e-06 0.000371938
0.001171 0.000433548 -4.34802e-06
0.000433548 0.00042199 4.72804e-06
-4.34802e-06 4.72804e-06 0.000104003
0.00166908 0.000655053 3.33283e-06
0.000655053 0.000461881 -5.68858e-07
3.33283e-06 -5.68858e-07 1.47048e-05
0.00239189 0.000828225 -3.08806e-06
0.000828225 0.00022177 -3.67209e-06
-3.08806e-06 -3.67209e-06 1.0264e-05
0.00186278 0.000819064 -4.40348e-06
0.000819064 0.000358499 5.50443e-06
-4.40348e-06 5.50443e-06 -9.88767e-05
0.00309577 0.00122228 3.7067e-05
0.00122228 -0.000747216 7.69701e-06
3.7067e-05 7.69701e-06 -0.000492974
0.000163516 0.000274338 -3.09774e-07
0.000274338 4.97301e-05 4.65962e-07
-3.09774e-07 4.65962e-07 -0.000222198
0.00280178 0.000823559 -8.38398e-05
0.000823559 0.00027533 -3.9568e-05
-8.38398e-05 -3.9568e-05 0.000242681
0.000583377 0.000423953 -8.37508e-06
0.000423953 -0.000126666 2.98811e-06
-8.37508e-06 2.98811e-06 -0.000461225
-3.32198e-05 0.000499986 -2.05778e-06
0.000499986 -0.000543345 -1.71625e-05
-2.05778e-06 -1.71625e-05 -0.000959055
0.0015488 0.00090484 -4.09556e-05
0.00090484 -3.7185e-05 -1.49264e-05
-4.09556e-05 -1.49264e-05 -0.000334273
0.0150582 0.000452735 -0.000549398
0.000452735 0.00212107 -9.3019e-05
-0.000549398 -9.3019e-05 0.0018065
0.00339856 0.00187705 -6.86222e-05
0.00187705 -0.0023261 -6.75511e-05
-6.86222e-05 -6.75511e-05 -0.00078274
0.000557062 0.00140809 1.63517e-05
0.00140809 -0.000836496 2.14156e-07
1.63517e-05 2.14156e-07 -0.00107876
0.00352996 -0.00248465 0.00169917
-0.00248465 0.00231918 0.000326664
0.00169917 0.000326664 -0.00142728
0.0236241 -0.0094419 -5.04793e-05
-0.0094419 0.00970093 8.29579e-05
-5.04793e-05 8.29579e-05 0.00623
3.80422e-05 0.000114289 7.4112e-06
0.000114289 -0.000109148 1.82148e-06
7.4112e-06 1.82148e-06 -0.00020335
0.000843103 0.000119179 -1.79886e-06
0.000119179 0.000357345 -2.9836e-06
-1.79886e-06 -2.9836e-06 0.00027825
0.00182714 0.000280218 2.24598e-06
0.000280218 0.000992011 -8.24949e-07
2.24598e-06 -8.24949e-07 0.000859599
0.00049524 -5.73167e-05 -4.35486e-08
-5.73167e-05 7.91391e-05 -3.12747e-06
-4.35486e-08 -3.12747e-06 -5.91335e-05
0.000401543 6.95387e-05 -6.1193e-07
6.95387e-05 7.77323e-06 -3.76535e-06
-6.1193e-07 -3.76535e-06 -0.000143975
0.000734013 -2.20563e-05 -2.30509e-07
-2.20563e-05 0.000230908 -1.5504e-06
-2.30509e-07 -1.5504e-06 7.00609e-05
0.000880619 8.88836e-05 -3.2216e-06
8.88836e-05 0.000282078 1.08029e-05
-3.2216e-06 1.08029e-05 0.000175041
0.000107065 8.97332e-05 2.56453e-06
8.97332e-05 -0.000223533 7.89191e-06
2.56453e-06 7.89191e-06 -0.000262248
0.000811434 0.000159561 -1.31247e-06
0.000159561 0.000307109 -2.78874e-07
-1.31247e-06 -2.78874e-07 0.000114981
0.00040222 -1.40422e-05 3.42784e-07
-1.40422e-05 -1.243e-06 1.08235e-06
3.42784e-07 1.08235e-06 -0.000134645
0.000719498 5.70494e-05 -8.10707e-07
5.70494e-05 0.000216923 5.03558e-08
-8.10707e-07 5.03558e-08 4.42287e-05
0.000233736 9.55634e-05 -1.0781e-06
9.55634e-05 -0.000101832 -2.39351e-06
-1.0781e-06 -2.39351e-06 -0.000153019
0.00066281 0.000123984 -1.54177e-06
0.000123984 0.000153789 -2.7926e-07
-1.54177e-06 -2.7926e-07 9.29133e-06
0.00215566 0.000257812 -1.44585e-06
0.000257812 0.00113083 -5.93836e-07
-1.44585e-06 -5.93836e-07 0.000928855
0.000209812 0.000105882 -2.27105e-07
0.000105882 -3.2979e-05 -3.95127e-06
-2.27105e-07 -3.95127e-06 -0.00020094
0.000885559 0.000106618 2.87508e-06
0.000106618 0.000336082 2.55163e-07
2.87508e-06 2.55163e-07 0.000157158
0.000251543 -4.22298e-06 3.87413e-07
-4.22298e-06 -9.84005e-05 2.34631e-07
3.87413e-07 2.34631e-07 -0.000263753
0.000333196 -7.27957e-05 -8.33264e-07
-7.27957e-05 -4.3988e-05 9.57697e-07
-8.33264e-07 9.57697e-07 -0.000180162
0.000568613 -2.87493e-05 -8.03205e-07
-2.87493e-05 0.000119857 -1.10203e-06
-8.03205e-07 -1.10203e-06 -4.69253e-05
0.00140246 -2.27109e-05 1.04479e-06
-2.27109e-05 0.000641502 -1.11712e-05
1.04479e-06 -1.11712e-05 0.000478479
0.000728377 -5.1308e-05 -1.37626e-06
-5.1308e-05 0.000264452 -8.40639e-07
-1.37626e-06 -8.40639e-07 9.70907e-05
0.000733119 -7.89072e-05 1.90298e-06
-7.89072e-05 0.000244226 -9.08166e-07
1.90298e-06 -9.08166e-07 7.16747e-05
0.000644992 -0.000128035 -2.03738e-06
-0.000128035 0.000158743 4.14303e-06
-2.03738e-06 4.14303e-06 1.93997e-05
0.00025076 -2.47504e-05 2.62899e-07
-2.47504e-05 -9.68428e-05 9.62103e-07
2.62899e-07 9.62103e-07 -0.000233631
0.000496482 -6.04732e-05 -1.87487e-06
-6.04732e-05 3.47291e-05 4.09586e-06
-1.87487e-06 4.09586e-06 -4.71757e-05
0.000495706 -4.06803e-05 1.97075e-06
-4.06803e-05 4.13716e-05 1.13424e-07
1.97075e-06 1.13424e-07 -4.48608e-05
0.000423222 2.29148e-06 3.10041e-06
2.29148e-06 -2.79586e-05 6.52377e-06
3.10041e-06 6.52377e-06 -5.43978e-05
0.000498873 5.52476e-05 -1.56829e-06
5.52476e-05 3.71655e-05 -3.47735e-06
-1.56829e-06 -3.47735e-06 -4.40553e-05
0.000390502 3.2331e-05 3.67299e-07
3.2331e-05 -5.0101e-05 8.32626e-08
3.67299e-07 8.32626e-08 -7.5993e-05
0.00256528 6.54448e-06 7.58307e-06
6.54448e-06 0.00130437 5.45457e-06
7.58307e-06 5.45457e-06 0.00131646
0.000445454 4.50186e-05 -3.88044e-06
4.50186e-05 -1.88656e-05 -7.6104e-06
-3.88044e-06 -7.6104e-06 -4.60841e-05
0.00171362 -4.09685e-06 -4.78233e-06
-4.09685e-06 0.000763982 1.88241e-07
-4.78233e-06 1.88241e-07 0.00077151
0.000817501 -1.05644e-05 5.31044e-07
-1.05644e-05 0.000189471 -2.42768e-06
5.31044e-07 -2.42768e-06 0.000193747
0.000424345 9.17913e-06 -2.2078e-07
9.17913e-06 -3.17087e-05 -1.63087e-06
-2.2078e-07 -1.63087e-06 -7.5058e-05
0.000520779 -3.96853e-05 1.38682e-07
-3.96853e-05 3.8153e-05 4.99687e-08
1.38682e-07 4.99687e-08 -1.67581e-05
0.000511512 1.17589e-05 1.20427e-06
1.17589e-05 -3.67056e-06 -3.23761e-06
1.20427e-06 -3.23761e-06 -1.57262e-05
0.000481645 -4.15248e-05 -1.38448e-06
-4.15248e-05 6.95344e-06 6.83107e-08
-1.38448e-06 6.83107e-08 -4.80013e-05
0.000793126 2.81182e-05 -1.61376e-07
2.81182e-05 0.000178312 -7.24643e-07
-1.61376e-07 -7.24643e-07 0.000164946
0.00204192 5.49188e-05 5.13026e-06
5.49188e-05 0.000976857 -4.66222e-06
5.13026e-06 -4.66222e-06 0.000989408
0.000458104 3.63041e-05 1.38692e-06
3.63041e-05 -2.60608e-05 3.91293e-06
1.38692e-06 3.91293e-06 -4.76081e-05
0.00240682 8.20731e-05 -5.36309e-06
8.20731e-05 0.00121828 1.21969e-06
-5.36309e-06 1.21969e-06 0.00122444
0.0026489 0.000113185 3.04109e-06
0.000113185 0.00138097 6.28105e-06
3.04109e-06 6.28105e-06 0.00137985
0.00233483 0.000180471 -1.48647e-06
0.000180471 -8.09702e-05 -8.34455e-07
-1.48647e-06 -8.34455e-07 -1.24378e-06
0.00215625 -5.56395e-06 2.73245e-06
-5.56395e-06 -8.90487e-05 -6.44026e-07
2.73245e-06 -6.44026e-07 -1.08538e-05
0.00212985 7.10076e-05 -8.20724e-06
7.10076e-05 -0.000206236 4.0149e-06
-8.20724e-06 4.0149e-06 -0.000125076
0.00258415 0.000699374 0.000100469
0.000699374 -0.00165124 2.22166e-05
0.000100469 2.22166e-05 -0.000779879
0.00243928 -2.93133e-05 1.96564e-07
-2.93133e-05 -8.95105e-05 -2.95577e-06
1.96564e-07 -2.95577e-06 3.40145e-05
0.00226394 7.06553e-05 -8.5572e-07
7.06553e-05 6.18351e-05 -9.93483e-06
-8.5572e-07 -9.93483e-06 0.000224851
0.00304233 -4.66968e-05 -2.48942e-05
-4.66968e-05 0.00064287 -2.62486e-06
-2.48942e-05 -2.62486e-06 0.000690359
0.00331817 0.000217157 -2.46881e-05
0.000217157 -0.00204509 -4.40305e-05
-2.46881e-05 -4.40305e-05 -0.000804345
0.00245791 0.000238086 0.000137491
0.000238086 -0.00100877 5.05735e-05
0.000137491 5.05735e-05 -0.000436192
0.000588438 9.02927e-05 1.81599e-07
9.02927e-05 0.000119561 -8.27916e-07
1.81599e-07 -8.27916e-07 2.13099e-05
0.000576452 -3.739e-06 2.61254e-07
-3.739e-06 0.000123477 -1.26437e-07
2.61254e-07 -1.26437e-07 1.60047e-05
0.000328827 -9.26601e-05 -6.17696e-06
-9.26601e-05 -2.24449e-05 2.22307e-06
-6.17696e-06 2.22307e-06 -0.000140895
0.000378297 -4.49701e-05 -3.77488e-06
-4.49701e-05 1.4195e-05 2.22138e-06
-3.77488e-06 2.22138e-06 -0.00010702
0.00235665 -0.000199213 -3.52764e-06
-0.000199213 -0.000174548 -1.43716e-06
-3.52764e-06 -1.43716e-06 -2.76588e-05
0.00232678 -0.000494931 2.66665e-07
-0.000494931 -0.000178344 -2.03235e-06
2.66665e-07 -2.03235e-06 -3.96617e-05
0.00235351 -0.000716857 -3.24029e-06
-0.000716857 -2.98938e-06 2.12314e-06
-3.24029e-06 2.12314e-06 -3.92376e-05
0.0038062 -0.000905468 2.3628e-05
-0.000905468 0.00175423 1.50917e-05
2.3628e-05 1.50917e-05 0.00126481
0.000267862 -0.000828352 -2.05313e-06
-0.000828352 -0.000601856 3.77107e-06
-2.05313e-06 3.77107e-06 -0.00110373
0.00237937 -0.000951469 -1.39044e-06
-0.000951469 0.00027791 -2.55376e-07
-1.39044e-06 -2.55376e-07 8.39483e-06
0.000799018 -0.000731496 2.87059e-05
-0.000731496 2.17817e-06 -2.56599e-05
2.87059e-05 -2.56599e-05 -0.000497846
0.00359207 -0.000358744 1.30983e-05
-0.000358744 0.00175195 -8.5418e-06
1.30983e-05 -8.5418e-06 0.00134171
-0.000265651 -2.28955e-05 -7.5841e-06
-2.28955e-05 -0.00053043 4.86312e-06
-7.5841e-06 4.86312e-06 -0.000752083
0.000664677 -6.63853e-05 4.00928e-06
-6.63853e-05 0.000177093 -1.14324e-06
4.00928e-06 -1.14324e-06 7.38983e-05
0.000573807 -0.000138634 -5.4367e-06
-0.000138634 0.000189293 -1.32578e-05
-5.4367e-06 -1.32578e-05 -9.09475e-05
0.000456054 -2.40486e-05 6.01722e-06
-2.40486e-05 5.33001e-05 -2.2084e-06
6.01722e-06 -2.2084e-06 -0.000107958
0.000562261 3.49583e-07 5.14671e-07
3.49583e-07 0.000130079 1.46445e-06
5.14671e-07 1.46445e-06 1.02338e-05
0.000734789 -8.61234e-05 -8.53729e-06
-8.61234e-05 0.000167779 -1.29304e-06
-8.53729e-06 -1.29304e-06 7.078e-05
0.00266243 -0.000321206 2.13111e-06
-0.000321206 3.70114e-05 1.50825e-06
2.13111e-06 1.50825e-06 0.000194103
0.000464021 -2.8808e-05 -8.26002e-07
-2.8808e-05 6.72433e-05 2.338e-06
-8.26002e-07 2.338e-06 -6.54779e-05
0.000813923 -5.43486e-05 7.39508e-06
-5.43486e-05 0.000201626 -6.08003e-07
7.39508e-06 -6.08003e-07 8.15323e-05
-0.000969159 -4.74202e-05 5.8132e-06
-4.74202e-05 -0.00081931 -8.67307e-07
5.8132e-06 -8.67307e-07 -0.000882276
0.00209427 -0.000556351 8.00021e-07
-0.000556351 -0.000341526 -1.27838e-06
8.00021e-07 -1.27838e-06 -0.000107298
0.00232662 -0.000867992 2.23276e-06
-0.000867992 0.000100358 -1.3808e-06
2.23276e-06 -1.3808e-06 -8.18736e-05
0.00200243 -0.000921002 -5.74343e-06
-0.000921002 0.000643993 9.78464e-07
-5.74343e-06 9.78464e-07 0.000140946
0.00271585 -0.00109532 -6.1796e-06
-0.00109532 0.000614045 1.60538e-06
-6.1796e-06 1.60538e-06 0.000260698
0.0015045 -0.000171187 5.1004e-06
-0.000171187 0.000719081 -3.15711e-06
5.1004e-06 -3.15711e-06 0.000491676
-4.60152e-05 -4.14794e-05 7.61505e-06
-4.14794e-05 -0.000258958 9.41552e-06
7.61505e-06 9.41552e-06 -0.000511486
0.00181658 -0.00110823 3.622e-07
-0.00110823 0.000981212 -2.79929e-06
3.622e-07 -2.79929e-06 0.000210434
0.001257 -0.000433095 -9.15639e-06
-0.000433095 0.000582471 1.2938e-07
-9.15639e-06 1.2938e-07 6.52285e-05
0.00350803 -0.000473275 -4.7254e-05
-0.000473275 0.000461328 8.55098e-06
-4.7254e-05 8.55098e-06 0.000735664
0.00274267 -0.000725416 -4.16002e-05
-0.000725416 0.0002523 1.25986e-05
-4.16002e-05 1.25986e-05 0.000315375
0.00269371 -0.00101388 3.63592e-06
-0.00101388 0.000507206 -1.32038e-05
3.63592e-06 -1.32038e-05 0.000160597
0.00317627 -0.001115 1.0136e-05
-0.001115 0.00109688 8.64862e-06
1.0136e-05 8.64862e-06 0.000721552
5.36248e-06 -7.73904e-05 -2.57153e-06
-7.73904e-05 -0.000131838 -7.09302e-06
-2.57153e-06 -7.09302e-06 -0.000268762
0.000410292 -0.000144732 -1.42858e-05
-0.000144732 4.67899e-05 -2.72933e-07
-1.42858e-05 -2.72933e-07 -0.00016133
6.42355e-05 -0.000192313 -6.6773e-06
-0.000192313 0.000115264 5.3636e-05
-6.6773e-06 5.3636e-05 -0.000227193
-4.87327e-05 -0.000982003 -2.88257e-06
-0.000982003 0.000605726 -2.71921e-05
-2.88257e-06 -2.71921e-05 -0.000537964
0.00303476 -0.000454504 6.30394e-05
-0.000454504 -0.00554669 -2.4753e-05
6.30394e-05 -2.4753e-05 -0.0055966
0.00246364 0.000326075 2.42171e-06
0.000326075 0.00133722 -3.53332e-06
2.42171e-06 -3.53332e-06 0.00109072
0.00138597 0.000394056 -1.94196e-06
0.000394056 0.000539608 1.93249e-07
-1.94196e-06 1.93249e-07 0.000244423
0.00190542 0.000363401 5.43204e-05
0.000363401 -0.000348576 1.59682e-05
5.43204e-05 1.59682e-05 -0.000118813
0.00253177 0.00082487 2.4642e-05
0.00082487 0.000315244 1.10302e-05
2.4642e-05 1.10302e-05 0.000118605
0.00230688 0.00087464 9.65495e-06
0.00087464 0.000618018 1.2171e-05
9.65495e-06 1.2171e-05 0.000145097
0.00134654 0.000620801 8.45705e-06
0.000620801 0.000304551 8.55219e-06
8.45705e-06 8.55219e-06 -0.000148051
0.00550896 0.00157934 0.000112494
0.00157934 0.000165024 3.31093e-05
0.000112494 3.31093e-05 0.000219049
0.00122859 0.000326579 5.11919e-06
0.000326579 0.000665212 4.58698e-07
5.11919e-06 4.58698e-07 0.000401462
0.0026452 0.000782969 -2.55667e-05
0.000782969 0.000175981 9.12525e-07
-2.55667e-05 9.12525e-07 0.000181097
0.00091622 0.000465652 -5.74045e-06
0.000465652 0.000120559 4.2441e-06
-5.74045e-06 4.2441e-06 -0.000232711
0.0015022 0.000709767 5.32249e-07
0.000709767 0.000341008 -7.0282e-06
5.32249e-07 -7.0282e-06 -0.000118401
0.00236675 0.000970846 -1.13596e-05
0.000970846 0.000408316 -2.92832e-07
-1.13596e-05 -2.92832e-07 8.58498e-05
0.00495604 -0.000641501 -0.000172453
-0.000641501 -0.00507582 -9.79705e-05
-0.000172453 -9.79705e-05 -0.00582049
0.00690182 0.00197128 -0.000153836
0.00197128 -0.000593856 -6.30813e-05
-0.000153836 -6.30813e-05 0.000702871
0.001385 0.00142151 -2.45131e-07
0.00142151 -0.000379499 4.46173e-06
-2.45131e-07 4.46173e-06 -0.000740088
0.00175826 -0.00227426 0.00059955
-0.00227426 0.00316471 0.000224948
0.00059955 0.000224948 2.17234e-05
0.0158589 -0.00970981 -0.00051897
-0.00970981 0.00800233 -0.000467557
-0.00051897 -0.000467557 0.00433652
0.000552175 0.000257265 -1.39173e-05
0.000257265 0.000116567 -2.70352e-06
-1.39173e-05 -2.70352e-06 -0.000112191
0.00168124 0.000535939 0.000855536
0.000535939 0.00444011 7.44269e-05
0.000855536 7.44269e-05 0.00238382
0.00447542 -0.00363895 -0.000174315
-0.00363895 0.006349 -0.00022696
-0.000174315 -0.00022696 0.000580538
0.00339191 0.0012757 -6.34873e-05
0.0012757 0.000719068 -1.7891e-05
-6.34873e-05 -1.7891e-05 0.000498788
0.000607572 0.000369332 -2.88522e-05
0.000369332 -7.29304e-05 -6.49141e-06
-2.88522e-05 -6.49141e-06 -0.000381981
0.000955457 0.000725488 -3.67431e-05
0.000725488 8.9204e-05 -3.06855e-05
-3.67431e-05 -3.06855e-05 -0.000300621
-0.000531139 0.00123826 6.1111e-05
0.00123826 -0.00107921 9.98808e-05
6.1111e-05 9.98808e-05 -0.00144707
0.0126546 0.00269789 7.14238e-05
0.00269789 0.00118606 -1.306e-05
7.14238e-05 -1.306e-05 0.000574293
0.00520974 0.00291356 -5.93145e-05
0.00291356 -0.000343167 -5.38634e-05
-5.93145e-05 -5.38634e-05 0.000561491
0.01728 -0.00693088 0.001077
-0.00693088 0.00581296 0.000527248
0.001077 0.000527248 0.00139004
0.014017 -0.00313216 -0.000125704
-0.00313216 0.0044298 0.000657047
-0.000125704 0.000657047 0.00236729
0.000366695 8.38941e-05 2.98039e-06
8.38941e-05 0.000105186 -5.56853e-06
2.98039e-06 -5.56853e-06 1.01595e-05
0.000231387 0.000141737 7.91275e-06
0.000141737 1.93076e-05 1.52716e-06
7.91275e-06 1.52716e-06 -9.84334e-05
0.00188366 0.000312722 3.02591e-06
0.000312722 0.001046 -2.89555e-06
3.02591e-06 -2.89555e-06 0.000850029
0.000585843 4.58283e-06 1.54962e-06
4.58283e-06 0.000141119 -6.6353e-09
1.54962e-06 -6.6353e-09 -9.63753e-06
0.000592174 7.12386e-05 -1.62825e-07
7.12386e-05 0.000127607 -2.57974e-06
-1.62825e-07 -2.57974e-06 -3.72909e-05
-8.97028e-05 3.70329e-05 -1.478e-06
3.70329e-05 -0.00028077 8.14902e-07
-1.478e-06 8.14902e-07 -0.000446321
0.00084596 0.00013108 -7.64143e-06
0.00013108 0.000292314 2.18074e-06
-7.64143e-06 2.18074e-06 0.000141905
-0.0003274 7.11138e-05 -3.14349e-06
7.11138e-05 -0.000470896 1.40772e-07
-3.14349e-06 1.40772e-07 -0.000519771
0.000332869 -1.21902e-05 -7.48524e-08
-1.21902e-05 -3.90128e-05 7.38861e-07
-7.48524e-08 7.38861e-07 -0.000179281
0.0013632 0.000159807 2.23466e-06
0.000159807 0.000611086 4.33792e-07
2.23466e-06 4.33792e-07 0.000428611
0.000534433 6.18878e-05 -2.04655e-07
6.18878e-05 0.000127617 -1.10843e-07
-2.04655e-07 -1.10843e-07 -5.90166e-05
0.00079642 4.16231e-05 1.41759e-06
4.16231e-05 0.000278644 -3.72788e-07
1.41759e-06 -3.72788e-07 9.01683e-05
0.00020886 0.000102022 -6.73307e-07
0.000102022 -3.10662e-05 -3.23487e-06
-6.73307e-07 -3.23487e-06 -0.000198043
0.00151064 0.000147558 -2.36783e-06
0.000147558 0.00073402 -3.05129e-06
-2.36783e-06 -3.05129e-06 0.000558391
-0.000371621 6.47186e-05 -6.95638e-06
6.47186e-05 -0.000232465 -4.9203e-06
-6.95638e-06 -4.9203e-06 -0.000485854
0.000343956 -7.06511e-05 -3.98427e-08
-7.06511e-05 -4.17446e-06 8.55353e-07
-3.98427e-08 8.55353e-07 -0.000186491
0.000752705 -8.51159e-05 -2.08307e-06
-8.51159e-05 0.000258047 -9.50859e-07
-2.08307e-06 -9.50859e-07 7.20948e-05
0.000820613 -5.82424e-05 -3.61613e-07
-5.82424e-05 0.000299903 -7.61626e-07
-3.61613e-07 -7.61626e-07 0.000116407
0.000656938 -3.75696e-05 -3.92832e-06
-3.75696e-05 0.000157774 5.82245e-07
-3.92832e-06 5.82245e-07 1.4864e-05
0.00108875 1.2902e-05 -7.42861e-06
1.2902e-05 0.000507583 -5.70352e-06
-7.42861e-06 -5.70352e-06 0.000299255
0.000815664 -7.92329e-05 2.56947e-06
-7.92329e-05 0.000262296 -1.13389e-05
2.56947e-06 -1.13389e-05 0.000126888
-0.00136766 2.99293e-06 -4.46281e-06
2.99293e-06 -0.00107339 -8.52258e-06
-4.46281e-06 -8.52258e-06 -0.00119448
0.000161198 -4.11303e-05 2.03371e-06
-4.11303e-05 -7.99046e-05 -2.06261e-06
2.03371e-06 -2.06261e-06 -0.000273432
0.000263643 -7.69644e-05 1.15588e-06
-7.69644e-05 -6.78031e-05 4.1599e-07
1.15588e-06 4.1599e-07 -0.000208889
0.000790488 -0.00012152 -1.06268e-06
-0.00012152 0.000286246 3.38923e-07
-1.06268e-06 3.38923e-07 0.000125504
0.000513338 -8.83612e-05 -1.27383e-06
-8.83612e-05 5.77681e-05 2.9222e-06
-1.27383e-06 2.9222e-06 -6.52384e-05
0.000446038 -9.44984e-05 3.43389e-06
-9.44984e-05 2.74406e-05 2.48261e-07
3.43389e-06 2.48261e-07 -0.000118932
0.00054394 -0.000118964 -4.83753e-09
-0.000118964 9.23232e-05 1.56562e-07
-4.83753e-09 1.56562e-07 -4.61365e-05
0.000530764 -5.98276e-05 -2.24693e-06
-5.98276e-05 5.31376e-05 5.1951e-06
-2.24693e-06 5.1951e-06 -2.99693e-05
0.000387402 -9.44088e-06 8.45036e-07
-9.44088e-06 7.70374e-06 -1.16701e-06
8.45036e-07 -1.16701e-06 -0.000141974
0.000482782 3.33342e-07 2.38509e-06
3.33342e-07 3.37414e-05 1.53196e-07
2.38509e-06 1.53196e-07 -5.31711e-05
0.00144868 -3.55647e-05 -1.05015e-05
-3.55647e-05 0.000610846 7.0173e-06
-1.05015e-05 7.0173e-06 0.000588539
0.000464005 7.00186e-05 -2.03066e-06
7.00186e-05 2.13677e-05 -3.28565e-06
-2.03066e-06 -3.28565e-06 -6.41772e-05
0.000860094 -1.91104e-05 -4.24559e-06
-1.91104e-05 0.00024677 7.30369e-07
-4.24559e-06 7.30369e-07 0.000222381
0.00079037 3.43657e-06 -2.81998e-06
3.43657e-06 0.000186309 4.79503e-06
-2.81998e-06 4.79503e-06 0.000190567
0.000372427 -2.31413e-05 3.95317e-06
-2.31413e-05 -6.21474e-05 -5.0917e-06
3.95317e-06 -5.0917e-06 -8.72475e-05
0.002587 4.32139e-06 7.66693e-06
4.32139e-06 0.00131847 -7.22637e-09
7.66693e-06 -7.22637e-09 0.00133049
0.000873813 3.825e-06 -1.03075e-05
3.825e-06 0.000236295 -5.48578e-06
-1.03075e-05 -5.48578e-06 0.000239566
0.000502888 6.8974e-05 2.49825e-06
6.8974e-05 6.66162e-05 8.75683e-07
2.49825e-06 8.75683e-07 -3.73309e-05
0.000448641 5.54679e-05 -2.37318e-06
5.54679e-05 -4.52985e-06 -2.30064e-06
-2.37318e-06 -2.30064e-06 -5.39034e-05
0.00046834 -1.86646e-06 1.58395e-06
-1.86646e-06 8.63779e-06 1.69617e-07
1.58395e-06 1.69617e-07 -4.26321e-05
0.000470081 9.60427e-06 1.1352e-06
9.60427e-06 -2.89872e-05 -3.0597e-06
1.1352e-06 -3.0597e-06 -3.95447e-05
0.000552573 -6.61069e-05 -1.99932e-06
-6.61069e-05 6.71211e-05 1.93934e-06
-1.99932e-06 1.93934e-06 7.20378e-06
0.000466396 1.2992e-05 1.29493e-07
1.2992e-05 -3.24338e-05 -7.20262e-07
1.29493e-07 -7.20262e-07 -4.43137e-05
0.00202737 3.82872e-05 3.41121e-06
3.82872e-05 0.000963042 -4.70863e-06
3.41121e-06 -4.70863e-06 0.000978091
0.00110651 3.67387e-05 -1.57835e-08
3.67387e-05 0.000378114 1.59252e-06
-1.57835e-08 1.59252e-06 0.000365821
0.00148486 4.7467e-05 -4.52715e-07
4.7467e-05 0.000625206 1.41738e-06
-4.52715e-07 1.41738e-06 0.000632738
0.000898629 5.16566e-05 -4.78427e-06
5.16566e-05 0.000260614 8.46291e-06
-4.78427e-06 8.46291e-06 0.000259775
0.000973895 0.000494704 7.56125e-05
0.000494704 -0.00241245 1.5358e-05
7.56125e-05 1.5358e-05 -0.00151085
0.00240862 -5.13797e-05 -3.43504e-06
-5.13797e-05 -7.3888e-05 6.25206e-06
-3.43504e-06 6.25206e-06 4.07639e-05
0.00222215 7.13734e-05 3.19781e-05
7.13734e-05 6.15832e-05 -1.25894e-05
3.19781e-05 -1.25894e-05 0.000194876
0.00288826 0.000445506 -6.03515e-05
0.000445506 -0.00203389 -3.86894e-05
-6.03515e-05 -3.86894e-05 -0.000476351
0.00276172 0.000119457 5.20072e-05
0.000119457 -0.00063998 -1.67497e-06
5.20072e-05 -1.67497e-06 -0.000145974
0.00270819 -5.22287e-05 2.02385e-06
-5.22287e-05 0.000361946 -1.01783e-05
2.02385e-06 -1.01783e-05 0.000444053
0.00496712 -0.000406233 -6.19725e-05
-0.000406233 0.00108248 -2.21674e-05
-6.19725e-05 -2.21674e-05 0.00131153
0.00339593 -0.000334659 2.96095e-05
-0.000334659 -0.000598814 -2.89536e-06
2.96095e-05 -2.89536e-06 0.000245007
0.0173627 -0.000925012 6.65256e-05
-0.000925012 0.00292257 -3.43045e-05
6.65256e-05 -3.43045e-05 0.00201435
0.0154485 0.00623162 0.00160266
0.00623162 0.00604137 -0.000466918
0.00160266 -0.000466918 0.00255861
0.0211611 0.00719584 6.734e-05
0.00719584 0.0136132 1.8893e-05
6.734e-05 1.8893e-05 0.00995376
0.00014114 -0.000100171 2.77186e-07
-0.000100171 -0.000141479 -4.25853e-07
2.77186e-07 -4.25853e-07 -0.000255271
0.000535054 -5.69483e-06 1.66103e-06
-5.69483e-06 8.4459e-05 -6.06731e-08
1.66103e-06 -6.06731e-08 -1.32028e-05
0.000614092 -8.9602e-05 -6.60811e-07
-8.9602e-05 0.000153462 3.17008e-06
-6.60811e-07 3.17008e-06 3.95005e-05
0.000534506 -3.43285e-05 1.05985e-06
-3.43285e-05 9.53307e-05 3.28814e-07
1.05985e-06 3.28814e-07 -2.19285e-05
0.000915857 0.000115706 -4.96531e-06
0.000115706 0.000389034 1.16255e-06
-4.96531e-06 1.16255e-06 0.000250902
0.000509531 0.000136481 5.76565e-07
0.000136481 5.96969e-05 7.5446e-06
5.76565e-07 7.5446e-06 -6.56527e-05
0.000964613 9.70406e-07 2.39692e-06
9.70406e-07 0.000384238 4.20064e-06
2.39692e-06 4.20064e-06 0.000241098
0.000521601 -2.65857e-05 -1.52434e-06
-2.65857e-05 8.53835e-05 1.30535e-06
-1.52434e-06 1.30535e-06 -3.29178e-05
0.00263009 -0.000306226 1.23266e-05
-0.000306226 1.06036e-05 -3.27371e-06
1.23266e-05 -3.27371e-06 0.000199152
0.00214408 -0.000582342 1.44595e-05
-0.000582342 -0.000345242 -6.43462e-06
1.44595e-05 -6.43462e-06 -0.000131113
0.00238853 -0.000875759 -1.07742e-07
-0.000875759 0.000127206 5.62291e-06
-1.07742e-07 5.62291e-06 -4.8892e-05
0.00243443 -0.000944432 1.70802e-05
-0.000944432 0.000843504 9.06681e-06
1.70802e-05 9.06681e-06 0.000365589
0.00210701 -0.00105027 -2.17789e-05
-0.00105027 0.000278699 5.68479e-06
-2.17789e-05 5.68479e-06 -7.98434e-05
0.00176663 -0.00116283 3.92901e-05
-0.00116283 0.00106125 -1.52989e-05
3.92901e-05 -1.52989e-05 0.000189113
0.00471329 -0.000791106 6.51341e-06
-0.000791106 0.00237536 4.04439e-06
6.51341e-06 4.04439e-06 0.00195295
0.00125475 -0.000276733 1.11298e-05
-0.000276733 0.000620866 -5.04466e-05
1.11298e-05 -5.04466e-05 0.000277543
0.000625374 -0.000108811 2.71949e-06
-0.000108811 6.47626e-05 -8.26763e-07
2.71949e-06 -8.26763e-07 -3.98142e-05
0.000941994 -8.32251e-05 1.14154e-05
-8.32251e-05 0.00033284 -2.21454e-05
1.14154e-05 -2.21454e-05 0.000121443
0.00101213 -5.23233e-05 3.84457e-06
-5.23233e-05 0.000401516 1.154e-06
3.84457e-06 1.154e-06 0.000258138
0.000834478 1.60067e-05 9.00556e-06
1.60067e-05 0.000324456 -7.67516e-06
9.00556e-06 -7.67516e-06 0.000294288
0.00246002 -0.000419038 -6.08497e-07
-0.000419038 -0.000103135 2.95765e-06
-6.08497e-07 2.95765e-06 0.000206316
0.000462892 -8.58805e-05 -4.06681e-06
-8.58805e-05 0.000136362 -7.33725e-07
-4.06681e-06 -7.33725e-07 -4.82007e-06
0.0012453 -0.000191062 -8.6497e-06
-0.000191062 0.00053699 4.26832e-06
-8.6497e-06 4.26832e-06 0.000361281
0.00172459 -0.000660408 8.51459e-06
-0.000660408 -0.000343908 -3.87627e-06
8.51459e-06 -3.87627e-06 -0.000221154
0.00188288 -0.000887824 1.42998e-06
-0.000887824 5.95278e-05 9.38985e-07
1.42998e-06 9.38985e-07 -0.000205128
0.000963423 -0.00084376 -2.90493e-06
-0.00084376 -0.000173835 -6.57275e-06
-2.90493e-06 -6.57275e-06 -0.000476332
0.00178571 -0.000379245 9.22885e-07
-0.000379245 0.00104714 -2.63742e-05
9.22885e-07 -2.63742e-05 0.000638672
0.00149229 -0.000680737 8.01874e-06
-0.000680737 0.00124099 3.69507e-06
8.01874e-06 3.69507e-06 0.000358431
0.00548979 -0.000903506 -5.69801e-05
-0.000903506 0.00138612 2.67109e-05
-5.69801e-05 2.67109e-05 0.00159893
0.00413728 -0.00102623 -4.763e-05
-0.00102623 0.00131475 1.07552e-05
-4.763e-05 1.07552e-05 0.00110178
0.00216599 -0.00102996 1.33673e-05
-0.00102996 0.000327757 -4.83706e-06
1.33673e-05 -4.83706e-06 5.34284e-05
-0.00105256 -0.000454623 -1.72978e-06
-0.000454623 -0.00101346 1.35419e-05
-1.72978e-06 1.35419e-05 -0.00113119
0.000387521 -0.000151859 8.80804e-07
-0.000151859 0.000126018 8.52391e-06
8.80804e-07 8.52391e-06 -0.000115032
0.000364927 -0.000172018 4.18384e-06
-0.000172018 0.000183621 8.56088e-07
4.18384e-06 8.56088e-07 -0.000103092
0.00213433 -0.000254517 -9.7294e-06
-0.000254517 0.00156284 -2.46722e-05
-9.7294e-06 -2.46722e-05 0.000859142
-0.00701738 -0.000432399 0.000626081
-0.000432399 -0.00409547 -3.80357e-05
0.000626081 -3.80357e-05 -0.00412373
0.0118938 -0.000382072 7.3714e-05
-0.000382072 0.00085843 2.75677e-05
7.3714e-05 2.75677e-05 0.0011353
0.00287265 0.000409205 1.13884e-05
0.000409205 0.00159185 -1.10656e-05
1.13884e-05 -1.10656e-05 0.00136065
0.00164854 0.000556131 -3.0173e-06
0.000556131 0.000606463 6.80888e-06
-3.0173e-06 6.80888e-06 0.000222671
0.00293396 0.000745924 0.00010496
0.000745924 0.000349783 4.53443e-05
0.00010496 4.53443e-05 0.000377993
0.0030903 0.00103864 2.71085e-05
0.00103864 0.000799895 1.1918e-05
2.71085e-05 1.1918e-05 0.000456701
0.00297933 0.000907567 2.00179e-05
0.000907567 0.00118443 6.99341e-06
2.00179e-05 6.99341e-06 0.000686801
0.0164043 0.0007653 9.35757e-05
0.0007653 0.00282908 -4.40204e-05
9.35757e-05 -4.40204e-05 0.00222834
0.00854248 0.00251035 -0.000233965
0.00251035 -0.000864658 -3.39292e-05
-0.000233965 -3.39292e-05 0.000771015
0.00163887 0.00135808 1.01855e-05
0.00135808 -6.26313e-05 -3.1454e-05
1.01855e-05 -3.1454e-05 -0.000541582
0.0140814 -0.00478983 -0.000544062
-0.00478983 0.00605615 7.0227e-06
-0.000544062 7.0227e-06 0.00285031
0.00626619 -0.0102547 -0.00261032
-0.0102547 0.00619567 -0.00158807
-0.00261032 -0.00158807 0.00205973
0.00108091 0.00034876 2.66371e-06
0.00034876 0.000506236 -2.02528e-06
2.66371e-06 -2.02528e-06 0.000238488
-0.0013417 -0.00282589 0.000545811
-0.00282589 -0.00254353 8.57941e-05
0.000545811 8.57941e-05 -0.0048
-0.00191154 -0.00280521 -0.000579813
-0.00280521 0.00633515 -0.000206427
-0.000579813 -0.000206427 0.000476191
0.00353507 0.0011918 -1.65335e-05
0.0011918 0.000752116 2.21131e-06
-1.65335e-05 2.21131e-06 0.000591958
0.000821064 0.000459974 -9.38838e-06
0.000459974 0.000112622 8.41906e-06
-9.38838e-06 8.41906e-06 -0.00024868
0.00145386 0.000847793 5.98748e-06
0.000847793 0.000355577 1.8736e-06
5.98748e-06 1.8736e-06 -8.20543e-05
0.00112584 0.00125782 5.52964e-05
0.00125782 7.61453e-05 4.01624e-05
5.52964e-05 4.01624e-05 -0.000236353
0.0142899 0.00292962 -0.000157232
0.00292962 0.000886906 -9.67344e-05
-0.000157232 -9.67344e-05 -0.000718081
0.0041968 0.00311389 -3.01335e-05
0.00311389 -0.000698774 -4.04011e-05
-3.01335e-05 -4.04011e-05 0.000417153
0.0183736 -0.00549806 0.000613787
-0.00549806 0.0076207 -1.61896e-05
0.000613787 -1.61896e-05 0.00305392
0.017535 -0.00460718 0.000113995
-0.00460718 0.00380244 0.00076284
0.000113995 0.00076284 0.0011736
0.00204208 0.000415857 -2.05352e-05
0.000415857 0.00104036 -1.59203e-05
-2.05352e-05 -1.59203e-05 0.000805258
-0.0103089 0.0013129 -0.00014094
0.0013129 0.00407967 -0.000147013
-0.00014094 -0.000147013 -0.00295178
0.00537448 0.0010208 -0.000411565
0.0010208 0.00434761 -0.000523679
-0.000411565 -0.000523679 -0.000567063
0.00264061 0.000886823 -3.2913e-05
0.000886823 0.000655719 -7.71359e-06
-3.2913e-05 -7.71359e-06 0.000594012
0.00262521 0.000884121 -7.81481e-05
0.000884121 0.00113272 -2.96675e-05
-7.81481e-05 -2.96675e-05 0.000722615
0.000989726 0.000904561 -9.92022e-05
0.000904561 0.000813862 -2.68229e-05
-9.92022e-05 -2.68229e-05 8.94003e-05
-0.00267409 0.00192774 -7.9984e-06
0.00192774 -0.00117581 -3.52604e-05
-7.9984e-06 -3.52604e-05 -0.00137526
0.00144162 0.00364325 0.000425213
0.00364325 -0.00200663 0.000145772
0.000425213 0.000145772 -0.00408032
0.019083 -0.00696235 0.000153379
-0.00696235 0.010257 0.000753958
0.000153379 0.000753958 0.00506729
0.00906691 -0.000671272 -0.0001908
-0.000671272 -0.00200181 -0.000162732
-0.0001908 -0.000162732 -0.00108557
-0.000653537 0.000136356 1.68604e-06
0.000136356 -0.000476036 -5.58854e-06
1.68604e-06 -5.58854e-06 -0.00062234
0.00175154 0.00032325 1.07626e-05
0.00032325 0.000949656 2.52867e-06
1.07626e-05 2.52867e-06 0.000753095
-0.000598062 8.14906e-05 -2.46414e-06
8.14906e-05 -0.000399303 -1.91287e-06
-2.46414e-06 -1.91287e-06 -0.000571282
0.000341092 5.25026e-05 2.05953e-06
5.25026e-05 -3.52582e-05 1.02999e-06
2.05953e-06 1.02999e-06 -0.000175322
0.00103862 9.20316e-05 -2.00408e-07
9.20316e-05 0.000439755 -1.75095e-06
-2.00408e-07 -1.75095e-06 0.000245347
0.000562695 2.34946e-05 -1.99365e-06
2.34946e-05 0.000151276 1.51149e-06
-1.99365e-06 1.51149e-06 -4.50636e-05
0.00044382 0.000103289 5.78857e-06
0.000103289 5.18951e-05 6.05527e-06
5.78857e-06 6.05527e-06 -0.000134162
-0.000615953 4.52521e-05 -4.05215e-06
4.52521e-05 -0.00051971 9.92761e-07
-4.05215e-06 9.92761e-07 -0.000679595
0.000778201 4.21278e-05 3.07364e-07
4.21278e-05 0.000277068 -8.03544e-07
3.07364e-07 -8.03544e-07 8.91987e-05
0.000718904 9.37965e-05 7.11379e-07
9.37965e-05 0.000233619 -1.38804e-07
7.11379e-07 -1.38804e-07 6.58964e-05
0.000839159 -4.06606e-05 -1.25382e-06
-4.06606e-05 0.000316874 2.17368e-06
-1.25382e-06 2.17368e-06 0.000121656
-0.000992951 3.13192e-05 2.31231e-06
3.13192e-05 -0.00059924 5.37935e-07
2.31231e-06 5.37935e-07 -0.000844077
0.000298883 6.00074e-05 -3.27538e-06
6.00074e-05 0.000372214 5.99678e-06
-3.27538e-06 5.99678e-06 -2.91838e-06
0.000634583 -2.70643e-05 -1.2597e-06
-2.70643e-05 0.000279152 -7.65836e-06
-1.2597e-06 -7.65836e-06 6.9517e-05
0.00138753 -1.19585e-05 -1.67507e-06
-1.19585e-05 0.000703909 1.7639e-06
-1.67507e-06 1.7639e-06 0.00047528
0.000798783 -8.13106e-05 -4.04949e-07
-8.13106e-05 0.00028753 -1.56004e-06
-4.04949e-07 -1.56004e-06 0.000100102
0.000231868 -9.74284e-05 4.30911e-06
-9.74284e-05 -0.000115973 9.84902e-06
4.30911e-06 9.84902e-06 -0.000249326
0.000668413 -8.57379e-05 4.92499e-07
-8.57379e-05 0.000220885 -1.02266e-06
4.92499e-07 -1.02266e-06 2.81996e-05
0.000763197 -8.97258e-05 -2.01128e-06
-8.97258e-05 0.000217968 -3.01513e-07
-2.01128e-06 -3.01513e-07 8.35001e-05
-0.000289501 -6.6465e-05 1.9765e-06
-6.6465e-05 -0.000395263 4.92829e-06
1.9765e-06 4.92829e-06 -0.000510333
-5.03263e-05 -5.79837e-05 -3.57655e-07
-5.79837e-05 -0.000223224 -3.6093e-06
-3.57655e-07 -3.6093e-06 -0.000384251
-5.05159e-05 -2.79921e-05 -8.18911e-06
-2.79921e-05 -0.000163902 -4.35222e-06
-8.18911e-06 -4.35222e-06 -0.000345107
-3.52784e-05 -8.98555e-05 2.79258e-06
-8.98555e-05 -0.000206312 -6.96038e-06
2.79258e-06 -6.96038e-06 -0.000336827
0.0010102 -0.000119578 1.16051e-05
-0.000119578 0.00030887 -1.68385e-05
1.16051e-05 -1.68385e-05 0.000205248
0.00115068 -0.000262435 -1.22145e-06
-0.000262435 0.000338141 4.01899e-06
-1.22145e-06 4.01899e-06 0.00015484
-8.18933e-05 -5.73851e-05 -7.4895e-06
-5.73851e-05 -0.000240985 -2.88379e-06
-7.4895e-06 -2.88379e-06 -0.00042818
0.000631165 -5.54866e-05 1.80628e-06
-5.54866e-05 0.000198111 -9.25819e-07
1.80628e-06 -9.25819e-07 9.61643e-06
-0.000197675 -3.28341e-05 2.18248e-06
-3.28341e-05 -0.000331437 -3.6447e-07
2.18248e-06 -3.6447e-07 -0.000513322
0.000665806 -0.000123999 -5.43138e-07
-0.000123999 0.000209025 -3.59182e-07
-5.43138e-07 -3.59182e-07 4.54203e-05
0.000450449 -2.95935e-05 6.84013e-07
-2.95935e-05 2.16229e-05 1.27293e-06
6.84013e-07 1.27293e-06 -0.000105474
0.000755165 -0.000122318 -5.35898e-07
-0.000122318 0.000251043 4.32611e-07
-5.35898e-07 4.32611e-07 9.84058e-05
0.000627672 -8.66765e-05 -6.45465e-07
-8.66765e-05 0.000145439 1.84443e-07
-6.45465e-07 1.84443e-07 1.19238e-05
0.000390646 3.21251e-05 8.16584e-08
3.21251e-05 -3.57885e-05 4.57183e-06
8.16584e-08 4.57183e-06 -0.00012087
0.000546328 -0.000114085 9.61968e-07
-0.000114085 8.80918e-05 -2.67248e-06
9.61968e-07 -2.67248e-06 -4.8123e-05
0.000509506 -4.26637e-05 -5.27981e-07
-4.26637e-05 3.60855e-05 1.07904e-07
-5.27981e-07 1.07904e-07 -4.40376e-05
0.00141583 1.55704e-05 -7.75401e-06
1.55704e-05 0.000581303 7.501e-06
-7.75401e-06 7.501e-06 0.000559809
0.000480612 -6.50295e-05 1.38428e-06
-6.50295e-05 2.68803e-05 -3.8186e-06
1.38428e-06 -3.8186e-06 -5.6399e-05
0.00086112 -1.97942e-05 -7.79058e-06
-1.97942e-05 0.000239924 8.4996e-07
-7.79058e-06 8.4996e-07 0.000215904
0.00075559 1.19121e-05 1.23813e-06
1.19121e-05 0.000155029 2.29506e-06
1.23813e-06 2.29506e-06 0.000158357
0.000419999 -2.1334e-05 2.93062e-06
-2.1334e-05 -3.55051e-05 -4.74039e-06
2.93062e-06 -4.74039e-06 -5.98369e-05
0.00255931 1.1924e-05 7.14839e-06
1.1924e-05 0.0013002 1.96255e-08
7.14839e-06 1.96255e-08 0.00131267
0.00258565 1.24962e-06 2.07982e-06
1.24962e-06 0.00131759 -5.06706e-06
2.07982e-06 -5.06706e-06 0.00132963
0.00103874 8.28538e-05 -7.57256e-07
8.28538e-05 0.000404538 9.52849e-07
-7.57256e-07 9.52849e-07 0.000295248
0.000504807 6.45094e-05 -1.72916e-06
6.45094e-05 3.44254e-05 -2.54036e-06
-1.72916e-06 -2.54036e-06 -2.03654e-05
0.000534564 -1.3496e-05 -3.10603e-07
-1.3496e-05 9.15837e-05 7.83479e-07
-3.10603e-07 7.83479e-07 -1.31513e-05
0.000469436 7.97393e-06 1.18255e-06
7.97393e-06 -2.97276e-05 -3.36211e-06
1.18255e-06 -3.36211e-06 -3.95642e-05
0.000446076 -1.13814e-05 1.15553e-06
-1.13814e-05 -7.77672e-06 -2.01206e-07
1.15553e-06 -2.01206e-07 -5.59867e-05
0.000519603 -6.07394e-05 -1.86409e-06
-6.07394e-05 4.49492e-05 2.08731e-06
-1.86409e-06 2.08731e-06 -8.9717e-06
0.000473178 7.32078e-06 -4.96345e-07
7.32078e-06 -2.73924e-05 5.05026e-10
-4.96345e-07 5.05026e-10 -3.79244e-05
0.001988 2.3896e-05 -1.95182e-06
2.3896e-05 0.000935218 -4.79427e-06
-1.95182e-06 -4.79427e-06 0.000951879
0.00113323 2.45488e-05 -6.49376e-07
2.45488e-05 0.0003916 2.00319e-06
-6.49376e-07 2.00319e-06 0.000382535
0.0013092 3.05561e-05 -1.93539e-06
3.05561e-05 0.000506686 -2.33878e-08
-1.93539e-06 -2.33878e-08 0.00051833
0.000815434 3.68246e-05 -7.6128e-06
3.68246e-05 0.000200139 7.47306e-06
-7.6128e-06 7.47306e-06 0.000204678
-0.00825178 0.00143277 0.000609234
0.00143277 -0.00280012 -6.501e-05
0.000609234 -6.501e-05 -0.00588341
-0.000301791 0.000492732 0.00132733
0.000492732 0.00695129 -0.00032331
0.00132733 -0.00032331 0.00283065
0.00218755 0.000410988 -0.000165555
0.000410988 -0.00256348 -3.11837e-05
-0.000165555 -3.11837e-05 -0.000720826
0.00191505 -3.84661e-06 1.32139e-05
-3.84661e-06 -0.00107421 -2.82045e-05
1.32139e-05 -2.82045e-05 -0.000531173
0.00174584 -7.88464e-05 1.06938e-05
-7.88464e-05 -0.000316245 2.27185e-05
1.06938e-05 2.27185e-05 -0.000224012
-0.00157899 1.6225e-05 -0.000106316
1.6225e-05 -0.0019979 -2.88557e-05
-0.000106316 -2.88557e-05 -0.000719643
0.00391525 -0.000459006 3.53924e-06
-0.000459006 0.000326281 5.56672e-06
3.53924e-06 5.56672e-06 0.000537666
0.0123615 -0.000142272 0.000204789
-0.000142272 -0.00104069 -8.87278e-05
0.000204789 -8.87278e-05 -0.00166706
0.00219726 0.00410865 2.70888e-07
0.00410865 0.00108258 -6.98399e-05
2.70888e-07 -6.98399e-05 -0.00264152
0.0153228 0.00834558 -0.000581894
0.00834558 0.0102699 0.000274548
-0.000581894 0.000274548 0.00660186
0.00168377 -0.000884414 1.45808e-05
-0.000884414 -0.0026266 -3.78762e-05
1.45808e-05 -3.78762e-05 -0.00127241
0.0156175 -0.00271502 0.000239628
-0.00271502 0.0015872 -7.33752e-05
0.000239628 -7.33752e-05 0.000250104
0.0190116 0.00662878 0.000393547
0.00662878 0.00622522 -0.000543269
0.000393547 -0.000543269 0.0018818
0.0215372 0.00468638 -0.00033091
0.00468638 0.00684771 0.000294636
-0.00033091 0.000294636 0.00427075
0.00101333 0.000172057 -3.27286e-06
0.000172057 0.000456725 3.31027e-06
-3.27286e-06 3.31027e-06 0.000274262
0.000330676 4.07476e-05 4.22236e-07
4.07476e-05 -3.76939e-05 -1.04916e-06
4.22236e-07 -1.04916e-06 -0.000143896
0.000543096 -9.69059e-05 1.71851e-06
-9.69059e-05 0.00010198 1.38012e-06
1.71851e-06 1.38012e-06 -2.17757e-06
0.000680663 8.09263e-06 6.78664e-06
8.09263e-06 0.000195904 -1.39223e-06
6.78664e-06 -1.39223e-06 7.22623e-05
0.00084618 8.79995e-05 2.78922e-06
8.79995e-05 0.00035832 1.23427e-06
2.78922e-06 1.23427e-06 0.000220696
0.000472736 2.52005e-05 -1.97761e-07
2.52005e-05 7.58886e-05 8.37182e-06
-1.97761e-07 8.37182e-06 -9.09978e-05
0.000742743 9.53949e-05 6.48591e-07
9.53949e-05 0.000234697 3.26069e-06
6.48591e-07 3.26069e-06 9.52058e-05
0.000448057 6.77455e-05 5.13306e-06
6.77455e-05 1.64425e-05 2.71354e-06
5.13306e-06 2.71354e-06 -0.000125301
0.000679757 -2.40732e-05 2.59653e-06
-2.40732e-05 0.000203337 -1.1796e-06
2.59653e-06 -1.1796e-06 6.22886e-05
0.000472772 -1.57577e-05 2.20792e-06
-1.57577e-05 4.58645e-05 -2.87271e-06
2.20792e-06 -2.87271e-06 -6.5094e-05
0.00135159 -0.000352047 3.6807e-05
-0.000352047 -0.000687235 -9.1315e-06
3.6807e-05 -9.1315e-06 -0.00035285
0.00105735 -0.000605921 2.88582e-05
-0.000605921 -0.000708867 -9.18315e-06
2.88582e-05 -9.18315e-06 -0.000547699
0.00103353 -0.000759808 1.32001e-06
-0.000759808 -0.000414192 7.00115e-06
1.32001e-06 7.00115e-06 -0.0005965
-9.14723e-05 -0.000714673 -1.83209e-05
-0.000714673 -0.000743905 3.92999e-06
-1.83209e-05 3.92999e-06 -0.00102077
0.00258629 -0.000493313 7.78075e-06
-0.000493313 0.00165563 3.59574e-05
7.78075e-06 3.59574e-05 0.000973013
-0.000413827 -0.000556666 -6.19611e-06
-0.000556666 -0.000274119 -7.99529e-06
-6.19611e-06 -7.99529e-06 -0.000823137
0.00149005 -0.000272514 6.72425e-06
-0.000272514 0.000695908 -5.27362e-06
6.72425e-06 -5.27362e-06 0.000542336
0.000441229 -6.0562e-05 7.90207e-07
-6.0562e-05 0.000107305 2.71408e-06
7.90207e-07 2.71408e-06 -2.93768e-05
0.00248318 -0.00064153 1.28814e-05
-0.00064153 -0.00024417 -9.16988e-06
1.28814e-05 -9.16988e-06 7.0304e-05
0.000433714 -7.12951e-05 4.52422e-07
-7.12951e-05 0.000154978 1.73085e-06
4.52422e-07 1.73085e-06 -9.62147e-05
-0.000139433 -0.000212549 -1.9989e-06
-0.000212549 -0.000108155 -5.94165e-06
-1.9989e-06 -5.94165e-06 -0.000400347
0.00182056 -0.000809071 1.89018e-05
-0.000809071 4.04331e-06 -1.4705e-06
1.89018e-05 -1.4705e-06 -7.2409e-05
0.00196933 -0.00100689 -1.00868e-06
-0.00100689 0.000153196 2.00928e-06
-1.00868e-06 2.00928e-06 -4.67884e-05
0.00028184 -0.000749191 2.05568e-05
-0.000749191 -0.000229633 -1.58689e-05
2.05568e-05 -1.58689e-05 -0.000487477
0.00101221 -0.000371128 8.70811e-06
-0.000371128 0.000930618 -2.03211e-05
8.70811e-06 -2.03211e-05 0.000207368
0.00208148 -0.000974348 -7.08264e-05
-0.000974348 1.28991e-05 4.37863e-05
-7.08264e-05 4.37863e-05 -0.000229861
0.00105969 -0.000753037 -2.74909e-05
-0.000753037 -0.000172275 1.83846e-06
-2.74909e-05 1.83846e-06 -0.000187749
-7.86097e-05 -0.000643919 -6.62615e-05
-0.000643919 -1.00165e-05 4.14986e-05
-6.62615e-05 4.14986e-05 -0.000439908
-0.00220516 -0.000203706 -8.49677e-06
-0.000203706 -0.00148806 1.23188e-05
-8.49677e-06 1.23188e-05 -0.00173472
-0.0011724 -2.66518e-05 2.95541e-07
-2.66518e-05 -0.000749464 1.16083e-05
2.95541e-07 1.16083e-05 -0.00104734
0.000809557 -9.30082e-05 8.21532e-06
-9.30082e-05 0.000515163 -1.47268e-05
8.21532e-06 -1.47268e-05 0.000128969
-0.00260999 0.00136135 -0.000455692
0.00136135 0.00733803 2.15902e-05
-0.000455692 2.15902e-05 0.00206328
7.2485e-05 -0.00167734 -1.51263e-05
-0.00167734 0.00260616 5.50292e-06
-1.51263e-05 5.50292e-06 0.00148351
0.00307796 0.00100735 -0.000137219
0.00100735 -0.00560402 -2.02727e-05
-0.000137219 -2.02727e-05 -0.00578781
0.000379767 0.000287688 1.31986e-05
0.000287688 0.000107976 -2.42246e-06
1.31986e-05 -2.42246e-06 -0.000155092
0.00175816 0.000643051 1.39072e-05
0.000643051 0.000713025 2.23541e-05
1.39072e-05 2.23541e-05 0.000281844
0.00345939 0.0010498 7.32434e-05
0.0010498 0.000695602 2.53769e-05
7.32434e-05 2.53769e-05 0.0005836
0.00147874 0.000901858 1.71928e-05
0.000901858 0.00039586 2.3659e-05
1.71928e-05 2.3659e-05 -7.90449e-05
0.0133807 -0.00327818 0.000260467
-0.00327818 0.00521481 8.7519e-05
0.000260467 8.7519e-05 0.0036442
0.00358639 0.00167884 -0.000391017
0.00167884 -0.00478846 -8.94147e-05
-0.000391017 -8.94147e-05 -0.00623753
0.00529145 0.00300138 4.86456e-05
0.00300138 0.000308407 2.74807e-05
4.86456e-05 2.74807e-05 0.000987947
0.00315243 0.00131887 5.8662e-05
0.00131887 0.00131197 -8.96756e-06
5.8662e-05 -8.96756e-06 0.0010369
0.010232 -0.00335571 -0.000427402
-0.00335571 0.00432926 -0.000373938
-0.000427402 -0.000373938 0.000312214
0.000171467 -0.00394569 -0.000809114
-0.00394569 0.00697104 -0.00024095
-0.000809114 -0.00024095 0.000998378
0.0262012 -0.0060366 0.00082275
-0.0060366 0.00761476 0.000405233
0.00082275 0.000405233 0.00458666
0.000328692 0.000265823 1.74482e-05
0.000265823 3.33368e-05 -4.49013e-06
1.74482e-05 -4.49013e-06 -0.000189867
-0.00404985 0.000466178 -0.000191997
0.000466178 0.00607557 -3.4853e-05
-0.000191997 -3.4853e-05 7.89664e-05
0.00608015 0.00140308 -0.00015402
0.00140308 0.00349873 -0.000181413
-0.00015402 -0.000181413 -0.00195636
0.00177303 0.000909836 9.51449e-06
0.000909836 0.000291703 2.91938e-06
9.51449e-06 2.91938e-06 0.000160547
0.00077655 0.000678417 1.4941e-05
0.000678417 0.000236857 5.26776e-06
1.4941e-05 5.26776e-06 -0.000184816
0.000752848 0.00103574 -6.02461e-05
0.00103574 0.000526497 -6.37056e-05
-6.02461e-05 -6.37056e-05 -6.76682e-05
0.00418858 0.00344901 3.53492e-05
0.00344901 0.00122378 3.54694e-05
3.53492e-05 3.54694e-05 0.00110176
0.0162543 0.004778 1.91773e-05
0.004778 0.00326354 9.42199e-06
1.91773e-05 9.42199e-06 0.00104599
0.00929564 -0.00397954 9.06315e-05
-0.00397954 0.00459922 -0.000102811
9.06315e-05 -0.000102811 -0.000984836
0.016001 -0.00219932 -1.6208e-05
-0.00219932 0.00226836 -7.1237e-05
-1.6208e-05 -7.1237e-05 0.00333922
0.000661728 0.000506034 -1.42927e-05
0.000506034 0.000230547 -9.6102e-06
-1.42927e-05 -9.6102e-06 -7.79804e-05
0.00178074 0.000245573 -0.00038235
0.000245573 0.0023828 -9.49221e-05
-0.00038235 -9.49221e-05 -0.00271295
0.00120049 0.000939619 -0.000146344
0.000939619 -0.000154883 -0.000179978
-0.000146344 -0.000179978 -0.00178232
-0.000710291 0.000334622 -6.32321e-06
0.000334622 -0.000148114 -2.04582e-05
-6.32321e-06 -2.04582e-05 -0.000428811
-0.00105857 0.000736113 -0.000190971
0.000736113 0.000946688 -1.41824e-05
-0.000190971 -1.41824e-05 0.00015799
0.0124871 0.00529217 0.000127293
0.00529217 0.00406111 -4.13372e-05
0.000127293 -4.13372e-05 -0.000476744
-0.00142205 -0.00573426 -1.3905e-05
-0.00573426 -6.53054e-05 0.000237072
-1.3905e-05 0.000237072 -0.00540831
0.0124071 5.61716e-05 7.23513e-05
5.61716e-05 -0.00162593 -0.000333338
7.23513e-05 -0.000333338 0.00084278
0.000795323 0.000199725 -3.90133e-06
0.000199725 0.000318129 1.79296e-05
-3.90133e-06 1.79296e-05 0.000165004
0.000939906 0.000248436 -9.31345e-06
0.000248436 0.000547493 -5.48389e-06
-9.31345e-06 -5.48389e-06 0.000331581
-0.00027707 0.000136998 9.1002e-07
0.000136998 2.33985e-06 -1.86713e-06
9.1002e-07 -1.86713e-06 -0.00032367
0.000535886 8.67838e-05 -9.39396e-07
8.67838e-05 0.000103583 -1.17502e-06
-9.39396e-07 -1.17502e-06 -6.84707e-05
0.00126362 -2.95022e-05 -2.26669e-06
-2.95022e-05 0.000602281 4.1179e-06
-2.26669e-06 4.1179e-06 0.000391995
3.80202e-06 7.65469e-05 2.98661e-06
7.65469e-05 -0.000221978 2.35607e-06
2.98661e-06 2.35607e-06 -0.000382453
-0.00120657 4.06929e-05 2.30511e-06
4.06929e-05 -0.00071538 1.36288e-06
2.30511e-06 1.36288e-06 -0.000959542
0.000564703 -2.24085e-05 1.2284e-06
-2.24085e-05 0.000147693 4.24219e-07
1.2284e-06 4.24219e-07 -4.78711e-05
0.000490567 4.5119e-05 6.5325e-07
4.5119e-05 0.000181699 -2.33103e-06
6.5325e-07 -2.33103e-06 -2.17458e-05
7.61851e-05 4.50692e-05 2.45935e-06
4.50692e-05 0.000289025 2.90168e-06
2.45935e-06 2.90168e-06 -0.00012249
-0.00041545 6.34034e-05 -3.20849e-06
6.34034e-05 0.000152217 1.27024e-05
-3.20849e-06 1.27024e-05 -0.000355166
0.0005279 7.34088e-06 -2.67865e-06
7.34088e-06 0.000551953 -4.21382e-06
-2.67865e-06 -4.21382e-06 0.000148953
0.001371 2.87838e-05 -2.05e-06
2.87838e-05 0.000710095 -2.36112e-06
-2.05e-06 -2.36112e-06 0.000517213
0.000822285 -0.000163364 3.43047e-06
-0.000163364 0.000310351 2.11694e-06
3.43047e-06 2.11694e-06 0.000120005
0.000237765 -6.6192e-05 1.4156e-06
-6.6192e-05 -0.000130367 5.23073e-06
1.4156e-06 5.23073e-06 -0.000253539
0.000147174 -8.63101e-05 3.81868e-06
-8.63101e-05 -0.000119901 1.51686e-05
3.81868e-06 1.51686e-05 -0.00022099
0.000221278 -3.59248e-05 2.28029e-06
-3.59248e-05 -1.04412e-05 2.42196e-06
2.28029e-06 2.42196e-06 -0.000180273
0.000516029 -5.01836e-05 -1.17599e-07
-5.01836e-05 0.000115268 7.99871e-07
-1.17599e-07 7.99871e-07 -4.13053e-05
0.000285026 -5.26575e-05 -4.32417e-07
-5.26575e-05 -7.96465e-06 -1.79215e-06
-4.32417e-07 -1.79215e-06 -0.00013719
0.000506883 -7.13588e-05 -7.98132e-06
-7.13588e-05 0.000111906 -5.14967e-06
-7.98132e-06 -5.14967e-06 -1.99095e-05
0.000396623 -7.58744e-05 9.02732e-06
-7.58744e-05 0.000237959 -8.23803e-06
9.02732e-06 -8.23803e-06 7.07006e-05
0.00115691 -0.000258662 1.26899e-06
-0.000258662 0.000307193 4.60521e-06
1.26899e-06 4.60521e-06 0.000218934
0.000506137 -0.000134841 -1.44448e-05
-0.000134841 2.07196e-05 -3.97591e-07
-1.44448e-05 -3.97591e-07 -8.90802e-05
0.000464951 -0.000217499 7.47121e-06
-0.000217499 -3.8615e-05 6.62596e-06
7.47121e-06 6.62596e-06 -0.000205127
0.0022798 -0.00059779 -2.94433e-06
-0.00059779 0.000981446 2.22217e-05
-2.94433e-06 2.22217e-05 0.000623488
0.00186652 -0.000268052 4.19423e-06
-0.000268052 0.00085626 -1.08209e-05
4.19423e-06 -1.08209e-05 0.000652895
0.000488284 -0.000199231 -6.35678e-06
-0.000199231 -3.43823e-05 -6.99955e-06
-6.35678e-06 -6.99955e-06 -0.000179071
0.000522514 -8.45086e-05 -3.01585e-07
-8.45086e-05 0.00010504 -1.0605e-06
-3.01585e-07 -1.0605e-06 -8.03457e-05
-0.000292385 -4.46495e-05 -7.90699e-07
-4.46495e-05 -0.000367408 -1.93486e-06
-7.90699e-07 -1.93486e-06 -0.000591434
0.00112116 -6.3103e-05 7.0147e-07
-6.3103e-05 0.000489564 1.58466e-06
7.0147e-07 1.58466e-06 0.000305583
0.000716744 -0.000138739 7.63185e-08
-0.000138739 0.000242666 1.88309e-07
7.63185e-08 1.88309e-07 4.84257e-05
0.000454885 -6.53905e-05 5.62924e-07
-6.53905e-05 9.04278e-06 1.52124e-06
5.62924e-07 1.52124e-06 -0.000121511
0.00144476 -0.000208791 -2.47982e-06
-0.000208791 0.000718182 -5.51706e-07
-2.47982e-06 -5.51706e-07 0.000527403
0.000690145 -0.000115816 -5.06287e-07
-0.000115816 0.000174183 4.18339e-08
-5.06287e-07 4.18339e-08 3.96685e-05
0.000511158 2.10117e-06 -1.49633e-06
2.10117e-06 3.30132e-05 3.61263e-06
-1.49633e-06 3.61263e-06 -5.25968e-05
0.000720366 -0.000135302 9.22298e-07
-0.000135302 0.000204387 -2.31276e-06
9.22298e-07 -2.31276e-06 6.65327e-05
0.000585898 -5.96259e-05 -9.52487e-08
-5.96259e-05 8.3723e-05 1.27085e-07
-9.52487e-08 1.27085e-07 -1.24004e-06
0.00143909 9.82082e-06 -1.27726e-05
9.82082e-06 0.000591766 7.77586e-06
-1.27726e-05 7.77586e-06 0.000568155
0.000536433 -7.10563e-05 1.73986e-06
-7.10563e-05 6.21021e-05 -4.83058e-06
1.73986e-06 -4.83058e-06 -2.41526e-05
0.000857958 -1.43604e-05 -9.11451e-06
-1.43604e-05 0.000230922 7.17066e-07
-9.11451e-06 7.17066e-07 0.000205935
0.000816222 2.12634e-05 1.22019e-06
2.12634e-05 0.000190092 2.99689e-06
1.22019e-06 2.99689e-06 0.000191512
0.00042637 -3.44292e-05 2.72831e-06
-3.44292e-05 -3.64564e-05 -5.27139e-06
2.72831e-06 -5.27139e-06 -6.26254e-05
0.0016647 2.01893e-05 1.17192e-05
2.01893e-05 0.000732446 -1.48773e-06
1.17192e-05 -1.48773e-06 0.000740482
0.00251613 1.05773e-05 1.27821e-05
1.05773e-05 0.00127219 -5.19129e-06
1.27821e-05 -5.19129e-06 0.00128487
0.000484667 5.58197e-05 1.5158e-06
5.58197e-05 3.15431e-05 -6.68459e-07
1.5158e-06 -6.68459e-07 -7.26476e-05
0.000593733 6.60765e-05 -1.2018e-06
6.60765e-05 8.42608e-05 -1.99703e-06
-1.2018e-06 -1.99703e-06 2.64164e-05
0.000581834 4.59059e-06 7.34357e-07
4.59059e-06 0.000108374 8.39381e-07
7.34357e-07 8.39381e-07 4.83227e-06
0.000458718 5.35555e-06 1.89507e-06
5.35555e-06 -3.56718e-05 -3.70118e-06
1.89507e-06 -3.70118e-06 -4.61746e-05
0.000486425 5.55737e-05 3.48796e-09
5.55737e-05 1.79507e-05 -1.84841e-07
3.48796e-09 -1.84841e-07 -3.38256e-05
0.000503167 -0.000114187 -2.93072e-06
-0.000114187 6.09373e-05 7.81741e-07
-2.93072e-06 7.81741e-07 -3.68461e-05
0.00201144 9.98556e-06 -7.16183e-06
9.98556e-06 0.000947859 -4.84466e-06
-7.16183e-06 -4.84466e-06 0.000965435
0.000447967 6.2216e-06 -2.55073e-07
6.2216e-06 -4.28233e-05 2.90256e-08
-2.55073e-07 2.90256e-08 -5.26405e-05
0.000493589 -7.83794e-06 -1.58873e-06
-7.83794e-06 1.75976e-05 2.11832e-06
-1.58873e-06 2.11832e-06 -2.78011e-05
0.000461349 5.24267e-06 -1.71068e-06
5.24267e-06 -3.54979e-05 3.30677e-06
-1.71068e-06 3.30677e-06 -4.60089e-05
0.00204242 2.54995e-05 -5.4934e-06
2.54995e-05 0.000969967 -1.15172e-07
-5.4934e-06 -1.15172e-07 0.000986258
0.00200971 3.9575e-05 -4.25891e-06
3.9575e-05 0.000952147 4.72806e-06
-4.25891e-06 4.72806e-06 0.000967132
-0.00615064 -0.00190778 -0.000209212
-0.00190778 0.00616334 6.04032e-05
-0.000209212 6.04032e-05 0.00177412
0.00247726 0.00160941 -0.000294003
0.00160941 0.000947901 9.41789e-05
-0.000294003 9.41789e-05 -0.0014956
0.00292842 -0.00106033 -0.000640514
-0.00106033 0.00126708 0.000273935
-0.000640514 0.000273935 -0.00345631
0.000687872 0.00101908 0.00119382
0.00101908 0.00683407 -0.000336598
0.00119382 -0.000336598 0.00218896
0.00319659 0.000669161 -5.15747e-05
0.000669161 -0.000901237 1.10733e-05
-5.15747e-05 1.10733e-05 0.000124578
0.00301682 -0.000523649 9.42676e-05
-0.000523649 -0.000235601 9.88197e-06
9.42676e-05 9.88197e-06 -6.31873e-05
0.000958683 -0.000389193 0.000313929
-0.000389193 -0.00541003 -5.816e-05
0.000313929 -5.816e-05 -0.00683578
0.0237868 0.00359764 -0.000981656
0.00359764 0.0105105 7.09198e-05
-0.000981656 7.09198e-05 0.00710258
0.00770542 0.00975534 -0.00250948
0.00975534 0.00607406 0.0015759
-0.00250948 0.0015759 0.00207804
0.00496054 -0.000738587 3.44592e-05
-0.000738587 -0.000530487 4.99899e-06
3.44592e-05 4.99899e-06 0.000340678
0.00866552 -0.00258336 0.000184714
-0.00258336 -0.00226629 -0.000150711
0.000184714 -0.000150711 -0.00437171
0.0208494 0.006013 -0.000362068
0.006013 0.00693193 -0.000119463
-0.000362068 -0.000119463 0.00250558
0.016087 0.00471852 2.52823e-05
0.00471852 0.00379496 0.000426007
2.52823e-05 0.000426007 0.00103192
0.00182 -0.00193623 -0.000121264
-0.00193623 -0.00339831 3.00521e-05
-0.000121264 3.00521e-05 -0.00196219
0.00655234 -0.00413319 0.000481339
-0.00413319 -0.00020351 -0.000236562
0.000481339 -0.000236562 -0.00385488
0.00890446 0.00362076 6.22466e-05
0.00362076 0.00223166 -0.000877108
6.22466e-05 -0.000877108 -0.00237666
0.0089672 0.000592186 -0.000321139
0.000592186 -0.00195955 1.4675e-05
-0.000321139 1.4675e-05 -0.00135914
0.00248253 -8.44004e-05 1.00141e-06
-8.44004e-05 0.00143063 1.72614e-05
1.00141e-06 1.72614e-05 0.0011557
0.000293363 9.25937e-05 -1.58181e-06
9.25937e-05 -2.88023e-05 -2.20542e-06
-1.58181e-06 -2.20542e-06 -0.000173287
0.000517487 0.000104856 2.88676e-06
0.000104856 6.71697e-05 -8.89471e-07
2.88676e-06 -8.89471e-07 -3.4051e-05
0.000104971 -1.08793e-05 5.79528e-06
-1.08793e-05 -0.000134802 -3.3415e-06
5.79528e-06 -3.3415e-06 -0.000238741
0.000437151 0.000107079 3.79169e-06
0.000107079 2.85192e-05 6.30696e-06
3.79169e-06 6.30696e-06 -0.000154992
0.000455082 4.82981e-05 -2.52939e-08
4.82981e-05 5.57145e-05 1.94441e-06
-2.52939e-08 1.94441e-06 -9.87043e-05
0.000196388 2.47539e-05 1.49647e-06
2.47539e-05 -0.000108401 -3.76719e-06
1.49647e-06 -3.76719e-06 -0.000239718
0.000905733 0.000184029 5.19342e-06
0.000184029 0.000341775 9.14928e-06
5.19342e-06 9.14928e-06 0.000164086
0.000912762 0.000137954 -2.91197e-07
0.000137954 0.000356272 -4.45593e-07
-2.91197e-07 -4.45593e-07 0.000181584
0.000350774 -1.25371e-05 -3.63602e-06
-1.25371e-05 -1.83283e-05 -6.84029e-06
-3.63602e-06 -6.84029e-06 -0.000152643
0.000499557 -0.000505187 9.10028e-05
-0.000505187 -0.00131491 -4.76218e-05
9.10028e-05 -4.76218e-05 -0.000949958
0.00011644 -0.000657917 9.94158e-06
-0.000657917 -0.000961906 -6.82782e-06
9.94158e-06 -6.82782e-06 -0.00095089
0.00127092 -0.000924775 -1.40813e-05
-0.000924775 -0.000286114 2.15423e-05
-1.40813e-05 2.15423e-05 -0.00037552
-0.00106896 -0.000727965 3.30919e-06
-0.000727965 -0.000953648 -2.76345e-06
3.30919e-06 -2.76345e-06 -0.00129285
0.00340073 -0.000462996 -2.95109e-05
-0.000462996 0.00212268 7.17968e-05
-2.95109e-05 7.17968e-05 0.00158867
0.000909227 -0.000215036 -2.41914e-06
-0.000215036 0.000548502 7.00717e-06
-2.41914e-06 7.00717e-06 0.000233354
0.000409359 0.000124739 -2.13507e-06
0.000124739 0.000124846 -1.62493e-05
-2.13507e-06 -1.62493e-05 -0.000121447
0.000714737 -5.00978e-05 -2.96044e-06
-5.00978e-05 0.000314679 9.05144e-06
-2.96044e-06 9.05144e-06 3.42596e-05
0.00187886 -0.000888325 -1.36822e-05
-0.000888325 -0.000194434 -2.91994e-06
-1.36822e-05 -2.91994e-06 -0.00023288
0.00073612 -4.34998e-05 1.14983e-06
-4.34998e-05 0.00036895 4.64284e-06
1.14983e-06 4.64284e-06 8.71302e-05
0.00226222 -0.000320219 2.7311e-06
-0.000320219 0.00137854 -2.1485e-06
2.7311e-06 -2.1485e-06 0.000971518
0.00134471 -0.000782842 1.00014e-05
-0.000782842 -2.36119e-05 2.0134e-06
1.00014e-05 2.0134e-06 -5.39044e-05
0.000502848 -0.00066385 -3.50073e-05
-0.00066385 0.000242583 8.93278e-06
-3.50073e-05 8.93278e-06 -0.000144829
0.00213561 -0.0015617 6.72569e-05
-0.0015617 2.23494e-05 -2.66918e-05
6.72569e-05 -2.66918e-05 -0.00010301
-0.00025533 -0.000524477 -5.55363e-06
-0.000524477 -0.000372257 2.30046e-05
-5.55363e-06 2.30046e-05 -0.000454679
-0.00160909 -7.8459e-05 2.15092e-05
-7.8459e-05 -0.000710509 -1.74462e-06
2.15092e-05 -1.74462e-06 -0.00119419
0.000566775 5.14991e-05 -4.31473e-06
5.14991e-05 0.000211343 4.4492e-06
-4.31473e-06 4.4492e-06 -4.37482e-06
0.000438339 -4.87976e-05 4.67989e-06
-4.87976e-05 0.000308134 -4.07722e-06
4.67989e-06 -4.07722e-06 -2.35072e-05
0.00133574 0.000162635 -5.39056e-05
0.000162635 0.00195493 -2.09782e-05
-5.39056e-05 -2.09782e-05 -0.00228539
-0.00694885 0.000450774 -0.000405962
0.000450774 0.00674249 -2.07556e-05
-0.000405962 -2.07556e-05 0.00135752
-0.0135415 -0.00277966 -0.000795055
-0.00277966 -0.00511448 -6.47096e-06
-0.000795055 -6.47096e-06 -0.0062498
-0.000486317 0.000229805 1.20503e-05
0.000229805 -0.000390008 -4.1021e-06
1.20503e-05 -4.1021e-06 -0.000643102
-0.000848116 0.00051662 -2.3572e-06
0.00051662 -0.000574256 1.01541e-05
-2.3572e-06 1.01541e-05 -0.00100724
0.00244074 0.00107555 3.69816e-05
0.00107555 0.000660429 3.12363e-05
3.69816e-05 3.12363e-05 0.000476689
-0.00542023 0.00211909 9.3816e-05
0.00211909 0.00671812 6.06378e-05
9.3816e-05 6.06378e-05 0.00183819
0.00686411 0.00407256 -0.000336318
0.00407256 -7.30874e-05 -0.00018477
-0.000336318 -0.00018477 -0.00335086
0.00120757 0.00223522 0.000442311
0.00223522 7.82948e-05 0.00016423
0.000442311 0.00016423 -1.65034e-05
-0.000184355 0.00096028 1.25947e-05
0.00096028 -7.80748e-05 -4.87018e-05
1.25947e-05 -4.87018e-05 -0.000378005
0.028075 -0.00393712 -0.000150574
-0.00393712 0.00932044 -0.000402266
-0.000150574 -0.000402266 0.00539677
0.00668665 0.00182361 0.000613271
0.00182361 0.00332663 0.000218949
0.000613271 0.000218949 -0.00260507
0.0139631 -0.00176329 0.000177478
-0.00176329 0.00246499 3.84503e-05
0.000177478 3.84503e-05 0.00377022
0.00132688 0.000575558 4.17378e-06
0.000575558 0.000691924 -1.76081e-06
4.17378e-06 -1.76081e-06 0.000367923
0.00383478 0.000683436 -1.74609e-05
0.000683436 0.0033429 1.24441e-05
-1.74609e-05 1.24441e-05 -0.000496093
0.00180095 0.000843786 7.77217e-05
0.000843786 0.000144099 -2.28491e-06
7.77217e-05 -2.28491e-06 -0.00150646
-0.000470712 0.000517233 -1.80624e-06
0.000517233 -0.000123924 -5.4396e-06
-1.80624e-06 -5.4396e-06 -0.000472909
-6.94511e-05 0.00138234 -0.000124607
0.00138234 0.000728219 -6.31373e-05
-0.000124607 -6.31373e-05 -0.000536153
0.00158652 0.00506313 0.000239978
0.00506313 0.000849246 0.000116911
0.000239978 0.000116911 -0.00359424
0.0101063 -0.000151454 7.32907e-07
-0.000151454 -0.00348561 -0.000219544
7.32907e-07 -0.000219544 -0.000721828
0.0064497 -0.00266957 -8.29985e-05
-0.00266957 0.0038218 -0.000175065
-8.29985e-05 -0.000175065 -0.00140365
0.00107762 0.000465737 -8.38759e-06
0.000465737 0.000852895 -1.53577e-05
-8.38759e-06 -1.53577e-05 0.000478269
-0.00325519 0.000299434 1.77676e-05
0.000299434 0.000140249 3.31434e-05
1.77676e-05 3.31434e-05 -0.00046221
0.00542873 -0.000289744 0.000137062
-0.000289744 -0.000186345 -0.000155097
0.000137062 -0.000155097 -0.00151841
0.00878947 0.000745177 0.000310632
0.000745177 -0.00181412 -1.9896e-05
0.000310632 -1.9896e-05 -0.00117939
-0.00273137 0.000155169 4.39646e-05
0.000155169 -0.000123491 -2.80133e-05
4.39646e-05 -2.80133e-05 -0.000980232
0.0126923 0.00366842 0.000353148
0.00366842 0.00625167 8.99787e-05
0.000353148 8.99787e-05 0.00074235
0.00311819 -0.000640248 1.86298e-05
-0.000640248 0.0030553 0.000406002
1.86298e-05 0.000406002 -0.000789688
0.00318042 0.000483771 2.66819e-05
0.000483771 0.00193669 1.17876e-05
2.66819e-05 1.17876e-05 0.00166066
0.00041261 0.000229924 -6.25063e-06
0.000229924 0.000446059 -1.60056e-06
-6.25063e-06 -1.60056e-06 7.61625e-05
0.000247683 0.00019771 4.62298e-06
0.00019771 0.000510406 -3.16576e-06
4.62298e-06 -3.16576e-06 4.00332e-05
0.000395095 0.000136022 1.40402e-06
0.000136022 5.1374e-05 -1.95457e-06
1.40402e-06 -1.95457e-06 -0.000148374
0.000579044 9.42715e-05 1.05912e-06
9.42715e-05 0.000214905 2.05415e-06
1.05912e-06 2.05415e-06 2.73594e-05
0.000114913 -8.24664e-06 6.8303e-06
-8.24664e-06 0.000335657 -4.04846e-06
6.8303e-06 -4.04846e-06 -8.70114e-05
0.000472948 3.40659e-05 1.03866e-07
3.40659e-05 0.000133584 -8.13213e-07
1.03866e-07 -8.13213e-07 -4.06041e-05
0.000789132 -4.12833e-05 -8.01869e-07
-4.12833e-05 0.000718952 -2.49297e-06
-8.01869e-07 -2.49297e-06 0.000312686
-6.75214e-06 3.0982e-05 -1.57256e-07
3.0982e-05 0.000399595 -1.09943e-06
-1.57256e-07 -1.09943e-06 -0.00010686
-9.15095e-05 -2.94957e-05 -3.63369e-06
-2.94957e-05 0.000317249 1.17452e-05
-3.63369e-06 1.17452e-05 -0.000118831
0.000314122 -3.19982e-05 -1.69841e-06
-3.19982e-05 0.000371753 -7.0607e-06
-1.69841e-06 -7.0607e-06 5.4926e-05
5.69617e-05 -6.24418e-05 5.04567e-06
-6.24418e-05 -0.000141822 9.74275e-06
5.04567e-06 9.74275e-06 -0.00028896
0.00113581 -5.51001e-05 1.1015e-07
-5.51001e-05 0.000488679 3.567e-06
1.1015e-07 3.567e-06 0.000335322
0.00134391 -7.99432e-05 -1.64762e-05
-7.99432e-05 0.000643333 1.37326e-05
-1.64762e-05 1.37326e-05 0.000513478
0.000738594 -9.00967e-05 5.95633e-06
-9.00967e-05 0.000422954 -1.00375e-06
5.95633e-06 -1.00375e-06 0.000265173
0.000433753 -5.73379e-05 -1.33868e-06
-5.73379e-05 6.82094e-05 -1.26234e-06
-1.33868e-06 -1.26234e-06 -6.2216e-05
0.000635024 -0.000206588 -9.2927e-07
-0.000206588 0.000178778 4.11935e-06
-9.2927e-07 4.11935e-06 4.64202e-05
0.000252252 -0.000176662 -1.37485e-05
-0.000176662 -0.000129359 -7.919e-07
-1.37485e-05 -7.919e-07 -0.000178981
-0.000944991 -0.000290785 1.17719e-05
-0.000290785 -0.000799749 2.16516e-05
1.17719e-05 2.16516e-05 -0.00110017
-1.48608e-05 -0.000156161 5.44862e-06
-0.000156161 -0.000275373 -2.66414e-07
5.44862e-06 -2.66414e-07 -0.000388814
0.00116381 -0.000301803 -4.17678e-06
-0.000301803 0.000375218 1.19372e-05
-4.17678e-06 1.19372e-05 0.000183595
0.0020412 -0.000596625 -6.4381e-06
-0.000596625 0.00083838 1.43307e-05
-6.4381e-06 1.43307e-05 0.000453432
0.00175189 -0.000579134 -7.07964e-06
-0.000579134 0.000556038 -7.74196e-07
-7.07964e-06 -7.74196e-07 0.000148638
0.00167756 -0.000407572 1.09501e-06
-0.000407572 0.000688526 1.30821e-06
1.09501e-06 1.30821e-06 0.000434804
0.00054736 -0.000372856 9.1011e-06
-0.000372856 -8.62845e-05 -4.16551e-06
9.1011e-06 -4.16551e-06 -0.00038023
0.00125212 -0.000185543 2.7969e-06
-0.000185543 0.000578241 -3.66913e-06
2.7969e-06 -3.66913e-06 0.000303901
0.00114233 -0.000230109 -8.66923e-06
-0.000230109 0.000454812 1.92622e-06
-8.66923e-06 1.92622e-06 0.000241254
-0.000273983 -0.000123711 1.58067e-05
-0.000123711 -0.000481788 -1.69387e-05
1.58067e-05 -1.69387e-05 -0.0005835
0.00125346 -0.000118308 -1.99908e-06
-0.000118308 0.000529181 2.25078e-06
-1.99908e-06 2.25078e-06 0.000343607
0.000274386 -8.81442e-05 8.272e-07
-8.81442e-05 -2.2571e-05 -1.04034e-07
8.272e-07 -1.04034e-07 -0.000244108
0.000345251 -5.6328e-05 1.2764e-06
-5.6328e-05 -5.67368e-05 8.07e-07
1.2764e-06 8.07e-07 -0.000208383
0.00159028 -0.00024739 -1.84658e-06
-0.00024739 0.000793556 -1.62078e-07
-1.84658e-06 -1.62078e-07 0.000583931
0.000670473 -0.000104868 -3.72377e-07
-0.000104868 0.000160709 -1.09138e-07
-3.72377e-07 -1.09138e-07 1.5369e-05
0.000389478 7.94347e-06 2.66735e-06
7.94347e-06 -3.15273e-05 4.58073e-06
2.66735e-06 4.58073e-06 -0.00013257
0.000800854 -0.000145195 -6.35798e-08
-0.000145195 0.000256286 -2.21872e-06
-6.35798e-08 -2.21872e-06 0.000110455
0.000472518 5.80636e-06 -2.18262e-06
5.80636e-06 1.90997e-05 -1.94272e-07
-2.18262e-06 -1.94272e-07 -7.40316e-05
0.00143591 4.76824e-06 -1.7994e-05
4.76824e-06 0.000589892 5.50267e-06
-1.7994e-05 5.50267e-06 0.000564505
0.000586976 -6.83627e-05 2.22396e-06
-6.83627e-05 8.94304e-05 -4.5991e-06
2.22396e-06 -4.5991e-06 1.42002e-06
0.000877262 -1.02294e-05 -8.93546e-06
-1.02294e-05 0.000237742 5.43509e-07
-8.93546e-06 5.43509e-07 0.000211362
0.000838951 3.13599e-05 4.91016e-07
3.13599e-05 0.000201911 3.15425e-06
4.91016e-07 3.15425e-06 0.000200974
0.000445419 -2.7106e-05 2.82742e-06
-2.7106e-05 -3.1459e-05 -6.21976e-06
2.82742e-06 -6.21976e-06 -5.91482e-05
0.00173432 3.23893e-05 1.47332e-05
3.23893e-05 0.000773758 -1.23437e-06
1.47332e-05 -1.23437e-06 0.00078046
0.00254285 2.44402e-05 1.77989e-05
2.44402e-05 0.00128648 -5.50257e-06
1.77989e-05 -5.50257e-06 0.00129888
0.000313073 1.94588e-05 1.80193e-06
1.94588e-05 -5.88941e-05 2.31402e-06
1.80193e-06 2.31402e-06 -0.000193674
0.000141441 2.09367e-05 9.78181e-08
2.09367e-05 -0.000205132 -3.63607e-06
9.78181e-08 -3.63607e-06 -0.000270127
0.000617653 5.4783e-05 1.33475e-07
5.4783e-05 0.000126539 2.17597e-07
1.33475e-07 2.17597e-07 1.17062e-05
0.000459634 5.46033e-06 1.66405e-06
5.46033e-06 -3.71987e-05 -3.86684e-06
1.66405e-06 -3.86684e-06 -4.91975e-05
0.0003207 7.45004e-06 1.63861e-06
7.45004e-06 -9.39332e-05 4.75012e-08
1.63861e-06 4.75012e-08 -0.000148976
0.000233209 -9.39977e-05 -9.90309e-07
-9.39977e-05 -0.000113283 -7.26982e-07
-9.90309e-07 -7.26982e-07 -0.000216229
0.00206402 -4.05665e-06 -1.18774e-05
-4.05665e-06 0.000980155 -4.87043e-06
-1.18774e-05 -4.87043e-06 0.000997758
0.000454576 4.27082e-06 1.41591e-08
4.27082e-06 -3.91341e-05 -6.70847e-08
1.41591e-08 -6.70847e-08 -4.93438e-05
0.000426453 -1.45648e-05 -2.96022e-06
-1.45648e-05 -2.51264e-05 2.34071e-06
-2.96022e-06 2.34071e-06 -7.34687e-05
0.0020287 1.13681e-05 -4.74452e-06
1.13681e-05 0.000959208 6.69177e-09
-4.74452e-06 6.69177e-09 0.000976552
0.000448072 5.41569e-06 -1.54956e-06
5.41569e-06 -4.2129e-05 3.26422e-06
-1.54956e-06 3.26422e-06 -5.20235e-05
0.00200513 2.64973e-05 1.99056e-06
2.64973e-05 0.000946326 4.88152e-06
1.99056e-06 4.88152e-06 0.000962641
-0.000403298 -0.00088555 -0.000261463
-0.00088555 -0.00012942 0.000103094
-0.000261463 0.000103094 -0.00350718
0.00206054 0.000761741 -0.000128296
0.000761741 0.00803826 2.73897e-05
-0.000128296 2.73897e-05 0.00353168
0.0026164 5.82167e-05 -0.000956301
5.82167e-05 0.00399163 0.000204554
-0.000956301 0.000204554 0.0020485
0.000724347 0.000123985 6.13543e-06
0.000123985 0.000196461 7.07172e-06
6.13543e-06 7.07172e-06 3.77823e-05
0.00529109 -0.00100068 -0.000110061
-0.00100068 0.00331255 0.000255538
-0.000110061 0.000255538 0.00109068
0.0041772 -0.00135137 -0.000287615
-0.00135137 0.00177173 2.78394e-05
-0.000287615 2.78394e-05 -0.00296127
0.0123635 0.00388036 0.000344769
0.00388036 0.00829581 -0.000370794
0.000344769 -0.000370794 0.0035921
0.00746235 -0.00116658 0.000130696
-0.00116658 0.000706383 -2.25465e-05
0.000130696 -2.25465e-05 0.00112851
0.0131957 -0.00250689 0.000280599
-0.00250689 0.000930142 -0.000153003
0.000280599 -0.000153003 4.71642e-06
0.0105175 0.00499184 -0.000723657
0.00499184 0.00136375 0.000434699
-0.000723657 0.000434699 -0.00271064
0.0142852 0.00444112 0.000136393
0.00444112 0.0056199 0.000242804
0.000136393 0.000242804 0.00272701
0.0076807 -0.00246037 -0.000119281
-0.00246037 0.000117309 -3.93845e-06
-0.000119281 -3.93845e-06 0.000737976
0.0170389 -0.00453993 2.9204e-05
-0.00453993 0.00372915 -3.6283e-05
2.9204e-05 -3.6283e-05 0.00121682
0.00899898 0.00292407 0.000140988
0.00292407 0.00365847 -0.000372002
0.000140988 -0.000372002 -0.00107591
0.0126897 0.00127558 8.9157e-06
0.00127558 -6.49309e-05 4.41661e-05
8.9157e-06 4.41661e-05 -0.000116497
0.00277344 -0.00252869 -6.89675e-05
-0.00252869 1.22387e-05 8.43436e-05
-6.89675e-05 8.43436e-05 0.000104849
0.0104968 -0.0046723 0.000178726
-0.0046723 0.0044562 -0.000111855
0.000178726 -0.000111855 0.000143875
0.0101213 -0.000303824 0.000123077
-0.000303824 0.00508328 -0.000470963
0.000123077 -0.000470963 0.00189121
0.0124695 0.00024879 -0.000149645
0.00024879 -0.00124491 0.000266952
-0.000149645 0.000266952 0.000777291
0.00037753 7.65338e-05 5.76207e-06
7.65338e-05 8.46483e-05 1.28222e-05
5.76207e-06 1.28222e-05 -0.00012887
0.000683438 -0.000131126 5.60837e-07
-0.000131126 0.00029055 -7.5167e-08
5.60837e-07 -7.5167e-08 4.4385e-05
0.000835456 0.000119648 2.12092e-06
0.000119648 0.000329453 -4.88607e-06
2.12092e-06 -4.88607e-06 0.000172351
0.000508633 0.000139872 3.48182e-06
0.000139872 4.03356e-05 1.31114e-05
3.48182e-06 1.31114e-05 -0.000103721
0.000826776 0.000196423 2.3368e-07
0.000196423 0.000304351 4.53143e-07
2.3368e-07 4.53143e-07 0.000107156
0.00107793 0.000111675 -4.40353e-06
0.000111675 0.000466752 -5.31032e-06
-4.40353e-06 -5.31032e-06 0.000303798
0.00105432 0.000177714 -1.54606e-06
0.000177714 0.000439296 2.24637e-08
-1.54606e-06 2.24637e-08 0.000258222
0.00106251 0.000187744 1.31027e-06
0.000187744 0.000468946 1.52885e-06
1.31027e-06 1.52885e-06 0.000283673
0.000744409 -0.000678908 0.000128719
-0.000678908 -0.000872041 -6.9998e-05
0.000128719 -6.9998e-05 -0.000696742
0.000256973 -0.000699631 -3.08022e-05
-0.000699631 -0.000708102 -1.30585e-06
-3.08022e-05 -1.30585e-06 -0.000651925
0.000942902 -0.000229124 4.25479e-06
-0.000229124 0.000475272 -3.02906e-05
4.25479e-06 -3.02906e-05 0.000177536
0.00184215 -0.000715297 2.09731e-05
-0.000715297 0.000948643 -2.30274e-05
2.09731e-05 -2.30274e-05 0.000601136
0.00245438 -0.000488774 -2.22666e-05
-0.000488774 0.0014342 2.24488e-05
-2.22666e-05 2.24488e-05 0.00103295
0.00165375 -0.000167106 5.95418e-06
-0.000167106 0.000924667 -2.26794e-05
5.95418e-06 -2.26794e-05 0.000624885
6.83866e-05 -4.71202e-06 3.48715e-06
-4.71202e-06 -0.000104309 7.33168e-06
3.48715e-06 7.33168e-06 -0.000315347
0.000615094 -0.00129261 -9.62621e-06
-0.00129261 -0.00060004 -5.22007e-06
-9.62621e-06 -5.22007e-06 -0.000718168
0.00134458 -2.31213e-05 -7.63832e-07
-2.31213e-05 0.000863576 -6.1886e-07
-7.63832e-07 -6.1886e-07 0.00052613
0.000189599 -0.000238768 -3.75481e-06
-0.000238768 0.000260797 5.92486e-06
-3.75481e-06 5.92486e-06 -0.000182522
-0.000401225 -0.00041882 2.33777e-05
-0.00041882 -0.000499933 -1.32459e-07
2.33777e-05 -1.32459e-07 -0.000480096
0.000878351 0.000117741 2.82578e-06
0.000117741 0.000405571 6.80324e-06
2.82578e-06 6.80324e-06 0.000210739
0.000122792 -0.00120895 -6.17686e-05
-0.00120895 -0.000221761 -2.39235e-05
-6.17686e-05 -2.39235e-05 -0.000534927
-0.000967229 -0.000442133 -2.06548e-05
-0.000442133 -0.000473571 2.90041e-05
-2.06548e-05 2.90041e-05 -0.000784215
0.000104821 0.000149682 1.62244e-05
0.000149682 0.000416412 -2.46129e-05
1.62244e-05 -2.46129e-05 -0.000104341
0.00158264 0.000262856 -1.36606e-06
0.000262856 0.00105034 -1.57807e-08
-1.36606e-06 -1.57807e-08 0.000730212
-0.00120147 0.000113615 0.000133433
0.000113615 0.00173219 2.84735e-05
0.000133433 2.84735e-05 0.000688911
0.000361969 -8.87895e-06 0.00016712
-8.87895e-06 0.00125747 -3.49419e-05
0.00016712 -3.49419e-05 -0.0030303
-0.0120269 -0.000380817 -0.000293622
-0.000380817 0.00624332 2.80911e-05
-0.000293622 2.80911e-05 0.000533599
0.00174301 0.000602605 2.04869e-05
0.000602605 0.00102011 4.08759e-06
2.04869e-05 4.08759e-06 0.000688884
-0.000665894 0.000728331 1.2953e-05
0.000728331 -0.000261525 1.06259e-05
1.2953e-05 1.06259e-05 -0.000733811
0.00562083 0.000918583 0.000350378
0.000918583 0.0039137 7.15562e-05
0.000350378 7.15562e-05 0.00123722
0.0087787 0.00399742 0.000255933
0.00399742 0.00313742 0.00020718
0.000255933 0.00020718 -0.00100657
0.00452565 0.00268027 -0.000110154
0.00268027 0.00252991 -0.000106379
-0.000110154 -0.000106379 0.00108614
0.00441232 -0.00230361 -0.000175522
-0.00230361 0.00438809 -0.000468066
-0.000175522 -0.000468066 0.000318524
0.00289919 0.000688232 0.000140915
0.000688232 0.000423268 0.00018467
0.000140915 0.00018467 -0.00121502
0.00798248 -0.00028748 -5.46243e-05
-0.00028748 -0.00545195 -0.000245943
-5.46243e-05 -0.000245943 -0.00227423
0.000995285 0.000538742 5.72147e-06
0.000538742 0.000763941 1.45641e-06
5.72147e-06 1.45641e-06 0.000355986
-0.00270345 0.000141468 -2.80773e-06
0.000141468 0.000227552 3.4727e-06
-2.80773e-06 3.4727e-06 -0.000516837
0.00469977 -0.00015685 0.000123259
-0.00015685 -0.000234512 2.13472e-05
0.000123259 2.13472e-05 -0.000942577
-0.0018079 0.000466259 -1.4994e-05
0.000466259 -0.000233011 -1.15456e-05
-1.4994e-05 -1.15456e-05 -0.000999287
0.0124066 0.00142504 -2.84293e-06
0.00142504 -5.29404e-05 -4.73619e-05
-2.84293e-06 -4.73619e-05 -0.000134936
0.00288908 0.00206198 0.000240109
0.00206198 0.00407534 0.000145401
0.000240109 0.000145401 -0.00175578
0.00770935 0.000699407 -0.000181325
0.000699407 0.00331737 5.52538e-06
-0.000181325 5.52538e-06 -0.000570864
0.000316486 0.000458971 7.7498e-06
0.000458971 0.000541136 -2.38325e-05
7.7498e-06 -2.38325e-05 -1.2467e-05
0.00164399 -2.37479e-05 1.7463e-06
-2.37479e-05 0.000430941 -1.20455e-05
1.7463e-06 -1.20455e-05 -0.000123091
0.00399706 -0.00131725 9.42276e-05
-0.00131725 0.00330134 -0.000250764
9.42276e-05 -0.000250764 0.0013527
0.021331 0.00513499 0.000321855
0.00513499 0.00672175 -0.000295641
0.000321855 -0.000295641 0.00408132
0.00939644 -0.000189175 -0.000119037
-0.000189175 0.00525529 0.000486053
-0.000119037 0.000486053 0.00176824
-2.9842e-05 0.000450762 -2.97751e-05
0.000450762 0.000734353 -0.000136608
-2.97751e-05 -0.000136608 -1.87436e-06
0.00451728 0.00141855 0.000271728
0.00141855 0.0063869 2.67089e-05
0.000271728 2.67089e-05 -0.00213594
0.00124596 0.000358062 8.47546e-06
0.000358062 0.000923113 1.15247e-05
8.47546e-06 1.15247e-05 0.000535069
0.000658697 0.000262716 4.12588e-06
0.000262716 0.000748619 2.98918e-06
4.12588e-06 2.98918e-06 0.000297449
0.000536087 -3.77945e-05 -1.44221e-05
-3.77945e-05 0.000834394 4.96108e-06
-1.44221e-05 4.96108e-06 0.000439151
-0.000672559 -2.79898e-05 1.89661e-06
-2.79898e-05 -0.000592697 1.34192e-06
1.89661e-06 1.34192e-06 -0.000750223
0.000182802 -2.26658e-05 4.48206e-06
-2.26658e-05 0.000390894 3.94648e-07
4.48206e-06 3.94648e-07 -4.6766e-05
-3.58855e-05 4.69278e-05 3.53524e-06
4.69278e-05 0.000400949 -5.82599e-06
3.53524e-06 -5.82599e-06 -0.0001152
0.000130524 -2.86703e-05 1.96357e-07
-2.86703e-05 0.000201558 7.73305e-07
1.96357e-07 7.73305e-07 -6.21273e-05
-7.49372e-05 -4.426e-05 3.13841e-06
-4.426e-05 0.00031435 1.16556e-06
3.13841e-06 1.16556e-06 -0.00012104
0.00167023 -0.000398026 4.95151e-06
-0.000398026 0.00111509 -1.0695e-05
4.95151e-06 -1.0695e-05 0.000774891
0.000717708 -9.03398e-05 -6.17592e-06
-9.03398e-05 0.000393053 6.20423e-06
-6.17592e-06 6.20423e-06 0.000243801
0.000144909 -1.13757e-06 -3.62686e-07
-1.13757e-06 -0.000106156 2.0212e-06
-3.62686e-07 2.0212e-06 -0.00023513
0.00134036 -0.00029525 6.20523e-07
-0.00029525 0.000607004 5.7034e-06
6.20523e-07 5.7034e-06 0.000436575
-0.00328143 -8.2341e-05 1.89545e-05
-8.2341e-05 -0.00197958 2.25011e-05
1.89545e-05 2.25011e-05 -0.00231641
-0.000511321 -0.000103016 1.43001e-05
-0.000103016 -0.000501775 -1.84291e-06
1.43001e-05 -1.84291e-06 -0.000515299
-9.9964e-05 -0.000345599 -1.14865e-06
-0.000345599 -0.000339655 -5.63159e-06
-1.14865e-06 -5.63159e-06 -0.000603038
0.00136562 -0.000576079 -1.29576e-06
-0.000576079 0.000391978 1.37661e-08
-1.29576e-06 1.37661e-08 -9.26812e-05
0.00172801 -0.000684276 -9.1258e-06
-0.000684276 0.000496933 8.53316e-07
-9.1258e-06 8.53316e-07 3.52231e-05
0.00163811 -0.000368676 6.15696e-06
-0.000368676 0.000650181 -4.28032e-06
6.15696e-06 -4.28032e-06 0.000436704
0.00132114 -0.000511314 6.47434e-07
-0.000511314 0.000388022 4.734e-07
6.47434e-07 4.734e-07 1.22421e-05
0.0016295 -0.000584142 3.51484e-06
-0.000584142 0.000444522 -3.99409e-06
3.51484e-06 -3.99409e-06 4.43089e-05
0.00138689 -0.000431056 -2.55913e-06
-0.000431056 0.000401782 8.3813e-06
-2.55913e-06 8.3813e-06 8.81263e-05
0.00107214 -0.000492269 2.26855e-06
-0.000492269 0.000147059 -4.5591e-06
2.26855e-06 -4.5591e-06 -0.000232727
0.000794094 -0.000185432 6.62485e-07
-0.000185432 0.000232502 -5.93991e-06
6.62485e-07 -5.93991e-06 -2.91885e-05
0.00108477 -0.000362072 -5.62616e-06
-0.000362072 0.000329408 3.02923e-06
-5.62616e-06 3.02923e-06 6.84944e-05
-0.00095821 -0.000173488 1.27391e-06
-0.000173488 -0.00100639 -9.89187e-06
1.27391e-06 -9.89187e-06 -0.001242
-3.41657e-05 -5.99834e-05 6.5428e-07
-5.99834e-05 -0.000261417 -2.6289e-06
6.5428e-07 -2.6289e-06 -0.000468308
0.000310076 -0.000144167 2.39499e-07
-0.000144167 2.01917e-05 2.34402e-07
2.39499e-07 2.34402e-07 -0.000252578
0.000216835 -0.00018555 1.24408e-05
-0.00018555 -6.68815e-05 6.91161e-07
1.24408e-05 6.91161e-07 -0.000292634
0.000658371 -0.000136401 7.51504e-08
-0.000136401 0.000207437 1.93783e-06
7.51504e-08 1.93783e-06 -9.73123e-06
0.000703498 -0.000124364 1.06338e-07
-0.000124364 0.000183162 3.62527e-07
1.06338e-07 3.62527e-07 1.42997e-05
0.000537375 -9.60247e-06 1.45459e-06
-9.60247e-06 5.0799e-05 6.25953e-06
1.45459e-06 6.25953e-06 -5.95841e-05
0.00107186 -0.000160015 -1.4437e-06
-0.000160015 0.000431105 -1.13793e-06
-1.4437e-06 -1.13793e-06 0.000268553
0.000587982 -1.52885e-05 -1.23231e-06
-1.52885e-05 8.08611e-05 -3.35128e-07
-1.23231e-06 -3.35128e-07 -1.4422e-05
0.000388922 4.92635e-05 2.62267e-06
4.92635e-05 -6.20076e-05 7.35114e-06
2.62267e-06 7.35114e-06 -0.000100725
0.000702706 -7.00991e-05 1.44978e-06
-7.00991e-05 0.000154643 -3.80536e-06
1.44978e-06 -3.80536e-06 6.42561e-05
0.000447558 -2.74902e-07 -1.51655e-06
-2.74902e-07 -3.64133e-05 -5.92272e-08
-1.51655e-06 -5.92272e-08 -6.80399e-05
0.00264149 9.21279e-05 -1.85738e-06
9.21279e-05 0.00135086 2.67421e-06
-1.85738e-06 2.67421e-06 0.00135492
0.000470515 -1.89395e-05 2.89141e-06
-1.89395e-05 -2.02996e-05 -6.36619e-06
2.89141e-06 -6.36619e-06 -4.99896e-05
0.00177118 4.5961e-05 1.77834e-05
4.5961e-05 0.000796393 -1.04276e-06
1.77834e-05 -1.04276e-06 0.000801041
0.00262927 4.05212e-05 2.481e-05
4.05212e-05 0.00133981 -5.71674e-06
2.481e-05 -5.71674e-06 0.00135116
0.000261283 2.45255e-05 2.29198e-06
2.45255e-05 -0.000110236 1.70123e-06
2.29198e-06 1.70123e-06 -0.000233078
0.00021299 1.07069e-05 1.75012e-06
1.07069e-05 -0.000161759 -2.48578e-06
1.75012e-06 -2.48578e-06 -0.000237875
0.000456554 3.7562e-05 -5.6036e-07
3.7562e-05 2.58505e-05 -1.27123e-06
-5.6036e-07 -1.27123e-06 -0.000101794
0.000482492 6.37532e-06 1.5768e-06
6.37532e-06 -2.34111e-05 -4.33607e-06
1.5768e-06 -4.33607e-06 -3.83525e-05
0.000186154 1.76655e-05 -6.35619e-07
1.76655e-05 -0.00017777 -1.76801e-06
-6.35619e-07 -1.76801e-06 -0.000244861
0.000663719 5.8408e-05 -1.6325e-07
5.8408e-05 0.000168778 1.20685e-06
-1.6325e-07 1.20685e-06 4.46997e-05
0.00208704 -1.76161e-05 -1.71911e-05
-1.76161e-05 0.00099339 -4.77958e-06
-1.71911e-05 -4.77958e-06 0.00101084
0.000462302 3.3185e-06 -7.01519e-07
3.3185e-06 -3.60233e-05 -7.34684e-08
-7.01519e-07 -7.34684e-08 -4.76697e-05
0.000102049 1.68425e-05 1.48326e-06
1.68425e-05 -0.000228715 1.82057e-06
1.48326e-06 1.82057e-06 -0.000287649
0.00205127 -2.89224e-06 -4.10525e-06
-2.89224e-06 0.000971989 5.17444e-08
-4.10525e-06 5.17444e-08 0.000989693
0.000444332 3.73241e-06 -1.80927e-06
3.73241e-06 -4.62092e-05 3.5075e-06
-1.80927e-06 3.5075e-06 -5.60605e-05
0.00207568 1.29367e-05 7.60046e-06
1.29367e-05 0.000989435 4.94784e-06
7.60046e-06 4.94784e-06 0.00100634
0.000477422 -4.99503e-05 0.000147634
-4.99503e-05 0.00246893 6.34704e-05
0.000147634 6.34704e-05 0.0016803
-0.000318569 -0.000417814 -5.65119e-05
-0.000417814 0.000427513 -8.96032e-06
-5.65119e-05 -8.96032e-06 -0.00361403
0.000197721 0.000747658 -6.05847e-05
0.000747658 0.0076628 -5.19325e-05
-6.05847e-05 -5.19325e-05 0.00296141
0.000779567 0.00013706 7.57621e-07
0.00013706 0.000217698 2.07078e-07
7.57621e-07 2.07078e-07 7.10276e-05
0.000152496 8.72405e-05 6.56102e-06
8.72405e-05 -0.000183948 5.14309e-06
6.56102e-06 5.14309e-06 -0.000317836
0.00113273 0.00020277 1.07906e-05
0.00020277 0.000442491 9.05496e-06
1.07906e-05 9.05496e-06 0.000292439
0.00640841 -0.000460917 -0.000118877
-0.000460917 -0.00035678 0.000223597
-0.000118877 0.000223597 -0.00152532
0.00525192 -0.00121901 0.000103719
-0.00121901 0.00296769 1.0197e-05
0.000103719 1.0197e-05 0.00143493
0.00463409 -0.00197378 0.000216224
-0.00197378 0.00193388 -0.000271761
0.000216224 -0.000271761 -0.00285449
0.00901839 -0.00296154 -6.38245e-06
-0.00296154 0.000146344 -3.75906e-05
-6.38245e-06 -3.75906e-05 0.000950527
0.00128253 -0.00361212 -0.000458546
-0.00361212 -0.00212127 9.21332e-05
-0.000458546 9.21332e-05 -0.00457436
0.0266569 0.00454231 0.000273191
0.00454231 0.0112378 0.00018699
0.000273191 0.00018699 0.00586373
0.0075585 -0.000248996 0.000321648
-0.000248996 -0.00255676 -0.000252217
0.000321648 -0.000252217 -0.00291428
0.00403503 -0.00293292 -2.93907e-05
-0.00293292 -0.000160902 1.78775e-05
-2.93907e-05 1.78775e-05 0.000411728
0.00733064 -0.00463259 -0.000134064
-0.00463259 0.00269392 2.09744e-05
-0.000134064 2.09744e-05 -0.00212389
-0.00125566 0.00390539 -9.33964e-05
0.00390539 0.00432425 -0.000325065
-9.33964e-05 -0.000325065 -0.000845533
0.0104766 -4.33139e-07 -8.72578e-05
-4.33139e-07 -0.00345747 0.000151339
-8.72578e-05 0.000151339 -0.000704336
0.00142483 -0.00211038 -0.000111357
-0.00211038 0.00108011 4.72127e-05
-0.000111357 4.72127e-05 0.000631397
0.0108783 -0.00329928 -0.000320251
-0.00329928 0.00595301 0.000190631
-0.000320251 0.000190631 0.000746648
0.000525158 -0.000184857 6.11865e-05
-0.000184857 0.0026442 -0.000342483
6.11865e-05 -0.000342483 -0.00132335
0.00928053 -0.000702121 0.000128943
-0.000702121 -0.00194041 7.66026e-05
0.000128943 7.66026e-05 -0.00124961
0.000180926 0.000101457 1.02682e-05
0.000101457 -0.000108996 2.26141e-05
1.02682e-05 2.26141e-05 -0.000251384
0.00067467 -1.75905e-06 2.52622e-06
-1.75905e-06 0.000246591 -2.97923e-06
2.52622e-06 -2.97923e-06 2.38353e-05
0.000328302 -0.000164864 2.49511e-06
-0.000164864 -1.07878e-05 -1.17052e-05
2.49511e-06 -1.17052e-05 -0.000217621
0.00064666 0.000140588 -1.92069e-06
0.000140588 0.000131495 1.74512e-06
-1.92069e-06 1.74512e-06 -2.00308e-05
0.000767066 0.000148787 1.95884e-06
0.000148787 0.000270931 -7.04673e-06
1.95884e-06 -7.04673e-06 8.43795e-05
0.00116397 0.000200435 -4.66198e-06
0.000200435 0.000509757 -5.60722e-06
-4.66198e-06 -5.60722e-06 0.000327572
-0.000200823 -0.00111459 3.70396e-05
-0.00111459 -0.000926535 -1.69038e-05
3.70396e-05 -1.69038e-05 -0.00102215
0.000956067 -0.000396398 2.25377e-05
-0.000396398 0.000245136 -2.27397e-05
2.25377e-05 -2.27397e-05 0.000291249
0.000105825 9.2108e-05 -2.06167e-06
9.2108e-05 -6.98281e-05 -1.88495e-05
-2.06167e-06 -1.88495e-05 -0.00029729
0.00246083 -0.000490095 6.41854e-05
-0.000490095 0.00149811 -2.68882e-05
6.41854e-05 -2.68882e-05 0.00109846
0.00178646 -0.000143354 -1.81199e-07
-0.000143354 0.00107711 2.37959e-06
-1.81199e-07 2.37959e-06 0.000773047
-0.00015332 9.83506e-05 4.18674e-06
9.83506e-05 -0.000164166 4.19507e-06
4.18674e-06 4.19507e-06 -0.000383786
0.000488844 9.91975e-05 9.59172e-07
9.91975e-05 0.000355658 -3.26037e-07
9.59172e-07 -3.26037e-07 8.38013e-05
0.000743228 -0.00129502 -4.10196e-05
-0.00129502 4.14318e-05 2.27523e-06
-4.10196e-05 2.27523e-06 -0.000365528
0.000209977 -3.77522e-05 -5.53403e-06
-3.77522e-05 0.000519528 3.86529e-06
-5.53403e-06 3.86529e-06 -1.89686e-05
0.000975234 -0.000383515 -6.09634e-06
-0.000383515 0.000687121 -7.67847e-06
-6.09634e-06 -7.67847e-06 0.000282644
0.000590754 0.000166119 4.28084e-06
0.000166119 0.000402372 -1.09163e-05
4.28084e-06 -1.09163e-05 0.000151818
-0.00193269 -0.000312647 -4.63841e-05
-0.000312647 -7.13233e-05 -1.71378e-05
-4.63841e-05 -1.71378e-05 -0.00100767
0.000848756 -0.000239529 -3.13579e-05
-0.000239529 0.000984839 5.21407e-06
-3.13579e-05 5.21407e-06 0.000534678
-0.000881658 1.8486e-05 -1.3045e-05
1.8486e-05 2.35442e-06 2.61243e-06
-1.3045e-05 2.61243e-06 -0.000504714
-0.000179169 0.000228827 -1.21719e-05
0.000228827 -0.000591309 3.14586e-06
-1.21719e-05 3.14586e-06 -0.00194883
-0.00189885 0.000241781 6.71097e-05
0.000241781 0.00146188 -1.22642e-05
6.71097e-05 -1.22642e-05 0.000394095
-0.000519356 -0.000154335 0.000351127
-0.000154335 0.000624137 3.15664e-05
0.000351127 3.15664e-05 -0.00365563
0.000161081 0.000519095 4.05039e-06
0.000519095 0.000259319 1.76046e-05
4.05039e-06 1.76046e-05 -0.000174256
0.000220472 0.000831642 -2.36644e-05
0.000831642 0.00041836 -1.17639e-05
-2.36644e-05 -1.17639e-05 -0.000264824
-0.00244125 9.30347e-05 -5.1363e-05
9.30347e-05 0.000309031 -2.48663e-05
-5.1363e-05 -2.48663e-05 -0.000580369
-0.00484131 0.000722261 7.39183e-05
0.000722261 0.00271309 0.00019775
7.39183e-05 0.00019775 -0.00281403
3.76654e-05 0.00110991 -0.000178679
0.00110991 -0.00152245 -0.000491901
-0.000178679 -0.000491901 -0.00631516
0.00391564 -1.55019e-05 9.0892e-05
-1.55019e-05 -0.000337059 9.07791e-05
9.0892e-05 9.07791e-05 -0.000500108
0.00696039 -5.65813e-05 -0.000316863
-5.65813e-05 -0.00241853 0.000251293
-0.000316863 0.000251293 -0.00296314
0.000184943 0.000374715 -8.16285e-07
0.000374715 0.000510773 -6.02529e-07
-8.16285e-07 -6.02529e-07 3.07889e-05
0.00110271 3.1618e-05 3.42041e-05
3.1618e-05 0.000353872 -9.64116e-06
3.42041e-05 -9.64116e-06 -0.000180682
0.00437541 -0.000941691 -9.94058e-05
-0.000941691 0.0029477 -1.01393e-06
-9.94058e-05 -1.01393e-06 0.00136569
-0.000505057 0.000706191 -0.000141298
0.000706191 0.00119333 -7.48664e-06
-0.000141298 -7.48664e-06 -0.000296695
0.0154041 0.00520005 -1.05433e-05
0.00520005 0.00379282 -0.00041798
-1.05433e-05 -0.00041798 0.00101348
0.000679278 0.00331109 8.73671e-05
0.00331109 0.00470601 0.000337745
8.73671e-05 0.000337745 -0.000661854
0.00512379 0.000796086 6.4236e-05
0.000796086 0.00589408 -2.00888e-05
6.4236e-05 -2.00888e-05 -0.00151559
0.000503279 -1.02704e-05 3.92074e-05
-1.02704e-05 0.00141506 -2.60061e-05
3.92074e-05 -2.60061e-05 0.000326973
1.13765e-05 -0.000149653 -0.000132677
-0.000149653 0.00261314 3.49687e-06
-0.000132677 3.49687e-06 0.00163458
0.00184804 -0.000936908 0.00074285
-0.000936908 0.000645254 -0.000263802
0.00074285 -0.000263802 -0.00436604
0.0203717 0.00777199 -7.71817e-05
0.00777199 0.0137805 -8.20543e-06
-7.71817e-05 -8.20543e-06 0.00992161
0.00751513 0.00392247 -9.39207e-05
0.00392247 0.00231371 0.000844544
-9.39207e-05 0.000844544 -0.00225067
0.0119854 -0.00364373 0.000302007
-0.00364373 0.00621067 -0.000245632
0.000302007 -0.000245632 0.000254689
0.00346876 -0.000790004 -6.83414e-05
-0.000790004 0.00330528 3.54918e-05
-6.83414e-05 3.54918e-05 0.00233487
0.000785372 0.000247196 -4.95063e-06
0.000247196 0.000836862 2.86582e-06
-4.95063e-06 2.86582e-06 0.000398356
-1.9687e-05 -5.88407e-05 -6.27935e-06
-5.88407e-05 0.000443567 -3.83459e-06
-6.27935e-06 -3.83459e-06 8.5872e-06
0.00124281 -0.000536852 4.28279e-05
-0.000536852 0.000944218 -1.30464e-05
4.28279e-05 -1.30464e-05 0.000409763
0.000326388 -7.74142e-05 -1.89173e-06
-7.74142e-05 0.000274003 5.14718e-06
-1.89173e-06 5.14718e-06 5.53371e-05
-8.87676e-05 -6.11792e-05 -1.06568e-06
-6.11792e-05 0.000272516 -1.43905e-05
-1.06568e-06 -1.43905e-05 -0.000137989
0.000518157 -0.000312206 -4.63022e-06
-0.000312206 0.000567803 3.8075e-07
-4.63022e-06 3.8075e-07 0.000211055
0.00108104 -0.00062887 2.23493e-05
-0.00062887 0.00045264 -1.75342e-05
2.23493e-05 -1.75342e-05 0.000145464
0.00205422 -0.000387253 3.56084e-07
-0.000387253 0.00106427 4.45755e-07
3.56084e-07 4.45755e-07 0.000838158
0.0015833 -0.000642851 1.53025e-05
-0.000642851 0.000704247 -2.7705e-06
1.53025e-05 -2.7705e-06 0.000294889
0.00107075 -0.000584457 8.03366e-06
-0.000584457 0.000408805 1.98934e-06
8.03366e-06 1.98934e-06 -0.000241714
0.000630064 -0.000361802 -5.86273e-06
-0.000361802 6.1972e-05 -6.90875e-06
-5.86273e-06 -6.90875e-06 -0.000150138
0.00204885 -0.000659535 -2.993e-06
-0.000659535 0.000753402 -1.59783e-06
-2.993e-06 -1.59783e-06 0.000268373
0.00202105 -0.000806844 -1.02156e-05
-0.000806844 0.000626616 -7.55103e-07
-1.02156e-05 -7.55103e-07 4.26678e-05
0.00199885 -0.000875078 -1.294e-05
-0.000875078 0.00046144 2.34505e-06
-1.294e-05 2.34505e-06 -5.24478e-05
0.00185563 -0.000743918 -4.20956e-06
-0.000743918 0.000539549 2.10362e-07
-4.20956e-06 2.10362e-07 7.60208e-05
0.00168613 -0.000681045 -4.57148e-06
-0.000681045 0.000461562 1.03571e-06
-4.57148e-06 1.03571e-06 -2.41878e-06
0.00124973 -0.000508085 8.2862e-07
-0.000508085 0.000319087 -6.33233e-06
8.2862e-07 -6.33233e-06 -6.49824e-05
0.00145969 -0.000528559 8.79031e-06
-0.000528559 0.00041517 -2.27777e-06
8.79031e-06 -2.27777e-06 4.41286e-05
0.0016021 -0.000589356 6.28448e-06
-0.000589356 0.000431207 -1.79868e-06
6.28448e-06 -1.79868e-06 3.01018e-05
0.000960469 -0.000267883 8.64961e-07
-0.000267883 0.000211803 -6.39781e-07
8.64961e-07 -6.39781e-07 -4.04896e-05
0.00110122 -0.000410052 5.44558e-06
-0.000410052 0.000226841 -4.63962e-06
5.44558e-06 -4.63962e-06 -8.18511e-05
0.000288273 -0.000395005 -1.73615e-06
-0.000395005 -0.000329256 -8.52019e-06
-1.73615e-06 -8.52019e-06 -0.000679814
6.15814e-05 -7.24132e-05 1.04761e-07
-7.24132e-05 -0.000183527 -3.27458e-06
1.04761e-07 -3.27458e-06 -0.000442348
0.00104746 -0.00023137 -3.05131e-07
-0.00023137 0.000404049 6.85627e-07
-3.05131e-07 6.85627e-07 0.000134995
0.000449763 -0.000307971 -3.8653e-06
-0.000307971 -5.78576e-05 -1.59116e-06
-3.8653e-06 -1.59116e-06 -0.000323014
0.00057874 -5.26948e-05 -1.73933e-07
-5.26948e-05 7.09061e-05 7.16598e-06
-1.73933e-07 7.16598e-06 -5.71662e-05
0.000770084 -0.000117101 -3.88365e-07
-0.000117101 0.000235243 -3.22053e-08
-3.88365e-07 -3.22053e-08 2.50381e-05
-5.66706e-05 -0.000110333 1.41065e-07
-0.000110333 -0.000203012 4.75598e-06
1.41065e-07 4.75598e-06 -0.00046239
0.00118838 -0.000150213 2.87659e-07
-0.000150213 0.000498344 -7.0406e-07
2.87659e-07 -7.0406e-07 0.000317194
0.000607981 -5.51956e-05 -3.38824e-07
-5.51956e-05 9.35581e-05 -3.36662e-07
-3.38824e-07 -3.36662e-07 -1.94491e-05
0.000337112 2.24723e-05 1.9938e-06
2.24723e-05 -8.98542e-05 9.62603e-06
1.9938e-06 9.62603e-06 -0.000134871
0.000676851 -6.21948e-05 2.97531e-07
-6.21948e-05 0.000134464 -4.74092e-06
2.97531e-07 -4.74092e-06 3.73418e-05
0.000469671 1.23662e-05 -3.15328e-06
1.23662e-05 -1.77101e-05 -2.81529e-07
-3.15328e-06 -2.81529e-07 -5.35938e-05
0.00282358 9.83135e-05 -3.94728e-05
9.83135e-05 0.00147301 4.80156e-06
-3.94728e-05 4.80156e-06 0.00147686
0.000491512 -1.05627e-05 2.78827e-06
-1.05627e-05 -1.14428e-05 -6.47834e-06
2.78827e-06 -6.47834e-06 -4.21849e-05
0.00178384 6.30543e-05 2.09877e-05
6.30543e-05 0.000806649 -7.28198e-07
2.09877e-05 -7.28198e-07 0.000808697
0.00272481 6.01343e-05 3.0664e-05
6.01343e-05 0.00140111 -5.35974e-06
3.0664e-05 -5.35974e-06 0.00141053
0.0008258 0.000105413 5.38001e-06
0.000105413 0.000256368 8.55027e-07
5.38001e-06 8.55027e-07 0.000114567
0.000509182 4.90197e-05 2.60889e-06
4.90197e-05 2.62219e-05 -2.00994e-06
2.60889e-06 -2.00994e-06 -5.62658e-05
0.000453442 5.00856e-05 -7.88921e-07
5.00856e-05 2.60318e-05 -1.38052e-06
-7.88921e-07 -1.38052e-06 -0.000108941
0.000476241 6.87607e-06 1.08467e-06
6.87607e-06 -2.74863e-05 -5.29947e-06
1.08467e-06 -5.29947e-06 -4.70491e-05
0.000317457 4.02689e-05 -2.35332e-06
4.02689e-05 -9.43991e-05 -1.888e-06
-2.35332e-06 -1.888e-06 -0.00017001
0.000657529 8.09752e-05 -1.51997e-06
8.09752e-05 0.000156786 -3.49854e-06
-1.51997e-06 -3.49854e-06 2.82198e-05
0.00217791 -3.31455e-05 -2.09418e-05
-3.31455e-05 0.00105083 -4.84856e-06
-2.09418e-05 -4.84856e-06 0.001067
0.000456532 -1.68897e-06 1.19886e-07
-1.68897e-06 -4.08584e-05 -1.3837e-07
1.19886e-07 -1.3837e-07 -5.51776e-05
0.000121324 1.52949e-05 -1.73172e-06
1.52949e-05 -0.000219248 1.76457e-07
-1.73172e-06 1.76457e-07 -0.000287516
0.00212412 -1.70286e-05 -5.55374e-06
-1.70286e-05 0.00101708 1.29394e-07
-5.55374e-06 1.29394e-07 0.0010344
0.000455145 -2.40169e-07 -2.75618e-06
-2.40169e-07 -4.0944e-05 3.67079e-06
-2.75618e-06 3.67079e-06 -5.22932e-05
0.00208805 -1.4119e-06 1.25274e-05
-1.4119e-06 0.000995344 4.9347e-06
1.25274e-05 4.9347e-06 0.00101287
0.0015866 -0.00027501 -6.95324e-05
-0.00027501 0.000294645 3.43243e-05
-6.95324e-05 3.43243e-05 -0.000279621
-0.00084718 -0.000205861 7.26176e-05
-0.000205861 0.00207698 -4.04623e-06
7.26176e-05 -4.04623e-06 0.00106385
-0.000936974 -0.000384233 0.000159638
-0.000384233 0.00073348 -0.000162714
0.000159638 -0.000162714 -0.00381841
0.000131163 5.04086e-05 3.90182e-06
5.04086e-05 -0.000176774 7.38855e-06
3.90182e-06 7.38855e-06 -0.000330036
0.00246992 0.000104914 2.77188e-06
0.000104914 0.00128413 6.00671e-06
2.77188e-06 6.00671e-06 0.00110014
0.000741306 0.000154913 -4.24505e-06
0.000154913 0.000202227 -6.06302e-06
-4.24505e-06 -6.06302e-06 5.62729e-05
0.000325151 7.89807e-05 9.67485e-07
7.89807e-05 -8.43134e-05 1.05922e-06
9.67485e-07 1.05922e-06 -0.00021236
0.000354188 9.02211e-05 5.48371e-07
9.02211e-05 -6.47054e-05 -1.1231e-06
5.48371e-07 -1.1231e-06 -0.000186428
0.000334082 9.10849e-05 8.09125e-06
9.10849e-05 -6.43315e-05 1.61196e-06
8.09125e-06 1.61196e-06 -0.000189427
0.000175372 0.000121165 1.53656e-05
0.000121165 -0.000128298 6.65884e-06
1.53656e-05 6.65884e-06 -0.000250406
0.00201929 0.00111456 0.000231793
0.00111456 -0.000435706 0.000250875
0.000231793 0.000250875 -0.0018304
0.0052549 -0.000291695 -5.69238e-05
-0.000291695 -0.000177625 5.45987e-05
-5.69238e-05 5.45987e-05 -0.0012041
0.00417366 -0.000768604 0.000237766
-0.000768604 0.00290807 -0.000114368
0.000237766 -0.000114368 0.00149314
0.00835863 -0.000178944 -1.15107e-06
-0.000178944 -0.00577304 0.000185568
-1.15107e-06 0.000185568 -0.00224143
0.00538496 -0.00319214 -0.000126368
-0.00319214 0.000755304 3.85037e-05
-0.000126368 3.85037e-05 0.00103817
0.00119174 -0.00423837 -0.000291734
-0.00423837 0.00153966 9.63218e-05
-0.000291734 9.63218e-05 -0.00426318
0.0161403 0.00440906 0.000140926
0.00440906 0.00737198 -0.000168884
0.000140926 -0.000168884 0.00257864
0.00237296 -0.00253288 -5.93485e-05
-0.00253288 0.0001758 2.37762e-05
-5.93485e-05 2.37762e-05 0.000485778
-0.00131545 -0.00093367 -5.50058e-05
-0.00093367 0.00407432 5.30884e-05
-5.50058e-05 5.30884e-05 -0.00312362
0.00910091 0.000575188 0.000217393
0.000575188 0.00360361 -2.9924e-05
0.000217393 -2.9924e-05 -5.74444e-05
0.0158632 -0.00202207 -7.81684e-05
-0.00202207 0.00205608 -1.54486e-05
-7.81684e-05 -1.54486e-05 0.00325761
-0.00111758 -0.000609568 -0.000176841
-0.000609568 0.000565242 0.000151255
-0.000176841 0.000151255 0.000426605
0.00306675 0.00213195 -0.000202906
0.00213195 0.00540598 -0.000105978
-0.000202906 -0.000105978 -0.00196392
-0.00123269 -0.00546344 3.17506e-06
-0.00546344 -0.000216837 -0.000248634
3.17506e-06 -0.000248634 -0.00548353
0.0143337 -0.00298788 0.000146501
-0.00298788 0.00423583 -0.000655086
0.000146501 -0.000655086 0.00240746
0.00062709 2.02385e-05 1.72232e-05
2.02385e-05 0.000354903 1.11831e-06
1.72232e-05 1.11831e-06 0.000108065
0.000805324 0.000184685 -1.44412e-06
0.000184685 0.000308638 -4.03193e-06
-1.44412e-06 -4.03193e-06 0.000149155
0.000906158 -1.719e-05 -1.25841e-06
-1.719e-05 0.000409648 -5.69298e-06
-1.25841e-06 -5.69298e-06 0.000160833
0.000996572 0.000157305 -5.54412e-06
0.000157305 0.000376438 -1.16155e-05
-5.54412e-06 -1.16155e-05 0.000205127
0.000434032 -0.00111308 3.73718e-05
-0.00111308 -4.46823e-05 3.12255e-05
3.73718e-05 3.12255e-05 -0.000509688
0.00256751 -0.000367193 6.57884e-06
-0.000367193 0.00163538 -2.73151e-05
6.57884e-06 -2.73151e-05 0.0011502
0.000958801 0.00010917 -1.47526e-05
0.00010917 0.000513953 -2.03329e-05
-1.47526e-05 -2.03329e-05 0.000316869
0.000758997 4.30663e-05 -3.7035e-08
4.30663e-05 0.000501195 -8.38096e-06
-3.7035e-08 -8.38096e-06 0.000251442
0.000368438 -2.90977e-05 -2.50087e-06
-2.90977e-05 0.000606378 1.52186e-05
-2.50087e-06 1.52186e-05 0.000137973
0.000359416 8.0093e-05 2.13582e-06
8.0093e-05 0.000198732 3.90935e-06
2.13582e-06 3.90935e-06 -4.59202e-06
9.00322e-05 1.257e-05 1.31068e-06
1.257e-05 0.000530905 1.04292e-06
1.31068e-06 1.04292e-06 3.43614e-05
0.000642733 -0.000455671 -4.80373e-06
-0.000455671 0.00120198 6.07828e-06
-4.80373e-06 6.07828e-06 -1.81487e-05
0.000350129 -0.000131609 8.8396e-06
-0.000131609 0.000872953 -1.46729e-06
8.8396e-06 -1.46729e-06 0.00041592
-0.000632177 0.000109308 3.05583e-06
0.000109308 -0.000203394 -1.4669e-05
3.05583e-06 -1.4669e-05 -0.000461943
0.00173986 2.75799e-05 -0.000116953
2.75799e-05 0.00355108 -2.47181e-05
-0.000116953 -2.47181e-05 0.00166427
0.000920218 0.000339855 -2.5452e-05
0.000339855 0.00115946 8.34504e-06
-2.5452e-05 8.34504e-06 0.000604024
-0.00202906 5.64224e-05 -8.45791e-05
5.64224e-05 0.00177431 -2.2899e-05
-8.45791e-05 -2.2899e-05 0.000618828
0.000996303 7.61702e-05 1.7374e-05
7.61702e-05 -8.01554e-06 7.02488e-06
1.7374e-05 7.02488e-06 -0.00061784
-0.00293037 0.000334998 -2.27429e-05
0.000334998 0.00103165 -6.54599e-05
-2.27429e-05 -6.54599e-05 -7.46488e-05
0.000311924 0.000294075 -2.53682e-05
0.000294075 0.000672783 6.28501e-06
-2.53682e-05 6.28501e-06 0.000282287
-0.0013568 0.000841072 0.000148429
0.000841072 7.48209e-05 0.000110025
0.000148429 0.000110025 -0.000727676
0.000734121 3.72248e-05 6.87203e-05
3.72248e-05 0.000286995 -7.217e-06
6.87203e-05 -7.217e-06 -1.57236e-05
0.00564972 -0.00222636 0.000255327
-0.00222636 0.00583396 -0.000183529
0.000255327 -0.000183529 -0.00257392
0.0187616 0.00379602 -0.000182406
0.00379602 0.00818231 0.000162299
-0.000182406 0.000162299 0.00340019
0.00329273 -0.000688089 -0.000213195
-0.000688089 0.00223483 0.000114842
-0.000213195 0.000114842 0.000961057
0.0133618 0.0047443 -9.51332e-05
0.0047443 0.00569667 -0.000230356
-9.51332e-05 -0.000230356 0.00262303
0.000462715 0.000226989 -5.63765e-05
0.000226989 0.00123607 1.40523e-05
-5.63765e-05 1.40523e-05 0.000201431
-1.38341e-06 -0.000229202 -8.22227e-05
-0.000229202 0.00207892 1.11967e-06
-8.22227e-05 1.11967e-06 0.00136618
0.00318029 -0.00149472 0.000280889
-0.00149472 0.00157923 -4.02241e-05
0.000280889 -4.02241e-05 -0.00326374
-0.00284526 -0.000117544 4.87425e-05
-0.000117544 -0.000486614 3.19201e-05
4.87425e-05 3.19201e-05 -0.000959981
0.0144778 0.00883183 0.000635678
0.00883183 0.0103095 -0.000273019
0.000635678 -0.000273019 0.00650689
0.00851476 0.00308951 -0.000160762
0.00308951 0.0037676 0.000374897
-0.000160762 0.000374897 -0.000922655
-0.00298653 -0.00122556 0.000174944
-0.00122556 0.00285917 -0.00014394
0.000174944 -0.00014394 -0.00481545
-0.00101445 -0.000406255 1.26999e-05
-0.000406255 0.000466285 -2.93926e-05
1.26999e-05 -2.93926e-05 -0.000585681
0.000376587 -0.000808858 0.000300831
-0.000808858 -0.000160368 -7.542e-05
0.000300831 -7.542e-05 -0.00350141
-0.000493349 0.000719659 -0.00125673
0.000719659 0.0072068 0.000330249
-0.00125673 0.000330249 0.00303854
0.0190528 0.00705147 -0.000567071
0.00705147 0.00612249 0.000539987
-0.000567071 0.000539987 0.00175736
0.00758016 -0.00353955 -0.000176226
-0.00353955 0.00333818 5.76455e-05
-0.000176226 5.76455e-05 -0.000296171
0.00273116 -0.00157012 3.14621e-05
-0.00157012 0.00273529 1.13957e-06
3.14621e-05 1.13957e-06 0.00183361
0.000236103 -5.31785e-05 4.35326e-06
-5.31785e-05 0.000538494 -6.17211e-06
4.35326e-06 -6.17211e-06 7.96843e-05
2.62412e-05 -0.000380542 2.62605e-06
-0.000380542 0.000366451 -1.52647e-06
2.62605e-06 -1.52647e-06 -0.000192012
-0.000107103 -0.000665114 -1.89432e-06
-0.000665114 -9.39374e-06 2.34236e-07
-1.89432e-06 2.34236e-07 -0.000325079
-0.000415249 -0.000223655 4.85257e-07
-0.000223655 0.000133061 7.60497e-06
4.85257e-07 7.60497e-06 -0.000234301
-0.000673305 -0.000388152 1.65133e-06
-0.000388152 -0.000384977 5.53393e-07
1.65133e-06 5.53393e-07 -0.000673042
0.00307793 -0.000914716 3.79391e-05
-0.000914716 0.00129921 -1.51698e-05
3.79391e-05 -1.51698e-05 0.000893556
0.00648559 -0.00123377 -1.25329e-05
-0.00123377 0.00340167 -1.87791e-06
-1.25329e-05 -1.87791e-06 0.00291051
0.00283292 -0.000819934 1.01744e-05
-0.000819934 0.00129351 -2.72572e-06
1.01744e-05 -2.72572e-06 0.000649055
0.00179272 -0.000857654 5.24836e-06
-0.000857654 0.000450913 -1.7219e-05
5.24836e-06 -1.7219e-05 -0.000191332
0.00217943 -0.000670216 -1.0074e-05
-0.000670216 0.000800852 -7.16452e-06
-1.0074e-05 -7.16452e-06 0.000328372
0.00222401 -0.000838885 1.6629e-06
-0.000838885 0.000725513 -1.8609e-06
1.6629e-06 -1.8609e-06 0.000129706
0.00264166 -0.000964496 -3.36926e-06
-0.000964496 0.000852313 -1.13022e-05
-3.36926e-06 -1.13022e-05 0.000263417
0.00217126 -0.00076795 -5.49672e-06
-0.00076795 0.000382357 -4.40056e-06
-5.49672e-06 -4.40056e-06 -1.99174e-05
0.00251379 -0.000931312 -9.25003e-06
-0.000931312 0.000723299 1.67273e-06
-9.25003e-06 1.67273e-06 0.000226322
0.00233438 -0.000917879 -2.96151e-06
-0.000917879 0.000643173 1.7195e-08
-2.96151e-06 1.7195e-08 0.000116776
0.00174814 -0.000706875 7.48296e-06
-0.000706875 0.000503074 -3.50537e-06
7.48296e-06 -3.50537e-06 6.71931e-05
0.00156003 -0.000696053 2.88586e-06
-0.000696053 0.000370609 -9.63662e-07
2.88586e-06 -9.63662e-07 -7.45906e-05
0.0015059 -0.000658973 6.09362e-06
-0.000658973 0.000343773 -3.02537e-07
6.09362e-06 -3.02537e-07 -0.000118446
0.00165193 -0.000481109 8.77249e-06
-0.000481109 0.000570552 4.88122e-06
8.77249e-06 4.88122e-06 0.000234061
0.00146379 -0.00052596 -1.41442e-06
-0.00052596 0.000422909 -2.22841e-06
-1.41442e-06 -2.22841e-06 5.02058e-05
0.00158874 -0.000595178 6.47892e-06
-0.000595178 0.000426054 2.26378e-06
6.47892e-06 2.26378e-06 2.4538e-05
0.00122621 -0.000223822 1.12903e-06
-0.000223822 0.000469915 -4.77346e-06
1.12903e-06 -4.77346e-06 0.000199922
0.000795383 -0.000264088 -3.60289e-06
-0.000264088 0.000135073 2.46483e-06
-3.60289e-06 2.46483e-06 -0.000113472
0.000868166 -0.000392617 -5.61399e-07
-0.000392617 8.37549e-05 -1.20185e-05
-5.61399e-07 -1.20185e-05 -0.000220127
-1.30953e-05 -6.99953e-05 -1.99118e-06
-6.99953e-05 -0.000286757 4.74021e-06
-1.99118e-06 4.74021e-06 -0.000456318
0.000768563 -0.000137279 2.84816e-07
-0.000137279 0.0002541 9.08079e-07
2.84816e-07 9.08079e-07 -8.01181e-06
0.00077925 -0.000272091 3.90477e-06
-0.000272091 0.00026752 1.89751e-06
3.90477e-06 1.89751e-06 -1.45267e-05
0.000345388 -1.3678e-05 -6.17409e-06
-1.3678e-05 -9.65728e-05 1.45788e-05
-6.17409e-06 1.45788e-05 -0.000145708
0.000669674 -7.37283e-05 7.94155e-07
-7.37283e-05 0.000121144 1.56528e-07
7.94155e-07 1.56528e-07 -7.83924e-06
0.00139314 -0.000197151 -1.39739e-06
-0.000197151 0.000619146 1.97644e-06
-1.39739e-06 1.97644e-06 0.000404851
0.000689107 -6.46396e-05 5.02598e-09
-6.46396e-05 0.000142112 -5.60778e-06
5.02598e-09 -5.60778e-06 2.76848e-05
0.000434985 9.80736e-06 -5.71811e-07
9.80736e-06 -3.42195e-05 -4.96703e-07
-5.71811e-07 -4.96703e-07 -7.72235e-05
0.00295685 0.000124355 -3.97406e-05
0.000124355 0.00156701 4.76389e-06
-3.97406e-05 4.76389e-06 0.0015647
0.000516714 3.9053e-07 2.06496e-06
3.9053e-07 7.54533e-06 -7.84601e-06
2.06496e-06 -7.84601e-06 -2.65322e-05
0.00279859 0.000100701 4.95376e-06
0.000100701 0.00145746 5.79954e-07
4.95376e-06 5.79954e-07 0.00146091
0.00269207 7.92176e-05 3.35793e-05
7.92176e-05 0.00138331 -4.89838e-06
3.35793e-05 -4.89838e-06 0.00139077
0.00105896 9.77834e-05 3.97684e-06
9.77834e-05 0.000497305 -2.89838e-06
3.97684e-06 -2.89838e-06 0.000271963
0.00111399 0.000142809 6.9559e-06
0.000142809 0.000483312 -4.4394e-07
6.9559e-06 -4.4394e-07 0.000298659
0.000553598 3.92005e-05 4.07731e-06
3.92005e-05 4.99758e-05 -3.89048e-06
4.07731e-06 -3.89048e-06 -4.24023e-05
0.000593306 0.00010875 2.00211e-07
0.00010875 0.000110902 -2.64189e-07
2.00211e-07 -2.64189e-07 -2.79559e-05
0.000455319 5.36889e-08 1.44968e-06
5.36889e-08 -3.7769e-05 -6.50796e-06
1.44968e-06 -6.50796e-06 -6.25e-05
0.000523811 5.17199e-05 2.4721e-07
5.17199e-05 3.5643e-05 -1.9311e-07
2.4721e-07 -1.9311e-07 -4.68575e-05
0.000564506 5.59337e-05 -5.16252e-06
5.59337e-05 8.17117e-05 -2.64251e-06
-5.16252e-06 -2.64251e-06 -4.41797e-05
0.00231666 -4.9311e-05 -2.70276e-05
-4.9311e-05 0.00114024 -5.0283e-06
-2.70276e-05 -5.0283e-06 0.00115415
0.000466103 1.7694e-06 -7.97384e-07
1.7694e-06 -3.33586e-05 -1.58514e-07
-7.97384e-07 -1.58514e-07 -5.24117e-05
0.0004638 5.71467e-05 -3.88989e-06
5.71467e-05 -5.72736e-07 -1.1601e-07
-3.88989e-06 -1.1601e-07 -7.5785e-05
0.00218136 -3.2531e-05 -4.82625e-06
-3.2531e-05 0.00105299 2.38932e-07
-4.82625e-06 2.38932e-07 0.00106923
0.000466217 -6.70822e-07 -2.79851e-06
-6.70822e-07 -3.54471e-05 4.02399e-06
-2.79851e-06 4.02399e-06 -4.93843e-05
0.0021187 -1.6478e-05 1.64758e-05
-1.6478e-05 0.00101351 4.79565e-06
1.64758e-05 4.79565e-06 0.00103084
-0.00247927 0.000266216 -1.50945e-05
0.000266216 0.000436396 -5.03111e-05
-1.50945e-05 -5.03111e-05 -0.000135273
0.00165445 -0.000220553 -1.55298e-05
-0.000220553 0.000542011 1.72223e-07
-1.55298e-05 1.72223e-07 0.000156394
-5.76282e-05 -0.000228487 9.82967e-06
-0.000228487 0.001909 -4.06861e-05
9.82967e-06 -4.06861e-05 0.00110249
0.000798255 0.000105106 3.29711e-07
0.000105106 0.000292316 -5.67972e-07
3.29711e-07 -5.67972e-07 9.90616e-05
0.000111138 9.06713e-05 6.24829e-06
9.06713e-05 -0.000178726 -2.15627e-06
6.24829e-06 -2.15627e-06 -0.000352348
-0.00165798 -9.97183e-06 -9.54855e-07
-9.97183e-06 -0.0013062 -9.83773e-06
-9.54855e-07 -9.83773e-06 -0.00146441
-0.00103001 1.49293e-05 -7.13087e-07
1.49293e-05 -0.000853675 1.79918e-05
-7.13087e-07 1.79918e-05 -0.00102044
0.00283067 0.00039654 -7.2062e-08
0.00039654 0.00153492 -9.62351e-08
-7.2062e-08 -9.62351e-08 0.00126092
0.00109436 4.70915e-05 -6.40907e-06
4.70915e-05 0.000388384 -5.14048e-06
-6.40907e-06 -5.14048e-06 0.000259691
0.000469797 0.000111366 -1.08022e-05
0.000111366 1.02329e-05 -1.04557e-05
-1.08022e-05 -1.04557e-05 -0.000108507
0.000859446 5.52414e-05 8.13427e-07
5.52414e-05 0.000261198 -4.52711e-07
8.13427e-07 -4.52711e-07 0.000138027
0.00103886 0.00017402 -1.13849e-06
0.00017402 0.000397935 -3.10474e-06
-1.13849e-06 -3.10474e-06 0.000271671
0.00116676 0.000138771 8.94688e-06
0.000138771 0.000633938 -1.79334e-05
8.94688e-06 -1.79334e-05 0.000399205
0.00584074 0.0010845 0.000428682
0.0010845 0.00419034 0.000511563
0.000428682 0.000511563 -0.000604003
0.00248003 0.000890664 2.25017e-05
0.000890664 0.000141847 9.06232e-05
2.25017e-05 9.06232e-05 -0.00149311
0.00461384 -0.000223118 5.41616e-05
-0.000223118 -0.000224323 -2.00332e-05
5.41616e-05 -2.00332e-05 -0.000782378
0.0141634 -0.00159805 -0.000286755
-0.00159805 0.00214781 -0.000134366
-0.000286755 -0.000134366 0.00384617
-0.00297001 0.00126725 7.08519e-05
0.00126725 -0.00229323 0.000424095
7.08519e-05 0.000424095 -0.00707822
0.00188942 -0.00249543 -5.47597e-05
-0.00249543 0.000481275 -3.66903e-05
-5.47597e-05 -3.66903e-05 0.000560723
0.00807616 -0.00219139 -0.000155359
-0.00219139 0.00528891 3.98451e-05
-0.000155359 3.98451e-05 -5.07462e-05
0.000754866 -0.00105846 -0.000102805
-0.00105846 0.000880475 0.000116949
-0.000102805 0.000116949 0.000507235
0.00988307 -4.41968e-05 -0.000175416
-4.41968e-05 0.00673532 1.15583e-06
-0.000175416 1.15583e-06 6.62362e-05
0.00587867 -0.00269361 9.49726e-05
-0.00269361 0.00387512 0.000198829
9.49726e-05 0.000198829 -0.00126027
0.0177161 -0.00442093 -0.000115706
-0.00442093 0.00359066 -0.00075831
-0.000115706 -0.00075831 0.00113342
0.0024324 7.26069e-05 -0.000153446
7.26069e-05 0.00297744 0.000115596
-0.000153446 0.000115596 0.00176445
0.0129013 0.00272177 -0.000227984
0.00272177 0.00742729 -4.34686e-06
-0.000227984 -4.34686e-06 0.002095
0.0200917 -0.00704983 -0.000107885
-0.00704983 0.010332 -0.000754121
-0.000107885 -0.000754121 0.00516442
0.0239444 -0.00907826 9.10776e-05
-0.00907826 0.00992951 -7.34752e-05
9.10776e-05 -7.34752e-05 0.00649424
0.000857759 0.000301845 1.74079e-05
0.000301845 0.000520152 -8.17676e-06
1.74079e-05 -8.17676e-06 0.000185301
-6.62996e-05 4.62135e-05 3.91043e-06
4.62135e-05 8.70671e-06 2.16233e-06
3.91043e-06 2.16233e-06 -0.000289788
0.00101544 0.000191403 -1.65291e-05
0.000191403 0.000457376 -1.76496e-05
-1.65291e-05 -1.76496e-05 0.000282526
0.00228938 -0.000653252 4.90512e-05
-0.000653252 0.0016824 1.99837e-05
4.90512e-05 1.99837e-05 0.000227285
-0.000220897 -0.000115855 3.0052e-05
-0.000115855 0.000737421 -3.24634e-05
3.0052e-05 -3.24634e-05 0.000211498
-8.13855e-05 7.28614e-05 -6.72408e-06
7.28614e-05 -7.47137e-05 -9.93171e-07
-6.72408e-06 -9.93171e-07 -0.000271104
-0.000411319 -4.66728e-05 1.62212e-05
-4.66728e-05 0.000274525 -3.68397e-06
1.62212e-05 -3.68397e-06 -0.000258609
-3.43597e-05 0.000130954 -7.87768e-07
0.000130954 0.000125692 -7.17148e-07
-7.87768e-07 -7.17148e-07 -0.000141331
0.000227735 0.000318818 1.54917e-05
0.000318818 0.000621629 2.45988e-06
1.54917e-05 2.45988e-06 4.93748e-05
-0.00222707 -4.84364e-05 0.000251993
-4.84364e-05 0.000970285 -2.71031e-05
0.000251993 -2.71031e-05 -0.000965478
-0.000772726 0.000417011 -6.58038e-07
0.000417011 -0.000395517 1.24613e-05
-6.58038e-07 1.24613e-05 -0.000786098
0.00274483 0.000959072 -0.000146342
0.000959072 0.00221029 -8.96585e-05
-0.000146342 -8.96585e-05 0.000742066
0.00117007 0.000179439 0.000195779
0.000179439 0.00173894 6.73679e-05
0.000195779 6.73679e-05 -0.00254849
-0.00234174 0.000221621 -7.28836e-05
0.000221621 0.00151043 1.38394e-05
-7.28836e-05 1.38394e-05 0.000223939
0.00253881 -0.000258984 -3.40527e-05
-0.000258984 0.000823458 -3.39653e-06
-3.40527e-05 -3.39653e-06 0.000871316
-0.000461441 0.000532996 0.000118326
0.000532996 0.000556821 1.33787e-05
0.000118326 1.33787e-05 -0.00054351
0.00126628 0.000309362 -0.000109154
0.000309362 0.00251723 0.000103465
-0.000109154 0.000103465 0.00106176
-0.000373657 -0.000263314 -7.70237e-06
-0.000263314 0.00176716 -1.35141e-05
-7.70237e-06 -1.35141e-05 0.0008514
0.0165339 -0.00430599 0.000242463
-0.00430599 0.00853485 -0.000116663
0.000242463 -0.000116663 0.00218601
0.0235631 0.00503607 -0.000194338
0.00503607 0.0109166 -0.000168299
-0.000194338 -0.000168299 0.00551571
0.00511942 -0.00172652 -0.000296206
-0.00172652 0.00262699 0.000266757
-0.000296206 0.000266757 -0.00193254
0.00698649 0.0101802 0.00260646
0.0101802 0.00609134 -0.00160986
0.00260646 -0.00160986 0.00210289
0.00118628 -0.000552095 4.18006e-05
-0.000552095 0.00156932 -1.27279e-05
4.18006e-05 -1.27279e-05 0.00044104
-0.00034884 -0.000577654 4.95646e-05
-0.000577654 0.000463153 1.25975e-05
4.95646e-05 1.25975e-05 -0.00349956
0.000594273 0.00116875 -0.00122403
0.00116875 0.00686251 0.000336538
-0.00122403 0.000336538 0.00231059
0.000473514 -0.000877694 1.72195e-05
-0.000877694 0.00132857 3.06711e-05
1.72195e-05 3.06711e-05 0.000537629
0.0200565 0.00651416 0.000372706
0.00651416 0.00656778 0.000101277
0.000372706 0.000101277 0.00207467
0.00764789 -0.00527531 0.000220168
-0.00527531 0.00255413 -8.02327e-05
0.000220168 -8.02327e-05 -0.0014687
0.000649785 -0.00129504 -1.65061e-06
-0.00129504 0.000606597 2.88178e-05
-1.65061e-06 2.88178e-05 -0.000287383
-0.00603807 -0.00185199 0.000155579
-0.00185199 0.00595968 -8.60035e-05
0.000155579 -8.60035e-05 0.00178906
0.0161606 0.00641111 -0.00164594
0.00641111 0.00636456 0.000522572
-0.00164594 0.000522572 0.00292558
0.00641492 -0.00392324 -0.000465131
-0.00392324 -0.000503992 0.000195922
-0.000465131 0.000195922 -0.00371599
0.000777834 -0.00203136 0.000191449
-0.00203136 -2.60972e-05 -0.000130646
0.000191449 -0.000130646 0.000891423
0.00119808 -0.000559993 -0.000106568
-0.000559993 0.000886846 3.45286e-05
-0.000106568 3.45286e-05 0.000384646
0.000764368 -0.00062066 -6.4954e-06
-0.00062066 0.000526148 1.16665e-05
-6.4954e-06 1.16665e-05 0.000147057
0.00310568 -0.000947013 1.65053e-05
-0.000947013 0.00141466 -1.58981e-05
1.65053e-05 -1.58981e-05 0.00100318
-0.00126029 -0.000209647 8.69024e-06
-0.000209647 -0.000541783 8.47742e-06
8.69024e-06 8.47742e-06 -0.000828592
0.00126317 -0.000682471 3.73974e-06
-0.000682471 0.000351312 -3.428e-06
3.73974e-06 -3.428e-06 -3.1416e-05
0.00326444 -0.00105429 8.26252e-06
-0.00105429 0.00105176 -3.31653e-06
8.26252e-06 -3.31653e-06 0.000629614
0.00424407 -0.00100429 -2.84757e-05
-0.00100429 0.0020018 1.46339e-06
-2.84757e-05 1.46339e-06 0.0013667
0.001425 -0.000780384 -1.44285e-06
-0.000780384 0.00024797 -1.41022e-06
-1.44285e-06 -1.41022e-06 -0.000368445
0.00205603 -0.000980101 4.02968e-07
-0.000980101 0.000339177 -1.15922e-05
4.02968e-07 -1.15922e-05 -0.00015341
0.00286256 -0.000925869 4.0122e-06
-0.000925869 0.00106419 6.58393e-06
4.0122e-06 6.58393e-06 0.000451471
0.00224091 -0.000918568 1.73379e-06
-0.000918568 0.000606567 -4.30949e-06
1.73379e-06 -4.30949e-06 3.992e-05
0.00257308 -0.000825287 -2.29744e-06
-0.000825287 0.000563045 -9.64977e-06
-2.29744e-06 -9.64977e-06 0.000162484
0.00177865 -0.000531383 -4.50741e-06
-0.000531383 -1.21053e-06 -2.38532e-06
-4.50741e-06 -2.38532e-06 -0.000252397
0.00192295 -0.000767321 -1.02676e-06
-0.000767321 0.000185477 -1.63983e-06
-1.02676e-06 -1.63983e-06 -0.000215589
0.00219523 -0.000774487 3.11704e-06
-0.000774487 0.000385958 -2.73416e-06
3.11704e-06 -2.73416e-06 -1.60164e-05
0.00234832 -0.000820374 -4.59617e-06
-0.000820374 0.000689299 -6.47742e-07
-4.59617e-06 -6.47742e-07 0.000242905
0.00247487 -0.000926119 -3.16669e-06
-0.000926119 0.000710316 1.05872e-08
-3.16669e-06 1.05872e-08 0.000208972
0.00257528 -0.000950279 8.8859e-06
-0.000950279 0.000769242 -5.07731e-06
8.8859e-06 -5.07731e-06 0.000232054
0.00190081 -0.000621525 7.05907e-06
-0.000621525 0.000648363 -3.683e-08
7.05907e-06 -3.683e-08 0.000249317
0.00147827 -0.000666099 2.38709e-06
-0.000666099 0.000355076 -5.02925e-07
2.38709e-06 -5.02925e-07 -6.7951e-05
0.00130758 -0.000656501 3.77736e-06
-0.000656501 0.000225977 1.49505e-06
3.77736e-06 1.49505e-06 -0.000202823
0.00137764 -0.000351427 2.19401e-07
-0.000351427 0.000459771 1.28309e-07
2.19401e-07 1.28309e-07 0.000185122
0.00118789 -0.00041693 1.13856e-06
-0.00041693 0.000300494 -1.06941e-07
1.13856e-06 -1.06941e-07 -1.97415e-05
0.00154118 -0.000530278 -5.2075e-06
-0.000530278 0.000478193 2.87372e-07
-5.2075e-06 2.87372e-07 0.000101996
-0.000306185 -0.000109267 -2.26175e-06
-0.000109267 -0.000475413 2.13709e-06
-2.26175e-06 2.13709e-06 -0.000701808
0.000696613 -0.000236164 -8.06248e-07
-0.000236164 0.000158517 -7.38414e-07
-8.06248e-07 -7.38414e-07 -0.000121109
0.000942173 -0.000289733 -4.17674e-06
-0.000289733 0.000253418 5.52622e-07
-4.17674e-06 5.52622e-07 2.64032e-08
0.00191011 1.44962e-05 -5.00701e-05
1.44962e-05 0.000901112 9.19253e-06
-5.00701e-05 9.19253e-06 0.000849694
0.000709123 -0.000120649 -1.83891e-07
-0.000120649 0.000149959 -4.61723e-07
-1.83891e-07 -4.61723e-07 -2.18265e-05
0.00129846 -0.000202479 3.13322e-07
-0.000202479 0.000584619 4.52274e-06
3.13322e-07 4.52274e-06 0.000315109
0.000758818 3.34995e-05 -5.4421e-05
3.34995e-05 0.000171672 6.30388e-06
-5.4421e-05 6.30388e-06 0.000160152
0.0011529 7.7569e-06 -1.80063e-05
7.7569e-06 0.000417404 -6.17128e-07
-1.80063e-05 -6.17128e-07 0.000369821
0.000849648 -9.20098e-05 3.62597e-06
-9.20098e-05 0.000227898 -6.1786e-06
3.62597e-06 -6.1786e-06 9.75985e-05
0.00059179 1.0934e-06 2.94416e-06
1.0934e-06 5.99509e-05 -9.91023e-06
2.94416e-06 -9.91023e-06 1.7709e-05
0.00304517 0.000124528 8.72028e-06
0.000124528 0.00162298 7.64253e-07
8.72028e-06 7.64253e-07 0.00162074
0.00281078 0.000100718 3.83099e-05
0.000100718 0.00146533 -4.75496e-06
3.83099e-05 -4.75496e-06 0.00146895
0.000938237 0.000164634 1.31436e-05
0.000164634 0.000387054 -1.63229e-06
1.31436e-05 -1.63229e-06 0.000143789
0.00148154 0.000186979 5.05582e-06
0.000186979 0.000734983 -1.2387e-06
5.05582e-06 -1.2387e-06 0.000510388
-0.00020133 4.05685e-05 1.00974e-06
4.05685e-05 -0.000323858 1.48799e-07
1.00974e-06 1.48799e-07 -0.000520045
0.000651041 4.84281e-05 3.35289e-06
4.84281e-05 0.000118103 -5.68002e-06
3.35289e-06 -5.68002e-06 9.27203e-06
0.000780801 0.000116582 5.53519e-07
0.000116582 0.000251423 2.77652e-07
5.53519e-07 2.77652e-07 8.28186e-05
0.000445115 9.60204e-06 -1.16407e-06
9.60204e-06 -3.81297e-05 -8.41433e-06
-1.16407e-06 -8.41433e-06 -6.90613e-05
0.000553382 4.65943e-05 -1.20538e-07
4.65943e-05 5.58529e-05 -3.97207e-07
-1.20538e-07 -3.97207e-07 -3.82645e-05
0.000685558 5.45448e-05 -4.74546e-06
5.45448e-05 0.000193357 2.11277e-08
-4.74546e-06 2.11277e-08 3.86771e-05
0.00256605 -6.82082e-05 -3.56237e-05
-6.82082e-05 0.00130244 -4.95295e-06
-3.56237e-05 -4.95295e-06 0.00131302
0.00044113 2.91838e-06 -3.84031e-07
2.91838e-06 -4.5891e-05 -9.48511e-08
-3.84031e-07 -9.48511e-08 -7.06202e-05
0.000537974 5.73344e-05 -1.6053e-06
5.73344e-05 4.58428e-05 2.40112e-06
-1.6053e-06 2.40112e-06 -3.7248e-05
0.0023446 -5.00633e-05 -6.20633e-06
-5.00633e-05 0.00115807 3.80332e-07
-6.20633e-06 3.80332e-07 0.00117178
0.00042888 -1.06234e-05 -4.84642e-06
-1.06234e-05 -5.65149e-05 4.95961e-06
-4.84642e-06 4.95961e-06 -7.52371e-05
0.00220906 -3.13289e-05 2.20182e-05
-3.13289e-05 0.00107049 4.76309e-06
2.20182e-05 4.76309e-06 0.00108682
0.00663792 0.000744149 0.000362003
0.000744149 0.00398277 8.235e-05
0.000362003 8.235e-05 0.00153999
-0.00213979 0.000188909 -3.97067e-06
0.000188909 0.000386489 -8.55296e-06
-3.97067e-06 -8.55296e-06 -0.000452777
0.000544363 0.000184665 -1.07485e-05
0.000184665 0.000636771 -1.08742e-05
-1.07485e-05 -1.08742e-05 0.000121415
-0.000537203 0.000114847 -8.64287e-06
0.000114847 -0.000683571 2.20932e-06
-8.64287e-06 2.20932e-06 -0.000849859
0.00013455 4.01495e-05 -6.55742e-06
4.01495e-05 -0.00016147 -3.16759e-06
-6.55742e-06 -3.16759e-06 -0.000321473
-0.000215543 5.20319e-05 -3.30625e-06
5.20319e-05 -0.000377367 -8.85334e-06
-3.30625e-06 -8.85334e-06 -0.000543101
0.00144039 7.70385e-05 2.30697e-06
7.70385e-05 0.0006515 4.06417e-07
2.30697e-06 4.06417e-07 0.00048334
0.000193279 0.00010897 -3.11032e-06
0.00010897 -0.00018078 -3.77269e-06
-3.11032e-06 -3.77269e-06 -0.000345149
0.00234811 0.000328313 -7.54721e-06
0.000328313 0.00123781 -3.67057e-06
-7.54721e-06 -3.67057e-06 0.00102379
0.00107751 0.000267749 -4.66153e-06
0.000267749 0.000383001 -1.40208e-05
-4.66153e-06 -1.40208e-05 5.97877e-05
-0.00132689 0.000118945 1.47722e-06
0.000118945 -0.000741833 6.56744e-07
1.47722e-06 6.56744e-07 -0.00110765
0.000629691 0.000134505 -7.30327e-06
0.000134505 0.000150374 -3.63748e-06
-7.30327e-06 -3.63748e-06 1.08662e-05
-5.45465e-05 5.60252e-05 -1.36376e-05
5.60252e-05 -0.000339098 -7.76097e-06
-1.36376e-05 -7.76097e-06 -0.000423667
-0.000295268 3.62927e-05 -6.58957e-07
3.62927e-05 -0.000263651 1.77018e-06
-6.58957e-07 1.77018e-06 -0.000493496
0.00106635 0.000341437 1.98328e-05
0.000341437 0.000711131 -8.67598e-07
1.98328e-05 -8.67598e-07 0.000277674
0.00408116 -0.0035488 0.000111107
-0.0035488 0.0064126 0.000250018
0.000111107 0.000250018 0.000427901
0.00664275 0.00150659 0.00015694
0.00150659 0.00335813 0.000178511
0.00015694 0.000178511 -0.00191322
0.00331414 0.000562762 -3.37074e-05
0.000562762 0.000724839 -8.18061e-05
-3.37074e-05 -8.18061e-05 -0.00115434
0.0263155 -0.00572877 -0.000815511
-0.00572877 0.0073938 -0.0004007
-0.000815511 -0.0004007 0.00452611
0.00574161 -0.00167886 0.00028994
-0.00167886 0.00402375 0.000514733
0.00028994 0.000514733 0.000293546
0.00323089 -0.00176642 -0.000265976
-0.00176642 0.0051174 0.000106899
-0.000265976 0.000106899 -0.0022733
-0.00142797 -0.000556665 0.000114977
-0.000556665 0.00112537 2.12527e-05
0.000114977 2.12527e-05 0.000136072
-0.000623042 -0.000167068 0.000113466
-0.000167068 0.00114555 5.32862e-05
0.000113466 5.32862e-05 0.000381505
0.016439 -0.00955552 0.000486784
-0.00955552 0.00810882 0.000458355
0.000486784 0.000458355 0.00436184
0.00178606 0.00161469 -0.00010496
0.00161469 0.00433002 -8.89481e-05
-0.00010496 -8.89481e-05 -0.00233123
0.0089047 -0.00398858 -0.000134121
-0.00398858 0.00453216 0.000113748
-0.000134121 0.000113748 -0.00116482
0.000388364 0.000768428 -1.68203e-05
0.000768428 0.00115713 5.67868e-05
-1.68203e-05 5.67868e-05 0.000721725
0.0114114 0.00434693 -0.000127855
0.00434693 0.00379768 5.19321e-06
-0.000127855 5.19321e-06 -4.86544e-05
0.0167376 -0.00701634 -0.00086904
-0.00701634 0.00542268 -0.000506477
-0.00086904 -0.000506477 0.000752004
0.000141154 0.000536085 6.01241e-06
0.000536085 -0.0003235 -9.46937e-06
6.01241e-06 -9.46937e-06 -0.000475581
0.000513597 0.000194916 7.61496e-06
0.000194916 0.000279734 5.26761e-06
7.61496e-06 5.26761e-06 6.88131e-06
-0.000127664 5.22878e-05 -1.38057e-05
5.22878e-05 -4.4269e-05 -4.01537e-06
-1.38057e-05 -4.01537e-06 -0.000328982
-0.0038645 -0.000348607 -0.000124861
-0.000348607 -0.000129722 -6.35908e-05
-0.000124861 -6.35908e-05 -0.00197229
-0.000581598 0.00023498 1.12126e-05
0.00023498 -5.26803e-05 -1.49229e-05
1.12126e-05 -1.49229e-05 -0.000588337
0.00128178 0.000233911 -4.92047e-06
0.000233911 0.000870382 1.43495e-05
-4.92047e-06 1.43495e-05 0.00058419
0.00121108 0.000701576 1.34493e-05
0.000701576 0.000634433 3.29504e-06
1.34493e-05 3.29504e-06 0.000211394
-0.000393837 0.000542525 4.05432e-05
0.000542525 0.000749518 -3.13137e-05
4.05432e-05 -3.13137e-05 -0.000504722
0.000948514 0.00142604 7.09415e-05
0.00142604 0.00013968 5.37311e-06
7.09415e-05 5.37311e-06 -0.000762764
-0.00625496 0.00117978 0.000380864
0.00117978 0.00560939 1.76428e-06
0.000380864 1.76428e-06 -0.00163365
0.00228502 -0.000210364 -1.0447e-05
-0.000210364 0.00205025 7.0472e-05
-1.0447e-05 7.0472e-05 -0.000862337
-0.00271838 -4.50031e-05 -1.49231e-05
-4.50031e-05 0.000985727 5.88522e-05
-1.49231e-05 5.88522e-05 -5.51944e-05
-0.000624501 -0.000301658 -6.29829e-05
-0.000301658 0.000710163 1.68024e-05
-6.29829e-05 1.68024e-05 -0.000482709
-0.00162977 -0.000490311 -7.16709e-05
-0.000490311 -0.000306167 5.71165e-05
-7.16709e-05 5.71165e-05 -9.84205e-05
-0.000400105 -0.000504294 -0.000200429
-0.000504294 0.000907864 0.00012927
-0.000200429 0.00012927 -0.00335322
-0.000600002 -0.00408958 0.000267308
-0.00408958 0.00207751 -0.000100462
0.000267308 -0.000100462 -0.00388902
0.0113853 0.0054209 0.000739893
0.0054209 0.00138377 -0.000458076
0.000739893 -0.000458076 -0.00272223
0.011635 0.00387788 -0.000419546
0.00387788 0.00814161 0.000351368
-0.000419546 0.000351368 0.00336173
0.00116633 -0.000897445 -1.23302e-05
-0.000897445 0.0013616 -9.6391e-07
-1.23302e-05 -9.6391e-07 0.000508777
0.00215278 0.000654934 0.00014459
0.000654934 0.00783019 -2.6569e-05
0.00014459 -2.6569e-05 0.00340459
0.00147679 0.00438717 8.16192e-06
0.00438717 0.000958657 7.43407e-05
8.16192e-06 7.43407e-05 -0.00286196
0.0024665 -0.00279803 8.53334e-05
-0.00279803 0.00077654 -4.55115e-05
8.53334e-05 -4.55115e-05 0.000993832
0.0168334 -0.00437749 1.22203e-05
-0.00437749 0.00302424 1.28339e-06
1.22203e-05 1.28339e-06 0.00111993
0.00314472 -0.00172989 2.05357e-06
-0.00172989 0.00127154 1.91526e-05
2.05357e-06 1.91526e-05 0.00085922
-0.00789741 0.00134626 -0.000647294
0.00134626 -0.00224724 0.000105882
-0.000647294 0.000105882 -0.00525729
0.0160265 -0.00281585 -0.000234565
-0.00281585 0.00194035 6.58857e-05
-0.000234565 6.58857e-05 0.000622748
0.00395927 -0.00284366 0.000115757
-0.00284366 -9.2662e-06 -7.54772e-05
0.000115757 -7.54772e-05 0.00065483
0.000822923 -0.000551614 -1.24736e-05
-0.000551614 0.000614782 1.29516e-05
-1.24736e-05 1.29516e-05 0.000176118
0.00137053 -0.000873478 1.45284e-06
-0.000873478 0.000370223 -3.37544e-06
1.45284e-06 -3.37544e-06 7.61199e-05
0.00494208 -0.0010876 2.19979e-05
-0.0010876 0.00200192 -1.55243e-05
2.19979e-05 -1.55243e-05 0.00161894
-0.000551792 -0.000461091 -6.23687e-06
-0.000461091 -0.000583192 8.5356e-06
-6.23687e-06 8.5356e-06 -0.000956444
0.00153444 -0.000853057 -3.01085e-06
-0.000853057 0.000167663 9.57539e-07
-3.01085e-06 9.57539e-07 -0.000248887
0.0032672 -0.00110228 2.61989e-06
-0.00110228 0.000864355 -8.31717e-06
2.61989e-06 -8.31717e-06 0.00043561
0.0014753 -0.000759302 -1.03826e-05
-0.000759302 0.000250974 1.00514e-05
-1.03826e-05 1.00514e-05 -0.000345759
0.00204727 -0.000969352 -9.01068e-07
-0.000969352 0.000341513 2.18196e-06
-9.01068e-07 2.18196e-06 -0.000157225
0.00197583 -0.000782078 -2.45861e-06
-0.000782078 6.25578e-05 -5.85083e-06
-2.45861e-06 -5.85083e-06 -0.000247001
0.00169143 -0.00085435 1.17223e-06
-0.00085435 0.000282114 4.22867e-06
1.17223e-06 4.22867e-06 -0.000261794
0.00209891 -0.000761278 -1.70278e-06
-0.000761278 0.000305339 1.56545e-06
-1.70278e-06 1.56545e-06 -8.00835e-05
0.00209233 -0.000564655 -2.30743e-06
-0.000564655 0.000111639 -3.80463e-06
-2.30743e-06 -3.80463e-06 -0.000106521
0.00190924 -0.000470094 -4.3241e-06
-0.000470094 6.703e-05 -3.49777e-07
-4.3241e-06 -3.49777e-07 -0.000112501
0.00174025 -0.000547652 -4.99463e-06
-0.000547652 -4.33148e-06 -1.85405e-06
-4.99463e-06 -1.85405e-06 -0.000267771
0.00185222 -0.000531621 1.6572e-06
-0.000531621 4.45104e-05 2.61346e-06
1.6572e-06 2.61346e-06 -0.000203207
0.00172796 -0.000666555 -5.62738e-06
-0.000666555 0.000130867 -2.82929e-06
-5.62738e-06 -2.82929e-06 -0.000229611
0.00210457 -0.000776202 2.83626e-06
-0.000776202 0.000314596 -1.93807e-07
2.83626e-06 -1.93807e-07 -8.3172e-05
0.00220006 -0.000776343 5.9714e-06
-0.000776343 0.000383024 1.01022e-06
5.9714e-06 1.01022e-06 -1.74507e-05
0.00175234 -0.000682908 -1.44304e-06
-0.000682908 0.00037185 -2.07722e-06
-1.44304e-06 -2.07722e-06 -4.13135e-05
0.00218137 -0.000807313 2.11416e-06
-0.000807313 0.000585099 -6.95638e-07
2.11416e-06 -6.95638e-07 0.000138569
0.0023732 -0.000911758 2.81202e-06
-0.000911758 0.000661283 -2.40675e-06
2.81202e-06 -2.40675e-06 0.000157348
0.00127315 -0.000406151 -6.85332e-06
-0.000406151 0.000289763 3.19156e-06
-6.85332e-06 3.19156e-06 -1.11069e-05
0.00158579 -0.000579501 1.77077e-06
-0.000579501 0.000447323 1.02478e-06
1.77077e-06 1.02478e-06 6.12312e-05
0.00115863 -0.000617467 -3.79156e-06
-0.000617467 0.000178259 1.75338e-06
-3.79156e-06 1.75338e-06 -0.00023009
0.000487251 -0.000220231 -7.92766e-06
-0.000220231 -6.69957e-05 -2.5875e-07
-7.92766e-06 -2.5875e-07 -0.00028428
0.00105532 -0.000334419 9.46511e-07
-0.000334419 0.000247864 -8.50588e-07
9.46511e-07 -8.50588e-07 -2.15704e-05
0.000508658 -0.000336081 -8.64796e-06
-0.000336081 -9.84308e-05 1.46825e-07
-8.64796e-06 1.46825e-07 -0.000399734
0.000332163 -6.18279e-05 -1.32561e-05
-6.18279e-05 -0.00011474 1.34939e-05
-1.32561e-05 1.34939e-05 -0.000192338
0.000857076 -0.000191881 3.23827e-06
-0.000191881 0.000253452 1.3651e-06
3.23827e-06 1.3651e-06 1.77696e-05
0.000589396 -0.000258144 5.65186e-08
-0.000258144 0.000104457 1.75983e-06
5.65186e-08 1.75983e-06 -0.000179219
0.0039653 0.00024122 6.53084e-06
0.00024122 0.00224916 5.77232e-06
6.53084e-06 5.77232e-06 0.00221011
0.000438006 -3.44923e-05 3.48135e-07
-3.44923e-05 -3.95443e-05 -2.22947e-07
3.48135e-07 -2.22947e-07 -0.000103467
0.00128474 -0.000119232 6.97263e-09
-0.000119232 0.000511281 -5.96961e-06
6.97263e-09 -5.96961e-06 0.00033238
0.00340661 0.000142683 9.35919e-06
0.000142683 0.00185938 7.07934e-07
9.35919e-06 7.07934e-07 0.00185249
0.00054342 -1.23393e-05 5.17629e-06
-1.23393e-05 2.84213e-05 -1.1626e-05
5.17629e-06 -1.1626e-05 -2.40572e-05
0.00307749 0.000117001 5.58799e-05
0.000117001 0.00164182 -5.14431e-06
5.58799e-05 -5.14431e-06 0.00164149
0.00223874 0.000356532 6.24652e-06
0.000356532 0.00110423 2.03139e-06
6.24652e-06 2.03139e-06 0.000853224
0.000733038 0.000173085 4.94768e-07
0.000173085 0.000265352 -4.65433e-06
4.94768e-07 -4.65433e-06 1.64867e-05
0.00141877 0.000205262 1.23708e-07
0.000205262 0.000702981 -5.13008e-06
1.23708e-07 -5.13008e-06 0.000441492
0.000771919 7.4864e-05 2.51582e-06
7.4864e-05 0.000194316 -6.20992e-06
2.51582e-06 -6.20992e-06 6.32468e-05
0.000792828 0.000107709 5.43121e-07
0.000107709 0.000288729 1.46389e-06
5.43121e-07 1.46389e-06 7.83256e-05
0.000250131 0.000115201 -2.2374e-06
0.000115201 -3.45397e-06 3.55403e-06
-2.2374e-06 3.55403e-06 -0.000230309
0.000526125 -2.36839e-07 -1.58025e-06
-2.36839e-07 2.04374e-05 -1.05125e-05
-1.58025e-06 -1.05125e-05 -1.91537e-05
0.0005728 4.48493e-05 -1.49132e-07
4.48493e-05 7.24574e-05 -3.56596e-07
-1.49132e-07 -3.56596e-07 -3.70127e-05
0.000229478 8.53209e-05 -5.47566e-06
8.53209e-05 -0.000117684 1.00024e-06
-5.47566e-06 1.00024e-06 -0.000266211
0.00269526 -8.49557e-05 -4.41471e-05
-8.49557e-05 0.00138984 -4.922e-06
-4.41471e-05 -4.922e-06 0.00139758
0.000408828 -2.15792e-05 2.85955e-06
-2.15792e-05 -5.84405e-05 -1.95998e-07
2.85955e-06 -1.95998e-07 -9.01655e-05
0.000482992 4.59293e-05 -3.16937e-06
4.59293e-05 1.55494e-05 3.68837e-06
-3.16937e-06 3.68837e-06 -7.91471e-05
0.00251409 -6.81565e-05 -6.79874e-06
-6.81565e-05 0.00126934 5.09485e-07
-6.79874e-06 5.09485e-07 0.00127985
0.000428999 -3.53294e-07 -2.41974e-06
-3.53294e-07 -5.35854e-05 6.24207e-06
-2.41974e-06 6.24207e-06 -7.77851e-05
0.00230427 -4.92243e-05 2.39745e-05
-4.92243e-05 0.00113242 4.77256e-06
2.39745e-05 4.77256e-06 0.0011464
-0.00948473 0.00110866 -0.00013313
0.00110866 0.00412598 8.02723e-05
-0.00013313 8.02723e-05 -0.00261465
0.00624285 0.000552711 9.39036e-06
0.000552711 0.00374493 -1.34039e-06
9.39036e-06 -1.34039e-06 0.00141836
-0.00169401 0.000111114 5.96474e-05
0.000111114 0.000414909 2.9452e-05
5.96474e-05 2.9452e-05 -0.000686282
0.000158337 0.000150969 8.41252e-08
0.000150969 -0.00020659 3.3048e-06
8.41252e-08 3.3048e-06 -0.000413546
0.00327564 0.000701757 1.71028e-05
0.000701757 0.0016644 1.13338e-05
1.71028e-05 1.13338e-05 0.0012864
0.000795142 0.000189585 -8.53603e-06
0.000189585 0.000308673 2.58877e-06
-8.53603e-06 2.58877e-06 -2.6571e-05
0.000422375 6.79283e-05 -7.96441e-06
6.79283e-05 2.53204e-05 -1.98367e-05
-7.96441e-06 -1.98367e-05 -0.000150449
0.00291734 0.000323679 3.3109e-06
0.000323679 0.00148297 -1.2047e-06
3.3109e-06 -1.2047e-06 0.00129616
-0.000983297 1.89022e-05 -1.40507e-05
1.89022e-05 -0.00080515 1.08082e-05
-1.40507e-05 1.08082e-05 -0.000960507
-5.83272e-05 0.00013032 -1.05341e-06
0.00013032 -8.77864e-05 7.09918e-06
-1.05341e-06 7.09918e-06 -0.000386385
0.000551965 0.000162843 -3.40757e-06
0.000162843 0.000126957 -5.65288e-06
-3.40757e-06 -5.65288e-06 -0.000198485
0.00167924 0.000569838 8.66283e-06
0.000569838 0.000828236 -2.43874e-05
8.66283e-06 -2.43874e-05 0.000355183
-0.00015765 0.000486522 -1.58856e-05
0.000486522 -0.000415712 5.30294e-05
-1.58856e-05 5.30294e-05 -0.000574982
0.00153789 6.16333e-05 -1.64903e-05
6.16333e-05 0.000815568 1.73083e-05
-1.64903e-05 1.73083e-05 0.000608043
0.00155571 0.000308903 6.2441e-06
0.000308903 0.00100444 -1.01645e-05
6.2441e-06 -1.01645e-05 0.000611808
0.000858855 -0.00264012 -0.00173117
-0.00264012 0.00186915 -0.000274895
-0.00173117 -0.000274895 -0.00231505
-0.00183054 -0.00272467 0.000579792
-0.00272467 0.00646541 0.00020166
0.000579792 0.00020166 0.000429806
0.0074102 0.00191012 -0.000618477
0.00191012 0.00311462 -0.000212828
-0.000618477 -0.000212828 -0.00259021
0.00661485 -0.0101748 0.00258993
-0.0101748 0.00614942 0.00157263
0.00258993 0.00157263 0.00181888
0.0274957 -0.00407149 6.24261e-05
-0.00407149 0.0094815 0.000389813
6.24261e-05 0.000389813 0.0055275
-0.00347285 0.00142785 -2.03956e-05
0.00142785 0.0024424 -0.000192151
-2.03956e-05 -0.000192151 -0.00341576
-0.0026804 0.000130919 -0.000365395
0.000130919 0.000946755 -6.21894e-05
-0.000365395 -6.21894e-05 -0.000797595
0.000899436 0.000782704 7.85432e-05
0.000782704 0.00167948 5.48251e-05
7.85432e-05 5.48251e-05 0.0012996
0.0204066 -0.0053382 -0.000704711
-0.0053382 0.00848272 9.99517e-06
-0.000704711 9.99517e-06 0.00389981
-0.00250014 0.003308 -0.000126655
0.003308 0.00037176 -4.84015e-05
-0.000126655 -4.84015e-05 -0.00442299
0.00326556 0.00235611 2.09853e-05
0.00235611 0.00102454 -7.56599e-05
2.09853e-05 -7.56599e-05 0.00173018
0.00353204 0.00523669 -0.000452996
0.00523669 -0.0019854 -0.000112705
-0.000452996 -0.000112705 -0.0045421
0.00327407 0.00122479 2.5003e-05
0.00122479 0.00124581 -1.11072e-05
2.5003e-05 -1.11072e-05 0.000874788
0.00101461 0.000597377 -4.56871e-06
0.000597377 0.000273002 -2.41176e-06
-4.56871e-06 -2.41176e-06 0.000111202
-0.000197024 0.000174369 -1.17666e-05
0.000174369 -0.000149167 8.90091e-06
-1.17666e-05 8.90091e-06 -0.00042155
-0.00160565 0.000392745 -9.14549e-05
0.000392745 0.000171796 -7.14397e-05
-9.14549e-05 -7.14397e-05 -0.000908801
0.00195876 0.000809881 -4.08788e-05
0.000809881 0.000973109 -2.12111e-05
-4.08788e-05 -2.12111e-05 0.000543779
0.00205233 0.0015776 1.13244e-05
0.0015776 0.000587894 -8.74666e-06
1.13244e-05 -8.74666e-06 -0.000302161
-0.00099947 0.00164582 0.000101588
0.00164582 -0.00182399 5.0091e-05
0.000101588 5.0091e-05 -0.00218612
-0.00643523 -0.000520506 -0.000651851
-0.000520506 -0.00413989 5.23869e-05
-0.000651851 5.23869e-05 -0.00429369
-0.00897816 0.000511676 0.000430289
0.000511676 0.00590412 1.80459e-05
0.000430289 1.80459e-05 -0.000672485
0.00290549 -7.42412e-05 -0.000134132
-7.42412e-05 0.00209421 3.36574e-05
-0.000134132 3.36574e-05 0.000234551
0.00211188 -0.0010528 -6.05851e-05
-0.0010528 0.00142046 -4.59099e-05
-6.05851e-05 -4.59099e-05 0.000599822
-0.000758615 -0.0020732 7.06843e-05
-0.0020732 -0.000613543 4.37424e-05
7.06843e-05 4.37424e-05 -0.000362602
0.000736305 0.000752358 8.80964e-05
0.000752358 0.00751946 5.13669e-05
8.80964e-05 5.13669e-05 0.00291314
0.00283861 -0.00373061 0.000513478
-0.00373061 -0.00176451 -0.000105768
0.000513478 -0.000105768 -0.00374836
0.02378 0.00377442 0.000964014
0.00377442 0.0104786 -9.85876e-05
0.000964014 -9.85876e-05 0.00706709
0.00163624 -0.00181807 -1.96619e-05
-0.00181807 0.000376029 4.04751e-06
-1.96619e-05 4.04751e-06 -0.00029841
0.00252426 0.00164675 0.000290183
0.00164675 0.000991807 -8.95424e-05
0.000290183 -8.95424e-05 -0.00150778
0.00756839 -0.00247305 -0.000184097
-0.00247305 -0.00281731 0.000153547
-0.000184097 0.000153547 -0.00489602
0.00341042 -0.00280159 -9.38286e-06
-0.00280159 -0.000656869 2.59698e-05
-9.38286e-06 2.59698e-05 0.000343918
0.00254559 -0.00151657 7.29939e-05
-0.00151657 0.000212978 -2.03548e-05
7.29939e-05 -2.03548e-05 1.9409e-05
0.017763 -0.000916735 -8.85834e-05
-0.000916735 0.00345695 5.75534e-05
-8.85834e-05 5.75534e-05 0.0023315
0.0027017 -0.00193865 0.000135966
-0.00193865 -0.00328096 -8.86315e-05
0.000135966 -8.86315e-05 -0.00163377
-0.000636331 -0.000722367 -2.61238e-05
-0.000722367 -0.000802319 3.47409e-05
-2.61238e-05 3.47409e-05 -0.000949421
0.000247423 -0.000631727 -4.02289e-05
-0.000631727 -0.000564414 4.08106e-06
-4.02289e-05 4.08106e-06 -0.000725654
0.00623586 -0.00120934 6.12424e-05
-0.00120934 0.00234614 -2.57845e-05
6.12424e-05 -2.57845e-05 0.00210214
0.000200354 -0.000684247 -1.009e-05
-0.000684247 -0.000495196 3.19226e-06
-1.009e-05 3.19226e-06 -0.000906808
0.00219971 -0.000968719 -3.16323e-06
-0.000968719 0.000315461 -3.46101e-06
-3.16323e-06 -3.46101e-06 -8.0087e-05
0.00284502 -0.000876671 3.72751e-08
-0.000876671 0.00035456 -5.22969e-06
3.72751e-08 -5.22969e-06 0.000137943
0.0020433 -0.000959325 4.83767e-06
-0.000959325 0.000347526 1.03797e-05
4.83767e-06 1.03797e-05 -0.000155943
0.00222626 -0.000799164 -1.48018e-06
-0.000799164 0.000207403 2.716e-07
-1.48018e-06 2.716e-07 -0.000102722
0.00216955 -0.000587767 -5.58055e-07
-0.000587767 2.17155e-05 -1.03039e-06
-5.58055e-07 -1.03039e-06 -0.000104092
0.00161028 -0.00069594 7.20354e-06
-0.00069594 3.78503e-05 7.34951e-06
7.20354e-06 7.34951e-06 -0.000332333
0.00203196 -0.000552363 -3.81395e-07
-0.000552363 7.64274e-05 2.49947e-06
-3.81395e-07 2.49947e-06 -0.000134201
0.00211198 -0.000526249 -2.8693e-06
-0.000526249 8.59999e-05 1.72366e-06
-2.8693e-06 1.72366e-06 -5.45039e-05
0.00206423 -0.000495622 -4.26136e-06
-0.000495622 0.000151951 1.30266e-06
-4.26136e-06 1.30266e-06 -7.18191e-06
0.00204376 -0.000480786 -3.05773e-06
-0.000480786 0.000142716 3.18228e-06
-3.05773e-06 3.18228e-06 -3.34998e-05
0.00211381 -0.000489494 -2.28514e-06
-0.000489494 0.000238706 -3.4231e-06
-2.28514e-06 -3.4231e-06 4.63837e-05
0.00205747 -0.000580696 -6.59031e-06
-0.000580696 0.000216884 -2.72399e-06
-6.59031e-06 -2.72399e-06 -5.6324e-05
0.00197956 -0.000565334 1.6801e-06
-0.000565334 0.000149647 9.49326e-07
1.6801e-06 9.49326e-07 -0.000114537
0.00193699 -0.000533679 5.76734e-06
-0.000533679 9.36482e-05 7.21624e-06
5.76734e-06 7.21624e-06 -0.000150898
0.00196818 -0.000662493 -7.51865e-06
-0.000662493 0.000339832 -2.703e-06
-7.51865e-06 -2.703e-06 -2.46787e-05
0.00173022 -0.000674686 -5.59032e-07
-0.000674686 0.000118262 1.33995e-07
-5.59032e-07 1.33995e-07 -0.000245915
0.00225803 -0.000783527 8.1426e-06
-0.000783527 0.00042519 1.43838e-06
8.1426e-06 1.43838e-06 3.08552e-05
0.00143249 -0.000506079 -1.12218e-05
-0.000506079 0.000266503 3.20391e-06
-1.12218e-05 3.20391e-06 -7.84972e-05
0.00185672 -0.000694061 -5.91892e-07
-0.000694061 0.000436589 7.93127e-07
-5.91892e-07 7.93127e-07 2.16238e-05
0.0020599 -0.000801289 4.12584e-06
-0.000801289 0.000506569 6.2475e-07
4.12584e-06 6.2475e-07 5.84089e-05
0.000657116 -0.000222034 -7.96423e-06
-0.000222034 1.27931e-06 5.27405e-06
-7.96423e-06 5.27405e-06 -0.000216155
0.00125456 -0.000411785 1.36906e-06
-0.000411785 0.000269033 1.94385e-07
1.36906e-06 1.94385e-07 -3.54011e-05
0.0011781 -0.000530188 -2.08331e-06
-0.000530188 0.000183588 1.97131e-06
-2.08331e-06 1.97131e-06 -0.000188743
0.000488503 -0.000138068 -2.42114e-05
-0.000138068 -4.9277e-05 1.50342e-05
-2.42114e-05 1.50342e-05 -0.000147911
0.000616983 -0.000218265 -2.483e-06
-0.000218265 4.14347e-05 9.20824e-07
-2.483e-06 9.20824e-07 -0.000194819
0.000626578 -0.000337575 1.6339e-06
-0.000337575 -2.48388e-05 -7.72208e-07
1.6339e-06 -7.72208e-07 -0.000300458
0.0044174 0.000215248 -9.04259e-05
0.000215248 0.00253512 7.90658e-06
-9.04259e-05 7.90658e-06 0.0025065
0.000553737 -7.99188e-05 1.74171e-06
-7.99188e-05 1.94048e-05 -2.50124e-07
1.74171e-06 -2.50124e-07 -6.44399e-05
0.00164486 -0.000275861 6.64256e-06
-0.000275861 0.000740129 -2.83337e-06
6.64256e-06 -2.83337e-06 0.000498733
0.00258496 0.000134587 5.47537e-05
0.000134587 0.00135398 1.42169e-06
5.47537e-05 1.42169e-06 0.00132857
0.000605513 -4.21346e-05 1.15451e-05
-4.21346e-05 5.99298e-05 -1.34446e-05
1.15451e-05 -1.34446e-05 -7.21252e-06
0.00364082 0.000133079 8.58481e-05
0.000133079 0.0020075 -5.5447e-06
8.58481e-05 -5.5447e-06 0.00200305
0.00184987 0.000367181 3.5736e-06
0.000367181 0.00073846 -4.36569e-06
3.5736e-06 -4.36569e-06 0.000507732
0.000452522 0.000157343 -4.36824e-06
0.000157343 -4.72327e-05 -9.66169e-08
-4.36824e-06 -9.66169e-08 -0.000248614
0.000487062 0.000173827 1.15811e-06
0.000173827 7.21686e-05 -7.92824e-06
1.15811e-06 -7.92824e-06 -0.000173926
0.00035466 0.000139058 -2.60123e-06
0.000139058 4.95093e-06 1.08148e-05
-2.60123e-06 1.08148e-05 -0.000219757
0.000621276 0.000106847 6.15902e-07
0.000106847 0.000179077 1.55117e-07
6.15902e-07 1.55117e-07 -5.79281e-05
0.00107468 0.000122717 -1.19861e-07
0.000122717 0.000375491 -9.29319e-06
-1.19861e-07 -9.29319e-06 0.000218792
0.000573986 3.59478e-05 -5.41367e-06
3.59478e-05 5.13216e-05 -1.29034e-05
-5.41367e-06 -1.29034e-05 1.22047e-06
0.000686647 6.79239e-05 4.1496e-07
6.79239e-05 0.000146198 -8.21334e-08
4.1496e-07 -8.21334e-08 1.47619e-05
-0.000329591 2.78786e-05 -6.25507e-06
2.78786e-05 -0.000444 2.99997e-07
-6.25507e-06 2.99997e-07 -0.00062942
0.00293774 -9.90702e-05 -6.18377e-05
-9.90702e-05 0.00155142 -5.41498e-06
-6.18377e-05 -5.41498e-06 0.00155632
0.000404054 1.68338e-05 1.03334e-06
1.68338e-05 -5.47027e-05 -3.26651e-07
1.03334e-06 -3.26651e-07 -9.39936e-05
0.000554259 5.05075e-05 -3.65227e-06
5.05075e-05 6.6342e-05 5.88999e-06
-3.65227e-06 5.88999e-06 -4.55371e-05
0.00271981 -8.71528e-05 -7.55382e-06
-8.71528e-05 0.00140596 6.32256e-07
-7.55382e-06 6.32256e-07 0.00141282
0.00037725 -1.21022e-05 -5.43898e-07
-1.21022e-05 -7.69399e-05 7.7532e-06
-5.43898e-07 7.7532e-06 -0.000108483
0.00251762 -6.82756e-05 3e-05
-6.82756e-05 0.00127133 4.9642e-06
3e-05 4.9642e-06 0.00128168
0.00152023 2.06378e-05 -0.000947502
2.06378e-05 0.00399571 -6.64115e-05
-0.000947502 -6.64115e-05 0.00178417
-0.00581525 0.000137838 3.33222e-05
0.000137838 0.00519523 -7.43534e-06
3.33222e-05 -7.43534e-06 -0.0018064
0.00597046 0.000263663 -0.000282691
0.000263663 0.00359942 -7.63442e-05
-0.000282691 -7.63442e-05 0.00143821
-0.000327624 5.45056e-05 3.26961e-06
5.45056e-05 -0.000503434 -6.97084e-06
3.26961e-06 -6.97084e-06 -0.000711586
0.000409037 0.000103661 6.58424e-06
0.000103661 8.84854e-06 7.47531e-06
6.58424e-06 7.47531e-06 -0.000303267
0.00291009 0.000635081 -3.26334e-06
0.000635081 0.0014733 3.85035e-06
-3.26334e-06 3.85035e-06 0.00110332
0.00231124 0.000738779 1.82179e-05
0.000738779 0.000962043 8.26596e-06
1.82179e-05 8.26596e-06 0.00048518
0.000699457 0.000453658 1.05519e-05
0.000453658 0.000258373 5.49783e-06
1.05519e-05 5.49783e-06 -0.000153504
0.00133026 0.000204402 -8.67408e-06
0.000204402 0.000747188 7.7368e-06
-8.67408e-06 7.7368e-06 0.000447459
0.00139508 0.000213607 1.00429e-05
0.000213607 0.000677922 1.04463e-05
1.00429e-05 1.04463e-05 0.000372789
0.00070666 0.00048099 -4.48249e-06
0.00048099 0.000304405 -5.84429e-07
-4.48249e-06 -5.84429e-07 -0.000165934
4.52474e-05 0.000642225 1.87736e-05
0.000642225 -0.000487628 -1.01597e-05
1.87736e-05 -1.01597e-05 -0.000844417
0.00259214 0.000884363 -8.38233e-06
0.000884363 0.000979195 2.64649e-05
-8.38233e-06 2.64649e-05 0.00072413
0.00152951 0.000928498 3.23991e-05
0.000928498 9.19045e-05 1.13123e-05
3.23991e-05 1.13123e-05 -6.01989e-05
0.0014409 0.00067817 -6.28704e-06
0.00067817 0.000535926 -2.93038e-06
-6.28704e-06 -2.93038e-06 0.000289666
0.0020601 0.000419971 -7.60851e-06
0.000419971 0.00118113 3.42417e-05
-7.60851e-06 3.42417e-05 0.00081594
0.0139352 0.00277476 -0.000131993
0.00277476 0.00159577 6.22383e-05
-0.000131993 6.22383e-05 0.000427569
0.0032781 -0.00224915 -0.000613161
-0.00224915 0.00404479 -0.000217291
-0.000613161 -0.000217291 0.000724622
0.000381371 -0.00399202 0.000876139
-0.00399202 0.0071366 0.000225778
0.000876139 0.000225778 0.00100261
0.00940009 -0.00319136 0.00034189
-0.00319136 0.00391684 0.000325532
0.00034189 0.000325532 -0.000235055
0.0142251 0.00529509 -0.000112018
0.00529509 0.00465061 -5.29942e-05
-0.000112018 -5.29942e-05 0.000616586
-0.00304781 0.000282685 -5.15386e-05
0.000282685 4.24372e-05 -4.70415e-05
-5.15386e-05 -4.70415e-05 -0.000421635
0.00208755 0.00204443 -6.29772e-05
0.00204443 0.000518782 -2.42985e-05
-6.29772e-05 -2.42985e-05 0.00134565
0.016984 0.00508078 1.8393e-05
0.00508078 0.00342365 3.87237e-05
1.8393e-05 3.87237e-05 0.000951337
0.00667375 0.00387922 -9.73755e-05
0.00387922 -0.000239973 -0.000112835
-9.73755e-05 -0.000112835 0.00031536
0.00174777 0.00127507 7.41251e-06
0.00127507 0.000176157 2.25529e-07
7.41251e-06 2.25529e-07 -0.000104292
0.00162272 0.00097016 1.10194e-05
0.00097016 0.000467994 -4.27703e-06
1.10194e-05 -4.27703e-06 0.000151778
0.00195122 0.000637755 -2.96892e-05
0.000637755 0.00091613 4.11899e-06
-2.96892e-05 4.11899e-06 0.000740154
0.00258195 0.00173119 -7.39633e-05
0.00173119 0.000705608 -2.70245e-05
-7.39633e-05 -2.70245e-05 -0.000165767
0.00144533 0.00193313 8.09447e-05
0.00193313 -0.000785854 4.22378e-05
8.09447e-05 4.22378e-05 -0.00125091
0.00276879 -0.0002889 -0.000133271
-0.0002889 -0.00515853 5.65345e-05
-0.000133271 5.65345e-05 -0.00540595
0.000616368 -0.00182371 1.2123e-05
-0.00182371 0.00242214 1.2997e-05
1.2123e-05 1.2997e-05 0.0012436
-0.012203 -0.00031069 0.000342684
-0.00031069 0.00645998 -2.3462e-05
0.000342684 -2.3462e-05 0.000656552
0.000806541 -0.00203922 -6.27068e-05
-0.00203922 -0.000347489 2.65138e-05
-6.27068e-05 2.65138e-05 -0.00124075
0.00605075 -0.00346818 3.08236e-05
-0.00346818 0.000343448 4.78191e-05
3.08236e-05 4.78191e-05 0.000853928
0.00281614 7.574e-05 0.00102164
7.574e-05 0.00415069 -0.00024347
0.00102164 -0.00024347 0.00213625
0.014325 -0.00267104 -0.000305959
-0.00267104 0.00155459 0.000168628
-0.000305959 0.000168628 0.000736821
0.00173391 -0.00149922 -3.06072e-05
-0.00149922 -0.000147927 2.10731e-06
-3.06072e-05 2.10731e-06 -0.000472732
0.0116918 -0.000137359 -0.000206648
-0.000137359 -0.00123455 7.39425e-05
-0.000206648 7.39425e-05 -0.00200035
0.00729457 -0.00225273 9.91632e-05
-0.00225273 -0.000440018 1.07699e-05
9.91632e-05 1.07699e-05 0.000512296
0.00360166 -0.00128128 6.51032e-05
-0.00128128 0.000282153 -4.494e-05
6.51032e-05 -4.494e-05 0.000112843
0.00241294 -0.000841774 6.27273e-06
-0.000841774 -0.00229237 3.64665e-06
6.27273e-06 3.64665e-06 -0.00097854
-0.00496031 -0.000136039 1.24656e-05
-0.000136039 -0.00339115 1.46256e-05
1.24656e-05 1.46256e-05 -0.00337369
0.00145551 -0.000771237 -1.94056e-05
-0.000771237 -0.000292256 2.0881e-06
-1.94056e-05 2.0881e-06 -0.000307494
0.00379699 -0.000820468 3.82836e-05
-0.000820468 0.000748106 -1.50553e-05
3.82836e-05 -1.50553e-05 0.000798194
0.00104092 -0.000831619 -9.79214e-06
-0.000831619 -0.000284559 7.3492e-06
-9.79214e-06 7.3492e-06 -0.000647508
0.00222375 -0.000817177 -3.75112e-06
-0.000817177 2.45553e-05 3.2671e-06
-3.75112e-06 3.2671e-06 -0.000184954
0.00245622 -0.000663868 5.55999e-06
-0.000663868 -1.10543e-05 -1.25324e-06
5.55999e-06 -1.25324e-06 -3.822e-05
0.002239 -0.000787449 -3.70621e-06
-0.000787449 0.000226679 9.70221e-06
-3.70621e-06 9.70221e-06 -7.73982e-05
0.0021665 -0.000585574 4.69325e-07
-0.000585574 1.88981e-05 1.43266e-06
4.69325e-07 1.43266e-06 -0.000103409
0.00230992 -0.000580877 -5.40785e-07
-0.000580877 8.05726e-05 5.01479e-07
-5.40785e-07 5.01479e-07 1.78102e-05
0.00193265 -0.000535483 5.19775e-06
-0.000535483 2.0211e-05 6.26357e-06
5.19775e-06 6.26357e-06 -0.000181673
0.00208572 -0.000524273 2.41614e-08
-0.000524273 6.86184e-05 1.31248e-06
2.41614e-08 1.31248e-06 -6.92362e-05
0.00223773 -0.000561655 -2.35256e-06
-0.000561655 0.000141122 1.68976e-06
-2.35256e-06 1.68976e-06 1.40491e-05
0.00207498 -0.00050331 -4.44738e-06
-0.00050331 0.000149898 2.30056e-06
-4.44738e-06 2.30056e-06 -7.19369e-06
0.00220416 -0.000500667 -1.37125e-06
-0.000500667 0.000279349 -6.96847e-07
-1.37125e-06 -6.96847e-07 0.000110651
0.00215831 -0.000490453 2.73473e-06
-0.000490453 0.000207709 5.12942e-06
2.73473e-06 5.12942e-06 3.50212e-05
0.00209444 -0.00048836 6.70303e-07
-0.00048836 0.000225497 -6.26289e-07
6.70303e-07 -6.26289e-07 3.34288e-05
0.00200168 -0.000505859 -3.02126e-06
-0.000505859 0.000172044 -2.51542e-06
-3.02126e-06 -2.51542e-06 -4.07427e-05
0.0020905 -0.00056416 -4.33296e-06
-0.00056416 0.000311331 -4.19105e-06
-4.33296e-06 -4.19105e-06 2.6824e-05
0.00212339 -0.000588938 -4.86067e-07
-0.000588938 0.000260486 4.8911e-08
-4.86067e-07 4.8911e-08 -1.55896e-05
0.00221361 -0.00058217 7.90097e-06
-0.00058217 0.0003019 4.13592e-06
7.90097e-06 4.13592e-06 3.71515e-05
0.00164553 -0.000546824 -1.06886e-05
-0.000546824 0.000247466 2.23309e-06
-1.06886e-05 2.23309e-06 -9.68898e-05
0.00189236 -0.000653137 -1.802e-06
-0.000653137 0.000293967 -2.90371e-07
-1.802e-06 -2.90371e-07 -7.09582e-05
0.00175167 -0.000684079 6.04334e-06
-0.000684079 0.000116942 2.27628e-06
6.04334e-06 2.27628e-06 -0.000251113
0.000790223 -0.0002626 -1.11057e-05
-0.0002626 1.36851e-05 7.81881e-06
-1.11057e-05 7.81881e-06 -0.000217364
0.0013925 -0.000503116 6.5671e-07
-0.000503116 0.000244907 2.94758e-07
6.5671e-07 2.94758e-07 -9.93157e-05
0.00195625 -0.000703206 3.26381e-06
-0.000703206 0.00050065 2.30724e-06
3.26381e-06 2.30724e-06 8.46297e-05
0.000323821 -0.000187729 -2.18836e-05
-0.000187729 -0.000160575 1.89293e-05
-2.18836e-05 1.89293e-05 -0.000284175
0.000624678 -0.000226743 -4.99802e-07
-0.000226743 -1.34679e-05 2.5202e-07
-4.99802e-07 2.5202e-07 -0.00023693
0.00102066 -0.000386222 7.65638e-06
-0.000386222 0.0001146 -1.486e-06
7.65638e-06 -1.486e-06 -0.000184496
0.00524358 0.000165161 -0.000151122
0.000165161 0.00304091 9.96859e-06
-0.000151122 9.96859e-06 0.00302527
0.000501929 -0.000158522 -3.55114e-06
-0.000158522 -3.85563e-05 -8.57294e-07
-3.55114e-06 -8.57294e-07 -0.000143093
0.00121064 -0.00026857 5.79245e-06
-0.00026857 0.000429491 -2.70077e-06
5.79245e-06 -2.70077e-06 0.000176485
0.00464414 0.000179786 2.21416e-05
0.000179786 0.00267256 5.98933e-07
2.21416e-05 5.98933e-07 0.00265295
0.000663011 -0.000105234 2.13227e-05
-0.000105234 8.43967e-05 -1.45159e-05
2.13227e-05 -1.45159e-05 -4.14852e-06
0.00413505 0.000140824 0.000117394
0.000140824 0.00232969 -7.78376e-06
0.000117394 -7.78376e-06 0.00232302
0.00224555 0.00062435 6.23505e-06
0.00062435 0.000941643 -9.04732e-07
6.23505e-06 -9.04732e-07 0.000541513
0.00071791 0.000274094 -1.42488e-06
0.000274094 4.43575e-05 -3.17866e-06
-1.42488e-06 -3.17866e-06 -0.0001772
0.00031793 0.000170375 4.62309e-06
0.000170375 -0.00015087 3.01487e-06
4.62309e-06 3.01487e-06 -0.000361549
-0.000746703 4.66307e-05 -2.71497e-06
4.66307e-05 -0.000779893 1.52734e-06
-2.71497e-06 1.52734e-06 -0.000981462
0.000360554 0.000126039 -3.25186e-08
0.000126039 -3.89118e-05 2.20403e-06
-3.25186e-08 2.20403e-06 -0.000264972
0.00101 0.000114117 1.31641e-07
0.000114117 0.000344355 -1.17782e-05
1.31641e-07 -1.17782e-05 0.000150903
0.000220764 6.42449e-05 -3.46586e-06
6.42449e-05 -8.83733e-05 3.01422e-06
-3.46586e-06 3.01422e-06 -0.000311266
0.000580475 9.02873e-05 -1.30555e-07
9.02873e-05 8.07686e-05 5.83861e-07
-1.30555e-07 5.83861e-07 -7.73984e-05
0.000531912 4.61399e-05 -8.31488e-06
4.61399e-05 2.32987e-05 -1.57413e-05
-8.31488e-06 -1.57413e-05 -4.00531e-05
0.00330334 -0.000107445 -8.98394e-05
-0.000107445 0.00179292 -7.13058e-06
-8.98394e-05 -7.13058e-06 0.00179543
0.000411297 1.5339e-05 1.34542e-06
1.5339e-05 -4.54071e-05 -4.32825e-07
1.34542e-06 -4.32825e-07 -9.63315e-05
0.000395901 5.50792e-05 -3.68801e-06
5.50792e-05 -3.17327e-05 7.27643e-06
-3.68801e-06 7.27643e-06 -0.000160508
0.00286846 -0.000106231 -8.51933e-06
-0.000106231 0.00150838 7.97988e-07
-8.51933e-06 7.97988e-07 0.00151094
0.00029301 -5.31076e-05 -7.16972e-06
-5.31076e-05 -0.00011636 9.9516e-06
-7.16972e-06 9.9516e-06 -0.00015945
0.00267249 -8.718e-05 3.72525e-05
-8.718e-05 0.00137584 5.02585e-06
3.72525e-05 5.02585e-06 0.00138237
0.0152198 0.000636566 0.000517816
0.000636566 0.0018197 0.000127043
0.000517816 0.000127043 0.00162501
-0.000820623 -0.00315042 -0.000568298
-0.00315042 -0.00232979 -8.83727e-05
-0.000568298 -8.83727e-05 -0.00483429
-0.00949516 0.00157638 -0.000224414
0.00157638 0.00468443 -0.000128789
-0.000224414 -0.000128789 -0.00255195
8.91574e-05 4.87891e-05 1.56516e-05
4.87891e-05 -0.000181785 -8.46094e-06
1.56516e-05 -8.46094e-06 -0.000509232
0.00163306 0.000476529 -8.82124e-06
0.000476529 0.000706339 -3.92017e-07
-8.82124e-06 -3.92017e-07 0.000367123
0.00261002 0.000660811 -1.08919e-05
0.000660811 0.00137024 -2.65928e-06
-1.08919e-05 -2.65928e-06 0.000910621
0.00142749 0.000625647 1.08606e-06
0.000625647 0.00042887 -9.17323e-07
1.08606e-06 -9.17323e-07 -1.80516e-05
0.00150637 0.000687451 1.19433e-05
0.000687451 0.000277694 1.87783e-05
1.19433e-05 1.87783e-05 -0.000149814
-0.000588122 0.000480232 3.42999e-05
0.000480232 -0.000811198 7.74212e-06
3.42999e-05 7.74212e-06 -0.00117546
-6.29462e-05 0.0003552 -1.4286e-05
0.0003552 -7.45916e-05 1.02225e-05
-1.4286e-05 1.02225e-05 -0.000565678
-0.000297647 0.000583567 8.75606e-06
0.000583567 -0.000701967 -1.65031e-06
8.75606e-06 -1.65031e-06 -0.00103821
0.00226991 0.000847987 7.79276e-06
0.000847987 0.00084832 7.6262e-06
7.79276e-06 7.6262e-06 0.000550901
-0.00032203 0.000601927 6.54653e-06
0.000601927 -0.000843348 -5.75002e-06
6.54653e-06 -5.75002e-06 -0.00110413
0.0038497 0.00109526 6.36213e-06
0.00109526 0.00135239 1.38198e-05
6.36213e-06 1.38198e-05 0.0011407
0.00131187 0.000915207 2.23403e-05
0.000915207 -1.00202e-05 6.38341e-06
2.23403e-05 6.38341e-06 -0.000314566
0.000525643 0.000802613 4.03974e-06
0.000802613 -0.000489932 -1.63572e-08
4.03974e-06 -1.63572e-08 -0.000564336
0.000694181 0.000552929 -2.25301e-06
0.000552929 0.000101115 -5.64894e-05
-2.25301e-06 -5.64894e-05 -0.000111977
0.00485902 0.0018668 2.1768e-05
0.0018668 -0.00179999 2.9692e-05
2.1768e-05 2.9692e-05 -0.000156582
0.0139167 0.00332186 0.000299237
0.00332186 0.000697292 0.000163536
0.000299237 0.000163536 -0.000812766
0.0120887 -0.00467412 0.000588479
-0.00467412 0.00582518 -4.55779e-05
0.000588479 -4.55779e-05 0.00219241
0.00589255 0.00536447 0.000604581
0.00536447 -0.00107987 0.000337176
0.000604581 0.000337176 -0.00520201
6.70045e-05 0.00141547 -5.50754e-05
0.00141547 0.000138456 5.90407e-06
-5.50754e-05 5.90407e-06 0.000788184
0.0039093 0.00265317 -0.000106535
0.00265317 -0.000704729 -5.47151e-05
-0.000106535 -5.47151e-05 0.000224607
0.00626535 0.00230807 6.9195e-05
0.00230807 0.00116657 3.32599e-05
6.9195e-05 3.32599e-05 0.000917767
0.00450508 0.00167889 2.07804e-05
0.00167889 0.0014035 9.59657e-06
2.07804e-05 9.59657e-06 0.00103525
-2.64899e-05 0.000734901 -3.01532e-05
0.000734901 -0.000394548 7.7736e-06
-3.01532e-05 7.7736e-06 -0.000635479
0.00728403 0.00266565 -0.00018837
0.00266565 0.00192481 -1.96361e-05
-0.00018837 -1.96361e-05 0.00126521
0.0031169 -0.000567143 1.40814e-05
-0.000567143 -0.000844189 1.81358e-05
1.40814e-05 1.81358e-05 1.99859e-05
0.0115859 -0.000574773 -5.13037e-05
-0.000574773 0.000941199 -1.62779e-05
-5.13037e-05 -1.62779e-05 0.00105247
-0.0128543 -0.0029822 0.000842749
-0.0029822 -0.00506944 1.29247e-06
0.000842749 1.29247e-06 -0.006326
0.000960101 -0.0013058 -0.000117914
-0.0013058 -0.00043456 3.60987e-05
-0.000117914 3.60987e-05 -0.000711161
0.00857789 -0.00275189 -2.41977e-05
-0.00275189 -0.000510999 8.9965e-05
-2.41977e-05 8.9965e-05 0.000695973
0.0011247 -0.000297588 -0.0003049
-0.000297588 -0.00521331 3.63949e-05
-0.0003049 3.63949e-05 -0.00676252
0.00296945 -0.00110805 3.52977e-05
-0.00110805 -8.53652e-05 8.61599e-07
3.52977e-05 8.61599e-07 4.05101e-05
0.00520105 -0.000792917 -5.10804e-05
-0.000792917 -0.000606816 2.22046e-07
-5.10804e-05 2.22046e-07 0.000313128
0.0060639 -0.000948337 5.05103e-05
-0.000948337 0.00138224 -3.51524e-05
5.05103e-05 -3.51524e-05 0.0017523
0.00585975 -0.000502452 0.000113515
-0.000502452 0.00133907 6.89952e-07
0.000113515 6.89952e-07 0.00162449
-0.00328132 -0.000368583 1.02924e-05
-0.000368583 -0.00298475 1.21075e-05
1.02924e-05 1.21075e-05 -0.00271339
0.00210879 -0.000688993 -7.54435e-06
-0.000688993 -0.000227053 2.18619e-06
-7.54435e-06 2.18619e-06 -5.7382e-05
0.00239115 -0.000524559 2.60743e-05
-0.000524559 -0.000229389 -6.55047e-06
2.60743e-05 -6.55047e-06 5.09144e-05
0.00176309 -0.000778033 2.07815e-06
-0.000778033 -0.000225846 6.11511e-06
2.07815e-06 6.11511e-06 -0.000433561
0.0023899 -0.000658947 1.34795e-06
-0.000658947 -4.19399e-05 1.62749e-06
1.34795e-06 1.62749e-06 -7.04772e-05
0.00243647 -0.000578199 1.97563e-06
-0.000578199 1.6899e-05 -4.79955e-07
1.97563e-06 -4.79955e-07 2.35064e-05
0.00219272 -0.000587936 2.80323e-06
-0.000587936 3.22589e-05 5.2488e-06
2.80323e-06 5.2488e-06 -8.92579e-05
0.0022627 -0.000573249 2.86051e-07
-0.000573249 6.6023e-05 4.5331e-07
2.86051e-07 4.5331e-07 -4.63597e-07
0.0022562 -0.00051109 -2.02735e-06
-0.00051109 5.08487e-05 2.69032e-07
-2.02735e-06 2.69032e-07 -1.0036e-05
0.00207554 -0.000524292 3.92705e-06
-0.000524292 6.00354e-05 1.29539e-06
3.92705e-06 1.29539e-06 -7.64392e-05
0.00220523 -0.000555113 -1.0122e-07
-0.000555113 0.000145798 3.02918e-08
-1.0122e-07 3.02918e-08 1.77053e-05
0.00210112 -0.000495893 -1.36039e-08
-0.000495893 0.000124516 5.64966e-07
-1.36039e-08 5.64966e-07 -7.79579e-06
0.00210492 -0.000512072 -1.13073e-06
-0.000512072 0.000159606 1.44547e-06
-1.13073e-06 1.44547e-06 4.01682e-06
0.00213889 -0.000490998 -1.71182e-06
-0.000490998 0.000234013 2.4854e-07
-1.71182e-06 2.4854e-07 6.87492e-05
0.00220482 -0.00049283 -2.11793e-06
-0.00049283 0.000289089 -5.00852e-07
-2.11793e-06 -5.00852e-07 0.000106251
0.00208671 -0.000486792 4.42293e-06
-0.000486792 0.00021961 2.49524e-06
4.42293e-06 2.49524e-06 2.80854e-05
0.00204679 -0.000509167 -3.27297e-07
-0.000509167 0.000199606 -1.2314e-07
-3.27297e-07 -1.2314e-07 -1.39864e-05
0.00209296 -0.000504332 -1.05308e-06
-0.000504332 0.00027454 -2.62459e-06
-1.05308e-06 -2.62459e-06 3.91674e-05
0.00176306 -0.000495779 -8.78812e-06
-0.000495779 0.000217941 -8.65408e-07
-8.78812e-06 -8.65408e-07 -7.63642e-05
0.00202891 -0.000564852 -7.23466e-07
-0.000564852 0.000271549 -1.22496e-06
-7.23466e-07 -1.22496e-06 -1.89887e-05
0.00219106 -0.000597725 4.94911e-06
-0.000597725 0.00030582 2.71478e-06
4.94911e-06 2.71478e-06 2.66847e-05
0.000934699 -0.000297485 -1.5899e-05
-0.000297485 -2.74154e-06 8.43874e-06
-1.5899e-05 8.43874e-06 -0.000242133
0.00169869 -0.000544499 -1.0002e-07
-0.000544499 0.000289094 9.02327e-07
-1.0002e-07 9.02327e-07 -5.22637e-05
0.00182449 -0.000644253 3.19692e-06
-0.000644253 0.000253644 2.0229e-06
3.19692e-06 2.0229e-06 -0.00011171
0.00022249 -0.000193596 -1.86854e-05
-0.000193596 -0.00024479 2.02898e-05
-1.86854e-05 2.02898e-05 -0.000378503
0.000772755 -0.0002691 9.55319e-07
-0.0002691 -1.6122e-06 1.13159e-07
9.55319e-07 1.13159e-07 -0.000237057
0.00138221 -0.000502321 1.14465e-05
-0.000502321 0.000243399 -2.10037e-06
1.14465e-05 -2.10037e-06 -0.000100367
0.00633293 8.76152e-05 -0.000228784
8.76152e-05 0.00369307 1.45262e-05
-0.000228784 1.45262e-05 0.00369305
0.000372352 -0.00019633 -1.50135e-06
-0.00019633 -0.000129967 -1.89156e-07
-1.50135e-06 -1.89156e-07 -0.000254618
0.000615786 -0.000231487 9.52492e-06
-0.000231487 -1.39664e-05 -6.48126e-06
9.52492e-06 -6.48126e-06 -0.000242847
0.0057144 0.000117648 -6.33364e-06
0.000117648 0.00332971 -1.75337e-06
-6.33364e-06 -1.75337e-06 0.00332167
0.0004171 -0.000156704 2.02833e-05
-0.000156704 -8.38053e-05 -1.69789e-05
2.02833e-05 -1.69789e-05 -0.000195068
0.00505643 0.000115095 0.000183
0.000115095 0.00292238 -1.70607e-05
0.000183 -1.70607e-05 0.00291629
0.00180463 0.000642553 -4.00877e-06
0.000642553 0.000509921 3.70521e-06
-4.00877e-06 3.70521e-06 0.000107096
0.0017988 0.000571362 -1.42941e-06
0.000571362 0.000641068 -1.4027e-06
-1.42941e-06 -1.4027e-06 0.000259519
0.000866101 0.000339608 -9.31212e-07
0.000339608 7.94952e-05 -2.95962e-06
-9.31212e-07 -2.95962e-06 -0.000202413
0.0011746 0.000346211 -9.27373e-06
0.000346211 0.000372092 -2.72922e-06
-9.27373e-06 -2.72922e-06 0.000119395
0.00025695 0.000175926 2.04515e-06
0.000175926 -0.000176289 -2.98515e-07
2.04515e-06 -2.98515e-07 -0.000395215
0.000909336 0.000249267 -2.40134e-06
0.000249267 0.000275501 -6.88653e-06
-2.40134e-06 -6.88653e-06 4.05969e-05
-7.48255e-06 7.5744e-05 -6.75053e-07
7.5744e-05 -0.000285481 3.39501e-06
-6.75053e-07 3.39501e-06 -0.000499222
0.000653581 0.000135329 9.44453e-07
0.000135329 0.000137301 -4.73975e-07
9.44453e-07 -4.73975e-07 -6.49159e-05
0.000716289 8.39076e-05 -1.58385e-05
8.39076e-05 0.000126868 -1.77455e-05
-1.58385e-05 -1.77455e-05 4.64848e-05
0.00029218 6.1347e-05 -3.04054e-06
6.1347e-05 -7.97847e-05 1.03592e-05
-3.04054e-06 1.03592e-05 -0.000245861
0.000527071 5.35649e-05 6.30694e-08
5.35649e-05 2.51197e-05 -1.91772e-07
6.30694e-08 -1.91772e-07 -3.74922e-05
0.00398782 -0.00012976 -0.000116357
-0.00012976 0.00224011 -9.62919e-06
-0.000116357 -9.62919e-06 0.00223567
0.0032802 -0.000128789 -1.13015e-05
-0.000128789 0.00178135 9.87027e-07
-1.13015e-05 9.87027e-07 0.00177802
0.000368264 4.34856e-05 5.84384e-06
4.34856e-05 -7.12639e-05 1.27962e-05
5.84384e-06 1.27962e-05 -0.000120873
0.00286089 -0.00010761 4.55753e-05
-0.00010761 0.00150375 5.10106e-06
4.55753e-05 5.10106e-06 0.00150576
0.00394102 0.000177785 9.16262e-05
0.000177785 -0.00136215 3.15374e-05
9.16262e-05 3.15374e-05 0.000229361
0.00543102 -0.000929757 0.000189937
-0.000929757 -0.00456555 8.91965e-05
0.000189937 8.91965e-05 -0.00541541
0.0131882 -0.00341063 -0.000240666
-0.00341063 0.00546072 -0.000106611
-0.000240666 -0.000106611 0.00381945
0.00151179 0.000664511 5.80399e-06
0.000664511 8.33739e-05 8.8466e-06
5.80399e-06 8.8466e-06 -0.000278737
0.00474997 0.00088534 -1.39514e-05
0.00088534 0.00259613 -2.37013e-08
-1.39514e-05 -2.37013e-08 0.00210227
0.000642939 0.000523586 -1.03946e-05
0.000523586 -4.20268e-05 -6.14829e-06
-1.03946e-05 -6.14829e-06 -0.000461244
0.00149857 0.000734055 1.3121e-06
0.000734055 0.000439192 -3.00118e-06
1.3121e-06 -3.00118e-06 1.83378e-05
0.00172125 0.000712468 -1.75057e-06
0.000712468 0.000432227 3.67934e-06
-1.75057e-06 3.67934e-06 -7.39533e-06
0.00154241 0.000773531 2.29388e-05
0.000773531 0.000258636 1.26816e-05
2.29388e-05 1.26816e-05 -0.000119036
0.00263251 0.000902928 -4.54595e-05
0.000902928 0.00105745 -2.45686e-06
-4.54595e-05 -2.45686e-06 0.00063815
0.000448445 0.000652591 1.65732e-05
0.000652591 -0.000165159 -3.64208e-05
1.65732e-05 -3.64208e-05 -0.000448013
0.00199711 0.000903309 1.19364e-06
0.000903309 0.000479963 -1.74685e-06
1.19364e-06 -1.74685e-06 0.00015282
0.00214957 0.000923958 9.01202e-06
0.000923958 0.000316861 -1.09341e-06
9.01202e-06 -1.09341e-06 0.000251836
0.00220248 0.000944578 1.54658e-05
0.000944578 0.000314656 -3.3966e-06
1.54658e-05 -3.3966e-06 -1.74729e-05
0.00188498 0.000806461 2.42113e-05
0.000806461 0.000226694 2.35465e-05
2.42113e-05 2.35465e-05 2.91645e-05
0.000850895 0.000863663 -6.58702e-06
0.000863663 -0.000256194 -6.27959e-06
-6.58702e-06 -6.27959e-06 -0.000537851
0.000422885 0.00078584 -2.00827e-05
0.00078584 -0.000537403 -2.50289e-05
-2.00827e-05 -2.50289e-05 -0.000598669
0.00135172 0.000832258 5.43675e-05
0.000832258 -0.00115522 3.72343e-05
5.43675e-05 3.72343e-05 -0.000738893
0.00610236 0.00194159 -9.47949e-05
0.00194159 -0.00136486 -2.85816e-05
-9.47949e-05 -2.85816e-05 0.000202826
0.00431416 0.00224055 0.000588667
0.00224055 -0.0047488 0.000132422
0.000588667 0.000132422 -0.00635518
0.00229856 0.00212891 -0.00018513
0.00212891 -0.000691342 -7.39919e-05
-0.00018513 -7.39919e-05 0.000116241
0.00471911 0.0018793 -3.08582e-05
0.0018793 0.000797436 -9.53786e-06
-3.08582e-05 -9.53786e-06 0.000641173
0.0052888 0.00179462 -0.000154414
0.00179462 0.00170361 -4.17497e-05
-0.000154414 -4.17497e-05 0.00131496
0.00260972 -0.000239174 -6.01752e-05
-0.000239174 -0.000720989 -1.83274e-05
-6.01752e-05 -1.83274e-05 -0.000313636
-0.000682254 -0.000314949 9.42853e-05
-0.000314949 -0.00146671 2.03387e-05
9.42853e-05 2.03387e-05 -0.00042468
0.00372001 0.00078304 0.000235119
0.00078304 -0.00520561 -1.96011e-05
0.000235119 -1.96011e-05 -0.00540303
0.000494682 -0.000834833 -5.32049e-05
-0.000834833 -0.00132859 7.6735e-05
-5.32049e-05 7.6735e-05 -0.00100599
0.00681252 -0.000888182 -0.000174524
-0.000888182 0.000309508 5.0022e-05
-0.000174524 5.0022e-05 0.000763954
0.0026407 -0.000697721 -2.12052e-05
-0.000697721 -0.000492162 1.18292e-05
-2.12052e-05 1.18292e-05 -3.21331e-05
0.00431952 -0.000499756 -9.92464e-06
-0.000499756 0.000467605 -2.77485e-06
-9.92464e-06 -2.77485e-06 0.000682544
0.0029144 -0.000393074 6.70074e-05
-0.000393074 -2.81197e-05 -9.19698e-06
6.70074e-05 -9.19698e-06 0.000329842
0.00378758 -0.000112135 5.11708e-05
-0.000112135 0.00109761 2.47891e-06
5.11708e-05 2.47891e-06 0.00112509
0.0003773 -0.000542432 -2.20762e-05
-0.000542432 -0.00119916 1.36871e-05
-2.20762e-05 1.36871e-05 -0.000915057
0.00222651 -0.000543032 -2.72955e-06
-0.000543032 -0.000348914 1.47439e-06
-2.72955e-06 1.47439e-06 -7.85874e-05
0.00245755 -0.000455269 4.75627e-06
-0.000455269 -0.000194208 -1.38394e-06
4.75627e-06 -1.38394e-06 2.82408e-05
0.00231504 -0.000648544 -1.85484e-06
-0.000648544 -7.18741e-05 3.69372e-06
-1.85484e-06 3.69372e-06 -9.88939e-05
0.00241769 -0.000564619 1.02136e-08
-0.000564619 2.5921e-05 -4.14144e-07
1.02136e-08 -4.14144e-07 3.80368e-05
0.00232343 -0.000445053 -6.90375e-07
-0.000445053 -2.21732e-05 -1.22895e-07
-6.90375e-07 -1.22895e-07 -4.39178e-06
0.0022122 -0.000563872 -1.8691e-07
-0.000563872 5.09348e-05 7.96148e-07
-1.8691e-07 7.96148e-07 -1.76047e-05
0.00224847 -0.000515976 -8.68779e-07
-0.000515976 5.74013e-05 5.74472e-08
-8.68779e-07 5.74472e-08 -3.73061e-06
0.00214477 -0.000436437 -1.40409e-06
-0.000436437 6.70311e-05 9.6993e-07
-1.40409e-06 9.6993e-07 -1.02347e-05
0.00216299 -0.00054764 5.95158e-07
-0.00054764 0.000144596 -1.20809e-06
5.95158e-07 -1.20809e-06 1.62996e-05
0.00208778 -0.000496375 9.95408e-07
-0.000496375 0.000112836 -4.703e-07
9.95408e-07 -4.703e-07 -2.00027e-05
0.00207006 -0.000457891 -1.01986e-06
-0.000457891 0.000147914 -1.18709e-08
-1.01986e-06 -1.18709e-08 -3.34192e-06
0.00207026 -0.000481465 -1.37456e-06
-0.000481465 0.000187081 1.35641e-06
-1.37456e-06 1.35641e-06 2.51879e-05
0.00215468 -0.000487631 -1.69005e-06
-0.000487631 0.000250243 6.81948e-07
-1.69005e-06 6.81948e-07 7.12006e-05
0.0021811 -0.00047979 -1.17164e-06
-0.00047979 0.000290235 -1.9563e-06
-1.17164e-06 -1.9563e-06 8.86727e-05
0.00208802 -0.00051251 2.76252e-06
-0.00051251 0.000224219 2.75592e-06
2.76252e-06 2.75592e-06 9.78695e-06
0.00209823 -0.000506718 3.67987e-07
-0.000506718 0.000277864 -4.05589e-07
3.67987e-07 -4.05589e-07 4.29774e-05
0.00187384 -0.000442915 -6.03486e-06
-0.000442915 0.000245614 2.23854e-07
-6.03486e-06 2.23854e-07 -9.0299e-06
0.00110364 -0.000305739 -1.96746e-05
-0.000305739 2.98034e-05 8.27268e-06
-1.96746e-05 8.27268e-06 -0.000205185
0.00175469 -0.000493177 -1.15893e-06
-0.000493177 0.000221196 -5.83447e-07
-1.15893e-06 -5.83447e-07 -7.52937e-05
0.00195796 -0.000565032 2.67769e-06
-0.000565032 0.000225329 1.44898e-06
2.67769e-06 1.44898e-06 -7.12271e-05
0.000307345 -0.000233417 -2.18246e-05
-0.000233417 -0.000204137 1.95595e-05
-2.18246e-05 1.95595e-05 -0.00035331
0.000939363 -0.000300881 1.56219e-06
-0.000300881 -8.19621e-06 1.14424e-08
1.56219e-06 1.14424e-08 -0.00024947
0.00172966 -0.000541058 9.50289e-06
-0.000541058 0.000314643 -3.39676e-07
9.50289e-06 -3.39676e-07 -2.36366e-05
0.00699665 4.2417e-05 -0.000271207
4.2417e-05 0.00408594 1.9408e-05
-0.000271207 1.9408e-05 0.00409151
0.000410238 -0.000248452 -1.67015e-06
-0.000248452 -0.000119797 8.62906e-07
-1.67015e-06 8.62906e-07 -0.000265091
0.000724817 -0.000277828 1.22083e-05
-0.000277828 -3.75474e-05 -7.39965e-06
1.22083e-05 -7.39965e-06 -0.000278142
0.00652395 7.13923e-05 -5.02689e-06
7.13923e-05 0.00381543 -2.18497e-07
-5.02689e-06 -2.18497e-07 0.0038141
0.000601251 -0.000243622 2.63795e-05
-0.000243622 1.05337e-05 -1.96909e-05
2.63795e-05 -1.96909e-05 -0.000116417
0.00598053 0.00013353 0.00021126
0.00013353 0.00351736 -2.5665e-05
0.00021126 -2.5665e-05 0.00349803
0.00159942 0.000607185 -2.14604e-06
0.000607185 0.00020131 5.76895e-06
-2.14604e-06 5.76895e-06 -0.000159638
0.00171772 0.000640053 -1.67457e-06
0.000640053 0.000444355 4.78548e-07
-1.67457e-06 4.78548e-07 3.93172e-05
0.00126057 0.00045504 -7.72098e-06
0.00045504 0.00020158 -4.36362e-07
-7.72098e-06 -4.36362e-07 -0.000117093
0.00135386 0.00052108 -5.27943e-06
0.00052108 0.000332298 -1.20378e-06
-5.27943e-06 -1.20378e-06 -3.10001e-05
0.000994265 0.000333772 -3.95866e-06
0.000333772 0.00015279 -1.97597e-06
-3.95866e-06 -1.97597e-06 -0.000121972
0.00119991 0.000257128 -9.01736e-06
0.000257128 0.000386685 -2.64559e-06
-9.01736e-06 -2.64559e-06 0.000152968
-6.20104e-05 0.000135052 -3.57048e-06
0.000135052 -0.000388987 -1.19889e-06
-3.57048e-06 -1.19889e-06 -0.00060137
0.000859173 0.000171363 -8.82139e-07
0.000171363 0.00022397 -3.42426e-07
-8.82139e-07 -3.42426e-07 4.15054e-06
0.000537102 0.000128979 -2.37301e-05
0.000128979 -9.97623e-06 -1.80963e-05
-2.37301e-05 -1.80963e-05 -0.000102156
0.000365218 0.000102601 8.28639e-07
0.000102601 -5.49162e-05 1.09235e-05
8.28639e-07 1.09235e-05 -0.000242888
0.000438782 7.75856e-05 -7.69726e-07
7.75856e-05 -4.0898e-05 -3.39992e-07
-7.69726e-07 -3.39992e-07 -0.000116208
0.00455324 -0.000151957 -0.000138523
-0.000151957 0.00261268 -1.30602e-05
-0.000138523 -1.30602e-05 0.00259944
0.000305422 5.71162e-05 9.05469e-06
5.71162e-05 -0.000108471 1.55308e-05
9.05469e-06 1.55308e-05 -0.000169385
0.00378808 -0.000148764 -1.08766e-05
-0.000148764 0.00211823 1.13977e-06
-1.08766e-05 1.13977e-06 0.0021085
0.00313624 -0.00013387 5.38615e-05
-0.00013387 0.00168999 5.59064e-06
5.38615e-05 5.59064e-06 0.00168484
0.000673334 0.000170718 -2.80787e-06
0.000170718 -0.00180911 9.36177e-06
-2.80787e-06 9.36177e-06 -0.00105282
0.00505416 6.56026e-05 6.67227e-05
6.56026e-05 -0.000825336 2.03684e-05
6.67227e-05 2.03684e-05 0.000655724
0.0146401 0.000835205 -1.29065e-05
0.000835205 0.0021188 1.76895e-05
-1.29065e-05 1.76895e-05 0.00199851
0.00195538 0.000778057 -8.72086e-07
0.000778057 0.000318563 5.09299e-06
-8.72086e-07 5.09299e-06 -3.617e-05
0.00217715 0.000744181 -8.64021e-07
0.000744181 0.00029069 3.9842e-06
-8.64021e-07 3.9842e-06 -2.5985e-05
0.00154646 0.000671044 -5.76588e-07
0.000671044 0.000114981 -3.82602e-06
-5.76588e-07 -3.82602e-06 -0.000244538
0.00286213 0.000903631 -1.54096e-05
0.000903631 0.00124348 2.43143e-06
-1.54096e-05 2.43143e-06 0.000790716
0.00201335 0.000745206 -6.2623e-06
0.000745206 0.000635921 -9.60845e-06
-6.2623e-06 -9.60845e-06 0.000181821
0.00208523 0.000858585 7.33657e-06
0.000858585 0.000535776 3.67581e-06
7.33657e-06 3.67581e-06 0.000148655
0.00204386 0.000859999 -2.0793e-06
0.000859999 0.000158358 -3.55455e-06
-2.0793e-06 -3.55455e-06 -0.000160299
0.00236345 0.000969555 -1.85161e-05
0.000969555 0.000636162 5.71819e-06
-1.85161e-05 5.71819e-06 0.000303278
0.00102335 0.000807454 -1.5249e-05
0.000807454 -0.000397675 1.57234e-05
-1.5249e-05 1.57234e-05 -0.000331513
0.00277909 0.00100974 7.80233e-07
0.00100974 0.000648507 3.82042e-06
7.80233e-07 3.82042e-06 0.000304775
0.00272428 0.000863084 -4.57107e-06
0.000863084 0.000409704 3.94925e-06
-4.57107e-06 3.94925e-06 0.000173727
0.00128203 0.000412468 3.98565e-05
0.000412468 -0.000304466 1.68737e-05
3.98565e-05 1.68737e-05 -0.000236718
0.000372874 0.000665482 9.37796e-06
0.000665482 -0.000566849 -4.75482e-06
9.37796e-06 -4.75482e-06 -0.000747885
0.000989499 0.000876958 -3.55907e-05
0.000876958 -0.000178701 -3.81001e-06
-3.55907e-05 -3.81001e-06 -0.000466503
0.00314372 0.000980791 9.2847e-06
0.000980791 -0.00017104 8.62081e-06
9.2847e-06 8.62081e-06 0.000100633
0.00736183 0.00157613 -3.05737e-05
0.00157613 -0.000724045 -4.32773e-05
-3.05737e-05 -4.32773e-05 0.000474746
0.0045485 0.00158374 -4.80698e-05
0.00158374 0.00113563 -5.91535e-05
-4.80698e-05 -5.91535e-05 0.00104939
0.00238792 -9.53004e-05 4.17648e-05
-9.53004e-05 7.17347e-05 3.96738e-06
4.17648e-05 3.96738e-06 0.000259993
0.00298503 -0.000246991 -6.43192e-05
-0.000246991 -0.000458297 3.89322e-06
-6.43192e-05 3.89322e-06 -2.65456e-06
0.00434847 0.000400967 2.36991e-05
0.000400967 -0.000140706 -2.1154e-05
2.36991e-05 -2.1154e-05 0.000608091
0.000892725 -0.000591276 -7.28728e-05
-0.000591276 -0.00141714 5.39535e-05
-7.28728e-05 5.39535e-05 -0.000933171
0.0027094 -0.000544347 -0.000100487
-0.000544347 -0.000425982 -7.56781e-07
-0.000100487 -7.56781e-07 -0.000278229
0.00272054 -0.000388451 8.60384e-06
-0.000388451 -5.99442e-05 -3.05752e-06
8.60384e-06 -3.05752e-06 0.000305864
0.0025646 -0.000104795 -1.71206e-05
-0.000104795 0.000285774 6.98193e-07
-1.71206e-05 6.98193e-07 0.000340485
0.00252693 -0.000251489 1.53303e-05
-0.000251489 -1.53209e-05 -4.64281e-07
1.53303e-05 -4.64281e-07 0.000142347
0.00237318 1.15837e-05 1.11597e-05
1.15837e-05 -8.39784e-05 3.12171e-06
1.11597e-05 3.12171e-06 -5.79514e-06
0.00220491 -0.000570852 -1.89843e-05
-0.000570852 -0.000385545 5.67172e-06
-1.89843e-05 5.67172e-06 -0.000132492
0.00247815 -0.000472264 -2.69359e-06
-0.000472264 -0.000180062 7.36022e-07
-2.69359e-06 7.36022e-07 4.81178e-06
0.00239351 -0.000328022 7.39786e-08
-0.000328022 -0.000100838 -8.56202e-07
7.39786e-08 -8.56202e-07 2.3971e-06
0.00239467 -0.000551836 -3.83439e-06
-0.000551836 2.92804e-05 8.31149e-07
-3.83439e-06 8.31149e-07 4.65791e-05
0.00232849 -0.000442375 -1.82701e-08
-0.000442375 -6.21314e-06 -1.89707e-07
-1.82701e-08 -1.89707e-07 6.94519e-06
0.00222978 -0.000366233 -5.19338e-07
-0.000366233 1.2649e-05 5.15072e-07
-5.19338e-07 5.15072e-07 2.14753e-06
0.00224677 -0.000521378 -4.59843e-07
-0.000521378 6.70689e-05 -8.05743e-07
-4.59843e-07 -8.05743e-07 5.28622e-06
0.00215106 -0.000436016 4.68834e-07
-0.000436016 6.66112e-05 -1.49955e-07
4.68834e-07 -1.49955e-07 -1.04979e-05
0.00210478 -0.000397629 -2.24535e-06
-0.000397629 0.000102999 9.13546e-07
-2.24535e-06 9.13546e-07 -4.3858e-07
0.00207731 -0.000496898 2.31233e-06
-0.000496898 0.000102949 -1.40318e-06
2.31233e-06 -1.40318e-06 -3.04104e-05
0.00204442 -0.000455845 6.50623e-07
-0.000455845 0.000127892 -4.80567e-07
6.50623e-07 -4.80567e-07 -2.34785e-05
0.00204808 -0.000429005 -1.11366e-06
-0.000429005 0.000164249 -1.18688e-06
-1.11366e-06 -1.18688e-06 -6.28508e-06
0.00210161 -0.000482335 -5.86106e-07
-0.000482335 0.00020931 2.08354e-06
-5.86106e-07 2.08354e-06 3.40699e-05
0.00214237 -0.000478229 -4.3229e-07
-0.000478229 0.000267128 -1.95274e-07
-4.3229e-07 -1.95274e-07 6.62899e-05
0.00186078 -0.000408477 -4.38838e-06
-0.000408477 0.000189962 1.00558e-07
-4.38838e-06 1.00558e-07 -3.82469e-05
0.002106 -0.00050925 2.22022e-06
-0.00050925 0.000282866 2.32315e-06
2.22022e-06 2.32315e-06 4.84348e-05
0.00191691 -0.000447982 -8.75984e-07
-0.000447982 0.000272377 2.02316e-08
-8.75984e-07 2.02316e-08 1.86109e-05
0.001113 -0.000274832 -1.81268e-05
-0.000274832 -2.68827e-06 7.75732e-06
-1.81268e-05 7.75732e-06 -0.00022024
0.000263254 -0.000201716 -1.93402e-05
-0.000201716 -0.000251524 1.79051e-05
-1.93402e-05 1.79051e-05 -0.000391351
0.00106579 -0.000304212 6.31791e-07
-0.000304212 5.507e-06 -4.90153e-08
6.31791e-07 -4.90153e-08 -0.000229541
0.00176895 -0.000492837 6.70599e-06
-0.000492837 0.000237756 -7.64044e-07
6.70599e-06 -7.64044e-07 -6.13376e-05
0.00739815 -4.34474e-05 -0.000312681
-4.34474e-05 0.00431165 2.40237e-05
-0.000312681 2.40237e-05 0.00432581
0.000356611 -0.000234315 -1.40257e-06
-0.000234315 -0.000183069 1.59618e-06
-1.40257e-06 1.59618e-06 -0.000327452
0.000872626 -0.000298307 1.54201e-05
-0.000298307 -5.64103e-05 -6.93125e-06
1.54201e-05 -6.93125e-06 -0.000299043
0.00721411 1.00593e-05 -1.08699e-06
1.00593e-05 0.00421917 7.27505e-07
-1.08699e-06 7.27505e-07 0.00422624
0.000552909 -0.000256418 2.50049e-05
-0.000256418 -3.71159e-05 -2.07592e-05
2.50049e-05 -2.07592e-05 -0.000183295
0.0068542 3.35485e-05 0.000278114
3.35485e-05 0.00401361 -2.55782e-05
0.000278114 -2.55782e-05 0.0040169
0.00189998 0.000663817 -1.18982e-06
0.000663817 0.000240145 6.25042e-06
-1.18982e-06 6.25042e-06 -9.10001e-05
0.00167024 0.000619915 -9.22158e-08
0.000619915 0.000249745 8.08043e-07
-9.22158e-08 8.08043e-07 -0.000111858
0.00158878 0.000515629 -8.82278e-06
0.000515629 0.000290277 6.28791e-07
-8.82278e-06 6.28791e-07 -3.67146e-05
0.00152399 0.000622846 2.20504e-07
0.000622846 0.000317218 -2.75293e-06
2.20504e-07 -2.75293e-06 -8.59697e-05
0.00130823 0.000454054 -1.12043e-06
0.000454054 0.000238438 1.52571e-08
-1.12043e-06 1.52571e-08 -7.86761e-05
0.00102067 0.000256885 -1.25376e-05
0.000256885 0.000182454 -4.22817e-06
-1.25376e-05 -4.22817e-06 -4.05566e-05
0.00127967 0.000338427 1.03803e-06
0.000338427 0.000330776 -1.31681e-06
1.03803e-06 -1.31681e-06 6.09256e-05
0.000515366 0.000203131 7.47467e-07
0.000203131 -4.32428e-05 1.23287e-06
7.47467e-07 1.23287e-06 -0.000268716
0.000431653 0.000199087 -2.83964e-05
0.000199087 -9.17747e-05 -1.94502e-05
-2.83964e-05 -1.94502e-05 -0.000201818
0.000205747 0.000115689 1.17266e-06
0.000115689 -0.00017442 6.51744e-06
1.17266e-06 6.51744e-06 -0.000398068
0.000553529 0.000112708 -7.41152e-07
0.000112708 5.46533e-06 -5.86752e-07
-7.41152e-07 -5.86752e-07 -8.52351e-05
0.00554784 -0.000168843 -0.000181952
-0.000168843 0.00325599 -1.86069e-05
-0.000181952 -1.86069e-05 0.00323353
0.000418268 7.42325e-05 1.3942e-05
7.42325e-05 -4.84495e-05 1.80326e-05
1.3942e-05 1.80326e-05 -0.000122116
0.00444064 -0.000176513 -1.09142e-05
-0.000176513 0.00254814 1.30589e-06
-1.09142e-05 1.30589e-06 0.00252895
0.00362038 -0.00016154 7.4468e-05
-0.00016154 0.00201458 6.91813e-06
7.4468e-05 6.91813e-06 0.00200078
0.00153268 0.000186046 3.24306e-05
0.000186046 -0.000321846 1.73146e-05
3.24306e-05 1.73146e-05 -8.14968e-05
0.00260408 0.000226873 -2.25168e-05
0.000226873 -0.00109285 -2.21174e-06
-2.25168e-05 -2.21174e-06 -0.000268336
0.00427227 0.000333416 0.000227131
0.000333416 -0.00171876 6.53044e-05
0.000227131 6.53044e-05 0.000228924
0.00257829 0.000797695 -8.81442e-06
0.000797695 0.000482503 1.51847e-07
-8.81442e-06 1.51847e-07 0.000178899
0.00184971 0.000789613 -6.62361e-06
0.000789613 0.000235316 -5.0556e-06
-6.62361e-06 -5.0556e-06 -0.000116446
0.00223188 0.000603162 1.4143e-06
0.000603162 0.00019722 4.74888e-06
1.4143e-06 4.74888e-06 -3.35521e-05
0.00219298 0.000735384 1.4359e-06
0.000735384 0.000303549 4.89666e-07
1.4359e-06 4.89666e-07 -1.05396e-05
0.00154118 0.000673416 3.99177e-06
0.000673416 0.000121028 -1.11848e-05
3.99177e-06 -1.11848e-05 -0.000235037
0.00224482 0.000670007 -2.80086e-06
0.000670007 8.95303e-05 8.9249e-07
-2.80086e-06 8.9249e-07 -0.000113098
0.00275439 0.000958583 -8.53781e-06
0.000958583 0.000888956 -3.76865e-06
-8.53781e-06 -3.76865e-06 0.000487799
0.00245595 0.000882227 8.41762e-07
0.000882227 0.000408765 1.82328e-07
8.41762e-07 1.82328e-07 8.10274e-05
0.00209917 0.000439202 -1.38749e-05
0.000439202 -0.000169432 -1.24537e-06
-1.38749e-05 -1.24537e-06 -0.000157739
0.00344556 0.00109648 -6.30409e-06
0.00109648 0.00101491 7.17335e-06
-6.30409e-06 7.17335e-06 0.000661142
0.00254094 0.000847686 3.30141e-07
0.000847686 0.000306449 -7.30104e-07
3.30141e-07 -7.30104e-07 6.83448e-05
0.000677459 0.000405838 -1.5377e-06
0.000405838 -0.000646201 1.56711e-06
-1.5377e-06 1.56711e-06 -0.000561902
-0.00126511 0.000509786 -2.47635e-05
0.000509786 -0.00141323 -1.07405e-05
-2.47635e-05 -1.07405e-05 -0.00156442
0.00380574 0.0010912 -0.000130003
0.0010912 0.000164853 -4.28822e-05
-0.000130003 -4.28822e-05 0.000319981
0.00223138 0.00011264 -1.2591e-06
0.00011264 -0.000182538 -5.09067e-07
-1.2591e-06 -5.09067e-07 -7.40509e-05
0.00274497 -8.32997e-05 3.9774e-06
-8.32997e-05 0.000395247 -6.77532e-07
3.9774e-06 -6.77532e-07 0.000519236
0.0026983 -0.000267808 -9.99746e-05
-0.000267808 -0.000595792 3.1148e-06
-9.99746e-05 3.1148e-06 -0.00010965
0.00204715 -0.000370443 -7.503e-05
-0.000370443 -0.000383865 7.69557e-06
-7.503e-05 7.69557e-06 -8.83527e-06
0.00132009 -0.000112751 -1.53616e-05
-0.000112751 -0.000533989 1.37429e-07
-1.53616e-05 1.37429e-07 -0.000456017
0.00251086 -0.000256571 1.78504e-06
-0.000256571 -4.86936e-05 -1.92698e-06
1.78504e-06 -1.92698e-06 0.000134241
0.00243744 1.58616e-05 -2.90951e-06
1.58616e-05 -7.08223e-05 2.33293e-07
-2.90951e-06 2.33293e-07 8.24972e-06
0.0024222 -7.80656e-05 3.86399e-07
-7.80656e-05 -9.89995e-05 -9.7466e-07
3.86399e-07 -9.7466e-07 1.56702e-05
0.00249503 -0.000486088 -5.71581e-06
-0.000486088 -0.000160943 8.88991e-07
-5.71581e-06 8.88991e-07 -1.4359e-05
0.00234493 -0.000316294 3.75127e-07
-0.000316294 -0.000112448 -2.45859e-07
3.75127e-07 -2.45859e-07 -1.7919e-05
0.00227321 -0.000242522 4.91738e-07
-0.000242522 -2.91707e-05 -2.44086e-07
4.91738e-07 -2.44086e-07 2.657e-05
0.00233343 -0.000439879 -2.97877e-07
-0.000439879 1.04036e-05 8.77481e-08
-2.97877e-07 8.77481e-08 1.87211e-05
0.00221997 -0.000362701 8.65863e-08
-0.000362701 1.05399e-05 2.18841e-07
8.65863e-08 2.18841e-07 -1.22068e-06
0.00212079 -0.00030779 -2.74049e-06
-0.00030779 5.07148e-05 9.75919e-07
-2.74049e-06 9.75919e-07 6.63341e-06
0.0021567 -0.000435513 2.01395e-06
-0.000435513 6.55942e-05 -1.15648e-06
2.01395e-06 -1.15648e-06 -1.13416e-05
0.00209495 -0.000396396 6.4871e-07
-0.000396396 9.37166e-05 -2.28799e-07
6.4871e-07 -2.28799e-07 -9.81455e-06
0.0020896 -0.000368607 -1.69803e-06
-0.000368607 0.000148601 -3.08785e-07
-1.69803e-06 -3.08785e-07 1.46471e-05
0.0020178 -0.000453832 1.94323e-06
-0.000453832 0.000107169 -7.81829e-07
1.94323e-06 -7.81829e-07 -4.43292e-05
0.0020798 -0.000431097 -2.89217e-07
-0.000431097 0.000184895 -1.81906e-07
-2.89217e-07 -1.81906e-07 1.37658e-05
0.00191509 -0.000370506 -2.36808e-06
-0.000370506 0.000176025 -3.15871e-07
-2.36808e-06 -3.15871e-07 -2.43991e-05
0.00210454 -0.000476566 7.64057e-07
-0.000476566 0.000244468 1.58521e-06
7.64057e-07 1.58521e-06 4.44329e-05
0.00188781 -0.000410281 -6.24444e-07
-0.000410281 0.000208073 1.55161e-07
-6.24444e-07 1.55161e-07 -1.99782e-05
0.00112404 -0.000242327 -1.47448e-05
-0.000242327 -1.79387e-05 6.60339e-06
-1.47448e-05 6.60339e-06 -0.000219923
0.00195616 -0.000452707 5.2846e-06
-0.000452707 0.000296751 -1.22391e-08
5.2846e-06 -1.22391e-08 4.39328e-05
0.00113623 -0.00027534 1.60121e-07
-0.00027534 8.29657e-06 9.81728e-08
1.60121e-07 9.81728e-08 -0.000208466
0.00278646 -0.000192812 -5.12976e-05
-0.000192812 0.00131678 1.3034e-05
-5.12976e-05 1.3034e-05 0.00120812
0.0023941 -0.000112068 -0.000273858
-0.000112068 0.00115738 3.7967e-05
-0.000273858 3.7967e-05 0.0011389
0.00158295 -0.000212731 -1.46348e-05
-0.000212731 0.000573181 -2.94115e-08
-1.46348e-05 -2.94115e-08 0.000443916
0.00108041 -0.000305109 1.87296e-05
-0.000305109 1.64652e-05 -7.45107e-06
1.87296e-05 -7.45107e-06 -0.000218643
0.00740884 -6.18944e-05 -7.40067e-06
-6.18944e-05 0.00432652 1.51643e-06
-7.40067e-06 1.51643e-06 0.00433741
0.000347141 -0.000261872 2.56335e-05
-0.000261872 -0.00018782 -1.92718e-05
2.56335e-05 -1.92718e-05 -0.000335056
0.00736423 -1.21886e-05 0.000305778
-1.21886e-05 0.00431765 -3.01174e-05
0.000305778 -3.01174e-05 0.00432173
0.00214549 0.000461095 -2.1096e-07
0.000461095 0.000140477 7.7381e-07
-2.1096e-07 7.7381e-07 -2.96697e-05
0.00215561 0.000606658 3.00584e-06
0.000606658 0.000292138 5.83158e-06
3.00584e-06 5.83158e-06 2.58864e-05
0.00215243 0.000683548 4.72393e-07
0.000683548 0.000391689 1.96585e-07
4.72393e-07 1.96585e-07 6.10204e-05
0.00181403 0.000547513 -8.69649e-06
0.000547513 0.000316038 1.62352e-06
-8.69649e-06 1.62352e-06 -7.85857e-07
0.00176538 0.000636961 5.58946e-06
0.000636961 0.000309702 -3.7094e-06
5.58946e-06 -3.7094e-06 -5.39037e-05
0.001564 0.000518097 -2.2757e-07
0.000518097 0.000265129 6.6291e-07
-2.2757e-07 6.6291e-07 -6.44818e-05
0.000762517 0.00027819 -1.59677e-05
0.00027819 -7.98765e-05 -5.6487e-06
-1.59677e-05 -5.6487e-06 -0.000306729
0.00129993 0.000449741 7.98755e-06
0.000449741 0.000236092 1.79637e-06
7.98755e-06 1.79637e-06 -7.91575e-05
0.000659319 0.00023501 9.9333e-07
0.00023501 -4.15894e-05 1.1192e-07
9.9333e-07 1.1192e-07 -0.000258854
0.000515887 0.000264777 -2.87203e-05
0.000264777 -5.15783e-05 -2.02648e-05
-2.87203e-05 -2.02648e-05 -0.000184924
0.000359636 0.000184731 5.49991e-06
0.000184731 -0.000152517 2.62302e-06
5.49991e-06 2.62302e-06 -0.000369955
0.000471752 0.000179893 1.89948e-06
0.000179893 -7.14625e-05 -1.04169e-06
1.89948e-06 -1.04169e-06 -0.000177386
0.00650466 -0.000124156 -0.000235791
-0.000124156 0.00383771 -2.42129e-05
-0.000235791 -2.42129e-05 0.00381996
0.000345929 0.000104236 1.98511e-05
0.000104236 -0.000121653 1.82897e-05
1.98511e-05 1.82897e-05 -0.000206471
0.0051184 -0.0001824 -4.62003e-06
-0.0001824 0.00297779 -4.74681e-07
-4.62003e-06 -4.74681e-07 0.00295543
0.0042304 -0.000193386 9.81917e-05
-0.000193386 0.00242017 9.48031e-06
9.81917e-05 9.48031e-06 0.00239618
0.0022948 0.000225475 -6.87936e-06
0.000225475 -0.000190908 -1.48357e-06
-6.87936e-06 -1.48357e-06 -4.80131e-05
0.00213031 0.000138439 1.96826e-05
0.000138439 -0.000120803 -2.77599e-06
1.96826e-05 -2.77599e-06 0.000172146
0.00546797 0.000336292 -0.000119165
0.000336292 0.000179242 -2.41298e-06
-0.000119165 -2.41298e-06 0.0010525
0.00224231 0.000553299 -3.31131e-06
0.000553299 0.000141295 1.47534e-06
-3.31131e-06 1.47534e-06 -3.90701e-05
0.00226201 0.000753722 -3.97053e-06
0.000753722 0.000335579 -4.06962e-07
-3.97053e-06 -4.06962e-07 3.92681e-05
0.00177715 0.000803924 -3.14494e-06
0.000803924 0.00017284 -1.03891e-05
-3.14494e-06 -1.03891e-05 -0.000175913
0.00232082 0.000595372 2.76004e-06
0.000595372 0.000270043 1.42487e-06
2.76004e-06 1.42487e-06 4.20446e-05
0.00220851 0.000726497 1.33587e-06
0.000726497 0.000316609 -5.12603e-06
1.33587e-06 -5.12603e-06 5.05352e-06
0.00246579 0.000441583 -2.11521e-07
0.000441583 1.39848e-05 4.5841e-07
-2.11521e-07 4.5841e-07 1.61032e-05
0.00225249 0.000676944 -8.21145e-07
0.000676944 0.000109134 2.11705e-07
-8.21145e-07 2.11705e-07 -9.30668e-05
0.00278983 0.000895835 -6.2444e-06
0.000895835 0.000618402 -2.14055e-06
-6.2444e-06 -2.14055e-06 0.000281923
0.00206345 0.000426524 3.06499e-08
0.000426524 -0.000165169 -2.112e-07
3.06499e-08 -2.112e-07 -0.000151429
0.00223644 0.000816435 1.34361e-05
0.000816435 0.000124626 2.88786e-06
1.34361e-05 2.88786e-06 -0.000111747
-6.70414e-05 0.000361454 -4.05557e-05
0.000361454 -0.00107586 -1.91415e-05
-4.05557e-05 -1.91415e-05 -0.000970229
0.00241902 9.27855e-05 6.95806e-07
9.27855e-05 -4.01058e-05 2.05229e-07
6.95806e-07 2.05229e-07 4.5697e-05
0.00223344 0.000119762 -1.27544e-06
0.000119762 -0.000177011 4.02118e-07
-1.27544e-06 4.02118e-07 -7.36062e-05
0.00314211 -7.62799e-05 -5.18994e-05
-7.62799e-05 0.000726316 1.11834e-06
-5.18994e-05 1.11834e-06 0.0007987
0.00247135 -0.000256233 -2.43251e-05
-0.000256233 -0.000101917 2.4001e-06
-2.43251e-05 2.4001e-06 0.000105642
0.00251424 2.50363e-05 -7.58532e-06
2.50363e-05 -5.54786e-05 -3.97936e-06
-7.58532e-06 -3.97936e-06 2.40956e-05
0.00238819 -8.70867e-05 -1.77221e-07
-8.70867e-05 -0.000134736 1.02375e-07
-1.77221e-07 1.02375e-07 -1.44259e-05
0.00214653 -7.37029e-05 3.47745e-07
-7.37029e-05 -4.01409e-05 4.95573e-08
3.47745e-07 4.95573e-08 2.50915e-06
0.00229527 -0.000303754 2.67171e-08
-0.000303754 -0.000123178 1.50752e-08
2.67171e-08 1.50752e-08 -3.76991e-05
0.0022251 -0.000248092 -1.47062e-07
-0.000248092 -5.21901e-05 4.38662e-08
-1.47062e-07 4.38662e-08 -3.68687e-06
0.00208975 -0.000206383 -1.68475e-06
-0.000206383 1.18235e-05 1.56611e-07
-1.68475e-06 1.56611e-07 -1.77638e-06
0.00220932 -0.000359176 6.51723e-07
-0.000359176 7.80022e-06 -1.99593e-08
6.51723e-07 -1.99593e-08 -5.22038e-06
0.00212304 -0.000309006 2.58702e-07
-0.000309006 4.68345e-05 4.80089e-08
2.58702e-07 4.80089e-08 2.44126e-06
0.00212145 -0.000297892 -2.89206e-06
-0.000297892 0.000120395 3.72464e-07
-2.89206e-06 3.72464e-07 2.38933e-05
0.00208675 -0.000395102 2.94445e-06
-0.000395102 8.56132e-05 -1.20841e-06
2.94445e-06 -1.20841e-06 -1.7972e-05
0.00206634 -0.000367417 -1.89238e-07
-0.000367417 0.000131165 -1.82259e-07
-1.89238e-07 -1.82259e-07 -3.05874e-06
0.00191352 -0.000318158 -1.55159e-06
-0.000318158 0.000135591 -4.28988e-07
-1.55159e-06 -4.28988e-07 -3.62391e-05
0.00211334 -0.000433368 1.57462e-06
-0.000433368 0.00020667 5.11157e-07
1.57462e-06 5.11157e-07 3.49074e-05
0.00193417 -0.000371974 -5.1722e-07
-0.000371974 0.000188861 1.25346e-08
-5.1722e-07 1.25346e-08 -1.14845e-05
0.00112411 -0.000214728 -1.20353e-05
-0.000214728 -3.84878e-05 5.09008e-06
-1.20353e-05 5.09008e-06 -0.000228205
0.00191411 -0.000411964 3.446e-06
-0.000411964 0.000225888 3.25807e-08
3.446e-06 3.25807e-08 -1.98192e-06
0.00116196 -0.000244023 -1.62068e-08
-0.000244023 -1.329e-06 2.09245e-07
-1.62068e-08 2.09245e-07 -0.000202532
0.00277789 -0.000184491 -5.90378e-05
-0.000184491 0.00130324 1.26679e-05
-5.90378e-05 1.26679e-05 0.00120375
0.00116175 -0.000276351 1.76046e-05
-0.000276351 2.05077e-05 -7.35096e-06
1.76046e-05 -7.35096e-06 -0.000195593
0.00293534 -0.000231088 5.0641e-05
-0.000231088 0.00141129 -8.07723e-06
5.0641e-05 -8.07723e-06 0.00131079
0.00232748 -0.000143832 -0.000265908
-0.000143832 0.00112324 4.23719e-05
-0.000265908 4.23719e-05 0.00110192
0.00467938 -0.000127255 -0.000260988
-0.000127255 0.00261522 2.79638e-05
-0.000260988 2.79638e-05 0.00260971
0.00301458 -0.000288157 0.00016629
-0.000288157 0.00147767 -2.75373e-05
0.00016629 -2.75373e-05 0.00137523
0.00741027 -7.37899e-05 0.000313959
-7.37899e-05 0.00433611 -3.41521e-05
0.000313959 -3.41521e-05 0.00434251
0.00231402 0.000456202 -2.47755e-06
0.000456202 0.000225462 -4.9641e-07
-2.47755e-06 -4.9641e-07 8.49801e-05
0.00196067 0.000469307 9.26927e-07
0.000469307 0.00013009 1.61739e-06
9.26927e-07 1.61739e-06 -7.23989e-05
0.00215949 0.000452347 1.93996e-07
0.000452347 0.000157818 -1.5199e-06
1.93996e-07 -1.5199e-06 -5.65946e-06
0.00192522 0.000509184 -5.94994e-06
0.000509184 0.000266004 1.92484e-06
-5.94994e-06 1.92484e-06 -1.04379e-05
0.00224199 0.000616257 8.60453e-07
0.000616257 0.000331219 4.26686e-07
8.60453e-07 4.26686e-07 6.33797e-05
0.00242324 0.000706386 9.6632e-07
0.000706386 0.000555013 -5.40111e-06
9.6632e-07 -5.40111e-06 0.000224009
0.00175344 0.000545342 3.74246e-07
0.000545342 0.000269977 6.38927e-07
3.74246e-07 6.38927e-07 -4.82255e-05
0.000969336 0.000317106 -2.30995e-05
0.000317106 -3.5672e-05 -6.81592e-06
-2.30995e-05 -6.81592e-06 -0.000272183
0.0015395 0.000519769 1.04774e-05
0.000519769 0.000241776 1.32513e-06
1.04774e-05 1.32513e-06 -9.01419e-05
0.00086178 0.000281467 -1.42738e-06
0.000281467 -1.06143e-05 -4.21519e-07
-1.42738e-06 -4.21519e-07 -0.000235363
0.000329115 0.000263947 -2.62086e-05
0.000263947 -0.000181867 -1.9956e-05
-2.62086e-05 -1.9956e-05 -0.000327697
0.00036117 0.000213169 9.92135e-06
0.000213169 -0.000222691 2.55902e-06
9.92135e-06 2.55902e-06 -0.000434465
0.00031857 0.000221483 3.1276e-06
0.000221483 -0.000175848 4.35151e-07
3.1276e-06 4.35151e-07 -0.00030366
0.0072302 -3.27332e-05 -0.000284675
-3.27332e-05 0.00426 -3.02745e-05
-0.000284675 -3.02745e-05 0.00425277
0.000347806 0.000139172 2.35853e-05
0.000139172 -0.000146901 1.84013e-05
2.35853e-05 1.84013e-05 -0.000248844
0.00613033 -0.000156294 7.16052e-06
-0.000156294 0.00360375 -2.76713e-06
7.16052e-06 -2.76713e-06 0.00358413
0.00493251 -0.000229879 0.000121658
-0.000229879 0.00288212 1.25764e-05
0.000121658 1.25764e-05 0.00284569
0.00241718 0.000263824 3.80531e-07
0.000263824 -5.04632e-05 7.64685e-07
3.80531e-07 7.64685e-07 3.01941e-05
0.00220273 0.000230355 1.85131e-06
0.000230355 -0.000219079 -2.00743e-07
1.85131e-06 -2.00743e-07 -7.65043e-05
0.00238031 9.56353e-05 -7.39515e-05
9.56353e-05 -0.00011228 -8.35891e-06
-7.39515e-05 -8.35891e-06 0.000237892
0.00222884 0.000394691 8.14432e-07
0.000394691 1.45146e-05 3.99741e-07
8.14432e-07 3.99741e-07 -3.37037e-05
0.00221027 0.000547972 -7.67734e-07
0.000547972 0.000144093 3.0869e-07
-7.67734e-07 3.0869e-07 -3.40575e-05
0.00194948 0.000709461 7.2293e-06
0.000709461 0.000189537 -2.64582e-06
7.2293e-06 -2.64582e-06 -9.9334e-05
0.00240384 0.000586911 -7.18237e-07
0.000586911 0.000339501 -2.94682e-06
-7.18237e-07 -2.94682e-06 0.000114518
0.00241009 0.000424273 -1.01696e-06
0.000424273 -2.48027e-06 -1.1111e-07
-1.01696e-06 -1.1111e-07 9.21608e-07
0.0022519 0.000683407 -2.47945e-06
0.000683407 0.000123868 -2.36803e-07
-2.47945e-06 -2.36803e-07 -7.78851e-05
0.00201299 0.000416453 1.30278e-05
0.000416453 -0.000137046 6.43413e-07
1.30278e-05 6.43413e-07 -0.000123238
0.00220789 7.14143e-05 2.05829e-06
7.14143e-05 -2.30156e-05 3.133e-07
2.05829e-06 3.133e-07 1.54095e-05
0.00234131 8.71449e-05 9.23229e-08
8.71449e-05 -7.4646e-05 -1.07771e-09
9.23229e-08 -1.07771e-09 9.42742e-06
0.00220751 0.000132234 -7.50704e-06
0.000132234 -0.000184732 -1.58333e-06
-7.50704e-06 -1.58333e-06 -8.8299e-05
0.00206392 -1.39665e-05 -2.59633e-06
-1.39665e-05 -3.22478e-06 2.69831e-07
-2.59633e-06 2.69831e-07 8.83292e-06
0.00235105 -0.00010265 -6.50802e-08
-0.00010265 -0.000172051 -1.94975e-07
-6.50802e-08 -1.94975e-07 -4.44405e-05
0.00215882 -7.692e-05 -6.11756e-07
-7.692e-05 -3.67588e-05 2.22273e-07
-6.11756e-07 2.22273e-07 5.94934e-06
0.00201839 -0.000112419 -3.09751e-06
-0.000112419 -2.07904e-05 3.56684e-07
-3.09751e-06 3.56684e-07 -2.64983e-05
0.00217647 -0.000253395 4.42269e-08
-0.000253395 -7.54585e-05 1.93175e-07
4.42269e-08 1.93175e-07 -3.43436e-05
0.00208507 -0.000204239 1.00036e-06
-0.000204239 8.07308e-06 -2.9646e-07
1.00036e-06 -2.9646e-07 -4.7356e-06
0.00212665 -0.000209373 -1.90299e-06
-0.000209373 9.52777e-05 3.94758e-07
-1.90299e-06 3.94758e-07 3.15182e-05
0.00212795 -0.00030995 2.91363e-06
-0.00030995 4.46188e-05 -9.19454e-07
2.91363e-06 -9.19454e-07 -5.02288e-08
0.00207369 -0.000292457 4.97282e-08
-0.000292457 9.22258e-05 -3.19229e-07
4.97282e-08 -3.19229e-07 -3.76533e-06
0.00190389 -0.00024963 -1.54864e-06
-0.00024963 0.000104814 -5.46454e-07
-1.54864e-06 -5.46454e-07 -3.81558e-05
0.00203881 -0.000365749 2.3085e-06
-0.000365749 0.000111789 -2.83217e-07
2.3085e-06 -2.83217e-07 -2.26139e-05
0.00195567 -0.000319429 -3.22648e-07
-0.000319429 0.000163357 1.45069e-08
-3.22648e-07 1.45069e-08 -8.16021e-06
0.00114966 -0.000186806 -1.09413e-05
-0.000186806 -3.92665e-05 3.57225e-06
-1.09413e-05 3.57225e-06 -0.000216747
0.00195393 -0.000373199 1.48059e-06
-0.000373199 0.000202628 1.38126e-07
1.48059e-06 1.38126e-07 2.44526e-06
0.00117321 -0.000215649 -1.98628e-07
-0.000215649 -1.42101e-05 2.39599e-07
-1.98628e-07 2.39599e-07 -0.000202782
0.00274632 -0.000175486 -6.63009e-05
-0.000175486 0.00128467 1.21447e-05
-6.63009e-05 1.21447e-05 0.00118954
0.00119118 -0.000245401 1.4186e-05
-0.000245401 9.2012e-06 -6.21546e-06
1.4186e-05 -6.21546e-06 -0.000191173
0.0028714 -0.000206073 4.62438e-05
-0.000206073 0.0013624 -6.37943e-06
4.62438e-05 -6.37943e-06 0.00127091
0.00232908 -0.000122104 -0.000259167
-0.000122104 0.00111545 3.71118e-05
-0.000259167 3.71118e-05 0.00109681
0.00305342 -0.00023816 0.00016006
-0.00023816 0.00148018 -2.8674e-05
0.00016006 -2.8674e-05 0.00139047
0.00194697 -8.06951e-05 -0.000107287
-8.06951e-05 0.000885552 1.59707e-05
-0.000107287 1.59707e-05 0.000850579
0.00677957 -9.01385e-06 9.78952e-05
-9.01385e-06 0.00392291 -5.19365e-06
9.78952e-05 -5.19365e-06 0.00390359
0.00223077 0.000393843 -1.20638e-06
0.000393843 0.000134381 -2.61847e-07
-1.20638e-06 -2.61847e-07 3.67941e-05
0.00212753 0.000428113 -2.5783e-06
0.000428113 0.000170501 -7.96159e-07
-2.5783e-06 -7.96159e-07 6.43438e-06
0.00230236 0.000457973 -3.49544e-06
0.000457973 0.000209043 -1.42908e-07
-3.49544e-06 -1.42908e-07 6.72128e-05
0.00192888 0.000433884 -2.67733e-06
0.000433884 0.000201255 3.77519e-07
-2.67733e-06 3.77519e-07 -3.21104e-05
0.00195186 0.000476409 -1.07825e-06
0.000476409 0.000104605 -2.3319e-06
-1.07825e-06 -2.3319e-06 -9.46943e-05
0.00217816 0.000443989 -3.36232e-06
0.000443989 0.000178054 -3.89637e-06
-3.36232e-06 -3.89637e-06 2.11656e-05
0.00118846 0.000313231 -2.33986e-05
0.000313231 2.64627e-05 -7.07601e-06
-2.33986e-05 -7.07601e-06 -0.000198821
0.00185151 0.000503702 1.23837e-06
0.000503702 0.000220783 4.00602e-07
1.23837e-06 4.00602e-07 -5.55356e-05
0.00231922 0.000624618 1.37955e-06
0.000624618 0.000364117 -4.66186e-06
1.37955e-06 -4.66186e-06 9.49425e-05
0.00170895 0.000544568 1.01676e-05
0.000544568 0.00023413 -3.089e-07
1.01676e-05 -3.089e-07 -8.5721e-05
0.00099981 0.000315262 -2.03405e-06
0.000315262 -1.35396e-05 3.92034e-09
-2.03405e-06 3.92034e-09 -0.000248286
0.000271409 0.000247073 -2.5753e-05
0.000247073 -0.000233361 -1.83834e-05
-2.5753e-05 -1.83834e-05 -0.000376882
0.000846361 0.000276408 1.66842e-05
0.000276408 -1.40008e-05 6.33267e-06
1.66842e-05 6.33267e-06 -0.000235803
0.000336789 0.000252243 1.28611e-06
0.000252243 -0.000171716 1.20638e-06
1.28611e-06 1.20638e-06 -0.000317987
0.00749101 5.61319e-05 -0.000303412
5.61319e-05 0.00440691 -3.69584e-05
-0.000303412 -3.69584e-05 0.00440117
0.000310256 0.000200103 2.43088e-05
0.000200103 -0.000185104 2.03644e-05
2.43088e-05 2.03644e-05 -0.00030983
0.00696294 -7.91135e-05 4.26389e-06
-7.91135e-05 0.00408949 -6.84577e-07
4.26389e-06 -6.84577e-07 0.00408304
0.00571065 -0.000183652 0.000168283
-0.000183652 0.00333854 1.13656e-05
0.000168283 1.13656e-05 0.00331704
0.00219654 0.000210821 1.52704e-07
0.000210821 -1.5891e-05 -2.56232e-07
1.52704e-07 -2.56232e-07 8.52641e-06
0.00238649 0.000268388 -2.08848e-07
0.000268388 -7.72938e-05 5.48921e-07
-2.08848e-07 5.48921e-07 5.26698e-06
0.00219848 0.000233819 3.61246e-06
0.000233819 -0.000215616 3.2237e-07
3.61246e-06 3.2237e-07 -7.29067e-05
0.00224311 0.000390002 -1.01054e-07
0.000390002 2.71504e-05 5.91434e-08
-1.01054e-07 5.91434e-08 -1.83418e-05
0.0021803 0.000541967 6.38067e-07
0.000541967 0.000151162 -8.67502e-07
6.38067e-07 -8.67502e-07 -2.46744e-05
0.00237225 0.000408661 2.00552e-06
0.000408661 -1.53088e-05 -2.65164e-07
2.00552e-06 -2.65164e-07 -1.09497e-05
0.00209059 6.43471e-05 -4.69441e-07
6.43471e-05 -8.93119e-06 1.47981e-07
-4.69441e-07 1.47981e-07 2.27861e-06
0.00219228 6.67754e-05 3.28859e-07
6.67754e-05 -3.09447e-05 -1.84692e-07
3.28859e-07 -1.84692e-07 7.83577e-06
0.00226483 8.12801e-05 -1.07345e-06
8.12801e-05 -0.000110093 -1.4592e-07
-1.07345e-06 -1.4592e-07 -2.70891e-05
0.002059 -1.19802e-05 -8.65633e-07
-1.19802e-05 -7.63973e-06 4.32508e-08
-8.65633e-07 4.32508e-08 3.13182e-06
0.0020378 -3.73796e-05 -5.92913e-06
-3.73796e-05 3.31406e-05 5.28025e-07
-5.92913e-06 5.28025e-07 2.3795e-05
0.00217179 -7.99413e-05 -3.42841e-07
-7.99413e-05 -3.33467e-05 3.56939e-07
-3.42841e-07 3.56939e-07 9.58999e-06
0.00203852 -0.000112094 -1.52464e-06
-0.000112094 -1.89277e-06 2.47687e-07
-1.52464e-06 2.47687e-07 -1.04743e-05
0.00205214 -0.000131285 -6.05076e-06
-0.000131285 3.88546e-05 6.78928e-07
-6.05076e-06 6.78928e-07 -3.83778e-06
0.00208 -0.000202438 3.8044e-06
-0.000202438 4.37926e-06 -8.42944e-07
3.8044e-06 -8.42944e-07 -7.72937e-06
0.00209244 -0.000208472 2.77288e-06
-0.000208472 7.66785e-05 -5.30648e-07
2.77288e-06 -5.30648e-07 1.30434e-05
0.00193638 -0.000181917 7.90049e-07
-0.000181917 0.000108334 -1.18184e-06
7.90049e-07 -1.18184e-06 -1.09256e-05
0.00202011 -0.000288167 3.02835e-06
-0.000288167 5.94579e-05 -1.03962e-06
3.02835e-06 -1.03962e-06 -3.62618e-05
0.00195124 -0.00025349 -1.96428e-07
-0.00025349 0.000129602 8.76998e-09
-1.96428e-07 8.76998e-09 -1.36917e-05
0.00117193 -0.000150958 -1.15246e-05
-0.000150958 -3.28318e-05 2.31337e-06
-1.15246e-05 2.31337e-06 -0.000196646
0.00198498 -0.00032038 6.64349e-07
-0.00032038 0.000181809 3.12792e-07
6.64349e-07 3.12792e-07 1.05268e-05
0.00117347 -0.000184852 -3.4138e-07
-0.000184852 -2.7845e-05 2.81644e-07
-3.4138e-07 2.81644e-07 -0.000203928
0.00266341 -0.00017451 -6.85209e-05
-0.00017451 0.00123618 1.02104e-05
-6.85209e-05 1.02104e-05 0.00114432
0.00121433 -0.000216375 1.15095e-05
-0.000216375 4.41013e-06 -4.72388e-06
1.15095e-05 -4.72388e-06 -0.000183019
0.00282344 -0.000175813 4.417e-05
-0.000175813 0.00132819 -4.89625e-06
4.417e-05 -4.89625e-06 0.00124273
0.00232785 -0.000101389 -0.00025698
-0.000101389 0.00110767 3.10881e-05
-0.00025698 3.10881e-05 0.00109049
0.00296448 -0.000198243 0.000155892
-0.000198243 0.00141285 -2.44478e-05
0.000155892 -2.44478e-05 0.00133313
0.00193053 -8.19705e-05 -9.72142e-05
-8.19705e-05 0.000869833 1.26941e-05
-9.72142e-05 1.26941e-05 0.000837355
0.00163031 -7.78955e-05 6.38619e-05
-7.78955e-05 0.000699509 -1.04587e-05
6.38619e-05 -1.04587e-05 0.000646297
0.00208504 0.000247761 -1.73765e-06
0.000247761 1.87451e-06 -7.29608e-07
-1.73765e-06 -7.29608e-07 -3.09762e-05
0.0021451 0.000356844 -2.82873e-06
0.000356844 0.000149573 6.62022e-08
-2.82873e-06 6.62022e-08 2.55727e-05
0.00220316 0.000394855 -3.95198e-07
0.000394855 9.53295e-05 -1.00265e-07
-3.95198e-07 -1.00265e-07 6.77755e-06
0.0020275 0.00039514 7.63322e-08
0.00039514 0.000204415 5.66765e-07
7.63322e-08 5.66765e-07 8.17383e-06
0.00213122 0.000425468 -1.53511e-06
0.000425468 0.000182198 -6.30467e-07
-1.53511e-06 -6.30467e-07 1.74716e-05
0.00228513 0.000460056 2.2946e-06
0.000460056 0.000188777 3.05843e-07
2.2946e-06 3.05843e-07 4.54191e-05
0.00123855 0.00027229 -1.84754e-05
0.00027229 1.59613e-05 -6.31936e-06
-1.84754e-05 -6.31936e-06 -0.000188106
0.00189254 0.000436578 1.90193e-06
0.000436578 0.000170436 -2.24478e-07
1.90193e-06 -2.24478e-07 -5.83654e-05
0.00195278 0.000484317 -1.78221e-06
0.000484317 8.55043e-05 -4.96149e-06
-1.78221e-06 -4.96149e-06 -0.000110683
0.000293785 0.000193833 -2.22498e-05
0.000193833 -0.000243029 -1.57028e-05
-2.22498e-05 -1.57028e-05 -0.000373448
0.00114113 0.000308633 -6.77982e-07
0.000308633 -7.9038e-07 2.69555e-08
-6.77982e-07 2.69555e-08 -0.000225782
0.00177219 0.000498625 7.81102e-06
0.000498625 0.000169917 -1.31243e-06
7.81102e-06 -1.31243e-06 -0.0001065
0.00109057 0.0003171 2.43198e-05
0.0003171 4.71044e-05 8.67752e-06
2.43198e-05 8.67752e-06 -0.000186042
0.000313595 0.000237382 4.28399e-07
0.000237382 -0.000203565 1.08023e-06
4.28399e-07 1.08023e-06 -0.000348666
0.00734377 0.000155666 -0.000308479
0.000155666 0.00429961 -4.10402e-05
-0.000308479 -4.10402e-05 0.00429605
0.000365428 0.000236993 2.26567e-05
0.000236993 -0.000151211 1.90756e-05
2.26567e-05 1.90756e-05 -0.000295929
0.00734782 2.89297e-05 7.89021e-06
2.89297e-05 0.00430499 4.4897e-07
7.89021e-06 4.4897e-07 0.00430748
0.00671616 -0.000109937 0.000232739
-0.000109937 0.00393176 1.44071e-05
0.000232739 1.44071e-05 0.00392583
0.00211302 0.000128619 -2.7373e-06
0.000128619 2.24249e-05 -6.74194e-07
-2.7373e-06 -6.74194e-07 2.69833e-05
0.00219099 0.000215357 7.17407e-07
0.000215357 -2.1947e-05 3.42416e-07
7.17407e-07 3.42416e-07 -1.99972e-07
0.00234276 0.000273255 -3.6734e-07
0.000273255 -0.000108051 -7.60615e-07
-3.6734e-07 -7.60615e-07 -2.4015e-05
0.00225189 0.000384071 1.7283e-06
0.000384071 3.59951e-05 -1.58368e-07
1.7283e-06 -1.58368e-07 -6.33172e-06
0.00200784 2.04618e-05 -5.87203e-06
2.04618e-05 3.75063e-05 3.43237e-07
-5.87203e-06 3.43237e-07 1.44934e-05
0.00208084 5.50471e-05 -3.57232e-08
5.50471e-05 -1.43557e-05 -1.80366e-08
-3.57232e-08 -1.80366e-08 -2.74147e-06
0.00217729 6.20606e-05 -1.22872e-06
6.20606e-05 -3.77837e-05 -8.95831e-08
-1.22872e-06 -8.95831e-08 7.83022e-07
0.002052 -9.06426e-06 -2.29747e-07
-9.06426e-06 -1.29414e-05 -3.34502e-07
-2.29747e-07 -3.34502e-07 -3.69547e-06
0.0020386 -3.16721e-05 -6.98836e-07
-3.16721e-05 2.96249e-05 -1.40688e-07
-6.98836e-07 -1.40688e-07 2.16183e-05
0.00190332 -5.6815e-05 -5.06506e-06
-5.6815e-05 -3.84252e-05 4.38751e-07
-5.06506e-06 4.38751e-07 -8.59676e-05
0.00205645 -0.000111843 3.43633e-06
-0.000111843 1.55729e-05 -9.14175e-08
3.43633e-06 -9.14175e-08 3.89922e-06
0.0020449 -0.000132453 -1.95796e-06
-0.000132453 4.26803e-05 3.7892e-07
-1.95796e-06 3.7892e-07 -7.09192e-06
0.00200851 -0.000121897 -1.74724e-06
-0.000121897 0.000139857 -3.07167e-07
-1.74724e-06 -3.07167e-07 4.41615e-05
0.00206373 -0.000206598 7.14492e-06
-0.000206598 6.13557e-05 -1.34478e-06
7.14492e-06 -1.34478e-06 -1.9391e-06
0.00194842 -0.000180989 1.61331e-06
-0.000180989 0.000108582 -5.86379e-07
1.61331e-06 -5.86379e-07 -1.02563e-05
0.00114304 -0.000112267 -1.1943e-05
-0.000112267 -4.98438e-05 1.50632e-06
-1.1943e-05 1.50632e-06 -0.000200628
0.00202947 -0.000256182 1.44323e-06
-0.000256182 0.000175902 4.44111e-07
1.44323e-06 4.44111e-07 3.27973e-05
0.00116195 -0.000149605 -9.63999e-08
-0.000149605 -3.85073e-05 1.93791e-07
-9.63999e-08 1.93791e-07 -0.000201378
0.000358735 -8.98583e-05 -1.94252e-05
-8.98583e-05 -0.000230014 5.8047e-06
-1.94252e-05 5.8047e-06 -0.000330225
0.00121903 -0.000183819 1.06003e-05
-0.000183819 -3.32055e-06 -3.15095e-06
1.06003e-05 -3.15095e-06 -0.000177955
0.00158452 -0.000114512 6.52564e-05
-0.000114512 0.000541098 -5.10088e-06
6.52564e-05 -5.10088e-06 0.000453277
0.00675741 -0.000171012 -0.000341898
-0.000171012 0.00391548 2.6027e-05
-0.000341898 2.6027e-05 0.00393519
0.00291252 -0.00015875 0.000152985
-0.00015875 0.00137362 -1.92824e-05
0.000152985 -1.92824e-05 0.00130033
0.00193316 -7.92645e-05 -8.81355e-05
-7.92645e-05 0.000869997 8.30426e-06
-8.81355e-05 8.30426e-06 0.000837448
0.00154914 -0.000101099 7.58403e-05
-0.000101099 0.000652041 -1.22856e-05
7.58403e-05 -1.22856e-05 0.000597947
0.00203208 0.000169732 -3.58665e-06
0.000169732 1.48457e-05 -1.13225e-06
-3.58665e-06 -1.13225e-06 -1.52782e-05
0.00206927 0.000271611 -1.62221e-06
0.000271611 7.49352e-05 8.62632e-08
-1.62221e-06 8.62632e-08 -9.48335e-06
0.00209776 0.000241773 -1.19403e-07
0.000241773 2.1075e-05 5.18768e-08
-1.19403e-07 5.18768e-08 -1.76295e-05
0.00208544 0.000323984 8.39494e-07
0.000323984 0.000216393 1.23893e-06
8.39494e-07 1.23893e-06 5.71503e-05
0.00205017 0.000351449 1.00319e-06
0.000351449 8.90008e-05 2.18689e-07
1.00319e-06 2.18689e-07 -3.44109e-05
0.00217542 0.000396121 9.76844e-07
0.000396121 5.62249e-05 1.6747e-07
9.76844e-07 1.6747e-07 -2.35254e-05
0.00126371 0.000239487 -1.42103e-05
0.000239487 1.36426e-05 -4.08917e-06
-1.42103e-05 -4.08917e-06 -0.000170118
0.00203145 0.00039243 2.1676e-06
0.00039243 0.000208382 5.44565e-07
2.1676e-06 5.44565e-07 1.31532e-05
0.00211858 0.000421524 7.5132e-07
0.000421524 0.000183822 -1.28419e-06
7.5132e-07 -1.28419e-06 1.86331e-05
0.000318273 0.000137864 -1.94124e-05
0.000137864 -0.000250288 -1.22534e-05
-1.94124e-05 -1.22534e-05 -0.000365487
0.00117771 0.000269331 4.685e-07
0.000269331 -2.03595e-05 4.77403e-07
4.685e-07 4.77403e-07 -0.000222324
0.00184444 0.000437543 6.64507e-06
0.000437543 0.000132862 -1.57298e-06
6.64507e-06 -1.57298e-06 -9.09473e-05
0.0071337 0.000228635 -0.00031564
0.000228635 0.0041574 -4.07396e-05
-0.00031564 -4.07396e-05 0.00415799
0.00031225 0.00018695 2.29445e-07
0.00018695 -0.000232549 7.26857e-07
2.29445e-07 7.26857e-07 -0.000363432
0.00113268 0.000306093 2.44003e-05
0.000306093 -5.91732e-07 7.72038e-06
2.44003e-05 7.72038e-06 -0.000225401
0.000356797 0.000226075 2.23067e-05
0.000226075 -0.000173595 1.77712e-05
2.23067e-05 1.77712e-05 -0.000320246
0.00735686 0.000148554 1.03659e-05
0.000148554 0.00430181 1.54672e-06
1.03659e-05 1.54672e-06 0.00430492
0.00723096 -9.28918e-06 0.000285483
-9.28918e-06 0.00422111 2.05316e-05
0.000285483 2.05316e-05 0.0042281
0.00197246 7.2559e-05 -7.58904e-06
7.2559e-05 1.75855e-05 -1.96355e-07
-7.58904e-06 -1.96355e-07 -1.0248e-05
0.00210175 0.000124881 8.61592e-08
0.000124881 1.64176e-05 -3.95339e-08
8.61592e-08 -3.95339e-08 1.96179e-05
0.00218783 0.000219944 2.93493e-07
0.000219944 -2.67868e-05 1.73331e-07
2.93493e-07 1.73331e-07 -7.35636e-06
0.00194608 6.18927e-06 -6.24851e-06
6.18927e-06 1.06593e-05 1.08968e-07
-6.24851e-06 1.08968e-07 -4.31523e-05
0.0019893 2.54314e-05 4.47819e-07
2.54314e-05 2.20089e-05 1.97191e-08
4.47819e-07 1.97191e-08 1.87372e-06
0.00207401 4.47368e-05 -1.33868e-07
4.47368e-05 -1.82273e-05 -1.10615e-07
-1.33868e-07 -1.10615e-07 -6.14685e-06
0.00204063 -2.6581e-05 3.64691e-06
-2.6581e-05 2.63644e-05 -3.48949e-07
3.64691e-06 -3.48949e-07 2.01553e-05
0.0019667 -5.55417e-05 -1.22395e-06
-5.55417e-05 5.94258e-06 1.80482e-07
-1.22395e-06 1.80482e-07 -4.02252e-05
0.0018763 -5.86907e-05 -5.10669e-07
-5.86907e-05 6.7378e-05 -2.62541e-07
-5.10669e-07 -2.62541e-07 -2.8119e-05
0.00205576 -0.000133776 2.23915e-06
-0.000133776 5.9296e-05 -6.71254e-08
2.23915e-06 -6.71254e-08 2.70438e-06
0.00194514 -0.000122758 5.19664e-07
-0.000122758 0.000102673 1.99989e-08
5.19664e-07 1.99989e-08 -1.0571e-06
0.00120647 -6.88381e-05 -1.18772e-05
-6.88381e-05 -4.76108e-06 6.45827e-07
-1.18772e-05 6.45827e-07 -0.000136571
0.00193966 -0.000181688 3.09412e-06
-0.000181688 9.48691e-05 -1.24192e-07
3.09412e-06 -1.24192e-07 -2.403e-05
0.00113964 -0.000107573 -2.50824e-08
-0.000107573 -4.87644e-05 4.32644e-08
-2.50824e-08 4.32644e-08 -0.000198424
0.000382845 -2.45331e-05 -1.82012e-05
-2.45331e-05 -0.00021756 3.21378e-06
-1.82012e-05 3.21378e-06 -0.0003104
0.00117315 -0.000147393 1.11497e-05
-0.000147393 -3.19808e-05 -1.95292e-06
1.11497e-05 -1.95292e-06 -0.000193615
0.000384132 -7.57237e-05 -3.11672e-07
-7.57237e-05 -0.000213728 4.87859e-07
-3.11672e-07 4.87859e-07 -0.000314112
0.0066436 -6.08684e-05 -0.000330369
-6.08684e-05 0.00383867 1.6156e-05
-0.000330369 1.6156e-05 0.00386369
0.000448134 -7.86937e-05 1.42593e-05
-7.86937e-05 -0.000178648 -8.07622e-06
1.42593e-05 -8.07622e-06 -0.000284619
0.00424121 -0.000111483 0.000145787
-0.000111483 0.00233198 -7.8381e-06
0.000145787 -7.8381e-06 0.00231582
0.0015253 -9.28389e-05 8.21475e-05
-9.28389e-05 0.000635607 -1.19097e-05
8.21475e-05 -1.19097e-05 0.000582403
0.00204599 0.000131252 -8.06724e-06
0.000131252 6.70786e-05 -9.15698e-07
-8.06724e-06 -9.15698e-07 3.0797e-05
0.00210451 0.000201271 -3.01481e-06
0.000201271 0.000106648 -3.87707e-08
-3.01481e-06 -3.87707e-08 3.46832e-05
0.00201852 0.000163978 -6.25843e-07
0.000163978 9.3625e-06 -1.13106e-07
-6.25843e-07 -1.13106e-07 -2.04972e-05
0.00198092 0.00025132 -2.77105e-07
0.00025132 0.000135766 1.0652e-06
-2.77105e-07 1.0652e-06 -6.4274e-06
0.0020978 0.000271779 7.07767e-08
0.000271779 9.07259e-05 -1.0099e-07
7.07767e-08 -1.0099e-07 4.11851e-06
0.0021083 0.000235746 2.9299e-06
0.000235746 3.88523e-05 8.46584e-07
2.9299e-06 8.46584e-07 -5.54553e-06
0.00122934 0.000194989 -1.19193e-05
0.000194989 -1.23481e-05 -2.68468e-06
-1.19193e-05 -2.68468e-06 -0.000179904
0.00201509 0.000318939 2.38049e-06
0.000318939 0.000179135 7.82792e-07
2.38049e-06 7.82792e-07 1.36141e-05
0.00196867 0.000346676 1.67141e-06
0.000346676 3.7442e-05 -3.02547e-07
1.67141e-06 -3.02547e-07 -8.5295e-05
0.000340239 9.77022e-05 -1.79628e-05
9.77022e-05 -0.000248309 -8.92941e-06
-1.79628e-05 -8.92941e-06 -0.000353962
0.00120992 0.00023479 -3.5475e-07
0.00023479 -1.76408e-05 4.75233e-07
-3.5475e-07 4.75233e-07 -0.000200445
0.00204213 0.000390543 4.63417e-06
0.000390543 0.000216974 6.70799e-07
4.63417e-06 6.70799e-07 2.25483e-05
0.00695953 0.000279771 -0.000331597
0.000279771 0.00405093 -3.9188e-05
-0.000331597 -3.9188e-05 0.00405275
0.000325548 0.000137217 -1.87745e-08
0.000137217 -0.000249173 3.9536e-07
-1.87745e-08 3.9536e-07 -0.000365039
0.00110986 0.000267261 1.81136e-05
0.000267261 -6.28671e-05 6.00253e-06
1.81136e-05 6.00253e-06 -0.000263066
0.00714824 0.000246964 1.39464e-05
0.000246964 0.00417475 4.08718e-06
1.39464e-05 4.08718e-06 0.00417292
0.000291939 0.00017754 1.99326e-05
0.00017754 -0.000247288 1.55879e-05
1.99326e-05 1.55879e-05 -0.000378307
0.00724675 0.000114306 0.000314357
0.000114306 0.00421902 2.93903e-05
0.000314357 2.93903e-05 0.00423077
0.00190631 5.53945e-05 -6.51723e-06
5.53945e-05 -1.5188e-05 1.04207e-08
-6.51723e-06 1.04207e-08 -7.19104e-05
0.00200469 7.86345e-05 -8.87568e-07
7.86345e-05 4.46596e-05 -1.90652e-07
-8.87568e-07 -1.90652e-07 1.62754e-05
0.00208839 0.000121461 2.34761e-06
0.000121461 9.89229e-06 3.99007e-07
2.34761e-06 3.99007e-07 1.16008e-05
0.00186787 -7.58287e-06 1.73645e-07
-7.58287e-06 6.84026e-05 -2.7962e-07
1.73645e-07 -2.7962e-07 -2.55144e-05
0.00196936 7.43084e-06 -1.63278e-06
7.43084e-06 2.5777e-05 1.19133e-07
-1.63278e-06 1.19133e-07 -2.51898e-05
0.00197004 3.15501e-05 6.42363e-06
3.15501e-05 6.18848e-06 -1.01079e-07
6.42363e-06 -1.01079e-07 -1.11914e-05
0.00202813 -5.42887e-05 2.37374e-06
-5.42887e-05 4.93157e-05 -4.08177e-08
2.37374e-06 -4.08177e-08 4.25811e-06
0.00191981 -5.8546e-05 1.80507e-06
-5.8546e-05 9.70509e-05 -2.28879e-08
1.80507e-06 -2.28879e-08 2.63749e-06
0.00117442 -3.01098e-05 -1.15825e-05
-3.01098e-05 -1.56346e-05 -3.90934e-08
-1.15825e-05 -3.90934e-08 -0.000139989
0.00186321 -0.000123527 7.2424e-07
-0.000123527 5.27102e-05 3.35631e-07
7.2424e-07 3.35631e-07 -5.91896e-05
0.0011409 -6.80025e-05 6.78256e-07
-6.80025e-05 -4.50359e-05 -1.53096e-07
6.78256e-07 -1.53096e-07 -0.000180693
0.000386046 -9.12479e-06 -1.84769e-05
-9.12479e-06 -0.000215345 1.96961e-06
-1.84769e-05 1.96961e-06 -0.00030402
0.00110881 -0.000103487 1.0979e-05
-0.000103487 -6.36351e-05 -1.3852e-06
1.0979e-05 -1.3852e-06 -0.000212434
0.000353849 -3.63746e-05 8.51449e-07
-3.63746e-05 -0.000235231 -2.94701e-07
8.51449e-07 -2.94701e-07 -0.000327489
0.00642936 -0.000155513 -0.000331203
-0.000155513 0.00372209 1.74996e-05
-0.000331203 1.74996e-05 0.00374069
0.000369921 -5.98831e-05 1.77685e-05
-5.98831e-05 -0.000223326 -4.35171e-06
1.77685e-05 -4.35171e-06 -0.000322878
0.00658571 -9.75323e-05 7.89764e-06
-9.75323e-05 0.00380603 8.73031e-09
7.89764e-06 8.73031e-09 0.0038302
0.00184176 -3.79472e-05 0.000256213
-3.79472e-05 0.000802768 -1.75593e-05
0.000256213 -1.75593e-05 0.00079324
0.00201884 0.000133218 -6.19159e-06
0.000133218 5.4964e-05 -6.19932e-07
-6.19159e-06 -6.19932e-07 -1.25624e-05
0.00200245 0.000132482 -1.80233e-06
0.000132482 3.0308e-05 -1.15636e-07
-1.80233e-06 -1.15636e-07 -1.64663e-06
0.00192427 0.0001807 -4.23718e-08
0.0001807 9.29217e-05 1.02541e-06
-4.23718e-08 1.02541e-06 -2.86056e-05
0.00210514 0.00020108 7.05359e-07
0.00020108 0.000102365 1.041e-08
7.05359e-07 1.041e-08 3.07528e-05
0.00200309 0.000158029 4.48261e-06
0.000158029 2.01085e-06 7.63483e-07
4.48261e-06 7.63483e-07 -2.74611e-05
0.00117599 0.000147063 -1.13302e-05
0.000147063 -3.25871e-05 -1.74558e-06
-1.13302e-05 -1.74558e-06 -0.000191532
0.00197363 0.000248852 1.57513e-07
0.000248852 0.000137238 1.33188e-07
1.57513e-07 1.33188e-07 -4.6796e-06
0.00212346 0.000271713 3.04631e-06
0.000271713 0.000104789 -7.58879e-08
3.04631e-06 -7.58879e-08 1.5841e-05
0.000367526 7.15152e-05 -1.77162e-05
7.15152e-05 -0.000233968 -6.20837e-06
-1.77162e-05 -6.20837e-06 -0.000334465
0.00119517 0.000193868 1.73421e-07
0.000193868 -3.04972e-05 4.89637e-07
1.73421e-07 4.89637e-07 -0.000201282
0.00194065 0.000313525 1.6296e-06
0.000313525 0.000139982 3.94988e-07
1.6296e-06 3.94988e-07 -3.17789e-05
0.00681305 0.00028824 -0.000347594
0.00028824 0.00396951 -3.61946e-05
-0.000347594 -3.61946e-05 0.00397121
0.000360637 0.000101029 3.14075e-07
0.000101029 -0.0002382 2.24296e-07
3.14075e-07 2.24296e-07 -0.000344673
0.00115219 0.000229556 1.08827e-05
0.000229556 -5.20541e-05 4.53533e-06
1.08827e-05 4.53533e-06 -0.000233708
0.0069973 0.000304611 1.048e-05
0.000304611 0.00408715 5.03035e-06
1.048e-05 5.03035e-06 0.00408317
0.000359315 0.00013683 1.85398e-05
0.00013683 -0.000231738 1.26284e-05
1.85398e-05 1.26284e-05 -0.000348086
0.00721198 0.000252291 0.000337128
0.000252291 0.00420675 3.97544e-05
0.000337128 3.97544e-05 0.00421114
0.00183804 5.1936e-05 1.78128e-06
5.1936e-05 5.13356e-05 -1.17914e-07
1.78128e-06 -1.17914e-07 -4.6779e-05
0.00197316 5.67351e-05 -3.32568e-06
5.67351e-05 3.57982e-05 -1.07653e-07
-3.32568e-06 -1.07653e-07 -2.17737e-05
0.00203707 8.41395e-05 7.18397e-06
8.41395e-05 7.18491e-05 2.86945e-07
7.18397e-06 2.86945e-07 4.28725e-05
0.00114097 -1.14026e-05 -1.20261e-05
-1.14026e-05 -3.05225e-05 -2.67417e-07
-1.20261e-05 -2.67417e-07 -0.000152996
0.00190801 -3.43541e-06 2.29955e-06
-3.43541e-06 9.69146e-05 -4.02581e-08
2.29955e-06 -4.02581e-08 3.57675e-06
0.00199531 8.14898e-06 2.2469e-06
8.14898e-06 4.27656e-05 1.22028e-07
2.2469e-06 1.22028e-07 -5.16152e-06
0.00196805 -5.88707e-05 3.77228e-06
-5.88707e-05 0.000130003 1.91499e-07
3.77228e-06 1.91499e-07 3.6669e-05
0.00115371 -3.15443e-05 5.5178e-07
-3.15443e-05 -3.18577e-05 -7.81514e-08
5.5178e-07 -7.81514e-08 -0.000156522
0.00039027 -3.25218e-05 -1.89862e-05
-3.25218e-05 -0.000210625 7.77473e-07
-1.89862e-05 7.77473e-07 -0.00029534
0.0010621 -6.62658e-05 1.19606e-05
-6.62658e-05 -9.34449e-05 -1.12685e-06
1.19606e-05 -1.12685e-06 -0.000232947
0.000366034 2.35884e-06 4.53517e-07
2.35884e-06 -0.000228951 8.79183e-08
4.53517e-07 8.79183e-08 -0.000316391
0.00633995 -0.000125657 -0.000331056
-0.000125657 0.00366495 1.30987e-05
-0.000331056 1.30987e-05 0.00368676
0.000387463 -4.44084e-05 1.83872e-05
-4.44084e-05 -0.000211895 -2.95e-06
1.83872e-05 -2.95e-06 -0.000305303
0.00642933 -5.05263e-05 -3.08442e-06
-5.05263e-05 0.0037092 2.96695e-06
-3.08442e-06 2.96695e-06 0.00373571
0.00652731 -0.000111011 0.00032994
-0.000111011 0.00377099 -1.56126e-05
0.00032994 -1.56126e-05 0.0037952
0.0018878 0.000113301 -1.05313e-08
0.000113301 7.66896e-05 3.39516e-07
-1.05313e-08 3.39516e-07 -3.1264e-05
0.00202473 0.000131464 -3.27312e-06
0.000131464 5.1512e-05 -4.80327e-07
-3.27312e-06 -4.80327e-07 -1.02802e-05
0.00196205 0.000134278 6.24097e-06
0.000134278 -4.33812e-06 7.52498e-07
6.24097e-06 7.52498e-07 -3.19826e-05
0.00116933 9.86537e-05 -1.18222e-05
9.86537e-05 -2.70913e-05 -1.01363e-06
-1.18222e-05 -1.01363e-06 -0.000172887
0.00195344 0.000179839 3.19446e-07
0.000179839 0.000116096 -1.34479e-07
3.19446e-07 -1.34479e-07 -5.27336e-06
0.00210552 0.000200798 3.22472e-06
0.000200798 9.79454e-05 -1.28461e-07
3.22472e-06 -1.28461e-07 2.66884e-05
0.000389983 4.91921e-05 -1.73398e-05
4.91921e-05 -0.000218261 -4.1792e-06
-1.73398e-05 -4.1792e-06 -0.000314395
0.00117567 0.000149475 2.65008e-07
0.000149475 -3.33068e-05 2.97401e-07
2.65008e-07 2.97401e-07 -0.000193609
0.00196814 0.000246566 8.39861e-07
0.000246566 0.000139274 -8.5257e-07
8.39861e-07 -8.5257e-07 -2.38436e-06
0.00666343 0.000240717 -0.000356225
0.000240717 0.00387455 -2.95122e-05
-0.000356225 -2.95122e-05 0.00388442
0.000385819 7.78693e-05 7.79103e-07
7.78693e-05 -0.000223228 2.18561e-07
7.79103e-07 2.18561e-07 -0.000325158
0.00116699 0.000192911 9.42807e-06
0.000192911 -4.74135e-05 3.33075e-06
9.42807e-06 3.33075e-06 -0.000221306
0.00688242 0.000305513 5.75224e-06
0.000305513 0.00401808 3.49109e-06
5.75224e-06 3.49109e-06 0.00401758
0.000386488 0.000106526 1.74663e-05
0.000106526 -0.000223352 9.76329e-06
1.74663e-05 9.76329e-06 -0.000331245
0.00705269 0.000339331 0.000347776
0.000339331 0.00413099 4.60318e-05
0.000347776 4.60318e-05 0.00412223
0.00108118 2.77999e-05 -1.21174e-05
2.77999e-05 -6.61333e-05 -6.09788e-07
-1.21174e-05 -6.09788e-07 -0.000197126
0.00189669 4.97358e-05 2.51632e-06
4.97358e-05 8.85199e-05 1.20011e-08
2.51632e-06 1.20011e-08 -5.4404e-06
0.00204217 5.8462e-05 1.11575e-06
5.8462e-05 8.76347e-05 1.99144e-07
1.11575e-06 1.99144e-07 2.93404e-05
0.000429196 3.19126e-05 -1.9511e-05
3.19126e-05 -0.000193804 -9.7014e-07
-1.9511e-05 -9.7014e-07 -0.000269847
0.00111359 -5.98868e-06 3.43269e-07
-5.98868e-06 -5.06424e-05 2.89762e-08
3.43269e-07 2.89762e-08 -0.00017314
0.00194217 2.11011e-06 4.23506e-06
2.11011e-06 0.000121296 3.24647e-08
4.23506e-06 3.24647e-08 2.84297e-05
0.00112896 -3.253e-05 1.26172e-05
-3.253e-05 -5.09553e-05 -4.27965e-07
1.26172e-05 -4.27965e-07 -0.000175914
0.000387394 -5.94643e-06 4.73034e-07
-5.94643e-06 -0.000212639 3.74451e-07
4.73034e-07 3.74451e-07 -0.000297276
0.00622762 1.09656e-05 -0.000332992
1.09656e-05 0.0035868 1.95811e-06
-0.000332992 1.95811e-06 0.00361627
0.00034223 1.42298e-05 1.787e-05
1.42298e-05 -0.000245612 -8.91649e-07
1.787e-05 -8.91649e-07 -0.00033156
0.00629841 -0.00012315 -7.94934e-06
-0.00012315 0.00364075 2.08051e-06
-7.94934e-06 2.08051e-06 0.00366214
0.00635941 -3.27152e-05 0.000317056
-3.27152e-05 0.00366566 -8.41317e-06
0.000317056 -8.41317e-06 0.00369239
0.00114242 5.88243e-05 -1.20181e-05
5.88243e-05 -3.50572e-05 -1.03166e-06
-1.20181e-05 -1.03166e-06 -0.00017086
0.00192998 0.000110286 -2.92995e-07
0.000110286 0.000103037 -4.1771e-07
-2.92995e-07 -4.1771e-07 -4.91521e-07
0.00200778 0.000128947 -3.2498e-07
0.000128947 3.2819e-05 -4.68173e-07
-3.2498e-07 -4.68173e-07 -2.35697e-05
0.00271984 6.59829e-05 -0.000152812
6.59829e-05 0.00125304 -5.47112e-06
-0.000152812 -5.47112e-06 0.00119905
0.00114462 0.000100718 2.65304e-07
0.000100718 -4.42549e-05 1.81272e-07
2.65304e-07 1.81272e-07 -0.000191015
0.00199362 0.000179213 1.06268e-06
0.000179213 0.000146589 -1.28488e-06
1.06268e-06 -1.28488e-06 2.53905e-05
0.00647942 0.000173828 -0.000353455
0.000173828 0.00375297 -2.09824e-05
-0.000353455 -2.09824e-05 0.00377252
0.000405297 6.79418e-05 1.15146e-06
6.79418e-05 -0.000205481 4.87066e-07
1.15146e-06 4.87066e-07 -0.000303931
0.00117748 0.000151344 1.15268e-05
0.000151344 -3.14928e-05 2.24138e-06
1.15268e-05 2.24138e-06 -0.000193059
0.00673966 0.000256253 8.76253e-07
0.000256253 0.00392361 1.5714e-06
8.76253e-07 1.5714e-06 0.00393203
0.000397728 8.63403e-05 1.76554e-05
8.63403e-05 -0.000214703 7.36355e-06
1.76554e-05 7.36355e-06 -0.000318693
0.00695471 0.000341517 0.000358286
0.000341517 0.004077 4.53063e-05
0.000358286 4.53063e-05 0.00406943
0.000514543 1.23323e-05 -1.54469e-05
1.23323e-05 -0.000129752 -2.05466e-06
-1.54469e-05 -2.05466e-06 -0.000215083
0.00108839 2.73571e-05 5.74621e-08
2.73571e-05 -6.61281e-05 1.82439e-07
5.74621e-08 1.82439e-07 -0.000194122
0.0019513 4.62e-05 4.18185e-06
4.62e-05 0.000122921 -1.28547e-07
4.18185e-06 -1.28547e-07 3.30856e-05
0.00604787 -0.000103422 -0.000314447
-0.000103422 0.00349304 4.38731e-06
-0.000314447 4.38731e-06 0.00351122
0.000386453 9.73365e-06 -5.83345e-07
9.73365e-06 -0.000216267 -1.42413e-07
-5.83345e-07 -1.42413e-07 -0.000294963
0.0011026 -1.85003e-06 1.25635e-05
-1.85003e-06 -6.0617e-05 3.59328e-08
1.25635e-05 3.59328e-08 -0.000183077
0.000344605 2.07774e-05 1.81892e-05
2.07774e-05 -0.00024117 4.94592e-07
1.81892e-05 4.94592e-07 -0.0003245
0.00616325 -2.44182e-05 1.87076e-06
-2.44182e-05 0.00355312 -1.70104e-06
1.87076e-06 -1.70104e-06 0.00357764
0.00628469 -4.61975e-05 0.000321612
-4.61975e-05 0.0036199 -5.97515e-06
0.000321612 -5.97515e-06 0.00364749
0.00278563 1.80916e-05 -0.000146141
1.80916e-05 0.00129462 -3.08241e-06
-0.000146141 -3.08241e-06 0.00124503
0.00111286 6.19242e-05 8.47263e-08
6.19242e-05 -5.5755e-05 -8.55334e-08
8.47263e-08 -8.55334e-08 -0.000192359
0.00198915 0.000107748 1.58792e-06
0.000107748 0.00014117 -8.35425e-07
1.58792e-06 -8.35425e-07 4.23215e-05
0.00594137 -3.01047e-05 -0.00014106
-3.01047e-05 0.00342846 1.76995e-07
-0.00014106 1.76995e-07 0.00341754
0.000394753 5.96398e-05 2.40569e-07
5.96398e-05 -0.000209274 3.08553e-07
2.40569e-07 3.08553e-07 -0.000301383
0.00111132 0.000102777 1.19901e-05
0.000102777 -6.71912e-05 1.36372e-06
1.19901e-05 1.36372e-06 -0.000214939
0.0065703 0.000151 -1.07936e-05
0.000151 0.00380432 -1.85523e-06
-1.07936e-05 -1.85523e-06 0.003825
0.000404784 9.00546e-05 1.91865e-05
9.00546e-05 -0.000203997 5.90226e-06
1.91865e-05 5.90226e-06 -0.000303878
0.00683462 0.000280928 0.000364354
0.000280928 0.00398883 3.80904e-05
0.000364354 3.80904e-05 0.00399485
0.00183132 -5.39211e-05 -0.000247929
-5.39211e-05 0.00080186 1.44409e-06
-0.000247929 1.44409e-06 0.000802656
0.00157896 3.21192e-05 -6.29753e-05
3.21192e-05 0.000533493 4.74588e-08
-6.29753e-05 4.74588e-08 0.000471421
0.00108943 2.95265e-05 1.26095e-05
2.95265e-05 -6.93716e-05 6.36053e-07
1.26095e-05 6.36053e-07 -0.000194444
0.00612297 -5.01424e-05 6.69108e-06
-5.01424e-05 0.00353346 2.80363e-06
6.69108e-06 2.80363e-06 0.00355733
0.000403673 -1.12903e-05 1.88256e-05
-1.12903e-05 -0.000198863 9.10945e-07
1.88256e-05 9.10945e-07 -0.000281523
0.00619726 -8.67362e-05 0.000332996
-8.67362e-05 0.00357886 -5.4967e-06
0.000332996 -5.4967e-06 0.00360286
0.00139541 2.34231e-05 -6.60303e-05
2.34231e-05 0.000555341 -1.19527e-06
-6.60303e-05 -1.19527e-06 0.000515439
0.00157441 2.02506e-05 -6.417e-05
2.02506e-05 0.000532181 -1.56642e-06
-6.417e-05 -1.56642e-06 0.000465112
0.00107882 6.3565e-05 1.20051e-05
6.3565e-05 -7.9062e-05 8.41704e-07
1.20051e-05 8.41704e-07 -0.000216461
0.00392479 7.18521e-05 0.000125087
7.18521e-05 0.00213748 3.93361e-06
0.000125087 3.93361e-06 0.00213057
0.000418788 6.99995e-05 1.96809e-05
6.99995e-05 -0.000194328 4.42931e-06
1.96809e-05 4.42931e-06 -0.000286346
0.00665092 0.000138217 0.000346734
0.000138217 0.00384662 2.2804e-05
0.000346734 2.2804e-05 0.0038711
0.00607403 -1.98042e-05 -8.7602e-06
-1.98042e-05 0.00350616 -3.35733e-06
-8.7602e-06 -3.35733e-06 0.00352867
0.000397443 5.10229e-05 2.04717e-05
5.10229e-05 -0.000214382 2.61233e-06
2.04717e-05 2.61233e-06 -0.000290014
0.00603381 3.4454e-05 0.000320767
3.4454e-05 0.0034729 1.88337e-07
0.000320767 1.88337e-07 0.00350057
0.00378419 3.3706e-05 0.000136115
3.3706e-05 0.00205494 5.47896e-06
0.000136115 5.47896e-06 0.00205052
0.000428986 1.00746e-05 1.89106e-05
1.00746e-05 -0.000186782 2.59579e-06
1.89106e-05 2.59579e-06 -0.000271844
0.00640664 6.49421e-06 0.000332843
6.49421e-06 0.00369498 1.02531e-05
0.000332843 1.02531e-05 0.00372172
0.00613469 -0.000116526 0.000319679
-0.000116526 0.00354789 -4.37859e-06
0.000319679 -4.37859e-06 0.0035662
0.00618721 1.28422e-05 0.000324189
1.28422e-05 0.00355878 5.98539e-06
0.000324189 5.98539e-06 0.00358856
