# vtk DataFile Version 2.0
Wound Healing Simulation
ASCII
DATASET UNSTRUCTURED_GRID
POINTS 3012 float
69.9759 18.75 4
67.2507 60.3285 4
69.976 18.75 2
73.0099 25.446 4
71.1327 20.9142 4
68.6801 16.6661 4
67.8255 19.9261 3.98254
67.2507 60.3286 2
71.1327 54.0858 4
68.6801 58.3339 4
65.6939 62.2254 4
65.312 59.0011 3.98159
74.6784 42.3946 4
73.7221 47.2057 4
69.9759 18.75 0
73.0099 25.446 2
68.6801 16.6661 2
71.1327 20.9142 2
67.826 19.929 2
74.6792 32.6053 4
73.7222 27.7943 4
72.1454 23.1494 4
70.6141 26.2209 3.98211
68.8857 21.958 3.98295
67.2507 14.6715 4
66.6368 17.9721 3.98142
65.7963 21.0257 3.9731
67.2507 60.3285 0
71.1327 54.0858 2
68.6801 58.3339 2
65.694 62.2255 2
65.3131 58.9976 2
72.1454 51.8506 4
69.9759 56.25 4
68.8363 53.113 3.98199
64.0165 64.0165 4
66.6105 57.1336 3.98195
63.8856 60.766 3.98359
63.4991 57.7697 3.97316
60.3285 67.2507 4
74.6792 42.3947 2
73.7222 47.2057 2
74.9194 39.9526 4
74.2788 44.8158 4
72.1682 42.0855 3.98113
73.0099 49.554 4
71.2492 46.598 3.98106
73.0099 25.446 0
71.1327 20.9142 0
68.6801 16.6661 0
67.8255 19.9261 0.0174618
74.6792 32.6053 2
73.7222 27.7943 2
67.2508 14.6715 2
72.1455 23.1494 2
70.6141 26.2213 2
66.6376 17.9757 2
68.886 21.96 2
65.7957 21.0263 2
74.9197 35.0474 4
74.2794 30.1841 4
72.1848 32.9432 3.98158
71.2781 28.4313 3.9815
69.8155 24.0595 3.98273
68.3462 26.9515 3.97156
66.7618 22.9334 3.97234
65.694 12.7746 4
65.3233 16.1037 3.98175
64.7123 19.1964 3.97327
63.8842 22.0376 3.96883
71.1327 54.0858 0
65.6939 62.2254 0
68.6801 58.3339 0
65.312 59.0011 0.0184088
72.1455 51.8506 2
69.9759 56.25 2
68.8365 53.1111 2
64.0165 64.0165 2
66.6113 57.1302 2
63.8872 60.7632 2
63.4986 57.7697 2
62.2254 65.694 4
58.8947 65.4142 3.99099
69.7689 50.9888 3.98183
67.7836 55.1672 3.98197
66.6486 52.2086 3.97137
62.3361 62.4276 3.98676
64.6597 56.0304 3.97326
62.2018 59.4023 3.97442
61.819 56.6761 3.9686
58.3339 68.6801 4
60.3285 67.2508 2
73.7221 47.2057 0
74.6784 42.3946 0
74.9197 39.9526 2
74.2794 44.8159 2
72.1678 42.0855 2
73.0099 49.554 2
71.2491 46.5978 2
75 37.5 4
72.4054 39.8022 3.98153
71.7825 44.3528 3.98119
69.8033 41.7892 3.97092
70.5751 48.8135 3.9814
68.9115 46.0142 3.97062
74.6792 32.6053 0
73.7222 27.7943 0
67.2507 14.6715 0
72.1454 23.1494 0
70.6141 26.2209 0.0178898
68.8857 21.958 0.0170461
66.6368 17.9721 0.0185802
65.7963 21.0257 0.0269037
74.9197 35.0474 2
74.2794 30.1841 2
72.1844 32.9435 2
71.2781 28.4316 2
65.694 12.7745 2
65.3246 16.1072 2
69.8156 24.0606 2
68.3462 26.9518 2
64.7117 19.1968 2
66.7614 22.934 2
63.8835 22.0377 2
72.4132 35.2241 3.98161
71.8039 30.6762 3.9816
69.8394 33.2682 3.97145
68.9654 29.0382 3.9713
67.6106 24.9121 3.97189
66.1922 27.6355 3.96827
64.0165 10.9835 4
64.754 23.8316 3.96868
63.8901 14.3272 3.98465
63.5115 17.4497 3.9734
62.9028 20.3243 3.96862
62.0841 22.9487 3.96743
60.684 11.0979 3.9877
57.612 11.4496 3.97994
72.1454 51.8506 0
69.9759 56.25 0
68.8363 53.113 0.0180065
64.0165 64.0165 0
63.8856 60.766 0.0164064
66.6105 57.1336 0.0180511
63.4991 57.7697 0.0268398
62.2255 65.694 2
58.8957 65.4138 2
69.7689 50.9879 2
67.784 55.1643 2
66.6481 52.208 2
62.3378 62.4257 2
64.6592 56.0302 2
62.2014 59.4029 2
61.8184 56.6766 2
60.6688 63.977 3.98892
57.0257 66.7348 3.99179
57.5579 63.691 3.9826
67.5067 50.1761 3.97077
65.7009 54.1725 3.97204
64.5349 51.383 3.96755
60.7726 60.9363 3.97805
62.8165 55.064 3.96871
60.6547 58.1534 3.96825
60.3209 55.7758 3.96937
56.25 69.9759 4
58.3339 68.6801 2
60.3285 67.2507 0
58.9212 9.65618 3.98888
62.2254 9.30607 4
73.0099 49.554 0
74.2788 44.8158 0
71.2492 46.598 0.0189355
72.1682 42.0855 0.0188673
74.9194 39.9526 0
75 37.5 2
72.4054 39.8023 2
71.7824 44.3526 2
69.803 41.7889 2
70.575 48.8132 2
68.9114 46.0138 2
72.4888 37.512 3.98129
70.0406 39.657 3.97103
69.4296 43.907 3.97074
67.5954 41.4965 3.96838
68.2651 48.1065 3.97062
66.7074 45.4383 3.96777
74.9197 35.0474 0
74.2794 30.1841 0
72.1848 32.9432 0.0184199
71.2781 28.4313 0.0185045
65.694 12.7746 0
65.3233 16.1037 0.0182493
69.8155 24.0595 0.0172697
68.3462 26.9515 0.0284379
66.7618 22.9334 0.0276633
64.7123 19.1964 0.0267311
63.8842 22.0376 0.0311693
72.4132 35.2241 2
71.8039 30.6766 2
69.8391 33.2686 2
68.9654 29.0385 2
64.0165 10.9835 2
63.8917 14.33 2
63.5111 17.4497 2
67.6104 24.9125 2
66.1922 27.6356 2
62.9021 20.3243 2
64.7535 23.8318 2
62.0833 22.9488 2
60.6856 11.0997 2
57.6125 11.4486 2
70.0573 35.3917 3.97125
69.4664 31.1494 3.97121
67.6537 33.591 3.96868
66.7699 29.6235 3.96821
65.5217 25.7004 3.96851
64.1261 28.2601 3.96928
62.3417 12.6551 3.9866
62.8453 24.6423 3.96819
62.1983 15.7871 3.97633
61.8079 18.6912 3.96761
61.2096 21.3484 3.96625
60.3982 23.7388 3.96852
59.2459 12.7813 3.97856
55.8742 10.2353 3.98222
56.4042 13.1198 3.97554
69.7689 50.9888 0.0181684
62.2254 65.694 0
58.8947 65.4142 0.00901461
67.7836 55.1672 0.0180326
66.6486 52.2086 0.0286255
62.3361 62.4276 0.0132368
62.2018 59.4023 0.025577
64.6597 56.0304 0.0267397
61.819 56.6761 0.0314029
60.6702 63.9759 2
57.0264 66.7346 2
57.558 63.6924 2
67.5064 50.1756 2
65.7003 54.1719 2
64.5344 51.3829 2
60.7726 60.9376 2
62.816 55.0642 2
60.6543 58.1542 2
60.3205 55.7759 2
55.0714 67.9318 3.99222
59.2189 62.3648 3.97952
55.8048 64.9096 3.98574
56.3259 62.0871 3.97773
65.3292 49.4063 3.9674
63.7027 53.2894 3.96795
62.4234 50.6441 3.96713
59.3313 59.5529 3.9732
61.07 54.3011 3.96821
59.282 56.9982 3.96572
59.232 55.1705 3.96754
48.1028 68.5781 3.98793
50.9491 69.9314 3.99244
54.0858 71.1327 4
56.25 69.976 2
58.3339 68.6801 0
57.0586 8.33609 3.9899
60.3285 7.74928 4
58.9227 9.65725 2
62.2255 9.30602 2
70.5751 48.8135 0.0185972
71.7825 44.3528 0.0188075
68.9115 46.0142 0.029382
69.8033 41.7892 0.0290776
72.4054 39.8022 0.0184667
75 37.5 0
72.4884 37.5121 2
70.0406 39.6569 2
69.4295 43.9067 2
67.595 41.4963 2
68.2651 48.1061 2
66.7073 45.4381 2
70.1287 37.5213 3.97117
67.8328 39.5116 3.96858
67.2214 43.4686 3.968
65.5243 41.2062 3.97053
66.0663 47.4162 3.96762
64.6228 44.8422 3.96932
72.4132 35.2241 0.0183939
71.8039 30.6762 0.0184003
69.8394 33.2682 0.028548
68.9654 29.0382 0.0286979
64.0165 10.9835 0
63.8901 14.3272 0.0153485
63.5115 17.4497 0.0266003
67.6106 24.9121 0.0281116
66.1922 27.6355 0.0317256
64.754 23.8316 0.0313151
62.9028 20.3243 0.0313817
62.0841 22.9487 0.0325719
60.684 11.0979 0.0123038
57.612 11.4496 0.0200631
70.0573 35.3919 2
69.4664 31.1497 2
67.6534 33.5912 2
66.7699 29.6236 2
62.3434 12.6574 2
62.1979 15.7867 2
61.8075 18.6908 2
65.5214 25.7005 2
64.1255 28.2603 2
61.2088 21.3483 2
62.8447 24.6424 2
60.398 23.7391 2
59.2462 12.7809 2
56.4043 13.1186 2
55.8746 10.2342 2
67.8689 35.5474 3.96871
67.2632 31.6228 3.96842
65.6743 33.9287 3.97084
64.6393 30.196 3.96953
63.5222 26.4191 3.96884
62.2086 28.7872 3.97259
60.7751 14.2256 3.97845
61.0119 25.3487 3.97012
60.6088 17.1341 3.97127
60.2092 19.8263 3.9653
59.632 22.2713 3.96565
58.9318 24.3368 3.97061
54.0375 9.13735 3.98381
57.9091 14.3379 3.97692
54.7862 12.0174 3.97759
55.3103 14.6572 3.97485
67.5067 50.1761 0.0292322
57.0257 66.7348 0.00821219
60.6688 63.977 0.0110839
57.5579 63.691 0.0174016
65.7009 54.1725 0.0279636
64.5349 51.383 0.0324502
60.7726 60.9363 0.0219473
60.6547 58.1534 0.0317491
62.8165 55.064 0.0312854
60.3209 55.7758 0.0306342
55.0719 67.9317 2
59.219 62.3661 2
55.8048 64.9106 2
56.3258 62.0886 2
65.3289 49.4062 2
63.7019 53.2894 2
62.4237 50.644 2
59.3311 59.5544 2
61.0696 54.3011 2
59.2818 56.9981 2
59.2318 55.1703 2
53.0433 68.9996 3.99233
53.9673 66.0126 3.98704
57.8793 60.8665 3.97659
54.6837 63.2058 3.98164
55.2094 60.6098 3.97628
63.1692 48.6531 3.96786
61.7302 52.5676 3.96691
60.2249 50.0029 3.96873
58.0127 58.2536 3.96952
59.3154 53.9341 3.96713
58.112 55.7952 3.96564
50.1095 67.8562 3.98778
47.4633 66.5796 3.98486
46.0563 69.1573 3.98802
48.1027 68.5787 2
48.8032 70.7227 3.99254
50.9495 69.9315 2
51.8506 72.1454 4
54.0858 71.1327 2
56.25 69.9759 0
55.1033 7.14054 3.99092
58.3339 6.31992 4
57.0599 8.3366 2
60.3286 7.74926 2
58.9212 9.65618 0.0111233
62.2254 9.30607 0
68.2651 48.1065 0.029382
69.4296 43.907 0.0292616
66.7074 45.4383 0.0322301
67.5954 41.4965 0.0316246
70.0406 39.657 0.0289739
72.4888 37.512 0.0187097
70.1284 37.5213 2
67.8327 39.5115 2
67.2213 43.4684 2
65.5236 41.206 2
66.0662 47.4161 2
64.6221 44.842 2
67.9291 37.5216 3.96867
65.7574 39.3679 3.97081
65.1472 43.0204 3.97002
63.6834 40.9233 3.97373
63.9348 46.7093 3.96856
62.742 44.2055 3.97303
70.0573 35.3917 0.0287545
69.4664 31.1494 0.028794
67.6537 33.591 0.0313168
66.7699 29.6235 0.0317923
62.3417 12.6551 0.0134
62.1983 15.7871 0.0236693
61.8079 18.6912 0.0323856
65.5217 25.7004 0.0314925
64.1261 28.2601 0.0307198
62.8453 24.6423 0.0318146
61.2096 21.3484 0.0337459
60.3982 23.7388 0.0314848
59.2459 12.7813 0.0214428
56.4042 13.1198 0.0244645
55.8742 10.2353 0.0177769
67.8688 35.5475 2
67.2631 31.6229 2
65.6739 33.9288 2
64.6388 30.1961 2
60.775 14.2253 2
60.6083 17.1332 2
60.2093 19.8261 2
63.5218 26.4192 2
62.2074 28.7875 2
59.6338 22.2715 2
61.0115 25.349 2
58.9309 24.3376 2
57.9087 14.3371 2
55.31 14.6569 2
54.0378 9.13636 2
54.7864 12.0158 2
65.8483 35.6671 3.97077
65.1578 32.1573 3.97008
64.2304 34.2518 3.97387
62.526 30.6442 3.97331
61.6052 27.0831 3.97108
60.7743 29.153 3.9761
59.3089 15.6741 3.97557
59.2674 25.8136 3.97363
59.1137 18.3669 3.96821
58.7166 20.8681 3.96368
58.2371 23.1106 3.96632
57.9046 24.6855 3.97267
52.1123 8.1549 3.98527
53.058 11.0216 3.97968
56.6735 15.7518 3.97626
53.808 13.6905 3.9758
54.3718 16.0129 3.97628
55.0714 67.9318 0.007781
65.3292 49.4063 0.0325955
55.8048 64.9096 0.0142582
59.2189 62.3648 0.02048
56.3259 62.0871 0.0222669
63.7027 53.2894 0.0320484
62.4234 50.6441 0.0328679
59.3313 59.5529 0.0267992
59.282 56.9982 0.0342809
61.07 54.3011 0.0317936
59.232 55.1705 0.0324613
53.0437 68.9996 2
53.9672 66.0133 2
57.8789 60.8677 2
54.6835 63.2069 2
55.2093 60.6113 2
63.1689 48.653 2
61.7312 52.5677 2
60.2245 50.0025 2
58.0123 58.2551 2
59.3158 53.9339 2
58.1112 55.7946 2
52.0707 66.9993 3.98755
52.9536 64.2175 3.98363
56.6449 59.4827 3.97479
53.6801 61.619 3.97856
54.2562 59.3113 3.97504
60.9269 47.8644 3.96938
59.6737 52.0891 3.9679
57.9456 49.5931 3.97037
56.7665 56.9699 3.96727
57.094 54.1026 3.96613
50.1094 67.8568 2
49.3372 65.92 3.98472
47.4632 66.5802 2
46.8927 64.7338 3.98321
45.5583 67.0967 3.98496
43.9733 69.5895 3.98811
46.0563 69.1578 2
46.6097 71.3671 3.99252
48.1028 68.5781 0.0120681
48.8036 70.7229 2
49.554 73.0099 4
50.9491 69.9314 0.00755918
51.8506 72.1455 2
54.0858 71.1327 0
53.0647 6.07204 3.99148
55.1042 7.14067 2
56.25 5.02411 4
58.3339 6.3199 2
57.0586 8.33609 0.0101047
60.3285 7.74928 0
66.0663 47.4162 0.0323821
67.2214 43.4686 0.0319969
64.6228 44.8422 0.0306836
65.5243 41.2062 0.0294675
67.8328 39.5116 0.0314209
70.1287 37.5213 0.0288252
67.9289 37.5216 2
65.7567 39.3678 2
65.1467 43.0202 2
63.6826 40.9231 2
63.9342 46.7091 2
62.7407 44.2051 2
65.8613 37.5008 3.97068
63.8252 39.2627 3.97342
63.2546 42.5413 3.97334
62.3287 40.6895 3.9772
61.9019 45.9056 3.97123
61.3523 43.6689 3.97642
67.8689 35.5474 0.0312856
67.2632 31.6228 0.0315817
65.6743 33.9287 0.0291611
64.6393 30.196 0.0304704
60.7751 14.2256 0.021552
60.6088 17.1341 0.0287315
60.2092 19.8263 0.0347005
63.5222 26.4191 0.0311592
62.2086 28.7872 0.0274149
61.0119 25.3487 0.0298794
59.632 22.2713 0.0343494
58.9318 24.3368 0.0293947
57.9091 14.3379 0.023082
55.3103 14.6572 0.0251493
54.0375 9.13735 0.0161948
54.7862 12.0174 0.0224145
65.8477 35.6671 2
65.1578 32.1574 2
64.23 34.2518 2
62.5248 30.6445 2
59.3082 15.6735 2
59.1136 18.3661 2
58.7177 20.8684 2
61.6044 27.0834 2
60.7736 29.1534 2
58.2369 23.1114 2
59.2666 25.8143 2
57.904 24.6864 2
56.6729 15.751 2
54.3711 16.0126 2
53.8078 13.6883 2
52.1124 8.15408 2
53.0579 11.0203 2
64.0261 35.6327 3.97332
62.8511 33.0514 3.97414
60.5187 30.6242 3.97627
59.4872 27.927 3.97471
57.934 16.9925 3.97363
57.6625 25.7483 3.97519
57.6964 19.4923 3.96497
57.3282 21.861 3.96287
57.1144 23.9712 3.96823
50.1126 7.2857 3.98695
51.2328 10.1281 3.98149
52.1713 12.8042 3.97777
55.531 16.985 3.97557
52.9748 15.2794 3.97399
53.7512 16.9974 3.97939
53.0433 68.9996 0.00767128
53.9673 66.0126 0.0129636
63.1692 48.6531 0.0321406
54.6837 63.2058 0.0183647
57.8793 60.8665 0.0234075
55.2094 60.6098 0.023723
61.7302 52.5676 0.0330922
60.2249 50.0029 0.0312739
58.0127 58.2536 0.0304758
58.112 55.7952 0.0343559
59.3154 53.9341 0.0328661
52.0706 66.9998 2
52.9533 64.2182 2
56.6446 59.4836 2
53.68 61.6201 2
54.2561 59.3129 2
60.9256 47.8639 2
59.6747 52.089 2
57.9428 49.5923 2
56.7654 56.9744 2
57.0926 54.102 2
51.1683 65.127 3.98467
52.0459 62.5363 3.9811
55.4744 58.2406 3.97543
52.8315 60.129 3.97736
53.633 58.4614 3.97892
58.1978 46.8239 3.97377
57.5101 51.7647 3.96768
56.1425 49.5256 3.97062
55.4519 55.7695 3.96337
55.3147 53.358 3.96413
50.1095 67.8562 0.0122247
49.3371 65.9206 2
48.6184 64.1205 3.98345
47.4633 66.5796 0.0151378
45.5583 67.0972 2
46.8926 64.7343 2
46.3824 63.0498 3.98271
45.1329 65.1948 3.98325
43.6315 67.4673 3.98502
41.8605 69.8769 3.98798
43.9733 69.59 2
44.377 71.862 3.99244
46.0563 69.1573 0.0119838
46.6101 71.3674 2
47.2057 73.7222 4
48.8032 70.7227 0.00746124
49.554 73.0099 2
51.8506 72.1454 0
50.9547 5.13221 3.99208
53.0653 6.07199 2
54.0858 3.86728 4
55.1033 7.14054 0.0090772
56.25 5.02406 2
58.3339 6.31992 0
63.9348 46.7093 0.0314364
65.1472 43.0204 0.0299795
62.742 44.2055 0.0269657
63.6834 40.9233 0.0262704
65.7574 39.3679 0.0291949
67.9291 37.5216 0.0313311
65.8605 37.5008 2
63.8242 39.2625 2
63.2534 42.541 2
62.3274 40.6893 2
61.9006 45.9052 2
61.351 43.6685 2
63.8879 37.4552 3.97319
62.0493 39.3496 3.97654
61.1012 41.945 3.97621
60.1507 44.752 3.97553
65.8483 35.6671 0.0292279
65.1578 32.1573 0.0299161
64.2304 34.2518 0.0261294
62.526 30.6442 0.0266859
59.3089 15.6741 0.0244337
59.1137 18.3669 0.031791
58.7166 20.8681 0.0363247
61.6052 27.0831 0.028918
60.7743 29.153 0.0238965
59.2674 25.8136 0.0263728
58.2371 23.1106 0.033678
57.9046 24.6855 0.0273346
56.6735 15.7518 0.0237427
54.3718 16.0129 0.0237244
53.808 13.6905 0.0242015
52.1123 8.1549 0.0147266
53.058 11.0216 0.0203246
64.0254 35.6327 2
62.85 33.0516 2
60.5177 30.6245 2
57.9333 16.9919 2
57.6966 19.491 2
57.3288 21.8616 2
59.4862 27.9276 2
57.1135 23.9723 2
57.662 25.7492 2
50.1127 7.28478 2
55.5303 16.9842 2
53.7503 16.9968 2
52.9745 15.2787 2
52.1712 12.8034 2
51.2328 10.1272 2
62.0821 35.3619 3.97566
60.1636 32.7563 3.97648
58.4997 30.0956 3.97675
57.1842 27.4068 3.9761
56.6252 18.1696 3.97293
56.2039 25.1308 3.97264
56.3268 20.5425 3.96168
56.0402 22.897 3.96274
48.0567 6.52791 3.98833
49.325 9.33386 3.9828
50.4329 11.9998 3.97912
51.3751 14.5082 3.97481
54.4036 17.9366 3.9768
52.3543 17.0585 3.97238
52.0707 66.9993 0.0124512
52.9536 64.2175 0.0163695
60.9269 47.8644 0.0306195
53.6801 61.619 0.0214442
56.6449 59.4827 0.0252051
54.2562 59.3113 0.0249636
59.6737 52.0891 0.0321007
57.9456 49.5931 0.0296284
56.7665 56.9699 0.032732
57.094 54.1026 0.0338703
51.168 65.1275 2
52.0455 62.5371 2
55.4739 58.2416 2
52.8314 60.1309 2
53.6326 58.4621 2
58.1965 46.8232 2
57.5097 51.7642 2
56.1399 49.5247 2
55.4519 55.7699 2
55.3162 53.3583 2
50.3465 63.3792 3.98314
51.2429 60.9308 3.97846
54.2072 57.2567 3.97522
52.3066 58.6214 3.97625
56.5388 44.1496 3.97779
55.3562 47.8618 3.97213
54.9991 51.3622 3.96674
53.969 54.5168 3.9631
49.3372 65.92 0.0152835
48.6183 64.1211 2
47.9623 62.4713 3.9823
45.5583 67.0967 0.015042
46.8927 64.7338 0.0167874
43.6314 67.4678 2
46.3824 63.0503 2
45.1328 65.1953 2
45.9879 61.5812 3.98288
44.7677 63.4501 3.98201
43.357 65.5041 3.98309
41.6636 67.686 3.98481
39.7023 70.0239 3.98819
41.8605 69.8774 2
42.1113 72.2069 3.9924
43.9733 69.5895 0.0118939
44.3773 71.8623 2
44.8159 74.2794 4
46.6097 71.3671 0.00747959
47.2057 73.7222 2
49.554 73.0099 0
48.7853 4.32288 3.99258
50.9551 5.1319 2
51.8506 2.85458 4
53.0647 6.07204 0.00851954
54.0858 3.86728 2
56.25 5.02411 0
61.9019 45.9056 0.0287686
63.2546 42.5413 0.0266603
61.3523 43.6689 0.02358
62.3287 40.6895 0.0227996
63.8252 39.2627 0.0265768
65.8613 37.5008 0.0293163
63.8868 37.4552 2
62.048 39.3495 2
61.0996 41.9447 2
60.1494 44.7515 2
61.8865 37.443 3.97659
60.1008 39.8336 3.97724
58.8354 42.8949 3.97742
64.0261 35.6327 0.0266829
62.8511 33.0514 0.0258599
60.5187 30.6242 0.0237275
57.934 16.9925 0.0263734
57.6964 19.4923 0.035033
57.3282 21.861 0.0371345
59.4872 27.927 0.0252911
57.6625 25.7483 0.0248119
57.1144 23.9712 0.0317655
55.531 16.985 0.0244304
53.7512 16.9974 0.0206062
52.9748 15.2794 0.0260069
50.1126 7.2857 0.0130452
52.1713 12.8042 0.0222253
51.2328 10.1281 0.0185074
62.0812 35.362 2
60.1612 32.7566 2
58.499 30.0963 2
56.6245 18.1688 2
56.3273 20.54 2
56.0419 22.8978 2
57.1854 27.4075 2
56.2049 25.1317 2
48.0567 6.52699 2
49.325 9.33288 2
54.4031 17.936 2
52.3533 17.0581 2
51.3745 14.5067 2
50.4329 11.9991 2
59.7444 35.1271 3.97702
57.821 32.2926 3.97714
56.4077 29.3693 3.97739
55.3155 26.6356 3.97619
55.3227 19.205 3.97207
54.8403 24.0926 3.96542
54.9532 21.5891 3.95933
45.9627 5.88264 3.98896
43.3743 7.47383 3.98591
47.3556 8.62569 3.9844
48.6002 11.2985 3.98028
49.7118 13.7514 3.97839
50.6287 16.1507 3.97751
53.1092 18.6822 3.97239
51.289 18.073 3.97995
51.1683 65.127 0.0153303
52.0459 62.5363 0.0189041
58.1978 46.8239 0.0262316
52.8315 60.129 0.022643
55.4744 58.2406 0.02457
53.633 58.4614 0.0210831
57.5101 51.7647 0.0323202
56.1425 49.5256 0.0293768
55.4519 55.7695 0.0366256
55.3147 53.358 0.0358718
50.3462 63.3793 2
51.2425 60.9314 2
54.2069 57.2578 2
52.3061 58.6219 2
56.5379 44.1488 2
55.3554 47.8609 2
54.9999 51.362 2
53.9694 54.518 2
49.5919 61.742 3.98168
55.3862 41.6741 3.97599
50.5626 59.3217 3.97479
52.1676 56.4756 3.97006
53.987 45.5183 3.97529
53.2085 49.2935 3.97043
52.6091 52.8217 3.96499
48.6184 64.1205 0.0165529
47.9622 62.4716 2
47.3288 61.0042 3.98352
43.6315 67.4673 0.0149771
45.1329 65.1948 0.0167548
46.3824 63.0498 0.0172927
41.6637 67.6862 2
43.3569 65.5048 2
45.988 61.5818 2
44.7676 63.4507 2
45.7658 60.6248 3.98123
44.4841 61.8297 3.9817
43.1469 63.7221 3.98155
41.5465 65.6417 3.98236
39.6328 67.7655 3.98445
37.526 70.0488 3.98792
39.7023 70.0245 2
39.8179 72.4039 3.99225
41.8605 69.8769 0.0120169
42.1115 72.2072 2
42.3947 74.6792 4
44.377 71.862 0.00755597
44.8159 74.2794 2
47.2057 73.7222 0
43.8521 5.35941 3.98902
46.5712 3.64728 3.99278
48.7855 4.32251 2
49.554 1.99015 4
50.9547 5.13221 0.00791704
51.8506 2.85453 2
54.0858 3.86728 0
60.1507 44.752 0.0244658
61.1012 41.945 0.0237885
62.0493 39.3496 0.0234559
63.8879 37.4552 0.0268073
61.8852 37.4431 2
60.0996 39.8331 2
58.8343 42.8943 2
59.5989 37.5646 3.97759
57.7969 40.6351 3.97772
54.8248 39.6875 3.97614
62.0821 35.3619 0.024341
60.1636 32.7563 0.0235202
58.4997 30.0956 0.0232538
56.6252 18.1696 0.027073
56.3268 20.5425 0.0383172
56.0402 22.897 0.037264
57.1842 27.4068 0.0239032
56.2039 25.1308 0.0273604
54.4036 17.9366 0.0232031
52.3543 17.0585 0.0276177
51.3751 14.5082 0.0251943
48.0567 6.52791 0.011667
49.325 9.33386 0.0172023
50.4329 11.9998 0.0208838
59.7426 35.1273 2
45.9626 5.88211 2
43.3741 7.47337 2
57.8202 32.2934 2
56.4076 29.37 2
55.3222 19.2047 2
54.9555 21.5887 2
54.8393 24.0939 2
55.3111 26.6371 2
47.3556 8.62424 2
48.6002 11.2975 2
53.1089 18.6814 2
51.2885 18.0734 2
50.6282 16.1505 2
49.7112 13.7508 2
57.1845 34.7738 3.97749
55.5475 31.5495 3.97793
54.3343 28.4511 3.97828
53.6647 25.5416 3.97387
53.9412 20.1593 3.97301
53.5139 22.7494 3.95699
41.3994 7.07925 3.98638
45.3604 7.99547 3.98622
42.8663 9.41722 3.98318
46.667 10.6568 3.98172
47.7442 13.1087 3.98053
48.9283 15.4125 3.97601
49.9965 17.7181 3.97645
51.6279 19.3498 3.9786
50.3465 63.3792 0.0168576
51.2429 60.9308 0.0215352
56.5388 44.1496 0.0222072
55.3562 47.8618 0.0278719
52.3066 58.6214 0.0237521
54.2072 57.2567 0.0247848
54.9991 51.3622 0.0332592
53.969 54.5168 0.036898
49.5914 61.7416 2
55.3867 41.6741 2
50.5622 59.3223 2
52.1671 56.4764 2
53.9918 45.5175 2
53.2121 49.2934 2
52.6104 52.8213 2
48.8468 60.1983 3.97965
52.2498 42.5945 3.9813
49.7796 57.6129 3.97473
50.5538 54.4065 3.96609
51.6339 47.2267 3.97614
51.1196 50.9144 3.96221
47.8982 43.7397 3.99062
47.9623 62.4713 0.0176982
47.329 61.0046 2
46.6173 59.7897 3.9824
41.6636 67.686 0.0151894
43.357 65.5041 0.0169106
44.7677 63.4501 0.0179922
45.9879 61.5812 0.0171178
39.633 67.7662 2
41.5463 65.6416 2
45.7657 60.6255 2
43.1468 63.7228 2
44.4841 61.8303 2
44.6226 60.2864 3.98237
42.9511 62.0773 3.98003
41.6003 63.8153 3.98162
39.6478 65.6092 3.98142
37.5635 67.7474 3.98411
31.6968 65.1279 3.98223
33.3923 67.4849 3.98382
35.3335 69.9588 3.98795
37.526 70.0495 2
37.5095 72.4584 3.99212
39.7023 70.0239 0.0118142
39.8181 72.4043 2
39.9526 74.9197 4
42.1113 72.2069 0.00760308
42.3947 74.6792 2
44.8159 74.2794 0
41.7366 4.96861 3.98929
43.852 5.35891 2
44.3265 3.11034 3.99313
46.5714 3.64702 2
47.2057 1.27793 4
48.7853 4.32288 0.00742012
49.554 1.99013 2
51.8506 2.85458 0
58.8354 42.8949 0.0225784
60.1008 39.8336 0.0227605
61.8865 37.443 0.0234118
59.5976 37.5646 2
57.7967 40.6347 2
54.8257 39.6871 2
56.5864 37.8845 3.97753
49.2834 41.3038 3.99044
52.8465 39.3002 3.98445
39.4428 6.80296 3.98632
59.7444 35.1271 0.0229828
57.821 32.2926 0.0228566
56.4077 29.3693 0.0226081
55.3227 19.205 0.0279291
54.9532 21.5891 0.0406731
54.8403 24.0926 0.0345806
55.3155 26.6356 0.0238118
53.1092 18.6822 0.02761
51.289 18.073 0.0200474
50.6287 16.1507 0.0224931
45.9627 5.88264 0.0110382
49.7118 13.7514 0.021608
47.3556 8.62569 0.0156043
48.6002 11.2985 0.019719
43.3743 7.47383 0.0140851
57.1821 34.7733 2
41.3993 7.07863 2
45.3602 7.99502 2
42.866 9.41676 2
55.5495 31.5499 2
54.3326 28.4524 2
53.9412 20.1596 2
53.514 22.7465 2
53.662 25.5432 2
46.667 10.6546 2
47.7439 13.1073 2
51.6279 19.3502 2
49.9955 17.7171 2
48.9273 15.4123 2
54.6207 33.973 3.97635
53.2895 30.538 3.97771
52.4333 27.2575 3.97488
52.0548 24.1492 3.97623
52.3505 21.0852 3.97661
41.014 9.05026 3.98331
44.7251 9.99614 3.98395
42.4689 10.9044 3.98426
46.0048 12.7354 3.97879
47.6784 14.593 3.97546
48.1039 16.998 3.97519
49.8036 19.6783 3.97735
49.5919 61.742 0.0183183
50.5626 59.3217 0.0252072
55.3862 41.6741 0.024012
53.987 45.5183 0.024712
53.2085 49.2935 0.0295733
52.1676 56.4756 0.0299408
52.6091 52.8217 0.0350074
48.8464 60.197 2
52.2576 42.5956 2
49.7789 57.6134 2
50.5536 54.4078 2
51.6376 47.2269 2
51.1212 50.9137 2
47.9056 43.7576 2
47.9816 58.7339 3.97921
49.8489 45.2331 3.98078
48.5755 55.905 3.97687
49.0672 52.5678 3.97333
49.5413 49.0108 3.97077
45.6863 39.8554 3.88492
46.1328 42.617 3.92246
46.277 45.7799 3.98797
43.5067 41.1212 3.80697
41.8762 41.9998 3.68128
47.3288 61.0042 0.0164759
46.617 59.7904 2
45.465 58.7861 3.98158
39.6328 67.7655 0.0155539
41.5465 65.6417 0.0176394
43.1469 63.7221 0.0184452
44.4841 61.8297 0.0183023
45.7658 60.6248 0.0187673
41.6003 63.8154 2
37.5636 67.7481 2
39.6477 65.6097 2
44.6226 60.287 2
42.9512 62.0778 2
41.754 62.4884 3.98056
42.4802 59.9752 3.98193
39.894 63.5488 3.98023
37.6423 65.508 3.98195
35.4636 67.6566 3.98396
33.5753 65.3405 3.98154
31.9589 63.2981 3.98179
29.8828 64.7195 3.98322
31.6969 65.1286 2
31.3768 67.195 3.98426
33.3923 67.4855 2
33.1566 69.7524 3.98773
35.3336 69.9596 2
35.1948 72.3728 3.99206
37.526 70.0488 0.0120799
37.5096 72.4589 2
37.5 75 4
39.8179 72.4039 0.00774598
39.9526 74.9197 2
42.3947 74.6792 0
39.6243 4.71599 3.98956
41.7366 4.96802 2
42.0627 2.71787 3.99327
43.8521 5.35941 0.0109799
44.3265 3.11001 2
44.8158 0.721173 4
46.5712 3.64728 0.00721876
47.2057 1.27779 2
49.554 1.99015 0
57.7969 40.6351 0.0222805
59.5989 37.5646 0.0224054
54.8248 39.6875 0.0238633
49.3014 41.3079 2
56.585 37.8845 2
52.8482 39.2939 2
53.6915 36.6294 3.97681
47.2087 40.3733 3.93081
50.2231 38.5093 3.99314
37.5167 6.67429 3.9863
39.4428 6.80223 2
39.2115 8.69324 3.98401
35.9426 8.49373 3.98394
57.1845 34.7738 0.0225051
55.5475 31.5495 0.0220731
54.3343 28.4511 0.0217172
53.9412 20.1593 0.0269927
53.5139 22.7494 0.0430133
53.6647 25.5416 0.0261283
51.6279 19.3498 0.0213967
49.9965 17.7181 0.0235537
48.9283 15.4125 0.0239864
45.3604 7.99547 0.0137845
47.7442 13.1087 0.0194655
46.667 10.6568 0.0182842
41.3994 7.07925 0.0136232
42.8663 9.41722 0.0168185
54.6176 33.9739 2
41.0138 9.04988 2
44.7245 9.99586 2
42.4684 10.9044 2
53.2864 30.537 2
52.4388 27.2591 2
52.3516 21.0854 2
52.056 24.1504 2
46.0044 12.732 2
47.6777 14.5914 2
49.8037 19.6778 2
48.1027 16.9971 2
52.1776 32.8881 3.98075
51.1045 29.2155 3.97616
50.6548 25.7886 3.97145
49.9017 22.2615 3.97944
40.57 11.6099 3.98068
43.8588 11.9185 3.97996
45.7982 15.43 3.98142
47.4944 19.2912 3.97757
46.039 37.483 3.89077
48.8468 60.1983 0.0203465
49.7796 57.6129 0.0252681
52.2498 42.5945 0.0187007
51.6339 47.2267 0.0238638
51.1196 50.9144 0.0377877
50.5538 54.4065 0.0339112
47.8982 43.7397 0.00938187
47.9807 58.7341 2
49.8581 45.2392 2
48.574 55.9065 2
49.0668 52.5712 2
49.5444 49.0112 2
45.7174 39.8611 2
46.1559 42.6357 2
46.2773 45.7781 2
43.5317 41.145 2
41.8889 42.012 2
46.8287 57.3363 3.9827
44.2555 39.4046 3.80824
42.2276 40.8659 3.72976
47.8934 47.1995 3.9765
47.1325 54.2225 3.97397
47.4999 50.7208 3.96879
44.6434 47.3708 3.97898
44.79 41.9342 3.87584
44.7487 44.513 3.93897
42.376 42.6324 3.81592
40.7936 42.3342 3.71578
46.6173 59.7897 0.0176025
45.4648 58.7867 2
43.8706 57.7083 3.98406
37.5635 67.7474 0.015889
39.6478 65.6092 0.0185811
41.6003 63.8153 0.0183838
42.9511 62.0773 0.0199665
44.6226 60.2864 0.0176258
35.4636 67.6576 2
41.754 62.4886 2
39.8939 63.5491 2
37.6424 65.5085 2
42.4802 59.9756 2
40.6237 61.6446 3.98111
40.4423 58.2025 3.98095
37.8371 63.2102 3.98007
35.5729 65.4295 3.98145
33.5754 65.341 2
31.9588 63.2988 2
33.6285 63.3369 3.98085
30.3778 62.8575 3.98223
32.1229 62.0034 3.98273
26.8686 61.4993 3.98092
28.0617 64.1474 3.98274
29.8829 64.7201 2
29.4062 66.7591 3.98466
31.6968 65.1279 0.0177681
31.3769 67.1957 2
31.0139 69.4174 3.98773
33.3923 67.4849 0.0161799
33.1566 69.753 2
32.8917 72.147 3.99216
35.3335 69.9588 0.0120541
35.1947 72.3732 2
35.0474 74.9194 4
37.5095 72.4584 0.00787715
37.5 75 2
39.9526 74.9197 0
35.6213 6.72543 3.98586
37.5237 4.61554 3.98961
39.6242 4.71529 2
39.7891 2.47435 3.99326
41.7366 4.96861 0.0107134
42.0628 2.71751 2
42.3946 0.32156 4
44.3265 3.11034 0.00687167
44.8159 0.72056 2
47.2057 1.27793 0
49.2834 41.3038 0.00955965
56.5864 37.8845 0.0224696
52.8465 39.3002 0.0155471
47.227 40.388 2
50.2349 38.5061 2
53.699 36.6319 2
51.0124 35.5696 3.97781
47.869 37.7477 3.94238
45.6864 35.131 3.88589
43.5139 33.8635 3.80258
41.8845 32.9949 3.67742
37.4585 8.53518 3.98444
37.5166 6.67344 2
39.4428 6.80296 0.0136798
39.2114 8.69247 2
38.9769 10.1278 3.98329
35.8993 9.77487 3.98244
34.1512 8.82337 3.98341
35.9422 8.49277 2
54.6207 33.973 0.0236509
53.2895 30.538 0.0222865
52.4333 27.2575 0.0251164
52.3505 21.0852 0.0233908
52.0548 24.1492 0.0237748
49.8036 19.6783 0.0226509
48.1039 16.998 0.024812
47.6784 14.593 0.0245425
44.7251 9.99614 0.0160492
46.0048 12.7354 0.0212117
41.014 9.05026 0.016689
42.4689 10.9044 0.0157379
52.1825 32.8883 2
40.57 11.6104 2
43.8576 11.9185 2
51.1183 29.2166 2
50.6589 25.7903 2
49.9017 22.2597 2
45.7969 15.4254 2
47.4938 19.2956 2
49.7166 31.4512 3.98314
49.1093 27.561 3.97477
49.3133 24.4757 3.98473
47.1635 22.0372 3.97342
38.3031 12.7392 3.97905
42.1017 14.3081 3.97838
44.7945 18.4865 3.97652
44.5718 37.4906 3.81391
46.0886 37.4916 2
47.9816 58.7339 0.0207922
48.5755 55.905 0.0231289
49.8489 45.2331 0.0192206
49.5413 49.0108 0.0292347
49.0672 52.5678 0.0266667
45.6863 39.8554 0.11508
46.1328 42.617 0.0775447
46.277 45.7799 0.0120296
43.5067 41.1212 0.193032
41.8762 41.9998 0.318721
46.8272 57.3364 2
44.2804 39.4228 2
42.217 40.8695 2
47.8934 47.2033 2
47.1305 54.2264 2
47.501 50.7248 2
44.6498 47.3479 2
44.8136 41.9508 2
44.7631 44.5297 2
42.4164 42.6597 2
40.7954 42.3321 2
45.3811 55.9273 3.98981
42.5476 39.2672 3.74114
40.6863 40.774 3.81701
45.9675 48.8859 3.98489
45.4818 52.5122 3.97988
43.3278 48.3895 4.00039
43.2759 46.06 3.92215
43.4789 43.7195 3.87339
40.9775 43.7698 3.8086
39.2703 42.664 3.73368
45.465 58.7861 0.0184184
43.8705 57.7088 2
42.0989 56.3286 3.98615
35.4636 67.6566 0.0160449
37.6423 65.508 0.0180495
39.894 63.5488 0.0197709
41.754 62.4884 0.019442
42.4802 59.9752 0.0180728
35.5731 65.4308 2
40.6237 61.645 2
37.8369 63.2104 2
40.4423 58.203 2
38.9212 56.4941 3.98826
38.2506 60.3268 3.97977
35.6068 63.2025 3.97907
33.5753 65.3405 0.0184594
31.9589 63.2981 0.0182082
33.6284 63.3376 2
30.3778 62.8579 2
32.123 62.0041 2
28.6807 62.2021 3.9817
33.3455 61.5145 3.98189
31.0665 61.2207 3.98154
27.5697 59.5941 3.98097
23.7948 59.0811 3.98009
25.0347 60.8721 3.98057
26.8689 61.4999 2
26.2285 63.4789 3.98241
28.0619 64.1479 2
27.4628 66.1831 3.98478
29.8828 64.7195 0.0167802
29.4063 66.7596 2
28.9062 68.9433 3.98765
31.3768 67.195 0.0157403
31.014 69.4181 2
30.614 71.778 3.99214
33.1566 69.7524 0.0122708
32.8915 72.1474 2
32.6054 74.6784 4
35.1948 72.3728 0.00793557
35.0474 74.9197 2
37.5 75 0
33.7241 6.98022 3.98543
35.4354 4.68579 3.98943
35.6212 6.72471 2
37.5146 2.38693 3.99326
37.5236 4.61492 2
39.6243 4.71599 0.0104414
39.7891 2.47394 2
39.9526 0.0806499 4
42.0627 2.71787 0.00672841
42.3947 0.320817 2
44.8158 0.721173 0
44.2716 35.576 3.80296
42.2383 34.1202 3.72576
47.2087 40.3733 0.0691876
50.2231 38.5093 0.00686094
53.6915 36.6294 0.0231869
47.8785 37.7494 2
51.0249 35.5696 2
45.7127 35.1144 2
43.5409 33.8404 2
41.8969 32.9822 2
48.0409 34.3072 3.97026
44.7944 33.0459 3.86819
42.3877 32.3633 3.81297
40.803 32.6643 3.71328
37.3114 10.6322 3.98162
37.4583 8.53397 2
37.5167 6.67429 0.0137047
39.2115 8.69324 0.0159857
38.9771 10.1269 2
34.7545 10.3814 3.98124
35.899 9.77388 2
32.378 9.37079 3.98221
34.1507 8.82274 2
35.9426 8.49373 0.0160577
52.1776 32.8881 0.0192483
51.1045 29.2155 0.0238391
50.6548 25.7886 0.0285486
49.9017 22.2615 0.0205567
47.4944 19.2912 0.02243
45.7982 15.43 0.0185757
43.8588 11.9185 0.0200401
40.57 11.6099 0.0193167
49.7275 31.4488 2
38.3026 12.7374 2
42.1012 14.3105 2
49.1156 27.5611 2
49.3158 24.4718 2
47.16 22.033 2
44.794 18.4984 2
47.5541 29.5562 3.98662
47.0062 25.2246 3.98478
44.2736 21.4145 3.97542
36.5831 12.9364 3.97815
38.6826 14.8137 3.97742
41.7472 17.8586 3.97828
42.666 37.4842 3.7527
44.5915 37.4905 2
46.039 37.483 0.109229
46.8287 57.3363 0.0173023
47.1325 54.2225 0.02603
47.8934 47.1995 0.0234967
47.4999 50.7208 0.0312105
44.2555 39.4046 0.191755
44.79 41.9342 0.124159
44.7487 44.513 0.0610281
44.6434 47.3708 0.0210244
42.376 42.6324 0.184084
42.2276 40.8659 0.270236
40.7936 42.3342 0.284215
45.3793 55.9263 2
42.5373 39.2659 2
40.6739 40.7605 2
45.9669 48.892 2
45.4806 52.5177 2
43.3308 48.4088 2
43.3052 46.0867 2
43.5054 43.7457 2
41.0061 43.8024 2
39.2617 42.6537 2
43.715 54.4335 3.99643
40.7832 39.1577 3.847
39.135 40.8475 3.83806
43.6111 50.4468 4.00361
41.8937 47.6038 3.95712
41.8186 45.1418 3.88279
39.3397 44.4745 3.81673
37.5009 42.766 3.75706
43.8706 57.7083 0.0159355
42.0988 56.329 2
40.4095 54.9295 3.98478
35.5729 65.4295 0.0185469
37.8371 63.2102 0.0199291
40.6237 61.6446 0.0188883
40.4423 58.2025 0.0190477
35.6068 63.2037 2
38.2507 60.3268 2
38.9214 56.4938 2
37.9988 55.2458 3.99499
36.9337 57.6239 3.98192
35.3633 60.9107 3.97985
33.6285 63.3369 0.0191527
30.3778 62.8575 0.0177714
32.1229 62.0034 0.0172749
33.3457 61.5154 2
28.6808 62.2024 2
31.0667 61.2211 2
29.4036 60.2889 3.98034
32.3582 59.7466 3.98555
28.0276 58.3745 3.98756
27.5702 59.5947 2
25.3821 58.5937 3.97855
22.7621 58.2364 3.97149
23.4014 60.3507 3.97914
23.795 59.0821 2
25.0349 60.873 2
24.4314 62.7711 3.98222
26.8686 61.4993 0.0190827
26.2287 63.4797 2
25.5469 65.4928 3.98429
28.0617 64.1474 0.0172618
27.4628 66.1836 2
26.8357 68.3316 3.98765
29.4062 66.7591 0.0153431
28.9062 68.9436 2
28.369 71.2632 3.99224
31.0139 69.4174 0.012274
30.6138 71.7783 2
30.1842 74.2788 4
32.8917 72.147 0.00784351
32.6053 74.6792 2
35.0474 74.9194 0
31.7885 7.42046 3.98464
33.3476 4.92507 3.98903
33.7238 6.97957 2
35.2447 2.46299 3.99321
35.4352 4.68528 2
35.6213 6.72543 0.0141416
37.5 0 4
37.5144 2.38658 2
37.5237 4.61554 0.0103903
39.7891 2.47435 0.00673783
39.9526 0.0802889 2
42.3946 0.32156 0
42.5505 35.7083 3.7447
44.2932 35.5594 2
40.6962 34.2204 3.81572
42.2261 34.1181 2
47.869 37.7477 0.0576205
51.0124 35.5696 0.0221897
45.6864 35.131 0.11411
43.5139 33.8635 0.197416
41.8845 32.9949 0.322581
48.0573 34.2913 2
44.8187 33.03 2
42.4226 32.3366 2
40.805 32.6654 2
46.0657 31.5909 3.94337
43.4724 31.2776 3.87629
40.9816 31.2259 3.80893
39.2781 32.3428 3.733
35.6933 11.7786 3.97982
37.3114 10.6305 2
37.4585 8.53518 0.0155629
38.9769 10.1278 0.0167134
33.0986 11.2195 3.9795
34.7543 10.3806 2
35.8993 9.77487 0.0175608
30.4828 10.0197 3.9814
32.3776 9.37039 2
34.1512 8.82337 0.0165878
49.7166 31.4512 0.0168631
49.1093 27.561 0.0252297
49.3133 24.4757 0.0152675
47.1635 22.0372 0.0265767
44.7945 18.4865 0.0234784
42.1017 14.3081 0.0216206
38.3031 12.7392 0.0209503
36.5827 12.9352 2
47.5613 29.5378 2
38.6815 14.8118 2
41.7459 17.8654 2
47.011 25.2204 2
44.2704 21.3957 2
45.3862 27.6796 4.00027
43.7449 24.1408 4.00493
41.3319 20.786 3.97978
35.7733 14.7658 3.97716
38.6823 17.6047 3.97854
40.8324 37.4781 3.85694
42.6606 37.486 2
44.5718 37.4906 0.186093
45.3811 55.9273 0.0101933
45.4818 52.5122 0.0201224
45.9675 48.8859 0.015109
42.5476 39.2672 0.258857
43.4789 43.7195 0.126609
43.2759 46.06 0.077854
43.3278 48.3895 -0.000385845
40.9775 43.7698 0.191401
40.6863 40.774 0.182988
39.2703 42.664 0.266315
43.7124 54.4321 2
40.7655 39.1488 2
39.1271 40.8321 2
43.6093 50.4628 2
41.8859 47.6242 2
41.841 45.1672 2
37.5008 42.7568 2
39.3564 44.4977 2
41.8588 52.9956 3.99355
39.1494 39.1649 3.86833
37.4982 40.886 3.8561
35.7338 42.6688 3.73401
40.8641 49.6575 3.99955
39.8063 46.0176 3.86339
37.4988 44.6976 3.80408
42.0989 56.3286 0.0138458
40.409 54.9297 2
38.7252 53.8389 3.99359
35.6068 63.2025 0.0209267
38.2506 60.3268 0.0202292
38.9212 56.4941 0.0117441
35.3636 60.9115 2
36.9343 57.6237 2
37.9989 55.2438 2
36.3218 55.3456 3.99234
34.489 58.5192 3.98555
33.3455 61.5145 0.0181072
28.6807 62.2021 0.0182964
31.0665 61.2207 0.018461
32.3587 59.7474 2
29.4041 60.289 2
30.3048 57.8193 3.98435
28.0279 58.3753 2
26.9574 56.826 3.97723
27.5697 59.5941 0.0190337
25.3823 58.5948 2
23.8518 56.7948 3.96806
21.3426 57.3899 3.9703
21.996 59.6213 3.97767
22.7623 58.238 2
22.7358 62.0216 3.98054
23.4016 60.3517 2
23.7948 59.0811 0.0199113
25.0347 60.8721 0.0194297
24.4316 62.7719 2
23.6809 64.7106 3.98395
26.2285 63.4789 0.0175948
25.5469 65.4935 2
24.8079 67.5928 3.98747
27.4628 66.1831 0.0152172
26.8358 68.3323 2
26.1641 70.6039 3.99229
28.9062 68.9433 0.0123499
28.3687 71.2634 2
27.7943 73.7221 4
30.614 71.778 0.00786404
30.1841 74.2794 2
32.6054 74.6784 0
29.8111 7.99427 3.98378
31.2529 5.33226 3.98827
31.7883 7.41981 2
32.9804 2.70123 3.99293
33.3474 4.92453 2
33.7241 6.98022 0.0145717
35.0474 0.080333 4
35.2445 2.46272 2
35.4354 4.68579 0.0105731
37.5 0 2
37.5146 2.38693 0.00674241
39.9526 0.0806499 0
40.7853 35.8143 3.84811
42.5394 35.7108 2
44.2716 35.576 0.197042
28.5435 10.6957 3.9806
39.1418 34.1578 3.83726
40.6814 34.2334 2
42.2383 34.1202 0.274238
48.0409 34.3072 0.0297405
44.7944 33.0459 0.131806
42.3877 32.3633 0.187031
40.803 32.6643 0.286716
46.0913 31.5802 2
43.4961 31.2534 2
41.0105 31.1955 2
39.2697 32.3531 2
44.2818 29.7862 3.93435
41.8234 29.8554 3.88279
39.3508 30.5275 3.8158
37.5105 32.2476 3.7563
34.0938 12.9388 3.97817
35.6932 11.7774 2
37.3114 10.6322 0.0183767
31.1867 11.9889 3.97947
33.0986 11.2191 2
34.7545 10.3814 0.0187621
30.4823 10.0188 2
32.378 9.37079 0.0177878
47.5541 29.5562 0.0133758
47.0062 25.2246 0.0152227
36.5831 12.9364 0.0218539
44.2736 21.4145 0.0245813
41.7472 17.8586 0.0217195
38.6826 14.8137 0.0225845
35.773 14.766 2
45.3915 27.6806 2
38.6804 17.61 2
41.3286 20.7705 2
43.7465 24.1264 2
33.6097 15.8851 3.97664
42.9543 26.525 3.9964
40.886 23.3504 4.00972
38.4157 20.3854 3.97758
35.8506 17.5216 3.97834
39.1624 37.4851 3.88525
40.8132 37.4763 2
42.666 37.4842 0.247304
43.715 54.4335 0.00356728
43.6111 50.4468 -0.00361054
40.7832 39.1577 0.152998
41.8186 45.1418 0.117211
41.8937 47.6038 0.0428836
39.3397 44.4745 0.183265
39.135 40.8475 0.161939
37.5009 42.766 0.242937
41.8573 52.9932 2
39.1379 39.1556 2
37.4981 40.8692 2
40.8768 49.673 2
35.7394 42.6585 2
39.8297 46.0495 2
37.4953 44.7192 2
39.8007 51.8774 3.99985
37.4968 39.1821 3.88771
35.8604 40.8618 3.83702
34.2071 42.3387 3.71425
35.6546 44.486 3.81382
38.6724 48.6649 3.97352
37.5037 46.3218 3.87204
40.4095 54.9295 0.0152176
38.725 53.8321 2
36.7386 53.1666 4.00022
35.3633 60.9107 0.0201478
36.9337 57.6239 0.0180766
37.9988 55.2458 0.00501081
34.4897 58.5202 2
36.3229 55.3518 2
33.2401 55.5042 3.99441
32.3582 59.7466 0.0144511
29.4036 60.2889 0.0196646
30.3055 57.8196 2
28.7127 55.3147 3.97849
28.0276 58.3745 0.0124364
26.9571 56.8269 2
25.3351 55.1333 3.9736
21.8297 55.3358 3.96458
25.3821 58.5937 0.0214502
23.8516 56.797 2
20.2288 57.0184 3.97584
20.6493 58.7743 3.97472
21.3424 57.3916 2
21.1668 61.1702 3.97878
21.9962 59.6223 2
22.7621 58.2364 0.0285091
21.8945 63.8381 3.98299
22.736 62.0226 2
23.4014 60.3507 0.0208585
24.4314 62.7711 0.0177775
23.681 64.7113 2
22.8362 66.7361 3.98707
25.5469 65.4928 0.0157093
24.808 67.5936 2
24.0083 69.805 3.99236
26.8357 68.3316 0.0123496
26.1638 70.6042 2
25.446 73.0099 4
28.369 71.2632 0.00776194
27.7943 73.7222 2
30.1842 74.2788 0
27.8209 8.65427 3.98331
29.155 5.87817 3.98748
29.8107 7.99334 2
30.7256 3.09841 3.99262
31.2526 5.33169 2
31.7885 7.42046 0.0153592
32.6053 0.320823 4
32.9801 2.70092 2
33.3476 4.92507 0.0109685
35.0474 0.0802903 2
35.2447 2.46299 0.00679169
37.5 0 0
39.1571 35.8166 3.86703
40.767 35.8232 2
42.5505 35.7083 0.255304
28.5432 10.6951 2
26.6222 11.3915 3.98076
29.2256 12.6463 3.98009
37.5028 34.1292 3.85496
39.1315 34.1742 2
40.6962 34.2204 0.184276
46.0657 31.5909 0.056629
43.4724 31.2776 0.123715
40.9816 31.2259 0.191072
39.2781 32.3428 0.266999
44.2965 29.7721 2
41.8405 29.8389 2
39.3684 30.4984 2
37.511 32.2569 2
42.2922 28.4373 3.9125
39.8354 28.9766 3.88277
37.5161 30.3098 3.80464
35.7458 32.3417 3.73305
31.9158 14.4867 3.97801
34.094 12.9385 2
35.6933 11.7786 0.0201823
31.1867 11.988 2
33.0986 11.2195 0.0204976
30.4828 10.0197 0.0186015
45.3862 27.6796 -0.000271179
43.7449 24.1408 -0.00493392
35.7733 14.7658 0.0228353
41.3319 20.786 0.0202197
38.6823 17.6047 0.0214588
33.6084 15.8846 2
35.8484 17.5211 2
42.9633 26.5231 2
38.4159 20.3839 2
40.8829 23.3357 2
33.5532 17.3966 3.97812
40.3492 25.6963 3.99722
38.0683 22.9724 3.99711
35.5824 20.1015 3.9798
37.4969 37.4965 3.90677
39.1479 37.4856 2
40.8324 37.4781 0.143056
41.8588 52.9956 0.00645024
40.8641 49.6575 0.000447228
39.1494 39.1649 0.131671
39.8063 46.0176 0.136614
37.4988 44.6976 0.195917
37.4982 40.886 0.143895
35.7338 42.6688 0.265987
39.8018 51.8784 2
37.4974 39.1705 2
35.8709 40.8457 2
38.6798 48.7003 2
34.204 42.3376 2
35.6382 44.5129 2
37.5009 46.3516 2
37.6464 50.9511 4.008
35.8454 39.1829 3.86806
34.3118 40.7893 3.81602
33.1182 42.006 3.68019
34.0137 43.7666 3.80808
35.1664 46.0068 3.87531
36.8806 48.3002 3.94131
38.7252 53.8389 0.00641468
36.7378 53.1751 2
34.3828 52.4572 3.99735
34.489 58.5192 0.0144486
36.3218 55.3456 0.00765814
33.2404 55.5058 2
30.5441 53.3533 3.97702
30.3048 57.8193 0.0156462
28.7124 55.317 2
26.9196 53.4266 3.97217
26.9574 56.826 0.022765
25.3348 55.1366 2
23.6151 53.4679 3.96303
20.5107 53.2062 3.96147
19.9482 55.8209 3.96912
21.8286 55.3373 2
23.8518 56.7948 0.0319425
19.4444 57.88 3.97346
20.2284 57.0199 2
19.7082 60.1998 3.97707
20.6492 58.7753 2
21.3426 57.3899 0.0297006
20.2072 62.8584 3.98091
21.1671 61.1714 2
21.996 59.6213 0.0223337
20.9376 65.7649 3.98652
21.8945 63.839 2
22.7358 62.0216 0.0194615
23.6809 64.7106 0.0160463
22.8363 66.7368 2
21.9108 68.872 3.99215
24.8079 67.5928 0.0125281
24.0079 69.8052 2
23.1494 72.1454 4
26.1641 70.6039 0.00771263
25.446 73.0099 2
27.7943 73.7221 0
25.8601 9.38296 3.98266
27.0697 6.5424 3.98661
27.8206 8.65364 2
28.4877 3.64441 3.99225
29.1546 5.87748 2
29.8111 7.99427 0.0162191
30.1841 0.720592 4
30.7252 3.09812 2
31.2529 5.33226 0.0117305
32.6053 0.320817 2
32.9804 2.70123 0.00707311
35.0474 0.080333 0
37.499 35.8183 3.88748
39.1447 35.8258 2
40.7853 35.8143 0.151894
24.7769 12.0753 3.981
23.7521 14.3632 3.97997
28.5435 10.6957 0.0194044
26.622 11.3911 2
29.2257 12.6455 2
27.2918 13.3792 3.98046
29.7814 14.2074 3.97994
35.8682 34.1539 3.83661
37.5029 34.144 2
39.1418 34.1578 0.162741
37.5105 32.2476 0.243697
44.2818 29.7862 0.065645
41.8234 29.8554 0.117212
39.3508 30.5275 0.184196
42.3197 28.4101 2
39.8469 28.9437 2
37.5189 30.2933 2
35.7519 32.3533 2
40.0244 27.6113 3.91062
37.5213 28.6819 3.87668
35.6759 30.535 3.81806
34.2239 32.6703 3.71409
30.9279 16.8474 3.97734
31.9156 14.4857 2
34.0938 12.9388 0.0218306
31.1867 11.9889 0.0205256
42.9543 26.525 0.00360074
40.886 23.3504 -0.00971559
33.6097 15.8851 0.0233629
35.8506 17.5216 0.0216582
38.4157 20.3854 0.0224229
33.5508 17.4015 2
35.5846 20.1062 2
40.353 25.681 2
38.0619 22.954 2
32.8647 19.8057 3.98204
37.7912 25.2821 4.00489
35.1948 22.7107 3.99105
35.8344 37.502 3.88536
37.4959 37.4959 2
39.1624 37.4851 0.114746
39.8007 51.8774 0.000149499
38.6724 48.6649 0.0264786
37.4968 39.1821 0.112292
37.5037 46.3218 0.127963
35.6546 44.486 0.186184
35.8604 40.8618 0.162983
34.2071 42.3387 0.285753
37.6429 50.9698 2
35.8587 39.1728 2
34.3249 40.777 2
36.877 48.3321 2
33.1045 42.0194 2
33.988 43.7967 2
35.1504 46.0353 2
35.5 50.098 3.99542
34.221 39.1809 3.8494
32.759 40.8782 3.72782
32.6192 42.6389 3.81541
33.1815 45.1393 3.88051
34.306 47.38 3.91716
36.7386 53.1666 -0.000216571
34.3807 52.4643 2
32.0505 51.1628 4.0012
33.2401 55.5042 0.00559336
30.5436 53.3583 2
28.473 51.5684 3.97757
28.7127 55.3147 0.021514
26.919 53.4294 2
25.1354 51.7258 3.95998
25.3351 55.1333 0.0264031
23.6143 53.47 2
22.0309 51.7841 3.95731
19.2677 51.6176 3.96421
18.9493 54.2956 3.96105
20.5096 53.2058 2
18.4574 56.7121 3.97224
19.9474 55.8223 2
21.8297 55.3358 0.035416
18.3722 59.1017 3.97283
19.4441 57.881 2
20.2288 57.0184 0.0241566
18.6192 61.7628 3.97651
19.7085 60.2013 2
20.6493 58.7743 0.0252762
19.1265 64.6752 3.98528
20.2072 62.8595 2
21.1668 61.1702 0.0212167
19.885 67.8086 3.99204
20.9376 65.7657 2
21.8945 63.8381 0.0170094
22.8362 66.7361 0.0129337
21.9104 68.872 2
20.9142 71.1327 4
24.0083 69.805 0.00764048
23.1494 72.1455 2
25.446 73.0099 0
23.0964 12.7908 3.98057
23.9726 10.1703 3.98223
25.0234 7.31296 3.98583
25.8598 9.38249 2
26.2794 4.32871 3.99181
27.0693 6.5419 2
27.8209 8.65427 0.0166908
27.7943 1.27781 4
28.4872 3.64415 2
29.155 5.87817 0.0125183
30.1841 0.720551 2
30.7256 3.09841 0.00737652
32.6053 0.320823 0
35.8452 35.8235 3.86764
37.4981 35.8296 2
39.1571 35.8166 0.132972
24.7769 12.075 2
23.7526 14.3631 2
22.4811 15.0405 3.97968
25.358 13.9117 3.97983
24.0265 15.6268 3.97973
26.6222 11.3915 0.0192357
29.2256 12.6463 0.0199137
27.2921 13.3789 2
29.7812 14.2067 2
28.3583 15.9827 3.97974
34.3207 34.2264 3.81471
35.8773 34.171 2
37.5028 34.1292 0.145036
35.7458 32.3417 0.266946
37.5161 30.3098 0.19536
42.2922 28.4373 0.0874976
39.8354 28.9766 0.117227
40.0344 27.5875 2
37.5188 28.6569 2
35.6554 30.5053 2
34.2166 32.6719 2
37.5995 27.317 3.92566
35.1893 28.9893 3.88233
34.0342 31.2413 3.80858
33.1421 33.0022 3.68038
30.2115 19.3553 3.98238
30.9272 16.8467 2
31.9158 14.4867 0.0219946
40.3492 25.6963 0.00278305
38.0683 22.9724 0.0028863
33.5532 17.3966 0.0218845
35.5824 20.1015 0.0201965
32.8653 19.8122 2
35.1921 22.7034 2
37.7815 25.2618 2
32.3119 22.4542 3.99533
35.0055 25.2568 4.00299
34.1663 37.5057 3.85798
35.8481 37.5018 2
37.4969 37.4965 0.0932288
37.6464 50.9511 -0.00799766
36.8806 48.3002 0.0586883
35.8454 39.1829 0.131944
35.1664 46.0068 0.124694
34.0137 43.7666 0.191918
34.3118 40.7893 0.183984
33.1182 42.006 0.31981
35.4951 50.1152 2
34.2451 39.17 2
32.7685 40.8825 2
34.2919 47.4165 2
32.5848 42.6641 2
33.1645 45.1628 2
33.3031 49.0929 3.99319
32.4426 39.2871 3.74665
31.4757 41.1321 3.80604
31.5241 43.7234 3.87577
32.3313 46.3077 3.91552
34.3828 52.4572 0.00265354
32.0489 51.1709 2
29.9321 49.6827 3.98839
30.5441 53.3533 0.0229766
28.4717 51.5674 2
26.5832 49.9561 3.97084
26.9196 53.4266 0.0278333
25.1341 51.724 2
23.425 50.1658 3.96595
23.6151 53.4679 0.0369704
22.03 51.7834 2
20.5473 50.2932 3.96565
18.0632 50.313 3.96815
17.8862 52.7766 3.96328
19.2662 51.617 2
17.4533 55.3287 3.96454
18.9473 54.2955 2
20.5107 53.2062 0.038525
17.1412 57.8637 3.97139
18.4567 56.713 2
19.9482 55.8209 0.0308792
17.138 60.5421 3.97525
18.3721 59.1028 2
19.4444 57.88 0.0265398
17.4075 63.4663 3.98215
18.6192 61.7641 2
19.7082 60.1998 0.0229301
17.9414 66.6172 3.99183
19.1265 64.6763 2
20.2072 62.8584 0.019085
18.75 69.9759 4
19.8845 67.8086 2
20.9376 65.7649 0.0134762
21.9108 68.872 0.00785347
20.9142 71.1327 2
23.1494 72.1454 0
21.5875 13.6117 3.9801
22.1906 11.0302 3.98157
23.0967 12.7908 2
23.0412 8.17889 3.98523
23.9724 10.1698 2
24.117 5.14355 3.99142
25.023 7.31246 2
25.8601 9.38296 0.0173403
25.446 1.99014 4
26.2788 4.3286 2
27.0697 6.5424 0.0133879
27.7943 1.27778 2
28.4877 3.64441 0.00775306
30.1841 0.720592 0
34.2157 35.8297 3.84582
35.8564 35.8335 2
37.499 35.8183 0.112516
21.3072 15.8368 3.98044
24.7769 12.0753 0.0190039
23.7521 14.3632 0.0200283
25.3585 13.9116 2
22.4819 15.0406 2
24.0272 15.6271 2
23.2666 16.2591 3.9781
25.3822 16.0956 3.9797
27.2918 13.3792 0.0195392
29.7814 14.2074 0.0200551
28.3581 15.9833 2
27.4435 18.8091 3.98154
32.778 34.1304 3.72613
34.3385 34.2396 2
35.8682 34.1539 0.163386
34.2239 32.6703 0.285914
35.6759 30.535 0.18194
37.5213 28.6819 0.123317
40.0244 27.6113 0.0893776
37.6015 27.2863 2
33.127 32.9908 2
35.183 28.9555 2
33.9971 31.203 2
35.0847 27.4479 3.92602
33.1951 29.8701 3.87661
32.6396 32.363 3.80297
29.5903 21.9512 3.99554
30.2127 19.3595 2
30.9279 16.8474 0.0226624
37.7912 25.2821 -0.00488618
35.1948 22.7107 0.00895313
32.8647 19.8057 0.0179611
32.3111 22.4515 2
35.0222 25.2484 2
31.7664 25.6751 4.00778
32.3201 37.5077 3.75522
34.1907 37.5081 2
35.8344 37.502 0.114636
35.5 50.098 0.00458478
34.306 47.38 0.0828384
34.221 39.1809 0.1506
33.1815 45.1393 0.119494
32.6192 42.6389 0.18459
32.759 40.8782 0.272178
33.299 49.0864 2
32.4573 39.2848 2
31.4521 41.1532 2
32.2987 46.3346 2
31.4963 43.7496 2
31.2437 47.9278 3.98948
30.7256 39.4191 3.80505
30.2005 41.9497 3.8686
30.5476 44.9002 3.93534
32.0505 51.1628 -0.00120054
29.9297 49.6815 2
27.9857 48.1443 3.96684
28.473 51.5684 0.0224335
26.5819 49.9549 2
24.7609 48.4353 3.97285
25.1354 51.7258 0.0400223
23.4241 50.1641 2
21.7782 48.7597 3.96937
22.0309 51.7841 0.0426917
20.5457 50.2923 2
19.1329 49.0709 3.97201
16.9677 49.3154 3.9723
16.8286 51.3926 3.96651
18.0643 50.3121 2
16.4128 53.8598 3.96457
17.8834 52.7765 2
19.2677 51.6176 0.0357949
15.9869 56.4647 3.96692
17.4528 55.329 2
18.9493 54.2956 0.0389487
15.7533 59.2031 3.9728
17.1409 57.8649 2
18.4574 56.7121 0.0277612
15.7892 62.1342 3.97781
17.1382 60.5438 2
18.3722 59.1017 0.0271695
16.0886 65.2998 3.99076
17.4073 63.4677 2
18.6192 61.7628 0.0234863
16.6661 68.6801 4
17.9407 66.617 2
19.1265 64.6752 0.0147231
18.75 69.9759 2
19.885 67.8086 0.00795886
20.9142 71.1327 0
20.2202 14.6013 3.97914
21.588 13.6118 2
20.53 12.0006 3.98089
21.144 9.14903 3.98476
22.1907 11.03 2
23.0964 12.7908 0.0194313
22.0161 6.08267 3.99109
23.0408 8.17838 2
23.9726 10.1703 0.017775
23.1494 2.85457 4
24.1162 5.14355 2
25.0234 7.31296 0.0141665
25.446 1.99012 2
26.2794 4.32871 0.00818834
27.7943 1.27781 0
32.4452 35.7248 3.73912
34.2343 35.8426 2
35.8452 35.8235 0.132364
21.3081 15.8367 2
20.306 16.9696 3.98182
22.0999 16.6434 3.97833
25.358 13.9117 0.0201686
22.4811 15.0405 0.0203218
24.0265 15.6268 0.0202715
25.3827 16.096 2
23.2674 16.2594 2
24.2083 18.4634 3.97571
27.0303 21.4729 3.99125
28.3583 15.9827 0.0202566
27.4457 18.8094 2
31.5021 33.8822 3.80589
32.7911 34.1268 2
34.3207 34.2264 0.185286
33.1421 33.0022 0.319622
34.0342 31.2413 0.191415
35.1893 28.9893 0.117674
37.5995 27.317 0.074338
35.0644 27.4077 2
32.5758 32.3365 2
33.1787 29.8484 2
32.626 28.1618 3.93707
31.533 31.2907 3.87723
28.8697 24.4296 3.98051
29.5872 21.9577 2
30.2115 19.3553 0.0176161
35.0055 25.2568 -0.00298915
32.3119 22.4542 0.0046657
31.7673 25.6572 2
29.7463 27.3453 3.96354
30.4078 37.4996 3.81292
32.333 37.5051 2
34.1663 37.5057 0.142019
33.3031 49.0929 0.00680785
32.3313 46.3077 0.0844786
32.4426 39.2871 0.253349
31.5241 43.7234 0.124233
31.4757 41.1321 0.193962
31.2421 47.9308 2
30.6976 39.437 2
30.1767 41.9659 2
30.5389 44.9161 2
29.3308 46.5294 4.00093
29.2969 39.8542 3.88538
28.9127 43.1266 3.93636
29.9321 49.6827 0.0116067
27.9837 48.1408 2
26.0974 46.6157 3.97624
26.5832 49.9561 0.0291561
24.7603 48.4337 2
22.9613 47.0403 3.9737
23.425 50.1658 0.0340502
21.7776 48.7584 2
20.1074 47.5924 3.97695
20.5473 50.2932 0.0343452
19.1341 49.0699 2
17.7597 48.1603 3.97595
16.2092 48.6689 3.97527
16.969 49.3147 2
15.9046 50.1565 3.9697
15.4112 52.4049 3.96623
16.8284 51.3922 2
18.0632 50.313 0.0318526
14.8807 54.9686 3.9664
16.4122 53.8598 2
17.8862 52.7766 0.0367184
14.4654 57.7312 3.96929
15.9868 56.4652 2
17.4533 55.3287 0.0354648
14.2679 60.6878 3.97655
15.7535 59.2045 2
17.1412 57.8637 0.0286069
14.3335 63.8585 3.98802
15.789 62.1355 2
17.138 60.5421 0.0247451
14.6715 67.2507 4
16.0875 65.2994 2
17.4075 63.4663 0.0178548
16.6661 68.6801 2
17.9414 66.6172 0.008171
18.75 69.9759 0
18.9348 15.7879 3.97967
20.2208 14.6013 2
18.98 13.112 3.97982
21.5875 13.6117 0.0199031
20.5303 12.0006 2
19.3432 10.2372 3.9842
19.9907 7.14733 3.99088
21.1438 9.14876 2
22.1906 11.0302 0.0184253
20.9142 3.86727 4
22.0151 6.08285 2
23.0412 8.17889 0.014769
23.1494 2.85451 2
24.117 5.14355 0.00857759
25.446 1.99014 0
30.7445 35.599 3.80836
32.4587 35.7251 2
34.2157 35.8297 0.154179
21.3072 15.8368 0.0195584
22.1008 16.6435 2
20.3069 16.9689 2
19.2519 18.4177 3.97685
21.7857 17.8603 3.98009
25.3822 16.0956 0.0202999
23.2666 16.2591 0.0218974
24.2098 18.4638 2
22.2933 19.9076 3.97226
24.6123 21.3423 3.98864
26.4786 23.7391 3.96965
27.0306 21.472 2
27.4435 18.8091 0.0184603
30.2311 33.0657 3.87913
31.4832 33.8478 2
32.778 34.1304 0.273867
32.6396 32.363 0.197028
33.1951 29.8701 0.123394
35.0847 27.4479 0.0739785
32.6034 28.1439 2
31.5016 31.2599 2
30.245 29.5949 3.95349
27.9893 26.5664 3.98303
28.8657 24.4425 2
29.5903 21.9512 0.00445997
31.7664 25.6751 -0.00777547
29.7439 27.3154 2
28.9395 37.5115 3.89121
30.396 37.5002 2
32.3201 37.5077 0.244779
31.2437 47.9278 0.0105181
30.5476 44.9002 0.0646558
30.7256 39.4191 0.194947
30.2005 41.9497 0.131396
29.33 46.5433 2
29.2703 39.8723 2
28.8851 43.1472 2
27.4879 44.8258 3.97787
27.0698 40.5859 3.95932
27.9857 48.1443 0.0331613
26.0934 46.6186 2
24.1996 45.1664 3.97606
24.7609 48.4353 0.0271486
22.9613 47.0387 2
21.0802 45.8623 3.9785
21.7782 48.7597 0.0306338
20.1078 47.5913 2
18.4368 46.7158 3.97812
19.1329 49.0709 0.027995
17.7607 48.1595 2
16.4125 47.6984 3.97645
16.2102 48.6683 2
15.2492 49.0029 3.97286
16.9677 49.3154 0.0277048
15.9058 50.156 2
14.525 50.9748 3.968
13.8427 53.4276 3.96655
15.4118 52.4046 2
16.8286 51.3926 0.0334895
13.2623 56.1601 3.96769
14.8809 54.9686 2
16.4128 53.8598 0.0354343
12.8515 59.121 3.97452
14.4656 57.7319 2
15.9869 56.4647 0.0330835
12.6794 62.3008 3.98549
14.2678 60.6887 2
15.7533 59.2031 0.0271993
12.7746 65.6939 4
14.3321 63.8575 2
15.7892 62.1342 0.0221932
14.6714 67.2507 2
16.0886 65.2998 0.0092438
16.6661 68.6801 0
17.672 17.1641 3.97543
18.9354 15.7877 2
17.5118 14.3767 3.9789
20.2202 14.6013 0.0208646
18.9804 13.1119 2
17.6387 11.4565 3.98314
20.53 12.0006 0.0191113
19.3432 10.237 2
18.0509 8.34013 3.99071
18.75 5.0241 4
19.9897 7.14786 2
21.144 9.14903 0.0152401
20.9142 3.86727 2
22.0161 6.08267 0.00891356
23.1494 2.85457 0
29.3169 35.1417 3.88801
30.7118 35.5761 2
32.4452 35.7248 0.260881
22.0999 16.6434 0.0216664
20.306 16.9696 0.0181751
21.7869 17.8601 2
19.2528 18.4166 2
17.9993 19.9513 3.97245
20.8891 19.3907 3.97666
24.2083 18.4634 0.0242927
22.294 19.9073 2
24.6127 21.3426 2
22.3885 21.7365 3.97741
24.748 23.1833 3.97411
25.5743 25.967 3.974
26.4801 23.7388 2
27.0303 21.4729 0.0087547
28.611 32.3711 3.93682
30.2039 33.0483 2
31.5021 33.8822 0.194114
31.533 31.2907 0.122765
32.626 28.1618 0.0629348
30.2394 29.5941 2
27.1845 29.1514 4.00505
27.9843 26.5765 2
28.8697 24.4296 0.0194869
29.7463 27.3453 0.0364571
27.1875 37.3655 3.93975
28.897 37.5054 2
30.4078 37.4996 0.187081
29.3308 46.5294 -0.000929507
28.9127 43.1266 0.063635
29.2969 39.8542 0.114622
27.4829 44.8462 2
27.0528 40.5998 2
25.5077 43.1392 3.98675
24.3236 39.4481 3.97709
26.0974 46.6157 0.0237617
24.1937 45.1655 2
22.0891 43.9148 3.97855
22.9613 47.0403 0.026303
21.079 45.8613 2
19.1289 44.9463 3.97826
20.1074 47.5924 0.0230471
18.4377 46.7149 2
16.7229 46.1967 3.97709
17.7597 48.1603 0.0240504
16.4134 47.6979 2
14.9921 47.6578 3.9745
16.2092 48.6689 0.0247281
15.2503 49.0024 2
13.8236 49.5369 3.96977
15.9046 50.1565 0.030299
14.5259 50.9745 2
12.912 51.8682 3.96728
12.149 54.5219 3.96841
13.8427 53.4276 2
15.4112 52.4049 0.0337718
11.5375 57.4536 3.97258
13.2627 56.1603 2
14.8807 54.9686 0.0336014
11.1343 60.6265 3.98325
12.8518 59.1213 2
14.4654 57.7312 0.0307143
10.9835 64.0165 4
12.6779 62.2988 2
14.2679 60.6878 0.023446
12.7745 65.694 2
14.3335 63.8585 0.0119846
14.6715 67.2507 0
16.4107 18.662 3.96963
17.6725 17.1633 2
16.1038 15.7865 3.97775
18.9348 15.7879 0.0203338
17.5124 14.3762 2
16.0205 12.8106 3.9813
18.98 13.112 0.0201772
17.6389 11.4562 2
16.202 9.66311 3.99039
19.3432 10.2372 0.0157977
18.0498 8.34096 2
16.6661 6.31991 4
18.75 5.02404 2
19.9907 7.14733 0.00911998
20.9142 3.86727 0
27.7136 34.7897 3.9328
29.2897 35.1187 2
30.7445 35.599 0.191645
16.7129 21.3882 3.96079
21.7857 17.8603 0.0199127
19.2519 18.4177 0.0231546
20.8899 19.39 2
18.0001 19.9501 2
19.7556 21.5881 3.97418
22.2933 19.9076 0.0277438
24.6123 21.3423 0.011364
22.3889 21.7364 2
24.7486 23.1831 2
22.9259 24.618 3.97157
24.7254 28.5462 3.97762
25.5725 25.9661 2
26.4786 23.7391 0.0303526
26.4562 31.7307 3.98555
28.5824 32.3501 2
30.2311 33.0657 0.120868
30.245 29.5949 0.0465126
27.2051 29.1387 2
27.9893 26.5664 0.0169712
25.0157 36.8603 3.98562
27.165 37.3591 2
28.9395 37.5115 0.108787
27.4879 44.8258 0.0221311
27.0698 40.5859 0.0406796
25.4936 43.1486 2
24.3081 39.446 2
23.219 41.8086 3.97993
22.0422 38.5168 3.97799
24.1996 45.1664 0.0239418
22.0871 43.915 2
19.9373 42.8743 3.97739
21.0802 45.8623 0.0215001
19.1286 44.9461 2
17.0849 44.3633 3.97697
18.4368 46.7158 0.0218827
16.724 46.1962 2
14.93 46.0786 3.97501
16.4125 47.6984 0.0235545
14.9931 47.6574 2
13.3371 47.9999 3.97113
15.2492 49.0029 0.027145
13.8245 49.5366 2
12.1309 50.2478 3.96785
14.525 50.9748 0.0320012
12.9123 51.8681 2
11.1439 52.8332 3.9685
10.3281 55.7079 3.9728
12.1495 54.5219 2
13.8427 53.4276 0.0334487
9.70124 58.8485 3.98116
11.5378 57.4535 2
13.2623 56.1601 0.0323056
9.30605 62.2254 4
11.1328 60.6239 2
12.8515 59.121 0.0254772
10.9835 64.0165 2
12.6794 62.3008 0.0145107
12.7746 65.6939 0
15.1617 20.1967 3.967
16.4112 18.6612 2
14.7527 17.3112 3.97233
17.672 17.1641 0.024568
16.1043 15.7854 2
14.4834 14.2934 3.97958
17.5118 14.3767 0.0211024
16.0208 12.8099 2
14.4449 11.1143 3.98958
17.6387 11.4565 0.0168642
16.201 9.66419 2
14.6715 7.74927 4
18.0509 8.34013 0.00928724
16.6661 6.31988 2
18.75 5.0241 0
25.6709 34.276 3.99167
27.6924 34.7885 2
29.3169 35.1417 0.111986
17.899 22.3392 3.97116
15.5519 22.9293 3.96684
16.7135 21.3877 2
20.8891 19.3907 0.0233422
17.9993 19.9513 0.0275546
19.7562 21.5874 2
19.7475 24.398 3.96949
22.3885 21.7365 0.0225871
24.748 23.1833 0.0258859
22.9257 24.618 2
22.0937 27.847 3.97196
24.0133 31.2143 3.97604
24.7397 28.5473 2
25.5743 25.967 0.0259981
26.4424 31.7096 2
28.611 32.3711 0.0631799
27.1845 29.1514 -0.00505241
22.7674 36.2865 3.98198
24.9942 36.8553 2
27.1875 37.3655 0.0602475
25.5077 43.1392 0.0132515
24.3236 39.4481 0.0229133
23.2106 41.8066 2
22.0341 38.5148 2
20.9523 40.6398 3.97617
20.3534 37.8009 3.97733
22.0891 43.9148 0.0214506
19.9362 42.8743 2
17.5363 42.0835 3.97719
19.1289 44.9463 0.0217444
17.0861 44.3629 2
14.9571 44.1897 3.97559
16.7229 46.1967 0.0229066
14.9309 46.0783 2
13.0214 46.2872 3.97176
14.9921 47.6578 0.025503
13.3379 47.9996 2
11.5046 48.5452 3.96822
13.8236 49.5369 0.0302271
12.1314 50.2476 2
10.2693 51.0781 3.96834
12.912 51.8682 0.032725
11.1444 52.8331 2
9.23668 53.8879 3.97268
8.38472 56.9815 3.98133
10.3285 55.7074 2
12.149 54.5219 0.0315892
7.74927 60.3285 4
9.70005 58.8453 2
11.5375 57.4536 0.0274199
9.306 62.2255 2
11.1343 60.6265 0.0167496
10.9835 64.0165 0
13.9742 21.7597 3.96661
15.1625 20.1962 2
13.4578 18.9109 3.96806
16.4107 18.662 0.0303689
14.7533 17.31 2
13.0299 15.8875 3.97729
16.1038 15.7865 0.0222486
14.4836 14.2923 2
12.7824 12.6879 3.98799
16.0205 12.8106 0.0186962
14.4438 11.1156 2
12.7746 9.30605 4
16.202 9.66311 0.00960825
14.6715 7.74924 2
16.6661 6.31991 0
23.3472 33.8194 3.98298
25.6511 34.268 2
27.7136 34.7897 0.0672006
17.6913 24.0575 3.97092
17.8997 22.3389 2
14.3601 24.4612 3.96962
15.5527 22.929 2
16.7129 21.3882 0.0392105
19.1875 27.224 3.97114
19.7556 21.5881 0.025824
19.7467 24.3977 2
21.3985 30.6874 3.97425
22.9259 24.618 0.028428
22.1025 27.8482 2
23.9982 31.2129 2
24.7254 28.5462 0.0223816
26.4562 31.7307 0.0144539
20.4749 35.9443 3.9773
22.7635 36.2803 2
25.0157 36.8603 0.0143839
23.219 41.8086 0.0200747
22.0422 38.5168 0.0220059
20.9577 40.6399 2
20.3572 37.8002 2
18.2777 39.0062 3.97759
19.9373 42.8743 0.0226102
17.5382 42.0828 2
14.934 41.9104 3.97658
17.0849 44.3633 0.0230253
14.9585 44.1893 2
12.7767 44.3843 3.97221
14.93 46.0786 0.0249921
13.0222 46.287 2
11.0099 46.7292 3.96855
13.3371 47.9999 0.0288702
11.5051 48.5451 2
9.53232 49.2385 3.96803
12.1309 50.2478 0.0321457
10.2697 51.0779 2
8.26953 52.0016 3.97222
11.1439 52.8332 0.0315038
9.23713 53.8873 2
7.1936 55.0323 3.98228
6.31991 58.3339 4
8.38388 56.9782 2
10.3281 55.7079 0.0272037
7.74924 60.3285 2
9.70124 58.8485 0.0188351
9.30605 62.2254 0
13.2633 25.3707 3.97165
12.8466 23.2875 3.96688
13.975 21.7594 2
12.2446 20.5576 3.96843
15.1617 20.1967 0.0329991
13.4586 18.9101 2
11.662 17.5699 3.97358
14.7527 17.3112 0.027672
13.0303 15.8864 2
11.2202 14.3734 3.98541
14.4834 14.2934 0.0204165
12.7811 12.6895 2
10.9835 10.9835 4
14.4449 11.1143 0.0104202
12.7745 9.306 2
14.6715 7.74927 0
20.8321 33.418 3.97571
23.3532 33.8272 2
25.6709 34.276 0.00833147
16.0059 26.4167 3.97163
17.6915 24.0572 2
17.899 22.3392 0.028839
14.3603 24.4612 2
15.5519 22.9293 0.0331583
18.5538 30.1926 3.97466
19.188 27.2241 2
19.7475 24.398 0.0305125
21.4058 30.6886 2
22.0937 27.847 0.0280362
24.0133 31.2143 0.0239557
17.8914 35.9775 3.97798
20.4729 35.9448 2
22.7674 36.2865 0.0180151
20.9523 40.6398 0.0238284
20.3534 37.8009 0.0226748
18.2794 39.0065 2
14.4436 39.1744 3.97754
17.5363 42.0835 0.0228137
14.9357 41.9102 2
12.4795 42.2706 3.97219
14.9571 44.1897 0.0244059
12.7775 44.3841 2
10.5936 44.7982 3.96902
13.0214 46.2872 0.0282352
11.0103 46.7291 2
8.91445 47.3179 3.96773
11.5046 48.5452 0.0317825
9.53254 49.2384 2
7.43645 50.0352 3.97167
10.2693 51.0781 0.0316555
8.2699 52.001 2
6.13424 53.0074 3.98269
9.23668 53.8879 0.0273171
7.19308 55.0295 2
5.0241 56.25 4
6.31988 58.3339 2
8.38472 56.9815 0.0186699
7.74927 60.3285 0
13.5252 26.8243 3.97104
11.9534 24.793 3.96869
13.263 25.3706 2
11.1463 22.2388 3.96836
12.8467 23.2873 2
13.9742 21.7597 0.0333853
12.2456 20.5573 2
10.3935 19.324 3.97239
13.4578 18.9109 0.0319383
11.6627 17.5694 2
9.76159 16.1578 3.9822
13.0299 15.8875 0.0227136
11.2187 14.3756 2
9.30607 12.7746 4
12.7824 12.6879 0.0120148
10.9835 10.9835 2
12.7746 9.30605 0
18.0631 33.1277 3.97696
20.8369 33.418 2
23.3472 33.8194 0.0170185
15.6235 29.6516 3.97363
16.0062 26.4168 2
17.6913 24.0575 0.0290759
14.3601 24.4612 0.0303755
18.5523 30.1926 2
19.1875 27.224 0.0288593
21.3985 30.6874 0.0257509
15.064 36.0239 3.97769
17.8944 35.9778 2
20.4749 35.9443 0.0227002
12.6997 37.8296 3.97581
18.2777 39.0062 0.022414
14.4447 39.1743 2
11.9948 40.1368 3.97306
14.934 41.9104 0.0234171
12.4801 42.2704 2
10.2028 42.7741 3.96921
12.7767 44.3843 0.0277898
10.5939 44.7981 2
8.39232 45.3199 3.96753
11.0099 46.7292 0.0314529
8.91455 47.3178 2
6.72772 48.0004 3.97118
9.53232 49.2385 0.0319662
7.43664 50.0347 2
5.21107 50.9108 3.98245
8.26953 52.0016 0.0277806
6.13398 53.0055 2
3.86727 54.0858 4
7.1936 55.0323 0.0177157
5.02404 56.25 2
6.31991 58.3339 0
12.997 29.0425 3.9707
11.3934 26.4928 3.96884
13.5247 26.8242 2
10.204 23.9701 3.9686
11.954 24.7929 2
13.2633 25.3707 0.0283458
9.24553 21.1406 3.97251
11.1472 22.2387 2
12.8466 23.2875 0.0331206
12.2446 20.5576 0.0315705
10.3945 19.324 2
8.41772 18.0293 3.98091
11.662 17.5699 0.0264193
9.76041 16.1609 2
7.74928 14.6715 4
11.2202 14.3734 0.014587
9.30602 12.7745 2
10.9835 10.9835 0
14.6229 32.8726 3.97577
18.0647 33.1281 2
20.8321 33.418 0.02429
15.6238 29.6518 2
16.0059 26.4167 0.0283651
18.5538 30.1926 0.0253407
12.9977 36.2119 3.97457
15.0656 36.0242 2
17.8914 35.9775 0.022018
12.7005 37.8296 2
11.3365 38.3087 3.97403
14.4436 39.1744 0.022456
11.9961 40.1367 2
9.79228 40.7517 3.96993
12.4795 42.2706 0.0278088
10.2034 42.7739 2
7.94135 43.2689 3.9676
10.5936 44.7982 0.0309775
8.39241 45.3198 2
6.13401 45.9054 3.97066
8.91445 47.3179 0.0322661
6.7278 48 2
4.42263 48.7515 3.98185
7.43645 50.0352 0.0283269
5.21096 50.9098 2
2.85457 51.8506 4
6.13424 53.0074 0.0173064
3.86727 54.0858 2
5.0241 56.25 0
12.1438 31.2643 3.97198
10.8143 28.4204 3.96891
12.9976 29.0426 2
9.41844 25.7996 3.96835
11.3935 26.4927 2
13.5252 26.8243 0.0289575
8.23214 23.0241 3.97226
10.2046 23.97 2
11.9534 24.793 0.0313063
7.19971 19.9791 3.98161
9.24645 21.1409 2
11.1463 22.2388 0.0316445
10.3935 19.324 0.0276126
8.41711 18.0327 2
6.31992 16.6661 4
9.76159 16.1578 0.0178014
7.74926 14.6714 2
9.30607 12.7746 0
12.1718 34.2993 3.975
14.6237 32.8728 2
18.0631 33.1277 0.0230405
15.6235 29.6516 0.0263743
10.8985 36.612 3.97328
12.9981 36.2119 2
15.064 36.0239 0.0223069
12.6997 37.8296 0.0241894
11.3374 38.3086 2
9.38237 38.8222 3.97035
11.9948 40.1368 0.0269428
9.79281 40.7515 2
7.55239 41.2106 3.96789
10.2028 42.7741 0.0307875
7.94135 43.2688 2
5.64602 43.7683 3.97048
8.39232 45.3199 0.0324658
6.13411 45.9051 2
3.76828 46.5371 3.98125
6.72772 48.0004 0.028815
4.42265 48.7511 2
1.99014 49.554 4
5.21107 50.9108 0.0175459
2.85451 51.8506 2
3.86727 54.0858 0
10.9808 32.924 3.97357
10.1333 30.387 3.96926
12.1446 31.2644 2
8.72648 27.7331 3.96797
10.8145 28.4204 2
12.997 29.0425 0.0293046
7.35756 24.9828 3.97167
9.41872 25.7996 2
11.3934 26.4928 0.0311622
6.11654 22.0024 3.98255
8.23278 23.0244 2
10.204 23.9701 0.0314013
5.02411 18.75 4
7.19946 19.9819 2
9.24553 21.1406 0.0274908
8.41772 18.0293 0.0190853
6.3199 16.6661 2
7.74928 14.6715 0
10.5023 35.0024 3.97291
12.1726 34.2993 2
14.6229 32.8726 0.0242349
9.04901 36.985 3.97077
10.8997 36.612 2
12.9977 36.2119 0.0254295
11.3365 38.3087 0.0259667
9.38319 38.8221 2
7.23271 39.1818 3.96823
9.79228 40.7517 0.0300681
7.55266 41.2104 2
5.26129 41.6139 3.97019
7.94135 43.2689 0.0324016
5.64602 43.768 2
3.24606 44.2819 3.9811
6.13401 45.9054 0.0293446
3.76842 46.5369 2
1.27781 47.2057 4
4.42263 48.7515 0.0181502
1.99012 49.554 2
2.85457 51.8506 0
10.1384 33.8846 3.97332
9.41895 32.1579 3.97004
10.9815 32.9241 2
8.07536 29.6965 3.968
10.1337 30.387 2
12.1438 31.2643 0.0280218
6.60143 27.0088 3.97102
8.72651 27.7331 2
10.8143 28.4204 0.0310923
5.17191 24.0951 3.98258
7.35788 24.983 2
9.41844 25.7996 0.0316519
3.86728 20.9142 4
6.11648 22.004 2
8.23214 23.0241 0.0277432
5.02406 18.75 2
7.19971 19.9791 0.0183864
6.31992 16.6661 0
8.87209 35.2806 3.97099
10.503 35.0024 2
12.1718 34.2993 0.0250002
7.0161 37.206 3.96846
9.04939 36.9849 2
10.8985 36.612 0.0267221
9.38237 38.8222 0.0296463
7.233 39.1817 2
4.98904 39.4672 3.97027
7.55239 41.2106 0.0321072
5.26153 41.6136 2
2.85656 42.0022 3.98096
5.64602 43.7683 0.0295238
3.24611 44.2818 2
0.720592 44.8159 4
3.76828 46.5371 0.0187548
1.27778 47.2057 2
1.99014 49.554 0
8.91014 33.6999 3.97084
10.1391 33.8846 2
7.51264 31.6099 3.96827
9.41944 32.1579 2
10.9808 32.924 0.0264266
5.94655 29.0698 3.97096
8.07532 29.6965 2
10.1333 30.387 0.030739
4.3597 26.2475 3.98186
6.6015 27.009 2
8.72648 27.7331 0.0320305
2.85458 23.1494 4
5.17193 24.0957 2
7.35756 24.9828 0.0283274
3.86728 20.9142 2
6.11654 22.0024 0.0174506
5.02411 18.75 0
6.96613 35.3063 3.96859
8.87271 35.2806 2
10.5023 35.0024 0.0270924
4.83894 37.3397 3.971
7.01617 37.2059 2
9.04901 36.985 0.0292286
7.23271 39.1818 0.0317693
4.98932 39.467 2
2.60467 39.7139 3.98071
5.26129 41.6139 0.0298136
2.85681 42.0023 2
0.320823 42.3947 4
3.24606 44.2819 0.0189043
0.720551 44.8159 2
1.27781 47.2057 0
7.12614 33.4614 3.96862
8.91047 33.6999 2
10.1384 33.8846 0.0266758
5.4173 31.1337 3.9711
7.51267 31.61 2
9.41895 32.1579 0.029958
3.68142 28.4434 3.98137
5.94652 29.07 2
8.07536 29.6965 0.0320025
1.99015 25.446 4
4.35974 26.2476 2
6.60143 27.0088 0.0289805
2.85453 23.1494 2
5.17191 24.0951 0.0174249
3.86728 20.9142 0
4.85315 35.2515 3.97128
6.96646 35.3064 2
8.87209 35.2806 0.0290119
2.49601 37.4285 3.98144
4.83897 37.3397 2
7.0161 37.206 0.0315391
4.98904 39.4672 0.0297343
2.60498 39.7143 2
0.080333 39.9526 4
2.85656 42.0022 0.0190418
0.320817 42.3947 2
0.720592 44.8159 0
5.04655 33.1902 3.97136
7.12625 33.4615 2
8.91014 33.6999 0.029161
3.14571 30.6661 3.98119
5.41732 31.1339 2
7.51264 31.6099 0.0317297
1.27793 27.7943 4
3.68152 28.4435 2
5.94655 29.0698 0.0290439
1.99013 25.446 2
4.3597 26.2475 0.0181377
2.85458 23.1494 0
2.5481 35.159 3.98145
4.85348 35.2517 2
6.96613 35.3063 0.0314092
0 37.5 4
2.49607 37.4289 2
4.83894 37.3397 0.029004
2.60467 39.7139 0.0192852
0.0802903 39.9526 2
0.320823 42.3947 0
2.7657 32.9057 3.98153
5.04664 33.1905 2
7.12614 33.4614 0.0313829
0.721173 30.1842 4
3.14585 30.6665 2
5.4173 31.1337 0.0288957
1.27779 27.7943 2
3.68142 28.4434 0.0186321
1.99015 25.446 0
0.0806499 35.0474 4
2.54846 35.1594 2
4.85315 35.2515 0.0287174
0 37.5 2
2.49601 37.4285 0.0185596
0.080333 39.9526 0
0.32156 32.6054 4
2.7658 32.9062 2
5.04655 33.1902 0.0286425
0.72056 30.1841 2
3.14571 30.6661 0.0188141
1.27793 27.7943 0
0.0802889 35.0474 2
2.5481 35.159 0.0185533
0 37.5 0
0.320817 32.6053 2
2.7657 32.9057 0.0184688
0.721173 30.1842 0
0.0806499 35.0474 0
0.32156 32.6054 0
CELLS 1910 17190
8 18 6 25 56 2 0 5 16
8 57 23 6 18 17 4 0 2
8 78 36 9 29 31 11 1 7
8 31 11 1 7 79 37 10 30
8 110 57 18 50 48 17 2 14
8 50 18 56 111 14 2 16 49
8 116 62 22 55 52 20 3 15
8 56 25 67 118 16 5 24 53
8 119 63 23 57 54 21 4 17
8 55 22 63 119 15 3 21 54
8 58 26 68 121 18 6 25 56
8 122 65 26 58 57 23 6 18
8 73 31 7 27 142 79 30 71
8 143 78 29 72 73 31 7 27
8 83 147 76 34 32 74 28 8
8 84 148 78 36 33 75 29 9
8 76 34 8 28 148 84 33 75
8 37 79 150 86 10 30 77 35
8 151 87 36 78 80 38 11 31
8 80 38 11 31 152 88 37 79
8 175 100 42 94 96 44 12 40
8 44 96 176 101 12 40 95 43
8 101 176 98 46 43 95 41 13
8 46 98 178 103 13 41 97 45
8 178 103 45 97 147 83 32 74
8 189 116 55 109 106 52 15 47
8 111 56 118 191 49 16 53 107
8 192 119 57 110 108 54 17 48
8 109 55 119 192 47 15 54 108
8 194 122 58 112 110 57 18 50
8 112 58 121 195 50 18 56 111
8 115 61 19 51 197 124 59 113
8 115 61 125 198 51 19 60 114
8 198 125 62 116 114 60 20 52
8 200 127 64 120 116 62 22 55
8 118 67 132 202 53 24 66 117
8 121 68 133 203 56 25 67 118
8 120 64 128 204 55 22 63 119
8 204 128 65 122 119 63 23 57
8 206 134 68 121 123 69 26 58
8 123 69 26 58 207 131 65 122
8 226 147 74 138 140 76 28 70
8 229 148 75 139 143 78 29 72
8 140 76 28 70 229 148 75 139
8 142 79 30 71 231 150 77 141
8 144 80 31 73 232 152 79 142
8 233 151 78 143 144 80 31 73
8 150 86 35 77 235 154 81 145
8 235 154 81 145 146 82 39 91
8 146 82 39 91 236 155 90 165
8 238 157 83 147 149 85 34 76
8 239 158 84 148 151 87 36 78
8 149 85 34 76 239 158 84 148
8 152 88 37 79 241 160 86 150
8 242 161 87 151 153 89 38 80
8 153 89 38 80 243 162 88 152
8 171 98 41 92 265 178 97 169
8 265 178 97 169 226 147 74 138
8 172 96 40 93 266 176 95 170
8 266 176 95 170 171 98 41 92
8 269 175 94 173 172 96 40 93
8 271 180 99 174 175 100 42 94
8 197 124 59 113 271 180 99 174
8 272 181 100 175 177 102 44 96
8 273 182 101 176 179 104 46 98
8 177 102 44 96 273 182 101 176
8 179 104 46 98 275 184 103 178
8 275 184 103 178 238 157 83 147
8 188 115 51 105 283 197 113 186
8 188 115 198 284 105 51 114 187
8 284 198 116 189 187 114 52 106
8 286 200 120 193 189 116 55 109
8 191 118 202 288 107 53 117 190
8 195 121 203 289 111 56 118 191
8 193 120 204 290 109 55 119 192
8 290 204 122 194 192 119 57 110
8 196 123 58 112 292 207 122 194
8 293 206 121 195 196 123 58 112
8 199 126 61 115 297 211 124 197
8 298 212 127 200 198 125 62 116
8 199 126 212 298 115 61 125 198
8 205 129 64 120 300 214 127 200
8 301 217 130 201 202 132 66 117
8 209 136 168 264 301 217 130 201
8 302 219 132 202 203 133 67 118
8 303 220 133 203 206 134 68 121
8 205 129 215 304 120 64 128 204
8 304 215 131 207 204 128 65 122
8 306 221 134 206 208 135 69 123
8 208 135 69 123 307 218 131 207
8 210 137 167 263 309 223 136 209
8 328 238 147 226 230 149 76 140
8 228 146 91 166 329 236 165 260
8 231 150 77 141 330 235 145 227
8 330 235 145 227 228 146 91 166
8 332 239 148 229 233 151 78 143
8 230 149 76 140 332 239 148 229
8 232 152 79 142 334 241 150 231
8 234 153 80 144 335 243 152 232
8 336 242 151 233 234 153 80 144
8 236 155 90 165 338 245 164 259
8 241 160 86 150 339 246 154 235
8 339 246 154 235 237 156 82 146
8 237 156 82 146 340 247 155 236
8 342 249 157 238 240 159 85 149
8 343 250 158 239 242 161 87 151
8 240 159 85 149 343 250 158 239
8 243 162 88 152 345 252 160 241
8 244 163 253 346 153 89 161 242
8 244 163 89 153 347 254 162 243
8 311 224 261 371 210 137 167 263
8 263 167 262 372 209 136 168 264
8 267 179 98 171 375 275 178 265
8 375 275 178 265 328 238 147 226
8 376 273 176 266 267 179 98 171
8 268 177 96 172 376 273 176 266
8 379 272 175 269 268 177 96 172
8 380 271 174 270 269 175 94 173
8 283 197 113 186 380 271 174 270
8 381 277 180 271 272 181 100 175
8 297 211 124 197 381 277 180 271
8 382 278 181 272 274 183 102 177
8 274 183 102 177 383 279 182 273
8 383 279 182 273 276 185 104 179
8 385 281 184 275 342 249 157 238
8 276 185 104 179 385 281 184 275
8 285 199 115 188 393 297 197 283
8 394 298 200 286 284 198 116 189
8 285 199 298 394 188 115 198 284
8 291 205 120 193 396 300 200 286
8 397 301 201 287 288 202 117 190
8 295 209 264 374 397 301 201 287
8 398 302 202 288 289 203 118 191
8 399 303 203 289 293 206 121 195
8 291 205 304 400 193 120 204 290
8 400 304 207 292 290 204 122 194
8 294 208 123 196 402 307 207 292
8 403 306 206 293 294 208 123 196
8 296 210 263 373 405 309 209 295
8 408 312 213 299 297 211 126 199
8 299 213 313 409 199 126 212 298
8 409 313 214 300 298 212 127 200
8 305 216 129 205 411 315 214 300
8 412 318 217 301 302 219 132 202
8 309 223 136 209 412 318 217 301
8 413 320 219 302 303 220 133 203
8 306 221 321 414 206 134 220 303
8 307 218 131 207 415 316 215 304
8 305 216 316 415 205 129 215 304
8 417 322 221 306 308 222 135 208
8 308 222 135 208 418 319 218 307
8 310 225 137 210 420 325 223 309
8 423 326 224 311 310 225 137 210
8 329 236 165 260 441 338 259 368
8 442 342 238 328 333 240 149 230
8 331 237 146 228 443 340 236 329
8 334 241 150 231 444 339 235 330
8 444 339 235 330 331 237 146 228
8 446 343 239 332 336 242 151 233
8 333 240 149 230 446 343 239 332
8 335 243 152 232 448 345 241 334
8 337 244 153 234 449 347 243 335
8 337 244 346 450 234 153 242 336
8 338 245 164 259 452 349 258 367
8 340 247 155 236 453 350 245 338
8 345 252 160 241 454 351 246 339
8 454 351 246 339 341 248 156 237
8 341 248 156 237 455 352 247 340
8 240 159 251 344 342 249 354 457
8 242 161 253 346 343 250 355 458
8 343 250 355 458 240 159 251 344
8 347 254 162 243 460 357 252 345
8 348 255 358 461 244 163 253 346
8 348 255 163 244 462 359 254 347
8 473 360 257 365 363 256 364 482
8 452 349 258 367 365 257 366 485
8 422 324 369 488 311 224 261 371
8 371 261 370 490 263 167 262 372
8 407 311 371 491 296 210 263 373
8 373 263 372 492 295 209 264 374
8 493 385 275 375 442 342 238 328
8 377 276 179 267 493 385 275 375
8 378 274 177 268 494 383 273 376
8 494 383 273 376 377 276 179 267
8 497 382 272 379 378 274 177 268
8 498 381 271 380 379 272 175 269
8 393 297 197 283 498 381 271 380
8 499 387 277 381 382 278 181 272
8 408 312 211 297 499 387 277 381
8 500 388 278 382 384 280 183 274
8 501 389 279 383 386 282 185 276
8 384 280 183 274 501 389 279 383
8 386 282 185 276 503 391 281 385
8 503 391 281 385 457 354 249 342
8 511 408 299 395 393 297 199 285
8 395 299 409 512 285 199 298 394
8 512 409 300 396 394 298 200 286
8 401 305 205 291 514 411 300 396
8 515 412 301 397 398 302 202 288
8 405 309 209 295 515 412 301 397
8 516 413 302 398 399 303 203 289
8 403 306 414 517 293 206 303 399
8 402 307 207 292 518 415 304 400
8 401 305 415 518 291 205 304 400
8 404 308 208 294 520 418 307 402
8 521 417 306 403 404 308 208 294
8 406 310 210 296 523 420 309 405
8 526 423 311 407 406 310 210 296
8 410 314 213 299 527 424 312 408
8 528 425 315 411 409 313 214 300
8 410 314 425 528 299 213 313 409
8 416 317 216 305 530 427 315 411
8 531 430 318 412 413 320 219 302
8 420 325 223 309 531 430 318 412
8 532 432 320 413 414 321 220 303
8 417 322 433 533 306 221 321 414
8 418 319 218 307 534 428 316 415
8 416 317 428 534 305 216 316 415
8 419 323 434 536 308 222 322 417
8 419 323 222 308 537 431 319 418
8 421 327 225 310 539 438 325 420
8 421 327 439 541 310 225 326 423
8 543 437 324 422 423 326 224 311
8 441 338 259 368 559 452 367 486
8 443 340 236 329 560 453 338 441
8 333 240 344 447 442 342 457 561
8 445 341 237 331 562 455 340 443
8 448 345 241 334 563 454 339 444
8 563 454 339 444 445 341 237 331
8 336 242 346 450 446 343 458 565
8 446 343 458 565 333 240 344 447
8 449 347 243 335 567 460 345 448
8 451 348 244 337 568 462 347 449
8 451 348 461 569 337 244 346 450
8 570 463 349 452 473 360 257 365
8 453 350 245 338 570 463 349 452
8 455 352 247 340 571 464 350 453
8 460 357 252 345 572 465 351 454
8 572 465 351 454 456 353 248 341
8 456 353 248 341 573 466 352 455
8 344 251 356 459 457 354 468 575
8 458 355 469 576 344 251 356 459
8 346 253 358 461 458 355 469 576
8 462 359 254 347 578 471 357 460
8 348 255 359 462 461 358 472 579
8 591 474 360 473 475 361 256 363
8 475 361 256 363 594 477 362 479
8 363 256 364 482 479 362 480 603
8 590 473 365 484 481 363 482 605
8 482 364 257 365 606 483 366 485
8 559 452 367 486 484 365 485 607
8 542 436 487 609 422 324 369 488
8 525 422 488 611 407 311 371 491
8 488 369 489 612 371 261 370 490
8 491 371 490 613 373 263 372 492
8 495 386 276 377 614 503 385 493
8 614 503 385 493 561 457 342 442
8 615 501 383 494 495 386 276 377
8 496 384 274 378 615 501 383 494
8 618 500 382 497 496 384 274 378
8 619 499 381 498 497 382 272 379
8 511 408 297 393 619 499 381 498
8 620 505 387 499 500 388 278 382
8 527 424 312 408 620 505 387 499
8 502 390 506 621 384 280 388 500
8 622 507 389 501 504 392 282 386
8 502 390 280 384 622 507 389 501
8 504 392 282 386 624 509 391 503
8 624 509 391 503 575 468 354 457
8 513 410 299 395 630 527 408 511
8 631 528 411 514 512 409 300 396
8 513 410 528 631 395 299 409 512
8 519 416 305 401 633 530 411 514
8 634 531 412 515 516 413 302 398
8 523 420 309 405 634 531 412 515
8 635 532 413 516 517 414 303 399
8 521 417 533 636 403 306 414 517
8 520 418 307 402 637 534 415 518
8 519 416 534 637 401 305 415 518
8 522 419 308 404 639 537 418 520
8 522 419 536 640 404 308 417 521
8 524 421 310 406 642 539 420 523
8 524 421 541 644 406 310 423 526
8 646 543 422 525 526 423 311 407
8 529 426 314 410 647 544 424 527
8 528 425 545 648 411 315 427 530
8 529 426 545 648 410 314 425 528
8 535 429 317 416 649 546 427 530
8 650 548 430 531 532 432 320 413
8 539 438 325 420 650 548 430 531
8 533 433 550 651 414 321 432 532
8 536 434 551 652 417 322 433 533
8 537 431 319 418 653 547 428 534
8 535 429 547 653 416 317 428 534
8 538 435 552 654 419 323 434 536
8 538 435 323 419 655 549 431 537
8 540 440 327 421 657 556 438 539
8 540 440 557 659 421 327 439 541
8 541 439 555 660 423 326 437 543
8 661 554 436 542 543 437 324 422
8 676 570 452 559 590 473 365 484
8 560 453 338 441 676 570 452 559
8 562 455 340 443 677 571 453 560
8 447 344 459 566 561 457 575 678
8 564 456 341 445 679 573 455 562
8 567 460 345 448 680 572 454 563
8 680 572 454 563 564 456 341 445
8 565 458 576 682 447 344 459 566
8 450 346 461 569 565 458 576 682
8 568 462 347 449 684 578 460 567
8 451 348 462 568 569 461 579 685
8 686 580 463 570 591 474 360 473
8 571 464 350 453 686 580 463 570
8 573 466 352 455 687 581 464 571
8 572 465 582 688 460 357 471 578
8 574 467 582 688 456 353 465 572
8 574 467 353 456 689 583 466 573
8 459 356 470 577 575 468 585 691
8 576 469 586 692 459 356 470 577
8 461 358 472 579 576 469 586 692
8 462 359 471 578 579 472 588 694
8 704 591 473 590 593 475 363 481
8 595 476 592 705 475 361 474 591
8 593 475 363 481 707 594 479 602
8 594 477 362 479 709 598 478 600
8 595 476 361 475 711 597 477 594
8 479 362 480 603 600 478 601 720
8 481 363 482 605 602 479 603 722
8 603 480 364 482 723 604 483 606
8 605 482 365 484 724 606 485 607
8 656 553 608 726 542 436 487 609
8 645 542 609 728 525 422 488 611
8 609 487 610 729 488 369 489 612
8 611 488 612 730 491 371 490 613
8 616 504 386 495 731 624 503 614
8 731 624 503 614 678 575 457 561
8 732 622 501 615 616 504 386 495
8 617 502 384 496 732 622 501 615
8 617 502 621 735 496 384 500 618
8 736 620 499 619 618 500 382 497
8 630 527 408 511 736 620 499 619
8 621 506 626 737 500 388 505 620
8 647 544 424 527 737 626 505 620
8 623 508 627 738 502 390 506 621
8 623 508 390 502 739 628 507 622
8 625 510 628 739 504 392 507 622
8 740 629 509 624 691 585 468 575
8 625 510 392 504 740 629 509 624
8 632 529 410 513 744 647 527 630
8 631 528 648 745 514 411 530 633
8 632 529 648 745 513 410 528 631
8 638 535 416 519 746 649 530 633
8 747 650 531 634 635 532 413 516
8 642 539 420 523 747 650 531 634
8 636 533 651 748 517 414 532 635
8 640 536 652 749 521 417 533 636
8 639 537 418 520 750 653 534 637
8 638 535 653 750 519 416 534 637
8 641 538 419 522 751 655 537 639
8 641 538 654 752 522 419 536 640
8 643 540 421 524 753 657 539 642
8 643 540 659 755 524 421 541 644
8 644 541 660 757 526 423 543 646
8 758 661 542 645 646 543 422 525
8 529 426 544 647 648 545 662 759
8 530 427 545 648 649 546 663 760
8 535 429 546 649 653 547 664 761
8 762 666 548 650 651 550 432 532
8 657 556 438 539 762 666 548 650
8 652 551 668 763 533 433 550 651
8 654 552 669 764 536 434 551 652
8 655 549 431 537 765 665 547 653
8 538 435 549 655 654 552 667 766
8 661 554 671 768 542 436 553 656
8 658 558 440 540 769 674 556 657
8 658 558 675 770 540 440 557 659
8 659 557 673 771 541 439 555 660
8 660 555 672 772 543 437 554 661
8 788 686 570 676 704 591 473 590
8 677 571 453 560 788 686 570 676
8 679 573 455 562 789 687 571 677
8 566 459 577 683 678 575 691 790
8 681 574 456 564 791 689 573 679
8 680 572 688 792 567 460 578 684
8 681 574 688 792 564 456 572 680
8 682 576 692 794 566 459 577 683
8 569 461 579 685 682 576 692 794
8 568 462 578 684 685 579 694 796
8 687 581 464 571 798 696 580 686
8 798 696 580 686 705 592 474 591
8 689 583 466 573 799 697 581 687
8 688 582 698 800 578 471 588 694
8 690 584 698 800 574 467 582 688
8 690 584 467 574 801 699 583 689
8 693 587 701 803 577 470 585 691
8 693 587 470 577 804 702 586 692
8 695 589 702 804 579 472 586 692
8 695 589 472 579 805 703 588 694
8 708 595 705 813 593 475 591 704
8 710 596 706 814 595 476 592 705
8 707 594 479 602 816 709 600 719
8 708 595 475 593 817 711 594 707
8 709 598 478 600 819 715 599 717
8 711 597 477 594 820 714 598 709
8 710 596 476 595 822 713 597 711
8 600 478 601 720 717 599 718 832
8 602 479 603 722 719 600 720 834
8 720 601 480 603 835 721 604 723
8 722 603 482 605 836 723 606 724
8 767 670 725 839 656 553 608 726
8 756 656 726 841 645 542 609 728
8 726 608 727 842 609 487 610 729
8 728 609 729 843 611 488 612 730
8 844 740 624 731 790 691 575 678
8 733 625 504 616 844 740 624 731
8 734 623 502 617 845 739 622 732
8 733 625 739 845 616 504 622 732
8 734 623 738 846 617 502 621 735
8 735 621 737 847 618 500 620 736
8 744 647 527 630 847 737 620 736
8 621 506 627 738 737 626 741 848
8 647 544 626 737 759 662 741 848
8 623 508 628 739 738 627 742 849
8 740 629 585 691 850 743 700 802
8 625 510 629 740 739 628 743 850
8 632 529 647 744 745 648 759 854
8 633 530 648 745 746 649 760 855
8 638 535 649 746 750 653 761 856
8 857 762 650 747 748 651 532 635
8 753 657 539 642 857 762 650 747
8 749 652 763 858 636 533 651 748
8 752 654 764 859 640 536 652 749
8 751 655 537 639 860 765 653 750
8 641 538 655 751 752 654 766 861
8 754 658 540 643 862 769 657 753
8 754 658 770 863 643 540 659 755
8 755 659 771 864 644 541 660 757
8 758 661 768 866 645 542 656 756
8 757 660 772 867 646 543 661 758
8 759 662 773 868 648 545 663 760
8 649 546 663 760 761 664 774 871
8 765 665 547 653 872 775 664 761
8 873 777 666 762 763 668 550 651
8 769 674 556 657 873 777 666 762
8 764 669 779 874 652 551 668 763
8 654 552 667 766 764 669 778 875
8 655 549 665 765 766 667 776 876
8 768 671 782 877 656 553 670 767
8 772 672 783 878 661 554 671 768
8 658 558 674 769 770 675 786 879
8 659 557 675 770 771 673 785 881
8 882 784 672 772 771 673 555 660
8 789 687 571 677 897 798 686 788
8 897 798 686 788 813 705 591 704
8 791 689 573 679 898 799 687 789
8 795 693 803 900 683 577 691 790
8 793 690 574 681 901 801 689 791
8 792 688 800 902 684 578 694 796
8 793 690 800 902 681 574 688 792
8 795 693 577 683 903 804 692 794
8 797 695 804 903 685 579 692 794
8 797 695 579 685 904 805 694 796
8 905 806 697 799 798 696 581 687
8 814 706 806 905 705 592 696 798
8 689 583 697 799 801 699 808 907
8 800 698 809 908 694 588 703 805
8 690 584 699 801 800 698 809 908
8 803 701 810 909 691 585 700 802
8 693 587 702 804 803 701 811 910
8 695 589 703 805 804 702 812 911
8 818 710 814 919 708 595 705 813
8 821 712 815 920 710 596 706 814
8 816 709 600 719 922 819 717 831
8 817 711 594 707 923 820 709 816
8 818 710 595 708 924 822 711 817
8 819 715 599 717 926 827 716 829
8 820 714 598 709 927 826 715 819
8 929 825 713 822 820 714 597 711
8 821 712 596 710 930 824 713 822
8 717 599 718 832 829 716 830 942
8 719 600 720 834 831 717 832 944
8 832 718 601 720 945 833 721 835
8 834 720 603 722 946 835 723 836
8 869 780 838 950 767 670 725 839
8 865 767 839 952 756 656 726 841
8 839 725 840 953 726 608 727 842
8 841 726 842 954 728 609 729 843
8 844 740 691 790 955 850 802 899
8 733 625 740 844 845 739 850 955
8 734 623 739 845 846 738 849 956
8 735 621 738 846 847 737 848 957
8 744 647 737 847 854 759 848 957
8 738 627 742 849 848 741 851 958
8 848 741 851 958 759 662 773 868
8 850 743 700 802 959 852 807 906
8 849 742 628 739 959 852 743 850
8 854 759 868 965 745 648 760 855
8 746 649 760 855 856 761 871 966
8 860 765 653 750 967 872 761 856
8 968 873 762 857 858 763 651 748
8 862 769 657 753 968 873 762 857
8 859 764 874 969 749 652 763 858
8 752 654 766 861 859 764 875 970
8 751 655 765 860 861 766 876 971
8 754 658 769 862 863 770 879 972
8 755 659 770 863 864 771 881 974
8 976 882 772 867 864 771 660 757
8 866 768 877 977 756 656 767 865
8 867 772 878 978 758 661 768 866
8 760 663 773 868 871 774 883 980
8 870 781 837 948 982 890 780 869
8 982 890 780 869 877 782 670 767
8 761 664 774 871 872 775 884 984
8 876 776 665 765 985 885 775 872
8 873 777 668 763 986 887 779 874
8 769 674 777 873 879 786 887 986
8 764 669 778 875 874 779 888 987
8 766 667 776 876 875 778 886 988
8 878 783 892 989 768 671 782 877
8 878 783 672 772 990 893 784 882
8 880 787 675 770 991 896 786 879
8 880 787 895 992 770 675 785 881
8 881 785 894 993 771 673 784 882
8 1006 905 799 898 897 798 687 789
8 919 814 905 1006 813 705 798 897
8 791 689 799 898 901 801 907 1007
8 900 803 909 1009 790 691 802 899
8 795 693 804 903 900 803 910 1010
8 902 800 908 1011 796 694 805 904
8 793 690 801 901 902 800 908 1011
8 797 695 805 904 903 804 911 1012
8 799 697 806 905 907 808 912 1013
8 920 815 912 1013 814 706 806 905
8 802 700 810 909 906 807 913 1014
8 801 699 808 907 908 809 914 1015
8 805 703 809 908 911 812 915 1016
8 803 701 811 910 909 810 916 1017
8 911 812 917 1018 804 702 811 910
8 925 821 920 1030 818 710 814 919
8 928 823 921 1031 821 712 815 920
8 922 819 717 831 1033 926 829 941
8 923 820 709 816 1034 927 819 922
8 1035 929 822 924 923 820 711 817
8 925 821 710 818 1036 930 822 924
8 1038 933 825 929 927 826 714 820
8 926 827 716 829 1039 935 828 939
8 927 826 715 819 1040 934 827 926
8 928 823 712 821 1041 931 824 930
8 1042 932 824 930 929 825 713 822
8 829 716 830 942 939 828 940 1058
8 831 717 832 944 941 829 942 1060
8 942 830 718 832 1061 943 833 945
8 944 832 720 834 1062 945 835 946
8 981 889 947 1064 870 781 837 948
8 948 837 949 1067 869 780 838 950
8 975 869 950 1069 865 767 839 952
8 950 838 951 1070 839 725 840 953
8 952 839 953 1071 841 726 842 954
8 955 850 802 899 1072 959 906 1008
8 956 849 739 845 1072 959 850 955
8 846 738 849 956 957 848 958 1073
8 957 848 958 1073 854 759 868 965
8 849 742 852 959 958 851 961 1076
8 960 853 961 1076 906 807 852 959
8 958 851 961 1076 868 773 883 980
8 960 853 807 906 1077 963 913 1014
8 855 760 868 965 966 871 980 1085
8 856 761 871 966 967 872 984 1086
8 971 876 765 860 1087 985 872 967
8 968 873 763 858 1088 986 874 969
8 862 769 873 968 972 879 986 1088
8 859 764 875 970 969 874 987 1089
8 861 766 876 971 970 875 988 1090
8 973 880 770 863 1091 991 879 972
8 973 880 992 1092 863 770 881 974
8 974 881 993 1093 864 771 882 976
8 979 870 948 1066 1094 982 869 975
8 1094 982 869 975 977 877 767 865
8 978 878 772 867 1095 990 882 976
8 978 878 989 1096 866 768 877 977
8 871 774 883 980 984 884 994 1099
8 983 891 999 1100 870 781 889 981
8 1101 1000 890 982 989 892 782 877
8 983 891 781 870 1101 1000 890 982
8 872 775 884 984 985 885 995 1103
8 876 776 885 985 988 886 996 1104
8 986 887 779 874 1105 998 888 987
8 879 786 887 986 991 896 998 1105
8 875 778 886 988 987 888 997 1106
8 990 893 1002 1107 878 783 892 989
8 1108 1003 893 990 993 894 784 882
8 880 787 896 991 992 895 1005 1109
8 993 894 785 881 1110 1004 895 992
8 898 799 905 1006 1007 907 1013 1120
8 1030 920 1013 1120 919 814 905 1006
8 901 801 907 1007 1011 908 1015 1121
8 899 802 909 1009 1008 906 1014 1122
8 900 803 910 1010 1009 909 1017 1123
8 1012 911 1018 1124 903 804 910 1010
8 904 805 908 1011 1012 911 1016 1125
8 1013 912 1020 1127 907 808 914 1015
8 1031 921 1020 1127 920 815 912 1013
8 1019 918 962 1075 1128 1021 913 1014
8 1128 1021 913 1014 1017 916 810 909
8 1015 914 1022 1129 908 809 915 1016
8 1016 915 1023 1130 911 812 917 1018
8 1018 917 1024 1131 910 811 916 1017
8 1037 928 1031 1148 925 821 920 1030
8 928 823 931 1041 1031 921 1032 1149
8 1033 926 829 941 1151 1039 939 1057
8 1034 927 819 922 1152 1040 926 1033
8 1153 1038 929 1035 1034 927 820 923
8 1154 1042 930 1036 1035 929 822 924
8 1037 928 821 925 1155 1041 930 1036
8 1039 935 828 939 1156 1047 938 1055
8 1157 1043 932 1042 1038 933 825 929
8 1038 933 826 927 1158 1045 934 1040
8 1040 934 827 926 1159 1046 935 1039
8 930 824 932 1042 1041 931 1044 1160
8 1051 936 1048 1165 1175 1052 937 1053
8 1156 1047 938 1055 1053 937 1054 1178
8 939 828 940 1058 1055 938 1056 1181
8 941 829 942 1060 1057 939 1058 1183
8 942 830 943 1061 1058 940 1059 1184
8 1060 942 832 944 1185 1061 945 1062
8 1082 964 1063 1188 981 889 947 1064
8 1097 981 1064 1190 979 870 948 1066
8 1064 947 1065 1191 948 837 949 1067
8 1066 948 1067 1193 975 869 950 1069
8 1067 949 1068 1194 950 838 951 1070
8 1069 950 1070 1195 952 839 953 1071
8 956 849 959 1072 1073 958 1076 1197
8 1074 960 1076 1197 1008 906 959 1072
8 1073 958 1076 1197 965 868 980 1085
8 1074 960 906 1008 1198 1077 1014 1122
8 1133 1026 1079 1199 1019 918 962 1075
8 1077 963 913 1014 1200 1080 962 1075
8 960 853 963 1077 1076 961 1078 1201
8 980 883 961 1076 1099 994 1078 1201
8 1210 1083 964 1082 1100 999 889 981
8 966 871 980 1085 1086 984 1099 1215
8 967 872 984 1086 1087 985 1103 1216
8 971 876 985 1087 1090 988 1104 1217
8 1088 986 874 969 1218 1105 987 1089
8 972 879 986 1088 1091 991 1105 1218
8 970 875 988 1090 1089 987 1106 1219
8 973 880 991 1091 1092 992 1109 1220
8 1093 993 881 974 1221 1110 992 1092
8 1222 1108 990 1095 1093 993 882 976
8 1223 1101 982 1094 1096 989 877 977
8 1098 983 870 979 1223 1101 982 1094
8 1095 990 1107 1224 978 878 989 1096
8 1098 983 1100 1225 979 870 981 1097
8 984 884 994 1099 1103 995 1111 1227
8 1102 1001 1115 1228 983 891 999 1100
8 1101 1000 892 989 1229 1116 1002 1107
8 1102 1001 891 983 1229 1116 1000 1101
8 985 885 995 1103 1104 996 1112 1230
8 988 886 996 1104 1106 997 1113 1231
8 1105 998 888 987 1232 1114 997 1106
8 991 896 998 1105 1109 1005 1114 1232
8 1108 1003 1117 1233 990 893 1002 1107
8 1108 1003 894 993 1233 1117 1004 1110
8 992 895 1005 1109 1110 1004 1118 1234
8 1120 1013 1127 1244 1007 907 1015 1121
8 1148 1031 1127 1244 1030 920 1013 1120
8 1121 1015 1129 1245 1011 908 1016 1125
8 1126 1019 1075 1196 1246 1128 1014 1122
8 1246 1128 1014 1122 1123 1017 909 1009
8 1124 1018 1131 1247 1010 910 1017 1123
8 1125 1016 1130 1248 1012 911 1018 1124
8 1127 1020 1137 1254 1015 914 1022 1129
8 1031 921 1032 1149 1127 1020 1137 1254
8 1134 1027 918 1019 1257 1140 1021 1128
8 1257 1140 1021 1128 1131 1024 916 1017
8 1129 1022 1141 1258 1016 915 1023 1130
8 1130 1023 1142 1259 1018 917 1024 1131
8 1261 1144 1025 1132 1133 1026 1079 1199
8 1255 1138 1025 1132 1135 1028 1144 1261
8 1133 1026 918 1019 1262 1145 1027 1134
8 1136 1029 1139 1256 1263 1146 1028 1135
8 1037 928 1041 1155 1148 1031 1149 1275
8 1041 931 1044 1160 1149 1032 1150 1276
8 1151 1039 939 1057 1278 1156 1055 1180
8 1152 1040 926 1033 1279 1159 1039 1151
8 1153 1038 927 1034 1280 1158 1040 1152
8 1281 1157 1042 1154 1153 1038 929 1035
8 1036 930 1042 1154 1155 1041 1160 1282
8 1283 1164 1046 1159 1156 1047 935 1039
8 1165 1048 1164 1283 1053 937 1047 1156
8 1157 1043 933 1038 1284 1161 1045 1158
8 1157 1043 1161 1284 1042 932 1044 1160
8 1040 934 1046 1159 1158 1045 1163 1285
8 1166 1049 1167 1292 1051 936 1048 1165
8 1166 1049 936 1051 1293 1168 1050 1172
8 1051 936 1052 1175 1172 1050 1173 1306
8 1174 1051 1165 1290 1308 1175 1053 1177
8 1053 937 1054 1178 1175 1052 1176 1309
8 1278 1156 1055 1180 1177 1053 1178 1311
8 1055 938 1056 1181 1178 1054 1179 1312
8 1057 939 1058 1183 1180 1055 1181 1314
8 1058 940 1059 1184 1181 1056 1182 1315
8 1060 942 1061 1185 1183 1058 1184 1316
8 1208 1081 1187 1321 1082 964 1063 1188
8 1209 1082 1188 1322 1097 981 1064 1190
8 1188 1063 1189 1323 1064 947 1065 1191
8 1190 1064 1191 1325 1066 948 1067 1193
8 1191 1065 1192 1326 1067 949 1068 1194
8 1067 1193 1069 950 1194 1327 1195 1070
8 1250 1133 1199 1330 1126 1019 1075 1196
8 1198 1077 1014 1122 1331 1200 1075 1196
8 1074 960 1077 1198 1197 1076 1201 1332
8 1085 980 1076 1197 1215 1099 1201 1332
8 1199 1079 1203 1333 1075 962 1080 1200
8 1132 1025 1119 1243 1199 1079 1203 1333
8 1201 1078 963 1077 1334 1202 1080 1200
8 1099 994 1078 1201 1227 1111 1202 1334
8 1343 1207 1081 1208 1210 1083 964 1082
8 1214 1084 1186 1319 1343 1207 1081 1208
8 1345 1210 1082 1209 1225 1100 981 1097
8 1346 1211 1083 1210 1228 1115 999 1100
8 1086 984 1099 1215 1216 1103 1227 1352
8 1087 985 1103 1216 1217 1104 1230 1353
8 1090 988 1104 1217 1219 1106 1231 1354
8 1218 1105 987 1089 1355 1232 1106 1219
8 1091 991 1105 1218 1220 1109 1232 1355
8 1092 992 1109 1220 1221 1110 1234 1356
8 1222 1108 1233 1357 1095 990 1107 1224
8 1222 1108 993 1093 1357 1233 1110 1221
8 1223 1101 989 1096 1358 1229 1107 1224
8 1226 1102 983 1098 1358 1229 1101 1223
8 1226 1102 1228 1359 1098 983 1100 1225
8 1103 995 1111 1227 1230 1112 1235 1360
8 1107 1002 1117 1233 1229 1116 1240 1362
8 1102 1001 1116 1229 1228 1115 1240 1362
8 1104 996 1112 1230 1231 1113 1236 1363
8 1364 1237 1114 1232 1231 1113 997 1106
8 1109 1005 1114 1232 1234 1118 1238 1365
8 1110 1004 1118 1234 1233 1117 1241 1366
8 1242 1374 1255 1138 1119 1243 1132 1025
8 1244 1127 1254 1376 1121 1015 1129 1245
8 1148 1031 1149 1275 1244 1127 1254 1376
8 1245 1129 1258 1377 1125 1016 1130 1248
8 1251 1134 1019 1126 1378 1257 1128 1246
8 1378 1257 1128 1246 1247 1131 1017 1123
8 1248 1130 1259 1379 1124 1018 1131 1247
8 1261 1381 1250 1133 1132 1249 1330 1199
8 1255 1380 1252 1135 1132 1249 1381 1261
8 1250 1133 1019 1126 1382 1262 1134 1251
8 1253 1136 1256 1385 1384 1263 1135 1252
8 1254 1137 1265 1387 1129 1022 1141 1258
8 1149 1032 1150 1276 1254 1137 1265 1387
8 1028 1135 1255 1138 1139 1256 1388 1266
8 1136 1029 1147 1264 1256 1139 1267 1389
8 1390 1268 1140 1257 1259 1142 1024 1131
8 1260 1143 1027 1134 1390 1268 1140 1257
8 1258 1141 1269 1391 1130 1023 1142 1259
8 1262 1145 1027 1134 1393 1271 1143 1260
8 1261 1144 1026 1133 1394 1272 1145 1262
8 1135 1028 1144 1261 1263 1146 1272 1394
8 1136 1029 1146 1263 1264 1147 1273 1395
8 1155 1041 1160 1282 1275 1149 1276 1405
8 1276 1150 1044 1160 1406 1277 1162 1286
8 1408 1283 1159 1279 1278 1156 1039 1151
8 1290 1165 1283 1408 1177 1053 1156 1278
8 1152 1040 1159 1279 1280 1158 1285 1409
8 1281 1157 1038 1153 1410 1284 1158 1280
8 1281 1157 1284 1410 1154 1042 1160 1282
8 1159 1046 1164 1283 1285 1163 1289 1412
8 1292 1167 1289 1412 1165 1048 1164 1283
8 1158 1045 1163 1285 1284 1161 1288 1413
8 1284 1161 1288 1413 1160 1044 1162 1286
8 1291 1166 1292 1418 1174 1051 1165 1290
8 1291 1166 1051 1174 1419 1293 1172 1305
8 1294 1169 1296 1421 1166 1049 1167 1292
8 1293 1168 1050 1172 1422 1295 1171 1303
8 1294 1169 1049 1166 1423 1297 1168 1293
8 1422 1295 1171 1303 1301 1170 1302 1435
8 1172 1050 1173 1306 1303 1171 1304 1438
8 1174 1051 1175 1308 1305 1172 1306 1440
8 1175 1052 1176 1309 1306 1173 1307 1441
8 1177 1053 1178 1311 1308 1175 1309 1443
8 1178 1054 1179 1312 1309 1176 1310 1444
8 1180 1055 1181 1314 1311 1178 1312 1446
8 1056 1181 1312 1179 1182 1315 1447 1313
8 1183 1058 1184 1316 1314 1181 1315 1448
8 1319 1186 1084 1214 1451 1317 1213 1350
8 1319 1186 1318 1453 1208 1081 1187 1321
8 1321 1187 1320 1456 1188 1063 1189 1323
8 1344 1208 1321 1457 1209 1082 1188 1322
8 1322 1188 1323 1458 1190 1064 1191 1325
8 1323 1189 1324 1459 1191 1065 1192 1326
8 1191 1325 1193 1067 1326 1460 1327 1194
8 1242 1374 1243 1119 1328 1462 1335 1204
8 1330 1199 1333 1465 1196 1075 1200 1331
8 1132 1249 1330 1199 1243 1375 1465 1333
8 1332 1201 1077 1198 1466 1334 1200 1331
8 1215 1099 1201 1332 1352 1227 1334 1466
8 1119 1243 1333 1203 1204 1335 1470 1338
8 1333 1203 1338 1470 1200 1080 1202 1334
8 1227 1111 1202 1334 1360 1235 1338 1470
8 1328 1462 1335 1204 1205 1336 1471 1339
8 1337 1206 1340 1472 1464 1329 1205 1336
8 1346 1211 1342 1479 1210 1083 1207 1343
8 1346 1211 1115 1228 1479 1342 1239 1361
8 1348 1212 1084 1214 1479 1342 1207 1343
8 1480 1343 1208 1344 1345 1210 1082 1209
8 1351 1214 1319 1454 1480 1343 1208 1344
8 1481 1346 1210 1345 1359 1228 1100 1225
8 1348 1212 1347 1483 1214 1084 1213 1350
8 1216 1103 1227 1352 1353 1230 1360 1488
8 1217 1104 1230 1353 1354 1231 1363 1489
8 1490 1364 1232 1355 1354 1231 1106 1219
8 1220 1109 1232 1355 1356 1234 1365 1491
8 1221 1110 1234 1356 1357 1233 1366 1492
8 1224 1107 1233 1357 1358 1229 1362 1493
8 1226 1102 1229 1358 1359 1228 1362 1493
8 1230 1112 1235 1360 1363 1236 1367 1496
8 1361 1239 1115 1228 1497 1371 1240 1362
8 1366 1241 1372 1498 1233 1117 1240 1362
8 1364 1237 1113 1231 1499 1368 1236 1363
8 1364 1237 1368 1499 1232 1114 1238 1365
8 1234 1118 1238 1365 1366 1241 1369 1500
8 1507 1373 1242 1374 1388 1266 1138 1255
8 1508 1374 1243 1375 1380 1255 1132 1249
8 1376 1254 1387 1509 1245 1129 1258 1377
8 1275 1149 1276 1405 1376 1254 1387 1509
8 1377 1258 1391 1510 1248 1130 1259 1379
8 1511 1390 1257 1378 1379 1259 1131 1247
8 1383 1260 1134 1251 1511 1390 1257 1378
8 1252 1135 1256 1385 1380 1255 1388 1512
8 1261 1381 1513 1394 1133 1250 1382 1262
8 1135 1252 1384 1263 1261 1381 1513 1394
8 1382 1262 1134 1251 1514 1393 1260 1383
8 1253 1136 1263 1384 1386 1264 1395 1516
8 1253 1136 1264 1386 1385 1256 1389 1517
8 1387 1265 1397 1519 1258 1141 1269 1391
8 1276 1150 1277 1406 1387 1265 1397 1519
8 1256 1139 1267 1389 1388 1266 1398 1520
8 1264 1147 1274 1396 1389 1267 1399 1521
8 1392 1270 1143 1260 1522 1400 1268 1390
8 1390 1268 1142 1259 1522 1400 1269 1391
8 1392 1270 1401 1523 1260 1143 1271 1393
8 1272 1394 1524 1402 1145 1262 1393 1271
8 1395 1273 1146 1263 1524 1402 1272 1394
8 1273 1395 1264 1147 1403 1526 1396 1274
8 1405 1276 1160 1282 1534 1406 1286 1411
8 1414 1287 1407 1535 1286 1162 1277 1406
8 1279 1159 1283 1408 1409 1285 1412 1537
8 1418 1292 1412 1537 1290 1165 1283 1408
8 1280 1158 1285 1409 1410 1284 1413 1538
8 1410 1284 1413 1538 1282 1160 1286 1411
8 1285 1163 1289 1412 1413 1288 1417 1540
8 1421 1296 1417 1540 1292 1167 1289 1412
8 1414 1287 1162 1286 1541 1416 1288 1413
8 1420 1294 1421 1545 1291 1166 1292 1418
8 1419 1293 1172 1305 1546 1422 1303 1437
8 1420 1294 1166 1291 1547 1423 1293 1419
8 1294 1169 1297 1423 1421 1296 1425 1548
8 1423 1297 1168 1293 1549 1424 1295 1422
8 1301 1170 1298 1427 1422 1295 1424 1549
8 1432 1300 1428 1554 1301 1170 1298 1427
8 1431 1299 1428 1554 1560 1430 1300 1432
8 1563 1433 1300 1432 1435 1302 1170 1301
8 1546 1422 1303 1437 1434 1301 1435 1565
8 1303 1171 1304 1438 1435 1302 1436 1566
8 1305 1172 1306 1440 1437 1303 1438 1568
8 1306 1173 1307 1441 1438 1304 1439 1569
8 1308 1175 1309 1443 1440 1306 1441 1571
8 1309 1176 1310 1444 1441 1307 1442 1572
8 1311 1178 1312 1446 1443 1309 1444 1574
8 1179 1312 1444 1310 1313 1447 1575 1445
8 1314 1181 1315 1448 1446 1312 1447 1576
8 1350 1213 1349 1486 1451 1317 1449 1579
8 1451 1317 1450 1581 1319 1186 1318 1453
8 1454 1319 1214 1351 1582 1451 1350 1487
8 1453 1318 1452 1584 1321 1187 1320 1456
8 1454 1319 1453 1585 1344 1208 1321 1457
8 1456 1320 1455 1586 1323 1189 1324 1459
8 1457 1321 1456 1587 1322 1188 1323 1458
8 1458 1323 1459 1588 1325 1191 1326 1460
8 1205 1336 1464 1329 1328 1462 1590 1461
8 1507 1373 1461 1590 1374 1242 1328 1462
8 1508 1374 1462 1591 1375 1243 1335 1467
8 1337 1206 1329 1464 1473 1341 1463 1594
8 1375 1243 1335 1467 1465 1333 1470 1596
8 1465 1333 1470 1596 1331 1200 1334 1466
8 1352 1227 1334 1466 1488 1360 1470 1596
8 1591 1462 1336 1468 1467 1335 1471 1597
8 1469 1337 1472 1598 1595 1464 1336 1468
8 1471 1339 1474 1600 1335 1204 1338 1470
8 1600 1474 1367 1496 1470 1338 1235 1360
8 1336 1205 1340 1472 1471 1339 1475 1601
8 1337 1206 1341 1473 1472 1340 1476 1602
8 1495 1370 1478 1609 1361 1239 1342 1479
8 1348 1212 1342 1479 1483 1347 1478 1609
8 1481 1346 1479 1610 1345 1210 1343 1480
8 1481 1346 1228 1359 1610 1479 1361 1494
8 1484 1348 1214 1351 1610 1479 1343 1480
8 1483 1347 1482 1612 1350 1213 1349 1486
8 1484 1348 1483 1613 1351 1214 1350 1487
8 1353 1230 1360 1488 1489 1363 1496 1616
8 1490 1364 1231 1354 1617 1499 1363 1489
8 1490 1364 1499 1617 1355 1232 1365 1491
8 1356 1234 1365 1491 1492 1366 1500 1619
8 1492 1366 1498 1620 1357 1233 1362 1493
8 1494 1361 1228 1359 1621 1497 1362 1493
8 1495 1370 1239 1361 1622 1504 1371 1497
8 1363 1236 1367 1496 1499 1368 1501 1623
8 1497 1371 1240 1362 1624 1505 1372 1498
8 1625 1503 1372 1498 1500 1369 1241 1366
8 1365 1238 1368 1499 1500 1369 1502 1626
8 1520 1398 1506 1633 1388 1266 1373 1507
8 1634 1507 1374 1508 1512 1388 1255 1380
8 1509 1387 1519 1635 1377 1258 1391 1510
8 1405 1276 1406 1534 1509 1387 1519 1635
8 1515 1392 1260 1383 1636 1522 1390 1511
8 1511 1390 1259 1379 1636 1522 1391 1510
8 1385 1256 1389 1517 1512 1388 1520 1637
8 1513 1394 1262 1382 1638 1524 1393 1514
8 1395 1516 1638 1524 1263 1384 1513 1394
8 1515 1392 1523 1639 1383 1260 1393 1514
8 1516 1395 1526 1640 1386 1264 1396 1518
8 1386 1264 1396 1518 1517 1389 1521 1641
8 1519 1397 1527 1643 1391 1269 1400 1522
8 1535 1407 1527 1643 1406 1277 1397 1519
8 1389 1267 1399 1521 1520 1398 1528 1644
8 1645 1529 1399 1521 1525 1404 1274 1396
8 1392 1270 1400 1522 1523 1401 1531 1646
8 1524 1402 1271 1393 1648 1532 1401 1523
8 1403 1526 1648 1532 1273 1395 1524 1402
8 1525 1404 1274 1396 1649 1533 1403 1526
8 1539 1414 1535 1657 1411 1286 1406 1534
8 1542 1415 1536 1658 1414 1287 1407 1535
8 1409 1285 1412 1537 1538 1413 1540 1660
8 1545 1421 1540 1660 1418 1292 1412 1537
8 1539 1414 1286 1411 1661 1541 1413 1538
8 1540 1417 1544 1663 1413 1288 1416 1541
8 1421 1296 1425 1548 1540 1417 1544 1663
8 1542 1415 1287 1414 1664 1543 1416 1541
8 1420 1294 1423 1547 1545 1421 1548 1666
8 1547 1423 1293 1419 1667 1549 1422 1546
8 1434 1301 1427 1553 1546 1422 1549 1667
8 1423 1297 1424 1549 1548 1425 1550 1668
8 1551 1426 1550 1668 1427 1298 1424 1549
8 1551 1426 1298 1427 1671 1552 1428 1554
8 1562 1432 1554 1674 1434 1301 1427 1553
8 1431 1299 1429 1558 1554 1428 1555 1675
8 1431 1299 1430 1560 1558 1429 1557 1680
8 1560 1430 1300 1432 1683 1559 1433 1563
8 1561 1431 1554 1674 1684 1560 1432 1562
8 1685 1563 1432 1562 1565 1435 1301 1434
8 1435 1302 1436 1566 1563 1433 1564 1686
8 1437 1303 1438 1568 1565 1435 1566 1688
8 1438 1304 1439 1569 1566 1436 1567 1689
8 1440 1306 1441 1571 1568 1438 1569 1691
8 1441 1307 1442 1572 1569 1439 1570 1692
8 1443 1309 1444 1574 1571 1441 1572 1694
8 1310 1444 1572 1442 1445 1575 1695 1573
8 1446 1312 1447 1576 1574 1444 1575 1696
8 1486 1349 1485 1614 1579 1449 1577 1699
8 1451 1317 1449 1579 1581 1450 1578 1701
8 1487 1350 1486 1615 1582 1451 1579 1702
8 1581 1450 1580 1704 1453 1318 1452 1584
8 1582 1451 1581 1705 1454 1319 1453 1585
8 1584 1452 1583 1706 1456 1320 1455 1586
8 1585 1453 1584 1707 1457 1321 1456 1587
8 1587 1456 1586 1708 1458 1323 1459 1588
8 1633 1506 1589 1710 1507 1373 1461 1590
8 1464 1329 1461 1590 1594 1463 1589 1710
8 1468 1336 1462 1591 1595 1464 1590 1711
8 1634 1507 1590 1711 1508 1374 1462 1591
8 1473 1341 1463 1594 1603 1477 1593 1716
8 1469 1337 1464 1595 1599 1473 1594 1717
8 1471 1597 1467 1335 1600 1718 1596 1470
8 1718 1600 1496 1616 1596 1470 1360 1488
8 1336 1468 1597 1471 1472 1598 1719 1601
8 1469 1337 1473 1599 1598 1472 1602 1720
8 1722 1604 1501 1623 1600 1474 1367 1496
8 1475 1601 1471 1339 1604 1722 1600 1474
8 1602 1476 1605 1723 1472 1340 1475 1601
8 1476 1602 1724 1606 1341 1473 1603 1477
8 1483 1347 1478 1609 1612 1482 1608 1731
8 1495 1370 1504 1622 1609 1478 1608 1731
8 1618 1495 1609 1732 1494 1361 1479 1610
8 1484 1348 1479 1610 1613 1483 1609 1732
8 1486 1349 1482 1612 1614 1485 1611 1733
8 1613 1483 1612 1734 1487 1350 1486 1615
8 1489 1363 1496 1616 1617 1499 1623 1736
8 1491 1365 1499 1617 1619 1500 1626 1737
8 1618 1495 1361 1494 1738 1622 1497 1621
8 1739 1625 1498 1620 1619 1500 1366 1492
8 1621 1497 1362 1493 1740 1624 1498 1620
8 1742 1631 1504 1622 1624 1505 1371 1497
8 1743 1628 1502 1626 1623 1501 1368 1499
8 1744 1630 1505 1624 1625 1503 1372 1498
8 1745 1629 1503 1625 1626 1502 1369 1500
8 1520 1398 1528 1644 1633 1506 1632 1751
8 1637 1520 1633 1752 1512 1388 1507 1634
8 1635 1519 1643 1753 1510 1391 1522 1636
8 1657 1535 1643 1753 1534 1406 1519 1635
8 1515 1392 1522 1636 1639 1523 1646 1754
8 1517 1389 1521 1641 1637 1520 1644 1755
8 1524 1638 1756 1648 1393 1514 1639 1523
8 1640 1526 1395 1516 1756 1648 1524 1638
8 1642 1525 1396 1518 1757 1649 1526 1640
8 1758 1645 1521 1641 1642 1525 1396 1518
8 1646 1531 1400 1522 1760 1650 1527 1643
8 1535 1407 1536 1658 1643 1527 1650 1760
8 1521 1399 1529 1645 1644 1528 1651 1761
8 1647 1530 1652 1762 1525 1404 1529 1645
8 1401 1523 1648 1532 1531 1646 1763 1655
8 1525 1404 1533 1649 1647 1530 1654 1765
8 1533 1649 1766 1656 1403 1526 1648 1532
8 1662 1542 1658 1774 1539 1414 1535 1657
8 1542 1415 1543 1664 1658 1536 1659 1775
8 1660 1540 1663 1777 1538 1413 1541 1661
8 1545 1421 1548 1666 1660 1540 1663 1777
8 1662 1542 1414 1539 1778 1664 1541 1661
8 1664 1543 1416 1541 1779 1665 1544 1663
8 1548 1425 1550 1668 1663 1544 1665 1779
8 1547 1423 1549 1667 1666 1548 1668 1781
8 1670 1551 1668 1781 1553 1427 1549 1667
8 1551 1426 1552 1671 1668 1550 1669 1782
8 1670 1551 1427 1553 1784 1671 1554 1674
8 1675 1555 1672 1785 1554 1428 1552 1671
8 1678 1556 1673 1789 1558 1429 1555 1675
8 1561 1431 1558 1681 1674 1554 1675 1790
8 1794 1677 1556 1678 1680 1557 1429 1558
8 1560 1430 1559 1683 1680 1557 1679 1797
8 1561 1431 1560 1684 1681 1558 1680 1798
8 1563 1433 1564 1686 1683 1559 1682 1800
8 1684 1560 1432 1562 1801 1683 1563 1685
8 1565 1435 1566 1688 1685 1563 1686 1802
8 1566 1436 1567 1689 1686 1564 1687 1803
8 1568 1438 1569 1691 1688 1566 1689 1805
8 1569 1439 1570 1692 1689 1567 1690 1806
8 1571 1441 1572 1694 1691 1569 1692 1808
8 1442 1572 1692 1570 1573 1695 1809 1693
8 1574 1444 1575 1696 1694 1572 1695 1810
8 1614 1485 1592 1712 1699 1577 1697 1813
8 1579 1449 1577 1699 1701 1578 1698 1815
8 1615 1486 1614 1735 1702 1579 1699 1816
8 1701 1578 1700 1818 1581 1450 1580 1704
8 1582 1451 1579 1702 1705 1581 1701 1819
8 1704 1580 1703 1820 1584 1452 1583 1706
8 1705 1581 1704 1821 1585 1453 1584 1707
8 1707 1584 1706 1822 1587 1456 1586 1708
8 1710 1589 1506 1633 1824 1709 1632 1751
8 1594 1463 1589 1710 1716 1593 1709 1824
8 1752 1633 1710 1825 1634 1507 1590 1711
8 1595 1464 1590 1711 1717 1594 1710 1825
8 1830 1714 1592 1712 1733 1611 1485 1614
8 1603 1477 1593 1716 1725 1607 1715 1834
8 1599 1473 1594 1717 1721 1603 1716 1835
8 1837 1722 1623 1736 1718 1600 1496 1616
8 1719 1601 1722 1837 1597 1471 1600 1718
8 1602 1720 1598 1472 1723 1838 1719 1601
8 1720 1602 1473 1599 1839 1724 1603 1721
8 1723 1605 1726 1840 1601 1475 1604 1722
8 1840 1726 1628 1743 1722 1604 1501 1623
8 1724 1606 1727 1841 1602 1476 1605 1723
8 1725 1607 1728 1842 1603 1477 1606 1724
8 1612 1482 1608 1731 1733 1611 1730 1849
8 1741 1627 1730 1849 1622 1504 1608 1731
8 1613 1483 1609 1732 1734 1612 1731 1850
8 1618 1495 1622 1738 1732 1609 1731 1850
8 1615 1486 1612 1734 1735 1614 1733 1851
8 1852 1743 1626 1737 1736 1623 1499 1617
8 1853 1745 1625 1739 1737 1626 1500 1619
8 1855 1742 1622 1738 1740 1624 1497 1621
8 1856 1744 1624 1740 1739 1625 1498 1620
8 1741 1627 1504 1622 1857 1746 1631 1742
8 1742 1631 1505 1624 1858 1749 1630 1744
8 1859 1747 1629 1745 1743 1628 1502 1626
8 1860 1748 1630 1744 1745 1629 1503 1625
8 1644 1528 1651 1761 1751 1632 1750 1865
8 1637 1520 1644 1755 1752 1633 1751 1866
8 1754 1646 1522 1636 1867 1760 1643 1753
8 1657 1535 1658 1774 1753 1643 1760 1867
8 1639 1523 1646 1754 1756 1648 1763 1868
8 1641 1521 1645 1758 1755 1644 1761 1869
8 1757 1649 1526 1640 1870 1766 1648 1756
8 1642 1525 1649 1757 1759 1647 1765 1871
8 1759 1647 1762 1872 1642 1525 1645 1758
8 1760 1650 1767 1874 1646 1531 1655 1763
8 1658 1536 1659 1775 1760 1650 1767 1874
8 1762 1652 1768 1875 1645 1529 1651 1761
8 1764 1653 1769 1876 1647 1530 1652 1762
8 1656 1766 1877 1773 1532 1648 1763 1655
8 1771 1879 1765 1654 1653 1764 1647 1530
8 1533 1649 1765 1654 1656 1766 1880 1772
8 1662 1542 1664 1778 1774 1658 1775 1887
8 1664 1543 1665 1779 1775 1659 1776 1888
8 1778 1664 1541 1661 1890 1779 1663 1777
8 1666 1548 1668 1781 1777 1663 1779 1890
8 1782 1669 1780 1891 1668 1550 1665 1779
8 1670 1551 1671 1784 1781 1668 1782 1893
8 1671 1552 1672 1785 1782 1669 1783 1894
8 1790 1675 1785 1896 1674 1554 1671 1784
8 1675 1555 1673 1789 1785 1672 1786 1897
8 1792 1676 1788 1903 1678 1556 1673 1789
8 1795 1678 1789 1904 1681 1558 1675 1790
8 1792 1676 1556 1678 1906 1791 1677 1794
8 1680 1557 1679 1797 1794 1677 1793 1909
8 1910 1794 1678 1795 1798 1680 1558 1681
8 1683 1559 1682 1800 1797 1679 1796 1912
8 1684 1560 1683 1801 1798 1680 1797 1913
8 1686 1564 1687 1803 1800 1682 1799 1915
8 1685 1563 1686 1802 1801 1683 1800 1916
8 1688 1566 1689 1805 1802 1686 1803 1917
8 1689 1567 1690 1806 1803 1687 1804 1918
8 1691 1569 1692 1808 1805 1689 1806 1920
8 1692 1570 1693 1809 1806 1690 1807 1921
8 1694 1572 1695 1810 1808 1692 1809 1922
8 1829 1713 1811 1926 1712 1592 1697 1813
8 1813 1697 1812 1928 1699 1577 1698 1815
8 1735 1614 1712 1828 1816 1699 1813 1929
8 1815 1698 1814 1931 1701 1578 1700 1818
8 1702 1579 1699 1816 1819 1701 1815 1932
8 1818 1700 1817 1933 1704 1580 1703 1820
8 1819 1701 1818 1934 1705 1581 1704 1821
8 1821 1704 1820 1935 1707 1584 1706 1822
8 1824 1709 1632 1751 1937 1823 1750 1865
8 1716 1593 1709 1824 1834 1715 1823 1937
8 1825 1710 1633 1752 1938 1824 1751 1866
8 1717 1594 1710 1825 1835 1716 1824 1938
8 1945 1830 1712 1828 1851 1733 1614 1735
8 1830 1714 1831 1946 1712 1592 1713 1829
8 1947 1832 1714 1830 1849 1730 1611 1733
8 1843 1729 1607 1725 1950 1833 1715 1834
8 1721 1603 1716 1835 1836 1725 1834 1951
8 1836 1725 1842 1953 1721 1603 1724 1839
8 1723 1838 1719 1601 1840 1954 1837 1722
8 1954 1840 1743 1852 1837 1722 1623 1736
8 1724 1839 1720 1602 1841 1955 1838 1723
8 1841 1727 1844 1956 1723 1605 1726 1840
8 1956 1844 1747 1859 1840 1726 1628 1743
8 1728 1842 1724 1606 1845 1957 1841 1727
8 1725 1607 1729 1843 1842 1728 1846 1958
8 1741 1627 1746 1857 1849 1730 1848 1965
8 1734 1612 1731 1850 1851 1733 1849 1966
8 1854 1741 1849 1966 1738 1622 1731 1850
8 1967 1859 1745 1853 1852 1743 1626 1737
8 1968 1860 1744 1856 1853 1745 1625 1739
8 1854 1741 1622 1738 1969 1857 1742 1855
8 1855 1742 1624 1740 1970 1858 1744 1856
8 1857 1746 1631 1742 1971 1861 1749 1858
8 1858 1749 1630 1744 1972 1863 1748 1860
8 1859 1747 1862 1973 1745 1629 1748 1860
8 1875 1768 1864 1977 1761 1651 1750 1865
8 1755 1644 1761 1869 1866 1751 1865 1978
8 1867 1760 1874 1979 1754 1646 1763 1868
8 1774 1658 1775 1887 1867 1760 1874 1979
8 1870 1766 1648 1756 1980 1877 1763 1868
8 1872 1762 1875 1981 1758 1645 1761 1869
8 1757 1649 1766 1870 1871 1765 1880 1982
8 1983 1879 1764 1873 1871 1765 1647 1759
8 1873 1764 1876 1984 1759 1647 1762 1872
8 1877 1773 1655 1763 1986 1881 1767 1874
8 1775 1659 1776 1888 1874 1767 1881 1986
8 1876 1769 1882 1987 1762 1652 1768 1875
8 1878 1770 1883 1988 1764 1653 1769 1876
8 1880 1772 1656 1766 1989 1886 1773 1877
8 1878 1770 1653 1764 1990 1884 1771 1879
8 1765 1654 1772 1880 1879 1771 1885 1991
8 1778 1664 1779 1890 1887 1775 1888 1997
8 1998 1889 1776 1888 1891 1780 1665 1779
8 1893 1782 1891 2000 1781 1668 1779 1890
8 1894 1783 1892 2001 1782 1669 1780 1891
8 1784 1671 1785 1896 1893 1782 1894 2003
8 1897 1786 1895 2004 1785 1672 1783 1894
8 1790 1675 1789 1904 1896 1785 1897 2006
8 1901 1787 1898 2007 1789 1673 1786 1897
8 1903 1788 1900 2013 1789 1673 1787 1901
8 1792 1676 1791 1906 1903 1788 1902 2016
8 1907 1792 1903 2017 1795 1678 1789 1904
8 1906 1791 1677 1794 2019 1905 1793 1909
8 1907 1792 1678 1795 2020 1906 1794 1910
8 1797 1679 1796 1912 1909 1793 1908 2022
8 1798 1680 1797 1913 1910 1794 1909 2023
8 1800 1682 1799 1915 1912 1796 1911 2025
8 1801 1683 1800 1916 1913 1797 1912 2026
8 1803 1687 1804 1918 1915 1799 1914 2028
8 1802 1686 1803 1917 1916 1800 1915 2029
8 1805 1689 1806 1920 1917 1803 1918 2030
8 1806 1690 1807 1921 1918 1804 1919 2031
8 1808 1692 1809 1922 1920 1806 1921 2032
8 1939 1826 1924 2037 1829 1713 1811 1926
8 1926 1811 1925 2039 1813 1697 1812 1928
8 1944 1829 1926 2040 1828 1712 1813 1929
8 1928 1812 1927 2042 1815 1698 1814 1931
8 1929 1813 1928 2043 1816 1699 1815 1932
8 1931 1814 1930 2044 1818 1700 1817 1933
8 1932 1815 1931 2045 1819 1701 1818 1934
8 1934 1818 1933 2046 1821 1704 1820 1935
8 2048 1936 1823 1937 1977 1864 1750 1865
8 1950 1833 1715 1834 2048 1936 1823 1937
8 1938 1824 1751 1866 2049 1937 1865 1978
8 1835 1716 1824 1938 1951 1834 1937 2049
8 1939 1826 1713 1829 2053 1942 1831 1946
8 1940 1827 1923 2035 2053 1942 1826 1939
8 1945 1830 1946 2058 1828 1712 1829 1944
8 2059 1947 1830 1945 1966 1849 1733 1851
8 1947 1832 1730 1849 2060 1948 1848 1965
8 1947 1832 1948 2060 1830 1714 1831 1946
8 1959 1847 1729 1843 2063 1949 1833 1950
8 1952 1843 1725 1836 2064 1950 1834 1951
8 1836 1725 1843 1952 1953 1842 1958 2066
8 1953 1842 1957 2067 1839 1724 1841 1955
8 1841 1955 1838 1723 1956 2068 1954 1840
8 2068 1956 1859 1967 1954 1840 1743 1852
8 1956 1844 1960 2069 1859 1747 1862 1973
8 1845 1957 1841 1727 1960 2069 1956 1844
8 1728 1842 1957 1845 1846 1958 2071 1961
8 1962 2072 1959 1847 1846 1958 1843 1729
8 1971 1861 1964 2077 1857 1746 1848 1965
8 1854 1741 1857 1969 1966 1849 1965 2078
8 1967 1859 1973 2079 1853 1745 1860 1968
8 1970 1858 1744 1856 2080 1972 1860 1968
8 1969 1857 1742 1855 2081 1971 1858 1970
8 1971 1861 1749 1858 2082 1974 1863 1972
8 1973 1862 1975 2083 1860 1748 1863 1972
8 1987 1882 1976 2086 1875 1768 1864 1977
8 1981 1875 1977 2087 1869 1761 1865 1978
8 1980 1877 1763 1868 2088 1986 1874 1979
8 1887 1775 1888 1997 1979 1874 1986 2088
8 1880 1982 2089 1989 1766 1870 1980 1877
8 1984 1876 1987 2090 1872 1762 1875 1981
8 1765 1871 1983 1879 1880 1982 2091 1991
8 1985 1878 1764 1873 2092 1990 1879 1983
8 1985 1878 1988 2093 1873 1764 1876 1984
8 2094 1992 1881 1986 1998 1889 1776 1888
8 1986 1881 1992 2094 1877 1773 1886 1989
8 1988 1883 1993 2095 1876 1769 1882 1987
8 1878 1770 1884 1990 1988 1883 1994 2096
8 1991 1885 1772 1880 2097 1996 1886 1989
8 1879 1771 1885 1991 1990 1884 1995 2098
8 2103 1998 1888 1997 2000 1891 1779 1890
8 2104 1999 1889 1998 2001 1892 1780 1891
8 2003 1894 2001 2106 1893 1782 1891 2000
8 2004 1895 2002 2107 1894 1783 1892 2001
8 2006 1897 2004 2109 1896 1785 1894 2003
8 2007 1898 2005 2110 1897 1786 1895 2004
8 2014 1901 2007 2112 1904 1789 1897 2006
8 2011 1899 2008 2113 1901 1787 1898 2007
8 2119 2010 1899 2011 2013 1900 1787 1901
8 2016 1902 2012 2122 1903 1788 1900 2013
8 2017 1903 2013 2123 1904 1789 1901 2014
8 1906 1791 1905 2019 2016 1902 2015 2125
8 1907 1792 1906 2020 2017 1903 2016 2126
8 1909 1793 1908 2022 2019 1905 2018 2128
8 2020 1906 1794 1910 2129 2019 1909 2023
8 1912 1796 1911 2025 2022 1908 2021 2131
8 1913 1797 1912 2026 2023 1909 2022 2132
8 1915 1799 1914 2028 2025 1911 2024 2134
8 1916 1800 1915 2029 2026 1912 2025 2135
8 1918 1804 1919 2031 2028 1914 2027 2136
8 1917 1803 1918 2030 2029 1915 2028 2137
8 1920 1806 1921 2032 2030 1918 2031 2138
8 1940 1827 1941 2054 2035 1923 2033 2140
8 2035 1923 2034 2143 1939 1826 1924 2037
8 2037 1924 2036 2146 1926 1811 1925 2039
8 2051 1939 2037 2147 1944 1829 1926 2040
8 2039 1925 2038 2149 1928 1812 1927 2042
8 2040 1926 2039 2150 1929 1813 1928 2043
8 2042 1927 2041 2151 1931 1814 1930 2044
8 2043 1928 2042 2152 1932 1815 1931 2045
8 2045 1931 2044 2153 1934 1818 1933 2046
8 2155 2047 1936 2048 2086 1976 1864 1977
8 2063 1949 1833 1950 2155 2047 1936 2048
8 2156 2048 1937 2049 2087 1977 1865 1978
8 2064 1950 1834 1951 2156 2048 1937 2049
8 2051 1939 1829 1944 2160 2053 1946 2058
8 2052 1940 2035 2144 2160 2053 1939 2051
8 2053 1942 1831 1946 2163 2057 1948 2060
8 2055 1943 1827 1940 2163 2057 1942 2053
8 2055 1943 2056 2164 1940 1827 1941 2054
8 2059 1947 1849 1966 2167 2060 1965 2078
8 2059 1947 2060 2167 1945 1830 1946 2058
8 2077 1964 2061 2168 1965 1848 1948 2060
8 2070 1963 1847 1959 2170 2062 1949 2063
8 2065 1959 1843 1952 2171 2063 1950 2064
8 2173 2072 1958 2066 2065 1959 1843 1952
8 1953 1842 1958 2066 2067 1957 2071 2174
8 2068 1956 2069 2175 1967 1859 1973 2079
8 2067 1957 2069 2175 1955 1841 1956 2068
8 1845 1957 2069 1960 1961 2071 2176 2073
8 2069 1960 2073 2176 1973 1862 1975 2083
8 2070 1963 2075 2177 1959 1847 1962 2072
8 1846 1958 2071 1961 1962 2072 2178 2074
8 2077 1964 1861 1971 2182 2076 1974 2082
8 2081 1971 2077 2183 1969 1857 1965 2078
8 2079 1973 2083 2184 1968 1860 1972 2080
8 2081 1971 1858 1970 2185 2082 1972 2080
8 2083 1975 2084 2186 1972 1863 1974 2082
8 2086 1976 1882 1987 2189 2085 1993 2095
8 2090 1987 2086 2190 1981 1875 1977 2087
8 2191 2094 1986 2088 2103 1998 1888 1997
8 2088 1986 2094 2191 1980 1877 1989 2089
8 1991 2091 2192 2097 1880 1982 2089 1989
8 2093 1988 2095 2193 1984 1876 1987 2090
8 1879 1983 2092 1990 1991 2091 2194 2098
8 1985 1878 1990 2092 2093 1988 2096 2195
8 2097 1996 1886 1989 2196 2099 1992 2094
8 2196 2099 1992 2094 2104 1999 1889 1998
8 1994 2096 1988 1883 2100 2197 2095 1993
8 2096 1994 1884 1990 2198 2101 1995 2098
8 1995 2098 2199 2102 1885 1991 2097 1996
8 2203 2104 1998 2103 2106 2001 1891 2000
8 2107 2002 2105 2204 2001 1892 1999 2104
8 2109 2004 2107 2206 2003 1894 2001 2106
8 2110 2005 2108 2207 2004 1895 2002 2107
8 2112 2007 2110 2209 2006 1897 2004 2109
8 2113 2008 2111 2210 2007 1898 2005 2110
8 2120 2011 2113 2212 2014 1901 2007 2112
8 2117 2009 2114 2213 2011 1899 2008 2113
8 2219 2116 2009 2117 2119 2010 1899 2011
8 2222 2118 2010 2119 2122 2012 1900 2013
8 2223 2119 2011 2120 2123 2013 1901 2014
8 2016 1902 2015 2125 2122 2012 2121 2225
8 2126 2016 2122 2226 2017 1903 2013 2123
8 2019 1905 2018 2128 2125 2015 2124 2228
8 2020 1906 2019 2129 2126 2016 2125 2229
8 2022 1908 2021 2131 2128 2018 2127 2231
8 2023 1909 2022 2132 2129 2019 2128 2232
8 2025 1911 2024 2134 2131 2021 2130 2234
8 2026 1912 2025 2135 2132 2022 2131 2235
8 1914 2028 2134 2024 2027 2136 2236 2133
8 2029 1915 2028 2137 2135 2025 2134 2237
8 2030 1918 2031 2138 2137 2028 2136 2238
8 2157 2050 2139 2240 2054 1941 2033 2140
8 2052 1940 2054 2161 2144 2035 2140 2242
8 2140 2033 2141 2243 2035 1923 2034 2143
8 2143 2034 2142 2246 2037 1924 2036 2146
8 2144 2035 2143 2247 2051 1939 2037 2147
8 2146 2036 2145 2249 2039 1925 2038 2149
8 2147 2037 2146 2250 2040 1926 2039 2150
8 2149 2038 2148 2251 2042 1927 2041 2151
8 2150 2039 2149 2252 2043 1928 2042 2152
8 2152 2042 2151 2253 2045 1931 2044 2153
8 2255 2154 2047 2155 2189 2085 1976 2086
8 2170 2062 1949 2063 2255 2154 2047 2155
8 2256 2155 2048 2156 2190 2086 1977 2087
8 2171 2063 1950 2064 2256 2155 2048 2156
8 2258 2159 2050 2157 2164 2056 1941 2054
8 2160 2053 1946 2058 2262 2163 2060 2167
8 2162 2055 1940 2052 2262 2163 2053 2160
8 2162 2055 2164 2263 2052 1940 2054 2161
8 2163 2057 1948 2060 2264 2165 2061 2168
8 2055 1943 2057 2163 2164 2056 2165 2264
8 2182 2076 2166 2268 2077 1964 2061 2168
8 2183 2077 2168 2269 2078 1965 2060 2167
8 2070 1963 2062 2170 2177 2075 2169 2271
8 2172 2070 1959 2065 2272 2170 2063 2171
8 2172 2070 2177 2273 2065 1959 2072 2173
8 2066 1958 2072 2173 2174 2071 2178 2274
8 2067 1957 2071 2174 2175 2069 2176 2275
8 2175 2069 2176 2275 2079 1973 2083 2184
8 2071 1961 2074 2178 2176 2073 2179 2276
8 2176 2073 2179 2276 2083 1975 2084 2186
8 2072 1962 2075 2177 2178 2074 2180 2277
8 2182 2076 1974 2082 2280 2181 2084 2186
8 2183 2077 1971 2081 2281 2182 2082 2185
8 2184 2083 2186 2282 2080 1972 2082 2185
8 2189 2085 1993 2095 2285 2188 2100 2197
8 2190 2086 1987 2090 2286 2189 2095 2193
8 2192 2097 1989 2089 2287 2196 2094 2191
8 2287 2196 2094 2191 2203 2104 1998 2103
8 2194 2098 1991 2091 2288 2199 2097 2192
8 2195 2096 2197 2289 2093 1988 2095 2193
8 2096 2195 2290 2198 1990 2092 2194 2098
8 2097 1996 2099 2196 2199 2102 2200 2291
8 2196 2099 1999 2104 2291 2200 2105 2204
8 2100 2197 2292 2201 1994 2096 2198 2101
8 1995 2098 2198 2101 2102 2199 2293 2202
8 2206 2107 2204 2296 2106 2001 2104 2203
8 2207 2108 2205 2297 2107 2002 2105 2204
8 2209 2110 2207 2299 2109 2004 2107 2206
8 2210 2111 2208 2300 2110 2005 2108 2207
8 2212 2113 2210 2302 2112 2007 2110 2209
8 2213 2114 2211 2303 2113 2008 2111 2210
8 2220 2117 2213 2305 2120 2011 2113 2212
8 2216 2115 2214 2306 2117 2009 2114 2213
8 2216 2115 2009 2117 2311 2217 2116 2219
8 2219 2116 2010 2119 2314 2218 2118 2222
8 2315 2219 2117 2220 2223 2119 2011 2120
8 2122 2012 2121 2225 2222 2118 2221 2317
8 2318 2222 2119 2223 2226 2122 2013 2123
8 2125 2015 2124 2228 2225 2121 2224 2320
8 2126 2016 2125 2229 2226 2122 2225 2321
8 2128 2018 2127 2231 2228 2124 2227 2323
8 2129 2019 2128 2232 2229 2125 2228 2324
8 2131 2021 2130 2234 2231 2127 2230 2326
8 2132 2022 2131 2235 2232 2128 2231 2327
8 2134 2024 2133 2236 2234 2130 2233 2328
8 2135 2025 2134 2237 2235 2131 2234 2329
8 2137 2028 2136 2238 2237 2134 2236 2330
8 2157 2050 2158 2259 2240 2139 2239 2332
8 2257 2157 2240 2334 2161 2054 2140 2242
8 2240 2139 2241 2335 2140 2033 2141 2243
8 2242 2140 2243 2337 2144 2035 2143 2247
8 2243 2141 2244 2338 2143 2034 2142 2246
8 2246 2142 2245 2341 2146 2036 2145 2249
8 2247 2143 2246 2342 2147 2037 2146 2250
8 2249 2145 2248 2343 2149 2038 2148 2251
8 2250 2146 2249 2344 2150 2039 2149 2252
8 2252 2149 2251 2345 2152 2042 2151 2253
8 2169 2271 2347 2254 2062 2170 2255 2154
8 2189 2085 2188 2285 2255 2154 2254 2347
8 2348 2255 2155 2256 2286 2189 2086 2190
8 2272 2170 2063 2171 2348 2255 2155 2256
8 2349 2258 2157 2257 2263 2164 2054 2161
8 2258 2159 2261 2351 2157 2050 2158 2259
8 2258 2159 2056 2164 2351 2261 2165 2264
8 2262 2163 2060 2167 2355 2264 2168 2269
8 2162 2055 2163 2262 2263 2164 2264 2355
8 2357 2266 2165 2264 2268 2166 2061 2168
8 2268 2166 2076 2182 2361 2267 2181 2280
8 2281 2182 2268 2362 2183 2077 2168 2269
8 2271 2169 2270 2364 2177 2075 2180 2277
8 2172 2070 2170 2272 2273 2177 2271 2365
8 2072 2173 2274 2178 2177 2273 2366 2277
8 2071 2174 2275 2176 2178 2274 2367 2276
8 2275 2176 2276 2367 2184 2083 2186 2282
8 2283 2187 2084 2186 2368 2278 2179 2276
8 2178 2074 2180 2277 2276 2179 2278 2368
8 2283 2187 2279 2370 2186 2084 2181 2280
8 2281 2182 2082 2185 2371 2280 2186 2282
8 2188 2285 2374 2284 2100 2197 2292 2201
8 2286 2189 2095 2193 2375 2285 2197 2289
8 2192 2097 2196 2287 2288 2199 2291 2376
8 2287 2196 2104 2203 2376 2291 2204 2296
8 2194 2098 2199 2288 2290 2198 2293 2377
8 2289 2197 2096 2195 2378 2292 2198 2290
8 2291 2200 2105 2204 2379 2294 2205 2297
8 2199 2102 2200 2291 2293 2202 2294 2379
8 2198 2101 2202 2293 2292 2201 2295 2380
8 2299 2207 2297 2383 2206 2107 2204 2296
8 2300 2208 2298 2384 2207 2108 2205 2297
8 2302 2210 2300 2386 2209 2110 2207 2299
8 2303 2211 2301 2387 2210 2111 2208 2300
8 2305 2213 2303 2389 2212 2113 2210 2302
8 2306 2214 2304 2390 2213 2114 2211 2303
8 2310 2216 2306 2392 2220 2117 2213 2305
8 2308 2215 2307 2393 2216 2115 2214 2306
8 2308 2215 2115 2216 2396 2309 2217 2311
8 2310 2216 2117 2220 2398 2311 2219 2315
8 2311 2217 2116 2219 2399 2312 2218 2314
8 2314 2218 2118 2222 2402 2313 2221 2317
8 2315 2219 2119 2223 2403 2314 2222 2318
8 2225 2121 2224 2320 2317 2221 2316 2405
8 2226 2122 2225 2321 2318 2222 2317 2406
8 2228 2124 2227 2323 2320 2224 2319 2408
8 2229 2125 2228 2324 2321 2225 2320 2409
8 2231 2127 2230 2326 2323 2227 2322 2411
8 2232 2128 2231 2327 2324 2228 2323 2412
8 2234 2130 2233 2328 2326 2230 2325 2413
8 2235 2131 2234 2329 2327 2231 2326 2414
8 2237 2134 2236 2330 2329 2234 2328 2415
8 2259 2158 2260 2352 2332 2239 2331 2417
8 2257 2157 2259 2350 2334 2240 2332 2419
8 2240 2139 2239 2332 2335 2241 2333 2420
8 2334 2240 2335 2422 2242 2140 2243 2337
8 2335 2241 2336 2423 2243 2141 2244 2338
8 2337 2243 2338 2425 2247 2143 2246 2342
8 2338 2244 2339 2426 2246 2142 2245 2341
8 2341 2245 2340 2428 2249 2145 2248 2343
8 2342 2246 2341 2429 2250 2146 2249 2344
8 2344 2249 2343 2430 2252 2149 2251 2345
8 2188 2285 2347 2254 2284 2374 2432 2346
8 2347 2254 2346 2432 2271 2169 2270 2364
8 2365 2271 2170 2272 2433 2347 2255 2348
8 2286 2189 2285 2375 2348 2255 2347 2433
8 2349 2258 2351 2435 2257 2157 2259 2350
8 2349 2258 2164 2263 2435 2351 2264 2355
8 2259 2158 2261 2351 2352 2260 2354 2437
8 2356 2265 2354 2437 2264 2165 2261 2351
8 2441 2357 2264 2355 2362 2268 2168 2269
8 2356 2265 2165 2264 2442 2358 2266 2357
8 2443 2359 2266 2357 2361 2267 2166 2268
8 2370 2279 2360 2446 2280 2181 2267 2361
8 2362 2268 2182 2281 2447 2361 2280 2371
8 2180 2277 2368 2278 2270 2364 2449 2363
8 2271 2365 2273 2177 2364 2450 2366 2277
8 2372 2283 2186 2282 2451 2368 2276 2367
8 2178 2274 2367 2276 2277 2366 2451 2368
8 2283 2187 2278 2368 2370 2279 2369 2452
8 2372 2283 2370 2453 2282 2186 2280 2371
8 2284 2374 2455 2373 2201 2292 2380 2295
8 2375 2285 2197 2289 2456 2374 2292 2378
8 2376 2291 2204 2296 2457 2379 2297 2383
8 2288 2199 2291 2376 2377 2293 2379 2457
8 2198 2290 2378 2292 2293 2377 2458 2380
8 2293 2202 2294 2379 2380 2295 2381 2459
8 2384 2298 2381 2459 2297 2205 2294 2379
8 2386 2300 2384 2463 2299 2207 2297 2383
8 2387 2301 2385 2464 2300 2208 2298 2384
8 2389 2303 2387 2466 2302 2210 2300 2386
8 2390 2304 2388 2467 2303 2211 2301 2387
8 2392 2306 2390 2469 2305 2213 2303 2389
8 2393 2307 2391 2470 2306 2214 2304 2390
8 2395 2308 2393 2472 2310 2216 2306 2392
8 2308 2215 2309 2396 2393 2307 2394 2473
8 2395 2308 2216 2310 2475 2396 2311 2398
8 2396 2309 2217 2311 2476 2397 2312 2399
8 2398 2311 2219 2315 2478 2399 2314 2403
8 2399 2312 2218 2314 2479 2400 2313 2402
8 2317 2221 2316 2405 2402 2313 2401 2482
8 2403 2314 2222 2318 2483 2402 2317 2406
8 2320 2224 2319 2408 2405 2316 2404 2485
8 2321 2225 2320 2409 2406 2317 2405 2486
8 2323 2227 2322 2411 2408 2319 2407 2488
8 2324 2228 2323 2412 2409 2320 2408 2489
8 2326 2230 2325 2413 2411 2322 2410 2490
8 2327 2231 2326 2414 2412 2323 2411 2491
8 2329 2234 2328 2415 2414 2326 2413 2492
8 2417 2331 2260 2352 2494 2416 2353 2438
8 2350 2259 2352 2436 2419 2332 2417 2496
8 2332 2239 2331 2417 2420 2333 2418 2497
8 2334 2240 2332 2419 2422 2335 2420 2499
8 2420 2333 2421 2500 2335 2241 2336 2423
8 2422 2335 2423 2502 2337 2243 2338 2425
8 2423 2336 2424 2503 2338 2244 2339 2426
8 2425 2338 2426 2505 2342 2246 2341 2429
8 2426 2339 2427 2506 2341 2245 2340 2428
8 2429 2341 2428 2507 2344 2249 2343 2430
8 2432 2346 2284 2374 2509 2431 2373 2455
8 2432 2346 2431 2509 2364 2270 2363 2449
8 2375 2285 2374 2456 2433 2347 2432 2510
8 2347 2433 2365 2271 2432 2510 2450 2364
8 2350 2259 2351 2435 2436 2352 2437 2514
8 2440 2356 2437 2514 2355 2264 2351 2435
8 2352 2260 2354 2437 2438 2353 2439 2516
8 2356 2265 2358 2442 2437 2354 2439 2516
8 2440 2356 2264 2355 2518 2442 2357 2441
8 2519 2443 2357 2441 2447 2361 2268 2362
8 2443 2359 2444 2520 2357 2266 2358 2442
8 2443 2359 2267 2361 2520 2444 2360 2446
8 2446 2360 2279 2370 2523 2445 2369 2452
8 2453 2370 2446 2524 2371 2280 2361 2447
8 2449 2363 2448 2525 2368 2278 2369 2452
8 2366 2277 2364 2450 2451 2368 2449 2526
8 2372 2283 2368 2451 2453 2370 2452 2527
8 2455 2373 2295 2380 2529 2454 2382 2460
8 2456 2374 2292 2378 2530 2455 2380 2458
8 2377 2293 2379 2457 2458 2380 2459 2531
8 2463 2384 2459 2531 2383 2297 2379 2457
8 2533 2461 2382 2460 2459 2381 2295 2380
8 2464 2385 2461 2533 2384 2298 2381 2459
8 2466 2387 2464 2537 2386 2300 2384 2463
8 2467 2388 2465 2538 2387 2301 2385 2464
8 2469 2390 2467 2540 2389 2303 2387 2466
8 2470 2391 2468 2541 2390 2304 2388 2467
8 2472 2393 2470 2543 2392 2306 2390 2469
8 2393 2307 2394 2473 2470 2391 2471 2544
8 2395 2308 2396 2475 2472 2393 2473 2546
8 2396 2309 2397 2476 2473 2394 2474 2547
8 2475 2396 2311 2398 2549 2476 2399 2478
8 2476 2397 2312 2399 2550 2477 2400 2479
8 2478 2399 2314 2403 2552 2479 2402 2483
8 2479 2400 2313 2402 2553 2480 2401 2482
8 2405 2316 2404 2485 2482 2401 2481 2556
8 2406 2317 2405 2486 2483 2402 2482 2557
8 2408 2319 2407 2488 2485 2404 2484 2559
8 2409 2320 2408 2489 2486 2405 2485 2560
8 2411 2322 2410 2490 2488 2407 2487 2561
8 2412 2323 2411 2491 2489 2408 2488 2562
8 2414 2326 2413 2492 2491 2411 2490 2563
8 2513 2434 2493 2565 2438 2353 2416 2494
8 2496 2417 2352 2436 2567 2494 2438 2515
8 2494 2416 2495 2568 2417 2331 2418 2497
8 2419 2332 2417 2496 2499 2420 2497 2570
8 2497 2418 2498 2571 2420 2333 2421 2500
8 2499 2420 2500 2573 2422 2335 2423 2502
8 2500 2421 2501 2574 2423 2336 2424 2503
8 2502 2423 2503 2576 2425 2338 2426 2505
8 2503 2424 2504 2577 2426 2339 2427 2506
8 2505 2426 2506 2578 2429 2341 2428 2507
8 2509 2431 2373 2455 2580 2508 2454 2529
8 2509 2431 2508 2580 2449 2363 2448 2525
8 2432 2510 2581 2509 2374 2456 2530 2455
8 2432 2510 2450 2364 2509 2581 2526 2449
8 2583 2511 2434 2513 2516 2439 2353 2438
8 2436 2352 2437 2514 2515 2438 2516 2588
8 2440 2356 2442 2518 2514 2437 2516 2588
8 2442 2358 2444 2520 2516 2439 2517 2589
8 2519 2443 2520 2591 2441 2357 2442 2518
8 2519 2443 2361 2447 2591 2520 2446 2524
8 2446 2360 2445 2523 2520 2444 2521 2592
8 2525 2448 2522 2593 2452 2369 2445 2523
8 2524 2446 2370 2453 2594 2523 2452 2527
8 2526 2449 2525 2595 2451 2368 2452 2527
8 2534 2462 2528 2597 2460 2382 2454 2529
8 2530 2455 2380 2458 2598 2529 2460 2532
8 2599 2533 2460 2532 2531 2459 2380 2458
8 2537 2464 2533 2599 2463 2384 2459 2531
8 2534 2462 2382 2460 2601 2535 2461 2533
8 2538 2465 2535 2601 2464 2385 2461 2533
8 2540 2467 2538 2604 2466 2387 2464 2537
8 2541 2468 2539 2605 2467 2388 2465 2538
8 2543 2470 2541 2607 2469 2390 2467 2540
8 2470 2391 2471 2544 2541 2468 2542 2608
8 2472 2393 2473 2546 2543 2470 2544 2610
8 2473 2394 2474 2547 2544 2471 2545 2611
8 2475 2396 2476 2549 2546 2473 2547 2613
8 2476 2397 2477 2550 2547 2474 2548 2614
8 2549 2476 2399 2478 2616 2550 2479 2552
8 2479 2400 2480 2553 2550 2477 2551 2617
8 2552 2479 2402 2483 2619 2553 2482 2557
8 2482 2401 2481 2556 2553 2480 2554 2620
8 2485 2404 2484 2559 2556 2481 2555 2623
8 2486 2405 2485 2560 2557 2482 2556 2624
8 2488 2407 2487 2561 2559 2484 2558 2625
8 2489 2408 2488 2562 2560 2485 2559 2626
8 2491 2411 2490 2563 2562 2488 2561 2627
8 2513 2434 2512 2585 2565 2493 2564 2630
8 2586 2513 2565 2632 2515 2438 2494 2567
8 2565 2493 2566 2633 2494 2416 2495 2568
8 2567 2494 2568 2635 2496 2417 2497 2570
8 2568 2495 2569 2636 2497 2418 2498 2571
8 2570 2497 2571 2638 2499 2420 2500 2573
8 2571 2498 2572 2639 2500 2421 2501 2574
8 2573 2500 2574 2641 2502 2423 2503 2576
8 2574 2501 2575 2642 2503 2424 2504 2577
8 2576 2503 2577 2643 2505 2426 2506 2578
8 2597 2528 2579 2645 2529 2454 2508 2580
8 2580 2508 2579 2645 2525 2448 2522 2593
8 2581 2509 2455 2530 2646 2580 2529 2598
8 2581 2509 2580 2646 2526 2449 2525 2595
8 2583 2511 2582 2648 2513 2434 2512 2585
8 2583 2511 2439 2516 2648 2582 2517 2589
8 2649 2583 2513 2586 2588 2516 2438 2515
8 2589 2517 2444 2520 2653 2587 2521 2592
8 2518 2442 2520 2591 2588 2516 2589 2654
8 2593 2522 2590 2655 2523 2445 2521 2592
8 2524 2446 2523 2594 2591 2520 2592 2656
8 2595 2525 2593 2657 2527 2452 2523 2594
8 2602 2536 2596 2659 2534 2462 2528 2597
8 2600 2534 2597 2660 2532 2460 2529 2598
8 2600 2534 2460 2532 2661 2601 2533 2599
8 2604 2538 2601 2661 2537 2464 2533 2599
8 2602 2536 2462 2534 2663 2603 2535 2601
8 2601 2535 2465 2538 2663 2603 2539 2605
8 2607 2541 2605 2665 2540 2467 2538 2604
8 2608 2542 2606 2666 2541 2468 2539 2605
8 2543 2470 2544 2610 2607 2541 2608 2668
8 2544 2471 2545 2611 2608 2542 2609 2669
8 2546 2473 2547 2613 2610 2544 2611 2671
8 2547 2474 2548 2614 2611 2545 2612 2672
8 2549 2476 2550 2616 2613 2547 2614 2674
8 2550 2477 2551 2617 2614 2548 2615 2675
8 2552 2479 2553 2619 2616 2550 2617 2677
8 2553 2480 2554 2620 2617 2551 2618 2678
8 2557 2482 2556 2624 2619 2553 2620 2680
8 2556 2481 2555 2623 2620 2554 2621 2681
8 2559 2484 2558 2625 2623 2555 2622 2683
8 2560 2485 2559 2626 2624 2556 2623 2684
8 2562 2488 2561 2627 2626 2559 2625 2685
8 2690 2629 2564 2630 2650 2584 2512 2585
8 2586 2513 2585 2651 2632 2565 2630 2691
8 2630 2564 2631 2692 2565 2493 2566 2633
8 2632 2565 2633 2694 2567 2494 2568 2635
8 2633 2566 2634 2695 2568 2495 2569 2636
8 2635 2568 2636 2697 2570 2497 2571 2638
8 2636 2569 2637 2698 2571 2498 2572 2639
8 2638 2571 2639 2700 2573 2500 2574 2641
8 2639 2572 2640 2701 2574 2501 2575 2642
8 2641 2574 2642 2702 2576 2503 2577 2643
8 2597 2528 2596 2659 2645 2579 2644 2704
8 2645 2579 2644 2704 2593 2522 2590 2655
8 2660 2597 2645 2705 2598 2529 2580 2646
8 2646 2580 2645 2705 2595 2525 2593 2657
8 2650 2584 2512 2585 2707 2647 2582 2648
8 2648 2582 2517 2589 2707 2647 2587 2653
8 2649 2583 2648 2708 2586 2513 2585 2651
8 2649 2583 2516 2588 2708 2648 2589 2654
8 2655 2590 2652 2710 2592 2521 2587 2653
8 2654 2589 2520 2591 2711 2653 2592 2656
8 2657 2593 2655 2712 2594 2523 2592 2656
8 2602 2536 2603 2663 2659 2596 2658 2714
8 2662 2602 2659 2715 2600 2534 2597 2660
8 2662 2602 2534 2600 2717 2663 2601 2661
8 2661 2601 2538 2604 2717 2663 2605 2665
8 2666 2606 2664 2718 2605 2539 2603 2663
8 2668 2608 2666 2720 2607 2541 2605 2665
8 2608 2542 2609 2669 2666 2606 2667 2721
8 2610 2544 2611 2671 2668 2608 2669 2723
8 2611 2545 2612 2672 2669 2609 2670 2724
8 2613 2547 2614 2674 2671 2611 2672 2726
8 2614 2548 2615 2675 2672 2612 2673 2727
8 2616 2550 2617 2677 2674 2614 2675 2729
8 2617 2551 2618 2678 2675 2615 2676 2730
8 2619 2553 2620 2680 2677 2617 2678 2732
8 2620 2554 2621 2681 2678 2618 2679 2733
8 2624 2556 2623 2684 2680 2620 2681 2735
8 2681 2621 2555 2623 2736 2682 2622 2683
8 2626 2559 2625 2685 2684 2623 2683 2737
8 2688 2628 2584 2650 2740 2686 2647 2707
8 2688 2628 2687 2742 2650 2584 2629 2690
8 2690 2629 2689 2745 2630 2564 2631 2692
8 2746 2690 2630 2691 2709 2650 2585 2651
8 2691 2630 2692 2747 2632 2565 2633 2694
8 2692 2631 2693 2748 2633 2566 2634 2695
8 2694 2633 2695 2750 2635 2568 2636 2697
8 2695 2634 2696 2751 2636 2569 2637 2698
8 2697 2636 2698 2753 2638 2571 2639 2700
8 2698 2637 2699 2754 2639 2572 2640 2701
8 2700 2639 2701 2755 2641 2574 2642 2702
8 2659 2596 2658 2714 2704 2644 2703 2757
8 2704 2644 2703 2757 2655 2590 2652 2710
8 2660 2597 2659 2715 2705 2645 2704 2758
8 2705 2645 2704 2758 2657 2593 2655 2712
8 2759 2706 2647 2707 2710 2652 2587 2653
8 2709 2650 2585 2651 2760 2707 2648 2708
8 2708 2648 2589 2654 2760 2707 2653 2711
8 2712 2655 2710 2761 2656 2592 2653 2711
8 2763 2713 2658 2714 2718 2664 2603 2663
8 2662 2602 2663 2717 2715 2659 2714 2764
8 2720 2666 2718 2767 2665 2605 2663 2717
8 2768 2719 2664 2718 2721 2667 2606 2666
8 2668 2608 2669 2723 2720 2666 2721 2770
8 2669 2609 2670 2724 2721 2667 2722 2771
8 2671 2611 2672 2726 2723 2669 2724 2773
8 2672 2612 2673 2727 2724 2670 2725 2774
8 2674 2614 2675 2729 2726 2672 2727 2776
8 2675 2615 2676 2730 2727 2673 2728 2777
8 2677 2617 2678 2732 2729 2675 2730 2779
8 2678 2618 2679 2733 2730 2676 2731 2780
8 2680 2620 2681 2735 2732 2678 2733 2782
8 2733 2679 2621 2681 2783 2734 2682 2736
8 2735 2681 2623 2684 2784 2736 2683 2737
8 2740 2686 2647 2707 2787 2738 2706 2759
8 2688 2628 2686 2740 2742 2687 2739 2789
8 2743 2688 2650 2709 2790 2740 2707 2760
8 2742 2687 2741 2792 2690 2629 2689 2745
8 2743 2688 2742 2793 2709 2650 2690 2746
8 2745 2689 2744 2795 2692 2631 2693 2748
8 2746 2690 2745 2796 2691 2630 2692 2747
8 2747 2692 2748 2797 2694 2633 2695 2750
8 2748 2693 2749 2798 2695 2634 2696 2751
8 2750 2695 2751 2800 2697 2636 2698 2753
8 2751 2696 2752 2801 2698 2637 2699 2754
8 2753 2698 2754 2802 2700 2639 2701 2755
8 2763 2713 2756 2804 2714 2658 2703 2757
8 2759 2706 2652 2710 2804 2756 2703 2757
8 2715 2659 2714 2764 2758 2704 2757 2805
8 2758 2704 2757 2805 2712 2655 2710 2761
8 2806 2759 2707 2760 2761 2710 2653 2711
8 2765 2716 2762 2808 2718 2664 2713 2763
8 2809 2763 2714 2764 2767 2718 2663 2717
8 2765 2716 2664 2718 2811 2766 2719 2768
8 2813 2768 2718 2767 2770 2721 2666 2720
8 2814 2769 2719 2768 2771 2722 2667 2721
8 2723 2669 2724 2773 2770 2721 2771 2816
8 2724 2670 2725 2774 2771 2722 2772 2817
8 2726 2672 2727 2776 2773 2724 2774 2819
8 2727 2673 2728 2777 2774 2725 2775 2820
8 2729 2675 2730 2779 2776 2727 2777 2822
8 2730 2676 2731 2780 2777 2728 2778 2823
8 2732 2678 2733 2782 2779 2730 2780 2825
8 2780 2731 2679 2733 2826 2781 2734 2783
8 2782 2733 2681 2735 2827 2783 2736 2784
8 2830 2785 2738 2787 2804 2756 2706 2759
8 2789 2739 2686 2740 2832 2786 2738 2787
8 2790 2740 2707 2760 2833 2787 2759 2806
8 2742 2687 2739 2789 2792 2741 2788 2835
8 2743 2688 2740 2790 2793 2742 2789 2836
8 2792 2741 2791 2838 2745 2689 2744 2795
8 2793 2742 2792 2839 2746 2690 2745 2796
8 2795 2744 2794 2841 2748 2693 2749 2798
8 2796 2745 2795 2842 2747 2692 2748 2797
8 2797 2748 2798 2843 2750 2695 2751 2800
8 2798 2749 2799 2844 2751 2696 2752 2801
8 2800 2751 2801 2845 2753 2698 2754 2802
8 2808 2762 2803 2847 2763 2713 2756 2804
8 2809 2763 2804 2848 2764 2714 2757 2805
8 2806 2759 2710 2761 2848 2804 2757 2805
8 2765 2716 2766 2811 2808 2762 2807 2850
8 2810 2765 2808 2851 2767 2718 2763 2809
8 2810 2765 2718 2767 2852 2811 2768 2813
8 2811 2766 2719 2768 2853 2812 2769 2814
8 2855 2814 2768 2813 2816 2771 2721 2770
8 2856 2815 2769 2814 2817 2772 2722 2771
8 2773 2724 2774 2819 2816 2771 2817 2858
8 2774 2725 2775 2820 2817 2772 2818 2859
8 2776 2727 2777 2822 2819 2774 2820 2861
8 2777 2728 2778 2823 2820 2775 2821 2862
8 2779 2730 2780 2825 2822 2777 2823 2864
8 2823 2778 2731 2780 2865 2824 2781 2826
8 2825 2780 2733 2782 2866 2826 2783 2827
8 2869 2828 2785 2830 2847 2803 2756 2804
8 2871 2829 2786 2832 2830 2785 2738 2787
8 2872 2830 2787 2833 2848 2804 2759 2806
8 2789 2739 2786 2832 2835 2788 2831 2874
8 2836 2789 2740 2790 2875 2832 2787 2833
8 2792 2741 2788 2835 2838 2791 2834 2877
8 2793 2742 2789 2836 2839 2792 2835 2878
8 2838 2791 2837 2880 2795 2744 2794 2841
8 2839 2792 2838 2881 2796 2745 2795 2842
8 2841 2794 2840 2882 2798 2749 2799 2844
8 2842 2795 2841 2883 2797 2748 2798 2843
8 2843 2798 2844 2884 2800 2751 2801 2845
8 2886 2846 2803 2847 2850 2807 2762 2808
8 2851 2808 2847 2887 2809 2763 2804 2848
8 2850 2807 2766 2811 2889 2849 2812 2853
8 2810 2765 2811 2852 2851 2808 2850 2890
8 2852 2811 2768 2813 2891 2853 2814 2855
8 2853 2812 2769 2814 2892 2854 2815 2856
8 2894 2856 2814 2855 2858 2817 2771 2816
8 2817 2772 2818 2859 2856 2815 2857 2895
8 2819 2774 2820 2861 2858 2817 2859 2897
8 2820 2775 2821 2862 2859 2818 2860 2898
8 2822 2777 2823 2864 2861 2820 2862 2900
8 2823 2778 2824 2865 2862 2821 2863 2901
8 2864 2823 2780 2825 2902 2865 2826 2866
8 2904 2867 2828 2869 2886 2846 2803 2847
8 2869 2828 2868 2906 2830 2785 2829 2871
8 2907 2869 2830 2872 2887 2847 2804 2848
8 2871 2829 2870 2909 2832 2786 2831 2874
8 2910 2871 2832 2875 2872 2830 2787 2833
8 2835 2788 2831 2874 2877 2834 2873 2912
8 2836 2789 2832 2875 2878 2835 2874 2913
8 2877 2834 2876 2915 2838 2791 2837 2880
8 2839 2792 2835 2878 2881 2838 2877 2916
8 2880 2837 2879 2917 2841 2794 2840 2882
8 2881 2838 2880 2918 2842 2795 2841 2883
8 2883 2841 2882 2919 2843 2798 2844 2884
8 2921 2885 2846 2886 2889 2849 2807 2850
8 2922 2886 2847 2887 2890 2850 2808 2851
8 2889 2849 2812 2853 2924 2888 2854 2892
8 2890 2850 2811 2852 2925 2889 2853 2891
8 2891 2853 2814 2855 2926 2892 2856 2894
8 2892 2854 2815 2856 2927 2893 2857 2895
8 2858 2817 2859 2897 2894 2856 2895 2929
8 2859 2818 2860 2898 2895 2857 2896 2930
8 2861 2820 2862 2900 2897 2859 2898 2932
8 2862 2821 2863 2901 2898 2860 2899 2933
8 2864 2823 2865 2902 2900 2862 2901 2934
8 2904 2867 2846 2886 2936 2903 2885 2921
8 2904 2867 2903 2936 2869 2828 2868 2906
8 2937 2904 2869 2907 2922 2886 2847 2887
8 2906 2868 2905 2939 2871 2829 2870 2909
8 2907 2869 2906 2940 2872 2830 2871 2910
8 2909 2870 2908 2942 2874 2831 2873 2912
8 2910 2871 2909 2943 2875 2832 2874 2913
8 2912 2873 2911 2945 2877 2834 2876 2915
8 2878 2835 2874 2913 2916 2877 2912 2946
8 2915 2876 2914 2947 2880 2837 2879 2917
8 2916 2877 2915 2948 2881 2838 2880 2918
8 2918 2880 2917 2949 2883 2841 2882 2919
8 2921 2885 2849 2889 2951 2920 2888 2924
8 2952 2921 2886 2922 2925 2889 2850 2890
8 2924 2888 2854 2892 2954 2923 2893 2927
8 2925 2889 2853 2891 2955 2924 2892 2926
8 2926 2892 2856 2894 2956 2927 2895 2929
8 2895 2857 2896 2930 2927 2893 2928 2957
8 2897 2859 2898 2932 2929 2895 2930 2959
8 2898 2860 2899 2933 2930 2896 2931 2960
8 2900 2862 2901 2934 2932 2898 2933 2961
8 2936 2903 2885 2921 2963 2935 2920 2951
8 2936 2903 2935 2963 2906 2868 2905 2939
8 2937 2904 2886 2922 2964 2936 2921 2952
8 2937 2904 2936 2964 2907 2869 2906 2940
8 2939 2905 2938 2966 2909 2870 2908 2942
8 2940 2906 2939 2967 2910 2871 2909 2943
8 2942 2908 2941 2969 2912 2873 2911 2945
8 2943 2909 2942 2970 2913 2874 2912 2946
8 2945 2911 2944 2971 2915 2876 2914 2947
8 2946 2912 2945 2972 2916 2877 2915 2948
8 2948 2915 2947 2973 2918 2880 2917 2949
8 2951 2920 2888 2924 2975 2950 2923 2954
8 2952 2921 2889 2925 2976 2951 2924 2955
8 2927 2893 2928 2957 2954 2923 2953 2978
8 2955 2924 2892 2926 2979 2954 2927 2956
8 2929 2895 2930 2959 2956 2927 2957 2980
8 2930 2896 2931 2960 2957 2928 2958 2981
8 2932 2898 2933 2961 2959 2930 2960 2982
8 2951 2920 2950 2975 2963 2935 2962 2984
8 2963 2935 2962 2984 2939 2905 2938 2966
8 2964 2936 2921 2952 2985 2963 2951 2976
8 2964 2936 2963 2985 2940 2906 2939 2967
8 2966 2938 2965 2987 2942 2908 2941 2969
8 2967 2939 2966 2988 2943 2909 2942 2970
8 2969 2941 2968 2989 2945 2911 2944 2971
8 2970 2942 2969 2990 2946 2912 2945 2972
8 2972 2945 2971 2991 2948 2915 2947 2973
8 2954 2923 2953 2978 2975 2950 2974 2993
8 2976 2951 2924 2955 2994 2975 2954 2979
8 2957 2928 2958 2981 2978 2953 2977 2995
8 2956 2927 2957 2980 2979 2954 2978 2996
8 2959 2930 2960 2982 2980 2957 2981 2997
8 2984 2962 2983 2999 2966 2938 2965 2987
8 2975 2950 2974 2993 2984 2962 2983 2999
8 2976 2951 2975 2994 2985 2963 2984 3000
8 2985 2963 2984 3000 2967 2939 2966 2988
8 2987 2965 2986 3001 2969 2941 2968 2989
8 2988 2966 2987 3002 2970 2942 2969 2990
8 2990 2969 2989 3003 2972 2945 2971 2991
8 2978 2953 2977 2995 2993 2974 2992 3004
8 2979 2954 2978 2996 2994 2975 2993 3005
8 2980 2957 2981 2997 2996 2978 2995 3006
8 2974 2993 2999 2983 2992 3004 3007 2998
8 2983 2999 2987 2965 2998 3007 3001 2986
8 3000 2984 2999 3008 2988 2966 2987 3002
8 2994 2975 2993 3005 3000 2984 2999 3008
8 3002 2987 3001 3009 2990 2969 2989 3003
8 2996 2978 2995 3006 3005 2993 3004 3010
8 3005 2993 3004 3010 3008 2999 3007 3011
8 3008 2999 3007 3011 3002 2987 3001 3009

CELL_TYPES 1910
12
12
12
12
12
12
12
12
12
12
12
12
12
12
12
12
12
12
12
12
12
12
12
12
12
12
12
12
12
12
12
12
12
12
12
12
12
12
12
12
12
12
12
12
12
12
12
12
12
12
12
12
12
12
12
12
12
12
12
12
12
12
12
12
12
12
12
12
12
12
12
12
12
12
12
12
12
12
12
12
12
12
12
12
12
12
12
12
12
12
12
12
12
12
12
12
12
12
12
12
12
12
12
12
12
12
12
12
12
12
12
12
12
12
12
12
12
12
12
12
12
12
12
12
12
12
12
12
12
12
12
12
12
12
12
12
12
12
12
12
12
12
12
12
12
12
12
12
12
12
12
12
12
12
12
12
12
12
12
12
12
12
12
12
12
12
12
12
12
12
12
12
12
12
12
12
12
12
12
12
12
12
12
12
12
12
12
12
12
12
12
12
12
12
12
12
12
12
12
12
12
12
12
12
12
12
12
12
12
12
12
12
12
12
12
12
12
12
12
12
12
12
12
12
12
12
12
12
12
12
12
12
12
12
12
12
12
12
12
12
12
12
12
12
12
12
12
12
12
12
12
12
12
12
12
12
12
12
12
12
12
12
12
12
12
12
12
12
12
12
12
12
12
12
12
12
12
12
12
12
12
12
12
12
12
12
12
12
12
12
12
12
12
12
12
12
12
12
12
12
12
12
12
12
12
12
12
12
12
12
12
12
12
12
12
12
12
12
12
12
12
12
12
12
12
12
12
12
12
12
12
12
12
12
12
12
12
12
12
12
12
12
12
12
12
12
12
12
12
12
12
12
12
12
12
12
12
12
12
12
12
12
12
12
12
12
12
12
12
12
12
12
12
12
12
12
12
12
12
12
12
12
12
12
12
12
12
12
12
12
12
12
12
12
12
12
12
12
12
12
12
12
12
12
12
12
12
12
12
12
12
12
12
12
12
12
12
12
12
12
12
12
12
12
12
12
12
12
12
12
12
12
12
12
12
12
12
12
12
12
12
12
12
12
12
12
12
12
12
12
12
12
12
12
12
12
12
12
12
12
12
12
12
12
12
12
12
12
12
12
12
12
12
12
12
12
12
12
12
12
12
12
12
12
12
12
12
12
12
12
12
12
12
12
12
12
12
12
12
12
12
12
12
12
12
12
12
12
12
12
12
12
12
12
12
12
12
12
12
12
12
12
12
12
12
12
12
12
12
12
12
12
12
12
12
12
12
12
12
12
12
12
12
12
12
12
12
12
12
12
12
12
12
12
12
12
12
12
12
12
12
12
12
12
12
12
12
12
12
12
12
12
12
12
12
12
12
12
12
12
12
12
12
12
12
12
12
12
12
12
12
12
12
12
12
12
12
12
12
12
12
12
12
12
12
12
12
12
12
12
12
12
12
12
12
12
12
12
12
12
12
12
12
12
12
12
12
12
12
12
12
12
12
12
12
12
12
12
12
12
12
12
12
12
12
12
12
12
12
12
12
12
12
12
12
12
12
12
12
12
12
12
12
12
12
12
12
12
12
12
12
12
12
12
12
12
12
12
12
12
12
12
12
12
12
12
12
12
12
12
12
12
12
12
12
12
12
12
12
12
12
12
12
12
12
12
12
12
12
12
12
12
12
12
12
12
12
12
12
12
12
12
12
12
12
12
12
12
12
12
12
12
12
12
12
12
12
12
12
12
12
12
12
12
12
12
12
12
12
12
12
12
12
12
12
12
12
12
12
12
12
12
12
12
12
12
12
12
12
12
12
12
12
12
12
12
12
12
12
12
12
12
12
12
12
12
12
12
12
12
12
12
12
12
12
12
12
12
12
12
12
12
12
12
12
12
12
12
12
12
12
12
12
12
12
12
12
12
12
12
12
12
12
12
12
12
12
12
12
12
12
12
12
12
12
12
12
12
12
12
12
12
12
12
12
12
12
12
12
12
12
12
12
12
12
12
12
12
12
12
12
12
12
12
12
12
12
12
12
12
12
12
12
12
12
12
12
12
12
12
12
12
12
12
12
12
12
12
12
12
12
12
12
12
12
12
12
12
12
12
12
12
12
12
12
12
12
12
12
12
12
12
12
12
12
12
12
12
12
12
12
12
12
12
12
12
12
12
12
12
12
12
12
12
12
12
12
12
12
12
12
12
12
12
12
12
12
12
12
12
12
12
12
12
12
12
12
12
12
12
12
12
12
12
12
12
12
12
12
12
12
12
12
12
12
12
12
12
12
12
12
12
12
12
12
12
12
12
12
12
12
12
12
12
12
12
12
12
12
12
12
12
12
12
12
12
12
12
12
12
12
12
12
12
12
12
12
12
12
12
12
12
12
12
12
12
12
12
12
12
12
12
12
12
12
12
12
12
12
12
12
12
12
12
12
12
12
12
12
12
12
12
12
12
12
12
12
12
12
12
12
12
12
12
12
12
12
12
12
12
12
12
12
12
12
12
12
12
12
12
12
12
12
12
12
12
12
12
12
12
12
12
12
12
12
12
12
12
12
12
12
12
12
12
12
12
12
12
12
12
12
12
12
12
12
12
12
12
12
12
12
12
12
12
12
12
12
12
12
12
12
12
12
12
12
12
12
12
12
12
12
12
12
12
12
12
12
12
12
12
12
12
12
12
12
12
12
12
12
12
12
12
12
12
12
12
12
12
12
12
12
12
12
12
12
12
12
12
12
12
12
12
12
12
12
12
12
12
12
12
12
12
12
12
12
12
12
12
12
12
12
12
12
12
12
12
12
12
12
12
12
12
12
12
12
12
12
12
12
12
12
12
12
12
12
12
12
12
12
12
12
12
12
12
12
12
12
12
12
12
12
12
12
12
12
12
12
12
12
12
12
12
12
12
12
12
12
12
12
12
12
12
12
12
12
12
12
12
12
12
12
12
12
12
12
12
12
12
12
12
12
12
12
12
12
12
12
12
12
12
12
12
12
12
12
12
12
12
12
12
12
12
12
12
12
12
12
12
12
12
12
12
12
12
12
12
12
12
12
12
12
12
12
12
12
12
12
12
12
12
12
12
12
12
12
12
12
12
12
12
12
12
12
12
12
12
12
12
12
12
12
12
12
12
12
12
12
12
12
12
12
12
12
12
12
12
12
12
12
12
12
12
12
12
12
12
12
12
12
12
12
12
12
12
12
12
12
12
12
12
12
12
12
12
12
12
12
12
12
12
12
12
12
12
12
12
12
12
12
12
12
12
12
12
12
12
12
12
12
12
12
12
12
12
12
12
12
12
12
12
12
12
12
12
12
12
12
12
12
12
12
12
12
12
12
12
12
12
12
12
12
12
12
12
12
12
12
12
12
12
12
12
12
12
12
12
12
12
12
12
12
12
12
12
12
12
12
12
12
12
12
12
12
12
12
12
12
12
12
12
12
12
12
12
12
12
12
12
12
12
12
12
12
12
12
12
12
12
12
12
12
12
12
12
12
12
12
12
12
12
12
12
12
12
12
12
12
12
12
12
12
12
12
12
12
12
12
12
12
12
12
12
12
12
12
12
12
12
12
12
12
12
12
12
12
12
12
12
12
12
12
12
12
12
12
12
12
12
12
12
12
12
12
12
12
12
12
12
12
12
12
12
12
12
12
12
12
12
12
12
12
12
12
12
12
12
12
12
12
12
12
12
12
12
12
12
12
12
12
12
12
12
12
12
12
12
12
12
12
12
12
12
12
12
12
12
12
12
12
12
12
12
12
12
12
12
12
12
12
12
12
12
12
12
12
12
12
12
12
12
12
12
12
12
12
12
12
12
12
12
12
12
12
12
12
12
12
12
12
12
12
12
12
12
12
12
12
12
12
12
12
12
12
12
12
12
12
12
12
12
12
12
12
12
12
12
12
12
12
12
12
12
12
12
12
12
12
12
12
12
12
12
12
12
12
12
12
12
12
12
12
12
12
12
12
12
12
12
12
12
12
12
12
12
12
12
12
12
12
12
12
12
12
12
12
12
12
12
12
12
12
12
12
12
12
12
12
12
12
12
12
12
12
12
12
12
12
12
12
12
12
12
12
12
12
12
12
12
12
12
12
12
12
12
12
12
12
12
12
12
12
12
12
12
12
12
12
12
12
12
12
12
12
12
12
12
12
12
12
12
12
12
12
12
12
12
12
12
12
12
12
12
12
12
12
12
12
12
12
12
12
12
12
12
12
12
12
12
12
12
12
12
12
12
12
12
12
12
12
12
12
12
12
12
12
12
12
12
12
12
12
12
12
12
12
12
12
12
12
12
12
12
12
12
12
12
12
12
12
12
12
12
12
12
12
12
12
12
12
12
12
12
12
12
12
12
12
12
12
12
12
12
12
12
12
12
12
12
12
12

POINT_DATA 3012
SCALARS Jp_lamdaP float 4
LOOKUP_TABLE default
0.999918 1 1 0.999918
1 1 1 1
0.999921 1 1 0.999921
0.999885 1 1 0.999885
0.999916 1 1 0.999916
0.99992 1 1 0.99992
0.999523 1 1 0.999523
1 1 1 1
1 1 1 1
1 1 1 1
0.999981 1 1 0.999981
0.999694 1 1 0.999694
0.999844 1 1 0.999844
0.999876 1 1 0.999876
0.999921 1 1 0.999921
0.999895 1 1 0.999895
0.999924 1 1 0.999924
0.999922 1 1 0.999922
0.999526 1 1 0.999526
1 1 1 1
0.999869 1 1 0.999869
0.999903 1 1 0.999903
0.999402 1 1 0.999402
0.99949 1 1 0.99949
0.999944 1 1 0.999944
0.999564 1 1 0.999564
0.998888 1 1 0.998888
1 1 1 1
0.999949 1 1 0.999949
0.999962 1 1 0.999962
1 1 1 1
0.999703 1 1 0.999703
0.999894 1 1 0.999894
0.999915 1 1 0.999915
0.999584 1 1 0.999584
1 1 1 1
0.999674 1 1 0.999674
0.999777 1 1 0.999777
0.998972 1 1 0.998972
1 1 1 1
1 1 1 1
0.999936 1 1 0.999936
1 1 1 1
0.999866 1 1 0.999866
0.999338 1 1 0.999338
1 1 1 1
0.999501 1 1 0.999501
0.999904 1 1 0.999904
0.999925 1 1 0.999925
0.999927 1 1 0.999927
0.999531 1 1 0.999531
0.999921 1 1 0.999921
0.99988 1 1 0.99988
0.999951 1 1 0.999951
0.999912 1 1 0.999912
0.999403 1 1 0.999403
0.999569 1 1 0.999569
0.999493 1 1 0.999493
0.998874 1 1 0.998874
1 1 1 1
0.999855 1 1 0.999855
0.999458 1 1 0.999458
0.99937 1 1 0.99937
0.999446 1 1 0.999446
0.9986 1 1 0.9986
0.998736 1 1 0.998736
0.99998 1 1 0.99998
0.999677 1 1 0.999677
0.998998 1 1 0.998998
0.998885 1.00061 1 0.998277
1 1 1 1
1 1 1 1
1 1 1 1
0.999711 1 1 0.999711
1 1 1 1
1 1 1 1
0.999538 1 1 0.999538
0.999998 1 1 0.999998
0.999645 1 1 0.999645
0.999804 1 1 0.999804
0.998969 1 1 0.998969
1 1 1 1
0.999987 1 1 0.999987
0.999486 1 1 0.999486
0.999575 1 1 0.999575
0.998573 1 1 0.998573
0.999885 1 1 0.999885
0.998871 1 1 0.998871
0.99909 1 1 0.99909
0.99853 1 1 0.99853
1 1 1 1
1 1 1 1
1 1 1 1
1 1 1 1
1 1 1 1
0.999929 1 1 0.999929
0.999396 1 1 0.999396
0.999941 1 1 0.999941
0.999474 1 1 0.999474
1 1 1 1
0.999314 1 1 0.999314
0.99947 1 1 0.99947
0.998259 1 1 0.998259
0.999531 1 1 0.999531
0.99836 1 1 0.99836
0.999859 1 1 0.999859
0.99989 1 1 0.99989
0.999959 1 1 0.999959
0.999918 1 1 0.999918
0.999405 1 1 0.999405
0.999497 1 1 0.999497
0.999574 1 1 0.999574
0.998859 1 1 0.998859
1 1 1 1
0.999866 1 1 0.999866
0.999339 1 1 0.999339
0.99937 1 1 0.99937
0.99999 1 1 0.99999
0.999719 1 1 0.999719
0.999448 1 1 0.999448
0.998565 1 1 0.998565
0.998979 1 1 0.998979
0.99876 1 1 0.99876
0.999098 1.00082 1 0.99828
0.999334 1 1 0.999334
0.999344 1 1 0.999344
0.998388 1 1 0.998388
0.998493 1 1 0.998493
0.998621 1 1 0.998621
1.00184 1.0038 1 0.998044
1 1 1 1
0.999623 1.00143 1 0.9982
0.999858 1 1 0.999858
0.999065 1 1 0.999065
0.998569 1.00021 1 0.998355
1.00317 1.00513 1 0.998045
0.999948 1 1 0.999948
0.999448 1 1 0.999448
1 1 1 1
1 1 1 1
0.999544 1 1 0.999544
1 1 1 1
0.999815 1 1 0.999815
0.999649 1 1 0.999649
0.998967 1 1 0.998967
1 1 1 1
0.999992 1 1 0.999992
0.999524 1 1 0.999524
0.999611 1 1 0.999611
0.998576 1 1 0.998576
0.999904 1 1 0.999904
0.998874 1 1 0.998874
0.99909 1 1 0.99909
0.998515 1 1 0.998515
0.99995 1 1 0.99995
0.999999 1 1 0.999999
0.99958 1 1 0.99958
0.998464 1 1 0.998464
0.998727 1 1 0.998727
1.00141 1.00333 1 0.998083
0.999248 1 1 0.999248
0.998732 1.00032 1 0.998415
0.999145 1 1.00052 0.998622
0.998374 1 1 0.998374
1 1 1 1
1 1 1 1
1 1 1 1
0.999973 1 1 0.999973
1 1 1 1
1 1 1 1
1 1 1 1
0.999443 1 1 0.999443
0.99936 1 1 0.99936
1 1 1 1
1 1 1 1
0.999316 1 1 0.999316
0.999442 1 1 0.999442
0.998259 1 1 0.998259
0.999469 1 1 0.999469
0.99836 1 1 0.99836
0.999304 1 1 0.999304
0.998202 1 1 0.998202
0.998319 1 1 0.998319
1.00469 1.00688 1 0.997825
0.9984 1 1 0.9984
1.00397 1.00606 1 0.99792
1 1 1 1
0.999877 1 1 0.999877
0.999211 1 1 0.999211
0.999371 1 1 0.999371
1 1 1 1
0.999761 1 1 0.999761
0.999452 1 1 0.999452
0.99853 1 1 0.99853
0.998785 1 1 0.998785
0.998959 1 1 0.998959
0.999316 1.00104 1 0.998283
0.999331 1 1 0.999331
0.999343 1 1 0.999343
0.998314 1 1 0.998314
0.998519 1 1 0.998519
1 1 1 1
0.999846 1 1 0.999846
0.9991 1 1 0.9991
0.998622 1 1 0.998622
1.00186 1.00386 1 0.998006
0.998677 1.00033 1 0.998347
0.999918 1.0017 1 0.998224
1.00294 1.0049 1 0.998049
0.99994 1 1 0.99994
0.999449 1 1 0.999449
0.99822 1 1 0.99822
0.998446 1 1 0.998446
1.00338 1.00547 1 0.997916
1.00221 1.0043 1 0.997921
1.00049 1.00236 1 0.998137
1.00913 1.01127 1 0.997886
0.999912 1 1 0.999912
1.00446 1.00647 1 0.998001
0.999191 1 1 0.999191
0.998775 1.00027 1 0.998504
1.00231 1.00421 1 0.998112
1.00774 1.00975 1 0.998005
0.999337 1 1 0.999337
0.999588 1 1 0.999588
0.998991 1 1 0.998991
0.999502 1 1 0.999502
1 1 1 1
0.999996 1 1 0.999996
0.999599 1 1 0.999599
0.998578 1 1 0.998578
0.999917 1 1 0.999917
0.99909 1 1 0.99909
0.998876 1 1 0.998876
0.998501 1 1 0.998501
0.999963 1 1 0.999963
1 1 1 1
0.999582 1 1 0.999582
0.998465 1 1 0.998465
0.998731 1 1 0.998731
1.00088 1.00281 1 0.998081
0.99925 1 1 0.99925
0.99864 1.00021 1 0.998426
0.998933 1 1.00031 0.998619
0.998441 1.00008 1 0.998362
1 1 1 1
0.999406 1 1 0.999406
0.999746 1 1 0.999746
0.999127 1 1 0.999127
1.00285 1.00487 1 0.997988
0.999866 1.00161 1 0.998256
1.00679 1.00893 1 0.997874
0.999239 1 1.00044 0.998802
1.00034 1.00209 1 0.99825
0.99992 1 1.00158 0.998345
1.00006 1.00183 1 0.998237
0.999922 1 1 0.999922
1 1 1 1
1 1 1 1
1 1 1 1
1 1 1 1
0.999989 1 1 0.999989
1 1 1 1
0.999966 1 1 0.999966
1 1 1 1
0.99947 1 1 0.99947
0.999407 1 1 0.999407
0.99836 1 1 0.99836
0.998259 1 1 0.998259
0.999318 1 1 0.999318
1 1 1 1
0.999303 1 1 0.999303
0.998202 1 1 0.998202
0.998319 1 1 0.998319
1.0046 1.00679 1 0.997824
0.998399 1 1 0.998399
1.00399 1.00608 1 0.997919
0.998191 1 1 0.998191
1.00462 1.00686 1 0.997772
1.00433 1.00647 1 0.99788
1.01569 1.01796 1 0.997773
1.00376 1.00582 1 0.997948
1.0138 1.01601 1 0.997831
0.999328 1 1 0.999328
0.999343 1 1 0.999343
0.99824 1 1 0.99824
0.998544 1 1 0.998544
1 1 1 1
0.999834 1 1 0.999834
0.999134 1 1 0.999134
0.998622 1 1 0.998622
1.00188 1.00392 1 0.997968
1.00021 1.00197 1 0.998248
0.998772 1.00043 1 0.998339
1.00277 1.00473 1 0.998054
0.999932 1 1 0.999932
0.999449 1 1 0.999449
0.998197 1 1 0.998197
0.998444 1 1 0.998444
1.00356 1.00567 1 0.997906
1.00243 1.00448 1 0.997959
0.999903 1 1 0.999903
0.999188 1 1 0.999188
0.998754 1.00022 1 0.998536
1.00069 1.00256 1 0.998138
1.00946 1.0116 1 0.997885
1.00201 1.00394 1 0.99808
1.00458 1.00659 1 0.998003
1.00801 1.01002 1 0.998005
0.99934 1 1 0.99934
0.999143 1 1.00015 0.99899
0.999585 1 1 0.999585
1.00392 1.00608 1 0.997855
1.00359 1.00566 1 0.997939
1.01398 1.01625 1 0.997771
1.01121 1.01342 1 0.997819
1.00657 1.00864 1 0.997949
1.01458 1.01666 1 0.997954
0.999275 1 1 0.999275
1.00988 1.0119 1 0.997999
0.998775 1 1 0.998775
0.999091 1.00093 1 0.99816
1.00576 1.00783 1 0.997937
1.01074 1.01266 1 0.998102
0.9997 1 1 0.9997
0.998973 1 1 0.998973
0.99916 1 1.0001 0.999058
0.998986 1 1.00015 0.998835
0.998465 1 1 0.998465
1 1 1 1
0.999975 1 1 0.999975
0.999584 1 1 0.999584
0.998736 1 1 0.998736
1.00035 1.00227 1 0.99808
0.999251 1 1 0.999251
0.998751 1 1.00014 0.998616
0.998493 1.00006 1 0.998436
0.998465 1.00012 1 0.99835
1 1 1 1
0.999406 1 1 0.999406
0.999752 1 1 0.999752
0.999124 1 1 0.999124
1.00244 1.00446 1 0.997985
0.999399 1.00114 1 0.998258
1.00679 1.00894 1 0.997873
0.999135 1 1.00033 0.998806
0.999735 1.00147 1 0.998263
1.00012 1.00006 1.00173 0.998334
0.999637 1.00133 1 0.998307
1 1 1 1
0.999845 1 1 0.999845
0.998977 1 1 0.998977
0.999293 1 1 0.999293
0.999154 1 1.00028 0.998876
1.00928 1.01148 1 0.997824
1.00357 1.00554 1 0.998048
1.00956 1.01174 1 0.997846
1.00047 1 1.00199 0.99848
1.00111 1.00294 1 0.998171
1.00011 1.00118 1.00086 0.998074
0.999909 1 1 0.999909
0.999606 1 1 0.999606
0.99993 1 1 0.99993
0.999924 1 1 0.999924
1 1 1 1
1 1 1 1
1 1 1 1
1 1 1 1
1 1 1 1
0.999998 1 1 0.999998
1 1 1 1
0.999984 1 1 0.999984
1 1 1 1
0.99996 1 1 0.99996
1 1 1 1
0.998399 1 1 0.998399
0.998319 1 1 0.998319
1.004 1.00609 1 0.997919
1.0045 1.00669 1 0.997823
0.998202 1 1 0.998202
0.999303 1 1 0.999303
0.99819 1 1 0.99819
1.00467 1.00692 1 0.997772
1.0042 1.00633 1 0.997879
1.0159 1.01817 1 0.997777
1.00356 1.00563 1 0.997946
1.01325 1.01545 1 0.99783
1.00442 1.00668 1 0.997759
1.01643 1.01873 1 0.997741
1.01513 1.01737 1 0.997803
1.02077 1.02296 1 0.997854
1.01128 1.01348 1 0.997833
1.01686 1.01893 1 0.997972
0.998175 1 1 0.998175
0.998442 1 1 0.998442
1.00372 1.00584 1 0.997896
1.00263 1.00464 1 0.997998
0.999893 1 1 0.999893
0.999186 1 1 0.999186
0.998743 1.00017 1 0.998569
1.00091 1.00277 1 0.998138
1.00978 1.01192 1 0.997884
1.00469 1.0067 1 0.998005
1.00166 1.00362 1 0.998047
1.00825 1.01026 1 0.998004
0.999342 1 1 0.999342
0.99928 1 1.00029 0.99899
0.999582 1 1 0.999582
1.00407 1.00626 1 0.997821
1.00354 1.00561 1 0.997938
1.01383 1.0161 1 0.99777
1.01167 1.01387 1 0.997824
0.999275 1 1 0.999275
0.998769 1 1 0.998769
0.999262 1.00102 1.00003 0.998208
1.00678 1.00885 1 0.997956
1.01389 1.01595 1 0.997976
1.00582 1.00792 1 0.99791
1.00986 1.01188 1 0.998001
1.01011 1.01201 1 0.998119
0.998976 1 1 0.998976
0.999025 1 1.00021 0.998817
0.999696 1 1 0.999696
0.999213 1 1.00014 0.999077
1.01457 1.01689 1 0.997721
1.01406 1.01629 1 0.997806
1.01989 1.02215 1 0.997786
1.01595 1.01806 1 0.997929
1.01246 1.01449 1 0.998002
1.01522 1.01718 1 0.998076
0.998928 1 1 0.998928
1.01114 1.01299 1 0.998174
0.998475 1 1 0.998475
1.00117 1.00306 1.00018 0.997936
1.00874 1.0109 1 0.997857
1.01045 1.01233 1 0.998142
0.999767 1 1 0.999767
0.999194 1 1 0.999194
0.998822 1 1 0.998822
0.999489 1 1.00063 0.998858
0.998901 1 1.00012 0.998776
1 1 1 1
1.00197 1.004 1 0.997982
0.999757 1 1 0.999757
0.999406 1 1 0.999406
0.999121 1 1 0.999121
0.999023 1.00076 1 0.99826
1.00678 1.00893 1 0.997872
0.999001 1 1.00019 0.998809
1.00041 1.00016 1.00193 0.998323
0.99923 1.00095 1 0.998277
0.999293 1.00092 1 0.998376
1 1 1 1
0.999851 1 1 0.999851
0.998978 1 1 0.998978
0.999294 1 1 0.999294
0.999177 1 1.00032 0.998856
1.00954 1.01174 1 0.99782
1.00317 1.00514 1 0.998048
1.00952 1.0117 1 0.997839
1.00061 1 1.00213 0.998484
1.00188 1.0037 1 0.998186
1.00025 1.0012 1.00096 0.998094
0.999888 1 1 0.999888
0.999439 1 1 0.999439
0.999168 1 1.00048 0.998691
0.99931 1 1.0003 0.999013
0.999422 1 1.00069 0.998731
1.01195 1.01413 1 0.997849
1.00542 1.00745 1 0.997986
1.00955 1.01158 1 0.997992
1.00203 1 1.00379 0.998241
1.00105 1.00311 1 0.997948
0.999913 1 1 0.999913
0.999544 1 1 0.999544
0.999588 1 1 0.999588
0.999407 1 1 0.999407
0.999614 1 1 0.999614
0.999932 1 1 0.999932
0.999931 1 1 0.999931
1 1 1 1
0.999927 1 1 0.999927
1 1 1 1
1 1 1 1
1 1 1 1
1 1 1 1
1 1 1 1
1 1 1 1
0.999995 1 1 0.999995
1 1 1 1
1 1 1 1
0.99998 1 1 0.99998
1 1 1 1
1.00338 1.00545 1 0.997944
1.00408 1.00621 1 0.997879
1.01271 1.01491 1 0.99783
1.01612 1.01838 1 0.997781
1.00475 1.00699 1 0.997772
0.99819 1 1 0.99819
1.00449 1.00674 1 0.99776
1.01641 1.01872 1 0.997734
1.01497 1.0172 1 0.997804
1.02045 1.02262 1 0.997871
1.01149 1.01369 1 0.997829
1.01707 1.01912 1 0.997983
1.01545 1.01779 1 0.997709
1.02015 1.0224 1 0.997805
1.01891 1.02101 1 0.997939
1.01986 1.02207 0.999885 0.997951
1.01487 1.01698 1 0.99793
1.01821 1.02014 1 0.998108
1.00424 1.00647 1 0.997788
1.00349 1.00556 1 0.997936
1.01371 1.01598 1 0.99777
1.01214 1.01434 1 0.99783
0.999276 1 1 0.999276
0.998763 1 1 0.998763
0.999547 1.00111 1.00018 0.998255
1.00701 1.00906 1 0.997963
1.01321 1.01524 1 0.997999
1.00982 1.01184 1 0.998003
1.00589 1.00802 1 0.997883
1.00945 1.01133 1 0.998136
0.998979 1 1 0.998979
0.998978 1 1.00018 0.9988
0.999692 1 1 0.999692
0.999152 1 1.00006 0.999097
1.01452 1.01684 1 0.997722
1.01394 1.01618 1 0.997798
1.01981 1.02206 1 0.997796
1.01532 1.01743 1 0.99792
0.998924 1 1 0.998924
0.998546 1 1.00003 0.998516
1.00149 1.00318 1.00039 0.99793
1.01215 1.01419 1 0.997983
1.01544 1.01736 1 0.998117
1.00846 1.01063 1 0.997846
1.01087 1.01271 1 0.998176
1.01125 1.0131 1 0.998177
0.998822 1 1 0.998822
0.998787 1 1.00001 0.998776
0.999675 1 1.00082 0.998854
0.999737 1 1 0.999737
0.999212 1 1 0.999212
1.02053 1.02281 1 0.997777
1.01926 1.02147 1 0.997836
1.01626 1.01822 1 0.998072
1.01319 1.01506 1 0.998161
0.998751 1 1 0.998751
1.01254 1.01427 1 0.998295
0.998578 1 1.00029 0.99829
1.00451 1.00631 1.00051 0.997704
1.0095 1.01172 1 0.997813
0.999768 1 1 0.999768
0.999365 1 1 0.999365
0.999291 1 1.00029 0.999001
0.998785 1 1 0.998785
1.00034 1 1.00164 0.998704
0.998724 1 1 0.998724
1 1 1 1
0.999856 1 1 0.999856
1.00985 1.01206 1 0.997815
0.999294 1 1 0.999294
0.998979 1 1 0.998979
0.999243 1 1.00041 0.998837
1.00266 1.00462 1 0.998049
1.00939 1.01158 1 0.997831
1.00077 1 1.00229 0.998488
1.00005 1.00117 1.00077 0.998114
1.00259 1.0044 1 0.998202
0.999892 1 1 0.999892
0.999441 1 1 0.999441
0.999112 1 1.00041 0.998698
0.999353 1 1.00034 0.999011
0.999667 1 1.00095 0.998719
1.0121 1.01429 1 0.997845
1.00581 1.00784 1 0.997978
1.00943 1.01144 1 0.998013
1.00146 1 1.00324 0.998221
1.00095 1.00298 1.00006 0.997918
0.999529 1 1 0.999529
0.999124 1 1 0.999124
1.00052 1 1.002 0.998525
1.00012 1 1.00136 0.998763
0.999559 1 1.00094 0.998617
1.0152 1.01705 1 0.998176
1.00565 1.00776 1 0.997904
1.00799 1.00997 1 0.998039
1.00305 1.00065 1.00433 0.998075
0.999664 1.00195 1 0.997714
0.999916 1 1 0.999916
0.99956 1 1 0.99956
0.999319 1 1 0.999319
0.99957 1 1 0.99957
0.999614 1 1 0.999614
0.999379 1 1 0.999379
0.999244 1 1 0.999244
0.999363 1 1 0.999363
0.999617 1 1 0.999617
0.99993 1 1 0.99993
0.999932 1 1 0.999932
1 1 1 1
0.999933 1 1 0.999933
1 1 1 1
1 1 1 1
1 1 1 1
1 1 1 1
1 1 1 1
1 1 1 1
1 1 1 1
1 1 1 1
0.999993 1 1 0.999993
1 1 1 1
1 1 1 1
1.01167 1.01387 1 0.997825
1.0148 1.01703 1 0.997804
1.01726 1.01931 1 0.997993
1.02015 1.02231 1 0.997888
1.01636 1.01868 1 0.997727
1.00454 1.00679 1 0.99776
1.01553 1.01788 1 0.997699
1.02016 1.02241 1 0.997799
1.01897 1.02109 1 0.997921
1.01954 1.0217 0.99993 0.99796
1.0143 1.01641 1 0.99793
1.01781 1.01971 1 0.998137
1.01957 1.02186 1 0.997767
1.02082 1.02311 0.999831 0.997927
1.02025 1.02231 0.999918 0.998066
1.01667 1.0185 1 0.998209
1.01444 1.01675 1 0.997722
1.0138 1.01605 1 0.99779
1.0197 1.02194 1 0.997807
1.01468 1.01681 1 0.99791
0.99892 1 1 0.99892
0.998556 1 1 0.998556
1.00181 1.00331 1.00058 0.997924
1.0118 1.01386 1 0.997965
1.01565 1.01753 1 0.998158
1.01069 1.01254 1 0.998178
1.00816 1.01035 1 0.997835
1.01196 1.01377 1 0.998212
0.998822 1 1 0.998822
0.998775 1 1 0.998775
1.00008 1 1.00123 0.99885
0.999708 1 1 0.999708
0.999229 1 1 0.999229
1.02038 1.02264 1 0.997781
1.01933 1.02154 1 0.997842
1.01617 1.01816 0.999976 0.998067
0.998745 1 1 0.998745
0.998738 1.00015 1.00026 0.998327
1.00432 1.00588 1.00076 0.997695
1.01358 1.01546 1 0.99815
1.00931 1.01147 1 0.997869
1.0119 1.01364 1 0.998283
0.999775 1 1 0.999775
0.998781 1 1 0.998781
0.998761 1 1 0.998761
1.00031 1 1.00162 0.998693
0.999235 1 1.00023 0.99901
0.999342 1 1 0.999342
1.02052 1.02273 1 0.997836
1.01995 1.02301 0.999029 0.997978
1.01555 1.0177 0.999733 0.998158
1.01701 1.01882 0.999902 0.998315
0.998638 1 1 0.998638
1.00998 1.01195 1 0.99805
0.999939 1.00037 1.00165 0.997925
1.00433 1.00572 1.00104 0.99757
0.999834 1 1 0.999834
0.999457 1 1 0.999457
0.999124 1 1 0.999124
1.00053 1 1.00177 0.998766
0.998708 1 1 0.998708
0.999057 1 1.00044 0.998618
0.999896 1 1 0.999896
0.999443 1 1 0.999443
1.01233 1.01452 1 0.99784
0.999355 1 1.00035 0.99901
0.998975 1 1.00027 0.998706
0.999986 1 1.00128 0.998707
1.00622 1.00827 1 0.99797
1.00945 1.01144 1 0.998035
1.00093 1 1.00273 0.998202
1.00093 1.00278 1.00027 0.997888
0.99953 1 1 0.99953
0.999135 1 1 0.999135
1.00052 1 1.00198 0.998543
1.00046 1 1.0017 0.998766
0.999131 1 1.00048 0.998656
1.01519 1.01703 1 0.998197
1.00537 1.00749 1 0.997904
1.00865 1.01056 1 0.998113
1.00306 1.00043 1.00458 0.998052
1.00014 1.00244 1.00003 0.997675
0.999261 1 1 0.999261
0.998925 1 1.00007 0.998857
1.00217 1 1.00378 0.998393
0.999885 1 1.00136 0.998523
1.01996 1.02332 0.99837 0.998346
1.01325 1.01512 0.999872 0.99829
1.00431 1.0066 1 0.997725
1.00289 1.00093 1.00426 0.997718
0.999575 1 1 0.999575
0.999331 1 1 0.999331
0.999187 1 1 0.999187
0.999614 1 1 0.999614
0.999352 1 1 0.999352
0.999617 1 1 0.999617
0.999225 1 1 0.999225
0.999374 1 1 0.999374
0.999118 1 1 0.999118
0.999212 1 1 0.999212
0.999359 1 1 0.999359
0.999609 1 1 0.999609
0.999924 1 1 0.999924
0.999929 1 1 0.999929
1 1 1 1
0.999932 1 1 0.999932
1 1 1 1
1 1 1 1
1 1 1 1
1 1 1 1
1 1 1 1
1 1 1 1
1 1 1 1
1 1 1 1
0.999999 1 1 0.999999
1 1 1 1
1 1 1 1
1.01374 1.01584 1 0.997931
1.01902 1.02116 1 0.997903
1.01739 1.01926 1 0.998167
1.01918 1.02129 0.999969 0.997969
1.02016 1.02242 1 0.997793
1.01564 1.01799 1 0.99769
1.01945 1.02172 1 0.997773
1.01991 1.02222 0.999816 0.997921
1.02002 1.02215 0.999852 0.998068
1.018 1.01982 1 0.998207
1.02074 1.02299 0.999921 0.997875
1.02312 1.02709 0.998044 0.998094
1.02249 1.02483 0.999508 0.998207
1.02023 1.0225 1 0.997784
1.01941 1.02161 1 0.997847
1.01606 1.01807 0.999964 0.998062
0.99874 1 1 0.99874
0.998839 1.0003 1.00018 0.998364
1.00398 1.00546 1.00085 0.997686
1.01389 1.01578 1 0.99814
1.01139 1.01314 1 0.998271
1.00946 1.01156 1 0.997925
0.998777 1 1 0.998777
0.998799 1 1 0.998799
1.00016 1 1.00148 0.998682
0.999782 1 1 0.999782
0.999134 1 1.00011 0.99902
0.999319 1 1 0.999319
1.02121 1.02342 1 0.99784
1.0204 1.02311 0.999366 0.997983
1.01558 1.01767 0.999802 0.998148
0.998629 1 1 0.998629
0.999988 1.00059 1.0014 0.998
1.00416 1.00568 1.0009 0.997592
1.017 1.01883 0.999871 0.998328
1.01046 1.01244 1 0.998041
0.999864 1 1 0.999864
0.999457 1 1 0.999457
0.998718 1 1 0.998718
0.999311 1 1.00065 0.998665
1.00052 1 1.00175 0.998774
0.999105 1 1 0.999105
1.02353 1.02698 0.998625 0.99801
1.01653 1.02194 0.996587 0.998111
1.01705 1.01991 0.99886 0.998342
1.01447 1.01614 1 0.998362
0.999338 1 1.00088 0.998455
1.00353 1.00451 1.0014 0.997628
1.00107 1.00068 1.00264 0.997745
0.999932 1 1 0.999932
0.999637 1 1 0.999637
0.999485 1 1 0.999485
0.999175 1 1 0.999175
0.999276 1 1.00038 0.998894
0.999784 1 1.00114 0.998643
0.998741 1 1 0.998741
1.00654 1 1.00778 0.998768
0.999531 1 1 0.999531
0.999145 1 1 0.999145
1.01507 1.01688 1 0.998219
1.00074 1 1.00197 0.99877
1.00071 1 1.00215 0.99856
0.99873 1 1.00004 0.998695
1.00502 1.00714 1 0.997905
1.0093 1.01114 1 0.998187
1.00313 1.00029 1.00482 0.99803
1.00063 1.003 1 0.997637
0.999248 1 1 0.999248
0.999146 1 1.00028 0.998866
1.00256 1 1.00415 0.998413
0.999613 1 1.00107 0.998545
1.02052 1.02378 0.99846 0.998351
1.01263 1.01444 0.999949 0.998265
1.00513 1.00739 1 0.997764
1.00237 1.00092 1.00377 0.997684
0.999084 1 1 0.999084
1.0193 1.02428 0.996808 0.998331
0.999906 1 1.00126 0.998653
1.00087 1 1.00268 0.998193
1.01791 1.02069 0.998826 0.998443
1.00619 1.00838 1 0.997825
1.00408 1.0033 1.00323 0.997553
0.999343 1 1 0.999343
0.999185 1 1 0.999185
0.999062 1 1 0.999062
0.999617 1 1 0.999617
0.999384 1 1 0.999384
0.999206 1 1 0.999206
0.999608 1 1 0.999608
0.99936 1 1 0.99936
0.9991 1 1 0.9991
0.999232 1 1 0.999232
0.999017 1 1 0.999017
0.999089 1 1 0.999089
0.999223 1 1 0.999223
0.999356 1 1 0.999356
0.999591 1 1 0.999591
0.999919 1 1 0.999919
0.999923 1 1 0.999923
1 1 1 1
0.999928 1 1 0.999928
1 1 1 1
1 1 1 1
1 1 1 1
1 1 1 1
1 1 1 1
0.999955 1 1 0.999955
1 1 1 1
1 1 1 1
1 1 1 1
1 1 1 1
1 1 1 1
1 1 1 1
1.01933 1.02117 1 0.998205
1.01983 1.02202 0.999794 0.998071
1.01903 1.02136 0.999805 0.997915
1.01931 1.02158 1 0.997778
1.02081 1.0231 0.999871 0.997889
1.02363 1.02744 0.998207 0.998082
1.02264 1.02511 0.999369 0.99822
1.02336 1.02831 0.997119 0.998064
1.02612 1.03078 0.997262 0.998215
1.01166 1.02175 0.991701 0.99841
1.02188 1.02409 1 0.997845
1.02083 1.02325 0.999648 0.997988
1.01562 1.01767 0.999843 0.998138
0.998676 1 1.00006 0.99862
1.00014 1.00081 1.00126 0.998075
1.00372 1.00534 1.00078 0.997613
1.01712 1.01897 0.999842 0.99834
1.0104 1.0124 1 0.998032
0.998728 1 1 0.998728
0.999608 1 1.0009 0.998711
1.00067 1 1.00189 0.998781
0.999894 1 1 0.999894
0.999457 1 1 0.999457
0.999086 1 1 0.999086
1.02282 1.02651 0.998385 0.998025
0.999928 1 1 0.999928
0.99962 1 1 0.99962
1.01667 1.02138 0.997272 0.99811
1.01785 1.02064 0.998949 0.998311
0.999354 1 1.00084 0.998515
1.00182 1.00082 1.0033 0.997712
1.00361 1.00514 1.00084 0.997634
1.01364 1.01532 1 0.99835
0.999535 1 1 0.999535
0.999173 1 1 0.999173
0.998691 1 1 0.998691
1.00368 1 1.00484 0.998853
1.00004 1 1.00141 0.998626
0.999272 1 1.00037 0.998902
1.02454 1.02949 0.996998 0.99818
1.01173 1.02068 0.992971 0.998246
1.01543 1.01931 0.997656 0.998536
1.00458 1.00666 0.999846 0.99809
1.00083 1 1.00234 0.998488
1.0039 1.0009 1.00547 0.997549
0.999639 1 1 0.999639
0.999589 1 1 0.999589
0.999399 1 1 0.999399
0.99918 1 1 0.99918
0.999004 1 1 0.999004
0.999207 1 1.00051 0.998695
1.0112 1 1.01264 0.998573
0.999959 1 1.00108 0.998883
0.999235 1 1 0.999235
0.999254 1 1.00038 0.998876
1.02118 1.02434 0.998555 0.998356
1.01216 1.01395 1 0.99824
0.999372 1 1.00081 0.998568
1.00284 1 1.00441 0.998432
1.00609 1.00827 1.00004 0.997802
1.00185 1.00085 1.00335 0.997651
0.999078 1 1 0.999078
1.0198 1.02554 0.996043 0.998355
0.9999 1 1.00124 0.998665
1.00085 1 1.00269 0.998168
1.01733 1.02016 0.998804 0.998418
1.00688 1.00904 1 0.997861
1.00371 1.00267 1.00348 0.997564
0.999703 1 1.00086 0.998847
1.0167 1.02505 0.993227 0.998622
0.999847 1 1.00137 0.998476
1.00222 1.0005 1.00379 0.997932
1.00859 1.01337 0.997143 0.998129
1.00177 1.00192 1.00221 0.997637
1.00533 1.00816 0.998475 0.998719
0.999183 1 1 0.999183
0.99906 1 1 0.99906
0.998948 1 1 0.998948
0.999607 1 1 0.999607
0.999361 1 1 0.999361
0.999253 1 1 0.999253
0.999083 1 1 0.999083
0.99959 1 1 0.99959
0.999347 1 1 0.999347
0.999004 1 1 0.999004
0.999223 1 1 0.999223
0.999105 1 1 0.999105
0.998995 1 1 0.998995
0.999112 1 1 0.999112
0.99922 1 1 0.99922
0.999302 1 1 0.999302
0.999536 1 1 0.999536
0.99939 1 1 0.99939
0.999536 1 1 0.999536
0.999914 1 1 0.999914
0.999918 1 1 0.999918
1 1 1 1
0.999923 1 1 0.999923
1 1 1 1
1 1 1 1
1 1 1 1
1 1 1 1
1 1 1 1
0.999968 1 1 0.999968
0.999952 1 1 0.999952
1 1 1 1
1 1 1 1
1 1 1 1
1 1 1 1
1 1 1 1
1 1 1 1
1.02277 1.02537 0.999228 0.998234
1.02414 1.02781 0.998358 0.99807
1.0209 1.02323 0.999821 0.997904
1.02317 1.02805 0.997186 0.998062
1.02477 1.0293 0.997383 0.998212
1.01222 1.02175 0.992263 0.998399
1.02121 1.02965 0.993507 0.998282
1.00486 1.01596 0.990919 0.998142
1.01289 1.02445 0.989925 0.99878
0.999707 1 1 0.999707
1.02215 1.02602 0.998184 0.998039
1.01697 1.02085 0.998093 0.998109
1.01846 1.02125 0.998983 0.998279
0.999395 1 1.00082 0.998575
1.00286 1.00117 1.00402 0.997679
1.00411 1.00603 1.00045 0.997639
1.01283 1.01451 1 0.998337
0.998642 1 1 0.998642
1.00077 1 1.00183 0.998939
1.00023 1 1.00162 0.998609
0.999924 1 1 0.999924
0.999224 1 1.00031 0.998911
0.999584 1 1 0.999584
0.99917 1 1 0.99917
0.999602 1 1 0.999602
1.02379 1.03015 0.995633 0.998188
0.999663 1 1 0.999663
0.999588 1 1 0.999588
0.999364 1 1 0.999364
1.01225 1.0206 0.993557 0.998249
1.01501 1.01872 0.997867 0.998489
1.00015 1 1.00164 0.998506
1.00368 1.00058 1.00555 0.997567
1.00422 1.00607 1.00007 0.998091
0.999206 1 1 0.999206
0.99899 1 1 0.998986
1.00183 1 1.00301 0.998824
1.00917 1 1.01057 0.998608
0.999126 1 1.00041 0.998716
1.01513 1.02408 0.992977 0.998264
1.01158 1.02313 0.99033 0.998366
1.00912 1.01244 0.998437 0.99828
1.00462 1.00351 1.00317 0.997945
1.00332 1 1.00484 0.998487
0.999358 1 1 0.999358
0.999263 1 1 0.999263
0.999163 1 1 0.999163
0.999002 1 1 0.999002
0.999014 1 1.00018 0.998837
1.00798 1 1.00938 0.998607
1.01109 1 1.01258 0.998522
0.999072 1 1 0.999072
0.999886 1 1.00121 0.998678
1.01988 1.02667 0.995 0.998378
1.01655 1.01948 0.998737 0.998393
1.00734 1.00946 1 0.997897
1.00082 1 1.00268 0.998144
1.0031 1.00193 1.0036 0.997575
0.999608 1 1.00073 0.998879
1.0159 1.02487 0.992617 0.998629
0.999649 1 1.00115 0.998498
1.00225 1.00023 1.00408 0.997942
1.00982 1.01391 0.997769 0.998194
1.00227 1.00196 1.00269 0.997625
1.00508 1.0084 0.998344 0.998362
0.999696 1 1.00097 0.998725
1.00488 1.01616 0.990277 0.998613
1.0004 1 1.00194 0.998456
1.00426 1.00002 1.00636 0.997893
1.0035 1.00456 1.00104 0.997904
0.956993 0.977787 0.989702 0.988917
0.981672 0.988455 0.998316 0.994813
0.981197 1.00015 0.98221 0.99882
0.880676 0.91626 0.972872 0.987966
0.851535 0.91905 0.939065 0.98666
0.999059 1 1 0.999059
0.998962 1 1 0.998962
0.99897 1 1 0.99897
0.999589 1 1 0.999589
0.999337 1 1 0.999337
0.999222 1 1 0.999222
0.999121 1 1 0.999121
0.99899 1 1 0.99899
0.999201 1 1 0.999201
0.999556 1 1 0.999556
0.999315 1 1 0.999315
0.998999 1 1 0.998999
0.999112 1 1 0.999112
0.99912 1 1 0.99912
0.99906 1 1 0.99906
0.999153 1 1 0.999153
0.999275 1 1 0.999275
0.999529 1 1 0.999529
0.999335 1 1 0.999335
0.999234 1 1 0.999234
0.999365 1 1 0.999365
0.999363 1 1 0.999363
0.999584 1 1 0.999584
0.999535 1 1 0.999535
0.99991 1 1 0.99991
0.999913 1 1 0.999913
1 1 1 1
0.999917 1 1 0.999917
1 1 1 1
1 1 1 1
1 1 1 1
1 1 1 1
1 1 1 1
0.999974 1 1 0.999974
0.999965 1 1 0.999965
1 1 1 1
0.999949 1 1 0.999949
1 1 1 1
1 1 1 1
1 1 1 1
1 1 1 1
1 1 1 1
1.02348 1.02787 0.997514 0.998209
1.02294 1.02775 0.997258 0.998061
1.01279 1.02162 0.992961 0.998388
1.00485 1.01572 0.991099 0.998178
1.02012 1.02853 0.993529 0.99828
1.01665 1.0261 0.992061 0.998714
1.02217 1.02831 0.995717 0.998302
0.967735 0.984914 0.98845 0.994039
1.01048 1.01935 0.992787 0.998496
0.999717 1 1 0.999717
0.999707 1 1 0.999707
0.999438 1 1 0.999438
0.999466 1 1 0.999466
1.02288 1.03071 0.994201 0.998196
1.01248 1.02022 0.994158 0.998253
1.01474 1.01813 0.998218 0.998442
0.999294 1 1.00077 0.998523
1.00311 1.00017 1.00536 0.997585
1.0039 1.00569 1.00013 0.998093
1.00365 1 1.00489 0.998765
1.00723 1 1.0086 0.998644
0.999032 1 1.00029 0.998737
0.999587 1 1 0.999587
0.998968 1 1 0.998968
0.999232 1 1 0.999232
0.999687 1 1 0.999687
0.999328 1 1 0.999328
1.01328 1.02276 0.992442 0.998279
0.999396 1 1 0.999396
0.999287 1 1 0.999287
0.999175 1 1 0.999175
1.01361 1.02471 0.990778 0.998375
1.00797 1.01163 0.998103 0.998276
1.00317 1 1.0047 0.99848
1.00459 1.00388 1.00277 0.997942
0.999028 1 1.00002 0.999003
0.998878 1 1.00005 0.998833
1.01141 1 1.0129 0.998523
1.00898 1 1.01041 0.998585
1.01175 1.0257 0.988068 0.99831
1.00126 1.01877 0.984434 0.998354
1.00484 1.00629 1.00056 0.997994
1.00146 1.00006 1.00297 0.998435
0.999088 1 1 0.999088
0.999099 1 1.00005 0.99905
1.00139 1 1.00259 0.998801
1.02022 1 1.02187 0.998377
0.943866 0.972745 0.981667 0.988432
0.999604 1 1.0007 0.99891
0.999592 1 1.00107 0.99852
1.01495 1.02453 0.992 0.998636
1.01107 1.01438 0.998472 0.998259
1.00302 1.00212 1.0033 0.997612
1.00241 1 1.00447 0.997953
1.00408 1.00832 0.997793 0.997998
0.999733 1 1.00099 0.998749
1.004 1.01602 0.989556 0.998599
0.999902 1 1.00144 0.998467
1.00401 1.00002 1.00611 0.997894
1.00369 1.00566 1.00011 0.997926
0.954806 0.978217 0.987179 0.988745
0.97682 0.986673 0.996668 0.993323
0.983046 0.99844 0.985705 0.998861
0.883812 0.915992 0.976842 0.987742
0.836161 0.907289 0.935117 0.985549
0.999523 1 1.00067 0.998858
0.899603 0.930291 0.978972 0.987784
0.888158 0.923647 0.973708 0.987542
0.982023 1.0063 0.977303 0.998537
1.00495 1 1.00643 0.998532
1.01027 1.00201 1.01019 0.998073
0.981137 0.994513 0.98754 0.998998
0.957028 0.972489 0.995719 0.988333
0.965842 0.971923 1.00097 0.99278
0.862406 0.916226 0.952652 0.988041
0.891381 0.949737 0.949536 0.988436
0.998975 1 1 0.998975
0.998964 1 1 0.998964
0.999143 1 1 0.999143
0.999576 1 1 0.999576
0.999328 1 1 0.999328
0.999183 1 1 0.999183
0.999111 1 1 0.999111
0.999004 1 1 0.999004
0.99953 1 1 0.99953
0.999117 1 1 0.999117
0.999171 1 1 0.999171
0.999297 1 1 0.999297
0.999056 1 1 0.999056
0.999074 1 1 0.999074
0.999272 1 1.0002 0.999075
0.999141 1 1 0.999141
0.999309 1 1 0.999309
0.999334 1 1 0.999334
0.99922 1 1 0.99922
0.999186 1 1 0.999186
0.999213 1 1 0.999213
0.999154 1 1 0.999154
0.999097 1 1 0.999097
0.999345 1 1 0.999345
0.999365 1 1 0.999365
0.999588 1 1 0.999588
0.999337 1 1 0.999337
0.999567 1 1 0.999567
0.999909 1 1 0.999909
0.999534 1 1 0.999534
0.99991 1 1 0.99991
1 1 1 1
0.999913 1 1 0.999913
1 1 1 1
1 1 1 1
1 1 1 1
1 1 1 1
1 1 1 1
0.999704 1 1 0.999704
0.999974 1 1 0.999974
0.999973 1 1 0.999973
1 1 1 1
0.999963 1 1 0.999963
1 1 1 1
1 1 1 1
1 1 1 1
1 1 1 1
1 1 1 1
1.006 1.01579 0.992135 0.998216
1.01932 1.02759 0.993667 0.998278
1.02013 1.028 0.993686 0.998648
0.968399 0.982668 0.990602 0.994828
1.01081 1.01907 0.993317 0.998566
1.02378 1.03062 0.995078 0.998274
1.01685 1.02342 0.995243 0.998324
0.973877 0.985079 0.993294 0.995302
0.956636 0.976884 0.991486 0.987682
0.861207 0.907792 0.961232 0.986945
0.835823 0.897316 0.944343 0.986368
0.999427 1 1 0.999427
0.999717 1 1 0.999717
0.999706 1 1 0.999706
0.999426 1 1 0.999426
0.999253 1 1 0.999253
0.999291 1 1 0.999291
0.999431 1 1 0.999431
0.999448 1 1 0.999448
1.01175 1.02177 0.991887 0.998293
1.01598 1.02695 0.990914 0.998384
1.00679 1.01079 0.997765 0.998273
1.00335 1 1.00488 0.998473
1.00469 1.00403 1.00272 0.997939
1.01145 1 1.01294 0.998523
1.0101 1 1.01155 0.998563
0.998829 1 1 0.998829
0.999311 1 1 0.999311
0.999004 1 1 0.999004
0.999435 1 1 0.999435
0.999188 1 1 0.999188
1.01244 1.02594 0.98853 0.99829
0.99911 1 1 0.99911
0.99906 1 1 0.99906
1.00257 1.01791 0.98657 0.998336
1.0044 1.0065 0.999825 0.998089
1.00333 1.00034 1.00462 0.998382
1.00265 1 1.00388 0.998775
1.01782 1 1.01947 0.998384
1.01131 1.02352 0.989785 0.998269
0.984405 1.00552 0.980611 0.998362
0.999156 1.00009 1.00074 0.998333
1.00747 1 1.00903 0.998456
0.998968 1 1 0.998968
1.0006 1 1.00175 0.998858
1.01527 1 1.01672 0.99857
0.888035 0.933013 0.963215 0.988141
0.952772 0.974579 0.988044 0.989454
0.999596 1 1.00082 0.998773
0.999543 1 1.00107 0.998477
1.00427 1.01635 0.989514 0.998586
1.00396 1.00695 0.999073 0.997949
1.00359 1 1.00571 0.997896
0.954499 0.97647 0.989712 0.98766
0.978916 0.989587 0.995161 0.994027
0.985532 0.997344 0.989246 0.998899
0.877838 0.916741 0.969578 0.987609
0.821702 0.894852 0.932778 0.984429
0.999261 1 1.0004 0.998859
0.892908 0.933218 0.968255 0.988176
0.885117 0.919239 0.975458 0.987105
0.984492 1.00708 0.979013 0.998527
1.00452 1 1.00597 0.998551
1.00939 1.00103 1.0102 0.998171
0.973523 0.990699 0.983594 0.999054
0.960841 0.977556 0.995314 0.987529
0.968549 0.975817 0.998322 0.99422
0.864392 0.911199 0.961223 0.9869
0.890769 0.950396 0.9487 0.987942
1.00109 1 1.00206 0.99903
0.909956 0.929056 0.990447 0.988888
0.964684 0.974886 0.997334 0.992181
0.988802 1.00077 0.989087 0.998945
1.0115 1.00081 1.01176 0.998933
0.992721 0.985783 1.00772 0.999326
0.956304 0.967788 0.992784 0.995316
0.953056 0.962547 1.0027 0.987473
0.8839 0.931321 0.961491 0.987094
0.918355 0.968519 0.957557 0.990234
0.998958 1 1 0.998958
0.999122 1 1 0.999122
0.999731 1 1.00042 0.99931
0.99953 1 1 0.99953
0.999318 1 1 0.999318
0.999188 1 1 0.999188
0.999114 1 1 0.999114
0.999052 1 1 0.999052
0.999308 1 1 0.999308
0.999083 1 1 0.999083
0.999141 1 1 0.999141
0.999337 1 1.00024 0.999092
1.00049 1 1.00125 0.999243
0.999148 1 1.00009 0.999062
0.999143 1 1 0.999143
0.999332 1 1 0.999332
0.999205 1 1 0.999205
0.999186 1 1 0.999186
0.999211 1 1 0.999211
0.999156 1 1 0.999156
0.999173 1 1 0.999173
0.999128 1 1 0.999128
0.999134 1 1 0.999134
0.998945 1 1 0.998945
0.999479 1 1.00079 0.998693
0.99899 1 1 0.99899
0.999094 1 1 0.999094
0.999299 1 1 0.999299
0.999344 1 1 0.999344
0.999581 1 1 0.999581
0.999364 1 1 0.999364
0.999588 1 1 0.999588
0.999909 1 1 0.999909
0.99955 1 1 0.99955
0.999909 1 1 0.999909
1 1 1 1
0.99991 1 1 0.99991
1 1 1 1
1 1 1 1
1 1 1 1
1 1 1 1
1 1 1 1
0.999722 1 1 0.999722
0.999969 1 1 0.999969
0.999704 1 1 0.999704
1 1 1 1
0.999975 1 1 0.999975
0.999971 1 1 0.999971
1 1 1 1
1 1 1 1
1 1 1 1
1 1 1 1
1 1 1 1
0.889206 0.924572 0.973368 0.988063
0.893369 0.924947 0.977484 0.988108
0.970396 0.984809 0.98999 0.995328
1.01213 1.01871 0.994898 0.998636
1.02536 1.03258 0.994746 0.998246
0.970221 0.980984 0.992508 0.996494
1.01691 1.02316 0.995529 0.998356
0.959268 0.979217 0.990585 0.988939
0.875416 0.913769 0.969928 0.98773
0.826256 0.894798 0.937239 0.985234
0.992562 0.999373 0.995698 0.997476
0.95692 0.972396 0.995295 0.988736
0.85522 0.911216 0.950163 0.987776
0.889048 0.944044 0.953746 0.987417
0.999187 1 1 0.999187
0.999443 1 1 0.999443
0.999716 1 1 0.999716
0.999414 1 1 0.999414
0.999276 1 1 0.999276
0.999216 1 1 0.999216
0.999291 1 1 0.999291
0.999327 1 1 0.999327
0.99941 1 1 0.99941
0.99943 1 1 0.99943
1.01267 1.02579 0.988921 0.998271
1.00292 1.0162 0.988597 0.998318
1.00399 1.00683 0.998995 0.998185
1.00488 1.00062 1.00594 0.998329
1.01493 1 1.01657 0.99839
1.00385 1 1.00511 0.99875
0.99907 1 1 0.99907
0.999131 1 1 0.999131
1.00987 1.02369 0.988219 0.998266
0.99896 1 1 0.99896
1.00054 1 1.00171 0.998834
0.985687 1.00467 0.982775 0.998296
0.999438 1.00011 1.00088 0.998447
1.00773 1 1.00938 0.998369
1.01323 1 1.0147 0.998548
1.00091 1.00639 0.996003 0.998545
0.989379 1 0.990474 0.998895
1.01267 1 1.01416 0.998533
0.998946 1 1 0.998946
0.999444 1 1.00064 0.998808
1.00747 1 1.00883 0.998654
0.913893 0.933959 0.988165 0.990235
0.89573 0.932658 0.972322 0.987744
0.948883 0.976202 0.983401 0.988422
0.99886 1 1 0.99886
1.00411 1 1.00554 0.99857
0.9872 1.00761 0.981198 0.998516
1.00863 1 1.01038 0.998268
0.888307 0.929722 0.967432 0.98762
0.959384 0.975254 0.994524 0.989144
0.965704 0.976688 0.995878 0.992847
0.970099 0.987578 0.983173 0.999113
0.866721 0.911892 0.962517 0.987478
0.887032 0.922963 0.973753 0.986975
0.884459 0.947037 0.945454 0.987802
1.00166 1 1.00263 0.999035
0.910672 0.932098 0.987685 0.989195
0.967837 0.977337 0.998129 0.992135
0.990981 1.00037 0.991607 0.999
1.01103 1.00016 1.01196 0.998917
0.991776 0.986408 1.00636 0.999093
0.957231 0.968028 0.995212 0.993604
0.95426 0.967054 0.998854 0.987902
0.889739 0.938349 0.959688 0.988026
0.909989 0.961349 0.956048 0.990092
1.00226 0.999757 1.00303 0.999483
0.966782 0.977016 0.995507 0.993991
0.960271 0.969806 0.995514 0.99463
1.00778 0.994833 1.0133 0.999715
0.973998 0.972414 1.0044 0.997238
0.960307 0.964275 1.00867 0.987324
0.92384 0.955615 0.97823 0.988264
0.926459 0.978863 0.956323 0.989691
0.999101 1 1 0.999101
0.999666 1 1.00036 0.999311
1.00398 1 1.00454 0.999445
0.999308 1 1 0.999308
0.99914 1 1 0.99914
0.999092 1 1 0.999092
0.999391 1 1.00028 0.99911
0.999142 1 1 0.999142
0.99909 1 1.00003 0.999059
1.00213 1 1.00285 0.999274
1.00456 0.998595 1.00653 0.999446
1.00138 1 1.0022 0.999183
0.999081 1 1 0.999081
0.999185 1 1 0.999185
0.999209 1 1 0.999209
0.999158 1 1 0.999158
0.999132 1 1 0.999132
0.999172 1 1 0.999172
0.999138 1 1 0.999138
0.999077 1 1 0.999077
0.999189 1 1 0.999189
0.998956 1 1 0.998956
0.998963 1 1 0.998963
0.999467 1 1.00069 0.998773
0.99985 1 1.00145 0.998401
0.998959 1 1.00004 0.998922
0.999434 1 1.00067 0.998763
0.999018 1 1 0.999018
0.999191 1 1 0.999191
0.999092 1 1 0.999092
0.999298 1 1 0.999298
0.999555 1 1 0.999555
0.999342 1 1 0.999342
0.99958 1 1 0.99958
0.999907 1 1 0.999907
0.999588 1 1 0.999588
0.999909 1 1 0.999909
1 1 1 1
0.999909 1 1 0.999909
1 1 1 1
1 1 1 1
1 1 1 1
1 1 1 1
1 1 1 1
0.999627 1 1 0.999627
0.999961 1 1 0.999961
0.999681 1 1 0.999681
1 1 1 1
0.999971 1 1 0.999971
0.999703 1 1 0.999703
1 1 1 1
1 1 1 1
0.999975 1 1 0.999975
1 1 1 1
1 1 1 1
1 1 1 1
0.915704 0.933932 0.990472 0.989914
0.891342 0.928591 0.971928 0.987611
0.966543 0.979016 0.995204 0.992018
0.884329 0.918281 0.975098 0.987621
0.967069 0.981486 0.990429 0.994834
1.01594 1.02301 0.994694 0.998388
0.96102 0.979771 0.990588 0.99018
0.876546 0.917508 0.967798 0.987142
0.818831 0.893945 0.930778 0.984096
0.988751 0.997792 0.994067 0.996853
0.958455 0.973666 0.996741 0.987596
0.863203 0.916495 0.954617 0.986629
0.886318 0.943657 0.95167 0.986937
0.97912 0.989266 0.993416 0.996303
0.964744 0.968261 1.00929 0.987193
0.889504 0.94014 0.957912 0.987711
0.915924 0.969324 0.955148 0.989281
0.999058 1 1 0.999058
0.999212 1 1 0.999212
0.99946 1 1 0.99946
0.999299 1 1 0.999299
0.999083 1 1 0.999083
0.999232 1 1 0.999232
0.99929 1 1 0.99929
0.999304 1 1 0.999304
0.99935 1 1 0.99935
0.999388 1 1 0.999388
1.00868 1.02441 0.986356 0.998264
0.988159 1.00437 0.985608 0.998232
0.999694 1 1.00114 0.99856
1.00889 1.00012 1.0105 0.998284
1.01174 1 1.01323 0.998527
1.00035 1 1.00154 0.998809
0.998951 1 1 0.998951
0.998948 1 1 0.998948
0.995641 1.00627 0.990863 0.99856
0.999161 1 1.00034 0.99882
1.00782 1 1.00918 0.998649
0.988063 1 0.989225 0.998825
1.0114 1.00006 1.01284 0.998519
0.97082 0.994074 0.977561 0.999025
1.00599 0.999793 1.00692 0.99928
1.00956 1 1.01085 0.998724
0.998904 1 1.00007 0.998839
1.00527 1 1.00662 0.998654
0.96505 0.973152 0.996736 0.994923
0.917235 0.933888 0.991701 0.990387
0.890467 0.929742 0.969025 0.988371
1.00223 1 1.0032 0.999038
1.01036 0.999433 1.01205 0.998901
0.991298 1 0.992239 0.999052
0.919559 0.936964 0.991547 0.98979
0.962756 0.96695 1.00858 0.987197
0.960102 0.969316 0.995664 0.994807
0.983818 0.984646 1.00033 0.998833
0.890442 0.937203 0.962524 0.987098
0.970381 0.9791 0.998997 0.99209
0.906772 0.959172 0.954759 0.990165
1.00214 0.999577 1.00309 0.999468
0.965735 0.975465 0.995487 0.994514
0.96373 0.972795 0.996018 0.994642
1.00873 0.996096 1.01312 0.999572
0.974348 0.973003 1.0046 0.996796
0.957514 0.965524 1.00505 0.986723
0.927241 0.981286 0.954162 0.990319
0.914619 0.950464 0.974159 0.987813
1.00418 0.996616 1.00788 0.999711
0.95704 0.96966 0.989466 0.997493
0.970342 0.982463 0.992518 0.995109
0.91842 0.970721 0.95635 0.989305
0.994951 0.981067 1.01493 0.999233
0.973549 0.971744 1.01418 0.98785
0.911494 0.9381 0.983237 0.988204
0.999579 1 1.00027 0.999312
1.00316 1 1.00376 0.9994
1.008 0.998785 1.00966 0.999566
0.999141 1 1 0.999141
0.999057 1 1 0.999057
1.00428 1 1.00498 0.999305
0.999088 1 1 0.999088
1.00167 1 1.00248 0.999186
1.0065 0.99905 1.00804 0.999421
1.00289 0.999666 1.00373 0.999489
1.00131 1 1.00213 0.99918
0.999136 1 1 0.999136
0.99917 1 1 0.99917
0.999143 1 1 0.999143
0.99918 1 1 0.99918
0.999085 1 1 0.999085
0.999462 1 1.00032 0.999142
0.999033 1 1 0.999033
1.00115 1 1.00259 0.998567
0.998982 1 1 0.998982
0.999314 1 1.00056 0.998751
0.999262 1 1.00101 0.998251
0.999596 1 1.00124 0.998356
0.999629 1 1.00085 0.998783
0.999679 1 1.00126 0.998417
0.999102 1 1 0.999102
0.998968 1 1.00007 0.998898
0.999322 1 1.00049 0.998832
0.999046 1 1 0.999046
0.999216 1 1 0.999216
0.999503 1 1 0.999503
0.999296 1 1 0.999296
0.999554 1 1 0.999554
0.9999 1 1 0.9999
0.99958 1 1 0.99958
0.999906 1 1 0.999906
1 1 1 1
0.999908 1 1 0.999908
1 1 1 1
1 1 1 1
1 1 1 1
1 1 1 1
1 1 1 1
0.999505 1 1 0.999505
0.999885 1 1 0.999885
0.999625 1 1 0.999625
1 1 1 1
0.999936 1 1 0.999936
0.99964 1 1 0.99964
1 1 1 1
1 1 1 1
0.999973 1 1 0.999973
1 1 1 1
1 1 1 1
1 1 1 1
0.9637 0.973878 0.995002 0.99452
0.905551 0.931938 0.981896 0.989601
0.892651 0.926253 0.976008 0.987412
0.999232 1 1 0.999232
0.957142 0.967742 0.993869 0.995148
0.969623 0.979526 0.99789 0.991982
0.878541 0.918273 0.968887 0.987455
0.988453 0.998141 0.994143 0.996129
0.962943 0.974985 0.99909 0.988549
0.869228 0.925508 0.951365 0.987203
0.879169 0.938675 0.949108 0.986828
0.980758 0.990786 0.995392 0.994462
0.953022 0.962893 1.00184 0.987935
0.897139 0.942424 0.964024 0.987474
0.914274 0.967289 0.955723 0.988981
0.966608 0.97607 0.997171 0.993115
0.96493 0.961411 1.01764 0.986263
0.914655 0.952667 0.972269 0.987484
0.923457 0.976664 0.955378 0.989685
0.998936 1 1 0.998936
0.999043 1 1 0.999043
0.999236 1 1 0.999236
0.99908 1 1 0.99908
0.999112 1 1 0.999112
0.999248 1 1 0.999248
0.99931 1 1 0.99931
0.999373 1 1 0.999373
0.990079 1.00572 0.985857 0.998573
0.986166 1 0.987394 0.998756
0.998949 1 1 0.998949
1.00962 1 1.01114 0.998503
1.00801 1 1.00938 0.998644
0.999234 1 1.0004 0.998831
0.998959 1 1.00011 0.998846
0.97613 0.996243 0.980752 0.999041
1.00543 1 1.00676 0.998679
1.00841 1 1.0097 0.998725
1.00013 0.999833 1.00099 0.999303
0.999266 1 1.00039 0.998876
0.968413 0.987765 0.981 0.999397
1.01118 0.998176 1.01358 0.999454
1.0099 1 1.01112 0.998797
1.00109 1 1.00229 0.9988
0.966317 0.971457 0.996791 0.997912
0.964796 0.972514 0.997046 0.995003
0.921245 0.934196 0.99555 0.990545
1.00191 0.999416 1.00304 0.999456
1.01073 0.997358 1.01398 0.999432
0.965348 0.974396 0.99566 0.995033
0.967275 0.964764 1.01507 0.987714
0.97053 0.970219 1.00558 0.994771
0.918779 0.953235 0.976484 0.987065
0.96633 0.974877 0.99656 0.994653
0.929145 0.985068 0.951849 0.990944
1.00465 0.997206 1.00779 0.999678
0.956842 0.969158 0.98976 0.997507
0.96926 0.980507 0.992726 0.995773
1.00379 0.988035 1.01607 0.999885
0.91599 0.969063 0.955757 0.988989
0.966385 0.966556 1.01244 0.987534
0.921465 0.952148 0.980306 0.987216
1.00823 0.994557 1.01398 0.999771
0.967544 0.980725 0.988502 0.998036
0.958025 0.969162 0.993304 0.995173
0.88985 0.946672 0.951903 0.987472
0.914819 0.954904 0.970384 0.98726
0.979716 0.975663 1.00524 0.998923
0.975077 0.964415 1.02524 0.986167
1.00183 1 1.00247 0.999355
1.00736 0.99838 1.00945 0.999549
1.0034 0.98923 1.01475 0.999582
0.999095 1 1 0.999095
1.00133 1 1.00214 0.999189
1.00787 0.999916 1.00856 0.999396
1.0001 1 1.00092 0.999173
1.00265 0.999461 1.0037 0.999488
1.00631 0.998665 1.00836 0.999296
0.999172 1 1 0.999172
0.999094 1 1 0.999094
1.00008 1 1.00097 0.999113
1.00656 1 1.00785 0.998712
0.99911 1 1 0.99911
1.00062 1 1.00198 0.998642
1.00226 1 1.00413 0.998139
0.999925 1.00014 1.00188 0.997909
0.999134 1 1.0004 0.99873
0.99929 1 1.00109 0.998197
0.998971 1 1.00053 0.998447
1.00054 1 1.0019 0.998637
0.999574 1 1.00117 0.998401
0.999389 1 1.00039 0.998997
0.99958 1 1.0008 0.998778
0.999583 1 1.00115 0.998434
0.999416 1 1 0.999416
0.999094 1 1 0.999094
0.999021 1 1.00015 0.998873
0.999241 1 1 0.999241
0.999501 1 1 0.999501
0.999883 1 1 0.999883
0.999553 1 1 0.999553
0.999897 1 1 0.999897
1 1 1 1
0.999905 1 1 0.999905
1 1 1 1
1 1 1 1
1 1 1 1
1 1 1 1
1 1 1 1
0.999457 1 1 0.999457
0.999836 1 1 0.999836
0.999529 1 1 0.999529
1 1 1 1
0.999882 1 1 0.999882
0.999624 1 1 0.999624
1 1 1 1
1 1 1 1
0.999911 1 1 0.999911
1 1 1 1
1 1 1 1
1 1 1 1
0.957448 0.96839 0.991176 0.997502
0.964142 0.974341 0.994982 0.994523
0.905633 0.932997 0.980807 0.989665
0.999244 1 1 0.999244
0.999206 1 1 0.999206
0.999111 1 1 0.999111
0.969271 0.981493 0.992424 0.995086
0.959071 0.968205 0.995375 0.995168
0.97255 0.980015 1.00044 0.991947
0.986406 0.990934 0.999572 0.995856
0.954432 0.964032 1.00284 0.987237
0.888902 0.934048 0.964058 0.987146
0.919044 0.971304 0.956814 0.988903
0.965157 0.973052 0.997161 0.99471
0.959759 0.961281 1.01129 0.987266
0.909963 0.943168 0.975909 0.988611
0.92476 0.979652 0.953208 0.990307
0.953593 0.964963 0.994316 0.993867
0.976544 0.969397 1.02013 0.987496
0.911639 0.936516 0.984953 0.988308
0.917288 0.967356 0.957656 0.990171
0.998929 1 1 0.998929
0.998952 1 1.00002 0.998933
0.999029 1 1 0.999029
0.999077 1 1 0.999077
0.99914 1 1 0.99914
0.999316 1 1 0.999316
0.982671 0.998782 0.9848 0.999054
0.995023 0.999878 0.995817 0.999324
0.998855 1 1 0.998852
1.00825 1 1.00954 0.998726
1.00593 1 1.00723 0.998705
0.999224 1 1.00037 0.998856
1.00106 1 1.00225 0.998809
0.980283 0.991524 0.989253 0.999403
1.01097 1 1.01211 0.998879
1.00633 0.994306 1.01262 0.99948
0.999322 1 1.0004 0.998921
0.996082 0.981843 1.01486 0.999644
0.99489 0.99025 1.00514 0.999543
1.00778 1 1.00879 0.999004
0.980873 0.984391 0.997857 0.998566
0.965175 0.970901 0.996 0.998096
0.964844 0.971735 0.997817 0.995081
1.00579 0.998236 1.00793 0.999644
0.999233 0.990231 1.00953 0.999565
0.956612 0.968624 0.990053 0.99752
0.969645 0.963842 1.01554 0.99063
0.923202 0.949383 0.983769 0.988466
0.968504 0.978665 0.993155 0.996439
0.920488 0.972427 0.957182 0.988933
1.00715 0.994531 1.0129 0.999788
0.966638 0.980558 0.987578 0.998203
0.960359 0.969744 0.995105 0.995194
0.978563 0.972098 1.0101 0.996585
0.885935 0.944926 0.949904 0.987017
0.908252 0.946854 0.970497 0.988392
0.985317 0.970539 1.02821 0.987373
1.00462 0.978764 1.02665 0.999775
0.958241 0.969187 0.991148 0.997537
0.967609 0.980568 0.994645 0.992097
0.834472 0.896688 0.943323 0.98653
0.89175 0.94236 0.958035 0.987746
0.97622 0.970742 1.01856 0.987314
0.95374 0.966594 0.991224 0.995437
1.00707 0.997714 1.00985 0.999532
1.00751 0.992807 1.01523 0.999586
1.01887 0.998028 1.02136 0.999529
0.999167 1 1 0.999167
1.00276 0.999022 1.00425 0.999487
1.00697 0.999261 1.00838 0.999349
1.01716 1 1.01824 0.998939
1.00066 1 1.00158 0.999084
1.00681 1 1.00819 0.998631
1.01392 1 1.01593 0.998029
1.00016 1 1.00145 0.998717
1.00311 1 1.005 0.998115
1.00353 1.00042 1.00549 0.997636
1.00091 1.00147 1.00191 0.997544
0.999264 1 1.00108 0.998188
1.00012 1.00035 1.00189 0.997881
0.999367 1 1.00123 0.998143
0.999699 1 1.0011 0.998603
0.999 1 1.00048 0.998521
1.00038 1 1.00157 0.998805
1.0006 1 1.00193 0.998667
0.999517 1 1.00107 0.998447
0.999279 1 1 0.999279
0.99932 1 1.00032 0.998999
0.999503 1 1.00073 0.998773
0.999843 1 1 0.999843
0.999415 1 1 0.999415
0.999086 1 1 0.999086
0.999499 1 1 0.999499
0.999879 1 1 0.999879
1 1 1 1
0.999895 1 1 0.999895
1 1 1 1
1 1 1 1
1 1 1 1
1 1 1 1
1 1 1 1
0.999454 1 1 0.999454
0.999852 1 1 0.999852
0.999472 1 1 0.999472
1 1 1 1
0.999863 1 1 0.999863
0.999552 1 1 0.999552
1 1 1 1
1 1 1 1
0.999878 1 1 0.999878
1 1 1 1
1 1 1 1
1 1 1 1
0.966702 0.980254 0.98813 0.998022
0.957014 0.96897 0.990119 0.997517
0.963936 0.974745 0.994346 0.994533
0.999189 1 1 0.999189
0.999085 1 1 0.999085
0.999256 1 1 0.999256
0.999205 1 1 0.999205
0.999095 1 1 0.999095
0.999105 1 1 0.999105
0.999014 1 1 0.999014
0.95946 0.969616 0.994913 0.994585
0.967716 0.979006 0.992682 0.995754
0.961068 0.968581 0.997039 0.99519
0.92805 0.984011 0.951763 0.990929
0.95535 0.964761 0.996957 0.993268
0.965342 0.964111 1.01305 0.988377
0.914602 0.941877 0.983434 0.987399
0.951479 0.964776 0.992949 0.993221
0.965903 0.963162 1.01613 0.986928
0.923559 0.953353 0.98093 0.987581
0.909487 0.961012 0.955917 0.990027
0.949355 0.96401 0.989939 0.994806
0.96871 0.967117 1.01523 0.98662
0.926294 0.957531 0.978784 0.988347
0.88918 0.948261 0.948807 0.988289
0.998993 1 1 0.998993
0.998928 1 1 0.998928
0.998931 1 1 0.998931
0.999074 1 1 0.999074
0.989709 0.994684 0.995585 0.999411
1.00092 0.991041 1.01047 0.999505
0.998836 1 1 0.998836
1.00077 1 1.00195 0.998817
1.01049 1 1.01154 0.998961
0.999083 1 1.00017 0.998917
1.00858 1 1.0096 0.99899
0.992114 0.980176 1.01304 0.999147
0.996348 0.991338 1.00541 0.999644
1.00317 1 1.0041 0.999074
0.997044 0.977478 1.02094 0.9991
1.00887 0.995583 1.01403 0.999322
0.966421 0.971681 0.996638 0.997941
0.977026 0.98241 0.995792 0.998722
0.96443 0.970508 0.995451 0.998279
1.00561 0.994014 1.01186 0.999805
0.980523 0.972703 1.00908 0.998973
0.965691 0.98027 0.986735 0.998371
0.974497 0.965901 1.02279 0.986415
0.912749 0.944479 0.978984 0.987151
0.962626 0.970302 0.996861 0.995214
0.879241 0.939167 0.948611 0.986909
1.00933 0.981193 1.02887 0.999809
0.957448 0.969451 0.990043 0.997552
0.970581 0.981079 0.997218 0.992059
0.957254 0.967901 0.991562 0.997416
0.82667 0.895055 0.93728 0.985401
0.895282 0.941951 0.962558 0.987425
0.974822 0.966864 1.02111 0.987382
0.999054 0.982064 1.01797 0.999341
0.964031 0.974735 0.994385 0.994603
0.894307 0.925919 0.977322 0.988271
0.857493 0.91162 0.952086 0.987962
0.961812 0.960117 1.01439 0.987558
0.94283 0.963065 0.985018 0.993879
1.01134 0.996517 1.01529 0.99959
1.01893 0.996384 1.02312 0.999522
1.01345 1 1.01409 0.999374
1.00749 0.999815 1.00828 0.999402
1.01676 0.999517 1.01827 0.999002
1.01031 1.00032 1.01173 0.998287
1.00722 1 1.00868 0.99855
1.01313 1 1.01517 0.997982
1.00713 1.00017 1.0094 0.997579
1.00393 1 1.00585 0.998092
1.00357 1.00022 1.00577 0.997589
1.00316 1.00204 1.00372 0.997408
1.00212 1.00458 1 0.997551
1.00111 1.00263 1.00077 0.997726
1.00137 1.00171 1.00218 0.997494
0.998523 1 1.00013 0.998397
0.998974 1 1.00074 0.998233
1.00032 1.00058 1.0019 0.997852
0.999749 1 1.00112 0.998635
0.999678 1 1.00108 0.998597
0.99902 1 1.00043 0.998595
0.999363 1 1.00028 0.999086
1.00021 1 1.00137 0.998834
1.00062 1 1.00193 0.998697
0.999746 1 1 0.999746
0.999279 1 1 0.999279
0.999243 1 1.00024 0.999001
1 1 1 1
0.999838 1 1 0.999838
0.999414 1 1 0.999414
0.999875 1 1 0.999875
1 1 1 1
1 1 1 1
1 1 1 1
1 1 1 1
1 1 1 1
0.999184 1 1 0.999184
0.999415 1 1 0.999415
0.999819 1 1 0.999819
0.999453 1 1 0.999453
1 1 1 1
0.999855 1 1 0.999855
0.999488 1 1 0.999488
1 1 1 1
1 1 1 1
0.999891 1 1 0.999891
1 1 1 1
1 1 1 1
1 1 1 1
0.956573 0.9696 0.989042 0.997496
0.966132 0.980253 0.98738 0.998191
0.956016 0.969575 0.988454 0.997532
0.999198 1 1 0.999198
0.999071 1 1 0.999071
0.999008 1 1 0.999008
0.999073 1 1 0.999073
0.998992 1 1 0.998992
0.999203 1 1 0.999203
0.999078 1 1 0.999078
0.999105 1 1 0.999105
0.999011 1 1 0.999011
0.999054 1 1 0.999054
0.963245 0.973577 0.997289 0.992078
0.962408 0.972117 0.995386 0.994602
0.965718 0.976503 0.992507 0.996422
0.906802 0.959365 0.954651 0.990111
0.92267 0.94757 0.984945 0.988606
0.944039 0.960202 0.99068 0.992416
0.973719 0.970545 1.01615 0.987328
0.951061 0.965354 0.992128 0.993011
0.980224 0.975191 1.01815 0.987244
0.916158 0.951357 0.974625 0.988073
0.890005 0.949768 0.948683 0.987765
0.969902 0.972651 1.00311 0.994086
0.969379 0.968624 1.0133 0.987645
0.881693 0.930994 0.959544 0.986973
0.851878 0.918995 0.939807 0.986338
0.999475 1 1.00017 0.999302
0.999235 1 1.00024 0.998996
0.999129 1 1.0002 0.998928
0.989246 0.978322 1.01254 0.998645
0.997566 0.991423 1.00645 0.999748
0.999213 1 1.0003 0.998912
1.00995 1 1.01099 0.998976
1.00354 1 1.00446 0.999081
1.00935 0.996766 1.01333 0.999312
0.99481 0.975473 1.02071 0.999134
1.00862 0.99984 1.00944 0.999355
0.998621 0.984765 1.01518 0.998911
0.966528 0.974605 0.996835 0.994862
0.965011 0.970906 0.995798 0.998123
0.972799 0.980212 0.993552 0.998879
1.01414 0.983516 1.03131 0.999838
0.958278 0.970278 0.99291 0.994685
0.95615 0.969741 0.988389 0.997567
0.972411 0.970037 1.01717 0.985525
0.890297 0.934834 0.964773 0.987132
0.973299 0.981538 0.999579 0.992024
0.820947 0.895101 0.931814 0.984269
0.997421 0.980356 1.01799 0.999428
0.965426 0.975668 0.994869 0.994606
0.885205 0.919229 0.974894 0.987785
0.944725 0.965202 0.983855 0.994847
0.865487 0.917179 0.956262 0.986801
0.952177 0.958307 1.00709 0.986604
0.976921 0.982095 0.996011 0.998716
0.916279 0.934314 0.990535 0.990069
0.863936 0.909089 0.962732 0.98712
0.964874 0.969483 1.00806 0.987284
0.950599 0.964185 0.990766 0.995099
1.01871 0.995097 1.02423 0.999515
1.01512 0.999438 1.01635 0.999353
0.993532 1.0004 0.994269 0.998855
1.01614 0.999022 1.01808 0.999064
1.01084 1.00054 1.01194 0.998371
1.00236 1.00169 1.00272 0.997956
1.01212 1 1.01421 0.997936
1.00596 1.00031 1.00808 0.997591
0.999311 1.00147 1.00017 0.997677
1.00343 1 1.00591 0.997541
1.0034 1.00297 1.00301 0.997425
1.00476 1.00709 1 0.997691
1.00806 1.01026 1 0.997815
1.00406 1.00646 1.00002 0.997593
1.00197 1.00442 1 0.997565
0.999492 1.0015 1 0.997998
1.00036 1.00161 1.00107 0.997681
1.00179 1.00191 1.00244 0.997444
0.998546 1 1 0.998546
0.998475 1 1.00002 0.998451
0.998594 1 1.00032 0.998277
0.999202 1 1.00031 0.998894
0.99984 1 1.00119 0.998652
0.999684 1 1.0011 0.99859
0.999566 1 1 0.999566
0.999379 1 1.00029 0.999086
1.00007 1 1.00121 0.998864
1 1 1 1
0.999741 1 1 0.999741
0.99928 1 1 0.99928
1 1 1 1
1 1 1 1
0.999832 1 1 0.999832
1 1 1 1
1 1 1 1
1 1 1 1
0.999108 1 1 0.999108
0.999365 1 1 0.999365
0.999172 1 1 0.999172
0.999793 1 1 0.999793
0.999414 1 1 0.999414
1 1 1 1
0.999821 1 1 0.999821
0.999452 1 1 0.999452
1 1 1 1
1 1 1 1
0.999859 1 1 0.999859
1 1 1 1
1 1 1 1
1 1 1 1
0.965849 0.976794 0.993674 0.995089
0.956341 0.968991 0.989408 0.997511
0.965859 0.980204 0.986982 0.998362
0.999002 1 1 0.999002
0.999207 1 1 0.999207
0.999057 1 1 0.999057
0.999087 1 1 0.999087
0.999022 1 1 0.999022
0.998988 1 1 0.998988
0.998914 1 1 0.998914
0.99897 1 1 0.99897
0.999106 1 1 0.999106
0.999008 1 1 0.999008
0.999046 1 1 0.999046
0.999129 1 1 0.999129
0.886775 0.922607 0.973477 0.987349
0.966006 0.975966 0.997745 0.992031
0.964128 0.973351 0.995883 0.994619
0.885309 0.947394 0.946187 0.987614
0.923297 0.957722 0.976215 0.987544
0.968868 0.966305 1.0162 0.98667
0.953094 0.96441 0.994334 0.993898
0.969861 0.971322 1.00289 0.995621
0.837159 0.90794 0.935835 0.985262
0.969524 0.966826 1.01655 0.986461
0.887474 0.9381 0.957713 0.987805
0.961489 0.97117 0.994036 0.995972
0.96107 0.960709 1.01233 0.988191
0.861805 0.916332 0.952354 0.987546
1.00003 1 1.00041 0.999625
0.999447 1 1.00014 0.999303
0.999326 1 1.00033 0.998998
0.994987 0.976182 1.02012 0.999161
1.01091 0.999023 1.01261 0.999303
1.00375 1 1.00467 0.999088
1.00835 1 1.00901 0.999354
0.998233 0.985867 1.0136 0.998956
1.00322 0.994663 1.00939 0.99922
0.91438 0.934784 0.988884 0.989168
0.965877 0.973901 0.996182 0.995562
0.963782 0.970093 0.995182 0.998304
0.996015 0.978363 1.01854 0.999513
0.943705 0.967248 0.980019 0.995552
0.965988 0.976621 0.99447 0.994613
0.959899 0.960354 1.01134 0.988321
0.874144 0.92851 0.953477 0.987384
0.878608 0.918685 0.968365 0.987619
0.976789 0.982709 0.9952 0.99877
0.905638 0.932143 0.981626 0.989752
0.878182 0.914595 0.971926 0.987921
0.950531 0.962423 0.99434 0.993265
0.953754 0.965781 0.99957 0.987971
0.966697 0.988835 0.97836 0.999235
0.889877 0.925457 0.973031 0.988205
0.959312 0.974349 0.996019 0.988503
0.964047 0.976573 0.994072 0.99306
1.01748 0.998703 1.01948 0.999332
0.989795 1.00021 0.990637 0.99894
0.982348 1.0022 0.981634 0.998525
1.01177 1.00081 1.01252 0.998454
1.00308 1.00211 1.00303 0.997948
1.00067 1.00312 0.999428 0.998127
1.00506 1.00049 1.00698 0.997603
0.999425 1.00108 1.00065 0.997692
1.00783 1.00974 1 0.9981
1.00375 1.00395 1.00237 0.997441
1.00461 1.00693 1 0.997697
1.01142 1.01332 1 0.998129
1.01355 1.01546 1 0.998121
1.00819 1.01044 1 0.997769
1.00795 1.01013 1 0.997836
1.00304 1.00525 1 0.997805
1.00371 1.00609 1 0.99763
1.00183 1.00426 1 0.997578
0.998546 1.00022 1 0.998325
1.00004 1.00189 1.00014 0.998013
0.999807 1.0007 1.00148 0.997637
0.998757 1 1 0.998757
0.998541 1 1 0.998541
0.998505 1 1 0.998505
0.999354 1 1 0.999354
0.99917 1 1.00027 0.998897
0.999902 1 1.00123 0.998669
0.999994 1 1 0.999994
0.999563 1 1 0.999563
0.999355 1 1.00027 0.999087
1 1 1 1
0.999999 1 1 0.999999
0.999736 1 1 0.999736
1 1 1 1
1 1 1 1
1 1 1 1
0.999081 1 1 0.999081
0.999109 1 1 0.999109
0.999298 1 1 0.999298
0.999764 1 1 0.999764
0.999366 1 1 0.999366
0.999161 1 1 0.999161
1 1 1 1
0.999795 1 1 0.999795
0.999414 1 1 0.999414
1 1 1 1
1 1 1 1
0.999824 1 1 0.999824
1 1 1 1
1 1 1 1
1 1 1 1
0.909087 0.928793 0.989717 0.988953
0.965649 0.97576 0.994509 0.995102
0.95638 0.968681 0.98975 0.997526
0.998989 1 1 0.998989
0.998939 1 1 0.998939
0.998919 1 1 0.998919
0.9991 1 1 0.9991
0.999037 1 1 0.999037
0.998985 1 1 0.998985
0.998967 1 1 0.998967
0.998913 1 1 0.998913
0.998834 1 1 0.998834
0.999135 1 1 0.999135
0.999039 1 1 0.999039
0.999123 1 1 0.999123
0.875487 0.912643 0.971266 0.987666
0.882651 0.917401 0.974897 0.986895
0.969383 0.978914 0.998261 0.991989
0.821815 0.894548 0.93346 0.98418
0.888055 0.935314 0.962035 0.986942
0.97369 0.97058 1.01462 0.988753
0.969996 0.968403 1.00783 0.993866
0.959227 0.968346 0.996174 0.994388
0.861969 0.910164 0.959939 0.986572
0.953774 0.958329 1.00722 0.98811
0.959471 0.970128 0.99411 0.994874
0.953957 0.968378 0.997478 0.987599
1.00729 1 1.00819 0.999115
0.999845 1 1.00027 0.999579
0.999305 1 1 0.999305
0.994531 0.983653 1.01207 0.998998
1.00797 1 1.00862 0.999354
1.00361 0.995356 1.00918 0.999119
0.996108 0.999172 0.998488 0.998443
0.887564 0.933899 0.961726 0.988208
0.918149 0.934997 0.99206 0.989839
0.966493 0.973728 0.996297 0.996258
0.975122 0.983279 0.992848 0.998848
0.950488 0.962418 0.993413 0.994153
0.905839 0.933143 0.980731 0.989812
0.95319 0.963367 1.00211 0.987356
0.880538 0.920213 0.96918 0.987313
0.970287 0.989692 0.981516 0.998855
0.892922 0.929685 0.972386 0.987732
0.961422 0.976151 0.997325 0.987552
0.968213 0.975908 0.997506 0.994595
0.98427 0.996931 0.988251 0.999037
0.958178 0.978997 0.991062 0.987562
0.976319 0.988439 0.992129 0.995574
0.985984 1 0.986946 0.999025
0.983337 1.00275 0.982104 0.998504
0.983852 1.00555 0.979979 0.998412
1.00343 1.00247 1.00303 0.99794
1.0001 1.00334 0.998648 0.998122
1.00955 1.01386 0.997227 0.998521
0.999396 1.00062 1.00107 0.997706
1.00766 1.00958 1 0.998094
1.01605 1.01764 0.999962 0.998474
1.00436 1.00668 1 0.997702
1.01093 1.01282 1 0.998129
1.01484 1.01647 1 0.998398
1.01258 1.01431 1 0.998302
1.01336 1.01523 1 0.998157
1.01242 1.01441 1 0.998041
1.00822 1.01038 1 0.997859
1.0088 1.01105 1 0.997773
1.00784 1.01001 1 0.997858
0.999515 1.00146 1 0.998058
1.00359 1.00577 1 0.99784
1.0033 1.00564 1 0.997668
0.998595 1 1 0.998595
0.99879 1.00047 1 0.998318
1.00037 1.00218 1.00017 0.998027
0.999194 1 1 0.999194
0.998756 1 1 0.998756
0.998536 1 1 0.998536
0.99996 1 1 0.99996
0.999354 1 1 0.999354
0.999178 1 1.00028 0.9989
1 1 1 1
0.999987 1 1 0.999987
0.999559 1 1 0.999559
1 1 1 1
0.999999 1 1 0.999999
1 1 1 1
0.999011 1 1 0.999011
0.99907 1 1 0.99907
0.999224 1 1 0.999224
0.999111 1 1 0.999111
0.999298 1 1 0.999298
0.999714 1 1 0.999714
0.999999 1 1 0.999999
0.999767 1 1 0.999767
0.999366 1 1 0.999366
1 1 1 1
1 1 1 1
0.999797 1 1 0.999797
1 1 1 1
1 1 1 1
1 1 1 1
0.897701 0.928998 0.978262 0.987783
0.909644 0.931496 0.987768 0.988634
0.964783 0.974106 0.995292 0.995114
0.998976 1 1 0.998976
0.998894 1 1 0.998894
0.998967 1 1 0.998967
0.998787 1 1 0.998787
0.998853 1 1 0.998853
0.998965 1 1 0.998965
0.998912 1 1 0.998912
0.998853 1 1 0.998853
0.99874 1 1 0.99874
0.998966 1 1 0.998966
0.998918 1.00034 1.00026 0.998325
0.999389 1 1.00021 0.999176
0.999118 1 1 0.999118
0.95662 0.976894 0.991984 0.98716
0.879555 0.912867 0.975704 0.9875
0.884277 0.920369 0.973661 0.986775
0.8613 0.910369 0.958466 0.987098
0.958404 0.960407 1.01174 0.98633
0.961783 0.967842 0.997631 0.996099
0.960777 0.970878 0.993689 0.995881
0.957161 0.969324 0.998962 0.988478
0.976077 0.991308 0.989703 0.994879
1.00187 1.00132 1.00224 0.99832
1.00575 1 1.00666 0.999096
0.999532 1 1 0.999532
1.00413 0.997085 1.00804 0.99903
0.998606 1.00082 0.999444 0.998343
0.945613 0.974464 0.981762 0.98842
0.895292 0.933647 0.970708 0.987855
0.922182 0.935408 0.995298 0.990519
0.973442 0.990376 0.984416 0.998461
0.96211 0.970173 0.998542 0.993137
0.893996 0.927952 0.975596 0.987506
0.961234 0.973916 0.998561 0.9884
0.982493 0.996929 0.98647 0.999036
0.960024 0.980691 0.990075 0.988739
0.977635 0.989412 0.99407 0.993991
1.00047 1.00537 0.99659 0.998526
0.987239 0.996762 0.993464 0.996962
0.984159 1.00338 0.982333 0.998486
0.986024 1.00515 0.982577 0.998366
1.00441 1.02186 0.984416 0.998488
0.999811 1.00358 0.998123 0.998117
1.00859 1.01296 0.997165 0.998512
1.0159 1.02175 0.995604 0.998656
1.00753 1.00946 1 0.998088
1.01599 1.01779 0.999771 0.99846
1.01706 1.01888 0.999663 0.998548
1.01054 1.01243 1 0.998128
1.01505 1.01669 1 0.998384
1.01268 1.0143 1 0.998398
1.01319 1.01487 1 0.998338
1.0121 1.01395 1 0.998175
1.01318 1.01501 1 0.998193
1.01219 1.01418 1 0.998035
1.0095 1.01155 1 0.997978
1.00309 1.00512 1 0.997984
1.00795 1.01012 1 0.997851
1.00939 1.01164 1 0.997777
0.99859 1.00019 1 0.998404
0.999873 1.0018 1 0.99808
1.00422 1.00636 1 0.997875
0.999063 1 1 0.999063
0.99859 1 1 0.99859
0.999056 1.00075 1 0.998312
0.999886 1 1 0.999886
0.999196 1 1 0.999196
0.998755 1 1 0.998755
1 1 1 1
0.999944 1 1 0.999944
0.999354 1 1 0.999354
1 1 1 1
0.999979 1 1 0.999979
1 1 1 1
0.998811 1 1 0.998811
0.999011 1 1 0.999011
0.999107 1 1 0.999107
0.999058 1 1 0.999058
0.999204 1 1 0.999204
0.999614 1 1 0.999614
0.999297 1 1 0.999297
0.999716 1 1 0.999716
0.999997 1 1 0.999997
1 1 1 1
0.999999 1 1 0.999999
0.999769 1 1 0.999769
1 1 1 1
1 1 1 1
1 1 1 1
0.960343 0.980054 0.990937 0.988849
0.890706 0.931124 0.967982 0.988234
0.918374 0.936612 0.991827 0.988607
0.99887 1 1 0.99887
0.998994 1 1 0.998994
0.998863 1 1 0.998863
0.998797 1 1 0.998797
0.998566 1 1.00002 0.998545
0.998791 1 1 0.998791
0.998871 1 1 0.998871
0.998673 1 1 0.998673
0.999136 1 1.00021 0.998931
0.998575 1 1 0.998575
1.00057 1.00213 1 0.998442
0.998696 1.00129 0.999527 0.997882
0.999273 1.00081 1.00006 0.998411
0.999629 1 1.00041 0.999218
0.974021 0.989611 0.989143 0.99505
0.95822 0.976902 0.992762 0.988027
0.874098 0.913702 0.968971 0.987289
0.96852 0.975284 1.0058 0.987342
0.958573 0.970624 0.990883 0.996671
0.980716 0.992812 0.991102 0.996685
0.994106 1.00399 0.991693 0.998449
0.999491 1.00067 1.00043 0.998398
1.0047 1 1.00563 0.999076
0.997765 1.00112 0.998415 0.99823
0.973706 0.984525 0.994008 0.994973
0.953894 0.975749 0.988056 0.98942
0.888834 0.930143 0.966748 0.988457
0.983189 0.998659 0.985462 0.999034
0.984284 0.991624 0.997412 0.995174
0.962173 0.981389 0.990379 0.989944
0.994633 1.00475 0.99138 0.998535
0.985205 0.995521 0.993239 0.996373
1.00466 1.02193 0.984795 0.998283
1.0067 1.01464 0.994042 0.998124
0.987902 1.00457 0.985068 0.998318
1.00502 1.02169 0.98519 0.998479
1.0087 1.0257 0.984899 0.998503
1.00772 1.0123 0.99697 0.998502
1.01563 1.02138 0.99572 0.998643
1.01334 1.01892 0.996031 0.998483
1.01588 1.01791 0.999557 0.998445
1.01669 1.01869 0.999495 0.998535
1.01423 1.01625 0.999673 0.998341
1.01522 1.01687 1 0.99837
1.01238 1.01401 1 0.998399
1.0124 1.01424 1 0.998179
1.01377 1.01542 1 0.998374
1.01184 1.01366 1 0.998202
1.01023 1.01223 1 0.998028
1.012 1.014 1 0.998029
1.00947 1.01152 1 0.997971
1.00442 1.00639 1 0.998039
0.998784 1.00054 1 0.998249
1.00295 1.00496 1 0.998003
1.00771 1.00989 1 0.997843
0.998908 1 1 0.998908
0.998643 1.00024 1 0.998404
1.00022 1.00212 1 0.998102
0.999789 1 1 0.999789
0.999061 1 1 0.999061
0.998586 1 1 0.998586
1 1 1 1
0.999872 1 1 0.999872
0.999196 1 1 0.999196
1 1 1 1
0.999928 1 1 0.999928
1 1 1 1
0.99907 1.00048 1 0.998592
0.998822 1 1 0.998822
0.998962 1 1 0.998962
0.999011 1 1 0.999011
0.999092 1 1 0.999092
0.999475 1 1 0.999475
0.999185 1 1 0.999185
0.999615 1 1 0.999615
0.99999 1 1 0.99999
0.999717 1 1 0.999717
0.999998 1 1 0.999998
1 1 1 1
1 1 1 1
0.999999 1 1 0.999999
1 1 1 1
0.972377 0.98625 0.990586 0.995304
0.955682 0.979133 0.987694 0.988211
0.88594 0.928084 0.966545 0.987631
1.00161 1.00329 1.00007 0.998262
0.998874 1 1 0.998874
0.998807 1 1 0.998807
0.998775 1 1 0.998775
0.998725 1.00007 1.00012 0.998534
0.999239 1.00051 1 0.998727
0.998606 1 1 0.998606
0.99932 1 1.00043 0.998896
0.998619 1 1 0.998619
0.999929 1.0015 1 0.998426
1.00112 1.0032 1 0.997926
1.00333 1.0058 0.999773 0.997774
0.99973 1.00195 0.999939 0.997842
0.999832 1.00134 1 0.998498
0.998733 1.00618 0.993701 0.998888
0.974149 0.990388 0.989234 0.994308
0.961337 0.977766 0.99402 0.989113
0.976149 0.9892 0.991461 0.995305
0.998393 1.00597 0.993762 0.998698
0.999618 1.0002 1.00094 0.998475
1.00162 1.00668 0.996716 0.998253
0.971991 0.981216 0.994461 0.996115
0.949474 0.976106 0.984036 0.988497
0.988036 1.00307 0.986447 0.998541
0.986063 0.99603 0.994293 0.995676
1.00535 1.02267 0.984742 0.9983
1.00585 1.01288 0.994812 0.998234
1.0114 1.02715 0.986385 0.998265
1.0161 1.02043 0.997549 0.998197
1.00595 1.0215 0.986288 0.998471
1.01085 1.02673 0.986009 0.998508
1.00667 1.01876 0.989764 0.998351
1.01528 1.02084 0.99592 0.998631
1.01435 1.0195 0.996462 0.998481
1.0141 1.01753 0.9984 0.998225
1.0164 1.01855 0.999371 0.998521
1.01439 1.01632 0.999746 0.998356
1.01374 1.01569 1 0.998079
1.0121 1.01373 1 0.9984
1.01196 1.0138 1 0.998179
1.01217 1.01421 1 0.997994
1.01159 1.01339 1 0.998229
1.01031 1.01229 1 0.998042
1.00539 1.0074 1 0.998
1.00941 1.01147 1 0.997964
1.00441 1.0064 1 0.998021
0.99982 1.0016 1 0.998223
0.998781 1 1 0.998781
0.998903 1.00063 1 0.998273
1.00279 1.00478 1 0.998023
0.999683 1 1 0.999683
0.998907 1 1 0.998907
0.998715 1.00031 1 0.998404
1 1 1 1
0.999777 1 1 0.999777
0.99906 1 1 0.99906
1 1 1 1
0.999857 1 1 0.999857
1 1 1 1
0.999984 1.00167 1 0.998316
0.998828 1.00023 1 0.998596
0.998787 1 1 0.998787
0.998834 1 1 0.998834
0.998969 1 1 0.998969
0.999333 1 1 0.999333
0.999076 1 1 0.999076
0.999474 1 1 0.999474
0.999967 1 1 0.999967
0.999617 1 1 0.999617
0.999992 1 1 0.999992
1 1 1 1
0.999998 1 1 0.999998
1 1 1 1
1 1 1 1
1.00363 1.01047 0.994355 0.998876
0.970207 0.985923 0.99015 0.993849
0.958379 0.975827 0.992969 0.989074
1.00337 1.00497 1.00001 0.998396
1.00531 1.00731 1 0.998017
1.00138 1.00296 1.00013 0.998296
0.998758 1 1 0.998758
0.998897 1.00013 1.00024 0.998522
0.999659 1.00098 1 0.998677
1.00448 1.00644 1 0.998052
0.998663 1 1 0.998663
0.999179 1.00077 1 0.998411
1.00138 1.00341 1 0.997975
1.0075 1.00989 1 0.997632
1.01208 1.01609 0.997951 0.998093
1.00298 1.00561 0.999629 0.997757
1.00042 1.00262 1 0.997801
1.00182 1.0087 0.994206 0.998975
0.973954 0.990002 0.990308 0.993418
0.999694 1.00737 0.99342 0.998951
1.01375 1.01839 0.996751 0.998687
1.00044 1.00539 0.996747 0.998322
0.970732 0.983384 0.9925 0.994593
1.00585 1.02349 0.984418 0.998317
1.00445 1.01135 0.994827 0.998346
1.01008 1.02703 0.985162 0.998315
1.01844 1.02259 0.997737 0.998209
1.01328 1.0227 0.992547 0.998224
1.02475 1.02889 0.997641 0.998325
1.01278 1.02804 0.98662 0.998512
1.00694 1.01834 0.99043 0.998355
1.01691 1.02286 0.996039 0.998135
1.01527 1.02005 0.996827 0.998478
1.01431 1.0173 0.99884 0.998224
1.01638 1.01844 0.999957 0.998013
1.01448 1.01634 0.999798 0.998371
1.01353 1.01548 1 0.998078
1.01501 1.01714 1 0.997906
1.0115 1.01334 1 0.998179
1.0121 1.01414 1 0.997994
1.00678 1.00886 1 0.997938
1.01037 1.01234 1 0.998056
1.0054 1.00742 1 0.998003
1.00009 1.00192 1 0.998167
1.00441 1.00642 1 0.998002
0.999764 1.00155 1 0.998212
0.998705 1 1 0.998705
0.999605 1 1 0.999605
0.998781 1 1 0.998781
0.999009 1.00071 1 0.998297
1 1 1 1
0.999672 1 1 0.999672
0.998906 1 1 0.998906
1 1 1 1
0.999765 1 1 0.999765
1 1 1 1
1.00005 1.00199 1 0.998067
0.999787 1.0015 1 0.998291
0.998566 1.00002 1 0.998545
0.998601 1 1 0.998601
0.998792 1 1 0.998792
0.999185 1 1 0.999185
0.998977 1 1 0.998977
0.999333 1 1 0.999333
0.999918 1 1 0.999918
0.999474 1 1 0.999474
0.999975 1 1 0.999975
1 1 1 1
0.999995 1 1 0.999995
1 1 1 1
1 1 1 1
1.01266 1.01908 0.995195 0.998494
1.00118 1.00949 0.993123 0.998629
0.968504 0.985559 0.987974 0.994656
1.00911 1.0111 1 0.998028
1.00197 1.00342 1 0.998557
1.01273 1.01489 1 0.997873
1.00509 1.00711 1 0.998002
1.00116 1.00266 1.00018 0.998333
1.0149 1.01725 1 0.99769
1.00009 1.00146 1 0.998629
1.00446 1.00647 1 0.997997
1.01974 1.02201 0.999984 0.997799
1.00149 1.00348 1 0.998025
1.00806 1.01048 1 0.997605
1.01154 1.01499 0.99849 0.998102
1.00226 1.00472 0.999812 0.997739
1.00422 1.01057 0.994654 0.999064
1.02375 1.02714 0.998289 0.998406
1.01341 1.01816 0.996646 0.998689
0.99965 1.00409 0.997185 0.998388
1.00882 1.02663 0.984252 0.998365
1.01969 1.02382 0.997741 0.998221
1.01305 1.02295 0.992069 0.998237
1.02528 1.03005 0.997034 0.998331
1.02528 1.03058 0.996626 0.998225
1.0072 1.0178 0.991214 0.998359
1.01697 1.02254 0.996402 0.998142
1.01969 1.02326 0.998497 0.998006
1.01454 1.01708 0.99928 0.998223
1.01602 1.01808 0.999974 0.997998
1.01736 1.01958 1 0.997829
1.01338 1.01533 1 0.998076
1.01486 1.01699 1 0.997905
1.00928 1.01146 1 0.99785
1.01205 1.01408 1 0.997995
1.00698 1.00906 1 0.997939
1.00051 1.00243 1 0.998079
1.00542 1.00743 1 0.998006
1.00018 1.00202 1 0.998169
0.998633 1 1 0.998633
0.999691 1.00149 1 0.998202
0.998704 1 1 0.998704
0.999625 1 1 0.999625
0.999903 1 1 0.999903
0.999622 1 1 0.999622
0.998781 1 1 0.998781
1 1 1 1
0.999661 1 1 0.999661
1 1 1 1
1.01683 1.01895 1 0.997915
1.00471 1.00673 1 0.997991
0.999841 1.0018 1 0.998049
0.999216 1.00086 1 0.998356
0.999567 1.0013 1 0.998266
0.998553 1 1 0.998549
0.999022 1 1 0.999022
0.998796 1 1 0.998796
0.999188 1 1 0.999188
0.999835 1 1 0.999835
0.999333 1 1 0.999333
0.999933 1 1 0.999933
1 1 1 1
0.999983 1 1 0.999983
1 1 1 1
1 1 1 1
1.02458 1.02694 0.999528 0.998167
1.01645 1.02235 0.995643 0.998577
1.00027 1.00962 0.992351 0.99838
1.01716 1.01945 1 0.997759
1.00799 1.00991 1 0.998105
1.00052 1.0018 1 0.998715
1.01302 1.01515 1 0.997895
1.00487 1.0069 1 0.997986
1.02236 1.02463 1 0.997779
1.01375 1.01613 1 0.997655
1.00459 1.00666 1 0.997943
1.01945 1.0217 1 0.997793
1.00972 1.01217 1 0.997579
1.01322 1.01621 0.998947 0.998115
1.02867 1.03148 0.998964 0.99831
1.02537 1.02836 0.998679 0.998411
1.01412 1.01815 0.997348 0.99869
1.01359 1.02398 0.991588 0.998251
1.02632 1.03152 0.99662 0.998338
1.02526 1.03125 0.995945 0.99824
1.0249 1.02736 0.999548 0.998057
1.01697 1.02215 0.996785 0.998149
1.02016 1.02317 0.99906 0.997999
1.01926 1.02148 1 0.997818
1.01566 1.01771 1 0.997983
1.01749 1.01971 1 0.997829
1.01231 1.01457 1 0.997774
1.01469 1.01682 1 0.997904
1.00943 1.0116 1 0.99785
1.00129 1.00331 1 0.997982
1.00716 1.00924 1 0.99794
1.00073 1.00265 1 0.99808
0.998541 1 1 0.998541
1.00029 1.00212 1 0.998171
0.998631 1 1 0.998631
0.999619 1 1 0.999619
0.998702 1 1 0.998702
0.999621 1 1 0.999621
0.999907 1 1 0.999907
0.999952 1 1 0.999952
0.99964 1 1 0.99964
1 1 1 1
1.01867 1.02095 1 0.997767
1.00759 1.0096 1 0.998002
1.01663 1.01866 1 0.998008
0.999973 1.00175 1 0.998223
1.00531 1.00734 1 0.997986
0.99961 1.00158 1 0.99803
0.998928 1.00057 1 0.998355
0.998858 1 1 0.998858
0.998554 1 1 0.998554
0.999025 1 1 0.999025
0.999731 1 1 0.999731
0.999191 1 1 0.999191
0.999852 1 1 0.999852
1 1 1 1
0.999948 1 1 0.999948
1 1 1 1
1 1 1 1
1.02577 1.02777 1 0.998047
1.02413 1.02655 0.999484 0.998165
1.01795 1.02397 0.99546 0.998656
1.02235 1.02466 1 0.997743
1.01664 1.01892 1 0.997763
1.00693 1.00877 1 0.998182
1.01323 1.01534 1 0.997917
1.02221 1.0245 1 0.997764
1.0124 1.01482 1 0.997619
1.01728 1.01954 1 0.997786
1.02771 1.02977 0.99988 0.998118
1.02824 1.03108 0.998972 0.998273
1.02718 1.02998 0.998857 0.998416
1.0236 1.02571 0.999978 0.997962
1.02513 1.03185 0.995228 0.998254
1.02449 1.0273 0.999211 0.998051
1.02084 1.02301 1 0.997881
1.02063 1.0231 0.999595 0.997991
1.01938 1.02161 1 0.99782
1.01493 1.01724 1 0.997732
1.01759 1.01981 1 0.997829
1.01208 1.01433 1 0.997775
1.00251 1.00462 1 0.997899
1.00957 1.01175 1 0.997849
1.00162 1.00365 1 0.997982
0.998446 1 1 0.998446
1.00095 1.00287 1 0.99808
0.998539 1 1 0.998539
0.9996 1 1 0.9996
0.998629 1 1 0.998629
0.999613 1 1 0.999613
0.99991 1 1 0.99991
0.999618 1 1 0.999618
0.999909 1 1 0.999909
1 1 1 1
1.01924 1.02162 1 0.997669
1.01044 1.01264 1 0.997823
1.0191 1.02135 1 0.997791
1.00013 1.00195 1 0.998187
1.00746 1.00948 1 0.998001
1.0165 1.01844 1 0.998099
0.998705 1 1 0.998705
0.999846 1.00163 1 0.998219
1.00601 1.00805 1 0.997981
0.998652 1.0003 1 0.998354
0.99886 1 1 0.99886
0.999632 1 1 0.999632
0.999027 1 1 0.999027
0.999743 1 1 0.999743
1 1 1 1
0.999869 1 1 0.999869
1 1 1 1
1 1 1 1
1.02523 1.02736 1 0.997921
1.02608 1.02811 1 0.998031
1.02457 1.02695 0.999517 0.998162
1.02175 1.02405 1 0.997747
1.01614 1.01841 1 0.997766
1.02217 1.02448 1 0.997749
1.02349 1.02558 1 0.997962
1.02761 1.02965 0.999907 0.99811
1.02735 1.03022 0.998976 0.998235
1.02379 1.02587 0.999996 0.997975
1.02063 1.02284 1 0.997843
1.02408 1.02722 0.998896 0.998044
1.02068 1.02287 1 0.997859
1.01658 1.01887 1 0.997754
1.01947 1.0217 1 0.997823
1.01459 1.01689 1 0.997735
1.00421 1.00639 1 0.997831
1.0119 1.01415 1 0.997776
1.00303 1.00514 1 0.997899
0.998371 1 1 0.998371
1.00196 1.00399 1 0.997983
0.998445 1 1 0.998445
0.999563 1 1 0.999563
0.998537 1 1 0.998537
0.999591 1 1 0.999591
0.9999 1 1 0.9999
0.999608 1 1 0.999608
0.999915 1 1 0.999915
0.999908 1 1 0.999908
1.02097 1.0232 1 0.997815
1.01313 1.01548 1 0.997687
1.0195 1.02187 1 0.997676
1.00179 1.00377 1 0.998025
1.01025 1.01245 1 0.997831
1.01944 1.02167 1 0.997816
0.998588 1 1 0.998588
1.00008 1.00194 1 0.998144
1.00724 1.00926 1 0.998
0.999565 1 1 0.999565
0.998707 1 1 0.998707
0.999662 1.00145 1 0.998215
0.998861 1 1 0.998861
0.999642 1 1 0.999642
1 1 1 1
0.999756 1 1 0.999756
1 1 1 1
1 1 1 1
1.02194 1.0241 1 0.997885
1.02473 1.02686 1 0.99792
1.02656 1.02861 0.999998 0.998015
1.02118 1.02348 1 0.997751
1.02139 1.02363 1 0.997811
1.02403 1.02611 1 0.99797
1.02748 1.0295 0.999935 0.998102
1.02395 1.02602 1 0.997987
1.02046 1.02266 1 0.99785
1.01551 1.01779 1 0.997765
1.02059 1.0228 1 0.997837
1.01634 1.01863 1 0.997747
1.00567 1.0079 1 0.997789
1.01424 1.01653 1 0.997738
1.00471 1.00689 1 0.997832
0.998302 1 1 0.998302
1.00354 1.00565 1 0.9979
0.99837 1 1 0.99837
0.999465 1 1 0.999465
0.998444 1 1 0.998444
0.999529 1 1 0.999529
1 1 1 1
0.999583 1 1 0.999583
0.999908 1 1 0.999908
0.999917 1 1 0.999917
1.01984 1.02204 1 0.997854
1.0144 1.0167 1 0.997737
1.02065 1.02288 1 0.997813
1.00409 1.00626 1 0.997845
1.01324 1.01557 1 0.997709
1.01985 1.02222 1 0.997683
0.998407 1 1 0.998407
1.00182 1.0038 1 0.998023
1.01012 1.01231 1 0.997839
0.99953 1 1 0.99953
0.99855 1 1 0.99855
1.00007 1.00197 1 0.998101
1 1 1 1
0.999575 1 1 0.999575
0.998709 1 1 0.998709
0.999652 1 1 0.999652
1 1 1 1
1 1 1 1
1.02074 1.02297 1 0.997818
1.02237 1.02453 1 0.997894
1.02418 1.02632 1 0.997919
1.0165 1.01882 1 0.997717
1.02058 1.02281 1 0.997814
1.02458 1.02666 1 0.997978
1.02029 1.02248 1 0.997858
1.01561 1.01789 1 0.997765
1.00568 1.00787 1 0.997829
1.01604 1.01835 1 0.997739
1.00583 1.00803 1 0.99782
0.998173 1 1 0.998173
1.00521 1.00739 1 0.997834
0.998302 1 1 0.998302
0.999414 1 1 0.999414
0.998369 1 1 0.998369
0.999462 1 1 0.999462
1 1 1 1
0.999491 1 1 0.999491
0.999946 1 1 0.999946
0.999914 1 1 0.999914
1.01789 1.02011 1 0.997829
1.01476 1.01702 1 0.997777
1.01976 1.02195 1 0.997855
1.00492 1.00709 1 0.99785
1.01479 1.01709 1 0.997733
1.02032 1.02255 1 0.997812
0.998303 1 1 0.998303
1.00399 1.00611 1 0.997888
1.01332 1.01562 1 0.99773
0.999503 1 1 0.999503
0.998393 1 1 0.998393
1.00184 1.00382 1 0.998022
1 1 1 1
0.999539 1 1 0.999539
0.998512 1 1 0.998512
1 1 1 1
0.999585 1 1 0.999585
1 1 1 1
1.01672 1.01901 1 0.997751
1.02026 1.02249 1 0.997814
1.02282 1.02497 1 0.997902
1.00506 1.00727 1 0.99781
1.0165 1.01881 1 0.997729
1.01982 1.02205 1 0.997818
1.01574 1.01801 1 0.997766
1.00571 1.0079 1 0.997829
0.998131 1 1 0.998128
1.006 1.00817 1 0.997852
0.998206 1 1 0.998206
0.999348 1 1 0.999348
0.998302 1 1 0.998302
0.999411 1 1 0.999411
1 1 1 1
0.999459 1 1 0.999459
1 1 1 1
0.999902 1 1 0.999902
1.01476 1.017 1 0.997796
1.01814 1.02035 1 0.997835
1.00445 1.00661 1 0.997856
1.01462 1.01688 1 0.997777
1.01968 1.02187 1 0.997857
0.998317 1 1 0.998317
1.00485 1.00702 1 0.997847
1.01517 1.01748 1 0.997729
0.999464 1 1 0.999464
0.998329 1 1 0.998329
1.00388 1.00596 1 0.997932
1 1 1 1
0.999508 1 1 0.999508
0.998379 1 1 0.998379
1 1 1 1
0.999547 1 1 0.999547
1 1 1 1
1.00472 1.00689 1 0.997845
1.01662 1.01892 1 0.997748
1.01969 1.02193 1 0.997809
0.998123 1 1 0.998123
1.00509 1.0073 1 0.99781
1.01645 1.01875 1 0.99774
1.00574 1.00793 1 0.997829
0.998134 1 1 0.998131
0.999296 1 1 0.999296
0.99824 1 1 0.99824
0.999345 1 1 0.999345
1 1 1 1
0.999408 1 1 0.999408
1 1 1 1
1 1 1 1
1.00416 1.00633 1 0.997848
1.01441 1.01664 1 0.997799
1.01837 1.02058 1 0.997841
0.998291 1 1 0.998291
1.0047 1.00686 1 0.997853
1.01445 1.01671 1 0.997776
0.999421 1 1 0.999421
0.998315 1 1 0.998315
1.0048 1.00697 1 0.997844
1 1 1 1
0.999468 1 1 0.999468
0.998355 1 1 0.998355
1 1 1 1
0.999514 1 1 0.999514
1 1 1 1
0.998204 1 1 0.998204
1.00471 1.00691 1 0.997811
1.01657 1.01886 1 0.997746
0.999287 1 1 0.999287
0.998122 1 1 0.998122
1.00513 1.00733 1 0.99781
0.998136 1 1 0.998135
0.999295 1 1 0.999295
1 1 1 1
0.999341 1 1 0.999341
1 1 1 1
1 1 1 1
0.998252 1 1 0.998252
1.00424 1.00642 1 0.99784
1.01407 1.01631 1 0.997803
0.999464 1 1 0.999464
0.998289 1 1 0.998289
1.00497 1.00713 1 0.997851
1 1 1 1
0.999422 1 1 0.999422
0.998314 1 1 0.998314
1 1 1 1
0.999472 1 1 0.999472
1 1 1 1
0.999288 1 1 0.999288
0.998176 1 1 0.998176
1.0047 1.00694 1 0.997777
1 1 1 1
0.999286 1 1 0.999286
0.998122 1 1 0.998122
0.999293 1 1 0.999293
1 1 1 1
1 1 1 1
0.999416 1 1 0.999416
0.998252 1 1 0.998252
1.00432 1.0065 1 0.997832
1 1 1 1
0.999381 1 1 0.999381
0.998287 1 1 0.998287
1 1 1 1
0.999424 1 1 0.999424
1 1 1 1
0.999819 1 1 0.999819
0.999349 1 1 0.999349
0.998148 1 1 0.998148
1 1 1 1
0.999287 1 1 0.999287
1 1 1 1
0.999837 1 1 0.999837
0.999381 1 1 0.999381
0.998252 1 1 0.998252
0.999923 1 1 0.999923
0.99938 1 1 0.99938
1 1 1 1
1 1 1 1
0.999306 1 1 0.999306
1 1 1 1
0.999915 1 1 0.999915
0.99934 1 1 0.99934
1 1 1 1
1 1 1 1
1 1 1 1

VECTORS lamdaE float
0.999956 1.00015 0.995393
0.99986 1.0003 0.997831
0.999698 1.00034 0.995541
1.00023 0.999928 0.995208
1.00005 0.999973 0.995453
0.999967 1.00028 0.995199
1.00116 1.00048 0.992681
0.999848 1.00018 0.997869
0.999775 1.00023 0.998065
0.999451 1.00065 0.998089
0.999835 1.00004 0.995727
1.00092 1.00123 0.99185
1.00018 1.00001 0.995121
0.99991 0.999977 0.995388
0.999468 1.00054 0.995663
1.00003 0.999905 0.995409
0.999689 1.00056 0.995334
0.999823 1.00005 0.99562
1.00132 1.00031 0.992616
1.00015 1 0.997712
1.00028 0.999984 0.995068
1.00016 0.999889 0.995373
1.00154 0.999987 0.992514
1.00134 1.00012 0.992722
0.999902 1.00015 0.995302
1.00099 1.00099 0.992463
1.00369 1.00031 0.988553
0.999797 1.0001 0.997935
0.999906 1.00011 0.996686
0.999654 1.00049 0.996686
0.999781 0.999825 0.998056
1.00082 1.00135 0.99186
1.00017 0.999847 0.995251
0.999909 1.00037 0.995303
1.00163 1.00017 0.992913
0.999458 0.999209 0.998588
1.0013 1.00083 0.992886
1.00057 1.00137 0.992333
1.00263 1.00211 0.987968
0.999547 0.998294 0.998887
1.00019 1.00001 0.99767
1.00005 1 0.996534
1.00016 0.999999 0.997684
0.999877 1.00003 0.995411
1.00174 1.00004 0.991557
0.99995 0.999958 0.997985
1.00185 1.00011 0.992626
0.999831 0.999844 0.99561
0.999613 1.00012 0.995773
0.999418 1.0009 0.995456
1.00146 1.00013 0.992565
1.00004 1.00001 0.996553
1.00006 0.999982 0.995278
0.999657 1.00044 0.995442
0.999961 0.999878 0.995557
1.00162 0.99995 0.992436
1.00115 1.00082 0.992397
1.00145 1.00003 0.992658
1.00368 1.00033 0.988548
1.00012 1 0.997712
1.00025 1.00001 0.995082
1.00156 1 0.99307
1.00159 1.00002 0.992387
1.00147 0.999966 0.992655
1.00398 0.999954 0.988312
1.00383 1.00001 0.988321
0.999747 0.999537 0.99601
1.00039 1.00159 0.992715
1.00346 1.00089 0.988389
1.00476 1.00004 0.986191
1.00006 1.00014 0.997799
0.999694 0.999595 0.998231
0.99985 1.00033 0.997815
1.00073 1.00143 0.991872
1.00019 0.999977 0.997763
0.999962 1.00031 0.997812
1.00153 1.00013 0.99177
0.99955 0.999286 0.997509
1.0011 1.00091 0.991747
1.00043 1.00142 0.993041
1.00266 1.00205 0.987955
0.99964 0.998711 0.998636
0.999665 0.999947 0.995367
1.00173 0.999975 0.991636
1.00144 1.00041 0.991756
1.00398 1.00019 0.98744
1.00013 1.00105 0.994493
1.00331 1.00105 0.987796
1.00161 1.00336 0.988584
1.00369 1.00206 0.985998
0.99952 0.997933 0.999064
0.999493 0.998221 0.998965
1.00021 0.999983 0.997698
1.0002 1.00001 0.997671
1.00018 1 0.997682
1.00004 1.00001 0.996545
1.00177 1.00003 0.992174
1.00007 0.999965 0.996578
1.00179 1.00012 0.992063
1.00017 0.999996 0.997691
1.00167 0.999968 0.991713
1.00184 1.00011 0.992663
1.00416 0.99975 0.987566
1.0018 1.00001 0.992761
1.00418 0.999956 0.987336
1.00013 1.00001 0.995205
0.999847 0.999974 0.995493
0.999377 1.00077 0.9956
0.999765 0.999846 0.995737
1.00171 0.999951 0.992357
1.00156 0.999946 0.992601
1.00131 1.00062 0.992337
1.00366 1.00035 0.988543
1.00016 0.999999 0.9977
1.00003 1.00001 0.995292
1.00167 0.999982 0.992042
1.00168 1.00001 0.992298
0.999629 0.999743 0.997085
1.00064 1.00149 0.992844
1.00156 0.999915 0.992585
1.004 0.99993 0.9882
1.00341 1.00094 0.988409
1.00382 1.00008 0.988402
1.00475 1.00005 0.986211
1.00164 0.999989 0.991764
1.00158 1 0.992414
1.00405 0.999698 0.988209
1.00405 0.999867 0.98806
1.00393 0.999876 0.988232
1.005 0.999583 0.986531
0.999607 0.99915 0.998495
1.00486 0.999809 0.986278
0.999986 1.00164 0.992934
1.00244 1.00219 0.988132
1.00464 1.00049 0.986024
1.00516 0.999855 0.985676
0.999821 1.00082 0.9941
1.0002 1.00346 0.990877
1.00016 1.00001 0.997778
0.999921 1.00029 0.997812
1.00153 1.00011 0.991771
0.999601 0.999029 0.99855
1.00022 1.00163 0.992549
1.00105 1.00096 0.991757
1.0027 1.00199 0.987941
0.999567 0.998637 0.998732
0.999664 0.999861 0.995411
1.00173 1.00001 0.992251
1.00142 1.00043 0.992345
1.00398 1.0002 0.98744
0.999961 1.0011 0.993675
1.00332 1.00103 0.987801
1.0016 1.00333 0.988582
1.00375 1.00201 0.985997
0.999768 1.00057 0.994571
0.999719 0.999302 0.995915
1.00022 1.00245 0.991913
1.0041 1.00008 0.98734
1.0037 1.00052 0.987619
1.00494 1.00006 0.985892
1.00091 1.00353 0.989701
1.0044 1.0007 0.985997
1.00258 1.00373 0.986361
1.00445 1.00123 0.985686
0.999564 0.997663 0.999134
0.999498 0.997884 0.999091
0.99945 0.998144 0.999022
0.999783 1.0004 0.994603
0.999591 0.99882 0.998651
1.00021 0.999972 0.997734
1.0002 1 0.997674
1.00171 1.00013 0.991494
1.0017 1.00003 0.991607
1.00015 1 0.997686
1.00015 0.999999 0.997691
1.00166 0.999976 0.991709
1.00178 1.0001 0.992085
1.00417 0.999745 0.987564
1.00171 1.00004 0.991577
1.00418 0.999956 0.987331
1.00164 0.999962 0.991751
1.00413 0.999673 0.987693
1.00419 0.999844 0.987429
1.0051 0.999153 0.986563
1.00416 1.00002 0.987307
1.0051 0.999525 0.986186
1.00015 0.999997 0.997692
0.999819 1.00002 0.995502
1.00168 0.999974 0.991105
1.00176 1 0.992207
0.999369 0.999885 0.998367
1.00095 1.0013 0.992966
1.00165 0.999888 0.992516
1.00402 0.999891 0.988087
1.00382 1.00015 0.988484
1.00337 1.00102 0.988428
1.00475 1.00007 0.98623
1.00163 0.999976 0.991764
1.00167 1 0.992316
1.00407 0.999682 0.987905
1.00407 0.999905 0.988122
0.999632 0.999228 0.998429
1.0002 1.00147 0.993401
1.00242 1.00233 0.988394
1.00393 0.999908 0.988215
1.005 0.999475 0.986483
1.00464 1.00052 0.985929
1.00485 0.999858 0.986396
1.00515 0.99985 0.985705
0.999836 1.00084 0.994096
1.00027 1.00333 0.990888
1.00409 0.99968 0.987773
1.00407 0.999796 0.988094
1.00502 0.999233 0.986841
1.00504 0.999278 0.986502
1.00494 0.999596 0.986567
1.00521 0.998768 0.986787
0.999882 1.00121 0.993566
1.00517 0.999353 0.986151
1.00125 1.00333 0.989075
1.00387 1.00185 0.985832
1.00513 1.00053 0.985329
1.00517 0.999301 0.98632
1.00052 1.00341 0.990405
1.00011 1.00285 0.991629
1.0007 1.00447 0.989182
1.00166 0.999985 0.991695
0.999501 0.998544 0.998832
0.999664 0.999768 0.995453
1.0013 1.00048 0.991795
1.00397 1.00021 0.987441
0.999882 1.00116 0.99361
1.00156 1.0033 0.988581
1.00332 1.00102 0.987807
1.00379 1.00196 0.985994
0.999747 1.00052 0.994596
0.99973 0.999217 0.995948
1.00011 1.00258 0.991928
1.0041 1.0001 0.987335
1.0037 1.00051 0.987624
1.00494 1.00005 0.985876
1.00082 1.00357 0.989724
1.00445 1.00076 0.986
1.00261 1.00384 0.98633
1.00445 1.0011 0.985643
0.99983 0.998819 0.996191
1.00048 1.00308 0.990816
1.00008 1.00163 0.992978
1.00037 1.00396 0.990214
1.00502 0.999873 0.985944
1.00475 1.00033 0.985922
1.00515 0.999738 0.985834
1.00158 1.00437 0.987652
1.00487 1.00036 0.985643
1.00338 1.00321 0.985509
1.00504 1.0005 0.985383
1.00027 1.00015 0.994114
1.00002 0.9983 0.996362
0.999645 0.99742 0.999166
0.999562 0.997617 0.999145
0.999484 0.997831 0.999113
0.999791 0.999901 0.995107
0.999574 0.998496 0.998792
0.999794 1.00045 0.994581
0.999625 0.99887 0.998597
1.0017 1.00007 0.99157
1.00172 1.00009 0.991514
1.00419 0.999957 0.987327
1.00417 0.999739 0.987562
1.00168 0.999983 0.991706
1.00017 1 0.997683
1.00166 0.999964 0.991751
1.00413 0.999679 0.987692
1.00419 0.999852 0.987425
1.00509 0.999155 0.986561
1.00415 1.00004 0.987298
1.0051 0.999527 0.986177
1.0041 0.999672 0.987759
1.00508 0.999038 0.986717
1.00512 0.999328 0.986362
1.00523 0.998047 0.98747
1.00508 0.999698 0.986048
1.00523 0.998592 0.986903
1.00164 0.999964 0.991765
1.00176 0.999988 0.992217
1.00408 0.999652 0.987603
1.00409 0.999941 0.988184
0.999666 0.999313 0.998354
1.00041 1.0014 0.993776
1.00247 1.00241 0.988654
1.00393 0.999928 0.988198
1.005 0.999365 0.986434
1.00485 0.99991 0.986514
1.00462 1.00054 0.985836
1.00513 0.999842 0.985735
0.999859 1.00086 0.994091
1.00034 1.00322 0.990899
1.00409 0.999636 0.987709
1.00409 0.99978 0.98808
1.00502 0.999143 0.986922
1.00504 0.999387 0.986527
0.999942 1.00119 0.993559
1.00138 1.00327 0.989052
1.00388 1.00188 0.985857
1.00494 0.999654 0.986545
1.00521 0.998625 0.986937
1.00512 1.00052 0.985266
1.00517 0.999348 0.986172
1.00517 0.999267 0.986311
1.00056 1.00333 0.99042
1.00058 1.00437 0.989246
1.00015 1.00284 0.991615
1.00503 0.999144 0.986896
1.00504 0.999204 0.986818
1.00519 0.998121 0.987478
1.00523 0.998435 0.987037
1.00518 0.998827 0.986665
1.00517 0.997439 0.988108
1.00076 1.00335 0.989992
1.00517 0.998455 0.987008
1.00245 1.00336 0.987059
1.00476 1.00156 0.984601
1.00516 1.00041 0.985278
1.0051 0.998513 0.987173
1.00013 1.0021 0.992356
1.0011 1.00358 0.989218
1.0002 1.00466 0.989616
1.00116 1.00399 0.988957
1.00409 1.00011 0.987328
0.999736 0.999142 0.995981
0.999722 1.00047 0.994621
1.00003 1.00268 0.991942
1.00371 1.0005 0.987629
1.00495 1.00005 0.98586
1.00073 1.00363 0.989747
1.00265 1.00396 0.986298
1.0045 1.00082 0.986003
1.00447 1.00098 0.9856
0.999835 0.998778 0.996204
1.00044 1.00315 0.99082
1.00005 1.00162 0.993009
1.00026 1.00411 0.990198
1.00502 0.999877 0.985929
1.00478 1.00032 0.985914
1.00515 0.999746 0.98582
1.00152 1.00444 0.987678
1.00492 1.0004 0.985671
1.00341 1.00318 0.985483
1.00502 1.00044 0.985353
0.999939 0.998495 0.996307
1.00014 1.00085 0.993653
1.00091 1.00415 0.9891
1.00012 1.00326 0.991361
1.00043 1.00461 0.989515
1.00518 0.999369 0.986169
1.00506 1.00002 0.985663
1.00513 0.999049 0.986529
1.00203 1.00474 0.986538
1.00509 1.00019 0.985494
1.00409 1.00198 0.985047
1.00026 1.00022 0.994057
1.00023 1.00146 0.992903
1.00026 1.00014 0.994151
1.00026 1.00015 0.994113
1.00005 0.998123 0.996947
1.00001 0.99829 0.99664
0.999798 0.997229 0.998094
0.999654 0.997375 0.999171
0.999565 0.997564 0.999155
0.999828 0.999413 0.995543
0.999584 0.998159 0.998927
0.999796 0.999957 0.995082
0.99961 0.998553 0.998743
0.999807 1.00049 0.994559
0.999655 0.998926 0.998542
1.00415 1.00005 0.987289
1.00419 0.999858 0.987422
1.00509 0.999541 0.986167
1.00509 0.999157 0.986558
1.00413 0.999685 0.98769
1.00165 0.999966 0.991749
1.0041 0.999669 0.987759
1.00507 0.999042 0.986718
1.0051 0.999343 0.986355
1.00523 0.997946 0.987587
1.00507 0.999704 0.986038
1.00523 0.998612 0.98689
1.00505 0.999021 0.986779
1.0052 0.997782 0.987818
1.00524 0.998243 0.987232
1.00521 0.996824 0.988709
1.0052 0.999001 0.986539
1.00518 0.997147 0.98832
1.00409 0.999595 0.987646
1.00411 0.999774 0.988065
1.00502 0.999063 0.987003
1.00504 0.999495 0.986551
1.00002 1.00117 0.99355
1.0014 1.00327 0.989029
1.00389 1.00191 0.985882
1.00494 0.99971 0.986522
1.00521 0.998479 0.987086
1.00516 0.999342 0.986192
1.0051 1.00052 0.985202
1.00518 0.999235 0.986302
1.0006 1.00323 0.990434
1.00055 1.00426 0.98931
1.00018 1.00281 0.991603
1.00503 0.999102 0.986835
1.00505 0.999203 0.986808
1.00519 0.997943 0.987666
1.00522 0.99849 0.98701
1.00082 1.00332 0.989971
1.00253 1.00329 0.98704
1.00464 1.0016 0.984728
1.00518 0.998973 0.98656
1.00517 0.997253 0.988324
1.00516 1.00044 0.985162
1.00517 0.998458 0.987025
1.0051 0.998411 0.9873
1.00117 1.00357 0.989217
1.00112 1.00398 0.988953
1.00015 1.00211 0.992342
1.00016 1.00454 0.989735
1.00518 0.997963 0.987671
1.00522 0.99821 0.987456
1.00514 0.996949 0.988614
1.00517 0.996629 0.988882
1.00516 0.997735 0.987799
1.00512 0.996421 0.989228
1.00161 1.00333 0.988583
1.0051 0.997175 0.988287
1.00302 1.00325 0.985742
1.00509 1.00164 0.984189
1.00511 1.00006 0.985487
1.00507 0.998096 0.987577
1.00013 1.00155 0.992911
1.00013 1.00395 0.99046
1.00156 1.00315 0.988858
1.00041 1.00491 0.989138
1.00144 1.00333 0.989202
0.999836 0.998749 0.996218
1.00502 0.99988 0.985915
1.00003 1.00158 0.993039
1.00037 1.00326 0.990824
1.00016 1.00424 0.990181
1.0048 1.00031 0.985905
1.00516 0.999755 0.985806
1.00154 1.00442 0.987706
1.00344 1.00313 0.985457
1.00496 1.00045 0.985699
1.005 1.00039 0.985325
0.999941 0.998483 0.996313
1.00013 1.00083 0.993667
1.00091 1.0041 0.989116
1.00002 1.00335 0.991363
1.00034 1.00465 0.989441
1.00518 0.999378 0.986154
1.00508 1.00003 0.985641
1.00513 0.999028 0.986497
1.00198 1.00478 0.986544
1.00512 1.00017 0.985509
1.00425 1.00186 0.985061
1.00023 1.00041 0.993938
1.00014 1.00227 0.992286
1.00119 1.00441 0.988296
1.00006 1.00445 0.990359
1.00081 1.00425 0.989352
1.00514 0.998479 0.987089
1.00511 0.999586 0.985954
1.00511 0.998342 0.986946
1.00239 1.00421 0.986194
1.00491 1.00079 0.984986
1.00026 1.00023 0.994053
1.00024 1.00145 0.992812
1.0002 1.00149 0.992858
1.00018 1.00221 0.992377
1.0002 1.00149 0.99293
1.00022 1.00018 0.994162
1.00025 1.00013 0.994152
1.0001 0.998032 0.996954
1.00026 1.00016 0.994112
1.00006 0.998132 0.996947
0.999897 0.997002 0.998121
0.999997 0.998288 0.996913
0.999767 0.997188 0.998642
0.999664 0.99733 0.999176
0.999883 0.998972 0.995893
0.999824 0.999464 0.99552
0.99961 0.997856 0.999027
0.999609 0.998226 0.998879
0.999799 1.00002 0.995056
0.999645 0.998602 0.99869
1.00506 0.99971 0.986027
1.00509 0.999348 0.986349
1.00523 0.998626 0.986878
1.00523 0.997844 0.987704
1.00506 0.999045 0.986719
1.0041 0.999668 0.987759
1.00505 0.99902 0.98678
1.0052 0.997788 0.987826
1.00524 0.998254 0.987231
1.0052 0.996613 0.988922
1.00521 0.999004 0.986518
1.00518 0.997031 0.988441
1.00518 0.997821 0.987837
1.00514 0.996671 0.988945
1.0052 0.996594 0.988917
1.0052 0.99566 0.989849
1.00516 0.997782 0.98774
1.00517 0.996109 0.989382
1.00504 0.999058 0.986773
1.00505 0.99921 0.986799
1.00518 0.997759 0.987854
1.00522 0.998542 0.986982
1.0009 1.00329 0.989949
1.00262 1.00322 0.98702
1.00449 1.00156 0.984856
1.00518 0.999122 0.986456
1.00516 0.997066 0.988541
1.00517 0.998462 0.987044
1.00516 1.00047 0.985047
1.0051 0.998313 0.987428
1.00113 1.00361 0.989216
1.00095 1.00408 0.988947
1.00017 1.00213 0.992328
1.00012 1.00448 0.989853
1.00518 0.997968 0.987665
1.00521 0.998278 0.987341
1.00515 0.996852 0.988748
1.00517 0.996722 0.988761
1.00159 1.00348 0.988542
1.00302 1.00325 0.98589
1.00507 1.00157 0.984144
1.00516 0.9979 0.987602
1.00512 0.996183 0.989392
1.00511 1.00009 0.985459
1.0051 0.997197 0.988292
1.00507 0.997881 0.987708
1.00163 1.00314 0.988833
1.0014 1.00323 0.989276
1.00038 1.00499 0.9891
1.00014 1.00154 0.992844
1.00009 1.00385 0.990572
1.00512 0.996698 0.989037
1.00517 0.996419 0.989151
1.00513 0.995606 0.989944
1.00511 0.996315 0.989108
1.0019 1.00368 0.987766
1.00511 0.99674 0.988904
1.00347 1.00306 0.984936
1.00512 1.00161 0.98397
1.00507 0.999582 0.985809
1.00009 1.001 0.993348
1.0001 1.0032 0.991418
1.00031 1.00443 0.989887
1.00187 1.00273 0.988861
1.00065 1.00477 0.988722
1.00174 1.00236 0.989095
0.999941 0.998477 0.996319
1.00012 1.00081 0.99368
1.00518 0.999387 0.98614
0.999923 1.00345 0.991366
1.00083 1.00414 0.989133
1.00025 1.00469 0.989367
1.00511 1.00003 0.98562
1.00512 0.999008 0.986465
1.0019 1.00482 0.98655
1.00437 1.0018 0.985073
1.00515 1.00013 0.985525
1.00022 1.00041 0.99394
1.00009 1.0023 0.992305
1.00118 1.00446 0.988267
0.999933 1.00455 0.990341
1.00071 1.00417 0.989404
1.00514 0.998489 0.987065
1.00512 0.999586 0.985921
1.00511 0.99838 0.986997
1.00243 1.00405 0.986079
1.00491 1.00095 0.984957
1.00022 1.0017 0.992737
0.999846 1.00371 0.991195
1.00164 1.00376 0.988106
1.00007 1.00489 0.989755
1.00124 1.00324 0.989301
1.00511 0.997027 0.988307
1.00511 0.999555 0.985953
1.00508 0.998277 0.986955
1.00358 1.00299 0.985656
1.00504 1.00078 0.984816
1.00025 1.00024 0.99405
1.00024 1.00147 0.99284
1.00006 1.00225 0.99231
1.00017 1.00152 0.992814
1.00018 1.00152 0.992928
1.00011 1.00226 0.992318
1.00002 1.0027 0.992099
1.0001 1.00232 0.99218
1.00016 1.00158 0.992921
1.00018 1.00027 0.994159
1.00022 1.00018 0.994162
1.00012 0.998002 0.996939
1.00025 1.00013 0.994153
1.0001 0.998052 0.996952
0.99997 0.996879 0.998119
1.00007 0.998138 0.99695
0.999886 0.996976 0.998128
0.999731 0.997135 0.9992
0.999938 0.998586 0.996198
0.999876 0.999024 0.99587
0.999656 0.997577 0.999102
0.999818 0.999525 0.995499
0.999626 0.997915 0.998998
0.999638 0.998281 0.998832
1.00521 0.999007 0.986496
1.00524 0.998268 0.98723
1.00518 0.996911 0.988563
1.0052 0.9964 0.989136
1.0052 0.997795 0.987834
1.00505 0.999019 0.986782
1.00519 0.997889 0.987751
1.00515 0.996802 0.988836
1.0052 0.996664 0.988838
1.00519 0.995415 0.990059
1.00516 0.997809 0.987731
1.00516 0.995895 0.989551
1.00511 0.996902 0.988862
1.00519 0.995282 0.990231
1.00517 0.99546 0.990019
1.00513 0.996094 0.98941
1.00518 0.997974 0.987659
1.00521 0.998343 0.987226
1.00516 0.996762 0.988882
1.00517 0.996815 0.98864
1.00164 1.00354 0.988502
1.00301 1.00325 0.986038
1.00508 1.00151 0.984099
1.00516 0.998066 0.987404
1.00512 0.995953 0.989554
1.00511 0.997219 0.988296
1.00511 1.00011 0.98543
1.00508 0.997664 0.987838
1.00171 1.00315 0.988807
1.00144 1.00298 0.989348
1.00035 1.00504 0.989061
1.00014 1.00153 0.992776
1.00007 1.00376 0.990685
1.00512 0.996739 0.989031
1.00518 0.996473 0.989101
1.00514 0.995691 0.98982
1.00194 1.0037 0.987735
1.00361 1.00307 0.985065
1.00511 1.00159 0.983916
1.00511 0.996343 0.989097
1.00507 0.999384 0.986095
1.0051 0.996695 0.988753
1.00009 1.00093 0.993436
1.00196 1.00262 0.988819
1.00158 1.00225 0.989573
1.00075 1.00484 0.988657
1.0003 1.00448 0.989906
1.0001 1.00318 0.991359
1.00516 0.995759 0.989665
1.0052 0.995377 0.990092
1.00513 0.995258 0.99004
1.00515 0.995632 0.989765
1.00237 1.00341 0.987217
1.0051 0.997619 0.987753
1.00456 1.00296 0.983412
1.00505 1.00175 0.983721
1.00014 1.00027 0.994006
1.0001 1.00248 0.992153
1.00022 1.00386 0.990668
1.00044 1.00502 0.988998
1.00216 1.00205 0.988736
1.0017 1.00341 0.988352
1.00021 1.0004 0.993943
1.00005 1.0023 0.992324
1.00514 0.998499 0.987041
0.999819 1.00461 0.990324
1.00119 1.00449 0.988237
1.00051 1.00405 0.989459
1.00514 0.999586 0.985888
1.00511 0.998428 0.987047
1.00252 1.00393 0.985963
1.00493 1.00109 0.984929
1.00019 1.00168 0.992748
0.999915 1.00365 0.991198
1.00168 1.00383 0.988109
0.999946 1.00497 0.989724
1.00107 1.00306 0.989686
1.00511 0.997018 0.988505
1.0051 0.999543 0.98602
1.0051 0.998349 0.986956
1.00347 1.00311 0.985471
1.00505 1.0008 0.984716
0.999942 1.00255 0.992133
0.999776 1.00468 0.99019
1.00238 1.00289 0.98776
1.00037 1.00415 0.989063
1.00512 0.995575 0.989708
1.00492 0.997618 0.988233
1.00504 0.999682 0.985752
1.00392 1.00168 0.984966
1.00025 1.00146 0.992869
1.00007 1.00226 0.992331
0.999843 1.00293 0.992205
1.00015 1.00156 0.992926
1.00004 1.0023 0.992259
1.00015 1.00159 0.992914
0.999977 1.00268 0.9921
1.00011 1.00232 0.992215
0.999916 1.00283 0.992097
1.00007 1.00278 0.991859
1.00013 1.00241 0.992036
1.00014 1.00168 0.992831
1.00013 1.00035 0.994143
1.00018 1.00026 0.994157
1.00014 0.998003 0.996917
1.00022 1.00017 0.994162
1.00013 0.998028 0.996935
1.00003 0.996796 0.998105
1.00011 0.998069 0.996951
0.999962 0.996845 0.998126
0.999874 0.996954 0.99813
1.00002 0.998214 0.996434
0.999944 0.99861 0.996174
0.999724 0.997264 0.999166
0.999867 0.99908 0.995845
0.999663 0.99763 0.999081
0.999646 0.997968 0.99896
1.00516 0.997837 0.987721
1.00519 0.996737 0.988759
1.00515 0.995685 0.98972
1.00518 0.995177 0.99027
1.00516 0.996936 0.988727
1.00519 0.99796 0.987666
1.00511 0.996885 0.98889
1.00517 0.995411 0.990128
1.00518 0.995448 0.989999
1.00514 0.996049 0.989483
1.00516 0.995622 0.989938
1.00519 0.99504 0.990484
1.00516 0.995153 0.990159
1.00512 0.996781 0.989024
1.00519 0.996527 0.989051
1.00514 0.995778 0.989697
1.00198 1.00372 0.987703
1.00379 1.00308 0.985193
1.0051 1.0016 0.983862
1.00512 0.996367 0.989086
1.00508 0.996648 0.988601
1.00506 0.999188 0.986382
1.00206 1.00251 0.988777
1.00137 1.00217 0.990052
1.00088 1.00492 0.988594
1.00011 1.00085 0.993523
1.00026 1.00448 0.989925
1.0001 1.00315 0.991301
1.00516 0.995841 0.989715
1.00519 0.995324 0.990149
1.00513 0.995283 0.990079
1.00238 1.00346 0.987174
1.00432 1.0029 0.983803
1.00499 1.00159 0.98404
1.00514 0.995682 0.989702
1.00511 0.997566 0.987703
1.00013 1.00025 0.994151
1.0001 1.00249 0.99215
1.00194 1.00204 0.988897
1.00159 1.00347 0.988792
1.0004 1.00493 0.989198
1.0002 1.00388 0.990598
1.00519 0.995029 0.990477
1.00515 0.994931 0.99042
1.00511 0.995147 0.990236
1.00512 0.995776 0.989476
1.0026 1.00281 0.986613
1.00488 1.00031 0.98539
1.00502 1.00328 0.982938
1.00019 0.999871 0.994531
1.0002 1.00105 0.993392
1.0001 1.00171 0.992732
1.00003 1.00344 0.991284
1.00007 1.00456 0.98998
1.00012 1.00483 0.989285
1.0025 1.00098 0.98878
1.00167 1.00342 0.989462
1.00016 1.0017 0.992759
0.999977 1.00366 0.991201
1.00511 0.997012 0.988703
0.999997 1.00502 0.989692
1.00169 1.00395 0.988113
1.00085 1.00293 0.99007
1.00509 0.999511 0.986089
1.00511 0.998409 0.986958
1.00337 1.00318 0.985289
1.00506 1.00081 0.984617
0.999964 1.00262 0.992059
0.999854 1.00459 0.990222
1.00228 1.00295 0.987865
1.00069 1.00423 0.989129
1.00513 0.995449 0.989873
1.00499 0.997629 0.988031
1.00505 0.999652 0.985786
1.00428 1.00184 0.984812
0.999802 1.00338 0.991622
1.00511 0.995175 0.990179
1.00044 1.00501 0.98942
1.00232 1.00326 0.987347
1.00495 0.996055 0.989854
1.00482 0.998722 0.986444
1.00468 1.00123 0.985009
1.00007 1.00231 0.992351
0.999828 1.0029 0.992182
0.99957 1.00339 0.992227
1.00016 1.00156 0.992909
1.00011 1.00232 0.992249
0.999883 1.00271 0.9921
1.00015 1.00167 0.992819
1.00011 1.00241 0.992057
0.999834 1.00289 0.992088
1.00011 1.00272 0.991896
1.00005 1.00268 0.992117
1 1.00287 0.991895
1.00016 1.00293 0.991582
1.00025 1.00246 0.991832
1.00017 1.00178 0.992686
1.00009 1.00045 0.994096
1.00012 1.00037 0.994141
1.00014 0.998041 0.996874
1.00018 1.00027 0.994155
1.00014 0.998034 0.996913
1.00006 0.996734 0.998091
1.00013 0.998054 0.996932
1.00002 0.99676 0.99811
0.999956 0.996814 0.99813
1.00018 0.999796 0.994633
1.00008 0.997968 0.996582
1.00002 0.998234 0.996418
0.999812 0.996984 0.999211
0.999947 0.998644 0.996151
0.999724 0.99734 0.999148
0.999674 0.997689 0.999059
1.00514 0.996004 0.989556
1.00519 0.995439 0.989978
1.00515 0.995535 0.990024
1.00512 0.996862 0.988918
1.00516 0.995551 0.990065
1.00519 0.99502 0.990499
1.00515 0.995201 0.990157
1.0052 0.994925 0.99056
1.00517 0.994952 0.99049
1.00489 0.995055 0.990911
1.00516 0.995922 0.989765
1.00519 0.995265 0.990206
1.00513 0.995309 0.990117
1.0024 1.00349 0.987131
1.00407 1.00284 0.984196
1.00496 1.00142 0.98436
1.00514 0.995738 0.98964
1.00511 0.997521 0.987654
1.00174 1.00208 0.989059
1.00153 1.00351 0.98923
1.00026 1.00488 0.989398
1.00012 1.0002 0.994296
1.00012 1.00247 0.992146
1.00018 1.00394 0.990528
1.00519 0.995007 0.990447
1.00018 0.999888 0.994527
1.00016 1.00108 0.993329
1.00514 0.994953 0.990435
1.00511 0.995151 0.99022
1.00238 1.00299 0.987055
1.00484 1.00311 0.983104
1.00491 1.0002 0.985312
1.0051 0.995908 0.989373
1.00011 1.0017 0.99291
1.00007 1.0034 0.991267
1.00272 1.00133 0.988557
1.00111 1.0034 0.989835
1.00019 1.00477 0.989448
1.00003 1.00461 0.990055
1.00519 0.994948 0.99036
1.00509 0.994858 0.990581
1.00509 0.995083 0.990034
1.00488 0.996492 0.988944
1.00244 1.00249 0.987602
1.00452 1.00314 0.983924
1.00012 1.00111 0.993282
1.00017 1.00118 0.99329
1.00025 1.00184 0.992637
1.00009 1.0029 0.991546
0.999946 1.0041 0.990879
1.00056 1.00448 0.989389
0.999623 1.00499 0.989807
1.0019 1.00095 0.989938
0.999987 1.00266 0.991986
0.999958 1.0045 0.990256
1.00515 0.995314 0.990038
1.00505 0.997669 0.987831
1.00097 1.00431 0.989194
1.00217 1.00295 0.987967
1.00506 0.999624 0.985818
1.00463 1.002 0.984657
0.999846 1.00339 0.991579
1.00511 0.995012 0.990328
1.00023 1.0049 0.989538
1.00236 1.00311 0.987212
1.00498 0.995955 0.989779
1.00473 0.998822 0.986684
1.00471 1.00137 0.985051
0.999861 1.00448 0.990773
1.00451 0.994983 0.991963
1.00147 1.00415 0.988983
1.00304 1.00319 0.986659
1.00482 0.996671 0.989092
1.00408 1.00066 0.986071
0.999492 0.996697 0.991652
0.999789 1.0029 0.992161
0.999473 1.00347 0.992221
0.99977 1.00348 0.991969
1.00015 1.00168 0.992807
1.0001 1.00245 0.992078
1.00016 1.00266 0.991934
0.999785 1.00289 0.992077
1.00017 1.00177 0.992684
1.00023 1.0025 0.991823
1.00002 1.00277 0.991989
1.00013 1.00297 0.991585
1.00007 1.00281 0.99188
1.00012 1.00257 0.992044
1.00026 1.00309 0.99126
1.0002 1.00299 0.991476
1.00035 1.00257 0.991571
1.00021 1.00185 0.992447
1.00027 1.00238 0.992027
1.0002 1.00192 0.992349
1.00009 1.0005 0.994046
1.00009 1.00046 0.994094
1.00016 0.998126 0.996268
1.00013 1.00036 0.994138
1.00015 0.998081 0.99659
1.00003 0.996687 0.999181
1.00014 0.998068 0.99691
1.00006 0.996697 0.998096
1.00002 0.996726 0.998114
1.00014 0.999746 0.994726
1.00019 0.999773 0.994639
1.0001 0.997825 0.996695
1.00007 0.997973 0.996835
0.999887 0.996779 0.999245
1.00003 0.99825 0.996403
0.999804 0.997051 0.999199
0.999726 0.997403 0.999129
1.00514 0.995249 0.990155
1.00519 0.994995 0.990514
1.00515 0.995482 0.990192
1.0052 0.994924 0.990557
1.00516 0.994954 0.990476
1.0049 0.995202 0.990577
1.0052 0.994953 0.990423
1.00094 0.995105 0.988389
1.00408 0.994946 0.993518
1.00006 1.00114 0.993503
1.00519 0.994986 0.990418
1.00514 0.994979 0.990449
1.00511 0.995153 0.990204
1.00214 1.00314 0.987495
1.00455 1.00303 0.98327
1.00496 1.00009 0.985239
1.00507 0.996052 0.989269
1.00303 1.00148 0.988335
1.00051 1.00338 0.990211
1.00029 1.00466 0.989612
1.00016 0.999923 0.994523
1 1.00466 0.990131
1.00011 1.00167 0.993088
1.0001 1.00337 0.99125
1.00015 1.00107 0.993267
1.00519 0.994939 0.990377
1.00012 1.0011 0.993377
1.00016 1.00121 0.993287
1.00024 1.00184 0.992548
1.00508 0.994875 0.990564
1.0051 0.995164 0.989981
1.00259 1.00245 0.987633
1.00425 1.0027 0.984394
1.00478 0.996859 0.988871
1.00004 1.00292 0.991661
0.999998 1.00412 0.990699
1.00179 1.00158 0.989795
0.999948 1.0048 0.989854
1.00049 1.00434 0.98947
1.00514 0.994936 0.990557
1.0051 0.994874 0.990519
1.00505 0.996039 0.989197
1.00457 0.998594 0.98839
1.0016 1.00284 0.989078
1.00011 1.0021 0.992319
1.00027 1.00204 0.992093
1.00008 1.00276 0.991767
0.9999 1.00416 0.991074
0.999977 1.00439 0.990337
1.00003 1.00456 0.989749
1.00027 1.00376 0.99027
0.999924 1.00337 0.991534
0.999959 1.00479 0.989656
1.00514 0.994939 0.990475
1.00503 0.995825 0.989704
1.00468 0.998896 0.986924
1.0024 1.00294 0.987078
1.00477 1.00149 0.985093
0.999861 1.00442 0.990899
1.00442 0.994991 0.992081
1.0011 1.00404 0.989137
1.0028 1.00327 0.986636
1.00476 0.996483 0.989432
1.00422 1.00063 0.986035
0.999494 0.996765 0.989646
1 1.00439 0.990633
1.00347 0.99631 0.992158
1.00103 1.00368 0.989348
1.00262 1.00214 0.987412
1.00402 0.997862 0.988249
1.00034 0.995597 0.954792
0.9968 0.99534 0.97403
0.997251 1.00251 0.990567
0.999805 0.996895 0.908327
0.994741 0.997878 0.887523
0.999398 1.00352 0.992214
0.999525 1.00368 0.99202
0.999896 1.00282 0.992242
1.00017 1.00177 0.992682
1.00026 1.00243 0.991814
1.00012 1.00299 0.991588
1.00013 1.00275 0.991864
0.999989 1.0029 0.991861
1.00023 1.00294 0.991431
1.00021 1.00182 0.992519
1.00034 1.00256 0.991585
1.00013 1.00257 0.991975
1.00021 1.00311 0.991334
1.00026 1.00312 0.991329
1.00001 1.00286 0.991734
1.00033 1.00302 0.991228
1.00037 1.00253 0.991519
1.00022 1.00192 0.992338
1.00035 1.00256 0.991659
1.00026 1.00259 0.991773
1.00013 1.00241 0.992107
1.00026 1.00241 0.991961
1.00022 1.00173 0.99264
1.00021 1.00194 0.99234
1.00013 1.00048 0.994007
1.00009 1.00051 0.994044
1.00015 0.998194 0.996242
1.00008 1.00047 0.994093
1.00016 0.998136 0.996267
1.00004 0.996695 0.999172
1.00016 0.99812 0.996308
1.00006 0.996689 0.998623
1.00006 0.996661 0.9981
1.0001 0.999747 0.994808
1.00015 0.999741 0.994726
1.00012 0.997723 0.99677
1.00019 0.999747 0.994644
1.0001 0.997791 0.99695
0.999943 0.996609 0.999274
1.00007 0.998012 0.996552
0.999875 0.996863 0.999229
0.999798 0.997107 0.999188
1.00515 0.994957 0.990463
1.0052 0.994924 0.990554
1.00491 0.99529 0.990243
1.00076 0.995351 0.98849
1.00518 0.99495 0.990412
1.00398 0.995459 0.993028
1.00491 0.996385 0.991213
0.997216 0.995465 0.972576
1.00092 0.996438 0.989852
1.00008 1.00118 0.99345
1.00011 1.00109 0.993497
1.00001 1.00214 0.992574
1.00008 1.0021 0.992546
1.00518 0.994926 0.990394
1.00506 0.994886 0.990547
1.00511 0.99524 0.989926
1.00296 1.0022 0.987666
1.00401 1.00204 0.984859
1.00472 0.997255 0.988795
1.00155 1.00235 0.989653
1.00033 1.00465 0.989897
1.0004 1.0042 0.989551
1.00013 1.00127 0.993282
1.00002 1.00411 0.990519
1.00006 1.00292 0.991777
1.00012 1.00109 0.993474
1.0002 1.00188 0.992457
1.00516 0.994932 0.990545
1.0001 1.00214 0.992434
1.00024 1.00207 0.992246
0.999957 1.00264 0.992077
1.00511 0.994871 0.990441
1.00499 0.995867 0.989223
1.002 1.00227 0.988992
1.00426 0.998428 0.988737
0.99996 1.00403 0.990994
1.00013 1.00448 0.989957
1.00027 1.00406 0.990259
1.00042 1.00444 0.989688
1.00474 0.994819 0.991361
1.00508 0.995517 0.990138
1.00505 0.996593 0.989066
1.0023 1.00009 0.990741
0.999996 1.00326 0.99142
1.00009 1.00332 0.991193
0.999468 1.00452 0.991076
0.999661 1.00514 0.990059
1.00001 0.994922 0.948818
0.999834 1.00438 0.991024
1.00066 1.00399 0.989288
1.00435 0.994951 0.992194
1.00468 0.996352 0.989773
1.00434 1.00056 0.985997
1.00252 1.00336 0.986612
0.999618 0.996573 0.987585
0.99987 1.00456 0.99072
1.00366 0.996027 0.992171
1.00092 1.00376 0.989394
1.00291 1.00181 0.987388
1.00428 0.997937 0.988328
1.00148 0.995853 0.947312
0.996633 0.995417 0.969901
0.997144 1.00228 0.990329
0.999789 0.997566 0.911407
0.994723 0.997804 0.878237
0.999811 1.00364 0.991666
0.999877 0.995287 0.917027
0.995348 0.997317 0.889173
1.00219 1.00034 0.990663
1.00046 1.00355 0.990322
1.00236 1.00069 0.988559
0.996803 1.00366 0.990213
1.00016 0.997228 0.952521
0.994917 0.996887 0.967835
0.998343 0.998812 0.914865
0.994775 0.999167 0.885877
0.999334 1.00386 0.992071
0.999793 1.00303 0.992171
0.999708 1.00217 0.993532
1.00021 1.00179 0.99259
1.00034 1.00259 0.991601
1.00015 1.00301 0.991386
1.00015 1.00313 0.991409
1.00016 1.00256 0.991906
1.00023 1.00188 0.992348
1.0002 1.00318 0.991281
1.00032 1.003 0.991248
1.00038 1.00251 0.991575
1.00002 1.0028 0.99181
1.00017 1.00321 0.991447
0.999761 1.00298 0.991893
1.00044 1.00296 0.991057
1.00042 1.00259 0.991487
1.00038 1.00253 0.991642
1.00026 1.00259 0.991788
1.00046 1.00261 0.991434
1.00009 1.00279 0.991819
1.00009 1.00249 0.991886
0.999748 1.00368 0.99145
0.999983 1.00268 0.992082
1.00014 1.00243 0.992103
1.00017 1.00169 0.99277
1.00025 1.00243 0.991895
1.00023 1.00174 0.992577
1.00019 1.00041 0.993991
1.00022 1.00195 0.99233
1.00013 1.00049 0.994008
1.00012 0.998196 0.996821
1.00009 1.00052 0.994042
1.00014 0.998178 0.996531
1.00009 0.996724 0.998022
1.00016 0.998148 0.996265
1.00004 0.996704 0.999169
1.00009 0.996695 0.998064
1.00011 1.00128 0.993305
1.00007 0.999795 0.994816
1.0001 0.999736 0.99481
1.00013 0.997686 0.996792
1.00016 0.999735 0.994727
1.00013 0.997696 0.99677
0.999986 0.996504 0.999286
1.00008 0.997798 0.997183
0.999957 0.996682 0.998763
0.999919 0.996915 0.998195
1.00044 0.995549 0.988616
1.00517 0.994952 0.990403
1.00387 0.996193 0.992535
0.996696 0.99531 0.974025
1.00072 0.996355 0.990116
1.00497 0.995798 0.990984
1.00333 0.99692 0.989489
0.99695 0.996835 0.976687
1.00006 0.995595 0.952847
0.999365 0.998206 0.918061
0.99466 0.99792 0.88622
0.999961 1.00215 0.992499
1.00009 1.00117 0.99345
1.00015 1.00104 0.993492
1.00002 1.00216 0.992535
0.999948 1.00297 0.991906
1.00015 1.00268 0.991875
1.00008 1.0024 0.992271
1.00002 1.00221 0.992475
1.00518 0.994907 0.990529
1.00512 0.994866 0.990359
1.00502 0.995611 0.989251
1.0022 1.00193 0.988908
1.00396 0.998359 0.989086
1.00028 1.00432 0.990247
1.00075 1.00436 0.989628
1.00033 1.00454 0.989578
1.00018 1.00208 0.992399
0.999965 1.00401 0.990914
1.0001 1.00221 0.992551
0.999949 1.00247 0.992387
1.00475 0.994835 0.991418
0.999986 1.00327 0.991497
1.00007 1.00333 0.991352
1.00503 0.995292 0.990056
1.00457 0.996258 0.989493
1.00227 1.00005 0.990567
0.999716 1.00471 0.990632
0.99997 1.00482 0.990122
1.00332 0.996614 0.991855
1.00467 0.995937 0.990789
1.00411 0.995587 0.991135
1.00134 1.00081 0.990992
1.00002 1.00404 0.99062
0.999674 1.00436 0.990842
0.999685 1.00515 0.99037
0.999915 0.994854 0.918057
1.00049 0.995069 0.957316
0.999787 1.00472 0.990807
1.00083 1.00374 0.989442
1.00375 0.995741 0.992186
1.00452 0.99809 0.988409
1.00322 1.00154 0.987369
1.00052 0.995186 0.953156
0.997132 0.99571 0.969173
0.997 1.0021 0.990063
0.999024 0.997318 0.919602
0.994708 0.997793 0.868762
0.999753 1.00363 0.991684
0.999884 0.995882 0.916
0.99534 0.997298 0.884536
1.00215 1.00018 0.990706
1.00043 1.00345 0.990388
1.00237 1.0008 0.989073
0.997155 1.00339 0.990841
1.00131 0.997021 0.946823
0.994917 0.996233 0.971677
0.998547 0.999417 0.91542
0.994915 0.998977 0.883733
0.999361 1.00314 0.993258
0.995571 0.996832 0.889345
0.995109 0.998829 0.903939
0.999715 1.00186 0.99284
0.999497 1.0036 0.992298
0.996225 1.00284 0.991463
0.994817 0.999193 0.971142
0.99824 0.99921 0.944852
0.995212 0.999879 0.920971
0.994797 0.996436 0.892972
0.999789 1.00314 0.992101
0.999823 1.00191 0.993486
0.999122 1.00212 0.993925
1.00024 1.00186 0.992359
1.00038 1.00249 0.991631
1.00032 1.00297 0.991267
1.00017 1.00325 0.991232
0.999984 1.00279 0.991885
1.00042 1.0026 0.99148
1.00018 1.00314 0.991397
1.00044 1.00296 0.991068
0.999566 1.00319 0.992018
0.997939 1.00423 0.993663
1.00021 1.00332 0.991189
1.00059 1.00295 0.990907
1.0004 1.00251 0.991625
1.00028 1.00256 0.991803
1.00044 1.00264 0.991419
1.00011 1.0028 0.991799
1.00013 1.00246 0.991962
0.999876 1.00327 0.991653
1.00015 1.00266 0.991686
0.999955 1.00266 0.992057
1.0002 1.00289 0.991532
0.999794 1.00496 0.989718
0.999539 1.00411 0.991192
0.999788 1.00368 0.991443
0.999874 1.003 0.991944
1.00001 1.00268 0.992077
1.00009 1.00176 0.992794
1.00014 1.00246 0.992098
1.00018 1.00168 0.992774
1.00023 1.00031 0.994
1.00025 1.00174 0.992514
1.00019 1.0004 0.993997
1.00012 0.998197 0.996822
1.00012 1.00049 0.99401
1.00014 0.998175 0.996536
1.00006 0.996722 0.998037
1.00016 0.998156 0.996244
1.00003 0.996731 0.999164
1.00004 0.996715 0.999167
1.00013 1.0014 0.993345
1.00007 0.999879 0.994728
1.0001 1.00128 0.993309
1.00014 0.997677 0.996784
1.00007 0.999786 0.994819
1.0001 0.999735 0.994812
1.00013 0.997677 0.996789
1.00002 0.996446 0.999288
1.00011 0.997678 0.997249
1.00001 0.996519 0.998797
0.999985 0.996678 0.99828
0.999837 0.996085 0.910235
0.994947 0.997216 0.888332
0.997765 0.995185 0.974431
1.00059 0.995696 0.990396
1.00503 0.995023 0.990756
0.996551 0.995768 0.97799
1.00348 0.996166 0.989798
1.00109 0.995964 0.952216
0.999815 0.997526 0.909877
0.994682 0.997813 0.876813
0.998526 0.995007 0.981689
0.999923 0.99775 0.95305
0.998346 0.99892 0.913932
0.994771 0.998142 0.88529
1.00005 1.00312 0.991555
0.999972 1.00216 0.992572
1.00011 1.00113 0.99345
1.00003 1.00213 0.992496
0.99993 1.00288 0.992012
1.00018 1.00307 0.991453
1.00014 1.00266 0.991887
1.00019 1.00269 0.991724
1.0001 1.00238 0.992189
0.999975 1.0023 0.992407
1.00475 0.994883 0.991481
1.00511 0.995121 0.989992
1.00397 0.996016 0.989926
1.00215 1.00021 0.990391
1.00028 1.00455 0.990184
0.999932 1.00489 0.990187
1.00005 1.00328 0.991513
0.999925 1.00331 0.991574
1.00339 0.996058 0.992086
0.999978 1.00418 0.99054
0.999662 1.00447 0.99072
1.0047 0.995829 0.9905
1.00357 0.995617 0.991841
1.00176 1.00088 0.990371
0.999914 1.00514 0.9902
1.0005 0.997879 0.992856
1.00225 0.996119 0.99472
0.999909 1.00314 0.991012
0.99982 1.00455 0.990371
0.999791 1.00474 0.990219
0.999539 1.00512 0.990442
0.994775 0.996888 0.903862
0.999898 0.994885 0.921085
1.00002 0.994932 0.948752
0.999576 1.00381 0.991702
1.0004 1.00331 0.990453
1.00217 0.999843 0.990757
1.00242 1.00093 0.989583
0.999853 0.995551 0.921859
0.999986 0.997072 0.946902
0.9949 0.995599 0.967952
0.997491 1.00228 0.99142
0.998478 0.998974 0.906496
0.995344 0.99718 0.885892
0.994965 0.99876 0.889035
0.999073 1.00313 0.993262
0.995473 0.996015 0.894972
0.995322 0.999005 0.903437
1.00001 1.0018 0.992763
0.999214 1.00369 0.992293
0.996046 1.00034 0.994305
0.994846 0.998347 0.969902
0.997434 0.999062 0.953289
0.997296 0.999898 0.911819
0.994793 0.996411 0.898405
0.997958 1.00331 0.995376
0.995244 0.996738 0.914827
0.994729 0.996381 0.914582
0.995955 1.00225 0.999257
0.994798 0.999935 0.977721
0.995323 0.999987 0.95351
0.994814 0.999924 0.909751
0.994878 0.99479 0.896195
0.999917 1.00166 0.993438
0.999247 1.00212 0.99413
0.99754 1.00382 0.995377
1.00041 1.00263 0.991473
1.00046 1.00295 0.991078
1.0002 1.00302 0.991347
0.999385 1.0034 0.992147
1.00053 1.00301 0.990889
1.00016 1.00338 0.991184
0.997958 1.00411 0.994084
0.996105 1.00523 0.996348
0.998478 1.00434 0.993268
1.00036 1.00321 0.991076
1.00045 1.00265 0.991403
1.00011 1.00281 0.991779
1.00014 1.00246 0.992037
1.00016 1.00266 0.991732
0.999896 1.00329 0.991656
0.999978 1.00268 0.992083
1.00007 1.00294 0.991823
0.999374 1.00246 0.99312
1.00105 1.00077 0.991877
1.00024 1.00277 0.991644
1.00001 1.00396 0.990532
1.00124 1.0049 0.9877
0.9998 1.00473 0.990697
0.999657 1.00495 0.990104
0.999638 1.00407 0.991255
0.999733 1.00337 0.991636
0.999831 1.00368 0.991436
0.999937 1.00295 0.991943
1.00005 1.00198 0.99267
1.00006 1.00265 0.992071
1.00012 1.00176 0.99279
1.00023 1.00032 0.993989
1.00019 1.00167 0.992779
1.00023 1.00033 0.994003
1.00011 0.998195 0.996839
1.00019 1.00039 0.994003
1.00013 0.99818 0.996543
1.00001 0.996809 0.998039
1.00016 0.998151 0.996249
1.00004 0.99674 0.9986
1.00003 0.996734 0.999166
1.00016 1.00168 0.992847
1.00011 0.99998 0.99458
1.0001 1.00144 0.99318
1.00015 0.997711 0.996733
1.00007 0.999872 0.99473
1.00007 1.00133 0.993311
1.00003 0.996421 0.999286
1.00014 0.997675 0.996785
1.00007 0.999769 0.994821
1.00014 0.997669 0.996787
1.00001 0.996458 0.999288
0.999985 0.99651 0.999285
0.994837 0.995257 0.896713
0.999865 0.995622 0.915205
0.995185 0.999186 0.903539
0.995133 0.997428 0.885707
0.996823 0.995262 0.975246
1.00351 0.996123 0.990128
1.00032 0.99651 0.951048
0.999796 0.997085 0.918843
0.994711 0.997871 0.867298
0.998387 0.995835 0.980674
1.00126 0.997512 0.943597
0.998535 0.999254 0.914626
0.994781 0.998708 0.880347
0.995492 0.996464 0.976065
0.997837 0.998907 0.945507
0.995827 0.999733 0.907517
0.994822 0.995989 0.887498
1.00003 1.00379 0.990953
1.00001 1.00308 0.991661
0.999945 1.00221 0.992643
0.999892 1.00279 0.992119
1.00032 1.00335 0.99081
1.00017 1.00301 0.991537
1.0001 1.00266 0.991898
1.00034 1.00273 0.991561
1.00022 1.00265 0.991816
1.00012 1.00238 0.992106
1.00355 0.995772 0.9923
1.00454 0.995677 0.990215
1.00333 0.995582 0.992536
1.00218 1.00074 0.989764
1.00006 1.00511 0.990032
0.999739 1.00458 0.990599
0.999959 1.00428 0.990461
0.999967 1.0045 0.990297
1.00076 0.99777 0.993176
0.999895 1.00479 0.990195
0.999753 1.00512 0.990419
1.00244 0.996127 0.99421
1.00047 1.00307 0.990864
0.998606 0.997136 0.994428
0.998457 0.99836 0.999677
0.998876 1.00463 0.991711
0.999972 1.00487 0.989863
0.9995 1.00506 0.990506
0.994795 0.996637 0.920526
0.994766 0.996746 0.901982
0.999886 0.994861 0.91291
0.998801 1.00312 0.993267
0.999023 1.00377 0.99227
1.00025 1.00184 0.992698
0.995447 0.995214 0.896009
0.997804 0.998943 0.945704
0.994853 0.997425 0.970314
0.996195 0.999069 0.997363
0.995913 0.999903 0.920963
0.995651 0.999203 0.90295
0.994822 0.996385 0.898588
0.997837 1.00332 0.995597
0.99534 0.995812 0.917653
0.994714 0.996301 0.914594
0.996183 1.00256 0.998366
0.994829 0.999727 0.97904
0.996146 0.99995 0.945706
0.994866 0.995106 0.897087
0.994858 0.999946 0.916127
0.995931 1.00465 0.997996
0.994607 0.994683 0.93477
0.994766 0.995323 0.918259
0.994815 0.996152 0.887777
0.994963 1.00077 0.993794
0.995111 0.999882 0.95653
0.994933 0.999979 0.914638
0.999431 1.00213 0.994337
0.997894 1.00387 0.994751
0.995536 1.00522 0.99798
1.00051 1.00303 0.99087
1.00009 1.00342 0.991177
0.997949 1.00399 0.994493
1.00027 1.00312 0.991146
0.998518 1.00419 0.993269
0.996174 1.00456 0.996861
0.995854 1.00511 0.997416
0.998729 1.0034 0.993346
1.00015 1.00265 0.991779
0.99991 1.00329 0.991659
1.00002 1.00269 0.99211
0.999522 1.00262 0.993001
1.00004 1.00285 0.991819
0.999803 1.00225 0.992862
1.00042 1.00122 0.992617
1.00088 1.00273 0.990086
1.00031 1.00262 0.991757
1.00039 1.00388 0.990329
1.00161 1.00388 0.987476
1.00169 1.00436 0.987154
1.00009 1.00494 0.989771
1.00101 1.00488 0.987825
0.999883 1.00395 0.991074
0.999723 1.00479 0.990629
0.999506 1.00498 0.99049
0.999738 1.00404 0.991318
0.999783 1.00329 0.991724
1.00002 1.00223 0.992467
0.999989 1.00289 0.991942
1.00008 1.00196 0.992671
1.0002 1.00046 0.993907
1.00015 1.00175 0.992786
1.00024 1.00032 0.993986
1.00007 0.998225 0.996861
1.00024 1.00032 0.994006
1.00012 0.99818 0.996563
0.999957 0.996899 0.99806
1.00016 0.998136 0.996261
0.999995 0.996817 0.998601
1 0.996784 0.999168
1.00025 1.00188 0.992294
1.00016 1.0002 0.994072
1.00016 1.00169 0.992845
1.00016 0.997808 0.996615
1.00011 0.99999 0.994451
1.00009 1.00145 0.993016
1.00003 0.996463 0.999271
1.00015 0.997711 0.996738
1.00007 0.999861 0.994732
1.00003 0.99643 0.999286
1.00014 0.997672 0.996786
1.00001 0.996463 0.999288
0.99492 0.994951 0.917644
0.994821 0.995833 0.900849
0.999849 0.996086 0.916268
1.00044 1.00279 0.991214
0.994741 0.997314 0.918821
0.995209 0.998732 0.903184
0.995273 0.997236 0.889398
0.998489 0.996381 0.979258
0.999566 0.998006 0.9527
0.998382 0.998628 0.905183
0.994754 0.999126 0.88309
0.996337 0.996463 0.972164
0.9975 0.998806 0.953072
0.997226 0.999903 0.911208
0.994812 0.996648 0.889326
0.994886 0.997605 0.968292
0.995405 0.999968 0.952232
0.994869 0.99995 0.915922
0.994877 0.994974 0.896041
1.00021 1.00414 0.99025
1.00005 1.00383 0.99085
1.00002 1.00304 0.991766
1.00033 1.00336 0.99079
1.00031 1.00334 0.990932
1.00016 1.00294 0.991622
1.00035 1.00271 0.991594
1.00024 1.00261 0.991907
1.00089 0.997625 0.993464
1.00256 0.996158 0.993675
1.00004 1.00445 0.990223
1.00109 1.00299 0.990704
1 1.00513 0.990396
0.99992 1.00481 0.990171
0.999978 1.00487 0.989951
0.998261 0.997706 0.994956
0.999685 1.00508 0.990433
0.999448 1.00412 0.99177
0.998535 0.998005 0.999698
0.999957 1.00487 0.989916
0.99683 0.998505 0.994929
0.996362 0.999673 1.00217
0.998919 1.00529 0.991445
0.999862 1.00499 0.990366
0.99462 0.994828 0.939455
0.994786 0.996829 0.920859
0.994755 0.996824 0.900104
0.997657 1.00336 0.995839
0.996135 1.00252 0.997455
0.995337 0.994943 0.920424
0.9954 0.999994 0.953931
0.994835 0.999023 0.975866
0.994849 0.999932 0.915309
0.9947 0.996221 0.914602
0.994859 0.995709 0.897961
0.996181 1.00442 0.997697
0.994621 0.994705 0.934674
0.994752 0.995178 0.922436
0.994885 1.00164 0.997102
0.994804 0.996851 0.889523
0.995019 0.999262 0.951798
0.995103 0.999986 0.919055
0.995088 1.00453 0.998665
0.994654 0.994691 0.939304
0.994734 0.997507 0.91898
0.994758 0.998403 0.885535
0.995884 0.999961 0.915214
0.994927 0.998768 0.985993
0.995472 1.0008 0.944151
0.998278 1.00385 0.994122
0.995637 1.00521 0.99766
0.994893 1.00507 0.999984
1.00019 1.00304 0.991216
0.998535 1.0042 0.99327
0.996257 1.00364 0.997371
0.998871 1.00352 0.993273
0.996057 1.00408 0.997416
0.997728 1.00359 0.995724
0.999696 1.00274 0.992881
0.999961 1.00281 0.991816
0.999926 1.00235 0.99293
0.99953 1.00398 0.991071
0.999757 1.00164 0.99335
1.00068 1.00258 0.99049
1.00175 1.00354 0.987986
1.00399 1.00252 0.984998
1.00077 1.0038 0.990122
1.0019 1.00401 0.987053
1.00263 1.00329 0.987383
1.00044 1.00484 0.988663
1.0017 1.00426 0.987405
0.999809 1.00461 0.990377
1.00013 1.00495 0.989729
1.00079 1.00484 0.987952
1 1.00269 0.992024
0.999844 1.00393 0.991089
0.999653 1.00485 0.99056
0.999837 1.00322 0.991812
1.00005 1.00221 0.992462
1.00017 1.00069 0.993741
1.00011 1.00194 0.992673
1.00021 1.00046 0.993904
1.00002 0.998355 0.996298
1.00025 1.00033 0.993984
1.00009 0.998221 0.996307
0.999831 0.996992 0.999185
1.00013 0.998158 0.996281
0.999938 0.996904 0.998612
0.999958 0.996852 0.99917
1.00028 1.00206 0.992038
1.00022 1.00046 0.993686
1.00025 1.00191 0.992382
1.00017 0.997953 0.996452
1.00016 1.00022 0.994025
1.00017 1.0017 0.992843
1.00002 0.996558 0.999241
1.00016 0.997802 0.996624
1.00011 1 0.994323
1.00004 0.99645 0.999276
1.00014 0.997708 0.996742
1.00003 0.996438 0.999287
0.99466 0.994734 0.935357
0.994868 0.995902 0.917446
0.994804 0.996629 0.901071
1.0004 1.00281 0.991298
1.00039 1.00278 0.991227
1.00044 1.00316 0.990938
0.994755 0.995157 0.91788
0.994722 0.996669 0.918832
0.995324 0.998743 0.902825
0.996016 0.996221 0.974411
0.998399 0.99932 0.944416
0.995279 0.999911 0.920786
0.994826 0.997273 0.885933
0.99497 0.997369 0.971394
0.99632 0.999982 0.94946
0.994829 0.999957 0.91669
0.994866 0.995225 0.896819
0.994872 0.997826 0.967129
0.995365 0.999984 0.953518
0.994939 1.00001 0.915128
0.994811 0.9968 0.892674
1.00035 1.00399 0.990143
1.0002 1.00412 0.990237
1.00009 1.00385 0.990747
1.00036 1.00335 0.990767
1.00028 1.00332 0.991055
1.00038 1.00269 0.991627
0.997864 0.998101 0.99547
0.998286 0.997876 0.999738
1.00001 1.00482 0.99004
1.00001 1.00327 0.991832
0.999812 1.00508 0.990362
1.00006 1.00479 0.989802
0.999544 1.005 0.990432
0.996577 0.997977 0.99528
0.998969 1.00469 0.992089
0.996122 1.00057 1.00147
0.999887 1.00462 0.990479
0.995467 0.997563 0.995624
0.996561 1.00227 0.99817
0.998802 1.00521 0.992259
0.994612 0.994853 0.944725
0.99461 0.994829 0.940928
0.994778 0.996819 0.921174
0.996479 1.00429 0.997379
0.995019 1.00159 0.994432
0.994638 0.994729 0.934579
0.994874 0.999162 0.954924
0.99493 0.999956 0.910608
0.994733 0.994922 0.926615
0.994812 0.99743 0.886211
0.995223 1.00435 0.999027
0.994659 0.994695 0.940926
0.994711 0.996827 0.918999
0.994938 0.999006 0.982025
0.994765 0.998884 0.880732
0.994822 0.999959 0.915942
0.99522 1.00059 0.953196
0.99499 1.00402 0.997432
0.99465 0.994739 0.935698
0.995195 0.999363 0.903868
0.994652 0.997951 0.887005
0.996107 0.999133 0.907482
0.99598 0.999994 0.952358
0.995484 1.00026 0.975398
0.995888 1.00524 0.997372
0.995202 1.0038 0.999933
0.996538 1.00348 0.998567
0.998981 1.00359 0.993201
0.996252 1.00332 0.997423
0.996896 1.00395 0.996162
0.999678 1.00287 0.992959
1.00006 1.00251 0.992997
1.0005 1.00372 0.990663
1.00133 1.00474 0.987625
1.00048 1.00247 0.990904
1.00195 1.00365 0.987622
1.00383 1.00388 0.984488
1.00503 1.00185 0.983793
1.00344 1.00216 0.985946
1.00388 1.00275 0.984971
1.00218 1.00413 0.98663
1.0021 1.00349 0.988059
1.0023 1.00298 0.987876
1.00005 1.00496 0.989244
1.00058 1.00484 0.988807
1.00171 1.00415 0.98766
0.999934 1.00376 0.991029
0.999928 1.00457 0.990391
1.00015 1.00497 0.989686
1.00012 1.00103 0.993458
1.00006 1.00265 0.992013
0.999806 1.00392 0.991105
1.00009 1.0022 0.992457
1.00017 1.00069 0.993737
0.999939 0.998563 0.996235
1.00022 1.00046 0.993901
1.00003 0.998352 0.996294
0.999764 0.997154 0.999176
1.0001 0.99821 0.996304
0.999862 0.997019 0.998622
0.9999 0.99695 0.999174
1.00034 1.00219 0.991977
1.00029 1.00067 0.993559
1.00031 1.00206 0.992091
1.00017 0.998136 0.996262
1.00022 1.00046 0.993767
1.00025 1.00192 0.992469
0.999999 0.996692 0.999204
1.00016 0.997943 0.996464
1.00017 1.00023 0.993979
1.00003 0.996536 0.99925
1.00015 0.997798 0.996633
1.00004 0.996443 0.999281
0.994644 0.994678 0.939044
0.99463 0.994707 0.935263
0.994817 0.996617 0.917356
1.00027 1.00301 0.991182
1.00026 1.00345 0.990922
1.00034 1.00283 0.991383
1.00036 1.00284 0.991226
1.00036 1.00323 0.990907
1.00029 1.0032 0.991047
1.0005 1.00331 0.990656
0.994735 0.996194 0.914028
0.994753 0.995112 0.922116
0.994705 0.995882 0.918847
0.994841 0.995397 0.897596
0.994873 0.997294 0.968668
0.995238 0.999977 0.947411
0.994872 0.999927 0.921529
0.994861 0.998233 0.966482
0.994983 1.00001 0.946356
0.995051 0.999995 0.919946
0.994794 0.996524 0.898186
0.995457 0.996759 0.97039
0.994947 1.00049 0.945796
0.994803 0.999912 0.910399
0.99478 0.999197 0.885246
0.999885 1.00443 0.990509
1.00031 1.00401 0.990151
1.0002 1.00416 0.990224
1.00041 1.00332 0.990744
0.996509 0.997728 0.995662
0.995992 1.00139 1.00077
1.00006 1.00483 0.989688
0.999534 1.00504 0.990499
0.999244 1.00444 0.992734
0.9998 1.00468 0.990449
0.998619 1.00522 0.992261
0.995361 0.998751 0.992918
0.995994 1.00344 0.998551
0.998069 1.00494 0.992959
0.995215 0.998693 0.991579
0.99752 1.00447 0.996668
0.994638 0.994831 0.939504
0.994624 0.994806 0.947457
0.994595 0.994824 0.942398
0.995113 1.00414 0.999345
0.994929 0.997769 0.986782
0.994659 0.994679 0.942569
0.996572 1.0008 0.944761
0.994852 0.999937 0.920632
0.994689 0.996068 0.919014
0.994749 0.999208 0.883477
0.994961 1.00254 0.99801
0.99463 0.994708 0.93562
0.995327 0.998764 0.903494
0.994919 1.00064 0.976658
0.994673 0.997831 0.877743
0.997292 0.999898 0.910871
0.994943 0.999998 0.945751
0.99545 1.00467 0.991737
0.995041 0.994841 0.918241
0.995061 0.997175 0.889095
0.998716 0.997986 0.914738
0.995342 0.999961 0.95244
0.994896 1.00001 0.969657
0.995468 1.00271 0.99996
0.995781 1.00421 0.998541
0.99816 1.00106 0.997048
0.996113 1.00429 0.996602
0.998587 1.00311 0.993487
1.00293 1.00033 0.989795
1.00148 1.00338 0.990252
1.00168 1.00466 0.987493
1.00281 1.00419 0.984988
1.00218 1.00376 0.987259
1.0039 1.00386 0.984207
1.0045 1.00342 0.983235
1.00505 1.00101 0.984577
1.0051 1.00212 0.983852
1.005 1.00198 0.983732
1.00291 1.00235 0.98663
1.00347 1.00223 0.986168
1.00376 1.00302 0.984943
1.00151 1.00432 0.987917
1.00196 1.00343 0.988061
1.00197 1.00269 0.988364
1.00007 1.00477 0.989737
1.00011 1.00497 0.989419
1.00073 1.00483 0.988952
1.00003 1.0018 0.992819
1.00006 1.00362 0.991036
1.00003 1.00455 0.990404
0.999849 0.998787 0.996154
1.00014 1.00105 0.993443
1.00012 1.00261 0.992002
1.00018 1.00069 0.993734
0.999938 0.998574 0.996228
0.999672 0.997356 0.999163
1.00003 0.998346 0.996289
0.999755 0.997191 0.999173
0.999829 0.997053 0.999178
1.00027 1.00313 0.991145
1.00039 1.00235 0.991766
1.00033 1.00091 0.993243
1.00035 1.0022 0.991964
1.00015 0.998371 0.996057
1.00028 1.00068 0.993558
1.00029 1.0021 0.992143
0.999964 0.996863 0.99916
1.00016 0.998133 0.996274
1.00022 1.00047 0.993848
1 0.996663 0.999215
1.00016 0.997936 0.996476
1.00003 0.99651 0.99926
0.994646 0.994687 0.934415
0.994652 0.994677 0.940694
0.9946 0.994715 0.935153
1.00034 1.00296 0.991205
1.00018 1.00352 0.990894
1.00008 1.00373 0.990766
1.00014 1.00345 0.990907
1.00028 1.00384 0.990596
1.00034 1.00289 0.991226
1.0003 1.00331 0.990876
1.00031 1.00317 0.991042
1.00041 1.00336 0.990741
1.00014 1.00368 0.990984
0.995151 0.998828 0.90312
0.99473 0.9964 0.914069
0.994747 0.995297 0.926344
0.99481 0.996219 0.898364
0.994937 0.999986 0.911044
0.994889 0.998797 0.96506
0.994933 1.0002 0.953189
0.994899 0.997135 0.967205
0.99509 1.00023 0.953521
0.994846 0.999951 0.917252
0.994946 0.998968 0.88296
0.995023 0.995148 0.972129
0.994927 1.00021 0.954072
0.995708 0.999879 0.920053
0.994742 0.997895 0.885645
0.998781 1.00374 0.992897
0.99988 1.00463 0.990458
1.00028 1.00406 0.99016
0.995169 0.99972 0.990146
0.995553 1.00419 0.998922
0.999797 1.00461 0.990418
0.998066 1.00522 0.992263
0.998245 1.00484 0.992995
0.996818 1.00407 0.996668
0.994931 0.998961 0.991784
0.996279 1.00251 0.997852
0.995958 1.00028 0.991732
0.995068 0.996288 0.920087
0.994631 0.994838 0.940952
0.99464 0.994741 0.950195
0.994972 1.00089 0.998426
0.994903 1.00114 0.97274
0.99461 0.994739 0.935525
0.996515 1 0.950785
0.99523 0.999907 0.920351
0.995547 0.998605 0.903132
0.994704 0.997904 0.868366
0.995235 1.00484 0.992144
0.995001 0.995512 0.918059
0.995266 0.99729 0.886506
0.994905 0.999941 0.970669
0.998536 0.999191 0.915215
0.996256 0.99996 0.94824
0.99578 1.00286 0.989284
0.994915 0.994912 0.897526
0.99944 0.997921 0.918948
0.997811 0.998678 0.9454
0.994851 0.997631 0.972292
0.995104 1.00483 0.998493
0.998029 1.00124 0.996948
1.00274 0.999597 0.992159
0.99756 1.00334 0.993946
1.00193 1.00068 0.990173
1.00397 0.998995 0.988212
1.00201 1.00454 0.987359
1.00289 1.00402 0.985066
1.00439 1.00151 0.985087
1.00399 1.00384 0.983927
1.00443 1.00319 0.983293
1.00495 1.00059 0.985063
1.00512 0.999378 0.98602
1.00513 1.0014 0.984016
1.00499 1.00098 0.984635
1.00472 1.00183 0.984578
1.00507 1.00203 0.983771
1.00496 1.0021 0.983672
1.00246 1.00355 0.986873
1.00287 1.00236 0.986909
1.00348 1.00233 0.986394
1.00091 1.00442 0.98869
1.00134 1.00431 0.988039
1.00182 1.00338 0.988061
0.999932 1.00317 0.991576
1.0002 1.00466 0.989749
1.00017 1.00498 0.989593
0.999756 0.999175 0.996498
1.00007 1.00182 0.992784
1.00017 1.00349 0.991043
0.999592 0.997598 0.997986
0.999847 0.998843 0.996412
1.00015 1.00105 0.993428
0.999936 0.99859 0.996221
0.999665 0.997402 0.999156
0.999745 0.997223 0.999169
1.00018 1.00349 0.990897
1.00038 1.00262 0.991528
1.00023 1.00321 0.991111
1.00034 1.00116 0.99298
1.00035 1.00241 0.991759
1.00011 0.998624 0.995865
1.00032 1.00091 0.993243
1.00038 1.00219 0.991952
0.999919 0.997073 0.999111
1.00015 0.998359 0.996069
1.00027 1.00069 0.993556
0.999969 0.996832 0.999173
1.00016 0.998127 0.996287
1.00001 0.996634 0.999226
0.995646 0.994825 0.921039
0.994649 0.994701 0.934334
0.994662 0.994662 0.942359
1.00036 1.00316 0.990935
1.00033 1.00299 0.991229
1.00012 1.00359 0.990865
1.00021 1.00347 0.990935
1.00022 1.00366 0.990806
1.00018 1.0038 0.990679
1.00025 1.00409 0.990214
0.999892 1.00415 0.99052
1.00038 1.0031 0.991037
1.00028 1.0034 0.990825
1.00005 1.00374 0.990945
0.999415 1.0042 0.992178
0.995265 0.997747 0.888156
0.995549 0.998987 0.902609
0.994732 0.996632 0.914101
0.995208 0.998692 0.888328
0.994842 0.999941 0.916944
0.994939 1.00049 0.945786
0.995488 0.997184 0.96507
0.995057 0.995357 0.973816
0.994726 0.997892 0.87675
0.994911 1 0.949888
0.997245 0.999878 0.911011
0.994885 0.996282 0.974558
0.995559 0.999969 0.954171
0.99935 0.998028 0.911463
0.998853 1.00195 0.994997
0.999024 1.00366 0.992846
0.999824 1.00481 0.990407
0.994841 0.999351 0.992012
0.996259 1.00367 0.996666
0.99836 1.00475 0.99303
0.99754 1.00231 0.997652
0.995495 1.00026 0.991833
0.997004 0.999682 0.993956
0.994823 0.998221 0.897721
0.994955 0.995678 0.92412
0.994625 0.994842 0.942399
0.995007 1.00512 0.992506
0.994901 0.99965 0.971015
0.994839 0.996283 0.917959
0.995243 0.999993 0.94671
0.998654 0.997832 0.906089
0.995413 0.997026 0.890261
0.995992 1.00306 0.989263
0.994905 0.995612 0.90165
0.999817 0.996933 0.910992
0.994878 0.997817 0.968321
0.997523 0.998736 0.952848
0.99773 1.00001 0.9925
0.99985 0.995849 0.91094
0.999911 0.998073 0.952692
0.994865 0.996567 0.967946
0.997923 1.00148 0.996936
1.00206 0.998693 0.992664
1.0038 0.999268 0.989614
1.00091 1.00104 0.990554
1.00349 0.999614 0.988171
1.00461 0.998197 0.987817
1.00295 1.00388 0.985143
1.0042 1.00153 0.985074
1.00496 0.998329 0.987098
1.00434 1.00297 0.98335
1.00494 1.00041 0.98509
1.00507 0.997783 0.987585
1.00514 0.99782 0.987522
1.00515 0.999921 0.985417
1.0051 0.99928 0.986104
1.00511 1.00094 0.984445
1.00511 1.00131 0.984156
1.00494 1.00095 0.984692
1.00388 1.0022 0.985648
1.00453 1.00181 0.984716
1.00501 1.0019 0.983688
1.00199 1.00365 0.987617
1.00253 1.00347 0.986856
1.00285 1.00234 0.987187
1.00036 1.00382 0.990229
1.00096 1.00443 0.988685
1.00117 1.00428 0.988162
0.999681 0.999882 0.995294
1.00008 1.00303 0.991565
1.00035 1.00454 0.989761
0.999495 0.997822 0.999125
0.99974 0.999265 0.995885
1.00011 1.00182 0.992749
0.999589 0.997602 0.999137
0.99983 0.998886 0.996116
0.999661 0.997454 0.999149
1.00045 1.00329 0.990748
1.00023 1.00349 0.990879
1.00037 1.00294 0.991226
1.0003 1.00145 0.992753
1.00033 1.00266 0.991527
1.00022 1.00323 0.991078
1.00006 0.998868 0.99571
1.00033 1.00116 0.992982
1.00032 1.00245 0.991753
0.999866 0.997286 0.999066
1.00011 0.998606 0.995876
1.00032 1.00093 0.993243
0.999923 0.99703 0.999126
1.00014 0.99835 0.996082
0.999974 0.996792 0.999186
0.995413 0.996662 0.889754
0.995426 0.994839 0.920875
0.994643 0.994715 0.934254
1.00021 1.00336 0.99092
1.00089 1.00289 0.990826
1.00024 1.00353 0.990703
1.00024 1.00351 0.990963
1.00035 1.00357 0.990846
1 1.00385 0.990762
1.00005 1.00406 0.990507
1.0002 1.00411 0.990296
1.00014 1.00448 0.990079
0.999841 1.00121 0.993417
1.00016 1.00358 0.990906
0.999511 1.00384 0.991926
0.999803 0.997389 0.907175
0.995242 0.997679 0.883391
0.995808 0.999195 0.902134
0.994703 0.997935 0.867704
0.996822 0.998776 0.919823
0.994886 0.999986 0.948794
0.995296 0.99515 0.971429
0.994971 0.996487 0.973028
0.998538 0.999246 0.914062
0.996204 0.999966 0.947085
0.994896 0.99802 0.973799
0.998739 0.998727 0.94539
1.00208 0.998257 0.993241
0.999028 1.0019 0.994761
0.999228 1.00363 0.992806
0.995029 1.00046 0.991896
0.998542 1.00215 0.997438
0.997621 0.999915 0.993287
0.999644 0.999204 0.990135
0.999931 0.994834 0.917857
0.994909 0.997273 0.898675
0.994775 0.994863 0.928072
0.996114 1.00333 0.989388
0.994886 0.997889 0.966507
0.995009 0.996172 0.901824
0.998715 0.998443 0.944469
0.999821 0.997421 0.919807
0.997514 0.99964 0.990508
0.99987 0.995511 0.915947
1.00132 0.997412 0.943698
0.994889 0.996287 0.971348
0.998891 0.996483 0.992488
1.00005 0.996179 0.952733
0.996312 0.996123 0.973819
1.00146 0.997639 0.993128
1.00363 0.998293 0.989568
1.00492 0.997355 0.98916
1.00293 1.00022 0.988134
1.00432 0.998417 0.987822
1.00477 0.996901 0.988754
1.00406 1.00155 0.985062
1.00487 0.998475 0.987033
1.00509 0.996011 0.989118
1.00494 1.00023 0.985117
1.00507 0.997743 0.987589
1.00511 0.996214 0.98915
1.00511 0.996903 0.988689
1.00514 0.99765 0.987718
1.00517 0.998578 0.986908
1.00515 1.0002 0.985352
1.00516 0.999955 0.985446
1.00508 0.999185 0.986189
1.00492 1.0008 0.985071
1.00511 1.00095 0.98452
1.00509 1.0012 0.984295
1.00313 1.0028 0.986431
1.00385 1.00225 0.985633
1.00438 1.00184 0.984853
1.00108 1.00351 0.989269
1.00205 1.00362 0.987598
1.00259 1.0034 0.98684
0.999797 1.00071 0.994246
1.00047 1.00367 0.990239
1.00105 1.00438 0.988681
0.999518 0.998095 0.999003
0.99969 0.999982 0.995244
1.00019 1.00293 0.991556
0.999529 0.997846 0.99851
0.999726 0.999346 0.995858
0.999596 0.997656 0.999125
1.00065 1.00291 0.990786
1.00028 1.00339 0.990786
1.00029 1.0033 0.990907
1.00029 1.00347 0.990862
1.0003 1.00301 0.991224
1.00026 1.00179 0.992489
0.999987 0.999118 0.995593
1.0003 1.00144 0.992759
1.00027 1.00273 0.991525
0.999806 0.997483 0.999027
1.00006 0.998853 0.995719
1.00032 1.00117 0.992983
0.99987 0.997248 0.999079
1.00011 0.998594 0.995887
0.999929 0.996992 0.99914
0.999862 0.995261 0.917023
0.995464 0.996947 0.89162
0.995302 0.994854 0.920705
1.00006 1.00357 0.990904
1.00015 1.00377 0.990603
1.00062 1.0029 0.991033
1.00165 1.00298 0.989271
1.0003 1.00383 0.990533
1.00018 1.00404 0.990494
1.00017 1.00408 0.990378
1.00003 1.00431 0.990319
1.00044 1.00343 0.989546
1.00081 1.00039 0.992931
1.00423 0.998365 0.988821
0.999812 1.0012 0.99365
0.999737 1.00345 0.991672
0.999192 0.997645 0.952182
0.999709 0.997821 0.910958
0.995295 0.997373 0.884866
0.999161 0.999502 0.904307
0.995883 0.999956 0.951639
0.994902 0.99641 0.974618
0.994872 0.998012 0.975831
0.997439 0.998605 0.954492
0.995967 0.99851 0.974969
1.00335 0.996187 0.992511
1.00142 0.998866 0.993363
0.99921 1.00192 0.994516
0.998389 0.999925 0.992685
1.00076 0.999498 0.98847
1.00002 0.994909 0.948768
0.999913 0.994869 0.921214
0.995023 0.996558 0.899722
0.99714 0.999489 0.988459
0.994883 0.996262 0.968233
0.999861 0.995841 0.916926
1.00005 0.998232 0.952238
0.998255 0.997837 0.992854
1.00125 0.996271 0.951698
0.996577 0.995833 0.97059
1.00135 0.99657 0.991259
0.999218 0.99583 0.979117
1.00347 0.997417 0.989568
1.00486 0.996642 0.989103
1.00496 0.995847 0.990102
1.00407 0.99866 0.987825
1.0047 0.996943 0.988697
1.00512 0.995261 0.989928
1.00475 0.998609 0.986969
1.00509 0.996092 0.989089
1.00509 0.995078 0.990159
1.00507 0.997709 0.987594
1.00512 0.996215 0.989111
1.00511 0.99593 0.989674
1.00512 0.996682 0.988827
1.00513 0.997571 0.988033
1.00515 0.997477 0.987914
1.00517 0.998602 0.986886
1.00518 0.999365 0.986152
1.00513 1.00022 0.985356
1.00515 1.00026 0.985317
1.00517 0.999991 0.985476
1.00426 1.00129 0.985862
1.00487 1.00087 0.985108
1.00509 1.00097 0.984597
1.0019 1.0029 0.988411
1.00315 1.00277 0.986427
1.00384 1.0023 0.985618
1.0001 1.00121 0.993194
1.00115 1.00344 0.989258
1.00204 1.00364 0.987578
0.9996 0.99855 0.998767
0.999846 1.00073 0.994218
1.00061 1.00348 0.990251
0.999568 0.998182 0.998933
0.999706 1.00008 0.995194
0.999575 0.997879 0.999055
1.00162 1.00319 0.98872
1.0007 1.00278 0.990775
1.00038 1.00334 0.99058
1.00013 1.00345 0.990823
1.00025 1.00335 0.990871
1.00024 1.00222 0.992075
1.00024 1.00305 0.991222
1.00024 1.00178 0.992496
0.999901 0.999397 0.99547
0.999738 0.997676 0.998997
0.999988 0.999093 0.995601
1.00029 1.00143 0.992764
0.99981 0.99746 0.999039
1.00006 0.998841 0.995727
0.999875 0.997206 0.999093
1.00044 0.995205 0.955597
0.999871 0.995555 0.915983
0.995431 0.997447 0.888742
1.00007 1.00402 0.990503
1.0004 1.00285 0.991241
1.00042 1.00375 0.990546
1.00153 1.00292 0.989347
1.00294 1.00281 0.986929
1.0007 1.00343 0.989664
0.999905 1.00419 0.990558
1.00101 1.0035 0.988978
1.00061 1.00074 0.992834
1.00248 1.00048 0.989137
1.00447 0.997542 0.989998
1.00444 0.99693 0.989649
1.00373 0.998205 0.989535
0.999496 1.00147 0.993886
0.996059 0.996455 0.974539
1.00022 0.997035 0.950087
0.998429 0.997769 0.919565
0.998094 0.999259 0.945296
0.994851 0.998317 0.976954
0.996217 0.998341 0.979364
1.00004 0.99827 0.992267
1.00354 0.9959 0.992516
1.00106 0.999371 0.993489
1.00252 0.999798 0.98674
0.996798 0.997455 0.975178
1.00037 0.995269 0.957283
0.999895 0.994846 0.912909
0.997773 0.998787 0.993101
0.996643 0.994924 0.972797
1.00035 0.996663 0.950396
1.00117 0.996736 0.991383
0.998739 0.995764 0.978279
1.00383 0.996017 0.991187
1.0031 0.997928 0.988305
1.00477 0.995987 0.98902
1.00489 0.995705 0.990083
1.00512 0.994839 0.990552
1.00463 0.996982 0.988642
1.00512 0.995225 0.989883
1.00508 0.994945 0.990471
1.00508 0.996162 0.989058
1.00509 0.995206 0.990128
1.00512 0.995369 0.990171
1.00513 0.996214 0.989072
1.00512 0.995902 0.989574
1.00511 0.99665 0.988847
1.00512 0.996472 0.988965
1.00513 0.99743 0.988194
1.00518 0.998747 0.986829
1.00517 0.998627 0.986863
1.00518 0.999429 0.98612
1.00517 0.999794 0.985865
1.00473 1.00026 0.98587
1.00512 1.00028 0.98537
1.00515 1.00031 0.985282
1.00294 1.0017 0.987821
1.00425 1.00132 0.985872
1.00479 1.00093 0.985144
1.00039 1.00157 0.992304
1.00193 1.00292 0.988404
1.00317 1.00275 0.986422
0.999743 0.999067 0.998445
1.00017 1.00118 0.993182
1.00123 1.00337 0.989246
0.999677 0.998666 0.99865
0.999887 1.00076 0.99419
0.999631 0.998263 0.998844
1.00287 1.00301 0.986679
1.00171 1.00328 0.988704
1.00111 1.00348 0.989261
1.00068 1.00272 0.990763
1.00047 1.0033 0.990497
1.0004 1.00257 0.991487
1.0002 1.00341 0.990835
1.00022 1.00223 0.99208
0.999821 0.999764 0.995248
1.00023 1.00178 0.992504
0.999906 0.999358 0.995482
0.999673 0.997876 0.998962
0.999743 0.997654 0.999007
0.999991 0.999071 0.995609
0.999812 0.997427 0.99905
0.996583 0.995815 0.976125
1.00063 0.99535 0.947535
0.999847 0.99511 0.921921
1.00456 1.00174 0.984794
1.00054 1.00367 0.990559
1.00143 1.00287 0.989424
1.00096 1.00345 0.989464
1.0029 1.0027 0.986929
1.00259 1.00129 0.988398
1.00156 1.00357 0.988413
1.00039 1.00104 0.992743
1.00282 1.00036 0.989181
1.00449 0.997273 0.989598
1.00482 0.997309 0.988245
1.00422 0.995847 0.991303
1.00434 0.996615 0.989492
1.00313 0.997962 0.99025
1.00008 0.997251 0.993315
0.995917 0.99653 0.972888
0.999858 0.996614 0.948621
0.996272 0.997714 0.977377
1.00025 0.997233 0.994356
1.00319 0.995605 0.992501
1.00105 0.997017 0.988134
0.996584 0.996177 0.976927
1.00004 0.994917 0.948854
1.00067 0.997163 0.991558
0.998527 0.996397 0.977028
1.00351 0.99559 0.991468
1.00301 0.997507 0.988646
1.00461 0.994983 0.991217
1.00446 0.997376 0.99078
1.00485 0.995521 0.990068
1.00512 0.99487 0.990436
1.00511 0.994882 0.990465
1.00511 0.995199 0.989839
1.00507 0.994947 0.990461
1.00514 0.995095 0.990326
1.00509 0.99534 0.990096
1.00511 0.99537 0.990119
1.00512 0.996155 0.989342
1.00512 0.995875 0.989475
1.00511 0.996666 0.988846
1.00518 0.998021 0.987472
1.00513 0.997287 0.988355
1.00518 0.998624 0.986986
1.00519 0.999514 0.986029
1.00518 0.999496 0.986089
1.00517 0.99981 0.985801
1.00483 1.00003 0.986124
1.00356 1.00062 0.98778
1.00473 1.00033 0.985908
1.00512 1.00035 0.985383
1.00089 1.00133 0.991703
1.00289 1.00174 0.987829
1.00425 1.00134 0.985881
0.999832 0.999564 0.998153
1.00056 1.00139 0.992283
1.00195 1.00291 0.988398
0.999806 0.999162 0.998336
1.00027 1.00112 0.993169
0.999757 0.998758 0.998532
1.00441 1.00147 0.985318
1.00284 1.00305 0.986724
1.00209 1.00355 0.987599
1.00181 1.00337 0.988687
1.00115 1.00343 0.989294
1.00065 1.00301 0.990655
1.00056 1.00324 0.990414
1.00029 1.00271 0.991484
0.999785 1.00024 0.994831
1.00018 1.00227 0.992085
0.999825 0.999707 0.995268
0.999625 0.998117 0.998894
0.99991 0.99932 0.995494
0.999675 0.997848 0.998975
0.999747 0.997634 0.999016
1.00084 0.99597 0.991808
0.996871 0.995267 0.972455
1.0001 0.995134 0.956367
1.00373 1.00109 0.986187
1.00512 0.99982 0.985787
1.00453 1.00146 0.984909
1.00121 1.00347 0.989262
1.00285 1.0026 0.98692
1.00295 1.00125 0.988152
1.00509 0.997874 0.987699
1.00318 1.00024 0.98922
1.00451 0.997007 0.989191
1.00483 0.997328 0.98849
1.00501 0.996354 0.989056
1.00432 0.995436 0.991326
1.00413 0.996003 0.991061
1.00449 0.996451 0.989331
1.00017 0.997627 0.993457
0.995841 0.996771 0.970917
1.00057 0.996757 0.996502
1.00416 0.99559 0.992147
1.00078 0.997439 0.988297
0.996628 0.995538 0.974519
1.00353 0.995168 0.991718
1.00296 0.997597 0.989013
1.00465 0.995079 0.991465
1.00455 0.996609 0.990698
1.00512 0.994932 0.990395
1.00518 0.995087 0.990536
1.00513 0.994908 0.990319
1.00511 0.994891 0.990453
1.00513 0.995009 0.990359
1.00507 0.99495 0.990452
1.00514 0.995089 0.990289
1.00516 0.99566 0.989786
1.00511 0.995369 0.990067
1.00513 0.996166 0.989339
1.00518 0.997571 0.987934
1.00511 0.996682 0.988844
1.00518 0.998034 0.987483
1.00521 0.999242 0.986254
1.00518 0.998498 0.987143
1.00519 0.999465 0.986084
1.00489 0.99991 0.98612
1.00516 0.999827 0.985737
1.00482 1.00002 0.986093
1.00374 1.00022 0.987857
1.00122 1.0008 0.991595
1.00353 1.00066 0.987778
1.00473 1.00039 0.985945
0.999903 1.00002 0.997907
1.00095 1.00126 0.991692
1.00282 1.00183 0.987836
0.999889 0.999684 0.998054
1.00068 1.00129 0.992267
0.999868 0.999267 0.99823
1.00501 1.00059 0.985259
1.00444 1.00145 0.985216
1.00342 1.00238 0.986232
1.00282 1.00308 0.986768
1.00202 1.00362 0.987613
1.00114 1.00336 0.989451
1.00118 1.0034 0.989329
1.00053 1.00313 0.990676
0.999904 1.00078 0.994127
1.0002 1.00283 0.991483
0.999782 1.00019 0.994851
0.999607 0.998463 0.998753
0.999831 0.999654 0.995287
0.999618 0.998075 0.998921
0.999678 0.997825 0.998986
1.00425 0.994925 0.992238
1.00098 0.995592 0.990335
0.996726 0.994891 0.972575
1.00513 0.9985 0.986976
1.00406 1.00065 0.986279
1.00513 0.998592 0.98702
1.00512 0.999832 0.985807
1.0045 1.00116 0.985034
1.00512 0.997114 0.98816
1.00331 1.00119 0.987913
1.00508 0.998004 0.987534
1.00513 0.995734 0.98943
1.00483 0.997353 0.988739
1.00497 0.996446 0.988965
1.0043 0.995564 0.991434
1.00385 0.996007 0.990807
1.00017 0.997818 0.993553
1.00515 0.994949 0.990315
1.00419 0.996135 0.992186
1.00054 0.997483 0.988435
1.00467 0.995179 0.991714
1.00458 0.995735 0.990621
1.00512 0.994928 0.990439
1.00518 0.994961 0.990463
1.00518 0.994928 0.9905
1.0051 0.9949 0.990443
1.00513 0.994973 0.990383
1.00519 0.995262 0.990174
1.00513 0.995079 0.990251
1.00516 0.995676 0.989725
1.00518 0.997285 0.98821
1.00514 0.996178 0.989336
1.00518 0.997589 0.987938
1.00522 0.998969 0.986523
1.00518 0.998045 0.987494
1.00521 0.999235 0.986273
1.00496 0.999828 0.986099
1.00518 0.999416 0.986139
1.00489 0.999917 0.986134
1.00385 1.00013 0.987777
1.00481 1.00002 0.986061
1.00374 1.00023 0.987847
1.00128 1.00041 0.993142
1.00013 1.00001 0.995179
1.00127 1.00074 0.992266
1.0035 1.0007 0.987776
0.999958 1.00009 0.997838
1.00107 1.00112 0.991684
0.999949 0.999787 0.997949
1.00519 0.998486 0.987051
1.00511 0.999636 0.985985
1.00504 1.00047 0.985345
1.00452 1.00076 0.985935
1.00447 1.00145 0.985117
1.00345 1.00243 0.986214
1.00209 1.00278 0.98825
1.00196 1.00368 0.987628
1.00105 1.0034 0.98948
1.00022 1.00133 0.993081
1.00042 1.00325 0.990695
0.999842 1.00079 0.994144
0.999615 0.998956 0.998508
0.999779 1.00013 0.99487
0.999584 0.998383 0.998811
0.999616 0.998035 0.998945
1.00512 0.995202 0.990029
1.00451 0.994926 0.992344
1.00137 0.995076 0.988889
1.00513 0.997477 0.987864
1.00513 0.998581 0.986847
1.0044 1.00023 0.986361
1.00512 0.998704 0.986953
1.00512 0.99985 0.985827
1.00513 0.996032 0.98955
1.0051 0.997133 0.988074
1.00508 0.998139 0.987371
1.00511 0.995767 0.98944
1.00497 0.996554 0.988874
1.00433 0.995806 0.99157
1.00519 0.994995 0.990512
1.00514 0.994962 0.990461
1.00424 0.996702 0.992228
1.00513 0.994901 0.990478
1.00517 0.994931 0.99039
1.00518 0.994929 0.990463
1.00519 0.995171 0.990411
1.00512 0.99494 0.990407
1.00518 0.995246 0.990129
1.0052 0.997077 0.988413
1.00516 0.995693 0.989664
1.00519 0.99729 0.988217
1.00523 0.998729 0.986763
1.00518 0.997607 0.987941
1.00522 0.998965 0.986535
1.00502 0.999765 0.986077
1.0052 0.999228 0.986292
1.00496 0.999827 0.986111
1.00394 1.0001 0.987636
1.00489 0.999924 0.986147
1.00385 1.00012 0.987774
1.00139 1.00011 0.993273
1.00374 1.00024 0.987838
1.00143 1.00032 0.993088
1.00008 1 0.995345
0.999965 1.00024 0.996489
1.00142 1.00066 0.99282
0.999981 1.0002 0.997789
1.00517 0.997929 0.987664
1.0052 0.999209 0.986261
1.0052 0.998291 0.987193
1.00485 0.999998 0.986132
1.00513 0.999705 0.985904
1.00508 1.00035 0.98543
1.00454 1.00071 0.985928
1.00315 1.00136 0.987706
1.00347 1.00248 0.986196
1.0021 1.00274 0.988245
1.00064 1.00158 0.992038
1.00095 1.00345 0.989509
1.00006 1.00145 0.993113
0.999669 0.999657 0.998158
0.999772 1.00081 0.994161
0.999577 0.998849 0.998608
0.999573 0.998311 0.998859
1.00518 0.995228 0.990078
1.00515 0.9952 0.990013
1.00468 0.994886 0.992417
1.00516 0.996703 0.988829
1.00512 0.997525 0.987844
1.00513 0.998661 0.986714
1.00511 0.998812 0.986887
1.00514 0.996009 0.989426
1.00509 0.997152 0.987988
1.00511 0.995751 0.98945
1.00517 0.995327 0.990291
1.00518 0.994991 0.990489
1.00516 0.994963 0.990608
1.00518 0.99578 0.989685
1.00518 0.994929 0.990426
1.00519 0.995292 0.990229
1.0052 0.996791 0.988902
1.00517 0.995227 0.990085
1.00521 0.997058 0.988419
1.00523 0.998523 0.986981
1.00519 0.9973 0.988224
1.00523 0.998729 0.986766
1.00507 0.999657 0.986097
1.00522 0.998962 0.986548
1.00501 0.99976 0.986091
1.00403 1.0001 0.987482
1.00496 0.999827 0.986124
1.00395 1.00008 0.98764
1.00149 1.00003 0.99322
1.00386 1.0001 0.987771
1.00151 1.00006 0.993188
1.00012 0.999912 0.995394
1.00156 1.00022 0.993043
0.999838 1.00015 0.99549
0.999598 1.00051 0.998032
1.00517 0.997821 0.987657
1.00518 0.998805 0.986784
1.00518 0.997964 0.987541
1.00491 0.99975 0.986503
1.0052 0.999069 0.986355
1.00521 0.998102 0.987333
1.00371 1.00034 0.987739
1.00485 0.999952 0.986118
1.00515 0.999775 0.985822
1.00456 1.00065 0.985922
1.00319 1.00132 0.987699
1.00105 1.00122 0.991568
1.0021 1.00272 0.988241
1.00051 1.0017 0.992061
0.999753 1.00035 0.997855
0.999925 1.00155 0.993141
0.999599 0.999511 0.998298
0.99955 0.998721 0.998695
1.00517 0.995889 0.989525
1.00517 0.995198 0.990093
1.00514 0.995256 0.989997
1.00515 0.996615 0.988887
1.00512 0.997573 0.987824
1.00514 0.995992 0.989303
1.00516 0.996021 0.989667
1.00518 0.995293 0.990296
1.00517 0.994992 0.990466
1.00518 0.995795 0.989743
1.00516 0.99691 0.988722
1.00519 0.995409 0.990047
1.00521 0.996911 0.988667
1.00521 0.998194 0.987409
1.00522 0.997033 0.988424
1.00523 0.998511 0.986981
1.0051 0.999517 0.986193
1.00523 0.99872 0.98677
1.00507 0.999654 0.986107
1.00412 1.00005 0.987353
1.00501 0.999755 0.986105
1.00403 1.00009 0.987489
1.00155 1.00009 0.993031
1.00396 1.00006 0.987643
1.00159 0.999993 0.993114
1.00019 0.999897 0.995312
1.00162 1.00002 0.993112
0.999902 0.999965 0.995564
0.999609 1.00033 0.995618
1.00517 0.99714 0.988465
1.0052 0.998701 0.986804
1.00517 0.997654 0.987819
1.00498 0.999485 0.986583
1.00518 0.998876 0.986697
1.00518 0.997999 0.987419
1.00389 0.999961 0.987834
1.00492 0.999655 0.986403
1.00519 0.998928 0.986451
1.00128 1.00064 0.991702
1.00373 1.00032 0.987748
1.00485 0.999908 0.986105
1.00324 1.00129 0.987692
1.00099 1.00131 0.991573
0.999791 1.00068 0.997762
1.00037 1.00181 0.992092
0.999678 1.00019 0.997961
0.999545 0.999332 0.998426
1.00514 0.996186 0.989364
1.00517 0.995911 0.989519
1.00517 0.995161 0.990109
1.00515 0.996528 0.988945
1.00515 0.997073 0.988609
1.00516 0.995987 0.989698
1.00518 0.995242 0.990302
1.00519 0.99582 0.9898
1.00516 0.996832 0.988773
1.00518 0.998156 0.987551
1.00521 0.997032 0.988432
1.00521 0.998346 0.987229
1.00511 0.999236 0.986478
1.00523 0.998509 0.986982
1.00509 0.999515 0.986201
1.00419 0.999983 0.987294
1.00506 0.999655 0.986118
1.00412 1.00005 0.987358
1.00166 1.00015 0.991557
1.00404 1.00008 0.987496
1.00165 1.00006 0.992295
1.00014 0.999942 0.997781
1.0017 0.999969 0.993011
0.999992 0.999886 0.995494
0.999698 1.00002 0.995716
1.00515 0.99694 0.988749
1.0052 0.998402 0.987192
1.00517 0.997225 0.988415
1.00507 0.999271 0.98641
1.0052 0.998697 0.986836
1.00518 0.997484 0.987982
1.00399 0.999776 0.987569
1.00498 0.999487 0.986594
1.00518 0.998946 0.986611
1.00141 1.00015 0.991949
1.00389 0.999919 0.987731
1.00492 0.999553 0.986304
0.999833 1.00058 0.997817
1.00126 1.00066 0.991703
1.00375 1.0003 0.987758
1.00091 1.00137 0.991581
0.999782 1.00055 0.997777
0.999587 1.00004 0.998086
1.00514 0.997015 0.988655
1.00514 0.996212 0.98936
1.00516 0.995936 0.989514
1.00518 0.998155 0.98748
1.00514 0.996994 0.988675
1.00517 0.995962 0.989729
1.00516 0.996748 0.988825
1.00518 0.998139 0.987554
1.0051 0.999135 0.986783
1.0052 0.998499 0.98705
1.0051 0.99935 0.986461
1.00423 0.999819 0.987193
1.00509 0.999507 0.98621
1.00419 0.999977 0.987299
1.00171 1.00013 0.991483
1.00412 1.00005 0.987364
1.00167 1.00014 0.991553
1.00016 0.999976 0.997736
1.00168 1.00005 0.991645
1.00006 0.999934 0.996603
0.999797 0.999852 0.995673
1.00514 0.99727 0.988404
1.00519 0.99826 0.987292
1.00515 0.996924 0.988766
1.0051 0.999291 0.986382
1.0052 0.998452 0.987106
1.00516 0.997314 0.988366
1.00413 0.999679 0.987426
1.00507 0.999367 0.986445
1.0052 0.998693 0.986867
1.00154 0.999903 0.99196
1.004 0.999777 0.987549
1.00498 0.99949 0.986604
0.999945 1.00029 0.997861
1.00141 1.00013 0.991956
1.00389 0.999879 0.987627
0.999848 1.00053 0.997786
1.00125 1.00066 0.991702
0.99972 1.00049 0.997819
1.00518 0.998015 0.987647
1.00513 0.997062 0.988588
1.00514 0.996237 0.989355
1.00505 0.999009 0.986984
1.00518 0.998082 0.987569
1.00513 0.996922 0.988742
1.00518 0.998123 0.987556
1.0051 0.999137 0.986782
1.00421 0.999702 0.987338
1.00509 0.999465 0.986444
1.00422 0.999867 0.987245
1.00175 1.00006 0.991469
1.00419 0.999969 0.987304
1.0017 1.00013 0.991482
1.00018 1.00001 0.997681
1.00167 1.00014 0.991548
1.00017 0.999988 0.997711
1.00014 0.999888 0.995252
1.00519 0.998211 0.987366
1.00514 0.997119 0.988512
1.0051 0.9992 0.986511
1.00519 0.998267 0.987287
1.00515 0.996904 0.988783
1.00419 0.99971 0.987552
1.00509 0.999297 0.986376
1.0052 0.9985 0.987019
1.00167 0.999867 0.991779
1.00413 0.99973 0.987486
1.00507 0.999467 0.986481
1.0001 1.00005 0.997817
1.00155 0.999894 0.991967
1.004 0.999771 0.987529
0.999927 1.0003 0.997847
1.00142 1.00013 0.99196
0.999849 1.00051 0.997761
1.00503 0.998983 0.987048
1.00518 0.99807 0.98758
1.00513 0.997112 0.988522
1.00412 0.99963 0.987559
1.00505 0.999021 0.986985
1.00518 0.998005 0.987659
1.0051 0.999141 0.986781
1.00422 0.999695 0.987311
1.00175 1.00002 0.991527
1.00421 0.999913 0.987297
1.00174 1.00007 0.99147
1.00022 1.00001 0.997652
1.00171 1.00013 0.991482
1.00019 1.00001 0.997674
1.00018 0.999997 0.997691
1.00507 0.999121 0.986648
1.00519 0.998049 0.987534
1.00515 0.996967 0.98862
1.00416 0.999691 0.987628
1.00508 0.999206 0.986504
1.00519 0.998274 0.987282
1.00172 0.999946 0.991628
1.00418 0.999717 0.987546
1.00509 0.999302 0.986371
1.00021 0.999945 0.997731
1.00167 0.999882 0.991784
1.00413 0.999773 0.987546
1.00005 1.00009 0.997839
1.00154 0.999901 0.991975
0.999931 1.0003 0.997825
1.00408 0.999687 0.987789
1.00503 0.998946 0.986984
1.00518 0.998122 0.987514
1.00169 0.99997 0.991682
1.00414 0.999612 0.987532
1.00506 0.999031 0.986987
1.00424 0.999682 0.987284
1.00174 1.00001 0.991536
1.00024 1.00001 0.997627
1.00173 1.00008 0.991471
1.00022 1.00002 0.997638
1.00019 1.00002 0.997666
1.00411 0.999672 0.987738
1.00506 0.999028 0.986732
1.00519 0.997891 0.987702
1.00179 1.00001 0.992807
1.00416 0.999687 0.987626
1.00507 0.999211 0.986497
1.00022 0.99995 0.997672
1.00172 0.999965 0.991629
1.00418 0.999724 0.98754
1.00017 0.999977 0.997764
1.00166 0.999908 0.991789
1.00003 1.0001 0.997853
1.0017 0.999971 0.991699
1.00409 0.999641 0.987711
1.00503 0.998908 0.986919
1.00019 0.999999 0.997658
1.00168 0.99997 0.991686
1.00416 0.999598 0.987504
1.00173 1 0.991541
1.00022 1.00001 0.997633
1.00023 1.00002 0.99763
1.0018 0.999986 0.992828
1.00412 0.999667 0.987738
1.00504 0.998932 0.986816
0.999895 0.999988 0.997986
1.00171 1.00001 0.991615
1.00417 0.999682 0.987624
1.00022 0.999962 0.997698
1.00172 0.999986 0.99163
1.00014 0.999997 0.997796
1.00015 0.999996 0.995205
1.00172 0.999969 0.992308
1.00409 0.999598 0.987634
1.00019 0.999998 0.997666
1.00168 0.999969 0.991695
1.00023 1 0.997636
0.999829 1 0.995514
1.00174 0.999985 0.992262
1.00412 0.999665 0.987738
1.00004 0.999987 0.996567
1.00171 1.00001 0.991622
1.00021 0.999974 0.997724
1.00016 0.999993 0.997682
1.00164 0.999969 0.991767
1.00016 0.999996 0.997674
0.999998 0.999993 0.996605
1.00168 0.999987 0.991712
1.00021 0.999976 0.997684
1.00016 0.999989 0.997693
1.00017 0.999985 0.997686

TENSORS stress float
0.00165105 -8.27824e-05 0.000163134
-8.27824e-05 0.000617751 -2.1074e-05
0.000163134 -2.1074e-05 0.000596921
0.00515793 -0.00012462 0.000153317
-0.00012462 0.00269227 1.57409e-05
0.000153317 1.57409e-05 0.00266877
0.00147526 -1.07407e-05 7.77044e-05
-1.07407e-05 0.000524713 -7.90001e-06
7.77044e-05 -7.90001e-06 0.000494353
0.00178313 -5.05932e-05 0.000163366
-5.05932e-05 0.000671619 -1.36236e-05
0.000163366 -1.36236e-05 0.000653349
0.00171237 -7.46454e-05 0.000159468
-7.46454e-05 0.000646094 -1.91602e-05
0.000159468 -1.91602e-05 0.000626355
0.00158107 -7.81221e-05 0.00016734
-7.81221e-05 0.000573136 -2.06213e-05
0.00016734 -2.06213e-05 0.000553798
0.00144882 -5.3007e-05 2.30583e-05
-5.3007e-05 0.000431159 -8.57769e-06
2.30583e-05 -8.57769e-06 0.000353578
0.00500419 -0.000123866 2.27893e-06
-0.000123866 0.00258985 -4.38959e-07
2.27893e-06 -4.38959e-07 0.00257418
0.00521042 2.03458e-05 6.41444e-05
2.03458e-05 0.00267199 3.3168e-06
6.41444e-05 3.3168e-06 0.00265931
0.00498766 -0.000256113 2.46112e-06
-0.000256113 0.00260321 4.08723e-06
2.46112e-06 4.08723e-06 0.00255973
0.00166282 5.28287e-05 0.000154754
5.28287e-05 0.000623256 1.36376e-05
0.000154754 1.36376e-05 0.000612825
0.000689797 0.000161502 2.03537e-05
0.000161502 5.99948e-06 1.28944e-05
2.03537e-05 1.28944e-05 -7.76046e-05
0.0016319 -3.0068e-05 0.000175976
-3.0068e-05 0.000577734 2.11127e-06
0.000175976 2.11127e-06 0.000566168
0.00127032 -1.83155e-05 2.63636e-05
-1.83155e-05 0.000387916 1.10886e-06
2.63636e-05 1.10886e-06 0.000352369
0.00136978 4.23383e-06 -2.30097e-05
4.23383e-06 0.000463309 4.60301e-06
-2.30097e-05 4.60301e-06 0.000429437
0.00151879 -5.26038e-05 5.98411e-05
-5.26038e-05 0.000529406 -3.40869e-06
5.98411e-05 -3.40869e-06 0.000502851
0.00147773 8.47326e-06 8.47039e-05
8.47326e-06 0.000532482 -7.3219e-06
8.47039e-05 -7.3219e-06 0.000497268
0.00148887 -2.95982e-05 6.90749e-05
-2.95982e-05 0.000520454 -7.35358e-06
6.90749e-05 -7.35358e-06 0.000494973
0.00151107 -9.65909e-05 -2.91827e-05
-9.65909e-05 0.000455928 2.64225e-06
-2.91827e-05 2.64225e-06 0.000387206
0.00530672 -0.000105899 0.000201844
-0.000105899 0.00273428 -5.35751e-06
0.000201844 -5.35751e-06 0.00273471
0.00176983 -3.41985e-05 0.0001668
-3.41985e-05 0.000660449 -1.02568e-05
0.0001668 -1.02568e-05 0.000642566
0.00177412 -6.46934e-05 0.000160711
-6.46934e-05 0.000672549 -1.66118e-05
0.000160711 -1.66118e-05 0.000654006
0.00147681 -9.14069e-05 4.30354e-05
-9.14069e-05 0.00041462 -6.4957e-06
4.30354e-05 -6.4957e-06 0.000345147
0.00146068 -7.03621e-05 3.18041e-05
-7.03621e-05 0.000418467 -7.68003e-06
3.18041e-05 -7.68003e-06 0.000348409
0.00138276 -4.75754e-05 0.000152111
-4.75754e-05 0.000454207 -1.70274e-05
0.000152111 -1.70274e-05 0.000438341
0.00142289 -3.65816e-05 1.61065e-05
-3.65816e-05 0.000435637 -9.58579e-06
1.61065e-05 -9.58579e-06 0.000348605
0.00200945 -0.0002028 1.26597e-05
-0.0002028 0.000612173 -5.16313e-06
1.26597e-05 -5.16313e-06 0.000481617
0.00484704 -0.000163415 -0.000132266
-0.000163415 0.00250444 -8.95081e-06
-0.000132266 -8.95081e-06 0.00248464
0.00335546 4.36819e-05 -9.42419e-05
4.36819e-05 0.0016011 -6.67172e-06
-9.42419e-05 -6.67172e-06 0.00158288
0.00324012 -7.21085e-05 -8.79291e-05
-7.21085e-05 0.00156343 -3.06429e-06
-8.79291e-05 -3.06429e-06 0.00153489
0.00457416 -0.000156979 9.6439e-06
-0.000156979 0.00234613 -9.41766e-07
9.6439e-06 -9.41766e-07 0.00232846
0.000618727 0.000150061 -1.7815e-06
0.000150061 -3.44823e-05 -5.31359e-07
-1.7815e-06 -5.31359e-07 -0.000115289
0.00155047 5.04839e-05 0.000166858
5.04839e-05 0.000541543 1.21915e-05
0.000166858 1.21915e-05 0.000524034
0.0017238 0.000114583 0.000168747
0.000114583 0.00065981 1.77203e-05
0.000168747 1.77203e-05 0.000639582
0.00256021 0.000160111 0.00010303
0.000160111 0.00104787 1.25539e-05
0.00010303 1.25539e-05 0.000987416
0.00360563 -0.00021295 7.59124e-06
-0.00021295 0.00179362 2.92822e-06
7.59124e-06 2.92822e-06 0.00176493
0.00260729 0.000187163 0.00010121
0.000187163 0.00110116 1.3959e-05
0.00010121 1.3959e-05 0.00103672
0.000674298 0.000115957 2.14579e-05
0.000115957 5.14322e-06 1.59905e-05
2.14579e-05 1.59905e-05 -6.75006e-05
0.000929283 0.000164371 9.00757e-06
0.000164371 6.67377e-05 4.53208e-06
9.00757e-06 4.53208e-06 -8.11558e-05
0.00293062 -0.000103302 8.22861e-05
-0.000103302 0.00137532 2.98966e-06
8.22861e-05 2.98966e-06 0.00137851
0.0053675 5.8259e-05 3.83902e-06
5.8259e-05 0.00275893 -1.15515e-06
3.83902e-06 -1.15515e-06 0.0027647
0.00335615 4.55358e-05 -7.73424e-05
4.55358e-05 0.00159364 -2.63387e-06
-7.73424e-05 -2.63387e-06 0.00157837
0.00529286 5.71604e-05 0.000199521
5.71604e-05 0.00271821 1.8502e-06
0.000199521 1.8502e-06 0.00272362
0.00129973 5.12448e-05 2.93073e-05
5.12448e-05 0.000402933 1.64519e-06
2.93073e-05 1.64519e-06 0.000370276
0.000701243 6.03181e-06 1.61323e-05
6.03181e-06 -6.4088e-05 1.62904e-06
1.61323e-05 1.62904e-06 -0.000133088
0.0051322 0.000172763 9.58734e-05
0.000172763 0.00264484 7.99314e-06
9.58734e-05 7.99314e-06 0.00262405
0.00264311 4.7698e-05 0.000102415
4.7698e-05 0.0010629 5.85385e-06
0.000102415 5.85385e-06 0.00101293
0.00119048 -7.43629e-05 -4.03902e-05
-7.43629e-05 0.000354415 5.19703e-06
-4.03902e-05 5.19703e-06 0.000316767
0.00127508 -4.47307e-05 -3.4591e-05
-4.47307e-05 0.000404196 5.09566e-06
-3.4591e-05 5.09566e-06 0.000371581
0.0014541 6.32028e-05 -1.10216e-05
6.32028e-05 0.000524105 5.41149e-06
-1.10216e-05 5.41149e-06 0.00048168
0.00152852 -0.000110751 -8.82605e-05
-0.000110751 0.000458808 1.30893e-05
-8.82605e-05 1.30893e-05 0.000396041
0.00336287 1.60256e-05 -8.24116e-05
1.60256e-05 0.00160442 -1.49194e-06
-8.24116e-05 -1.49194e-06 0.00158625
0.0015202 -3.90823e-05 6.71681e-05
-3.90823e-05 0.000525802 -2.8316e-06
6.71681e-05 -2.8316e-06 0.000499925
0.00136162 2.64431e-05 8.1234e-05
2.64431e-05 0.000466502 -5.43799e-06
8.1234e-05 -5.43799e-06 0.000433131
0.00151248 -4.31906e-05 6.31008e-05
-4.31906e-05 0.000526114 -5.55387e-06
6.31008e-05 -5.55387e-06 0.000501812
0.00152595 -7.96375e-05 -2.34328e-05
-7.96375e-05 0.000437652 8.80219e-07
-2.34328e-05 8.80219e-07 0.000373641
0.00150114 -8.47112e-05 -3.39603e-05
-8.47112e-05 0.000464766 2.39533e-06
-3.39603e-05 2.39533e-06 0.000389723
0.00151759 -9.77625e-05 -2.45332e-05
-9.77625e-05 0.000447719 1.91856e-06
-2.45332e-05 1.91856e-06 0.000382496
0.00200296 -0.000200879 -6.08683e-06
-0.000200879 0.000607075 1.66704e-06
-6.08683e-06 1.66704e-06 0.000476851
0.0052462 4.8668e-05 0.000192367
4.8668e-05 0.00269217 -8.02865e-08
0.000192367 -8.02865e-08 0.00269776
0.00175851 -1.72662e-05 0.000168386
-1.72662e-05 0.000654744 -6.94711e-06
0.000168386 -6.94711e-06 0.00063797
0.00237947 3.09132e-05 2.7826e-05
3.09132e-05 0.000926702 -9.72379e-07
2.7826e-05 -9.72379e-07 0.000868716
0.0014846 -7.42733e-05 3.68593e-05
-7.42733e-05 0.000410833 -4.55872e-06
3.68593e-05 -4.55872e-06 0.000343321
0.0014761 -8.29696e-05 3.88029e-05
-8.29696e-05 0.000416694 -7.04288e-06
3.88029e-05 -7.04288e-06 0.000348776
0.00194324 -0.000123831 1.09795e-05
-0.000123831 0.000525429 -2.61434e-06
1.09795e-05 -2.61434e-06 0.000410125
0.00160227 -0.000160167 1.44743e-05
-0.000160167 0.000355071 -4.99817e-06
1.44743e-05 -4.99817e-06 0.000230043
0.00110525 2.95973e-06 0.000112422
2.95973e-06 0.000298293 -1.2203e-05
0.000112422 -1.2203e-05 0.000285028
0.00109296 6.3797e-06 9.08212e-06
6.3797e-06 0.000274995 -9.48434e-06
9.08212e-06 -9.48434e-06 0.000192727
0.00197819 -0.000218236 1.18146e-05
-0.000218236 0.000620481 -5.35718e-06
1.18146e-05 -5.35718e-06 0.000480327
0.00121579 -0.000184533 7.87732e-06
-0.000184533 6.36738e-05 -2.10506e-06
7.87732e-06 -2.10506e-06 -9.56527e-05
0.00541894 0.000100519 -0.000201477
0.000100519 0.00279166 -1.4781e-05
-0.000201477 -1.4781e-05 0.00279328
0.00426482 -0.000174791 -0.000108605
-0.000174791 0.00216941 -6.14671e-06
-0.000108605 -6.14671e-06 0.00215092
0.00515668 -8.93597e-05 -0.000162131
-8.93597e-05 0.0026637 -1.0284e-05
-0.000162131 -1.0284e-05 0.00265581
0.000527318 0.000148398 -2.06887e-05
0.000148398 -8.54538e-05 -1.31938e-05
-2.06887e-05 -1.31938e-05 -0.000164752
0.00545916 0.000133972 -2.88371e-06
0.000133972 0.00281315 -1.66098e-06
-2.88371e-06 -1.66098e-06 0.00281375
0.00543887 2.75387e-05 -8.49041e-06
2.75387e-05 0.00281156 -6.53746e-07
-8.49041e-06 -6.53746e-07 0.00280955
0.000560522 0.000115321 -3.08099e-07
0.000115321 -0.000110558 -2.20054e-07
-3.08099e-07 -2.20054e-07 -0.000189528
0.00239764 -0.000113891 -4.79973e-05
-0.000113891 0.00107631 -7.04215e-07
-4.79973e-05 -7.04215e-07 0.0010562
0.000558503 0.000163083 -8.89272e-07
0.000163083 -8.18663e-05 -2.71628e-07
-8.89272e-07 -2.71628e-07 -0.000164966
0.00141032 9.13548e-05 3.15336e-05
9.13548e-05 0.000443578 4.94703e-07
3.15336e-05 4.94703e-07 0.000380372
0.000903275 0.000159153 4.27446e-07
0.000159153 4.91589e-05 -4.45496e-07
4.27446e-07 -4.45496e-07 -9.77365e-05
0.00342024 -0.000105731 0.000106392
-0.000105731 0.00165946 4.68057e-06
0.000106392 4.68057e-06 0.00166071
0.00060897 -5.33856e-05 1.31049e-06
-5.33856e-05 1.77448e-05 7.11834e-06
1.31049e-06 7.11834e-06 -1.97369e-05
0.000676798 8.4859e-05 1.71463e-05
8.4859e-05 -6.31525e-05 8.10969e-06
1.71463e-05 8.10969e-06 -0.000138413
0.000706716 0.000136733 2.17829e-05
0.000136733 -1.39567e-05 1.3545e-05
2.17829e-05 1.3545e-05 -9.72029e-05
0.00100318 0.000133965 1.27633e-05
0.000133965 -5.74605e-06 5.01166e-06
1.27633e-05 5.01166e-06 -0.000139501
0.00216884 2.48816e-05 6.53239e-05
2.48816e-05 0.000899345 8.32553e-06
6.53239e-05 8.32553e-06 0.000855026
0.000957736 0.000160707 1.06141e-05
0.000160707 3.11626e-05 5.48341e-06
1.06141e-05 5.48341e-06 -0.000110798
0.000949043 0.000161689 7.75627e-06
0.000161689 0.000146861 5.25564e-06
7.75627e-06 5.25564e-06 -1.47305e-06
0.0009191 0.000194131 3.93803e-06
0.000194131 8.18518e-08 3.88863e-07
3.93803e-06 3.88863e-07 -0.000181743
0.00259102 -0.000113763 4.46333e-05
-0.000113763 0.00117659 2.37965e-06
4.46333e-05 2.37965e-06 0.0011773
0.00279583 -0.000126288 8.19568e-06
-0.000126288 0.00130152 -4.37013e-07
8.19568e-06 -4.37013e-07 0.00129876
0.00544171 9.58732e-06 -0.000196059
9.58732e-06 0.00279798 -7.8419e-06
-0.000196059 -7.8419e-06 0.00280231
0.00540344 4.95059e-05 -0.000203356
4.95059e-05 0.00277782 -4.36781e-06
-0.000203356 -4.36781e-06 0.00278422
0.00534715 7.95606e-05 -1.42459e-07
7.95606e-05 0.00275577 -2.10598e-06
-1.42459e-07 -2.10598e-06 0.00275702
0.00334481 5.12817e-06 -9.21005e-05
5.12817e-06 0.00158529 -3.07375e-06
-9.21005e-05 -3.07375e-06 0.00157256
0.00165477 2.73865e-05 4.36412e-05
2.73865e-05 0.000490185 7.24148e-07
4.36412e-05 7.24148e-07 0.000431641
0.00340388 9.00892e-05 -7.83873e-05
9.00892e-05 0.00162347 -3.76261e-06
-7.83873e-05 -3.76261e-06 0.00160588
0.00168148 6.5725e-05 4.23728e-05
6.5725e-05 0.000509601 1.44059e-06
4.23728e-05 1.44059e-06 0.00044754
0.00532004 0.00014183 0.000202587
0.00014183 0.00275031 4.61203e-06
0.000202587 4.61203e-06 0.00274525
0.000632222 7.34334e-06 1.7791e-05
7.34334e-06 -0.000101166 4.05589e-07
1.7791e-05 4.05589e-07 -0.000168836
0.00266568 1.69306e-05 0.000103169
1.69306e-05 0.00107418 3.82035e-06
0.000103169 3.82035e-06 0.00102611
0.00104813 3.11684e-05 1.21433e-05
3.11684e-05 -1.62994e-05 1.14391e-06
1.21433e-05 1.14391e-06 -0.00013271
0.00255968 8.98635e-05 0.000103206
8.98635e-05 0.00102359 7.30911e-06
0.000103206 7.30911e-06 0.000970818
0.00105951 7.38037e-05 1.18712e-05
7.38037e-05 -2.36087e-06 2.43341e-06
1.18712e-05 2.43341e-06 -0.000125456
0.00164002 3.66757e-05 -0.000173816
3.66757e-05 0.000585175 1.32373e-06
-0.000173816 1.32373e-06 0.00057381
0.00125272 7.16695e-06 -2.68452e-05
7.16695e-06 0.000380621 1.60153e-06
-2.68452e-05 1.60153e-06 0.000346391
0.00134848 0.000124936 1.81217e-06
0.000124936 0.00049049 7.30225e-06
1.81217e-06 7.30225e-06 0.000434698
0.00121423 -6.38272e-05 -4.13668e-05
-6.38272e-05 0.000366865 5.45534e-06
-4.13668e-05 5.45534e-06 0.000332574
0.00163732 -5.91539e-05 -8.81615e-05
-5.91539e-05 0.000494849 7.23361e-06
-8.81615e-05 7.23361e-06 0.000437472
0.00157627 -9.5206e-05 -8.69067e-05
-9.5206e-05 0.000475987 1.16322e-05
-8.69067e-05 1.16322e-05 0.000416188
0.00151664 -0.000115639 -9.00668e-05
-0.000115639 0.000463906 1.35831e-05
-9.00668e-05 1.35831e-05 0.000396734
0.00199536 -0.000199171 -2.38464e-05
-0.000199171 0.000601992 8.00046e-06
-2.38464e-05 8.00046e-06 0.000472077
0.00531646 -8.23815e-05 2.05386e-06
-8.23815e-05 0.00273893 -1.30752e-06
2.05386e-06 -1.30752e-06 0.00273985
0.00148993 4.43424e-05 7.60804e-05
4.43424e-05 0.000507619 -2.34302e-06
7.60804e-05 -2.34302e-06 0.000483235
0.00112778 1.21188e-06 -4.61394e-05
1.21188e-06 0.000190353 7.77482e-07
-4.61394e-05 7.77482e-07 0.000130613
0.0015478 -4.42061e-05 -2.77232e-05
-4.42061e-05 0.000442754 1.26057e-06
-2.77232e-05 1.26057e-06 0.000380307
0.00265702 5.69955e-05 0.000115862
5.69955e-05 0.0012182 -1.69896e-06
0.000115862 -1.69896e-06 0.00120734
0.00178683 -4.83012e-05 -2.95708e-05
-4.83012e-05 0.000661985 -5.58005e-07
-2.95708e-05 -5.58005e-07 0.000587618
0.0015288 -9.05149e-05 -2.2649e-05
-9.05149e-05 0.000444779 1.33082e-06
-2.2649e-05 1.33082e-06 0.000380967
0.00179671 -0.000115967 -8.0374e-06
-0.000115967 0.000439297 1.38909e-06
-8.0374e-06 1.38909e-06 0.000323193
0.00197771 -0.00021842 -5.01114e-06
-0.00021842 0.000621565 1.50138e-06
-5.01114e-06 1.50138e-06 0.000481184
0.00182234 -0.000169114 -3.45909e-06
-0.000169114 0.000482149 8.02349e-07
-3.45909e-06 8.02349e-07 0.000357718
0.00124173 -0.000185946 3.0213e-07
-0.000185946 7.73993e-05 -5.5918e-08
3.0213e-07 -5.5918e-08 -8.18557e-05
0.00066484 1.1601e-05 1.81593e-05
1.1601e-05 -8.29581e-05 -1.22738e-06
1.81593e-05 -1.22738e-06 -0.000147994
0.00146137 1.70144e-05 2.82694e-05
1.70144e-05 0.000393021 -2.44564e-06
2.82694e-05 -2.44564e-06 0.00032868
0.00161366 -2.76639e-05 1.25043e-05
-2.76639e-05 0.000316857 -1.0706e-06
1.25043e-05 -1.0706e-06 0.00020916
0.0016226 -9.09456e-05 1.23015e-05
-9.09456e-05 0.000331772 -2.20618e-06
1.23015e-05 -2.20618e-06 0.000216797
0.00157373 -0.000134929 1.35688e-05
-0.000134929 0.000321848 -3.84187e-06
1.35688e-05 -3.84187e-06 0.000201525
0.00172492 -0.000138173 2.6747e-06
-0.000138173 0.000288965 -7.19201e-07
2.6747e-06 -7.19201e-07 0.000150342
0.00377251 0.00014616 9.89657e-05
0.00014616 0.00187364 -3.71573e-06
9.89657e-05 -3.71573e-06 0.0018641
0.0012795 -0.000169536 6.75677e-06
-0.000169536 7.68957e-05 -1.88086e-06
6.75677e-06 -1.88086e-06 -7.53787e-05
0.000404465 -4.25939e-05 9.82344e-06
-4.25939e-05 -0.000126165 -1.11809e-05
9.82344e-06 -1.11809e-05 -0.000186475
0.000797187 -0.000154247 7.52021e-06
-0.000154247 1.40851e-06 -6.37e-06
7.52021e-06 -6.37e-06 -0.000144169
0.00129139 -0.00021061 8.93658e-06
-0.00021061 0.000134305 -2.01466e-06
8.93658e-06 -2.01466e-06 -3.67659e-05
0.00144125 -0.000222471 4.45111e-06
-0.000222471 0.00011803 4.39971e-07
4.45111e-06 4.39971e-07 -5.4526e-05
0.000461233 6.58199e-06 5.14847e-06
6.58199e-06 -8.01451e-05 -9.1654e-06
5.14847e-06 -9.1654e-06 -0.000127496
0.000654315 -1.47986e-05 1.22292e-06
-1.47986e-05 2.77998e-05 -4.18747e-06
1.22292e-06 -4.18747e-06 -7.05376e-05
0.00546263 0.000145869 -0.000212873
0.000145869 0.00281829 -1.56412e-05
-0.000212873 -1.56412e-05 0.0028176
0.0053024 9.72312e-06 -0.000182816
9.72312e-06 0.00273149 -1.23909e-05
-0.000182816 -1.23909e-05 0.00273228
0.000554217 0.000107238 -1.74511e-05
0.000107238 -0.000115419 -9.42091e-06
-1.74511e-05 -9.42091e-06 -0.000194253
0.00365837 -0.000149756 -9.36276e-05
-0.000149756 0.00180889 -3.52262e-06
-9.36276e-05 -3.52262e-06 0.00179949
0.00044535 7.7669e-05 -1.29521e-05
7.7669e-05 -0.000114826 -1.21771e-05
-1.29521e-05 -1.21771e-05 -0.000179825
0.000512025 0.000149047 -1.9574e-05
0.000149047 -0.00010422 -1.23993e-05
-1.9574e-05 -1.23993e-05 -0.000188715
0.000891828 0.000156018 -9.4773e-06
0.000156018 4.00201e-05 -5.69745e-06
-9.4773e-06 -5.69745e-06 -0.000106169
0.00325874 -0.000122667 5.98442e-06
-0.000122667 0.00157065 -3.14015e-07
5.98442e-06 -3.14015e-07 0.00156853
0.000538452 -6.17244e-05 2.75604e-07
-6.17244e-05 -2.05054e-05 3.51158e-07
2.75604e-07 3.51158e-07 -5.85074e-05
0.00163132 0.00010819 4.20086e-05
0.00010819 0.000493426 2.40913e-06
4.20086e-05 2.40913e-06 0.000426882
0.00156189 0.000152552 4.00512e-05
0.000152552 0.000484939 2.06853e-06
4.00512e-05 2.06853e-06 0.000411344
0.00101666 0.000136727 1.70804e-07
0.000136727 3.35241e-06 -1.43451e-07
1.70804e-07 -1.43451e-07 -0.000131134
0.000621148 2.434e-05 -6.24655e-07
2.434e-05 2.90169e-06 1.35742e-07
-6.24655e-07 1.35742e-07 -5.01812e-05
0.000956318 0.000160682 4.73993e-07
0.000160682 3.07025e-05 2.57413e-07
4.73993e-07 2.57413e-07 -0.000111251
0.000853536 0.000147493 3.47677e-07
0.000147493 8.98155e-05 -6.12112e-07
3.47677e-07 -6.12112e-07 -5.60106e-05
0.001013 0.000202403 -1.34383e-07
0.000202403 5.20273e-05 2.52545e-07
-1.34383e-07 2.52545e-07 -0.000130952
0.000643843 -1.07097e-05 6.75603e-06
-1.07097e-05 2.88647e-05 8.39175e-06
6.75603e-06 8.39175e-06 -1.55984e-05
0.000602967 -6.76721e-05 -1.16491e-06
-6.76721e-05 1.07145e-05 5.91877e-06
-1.16491e-06 5.91877e-06 -2.0365e-05
0.00071252 3.36696e-05 2.81201e-06
3.36696e-05 7.20786e-05 4.035e-06
2.81201e-06 4.035e-06 -2.08268e-05
0.0010373 0.000113904 1.24602e-05
0.000113904 -1.06626e-06 4.07125e-06
1.24602e-05 4.07125e-06 -0.000131068
0.000983872 0.000151671 1.21901e-05
0.000151671 1.09929e-05 5.49203e-06
1.21901e-05 5.49203e-06 -0.000127051
0.00133621 0.00018149 6.64384e-06
0.00018149 9.17927e-05 1.73546e-06
6.64384e-06 1.73546e-06 -6.96732e-05
0.000919783 0.000137731 6.03517e-06
0.000137731 0.000172573 5.63368e-06
6.03517e-06 5.63368e-06 3.82082e-05
0.000901345 0.000184289 4.63696e-06
0.000184289 -7.73047e-05 1.94986e-06
4.63696e-06 1.94986e-06 -0.000246728
0.000898979 0.000191618 3.74814e-06
0.000191618 7.3129e-05 9.23299e-07
3.74814e-06 9.23299e-07 -0.000120048
0.00143072 0.000250539 3.06261e-07
0.000250539 0.000239214 -1.52672e-07
3.06261e-07 -1.52672e-07 4.7585e-05
0.00241282 -0.000101975 3.39113e-05
-0.000101975 0.0010662 2.86639e-06
3.39113e-05 2.86639e-06 0.00106983
0.00249983 -0.000114012 3.42503e-06
-0.000114012 0.00112432 -3.34402e-07
3.42503e-06 -3.34402e-07 0.00112461
0.0026521 -0.000128548 -4.14079e-05
-0.000128548 0.00122006 -2.40633e-06
-4.14079e-05 -2.40633e-06 0.0012162
0.000471768 1.98001e-05 3.69468e-06
1.98001e-05 -7.12522e-05 -7.86345e-06
3.69468e-06 -7.86345e-06 -0.000113069
0.00347587 0.00013296 8.54018e-05
0.00013296 0.00169646 -3.30051e-06
8.54018e-05 -3.30051e-06 0.00169066
0.00546955 0.000153544 -0.000215899
0.000153544 0.00282435 -1.43826e-05
-0.000215899 -1.43826e-05 0.00282261
0.00538776 4.65748e-05 -0.000199109
4.65748e-05 0.00276701 -6.21455e-06
-0.000199109 -6.21455e-06 0.00277318
0.000657289 7.60588e-05 -1.86059e-05
7.60588e-05 -8.27586e-05 -4.3945e-06
-1.86059e-05 -4.3945e-06 -0.000154529
0.000641186 3.34309e-05 -1.84992e-05
3.34309e-05 -9.40588e-05 -2.07474e-06
-1.84992e-05 -2.07474e-06 -0.000163961
0.00529863 -2.56987e-05 -0.000194306
-2.56987e-05 0.00271919 -9.42532e-07
-0.000194306 -9.42532e-07 0.00272601
0.00527908 1.74983e-05 -6.53011e-07
1.74983e-05 0.00270905 -6.65524e-08
-6.53011e-07 -6.65524e-08 0.0027154
0.00062042 -2.47062e-07 -1.25825e-07
-2.47062e-07 -0.0001093 -1.24528e-07
-1.25825e-07 -1.24528e-07 -0.000175935
0.00164177 2.64809e-05 4.33867e-05
2.64809e-05 0.000482569 1.26711e-06
4.33867e-05 1.26711e-06 0.000423686
0.00105345 3.52961e-05 8.34081e-08
3.52961e-05 -1.31935e-05 -1.24975e-07
8.34081e-08 -1.24975e-07 -0.000129838
0.000631453 6.64786e-05 -3.56595e-07
6.64786e-05 -9.30782e-05 -2.32406e-07
-3.56595e-07 -2.32406e-07 -0.000166361
0.00105253 7.6295e-05 -3.84415e-08
7.6295e-05 -6.00331e-06 -1.7101e-07
-3.84415e-08 -1.7101e-07 -0.000129554
0.000610829 -2.29472e-05 1.81437e-05
-2.29472e-05 -0.000116002 -6.78499e-07
1.81437e-05 -6.78499e-07 -0.000180913
0.00104894 1.37561e-05 1.19658e-05
1.37561e-05 -1.63672e-05 4.56834e-07
1.19658e-05 4.56834e-07 -0.000130852
0.00104579 5.297e-05 1.2046e-05
5.297e-05 -1.50173e-05 1.76473e-06
1.2046e-05 1.76473e-06 -0.000134555
0.00141983 4.99638e-05 3.55801e-06
4.99638e-05 6.58757e-05 1.7838e-07
3.55801e-06 1.7838e-07 -6.19141e-05
0.00105403 9.30514e-05 1.20007e-05
9.30514e-05 8.8565e-08 3.20184e-06
1.20007e-05 3.20184e-06 -0.000126364
0.00141807 0.0001028 3.64707e-06
0.0001028 8.19592e-05 4.47625e-07
3.64707e-06 4.47625e-07 -5.70433e-05
0.00527425 -4.43433e-05 -0.00020108
-4.43433e-05 0.00270877 5.58326e-09
-0.00020108 5.58326e-09 0.00271358
0.00125851 -0.000112257 -2.86549e-05
-0.000112257 0.000389175 3.01961e-06
-2.86549e-05 3.01961e-06 0.000352812
-0.000221875 -1.06993e-06 -1.32482e-05
-1.06993e-06 -0.000591506 2.10667e-06
-1.32482e-05 2.10667e-06 -0.000667657
0.00162837 -4.05617e-05 -8.92354e-05
-4.05617e-05 0.000485036 5.3036e-06
-8.92354e-05 5.3036e-06 0.000427704
0.00403754 0.000260438 -3.20106e-06
0.000260438 0.0020655 3.86551e-06
-3.20106e-06 3.86551e-06 0.00202196
0.00248154 -0.000138086 -8.61754e-05
-0.000138086 0.00104428 1.3068e-05
-8.61754e-05 1.3068e-05 0.000980964
0.00161958 -7.80363e-05 -8.72651e-05
-7.80363e-05 0.000490927 9.46498e-06
-8.72651e-05 9.46498e-06 0.000433083
0.00162324 -0.00010736 -2.50305e-05
-0.00010736 0.000337357 4.81697e-06
-2.50305e-05 4.81697e-06 0.000220633
0.00202934 -0.000177446 -2.25224e-05
-0.000177446 0.000601876 6.7911e-06
-2.25224e-05 6.7911e-06 0.000478207
0.00202445 -0.00022155 -2.16217e-05
-0.00022155 0.000650196 7.98657e-06
-2.16217e-05 7.98657e-06 0.000509175
0.00128163 -0.000188334 -6.76295e-06
-0.000188334 9.90098e-05 1.83669e-06
-6.76295e-06 1.83669e-06 -6.03022e-05
0.000615049 8.2977e-06 -2.84405e-08
8.2977e-06 -0.000110232 -4.22026e-08
-2.84405e-08 -4.22026e-08 -0.000176023
0.00156479 -5.59615e-05 -2.76725e-05
-5.59615e-05 0.000451052 3.08474e-07
-2.76725e-05 3.08474e-07 0.000389854
0.00118038 -2.36738e-05 -6.05948e-06
-2.36738e-05 6.63563e-05 2.85858e-07
-6.05948e-06 2.85858e-07 -4.54067e-05
0.00182333 -9.31927e-05 -4.42334e-06
-9.31927e-05 0.000445825 6.45606e-07
-4.42334e-06 6.45606e-07 0.000332387
0.00385567 0.000137637 -3.84174e-06
0.000137637 0.00192047 -5.70355e-07
-3.84174e-06 -5.70355e-07 0.00191237
0.00139381 -4.46617e-05 -2.03932e-07
-4.46617e-05 0.000449875 4.60885e-07
-2.03932e-07 4.60885e-07 0.000382792
0.00131304 -0.000182785 5.8638e-07
-0.000182785 0.000304246 -1.33271e-06
5.8638e-07 -1.33271e-06 0.000158609
0.0016003 -0.000134485 -4.75966e-06
-0.000134485 0.000336853 1.01324e-06
-4.75966e-06 1.01324e-06 0.000216559
0.0015014 -0.000131101 -2.5577e-06
-0.000131101 0.000158036 5.63432e-07
-2.5577e-06 5.63432e-07 1.90919e-05
0.00118707 -0.000203582 1.9752e-07
-0.000203582 7.25804e-05 1.56394e-08
1.9752e-07 1.56394e-08 -9.90285e-05
0.00151127 -0.000179519 2.82555e-07
-0.000179519 0.000209127 -1.76995e-07
2.82555e-07 -1.76995e-07 5.77244e-05
0.00144539 -0.000221751 5.34957e-07
-0.000221751 0.000123518 -1.48165e-08
5.34957e-07 -1.48165e-08 -4.84157e-05
0.000524613 1.10386e-06 -7.07823e-07
1.10386e-06 -4.52879e-05 1.18757e-07
-7.07823e-07 1.18757e-07 -9.28678e-05
0.000664057 -3.11851e-05 -5.36549e-07
-3.11851e-05 3.21294e-05 -4.85078e-08
-5.36549e-07 -4.85078e-08 -6.77162e-05
0.00104321 -1.15387e-05 1.18477e-05
-1.15387e-05 -1.65312e-05 -9.68439e-07
1.18477e-05 -9.68439e-07 -0.000129942
0.00163444 -5.4166e-05 1.20044e-05
-5.4166e-05 0.000331232 -1.50885e-06
1.20044e-05 -1.50885e-06 0.000220746
0.00169448 -4.02518e-05 2.28224e-06
-4.02518e-05 0.000240765 -1.03886e-07
2.28224e-06 -1.03886e-07 0.000117936
0.00134736 -0.00010216 4.37428e-06
-0.00010216 5.57554e-05 -5.1961e-07
4.37428e-06 -5.1961e-07 -7.84538e-05
0.00162445 -0.000165875 4.60961e-06
-0.000165875 0.000253493 -9.603e-07
4.60961e-06 -9.603e-07 0.000109468
0.00167082 -0.000158192 -4.34328e-07
-0.000158192 0.000159625 5.52193e-07
-4.34328e-07 5.52193e-07 2.38511e-05
0.000413183 -1.98618e-05 7.82078e-06
-1.98618e-05 -0.000113694 -1.01046e-05
7.82078e-06 -1.01046e-05 -0.000166504
0.00147976 -0.000204751 2.58344e-06
-0.000204751 0.000111622 5.14075e-07
2.58344e-06 5.14075e-07 -4.66697e-05
0.000640481 -0.000123155 4.36618e-06
-0.000123155 -1.56258e-05 -5.30799e-06
4.36618e-06 -5.30799e-06 -0.000152319
0.000894849 -0.00019872 7.60536e-06
-0.00019872 -2.64523e-05 -4.68111e-06
7.60536e-06 -4.68111e-06 -0.000211201
0.00183939 -0.000272159 3.70839e-06
-0.000272159 0.000381037 1.7379e-07
3.70839e-06 1.7379e-07 0.000189737
0.00178182 -0.000257463 -6.77141e-07
-0.000257463 0.000254792 3.21958e-06
-6.77141e-07 3.21958e-06 8.77312e-05
0.000737672 -7.0475e-05 2.99042e-06
-7.0475e-05 7.35972e-05 -3.98517e-06
2.99042e-06 -3.98517e-06 -4.05339e-05
0.000587684 -6.24719e-06 1.00594e-06
-6.24719e-06 -5.8659e-06 -3.49682e-06
1.00594e-06 -3.49682e-06 -9.33141e-05
0.000991913 -0.000120079 6.36606e-07
-0.000120079 0.000232457 -6.1888e-07
6.36606e-07 -6.1888e-07 8.54206e-05
0.000592714 8.64334e-05 -1.69267e-05
8.64334e-05 -0.000107177 -7.26622e-06
-1.69267e-05 -7.26622e-06 -0.000182775
0.00309823 -0.00014354 -6.20217e-05
-0.00014354 0.00148212 -2.13513e-06
-6.20217e-05 -2.13513e-06 0.00147479
0.000460033 -7.2397e-05 2.16416e-06
-7.2397e-05 -6.11081e-05 -6.80547e-06
2.16416e-06 -6.80547e-06 -0.000101085
0.000518015 0.000131189 -1.83444e-05
0.000131189 -0.000116788 -1.14478e-05
-1.83444e-05 -1.14478e-05 -0.000199304
0.00102112 0.000139234 -1.31975e-05
0.000139234 7.35636e-06 -5.28658e-06
-1.31975e-05 -5.28658e-06 -0.000127851
0.000413237 1.58883e-05 -8.09901e-06
1.58883e-05 -0.00011417 -1.01028e-05
-8.09901e-06 -1.01028e-05 -0.00016617
0.000715395 0.000130942 -5.84371e-06
0.000130942 8.85941e-06 -6.2461e-06
-5.84371e-06 -6.2461e-06 -0.000134135
0.000955738 0.000160598 -1.04163e-05
0.000160598 3.09765e-05 -5.11728e-06
-1.04163e-05 -5.11728e-06 -0.000110985
0.0010541 0.000206383 -6.09445e-06
0.000206383 7.36165e-05 -1.38579e-06
-6.09445e-06 -1.38579e-06 -0.00010983
0.000537532 -2.14911e-05 1.44884e-06
-2.14911e-05 -3.06064e-05 3.6985e-07
1.44884e-06 3.6985e-07 -7.4497e-05
0.000551765 -7.17183e-05 -3.65215e-07
-7.17183e-05 -1.77962e-05 2.4277e-07
-3.65215e-07 2.4277e-07 -4.94562e-05
0.000638911 -5.149e-06 5.47275e-07
-5.149e-06 2.46232e-05 3.49711e-07
5.47275e-07 3.49711e-07 -6.12644e-05
0.00103689 0.000116137 7.34548e-08
0.000116137 -2.3871e-07 -2.49844e-07
7.34548e-08 -2.49844e-07 -0.00013094
0.000993294 0.000153567 3.88723e-07
0.000153567 1.74976e-05 -1.87219e-07
3.88723e-07 -1.87219e-07 -0.000120998
0.00131253 0.000179554 2.08137e-07
0.000179554 8.20695e-05 3.47475e-08
2.08137e-07 3.47475e-08 -7.93302e-05
0.000791216 0.000121329 -2.92209e-07
0.000121329 0.000100224 2.94951e-07
-2.92209e-07 2.94951e-07 -3.17087e-05
0.00110978 0.000198514 -3.32976e-07
0.000198514 4.38765e-05 -1.71731e-07
-3.32976e-07 -1.71731e-07 -0.000127423
0.00109401 0.000206078 1.07979e-06
0.000206078 0.00018685 -1.22e-06
1.07979e-06 -1.22e-06 -7.71756e-06
0.00118759 0.00023468 -6.07544e-07
0.00023468 9.49882e-05 7.87841e-07
-6.07544e-07 7.87841e-07 -9.47106e-05
0.000593039 -6.41614e-05 -4.5349e-07
-6.41614e-05 -6.29789e-06 4.87888e-06
-4.5349e-07 4.87888e-06 -3.15004e-05
0.000740365 8.09417e-05 4.17325e-06
8.09417e-05 7.97723e-05 3.85258e-06
4.17325e-06 3.85258e-06 -3.10778e-05
0.000678939 -2.12816e-05 6.80743e-07
-2.12816e-05 4.20612e-05 3.45006e-06
6.80743e-07 3.45006e-06 -2.48107e-05
0.000871513 8.31446e-05 8.57971e-07
8.31446e-05 0.000180492 1.02007e-06
8.57971e-07 1.02007e-06 4.62268e-05
0.00136972 0.000156514 5.79156e-06
0.000156514 8.2286e-05 1.02919e-06
5.79156e-06 1.02919e-06 -7.14011e-05
0.00122682 0.000195604 7.00962e-06
0.000195604 6.74026e-05 2.24428e-06
7.00962e-06 2.24428e-06 -9.99549e-05
0.00156466 0.000229623 1.6577e-06
0.000229623 0.000145831 6.78229e-08
1.6577e-06 6.78229e-08 -2.51931e-05
0.00101764 0.000172654 2.6007e-06
0.000172654 0.000204424 3.96791e-06
2.6007e-06 3.96791e-06 2.78939e-05
0.00133813 0.000237175 1.09743e-06
0.000237175 0.000117308 9.3404e-07
1.09743e-06 9.3404e-07 -6.44872e-05
0.00119818 0.000234801 2.52005e-06
0.000234801 0.000197795 -1.58309e-06
2.52005e-06 -1.58309e-06 -2.23591e-05
0.00167986 0.000273587 1.04611e-06
0.000273587 0.000308571 3.57473e-07
1.04611e-06 3.57473e-07 0.000115198
0.000662859 -8.73123e-06 1.9498e-06
-8.73123e-06 1.18195e-05 2.11347e-06
1.9498e-06 2.11347e-06 -3.31186e-05
0.000588127 -4.45356e-05 7.52624e-07
-4.45356e-05 -3.07463e-05 4.26792e-06
7.52624e-07 4.26792e-06 -4.75615e-05
0.00231733 -8.89153e-05 2.89328e-05
-8.89153e-05 0.00100205 3.29244e-06
2.89328e-05 3.29244e-06 0.00100897
0.00235718 -9.99773e-05 2.59736e-06
-9.99773e-05 0.00103325 -2.52158e-07
2.59736e-06 -2.52158e-07 0.00103728
0.00241837 -0.000111634 -3.57126e-05
-0.000111634 0.00107696 -2.66415e-06
-3.57126e-05 -2.66415e-06 0.0010777
0.000496039 2.53862e-05 2.79243e-06
2.53862e-05 -5.97804e-05 -6.64268e-06
2.79243e-06 -6.64268e-06 -9.49695e-05
0.00316427 0.000123225 6.92271e-05
0.000123225 0.00151179 -3.08325e-06
6.92271e-05 -3.08325e-06 0.00150854
0.000541991 1.77246e-05 -2.92916e-07
1.77246e-05 -3.20451e-05 1.49683e-07
-2.92916e-07 1.49683e-07 -7.40895e-05
0.00355855 0.000124286 -2.95996e-06
0.000124286 0.00174219 -4.0388e-07
-2.95996e-06 -4.0388e-07 0.00173839
0.000649777 8.79334e-05 -1.84129e-05
8.79334e-05 -8.10342e-05 -5.75196e-06
-1.84129e-05 -5.75196e-06 -0.000155509
0.000652895 3.12945e-05 -1.79355e-05
3.12945e-05 -8.90991e-05 -3.0778e-06
-1.79355e-05 -3.0778e-06 -0.000158916
0.00105166 7.82402e-05 -1.17513e-05
7.82402e-05 -6.34021e-06 -2.76721e-06
-1.17513e-05 -2.76721e-06 -0.000130249
0.00105304 3.74795e-05 -1.22368e-05
3.74795e-05 -1.34219e-05 -1.37816e-06
-1.22368e-05 -1.37816e-06 -0.000130192
0.000663728 -5.13701e-06 -1.84645e-05
-5.13701e-06 -8.76361e-05 -7.78683e-07
-1.84645e-05 -7.78683e-07 -0.000152463
0.00533459 -9.62374e-05 -0.000208512
-9.62374e-05 0.00274888 2.95002e-06
-0.000208512 2.95002e-06 0.00275068
0.000648132 -6.48175e-07 1.37903e-07
-6.48175e-07 -9.56692e-05 -3.63993e-07
1.37903e-07 -3.63993e-07 -0.00016028
0.00105291 1.84289e-05 -1.67937e-08
1.84289e-05 -1.38355e-05 -1.08072e-07
-1.67937e-08 -1.08072e-07 -0.000128444
0.0010526 5.46593e-05 -1.5099e-08
5.46593e-05 -1.08249e-05 -1.5618e-07
-1.5099e-08 -1.5618e-07 -0.000130618
0.00140136 4.91038e-05 -6.67003e-08
4.91038e-05 5.61022e-05 2.23582e-08
-6.67003e-08 2.23582e-08 -7.17919e-05
0.00104655 9.5722e-05 -3.86367e-08
9.5722e-05 -3.31429e-06 -1.84646e-07
-3.86367e-08 -1.84646e-07 -0.000130494
0.00139751 0.000104249 -4.76574e-08
0.000104249 7.05819e-05 -6.96179e-08
-4.76574e-08 -6.96179e-08 -6.89599e-05
0.00105376 -2.20222e-07 1.1915e-05
-2.20222e-07 -1.19044e-05 -2.74964e-07
1.1915e-05 -2.74964e-07 -0.000125587
0.0014097 2.83479e-05 3.36205e-06
2.83479e-05 5.92992e-05 1.34268e-07
3.36205e-06 1.34268e-07 -6.54495e-05
0.0014263 7.77703e-05 3.65485e-06
7.77703e-05 7.67537e-05 2.21279e-07
3.65485e-06 2.21279e-07 -5.62525e-05
0.00168566 7.14534e-05 -1.01103e-06
7.14534e-05 9.21605e-05 -3.2776e-07
-1.01103e-06 -3.2776e-07 -2.11958e-05
0.00141242 0.000131082 4.16702e-06
0.000131082 8.8186e-05 7.06742e-07
4.16702e-06 7.06742e-07 -5.78654e-05
0.00165477 0.000134751 -5.39607e-07
0.000134751 0.000103508 -9.61333e-07
-5.39607e-07 -9.61333e-07 -2.64658e-05
0.000633695 4.4952e-06 -1.75908e-05
4.4952e-06 -9.86161e-05 9.56781e-07
-1.75908e-05 9.56781e-07 -0.000165471
0.00163104 -1.95501e-05 -8.95642e-05
-1.95501e-05 0.000484105 3.4338e-06
-8.95642e-05 3.4338e-06 0.000428195
0.000730996 -1.84563e-05 -1.35141e-05
-1.84563e-05 -0.000193289 1.6271e-06
-1.35141e-05 1.6271e-06 -0.000309232
0.00201681 -9.42768e-05 -2.21284e-05
-9.42768e-05 0.000555386 3.40407e-06
-2.21284e-05 3.40407e-06 0.000443648
0.00396311 0.000119963 -0.000120843
0.000119963 0.00197935 5.64979e-06
-0.000120843 5.64979e-06 0.00197425
0.00239186 -7.44749e-05 -7.32575e-05
-7.44749e-05 0.00101897 9.93938e-06
-7.32575e-05 9.93938e-06 0.000963146
0.00195855 -0.000223327 -1.6718e-05
-0.000223327 0.000679016 6.94639e-06
-1.6718e-05 6.94639e-06 0.000531665
0.00160856 -0.00013305 -2.26983e-05
-0.00013305 0.000341013 5.55002e-06
-2.26983e-05 5.55002e-06 0.000220995
0.00127599 -0.000123853 -6.45007e-06
-0.000123853 2.59469e-05 1.35721e-06
-6.45007e-06 1.35721e-06 -0.000113292
0.00174727 -0.000189854 -7.55831e-06
-0.000189854 0.000343782 1.87826e-06
-7.55831e-06 1.87826e-06 0.000193206
0.00103883 -0.00019342 -7.55867e-06
-0.00019342 -1.43563e-05 1.71735e-06
-7.55867e-06 1.71735e-06 -0.000186049
0.00144361 -0.000220823 -2.99446e-06
-0.000220823 0.000125005 -6.20752e-07
-2.99446e-06 -6.20752e-07 -4.63001e-05
0.000602264 -7.80725e-06 -7.35422e-06
-7.80725e-06 -1.48002e-06 9.00492e-06
-7.35422e-06 9.00492e-06 -4.98359e-05
0.000703071 -4.88176e-05 -2.66524e-06
-4.88176e-05 5.53654e-05 3.39683e-06
-2.66524e-06 3.39683e-06 -4.71995e-05
0.000890014 -7.13687e-06 -3.9254e-07
-7.13687e-06 -0.000104534 -1.12231e-07
-3.9254e-07 -1.12231e-07 -0.000218965
0.00164012 -5.51702e-05 -5.02495e-06
-5.51702e-05 0.000333316 5.14349e-07
-5.02495e-06 5.14349e-07 0.000222869
0.0016991 -3.668e-05 -2.33248e-06
-3.668e-05 0.000239983 3.05149e-07
-2.33248e-06 3.05149e-07 0.000118695
0.00153496 -0.000105478 2.82624e-07
-0.000105478 0.000163677 -2.77001e-08
2.82624e-07 -2.77001e-08 2.98506e-05
0.000544536 -3.0793e-05 6.47494e-08
-3.0793e-05 -4.07633e-05 2.71063e-07
6.47494e-08 2.71063e-07 -9.46107e-05
0.000850381 -0.000145676 -3.09818e-07
-0.000145676 0.000102707 1.68217e-07
-3.09818e-07 1.68217e-07 -3.73667e-05
0.000978227 -0.000204901 1.65634e-06
-0.000204901 2.28621e-05 -1.49118e-06
1.65634e-06 -1.49118e-06 -0.000162098
0.00168182 -0.000166122 -2.11164e-06
-0.000166122 0.000285125 5.33502e-07
-2.11164e-06 5.33502e-07 0.000140935
0.00168928 -0.000158954 4.41582e-08
-0.000158954 0.000165096 1.62911e-07
4.41582e-08 1.62911e-07 3.18533e-05
0.00169706 -0.000263805 -2.08772e-06
-0.000263805 0.00030008 2.23872e-07
-2.08772e-06 2.23872e-07 0.000108515
0.00148824 -0.000205157 3.96219e-07
-0.000205157 0.000116106 -6.02879e-08
3.96219e-07 -6.02879e-08 -4.1918e-05
0.00174085 -0.000256974 6.33147e-07
-0.000256974 0.000227184 5.21102e-07
6.33147e-07 5.21102e-07 5.98833e-05
0.000725586 -8.00781e-05 -1.83797e-07
-8.00781e-05 6.69209e-05 -1.92308e-07
-1.83797e-07 -1.92308e-07 -4.8422e-05
0.000623857 -7.46067e-05 -7.49602e-07
-7.46067e-05 1.14173e-05 -6.97816e-07
-7.49602e-07 -6.97816e-07 -0.000125554
0.000666416 -1.64012e-05 1.79129e-07
-1.64012e-05 3.78351e-05 2.20969e-07
1.79129e-07 2.20969e-07 -5.02114e-05
0.00169237 -1.45179e-05 1.91738e-06
-1.45179e-05 0.000231046 -1.5454e-07
1.91738e-06 -1.5454e-07 0.000109668
0.00168957 -6.85067e-05 2.21281e-06
-6.85067e-05 0.000236073 2.05775e-07
2.21281e-06 2.05775e-07 0.00011116
0.00164812 -5.23093e-05 -1.12843e-06
-5.23093e-05 9.04436e-05 8.22203e-07
-1.12843e-06 8.22203e-07 -2.17323e-05
0.00162172 -0.000129852 -1.67892e-06
-0.000129852 0.000100097 1.00626e-06
-1.67892e-06 1.00626e-06 -2.67456e-05
0.00150656 -0.000184979 1.10991e-06
-0.000184979 9.46779e-05 1.24246e-06
1.10991e-06 1.24246e-06 -4.94921e-05
0.00173848 -0.000180126 -1.98702e-06
-0.000180126 0.000124226 1.47181e-06
-1.98702e-06 1.47181e-06 9.14061e-06
0.000679997 -0.000103172 3.79271e-06
-0.000103172 3.63115e-05 -3.67474e-06
3.79271e-06 -3.67474e-06 -8.91082e-05
0.00161298 -0.000239051 -1.19307e-06
-0.000239051 0.000116054 1.96288e-06
-1.19307e-06 1.96288e-06 -3.33127e-05
0.000986915 -0.000195398 2.11021e-06
-0.000195398 0.00013516 -4.13844e-06
2.11021e-06 -4.13844e-06 -4.43553e-05
0.00125218 -0.000254915 5.6465e-06
-0.000254915 0.000111763 -3.31932e-06
5.6465e-06 -3.31932e-06 -9.93296e-05
0.00184178 -0.000292364 1.25648e-06
-0.000292364 0.000331567 3.07429e-06
1.25648e-06 3.07429e-06 0.000133797
0.00189882 -0.000285566 -2.94475e-06
-0.000285566 0.000273411 3.92836e-06
-2.94475e-06 3.92836e-06 0.000116368
0.000611498 -1.03853e-05 1.13425e-06
-1.03853e-05 5.33282e-06 -3.06725e-06
1.13425e-06 -3.06725e-06 -7.1211e-05
0.000797648 -0.000122747 1.9909e-06
-0.000122747 9.14714e-05 7.42665e-07
1.9909e-06 7.42665e-07 -4.93717e-05
0.000592417 -5.27209e-05 6.76337e-07
-5.27209e-05 1.49514e-05 -1.28555e-06
6.76337e-07 -1.28555e-06 -0.000117891
0.00119078 -0.000183479 -9.05649e-07
-0.000183479 0.000333821 1.84234e-06
-9.05649e-07 1.84234e-06 0.000172814
0.00103105 0.000118403 -1.29472e-05
0.000118403 -2.55135e-06 -4.5154e-06
-1.29472e-05 -4.5154e-06 -0.000133956
0.000504743 -6.90283e-05 2.80489e-07
-6.90283e-05 -4.65859e-05 -5.19757e-06
2.80489e-07 -5.19757e-06 -7.71387e-05
0.000440632 -3.89815e-05 -8.95862e-07
-3.89815e-05 -8.20114e-05 -8.53349e-06
-8.95862e-07 -8.53349e-06 -0.000126657
0.000608619 -3.73521e-05 1.03647e-06
-3.73521e-05 1.10364e-05 -4.03981e-06
1.03647e-06 -4.03981e-06 -7.44017e-05
0.00100772 0.000156123 -1.19605e-05
0.000156123 2.67824e-05 -5.95539e-06
-1.19605e-05 -5.95539e-06 -0.000112272
0.00129404 0.000177878 -6.314e-06
0.000177878 7.52446e-05 -1.70125e-06
-6.314e-06 -1.70125e-06 -8.6104e-05
0.000665031 0.000102637 -3.86818e-06
0.000102637 2.88847e-05 -4.13277e-06
-3.86818e-06 -4.13277e-06 -0.000100229
0.0013336 0.000224259 -4.93253e-06
0.000224259 0.000326122 -4.59131e-06
-4.93253e-06 -4.59131e-06 0.000129343
0.00133294 0.000213587 -5.73316e-06
0.000213587 0.000173931 -1.8484e-06
-5.73316e-06 -1.8484e-06 6.77674e-07
0.00102967 0.000225249 -3.36958e-06
0.000225249 -3.22108e-07 1.89626e-06
-3.36958e-06 1.89626e-06 -0.00018901
0.00056633 -6.02546e-05 -1.1979e-07
-6.02546e-05 -2.37078e-05 9.03724e-08
-1.1979e-07 9.03724e-08 -4.78227e-05
0.000736952 7.05033e-05 3.76701e-07
7.05033e-05 8.30835e-05 -2.03841e-07
3.76701e-07 -2.03841e-07 -2.9518e-05
0.000626772 -3.68819e-05 -6.8247e-07
-3.68819e-05 1.54395e-05 6.4841e-07
-6.8247e-07 6.4841e-07 -5.21201e-05
0.000780034 5.28575e-05 9.45685e-07
5.28575e-05 0.000125258 -5.40741e-07
9.45685e-07 -5.40741e-07 -4.10814e-06
0.00135589 0.000155547 5.22715e-07
0.000155547 7.76222e-05 -1.14641e-07
5.22715e-07 -1.14641e-07 -7.61988e-05
0.00127099 0.000198732 2.08419e-07
0.000198732 9.56026e-05 4.29217e-09
2.08419e-07 4.29217e-09 -7.21995e-05
0.00156982 0.000230117 2.39626e-07
0.000230117 0.000148307 1.7218e-07
2.39626e-07 1.7218e-07 -2.3039e-05
0.00098534 0.000171338 7.26009e-07
0.000171338 0.000188962 7.21236e-07
7.26009e-07 7.21236e-07 1.37813e-05
0.00156406 0.000251117 -6.51264e-07
0.000251117 0.000252132 -4.21721e-07
-6.51264e-07 -4.21721e-07 6.92248e-05
0.00117614 0.000235006 3.81473e-07
0.000235006 0.000185428 -2.45492e-06
3.81473e-07 -2.45492e-06 -3.74776e-05
0.00149961 0.000260216 -2.40609e-06
0.000260216 0.000209354 -2.73169e-07
-2.40609e-06 -2.73169e-07 1.83896e-05
0.000582292 -5.28717e-05 7.05917e-07
-5.28717e-05 -2.54008e-05 4.38321e-06
7.05917e-07 4.38321e-06 -4.53176e-05
0.000684866 -2.40209e-05 1.27543e-06
-2.40209e-05 3.84072e-05 2.55413e-06
1.27543e-06 2.55413e-06 -1.66209e-05
0.000970941 0.000127676 2.12446e-06
0.000127676 0.000209172 2.05385e-06
2.12446e-06 2.05385e-06 5.97746e-05
0.000818548 5.10713e-05 -4.71643e-07
5.10713e-05 0.000154229 2.35578e-06
-4.71643e-07 2.35578e-06 4.16565e-05
0.000980944 0.000126559 1.4715e-07
0.000126559 0.00025015 -4.5704e-07
1.4715e-07 -4.5704e-07 9.43141e-05
0.0016176 0.000199657 1.46505e-06
0.000199657 0.000137797 -1.04837e-06
1.46505e-06 -1.04837e-06 -1.85577e-05
0.00145106 0.000243654 1.30263e-06
0.000243654 0.000129071 1.16405e-06
1.30263e-06 1.16405e-06 -5.10173e-05
0.00173942 0.000268164 3.24832e-08
0.000268164 0.000195477 -4.81658e-07
3.24832e-08 -4.81658e-07 2.86274e-05
0.00123045 0.000221486 3.23037e-06
0.000221486 0.000315084 4.88037e-06
3.23037e-06 4.88037e-06 9.71163e-05
0.00167742 0.000286962 2.66456e-06
0.000286962 0.000269276 9.21914e-07
2.66456e-06 9.21914e-07 7.69582e-05
0.000806663 0.000220338 3.02808e-06
0.000220338 -0.000111049 -1.78194e-06
3.02808e-06 -1.78194e-06 -0.000326808
0.000658266 -1.24818e-05 2.32862e-06
-1.24818e-05 1.09633e-05 2.11222e-06
2.32862e-06 2.11222e-06 -3.53274e-05
0.000706477 3.3728e-05 2.8656e-07
3.3728e-05 6.31632e-05 9.7582e-07
2.8656e-07 9.7582e-07 -1.189e-05
0.000679062 9.99767e-07 1.67026e-06
9.99767e-07 2.12046e-05 2.09978e-06
1.67026e-06 2.09978e-06 -2.31966e-05
0.00065859 -2.35734e-05 -4.04404e-07
-2.35734e-05 1.10521e-05 1.48951e-08
-4.04404e-07 1.48951e-08 -3.48146e-05
0.00126146 -5.09634e-05 1.07693e-06
-5.09634e-05 0.000357255 2.52435e-06
1.07693e-06 2.52435e-06 0.000346
0.000939398 -5.10354e-05 6.79958e-07
-5.10354e-05 0.000174716 -6.72204e-08
6.79958e-07 -6.72204e-08 0.000159631
0.000909668 -4.63653e-05 2.4061e-05
-4.63653e-05 0.000167729 7.04249e-06
2.4061e-05 7.04249e-06 0.000171533
0.00228119 -8.70391e-05 2.60954e-06
-8.70391e-05 0.000979954 -2.25975e-07
2.60954e-06 -2.25975e-07 0.000987314
0.00230153 -9.74781e-05 -3.21998e-05
-9.74781e-05 0.00100003 -3.05141e-06
-3.21998e-05 -3.05141e-06 0.00100462
0.000510632 4.41325e-05 -4.18377e-07
4.41325e-05 -5.27156e-05 -5.788e-06
-4.18377e-07 -5.788e-06 -8.39495e-05
0.00289165 0.000117699 4.86483e-05
0.000117699 0.00134871 -3.09673e-06
4.86483e-05 -3.09673e-06 0.00134705
0.000552811 2.41545e-05 -2.638e-07
2.41545e-05 -2.74225e-05 1.7627e-07
-2.638e-07 1.7627e-07 -6.29526e-05
0.00326942 0.000115927 -3.86423e-06
0.000115927 0.00157061 -3.24518e-07
-3.86423e-06 -3.24518e-07 0.00156921
0.000602604 1.48484e-05 -4.2881e-06
1.48484e-05 1.50166e-06 8.04345e-06
-4.2881e-06 8.04345e-06 -4.08238e-05
0.00364161 0.000114233 -0.000105652
0.000114233 0.00178798 4.58596e-06
-0.000105652 4.58596e-06 0.00178624
0.00104931 9.86158e-05 -1.22558e-05
9.86158e-05 -1.24591e-06 -3.52155e-06
-1.22558e-05 -3.52155e-06 -0.000129084
0.00106273 5.88254e-05 -1.19702e-05
5.88254e-05 -4.56944e-06 -2.05296e-06
-1.19702e-05 -2.05296e-06 -0.000124795
0.00137287 0.000102226 -4.0626e-06
0.000102226 5.68298e-05 -6.22785e-07
-4.0626e-06 -6.22785e-07 -8.29196e-05
0.00138251 4.84234e-05 -3.75534e-06
4.84234e-05 4.63127e-05 -9.48446e-08
-3.75534e-06 -9.48446e-08 -8.16916e-05
0.00105473 2.18664e-05 -1.21301e-05
2.18664e-05 -1.2479e-05 -7.2863e-07
-1.21301e-05 -7.2863e-07 -0.000127232
0.000620824 2.22506e-05 -1.81065e-05
2.22506e-05 -0.00011059 -5.31543e-08
-1.81065e-05 -5.31543e-08 -0.000175397
0.00104976 2.07411e-06 1.17089e-08
2.07411e-06 -1.42325e-05 -1.10165e-07
1.17089e-08 -1.10165e-07 -0.000127948
0.00139703 3.00014e-05 -9.31356e-08
3.00014e-05 5.20939e-05 2.73064e-08
-9.31356e-08 2.73064e-08 -7.28019e-05
0.00139805 7.46772e-05 2.62359e-09
7.46772e-05 6.21089e-05 -6.3479e-08
2.62359e-09 -6.3479e-08 -7.09384e-05
0.00172296 7.21813e-05 -4.6144e-08
7.21813e-05 0.000109794 2.52147e-07
-4.6144e-08 2.52147e-07 -1.60655e-06
0.00138728 0.000130147 -2.01503e-07
0.000130147 7.56228e-05 -6.04459e-08
-2.01503e-07 -6.04459e-08 -7.06394e-05
0.00166134 0.000133074 -2.03041e-07
0.000133074 0.000111843 5.48697e-08
-2.03041e-07 5.48697e-08 -1.81309e-05
0.00139607 6.94947e-06 3.52701e-06
6.94947e-06 5.43125e-05 -4.66501e-08
3.52701e-06 -4.66501e-08 -6.93427e-05
0.00172215 4.22611e-05 -1.7238e-06
4.22611e-05 0.000107414 1.49392e-07
-1.7238e-06 1.49392e-07 1.06786e-06
0.00167316 0.000108659 -8.98013e-07
0.000108659 9.27829e-05 -7.5345e-07
-8.98013e-07 -7.5345e-07 -2.79954e-05
0.00179718 7.83912e-05 -1.38226e-06
7.83912e-05 9.17922e-05 1.02461e-07
-1.38226e-06 1.02461e-07 -2.91374e-07
0.00164615 0.000161738 -1.34274e-07
0.000161738 0.000128044 -1.06699e-06
-1.34274e-07 -1.06699e-06 -1.3219e-05
0.00170236 0.000156857 -2.65432e-06
0.000156857 6.90863e-05 -1.14756e-06
-2.65432e-06 -1.14756e-06 -3.73302e-05
0.000732526 -4.25013e-06 -1.17347e-05
-4.25013e-06 -0.000194745 6.51143e-07
-1.17347e-05 6.51143e-07 -0.000310256
0.00166878 -5.76285e-05 -2.18445e-05
-5.76285e-05 0.000348537 2.47157e-06
-2.18445e-05 2.47157e-06 0.000238113
0.00170886 -3.03771e-05 -6.79235e-06
-3.03771e-05 0.000242288 4.04701e-07
-6.79235e-06 4.04701e-07 0.000122703
0.00172052 -0.000109027 -5.01379e-06
-0.000109027 0.000270511 8.39945e-07
-5.01379e-06 8.39945e-07 0.000137046
0.000690291 -4.3147e-05 -1.02594e-05
-4.3147e-05 4.18501e-05 1.04737e-05
-1.02594e-05 1.04737e-05 -1.43387e-05
0.000895173 -0.00015794 -6.75754e-06
-0.00015794 0.000129265 6.31791e-06
-6.75754e-06 6.31791e-06 -1.30098e-05
0.00108112 -0.000212565 -4.40022e-06
-0.000212565 8.34099e-05 1.44306e-06
-4.40022e-06 1.44306e-06 -0.000102013
0.00173781 -0.000166221 -8.17172e-06
-0.000166221 0.000315967 2.05587e-06
-8.17172e-06 2.05587e-06 0.000171638
0.00170324 -0.000159435 -2.63798e-07
-0.000159435 0.000167986 -6.90779e-07
-2.63798e-07 -6.90779e-07 3.73092e-05
0.00149909 -0.000205685 -2.10147e-06
-0.000205685 0.000121852 -5.52692e-07
-2.10147e-06 -5.52692e-07 -3.59077e-05
0.00156997 -0.000255926 -5.67178e-06
-0.000255926 0.000228497 -2.10674e-07
-5.67178e-06 -2.10674e-07 3.66398e-05
0.00170163 -0.000256119 2.36355e-06
-0.000256119 0.000200723 -2.615e-06
2.36355e-06 -2.615e-06 3.33033e-05
0.000721796 -8.65953e-05 -3.98767e-06
-8.65953e-05 6.21785e-05 3.50117e-06
-3.98767e-06 3.50117e-06 -5.2727e-05
0.000490044 -6.63121e-05 -2.11956e-06
-6.63121e-05 -6.40789e-05 -5.82977e-07
-2.11956e-06 -5.82977e-07 -0.000200894
0.000704109 -2.35644e-05 -1.29124e-06
-2.35644e-05 5.83825e-05 3.65575e-06
-1.29124e-06 3.65575e-06 -3.05433e-05
0.00155029 -1.25058e-05 -2.3779e-06
-1.25058e-05 0.000147737 1.50709e-07
-2.3779e-06 1.50709e-07 2.5264e-05
0.00169927 -7.54748e-05 -2.2778e-06
-7.54748e-05 0.000241682 3.91253e-07
-2.2778e-06 3.91253e-07 0.000116193
0.00165315 -4.8823e-05 4.40449e-07
-4.8823e-05 9.24924e-05 3.66663e-07
4.40449e-07 3.66663e-07 -1.62645e-05
0.0016498 -0.000127365 -1.30342e-06
-0.000127365 0.000113531 3.25568e-07
-1.30342e-06 3.25568e-07 -1.34574e-05
0.000759937 -0.000118644 3.63165e-07
-0.000118644 8.20885e-05 2.26591e-07
3.63165e-07 2.26591e-07 -4.54922e-05
0.00106813 -0.000202908 -1.06276e-06
-0.000202908 0.000176794 2.30357e-07
-1.06276e-06 2.30357e-07 -3.41083e-06
0.00114237 -0.000243113 1.32379e-06
-0.000243113 5.40777e-05 -1.06025e-06
1.32379e-06 -1.06025e-06 -0.000153711
0.00155527 -0.000186899 -4.45064e-07
-0.000186899 0.000123649 3.74248e-07
-4.45064e-07 3.74248e-07 -2.25926e-05
0.00177123 -0.000180431 1.35909e-06
-0.000180431 0.00014608 1.62779e-07
1.35909e-06 1.62779e-07 3.49363e-05
0.00172404 -0.000289115 -8.6928e-07
-0.000289115 0.000262173 6.67e-07
-8.6928e-07 6.67e-07 6.2083e-05
0.00164139 -0.000239352 1.33262e-07
-0.000239352 0.000132789 2.85826e-07
1.33262e-07 2.85826e-07 -1.61908e-05
0.00194449 -0.000286142 1.45168e-06
-0.000286142 0.000301253 -4.70819e-07
1.45168e-06 -4.70819e-07 0.000146757
0.000945861 -0.000144365 2.7315e-07
-0.000144365 0.000180768 3.68403e-07
2.7315e-07 3.68403e-07 3.51087e-05
0.00107045 -0.000180286 -2.60786e-07
-0.000180286 0.000269248 2.50935e-07
-2.60786e-07 2.50935e-07 0.000106246
0.000655281 -1.69352e-05 1.22546e-07
-1.69352e-05 3.0249e-05 1.97427e-07
1.22546e-07 1.97427e-07 -4.69896e-05
0.000468909 -2.33171e-05 -2.16391e-07
-2.33171e-05 -6.34286e-05 -6.97244e-07
-2.16391e-07 -6.97244e-07 -0.00018874
0.00167672 -2.90533e-05 -9.53393e-07
-2.90533e-05 0.000100625 -8.24339e-09
-9.53393e-07 -8.24339e-09 -8.07945e-06
0.00184061 -8.67109e-05 -6.70128e-07
-8.67109e-05 0.000202409 1.06407e-06
-6.70128e-07 1.06407e-06 8.73454e-05
0.00162339 -6.23463e-05 4.9075e-07
-6.23463e-05 5.84995e-06 8.59863e-08
4.9075e-07 8.59863e-08 -8.78976e-05
0.00176365 -0.000156143 -3.70149e-06
-0.000156143 0.000104076 1.07154e-06
-3.70149e-06 1.07154e-06 6.99165e-06
0.00169528 -0.000211568 -3.09041e-06
-0.000211568 0.000127736 2.80441e-06
-3.09041e-06 2.80441e-06 -3.8823e-07
0.00184488 -0.000180296 1.30822e-06
-0.000180296 0.00015978 -6.35245e-08
1.30822e-06 -6.35245e-08 6.52829e-05
0.000853894 -0.000169433 1.47535e-06
-0.000169433 0.000108987 -1.49134e-06
1.47535e-06 -1.49134e-06 -4.8638e-05
0.00161482 -0.000256183 -3.99514e-06
-0.000256183 7.66784e-05 3.01954e-06
-3.99514e-06 3.01954e-06 -5.21071e-05
0.000547719 -0.000186741 8.97016e-07
-0.000186741 -0.000160961 -5.4386e-06
8.97016e-07 -5.4386e-06 -0.000360158
0.00182668 -0.000325461 3.59791e-06
-0.000325461 0.000396097 -5.06569e-07
3.59791e-06 -5.06569e-07 0.000163401
0.00169567 -0.000303894 3.59496e-07
-0.000303894 0.000201526 5.4575e-06
3.59496e-07 5.4575e-06 2.99181e-06
0.0019054 -0.000279941 -8.38384e-08
-0.000279941 0.000259867 1.39869e-06
-8.38384e-08 1.39869e-06 0.000111704
0.000607475 -1.77677e-05 1.4444e-06
-1.77677e-05 1.22671e-06 -2.92169e-06
1.4444e-06 -2.92169e-06 -6.71402e-05
0.000564858 -2.29886e-05 -2.69373e-07
-2.29886e-05 2.78936e-06 -1.96546e-06
-2.69373e-07 -1.96546e-06 -0.000117395
0.000883352 -0.000181946 1.00544e-07
-0.000181946 0.000133279 1.63534e-06
1.00544e-07 1.63534e-06 -2.65706e-05
0.000811745 -0.000127145 1.45171e-06
-0.000127145 0.000149465 1.14799e-06
1.45171e-06 1.14799e-06 -7.44041e-06
0.00131339 -0.000220204 -1.67944e-06
-0.000220204 0.000398799 3.79106e-06
-1.67944e-06 3.79106e-06 0.000232813
0.000548345 -5.69874e-05 -9.83795e-07
-5.69874e-05 -3.56075e-05 -4.46985e-06
-9.83795e-07 -4.46985e-06 -5.88754e-05
0.0013432 0.000154564 -4.75124e-06
0.000154564 7.39646e-05 -1.26768e-06
-4.75124e-06 -1.26768e-06 -7.99813e-05
0.000556751 -5.32439e-05 -1.34735e-07
-5.32439e-05 -2.04019e-05 -2.76093e-06
-1.34735e-07 -2.76093e-06 -8.95009e-05
0.000729393 4.94328e-05 -1.31797e-06
4.94328e-05 7.54848e-05 -4.02314e-06
-1.31797e-06 -4.02314e-06 -3.26086e-05
0.000678979 2.15687e-05 1.60942e-06
2.15687e-05 6.31834e-05 -1.89932e-06
1.60942e-06 -1.89932e-06 -6.04913e-05
0.00130808 0.000201724 -6.58942e-06
0.000201724 0.000119188 -2.17318e-06
-6.58942e-06 -2.17318e-06 -4.91208e-05
0.00158181 0.000231003 -4.04982e-07
0.000231003 0.000154789 4.37831e-07
-4.04982e-07 4.37831e-07 -1.69084e-05
0.0010542 0.000183845 -2.12077e-06
0.000183845 0.000232784 -3.00152e-06
-2.12077e-06 -3.00152e-06 5.5994e-05
0.0011666 0.000237241 -2.84693e-06
0.000237241 0.000178976 -2.47402e-06
-2.84693e-06 -2.47402e-06 -4.69907e-05
0.00175867 0.000263086 -3.63214e-06
0.000263086 0.000368789 -1.73335e-06
-3.63214e-06 -1.73335e-06 0.000184944
0.00130269 0.000245796 -6.79705e-06
0.000245796 0.000100647 -7.16727e-07
-6.79705e-06 -7.16727e-07 -8.78132e-05
0.00057897 -5.08202e-05 5.53572e-08
-5.08202e-05 -2.83045e-05 1.50205e-09
5.53572e-08 1.50205e-09 -4.77715e-05
0.000644643 -3.24677e-05 -6.10622e-07
-3.24677e-05 1.70168e-05 2.69539e-07
-6.10622e-07 2.69539e-07 -3.85317e-05
0.000927407 0.000126276 3.56596e-07
0.000126276 0.000183508 4.65485e-07
3.56596e-07 4.65485e-07 3.51782e-05
0.000712553 1.40268e-06 -4.68828e-07
1.40268e-06 8.83524e-05 3.88216e-07
-4.68828e-07 3.88216e-07 -1.8031e-05
0.000701644 8.78556e-05 9.12161e-07
8.78556e-05 8.19448e-05 -4.7852e-07
9.12161e-07 -4.7852e-07 -6.71957e-05
0.00161366 0.000200813 2.96977e-07
0.000200813 0.00013311 -5.2413e-07
2.96977e-07 -5.2413e-07 -2.37905e-05
0.00147552 0.000244362 7.53885e-07
0.000244362 0.000144885 6.05194e-07
7.53885e-07 6.05194e-07 -3.53671e-05
0.0016711 0.000266114 1.57156e-06
0.000266114 0.000156486 2.44148e-07
1.57156e-06 2.44148e-07 -1.09111e-05
0.00114073 0.000214113 1.14489e-06
0.000214113 0.000270432 1.55078e-06
1.14489e-06 1.55078e-06 5.10276e-05
0.00174281 0.000292748 1.82037e-07
0.000292748 0.000300889 -9.93799e-09
1.82037e-07 -9.93799e-09 0.00010821
0.00107528 0.000240566 -2.09067e-06
0.000240566 3.62938e-05 -8.29026e-08
-2.09067e-06 -8.29026e-08 -0.000180983
0.000687849 -1.88473e-05 2.17607e-06
-1.88473e-05 3.21788e-05 2.23211e-06
2.17607e-06 2.23211e-06 -1.69423e-05
0.000776758 3.27593e-05 6.0147e-07
3.27593e-05 0.000114446 2.1083e-06
6.0147e-07 2.1083e-06 2.47763e-05
0.000977013 0.00018749 -1.23915e-06
0.00018749 0.000209432 5.19607e-09
-1.23915e-06 5.19607e-09 3.17569e-05
0.000987308 4.37442e-05 -1.16409e-07
4.37442e-05 0.00025093 1.06287e-06
-1.16409e-07 1.06287e-06 0.000121403
0.0012745 0.000108997 -3.84191e-06
0.000108997 0.000382908 -4.23175e-06
-3.84191e-06 -4.23175e-06 0.000230198
0.00167916 0.000212488 -2.66336e-06
0.000212488 0.000129187 -2.67801e-06
-2.66336e-06 -2.67801e-06 -1.33493e-05
0.00165811 0.000295759 1.78336e-06
0.000295759 0.000197479 1.36028e-07
1.78336e-06 1.36028e-07 1.1388e-05
0.00150806 0.000285625 2.42785e-06
0.000285625 3.00565e-05 -1.12081e-06
2.42785e-06 -1.12081e-06 -0.000133173
0.00102277 0.000218401 -6.98005e-08
0.000218401 0.000172179 2.62632e-06
-6.98005e-08 2.62632e-06 -6.6568e-05
0.0014192 0.000290784 5.85862e-06
0.000290784 0.000135777 -2.68676e-07
5.85862e-06 -2.68676e-07 -7.4654e-05
0.000660289 -2.10422e-05 -1.77019e-07
-2.10422e-05 1.28985e-05 5.12399e-09
-1.77019e-07 5.12399e-09 -3.37368e-05
0.000579266 1.18439e-05 1.47732e-06
1.18439e-05 -1.95698e-05 1.38089e-06
1.47732e-06 1.38089e-06 -9.09396e-05
0.000595794 -2.72175e-06 -5.76166e-07
-2.72175e-06 -5.03716e-06 -7.77206e-08
-5.76166e-07 -7.77206e-08 -7.71031e-05
0.000922896 6.9273e-05 6.75774e-07
6.9273e-05 0.000197384 -2.69151e-07
6.75774e-07 -2.69151e-07 0.000108302
0.000712572 5.23936e-05 1.77313e-06
5.23936e-05 6.64434e-05 1.20528e-06
1.77313e-06 1.20528e-06 -7.27435e-06
0.000662694 1.34821e-05 1.63812e-06
1.34821e-05 1.43832e-05 2.1412e-06
1.63812e-06 2.1412e-06 -3.05276e-05
0.000661854 -1.76114e-05 -6.0961e-07
-1.76114e-05 1.28909e-05 2.62157e-08
-6.0961e-07 2.62157e-08 -3.23172e-05
0.00125782 -3.97722e-05 7.71408e-07
-3.97722e-05 0.00034998 2.44147e-06
7.71408e-07 2.44147e-06 0.00034053
0.000658768 -3.25603e-05 -8.91905e-07
-3.25603e-05 1.19842e-05 -2.14754e-06
-8.91905e-07 -2.14754e-06 -3.42501e-05
0.00129122 -4.77985e-05 -5.06095e-06
-4.77985e-05 0.000374135 -1.33671e-06
-5.06095e-06 -1.33671e-06 0.000363354
0.00088021 -3.74755e-05 2.23696e-05
-3.74755e-05 0.000141938 7.23388e-06
2.23696e-05 7.23388e-06 0.000148453
0.00130063 -5.51479e-05 -9.60855e-06
-5.51479e-05 0.000386338 -3.68638e-06
-9.60855e-06 -3.68638e-06 0.000373418
0.00155457 -6.04245e-05 2.03985e-05
-6.04245e-05 0.000545857 1.93474e-06
2.03985e-05 1.93474e-06 0.000552865
0.0022503 -8.51721e-05 -2.85339e-05
-8.51721e-05 0.000960842 -3.50268e-06
-2.85339e-05 -3.50268e-06 0.000968641
0.000523008 5.29185e-05 -4.27729e-07
5.29185e-05 -5.10915e-05 -4.89447e-06
-4.27729e-07 -4.89447e-06 -7.75427e-05
0.000546619 3.47945e-05 9.53458e-08
3.47945e-05 -3.39594e-05 1.96196e-07
9.53458e-08 1.96196e-07 -6.41495e-05
0.00266462 0.000104094 3.76958e-05
0.000104094 0.00121069 -3.39022e-06
3.76958e-05 -3.39022e-06 0.00121248
0.0029878 0.000109695 -5.79651e-06
0.000109695 0.00140294 -3.0551e-07
-5.79651e-06 -3.0551e-07 0.00140336
0.000613359 2.26099e-05 -3.34878e-06
2.26099e-05 7.0387e-06 6.89744e-06
-3.34878e-06 6.89744e-06 -2.88604e-05
0.00335618 0.000105974 -9.21026e-05
0.000105974 0.00161854 4.10205e-06
-9.21026e-05 4.10205e-06 0.00161943
0.00136329 0.000129419 -4.61741e-06
0.000129419 6.35419e-05 -8.47958e-07
-4.61741e-06 -8.47958e-07 -8.29587e-05
0.00137075 7.46941e-05 -3.90922e-06
7.46941e-05 4.80645e-05 -3.35986e-07
-3.90922e-06 -3.35986e-07 -8.53318e-05
0.00166081 0.000132409 8.96969e-08
0.000132409 0.00011622 1.04406e-06
8.96969e-08 1.04406e-06 -1.38933e-05
0.00175904 7.29271e-05 8.45295e-07
7.29271e-05 0.000126608 6.17694e-07
8.45295e-07 6.17694e-07 1.71743e-05
0.00138627 3.30937e-05 -3.37074e-06
3.30937e-05 4.57918e-05 -4.68617e-08
-3.37074e-06 -4.68617e-08 -7.92956e-05
0.00105529 6.74061e-06 -1.18477e-05
6.74061e-06 -1.13586e-05 -4.81325e-08
-1.18477e-05 -4.81325e-08 -0.000125037
0.00139317 1.03635e-05 6.6252e-08
1.03635e-05 5.2387e-05 -1.72408e-08
6.6252e-08 -1.72408e-08 -7.13746e-05
0.0017292 3.23106e-05 -1.08357e-06
3.23106e-05 0.000112456 -3.0154e-08
-1.08357e-06 -3.0154e-08 6.43485e-06
0.00169045 0.000107488 -1.19498e-07
0.000107488 0.00010389 6.62192e-08
-1.19498e-07 6.62192e-08 -1.67067e-05
0.0018052 7.84638e-05 1.51351e-06
7.84638e-05 9.53139e-05 9.9921e-07
1.51351e-06 9.9921e-07 7.10587e-06
0.00163211 0.000162483 -2.45881e-07
0.000162483 0.000117822 -7.43883e-08
-2.45881e-07 -7.43883e-08 -2.40112e-05
0.00171705 0.000154179 -3.22429e-07
0.000154179 7.47053e-05 9.33531e-07
-3.22429e-07 9.33531e-07 -2.90951e-05
0.00170875 -1.95786e-07 -9.24149e-07
-1.95786e-07 0.000112207 5.14955e-08
-9.24149e-07 5.14955e-08 6.64756e-06
0.00168017 4.16495e-05 -1.37973e-07
4.16495e-05 3.63736e-05 7.82825e-07
-1.37973e-07 7.82825e-07 -5.08494e-05
0.00183367 0.000121638 -3.62045e-06
0.000121638 0.000118712 -9.91647e-07
-3.62045e-06 -9.91647e-07 2.69094e-05
0.00183962 8.33508e-05 1.9613e-06
8.33508e-05 9.89389e-05 1.2408e-07
1.9613e-06 1.2408e-07 2.85041e-05
0.00165378 0.000167231 -1.53853e-06
0.000167231 7.65988e-05 -2.6147e-06
-1.53853e-06 -2.6147e-06 -4.32368e-05
0.00186103 0.000165692 1.92274e-06
0.000165692 0.000119604 7.94014e-08
1.92274e-06 7.94014e-08 3.26291e-05
0.00140472 -1.09122e-05 -5.38623e-06
-1.09122e-05 6.22025e-05 2.8208e-07
-5.38623e-06 2.8208e-07 -6.13697e-05
0.00171633 -7.93658e-05 -6.87313e-06
-7.93658e-05 0.000251407 6.35687e-07
-6.87313e-06 6.35687e-07 0.000125541
0.00164947 -4.66046e-05 1.193e-06
-4.66046e-05 8.93737e-05 -7.03773e-07
1.193e-06 -7.03773e-07 -1.60633e-05
0.00167226 -0.000125204 -5.55164e-07
-0.000125204 0.00012367 -2.28669e-07
-5.55164e-07 -2.28669e-07 -3.51858e-06
0.000886405 -0.000138835 -4.95886e-06
-0.000138835 0.000154909 4.98843e-06
-4.95886e-06 4.98843e-06 2.45655e-05
0.00119237 -0.000213751 -3.82854e-06
-0.000213751 0.000243606 4.21955e-06
-3.82854e-06 4.21955e-06 6.21454e-05
0.000852601 -0.000216859 -2.92987e-06
-0.000216859 -0.000106496 6.44362e-07
-2.92987e-06 6.44362e-07 -0.000309646
0.00160749 -0.000188981 -1.71527e-06
-0.000188981 0.000154547 3.96258e-08
-1.71527e-06 3.96258e-08 6.21175e-06
0.00180023 -0.000180459 3.26185e-06
-0.000180459 0.000165839 -1.95258e-06
3.26185e-06 -1.95258e-06 5.86673e-05
0.00167139 -0.000239709 1.83489e-06
-0.000239709 0.000150636 -1.43071e-06
1.83489e-06 -1.43071e-06 2.04195e-06
0.00161796 -0.000287879 -1.26463e-06
-0.000287879 0.000199594 -1.60877e-06
-1.26463e-06 -1.60877e-06 -3.31047e-06
0.00199246 -0.000286505 4.63225e-06
-0.000286505 0.000330946 -6.28671e-06
4.63225e-06 -6.28671e-06 0.000179054
0.000912454 -0.00014465 -1.29851e-06
-0.00014465 0.000163016 3.20562e-07
-1.29851e-06 3.20562e-07 1.73277e-05
0.000748267 -0.000134579 -9.69809e-07
-0.000134579 7.60374e-05 -1.26796e-06
-9.69809e-07 -1.26796e-06 -7.64008e-05
0.00071669 -2.15795e-05 -1.52701e-06
-2.15795e-05 6.44236e-05 3.22109e-06
-1.52701e-06 3.22109e-06 -1.31038e-05
0.00045951 -4.33263e-06 1.90294e-07
-4.33263e-06 -7.11706e-05 -2.52804e-07
1.90294e-07 -2.52804e-07 -0.000191926
0.00166845 -2.8833e-05 -1.55679e-08
-2.8833e-05 9.64879e-05 4.32957e-08
-1.55679e-08 4.32957e-08 -1.23268e-05
0.00176082 -8.58713e-05 -1.25182e-07
-8.58713e-05 0.000156644 -1.92216e-07
-1.25182e-07 -1.92216e-07 3.97231e-05
0.00169599 -6.22531e-05 1.48065e-06
-6.22531e-05 4.79898e-05 -3.87354e-07
1.48065e-06 -3.87354e-07 -4.33585e-05
0.00169892 -0.000152811 -1.3322e-06
-0.000152811 7.47648e-05 5.94346e-07
-1.3322e-06 5.94346e-07 -2.42491e-05
0.000965672 -0.000169839 -3.98908e-07
-0.000169839 0.000172073 9.89668e-07
-3.98908e-07 9.89668e-07 1.46609e-05
0.000770655 -0.000201988 1.35282e-06
-0.000201988 -3.14411e-05 -2.10681e-06
1.35282e-06 -2.10681e-06 -0.000230357
0.00161294 -0.00030908 -1.00568e-07
-0.00030908 0.000270919 8.17233e-07
-1.00568e-07 8.17233e-07 3.82999e-05
0.00164499 -0.00020896 -1.4316e-06
-0.00020896 0.000103644 6.82427e-07
-1.4316e-06 6.82427e-07 -2.76989e-05
0.00174528 -0.000179239 2.05753e-06
-0.000179239 9.79214e-05 -1.08804e-06
2.05753e-06 -1.08804e-06 6.81564e-06
0.00169139 -0.000305104 -7.40619e-07
-0.000305104 0.000201057 9.85329e-07
-7.40619e-07 9.85329e-07 1.4939e-06
0.00166693 -0.000258477 -3.772e-07
-0.000258477 0.00010771 9.88906e-07
-3.772e-07 9.88906e-07 -2.13068e-05
0.00180261 -0.000274881 3.0922e-06
-0.000274881 0.000191449 -4.63055e-06
3.0922e-06 -4.63055e-06 4.70758e-05
0.00100461 -0.000192755 3.06864e-07
-0.000192755 0.000201401 9.80976e-07
3.06864e-07 9.80976e-07 3.96842e-05
0.00117926 -0.00020165 2.17106e-06
-0.00020165 0.000314392 8.83634e-07
2.17106e-06 8.83634e-07 0.00015534
0.00082336 -9.80074e-05 -3.52625e-07
-9.80074e-05 0.000152143 1.17047e-07
-3.52625e-07 1.17047e-07 -2.79496e-06
0.000512278 1.80822e-06 -9.79095e-07
1.80822e-06 -5.39377e-05 2.24237e-07
-9.79095e-07 2.24237e-07 -0.000123731
0.000480099 6.28778e-06 -2.18376e-07
6.28778e-06 -4.88538e-05 -7.28616e-07
-2.18376e-07 -7.28616e-07 -0.000164579
0.00178809 -3.95972e-05 1.91813e-07
-3.95972e-05 9.78256e-05 -4.90842e-07
1.91813e-07 -4.90842e-07 1.15317e-05
0.00179192 -9.04406e-05 7.85889e-07
-9.04406e-05 9.44844e-05 4.25749e-07
7.85889e-07 4.25749e-07 8.87084e-06
0.00183842 -0.000178248 -6.1682e-07
-0.000178248 0.000120444 -7.20306e-07
-6.1682e-07 -7.20306e-07 4.07271e-05
0.0015641 -0.000207417 -8.00879e-07
-0.000207417 1.34527e-05 7.66726e-07
-8.00879e-07 7.66726e-07 -8.84382e-05
0.0010035 -0.000201164 -1.01731e-06
-0.000201164 0.000184874 -1.9129e-06
-1.01731e-06 -1.9129e-06 6.49562e-06
0.00216259 -0.000303295 -2.66554e-06
-0.000303295 0.000339535 1.39222e-06
-2.66554e-06 1.39222e-06 0.000215923
0.000465676 -0.000200315 1.78427e-06
-0.000200315 -0.000243231 -5.97012e-06
1.78427e-06 -5.97012e-06 -0.000460123
0.00177567 -0.000350695 3.85665e-06
-0.000350695 0.000315039 1.72931e-06
3.85665e-06 1.72931e-06 6.79045e-05
0.00153553 -0.000298719 1.64997e-06
-0.000298719 7.59292e-05 4.14944e-06
1.64997e-06 4.14944e-06 -0.000115959
0.000319279 1.48555e-05 7.77639e-07
1.48555e-05 -0.000166161 -3.54669e-06
7.77639e-07 -3.54669e-06 -0.0002284
0.000769885 -2.6633e-05 9.60811e-07
-2.6633e-05 0.00012526 -1.31233e-06
9.60811e-07 -1.31233e-06 1.71918e-05
0.000947223 -6.19199e-05 -4.85875e-07
-6.19199e-05 0.000219535 -4.0585e-07
-4.85875e-07 -4.0585e-07 8.3589e-05
0.00109713 -0.000207596 -3.58082e-06
-0.000207596 0.000239397 1.95202e-06
-3.58082e-06 1.95202e-06 7.667e-05
0.00066624 -0.000118608 3.05436e-06
-0.000118608 5.27209e-05 2.8576e-06
3.05436e-06 2.8576e-06 -0.000116464
0.000562548 -0.000168112 3.75575e-07
-0.000168112 -7.27232e-05 1.18455e-06
3.75575e-07 1.18455e-06 -0.000226462
0.000578682 -4.94357e-05 -1.12443e-06
-4.94357e-05 -2.90738e-05 -4.30046e-06
-1.12443e-06 -4.30046e-06 -4.82536e-05
0.000608319 -3.5391e-05 -1.87056e-06
-3.5391e-05 -3.29193e-06 -2.14407e-06
-1.87056e-06 -2.14407e-06 -5.87628e-05
0.0016101 0.000202101 -9.57684e-07
0.000202101 0.000128161 -1.94986e-09
-9.57684e-07 -1.94986e-09 -2.93167e-05
0.000613868 -6.41947e-05 1.45457e-06
-6.41947e-05 3.04886e-05 -1.96552e-06
1.45457e-06 -1.96552e-06 -7.1953e-05
0.000786308 0.000113943 -9.1599e-07
0.000113943 0.000101248 -6.12143e-07
-9.1599e-07 -6.12143e-07 -4.31975e-05
0.000417043 5.33554e-05 1.56926e-06
5.33554e-05 -8.8909e-05 1.32115e-07
1.56926e-06 1.32115e-07 -0.000231593
0.0015285 0.000246848 -1.1115e-06
0.000246848 0.000177392 -3.1658e-07
-1.1115e-06 -3.1658e-07 -3.1814e-06
0.00159834 0.000263507 7.62932e-07
0.000263507 0.000115713 5.89154e-07
7.62932e-07 5.89154e-07 -5.21374e-05
0.000983625 0.000200796 1.51801e-07
0.000200796 0.000188372 -1.58801e-06
1.51801e-07 -1.58801e-06 -3.2111e-05
0.0013219 0.000258443 -1.96749e-06
0.000258443 0.000170374 -5.96673e-07
-1.96749e-06 -5.96673e-07 -4.6175e-05
0.00177315 0.000296375 -4.14552e-06
0.000296375 0.000313038 -1.12456e-06
-4.14552e-06 -1.12456e-06 0.000120196
0.000658667 -1.97238e-05 -2.54515e-07
-1.97238e-05 1.59078e-05 8.35486e-08
-2.54515e-07 8.35486e-08 -3.3248e-05
0.000714653 -1.53396e-05 -9.06639e-07
-1.53396e-05 7.71427e-05 3.47364e-07
-9.06639e-07 3.47364e-07 -9.59757e-06
0.000987854 0.000188236 -7.77684e-07
0.000188236 0.000217982 -1.0585e-07
-7.77684e-07 -1.0585e-07 3.97892e-05
0.000792637 8.37783e-06 2.07712e-07
8.37783e-06 0.000135628 -1.615e-08
2.07712e-07 -1.615e-08 1.20672e-05
0.000952064 0.000123518 5.98305e-07
0.000123518 0.00021312 4.24283e-07
5.98305e-07 4.24283e-07 5.331e-05
0.00167449 0.000215037 -1.75412e-06
0.000215037 0.000125769 -1.27472e-06
-1.75412e-06 -1.27472e-06 -1.7899e-05
0.00163413 0.000293256 1.2973e-06
0.000293256 0.000180591 3.01976e-07
1.2973e-06 3.01976e-07 -5.47968e-06
0.0016443 0.000289947 5.08216e-07
0.000289947 0.000108634 2.15784e-07
5.08216e-07 2.15784e-07 -5.3707e-05
0.000744946 0.000198895 1.02731e-07
0.000198895 6.50425e-06 3.29279e-06
1.02731e-07 3.29279e-06 -0.000227972
0.00160365 0.000305832 -1.56082e-06
0.000305832 0.000246437 -5.96136e-07
-1.56082e-06 -5.96136e-07 3.17227e-05
0.000775947 2.5256e-05 9.42587e-07
2.5256e-05 0.00010266 1.56556e-06
9.42587e-07 1.56556e-06 2.50594e-05
0.000560588 -1.74459e-05 -1.09586e-06
-1.74459e-05 -5.13426e-06 2.61533e-06
-1.09586e-06 2.61533e-06 -0.000107532
0.000998018 0.000199541 -2.80885e-06
0.000199541 0.000196457 -9.55301e-07
-2.80885e-06 -9.55301e-07 3.84617e-06
0.000826295 7.69884e-05 -3.03218e-06
7.69884e-05 0.000173688 -2.31715e-06
-3.03218e-06 -2.31715e-06 1.74416e-05
0.000868324 0.000178993 -9.74786e-07
0.000178993 0.000139092 -1.91567e-06
-9.74786e-07 -1.91567e-06 -2.65483e-05
0.00157411 0.000229685 -6.18157e-08
0.000229685 -6.25864e-06 -2.51094e-06
-6.18157e-08 -2.51094e-06 -0.000125533
0.00185985 0.000336919 2.45454e-06
0.000336919 0.000282721 -1.8304e-06
2.45454e-06 -1.8304e-06 8.69004e-05
0.00150764 0.000296688 2.74452e-06
0.000296688 1.874e-05 2.31296e-07
2.74452e-06 2.31296e-07 -0.000145266
0.00177073 0.000294874 4.19252e-06
0.000294874 0.000516487 7.05302e-06
4.19252e-06 7.05302e-06 0.000262723
0.00166585 0.000329454 -4.11601e-07
0.000329454 0.000260336 -1.02777e-06
-4.11601e-07 -1.02777e-06 3.75586e-05
0.000650028 -2.81578e-05 -1.41066e-06
-2.81578e-05 8.51761e-06 -2.19028e-06
-1.41066e-06 -2.19028e-06 -3.89314e-05
0.000648134 1.56292e-05 7.39908e-07
1.56292e-05 2.22033e-05 3.74795e-07
7.39908e-07 3.74795e-07 -4.98635e-05
0.000582863 -1.0019e-05 -1.72261e-07
-1.0019e-05 -9.27232e-06 7.42576e-07
-1.72261e-07 7.42576e-07 -9.03486e-05
0.00049915 -3.50742e-05 -7.66182e-07
-3.50742e-05 -6.28621e-05 -1.10826e-06
-7.66182e-07 -1.10826e-06 -0.000133726
0.00069439 2.2947e-05 -1.5997e-07
2.2947e-05 5.45865e-05 3.3896e-08
-1.5997e-07 3.3896e-08 -1.76815e-05
0.000719193 2.82921e-05 -1.46389e-07
2.82921e-05 7.07457e-05 -3.59458e-07
-1.46389e-07 -3.59458e-07 -1.13014e-05
0.000835828 5.68387e-05 -6.48799e-07
5.68387e-05 0.000147365 -1.00343e-06
-6.48799e-07 -1.00343e-06 5.57605e-05
0.000589551 -2.18834e-05 7.10521e-07
-2.18834e-05 5.97431e-06 4.49808e-07
7.10521e-07 4.49808e-07 -8.40723e-05
0.000716127 4.1754e-05 7.78617e-07
4.1754e-05 6.37668e-05 1.23499e-06
7.78617e-07 1.23499e-06 -5.6459e-06
0.00066563 2.01056e-05 1.60009e-06
2.01056e-05 1.96737e-05 2.14897e-06
1.60009e-06 2.14897e-06 -2.60855e-05
0.000665828 -5.50309e-06 -7.71551e-07
-5.50309e-06 1.65454e-05 1.65287e-08
-7.71551e-07 1.65287e-08 -2.85352e-05
0.00126417 -2.85611e-05 8.2611e-07
-2.85611e-05 0.000350499 2.38634e-06
8.2611e-07 2.38634e-06 0.000342003
0.000648537 -3.58581e-05 -5.21455e-07
-3.58581e-05 6.59949e-06 -2.1195e-06
-5.21455e-07 -2.1195e-06 -3.92933e-05
0.00129535 -3.68671e-05 -4.34494e-06
-3.68671e-05 0.000371652 -1.40208e-06
-4.34494e-06 -1.40208e-06 0.000362425
0.000889441 -3.08926e-05 1.8599e-05
-3.08926e-05 0.000141448 7.54579e-06
1.8599e-05 7.54579e-06 0.000149231
0.00132108 -4.55426e-05 -8.30298e-06
-4.55426e-05 0.000391106 -5.24958e-06
-8.30298e-06 -5.24958e-06 0.000380542
0.000827845 -3.84602e-05 6.99701e-06
-3.84602e-05 0.0001112 2.81767e-06
6.99701e-06 2.81767e-06 0.000117222
0.00218132 -8.00513e-05 -5.35192e-06
-8.00513e-05 0.000912886 -1.80678e-06
-5.35192e-06 -1.80678e-06 0.000921984
0.0005542 4.16966e-05 9.66464e-08
4.16966e-05 -4.32015e-05 -4.063e-06
9.66464e-08 -4.063e-06 -6.29306e-05
0.000547382 4.82979e-05 5.25883e-08
4.82979e-05 -3.71627e-05 1.1122e-07
5.25883e-08 1.1122e-07 -6.35542e-05
0.00248509 9.07857e-05 2.87869e-05
9.07857e-05 0.00109955 -3.67939e-06
2.87869e-05 -3.67939e-06 0.00110473
0.00058993 2.78471e-05 -2.7254e-06
2.78471e-05 -9.91585e-06 5.82723e-06
-2.7254e-06 5.82723e-06 -3.96388e-05
0.00274941 0.000104638 -5.43799e-06
0.000104638 0.00125965 -3.58042e-07
-5.43799e-06 -3.58042e-07 0.00126144
0.00307491 0.00010021 -7.55879e-05
0.00010021 0.00145155 3.57809e-06
-7.55879e-05 3.57809e-06 0.00145423
0.00161737 0.000163078 -1.33806e-06
0.000163078 0.000107466 7.01707e-07
-1.33806e-06 7.01707e-07 -3.49131e-05
0.00171139 0.000105442 1.04422e-06
0.000105442 0.00011688 9.69323e-07
1.04422e-06 9.69323e-07 -3.4237e-06
0.00172696 0.000151463 2.34024e-06
0.000151463 7.75607e-05 2.28532e-06
2.34024e-06 2.28532e-06 -2.36103e-05
0.00181032 7.83708e-05 3.14502e-06
7.83708e-05 9.68544e-05 7.13852e-07
3.14502e-06 7.13852e-07 1.25461e-05
0.00173657 2.48405e-05 -7.32416e-07
2.48405e-05 0.000118006 6.72016e-08
-7.32416e-07 6.72016e-08 1.22627e-05
0.00138937 1.30832e-05 -3.24289e-06
1.30832e-05 4.99862e-05 3.65258e-08
-3.24289e-06 3.65258e-08 -7.38265e-05
0.00168707 2.15575e-06 -9.67628e-07
2.15575e-06 9.96201e-05 -4.3273e-08
-9.67628e-07 -4.3273e-08 -7.49121e-06
0.00171708 3.76608e-05 1.11082e-06
3.76608e-05 6.05117e-05 -1.94044e-08
1.11082e-06 -1.94044e-08 -2.85298e-05
0.00180605 0.000120011 -1.29512e-06
0.000120011 0.000102871 -4.13403e-07
-1.29512e-06 -4.13403e-07 9.77712e-06
0.00177365 8.16903e-05 2.24792e-06
8.16903e-05 6.07913e-05 4.68894e-07
2.24792e-06 4.68894e-07 -6.13769e-06
0.00166895 0.00016596 -7.2877e-07
0.00016596 9.16824e-05 -2.15111e-07
-7.2877e-07 -2.15111e-07 -2.8115e-05
0.00180109 0.000167078 3.43696e-06
0.000167078 8.3937e-05 1.20885e-06
3.43696e-06 1.20885e-06 5.89761e-08
0.00173018 -4.73138e-06 -9.03543e-07
-4.73138e-06 8.18862e-05 2.07049e-08
-9.03543e-07 2.07049e-08 -6.8418e-06
0.0017369 4.34338e-05 2.18305e-06
4.34338e-05 3.69092e-05 5.41132e-07
2.18305e-06 5.41132e-07 -2.5027e-05
0.00184544 0.000121513 1.64097e-06
0.000121513 8.70547e-05 -4.08643e-07
1.64097e-06 -4.08643e-07 1.70363e-05
0.00184858 0.000203394 1.33991e-07
0.000203394 0.000120877 -1.3221e-06
1.33991e-07 -1.3221e-06 2.94443e-05
0.00165896 -2.86084e-05 4.14604e-07
-2.86084e-05 9.20047e-05 1.23733e-07
4.14604e-07 1.23733e-07 -1.69177e-05
0.0016779 -8.69103e-05 1.04317e-06
-8.69103e-05 0.000109312 -1.10952e-06
1.04317e-06 -1.10952e-06 -9.58611e-06
0.00177719 -6.24941e-05 3.25797e-06
-6.24941e-05 9.54307e-05 -7.18192e-07
3.25797e-06 -7.18192e-07 6.45569e-06
0.00163796 -0.00014936 7.5095e-08
-0.00014936 4.7187e-05 -2.19159e-07
7.5095e-08 -2.19159e-07 -5.36995e-05
0.00112786 -0.000183093 -1.56164e-06
-0.000183093 0.000265864 3.22662e-06
-1.56164e-06 3.22662e-06 0.000105479
0.000948667 -0.000214177 2.06062e-07
-0.000214177 7.27587e-05 1.99451e-06
2.06062e-07 1.99451e-06 -0.000124953
0.00151511 -0.000301967 -3.5779e-06
-0.000301967 0.000211442 1.5173e-06
-3.5779e-06 1.5173e-06 -2.23408e-05
0.00159201 -0.000206296 1.84676e-07
-0.000206296 7.83334e-05 -6.94993e-07
1.84676e-07 -6.94993e-07 -5.62249e-05
0.00165721 -0.000178804 3.6095e-06
-0.000178804 4.28591e-05 -2.46893e-06
3.6095e-06 -2.46893e-06 -4.49603e-05
0.00171965 -0.000260869 3.01942e-06
-0.000260869 0.00013836 -9.40264e-07
3.01942e-06 -9.40264e-07 9.09088e-06
0.00167648 -0.000305754 -1.54321e-06
-0.000305754 0.000193768 -3.24935e-06
-1.54321e-06 -3.24935e-06 -6.69055e-06
0.00169576 -0.000269688 2.33884e-06
-0.000269688 0.000121753 -1.05189e-05
2.33884e-06 -1.05189e-05 -1.88597e-05
0.0011908 -0.000209148 1.15304e-06
-0.000209148 0.000308334 3.52706e-07
1.15304e-06 3.52706e-07 0.000143591
0.00103843 -0.000190149 1.59343e-06
-0.000190149 0.000225532 -3.43927e-06
1.59343e-06 -3.43927e-06 7.08774e-05
0.000772538 -7.82793e-05 3.09056e-07
-7.82793e-05 0.000119138 -7.90567e-07
3.09056e-07 -7.90567e-07 -3.45195e-05
0.000403738 1.4062e-05 -1.57108e-06
1.4062e-05 -0.000115964 2.83135e-06
-1.57108e-06 2.83135e-06 -0.00018764
0.000460305 3.25927e-05 6.48509e-07
3.25927e-05 -6.18006e-05 5.2246e-07
6.48509e-07 5.2246e-07 -0.000174401
0.00184056 -4.35642e-05 3.94822e-07
-4.35642e-05 0.000130124 -9.28781e-08
3.94822e-07 -9.28781e-08 4.35347e-05
0.00182775 -9.44042e-05 9.27127e-07
-9.44042e-05 0.000113748 -5.5568e-07
9.27127e-07 -5.5568e-07 2.69562e-05
0.00178311 -0.000173414 -1.80212e-06
-0.000173414 9.16833e-05 1.44201e-07
-1.80212e-06 1.44201e-07 1.04061e-05
0.00109195 -0.000207422 -3.34194e-07
-0.000207422 0.000233195 1.08896e-06
-3.34194e-07 1.08896e-06 5.38943e-05
0.00103322 -0.000243138 1.89704e-06
-0.000243138 7.66407e-05 -3.10103e-06
1.89704e-06 -3.10103e-06 -0.000142712
0.00165352 -0.000343627 -2.3854e-07
-0.000343627 0.000248923 8.85443e-07
-2.3854e-07 8.85443e-07 -8.49288e-07
0.00159661 -0.000208511 3.44595e-07
-0.000208511 2.8073e-05 -2.52511e-07
3.44595e-07 -2.52511e-07 -7.42403e-05
0.00163142 -0.000300921 8.7267e-07
-0.000300921 0.00013227 -2.54158e-06
8.7267e-07 -2.54158e-06 -5.39206e-05
0.00182816 -0.000284767 -4.99402e-07
-0.000284767 0.000158216 -1.07376e-06
-4.99402e-07 -1.07376e-06 3.44937e-05
0.00035137 2.54233e-05 7.05414e-08
2.54233e-05 -0.000150323 -8.14482e-07
7.05414e-08 -8.14482e-07 -0.000210099
0.00113847 -0.00020989 -2.47485e-07
-0.00020989 0.000256665 8.78495e-07
-2.47485e-07 8.78495e-07 9.43041e-05
0.000673929 -0.000174867 -5.13325e-07
-0.000174867 2.0982e-07 2.58572e-07
-5.13325e-07 2.58572e-07 -0.000148724
0.000945327 -0.000142128 -4.943e-07
-0.000142128 0.000216548 3.11223e-07
-4.943e-07 3.11223e-07 4.08444e-05
0.00102636 -6.20372e-05 -3.07712e-08
-6.20372e-05 0.000265583 -2.78125e-07
-3.07712e-08 -2.78125e-07 0.000130074
0.000648684 5.3176e-06 -3.70166e-07
5.3176e-06 5.00458e-05 3.76413e-07
-3.70166e-07 3.76413e-07 -5.56231e-05
0.00152384 -4.84467e-05 -3.40247e-07
-4.84467e-05 -7.63175e-05 7.38531e-08
-3.40247e-07 7.38531e-08 -0.000150376
0.00196385 -0.000132713 1.65981e-06
-0.000132713 0.000130198 -1.97238e-07
1.65981e-06 -1.97238e-07 6.81273e-05
0.00156918 -0.000198329 7.99094e-07
-0.000198329 -4.51549e-05 -4.61649e-07
7.99094e-07 -4.61649e-07 -0.00012275
0.00197658 -0.000262506 -1.06182e-06
-0.000262506 0.000169281 -1.00067e-06
-1.06182e-06 -1.00067e-06 7.35453e-05
0.00113773 -0.000225148 -2.63189e-06
-0.000225148 0.000230763 -1.92572e-06
-2.63189e-06 -1.92572e-06 4.19029e-05
0.00181792 -0.000317622 2.00646e-06
-0.000317622 0.00017251 4.33875e-06
2.00646e-06 4.33875e-06 1.93677e-05
0.00126992 -0.000302327 -4.25598e-07
-0.000302327 0.000142872 -2.6806e-06
-4.25598e-07 -2.6806e-06 -0.000123602
0.00162002 -0.000356139 -1.56574e-07
-0.000356139 0.000213547 3.78623e-06
-1.56574e-07 3.78623e-06 -4.6781e-05
0.000338383 4.52411e-05 -1.23059e-06
4.52411e-05 -0.000162551 -2.66943e-06
-1.23059e-06 -2.66943e-06 -0.000214045
0.000774739 -5.66751e-06 5.59011e-07
-5.66751e-06 0.000120121 -1.21331e-06
5.59011e-07 -1.21331e-06 2.68342e-05
0.000978561 -8.75385e-05 -6.49625e-07
-8.75385e-05 0.000243599 7.93521e-07
-6.49625e-07 7.93521e-07 0.000119127
0.000882914 -2.067e-05 -1.14949e-06
-2.067e-05 0.000184887 8.748e-07
-1.14949e-06 8.748e-07 2.24283e-05
0.000744782 -0.000193247 -1.49312e-06
-0.000193247 6.46981e-06 -5.09724e-07
-1.49312e-06 -5.09724e-07 -0.000153939
0.000946294 -0.00019693 -4.72621e-06
-0.00019693 0.000163713 2.2053e-06
-4.72621e-06 2.2053e-06 -1.20023e-05
0.000633566 -2.80268e-05 -2.04436e-06
-2.80268e-05 2.25643e-06 -2.12084e-06
-2.04436e-06 -2.12084e-06 -4.71426e-05
0.000632597 -5.37487e-05 1.00841e-07
-5.37487e-05 2.75938e-05 -1.39245e-06
1.00841e-07 -1.39245e-06 -5.59782e-05
0.00167197 0.000217896 -1.66229e-06
0.000217896 0.000122847 -2.73488e-08
-1.66229e-06 -2.73488e-08 -2.20101e-05
0.000556251 -2.66953e-05 7.73958e-07
-2.66953e-05 -3.40735e-06 -1.10527e-06
7.73958e-07 -1.10527e-06 -0.000121292
0.00097825 0.000187109 9.61718e-07
0.000187109 0.000213907 -1.0474e-06
9.61718e-07 -1.0474e-06 3.61053e-05
0.000325776 6.80176e-05 2.11913e-06
6.80176e-05 -0.000152861 1.0763e-06
2.11913e-06 1.0763e-06 -0.000302354
0.00163142 0.00029222 -2.56012e-07
0.00029222 0.000175257 3.34534e-07
-2.56012e-07 3.34534e-07 -1.09423e-05
0.00180169 0.000295727 -1.50523e-06
0.000295727 0.00019745 1.2416e-06
-1.50523e-06 1.2416e-06 3.57691e-05
0.000617344 0.000191175 -1.46919e-06
0.000191175 -7.29231e-05 8.3739e-07
-1.46919e-06 8.3739e-07 -0.000304645
0.00180269 0.000321396 -2.52072e-06
0.000321396 0.000366435 8.80883e-07
-2.52072e-06 8.80883e-07 0.000146473
0.000707525 1.03466e-06 -7.60552e-07
1.03466e-06 6.10314e-05 1.62963e-07
-7.60552e-07 1.62963e-07 -1.41901e-05
0.0006511 3.26046e-06 3.52255e-07
3.26046e-06 4.64753e-05 1.1557e-06
3.52255e-07 1.1557e-06 -5.74182e-05
0.00117805 0.000214828 -4.1534e-07
0.000214828 0.000309419 -2.60896e-06
-4.1534e-07 -2.60896e-06 0.000112269
0.000565019 1.08416e-05 -6.42987e-07
1.08416e-05 4.56723e-06 -2.28315e-07
-6.42987e-07 -2.28315e-07 -0.00013614
0.000685134 0.000147393 -1.57168e-06
0.000147393 2.81412e-05 -6.37138e-07
-1.57168e-06 -6.37138e-07 -0.000121076
0.0018494 0.000240067 -2.51837e-06
0.000240067 0.000150657 -1.2978e-06
-2.51837e-06 -1.2978e-06 3.34774e-05
0.00191641 0.000336818 1.34456e-06
0.000336818 0.000317148 -2.32064e-07
1.34456e-06 -2.32064e-07 0.000123081
0.00166114 0.000312685 1.28586e-06
0.000312685 9.95726e-05 1.833e-06
1.28586e-06 1.833e-06 -6.65554e-05
0.00138159 0.000266152 3.00932e-06
0.000266152 0.000304412 4.17765e-06
3.00932e-06 4.17765e-06 4.65345e-05
0.00158927 0.000327311 -2.9504e-06
0.000327311 0.000215138 4.97168e-07
-2.9504e-06 4.97168e-07 -1.0141e-05
0.000445032 -2.60566e-05 -3.93882e-07
-2.60566e-05 -7.90401e-05 2.20266e-06
-3.93882e-07 2.20266e-06 -0.000166032
0.00035185 7.02434e-05 -7.51064e-08
7.02434e-05 -0.000101098 1.1833e-06
-7.51064e-08 1.1833e-06 -0.000233938
0.00123438 0.000227316 1.6157e-06
0.000227316 0.000303158 3.23506e-06
1.6157e-06 3.23506e-06 8.94743e-05
-0.000436689 5.34725e-05 2.70537e-06
5.34725e-05 -0.000585157 -6.54842e-08
2.70537e-06 -6.54842e-08 -0.000741927
0.00187845 0.000249087 -2.87488e-06
0.000249087 3.6729e-05 -9.14217e-07
-2.87488e-06 -9.14217e-07 -3.92012e-05
0.00208985 0.000296658 5.59995e-07
0.000296658 0.000281738 -1.02117e-07
5.59995e-07 -1.02117e-07 0.000148642
0.00178122 0.000365711 -1.95951e-06
0.000365711 0.000225668 -3.13208e-06
-1.95951e-06 -3.13208e-06 1.63341e-05
-3.37341e-05 0.000175355 -3.48558e-07
0.000175355 -0.0005678 1.5902e-06
-3.48558e-07 1.5902e-06 -0.000823881
0.000706163 3.99653e-05 -8.79757e-07
3.99653e-05 6.07972e-05 -5.38437e-07
-8.79757e-07 -5.38437e-07 -1.41617e-05
0.000658122 1.93537e-05 -1.41809e-07
1.93537e-05 3.97402e-05 4.31558e-07
-1.41809e-07 4.31558e-07 -4.48548e-05
0.000881088 5.29681e-06 -1.09017e-06
5.29681e-06 0.000170318 -8.71711e-07
-1.09017e-06 -8.71711e-07 8.58664e-05
0.00067946 -1.14266e-05 -1.35339e-06
-1.14266e-05 4.02054e-05 -1.09908e-06
-1.35339e-06 -1.09908e-06 -2.76132e-05
0.000520289 -1.74146e-05 -2.13522e-07
-1.74146e-05 -4.18892e-05 -7.55728e-07
-2.13522e-07 -7.55728e-07 -0.000124355
0.000701924 1.33741e-05 2.18474e-08
1.33741e-05 5.73184e-05 -5.89901e-09
2.18474e-08 -5.89901e-09 -1.31462e-05
0.000686851 5.63701e-05 -4.96602e-07
5.63701e-05 6.99723e-05 -3.39734e-07
-4.96602e-07 -3.39734e-07 -2.58305e-05
0.000658039 8.93279e-06 5.92457e-07
8.93279e-06 4.79754e-05 3.7595e-07
5.92457e-07 3.7595e-07 -4.33623e-05
0.000767503 2.68651e-05 9.29037e-07
2.68651e-05 0.000105784 -1.26511e-07
9.29037e-07 -1.26511e-07 1.57792e-05
0.000736158 -3.0152e-05 1.07902e-06
-3.0152e-05 9.28513e-05 -5.01316e-07
1.07902e-06 -5.01316e-07 -4.83883e-06
0.000576246 3.27463e-05 5.69002e-07
3.27463e-05 -2.4531e-06 1.165e-06
5.69002e-07 1.165e-06 -9.43393e-05
0.000688729 5.42857e-05 1.05509e-06
5.42857e-05 5.2044e-05 1.54922e-06
1.05509e-06 1.54922e-06 -2.06072e-05
0.000633286 3.06137e-05 1.11577e-06
3.06137e-05 5.99985e-06 2.01096e-06
1.11577e-06 2.01096e-06 -4.1526e-05
0.000645097 -4.60057e-06 -6.61345e-07
-4.60057e-06 8.52903e-06 1.63845e-08
-6.61345e-07 1.63845e-08 -3.77363e-05
0.00127243 -1.79498e-05 6.42007e-07
-1.79498e-05 0.000353653 2.32246e-06
6.42007e-07 2.32246e-06 0.000345551
0.000646218 -3.23439e-05 -2.53323e-07
-3.23439e-05 6.32288e-06 -2.15948e-06
-2.53323e-07 -2.15948e-06 -3.94463e-05
0.0013021 -2.58917e-05 -3.61839e-06
-2.58917e-05 0.000372726 -1.47013e-06
-3.61839e-06 -1.47013e-06 0.000364279
0.000893677 -2.35796e-05 1.55332e-05
-2.35796e-05 0.00013943 7.85889e-06
1.55332e-05 7.85889e-06 0.000148098
0.00132915 -3.46973e-05 -6.88467e-06
-3.46973e-05 0.000391287 -5.27066e-06
-6.88467e-06 -5.27066e-06 0.000382093
0.000836 -3.12927e-05 5.67064e-06
-3.12927e-05 0.000109728 2.9263e-06
5.67064e-06 2.9263e-06 0.000117332
0.000772708 -3.76768e-05 -1.594e-06
-3.76768e-05 7.87574e-05 -2.02204e-06
-1.594e-06 -2.02204e-06 8.47958e-05
0.000571901 3.49204e-05 4.47227e-07
3.49204e-05 -4.27482e-05 -3.59707e-06
4.47227e-07 -3.59707e-06 -5.72734e-05
0.000568524 4.52806e-05 -7.98393e-08
4.52806e-05 -3.4022e-05 1.05376e-07
-7.98393e-08 1.05376e-07 -5.45132e-05
0.00229795 7.59656e-05 2.29528e-05
7.59656e-05 0.000982675 -3.85735e-06
2.29528e-05 -3.85735e-06 0.000991773
0.000573666 3.96882e-05 -1.75106e-06
3.96882e-05 -2.33596e-05 5.09545e-06
-1.75106e-06 5.09545e-06 -4.88305e-05
0.0025507 9.19703e-05 -4.94213e-06
9.19703e-05 0.00113794 -3.27404e-07
-4.94213e-06 -3.27404e-07 0.00114286
0.00282454 9.7031e-05 -5.60559e-05
9.7031e-05 0.00130199 3.30397e-06
-5.60559e-05 3.30397e-06 0.0013057
0.00168216 0.0001647 8.79685e-07
0.0001647 0.000105663 2.27263e-06
8.79685e-07 2.27263e-06 -1.41081e-05
0.00178221 0.000118327 2.30475e-07
0.000118327 8.93867e-05 4.86879e-07
2.30475e-07 4.86879e-07 -4.99804e-06
0.00174582 0.000168468 3.94293e-06
0.000168468 5.10933e-05 1.84282e-06
3.94293e-06 1.84282e-06 -2.97075e-05
0.00171569 8.03259e-05 2.40974e-06
8.03259e-05 2.7658e-05 1.00018e-06
2.40974e-06 1.00018e-06 -3.57773e-05
0.00175717 3.44675e-05 2.82214e-06
3.44675e-05 8.66e-05 -1.73845e-07
2.82214e-06 -1.73845e-07 -4.30783e-06
0.00167045 9.44697e-07 -8.17252e-07
9.44697e-07 8.96085e-05 -2.30937e-08
-8.17252e-07 -2.30937e-08 -1.89873e-05
0.00176098 -1.47051e-06 -2.2083e-07
-1.47051e-06 0.000100427 -1.95493e-08
-2.2083e-07 -1.95493e-08 1.21798e-05
0.00171412 4.2788e-05 1.94232e-06
4.2788e-05 3.37039e-05 -2.6473e-07
1.94232e-06 -2.6473e-07 -3.01612e-05
0.00182898 0.000125301 3.22267e-07
0.000125301 7.64322e-05 -4.85384e-07
3.22267e-07 -4.85384e-07 6.35296e-06
0.00191556 0.000201034 2.58194e-07
0.000201034 0.000147398 2.57686e-07
2.58194e-07 2.57686e-07 5.77692e-05
0.00165224 -3.98179e-06 -1.30492e-06
-3.98179e-06 4.00225e-06 4.38182e-08
-1.30492e-06 4.38182e-08 -6.361e-05
0.00196136 8.69452e-05 3.12219e-06
8.69452e-05 9.64282e-05 2.02961e-07
3.12219e-06 2.02961e-07 5.40351e-05
0.00178982 0.000182537 1.59868e-06
0.000182537 2.69648e-06 -4.25471e-07
1.59868e-06 -4.25471e-07 -6.69455e-05
0.00189584 -4.74156e-05 1.82007e-06
-4.74156e-05 0.000163946 2.36435e-07
1.82007e-06 2.36435e-07 7.70617e-05
0.00186091 -9.80777e-05 7.33898e-07
-9.80777e-05 0.000131607 -7.70827e-07
7.33898e-07 -7.70827e-07 4.36475e-05
0.0017269 -0.000167975 -1.06484e-06
-0.000167975 6.32006e-05 1.21193e-07
-1.06484e-06 1.21193e-07 -1.96671e-05
0.00118785 -0.000214284 -2.34501e-08
-0.000214284 0.000285653 4.13018e-06
-2.34501e-08 4.13018e-06 0.00010536
0.0017175 -0.000295211 -1.64045e-06
-0.000295211 0.000462249 2.02873e-06
-1.64045e-06 2.02873e-06 0.000239675
0.00156576 -0.000339591 -3.614e-06
-0.000339591 0.000202123 -8.11984e-08
-3.614e-06 -8.11984e-08 -4.96077e-05
0.00162619 -0.000209421 5.24618e-07
-0.000209421 4.133e-05 -6.85951e-07
5.24618e-07 -6.85951e-07 -6.13436e-05
0.00149752 -0.000268699 -2.3765e-07
-0.000268699 -2.37719e-05 -3.08787e-06
-2.3765e-07 -3.08787e-06 -0.000148065
0.00172127 -0.0003035 -2.06275e-06
-0.0003035 0.000182992 -8.36858e-06
-2.06275e-06 -8.36858e-06 2.29066e-06
0.0011622 -0.000210802 1.87819e-06
-0.000210802 0.000263923 7.36223e-07
1.87819e-06 7.36223e-07 0.000102114
0.000693286 -0.000173301 -6.82651e-06
-0.000173301 2.06562e-05 -8.47025e-07
-6.82651e-06 -8.47025e-07 -0.000122216
0.00130296 -0.000169841 -7.79205e-08
-0.000169841 0.000432288 -1.78121e-07
-7.79205e-08 -1.78121e-07 0.000245304
0.000396158 1.87067e-05 -6.90051e-08
1.87067e-05 -0.000124894 1.26928e-06
-6.90051e-08 1.26928e-06 -0.000183761
0.000933068 -5.96152e-05 7.05709e-07
-5.96152e-05 0.000207923 5.23289e-07
7.05709e-07 5.23289e-07 7.70057e-05
0.000535726 3.38318e-05 1.43808e-06
3.38318e-05 -2.14852e-05 1.85002e-06
1.43808e-06 1.85002e-06 -0.000124334
0.00171551 -4.95162e-05 -8.09282e-07
-4.95162e-05 3.13851e-05 9.71803e-08
-8.09282e-07 9.71803e-08 -4.22453e-05
0.00195869 -0.000136414 1.31152e-07
-0.000136414 0.000129508 -8.76942e-08
1.31152e-07 -8.76942e-08 6.50565e-05
0.00165933 -0.000199571 -1.58524e-07
-0.000199571 7.44702e-06 4.53554e-07
-1.58524e-07 4.53554e-07 -7.02398e-05
0.00117334 -0.000225733 -1.55881e-07
-0.000225733 0.000247372 1.78448e-06
-1.55881e-07 1.78448e-06 5.86236e-05
0.00108449 -0.000282458 -1.60877e-06
-0.000282458 4.66614e-05 1.21094e-07
-1.60877e-06 1.21094e-07 -0.000209384
0.00167474 -0.000357736 -3.27546e-06
-0.000357736 0.000244693 -5.3681e-08
-3.27546e-06 -5.3681e-08 -9.13248e-06
0.00193444 -0.000266064 1.05233e-06
-0.000266064 0.00014728 -5.69643e-07
1.05233e-06 -5.69643e-07 4.97329e-05
0.0016948 -0.000313501 1.11349e-06
-0.000313501 9.59248e-05 -1.95215e-06
1.11349e-06 -1.95215e-06 -5.74254e-05
0.000494079 3.45888e-05 1.29959e-08
3.45888e-05 -7.4369e-05 -8.38251e-07
1.29959e-08 -8.38251e-07 -0.000122575
0.000782047 -6.94097e-06 -5.08674e-07
-6.94097e-06 0.000123489 2.99837e-07
-5.08674e-07 2.99837e-07 3.06835e-05
0.000380588 -0.000161152 -2.80734e-06
-0.000161152 -0.00019942 2.36048e-06
-2.80734e-06 2.36048e-06 -0.000352745
0.00136604 -0.000218082 6.05737e-08
-0.000218082 0.000415674 -1.97448e-07
6.05737e-08 -1.97448e-07 0.000241938
0.000931345 -5.31032e-05 -1.3874e-07
-5.31032e-05 0.000218677 -2.88093e-07
-1.3874e-07 -2.88093e-07 5.62275e-05
0.000853027 -6.24119e-05 -4.18582e-07
-6.24119e-05 0.00017082 1.30407e-06
-4.18582e-07 1.30407e-06 4.62366e-05
0.00192252 -7.67878e-05 2.93582e-06
-7.67878e-05 8.10899e-05 2.20146e-07
2.93582e-06 2.20146e-07 3.37388e-05
0.00187031 -0.000190797 6.39554e-07
-0.000190797 3.25715e-05 -1.1466e-06
6.39554e-07 -1.1466e-06 -6.94966e-06
0.00182787 -0.000222071 5.09375e-07
-0.000222071 6.00411e-05 -8.04977e-07
5.09375e-07 -8.04977e-07 -8.80989e-06
0.00203075 -0.000357258 5.91478e-06
-0.000357258 0.000171969 -1.1596e-06
5.91478e-06 -1.1596e-06 5.05422e-05
0.000112545 -0.000161081 -3.61599e-06
-0.000161081 -0.000382487 -3.19384e-06
-3.61599e-06 -3.19384e-06 -0.00058067
0.00171075 -0.000368048 -1.09337e-06
-0.000368048 0.000229591 1.09055e-05
-1.09337e-06 1.09055e-05 -5.22511e-06
0.00252101 -0.000434351 1.27248e-06
-0.000434351 0.000818605 -3.78408e-06
1.27248e-06 -3.78408e-06 0.000516078
0.000659972 3.49993e-05 4.27543e-07
3.49993e-05 1.4738e-05 -1.70199e-06
4.27543e-07 -1.70199e-06 -2.639e-05
0.000710534 -9.24978e-05 2.21294e-06
-9.24978e-05 7.853e-05 -1.94473e-06
2.21294e-06 -1.94473e-06 1.35771e-06
0.000494704 2.9834e-05 -8.99988e-07
2.9834e-05 -4.55701e-05 -1.76427e-06
-8.99988e-07 -1.76427e-06 -0.000129905
0.000760881 -3.84934e-05 2.48567e-07
-3.84934e-05 0.000127731 1.20302e-06
2.48567e-07 1.20302e-06 1.09891e-05
0.000637924 -1.14729e-05 1.44058e-06
-1.14729e-05 4.00023e-05 -1.65924e-06
1.44058e-06 -1.65924e-06 -8.94314e-05
0.000177023 -9.78405e-05 1.01765e-06
-9.78405e-05 -0.00020098 9.32112e-07
1.01765e-06 9.32112e-07 -0.000361847
0.000180145 -0.0001556 -6.46986e-07
-0.0001556 -0.000358818 -1.26226e-06
-6.46986e-07 -1.26226e-06 -0.000503846
0.00252161 -0.000316864 -8.92527e-06
-0.000316864 0.00113186 2.72435e-06
-8.92527e-06 2.72435e-06 0.000891268
0.000672783 -1.95203e-05 -1.06699e-06
-1.95203e-05 3.65357e-05 -9.26513e-07
-1.06699e-06 -9.26513e-07 -3.46805e-05
0.000826153 8.88478e-06 2.58102e-07
8.88478e-06 0.000149757 -7.18784e-07
2.58102e-07 -7.18784e-07 4.26543e-05
0.0021252 0.000249567 -1.069e-06
0.000249567 0.000309438 2.19175e-07
-1.069e-06 2.19175e-07 0.000194511
0.000726889 4.34031e-05 -5.32904e-07
4.34031e-05 0.000105619 7.96368e-07
-5.32904e-07 7.96368e-07 -4.348e-05
0.00137404 0.000232238 1.08709e-06
0.000232238 0.00043389 -3.11541e-06
1.08709e-06 -3.11541e-06 0.000229891
0.00047264 0.000114625 3.34337e-07
0.000114625 -9.64148e-05 7.36178e-07
3.34337e-07 7.36178e-07 -0.000229976
0.00193255 0.00033321 -1.54617e-06
0.00033321 0.000329611 4.20096e-07
-1.54617e-06 4.20096e-07 0.000137915
0.00179799 0.000327473 -1.36192e-06
0.000327473 0.000170984 3.74463e-06
-1.36192e-06 3.74463e-06 3.02664e-06
0.000962572 0.000236647 -3.38293e-07
0.000236647 7.37234e-05 -5.5397e-07
-3.38293e-07 -5.5397e-07 -0.000188032
0.00149361 0.000324178 -3.11162e-06
0.000324178 0.000156992 2.90931e-06
-3.11162e-06 2.90931e-06 -7.01118e-05
0.000505113 -3.46673e-06 -3.84799e-08
-3.46673e-06 -3.73194e-05 9.6904e-07
-3.84799e-08 9.6904e-07 -0.000130384
0.000463506 7.73188e-05 -6.28399e-07
7.73188e-05 -3.74786e-05 -1.80664e-06
-6.28399e-07 -1.80664e-06 -0.000172399
0.00119188 0.000225496 1.97334e-06
0.000225496 0.000290501 -2.25129e-06
1.97334e-06 -2.25129e-06 7.23979e-05
0.000615217 0.00012978 -1.207e-06
0.00012978 1.24737e-05 -2.58007e-06
-1.207e-06 -2.58007e-06 -0.000150844
0.00196693 0.000246946 8.66461e-07
0.000246946 8.38233e-05 -1.14642e-06
8.66461e-07 -1.14642e-06 1.06064e-05
0.0020014 0.000299084 2.76278e-06
0.000299084 0.000236517 7.75379e-07
2.76278e-06 7.75379e-07 9.88319e-05
0.00178345 0.000359453 -1.31295e-06
0.000359453 0.000221322 -7.21564e-08
-1.31295e-06 -7.21564e-08 1.4634e-05
0.000981638 0.000261798 5.9079e-07
0.000261798 -1.45673e-05 1.43122e-06
5.9079e-07 1.43122e-06 -0.000274413
0.000592486 2.04446e-05 -3.82945e-07
2.04446e-05 6.71924e-06 2.31956e-06
-3.82945e-07 2.31956e-06 -8.67982e-05
0.00197584 0.000195783 -2.27215e-06
0.000195783 6.64842e-05 1.24249e-06
-2.27215e-06 1.24249e-06 2.13211e-05
0.0015066 0.00021982 5.53372e-07
0.00021982 0.000569888 3.55509e-06
5.53372e-07 3.55509e-06 0.000388592
0.00109792 0.000226687 2.64605e-06
0.000226687 0.000213241 4.4636e-06
2.64605e-06 4.4636e-06 -5.73994e-06
0.00234388 0.000294265 -1.43547e-05
0.000294265 0.000329798 -2.6389e-06
-1.43547e-05 -2.6389e-06 0.000241081
0.00113462 0.00033398 -3.10117e-06
0.00033398 -0.000206441 -5.55043e-06
-3.10117e-06 -5.55043e-06 -0.000395767
0.00170873 0.000348263 -2.68366e-06
0.000348263 0.000313738 -5.25922e-07
-2.68366e-06 -5.25922e-07 5.51603e-05
0.000737517 3.11339e-05 -1.37876e-06
3.11339e-05 8.60817e-05 -2.64281e-07
-1.37876e-06 -2.64281e-07 1.85577e-06
0.000753922 2.1537e-05 -7.67684e-07
2.1537e-05 0.000100754 -2.67323e-07
-7.67684e-07 -2.67323e-07 1.42764e-05
0.000874166 7.96537e-06 -4.79224e-07
7.96537e-06 0.000181473 6.30174e-07
-4.79224e-07 6.30174e-07 9.26642e-05
0.00066989 -1.30662e-05 -2.63254e-07
-1.30662e-05 4.06027e-05 -1.55984e-06
-2.63254e-07 -1.55984e-06 -3.12209e-05
0.000702613 3.00428e-05 5.49204e-07
3.00428e-05 7.52599e-05 8.82295e-09
5.49204e-07 8.82295e-09 -1.65644e-05
0.000474901 -6.33847e-07 -8.08792e-07
-6.33847e-07 -4.31655e-05 3.41885e-07
-8.08792e-07 3.41885e-07 -0.00014193
0.000677737 -3.11918e-06 -3.70953e-07
-3.11918e-06 5.10629e-05 -3.84129e-08
-3.70953e-07 -3.84129e-08 -2.55022e-05
0.000565185 -2.49376e-05 -6.37818e-07
-2.49376e-05 -2.39481e-06 3.66257e-07
-6.37818e-07 3.66257e-07 -9.77024e-05
0.000624898 -1.84942e-05 6.5094e-07
-1.84942e-05 2.6275e-05 -1.87854e-07
6.5094e-07 -1.87854e-07 -6.30191e-05
0.000797354 2.49948e-05 3.68752e-07
2.49948e-05 0.000137549 5.05604e-08
3.68752e-07 5.05604e-08 3.33149e-05
0.000939956 1.40975e-05 5.22545e-07
1.40975e-05 0.000188082 -9.5753e-07
5.22545e-07 -9.5753e-07 0.00010333
0.000745938 -3.97103e-05 1.23062e-06
-3.97103e-05 9.07353e-05 -5.16995e-07
1.23062e-06 -5.16995e-07 -2.13244e-06
0.000782355 2.35632e-05 3.78578e-07
2.35632e-05 0.000125385 3.49176e-07
3.78578e-07 3.49176e-07 1.85781e-05
0.000672196 2.69908e-05 1.92821e-06
2.69908e-05 6.04022e-05 1.28155e-06
1.92821e-06 1.28155e-06 -4.21396e-05
0.000701326 1.64528e-05 1.25171e-06
1.64528e-05 5.86573e-05 1.64971e-06
1.25171e-06 1.64971e-06 -1.61671e-05
0.000628888 -1.55307e-05 -1.44639e-07
-1.55307e-05 3.63554e-06 1.87411e-06
-1.44639e-07 1.87411e-06 -4.34574e-05
0.000640779 -9.60446e-06 -2.64035e-07
-9.60446e-06 8.87223e-06 4.73052e-08
-2.64035e-07 4.73052e-08 -3.76327e-05
0.00127629 -7.68739e-06 5.20761e-07
-7.68739e-06 0.000355666 2.21701e-06
5.20761e-07 2.21701e-06 0.000347283
0.000656295 -2.33633e-05 4.68486e-07
-2.33633e-05 1.45336e-05 -2.27853e-06
4.68486e-07 -2.27853e-06 -3.13739e-05
0.00130742 -1.55455e-05 -2.70942e-06
-1.55455e-05 0.000374633 -1.53055e-06
-2.70942e-06 -1.53055e-06 0.000366428
0.000887864 -1.61268e-05 1.16072e-05
-1.61268e-05 0.000132844 8.05415e-06
1.16072e-05 8.05415e-06 0.00014209
0.00134149 -2.40888e-05 -4.94114e-06
-2.40888e-05 0.00039593 -5.37877e-06
-4.94114e-06 -5.37877e-06 0.000387344
0.000845502 -2.3915e-05 3.84157e-06
-2.3915e-05 0.000110504 3.03766e-06
3.84157e-06 3.03766e-06 0.000119116
0.000786228 -3.0318e-05 -1.09863e-06
-3.0318e-05 7.99437e-05 -2.00057e-06
-1.09863e-06 -2.00057e-06 8.77323e-05
0.000684132 1.00944e-05 8.2561e-07
1.00944e-05 2.55999e-05 -1.90249e-06
8.2561e-07 -1.90249e-06 -1.23278e-05
0.000588031 2.76061e-05 4.94982e-07
2.76061e-05 -4.04842e-05 -3.62932e-06
4.94982e-07 -3.62932e-06 -5.14219e-05
0.000592589 3.57897e-05 -2.3508e-09
3.57897e-05 -3.05433e-05 8.38578e-08
-2.3508e-09 8.38578e-08 -4.53519e-05
0.00218448 6.19458e-05 1.93882e-05
6.19458e-05 0.000908144 -4.06319e-06
1.93882e-05 -4.06319e-06 0.000920755
0.000591206 4.95955e-05 1.08094e-06
4.95955e-05 -1.95893e-05 4.58644e-06
1.08094e-06 4.58644e-06 -4.11339e-05
0.00238421 7.85496e-05 -3.48779e-06
7.85496e-05 0.00103366 -2.38579e-07
-3.48779e-06 -2.38579e-07 0.00104205
0.00263428 9.28822e-05 -3.58961e-05
9.28822e-05 0.00118652 3.58525e-06
-3.58961e-05 3.58525e-06 0.00119127
0.00198195 0.000198636 6.98299e-07
0.000198636 0.000173554 2.26664e-06
6.98299e-07 2.26664e-06 8.57426e-05
0.00181943 0.000129204 -4.77286e-07
0.000129204 6.9728e-05 8.58119e-08
-4.77286e-07 8.58119e-08 -4.78726e-07
0.0016865 4.46233e-05 1.04773e-06
4.46233e-05 2.75438e-05 -4.6314e-07
1.04773e-06 -4.6314e-07 -3.82645e-05
0.00178583 1.97665e-06 1.17087e-06
1.97665e-06 0.00011552 -1.96003e-07
1.17087e-06 -1.96003e-07 2.77707e-05
0.00172654 5.01956e-07 -1.19232e-06
5.01956e-07 4.51078e-05 1.1341e-08
-1.19232e-06 1.1341e-08 -1.99104e-05
0.0019483 8.19491e-05 2.51767e-07
8.19491e-05 8.87785e-05 2.05975e-08
2.51767e-07 2.05975e-08 4.55238e-05
0.00184034 0.00018644 -8.73834e-07
0.00018644 2.94982e-05 -2.8193e-07
-8.73834e-07 -2.8193e-07 -3.94372e-05
0.00188263 3.59155e-06 2.95811e-06
3.59155e-06 3.82507e-05 1.206e-07
2.95811e-06 1.206e-07 7.34527e-06
0.00197303 0.0001177 2.36952e-06
0.0001177 4.96466e-05 2.7449e-07
2.36952e-06 2.7449e-07 1.29959e-05
0.0018464 6.39137e-05 -4.18269e-06
6.39137e-05 2.69162e-05 2.16199e-06
-4.18269e-06 2.16199e-06 4.63515e-05
0.00190881 -5.06592e-05 -1.2876e-06
-5.06592e-05 0.000140017 -2.03315e-07
-1.2876e-06 -2.03315e-07 6.68269e-05
0.00195266 -0.00014124 -2.5089e-06
-0.00014124 0.000126717 5.45501e-07
-2.5089e-06 5.45501e-07 6.0276e-05
0.00175063 -0.000201178 -2.0018e-06
-0.000201178 5.99095e-05 9.40189e-07
-2.0018e-06 9.40189e-07 -1.77414e-05
0.00122403 -0.000228041 -3.72961e-07
-0.000228041 0.00027208 6.05236e-06
-3.72961e-07 6.05236e-06 8.2846e-05
0.000876658 -0.000261189 4.63818e-07
-0.000261189 -6.10913e-05 6.06843e-06
4.63818e-07 6.06843e-06 -0.00030801
0.00179109 -0.000362386 -4.94336e-06
-0.000362386 0.000312635 -3.79639e-06
-4.94336e-06 -3.79639e-06 6.52929e-05
0.00189238 -0.000267381 2.65147e-06
-0.000267381 0.000125781 -5.86617e-07
2.65147e-06 -5.86617e-07 2.68163e-05
0.00156647 -0.000304679 -2.59716e-06
-0.000304679 2.3288e-05 -6.05589e-06
-2.59716e-06 -6.05589e-06 -0.000129301
0.000133666 -0.000138723 -3.54501e-06
-0.000138723 -0.000336667 4.3089e-06
-3.54501e-06 4.3089e-06 -0.000484692
0.00190836 -0.000253017 1.04796e-05
-0.000253017 0.000739486 -3.61952e-06
1.04796e-05 -3.61952e-06 0.000564778
0.000780173 -1.78978e-05 -4.11467e-07
-1.78978e-05 0.000121622 -9.36277e-08
-4.11467e-07 -9.36277e-08 -2.76128e-05
0.000627669 1.45251e-05 -3.30606e-07
1.45251e-05 1.45988e-06 9.45852e-07
-3.30606e-07 9.45852e-07 -4.38134e-05
0.000818839 1.71216e-05 -1.01036e-07
1.71216e-05 0.000142759 1.53551e-06
-1.01036e-07 1.53551e-06 5.03896e-05
0.000792377 -3.23864e-05 1.94416e-07
-3.23864e-05 0.000135466 2.27854e-06
1.94416e-07 2.27854e-06 1.04913e-05
0.00186465 -7.71664e-05 1.96714e-07
-7.71664e-05 4.71381e-05 4.68761e-08
1.96714e-07 4.68761e-08 1.57811e-06
0.000641806 1.23803e-05 1.05943e-06
1.23803e-05 4.58383e-06 8.70662e-08
1.05943e-06 8.70662e-08 -3.64571e-05
0.000586056 -2.69279e-05 -1.46539e-06
-2.69279e-05 -8.08926e-06 -3.87709e-08
-1.46539e-06 -3.87709e-08 -7.59985e-05
0.00189045 -0.000185079 -2.30007e-07
-0.000185079 5.84746e-05 2.69298e-07
-2.30007e-07 2.69298e-07 1.3495e-05
0.00177556 -0.00022199 -1.68729e-06
-0.00022199 2.85899e-05 5.16803e-07
-1.68729e-06 5.16803e-07 -4.15224e-05
0.000403114 -0.00018278 1.72615e-06
-0.00018278 -0.000205177 3.80039e-06
1.72615e-06 3.80039e-06 -0.000400535
0.00199324 -0.00038852 -2.38306e-06
-0.00038852 0.000529326 7.89871e-07
-2.38306e-06 7.89871e-07 0.000227834
0.00150201 -0.000352233 2.23194e-06
-0.000352233 0.00010044 -1.64506e-06
2.23194e-06 -1.64506e-06 -0.000127627
0.00202788 -0.000355315 2.39444e-06
-0.000355315 0.000183829 -1.02364e-06
2.39444e-06 -1.02364e-06 6.0477e-05
0.000750856 -1.78151e-05 9.96921e-07
-1.78151e-05 0.000104123 -9.73649e-07
9.96921e-07 -9.73649e-07 2.11386e-05
0.000768704 -2.545e-05 2.02263e-07
-2.545e-05 0.000132445 1.11057e-06
2.02263e-07 1.11057e-06 1.42493e-05
0.000926926 -0.000199009 -2.51956e-06
-0.000199009 6.87576e-05 -4.5442e-07
-2.51956e-06 -4.5442e-07 -8.47114e-05
0.00152074 -0.00023812 1.15959e-05
-0.00023812 0.000551285 -2.83718e-06
1.15959e-05 -2.83718e-06 0.000351418
0.000517791 -8.14526e-05 -2.1539e-06
-8.14526e-05 -1.67116e-05 2.05095e-08
-2.1539e-06 2.05095e-08 -0.000173352
0.000708439 -1.06208e-05 2.68955e-07
-1.06208e-05 8.78606e-05 -5.82222e-07
2.68955e-07 -5.82222e-07 -4.36924e-05
0.00188944 -8.4598e-05 2.83172e-06
-8.4598e-05 -1.40167e-07 -2.52255e-07
2.83172e-06 -2.52255e-07 -3.36252e-05
0.00180923 -0.000196752 9.14299e-07
-0.000196752 -1.78365e-05 -8.53339e-07
9.14299e-07 -8.53339e-07 -2.13237e-05
0.00196304 -0.000325432 -8.92996e-07
-0.000325432 5.68897e-05 -1.72141e-06
-8.92996e-07 -1.72141e-06 -2.1674e-05
0.00164232 -0.000396242 3.01362e-06
-0.000396242 5.38288e-05 1.163e-06
3.01362e-06 1.163e-06 -9.68559e-05
0.00060164 -0.000160855 -8.55661e-06
-0.000160855 -8.79749e-05 -7.04868e-06
-8.55661e-06 -7.04868e-06 -0.00028155
0.00270176 -0.000481619 -6.30655e-06
-0.000481619 0.000889064 5.65964e-06
-6.30655e-06 5.65964e-06 0.000570468
0.000449691 5.69515e-05 -1.10386e-06
5.69515e-05 -7.89653e-05 -2.61554e-06
-1.10386e-06 -2.61554e-06 -0.000150734
0.000704533 -5.56132e-05 2.58698e-06
-5.56132e-05 6.36884e-05 -1.24925e-06
2.58698e-06 -1.24925e-06 -7.33564e-06
0.000931542 -7.41045e-05 1.6415e-06
-7.41045e-05 0.000208005 2.84256e-07
1.6415e-06 2.84256e-07 0.000115067
0.000485196 1.90474e-05 -7.62097e-07
1.90474e-05 -3.38228e-05 1.34793e-06
-7.62097e-07 1.34793e-06 -0.000147607
0.000942669 -4.90754e-05 -3.22982e-07
-4.90754e-05 0.000222246 3.08097e-07
-3.22982e-07 3.08097e-07 0.000105263
0.000998104 -4.74478e-05 2.70821e-06
-4.74478e-05 0.00022384 -8.96117e-08
2.70821e-06 -8.96117e-08 8.05654e-05
-0.000168486 -8.83872e-05 6.32837e-06
-8.83872e-05 -0.000287984 6.69744e-07
6.32837e-06 6.69744e-07 -0.000551143
0.000327798 -0.000208202 -1.59258e-05
-0.000208202 -0.00025524 2.49665e-06
-1.59258e-05 2.49665e-06 -0.000409672
0.000519415 2.85171e-05 -2.34538e-07
2.85171e-05 -2.51726e-05 -7.83763e-07
-2.34538e-07 -7.83763e-07 -0.000122422
0.000658586 9.61827e-05 -3.63724e-06
9.61827e-05 7.4046e-05 -3.41906e-06
-3.63724e-06 -3.41906e-06 -6.35302e-05
0.00203802 0.000245243 -1.9613e-06
0.000245243 0.000119912 -1.00285e-06
-1.9613e-06 -1.00285e-06 4.92888e-05
0.00193293 0.00030283 -1.74562e-07
0.00030283 0.000202042 2.15606e-06
-1.74562e-07 2.15606e-06 5.95562e-05
0.00159491 0.000182353 -5.80232e-06
0.000182353 0.00056143 -2.37323e-06
-5.80232e-06 -2.37323e-06 0.000397032
0.00105301 0.000214618 -1.91923e-06
0.000214618 0.000221106 -8.45446e-06
-1.91923e-06 -8.45446e-06 7.79752e-07
0.00180558 0.000354953 1.09778e-06
0.000354953 0.000227625 1.55577e-06
1.09778e-06 1.55577e-06 2.30191e-05
0.00197645 0.00034472 9.24429e-07
0.00034472 0.000530293 2.14074e-07
9.24429e-07 2.14074e-07 0.000265802
0.000650634 4.29409e-05 6.80922e-07
4.29409e-05 5.03616e-05 -8.19867e-07
6.80922e-07 -8.19867e-07 -5.14531e-05
0.00190377 0.000187586 2.41879e-07
0.000187586 1.2662e-05 -8.59762e-08
2.41879e-07 -8.59762e-08 -2.3347e-05
0.000942869 0.000156882 8.35281e-07
0.000156882 0.00024309 1.75516e-06
8.35281e-07 1.75516e-06 7.41851e-05
0.000757385 0.000199531 1.57025e-06
0.000199531 1.99351e-05 -2.05463e-07
1.57025e-06 -2.05463e-07 -0.000198858
0.00217139 0.000287117 2.54292e-06
0.000287117 0.000235202 4.02716e-07
2.54292e-06 4.02716e-07 0.000146426
0.00142191 0.000351146 -7.42118e-07
0.000351146 -4.79854e-05 -2.27605e-06
-7.42118e-07 -2.27605e-06 -0.000236437
0.00206369 0.000377726 -1.37052e-07
0.000377726 0.000524965 1.51069e-07
-1.37052e-07 1.51069e-07 0.000262941
0.00115017 0.000105079 -2.36019e-06
0.000105079 0.000357126 2.98213e-06
-2.36019e-06 2.98213e-06 0.000221379
0.00235493 0.000203116 -3.34475e-05
0.000203116 0.00031448 -6.45029e-06
-3.34475e-05 -6.45029e-06 0.000312243
0.00242197 0.000334532 -3.99524e-06
0.000334532 0.0010432 5.68359e-07
-3.99524e-06 5.68359e-07 0.000840015
0.00215533 0.000344015 -6.78231e-06
0.000344015 0.000734991 1.56693e-06
-6.78231e-06 1.56693e-06 0.000492217
0.00191628 0.000391295 -1.37888e-05
0.000391295 0.000111203 -1.12463e-05
-1.37888e-05 -1.12463e-05 -1.10991e-05
0.00124838 0.000344031 -1.05605e-05
0.000344031 4.14449e-06 -1.71955e-06
-1.05605e-05 -1.71955e-06 -0.000233767
0.000538868 0.000250305 2.17205e-05
0.000250305 -0.000597034 -1.08142e-05
2.17205e-05 -1.08142e-05 -0.000811251
0.000610561 3.48895e-05 4.72169e-07
3.48895e-05 2.49573e-05 -2.85831e-07
4.72169e-07 -2.85831e-07 -6.4692e-05
0.000730962 1.46099e-05 -2.46186e-08
1.46099e-05 0.000107062 7.60019e-07
-2.46186e-08 7.60019e-07 1.63926e-05
0.00116815 3.5387e-05 3.11662e-07
3.5387e-05 0.000340889 -7.29627e-07
3.11662e-07 -7.29627e-07 0.000247161
0.000662955 -5.61581e-05 -1.39844e-07
-5.61581e-05 4.77322e-05 -1.98196e-06
-1.39844e-07 -1.98196e-06 -3.21758e-05
0.000613456 -4.44036e-05 -1.24646e-06
-4.44036e-05 2.22788e-05 -2.12904e-08
-1.24646e-06 -2.12904e-08 -7.02722e-05
0.000889259 0.000103703 -3.79179e-07
0.000103703 0.000191745 4.52848e-07
-3.79179e-07 4.52848e-07 8.6003e-05
0.000474786 -2.98314e-05 -1.00917e-06
-2.98314e-05 -5.40668e-05 1.34445e-06
-1.00917e-06 1.34445e-06 -0.000145887
0.000675194 -2.39143e-05 -5.15703e-09
-2.39143e-05 5.36091e-05 -2.2214e-08
-5.15703e-09 -2.2214e-08 -2.76022e-05
0.000662048 3.04471e-05 -7.6958e-08
3.04471e-05 4.28119e-05 -3.1493e-07
-7.6958e-08 -3.1493e-07 -5.14819e-05
0.000815244 8.94801e-06 -5.53002e-07
8.94801e-06 0.00011846 -2.55175e-07
-5.53002e-07 -2.55175e-07 3.17166e-05
0.000776546 7.98e-06 3.39239e-07
7.98e-06 0.000112318 -7.42855e-09
3.39239e-07 -7.42855e-09 1.26044e-05
0.000806917 -1.82083e-05 -8.96475e-08
-1.82083e-05 0.000124483 -1.40136e-07
-8.96475e-08 -1.40136e-07 3.04307e-05
0.000860234 7.39437e-06 -3.99291e-07
7.39437e-06 0.000138449 -1.65269e-06
-3.99291e-07 -1.65269e-06 5.32957e-05
0.00083922 2.21152e-05 -6.28653e-07
2.21152e-05 0.000136446 -1.41084e-06
-6.28653e-07 -1.41084e-06 3.43238e-05
0.000822639 5.6189e-05 5.33332e-07
5.6189e-05 0.000130527 5.67004e-07
5.33332e-07 5.67004e-07 3.32344e-05
0.000701273 3.51092e-05 3.08431e-07
3.51092e-05 7.61165e-05 1.12867e-06
3.08431e-07 1.12867e-06 -3.16826e-05
0.000546881 -1.73478e-05 -1.87156e-07
-1.73478e-05 -3.37551e-05 1.91035e-06
-1.87156e-07 1.91035e-06 -0.000110915
0.000889028 -1.6978e-05 1.89176e-07
-1.6978e-05 0.000200479 -8.17312e-07
1.89176e-07 -8.17312e-07 9.08385e-05
0.000496553 -4.02737e-06 -5.34286e-07
-4.02737e-06 -5.76751e-05 1.94605e-06
-5.34286e-07 1.94605e-06 -0.000139123
0.000606987 8.70175e-06 -8.18615e-07
8.70175e-06 -6.71363e-06 1.80961e-06
-8.18615e-07 1.80961e-06 -5.56502e-05
0.000620767 1.54438e-05 7.47448e-07
1.54438e-05 3.3012e-07 1.61355e-09
7.47448e-07 1.61355e-09 -4.75739e-05
0.000592184 2.20548e-06 1.75583e-07
2.20548e-06 -4.3571e-05 3.6684e-06
1.75583e-07 3.6684e-06 -5.66002e-05
0.000630473 -3.07348e-06 -9.47431e-07
-3.07348e-06 3.81672e-06 -2.07905e-06
-9.47431e-07 -2.07905e-06 -4.33559e-05
0.00096054 -4.94814e-06 -1.80417e-06
-4.94814e-06 0.000171584 -1.61014e-06
-1.80417e-06 -1.61014e-06 0.000161061
0.00228806 -1.21771e-05 7.42791e-06
-1.21771e-05 0.000949916 5.03191e-06
7.42791e-06 5.03191e-06 0.000967021
0.00134821 -1.40018e-05 -2.87321e-06
-1.40018e-05 0.00039897 -5.3243e-06
-2.87321e-06 -5.3243e-06 0.000390525
0.000845239 -1.61362e-05 2.03246e-06
-1.61362e-05 0.000106862 3.11188e-06
2.03246e-06 3.11188e-06 0.000116217
0.000800202 -2.26015e-05 -5.41236e-07
-2.26015e-05 8.30399e-05 -2.02892e-06
-5.41236e-07 -2.02892e-06 9.19335e-05
0.000647345 8.58343e-06 -3.46566e-07
8.58343e-06 6.83434e-06 -1.90074e-06
-3.46566e-07 -1.90074e-06 -3.05655e-05
0.000666095 -2.90122e-06 7.08097e-07
-2.90122e-06 1.61849e-05 -7.60789e-08
7.08097e-07 -7.60789e-08 -2.2472e-05
0.00061309 2.09915e-05 4.06741e-07
2.09915e-05 -2.98024e-05 -3.56544e-06
4.06741e-07 -3.56544e-06 -3.8366e-05
0.000921146 3.28666e-05 -4.09973e-07
3.28666e-05 0.000154981 4.77742e-08
-4.09973e-07 4.77742e-08 0.000145522
0.00213142 4.92949e-05 1.54148e-05
4.92949e-05 0.000870287 -4.24151e-06
1.54148e-05 -4.24151e-06 0.000885525
0.000600999 3.71842e-05 -1.99428e-08
3.71842e-05 -2.52288e-05 3.88149e-06
-1.99428e-08 3.88149e-06 -4.0396e-05
0.00224337 6.42984e-05 -2.77365e-06
6.42984e-05 0.000943513 -1.63508e-07
-2.77365e-06 -1.63508e-07 0.000955457
0.00245502 8.06394e-05 -2.54998e-05
8.06394e-05 0.00107551 3.93973e-06
-2.54998e-05 3.93973e-06 0.00108329
0.00189446 0.00019047 -3.39673e-06
0.00019047 5.8203e-05 -9.40792e-07
-3.39673e-06 -9.40792e-07 -1.00314e-05
0.00192916 7.74001e-05 -1.61521e-06
7.74001e-05 7.74233e-05 -2.65171e-07
-1.61521e-06 -2.65171e-07 3.34027e-05
0.0018018 2.41883e-06 -1.74484e-06
2.41883e-06 8.66668e-05 -3.18225e-07
-1.74484e-06 -3.18225e-07 2.42475e-05
0.00186282 5.02925e-06 8.29187e-08
5.02925e-06 3.07425e-05 -1.81643e-07
8.29187e-08 -1.81643e-07 -7.13963e-07
0.0019139 0.000115403 6.81538e-08
0.000115403 2.97672e-05 -1.39527e-07
6.81538e-08 -1.39527e-07 -8.29863e-06
0.0017572 5.84846e-05 3.05105e-06
5.84846e-05 -3.17962e-05 2.39211e-07
3.05105e-06 2.39211e-07 -2.04305e-05
0.00191038 1.35831e-05 9.2216e-07
1.35831e-05 -5.39932e-06 -6.91119e-08
9.2216e-07 -6.91119e-08 -3.4815e-06
0.00259288 0.000232686 2.58477e-05
0.000232686 -0.000117949 -6.88272e-07
2.58477e-05 -6.88272e-07 -0.000130882
0.00198174 3.00865e-05 -2.6527e-05
3.00865e-05 0.000239024 6.1357e-06
-2.6527e-05 6.1357e-06 0.000284871
0.000659626 6.98378e-05 -6.93424e-07
6.98378e-05 4.2407e-05 -1.08896e-06
-6.93424e-07 -1.08896e-06 -2.43341e-05
0.00180269 -7.73442e-05 -2.84811e-06
-7.73442e-05 1.16383e-05 -1.96215e-07
-2.84811e-06 -1.96215e-07 -3.24814e-05
0.0019126 -0.00017892 -9.85451e-07
-0.00017892 8.70524e-05 1.10598e-06
-9.85451e-07 1.10598e-06 3.55813e-05
0.00172652 -0.000222995 7.54298e-07
-0.000222995 -6.63692e-07 1.39987e-06
7.54298e-07 1.39987e-06 -7.16539e-05
0.00062999 -0.000198377 3.26802e-06
-0.000198377 -6.55132e-05 8.04367e-06
3.26802e-06 8.04367e-06 -0.000256667
0.00129877 -0.000327468 1.97257e-06
-0.000327468 0.000152904 6.06512e-06
1.97257e-06 6.06512e-06 -0.000147481
0.00141018 -0.000348508 -8.47987e-07
-0.000348508 3.17253e-05 -8.91726e-06
-8.47987e-07 -8.91726e-06 -0.000192672
0.00201412 -0.000355329 -5.56713e-06
-0.000355329 0.000188617 -3.00431e-06
-5.56713e-06 -3.00431e-06 6.27389e-05
0.00162952 -0.000242584 9.64585e-06
-0.000242584 0.000465694 -2.81402e-06
9.64585e-06 -2.81402e-06 0.000304187
0.000450137 -0.00015554 8.54558e-06
-0.00015554 -6.62729e-05 -5.41756e-06
8.54558e-06 -5.41756e-06 -0.000225761
0.000880122 -9.05877e-05 1.2962e-07
-9.05877e-05 0.000185707 -1.33466e-06
1.2962e-07 -1.33466e-06 2.90628e-05
0.000641766 -7.78036e-08 -1.13521e-06
-7.78036e-08 4.31333e-06 1.88898e-06
-1.13521e-06 1.88898e-06 -3.60997e-05
0.000818321 -1.60392e-05 7.84947e-07
-1.60392e-05 0.000160228 2.24745e-07
7.84947e-07 2.24745e-07 2.48625e-05
0.000961677 -4.5556e-05 9.98209e-07
-4.5556e-05 0.000231458 1.09699e-07
9.98209e-07 1.09699e-07 0.000147714
0.000786256 -1.86724e-05 -1.28837e-07
-1.86724e-05 0.000140113 2.47805e-07
-1.28837e-07 2.47805e-07 2.21793e-05
0.000457683 -1.94279e-05 -1.58741e-06
-1.94279e-05 -8.78527e-05 1.43478e-06
-1.58741e-06 1.43478e-06 -0.000152893
0.00192016 -9.51093e-05 -1.55738e-07
-9.51093e-05 -1.7292e-06 1.24758e-07
-1.55738e-07 1.24758e-07 -2.35059e-05
0.000556446 3.57986e-05 6.7952e-08
3.57986e-05 -1.41139e-05 -1.06417e-06
6.7952e-08 -1.06417e-06 -8.6488e-05
0.000694829 -5.39961e-05 3.57791e-07
-5.39961e-05 6.46714e-05 3.35385e-07
3.57791e-07 3.35385e-07 -1.02479e-05
0.000796486 -4.23023e-05 -3.67905e-07
-4.23023e-05 0.000132015 7.7411e-07
-3.67905e-07 7.7411e-07 3.643e-05
0.00182002 -0.000201824 1.02236e-06
-0.000201824 -9.87991e-06 -3.25983e-07
1.02236e-06 -3.25983e-07 -1.95598e-05
0.00198922 -0.000324317 -1.01722e-06
-0.000324317 8.48066e-05 -4.75898e-07
-1.01722e-06 -4.75898e-07 2.47549e-06
0.00102125 -0.000214257 3.30949e-06
-0.000214257 0.000137076 4.05758e-08
3.30949e-06 4.05758e-08 -5.57973e-05
0.00189432 -0.000412295 4.21034e-06
-0.000412295 0.000467614 3.76733e-07
4.21034e-06 3.76733e-07 0.000157783
0.00182122 -0.000409537 -2.07147e-07
-0.000409537 0.00016421 1.80786e-06
-2.07147e-07 1.80786e-06 6.78279e-06
0.000570578 -7.51631e-06 -3.23055e-07
-7.51631e-06 1.76028e-05 -1.06704e-07
-3.23055e-07 -1.06704e-07 -9.46478e-05
0.000838782 -6.20169e-05 -1.33262e-06
-6.20169e-05 0.000168435 3.46244e-07
-1.33262e-06 3.46244e-07 4.38958e-05
0.000704177 -0.000238143 -3.91618e-06
-0.000238143 -2.50995e-05 1.18792e-06
-3.91618e-06 1.18792e-06 -0.000202941
0.000517977 -9.08959e-05 -3.22797e-07
-9.08959e-05 5.48993e-05 -1.12082e-06
-3.22797e-07 -1.12082e-06 -0.000176176
0.000725434 -6.35064e-05 -3.90762e-08
-6.35064e-05 7.01286e-05 -3.23861e-07
-3.90762e-08 -3.23861e-07 -7.06386e-05
0.00214318 -0.000187962 -2.41527e-06
-0.000187962 0.000109533 -1.13747e-06
-2.41527e-06 -1.13747e-06 0.000102507
0.00177956 -0.000218898 -6.84561e-06
-0.000218898 -7.01949e-05 1.34258e-06
-6.84561e-06 1.34258e-06 -5.75251e-05
0.00235814 -0.000447623 -4.35854e-06
-0.000447623 0.000306108 -6.98429e-07
-4.35854e-06 -6.98429e-07 0.000175584
0.00292287 -0.000521931 -2.05501e-05
-0.000521931 0.000879119 2.78677e-06
-2.05501e-05 2.78677e-06 0.000658261
0.00106366 -0.000239871 -9.52363e-06
-0.000239871 0.000197033 -3.8545e-06
-9.52363e-06 -3.8545e-06 -2.84516e-05
0.000486572 1.60148e-05 1.39417e-06
1.60148e-05 -4.89458e-05 -1.92293e-06
1.39417e-06 -1.92293e-06 -0.000141222
0.000483003 4.74258e-05 8.06123e-07
4.74258e-05 -5.61846e-05 -2.29957e-07
8.06123e-07 -2.29957e-07 -0.000154509
0.000602184 6.43177e-06 8.97386e-07
6.43177e-06 2.35413e-05 -1.09742e-06
8.97386e-07 -1.09742e-06 -8.29337e-05
0.00119079 -0.000128659 -2.04299e-07
-0.000128659 0.000384046 2.57488e-06
-2.04299e-07 2.57488e-06 0.000257279
0.000685393 -5.25892e-05 6.0489e-07
-5.25892e-05 5.92221e-05 2.74482e-06
6.0489e-07 2.74482e-06 -5.94264e-05
0.000177136 -5.9598e-05 2.49588e-06
-5.9598e-05 -0.000127614 1.16498e-06
2.49588e-06 1.16498e-06 -0.000362309
0.000577306 -0.000264133 3.42408e-06
-0.000264133 9.09808e-05 -1.31722e-06
3.42408e-06 -1.31722e-06 -0.000196999
0.000756951 7.46223e-05 9.14714e-07
7.46223e-05 0.000123181 -4.1436e-06
9.14714e-07 -4.1436e-06 1.09558e-05
0.000244581 7.29252e-05 1.157e-07
7.29252e-05 -0.000164071 -1.37156e-06
1.157e-07 -1.37156e-06 -0.000316208
0.00204068 0.000182283 6.71896e-06
0.000182283 7.73832e-05 1.34581e-07
6.71896e-06 1.34581e-07 5.07609e-05
0.00198605 0.000279306 1.05791e-05
0.000279306 0.000134057 2.1243e-06
1.05791e-05 2.1243e-06 4.59712e-05
0.00177158 0.00037125 7.82906e-06
0.00037125 0.000143986 2.76594e-06
7.82906e-06 2.76594e-06 -4.34547e-05
0.000425813 0.000173957 8.96601e-07
0.000173957 -0.000169937 -2.10399e-06
8.96601e-07 -2.10399e-06 -0.000388045
0.0024573 0.000411269 3.44795e-06
0.000411269 0.000755718 1.66357e-06
3.44795e-06 1.66357e-06 0.000491571
0.00124076 8.77217e-05 -1.66509e-07
8.77217e-05 0.000399079 5.81125e-07
-1.66509e-07 5.81125e-07 0.000273193
0.00214126 0.000176476 -2.42805e-06
0.000176476 0.00021186 1.82895e-07
-2.42805e-06 1.82895e-07 0.00021793
0.00149213 0.000238375 -1.60401e-06
0.000238375 0.000512285 -2.50121e-07
-1.60401e-06 -2.50121e-07 0.000328061
0.0015597 0.000294499 -6.07811e-07
0.000294499 0.00042318 1.44979e-06
-6.07811e-07 1.44979e-06 0.000176982
0.00197732 0.000380931 -1.25383e-06
0.000380931 0.000151054 -2.59523e-06
-1.25383e-06 -2.59523e-06 3.35563e-05
0.00155953 0.000374047 -1.83903e-06
0.000374047 0.000174369 3.21632e-06
-1.83903e-06 3.21632e-06 -7.14159e-05
0.00174246 0.00032194 2.74178e-05
0.00032194 -0.0002056 1.4307e-06
2.74178e-05 1.4307e-06 -0.000500915
0.0011846 0.000152028 -3.14325e-06
0.000152028 0.000381962 -5.31055e-07
-3.14325e-06 -5.31055e-07 0.000235727
0.00228182 0.000292238 -3.84837e-05
0.000292238 0.000331425 -1.95151e-05
-3.84837e-05 -1.95151e-05 0.000332127
0.00121849 0.000235694 -4.65264e-06
0.000235694 0.000317098 -3.12043e-07
-4.65264e-06 -3.12043e-07 0.000133695
0.00101996 0.000282009 -3.25975e-06
0.000282009 4.60577e-05 -2.9771e-06
-3.25975e-06 -2.9771e-06 -0.000205202
0.000358038 0.000369532 -1.18689e-05
0.000369532 -0.000599087 -8.6721e-06
-1.18689e-05 -8.6721e-06 -0.000795071
0.00919102 0.000302094 -0.000148818
0.000302094 0.00217773 -3.83036e-05
-0.000148818 -3.83036e-05 0.00123665
0.00501971 0.000615497 0.000122436
0.000615497 0.00068397 -1.16785e-05
0.000122436 -1.16785e-05 0.000195749
0.00154014 0.00046273 2.18086e-05
0.00046273 5.19834e-05 1.40705e-05
2.18086e-05 1.40705e-05 -0.00013417
-0.00481047 -0.000560409 0.000253871
-0.000560409 -0.0015088 3.44828e-06
0.000253871 3.44828e-06 -0.00243844
0.00632574 -0.00167563 -1.06765e-05
-0.00167563 0.00112022 8.5663e-06
-1.06765e-05 8.5663e-06 0.00267079
0.000584862 2.37867e-05 1.81145e-06
2.37867e-05 2.89775e-05 3.24119e-07
1.81145e-06 3.24119e-07 -6.28853e-05
0.000879452 1.63433e-05 6.36167e-07
1.63433e-05 0.000187624 -7.05683e-07
6.36167e-07 -7.05683e-07 9.44037e-05
0.000908892 6.49588e-05 -1.77056e-06
6.49588e-05 0.000195675 -1.80261e-06
-1.77056e-06 -1.80261e-06 9.98156e-05
0.000659831 -5.8785e-05 6.89788e-08
-5.8785e-05 5.14278e-05 -1.64675e-06
6.89788e-08 -1.64675e-06 -3.4117e-05
0.00063877 5.49026e-05 -1.19997e-06
5.49026e-05 3.21417e-05 -1.18524e-06
-1.19997e-06 -1.18524e-06 -6.52708e-05
0.000783259 -3.3936e-05 6.44409e-08
-3.3936e-05 0.000117424 -4.12873e-07
6.44409e-08 -4.12873e-07 1.71974e-05
0.000864824 5.5822e-06 -1.38033e-06
5.5822e-06 0.000155581 1.40983e-06
-1.38033e-06 1.40983e-06 6.09629e-05
0.000722772 -2.57151e-07 -6.45188e-07
-2.57151e-07 6.75656e-05 1.99449e-07
-6.45188e-07 1.99449e-07 -2.11015e-05
0.000758877 6.62833e-05 -1.19735e-06
6.62833e-05 0.000104134 -3.90629e-07
-1.19735e-06 -3.90629e-07 -1.54226e-06
0.000606859 -7.69444e-06 -6.5912e-08
-7.69444e-06 6.48966e-06 6.97864e-07
-6.5912e-08 6.97864e-07 -7.31508e-05
0.000700913 2.04414e-05 7.39796e-08
2.04414e-05 7.31123e-05 6.32651e-09
7.39796e-08 6.32651e-09 -3.24918e-05
0.00079103 9.665e-06 6.02864e-07
9.665e-06 9.77522e-05 4.74326e-07
6.02864e-07 4.74326e-07 1.20316e-05
0.000832884 2.72047e-05 -5.00038e-07
2.72047e-05 0.000131892 -2.35696e-07
-5.00038e-07 -2.35696e-07 3.29679e-05
0.000980908 6.84281e-05 -6.79846e-07
6.84281e-05 0.000216972 -6.64483e-07
-6.79846e-07 -6.64483e-07 0.000116887
0.000527275 3.05843e-05 4.44304e-07
3.05843e-05 -4.23742e-05 -1.9018e-06
4.44304e-07 -1.9018e-06 -0.00013329
0.000853733 6.50111e-05 1.54136e-06
6.50111e-05 0.000144401 8.49294e-07
1.54136e-06 8.49294e-07 4.25334e-05
0.00063064 -1.55149e-05 9.32991e-07
-1.55149e-05 1.94844e-05 3.43089e-07
9.32991e-07 3.43089e-07 -7.95582e-05
0.000527766 -4.77347e-05 -1.12917e-06
-4.77347e-05 -3.8475e-05 1.60308e-06
-1.12917e-06 1.60308e-06 -0.000121427
0.000809891 8.81467e-06 -7.09273e-07
8.81467e-06 0.000135339 -7.01355e-08
-7.09273e-07 -7.01355e-08 3.13851e-05
0.000815206 4.58652e-05 2.41931e-08
4.58652e-05 0.000136941 -1.80081e-06
2.41931e-08 -1.80081e-06 3.49282e-05
0.000679317 -8.78286e-06 -8.90499e-07
-8.78286e-06 6.91607e-05 -5.31906e-08
-8.90499e-07 -5.31906e-08 -2.98181e-05
0.000811429 -9.45778e-06 1.0234e-06
-9.45778e-06 0.000141085 -5.30289e-07
1.0234e-06 -5.30289e-07 3.99104e-05
0.000693741 -6.8676e-05 -1.93776e-06
-6.8676e-05 5.74543e-05 1.1642e-06
-1.93776e-06 1.1642e-06 -2.15611e-05
0.000529942 -2.32026e-06 1.33516e-07
-2.32026e-06 -3.54124e-05 7.21932e-07
1.33516e-07 7.21932e-07 -0.000119195
0.000635397 -3.90304e-06 -1.07857e-06
-3.90304e-06 5.60637e-06 1.99968e-06
-1.07857e-06 1.99968e-06 -4.24015e-05
0.000625516 -1.01804e-05 6.35428e-07
-1.01804e-05 3.1534e-06 -2.72584e-08
6.35428e-07 -2.72584e-08 -4.53211e-05
0.000618554 7.13581e-06 -3.82648e-07
7.13581e-06 -2.67439e-05 5.28762e-06
-3.82648e-07 5.28762e-06 -4.05203e-05
0.000621329 5.79508e-06 -4.09915e-07
5.79508e-06 7.75611e-08 -1.91612e-06
-4.09915e-07 -1.91612e-06 -4.72919e-05
0.000600668 2.17253e-06 3.12567e-07
2.17253e-06 -3.84748e-05 -1.60134e-08
3.12567e-07 -1.60134e-08 -5.15818e-05
0.00230383 -1.35566e-06 -3.0128e-07
-1.35566e-06 0.00095863 5.12718e-06
-3.0128e-07 5.12718e-06 0.000975607
0.000634612 -3.2023e-06 -4.9776e-07
-3.2023e-06 -1.89381e-05 -5.36504e-06
-4.9776e-07 -5.36504e-06 -3.16589e-05
0.00156967 -9.24335e-06 -1.6497e-07
-9.24335e-06 0.000528901 7.30081e-08
-1.6497e-07 7.30081e-08 0.000542117
0.000798622 -1.44643e-05 -5.42994e-08
-1.44643e-05 7.8577e-05 -2.02275e-06
-5.42994e-08 -2.02275e-06 8.82712e-05
0.000649165 -2.14132e-06 6.11065e-07
-2.14132e-06 8.88376e-06 -1.77683e-06
6.11065e-07 -1.77683e-06 -2.6987e-05
0.000657155 -9.4215e-06 4.28401e-07
-9.4215e-06 1.19441e-05 -1.56916e-09
4.28401e-07 -1.56916e-09 -2.53758e-05
0.000624123 1.41102e-05 3.12693e-07
1.41102e-05 -2.61463e-05 -3.40665e-06
3.12693e-07 -3.40665e-06 -3.3039e-05
0.000643898 -1.47105e-05 -1.74733e-06
-1.47105e-05 3.12746e-06 1.85157e-06
-1.74733e-06 1.85157e-06 -3.54618e-05
0.000907436 2.4293e-05 -9.78359e-08
2.4293e-05 0.000142345 -7.23881e-07
-9.78359e-08 -7.23881e-07 0.000135665
0.00207026 3.64669e-05 1.18352e-05
3.64669e-05 0.00082943 -4.38088e-06
1.18352e-05 -4.38088e-06 0.000846837
0.000600417 2.90768e-05 -4.6841e-07
2.90768e-05 -3.22785e-05 3.62009e-06
-4.6841e-07 3.62009e-06 -4.38355e-05
0.00219714 5.07475e-05 -7.41938e-06
5.07475e-05 0.000910674 1.15193e-06
-7.41938e-06 1.15193e-06 0.000925254
0.00229361 6.63589e-05 -1.95761e-05
6.63589e-05 0.00097375 4.08788e-06
-1.95761e-05 4.08788e-06 0.000985113
0.00185048 0.000113102 -2.71689e-06
0.000113102 7.5115e-06 -6.37633e-07
-2.71689e-06 -6.37633e-07 -3.20602e-05
0.0018413 6.02417e-06 -2.47526e-06
6.02417e-06 2.24925e-05 -4.79337e-07
-2.47526e-06 -4.79337e-07 -9.53096e-06
0.00156473 5.08449e-05 1.19514e-05
5.08449e-05 -0.00014965 2.58623e-07
1.19514e-05 2.58623e-07 -0.000145958
0.00228378 0.000164407 2.91011e-05
0.000164407 -0.00019746 7.0485e-06
2.91011e-05 7.0485e-06 -0.000198261
0.00188112 3.08554e-06 -2.89782e-06
3.08554e-06 -1.69127e-05 -5.10729e-07
-2.89782e-06 -5.10729e-07 -1.50741e-05
0.00179057 4.05835e-05 4.35515e-06
4.05835e-05 0.000140774 -1.73248e-06
4.35515e-06 -1.73248e-06 0.000169989
0.00309595 -4.35986e-06 -2.48451e-05
-4.35986e-06 0.000858527 2.07428e-06
-2.48451e-05 2.07428e-06 0.000837035
0.00259979 -4.42352e-05 0.000113345
-4.42352e-05 -0.000578474 -2.07596e-05
0.000113345 -2.07596e-05 -0.000619403
0.00257411 3.08072e-05 5.34489e-06
3.08072e-05 0.000162991 9.4269e-06
5.34489e-06 9.4269e-06 0.000205417
0.000678736 6.33953e-05 -1.55258e-07
6.33953e-05 5.65968e-05 -1.24497e-06
-1.55258e-07 -1.24497e-06 -1.30173e-05
0.000694004 -8.02419e-06 7.21904e-07
-8.02419e-06 6.71608e-05 -1.4279e-07
7.21904e-07 -1.4279e-07 -4.05282e-06
0.00066789 -8.10121e-05 2.71948e-07
-8.10121e-05 5.43579e-05 -4.93092e-07
2.71948e-07 -4.93092e-07 -3.04322e-05
0.000709825 -3.3911e-05 -9.32422e-07
-3.3911e-05 9.48027e-05 1.13019e-07
-9.32422e-07 1.13019e-07 -1.67507e-06
0.00193985 -0.000104323 -5.05912e-06
-0.000104323 -9.77859e-06 1.97615e-07
-5.05912e-06 1.97615e-07 -1.91353e-05
0.00181144 -0.000204259 -1.02795e-06
-0.000204259 -9.48031e-06 1.02414e-06
-1.02795e-06 1.02414e-06 -2.55022e-05
0.00200171 -0.000320868 -5.20621e-06
-0.000320868 0.000106298 1.02872e-06
-5.20621e-06 1.02872e-06 1.95776e-05
0.00171865 -0.000298575 4.34782e-06
-0.000298575 0.000513409 6.0467e-06
4.34782e-06 6.0467e-06 0.00031741
0.000857158 -0.000327399 7.92682e-06
-0.000327399 -8.50898e-05 -4.75691e-06
7.92682e-06 -4.75691e-06 -0.00038288
0.00211503 -0.00043068 4.53775e-06
-0.00043068 0.000335408 -3.723e-06
4.53775e-06 -3.723e-06 0.00017113
0.000976542 -0.000249491 -4.85225e-06
-0.000249491 0.00014539 5.86807e-07
-4.85225e-06 5.86807e-07 -5.10267e-05
0.00140635 -0.000102099 -5.66121e-07
-0.000102099 0.000512273 -7.33338e-07
-5.66121e-07 -7.33338e-07 0.000311692
0.000374889 -7.66875e-05 -1.57392e-06
-7.66875e-05 -0.000129396 5.61819e-07
-1.57392e-06 5.61819e-07 -0.000266092
0.000710592 -2.97161e-05 -6.78343e-07
-2.97161e-05 7.00637e-05 1.5624e-06
-6.78343e-07 1.5624e-06 -1.90682e-06
0.000636031 -7.21586e-05 -4.78723e-07
-7.21586e-05 5.87246e-05 -6.60388e-07
-4.78723e-07 -6.60388e-07 -7.31079e-05
0.000798806 -7.80627e-06 -4.61712e-07
-7.80627e-06 0.000148432 -1.55688e-07
-4.61712e-07 -1.55688e-07 3.75825e-05
0.000694631 6.68704e-06 1.17545e-07
6.68704e-06 7.09115e-05 7.23341e-07
1.17545e-07 7.23341e-07 -3.48046e-06
0.000600177 1.64083e-05 -1.97918e-06
1.64083e-05 2.19542e-05 2.77167e-06
-1.97918e-06 2.77167e-06 -7.57352e-05
0.00215076 -0.000169432 1.17086e-06
-0.000169432 0.000130254 7.20136e-07
1.17086e-06 7.20136e-07 0.000129885
0.000684847 -3.78792e-06 9.69048e-07
-3.78792e-06 7.32123e-05 -4.66174e-07
9.69048e-07 -4.66174e-07 -2.19494e-05
0.000686848 9.91325e-06 1.45997e-06
9.91325e-06 6.95497e-05 -2.58524e-07
1.45997e-06 -2.58524e-07 -3.14029e-05
0.000539584 5.78069e-05 -1.09311e-07
5.78069e-05 -6.87855e-06 1.53785e-06
-1.09311e-07 1.53785e-06 -0.00010925
0.00179041 -0.000221561 -1.45713e-06
-0.000221561 -8.46796e-05 -1.10411e-06
-1.45713e-06 -1.10411e-06 -7.67117e-05
0.00192874 -0.000415803 1.54971e-06
-0.000415803 8.26368e-05 -4.48803e-07
1.54971e-06 -4.48803e-07 -3.95634e-05
0.00124374 -0.00028898 -9.10234e-07
-0.00028898 0.000278493 -1.85784e-06
-9.10234e-07 -1.85784e-06 4.88351e-05
0.00233388 -0.000481249 -4.51084e-06
-0.000481249 0.000564111 1.81455e-06
-4.51084e-06 1.81455e-06 0.0003478
0.00104285 -5.94972e-05 -7.96316e-07
-5.94972e-05 0.000286006 4.77939e-07
-7.96316e-07 4.77939e-07 0.000165165
0.000668083 -7.2384e-05 -3.01206e-07
-7.2384e-05 4.93146e-05 1.01482e-06
-3.01206e-07 1.01482e-06 -7.83225e-05
0.000976509 -0.000298731 2.29346e-06
-0.000298731 0.00031759 -4.61608e-07
2.29346e-06 -4.61608e-07 2.24641e-05
0.00100232 -0.000135975 3.36696e-07
-0.000135975 0.000314641 2.86638e-07
3.36696e-07 2.86638e-07 8.24977e-05
0.0020964 -0.000178236 -1.71594e-05
-0.000178236 4.91489e-05 -6.66503e-08
-1.71594e-05 -6.66503e-08 9.5991e-05
0.00229478 -0.000347332 -1.80607e-05
-0.000347332 0.000175463 4.36058e-06
-1.80607e-05 4.36058e-06 0.000187735
0.00289146 -0.00055772 -1.17666e-05
-0.00055772 0.000677761 -4.68625e-06
-1.17666e-05 -4.68625e-06 0.000489136
0.00192255 -0.000432388 -2.55776e-06
-0.000432388 0.000539613 4.73021e-06
-2.55776e-06 4.73021e-06 0.000323604
0.000603084 9.83629e-06 -6.01019e-07
9.83629e-06 3.80225e-05 -2.63965e-06
-6.01019e-07 -2.63965e-06 -7.98135e-05
0.000605989 -7.34519e-05 1.15545e-06
-7.34519e-05 3.79396e-05 -3.41628e-06
1.15545e-06 -3.41628e-06 -8.59256e-05
0.000581752 -8.68762e-05 -2.55815e-07
-8.68762e-05 6.70191e-05 2.95272e-06
-2.55815e-07 2.95272e-06 -8.02677e-05
0.000508945 -0.000108638 1.98813e-06
-0.000108638 0.000186037 -5.46478e-06
1.98813e-06 -5.46478e-06 -0.000175785
0.000642938 -0.00029421 2.87357e-05
-0.00029421 -0.00248855 -4.6885e-06
2.87357e-05 -4.6885e-06 -0.00297405
0.00129454 7.73556e-05 6.96749e-07
7.73556e-05 0.000423779 -3.47808e-06
6.96749e-07 -3.47808e-06 0.000305739
0.000440365 0.000137585 2.42153e-06
0.000137585 -8.22971e-05 1.85218e-08
2.42153e-06 1.85218e-08 -0.000249042
0.0018854 0.000155286 3.66088e-05
0.000155286 8.59055e-05 5.13028e-06
3.66088e-05 5.13028e-06 9.77855e-05
0.0020842 0.000373786 1.27887e-05
0.000373786 0.000215185 4.96328e-06
1.27887e-05 4.96328e-06 0.000101214
0.00172948 0.00039336 5.23282e-06
0.00039336 0.000270561 6.08812e-06
5.23282e-06 6.08812e-06 1.61999e-05
0.00086817 0.000236418 4.09275e-06
0.000236418 5.75625e-05 2.36315e-06
4.09275e-06 2.36315e-06 -0.000191849
0.00279757 0.000397872 4.88447e-05
0.000397872 0.000132301 1.58314e-05
4.88447e-05 1.58314e-05 -0.000258653
0.00121877 0.000133063 1.75041e-06
0.000133063 0.000404116 -2.61739e-07
1.75041e-06 -2.61739e-07 0.000261163
0.00233927 0.000293794 -9.79222e-06
0.000293794 0.000347975 -1.15919e-06
-9.79222e-06 -1.15919e-06 0.000361713
0.00105483 0.000221742 1.01366e-06
0.000221742 0.000239578 -3.66319e-09
1.01366e-06 -3.66319e-09 5.80588e-05
0.00123751 0.000312659 9.41082e-07
0.000312659 0.000174138 -7.00316e-07
9.41082e-07 -7.00316e-07 -8.31786e-05
0.00135609 0.000444068 -4.68366e-06
0.000444068 -9.9082e-05 -1.23545e-06
-4.68366e-06 -1.23545e-06 -0.000291744
0.00327558 -0.000202627 -8.913e-05
-0.000202627 -0.00108349 -2.94859e-05
-8.913e-05 -2.94859e-05 -0.00204274
0.00496599 0.000497119 -1.08216e-05
0.000497119 0.000422603 -2.67437e-05
-1.08216e-05 -2.67437e-05 -0.00017173
0.000336547 0.000330844 -2.64164e-06
0.000330844 -0.00047064 7.94154e-06
-2.64164e-06 7.94154e-06 -0.000681764
-0.00101125 -0.000417149 0.000119861
-0.000417149 0.000832961 4.64764e-05
0.000119861 4.64764e-05 -0.000291856
-0.000226638 -0.00165466 -7.0459e-05
-0.00165466 -0.00124952 -8.87546e-05
-7.0459e-05 -8.87546e-05 0.000490322
0.00109208 0.000161057 -3.64786e-06
0.000161057 0.000321745 -3.22143e-06
-3.64786e-06 -3.22143e-06 0.000191363
0.000332131 0.000327692 0.000108836
0.000327692 0.00127826 -2.48062e-05
0.000108836 -2.48062e-05 0.000327401
0.00124143 -0.000554928 -7.64669e-05
-0.000554928 0.00189159 -0.000129888
-7.64669e-05 -0.000129888 0.000803666
0.00283157 0.000436143 -2.64274e-05
0.000436143 0.000673572 -1.15333e-05
-2.64274e-05 -1.15333e-05 0.000686703
0.00107123 0.000154872 -1.08275e-05
0.000154872 0.000241512 -1.57293e-06
-1.08275e-05 -1.57293e-06 5.58177e-05
0.000133114 0.00037793 -1.61115e-05
0.00037793 -0.000444567 -1.40352e-05
-1.61115e-05 -1.40352e-05 -0.000719779
0.000122019 0.000378042 2.86484e-05
0.000378042 -0.000607568 5.95495e-05
2.86484e-05 5.95495e-05 -0.00071734
0.0105244 0.000480094 -3.09838e-05
0.000480094 0.0034073 -2.74454e-05
-3.09838e-05 -2.74454e-05 0.00194997
0.00340683 0.000830586 5.56996e-06
0.000830586 0.000773417 1.0952e-05
5.56996e-06 1.0952e-05 -0.000372188
0.00194865 -0.00143711 0.000176849
-0.00143711 -0.000320266 0.000135618
0.000176849 0.000135618 5.59633e-05
0.00369036 -0.000824926 3.99859e-06
-0.000824926 -0.00125031 0.000184665
3.99859e-06 0.000184665 0.000141588
0.000721934 3.65756e-06 7.08958e-07
3.65756e-06 0.000107845 -9.13874e-07
7.08958e-07 -9.13874e-07 1.45202e-05
0.000842517 6.54205e-05 1.14234e-06
6.54205e-05 0.000162347 9.32679e-07
1.14234e-06 9.32679e-07 6.52029e-05
0.00133997 0.000119388 -2.15529e-06
0.000119388 0.000458259 -2.64325e-06
-2.15529e-06 -2.64325e-06 0.000372046
0.000665941 3.98412e-06 4.59593e-07
3.98412e-06 5.59798e-05 -5.17496e-07
4.59593e-07 -5.17496e-07 -3.25616e-05
0.0007591 2.89001e-05 -2.57008e-08
2.89001e-05 0.000105081 -1.22097e-06
-2.57008e-08 -1.22097e-06 8.86482e-07
0.000580576 -1.32277e-05 -1.09063e-06
-1.32277e-05 -9.9905e-06 -4.40836e-07
-1.09063e-06 -4.40836e-07 -0.000106519
0.000815728 3.33791e-05 -7.56376e-07
3.33791e-05 0.000121803 4.57451e-07
-7.56376e-07 4.57451e-07 2.56286e-05
0.000733604 1.12295e-05 -2.30469e-07
1.12295e-05 6.29926e-05 7.08488e-07
-2.30469e-07 7.08488e-07 -2.32414e-05
0.000519144 -9.11582e-07 3.36075e-07
-9.11582e-07 -4.05665e-05 7.22137e-07
3.36075e-07 7.22137e-07 -0.00012559
0.000846282 2.5479e-05 1.18623e-07
2.5479e-05 0.000140517 1.76934e-07
1.18623e-07 1.76934e-07 4.1032e-05
0.0008336 2.35693e-05 5.52503e-08
2.35693e-05 0.000134266 2.77333e-07
5.52503e-08 2.77333e-07 3.21153e-05
0.000715845 1.77143e-05 6.11334e-07
1.77143e-05 8.2146e-05 -3.67462e-07
6.11334e-07 -3.67462e-07 -2.50549e-05
0.000571153 3.36612e-05 -1.69434e-07
3.36612e-05 -1.69971e-05 -9.9693e-08
-1.69434e-07 -9.9693e-08 -0.000107254
0.00105368 3.52095e-05 3.67205e-09
3.52095e-05 0.000256029 -1.00888e-06
3.67205e-09 -1.00888e-06 0.000161692
0.000272868 4.24338e-05 -1.46168e-06
4.24338e-05 -0.000168463 -3.46955e-06
-1.46168e-06 -3.46955e-06 -0.000263873
0.000782419 -7.01084e-05 -2.25789e-07
-7.01084e-05 0.000103856 5.74324e-07
-2.25789e-07 5.74324e-07 -3.18687e-06
0.000801024 -5.53468e-05 -8.512e-07
-5.53468e-05 0.000135194 -8.09997e-07
-8.512e-07 -8.09997e-07 2.36289e-05
0.000820847 -2.07987e-05 -5.25514e-07
-2.07987e-05 0.000146258 -3.51886e-07
-5.25514e-07 -3.51886e-07 3.83651e-05
0.000835301 2.15878e-05 -4.77903e-07
2.15878e-05 0.000140781 -2.97502e-07
-4.77903e-07 -2.97502e-07 4.38357e-05
0.000858089 1.18378e-05 -1.52016e-06
1.18378e-05 0.000170408 -1.9392e-06
-1.52016e-06 -1.9392e-06 5.32122e-05
0.000744693 3.04093e-05 6.46742e-07
3.04093e-05 9.7747e-05 -6.94141e-07
6.46742e-07 -6.94141e-07 -5.8024e-07
0.000412992 -4.61092e-06 4.1825e-07
-4.61092e-06 -0.000113789 -1.6247e-06
4.1825e-07 -1.6247e-06 -0.000199287
0.000641961 2.29047e-05 8.92053e-07
2.29047e-05 3.97312e-05 3.84643e-07
8.92053e-07 3.84643e-07 -5.716e-05
0.000683717 -2.71487e-05 3.14578e-09
-2.71487e-05 5.54296e-05 3.25708e-07
3.14578e-09 3.25708e-07 -3.00265e-05
0.000725319 -2.63843e-05 -2.29895e-07
-2.63843e-05 9.08734e-05 -2.30189e-08
-2.29895e-07 -2.30189e-08 -5.51262e-06
0.00068978 -3.4092e-05 -1.55576e-06
-3.4092e-05 4.66656e-05 9.49347e-07
-1.55576e-06 9.49347e-07 -2.40511e-05
0.000728287 -1.87262e-05 1.29223e-06
-1.87262e-05 7.7109e-05 -4.2176e-07
1.29223e-06 -4.2176e-07 -1.47309e-05
0.000647304 -6.33593e-05 -1.4587e-08
-6.33593e-05 2.87312e-05 1.42632e-07
-1.4587e-08 1.42632e-07 -5.03809e-05
0.000663171 -2.36025e-06 -1.59601e-06
-2.36025e-06 1.80041e-05 2.12497e-06
-1.59601e-06 2.12497e-06 -2.97056e-05
0.000540937 -3.44143e-06 9.76284e-07
-3.44143e-06 -2.23545e-05 -5.24148e-07
9.76284e-07 -5.24148e-07 -0.00011066
0.000636055 6.11161e-06 8.09116e-07
6.11161e-06 7.62851e-06 -2.24342e-08
8.09116e-07 -2.24342e-08 -4.13969e-05
0.00136989 1.64086e-05 -2.69695e-06
1.64086e-05 0.000413736 5.20551e-06
-2.69695e-06 5.20551e-06 0.000403693
0.000629599 2.29085e-05 -1.64097e-07
2.29085e-05 5.41441e-06 -1.84649e-06
-1.64097e-07 -1.84649e-06 -4.29926e-05
0.000984567 8.52899e-06 -1.56422e-06
8.52899e-06 0.000187272 7.96568e-07
-1.56422e-06 7.96568e-07 0.000175601
0.000854367 3.82246e-06 -3.68049e-06
3.82246e-06 0.000111107 4.9789e-06
-3.68049e-06 4.9789e-06 0.000120037
0.000610673 2.05956e-06 9.10477e-08
2.05956e-06 -3.24672e-05 -3.65603e-06
9.10477e-08 -3.65603e-06 -4.56622e-05
0.00231022 2.24693e-07 3.94772e-06
2.24693e-07 0.000962441 -4.5913e-09
3.94772e-06 -4.5913e-09 0.000979357
0.000870001 -3.48944e-06 -3.82288e-06
-3.48944e-06 0.000119918 -5.02829e-06
-3.82288e-06 -5.02829e-06 0.000129383
0.000689079 6.65923e-05 1.48599e-06
6.65923e-05 6.95643e-05 -5.79726e-07
1.48599e-06 -5.79726e-07 -7.14377e-06
0.000646432 1.51953e-05 -7.65335e-07
1.51953e-05 1.02717e-05 -1.9786e-06
-7.65335e-07 -1.9786e-06 -2.65168e-05
0.000641132 -4.05308e-06 8.14454e-07
-4.05308e-06 5.43727e-06 1.77613e-08
8.14454e-07 1.77613e-08 -3.13013e-05
0.000626248 8.00337e-06 1.30741e-07
8.00337e-06 -2.62347e-05 -3.36861e-06
1.30741e-07 -3.36861e-06 -3.2475e-05
0.000663684 -2.23845e-05 -1.55693e-06
-2.23845e-05 1.6452e-05 1.88312e-06
-1.55693e-06 1.88312e-06 -2.16084e-05
0.00060459 1.40244e-05 1.14553e-08
1.40244e-05 -3.80643e-05 -7.58441e-07
1.14553e-08 -7.58441e-07 -4.4747e-05
0.0020487 2.42375e-05 7.94352e-06
2.42375e-05 0.000813047 -4.54916e-06
7.94352e-06 -4.54916e-06 0.000831809
0.00121618 3.00255e-05 -8.24721e-07
3.00255e-05 0.000323628 2.05175e-06
-8.24721e-07 2.05175e-06 0.000318234
0.00149068 3.12845e-05 2.02411e-07
3.12845e-05 0.000490782 1.44524e-06
2.02411e-07 1.44524e-06 0.000504247
0.000919795 3.45155e-05 -1.50405e-05
3.45155e-05 0.000162319 7.26947e-06
-1.50405e-05 7.26947e-06 0.000169959
0.00156025 9.46246e-05 5.67151e-05
9.46246e-05 -0.00049234 1.51108e-05
5.67151e-05 1.51108e-05 -0.00050128
0.00187002 -7.13402e-06 1.63427e-06
-7.13402e-06 -1.84769e-05 2.84478e-07
1.63427e-06 2.84478e-07 -1.80681e-05
0.0018797 5.22971e-05 3.07661e-05
5.22971e-05 0.00020786 -6.28229e-06
3.07661e-05 -6.28229e-06 0.000224113
0.00101845 7.27825e-05 -5.57795e-06
7.27825e-05 -0.00099891 -6.98602e-06
-5.57795e-06 -6.98602e-06 -0.00106868
0.00184016 3.10183e-05 1.51228e-05
3.10183e-05 -0.000150934 1.071e-06
1.51228e-05 1.071e-06 -0.000122224
0.00234933 -1.2119e-05 -3.59504e-07
-1.2119e-05 0.00036688 -1.4046e-06
-3.59504e-07 -1.4046e-06 0.000349712
0.00336666 -5.37595e-05 -5.84287e-05
-5.37595e-05 0.000787806 4.02923e-06
-5.84287e-05 4.02923e-06 0.000775893
0.00324693 -7.50849e-05 0.000119176
-7.50849e-05 0.000524637 -5.911e-06
0.000119176 -5.911e-06 0.000313096
0.00891223 -0.000331514 5.87848e-06
-0.000331514 0.0022033 2.20213e-05
5.87848e-06 2.20213e-05 0.00090988
0.00759611 0.00134969 0.000251144
0.00134969 0.00371668 -0.000112136
0.000251144 -0.000112136 0.00377739
0.00374347 0.00140055 5.92127e-06
0.00140055 0.00256382 1.32783e-05
5.92127e-06 1.32783e-05 0.00337119
0.000422997 -7.38211e-05 2.39935e-06
-7.38211e-05 -8.04956e-05 -9.11403e-07
2.39935e-06 -9.11403e-07 -0.000168489
0.000691785 -9.59726e-06 1.20778e-06
-9.59726e-06 6.60907e-05 -1.38308e-07
1.20778e-06 -1.38308e-07 -5.12973e-06
0.000716163 -7.19595e-05 -1.57339e-06
-7.19595e-05 8.50594e-05 1.66381e-06
-1.57339e-06 1.66381e-06 9.37962e-06
0.000640613 -2.94453e-05 -4.04839e-07
-2.94453e-05 4.09518e-05 2.10507e-07
-4.04839e-07 2.10507e-07 -4.59489e-05
0.000751876 7.34124e-05 1.82749e-07
7.34124e-05 0.000120971 6.69107e-07
1.82749e-07 6.69107e-07 1.49744e-05
0.000822922 0.000118907 1.46418e-06
0.000118907 0.000154122 1.20393e-06
1.46418e-06 1.20393e-06 4.82328e-05
0.000774071 -7.41345e-06 1.78578e-06
-7.41345e-06 0.000125676 -2.17748e-06
1.78578e-06 -2.17748e-06 2.97818e-05
0.000629533 -2.83338e-05 -6.67127e-07
-2.83338e-05 4.06064e-05 6.5669e-07
-6.67127e-07 6.5669e-07 -5.02574e-05
0.00213639 -0.000154191 4.23906e-06
-0.000154191 0.000134532 1.16008e-06
4.23906e-06 1.16008e-06 0.000141119
0.00182654 -0.000229639 5.07745e-06
-0.000229639 -9.57229e-05 -1.67987e-06
5.07745e-06 -1.67987e-06 -9.05534e-05
0.00164268 -0.000393111 1.57887e-06
-0.000393111 -6.90693e-05 2.54654e-06
1.57887e-06 2.54654e-06 -0.000183938
0.00118133 -0.000308755 6.73318e-06
-0.000308755 0.000231425 4.06789e-06
6.73318e-06 4.06789e-06 -1.40112e-06
0.00190839 -0.000452509 4.69393e-06
-0.000452509 0.000341314 -1.54502e-07
4.69393e-06 -1.54502e-07 0.000128101
0.00134158 -0.000329618 1.33188e-07
-0.000329618 0.000523395 -1.70957e-08
1.33188e-07 -1.70957e-08 0.000222168
0.00168763 -0.00020519 -9.72562e-07
-0.00020519 0.00068722 -8.60463e-07
-9.72562e-07 -8.60463e-07 0.000452178
0.000739229 -0.000104167 3.25667e-07
-0.000104167 9.08738e-05 8.68482e-08
3.25667e-07 8.68482e-08 -4.83695e-05
0.000747274 -2.34161e-05 -3.42098e-07
-2.34161e-05 0.000110367 2.28478e-06
-3.42098e-07 2.28478e-06 9.5174e-06
0.000926282 -2.11717e-05 -8.19318e-07
-2.11717e-05 0.000208164 -4.10827e-06
-8.19318e-07 -4.10827e-06 9.34825e-05
0.000953968 -1.68013e-05 9.51469e-07
-1.68013e-05 0.00023144 9.63236e-07
9.51469e-07 9.63236e-07 0.000135985
0.000721362 0.000120748 2.44787e-06
0.000120748 0.000104909 3.39099e-06
2.44787e-06 3.39099e-06 2.14359e-06
0.00178564 -0.000175004 -5.70828e-07
-0.000175004 -8.33718e-05 2.43274e-07
-5.70828e-07 2.43274e-07 -4.19903e-05
0.000713886 2.49952e-05 -1.3264e-06
2.49952e-05 0.000103275 2.24288e-07
-1.3264e-06 2.24288e-07 -1.38748e-05
0.000820965 -7.03549e-05 -1.24304e-06
-7.03549e-05 0.000156452 5.26325e-07
-1.24304e-06 5.26325e-07 3.86094e-05
0.00174057 -0.000332916 1.04404e-06
-0.000332916 -0.000116426 -1.45091e-06
1.04404e-06 -1.45091e-06 -0.000111297
0.00149632 -0.000450652 2.05976e-07
-0.000450652 -4.3998e-05 2.28869e-06
2.05976e-07 2.28869e-06 -0.000206167
0.00158335 -0.000404593 7.53268e-07
-0.000404593 0.000358284 -1.40384e-06
7.53268e-07 -1.40384e-06 0.000129255
0.000880533 -0.000109607 4.42677e-07
-0.000109607 0.000234223 -2.79219e-06
4.42677e-07 -2.79219e-06 7.01412e-05
0.000975072 -0.000149725 -2.56683e-07
-0.000149725 0.0004144 1.89461e-07
-2.56683e-07 1.89461e-07 7.77185e-05
0.00302093 -0.000273422 -2.38342e-05
-0.000273422 0.000626957 4.27965e-06
-2.38342e-05 4.27965e-06 0.000602861
0.0027937 -0.000472412 -2.953e-05
-0.000472412 0.000524165 4.36127e-06
-2.953e-05 4.36127e-06 0.000531939
0.00125999 -0.000475781 -8.11251e-06
-0.000475781 -5.75963e-05 2.55537e-06
-8.11251e-06 2.55537e-06 -0.000223028
0.000389461 -0.000280916 -4.09352e-06
-0.000280916 -0.000150882 1.80533e-05
-4.09352e-06 1.80533e-05 -0.000390512
0.000660796 -0.000116955 1.84309e-06
-0.000116955 7.03843e-05 -4.53927e-07
1.84309e-06 -4.53927e-07 -5.87121e-05
0.000550236 -8.16243e-05 2.47724e-06
-8.16243e-05 3.06902e-05 -4.07992e-06
2.47724e-06 -4.07992e-06 -0.000108851
0.00105161 -5.18415e-05 6.95319e-07
-5.18415e-05 0.000443264 -5.69321e-06
6.95319e-07 -5.69321e-06 0.000157429
-0.00447156 -4.79696e-05 0.000234273
-4.79696e-05 -0.00275417 2.0753e-06
0.000234273 2.0753e-06 -0.00207947
0.00954681 -0.000116422 -1.22586e-05
-0.000116422 0.0028973 3.79925e-07
-1.22586e-05 3.79925e-07 0.00221798
0.00135963 0.000113732 3.44834e-06
0.000113732 0.000479951 -1.37663e-06
3.44834e-06 -1.37663e-06 0.000343681
0.000810333 0.000200815 2.90721e-06
0.000200815 0.000114213 -2.25062e-06
2.90721e-06 -2.25062e-06 -6.44546e-05
0.00211794 0.000273161 2.98006e-05
0.000273161 0.000220583 1.83602e-05
2.98006e-05 1.83602e-05 0.000248696
0.00239294 0.000519165 8.60657e-06
0.000519165 0.000425155 8.04945e-06
8.60657e-06 8.04945e-06 0.000237021
0.00163316 0.000357759 7.0774e-06
0.000357759 0.00039819 1.75429e-06
7.0774e-06 1.75429e-06 0.00013512
0.00922795 0.000430542 4.50309e-05
0.000430542 0.00230702 7.42608e-06
4.50309e-05 7.42608e-06 0.00121924
0.00717772 0.0007576 -0.000134804
0.0007576 0.00119749 -3.07215e-05
-0.000134804 -3.07215e-05 0.00068556
-0.000919559 0.000197757 -3.28514e-07
0.000197757 -0.00102268 -1.81921e-05
-3.28514e-07 -1.81921e-05 -0.00126321
0.00652783 -0.0010946 -4.72732e-05
-0.0010946 0.00322273 2.74577e-05
-4.72732e-05 2.74577e-05 0.00275606
-0.00732698 -0.00168162 -0.000407369
-0.00168162 -0.00367662 -0.000315841
-0.000407369 -0.000315841 -0.00186187
0.000941671 0.000156153 -2.04786e-07
0.000156153 0.000246953 -1.77611e-06
-2.04786e-07 -1.77611e-06 0.000115664
-0.00241342 -0.000488013 9.29038e-05
-0.000488013 -0.00184923 9.87986e-06
9.29038e-05 9.87986e-06 -0.00200528
-0.00205485 -0.000434522 -0.000106495
-0.000434522 0.000839853 -5.1928e-05
-0.000106495 -5.1928e-05 -0.000557707
0.00263136 0.000401738 -5.67415e-06
0.000401738 0.000541137 -1.17134e-06
-5.67415e-06 -1.17134e-06 0.000575601
0.00086496 0.000179595 -1.95125e-06
0.000179595 0.000157085 8.05063e-07
-1.95125e-06 8.05063e-07 -4.17123e-05
0.000848974 0.000374421 3.71176e-06
0.000374421 -4.44887e-05 1.79233e-06
3.71176e-06 1.79233e-06 -0.000311069
0.00100922 0.000321294 1.24762e-05
0.000321294 -3.75384e-05 1.15236e-05
1.24762e-05 1.15236e-05 -5.73454e-05
0.00769497 0.000356859 -3.98816e-05
0.000356859 0.00145134 -2.33121e-05
-3.98816e-05 -2.33121e-05 -0.000237259
0.00636786 0.00109346 -4.83728e-05
0.00109346 0.00167294 -1.91055e-05
-4.83728e-05 -1.91055e-05 0.000887951
0.00852361 -0.00130295 8.9881e-05
-0.00130295 0.00402231 -4.07678e-05
8.9881e-05 -4.07678e-05 0.00400992
0.00305535 -0.00099546 0.000108868
-0.00099546 -0.00175051 0.000227953
0.000108868 0.000227953 -0.000341371
0.00146271 0.000139109 -1.24919e-05
0.000139109 0.00056141 -6.7207e-06
-1.24919e-05 -6.7207e-06 0.000447435
-0.00457997 0.000132759 -7.48474e-05
0.000132759 0.000498764 -4.48911e-05
-7.48474e-05 -4.48911e-05 -0.00150997
0.00261104 0.000188128 -0.000119469
0.000188128 0.00110315 -0.000172185
-0.000119469 -0.000172185 -0.000878899
0.000657416 0.000330851 -1.50717e-05
0.000330851 -0.000211277 3.15147e-06
-1.50717e-05 3.15147e-06 -0.000219753
0.00128424 0.00037825 -3.98968e-05
0.00037825 0.000457266 -1.30553e-05
-3.98968e-05 -1.30553e-05 0.000223073
0.00242656 0.000303168 -6.83545e-05
0.000303168 0.00114181 -6.58542e-06
-6.83545e-05 -6.58542e-06 0.000821081
0.00308409 0.000862787 -5.11025e-05
0.000862787 0.000383608 -1.56107e-05
-5.11025e-05 -1.56107e-05 3.94885e-05
0.000844795 0.000497421 0.000124856
0.000497421 -0.000148144 9.48998e-05
0.000124856 9.48998e-05 -0.0025725
0.00909181 -0.00141142 3.13897e-05
-0.00141142 0.00289909 0.000194029
3.13897e-05 0.000194029 0.00258929
0.00335332 -0.000625432 -1.87771e-05
-0.000625432 -0.00206527 -2.40896e-05
-1.87771e-05 -2.40896e-05 -0.000744799
0.000895156 8.30863e-05 2.61901e-06
8.30863e-05 0.000198835 3.32335e-06
2.61901e-06 3.32335e-06 9.58206e-05
0.00118955 0.000109778 4.53733e-06
0.000109778 0.000364064 2.6175e-06
4.53733e-06 2.6175e-06 0.000279113
0.000287431 5.8567e-05 1.10227e-06
5.8567e-05 -0.000122392 -3.93818e-06
1.10227e-06 -3.93818e-06 -0.000200159
0.000517603 4.41605e-05 1.0573e-06
4.41605e-05 -4.24248e-05 -1.63887e-07
1.0573e-06 -1.63887e-07 -0.000126871
0.000755761 4.47313e-05 -6.42373e-07
4.47313e-05 0.000111194 -1.30477e-06
-6.42373e-07 -1.30477e-06 1.1988e-06
0.000791835 -6.36032e-06 -3.72165e-07
-6.36032e-06 0.000110154 5.39413e-07
-3.72165e-07 5.39413e-07 8.61791e-06
0.000790482 -2.21757e-06 1.23687e-06
-2.21757e-06 0.00011336 -2.83672e-07
1.23687e-06 -2.83672e-07 1.11836e-05
0.00058 2.69348e-05 2.03678e-08
2.69348e-05 -1.10709e-05 2.36737e-06
2.03678e-08 2.36737e-06 -9.99304e-05
0.000799404 4.02604e-05 2.31782e-08
4.02604e-05 0.0001349 -7.24743e-07
2.31782e-08 -7.24743e-07 2.29662e-05
0.000888967 3.07051e-05 -9.23628e-08
3.07051e-05 0.000160409 2.58605e-07
-9.23628e-08 2.58605e-07 6.56967e-05
0.000810425 -3.25986e-05 -2.28004e-07
-3.25986e-05 0.000122635 4.72913e-07
-2.28004e-07 4.72913e-07 1.3809e-05
0.000256188 3.4311e-05 1.08718e-07
3.4311e-05 -0.000168371 2.63536e-07
1.08718e-07 2.63536e-07 -0.000262445
-0.000138962 1.94144e-05 -2.51411e-06
1.94144e-05 -0.000292414 -2.68961e-06
-2.51411e-06 -2.68961e-06 -0.000386643
0.000928015 -3.79297e-06 -2.35404e-06
-3.79297e-06 0.000192311 -2.17565e-06
-2.35404e-06 -2.17565e-06 8.81192e-05
0.000942394 5.26719e-06 -3.17244e-07
5.26719e-06 0.000217082 -1.26158e-06
-3.17244e-07 -1.26158e-06 9.06014e-05
0.000820386 -5.02749e-05 -1.98625e-08
-5.02749e-05 0.000149347 -6.94496e-07
-1.98625e-08 -6.94496e-07 3.84913e-05
0.000880003 -1.46459e-05 -4.14866e-07
-1.46459e-05 0.000160968 8.99259e-07
-4.14866e-07 8.99259e-07 6.68131e-05
0.000839005 -3.92538e-05 3.4737e-07
-3.92538e-05 0.00015021 -4.77674e-07
3.4737e-07 -4.77674e-07 3.91237e-05
0.000774558 2.49339e-05 -2.6579e-07
2.49339e-05 0.000111985 -1.1821e-07
-2.6579e-07 -1.1821e-07 1.46626e-05
0.000582569 -3.11309e-05 -7.30705e-08
-3.11309e-05 -1.44643e-05 6.29388e-07
-7.30705e-08 6.29388e-07 -0.000101131
0.000660618 3.10839e-05 8.32126e-07
3.10839e-05 4.95675e-05 6.44563e-07
8.32126e-07 6.44563e-07 -4.58004e-05
0.000512595 -5.98815e-06 -6.12031e-07
-5.98815e-06 -3.42581e-05 -3.07456e-06
-6.12031e-07 -3.07456e-06 -0.000137614
0.000561505 -2.10066e-05 1.39176e-06
-2.10066e-05 -1.99375e-05 -8.88366e-07
1.39176e-06 -8.88366e-07 -0.000105501
0.000820556 -7.78893e-06 2.99105e-06
-7.78893e-06 0.000112884 -3.97697e-06
2.99105e-06 -3.97697e-06 1.82173e-05
0.000165505 -3.7729e-05 8.18138e-07
-3.7729e-05 -0.000215974 4.12513e-07
8.18138e-07 4.12513e-07 -0.000358418
0.000341318 2.29881e-05 -4.17454e-07
2.29881e-05 -0.000119784 -7.11701e-07
-4.17454e-07 -7.11701e-07 -0.000223699
0.000731878 1.63108e-05 3.04012e-07
1.63108e-05 9.03779e-05 3.92895e-07
3.04012e-07 3.92895e-07 -7.68644e-06
0.000668896 7.19422e-06 -1.2206e-07
7.19422e-06 4.83004e-05 5.14934e-07
-1.2206e-07 5.14934e-07 -3.76482e-05
0.000733142 -1.18942e-05 -4.80852e-08
-1.18942e-05 9.42314e-05 -1.43624e-08
-4.80852e-08 -1.43624e-08 1.24398e-06
0.000635223 9.25365e-06 -5.99496e-07
9.25365e-06 2.14912e-05 8.4547e-07
-5.99496e-07 8.4547e-07 -5.10734e-05
0.000773262 -8.88488e-06 2.5174e-07
-8.88488e-06 0.000116666 -1.0438e-07
2.5174e-07 -1.0438e-07 2.13744e-05
0.000701846 -3.24744e-05 -3.14978e-07
-3.24744e-05 5.99888e-05 5.31132e-08
-3.14978e-07 5.31132e-08 -1.4997e-05
0.000618828 4.12747e-05 -6.57743e-07
4.12747e-05 -6.90524e-06 2.11039e-06
-6.57743e-07 2.11039e-06 -5.6199e-05
0.000597507 -5.48033e-05 1.2861e-06
-5.48033e-05 -4.46643e-06 -8.50608e-07
1.2861e-06 -8.50608e-07 -8.20483e-05
0.000642192 1.11773e-05 -2.45599e-07
1.11773e-05 6.47515e-06 -3.10699e-08
-2.45599e-07 -3.10699e-08 -4.15204e-05
0.00136921 2.54535e-05 -4.72385e-06
2.54535e-05 0.000414079 5.26419e-06
-4.72385e-06 5.26419e-06 0.000403645
0.000634552 -9.28749e-06 7.09249e-07
-9.28749e-06 6.08102e-06 -1.85778e-06
7.09249e-07 -1.85778e-06 -4.24355e-05
0.00097799 1.54078e-05 -2.48603e-06
1.54078e-05 0.000183966 7.50341e-07
-2.48603e-06 7.50341e-07 0.000172136
0.000796835 1.44731e-05 -3.25291e-07
1.44731e-05 7.79837e-05 1.95894e-06
-3.25291e-07 1.95894e-06 8.67693e-05
0.00059473 6.53704e-06 4.29789e-07
6.53704e-06 -4.15066e-05 -3.68083e-06
4.29789e-07 -3.68083e-06 -5.49809e-05
0.00232378 1.27646e-05 3.59533e-06
1.27646e-05 0.00097102 4.03038e-08
3.59533e-06 4.03038e-08 0.000987612
0.00232077 1.83156e-06 -3.62432e-07
1.83156e-06 0.00096868 -5.15161e-06
-3.62432e-07 -5.15161e-06 0.000985471
0.00100113 7.03831e-05 -1.29505e-06
7.03831e-05 0.000244407 -1.45099e-06
-1.29505e-06 -1.45099e-06 0.000170978
0.000652354 2.49719e-05 -8.98346e-07
2.49719e-05 1.49761e-05 -2.19803e-06
-8.98346e-07 -2.19803e-06 -2.37486e-05
0.000675754 -4.7522e-06 6.9984e-07
-4.7522e-06 6.00638e-05 8.47532e-07
6.9984e-07 8.47532e-07 -1.52485e-05
0.000627883 2.28205e-06 2.90778e-08
2.28205e-06 -2.60651e-05 -3.48044e-06
2.90778e-08 -3.48044e-06 -3.21979e-05
0.000643136 -6.37419e-06 2.35272e-07
-6.37419e-06 8.2789e-06 -3.24877e-08
2.35272e-07 -3.24877e-08 -2.8489e-05
0.00064892 -2.15745e-05 -1.35358e-06
-2.15745e-05 1.01407e-05 1.72242e-06
-1.35358e-06 1.72242e-06 -2.68488e-05
0.000615673 7.90235e-06 -1.83065e-07
7.90235e-06 -3.24771e-05 -2.06338e-08
-1.83065e-07 -2.06338e-08 -3.86665e-05
0.00204467 1.23074e-05 3.55103e-06
1.23074e-05 0.000808217 -4.68888e-06
3.55103e-06 -4.68888e-06 0.000827714
0.00120144 1.99711e-05 -7.02588e-07
1.99711e-05 0.0003117 2.05305e-06
-7.02588e-07 2.05305e-06 0.000308203
0.00143125 2.09078e-05 1.39773e-06
2.09078e-05 0.000450977 5.59067e-08
1.39773e-06 5.59067e-08 0.000466341
0.000872192 2.47463e-05 -1.36572e-05
2.47463e-05 0.000128081 7.16212e-06
-1.36572e-05 7.16212e-06 0.000138755
-0.0074943 0.00026246 0.000169727
0.00026246 -0.00339064 9.63159e-07
0.000169727 9.63159e-07 -0.00402982
-0.00201657 0.00011932 0.000181361
0.00011932 0.00112598 1.41463e-05
0.000181361 1.41463e-05 -1.30616e-05
0.00383702 0.00019931 -0.000190134
0.00019931 0.000301471 -2.25729e-06
-0.000190134 -2.25729e-06 0.00031186
0.000472261 3.25485e-05 3.32056e-05
3.25485e-05 -0.000825646 -5.69281e-06
3.32056e-05 -5.69281e-06 -0.000835311
0.00133543 -2.04045e-05 1.80605e-05
-2.04045e-05 -0.000283228 -3.49206e-07
1.80605e-05 -3.49206e-07 -0.000297276
0.000599711 4.68721e-05 7.34998e-06
4.68721e-05 -0.000695739 -4.5529e-06
7.34998e-06 -4.5529e-06 -0.000719919
0.00244039 -8.84394e-05 8.06863e-07
-8.84394e-05 0.000233314 3.08892e-06
8.06863e-07 3.08892e-06 0.000201601
0.00806267 0.000139624 3.33696e-05
0.000139624 0.00153183 -2.83754e-05
3.33696e-05 -2.83754e-05 0.000536516
-0.00345692 0.000761536 -3.31708e-05
0.000761536 -0.00103417 -7.03029e-06
-3.31708e-05 -7.03029e-06 -0.00186904
-0.00177313 0.0014966 -8.37655e-05
0.0014966 -0.000538361 3.84756e-05
-8.37655e-05 3.84756e-05 0.000851465
0.00115371 -0.000182487 5.38082e-05
-0.000182487 -0.000770113 7.79078e-06
5.38082e-05 7.79078e-06 -0.000988681
0.0108056 -0.000112167 6.58671e-05
-0.000112167 0.00324089 -2.89612e-05
6.58671e-05 -2.89612e-05 0.00186261
0.00161333 0.00142275 0.000112741
0.00142275 -0.00025809 -0.000194606
0.000112741 -0.000194606 0.000321618
0.00525115 0.00107863 -0.000129746
0.00107863 0.00029004 9.22489e-05
-0.000129746 9.22489e-05 0.000789281
0.000728138 6.94734e-05 -8.6874e-07
6.94734e-05 0.000114788 -4.30203e-07
-8.6874e-07 -4.30203e-07 -3.76698e-06
0.000574922 1.19803e-05 -2.8027e-07
1.19803e-05 4.16933e-06 -7.04385e-07
-2.8027e-07 -7.04385e-07 -8.13178e-05
0.000700812 -8.01012e-05 -1.2045e-06
-8.01012e-05 7.56154e-05 1.34388e-06
-1.2045e-06 1.34388e-06 8.73148e-07
0.000582737 -3.73292e-07 -2.88469e-08
-3.73292e-07 1.24976e-05 8.33708e-07
-2.88469e-08 8.33708e-07 -7.85836e-05
0.000725415 6.65775e-05 9.22023e-07
6.65775e-05 0.000110094 1.46749e-06
9.22023e-07 1.46749e-06 3.46695e-06
0.00085979 7.33252e-05 3.38872e-08
7.33252e-05 0.000182394 -4.56404e-07
3.38872e-08 -4.56404e-07 6.47836e-05
0.000771192 8.48512e-05 1.65329e-06
8.48512e-05 0.000128978 1.68151e-06
1.65329e-06 1.68151e-06 2.07555e-05
0.000701758 5.10584e-06 1.62033e-06
5.10584e-06 7.59719e-05 -8.0481e-07
1.62033e-06 -8.0481e-07 -2.60003e-05
0.000671778 -1.65209e-05 5.61947e-07
-1.65209e-05 6.90549e-05 -9.91604e-07
5.61947e-07 -9.91604e-07 -3.03234e-05
0.000551744 -8.83043e-06 -6.44268e-07
-8.83043e-06 -1.19568e-05 1.1098e-06
-6.44268e-07 1.1098e-06 -9.76705e-05
0.00149846 -0.000166042 1.41784e-05
-0.000166042 -0.000200724 -6.75127e-07
1.41784e-05 -6.75127e-07 -0.000163263
0.00168243 -0.000337455 1.78421e-05
-0.000337455 -0.000132346 -3.51436e-06
1.78421e-05 -3.51436e-06 -0.000145561
-5.11008e-05 -0.00033205 1.37164e-05
-0.00033205 -0.000850554 2.15546e-06
1.37164e-05 2.15546e-06 -0.000983027
0.00121697 -0.000378328 1.97994e-06
-0.000378328 0.00017099 -8.33746e-07
1.97994e-06 -8.33746e-07 -6.58926e-05
0.00154096 -0.000180736 -1.70308e-07
-0.000180736 0.00069664 7.27035e-06
-1.70308e-07 7.27035e-06 0.000387601
0.0010803 -0.000148418 -7.00559e-08
-0.000148418 0.000351942 7.84547e-07
-7.00559e-08 7.84547e-07 0.000167955
0.000927679 -6.51416e-05 -1.06461e-06
-6.51416e-05 0.000206932 4.27385e-07
-1.06461e-06 4.27385e-07 9.89034e-05
0.000715802 3.49974e-05 -1.65722e-06
3.49974e-05 0.000105309 2.1716e-06
-1.65722e-06 2.1716e-06 -9.21007e-06
0.00172924 -0.000212302 2.08027e-07
-0.000212302 -3.71733e-05 -1.18113e-06
2.08027e-07 -1.18113e-06 -3.55309e-05
0.00064243 -4.97773e-05 -2.56712e-07
-4.97773e-05 6.30087e-05 -1.56612e-07
-2.56712e-07 -1.56612e-07 -6.78538e-05
0.000499759 -6.85588e-05 8.40771e-07
-6.85588e-05 5.22837e-06 -1.36882e-06
8.40771e-07 -1.36882e-06 -0.000137912
0.002113 -0.000435284 4.50913e-06
-0.000435284 0.000181951 -6.07536e-07
4.50913e-06 -6.07536e-07 0.000179639
0.000904383 -0.000444432 1.05645e-06
-0.000444432 -0.000228111 3.31352e-06
1.05645e-06 3.31352e-06 -0.000381793
0.000888638 -0.000343938 8.73497e-06
-0.000343938 0.000117092 -3.00353e-06
8.73497e-06 -3.00353e-06 -0.000143564
0.00140557 -9.99969e-05 -4.82556e-07
-9.99969e-05 0.000616123 -3.31283e-06
-4.82556e-07 -3.31283e-06 0.000346279
0.000981933 -0.000281474 -1.78663e-05
-0.000281474 -9.92621e-05 -2.91171e-07
-1.78663e-05 -2.91171e-07 -0.000340266
0.00125075 -0.000347056 -2.87921e-05
-0.000347056 3.37198e-05 1.06314e-05
-2.87921e-05 1.06314e-05 -7.69738e-06
-0.000272519 -0.000192096 -1.84945e-05
-0.000192096 -0.000334719 3.76043e-05
-1.84945e-05 3.76043e-05 -0.000621794
0.000527183 3.36257e-05 6.08414e-07
3.36257e-05 -2.84853e-06 1.19167e-06
6.08414e-07 1.19167e-06 -0.000131203
0.000505784 -0.000102481 2.67408e-06
-0.000102481 5.25333e-07 -1.55196e-06
2.67408e-06 -1.55196e-06 -0.000142701
0.000737567 -7.00741e-05 2.52241e-06
-7.00741e-05 0.000190776 -6.99681e-06
2.52241e-06 -6.99681e-06 -1.01051e-05
0.000498539 0.000140146 -0.000123852
0.000140146 0.00293065 1.67278e-06
-0.000123852 1.67278e-06 0.00165232
0.00200996 -0.000291251 1.83987e-05
-0.000291251 0.00146929 1.73694e-05
1.83987e-05 1.73694e-05 0.00134028
0.000341969 0.000559555 -6.14938e-05
0.000559555 -0.00275883 1.96419e-05
-6.14938e-05 1.96419e-05 -0.00336579
0.000749534 0.000142837 4.54716e-06
0.000142837 0.000150091 1.04842e-06
4.54716e-06 1.04842e-06 2.0783e-05
0.000624076 0.000201528 4.91755e-06
0.000201528 5.06385e-05 5.02861e-06
4.91755e-06 5.02861e-06 -0.00015963
0.00229612 0.000356287 1.69797e-05
0.000356287 0.00033889 1.1694e-05
1.69797e-05 1.1694e-05 0.000389593
0.00174642 0.000382866 1.49372e-05
0.000382866 0.000442842 1.23476e-05
1.49372e-05 1.23476e-05 0.000179091
0.00608322 -0.000584842 4.93177e-05
-0.000584842 0.00237909 3.12742e-05
4.93177e-05 3.12742e-05 0.0025165
0.00162326 -4.99114e-05 -0.000111135
-4.99114e-05 -0.00153849 -9.56327e-06
-0.000111135 -9.56327e-06 -0.0030745
0.00293381 0.000979798 -8.55448e-05
0.000979798 -0.00033993 -2.1285e-05
-8.55448e-05 -2.1285e-05 -0.00109528
0.000482809 0.00019291 2.5538e-05
0.00019291 -0.000165541 -2.01053e-05
2.5538e-05 -2.01053e-05 -0.000149927
-0.00372989 -0.000664413 -6.4163e-05
-0.000664413 -0.00121354 -9.05768e-05
-6.4163e-05 -9.05768e-05 -0.00150528
-0.000330538 -0.000633602 -5.0728e-05
-0.000633602 0.000956368 8.71527e-06
-5.0728e-05 8.71527e-06 -0.00047829
0.00769156 -0.00132704 0.000153847
-0.00132704 0.000677345 0.000124761
0.000153847 0.000124761 0.00215094
0.000672486 0.000104879 5.02419e-06
0.000104879 0.000133056 -2.57158e-06
5.02419e-06 -2.57158e-06 1.21214e-05
-0.00144778 -1.60427e-05 -6.43741e-05
-1.60427e-05 0.00151447 -1.96931e-05
-6.43741e-05 -1.96931e-05 -0.00016057
0.00301998 0.000213594 -1.1722e-05
0.000213594 0.00127536 -5.13434e-05
-1.1722e-05 -5.13434e-05 -0.000772454
0.00113369 0.000325245 -7.63367e-06
0.000325245 8.46152e-05 3.93979e-06
-7.63367e-06 3.93979e-06 2.87933e-05
0.000595929 0.000234931 -2.83039e-08
0.000234931 0.000112744 1.92251e-06
-2.83039e-08 1.92251e-06 -0.000118749
-0.000134341 0.000222648 3.21008e-05
0.000222648 -0.000265536 -3.17987e-05
3.21008e-05 -3.17987e-05 -0.000496481
0.00544457 0.00119637 -8.22528e-06
0.00119637 0.00173999 2.84611e-06
-8.22528e-06 2.84611e-06 0.00103323
0.0101492 0.000463547 4.97449e-05
0.000463547 0.00364053 1.85999e-05
4.97449e-05 1.85999e-05 0.00181458
0.00270379 -0.000895375 1.36511e-05
-0.000895375 -0.000846641 -2.80443e-05
1.36511e-05 -2.80443e-05 -0.000988854
0.00799392 -0.000870105 8.09971e-06
-0.000870105 0.000970113 -2.58011e-05
8.09971e-06 -2.58011e-05 0.00221187
0.00100135 0.000181203 -1.18974e-05
0.000181203 0.000364956 -8.18914e-06
-1.18974e-05 -8.18914e-06 0.000250561
0.00242885 1.49018e-05 -8.67605e-05
1.49018e-05 0.000779665 -3.49837e-05
-8.67605e-05 -3.49837e-05 -0.00055491
0.000386453 7.1826e-05 -1.76856e-05
7.1826e-05 0.000282791 -7.90339e-05
-1.76856e-05 -7.90339e-05 -0.00111639
-0.000947453 4.15903e-05 -1.70083e-05
4.15903e-05 -0.000467392 -1.73121e-05
-1.70083e-05 -1.73121e-05 -0.000615551
0.00202072 0.000364248 -2.62445e-05
0.000364248 0.000731786 4.43006e-05
-2.62445e-05 4.43006e-05 7.94746e-05
0.00941165 0.00075801 3.13672e-05
0.00075801 0.00390009 -2.05186e-06
3.13672e-05 -2.05186e-06 0.0011976
-0.00691517 -0.00132919 -3.8321e-05
-0.00132919 -0.00401114 9.3294e-05
-3.8321e-05 9.3294e-05 -0.00569374
0.00610429 0.000312152 5.07792e-06
0.000312152 -0.000788127 -0.000128165
5.07792e-06 -0.000128165 0.000692337
0.00101173 9.26928e-05 2.06323e-06
9.26928e-05 0.000250644 6.40578e-06
2.06323e-06 6.40578e-06 0.000169974
0.000916932 0.000107103 -3.85178e-06
0.000107103 0.000244354 -8.94719e-07
-3.85178e-06 -8.94719e-07 0.00016076
0.000629068 7.67303e-05 -4.68566e-06
7.67303e-05 0.000202535 5.8271e-08
-4.68566e-06 5.8271e-08 9.43943e-05
0.000809156 7.74147e-05 -2.04052e-06
7.74147e-05 0.000131103 -7.97363e-07
-2.04052e-06 -7.97363e-07 2.54153e-05
0.000859396 -3.33058e-05 -5.38232e-07
-3.33058e-05 0.000160228 3.52808e-07
-5.38232e-07 3.52808e-07 4.50296e-05
0.000706225 3.52302e-05 3.78988e-07
3.52302e-05 5.50013e-05 1.06982e-06
3.78988e-07 1.06982e-06 -4.09029e-05
0.000264765 2.78488e-05 1.22469e-06
2.78488e-05 -0.000153199 1.71636e-06
1.22469e-06 1.71636e-06 -0.000246535
0.00085141 -1.60561e-06 9.11116e-07
-1.60561e-06 0.000149097 1.19429e-07
9.11116e-07 1.19429e-07 3.39875e-05
0.000884309 1.53908e-05 2.8312e-08
1.53908e-05 0.000171998 -6.43863e-07
2.8312e-08 -6.43863e-07 6.63068e-05
0.000356728 6.82184e-07 -6.78774e-07
6.82184e-07 2.66241e-06 2.24469e-06
-6.78774e-07 2.24469e-06 -0.000100372
0.000327808 1.34015e-05 -5.95765e-06
1.34015e-05 0.000135228 -1.57103e-06
-5.95765e-06 -1.57103e-06 1.56185e-05
0.000877433 -1.49398e-05 -1.71368e-06
-1.49398e-05 0.00026698 -6.94549e-06
-1.71368e-06 -6.94549e-06 0.000163789
0.000983206 4.09541e-05 -9.5244e-07
4.09541e-05 0.000236784 -3.05459e-06
-9.5244e-07 -3.05459e-06 0.00012002
0.000858642 -8.7253e-05 1.26208e-06
-8.7253e-05 0.000151079 8.24168e-07
1.26208e-06 8.24168e-07 4.63254e-05
0.000773799 2.70981e-05 -5.5152e-07
2.70981e-05 0.000108795 -1.27885e-07
-5.5152e-07 -1.27885e-07 1.27721e-05
0.000724763 -3.83381e-05 -1.89881e-06
-3.83381e-05 6.82725e-05 2.24652e-06
-1.89881e-06 2.24652e-06 -1.81561e-05
0.000590134 -1.78387e-05 1.04423e-06
-1.78387e-05 1.18331e-06 8.71767e-07
1.04423e-06 8.71767e-07 -9.58865e-05
0.000735186 2.76246e-05 3.38934e-07
2.76246e-05 9.33526e-05 1.72673e-07
3.38934e-07 1.72673e-07 -3.48958e-06
0.000687327 -3.09145e-06 -7.00193e-07
-3.09145e-06 5.20786e-05 1.17078e-07
-7.00193e-07 1.17078e-07 -3.3433e-05
0.000930616 3.86468e-06 1.46788e-07
3.86468e-06 0.000186746 -2.04589e-06
1.46788e-07 -2.04589e-06 9.68411e-05
0.000272191 -2.51161e-05 2.68089e-06
-2.51161e-05 -0.000155454 -3.76685e-06
2.68089e-06 -3.76685e-06 -0.000230581
0.00046347 -8.74888e-05 1.29291e-06
-8.74888e-05 -0.000133349 -9.19245e-07
1.29291e-06 -9.19245e-07 -0.000228015
0.000900511 -3.23906e-05 -1.8638e-06
-3.23906e-05 0.000164635 -3.21426e-07
-1.8638e-06 -3.21426e-07 6.55771e-05
0.000450872 -7.15128e-05 3.55725e-06
-7.15128e-05 -6.41134e-05 1.82249e-06
3.55725e-06 1.82249e-06 -0.000196033
0.00105356 -0.000202665 -1.774e-08
-0.000202665 0.000247566 5.97139e-06
-1.774e-08 5.97139e-06 4.58741e-05
0.00123833 -8.68283e-05 1.5694e-06
-8.68283e-05 0.000398353 -1.38028e-06
1.5694e-06 -1.38028e-06 0.000274652
0.000335363 -5.87415e-05 -1.76286e-06
-5.87415e-05 -0.000106058 -3.65462e-06
-1.76286e-06 -3.65462e-06 -0.000247273
0.000649169 1.12222e-05 -3.39231e-07
1.12222e-05 5.00112e-05 -3.37188e-07
-3.39231e-07 -3.37188e-07 -5.20128e-05
0.000394174 1.17357e-05 4.93057e-07
1.17357e-05 -9.99507e-05 2.51596e-07
4.93057e-07 2.51596e-07 -0.00019335
0.000839556 4.90756e-06 -1.48057e-07
4.90756e-06 0.000151389 5.95338e-07
-1.48057e-07 5.95338e-07 5.19817e-05
0.000753469 -2.02454e-05 -5.84692e-07
-2.02454e-05 0.000104618 5.10763e-07
-5.84692e-07 5.10763e-07 1.16208e-05
0.000659016 -2.45219e-06 -7.10025e-07
-2.45219e-06 3.24827e-05 8.93487e-07
-7.10025e-07 8.93487e-07 -3.88177e-05
0.000820468 -3.92815e-05 3.32052e-07
-3.92815e-05 0.000154882 -4.46661e-07
3.32052e-07 -4.46661e-07 5.33473e-05
0.000702323 -3.66659e-05 -4.86272e-07
-3.66659e-05 6.17344e-05 1.0445e-08
-4.86272e-07 1.0445e-08 -1.27508e-05
0.000635691 3.2721e-05 -1.67707e-06
3.2721e-05 1.58172e-06 1.81865e-06
-1.67707e-06 1.81865e-06 -4.71756e-05
0.000737139 -6.60842e-05 1.49195e-06
-6.60842e-05 8.34651e-05 -1.01623e-06
1.49195e-06 -1.01623e-06 6.10848e-06
0.000671836 2.30992e-06 -2.80417e-07
2.30992e-06 2.00106e-05 1.46407e-08
-2.80417e-07 1.46407e-08 -2.71229e-05
0.00135977 3.47898e-05 -6.98853e-06
3.47898e-05 0.000410222 5.22571e-06
-6.98853e-06 5.22571e-06 0.000399357
0.000652879 -1.74179e-05 1.7681e-06
-1.74179e-05 1.27031e-05 -1.91531e-06
1.7681e-06 -1.91531e-06 -3.53962e-05
0.000980753 2.33616e-05 -3.36956e-06
2.33616e-05 0.000186532 7.10032e-07
-3.36956e-06 7.10032e-07 0.000174339
0.000800841 2.25577e-05 -7.17541e-07
2.25577e-05 8.42326e-05 1.98369e-06
-7.17541e-07 1.98369e-06 9.19699e-05
0.000586995 1.27336e-05 4.58229e-07
1.27336e-05 -4.55463e-05 -3.74053e-06
4.58229e-07 -3.74053e-06 -5.91652e-05
0.00155624 2.17212e-05 5.32816e-06
2.17212e-05 0.000522991 -1.46972e-06
5.32816e-06 -1.46972e-06 0.000535415
0.00232015 1.5072e-05 4.12006e-06
1.5072e-05 0.000969221 -5.05223e-06
4.12006e-06 -5.05223e-06 0.000985741
0.000749815 -1.31402e-06 8.94531e-07
-1.31402e-06 9.08843e-05 -1.5591e-06
8.94531e-07 -1.5591e-06 1.55392e-05
0.000676657 1.94516e-05 -5.07125e-07
1.94516e-05 2.73906e-05 -2.26124e-06
-5.07125e-07 -2.26124e-06 -1.29066e-05
0.000741052 -2.03606e-06 8.95145e-07
-2.03606e-06 9.19166e-05 1.8833e-07
8.95145e-07 1.8833e-07 1.85738e-05
0.000621637 -3.8405e-06 5.30045e-08
-3.8405e-06 -2.96458e-05 -3.62012e-06
5.30045e-08 -3.62012e-06 -3.64024e-05
0.00064559 1.62448e-05 5.1112e-08
1.62448e-05 1.03988e-05 -1.38104e-08
5.1112e-08 -1.38104e-08 -2.78173e-05
0.000674056 -7.59972e-05 -3.10673e-06
-7.59972e-05 5.39266e-05 2.05597e-06
-3.10673e-06 2.05597e-06 -1.72354e-05
0.00204841 3.94882e-07 -1.04288e-06
3.94882e-07 0.000809173 -4.75892e-06
-1.04288e-06 -4.75892e-06 0.000828955
0.000619208 2.15668e-06 -1.5131e-07
2.15668e-06 -3.09357e-05 -6.50627e-09
-1.5131e-07 -6.50627e-09 -3.70424e-05
0.00062972 -1.47091e-05 -1.19472e-06
-1.47091e-05 3.32994e-08 1.87328e-06
-1.19472e-06 1.87328e-06 -3.64886e-05
0.000606035 7.8245e-06 -3.25638e-07
7.8245e-06 -3.81649e-05 3.41966e-06
-3.25638e-07 3.41966e-06 -4.43183e-05
0.00205753 1.36115e-05 -3.47988e-06
1.36115e-05 0.00081591 -4.06423e-08
-3.47988e-06 -4.06423e-08 0.00083532
0.00205157 2.48499e-05 -1.03131e-05
2.48499e-05 0.000814828 4.42274e-06
-1.03131e-05 4.42274e-06 0.000833657
-0.0032745 -0.000197506 -3.62305e-05
-0.000197506 0.00087704 1.3102e-05
-3.62305e-05 1.3102e-05 -0.000810049
-0.00107067 0.000389531 -5.2642e-05
0.000389531 -0.000500564 1.25718e-05
-5.2642e-05 1.25718e-05 -0.000909787
0.00330789 -0.000231523 -0.000170765
-0.000231523 0.00094731 0.000135495
-0.000170765 0.000135495 -0.000875172
-0.00277285 0.000155715 0.000245299
0.000155715 0.00119275 -0.000108242
0.000245299 -0.000108242 0.000156333
0.00124131 0.000183382 -6.3663e-05
0.000183382 -0.000633751 1.27743e-05
-6.3663e-05 1.27743e-05 -0.000776749
0.00224538 -0.000134441 9.54517e-05
-0.000134441 7.45981e-05 -9.76717e-06
9.54517e-05 -9.76717e-06 5.27987e-05
0.00172534 -0.000407625 -6.67737e-05
-0.000407625 -0.00146111 -5.15751e-05
-6.67737e-05 -5.15751e-05 -0.00260973
0.0084817 0.000804585 -6.69026e-05
0.000804585 0.00415301 -1.61253e-05
-6.69026e-05 -1.61253e-05 0.00375571
-0.00743341 0.00164551 -0.000408272
0.00164551 -0.00382246 0.000321418
-0.000408272 0.000321418 -0.00185764
0.00254987 -6.06263e-05 -1.05246e-05
-6.06263e-05 -0.000151034 -4.67334e-06
-1.05246e-05 -4.67334e-06 -0.000336256
0.00420153 -0.000250759 3.59623e-05
-0.000250759 2.53718e-05 -4.80325e-05
3.59623e-05 -4.80325e-05 -0.00193923
0.00912685 0.00150878 -5.34144e-05
0.00150878 0.00292445 -6.09525e-05
-5.34144e-05 -6.09525e-05 0.00357121
0.00247385 0.00102286 -5.57328e-05
0.00102286 -0.00141899 0.000126388
-5.57328e-05 0.000126388 -0.000814826
0.00229982 -0.000540493 -5.72177e-05
-0.000540493 -0.000610755 1.59653e-05
-5.72177e-05 1.59653e-05 -0.000875609
0.00250004 -0.000625959 0.000160471
-0.000625959 0.000303061 -0.000114395
0.000160471 -0.000114395 -0.00268342
-0.00525299 0.000693687 -5.02576e-05
0.000693687 -0.00450957 -0.000247096
-5.02576e-05 -0.000247096 -0.00443607
0.0023564 0.000633947 -4.26166e-05
0.000633947 -0.00293935 -5.41237e-06
-4.26166e-05 -5.41237e-06 -0.00171862
0.000797835 -1.36386e-05 1.07e-06
-1.36386e-05 0.000155587 -1.90739e-07
1.07e-06 -1.90739e-07 2.8016e-05
0.000730817 5.83071e-05 -1.81178e-06
5.83071e-05 0.000112146 -8.34236e-07
-1.81178e-06 -8.34236e-07 -1.06144e-06
0.000686239 5.30595e-05 3.34917e-09
5.30595e-05 6.60056e-05 -4.63578e-07
3.34917e-09 -4.63578e-07 -1.61897e-05
0.000638625 6.6995e-05 2.36823e-06
6.6995e-05 6.22513e-05 2.11535e-06
2.36823e-06 2.11535e-06 -4.28377e-05
0.000700123 3.56242e-05 -3.53063e-09
3.56242e-05 8.91848e-05 -3.77052e-07
-3.53063e-09 -3.77052e-07 -4.11065e-05
0.000844366 7.44072e-05 1.85252e-07
7.44072e-05 0.000175222 1.02102e-06
1.85252e-07 1.02102e-06 5.82818e-05
0.000685688 1.99173e-05 -1.0284e-06
1.99173e-05 7.60005e-05 2.17913e-06
-1.0284e-06 2.17913e-06 -2.84312e-05
0.000894347 0.000110208 2.22222e-08
0.000110208 0.000206841 -1.50769e-07
2.22222e-08 -1.50769e-07 8.56959e-05
0.000843097 6.17501e-05 -1.6375e-07
6.17501e-05 0.000175299 5.45683e-07
-1.6375e-07 5.45683e-07 6.23043e-05
0.000594978 -5.73877e-06 -1.93426e-06
-5.73877e-06 2.71626e-05 4.31911e-07
-1.93426e-06 4.31911e-07 -7.55872e-05
0.00108223 -0.000196514 3.27306e-05
-0.000196514 -0.000359219 -1.37097e-05
3.27306e-05 -1.37097e-05 -0.000337726
0.00084637 -0.000368526 2.83871e-05
-0.000368526 -0.000464381 -4.45112e-06
2.83871e-05 -4.45112e-06 -0.000476164
0.0012907 -0.000473661 1.60634e-05
-0.000473661 -1.19526e-05 -2.67166e-06
1.60634e-05 -2.67166e-06 -0.000163406
0.00108252 -0.000381071 9.24459e-06
-0.000381071 0.000211634 -1.72989e-05
9.24459e-06 -1.72989e-05 -7.85285e-05
0.00153187 -0.000129863 -1.35762e-06
-0.000129863 0.000656914 1.17822e-05
-1.35762e-06 1.17822e-05 0.000405972
0.000688154 -8.47893e-05 -1.53868e-06
-8.47893e-05 0.000120161 4.46333e-06
-1.53868e-06 4.46333e-06 -3.12241e-05
0.000621505 6.58212e-05 -6.50381e-07
6.58212e-05 5.54156e-05 -8.03011e-07
-6.50381e-07 -8.03011e-07 -7.87513e-05
0.000730521 -5.01399e-05 -5.0279e-07
-5.01399e-05 0.000117825 1.37514e-06
-5.0279e-07 1.37514e-06 -1.86434e-05
0.00141922 -0.000266155 -1.68647e-06
-0.000266155 9.36881e-05 -2.29591e-07
-1.68647e-06 -2.29591e-07 -6.14923e-05
0.000828342 -7.77165e-06 1.72611e-07
-7.77165e-06 0.000184091 4.65446e-07
1.72611e-07 4.65446e-07 3.8848e-05
0.00127274 -0.000108125 -1.00082e-08
-0.000108125 0.000501882 2.15265e-07
-1.00082e-08 2.15265e-07 0.000289702
0.00116268 -0.000345697 -2.21691e-06
-0.000345697 -3.91098e-05 -1.84265e-06
-2.21691e-06 -1.84265e-06 -7.37147e-05
0.000985533 -0.000239283 -1.39458e-05
-0.000239283 0.000325945 4.77097e-06
-1.39458e-05 4.77097e-06 5.55331e-05
-6.03262e-05 -0.000355522 -1.43663e-05
-0.000355522 -0.000720892 -2.02963e-05
-1.43663e-05 -2.02963e-05 -0.000698561
0.000782555 -0.000166929 -1.8514e-05
-0.000166929 0.000195905 2.444e-05
-1.8514e-05 2.444e-05 0.000101729
0.000113136 -4.93301e-05 -4.84645e-06
-4.93301e-05 -0.000110981 2.81318e-05
-4.84645e-06 2.81318e-05 -0.000326147
0.000675415 -1.44297e-06 3.96876e-07
-1.44297e-06 7.12098e-05 -4.07544e-07
3.96876e-07 -4.07544e-07 -6.19311e-05
0.000626993 2.39739e-05 1.89627e-06
2.39739e-05 0.000132214 -5.8942e-06
1.89627e-06 -5.8942e-06 -6.21842e-05
0.00168635 -3.91384e-05 -1.49396e-05
-3.91384e-05 0.000776758 -3.32814e-06
-1.49396e-05 -3.32814e-06 -0.00040634
-0.00181316 5.03092e-05 -9.63511e-05
5.03092e-05 0.0020133 -4.81265e-06
-9.63511e-05 -4.81265e-06 0.000429646
-0.0087105 -0.000380822 -0.00026323
-0.000380822 -0.00450883 4.77733e-06
-0.00026323 4.77733e-06 -0.00442963
-7.42852e-05 8.14753e-05 5.38713e-06
8.14753e-05 -0.000266721 -2.27627e-06
5.38713e-06 -2.27627e-06 -0.000399158
0.000122682 0.000118326 2.47428e-06
0.000118326 -0.000127201 4.03592e-06
2.47428e-06 4.03592e-06 -0.000351922
0.00163774 0.000309193 1.48113e-05
0.000309193 0.000359367 4.39981e-06
1.48113e-05 4.39981e-06 0.000298662
-0.00318968 0.000243277 -2.45055e-05
0.000243277 0.000769892 9.46433e-06
-2.45055e-05 9.46433e-06 -0.00105495
0.00192071 0.000455593 -7.08589e-05
0.000455593 0.000240362 -6.58126e-05
-7.08589e-05 -6.58126e-05 -0.00266458
0.00293654 0.000909495 0.000104633
0.000909495 0.000328606 1.95226e-05
0.000104633 1.95226e-05 -0.000216397
0.000535829 0.000280087 6.50134e-06
0.000280087 -1.4705e-05 -1.86749e-05
6.50134e-06 -1.86749e-05 -6.49032e-05
0.0112489 -0.0010816 1.75711e-05
-0.0010816 0.00338136 -7.69619e-05
1.75711e-05 -7.69619e-05 0.00328476
0.0035264 0.00023123 0.000103681
0.00023123 0.0015611 6.77877e-05
0.000103681 6.77877e-05 -0.000550899
0.00797312 -0.000766954 3.55347e-05
-0.000766954 0.00118975 2.70633e-06
3.55347e-05 2.70633e-06 0.00251809
0.00101357 0.000177053 2.2456e-06
0.000177053 0.000410344 -1.82319e-06
2.2456e-06 -1.82319e-06 0.000290616
0.00275866 2.00598e-05 6.14137e-06
2.00598e-05 0.00114042 -6.14638e-06
6.14137e-06 -6.14638e-06 -2.90446e-05
0.000808164 9.96301e-05 1.0052e-05
9.96301e-05 0.000237895 1.38065e-05
1.0052e-05 1.38065e-05 -0.00119047
-0.000181845 0.000167922 -7.97013e-06
0.000167922 -0.000115154 -1.44463e-06
-7.97013e-06 -1.44463e-06 -0.000298005
0.00259596 0.000536597 -6.419e-05
0.000536597 0.000858878 -3.60462e-05
-6.419e-05 -3.60462e-05 0.000186067
0.00237743 0.00119515 5.90994e-05
0.00119515 0.000637832 4.60794e-05
5.90994e-05 4.60794e-05 -0.00232777
0.00485119 0.000125346 -8.88947e-06
0.000125346 -0.00213526 -8.82324e-05
-8.88947e-06 -8.82324e-05 -0.000150528
0.00149154 -0.000799969 -2.4995e-05
-0.000799969 4.36767e-05 -2.56718e-05
-2.4995e-05 -2.56718e-05 -0.00111947
0.000902771 0.000122383 -5.51529e-06
0.000122383 0.000523105 -9.57962e-06
-5.51529e-06 -9.57962e-06 0.000393841
0.00083574 -5.57755e-05 -4.10818e-06
-5.57755e-05 0.000125695 -2.01451e-05
-4.10818e-06 -2.01451e-05 -5.29049e-05
0.00250155 -1.00232e-05 2.02905e-05
-1.00232e-05 0.000349892 -6.99967e-05
2.02905e-05 -6.99967e-05 -0.000710337
0.00251545 0.000671485 4.97495e-05
0.000671485 -0.00283101 3.98701e-06
4.97495e-05 3.98701e-06 -0.00172048
-0.000934903 6.19744e-05 -3.60038e-06
6.19744e-05 -0.000204154 -1.73963e-05
-3.60038e-06 -1.73963e-05 -0.000642308
0.00996346 0.000899931 0.000109358
0.000899931 0.00468533 4.50064e-05
0.000109358 4.50064e-05 0.00145501
-0.00902047 -0.000283632 6.08389e-05
-0.000283632 -0.00101083 0.000135849
6.08389e-05 0.000135849 -0.00262311
0.00171894 0.000176855 1.47158e-05
0.000176855 0.000711027 6.66269e-06
1.47158e-05 6.66269e-06 0.000618858
0.000731352 0.000104923 -3.25396e-06
0.000104923 0.000246212 1.42022e-07
-3.25396e-06 1.42022e-07 0.000131007
0.00045492 8.11186e-05 -8.17859e-06
8.11186e-05 0.000290485 4.02881e-07
-8.17859e-06 4.02881e-07 0.000152507
0.000790892 0.000124431 1.10094e-06
0.000124431 0.000123081 1.24153e-06
1.10094e-06 1.24153e-06 2.78748e-06
0.000742631 4.74911e-05 7.76173e-07
4.74911e-05 8.74515e-05 1.03896e-06
7.76173e-07 1.03896e-06 -1.41536e-05
0.000762155 -7.39908e-07 4.80435e-06
-7.39908e-07 0.000248976 6.10319e-06
4.80435e-06 6.10319e-06 0.000134915
0.000712474 3.93062e-05 -2.34469e-07
3.93062e-05 7.44277e-05 -3.46435e-07
-2.34469e-07 -3.46435e-07 -3.47708e-05
0.000765012 -2.80385e-05 -4.73884e-07
-2.80385e-05 0.000207034 -1.33025e-06
-4.73884e-07 -1.33025e-06 9.89837e-05
0.000324044 1.64056e-05 8.21815e-06
1.64056e-05 0.000129504 3.23715e-06
8.21815e-06 3.23715e-06 6.18202e-06
0.00109927 2.10191e-05 -1.18556e-05
2.10191e-05 0.00053773 -1.13017e-05
-1.18556e-05 -1.13017e-05 0.000460334
0.00025522 -3.16065e-05 -2.57425e-06
-3.16065e-05 -0.00010439 -6.91736e-06
-2.57425e-06 -6.91736e-06 -0.000203476
0.000637793 -2.74187e-05 7.87995e-07
-2.74187e-05 1.82419e-05 3.11473e-06
7.87995e-07 3.11473e-06 -7.15351e-05
0.000790487 2.80248e-05 -3.04414e-07
2.80248e-05 0.000125878 2.13164e-08
-3.04414e-07 2.13164e-08 2.78189e-05
0.000851925 7.69161e-06 -4.2557e-06
7.69161e-06 0.000145955 2.83343e-06
-4.2557e-06 2.83343e-06 6.02227e-05
0.000717996 -2.72761e-05 1.90562e-06
-2.72761e-05 9.43572e-05 2.22699e-07
1.90562e-06 2.22699e-07 1.77737e-05
0.000721739 1.20534e-05 -1.99058e-07
1.20534e-05 7.0662e-05 1.65758e-07
-1.99058e-07 1.65758e-07 -2.08583e-05
0.000716969 -7.00275e-05 2.58767e-06
-7.00275e-05 9.01664e-05 -1.35871e-07
2.58767e-06 -1.35871e-07 -1.26303e-06
0.000533154 -7.09469e-05 -1.65865e-06
-7.09469e-05 -6.48192e-05 -9.85007e-07
-1.65865e-06 -9.85007e-07 -0.000148945
0.000291543 -0.000140034 5.96234e-06
-0.000140034 -0.000173752 -7.00423e-08
5.96234e-06 -7.00423e-08 -0.000337649
0.00102253 -5.75265e-05 -7.82652e-07
-5.75265e-05 0.000238897 8.94514e-07
-7.82652e-07 8.94514e-07 0.000135668
0.00105211 -0.00012683 -6.77217e-07
-0.00012683 0.000269512 2.13281e-06
-6.77217e-07 2.13281e-06 0.000128228
0.000280578 -0.000158998 -2.85275e-07
-0.000158998 -0.000228131 3.82055e-06
-2.85275e-07 3.82055e-06 -0.000422218
0.000690604 -0.000177654 -6.17326e-06
-0.000177654 7.10937e-06 1.65361e-07
-6.17326e-06 1.65361e-07 -0.000193645
0.000980315 -0.000156953 -1.72873e-06
-0.000156953 0.000266735 3.2233e-06
-1.72873e-06 3.2233e-06 0.000106008
0.000606537 -0.000159412 1.10543e-06
-0.000159412 -4.25854e-06 4.33782e-07
1.10543e-06 4.33782e-07 -0.000196621
0.000839731 -4.91904e-05 7.07434e-07
-4.91904e-05 0.000156395 3.0466e-07
7.07434e-07 3.0466e-07 4.89077e-05
0.00102523 -8.12661e-05 -1.24571e-06
-8.12661e-05 0.000284358 -6.74331e-07
-1.24571e-06 -6.74331e-07 0.000156395
0.000534379 -8.11753e-05 1.15331e-06
-8.11753e-05 2.06819e-05 -7.37022e-06
1.15331e-06 -7.37022e-06 -0.000118766
0.000963218 -5.01142e-07 -8.7132e-07
-5.01142e-07 0.00022313 -4.3775e-07
-8.7132e-07 -4.3775e-07 0.000123104
0.000541737 4.32896e-06 2.34184e-07
4.32896e-06 -1.35942e-05 -4.53104e-08
2.34184e-07 -4.53104e-08 -0.000108421
0.000651438 1.02193e-05 -3.48828e-07
1.02193e-05 3.05549e-05 7.32239e-07
-3.48828e-07 7.32239e-07 -4.4841e-05
0.000804275 -3.66773e-05 1.73827e-09
-3.66773e-05 0.000141595 1.81224e-07
1.73827e-09 1.81224e-07 4.17879e-05
0.000701412 -2.01011e-05 -2.87967e-07
-2.01011e-05 6.28215e-05 1.44395e-08
-2.87967e-07 1.44395e-08 -1.32307e-05
0.000637594 3.22468e-05 -9.48278e-07
3.22468e-05 6.57519e-06 1.81388e-06
-9.48278e-07 1.81388e-06 -4.44921e-05
0.000747363 -5.37307e-05 7.83077e-07
-5.37307e-05 9.30669e-05 -1.06464e-06
7.83077e-07 -1.06464e-06 1.43436e-05
0.000655352 2.39194e-05 -6.80146e-07
2.39194e-05 1.27159e-05 -3.52175e-08
-6.80146e-07 -3.52175e-08 -3.62223e-05
0.00133029 4.5638e-05 -8.06075e-06
4.5638e-05 0.00039713 3.51943e-06
-8.06075e-06 3.51943e-06 0.000385284
0.000677746 -1.04053e-05 2.03806e-06
-1.04053e-05 2.35869e-05 -1.97547e-06
2.03806e-06 -1.97547e-06 -2.38037e-05
0.000964423 3.1928e-05 -4.24744e-06
3.1928e-05 0.000179038 6.3089e-07
-4.24744e-06 6.3089e-07 0.000166387
0.0008126 3.05488e-05 -1.27243e-06
3.05488e-05 9.5712e-05 2.02307e-06
-1.27243e-06 2.02307e-06 0.000102366
0.00057285 1.93927e-05 7.36197e-07
1.93927e-05 -5.30641e-05 -3.87476e-06
7.36197e-07 -3.87476e-06 -6.68746e-05
0.00155868 3.22889e-05 7.19379e-06
3.22889e-05 0.000528131 -1.35102e-06
7.19379e-06 -1.35102e-06 0.000539532
0.00232461 2.84453e-05 8.11137e-06
2.84453e-05 0.000974288 -4.91788e-06
8.11137e-06 -4.91788e-06 0.000990113
0.000468058 2.55654e-06 2.288e-07
2.55654e-06 -6.3054e-05 -2.07699e-06
2.288e-07 -2.07699e-06 -0.000154297
0.00038611 -1.2898e-06 -2.08712e-07
-1.2898e-06 -0.00014176 -3.25431e-06
-2.08712e-07 -3.25431e-06 -0.000188823
0.000776236 1.00335e-05 1.01879e-07
1.00335e-05 0.000111378 7.68275e-08
1.01879e-07 7.68275e-08 3.24985e-05
0.000616615 -9.97666e-06 7.03985e-08
-9.97666e-06 -3.184e-05 -3.79744e-06
7.03985e-08 -3.79744e-06 -4.02746e-05
0.000504844 5.76059e-06 8.31851e-07
5.76059e-06 -7.23867e-05 -4.81165e-08
8.31851e-07 -4.81165e-08 -0.000114056
0.000471992 -7.03617e-05 -7.02721e-07
-7.03617e-05 -6.21628e-05 1.72278e-06
-7.02721e-07 1.72278e-06 -0.000138318
0.0020904 -1.18208e-05 -5.4307e-06
-1.18208e-05 0.000833988 -4.80725e-06
-5.4307e-06 -4.80725e-06 0.000853293
0.000620886 -3.7959e-06 -1.30482e-07
-3.7959e-06 -2.99835e-05 -2.83898e-08
-1.30482e-07 -2.83898e-08 -3.67101e-05
0.000629015 -4.52216e-06 -1.117e-06
-4.52216e-06 4.93762e-07 2.08725e-06
-1.117e-06 2.08725e-06 -3.73915e-05
0.00206033 1.63253e-06 -3.53425e-06
1.63253e-06 0.000816217 6.2187e-09
-3.53425e-06 6.2187e-09 0.000835949
0.000609909 2.08494e-06 -1.51553e-07
2.08494e-06 -3.61689e-05 3.44849e-06
-1.51553e-07 3.44849e-06 -4.22507e-05
0.00205964 1.48793e-05 -3.45738e-06
1.48793e-05 0.000817304 4.60079e-06
-3.45738e-06 4.60079e-06 0.000836646
0.000733895 -0.000108606 -7.5213e-05
-0.000108606 -0.000105142 2.68806e-05
-7.5213e-05 2.68806e-05 -0.00131166
0.00151108 0.000144818 -1.77319e-05
0.000144818 0.00271071 -1.04453e-05
-1.77319e-05 -1.04453e-05 0.00168935
0.00135679 -0.000307986 -0.000184642
-0.000307986 0.00178072 -6.65369e-06
-0.000184642 -6.65369e-06 0.00101172
0.00075104 6.57715e-05 2.70638e-07
6.57715e-05 0.0001055 -6.5827e-09
2.70638e-07 -6.5827e-09 -1.14391e-05
0.00350377 -0.0001762 -2.37745e-05
-0.0001762 0.00201257 8.32672e-05
-2.37745e-05 8.32672e-05 0.00101855
0.00322581 -0.000269796 -6.0494e-05
-0.000269796 0.00102621 6.34147e-06
-6.0494e-05 6.34147e-06 -0.0010043
0.0015836 0.00052714 0.000124161
0.00052714 0.0025175 -0.000125209
0.000124161 -0.000125209 0.00190473
0.00395545 -0.000189869 1.22578e-05
-0.000189869 0.000343647 -2.95259e-05
1.22578e-05 -2.95259e-05 0.000100224
0.010476 -0.000142156 8.83025e-05
-0.000142156 0.00314103 -4.58683e-05
8.83025e-05 -4.58683e-05 0.00145929
-0.00325042 0.00110264 -9.84325e-05
0.00110264 -0.00373166 0.000113272
-9.84325e-05 0.000113272 -0.00288246
0.00457554 0.0011351 1.41601e-05
0.0011351 -0.000147085 3.90129e-05
1.41601e-05 3.90129e-05 0.000415569
0.00470282 -0.000667216 -8.23936e-05
-0.000667216 0.000358275 -2.0074e-07
-8.23936e-05 -2.0074e-07 -0.000224397
0.0095998 -0.000449645 5.31131e-05
-0.000449645 0.00374807 -1.44639e-05
5.31131e-05 -1.44639e-05 0.00170554
0.00566036 0.000785997 4.72061e-05
0.000785997 0.000304812 -8.59527e-05
4.72061e-05 -8.59527e-05 0.000195669
0.00450724 0.000606777 -1.45054e-05
0.000606777 -0.00158989 9.04281e-06
-1.45054e-05 9.04281e-06 -0.000501771
0.00473278 -0.00114207 -2.42259e-07
-0.00114207 0.000726205 -4.65133e-06
-2.42259e-07 -4.65133e-06 -0.000248236
0.010476 -0.000957582 6.62457e-05
-0.000957582 0.00513032 -4.09031e-05
6.62457e-05 -4.09031e-05 0.00161949
0.00251837 -0.00014898 5.67606e-05
-0.00014898 -0.000124391 -0.000137292
5.67606e-05 -0.000137292 -0.000340707
0.00600595 0.000223737 -2.37502e-05
0.000223737 -0.000777529 6.2566e-05
-2.37502e-05 6.2566e-05 0.000776545
0.000773405 -3.1682e-05 3.29982e-07
-3.1682e-05 0.00013358 -7.90204e-07
3.29982e-07 -7.90204e-07 -3.93448e-06
0.000746699 -4.05012e-05 3.47846e-07
-4.05012e-05 0.000128675 1.14762e-07
3.47846e-07 1.14762e-07 -2.52296e-06
0.000840551 8.52273e-05 -1.24206e-06
8.52273e-05 0.00018068 -8.06194e-08
-1.24206e-06 -8.06194e-08 6.54868e-05
0.000722007 2.65188e-05 -2.14241e-07
2.65188e-05 7.80124e-05 -5.59588e-07
-2.14241e-07 -5.59588e-07 -3.72297e-05
0.000827365 7.86332e-05 -7.63852e-07
7.86332e-05 0.000165006 7.16738e-07
-7.63852e-07 7.16738e-07 3.51616e-05
0.000839888 5.99877e-05 1.07068e-07
5.99877e-05 0.000171172 2.29381e-06
1.07068e-07 2.29381e-06 5.67657e-05
0.000959555 0.000103719 -7.65573e-07
0.000103719 0.000241866 2.96952e-10
-7.65573e-07 2.96952e-10 0.000122372
0.00097334 0.000109067 8.05568e-07
0.000109067 0.00025874 2.65055e-06
8.05568e-07 2.65055e-06 0.000141206
0.00134751 -0.000225282 5.15204e-05
-0.000225282 -4.48114e-06 -1.66665e-05
5.15204e-05 -1.66665e-05 -5.74717e-05
0.000843099 -0.000325561 7.62937e-06
-0.000325561 -0.00023597 -1.69123e-05
7.62937e-06 -1.69123e-05 -0.000255959
0.000733133 -0.000145295 -1.61381e-06
-0.000145295 0.000128319 8.89202e-07
-1.61381e-06 8.89202e-07 -1.68545e-05
0.0023781 -0.000288501 9.3195e-06
-0.000288501 0.00106335 -2.54369e-05
9.3195e-06 -2.54369e-05 0.000809851
0.00192312 -0.000145339 -2.92155e-06
-0.000145339 0.000866803 7.18426e-06
-2.92155e-06 7.18426e-06 0.000650994
0.000886375 -5.17006e-05 -2.24398e-06
-5.17006e-05 0.000208363 -1.23062e-06
-2.24398e-06 -1.23062e-06 6.72929e-05
0.000801583 1.4328e-05 2.8092e-07
1.4328e-05 0.000154768 -8.93662e-08
2.8092e-07 -8.93662e-08 1.53096e-05
0.000373507 -0.000392954 -1.02291e-05
-0.000392954 -0.000539495 -4.73588e-07
-1.02291e-05 -4.73588e-07 -0.00052476
0.00106421 3.92649e-05 -6.81234e-08
3.92649e-05 0.000384477 2.46363e-06
-6.81234e-08 2.46363e-06 0.000181624
0.00101146 -0.000124864 -5.27015e-06
-0.000124864 0.000361741 1.36214e-06
-5.27015e-06 1.36214e-06 0.000150057
0.000383271 -0.000146102 3.4918e-06
-0.000146102 -5.80168e-05 3.86697e-06
3.4918e-06 3.86697e-06 -0.000105372
0.000691547 3.09876e-05 1.6408e-06
3.09876e-05 6.82622e-05 -1.32795e-06
1.6408e-06 -1.32795e-06 -5.53401e-05
0.00138605 -0.000330328 1.7526e-05
-0.000330328 4.5644e-05 -3.16343e-05
1.7526e-05 -3.16343e-05 0.000214326
0.000290936 -0.000116953 -9.59387e-06
-0.000116953 0.000138882 3.03843e-05
-9.59387e-06 3.03843e-05 3.66285e-05
0.000751334 -8.05951e-06 -1.0952e-06
-8.05951e-06 0.000272913 1.0351e-05
-1.0952e-06 1.0351e-05 4.48964e-05
0.00135933 0.000178465 1.96955e-06
0.000178465 0.000513385 -2.63467e-06
1.96955e-06 -2.63467e-06 0.000345218
0.00097587 -3.61287e-05 -9.96594e-06
-3.61287e-05 0.000561517 -5.03239e-06
-9.96594e-06 -5.03239e-06 5.78745e-05
0.00141604 -5.33811e-05 6.2359e-05
-5.33811e-05 0.000676247 -5.98743e-06
6.2359e-05 -5.98743e-06 -0.000520383
-0.00402495 -5.60407e-05 -0.000106199
-5.60407e-05 0.00118569 5.64638e-06
-0.000106199 5.64638e-06 -0.000726701
0.000911475 0.000155373 1.32945e-05
0.000155373 0.0003995 5.56666e-07
1.32945e-05 5.56666e-07 0.000274047
-0.000771553 0.000219267 1.20088e-05
0.000219267 -0.000454547 1.17113e-05
1.20088e-05 1.17113e-05 -0.000690228
0.00302008 9.21782e-06 7.4216e-05
9.21782e-06 0.00143596 2.8856e-06
7.4216e-05 2.8856e-06 0.00042242
0.00783501 0.000411985 0.000124853
0.000411985 0.00353727 6.55657e-05
0.000124853 6.55657e-05 0.000485417
0.00286123 0.00062345 -8.84781e-05
0.00062345 0.0011424 -8.06383e-05
-8.84781e-05 -8.06383e-05 0.000146973
0.00366817 -0.000483723 -1.84456e-06
-0.000483723 0.000861544 -0.000144487
-1.84456e-06 -0.000144487 -0.000273696
0.00113816 0.000118236 3.50937e-05
0.000118236 0.000201419 0.000106946
3.50937e-05 0.000106946 -0.00126118
0.00391974 -5.66482e-06 5.99986e-08
-5.66482e-06 -0.00345021 -8.49947e-05
5.99986e-08 -8.49947e-05 -0.000908424
0.000710771 0.000141636 7.22174e-07
0.000141636 0.000415261 -1.38426e-06
7.22174e-07 -1.38426e-06 0.000270643
0.000855841 -5.59014e-05 1.05312e-08
-5.59014e-05 0.000160382 -7.48924e-06
1.05312e-08 -7.48924e-06 -2.37741e-05
0.00258021 1.33315e-05 3.32347e-05
1.33315e-05 0.000591572 8.42815e-06
3.32347e-05 8.42815e-06 -0.000278016
-0.000889435 0.0001166 -1.07746e-05
0.0001166 -0.00035075 -5.48078e-06
-1.07746e-05 -5.48078e-06 -0.000704553
0.00479943 0.000702429 1.16761e-05
0.000702429 -0.00155134 -9.14725e-06
1.16761e-05 -9.14725e-06 -0.000476354
0.00537488 0.000835911 9.23509e-05
0.000835911 0.00278518 4.11547e-05
9.23509e-05 4.11547e-05 -0.000553056
0.00318846 0.000208959 -5.22991e-05
0.000208959 0.0021408 7.70681e-06
-5.22991e-05 7.70681e-06 0.00121387
0.000211229 0.00014955 -1.58555e-05
0.00014955 0.00020351 -1.44133e-05
-1.58555e-05 -1.44133e-05 -1.23974e-05
0.00175595 3.9653e-05 -4.07282e-07
3.9653e-05 1.58206e-05 -2.14107e-05
-4.07282e-07 -2.14107e-05 -7.46623e-06
0.0035627 -0.000139819 2.60382e-05
-0.000139819 0.00196028 -8.26077e-05
2.60382e-05 -8.26077e-05 0.00100829
0.00564186 0.00116538 0.000127892
0.00116538 0.000105618 -9.29686e-05
0.000127892 -9.29686e-05 0.000786429
0.00560504 -0.000101419 -7.43241e-05
-0.000101419 0.000915508 0.000125639
-7.43241e-05 0.000125639 0.000922931
0.00109195 0.000195601 -1.45582e-05
0.000195601 3.11693e-05 -4.53992e-05
-1.45582e-05 -4.53992e-05 2.55739e-05
-0.000510164 0.000733559 0.000111056
0.000733559 0.00217441 3.61616e-05
0.000111056 3.61616e-05 -0.0028452
0.000823119 0.000134929 2.73247e-06
0.000134929 0.000278646 5.86895e-06
2.73247e-06 5.86895e-06 0.000160369
0.000345032 7.82e-05 4.96607e-06
7.82e-05 0.000228004 1.77687e-06
4.96607e-06 1.77687e-06 8.7384e-05
0.00110381 4.04283e-05 -2.72578e-05
4.04283e-05 0.000725592 -1.90627e-05
-2.72578e-05 -1.90627e-05 0.00062394
0.000491923 -1.71871e-05 9.17219e-07
-1.71871e-05 -6.44197e-05 3.2684e-06
9.17219e-07 3.2684e-06 -0.000162941
0.000826066 -3.79323e-05 2.16109e-06
-3.79323e-05 0.000240944 4.00168e-06
2.16109e-06 4.00168e-06 0.00013429
-3.47551e-05 -1.51867e-06 1.52503e-07
-1.51867e-06 -8.6371e-05 5.05079e-06
1.52503e-07 5.05079e-06 -0.000208952
0.000711775 -5.54194e-05 6.21015e-07
-5.54194e-05 0.000144388 -4.73681e-07
6.21015e-07 -4.73681e-07 5.29624e-05
0.000111129 -8.53964e-06 3.2617e-06
-8.53964e-06 -2.95224e-05 9.31609e-08
3.2617e-06 9.31609e-08 -0.00011113
0.00116927 -0.000168743 7.29932e-06
-0.000168743 0.000570573 -7.67502e-06
7.29932e-06 -7.67502e-06 0.000405132
0.00118594 -4.02589e-05 -1.75604e-06
-4.02589e-05 0.000357599 3.82572e-06
-1.75604e-06 3.82572e-06 0.000278423
0.000431154 2.90606e-05 -9.0788e-07
2.90606e-05 -9.03965e-05 1.55279e-06
-9.0788e-07 1.55279e-06 -0.000183052
0.00133038 -0.000116294 1.07738e-06
-0.000116294 0.000429791 1.83076e-06
1.07738e-06 1.83076e-06 0.000329453
-6.55283e-05 -0.000122952 4.24914e-06
-0.000122952 -0.000257651 1.46245e-06
4.24914e-06 1.46245e-06 -0.000470513
0.000441569 -4.78402e-05 -4.43397e-06
-4.78402e-05 -8.76705e-05 1.14725e-06
-4.43397e-06 1.14725e-06 -0.000160852
0.00014054 -0.000125594 1.76373e-06
-0.000125594 -0.000260669 -1.10244e-06
1.76373e-06 -1.10244e-06 -0.000411556
0.00101861 -0.0002362 8.2329e-06
-0.0002362 0.000190985 -1.58126e-06
8.2329e-06 -1.58126e-06 -3.36868e-05
0.00131935 -0.000279374 -3.57023e-06
-0.000279374 0.000206612 4.3021e-06
-3.57023e-06 4.3021e-06 -3.42511e-05
0.00164509 -0.000182376 -2.37332e-06
-0.000182376 0.000599042 1.94699e-07
-2.37332e-06 1.94699e-07 0.000448102
0.000651812 -0.000191413 -2.69488e-07
-0.000191413 -2.98992e-05 1.7372e-07
-2.69488e-07 1.7372e-07 -0.00023498
0.00191965 -0.000295026 1.77619e-06
-0.000295026 0.000677091 -1.363e-06
1.77619e-06 -1.363e-06 0.000474125
0.000147032 -0.000102569 -2.67247e-06
-0.000102569 -0.000231028 4.05107e-07
-2.67247e-06 4.05107e-07 -0.000408665
0.000898675 -0.000193208 -4.82076e-07
-0.000193208 0.000130398 6.90477e-07
-4.82076e-07 6.90477e-07 -6.8305e-05
0.000602741 -4.51485e-05 6.3947e-08
-4.51485e-05 3.12372e-05 1.04003e-07
6.3947e-08 1.04003e-07 -9.23114e-05
0.00103974 -0.000169493 -3.34362e-06
-0.000169493 0.000301879 2.32812e-06
-3.34362e-06 2.32812e-06 0.000138445
0.000128893 -0.000113734 -1.9648e-06
-0.000113734 -0.000273298 -2.13325e-06
-1.9648e-06 -2.13325e-06 -0.000456951
0.000649264 3.06783e-05 5.06755e-07
3.06783e-05 3.8776e-05 1.04553e-06
5.06755e-07 1.04553e-06 -4.89768e-05
0.000733269 -3.5234e-05 8.46308e-07
-3.5234e-05 0.000100231 -1.23591e-07
8.46308e-07 -1.23591e-07 -9.13827e-06
0.000827077 -7.62563e-05 2.39181e-06
-7.62563e-05 0.000178877 -2.76558e-06
2.39181e-06 -2.76558e-06 4.61876e-05
0.000707701 -5.51202e-06 3.07677e-07
-5.51202e-06 8.31828e-05 -3.34993e-07
3.07677e-07 -3.34993e-07 -1.30738e-05
0.000711953 -5.849e-06 -5.70212e-07
-5.849e-06 7.12264e-05 -1.32647e-07
-5.70212e-07 -1.32647e-07 -9.18615e-06
0.000634387 3.6079e-05 -1.15051e-06
3.6079e-05 8.14414e-06 1.95133e-06
-1.15051e-06 1.95133e-06 -4.57289e-05
0.000755792 -3.53411e-05 6.92626e-07
-3.53411e-05 9.9204e-05 -8.51496e-07
6.92626e-07 -8.51496e-07 1.89308e-05
0.000654558 2.8164e-05 -4.99576e-07
2.8164e-05 1.51036e-05 -6.30133e-08
-4.99576e-07 -6.30133e-08 -3.54333e-05
0.00059358 4.31041e-05 -1.09848e-06
4.31041e-05 -2.79426e-05 3.90567e-06
-1.09848e-06 3.90567e-06 -4.54166e-05
0.00069888 -6.55601e-07 1.99531e-06
-6.55601e-07 3.50955e-05 -1.89255e-06
1.99531e-06 -1.89255e-06 -1.2383e-05
0.000596325 3.52549e-05 1.38942e-07
3.52549e-05 -3.29751e-05 1.15849e-08
1.38942e-07 1.15849e-08 -4.84442e-05
0.00221059 6.81119e-05 -4.30492e-06
6.81119e-05 0.000921337 1.81761e-06
-4.30492e-06 1.81761e-06 0.000932769
0.000571958 2.74722e-05 8.67086e-07
2.74722e-05 -5.10104e-05 -3.936e-06
8.67086e-07 -3.936e-06 -6.54554e-05
0.00155072 4.24687e-05 8.66251e-06
4.24687e-05 0.000528369 -1.17278e-06
8.66251e-06 -1.17278e-06 0.000538557
0.00231671 4.12167e-05 1.2396e-05
4.12167e-05 0.000973463 -4.69023e-06
1.2396e-05 -4.69023e-06 0.000988278
0.000463769 -4.55732e-06 -3.43061e-08
-4.55732e-06 -7.61433e-05 -2.03096e-06
-3.43061e-08 -2.03096e-06 -0.000164995
0.000365954 -3.79282e-06 -1.3975e-07
-3.79282e-06 -0.000154346 -3.17306e-06
-1.3975e-07 -3.17306e-06 -0.000206902
0.000631321 1.2487e-05 -4.28821e-07
1.2487e-05 3.06667e-05 -8.61576e-07
-4.28821e-07 -8.61576e-07 -5.87536e-05
0.000613015 -1.62572e-05 4.62088e-08
-1.62572e-05 -3.23351e-05 -3.98846e-06
4.62088e-08 -3.98846e-06 -4.32592e-05
0.000357053 -1.96836e-06 -3.04116e-07
-1.96836e-06 -0.000158457 -1.02539e-06
-3.04116e-07 -1.02539e-06 -0.000206255
0.000793571 2.03073e-05 -1.19998e-07
2.03073e-05 0.000129167 1.83636e-06
-1.19998e-07 1.83636e-06 4.52435e-05
0.00215624 -2.42902e-05 -9.76179e-06
-2.42902e-05 0.000873994 -4.79081e-06
-9.76179e-06 -4.79081e-06 0.000892146
0.000614064 -9.97659e-06 -1.60142e-07
-9.97659e-06 -3.3295e-05 -4.4213e-08
-1.60142e-07 -4.4213e-08 -4.16331e-05
0.00033836 -1.0345e-06 4.78659e-07
-1.0345e-06 -0.000168517 2.22516e-06
4.78659e-07 2.22516e-06 -0.000211893
0.00208232 -1.05345e-05 -3.4168e-06
-1.05345e-05 0.000829055 4.23468e-08
-3.4168e-06 4.23468e-08 0.000848516
0.000617198 -3.75825e-06 -8.00574e-08
-3.75825e-06 -3.20235e-05 3.5693e-06
-8.00574e-08 3.5693e-06 -3.87039e-05
0.00207101 2.88716e-06 1.01772e-06
2.88716e-06 0.000822534 4.71338e-06
1.01772e-06 4.71338e-06 0.000842184
0.00113152 7.44551e-06 -4.99184e-07
7.44551e-06 0.000498058 1.49633e-05
-4.99184e-07 1.49633e-05 0.000219981
0.0012733 -8.40377e-05 8.17026e-06
-8.40377e-05 0.000224432 -6.50557e-06
8.17026e-06 -6.50557e-06 -0.000979056
0.00184171 7.93569e-05 2.58858e-05
7.93569e-05 0.00286819 -3.33436e-05
2.58858e-05 -3.33436e-05 0.00199363
0.000797213 7.21908e-05 -1.86227e-07
7.21908e-05 0.000126457 2.86826e-07
-1.86227e-07 2.86826e-07 1.55909e-05
0.000638945 4.34264e-05 2.52051e-07
4.34264e-05 1.94644e-05 -4.94158e-08
2.52051e-07 -4.94158e-08 -8.23235e-05
0.000924246 9.9229e-05 3.32002e-07
9.9229e-05 0.000196168 1.15341e-06
3.32002e-07 1.15341e-06 7.87548e-05
0.0023015 -5.9822e-05 8.51396e-06
-5.9822e-05 0.00024129 0.000134866
8.51396e-06 0.000134866 -0.000814173
0.00317034 -0.000149779 -1.04903e-06
-0.000149779 0.00189751 9.52773e-07
-1.04903e-06 9.52773e-07 0.00083128
0.00346667 -0.000304065 4.71217e-05
-0.000304065 0.00128629 -0.000100208
4.71217e-05 -0.000100208 -0.000922332
0.00530001 -0.00074339 -5.43946e-05
-0.00074339 0.000916521 2.62085e-07
-5.43946e-05 2.62085e-07 0.000289395
0.00194942 -0.000576474 -9.3086e-05
-0.000576474 0.00017106 7.14218e-05
-9.3086e-05 7.14218e-05 -0.00233492
0.00904887 0.0010988 7.80393e-05
0.0010988 0.00293786 4.53791e-05
7.80393e-05 4.53791e-05 0.0026003
0.00208852 0.000200009 2.92659e-05
0.000200009 -0.0030371 -5.9676e-05
2.92659e-05 -5.9676e-05 -0.00193088
0.00535458 -0.00115605 -1.62769e-05
-0.00115605 0.00136293 4.22153e-06
-1.62769e-05 4.22153e-06 0.000596482
0.00671949 -0.000815132 -1.54839e-06
-0.000815132 0.00303506 1.4218e-05
-1.54839e-06 1.4218e-05 5.655e-06
-0.00241479 0.000628257 -1.89463e-05
0.000628257 -0.000404727 -8.48829e-05
-1.89463e-05 -8.48829e-05 -0.0017524
0.00480709 4.69186e-06 -1.37427e-05
4.69186e-06 -0.00215786 3.52821e-05
-1.37427e-05 3.52821e-05 -0.000117756
0.00238869 -0.000785403 -4.15305e-05
-0.000785403 0.000308705 -1.55023e-05
-4.15305e-05 -1.55023e-05 -0.000359443
0.0110997 -0.0010866 -1.84313e-05
-0.0010866 0.00511863 3.96471e-05
-1.84313e-05 3.96471e-05 0.00151577
-0.00908683 -0.000100537 4.58744e-05
-0.000100537 -0.00084805 -0.000165977
4.58744e-05 -0.000165977 -0.00264978
0.00331373 -0.000631264 8.64175e-06
-0.000631264 -0.00195803 -2.98871e-05
8.64175e-06 -2.98871e-05 -0.000652994
0.000750207 3.78058e-05 -3.3324e-07
3.78058e-05 9.68703e-05 6.19169e-07
-3.3324e-07 6.19169e-07 -3.06671e-05
0.000693291 2.00237e-06 1.49293e-07
2.00237e-06 8.62733e-05 -5.89587e-07
1.49293e-07 -5.89587e-07 -5.03618e-05
0.000746258 -5.9523e-05 1.81222e-07
-5.9523e-05 0.00012906 2.62429e-07
1.81222e-07 2.62429e-07 -5.37128e-06
0.000756102 4.98134e-05 -4.77692e-07
4.98134e-05 9.99882e-05 -6.39161e-07
-4.77692e-07 -6.39161e-07 -1.80266e-05
0.000896273 0.000117412 1.00677e-06
0.000117412 0.000205567 1.55283e-06
1.00677e-06 1.55283e-06 7.80046e-05
0.00104811 0.000116227 -8.62906e-07
0.000116227 0.000295421 9.34971e-07
-8.62906e-07 9.34971e-07 0.000174041
0.000439715 -0.000396355 1.87058e-05
-0.000396355 -0.000518321 7.6793e-06
1.87058e-05 7.6793e-06 -0.000540148
-0.000562637 -9.4258e-05 1.70193e-05
-9.4258e-05 -0.000588523 -2.22722e-05
1.70193e-05 -2.22722e-05 -0.000594574
0.000931674 6.12019e-05 -1.33736e-06
6.12019e-05 0.000237175 -4.85193e-07
-1.33736e-06 -4.85193e-07 9.31774e-05
0.00140494 -0.000164621 2.18093e-05
-0.000164621 0.000539126 -3.21467e-05
2.18093e-05 -3.21467e-05 0.000334232
0.00133847 1.9186e-05 -2.40307e-06
1.9186e-05 0.000534766 1.34202e-06
-2.40307e-06 1.34202e-06 0.000328768
0.000689784 2.01038e-05 -8.11838e-08
2.01038e-05 6.85044e-05 6.29482e-07
-8.11838e-08 6.29482e-07 -6.05956e-05
0.000607714 9.09005e-05 3.00449e-07
9.09005e-05 7.95248e-05 -1.7138e-08
3.00449e-07 -1.7138e-08 -7.46059e-05
0.00022306 -0.000334976 -4.31354e-06
-0.000334976 -0.000544094 -3.05803e-06
-4.31354e-06 -3.05803e-06 -0.000522095
0.000815259 -2.27309e-05 3.8933e-06
-2.27309e-05 0.000300521 -1.62008e-06
3.8933e-06 -1.62008e-06 8.59866e-05
0.000573232 -6.14189e-05 2.20101e-05
-6.14189e-05 0.000310349 -6.56477e-08
2.20101e-05 -6.56477e-08 0.000202868
0.00099653 6.69881e-05 2.78791e-06
6.69881e-05 0.000253605 -4.7702e-06
2.78791e-06 -4.7702e-06 0.000130722
-0.00254858 0.000139358 -6.51391e-05
0.000139358 -0.00114237 -1.30303e-05
-6.51391e-05 -1.30303e-05 -0.00151028
5.81814e-05 6.97202e-06 6.74284e-06
6.97202e-06 1.67195e-05 3.50476e-05
6.74284e-06 3.50476e-05 -8.8071e-05
0.00127947 4.06014e-06 2.90771e-06
4.06014e-06 0.000557181 1.95944e-06
2.90771e-06 1.95944e-06 0.0003806
0.00105853 -3.11767e-05 7.73516e-07
-3.11767e-05 -2.8968e-05 8.41113e-07
7.73516e-07 8.41113e-07 -0.00046849
0.000803639 -2.85188e-05 -1.50413e-05
-2.85188e-05 0.000429062 -7.09444e-06
-1.50413e-05 -7.09444e-06 2.14542e-06
0.000990646 -3.53186e-05 0.000144205
-3.53186e-05 0.000514701 -5.00671e-06
0.000144205 -5.00671e-06 -0.000723936
0.000749813 0.00017284 1.38837e-05
0.00017284 0.000419381 1.25528e-05
1.38837e-05 1.25528e-05 0.000264422
0.00176594 0.000394974 1.12883e-05
0.000394974 0.000584791 -1.27623e-05
1.12883e-05 -1.27623e-05 0.000356164
0.000890233 -5.64314e-05 4.45519e-06
-5.64314e-05 0.000203457 4.8621e-06
4.45519e-06 4.8621e-06 1.31201e-05
-0.00199677 0.000451032 3.09024e-05
0.000451032 3.35588e-05 4.03898e-05
3.09024e-05 4.03898e-05 -0.00337307
-0.0105403 0.000252916 -6.21935e-05
0.000252916 -0.00371401 -0.000171804
-6.21935e-05 -0.000171804 -0.00552833
0.00255063 3.0268e-05 3.48536e-05
3.0268e-05 0.000804685 6.13362e-05
3.48536e-05 6.13362e-05 0.000111545
0.00225824 0.000333495 -3.67783e-05
0.000333495 -0.00295971 6.05947e-05
-3.67783e-05 6.05947e-05 -0.00189943
0.000474264 0.000146266 5.78649e-06
0.000146266 0.000347519 -2.01638e-06
5.78649e-06 -2.01638e-06 0.000157156
0.00159198 -4.50111e-06 9.64406e-06
-4.50111e-06 -9.02376e-05 -1.61562e-05
9.64406e-06 -1.61562e-05 -4.73237e-05
0.00322917 -0.000107899 2.50793e-07
-0.000107899 0.00184663 -1.18662e-06
2.50793e-07 -1.18662e-06 0.0008033
0.00135873 0.000212431 -1.84459e-05
0.000212431 0.000305627 -3.67605e-06
-1.84459e-05 -3.67605e-06 -0.000124219
0.00268467 0.00106999 5.22811e-05
0.00106999 -0.00155845 -0.000124647
5.22811e-05 -0.000124647 -0.000776899
-0.00218777 0.000592882 1.61708e-05
0.000592882 -0.00108552 8.38588e-05
1.61708e-05 8.38588e-05 -0.00196745
0.0067731 -6.53276e-06 6.24416e-05
-6.53276e-06 0.00492958 -2.30704e-05
6.24416e-05 -2.30704e-05 0.00019189
0.00178147 -2.36022e-05 3.65613e-05
-2.36022e-05 0.00131427 -1.77881e-05
3.65613e-05 -1.77881e-05 0.000968705
0.00119881 3.51263e-05 -3.86503e-06
3.51263e-05 0.000484248 -1.29294e-05
-3.86503e-06 -1.29294e-05 0.000215221
0.0033594 -0.000191434 0.000171102
-0.000191434 0.000863142 -0.000137425
0.000171102 -0.000137425 -0.000898552
0.00388934 0.0014539 -5.75558e-06
0.0014539 0.00256024 -1.45026e-05
-5.75558e-06 -1.45026e-05 0.00344841
-0.00491085 0.000680455 4.16055e-05
0.000680455 -0.00455739 0.000236883
4.16055e-05 0.000236883 -0.00446127
0.0122623 -0.00096892 9.84019e-05
-0.00096892 0.00509005 -9.27524e-05
9.84019e-05 -9.27524e-05 0.00161811
0.00422036 -0.000401941 -8.80655e-05
-0.000401941 0.00139691 9.44977e-05
-8.80655e-05 9.44977e-05 0.00126773
0.000791962 0.000100587 5.2168e-06
0.000100587 0.000477023 4.55314e-06
5.2168e-06 4.55314e-06 0.000329162
-9.02773e-05 5.70412e-06 -1.03331e-05
5.70412e-06 5.44653e-05 1.86613e-06
-1.03331e-05 1.86613e-06 -7.81914e-05
0.00123949 -0.000239 1.23144e-05
-0.000239 0.000793634 -1.38982e-05
1.23144e-05 -1.38982e-05 0.000541511
0.000997182 -6.76207e-05 1.4771e-06
-6.76207e-05 0.000298824 2.53051e-06
1.4771e-06 2.53051e-06 0.00021244
-0.00049335 -2.98471e-05 4.54301e-06
-2.98471e-05 -0.000373116 1.31781e-05
4.54301e-06 1.31781e-05 -0.000463098
0.000141624 -0.00014564 -1.26596e-06
-0.00014564 2.27671e-05 -3.02684e-07
-1.26596e-06 -3.02684e-07 -0.000133146
0.00126939 -0.000253413 2.37832e-05
-0.000253413 0.000563851 -1.45559e-05
2.37832e-05 -1.45559e-05 0.000286532
0.00206853 -0.000165799 -4.19679e-06
-0.000165799 0.000840768 3.86613e-06
-4.19679e-06 3.86613e-06 0.000730768
0.00166444 -0.000280796 1.77965e-06
-0.000280796 0.000647828 8.97319e-08
1.77965e-06 8.97319e-08 0.000423421
0.00119683 -0.000274848 8.399e-06
-0.000274848 0.000407138 2.27876e-06
8.399e-06 2.27876e-06 4.62649e-05
5.22103e-05 -0.000106288 -1.74332e-06
-0.000106288 -0.000313772 -3.53567e-07
-1.74332e-06 -3.53567e-07 -0.000449439
0.00125824 -0.000254577 -2.93964e-07
-0.000254577 0.000299038 1.46555e-06
-2.93964e-07 1.46555e-06 6.45958e-05
0.00243006 -0.000406472 2.21928e-06
-0.000406472 0.000841859 2.6546e-06
2.21928e-06 2.6546e-06 0.000532635
0.00176035 -0.000361469 -1.94966e-06
-0.000361469 0.000344611 1.99821e-06
-1.94966e-06 1.99821e-06 7.61428e-05
0.000527157 -0.000201176 6.03272e-07
-0.000201176 -0.00020489 6.73827e-06
6.03272e-07 6.73827e-06 -0.000413708
0.0013245 -0.000281383 -3.80585e-06
-0.000281383 0.000215241 1.96017e-06
-3.80585e-06 1.96017e-06 -2.81432e-05
0.00099157 -0.000221289 -6.35396e-06
-0.000221289 0.000149667 1.71261e-06
-6.35396e-06 1.71261e-06 -6.59606e-05
0.00174044 -0.000268856 4.94713e-06
-0.000268856 0.000609355 -2.73983e-06
4.94713e-06 -2.73983e-06 0.000414451
0.00129753 -0.00023851 2.95161e-06
-0.00023851 0.000325761 -2.74396e-06
2.95161e-06 -2.74396e-06 0.00013933
0.000130335 -4.75143e-05 1.60589e-06
-4.75143e-05 -0.00023868 6.04249e-07
1.60589e-06 6.04249e-07 -0.000391878
0.000733128 -0.000156415 1.55898e-06
-0.000156415 0.000108626 -6.83508e-07
1.55898e-06 -6.83508e-07 -7.48131e-05
0.00112829 -0.000210539 5.98863e-06
-0.000210539 0.000265878 -4.66628e-06
5.98863e-06 -4.66628e-06 6.93361e-05
0.000618105 3.48772e-05 1.37564e-06
3.48772e-05 2.86124e-05 1.6598e-06
1.37564e-06 1.6598e-06 -7.61269e-05
0.000884637 -7.52547e-05 -4.22737e-07
-7.52547e-05 0.000199025 2.85249e-07
-4.22737e-07 2.85249e-07 6.79645e-05
0.00105891 -0.000178904 -6.15435e-07
-0.000178904 0.000314223 -6.21765e-07
-6.15435e-07 -6.21765e-07 0.000148694
0.000620813 3.17426e-05 -1.18658e-06
3.17426e-05 4.38556e-06 2.06835e-06
-1.18658e-06 2.06835e-06 -5.41514e-05
0.00072931 4.26353e-07 -6.8528e-07
4.26353e-07 8.26766e-05 -2.73764e-07
-6.8528e-07 -2.73764e-07 -5.72024e-06
0.000627153 -2.07215e-05 6.92926e-08
-2.07215e-05 4.45444e-05 -5.37886e-07
6.92926e-08 -5.37886e-07 -6.69491e-05
0.000768198 -2.55362e-05 5.75164e-07
-2.55362e-05 0.000105704 -1.11329e-06
5.75164e-07 -1.11329e-06 2.27969e-05
0.000663372 1.85381e-05 -2.67895e-07
1.85381e-05 2.25679e-05 -9.02613e-08
-2.67895e-07 -9.02613e-08 -3.01675e-05
0.000577816 5.13746e-05 -8.65868e-07
5.13746e-05 -2.81444e-05 4.17891e-06
-8.65868e-07 4.17891e-06 -4.88275e-05
0.000679249 8.68688e-06 1.91214e-06
8.68688e-06 2.67858e-05 -1.8264e-06
1.91214e-06 -1.8264e-06 -2.23847e-05
0.0005951 4.43974e-05 -2.80235e-08
4.43974e-05 -2.69059e-05 -1.302e-08
-2.80235e-08 -1.302e-08 -4.45474e-05
0.00225456 7.45831e-05 -2.36898e-05
7.45831e-05 0.000954576 3.79157e-06
-2.36898e-05 3.79157e-06 0.000964661
0.00058458 3.6e-05 9.41266e-07
3.6e-05 -3.97917e-05 -3.89268e-06
9.41266e-07 -3.89268e-06 -5.52952e-05
0.00153309 5.28585e-05 1.0343e-05
5.28585e-05 0.000524648 -1.03023e-06
1.0343e-05 -1.03023e-06 0.000533171
0.00231319 5.38861e-05 1.63137e-05
5.38861e-05 0.000976632 -4.37073e-06
1.63137e-05 -4.37073e-06 0.000990026
0.000710576 5.36459e-05 -4.41964e-07
5.36459e-05 6.77427e-05 -1.04245e-06
-4.41964e-07 -1.04245e-06 -2.41028e-05
0.00065544 1.34248e-05 -6.7109e-07
1.34248e-05 1.18312e-05 -2.46286e-06
-6.7109e-07 -2.46286e-06 -4.25503e-05
0.000591306 3.30018e-05 -1.06413e-06
3.30018e-05 6.35236e-06 -8.4951e-07
-1.06413e-06 -8.4951e-07 -8.79891e-05
0.00060144 -2.30205e-05 2.09879e-07
-2.30205e-05 -3.62545e-05 -4.28505e-06
2.09879e-07 -4.28505e-06 -5.02946e-05
0.000491455 7.63392e-06 -1.09445e-06
7.63392e-06 -8.15951e-05 -1.03057e-06
-1.09445e-06 -1.03057e-06 -0.000132972
0.000807635 3.24426e-05 3.0589e-07
3.24426e-05 0.000133148 5.00259e-07
3.0589e-07 5.00259e-07 4.44759e-05
0.00223691 -3.70959e-05 -1.43572e-05
-3.70959e-05 0.000923816 -4.7163e-06
-1.43572e-05 -4.7163e-06 0.000940306
0.00060816 -1.60613e-05 -2.26846e-07
-1.60613e-05 -3.52317e-05 -4.53701e-08
-2.26846e-07 -4.53701e-08 -4.60034e-05
0.000319389 -2.37071e-06 -5.27992e-07
-2.37071e-06 -0.000180192 1.35603e-06
-5.27992e-07 1.35603e-06 -0.000228652
0.00214587 -2.3055e-05 -3.51373e-06
-2.3055e-05 0.000867548 8.28576e-08
-3.51373e-06 8.28576e-08 0.000885952
0.000613921 -1.00266e-05 -1.14427e-07
-1.00266e-05 -3.33054e-05 3.70862e-06
-1.14427e-07 3.70862e-06 -4.15691e-05
0.00208554 -9.23116e-06 5.58409e-06
-9.23116e-06 0.000830773 4.74478e-06
5.58409e-06 4.74478e-06 0.000850296
0.00168629 -3.09228e-05 -3.23944e-06
-3.09228e-05 -1.92951e-05 2.36413e-05
-3.23944e-06 2.36413e-05 -2.58743e-05
0.00116105 -4.63083e-06 -1.65839e-06
-4.63083e-06 0.000431224 -1.51127e-06
-1.65839e-06 -1.51127e-06 0.000212346
0.00172075 -7.6301e-05 9.35115e-05
-7.6301e-05 0.000468911 -2.30637e-05
9.35115e-05 -2.30637e-05 -0.000691318
0.000618251 4.33744e-06 -6.90374e-08
4.33744e-06 -2.09354e-07 -6.56915e-07
-6.90374e-08 -6.56915e-07 -9.45227e-05
0.000872604 2.89645e-05 -9.55169e-07
2.89645e-05 0.000154263 -5.56621e-07
-9.55169e-07 -5.56621e-07 4.89042e-05
0.000811476 7.27792e-05 1.08852e-06
7.27792e-05 0.000131852 6.8511e-07
1.08852e-06 6.8511e-07 2.557e-05
0.000654048 2.80435e-05 1.98871e-07
2.80435e-05 2.23181e-05 1.54257e-07
1.98871e-07 1.54257e-07 -7.48819e-05
0.000776237 5.06162e-05 7.98394e-08
5.06162e-05 0.000109206 2.52293e-07
7.98394e-08 2.52293e-07 -5.28594e-06
0.000762432 3.67663e-05 -5.54727e-07
3.67663e-05 9.29065e-05 -1.2025e-07
-5.54727e-07 -1.2025e-07 -1.23914e-05
0.000893971 0.000159498 9.36541e-07
0.000159498 0.000195637 8.57378e-07
9.36541e-07 8.57378e-07 5.99338e-05
0.000212217 2.67884e-05 3.79522e-05
2.67884e-05 0.000148116 0.000127517
3.79522e-05 0.000127517 -0.00123301
0.00240216 -4.01126e-05 -8.23363e-06
-4.01126e-05 0.000573616 4.62607e-05
-8.23363e-06 4.62607e-05 -0.000295498
0.00274127 -0.000118223 1.31961e-05
-0.000118223 0.00173885 -6.55816e-05
1.31961e-05 -6.55816e-05 0.000593654
0.00355329 -0.000131647 -2.42908e-05
-0.000131647 -0.00361065 4.03045e-05
-2.42908e-05 4.03045e-05 -0.00108085
0.00335918 -0.000979103 -5.15475e-05
-0.000979103 0.00112977 5.6454e-05
-5.15475e-05 5.6454e-05 0.000134223
-0.0018138 -0.00102493 1.60213e-05
-0.00102493 -0.000570243 6.48007e-05
1.60213e-05 6.48007e-05 -0.00405792
0.00710154 0.00128016 6.09218e-05
0.00128016 0.00405877 -2.76656e-05
6.09218e-05 -2.76656e-05 0.00232009
0.00396987 -0.000927573 -2.09954e-05
-0.000927573 0.0010334 5.36046e-06
-2.09954e-05 5.36046e-06 0.000303684
0.000130627 -0.000427781 3.42337e-05
-0.000427781 0.00105376 1.17636e-05
3.42337e-05 1.17636e-05 -0.00279025
0.00436122 -3.65068e-05 -9.55272e-06
-3.65068e-05 0.00233924 -6.44765e-06
-9.55272e-06 -6.44765e-06 0.0014198
0.00786156 -0.000877909 -2.82333e-05
-0.000877909 0.000954171 -3.3594e-05
-2.82333e-05 -3.3594e-05 0.00221087
0.000448057 2.11471e-05 -0.000101234
2.11471e-05 -0.000816548 6.07769e-05
-0.000101234 6.07769e-05 -0.000695427
0.000686997 0.000866937 -1.34706e-05
0.000866937 0.00120083 -9.59008e-05
-1.34706e-05 -9.59008e-05 -0.00256823
-0.00691528 -0.00131767 5.42595e-05
-0.00131767 -0.00413353 -0.000107731
5.42595e-05 -0.000107731 -0.00580983
0.003413 -0.000827247 1.27472e-05
-0.000827247 -0.00131187 -0.000183222
1.27472e-05 -0.000183222 0.000151308
0.000727586 8.60154e-06 -6.99775e-07
8.60154e-06 8.50911e-05 -5.17709e-07
-6.99775e-07 -5.17709e-07 -2.42577e-05
0.000705418 3.93955e-05 3.29295e-07
3.93955e-05 7.50508e-05 7.77406e-08
3.29295e-07 7.77406e-08 -5.36984e-05
0.000727218 1.65003e-05 -3.41148e-07
1.65003e-05 0.000114317 -3.02874e-07
-3.41148e-07 -3.02874e-07 -2.79935e-05
0.000790864 4.30182e-05 -2.09495e-07
4.30182e-05 0.000129959 -1.18303e-06
-2.09495e-07 -1.18303e-06 3.79992e-06
7.32518e-05 -0.000359809 1.86265e-07
-0.000359809 -0.000664488 2.20833e-05
1.86265e-07 2.20833e-05 -0.000722227
0.00110707 -5.23444e-05 -8.20136e-06
-5.23444e-05 0.000620062 -2.83123e-05
-8.20136e-06 -2.83123e-05 0.000525
0.000588667 1.93911e-05 -1.71154e-06
1.93911e-05 -1.46037e-06 -4.45219e-07
-1.71154e-06 -4.45219e-07 -0.000122997
0.000724598 9.40035e-05 -1.71125e-06
9.40035e-05 0.000151908 1.71231e-06
-1.71125e-06 1.71231e-06 -2.76684e-06
0.00200668 -5.11988e-05 7.80686e-06
-5.11988e-05 0.000965604 -2.42831e-05
7.80686e-06 -2.42831e-05 0.000766448
0.000819666 4.81466e-05 -2.26995e-07
4.81466e-05 0.000152531 1.23082e-06
-2.26995e-07 1.23082e-06 3.27019e-05
0.000825194 6.20945e-05 -1.7558e-06
6.20945e-05 0.000315247 -2.31226e-06
-1.7558e-06 -2.31226e-06 0.000126443
-0.000270098 2.97618e-05 2.72673e-05
2.97618e-05 -5.23137e-05 -1.35473e-05
2.72673e-05 -1.35473e-05 -0.000509909
0.000674064 -1.026e-05 3.20046e-05
-1.026e-05 0.000369545 2.06196e-07
3.20046e-05 2.06196e-07 0.000292814
0.000210476 0.000108105 -4.35376e-07
0.000108105 -6.72162e-05 -2.94054e-06
-4.35376e-07 -2.94054e-06 -0.000200736
0.000222344 -7.13135e-05 -2.41108e-05
-7.13135e-05 0.000668821 -3.82654e-05
-2.41108e-05 -3.82654e-05 -0.000437057
0.00330315 8.53292e-05 1.49511e-05
8.53292e-05 0.00175292 2.10742e-05
1.49511e-05 2.10742e-05 0.00158519
0.000991588 -1.76002e-05 7.06665e-06
-1.76002e-05 0.000546665 5.54336e-06
7.06665e-06 5.54336e-06 5.31208e-05
0.00137326 -3.26159e-05 3.03035e-07
-3.26159e-05 0.000184086 4.1932e-07
3.03035e-07 4.1932e-07 -0.000107792
0.000622483 -2.9562e-05 -4.24052e-06
-2.9562e-05 0.000300144 -1.07829e-05
-4.24052e-06 -1.07829e-05 -6.35212e-05
-7.97074e-05 9.68193e-05 4.69222e-06
9.68193e-05 7.43238e-05 6.62073e-06
4.69222e-06 6.62073e-06 -9.13446e-05
-0.000308834 0.000224998 2.28165e-05
0.000224998 -0.000627214 3.5657e-05
2.28165e-05 3.5657e-05 -0.000755123
0.00141704 -2.65305e-05 1.29345e-05
-2.65305e-05 -0.000194447 -1.06172e-06
1.29345e-05 -1.06172e-06 -8.77779e-05
0.00385334 -0.000826646 0.000128589
-0.000826646 0.00354604 -0.000125748
0.000128589 -0.000125748 -0.00101843
0.00702608 0.00132578 -5.70207e-05
0.00132578 0.00345787 3.50716e-05
-5.70207e-05 3.50716e-05 0.0019888
0.00284011 -8.22789e-05 -1.72381e-05
-8.22789e-05 0.00169732 6.5404e-05
-1.72381e-05 6.5404e-05 0.000568005
0.00460166 0.00114924 -1.6746e-05
0.00114924 -0.000182404 -3.43619e-05
-1.6746e-05 -3.43619e-05 0.000435156
-0.00023734 0.00010787 7.68781e-07
0.00010787 0.000289703 6.30112e-06
7.68781e-07 6.30112e-06 -0.000145494
0.00120822 1.95078e-05 1.49055e-06
1.95078e-05 0.000429089 1.54744e-06
1.49055e-06 1.54744e-06 0.000220626
0.00329537 -0.000236927 5.91217e-05
-0.000236927 0.000940038 -6.32618e-06
5.91217e-05 -6.32618e-06 -0.00102232
0.00029469 -0.000126436 1.61093e-06
-0.000126436 -0.000690257 2.42091e-05
1.61093e-06 2.42091e-05 -0.000588945
-0.00161124 0.00155318 8.80614e-05
0.00155318 -0.000504126 -3.7288e-05
8.80614e-05 -3.7288e-05 0.000896249
0.00592563 0.000789124 -4.19144e-05
0.000789124 0.000226775 8.62324e-05
-4.19144e-05 8.62324e-05 0.000273247
-0.00234623 -0.000761111 6.34697e-05
-0.000761111 0.000104685 -5.75732e-05
6.34697e-05 -5.75732e-05 -0.00436883
0.0011145 -7.90607e-05 4.08575e-05
-7.90607e-05 0.000564486 -1.23844e-05
4.08575e-05 -1.23844e-05 0.000372043
0.000883569 -9.33756e-05 6.07268e-05
-9.33756e-05 -0.000114 -2.47066e-05
6.07268e-05 -2.47066e-05 -0.00125231
-0.00181203 0.000168138 -0.000181481
0.000168138 0.00112575 -1.60789e-05
-0.000181481 -1.60789e-05 2.69346e-05
0.00193058 0.00139909 -0.000118823
0.00139909 -8.60677e-05 0.000187893
-0.000118823 0.000187893 0.000365336
0.00786073 -0.000513572 2.25004e-05
-0.000513572 0.00359927 -1.892e-05
2.25004e-05 -1.892e-05 0.000526588
0.00350749 -0.000385206 -6.07676e-05
-0.000385206 0.000909119 5.83741e-05
-6.07676e-05 5.83741e-05 0.000601321
-0.00106308 2.3205e-05 1.61021e-05
2.3205e-05 -0.000482179 1.45845e-05
1.61021e-05 1.45845e-05 -0.000644526
0.000180681 -0.000166994 -9.26735e-06
-0.000166994 0.000245337 1.10809e-06
-9.26735e-06 1.10809e-06 -4.09303e-06
0.000616922 -0.000241945 2.20622e-05
-0.000241945 0.000188419 -6.08287e-06
2.20622e-05 -6.08287e-06 3.65903e-05
-0.000794724 -0.000117242 -3.44847e-06
-0.000117242 -0.000477575 6.79175e-06
-3.44847e-06 6.79175e-06 -0.000620279
-0.000582324 -0.000135201 1.58442e-06
-0.000135201 -0.000400662 -3.89731e-06
1.58442e-06 -3.89731e-06 -0.000681334
0.00275932 -0.000465037 2.6022e-05
-0.000465037 0.00100932 -5.18992e-06
2.6022e-05 -5.18992e-06 0.00073716
0.00331112 -0.000441041 -6.62026e-06
-0.000441041 0.00150318 2.39924e-06
-6.62026e-06 2.39924e-06 0.00126637
0.00192892 -0.000333971 3.73609e-06
-0.000333971 0.000755924 8.93891e-07
3.73609e-06 8.93891e-07 0.000413988
0.00115063 -0.000326901 7.50769e-06
-0.000326901 0.000153623 -4.59002e-06
7.50769e-06 -4.59002e-06 -0.000189127
0.00156789 -0.000280107 -5.6626e-06
-0.000280107 0.000444256 1.02985e-06
-5.6626e-06 1.02985e-06 0.000200043
0.00223353 -0.000393678 2.30041e-06
-0.000393678 0.000711153 -6.09934e-08
2.30041e-06 -6.09934e-08 0.000402332
0.00203491 -0.000398274 1.75395e-06
-0.000398274 0.000507851 -5.00907e-06
1.75395e-06 -5.00907e-06 0.000202053
0.00178017 -0.000348531 2.50013e-07
-0.000348531 0.000288602 -3.11972e-06
2.50013e-07 -3.11972e-06 5.81893e-05
0.0022486 -0.000389258 -4.88625e-06
-0.000389258 0.000628102 4.63962e-06
-4.88625e-06 4.63962e-06 0.000367962
0.00178216 -0.000364496 -1.33245e-06
-0.000364496 0.000358172 -5.01295e-07
-1.33245e-06 -5.01295e-07 8.48601e-05
0.000290163 -0.000167436 5.06301e-06
-0.000167436 -0.000316305 6.28322e-07
5.06301e-06 6.28322e-07 -0.00050042
0.00104011 -0.000240257 2.80545e-06
-0.000240257 8.61023e-05 -1.10601e-07
2.80545e-06 -1.10601e-07 -0.000121019
0.00135919 -0.000285513 -1.51654e-06
-0.000285513 0.000241128 -2.26472e-06
-1.51654e-06 -2.26472e-06 -4.83848e-06
0.00116807 -0.000207137 2.26437e-06
-0.000207137 0.000307617 5.52203e-07
2.26437e-06 5.52203e-07 0.000117012
0.00130199 -0.000228875 -2.14592e-06
-0.000228875 0.000355121 -1.64098e-06
-2.14592e-06 -1.64098e-06 0.000166218
0.000679906 -0.000182468 4.96291e-06
-0.000182468 -2.24771e-05 -3.35349e-06
4.96291e-06 -3.35349e-06 -0.000192606
0.000603665 -3.85091e-05 2.14921e-06
-3.85091e-05 2.95911e-05 1.63011e-06
2.14921e-06 1.63011e-06 -0.000105638
0.000541253 -8.15964e-05 -1.37615e-07
-8.15964e-05 5.61527e-06 8.87087e-07
-1.37615e-07 8.87087e-07 -0.000151974
0.001338 -0.000212222 2.79231e-06
-0.000212222 0.000459011 -2.98769e-06
2.79231e-06 -2.98769e-06 0.000269467
0.000568292 4.53622e-05 -8.03529e-08
4.53622e-05 -1.44348e-05 2.73556e-06
-8.03529e-08 2.73556e-06 -8.59416e-05
0.000734647 -9.18657e-06 -3.91438e-07
-9.18657e-06 9.90158e-05 -5.59933e-07
-3.91438e-07 -5.59933e-07 -1.18044e-05
0.0011463 -0.000102408 -1.2638e-07
-0.000102408 0.000354387 -6.4652e-07
-1.2638e-07 -6.4652e-07 0.000216843
0.000540895 5.95392e-05 -1.44221e-06
5.95392e-05 -3.91334e-05 5.87648e-06
-1.44221e-06 5.87648e-06 -6.35831e-05
0.000651477 2.86787e-05 -2.80188e-07
2.86787e-05 2.08067e-05 -2.54918e-07
-2.80188e-07 -2.54918e-07 -3.76738e-05
0.000799173 -2.11917e-05 -1.58739e-07
-2.11917e-05 0.000124161 -1.46846e-06
-1.58739e-07 -1.46846e-06 3.29509e-05
0.000672668 1.68512e-05 1.54034e-06
1.68512e-05 2.71736e-05 -2.0229e-06
1.54034e-06 -2.0229e-06 -2.54297e-05
0.000581461 5.33536e-05 3.31537e-08
5.33536e-05 -2.51433e-05 -8.84022e-09
3.31537e-08 -8.84022e-09 -4.62604e-05
0.0022899 8.73476e-05 -2.64446e-05
8.73476e-05 0.000983717 3.42734e-06
-2.64446e-05 3.42734e-06 0.00099089
0.000593683 4.5853e-05 6.08059e-07
4.5853e-05 -2.75989e-05 -4.02459e-06
6.08059e-07 -4.02459e-06 -4.54309e-05
0.00228052 7.66619e-05 2.37847e-06
7.66619e-05 0.000970637 1.91449e-07
2.37847e-06 1.91449e-07 0.000980295
0.00228208 6.5777e-05 1.97319e-05
6.5777e-05 0.000964792 -3.9777e-06
1.97319e-05 -3.9777e-06 0.00097654
0.000731634 3.90296e-05 -4.35196e-07
3.90296e-05 8.83083e-05 -8.2333e-07
-4.35196e-07 -8.2333e-07 -2.16918e-05
0.000775385 6.99882e-05 -4.51342e-07
6.99882e-05 0.000114778 -1.43176e-06
-4.51342e-07 -1.43176e-06 1.23289e-05
0.000661981 5.23277e-06 -8.34363e-07
5.23277e-06 1.4732e-05 -2.56262e-06
-8.34363e-07 -2.56262e-06 -4.38391e-05
0.0007321 6.38584e-05 -8.80057e-08
6.38584e-05 7.99924e-05 2.06359e-08
-8.80057e-08 2.06359e-08 -1.20283e-05
0.000588209 -3.01207e-05 1.16358e-07
-3.01207e-05 -3.91541e-05 -4.64973e-06
1.16358e-07 -4.64973e-06 -5.69512e-05
0.000658043 1.31141e-05 -1.17007e-07
1.31141e-05 1.377e-05 -7.20473e-08
-1.17007e-07 -7.20473e-08 -4.05971e-05
0.000691783 3.59486e-05 -9.45308e-07
3.59486e-05 5.43708e-05 6.9105e-07
-9.45308e-07 6.9105e-07 -3.21737e-05
0.00233254 -5.03482e-05 -1.88753e-05
-5.03482e-05 0.000983584 -4.62515e-06
-1.88753e-05 -4.62515e-06 0.000997891
0.000602262 -2.2682e-05 -2.00226e-07
-2.2682e-05 -3.57185e-05 -5.07955e-08
-2.00226e-07 -5.07955e-08 -4.96359e-05
0.000625364 1.6855e-05 -6.20366e-07
1.6855e-05 -4.11384e-06 1.44121e-06
-6.20366e-07 1.44121e-06 -5.4306e-05
0.00222234 -3.58756e-05 -3.65613e-06
-3.58756e-05 0.000914799 1.2822e-07
-3.65613e-06 1.2822e-07 0.000931593
0.000607636 -1.59092e-05 -1.5879e-07
-1.59092e-05 -3.55673e-05 3.85945e-06
-1.5879e-07 3.85945e-06 -4.62107e-05
0.00213156 -2.17813e-05 9.78118e-06
-2.17813e-05 0.000858783 4.71391e-06
9.78118e-06 4.71391e-06 0.000877431
0.000893644 -7.30899e-05 4.27019e-06
-7.30899e-05 0.000118591 1.97566e-05
4.27019e-06 1.97566e-05 -4.16578e-05
0.00156534 -4.99862e-05 -1.10581e-05
-4.99862e-05 -0.000106 1.66928e-05
-1.10581e-05 1.66928e-05 -5.73763e-05
0.00122111 -1.67677e-05 2.50838e-06
-1.67677e-05 0.000347258 -1.09464e-05
2.50838e-06 -1.09464e-05 0.000221488
0.000743258 3.92228e-05 -1.6373e-07
3.92228e-05 8.60203e-05 -1.89696e-08
-1.6373e-07 -1.89696e-08 -1.89055e-05
0.000722625 1.63783e-05 3.19424e-07
1.63783e-05 6.81075e-05 6.4132e-08
3.19424e-07 6.4132e-08 -3.54264e-05
0.000606985 1.96908e-05 -2.2289e-06
1.96908e-05 2.07875e-06 -1.93338e-06
-2.2289e-06 -1.93338e-06 -0.000102064
0.000532557 -5.3673e-06 -6.47173e-07
-5.3673e-06 -4.05035e-05 -9.52313e-07
-6.47173e-07 -9.52313e-07 -0.000142944
0.00104078 0.000103705 -1.42341e-06
0.000103705 0.000266792 -1.00085e-06
-1.42341e-06 -1.00085e-06 0.000143893
0.000686231 9.89019e-06 -2.25796e-07
9.89019e-06 3.66047e-05 3.40823e-07
-2.25796e-07 3.40823e-07 -5.7414e-05
0.000679993 3.30666e-05 3.87486e-07
3.30666e-05 4.55546e-05 -6.57021e-07
3.87486e-07 -6.57021e-07 -6.22026e-05
0.000764326 4.57103e-05 -1.04904e-07
4.57103e-05 9.71549e-05 -6.70879e-08
-1.04904e-07 -6.70879e-08 -1.08885e-05
0.000878332 7.90062e-05 5.45231e-07
7.90062e-05 0.000166208 4.7064e-07
5.45231e-07 4.7064e-07 4.77041e-05
0.000982175 5.31378e-05 -9.12789e-07
5.31378e-05 0.000239235 -6.21638e-07
-9.12789e-07 -6.21638e-07 0.000122753
0.0023091 0.000111948 0.000114031
0.000111948 0.00105795 0.000169942
0.000114031 0.000169942 -0.000953891
0.000763315 6.44106e-05 1.06391e-05
6.44106e-05 0.000217637 4.48661e-05
1.06391e-05 4.48661e-05 -0.00118576
0.00262427 -2.15355e-05 -1.38789e-05
-2.15355e-05 0.000952209 -1.57533e-05
-1.38789e-05 -1.57533e-05 0.00030092
0.0077385 -0.00077689 -6.10544e-05
-0.00077689 0.00102841 -7.0591e-05
-6.10544e-05 -7.0591e-05 0.00234696
-0.0106458 0.000542076 -4.16888e-05
0.000542076 -0.0035591 0.000197849
-4.16888e-05 0.000197849 -0.00548481
0.00540553 -0.00093338 -0.000103799
-0.00093338 0.00192898 5.25341e-05
-0.000103799 5.25341e-05 0.00120923
0.00985942 -0.00058324 -5.04409e-05
-0.00058324 0.00405496 -2.07421e-05
-5.04409e-05 -2.07421e-05 0.000933981
0.00251298 -0.000118697 -1.83588e-05
-0.000118697 0.000317336 5.26024e-05
-1.83588e-05 5.26024e-05 -1.5986e-05
0.0111527 -0.000156881 2.41893e-05
-0.000156881 0.00532884 -1.58069e-05
2.41893e-05 -1.58069e-05 0.00158928
0.00170877 -0.0007765 4.68343e-05
-0.0007765 6.24046e-05 4.63051e-05
4.68343e-05 4.63051e-05 -0.000991941
0.002766 -0.000980395 -0.000100086
-0.000980395 -0.00181989 -0.000219336
-0.000100086 -0.000219336 -0.000407412
0.00344557 0.000174274 -9.039e-05
0.000174274 0.000647622 2.14963e-05
-9.039e-05 2.14963e-05 0.000167676
0.00911243 0.000620883 -5.3209e-06
0.000620883 0.00409526 2.29454e-05
-5.3209e-06 2.29454e-05 0.00115
0.00997744 -0.00155299 -9.9437e-06
-0.00155299 0.00313655 -0.000172276
-9.9437e-06 -0.000172276 0.00310462
0.00563094 -0.00153133 5.03369e-05
-0.00153133 0.0009254 4.96066e-06
5.03369e-05 4.96066e-06 0.0024351
0.00027726 4.90949e-05 -5.37625e-07
4.90949e-05 -0.000101598 -5.62128e-07
-5.37625e-07 -5.62128e-07 -0.000199097
0.0009354 5.30268e-06 1.28329e-07
5.30268e-06 0.000213587 1.24041e-06
1.28329e-07 1.24041e-06 9.68939e-05
0.000695419 3.87236e-05 -3.14661e-08
3.87236e-05 7.09002e-05 -2.96835e-07
-3.14661e-08 -2.96835e-07 -5.83458e-05
0.00109232 9.56637e-06 -3.75225e-05
9.56637e-06 0.000607106 1.62114e-05
-3.75225e-05 1.62114e-05 3.66321e-05
0.000984488 -4.50025e-05 -7.17109e-05
-4.50025e-05 0.00057175 -3.1002e-05
-7.17109e-05 -3.1002e-05 0.000509815
0.00065505 -4.6215e-06 -1.4528e-06
-4.6215e-06 5.92843e-05 3.30837e-06
-1.4528e-06 3.30837e-06 -6.187e-05
-0.000625319 5.41159e-05 -1.30043e-06
5.41159e-05 -0.000478993 -4.56989e-06
-1.30043e-06 -4.56989e-06 -0.000683304
0.000603536 7.71984e-05 -6.16391e-08
7.71984e-05 0.000162067 -2.85693e-06
-6.16391e-08 -2.85693e-06 1.68498e-05
0.000600981 7.43543e-05 -4.05332e-06
7.43543e-05 0.00030935 4.11745e-06
-4.05332e-06 4.11745e-06 0.000123605
-0.000272855 -1.83385e-05 0.000101948
-1.83385e-05 0.000604585 -3.84947e-05
0.000101948 -3.84947e-05 -0.000516874
-0.00236345 -5.917e-06 -2.14735e-05
-5.917e-06 -0.00132038 1.15929e-05
-2.14735e-05 1.15929e-05 -0.00146297
0.00209834 0.000228843 -2.03032e-05
0.000228843 0.00119734 -3.65842e-05
-2.03032e-05 -3.65842e-05 0.000478468
0.00184646 -3.83009e-06 6.27415e-05
-3.83009e-06 0.000762599 8.14813e-06
6.27415e-05 8.14813e-06 -0.000457493
0.000810295 -2.0152e-05 1.60477e-05
-2.0152e-05 0.000420163 7.72148e-06
1.60477e-05 7.72148e-06 6.49947e-06
0.00169889 -4.11049e-05 -1.56884e-06
-4.11049e-05 0.000401021 -8.83719e-07
-1.56884e-06 -8.83719e-07 0.000250218
-0.00267277 0.00013065 4.15207e-05
0.00013065 -0.000955373 9.06937e-06
4.15207e-05 9.06937e-06 -0.00151719
0.00330273 8.88877e-05 -1.61891e-05
8.88877e-05 0.000895179 -9.90325e-06
-1.61891e-05 -9.90325e-06 0.000460774
0.0012694 1.32494e-06 2.29892e-06
1.32494e-06 0.000368096 8.06062e-06
2.29892e-06 8.06062e-06 0.000252647
0.0154631 -0.00106075 0.000108436
-0.00106075 0.00682033 -1.92497e-05
0.000108436 -1.92497e-05 0.00326207
0.00876954 0.00114111 -6.5357e-05
0.00114111 0.00276932 -3.47748e-05
-6.5357e-05 -3.47748e-05 0.00234392
0.0035646 -0.000272108 -5.0985e-05
-0.000272108 0.001203 0.000102762
-5.0985e-05 0.000102762 -0.000929705
-0.00717403 0.00172052 0.000414414
0.00172052 -0.00372223 -0.000319486
0.000414414 -0.000319486 -0.00182267
0.000745561 -8.7099e-05 -3.5972e-06
-8.7099e-05 0.000513494 -1.06443e-06
-3.5972e-06 -1.06443e-06 0.000255477
0.00131053 -7.85733e-05 -8.48185e-06
-7.85733e-05 0.000148685 6.55742e-06
-8.48185e-06 6.55742e-06 -0.0010334
-0.00258725 0.000215243 -0.000244817
0.000215243 0.00117645 0.000108975
-0.000244817 0.000108975 0.000181264
0.001954 -0.000298872 -2.34262e-05
-0.000298872 0.00018291 3.19282e-05
-2.34262e-05 3.19282e-05 -9.50428e-05
0.00930986 0.00158621 5.57181e-05
0.00158621 0.00301036 5.75177e-05
5.57181e-05 5.75177e-05 0.0035434
0.0075144 -0.00100665 6.89944e-05
-0.00100665 0.00313832 -4.47344e-05
6.89944e-05 -4.47344e-05 0.000330869
0.00148246 -0.000245405 1.21843e-05
-0.000245405 0.000399742 2.50895e-05
1.21843e-05 2.50895e-05 0.000499081
-0.00330105 -0.00017801 2.27001e-05
-0.00017801 0.000830785 -1.29023e-05
2.27001e-05 -1.29023e-05 -0.000828327
0.00760417 0.00141471 -0.000250557
0.00141471 0.00370436 0.00011583
-0.000250557 0.00011583 0.00369229
0.00243182 -0.00051844 -0.000151224
-0.00051844 -1.32406e-05 0.000103956
-0.000151224 0.000103956 -0.00287449
0.0024074 -0.000802879 6.52081e-05
-0.000802879 0.000345749 -2.25415e-05
6.52081e-05 -2.25415e-05 -4.0936e-05
-0.000963114 -0.000108156 -1.31146e-05
-0.000108156 -0.000353283 1.24292e-05
-1.31146e-05 1.24292e-05 -0.000602039
0.000408728 -0.000228255 -4.40725e-06
-0.000228255 0.000111247 3.65513e-06
-4.40725e-06 3.65513e-06 -9.98656e-05
0.00397243 -0.000529085 3.05048e-05
-0.000529085 0.00154936 3.43227e-06
3.05048e-05 3.43227e-06 0.00145668
-0.00237623 -2.90879e-05 -6.46446e-06
-2.90879e-05 -0.00133589 7.93057e-06
-6.46446e-06 7.93057e-06 -0.00161731
0.0007361 -0.000286536 2.8933e-06
-0.000286536 -9.24432e-06 4.59928e-07
2.8933e-06 4.59928e-07 -0.000287828
0.00189505 -0.000453763 5.29875e-06
-0.000453763 0.000305528 -3.8683e-07
5.29875e-06 -3.8683e-07 8.25117e-05
0.00250568 -0.000377441 -9.01397e-06
-0.000377441 0.00102015 2.40118e-06
-9.01397e-06 2.40118e-06 0.000699656
0.00125704 -0.000330682 -2.38734e-06
-0.000330682 0.00018906 -2.96366e-06
-2.38734e-06 -2.96366e-06 -0.000133988
0.0020992 -0.00045003 5.24376e-06
-0.00045003 0.000420987 -4.00604e-06
5.24376e-06 -4.00604e-06 0.000171413
0.00205578 -0.00038154 -3.53236e-06
-0.00038154 0.000592127 -1.49615e-06
-3.53236e-06 -1.49615e-06 0.000283823
0.00155642 -0.000359099 -1.0714e-07
-0.000359099 0.000227997 -3.26098e-06
-1.0714e-07 -3.26098e-06 -6.62355e-05
0.00187748 -0.000373792 1.45549e-07
-0.000373792 0.00027556 -6.08351e-06
1.45549e-07 -6.08351e-06 5.29124e-05
0.00167372 -0.000297622 -1.24068e-06
-0.000297622 0.000152847 -3.14254e-06
-1.24068e-06 -3.14254e-06 -3.13874e-05
0.00158516 -0.000332595 2.27117e-06
-0.000332595 0.000186955 -1.66536e-06
2.27117e-06 -1.66536e-06 -5.13515e-05
0.00165274 -0.000338975 1.68665e-06
-0.000338975 0.000220402 -1.3314e-06
1.68665e-06 -1.3314e-06 -7.90948e-06
0.0016248 -0.000301489 -1.78057e-06
-0.000301489 0.000315965 4.91262e-06
-1.78057e-06 4.91262e-06 9.19703e-05
0.00191883 -0.000363698 -1.82679e-06
-0.000363698 0.000449235 1.95881e-07
-1.82679e-06 1.95881e-07 0.000188203
0.00176636 -0.000364809 -3.34729e-07
-0.000364809 0.000351251 -2.30964e-06
-3.34729e-07 -2.30964e-06 7.3397e-05
0.00108839 -0.000216971 2.88305e-06
-0.000216971 0.000191888 -4.22492e-08
2.88305e-06 -4.22492e-08 8.83208e-07
0.000588643 -0.000189006 -1.00673e-06
-0.000189006 -0.000141047 -1.80808e-06
-1.00673e-06 -1.80808e-06 -0.000323252
0.00151568 -0.000276829 6.69339e-06
-0.000276829 0.000356551 -6.34339e-06
6.69339e-06 -6.34339e-06 0.000151853
0.00078547 -0.000138941 -1.48402e-07
-0.000138941 0.000104707 -9.80738e-08
-1.48402e-07 -9.80738e-08 -5.55233e-05
0.000876809 -0.000176328 2.3924e-07
-0.000176328 0.000142268 1.44532e-08
2.3924e-07 1.44532e-08 -4.22483e-05
0.000853194 -0.000187843 -1.68325e-06
-0.000187843 9.47497e-05 3.87829e-07
-1.68325e-06 3.87829e-07 -8.80574e-05
0.000531055 4.567e-05 1.15058e-06
4.567e-05 -2.61028e-05 4.17168e-06
1.15058e-06 4.17168e-06 -0.000117971
0.000783387 -5.9889e-05 9.24523e-07
-5.9889e-05 0.000138918 5.12229e-07
9.24523e-07 5.12229e-07 -4.26203e-06
0.000967777 -0.000120774 -1.94135e-06
-0.000120774 0.000259688 7.76272e-07
-1.94135e-06 7.76272e-07 9.67924e-05
0.00134498 9.69074e-05 -1.36022e-05
9.69074e-05 0.000446666 3.97254e-06
-1.36022e-05 3.97254e-06 0.000417596
0.000650154 2.27693e-05 -5.25863e-07
2.27693e-05 2.84823e-05 -5.97594e-07
-5.25863e-07 -5.97594e-07 -4.23103e-05
0.000861272 -4.57648e-05 -1.42654e-06
-4.57648e-05 0.000175818 -1.89554e-06
-1.42654e-06 -1.89554e-06 5.88029e-05
0.000754507 4.68143e-05 -2.66547e-05
4.68143e-05 9.3272e-05 3.4197e-06
-2.66547e-05 3.4197e-06 9.32816e-05
0.000983941 7.59977e-05 -7.83385e-06
7.59977e-05 0.000222376 1.23622e-07
-7.83385e-06 1.23622e-07 0.000198
0.000679794 2.4536e-05 8.3476e-07
2.4536e-05 3.56458e-05 -2.46313e-06
8.3476e-07 -2.46313e-06 -2.26892e-05
0.000587268 5.6443e-05 1.01679e-07
5.6443e-05 -2.0416e-05 -4.33356e-06
1.01679e-07 -4.33356e-06 -4.222e-05
0.00232983 8.93547e-05 2.59629e-06
8.93547e-05 0.00100788 2.28214e-07
2.59629e-06 2.28214e-07 0.00101461
0.00229884 7.83128e-05 2.31084e-05
7.83128e-05 0.000982289 -3.66601e-06
2.31084e-05 -3.66601e-06 0.000991592
0.000683253 3.34665e-05 -3.27791e-07
3.34665e-05 5.01767e-05 -7.61024e-07
-3.27791e-07 -7.61024e-07 -5.53795e-05
0.000790515 5.48425e-05 -2.97883e-07
5.48425e-05 0.000121347 -1.78861e-06
-2.97883e-07 -1.78861e-06 1.69846e-05
0.000691038 2.51464e-05 5.13054e-08
2.51464e-05 5.38819e-05 3.97445e-08
5.13054e-08 3.97445e-08 -4.82294e-05
0.000666508 -6.1568e-06 -1.05372e-06
-6.1568e-06 1.85804e-05 -2.74994e-06
-1.05372e-06 -2.74994e-06 -4.38758e-05
0.000739003 4.46242e-05 6.56462e-07
4.46242e-05 8.32008e-05 1.77751e-08
6.56462e-07 1.77751e-08 -1.12217e-05
0.000575963 -3.48048e-05 -3.06993e-07
-3.48048e-05 -4.06267e-05 -4.96748e-06
-3.06993e-07 -4.96748e-06 -6.20959e-05
0.000652445 8.56329e-06 -1.19797e-07
8.56329e-06 1.04683e-05 -6.47987e-08
-1.19797e-07 -6.47987e-08 -4.8515e-05
0.000756507 5.80071e-05 4.52197e-07
5.80071e-05 0.000107969 1.62773e-06
4.52197e-07 1.62773e-06 6.18691e-06
0.00245146 -6.37552e-05 -2.462e-05
-6.37552e-05 0.00105806 -4.43785e-06
-2.462e-05 -4.43785e-06 0.0010698
0.000586978 -2.93077e-05 -3.60356e-07
-2.93077e-05 -4.01761e-05 -3.50426e-08
-3.60356e-07 -3.50426e-08 -5.7755e-05
0.000647802 1.38709e-05 5.63057e-07
1.38709e-05 8.35059e-06 2.60637e-06
5.63057e-07 2.60637e-06 -4.60214e-05
0.00231873 -4.92524e-05 -3.55964e-06
-4.92524e-05 0.000974922 1.73916e-07
-3.55964e-06 1.73916e-07 0.00098955
0.000598397 -2.23839e-05 -1.41047e-07
-2.23839e-05 -3.78913e-05 4.15136e-06
-1.41047e-07 4.15136e-06 -5.16848e-05
0.00220961 -3.46196e-05 1.40681e-05
-3.46196e-05 0.000906828 4.66532e-06
1.40681e-05 4.66532e-06 0.0009239
0.00337652 1.07033e-06 7.05544e-05
1.07033e-06 0.00127722 2.88155e-05
7.05544e-05 2.88155e-05 0.000379279
0.000887786 -7.048e-05 2.19352e-07
-7.048e-05 0.000151562 7.76275e-06
2.19352e-07 7.76275e-06 -1.81093e-05
0.00143379 -6.05312e-05 -1.35925e-05
-6.05312e-05 -0.00017928 -7.62794e-07
-1.35925e-05 -7.62794e-07 -9.15088e-05
0.000750847 9.31736e-05 -3.43395e-06
9.31736e-05 8.84863e-05 -8.39573e-08
-3.43395e-06 -8.39573e-08 -2.61789e-05
0.000817741 4.21282e-05 2.94199e-07
4.21282e-05 0.000125549 6.06135e-07
2.94199e-07 6.06135e-07 2.32807e-05
0.000613868 1.01313e-05 7.1653e-07
1.01313e-05 5.41917e-06 8.34148e-07
7.1653e-07 8.34148e-07 -9.65451e-05
0.00080488 1.48984e-05 -1.81316e-09
1.48984e-05 0.000111569 -9.937e-08
-1.81316e-09 -9.937e-08 1.04457e-05
0.000899159 5.60899e-05 -3.08721e-07
5.60899e-05 0.000172977 -8.3467e-08
-3.08721e-07 -8.3467e-08 6.37594e-05
0.000825795 7.95276e-05 4.78912e-07
7.95276e-05 0.000141639 7.495e-07
4.78912e-07 7.495e-07 2.41099e-05
0.000785298 6.71938e-05 -2.45519e-06
6.71938e-05 0.00011199 -2.84367e-06
-2.45519e-06 -2.84367e-06 -1.09454e-05
0.000350633 7.3474e-06 -9.74565e-07
7.3474e-06 -0.000133329 -1.13102e-06
-9.74565e-07 -1.13102e-06 -0.00024269
0.000822225 9.91249e-05 2.42757e-08
9.91249e-05 0.000137581 7.44035e-08
2.42757e-08 7.44035e-08 2.28508e-05
0.000701926 1.25586e-06 1.17362e-06
1.25586e-06 4.53073e-05 -2.79807e-07
1.17362e-06 -2.79807e-07 -5.54268e-05
0.000782998 4.77486e-05 -4.43289e-07
4.77486e-05 0.000121752 1.14372e-07
-4.43289e-07 1.14372e-07 9.51595e-06
0.00159595 0.000109472 4.41546e-06
0.000109472 0.000628745 5.13457e-06
4.41546e-06 5.13457e-06 0.000517341
0.00103699 -0.000590413 6.46758e-05
-0.000590413 0.00189053 0.000138512
6.46758e-05 0.000138512 0.000794833
0.00294112 0.000160383 1.37621e-05
0.000160383 0.0013265 5.03982e-05
1.37621e-05 5.03982e-05 -0.00072396
0.00121397 8.7319e-05 -1.14647e-05
8.7319e-05 0.000346168 -3.7085e-05
-1.14647e-05 -3.7085e-05 -0.00107284
0.00764902 -0.00128885 -0.000173541
-0.00128885 0.000762016 -0.000135746
-0.000173541 -0.000135746 0.00216569
0.00476293 -0.000392807 2.91032e-05
-0.000392807 0.000799076 0.000169104
2.91032e-05 0.000169104 -7.30847e-05
0.000476136 -0.000590197 -9.65186e-05
-0.000590197 0.00110774 9.71895e-05
-9.65186e-05 9.71895e-05 -0.00274513
0.00208739 -0.000203266 -4.4051e-05
-0.000203266 0.000385267 7.5275e-05
-4.4051e-05 7.5275e-05 -0.00014435
0.00344552 -0.00011046 1.45794e-05
-0.00011046 0.000697159 4.66215e-05
1.45794e-05 4.66215e-05 0.00041151
-0.000556867 -0.00156683 6.23472e-05
-0.00156683 -0.00135709 7.95564e-05
6.23472e-05 7.95564e-05 0.000344621
0.0052032 0.00063282 6.34091e-06
0.00063282 0.00316751 -7.38737e-06
6.34091e-06 -7.38737e-06 -0.000491023
0.00196551 -0.000839317 -2.39126e-05
-0.000839317 -0.00126306 3.22805e-05
-2.39126e-05 3.22805e-05 -0.00122898
0.00124203 0.000318219 8.84295e-07
0.000318219 -0.000297721 3.04092e-05
8.84295e-07 3.04092e-05 -0.000380785
0.00792354 0.000400976 -2.41397e-05
0.000400976 0.00394126 5.82748e-06
-2.41397e-05 5.82748e-06 0.001103
0.00135672 -0.00133558 -8.60061e-05
-0.00133558 -0.000661466 -0.000115715
-8.60061e-05 -0.000115715 -0.000249678
0.000661428 0.00023451 3.01233e-06
0.00023451 7.68291e-05 -6.71556e-06
3.01233e-06 -6.71556e-06 -3.38959e-05
0.00074162 6.96555e-05 4.65868e-06
6.96555e-05 0.000154515 -4.0694e-07
4.65868e-06 -4.0694e-07 5.67047e-05
0.000990021 3.11347e-05 -2.06913e-07
3.11347e-05 0.000248762 1.00789e-06
-2.06913e-07 1.00789e-06 0.000129889
0.000283434 -9.85244e-06 -0.000149858
-9.85244e-06 0.000892446 -4.4045e-05
-0.000149858 -4.4045e-05 -0.000197457
-0.00172383 8.63637e-05 8.27554e-06
8.63637e-05 -0.000958384 -1.23503e-05
8.27554e-06 -1.23503e-05 -0.00115341
0.000847879 0.000118146 5.46274e-07
0.000118146 0.00030372 -1.06809e-06
5.46274e-07 -1.06809e-06 0.000150354
0.000616136 0.000239469 8.60787e-06
0.000239469 0.000228042 3.38942e-06
8.60787e-06 3.38942e-06 7.4694e-05
0.000628666 0.000213109 -4.11208e-06
0.000213109 0.000356735 -2.98963e-05
-4.11208e-06 -2.98963e-05 -0.000245727
-0.000153894 0.000369604 2.11598e-05
0.000369604 -0.000489038 -8.789e-07
2.11598e-05 -8.789e-07 -0.000743872
-0.000109497 0.00014086 0.000116163
0.00014086 0.00253164 1.12024e-05
0.000116163 1.12024e-05 0.000897866
0.00188988 -2.65151e-05 -4.43546e-06
-2.65151e-05 0.000820104 1.42677e-05
-4.43546e-06 1.42677e-05 -0.000170501
0.000614125 -2.29089e-05 4.13603e-06
-2.29089e-05 0.000303897 1.0511e-05
4.13603e-06 1.0511e-05 -4.32802e-05
0.000491256 -8.00077e-05 -2.90946e-05
-8.00077e-05 0.000493113 9.16162e-06
-2.90946e-05 9.16162e-06 0.000226515
0.00055349 -0.000122152 -4.1654e-05
-0.000122152 -0.00103102 -2.31711e-06
-4.1654e-05 -2.31711e-06 -0.000875515
0.00172413 -7.4344e-05 -7.73522e-05
-7.4344e-05 0.000351403 2.1618e-05
-7.73522e-05 2.1618e-05 -0.000802316
-0.00132648 -0.00102061 4.64409e-05
-0.00102061 -0.000325265 -7.02094e-05
4.64409e-05 -7.02094e-05 -0.0037052
-0.00278288 0.00113396 9.9331e-05
0.00113396 -0.00367501 -0.000112127
9.9331e-05 -0.000112127 -0.00296576
0.00169401 0.000589226 -0.000124207
0.000589226 0.00248578 0.000126325
-0.000124207 0.000126325 0.00193614
0.00209855 -0.000113202 -9.55553e-06
-0.000113202 0.000519312 9.25767e-07
-9.55553e-06 9.25767e-07 0.000760468
0.00157527 0.000155509 1.75989e-05
0.000155509 0.00270601 9.35051e-06
1.75989e-05 9.35051e-06 0.00173675
-0.00370354 0.000824892 3.09768e-05
0.000824892 -0.00108016 8.19328e-06
3.09768e-05 8.19328e-06 -0.00204821
0.00373876 -0.000903274 1.6115e-05
-0.000903274 0.00128929 -3.63504e-06
1.6115e-05 -3.63504e-06 0.000481529
0.00997206 -0.000358306 7.69785e-06
-0.000358306 0.00353186 -8.11561e-06
7.69785e-06 -8.11561e-06 0.00167923
0.00202718 -0.000443231 -1.72264e-06
-0.000443231 0.000436888 2.2319e-05
-1.72264e-06 2.2319e-05 0.000524023
-0.00741028 0.000315841 -0.00016768
0.000315841 -0.00349939 -6.5406e-07
-0.00016768 -6.5406e-07 -0.00410072
0.0107025 -0.000141304 -5.94856e-05
-0.000141304 0.00328027 2.16794e-05
-5.94856e-05 2.16794e-05 0.00180449
0.00440405 -0.00102829 4.8115e-07
-0.00102829 0.000332813 -7.62101e-06
4.8115e-07 -7.62101e-06 -0.000352587
0.000497507 -0.00022144 -2.32787e-05
-0.00022144 0.000195914 1.46749e-05
-2.32787e-05 1.46749e-05 -7.93849e-05
0.00175753 -0.000384971 -3.02462e-06
-0.000384971 0.000308784 1.10743e-06
-3.02462e-06 1.10743e-06 0.000295084
0.00281149 -0.00043593 1.37503e-05
-0.00043593 0.000677598 -3.00969e-06
1.37503e-05 -3.00969e-06 0.000659076
-0.00131936 -0.000105499 -3.95775e-06
-0.000105499 -0.00104483 2.85219e-07
-3.95775e-06 2.85219e-07 -0.00133403
0.00135116 -0.000403981 -3.80585e-06
-0.000403981 5.00452e-05 -1.3901e-06
-3.80585e-06 -1.3901e-06 -0.000180229
0.00219224 -0.000480074 3.01205e-06
-0.000480074 0.00033259 -6.10849e-07
3.01205e-06 -6.10849e-07 0.000147094
0.00133807 -0.000333834 -1.03427e-05
-0.000333834 0.000215454 -2.35937e-06
-1.03427e-05 -2.35937e-06 -9.06572e-05
0.00153919 -0.000401749 2.67748e-07
-0.000401749 0.000135612 4.05471e-07
2.67748e-07 4.05471e-07 -0.000114079
0.00191197 -0.000386337 -1.14782e-06
-0.000386337 0.000189235 -4.97308e-06
-1.14782e-06 -4.97308e-06 9.48669e-06
0.00106971 -0.000320122 -5.87986e-06
-0.000320122 -5.58772e-05 1.39786e-07
-5.87986e-06 1.39786e-07 -0.000339019
0.0016373 -0.00035344 -4.32823e-07
-0.00035344 0.000139053 3.72487e-07
-4.32823e-07 3.72487e-07 -7.95709e-05
0.00176097 -0.000305397 -1.13226e-06
-0.000305397 0.000117567 -5.38922e-06
-1.13226e-06 -5.38922e-06 -3.41025e-05
0.00160118 -0.000242632 -2.99374e-06
-0.000242632 5.0507e-05 -3.43815e-06
-2.99374e-06 -3.43815e-06 -8.91064e-05
0.00148755 -0.000277777 -1.03346e-06
-0.000277777 7.58744e-05 -2.48089e-06
-1.03346e-06 -2.48089e-06 -0.000117195
0.00156975 -0.000284447 6.95072e-07
-0.000284447 9.71398e-05 1.1897e-06
6.95072e-07 1.1897e-06 -8.31464e-05
0.00127338 -0.000279659 -3.40231e-06
-0.000279659 3.83632e-05 2.40985e-07
-3.40231e-06 2.40985e-07 -0.000178848
0.0015814 -0.000328416 2.01434e-06
-0.000328416 0.000190177 -7.53177e-08
2.01434e-06 -7.53177e-08 -4.42581e-05
0.00153518 -0.00033009 9.41446e-07
-0.00033009 0.000157403 1.97877e-06
9.41446e-07 1.97877e-06 -6.88196e-05
0.00124675 -0.000243526 2.88016e-07
-0.000243526 0.000180116 3.24257e-06
2.88016e-07 3.24257e-06 -2.07752e-05
0.00128611 -0.000276069 2.71757e-06
-0.000276069 0.000127603 -1.13773e-06
2.71757e-06 -1.13773e-06 -9.30727e-05
0.00146537 -0.000327553 -1.04063e-06
-0.000327553 0.000199776 -2.70224e-06
-1.04063e-06 -2.70224e-06 -6.12287e-05
0.000975868 -0.000183841 -1.13579e-06
-0.000183841 0.000154659 1.40015e-06
-1.13579e-06 1.40015e-06 -1.77516e-05
0.00112501 -0.000218644 1.68213e-07
-0.000218644 0.000206717 -9.16934e-07
1.68213e-07 -9.16934e-07 1.63923e-05
0.000902862 -0.000211556 -1.18363e-06
-0.000211556 4.24704e-05 -5.48274e-06
-1.18363e-06 -5.48274e-06 -0.000138502
0.000671894 -5.20151e-05 -7.52823e-07
-5.20151e-05 4.15757e-05 4.57162e-06
-7.52823e-07 4.57162e-06 -7.42732e-05
0.000931076 -0.000138766 3.56477e-07
-0.000138766 0.000188176 1.87225e-07
3.56477e-07 1.87225e-07 2.62671e-05
0.000565101 -0.000142499 -2.47497e-06
-0.000142499 -3.57432e-05 8.05024e-07
-2.47497e-06 8.05024e-07 -0.000213422
0.000442919 6.84815e-05 2.37942e-06
6.84815e-05 -7.27471e-05 6.90221e-06
2.37942e-06 6.90221e-06 -0.000113834
0.000686635 -2.00931e-05 -4.1383e-07
-2.00931e-05 6.12114e-05 -4.26028e-07
-4.1383e-07 -4.26028e-07 -3.42597e-05
0.00101068 -8.82159e-05 5.24105e-07
-8.82159e-05 0.000273843 -1.4123e-06
5.24105e-07 -1.4123e-06 0.000123118
0.0024549 0.000123474 -8.23825e-06
0.000123474 0.00109749 1.47752e-06
-8.23825e-06 1.47752e-06 0.00109518
0.000558313 7.11922e-05 -2.40841e-07
7.11922e-05 -1.44065e-05 -2.11279e-07
-2.40841e-07 -2.11279e-07 -4.66713e-05
0.000722443 2.19005e-06 1.69895e-06
2.19005e-06 6.78944e-05 -3.67785e-06
1.69895e-06 -3.67785e-06 -3.52425e-06
0.00239533 0.000100637 2.71075e-06
0.000100637 0.00105373 2.33318e-07
2.71075e-06 2.33318e-07 0.00105775
0.000583948 6.7791e-05 -1.28189e-06
6.7791e-05 -9.43813e-06 -4.91295e-06
-1.28189e-06 -4.91295e-06 -3.64644e-05
0.00238558 9.14698e-05 2.79046e-05
9.14698e-05 0.00104123 -3.22647e-06
2.79046e-05 -3.22647e-06 0.00104748
0.000882491 9.64567e-05 -7.23252e-07
9.64567e-05 0.000164795 6.34953e-07
-7.23252e-07 6.34953e-07 4.76691e-05
0.000767176 4.64031e-05 -1.4038e-07
4.64031e-05 0.000100284 -2.55336e-07
-1.4038e-07 -2.55336e-07 -7.89058e-06
0.000796169 3.60046e-05 -2.90334e-07
3.60046e-05 0.000130526 -2.17409e-06
-2.90334e-07 -2.17409e-06 1.72951e-05
0.000672289 -1.06295e-05 -1.22736e-06
-1.06295e-05 2.57589e-05 -3.16184e-06
-1.22736e-06 -3.16184e-06 -4.1001e-05
0.000730442 2.6031e-05 4.51954e-07
2.6031e-05 8.2323e-05 1.09644e-07
4.51954e-07 1.09644e-07 -1.78945e-05
0.000653634 3.48815e-05 1.01242e-06
3.48815e-05 3.78946e-05 1.06902e-06
1.01242e-06 1.06902e-06 -6.8137e-05
0.00057339 -4.15189e-05 -5.10668e-07
-4.15189e-05 -3.56271e-05 -5.34135e-06
-5.10668e-07 -5.34135e-06 -6.0756e-05
0.000652424 4.26229e-07 -4.25948e-08
4.26229e-07 1.18524e-05 -6.42011e-08
-4.25948e-08 -6.42011e-08 -5.1089e-05
0.000725985 4.21433e-05 1.27107e-06
4.21433e-05 7.21412e-05 1.44538e-06
1.27107e-06 1.44538e-06 -1.92082e-05
0.00255697 -7.66883e-05 -3.10278e-05
-7.66883e-05 0.00112547 -4.14164e-06
-3.10278e-05 -4.14164e-06 0.00113462
0.000571327 -3.54193e-05 -3.91526e-07
-3.54193e-05 -4.35072e-05 -2.38275e-08
-3.91526e-07 -2.38275e-08 -6.48942e-05
0.000653752 1.11048e-05 9.1981e-07
1.11048e-05 1.19632e-05 2.70831e-06
9.1981e-07 2.70831e-06 -4.71669e-05
0.0024219 -6.26718e-05 -4.00794e-06
-6.26718e-05 0.00104016 2.26596e-07
-4.00794e-06 2.26596e-07 0.00105225
0.000586353 -2.86204e-05 -2.0708e-07
-2.86204e-05 -4.07174e-05 4.53364e-06
-2.0708e-07 4.53364e-06 -5.81072e-05
0.00229309 -4.784e-05 1.83965e-05
-4.784e-05 0.00095934 4.56006e-06
1.83965e-05 4.56006e-06 0.000974352
-0.00457163 5.6911e-05 -8.23224e-06
5.6911e-05 0.000440523 4.64044e-05
-8.23224e-06 4.64044e-05 -0.00148405
0.00312046 -4.17929e-05 5.12812e-07
-4.17929e-05 0.0012778 1.11072e-05
5.12812e-07 1.11072e-05 0.000338441
0.000903091 -7.14531e-05 -3.48768e-06
-7.14531e-05 0.000174668 -3.98538e-06
-3.48768e-06 -3.98538e-06 -3.47461e-06
0.000608306 5.65364e-05 -4.73921e-07
5.65364e-05 3.66503e-06 2.70493e-07
-4.73921e-07 2.70493e-07 -0.000104434
0.00159362 0.000226732 -9.97446e-07
0.000226732 0.000580861 1.22742e-06
-9.97446e-07 1.22742e-06 0.000436262
0.000645631 5.75864e-05 -3.01855e-06
5.75864e-05 2.73558e-05 -1.70964e-07
-3.01855e-06 -1.70964e-07 -8.78067e-05
0.000987965 1.47066e-05 4.4539e-07
1.47066e-05 0.000213313 1.28062e-07
4.4539e-07 1.28062e-07 0.000114127
0.00116532 9.43101e-05 2.01259e-06
9.43101e-05 0.000325523 6.69126e-07
2.01259e-06 6.69126e-07 0.000213463
0.000562658 2.77488e-05 -2.10815e-08
2.77488e-05 -1.82915e-05 2.81424e-06
-2.10815e-08 2.81424e-06 -0.000123729
0.000633059 4.32217e-05 -1.06775e-06
4.32217e-05 3.57922e-05 4.15016e-07
-1.06775e-06 4.15016e-07 -8.33756e-05
0.000779295 5.3094e-05 -2.65687e-07
5.3094e-05 0.000106887 -2.21157e-07
-2.65687e-07 -2.21157e-07 -1.20826e-05
0.000881325 9.75231e-05 -8.69557e-07
9.75231e-05 0.00018841 -2.52844e-06
-8.69557e-07 -2.52844e-06 4.48903e-05
0.000423166 0.000146332 2.32228e-06
0.000146332 -0.000121869 -6.27155e-06
2.32228e-06 -6.27155e-06 -0.000220321
0.000767611 6.54451e-05 4.37507e-07
6.54451e-05 0.000116463 -1.38987e-07
4.37507e-07 -1.38987e-07 -2.10561e-06
0.000937101 9.88681e-05 4.61287e-07
9.88681e-05 0.000251316 2.15248e-06
4.61287e-07 2.15248e-06 0.000136118
-0.00523871 -0.000678754 -0.000271844
-0.000678754 -0.00154345 1.88355e-05
-0.000271844 1.88355e-05 -0.00240572
-0.00237775 -0.000470971 0.000113338
-0.000470971 0.00082613 5.36164e-05
0.000113338 5.36164e-05 -0.000554332
0.00351048 0.000180555 -9.82162e-05
0.000180555 0.00151454 -6.76664e-05
-9.82162e-05 -6.76664e-05 -0.000580241
-0.00753559 -0.00162082 0.000322413
-0.00162082 -0.00363509 0.000275026
0.000322413 0.000275026 -0.00185824
0.0106377 -0.001085 -7.66939e-05
-0.001085 0.00324725 8.03799e-05
-7.66939e-05 8.03799e-05 0.00320872
-0.000557945 0.000816504 -5.5268e-07
0.000816504 6.08993e-05 -4.46161e-05
-5.5268e-07 -4.46161e-05 -0.00352823
0.00334484 -4.77085e-05 -0.000150873
-4.77085e-05 0.000967822 5.02118e-05
-0.000150873 5.02118e-05 0.000195303
0.00287591 0.000314674 -1.42015e-05
0.000314674 0.000709342 1.73332e-05
-1.42015e-05 1.73332e-05 0.000440953
0.0078282 -0.00122788 -0.000117273
-0.00122788 0.00381034 4.56573e-05
-0.000117273 4.56573e-05 0.00390196
0.000339581 0.000659967 -3.84467e-06
0.000659967 0.000522102 -1.62827e-05
-3.84467e-06 -1.62827e-05 -0.00234257
0.00125153 0.000539943 -6.75058e-05
0.000539943 0.000170994 -7.03424e-05
-6.75058e-05 -7.03424e-05 -0.000290847
0.00379514 0.00108723 -0.000134358
0.00108723 0.000376666 -8.31143e-05
-0.000134358 -8.31143e-05 -0.00174799
0.00203799 0.000518687 1.49847e-05
0.000518687 0.000489085 -1.98775e-05
1.49847e-05 -1.98775e-05 0.000288241
0.000775302 0.000230319 -4.84493e-06
0.000230319 0.000134341 1.14143e-06
-4.84493e-06 1.14143e-06 2.61617e-05
0.00119499 7.49462e-05 -6.83774e-07
7.49462e-05 0.000403055 -1.07499e-06
-6.83774e-07 -1.07499e-06 0.00030733
-0.000651687 0.000177516 -3.83827e-05
0.000177516 -0.000259704 -3.82287e-05
-3.83827e-05 -3.82287e-05 -0.000757957
0.00285506 0.000357854 -1.50912e-05
0.000357854 0.00139743 -1.06143e-05
-1.50912e-05 -1.06143e-05 0.00123136
0.00113802 0.000476506 1.43459e-05
0.000476506 0.000104006 -3.90539e-06
1.43459e-05 -3.90539e-06 -0.000161816
0.00317111 0.000772947 8.44743e-05
0.000772947 0.000505127 2.6851e-05
8.44743e-05 2.6851e-05 0.000439668
-0.00431681 -4.09084e-05 -0.000252212
-4.09084e-05 -0.00293589 -3.32259e-07
-0.000252212 -3.32259e-07 -0.00214072
-0.00195968 8.38862e-05 9.44838e-05
8.38862e-05 0.00179892 1.42015e-06
9.44838e-05 1.42015e-06 2.07106e-05
0.00173937 -5.02687e-05 -5.59048e-05
-5.02687e-05 0.000758287 2.05784e-05
-5.59048e-05 2.05784e-05 -5.25067e-05
0.0029535 -0.000231928 -5.54478e-05
-0.000231928 0.000888488 -3.38002e-05
-5.54478e-05 -3.38002e-05 0.00110122
0.0022167 -0.000829322 -4.11766e-05
-0.000829322 0.000266632 4.16697e-06
-4.11766e-05 4.16697e-06 -0.000364898
0.00194922 0.000102793 -1.64065e-05
0.000102793 0.00286642 3.20512e-05
-1.64065e-05 3.20512e-05 0.00200988
0.00173162 -0.000561044 0.000122978
-0.000561044 2.8082e-05 -0.000100605
0.000122978 -0.000100605 -0.00236091
0.00942952 0.000836164 5.06647e-05
0.000836164 0.0045485 1.32021e-05
5.06647e-05 1.32021e-05 0.00405201
0.00252389 -0.000592841 -1.69923e-05
-0.000592841 0.000550972 6.16069e-06
-1.69923e-05 6.16069e-06 0.000500435
-0.00102049 0.000440878 4.1158e-05
0.000440878 -0.000519861 -1.2677e-05
4.1158e-05 -1.2677e-05 -0.00094934
0.00386814 -0.000158839 -3.63063e-05
-0.000158839 -0.000171647 4.68411e-05
-3.63063e-05 4.68411e-05 -0.00217669
0.00582751 -0.00105945 -3.14624e-05
-0.00105945 0.0013644 1.26542e-05
-3.14624e-05 1.26542e-05 0.000657225
4.5594e-05 -0.00032079 3.15678e-05
-0.00032079 -0.000604178 -7.97542e-06
3.15678e-05 -7.97542e-06 -0.000830064
0.00909253 -0.00033924 2.57707e-05
-0.00033924 0.00222581 -2.99813e-05
2.57707e-05 -2.99813e-05 0.000952632
0.00386767 -0.000504548 5.02406e-05
-0.000504548 -3.2731e-05 -2.99841e-05
5.02406e-05 -2.99841e-05 -0.000236892
-0.000451309 -0.00024361 -1.93056e-05
-0.00024361 -0.00092874 6.25491e-06
-1.93056e-05 6.25491e-06 -0.000862621
0.000774683 -0.000321065 -6.3267e-06
-0.000321065 -0.000419089 -9.42899e-07
-6.3267e-06 -9.42899e-07 -0.00039814
0.00292576 -0.00045411 2.10089e-05
-0.00045411 0.000582242 -1.60104e-05
2.10089e-05 -1.60104e-05 0.00057193
0.000545029 -0.000332182 -1.01481e-05
-0.000332182 -0.000340161 -3.15965e-06
-1.01481e-05 -3.15965e-06 -0.00057187
0.00169035 -0.000437883 -1.88647e-07
-0.000437883 8.12438e-05 -2.77245e-07
-1.88647e-07 -2.77245e-07 -9.40428e-05
0.00210315 -0.000398881 -3.84802e-06
-0.000398881 0.000174526 -1.02939e-06
-3.84802e-06 -1.02939e-06 5.57634e-05
0.00115696 -0.000366648 -2.14785e-06
-0.000366648 -5.73135e-05 2.54657e-06
-2.14785e-06 2.54657e-06 -0.00030744
0.00178947 -0.000376118 -2.59762e-06
-0.000376118 0.000124874 2.99175e-08
-2.59762e-06 2.99175e-08 -5.50778e-05
0.00178459 -0.000301671 -2.06316e-06
-0.000301671 3.12117e-05 -1.53894e-06
-2.06316e-06 -1.53894e-06 -8.26764e-05
0.00141693 -0.000334249 2.59401e-06
-0.000334249 1.44164e-05 4.31506e-06
2.59401e-06 4.31506e-06 -0.000200311
0.00168992 -0.000296247 1.61099e-08
-0.000296247 8.37833e-05 6.13494e-07
1.61099e-08 6.13494e-07 -6.58299e-05
0.00178476 -0.000249571 -2.0586e-06
-0.000249571 9.5904e-05 -2.21597e-06
-2.0586e-06 -2.21597e-06 -1.03798e-05
0.00182452 -0.000226363 -1.68337e-06
-0.000226363 0.000176999 -1.07463e-06
-1.68337e-06 -1.07463e-06 6.43716e-05
0.0016327 -0.000241915 -2.4169e-06
-0.000241915 6.85096e-05 2.82473e-06
-2.4169e-06 2.82473e-06 -6.6847e-05
0.00171973 -0.000247553 -6.60738e-07
-0.000247553 0.0001557 -5.50524e-06
-6.60738e-07 -5.50524e-06 2.87153e-06
0.0016234 -0.000275871 -3.49623e-06
-0.000275871 0.000177733 -1.6502e-06
-3.49623e-06 -1.6502e-06 -1.53932e-05
0.00159237 -0.000283084 1.10658e-06
-0.000283084 0.000132697 5.66243e-07
1.10658e-06 5.66243e-07 -6.04267e-05
0.00147137 -0.000271366 9.08971e-07
-0.000271366 4.42931e-05 5.85385e-06
9.08971e-07 5.85385e-06 -0.000132021
0.00126706 -0.000247612 -6.48623e-06
-0.000247612 9.43011e-05 1.86471e-06
-6.48623e-06 1.86471e-06 -0.000103959
0.0014072 -0.000289519 1.66059e-08
-0.000289519 0.000112664 -1.26634e-07
1.66059e-08 -1.26634e-07 -0.00010458
0.00156876 -0.000323818 3.02661e-06
-0.000323818 0.000188203 9.63642e-07
3.02661e-06 9.63642e-07 -4.2344e-05
0.00111285 -0.000208374 -2.32383e-06
-0.000208374 0.000160394 3.14095e-06
-2.32383e-06 3.14095e-06 -2.45404e-05
0.00123251 -0.000241167 8.8753e-07
-0.000241167 0.000169774 9.98805e-07
8.8753e-07 9.98805e-07 -3.08121e-05
0.00114345 -0.000266284 2.82155e-06
-0.000266284 5.0716e-05 -5.45395e-06
2.82155e-06 -5.45395e-06 -0.000168055
0.000730016 -0.000114398 -4.42338e-06
-0.000114398 4.53573e-05 3.89002e-06
-4.42338e-06 3.89002e-06 -8.83069e-05
0.00107141 -0.000192948 3.97543e-07
-0.000192948 0.000207328 -5.71739e-07
3.97543e-07 -5.71739e-07 3.34617e-05
0.0011945 -0.000223184 -6.76124e-07
-0.000223184 0.000241121 -2.61675e-06
-6.76124e-07 -2.61675e-06 5.08876e-05
0.000439481 2.19854e-05 -1.41747e-06
2.19854e-05 -8.97234e-05 8.86893e-06
-1.41747e-06 8.86893e-06 -0.000136861
0.000744264 -7.65482e-05 2.59412e-07
-7.65482e-05 8.63866e-05 4.34238e-07
2.59412e-07 4.34238e-07 -3.50487e-05
0.00109973 -0.000147002 5.75871e-07
-0.000147002 0.000285941 -3.85537e-07
5.75871e-07 -3.85537e-07 0.000120163
0.0027334 0.000130015 -4.22812e-05
0.000130015 0.00126299 2.26699e-06
-4.22812e-05 2.26699e-06 0.00125942
0.000549185 5.2258e-05 -3.49753e-07
5.2258e-05 -1.78284e-05 -5.52092e-07
-3.49753e-07 -5.52092e-07 -5.64248e-05
0.000838431 -6.48667e-05 2.93579e-06
-6.48667e-05 0.000148633 -4.45648e-06
2.93579e-06 -4.45648e-06 4.90303e-05
0.00169986 9.11716e-05 1.88451e-05
9.11716e-05 0.000653462 -1.68416e-08
1.88451e-05 -1.68416e-08 0.000650848
0.000603565 6.49391e-05 -4.22668e-07
6.49391e-05 1.0151e-05 -5.71726e-06
-4.22668e-07 -5.71726e-06 -2.1073e-05
0.00247598 0.000103207 3.454e-05
0.000103207 0.00110105 -2.66693e-06
3.454e-05 -2.66693e-06 0.00110466
0.00092253 0.000107901 1.31937e-06
0.000107901 0.000174799 9.49395e-07
1.31937e-06 9.49395e-07 5.77112e-05
0.000645638 5.15748e-05 -2.76623e-07
5.15748e-05 2.18611e-05 5.27107e-07
-2.76623e-07 5.27107e-07 -8.5419e-05
0.000699486 1.77641e-05 -4.53678e-07
1.77641e-05 6.07047e-05 -1.58085e-06
-4.53678e-07 -1.58085e-06 -4.72929e-05
0.000894959 6.77924e-05 8.527e-07
6.77924e-05 0.000176185 7.3735e-07
8.527e-07 7.3735e-07 6.44621e-05
0.000724178 1.37385e-05 1.9995e-07
1.37385e-05 7.4e-05 4.56341e-08
1.9995e-07 4.56341e-08 -2.74776e-05
0.000673265 -1.03404e-05 -1.38109e-06
-1.03404e-05 3.02854e-05 -3.59247e-06
-1.38109e-06 -3.59247e-06 -4.19188e-05
0.000574805 -4.6263e-05 -6.79973e-07
-4.6263e-05 -2.73703e-05 -5.82985e-06
-6.79973e-07 -5.82985e-06 -5.57995e-05
0.00064877 -8.07131e-06 2.21069e-07
-8.07131e-06 1.32431e-05 -8.31902e-08
2.21069e-07 -8.31902e-08 -5.3819e-05
0.000663661 -3.02973e-06 2.19125e-07
-3.02973e-06 2.92534e-05 1.5769e-06
2.19125e-07 1.5769e-06 -5.97091e-05
0.00263183 -8.88403e-05 -3.77121e-05
-8.88403e-05 0.00117557 -3.73875e-06
-3.77121e-05 -3.73875e-06 0.00118228
0.00055971 -3.79916e-05 -3.86972e-07
-3.79916e-05 -4.41153e-05 7.82221e-09
-3.86972e-07 7.82221e-09 -6.8723e-05
0.000642761 7.22841e-06 1.60945e-06
7.22841e-06 7.92785e-06 2.86752e-06
1.60945e-06 2.86752e-06 -5.57042e-05
0.00253245 -7.59282e-05 -4.10552e-06
-7.59282e-05 0.00111062 2.66014e-07
-4.10552e-06 2.66014e-07 0.00111997
0.000568342 -3.45549e-05 5.12543e-08
-3.45549e-05 -4.55608e-05 4.9119e-06
5.12543e-08 4.9119e-06 -6.67322e-05
0.00240167 -6.164e-05 2.26681e-05
-6.164e-05 0.00102765 4.43337e-06
2.26681e-05 4.43337e-06 0.00104004
0.000458235 0.000292211 -0.000126178
0.000292211 0.00131606 5.39035e-05
-0.000126178 5.39035e-05 0.000401471
-0.0017504 -8.12826e-05 7.3582e-06
-8.12826e-05 0.00134252 1.2945e-05
7.3582e-06 1.2945e-05 -0.000501951
0.0029042 -7.05771e-05 -5.74483e-05
-7.05771e-05 0.00134858 -4.02021e-06
-5.74483e-05 -4.02021e-06 0.000374565
0.000522901 2.5631e-05 2.31014e-06
2.5631e-05 -4.69395e-05 -8.98733e-07
2.31014e-06 -8.98733e-07 -0.000149879
0.000623126 3.61257e-05 1.61694e-06
3.61257e-05 1.30969e-05 2.30426e-07
1.61694e-06 2.30426e-07 -9.96846e-05
0.00120687 0.000188041 -9.9963e-07
0.000188041 0.000365804 5.8645e-07
-9.9963e-07 5.8645e-07 0.000229101
0.00155075 0.000254395 1.05335e-06
0.000254395 0.00051177 -5.11531e-07
1.05335e-06 -5.11531e-07 0.00034191
0.00100793 0.000146172 -6.09239e-06
0.000146172 0.00026285 -2.12184e-06
-6.09239e-06 -2.12184e-06 0.000119916
0.000917035 9.28286e-05 1.88714e-06
9.28286e-05 0.000198745 2.45781e-06
1.88714e-06 2.45781e-06 7.55582e-05
0.000793329 6.18654e-05 3.40155e-06
6.18654e-05 0.000116119 1.89301e-06
3.40155e-06 1.89301e-06 -1.7381e-06
0.000692954 0.000112808 -2.98291e-06
0.000112808 8.42003e-05 -2.79827e-06
-2.98291e-06 -2.79827e-06 -5.36088e-05
-0.000600327 7.58215e-05 -1.41686e-06
7.58215e-05 -0.000685962 -1.81555e-07
-1.41686e-06 -1.81555e-07 -0.000829874
0.00114353 0.000227383 5.93113e-07
0.000227383 0.000229173 -3.98503e-06
5.93113e-07 -3.98503e-06 0.000116813
0.00224178 0.000468527 3.76628e-06
0.000468527 0.000534179 -1.26994e-05
3.76628e-06 -1.26994e-05 0.000342302
0.000565395 0.000164437 -4.86665e-06
0.000164437 -2.33104e-05 -2.73837e-07
-4.86665e-06 -2.73837e-07 -0.000125199
0.00059258 4.9313e-05 2.09005e-06
4.9313e-05 2.57028e-05 -1.19148e-06
2.09005e-06 -1.19148e-06 -7.97417e-05
0.010857 0.000549591 -6.51551e-05
0.000549591 0.00303183 3.56867e-05
-6.51551e-05 3.56867e-05 0.00170207
-0.000924181 -0.000536702 -0.000135971
-0.000536702 0.00106719 -3.92856e-05
-0.000135971 -3.92856e-05 2.42697e-05
-0.000665893 -0.00070369 6.16751e-05
-0.00070369 0.00100467 -2.58326e-05
6.16751e-05 -2.58326e-05 -0.000438774
-0.00271392 -0.000612089 -1.62413e-05
-0.000612089 -0.000995011 0.000100566
-1.62413e-05 0.000100566 -0.000984833
0.0105496 0.000548303 5.61804e-06
0.000548303 0.00499683 -6.29682e-06
5.61804e-06 -6.29682e-06 0.00195118
0.00104501 0.000313847 -5.31332e-05
0.000313847 -0.000239596 -1.84281e-05
-5.31332e-05 -1.84281e-05 -0.000352669
0.0014181 0.000570576 -2.04052e-05
0.000570576 0.000173883 -1.06955e-05
-2.04052e-05 -1.06955e-05 -0.000179317
0.00915698 0.000514432 3.36882e-05
0.000514432 0.00313306 1.91683e-05
3.36882e-05 1.91683e-05 0.00134235
0.00534776 0.0011225 -2.68915e-05
0.0011225 0.00091627 -3.8554e-05
-2.68915e-05 -3.8554e-05 0.00042243
0.00196103 0.000573656 9.65824e-08
0.000573656 0.000265765 -1.97937e-06
9.65824e-08 -1.97937e-06 0.00010404
0.00097171 0.000388112 5.43858e-06
0.000388112 5.36289e-05 -2.24327e-06
5.43858e-06 -2.24327e-06 -0.00014019
0.000967793 0.000223573 -1.56899e-05
0.000223573 0.00024983 1.17315e-05
-1.56899e-05 1.17315e-05 0.000145651
0.00261342 0.000619602 -3.89146e-05
0.000619602 0.000731173 -1.24964e-05
-3.89146e-05 -1.24964e-05 0.000475837
0.00228156 0.000707005 -2.419e-06
0.000707005 1.64993e-05 1.66023e-05
-2.419e-06 1.66023e-05 -8.42892e-05
0.000498101 -0.00028871 -2.64083e-05
-0.00028871 -0.00267511 4.74743e-07
-2.64083e-05 4.74743e-07 -0.00313699
0.00240709 -0.00030467 -1.20113e-06
-0.00030467 0.00138352 -1.72362e-05
-1.20113e-06 -1.72362e-05 0.00139519
-0.0037462 1.25318e-05 0.000117845
1.25318e-05 0.00118529 -9.07344e-06
0.000117845 -9.07344e-06 -0.000731748
0.00236478 -0.000648153 -3.71823e-05
-0.000648153 0.000404601 4.95003e-06
-3.71823e-05 4.95003e-06 0.000279331
0.00348235 -0.000948368 3.27575e-05
-0.000948368 0.000794964 -1.36938e-05
3.27575e-05 -1.36938e-05 -0.000203259
0.00120932 -0.000256867 0.00015944
-0.000256867 0.00155504 1.08998e-05
0.00015944 1.08998e-05 0.000858062
0.0112468 -0.000165201 -0.000104055
-0.000165201 0.00376315 5.59386e-05
-0.000104055 5.59386e-05 0.00212233
0.000714063 -0.000363024 -2.1221e-05
-0.000363024 -0.000339896 -2.23791e-06
-2.1221e-05 -2.23791e-06 -0.00047162
0.00791946 6.91319e-05 -2.99924e-05
6.91319e-05 0.00143441 2.54464e-05
-2.99924e-05 2.54464e-05 0.000457322
0.00454217 -0.000584111 6.4998e-05
-0.000584111 0.000144863 7.5051e-07
6.4998e-05 7.5051e-07 -0.000375535
0.00223277 -0.000360515 3.28082e-05
-0.000360515 0.000416167 -9.35979e-06
3.28082e-05 -9.35979e-06 0.000117386
0.00323403 -0.00019133 -7.97824e-05
-0.00019133 0.00020095 -5.12915e-06
-7.97824e-05 -5.12915e-06 3.62097e-05
-0.000989995 -0.000224939 -1.5867e-05
-0.000224939 -0.00138234 4.43911e-06
-1.5867e-05 4.43911e-06 -0.00132101
0.00152975 -0.00038397 5.69293e-07
-0.00038397 -0.000146794 -8.3076e-07
5.69293e-07 -8.3076e-07 -0.000151851
0.00216117 -0.000313257 1.09617e-05
-0.000313257 8.36946e-05 -7.37734e-06
1.09617e-05 -7.37734e-06 0.000108637
0.00130374 -0.000406067 -2.13405e-06
-0.000406067 -0.000109279 2.57535e-06
-2.13405e-06 2.57535e-06 -0.000278082
0.00180812 -0.000371729 -1.99775e-06
-0.000371729 3.50045e-05 -9.85849e-08
-1.99775e-06 -9.85849e-08 -8.11939e-05
0.00205061 -0.000285159 -5.14058e-07
-0.000285159 8.33816e-05 1.30977e-06
-5.14058e-07 1.30977e-06 3.13738e-05
0.00157886 -0.000358982 -2.55763e-06
-0.000358982 1.4464e-05 4.46225e-06
-2.55763e-06 4.46225e-06 -0.000164907
0.00183144 -0.000302139 5.46456e-07
-0.000302139 5.86113e-05 1.5094e-06
5.46456e-07 1.5094e-06 -5.4724e-05
0.00172724 -0.000251944 -4.63246e-07
-0.000251944 -5.15744e-07 8.91362e-07
-4.63246e-07 8.91362e-07 -8.22061e-05
0.00163646 -0.000288816 3.25757e-06
-0.000288816 5.85594e-05 5.29881e-06
3.25757e-06 5.29881e-06 -8.92511e-05
0.00174294 -0.000249454 -1.63999e-07
-0.000249454 7.14189e-05 1.16697e-06
-1.63999e-07 1.16697e-06 -3.5798e-05
0.00202317 -0.000245344 1.95341e-07
-0.000245344 0.000254196 -3.54842e-07
1.95341e-07 -3.54842e-07 0.000158508
0.0017479 -0.00022521 -3.6667e-06
-0.00022521 0.000124429 3.50202e-06
-3.6667e-06 3.50202e-06 1.48595e-05
0.00179328 -0.000232429 2.10715e-06
-0.000232429 0.000183496 -3.42745e-06
2.10715e-06 -3.42745e-06 5.6571e-05
0.00165899 -0.000241514 1.49883e-06
-0.000241514 8.33946e-05 7.63527e-06
1.49883e-06 7.63527e-06 -4.78079e-05
0.00172226 -0.000249388 5.22194e-07
-0.000249388 0.000158058 -7.91515e-07
5.22194e-07 -7.91515e-07 4.4686e-06
0.0016414 -0.000239493 -1.56602e-06
-0.000239493 0.000157135 -3.02345e-06
-1.56602e-06 -3.02345e-06 -8.77969e-06
0.0014193 -0.000239478 -5.80878e-06
-0.000239478 0.000120497 3.93683e-07
-5.80878e-06 3.93683e-07 -6.4485e-05
0.00166496 -0.000279967 4.02953e-07
-0.000279967 0.000204306 -6.2461e-07
4.02953e-07 -6.2461e-07 9.66887e-06
0.00170001 -0.00028877 2.49233e-06
-0.00028877 0.000191707 3.36691e-06
2.49233e-06 3.36691e-06 -1.55995e-06
0.00115114 -0.00021357 -6.09793e-06
-0.00021357 9.37307e-05 2.9865e-06
-6.09793e-06 2.9865e-06 -8.80815e-05
0.00125307 -0.00024553 -1.65394e-06
-0.00024553 8.7532e-05 7.18562e-07
-1.65394e-06 7.18562e-07 -0.000110224
0.00148853 -0.000295396 3.92016e-06
-0.000295396 0.000157627 -9.39697e-07
3.92016e-06 -9.39697e-07 -5.93045e-05
0.000774419 -0.00013727 -5.55507e-06
-0.00013727 2.18907e-05 5.32244e-06
-5.55507e-06 5.32244e-06 -0.000120976
0.00111702 -0.000208628 8.77426e-07
-0.000208628 0.00016009 2.80812e-07
8.77426e-07 2.80812e-07 -2.44648e-05
0.00124046 -0.000240897 3.05138e-06
-0.000240897 0.000171718 -1.87664e-06
3.05138e-06 -1.87664e-06 -2.8883e-05
0.000437313 -4.12469e-05 -9.42288e-06
-4.12469e-05 -0.000113053 1.03632e-05
-9.42288e-06 1.03632e-05 -0.000168667
0.000795983 -0.000128894 -3.51967e-07
-0.000128894 8.23343e-05 8.85718e-08
-3.51967e-07 8.85718e-08 -5.33306e-05
0.00106735 -0.000190268 1.18003e-06
-0.000190268 0.000202681 -1.96585e-06
1.18003e-06 -1.96585e-06 2.96834e-05
0.00327162 0.000152188 -5.91557e-05
0.000152188 0.00157788 2.2024e-06
-5.91557e-05 2.2024e-06 0.00156875
0.000561253 3.05956e-06 6.62146e-07
3.05956e-06 -2.40745e-05 -3.8453e-07
6.62146e-07 -3.8453e-07 -7.11811e-05
0.000856131 -0.000122006 4.27209e-06
-0.000122006 0.000150507 -3.72335e-06
4.27209e-06 -3.72335e-06 2.47737e-05
0.00289153 0.00012933 5.43041e-06
0.00012933 0.00135266 3.84335e-07
5.43041e-06 3.84335e-07 0.0013496
0.000660092 3.6682e-05 3.18439e-06
3.6682e-05 4.18376e-05 -7.26899e-06
3.18439e-06 -7.26899e-06 4.31069e-06
0.00264254 0.000113318 4.66212e-05
0.000113318 0.00120281 -2.22334e-06
4.66212e-05 -2.22334e-06 0.0012042
0.000916638 0.000182495 2.28379e-06
0.000182495 0.000142799 -2.3849e-06
2.28379e-06 -2.3849e-06 -1.76607e-05
0.000821167 0.000133385 9.20495e-07
0.000133385 0.0001248 -9.41804e-08
9.20495e-07 -9.41804e-08 9.68766e-07
0.000525056 2.94382e-05 -8.795e-07
2.94382e-05 -4.65573e-05 -6.23473e-07
-8.795e-07 -6.23473e-07 -0.000159274
0.000396179 1.65661e-05 8.24441e-07
1.65661e-05 -0.000122687 3.25128e-07
8.24441e-07 3.25128e-07 -0.000224447
0.000599299 -1.02982e-06 -2.13223e-07
-1.02982e-06 -6.59194e-07 4.30378e-07
-2.13223e-07 4.30378e-07 -0.000105483
0.00066074 -7.48975e-06 -1.54621e-06
-7.48975e-06 2.56283e-05 -3.70407e-06
-1.54621e-06 -3.70407e-06 -5.44407e-05
0.000649169 -4.89028e-06 4.12296e-07
-4.89028e-06 2.39086e-05 1.82024e-06
4.12296e-07 1.82024e-06 -7.14537e-05
0.00063602 -1.54085e-05 3.2457e-07
-1.54085e-05 1.03319e-05 -1.83058e-07
3.2457e-07 -1.83058e-07 -6.20325e-05
0.000576891 -5.04222e-05 -8.4081e-07
-5.04222e-05 -1.81203e-05 -6.3936e-06
-8.4081e-07 -6.3936e-06 -5.0037e-05
0.0026918 -0.000100721 -4.38861e-05
-0.000100721 0.00121764 -3.24252e-06
-4.38861e-05 -3.24252e-06 0.00122188
0.000552931 -4.42153e-05 5.10306e-08
-4.42153e-05 -4.05691e-05 3.20238e-09
5.10306e-08 3.20238e-09 -6.85578e-05
0.000615532 -6.71541e-06 1.81826e-06
-6.71541e-06 -4.79336e-06 3.16036e-06
1.81826e-06 3.16036e-06 -7.21115e-05
0.00262552 -8.85445e-05 -4.03205e-06
-8.85445e-05 0.00117146 3.05071e-07
-4.03205e-06 3.05071e-07 0.00117816
0.000548758 -3.94726e-05 4.19147e-07
-3.94726e-05 -5.01663e-05 5.31351e-06
4.19147e-07 5.31351e-06 -7.48768e-05
0.00250329 -7.49471e-05 2.82013e-05
-7.49471e-05 0.00109292 4.23131e-06
2.82013e-05 4.23131e-06 0.00110253
0.0103836 0.000424047 0.000158318
0.000424047 0.00264072 7.21149e-05
0.000158318 7.21149e-05 0.00167995
-0.0025852 -0.000574849 -9.20121e-05
-0.000574849 -0.00183907 -1.0054e-05
-9.20121e-05 -1.0054e-05 -0.00200008
-0.00376714 0.000177201 -4.02221e-05
0.000177201 0.00039774 -3.20888e-05
-4.02221e-05 -3.20888e-05 -0.00179885
0.000628534 9.18102e-06 5.83915e-06
9.18102e-06 1.20441e-05 5.75924e-07
5.83915e-06 5.75924e-07 -9.68635e-05
0.000833986 0.000160771 -1.0253e-06
0.000160771 0.000157713 1.12711e-06
-1.0253e-06 1.12711e-06 2.82253e-05
0.00121936 0.000167283 -1.80798e-07
0.000167283 0.000379637 -2.8642e-07
-1.80798e-07 -2.8642e-07 0.000235188
0.00124011 0.000226133 -2.43069e-06
0.000226133 0.000336901 1.12002e-07
-2.43069e-06 1.12002e-07 0.000172789
0.00147119 0.000272242 2.00584e-05
0.000272242 0.000373375 -1.1007e-06
2.00584e-05 -1.1007e-06 0.000175172
0.000257713 0.000147159 -2.51009e-06
0.000147159 -0.000195951 -2.08232e-06
-2.51009e-06 -2.08232e-06 -0.000349361
0.000505868 0.000114592 -1.13741e-06
0.000114592 -1.26267e-05 -2.20815e-06
-1.13741e-06 -2.20815e-06 -0.000148597
0.000209077 0.000151499 5.519e-07
0.000151499 -0.000242004 1.33419e-06
5.519e-07 1.33419e-06 -0.000405236
0.000993779 0.000218292 -5.6775e-07
0.000218292 0.000155911 5.2244e-07
-5.6775e-07 5.2244e-07 3.92289e-05
0.000366098 0.000219329 3.21474e-06
0.000219329 -0.000300242 -3.34508e-08
3.21474e-06 -3.34508e-08 -0.000455752
0.00335988 0.000514325 -3.47465e-06
0.000514325 0.00113905 -4.74276e-06
-3.47465e-06 -4.74276e-06 0.000965915
0.00202537 0.000477661 -5.11714e-06
0.000477661 0.000314308 2.39799e-06
-5.11714e-06 2.39799e-06 0.000144637
0.00160008 0.000415174 3.51988e-06
0.000415174 0.00020786 -3.48452e-06
3.51988e-06 -3.48452e-06 3.25728e-05
0.000408001 0.000169546 -1.42018e-06
0.000169546 -9.58709e-05 5.04863e-06
-1.42018e-06 5.04863e-06 -0.000199399
0.00505122 0.000465695 -2.14823e-05
0.000465695 0.000383619 1.10653e-05
-2.14823e-05 1.10653e-05 0.000397943
0.00800824 0.00037263 5.97946e-05
0.00037263 0.00164623 3.70491e-05
5.97946e-05 3.70491e-05 0.000233425
0.00547873 -0.0010339 5.91644e-05
-0.0010339 0.00306981 -6.06452e-05
5.91644e-05 -6.06452e-05 0.00259572
0.00410542 0.000941556 0.0002876
0.000941556 0.000357382 0.000115828
0.0002876 0.000115828 -0.00250218
0.0016468 0.000541992 -1.21565e-05
0.000541992 0.000182242 1.50951e-05
-1.21565e-05 1.50951e-05 0.000163443
0.00332124 0.000877556 -7.20837e-05
0.000877556 2.70762e-05 -2.36747e-05
-7.20837e-05 -2.36747e-05 -0.000238874
0.00339175 0.000716237 4.16458e-05
0.000716237 0.000560695 2.17252e-05
4.16458e-05 2.17252e-05 0.000559004
0.00282253 0.000638064 4.44343e-06
0.000638064 0.000638014 8.22428e-06
4.44343e-06 8.22428e-06 0.000484043
0.000725527 0.000342649 -7.2459e-06
0.000342649 -1.88868e-05 1.51549e-05
-7.2459e-06 1.51549e-05 -0.000202727
0.00351586 0.000806997 -0.000112538
0.000806997 0.000612005 -3.11851e-05
-0.000112538 -3.11851e-05 0.000425855
0.00297273 -0.000198089 -8.86045e-05
-0.000198089 0.000430633 8.31708e-06
-8.86045e-05 8.31708e-06 0.000116887
0.00990268 -0.000226725 3.07844e-06
-0.000226725 0.00295962 -2.30238e-06
3.07844e-06 -2.30238e-06 0.00227856
-0.00840118 -0.000405335 0.000274369
-0.000405335 -0.00463698 -8.01244e-06
0.000274369 -8.01244e-06 -0.00438009
0.00110544 -0.00040771 -3.90529e-05
-0.00040771 -0.000261887 9.1976e-06
-3.90529e-05 9.1976e-06 -0.000330335
0.00595884 -0.000708595 0.000112682
-0.000708595 0.000893371 1.54013e-05
0.000112682 1.54013e-05 0.00037335
0.00131679 -0.000391806 3.46136e-05
-0.000391806 -0.00183661 5.73717e-05
3.46136e-05 5.73717e-05 -0.00299193
0.00149481 -0.000296518 2.09738e-05
-0.000296518 -1.97721e-05 -2.40532e-07
2.09738e-05 -2.40532e-07 -0.000192777
0.00240088 -7.83006e-05 -2.05064e-06
-7.83006e-05 -0.000347266 6.64993e-06
-2.05064e-06 6.64993e-06 -0.00053212
0.00409766 -0.000317231 1.63591e-05
-0.000317231 0.00106377 -6.73602e-06
1.63591e-05 -6.73602e-06 0.00108412
0.00340256 -7.03189e-05 7.02026e-05
-7.03189e-05 0.000785043 2.93417e-08
7.02026e-05 2.93417e-08 0.000756416
7.93606e-05 -0.000315974 -7.89148e-06
-0.000315974 -0.000902763 6.90723e-06
-7.89148e-06 6.90723e-06 -0.000899047
0.00175174 -0.000302178 -1.9924e-07
-0.000302178 -0.000134845 6.05353e-07
-1.9924e-07 6.05353e-07 -0.000110449
0.00173506 -0.000193248 1.12455e-05
-0.000193248 -0.000165097 -9.49442e-07
1.12455e-05 -9.49442e-07 -9.5395e-05
0.00154937 -0.000348883 1.4433e-06
-0.000348883 -9.10645e-05 7.47667e-07
1.4433e-06 7.47667e-07 -0.000203959
0.00192526 -0.000280704 2.12395e-06
-0.000280704 2.03551e-05 1.0293e-06
2.12395e-06 1.0293e-06 -3.28696e-05
0.001826 -0.000216131 1.39965e-06
-0.000216131 2.66214e-05 1.49249e-06
1.39965e-06 1.49249e-06 -8.7631e-06
0.00185673 -0.000301351 5.99236e-06
-0.000301351 7.31276e-05 3.84995e-06
5.99236e-06 3.84995e-06 -3.92772e-05
0.0018331 -0.000254759 9.27914e-07
-0.000254759 6.5186e-05 4.5892e-07
9.27914e-07 4.5892e-07 -1.63672e-05
0.00196694 -0.000222833 -9.54319e-07
-0.000222833 0.000188633 9.79686e-07
-9.54319e-07 9.79686e-07 0.000110544
0.00169707 -0.000248609 2.71626e-06
-0.000248609 4.51685e-05 4.09537e-06
2.71626e-06 4.09537e-06 -6.28325e-05
0.00182881 -0.000237692 5.44199e-08
-0.000237692 0.000148611 6.31077e-07
5.44199e-08 6.31077e-07 5.21184e-05
0.00166538 -0.000223282 3.82787e-06
-0.000223282 8.66108e-05 -2.0187e-06
3.82787e-06 -2.0187e-06 -2.32725e-05
0.00168303 -0.000224602 -2.68763e-06
-0.000224602 7.90346e-05 7.6269e-06
-2.68763e-06 7.6269e-06 -2.75748e-05
0.00183176 -0.000231846 -2.03529e-06
-0.000231846 0.000204543 1.05054e-07
-2.03529e-06 1.05054e-07 8.09547e-05
0.0017284 -0.00021952 8.10559e-07
-0.00021952 0.000187912 -1.97491e-06
8.10559e-07 -1.97491e-06 4.0753e-05
0.00172487 -0.000250806 1.82132e-06
-0.000250806 0.000160212 3.51897e-06
1.82132e-06 3.51897e-06 5.96563e-06
0.00168823 -0.00024173 7.27016e-07
-0.00024173 0.00018497 -7.08662e-07
7.27016e-07 -7.08662e-07 1.81528e-05
0.00165254 -0.000222657 -2.95599e-06
-0.000222657 0.00022597 -8.10173e-07
-2.95599e-06 -8.10173e-07 5.85925e-05
0.000971763 -0.000185888 -8.85242e-06
-0.000185888 -6.37884e-05 2.02897e-06
-8.85242e-06 2.02897e-06 -0.000232288
0.0015138 -0.00024691 -1.08055e-06
-0.00024691 0.000178064 -1.04426e-07
-1.08055e-06 -1.04426e-07 -8.08583e-06
0.00169688 -0.000283122 3.7822e-06
-0.000283122 0.000224996 4.6559e-07
3.7822e-06 4.6559e-07 2.90498e-05
0.000957333 -0.000161999 -8.70225e-06
-0.000161999 6.0133e-05 6.05238e-06
-8.70225e-06 6.05238e-06 -8.65393e-05
0.00117816 -0.000213723 2.24532e-07
-0.000213723 0.000108665 6.32327e-07
2.24532e-07 6.32327e-07 -7.26915e-05
0.00119781 -0.000239616 2.72028e-06
-0.000239616 5.7159e-05 -6.84408e-07
2.72028e-06 -6.84408e-07 -0.000139415
0.000446191 -7.54446e-05 -1.34696e-05
-7.54446e-05 -0.000125156 1.16366e-05
-1.34696e-05 1.16366e-05 -0.000191224
0.000866414 -0.000148855 3.40728e-07
-0.000148855 7.5349e-05 1.09432e-07
3.40728e-07 1.09432e-07 -6.94762e-05
0.00113338 -0.000209861 4.2353e-06
-0.000209861 0.000167219 -2.47502e-06
4.2353e-06 -2.47502e-06 -1.71704e-05
0.00393572 0.000160266 -9.47021e-05
0.000160266 0.00196255 3.19739e-06
-9.47021e-05 3.19739e-06 0.00195097
0.000587101 -4.88662e-05 5.66397e-07
-4.88662e-05 -2.88611e-05 -2.71361e-07
5.66397e-07 -2.71361e-07 -8.65078e-05
0.000892475 -0.000143564 5.62896e-06
-0.000143564 0.000135757 -4.62028e-06
5.62896e-06 -4.62028e-06 -1.63009e-06
0.00347396 0.000132601 6.59232e-06
0.000132601 0.00169006 2.96321e-07
6.59232e-06 2.96321e-07 0.00168574
0.000688135 -6.72666e-06 7.57393e-06
-6.72666e-06 4.55013e-05 -8.70474e-06
7.57393e-06 -8.70474e-06 -1.81375e-06
0.00304433 0.000109837 7.94825e-05
0.000109837 0.00143659 -2.81085e-06
7.94825e-05 -2.81085e-06 0.00143848
0.00111366 0.000220768 -1.83078e-06
0.000220768 0.000175403 -4.63341e-06
-1.83078e-06 -4.63341e-06 -1.37867e-05
0.00127473 0.000212684 2.28028e-07
0.000212684 0.000353395 -1.38078e-07
2.28028e-07 -1.38078e-07 0.000187303
0.000739355 0.000122557 -9.17701e-07
0.000122557 5.54852e-05 -4.20153e-06
-9.17701e-07 -4.20153e-06 -8.65207e-05
0.000677387 0.00014609 -3.75235e-07
0.00014609 5.12379e-05 2.91745e-07
-3.75235e-07 2.91745e-07 -7.80682e-05
0.000564835 4.61423e-05 -2.35707e-07
4.61423e-05 -2.34153e-05 -2.57574e-07
-2.35707e-07 -2.57574e-07 -0.000140207
0.000749233 5.58021e-05 -2.5572e-06
5.58021e-05 8.62007e-05 -3.43236e-06
-2.5572e-06 -3.43236e-06 -1.42071e-05
0.00050269 -1.67153e-05 6.38697e-07
-1.67153e-05 -5.91139e-05 1.57639e-06
6.38697e-07 1.57639e-06 -0.000161289
0.000645203 -9.77112e-06 2.8007e-07
-9.77112e-06 1.93574e-05 -2.68787e-07
2.8007e-07 -2.68787e-07 -6.16841e-05
0.000579227 -4.78943e-05 -1.30385e-06
-4.78943e-05 -1.09168e-05 -7.03164e-06
-1.30385e-06 -7.03164e-06 -4.6613e-05
0.000602038 -1.90758e-05 1.39721e-06
-1.90758e-05 -8.00159e-06 3.50974e-06
1.39721e-06 3.50974e-06 -8.04288e-05
0.000547478 -4.85525e-05 2.24154e-07
-4.85525e-05 -3.58203e-05 -4.09327e-08
2.24154e-07 -4.09327e-08 -6.72366e-05
0.00276208 -0.000111832 -5.1031e-05
-0.000111832 0.0012657 -2.66571e-06
-5.1031e-05 -2.66571e-06 0.0012675
0.00268631 -0.000100545 -3.03607e-06
-0.000100545 0.00121396 2.99461e-07
-3.03607e-06 2.99461e-07 0.00121811
0.00053804 -3.87778e-05 1.65788e-06
-3.87778e-05 -5.03971e-05 5.72007e-06
1.65788e-06 5.72007e-06 -7.75592e-05
0.00259974 -8.78069e-05 3.43667e-05
-8.78069e-05 0.00115598 3.91884e-06
3.43667e-05 3.91884e-06 0.00116277
0.00309883 -1.36777e-05 1.91297e-06
-1.36777e-05 -0.000149226 2.20762e-05
1.91297e-06 2.20762e-05 -0.000125357
0.00222145 -0.000504187 4.55518e-05
-0.000504187 -0.00167979 2.19886e-05
4.55518e-05 2.19886e-05 -0.00274368
0.00589348 -0.00066441 -4.38267e-05
-0.00066441 0.00228904 -5.81108e-05
-4.38267e-05 -5.81108e-05 0.00251059
0.00131819 0.000272111 9.32264e-06
0.000272111 0.000136469 5.53972e-06
9.32264e-06 5.53972e-06 -7.79984e-05
0.00144399 0.000194003 3.12132e-06
0.000194003 0.000505573 1.30583e-06
3.12132e-06 1.30583e-06 0.000358018
0.000983645 0.000203006 -2.79818e-06
0.000203006 0.000193826 1.77003e-06
-2.79818e-06 1.77003e-06 3.44114e-05
0.000710516 0.000189875 1.0359e-06
0.000189875 5.60383e-05 1.64269e-06
1.0359e-06 1.64269e-06 -0.000107099
0.00120231 0.000252254 -3.62876e-07
0.000252254 0.000221713 -4.06411e-06
-3.62876e-07 -4.06411e-06 2.48798e-05
0.000702343 0.000232146 1.6224e-06
0.000232146 -0.000104655 -1.11207e-07
1.6224e-06 -1.11207e-07 -0.000271897
0.000979789 0.000224739 -1.53293e-06
0.000224739 0.000181228 -1.6445e-06
-1.53293e-06 -1.6445e-06 -1.15417e-06
0.000731496 0.000207184 2.19396e-06
0.000207184 2.17434e-05 4.96584e-06
2.19396e-06 4.96584e-06 -9.87678e-05
0.00121109 0.000290502 1.86551e-06
0.000290502 0.000163243 -3.94946e-07
1.86551e-06 -3.94946e-07 -1.17584e-06
0.00235732 0.000438326 2.66185e-06
0.000438326 0.000593372 6.73869e-06
2.66185e-06 6.73869e-06 0.000428599
0.00166777 0.00041529 -6.02918e-07
0.00041529 0.000119036 -6.18383e-07
-6.02918e-07 -6.18383e-07 -5.83733e-05
0.00153781 0.00038089 3.62111e-06
0.00038089 5.80411e-05 7.40812e-06
3.62111e-06 7.40812e-06 -5.83317e-05
0.00111594 0.000413283 -2.03807e-06
0.000413283 -0.000169311 -2.93133e-06
-2.03807e-06 -2.93133e-06 -0.000333935
0.000558027 0.000326561 5.77235e-07
0.000326561 -0.000327652 3.29244e-06
5.77235e-07 3.29244e-06 -0.000480787
0.000897074 0.000274193 2.04247e-05
0.000274193 -0.000360282 2.23228e-05
2.04247e-05 2.23228e-05 -0.000346826
0.00506605 0.000595646 -3.96013e-05
0.000595646 0.000230132 -7.99931e-06
-3.96013e-05 -7.99931e-06 0.00014382
0.00199222 0.000180247 0.000203818
0.000180247 -0.00138733 2.12025e-05
0.000203818 2.12025e-05 -0.00287725
0.000982711 0.000681231 6.90273e-06
0.000681231 -0.000941405 -1.09708e-05
6.90273e-06 -1.09708e-05 -0.00126266
0.00222311 0.000569955 -2.52877e-05
0.000569955 0.000225014 -2.1206e-06
-2.52877e-05 -2.1206e-06 0.000195065
0.00184047 0.000541834 -4.74917e-05
0.000541834 0.000166857 -2.09518e-05
-4.74917e-05 -2.09518e-05 1.23607e-05
0.00233887 -0.000162376 9.45159e-06
-0.000162376 0.000152919 1.77523e-06
9.45159e-06 1.77523e-06 0.000103621
0.00125582 -1.22085e-05 -4.84898e-06
-1.22085e-05 -0.000280197 4.34431e-06
-4.84898e-06 4.34431e-06 -0.00046979
0.000729229 0.000560411 7.89473e-05
0.000560411 -0.00257235 -2.70792e-05
7.89473e-05 -2.70792e-05 -0.00321571
0.000320065 -0.000193998 -1.03298e-05
-0.000193998 -0.000657089 2.42537e-05
-1.03298e-05 2.42537e-05 -0.000696843
0.00305102 -8.91504e-05 -2.14832e-05
-8.91504e-05 -0.000151776 3.25935e-05
-2.14832e-05 3.25935e-05 -0.000463497
0.00190289 -0.000213355 -1.03078e-05
-0.000213355 -6.15825e-05 3.63114e-06
-1.03078e-05 3.63114e-06 -1.57445e-05
0.00276574 -0.000103531 -6.3713e-06
-0.000103531 0.000425081 -2.815e-06
-6.3713e-06 -2.815e-06 0.000377725
0.00156059 -0.000124566 2.54373e-05
-0.000124566 -0.000245996 -4.49798e-07
2.54373e-05 -4.49798e-07 -0.0001788
0.00298291 -5.92485e-05 2.34591e-05
-5.92485e-05 0.00082423 2.16021e-06
2.34591e-05 2.16021e-06 0.000781567
0.00135104 -0.00029157 -1.28664e-05
-0.00029157 -0.000347387 6.09009e-06
-1.28664e-05 6.09009e-06 -0.000325993
0.00174787 -0.00020346 1.25152e-06
-0.00020346 -0.000171415 1.97947e-06
1.25152e-06 1.97947e-06 -0.000113475
0.00190047 -0.000208854 1.46912e-06
-0.000208854 -7.12151e-06 6.46854e-07
1.46912e-06 6.46854e-07 1.6866e-05
0.0017781 -0.000274657 2.49801e-06
-0.000274657 -5.15273e-05 1.44831e-06
2.49801e-06 1.44831e-06 -0.000106568
0.00182681 -0.000226346 4.65133e-07
-0.000226346 2.236e-05 9.07879e-08
4.65133e-07 9.07879e-08 -1.87105e-05
0.00187925 -0.000211703 -2.71482e-08
-0.000211703 9.92348e-05 9.52677e-07
-2.71482e-08 9.52677e-07 3.92086e-05
0.00194599 -0.000258642 8.88939e-07
-0.000258642 0.000135121 1.09282e-06
8.88939e-07 1.09282e-06 5.31109e-05
0.00187361 -0.000227026 -7.78702e-07
-0.000227026 0.000136672 5.5904e-08
-7.78702e-07 5.5904e-08 5.60549e-05
0.0016766 -0.000201599 1.52421e-06
-0.000201599 6.89967e-05 -4.77165e-08
1.52421e-06 -4.77165e-08 -2.72777e-05
0.00163659 -0.000230182 -1.28052e-06
-0.000230182 4.40908e-05 1.99636e-06
-1.28052e-06 1.99636e-06 -5.32366e-05
0.00168402 -0.000224148 5.27136e-07
-0.000224148 0.000100325 -7.07459e-07
5.27136e-07 -7.07459e-07 -9.75272e-06
0.00165667 -0.000208341 2.09291e-06
-0.000208341 0.000114322 -1.9124e-06
2.09291e-06 -1.9124e-06 -1.87443e-05
0.00186805 -0.000231008 -4.91034e-06
-0.000231008 0.000224267 5.11118e-06
-4.91034e-06 5.11118e-06 0.000104065
0.00177967 -0.000220545 -9.65458e-07
-0.000220545 0.000214639 1.11378e-07
-9.65458e-07 1.11378e-07 7.03676e-05
0.00154638 -0.000192833 -2.15982e-06
-0.000192833 0.000143848 -4.41715e-07
-2.15982e-06 -4.41715e-07 -1.30803e-05
0.00173681 -0.000244272 2.80557e-06
-0.000244272 0.000213913 1.3456e-06
2.80557e-06 1.3456e-06 4.61233e-05
0.00158342 -0.000219816 9.95672e-07
-0.000219816 0.000185837 -6.19462e-07
9.95672e-07 -6.19462e-07 1.75033e-05
0.00127373 -0.000179893 -7.34713e-06
-0.000179893 8.34872e-05 2.12289e-06
-7.34713e-06 2.12289e-06 -7.47041e-05
0.000998457 -0.000160262 -1.10924e-05
-0.000160262 3.45806e-05 5.22572e-06
-1.10924e-05 5.22572e-06 -0.000104909
0.00112308 -0.000195037 -2.15097e-06
-0.000195037 2.3907e-05 4.21172e-07
-2.15097e-06 4.21172e-07 -0.000145155
0.00161816 -0.000255335 3.75928e-06
-0.000255335 0.000241599 -5.95281e-07
3.75928e-06 -5.95281e-07 5.40605e-05
0.000538764 -0.000150486 -1.94246e-05
-0.000150486 -8.90826e-05 1.27532e-05
-1.94246e-05 1.27532e-05 -0.000168919
0.000908075 -0.00016059 7.12482e-07
-0.00016059 3.41201e-05 5.24655e-07
7.12482e-07 5.24655e-07 -0.000112636
0.00122455 -0.000215566 6.77973e-06
-0.000215566 0.000134145 -1.7359e-06
6.77973e-06 -1.7359e-06 -4.69599e-05
0.00446918 0.000178425 -0.000113565
0.000178425 0.00227924 5.62615e-06
-0.000113565 5.62615e-06 0.00226058
0.00060436 -0.000112749 3.23117e-07
-0.000112749 -3.35524e-05 -2.40765e-08
3.23117e-07 -2.40765e-08 -0.000105899
0.000896279 -0.000157218 7.28005e-06
-0.000157218 9.31845e-05 -5.55852e-06
7.28005e-06 -5.55852e-06 -5.32529e-05
0.00408247 0.000139448 5.75564e-06
0.000139448 0.00204345 6.30059e-07
5.75564e-06 6.30059e-07 0.0020354
0.000728794 -6.72842e-05 1.26299e-05
-6.72842e-05 5.11049e-05 -1.06739e-05
1.26299e-05 -1.06739e-05 -9.43734e-06
0.00364588 0.000107549 0.000109911
0.000107549 0.00178397 -4.97813e-06
0.000109911 -4.97813e-06 0.00178417
0.00113381 0.000236788 -5.70149e-06
0.000236788 6.21966e-05 -1.4428e-06
-5.70149e-06 -1.4428e-06 -0.000135673
0.00116008 0.000224092 -7.48039e-08
0.000224092 0.000208249 -6.13847e-07
-7.48039e-08 -6.13847e-07 1.85654e-05
0.00109586 0.000192167 -1.92796e-06
0.000192167 0.000216025 -3.04252e-06
-1.92796e-06 -3.04252e-06 4.37436e-05
0.00162046 0.000241673 -1.46706e-06
0.000241673 0.000556609 1.39529e-06
-1.46706e-06 1.39529e-06 0.000385151
0.00083915 0.000131613 -1.06548e-06
0.000131613 0.000112523 -1.69521e-06
-1.06548e-06 -1.69521e-06 -2.97031e-05
0.000860548 9.83121e-05 -3.72365e-06
9.83121e-05 0.00014548 -3.75885e-06
-3.72365e-06 -3.75885e-06 2.84601e-05
0.000616077 6.69634e-05 3.018e-07
6.69634e-05 3.71534e-06 3.26703e-07
3.018e-07 3.26703e-07 -0.000115833
0.000661649 1.32285e-05 -5.58415e-07
1.32285e-05 3.04066e-05 -9.58107e-08
-5.58415e-07 -9.58107e-08 -6.29742e-05
0.0005831 -3.42261e-05 -3.29803e-06
-3.42261e-05 -7.66137e-06 -7.59711e-06
-3.29803e-06 -7.59711e-06 -4.83819e-05
0.000587668 -2.48179e-05 1.23418e-06
-2.48179e-05 -1.23621e-05 3.77438e-06
1.23418e-06 3.77438e-06 -9.26969e-05
0.000533734 -5.15528e-05 3.92888e-07
-5.15528e-05 -3.61712e-05 -1.57023e-07
3.92888e-07 -1.57023e-07 -7.21381e-05
0.00288911 -0.000121124 -6.18726e-05
-0.000121124 0.00134591 -2.14314e-06
-6.18726e-05 -2.14314e-06 0.00134547
0.000520608 -4.67296e-05 1.48145e-06
-4.67296e-05 -5.20597e-05 6.21183e-06
1.48145e-06 6.21183e-06 -8.29425e-05
0.00274585 -0.000112422 -2.30423e-06
-0.000112422 0.00125599 2.7774e-07
-2.30423e-06 2.7774e-07 0.00125747
0.00268113 -0.000100026 4.11464e-05
-0.000100026 0.00121055 3.50216e-06
4.11464e-05 3.50216e-06 0.00121467
0.000383493 3.5919e-05 9.5966e-06
3.5919e-05 -0.000745213 8.08739e-06
9.5966e-06 8.08739e-06 -0.000727365
0.00418244 1.81482e-05 4.36488e-05
1.81482e-05 0.00026178 6.97175e-06
4.36488e-05 6.97175e-06 0.000108239
0.00962571 0.000503092 -8.27855e-05
0.000503092 0.00285784 -4.25471e-05
-8.27855e-05 -4.25471e-05 0.00171681
0.000329627 0.000191451 1.49551e-06
0.000191451 -0.000435218 2.37016e-06
1.49551e-06 2.37016e-06 -0.000616432
0.00169758 0.000302659 1.50753e-06
0.000302659 0.000236686 3.0227e-06
1.50753e-06 3.0227e-06 4.55661e-05
0.0010218 0.000254811 -3.78495e-06
0.000254811 -3.47314e-05 9.05372e-07
-3.78495e-06 9.05372e-07 -0.000245573
0.00110554 0.000227196 5.43532e-07
0.000227196 0.000274842 1.54697e-06
5.43532e-07 1.54697e-06 0.000102971
0.000902249 0.000228663 -1.32918e-06
0.000228663 5.10803e-05 1.74742e-07
-1.32918e-06 1.74742e-07 -0.000143773
0.00128331 0.000284939 6.96466e-06
0.000284939 0.000203779 1.19516e-06
6.96466e-06 1.19516e-06 2.60793e-05
0.00222949 0.000422283 -7.30768e-06
0.000422283 0.000431196 -3.55209e-06
-7.30768e-06 -3.55209e-06 0.000249452
0.00207339 0.000363074 -1.9552e-06
0.000363074 0.000635732 1.53935e-06
-1.9552e-06 1.53935e-06 0.00046219
0.00137706 0.000364568 1.04846e-05
0.000364568 5.59902e-05 1.86279e-05
1.04846e-05 1.86279e-05 -0.000100858
0.00206451 0.000439096 -2.34941e-06
0.000439096 0.000339199 8.86134e-07
-2.34941e-06 8.86134e-07 0.000162302
0.00202993 0.000400948 -1.36305e-05
0.000400948 0.000222941 9.99967e-07
-1.36305e-05 9.99967e-07 7.24719e-05
0.000726566 0.000185152 1.23981e-05
0.000185152 -0.000449815 5.55687e-06
1.23981e-05 5.55687e-06 -0.000501755
0.00120327 0.000354658 8.94447e-06
0.000354658 -0.000111024 4.08943e-07
8.94447e-06 4.08943e-07 -0.000227672
0.00112771 0.000408651 -6.43427e-06
0.000408651 -0.000172684 -6.76922e-06
-6.43427e-06 -6.76922e-06 -0.000337783
0.00153221 0.000278629 1.4448e-06
0.000278629 -3.73537e-05 4.67239e-06
1.4448e-06 4.67239e-06 -4.0903e-05
0.00501443 0.000380595 2.96915e-05
0.000380595 0.0001377 -1.36621e-05
2.96915e-05 -1.36621e-05 -7.96589e-05
0.00228809 0.00050068 1.16625e-05
0.00050068 0.00049021 -2.11828e-05
1.16625e-05 -2.11828e-05 0.000458538
0.00139114 -3.87736e-05 2.32519e-05
-3.87736e-05 -3.62861e-05 2.56657e-06
2.32519e-05 2.56657e-06 -5.63446e-05
0.00209331 -9.52576e-05 -1.95099e-05
-9.52576e-05 7.715e-05 -9.00462e-07
-1.95099e-05 -9.00462e-07 2.29659e-05
0.00117347 0.000153095 2.42167e-05
0.000153095 -0.00074396 -8.35974e-06
2.42167e-05 -8.35974e-06 -0.000994988
0.00058043 -0.000171408 -2.62954e-05
-0.000171408 -0.000728139 1.9345e-05
-2.62954e-05 1.9345e-05 -0.000667562
0.00298546 -0.000156556 -8.7472e-05
-0.000156556 0.000507666 4.35127e-07
-8.7472e-05 4.35127e-07 0.000472288
0.0018288 -0.00015439 1.90606e-06
-0.00015439 -7.87041e-05 -1.58582e-06
1.90606e-06 -1.58582e-06 -1.13885e-05
0.0022861 -6.28337e-05 -7.55175e-06
-6.28337e-05 0.000380911 2.92548e-07
-7.55175e-06 2.92548e-07 0.000337777
0.00194837 -0.000165781 2.34579e-06
-0.000165781 2.71534e-06 1.0323e-06
2.34579e-06 1.0323e-06 4.81994e-06
0.0022122 -2.84199e-05 4.34738e-06
-2.84199e-05 0.000205678 1.0674e-06
4.34738e-06 1.0674e-06 0.000172097
0.00178787 -0.000215666 -4.95284e-06
-0.000215666 -0.000169909 1.68275e-06
-4.95284e-06 1.68275e-06 -0.00011964
0.00189761 -0.000204056 -1.81531e-06
-0.000204056 -1.54929e-06 -8.86494e-08
-1.81531e-06 -8.86494e-08 1.71082e-05
0.00196392 -0.0001735 -1.97231e-06
-0.0001735 6.27021e-05 5.18361e-07
-1.97231e-06 5.18361e-07 3.01474e-05
0.00185292 -0.000236447 -1.70318e-06
-0.000236447 3.17214e-05 -8.95769e-07
-1.70318e-06 -8.95769e-07 -1.43081e-05
0.00179616 -0.000206986 9.98244e-08
-0.000206986 5.87728e-05 -2.81616e-07
9.98244e-08 -2.81616e-07 -5.31243e-06
0.00180642 -0.000182247 2.45878e-07
-0.000182247 9.15683e-05 1.81396e-07
2.45878e-07 1.81396e-07 9.39758e-06
0.00177747 -0.000230602 -2.78278e-06
-0.000230602 8.33446e-05 -4.6215e-07
-2.78278e-06 -4.6215e-07 4.99907e-07
0.00171327 -0.000202661 2.90962e-07
-0.000202661 8.96727e-05 -1.20655e-07
2.90962e-07 -1.20655e-07 -6.63556e-06
0.00170002 -0.00018804 2.0186e-06
-0.00018804 0.000101877 -7.89938e-07
2.0186e-06 -7.89938e-07 -1.87199e-05
0.00169977 -0.00022486 -2.30088e-06
-0.00022486 0.000112556 5.42465e-07
-2.30088e-06 5.42465e-07 2.29678e-06
0.00168286 -0.000208661 -8.03143e-08
-0.000208661 0.000130233 -3.72658e-07
-8.03143e-08 -3.72658e-07 -2.65838e-06
0.00153843 -0.000178915 -1.13688e-06
-0.000178915 0.000117859 -4.01921e-07
-1.13688e-06 -4.01921e-07 -3.19822e-05
0.00182768 -0.000221522 -1.55694e-06
-0.000221522 0.000239474 3.09316e-06
-1.55694e-06 3.09316e-06 9.80873e-05
0.00154796 -0.000193504 -5.23855e-07
-0.000193504 0.000144122 -1.24931e-07
-5.23855e-07 -1.24931e-07 -1.20137e-05
0.00127529 -0.000160216 -6.70069e-06
-0.000160216 6.92007e-05 1.97467e-06
-6.70069e-06 1.97467e-06 -8.33143e-05
0.00151665 -0.000217204 4.86675e-06
-0.000217204 0.000146919 -3.87194e-07
4.86675e-06 -3.87194e-07 -2.24023e-05
0.00120815 -0.000176945 -4.81071e-08
-0.000176945 4.5913e-05 -4.88581e-08
-4.81071e-08 -4.88581e-08 -0.000112645
0.00100843 -0.000144244 -1.19202e-05
-0.000144244 1.90514e-05 5.34934e-06
-1.19202e-05 5.34934e-06 -0.000112688
0.000479679 -0.00015236 -1.95516e-05
-0.00015236 -0.000136697 1.22423e-05
-1.95516e-05 1.22423e-05 -0.000220333
0.000962112 -0.000157443 1.90725e-07
-0.000157443 1.49803e-05 1.57935e-08
1.90725e-07 1.57935e-08 -0.000124308
0.00126169 -0.000203274 5.37469e-06
-0.000203274 0.000104537 -1.53026e-06
5.37469e-06 -1.53026e-06 -6.4978e-05
0.00496755 0.000169578 -0.000130392
0.000169578 0.00256594 7.56928e-06
-0.000130392 7.56928e-06 0.00254632
0.000596165 -0.000140784 -1.6093e-06
-0.000140784 -5.85231e-05 4.74168e-07
-1.6093e-06 4.74168e-07 -0.000138715
0.000872943 -0.000161243 9.29823e-06
-0.000161243 1.73999e-05 -4.87633e-06
9.29823e-06 -4.87633e-06 -0.000129781
0.00465272 0.000159643 1.08842e-05
0.000159643 0.00238199 1.24559e-06
1.08842e-05 1.24559e-06 0.00236557
0.000755144 -0.000116735 1.7387e-05
-0.000116735 4.73683e-05 -1.22396e-05
1.7387e-05 -1.22396e-05 -2.58052e-05
0.00424648 0.000118685 0.000129879
0.000118685 0.00213309 -6.61948e-06
0.000129879 -6.61948e-06 0.00212813
0.00148229 0.000254897 -5.55237e-06
0.000254897 0.000199524 1.45907e-06
-5.55237e-06 1.45907e-06 6.4815e-06
0.00105858 0.00023041 -8.53896e-07
0.00023041 1.74028e-05 1.86168e-06
-8.53896e-07 1.86168e-06 -0.000181061
0.0010054 0.000196356 -5.61729e-06
0.000196356 6.89381e-05 -1.22251e-06
-5.61729e-06 -1.22251e-06 -0.000112187
0.00120008 0.000227127 -5.46294e-07
0.000227127 0.000237185 1.68083e-06
-5.46294e-07 1.68083e-06 4.7048e-05
0.0010264 0.000185306 -1.13025e-06
0.000185306 0.000179441 -2.17191e-07
-1.13025e-06 -2.17191e-07 8.0526e-06
0.00094388 0.000142585 -5.36808e-06
0.000142585 0.000171401 -5.02403e-06
-5.36808e-06 -5.02403e-06 3.47124e-05
0.000913057 0.000137905 1.22949e-07
0.000137905 0.000154825 9.91463e-08
1.22949e-07 9.91463e-08 1.27035e-05
0.00074177 7.58441e-05 -3.16964e-07
7.58441e-05 7.90482e-05 -1.10961e-07
-3.16964e-07 -1.10961e-07 -3.5234e-05
0.000664118 7.89186e-06 -7.70802e-06
7.89186e-06 3.24193e-05 -8.8542e-06
-7.70802e-06 -8.8542e-06 -1.7159e-05
0.000609876 -1.58944e-05 1.13356e-06
-1.58944e-05 4.07637e-07 3.63383e-06
1.13356e-06 3.63383e-06 -9.01717e-05
0.000523503 -4.24155e-05 -4.14374e-08
-4.24155e-05 -3.99132e-05 -2.4497e-07
-4.14374e-08 -2.4497e-07 -8.10564e-05
0.00314124 -0.000125505 -8.05097e-05
-0.000125505 0.00149727 -2.08518e-06
-8.05097e-05 -2.08518e-06 0.00149528
0.000497834 -5.28015e-05 1.12149e-06
-5.28015e-05 -5.6674e-05 6.79971e-06
1.12149e-06 6.79971e-06 -9.25045e-05
0.00284912 -0.000124364 -2.1755e-06
-0.000124364 0.0013231 2.72104e-07
-2.1755e-06 2.72104e-07 0.00132165
0.00273656 -0.000112086 4.66973e-05
-0.000112086 0.00125024 2.9938e-06
4.66973e-05 2.9938e-06 0.00125166
0.000805934 4.87308e-05 1.17941e-05
4.87308e-05 -0.000410509 -2.97702e-06
1.17941e-05 -2.97702e-06 -0.000408939
0.00184541 6.35723e-07 -7.39602e-06
6.35723e-07 -0.000130258 7.38283e-07
-7.39602e-06 7.38283e-07 -0.000115383
0.00411055 4.4842e-06 0.000122483
4.4842e-06 3.8854e-05 1.14097e-05
0.000122483 1.14097e-05 0.000132782
0.00182437 0.00034172 -2.16681e-06
0.00034172 0.000223532 1.51446e-06
-2.16681e-06 1.51446e-06 4.75416e-05
0.000755717 0.000241932 8.90932e-07
0.000241932 -0.000199775 -1.2266e-06
8.90932e-07 -1.2266e-06 -0.000384869
0.00189895 0.000304065 -1.16477e-06
0.000304065 0.000249981 3.6291e-06
-1.16477e-06 3.6291e-06 8.30765e-05
0.00174498 0.000305265 1.30498e-06
0.000305265 0.000265918 5.77127e-07
1.30498e-06 5.77127e-07 7.45119e-05
0.000750039 0.000240858 -1.22719e-06
0.000240858 -0.000193254 4.43841e-06
-1.22719e-06 4.43841e-06 -0.000401022
0.00185741 0.000332734 -5.50733e-06
0.000332734 0.000121618 1.57154e-06
-5.50733e-06 1.57154e-06 -2.9539e-05
0.00183911 0.000335927 -1.59109e-06
0.000335927 0.00049922 -2.84544e-07
-1.59109e-06 -2.84544e-07 0.000311291
0.00214463 0.000412222 -8.67312e-08
0.000412222 0.000388742 -1.32882e-06
-8.67312e-08 -1.32882e-06 0.000206024
0.00177929 0.000233061 -1.08856e-05
0.000233061 6.62484e-06 -2.60969e-07
-1.08856e-05 -2.60969e-07 -9.43445e-05
0.00245043 0.000463109 5.52339e-06
0.000463109 0.000554566 4.00927e-06
5.52339e-06 4.00927e-06 0.000378038
0.00197292 0.000399325 -1.32423e-06
0.000399325 0.000187656 4.03851e-07
-1.32423e-06 4.03851e-07 3.52089e-05
0.000915968 0.000200483 2.15663e-06
0.000200483 -0.000316912 2.40744e-06
2.15663e-06 2.40744e-06 -0.000375842
6.06244e-05 0.000282027 1.24823e-06
0.000282027 -0.000696757 -2.63966e-06
1.24823e-06 -2.63966e-06 -0.00081081
0.00155393 0.00027613 -3.65148e-05
0.00027613 -3.70069e-05 -1.61024e-05
-3.65148e-05 -1.61024e-05 -5.19291e-05
0.00176838 3.30052e-05 1.55823e-06
3.30052e-05 -4.62845e-05 6.60578e-07
1.55823e-06 6.60578e-07 -8.76222e-05
0.00206775 -2.32329e-05 6.28521e-07
-2.32329e-05 0.000362915 2.45617e-06
6.28521e-07 2.45617e-06 0.000346786
0.00137831 -8.8669e-06 -5.96984e-05
-8.8669e-06 -0.00024131 -9.0651e-06
-5.96984e-05 -9.0651e-06 -0.00034206
0.00209208 -0.000181897 -2.53303e-05
-0.000181897 8.30238e-05 4.78531e-07
-2.53303e-05 4.78531e-07 0.000148705
0.00125753 -6.96678e-05 -8.13437e-06
-6.96678e-05 -0.000247387 -5.97271e-07
-8.13437e-06 -5.97271e-07 -0.000289283
0.00190504 -0.000158155 2.38847e-07
-0.000158155 -1.71713e-05 -3.92624e-07
2.38847e-07 -3.92624e-07 -1.13449e-05
0.00199584 -2.83565e-05 -2.92741e-06
-2.83565e-05 6.0478e-05 7.4483e-07
-2.92741e-06 7.4483e-07 3.22921e-05
0.0019882 -5.99919e-05 -5.92235e-06
-5.99919e-05 4.94874e-05 -7.70138e-07
-5.92235e-06 -7.70138e-07 2.23578e-05
0.00188977 -0.000198562 -3.13581e-06
-0.000198562 4.13208e-06 -9.88512e-07
-3.13581e-06 -9.88512e-07 1.64696e-05
0.00190106 -0.000166597 5.42591e-07
-0.000166597 3.6388e-05 -1.60026e-07
5.42591e-07 -1.60026e-07 1.65864e-06
0.00198926 -0.000133246 -4.25937e-07
-0.000133246 0.000123534 -4.44284e-07
-4.25937e-07 -4.44284e-07 6.82363e-05
0.00171033 -0.000202681 -6.72594e-07
-0.000202681 1.63687e-05 -9.69263e-07
-6.72594e-07 -9.69263e-07 -5.18561e-05
0.00174233 -0.000179122 2.28438e-08
-0.000179122 5.79892e-05 -5.82499e-08
2.28438e-08 -5.82499e-08 -2.51447e-05
0.00174257 -0.000153005 1.51999e-06
-0.000153005 8.83762e-05 -4.02836e-07
1.51999e-06 -4.02836e-07 -2.08621e-05
0.00175489 -0.000203857 -9.46059e-07
-0.000203857 0.000112659 -1.36615e-07
-9.46059e-07 -1.36615e-07 1.6324e-05
0.00172852 -0.00018777 4.37319e-08
-0.00018777 0.000119602 -1.2379e-07
4.37319e-08 -1.2379e-07 -8.3823e-07
0.00159995 -0.000160861 -2.16304e-07
-0.000160861 0.000120585 -4.35417e-07
-2.16304e-07 -4.35417e-07 -2.08031e-05
0.00170983 -0.000209078 -1.79839e-06
-0.000209078 0.000146454 1.04838e-06
-1.79839e-06 1.04838e-06 1.3725e-05
0.00155216 -0.000179173 -1.85968e-07
-0.000179173 0.000124401 -2.02855e-08
-1.85968e-07 -2.02855e-08 -2.51113e-05
0.00130735 -0.00014368 -5.6673e-06
-0.00014368 7.30174e-05 1.65258e-06
-5.6673e-06 1.65258e-06 -7.57022e-05
0.0015499 -0.000194111 1.77015e-06
-0.000194111 0.000144476 4.51184e-07
1.77015e-06 4.51184e-07 -1.08471e-05
0.0013013 -0.000161041 -1.77981e-07
-0.000161041 8.34382e-05 6.28971e-08
-1.77981e-07 6.28971e-08 -6.8893e-05
0.00103725 -0.000128433 -1.25899e-05
-0.000128433 2.20465e-05 5.13867e-06
-1.25899e-05 5.13867e-06 -0.000105938
0.00114654 -0.000174234 6.63601e-06
-0.000174234 1.06493e-05 -1.8685e-06
6.63601e-06 -1.8685e-06 -0.000148298
0.00100785 -0.000142863 1.87735e-07
-0.000142863 1.82585e-05 -2.26934e-08
1.87735e-07 -2.26934e-08 -0.000113248
0.00233187 -8.64048e-05 -2.26468e-05
-8.64048e-05 0.000935068 7.54915e-06
-2.26468e-05 7.54915e-06 0.000863572
0.00158433 -3.28567e-05 -0.000157747
-3.28567e-05 0.000561972 1.59855e-05
-0.000157747 1.59855e-05 0.000543534
0.00150545 -0.000124443 -2.78937e-06
-0.000124443 0.000457656 -2.10441e-07
-2.78937e-06 -2.10441e-07 0.00037772
0.000937196 -0.000155524 1.08188e-05
-0.000155524 1.87141e-06 -5.02381e-06
1.08188e-05 -5.02381e-06 -0.000137338
0.00512159 0.00012953 2.44621e-06
0.00012953 0.0026482 6.15792e-08
2.44621e-06 6.15792e-08 0.00263331
0.0006731 -0.000160525 2.02715e-05
-0.000160525 -1.46331e-05 -1.2551e-05
2.02715e-05 -1.2551e-05 -9.82359e-05
0.00481218 0.000119498 0.000150132
0.000119498 0.0024668 -9.84311e-06
0.000150132 -9.84311e-06 0.00245536
0.00186773 0.000246779 5.93607e-07
0.000246779 0.000201987 9.29046e-07
5.93607e-07 9.29046e-07 5.24612e-05
0.00153682 0.000250229 -1.5878e-07
0.000250229 0.000157596 2.79888e-06
-1.5878e-07 2.79888e-06 -1.83088e-05
0.00153567 0.000262015 -4.62355e-07
0.000262015 0.000228504 -3.40545e-07
-4.62355e-07 -3.40545e-07 3.57126e-05
0.00121539 0.000210706 -7.15842e-06
0.000210706 9.76638e-05 -1.19931e-06
-7.15842e-06 -1.19931e-06 -7.74168e-05
0.00100109 0.000225475 2.91635e-06
0.000225475 -1.66104e-05 1.72193e-06
2.91635e-06 1.72193e-06 -0.000215917
0.00112244 0.00020509 -9.58065e-07
0.00020509 0.000138008 9.28088e-07
-9.58065e-07 9.28088e-07 -4.4842e-05
0.000905889 0.000158188 -7.82633e-06
0.000158188 8.70287e-05 -4.51344e-06
-7.82633e-06 -4.51344e-06 -6.04316e-05
0.000966656 0.000179071 1.43062e-06
0.000179071 0.000148485 3.60565e-06
1.43062e-06 3.60565e-06 -2.21022e-05
0.000802773 0.000126936 -4.95014e-08
0.000126936 9.15335e-05 -2.31284e-07
-4.95014e-08 -2.31284e-07 -4.24094e-05
0.000786717 7.85335e-05 -1.29393e-05
7.85335e-05 9.06206e-05 -1.11918e-05
-1.29393e-05 -1.11918e-05 2.56073e-05
0.000647814 5.35664e-05 1.87434e-06
5.35664e-05 2.31358e-05 2.93015e-06
1.87434e-06 2.93015e-06 -8.61583e-05
0.000538689 -3.99238e-06 -6.46421e-07
-3.99238e-06 -3.73797e-05 -3.96089e-07
-6.46421e-07 -3.96089e-07 -8.55155e-05
0.00352977 -0.000121769 -0.000105511
-0.000121769 0.00172711 -3.57222e-06
-0.000105511 -3.57222e-06 0.0017235
0.000456847 -5.08095e-05 8.98353e-07
-5.08095e-05 -7.51257e-05 7.62836e-06
8.98353e-07 7.62836e-06 -0.000117263
0.00305015 -0.000136571 -2.92181e-06
-0.000136571 0.00144637 3.11691e-07
-2.92181e-06 3.11691e-07 0.00144158
0.00281888 -0.000124781 5.21688e-05
-0.000124781 0.00130547 2.41436e-06
5.21688e-05 2.41436e-06 0.00130381
0.00177184 0.000129127 -3.74246e-06
0.000129127 -4.39291e-05 4.01233e-07
-3.74246e-06 4.01233e-07 -0.000108966
0.0018987 4.12381e-05 1.264e-05
4.12381e-05 0.000161462 1.69712e-06
1.264e-05 1.69712e-06 0.000155894
0.00382705 -2.56507e-05 -7.54325e-05
-2.56507e-05 0.000745343 -1.48524e-05
-7.54325e-05 -1.48524e-05 0.000752543
0.00170766 0.000286485 -3.71446e-06
0.000286485 5.55738e-05 1.26259e-06
-3.71446e-06 1.26259e-06 -9.02371e-05
0.00170524 0.00033006 -1.13328e-06
0.00033006 0.000174382 -1.32785e-07
-1.13328e-06 -1.32785e-07 -1.4949e-06
0.00120014 0.000293323 -1.72274e-05
0.000293323 4.70581e-05 -6.76029e-06
-1.72274e-05 -6.76029e-06 -0.000141877
0.00191634 0.000294392 2.37094e-06
0.000294392 0.000263169 7.07474e-07
2.37094e-06 7.07474e-07 9.78816e-05
0.00179639 0.000307722 -2.20528e-07
0.000307722 0.0002985 -2.90239e-06
-2.20528e-07 -2.90239e-06 0.000106843
0.00215379 0.000230514 -2.32575e-06
0.000230514 0.000234002 1.3301e-06
-2.32575e-06 1.3301e-06 0.000135878
0.00171839 0.000327271 -1.48463e-06
0.000327271 5.24233e-05 8.40925e-07
-1.48463e-06 8.40925e-07 -0.000100179
0.00206983 0.000403165 2.71259e-06
0.000403165 0.000350536 -1.46278e-07
2.71259e-06 -1.46278e-07 0.000166665
0.00181716 0.000236247 -9.25454e-07
0.000236247 3.25346e-05 1.45665e-07
-9.25454e-07 1.45665e-07 -6.91711e-05
0.00208181 0.000408056 1.84718e-05
0.000408056 0.000231091 1.89358e-06
1.84718e-05 1.89358e-06 7.58951e-05
0.00146546 0.000222208 -1.8447e-05
0.000222208 -4.23083e-06 -3.20812e-06
-1.8447e-05 -3.20812e-06 -6.97851e-05
0.00198214 4.19013e-05 -5.84619e-06
4.19013e-05 7.53488e-05 -2.15487e-07
-5.84619e-06 -2.15487e-07 2.95403e-05
0.00185739 4.34103e-05 -2.11234e-06
4.34103e-05 7.1441e-06 1.1749e-07
-2.11234e-06 1.1749e-07 -3.60533e-05
0.00288584 -7.62462e-06 -3.91377e-05
-7.62462e-06 0.000847435 -5.58363e-06
-3.91377e-05 -5.58363e-06 0.000826844
0.00183447 -0.000149268 -7.65221e-06
-0.000149268 -5.80877e-05 -1.58272e-06
-7.65221e-06 -1.58272e-06 -4.83807e-05
0.00191087 -2.81037e-05 3.51106e-06
-2.81037e-05 -9.06927e-06 -1.11093e-06
3.51106e-06 -1.11093e-06 -3.38086e-05
0.00196876 -6.44129e-05 2.90475e-09
-6.44129e-05 2.38002e-05 1.77713e-07
2.90475e-09 1.77713e-07 2.30728e-06
0.00195046 -4.54587e-05 -1.61092e-06
-4.54587e-05 0.000112289 -8.87475e-08
-1.61092e-06 -8.87475e-08 5.69882e-05
0.0018363 -0.00015904 2.80534e-06
-0.00015904 1.0144e-05 -9.02635e-07
2.80534e-06 -9.02635e-07 -2.69343e-05
0.00186069 -0.000132627 6.12502e-07
-0.000132627 5.756e-05 -1.13677e-07
6.12502e-07 -1.13677e-07 -3.52588e-06
0.00181554 -0.000109774 3.42204e-06
-0.000109774 0.000104134 -1.25009e-06
3.42204e-06 -1.25009e-06 4.38583e-06
0.00167826 -0.00017606 -7.64863e-08
-0.00017606 2.46669e-05 5.43448e-08
-7.64863e-08 5.43448e-08 -5.95251e-05
0.00177638 -0.000153746 -2.13162e-08
-0.000153746 0.000106825 -1.25161e-07
-2.13162e-08 -1.25161e-07 -2.32661e-06
0.00167166 -0.000136073 8.63671e-08
-0.000136073 0.000122063 -4.43284e-07
8.63671e-08 -4.43284e-07 -1.06209e-05
0.00175674 -0.000187383 -1.53843e-06
-0.000187383 0.000137322 5.00822e-07
-1.53843e-06 5.00822e-07 1.70569e-05
0.00160258 -0.000160526 -2.33861e-07
-0.000160526 0.000121273 4.79087e-08
-2.33861e-07 4.79087e-08 -1.9874e-05
0.00134508 -0.000124424 -4.94684e-06
-0.000124424 7.76026e-05 1.30152e-06
-4.94684e-06 1.30152e-06 -6.75744e-05
0.0015645 -0.000179386 7.84816e-07
-0.000179386 0.000130287 3.57091e-07
7.84816e-07 3.57091e-07 -1.88962e-05
0.00132688 -0.000144216 -1.21118e-07
-0.000144216 8.23144e-05 8.39122e-08
-1.21118e-07 8.39122e-08 -6.61866e-05
0.00104294 -0.000112917 -1.25372e-05
-0.000112917 1.46839e-05 4.42812e-06
-1.25372e-05 4.42812e-06 -0.000111717
0.00132779 -0.000161936 6.14514e-06
-0.000161936 9.79025e-05 -1.76749e-06
6.14514e-06 -1.76749e-06 -5.42555e-05
0.00102952 -0.000126238 2.24358e-07
-0.000126238 1.67427e-05 9.20109e-08
2.24358e-07 9.20109e-08 -0.000110733
0.00237949 -9.67446e-05 -2.9836e-05
-9.67446e-05 0.000948815 6.66897e-06
-2.9836e-05 6.66897e-06 0.000884768
0.000997634 -0.00014115 1.19116e-05
-0.00014115 1.21271e-05 -5.298e-06
1.19116e-05 -5.298e-06 -0.000119149
0.00249334 -0.000134005 3.44297e-05
-0.000134005 0.00102107 -3.93462e-06
3.44297e-05 -3.93462e-06 0.000956173
0.00168988 -7.34847e-05 -0.000163545
-7.34847e-05 0.00063029 1.98489e-05
-0.000163545 1.98489e-05 0.000611096
0.00340226 1.05219e-05 -0.000162134
1.05219e-05 0.00164129 7.81946e-06
-0.000162134 7.81946e-06 0.00162401
0.00259037 -0.000180911 0.000100737
-0.000180911 0.00108112 -1.30101e-05
0.000100737 -1.30101e-05 0.00101805
0.00526231 0.000126861 0.00015417
0.000126861 0.00274426 -1.49667e-05
0.00015417 -1.49667e-05 0.00272105
0.00197488 0.000245193 -1.77371e-06
0.000245193 0.000227545 -2.64145e-07
-1.77371e-06 -2.64145e-07 8.97773e-05
0.00157046 0.000216411 2.35237e-06
0.000216411 0.000133362 1.26732e-06
2.35237e-06 1.26732e-06 -2.51467e-05
0.00182826 0.000247322 3.53503e-07
0.000247322 0.000176621 -9.4055e-07
3.53503e-07 -9.4055e-07 3.03599e-05
0.00134989 0.000204913 -6.86947e-06
0.000204913 0.000129089 -9.33042e-07
-6.86947e-06 -9.33042e-07 -3.55874e-05
0.00157295 0.000250251 5.39018e-07
0.000250251 0.000173322 3.67057e-07
5.39018e-07 3.67057e-07 -3.37437e-06
0.00159875 0.000269828 4.2343e-06
0.000269828 0.000263196 -7.85584e-07
4.2343e-06 -7.85584e-07 7.05809e-05
0.00118041 0.000208629 -7.53554e-08
0.000208629 7.89537e-05 7.20533e-08
-7.53554e-08 7.20533e-08 -9.58506e-05
0.000876634 0.000156766 -1.03344e-05
0.000156766 -6.57692e-06 -4.22007e-06
-1.03344e-05 -4.22007e-06 -0.000151392
0.00122503 0.000212798 4.33847e-06
0.000212798 0.000198889 3.24247e-06
4.33847e-06 3.24247e-06 1.44049e-05
0.000859503 0.000150879 -8.08449e-07
0.000150879 5.92804e-05 4.95832e-07
-8.08449e-07 4.95832e-07 -8.70227e-05
0.000747333 0.000140541 -1.91409e-05
0.000140541 4.84152e-05 -1.21419e-05
-1.91409e-05 -1.21419e-05 -3.04455e-05
0.000649867 0.000109481 3.12999e-06
0.000109481 5.40984e-06 3.86078e-06
3.12999e-06 3.86078e-06 -0.000125718
0.000570999 5.37021e-05 -2.45593e-07
5.37021e-05 -2.88248e-05 -3.15025e-07
-2.45593e-07 -3.15025e-07 -9.04653e-05
0.00418905 -0.000111983 -0.000136064
-0.000111983 0.00211616 -7.58586e-06
-0.000136064 -7.58586e-06 0.00210775
0.000408369 -2.82001e-05 2.64989e-06
-2.82001e-05 -0.000106011 8.61701e-06
2.64989e-06 8.61701e-06 -0.00015495
0.00341802 -0.000147669 -5.19029e-06
-0.000147669 0.00166662 3.9778e-07
-5.19029e-06 3.9778e-07 0.00165804
0.00298665 -0.000139503 5.9022e-05
-0.000139503 0.00140993 1.90152e-06
5.9022e-05 1.90152e-06 0.00140438
0.00184265 0.00013446 -3.31809e-06
0.00013446 1.01639e-05 9.84701e-07
-3.31809e-06 9.84701e-07 -6.0102e-05
0.00182848 0.000127544 6.90814e-07
0.000127544 -9.65237e-06 -3.77646e-07
6.90814e-07 -3.77646e-07 -7.40356e-05
0.00259153 3.59808e-05 -4.92829e-05
3.59808e-05 0.000527262 -6.80721e-06
-4.92829e-05 -6.80721e-06 0.00052329
0.00199109 0.000204764 8.29859e-07
0.000204764 0.00016707 1.38052e-06
8.29859e-07 1.38052e-06 5.86588e-05
0.00170757 0.000281445 -6.31526e-07
0.000281445 6.68551e-05 1.91004e-07
-6.31526e-07 1.91004e-07 -7.83463e-05
0.00159 0.000318999 -4.80093e-07
0.000318999 0.000126141 -3.85274e-06
-4.80093e-07 -3.85274e-06 -4.97588e-05
0.00192673 0.000283894 2.90928e-07
0.000283894 0.000272591 -2.68112e-06
2.90928e-07 -2.68112e-06 0.000109081
0.00196303 0.000220702 -7.72219e-07
0.000220702 0.000124375 -2.66145e-07
-7.72219e-07 -2.66145e-07 2.55292e-05
0.00158983 0.000321979 2.07762e-06
0.000321979 -1.0417e-05 -4.0485e-07
2.07762e-06 -4.0485e-07 -0.000164377
0.00181008 0.000234558 1.26333e-05
0.000234558 4.78188e-05 3.75153e-08
1.26333e-05 3.75153e-08 -5.36004e-05
0.00194678 3.13403e-05 -3.02996e-07
3.13403e-05 9.88813e-05 5.82977e-07
-3.02996e-07 5.82977e-07 3.87791e-05
0.00193597 4.12183e-05 1.8736e-07
4.12183e-05 5.24319e-05 4.21478e-08
1.8736e-07 4.21478e-08 5.79003e-06
0.00200558 5.40791e-05 -5.75137e-06
5.40791e-05 8.95699e-05 -1.98615e-06
-5.75137e-06 -1.98615e-06 4.63763e-05
0.00158833 -1.51556e-05 -1.4851e-06
-1.51556e-05 -5.88583e-05 1.25275e-07
-1.4851e-06 1.25275e-07 -0.000130086
0.00195408 -7.18425e-05 5.42333e-06
-7.18425e-05 7.03392e-07 2.39965e-08
5.42333e-06 2.39965e-08 -1.48956e-05
0.00188164 -4.70274e-05 -1.11297e-06
-4.70274e-05 6.83456e-05 5.61547e-07
-1.11297e-06 5.61547e-07 1.27666e-05
0.0020288 -5.49867e-05 4.81828e-07
-5.49867e-05 0.00022532 -8.53078e-07
4.81828e-07 -8.53078e-07 0.000137633
0.00173062 -0.000131971 1.77417e-06
-0.000131971 -9.88825e-06 -4.02887e-08
1.77417e-06 -4.02887e-08 -7.64947e-05
0.00182509 -0.000109844 2.10456e-06
-0.000109844 0.000108091 -6.03471e-07
2.10456e-06 -6.03471e-07 8.57098e-06
0.0017169 -9.89616e-05 8.85833e-07
-9.89616e-05 0.000115296 -9.6354e-07
8.85833e-07 -9.6354e-07 -8.95843e-06
0.00181583 -0.00015405 -1.40731e-06
-0.00015405 0.00012864 1.88648e-07
-1.40731e-06 1.88648e-07 1.96545e-05
0.00166655 -0.00013422 -1.55017e-07
-0.00013422 0.000121219 -5.64144e-08
-1.55017e-07 -5.64144e-08 -1.11622e-05
0.0013808 -0.000100723 -4.35372e-06
-0.000100723 7.65234e-05 9.3698e-07
-4.35372e-06 9.3698e-07 -6.4301e-05
0.00160657 -0.00016016 2.82395e-07
-0.00016016 0.000122755 4.32422e-07
2.82395e-07 4.32422e-07 -1.81346e-05
0.00135048 -0.000124317 -1.39287e-07
-0.000124317 7.80169e-05 9.65301e-08
-1.39287e-07 9.65301e-08 -6.69104e-05
0.00104881 -9.58182e-05 -1.22289e-05
-9.58182e-05 8.38832e-06 3.65947e-06
-1.22289e-05 3.65947e-06 -0.000117016
0.00134695 -0.000144726 5.36742e-06
-0.000144726 9.18495e-05 -1.45596e-06
5.36742e-06 -1.45596e-06 -5.64215e-05
0.00104219 -0.000110417 9.87611e-08
-0.000110417 1.31677e-05 1.66226e-07
9.87611e-08 1.66226e-07 -0.000112555
0.00242601 -0.000110185 -3.73229e-05
-0.000110185 0.000967585 6.23162e-06
-3.73229e-05 6.23162e-06 0.000906023
0.00101669 -0.00012384 1.24783e-05
-0.00012384 8.4347e-06 -4.96164e-06
1.24783e-05 -4.96164e-06 -0.000118491
0.00248708 -0.000130925 3.10975e-05
-0.000130925 0.00100802 -3.41227e-06
3.10975e-05 -3.41227e-06 0.000947934
0.00173045 -6.43314e-05 -0.000159475
-6.43314e-05 0.000650476 1.79032e-05
-0.000159475 1.79032e-05 0.000631754
0.00262801 -0.000154852 0.000100937
-0.000154852 0.00109473 -1.5013e-05
0.000100937 -1.5013e-05 0.00103413
0.00149237 -7.44219e-06 -7.59109e-05
-7.44219e-06 0.000524972 7.44149e-06
-7.59109e-05 7.44149e-06 0.000496173
0.00509195 0.000233523 1.07961e-05
0.000233523 0.00264784 -3.24521e-06
1.07961e-05 -3.24521e-06 0.00260991
0.00178508 0.000194795 1.24104e-06
0.000194795 0.000103203 8.41098e-07
1.24104e-06 8.41098e-07 -2.52374e-05
0.00176785 0.000212311 -3.46413e-07
0.000212311 0.000202513 -3.3798e-07
-3.46413e-07 -3.3798e-07 5.49772e-05
0.00185595 0.000240724 -2.89295e-06
0.000240724 0.000157196 4.28839e-08
-2.89295e-06 4.28839e-08 1.7901e-05
0.00171209 0.000199289 -4.2101e-06
0.000199289 0.000318116 -6.1486e-07
-4.2101e-06 -6.1486e-07 0.00016492
0.00152053 0.00021911 8.78593e-07
0.00021911 0.000100951 -9.50068e-07
8.78593e-07 -9.50068e-07 -5.66726e-05
0.00179469 0.000248217 -1.28356e-06
0.000248217 0.000154458 -2.90992e-06
-1.28356e-06 -2.90992e-06 1.14693e-05
0.000941575 0.000152709 -1.20242e-05
0.000152709 -1.61586e-05 -4.45929e-06
-1.20242e-05 -4.45929e-06 -0.000152923
0.00125341 0.000198795 7.9605e-08
0.000198795 7.38612e-05 2.08216e-07
7.9605e-08 2.08216e-07 -9.01524e-05
0.00160543 0.000250451 2.95206e-06
0.000250451 0.000186117 -1.10912e-06
2.95206e-06 -1.10912e-06 8.50662e-06
0.00115632 0.000207552 6.88903e-06
0.000207552 6.62496e-05 1.14608e-06
6.88903e-06 1.14608e-06 -0.000108412
0.00092282 0.000159126 -7.24681e-07
0.000159126 1.88092e-05 2.80814e-07
-7.24681e-07 2.80814e-07 -0.000126182
0.00063225 0.000180512 -2.2515e-05
0.000180512 -3.51172e-05 -1.19756e-05
-2.2515e-05 -1.19756e-05 -0.000121807
0.000805804 0.000143481 6.20539e-06
0.000143481 2.75434e-05 5.64382e-06
6.20539e-06 5.64382e-06 -0.000117528
0.000605347 0.000130403 -2.83495e-08
0.000130403 -2.62487e-05 3.04854e-07
-2.83495e-08 3.04854e-07 -0.000104701
0.00498024 -0.000110247 -0.000154356
-0.000110247 0.00258927 -1.36826e-05
-0.000154356 -1.36826e-05 0.00256806
0.000410171 4.00651e-05 8.40209e-06
4.00651e-05 -0.000118583 1.02305e-05
8.40209e-06 1.02305e-05 -0.000176876
0.00399041 -0.000160041 -9.63306e-06
-0.000160041 0.00200894 7.6772e-07
-9.63306e-06 7.6772e-07 0.00199381
0.00328653 -0.000157742 6.96824e-05
-0.000157742 0.0015918 1.64155e-06
6.96824e-05 1.64155e-06 0.00158092
0.0017827 0.000109969 3.72269e-08
0.000109969 1.35799e-05 1.56876e-06
3.72269e-08 1.56876e-06 -6.64062e-05
0.00179526 0.000135607 -3.30342e-07
0.000135607 -1.9569e-05 2.14156e-07
-3.30342e-07 2.14156e-07 -9.0001e-05
0.00188292 0.000131131 4.60475e-06
0.000131131 1.78556e-05 -2.77024e-07
4.60475e-06 -2.77024e-07 -4.73842e-05
0.00194159 0.000200905 9.15763e-07
0.000200905 0.000142278 -1.13536e-07
9.15763e-07 -1.13536e-07 3.56945e-05
0.00170124 0.000275943 2.12964e-07
0.000275943 7.49652e-05 -1.45853e-06
2.12964e-07 -1.45853e-06 -6.95927e-05
0.00174845 0.000210554 2.65282e-06
0.000210554 1.51706e-06 -1.30232e-06
2.65282e-06 -1.30232e-06 -9.81735e-05
0.00192373 3.17226e-05 -4.73719e-08
3.17226e-05 0.000136534 2.66354e-07
-4.73719e-08 2.66354e-07 6.29704e-05
0.00190988 3.17939e-05 1.02942e-06
3.17939e-05 7.91475e-05 -2.66777e-07
1.02942e-06 -2.66777e-07 1.89381e-05
0.00185619 4.09339e-05 5.65098e-06
4.09339e-05 1.44172e-05 2.99532e-07
5.65098e-06 2.99532e-07 -3.3101e-05
0.00171364 -2.18168e-05 -1.97548e-06
-2.18168e-05 1.45158e-05 5.45732e-08
-1.97548e-06 5.45732e-08 -5.6093e-05
0.00170718 -2.91047e-05 6.73262e-07
-2.91047e-05 5.40502e-05 -6.16264e-07
6.73262e-07 -6.16264e-07 -3.60197e-05
0.00180909 -4.84138e-05 6.61433e-07
-4.84138e-05 2.25611e-05 1.0939e-06
6.61433e-07 1.0939e-06 -3.34779e-05
0.00186745 -5.42957e-05 -9.44034e-07
-5.42957e-05 0.000132995 4.33285e-07
-9.44034e-07 4.33285e-07 4.1456e-05
0.0017619 -5.33905e-05 1.72415e-07
-5.33905e-05 0.000129362 -7.15824e-07
1.72415e-07 -7.15824e-07 1.5474e-05
0.00182643 -0.000110253 9.87535e-07
-0.000110253 0.000107735 7.20649e-08
9.87535e-07 7.20649e-08 8.37034e-06
0.00169653 -0.000100016 8.45878e-07
-0.000100016 0.000106903 -4.64512e-07
8.45878e-07 -4.64512e-07 -1.74685e-05
0.00141322 -6.86244e-05 -4.21924e-06
-6.86244e-05 7.08749e-05 3.70817e-07
-4.21924e-06 3.70817e-07 -6.48949e-05
0.00164807 -0.000133772 -1.25962e-07
-0.000133772 0.000112507 2.52803e-07
-1.25962e-07 2.52803e-07 -1.97867e-05
0.00137762 -0.000100213 -2.8976e-08
-0.000100213 7.06297e-05 1.11352e-07
-2.8976e-08 1.11352e-07 -7.00307e-05
0.00104665 -7.47982e-05 -1.19941e-05
-7.47982e-05 -3.82619e-06 2.98226e-06
-1.19941e-05 2.98226e-06 -0.000127563
0.00135432 -0.000124098 4.51835e-06
-0.000124098 7.75198e-05 -1.08505e-06
4.51835e-06 -1.08505e-06 -6.71499e-05
0.00104679 -9.30586e-05 -3.10382e-08
-9.30586e-05 6.47517e-06 1.53961e-07
-3.10382e-08 1.53961e-07 -0.000118296
0.00241573 -0.000126196 -4.09651e-05
-0.000126196 0.000958197 5.70552e-06
-4.09651e-05 5.70552e-06 0.000894872
0.00103888 -0.000107893 1.24824e-05
-0.000107893 1.00798e-05 -4.18037e-06
1.24824e-05 -4.18037e-06 -0.000114943
0.00249025 -0.000121422 3.00322e-05
-0.000121422 0.00100195 -2.61856e-06
3.00322e-05 -2.61856e-06 0.000943542
0.00177203 -5.57142e-05 -0.00015968
-5.57142e-05 0.000668627 1.54516e-05
-0.00015968 1.54516e-05 0.00065016
0.00259272 -0.000134736 9.98487e-05
-0.000134736 0.00106501 -1.32064e-05
9.98487e-05 -1.32064e-05 0.0010091
0.00149534 -2.23922e-05 -6.88334e-05
-2.23922e-05 0.00051942 6.89297e-06
-6.88334e-05 6.89297e-06 0.000494251
0.00135506 6.68181e-06 2.45869e-05
6.68181e-06 0.000447438 -4.42158e-06
2.45869e-05 -4.42158e-06 0.000414105
0.00190693 0.000115685 5.19128e-07
0.000115685 0.000147668 2.08758e-06
5.19128e-07 2.08758e-06 4.69686e-05
0.0016941 0.000175302 -1.00639e-06
0.000175302 0.000125607 3.98649e-07
-1.00639e-06 3.98649e-07 -1.43938e-05
0.00180249 0.000195468 -8.12999e-07
0.000195468 0.000107324 -8.7144e-08
-8.12999e-07 -8.7144e-08 -1.83023e-05
0.00167316 0.000176525 -3.91203e-06
0.000176525 0.000260322 -6.44898e-07
-3.91203e-06 -6.44898e-07 0.000114172
0.00172566 0.000208389 8.52318e-07
0.000208389 0.000182047 1.70472e-07
8.52318e-07 1.70472e-07 3.37179e-05
0.00173168 0.000236134 7.77709e-07
0.000236134 8.45881e-05 -2.7903e-07
7.77709e-07 -2.7903e-07 -5.62876e-05
0.00103482 0.000142285 -1.27686e-05
0.000142285 1.63873e-05 -4.45246e-06
-1.27686e-05 -4.45246e-06 -0.000113837
0.00145415 0.000189947 3.29422e-06
0.000189947 0.000167233 7.94084e-07
3.29422e-06 7.94084e-07 1.31165e-05
0.00147122 0.0002218 1.56453e-06
0.0002218 6.91881e-05 -2.0154e-06
1.56453e-06 -2.0154e-06 -8.75225e-05
0.000567726 0.00016558 -2.2004e-05
0.00016558 -8.7232e-05 -1.06417e-05
-2.2004e-05 -1.06417e-05 -0.000170683
0.000978845 0.000155224 -5.09957e-07
0.000155224 5.044e-06 -1.73981e-08
-5.09957e-07 -1.73981e-08 -0.000131886
0.00116575 0.000193139 7.58018e-06
0.000193139 2.41319e-05 1.61842e-06
7.58018e-06 1.61842e-06 -0.000139261
0.000977965 0.000162292 1.02154e-05
0.000162292 4.94409e-05 5.01682e-06
1.02154e-05 5.01682e-06 -9.58939e-05
0.000588333 0.000168216 1.70951e-06
0.000168216 -5.8871e-05 4.84362e-07
1.70951e-06 4.84362e-07 -0.000144752
0.00543461 -8.08125e-05 -0.000159398
-8.08125e-05 0.00285485 -1.78606e-05
-0.000159398 -1.78606e-05 0.00282793
0.000453211 0.000119007 1.48296e-05
0.000119007 -0.000112617 1.2034e-05
1.48296e-05 1.2034e-05 -0.000187061
0.00470662 -0.000145603 -8.96497e-06
-0.000145603 0.0024275 5.55742e-07
-8.96497e-06 5.55742e-07 0.00240869
0.00377233 -0.000180061 8.66617e-05
-0.000180061 0.00188515 2.44012e-06
8.66617e-05 2.44012e-06 0.0018668
0.00176087 8.04512e-05 -2.26252e-07
8.04512e-05 4.61745e-05 4.60275e-07
-2.26252e-07 4.60275e-07 -3.47453e-05
0.00178609 0.000109247 7.83064e-07
0.000109247 2.10376e-05 6.1059e-07
7.83064e-07 6.1059e-07 -5.90878e-05
0.00178837 0.000137103 4.75129e-06
0.000137103 -2.81948e-05 -1.73846e-07
4.75129e-06 -1.73846e-07 -9.86023e-05
0.00189455 0.000196804 3.47259e-07
0.000196804 0.000118316 -1.19578e-06
3.47259e-07 -1.19578e-06 1.36471e-05
0.00174938 -7.30878e-06 1.67336e-06
-7.30878e-06 7.58343e-05 9.20946e-08
1.67336e-06 9.20946e-08 -1.67745e-05
0.00192363 2.59863e-05 -3.08602e-07
2.59863e-05 0.000132962 -2.7836e-07
-3.08602e-07 -2.7836e-07 6.00979e-05
0.00184198 3.15176e-05 2.2754e-06
3.15176e-05 4.15438e-05 3.3571e-08
2.2754e-06 3.3571e-08 -1.86874e-05
0.00185351 -2.62841e-05 -3.82503e-06
-2.62841e-05 9.63041e-05 -1.06982e-06
-3.82503e-06 -1.06982e-06 2.64398e-05
0.00166716 -2.15191e-05 -1.57214e-06
-2.15191e-05 3.08476e-05 -5.12502e-08
-1.57214e-06 -5.12502e-08 -5.79575e-05
0.00177434 -2.14192e-05 2.0539e-06
-2.14192e-05 0.000153116 -5.55165e-07
2.0539e-06 -5.55165e-07 4.28677e-05
0.0017083 -5.36068e-05 -2.18444e-06
-5.36068e-05 4.125e-05 1.60634e-06
-2.18444e-06 1.60634e-06 -5.41499e-05
0.00171288 -5.44237e-05 1.02726e-07
-5.44237e-05 0.000104558 2.9813e-07
1.02726e-07 2.9813e-07 -1.24331e-05
0.00145465 -3.62569e-05 -3.83224e-06
-3.62569e-05 7.51259e-05 1.39653e-07
-3.83224e-06 1.39653e-07 -5.36047e-05
0.0016917 -9.97553e-05 9.24171e-07
-9.97553e-05 0.000107222 -5.86593e-09
9.24171e-07 -5.86593e-09 -1.70582e-05
0.00140446 -6.68293e-05 5.25865e-08
-6.68293e-05 6.20227e-05 -7.46268e-08
5.25865e-08 -7.46268e-08 -7.34628e-05
0.0010453 -4.99206e-05 -1.2008e-05
-4.99206e-05 -1.38736e-05 2.21636e-06
-1.2008e-05 2.21636e-06 -0.000135661
0.00137248 -9.76594e-05 4.03673e-06
-9.76594e-05 6.36707e-05 -7.06598e-07
4.03673e-06 -7.06598e-07 -7.66129e-05
0.00104691 -7.36702e-05 1.54192e-08
-7.36702e-05 -3.89942e-06 2.13045e-07
1.54192e-08 2.13045e-07 -0.000127369
0.000627783 -6.92054e-05 -1.84567e-05
-6.92054e-05 -9.70703e-05 4.41714e-06
-1.84567e-05 4.41714e-06 -0.000167236
0.00105346 -9.06383e-05 1.21005e-05
-9.06383e-05 9.30727e-06 -3.39311e-06
1.21005e-05 -3.39311e-06 -0.000114815
0.00156767 -7.93495e-05 4.05505e-05
-7.93495e-05 0.00045628 -2.53455e-06
4.05505e-05 -2.53455e-06 0.000394144
0.00530937 -0.000109604 -0.000198049
-0.000109604 0.00272747 1.17198e-05
-0.000198049 1.17198e-05 0.00272963
0.00257526 -0.000110334 9.94526e-05
-0.000110334 0.00104438 -1.07533e-05
9.94526e-05 -1.07533e-05 0.000991221
0.00151063 -3.77677e-05 -6.20596e-05
-3.77677e-05 0.000523204 5.05546e-06
-6.20596e-05 5.05546e-06 0.000498628
0.00127174 -4.05992e-05 3.53338e-05
-4.05992e-05 0.00039705 -4.86032e-06
3.53338e-05 -4.86032e-06 0.000365068
0.00190498 8.36174e-05 1.10106e-06
8.36174e-05 0.000161923 1.3623e-06
1.10106e-06 1.3623e-06 6.96574e-05
0.00179043 0.000118861 4.3649e-07
0.000118861 0.000162701 1.59284e-06
4.3649e-07 1.59284e-06 3.88213e-05
0.00193458 0.000113049 3.80138e-07
0.000113049 0.000169982 2.12418e-09
3.80138e-07 2.12418e-09 6.8389e-05
0.00137468 0.000137173 -4.69122e-06
0.000137173 5.13682e-05 -5.81462e-07
-4.69122e-06 -5.81462e-07 -9.05606e-05
0.00173264 0.000174033 1.65748e-07
0.000174033 0.000147211 -6.81152e-10
1.65748e-07 -6.81152e-10 8.27557e-06
0.00182124 0.000196504 -8.31522e-07
0.000196504 0.000111451 -8.92855e-07
-8.31522e-07 -8.92855e-07 -1.14291e-05
0.000672965 0.000105185 -1.4539e-05
0.000105185 -0.000209153 -4.3929e-06
-1.4539e-05 -4.3929e-06 -0.000336646
0.0016916 0.000178419 2.00854e-06
0.000178419 0.000271121 5.708e-07
2.00854e-06 5.708e-07 0.000124879
0.00168154 0.000204444 1.40461e-06
0.000204444 0.000160452 -1.56781e-07
1.40461e-06 -1.56781e-07 1.13002e-05
0.000547794 0.000124375 -1.90355e-05
0.000124375 -0.000111431 -8.63494e-06
-1.90355e-05 -8.63494e-06 -0.000189086
0.000818591 0.000132164 5.12254e-07
0.000132164 -0.000108716 1.78595e-07
5.12254e-07 1.78595e-07 -0.000239734
0.00118921 0.00018019 9.31762e-06
0.00018019 1.19508e-05 1.80421e-06
9.31762e-06 1.80421e-06 -0.00014302
0.00550216 4.47737e-06 -0.000171848
4.47737e-06 0.00286486 -1.65449e-05
-0.000171848 -1.65449e-05 0.00285304
0.000550812 0.000152383 1.44628e-06
0.000152383 -9.53329e-05 5.27451e-07
1.44628e-06 5.27451e-07 -0.000179935
0.00100624 0.00015737 1.21849e-05
0.00015737 2.06767e-05 4.50152e-06
1.21849e-05 4.50152e-06 -0.000116409
0.000495375 0.000155724 1.95317e-05
0.000155724 -0.00010853 1.22311e-05
1.95317e-05 1.22311e-05 -0.00019476
0.00524981 -8.40547e-05 5.7049e-06
-8.40547e-05 0.0027349 -1.12224e-06
5.7049e-06 -1.12224e-06 0.0027173
0.00441906 -0.000204733 0.000103858
-0.000204733 0.00227617 5.87636e-06
0.000103858 5.87636e-06 0.00224707
0.0018048 5.19805e-05 -8.38728e-07
5.19805e-05 0.000100652 -5.46858e-07
-8.38728e-07 -5.46858e-07 7.76168e-06
0.00179417 7.98214e-05 -1.11011e-07
7.98214e-05 6.2025e-05 5.29131e-07
-1.11011e-07 5.29131e-07 -1.89272e-05
0.00179256 0.000108697 1.54836e-06
0.000108697 3.06382e-05 -3.30165e-07
1.54836e-06 -3.30165e-07 -4.96673e-05
0.00166428 1.66332e-06 2.12814e-06
1.66332e-06 8.08609e-05 -4.34367e-07
2.12814e-06 -4.34367e-07 -3.08373e-05
0.00171731 -5.43943e-06 3.0343e-07
-5.43943e-06 6.21132e-05 1.42255e-07
3.0343e-07 1.42255e-07 -2.9176e-05
0.00193844 1.89473e-05 -1.30157e-06
1.89473e-05 0.000138351 7.09169e-08
-1.30157e-06 7.09169e-08 6.61062e-05
0.00162024 -1.51536e-05 -2.71189e-06
-1.51536e-05 3.49704e-06 7.9068e-07
-2.71189e-06 7.9068e-07 -8.40482e-05
0.00175365 -1.65086e-05 1.09268e-06
-1.65086e-05 0.000140073 -2.75401e-07
1.09268e-06 -2.75401e-07 2.99775e-05
0.00172776 -1.33774e-05 -1.59215e-06
-1.33774e-05 0.000230717 -2.55101e-07
-1.59215e-06 -2.55101e-07 0.000108015
0.00166359 -5.55377e-05 -3.54756e-07
-5.55377e-05 8.00789e-05 9.22704e-07
-3.54756e-07 9.22704e-07 -4.00233e-05
0.00157266 -3.64828e-05 1.05504e-08
-3.64828e-05 0.000143107 7.22214e-08
1.05504e-08 7.22214e-08 1.41732e-05
0.000777265 -2.29227e-05 -1.37668e-05
-2.29227e-05 -0.000174982 1.61122e-06
-1.37668e-05 1.61122e-06 -0.000296939
0.00140153 -6.72635e-05 4.01956e-06
-6.72635e-05 5.64877e-05 -5.30431e-07
4.01956e-06 -5.30431e-07 -7.89167e-05
0.00103912 -4.67406e-05 4.39991e-10
-4.67406e-05 -1.79102e-05 1.17075e-07
4.39991e-10 1.17075e-07 -0.000139322
0.000633109 -2.03552e-05 -1.78102e-05
-2.03552e-05 -9.97483e-05 2.88152e-06
-1.78102e-05 2.88152e-06 -0.000169619
0.00104784 -7.15292e-05 1.20102e-05
-7.15292e-05 -3.68504e-06 -2.55172e-06
1.20102e-05 -2.55172e-06 -0.000126767
0.000637751 -5.40227e-05 -1.72792e-07
-5.40227e-05 -9.02189e-05 3.29075e-07
-1.72792e-07 3.29075e-07 -0.000161388
0.0053574 -4.11368e-06 -0.000189455
-4.11368e-06 0.00275135 7.28014e-06
-0.000189455 7.28014e-06 0.00275546
0.000670849 -6.18536e-05 1.6222e-05
-6.18536e-05 -6.79305e-05 -6.26764e-06
1.6222e-05 -6.26764e-06 -0.000139844
0.00337431 -7.22284e-05 9.11963e-05
-7.22284e-05 0.00160581 -2.75683e-06
9.11963e-05 -2.75683e-06 0.00158926
0.00121261 -6.42957e-05 4.08361e-05
-6.42957e-05 0.000364625 -5.37024e-06
4.08361e-05 -5.37024e-06 0.00032967
0.00181043 7.76178e-05 7.44052e-08
7.76178e-05 0.000127972 1.60093e-07
7.44052e-08 1.60093e-07 3.00232e-05
0.00164798 6.95241e-05 1.77447e-06
6.95241e-05 7.97299e-05 1.83718e-06
1.77447e-06 1.83718e-06 -3.67419e-05
0.00189885 8.09081e-05 -2.31388e-07
8.09081e-05 0.000158747 -2.77972e-07
-2.31388e-07 -2.77972e-07 6.69573e-05
0.00142759 9.78758e-05 -3.59111e-06
9.78758e-05 6.81525e-05 -1.16282e-07
-3.59111e-06 -1.16282e-07 -6.74808e-05
0.00174327 0.000117232 4.96452e-07
0.000117232 0.000132494 1.58736e-07
4.96452e-07 1.58736e-07 7.3253e-06
0.00196731 0.000110288 -1.04393e-06
0.000110288 0.000195376 -1.89212e-06
-1.04393e-06 -1.89212e-06 9.29117e-05
0.000684148 8.422e-05 -1.40237e-05
8.422e-05 -0.000217629 -3.30576e-06
-1.40237e-05 -3.30576e-06 -0.000342525
0.00155134 0.000142009 -6.82759e-07
0.000142009 0.000156047 2.93375e-08
-6.82759e-07 2.93375e-08 1.4575e-05
0.00177157 0.000172678 1.0744e-06
0.000172678 0.000169227 -5.79792e-07
1.0744e-06 -5.79792e-07 3.13797e-05
0.000565741 8.89109e-05 -1.75381e-05
8.89109e-05 -0.000117378 -6.60881e-06
-1.75381e-05 -6.60881e-06 -0.000190051
0.000649505 0.000104813 -2.82223e-06
0.000104813 -0.000222339 -5.79273e-07
-2.82223e-06 -5.79273e-07 -0.000350321
0.00171296 0.000180572 8.05455e-06
0.000180572 0.00028362 1.85415e-06
8.05455e-06 1.85415e-06 0.000137252
0.00544128 8.74981e-05 -0.000189414
8.74981e-05 0.00280958 -1.52548e-05
-0.000189414 -1.52548e-05 0.00280845
0.00054651 0.000117592 5.72862e-07
0.000117592 -0.000112096 3.23613e-07
5.72862e-07 3.23613e-07 -0.000190297
0.000604472 0.000122374 1.25538e-05
0.000122374 -0.000232673 4.31688e-06
1.25538e-05 4.31688e-06 -0.000364531
0.00541631 1.81914e-05 1.22622e-05
1.81914e-05 0.00281375 3.24401e-07
1.22622e-05 3.24401e-07 0.00280403
0.000517291 0.000139022 1.88029e-05
0.000139022 -0.000112843 1.06137e-05
1.88029e-05 1.06137e-05 -0.000198517
0.0050649 -0.0001236 0.000143783
-0.0001236 0.00262342 8.32076e-06
0.000143783 8.32076e-06 0.00260875
0.00177477 3.66718e-05 4.28196e-07
3.66718e-05 0.00013562 -4.48128e-07
4.28196e-07 -4.48128e-07 2.63018e-05
0.00175842 4.98544e-05 -9.37361e-07
4.98544e-05 7.96332e-05 2.28229e-07
-9.37361e-07 2.28229e-07 -1.43086e-05
0.0018259 7.88588e-05 1.68761e-07
7.88588e-05 7.6941e-05 1.18043e-08
1.68761e-07 1.18043e-08 -4.02344e-06
0.00169918 -3.73201e-06 -1.04751e-06
-3.73201e-06 0.000220591 -3.6166e-07
-1.04751e-06 -3.6166e-07 0.000100593
0.00169163 -1.17802e-07 4.2473e-07
-1.17802e-07 9.5961e-05 7.49651e-08
4.2473e-07 7.49651e-08 -1.41832e-05
0.00169542 -1.97157e-06 5.10766e-07
-1.97157e-06 5.39216e-05 -1.0371e-08
5.10766e-07 -1.0371e-08 -3.6029e-05
0.00173266 -1.19266e-05 -7.47959e-08
-1.19266e-05 0.000126878 5.75888e-07
-7.47959e-08 5.75888e-07 1.69104e-05
0.00173123 -1.27847e-05 2.36733e-06
-1.27847e-05 0.000232281 -2.27244e-07
2.36733e-06 -2.27244e-07 0.000109585
0.000783065 -8.43334e-06 -1.3088e-05
-8.43334e-06 -0.000173283 6.21074e-07
-1.3088e-05 6.21074e-07 -0.000292916
0.00169106 -3.6796e-05 4.56095e-06
-3.6796e-05 0.000211254 -1.90688e-07
4.56095e-06 -1.90688e-07 8.21122e-05
0.000908584 -2.19353e-05 -2.46294e-06
-2.19353e-05 -9.92288e-05 2.85771e-07
-2.46294e-06 2.85771e-07 -0.000220127
0.000638583 -5.7318e-06 -1.80876e-05
-5.7318e-06 -0.000102418 1.92783e-06
-1.80876e-05 1.92783e-06 -0.000171539
0.00104073 -4.48739e-05 1.16888e-05
-4.48739e-05 -1.75043e-05 -1.96242e-06
1.16888e-05 -1.96242e-06 -0.000138637
0.000623302 -2.66842e-05 6.26843e-07
-2.66842e-05 -0.000106809 -1.62196e-08
6.26843e-07 -1.62196e-08 -0.000175776
0.00536453 -9.97228e-05 -0.000200379
-9.97228e-05 0.00276091 7.08013e-06
-0.000200379 7.08013e-06 0.0027625
0.000625347 -3.85732e-05 1.70411e-05
-3.85732e-05 -9.81869e-05 -3.44023e-06
1.70411e-05 -3.44023e-06 -0.000168922
0.00535242 -3.91281e-05 8.0347e-06
-3.91281e-05 0.00274925 3.51683e-08
8.0347e-06 3.51683e-08 0.00275334
0.0015355 -1.41953e-05 0.000166294
-1.41953e-05 0.000530307 -8.4217e-06
0.000166294 -8.4217e-06 0.000515646
0.00165709 5.44825e-05 1.61217e-06
5.44825e-05 8.57534e-05 3.5666e-07
1.61217e-06 3.5666e-07 -2.82199e-05
0.00178735 8.18685e-05 -2.43075e-06
8.18685e-05 0.000107716 -3.43208e-07
-2.43075e-06 -3.43208e-07 1.15722e-05
0.00144401 5.80479e-05 -2.96215e-06
5.80479e-05 7.80973e-05 1.82685e-07
-2.96215e-06 1.82685e-07 -5.07676e-05
0.00165084 6.83923e-05 5.14892e-07
6.83923e-05 8.2421e-05 2.44432e-08
5.14892e-07 2.44432e-08 -3.40696e-05
0.00188811 7.828e-05 -1.47901e-06
7.828e-05 0.000152642 -2.31571e-06
-1.47901e-06 -2.31571e-06 6.1329e-05
0.00105491 6.88121e-05 -1.19707e-05
6.88121e-05 -1.23782e-05 -2.06557e-06
-1.19707e-05 -2.06557e-06 -0.000131678
0.00140647 9.7243e-05 7.27695e-08
9.7243e-05 5.7097e-05 1.28329e-07
7.27695e-08 1.28329e-07 -7.86999e-05
0.00169434 0.000115592 -5.69615e-08
0.000115592 0.00010128 -9.86368e-07
-5.69615e-08 -9.86368e-07 -2.51852e-05
0.000592837 6.26571e-05 -1.70831e-05
6.26571e-05 -0.000116465 -4.77605e-06
-1.70831e-05 -4.77605e-06 -0.000186811
0.000845923 9.11234e-05 -3.22689e-06
9.11234e-05 -0.000123917 -3.96324e-07
-3.22689e-06 -3.96324e-07 -0.000248436
0.00173501 0.000147028 5.07879e-06
0.000147028 0.000264763 1.07237e-06
5.07879e-06 1.07237e-06 0.000123744
0.00542617 0.00014127 -0.000208765
0.00014127 0.00279661 -1.47665e-05
-0.000208765 -1.47665e-05 0.00279671
0.000573841 8.68388e-05 8.35443e-08
8.68388e-05 -0.000113048 1.03408e-07
8.35443e-08 1.03408e-07 -0.00018582
0.000622364 0.000104394 8.74675e-06
0.000104394 -0.000237808 3.09377e-06
8.74675e-06 3.09377e-06 -0.000366244
0.00538287 0.000106374 1.03449e-05
0.000106374 0.00278282 2.0017e-06
1.03449e-05 2.0017e-06 0.00277864
0.000549977 0.000109418 1.75275e-05
0.000109418 -0.000110603 8.48024e-06
1.75275e-05 8.48024e-06 -0.000188916
0.00535591 1.39726e-05 0.000179578
1.39726e-05 0.00276692 1.23718e-05
0.000179578 1.23718e-05 0.00276538
0.00170937 2.5541e-05 -9.79937e-07
2.5541e-05 0.000229465 -1.9329e-07
-9.79937e-07 -1.9329e-07 0.000110378
0.00174135 3.22091e-05 -7.56644e-07
3.22091e-05 0.000119219 1.16331e-07
-7.56644e-07 1.16331e-07 8.91309e-06
0.00171517 4.75124e-05 -1.41994e-06
4.75124e-05 6.10739e-05 3.18728e-07
-1.41994e-06 3.18728e-07 -3.38834e-05
0.000762222 -9.22069e-06 -1.3511e-05
-9.22069e-06 -0.00018052 -3.76881e-07
-1.3511e-05 -3.76881e-07 -0.000297655
0.0017212 2.49016e-06 2.61689e-06
2.49016e-06 0.000233238 -9.62967e-08
2.61689e-06 -9.62967e-08 0.000113263
0.00171264 -1.98754e-06 -2.93725e-07
-1.98754e-06 0.000107604 3.53149e-07
-2.93725e-07 3.53149e-07 -9.77189e-07
0.00173706 -1.25731e-05 6.18405e-06
-1.25731e-05 0.000235251 8.4233e-09
6.18405e-06 8.4233e-09 0.000112555
0.000767844 -8.2004e-06 -1.90494e-06
-8.2004e-06 -0.000182807 1.39287e-07
-1.90494e-06 1.39287e-07 -0.000302712
0.000645749 -2.326e-05 -1.82583e-05
-2.326e-05 -0.000100401 7.36844e-07
-1.82583e-05 7.36844e-07 -0.000168529
0.00102997 -2.02086e-05 9.55799e-06
-2.02086e-05 -2.91418e-05 -1.24702e-06
9.55799e-06 -1.24702e-06 -0.000148977
0.000623693 4.04428e-06 2.0712e-07
4.04428e-06 -0.000111151 6.56199e-08
2.0712e-07 6.56199e-08 -0.000179967
0.00542547 -7.83974e-05 -0.000208614
-7.83974e-05 0.00279349 4.82143e-06
-0.000208614 4.82143e-06 0.00279688
0.000627923 -2.53596e-05 1.77401e-05
-2.53596e-05 -0.000103382 -2.30191e-06
1.77401e-05 -2.30191e-06 -0.000173018
0.00540293 6.83031e-06 -2.99197e-06
6.83031e-06 0.00277559 1.14806e-06
-2.99197e-06 1.14806e-06 0.00278155
0.0053768 -6.01133e-05 0.000200968
-6.01133e-05 0.00276104 -6.46039e-06
0.000200968 -6.46039e-06 0.00276663
0.00143655 3.74119e-05 -2.93368e-06
3.74119e-05 7.7796e-05 -1.08057e-07
-2.93368e-06 -1.08057e-07 -4.77051e-05
0.00168323 5.73746e-05 -6.24956e-07
5.73746e-05 9.9747e-05 -8.57134e-07
-6.24956e-07 -8.57134e-07 -1.14451e-05
0.00176191 8.63473e-05 -3.90128e-06
8.63473e-05 8.61883e-05 -3.67613e-07
-3.90128e-06 -3.67613e-07 -8.16454e-06
0.0010541 3.80334e-05 -1.17796e-05
3.80334e-05 -1.43623e-05 -1.4518e-06
-1.17796e-05 -1.4518e-06 -0.000129937
0.00140593 5.8069e-05 2.04721e-07
5.8069e-05 5.51361e-05 6.49849e-08
2.04721e-07 6.49849e-08 -7.41211e-05
0.00165249 6.71873e-05 -9.46552e-07
6.71873e-05 8.46956e-05 -1.70768e-06
-9.46552e-07 -1.70768e-06 -3.18115e-05
0.000615466 3.76582e-05 -1.66352e-05
3.76582e-05 -0.000111078 -3.49708e-06
-1.66352e-05 -3.49708e-06 -0.00018015
0.00104661 7.05419e-05 1.17842e-07
7.05419e-05 -1.67927e-05 2.32114e-07
1.17842e-07 2.32114e-07 -0.000136507
0.00138538 9.65947e-05 4.04511e-06
9.65947e-05 4.59737e-05 4.52107e-07
4.04511e-06 4.52107e-07 -8.99917e-05
0.00541277 0.000146765 -0.000221488
0.000146765 0.0027899 -1.30117e-05
-0.000221488 -1.30117e-05 0.00278957
0.000608797 6.39858e-05 2.842e-07
6.39858e-05 -0.000107014 1.85405e-07
2.842e-07 1.85405e-07 -0.000177594
0.00100336 9.79086e-05 8.89199e-06
9.79086e-05 -3.2769e-05 2.67716e-06
8.89199e-06 2.67716e-06 -0.000156865
0.0053832 0.00015457 5.62713e-06
0.00015457 0.0027788 2.15915e-06
5.62713e-06 2.15915e-06 0.00277608
0.000584854 8.54187e-05 1.68231e-05
8.54187e-05 -0.000106716 6.71805e-06
1.68231e-05 6.71805e-06 -0.000179541
0.00535542 0.000126994 0.000196907
0.000126994 0.00276457 1.61491e-05
0.000196907 1.61491e-05 0.00276253
0.00106985 1.16055e-05 -1.2424e-05
1.16055e-05 -1.74313e-06 -7.96821e-07
-1.2424e-05 -7.96821e-07 -0.000115238
0.00155746 2.05752e-05 2.95386e-06
2.05752e-05 0.000142413 9.58067e-08
2.95386e-06 9.58067e-08 2.21748e-05
0.00170486 2.68395e-05 -1.68567e-06
2.68395e-05 0.000100596 2.32658e-07
-1.68567e-06 2.32658e-07 -1.07074e-05
0.000668032 2.70794e-05 -1.87442e-05
2.70794e-05 -9.29509e-05 -5.10341e-07
-1.87442e-05 -5.10341e-07 -0.000154563
0.000749429 -3.81137e-06 -2.14524e-06
-3.81137e-06 -0.000189214 -3.54176e-09
-2.14524e-06 -3.54176e-09 -0.000306585
0.00174385 8.76632e-06 6.34691e-06
8.76632e-06 0.000246221 2.15624e-07
6.34691e-06 2.15624e-07 0.000126259
0.000747273 -7.54425e-06 9.25082e-06
-7.54425e-06 -0.000195456 -3.29725e-07
9.25082e-06 -3.29725e-07 -0.000315623
0.000634288 -2.94801e-06 2.1723e-07
-2.94801e-06 -0.000107067 3.39305e-07
2.1723e-07 3.39305e-07 -0.000174997
0.00544215 4.81028e-05 -0.00021586
4.81028e-05 0.00279938 -8.24665e-07
-0.00021586 -8.24665e-07 0.00280541
0.000605761 1.36596e-05 1.73788e-05
1.36596e-05 -0.00012188 -1.20021e-06
1.73788e-05 -1.20021e-06 -0.000190214
0.00542654 -7.79478e-05 -7.88741e-06
-7.79478e-05 0.00279425 1.37405e-06
-7.88741e-06 1.37405e-06 0.00279735
0.00539075 2.82148e-05 0.000193415
2.82148e-05 0.002769 -2.8133e-06
0.000193415 -2.8133e-06 0.00277438
0.00105655 2.01872e-05 -1.22568e-05
2.01872e-05 -1.11674e-05 -1.24266e-06
-1.22568e-05 -1.24266e-06 -0.000124755
0.00139094 3.67782e-05 -1.16503e-08
3.67782e-05 4.99406e-05 -1.08313e-07
-1.16503e-08 -1.08313e-07 -7.43483e-05
0.00171419 6.01013e-05 -2.72046e-06
6.01013e-05 0.000116421 -1.46542e-06
-2.72046e-06 -1.46542e-06 8.01318e-06
0.00258984 4.08249e-05 -0.000105851
4.08249e-05 0.00103232 -3.11103e-06
-0.000105851 -3.11103e-06 0.000985026
0.00105631 4.02782e-05 1.80131e-07
4.02782e-05 -1.34376e-05 1.96206e-07
1.80131e-07 1.96206e-07 -0.000129214
0.00136782 5.79732e-05 3.64296e-06
5.79732e-05 3.20802e-05 3.72981e-08
3.64296e-06 3.72981e-08 -9.75731e-05
0.00538142 0.000126076 -0.000224719
0.000126076 0.00277243 -9.99559e-06
-0.000224719 -9.99559e-06 0.00277301
0.000646599 5.1182e-05 6.85605e-07
5.1182e-05 -9.15486e-05 2.94769e-07
6.85605e-07 2.94769e-07 -0.000161794
0.00104798 7.25829e-05 1.1949e-05
7.25829e-05 -1.58585e-05 2.50848e-06
1.1949e-05 2.50848e-06 -0.000135967
0.00542533 0.000159366 1.30634e-06
0.000159366 0.00280052 1.63496e-06
1.30634e-06 1.63496e-06 0.00279879
0.000634027 6.69016e-05 1.71836e-05
6.69016e-05 -9.14773e-05 5.47062e-06
1.71836e-05 5.47062e-06 -0.000162661
0.00534798 0.000176852 0.000207076
0.000176852 0.00276426 1.75286e-05
0.000207076 1.75286e-05 0.00275886
0.000704538 8.24945e-06 -1.63018e-05
8.24945e-06 -6.12086e-05 -1.78451e-06
-1.63018e-05 -1.78451e-06 -0.000128955
0.000903631 9.33044e-06 6.35576e-07
9.33044e-06 -9.73988e-05 2.1016e-07
6.35576e-07 2.1016e-07 -0.000212181
0.00139954 1.53811e-05 6.05766e-06
1.53811e-05 5.19576e-05 2.42662e-07
6.05766e-06 2.42662e-07 -6.94109e-05
0.00533235 -9.24327e-05 -0.000200227
-9.24327e-05 0.00275182 -5.4905e-08
-0.000200227 -5.4905e-08 0.00274852
0.000631435 7.67067e-06 -3.75756e-07
7.67067e-06 -0.000109049 1.89398e-07
-3.75756e-07 1.89398e-07 -0.000173321
0.000742795 1.28107e-06 9.16228e-06
1.28107e-06 -0.00019439 2.18745e-07
9.16228e-06 2.18745e-07 -0.000311983
0.000603073 1.98451e-05 1.76837e-05
1.98451e-05 -0.000124997 2.10836e-07
1.76837e-05 2.10836e-07 -0.000192589
0.00540713 1.26932e-05 2.71991e-06
1.26932e-05 0.00278286 -4.6462e-07
2.71991e-06 -4.6462e-07 0.00278608
0.00544813 1.24371e-05 0.000204685
1.24371e-05 0.00279849 -1.00461e-06
0.000204685 -1.00461e-06 0.00280555
0.00263451 3.38537e-06 -0.000103236
3.38537e-06 0.00105551 -2.04894e-06
-0.000103236 -2.04894e-06 0.00100929
0.00107028 2.28731e-05 2.49084e-08
2.28731e-05 -3.76511e-06 3.52819e-08
2.49084e-08 3.52819e-08 -0.000117449
0.00134243 3.6335e-05 3.38189e-06
3.6335e-05 2.04728e-05 -1.4901e-07
3.38189e-06 -1.4901e-07 -0.000102605
0.0050337 -6.44387e-05 -5.69585e-05
-6.44387e-05 0.00258166 1.5554e-07
-5.69585e-05 1.5554e-07 0.0025669
0.000657233 4.22922e-05 -3.75205e-08
4.22922e-05 -8.73264e-05 2.46046e-07
-3.75205e-08 2.46046e-07 -0.000156033
0.00107196 4.30069e-05 1.18539e-05
4.30069e-05 -5.1381e-06 1.88324e-06
1.18539e-05 1.88324e-06 -0.000121072
0.00542273 9.25023e-05 -1.11583e-05
9.25023e-05 0.00279166 -7.721e-07
-1.11583e-05 -7.721e-07 0.00279446
0.000675126 7.07347e-05 1.86795e-05
7.07347e-05 -7.41377e-05 4.54427e-06
1.86795e-05 4.54427e-06 -0.00014509
0.00541331 0.000182719 0.000217749
0.000182719 0.00280073 1.67933e-05
0.000217749 1.67933e-05 0.00279558
0.00165937 -4.37007e-05 -0.000175208
-4.37007e-05 0.000596192 5.01553e-07
-0.000175208 5.01553e-07 0.000583757
0.00164366 2.20724e-05 -4.25607e-05
2.20724e-05 0.000478437 2.02681e-07
-4.25607e-05 2.02681e-07 0.000425085
0.00074492 9.43255e-06 1.20897e-05
9.43255e-06 -0.000188788 9.4735e-07
1.20897e-05 9.4735e-07 -0.000304878
0.0053569 -3.81597e-05 8.19554e-06
-3.81597e-05 0.00276141 6.43224e-07
8.19554e-06 6.43224e-07 0.00276188
0.000635659 -1.07118e-05 1.81192e-05
-1.07118e-05 -0.000102673 9.69674e-07
1.81192e-05 9.69674e-07 -0.000169152
0.00542752 -5.72867e-05 0.000219491
-5.72867e-05 0.00279502 -1.19726e-06
0.000219491 -1.19726e-06 0.00279898
0.00127711 -4.69971e-06 -2.76339e-05
-4.69971e-06 0.000396125 -6.69623e-07
-2.76339e-05 -6.69623e-07 0.000362274
0.00163768 1.108e-05 -4.29482e-05
1.108e-05 0.000478659 -4.16613e-07
-4.29482e-05 -4.16613e-07 0.000422553
0.00107143 2.40938e-05 1.20232e-05
2.40938e-05 -3.25499e-06 1.34414e-06
1.20232e-05 1.34414e-06 -0.000117061
0.00333671 4.06877e-05 8.05798e-05
4.06877e-05 0.00158153 1.71909e-06
8.05798e-05 1.71909e-06 0.00156828
0.000667563 5.08494e-05 1.87257e-05
5.08494e-05 -8.10859e-05 3.60488e-06
1.87257e-05 3.60488e-06 -0.000150079
0.00545196 8.62831e-05 0.000208654
8.62831e-05 0.00280489 1.05314e-05
0.000208654 1.05314e-05 0.00280985
0.00528252 -2.46973e-05 -8.84704e-06
-2.46973e-05 0.00272128 -1.28482e-06
-8.84704e-06 -1.28482e-06 0.0027211
0.000643836 3.72678e-05 1.91904e-05
3.72678e-05 -0.000102146 1.8113e-06
1.91904e-05 1.8113e-06 -0.000163572
0.00528186 5.43309e-05 0.000204324
5.43309e-05 0.00271545 -2.96506e-07
0.000204324 -2.96506e-07 0.00271843
0.00329339 2.71012e-05 9.44669e-05
2.71012e-05 0.00156137 2.42572e-06
9.44669e-05 2.42572e-06 0.00154756
0.000674567 5.10205e-06 1.81798e-05
5.10205e-06 -7.815e-05 2.4957e-06
1.81798e-05 2.4957e-06 -0.000144577
0.0053892 -3.50466e-05 0.000201348
-3.50466e-05 0.00277139 4.91896e-06
0.000201348 4.91896e-06 0.00277501
0.00529824 -0.000131474 0.000199226
-0.000131474 0.00273685 -2.12757e-06
0.000199226 -2.12757e-06 0.00273158
0.00530324 -1.97967e-05 0.0001987
-1.97967e-05 0.00271929 2.39157e-06
0.0001987 2.39157e-06 0.00272613
