# vtk DataFile Version 2.0
Wound Healing Simulation
ASCII
DATASET UNSTRUCTURED_GRID
POINTS 3012 float
69.9759 18.75 4
67.2507 60.3285 4
69.976 18.75 2
73.0099 25.446 4
71.1327 20.9142 4
68.6801 16.6661 4
67.8246 19.9262 3.98051
67.2507 60.3286 2
71.1327 54.0858 4
68.6801 58.3339 4
65.6939 62.2254 4
65.3112 59.0006 3.97956
74.6784 42.3946 4
73.7221 47.2057 4
69.9759 18.75 0
73.0099 25.446 2
68.6801 16.6661 2
71.1327 20.9142 2
67.8252 19.9296 2
74.6792 32.6053 4
73.7222 27.7943 4
72.1454 23.1494 4
70.6134 26.2209 3.98008
68.8848 21.958 3.98095
67.2507 14.6715 4
66.636 17.9724 3.97956
65.794 21.027 3.96989
67.2507 60.3285 0
71.1327 54.0858 2
68.6801 58.3339 2
65.694 62.2255 2
65.3124 58.9967 2
72.1454 51.8506 4
69.9759 56.25 4
68.8356 53.113 3.98014
64.0165 64.0165 4
66.6098 57.1334 3.98013
63.8843 60.7649 3.97974
63.4973 57.7682 3.97103
60.3285 67.2507 4
74.6792 42.3947 2
73.7222 47.2057 2
74.9194 39.9526 4
74.2788 44.8158 4
72.1677 42.0855 3.97978
73.0099 49.554 4
71.2486 46.5979 3.97937
73.0099 25.446 0
71.1327 20.9142 0
68.6801 16.6661 0
67.8246 19.9262 0.0194888
74.6792 32.6053 2
73.7222 27.7943 2
67.2508 14.6715 2
72.1455 23.1494 2
70.6133 26.2215 2
66.637 17.9766 2
68.8852 21.9602 2
65.7934 21.028 2
74.9197 35.0474 4
74.2794 30.1841 4
72.1843 32.9434 3.98003
71.2775 28.4314 3.97966
69.8147 24.0595 3.9807
68.3442 26.9522 3.96908
66.7596 22.9344 3.96949
65.694 12.7746 4
65.3223 16.1045 3.97914
64.7103 19.1979 3.97024
63.8781 22.0406 3.96639
71.1327 54.0858 0
65.6939 62.2254 0
68.6801 58.3339 0
65.3112 59.0006 0.0204418
72.1455 51.8506 2
69.9759 56.25 2
68.8357 53.111 2
64.0165 64.0165 2
66.6107 57.1296 2
63.886 60.7614 2
63.4968 57.7678 2
62.2254 65.694 4
58.8939 65.4139 3.98932
69.7681 50.9888 3.97985
67.7828 55.167 3.97999
66.6466 52.2079 3.96872
62.335 62.4268 3.98377
64.6578 56.0292 3.97012
62.1989 59.3977 3.9694
61.8164 56.6735 3.96618
58.3339 68.6801 4
60.3285 67.2508 2
73.7221 47.2057 0
74.6784 42.3946 0
74.9197 39.9526 2
74.2794 44.8159 2
72.1672 42.0854 2
73.0099 49.554 2
71.2485 46.5977 2
75 37.5 4
72.405 39.8022 3.9804
71.782 44.3527 3.97977
69.802 41.7894 3.96927
70.5744 48.8134 3.97947
68.9097 46.014 3.96884
74.6792 32.6053 0
73.7222 27.7943 0
67.2507 14.6715 0
72.1454 23.1494 0
70.6134 26.2209 0.0199183
68.8848 21.958 0.0190459
66.636 17.9724 0.0204365
65.794 21.027 0.0301101
74.9197 35.0474 2
74.2794 30.1841 2
72.1838 32.9438 2
71.2774 28.4319 2
65.694 12.7745 2
65.3239 16.1089 2
69.8148 24.0607 2
68.3441 26.9529 2
64.7097 19.1988 2
66.7592 22.9354 2
63.8776 22.0411 2
72.4128 35.2242 3.98045
71.8034 30.6763 3.98007
69.8379 33.2688 3.96943
68.9636 29.0388 3.9691
67.6086 24.9129 3.96919
66.1776 27.6389 3.967
64.0165 10.9835 4
64.7441 23.8348 3.96664
63.8886 14.3286 3.98062
63.5094 17.4522 3.97087
62.8992 20.3273 3.96602
62.0499 22.9596 3.96684
60.683 11.0989 3.98523
57.6111 11.4535 3.97693
72.1454 51.8506 0
69.9759 56.25 0
68.8356 53.113 0.0198593
64.0165 64.0165 0
63.8843 60.7649 0.020261
66.6098 57.1334 0.0198679
63.4973 57.7682 0.028969
62.2255 65.694 2
58.8953 65.4129 2
69.7681 50.9878 2
67.7833 55.164 2
66.6461 52.207 2
62.3369 62.4242 2
64.6572 56.0286 2
62.1983 59.398 2
61.8158 56.6734 2
60.6677 63.9763 3.98633
57.025 66.7346 3.99077
57.5565 63.6879 3.97901
67.5047 50.1755 3.96845
65.6988 54.1716 3.96923
64.5221 51.3792 3.96585
60.7704 60.932 3.9732
62.8135 55.0618 3.96632
60.6491 58.1474 3.96397
60.317 55.7721 3.96526
56.25 69.9759 4
58.3339 68.6801 2
60.3285 67.2507 0
58.9204 9.65688 3.9871
62.2254 9.30607 4
73.0099 49.554 0
74.2788 44.8158 0
71.2486 46.5979 0.0206296
72.1677 42.0855 0.0202215
74.9194 39.9526 0
75 37.5 2
72.4049 39.8023 2
71.7819 44.3524 2
69.8014 41.7891 2
70.5742 48.8131 2
68.9097 46.0135 2
72.4884 37.512 3.97999
70.0393 39.6573 3.96937
69.4281 43.907 3.96912
67.5805 41.4953 3.96834
68.2632 48.1061 3.96851
66.6865 45.4351 3.96754
74.9197 35.0474 0
74.2794 30.1841 0
72.1843 32.9434 0.0199667
71.2775 28.4314 0.0203433
65.694 12.7746 0
65.3223 16.1045 0.0208648
69.8147 24.0595 0.0192999
68.3442 26.9522 0.0309198
66.7596 22.9344 0.0305131
64.7103 19.1979 0.0297616
63.8781 22.0406 0.0336053
72.4128 35.2243 2
71.8034 30.6769 2
69.8374 33.2692 2
68.9636 29.0394 2
64.0165 10.9835 2
63.8907 14.3325 2
63.5089 17.453 2
67.6083 24.9137 2
66.1777 27.6393 2
62.8986 20.3277 2
64.7437 23.8353 2
62.0494 22.9601 2
60.6855 11.1015 2
57.6121 11.4518 2
70.056 35.3922 3.96951
69.4649 31.15 3.96921
67.6419 33.5929 3.96806
66.7546 29.6266 3.96733
65.5081 25.7039 3.96675
64.0753 28.2701 3.97005
62.3406 12.6561 3.98364
62.804 24.6534 3.9681
62.1952 15.7928 3.97114
61.8049 18.6948 3.96612
61.1816 21.3591 3.96526
60.3378 23.7563 3.96918
59.2441 12.7861 3.97405
55.8736 10.2387 3.97915
56.4027 13.1308 3.97347
69.7681 50.9888 0.0201454
62.2254 65.694 0
58.8939 65.4139 0.0106789
67.7828 55.167 0.0200123
66.6466 52.2079 0.0312776
62.335 62.4268 0.0162335
62.1989 59.3977 0.0306006
64.6578 56.0292 0.0298824
61.8164 56.6735 0.0338201
60.6695 63.9747 2
57.026 66.7342 2
57.5565 63.6896 2
67.5044 50.1747 2
65.6981 54.1708 2
64.522 51.3789 2
60.7702 60.9327 2
62.8128 55.0615 2
60.6488 58.1476 2
60.3166 55.7719 2
55.071 67.9315 3.99169
59.2168 62.3603 3.97438
55.8039 64.9074 3.98335
56.3239 62.0784 3.97499
65.3105 49.402 3.96626
63.6972 53.2869 3.96564
62.38 50.6335 3.96722
59.3269 59.5454 3.96804
61.0568 54.2951 3.96588
59.271 56.9935 3.96377
59.223 55.1648 3.96523
48.1016 68.5772 3.98712
50.9487 69.9312 3.99181
54.0858 71.1327 4
56.25 69.976 2
58.3339 68.6801 0
57.0579 8.33668 3.98836
60.3285 7.74928 4
58.9228 9.65847 2
62.2255 9.30602 2
70.5744 48.8134 0.0205269
71.782 44.3527 0.0202333
68.9097 46.014 0.0311623
69.802 41.7894 0.0307344
72.405 39.8022 0.0195999
75 37.5 0
72.4879 37.5122 2
70.0393 39.6572 2
69.428 43.9066 2
67.5805 41.4951 2
68.2631 48.1054 2
66.686 45.4347 2
70.1273 37.5216 3.96938
67.8207 39.5113 3.96839
67.2026 43.4664 3.96793
65.4766 41.2023 3.97249
66.0445 47.4122 3.96693
64.5652 44.834 3.97066
72.4128 35.2242 0.0195489
71.8034 30.6763 0.0199325
69.8379 33.2688 0.0305719
68.9636 29.0388 0.0308953
64.0165 10.9835 0
63.8886 14.3286 0.0193796
63.5094 17.4522 0.0291328
67.6086 24.9129 0.0308075
66.1776 27.6389 0.0330045
64.7441 23.8348 0.0333616
62.8992 20.3273 0.0339763
62.0499 22.9596 0.0331597
60.683 11.0989 0.0147728
57.6111 11.4535 0.0230661
70.056 35.3924 2
69.4648 31.1504 2
67.642 33.5931 2
66.7547 29.6269 2
62.3429 12.6597 2
62.1947 15.793 2
61.8042 18.6952 2
65.508 25.7043 2
64.0741 28.2706 2
61.1806 21.3596 2
62.8034 24.6539 2
60.3376 23.7571 2
59.2452 12.7859 2
56.4034 13.129 2
55.8743 10.2374 2
67.8593 35.5486 3.96837
67.2495 31.6254 3.96773
65.63 33.9331 3.97249
64.5894 30.2044 3.97093
63.4771 26.4297 3.96916
62.1311 28.8018 3.97414
60.7729 14.2305 3.97344
60.9445 25.3658 3.9712
60.6029 17.142 3.96588
60.1929 19.8357 3.96365
59.5785 22.2892 3.96602
58.8543 24.3593 3.97172
54.037 9.13971 3.98114
57.9064 14.3473 3.97379
54.7846 12.0226 3.97449
55.3069 14.6705 3.9718
67.5047 50.1755 0.0315523
57.025 66.7346 0.00922659
60.6677 63.9763 0.0136659
57.5565 63.6879 0.0209924
65.6988 54.1716 0.0307738
64.5221 51.3792 0.0341546
60.7704 60.932 0.0268032
60.6491 58.1474 0.036034
62.8135 55.0618 0.0336799
60.317 55.7721 0.034741
55.0717 67.9314 2
59.2171 62.3616 2
55.8038 64.9084 2
56.3233 62.0807 2
65.3103 49.4016 2
63.697 53.2866 2
62.3798 50.6332 2
59.3262 59.5467 2
61.0573 54.295 2
59.2714 56.9932 2
59.2235 55.1644 2
53.0429 68.9993 3.99171
53.9663 66.0113 3.985
57.8763 60.8578 3.97387
54.6825 63.2019 3.97785
55.2059 60.5975 3.97363
63.1198 48.6427 3.96842
61.6991 52.5584 3.96644
60.1576 49.988 3.9691
58.0041 58.2447 3.96524
59.2842 53.9246 3.96697
58.0848 55.7879 3.96122
50.1083 67.8556 3.9868
47.4624 66.5775 3.98351
46.0553 69.1563 3.98731
48.1016 68.5779 2
48.8028 70.7224 3.99192
50.9492 69.9311 2
51.8506 72.1454 4
54.0858 71.1327 2
56.25 69.9759 0
55.1028 7.14101 3.99012
58.3339 6.31992 4
57.0597 8.33751 2
60.3286 7.74926 2
58.9204 9.65688 0.0128984
62.2254 9.30607 0
68.2632 48.1061 0.0314889
69.4281 43.907 0.0308779
66.6865 45.4351 0.0324622
67.5805 41.4953 0.0316634
70.0393 39.6573 0.0306344
72.4884 37.512 0.0200102
70.1269 37.5217 2
67.8205 39.5112 2
67.2032 43.4661 2
65.4754 41.2021 2
66.0446 47.4118 2
64.5639 44.8336 2
67.9196 37.5221 3.96841
65.714 39.3663 3.97268
65.0953 43.0145 3.97199
63.6164 40.9172 3.97703
63.8796 46.6996 3.96944
62.6601 44.1936 3.97472
70.056 35.3922 0.0304884
69.4649 31.15 0.0307934
67.6419 33.5929 0.0319418
66.7546 29.6266 0.0326689
62.3406 12.6561 0.0163625
62.1952 15.7928 0.0288577
61.8049 18.6948 0.0338774
65.5081 25.7039 0.0332533
64.0753 28.2701 0.0299457
62.804 24.6534 0.0319016
61.1816 21.3591 0.0347393
60.3378 23.7563 0.0308188
59.2441 12.7861 0.0259516
56.4027 13.1308 0.0265294
55.8736 10.2387 0.0208467
67.8589 35.5487 2
67.25 31.6256 2
65.6289 33.9334 2
64.5883 30.2048 2
60.773 14.2313 2
60.6025 17.1421 2
60.194 19.8358 2
63.4763 26.4302 2
62.129 28.8024 2
59.5799 22.2898 2
60.9438 25.3665 2
58.8535 24.3604 2
57.9065 14.3463 2
55.3073 14.6698 2
54.0375 9.13822 2
54.7853 12.0203 2
65.8057 35.6696 3.97262
65.1096 32.1638 3.97146
64.1704 34.2581 3.97686
62.4471 30.6572 3.97514
61.5363 27.0988 3.97244
60.6843 29.1717 3.97729
59.3044 15.6827 3.96976
59.1815 25.8361 3.97457
59.1043 18.3767 3.96432
58.6764 20.8851 3.96295
58.1632 23.1342 3.96667
57.8228 24.7112 3.97377
52.1118 8.15613 3.98381
53.0567 11.0261 3.97647
56.6685 15.7639 3.97232
53.8054 13.7016 3.97424
54.3655 16.0268 3.97343
55.071 67.9315 0.00831469
65.3105 49.402 0.0337409
55.8039 64.9074 0.0166524
59.2168 62.3603 0.0256183
56.3239 62.0784 0.0250076
63.6972 53.2869 0.0343594
62.38 50.6335 0.0327793
59.3269 59.5454 0.0319575
59.271 56.9935 0.0362319
61.0568 54.2951 0.0341201
59.223 55.1648 0.0347696
53.0435 68.9993 2
53.9662 66.0122 2
57.8754 60.8592 2
54.6818 63.2027 2
55.2056 60.5993 2
63.119 48.6422 2
61.6999 52.5582 2
60.1574 49.9873 2
58.0034 58.246 2
59.2863 53.9243 2
58.0829 55.7868 2
52.0696 66.9984 3.98645
52.9526 64.2142 3.98153
56.6394 59.4729 3.97277
53.6773 61.6123 3.97612
54.2494 59.2992 3.97421
60.8467 47.8488 3.97
59.6195 52.0759 3.96787
57.8663 49.5749 3.97083
56.7507 56.9635 3.96686
57.0534 54.0913 3.96468
50.1082 67.856 2
49.3365 65.9182 3.98349
47.4625 66.5781 2
46.8917 64.7305 3.98183
45.5575 67.0942 3.98356
43.9725 69.5883 3.98752
46.0553 69.1568 2
46.6093 71.3669 3.99196
48.1016 68.5772 0.0128845
48.8032 70.7226 2
49.554 73.0099 4
50.9487 69.9312 0.0081888
51.8506 72.1455 2
54.0858 71.1327 0
53.0645 6.07216 3.9913
55.1042 7.14116 2
56.25 5.02411 4
58.3339 6.3199 2
57.0579 8.33668 0.0116379
60.3285 7.74928 0
66.0445 47.4122 0.0330735
67.2026 43.4664 0.0320693
64.5652 44.834 0.029335
65.4766 41.2023 0.0275099
67.8207 39.5113 0.0316062
70.1273 37.5216 0.0306166
67.9196 37.5221 2
65.7126 39.3661 2
65.0939 43.0141 2
63.6139 40.9167 2
63.8783 46.6991 2
62.6576 44.1929 2
65.82 37.5012 3.97266
63.7669 39.2599 3.97718
63.1788 42.532 3.97598
62.2442 40.6795 3.97707
61.8197 45.8916 3.97237
61.2546 43.654 3.97722
67.8593 35.5486 0.0316325
67.2495 31.6254 0.0322659
65.63 33.9331 0.0275056
64.5894 30.2044 0.0290707
60.7729 14.2305 0.0265606
60.6029 17.142 0.0341216
60.1929 19.8357 0.0363528
63.4771 26.4297 0.0308356
62.1311 28.8018 0.0258616
60.9445 25.3658 0.0288026
59.5785 22.2892 0.03398
58.8543 24.3593 0.0282843
57.9064 14.3473 0.0262058
55.3069 14.6705 0.0282031
54.037 9.13971 0.0188623
54.7846 12.0226 0.0255074
65.8043 35.6697 2
65.1084 32.1642 2
64.1691 34.2584 2
62.4456 30.6577 2
59.3036 15.6832 2
59.1045 18.3766 2
58.6813 20.8852 2
61.5349 27.0996 2
60.6832 29.1725 2
58.1617 23.1356 2
59.1808 25.8372 2
57.8225 24.7127 2
56.6684 15.7626 2
54.3658 16.0275 2
53.8054 13.6965 2
52.1121 8.15499 2
53.057 11.0246 2
63.9682 35.6368 3.97645
62.7792 33.0618 3.976
60.4181 30.6438 3.9766
59.3978 27.949 3.97559
57.9263 17.0051 3.96652
57.5727 25.7754 3.97632
57.6773 19.5048 3.96083
57.2639 21.8845 3.96323
57.0251 24.0001 3.96788
50.1123 7.28677 3.98649
51.2321 10.1309 3.97931
52.1687 12.8106 3.97658
55.5224 16.9988 3.9712
52.9707 15.2941 3.97133
53.7425 17.0128 3.97825
53.0429 68.9993 0.00828912
53.9663 66.0113 0.0150029
63.1198 48.6427 0.0315763
54.6825 63.2019 0.0221513
57.8763 60.8578 0.0261281
55.2059 60.5975 0.0263663
61.6991 52.5584 0.0335587
60.1576 49.988 0.0308973
58.0041 58.2447 0.0347562
58.0848 55.7879 0.0387758
59.2842 53.9246 0.0330319
52.0696 66.9992 2
52.9523 64.215 2
56.6389 59.474 2
53.6767 61.6124 2
54.2492 59.3012 2
60.8454 47.848 2
59.6197 52.0753 2
57.8638 49.5737 2
56.7493 56.9677 2
57.0513 54.0901 2
51.1676 65.1249 3.98337
52.044 62.5317 3.97832
55.4642 58.2307 3.97469
52.8261 60.114 3.97745
53.6233 58.4494 3.979
58.0912 46.803 3.97424
57.4447 51.7487 3.96735
56.0521 49.5048 3.97064
55.4294 55.7627 3.96336
55.2633 53.3452 3.96301
50.1083 67.8556 0.0131999
49.3363 65.9184 2
48.6176 64.118 3.98236
47.4624 66.5775 0.0164892
45.5575 67.0948 2
46.8917 64.731 2
46.3812 63.0458 3.98213
45.132 65.1909 3.98156
43.6307 67.4647 3.98375
41.86 69.8754 3.98728
43.9724 69.5887 2
44.3765 71.8617 3.99193
46.0553 69.1563 0.0126858
46.6096 71.3671 2
47.2057 73.7222 4
48.8028 70.7224 0.00807898
49.554 73.0099 2
51.8506 72.1454 0
50.9546 5.13259 3.99194
53.0654 6.07218 2
54.0858 3.86728 4
55.1028 7.14101 0.00987995
56.25 5.02406 2
58.3339 6.31992 0
63.8796 46.6996 0.0305577
65.0953 43.0145 0.0280134
62.6601 44.1936 0.025276
63.6164 40.9172 0.0229718
65.714 39.3663 0.0273157
67.9196 37.5221 0.0315893
65.8187 37.5012 2
63.7645 39.2597 2
63.1768 42.5314 2
62.2418 40.6789 2
61.8175 45.8908 2
61.2525 43.6531 2
63.8292 37.4561 3.9768
61.9628 39.3428 3.97713
61.0022 41.9314 3.97704
60.0456 44.7346 3.9768
65.8057 35.6696 0.0273783
65.1096 32.1638 0.0285373
64.1704 34.2581 0.0231387
62.4471 30.6572 0.0248559
59.3044 15.6827 0.0302412
59.1043 18.3767 0.0356793
58.6764 20.8851 0.0370524
61.5363 27.0988 0.027555
60.6843 29.1717 0.022712
59.1815 25.8361 0.0254321
58.1632 23.1342 0.03333
57.8228 24.7112 0.0262277
56.6685 15.7639 0.0276821
54.3655 16.0268 0.026574
53.8054 13.7016 0.0257611
52.1118 8.15613 0.0161873
53.0567 11.0261 0.0235301
63.9661 35.637 2
62.7775 33.0623 2
60.4165 30.6447 2
57.9254 17.0055 2
57.6804 19.5038 2
57.267 21.8852 2
59.3968 27.95 2
57.0244 24.0019 2
57.5722 25.7769 2
50.1126 7.28511 2
55.5228 16.9983 2
53.7425 17.0121 2
52.9709 15.2922 2
52.1694 12.8105 2
51.2325 10.1296 2
62.0004 35.3721 3.97711
60.055 32.7752 3.97704
58.3884 30.1224 3.97692
57.0769 27.4369 3.9769
56.6127 18.1838 3.96676
56.1067 25.1639 3.9738
56.2932 20.5615 3.95989
55.9634 22.926 3.96237
48.0567 6.52827 3.98847
49.3246 9.33584 3.9815
50.4315 12.0047 3.97631
51.3714 14.5182 3.97232
54.3913 17.9515 3.97325
52.3464 17.0762 3.96866
52.0696 66.9984 0.0135537
52.9526 64.2142 0.018467
60.8467 47.8488 0.0299972
53.6773 61.6123 0.0238771
56.6394 59.4729 0.0272316
54.2494 59.2992 0.0257917
59.6195 52.0759 0.0321305
57.8663 49.5749 0.0291675
56.7507 56.9635 0.0331398
57.0534 54.0913 0.0353232
51.1674 65.1256 2
52.0435 62.5325 2
55.4637 58.232 2
52.8258 60.1174 2
53.6229 58.4506 2
58.09 46.8019 2
57.4434 51.7476 2
56.0495 49.5037 2
55.4288 55.7633 2
55.2658 53.3455 2
50.3455 63.3763 3.98207
51.239 60.9238 3.97657
54.1926 57.2468 3.9751
52.2972 58.6077 3.9756
56.4014 44.1235 3.97751
55.2478 47.8386 3.97404
54.9208 51.3437 3.9658
53.938 54.5092 3.96433
49.3365 65.9182 0.0165125
48.6174 64.118 2
47.9609 62.4682 3.98175
45.5575 67.0942 0.016443
46.8917 64.7305 0.0181696
43.6308 67.4652 2
46.3813 63.0462 2
45.132 65.1915 2
45.9863 61.5768 3.984
44.7666 63.4447 3.98027
43.3562 65.4999 3.9813
41.663 67.6831 3.98355
39.702 70.022 3.98737
41.8599 69.876 2
42.1109 72.2064 3.99201
43.9725 69.5883 0.0124789
44.3769 71.8619 2
44.8159 74.2794 4
46.6093 71.3669 0.00803724
47.2057 73.7222 2
49.554 73.0099 0
48.7853 4.32306 3.99257
50.9552 5.13203 2
51.8506 2.85458 4
53.0645 6.07216 0.00870294
54.0858 3.86728 2
56.25 5.02411 0
61.8197 45.8916 0.0276263
63.1788 42.532 0.0240172
61.2546 43.654 0.0227826
62.2442 40.6795 0.0229257
63.7669 39.2599 0.0228163
65.82 37.5012 0.0273366
63.8267 37.456 2
61.9608 39.3428 2
61.0004 41.9308 2
60.0448 44.7337 2
61.799 37.4434 3.97735
59.9888 39.8258 3.97721
58.7105 42.8748 3.97688
63.9682 35.6368 0.02355
62.7792 33.0618 0.0240047
60.4181 30.6438 0.0233986
57.9263 17.0051 0.0334766
57.6773 19.5048 0.0391688
57.2639 21.8845 0.036771
59.3978 27.949 0.0244087
57.5727 25.7754 0.0236789
57.0251 24.0001 0.0321229
55.5224 16.9988 0.0288037
53.7425 17.0128 0.0217462
52.9707 15.2941 0.0286744
50.1123 7.28677 0.0135133
52.1687 12.8106 0.023418
51.2321 10.1309 0.0206917
61.9984 35.3726 2
60.0531 32.7755 2
58.3878 30.1232 2
56.6119 18.1842 2
56.2971 20.5589 2
55.9663 22.9276 2
57.0773 27.4383 2
56.1074 25.1658 2
48.0567 6.52708 2
49.325 9.33393 2
54.3919 17.9514 2
52.3463 17.0751 2
51.371 14.5134 2
50.4322 12.003 2
59.6309 35.1358 3.97713
57.6907 32.3141 3.9765
56.286 29.4025 3.97751
55.1936 26.6766 3.97738
55.3032 19.222 3.96094
54.7502 24.1292 3.96388
54.9038 21.6153 3.95975
45.9628 5.88311 3.98892
43.3742 7.47449 3.98588
47.3556 8.62615 3.98417
48.5993 11.3017 3.97823
49.7084 13.7571 3.97613
50.6221 16.1628 3.97538
53.0945 18.7005 3.96758
51.2795 18.099 3.9777
51.1676 65.1249 0.0166263
52.044 62.5317 0.0216758
58.0912 46.803 0.0257617
52.8261 60.114 0.0225531
55.4642 58.2307 0.0253111
53.6233 58.4494 0.0209954
57.4447 51.7487 0.0326496
56.0521 49.5048 0.0293558
55.4294 55.7627 0.0366432
55.2633 53.3452 0.0369861
50.3452 63.3765 2
51.2384 60.9241 2
54.1923 57.2483 2
52.2967 58.6087 2
56.4004 44.1226 2
55.2474 47.8378 2
54.9229 51.3437 2
53.9387 54.5107 2
49.5899 61.7387 3.98039
55.2237 41.6679 3.97574
50.5552 59.3107 3.97354
52.15 56.4646 3.97041
53.8438 45.4924 3.9749
53.1131 49.2697 3.96961
52.5567 52.8101 3.96171
48.6176 64.118 0.0176389
47.9608 62.4678 2
47.3263 61.0011 3.98529
43.6307 67.4647 0.0162544
45.132 65.1909 0.0184408
46.3812 63.0458 0.0178689
41.6632 67.6832 2
43.3562 65.5008 2
45.9865 61.5774 2
44.7667 63.4454 2
45.7624 60.621 3.98342
44.4827 61.8232 3.98083
43.146 63.7162 3.9796
41.5459 65.6372 3.98024
39.6325 67.762 3.98313
37.526 70.0467 3.98681
39.7019 70.0225 2
39.8176 72.4033 3.9918
41.86 69.8754 0.012723
42.1112 72.2068 2
42.3947 74.6792 4
44.3765 71.8617 0.00806868
44.8159 74.2794 2
47.2057 73.7222 0
43.852 5.36004 3.98889
46.5713 3.64752 3.9927
48.7856 4.32259 2
49.554 1.99015 4
50.9546 5.13259 0.00806029
51.8506 2.85453 2
54.0858 3.86728 0
60.0456 44.7346 0.0232003
61.0022 41.9314 0.0229618
61.9628 39.3428 0.0228656
63.8292 37.4561 0.0231956
61.7974 37.4435 2
59.9881 39.8261 2
58.7097 42.8737 2
59.4898 37.5652 3.97747
57.665 40.6251 3.97741
54.645 39.6846 3.97524
62.0004 35.3721 0.0228861
60.055 32.7752 0.02296
58.3884 30.1224 0.0230831
56.6127 18.1838 0.033237
56.2932 20.5615 0.0401081
55.9634 22.926 0.0376303
57.0769 27.4369 0.0230965
56.1067 25.1639 0.0261954
54.3913 17.9515 0.0267497
52.3464 17.0762 0.0313436
51.3714 14.5182 0.0276758
48.0567 6.52827 0.0115277
49.3246 9.33584 0.0185035
50.4315 12.0047 0.023692
59.6305 35.1354 2
45.9626 5.88239 2
43.3741 7.47365 2
57.6905 32.3146 2
56.2849 29.4038 2
55.3025 19.2227 2
54.9116 21.6153 2
54.7496 24.1313 2
55.1909 26.6789 2
47.3557 8.6241 2
48.5998 11.2995 2
53.0956 18.6995 2
51.2805 18.0994 2
50.6227 16.1626 2
49.7084 13.7556 2
57.0501 34.7798 3.9774
55.4046 31.5727 3.97687
54.2048 28.4905 3.97759
53.5569 25.5882 3.97596
53.9134 20.1813 3.96054
53.451 22.7833 3.95508
41.3994 7.08035 3.986
45.3604 7.99583 3.98654
42.8663 9.41786 3.98267
46.6669 10.6577 3.98128
47.7415 13.1129 3.97812
48.9222 15.4205 3.97294
49.9857 17.727 3.97462
51.6122 19.3772 3.97592
50.3455 63.3763 0.0179286
51.239 60.9238 0.0234263
56.4014 44.1235 0.0224937
55.2478 47.8386 0.0259628
52.2972 58.6077 0.0243976
54.1926 57.2468 0.0249033
54.9208 51.3437 0.0341979
53.938 54.5092 0.0356651
49.5893 61.7384 2
55.2208 41.6664 2
50.5548 59.3122 2
52.1497 56.4659 2
53.8454 45.4922 2
53.1215 49.2701 2
52.5567 52.8095 2
48.8419 60.1944 3.97835
52.063 42.5604 3.98118
49.7654 57.6038 3.96996
50.5186 54.3995 3.96186
51.5137 47.2004 3.97576
51.047 50.8966 3.95633
47.7266 43.6966 3.98815
47.9609 62.4682 0.0182536
47.3263 61.0007 2
46.6122 59.7884 3.98594
41.663 67.6831 0.0164519
43.3562 65.4999 0.0187025
44.7666 63.4447 0.0197337
45.9863 61.5768 0.0159968
39.6328 67.7627 2
41.5457 65.6369 2
45.7625 60.6216 2
43.1461 63.7171 2
44.4829 61.824 2
44.6192 60.2805 3.98447
42.9498 62.0697 3.97736
41.5997 63.8088 3.97949
39.6473 65.6037 3.97906
37.5634 67.7434 3.98224
31.6974 65.1232 3.98046
33.3925 67.4816 3.98201
35.3339 69.9569 3.98704
37.5259 70.0477 2
37.5095 72.4578 3.99189
39.702 70.022 0.012626
39.8179 72.4036 2
39.9526 74.9197 4
42.1109 72.2064 0.00798953
42.3947 74.6792 2
44.8159 74.2794 0
41.7365 4.96918 3.98908
43.8519 5.35917 2
44.3265 3.11069 3.99303
46.5714 3.64717 2
47.2057 1.27793 4
48.7853 4.32306 0.00742887
49.554 1.99013 2
51.8506 2.85458 0
58.7105 42.8748 0.0231229
59.9888 39.8258 0.0227872
61.799 37.4434 0.022645
59.4902 37.5657 2
57.6646 40.6255 2
54.6433 39.6862 2
56.4384 37.885 3.97716
49.0942 41.2669 3.98574
52.6584 39.3069 3.98358
39.4429 6.80419 3.98598
59.6309 35.1358 0.0228727
57.6907 32.3141 0.0234974
56.286 29.4025 0.0224869
55.3032 19.222 0.0390555
54.9038 21.6153 0.0402534
54.7502 24.1292 0.0361222
55.1936 26.6766 0.0226249
53.0945 18.7005 0.0324214
51.2795 18.099 0.0223017
50.6221 16.1628 0.0246153
45.9628 5.88311 0.0110835
49.7084 13.7571 0.0238711
47.3556 8.62615 0.0158281
48.5993 11.3017 0.0217671
43.3742 7.47449 0.014117
57.0497 34.7793 2
41.3994 7.07912 2
45.3602 7.99514 2
42.8661 9.41715 2
55.4074 31.5711 2
54.2052 28.4913 2
53.9147 20.1838 2
53.4506 22.7815 2
53.5553 25.59 2
46.6671 10.6543 2
47.7419 13.1097 2
51.6141 19.3777 2
49.9857 17.7249 2
48.9219 15.4212 2
54.4486 33.9777 3.9759
53.1455 30.5794 3.97753
52.2975 27.3072 3.9757
51.98 24.1962 3.97739
52.3142 21.1165 3.97305
41.0138 9.05193 3.98232
44.7255 9.99595 3.98469
42.468 10.9043 3.98645
46.0028 12.7362 3.97705
47.673 14.5979 3.97287
48.0928 17.0044 3.97259
49.7939 19.7233 3.97185
49.5899 61.7387 0.0196117
50.5552 59.3107 0.0264564
55.2237 41.6679 0.0242593
53.8438 45.4924 0.025097
53.1131 49.2697 0.0303869
52.15 56.4646 0.0295889
52.5567 52.8101 0.0382949
48.8414 60.1928 2
52.0776 42.5648 2
49.7647 57.6048 2
50.5182 54.4013 2
51.5175 47.2005 2
51.0476 50.8952 2
47.7369 43.7207 2
47.9716 58.7272 3.97884
49.6829 45.2042 3.97893
48.5515 55.897 3.97547
49.0204 52.5596 3.97759
49.4531 48.9869 3.9738
45.4944 39.8364 3.8802
45.96 42.5662 3.91053
46.1361 45.7292 3.98355
43.3034 41.0865 3.76594
41.799 41.9685 3.60008
47.3263 61.0011 0.014715
46.6118 59.7879 2
45.4579 58.7833 3.98322
39.6325 67.762 0.0168709
41.5459 65.6372 0.0197579
43.146 63.7162 0.0204009
44.4827 61.8232 0.0191732
45.7624 60.621 0.0165789
41.5997 63.8089 2
37.5636 67.7444 2
39.6472 65.6043 2
44.6195 60.2811 2
42.9499 62.0705 2
41.7529 62.4803 3.97853
42.4775 59.9649 3.98072
39.8938 63.5408 3.97716
37.6421 65.5017 3.97996
35.4636 67.6531 3.98227
33.5756 65.3351 3.97934
31.9592 63.2915 3.98011
29.8836 64.7151 3.98167
31.6972 65.1239 2
31.3772 67.192 3.98271
33.3926 67.4824 2
33.1572 69.7508 3.98693
35.3337 69.9577 2
35.1951 72.3722 3.99178
37.526 70.0467 0.0131942
37.5095 72.4584 2
37.5 75 4
39.8176 72.4033 0.00819595
39.9526 74.9197 2
42.3947 74.6792 0
39.6242 4.71675 3.98945
41.7365 4.96824 2
42.0629 2.71814 3.99328
43.852 5.36004 0.0111055
44.3266 3.11014 2
44.8158 0.721173 4
46.5713 3.64752 0.00730455
47.2057 1.27779 2
49.554 1.99015 0
57.665 40.6251 0.0225858
59.4898 37.5652 0.022533
54.645 39.6846 0.0247602
49.1171 41.2813 2
56.4395 37.8852 2
52.6574 39.2919 2
53.504 36.6312 3.97734
47.0187 40.3599 3.91646
50.0356 38.5233 3.9903
37.5169 6.67543 3.98588
39.4429 6.80279 2
39.2112 8.69494 3.98329
35.9427 8.49513 3.98395
57.0501 34.7798 0.0226048
55.4046 31.5727 0.0231253
54.2048 28.4905 0.0224111
53.9134 20.1813 0.03946
53.451 22.7833 0.0449186
53.5569 25.5882 0.0240388
51.6122 19.3772 0.0240811
49.9857 17.727 0.0253826
48.9222 15.4205 0.0270585
45.3604 7.99583 0.0134603
47.7415 13.1129 0.0218806
46.6669 10.6577 0.0187193
41.3994 7.08035 0.0139954
42.8663 9.41786 0.0173289
54.4454 33.9803 2
41.0139 9.0508 2
44.7247 9.99548 2
42.4678 10.9043 2
53.1427 30.5793 2
52.3059 27.308 2
52.318 21.1173 2
51.9813 24.1998 2
46.0027 12.7311 2
47.6729 14.5945 2
49.7961 19.7231 2
48.0918 17.0027 2
51.989 32.8909 3.98033
50.9416 29.2679 3.97558
50.5537 25.8288 3.97311
49.8672 22.3147 3.98346
40.5686 11.6117 3.98083
43.8573 11.9161 3.98011
45.7922 15.4364 3.98192
47.4854 19.3352 3.97713
45.8888 37.4828 3.87632
48.8419 60.1944 0.0216545
49.7654 57.6038 0.0300362
52.063 42.5604 0.01882
51.5137 47.2004 0.0242445
51.047 50.8966 0.043672
50.5186 54.3995 0.0381394
47.7266 43.6966 0.011848
47.9709 58.7289 2
49.6957 45.2144 2
48.5498 55.8995 2
49.0193 52.5638 2
49.4566 48.9838 2
45.5406 39.848 2
45.9852 42.5943 2
46.143 45.7373 2
43.3291 41.1156 2
41.8197 41.9867 2
46.8141 57.3293 3.98071
44.0549 39.376 3.76436
42.1519 40.8449 3.6515
47.7719 47.2016 3.9794
47.1003 54.2113 3.97055
47.4398 50.7121 3.96962
44.5456 47.3319 3.97657
44.6097 41.9052 3.85855
44.6124 44.464 3.92654
42.2188 42.5787 3.77974
40.7404 42.2886 3.63752
46.6122 59.7884 0.0140597
45.4583 58.7834 2
43.8625 57.6976 3.98113
37.5634 67.7434 0.0177603
39.6473 65.6037 0.020936
41.5997 63.8088 0.0205137
42.9498 62.0697 0.0226442
44.6192 60.2805 0.015532
35.4638 67.654 2
41.753 62.4808 2
39.8935 63.5413 2
37.6421 65.5026 2
42.4781 59.9654 2
40.6232 61.6343 3.98051
40.4397 58.1858 3.9796
37.8369 63.2018 3.97794
35.573 65.4241 3.97959
33.5755 65.3357 2
31.9589 63.2921 2
33.6285 63.3292 3.97839
30.3786 62.8512 3.98104
32.1239 61.9955 3.98387
26.8713 61.492 3.97844
28.0626 64.1436 3.98127
29.8834 64.7157 2
29.4067 66.7563 3.98341
31.6974 65.1232 0.0195383
31.3773 67.1927 2
31.0148 69.4159 3.98686
33.3925 67.4816 0.0179915
33.1571 69.7515 2
32.8923 72.1467 3.99186
35.3339 69.9569 0.0129553
35.1949 72.3727 2
35.0474 74.9194 4
37.5095 72.4578 0.00810728
37.5 75 2
39.9526 74.9197 0
35.6215 6.72657 3.98548
37.5237 4.61621 3.98956
39.6242 4.71554 2
39.7893 2.4747 3.99325
41.7365 4.96918 0.0109218
42.0629 2.7176 2
42.3946 0.32156 4
44.3265 3.11069 0.00696938
44.8159 0.72056 2
47.2057 1.27793 0
49.0942 41.2669 0.014261
56.4384 37.885 0.0228449
52.6584 39.3069 0.0164221
47.0405 40.359 2
50.0419 38.5115 2
53.5098 36.6374 2
50.824 35.5797 3.97593
47.6874 37.7558 3.93221
45.4967 35.15 3.87699
43.31 33.8994 3.7603
41.7993 33.0281 3.596
37.4584 8.5367 3.98417
37.5168 6.67424 2
39.4429 6.80419 0.0140217
39.2115 8.69329 2
38.9763 10.1297 3.98365
35.899 9.77697 3.98129
34.1518 8.82593 3.98269
35.9424 8.49359 2
54.4486 33.9777 0.0240966
53.1455 30.5794 0.0224687
52.2975 27.3072 0.0242966
52.3142 21.1165 0.0269521
51.98 24.1962 0.0226121
49.7939 19.7233 0.0281456
48.0928 17.0044 0.027407
47.673 14.5979 0.0271302
44.7255 9.99595 0.0153146
46.0028 12.7362 0.022945
41.0138 9.05193 0.0176819
42.468 10.9043 0.0135509
51.9956 32.8904 2
40.5695 11.6117 2
43.8562 11.9166 2
50.9602 29.268 2
50.5587 25.8311 2
49.8689 22.312 2
45.7906 15.4235 2
47.4871 19.3391 2
49.536 31.4907 3.98702
48.9768 27.5994 3.97506
49.2373 24.5052 3.97747
47.1463 22.0807 3.98389
38.3022 12.742 3.97784
42.0992 14.3067 3.97898
44.7877 18.522 3.97771
44.4092 37.491 3.77411
45.9603 37.4908 2
47.9716 58.7272 0.0211629
48.5515 55.897 0.0245262
49.6829 45.2042 0.0210743
49.4531 48.9869 0.0262027
49.0204 52.5596 0.0224092
45.4944 39.8364 0.119796
45.96 42.5662 0.0894723
46.1361 45.7292 0.0164472
43.3034 41.0865 0.234059
41.799 41.9685 0.39992
46.8126 57.3305 2
44.0916 39.3978 2
42.1458 40.8551 2
47.7771 47.2025 2
47.0983 54.2155 2
47.4425 50.7161 2
44.5583 47.3106 2
44.6357 41.93 2
44.6378 44.4835 2
42.2672 42.6113 2
40.7539 42.2884 2
45.3611 55.9171 3.98945
42.4769 39.2627 3.66337
40.6227 40.7314 3.75792
45.8879 48.8671 3.99107
45.4357 52.498 3.98314
43.2531 48.3374 3.9979
43.1853 45.9978 3.90812
43.351 43.6844 3.85619
40.8788 43.6854 3.761
39.2438 42.5754 3.65088
45.4579 58.7833 0.016777
43.8624 57.6988 2
42.0901 56.3043 3.98362
35.4636 67.6531 0.0177341
37.6421 65.5017 0.0200417
39.8938 63.5408 0.0228397
41.7529 62.4803 0.0214727
42.4775 59.9649 0.0192836
35.573 65.4252 2
40.6233 61.635 2
37.8364 63.2025 2
40.4399 58.1874 2
38.918 56.478 3.99068
38.2509 60.3162 3.97877
35.6067 63.195 3.9766
33.5756 65.3351 0.0206614
31.9592 63.2915 0.0198931
33.6284 63.33 2
30.3785 62.8517 2
32.1243 61.9963 2
28.6821 62.1968 3.9808
33.3456 61.5049 3.97997
31.0693 61.213 3.98031
27.5761 59.5856 3.98081
23.8022 59.0725 3.97874
25.0379 60.8649 3.97894
26.8717 61.4925 2
26.2299 63.4739 3.98017
28.0626 64.1438 2
27.4634 66.1805 3.98363
29.8836 64.7151 0.018334
29.4068 66.7567 2
28.9072 68.942 3.98667
31.3772 67.192 0.0172922
31.0146 69.4166 2
30.6147 71.7777 3.99163
33.1572 69.7508 0.0130709
32.8919 72.1471 2
32.6054 74.6784 4
35.1951 72.3722 0.00822341
35.0474 74.9197 2
37.5 75 0
33.7244 6.982 3.98474
35.4356 4.6865 3.98942
35.6214 6.72556 2
37.5149 2.38719 3.99326
37.5236 4.61536 2
39.6242 4.71675 0.0105479
39.7892 2.47403 2
39.9526 0.0806499 4
42.0629 2.71814 0.00672132
42.3947 0.320817 2
44.8158 0.721173 0
44.0661 35.6034 3.76245
42.1545 34.1445 3.64594
47.0187 40.3599 0.0835365
50.0356 38.5233 0.00970385
53.504 36.6312 0.0226596
47.6865 37.7546 2
50.8367 35.5749 2
45.534 35.1249 2
43.341 33.8684 2
41.8207 33.0086 2
47.8558 34.3055 3.95948
44.6112 33.0658 3.85249
42.2218 32.4171 3.77255
40.7423 32.7117 3.63437
37.3107 10.6343 3.981
37.4584 8.535 2
37.5169 6.67543 0.0141234
39.2112 8.69494 0.0167136
38.9774 10.1283 2
34.7548 10.3849 3.98133
35.8994 9.77427 2
32.3787 9.37358 3.98028
34.1509 8.8238 2
35.9427 8.49513 0.0160459
51.989 32.8909 0.0196733
50.9416 29.2679 0.0244191
50.5537 25.8288 0.0268941
49.8672 22.3147 0.0165411
47.4854 19.3352 0.0228651
45.7922 15.4364 0.0180791
43.8573 11.9161 0.0198915
40.5686 11.6117 0.0191702
49.5509 31.488 2
38.3023 12.7404 2
42.0999 14.3102 2
48.9847 27.6011 2
49.2416 24.5035 2
47.143 22.0732 2
44.788 18.5417 2
47.3765 29.5976 3.98378
46.9253 25.2506 3.97892
44.2627 21.4569 3.9784
36.5832 12.9415 3.97589
38.6829 14.8237 3.97578
41.7451 17.8831 3.97863
42.5978 37.4841 3.68042
44.4446 37.4902 2
45.8888 37.4828 0.12368
46.8141 57.3293 0.0192857
47.1003 54.2113 0.0294534
47.7719 47.2016 0.0206033
47.4398 50.7121 0.0303776
44.0549 39.376 0.235637
44.6097 41.9052 0.14145
44.6124 44.464 0.0734604
44.5456 47.3319 0.0234349
42.2188 42.5787 0.220263
42.1519 40.8449 0.348502
40.7404 42.2886 0.362482
45.3595 55.9166 2
42.4684 39.2628 2
40.621 40.7163 2
45.89 48.8751 2
45.4347 52.5045 2
43.2587 48.3554 2
43.2245 46.0283 2
43.388 43.7111 2
40.912 43.7298 2
39.2408 42.5754 2
43.6915 54.4105 3.99762
40.72 39.1363 3.77377
39.1108 40.7992 3.7524
43.5567 50.4016 4.0045
41.856 47.5399 3.94497
41.7615 45.0938 3.87166
39.3354 44.3599 3.76175
37.5061 42.6705 3.67578
43.8625 57.6976 0.0188737
42.09 56.3057 2
40.4019 54.8876 3.98203
35.573 65.4241 0.0204085
37.8369 63.2018 0.0220601
40.6232 61.6343 0.0194872
40.4397 58.1858 0.0203992
35.6064 63.1956 2
38.2512 60.317 2
38.9181 56.4786 2
37.9938 55.2086 3.99142
36.9337 57.6133 3.98451
35.3637 60.9007 3.97644
33.6285 63.3292 0.0216067
30.3786 62.8512 0.0189557
32.1239 61.9955 0.0161347
33.3463 61.5056 2
28.6823 62.1968 2
31.0699 61.2138 2
29.4077 60.2826 3.97861
32.3615 59.7348 3.98873
28.0379 58.367 3.99075
27.5772 59.586 2
25.3911 58.5867 3.97741
22.772 58.2264 3.96915
23.4058 60.3416 3.97928
23.803 59.0734 2
25.0385 60.8656 2
24.4333 62.7653 3.98027
26.8713 61.492 0.0215586
26.23 63.4746 2
25.5478 65.4896 3.98248
28.0626 64.1436 0.0187297
27.4634 66.1809 2
26.8367 68.3304 3.98668
29.4067 66.7563 0.016593
28.907 68.9422 2
28.3697 71.263 3.99163
31.0148 69.4159 0.0131442
30.6142 71.7779 2
30.1842 74.2788 4
32.8923 72.1467 0.00813633
32.6053 74.6792 2
35.0474 74.9194 0
31.7889 7.42213 3.98347
33.3481 4.92607 3.98883
33.724 6.98042 2
35.2451 2.46323 3.99316
35.4354 4.68589 2
35.6215 6.72657 0.0145173
37.5 0 4
37.5146 2.38673 2
37.5237 4.61621 0.0104368
39.7893 2.4747 0.00674943
39.9526 0.0802889 2
42.3946 0.32156 0
42.465 35.7107 3.6614
44.1034 35.5813 2
40.6278 34.2646 3.75647
42.1451 34.1342 2
47.6874 37.7558 0.0677907
50.824 35.5797 0.0240701
45.4967 35.15 0.123008
43.31 33.8994 0.239704
41.7993 33.0281 0.404004
47.8732 34.3037 2
44.6394 33.0471 2
42.275 32.3808 2
40.7571 32.7112 2
45.8882 31.6466 3.93101
43.3464 31.314 3.85706
40.8788 31.3151 3.76286
39.2434 32.4355 3.64956
35.6935 11.7821 3.9794
37.3124 10.6318 2
37.4584 8.5367 0.0158331
38.9763 10.1297 0.0163532
33.0996 11.2241 3.97677
34.7543 10.3813 2
35.899 9.77697 0.0187144
30.4839 10.0236 3.97993
32.3779 9.37269 2
34.1518 8.82593 0.0173135
49.536 31.4907 0.0129812
48.9768 27.5994 0.0249411
49.2373 24.5052 0.0225291
47.1463 22.0807 0.016114
44.7877 18.522 0.022295
42.0992 14.3067 0.0210243
38.3022 12.742 0.0221627
36.5822 12.9351 2
47.3908 29.5715 2
38.6816 14.8148 2
41.7426 17.8803 2
46.933 25.2505 2
44.2583 21.442 2
45.2623 27.725 4.00272
43.6953 24.1723 4.00991
41.3228 20.8469 3.97987
35.7738 14.7765 3.97728
38.6818 17.6266 3.97853
40.7715 37.4774 3.78475
42.596 37.4866 2
44.4092 37.491 0.225891
45.3611 55.9171 0.0105474
45.4357 52.498 0.016864
45.8879 48.8671 0.00893122
42.4769 39.2627 0.336628
43.351 43.6844 0.143808
43.1853 45.9978 0.0918837
43.2531 48.3374 0.00209975
40.8788 43.6854 0.239002
40.6227 40.7314 0.242085
39.2438 42.5754 0.349117
43.6887 54.41 2
40.7057 39.1311 2
39.1132 40.782 2
43.5561 50.4186 2
41.8471 47.562 2
41.7842 45.1276 2
37.5032 42.6745 2
39.3518 44.4004 2
41.8426 52.9453 3.9951
39.1288 39.149 3.77299
37.5062 40.8488 3.76746
35.7708 42.583 3.65235
40.8551 49.5939 3.99695
39.7942 45.9243 3.84814
37.5043 44.5911 3.76159
42.0901 56.3043 0.0163831
40.3986 54.8987 2
38.7207 53.7658 3.99652
35.6067 63.195 0.023403
38.2509 60.3162 0.0212326
38.918 56.478 0.00932351
35.364 60.9002 2
36.9345 57.6143 2
37.9928 55.1983 2
36.3242 55.2852 3.99865
34.4899 58.5061 3.98583
33.3456 61.5049 0.0200327
28.6821 62.1968 0.0192006
31.0693 61.213 0.0196928
32.3623 59.7362 2
29.4087 60.2824 2
30.3154 57.811 3.98414
28.0391 58.3673 2
26.9739 56.8202 3.97532
27.5761 59.5856 0.0191874
25.3923 58.5876 2
23.8682 56.7869 3.96206
21.355 57.3783 3.96757
22.0021 59.6108 3.97696
22.7726 58.2281 2
22.7384 62.0153 3.97802
23.4064 60.3423 2
23.8022 59.0725 0.0212575
25.0379 60.8649 0.0210647
24.4336 62.766 2
23.6821 64.7068 3.98181
26.2299 63.4739 0.0198263
25.5478 65.4906 2
24.8089 67.5915 3.98626
27.4634 66.1805 0.016366
26.8366 68.3311 2
26.1648 70.6037 3.99165
28.9072 68.942 0.0133253
28.3692 71.263 2
27.7943 73.7221 4
30.6147 71.7777 0.00836823
30.1841 74.2794 2
32.6054 74.6784 0
29.8116 7.9969 3.98238
31.2535 5.33308 3.9879
31.7885 7.42102 2
32.9809 2.70152 3.99285
33.3477 4.92497 2
33.7244 6.982 0.0152591
35.0474 0.080333 4
35.2448 2.46295 2
35.4356 4.6865 0.0105795
37.5 0 2
37.5149 2.38719 0.0067363
39.9526 0.0806499 0
40.726 35.8333 3.77121
42.4578 35.7138 2
44.0661 35.6034 0.237551
28.5444 10.6989 3.9788
39.106 34.2102 3.75182
40.6201 34.2796 2
42.1545 34.1445 0.354062
47.8558 34.3055 0.0405206
44.6112 33.0658 0.14751
42.2218 32.4171 0.227453
40.7423 32.7117 0.36563
45.9177 31.6282 2
43.3818 31.282 2
40.9159 31.2692 2
39.2462 32.4364 2
44.1628 29.8428 3.9252
41.7557 29.905 3.8704
39.3396 30.6452 3.76069
37.509 32.3491 3.67553
34.0946 12.9457 3.97556
35.693 11.7758 2
37.3107 10.6343 0.019003
31.1881 11.9943 3.97789
33.0996 11.2229 2
34.7548 10.3849 0.0186727
30.4824 10.0208 2
32.3787 9.37358 0.0197188
47.3765 29.5976 0.0162189
46.9253 25.2506 0.0210828
36.5832 12.9415 0.0241117
44.2627 21.4569 0.0215984
41.7451 17.8831 0.0213654
38.6829 14.8237 0.0242187
35.7745 14.7822 2
45.2673 27.7244 2
38.6793 17.628 2
41.3178 20.8406 2
43.6991 24.1638 2
33.6112 15.8945 3.97719
42.8788 26.5767 3.9925
40.8563 23.4166 4.00684
38.4118 20.4047 3.98495
35.8524 17.5303 3.9797
39.1336 37.4894 3.79658
40.7581 37.478 2
42.5978 37.4841 0.319576
43.6915 54.4105 0.00238104
43.5567 50.4016 -0.0045033
40.72 39.1363 0.226234
41.7615 45.0938 0.128336
41.856 47.5399 0.0550329
39.3354 44.3599 0.238251
39.1108 40.7992 0.247603
37.5061 42.6705 0.324217
41.8391 52.9429 2
39.1196 39.1365 2
37.5054 40.8272 2
40.857 49.6097 2
35.7669 42.5828 2
39.813 45.9654 2
37.4971 44.6265 2
39.783 51.806 4.00098
37.5025 39.1588 3.80121
35.9036 40.8122 3.75297
34.2702 42.301 3.63508
35.6729 44.3718 3.75795
38.668 48.5697 3.95926
37.5176 46.2164 3.86612
40.4019 54.8876 0.0179698
38.7207 53.7589 2
36.746 53.1018 3.99839
35.3637 60.9007 0.0235622
36.9337 57.6133 0.0154866
37.9938 55.2086 0.00858233
34.4903 58.5051 2
36.3243 55.287 2
33.2484 55.4722 3.99348
32.3615 59.7348 0.0112709
29.4077 60.2826 0.0213883
30.3168 57.8108 2
28.7361 55.3074 3.9794
28.0379 58.367 0.00924856
26.9748 56.8208 2
25.3613 55.1254 3.96778
21.8489 55.3265 3.96402
25.3911 58.5867 0.0225895
23.8685 56.7895 2
20.2415 57.0074 3.97039
20.657 58.762 3.97151
21.3552 57.3798 2
21.1709 61.1613 3.97697
22.0027 59.6117 2
22.772 58.2264 0.0308504
21.896 63.8338 3.98048
22.7387 62.016 2
23.4058 60.3416 0.0207239
24.4333 62.7653 0.0197335
23.6822 64.7075 2
22.8373 66.7345 3.98522
25.5478 65.4896 0.017517
24.8089 67.5925 2
24.009 69.8048 3.99171
26.8367 68.3304 0.0133167
26.1643 70.6039 2
25.446 73.0099 4
28.3697 71.263 0.00837017
27.7943 73.7222 2
30.1842 74.2788 0
27.8215 8.65649 3.98205
29.1557 5.87943 3.98669
29.8108 7.99469 2
30.7263 3.09855 3.99257
31.253 5.33211 2
31.7889 7.42213 0.0165331
32.6053 0.320823 4
32.9805 2.701 2
33.3481 4.92607 0.0111747
35.0474 0.0802903 2
35.2451 2.46323 0.00684297
37.5 0 0
39.1267 35.842 3.77419
40.7088 35.8383 2
42.465 35.7107 0.338599
28.5432 10.6978 2
26.6229 11.3951 3.97871
29.2272 12.6501 3.97889
37.5019 34.1728 3.76616
39.1089 34.2288 2
40.6278 34.2646 0.243534
45.8882 31.6466 0.0689881
43.3464 31.314 0.142939
40.8788 31.3151 0.237135
39.2434 32.4355 0.350442
44.1682 29.8314 2
41.7752 29.8755 2
39.3501 30.6043 2
37.5108 32.3445 2
42.2078 28.51 3.89574
39.794 29.0713 3.86889
37.5107 30.4239 3.76069
35.7756 32.4365 3.65075
31.918 14.4945 3.97752
34.0953 12.9461 2
35.6935 11.7821 0.0206013
31.1871 11.9902 2
33.0996 11.2241 0.0232342
30.4839 10.0236 0.0200714
45.2623 27.725 -0.00272017
43.6953 24.1723 -0.0099129
35.7738 14.7765 0.0227185
41.3228 20.8469 0.0201284
38.6818 17.6266 0.0214671
33.6095 15.8897 2
35.8488 17.533 2
42.888 26.5785 2
38.4086 20.4044 2
40.8485 23.4019 2
33.5558 17.4045 3.97856
40.3143 25.7863 3.98082
38.0655 23.081 3.99891
35.5835 20.1171 3.98309
37.5009 37.4998 3.81954
39.125 37.4882 2
40.7715 37.4774 0.215245
41.8426 52.9453 0.00490041
40.8551 49.5939 0.00304726
39.1288 39.149 0.227009
39.7942 45.9243 0.151855
37.5043 44.5911 0.238406
37.5062 40.8488 0.23254
35.7708 42.583 0.347651
39.7823 51.8088 2
37.5031 39.1458 2
35.9009 40.7962 2
38.6803 48.6127 2
34.2579 42.3008 2
35.6548 44.4141 2
37.5195 46.2586 2
37.6602 50.8636 4.00088
35.8816 39.1665 3.77411
34.3906 40.7529 3.75719
33.2085 41.9812 3.59912
34.1204 43.6878 3.76164
35.1934 45.9229 3.86154
36.917 48.1904 3.92774
38.7207 53.7658 0.0034767
36.7419 53.1039 2
34.4035 52.4119 3.99657
34.4899 58.5061 0.0141656
36.3242 55.2852 0.00135269
33.2492 55.4764 2
30.5693 53.3342 3.98513
30.3154 57.811 0.0158627
28.7368 55.3085 2
26.9587 53.4205 3.97195
26.9739 56.8202 0.0246788
25.3616 55.1294 2
23.6584 53.455 3.95845
20.5688 53.1891 3.96152
19.9656 55.8089 3.96493
21.8475 55.328 2
23.8682 56.7869 0.0379415
19.4539 57.8689 3.97073
20.2412 57.0088 2
19.7126 60.1878 3.9752
20.6572 58.7625 2
21.355 57.3783 0.0324293
20.2093 62.8533 3.97729
21.1715 61.1632 2
22.0021 59.6108 0.0230412
20.9387 65.7631 3.98406
21.8962 63.8346 2
22.7384 62.0153 0.0219819
23.6821 64.7068 0.0181921
22.8373 66.7351 2
21.9115 68.8719 3.99135
24.8089 67.5915 0.0137403
24.0083 69.805 2
23.1494 72.1454 4
26.1648 70.6037 0.00834855
25.446 73.0099 2
27.7943 73.7221 0
25.8606 9.38542 3.98104
27.0704 6.54347 3.98562
27.8204 8.65552 2
28.4886 3.64459 3.992
29.155 5.87802 2
29.8116 7.9969 0.0176189
30.1841 0.720592 4
30.7256 3.09815 2
31.2535 5.33308 0.0121037
32.6053 0.320817 2
32.9809 2.70152 0.00715003
35.0474 0.080333 0
37.5017 35.8471 3.80012
39.1144 35.8514 2
40.726 35.8333 0.228788
24.7779 12.0809 3.97843
23.754 14.3708 3.9765
28.5444 10.6989 0.0212012
26.6219 11.3949 2
29.2262 12.649 2
27.2935 13.3835 3.97819
29.7842 14.2123 3.97852
35.8987 34.21 3.75135
37.5038 34.194 2
39.106 34.2102 0.248184
37.509 32.3491 0.324472
44.1628 29.8428 0.0747998
41.7557 29.905 0.129599
39.3396 30.6452 0.239306
42.2286 28.4785 2
39.8066 29.0329 2
37.5144 30.3859 2
35.7747 32.4364 2
39.9743 27.7109 3.90195
37.4993 28.7909 3.86564
35.679 30.6573 3.76408
34.28 32.7181 3.63491
30.9316 16.8559 3.97834
31.9169 14.4875 2
34.0946 12.9457 0.0244367
31.1881 11.9943 0.0221115
42.8788 26.5767 0.00750398
40.8563 23.4166 -0.00683533
33.6112 15.8945 0.0228138
35.8524 17.5303 0.0203025
38.4118 20.4047 0.0150496
33.551 17.4165 2
35.5835 20.1202 2
40.3249 25.7712 2
38.0531 23.0692 2
32.8706 19.8088 3.9901
37.7694 25.3871 3.99312
35.1944 22.7932 3.99461
35.8686 37.5038 3.79766
37.5006 37.4999 2
39.1336 37.4894 0.203424
39.783 51.806 -0.00097698
38.668 48.5697 0.0407412
37.5025 39.1588 0.198788
37.5176 46.2164 0.133883
35.6729 44.3718 0.242049
35.9036 40.8122 0.247033
34.2702 42.301 0.364921
37.6486 50.8854 2
35.8937 39.1547 2
34.3922 40.7395 2
36.8941 48.2344 2
33.1871 41.9987 2
34.0928 43.7306 2
35.1781 45.9569 2
35.5165 50.0324 3.99061
34.2927 39.1666 3.77332
32.8517 40.863 3.64839
32.7854 42.5936 3.77502
33.2528 45.0978 3.86742
34.3574 47.2958 3.90251
36.746 53.1018 0.00161103
34.397 52.4186 2
32.0914 51.1493 4.01297
33.2484 55.4722 0.00651981
30.5696 53.338 2
28.5232 51.5554 3.985
28.7361 55.3074 0.0206028
26.9584 53.4239 2
25.1968 51.7065 3.95562
25.3613 55.1254 0.0322187
23.6577 53.4577 2
22.1036 51.7621 3.95405
19.3551 51.5934 3.96209
18.9823 54.2803 3.96263
20.5682 53.1883 2
18.4702 56.7021 3.96707
19.9645 55.8103 2
21.8489 55.3265 0.0359836
18.3783 59.0912 3.96915
19.4536 57.8698 2
20.2415 57.0074 0.0296121
18.6222 61.7545 3.97436
19.7135 60.1891 2
20.657 58.762 0.0284921
19.1278 64.6723 3.98262
20.2094 62.8546 2
21.1709 61.1613 0.0230312
19.8858 67.8085 3.9912
20.9385 65.7638 2
21.896 63.8338 0.0195208
22.8373 66.7345 0.0147776
21.9108 68.8717 2
20.9142 71.1327 4
24.009 69.8048 0.00829346
23.1494 72.1455 2
25.446 73.0099 0
23.0975 12.7967 3.97781
23.9732 10.174 3.97999
25.024 7.3142 3.98456
25.8597 9.38487 2
26.2803 4.32868 3.99146
27.0696 6.54274 2
27.8215 8.65649 0.0179503
27.7943 1.27781 4
28.4876 3.64418 2
29.1557 5.87943 0.0133085
30.1841 0.720551 2
30.7263 3.09855 0.00743207
32.6053 0.320823 0
35.8718 35.8448 3.7712
37.5029 35.8607 2
39.1267 35.842 0.225812
24.777 12.0795 2
23.7545 14.3716 2
22.4836 15.0488 3.97856
25.3599 13.9193 3.97643
24.0318 15.6344 3.97961
26.6229 11.3951 0.0212926
29.2272 12.6501 0.0211109
27.2935 13.3837 2
29.7822 14.2105 2
28.3629 15.9875 3.97807
34.3913 34.2732 3.75599
35.8955 34.2274 2
37.5019 34.1728 0.233839
35.7756 32.4365 0.349255
37.5107 30.4239 0.239313
42.2078 28.51 0.104256
39.794 29.0713 0.131111
39.9912 27.6792 2
37.5 28.751 2
35.663 30.6114 2
34.2635 32.7203 2
37.5731 27.4271 3.91287
35.2035 29.0876 3.86762
34.1293 31.3294 3.76162
33.2228 33.0391 3.59805
30.2179 19.3751 3.98094
30.9293 16.8485 2
31.918 14.4945 0.0224805
40.3143 25.7863 0.0191791
38.0655 23.081 0.00109271
33.5558 17.4045 0.0214384
35.5835 20.1171 0.0169142
32.868 19.8215 2
35.188 22.7817 2
37.7735 25.3741 2
32.3229 22.5108 3.99637
35.0251 25.3443 4.00044
34.2348 37.5125 3.78577
35.8774 37.5048 2
37.5009 37.4998 0.18046
37.6602 50.8636 -0.000875625
36.917 48.1904 0.072263
35.8816 39.1665 0.225893
35.1934 45.9229 0.138463
34.1204 43.6878 0.238361
34.3906 40.7529 0.242809
33.2085 41.9812 0.400875
35.5043 50.0376 2
34.3095 39.1613 2
32.8564 40.8708 2
34.3506 47.3368 2
32.747 42.6258 2
33.2352 45.1286 2
33.3393 49.0442 3.98153
32.5322 39.2904 3.66389
31.6918 41.1038 3.76339
31.6527 43.6935 3.85844
32.4289 46.2426 3.90152
34.4035 52.4119 0.00342721
32.0927 51.1592 2
30.0066 49.6873 3.99258
30.5693 53.3342 0.0148746
28.5219 51.5531 2
26.6637 49.9331 3.97013
26.9587 53.4205 0.0280501
25.1955 51.7046 2
23.5152 50.133 3.96375
23.6584 53.455 0.0415495
22.1028 51.7603 2
20.6493 50.2632 3.96475
18.1633 50.2875 3.96789
17.9528 52.757 3.9641
19.3535 51.5928 2
17.4773 55.3175 3.96261
18.9787 54.2805 2
20.5688 53.1891 0.038476
17.149 57.854 3.96602
18.4696 56.7024 2
19.9656 55.8089 0.0350705
17.1409 60.5315 3.97209
18.3784 59.0924 2
19.4539 57.8689 0.0292709
17.4091 63.4631 3.97816
18.6226 61.7552 2
19.7126 60.1878 0.0247965
17.9423 66.6169 3.9902
19.1276 64.6732 2
20.2093 62.8533 0.0227131
18.75 69.9759 4
19.8849 67.8082 2
20.9387 65.7631 0.015937
21.9115 68.8719 0.00865064
20.9142 71.1327 2
23.1494 72.1454 0
21.5891 13.6188 3.97751
22.1912 11.0344 3.97889
23.0974 12.7974 2
23.0418 8.18071 3.98356
23.9722 10.1727 2
24.118 5.14349 3.99091
25.0232 7.31352 2
25.8606 9.38542 0.0189642
25.446 1.99014 4
26.2792 4.3287 2
27.0704 6.54347 0.0143848
27.7943 1.27778 2
28.4886 3.64459 0.00800431
30.1841 0.720592 0
34.2883 35.8566 3.77342
35.8823 35.8569 2
37.5017 35.8471 0.199882
21.3118 15.8463 3.98113
24.7779 12.0809 0.0215743
23.754 14.3708 0.023502
25.3599 13.9173 2
22.4844 15.049 2
24.0322 15.6365 2
23.2736 16.2651 3.97526
25.388 16.1051 3.97918
27.2935 13.3835 0.02181
29.7842 14.2123 0.0214786
28.3603 15.9914 2
27.4494 18.8275 3.97914
32.8572 34.1594 3.64953
34.3963 34.2886 2
35.8987 34.21 0.248647
34.28 32.7181 0.365091
35.679 30.6573 0.235921
37.4993 28.7909 0.13436
39.9743 27.7109 0.0980493
37.5764 27.3903 2
33.2006 33.0218 2
35.1964 29.0419 2
34.0923 31.2802 2
35.1002 27.5402 3.91149
33.2479 29.9176 3.86553
32.7996 32.42 3.76143
29.6143 21.9748 3.99592
30.2164 19.3874 2
30.9316 16.8559 0.0216602
37.7694 25.3871 0.00688335
35.1944 22.7932 0.00539266
32.8706 19.8088 0.00989996
32.3224 22.5014 2
35.0464 25.3321 2
31.8163 25.7392 4.00773
32.3943 37.5135 3.68307
34.253 37.5119 2
35.8686 37.5038 0.202342
35.5165 50.0324 0.00938966
34.3574 47.2958 0.0974922
34.2927 39.1666 0.226684
33.2528 45.0978 0.132583
32.7854 42.5936 0.224979
32.8517 40.863 0.35161
33.3295 49.0443 2
32.5465 39.2896 2
31.6582 41.131 2
32.3961 46.2758 2
31.6199 43.7218 2
31.3313 47.884 3.98425
30.9413 39.3997 3.7641
30.3896 41.9382 3.85471
30.684 44.8487 3.92258
32.0914 51.1493 -0.0129698
30.006 49.6983 2
28.094 48.1185 3.95954
28.5232 51.5554 0.0150031
26.6627 49.9312 2
24.8739 48.4004 3.9722
25.1968 51.7065 0.0443775
23.5148 50.131 2
21.8975 48.7238 3.96981
22.1036 51.7621 0.0459461
20.6472 50.2621 2
19.24 49.0423 3.97201
17.0569 49.2933 3.97319
16.9039 51.3728 3.96699
18.1655 50.2862 2
16.4561 53.8452 3.96446
17.9508 52.7568 2
19.3551 51.5934 0.0379087
15.9946 56.4586 3.96499
17.4743 55.3181 2
18.9823 54.2803 0.0373734
15.7575 59.1946 3.96865
17.1491 57.8546 2
18.4702 56.7021 0.0329272
15.7908 62.1289 3.97306
17.1412 60.5332 2
18.3783 59.0912 0.030846
16.0895 65.2993 3.98898
17.4087 63.4646 2
18.6222 61.7545 0.0256422
16.6661 68.6801 4
17.9412 66.6164 2
19.1278 64.6723 0.0173801
18.75 69.9759 2
19.8858 67.8085 0.0087991
20.9142 71.1327 0
20.2228 14.6104 3.97603
21.5893 13.6189 2
20.5308 12.006 3.97813
21.1445 9.15114 3.98272
22.1908 11.0345 2
23.0975 12.7967 0.0221908
22.0171 6.08269 3.9903
23.0409 8.17971 2
23.9732 10.174 0.0200097
23.1494 2.85457 4
24.1166 5.14364 2
25.024 7.3142 0.0154431
25.446 1.99012 2
26.2803 4.32868 0.00853543
27.7943 1.27781 0
32.5228 35.7345 3.66161
34.3061 35.8632 2
35.8718 35.8448 0.228803
21.3126 15.8456 2
20.3136 16.9786 3.97988
22.1059 16.652 3.97206
25.3599 13.9193 0.0235695
22.4836 15.0488 0.0214371
24.0318 15.6344 0.0203922
25.3875 16.104 2
23.2742 16.2657 2
24.2155 18.4855 3.97336
27.0552 21.4974 3.99233
28.3629 15.9875 0.0219336
27.4498 18.8258 2
31.7072 33.9271 3.76015
32.8649 34.148 2
34.3913 34.2732 0.244012
33.2228 33.0391 0.40195
34.1293 31.3294 0.238376
35.2035 29.0876 0.132376
37.5731 27.4271 0.0871335
35.1005 27.4985 2
32.7305 32.3878 2
33.2333 29.8978 2
32.6854 28.2446 3.92235
31.6522 31.3345 3.85835
28.9264 24.4587 3.98266
29.6086 21.9858 2
30.2179 19.3751 0.0190572
35.0251 25.3443 -0.000435904
32.3229 22.5108 0.00362514
31.817 25.7167 2
29.8331 27.3918 3.97579
30.5795 37.5109 3.77254
32.4064 37.5124 2
34.2348 37.5125 0.214234
33.3393 49.0442 0.0184682
32.4289 46.2426 0.09848
32.5322 39.2904 0.336113
31.6527 43.6935 0.141562
31.6918 41.1038 0.23661
31.3285 47.8887 2
30.8963 39.4222 2
30.3622 41.9546 2
30.6594 44.8728 2
29.4661 46.4914 3.99994
29.4957 39.8539 3.87881
29.0935 43.0829 3.92288
30.0066 49.6873 0.00742315
28.0909 48.1146 2
26.2345 46.5792 3.97639
26.6637 49.9331 0.0298694
24.8733 48.3979 2
23.104 46.9996 3.97493
23.5152 50.133 0.0362489
21.8958 48.7227 2
20.217 47.5608 3.97718
20.6493 50.2632 0.0352491
19.2417 49.0408 2
17.8612 48.1353 3.97639
16.2948 48.6488 3.97614
17.0584 49.2924 2
15.9841 50.1376 3.97066
15.4648 52.3895 3.96644
16.9049 51.372 2
18.1633 50.2875 0.0321147
14.9008 54.9602 3.96425
16.4566 53.8449 2
17.9528 52.757 0.0358995
14.4701 57.7258 3.96607
15.9952 56.4586 2
17.4773 55.3175 0.0373901
14.2701 60.683 3.972
15.758 59.1956 2
17.149 57.854 0.0339764
14.3348 63.8579 3.98525
15.7907 62.1303 2
17.1409 60.5315 0.0279055
14.6715 67.2507 4
16.0878 65.2984 2
17.4091 63.4631 0.0218437
16.6661 68.6801 2
17.9423 66.6169 0.00979907
18.75 69.9759 0
18.9387 15.7971 3.97734
20.2232 14.61 2
18.9814 13.1185 3.97647
21.5891 13.6188 0.0224873
20.5307 12.0059 2
19.3439 10.2401 3.98176
19.9916 7.14739 3.98973
21.1439 9.15104 2
22.1912 11.0344 0.0211131
20.9142 3.86727 4
22.0153 6.08302 2
23.0418 8.18071 0.0164406
23.1494 2.85451 2
24.118 5.14349 0.00908662
25.446 1.99014 0
30.9601 35.6323 3.76424
32.5334 35.7364 2
34.2883 35.8566 0.22658
21.3118 15.8463 0.0188719
22.1065 16.6522 2
20.3142 16.9771 2
19.2655 18.4284 3.97186
21.7935 17.8739 3.98015
25.388 16.1051 0.0208187
23.2736 16.2651 0.0247373
24.2149 18.4874 2
22.3142 19.9265 3.96765
24.637 21.3752 3.988
26.5353 23.7654 3.97253
27.054 21.4925 2
27.4494 18.8275 0.0208574
30.4223 33.0982 3.86782
31.6813 33.8885 2
32.8572 34.1594 0.350466
32.7996 32.42 0.238565
33.2479 29.9176 0.134466
35.1002 27.5402 0.0885135
32.6433 28.2156 2
31.6131 31.2982 2
30.3688 29.6552 3.94321
28.0827 26.6027 3.98963
28.9202 24.4745 2
29.6143 21.9748 0.00408153
31.8163 25.7392 -0.00772618
29.8271 27.3632 2
29.0973 37.5192 3.87709
30.5505 37.5116 2
32.3943 37.5135 0.31693
31.3313 47.884 0.0157512
30.684 44.8487 0.0774207
30.9413 39.3997 0.235904
30.3896 41.9382 0.145292
29.4649 46.5043 2
29.4597 39.8735 2
29.0642 43.1129 2
27.6651 44.7989 3.97224
27.2662 40.5941 3.94893
28.094 48.1185 0.0404571
26.2303 46.5805 2
24.3668 45.1202 3.97603
24.8739 48.4004 0.0277999
23.1028 46.9993 2
21.2022 45.8274 3.97802
21.8975 48.7238 0.0301864
20.2158 47.5594 2
18.5495 46.6871 3.97795
19.24 49.0423 0.0279886
17.8624 48.1342 2
16.5059 47.6772 3.97712
16.2962 48.648 2
15.329 48.9853 3.97411
17.0569 49.2933 0.0268087
15.9859 50.1368 2
14.5847 50.9598 3.96876
13.8739 53.4177 3.96554
15.4659 52.389 2
16.9039 51.3728 0.0330073
13.2654 56.1576 3.96628
14.9002 54.9603 2
16.4561 53.8452 0.0355404
12.854 59.1171 3.97046
14.4709 57.7258 2
15.9946 56.4586 0.0350098
12.6806 62.2999 3.9822
14.2704 60.6833 2
15.7575 59.1946 0.0313548
12.7746 65.6939 4
14.3328 63.8558 2
15.7908 62.1289 0.0269359
14.6714 67.2507 2
16.0895 65.2993 0.0110242
16.6661 68.6801 0
17.68 17.1746 3.97093
18.9391 15.7964 2
17.5141 14.384 3.97558
20.2228 14.6104 0.02397
18.9815 13.1184 2
17.6396 11.46 3.98021
20.5308 12.006 0.0218739
19.3433 10.24 2
18.0516 8.34047 3.98923
18.75 5.0241 4
19.9898 7.14846 2
21.1445 9.15114 0.0172834
20.9142 3.86727 2
22.0171 6.08269 0.00969731
23.1494 2.85457 0
29.5133 35.1723 3.88097
30.9081 35.6082 2
32.5228 35.7345 0.338394
22.1059 16.652 0.0279378
20.3136 16.9786 0.0201218
21.7941 17.8723 2
19.2657 18.4269 2
18.0259 19.9671 3.95962
20.908 19.4045 3.9719
24.2155 18.4855 0.0266434
22.3135 19.9263 2
24.6361 21.3771 2
22.4228 21.7594 3.97784
24.8035 23.2071 3.97484
25.6721 25.9978 3.9777
26.5368 23.7622 2
27.0552 21.4974 0.007675
28.8011 32.4271 3.92663
30.3855 33.0749 2
31.7072 33.9271 0.239851
31.6522 31.3345 0.141654
32.6854 28.2446 0.0776533
30.3607 29.656 2
27.3241 29.1917 4.00691
28.0728 26.6146 2
28.9264 24.4587 0.017338
29.8331 27.3918 0.0242111
27.3762 37.3682 3.9292
29.0374 37.5076 2
30.5795 37.5109 0.227461
29.4661 46.4914 5.61295e-05
29.0935 43.0829 0.0771222
29.4957 39.8539 0.121194
27.6548 44.8257 2
27.2465 40.5967 2
25.6952 43.106 3.98833
24.5228 39.4539 3.97521
26.2345 46.5792 0.0236051
24.3581 45.1212 2
22.2535 43.877 3.97771
23.104 46.9996 0.0250749
21.1995 45.8268 2
19.2594 44.9199 3.97753
20.217 47.5608 0.0228159
18.5498 46.6859 2
16.8316 46.1736 3.97703
17.8612 48.1353 0.0236113
16.5073 47.6764 2
15.0782 47.6403 3.97552
16.2948 48.6488 0.02386
15.3308 48.9846 2
13.8882 49.5226 3.97098
15.9841 50.1376 0.0293359
14.5856 50.9593 2
12.9465 51.8584 3.96693
12.1539 54.5196 3.96587
13.8739 53.4175 2
15.4648 52.3895 0.0335615
11.5396 57.4517 3.97021
13.2659 56.1576 2
14.9008 54.9602 0.0357456
11.1355 60.6255 3.97993
12.8547 59.1166 2
14.4701 57.7258 0.0339269
10.9835 64.0165 4
12.6787 62.2968 2
14.2701 60.683 0.0279991
12.7745 65.694 2
14.3348 63.8579 0.0147456
14.6715 67.2507 0
16.4239 18.6714 3.96441
17.6801 17.1737 2
16.1076 15.7948 3.97266
18.9387 15.7971 0.0226633
17.5142 14.3833 2
16.0217 12.8146 3.97789
18.9814 13.1185 0.0235259
17.6392 11.4599 2
16.2027 9.66368 3.98865
19.3439 10.2401 0.0182352
18.0498 8.34191 2
16.6661 6.31991 4
18.75 5.02404 2
19.9916 7.14739 0.0102712
20.9142 3.86727 0
27.9096 34.8113 3.91961
29.4753 35.1548 2
30.9601 35.6323 0.235758
16.7376 21.4027 3.96522
21.7935 17.8739 0.0198529
19.2655 18.4284 0.0281376
20.9079 19.4028 2
18.0262 19.9663 2
19.7953 21.6074 3.96863
22.3142 19.9265 0.0323499
24.637 21.3752 0.0120017
22.4224 21.7596 2
24.8033 23.2062 2
23.0128 24.6479 3.97309
24.8658 28.5819 3.97888
25.6681 25.9947 2
26.5353 23.7654 0.0274657
26.65 31.778 3.98135
28.7727 32.404 2
30.4223 33.0982 0.132182
30.3688 29.6552 0.0567896
27.3448 29.1729 2
28.0827 26.6027 0.0103723
25.2066 36.8596 3.98042
27.3643 37.3611 2
29.0973 37.5192 0.122913
27.6651 44.7989 0.0277594
27.2662 40.5941 0.0510695
25.6776 43.1196 2
24.5055 39.4546 2
23.4166 41.8145 3.98019
22.2397 38.5225 3.97775
24.3668 45.1202 0.0239681
22.2525 43.8773 2
20.0925 42.8552 3.97666
21.2022 45.8274 0.0219778
19.2598 44.92 2
17.2082 44.3408 3.97685
18.5495 46.6871 0.022047
16.8333 46.1727 2
15.0218 46.0611 3.97594
16.5059 47.6772 0.0228775
15.0797 47.6397 2
13.4084 47.9862 3.97275
15.329 48.9853 0.0258939
13.8894 49.522 2
12.1712 50.2382 3.96812
14.5847 50.9598 0.0312433
12.9469 51.8581 2
11.1516 52.8306 3.96621
10.3303 55.7068 3.96986
12.1544 54.5195 2
13.8739 53.4177 0.0344602
9.70208 58.8479 3.97892
11.54 57.4513 2
13.2654 56.1576 0.033718
9.30605 62.2254 4
11.1339 60.622 2
12.854 59.1171 0.0295378
10.9835 64.0165 2
12.6806 62.2999 0.0178038
12.7746 65.6939 0
15.173 20.2038 3.96418
16.4239 18.6712 2
14.7596 17.321 3.96629
17.68 17.1746 0.0290662
16.1079 15.7937 2
14.4852 14.2985 3.97512
17.5141 14.384 0.0244236
16.0214 12.8144 2
14.4455 11.1152 3.98761
17.6396 11.46 0.0197918
16.2009 9.66559 2
14.6715 7.74927 4
18.0516 8.34047 0.0107666
16.6661 6.31988 2
18.75 5.0241 0
25.8695 34.3028 3.98806
27.8866 34.8195 2
29.5133 35.1723 0.11903
17.947 22.3544 3.97091
15.6077 22.9456 3.96797
16.7379 21.4027 2
20.908 19.4045 0.0281019
18.0259 19.9671 0.040376
19.7956 21.607 2
19.8451 24.4285 3.9708
22.4228 21.7594 0.0221606
24.8035 23.2071 0.0251622
23.0109 24.6477 2
22.233 27.884 3.97322
24.2071 31.256 3.97673
24.8788 28.582 2
25.6721 25.9978 0.0223015
26.6322 31.7454 2
28.8011 32.4271 0.0733673
27.3241 29.1917 -0.00691078
22.9601 36.2889 3.98251
25.1921 36.8639 2
27.3762 37.3682 0.0707994
25.6952 43.106 0.0116748
24.5228 39.4539 0.0247863
23.4052 41.814 2
22.2314 38.5207 2
21.1342 40.6355 3.9755
20.5235 37.8036 3.97697
22.2535 43.877 0.0222886
20.0912 42.8565 2
17.6702 42.067 3.9764
19.2594 44.9199 0.0224683
17.2098 44.3409 2
15.0578 44.1714 3.97627
16.8316 46.1736 0.0229686
15.023 46.0606 2
13.0989 46.2745 3.97399
15.0782 47.6403 0.0244833
13.4096 47.9857 2
11.551 48.5361 3.96916
13.8882 49.5226 0.0290187
12.1719 50.2378 2
10.2795 51.0755 3.96647
12.9465 51.8584 0.0330687
11.1521 52.8303 2
9.23889 53.887 3.96973
8.38549 56.9812 3.97948
10.3308 55.7061 2
12.1539 54.5196 0.0341311
7.74927 60.3285 4
9.70082 58.8442 2
11.5396 57.4517 0.0297864
9.306 62.2255 2
11.1355 60.6255 0.0200686
10.9835 64.0165 0
14.0001 21.77 3.96494
15.1733 20.2037 2
13.4619 18.9155 3.96641
16.4239 18.6714 0.0355879
14.76 17.3206 2
13.033 15.8954 3.97178
16.1076 15.7948 0.0273427
14.4848 14.2979 2
12.7833 12.6891 3.98548
16.0217 12.8146 0.0221137
14.4437 11.1174 2
12.7746 9.30605 4
16.2027 9.66368 0.0113494
14.6715 7.74924 2
16.6661 6.31991 0
23.547 33.8429 3.98387
25.8444 34.295 2
27.9096 34.8113 0.0803899
17.782 24.0807 3.96974
17.9484 22.3546 2
14.4404 24.4796 3.9697
15.6089 22.9458 2
16.7376 21.4027 0.0347784
19.304 27.2565 3.9721
19.7953 21.6074 0.0313653
19.8419 24.4284 2
21.5727 30.727 3.97549
23.0128 24.6479 0.0269135
22.241 27.8856 2
24.1862 31.2557 2
24.8658 28.5819 0.0211218
26.65 31.778 0.018655
20.6449 35.9548 3.97674
22.9604 36.2882 2
25.2066 36.8596 0.0195829
23.4166 41.8145 0.0198075
22.2397 38.5225 0.0222458
21.1402 40.6353 2
20.5228 37.8022 2
18.4154 39.0044 3.97723
20.0925 42.8552 0.0233359
17.6708 42.0672 2
15.0412 41.8928 3.97683
17.2082 44.3408 0.0231484
15.0591 44.1709 2
12.8615 44.3734 3.97483
15.0218 46.0611 0.0240648
13.1005 46.274 2
11.0621 46.721 3.96996
13.4084 47.9862 0.0272536
11.5518 48.5357 2
9.54511 49.2358 3.96654
12.1712 50.2382 0.0318785
10.2799 51.0751 2
8.27171 52.001 3.96947
11.1516 52.8306 0.0337859
9.23941 53.8862 2
7.19443 55.0322 3.98043
6.31991 58.3339 4
8.38458 56.9776 2
10.3303 55.7068 0.0301436
7.74924 60.3285 2
9.70208 58.8479 0.0210838
9.30605 62.2254 0
13.3308 25.3859 3.97265
12.8901 23.2995 3.96707
13.9992 21.7698 2
12.2478 20.5604 3.96667
15.173 20.2038 0.035817
13.4631 18.9154 2
11.6641 17.5744 3.97068
14.7596 17.321 0.0337117
13.0335 15.8942 2
11.2216 14.3752 3.981
14.4852 14.2985 0.0248783
12.7812 12.6917 2
10.9835 10.9835 4
14.4455 11.1152 0.0123935
12.7745 9.306 2
14.6715 7.74927 0
21.0076 33.4501 3.97589
23.5467 33.8422 2
25.8695 34.3028 0.0119386
16.1044 26.4397 3.97208
17.7823 24.0809 2
17.947 22.3544 0.0290942
14.4405 24.48 2
15.6077 22.9456 0.0320261
18.6888 30.2255 3.97483
19.3017 27.2568 2
19.8451 24.4285 0.0291965
21.5765 30.7274 2
22.233 27.884 0.0267826
24.2071 31.256 0.0232716
18.0274 35.9862 3.97799
20.646 35.956 2
22.9601 36.2889 0.0174876
21.1342 40.6355 0.0245028
20.5235 37.8036 0.0230306
18.4135 39.0042 2
14.5484 39.1697 3.97748
17.6702 42.067 0.0236009
15.0423 41.8926 2
12.5558 42.2636 3.97595
15.0578 44.1714 0.0237346
12.8628 44.373 2
10.649 44.7915 3.97084
13.0989 46.2745 0.0260067
11.0631 46.7206 2
8.92988 47.3152 3.96664
11.551 48.5361 0.0308425
9.54527 49.2355 2
7.43855 50.0346 3.96908
10.2795 51.0755 0.0335339
8.27208 52.0001 2
6.13507 53.0074 3.98079
9.23889 53.887 0.03027
7.19388 55.0292 2
5.0241 56.25 4
6.31988 58.3339 2
8.38549 56.9812 0.020524
7.74927 60.3285 0
13.5975 26.84 3.97211
12.0002 24.8042 3.96895
13.3301 25.3861 2
11.1571 22.2429 3.96607
12.8905 23.2997 2
14.0001 21.77 0.0350618
12.2489 20.5605 2
10.3952 19.3261 3.97009
13.4619 18.9155 0.0335923
11.6653 17.5745 2
9.76265 16.1592 3.97901
13.033 15.8954 0.028219
11.2196 14.379 2
9.30607 12.7746 4
12.7833 12.6891 0.0145191
10.9835 10.9835 2
12.7746 9.30605 0
18.2001 33.1573 3.97702
21.0083 33.4518 2
23.547 33.8429 0.0161346
15.7291 29.674 3.97471
16.1039 26.4402 2
17.782 24.0807 0.0302555
14.4404 24.4796 0.0302968
18.6877 30.2261 2
19.304 27.2565 0.0279004
21.5727 30.727 0.024509
15.1681 36.0357 3.97771
18.0279 35.986 2
20.6449 35.9548 0.0232607
12.7842 37.8315 3.97766
18.4154 39.0044 0.022767
14.549 39.1695 2
12.0587 40.1344 3.9768
15.0412 41.8928 0.0231747
12.5569 42.2632 2
10.2549 42.7694 3.97105
12.8615 44.3734 0.0251725
10.6498 44.7912 2
8.4088 45.3175 3.96701
11.0621 46.721 0.0300376
8.92964 47.3149 2
6.72971 48 3.96879
9.54511 49.2358 0.0334553
7.43878 50.0339 2
5.21187 50.9109 3.9805
8.27171 52.001 0.0305275
6.13479 53.0055 2
3.86727 54.0858 4
7.19443 55.0322 0.0195717
5.02404 56.25 2
6.31991 58.3339 0
13.0742 29.0574 3.97182
11.4445 26.5037 3.96937
13.597 26.8403 2
10.2179 23.9744 3.96672
12.0014 24.8046 2
13.3308 25.3859 0.027353
9.24752 21.1422 3.96956
11.1576 22.243 2
12.8901 23.2995 0.0329289
12.2478 20.5604 0.0333268
10.3963 19.3265 2
8.41831 18.0301 3.97913
11.6641 17.5744 0.0293164
9.76122 16.1636 2
7.74928 14.6715 4
11.2216 14.3752 0.0189977
9.30602 12.7745 2
10.9835 10.9835 0
14.7228 32.8914 3.97689
18.1982 33.1571 2
21.0076 33.4501 0.0241069
15.7307 29.6746 2
16.1044 26.4397 0.027917
18.6888 30.2255 0.0251719
13.0772 36.2191 3.97722
15.1681 36.0357 2
18.0274 35.9862 0.0220056
12.7861 37.8311 2
11.4025 38.3095 3.97673
14.5484 39.1697 0.022517
12.061 40.1341 2
9.83963 40.7491 3.97151
12.5558 42.2636 0.0240464
10.2564 42.7691 2
7.95887 43.2671 3.96739
10.649 44.7915 0.0291592
8.40908 45.3172 2
6.13573 45.9052 3.96867
8.92988 47.3152 0.0333559
6.7299 47.9993 2
4.42336 48.7515 3.97988
7.43855 50.0346 0.0309187
5.21177 50.9098 2
2.85457 51.8506 4
6.13507 53.0074 0.0192111
3.86727 54.0858 2
5.0241 56.25 0
12.2181 31.2765 3.97298
10.8665 28.4304 3.96966
13.0756 29.0578 2
9.43553 25.8039 3.96706
11.4452 26.504 2
13.5975 26.84 0.027892
8.23419 23.0255 3.96948
10.2184 23.9747 2
12.0002 24.8042 0.0310459
7.20039 19.9796 3.97982
9.24859 21.1429 2
11.1571 22.2429 0.0339323
10.3952 19.3261 0.0299128
8.41747 18.0343 2
6.31992 16.6661 4
9.76265 16.1592 0.0209868
7.74926 14.6714 2
9.30607 12.7746 0
12.2442 34.3096 3.97704
14.7239 32.8921 2
18.2001 33.1573 0.0229756
15.7291 29.674 0.0252859
10.9544 36.6153 3.9762
13.0786 36.219 2
15.1681 36.0357 0.0222927
12.7842 37.8315 0.0223442
11.4049 38.3093 2
9.42671 38.8217 3.97209
12.0587 40.1344 0.0231959
9.84079 40.7488 2
7.57005 41.2095 3.96785
10.2549 42.7694 0.028952
7.95819 43.2668 2
5.64752 43.7681 3.96871
8.4088 45.3175 0.0329909
6.13588 45.9046 2
3.7689 46.5371 3.97949
6.72971 48 0.0312113
4.42346 48.751 2
1.99014 49.554 4
5.21187 50.9109 0.0194989
2.85451 51.8506 2
3.86727 54.0858 0
11.0431 32.9326 3.97487
10.1828 30.3952 3.97019
12.2197 31.277 2
8.74732 27.7373 3.96717
10.8673 28.4307 2
13.0742 29.0574 0.0281782
7.3596 24.9838 3.96921
9.43563 25.8042 2
11.4445 26.5037 0.0306319
6.11731 22.0026 3.98068
8.23486 23.0261 2
10.2179 23.9744 0.0332798
5.02411 18.75 4
7.20003 19.9829 2
9.24752 21.1422 0.0304352
8.41831 18.0301 0.0208749
6.3199 16.6661 2
7.74928 14.6715 0
10.5547 35.0074 3.97575
12.2463 34.3101 2
14.7228 32.8914 0.0231104
9.08953 36.9862 3.97275
10.9563 36.6154 2
13.0772 36.2191 0.0227797
11.4025 38.3095 0.0232702
9.42811 38.8215 2
7.24728 39.1816 3.96827
9.83963 40.7491 0.0284882
7.57014 41.2094 2
5.26252 41.6139 3.96873
7.95887 43.2671 0.0326056
5.64762 43.7677 2
3.24658 44.2818 3.97955
6.13573 45.9052 0.0313319
3.76909 46.5367 2
1.27781 47.2057 4
4.42336 48.7515 0.0201153
1.99012 49.554 2
2.85457 51.8506 0
10.1916 33.8906 3.97576
9.46498 32.1641 3.97106
11.045 32.9329 2
8.0947 29.7 3.96751
10.184 30.3955 2
12.2181 31.2765 0.0270182
6.60311 27.0095 3.96905
8.74694 27.7375 2
10.8665 28.4304 0.030343
5.17269 24.0952 3.98058
7.35995 24.9843 2
9.43553 25.8039 0.0329354
3.86728 20.9142 4
6.11718 22.0046 2
8.23419 23.0255 0.0305173
5.02406 18.75 2
7.20039 19.9796 0.0201843
6.31992 16.6661 0
8.91042 35.2835 3.97287
10.5561 35.0076 2
12.2442 34.3096 0.0229619
7.02668 37.2065 3.96825
9.0907 36.9862 2
10.9544 36.6153 0.023798
9.42671 38.8217 0.0279126
7.24775 39.1815 2
4.9901 39.4674 3.9689
7.57005 41.2095 0.0321482
5.26297 41.6136 2
2.85697 42.0021 3.97964
5.64752 43.7681 0.0312915
3.24665 44.2816 2
0.720592 44.8159 4
3.7689 46.5371 0.0205074
1.27778 47.2057 2
1.99014 49.554 0
8.95142 33.7042 3.97234
10.1931 33.8908 2
7.52946 31.6125 3.96788
9.46636 32.1643 2
11.0431 32.9326 0.0251296
5.94804 29.0702 3.96912
8.09415 29.7002 2
10.1828 30.3952 0.0298125
4.36033 26.2475 3.98011
6.60326 27.0099 2
8.74732 27.7373 0.0328297
2.85458 23.1494 4
5.1727 24.0961 2
7.3596 24.9838 0.0307946
3.86728 20.9142 2
6.11731 22.0026 0.0193243
5.02411 18.75 0
6.97499 35.3075 3.96823
8.91154 35.2835 2
10.5547 35.0074 0.0242521
4.8402 37.3399 3.9693
7.02723 37.2064 2
9.08953 36.9862 0.0272527
7.24728 39.1816 0.0317332
4.99054 39.4672 2
2.605 39.7138 3.97962
5.26252 41.6139 0.0312704
2.85732 42.0021 2
0.320823 42.3947 4
3.24658 44.2818 0.0204461
0.720551 44.8159 2
1.27781 47.2057 0
7.13871 33.4632 3.96812
8.95225 33.7044 2
10.1916 33.8906 0.0242378
5.41861 31.134 3.96942
7.52929 31.6127 2
9.46498 32.1641 0.028941
3.68195 28.4435 3.97976
5.94819 29.0706 2
8.0947 29.7 0.0324938
1.99015 25.446 4
4.36042 26.2479 2
6.60311 27.0095 0.0309481
2.85453 23.1494 2
5.17269 24.0952 0.0194183
3.86728 20.9142 0
4.8545 35.2517 3.96939
6.97502 35.3075 2
8.91042 35.2835 0.0271279
2.49642 37.4284 3.98032
4.84022 37.34 2
7.02668 37.2065 0.0317525
4.9901 39.4674 0.0311003
2.60544 39.7141 2
0.080333 39.9526 4
2.85697 42.0021 0.0203638
0.320817 42.3947 2
0.720592 44.8159 0
5.04789 33.1905 3.96947
7.13863 33.4633 2
8.95142 33.7042 0.0276636
3.14614 30.6662 3.97982
5.41876 31.1344 2
7.52946 31.6125 0.0321223
1.27793 27.7943 4
3.68216 28.4437 2
5.94804 29.0702 0.0308769
1.99013 25.446 2
4.36033 26.2475 0.0198851
2.85458 23.1494 0
2.54852 35.159 3.98011
4.85506 35.252 2
6.97499 35.3075 0.0317694
0 37.5 4
2.49646 37.4288 2
4.8402 37.3399 0.0307035
2.605 39.7138 0.0203787
0.0802903 39.9526 2
0.320823 42.3947 0
2.76614 32.9057 3.98027
5.04805 33.1908 2
7.13871 33.4632 0.0318771
0.721173 30.1842 4
3.14638 30.6666 2
5.41861 31.134 0.0305788
1.27779 27.7943 2
3.68195 28.4435 0.020243
1.99015 25.446 0
0.0806499 35.0474 4
2.54905 35.1594 2
4.8545 35.2517 0.0306123
0 37.5 2
2.49642 37.4284 0.0196847
0.080333 39.9526 0
0.32156 32.6054 4
2.76625 32.9063 2
5.04789 33.1905 0.0305321
0.72056 30.1841 2
3.14614 30.6662 0.0201799
1.27793 27.7943 0
0.0802889 35.0474 2
2.54852 35.159 0.0198917
0 37.5 0
0.320817 32.6053 2
2.76614 32.9057 0.0197298
0.721173 30.1842 0
0.0806499 35.0474 0
0.32156 32.6054 0
CELLS 1910 17190
8 18 6 25 56 2 0 5 16
8 57 23 6 18 17 4 0 2
8 78 36 9 29 31 11 1 7
8 31 11 1 7 79 37 10 30
8 110 57 18 50 48 17 2 14
8 50 18 56 111 14 2 16 49
8 116 62 22 55 52 20 3 15
8 56 25 67 118 16 5 24 53
8 119 63 23 57 54 21 4 17
8 55 22 63 119 15 3 21 54
8 58 26 68 121 18 6 25 56
8 122 65 26 58 57 23 6 18
8 73 31 7 27 142 79 30 71
8 143 78 29 72 73 31 7 27
8 83 147 76 34 32 74 28 8
8 84 148 78 36 33 75 29 9
8 76 34 8 28 148 84 33 75
8 37 79 150 86 10 30 77 35
8 151 87 36 78 80 38 11 31
8 80 38 11 31 152 88 37 79
8 175 100 42 94 96 44 12 40
8 44 96 176 101 12 40 95 43
8 101 176 98 46 43 95 41 13
8 46 98 178 103 13 41 97 45
8 178 103 45 97 147 83 32 74
8 189 116 55 109 106 52 15 47
8 111 56 118 191 49 16 53 107
8 192 119 57 110 108 54 17 48
8 109 55 119 192 47 15 54 108
8 194 122 58 112 110 57 18 50
8 112 58 121 195 50 18 56 111
8 115 61 19 51 197 124 59 113
8 115 61 125 198 51 19 60 114
8 198 125 62 116 114 60 20 52
8 200 127 64 120 116 62 22 55
8 118 67 132 202 53 24 66 117
8 121 68 133 203 56 25 67 118
8 120 64 128 204 55 22 63 119
8 204 128 65 122 119 63 23 57
8 206 134 68 121 123 69 26 58
8 123 69 26 58 207 131 65 122
8 226 147 74 138 140 76 28 70
8 229 148 75 139 143 78 29 72
8 140 76 28 70 229 148 75 139
8 142 79 30 71 231 150 77 141
8 144 80 31 73 232 152 79 142
8 233 151 78 143 144 80 31 73
8 150 86 35 77 235 154 81 145
8 235 154 81 145 146 82 39 91
8 146 82 39 91 236 155 90 165
8 238 157 83 147 149 85 34 76
8 239 158 84 148 151 87 36 78
8 149 85 34 76 239 158 84 148
8 152 88 37 79 241 160 86 150
8 242 161 87 151 153 89 38 80
8 153 89 38 80 243 162 88 152
8 171 98 41 92 265 178 97 169
8 265 178 97 169 226 147 74 138
8 172 96 40 93 266 176 95 170
8 266 176 95 170 171 98 41 92
8 269 175 94 173 172 96 40 93
8 271 180 99 174 175 100 42 94
8 197 124 59 113 271 180 99 174
8 272 181 100 175 177 102 44 96
8 273 182 101 176 179 104 46 98
8 177 102 44 96 273 182 101 176
8 179 104 46 98 275 184 103 178
8 275 184 103 178 238 157 83 147
8 188 115 51 105 283 197 113 186
8 188 115 198 284 105 51 114 187
8 284 198 116 189 187 114 52 106
8 286 200 120 193 189 116 55 109
8 191 118 202 288 107 53 117 190
8 195 121 203 289 111 56 118 191
8 193 120 204 290 109 55 119 192
8 290 204 122 194 192 119 57 110
8 196 123 58 112 292 207 122 194
8 293 206 121 195 196 123 58 112
8 199 126 61 115 297 211 124 197
8 298 212 127 200 198 125 62 116
8 199 126 212 298 115 61 125 198
8 205 129 64 120 300 214 127 200
8 301 217 130 201 202 132 66 117
8 209 136 168 264 301 217 130 201
8 302 219 132 202 203 133 67 118
8 303 220 133 203 206 134 68 121
8 205 129 215 304 120 64 128 204
8 304 215 131 207 204 128 65 122
8 306 221 134 206 208 135 69 123
8 208 135 69 123 307 218 131 207
8 210 137 167 263 309 223 136 209
8 328 238 147 226 230 149 76 140
8 228 146 91 166 329 236 165 260
8 231 150 77 141 330 235 145 227
8 330 235 145 227 228 146 91 166
8 332 239 148 229 233 151 78 143
8 230 149 76 140 332 239 148 229
8 232 152 79 142 334 241 150 231
8 234 153 80 144 335 243 152 232
8 336 242 151 233 234 153 80 144
8 236 155 90 165 338 245 164 259
8 241 160 86 150 339 246 154 235
8 339 246 154 235 237 156 82 146
8 237 156 82 146 340 247 155 236
8 342 249 157 238 240 159 85 149
8 343 250 158 239 242 161 87 151
8 240 159 85 149 343 250 158 239
8 243 162 88 152 345 252 160 241
8 244 163 253 346 153 89 161 242
8 244 163 89 153 347 254 162 243
8 311 224 261 371 210 137 167 263
8 263 167 262 372 209 136 168 264
8 267 179 98 171 375 275 178 265
8 375 275 178 265 328 238 147 226
8 376 273 176 266 267 179 98 171
8 268 177 96 172 376 273 176 266
8 379 272 175 269 268 177 96 172
8 380 271 174 270 269 175 94 173
8 283 197 113 186 380 271 174 270
8 381 277 180 271 272 181 100 175
8 297 211 124 197 381 277 180 271
8 382 278 181 272 274 183 102 177
8 274 183 102 177 383 279 182 273
8 383 279 182 273 276 185 104 179
8 385 281 184 275 342 249 157 238
8 276 185 104 179 385 281 184 275
8 285 199 115 188 393 297 197 283
8 394 298 200 286 284 198 116 189
8 285 199 298 394 188 115 198 284
8 291 205 120 193 396 300 200 286
8 397 301 201 287 288 202 117 190
8 295 209 264 374 397 301 201 287
8 398 302 202 288 289 203 118 191
8 399 303 203 289 293 206 121 195
8 291 205 304 400 193 120 204 290
8 400 304 207 292 290 204 122 194
8 294 208 123 196 402 307 207 292
8 403 306 206 293 294 208 123 196
8 296 210 263 373 405 309 209 295
8 408 312 213 299 297 211 126 199
8 299 213 313 409 199 126 212 298
8 409 313 214 300 298 212 127 200
8 305 216 129 205 411 315 214 300
8 412 318 217 301 302 219 132 202
8 309 223 136 209 412 318 217 301
8 413 320 219 302 303 220 133 203
8 306 221 321 414 206 134 220 303
8 307 218 131 207 415 316 215 304
8 305 216 316 415 205 129 215 304
8 417 322 221 306 308 222 135 208
8 308 222 135 208 418 319 218 307
8 310 225 137 210 420 325 223 309
8 423 326 224 311 310 225 137 210
8 329 236 165 260 441 338 259 368
8 442 342 238 328 333 240 149 230
8 331 237 146 228 443 340 236 329
8 334 241 150 231 444 339 235 330
8 444 339 235 330 331 237 146 228
8 446 343 239 332 336 242 151 233
8 333 240 149 230 446 343 239 332
8 335 243 152 232 448 345 241 334
8 337 244 153 234 449 347 243 335
8 337 244 346 450 234 153 242 336
8 338 245 164 259 452 349 258 367
8 340 247 155 236 453 350 245 338
8 345 252 160 241 454 351 246 339
8 454 351 246 339 341 248 156 237
8 341 248 156 237 455 352 247 340
8 240 159 251 344 342 249 354 457
8 242 161 253 346 343 250 355 458
8 343 250 355 458 240 159 251 344
8 347 254 162 243 460 357 252 345
8 348 255 358 461 244 163 253 346
8 348 255 163 244 462 359 254 347
8 473 360 257 365 363 256 364 482
8 452 349 258 367 365 257 366 485
8 422 324 369 488 311 224 261 371
8 371 261 370 490 263 167 262 372
8 407 311 371 491 296 210 263 373
8 373 263 372 492 295 209 264 374
8 493 385 275 375 442 342 238 328
8 377 276 179 267 493 385 275 375
8 378 274 177 268 494 383 273 376
8 494 383 273 376 377 276 179 267
8 497 382 272 379 378 274 177 268
8 498 381 271 380 379 272 175 269
8 393 297 197 283 498 381 271 380
8 499 387 277 381 382 278 181 272
8 408 312 211 297 499 387 277 381
8 500 388 278 382 384 280 183 274
8 501 389 279 383 386 282 185 276
8 384 280 183 274 501 389 279 383
8 386 282 185 276 503 391 281 385
8 503 391 281 385 457 354 249 342
8 511 408 299 395 393 297 199 285
8 395 299 409 512 285 199 298 394
8 512 409 300 396 394 298 200 286
8 401 305 205 291 514 411 300 396
8 515 412 301 397 398 302 202 288
8 405 309 209 295 515 412 301 397
8 516 413 302 398 399 303 203 289
8 403 306 414 517 293 206 303 399
8 402 307 207 292 518 415 304 400
8 401 305 415 518 291 205 304 400
8 404 308 208 294 520 418 307 402
8 521 417 306 403 404 308 208 294
8 406 310 210 296 523 420 309 405
8 526 423 311 407 406 310 210 296
8 410 314 213 299 527 424 312 408
8 528 425 315 411 409 313 214 300
8 410 314 425 528 299 213 313 409
8 416 317 216 305 530 427 315 411
8 531 430 318 412 413 320 219 302
8 420 325 223 309 531 430 318 412
8 532 432 320 413 414 321 220 303
8 417 322 433 533 306 221 321 414
8 418 319 218 307 534 428 316 415
8 416 317 428 534 305 216 316 415
8 419 323 434 536 308 222 322 417
8 419 323 222 308 537 431 319 418
8 421 327 225 310 539 438 325 420
8 421 327 439 541 310 225 326 423
8 543 437 324 422 423 326 224 311
8 441 338 259 368 559 452 367 486
8 443 340 236 329 560 453 338 441
8 333 240 344 447 442 342 457 561
8 445 341 237 331 562 455 340 443
8 448 345 241 334 563 454 339 444
8 563 454 339 444 445 341 237 331
8 336 242 346 450 446 343 458 565
8 446 343 458 565 333 240 344 447
8 449 347 243 335 567 460 345 448
8 451 348 244 337 568 462 347 449
8 451 348 461 569 337 244 346 450
8 570 463 349 452 473 360 257 365
8 453 350 245 338 570 463 349 452
8 455 352 247 340 571 464 350 453
8 460 357 252 345 572 465 351 454
8 572 465 351 454 456 353 248 341
8 456 353 248 341 573 466 352 455
8 344 251 356 459 457 354 468 575
8 458 355 469 576 344 251 356 459
8 346 253 358 461 458 355 469 576
8 462 359 254 347 578 471 357 460
8 348 255 359 462 461 358 472 579
8 591 474 360 473 475 361 256 363
8 475 361 256 363 594 477 362 479
8 363 256 364 482 479 362 480 603
8 590 473 365 484 481 363 482 605
8 482 364 257 365 606 483 366 485
8 559 452 367 486 484 365 485 607
8 542 436 487 609 422 324 369 488
8 525 422 488 611 407 311 371 491
8 488 369 489 612 371 261 370 490
8 491 371 490 613 373 263 372 492
8 495 386 276 377 614 503 385 493
8 614 503 385 493 561 457 342 442
8 615 501 383 494 495 386 276 377
8 496 384 274 378 615 501 383 494
8 618 500 382 497 496 384 274 378
8 619 499 381 498 497 382 272 379
8 511 408 297 393 619 499 381 498
8 620 505 387 499 500 388 278 382
8 527 424 312 408 620 505 387 499
8 502 390 506 621 384 280 388 500
8 622 507 389 501 504 392 282 386
8 502 390 280 384 622 507 389 501
8 504 392 282 386 624 509 391 503
8 624 509 391 503 575 468 354 457
8 513 410 299 395 630 527 408 511
8 631 528 411 514 512 409 300 396
8 513 410 528 631 395 299 409 512
8 519 416 305 401 633 530 411 514
8 634 531 412 515 516 413 302 398
8 523 420 309 405 634 531 412 515
8 635 532 413 516 517 414 303 399
8 521 417 533 636 403 306 414 517
8 520 418 307 402 637 534 415 518
8 519 416 534 637 401 305 415 518
8 522 419 308 404 639 537 418 520
8 522 419 536 640 404 308 417 521
8 524 421 310 406 642 539 420 523
8 524 421 541 644 406 310 423 526
8 646 543 422 525 526 423 311 407
8 529 426 314 410 647 544 424 527
8 528 425 545 648 411 315 427 530
8 529 426 545 648 410 314 425 528
8 535 429 317 416 649 546 427 530
8 650 548 430 531 532 432 320 413
8 539 438 325 420 650 548 430 531
8 533 433 550 651 414 321 432 532
8 536 434 551 652 417 322 433 533
8 537 431 319 418 653 547 428 534
8 535 429 547 653 416 317 428 534
8 538 435 552 654 419 323 434 536
8 538 435 323 419 655 549 431 537
8 540 440 327 421 657 556 438 539
8 540 440 557 659 421 327 439 541
8 541 439 555 660 423 326 437 543
8 661 554 436 542 543 437 324 422
8 676 570 452 559 590 473 365 484
8 560 453 338 441 676 570 452 559
8 562 455 340 443 677 571 453 560
8 447 344 459 566 561 457 575 678
8 564 456 341 445 679 573 455 562
8 567 460 345 448 680 572 454 563
8 680 572 454 563 564 456 341 445
8 565 458 576 682 447 344 459 566
8 450 346 461 569 565 458 576 682
8 568 462 347 449 684 578 460 567
8 451 348 462 568 569 461 579 685
8 686 580 463 570 591 474 360 473
8 571 464 350 453 686 580 463 570
8 573 466 352 455 687 581 464 571
8 572 465 582 688 460 357 471 578
8 574 467 582 688 456 353 465 572
8 574 467 353 456 689 583 466 573
8 459 356 470 577 575 468 585 691
8 576 469 586 692 459 356 470 577
8 461 358 472 579 576 469 586 692
8 462 359 471 578 579 472 588 694
8 704 591 473 590 593 475 363 481
8 595 476 592 705 475 361 474 591
8 593 475 363 481 707 594 479 602
8 594 477 362 479 709 598 478 600
8 595 476 361 475 711 597 477 594
8 479 362 480 603 600 478 601 720
8 481 363 482 605 602 479 603 722
8 603 480 364 482 723 604 483 606
8 605 482 365 484 724 606 485 607
8 656 553 608 726 542 436 487 609
8 645 542 609 728 525 422 488 611
8 609 487 610 729 488 369 489 612
8 611 488 612 730 491 371 490 613
8 616 504 386 495 731 624 503 614
8 731 624 503 614 678 575 457 561
8 732 622 501 615 616 504 386 495
8 617 502 384 496 732 622 501 615
8 617 502 621 735 496 384 500 618
8 736 620 499 619 618 500 382 497
8 630 527 408 511 736 620 499 619
8 621 506 626 737 500 388 505 620
8 647 544 424 527 737 626 505 620
8 623 508 627 738 502 390 506 621
8 623 508 390 502 739 628 507 622
8 625 510 628 739 504 392 507 622
8 740 629 509 624 691 585 468 575
8 625 510 392 504 740 629 509 624
8 632 529 410 513 744 647 527 630
8 631 528 648 745 514 411 530 633
8 632 529 648 745 513 410 528 631
8 638 535 416 519 746 649 530 633
8 747 650 531 634 635 532 413 516
8 642 539 420 523 747 650 531 634
8 636 533 651 748 517 414 532 635
8 640 536 652 749 521 417 533 636
8 639 537 418 520 750 653 534 637
8 638 535 653 750 519 416 534 637
8 641 538 419 522 751 655 537 639
8 641 538 654 752 522 419 536 640
8 643 540 421 524 753 657 539 642
8 643 540 659 755 524 421 541 644
8 644 541 660 757 526 423 543 646
8 758 661 542 645 646 543 422 525
8 529 426 544 647 648 545 662 759
8 530 427 545 648 649 546 663 760
8 535 429 546 649 653 547 664 761
8 762 666 548 650 651 550 432 532
8 657 556 438 539 762 666 548 650
8 652 551 668 763 533 433 550 651
8 654 552 669 764 536 434 551 652
8 655 549 431 537 765 665 547 653
8 538 435 549 655 654 552 667 766
8 661 554 671 768 542 436 553 656
8 658 558 440 540 769 674 556 657
8 658 558 675 770 540 440 557 659
8 659 557 673 771 541 439 555 660
8 660 555 672 772 543 437 554 661
8 788 686 570 676 704 591 473 590
8 677 571 453 560 788 686 570 676
8 679 573 455 562 789 687 571 677
8 566 459 577 683 678 575 691 790
8 681 574 456 564 791 689 573 679
8 680 572 688 792 567 460 578 684
8 681 574 688 792 564 456 572 680
8 682 576 692 794 566 459 577 683
8 569 461 579 685 682 576 692 794
8 568 462 578 684 685 579 694 796
8 687 581 464 571 798 696 580 686
8 798 696 580 686 705 592 474 591
8 689 583 466 573 799 697 581 687
8 688 582 698 800 578 471 588 694
8 690 584 698 800 574 467 582 688
8 690 584 467 574 801 699 583 689
8 693 587 701 803 577 470 585 691
8 693 587 470 577 804 702 586 692
8 695 589 702 804 579 472 586 692
8 695 589 472 579 805 703 588 694
8 708 595 705 813 593 475 591 704
8 710 596 706 814 595 476 592 705
8 707 594 479 602 816 709 600 719
8 708 595 475 593 817 711 594 707
8 709 598 478 600 819 715 599 717
8 711 597 477 594 820 714 598 709
8 710 596 476 595 822 713 597 711
8 600 478 601 720 717 599 718 832
8 602 479 603 722 719 600 720 834
8 720 601 480 603 835 721 604 723
8 722 603 482 605 836 723 606 724
8 767 670 725 839 656 553 608 726
8 756 656 726 841 645 542 609 728
8 726 608 727 842 609 487 610 729
8 728 609 729 843 611 488 612 730
8 844 740 624 731 790 691 575 678
8 733 625 504 616 844 740 624 731
8 734 623 502 617 845 739 622 732
8 733 625 739 845 616 504 622 732
8 734 623 738 846 617 502 621 735
8 735 621 737 847 618 500 620 736
8 744 647 527 630 847 737 620 736
8 621 506 627 738 737 626 741 848
8 647 544 626 737 759 662 741 848
8 623 508 628 739 738 627 742 849
8 740 629 585 691 850 743 700 802
8 625 510 629 740 739 628 743 850
8 632 529 647 744 745 648 759 854
8 633 530 648 745 746 649 760 855
8 638 535 649 746 750 653 761 856
8 857 762 650 747 748 651 532 635
8 753 657 539 642 857 762 650 747
8 749 652 763 858 636 533 651 748
8 752 654 764 859 640 536 652 749
8 751 655 537 639 860 765 653 750
8 641 538 655 751 752 654 766 861
8 754 658 540 643 862 769 657 753
8 754 658 770 863 643 540 659 755
8 755 659 771 864 644 541 660 757
8 758 661 768 866 645 542 656 756
8 757 660 772 867 646 543 661 758
8 759 662 773 868 648 545 663 760
8 649 546 663 760 761 664 774 871
8 765 665 547 653 872 775 664 761
8 873 777 666 762 763 668 550 651
8 769 674 556 657 873 777 666 762
8 764 669 779 874 652 551 668 763
8 654 552 667 766 764 669 778 875
8 655 549 665 765 766 667 776 876
8 768 671 782 877 656 553 670 767
8 772 672 783 878 661 554 671 768
8 658 558 674 769 770 675 786 879
8 659 557 675 770 771 673 785 881
8 882 784 672 772 771 673 555 660
8 789 687 571 677 897 798 686 788
8 897 798 686 788 813 705 591 704
8 791 689 573 679 898 799 687 789
8 795 693 803 900 683 577 691 790
8 793 690 574 681 901 801 689 791
8 792 688 800 902 684 578 694 796
8 793 690 800 902 681 574 688 792
8 795 693 577 683 903 804 692 794
8 797 695 804 903 685 579 692 794
8 797 695 579 685 904 805 694 796
8 905 806 697 799 798 696 581 687
8 814 706 806 905 705 592 696 798
8 689 583 697 799 801 699 808 907
8 800 698 809 908 694 588 703 805
8 690 584 699 801 800 698 809 908
8 803 701 810 909 691 585 700 802
8 693 587 702 804 803 701 811 910
8 695 589 703 805 804 702 812 911
8 818 710 814 919 708 595 705 813
8 821 712 815 920 710 596 706 814
8 816 709 600 719 922 819 717 831
8 817 711 594 707 923 820 709 816
8 818 710 595 708 924 822 711 817
8 819 715 599 717 926 827 716 829
8 820 714 598 709 927 826 715 819
8 929 825 713 822 820 714 597 711
8 821 712 596 710 930 824 713 822
8 717 599 718 832 829 716 830 942
8 719 600 720 834 831 717 832 944
8 832 718 601 720 945 833 721 835
8 834 720 603 722 946 835 723 836
8 869 780 838 950 767 670 725 839
8 865 767 839 952 756 656 726 841
8 839 725 840 953 726 608 727 842
8 841 726 842 954 728 609 729 843
8 844 740 691 790 955 850 802 899
8 733 625 740 844 845 739 850 955
8 734 623 739 845 846 738 849 956
8 735 621 738 846 847 737 848 957
8 744 647 737 847 854 759 848 957
8 738 627 742 849 848 741 851 958
8 848 741 851 958 759 662 773 868
8 850 743 700 802 959 852 807 906
8 849 742 628 739 959 852 743 850
8 854 759 868 965 745 648 760 855
8 746 649 760 855 856 761 871 966
8 860 765 653 750 967 872 761 856
8 968 873 762 857 858 763 651 748
8 862 769 657 753 968 873 762 857
8 859 764 874 969 749 652 763 858
8 752 654 766 861 859 764 875 970
8 751 655 765 860 861 766 876 971
8 754 658 769 862 863 770 879 972
8 755 659 770 863 864 771 881 974
8 976 882 772 867 864 771 660 757
8 866 768 877 977 756 656 767 865
8 867 772 878 978 758 661 768 866
8 760 663 773 868 871 774 883 980
8 870 781 837 948 982 890 780 869
8 982 890 780 869 877 782 670 767
8 761 664 774 871 872 775 884 984
8 876 776 665 765 985 885 775 872
8 873 777 668 763 986 887 779 874
8 769 674 777 873 879 786 887 986
8 764 669 778 875 874 779 888 987
8 766 667 776 876 875 778 886 988
8 878 783 892 989 768 671 782 877
8 878 783 672 772 990 893 784 882
8 880 787 675 770 991 896 786 879
8 880 787 895 992 770 675 785 881
8 881 785 894 993 771 673 784 882
8 1006 905 799 898 897 798 687 789
8 919 814 905 1006 813 705 798 897
8 791 689 799 898 901 801 907 1007
8 900 803 909 1009 790 691 802 899
8 795 693 804 903 900 803 910 1010
8 902 800 908 1011 796 694 805 904
8 793 690 801 901 902 800 908 1011
8 797 695 805 904 903 804 911 1012
8 799 697 806 905 907 808 912 1013
8 920 815 912 1013 814 706 806 905
8 802 700 810 909 906 807 913 1014
8 801 699 808 907 908 809 914 1015
8 805 703 809 908 911 812 915 1016
8 803 701 811 910 909 810 916 1017
8 911 812 917 1018 804 702 811 910
8 925 821 920 1030 818 710 814 919
8 928 823 921 1031 821 712 815 920
8 922 819 717 831 1033 926 829 941
8 923 820 709 816 1034 927 819 922
8 1035 929 822 924 923 820 711 817
8 925 821 710 818 1036 930 822 924
8 1038 933 825 929 927 826 714 820
8 926 827 716 829 1039 935 828 939
8 927 826 715 819 1040 934 827 926
8 928 823 712 821 1041 931 824 930
8 1042 932 824 930 929 825 713 822
8 829 716 830 942 939 828 940 1058
8 831 717 832 944 941 829 942 1060
8 942 830 718 832 1061 943 833 945
8 944 832 720 834 1062 945 835 946
8 981 889 947 1064 870 781 837 948
8 948 837 949 1067 869 780 838 950
8 975 869 950 1069 865 767 839 952
8 950 838 951 1070 839 725 840 953
8 952 839 953 1071 841 726 842 954
8 955 850 802 899 1072 959 906 1008
8 956 849 739 845 1072 959 850 955
8 846 738 849 956 957 848 958 1073
8 957 848 958 1073 854 759 868 965
8 849 742 852 959 958 851 961 1076
8 960 853 961 1076 906 807 852 959
8 958 851 961 1076 868 773 883 980
8 960 853 807 906 1077 963 913 1014
8 855 760 868 965 966 871 980 1085
8 856 761 871 966 967 872 984 1086
8 971 876 765 860 1087 985 872 967
8 968 873 763 858 1088 986 874 969
8 862 769 873 968 972 879 986 1088
8 859 764 875 970 969 874 987 1089
8 861 766 876 971 970 875 988 1090
8 973 880 770 863 1091 991 879 972
8 973 880 992 1092 863 770 881 974
8 974 881 993 1093 864 771 882 976
8 979 870 948 1066 1094 982 869 975
8 1094 982 869 975 977 877 767 865
8 978 878 772 867 1095 990 882 976
8 978 878 989 1096 866 768 877 977
8 871 774 883 980 984 884 994 1099
8 983 891 999 1100 870 781 889 981
8 1101 1000 890 982 989 892 782 877
8 983 891 781 870 1101 1000 890 982
8 872 775 884 984 985 885 995 1103
8 876 776 885 985 988 886 996 1104
8 986 887 779 874 1105 998 888 987
8 879 786 887 986 991 896 998 1105
8 875 778 886 988 987 888 997 1106
8 990 893 1002 1107 878 783 892 989
8 1108 1003 893 990 993 894 784 882
8 880 787 896 991 992 895 1005 1109
8 993 894 785 881 1110 1004 895 992
8 898 799 905 1006 1007 907 1013 1120
8 1030 920 1013 1120 919 814 905 1006
8 901 801 907 1007 1011 908 1015 1121
8 899 802 909 1009 1008 906 1014 1122
8 900 803 910 1010 1009 909 1017 1123
8 1012 911 1018 1124 903 804 910 1010
8 904 805 908 1011 1012 911 1016 1125
8 1013 912 1020 1127 907 808 914 1015
8 1031 921 1020 1127 920 815 912 1013
8 1019 918 962 1075 1128 1021 913 1014
8 1128 1021 913 1014 1017 916 810 909
8 1015 914 1022 1129 908 809 915 1016
8 1016 915 1023 1130 911 812 917 1018
8 1018 917 1024 1131 910 811 916 1017
8 1037 928 1031 1148 925 821 920 1030
8 928 823 931 1041 1031 921 1032 1149
8 1033 926 829 941 1151 1039 939 1057
8 1034 927 819 922 1152 1040 926 1033
8 1153 1038 929 1035 1034 927 820 923
8 1154 1042 930 1036 1035 929 822 924
8 1037 928 821 925 1155 1041 930 1036
8 1039 935 828 939 1156 1047 938 1055
8 1157 1043 932 1042 1038 933 825 929
8 1038 933 826 927 1158 1045 934 1040
8 1040 934 827 926 1159 1046 935 1039
8 930 824 932 1042 1041 931 1044 1160
8 1051 936 1048 1165 1175 1052 937 1053
8 1156 1047 938 1055 1053 937 1054 1178
8 939 828 940 1058 1055 938 1056 1181
8 941 829 942 1060 1057 939 1058 1183
8 942 830 943 1061 1058 940 1059 1184
8 1060 942 832 944 1185 1061 945 1062
8 1082 964 1063 1188 981 889 947 1064
8 1097 981 1064 1190 979 870 948 1066
8 1064 947 1065 1191 948 837 949 1067
8 1066 948 1067 1193 975 869 950 1069
8 1067 949 1068 1194 950 838 951 1070
8 1069 950 1070 1195 952 839 953 1071
8 956 849 959 1072 1073 958 1076 1197
8 1074 960 1076 1197 1008 906 959 1072
8 1073 958 1076 1197 965 868 980 1085
8 1074 960 906 1008 1198 1077 1014 1122
8 1133 1026 1079 1199 1019 918 962 1075
8 1077 963 913 1014 1200 1080 962 1075
8 960 853 963 1077 1076 961 1078 1201
8 980 883 961 1076 1099 994 1078 1201
8 1210 1083 964 1082 1100 999 889 981
8 966 871 980 1085 1086 984 1099 1215
8 967 872 984 1086 1087 985 1103 1216
8 971 876 985 1087 1090 988 1104 1217
8 1088 986 874 969 1218 1105 987 1089
8 972 879 986 1088 1091 991 1105 1218
8 970 875 988 1090 1089 987 1106 1219
8 973 880 991 1091 1092 992 1109 1220
8 1093 993 881 974 1221 1110 992 1092
8 1222 1108 990 1095 1093 993 882 976
8 1223 1101 982 1094 1096 989 877 977
8 1098 983 870 979 1223 1101 982 1094
8 1095 990 1107 1224 978 878 989 1096
8 1098 983 1100 1225 979 870 981 1097
8 984 884 994 1099 1103 995 1111 1227
8 1102 1001 1115 1228 983 891 999 1100
8 1101 1000 892 989 1229 1116 1002 1107
8 1102 1001 891 983 1229 1116 1000 1101
8 985 885 995 1103 1104 996 1112 1230
8 988 886 996 1104 1106 997 1113 1231
8 1105 998 888 987 1232 1114 997 1106
8 991 896 998 1105 1109 1005 1114 1232
8 1108 1003 1117 1233 990 893 1002 1107
8 1108 1003 894 993 1233 1117 1004 1110
8 992 895 1005 1109 1110 1004 1118 1234
8 1120 1013 1127 1244 1007 907 1015 1121
8 1148 1031 1127 1244 1030 920 1013 1120
8 1121 1015 1129 1245 1011 908 1016 1125
8 1126 1019 1075 1196 1246 1128 1014 1122
8 1246 1128 1014 1122 1123 1017 909 1009
8 1124 1018 1131 1247 1010 910 1017 1123
8 1125 1016 1130 1248 1012 911 1018 1124
8 1127 1020 1137 1254 1015 914 1022 1129
8 1031 921 1032 1149 1127 1020 1137 1254
8 1134 1027 918 1019 1257 1140 1021 1128
8 1257 1140 1021 1128 1131 1024 916 1017
8 1129 1022 1141 1258 1016 915 1023 1130
8 1130 1023 1142 1259 1018 917 1024 1131
8 1261 1144 1025 1132 1133 1026 1079 1199
8 1255 1138 1025 1132 1135 1028 1144 1261
8 1133 1026 918 1019 1262 1145 1027 1134
8 1136 1029 1139 1256 1263 1146 1028 1135
8 1037 928 1041 1155 1148 1031 1149 1275
8 1041 931 1044 1160 1149 1032 1150 1276
8 1151 1039 939 1057 1278 1156 1055 1180
8 1152 1040 926 1033 1279 1159 1039 1151
8 1153 1038 927 1034 1280 1158 1040 1152
8 1281 1157 1042 1154 1153 1038 929 1035
8 1036 930 1042 1154 1155 1041 1160 1282
8 1283 1164 1046 1159 1156 1047 935 1039
8 1165 1048 1164 1283 1053 937 1047 1156
8 1157 1043 933 1038 1284 1161 1045 1158
8 1157 1043 1161 1284 1042 932 1044 1160
8 1040 934 1046 1159 1158 1045 1163 1285
8 1166 1049 1167 1292 1051 936 1048 1165
8 1166 1049 936 1051 1293 1168 1050 1172
8 1051 936 1052 1175 1172 1050 1173 1306
8 1174 1051 1165 1290 1308 1175 1053 1177
8 1053 937 1054 1178 1175 1052 1176 1309
8 1278 1156 1055 1180 1177 1053 1178 1311
8 1055 938 1056 1181 1178 1054 1179 1312
8 1057 939 1058 1183 1180 1055 1181 1314
8 1058 940 1059 1184 1181 1056 1182 1315
8 1060 942 1061 1185 1183 1058 1184 1316
8 1208 1081 1187 1321 1082 964 1063 1188
8 1209 1082 1188 1322 1097 981 1064 1190
8 1188 1063 1189 1323 1064 947 1065 1191
8 1190 1064 1191 1325 1066 948 1067 1193
8 1191 1065 1192 1326 1067 949 1068 1194
8 1067 1193 1069 950 1194 1327 1195 1070
8 1250 1133 1199 1330 1126 1019 1075 1196
8 1198 1077 1014 1122 1331 1200 1075 1196
8 1074 960 1077 1198 1197 1076 1201 1332
8 1085 980 1076 1197 1215 1099 1201 1332
8 1199 1079 1203 1333 1075 962 1080 1200
8 1132 1025 1119 1243 1199 1079 1203 1333
8 1201 1078 963 1077 1334 1202 1080 1200
8 1099 994 1078 1201 1227 1111 1202 1334
8 1343 1207 1081 1208 1210 1083 964 1082
8 1214 1084 1186 1319 1343 1207 1081 1208
8 1345 1210 1082 1209 1225 1100 981 1097
8 1346 1211 1083 1210 1228 1115 999 1100
8 1086 984 1099 1215 1216 1103 1227 1352
8 1087 985 1103 1216 1217 1104 1230 1353
8 1090 988 1104 1217 1219 1106 1231 1354
8 1218 1105 987 1089 1355 1232 1106 1219
8 1091 991 1105 1218 1220 1109 1232 1355
8 1092 992 1109 1220 1221 1110 1234 1356
8 1222 1108 1233 1357 1095 990 1107 1224
8 1222 1108 993 1093 1357 1233 1110 1221
8 1223 1101 989 1096 1358 1229 1107 1224
8 1226 1102 983 1098 1358 1229 1101 1223
8 1226 1102 1228 1359 1098 983 1100 1225
8 1103 995 1111 1227 1230 1112 1235 1360
8 1107 1002 1117 1233 1229 1116 1240 1362
8 1102 1001 1116 1229 1228 1115 1240 1362
8 1104 996 1112 1230 1231 1113 1236 1363
8 1364 1237 1114 1232 1231 1113 997 1106
8 1109 1005 1114 1232 1234 1118 1238 1365
8 1110 1004 1118 1234 1233 1117 1241 1366
8 1242 1374 1255 1138 1119 1243 1132 1025
8 1244 1127 1254 1376 1121 1015 1129 1245
8 1148 1031 1149 1275 1244 1127 1254 1376
8 1245 1129 1258 1377 1125 1016 1130 1248
8 1251 1134 1019 1126 1378 1257 1128 1246
8 1378 1257 1128 1246 1247 1131 1017 1123
8 1248 1130 1259 1379 1124 1018 1131 1247
8 1261 1381 1250 1133 1132 1249 1330 1199
8 1255 1380 1252 1135 1132 1249 1381 1261
8 1250 1133 1019 1126 1382 1262 1134 1251
8 1253 1136 1256 1385 1384 1263 1135 1252
8 1254 1137 1265 1387 1129 1022 1141 1258
8 1149 1032 1150 1276 1254 1137 1265 1387
8 1028 1135 1255 1138 1139 1256 1388 1266
8 1136 1029 1147 1264 1256 1139 1267 1389
8 1390 1268 1140 1257 1259 1142 1024 1131
8 1260 1143 1027 1134 1390 1268 1140 1257
8 1258 1141 1269 1391 1130 1023 1142 1259
8 1262 1145 1027 1134 1393 1271 1143 1260
8 1261 1144 1026 1133 1394 1272 1145 1262
8 1135 1028 1144 1261 1263 1146 1272 1394
8 1136 1029 1146 1263 1264 1147 1273 1395
8 1155 1041 1160 1282 1275 1149 1276 1405
8 1276 1150 1044 1160 1406 1277 1162 1286
8 1408 1283 1159 1279 1278 1156 1039 1151
8 1290 1165 1283 1408 1177 1053 1156 1278
8 1152 1040 1159 1279 1280 1158 1285 1409
8 1281 1157 1038 1153 1410 1284 1158 1280
8 1281 1157 1284 1410 1154 1042 1160 1282
8 1159 1046 1164 1283 1285 1163 1289 1412
8 1292 1167 1289 1412 1165 1048 1164 1283
8 1158 1045 1163 1285 1284 1161 1288 1413
8 1284 1161 1288 1413 1160 1044 1162 1286
8 1291 1166 1292 1418 1174 1051 1165 1290
8 1291 1166 1051 1174 1419 1293 1172 1305
8 1294 1169 1296 1421 1166 1049 1167 1292
8 1293 1168 1050 1172 1422 1295 1171 1303
8 1294 1169 1049 1166 1423 1297 1168 1293
8 1422 1295 1171 1303 1301 1170 1302 1435
8 1172 1050 1173 1306 1303 1171 1304 1438
8 1174 1051 1175 1308 1305 1172 1306 1440
8 1175 1052 1176 1309 1306 1173 1307 1441
8 1177 1053 1178 1311 1308 1175 1309 1443
8 1178 1054 1179 1312 1309 1176 1310 1444
8 1180 1055 1181 1314 1311 1178 1312 1446
8 1056 1181 1312 1179 1182 1315 1447 1313
8 1183 1058 1184 1316 1314 1181 1315 1448
8 1319 1186 1084 1214 1451 1317 1213 1350
8 1319 1186 1318 1453 1208 1081 1187 1321
8 1321 1187 1320 1456 1188 1063 1189 1323
8 1344 1208 1321 1457 1209 1082 1188 1322
8 1322 1188 1323 1458 1190 1064 1191 1325
8 1323 1189 1324 1459 1191 1065 1192 1326
8 1191 1325 1193 1067 1326 1460 1327 1194
8 1242 1374 1243 1119 1328 1462 1335 1204
8 1330 1199 1333 1465 1196 1075 1200 1331
8 1132 1249 1330 1199 1243 1375 1465 1333
8 1332 1201 1077 1198 1466 1334 1200 1331
8 1215 1099 1201 1332 1352 1227 1334 1466
8 1119 1243 1333 1203 1204 1335 1470 1338
8 1333 1203 1338 1470 1200 1080 1202 1334
8 1227 1111 1202 1334 1360 1235 1338 1470
8 1328 1462 1335 1204 1205 1336 1471 1339
8 1337 1206 1340 1472 1464 1329 1205 1336
8 1346 1211 1342 1479 1210 1083 1207 1343
8 1346 1211 1115 1228 1479 1342 1239 1361
8 1348 1212 1084 1214 1479 1342 1207 1343
8 1480 1343 1208 1344 1345 1210 1082 1209
8 1351 1214 1319 1454 1480 1343 1208 1344
8 1481 1346 1210 1345 1359 1228 1100 1225
8 1348 1212 1347 1483 1214 1084 1213 1350
8 1216 1103 1227 1352 1353 1230 1360 1488
8 1217 1104 1230 1353 1354 1231 1363 1489
8 1490 1364 1232 1355 1354 1231 1106 1219
8 1220 1109 1232 1355 1356 1234 1365 1491
8 1221 1110 1234 1356 1357 1233 1366 1492
8 1224 1107 1233 1357 1358 1229 1362 1493
8 1226 1102 1229 1358 1359 1228 1362 1493
8 1230 1112 1235 1360 1363 1236 1367 1496
8 1361 1239 1115 1228 1497 1371 1240 1362
8 1366 1241 1372 1498 1233 1117 1240 1362
8 1364 1237 1113 1231 1499 1368 1236 1363
8 1364 1237 1368 1499 1232 1114 1238 1365
8 1234 1118 1238 1365 1366 1241 1369 1500
8 1507 1373 1242 1374 1388 1266 1138 1255
8 1508 1374 1243 1375 1380 1255 1132 1249
8 1376 1254 1387 1509 1245 1129 1258 1377
8 1275 1149 1276 1405 1376 1254 1387 1509
8 1377 1258 1391 1510 1248 1130 1259 1379
8 1511 1390 1257 1378 1379 1259 1131 1247
8 1383 1260 1134 1251 1511 1390 1257 1378
8 1252 1135 1256 1385 1380 1255 1388 1512
8 1261 1381 1513 1394 1133 1250 1382 1262
8 1135 1252 1384 1263 1261 1381 1513 1394
8 1382 1262 1134 1251 1514 1393 1260 1383
8 1253 1136 1263 1384 1386 1264 1395 1516
8 1253 1136 1264 1386 1385 1256 1389 1517
8 1387 1265 1397 1519 1258 1141 1269 1391
8 1276 1150 1277 1406 1387 1265 1397 1519
8 1256 1139 1267 1389 1388 1266 1398 1520
8 1264 1147 1274 1396 1389 1267 1399 1521
8 1392 1270 1143 1260 1522 1400 1268 1390
8 1390 1268 1142 1259 1522 1400 1269 1391
8 1392 1270 1401 1523 1260 1143 1271 1393
8 1272 1394 1524 1402 1145 1262 1393 1271
8 1395 1273 1146 1263 1524 1402 1272 1394
8 1273 1395 1264 1147 1403 1526 1396 1274
8 1405 1276 1160 1282 1534 1406 1286 1411
8 1414 1287 1407 1535 1286 1162 1277 1406
8 1279 1159 1283 1408 1409 1285 1412 1537
8 1418 1292 1412 1537 1290 1165 1283 1408
8 1280 1158 1285 1409 1410 1284 1413 1538
8 1410 1284 1413 1538 1282 1160 1286 1411
8 1285 1163 1289 1412 1413 1288 1417 1540
8 1421 1296 1417 1540 1292 1167 1289 1412
8 1414 1287 1162 1286 1541 1416 1288 1413
8 1420 1294 1421 1545 1291 1166 1292 1418
8 1419 1293 1172 1305 1546 1422 1303 1437
8 1420 1294 1166 1291 1547 1423 1293 1419
8 1294 1169 1297 1423 1421 1296 1425 1548
8 1423 1297 1168 1293 1549 1424 1295 1422
8 1301 1170 1298 1427 1422 1295 1424 1549
8 1432 1300 1428 1554 1301 1170 1298 1427
8 1431 1299 1428 1554 1560 1430 1300 1432
8 1563 1433 1300 1432 1435 1302 1170 1301
8 1546 1422 1303 1437 1434 1301 1435 1565
8 1303 1171 1304 1438 1435 1302 1436 1566
8 1305 1172 1306 1440 1437 1303 1438 1568
8 1306 1173 1307 1441 1438 1304 1439 1569
8 1308 1175 1309 1443 1440 1306 1441 1571
8 1309 1176 1310 1444 1441 1307 1442 1572
8 1311 1178 1312 1446 1443 1309 1444 1574
8 1179 1312 1444 1310 1313 1447 1575 1445
8 1314 1181 1315 1448 1446 1312 1447 1576
8 1350 1213 1349 1486 1451 1317 1449 1579
8 1451 1317 1450 1581 1319 1186 1318 1453
8 1454 1319 1214 1351 1582 1451 1350 1487
8 1453 1318 1452 1584 1321 1187 1320 1456
8 1454 1319 1453 1585 1344 1208 1321 1457
8 1456 1320 1455 1586 1323 1189 1324 1459
8 1457 1321 1456 1587 1322 1188 1323 1458
8 1458 1323 1459 1588 1325 1191 1326 1460
8 1205 1336 1464 1329 1328 1462 1590 1461
8 1507 1373 1461 1590 1374 1242 1328 1462
8 1508 1374 1462 1591 1375 1243 1335 1467
8 1337 1206 1329 1464 1473 1341 1463 1594
8 1375 1243 1335 1467 1465 1333 1470 1596
8 1465 1333 1470 1596 1331 1200 1334 1466
8 1352 1227 1334 1466 1488 1360 1470 1596
8 1591 1462 1336 1468 1467 1335 1471 1597
8 1469 1337 1472 1598 1595 1464 1336 1468
8 1471 1339 1474 1600 1335 1204 1338 1470
8 1600 1474 1367 1496 1470 1338 1235 1360
8 1336 1205 1340 1472 1471 1339 1475 1601
8 1337 1206 1341 1473 1472 1340 1476 1602
8 1495 1370 1478 1609 1361 1239 1342 1479
8 1348 1212 1342 1479 1483 1347 1478 1609
8 1481 1346 1479 1610 1345 1210 1343 1480
8 1481 1346 1228 1359 1610 1479 1361 1494
8 1484 1348 1214 1351 1610 1479 1343 1480
8 1483 1347 1482 1612 1350 1213 1349 1486
8 1484 1348 1483 1613 1351 1214 1350 1487
8 1353 1230 1360 1488 1489 1363 1496 1616
8 1490 1364 1231 1354 1617 1499 1363 1489
8 1490 1364 1499 1617 1355 1232 1365 1491
8 1356 1234 1365 1491 1492 1366 1500 1619
8 1492 1366 1498 1620 1357 1233 1362 1493
8 1494 1361 1228 1359 1621 1497 1362 1493
8 1495 1370 1239 1361 1622 1504 1371 1497
8 1363 1236 1367 1496 1499 1368 1501 1623
8 1497 1371 1240 1362 1624 1505 1372 1498
8 1625 1503 1372 1498 1500 1369 1241 1366
8 1365 1238 1368 1499 1500 1369 1502 1626
8 1520 1398 1506 1633 1388 1266 1373 1507
8 1634 1507 1374 1508 1512 1388 1255 1380
8 1509 1387 1519 1635 1377 1258 1391 1510
8 1405 1276 1406 1534 1509 1387 1519 1635
8 1515 1392 1260 1383 1636 1522 1390 1511
8 1511 1390 1259 1379 1636 1522 1391 1510
8 1385 1256 1389 1517 1512 1388 1520 1637
8 1513 1394 1262 1382 1638 1524 1393 1514
8 1395 1516 1638 1524 1263 1384 1513 1394
8 1515 1392 1523 1639 1383 1260 1393 1514
8 1516 1395 1526 1640 1386 1264 1396 1518
8 1386 1264 1396 1518 1517 1389 1521 1641
8 1519 1397 1527 1643 1391 1269 1400 1522
8 1535 1407 1527 1643 1406 1277 1397 1519
8 1389 1267 1399 1521 1520 1398 1528 1644
8 1645 1529 1399 1521 1525 1404 1274 1396
8 1392 1270 1400 1522 1523 1401 1531 1646
8 1524 1402 1271 1393 1648 1532 1401 1523
8 1403 1526 1648 1532 1273 1395 1524 1402
8 1525 1404 1274 1396 1649 1533 1403 1526
8 1539 1414 1535 1657 1411 1286 1406 1534
8 1542 1415 1536 1658 1414 1287 1407 1535
8 1409 1285 1412 1537 1538 1413 1540 1660
8 1545 1421 1540 1660 1418 1292 1412 1537
8 1539 1414 1286 1411 1661 1541 1413 1538
8 1540 1417 1544 1663 1413 1288 1416 1541
8 1421 1296 1425 1548 1540 1417 1544 1663
8 1542 1415 1287 1414 1664 1543 1416 1541
8 1420 1294 1423 1547 1545 1421 1548 1666
8 1547 1423 1293 1419 1667 1549 1422 1546
8 1434 1301 1427 1553 1546 1422 1549 1667
8 1423 1297 1424 1549 1548 1425 1550 1668
8 1551 1426 1550 1668 1427 1298 1424 1549
8 1551 1426 1298 1427 1671 1552 1428 1554
8 1562 1432 1554 1674 1434 1301 1427 1553
8 1431 1299 1429 1558 1554 1428 1555 1675
8 1431 1299 1430 1560 1558 1429 1557 1680
8 1560 1430 1300 1432 1683 1559 1433 1563
8 1561 1431 1554 1674 1684 1560 1432 1562
8 1685 1563 1432 1562 1565 1435 1301 1434
8 1435 1302 1436 1566 1563 1433 1564 1686
8 1437 1303 1438 1568 1565 1435 1566 1688
8 1438 1304 1439 1569 1566 1436 1567 1689
8 1440 1306 1441 1571 1568 1438 1569 1691
8 1441 1307 1442 1572 1569 1439 1570 1692
8 1443 1309 1444 1574 1571 1441 1572 1694
8 1310 1444 1572 1442 1445 1575 1695 1573
8 1446 1312 1447 1576 1574 1444 1575 1696
8 1486 1349 1485 1614 1579 1449 1577 1699
8 1451 1317 1449 1579 1581 1450 1578 1701
8 1487 1350 1486 1615 1582 1451 1579 1702
8 1581 1450 1580 1704 1453 1318 1452 1584
8 1582 1451 1581 1705 1454 1319 1453 1585
8 1584 1452 1583 1706 1456 1320 1455 1586
8 1585 1453 1584 1707 1457 1321 1456 1587
8 1587 1456 1586 1708 1458 1323 1459 1588
8 1633 1506 1589 1710 1507 1373 1461 1590
8 1464 1329 1461 1590 1594 1463 1589 1710
8 1468 1336 1462 1591 1595 1464 1590 1711
8 1634 1507 1590 1711 1508 1374 1462 1591
8 1473 1341 1463 1594 1603 1477 1593 1716
8 1469 1337 1464 1595 1599 1473 1594 1717
8 1471 1597 1467 1335 1600 1718 1596 1470
8 1718 1600 1496 1616 1596 1470 1360 1488
8 1336 1468 1597 1471 1472 1598 1719 1601
8 1469 1337 1473 1599 1598 1472 1602 1720
8 1722 1604 1501 1623 1600 1474 1367 1496
8 1475 1601 1471 1339 1604 1722 1600 1474
8 1602 1476 1605 1723 1472 1340 1475 1601
8 1476 1602 1724 1606 1341 1473 1603 1477
8 1483 1347 1478 1609 1612 1482 1608 1731
8 1495 1370 1504 1622 1609 1478 1608 1731
8 1618 1495 1609 1732 1494 1361 1479 1610
8 1484 1348 1479 1610 1613 1483 1609 1732
8 1486 1349 1482 1612 1614 1485 1611 1733
8 1613 1483 1612 1734 1487 1350 1486 1615
8 1489 1363 1496 1616 1617 1499 1623 1736
8 1491 1365 1499 1617 1619 1500 1626 1737
8 1618 1495 1361 1494 1738 1622 1497 1621
8 1739 1625 1498 1620 1619 1500 1366 1492
8 1621 1497 1362 1493 1740 1624 1498 1620
8 1742 1631 1504 1622 1624 1505 1371 1497
8 1743 1628 1502 1626 1623 1501 1368 1499
8 1744 1630 1505 1624 1625 1503 1372 1498
8 1745 1629 1503 1625 1626 1502 1369 1500
8 1520 1398 1528 1644 1633 1506 1632 1751
8 1637 1520 1633 1752 1512 1388 1507 1634
8 1635 1519 1643 1753 1510 1391 1522 1636
8 1657 1535 1643 1753 1534 1406 1519 1635
8 1515 1392 1522 1636 1639 1523 1646 1754
8 1517 1389 1521 1641 1637 1520 1644 1755
8 1524 1638 1756 1648 1393 1514 1639 1523
8 1640 1526 1395 1516 1756 1648 1524 1638
8 1642 1525 1396 1518 1757 1649 1526 1640
8 1758 1645 1521 1641 1642 1525 1396 1518
8 1646 1531 1400 1522 1760 1650 1527 1643
8 1535 1407 1536 1658 1643 1527 1650 1760
8 1521 1399 1529 1645 1644 1528 1651 1761
8 1647 1530 1652 1762 1525 1404 1529 1645
8 1401 1523 1648 1532 1531 1646 1763 1655
8 1525 1404 1533 1649 1647 1530 1654 1765
8 1533 1649 1766 1656 1403 1526 1648 1532
8 1662 1542 1658 1774 1539 1414 1535 1657
8 1542 1415 1543 1664 1658 1536 1659 1775
8 1660 1540 1663 1777 1538 1413 1541 1661
8 1545 1421 1548 1666 1660 1540 1663 1777
8 1662 1542 1414 1539 1778 1664 1541 1661
8 1664 1543 1416 1541 1779 1665 1544 1663
8 1548 1425 1550 1668 1663 1544 1665 1779
8 1547 1423 1549 1667 1666 1548 1668 1781
8 1670 1551 1668 1781 1553 1427 1549 1667
8 1551 1426 1552 1671 1668 1550 1669 1782
8 1670 1551 1427 1553 1784 1671 1554 1674
8 1675 1555 1672 1785 1554 1428 1552 1671
8 1678 1556 1673 1789 1558 1429 1555 1675
8 1561 1431 1558 1681 1674 1554 1675 1790
8 1794 1677 1556 1678 1680 1557 1429 1558
8 1560 1430 1559 1683 1680 1557 1679 1797
8 1561 1431 1560 1684 1681 1558 1680 1798
8 1563 1433 1564 1686 1683 1559 1682 1800
8 1684 1560 1432 1562 1801 1683 1563 1685
8 1565 1435 1566 1688 1685 1563 1686 1802
8 1566 1436 1567 1689 1686 1564 1687 1803
8 1568 1438 1569 1691 1688 1566 1689 1805
8 1569 1439 1570 1692 1689 1567 1690 1806
8 1571 1441 1572 1694 1691 1569 1692 1808
8 1442 1572 1692 1570 1573 1695 1809 1693
8 1574 1444 1575 1696 1694 1572 1695 1810
8 1614 1485 1592 1712 1699 1577 1697 1813
8 1579 1449 1577 1699 1701 1578 1698 1815
8 1615 1486 1614 1735 1702 1579 1699 1816
8 1701 1578 1700 1818 1581 1450 1580 1704
8 1582 1451 1579 1702 1705 1581 1701 1819
8 1704 1580 1703 1820 1584 1452 1583 1706
8 1705 1581 1704 1821 1585 1453 1584 1707
8 1707 1584 1706 1822 1587 1456 1586 1708
8 1710 1589 1506 1633 1824 1709 1632 1751
8 1594 1463 1589 1710 1716 1593 1709 1824
8 1752 1633 1710 1825 1634 1507 1590 1711
8 1595 1464 1590 1711 1717 1594 1710 1825
8 1830 1714 1592 1712 1733 1611 1485 1614
8 1603 1477 1593 1716 1725 1607 1715 1834
8 1599 1473 1594 1717 1721 1603 1716 1835
8 1837 1722 1623 1736 1718 1600 1496 1616
8 1719 1601 1722 1837 1597 1471 1600 1718
8 1602 1720 1598 1472 1723 1838 1719 1601
8 1720 1602 1473 1599 1839 1724 1603 1721
8 1723 1605 1726 1840 1601 1475 1604 1722
8 1840 1726 1628 1743 1722 1604 1501 1623
8 1724 1606 1727 1841 1602 1476 1605 1723
8 1725 1607 1728 1842 1603 1477 1606 1724
8 1612 1482 1608 1731 1733 1611 1730 1849
8 1741 1627 1730 1849 1622 1504 1608 1731
8 1613 1483 1609 1732 1734 1612 1731 1850
8 1618 1495 1622 1738 1732 1609 1731 1850
8 1615 1486 1612 1734 1735 1614 1733 1851
8 1852 1743 1626 1737 1736 1623 1499 1617
8 1853 1745 1625 1739 1737 1626 1500 1619
8 1855 1742 1622 1738 1740 1624 1497 1621
8 1856 1744 1624 1740 1739 1625 1498 1620
8 1741 1627 1504 1622 1857 1746 1631 1742
8 1742 1631 1505 1624 1858 1749 1630 1744
8 1859 1747 1629 1745 1743 1628 1502 1626
8 1860 1748 1630 1744 1745 1629 1503 1625
8 1644 1528 1651 1761 1751 1632 1750 1865
8 1637 1520 1644 1755 1752 1633 1751 1866
8 1754 1646 1522 1636 1867 1760 1643 1753
8 1657 1535 1658 1774 1753 1643 1760 1867
8 1639 1523 1646 1754 1756 1648 1763 1868
8 1641 1521 1645 1758 1755 1644 1761 1869
8 1757 1649 1526 1640 1870 1766 1648 1756
8 1642 1525 1649 1757 1759 1647 1765 1871
8 1759 1647 1762 1872 1642 1525 1645 1758
8 1760 1650 1767 1874 1646 1531 1655 1763
8 1658 1536 1659 1775 1760 1650 1767 1874
8 1762 1652 1768 1875 1645 1529 1651 1761
8 1764 1653 1769 1876 1647 1530 1652 1762
8 1656 1766 1877 1773 1532 1648 1763 1655
8 1771 1879 1765 1654 1653 1764 1647 1530
8 1533 1649 1765 1654 1656 1766 1880 1772
8 1662 1542 1664 1778 1774 1658 1775 1887
8 1664 1543 1665 1779 1775 1659 1776 1888
8 1778 1664 1541 1661 1890 1779 1663 1777
8 1666 1548 1668 1781 1777 1663 1779 1890
8 1782 1669 1780 1891 1668 1550 1665 1779
8 1670 1551 1671 1784 1781 1668 1782 1893
8 1671 1552 1672 1785 1782 1669 1783 1894
8 1790 1675 1785 1896 1674 1554 1671 1784
8 1675 1555 1673 1789 1785 1672 1786 1897
8 1792 1676 1788 1903 1678 1556 1673 1789
8 1795 1678 1789 1904 1681 1558 1675 1790
8 1792 1676 1556 1678 1906 1791 1677 1794
8 1680 1557 1679 1797 1794 1677 1793 1909
8 1910 1794 1678 1795 1798 1680 1558 1681
8 1683 1559 1682 1800 1797 1679 1796 1912
8 1684 1560 1683 1801 1798 1680 1797 1913
8 1686 1564 1687 1803 1800 1682 1799 1915
8 1685 1563 1686 1802 1801 1683 1800 1916
8 1688 1566 1689 1805 1802 1686 1803 1917
8 1689 1567 1690 1806 1803 1687 1804 1918
8 1691 1569 1692 1808 1805 1689 1806 1920
8 1692 1570 1693 1809 1806 1690 1807 1921
8 1694 1572 1695 1810 1808 1692 1809 1922
8 1829 1713 1811 1926 1712 1592 1697 1813
8 1813 1697 1812 1928 1699 1577 1698 1815
8 1735 1614 1712 1828 1816 1699 1813 1929
8 1815 1698 1814 1931 1701 1578 1700 1818
8 1702 1579 1699 1816 1819 1701 1815 1932
8 1818 1700 1817 1933 1704 1580 1703 1820
8 1819 1701 1818 1934 1705 1581 1704 1821
8 1821 1704 1820 1935 1707 1584 1706 1822
8 1824 1709 1632 1751 1937 1823 1750 1865
8 1716 1593 1709 1824 1834 1715 1823 1937
8 1825 1710 1633 1752 1938 1824 1751 1866
8 1717 1594 1710 1825 1835 1716 1824 1938
8 1945 1830 1712 1828 1851 1733 1614 1735
8 1830 1714 1831 1946 1712 1592 1713 1829
8 1947 1832 1714 1830 1849 1730 1611 1733
8 1843 1729 1607 1725 1950 1833 1715 1834
8 1721 1603 1716 1835 1836 1725 1834 1951
8 1836 1725 1842 1953 1721 1603 1724 1839
8 1723 1838 1719 1601 1840 1954 1837 1722
8 1954 1840 1743 1852 1837 1722 1623 1736
8 1724 1839 1720 1602 1841 1955 1838 1723
8 1841 1727 1844 1956 1723 1605 1726 1840
8 1956 1844 1747 1859 1840 1726 1628 1743
8 1728 1842 1724 1606 1845 1957 1841 1727
8 1725 1607 1729 1843 1842 1728 1846 1958
8 1741 1627 1746 1857 1849 1730 1848 1965
8 1734 1612 1731 1850 1851 1733 1849 1966
8 1854 1741 1849 1966 1738 1622 1731 1850
8 1967 1859 1745 1853 1852 1743 1626 1737
8 1968 1860 1744 1856 1853 1745 1625 1739
8 1854 1741 1622 1738 1969 1857 1742 1855
8 1855 1742 1624 1740 1970 1858 1744 1856
8 1857 1746 1631 1742 1971 1861 1749 1858
8 1858 1749 1630 1744 1972 1863 1748 1860
8 1859 1747 1862 1973 1745 1629 1748 1860
8 1875 1768 1864 1977 1761 1651 1750 1865
8 1755 1644 1761 1869 1866 1751 1865 1978
8 1867 1760 1874 1979 1754 1646 1763 1868
8 1774 1658 1775 1887 1867 1760 1874 1979
8 1870 1766 1648 1756 1980 1877 1763 1868
8 1872 1762 1875 1981 1758 1645 1761 1869
8 1757 1649 1766 1870 1871 1765 1880 1982
8 1983 1879 1764 1873 1871 1765 1647 1759
8 1873 1764 1876 1984 1759 1647 1762 1872
8 1877 1773 1655 1763 1986 1881 1767 1874
8 1775 1659 1776 1888 1874 1767 1881 1986
8 1876 1769 1882 1987 1762 1652 1768 1875
8 1878 1770 1883 1988 1764 1653 1769 1876
8 1880 1772 1656 1766 1989 1886 1773 1877
8 1878 1770 1653 1764 1990 1884 1771 1879
8 1765 1654 1772 1880 1879 1771 1885 1991
8 1778 1664 1779 1890 1887 1775 1888 1997
8 1998 1889 1776 1888 1891 1780 1665 1779
8 1893 1782 1891 2000 1781 1668 1779 1890
8 1894 1783 1892 2001 1782 1669 1780 1891
8 1784 1671 1785 1896 1893 1782 1894 2003
8 1897 1786 1895 2004 1785 1672 1783 1894
8 1790 1675 1789 1904 1896 1785 1897 2006
8 1901 1787 1898 2007 1789 1673 1786 1897
8 1903 1788 1900 2013 1789 1673 1787 1901
8 1792 1676 1791 1906 1903 1788 1902 2016
8 1907 1792 1903 2017 1795 1678 1789 1904
8 1906 1791 1677 1794 2019 1905 1793 1909
8 1907 1792 1678 1795 2020 1906 1794 1910
8 1797 1679 1796 1912 1909 1793 1908 2022
8 1798 1680 1797 1913 1910 1794 1909 2023
8 1800 1682 1799 1915 1912 1796 1911 2025
8 1801 1683 1800 1916 1913 1797 1912 2026
8 1803 1687 1804 1918 1915 1799 1914 2028
8 1802 1686 1803 1917 1916 1800 1915 2029
8 1805 1689 1806 1920 1917 1803 1918 2030
8 1806 1690 1807 1921 1918 1804 1919 2031
8 1808 1692 1809 1922 1920 1806 1921 2032
8 1939 1826 1924 2037 1829 1713 1811 1926
8 1926 1811 1925 2039 1813 1697 1812 1928
8 1944 1829 1926 2040 1828 1712 1813 1929
8 1928 1812 1927 2042 1815 1698 1814 1931
8 1929 1813 1928 2043 1816 1699 1815 1932
8 1931 1814 1930 2044 1818 1700 1817 1933
8 1932 1815 1931 2045 1819 1701 1818 1934
8 1934 1818 1933 2046 1821 1704 1820 1935
8 2048 1936 1823 1937 1977 1864 1750 1865
8 1950 1833 1715 1834 2048 1936 1823 1937
8 1938 1824 1751 1866 2049 1937 1865 1978
8 1835 1716 1824 1938 1951 1834 1937 2049
8 1939 1826 1713 1829 2053 1942 1831 1946
8 1940 1827 1923 2035 2053 1942 1826 1939
8 1945 1830 1946 2058 1828 1712 1829 1944
8 2059 1947 1830 1945 1966 1849 1733 1851
8 1947 1832 1730 1849 2060 1948 1848 1965
8 1947 1832 1948 2060 1830 1714 1831 1946
8 1959 1847 1729 1843 2063 1949 1833 1950
8 1952 1843 1725 1836 2064 1950 1834 1951
8 1836 1725 1843 1952 1953 1842 1958 2066
8 1953 1842 1957 2067 1839 1724 1841 1955
8 1841 1955 1838 1723 1956 2068 1954 1840
8 2068 1956 1859 1967 1954 1840 1743 1852
8 1956 1844 1960 2069 1859 1747 1862 1973
8 1845 1957 1841 1727 1960 2069 1956 1844
8 1728 1842 1957 1845 1846 1958 2071 1961
8 1962 2072 1959 1847 1846 1958 1843 1729
8 1971 1861 1964 2077 1857 1746 1848 1965
8 1854 1741 1857 1969 1966 1849 1965 2078
8 1967 1859 1973 2079 1853 1745 1860 1968
8 1970 1858 1744 1856 2080 1972 1860 1968
8 1969 1857 1742 1855 2081 1971 1858 1970
8 1971 1861 1749 1858 2082 1974 1863 1972
8 1973 1862 1975 2083 1860 1748 1863 1972
8 1987 1882 1976 2086 1875 1768 1864 1977
8 1981 1875 1977 2087 1869 1761 1865 1978
8 1980 1877 1763 1868 2088 1986 1874 1979
8 1887 1775 1888 1997 1979 1874 1986 2088
8 1880 1982 2089 1989 1766 1870 1980 1877
8 1984 1876 1987 2090 1872 1762 1875 1981
8 1765 1871 1983 1879 1880 1982 2091 1991
8 1985 1878 1764 1873 2092 1990 1879 1983
8 1985 1878 1988 2093 1873 1764 1876 1984
8 2094 1992 1881 1986 1998 1889 1776 1888
8 1986 1881 1992 2094 1877 1773 1886 1989
8 1988 1883 1993 2095 1876 1769 1882 1987
8 1878 1770 1884 1990 1988 1883 1994 2096
8 1991 1885 1772 1880 2097 1996 1886 1989
8 1879 1771 1885 1991 1990 1884 1995 2098
8 2103 1998 1888 1997 2000 1891 1779 1890
8 2104 1999 1889 1998 2001 1892 1780 1891
8 2003 1894 2001 2106 1893 1782 1891 2000
8 2004 1895 2002 2107 1894 1783 1892 2001
8 2006 1897 2004 2109 1896 1785 1894 2003
8 2007 1898 2005 2110 1897 1786 1895 2004
8 2014 1901 2007 2112 1904 1789 1897 2006
8 2011 1899 2008 2113 1901 1787 1898 2007
8 2119 2010 1899 2011 2013 1900 1787 1901
8 2016 1902 2012 2122 1903 1788 1900 2013
8 2017 1903 2013 2123 1904 1789 1901 2014
8 1906 1791 1905 2019 2016 1902 2015 2125
8 1907 1792 1906 2020 2017 1903 2016 2126
8 1909 1793 1908 2022 2019 1905 2018 2128
8 2020 1906 1794 1910 2129 2019 1909 2023
8 1912 1796 1911 2025 2022 1908 2021 2131
8 1913 1797 1912 2026 2023 1909 2022 2132
8 1915 1799 1914 2028 2025 1911 2024 2134
8 1916 1800 1915 2029 2026 1912 2025 2135
8 1918 1804 1919 2031 2028 1914 2027 2136
8 1917 1803 1918 2030 2029 1915 2028 2137
8 1920 1806 1921 2032 2030 1918 2031 2138
8 1940 1827 1941 2054 2035 1923 2033 2140
8 2035 1923 2034 2143 1939 1826 1924 2037
8 2037 1924 2036 2146 1926 1811 1925 2039
8 2051 1939 2037 2147 1944 1829 1926 2040
8 2039 1925 2038 2149 1928 1812 1927 2042
8 2040 1926 2039 2150 1929 1813 1928 2043
8 2042 1927 2041 2151 1931 1814 1930 2044
8 2043 1928 2042 2152 1932 1815 1931 2045
8 2045 1931 2044 2153 1934 1818 1933 2046
8 2155 2047 1936 2048 2086 1976 1864 1977
8 2063 1949 1833 1950 2155 2047 1936 2048
8 2156 2048 1937 2049 2087 1977 1865 1978
8 2064 1950 1834 1951 2156 2048 1937 2049
8 2051 1939 1829 1944 2160 2053 1946 2058
8 2052 1940 2035 2144 2160 2053 1939 2051
8 2053 1942 1831 1946 2163 2057 1948 2060
8 2055 1943 1827 1940 2163 2057 1942 2053
8 2055 1943 2056 2164 1940 1827 1941 2054
8 2059 1947 1849 1966 2167 2060 1965 2078
8 2059 1947 2060 2167 1945 1830 1946 2058
8 2077 1964 2061 2168 1965 1848 1948 2060
8 2070 1963 1847 1959 2170 2062 1949 2063
8 2065 1959 1843 1952 2171 2063 1950 2064
8 2173 2072 1958 2066 2065 1959 1843 1952
8 1953 1842 1958 2066 2067 1957 2071 2174
8 2068 1956 2069 2175 1967 1859 1973 2079
8 2067 1957 2069 2175 1955 1841 1956 2068
8 1845 1957 2069 1960 1961 2071 2176 2073
8 2069 1960 2073 2176 1973 1862 1975 2083
8 2070 1963 2075 2177 1959 1847 1962 2072
8 1846 1958 2071 1961 1962 2072 2178 2074
8 2077 1964 1861 1971 2182 2076 1974 2082
8 2081 1971 2077 2183 1969 1857 1965 2078
8 2079 1973 2083 2184 1968 1860 1972 2080
8 2081 1971 1858 1970 2185 2082 1972 2080
8 2083 1975 2084 2186 1972 1863 1974 2082
8 2086 1976 1882 1987 2189 2085 1993 2095
8 2090 1987 2086 2190 1981 1875 1977 2087
8 2191 2094 1986 2088 2103 1998 1888 1997
8 2088 1986 2094 2191 1980 1877 1989 2089
8 1991 2091 2192 2097 1880 1982 2089 1989
8 2093 1988 2095 2193 1984 1876 1987 2090
8 1879 1983 2092 1990 1991 2091 2194 2098
8 1985 1878 1990 2092 2093 1988 2096 2195
8 2097 1996 1886 1989 2196 2099 1992 2094
8 2196 2099 1992 2094 2104 1999 1889 1998
8 1994 2096 1988 1883 2100 2197 2095 1993
8 2096 1994 1884 1990 2198 2101 1995 2098
8 1995 2098 2199 2102 1885 1991 2097 1996
8 2203 2104 1998 2103 2106 2001 1891 2000
8 2107 2002 2105 2204 2001 1892 1999 2104
8 2109 2004 2107 2206 2003 1894 2001 2106
8 2110 2005 2108 2207 2004 1895 2002 2107
8 2112 2007 2110 2209 2006 1897 2004 2109
8 2113 2008 2111 2210 2007 1898 2005 2110
8 2120 2011 2113 2212 2014 1901 2007 2112
8 2117 2009 2114 2213 2011 1899 2008 2113
8 2219 2116 2009 2117 2119 2010 1899 2011
8 2222 2118 2010 2119 2122 2012 1900 2013
8 2223 2119 2011 2120 2123 2013 1901 2014
8 2016 1902 2015 2125 2122 2012 2121 2225
8 2126 2016 2122 2226 2017 1903 2013 2123
8 2019 1905 2018 2128 2125 2015 2124 2228
8 2020 1906 2019 2129 2126 2016 2125 2229
8 2022 1908 2021 2131 2128 2018 2127 2231
8 2023 1909 2022 2132 2129 2019 2128 2232
8 2025 1911 2024 2134 2131 2021 2130 2234
8 2026 1912 2025 2135 2132 2022 2131 2235
8 1914 2028 2134 2024 2027 2136 2236 2133
8 2029 1915 2028 2137 2135 2025 2134 2237
8 2030 1918 2031 2138 2137 2028 2136 2238
8 2157 2050 2139 2240 2054 1941 2033 2140
8 2052 1940 2054 2161 2144 2035 2140 2242
8 2140 2033 2141 2243 2035 1923 2034 2143
8 2143 2034 2142 2246 2037 1924 2036 2146
8 2144 2035 2143 2247 2051 1939 2037 2147
8 2146 2036 2145 2249 2039 1925 2038 2149
8 2147 2037 2146 2250 2040 1926 2039 2150
8 2149 2038 2148 2251 2042 1927 2041 2151
8 2150 2039 2149 2252 2043 1928 2042 2152
8 2152 2042 2151 2253 2045 1931 2044 2153
8 2255 2154 2047 2155 2189 2085 1976 2086
8 2170 2062 1949 2063 2255 2154 2047 2155
8 2256 2155 2048 2156 2190 2086 1977 2087
8 2171 2063 1950 2064 2256 2155 2048 2156
8 2258 2159 2050 2157 2164 2056 1941 2054
8 2160 2053 1946 2058 2262 2163 2060 2167
8 2162 2055 1940 2052 2262 2163 2053 2160
8 2162 2055 2164 2263 2052 1940 2054 2161
8 2163 2057 1948 2060 2264 2165 2061 2168
8 2055 1943 2057 2163 2164 2056 2165 2264
8 2182 2076 2166 2268 2077 1964 2061 2168
8 2183 2077 2168 2269 2078 1965 2060 2167
8 2070 1963 2062 2170 2177 2075 2169 2271
8 2172 2070 1959 2065 2272 2170 2063 2171
8 2172 2070 2177 2273 2065 1959 2072 2173
8 2066 1958 2072 2173 2174 2071 2178 2274
8 2067 1957 2071 2174 2175 2069 2176 2275
8 2175 2069 2176 2275 2079 1973 2083 2184
8 2071 1961 2074 2178 2176 2073 2179 2276
8 2176 2073 2179 2276 2083 1975 2084 2186
8 2072 1962 2075 2177 2178 2074 2180 2277
8 2182 2076 1974 2082 2280 2181 2084 2186
8 2183 2077 1971 2081 2281 2182 2082 2185
8 2184 2083 2186 2282 2080 1972 2082 2185
8 2189 2085 1993 2095 2285 2188 2100 2197
8 2190 2086 1987 2090 2286 2189 2095 2193
8 2192 2097 1989 2089 2287 2196 2094 2191
8 2287 2196 2094 2191 2203 2104 1998 2103
8 2194 2098 1991 2091 2288 2199 2097 2192
8 2195 2096 2197 2289 2093 1988 2095 2193
8 2096 2195 2290 2198 1990 2092 2194 2098
8 2097 1996 2099 2196 2199 2102 2200 2291
8 2196 2099 1999 2104 2291 2200 2105 2204
8 2100 2197 2292 2201 1994 2096 2198 2101
8 1995 2098 2198 2101 2102 2199 2293 2202
8 2206 2107 2204 2296 2106 2001 2104 2203
8 2207 2108 2205 2297 2107 2002 2105 2204
8 2209 2110 2207 2299 2109 2004 2107 2206
8 2210 2111 2208 2300 2110 2005 2108 2207
8 2212 2113 2210 2302 2112 2007 2110 2209
8 2213 2114 2211 2303 2113 2008 2111 2210
8 2220 2117 2213 2305 2120 2011 2113 2212
8 2216 2115 2214 2306 2117 2009 2114 2213
8 2216 2115 2009 2117 2311 2217 2116 2219
8 2219 2116 2010 2119 2314 2218 2118 2222
8 2315 2219 2117 2220 2223 2119 2011 2120
8 2122 2012 2121 2225 2222 2118 2221 2317
8 2318 2222 2119 2223 2226 2122 2013 2123
8 2125 2015 2124 2228 2225 2121 2224 2320
8 2126 2016 2125 2229 2226 2122 2225 2321
8 2128 2018 2127 2231 2228 2124 2227 2323
8 2129 2019 2128 2232 2229 2125 2228 2324
8 2131 2021 2130 2234 2231 2127 2230 2326
8 2132 2022 2131 2235 2232 2128 2231 2327
8 2134 2024 2133 2236 2234 2130 2233 2328
8 2135 2025 2134 2237 2235 2131 2234 2329
8 2137 2028 2136 2238 2237 2134 2236 2330
8 2157 2050 2158 2259 2240 2139 2239 2332
8 2257 2157 2240 2334 2161 2054 2140 2242
8 2240 2139 2241 2335 2140 2033 2141 2243
8 2242 2140 2243 2337 2144 2035 2143 2247
8 2243 2141 2244 2338 2143 2034 2142 2246
8 2246 2142 2245 2341 2146 2036 2145 2249
8 2247 2143 2246 2342 2147 2037 2146 2250
8 2249 2145 2248 2343 2149 2038 2148 2251
8 2250 2146 2249 2344 2150 2039 2149 2252
8 2252 2149 2251 2345 2152 2042 2151 2253
8 2169 2271 2347 2254 2062 2170 2255 2154
8 2189 2085 2188 2285 2255 2154 2254 2347
8 2348 2255 2155 2256 2286 2189 2086 2190
8 2272 2170 2063 2171 2348 2255 2155 2256
8 2349 2258 2157 2257 2263 2164 2054 2161
8 2258 2159 2261 2351 2157 2050 2158 2259
8 2258 2159 2056 2164 2351 2261 2165 2264
8 2262 2163 2060 2167 2355 2264 2168 2269
8 2162 2055 2163 2262 2263 2164 2264 2355
8 2357 2266 2165 2264 2268 2166 2061 2168
8 2268 2166 2076 2182 2361 2267 2181 2280
8 2281 2182 2268 2362 2183 2077 2168 2269
8 2271 2169 2270 2364 2177 2075 2180 2277
8 2172 2070 2170 2272 2273 2177 2271 2365
8 2072 2173 2274 2178 2177 2273 2366 2277
8 2071 2174 2275 2176 2178 2274 2367 2276
8 2275 2176 2276 2367 2184 2083 2186 2282
8 2283 2187 2084 2186 2368 2278 2179 2276
8 2178 2074 2180 2277 2276 2179 2278 2368
8 2283 2187 2279 2370 2186 2084 2181 2280
8 2281 2182 2082 2185 2371 2280 2186 2282
8 2188 2285 2374 2284 2100 2197 2292 2201
8 2286 2189 2095 2193 2375 2285 2197 2289
8 2192 2097 2196 2287 2288 2199 2291 2376
8 2287 2196 2104 2203 2376 2291 2204 2296
8 2194 2098 2199 2288 2290 2198 2293 2377
8 2289 2197 2096 2195 2378 2292 2198 2290
8 2291 2200 2105 2204 2379 2294 2205 2297
8 2199 2102 2200 2291 2293 2202 2294 2379
8 2198 2101 2202 2293 2292 2201 2295 2380
8 2299 2207 2297 2383 2206 2107 2204 2296
8 2300 2208 2298 2384 2207 2108 2205 2297
8 2302 2210 2300 2386 2209 2110 2207 2299
8 2303 2211 2301 2387 2210 2111 2208 2300
8 2305 2213 2303 2389 2212 2113 2210 2302
8 2306 2214 2304 2390 2213 2114 2211 2303
8 2310 2216 2306 2392 2220 2117 2213 2305
8 2308 2215 2307 2393 2216 2115 2214 2306
8 2308 2215 2115 2216 2396 2309 2217 2311
8 2310 2216 2117 2220 2398 2311 2219 2315
8 2311 2217 2116 2219 2399 2312 2218 2314
8 2314 2218 2118 2222 2402 2313 2221 2317
8 2315 2219 2119 2223 2403 2314 2222 2318
8 2225 2121 2224 2320 2317 2221 2316 2405
8 2226 2122 2225 2321 2318 2222 2317 2406
8 2228 2124 2227 2323 2320 2224 2319 2408
8 2229 2125 2228 2324 2321 2225 2320 2409
8 2231 2127 2230 2326 2323 2227 2322 2411
8 2232 2128 2231 2327 2324 2228 2323 2412
8 2234 2130 2233 2328 2326 2230 2325 2413
8 2235 2131 2234 2329 2327 2231 2326 2414
8 2237 2134 2236 2330 2329 2234 2328 2415
8 2259 2158 2260 2352 2332 2239 2331 2417
8 2257 2157 2259 2350 2334 2240 2332 2419
8 2240 2139 2239 2332 2335 2241 2333 2420
8 2334 2240 2335 2422 2242 2140 2243 2337
8 2335 2241 2336 2423 2243 2141 2244 2338
8 2337 2243 2338 2425 2247 2143 2246 2342
8 2338 2244 2339 2426 2246 2142 2245 2341
8 2341 2245 2340 2428 2249 2145 2248 2343
8 2342 2246 2341 2429 2250 2146 2249 2344
8 2344 2249 2343 2430 2252 2149 2251 2345
8 2188 2285 2347 2254 2284 2374 2432 2346
8 2347 2254 2346 2432 2271 2169 2270 2364
8 2365 2271 2170 2272 2433 2347 2255 2348
8 2286 2189 2285 2375 2348 2255 2347 2433
8 2349 2258 2351 2435 2257 2157 2259 2350
8 2349 2258 2164 2263 2435 2351 2264 2355
8 2259 2158 2261 2351 2352 2260 2354 2437
8 2356 2265 2354 2437 2264 2165 2261 2351
8 2441 2357 2264 2355 2362 2268 2168 2269
8 2356 2265 2165 2264 2442 2358 2266 2357
8 2443 2359 2266 2357 2361 2267 2166 2268
8 2370 2279 2360 2446 2280 2181 2267 2361
8 2362 2268 2182 2281 2447 2361 2280 2371
8 2180 2277 2368 2278 2270 2364 2449 2363
8 2271 2365 2273 2177 2364 2450 2366 2277
8 2372 2283 2186 2282 2451 2368 2276 2367
8 2178 2274 2367 2276 2277 2366 2451 2368
8 2283 2187 2278 2368 2370 2279 2369 2452
8 2372 2283 2370 2453 2282 2186 2280 2371
8 2284 2374 2455 2373 2201 2292 2380 2295
8 2375 2285 2197 2289 2456 2374 2292 2378
8 2376 2291 2204 2296 2457 2379 2297 2383
8 2288 2199 2291 2376 2377 2293 2379 2457
8 2198 2290 2378 2292 2293 2377 2458 2380
8 2293 2202 2294 2379 2380 2295 2381 2459
8 2384 2298 2381 2459 2297 2205 2294 2379
8 2386 2300 2384 2463 2299 2207 2297 2383
8 2387 2301 2385 2464 2300 2208 2298 2384
8 2389 2303 2387 2466 2302 2210 2300 2386
8 2390 2304 2388 2467 2303 2211 2301 2387
8 2392 2306 2390 2469 2305 2213 2303 2389
8 2393 2307 2391 2470 2306 2214 2304 2390
8 2395 2308 2393 2472 2310 2216 2306 2392
8 2308 2215 2309 2396 2393 2307 2394 2473
8 2395 2308 2216 2310 2475 2396 2311 2398
8 2396 2309 2217 2311 2476 2397 2312 2399
8 2398 2311 2219 2315 2478 2399 2314 2403
8 2399 2312 2218 2314 2479 2400 2313 2402
8 2317 2221 2316 2405 2402 2313 2401 2482
8 2403 2314 2222 2318 2483 2402 2317 2406
8 2320 2224 2319 2408 2405 2316 2404 2485
8 2321 2225 2320 2409 2406 2317 2405 2486
8 2323 2227 2322 2411 2408 2319 2407 2488
8 2324 2228 2323 2412 2409 2320 2408 2489
8 2326 2230 2325 2413 2411 2322 2410 2490
8 2327 2231 2326 2414 2412 2323 2411 2491
8 2329 2234 2328 2415 2414 2326 2413 2492
8 2417 2331 2260 2352 2494 2416 2353 2438
8 2350 2259 2352 2436 2419 2332 2417 2496
8 2332 2239 2331 2417 2420 2333 2418 2497
8 2334 2240 2332 2419 2422 2335 2420 2499
8 2420 2333 2421 2500 2335 2241 2336 2423
8 2422 2335 2423 2502 2337 2243 2338 2425
8 2423 2336 2424 2503 2338 2244 2339 2426
8 2425 2338 2426 2505 2342 2246 2341 2429
8 2426 2339 2427 2506 2341 2245 2340 2428
8 2429 2341 2428 2507 2344 2249 2343 2430
8 2432 2346 2284 2374 2509 2431 2373 2455
8 2432 2346 2431 2509 2364 2270 2363 2449
8 2375 2285 2374 2456 2433 2347 2432 2510
8 2347 2433 2365 2271 2432 2510 2450 2364
8 2350 2259 2351 2435 2436 2352 2437 2514
8 2440 2356 2437 2514 2355 2264 2351 2435
8 2352 2260 2354 2437 2438 2353 2439 2516
8 2356 2265 2358 2442 2437 2354 2439 2516
8 2440 2356 2264 2355 2518 2442 2357 2441
8 2519 2443 2357 2441 2447 2361 2268 2362
8 2443 2359 2444 2520 2357 2266 2358 2442
8 2443 2359 2267 2361 2520 2444 2360 2446
8 2446 2360 2279 2370 2523 2445 2369 2452
8 2453 2370 2446 2524 2371 2280 2361 2447
8 2449 2363 2448 2525 2368 2278 2369 2452
8 2366 2277 2364 2450 2451 2368 2449 2526
8 2372 2283 2368 2451 2453 2370 2452 2527
8 2455 2373 2295 2380 2529 2454 2382 2460
8 2456 2374 2292 2378 2530 2455 2380 2458
8 2377 2293 2379 2457 2458 2380 2459 2531
8 2463 2384 2459 2531 2383 2297 2379 2457
8 2533 2461 2382 2460 2459 2381 2295 2380
8 2464 2385 2461 2533 2384 2298 2381 2459
8 2466 2387 2464 2537 2386 2300 2384 2463
8 2467 2388 2465 2538 2387 2301 2385 2464
8 2469 2390 2467 2540 2389 2303 2387 2466
8 2470 2391 2468 2541 2390 2304 2388 2467
8 2472 2393 2470 2543 2392 2306 2390 2469
8 2393 2307 2394 2473 2470 2391 2471 2544
8 2395 2308 2396 2475 2472 2393 2473 2546
8 2396 2309 2397 2476 2473 2394 2474 2547
8 2475 2396 2311 2398 2549 2476 2399 2478
8 2476 2397 2312 2399 2550 2477 2400 2479
8 2478 2399 2314 2403 2552 2479 2402 2483
8 2479 2400 2313 2402 2553 2480 2401 2482
8 2405 2316 2404 2485 2482 2401 2481 2556
8 2406 2317 2405 2486 2483 2402 2482 2557
8 2408 2319 2407 2488 2485 2404 2484 2559
8 2409 2320 2408 2489 2486 2405 2485 2560
8 2411 2322 2410 2490 2488 2407 2487 2561
8 2412 2323 2411 2491 2489 2408 2488 2562
8 2414 2326 2413 2492 2491 2411 2490 2563
8 2513 2434 2493 2565 2438 2353 2416 2494
8 2496 2417 2352 2436 2567 2494 2438 2515
8 2494 2416 2495 2568 2417 2331 2418 2497
8 2419 2332 2417 2496 2499 2420 2497 2570
8 2497 2418 2498 2571 2420 2333 2421 2500
8 2499 2420 2500 2573 2422 2335 2423 2502
8 2500 2421 2501 2574 2423 2336 2424 2503
8 2502 2423 2503 2576 2425 2338 2426 2505
8 2503 2424 2504 2577 2426 2339 2427 2506
8 2505 2426 2506 2578 2429 2341 2428 2507
8 2509 2431 2373 2455 2580 2508 2454 2529
8 2509 2431 2508 2580 2449 2363 2448 2525
8 2432 2510 2581 2509 2374 2456 2530 2455
8 2432 2510 2450 2364 2509 2581 2526 2449
8 2583 2511 2434 2513 2516 2439 2353 2438
8 2436 2352 2437 2514 2515 2438 2516 2588
8 2440 2356 2442 2518 2514 2437 2516 2588
8 2442 2358 2444 2520 2516 2439 2517 2589
8 2519 2443 2520 2591 2441 2357 2442 2518
8 2519 2443 2361 2447 2591 2520 2446 2524
8 2446 2360 2445 2523 2520 2444 2521 2592
8 2525 2448 2522 2593 2452 2369 2445 2523
8 2524 2446 2370 2453 2594 2523 2452 2527
8 2526 2449 2525 2595 2451 2368 2452 2527
8 2534 2462 2528 2597 2460 2382 2454 2529
8 2530 2455 2380 2458 2598 2529 2460 2532
8 2599 2533 2460 2532 2531 2459 2380 2458
8 2537 2464 2533 2599 2463 2384 2459 2531
8 2534 2462 2382 2460 2601 2535 2461 2533
8 2538 2465 2535 2601 2464 2385 2461 2533
8 2540 2467 2538 2604 2466 2387 2464 2537
8 2541 2468 2539 2605 2467 2388 2465 2538
8 2543 2470 2541 2607 2469 2390 2467 2540
8 2470 2391 2471 2544 2541 2468 2542 2608
8 2472 2393 2473 2546 2543 2470 2544 2610
8 2473 2394 2474 2547 2544 2471 2545 2611
8 2475 2396 2476 2549 2546 2473 2547 2613
8 2476 2397 2477 2550 2547 2474 2548 2614
8 2549 2476 2399 2478 2616 2550 2479 2552
8 2479 2400 2480 2553 2550 2477 2551 2617
8 2552 2479 2402 2483 2619 2553 2482 2557
8 2482 2401 2481 2556 2553 2480 2554 2620
8 2485 2404 2484 2559 2556 2481 2555 2623
8 2486 2405 2485 2560 2557 2482 2556 2624
8 2488 2407 2487 2561 2559 2484 2558 2625
8 2489 2408 2488 2562 2560 2485 2559 2626
8 2491 2411 2490 2563 2562 2488 2561 2627
8 2513 2434 2512 2585 2565 2493 2564 2630
8 2586 2513 2565 2632 2515 2438 2494 2567
8 2565 2493 2566 2633 2494 2416 2495 2568
8 2567 2494 2568 2635 2496 2417 2497 2570
8 2568 2495 2569 2636 2497 2418 2498 2571
8 2570 2497 2571 2638 2499 2420 2500 2573
8 2571 2498 2572 2639 2500 2421 2501 2574
8 2573 2500 2574 2641 2502 2423 2503 2576
8 2574 2501 2575 2642 2503 2424 2504 2577
8 2576 2503 2577 2643 2505 2426 2506 2578
8 2597 2528 2579 2645 2529 2454 2508 2580
8 2580 2508 2579 2645 2525 2448 2522 2593
8 2581 2509 2455 2530 2646 2580 2529 2598
8 2581 2509 2580 2646 2526 2449 2525 2595
8 2583 2511 2582 2648 2513 2434 2512 2585
8 2583 2511 2439 2516 2648 2582 2517 2589
8 2649 2583 2513 2586 2588 2516 2438 2515
8 2589 2517 2444 2520 2653 2587 2521 2592
8 2518 2442 2520 2591 2588 2516 2589 2654
8 2593 2522 2590 2655 2523 2445 2521 2592
8 2524 2446 2523 2594 2591 2520 2592 2656
8 2595 2525 2593 2657 2527 2452 2523 2594
8 2602 2536 2596 2659 2534 2462 2528 2597
8 2600 2534 2597 2660 2532 2460 2529 2598
8 2600 2534 2460 2532 2661 2601 2533 2599
8 2604 2538 2601 2661 2537 2464 2533 2599
8 2602 2536 2462 2534 2663 2603 2535 2601
8 2601 2535 2465 2538 2663 2603 2539 2605
8 2607 2541 2605 2665 2540 2467 2538 2604
8 2608 2542 2606 2666 2541 2468 2539 2605
8 2543 2470 2544 2610 2607 2541 2608 2668
8 2544 2471 2545 2611 2608 2542 2609 2669
8 2546 2473 2547 2613 2610 2544 2611 2671
8 2547 2474 2548 2614 2611 2545 2612 2672
8 2549 2476 2550 2616 2613 2547 2614 2674
8 2550 2477 2551 2617 2614 2548 2615 2675
8 2552 2479 2553 2619 2616 2550 2617 2677
8 2553 2480 2554 2620 2617 2551 2618 2678
8 2557 2482 2556 2624 2619 2553 2620 2680
8 2556 2481 2555 2623 2620 2554 2621 2681
8 2559 2484 2558 2625 2623 2555 2622 2683
8 2560 2485 2559 2626 2624 2556 2623 2684
8 2562 2488 2561 2627 2626 2559 2625 2685
8 2690 2629 2564 2630 2650 2584 2512 2585
8 2586 2513 2585 2651 2632 2565 2630 2691
8 2630 2564 2631 2692 2565 2493 2566 2633
8 2632 2565 2633 2694 2567 2494 2568 2635
8 2633 2566 2634 2695 2568 2495 2569 2636
8 2635 2568 2636 2697 2570 2497 2571 2638
8 2636 2569 2637 2698 2571 2498 2572 2639
8 2638 2571 2639 2700 2573 2500 2574 2641
8 2639 2572 2640 2701 2574 2501 2575 2642
8 2641 2574 2642 2702 2576 2503 2577 2643
8 2597 2528 2596 2659 2645 2579 2644 2704
8 2645 2579 2644 2704 2593 2522 2590 2655
8 2660 2597 2645 2705 2598 2529 2580 2646
8 2646 2580 2645 2705 2595 2525 2593 2657
8 2650 2584 2512 2585 2707 2647 2582 2648
8 2648 2582 2517 2589 2707 2647 2587 2653
8 2649 2583 2648 2708 2586 2513 2585 2651
8 2649 2583 2516 2588 2708 2648 2589 2654
8 2655 2590 2652 2710 2592 2521 2587 2653
8 2654 2589 2520 2591 2711 2653 2592 2656
8 2657 2593 2655 2712 2594 2523 2592 2656
8 2602 2536 2603 2663 2659 2596 2658 2714
8 2662 2602 2659 2715 2600 2534 2597 2660
8 2662 2602 2534 2600 2717 2663 2601 2661
8 2661 2601 2538 2604 2717 2663 2605 2665
8 2666 2606 2664 2718 2605 2539 2603 2663
8 2668 2608 2666 2720 2607 2541 2605 2665
8 2608 2542 2609 2669 2666 2606 2667 2721
8 2610 2544 2611 2671 2668 2608 2669 2723
8 2611 2545 2612 2672 2669 2609 2670 2724
8 2613 2547 2614 2674 2671 2611 2672 2726
8 2614 2548 2615 2675 2672 2612 2673 2727
8 2616 2550 2617 2677 2674 2614 2675 2729
8 2617 2551 2618 2678 2675 2615 2676 2730
8 2619 2553 2620 2680 2677 2617 2678 2732
8 2620 2554 2621 2681 2678 2618 2679 2733
8 2624 2556 2623 2684 2680 2620 2681 2735
8 2681 2621 2555 2623 2736 2682 2622 2683
8 2626 2559 2625 2685 2684 2623 2683 2737
8 2688 2628 2584 2650 2740 2686 2647 2707
8 2688 2628 2687 2742 2650 2584 2629 2690
8 2690 2629 2689 2745 2630 2564 2631 2692
8 2746 2690 2630 2691 2709 2650 2585 2651
8 2691 2630 2692 2747 2632 2565 2633 2694
8 2692 2631 2693 2748 2633 2566 2634 2695
8 2694 2633 2695 2750 2635 2568 2636 2697
8 2695 2634 2696 2751 2636 2569 2637 2698
8 2697 2636 2698 2753 2638 2571 2639 2700
8 2698 2637 2699 2754 2639 2572 2640 2701
8 2700 2639 2701 2755 2641 2574 2642 2702
8 2659 2596 2658 2714 2704 2644 2703 2757
8 2704 2644 2703 2757 2655 2590 2652 2710
8 2660 2597 2659 2715 2705 2645 2704 2758
8 2705 2645 2704 2758 2657 2593 2655 2712
8 2759 2706 2647 2707 2710 2652 2587 2653
8 2709 2650 2585 2651 2760 2707 2648 2708
8 2708 2648 2589 2654 2760 2707 2653 2711
8 2712 2655 2710 2761 2656 2592 2653 2711
8 2763 2713 2658 2714 2718 2664 2603 2663
8 2662 2602 2663 2717 2715 2659 2714 2764
8 2720 2666 2718 2767 2665 2605 2663 2717
8 2768 2719 2664 2718 2721 2667 2606 2666
8 2668 2608 2669 2723 2720 2666 2721 2770
8 2669 2609 2670 2724 2721 2667 2722 2771
8 2671 2611 2672 2726 2723 2669 2724 2773
8 2672 2612 2673 2727 2724 2670 2725 2774
8 2674 2614 2675 2729 2726 2672 2727 2776
8 2675 2615 2676 2730 2727 2673 2728 2777
8 2677 2617 2678 2732 2729 2675 2730 2779
8 2678 2618 2679 2733 2730 2676 2731 2780
8 2680 2620 2681 2735 2732 2678 2733 2782
8 2733 2679 2621 2681 2783 2734 2682 2736
8 2735 2681 2623 2684 2784 2736 2683 2737
8 2740 2686 2647 2707 2787 2738 2706 2759
8 2688 2628 2686 2740 2742 2687 2739 2789
8 2743 2688 2650 2709 2790 2740 2707 2760
8 2742 2687 2741 2792 2690 2629 2689 2745
8 2743 2688 2742 2793 2709 2650 2690 2746
8 2745 2689 2744 2795 2692 2631 2693 2748
8 2746 2690 2745 2796 2691 2630 2692 2747
8 2747 2692 2748 2797 2694 2633 2695 2750
8 2748 2693 2749 2798 2695 2634 2696 2751
8 2750 2695 2751 2800 2697 2636 2698 2753
8 2751 2696 2752 2801 2698 2637 2699 2754
8 2753 2698 2754 2802 2700 2639 2701 2755
8 2763 2713 2756 2804 2714 2658 2703 2757
8 2759 2706 2652 2710 2804 2756 2703 2757
8 2715 2659 2714 2764 2758 2704 2757 2805
8 2758 2704 2757 2805 2712 2655 2710 2761
8 2806 2759 2707 2760 2761 2710 2653 2711
8 2765 2716 2762 2808 2718 2664 2713 2763
8 2809 2763 2714 2764 2767 2718 2663 2717
8 2765 2716 2664 2718 2811 2766 2719 2768
8 2813 2768 2718 2767 2770 2721 2666 2720
8 2814 2769 2719 2768 2771 2722 2667 2721
8 2723 2669 2724 2773 2770 2721 2771 2816
8 2724 2670 2725 2774 2771 2722 2772 2817
8 2726 2672 2727 2776 2773 2724 2774 2819
8 2727 2673 2728 2777 2774 2725 2775 2820
8 2729 2675 2730 2779 2776 2727 2777 2822
8 2730 2676 2731 2780 2777 2728 2778 2823
8 2732 2678 2733 2782 2779 2730 2780 2825
8 2780 2731 2679 2733 2826 2781 2734 2783
8 2782 2733 2681 2735 2827 2783 2736 2784
8 2830 2785 2738 2787 2804 2756 2706 2759
8 2789 2739 2686 2740 2832 2786 2738 2787
8 2790 2740 2707 2760 2833 2787 2759 2806
8 2742 2687 2739 2789 2792 2741 2788 2835
8 2743 2688 2740 2790 2793 2742 2789 2836
8 2792 2741 2791 2838 2745 2689 2744 2795
8 2793 2742 2792 2839 2746 2690 2745 2796
8 2795 2744 2794 2841 2748 2693 2749 2798
8 2796 2745 2795 2842 2747 2692 2748 2797
8 2797 2748 2798 2843 2750 2695 2751 2800
8 2798 2749 2799 2844 2751 2696 2752 2801
8 2800 2751 2801 2845 2753 2698 2754 2802
8 2808 2762 2803 2847 2763 2713 2756 2804
8 2809 2763 2804 2848 2764 2714 2757 2805
8 2806 2759 2710 2761 2848 2804 2757 2805
8 2765 2716 2766 2811 2808 2762 2807 2850
8 2810 2765 2808 2851 2767 2718 2763 2809
8 2810 2765 2718 2767 2852 2811 2768 2813
8 2811 2766 2719 2768 2853 2812 2769 2814
8 2855 2814 2768 2813 2816 2771 2721 2770
8 2856 2815 2769 2814 2817 2772 2722 2771
8 2773 2724 2774 2819 2816 2771 2817 2858
8 2774 2725 2775 2820 2817 2772 2818 2859
8 2776 2727 2777 2822 2819 2774 2820 2861
8 2777 2728 2778 2823 2820 2775 2821 2862
8 2779 2730 2780 2825 2822 2777 2823 2864
8 2823 2778 2731 2780 2865 2824 2781 2826
8 2825 2780 2733 2782 2866 2826 2783 2827
8 2869 2828 2785 2830 2847 2803 2756 2804
8 2871 2829 2786 2832 2830 2785 2738 2787
8 2872 2830 2787 2833 2848 2804 2759 2806
8 2789 2739 2786 2832 2835 2788 2831 2874
8 2836 2789 2740 2790 2875 2832 2787 2833
8 2792 2741 2788 2835 2838 2791 2834 2877
8 2793 2742 2789 2836 2839 2792 2835 2878
8 2838 2791 2837 2880 2795 2744 2794 2841
8 2839 2792 2838 2881 2796 2745 2795 2842
8 2841 2794 2840 2882 2798 2749 2799 2844
8 2842 2795 2841 2883 2797 2748 2798 2843
8 2843 2798 2844 2884 2800 2751 2801 2845
8 2886 2846 2803 2847 2850 2807 2762 2808
8 2851 2808 2847 2887 2809 2763 2804 2848
8 2850 2807 2766 2811 2889 2849 2812 2853
8 2810 2765 2811 2852 2851 2808 2850 2890
8 2852 2811 2768 2813 2891 2853 2814 2855
8 2853 2812 2769 2814 2892 2854 2815 2856
8 2894 2856 2814 2855 2858 2817 2771 2816
8 2817 2772 2818 2859 2856 2815 2857 2895
8 2819 2774 2820 2861 2858 2817 2859 2897
8 2820 2775 2821 2862 2859 2818 2860 2898
8 2822 2777 2823 2864 2861 2820 2862 2900
8 2823 2778 2824 2865 2862 2821 2863 2901
8 2864 2823 2780 2825 2902 2865 2826 2866
8 2904 2867 2828 2869 2886 2846 2803 2847
8 2869 2828 2868 2906 2830 2785 2829 2871
8 2907 2869 2830 2872 2887 2847 2804 2848
8 2871 2829 2870 2909 2832 2786 2831 2874
8 2910 2871 2832 2875 2872 2830 2787 2833
8 2835 2788 2831 2874 2877 2834 2873 2912
8 2836 2789 2832 2875 2878 2835 2874 2913
8 2877 2834 2876 2915 2838 2791 2837 2880
8 2839 2792 2835 2878 2881 2838 2877 2916
8 2880 2837 2879 2917 2841 2794 2840 2882
8 2881 2838 2880 2918 2842 2795 2841 2883
8 2883 2841 2882 2919 2843 2798 2844 2884
8 2921 2885 2846 2886 2889 2849 2807 2850
8 2922 2886 2847 2887 2890 2850 2808 2851
8 2889 2849 2812 2853 2924 2888 2854 2892
8 2890 2850 2811 2852 2925 2889 2853 2891
8 2891 2853 2814 2855 2926 2892 2856 2894
8 2892 2854 2815 2856 2927 2893 2857 2895
8 2858 2817 2859 2897 2894 2856 2895 2929
8 2859 2818 2860 2898 2895 2857 2896 2930
8 2861 2820 2862 2900 2897 2859 2898 2932
8 2862 2821 2863 2901 2898 2860 2899 2933
8 2864 2823 2865 2902 2900 2862 2901 2934
8 2904 2867 2846 2886 2936 2903 2885 2921
8 2904 2867 2903 2936 2869 2828 2868 2906
8 2937 2904 2869 2907 2922 2886 2847 2887
8 2906 2868 2905 2939 2871 2829 2870 2909
8 2907 2869 2906 2940 2872 2830 2871 2910
8 2909 2870 2908 2942 2874 2831 2873 2912
8 2910 2871 2909 2943 2875 2832 2874 2913
8 2912 2873 2911 2945 2877 2834 2876 2915
8 2878 2835 2874 2913 2916 2877 2912 2946
8 2915 2876 2914 2947 2880 2837 2879 2917
8 2916 2877 2915 2948 2881 2838 2880 2918
8 2918 2880 2917 2949 2883 2841 2882 2919
8 2921 2885 2849 2889 2951 2920 2888 2924
8 2952 2921 2886 2922 2925 2889 2850 2890
8 2924 2888 2854 2892 2954 2923 2893 2927
8 2925 2889 2853 2891 2955 2924 2892 2926
8 2926 2892 2856 2894 2956 2927 2895 2929
8 2895 2857 2896 2930 2927 2893 2928 2957
8 2897 2859 2898 2932 2929 2895 2930 2959
8 2898 2860 2899 2933 2930 2896 2931 2960
8 2900 2862 2901 2934 2932 2898 2933 2961
8 2936 2903 2885 2921 2963 2935 2920 2951
8 2936 2903 2935 2963 2906 2868 2905 2939
8 2937 2904 2886 2922 2964 2936 2921 2952
8 2937 2904 2936 2964 2907 2869 2906 2940
8 2939 2905 2938 2966 2909 2870 2908 2942
8 2940 2906 2939 2967 2910 2871 2909 2943
8 2942 2908 2941 2969 2912 2873 2911 2945
8 2943 2909 2942 2970 2913 2874 2912 2946
8 2945 2911 2944 2971 2915 2876 2914 2947
8 2946 2912 2945 2972 2916 2877 2915 2948
8 2948 2915 2947 2973 2918 2880 2917 2949
8 2951 2920 2888 2924 2975 2950 2923 2954
8 2952 2921 2889 2925 2976 2951 2924 2955
8 2927 2893 2928 2957 2954 2923 2953 2978
8 2955 2924 2892 2926 2979 2954 2927 2956
8 2929 2895 2930 2959 2956 2927 2957 2980
8 2930 2896 2931 2960 2957 2928 2958 2981
8 2932 2898 2933 2961 2959 2930 2960 2982
8 2951 2920 2950 2975 2963 2935 2962 2984
8 2963 2935 2962 2984 2939 2905 2938 2966
8 2964 2936 2921 2952 2985 2963 2951 2976
8 2964 2936 2963 2985 2940 2906 2939 2967
8 2966 2938 2965 2987 2942 2908 2941 2969
8 2967 2939 2966 2988 2943 2909 2942 2970
8 2969 2941 2968 2989 2945 2911 2944 2971
8 2970 2942 2969 2990 2946 2912 2945 2972
8 2972 2945 2971 2991 2948 2915 2947 2973
8 2954 2923 2953 2978 2975 2950 2974 2993
8 2976 2951 2924 2955 2994 2975 2954 2979
8 2957 2928 2958 2981 2978 2953 2977 2995
8 2956 2927 2957 2980 2979 2954 2978 2996
8 2959 2930 2960 2982 2980 2957 2981 2997
8 2984 2962 2983 2999 2966 2938 2965 2987
8 2975 2950 2974 2993 2984 2962 2983 2999
8 2976 2951 2975 2994 2985 2963 2984 3000
8 2985 2963 2984 3000 2967 2939 2966 2988
8 2987 2965 2986 3001 2969 2941 2968 2989
8 2988 2966 2987 3002 2970 2942 2969 2990
8 2990 2969 2989 3003 2972 2945 2971 2991
8 2978 2953 2977 2995 2993 2974 2992 3004
8 2979 2954 2978 2996 2994 2975 2993 3005
8 2980 2957 2981 2997 2996 2978 2995 3006
8 2974 2993 2999 2983 2992 3004 3007 2998
8 2983 2999 2987 2965 2998 3007 3001 2986
8 3000 2984 2999 3008 2988 2966 2987 3002
8 2994 2975 2993 3005 3000 2984 2999 3008
8 3002 2987 3001 3009 2990 2969 2989 3003
8 2996 2978 2995 3006 3005 2993 3004 3010
8 3005 2993 3004 3010 3008 2999 3007 3011
8 3008 2999 3007 3011 3002 2987 3001 3009

CELL_TYPES 1910
12
12
12
12
12
12
12
12
12
12
12
12
12
12
12
12
12
12
12
12
12
12
12
12
12
12
12
12
12
12
12
12
12
12
12
12
12
12
12
12
12
12
12
12
12
12
12
12
12
12
12
12
12
12
12
12
12
12
12
12
12
12
12
12
12
12
12
12
12
12
12
12
12
12
12
12
12
12
12
12
12
12
12
12
12
12
12
12
12
12
12
12
12
12
12
12
12
12
12
12
12
12
12
12
12
12
12
12
12
12
12
12
12
12
12
12
12
12
12
12
12
12
12
12
12
12
12
12
12
12
12
12
12
12
12
12
12
12
12
12
12
12
12
12
12
12
12
12
12
12
12
12
12
12
12
12
12
12
12
12
12
12
12
12
12
12
12
12
12
12
12
12
12
12
12
12
12
12
12
12
12
12
12
12
12
12
12
12
12
12
12
12
12
12
12
12
12
12
12
12
12
12
12
12
12
12
12
12
12
12
12
12
12
12
12
12
12
12
12
12
12
12
12
12
12
12
12
12
12
12
12
12
12
12
12
12
12
12
12
12
12
12
12
12
12
12
12
12
12
12
12
12
12
12
12
12
12
12
12
12
12
12
12
12
12
12
12
12
12
12
12
12
12
12
12
12
12
12
12
12
12
12
12
12
12
12
12
12
12
12
12
12
12
12
12
12
12
12
12
12
12
12
12
12
12
12
12
12
12
12
12
12
12
12
12
12
12
12
12
12
12
12
12
12
12
12
12
12
12
12
12
12
12
12
12
12
12
12
12
12
12
12
12
12
12
12
12
12
12
12
12
12
12
12
12
12
12
12
12
12
12
12
12
12
12
12
12
12
12
12
12
12
12
12
12
12
12
12
12
12
12
12
12
12
12
12
12
12
12
12
12
12
12
12
12
12
12
12
12
12
12
12
12
12
12
12
12
12
12
12
12
12
12
12
12
12
12
12
12
12
12
12
12
12
12
12
12
12
12
12
12
12
12
12
12
12
12
12
12
12
12
12
12
12
12
12
12
12
12
12
12
12
12
12
12
12
12
12
12
12
12
12
12
12
12
12
12
12
12
12
12
12
12
12
12
12
12
12
12
12
12
12
12
12
12
12
12
12
12
12
12
12
12
12
12
12
12
12
12
12
12
12
12
12
12
12
12
12
12
12
12
12
12
12
12
12
12
12
12
12
12
12
12
12
12
12
12
12
12
12
12
12
12
12
12
12
12
12
12
12
12
12
12
12
12
12
12
12
12
12
12
12
12
12
12
12
12
12
12
12
12
12
12
12
12
12
12
12
12
12
12
12
12
12
12
12
12
12
12
12
12
12
12
12
12
12
12
12
12
12
12
12
12
12
12
12
12
12
12
12
12
12
12
12
12
12
12
12
12
12
12
12
12
12
12
12
12
12
12
12
12
12
12
12
12
12
12
12
12
12
12
12
12
12
12
12
12
12
12
12
12
12
12
12
12
12
12
12
12
12
12
12
12
12
12
12
12
12
12
12
12
12
12
12
12
12
12
12
12
12
12
12
12
12
12
12
12
12
12
12
12
12
12
12
12
12
12
12
12
12
12
12
12
12
12
12
12
12
12
12
12
12
12
12
12
12
12
12
12
12
12
12
12
12
12
12
12
12
12
12
12
12
12
12
12
12
12
12
12
12
12
12
12
12
12
12
12
12
12
12
12
12
12
12
12
12
12
12
12
12
12
12
12
12
12
12
12
12
12
12
12
12
12
12
12
12
12
12
12
12
12
12
12
12
12
12
12
12
12
12
12
12
12
12
12
12
12
12
12
12
12
12
12
12
12
12
12
12
12
12
12
12
12
12
12
12
12
12
12
12
12
12
12
12
12
12
12
12
12
12
12
12
12
12
12
12
12
12
12
12
12
12
12
12
12
12
12
12
12
12
12
12
12
12
12
12
12
12
12
12
12
12
12
12
12
12
12
12
12
12
12
12
12
12
12
12
12
12
12
12
12
12
12
12
12
12
12
12
12
12
12
12
12
12
12
12
12
12
12
12
12
12
12
12
12
12
12
12
12
12
12
12
12
12
12
12
12
12
12
12
12
12
12
12
12
12
12
12
12
12
12
12
12
12
12
12
12
12
12
12
12
12
12
12
12
12
12
12
12
12
12
12
12
12
12
12
12
12
12
12
12
12
12
12
12
12
12
12
12
12
12
12
12
12
12
12
12
12
12
12
12
12
12
12
12
12
12
12
12
12
12
12
12
12
12
12
12
12
12
12
12
12
12
12
12
12
12
12
12
12
12
12
12
12
12
12
12
12
12
12
12
12
12
12
12
12
12
12
12
12
12
12
12
12
12
12
12
12
12
12
12
12
12
12
12
12
12
12
12
12
12
12
12
12
12
12
12
12
12
12
12
12
12
12
12
12
12
12
12
12
12
12
12
12
12
12
12
12
12
12
12
12
12
12
12
12
12
12
12
12
12
12
12
12
12
12
12
12
12
12
12
12
12
12
12
12
12
12
12
12
12
12
12
12
12
12
12
12
12
12
12
12
12
12
12
12
12
12
12
12
12
12
12
12
12
12
12
12
12
12
12
12
12
12
12
12
12
12
12
12
12
12
12
12
12
12
12
12
12
12
12
12
12
12
12
12
12
12
12
12
12
12
12
12
12
12
12
12
12
12
12
12
12
12
12
12
12
12
12
12
12
12
12
12
12
12
12
12
12
12
12
12
12
12
12
12
12
12
12
12
12
12
12
12
12
12
12
12
12
12
12
12
12
12
12
12
12
12
12
12
12
12
12
12
12
12
12
12
12
12
12
12
12
12
12
12
12
12
12
12
12
12
12
12
12
12
12
12
12
12
12
12
12
12
12
12
12
12
12
12
12
12
12
12
12
12
12
12
12
12
12
12
12
12
12
12
12
12
12
12
12
12
12
12
12
12
12
12
12
12
12
12
12
12
12
12
12
12
12
12
12
12
12
12
12
12
12
12
12
12
12
12
12
12
12
12
12
12
12
12
12
12
12
12
12
12
12
12
12
12
12
12
12
12
12
12
12
12
12
12
12
12
12
12
12
12
12
12
12
12
12
12
12
12
12
12
12
12
12
12
12
12
12
12
12
12
12
12
12
12
12
12
12
12
12
12
12
12
12
12
12
12
12
12
12
12
12
12
12
12
12
12
12
12
12
12
12
12
12
12
12
12
12
12
12
12
12
12
12
12
12
12
12
12
12
12
12
12
12
12
12
12
12
12
12
12
12
12
12
12
12
12
12
12
12
12
12
12
12
12
12
12
12
12
12
12
12
12
12
12
12
12
12
12
12
12
12
12
12
12
12
12
12
12
12
12
12
12
12
12
12
12
12
12
12
12
12
12
12
12
12
12
12
12
12
12
12
12
12
12
12
12
12
12
12
12
12
12
12
12
12
12
12
12
12
12
12
12
12
12
12
12
12
12
12
12
12
12
12
12
12
12
12
12
12
12
12
12
12
12
12
12
12
12
12
12
12
12
12
12
12
12
12
12
12
12
12
12
12
12
12
12
12
12
12
12
12
12
12
12
12
12
12
12
12
12
12
12
12
12
12
12
12
12
12
12
12
12
12
12
12
12
12
12
12
12
12
12
12
12
12
12
12
12
12
12
12
12
12
12
12
12
12
12
12
12
12
12
12
12
12
12
12
12
12
12
12
12
12
12
12
12
12
12
12
12
12
12
12
12
12
12
12
12
12
12
12
12
12
12
12
12
12
12
12
12
12
12
12
12
12
12
12
12
12
12
12
12
12
12
12
12
12
12
12
12
12
12
12
12
12
12
12
12
12
12
12
12
12
12
12
12
12
12
12
12
12
12
12
12
12
12
12
12
12
12
12
12
12
12
12
12
12
12
12
12
12
12
12
12
12
12
12
12
12
12
12
12
12
12
12
12
12
12
12
12
12
12
12
12
12
12
12
12
12
12
12
12
12
12
12
12
12
12
12
12
12
12
12
12
12
12
12
12
12
12
12
12
12
12
12
12
12
12
12
12
12
12
12
12
12
12
12
12
12
12
12
12
12
12
12
12
12
12
12
12
12
12
12
12
12
12
12
12
12
12
12
12
12
12
12
12
12
12
12
12
12
12
12
12
12
12
12
12
12
12
12
12
12
12
12
12
12
12
12
12
12
12
12
12
12
12
12
12
12
12
12
12
12
12
12
12
12
12
12
12
12
12
12
12
12
12
12
12
12
12
12
12
12
12
12
12
12
12
12
12
12
12
12
12
12
12
12
12
12
12
12
12
12
12
12
12
12
12
12
12
12
12
12
12
12
12
12
12
12
12
12
12
12
12
12
12
12
12
12
12
12
12
12
12

POINT_DATA 3012
SCALARS Jp_lamdaP float 4
LOOKUP_TABLE default
0.999852 1 1 0.999852
1 1 1 1
0.999857 1 1 0.999857
0.999809 1 1 0.999809
0.999851 1 1 0.999851
0.999847 1 1 0.999847
0.999315 1 1 0.999315
1 1 1 1
1 1 1 1
1 1 1 1
0.999925 1 1 0.999925
0.999474 1 1 0.999474
0.999773 1 1 0.999773
0.999801 1 1 0.999801
0.999857 1 1 0.999857
0.999825 1 1 0.999825
0.999851 1 1 0.999851
0.99986 1 1 0.99986
0.999318 1 1 0.999318
1 1 1 1
0.999789 1 1 0.999789
0.999834 1 1 0.999834
0.999186 1 1 0.999186
0.999284 1 1 0.999284
0.999866 1 1 0.999866
0.999348 1 1 0.999348
0.998878 1.00041 1 0.998467
1 1 1 1
0.999915 1 1 0.999915
0.999928 1 1 0.999928
1 1 1 1
0.999482 1 1 0.999482
0.999825 1 1 0.999825
0.999847 1 1 0.999847
0.999402 1 1 0.999402
1 1 1 1
0.999491 1 1 0.999491
0.999571 1 1 0.999571
0.998509 1 1 0.998509
1 1 1 1
1 1 1 1
0.999899 1 1 0.999899
1 1 1 1
0.999793 1 1 0.999793
0.999115 1 1 0.999115
1 1 1 1
0.999307 1 1 0.999307
0.999838 1 1 0.999838
0.999866 1 1 0.999866
0.999853 1 1 0.999853
0.999323 1 1 0.999323
0.999883 1 1 0.999883
0.999805 1 1 0.999805
0.999876 1 1 0.999876
0.999847 1 1 0.999847
0.999186 1 1 0.999186
0.999352 1 1 0.999352
0.999287 1 1 0.999287
0.999063 1.00061 1 0.998452
1 1 1 1
0.999778 1 1 0.999778
0.999283 1 1 0.999283
0.99915 1 1 0.99915
0.999236 1 1 0.999236
1.00073 1.00257 1 0.998169
0.999392 1.00109 1 0.998303
0.999922 1 1 0.999922
0.999463 1 1 0.999463
0.998633 1.00006 1 0.998572
1.00525 1.00754 1 0.997723
1 1 1 1
1 1 1 1
1 1 1 1
0.99949 1 1 0.99949
1 1 1 1
1 1 1 1
0.999319 1 1 0.999319
0.999982 1 1 0.999982
0.999427 1 1 0.999427
0.999626 1 1 0.999626
0.998506 1 1 0.998506
1 1 1 1
0.999947 1 1 0.999947
0.999259 1 1 0.999259
0.999356 1 1 0.999356
1.00047 1.00239 1 0.998087
0.999771 1 1 0.999771
0.998586 1.00018 1 0.998408
0.998644 1 1 0.998644
0.998427 1.00048 1 0.997953
1 1 1 1
1 1 1 1
1 1 1 1
1 1 1 1
1 1 1 1
0.999893 1 1 0.999893
0.999194 1 1 0.999194
0.999903 1 1 0.999903
0.999261 1 1 0.999261
1 1 1 1
0.999102 1 1 0.999102
0.99928 1 1 0.99928
1.00049 1.0027 1 0.997796
0.999343 1 1 0.999343
1.00182 1.00395 1 0.997881
0.999791 1 1 0.999791
0.999818 1 1 0.999818
0.999885 1 1 0.999885
0.999858 1 1 0.999858
0.999187 1 1 0.999187
0.999292 1 1 0.999292
0.999358 1 1 0.999358
0.999234 1.0008 1 0.998437
1 1 1 1
0.999793 1 1 0.999793
0.999127 1 1 0.999127
0.999149 1 1 0.999149
0.999961 1 1 0.999961
0.999517 1 1 0.999517
0.999238 1 1 0.999238
1.00071 1.00258 1 0.998129
0.998683 1.00013 1 0.998553
0.999576 1.00125 1 0.998331
1.00549 1.00778 1 0.997727
0.999124 1 1 0.999124
0.999128 1 1 0.999128
1.00011 1.00215 1 0.997962
1.00078 1.00273 1 0.998053
1.00039 1.0022 1 0.998185
1.01217 1.01469 1 0.99752
1 1 1 1
1.00731 1.00968 1 0.997653
0.999687 1 1 0.999687
0.998606 1 1 0.998606
1.00364 1.00586 1 0.997791
1.0157 1.01827 1 0.997482
0.999862 1 1 0.999862
0.999618 1 1.00046 0.999158
1 1 1 1
1 1 1 1
0.999326 1 1 0.999326
1 1 1 1
0.999624 1 1 0.999624
0.999432 1 1 0.999432
0.998502 1 1 0.998502
1 1 1 1
0.999961 1 1 0.999961
0.999318 1 1 0.999318
0.999411 1 1 0.999411
1.00008 1.00199 1 0.99809
0.999783 1 1 0.999783
0.998493 1.00008 1 0.998411
0.998643 1 1 0.998643
0.998428 1.00049 1 0.997937
0.999876 1 1 0.999876
0.999988 1 1 0.999988
0.999456 1 1.00011 0.999348
1.00146 1.00349 1 0.997976
0.999275 1.00103 1 0.99825
1.00869 1.01121 1 0.997517
0.998864 1 1 0.998864
1.00148 1.00364 1 0.997845
0.998891 1.00028 1.00057 0.998044
1.00133 1.00357 1 0.997773
1 1 1 1
1 1 1 1
1 1 1 1
0.999917 1 1 0.999917
1 1 1 1
1 1 1 1
1 1 1 1
0.999212 1 1 0.999212
0.99914 1 1 0.99914
1 1 1 1
1 1 1 1
0.999103 1 1 0.999103
0.999233 1 1 0.999233
1.00072 1.00293 1 0.997796
0.99924 1 1 0.99924
1.00186 1.00399 1 0.997881
0.999095 1 1 0.999095
0.999868 1.00213 1 0.997747
1.00123 1.00339 1 0.997848
1.01531 1.01804 1 0.997322
1.00189 1.00399 1 0.997914
1.01577 1.01842 1 0.997391
1 1 1 1
0.999808 1 1 0.999808
0.998958 1 1 0.998958
0.999148 1 1 0.999148
1 1 1 1
0.999572 1 1 0.999572
0.999242 1 1 0.999242
1.00068 1.0026 1 0.998089
0.999765 1.00141 1 0.99836
0.99874 1.00021 1 0.998535
1.00572 1.00801 1 0.997731
0.999121 1 1 0.999121
0.999126 1 1 0.999126
0.999977 1.00211 1 0.997869
1.00081 1.00273 1 0.998082
1 1 1 1
0.999685 1 1 0.999685
0.998658 1 1 0.998658
1.00035 1.00217 1 0.998184
1.01207 1.01462 1 0.997483
1.00362 1.00585 1 0.99778
1.0076 1.00994 1 0.997683
1.01523 1.01779 1 0.997489
0.999852 1 1 0.999852
0.999625 1 1.00047 0.999159
0.999576 1.00181 1 0.997768
1.00054 1.00254 1 0.998013
1.01324 1.01586 1 0.997419
1.01263 1.01526 1 0.997407
1.00952 1.01193 1 0.997614
1.0235 1.02616 1 0.997404
0.999787 1 1 0.999787
1.01759 1.02017 1 0.997472
0.998852 1 1.00008 0.998771
1.00005 1.00214 1 0.997919
1.0134 1.01592 1 0.997523
1.01889 1.02145 1 0.997499
0.999301 1 1.00029 0.99901
0.999389 1 1.00004 0.999348
1.00025 1 1.00164 0.998609
0.999279 1 1 0.999279
1 1 1 1
0.999976 1 1 0.999976
0.999384 1 1 0.999384
0.999667 1.00158 1 0.998092
0.999792 1 1 0.999792
0.998683 1 1.00004 0.998643
0.998418 1 1 0.998414
0.998469 1.00055 1 0.99792
0.999894 1 1 0.999894
0.999992 1 1 0.999992
0.999579 1 1.00023 0.999351
1.00119 1.00322 1 0.997976
0.998976 1.00072 1 0.998255
1.0085 1.01102 1 0.997515
0.998888 1 1.00002 0.998867
1.00097 1.00312 1 0.997856
0.998912 1.0004 1.00047 0.99804
1.00148 1.00373 1 0.997759
0.999999 1 1 0.999999
0.999218 1 1.00012 0.999097
0.999729 1 1.00014 0.999591
0.99964 1 1.00085 0.998796
1.01193 1.01453 1 0.997432
1.00542 1.00775 1 0.997686
1.01811 1.02084 1 0.997328
0.99874 1 1.00044 0.998299
1.0064 1.00876 1 0.997665
1.00307 1.00377 1.00158 0.997729
1.00891 1.01131 1 0.997627
0.999856 1 1 0.999856
1 1 1 1
1 1 1 1
1 1 1 1
1 1 1 1
0.999957 1 1 0.999957
1 1 1 1
0.999905 1 1 0.999905
1 1 1 1
0.999241 1 1 0.999241
0.99918 1 1 0.99918
1.00198 1.0041 1 0.99788
1.00094 1.00315 1 0.997796
0.999105 1 1 0.999105
1 1 1 1
0.999094 1 1 0.999094
1.00002 1.00228 1 0.997747
1.00144 1.0036 1 0.997848
1.0151 1.01783 1 0.997321
1.00183 1.00393 1 0.997913
1.01574 1.0184 1 0.99739
0.999503 1.00177 1 0.997739
1.01437 1.01714 1 0.997277
1.01591 1.01859 1 0.997364
1.02901 1.03174 1 0.997355
1.01477 1.01741 1 0.997405
1.02783 1.03054 1 0.997368
0.999118 1 1 0.999118
0.999124 1 1 0.999124
0.99985 1.00208 1 0.997777
1.00084 1.00273 1 0.99811
1 1 1 1
0.999682 1 1 0.999682
0.99871 1 1 0.99871
1.00032 1.00214 1 0.998183
1.01197 1.01456 1 0.997446
1.00788 1.01019 1 0.997714
1.00357 1.00581 1 0.997768
1.01486 1.01741 1 0.997495
0.999842 1 1 0.999842
0.999664 1 1.0005 0.99916
0.999527 1.00179 1 0.997742
1.00051 1.0025 1 0.99801
1.01346 1.01608 1 0.997417
1.01278 1.01538 1 0.997443
0.999776 1 1 0.999776
0.998776 1 1.00001 0.998768
1.00057 1.00262 1 0.997953
1.00975 1.01217 1 0.997611
1.02381 1.02647 1 0.997416
1.01272 1.01527 1 0.997489
1.01745 1.02002 1 0.997476
1.01924 1.0218 1 0.997499
0.999234 1 1.00022 0.999013
1.00023 1 1.00162 0.998611
0.999605 1 1.00026 0.999345
1.01343 1.01611 1 0.997365
1.01367 1.01626 1 0.997445
1.02726 1.03 1 0.997342
1.02562 1.02834 1 0.997362
1.01959 1.02218 1 0.997458
1.02528 1.02778 1 0.997565
0.998911 1 1 0.998911
1.02089 1.02341 1 0.997538
0.998622 1.00039 1 0.998232
1.0052 1.0077 1 0.99752
1.01648 1.01916 1 0.997363
1.01799 1.02039 1 0.997652
0.999511 1 1 0.999511
0.998677 1 1.0001 0.998579
1.00076 1 1.00206 0.998701
0.99953 1 1.0011 0.998436
1.00093 1.00296 1 0.997976
0.999997 1 1 0.999997
0.999913 1 1 0.999913
0.999585 1 1.00023 0.999353
0.998656 1.0004 1 0.99826
1.0083 1.01081 1 0.997512
0.998871 1 1 0.998871
0.998865 1.0005 1.00033 0.998036
1.00043 1.00257 1 0.997866
1.00146 1.00373 1 0.997744
1 1 1 1
0.999218 1 1.00012 0.999097
0.999648 1 1.00005 0.999598
0.999826 1 1.00104 0.998792
1.01176 1.01437 1 0.997429
1.00457 1.0069 1 0.997687
1.0181 1.02083 1 0.997326
0.998753 1 1.00045 0.998304
1.00644 1.00878 1 0.997679
1.00298 1.00354 1.00173 0.997718
1.00895 1.01128 1 0.997693
1 1 1 1
0.99974 1 1 0.99974
0.99889 1 1.00032 0.998575
0.999634 1 1.0006 0.999034
0.999749 1 1.00124 0.998516
1.02143 1.02419 1 0.997306
1.01246 1.01502 1 0.997477
1.01771 1.02042 1 0.997348
1.00107 1.00115 1.00199 0.997936
1.00944 1.01187 1 0.997597
1.00645 1.00816 1.00086 0.997447
0.999839 1 1 0.999839
0.999463 1 1 0.999463
0.999868 1 1 0.999868
0.999859 1 1 0.999859
1 1 1 1
1 1 1 1
1 1 1 1
1 1 1 1
1 1 1 1
0.999985 1 1 0.999985
1 1 1 1
0.999947 1 1 0.999947
1 1 1 1
0.999894 1 1 0.999894
1 1 1 1
1.00174 1.00384 1 0.997912
1.00159 1.00375 1 0.997847
1.01557 1.01823 1 0.997388
1.01487 1.0176 1 0.997319
1.00022 1.00248 1 0.997747
0.999093 1 1 0.999093
0.999606 1.00187 1 0.997739
1.01433 1.01709 1 0.997277
1.01558 1.01827 1 0.997363
1.02927 1.03199 1 0.997367
1.01438 1.01702 1 0.997403
1.02731 1.03002 1 0.997367
1.01387 1.01665 1 0.997267
1.02815 1.03089 1 0.997348
1.0293 1.03202 1 0.997367
1.03296 1.03569 0.999841 0.99752
1.02397 1.02669 1 0.997343
1.0284 1.03087 1 0.997598
0.999504 1.00179 1 0.997717
1.00048 1.00247 1 0.998007
1.01367 1.0163 1 0.997415
1.01292 1.01548 1 0.997479
0.999766 1 1 0.999766
0.998765 1 1 0.998765
1.00108 1.0031 1 0.997987
1.01 1.01243 1 0.997608
1.02414 1.02678 1 0.997427
1.01731 1.01988 1 0.997479
1.01195 1.01453 1 0.997455
1.01956 1.02212 1 0.997499
0.999171 1 1.00016 0.999016
1.00019 1 1.00158 0.998613
0.999787 1 1.00045 0.999342
1.01356 1.01627 1 0.997329
1.01377 1.01637 1 0.997443
1.02687 1.02959 1 0.997357
1.02588 1.02859 1 0.997363
0.998951 1 1.00004 0.99891
0.999053 1.00083 1 0.998225
1.0047 1.00711 1.00003 0.997571
1.01975 1.02235 1 0.997456
1.02478 1.02724 1 0.997601
1.0165 1.01922 1 0.997331
1.02092 1.02344 1 0.997541
1.01759 1.01996 1 0.997677
0.998779 1 1.0002 0.998581
0.999514 1 1.0011 0.998418
0.999507 1 1 0.999507
1.00073 1 1.00201 0.998727
1.02715 1.02991 1 0.997312
1.02776 1.03047 1 0.997373
1.02961 1.03225 0.999998 0.997443
1.02727 1.02994 0.999816 0.997588
1.02261 1.02508 1 0.997591
1.0238 1.02611 1 0.997752
0.998471 1 1 0.998471
1.01814 1.02039 1 0.997792
0.99895 1.00109 1 0.997859
1.00907 1.01164 1.00018 0.997283
1.01798 1.02073 1 0.997299
1.01673 1.01906 1 0.997713
0.999622 1 1 0.999622
0.999337 1 1.00045 0.998887
0.998398 1 1 0.998398
1.00098 1 1.0025 0.998479
0.998995 1 1.00061 0.998391
1 1 1 1
1.01154 1.01415 1 0.997425
0.999605 1 1 0.999605
0.999296 1 1.0002 0.999098
1.00011 1 1.00133 0.998787
1.00379 1.00612 1 0.997688
1.01816 1.0209 1 0.997324
0.998814 1 1.00051 0.998309
1.00319 1.00356 1.00193 0.997707
1.00658 1.00891 1 0.997693
1.0092 1.01147 1 0.99776
1 1 1 1
0.999747 1 1 0.999747
0.99891 1 1.00033 0.998576
0.999785 1 1.00075 0.999034
1.00014 1 1.00164 0.998494
1.02168 1.02445 1 0.9973
1.01275 1.01532 1 0.997477
1.01765 1.02037 1 0.997338
1.00082 1.00076 1.00213 0.99794
1.01185 1.01427 1 0.997607
1.00569 1.00727 1.00096 0.997466
0.999807 1 1 0.999807
0.999246 1 1 0.999246
0.99874 1 1.00048 0.998264
1.00081 1 1.00212 0.998699
0.999743 1 1.00136 0.99838
1.02153 1.02421 1 0.997389
1.01335 1.01594 1 0.997448
1.0157 1.01823 1 0.997516
1.00154 1.00005 1.00379 0.997707
1.00622 1.00891 1 0.997329
0.999842 1 1 0.999842
0.999396 1 1 0.999396
0.999441 1 1 0.999441
0.99923 1 1 0.99923
0.999472 1 1 0.999472
0.999872 1 1 0.999872
0.99987 1 1 0.99987
1 1 1 1
0.999861 1 1 0.999861
1 1 1 1
1 1 1 1
1 1 1 1
1 1 1 1
1 1 1 1
0.999998 1 1 0.999998
0.999978 1 1 0.999978
1 1 1 1
1 1 1 1
0.999937 1 1 0.999937
1 1 1 1
1.01407 1.01671 1 0.9974
1.0154 1.01809 1 0.997362
1.0269 1.02961 1 0.997366
1.02961 1.03231 1 0.997379
1.01423 1.017 1 0.997278
0.999659 1.00193 1 0.997738
1.01373 1.01651 1 0.997268
1.02812 1.03086 1 0.997342
1.02928 1.032 1 0.997367
1.03209 1.03504 0.999602 0.997548
1.02449 1.02722 1 0.997338
1.02856 1.03108 0.999937 0.997617
1.02724 1.03001 1 0.997316
1.03092 1.03429 0.999262 0.997484
1.03117 1.03374 0.999911 0.997609
1.03096 1.03473 0.998682 0.99767
1.02553 1.02808 1 0.997515
1.02864 1.03124 0.999685 0.997795
1.01365 1.0164 1 0.997294
1.01385 1.01645 1 0.997441
1.02645 1.02915 1 0.997372
1.02613 1.02884 1 0.997365
0.998926 1 1.00002 0.998909
0.999532 1.00132 1 0.998219
1.00439 1.00661 1.00018 0.997621
1.01991 1.02252 1 0.997453
1.02421 1.02663 1 0.997637
1.02096 1.02347 1 0.997544
1.01659 1.01934 1 0.997299
1.0171 1.01945 1 0.997702
0.998898 1 1.00031 0.998584
0.999468 1 1.00107 0.9984
0.999502 1 1 0.999502
1.00049 1 1.00174 0.998753
1.02699 1.02976 1 0.997312
1.02728 1.03 1 0.997358
1.02949 1.03214 0.999972 0.997466
1.0271 1.02967 0.999926 0.997572
0.998465 1 1 0.998465
0.999186 1.00125 1.00003 0.997905
1.00927 1.01163 1.00039 0.997275
1.0223 1.0248 1 0.99756
1.02366 1.02593 0.999984 0.997804
1.01722 1.01999 1 0.997286
1.01845 1.0207 1 0.997795
1.018 1.02029 1 0.997757
0.998396 1 1 0.998396
0.998695 1 1.0003 0.998395
1.00157 1 1.00311 0.998473
0.999589 1 1 0.999589
0.999261 1 1.00035 0.998912
1.02985 1.03343 0.99907 0.997466
1.03048 1.0333 0.999752 0.997517
1.0248 1.02819 0.998915 0.997786
1.021 1.02327 0.999946 0.997827
0.99824 1 1 0.99824
1.02137 1.02347 1 0.99795
0.999003 1.00109 1.00029 0.997627
1.00959 1.01206 1.00051 0.997052
1.01626 1.01904 1 0.99727
0.999661 1 1 0.999661
0.999125 1 1 0.999122
0.999914 1 1.00125 0.998665
0.998354 1 1 0.998354
1.00188 1 1.00359 0.998298
0.998328 1 1 0.998328
1 1 1 1
0.999753 1 1 0.999753
1.02196 1.02473 1 0.997295
0.999909 1 1.00088 0.999035
0.998857 1 1.00028 0.998578
1.00067 1 1.0022 0.998472
1.01287 1.01543 1 0.997476
1.01743 1.02015 1 0.997329
1.0005 1.00028 1.00229 0.997945
1.00443 1.00619 1.00077 0.997485
1.01403 1.01645 1 0.997618
0.999811 1 1 0.999811
0.99925 1 1 0.99925
0.998682 1 1.00041 0.99827
1.00124 1 1.00254 0.998696
0.999851 1 1.00148 0.998373
1.02145 1.02413 1 0.997383
1.01384 1.01644 1 0.997438
1.01552 1.01803 1 0.997541
1.00121 1.00029 1.00324 0.997676
1.00517 1.00783 1.00006 0.9973
0.999373 1 1 0.999373
1.00007 1 1.0012 0.998865
1.00014 1.00004 1.002 0.998105
1.00148 1 1.00305 0.998433
0.99926 1 1.001 0.998266
1.02214 1.0244 1 0.997789
1.01171 1.01439 1 0.997359
1.01251 1.01498 1 0.997566
1.00349 1.00166 1.00433 0.99751
1.00084 1.00374 1 0.997104
0.999844 1 1 0.999844
0.999413 1 1 0.999413
0.999142 1 1 0.999142
0.99942 1 1 0.99942
0.999471 1 1 0.999471
0.9992 1 1 0.9992
0.999056 1 1 0.999056
0.999172 1 1 0.999172
0.999475 1 1 0.999475
0.999869 1 1 0.999869
0.999872 1 1 0.999872
1 1 1 1
0.999871 1 1 0.999871
1 1 1 1
1 1 1 1
1 1 1 1
1 1 1 1
1 1 1 1
1 1 1 1
0.999995 1 1 0.999995
1 1 1 1
0.999971 1 1 0.999971
1 1 1 1
1 1 1 1
1.02495 1.02769 1 0.997332
1.02912 1.03184 1 0.997366
1.02871 1.03129 0.999858 0.997635
1.03117 1.03436 0.999336 0.997576
1.02808 1.03083 1 0.997335
1.01366 1.01643 1 0.997269
1.02751 1.03029 1 0.997299
1.03116 1.03436 0.999432 0.997476
1.03089 1.03344 0.999948 0.997589
1.03044 1.03448 0.998404 0.997684
1.02488 1.02744 1 0.997515
1.02787 1.0305 0.999612 0.997835
1.03047 1.03352 0.99959 0.99745
1.03097 1.03645 0.997044 0.997661
1.02977 1.03383 0.998284 0.997788
1.02587 1.02838 0.99967 0.997889
1.02687 1.02963 1 0.997312
1.02681 1.02955 1 0.997342
1.0294 1.03203 0.999964 0.997489
1.02697 1.02949 1 0.997555
0.998459 1 1 0.998459
0.999156 1.00121 1 0.997951
1.00937 1.01154 1.00058 0.997267
1.02194 1.02447 1 0.997529
1.02357 1.02579 0.999977 0.997856
1.01884 1.02109 1 0.997797
1.01655 1.01933 1 0.997274
1.01922 1.02146 1 0.9978
0.998394 1 1 0.998394
0.998398 1 1 0.998398
1.00268 1 1.00422 0.998467
0.999555 1 1 0.999555
0.999301 1 1.00037 0.998937
1.0303 1.03353 0.99941 0.997469
1.03068 1.03347 0.999776 0.997519
1.02469 1.02784 0.999158 0.997775
0.998467 1.00023 1 0.998234
1.00017 1.00225 1.00026 0.997671
1.00928 1.0115 1.00076 0.997041
1.02164 1.02393 0.99995 0.997816
1.01602 1.01872 1 0.997344
1.01984 1.02203 0.999931 0.997929
0.999674 1 1 0.999674
0.998394 1.00005 1 0.998347
0.9984 1 1 0.9984
1.00175 1 1.00347 0.998283
0.9999 1 1.00123 0.998676
0.999104 1 1.00001 0.999095
1.0306 1.03547 0.997745 0.997551
1.02845 1.03462 0.996331 0.997698
1.02158 1.02656 0.997264 0.997873
1.02589 1.0289 0.999064 0.998017
0.998659 1.00057 1 0.998087
1.01701 1.01943 1 0.997628
1.00207 1.00323 1.00165 0.997209
1.00601 1.00809 1.00104 0.996905
0.999775 1 1 0.999775
0.999272 1 1 0.999272
0.998852 1 1.00002 0.998835
1.00208 1 1.0037 0.998378
0.998254 1 1 0.998254
1.0003 1 1.00213 0.998177
0.999816 1 1 0.999816
0.999253 1 1 0.999253
1.02153 1.02422 1 0.997377
1.00128 1 1.00259 0.998693
0.998544 1 1.00027 0.998275
0.999845 1 1.00148 0.998367
1.0146 1.01722 1 0.997429
1.01557 1.01805 1 0.997566
1.001 1.00063 1.00273 0.997645
1.00421 1.00669 1.00027 0.99727
0.999375 1 1 0.999375
0.999699 1 1.00083 0.998873
1.00013 1.00003 1.00198 0.998122
1.00171 1 1.00327 0.998437
0.998809 1 1.00048 0.998334
1.0225 1.02475 0.999989 0.997822
1.0111 1.01377 1 0.997364
1.01394 1.01634 1 0.99764
1.00298 1.00093 1.00458 0.997476
1.00154 1.00446 1.00003 0.997056
0.999071 1 1 0.999071
1.0007 1 1.00216 0.998542
1.00198 1.00025 1.00378 0.997955
0.9997 1 1.00155 0.998149
1.02522 1.03292 0.994505 0.998034
1.01742 1.01969 0.999872 0.997899
1.00658 1.00945 1 0.997163
1.00333 1.00197 1.00426 0.997119
0.99943 1 1 0.99943
0.999155 1 1 0.999155
0.999014 1 1 0.999014
0.999471 1 1 0.999471
0.99917 1 1 0.99917
0.999475 1 1 0.999475
0.999039 1 1 0.999039
0.999185 1 1 0.999185
0.998945 1 1 0.998945
0.999004 1 1 0.999004
0.999156 1 1 0.999156
0.999463 1 1 0.999463
0.999862 1 1 0.999862
0.999868 1 1 0.999868
1 1 1 1
0.999872 1 1 0.999872
1 1 1 1
1 1 1 1
1 1 1 1
1 1 1 1
1 1 1 1
1 1 1 1
1 1 1 1
1 1 1 1
0.999993 1 1 0.999993
1 1 1 1
1 1 1 1
1.02417 1.02672 1 0.997514
1.03068 1.03319 1 0.997568
1.02712 1.02976 0.999557 0.997875
1.02994 1.03422 0.998157 0.997698
1.03141 1.03442 0.999624 0.997467
1.02778 1.03058 1 0.997283
1.03013 1.03348 0.999295 0.997454
1.03034 1.03563 0.997233 0.997652
1.02941 1.03357 0.998183 0.997787
1.02743 1.02988 0.999733 0.997893
1.03056 1.03606 0.997084 0.997602
1.03047 1.03836 0.994562 0.99783
1.0306 1.03577 0.99708 0.997926
1.03074 1.03362 0.999738 0.997472
1.03086 1.03361 0.999821 0.997521
1.02457 1.02743 0.999448 0.997764
0.998799 1.00057 1 0.998227
1.00138 1.00349 1.00018 0.997713
1.00869 1.01084 1.00085 0.99703
1.02225 1.02455 0.999951 0.997805
1.01843 1.02068 0.999887 0.997908
1.01606 1.01869 1 0.997418
0.998492 1.00015 1 0.998339
0.998473 1 1 0.998473
1.00148 1 1.00322 0.998268
0.999687 1 1 0.999687
0.999451 1 1.00077 0.998687
0.999069 1 1 0.999069
1.03137 1.03581 0.998155 0.997558
1.02885 1.03482 0.996514 0.997706
1.02184 1.02634 0.99775 0.997865
0.999051 1.00098 1 0.998076
1.0017 1.00301 1.0014 0.997295
1.00535 1.00752 1.0009 0.996946
1.0258 1.02855 0.999294 0.998026
1.01757 1.02006 0.999943 0.997615
0.999814 1 1 0.999814
0.999271 1 1 0.999271
0.998283 1 1 0.998283
1.0012 1 1.00295 0.998253
1.00199 1 1.00359 0.998398
0.998814 1 1 0.998812
1.02999 1.0374 0.995103 0.997748
1.02123 1.03163 0.992062 0.997837
1.02226 1.02806 0.996289 0.998061
1.01999 1.02353 0.998485 0.998052
0.999641 1.00092 1.00088 0.997839
1.0052 1.00677 1.0014 0.997047
1.00316 1.00351 1.00264 0.997013
0.999905 1 1 0.999905
0.999543 1 1 0.999543
0.999349 1 1 0.999349
0.998929 1 1 0.998929
0.999629 1 1.00107 0.998563
1.00179 1 1.00353 0.998271
0.998313 1 1 0.998313
1.01363 1 1.01525 0.998403
0.999377 1 1 0.999377
0.999557 1 1.00068 0.998881
1.02276 1.02498 0.999981 0.997856
1.00224 1 1.0038 0.998442
1.00029 1 1.00215 0.998138
0.998436 1 1.00004 0.998401
1.01023 1.01289 1 0.997369
1.01518 1.0175 1 0.997714
1.00267 1.00042 1.00482 0.997442
1.00239 1.0054 1 0.997009
0.999052 1 1 0.999052
1.00096 1 1.0024 0.998555
1.00229 1.00016 1.00415 0.99798
0.999531 1 1.00136 0.998178
1.02664 1.03388 0.994938 0.998047
1.01722 1.01945 0.999949 0.997862
1.0076 1.01043 1 0.997202
1.00336 1.00252 1.00377 0.997077
0.999115 1 1.00025 0.998866
1.02383 1.03529 0.990875 0.998044
1.00104 1 1.00274 0.998298
1.00107 1.00068 1.00268 0.997715
1.02406 1.02765 0.998368 0.998135
1.00779 1.01052 1 0.997291
1.0047 1.00454 1.00323 0.996937
0.999168 1 1 0.999168
0.99901 1 1 0.99901
0.998911 1 1 0.998911
0.999474 1 1 0.999474
0.999197 1 1 0.999197
0.999022 1 1 0.999022
0.999461 1 1 0.999461
0.999159 1 1 0.999159
0.998931 1 1 0.998931
0.999026 1 1 0.999026
0.998869 1 1 0.998869
0.9989 1 1 0.9989
0.998992 1 1 0.998992
0.999142 1 1 0.999142
0.999434 1 1 0.999434
0.999852 1 1 0.999852
0.999861 1 1 0.999861
1 1 1 1
0.999867 1 1 0.999867
1 1 1 1
1 1 1 1
1 1 1 1
1 1 1 1
1 1 1 1
0.999932 1 1 0.999932
1 1 1 1
1 1 1 1
1 1 1 1
1 1 1 1
1 1 1 1
1 1 1 1
1.02904 1.03141 0.999807 0.997896
1.02902 1.03328 0.998087 0.997787
1.0297 1.03482 0.997403 0.997643
1.02979 1.03344 0.999006 0.997458
1.03013 1.03595 0.996753 0.997621
1.03069 1.03833 0.994813 0.997819
1.03008 1.03552 0.996803 0.997938
1.0304 1.03904 0.993873 0.997804
1.03391 1.04277 0.993546 0.997944
1.0186 1.0334 0.987489 0.998162
1.03218 1.03619 0.998566 0.997565
1.02928 1.03512 0.996638 0.997714
1.02201 1.02611 0.998146 0.997857
0.999443 1.00132 1.00006 0.998065
1.0013 1.00267 1.00126 0.997381
1.0048 1.00705 1.00078 0.996987
1.02583 1.02837 0.999497 0.998035
1.01763 1.02022 0.999862 0.997603
0.998312 1 1 0.998312
1.00209 1 1.00376 0.998329
1.00239 1 1.00398 0.998417
0.999853 1 1 0.999853
0.999271 1 1 0.999271
0.998967 1 1.00018 0.998789
1.02982 1.03761 0.994724 0.99776
0.999901 1 1 0.999901
0.999522 1 1 0.999522
1.02091 1.03081 0.99254 0.997837
1.02274 1.02875 0.996122 0.99803
0.999302 1.00054 1.00084 0.997922
1.00343 1.00315 1.0033 0.99699
1.00577 1.0079 1.00084 0.997048
1.01888 1.02251 0.998404 0.998035
0.99941 1 1 0.99941
0.998925 1 1 0.998925
0.998244 1 1 0.998244
1.00983 1 1.01134 0.998512
1.0016 1 1.00334 0.998265
0.999958 1 1.00138 0.998576
1.03345 1.04216 0.99372 0.997904
1.01126 1.02923 0.984536 0.997975
1.01909 1.02656 0.994466 0.998241
1.00531 1.00956 0.998021 0.997758
1.00046 1.00019 1.00234 0.997929
1.00416 1.00183 1.00547 0.996871
0.999533 1 1 0.999533
0.999491 1 1 0.999491
0.999263 1 1 0.999263
0.998965 1 1 0.998965
0.998854 1 1.00013 0.998728
0.99994 1 1.00162 0.998327
1.02006 1 1.02186 0.998235
1.00064 1 1.0021 0.998545
0.999033 1 1 0.999033
1.00089 1 1.00232 0.998569
1.02779 1.03449 0.99545 0.99806
1.01721 1.01943 1 0.997826
0.999308 1 1.0011 0.998208
1.00241 1 1.00441 0.998005
1.0089 1.01165 1.00004 0.997241
1.00323 1.00285 1.00335 0.997035
0.999167 1 1.00031 0.998857
1.02499 1.03722 0.990117 0.998076
1.00087 1 1.00255 0.998316
1.00071 1.00034 1.00269 0.997684
1.02279 1.02676 0.998025 0.998108
1.00806 1.01074 1 0.997344
1.00463 1.0042 1.00348 0.996951
1.00023 1 1.00165 0.998584
1.01721 1.02977 0.989359 0.998427
1.00037 1.0005 1.00179 0.99809
1.0024 1.00121 1.00379 0.997409
1.0114 1.01678 0.996926 0.997778
1.00231 1.00303 1.00221 0.997077
1.00268 1.0072 0.997068 0.998435
0.999006 1 1 0.999006
0.998994 1 1.00009 0.998909
0.998894 1 1.0001 0.998792
0.999459 1 1 0.999459
0.999162 1 1 0.999162
0.999048 1 1 0.999048
0.998916 1 1 0.998916
0.999433 1 1 0.999433
0.999131 1 1 0.999131
0.998849 1 1 0.998849
0.998992 1 1 0.998992
0.998913 1 1 0.998913
0.998833 1 1 0.998833
0.998864 1 1 0.998864
0.998981 1 1 0.998981
0.99907 1 1 0.99907
0.999362 1 1 0.999362
0.999192 1 1 0.999192
0.999355 1 1 0.999355
0.999844 1 1 0.999844
0.999851 1 1 0.999851
1 1 1 1
0.99986 1 1 0.99986
1 1 1 1
1 1 1 1
1 1 1 1
1 1 1 1
1 1 1 1
0.999949 1 1 0.999949
0.99993 1 1 0.99993
1 1 1 1
1 1 1 1
1 1 1 1
1 1 1 1
1 1 1 1
1 1 1 1
1.02961 1.03539 0.996469 0.99795
1.0309 1.03831 0.995041 0.997808
1.02971 1.03585 0.996423 0.997641
1.03027 1.03888 0.993898 0.997802
1.03229 1.04108 0.993606 0.997941
1.01924 1.03303 0.988501 0.998129
1.03233 1.04355 0.991227 0.998007
0.993531 1.01596 0.980333 0.997543
1.00921 1.02735 0.983654 0.998665
0.999614 1 1 0.999614
1.0296 1.03774 0.994365 0.997773
1.02094 1.03008 0.993275 0.997837
1.02332 1.02939 0.9961 0.997998
0.99892 1.0001 1.00082 0.998005
1.0037 1.00272 1.00402 0.996966
1.00658 1.0091 1.00045 0.997049
1.01771 1.02136 0.998401 0.998018
0.998175 1 1 0.998175
1.00595 1 1.00734 0.998623
1.00121 1 1.00296 0.998259
0.999897 1 1 0.999897
1.00008 1 1.00149 0.99859
0.99947 1 1 0.99947
0.998921 1 1 0.998921
0.9995 1 1 0.9995
1.03217 1.04261 0.992057 0.997912
0.999563 1 1 0.999563
0.999489 1 1 0.999489
0.999223 1 1 0.999223
1.01252 1.02876 0.98621 0.997978
1.01899 1.02651 0.994473 0.998194
0.999805 1.0001 1.00175 0.997949
1.00417 1.00171 1.00556 0.996922
1.00444 1.00818 0.998534 0.997754
0.998999 1 1 0.998999
0.998949 1 1.00025 0.998699
1.00363 1 1.00517 0.998472
1.0163 1 1.01805 0.998273
0.999718 1 1.00137 0.998354
1.022 1.03533 0.989116 0.997993
1.01132 1.03179 0.982025 0.998094
1.01158 1.01709 0.996632 0.997951
1.00146 1.00397 0.999925 0.997571
1.00315 1 1.00507 0.998094
0.999194 1 1 0.999194
0.999094 1 1 0.999094
0.998978 1 1 0.998978
0.998997 1 1.00024 0.998759
0.999562 1 1.00103 0.998532
1.01454 1 1.0163 0.99827
1.01619 1 1.01801 0.998215
0.999215 1 1.00037 0.998848
1.00068 1 1.00236 0.998333
1.02585 1.03946 0.988773 0.998107
1.02141 1.02592 0.997521 0.998082
1.00782 1.01045 1 0.997396
1.00038 1.00005 1.00268 0.997653
1.00431 1.00375 1.0036 0.996965
1.00017 1 1.00155 0.998621
1.01512 1.02927 0.987793 0.998442
0.999679 1.00024 1.00132 0.998118
1.00212 1.00063 1.00408 0.99742
1.01235 1.01734 0.997228 0.997863
1.00222 1.00247 1.00269 0.997063
1.00148 1.0073 0.996322 0.997891
1.00023 1 1.00178 0.998453
1.00624 1.01825 0.989763 0.998424
1.00004 1 1.00194 0.9981
1.00417 1.00039 1.00636 0.997438
1.00008 1.00577 0.996801 0.997536
0.950788 0.98124 0.983435 0.985287
0.968677 0.985314 0.990224 0.99282
0.983505 0.997546 0.987425 0.99848
0.843152 0.894741 0.9617 0.979871
0.797307 0.888937 0.919045 0.975928
0.998977 1 1.00007 0.998906
0.999121 1 1.00031 0.99881
0.998814 1 1 0.998814
0.999433 1 1 0.999433
0.999121 1 1 0.999121
0.998991 1 1 0.998991
0.998925 1 1 0.998925
0.998829 1 1 0.998829
0.998961 1 1 0.998961
0.999386 1 1 0.999386
0.999084 1 1 0.999084
0.998832 1 1 0.998832
0.998871 1 1 0.998871
0.998878 1 1 0.998878
0.998857 1 1 0.998857
0.9989 1 1 0.9989
0.99904 1 1 0.99904
0.999347 1 1 0.999347
0.999108 1 1 0.999108
0.999027 1 1 0.999027
0.999176 1 1 0.999176
0.999161 1 1 0.999161
0.999424 1 1 0.999424
0.999353 1 1 0.999353
0.999839 1 1 0.999839
0.999844 1 1 0.999844
1 1 1 1
0.99985 1 1 0.99985
1 1 1 1
1 1 1 1
1 1 1 1
1 1 1 1
1 1 1 1
0.999958 1 1 0.999958
0.999946 1 1 0.999946
1 1 1 1
0.999927 1 1 0.999927
1 1 1 1
1 1 1 1
1 1 1 1
1 1 1 1
1 1 1 1
1.03059 1.0393 0.993671 0.997938
1.03013 1.03871 0.993924 0.9978
1.02005 1.03257 0.989759 0.998097
0.996576 1.01575 0.98349 0.997591
1.03031 1.04161 0.991129 0.998005
1.01488 1.02958 0.987126 0.998576
1.02759 1.03461 0.995141 0.99807
0.95745 0.984446 0.980423 0.991998
1.00373 1.01935 0.986618 0.998026
0.999621 1 1 0.999621
0.999613 1 1 0.999613
0.999286 1 1 0.999286
0.999316 1 1 0.999316
1.03068 1.04294 0.990309 0.99792
1.0129 1.02782 0.987483 0.99798
1.01872 1.02634 0.994413 0.998147
0.998871 1.00013 1.00077 0.99797
1.00398 1.00166 1.00536 0.996972
1.00365 1.00715 0.998772 0.997749
1.00651 1 1.00812 0.998398
1.01257 1 1.01428 0.998311
0.999479 1 1.0011 0.99838
0.999488 1 1 0.999488
0.998934 1 1.00026 0.99867
0.999033 1 1 0.999033
0.999593 1 1 0.999593
0.999183 1 1 0.999183
1.02003 1.03468 0.987814 0.998008
0.999238 1 1 0.999238
0.999129 1 1 0.999129
0.999016 1 1 0.999016
1.01378 1.03384 0.982463 0.998097
1.01017 1.01619 0.996127 0.997949
1.00277 1 1.0047 0.998082
1.00198 1.00433 1.00007 0.997593
0.999035 1 1.00028 0.998751
0.999198 1 1.0007 0.998502
1.01741 1 1.01923 0.998212
1.01532 1 1.01711 0.998242
1.00775 1.03156 0.978787 0.998091
1.00418 1.02525 0.981354 0.998057
1.00489 1.00779 0.999458 0.997656
0.997613 1.00034 0.999058 0.998219
0.998878 1 1 0.998878
0.999167 1 1.00034 0.99883
1.0047 1 1.00614 0.998564
1.02838 1 1.03035 0.998081
0.930799 0.972365 0.972484 0.984337
1.00035 1 1.0017 0.998659
0.999237 1 1.00109 0.998145
1.01324 1.02856 0.986626 0.998456
1.01361 1.01818 0.997562 0.997947
1.00261 1.00227 1.0033 0.997048
1.00189 1 1.00447 0.99743
1.00068 1.0072 0.996175 0.997336
1.00025 1 1.00177 0.998484
1.00649 1.01888 0.989411 0.998412
0.999547 1 1.00144 0.998112
1.00381 1.00027 1.00611 0.997437
1.00159 1.00671 0.99735 0.99756
0.949663 0.984354 0.979928 0.984518
0.963818 0.982779 0.989675 0.990938
0.98441 0.995501 0.990341 0.998504
0.845556 0.893554 0.965691 0.979904
0.781234 0.877278 0.91441 0.973875
0.999582 1 1.00093 0.99865
0.869002 0.915113 0.96845 0.980548
0.840054 0.894245 0.961253 0.977266
0.985158 1.00712 0.979862 0.998301
1.00505 1.00025 1.00657 0.998246
1.0112 1.00328 1.01019 0.997718
0.97775 0.990826 0.988151 0.998636
0.946867 0.971686 0.990006 0.984294
0.949242 0.963734 0.99478 0.990131
0.821782 0.89487 0.93672 0.980363
0.852156 0.929578 0.937609 0.977714
0.99948 1 1.00065 0.998829
0.999098 1 1.00029 0.998804
0.999596 1 1.00056 0.999037
0.99941 1 1 0.99941
0.999099 1 1 0.999099
0.99894 1 1 0.99894
0.998878 1 1 0.998878
0.998831 1 1 0.998831
0.999347 1 1 0.999347
0.998873 1 1 0.998873
0.998918 1 1 0.998918
0.999065 1 1 0.999065
0.998952 1 1.00009 0.998858
0.998849 1 1 0.998849
0.999352 1 1.00047 0.998884
0.998881 1 1 0.998881
0.999069 1 1 0.999069
0.999105 1 1 0.999105
0.999015 1 1 0.999015
0.998947 1 1 0.998947
0.999012 1 1 0.999012
0.998961 1 1 0.998961
0.998866 1 1 0.998866
0.999154 1 1 0.999154
0.999175 1 1 0.999175
0.99944 1 1 0.99944
0.999131 1 1 0.999131
0.999403 1 1 0.999403
0.999837 1 1 0.999837
0.99935 1 1 0.99935
0.999839 1 1 0.999839
1 1 1 1
0.999843 1 1 0.999843
1 1 1 1
1 1 1 1
1 1 1 1
1 1 1 1
1 1 1 1
0.999597 1 1 0.999597
0.999958 1 1 0.999958
0.999956 1 1 0.999956
1 1 1 1
0.999943 1 1 0.999943
1 1 1 1
1 1 1 1
1 1 1 1
1 1 1 1
1 1 1 1
0.998857 1.01579 0.985653 0.997642
1.0288 1.03977 0.991432 0.998003
1.01959 1.03196 0.989519 0.998487
0.953094 0.979521 0.979966 0.992912
1.00393 1.01907 0.986998 0.998125
1.02953 1.03758 0.994199 0.998032
1.01618 1.02426 0.994193 0.997909
0.964296 0.982013 0.988234 0.99365
0.951413 0.979435 0.98743 0.983755
0.82545 0.887768 0.949255 0.979508
0.778505 0.861902 0.925964 0.97546
0.999273 1 1 0.999273
0.99962 1 1 0.99962
0.999612 1 1 0.999612
0.999273 1 1 0.999273
0.999066 1 1 0.999066
0.9991 1 1 0.9991
0.999261 1 1 0.999261
0.999293 1 1 0.999293
1.01851 1.03445 0.98654 0.998022
1.01717 1.0368 0.982927 0.9981
1.00902 1.01537 0.995784 0.997947
1.00303 1.00006 1.00491 0.99807
1.00255 1.00439 1.00055 0.997614
1.01845 1 1.02028 0.998208
1.01663 1 1.01845 0.998214
0.998994 1 1.00052 0.998472
0.999164 1 1 0.999164
0.999034 1 1.00029 0.998744
0.999282 1 1 0.999282
0.999054 1 1 0.999054
1.00898 1.03176 0.979807 0.998078
0.998904 1 1 0.998904
0.999039 1 1.00019 0.998849
1.00505 1.02468 0.982773 0.998035
1.00323 1.00738 0.998108 0.997766
0.999577 1.00064 1.00079 0.998146
1.0068 1 1.0083 0.998508
1.02538 1 1.02734 0.998092
1.00621 1.0263 0.982315 0.998071
0.986235 1.00773 0.980542 0.998091
0.994357 1.00056 0.995687 0.998101
1.00486 1.00025 1.00636 0.998265
0.999045 1 1.00035 0.998693
1.00288 1 1.00427 0.998615
1.02418 1 1.02592 0.998304
0.857202 0.920265 0.949382 0.981137
0.944622 0.976697 0.980884 0.986009
0.99991 1 1.0014 0.998516
0.999189 1 1.00107 0.998124
1.00722 1.01985 0.989195 0.998401
1.0028 1.00752 0.997735 0.997584
1.00331 1.00017 1.00571 0.997437
0.946216 0.977419 0.983935 0.983882
0.967034 0.987625 0.987449 0.991597
0.985928 0.994122 0.993224 0.998524
0.840072 0.894634 0.957774 0.980411
0.767505 0.865351 0.912676 0.971789
0.999274 1 1.00062 0.998651
0.861537 0.917823 0.956908 0.980945
0.834044 0.887862 0.962147 0.976342
0.986928 1.00793 0.98084 0.998294
1.00468 1.00026 1.00617 0.998269
1.00997 1.00173 1.0104 0.997849
0.969397 0.985653 0.984757 0.998731
0.952682 0.97999 0.988936 0.983011
0.95133 0.967646 0.991112 0.991955
0.82505 0.889361 0.947553 0.979036
0.851004 0.931678 0.934901 0.977012
1.00106 1 1.00216 0.998904
0.86779 0.90376 0.980868 0.978928
0.933949 0.95951 0.989387 0.983801
0.989331 0.999966 0.990564 0.99879
1.01256 1.00183 1.01196 0.99877
0.983459 0.977022 1.00772 0.998878
0.9337 0.9528 0.986855 0.993007
0.936594 0.955462 0.997501 0.982708
0.840254 0.903664 0.949327 0.979463
0.880877 0.95333 0.942634 0.980232
0.999235 1 1.00044 0.998793
0.999304 1 1.00029 0.999015
1.00207 1 1.00285 0.999214
0.999348 1 1 0.999348
0.99909 1 1 0.99909
0.998936 1 1 0.998936
0.998867 1 1 0.998867
0.999069 1 1.00021 0.998858
0.999068 1 1 0.999068
0.998853 1 1 0.998853
0.998881 1 1 0.998881
1.00014 1 1.00123 0.99891
1.00948 0.999976 1.01035 0.999167
0.998911 1 1.00009 0.998821
0.998858 1 1 0.998858
0.999102 1 1 0.999102
0.999003 1 1 0.999003
0.998944 1 1 0.998944
0.999008 1 1 0.999008
0.998974 1 1 0.998974
0.99896 1 1 0.99896
0.998908 1 1 0.998908
0.998959 1 1 0.998959
0.998733 1 1 0.998733
0.99928 1 1.00093 0.998353
0.998781 1 1.00004 0.998743
0.998863 1 1 0.998863
0.999096 1 1 0.999096
0.999152 1 1 0.999152
0.999435 1 1 0.999435
0.999174 1 1 0.999174
0.99944 1 1 0.99944
0.999838 1 1 0.999838
0.999382 1 1 0.999382
0.999837 1 1 0.999837
1 1 1 1
0.99984 1 1 0.99984
1 1 1 1
1 1 1 1
1 1 1 1
1 1 1 1
1 1 1 1
0.999616 1 1 0.999616
0.999947 1 1 0.999947
0.999597 1 1 0.999597
1 1 1 1
0.999958 1 1 0.999958
0.999954 1 1 0.999954
1 1 1 1
1 1 1 1
1 1 1 1
1 1 1 1
1 1 1 1
0.858094 0.908385 0.963648 0.98027
0.843237 0.895874 0.962609 0.977805
0.955542 0.982924 0.978585 0.993416
1.00607 1.01871 0.989347 0.998225
1.032 1.04032 0.993993 0.997994
0.95601 0.973388 0.987139 0.994944
1.01568 1.02384 0.994048 0.99797
0.955897 0.98511 0.985059 0.985064
0.839215 0.894088 0.958043 0.979734
0.770026 0.861683 0.918086 0.973363
0.983131 0.99822 0.988557 0.996284
0.94904 0.973517 0.989947 0.984756
0.814709 0.889499 0.934678 0.979929
0.84308 0.920779 0.937753 0.976394
0.998974 1 1 0.998974
0.999294 1 1 0.999294
0.999619 1 1 0.999619
0.999261 1 1 0.999261
0.999099 1 1 0.999099
0.999178 1 1.00019 0.998992
0.999098 1 1 0.999098
0.999108 1 1 0.999108
0.999234 1 1 0.999234
0.99927 1 1 0.99927
1.01003 1.03147 0.981111 0.998065
1.00448 1.02296 0.983889 0.998016
1.00172 1.00721 0.996662 0.997876
1.00125 1.00096 1.00222 0.998074
1.02139 1 1.02333 0.998104
1.00897 1 1.01053 0.998453
0.998868 1 1 0.998868
0.998929 1 1 0.998929
1.00551 1.02662 0.981308 0.998086
0.999327 1 1.00065 0.998677
1.0028 1 1.00423 0.998584
0.986551 1.00634 0.982292 0.998012
0.993711 1.00041 0.995071 0.99822
1.00587 1.00079 1.00692 0.998165
1.02129 1 1.02306 0.998278
0.997845 1.00473 0.994762 0.998382
0.986892 1 0.9881 0.998777
1.01349 1.00043 1.01474 0.998343
1.00179 1 1.00314 0.998655
1.00132 1 1.00281 0.998513
1.01457 1 1.01621 0.998394
0.875988 0.91103 0.97938 0.981779
0.865913 0.919262 0.960334 0.980873
0.937239 0.97653 0.975013 0.98436
0.998973 1 1.00032 0.998652
1.00429 1.0002 1.00581 0.998292
0.989563 1.00858 0.982828 0.998288
1.00893 1.00019 1.01078 0.99798
0.854838 0.91249 0.955191 0.980766
0.953176 0.978346 0.989311 0.9848
0.944973 0.966359 0.987538 0.990209
0.965479 0.98133 0.985002 0.998828
0.825394 0.889711 0.947666 0.978941
0.836312 0.89251 0.959773 0.976307
0.84103 0.924872 0.930505 0.977262
1.00174 1 1.00283 0.99891
0.868694 0.907182 0.977368 0.979748
0.939579 0.964291 0.99051 0.983709
0.991606 1.00011 0.992616 0.998868
1.01209 1.00052 1.01283 0.998747
0.981012 0.976038 1.00626 0.998844
0.934739 0.955115 0.987423 0.991132
0.938997 0.959858 0.994418 0.983758
0.852306 0.916168 0.949524 0.979748
0.869858 0.943672 0.940146 0.980465
1.00356 0.999757 1.00435 0.99946
0.937634 0.964266 0.985281 0.986907
0.920954 0.953267 0.978457 0.987373
1.00311 0.989495 1.01405 0.999715
0.953875 0.956245 1.00194 0.99559
0.944447 0.955173 1.00588 0.982995
0.888698 0.934653 0.970574 0.97966
0.887861 0.966244 0.937893 0.979728
0.999088 1 1.00009 0.998993
1.00123 1 1.00202 0.999216
1.0133 1 1.01391 0.999396
0.999067 1 1 0.999067
0.998882 1 1 0.998882
0.998857 1 1 0.998857
1.0005 1 1.00157 0.998936
0.998856 1 1 0.998856
0.998952 1 1.00014 0.998817
1.01183 1 1.01262 0.999215
1.02057 0.998056 1.02312 0.999446
1.00935 1 1.01026 0.999096
0.998812 1 1 0.998812
0.998942 1 1 0.998942
0.999005 1 1 0.999005
0.998986 1 1 0.998986
0.998919 1 1 0.998919
0.998959 1 1 0.998959
0.998966 1 1 0.998966
0.99888 1 1 0.99888
0.999361 1 1.00027 0.999088
0.998766 1 1 0.998766
0.998759 1 1 0.998759
0.999176 1 1.00069 0.998483
0.999453 1 1.00153 0.99793
0.999162 1 1.00051 0.998651
0.999238 1 1.00079 0.998447
0.998791 1 1.00002 0.998775
0.998999 1 1.00003 0.998967
0.99886 1 1 0.99886
0.999094 1 1 0.999094
0.999396 1 1 0.999396
0.99915 1 1 0.99915
0.999434 1 1 0.999434
0.999835 1 1 0.999835
0.999441 1 1 0.999441
0.999837 1 1 0.999837
1 1 1 1
0.999838 1 1 0.999838
1 1 1 1
1 1 1 1
1 1 1 1
1 1 1 1
1 1 1 1
0.999482 1 1 0.999482
0.999932 1 1 0.999932
0.999564 1 1 0.999564
1 1 1 1
0.99995 1 1 0.99995
0.999597 1 1 0.999597
1 1 1 1
1 1 1 1
0.999959 1 1 0.999959
1 1 1 1
1 1 1 1
1 1 1 1
0.870237 0.906555 0.978894 0.980636
0.861943 0.914574 0.961504 0.980186
0.936918 0.965209 0.986904 0.98357
0.834725 0.888909 0.961149 0.977002
0.953026 0.976989 0.982328 0.993021
1.01342 1.02354 0.992063 0.998035
0.960362 0.985069 0.988458 0.986303
0.841018 0.897237 0.956708 0.979758
0.765163 0.864277 0.911532 0.971246
0.979521 0.995672 0.98815 0.995577
0.947763 0.973791 0.990254 0.98285
0.826417 0.896765 0.941633 0.978676
0.84263 0.923151 0.935732 0.975467
0.961841 0.983766 0.983083 0.994538
0.948563 0.961137 1.00459 0.982409
0.851141 0.918817 0.946132 0.979085
0.876359 0.954176 0.938513 0.978619
0.999374 1 1.00057 0.998803
0.999006 1 1 0.999006
0.999315 1 1 0.999315
0.999132 1 1 0.999132
0.998804 1 1 0.998804
0.999015 1 1 0.999015
0.999096 1 1 0.999096
0.999076 1 1 0.999076
0.999137 1 1 0.999137
0.999207 1 1 0.999207
1.00615 1.02775 0.980841 0.998101
0.988692 1.00584 0.984989 0.997934
0.992974 1.00018 0.994443 0.998338
1.0076 1.00132 1.00822 0.998067
1.01843 1 1.02021 0.998252
1.00243 1 1.00388 0.998553
0.999631 1 1.00097 0.998662
1.00111 1 1.00246 0.998646
0.994149 1.00556 0.990239 0.998395
1.00107 1 1.00255 0.99852
1.01434 1 1.01598 0.998388
0.985603 1.00024 0.986647 0.998699
1.01368 1.00091 1.01446 0.998318
0.966687 0.990473 0.977079 0.998881
1.00254 0.99771 1.00559 0.999261
1.02058 1 1.02205 0.998561
1.00035 1 1.00183 0.99853
1.00813 1 1.00975 0.998398
0.93921 0.960941 0.988747 0.98851
0.880061 0.910955 0.983991 0.981805
0.858141 0.91492 0.956171 0.980934
1.00239 1 1.00348 0.998915
1.01174 0.99935 1.01369 0.998723
0.99133 1 0.99238 0.998942
0.878065 0.912917 0.980933 0.98052
0.947913 0.95919 1.00588 0.982463
0.936745 0.955658 0.987699 0.992417
0.970939 0.972175 0.999946 0.998783
0.853135 0.915532 0.951329 0.97952
0.944827 0.968301 0.992005 0.983622
0.870415 0.944492 0.939844 0.980556
1.00316 0.99941 1.00432 0.999435
0.935184 0.962381 0.983806 0.987734
0.92307 0.95514 0.978774 0.987383
1.00454 0.991625 1.01346 0.999568
0.95889 0.959986 1.00369 0.995191
0.933459 0.952639 0.99804 0.981791
0.890976 0.968099 0.938576 0.980566
0.887802 0.934209 0.970114 0.979601
1.00461 0.993336 1.01164 0.999711
0.918138 0.949648 0.974128 0.992498
0.932128 0.966173 0.976359 0.988122
0.878194 0.95496 0.939644 0.978683
0.988665 0.975304 1.0149 0.998819
0.961659 0.964482 1.01357 0.983721
0.897209 0.933249 0.981033 0.979969
1.00101 1 1.00179 0.999218
1.01231 1 1.01298 0.999332
1.0161 0.99629 1.02033 0.999566
0.998854 1 1 0.998854
0.99904 1 1.00023 0.998812
1.01546 1 1.01621 0.999262
0.998823 1 1 0.998823
1.00895 1 1.00985 0.999103
1.02225 0.99794 1.02495 0.999421
1.00949 0.99727 1.01277 0.999489
1.00585 1 1.00675 0.999096
0.998929 1 1 0.998929
0.998958 1 1 0.998958
0.998973 1 1 0.998973
0.999272 1 1.0002 0.999071
0.998888 1 1 0.998888
0.999355 1 1.00034 0.999016
0.998901 1 1 0.998901
1.00083 1 1.00259 0.998249
0.998786 1 1 0.998786
0.999011 1 1.00057 0.998445
0.998769 1 1.00101 0.997758
0.999138 1 1.00129 0.997852
0.999986 1 1.00154 0.998453
0.999331 1 1.00138 0.997952
0.999259 1 1.00042 0.998838
0.999271 1 1.00065 0.998623
0.999185 1 1.00065 0.99854
0.998806 1 1 0.998806
0.999017 1 1.00002 0.998998
0.999327 1 1 0.999327
0.999093 1 1 0.999093
0.999395 1 1 0.999395
0.99982 1 1 0.99982
0.999433 1 1 0.999433
0.999833 1 1 0.999833
1 1 1 1
0.999837 1 1 0.999837
1 1 1 1
1 1 1 1
1 1 1 1
1 1 1 1
1 1 1 1
0.999324 1 1 0.999324
0.999822 1 1 0.999822
0.999481 1 1 0.999481
1 1 1 1
0.999899 1 1 0.999899
0.999512 1 1 0.999512
1 1 1 1
1 1 1 1
0.999953 1 1 0.999953
1 1 1 1
1 1 1 1
1 1 1 1
0.93118 0.959778 0.982319 0.987666
0.859668 0.904498 0.969189 0.980651
0.861799 0.911318 0.964944 0.980017
0.99898 1 1 0.99898
0.923226 0.951016 0.982231 0.988341
0.938806 0.965884 0.988271 0.983502
0.831353 0.891096 0.954797 0.977124
0.982598 0.996922 0.990865 0.994718
0.94918 0.972666 0.991249 0.984469
0.832682 0.908059 0.937079 0.978563
0.836727 0.916369 0.935969 0.975556
0.963528 0.984041 0.986738 0.992314
0.93536 0.955233 0.995373 0.983747
0.861687 0.92256 0.953994 0.979061
0.874627 0.950029 0.940937 0.97842
0.942804 0.962546 0.988882 0.990502
0.943717 0.950218 1.01156 0.981809
0.893474 0.940645 0.969847 0.979384
0.887686 0.964728 0.939193 0.979715
0.999416 1 1.00078 0.998634
0.999685 1 1.00091 0.99878
0.999037 1 1 0.999037
0.998803 1 1 0.998803
0.998936 1 1.00009 0.998843
0.999039 1 1 0.999039
0.999084 1 1 0.999084
0.999165 1 1 0.999165
0.988087 1.00559 0.984163 0.998405
0.983305 1.00014 0.984524 0.998622
1.00037 1 1.00173 0.998638
1.01416 1.00143 1.01444 0.998291
1.0151 1 1.01675 0.998381
1.0011 1 1.00257 0.998527
1.00062 1 1.00208 0.998539
0.971338 0.992177 0.980061 0.998914
1.00893 1 1.01052 0.998426
1.01745 1.00014 1.01877 0.998565
0.997499 0.998233 0.999971 0.999294
1.00031 1 1.00174 0.998574
0.961853 0.98182 0.98047 0.999177
1.00809 0.99513 1.01358 0.999454
1.02968 1 1.03108 0.998642
1.00202 1 1.00348 0.998549
0.930788 0.952086 0.984081 0.993445
0.938532 0.960061 0.988822 0.988627
0.885237 0.911061 0.989632 0.981834
1.00213 0.998974 1.00375 0.999413
1.00749 0.994019 1.01414 0.999425
0.933413 0.961034 0.982505 0.988554
0.951953 0.954284 1.01429 0.983504
0.953284 0.958284 1.00203 0.992765
0.892386 0.938198 0.971852 0.97872
0.923795 0.955666 0.978994 0.987391
0.895198 0.971117 0.939292 0.981402
1.00603 0.995389 1.01102 0.999672
0.918427 0.949549 0.974532 0.992502
0.929853 0.964277 0.974756 0.989274
0.997482 0.981917 1.01607 0.999789
0.875741 0.950876 0.941267 0.978451
0.949977 0.95628 1.01063 0.982958
0.90784 0.946722 0.979245 0.979254
1.00646 0.991293 1.01553 0.999771
0.932116 0.963583 0.973699 0.993474
0.924 0.951995 0.981985 0.9884
0.842668 0.921817 0.936157 0.976479
0.893188 0.942226 0.968227 0.979063
0.971104 0.968103 1.0052 0.997911
0.964344 0.958259 1.0259 0.980947
1.00999 1 1.01073 0.999269
1.01541 0.995725 1.02024 0.99954
1.00375 0.985061 1.01939 0.999582
0.998834 1 1 0.998834
1.00806 1 1.00895 0.999111
1.02299 0.998593 1.02505 0.999396
1.00327 1 1.00419 0.999083
1.00976 0.998004 1.0123 0.999488
1.00728 0.997165 1.01091 0.999249
0.999054 1 1 0.999054
0.998897 1 1 0.998897
1.00011 1 1.00113 0.998987
1.00634 1 1.00787 0.99848
0.999035 1 1 0.999035
1.00033 1 1.00198 0.998354
1.00178 1 1.00413 0.99766
1.00074 1.00157 1.00188 0.997295
0.99881 1 1.0004 0.998407
0.998973 1.00022 1.00109 0.997659
0.998468 1 1.00053 0.997944
1.00054 1 1.00232 0.998227
0.999161 1 1.00125 0.99791
1.00063 1 1.00194 0.998693
1.00002 1 1.00158 0.998445
0.99925 1 1.00128 0.997975
0.999207 1 1 0.999207
0.999328 1 1.00049 0.998834
0.999465 1 1.00087 0.998594
0.999029 1 1 0.999029
0.999325 1 1 0.999325
0.999786 1 1 0.999786
0.999395 1 1 0.999395
0.999817 1 1 0.999817
1 1 1 1
0.999832 1 1 0.999832
1 1 1 1
1 1 1 1
1 1 1 1
1 1 1 1
1 1 1 1
0.999258 1 1 0.999258
0.999745 1 1 0.999745
0.999354 1 1 0.999354
1 1 1 1
0.999815 1 1 0.999815
0.999479 1 1 0.999479
1 1 1 1
1 1 1 1
0.999866 1 1 0.999866
1 1 1 1
1 1 1 1
1 1 1 1
0.920223 0.949946 0.975964 0.992569
0.932779 0.960154 0.98363 0.987657
0.859648 0.905719 0.967756 0.980756
0.998997 1 1 0.998997
0.998946 1 1 0.998946
0.998842 1 1 0.998842
0.92896 0.965115 0.97417 0.988059
0.920738 0.950111 0.980496 0.988362
0.941348 0.966671 0.990208 0.983434
0.969875 0.986374 0.989264 0.993943
0.933374 0.955135 0.994725 0.982398
0.8519 0.910752 0.95494 0.979518
0.884307 0.956105 0.945632 0.978082
0.945368 0.963327 0.988828 0.992445
0.939983 0.949676 1.00725 0.982671
0.881497 0.925115 0.971762 0.980539
0.889601 0.966939 0.938281 0.980535
0.932871 0.95291 0.987721 0.991141
0.958154 0.960385 1.0148 0.983128
0.89831 0.931705 0.98368 0.980154
0.881591 0.952861 0.94395 0.980141
0.998623 1 1 0.998623
0.999676 1 1.00105 0.998626
0.99977 1 1.00102 0.998756
0.998798 1 1 0.998798
0.998882 1 1 0.998882
0.999092 1 1 0.999092
0.978178 0.994641 0.984493 0.998939
0.993091 0.998702 0.995055 0.999324
1.00081 1 1.00227 0.998548
1.01366 1.00026 1.01485 0.998571
1.00963 1 1.01119 0.998454
1.00012 1 1.00157 0.99855
1.00173 1 1.00317 0.998564
0.973075 0.984689 0.98898 0.999217
1.02577 1 1.02706 0.998748
1.0063 0.990579 1.0164 0.99948
1.00003 1 1.00135 0.998681
0.987519 0.973986 1.01454 0.999364
1.00052 0.987783 1.01337 0.999522
1.02111 1 1.02226 0.99887
0.947041 0.96755 0.984082 0.994635
0.930463 0.952304 0.983182 0.993778
0.938207 0.959103 0.989352 0.988741
1.00852 0.997779 1.01113 0.999634
0.991934 0.983347 1.00951 0.999232
0.919364 0.950068 0.974991 0.992505
0.949439 0.949911 1.01318 0.986501
0.90636 0.943702 0.980083 0.979947
0.928687 0.962736 0.973956 0.990427
0.884963 0.956526 0.945853 0.978148
1.00437 0.990618 1.0141 0.999788
0.932948 0.963912 0.97389 0.993826
0.922089 0.951371 0.980577 0.988421
0.970269 0.96504 1.01036 0.995109
0.841424 0.923312 0.934107 0.975595
0.87887 0.927575 0.96662 0.98021
0.972719 0.963031 1.02756 0.982968
1.00118 0.972681 1.02974 0.999572
0.920997 0.950506 0.976137 0.992641
0.938545 0.967008 0.986647 0.983702
0.776571 0.860143 0.925314 0.975712
0.852291 0.920197 0.945969 0.979108
0.957335 0.959505 1.01523 0.982767
0.948852 0.960319 0.994546 0.993478
1.0147 0.99486 1.02044 0.999513
1.00706 0.989349 1.01832 0.999586
1.01681 0.994701 1.02271 0.999529
1.00072 1 1.00165 0.99907
1.01032 0.998014 1.01285 0.999487
1.00876 0.997069 1.0124 0.999326
1.01516 1 1.01636 0.99882
1.00099 1 1.00203 0.998959
1.00663 1 1.00827 0.998375
1.01496 1 1.01743 0.997569
0.999904 1 1.00145 0.99846
1.0031 1.00041 1.00509 0.997617
1.0048 1.00189 1.00596 0.996956
1.00324 1.00447 1.00191 0.996881
0.998957 1.00027 1.00108 0.99761
1.00068 1.00154 1.00189 0.997256
0.999206 1.00041 1.00124 0.99756
0.999232 1 1.0011 0.998136
0.998515 1 1.00048 0.998035
1.00106 1 1.00263 0.998429
1.00063 1 1.00237 0.998267
0.999136 1 1.00117 0.997968
1.00002 1 1.00101 0.999004
1.00027 1 1.00158 0.998695
0.999961 1 1.00153 0.998437
0.999723 1 1 0.999723
0.999205 1 1 0.999205
0.99932 1 1.00049 0.99883
0.999323 1 1 0.999323
0.999782 1 1 0.999782
1 1 1 1
0.999814 1 1 0.999814
1 1 1 1
1 1 1 1
1 1 1 1
1 1 1 1
1 1 1 1
0.999247 1 1 0.999247
0.99975 1 1 0.99975
0.999277 1 1 0.999277
1 1 1 1
0.999778 1 1 0.999778
0.999383 1 1 0.999383
1 1 1 1
1 1 1 1
0.999808 1 1 0.999808
1 1 1 1
1 1 1 1
1 1 1 1
0.931609 0.962953 0.973849 0.993429
0.920437 0.950388 0.97573 0.992575
0.932615 0.960436 0.983166 0.98766
0.998919 1 1 0.998919
0.9988 1 1 0.9988
0.999015 1 1 0.999015
0.998943 1 1 0.998943
0.998824 1 1 0.998824
0.998829 1 1 0.998829
0.998729 1 1 0.998729
0.918284 0.952705 0.976301 0.987267
0.928589 0.963082 0.974693 0.989219
0.918091 0.949004 0.978796 0.988383
0.892012 0.969594 0.937464 0.981356
0.934369 0.953719 0.988892 0.990716
0.942448 0.950218 1.00829 0.98367
0.88597 0.927191 0.975346 0.979696
0.928166 0.95239 0.983996 0.990415
0.949059 0.952174 1.01504 0.981961
0.910091 0.947867 0.980001 0.979739
0.869237 0.94318 0.940046 0.980381
0.933752 0.954111 0.986216 0.99234
0.956282 0.958328 1.0166 0.981571
0.891141 0.936723 0.970905 0.979848
0.849719 0.928055 0.936699 0.977466
1.00043 1 1.00171 0.998723
0.998739 1 1.00012 0.998624
1.00009 1 1.00147 0.998619
0.998793 1 1 0.998793
0.981266 0.986539 0.995389 0.999263
1.0035 0.986822 1.01741 0.999505
0.99858 1 1.00005 0.998525
1.00147 1 1.00289 0.998579
1.02144 1 1.02261 0.998853
0.999489 1 1.00082 0.998674
1.02169 0.999673 1.02319 0.998856
0.983491 0.972398 1.01277 0.998656
1.00343 0.98695 1.01707 0.999633
1.00991 0.998881 1.01209 0.998968
0.988782 0.971018 1.01982 0.998501
1.01958 0.993001 1.02749 0.999297
0.931356 0.952277 0.984445 0.993484
0.942708 0.965673 0.981098 0.995027
0.929907 0.95249 0.982074 0.994111
1.00139 0.988942 1.01278 0.999805
0.973753 0.967093 1.00884 0.998061
0.932834 0.963561 0.973777 0.994181
0.966945 0.962115 1.02417 0.981308
0.882113 0.927663 0.970976 0.979322
0.919887 0.950741 0.978861 0.988442
0.836648 0.916518 0.935602 0.975686
1.00621 0.976423 1.03085 0.999658
0.920756 0.950908 0.975462 0.992649
0.940138 0.967282 0.988113 0.983631
0.95105 0.959998 0.994991 0.995666
0.769979 0.861052 0.918439 0.973642
0.859037 0.921344 0.952409 0.978964
0.955173 0.954626 1.01854 0.982362
0.999889 0.978442 1.02309 0.998852
0.932651 0.960924 0.982542 0.987823
0.84378 0.896026 0.962808 0.978068
0.817659 0.890685 0.93656 0.980195
0.941426 0.947515 1.01062 0.98313
0.930284 0.952203 0.985558 0.991297
1.01059 0.993494 1.01763 0.99959
1.01747 0.993208 1.02492 0.999522
1.00899 0.997723 1.01194 0.999358
1.01051 0.997235 1.01392 0.999402
1.01431 0.99829 1.01717 0.998897
1.00821 1.0008 1.00941 0.998016
1.00712 1 1.00886 0.998268
1.01404 1 1.01656 0.997518
1.00898 1.00017 1.0119 0.996945
1.00449 1.00089 1.00604 0.997574
1.00494 1.00155 1.00652 0.996883
1.00311 1.00209 1.00437 0.996662
1.0057 1.0088 1 0.996924
1.00534 1.00752 1.00077 0.997081
1.00378 1.00478 1.00218 0.996828
0.998735 1.00076 1.00013 0.997847
0.998763 1.00036 1.00074 0.997665
1.00065 1.00155 1.0019 0.997216
0.999273 1 1.00112 0.99816
0.999242 1.00003 1.00108 0.998128
0.99855 1 1.00043 0.998125
1.00097 1 1.00225 0.998731
1.00097 1 1.0025 0.998472
1.00071 1 1.00241 0.998306
0.999579 1 1 0.999579
0.999745 1 1.00074 0.999005
1.00003 1 1.00133 0.998698
0.999999 1 1 0.999999
0.999716 1 1 0.999716
0.999213 1 1.00001 0.999203
0.999777 1 1 0.999777
1 1 1 1
1 1 1 1
1 1 1 1
1 1 1 1
1 1 1 1
0.998913 1 1 0.998913
0.999188 1 1 0.999188
0.999693 1 1 0.999693
0.999245 1 1 0.999245
0.999999 1 1 0.999999
0.999754 1 1 0.999754
0.999297 1 1 0.999297
1 1 1 1
1 1 1 1
0.99981 1 1 0.99981
1 1 1 1
1 1 1 1
1 1 1 1
0.917447 0.949651 0.973423 0.992465
0.932116 0.963375 0.973602 0.993787
0.92082 0.950919 0.975585 0.99258
0.99893 1 1 0.99893
0.998786 1 1 0.998786
0.998731 1 1 0.998731
0.998787 1 1 0.998787
0.99941 1 1.00071 0.998698
0.99894 1 1 0.99894
0.998805 1 1 0.998805
0.99883 1 1 0.99883
0.99873 1 1 0.99873
0.999925 1 1.00115 0.998777
0.932243 0.958122 0.98922 0.983592
0.92181 0.954716 0.977966 0.987288
0.929339 0.961944 0.975492 0.990378
0.86831 0.943834 0.938291 0.980486
0.907269 0.942218 0.982402 0.980157
0.920534 0.948174 0.981216 0.989435
0.95734 0.95975 1.01484 0.982901
0.934367 0.956241 0.986806 0.990189
0.967419 0.967328 1.01757 0.982821
0.890254 0.935274 0.971242 0.980049
0.850211 0.930906 0.935095 0.976709
0.954441 0.963096 0.999324 0.991683
0.957767 0.959796 1.01483 0.983305
0.838733 0.903545 0.947947 0.979242
0.799779 0.890085 0.92125 0.975351
1.00256 1 1.00342 0.999144
1.00198 1 1.00326 0.998722
0.999535 1 1.00091 0.998625
0.981998 0.971416 1.01299 0.997935
1.00625 0.985431 1.02139 0.999748
0.999823 1 1.00116 0.998666
1.02294 0.999494 1.02465 0.998842
1.01118 0.999515 1.01271 0.998976
1.02074 0.99508 1.02652 0.999286
0.984912 0.96776 1.01922 0.998535
1.01658 0.998684 1.01859 0.999345
0.991353 0.977986 1.01532 0.998368
0.941218 0.962809 0.989057 0.988391
0.931023 0.952402 0.983638 0.993812
0.938333 0.963883 0.977974 0.995418
1.0115 0.980608 1.03178 0.999736
0.950462 0.961406 0.99614 0.992447
0.921292 0.951275 0.975647 0.992655
0.957048 0.961392 1.01499 0.980782
0.850959 0.909684 0.955071 0.979451
0.941777 0.967552 0.989626 0.983564
0.766898 0.864834 0.912722 0.971554
0.999116 0.977092 1.02359 0.998974
0.93417 0.961417 0.983645 0.987815
0.835662 0.889872 0.960923 0.977269
0.932799 0.955489 0.983717 0.992412
0.828521 0.89733 0.9432 0.978921
0.929389 0.945461 1.00116 0.981862
0.973767 0.976308 0.999407 0.997989
0.870634 0.907486 0.978076 0.980896
0.827558 0.888419 0.9507 0.979799
0.947603 0.961474 1.00315 0.982483
0.926753 0.9511 0.981419 0.99285
1.01722 0.991824 1.0261 0.999515
1.01058 0.996236 1.01508 0.999329
0.996607 1.001 0.996937 0.998665
1.01304 0.996242 1.0179 0.998973
1.0082 1.00093 1.00917 0.998112
1.00138 1.00198 1.00186 0.997547
1.01282 1 1.01539 0.997465
1.00737 1.00032 1.01012 0.996961
0.999556 1.00147 1.00103 0.997058
1.00478 1.00119 1.00679 0.99681
1.00329 1.00301 1.00361 0.996684
1.00629 1.00923 1 0.997087
1.01649 1.01926 1 0.997278
1.01038 1.01344 1.00002 0.996965
1.00527 1.00835 1 0.996943
1.00259 1.00525 1 0.99736
1.00363 1.00553 1.00107 0.997034
1.00435 1.00515 1.00244 0.996776
0.998313 1.00031 1 0.998002
0.998451 1.00052 1.00002 0.997913
0.998483 1.00045 1.00032 0.997721
0.999813 1 1.00134 0.998471
0.99947 1 1.00129 0.998186
0.999312 1.0001 1.0011 0.998119
0.999866 1 1.00055 0.999312
1.00074 1 1.00201 0.998733
1.00086 1 1.00235 0.998514
0.999994 1 1 0.999994
0.999628 1 1.00006 0.999572
0.999514 1 1.00051 0.999006
1 1 1 1
0.999998 1 1 0.999998
0.99971 1 1 0.99971
1 1 1 1
1 1 1 1
1 1 1 1
0.998827 1 1 0.998827
0.99912 1 1 0.99912
0.998899 1 1 0.998899
0.999646 1 1 0.999646
0.999187 1 1 0.999187
0.999995 1 1 0.999995
0.999696 1 1 0.999696
0.999243 1 1 0.999243
1 1 1 1
1 1 1 1
0.999757 1 1 0.999757
1 1 1 1
1 1 1 1
1 1 1 1
0.936107 0.964675 0.981509 0.988668
0.917656 0.949462 0.973831 0.992472
0.932079 0.963027 0.973564 0.994146
0.998736 1 1 0.998736
0.998941 1 1 0.998941
0.998772 1 1 0.998772
0.998801 1 1 0.998801
0.998748 1 1 0.998748
0.999124 1 1.00042 0.998706
1.00067 1 1.00208 0.998587
1.00081 1 1.00214 0.998674
0.99883 1 1 0.99883
0.998732 1 1 0.998732
1.00006 1 1.00129 0.998767
1.0012 1 1.00228 0.998924
0.840473 0.895283 0.960957 0.976922
0.938157 0.963524 0.990008 0.9835
0.923349 0.954709 0.979587 0.987306
0.842753 0.925793 0.93177 0.976962
0.897098 0.942495 0.971794 0.97946
0.957594 0.958966 1.01726 0.981626
0.939637 0.957028 0.99079 0.990955
0.953594 0.960136 0.999756 0.993429
0.783529 0.878369 0.916438 0.973363
0.952842 0.955165 1.01615 0.981718
0.849552 0.915395 0.947559 0.979434
0.944465 0.958635 0.991286 0.993878
0.945438 0.952075 1.00919 0.983986
0.821823 0.895363 0.937131 0.979443
1.00046 1 1.00087 0.999584
1.00225 1 1.00311 0.999147
1.00315 1 1.00444 0.998721
0.981497 0.965057 1.01849 0.99857
1.02274 0.998113 1.02541 0.999275
1.01233 1 1.01336 0.998983
1.01607 0.999441 1.0173 0.999344
0.991589 0.979888 1.01354 0.998419
0.999701 0.991534 1.00938 0.998866
0.878028 0.91201 0.982331 0.980056
0.939294 0.961496 0.987253 0.989523
0.93022 0.952414 0.982455 0.99414
0.999363 0.975505 1.0254 0.99908
0.927987 0.954756 0.978637 0.993179
0.933844 0.961812 0.982899 0.987814
0.937828 0.945485 1.00853 0.98351
0.836366 0.909688 0.939268 0.978845
0.831528 0.891408 0.954394 0.977401
0.975627 0.97685 1.0007 0.998049
0.8602 0.905127 0.968863 0.980906
0.841943 0.895122 0.959729 0.980058
0.929236 0.951615 0.985751 0.990598
0.936227 0.958335 0.993061 0.983757
0.964799 0.985932 0.979603 0.998942
0.857855 0.9086 0.962921 0.980506
0.951424 0.976152 0.989998 0.984516
0.941224 0.964107 0.985734 0.990394
1.01306 0.995317 1.01854 0.999301
0.990605 1.00029 0.99154 0.99877
0.985863 1.00265 0.985056 0.998173
1.00868 1.00106 1.00942 0.998208
1.00297 1.0024 1.00304 0.997538
1.00047 1.00336 0.999428 0.997691
1.00612 1.0005 1.00866 0.996976
0.99961 1.00113 1.00142 0.997071
1.01187 1.01428 1 0.997628
1.00367 1.00395 1.00303 0.996706
1.00584 1.00877 1 0.997095
1.01618 1.01853 1 0.997692
1.02177 1.02413 1 0.997689
1.01865 1.0215 1 0.99721
1.0159 1.01865 1 0.997306
1.00951 1.01237 1 0.997178
1.00953 1.01256 1 0.997008
1.0047 1.00776 1 0.996961
1.00061 1.00289 1 0.997729
1.00255 1.00504 1.00014 0.997383
1.00202 1.00356 1.00148 0.996987
0.998259 1 1 0.998259
0.998814 1.00082 1 0.997996
0.998049 1.00007 1 0.997978
0.999592 1 1.00058 0.99901
0.999669 1 1.0012 0.998472
0.999655 1 1.00145 0.998212
0.999966 1 1 0.999966
0.999839 1 1.00053 0.999308
1.00035 1 1.00162 0.998735
1 1 1 1
0.999989 1 1 0.999989
0.999646 1 1.00008 0.999565
1 1 1 1
0.999998 1 1 0.999998
1 1 1 1
0.998788 1 1 0.998788
0.998854 1 1.00003 0.998826
0.999032 1 1 0.999032
0.9996 1 1 0.9996
0.99912 1 1 0.99912
0.998886 1 1 0.998886
0.999987 1 1 0.999987
0.999649 1 1 0.999649
0.999187 1 1 0.999187
1 1 1 1
0.999996 1 1 0.999996
0.999699 1 1 0.999699
1 1 1 1
1 1 1 1
1 1 1 1
0.865947 0.902453 0.980087 0.979044
0.934247 0.962426 0.981842 0.988674
0.918703 0.950105 0.974276 0.992479
0.998834 1 1.00011 0.998721
0.998805 1 1.00015 0.998654
0.999879 1 1.00125 0.998631
0.998815 1 1 0.998815
0.998765 1 1 0.998765
0.999287 1 1.00057 0.998714
1.00076 1 1.00209 0.998669
1.00055 1 1.00196 0.998592
1.00124 1 1.00274 0.998502
0.998319 1 0.999273 0.999045
0.999754 1 1.001 0.998758
1.00058 1 1.00168 0.998903
0.837953 0.891643 0.959579 0.979372
0.833168 0.887435 0.961965 0.975971
0.944075 0.9684 0.99132 0.983417
0.768408 0.864823 0.914721 0.97135
0.85055 0.913206 0.951132 0.979242
0.952351 0.956842 1.01144 0.984046
0.955023 0.958328 1.0052 0.991398
0.943125 0.958105 0.992194 0.992109
0.823525 0.888248 0.947517 0.978488
0.935107 0.947628 1.0035 0.983343
0.937718 0.960028 0.983871 0.992774
0.933985 0.959879 0.989989 0.982863
1.0071 1 1.00806 0.999038
1.00008 1 1.00056 0.999522
1.00158 1 1.00243 0.99915
0.990754 0.980441 1.01207 0.998464
1.01529 1 1.01596 0.999344
1.00011 0.992429 1.00898 0.998766
0.99095 0.995638 0.997291 0.997996
0.857352 0.921512 0.94821 0.981191
0.881748 0.912193 0.985455 0.980891
0.938178 0.960278 0.986213 0.990645
0.976074 0.979482 0.998369 0.998149
0.928637 0.951292 0.984708 0.991345
0.860312 0.90637 0.967565 0.981002
0.933 0.955181 0.994149 0.982527
0.846172 0.901163 0.958087 0.980055
0.968463 0.986369 0.983441 0.99838
0.863031 0.915525 0.961498 0.98041
0.95116 0.977122 0.990424 0.982841
0.948171 0.966341 0.988824 0.992287
0.977503 0.993544 0.985053 0.998784
0.953858 0.981874 0.98759 0.983674
0.9603 0.983966 0.982253 0.993582
0.984949 0.999398 0.986655 0.998872
0.986213 1.00353 0.984564 0.99815
0.983842 1.00682 0.979082 0.998055
1.00385 1.00277 1.00356 0.997529
0.999795 1.00347 0.998648 0.997686
1.01583 1.02077 0.996997 0.998155
0.999478 1.0007 1.0017 0.997084
1.01179 1.01421 0.999996 0.997617
1.02128 1.02364 0.999564 0.998129
1.00524 1.00816 1 0.997102
1.01554 1.01789 1 0.997691
1.02216 1.02415 1 0.99806
1.01966 1.02176 1 0.997943
1.02223 1.02454 1 0.997738
1.0216 1.02408 1 0.997576
1.01787 1.02063 1 0.997289
1.0192 1.02205 1 0.997216
1.0154 1.01811 1 0.997335
1.00605 1.00862 1 0.99745
1.01014 1.01296 1 0.997214
1.0087 1.01168 1 0.997051
0.998541 1.0005 1 0.998038
1.00131 1.0036 1 0.997722
1.00266 1.00509 1.00017 0.997406
0.998792 1 1 0.998791
0.998259 1 1 0.998258
0.999428 1.00144 1 0.997991
0.999876 1 1 0.999876
0.999491 1 1.00048 0.99901
0.999619 1 1.00115 0.998474
1 1 1 1
0.999948 1 1 0.999948
0.999824 1 1.00052 0.999304
1 1 1 1
0.999983 1 1 0.999983
1 1 1 1
0.998724 1 1 0.998724
0.99879 1 1.00001 0.998782
0.998935 1 1 0.998935
0.998843 1 1.00002 0.998825
0.999031 1 1 0.999031
0.999529 1 1 0.999529
0.99998 1 1 0.99998
0.999602 1 1 0.999602
0.99912 1 1 0.99912
1 1 1 1
0.99999 1 1 0.99999
0.999651 1 1 0.999651
1 1 1 1
0.999998 1 1 0.999998
1 1 1 1
0.865436 0.9124 0.967389 0.980503
0.868932 0.907118 0.978625 0.978826
0.932711 0.960635 0.982052 0.988677
0.998785 1 1.00008 0.998705
0.999971 1 1.00139 0.998583
0.998698 1 1 0.998697
0.998343 1 1 0.998343
0.999664 1 1.00111 0.998554
1.00076 1 1.0021 0.998664
1.00013 1 1.00153 0.998598
1.00108 1 1.00255 0.998536
0.998374 1 1 0.998374
0.997023 1.00043 0.997747 0.998842
0.998594 1.00034 1.00026 0.998002
0.999287 1 1.00019 0.999097
1.00027 1 1.00139 0.998881
0.946109 0.975417 0.986634 0.983094
0.840708 0.890123 0.964201 0.979553
0.833999 0.890366 0.959781 0.975944
0.821486 0.889133 0.94443 0.978281
0.940675 0.95139 1.00703 0.981837
0.946105 0.95629 0.995309 0.994013
0.93897 0.958901 0.985131 0.993995
0.940578 0.961448 0.993765 0.984431
0.962279 0.984519 0.984291 0.99301
1.00041 1.00132 1.00086 0.998235
1.00567 1 1.00666 0.999015
0.999594 1 1.00013 0.99946
1.0009 0.99422 1.00804 0.998685
0.996594 0.999608 0.99906 0.997923
0.932737 0.973355 0.973513 0.984341
0.866561 0.920688 0.959439 0.981002
0.886631 0.912697 0.989511 0.981739
0.971901 0.987705 0.986177 0.997792
0.943675 0.962172 0.990174 0.990508
0.863969 0.913116 0.965279 0.980211
0.949979 0.973486 0.991427 0.984291
0.978384 0.993549 0.985908 0.998812
0.957101 0.986072 0.985539 0.984862
0.961073 0.983778 0.985107 0.991689
0.996668 1.00475 0.993705 0.998239
0.977477 0.995767 0.986006 0.995564
0.986721 1.00456 0.984076 0.998134
0.985303 1.00625 0.981136 0.998006
1.00504 1.02732 0.980079 0.998198
0.999374 1.00358 0.998123 0.997681
1.01532 1.02042 0.996854 0.998141
1.02287 1.03111 0.993649 0.998354
1.01177 1.01423 0.999969 0.997606
1.02102 1.02379 0.99918 0.998112
1.02015 1.02372 0.998249 0.998264
1.01507 1.01742 1 0.99769
1.02243 1.0245 0.999931 0.998043
1.02107 1.02302 1 0.998094
1.0203 1.02235 1 0.997988
1.01952 1.02178 1 0.99778
1.02265 1.02492 1 0.997786
1.0215 1.02399 1 0.997569
1.02073 1.02333 1 0.997462
1.01294 1.01558 1 0.9974
1.01772 1.0205 1 0.99728
1.01972 1.02256 1 0.997222
1.00054 1.00271 1 0.997832
1.00583 1.00838 1 0.997471
1.01072 1.0135 1 0.997249
0.998617 1 1 0.998617
0.999044 1.00101 1 0.998033
1.00168 1.00398 1 0.997716
0.999736 1 1 0.999736
0.998792 1 1 0.998792
0.998288 1.00003 1 0.998256
1 1 1 1
0.999854 1 1 0.999854
0.99941 1 1.0004 0.999011
1 1 1 1
0.99993 1 1 0.99993
1 1 1 1
0.998921 1.00057 1 0.998357
0.998722 1 1 0.998722
0.998799 1 1 0.998799
0.998831 1 1.00006 0.998775
0.998914 1 1 0.998914
0.9994 1 1 0.9994
0.999031 1 1 0.999031
0.999531 1 1 0.999531
0.999971 1 1 0.999971
1 1 1 1
0.999982 1 1 0.999982
0.999604 1 1 0.999604
1 1 1 1
0.999992 1 1 0.999992
1 1 1 1
0.953123 0.982492 0.984634 0.985247
0.85817 0.914707 0.956378 0.980984
0.879636 0.913244 0.984313 0.978551
1.00024 1 1.0017 0.998535
0.99874 1 1 0.99874
0.999628 1 1.00107 0.99856
0.998412 1.00005 1 0.998362
1.00181 1.00384 1.00002 0.997962
0.998421 1 1 0.998421
1.00104 1 1.00248 0.99857
0.998263 1 1 0.998263
0.998119 1.00021 0.999099 0.998809
0.998508 1.0003 1 0.99821
0.998915 1.00269 0.998049 0.998178
0.998075 1.00129 0.999182 0.997606
0.998361 1.00081 0.999428 0.998128
1.00047 1 1.00132 0.999149
0.960837 0.986034 0.981142 0.993176
0.948964 0.976818 0.987444 0.983839
0.835994 0.890967 0.957456 0.979993
0.953196 0.968002 1.00221 0.982534
0.938921 0.957865 0.985283 0.994864
0.966189 0.985215 0.985343 0.995276
0.993162 1.00377 0.991258 0.998161
0.998246 1.00067 0.9993 0.998277
1.00462 1 1.00563 0.998993
0.996714 1.00112 0.997763 0.997831
0.963524 0.980927 0.988984 0.9932
0.945427 0.977297 0.981148 0.985978
0.857315 0.915494 0.954563 0.981026
0.980333 0.994338 0.987062 0.998838
0.965358 0.986013 0.985883 0.993071
0.960984 0.986059 0.988352 0.986056
0.990414 1.00382 0.988376 0.998253
0.975055 0.993416 0.986535 0.994914
0.996477 1.02368 0.975357 0.998025
1.00548 1.0153 0.992686 0.997622
0.986449 1.00557 0.982992 0.997954
1.00467 1.02659 0.980425 0.99819
1.0086 1.03528 0.97595 0.998235
1.01502 1.02041 0.996579 0.998127
1.02258 1.03096 0.99352 0.998339
1.01561 1.02506 0.992553 0.99821
1.02069 1.02387 0.998797 0.998095
1.01956 1.02329 0.998095 0.998248
1.02154 1.02521 0.998357 0.998059
1.02265 1.02482 0.999855 0.998026
1.02038 1.02241 0.999927 0.998089
1.01973 1.02195 1 0.99783
1.02096 1.02297 1 0.998033
1.01948 1.02171 1 0.997816
1.02096 1.02345 1 0.99756
1.02145 1.02395 1 0.997561
1.02063 1.02324 1 0.997454
1.01648 1.01903 1 0.997491
1.00358 1.00591 1 0.997682
1.01256 1.01518 1 0.997419
1.01755 1.02034 1 0.99727
0.998442 1 1 0.998442
1.00145 1.00362 1 0.997833
1.00585 1.00838 1 0.997492
0.999588 1 1 0.999588
0.998616 1 1 0.998616
0.999552 1.00153 1 0.998029
1 1 1 1
0.999721 1 1 0.999721
0.998792 1 1 0.998792
1 1 1 1
0.999831 1 1 0.999831
1 1 1 1
1.00112 1.00311 1 0.998019
0.998652 1.00028 1 0.99837
0.99855 1 1 0.99855
0.998721 1 1 0.998721
0.998776 1 1 0.998776
0.999219 1 1 0.999219
0.998893 1 1 0.998893
0.999402 1 1 0.999402
0.999953 1 1 0.999953
0.999533 1 1 0.999533
0.999974 1 1 0.999974
1 1 1 1
1 1 1 1
0.999984 1 1 0.999984
1 1 1 1
0.962149 0.984409 0.983707 0.993575
0.949209 0.983256 0.981047 0.984023
0.851659 0.910085 0.954173 0.980746
1.00774 1.01006 1.00007 0.997638
0.999461 1 1.0009 0.998567
0.998484 1.0001 1 0.998381
0.998388 1 1 0.998388
1.00152 1.00345 1.00012 0.997951
1.00032 1.00205 1 0.998277
0.998152 1 1 0.998152
0.999064 1 1.00029 0.998776
0.998638 1.00051 0.999878 0.99825
0.997476 1.00179 0.997538 0.998148
1.0013 1.00375 1 0.997553
1.00287 1.00581 0.999504 0.997574
0.999145 1.00195 0.999635 0.99756
0.998241 1.00134 0.998653 0.998254
0.994381 1.00619 0.989592 0.99866
0.959837 0.98636 0.9807 0.992261
0.952787 0.978293 0.988864 0.984896
0.959903 0.981225 0.984529 0.993643
0.99709 1.00583 0.992761 0.998542
0.999054 1.0002 1.00054 0.998317
0.996824 1.00668 0.992519 0.99767
0.958447 0.973611 0.989892 0.994476
0.937539 0.976498 0.975278 0.98444
0.983724 1.00217 0.983306 0.998263
0.978983 0.994724 0.990019 0.994098
0.998067 1.02468 0.975915 0.998066
1.00439 1.01393 0.992801 0.997767
1.00514 1.03159 0.976274 0.998035
1.02386 1.02974 0.996347 0.997938
1.00411 1.02552 0.980911 0.998182
1.0112 1.03649 0.977337 0.998232
1.00869 1.02974 0.981455 0.998072
1.02196 1.03045 0.993423 0.998324
1.01596 1.02516 0.992804 0.998207
1.02062 1.02724 0.995597 0.997949
1.01899 1.02286 0.997975 0.998233
1.02138 1.0248 0.99859 0.998072
1.02205 1.02444 0.999914 0.997758
1.01967 1.02177 0.999862 0.998085
1.01985 1.02207 1 0.99783
1.02268 1.02517 1 0.997572
1.01939 1.02159 1 0.997852
1.02101 1.02348 1 0.997584
1.0183 1.02088 1 0.997472
1.02051 1.02312 1 0.997445
1.01629 1.01887 1 0.99747
1.00647 1.00883 1 0.997668
0.998522 1.00021 1 0.998317
1.0039 1.0062 1 0.997708
1.01215 1.01475 1 0.997437
0.999455 1 1 0.999455
0.99848 1.00004 1 0.998441
1.0023 1.00447 1 0.997833
1 1 1 1
0.999575 1 1 0.999575
0.998614 1 1 0.998614
1 1 1 1
0.999705 1 1 0.999705
1 1 1 1
1.003 1.0053 1 0.997704
1.00058 1.00256 1 0.998024
0.998858 1.00059 1 0.998274
0.998389 1 1.00001 0.998382
0.998557 1 1 0.998557
0.999127 1 1.00011 0.999013
0.998754 1 1 0.998754
0.999219 1 1 0.999219
0.999912 1 1 0.999912
0.999403 1 1 0.999403
0.999959 1 1 0.999959
1 1 1 1
0.999977 1 1 0.999977
1 1 1 1
1 1 1 1
0.997679 1.01055 0.988635 0.998614
0.956369 0.982335 0.981619 0.991796
0.94721 0.975573 0.985163 0.985549
1.00679 1.00894 1.00001 0.99786
1.01317 1.01573 1 0.997477
1.00658 1.00879 1.00013 0.99768
0.998356 1 1 0.998356
1.00118 1.003 1.00024 0.997939
1.00109 1.00287 1 0.998221
1.00889 1.0113 1 0.997619
0.998684 1.00069 0.999708 0.998289
0.995969 1.00077 0.997081 0.998116
1.00209 1.0046 0.999883 0.997616
1.01106 1.01381 0.999987 0.997303
1.01035 1.01807 0.994525 0.997886
1.00314 1.00627 0.999337 0.997548
0.999904 1.00262 0.999773 0.997513
0.998614 1.00846 0.991442 0.998788
0.962516 0.98684 0.984012 0.991199
0.997422 1.00703 0.991515 0.998933
1.01453 1.02341 0.992811 0.998506
0.995856 1.00539 0.992742 0.997757
0.958533 0.978574 0.986696 0.992727
1.00026 1.02594 0.976816 0.998106
1.00256 1.01284 0.991915 0.997918
1.00446 1.03171 0.97544 0.998104
1.02552 1.03182 0.995931 0.997946
1.02103 1.03514 0.988402 0.997944
1.03752 1.04457 0.995178 0.998057
1.01401 1.03827 0.97836 0.998229
1.0103 1.02948 0.983262 0.998075
1.02369 1.03397 0.992185 0.997854
1.01642 1.02535 0.993074 0.998204
1.02085 1.0268 0.996259 0.997946
1.02582 1.02913 0.99907 0.997717
1.0212 1.02437 0.998822 0.998085
1.0224 1.02473 0.999964 0.997757
1.02528 1.02783 1 0.997519
1.01996 1.02218 1 0.99783
1.02253 1.02502 1 0.997572
1.02061 1.02324 1 0.99743
1.02107 1.02352 1 0.997608
1.0181 1.02068 1 0.997478
1.00796 1.01037 1 0.997615
1.01614 1.01873 1 0.997449
1.00635 1.00871 1 0.997657
0.998976 1.00073 1 0.998243
0.999378 1 1 0.999378
0.99865 1.00033 1 0.998316
1.00425 1.00653 1 0.997733
1 1 1 1
0.999444 1 1 0.999444
0.998523 1.00008 1 0.998441
1 1 1 1
0.999563 1 1 0.999563
1 1 1 1
1.00613 1.00867 1 0.997482
1.00308 1.00541 1 0.997677
1.00052 1.00254 1 0.997982
1.00002 1.00199 1 0.998029
0.998701 1.00042 1 0.998279
0.998787 1 1 0.998787
0.998563 1 1 0.998563
0.999153 1 1.00014 0.999014
0.999823 1 1 0.999823
0.999219 1 1 0.999219
0.999925 1 1 0.999925
1 1 1 1
0.999965 1 1 0.999965
1 1 1 1
1 1 1 1
1.00973 1.02339 0.988294 0.998341
0.99488 1.00952 0.987255 0.998221
0.954404 0.983186 0.977964 0.992599
1.01546 1.01795 1 0.997553
1.0069 1.0089 1 0.998023
1.0243 1.02697 1 0.997404
1.01347 1.01605 1 0.997463
1.00556 1.00768 1.00018 0.997724
1.02212 1.02489 1 0.9973
1.00189 1.00373 1 0.998167
1.00791 1.01037 1 0.99756
1.02719 1.03129 0.998535 0.997486
1.00277 1.0053 0.999797 0.99768
1.01217 1.01495 0.999991 0.99727
1.01015 1.01767 0.994695 0.997903
1.00289 1.00592 0.999466 0.997519
1.00265 1.01033 0.993476 0.998916
1.02973 1.0398 0.992175 0.998128
1.01443 1.0234 0.992719 0.998511
0.995984 1.00409 0.994075 0.997838
1.00395 1.03136 0.975201 0.998174
1.02607 1.03309 0.995232 0.997955
1.01958 1.03535 0.986781 0.997961
1.03758 1.04551 0.99434 0.998057
1.03408 1.04381 0.992705 0.997955
1.01165 1.02898 0.985049 0.998079
1.02352 1.03352 0.992445 0.997863
1.02915 1.03549 0.996137 0.997727
1.02105 1.02637 0.996872 0.997943
1.02546 1.02851 0.999327 0.997698
1.02751 1.03012 1 0.997465
1.02281 1.02511 1 0.997755
1.02503 1.02758 1 0.997517
1.02365 1.02636 1 0.997365
1.0224 1.02488 1 0.997573
1.02059 1.02321 1 0.997432
1.0098 1.0123 1 0.99753
1.0179 1.02047 1 0.997485
1.0081 1.01051 1 0.997617
0.999515 1.00135 1 0.998166
1.0062 1.00857 1 0.997646
0.999135 1.0009 1 0.998241
0.999449 1 1 0.999449
0.999829 1 1 0.999829
0.999414 1 1 0.999414
0.998773 1.00046 1 0.998316
1 1 1 1
0.999433 1 1 0.999433
1 1 1 1
1.0307 1.03333 1 0.997452
1.01642 1.01902 1 0.997453
1.00703 1.00959 1 0.997468
1.00371 1.00593 1 0.997795
1.00308 1.00545 1 0.997651
0.999876 1.00189 1 0.997985
0.99857 1 1 0.99857
0.998559 1.00028 1 0.998284
0.998891 1 1.0001 0.99879
0.999674 1 1 0.999674
0.999103 1 1.00009 0.999016
0.999842 1 1 0.999842
1 1 1 1
0.999937 1 1 0.999937
1 1 1 1
1 1 1 1
1.02994 1.03844 0.993925 0.997881
1.01327 1.02679 0.988385 0.998424
0.992544 1.00962 0.985229 0.997828
1.0252 1.02793 1 0.997345
1.01491 1.01733 1 0.99762
1.00686 1.00869 1 0.998183
1.02384 1.02648 1 0.997423
1.01376 1.01635 1 0.997449
1.0329 1.03607 0.999471 0.997467
1.01974 1.02255 1 0.997261
1.00706 1.00958 1 0.997501
1.02659 1.03055 0.99867 0.99748
1.01427 1.01708 1 0.997236
1.01205 1.01971 0.994555 0.997925
1.03589 1.04448 0.993714 0.998046
1.03161 1.04104 0.992787 0.998142
1.01489 1.02344 0.99312 0.998516
1.01896 1.03637 0.985199 0.997976
1.03845 1.04703 0.99373 0.998058
1.03425 1.04463 0.992084 0.997967
1.03218 1.03901 0.995625 0.997795
1.02321 1.03294 0.992694 0.997871
1.02873 1.03475 0.996462 0.997718
1.02987 1.03261 0.999876 0.997472
1.02507 1.02786 0.999611 0.99768
1.02817 1.03078 1 0.997465
1.02672 1.0295 1 0.997309
1.02473 1.02728 1 0.997516
1.02376 1.02646 1 0.997366
1.01175 1.01435 1 0.997437
1.02055 1.02318 1 0.997434
1.01003 1.01253 1 0.997531
1 1.00194 1 0.998067
1.00823 1.01064 1 0.99762
0.999664 1.0015 1 0.998164
0.999449 1 1 0.999449
0.999291 1.00105 1 0.998239
0.999445 1 1 0.999445
0.999839 1 1 0.999839
0.999917 1 1 0.999917
0.999452 1 1 0.999452
1 1 1 1
1.02937 1.03211 1 0.997347
1.02203 1.02461 1 0.99748
1.03043 1.03295 1 0.997555
1.00733 1.00969 1 0.997671
1.01794 1.02055 1 0.997444
1.00803 1.01061 1 0.997455
1.00275 1.00497 1 0.997793
0.99895 1.00056 1 0.998392
0.999258 1.00127 1 0.997988
0.998572 1 1 0.998572
0.999514 1 1 0.999514
0.99907 1 1.00028 0.998793
0.999693 1 1 0.999693
1 1 1 1
0.99986 1 1 0.99986
1 1 1 1
1 1 1 1
1.03462 1.04032 0.996752 0.997763
1.0297 1.03813 0.993983 0.997877
1.01512 1.02867 0.988307 0.998501
1.03257 1.03527 1 0.997391
1.02409 1.02681 1 0.997347
1.01451 1.01687 1 0.997688
1.02324 1.02586 1 0.997443
1.03246 1.03566 0.999458 0.997446
1.01736 1.0202 1 0.997222
1.02443 1.02823 0.998831 0.997474
1.03416 1.04062 0.995924 0.997857
1.03528 1.04354 0.994072 0.998008
1.03345 1.04231 0.993338 0.998156
1.03258 1.03754 0.997529 0.997681
1.03425 1.04523 0.99149 0.997979
1.03193 1.0388 0.995597 0.997783
1.03141 1.03446 0.999497 0.99756
1.02837 1.03405 0.996797 0.997708
1.03098 1.03378 0.999812 0.997475
1.0279 1.0307 1 0.997283
1.02881 1.03142 1 0.997465
1.02644 1.02921 1 0.99731
1.01351 1.01619 1 0.997362
1.02383 1.02653 1 0.997366
1.01201 1.01461 1 0.997438
1.00046 1.0025 1 0.997967
1.01025 1.01275 1 0.997533
1.00016 1.0021 1 0.998066
0.999427 1 1 0.999427
0.999821 1.00166 1 0.998162
0.999442 1 1 0.999442
0.999843 1 1 0.999843
0.999442 1 1 0.999442
0.999842 1 1 0.999842
1 1 1 1
1.02993 1.03277 1 0.997248
1.02359 1.02632 1 0.997338
1.03007 1.03279 1 0.997363
1.00969 1.01207 1 0.997653
1.02235 1.02493 1 0.997488
1.03024 1.03266 1 0.997657
0.999855 1.00162 1 0.998237
1.00699 1.00934 1 0.997666
1.01958 1.0222 1 0.997435
1.00166 1.00388 1 0.997791
0.998723 1.00033 1 0.998393
0.999401 1 1 0.999401
0.998573 1 1 0.998573
0.999527 1 1 0.999527
1 1 1 1
0.999711 1 1 0.999711
1 1 1 1
1 1 1 1
1.03458 1.03817 0.99892 0.997618
1.03456 1.04068 0.996361 0.997748
1.03015 1.03856 0.994011 0.997874
1.03201 1.0347 1 0.9974
1.02291 1.02563 1 0.997349
1.03192 1.03516 0.999441 0.997424
1.03291 1.03724 0.998141 0.997686
1.03437 1.04065 0.996106 0.997849
1.03466 1.0426 0.994405 0.997969
1.03319 1.03811 0.997554 0.997701
1.03219 1.0351 0.999677 0.997505
1.03168 1.0386 0.99556 0.99777
1.03181 1.0348 0.999591 0.997524
1.02762 1.03036 1 0.997334
1.03201 1.03488 0.99975 0.997477
1.0275 1.0303 1 0.997286
1.01485 1.01759 1 0.997305
1.02629 1.02906 1 0.997311
1.01388 1.01656 1 0.997363
1.00081 1.00293 1 0.997889
1.01235 1.01494 1 0.997439
1.00059 1.00263 1 0.997966
0.99938 1 1 0.99938
1.00032 1.00226 1 0.998064
0.999415 1 1 0.999415
0.999829 1 1 0.999829
0.999436 1 1 0.999436
0.999851 1 1 0.999851
0.999842 1 1 0.999842
1.03169 1.03433 1 0.997444
1.02579 1.02866 1 0.99721
1.03037 1.0332 1 0.997265
1.01226 1.01479 1 0.997507
1.02322 1.02595 1 0.99734
1.03072 1.03343 1 0.997379
1.00046 1.00234 1 0.998123
1.00973 1.01215 1 0.997608
1.02253 1.0251 1 0.997496
0.999345 1 1 0.999345
0.999559 1.00132 1 0.99824
1.0067 1.00906 1 0.99766
0.998513 1.00012 1 0.998395
0.999411 1 1 0.999411
1 1 1 1
0.999541 1 1 0.999541
1 1 1 1
1 1 1 1
1.03165 1.03493 0.99924 0.997587
1.03369 1.03759 0.99862 0.997615
1.03451 1.04104 0.995987 0.997734
1.03143 1.0341 1 0.997409
1.03187 1.03457 0.999924 0.997467
1.03371 1.03817 0.998005 0.997696
1.03453 1.04061 0.996311 0.997842
1.03381 1.03871 0.997561 0.997721
1.03147 1.0346 0.999455 0.997516
1.02749 1.03022 1 0.997344
1.03231 1.03525 0.999671 0.997489
1.02736 1.03012 1 0.997313
1.01565 1.01842 1 0.997287
1.02709 1.02988 1 0.997289
1.01504 1.01778 1 0.997307
1.00095 1.00313 1 0.997822
1.01411 1.01679 1 0.997364
1.00085 1.00297 1 0.997889
0.999236 1 1 0.999236
1.00069 1.00273 1 0.997966
0.999327 1 1 0.999327
1 1 1 1
0.999405 1 1 0.999405
0.999841 1 1 0.999841
0.999856 1 1 0.999856
1.03029 1.03286 1 0.997508
1.02682 1.02962 1 0.997285
1.03127 1.03392 1 0.99744
1.01474 1.01746 1 0.997326
1.02575 1.0286 1 0.997231
1.0309 1.03371 1 0.997282
1.00099 1.00307 1 0.997933
1.01236 1.0149 1 0.997506
1.02293 1.02566 1 0.997341
0.999323 1 1 0.999323
1.00028 1.0022 1 0.99808
1.00978 1.01225 1 0.997563
1 1 1 1
0.999355 1 1 0.999355
0.999234 1.00099 1 0.998243
0.999421 1 1 0.999421
1 1 1 1
1 1 1 1
1.03026 1.03287 1 0.99748
1.03217 1.03541 0.999276 0.997594
1.03278 1.037 0.998313 0.997611
1.02808 1.03087 1 0.99729
1.03088 1.03361 0.999884 0.997475
1.03445 1.03904 0.997868 0.997706
1.03076 1.03408 0.999255 0.997527
1.0275 1.03024 1 0.997345
1.0151 1.0178 1 0.997343
1.02701 1.0298 1 0.997291
1.01559 1.01833 1 0.997314
1.00101 1.00333 1 0.997693
1.01532 1.01805 1 0.997309
1.00102 1.00321 1 0.997822
0.999185 1 1 0.999185
1.00095 1.00306 1 0.997889
0.999233 1 1 0.999233
1 1 1 1
0.999265 1 1 0.999265
0.999908 1 1 0.999908
0.999851 1 1 0.999851
1.02795 1.03056 1 0.997466
1.02703 1.02977 1 0.997334
1.03011 1.03268 1 0.997512
1.01572 1.01844 1 0.997329
1.02737 1.03018 1 0.997276
1.03087 1.03352 1 0.997436
1.00162 1.0038 1 0.997828
1.01468 1.01736 1 0.997369
1.02566 1.02849 1 0.997253
0.999296 1 1 0.999296
1.00096 1.00305 1 0.997919
1.01246 1.015 1 0.997505
1 1 1 1
0.999332 1 1 0.999332
1.00011 1.00208 1 0.998037
1 1 1 1
0.999366 1 1 0.999366
1 1 1 1
1.02861 1.03136 1 0.997335
1.02962 1.03226 0.999979 0.997469
1.03277 1.03597 0.999305 0.997602
1.01416 1.01687 1 0.997331
1.02813 1.03091 1 0.997307
1.02996 1.03275 0.999822 0.997484
1.02752 1.03025 1 0.997346
1.01515 1.01786 1 0.997343
1.00055 1.0029 1 0.997658
1.01556 1.01826 1 0.997341
1.00102 1.0033 1 0.997728
0.999121 1 1 0.999121
1.00105 1.00324 1 0.997823
0.999181 1 1 0.999181
1 1 1 1
0.999231 1 1 0.999231
1 1 1 1
0.999833 1 1 0.999833
1.02743 1.03015 1 0.997356
1.02786 1.03045 1 0.997482
1.01532 1.01802 1 0.997343
1.02717 1.02991 1 0.997332
1.02991 1.03248 1 0.997516
1.00153 1.00368 1 0.997851
1.0155 1.01823 1 0.997326
1.0279 1.03071 1 0.997266
0.99925 1 1 0.99925
1.00169 1.00384 1 0.997857
1.01461 1.01724 1 0.997412
1 1 1 1
0.999302 1 1 0.999302
1.00093 1.00303 1 0.997905
1 1 1 1
0.99934 1 1 0.99934
1 1 1 1
1.01408 1.01676 1 0.997367
1.02851 1.03127 1 0.997327
1.02889 1.03154 0.999975 0.997459
0.99974 1.00208 1 0.997661
1.0142 1.01691 1 0.997331
1.02816 1.03092 1 0.997325
1.0152 1.01791 1 0.997342
1.00055 1.0029 1 0.99766
0.999074 1 1 0.999074
1.00104 1.00328 1 0.997763
0.999118 1 1 0.999118
1 1 1 1
0.999178 1 1 0.999178
1 1 1 1
1 1 1 1
1.01467 1.01738 1 0.997342
1.02712 1.02983 1 0.997373
1.02777 1.03035 1 0.997497
1.00094 1.00311 1 0.99783
1.01527 1.01797 1 0.99734
1.02728 1.03003 1 0.997331
0.9992 1 1 0.9992
1.00164 1.0038 1 0.997849
1.01533 1.01806 1 0.997323
1 1 1 1
0.999253 1 1 0.999253
1.00176 1.00388 1 0.997886
1 1 1 1
0.999308 1 1 0.999308
1 1 1 1
0.999458 1.00171 1 0.997752
1.01399 1.0167 1 0.997331
1.02844 1.0312 1 0.997319
0.999074 1 1 0.999074
0.999773 1.00212 1 0.99766
1.01425 1.01696 1 0.997331
1.00055 1.0029 1 0.997662
0.999074 1 1 0.999074
1 1 1 1
0.999114 1 1 0.999114
1 1 1 1
1 1 1 1
1.00004 1.00224 1 0.997796
1.01442 1.01712 1 0.997342
1.02685 1.02954 1 0.99739
0.999284 1 1 0.999284
1.00114 1.00332 1 0.997828
1.01522 1.01793 1 0.997337
1 1 1 1
0.999201 1 1 0.999201
1.00173 1.0039 1 0.997847
1 1 1 1
0.999257 1 1 0.999257
1 1 1 1
0.999074 1 1 0.999074
0.999573 1.00186 1 0.997721
1.01391 1.01666 1 0.997295
1 1 1 1
0.999073 1 1 0.999073
0.999803 1.00215 1 0.997658
0.999072 1 1 0.999072
1 1 1 1
1 1 1 1
0.999237 1 1 0.999237
1.00031 1.00252 1 0.997796
1.01413 1.01683 1 0.997341
1 1 1 1
0.999161 1 1 0.999161
1.00136 1.00354 1 0.997826
1 1 1 1
0.999203 1 1 0.999203
1 1 1 1
0.999754 1 1 0.999754
0.999156 1 1 0.999156
0.999679 1.00199 1 0.997689
1 1 1 1
0.999074 1 1 0.999074
1 1 1 1
0.999771 1 1 0.999771
0.999184 1 1 0.999184
1.0006 1.00281 1 0.997796
0.999888 1 1 0.999888
0.99916 1 1 0.99916
1 1 1 1
1 1 1 1
0.999096 1 1 0.999096
1 1 1 1
0.999882 1 1 0.999882
0.999126 1 1 0.999126
1 1 1 1
1 1 1 1
1 1 1 1

VECTORS lamdaE float
1.00039 1.00014 0.994844
1.00018 1.00047 0.997529
1.00005 1.00035 0.995044
1.00065 0.999944 0.994661
1.00049 0.999948 0.994901
1.00035 1.00033 0.994684
1.00167 1.00048 0.991979
1.0002 1.00038 0.99753
1.00009 1.00021 0.997849
0.999678 1.00076 0.99788
1.00019 1.0004 0.994851
1.00147 1.00124 0.990939
1.00045 1 0.994786
1.00017 0.999995 0.995019
0.999743 1.00057 0.995218
1.0004 0.999923 0.994909
0.999977 1.00065 0.994862
1.00021 1.00002 0.995117
1.00185 1.00031 0.991891
1.00045 1 0.997465
1.00065 1 0.994575
1.00059 0.999888 0.994816
1.00199 1.00001 0.991906
1.00184 1.00012 0.992054
1.00034 1.00033 0.99463
1.00145 1.00101 0.991797
1.00439 1.00027 0.987583
1.00021 1.00033 0.997547
1.00026 1.0001 0.996333
0.999932 1.00058 0.996339
1.00019 1.00019 0.99762
1.00137 1.00138 0.99094
1.00054 0.999845 0.99475
1.00026 1.00037 0.99481
1.00211 1.00015 0.992296
0.999668 0.999698 0.99827
1.00178 1.00085 0.992252
1.00114 1.00171 0.991018
1.00355 1.00166 0.986914
0.999753 0.998572 0.998637
1.00046 1.00001 0.997448
1.00035 1.00001 0.996228
1.00042 0.999992 0.997471
1.0001 1.00004 0.995104
1.00208 1.00001 0.99113
1.00026 0.999966 0.997762
1.00226 1.0001 0.992129
1.00015 0.999862 0.995156
0.999941 1.00008 0.995319
0.999621 1.00102 0.995024
1.00201 1.00013 0.991817
1.00031 1.00002 0.996257
1.00039 1.00001 0.994829
0.999964 1.00071 0.994795
1.00034 0.999873 0.995048
1.0021 0.999973 0.9918
1.00166 1.00079 0.991715
1.00197 1.00002 0.991965
1.00437 1.0003 0.987582
1.00039 1 0.997485
1.00058 1.00003 0.994654
1.0019 1 0.992667
1.002 1.00004 0.991863
1.00195 0.999982 0.992007
1.00448 0.999978 0.987623
1.00445 0.999987 0.9875
1.00014 0.999929 0.995099
1.00097 1.00177 0.991787
1.00417 1.00072 0.987505
1.00519 1.00011 0.985602
1.00045 1.00013 0.997511
1.00007 0.999984 0.997811
1.00019 1.00041 0.99753
1.0013 1.00148 0.990933
1.00057 0.999975 0.997469
1.00034 1.00032 0.997525
1.002 1.0001 0.99107
0.999807 0.999746 0.99694
1.00156 1.00092 0.991044
1.00104 1.00177 0.991843
1.00362 1.00155 0.9869
0.999925 0.999066 0.998296
0.999806 1.00065 0.994508
1.00219 0.999986 0.990925
1.00194 1.00038 0.991022
1.0045 1.00021 0.986703
1.0006 1.00174 0.993311
1.00396 1.00094 0.986915
1.00263 1.00323 0.986968
1.00479 1.00135 0.985054
0.999651 0.998092 0.998912
0.999657 0.998474 0.998754
1.00056 0.999993 0.997423
1.00049 1 0.997444
1.00045 0.999995 0.997472
1.0003 1.00001 0.996278
1.00211 0.999997 0.991773
1.0004 0.999974 0.996229
1.0022 1.00011 0.991523
1.00044 0.999992 0.997481
1.00198 0.999932 0.991322
1.00221 1.00009 0.992237
1.0045 0.999658 0.987293
1.00224 1.00002 0.99219
1.00456 0.999871 0.986984
1.00042 1.00001 0.994828
1.00012 1.00001 0.995087
0.999589 1.00112 0.994964
1.00009 0.999835 0.995277
1.0022 0.999975 0.991694
1.0021 0.99993 0.991882
1.00187 1.00053 0.991641
1.00435 1.00032 0.987581
1.00044 0.999995 0.997482
1.00031 1.00003 0.994909
1.00203 0.999977 0.991581
1.0021 1.00002 0.991747
1 1.00025 0.996382
1.00125 1.0016 0.991929
1.00206 0.999929 0.991912
1.0045 0.999952 0.987563
1.00416 1.00075 0.987503
1.00445 1.00006 0.987553
1.00518 1.00011 0.985625
1.00197 0.999964 0.99134
1.00192 1.00002 0.991971
1.00443 0.999627 0.987891
1.00448 0.999856 0.98758
1.00448 0.999897 0.987525
1.00522 0.999535 0.986396
0.999813 0.999689 0.998142
1.00521 0.999869 0.985819
1.00048 1.00229 0.991426
1.00356 1.00153 0.986989
1.00512 1.00048 0.985403
1.00522 0.999714 0.985919
0.999938 1.0017 0.993025
1.00031 1.00464 0.989581
1.00055 1 0.997489
1.00029 1.00031 0.997529
1.00201 1.00009 0.991064
0.999899 0.999434 0.99819
1.00076 1.00206 0.991239
1.00151 1.00095 0.991055
1.00369 1.00145 0.986887
0.999815 0.998989 0.998425
0.999775 1.00056 0.994563
1.0022 1.00002 0.991593
1.00193 1.0004 0.991666
1.00449 1.00022 0.986694
1.00034 1.00183 0.992334
1.00398 1.00092 0.98692
1.00267 1.00317 0.986956
1.0048 1.00126 0.985038
1.00004 1.00133 0.993419
0.999785 0.999814 0.995359
1.00036 1.00386 0.990465
1.00456 1.00009 0.986735
1.00432 1.00046 0.986747
1.00518 1.00009 0.985643
1.00163 1.00427 0.987722
1.00489 1.00074 0.98536
1.00426 1.0026 0.984928
1.00511 1.00117 0.984749
0.999656 0.997752 0.999055
0.999614 0.998019 0.998973
0.999593 0.998353 0.998852
0.999849 1.00115 0.993746
0.999722 0.999277 0.998378
1.00059 0.999976 0.997442
1.0005 1 0.997426
1.0021 1.00013 0.990933
1.00202 1 0.991193
1.00042 0.999998 0.997471
1.00041 0.999994 0.997478
1.00197 0.999941 0.991318
1.00214 1.00007 0.99163
1.00449 0.999657 0.987295
1.00214 1.00005 0.990918
1.00455 0.999869 0.986979
1.00195 0.999933 0.991357
1.00447 0.999597 0.987396
1.00453 0.99975 0.98715
1.00522 0.998744 0.987044
1.00458 0.999982 0.986832
1.00523 0.999193 0.98657
1.00041 0.999993 0.997476
1.00004 1.00005 0.995163
1.00204 0.99997 0.990602
1.00221 1.00002 0.991629
0.99956 1.0006 0.997975
1.0016 1.00131 0.992071
1.00217 0.999901 0.991818
1.00451 0.99991 0.987502
1.00444 1.00013 0.987605
1.00413 1.00081 0.987502
1.00516 1.00012 0.985649
1.00196 0.99995 0.991341
1.00204 1.00002 0.99185
1.00446 0.999608 0.987573
1.0045 0.999904 0.9876
0.999877 0.999777 0.998043
1.00072 1.00205 0.992075
1.00347 1.00177 0.987239
1.00449 0.999931 0.987499
1.00522 0.999381 0.986466
1.00509 1.00049 0.985396
1.0052 0.999913 0.985913
1.00523 0.999705 0.985948
1.00001 1.00169 0.993007
1.00041 1.00445 0.989599
1.00444 0.99962 0.987428
1.00446 0.999766 0.987734
1.00523 0.998956 0.986977
1.00522 0.999056 0.986738
1.00522 0.999554 0.986335
1.00523 0.998265 0.987485
1.00015 1.0021 0.992215
1.00522 0.999085 0.986577
1.00236 1.00332 0.98727
1.00489 1.00104 0.985051
1.00523 1.00047 0.98533
1.00517 0.998684 0.987142
1.00078 1.0047 0.988753
1.00024 1.0039 0.990461
1.00116 1.00473 0.988248
1.00211 1 0.990998
0.999702 0.998886 0.99856
0.999757 1.00044 0.994618
1.00179 1.00045 0.991078
1.00449 1.00022 0.986685
1.00024 1.00193 0.992247
1.00268 1.00311 0.986943
1.004 1.0009 0.986925
1.00478 1.00118 0.985021
0.999987 1.0013 0.993448
0.999793 0.999685 0.995401
1.00019 1.00395 0.990457
1.00455 1.0001 0.986722
1.00434 1.00045 0.986747
1.0052 1.00009 0.985624
1.00156 1.00434 0.987745
1.00495 1.00076 0.985355
1.0042 1.00256 0.984918
1.00511 1.00105 0.984728
0.999885 0.99914 0.995816
1.00098 1.00418 0.988958
1.00012 1.00273 0.991889
1.00066 1.00477 0.989059
1.00522 0.999782 0.985936
1.0051 1.00039 0.985446
1.0052 0.999382 0.986325
1.00292 1.00397 0.98601
1.00518 1.00041 0.985417
1.00474 1.00198 0.984501
1.00525 1.00088 0.984665
1.00028 1.00056 0.993752
1.00012 0.998464 0.996062
0.999718 0.997507 0.999103
0.999644 0.997709 0.999072
0.999588 0.99795 0.999017
0.999852 1.0005 0.994429
0.999677 0.998848 0.998578
0.999887 1.0012 0.993719
0.999795 0.999336 0.998297
1.00214 1.00008 0.990914
1.00208 1.00006 0.991043
1.00455 0.999869 0.986974
1.00448 0.999658 0.987296
1.00199 0.99995 0.991318
1.00044 0.999992 0.997474
1.00197 0.999934 0.991358
1.00446 0.999604 0.987397
1.00452 0.999755 0.987147
1.00522 0.998753 0.987042
1.00457 0.999991 0.986819
1.00523 0.999195 0.986557
1.00444 0.999601 0.987434
1.00522 0.998632 0.987155
1.00522 0.998941 0.986843
1.00521 0.997022 0.988826
1.00524 0.999473 0.986253
1.00521 0.997809 0.987994
1.00197 0.999939 0.991345
1.00216 0.999995 0.991729
1.00448 0.999575 0.987256
1.00452 0.999944 0.987619
0.999966 0.999884 0.997928
1.00097 1.00191 0.992586
1.00348 1.00194 0.987487
1.00449 0.999953 0.987473
1.00522 0.999223 0.986536
1.0052 0.999959 0.986007
1.00506 1.00051 0.98539
1.00523 0.999695 0.985977
1.00007 1.00167 0.992988
1.00049 1.00432 0.989616
1.00444 0.999553 0.987408
1.00448 0.999749 0.987717
1.00523 0.998816 0.987141
1.00521 0.999217 0.98664
1.00024 1.00207 0.992202
1.00243 1.00329 0.987276
1.00486 1.00109 0.985099
1.00522 0.999652 0.986249
1.00523 0.998056 0.987726
1.00523 1.00044 0.98536
1.00522 0.999079 0.986596
1.00518 0.998634 0.987129
1.00087 1.00453 0.988748
1.00101 1.00464 0.988269
1.00028 1.00383 0.990463
1.00522 0.998812 0.987125
1.00522 0.998914 0.987055
1.00524 0.997236 0.988528
1.00521 0.997746 0.988024
1.00522 0.998353 0.987303
1.00517 0.996555 0.989175
1.00142 1.00433 0.987981
1.00518 0.997676 0.987931
1.00398 1.00254 0.985331
1.00519 1.00121 0.984431
1.00518 0.999918 0.985864
1.00512 0.997745 0.988076
1.0002 1.00306 0.991368
1.00167 1.00411 0.987767
1.00054 1.00504 0.988672
1.002 1.00382 0.987858
1.00455 1.00011 0.986708
0.999802 0.99958 0.995442
0.999912 1.00129 0.993477
1.00006 1.00409 0.99045
1.00435 1.00044 0.986746
1.00521 1.0001 0.985605
1.00148 1.00441 0.98777
1.00417 1.00256 0.984906
1.00501 1.00077 0.98535
1.0051 1.00095 0.984705
0.999903 0.99906 0.995839
1.00085 1.00437 0.988973
1.00007 1.00273 0.991914
1.00052 1.00491 0.989021
1.00522 0.99979 0.98592
1.00513 1.00038 0.985424
1.00519 0.999383 0.986315
1.00284 1.00389 0.986036
1.00519 1.00046 0.98538
1.00484 1.00177 0.984509
1.00526 1.0009 0.984675
1.00004 0.998682 0.995994
1.00024 1.00156 0.992837
1.00157 1.00446 0.987788
1.00029 1.00445 0.990133
1.00128 1.00414 0.98867
1.0052 0.998876 0.986862
1.00519 0.99988 0.985799
1.00515 0.998507 0.98717
1.00368 1.00283 0.985513
1.00519 1.00004 0.985726
1.00463 1.00184 0.984352
1.0003 1.00063 0.993645
1.00028 1.00194 0.992398
1.00021 1.0006 0.993835
1.00027 1.00057 0.993749
1.00014 0.998287 0.996703
1.00011 0.998446 0.996365
0.999876 0.997316 0.997937
0.999725 0.99747 0.999105
0.999639 0.99766 0.999087
0.999835 0.999865 0.995109
0.999668 0.998416 0.998781
0.999858 1.00056 0.994407
0.999736 0.998927 0.99851
0.99994 1.00121 0.99369
0.999857 0.9994 0.998213
1.00456 0.999997 0.986806
1.00452 0.999758 0.987145
1.00523 0.999212 0.986543
1.00521 0.998763 0.98704
1.00446 0.999611 0.987398
1.00196 0.999934 0.991356
1.00444 0.9996 0.987435
1.00522 0.998636 0.987154
1.00522 0.998956 0.986833
1.00521 0.996858 0.988979
1.00523 0.999482 0.986241
1.00521 0.997823 0.987976
1.00522 0.998615 0.987173
1.00523 0.996581 0.989277
1.0052 0.997314 0.988521
1.00515 0.995547 0.990301
1.00521 0.998367 0.987412
1.0052 0.996124 0.989455
1.00445 0.999489 0.987388
1.0045 0.999745 0.9877
1.00523 0.998691 0.987305
1.00521 0.99938 0.986541
1.00035 1.00203 0.99219
1.00238 1.00329 0.987283
1.00483 1.00116 0.985147
1.00522 0.999751 0.986163
1.00523 0.997844 0.987967
1.00522 0.999072 0.986615
1.00523 1.00039 0.985389
1.00518 0.998584 0.987116
1.00098 1.00435 0.988741
1.00097 1.0046 0.988289
1.00032 1.00371 0.990468
1.00522 0.99875 0.987127
1.00522 0.998915 0.987047
1.00523 0.996982 0.988822
1.00521 0.997852 0.987919
1.00146 1.00429 0.987955
1.00401 1.00252 0.985334
1.00517 1.00129 0.984442
1.00522 0.998564 0.987097
1.00518 0.996344 0.989383
1.00519 0.999912 0.985792
1.00518 0.997695 0.98794
1.00513 0.997617 0.9882
1.00179 1.00407 0.987751
1.00192 1.00385 0.987832
1.00024 1.003 0.991359
1.00045 1.00497 0.988776
1.00524 0.996872 0.988948
1.00522 0.997456 0.988405
1.00518 0.995693 0.990074
1.00518 0.995717 0.989921
1.00517 0.996874 0.988759
1.00516 0.995714 0.990051
1.00281 1.00348 0.986491
1.00514 0.996302 0.989166
1.00475 1.00227 0.98427
1.00516 1.00131 0.984376
1.00516 0.999406 0.986159
1.00515 0.997379 0.988372
1.00014 1.00221 0.992263
1.00023 1.00475 0.989474
1.00255 1.00332 0.987072
1.00082 1.00504 0.988374
1.00237 1.00305 0.988059
0.999914 0.998991 0.995862
1.00522 0.999798 0.985905
1.00003 1.00269 0.991939
1.0007 1.00457 0.988985
1.00039 1.00498 0.988983
1.00517 1.00037 0.985402
1.00519 0.999383 0.986305
1.0029 1.00366 0.986062
1.00497 1.00158 0.984521
1.0052 1.00051 0.985344
1.00527 1.00093 0.984687
1.00004 0.998658 0.996008
1.0002 1.00158 0.992865
1.00158 1.00437 0.987805
1.00014 1.00442 0.990122
1.00109 1.00409 0.988692
1.0052 0.998869 0.98685
1.0052 0.999877 0.98578
1.00514 0.99848 0.987142
1.00374 1.00279 0.985536
1.0052 1.00007 0.985593
1.00491 1.00178 0.984328
1.00031 1.00091 0.993387
1.00024 1.00322 0.991341
1.00241 1.00318 0.987546
1.00044 1.00494 0.98947
1.00163 1.00296 0.989208
1.00516 0.997805 0.987881
1.00515 0.999184 0.986433
1.00513 0.997773 0.987539
1.00359 1.00201 0.986186
1.00497 1.00098 0.984769
1.0003 1.00062 0.993642
1.00029 1.00189 0.992356
1.0002 1.00203 0.992355
1.00032 1.00255 0.991879
1.00021 1.00205 0.992417
1.00014 1.00067 0.993873
1.0002 1.00059 0.993835
1.00015 0.998241 0.996733
1.00026 1.00059 0.993747
1.00015 0.998315 0.996707
0.999969 0.997096 0.997967
1.00011 0.998445 0.996663
0.999838 0.997277 0.998529
0.999734 0.997415 0.999109
0.999878 0.999203 0.995703
0.999832 0.999931 0.995081
0.999655 0.997987 0.998962
0.999706 0.998503 0.998704
0.999864 1.00065 0.994385
0.999798 0.998982 0.998435
1.00523 0.999491 0.98623
1.00522 0.998958 0.986824
1.00522 0.99783 0.987957
1.00521 0.99669 0.989132
1.00522 0.99864 0.987154
1.00444 0.999601 0.987436
1.00522 0.998617 0.987173
1.00523 0.996564 0.989287
1.0052 0.997321 0.98851
1.00515 0.995393 0.990441
1.00521 0.998359 0.987391
1.00519 0.996047 0.989569
1.00523 0.996576 0.989278
1.00516 0.995379 0.990481
1.00518 0.99545 0.990258
1.00516 0.994962 0.99082
1.00518 0.996984 0.988702
1.00518 0.995306 0.99027
1.00522 0.998683 0.987129
1.00523 0.998925 0.987038
1.00523 0.996719 0.989117
1.00521 0.997955 0.987813
1.00152 1.00428 0.987929
1.00405 1.00248 0.985336
1.00511 1.00132 0.984452
1.00522 0.998778 0.986891
1.00519 0.996139 0.989591
1.00518 0.997713 0.987949
1.00519 0.999916 0.985721
1.00514 0.997487 0.988324
1.00175 1.00412 0.987736
1.00169 1.0039 0.987805
1.00029 1.00297 0.99135
1.00037 1.00492 0.988881
1.00524 0.99688 0.988945
1.00521 0.997557 0.988273
1.00518 0.995495 0.990304
1.00519 0.995772 0.989848
1.00268 1.00376 0.986457
1.00465 1.00222 0.98433
1.00516 1.0013 0.984339
1.00516 0.997084 0.988551
1.00515 0.995469 0.990228
1.00515 0.999457 0.986131
1.00515 0.996321 0.989163
1.00514 0.997096 0.988544
1.00268 1.0032 0.987052
1.00229 1.00297 0.988155
1.0008 1.00505 0.988349
1.00015 1.00221 0.992197
1.00014 1.00471 0.989601
1.00518 0.995234 0.990661
1.00517 0.995462 0.990349
1.00519 0.995053 0.99048
1.00515 0.995616 0.989889
1.00363 1.00315 0.985535
1.00518 0.995841 0.989771
1.00509 1.00223 0.98356
1.00506 1.00126 0.984452
1.00512 0.999105 0.986344
1.00004 1.00138 0.993064
1.00006 1.00417 0.990551
1.0005 1.00502 0.989088
1.00304 1.00263 0.987079
1.00108 1.00478 0.987892
1.00263 1.0021 0.987934
1.00005 0.998642 0.996021
1.00016 1.00158 0.992893
1.0052 0.998862 0.986838
0.999958 1.00444 0.990111
1.00145 1.00445 0.987822
1.00091 1.00404 0.988714
1.0052 0.999875 0.98576
1.00514 0.998453 0.987114
1.00377 1.00275 0.985557
1.00516 1.00176 0.984302
1.00522 1.00009 0.98546
1.00028 1.0009 0.993396
1.0001 1.00329 0.991359
1.00244 1.00322 0.987465
1.00025 1.00497 0.98944
1.00154 1.00275 0.98934
1.00516 0.997805 0.987858
1.00515 0.99919 0.986405
1.00513 0.997811 0.987584
1.00373 1.00196 0.986
1.00498 1.00105 0.984828
1.00025 1.0023 0.992155
0.999779 1.00448 0.990448
1.00308 1.00138 0.988181
1.00041 1.00445 0.989638
1.00221 1.00135 0.98947
1.00514 0.996392 0.989029
1.00513 0.999279 0.986265
1.0051 0.997685 0.987565
1.00412 1.00143 0.98595
1.00476 1.00087 0.985094
1.00031 1.00061 0.993639
1.00029 1.00191 0.99238
1.0001 1.00253 0.991988
1.00014 1.00209 0.992313
1.00017 1.00211 0.99241
1.00018 1.00265 0.991842
1.00012 1.00281 0.991864
1.0001 1.00292 0.991578
1.00012 1.00221 0.992418
1.00007 1.00081 0.993851
1.00014 1.00067 0.993872
1.00014 0.99826 0.996741
1.0002 1.00058 0.993836
1.00016 0.998266 0.996734
1.00003 0.996977 0.997979
1.00015 0.998329 0.996714
0.999958 0.997067 0.997974
0.999796 0.997233 0.999134
0.999931 0.998697 0.996133
0.999866 0.999289 0.995665
0.999676 0.997655 0.999079
0.999828 1.00001 0.995053
0.999685 0.998089 0.998906
0.999754 0.998574 0.998636
1.00521 0.998351 0.98737
1.0052 0.997332 0.988499
1.00518 0.995978 0.989682
1.00516 0.995245 0.990581
1.00524 0.996548 0.989296
1.00522 0.998618 0.987174
1.00524 0.9967 0.989143
1.00516 0.995407 0.990497
1.00518 0.995465 0.990279
1.00515 0.994959 0.990815
1.00518 0.997009 0.988696
1.00518 0.995172 0.990382
1.00517 0.995182 0.990738
1.00513 0.994973 0.990912
1.00519 0.994948 0.990674
1.00518 0.99549 0.990047
1.00524 0.996888 0.988941
1.00521 0.997652 0.988141
1.00518 0.995293 0.990533
1.0052 0.995839 0.989774
1.00267 1.00393 0.986424
1.00458 1.00218 0.984392
1.00516 1.00132 0.984302
1.00516 0.997289 0.988343
1.00514 0.995203 0.990403
1.00517 0.996341 0.98916
1.00514 0.999497 0.986103
1.00514 0.996823 0.988714
1.00279 1.00313 0.987032
1.00228 1.00268 0.988248
1.00076 1.00507 0.988324
1.00018 1.00217 0.992134
1.00011 1.00459 0.989729
1.00519 0.995215 0.990648
1.00517 0.995507 0.990269
1.00518 0.995117 0.990444
1.0035 1.00327 0.985523
1.00488 1.00227 0.983656
1.00506 1.00118 0.984442
1.00516 0.995633 0.989875
1.00514 0.998854 0.98667
1.00516 0.995823 0.989625
1.00007 1.00125 0.993195
1.00321 1.0024 0.986999
1.00239 1.00178 0.988646
1.00125 1.00492 0.98782
1.00052 1.00499 0.989179
1.00008 1.00412 0.990485
1.00518 0.994936 0.990829
1.00517 0.995052 0.990625
1.00517 0.99494 0.99047
1.00515 0.995117 0.990411
1.00429 1.00257 0.985034
1.00511 0.997001 0.988452
1.00502 1.00275 0.982964
1.00498 1.00144 0.984253
1.00013 1.00034 0.993998
1.00005 1.00304 0.991704
1.00028 1.00473 0.989755
1.00095 1.00504 0.988204
1.00328 1.00226 0.986489
1.00235 1.00361 0.987123
1.00026 1.00089 0.993406
0.99999 1.00331 0.991378
1.00516 0.997804 0.987835
1.00004 1.00504 0.989412
1.00248 1.00325 0.987382
1.00123 1.00264 0.989476
1.00515 0.999197 0.986378
1.00513 0.997856 0.987627
1.00386 1.00195 0.985813
1.00504 1.00111 0.984887
1.0002 1.00232 0.99217
0.999867 1.0046 0.990346
1.00319 1.0014 0.988092
1.00019 1.00465 0.989676
1.00208 1.00106 0.989883
1.00514 0.996335 0.989212
1.00512 0.999248 0.986372
1.00511 0.997809 0.987535
1.00409 1.00161 0.985863
1.00485 1.00093 0.984946
0.999844 1.0031 0.991682
0.999736 1.00504 0.989702
1.00352 1.00038 0.988157
1.00116 1.0027 0.989162
1.00519 0.995235 0.990009
1.00509 0.996779 0.988974
1.00498 0.999771 0.985814
1.00439 1.0009 0.985354
1.00031 1.00189 0.992404
1.00013 1.00254 0.991995
0.999821 1.003 0.99227
1.00012 1.00219 0.992403
1.00005 1.00275 0.991806
1.0001 1.00224 0.992409
1.00004 1.00279 0.991943
1.00014 1.00291 0.991606
0.99999 1.00239 0.992477
1.00006 1.00327 0.991419
1.00012 1.00317 0.991321
1.00009 1.00234 0.992326
1.00002 1.00095 0.993775
1.00007 1.00079 0.993849
1.00011 0.998307 0.996744
1.00013 1.00066 0.993872
1.00014 0.998292 0.996741
1.00005 0.996927 0.99798
1.00016 0.998294 0.996737
1.00002 0.996947 0.997986
0.999942 0.997046 0.997976
1.00003 0.998269 0.99641
0.999938 0.998739 0.996097
0.999732 0.997317 0.999158
0.999854 0.999374 0.995626
0.999691 0.997704 0.999049
0.999721 0.998175 0.998828
1.00517 0.997033 0.988691
1.00518 0.995474 0.990299
1.00517 0.995026 0.990494
1.00515 0.994955 0.990811
1.00515 0.995433 0.990512
1.00524 0.996827 0.989009
1.00517 0.995308 0.990601
1.00514 0.994972 0.990914
1.00518 0.994985 0.990648
1.00518 0.995393 0.990138
1.00514 0.994961 0.990942
1.00518 0.994942 0.990771
1.00521 0.99494 0.990535
1.00519 0.995198 0.990635
1.00517 0.995548 0.990189
1.00517 0.995181 0.990408
1.00338 1.00338 0.98551
1.00476 1.0023 0.983748
1.00508 1.00111 0.984431
1.00516 0.995661 0.989862
1.00514 0.995779 0.989478
1.00514 0.998596 0.986996
1.00336 1.00225 0.986916
1.00212 1.00163 0.989354
1.00149 1.00505 0.987748
1.00008 1.00114 0.993326
1.00037 1.005 0.989269
1.00007 1.00408 0.990419
1.00517 0.994943 0.990853
1.00517 0.994983 0.990647
1.00517 0.994987 0.990492
1.00407 1.00277 0.985005
1.00492 1.00276 0.982979
1.00499 1.00122 0.984578
1.00515 0.995082 0.990363
1.0051 0.996958 0.988385
1.00012 1.00031 0.994164
1.00007 1.00302 0.991705
1.003 1.0021 0.986931
1.0022 1.00367 0.98766
1.00086 1.00504 0.988417
1.00023 1.00477 0.989726
1.00515 0.99493 0.990831
1.00518 0.994923 0.990517
1.00514 0.994933 0.990563
1.00507 0.995063 0.990232
1.00456 1.00309 0.983204
1.00478 1.00035 0.985658
1.00491 1.00314 0.982908
1.00021 0.999866 0.994554
1.00023 1.00098 0.993465
1.00009 1.00176 0.992759
1.00004 1.0041 0.990599
1.0004 1.00491 0.989056
1.00069 1.00459 0.98841
1.00294 1.00181 0.987092
1.00223 1.00381 0.988368
1.00013 1.00239 0.992184
0.999956 1.00471 0.990245
1.00515 0.996267 0.989395
1.00024 1.00469 0.98971
1.00331 1.00147 0.988005
1.00192 1.00083 0.990291
1.00511 0.999202 0.98648
1.00511 0.997912 0.987508
1.00404 1.00176 0.98578
1.0049 1.00098 0.984798
0.999891 1.0032 0.991562
0.999868 1.00502 0.989759
1.0036 1.00042 0.988226
1.00147 1.00283 0.989275
1.00519 0.995169 0.990121
1.00509 0.996784 0.988794
1.005 0.999722 0.985838
1.00469 1.00093 0.985193
0.999693 1.00383 0.991251
1.00524 0.994894 0.990301
1.00092 1.00474 0.988989
1.00362 1.00083 0.987571
1.00515 0.995693 0.990059
1.00508 0.998396 0.986129
1.00492 1.00142 0.984662
1.00013 1.00258 0.992003
0.999782 1.00295 0.992228
0.999473 1.00286 0.993028
1.0001 1.00222 0.992401
1.00016 1.0029 0.991635
0.999784 1.00293 0.992022
1.00008 1.00235 0.992312
1.00006 1.0032 0.991352
0.999745 1.00253 0.992582
1.00016 1.00316 0.991425
0.999954 1.00193 0.993269
0.999876 1.00295 0.992058
1.00014 1.00379 0.990788
1.00028 1.00328 0.991013
1.00009 1.00254 0.992106
0.999977 1.00112 0.993673
1 1.00099 0.993767
1.00008 0.998414 0.996713
1.00006 1.00082 0.993847
1.00011 0.998353 0.99674
1.00005 0.996906 0.99799
1.00014 0.998326 0.996742
1.00005 0.996897 0.997984
1.00002 0.99692 0.997989
1.0002 0.999879 0.994595
1.00009 0.998027 0.996552
1.00003 0.998304 0.996391
0.999821 0.997032 0.999206
0.99994 0.998792 0.996062
0.999739 0.997403 0.999137
0.999713 0.997783 0.999018
1.00519 0.995299 0.990229
1.00517 0.995029 0.990621
1.00515 0.994972 0.990917
1.00516 0.995431 0.990463
1.00515 0.994956 0.990947
1.00517 0.994945 0.990787
1.0052 0.994941 0.990492
1.00517 0.994959 0.990829
1.00522 0.994934 0.990597
1.00527 0.994923 0.990921
1.00517 0.994948 0.990877
1.00517 0.99492 0.99067
1.00517 0.995023 0.990513
1.0038 1.00296 0.984979
1.00495 1.00282 0.983003
1.00496 1.00103 0.984903
1.00515 0.995056 0.990316
1.0051 0.996941 0.988318
1.00274 1.00204 0.987379
1.00213 1.00371 0.988195
1.00063 1.00505 0.988631
1.0001 1.00024 0.99433
1.00012 1.00297 0.991708
1.00022 1.00482 0.989694
1.00516 0.994931 0.990807
1.00019 0.999889 0.994548
1.00018 1.00103 0.993387
1.00518 0.994914 0.990533
1.00513 0.994928 0.990559
1.00431 1.00325 0.983542
1.00488 1.00302 0.983042
1.00483 1.00015 0.985588
1.00507 0.995222 0.990171
1.00008 1.00178 0.992946
1.00011 1.00406 0.990572
1.00322 1.00243 0.986714
1.0016 1.00373 0.988804
1.00076 1.00462 0.988605
1.00035 1.00497 0.989153
1.00522 0.994932 0.990551
1.00518 0.994838 0.990542
1.0051 0.99491 0.99028
1.00469 0.995801 0.989943
1.0039 1.00361 0.983982
1.00428 1.00356 0.983813
1.0001 1.00129 0.993182
1.00019 1.00105 0.993433
1.00045 1.00142 0.992807
1.00018 1.00294 0.99139
1.00007 1.00476 0.99005
1.00131 1.00432 0.988395
0.999977 1.00493 0.989006
1.0023 1.00127 0.988611
0.999933 1.00329 0.991443
1.00007 1.00501 0.989821
1.00517 0.995112 0.990234
1.0051 0.996822 0.988615
1.00176 1.00295 0.989389
1.00369 1.00043 0.988293
1.00501 0.999697 0.98586
1.00502 1.00099 0.98503
0.999814 1.00381 0.9912
1.00524 0.9949 0.990425
1.00072 1.00467 0.989038
1.00377 1.00087 0.987254
1.00515 0.995555 0.990053
1.00507 0.998531 0.986411
1.00487 1.00141 0.984682
0.999904 1.00467 0.990567
1.00454 0.99503 0.99155
1.00231 1.00309 0.988404
1.0042 1.00162 0.98609
1.00483 0.996589 0.989344
1.00376 1.00131 0.98569
0.998536 0.997532 0.990141
0.999699 1.00298 0.992188
0.999279 1.00301 0.993007
0.999626 1.00291 0.99305
1.00004 1.0024 0.992298
1.00005 1.00324 0.991382
1.00031 1.00301 0.991432
0.9996 1.00255 0.992688
1.00008 1.00255 0.992108
1.00023 1.00336 0.991007
0.999918 1.00191 0.993182
1.00011 1.00382 0.990796
1.00001 1.00287 0.991941
0.999889 1.00231 0.992872
1.0003 1.00394 0.990433
1.00018 1.004 0.990572
1.00038 1.00349 0.990669
1.00013 1.00269 0.99178
1.00024 1.00318 0.991379
1.00013 1.00274 0.991664
0.999976 1.00114 0.99364
0.999979 1.00112 0.993667
1.00006 0.998518 0.996099
1.00001 1.00097 0.993759
1.00008 0.998465 0.996409
1.00002 0.996928 0.999136
1.00011 0.998394 0.996736
1.00006 0.996869 0.997995
1.00005 0.996868 0.997985
1.00014 0.999873 0.994662
1.00021 0.999826 0.994606
1.0001 0.997912 0.99666
1.00008 0.998033 0.99681
0.999893 0.996853 0.999237
1.00002 0.998339 0.996373
0.999812 0.997102 0.999194
0.999747 0.997446 0.999116
1.0052 0.994942 0.990449
1.00516 0.994947 0.990802
1.00515 0.994951 0.990953
1.00517 0.994959 0.990831
1.00522 0.994934 0.990599
1.00528 0.994924 0.990544
1.00527 0.994942 0.990546
1.00108 0.994862 0.986043
1.00447 0.994872 0.993009
1.00003 1.00132 0.993413
1.00517 0.994933 0.990784
1.00518 0.994909 0.99055
1.00513 0.994923 0.990555
1.00409 1.00327 0.983873
1.0049 1.00292 0.983177
1.00488 0.999995 0.985524
1.00506 0.99538 0.990108
1.00368 1.00257 0.986337
1.00091 1.00363 0.989245
1.00089 1.00465 0.988802
1.00017 0.999936 0.994542
1.00035 1.00502 0.989251
1.00006 1.00176 0.993129
1.00021 1.00399 0.990545
1.00018 1.00101 0.993308
1.00521 0.994924 0.990552
1.00011 1.00124 0.993281
1.00016 1.00111 0.993429
1.0004 1.00144 0.992772
1.00518 0.994861 0.990522
1.00511 0.994902 0.990312
1.00411 1.00351 0.984016
1.00427 1.00281 0.984412
1.00462 0.996309 0.989833
1.00005 1.00302 0.991545
1.00019 1.00466 0.98988
1.00224 1.00219 0.988334
1.00047 1.00476 0.989034
1.00117 1.00419 0.988525
1.00522 0.99503 0.990615
1.00514 0.994819 0.990641
1.00507 0.995417 0.989858
1.00442 0.998194 0.98909
1.00199 1.00365 0.987698
1.00009 1.00223 0.99225
1.00044 1.00161 0.992303
1.00014 1.0022 0.992119
0.999929 1.00441 0.990981
1.00013 1.00468 0.989687
1.00033 1.00453 0.98915
1.00084 1.00316 0.989376
1 1.00374 0.991145
1.00042 1.00462 0.989084
1.00525 0.994892 0.990543
1.00516 0.99543 0.990045
1.00506 0.998703 0.986692
1.00394 1.00088 0.986937
1.00483 1.00132 0.984705
1.00003 1.00454 0.990665
1.00451 0.995096 0.991661
1.00213 1.00307 0.988332
1.00406 1.00168 0.985936
1.00499 0.996009 0.989608
1.00398 1.00148 0.985697
0.998542 0.997788 0.987933
1.00017 1.00437 0.99036
1.00257 0.998279 0.991621
1.00212 1.00232 0.988675
1.00248 1.00168 0.987727
1.00361 0.997538 0.98959
1.00004 0.995068 0.95202
0.997017 0.994885 0.970784
0.99634 1.00163 0.989336
0.9998 0.996115 0.891556
0.994679 0.995739 0.86421
0.999108 1.00317 0.992987
0.999165 1.00319 0.993199
0.999569 1.00311 0.992776
1.00006 1.00256 0.99211
1.0003 1.00324 0.990999
1.00009 1.00386 0.990804
1.00015 1.00279 0.991822
0.99984 1.00189 0.993096
1.00022 1.00396 0.990537
1.00012 1.00266 0.991851
1.00037 1.00347 0.990691
0.999925 1.00217 0.992754
1.00018 1.00395 0.990594
1.00022 1.00417 0.990624
0.999643 1.00392 0.991287
1.00024 1.00407 0.990372
1.00034 1.00341 0.990724
1.00018 1.00268 0.99167
1.00033 1.00347 0.99084
1.00014 1.00339 0.991271
1.00008 1.00312 0.991532
1.00022 1.00321 0.99131
1.00021 1.00239 0.992062
1.00015 1.00274 0.991651
1.00003 1.00107 0.993633
0.999985 1.00114 0.993639
1.00006 0.998577 0.996082
0.999969 1.00115 0.993662
1.00006 0.998534 0.996096
1.00002 0.996921 0.999138
1.00008 0.99852 0.996106
1.00004 0.996923 0.99855
1.00006 0.996833 0.997997
1.00007 0.999901 0.994758
1.00015 0.999863 0.994666
1.00011 0.997819 0.996752
1.00022 0.999783 0.994617
1.0001 0.997868 0.996918
0.999942 0.996686 0.999268
1.00009 0.99807 0.996526
0.999882 0.996928 0.999222
0.999808 0.99717 0.999182
1.00522 0.994933 0.990601
1.00517 0.994959 0.990833
1.00528 0.994926 0.990171
1.00084 0.994947 0.986171
1.00526 0.99494 0.990545
1.00434 0.995223 0.992602
1.00506 0.996198 0.991133
0.996593 0.994887 0.969873
1.00048 0.996842 0.988063
1.00005 1.00133 0.993379
1.00009 1.00126 0.993403
1.00002 1.00232 0.992424
0.999985 1.00223 0.992568
1.00521 0.994921 0.990554
1.00517 0.994881 0.990503
1.00512 0.994897 0.990344
1.00459 1.00336 0.984047
1.00414 1.00176 0.985004
1.00455 0.996831 0.989718
1.00192 1.00343 0.988059
1.00109 1.00458 0.98906
1.00101 1.00398 0.988655
1.00012 1.0012 0.993424
1.00025 1.00463 0.989708
1.00006 1.00306 0.9917
1.00011 1.00124 0.993381
1.00029 1.0015 0.992733
1.00522 0.994986 0.990618
1.00014 1.00224 0.992325
1.00043 1.0016 0.99249
0.999865 1.00215 0.992656
1.00514 0.994824 0.990541
1.00494 0.995432 0.989879
1.00263 1.00288 0.987606
1.00406 0.997931 0.989537
1.00004 1.00419 0.990793
1.00028 1.00484 0.98924
1.00099 1.00384 0.989259
1.001 1.00429 0.988998
1.00455 0.994998 0.991521
1.00508 0.995488 0.990369
1.00502 0.996043 0.989673
1.00201 0.999562 0.991699
0.999839 1.00328 0.99169
1.00026 1.0027 0.991531
0.999225 1.00471 0.991273
0.999523 1.00479 0.9901
0.999995 0.994909 0.9432
1.00009 1.00443 0.990763
1.00183 1.00316 0.988259
1.0045 0.995 0.991776
1.00508 0.995577 0.98987
1.00412 1.00155 0.985694
1.0039 1.00183 0.985776
0.998654 0.997666 0.985661
1.00004 1.00453 0.990534
1.00263 0.997857 0.991658
1.0021 1.00239 0.988688
1.00308 1.00119 0.987688
1.00387 0.997565 0.989545
1.00107 0.995143 0.941744
0.996897 0.994904 0.966429
0.996414 1.00212 0.989165
0.999788 0.995678 0.895267
0.994712 0.995746 0.853032
0.999848 1.00389 0.991442
0.999824 0.994863 0.902238
0.99469 0.995524 0.863569
1.00144 1.00004 0.991362
1.00107 1.00218 0.990318
1.0019 1.00067 0.989842
0.996245 1.00249 0.989559
1.00075 0.996482 0.948042
0.994914 0.995748 0.964053
0.997517 0.998497 0.901612
0.994786 0.996043 0.858377
0.998842 1.00341 0.993346
0.999396 1.00321 0.992682
0.999441 1.00334 0.992949
1.00015 1.00261 0.99192
1.00037 1.00349 0.990714
0.999998 1.00417 0.990503
1.00007 1.00395 0.990756
1.00002 1.00201 0.992636
1.00018 1.00268 0.991677
1.00004 1.00431 0.990561
1.00025 1.00407 0.990347
1.0004 1.00335 0.990774
0.999639 1.00389 0.991365
0.99982 1.00442 0.991092
0.998883 1.00479 0.991569
1.00043 1.00379 0.990319
1.00039 1.00347 0.990724
1.00035 1.00346 0.99082
1.00009 1.00338 0.991348
1.0004 1.00356 0.990627
0.999984 1.00343 0.991428
0.999653 1.00333 0.991623
0.999699 1.00444 0.990786
0.999924 1.00343 0.991472
1.00013 1.00308 0.991531
1.00014 1.0023 0.992267
1.0002 1.00322 0.99124
1.00022 1.00239 0.991989
1.00012 1.00098 0.993603
1.00018 1.00274 0.991638
1.00002 1.00108 0.993637
1.00009 0.998516 0.996673
0.999972 1.00116 0.993638
1.00006 0.998539 0.996384
1.00005 0.996936 0.997952
1.00005 0.998545 0.996094
1.00002 0.996934 0.999138
1.00006 0.996931 0.997963
1.00009 1.00142 0.993209
1.00001 0.999957 0.994791
1.00007 0.999888 0.994761
1.00011 0.997793 0.996786
1.00016 0.999835 0.994669
1.00012 0.997779 0.996755
0.99998 0.996585 0.999285
1.00009 0.997867 0.997152
0.999958 0.996776 0.998748
0.999926 0.99698 0.998177
1.00048 0.995205 0.986319
1.00525 0.994947 0.990545
1.00412 0.995967 0.992189
0.996672 0.994874 0.971027
1.00043 0.996528 0.988367
1.00508 0.995812 0.990992
1.00306 0.997326 0.988244
0.996493 0.996841 0.973864
1.00002 0.995399 0.949115
0.99946 0.997641 0.905193
0.994644 0.996055 0.862313
0.999931 1.0023 0.992466
1.00008 1.00131 0.993374
1.00016 1.00119 0.993394
1.00003 1.00231 0.992425
0.999746 1.00328 0.99192
1.00025 1.00246 0.991872
1.00003 1.00274 0.99217
0.999995 1.0023 0.992456
1.00523 0.994893 0.990618
1.00516 0.994831 0.990441
1.00484 0.995311 0.989903
1.00283 1.00241 0.987521
1.00374 0.997838 0.98999
1.00116 1.0045 0.989137
1.00162 1.00414 0.988848
1.00058 1.005 0.988796
1.00031 1.00159 0.992679
1.00004 1.00423 0.990603
1.00019 1.00226 0.992403
0.999742 1.00209 0.993191
1.00459 0.994895 0.991663
0.999833 1.00333 0.991743
1.00021 1.00284 0.991698
1.005 0.995293 0.990331
1.00482 0.995605 0.989816
1.00196 0.999537 0.991317
0.99966 1.00497 0.990682
1.00023 1.00448 0.990181
1.0033 0.99544 0.991916
1.00452 0.99664 0.990536
1.00464 0.995088 0.991069
1.00141 0.999291 0.992618
0.99995 1.00444 0.990414
0.999532 1.00422 0.991216
0.999466 1.00508 0.990927
0.999842 0.994847 0.903741
1.00045 0.994925 0.953484
0.999981 1.00462 0.99071
1.0021 1.0023 0.988707
1.00259 0.997534 0.991702
1.00424 0.997698 0.989501
1.00376 1.0007 0.987662
1.00015 0.994933 0.950553
0.997209 0.995002 0.96567
0.996485 1.00257 0.988946
0.999658 0.996423 0.90652
0.994756 0.995882 0.841442
0.999888 1.00374 0.991403
0.999849 0.995471 0.901072
0.994677 0.995596 0.857836
1.00146 1.00003 0.991417
1.0012 1.00203 0.99037
1.00205 1.00044 0.990477
0.996406 1.00277 0.990192
1.00176 0.996483 0.94114
0.99492 0.995257 0.967847
0.99841 0.998915 0.901411
0.994797 0.995626 0.85675
0.999522 1.00351 0.992746
0.994699 0.995644 0.860905
0.9948 0.995542 0.875337
0.999166 1.00174 0.993899
0.999587 1.00264 0.993368
0.995629 1.00254 0.989906
0.994866 0.997726 0.967264
0.997788 0.998851 0.938366
0.994732 0.999801 0.906952
0.994855 0.994803 0.861388
0.999349 1.00327 0.992592
0.999605 1.00308 0.992787
0.998303 1.00424 0.993048
1.00018 1.00267 0.991685
1.00042 1.00331 0.990825
1.00028 1.00403 0.990321
0.999921 1.00445 0.990497
0.999529 1.00394 0.991443
1.00039 1.00347 0.99072
0.999855 1.00422 0.990932
1.00043 1.00375 0.990353
0.998616 1.00487 0.991787
0.996959 1.00525 0.994114
0.999978 1.00418 0.990831
1.00062 1.00394 0.98996
1.00038 1.00344 0.9908
1.00013 1.00329 0.991424
1.0004 1.00363 0.99058
1.00004 1.0034 0.991386
0.999619 1.00328 0.99196
0.99973 1.00404 0.991159
0.999758 1.00391 0.99107
0.999473 1.00326 0.992129
1.00029 1.00276 0.991538
1.00045 1.00409 0.989338
0.99958 1.00462 0.990639
0.999793 1.00437 0.990787
0.999765 1.00399 0.991175
0.99996 1.00344 0.991461
1.00002 1.00245 0.992271
1.00013 1.00313 0.99153
1.00015 1.00229 0.992274
1.00019 1.00083 0.993594
1.00023 1.00241 0.991917
1.00011 1.00096 0.993615
1.00013 0.998489 0.996628
1.00002 1.00108 0.993642
1.0001 0.998488 0.996367
1.00006 0.996874 0.997955
1.00007 0.998512 0.996089
1.00002 0.996936 0.999135
1.00002 0.99693 0.999138
1.00012 1.00166 0.993182
0.999991 1.00009 0.994695
1.00008 1.00145 0.993215
1.00011 0.9978 0.996777
1.00001 0.999958 0.994793
1.00007 0.999894 0.994763
1.00011 0.997782 0.996782
1.00001 0.996525 0.999288
1.0001 0.997753 0.997232
0.999998 0.996596 0.998794
0.999979 0.996785 0.99826
0.999842 0.995451 0.893063
0.994667 0.995684 0.860505
0.998043 0.994876 0.970898
1.00048 0.995472 0.988694
1.00514 0.995077 0.990852
0.996165 0.995853 0.974801
1.00336 0.996273 0.988617
1.00119 0.995705 0.947676
0.999822 0.996421 0.893943
0.994692 0.995964 0.85115
0.998629 0.994894 0.978561
1.00001 0.997214 0.948624
0.99807 0.998785 0.899577
0.994792 0.995594 0.858661
1.00004 1.0033 0.991467
0.999919 1.00227 0.992552
1.00012 1.00126 0.99337
1.00001 1.0023 0.992427
0.999741 1.0031 0.992115
1.00003 1.00358 0.991236
1.00017 1.00278 0.991783
1.00026 1.00318 0.991118
1.00006 1.00268 0.992064
0.999974 1.00241 0.992346
1.00464 0.994844 0.991803
1.00498 0.995051 0.990307
1.00444 0.995327 0.989957
1.00177 0.999651 0.990936
1.00074 1.00446 0.990265
0.999815 1.00511 0.99009
1.0002 1.00283 0.99187
0.999786 1.00341 0.991793
1.00323 0.995419 0.992196
0.999908 1.00464 0.990281
0.99945 1.00434 0.991123
1.00466 0.996071 0.990418
1.00452 0.995217 0.990824
1.00123 0.999316 0.992719
0.999662 1.00499 0.990907
1.00065 0.996949 0.992396
1.00287 0.996251 0.993766
1.00033 1.00121 0.992905
0.999364 1.00475 0.990168
0.999579 1.00502 0.990178
0.999265 1.0051 0.991017
0.994751 0.995949 0.877949
0.999839 0.994872 0.907209
0.999991 0.994904 0.943537
0.999742 1.00375 0.991359
1.00132 1.00195 0.990415
1.00149 1.00003 0.991473
1.00221 1.00019 0.991108
0.99984 0.994989 0.909337
1.00001 0.99634 0.940945
0.994894 0.994877 0.964243
0.996539 1.00214 0.990798
0.997653 0.998598 0.890111
0.994677 0.995573 0.860438
0.994761 0.995427 0.863902
0.999242 1.0034 0.992677
0.994698 0.995258 0.867913
0.994823 0.995748 0.874984
0.999099 1.00147 0.994042
0.99937 1.00242 0.993377
0.995593 0.999532 0.992705
0.994879 0.997409 0.96631
0.997424 0.999576 0.948489
0.996927 0.999919 0.894669
0.994818 0.99479 0.869113
0.997522 1.00356 0.995685
0.994814 0.995673 0.88416
0.994786 0.994766 0.878058
0.995601 1.00206 0.999685
0.994819 0.999451 0.973861
0.994897 0.999958 0.949318
0.994883 0.999215 0.890468
0.994876 0.994815 0.867773
0.999769 1.00275 0.99262
0.998579 1.0042 0.993345
0.996908 1.005 0.995195
1.00035 1.00354 0.990716
1.00047 1.00371 0.990388
0.999934 1.00394 0.990771
0.998349 1.00505 0.992013
1.00051 1.00404 0.989947
0.999924 1.00424 0.990779
0.997099 1.0051 0.994565
0.995112 1.00529 0.997289
0.997692 1.0049 0.994114
1.00038 1.00398 0.990285
1.00041 1.0037 0.990531
1.00006 1.00339 0.991344
0.999503 1.0033 0.99229
0.999799 1.00378 0.991198
0.99978 1.004 0.991175
0.999485 1.00342 0.99219
0.999994 1.00343 0.991598
0.998133 1.00395 0.993668
1.00158 0.999711 0.992023
1.00031 1.00259 0.991669
1.00069 1.0032 0.990167
1.00233 1.00392 0.986898
1.00002 1.00468 0.990516
1.00028 1.00421 0.989725
0.999751 1.00452 0.990657
0.999614 1.00438 0.990849
0.999885 1.0043 0.990788
0.999882 1.00386 0.991177
0.999959 1.00286 0.991969
1.00008 1.00335 0.99145
1.00009 1.00241 0.992264
1.00021 1.00084 0.993554
1.00019 1.00224 0.992281
1.0002 1.00085 0.993601
1.00015 0.998464 0.996602
1.00012 1.00095 0.993627
1.00014 0.99847 0.996321
1.00004 0.996955 0.997911
1.00011 0.998466 0.996069
1.00003 0.996901 0.998546
1.00002 0.996922 0.999136
1.00015 1.00213 0.992435
1.00005 1.00022 0.9945
1.00009 1.00169 0.993003
1.0001 0.997866 0.996711
0.999998 1.00007 0.994697
1.00006 1.00149 0.99322
1.00003 0.996506 0.999284
1.0001 0.997799 0.996777
1.00001 0.999952 0.994796
1.00011 0.997771 0.996778
1.00001 0.996545 0.999288
0.99998 0.996581 0.999285
0.994679 0.994826 0.866399
0.99986 0.995348 0.900349
0.994844 0.995993 0.873715
0.994689 0.995735 0.858118
0.99589 0.995632 0.972233
1.00343 0.996079 0.989026
1.00005 0.99606 0.945704
0.999817 0.996867 0.905839
0.994764 0.996307 0.839707
0.998234 0.995638 0.977775
1.00145 0.997066 0.937313
0.998281 0.999177 0.900234
0.994801 0.995855 0.853125
0.995557 0.99573 0.972388
0.997653 0.998715 0.938788
0.995434 0.99982 0.889542
0.994824 0.994806 0.856553
1.00011 1.00413 0.990794
1.00002 1.00316 0.991602
0.999908 1.00231 0.992637
0.999738 1.00295 0.992311
1.00041 1.00398 0.990065
0.999984 1.00348 0.991378
1.00001 1.00302 0.991694
1.0005 1.00308 0.991014
1.0003 1.00321 0.991202
1.00009 1.00259 0.991959
1.00325 0.994865 0.992463
1.00474 0.99545 0.990316
1.00464 0.995295 0.990578
1.0012 0.999052 0.992831
1.00007 1.00469 0.990887
0.999555 1.00447 0.991033
0.999817 1.00479 0.990149
0.999954 1.00489 0.989939
1.00055 0.99646 0.992695
0.999868 1.00493 0.990069
0.999572 1.00508 0.991006
1.00299 0.995889 0.993785
1.00099 1.00029 0.992739
0.998229 0.997045 0.993455
0.998158 0.999177 0.999674
0.998631 1.00351 0.992937
1.00001 1.00472 0.990045
0.999266 1.005 0.991091
0.994838 0.995911 0.888556
0.994743 0.995829 0.875138
0.99982 0.994857 0.896037
0.999005 1.00325 0.992614
0.999155 1.00208 0.993373
0.999147 1.0014 0.994195
0.994676 0.994834 0.86804
0.99737 0.998669 0.939636
0.994854 0.997093 0.966507
0.995862 0.997883 0.995728
0.995061 0.999833 0.907522
0.994829 0.995766 0.874736
0.994822 0.994803 0.869391
0.997509 1.00341 0.996007
0.994804 0.995227 0.88694
0.994779 0.994768 0.87817
0.995717 1.00224 0.998667
0.994854 0.999128 0.97545
0.995984 0.999758 0.939479
0.994862 0.994815 0.867068
0.994867 0.999921 0.897972
0.995573 1.00489 0.998417
0.994731 0.994799 0.894987
0.994815 0.994782 0.881306
0.99483 0.994799 0.857217
0.995103 1.00007 0.992306
0.994955 0.999519 0.952707
0.994992 0.999624 0.899397
0.998963 1.00417 0.993639
0.997501 1.00507 0.994335
0.995171 1.00509 0.998433
1.00048 1.00406 0.989936
0.99983 1.00428 0.990724
0.997074 1.0049 0.995004
1.00021 1.00407 0.990332
0.997745 1.00473 0.994145
0.99538 1.00531 0.997078
0.99513 1.00523 0.998327
0.997682 1.00457 0.99403
0.999812 1.00373 0.99133
0.99983 1.00397 0.991191
0.999536 1.00358 0.992258
0.998441 1.00402 0.993524
0.999851 1.00339 0.991579
0.999572 1.00267 0.992972
1.0007 1.00018 0.993152
1.00153 1.00169 0.989597
1.00035 1.00243 0.991804
1.00117 1.00315 0.989827
1.00306 1.00285 0.986417
1.00314 1.00302 0.986185
1.00056 1.00455 0.989448
1.00199 1.00384 0.987011
0.999884 1.00484 0.990273
0.99989 1.00471 0.990477
1.00007 1.00432 0.990112
0.999912 1.00443 0.990675
0.999686 1.00425 0.99093
0.999975 1.00323 0.991573
0.999984 1.00373 0.991178
1.00002 1.0028 0.991974
1.00019 1.00109 0.993349
1.00013 1.00238 0.992258
1.00023 1.00084 0.993548
1.00013 0.998468 0.996604
1.00021 1.00083 0.993607
1.00016 0.998443 0.996299
1.00001 0.997026 0.997908
1.00016 0.998423 0.996025
1.00002 0.996959 0.998519
1.00001 0.996932 0.999128
1.00032 1.00231 0.991799
1.0001 1.00054 0.993868
1.00018 1.00211 0.992433
1.00012 0.99796 0.996576
1.00005 1.00023 0.994357
1.0001 1.00167 0.992827
1.00003 0.996562 0.999265
1.0001 0.997852 0.996717
1 1.00005 0.9947
1.00002 0.996519 0.999285
1.00009 0.997801 0.996777
1.00001 0.996541 0.999288
0.994829 0.994806 0.883001
0.994691 0.995284 0.873562
0.999847 0.995439 0.900919
1.00063 1.00316 0.990617
0.994757 0.994808 0.884226
0.994806 0.995651 0.873578
0.994725 0.995584 0.864432
0.998446 0.995957 0.976547
0.999663 0.997613 0.947649
0.997952 0.998563 0.888279
0.994753 0.9958 0.856785
0.996567 0.995225 0.968784
0.997425 0.999062 0.947898
0.99666 0.999898 0.893656
0.994821 0.994812 0.860061
0.994869 0.995691 0.964507
0.995248 0.999873 0.947441
0.994862 0.999977 0.898992
0.994876 0.994827 0.867476
1.00012 1.00462 0.989995
1.00009 1.00416 0.990601
1.00006 1.00304 0.991736
1.00043 1.00384 0.990218
1.0003 1.00406 0.990277
0.999999 1.00344 0.991518
1.00054 1.00308 0.991031
1.0003 1.00324 0.991282
1.00008 0.997064 0.992913
1.0032 0.995606 0.99376
1.00012 1.00504 0.989709
1.00153 0.999793 0.992564
0.999853 1.00509 0.990992
1.00003 1.00502 0.989959
0.999908 1.00476 0.990032
0.997456 0.997443 0.994105
0.999529 1.0048 0.991204
0.999262 1.00327 0.993009
0.998107 0.998722 0.999707
0.999998 1.00478 0.990269
0.995986 0.999483 0.992358
0.995015 1.00246 1.00136
0.997676 1.0051 0.99327
0.999597 1.00457 0.991329
0.994739 0.994769 0.900304
0.994844 0.995824 0.888139
0.994734 0.995767 0.872309
0.997465 1.0034 0.996351
0.995537 1.00196 0.99764
0.994815 0.994805 0.889626
0.994896 0.999986 0.949443
0.994868 0.998723 0.972662
0.994833 0.999958 0.897448
0.994789 0.994771 0.878235
0.994853 0.994815 0.866368
0.995857 1.00469 0.998048
0.99475 0.9948 0.894784
0.994813 0.994771 0.884817
0.994917 1.00082 0.995712
0.994815 0.994807 0.86049
0.994918 0.998783 0.94683
0.994975 0.999701 0.903711
0.995026 1.00407 0.998459
0.994763 0.994802 0.898946
0.994786 0.994848 0.884713
0.994755 0.995863 0.858985
0.995594 0.999984 0.898632
0.9949 0.999987 0.981317
0.994977 0.999939 0.939502
0.998215 1.00496 0.993478
0.99551 1.00505 0.997965
0.994917 1.00511 0.99949
1.00004 1.00409 0.99038
0.997764 1.0046 0.994179
0.995853 1.00533 0.996877
0.997882 1.00449 0.993917
0.995223 1.0047 0.998309
0.997567 1.00326 0.996545
0.99876 1.004 0.993373
0.99961 1.00342 0.991561
0.999604 1.00283 0.993155
0.999258 1.00347 0.991534
0.999804 1.00064 0.99426
1.00143 1.00148 0.990197
1.00331 1.00268 0.986088
1.00462 1.00188 0.984582
1.00166 1.00311 0.989482
1.00344 1.00296 0.985641
1.00431 1.00202 0.986102
1.00155 1.00383 0.987793
1.00306 1.003 0.986385
0.999953 1.00503 0.989699
1.00059 1.00457 0.989394
1.00163 1.00377 0.987125
0.999981 1.00379 0.990919
0.999745 1.00482 0.990383
0.999785 1.00473 0.990438
0.99977 1.00413 0.99101
1.00003 1.00319 0.991576
1.00019 1.00145 0.992961
1.00009 1.00276 0.991978
1.0002 1.00109 0.99334
1.00009 0.998615 0.995966
1.00024 1.00087 0.993542
1.00016 0.998466 0.996002
0.999898 0.997085 0.999118
1.00017 0.99843 0.995998
0.999991 0.99703 0.998507
0.999995 0.996984 0.999114
1.00034 1.00251 0.991509
1.00021 1.00087 0.993359
1.00028 1.00235 0.991908
1.00015 0.998121 0.996381
1.00013 1.00054 0.993806
1.00018 1.00213 0.99243
1.00004 0.996619 0.999234
1.00012 0.997945 0.996588
1.00005 1.00024 0.994214
1.00004 0.996535 0.999271
1.00011 0.997837 0.996723
1.00002 0.996535 0.999287
0.994757 0.994797 0.896621
0.994822 0.995328 0.882904
0.994689 0.995814 0.873765
1.00054 1.00319 0.990723
1.0005 1.00337 0.990471
1.0006 1.00349 0.990456
0.994835 0.994774 0.880763
0.994779 0.994906 0.884287
0.994771 0.995769 0.873437
0.996464 0.99487 0.970967
0.99817 0.999012 0.937483
0.995119 0.999911 0.90667
0.99486 0.994855 0.856014
0.994887 0.996139 0.968008
0.995865 0.999946 0.943929
0.994817 0.999774 0.898196
0.994871 0.99482 0.866653
0.994902 0.99637 0.963837
0.994893 0.999519 0.949289
0.995065 0.99987 0.89925
0.994863 0.994806 0.861307
1.00035 1.0041 0.990028
1.00022 1.00456 0.989846
1.00025 1.00407 0.990407
1.00053 1.00371 0.990188
1.00013 1.00413 0.990493
1.00055 1.0031 0.991048
0.996845 0.997699 0.994751
0.997659 0.998366 0.999777
1.00002 1.00452 0.990018
0.999862 1.00259 0.993082
0.999587 1.00473 0.991316
0.999901 1.00465 0.990218
0.999226 1.00461 0.991477
0.995684 0.999472 0.992582
0.997757 1.00514 0.993911
0.995231 1.00225 1.00043
0.99947 1.00401 0.991796
0.995378 0.999366 0.991432
0.995934 1.00284 0.997538
0.997964 1.00514 0.993975
0.994753 0.994757 0.903849
0.994737 0.994767 0.901152
0.99485 0.995685 0.887713
0.995996 1.00463 0.997657
0.994876 1.00088 0.992465
0.994757 0.994802 0.894586
0.994857 0.999246 0.948214
0.994971 0.999617 0.892084
0.994804 0.994768 0.888313
0.99485 0.995139 0.856606
0.995136 1.00391 0.998944
0.994758 0.994807 0.900383
0.994789 0.995044 0.884785
0.994922 0.999647 0.978112
0.994783 0.996121 0.853565
0.994842 0.999984 0.897509
0.994923 0.999782 0.950327
0.995112 1.00486 0.99427
0.994753 0.994794 0.896942
0.994815 0.996384 0.874255
0.994646 0.996363 0.863033
0.995769 0.999077 0.889379
0.995672 0.999958 0.947794
0.994926 1.00049 0.972074
0.995966 1.00512 0.997505
0.99526 1.00421 0.999414
0.996933 1.00304 0.997956
0.998033 1.00455 0.993807
0.995477 1.00418 0.998308
0.996497 1.00427 0.996829
0.999546 1.00003 0.99649
0.999666 1.00298 0.993338
1.0008 1.00287 0.991145
1.00205 1.00377 0.987432
1.00132 1.00131 0.990821
1.00336 1.00274 0.986101
1.00413 1.00395 0.983401
1.00486 1.00188 0.984071
1.00458 1.00164 0.984953
1.00461 1.00208 0.984398
1.00386 1.00301 0.984864
1.00367 1.00229 0.986663
1.00396 1.00189 0.98632
1.00081 1.00444 0.988384
1.00167 1.00387 0.987962
1.00301 1.003 0.986586
0.999968 1.00465 0.989848
1.00013 1.00501 0.989684
1.00058 1.00461 0.989338
1.00019 1.00201 0.992457
1.0001 1.00375 0.990915
0.99962 1.0048 0.990494
1.00009 1.00313 0.991578
1.00022 1.00146 0.992954
1.00001 0.998867 0.995844
1.00022 1.0011 0.993332
1.0001 0.998622 0.995955
0.999847 0.997238 0.999104
1.00016 0.998466 0.995998
0.999935 0.997114 0.998509
0.999958 0.997063 0.999109
1.00037 1.00287 0.991336
1.0003 1.0011 0.993167
1.00038 1.0025 0.991576
1.00017 0.998315 0.996129
1.0002 1.00086 0.993444
1.00029 1.00236 0.992017
1.00003 0.996737 0.999189
1.00015 0.998092 0.996397
1.00015 1.00053 0.993744
1.00004 0.996614 0.999243
1.00012 0.997932 0.9966
1.00004 0.996537 0.999278
0.994765 0.99481 0.898586
0.994758 0.994808 0.896423
0.994813 0.995764 0.882917
1.00036 1.0039 0.990132
1.00068 1.004 0.989792
1.00046 1.00325 0.990831
1.00044 1.00351 0.990432
1.00042 1.00361 0.990446
1.00032 1.00391 0.990286
1.00041 1.0037 0.990365
0.994801 0.994765 0.877515
0.994821 0.994777 0.884333
0.994798 0.994762 0.884364
0.994859 0.994817 0.86587
0.994897 0.996017 0.964968
0.995117 0.999952 0.940625
0.994874 0.999449 0.906562
0.99501 0.996796 0.962896
0.994886 0.999811 0.939807
0.994963 0.999658 0.903987
0.994825 0.994794 0.86908
0.995441 0.996362 0.966794
0.99492 0.999914 0.939987
0.994907 0.99962 0.891044
0.994795 0.996302 0.857686
0.999498 1.00493 0.990868
1.0002 1.00432 0.990071
1.00028 1.00469 0.989696
1.00063 1.00363 0.990159
0.995458 0.999734 0.992958
0.995318 1.00311 0.999483
0.999829 1.00493 0.990169
0.999174 1.00459 0.991625
0.998165 1.00511 0.994543
0.999458 1.00415 0.991735
0.997724 1.00512 0.993972
0.995178 1.00101 0.988545
0.995307 1.00401 0.997995
0.997374 1.00467 0.994964
0.994868 0.999379 0.988195
0.997061 1.00408 0.9975
0.994732 0.994783 0.900425
0.994758 0.994756 0.906652
0.994735 0.99476 0.901996
0.994984 1.00368 0.999373
0.994938 0.998453 0.982045
0.994755 0.994805 0.901861
0.995793 0.999447 0.940179
0.994864 0.999734 0.905909
0.994792 0.994754 0.884868
0.994757 0.995955 0.857267
0.994907 1.00398 0.994952
0.994759 0.994799 0.896761
0.994799 0.995875 0.874128
0.994942 1.00056 0.972793
0.994673 0.996256 0.852065
0.996702 0.999908 0.893194
0.994864 0.999861 0.939219
0.995554 1.0048 0.988791
0.994824 0.994817 0.883686
0.994656 0.995827 0.861372
0.998467 0.99766 0.900281
0.995036 0.999938 0.947487
0.994996 1.00001 0.965559
0.995248 1.00354 0.999564
0.996147 1.0038 0.997972
0.997065 1.00082 0.999052
0.99548 1.00515 0.997104
0.998275 1.00045 0.996799
1.00256 0.999039 0.992325
1.00234 1.00219 0.990755
1.00249 1.00356 0.987378
1.00306 1.0043 0.984424
1.00337 1.00281 0.986116
1.00445 1.00391 0.983049
1.00428 1.00445 0.982592
1.00495 1.00121 0.984707
1.00504 1.00131 0.984489
1.0048 1.00203 0.984049
1.00435 1.00147 0.985383
1.00453 1.00157 0.985128
1.00456 1.00234 0.984215
1.00285 1.00355 0.986501
1.0035 1.00223 0.986631
1.00357 1.00176 0.986534
1.00052 1.00494 0.988666
1.00083 1.00452 0.988607
1.00181 1.00389 0.988135
1.00007 1.00296 0.99158
1.00017 1.00462 0.98987
1.00028 1.00499 0.989668
0.999929 0.99917 0.995677
1.00021 1.00199 0.992438
1.00019 1.00375 0.990912
1.00024 1.00146 0.992947
1.00001 0.998898 0.995827
0.999769 0.997443 0.999083
1.00011 0.998624 0.995944
0.999841 0.997275 0.999099
0.999904 0.997141 0.999109
1.00033 1.00418 0.990047
1.00049 1.00313 0.990905
1.00034 1.00148 0.992731
1.00039 1.00283 0.991325
1.00018 0.998578 0.995856
1.00029 1.00112 0.993166
1.00034 1.00256 0.991642
1.00002 0.996884 0.99913
1.00017 0.998311 0.996146
1.0002 1.00087 0.993527
1.00003 0.996709 0.999203
1.00015 0.998074 0.996414
1.00004 0.996583 0.999253
0.994738 0.994793 0.894584
0.994759 0.994806 0.900063
0.994763 0.99482 0.896205
1.00043 1.00392 0.990158
1.00052 1.00403 0.989833
1.00028 1.00355 0.990281
1.00019 1.00432 0.989902
1.00061 1.00433 0.989926
1.00045 1.00359 0.990393
1.00036 1.00372 0.990435
1.00039 1.00386 0.990293
1.00045 1.0038 0.990407
1.00003 1.0046 0.990385
0.994802 0.995896 0.874675
0.994797 0.994767 0.877697
0.994815 0.994774 0.887873
0.994845 0.994801 0.869363
0.995044 0.999864 0.892082
0.995059 0.997896 0.961335
0.994898 0.999895 0.94908
0.995298 0.996336 0.963621
0.994917 0.999181 0.949788
0.99485 0.999963 0.899189
0.99481 0.995882 0.855815
0.994847 0.995359 0.968404
0.994902 0.999991 0.949623
0.995237 0.999854 0.905742
0.994698 0.996042 0.861815
0.998577 1.00393 0.993054
0.999611 1.00479 0.990804
1.00021 1.00432 0.990116
0.99508 1.00157 0.985469
0.995217 1.00434 0.998448
0.99938 1.00411 0.991674
0.997041 1.00517 0.993974
0.997438 1.00428 0.994975
0.996223 1.00367 0.997594
0.994915 0.999633 0.988108
0.995938 1.002 0.998915
0.995954 0.99975 0.989975
0.994841 0.995589 0.888112
0.994737 0.994778 0.901244
0.994764 0.994759 0.90946
0.994972 1.00278 0.995267
0.994955 1.00073 0.969519
0.994762 0.994821 0.896551
0.995696 0.999967 0.947021
0.994926 0.999917 0.906076
0.994785 0.995983 0.874015
0.994721 0.996344 0.840804
0.995488 1.00475 0.989379
0.994815 0.995102 0.883594
0.994679 0.995907 0.858995
0.994952 0.999984 0.966547
0.998348 0.998941 0.900855
0.995881 0.999925 0.942838
0.994994 1.00477 0.986764
0.994682 0.99483 0.867338
0.999797 0.997093 0.906125
0.99751 0.998515 0.93885
0.994839 0.997388 0.968586
0.995506 1.00462 0.997976
0.996846 1.00104 0.998982
1.00058 1.00242 0.993261
0.99703 1.00099 0.997048
1.0014 0.999537 0.992598
1.00365 0.999367 0.988878
1.00289 1.0033 0.987321
1.00314 1.00418 0.984417
1.00429 1.00177 0.984722
1.00477 1.00393 0.982698
1.00433 1.00405 0.982693
1.00475 1.00109 0.985067
1.00515 0.999058 0.986327
1.0051 1.00056 0.98495
1.0049 1.0011 0.984792
1.00508 1.0015 0.984415
1.00504 1.00134 0.98447
1.00475 1.00214 0.984026
1.00419 1.0022 0.985398
1.00429 1.00149 0.9855
1.0045 1.00151 0.985305
1.0018 1.00409 0.987452
1.00264 1.00349 0.986678
1.00331 1.0022 0.986598
1.00008 1.00433 0.990047
1.00068 1.00495 0.988678
1.00088 1.00462 0.988828
0.999862 0.999746 0.995882
1.00017 1.00296 0.991557
1.00039 1.00458 0.989893
0.999704 0.997701 0.997742
0.999925 0.999275 0.995919
1.00025 1.00196 0.992419
1 0.998932 0.99581
0.999767 0.997477 0.999073
0.999834 0.997293 0.999094
1.00022 1.00446 0.989977
1.00042 1.00365 0.990504
1.00028 1.00424 0.990008
1.00036 1.00186 0.992306
1.00038 1.00329 0.990898
1.00015 0.998895 0.995585
1.00033 1.00146 0.992735
1.00046 1.00276 0.991313
1 0.997087 0.999067
1.00017 0.998558 0.995872
1.00028 1.00114 0.993164
1.00002 0.996872 0.999148
1.00016 0.998296 0.996163
1.00004 0.996691 0.999217
0.994818 0.994838 0.890369
0.994749 0.994798 0.894391
0.994751 0.994807 0.901569
1.00054 1.00313 0.990529
1.00035 1.00408 0.990183
1.00044 1.00401 0.989872
1.00036 1.00437 0.989864
1.0006 1.00341 0.990331
1.00044 1.00411 0.990246
1.00107 1.00378 0.989226
0.99964 1.00478 0.99016
1.00046 1.00377 0.990301
1.00015 1.00388 0.990448
0.999883 1.00451 0.990367
0.999207 1.00503 0.991718
0.994733 0.996006 0.862503
0.994832 0.996024 0.874338
0.994783 0.994769 0.877835
0.994771 0.995696 0.863087
0.994832 0.999954 0.898996
0.99503 0.999669 0.940027
0.995117 0.996055 0.962603
0.99486 0.995434 0.969881
0.994721 0.996264 0.851037
0.994886 0.999579 0.944153
0.996781 0.999924 0.89366
0.994877 0.996137 0.970825
0.995039 0.999952 0.949943
0.998939 0.998532 0.896611
0.999111 1.00149 0.995255
0.998719 1.00401 0.993015
0.999504 1.00471 0.99074
0.994892 0.999954 0.988298
0.995554 1.00331 0.997682
0.99742 1.00393 0.994987
0.997059 1.00186 0.998782
0.995451 0.999552 0.990084
0.996946 0.998501 0.993381
0.994745 0.996401 0.872291
0.994836 0.995236 0.891266
0.994738 0.994767 0.902057
0.995371 1.00468 0.989697
0.994853 0.999973 0.966615
0.994805 0.995426 0.883611
0.994922 0.999953 0.939982
0.998325 0.997625 0.889115
0.994703 0.995853 0.865289
0.99493 1.00472 0.986776
0.994695 0.995123 0.874432
0.999821 0.995992 0.894965
0.994916 0.997019 0.964661
0.997426 0.998885 0.947905
0.995958 1.00301 0.990987
0.999832 0.995351 0.893694
1.00001 0.997047 0.948774
0.994874 0.995269 0.964021
0.996548 1.00105 0.999016
0.99988 1.00165 0.993316
1.00277 1.00246 0.988787
1.00032 1.00002 0.992878
1.00304 1 0.98882
1.00447 0.998523 0.987949
1.0032 1.00409 0.984409
1.00419 1.00185 0.984696
1.00498 0.997692 0.987434
1.00436 1.00362 0.982793
1.00467 1.0009 0.985112
1.00511 0.99732 0.987988
1.00513 0.997246 0.988269
1.00517 0.999288 0.986108
1.00514 0.998926 0.986472
1.00512 1.00068 0.984864
1.00509 1.00057 0.985031
1.00487 1.001 0.984878
1.00504 1.00124 0.984815
1.00498 1.00145 0.984528
1.00503 1.00134 0.984448
1.00334 1.00276 0.986198
1.00416 1.00219 0.985388
1.00429 1.00148 0.985616
1.00079 1.00486 0.98849
1.00191 1.00415 0.987427
1.00242 1.0034 0.986856
0.999792 1.00064 0.994351
1.00035 1.00412 0.99005
1.00087 1.00496 0.98869
0.99962 0.998027 0.998961
0.999851 0.999851 0.995138
1.00026 1.00293 0.991535
0.999711 0.997689 0.999036
0.999898 0.999357 0.995583
0.999767 0.997529 0.999062
1.00078 1.00383 0.989713
1.00029 1.00442 0.989911
1.00045 1.00405 0.990076
1.0003 1.00238 0.991913
1.00038 1.00367 0.990497
1.00032 1.00417 0.989969
1.00013 0.999208 0.995311
1.00034 1.00189 0.992311
1.0003 1.00341 0.990893
0.999968 0.997309 0.998999
1.00016 0.998852 0.995599
1.00034 1.00146 0.992739
1 0.997048 0.999086
1.00017 0.998541 0.995888
1.00002 0.996831 0.999167
0.994928 0.995543 0.861789
0.994845 0.994818 0.890318
0.994757 0.994806 0.894202
1.00038 1.00342 0.990467
1.00171 1.00312 0.989872
1.00061 1.00358 0.990081
1.00039 1.00449 0.989825
1.00092 1.00325 0.990378
1.00011 1.00377 0.990563
0.999895 1.00478 0.990058
1.0008 1.00396 0.989392
1.00054 1.00462 0.989342
0.999925 1.00073 0.993844
1.00012 1.00445 0.99035
0.999319 1.00484 0.991388
0.999797 0.997246 0.889443
0.994804 0.995992 0.856757
0.994899 0.995944 0.87413
0.994751 0.996617 0.839906
0.996429 0.99915 0.905995
0.99485 0.999913 0.94148
0.99496 0.99556 0.96759
0.994914 0.996066 0.969527
0.998341 0.999357 0.899194
0.995951 0.999887 0.940361
0.994894 0.99743 0.971105
0.998353 0.998748 0.938652
1.00174 0.997698 0.994816
0.999022 1.0017 0.995136
0.998848 1.00412 0.992989
0.994974 0.99936 0.99015
0.997956 1.00174 0.998633
0.997509 0.998676 0.992977
0.998716 0.997966 0.99085
0.999852 0.994856 0.903324
0.994739 0.995895 0.871934
0.994836 0.994827 0.894324
0.994901 1.00487 0.986973
0.99489 0.996728 0.962649
0.994692 0.995354 0.874584
0.998562 0.998245 0.937883
0.999835 0.99624 0.906875
0.995619 1.00224 0.988573
0.999851 0.995227 0.9011
1.00143 0.996778 0.937888
0.994904 0.995318 0.967402
0.998169 0.997697 0.990491
1.00003 0.995495 0.949609
0.996173 0.995595 0.969922
0.999222 1.00069 0.993299
1.00258 1.00057 0.988779
1.00486 0.998392 0.988652
1.0024 1.00064 0.98877
1.00418 0.998724 0.987973
1.00492 0.996271 0.989252
1.00421 1.00189 0.984673
1.00494 0.998014 0.98735
1.00512 0.995619 0.989547
1.00461 1.00071 0.985157
1.00512 0.997342 0.987965
1.00513 0.995737 0.98968
1.00512 0.996313 0.989498
1.00514 0.997065 0.988487
1.00514 0.997902 0.987796
1.00518 0.99972 0.985899
1.00516 0.999358 0.986166
1.00514 0.998793 0.986618
1.00517 1.00082 0.984943
1.00513 1.0007 0.98484
1.00509 1.00056 0.985112
1.00446 1.00156 0.985438
1.00493 1.00132 0.984819
1.00486 1.00145 0.984642
1.00182 1.00411 0.987534
1.00338 1.00282 0.986187
1.00411 1.00219 0.985377
0.999989 1.00155 0.993052
1.00093 1.00467 0.988495
1.00208 1.0041 0.987402
0.999674 0.998357 0.998797
0.999828 1.00072 0.994296
1.00057 1.00404 0.990054
0.999664 0.998045 0.998242
0.999845 0.999937 0.995126
0.999728 0.997771 0.998997
1.00125 1.00298 0.98975
1.00046 1.00402 0.989853
1.00037 1.00446 0.989625
1.00039 1.00441 0.989846
1.00034 1.00415 0.990071
1.00029 1.00284 0.991471
1.00006 0.999598 0.995047
1.0003 1.00234 0.991916
1.0003 1.00376 0.99049
0.99992 0.997538 0.998925
1.00012 0.999198 0.995323
1.00031 1.00192 0.992316
0.999969 0.997266 0.99902
1.00016 0.998822 0.995613
1 0.997028 0.999105
0.999818 0.994868 0.901758
0.994726 0.995501 0.865005
0.994834 0.994795 0.89023
1.00022 1.00382 0.990405
1.00061 1.00426 0.9894
1.00129 1.00309 0.99015
1.00288 1.00335 0.986623
1.00055 1.0042 0.989834
1.00006 1.00485 0.989959
1.00064 1.0042 0.98956
1.00029 1.00458 0.989595
1.00118 1.00323 0.988608
1.00148 0.999722 0.992751
1.00419 0.996704 0.990519
1.00025 1.00031 0.993906
0.999827 1.00406 0.991056
0.998691 0.997216 0.94834
0.999786 0.997501 0.894384
0.994679 0.995882 0.85919
0.998866 0.999649 0.886887
0.995416 0.999953 0.947383
0.99487 0.995982 0.970534
0.994882 0.997376 0.97279
0.997419 0.998849 0.949522
0.995865 0.997101 0.97226
1.00195 0.996023 0.995166
1.00105 0.998421 0.994879
0.998962 1.002 0.99501
0.998256 0.998284 0.992672
0.999136 0.997785 0.990785
0.999981 0.994961 0.94327
0.999842 0.994884 0.90721
0.994726 0.995453 0.871688
0.995027 1.00201 0.986091
0.995016 0.995005 0.964307
0.999843 0.995382 0.901698
1.00036 0.997089 0.947628
0.997209 0.998844 0.990924
1.00111 0.99567 0.947701
0.996664 0.99508 0.967013
1.00139 0.996278 0.989721
0.999046 0.995404 0.976207
1.00243 0.998798 0.988858
1.00478 0.997173 0.988611
1.005 0.995933 0.990251
1.00385 0.998925 0.987994
1.00474 0.996458 0.989173
1.00518 0.99496 0.990163
1.00482 0.99838 0.987267
1.00512 0.995694 0.989495
1.0051 0.99499 0.990423
1.00512 0.997356 0.987943
1.00513 0.995778 0.989633
1.00515 0.995351 0.99024
1.00512 0.996078 0.989625
1.00512 0.996804 0.988995
1.00515 0.996882 0.988707
1.00514 0.997912 0.987774
1.00518 0.998741 0.98692
1.00521 1.00021 0.985486
1.00518 0.999765 0.985879
1.00515 0.999426 0.986225
1.00499 1.00072 0.985329
1.00513 1.00084 0.984889
1.00514 1.00071 0.984815
1.00295 1.00259 0.987031
1.00442 1.00167 0.985442
1.00481 1.0014 0.984824
1.00045 1.00196 0.991856
1.00186 1.00403 0.987526
1.00329 1.00301 0.986176
0.999803 0.998949 0.998482
1.00007 1.00157 0.993026
1.00113 1.00441 0.988499
0.999745 0.998489 0.998699
0.99988 1.00081 0.99424
0.999736 0.998089 0.998865
1.00286 1.0031 0.986715
1.00134 1.00282 0.989711
1.00058 1.0043 0.989242
1.00018 1.0041 0.989994
1.00031 1.0045 0.989603
1.00032 1.00336 0.990872
1.00025 1.00423 0.990065
1.00025 1.00284 0.991478
0.999995 0.999988 0.994782
0.999851 0.997837 0.998853
1.00006 0.999561 0.99506
1.0003 1.00232 0.99192
0.999922 0.997521 0.998949
1.0001 0.999185 0.995335
0.999974 0.997221 0.999041
1.00003 0.995232 0.952306
0.999846 0.99488 0.900746
0.994702 0.99546 0.861266
1.00062 1.00482 0.98872
1.00096 1.00285 0.99043
1.00088 1.00395 0.989657
1.00281 1.00338 0.986824
1.00417 1.00255 0.984497
1.00143 1.00354 0.988149
1.00003 1.00457 0.989846
1.00196 1.00308 0.987802
1.00125 0.999717 0.992807
1.00312 0.999708 0.988948
1.00479 0.995871 0.990885
1.004 0.996344 0.991225
1.00373 0.996689 0.991027
1.00001 1.00035 0.993971
0.99599 0.995817 0.97145
0.999973 0.997084 0.945214
0.998118 0.997143 0.905822
0.997555 0.999388 0.938656
0.994863 0.997754 0.97332
0.995701 0.997387 0.977222
0.999581 0.997576 0.99223
1.00232 0.995705 0.995027
1.00061 0.999008 0.994943
1.00038 0.998283 0.990711
0.996476 0.997387 0.972298
1.00017 0.995009 0.953422
0.999826 0.994875 0.895906
0.996428 0.999471 0.991176
0.996842 0.994881 0.96886
1.00004 0.996436 0.945591
1.00084 0.996272 0.989818
0.998441 0.995709 0.975612
1.00363 0.995511 0.99063
1.0027 0.998246 0.98696
1.00468 0.996053 0.988536
1.00486 0.995728 0.99028
1.00518 0.99487 0.990589
1.0046 0.99664 0.989095
1.00519 0.994959 0.99012
1.00514 0.994945 0.990495
1.00512 0.995752 0.989442
1.00508 0.995068 0.99039
1.00517 0.995039 0.990471
1.00514 0.995825 0.989585
1.00514 0.995344 0.990175
1.00513 0.995841 0.989742
1.00512 0.995851 0.98975
1.00512 0.996659 0.989133
1.00516 0.997996 0.987809
1.00514 0.997922 0.987752
1.00518 0.998796 0.986894
1.0052 0.999622 0.986173
1.00515 1.0003 0.985455
1.00521 1.00027 0.985426
1.00518 0.999812 0.985858
1.00386 1.00118 0.986884
1.00496 1.00077 0.985337
1.00511 1.00087 0.984835
1.00091 1.00195 0.991083
1.00291 1.00266 0.987036
1.00441 1.00176 0.985445
1.00004 0.999511 0.99807
1.00056 1.00189 0.991845
1.00191 1.00392 0.987518
0.999923 0.999062 0.998325
1.00014 1.00158 0.993
0.999842 0.998566 0.998577
1.00425 1.00247 0.984941
1.00306 1.00307 0.986737
1.00189 1.00406 0.987329
1.00134 1.00277 0.989672
1.00071 1.0042 0.989107
1.00066 1.00368 0.990021
1.00024 1.00453 0.98958
1.0003 1.00337 0.990876
0.999924 1.00046 0.994439
1.00023 1.00284 0.991486
0.999983 0.999951 0.994799
0.999776 0.998141 0.998778
0.999856 0.997782 0.998877
1.00006 0.99953 0.995072
0.999921 0.997468 0.998972
0.996833 0.994868 0.973003
1.00003 0.995519 0.942368
0.999831 0.995185 0.908922
1.00512 1.00087 0.984627
1.00122 1.00379 0.989479
1.00275 1.00342 0.987027
1.00188 1.00342 0.987923
1.00428 1.00272 0.984471
1.00382 1.00076 0.986964
1.00269 1.00305 0.986997
1.00102 0.999691 0.992868
1.0035 0.999558 0.9888
1.00477 0.995826 0.990426
1.00482 0.996293 0.989329
1.00415 0.995514 0.992091
1.00391 0.995962 0.991211
1.00325 0.996627 0.991534
0.999864 0.996953 0.991959
0.995791 0.995598 0.969724
0.999362 0.996335 0.942652
0.995263 0.997122 0.975879
0.999761 0.996724 0.994326
1.00212 0.99529 0.994874
1.00055 0.997569 0.986191
0.996391 0.996104 0.973636
0.999985 0.994886 0.943381
0.999959 0.996792 0.989989
0.998449 0.996064 0.974542
1.00312 0.995504 0.990976
1.0028 0.997636 0.987454
1.0044 0.994861 0.991148
1.0046 0.997512 0.990654
1.00473 0.995511 0.990306
1.00518 0.994876 0.990477
1.00522 0.994863 0.990399
1.00518 0.994958 0.990077
1.00513 0.994938 0.990488
1.00519 0.994936 0.990493
1.00507 0.995147 0.990356
1.00517 0.995008 0.99045
1.00516 0.995443 0.990145
1.00513 0.995329 0.990111
1.00514 0.995853 0.989726
1.00515 0.997067 0.988664
1.00513 0.996514 0.989272
1.00516 0.997851 0.987988
1.0052 0.999124 0.98667
1.00518 0.998851 0.986868
1.0052 0.999621 0.98616
1.00518 1.00014 0.985631
1.00424 1.00044 0.986921
1.00511 1.00037 0.985438
1.00521 1.00033 0.985366
1.00142 1.00139 0.990795
1.0038 1.00124 0.986886
1.00494 1.00082 0.985347
1.00019 0.999962 0.997746
1.00109 1.00172 0.991077
1.00287 1.00268 0.987043
1.00013 0.999606 0.997938
1.0007 1.00177 0.991839
1.00004 0.999177 0.998169
1.00509 1.00124 0.984561
1.00429 1.00239 0.984939
1.00358 1.00286 0.985767
1.00327 1.00304 0.986758
1.002 1.00409 0.987276
1.00111 1.00423 0.988798
1.00088 1.00411 0.988971
1.00048 1.00391 0.990026
0.999915 1.00104 0.993879
1.00023 1.00342 0.990882
0.99991 1.00041 0.994462
0.99972 0.998496 0.998673
0.999973 0.999915 0.994815
0.99978 0.998088 0.998806
0.999862 0.997752 0.9989
1.00102 0.994874 0.990147
0.996687 0.994879 0.969647
0.999995 0.994914 0.952753
1.00497 0.999675 0.986153
1.00517 0.999269 0.986368
1.00509 1.00078 0.984792
1.00231 1.00322 0.987694
1.0044 1.0029 0.98444
1.00399 1.00059 0.987038
1.00503 0.997238 0.988071
1.00392 0.999387 0.988653
1.00468 0.995855 0.98996
1.00484 0.996427 0.989506
1.005 0.995408 0.990057
1.00413 0.995428 0.991734
1.0038 0.995697 0.991999
1.00404 0.995654 0.991191
1.00016 0.996769 0.992085
0.995903 0.995504 0.968016
1.00009 0.996471 0.996505
1.00423 0.995524 0.991814
1.00048 0.997623 0.986383
0.996286 0.995795 0.971418
1.00297 0.994889 0.991296
1.00286 0.997425 0.987984
1.00447 0.99498 0.991534
1.00462 0.996735 0.990636
1.00525 0.994934 0.990438
1.0053 0.99497 0.990638
1.00519 0.994878 0.990368
1.00522 0.994886 0.990381
1.0052 0.994923 0.990418
1.00512 0.994934 0.990482
1.00519 0.994937 0.99049
1.00519 0.995114 0.990419
1.00516 0.994975 0.990429
1.00516 0.995425 0.990129
1.00515 0.996413 0.989307
1.00515 0.995866 0.98971
1.00515 0.997087 0.988663
1.00521 0.998617 0.987117
1.00516 0.997704 0.988166
1.0052 0.999067 0.986736
1.0052 0.999949 0.985786
1.0052 0.999622 0.986148
1.00517 1.00011 0.985662
1.00438 1.00018 0.986942
1.0017 1.00077 0.990886
1.00422 1.00048 0.986909
1.00507 1.00045 0.985421
1.00028 1.00026 0.997542
1.00148 1.00131 0.990795
1.00371 1.00135 0.986888
1.00025 1.00005 0.997653
1.0012 1.00161 0.991074
1.00021 0.999725 0.997814
1.00518 1.00022 0.98539
1.00509 1.00115 0.984621
1.00471 1.00121 0.985347
1.00433 1.0023 0.984938
1.00355 1.00287 0.985782
1.00202 1.00373 0.987619
1.00207 1.00415 0.987225
1.00089 1.00441 0.98882
1.00013 1.0018 0.99285
1.00033 1.0041 0.990031
0.999884 1.001 0.993906
0.99972 0.998949 0.998482
0.999901 1.00036 0.994486
0.99971 0.99842 0.998716
0.999783 0.998031 0.998831
1.0041 0.994853 0.992508
1.001 0.994893 0.988365
0.996563 0.994883 0.968958
1.00512 0.998418 0.987403
1.00506 0.999253 0.986389
1.00522 0.997936 0.987601
1.00518 0.999235 0.986369
1.00506 1.00067 0.98496
1.00513 0.996332 0.988931
1.00419 1.00042 0.987114
1.00501 0.997483 0.988065
1.00518 0.995036 0.990193
1.00488 0.996532 0.989686
1.00497 0.995518 0.989943
1.00416 0.995508 0.991871
1.0033 0.995854 0.9919
1.00045 0.996455 0.992119
1.00526 0.994906 0.990477
1.00418 0.996259 0.991895
1.00053 0.997308 0.986565
1.00451 0.99516 0.991912
1.00462 0.996028 0.990623
1.00524 0.994923 0.990479
1.0053 0.995015 0.990563
1.00523 0.994946 0.990634
1.00522 0.994907 0.990364
1.0052 0.994924 0.990434
1.00518 0.994942 0.990628
1.00518 0.994935 0.990487
1.00518 0.995103 0.990391
1.00516 0.995881 0.989813
1.00517 0.995419 0.990113
1.00515 0.996439 0.989302
1.00522 0.998122 0.987615
1.00515 0.997107 0.988662
1.00521 0.998624 0.987137
1.00522 0.999777 0.98596
1.0052 0.999009 0.986801
1.0052 0.999945 0.985805
1.00443 1.00011 0.986937
1.00517 1.00008 0.985693
1.00438 1.00019 0.986939
1.00177 1.00038 0.992552
1.0005 1.00008 0.994664
1.00175 1.00073 0.991598
1.00421 1.00053 0.986897
1.00031 1.00031 0.997505
1.00161 1.00113 0.990792
1.00029 1.00015 0.99757
1.00524 0.997838 0.987781
1.00523 0.999265 0.986372
1.00519 1.00023 0.985496
1.00495 1.00052 0.985559
1.00511 1.00107 0.98468
1.00477 1.00114 0.985327
1.00322 1.00209 0.987051
1.00354 1.00284 0.985797
1.00199 1.0037 0.987617
1.00064 1.00211 0.991584
1.00072 1.00461 0.98884
1.00001 1.00181 0.992879
0.999835 0.999584 0.998102
0.999856 1.00095 0.993932
0.999675 0.998839 0.998562
0.999707 0.998351 0.998752
1.00525 0.994855 0.990459
1.00444 0.994849 0.992403
1.00116 0.994897 0.98663
1.00516 0.996914 0.988486
1.00512 0.998347 0.987249
1.00511 0.998852 0.986621
1.00521 0.998076 0.987564
1.00519 0.999197 0.98637
1.00523 0.995424 0.990047
1.00511 0.996334 0.988892
1.00498 0.997747 0.988057
1.00518 0.995001 0.990199
1.00498 0.995606 0.989828
1.00416 0.995613 0.992029
1.00523 0.994905 0.990731
1.00526 0.994907 0.99065
1.00411 0.997001 0.991981
1.00523 0.994913 0.990512
1.00531 0.994963 0.990492
1.00524 0.994946 0.990581
1.00515 0.994952 0.990872
1.0052 0.994926 0.990451
1.00518 0.994937 0.990594
1.00517 0.995481 0.99024
1.00518 0.995082 0.990364
1.00517 0.9959 0.989811
1.00522 0.997739 0.988017
1.00515 0.996465 0.989296
1.00522 0.998129 0.987626
1.00523 0.999592 0.986151
1.00521 0.998631 0.987156
1.00522 0.999768 0.985978
1.00447 1.00009 0.986893
1.0052 0.999941 0.985825
1.00444 1.0001 0.986942
1.00187 1.0001 0.99267
1.00439 1.0002 0.986935
1.00193 1.00028 0.992474
1.00049 0.999983 0.994838
1.00029 1.00033 0.996108
1.00192 1.00066 0.992175
1.0003 1.00039 0.99748
1.00518 0.997176 0.988566
1.00525 0.99888 0.986677
1.00523 0.997644 0.987975
1.0051 1.00008 0.985726
1.00523 0.999346 0.986322
1.0052 1.00025 0.985601
1.00501 1.00048 0.985529
1.00399 1.00087 0.986906
1.00482 1.00108 0.985307
1.0033 1.00196 0.987033
1.0012 1.0018 0.990844
1.00193 1.0037 0.987616
1.00046 1.0023 0.991599
0.999986 1.00033 0.997683
0.999862 1.00189 0.992906
0.999722 0.99947 0.998261
0.999654 0.998731 0.99863
1.00523 0.994899 0.990502
1.00523 0.994856 0.990443
1.00473 0.994862 0.992268
1.00518 0.99601 0.989573
1.00514 0.996995 0.988468
1.00513 0.998279 0.987097
1.00519 0.998217 0.987527
1.00522 0.99543 0.989983
1.00508 0.996345 0.988853
1.00517 0.994983 0.990207
1.00517 0.994917 0.990884
1.00522 0.994907 0.990722
1.00525 0.994914 0.990822
1.00517 0.994948 0.990892
1.00524 0.994943 0.990527
1.00516 0.99495 0.990846
1.00517 0.995326 0.99053
1.00518 0.994931 0.99056
1.00517 0.995507 0.990242
1.00521 0.997523 0.988289
1.00518 0.995924 0.98981
1.00522 0.997745 0.988025
1.00523 0.999385 0.986382
1.00522 0.998137 0.987638
1.00523 0.99958 0.986166
1.0045 1.00007 0.986865
1.00522 0.999758 0.985996
1.00448 1.00008 0.986903
1.00195 1.00005 0.992614
1.00445 1.00008 0.986945
1.00201 1.00004 0.992562
1.00054 0.999884 0.994872
1.00209 1.00018 0.992404
1.00018 1.00014 0.995032
0.999845 1.00062 0.997819
1.00516 0.997102 0.988575
1.00522 0.998313 0.987386
1.00519 0.997235 0.988423
1.00524 0.999757 0.98607
1.00525 0.998675 0.98686
1.00523 0.997455 0.988166
1.00435 1.00025 0.986909
1.00515 1.00006 0.985696
1.00524 0.999424 0.986272
1.00508 1.00043 0.9855
1.00402 1.00081 0.986914
1.00153 1.00123 0.990796
1.00337 1.00182 0.987016
1.00108 1.00194 0.990852
1.00003 1.0008 0.99749
1.00031 1.00241 0.991618
0.999882 1.00017 0.997838
0.999644 0.999289 0.998397
1.00516 0.995319 0.9904
1.00524 0.994897 0.990503
1.00523 0.994853 0.990428
1.00518 0.995929 0.989667
1.00513 0.997069 0.988449
1.00521 0.99543 0.989919
1.0052 0.994916 0.990888
1.00517 0.994925 0.990894
1.00522 0.994908 0.990713
1.00516 0.994946 0.990939
1.0052 0.995547 0.990274
1.00516 0.994948 0.99082
1.00517 0.995489 0.990353
1.00521 0.997093 0.98881
1.00517 0.995528 0.990244
1.00521 0.997496 0.988295
1.00523 0.999158 0.986625
1.00522 0.997739 0.988033
1.00523 0.999371 0.986391
1.00452 1 0.986896
1.00523 0.999567 0.986181
1.00451 1.00007 0.986877
1.00199 1.00012 0.992461
1.00449 1.00007 0.986913
1.00207 1 0.992488
1.00061 0.999887 0.99478
1.00214 0.999997 0.992464
1.00027 0.999936 0.995089
0.999892 1.00032 0.995209
1.00517 0.996451 0.989366
1.00521 0.998125 0.987587
1.00517 0.996915 0.988736
1.00524 0.999303 0.986533
1.00522 0.998409 0.987274
1.0052 0.997293 0.98828
1.0045 0.999925 0.986993
1.00524 0.999623 0.986083
1.00526 0.998471 0.987043
1.00171 1.00063 0.991032
1.00436 1.00022 0.986918
1.00519 1.00006 0.985665
1.00405 1.00076 0.986922
1.00147 1.00132 0.990802
1.00006 1.0009 0.997482
1.00096 1.00209 0.990861
1.00001 1.00066 0.997545
0.999755 1.00002 0.998005
1.00518 0.995112 0.990613
1.00516 0.995359 0.99034
1.00524 0.994896 0.990503
1.00517 0.995855 0.989761
1.00517 0.995617 0.990228
1.00519 0.994925 0.990904
1.00517 0.994935 0.990904
1.00516 0.994945 0.990986
1.0052 0.99553 0.990289
1.00523 0.99713 0.988755
1.00516 0.995648 0.990176
1.00522 0.997328 0.988514
1.00522 0.998753 0.987077
1.00521 0.99748 0.9883
1.00523 0.999153 0.986626
1.00453 0.999905 0.986983
1.00523 0.999366 0.986399
1.00452 1 0.986904
1.00205 1.00018 0.990954
1.00451 1.00006 0.986889
1.00211 1.00008 0.991655
1.00051 0.999943 0.997489
1.00219 0.999973 0.992363
1.00036 0.999875 0.995009
1.00002 0.999981 0.99529
1.00519 0.995991 0.989829
1.00522 0.997765 0.988036
1.00517 0.996515 0.989329
1.00523 0.999043 0.98667
1.00521 0.998133 0.987572
1.00518 0.996723 0.988896
1.00454 0.999702 0.986962
1.00525 0.999304 0.986541
1.00521 0.998503 0.987162
1.00188 1.00011 0.991245
1.00449 0.999878 0.986934
1.00524 0.999482 0.986097
1.00016 1.00068 0.997546
1.00171 1.00063 0.991037
1.00436 1.00019 0.986927
1.0014 1.00137 0.99081
1.00007 1.00081 0.997474
0.999945 1.00058 0.997624
1.00516 0.995552 0.99032
1.00519 0.995163 0.990584
1.00516 0.995399 0.99028
1.00518 0.997232 0.988661
1.00518 0.99549 0.990332
1.00518 0.994934 0.990919
1.00521 0.995511 0.990305
1.00523 0.997095 0.988762
1.0052 0.998701 0.987311
1.00522 0.997565 0.988219
1.00522 0.998925 0.986949
1.00451 0.999678 0.987099
1.00523 0.999139 0.986629
1.00453 0.999903 0.986987
1.00206 1.00014 0.990982
1.00453 1 0.986913
1.00206 1.00016 0.990955
1.00051 0.999988 0.997456
1.00213 1.00007 0.990951
1.00041 0.99994 0.996227
1.00012 0.999842 0.995236
1.00518 0.996053 0.989732
1.00521 0.997583 0.988239
1.00519 0.995951 0.989891
1.00523 0.999084 0.986634
1.00522 0.997821 0.987955
1.00517 0.996583 0.989292
1.00456 0.999623 0.98703
1.00523 0.999178 0.986606
1.00521 0.998143 0.987557
1.00201 0.999875 0.991266
1.00453 0.999698 0.986968
1.00525 0.999306 0.986549
1.00032 1.00031 0.997576
1.0019 1.00009 0.991247
1.00448 0.99983 0.986873
1.00016 1.00063 0.997517
1.00171 1.00062 0.991041
1.00004 1.00076 0.997483
1.00517 0.997103 0.988836
1.00515 0.995661 0.990203
1.0052 0.995213 0.990555
1.00519 0.998589 0.987443
1.00518 0.997115 0.988772
1.00519 0.995382 0.990437
1.00523 0.997064 0.988769
1.0052 0.998703 0.987306
1.00448 0.99958 0.987267
1.00522 0.999101 0.986822
1.00452 0.999742 0.987093
1.00206 1.00005 0.991065
1.00453 0.999898 0.986992
1.00205 1.00014 0.990986
1.00049 1.00001 0.997425
1.00206 1.00015 0.990955
1.0005 1 0.997439
1.00049 0.999899 0.994758
1.0052 0.997477 0.988315
1.00517 0.995881 0.989901
1.00522 0.998951 0.986813
1.00522 0.997589 0.988224
1.0052 0.995912 0.989954
1.00455 0.999685 0.987175
1.00523 0.999093 0.986629
1.00522 0.997875 0.987874
1.00209 0.999858 0.991161
1.00455 0.999673 0.987058
1.00523 0.999317 0.986541
1.00048 1.00005 0.997532
1.00202 0.999868 0.991267
1.00452 0.999688 0.986973
1.0003 1.00033 0.997567
1.00191 1.00008 0.991249
1.00017 1.00061 0.997493
1.0052 0.998577 0.987418
1.00517 0.997186 0.988737
1.00515 0.995762 0.990086
1.00445 0.999532 0.98737
1.00519 0.998595 0.987441
1.00518 0.99699 0.988883
1.00521 0.998708 0.987301
1.00449 0.999571 0.987245
1.00202 1.00001 0.991188
1.00452 0.999805 0.987086
1.00205 1.00006 0.991068
1.0005 1.00001 0.997422
1.00205 1.00014 0.990989
1.00049 1.00003 0.997427
1.0005 1.00001 0.997428
1.00522 0.998833 0.986952
1.00521 0.997241 0.988569
1.00515 0.995705 0.990071
1.00451 0.999666 0.987281
1.00522 0.998959 0.986803
1.00522 0.997595 0.988209
1.00209 0.999944 0.9911
1.00453 0.999691 0.987169
1.00522 0.999102 0.986625
1.00055 0.99995 0.997462
1.00209 0.999875 0.991161
1.00454 0.999717 0.987087
1.00044 1.00009 0.997552
1.00203 0.999879 0.991269
1.00031 1.00032 0.997549
1.00444 0.99964 0.987406
1.0052 0.998511 0.987418
1.00517 0.997267 0.988639
1.00199 0.999944 0.991323
1.00445 0.999514 0.987359
1.0052 0.998598 0.987438
1.00451 0.999557 0.987224
1.00202 0.999986 0.991194
1.00048 1.00001 0.99742
1.00203 1.00007 0.991072
1.00049 1.00002 0.997416
1.00047 1.00004 0.997427
1.00446 0.999649 0.987367
1.00521 0.998691 0.987101
1.00521 0.997009 0.988823
1.00214 0.999996 0.992392
1.00449 0.999666 0.987282
1.00521 0.998968 0.986792
1.00053 0.999957 0.997424
1.00209 0.999964 0.9911
1.00452 0.999697 0.987163
1.00053 0.99998 0.99749
1.00209 0.9999 0.991161
1.00042 1.0001 0.997567
1.00204 0.999945 0.991263
1.00444 0.999573 0.987393
1.0052 0.998444 0.987417
1.00043 0.999992 0.997457
1.00197 0.999944 0.991321
1.00447 0.999499 0.987347
1.00202 0.99997 0.991197
1.00046 1.00001 0.99743
1.00048 1.00003 0.997416
1.00216 0.999974 0.992426
1.00446 0.999647 0.987367
1.00521 0.998546 0.987251
1.00012 0.999995 0.997819
1.00205 1 0.991157
1.00448 0.999663 0.987283
1.00054 0.999969 0.997443
1.00209 0.999985 0.991099
1.00051 1 0.997514
1.00042 0.999975 0.994872
1.00206 0.999944 0.991905
1.00444 0.999507 0.987379
1.00045 0.999993 0.997461
1.00198 0.999946 0.991325
1.00048 1 0.997436
1.00003 0.999997 0.995246
1.00208 0.999967 0.991848
1.00445 0.999649 0.987366
1.00029 0.99999 0.996307
1.00204 1 0.991168
1.00054 0.999979 0.997463
1.00044 0.999985 0.997461
1.00197 0.99994 0.991349
1.00042 0.999993 0.997461
1.00024 0.999982 0.996359
1.002 0.999964 0.991286
1.0005 0.999982 0.997443
1.00044 0.999983 0.997473
1.00044 0.999983 0.997461

TENSORS stress float
0.00180622 -0.000105892 0.000193932
-0.000105892 0.000743003 -2.79345e-05
0.000193932 -2.79345e-05 0.000720981
0.0056485 -7.67658e-05 0.000194363
-7.67658e-05 0.00307015 2.03347e-05
0.000194363 2.03347e-05 0.00305527
0.00156125 -3.69524e-05 8.79821e-05
-3.69524e-05 0.000601737 -1.10433e-05
8.79821e-05 -1.10433e-05 0.000570394
0.00191081 -6.22751e-05 0.000192697
-6.22751e-05 0.0007809 -1.72146e-05
0.000192697 -1.72146e-05 0.00076365
0.00186619 -9.46136e-05 0.000189975
-9.46136e-05 0.000769953 -2.50378e-05
0.000189975 -2.50378e-05 0.000749932
0.00174004 -0.000103548 0.000199079
-0.000103548 0.000703205 -2.79796e-05
0.000199079 -2.79796e-05 0.000682467
0.00153661 -8.36204e-05 3.22056e-05
-8.36204e-05 0.000505204 -1.03386e-05
3.22056e-05 -1.03386e-05 0.000417446
0.00558644 -8.29455e-05 -7.09129e-06
-8.29455e-05 0.00302236 1.2293e-07
-7.09129e-06 1.2293e-07 0.00301291
0.00556183 9.4686e-05 9.21523e-05
9.4686e-05 0.00297709 6.23826e-06
9.21523e-05 6.23826e-06 0.00296167
0.00535195 -0.000174152 2.83302e-05
-0.000174152 0.002884 2.59666e-06
2.83302e-05 2.59666e-06 0.00285392
0.00170898 0.000111656 0.000197214
0.000111656 0.000679273 1.96019e-05
0.000197214 1.96019e-05 0.000671026
0.000613292 0.000202288 2.39949e-05
0.000202288 -3.01305e-05 1.51313e-05
2.39949e-05 1.51313e-05 -0.000128941
0.00166536 -3.36981e-05 0.000200086
-3.36981e-05 0.000629958 2.7515e-06
0.000200086 2.7515e-06 0.000623497
0.00129853 -8.17119e-06 4.01329e-05
-8.17119e-06 0.000432943 1.14898e-06
4.01329e-05 1.14898e-06 0.000394538
0.00138121 -3.04679e-05 -3.45777e-05
-3.04679e-05 0.000497098 6.13843e-06
-3.45777e-05 6.13843e-06 0.000458627
0.00160409 -6.58552e-05 6.66891e-05
-6.58552e-05 0.000611324 -3.83263e-06
6.66891e-05 -3.83263e-06 0.000582714
0.00155504 -2.03924e-05 9.50124e-05
-2.03924e-05 0.000605816 -1.08432e-05
9.50124e-05 -1.08432e-05 0.000570448
0.00157842 -5.15224e-05 7.8268e-05
-5.15224e-05 0.000600873 -9.33241e-06
7.8268e-05 -9.33241e-06 0.000573625
0.00160293 -0.000124001 -3.27742e-05
-0.000124001 0.000537347 3.61363e-06
-3.27742e-05 3.61363e-06 0.000458107
0.00557979 -0.000114786 0.000244415
-0.000114786 0.00299557 -7.85734e-06
0.000244415 -7.85734e-06 0.00300214
0.00187871 -4.36119e-05 0.00019445
-4.36119e-05 0.00075955 -1.28365e-05
0.00019445 -1.28365e-05 0.000743408
0.00191299 -8.02371e-05 0.000190716
-8.02371e-05 0.000788295 -2.13809e-05
0.000190716 -2.13809e-05 0.000770161
0.00155856 -0.000109776 5.35041e-05
-0.000109776 0.000492991 -8.15634e-06
5.35041e-05 -8.15634e-06 0.00041423
0.00155017 -9.71513e-05 4.13954e-05
-9.71513e-05 0.000496603 -9.54348e-06
4.13954e-05 -9.54348e-06 0.000416286
0.00166548 -7.59891e-05 0.000192786
-7.59891e-05 0.000651037 -2.42565e-05
0.000192786 -2.42565e-05 0.00063379
0.00150437 -7.19105e-05 2.48089e-05
-7.19105e-05 0.000506247 -1.12022e-05
2.48089e-05 -1.12022e-05 0.000409191
0.00201391 -0.000229188 1.44784e-05
-0.000229188 0.000643982 -6.50133e-06
1.44784e-05 -6.50133e-06 0.000492718
0.00554097 -9.73739e-05 -0.000192028
-9.73739e-05 0.00298633 -1.20641e-05
-0.000192028 -1.20641e-05 0.00298125
0.003589 8.57618e-05 -0.000111687
8.57618e-05 0.00180236 -9.89665e-06
-0.000111687 -9.89665e-06 0.00178359
0.00347335 -2.15472e-05 -0.000105794
-2.15472e-05 0.00175458 -6.17871e-06
-0.000105794 -6.17871e-06 0.00173096
0.00538995 -0.000146788 -2.31185e-07
-0.000146788 0.00291894 5.50552e-07
-2.31185e-07 5.50552e-07 0.00290163
0.000570141 0.000188789 -2.28755e-06
0.000188789 -5.50848e-05 -6.78134e-07
-2.28755e-06 -6.78134e-07 -0.000151911
0.00161851 5.56904e-05 0.000196324
5.56904e-05 0.000611851 1.56576e-05
0.000196324 1.56576e-05 0.000596196
0.0017657 0.000131876 0.000199086
0.000131876 0.000724448 2.35797e-05
0.000199086 2.35797e-05 0.000702169
0.00264117 0.000179887 0.000121204
0.000179887 0.00114311 1.58124e-05
0.000121204 1.58124e-05 0.00107511
0.00429179 -0.000291083 -5.28791e-06
-0.000291083 0.0023003 5.53418e-06
-5.28791e-06 5.53418e-06 0.00224947
0.00273813 0.000230249 0.000121821
0.000230249 0.00123004 1.83655e-05
0.000121821 1.83655e-05 0.00115535
0.000568374 0.000165539 2.75495e-05
0.000165539 -5.1604e-05 1.91717e-05
2.75495e-05 1.91717e-05 -0.000144426
0.000867779 0.000185033 1.04835e-05
0.000185033 2.78227e-05 5.70871e-06
1.04835e-05 5.70871e-06 -0.0001403
0.00339089 -0.000104878 0.000113716
-0.000104878 0.00171612 5.30133e-06
0.000113716 5.30133e-06 0.00171971
0.00558087 6.9998e-05 3.61843e-06
6.9998e-05 0.00298712 -1.42646e-06
3.61843e-06 -1.42646e-06 0.00299883
0.00352545 6.55183e-05 -9.25417e-05
6.55183e-05 0.00175873 -3.49208e-06
-9.25417e-05 -3.49208e-06 0.00174515
0.00548211 6.01785e-05 0.000239374
6.01785e-05 0.00293062 2.91656e-06
0.000239374 2.91656e-06 0.00294238
0.00129894 7.49024e-05 4.3424e-05
7.49024e-05 0.000431138 2.44245e-06
4.3424e-05 2.44245e-06 0.000397412
0.000653245 9.31222e-06 1.61851e-05
9.31222e-06 -7.53496e-05 1.67511e-06
1.61851e-05 1.67511e-06 -0.00014966
0.0054716 0.000195255 0.000125561
0.000195255 0.00294673 1.11055e-05
0.000125561 1.11055e-05 0.00292403
0.00270508 6.00683e-05 0.000117874
6.00683e-05 0.00114799 6.98189e-06
0.000117874 6.98189e-06 0.00109538
0.0012366 -7.41241e-05 -5.40222e-05
-7.41241e-05 0.000407434 6.7014e-06
-5.40222e-05 6.7014e-06 0.000366061
0.00128875 -7.1209e-05 -4.66297e-05
-7.1209e-05 0.000441317 7.2778e-06
-4.66297e-05 7.2778e-06 0.000401868
0.00144286 2.01598e-05 -2.28608e-05
2.01598e-05 0.000540318 5.98703e-06
-2.28608e-05 5.98703e-06 0.000497976
0.00162971 -0.00013262 -0.000104994
-0.00013262 0.00054652 1.72264e-05
-0.000104994 1.72264e-05 0.000474688
0.00349977 6.65862e-06 -9.77248e-05
6.65862e-06 0.00175 -1.92925e-06
-9.77248e-05 -1.92925e-06 0.00173425
0.00159443 -4.95442e-05 7.31577e-05
-4.95442e-05 0.000600448 -3.22149e-06
7.31577e-05 -3.22149e-06 0.000574187
0.00150974 4.24291e-06 9.76871e-05
4.24291e-06 0.000581562 -8.73052e-06
9.76871e-05 -8.73052e-06 0.000545189
0.00159757 -6.00524e-05 7.12025e-05
-6.00524e-05 0.000606867 -6.5222e-06
7.12025e-05 -6.5222e-06 0.000580194
0.00161466 -9.06246e-05 -2.63015e-05
-9.06246e-05 0.000518854 1.27814e-06
-2.63015e-05 1.27814e-06 0.000447829
0.00158136 -0.000117294 -3.79623e-05
-0.000117294 0.000538445 3.68505e-06
-3.79623e-05 3.68505e-06 0.000453518
0.00160858 -0.000120327 -2.787e-05
-0.000120327 0.000529401 2.59351e-06
-2.787e-05 2.59351e-06 0.000454521
0.00201364 -0.000228168 -7.45366e-06
-0.000228168 0.000641197 2.00436e-06
-7.45366e-06 2.00436e-06 0.00049018
0.00545355 3.61302e-05 0.000233723
3.61302e-05 0.0029129 -3.06659e-07
0.000233723 -3.06659e-07 0.00292549
0.00184425 -2.39151e-05 0.000193773
-2.39151e-05 0.00074145 -8.8079e-06
0.000193773 -8.8079e-06 0.000727143
0.00242246 1.46733e-05 3.79388e-05
1.46733e-05 0.000996789 -9.51105e-07
3.79388e-05 -9.51105e-07 0.000935365
0.00155746 -8.87397e-05 4.6966e-05
-8.87397e-05 0.000483916 -5.51232e-06
4.6966e-05 -5.51232e-06 0.000409759
0.00155591 -0.000105152 4.88375e-05
-0.000105152 0.00049271 -9.00083e-06
4.88375e-05 -9.00083e-06 0.000414387
0.00190226 -0.00014265 1.15893e-05
-0.00014265 0.000521523 -3.06827e-06
1.15893e-05 -3.06827e-06 0.000391825
0.00168112 -0.000187907 1.59522e-05
-0.000187907 0.000420792 -5.75368e-06
1.59522e-05 -5.75368e-06 0.000277501
0.00123393 -3.47774e-05 0.000156283
-3.47774e-05 0.000394826 -1.73922e-05
0.000156283 -1.73922e-05 0.000381566
0.0013592 -2.79996e-05 1.5849e-05
-2.79996e-05 0.000443051 -1.12705e-05
1.5849e-05 -1.12705e-05 0.000346491
0.00197812 -0.000246912 1.34875e-05
-0.000246912 0.000651237 -7.14349e-06
1.34875e-05 -7.14349e-06 0.000490279
0.00129265 -0.000238642 7.65238e-06
-0.000238642 8.98998e-05 -2.40641e-06
7.65238e-06 -2.40641e-06 -9.70261e-05
0.00583942 0.000162418 -0.000249107
0.000162418 0.00314354 -2.18382e-05
-0.000249107 -2.18382e-05 0.00314661
0.00506317 -0.000172833 -0.000149067
-0.000172833 0.00272764 -1.00433e-05
-0.000149067 -1.00433e-05 0.00270939
0.0056048 -2.06731e-05 -0.000210062
-2.06731e-05 0.0030122 -1.46404e-05
-0.000210062 -1.46404e-05 0.00301512
0.000528305 0.000183224 -2.43285e-05
0.000183224 -7.5927e-05 -1.52706e-05
-2.43285e-05 -1.52706e-05 -0.000173821
0.00584394 0.000174585 -2.88253e-06
0.000174585 0.00314521 -1.93983e-06
-2.88253e-06 -1.93983e-06 0.00314837
0.00585988 9.61256e-05 -8.78399e-06
9.61256e-05 0.00315694 -1.50548e-06
-8.78399e-06 -1.50548e-06 0.00315995
0.000509386 0.000122843 -8.77869e-08
0.000122843 -0.00013051 -2.19281e-07
-8.77869e-08 -2.19281e-07 -0.000220799
0.00279163 -0.000134542 -6.19061e-05
-0.000134542 0.0013738 -2.699e-06
-6.19061e-05 -2.699e-06 0.00134285
0.000512485 0.000184183 -4.51818e-07
0.000184183 -9.22601e-05 -3.80685e-07
-4.51818e-07 -3.80685e-07 -0.000191033
0.00159207 0.000147579 4.06032e-05
0.000147579 0.000567639 1.18021e-06
4.06032e-05 1.18021e-06 0.000489133
0.000871263 0.000183028 -3.41904e-08
0.000183028 2.59031e-05 3.08441e-07
-3.41904e-08 3.08441e-07 -0.000141495
0.00405424 -0.000111993 0.000141668
-0.000111993 0.00211234 8.39155e-06
0.000141668 8.39155e-06 0.0021122
0.000657493 -2.07956e-05 5.30185e-06
-2.07956e-05 6.25134e-05 9.08835e-06
5.30185e-06 9.08835e-06 1.82867e-05
0.000622735 9.26926e-05 1.68783e-05
9.26926e-05 -8.32596e-05 8.86647e-06
1.68783e-05 8.86647e-06 -0.000168802
0.000661679 0.000148451 2.17906e-05
0.000148451 -2.68769e-05 1.53224e-05
2.17906e-05 1.53224e-05 -0.000123117
0.00099526 0.000156142 1.37896e-05
0.000156142 -2.88487e-06 5.47287e-06
1.37896e-05 5.47287e-06 -0.000154838
0.00256604 8.25886e-05 9.17898e-05
8.25886e-05 0.00117102 1.2268e-05
9.17898e-05 1.2268e-05 0.00111413
0.000908089 0.000178561 1.18323e-05
0.000178561 1.59117e-05 6.55769e-06
1.18323e-05 6.55769e-06 -0.000145397
0.000847949 0.000194386 1.03792e-05
0.000194386 8.16889e-05 5.15718e-06
1.03792e-05 5.15718e-06 -9.69305e-05
0.001106 0.000238096 5.30303e-06
0.000238096 9.8436e-05 1.58504e-06
5.30303e-06 1.58504e-06 -0.000107608
0.00283455 -0.000120453 6.51282e-05
-0.000120453 0.00138237 2.4176e-06
6.51282e-05 2.4176e-06 0.00138236
0.00317727 -0.00013843 1.22084e-05
-0.00013843 0.00159435 -2.98094e-07
1.22084e-05 -2.98094e-07 0.00158936
0.0057714 2.87679e-05 -0.000241795
2.87679e-05 0.00309318 -1.03318e-05
-0.000241795 -1.03318e-05 0.00310363
0.00563887 6.0241e-05 -0.000244675
6.0241e-05 0.00301895 -6.26132e-06
-0.000244675 -6.26132e-06 0.00303152
0.00555583 8.40835e-05 -1.49869e-07
8.40835e-05 0.0029805 -2.81096e-06
-1.49869e-07 -2.81096e-06 0.00298825
0.00347581 1.59083e-05 -0.000106164
1.59083e-05 0.00172747 -4.4294e-06
-0.000106164 -4.4294e-06 0.00171746
0.00164882 3.35211e-05 5.05265e-05
3.35211e-05 0.000520436 1.04828e-06
5.05265e-05 1.04828e-06 0.000458773
0.00361322 0.000113886 -9.44078e-05
0.000113886 0.00181508 -4.84012e-06
-9.44078e-05 -4.84012e-06 0.00179668
0.00168656 7.89254e-05 4.9947e-05
7.89254e-05 0.000543899 2.01788e-06
4.9947e-05 2.01788e-06 0.000476632
0.00552932 0.000138276 0.000242204
0.000138276 0.00297465 6.05011e-06
0.000242204 6.05011e-06 0.00297635
0.000578253 1.0471e-05 1.86095e-05
1.0471e-05 -0.000116595 5.54191e-07
1.86095e-05 5.54191e-07 -0.000189047
0.00272224 2.71285e-05 0.000117796
2.71285e-05 0.0011575 4.66243e-06
0.000117796 4.66243e-06 0.00110811
0.00102407 3.77719e-05 1.24623e-05
3.77719e-05 -1.94278e-05 1.21283e-06
1.24623e-05 1.21283e-06 -0.000142793
0.00262848 0.000102399 0.000120333
0.000102399 0.00110993 8.96677e-06
0.000120333 8.96677e-06 0.00105313
0.0010484 8.94327e-05 1.21763e-05
8.94327e-05 -7.68894e-06 2.512e-06
1.21763e-05 2.512e-06 -0.000140774
0.00167658 4.23641e-05 -0.000198685
4.23641e-05 0.000637618 1.82242e-06
-0.000198685 1.82242e-06 0.000631559
0.00127729 -1.43176e-06 -4.09855e-05
-1.43176e-06 0.0004229 1.81581e-06
-4.09855e-05 1.81581e-06 0.000385276
0.0014267 6.48244e-05 -1.34996e-05
6.48244e-05 0.000541759 6.51729e-06
-1.34996e-05 6.51729e-06 0.000493783
0.00124267 -7.99966e-05 -5.46783e-05
-7.99966e-05 0.000412957 7.70964e-06
-5.46783e-05 7.70964e-06 0.000372409
0.00173086 -7.05528e-05 -0.000103258
-7.05528e-05 0.000579995 8.99866e-06
-0.000103258 8.99866e-06 0.000517131
0.00168142 -0.000112859 -0.000103015
-0.000112859 0.00056546 1.48416e-05
-0.000103015 1.48416e-05 0.000498265
0.00159674 -0.000139895 -0.000106652
-0.000139895 0.000538738 1.8015e-05
-0.000106652 1.8015e-05 0.000462373
0.00201553 -0.000227303 -2.78579e-05
-0.000227303 0.000640275 9.83878e-06
-2.78579e-05 9.83878e-06 0.000489585
0.00554414 -8.70776e-05 2.03952e-06
-8.70776e-05 0.00297433 -1.51963e-06
2.03952e-06 -1.51963e-06 0.0029816
0.00152958 4.32344e-05 8.14305e-05
4.32344e-05 0.000560286 -3.14109e-06
8.14305e-05 -3.14109e-06 0.000537639
0.00113332 -2.50246e-06 -5.36329e-05
-2.50246e-06 0.000217111 1.0503e-06
-5.36329e-05 1.0503e-06 0.000153912
0.00161672 -5.47077e-05 -3.01498e-05
-5.47077e-05 0.000514398 1.80312e-06
-3.01498e-05 1.80312e-06 0.000446328
0.00322258 3.64735e-05 0.000167271
3.64735e-05 0.00160913 -4.69441e-06
0.000167271 -4.69441e-06 0.00159692
0.00201793 -9.87141e-05 -3.37513e-05
-9.87141e-05 0.000818243 1.05328e-06
-3.37513e-05 1.05328e-06 0.000733936
0.00161702 -0.000107974 -2.5638e-05
-0.000107974 0.000525956 1.74568e-06
-2.5638e-05 1.74568e-06 0.000453511
0.00183265 -0.000137395 -8.98001e-06
-0.000137395 0.00047766 1.58743e-06
-8.98001e-06 1.58743e-06 0.000347795
0.0020006 -0.000249169 -6.24364e-06
-0.000249169 0.000663338 1.83037e-06
-6.24364e-06 1.83037e-06 0.000501823
0.00185496 -0.000195239 -4.8536e-06
-0.000195239 0.000523553 1.21216e-06
-4.8536e-06 1.21216e-06 0.000380738
0.00130143 -0.00023931 2.85632e-07
-0.00023931 9.41532e-05 -1.25899e-07
2.85632e-07 -1.25899e-07 -9.25534e-05
0.000614898 1.28683e-05 1.91787e-05
1.28683e-05 -9.74945e-05 -1.13838e-06
1.91787e-05 -1.13838e-06 -0.000166808
0.00149327 1.36754e-05 3.80691e-05
1.36754e-05 0.000440876 -2.59769e-06
3.80691e-05 -2.59769e-06 0.00037269
0.00165757 -3.54925e-05 1.26752e-05
-3.54925e-05 0.000362783 -1.03955e-06
1.26752e-05 -1.03955e-06 0.000248589
0.00166772 -0.000107382 1.25042e-05
-0.000107382 0.000373316 -2.38848e-06
1.25042e-05 -2.38848e-06 0.00024759
0.00166457 -0.00016087 1.45679e-05
-0.00016087 0.000389037 -4.33795e-06
1.45679e-05 -4.33795e-06 0.000252706
0.00172768 -0.000178952 1.47276e-06
-0.000178952 0.000250793 -6.76148e-07
1.47276e-06 -6.76148e-07 9.75753e-05
0.00445922 0.000171962 0.000125963
0.000171962 0.00237593 -7.80762e-06
0.000125963 -7.80762e-06 0.00235826
0.00134207 -0.000222891 6.30359e-06
-0.000222891 8.5786e-05 -1.94091e-06
6.30359e-06 -1.94091e-06 -9.10153e-05
0.000329583 -0.000103612 1.72598e-05
-0.000103612 -0.000178237 -1.48745e-05
1.72598e-05 -1.48745e-05 -0.000253548
0.000844827 -0.000185436 1.04928e-05
-0.000185436 1.42007e-05 -7.01081e-06
1.04928e-05 -7.01081e-06 -0.000153024
0.00133046 -0.000260088 8.65366e-06
-0.000260088 0.000150508 -3.27638e-06
8.65366e-06 -3.27638e-06 -4.90003e-05
0.00158777 -0.000310816 3.45235e-06
-0.000310816 0.000149377 5.58415e-07
3.45235e-06 5.58415e-07 -5.05623e-05
0.000376191 -3.82073e-05 9.5412e-06
-3.82073e-05 -0.000114332 -1.18543e-05
9.5412e-06 -1.18543e-05 -0.000173039
0.000670415 -4.65067e-05 1.04891e-06
-4.65067e-05 7.01204e-05 -4.09432e-06
1.04891e-06 -4.09432e-06 -5.47824e-05
0.00585873 0.000191544 -0.000260012
0.000191544 0.00315867 -2.22172e-05
-0.000260012 -2.22172e-05 0.00315952
0.00572998 7.79412e-05 -0.000229403
7.79412e-05 0.0030782 -1.84609e-05
-0.000229403 -1.84609e-05 0.00308434
0.000507396 0.000116695 -1.84244e-05
0.000116695 -0.000133579 -1.05672e-05
-1.84244e-05 -1.05672e-05 -0.000223748
0.0043688 -0.000178155 -0.000122689
-0.000178155 0.00231857 -6.98637e-06
-0.000122689 -6.98637e-06 0.00230218
0.000438402 0.000132928 -2.05208e-05
0.000132928 -0.000123719 -1.49577e-05
-2.05208e-05 -1.49577e-05 -0.00020414
0.000465347 0.000168302 -2.03443e-05
0.000168302 -0.000116299 -1.46044e-05
-2.03443e-05 -1.46044e-05 -0.000216551
0.000893301 0.000183871 -1.22356e-05
0.000183871 3.51803e-05 -5.44417e-06
-1.22356e-05 -5.44417e-06 -0.000131953
0.00385108 -0.000135485 9.07712e-06
-0.000135485 0.00199814 -5.80023e-07
9.07712e-06 -5.80023e-07 0.00199349
0.000529746 -3.2187e-05 3.8771e-07
-3.2187e-05 -8.95348e-06 5.43753e-07
3.8771e-07 5.43753e-07 -5.33561e-05
0.00165912 0.000122277 5.03905e-05
0.000122277 0.000539205 3.46608e-06
5.03905e-05 3.46608e-06 0.000464383
0.00161559 0.000174138 4.92154e-05
0.000174138 0.000546931 3.27212e-06
4.92154e-05 3.27212e-06 0.000461806
0.000971955 0.000155983 6.72438e-08
0.000155983 -1.24713e-05 -2.16392e-07
6.72438e-08 -2.16392e-07 -0.000164918
0.000600971 7.80879e-05 -4.71911e-07
7.80879e-05 -2.8957e-06 8.41742e-08
-4.71911e-07 8.41742e-08 -7.0657e-05
0.000930121 0.000180641 7.20029e-07
0.000180641 2.96696e-05 8.14578e-08
7.20029e-07 8.14578e-08 -0.000131917
0.000852075 0.000184367 6.22014e-07
0.000184367 8.02175e-05 -1.46067e-06
6.22014e-07 -1.46067e-06 -9.64037e-05
0.00098726 0.000230502 -7.19125e-07
0.000230502 2.58732e-05 2.20604e-07
-7.19125e-07 2.20604e-07 -0.00017936
0.000678144 3.29641e-05 1.22933e-05
3.29641e-05 6.11767e-05 1.10451e-05
1.22933e-05 1.10451e-05 4.86374e-06
0.00061462 -5.53507e-05 1.00841e-06
-5.53507e-05 4.25536e-05 7.1085e-06
1.00841e-06 7.1085e-06 5.85458e-06
0.000926974 8.61057e-05 3.3283e-06
8.61057e-05 0.000239066 4.71579e-06
3.3283e-06 4.71579e-06 0.000115735
0.00101788 0.000135617 1.32049e-05
0.000135617 -1.00585e-05 4.36842e-06
1.32049e-05 4.36842e-06 -0.000155926
0.000933067 0.000170675 1.35387e-05
0.000170675 -8.00665e-06 6.24634e-06
1.35387e-05 6.24634e-06 -0.000165428
0.00138377 0.000237363 5.66934e-06
0.000237363 0.000101696 1.43071e-06
5.66934e-06 1.43071e-06 -8.3519e-05
0.000853561 0.000189476 7.61116e-06
0.000189476 0.000150661 7.32708e-06
7.61116e-06 7.32708e-06 -2.35396e-05
0.00101913 0.000232909 5.21161e-06
0.000232909 -4.28628e-06 2.07518e-06
5.21161e-06 2.07518e-06 -0.000201552
0.00133592 0.00026815 6.18405e-06
0.00026815 0.000291774 9.2928e-07
6.18405e-06 9.2928e-07 6.38569e-05
0.00145953 0.000291598 -5.46013e-07
0.000291598 0.000253831 -5.35567e-07
-5.46013e-07 -5.35567e-07 3.17036e-05
0.00255794 -0.000121251 3.42487e-05
-0.000121251 0.00121298 2.96311e-06
3.42487e-05 2.96311e-06 0.00121236
0.00272252 -0.000136214 8.06219e-06
-0.000136214 0.00131899 -6.78307e-07
8.06219e-06 -6.78307e-07 0.00131426
0.0029795 -0.000156066 -4.84879e-05
-0.000156066 0.00148065 -2.49409e-06
-4.84879e-05 -2.49409e-06 0.00147028
0.000388879 -1.7858e-05 7.01353e-06
-1.7858e-05 -9.98068e-05 -9.7033e-06
7.01353e-06 -9.7033e-06 -0.000150589
0.00397033 0.000148595 0.000109474
0.000148595 0.00207689 -6.15375e-06
0.000109474 -6.15375e-06 0.00206614
0.00585437 0.000177361 -0.000262759
0.000177361 0.00315467 -1.94392e-05
-0.000262759 -1.94392e-05 0.00315745
0.00565065 6.76692e-05 -0.000242257
6.76692e-05 0.00302399 -8.70271e-06
-0.000242257 -8.70271e-06 0.00303583
0.000593794 8.99584e-05 -1.96932e-05
8.99584e-05 -0.0001076 -4.80326e-06
-1.96932e-05 -4.80326e-06 -0.00018622
0.000576456 4.03502e-05 -1.92592e-05
4.03502e-05 -0.000115993 -2.33278e-06
-1.92592e-05 -2.33278e-06 -0.000191158
0.00549167 -1.34477e-05 -0.000234535
-1.34477e-05 0.002933 -1.51649e-06
-0.000234535 -1.51649e-06 0.00294649
0.00546714 1.717e-05 -6.13605e-07
1.717e-05 0.00291952 -4.91723e-07
-6.13605e-07 -4.91723e-07 0.00293274
0.000559565 8.28507e-07 -1.45375e-07
8.28507e-07 -0.000130004 -2.142e-08
-1.45375e-07 -2.142e-08 -0.000200777
0.00163347 3.22677e-05 5.04634e-05
3.22677e-05 0.000509253 1.81631e-06
5.04634e-05 1.81631e-06 0.000446963
0.00100043 4.14609e-05 -4.82775e-09
4.14609e-05 -3.40431e-05 -1.29843e-07
-4.82775e-09 -1.29843e-07 -0.000157844
0.000561802 7.53297e-05 -4.04255e-07
7.53297e-05 -0.000122341 -3.05937e-07
-4.04255e-07 -3.05937e-07 -0.000204898
0.00100893 9.0859e-05 -1.21258e-07
9.0859e-05 -3.03204e-05 -1.34436e-07
-1.21258e-07 -1.34436e-07 -0.000164021
0.000553049 -2.79023e-05 1.91087e-05
-2.79023e-05 -0.000135984 -8.70055e-07
1.91087e-05 -8.70055e-07 -0.000204441
0.00100164 1.61834e-05 1.22697e-05
1.61834e-05 -2.88287e-05 5.48579e-07
1.22697e-05 5.48579e-07 -0.000150175
0.00101914 6.3524e-05 1.21725e-05
6.3524e-05 -2.43437e-05 1.91044e-06
1.21725e-05 1.91044e-06 -0.000151826
0.0014917 6.44446e-05 1.24413e-06
6.44446e-05 5.9703e-05 1.4312e-07
1.24413e-06 1.4312e-07 -6.70931e-05
0.00104686 0.000112833 1.25706e-05
0.000112833 -4.46333e-06 3.29209e-06
1.25706e-05 3.29209e-06 -0.000143804
0.00152288 0.000141514 2.29036e-06
0.000141514 8.62954e-05 1.614e-07
2.29036e-06 1.614e-07 -5.81339e-05
0.00547125 -4.71661e-05 -0.000241056
-4.71661e-05 0.00292529 8.0029e-07
-0.000241056 8.0029e-07 0.00293655
0.001256 -0.00013688 -4.32676e-05
-0.00013688 0.000415765 4.53456e-06
-4.32676e-05 4.53456e-06 0.000377813
-0.000269598 -2.10143e-06 -1.28611e-05
-2.10143e-06 -0.000617864 2.13484e-06
-1.28611e-05 2.13484e-06 -0.000700936
0.00170842 -4.87154e-05 -0.00010334
-4.87154e-05 0.000563873 6.46133e-06
-0.00010334 6.46133e-06 0.000502358
0.004903 0.000356367 1.48605e-05
0.000356367 0.00269487 7.73442e-06
1.48605e-05 7.73442e-06 0.00262254
0.00268532 -0.000186099 -0.000107402
-0.000186099 0.00120535 1.78942e-05
-0.000107402 1.78942e-05 0.00112829
0.00171854 -9.20745e-05 -0.00010291
-9.20745e-05 0.000578079 1.19107e-05
-0.00010291 1.19107e-05 0.000513859
0.00173659 -0.000131073 -2.76785e-05
-0.000131073 0.000417753 5.45518e-06
-2.76785e-05 5.45518e-06 0.000287951
0.002012 -0.000201536 -2.63487e-05
-0.000201536 0.000616221 8.24326e-06
-2.63487e-05 8.24326e-06 0.000474168
0.00204316 -0.000252546 -2.53188e-05
-0.000252546 0.000688429 1.03971e-05
-2.53188e-05 1.03971e-05 0.000526116
0.00131375 -0.000240251 -6.33529e-06
-0.000240251 0.000100531 1.96593e-06
-6.33529e-06 1.96593e-06 -8.6012e-05
0.000555781 7.16555e-06 -5.55787e-08
7.16555e-06 -0.000130795 1.23613e-07
-5.55787e-08 1.23613e-07 -0.000201058
0.00161738 -6.82261e-05 -2.9405e-05
-6.82261e-05 0.00051498 3.27426e-07
-2.9405e-05 3.27426e-07 0.000449729
0.00123668 -3.08994e-05 -7.48248e-06
-3.08994e-05 0.000112373 3.99972e-07
-7.48248e-06 3.99972e-07 -6.25168e-06
0.00182471 -0.000108856 -5.72342e-06
-0.000108856 0.000465344 8.70296e-07
-5.72342e-06 8.70296e-07 0.000340786
0.00460621 0.000159343 -7.62433e-06
0.000159343 0.00246009 -1.09956e-06
-7.62433e-06 -1.09956e-06 0.00244457
0.00153446 -9.16841e-05 -2.23344e-06
-9.16841e-05 0.000554211 -6.16493e-08
-2.23344e-06 -6.16493e-08 0.000465935
0.00131999 -0.000213403 1.46688e-06
-0.000213403 0.000305335 -8.12903e-07
1.46688e-06 -8.12903e-07 0.000137439
0.00169574 -0.000161273 -6.01787e-06
-0.000161273 0.000407459 1.35988e-06
-6.01787e-06 1.35988e-06 0.000271006
0.00161642 -0.000176694 -2.27253e-06
-0.000176694 0.000182433 4.2618e-07
-2.27253e-06 4.2618e-07 3.02584e-05
0.00126034 -0.000256854 2.58095e-07
-0.000256854 0.000110167 -1.08346e-07
2.58095e-07 -1.08346e-07 -8.97118e-05
0.00152318 -0.000230824 3.62524e-07
-0.000230824 0.000192348 -1.41414e-07
3.62524e-07 -1.41414e-07 1.64982e-05
0.00161891 -0.000311096 6.62478e-07
-0.000311096 0.000172556 -4.63196e-08
6.62478e-07 -4.63196e-08 -2.6653e-05
0.000516001 -4.51614e-05 -1.03206e-06
-4.51614e-05 -3.52377e-05 1.48574e-07
-1.03206e-06 1.48574e-07 -9.47416e-05
0.000663527 -6.92133e-05 -1.02639e-07
-6.92133e-05 6.5484e-05 2.4823e-07
-1.02639e-07 2.4823e-07 -6.19178e-05
0.00098789 -1.48422e-05 1.22344e-05
-1.48422e-05 -3.22254e-05 -8.37378e-07
1.22344e-05 -8.37378e-07 -0.000153021
0.00169439 -6.6492e-05 1.19152e-05
-6.6492e-05 0.000384551 -1.64115e-06
1.19152e-05 -1.64115e-06 0.0002661
0.00168102 -5.7603e-05 4.10837e-07
-5.7603e-05 0.000192006 7.13522e-08
4.10837e-07 7.13522e-08 6.57963e-05
0.00151818 -0.0001401 2.48823e-06
-0.0001401 0.000108389 -1.68735e-07
2.48823e-06 -1.68735e-07 -3.27041e-05
0.0016852 -0.000216181 3.29462e-06
-0.000216181 0.000255994 -8.19721e-07
3.29462e-06 -8.19721e-07 9.31586e-05
0.00178113 -0.000217543 -4.73918e-07
-0.000217543 0.000151994 4.68374e-07
-4.73918e-07 4.68374e-07 1.00094e-05
0.000355693 -7.61087e-05 1.4495e-05
-7.61087e-05 -0.000141962 -1.36067e-05
1.4495e-05 -1.36067e-05 -0.000208732
0.0016508 -0.000286518 1.51877e-06
-0.000286518 0.00014935 7.19372e-07
1.51877e-06 7.19372e-07 -2.88534e-05
0.00069914 -0.000167341 6.2368e-06
-0.000167341 8.22263e-06 -7.55117e-06
6.2368e-06 -7.55117e-06 -0.000163277
0.000962201 -0.000245065 9.73447e-06
-0.000245065 -5.51394e-06 -3.53364e-06
9.73447e-06 -3.53364e-06 -0.000215513
0.00179886 -0.000352338 3.19742e-06
-0.000352338 0.000326836 -6.6331e-08
3.19742e-06 -6.6331e-08 0.000101624
0.00193802 -0.000346929 -1.6559e-06
-0.000346929 0.000304126 3.26591e-06
-1.6559e-06 3.26591e-06 0.00011952
0.000739441 -0.000115289 1.88285e-06
-0.000115289 0.00011103 -5.42221e-06
1.88285e-06 -5.42221e-06 -3.89747e-05
0.00066381 -3.27336e-05 7.34459e-07
-3.27336e-05 6.85097e-05 -3.72307e-06
7.34459e-07 -3.72307e-06 -4.02164e-05
0.00105625 -0.000173001 -2.60438e-07
-0.000173001 0.000317196 5.78966e-07
-2.60438e-07 5.78966e-07 0.000126135
0.000536615 9.57165e-05 -1.77616e-05
9.57165e-05 -0.000129515 -8.17656e-06
-1.77616e-05 -8.17656e-06 -0.000215643
0.00361019 -0.000162783 -8.6587e-05
-0.000162783 0.00186011 -3.38208e-06
-8.6587e-05 -3.38208e-06 0.00184855
0.000381116 -4.42518e-05 -6.77624e-08
-4.42518e-05 -9.163e-05 -8.3974e-06
-6.77624e-08 -8.3974e-06 -0.000137266
0.00048673 0.000144709 -1.94838e-05
0.000144709 -0.000124186 -1.33108e-05
-1.94838e-05 -1.33108e-05 -0.000220275
0.00094877 0.000155977 -1.43357e-05
0.000155977 -2.20127e-05 -5.88018e-06
-1.43357e-05 -5.88018e-06 -0.000174959
0.000366941 7.12945e-05 -1.59429e-05
7.12945e-05 -0.000141236 -1.28963e-05
-1.59429e-05 -1.28963e-05 -0.00020596
0.000770806 0.0001716 -8.10353e-06
0.0001716 2.96088e-05 -7.46657e-06
-8.10353e-06 -7.46657e-06 -0.000145038
0.000954604 0.00018273 -1.18035e-05
0.00018273 4.48464e-05 -6.85086e-06
-1.18035e-05 -6.85086e-06 -0.000117029
0.000818729 0.000218616 -7.02226e-06
0.000218616 -7.62145e-05 -9.69146e-07
-7.02226e-06 -9.69146e-07 -0.000279961
0.000537857 2.22468e-05 2.22153e-06
2.22468e-05 -2.04072e-05 4.07553e-07
2.22153e-06 4.07553e-07 -7.46826e-05
0.000501224 -6.41737e-05 3.53507e-07
-6.41737e-05 -2.15029e-05 2.51866e-07
3.53507e-07 2.51866e-07 -5.95764e-05
0.000612812 3.2377e-05 6.08702e-07
3.2377e-05 4.08881e-05 5.66639e-07
6.08702e-07 5.66639e-07 -7.00341e-05
0.000997361 0.000136334 1.12077e-08
0.000136334 -1.90357e-05 -2.6228e-07
1.12077e-08 -2.6228e-07 -0.000165613
0.000954523 0.000172842 4.30499e-07
0.000172842 7.4599e-06 -2.15501e-07
4.30499e-07 -2.15501e-07 -0.000150474
0.00139329 0.000237889 1.73208e-07
0.000237889 0.000108054 -1.83151e-08
1.73208e-07 -1.83151e-08 -7.75137e-05
0.000799993 0.000171509 -5.5584e-07
0.000171509 0.00012028 1.37157e-07
-5.5584e-07 1.37157e-07 -5.14646e-05
0.0011744 0.000241546 3.68763e-07
0.000241546 9.07476e-05 9.20941e-09
3.68763e-07 9.20941e-09 -0.000107078
0.00112876 0.000250337 5.64898e-07
0.000250337 0.000169448 -1.61971e-06
5.64898e-07 -1.61971e-06 -5.57129e-05
0.00127294 0.000284304 -6.12356e-07
0.000284304 0.000138634 1.43235e-07
-6.12356e-07 1.43235e-07 -8.36265e-05
0.000544962 -6.87996e-05 -2.06895e-06
-6.87996e-05 -3.3725e-06 6.05313e-06
-2.06895e-06 6.05313e-06 -3.53056e-05
0.00079906 0.000128563 5.38143e-06
0.000128563 0.00014006 4.98734e-06
5.38143e-06 4.98734e-06 -7.69384e-06
0.000709029 7.13281e-06 1.57876e-06
7.13281e-06 9.29691e-05 4.17752e-06
1.57876e-06 4.17752e-06 8.08795e-06
0.000984201 0.000116485 1.59555e-06
0.000116485 0.00029796 -1.37306e-07
1.59555e-06 -1.37306e-07 0.000121946
0.0014637 0.000212244 4.30936e-06
0.000212244 0.000102944 4.52012e-07
4.30936e-06 4.52012e-07 -6.84758e-05
0.0012509 0.000246577 6.20874e-06
0.000246577 7.38712e-05 2.13892e-06
6.20874e-06 2.13892e-06 -0.000120544
0.00175146 0.000314309 1.30239e-06
0.000314309 0.000205661 -1.3608e-07
1.30239e-06 -1.3608e-07 1.38642e-05
0.0013538 0.00024678 3.77351e-06
0.00024678 0.000390024 3.82021e-06
3.77351e-06 3.82021e-06 0.000173218
0.00167638 0.000344049 -8.1058e-07
0.000344049 0.000307134 -5.6557e-07
-8.1058e-07 -5.6557e-07 8.53462e-05
0.00125384 0.000284023 1.45485e-06
0.000284023 0.000182822 -8.17533e-07
1.45485e-06 -8.17533e-07 -6.66734e-05
0.00149864 0.000318615 1.02521e-06
0.000318615 0.00018316 1.54784e-07
1.02521e-06 1.54784e-07 -4.594e-05
0.000615578 9.95676e-06 2.44055e-06
9.95676e-06 1.83e-05 2.41075e-06
2.44055e-06 2.41075e-06 -3.33459e-05
0.000530808 -4.36154e-05 7.39115e-07
-4.36154e-05 -3.87219e-05 4.74608e-06
7.39115e-07 4.74608e-06 -5.90987e-05
0.00242995 -0.000105173 2.85034e-05
-0.000105173 0.00112777 3.30925e-06
2.85034e-05 3.30925e-06 0.00113119
0.00249281 -0.000118882 3.62724e-06
-0.000118882 0.00117371 -3.84887e-07
3.62724e-06 -3.84887e-07 0.0011735
0.00261874 -0.000135285 -3.5806e-05
-0.000135285 0.00125745 -2.74864e-06
-3.5806e-05 -2.74864e-06 0.00125266
0.000434957 -7.4551e-06 5.43473e-06
-7.4551e-06 -7.31311e-05 -8.20962e-06
5.43473e-06 -8.20962e-06 -0.000115325
0.00351913 0.00013206 9.23571e-05
0.00013206 0.00180052 -4.79946e-06
9.23571e-05 -4.79946e-06 0.00179468
0.000523699 -2.01991e-05 -2.88654e-07
-2.01991e-05 -2.24843e-05 2.9217e-07
-2.88654e-07 2.9217e-07 -7.38328e-05
0.00412297 0.000136182 -5.91642e-06
0.000136182 0.00216374 -8.46578e-07
-5.91642e-06 -8.46578e-07 0.00215591
0.000587502 9.95617e-05 -1.92349e-05
9.95617e-05 -0.000105306 -6.4381e-06
-1.92349e-05 -6.4381e-06 -0.000189334
0.000596063 3.30566e-05 -1.84553e-05
3.30566e-05 -0.000108349 -3.2552e-06
-1.84553e-05 -3.2552e-06 -0.000183746
0.000987053 9.21326e-05 -1.20656e-05
9.21326e-05 -4.3543e-05 -2.77136e-06
-1.20656e-05 -2.77136e-06 -0.000177737
0.000975974 4.34482e-05 -1.23406e-05
4.34482e-05 -4.91844e-05 -1.4439e-06
-1.23406e-05 -1.4439e-06 -0.000173282
0.000610336 -6.71196e-06 -1.93158e-05
-6.71196e-06 -0.00010344 -7.38652e-07
-1.93158e-05 -7.38652e-07 -0.000172195
0.00554441 -9.47165e-05 -0.000247898
-9.47165e-05 0.00297429 3.8042e-06
-0.000247898 3.8042e-06 0.0029826
0.000597609 -6.07508e-07 1.32894e-07
-6.07508e-07 -0.000110128 -5.21378e-07
1.32894e-07 -5.21378e-07 -0.000178645
0.000991669 2.10186e-05 -3.95077e-08
2.10186e-05 -3.51678e-05 -6.8716e-08
-3.95077e-08 -6.8716e-08 -0.000156729
0.00100985 6.52874e-05 -8.80511e-08
6.52874e-05 -3.08032e-05 -9.72945e-08
-8.80511e-08 -9.72945e-08 -0.000158681
0.00148615 6.34077e-05 -5.82796e-08
6.34077e-05 5.82018e-05 9.89943e-08
-5.82796e-08 9.89943e-08 -6.86955e-05
0.00101254 0.000114341 -1.432e-07
0.000114341 -2.30794e-05 -2.32491e-07
-1.432e-07 -2.32491e-07 -0.000163282
0.00150572 0.000141881 -6.1243e-08
0.000141881 7.63289e-05 8.03909e-09
-6.1243e-08 8.03909e-09 -6.86439e-05
0.000987058 -7.90475e-07 1.22448e-05
-7.90475e-07 -3.3353e-05 -3.40769e-07
1.22448e-05 -3.40769e-07 -0.000154141
0.00147524 3.33198e-05 1.44272e-06
3.33198e-05 5.50956e-05 1.29278e-07
1.44272e-06 1.29278e-07 -6.80249e-05
0.00150187 0.00010209 1.37846e-06
0.00010209 6.6497e-05 5.00255e-08
1.37846e-06 5.00255e-08 -6.75849e-05
0.00181241 9.06734e-05 -2.05042e-06
9.06734e-05 0.00010308 -3.02648e-07
-2.05042e-06 -3.02648e-07 4.1039e-06
0.00151427 0.0001805 3.25991e-06
0.0001805 9.72825e-05 3.47667e-07
3.25991e-06 3.47667e-07 -6.01781e-05
0.00181648 0.000185646 -2.66672e-07
0.000185646 0.000127969 -1.40091e-06
-2.66672e-07 -1.40091e-06 1.29342e-06
0.000579977 6.72337e-07 -1.8491e-05
6.72337e-07 -0.000114327 1.13157e-06
-1.8491e-05 1.13157e-06 -0.000186342
0.00169856 -2.63161e-05 -0.000102802
-2.63161e-05 0.000557555 4.25272e-06
-0.000102802 4.25272e-06 0.000498672
0.000786797 -2.50484e-05 -1.48054e-05
-2.50484e-05 -0.000154721 1.73364e-06
-1.48054e-05 1.73364e-06 -0.000278007
0.00196458 -0.000109073 -2.46225e-05
-0.000109073 0.000546826 3.93271e-06
-2.46225e-05 3.93271e-06 0.000423617
0.00482407 0.000132399 -0.000160444
0.000132399 0.00258251 1.14178e-05
-0.000160444 1.14178e-05 0.00257186
0.00272067 -0.000140196 -0.000103082
-0.000140196 0.00125036 1.40977e-05
-0.000103082 1.40977e-05 0.00118136
0.00195028 -0.000258383 -2.02996e-05
-0.000258383 0.000685269 8.93061e-06
-2.02996e-05 8.93061e-06 0.000513971
0.0017075 -0.000160412 -2.60947e-05
-0.000160412 0.000413999 6.72461e-06
-2.60947e-05 6.72461e-06 0.000277732
0.00150136 -0.000174281 -5.45653e-06
-0.000174281 0.000111597 1.01097e-06
-5.45653e-06 1.01097e-06 -3.95202e-05
0.0017048 -0.000238872 -6.61063e-06
-0.000238872 0.000299422 2.02081e-06
-6.61063e-06 2.02081e-06 0.000124496
0.00119612 -0.00025438 -7.41924e-06
-0.00025438 7.32457e-05 2.35472e-06
-7.41924e-06 2.35472e-06 -0.000127149
0.00165009 -0.000311682 -1.90952e-06
-0.000311682 0.000194771 -7.26345e-07
-1.90952e-06 -7.26345e-07 -3.78208e-06
0.000632441 -5.51311e-05 -1.23972e-05
-5.51311e-05 3.21729e-05 1.21458e-05
-1.23972e-05 1.21458e-05 -2.92566e-05
0.000706143 -9.58213e-05 -1.52076e-06
-9.58213e-05 9.40136e-05 3.5514e-06
-1.52076e-06 3.5514e-06 -3.81315e-05
0.000879895 -1.00339e-05 -2.22451e-07
-1.00339e-05 -9.6918e-05 -1.8659e-08
-2.22451e-07 -1.8659e-08 -0.00021804
0.00170294 -6.76186e-05 -6.1961e-06
-6.76186e-05 0.000388388 6.57147e-07
-6.1961e-06 6.57147e-07 0.000270031
0.00171931 -5.39101e-05 -1.76983e-06
-5.39101e-05 0.000211249 2.68957e-07
-1.76983e-06 2.68957e-07 8.81239e-05
0.0015939 -0.00014097 -6.64529e-07
-0.00014097 0.000154944 2.62012e-07
-6.64529e-07 2.62012e-07 1.24412e-05
0.000510078 -8.69577e-05 3.15053e-08
-8.69577e-05 -5.16372e-05 3.92338e-07
3.15053e-08 3.92338e-07 -0.000121496
0.000849711 -0.000184264 -7.37703e-07
-0.000184264 9.53711e-05 -5.88657e-07
-7.37703e-07 -5.88657e-07 -7.79185e-05
0.00103017 -0.000250382 2.63596e-06
-0.000250382 3.47573e-05 -8.77706e-07
2.63596e-06 -8.77706e-07 -0.00017542
0.00169794 -0.000214605 -2.90056e-06
-0.000214605 0.000263124 7.52631e-07
-2.90056e-06 7.52631e-07 9.92473e-05
0.00183975 -0.000221991 9.00335e-07
-0.000221991 0.000180551 -2.21031e-07
9.00335e-07 -2.21031e-07 4.22887e-05
0.00180696 -0.000357637 -1.65392e-06
-0.000357637 0.000333913 2.57572e-07
-1.65392e-06 2.57572e-07 0.000107244
0.00167201 -0.000287223 5.32352e-07
-0.000287223 0.000163323 -2.5069e-08
5.32352e-07 -2.5069e-08 -1.4553e-05
0.00187583 -0.000344942 7.6015e-07
-0.000344942 0.000260582 6.4241e-07
7.6015e-07 6.4241e-07 7.58748e-05
0.000725509 -0.000127962 -3.08592e-07
-0.000127962 0.000101809 -2.3429e-07
-3.08592e-07 -2.3429e-07 -5.01678e-05
0.000563332 -0.000108819 -4.62176e-07
-0.000108819 9.02177e-06 -5.98112e-07
-4.62176e-07 -5.98112e-07 -0.000166
0.000677403 -4.6409e-05 -4.10205e-08
-4.6409e-05 7.56598e-05 6.50709e-08
-4.10205e-08 6.50709e-08 -3.50344e-05
0.00166547 -2.28901e-05 2.2237e-07
-2.28901e-05 0.000177779 1.76575e-08
2.2237e-07 1.76575e-08 5.52166e-05
0.00174926 -9.43099e-05 -5.13778e-09
-9.43099e-05 0.00023133 4.66404e-07
-5.13778e-09 4.66404e-07 0.000103052
0.00170597 -7.65709e-05 -1.89234e-06
-7.65709e-05 5.54365e-05 1.09909e-06
-1.89234e-06 1.09909e-06 -4.67504e-05
0.00177279 -0.000178242 -2.48181e-06
-0.000178242 0.000114698 1.2549e-06
-2.48181e-06 1.2549e-06 -9.97538e-06
0.00165576 -0.000259363 -1.36186e-07
-0.000259363 0.000116032 1.5429e-06
-1.36186e-07 1.5429e-06 -4.02022e-05
0.00186381 -0.000245047 -6.53628e-07
-0.000245047 0.000141763 9.08007e-07
-6.53628e-07 9.08007e-07 2.6966e-05
0.000741812 -0.000152204 3.95996e-06
-0.000152204 9.09501e-05 -6.13491e-06
3.95996e-06 -6.13491e-06 -7.47366e-05
0.00173869 -0.000314282 -1.7305e-06
-0.000314282 0.000134005 1.82316e-06
-1.7305e-06 1.82316e-06 -2.52011e-05
0.00105765 -0.000245816 4.29993e-06
-0.000245816 0.000145403 -5.47801e-06
4.29993e-06 -5.47801e-06 -7.0495e-05
0.00139196 -0.000348517 4.26009e-06
-0.000348517 0.000179441 -1.39326e-06
4.26009e-06 -1.39326e-06 -7.14765e-05
0.00191719 -0.000394124 1.3054e-06
-0.000394124 0.000338682 3.26602e-06
1.3054e-06 3.26602e-06 0.000110591
0.0020242 -0.00036761 -3.15335e-06
-0.00036761 0.000327111 3.63686e-06
-3.15335e-06 3.63686e-06 0.00015641
0.00063349 -3.22821e-05 7.1951e-07
-3.22821e-05 5.38105e-05 -3.75907e-06
7.1951e-07 -3.75907e-06 -4.2085e-05
0.000758079 -0.000166079 1.92726e-07
-0.000166079 9.47847e-05 -1.92683e-07
1.92726e-07 -1.92683e-07 -8.28471e-05
0.000522411 -9.34061e-05 -7.1699e-07
-9.34061e-05 1.58626e-05 1.1869e-06
-7.1699e-07 1.1869e-06 -0.000159657
0.00134132 -0.000234533 -3.0767e-06
-0.000234533 0.000449626 2.3807e-06
-3.0767e-06 2.3807e-06 0.000248725
0.000973194 0.000137213 -1.38127e-05
0.000137213 -3.03204e-05 -4.82896e-06
-1.38127e-05 -4.82896e-06 -0.00017763
0.000428354 -6.64548e-05 1.76947e-06
-6.64548e-05 -6.40655e-05 -6.7983e-06
1.76947e-06 -6.7983e-06 -0.00010208
0.000372344 3.11797e-06 -6.08119e-06
3.11797e-06 -0.000113581 -1.07369e-05
-6.08119e-06 -1.07369e-05 -0.00016712
0.000471328 -4.017e-06 -4.53026e-08
-4.017e-06 -4.09409e-05 -4.99078e-06
-4.53026e-08 -4.99078e-06 -0.000148991
0.000967791 0.000174851 -1.35334e-05
0.000174851 1.83118e-05 -6.74831e-06
-1.35334e-05 -6.74831e-06 -0.000140163
0.00140211 0.000238276 -5.48978e-06
0.000238276 0.000114114 -1.42818e-06
-5.48978e-06 -1.42818e-06 -7.17771e-05
0.000717948 0.000148513 -4.92878e-06
0.000148513 7.12649e-05 -5.17903e-06
-4.92878e-06 -5.17903e-06 -9.6391e-05
0.00100961 0.000239872 -5.73726e-06
0.000239872 9.94368e-05 -4.5685e-06
-5.73726e-06 -4.5685e-06 -0.000123712
0.00134734 0.000251616 -5.76728e-06
0.000251616 0.000196586 -2.41557e-06
-5.76728e-06 -2.41557e-06 -2.02926e-06
0.00107879 0.000275642 -3.63508e-06
0.000275642 2.0556e-05 1.15188e-08
-3.63508e-06 1.15188e-08 -0.000201577
0.000506152 -6.66849e-05 -3.17141e-07
-6.66849e-05 -2.84281e-05 2.183e-07
-3.17141e-07 2.183e-07 -5.93273e-05
0.000756902 0.000122093 2.70255e-07
0.000122093 0.000124536 -4.67064e-07
2.70255e-07 -4.67064e-07 -2.50228e-05
0.0006147 -1.20623e-05 -3.21361e-07
-1.20623e-05 3.94304e-05 6.81513e-07
-3.21361e-07 6.81513e-07 -4.453e-05
0.000784349 9.32498e-05 1.29158e-06
9.32498e-05 0.000176413 -8.32959e-07
1.29158e-06 -8.32959e-07 5.37575e-06
0.00145772 0.00021175 -7.48164e-08
0.00021175 0.000100294 -4.28096e-07
-7.48164e-08 -4.28096e-07 -7.13998e-05
0.00129675 0.000248516 4.16783e-07
0.000248516 0.000106316 4.89803e-08
4.16783e-07 4.89803e-08 -8.8354e-05
0.00172373 0.000312447 2.47274e-07
0.000312447 0.000189196 1.37273e-07
2.47274e-07 1.37273e-07 -2.58361e-06
0.0010588 0.000224767 1.30704e-06
0.000224767 0.000217634 3.21362e-07
1.30704e-06 3.21362e-07 4.27565e-06
0.00172206 0.000342552 -1.07593e-06
0.000342552 0.000335746 -1.60969e-07
-1.07593e-06 -1.60969e-07 0.000114518
0.00125186 0.00028753 4.66897e-08
0.00028753 0.000176733 -1.54754e-06
4.66897e-08 -1.54754e-06 -7.42955e-05
0.00154825 0.000322001 -3.5862e-06
0.000322001 0.000213736 6.42445e-07
-3.5862e-06 6.42445e-07 -1.4908e-05
0.000523939 -5.79114e-05 -5.61019e-07
-5.79114e-05 -3.14031e-05 5.20054e-06
-5.61019e-07 5.20054e-06 -5.65374e-05
0.000670243 -6.35461e-06 1.69553e-06
-6.35461e-06 6.02359e-05 3.52839e-06
1.69553e-06 3.52839e-06 -7.50106e-06
0.00105795 0.00019534 1.13702e-06
0.00019534 0.000287342 2.01491e-06
1.13702e-06 2.01491e-06 9.98798e-05
0.00112007 6.75216e-05 -7.71671e-07
6.75216e-05 0.000384611 2.54303e-06
-7.71671e-07 2.54303e-06 0.000234148
0.00115401 0.000181958 -5.18827e-07
0.000181958 0.000373141 -2.03811e-06
-5.18827e-07 -2.03811e-06 0.000180221
0.00179379 0.000276417 9.88909e-07
0.000276417 0.000182565 -1.5087e-06
9.88909e-07 -1.5087e-06 1.37423e-05
0.00164523 0.000338839 8.79768e-07
0.000338839 0.000211518 1.43318e-07
8.79768e-07 1.43318e-07 -3.12735e-07
0.00184216 0.00034934 6.60589e-08
0.00034934 0.000222017 -1.85315e-07
6.60589e-08 -1.85315e-07 3.69934e-05
0.00111993 0.000272935 2.99227e-06
0.000272935 0.000201018 4.27148e-06
2.99227e-06 4.27148e-06 -4.5998e-05
0.00195122 0.000409839 1.03154e-06
0.000409839 0.000404049 -6.0875e-07
1.03154e-06 -6.0875e-07 0.000171318
0.000793315 0.000265616 4.68689e-06
0.000265616 -0.000158364 -1.32114e-06
4.68689e-06 -1.32114e-06 -0.000407123
0.000614248 4.81762e-06 2.72314e-06
4.81762e-06 1.77584e-05 2.44744e-06
2.72314e-06 2.44744e-06 -3.57093e-05
0.000678748 5.00303e-05 1.88512e-07
5.00303e-05 8.58861e-05 1.1904e-06
1.88512e-07 1.1904e-06 -2.70016e-06
0.000633275 2.01931e-05 2.23621e-06
2.01931e-05 3.2766e-05 2.42902e-06
2.23621e-06 2.42902e-06 -1.87876e-05
0.000600655 -1.43616e-05 -5.51181e-07
-1.43616e-05 1.16014e-05 -6.78439e-10
-5.51181e-07 -6.78439e-10 -4.10487e-05
0.00124323 -5.10511e-05 1.07632e-06
-5.10511e-05 0.000384684 2.73304e-06
1.07632e-06 2.73304e-06 0.000370289
0.000911241 -5.12767e-05 5.12547e-07
-5.12767e-05 0.000189837 -9.70585e-08
5.12547e-07 -9.70585e-08 0.000171369
0.00089513 -5.22868e-05 2.36985e-05
-5.22868e-05 0.000192015 7.55046e-06
2.36985e-05 7.55046e-06 0.00019303
0.00239558 -0.000102681 3.90348e-06
-0.000102681 0.00110612 -3.49656e-07
3.90348e-06 -3.49656e-07 0.00111006
0.00242926 -0.000115227 -3.30697e-05
-0.000115227 0.00113496 -3.02151e-06
-3.30697e-05 -3.02151e-06 0.00113556
0.000453591 1.55793e-05 1.559e-06
1.55793e-05 -6.12403e-05 -6.63979e-06
1.559e-06 -6.63979e-06 -9.58851e-05
0.00316358 0.000134291 6.07149e-05
0.000134291 0.00158173 -3.29933e-06
6.07149e-05 -3.29933e-06 0.00157607
0.000520113 -8.36298e-06 -4.65317e-07
-8.36298e-06 -2.30722e-05 2.29518e-07
-4.65317e-07 2.29518e-07 -6.59358e-05
0.00368573 0.000122122 -6.07302e-06
0.000122122 0.00189703 -5.75692e-07
-6.07302e-06 -5.75692e-07 0.00189355
0.000633676 -2.26776e-05 -7.79681e-06
-2.26776e-05 3.94746e-05 1.01985e-05
-7.79681e-06 1.01985e-05 -1.25787e-05
0.00425339 0.000121712 -0.000138285
0.000121712 0.00223698 8.6908e-06
-0.000138285 8.6908e-06 0.00223228
0.000983376 0.000115869 -1.27789e-05
0.000115869 -3.87464e-05 -3.70171e-06
-1.27789e-05 -3.70171e-06 -0.000179723
0.000986745 6.89413e-05 -1.2106e-05
6.89413e-05 -4.44671e-05 -2.09125e-06
-1.2106e-05 -2.09125e-06 -0.00017298
0.00150533 0.000139103 -3.09838e-06
0.000139103 7.69376e-05 -2.14936e-07
-3.09838e-06 -2.14936e-07 -6.8077e-05
0.00148026 6.25604e-05 -1.58347e-06
6.25604e-05 5.66947e-05 9.36406e-08
-1.58347e-06 9.36406e-08 -7.03157e-05
0.000986695 2.48711e-05 -1.23355e-05
2.48711e-05 -3.89853e-05 -7.3128e-07
-1.23355e-05 -7.3128e-07 -0.000160769
0.000562577 2.76767e-05 -1.90995e-05
2.76767e-05 -0.000130973 -1.67411e-07
-1.90995e-05 -1.67411e-07 -0.000199122
0.000986186 1.80667e-06 -1.43323e-09
1.80667e-06 -3.46356e-05 -1.56124e-07
-1.43323e-09 -1.56124e-07 -0.000155463
0.00147341 3.47237e-05 -6.76018e-08
3.47237e-05 5.46683e-05 4.4357e-08
-6.76018e-08 4.4357e-08 -6.85779e-05
0.00150237 9.95825e-05 -1.12718e-09
9.95825e-05 6.86818e-05 1.68977e-08
-1.12718e-09 1.68977e-08 -6.53883e-05
0.00180997 8.93958e-05 1.10629e-07
8.93958e-05 9.60392e-05 2.73073e-07
1.10629e-07 2.73073e-07 -8.70845e-08
0.00150014 0.000179458 -2.33154e-07
0.000179458 9.15778e-05 -8.06935e-08
-2.33154e-07 -8.06935e-08 -6.60735e-05
0.00180854 0.000183177 -3.4038e-07
0.000183177 0.000127469 -3.69566e-12
-3.4038e-07 -3.69566e-12 8.64112e-07
0.00146699 4.92363e-06 1.6751e-06
4.92363e-06 5.38168e-05 1.07775e-08
1.6751e-06 1.07775e-08 -6.83468e-05
0.00181897 4.57862e-05 -3.50232e-06
4.57862e-05 0.000110964 -1.09462e-07
-3.50232e-06 -1.09462e-07 2.33384e-05
0.00182082 0.000141676 -1.43782e-06
0.000141676 0.000109896 -9.06655e-07
-1.43782e-06 -9.06655e-07 -5.60579e-07
0.00179319 9.00435e-05 3.68259e-06
9.00435e-05 2.96182e-05 4.22561e-07
3.68259e-06 4.22561e-07 -4.12785e-05
0.00182152 0.000230839 1.92193e-07
0.000230839 0.000167582 -1.24903e-06
1.92193e-07 -1.24903e-06 2.13984e-05
0.0017674 0.00020464 7.85272e-08
0.00020464 4.00775e-05 -1.19761e-06
7.85272e-08 -1.19761e-06 -6.03292e-05
0.000776279 -6.75634e-06 -1.21626e-05
-6.75634e-06 -0.000159047 7.30497e-07
-1.21626e-05 7.30497e-07 -0.000280552
0.00173464 -7.0072e-05 -2.41865e-05
-7.0072e-05 0.000406015 2.92227e-06
-2.41865e-05 2.92227e-06 0.000287701
0.00178305 -4.80941e-05 -4.92697e-06
-4.80941e-05 0.000245367 7.17567e-08
-4.92697e-06 7.17567e-08 0.000125575
0.00167194 -0.000141928 -3.965e-06
-0.000141928 0.000202942 9.77602e-07
-3.965e-06 9.77602e-07 5.90256e-05
0.000742218 -0.000104318 -1.73531e-05
-0.000104318 8.45291e-05 1.4386e-05
-1.73531e-05 1.4386e-05 1.0836e-05
0.00075576 -0.000188268 -8.82116e-06
-0.000188268 4.226e-05 7.0599e-06
-8.82116e-06 7.0599e-06 -0.000131739
0.00108842 -0.000254443 -5.31176e-06
-0.000254443 6.96587e-05 2.63871e-06
-5.31176e-06 2.63871e-06 -0.00014046
0.00171124 -0.000212912 -7.81726e-06
-0.000212912 0.000270485 2.27266e-06
-7.81726e-06 2.27266e-06 0.000105599
0.00189818 -0.000226317 5.87139e-07
-0.000226317 0.000208789 -1.19415e-06
5.87139e-07 -1.19415e-06 7.42926e-05
0.00169251 -0.000287893 -9.83388e-07
-0.000287893 0.000176837 -6.25405e-07
-9.83388e-07 -6.25405e-07 -7.09944e-07
0.00180499 -0.000361723 -4.53272e-06
-0.000361723 0.000335738 -5.78002e-07
-4.53272e-06 -5.78002e-07 0.000107889
0.00181228 -0.000341936 3.13081e-06
-0.000341936 0.00021666 -2.55975e-06
3.13081e-06 -2.55975e-06 3.2145e-05
0.000743876 -0.00013226 -3.6197e-06
-0.00013226 0.00010604 5.30909e-06
-3.6197e-06 5.30909e-06 -4.47967e-05
0.000439948 -9.38925e-05 -3.54097e-07
-9.38925e-05 -6.40272e-05 -1.13258e-06
-3.54097e-07 -1.13258e-06 -0.000237367
0.000610104 -5.52418e-05 -1.68642e-06
-5.52418e-05 3.55336e-05 3.28484e-06
-1.68642e-06 3.28484e-06 -7.72154e-05
0.00158437 -2.05431e-05 -1.96362e-06
-2.05431e-05 0.000128048 1.42828e-07
-1.96362e-06 1.42828e-07 5.35912e-06
0.00175016 -0.000102138 -2.86721e-06
-0.000102138 0.000230943 4.46868e-07
-2.86721e-06 4.46868e-07 0.000101713
0.00176434 -7.37121e-05 1.78142e-06
-7.37121e-05 9.07273e-05 5.44551e-07
1.78142e-06 5.44551e-07 -5.90283e-06
0.00176496 -0.000174331 -1.75598e-06
-0.000174331 0.000109148 5.64355e-07
-1.75598e-06 5.64355e-07 -1.67673e-05
0.000752542 -0.000168168 3.49712e-07
-0.000168168 9.93343e-05 2.42817e-08
3.49712e-07 2.42817e-08 -6.97538e-05
0.00110857 -0.000251471 -1.53248e-06
-0.000251471 0.000169957 -6.19423e-07
-1.53248e-06 -6.19423e-07 -4.6545e-05
0.00145485 -0.000349404 2.39991e-06
-0.000349404 0.000225657 -2.35062e-07
2.39991e-06 -2.35062e-07 -2.50258e-05
0.00165275 -0.000257789 -9.96558e-07
-0.000257789 0.000116697 6.34849e-07
-9.96558e-07 6.34849e-07 -4.29863e-05
0.001893 -0.000246641 1.729e-06
-0.000246641 0.000158268 -5.2264e-08
1.729e-06 -5.2264e-08 4.75248e-05
0.00182934 -0.000394695 -6.54775e-07
-0.000394695 0.000282879 4.34816e-07
-6.54775e-07 4.34816e-07 5.20386e-05
0.00177033 -0.000315202 7.25337e-08
-0.000315202 0.000152572 3.55894e-07
7.25337e-08 3.55894e-07 -6.53387e-06
0.00204758 -0.000363929 1.9211e-06
-0.000363929 0.000338985 -2.23338e-07
1.9211e-06 -2.23338e-07 0.000172105
0.000989944 -0.000194095 4.50909e-07
-0.000194095 0.000235901 8.85941e-07
4.50909e-07 8.85941e-07 5.084e-05
0.00116013 -0.000227186 -2.96113e-07
-0.000227186 0.000348466 3.38681e-07
-2.96113e-07 3.38681e-07 0.0001454
0.000626416 -3.75976e-05 -7.97253e-08
-3.75976e-05 4.81912e-05 1.53314e-07
-7.97253e-08 1.53314e-07 -4.83883e-05
0.000340653 -4.90409e-05 -1.38411e-07
-4.90409e-05 -0.000104248 -6.81509e-07
-1.38411e-07 -6.81509e-07 -0.000267194
0.001777 -4.02746e-05 -2.38724e-06
-4.02746e-05 9.63189e-05 1.39632e-07
-2.38724e-06 1.39632e-07 2.90145e-06
0.00184809 -0.00012192 -5.15736e-07
-0.00012192 0.000140475 1.35205e-06
-5.15736e-07 1.35205e-06 3.10274e-05
0.00172323 -8.29596e-05 2.51904e-06
-8.29596e-05 1.92939e-05 -2.15599e-07
2.51904e-06 -2.15599e-07 -5.60444e-05
0.00181983 -0.000200687 -2.85048e-06
-0.000200687 7.12866e-05 6.66557e-07
-2.85048e-06 6.66557e-07 -1.9083e-05
0.00173233 -0.000279688 -3.12998e-06
-0.000279688 9.74483e-05 2.47304e-06
-3.12998e-06 2.47304e-06 -3.52622e-05
0.00199166 -0.000255299 3.07272e-06
-0.000255299 0.000202894 -1.16247e-06
3.07272e-06 -1.16247e-06 0.000104939
0.000957703 -0.000221715 7.70527e-07
-0.000221715 0.000167144 -4.65888e-06
7.70527e-07 -4.65888e-06 -3.60713e-05
0.0016668 -0.00032521 -4.52052e-06
-0.00032521 7.21345e-05 2.10431e-06
-4.52052e-06 2.10431e-06 -6.47245e-05
0.00136103 -0.000326247 3.04516e-06
-0.000326247 0.000274742 -3.59895e-06
3.04516e-06 -3.59895e-06 2.05938e-05
0.00170008 -0.000426011 -1.65915e-06
-0.000426011 0.000304865 1.7639e-06
-1.65915e-06 1.7639e-06 2.79241e-05
0.00176765 -0.000401732 1.73137e-06
-0.000401732 0.000201244 5.03106e-06
1.73137e-06 5.03106e-06 -2.46406e-05
0.00208035 -0.000354066 1.2138e-07
-0.000354066 0.000345542 6.70476e-07
1.2138e-07 6.70476e-07 0.000185795
0.000520668 -3.84023e-05 9.02024e-07
-3.84023e-05 -1.32829e-05 -3.41796e-06
9.02024e-07 -3.41796e-06 -9.58409e-05
0.000465907 -4.75156e-05 -2.07547e-06
-4.75156e-05 -1.72072e-05 -9.62856e-07
-2.07547e-06 -9.62856e-07 -0.000164784
0.000918816 -0.000225579 -1.72994e-06
-0.000225579 0.000161492 4.29166e-07
-1.72994e-06 4.29166e-07 -3.98076e-05
0.000824434 -0.000160065 -4.03994e-08
-0.000160065 0.000202763 3.26101e-06
-4.03994e-08 3.26101e-06 3.47117e-06
0.00147073 -0.000278711 -5.00327e-06
-0.000278711 0.000514995 4.3194e-06
-5.00327e-06 4.3194e-06 0.000309456
0.000467223 -6.22072e-05 -3.39526e-07
-6.22072e-05 -5.41028e-05 -5.20773e-06
-3.39526e-07 -5.20773e-06 -8.34825e-05
0.00144992 0.000211 -4.48829e-06
0.000211 9.71108e-05 -1.26036e-06
-4.48829e-06 -1.26036e-06 -7.4822e-05
0.000495869 -2.91071e-05 -4.20053e-07
-2.91071e-05 -2.80573e-05 -3.63479e-06
-4.20053e-07 -3.63479e-06 -0.000111891
0.000682209 9.43518e-05 -1.72785e-06
9.43518e-05 7.66693e-05 -4.9756e-06
-1.72785e-06 -4.9756e-06 -6.59462e-05
0.000499633 7.19769e-05 1.13771e-06
7.19769e-05 2.37976e-06 -3.64285e-07
1.13771e-06 -3.64285e-07 -0.000162842
0.00133638 0.000250212 -6.13417e-06
0.000250212 0.000134554 -2.20279e-06
-6.13417e-06 -2.20279e-06 -6.03897e-05
0.00169713 0.000310807 -2.67019e-08
0.000310807 0.000172847 5.97634e-07
-2.67019e-08 5.97634e-07 -1.89683e-05
0.000890403 0.000215805 -1.69945e-06
0.000215805 0.000119912 -4.19613e-06
-1.69945e-06 -4.19613e-06 -9.36375e-05
0.0013713 0.00030399 -2.86611e-06
0.00030399 0.000240291 -1.57961e-06
-2.86611e-06 -1.57961e-06 -1.49216e-05
0.00176506 0.000340991 -1.94787e-06
0.000340991 0.000361794 -1.74391e-07
-1.94787e-06 -1.74391e-07 0.000141133
0.00161934 0.000328733 -5.00477e-06
0.000328733 0.000256599 4.28512e-06
-5.00477e-06 4.28512e-06 2.75871e-05
0.000530143 -5.15128e-05 5.65825e-09
-5.15128e-05 -3.08252e-05 4.06216e-09
5.65825e-09 4.06216e-09 -5.42824e-05
0.000631037 -1.57957e-05 -6.43688e-07
-1.57957e-05 4.00217e-05 3.20086e-07
-6.43688e-07 3.20086e-07 -2.78716e-05
0.000979833 0.000189413 -1.77911e-07
0.000189413 0.000240463 1.04871e-06
-1.77911e-07 1.04871e-06 5.41577e-05
0.000667315 2.60134e-05 -3.93985e-07
2.60134e-05 0.000104742 -2.17868e-08
-3.93985e-07 -2.17868e-08 -3.44458e-05
0.000615604 0.000123167 7.09294e-07
0.000123167 4.34836e-05 -5.55694e-07
7.09294e-07 -5.55694e-07 -0.000136813
0.0017749 0.000276819 -3.5437e-07
0.000276819 0.000168556 -9.38112e-07
-3.5437e-07 -9.38112e-07 -6.90208e-07
0.00163176 0.000338783 5.20326e-07
0.000338783 0.000200736 1.90924e-07
5.20326e-07 1.90924e-07 -1.1489e-05
0.00176155 0.000345599 1.76925e-06
0.000345599 0.000176177 2.32242e-07
1.76925e-06 2.32242e-07 -9.14949e-06
0.00123946 0.00028395 1.40712e-06
0.00028395 0.000279888 6.07518e-07
1.40712e-06 6.07518e-07 2.91743e-05
0.0018392 0.000399332 1.05075e-06
0.000399332 0.000320066 1.62386e-07
1.05075e-06 1.62386e-07 8.76304e-05
0.00141635 0.000320039 -1.44398e-06
0.000320039 0.000210045 3.07983e-07
-1.44398e-06 3.07983e-07 -4.5974e-05
0.00068179 -1.85723e-06 2.13324e-06
-1.85723e-06 6.00803e-05 2.69324e-06
2.13324e-06 2.69324e-06 2.04624e-06
0.00092993 6.59711e-05 6.75586e-07
6.59711e-05 0.000249741 2.7932e-06
6.75586e-07 2.7932e-06 0.000135597
0.00111516 0.000247409 -3.18978e-06
0.000247409 0.000277861 -8.24489e-07
-3.18978e-06 -8.24489e-07 7.29611e-05
0.00131503 9.71133e-05 -1.87287e-07
9.71133e-05 0.000495876 4.74386e-07
-1.87287e-07 4.74386e-07 0.000321391
0.00114963 0.000151156 -5.88197e-06
0.000151156 0.000313831 -6.58494e-06
-5.88197e-06 -6.58494e-06 0.000147403
0.00179867 0.000287365 -2.74807e-06
0.000287365 0.000150468 -2.60749e-06
-2.74807e-06 -2.60749e-06 -1.67854e-06
0.00182382 0.000396149 1.23329e-06
0.000396149 0.000258471 2.58238e-07
1.23329e-06 2.58238e-07 4.30256e-05
0.00156144 0.000367186 3.3617e-06
0.000367186 3.27802e-05 -6.33963e-07
3.3617e-06 -6.33963e-07 -0.000150413
0.000808859 0.000260758 -1.32764e-06
0.000260758 2.09067e-05 2.63887e-06
-1.32764e-06 2.63887e-06 -0.000234652
0.0014158 0.000366861 6.3835e-06
0.000366861 0.000132391 -1.14472e-06
6.3835e-06 -1.14472e-06 -0.000117759
0.000618527 -2.70042e-06 -1.88294e-07
-2.70042e-06 1.94598e-05 2.84818e-08
-1.88294e-07 2.84818e-08 -3.3599e-05
0.000548477 2.68984e-05 1.53568e-06
2.68984e-05 -2.87177e-06 1.6842e-06
1.53568e-06 1.6842e-06 -8.57769e-05
0.0005362 1.78738e-05 -5.96603e-07
1.78738e-05 -6.57224e-06 -1.17551e-07
-5.96603e-07 -1.17551e-07 -8.89365e-05
0.000933577 9.84011e-05 3.78281e-07
9.84011e-05 0.0002426 -5.83293e-07
3.78281e-07 -5.83293e-07 0.000138908
0.000675742 7.55466e-05 2.00225e-06
7.55466e-05 8.56688e-05 1.58274e-06
2.00225e-06 1.58274e-06 -1.86357e-06
0.000607459 3.23554e-05 2.33375e-06
3.23554e-05 2.32538e-05 2.51546e-06
2.33375e-06 2.51546e-06 -2.95396e-05
0.000604617 -6.37865e-06 -6.30038e-07
-6.37865e-06 1.68269e-05 -9.91695e-09
-6.30038e-07 -9.91695e-09 -3.51173e-05
0.0012434 -3.81025e-05 9.12338e-07
-3.81025e-05 0.000381606 2.60105e-06
9.12338e-07 2.60105e-06 0.000369084
0.00060996 -1.28194e-05 -1.42265e-06
-1.28194e-05 1.53799e-05 -2.46424e-06
-1.42265e-06 -2.46424e-06 -3.59273e-05
0.00129659 -4.78447e-05 -5.4988e-06
-4.78447e-05 0.000416426 -1.41281e-06
-5.4988e-06 -1.41281e-06 0.000402526
0.000854849 -4.08096e-05 2.36422e-05
-4.08096e-05 0.000159397 7.67321e-06
2.36422e-05 7.67321e-06 0.000163689
0.00131547 -5.6921e-05 -9.66634e-06
-5.6921e-05 0.000433423 -3.93339e-06
-9.66634e-06 -3.93339e-06 0.000417248
0.00158743 -6.92377e-05 2.11874e-05
-6.92377e-05 0.000609936 1.89472e-06
2.11874e-05 1.89472e-06 0.000614232
0.00234377 -9.95395e-05 -2.91552e-05
-9.95395e-05 0.00107376 -3.58368e-06
-2.91552e-05 -3.58368e-06 0.00107838
0.000452088 6.63037e-05 -2.66245e-06
6.63037e-05 -5.7211e-05 -5.435e-06
-2.66245e-06 -5.435e-06 -9.0054e-05
0.00050232 1.61071e-05 4.15475e-07
1.61071e-05 -3.07629e-05 3.66634e-07
4.15475e-07 3.66634e-07 -6.70231e-05
0.00276645 0.000125091 3.31228e-05
0.000125091 0.00133874 -3.54753e-06
3.31228e-05 -3.54753e-06 0.0013355
0.00327466 0.000111055 -7.33302e-06
0.000111055 0.00164537 -4.65743e-07
-7.33302e-06 -4.65743e-07 0.0016453
0.000628611 -1.0004e-05 -6.23008e-06
-1.0004e-05 4.07774e-05 8.26175e-06
-6.23008e-06 8.26175e-06 -2.83194e-06
0.00381535 0.000106644 -0.00012215
0.000106644 0.00197018 7.22294e-06
-0.00012215 7.22294e-06 0.00197023
0.00148744 0.000178787 -3.88113e-06
0.000178787 8.60361e-05 -5.00204e-07
-3.88113e-06 -5.00204e-07 -7.18705e-05
0.00148658 9.98936e-05 -2.03409e-06
9.98936e-05 6.06105e-05 -3.22353e-08
-2.03409e-06 -3.22353e-08 -7.39022e-05
0.00179641 0.000181887 -4.57097e-07
0.000181887 0.000123931 1.36764e-06
-4.57097e-07 1.36764e-06 -2.79249e-06
0.00180504 8.8115e-05 1.08751e-06
8.8115e-05 8.68084e-05 7.0413e-07
1.08751e-06 7.0413e-07 -6.42925e-06
0.00146802 3.7512e-05 -1.54888e-06
3.7512e-05 5.26864e-05 -1.71556e-08
-1.54888e-06 -1.71556e-08 -7.07382e-05
0.000991202 6.41639e-06 -1.21179e-05
6.41639e-06 -3.22635e-05 -8.03486e-08
-1.21179e-05 -8.03486e-08 -0.000153057
0.00146226 8.51118e-06 7.17228e-08
8.51118e-06 5.27522e-05 3.02789e-08
7.17228e-08 3.02789e-08 -6.95104e-05
0.00181315 3.71579e-05 -2.05819e-06
3.71579e-05 0.000107714 -7.13021e-08
-2.05819e-06 -7.13021e-08 2.05261e-05
0.00182099 0.000140333 -3.12676e-07
0.000140333 0.000109634 2.45678e-07
-3.12676e-07 2.45678e-07 -7.19762e-07
0.00181342 8.82945e-05 2.34934e-06
8.82945e-05 4.08089e-05 6.65709e-07
2.34934e-06 6.65709e-07 -2.4805e-05
0.00179284 0.000231334 -2.85171e-07
0.000231334 0.000145788 -1.13925e-07
-2.85171e-07 -1.13925e-07 -1.02566e-06
0.00179346 0.000201409 -3.85973e-07
0.000201409 5.40519e-05 7.97425e-07
-3.85973e-07 7.97425e-07 -4.31355e-05
0.00178398 1.43937e-06 -2.5967e-06
1.43937e-06 9.97784e-05 1.50888e-07
-2.5967e-06 1.50888e-07 1.30349e-05
0.0017762 4.10332e-05 4.05774e-06
4.10332e-05 2.95341e-05 2.31852e-07
4.05774e-06 2.31852e-07 -2.98524e-05
0.00182422 0.000146637 4.49004e-07
0.000146637 4.87163e-05 -4.97929e-07
4.49004e-07 -4.97929e-07 -2.86112e-05
0.00185675 9.40037e-05 5.94135e-06
9.40037e-05 4.32154e-05 6.98968e-07
5.94135e-06 6.98968e-07 -6.5767e-06
0.00177793 0.000230641 -6.05938e-08
0.000230641 9.22888e-05 -2.22232e-06
-6.05938e-08 -2.22232e-06 -2.84364e-05
0.00189336 0.000209713 3.98876e-06
0.000209713 7.66549e-05 9.69862e-07
3.98876e-06 9.69862e-07 -4.56276e-06
0.00149039 -1.83868e-05 -3.53093e-06
-1.83868e-05 7.10368e-05 6.36363e-08
-3.53093e-06 6.36363e-08 -5.17977e-05
0.00176234 -0.000107332 -5.84182e-06
-0.000107332 0.000237065 6.83006e-07
-5.84182e-06 6.83006e-07 0.000107162
0.00180319 -7.19066e-05 3.36479e-06
-7.19066e-05 0.000114696 -1.25309e-06
3.36479e-06 -1.25309e-06 2.34719e-05
0.00174698 -0.000170702 -2.77317e-07
-0.000170702 9.79251e-05 -8.94407e-08
-2.77317e-07 -8.94407e-08 -2.9317e-05
0.000855479 -0.000192116 -5.8131e-06
-0.000192116 0.000162235 7.80853e-06
-5.8131e-06 7.80853e-06 -1.07483e-05
0.00117632 -0.000258853 -6.56664e-06
-0.000258853 0.000204002 3.83542e-06
-6.56664e-06 3.83542e-06 -1.34289e-05
0.00134865 -0.000335038 -3.63969e-07
-0.000335038 0.000171371 8.45711e-07
-3.63969e-07 8.45711e-07 -7.72308e-05
0.00165443 -0.000256449 -1.08674e-06
-0.000256449 0.000120147 1.58467e-07
-1.08674e-06 1.58467e-07 -4.30182e-05
0.00192601 -0.000247969 2.52593e-06
-0.000247969 0.000177845 -1.65249e-06
2.52593e-06 -1.65249e-06 7.11826e-05
0.00180563 -0.000316353 2.17461e-06
-0.000316353 0.000173294 -1.10433e-06
2.17461e-06 -1.10433e-06 1.4266e-05
0.00176022 -0.000397789 -5.40542e-07
-0.000397789 0.000237441 -1.97694e-06
-5.40542e-07 -1.97694e-06 3.27509e-06
0.00205675 -0.000359535 5.73299e-06
-0.000359535 0.000343421 -6.16235e-06
5.73299e-06 -6.16235e-06 0.000180416
0.000936119 -0.000194404 6.27936e-07
-0.000194404 0.000206325 1.99419e-06
6.27936e-07 1.99419e-06 1.98987e-05
0.000589503 -0.00015993 1.03382e-06
-0.00015993 -1.17649e-06 -6.41324e-07
1.03382e-06 -6.41324e-07 -0.0001896
0.000700865 -4.37448e-05 -1.33033e-06
-4.37448e-05 8.97532e-05 3.60056e-06
-1.33033e-06 3.60056e-06 -7.0623e-06
0.000218661 -1.83291e-05 1.05974e-06
-1.83291e-05 -0.000182791 -2.43113e-06
1.05974e-06 -2.43113e-06 -0.00033644
0.00177726 -4.038e-05 8.25731e-09
-4.038e-05 9.80262e-05 1.17408e-07
8.25731e-09 1.17408e-07 4.51692e-06
0.00179541 -0.000121267 7.38691e-07
-0.000121267 0.000112478 -3.61208e-07
7.38691e-07 -3.61208e-07 8.20792e-07
0.00175893 -8.141e-05 2.25456e-06
-8.141e-05 3.99864e-05 -5.93614e-07
2.25456e-06 -5.93614e-07 -3.08762e-05
0.00179175 -0.000197271 -1.87641e-06
-0.000197271 6.02014e-05 6.65203e-07
-1.87641e-06 6.65203e-07 -3.21835e-05
0.0010008 -0.000219036 -1.32626e-06
-0.000219036 0.000195231 5.56673e-07
-1.32626e-06 5.56673e-07 -7.34671e-06
0.00109141 -0.000295173 1.98371e-06
-0.000295173 0.000114509 -1.80004e-06
1.98371e-06 -1.80004e-06 -0.000131586
0.00162743 -0.000425261 -1.28709e-07
-0.000425261 0.000260602 9.59528e-07
-1.28709e-07 9.59528e-07 -1.97834e-05
0.00170875 -0.00027697 -1.51925e-06
-0.00027697 8.98792e-05 7.83764e-07
-1.51925e-06 7.83764e-07 -4.64923e-05
0.00187332 -0.00025203 1.90846e-06
-0.00025203 0.000131251 -9.75527e-07
1.90846e-06 -9.75527e-07 3.73505e-05
0.00176239 -0.000404444 -5.45113e-07
-0.000404444 0.00020448 6.2097e-07
-5.45113e-07 6.2097e-07 -2.31378e-05
0.00172535 -0.000328929 -6.65932e-07
-0.000328929 0.000101488 1.0499e-06
-6.65932e-07 1.0499e-06 -3.5948e-05
0.00191121 -0.000342916 3.75477e-06
-0.000342916 0.000234225 -5.61701e-06
3.75477e-06 -5.61701e-06 8.03321e-05
0.00105071 -0.00023895 5.82657e-07
-0.00023895 0.000234271 1.58551e-06
5.82657e-07 1.58551e-06 3.10901e-05
0.00129873 -0.000255987 3.99639e-06
-0.000255987 0.000404399 1.48744e-06
3.99639e-06 1.48744e-06 0.00020851
0.000774415 -0.000125962 -1.63308e-07
-0.000125962 0.000170042 -3.07402e-07
-1.63308e-07 -3.07402e-07 -2.99398e-05
0.000456975 -1.21342e-05 -1.46315e-06
-1.21342e-05 -5.16029e-05 5.03379e-07
-1.46315e-06 5.03379e-07 -0.000135581
0.000337938 -1.19726e-05 -3.16446e-07
-1.19726e-05 -9.69165e-05 -4.84321e-07
-3.16446e-07 -4.84321e-07 -0.000237085
0.00189375 -5.2359e-05 2.32915e-06
-5.2359e-05 0.000102798 -7.48855e-07
2.32915e-06 -7.48855e-07 4.7658e-05
0.00188463 -0.000119333 3.46386e-06
-0.000119333 9.26035e-05 1.85986e-09
3.46386e-06 1.85986e-09 2.15372e-05
0.00185826 -0.000239988 1.51837e-06
-0.000239988 6.79853e-05 -1.825e-06
1.51837e-06 -1.825e-06 -7.11116e-06
0.00169414 -0.000277379 -2.6525e-07
-0.000277379 4.58272e-05 -3.86893e-07
-2.6525e-07 -3.86893e-07 -6.11248e-05
0.00132558 -0.000284361 -2.11406e-06
-0.000284361 0.000345678 -4.76628e-06
-2.11406e-06 -4.76628e-06 0.000115246
0.00223244 -0.000394826 -2.85617e-06
-0.000394826 0.000332959 5.01135e-08
-2.85617e-06 5.01135e-08 0.000196472
0.00139796 -0.000378109 2.82836e-06
-0.000378109 0.000263074 -4.73602e-06
2.82836e-06 -4.73602e-06 -2.22468e-05
0.00176766 -0.000477133 -6.45661e-07
-0.000477133 0.000304451 2.11308e-06
-6.45661e-07 2.11308e-06 8.6601e-06
0.0016636 -0.000389037 1.75967e-06
-0.000389037 0.000122524 3.87252e-06
1.75967e-06 3.87252e-06 -9.57124e-05
0.000219821 9.35783e-06 6.09554e-08
9.35783e-06 -0.000192288 -3.52396e-06
6.09554e-08 -3.52396e-06 -0.000263076
0.000716804 -4.77278e-05 5.39246e-07
-4.77278e-05 0.000142792 -8.51339e-07
5.39246e-07 -8.51339e-07 1.126e-05
0.0010109 -8.03975e-05 -1.40589e-06
-8.03975e-05 0.000307724 1.18192e-06
-1.40589e-06 1.18192e-06 0.000138205
0.00123007 -0.000267601 -7.96121e-06
-0.000267601 0.00031871 2.38469e-07
-7.96121e-06 2.38469e-07 0.000111744
0.000445085 -0.000131212 2.82697e-06
-0.000131212 -4.08923e-05 5.74592e-06
2.82697e-06 5.74592e-06 -0.000251402
0.000664617 -0.000218395 -2.08578e-06
-0.000218395 -8.52994e-06 7.44539e-07
-2.08578e-06 7.44539e-07 -0.000196337
0.000536177 -4.95169e-05 -1.10932e-06
-4.95169e-05 -2.85094e-05 -4.71789e-06
-1.10932e-06 -4.71789e-06 -5.13938e-05
0.000578851 -1.99241e-05 -1.76738e-06
-1.99241e-05 1.13645e-05 -2.90714e-06
-1.76738e-06 -2.90714e-06 -5.64514e-05
0.00175446 0.000277198 -1.66564e-06
0.000277198 0.000153431 -3.7029e-07
-1.66564e-06 -3.7029e-07 -1.62534e-05
0.000228682 -4.96748e-05 1.1783e-06
-4.96748e-05 -0.000159413 -2.69523e-06
1.1783e-06 -2.69523e-06 -0.000291083
0.000777098 0.000172334 -1.02686e-06
0.000172334 0.000122135 1.7457e-07
-1.02686e-06 1.7457e-07 -6.01955e-05
0.0001051 6.78716e-05 1.72168e-06
6.78716e-05 -0.000268522 1.61414e-06
1.72168e-06 1.61414e-06 -0.00043783
0.00162129 0.000338551 2.4984e-07
0.000338551 0.00019307 3.19678e-07
2.4984e-07 3.19678e-07 -1.94607e-05
0.00167926 0.000341316 4.4405e-07
0.000341316 0.000130738 1.13704e-07
4.4405e-07 1.13704e-07 -5.47603e-05
0.00125166 0.000284253 1.43573e-06
0.000284253 0.0002957 -1.68555e-06
1.43573e-06 -1.68555e-06 4.29855e-05
0.00198277 0.000367761 -1.71176e-06
0.000367761 0.000544452 -1.22196e-06
-1.71176e-06 -1.22196e-06 0.000284101
0.00172134 0.000388298 -2.525e-06
0.000388298 0.000234198 4.24894e-07
-2.525e-06 4.24894e-07 2.14074e-06
0.000614489 -1.93814e-06 -3.88694e-07
-1.93814e-06 2.11775e-05 2.99772e-07
-3.88694e-07 2.99772e-07 -3.66691e-05
0.000707449 6.74175e-06 -8.16263e-07
6.74175e-06 0.000114861 4.86278e-07
-8.16263e-07 4.86278e-07 6.99514e-06
0.00112357 0.000248569 -7.57222e-07
0.000248569 0.000285352 1.08447e-07
-7.57222e-07 1.08447e-07 7.89993e-05
0.000823599 4.84383e-05 4.09379e-07
4.84383e-05 0.000197967 7.11539e-09
4.09379e-07 7.11539e-09 3.27162e-05
0.000778174 0.000160115 1.95822e-06
0.000160115 0.000110866 1.32527e-06
1.95822e-06 1.32527e-06 -6.18464e-05
0.00177122 0.000288445 -2.00676e-06
0.000288445 0.000136551 -1.54382e-06
-2.00676e-06 -1.54382e-06 -1.67334e-05
0.00178108 0.00039236 1.64651e-06
0.00039236 0.000231588 3.83298e-07
1.64651e-06 3.83298e-07 1.63923e-05
0.00168389 0.000370525 4.05931e-07
0.000370525 0.00010544 -1.42285e-07
4.05931e-07 -1.42285e-07 -7.65771e-05
0.000852619 0.000272433 9.34509e-07
0.000272433 3.81872e-05 3.47681e-06
9.34509e-07 3.47681e-06 -0.000219197
0.00161868 0.000384057 -2.32936e-06
0.000384057 0.000264025 -1.26725e-06
-2.32936e-06 -1.26725e-06 1.038e-05
0.000779353 3.80566e-05 6.04667e-07
3.80566e-05 0.00014804 2.1167e-06
6.04667e-07 2.1167e-06 5.40564e-05
0.000329222 -6.09618e-06 -1.69942e-06
-6.09618e-06 -9.60803e-05 2.14655e-06
-1.69942e-06 2.14655e-06 -0.000225737
0.0012367 0.000276088 -3.86897e-06
0.000276088 0.000304649 -2.05555e-06
-3.86897e-06 -2.05555e-06 9.67171e-05
0.000752878 0.000131949 -5.62059e-06
0.000131949 0.000173503 -4.99164e-06
-5.62059e-06 -4.99164e-06 -1.49318e-05
0.000710591 0.000217525 -1.2377e-06
0.000217525 3.3944e-05 -3.21423e-06
-1.2377e-06 -3.21423e-06 -0.000139871
0.00167817 0.000308602 -7.4983e-07
0.000308602 1.72582e-05 -2.11906e-06
-7.4983e-07 -2.11906e-06 -0.000112695
0.00192969 0.000430229 3.39462e-06
0.000430229 0.000303507 -1.90216e-06
3.39462e-06 -1.90216e-06 7.49752e-05
0.00157469 0.000384503 1.89626e-06
0.000384503 3.27841e-05 2.3391e-08
1.89626e-06 2.3391e-08 -0.000152643
0.00116238 0.000309802 1.65012e-06
0.000309802 0.000173089 7.92053e-06
1.65012e-06 7.92053e-06 -9.94199e-05
0.00133734 0.000386991 -9.69108e-07
0.000386991 0.000114382 -8.11778e-07
-9.69108e-07 -8.11778e-07 -0.000142857
0.000598299 -1.28725e-05 -1.72761e-06
-1.28725e-05 8.06752e-06 -2.55702e-06
-1.72761e-06 -2.55702e-06 -4.53679e-05
0.000606724 3.15306e-05 1.05752e-06
3.15306e-05 3.37412e-05 3.53515e-07
1.05752e-06 3.53515e-07 -4.98389e-05
0.000512873 1.2282e-05 -2.11893e-08
1.2282e-05 -2.31581e-05 1.06278e-06
-2.11893e-08 1.06278e-06 -0.000111032
0.000419375 -2.65648e-05 -7.86062e-07
-2.65648e-05 -7.58327e-05 -1.5503e-06
-7.86062e-07 -1.5503e-06 -0.000157568
0.000652275 3.94777e-05 -2.90617e-07
3.94777e-05 7.08895e-05 1.15965e-08
-2.90617e-07 1.15965e-08 -1.5085e-05
0.000682768 5.34928e-05 -4.02542e-07
5.34928e-05 8.19562e-05 -3.38757e-07
-4.02542e-07 -3.38757e-07 -1.13149e-05
0.000804826 8.55215e-05 -1.29935e-06
8.55215e-05 0.000164178 -2.11002e-06
-1.29935e-06 -2.11002e-06 6.2249e-05
0.000480234 -8.16692e-06 8.71846e-07
-8.16692e-06 -2.21083e-05 2.13481e-07
8.71846e-07 2.13481e-07 -0.000126777
0.00068438 6.44369e-05 1.03583e-06
6.44369e-05 8.71817e-05 1.74677e-06
1.03583e-06 1.74677e-06 4.37276e-06
0.000619146 3.9374e-05 2.49775e-06
3.9374e-05 3.51619e-05 2.5376e-06
2.49775e-06 2.5376e-06 -1.93245e-05
0.000604852 3.15119e-06 -1.33724e-06
3.15119e-06 2.14461e-05 -2.54082e-09
-1.33724e-06 -2.54082e-09 -3.11202e-05
0.0012506 -2.56667e-05 1.02605e-06
-2.56667e-05 0.000385219 2.54943e-06
1.02605e-06 2.54943e-06 0.000373568
0.000564084 -4.82006e-05 -5.58042e-09
-4.82006e-05 -3.03139e-06 -2.49067e-06
-5.58042e-09 -2.49067e-06 -5.73113e-05
0.0012969 -3.49052e-05 -4.76159e-06
-3.49052e-05 0.000413394 -1.4678e-06
-4.76159e-06 -1.4678e-06 0.000401188
0.00084589 -3.27857e-05 2.00005e-05
-3.27857e-05 0.00014898 8.04855e-06
2.00005e-05 8.04855e-06 0.000154835
0.00133907 -4.55736e-05 -8.61223e-06
-4.55736e-05 0.0004416 -5.58589e-06
-8.61223e-06 -5.58589e-06 0.000427922
0.000801372 -4.18598e-05 7.24411e-06
-4.18598e-05 0.000126652 3.01336e-06
7.24411e-06 3.01336e-06 0.000130333
0.00227731 -9.31748e-05 -4.39019e-06
-9.31748e-05 0.00102552 -2.01602e-06
-4.39019e-06 -2.01602e-06 0.00103156
0.000484506 4.67074e-05 -9.7508e-07
4.67074e-05 -5.27516e-05 -3.95103e-06
-9.7508e-07 -3.95103e-06 -7.4825e-05
0.000499931 4.07288e-05 -1.4188e-06
4.07288e-05 -3.44699e-05 -2.54261e-08
-1.4188e-06 -2.54261e-08 -6.42602e-05
0.00250599 0.000106295 2.46237e-05
0.000106295 0.00117575 -3.69197e-06
2.46237e-05 -3.69197e-06 0.00117752
0.000577972 -4.7481e-07 -4.85544e-06
-4.7481e-07 1.08682e-05 6.96531e-06
-4.85544e-06 6.96531e-06 -2.40051e-05
0.0029109 0.000121689 -1.63083e-05
0.000121689 0.00142426 -7.41282e-07
-1.63083e-05 -7.41282e-07 0.00142209
0.00340019 9.77261e-05 -0.00010205
9.77261e-05 0.00171758 5.67512e-06
-0.00010205 5.67512e-06 0.00172057
0.00176477 0.0002317 -1.92146e-06
0.0002317 0.000124782 7.50173e-07
-1.92146e-06 7.50173e-07 -2.26308e-05
0.00181824 0.000137814 1.13206e-06
0.000137814 0.000108437 1.4537e-06
1.13206e-06 1.4537e-06 -1.66046e-06
0.00183124 0.000198649 4.48549e-07
0.000198649 7.47854e-05 2.13001e-06
4.48549e-07 2.13001e-06 -1.91074e-05
0.00183754 8.65171e-05 5.26222e-07
8.65171e-05 5.43987e-05 8.29423e-07
5.26222e-07 8.29423e-07 -5.70022e-06
0.00180993 3.08678e-05 -7.33483e-07
3.08678e-05 0.000106168 6.37588e-08
-7.33483e-07 6.37588e-08 1.93548e-05
0.00146322 1.13895e-05 -1.43651e-06
1.13895e-05 5.43138e-05 6.79028e-08
-1.43651e-06 6.79028e-08 -6.79691e-05
0.00176909 2.5515e-06 -1.96384e-06
2.5515e-06 8.99996e-05 -7.80278e-09
-1.96384e-06 -7.80278e-09 7.75235e-07
0.00180728 3.97234e-05 2.29495e-06
3.97234e-05 5.20504e-05 1.24116e-07
2.29495e-06 1.24116e-07 -8.858e-06
0.00187641 0.000146595 -1.2835e-06
0.000146595 8.26894e-05 -5.12564e-07
-1.2835e-06 -5.12564e-07 5.30535e-06
0.00185993 9.5848e-05 1.45865e-06
9.5848e-05 4.22692e-05 4.21838e-07
1.45865e-06 4.21838e-07 -4.96923e-06
0.00178784 0.000228994 -8.69555e-07
0.000228994 0.000106121 -2.5413e-07
-8.69555e-07 -2.5413e-07 -1.43886e-05
0.00187722 0.000212034 3.48462e-06
0.000212034 6.79565e-05 1.45027e-06
3.48462e-06 1.45027e-06 -1.05222e-05
0.00180646 -6.83661e-06 2.29228e-06
-6.83661e-06 6.19833e-05 2.59656e-07
2.29228e-06 2.59656e-07 4.35958e-06
0.00185801 4.38674e-05 5.49427e-06
4.38674e-05 2.73175e-05 -3.11788e-08
5.49427e-06 -3.11788e-08 -3.79019e-06
0.0019049 0.000149551 4.43281e-06
0.000149551 5.48909e-05 1.10593e-06
4.43281e-06 1.10593e-06 2.29573e-06
0.00193806 0.000267584 3.55825e-07
0.000267584 0.000116577 -1.00426e-07
3.55825e-07 -1.00426e-07 2.24046e-05
0.00178321 -4.0559e-05 1.61245e-06
-4.0559e-05 0.000102923 1.09177e-07
1.61245e-06 1.09177e-07 9.34353e-06
0.00173884 -0.000122009 2.40533e-06
-0.000122009 8.21656e-05 -1.19404e-06
2.40533e-06 -1.19404e-06 -3.1846e-05
0.00179129 -7.97707e-05 3.17694e-06
-7.97707e-05 5.87495e-05 -1.70302e-06
3.17694e-06 -1.70302e-06 -7.78072e-06
0.00178886 -0.000194197 -1.80863e-06
-0.000194197 6.2875e-05 4.13279e-07
-1.80863e-06 4.13279e-07 -3.12065e-05
0.00117523 -0.000233951 -1.91491e-06
-0.000233951 0.000301964 4.85375e-06
-1.91491e-06 4.85375e-06 9.57072e-05
0.00092083 -0.000273117 -1.12383e-06
-0.000273117 1.32847e-05 1.9225e-06
-1.12383e-06 1.9225e-06 -0.000225663
0.00161601 -0.000430465 1.41727e-06
-0.000430465 0.000253902 -7.67134e-07
1.41727e-06 -7.67134e-07 -3.11522e-05
0.00167451 -0.000273958 -2.58527e-07
-0.000273958 7.63174e-05 -2.33992e-07
-2.58527e-07 -2.33992e-07 -6.36886e-05
0.00172583 -0.000248021 2.04777e-06
-0.000248021 4.1836e-05 -7.56387e-07
2.04777e-06 -7.56387e-07 -4.79915e-05
0.00179275 -0.00033326 3.16868e-06
-0.00033326 0.000135181 1.50872e-08
3.16868e-06 1.50872e-08 -2.89132e-06
0.00175012 -0.000405657 -2.32168e-06
-0.000405657 0.000202624 -2.47878e-06
-2.32168e-06 -2.47878e-06 -2.62733e-05
0.00176894 -0.000333033 2.26155e-06
-0.000333033 0.000139459 -1.13814e-05
2.26155e-06 -1.13814e-05 -8.75495e-06
0.00121221 -0.000255035 3.5499e-06
-0.000255035 0.000326401 2.41011e-06
3.5499e-06 2.41011e-06 0.000120493
0.00100465 -0.0002257 5.43992e-06
-0.0002257 0.000214676 -2.68755e-06
5.43992e-06 -2.68755e-06 3.11615e-05
0.000668868 -0.000102064 2.22775e-06
-0.000102064 0.000105925 -4.55255e-06
2.22775e-06 -4.55255e-06 -9.64037e-05
0.000367398 6.27254e-06 -8.99511e-07
6.27254e-06 -0.000104657 3.20457e-06
-8.99511e-07 3.20457e-06 -0.00019082
0.000288509 1.63353e-05 1.60042e-06
1.63353e-05 -0.000129367 -2.47593e-08
1.60042e-06 -2.47593e-08 -0.000265287
0.00186477 -5.76337e-05 -2.0148e-07
-5.76337e-05 8.6359e-05 -1.59256e-07
-2.0148e-07 -1.59256e-07 2.77781e-05
0.00183639 -0.000120674 1.39447e-06
-0.000120674 6.1879e-05 -6.84607e-07
1.39447e-06 -6.84607e-07 -1.11353e-05
0.00185353 -0.000233364 -1.97117e-06
-0.000233364 7.49706e-05 3.00035e-07
-1.97117e-06 3.00035e-07 -2.5714e-06
0.00117105 -0.000267988 -1.61948e-06
-0.000267988 0.000253442 -3.21116e-07
-1.61948e-06 -3.21116e-07 2.57471e-05
0.0010302 -0.000333869 1.10507e-06
-0.000333869 4.10368e-05 -1.86644e-06
1.10507e-06 -1.86644e-06 -0.000232436
0.00163724 -0.000470202 -3.55018e-07
-0.000470202 0.000231199 -2.0914e-08
-3.55018e-07 -2.0914e-08 -6.69724e-05
0.00170301 -0.000277824 6.01401e-07
-0.000277824 4.56376e-05 -2.91751e-07
6.01401e-07 -2.91751e-07 -6.17253e-05
0.00177975 -0.00039424 9.32903e-07
-0.00039424 0.000191753 -2.59951e-06
9.32903e-07 -2.59951e-06 -2.00028e-05
0.0019233 -0.000372385 -4.35633e-07
-0.000372385 0.000170056 -1.11748e-06
-4.35633e-07 -1.11748e-06 3.50371e-05
0.000275997 3.72312e-05 -5.2179e-07
3.72312e-05 -0.000164655 -9.01643e-07
-5.2179e-07 -9.01643e-07 -0.000231053
0.00123759 -0.000266633 -2.87443e-07
-0.000266633 0.000309252 1.20628e-06
-2.87443e-07 1.20628e-06 0.000104134
0.000597021 -0.00020936 5.90074e-07
-0.00020936 -4.3139e-05 8.3445e-07
5.90074e-07 8.3445e-07 -0.000219199
0.000983312 -0.000178532 -6.41562e-07
-0.000178532 0.000282817 5.5688e-07
-6.41562e-07 5.5688e-07 6.20967e-05
0.00113356 -8.43874e-05 5.01848e-07
-8.43874e-05 0.000379799 -1.44043e-06
5.01848e-07 -1.44043e-06 0.000211345
0.000588759 -3.40375e-06 -5.76543e-07
-3.40375e-06 5.81582e-05 5.49369e-07
-5.76543e-07 5.49369e-07 -6.96112e-05
0.00180133 -6.66091e-05 3.79517e-06
-6.66091e-05 4.03057e-06 -5.35681e-07
3.79517e-06 -5.35681e-07 -3.61775e-05
0.0020102 -0.000162722 2.58813e-06
-0.000162722 8.69391e-05 -8.99473e-08
2.58813e-06 -8.99473e-08 4.84851e-05
0.00176104 -0.000272009 2.06943e-06
-0.000272009 -3.03671e-06 -1.93137e-06
2.06943e-06 -1.93137e-06 -6.93383e-05
0.00207702 -0.000347903 1.34017e-07
-0.000347903 0.000173326 -2.61046e-06
1.34017e-07 -2.61046e-06 7.19391e-05
0.00161411 -0.000335148 -5.05636e-06
-0.000335148 0.000466668 -4.999e-06
-5.05636e-06 -4.999e-06 0.000220517
0.00188707 -0.000417489 1.46981e-06
-0.000417489 0.000180291 3.72193e-06
1.46981e-06 3.72193e-06 4.23503e-06
0.00148927 -0.000442878 -4.16801e-06
-0.000442878 0.000271868 1.69998e-06
-4.16801e-06 1.69998e-06 -5.96731e-05
0.00171135 -0.000493489 -4.55596e-06
-0.000493489 0.000272783 2.53984e-06
-4.55596e-06 2.53984e-06 -3.82555e-05
0.00028264 5.46661e-05 -2.14147e-06
5.46661e-05 -0.000165075 -2.20966e-06
-2.14147e-06 -2.20966e-06 -0.000220436
0.000700872 1.62592e-06 -4.23609e-07
1.62592e-06 0.000120345 -5.39794e-07
-4.23609e-07 -5.39794e-07 1.25844e-05
0.000969353 -0.000108798 -2.04046e-06
-0.000108798 0.000287542 2.33364e-06
-2.04046e-06 2.33364e-06 0.000137334
0.00094216 -2.96212e-05 -2.19875e-06
-2.96212e-05 0.000258179 4.80142e-06
-2.19875e-06 4.80142e-06 5.52926e-05
0.000574539 -0.000232645 -4.79267e-06
-0.000232645 -0.000103831 -4.58916e-06
-4.79267e-06 -4.58916e-06 -0.000313956
0.000984215 -0.000242371 -7.76293e-06
-0.000242371 0.00022187 2.95076e-06
-7.76293e-06 2.95076e-06 -3.54551e-06
0.000551912 -9.45082e-06 -2.31597e-06
-9.45082e-06 -1.55545e-05 -2.45859e-06
-2.31597e-06 -2.45859e-06 -7.28667e-05
0.000471916 -3.05515e-05 6.49006e-07
-3.05515e-05 -3.33312e-05 -2.02783e-06
6.49006e-07 -2.02783e-06 -0.000132091
0.00174804 0.000290162 -2.4688e-06
0.000290162 0.000123686 -6.83541e-07
-2.4688e-06 -6.83541e-07 -3.08388e-05
0.000352545 -2.81324e-06 8.13436e-07
-2.81324e-06 -8.84223e-05 -5.51481e-07
8.13436e-07 -5.51481e-07 -0.000242351
0.0011409 0.000250278 1.93527e-06
0.000250278 0.000298237 -3.80765e-07
1.93527e-06 -3.80765e-07 9.09087e-05
3.81245e-05 7.58874e-05 3.53999e-06
7.58874e-05 -0.000341253 3.41341e-06
3.53999e-06 3.41341e-06 -0.000491736
0.0017462 0.0003896 -1.52705e-07
0.0003896 0.000207054 1.09324e-07
-1.52705e-07 1.09324e-07 -8.08899e-06
0.00181935 0.000375104 -2.14782e-06
0.000375104 0.000183194 9.95569e-07
-2.14782e-06 9.95569e-07 2.08732e-06
0.000898956 0.000282978 -9.74888e-07
0.000282978 6.0152e-05 4.34295e-07
-9.74888e-07 4.34295e-07 -0.00019909
0.0019117 0.000408827 -2.52658e-06
0.000408827 0.000448296 6.54702e-07
-2.52658e-06 6.54702e-07 0.000189117
0.000686421 1.48416e-05 -9.51885e-07
1.48416e-05 8.90161e-05 2.33721e-07
-9.51885e-07 2.33721e-07 -5.32017e-07
0.000585472 2.55615e-05 8.00056e-07
2.55615e-05 5.62043e-05 9.66458e-07
8.00056e-07 9.66458e-07 -7.61269e-05
0.00139171 0.000290374 -7.07721e-07
0.000290374 0.000407864 -2.58408e-06
-7.07721e-07 -2.58408e-06 0.000193308
0.000565426 4.50451e-05 -1.15827e-06
4.50451e-05 3.17436e-05 -3.17508e-07
-1.15827e-06 -3.17508e-07 -0.000129165
0.000549781 0.000184102 -1.54199e-06
0.000184102 -7.38568e-05 -5.49912e-07
-1.54199e-06 -5.49912e-07 -0.000227423
0.00189093 0.000319887 -2.90483e-06
0.000319887 0.00013733 -1.26571e-06
-2.90483e-06 -1.26571e-06 9.38856e-06
0.00201517 0.000431343 1.96901e-06
0.000431343 0.000357942 -3.54417e-07
1.96901e-06 -3.54417e-07 0.000132081
0.00174383 0.000403275 1.6603e-06
0.000403275 0.000119336 2.56843e-06
1.6603e-06 2.56843e-06 -6.98064e-05
0.00122618 0.000319113 3.64179e-06
0.000319113 0.000224083 4.44353e-06
3.64179e-06 4.44353e-06 -5.45358e-05
0.00145623 0.000405841 -3.33011e-06
0.000405841 0.000177111 4.68351e-07
-3.33011e-06 4.68351e-07 -8.7587e-05
0.000243593 -1.69902e-05 -1.26726e-06
-1.69902e-05 -0.000163013 2.94683e-06
-1.26726e-06 2.94683e-06 -0.000261549
-3.36142e-05 7.7371e-05 5.18708e-07
7.7371e-05 -0.000274623 -6.6271e-09
5.18708e-07 -6.6271e-09 -0.000444658
0.00093103 0.000254568 2.14309e-06
0.000254568 0.00010527 2.6107e-06
2.14309e-06 2.6107e-06 -0.000115965
-0.000478533 8.56175e-05 4.00591e-06
8.56175e-05 -0.00063531 -1.12175e-06
4.00591e-06 -1.12175e-06 -0.000800201
0.0020074 0.0003284 -7.49585e-07
0.0003284 2.35715e-05 7.96388e-08
-7.49585e-07 7.96388e-08 -3.36097e-05
0.00238913 0.000409054 5.79716e-07
0.000409054 0.000422412 -1.05153e-06
5.79716e-07 -1.05153e-06 0.000272194
0.00183108 0.000462573 -3.32479e-06
0.000462573 0.000263688 -4.09482e-06
-3.32479e-06 -4.09482e-06 1.28968e-05
0.000546332 0.000298875 -7.22062e-07
0.000298875 -0.000238862 2.05935e-06
-7.22062e-07 2.05935e-06 -0.000527156
0.000659417 6.32045e-05 -1.06473e-06
6.32045e-05 6.99661e-05 -9.09597e-07
-1.06473e-06 -9.09597e-07 -1.6645e-05
0.000613359 4.15015e-05 -1.95337e-07
4.15015e-05 4.5481e-05 2.25656e-07
-1.95337e-07 2.25656e-07 -4.86056e-05
0.00092536 3.55442e-05 -2.54114e-06
3.55442e-05 0.00022964 -1.49711e-06
-2.54114e-06 -1.49711e-06 0.000142243
0.000641591 1.30654e-05 -1.55566e-06
1.30654e-05 5.28615e-05 -1.58975e-06
-1.55566e-06 -1.58975e-06 -2.45105e-05
0.000433004 1.39797e-06 -4.79046e-07
1.39797e-06 -6.37481e-05 -6.78127e-07
-4.79046e-07 -6.78127e-07 -0.00015581
0.000655759 3.01746e-05 -5.15822e-08
3.01746e-05 7.25288e-05 1.58628e-08
-5.15822e-08 1.58628e-08 -1.13027e-05
0.000665281 8.45324e-05 -7.90185e-07
8.45324e-05 9.19981e-05 -1.67289e-07
-7.90185e-07 -1.67289e-07 -1.35201e-05
0.000587344 2.57165e-05 8.51915e-07
2.57165e-05 4.45669e-05 3.47298e-07
8.51915e-07 3.47298e-07 -6.25285e-05
0.000762732 5.75602e-05 9.86855e-07
5.75602e-05 0.000128991 -1.4897e-06
9.86855e-07 -1.4897e-06 4.00402e-05
0.000675868 -1.43453e-05 2.13609e-06
-1.43453e-05 9.55144e-05 -1.95316e-06
2.13609e-06 -1.95316e-06 -1.47838e-05
0.000508787 5.08175e-05 8.97515e-07
5.08175e-05 -1.92597e-06 1.45652e-06
8.97515e-07 1.45652e-06 -0.000112052
0.000659868 7.62502e-05 1.47826e-06
7.62502e-05 7.90582e-05 2.19312e-06
1.47826e-06 2.19312e-06 -8.24712e-06
0.000561411 4.84601e-05 2.07881e-06
4.84601e-05 7.22076e-06 2.34725e-06
2.07881e-06 2.34725e-06 -5.05181e-05
0.000573745 -1.49076e-06 -1.22346e-06
-1.49076e-06 9.48471e-06 -2.80821e-08
-1.22346e-06 -2.80821e-08 -4.57332e-05
0.00125116 -1.35101e-05 8.5375e-07
-1.35101e-05 0.00038664 2.43801e-06
8.5375e-07 2.43801e-06 0.000375249
0.000568298 -4.50386e-05 7.25351e-08
-4.50386e-05 2.54815e-06 -2.48453e-06
7.25351e-08 -2.48453e-06 -5.16677e-05
0.00130299 -2.25968e-05 -4.03994e-06
-2.25968e-05 0.000416765 -1.55456e-06
-4.03994e-06 -1.55456e-06 0.000405223
0.000841355 -2.44386e-05 1.69506e-05
-2.44386e-05 0.000143615 8.35753e-06
1.69506e-05 8.35753e-06 0.000150355
0.00134605 -3.27127e-05 -7.30291e-06
-3.27127e-05 0.000442977 -5.61873e-06
-7.30291e-06 -5.61873e-06 0.000430789
0.000798167 -3.3396e-05 5.90476e-06
-3.3396e-05 0.00011946 3.11709e-06
5.90476e-06 3.11709e-06 0.000124976
0.000739773 -4.05503e-05 -1.14946e-06
-4.05503e-05 8.91292e-05 -2.21349e-06
-1.14946e-06 -2.21349e-06 9.28624e-05
0.000516765 3.73278e-05 2.01209e-07
3.73278e-05 -4.57506e-05 -3.34266e-06
2.01209e-07 -3.34266e-06 -6.13375e-05
0.000511077 5.54985e-05 2.2536e-08
5.54985e-05 -3.40434e-05 1.53442e-07
2.2536e-08 1.53442e-07 -5.82049e-05
0.00226744 8.7602e-05 1.95876e-05
8.7602e-05 0.00102448 -3.78218e-06
1.95876e-05 -3.78218e-06 0.00103123
0.00053714 3.44267e-05 -2.85063e-06
3.44267e-05 -1.22088e-05 5.86128e-06
-2.85063e-06 5.86128e-06 -4.22466e-05
0.00257298 0.000108375 -6.55743e-06
0.000108375 0.00121594 -5.18971e-07
-6.55743e-06 -5.18971e-07 0.00121726
0.00301367 9.09082e-05 -8.05128e-05
9.09082e-05 0.001482 4.45128e-06
-8.05128e-05 4.45128e-06 0.00148706
0.00178959 0.000226896 -5.47433e-07
0.000226896 0.000115969 2.03399e-06
-5.47433e-07 2.03399e-06 -4.2923e-06
0.00192634 0.000146415 -2.41333e-06
0.000146415 0.000115003 4.60158e-07
-2.41333e-06 4.60158e-07 3.74948e-05
0.0018431 0.0002135 1.34372e-06
0.0002135 4.85045e-05 4.31823e-07
1.34372e-06 4.31823e-07 -2.72786e-05
0.00186605 9.79641e-05 -4.30864e-06
9.79641e-05 4.34652e-05 -5.84775e-07
-4.30864e-06 -5.84775e-07 -1.5585e-06
0.00183786 3.89251e-05 2.7394e-07
3.89251e-05 7.45392e-05 -2.70425e-07
2.7394e-07 -2.70425e-07 1.18792e-05
0.00175855 6.2655e-07 -4.3877e-07
6.2655e-07 8.27519e-05 1.13801e-07
-4.3877e-07 1.13801e-07 -8.91168e-06
0.00178657 -3.72855e-06 -3.06255e-07
-3.72855e-06 4.90812e-05 -9.29601e-08
-3.06255e-07 -9.29601e-08 -8.28867e-06
0.00187812 4.39183e-05 9.07939e-07
4.39183e-05 4.82204e-05 2.02367e-07
9.07939e-07 2.02367e-07 1.52532e-05
0.00190971 0.000154688 5.12075e-07
0.000154688 5.77152e-05 -1.25788e-07
5.12075e-07 -1.25788e-07 4.74277e-06
0.0019507 0.000263907 2.88002e-07
0.000263907 0.000110359 1.33935e-07
2.88002e-07 1.33935e-07 1.8349e-05
0.00182202 -8.55994e-06 3.38349e-06
-8.55994e-06 1.87924e-05 -2.2372e-07
3.38349e-06 -2.2372e-07 -1.15854e-05
0.00194796 8.97751e-05 2.88797e-06
8.97751e-05 1.96633e-05 -1.93576e-07
2.88797e-06 -1.93576e-07 7.76148e-06
0.0020473 0.000230475 3.28802e-06
0.000230475 7.88927e-05 1.06057e-06
3.28802e-06 1.06057e-06 2.42788e-05
0.00183864 -6.28632e-05 -8.97097e-07
-6.28632e-05 7.15731e-05 2.27175e-07
-8.97097e-07 2.27175e-07 9.68995e-06
0.00178106 -0.000121869 -7.27404e-07
-0.000121869 2.73603e-05 -6.8755e-07
-7.27404e-07 -6.8755e-07 -4.77632e-05
0.00184572 -0.000226607 -2.68958e-06
-0.000226607 8.13207e-05 1.18273e-06
-2.68958e-06 1.18273e-06 9.62109e-07
0.00100518 -0.00025082 -1.33547e-06
-0.00025082 0.000153178 4.39506e-06
-1.33547e-06 4.39506e-06 -7.1572e-05
0.000869717 -0.000309793 1.83888e-06
-0.000309793 -5.98775e-05 1.03123e-06
1.83888e-06 1.03123e-06 -0.000324802
0.00160749 -0.000473858 1.7614e-06
-0.000473858 0.000213795 -1.50834e-06
1.7614e-06 -1.50834e-06 -8.7183e-05
0.00172688 -0.000278726 -3.28078e-07
-0.000278726 5.45537e-05 4.43625e-07
-3.28078e-07 4.43625e-07 -5.32351e-05
0.00157127 -0.00034959 4.32855e-07
-0.00034959 -2.04408e-05 -2.23304e-06
4.32855e-07 -2.23304e-06 -0.00015432
0.00187489 -0.000399733 -2.4161e-06
-0.000399733 0.000246552 -7.88992e-06
-2.4161e-06 -7.88992e-06 4.09054e-05
0.00126511 -0.000268452 3.50146e-06
-0.000268452 0.000315248 5.18932e-06
3.50146e-06 5.18932e-06 0.000110543
0.000690123 -0.00021445 -7.7794e-06
-0.00021445 2.3135e-05 1.12904e-06
-7.7794e-06 1.12904e-06 -0.000144883
0.00169763 -0.000236028 1.43849e-06
-0.000236028 0.000720766 -1.60998e-06
1.43849e-06 -1.60998e-06 0.000481334
0.000349348 2.87432e-05 7.31662e-07
2.87432e-05 -0.000122223 6.60867e-07
7.31662e-07 6.60867e-07 -0.000186801
0.000898913 -9.10704e-05 2.0384e-06
-9.10704e-05 0.000235256 -1.10078e-06
2.0384e-06 -1.10078e-06 7.76201e-05
0.000421996 3.34321e-05 2.94962e-06
3.34321e-05 -4.8849e-05 1.62591e-06
2.94962e-06 1.62591e-06 -0.000172485
0.00183022 -6.66385e-05 -4.59864e-07
-6.66385e-05 2.32328e-05 1.85785e-07
-4.59864e-07 1.85785e-07 -2.02982e-05
0.00194844 -0.000168599 1.14368e-07
-0.000168599 4.82636e-05 -2.27482e-07
1.14368e-07 -2.27482e-07 7.99515e-06
0.00184481 -0.000273255 -2.74462e-07
-0.000273255 5.2455e-05 5.03611e-07
-2.74462e-07 5.03611e-07 -1.77406e-05
0.00129913 -0.000304391 -2.31722e-06
-0.000304391 0.000281622 6.12474e-07
-2.31722e-06 6.12474e-07 3.97384e-05
0.00120793 -0.000411623 3.26645e-07
-0.000411623 0.000109797 -1.19412e-06
3.26645e-07 -1.19412e-06 -0.00021271
0.0018883 -0.000501712 -3.82112e-06
-0.000501712 0.000374507 4.17584e-07
-3.82112e-06 4.17584e-07 7.088e-05
0.00195215 -0.000347081 7.38262e-07
-0.000347081 0.000104698 -3.57925e-07
7.38262e-07 -3.57925e-07 -5.58706e-08
0.00170705 -0.000408142 1.23632e-06
-0.000408142 6.8351e-05 -2.99857e-06
1.23632e-06 -2.99857e-06 -0.000106969
0.000442317 4.76208e-05 -4.23258e-07
4.76208e-05 -7.25563e-05 -1.00724e-06
-4.23258e-07 -1.00724e-06 -0.000123818
0.000716991 -9.71864e-06 -6.30777e-07
-9.71864e-06 0.000127909 2.89637e-07
-6.30777e-07 2.89637e-07 2.10112e-05
0.000248619 -0.000199464 -3.76671e-06
-0.000199464 -0.000292205 6.25232e-06
-3.76671e-06 6.25232e-06 -0.00048981
0.00143305 -0.000265921 7.55696e-07
-0.000265921 0.000502321 -9.51725e-07
7.55696e-07 -9.51725e-07 0.000274056
0.0010114 -7.89672e-05 -1.11029e-07
-7.89672e-05 0.000310142 -1.42242e-06
-1.11029e-07 -1.42242e-06 0.000106237
0.000869655 -8.5341e-05 -7.33488e-07
-8.5341e-05 0.000230121 1.25153e-06
-7.33488e-07 1.25153e-06 7.94896e-05
0.00191167 -8.29282e-05 1.68452e-06
-8.29282e-05 1.46782e-05 3.86689e-07
1.68452e-06 3.86689e-07 -1.01801e-06
0.00201151 -0.00024217 6.00784e-07
-0.00024217 3.20095e-05 9.43338e-08
6.00784e-07 9.43338e-08 2.11169e-05
0.00196563 -0.000295905 1.1593e-06
-0.000295905 8.42835e-05 -2.24334e-06
1.1593e-06 -2.24334e-06 2.48356e-05
0.00193214 -0.000455833 4.3624e-06
-0.000455833 6.65462e-05 -2.60986e-06
4.3624e-06 -2.60986e-06 -6.15411e-05
0.000715826 -0.000299469 -5.9342e-06
-0.000299469 -9.37204e-05 -8.02148e-06
-5.9342e-06 -8.02148e-06 -0.000379396
0.00187148 -0.000505617 -2.59802e-06
-0.000505617 0.00032375 1.22548e-05
-2.59802e-06 1.22548e-05 3.7879e-05
0.00195838 -0.000524083 -4.81717e-06
-0.000524083 0.000513068 -3.55392e-07
-4.81717e-06 -3.55392e-07 0.000150474
0.000606554 4.83971e-05 1.45339e-07
4.83971e-05 1.69206e-05 -1.18163e-06
1.45339e-07 -1.18163e-06 -2.64732e-05
0.000678312 -0.000110109 2.96881e-06
-0.000110109 9.93811e-05 -1.53802e-06
2.96881e-06 -1.53802e-06 1.59224e-05
0.000447463 5.28486e-05 -2.53088e-06
5.28486e-05 -4.21175e-05 -1.04781e-06
-2.53088e-06 -1.04781e-06 -0.000130383
0.000645802 -4.78728e-05 -1.35854e-06
-4.78728e-05 0.000103807 2.96682e-06
-1.35854e-06 2.96682e-06 -3.30676e-05
0.000554377 -3.64331e-05 1.00061e-06
-3.64331e-05 1.66131e-05 8.30769e-08
1.00061e-06 8.30769e-08 -0.000139301
-7.27146e-05 -7.9198e-05 -9.71529e-07
-7.9198e-05 -0.000333987 2.39106e-06
-9.71529e-07 2.39106e-06 -0.000532135
-5.96172e-05 -0.000197008 -4.78805e-06
-0.000197008 -0.000473112 -7.03382e-06
-4.78805e-06 -7.03382e-06 -0.000667148
0.00281585 -0.000395157 -1.31988e-05
-0.000395157 0.00139336 3.52895e-06
-1.31988e-05 3.52895e-06 0.00105777
0.000631186 -4.35044e-06 -1.14625e-06
-4.35044e-06 5.02738e-05 -9.93105e-07
-1.14625e-06 -9.93105e-07 -3.32814e-05
0.000822168 4.61686e-05 5.69162e-07
4.61686e-05 0.000200556 -1.33081e-06
5.69162e-07 -1.33081e-06 6.24592e-05
0.00208416 0.000329718 -1.37557e-06
0.000329718 0.000247258 -6.26804e-07
-1.37557e-06 -6.26804e-07 0.000121598
0.000800817 8.31756e-05 -1.27708e-06
8.31756e-05 0.000184457 3.56462e-06
-1.27708e-06 3.56462e-06 1.13326e-05
0.00162656 0.000313831 2.71554e-06
0.000313831 0.000558712 -9.68394e-07
2.71554e-06 -9.68394e-07 0.000334116
0.000401401 0.000152257 -5.97234e-07
0.000152257 -0.000170173 2.27316e-06
-5.97234e-07 2.27316e-06 -0.000305403
0.00207244 0.000428896 -2.90249e-06
0.000428896 0.00039895 -9.24904e-08
-2.90249e-06 -9.24904e-08 0.000176568
0.0018747 0.000419494 -9.35905e-07
0.000419494 0.000185383 5.81071e-06
-9.35905e-07 5.81071e-06 -6.95657e-06
0.00120511 0.000323151 -8.10787e-07
0.000323151 0.000223489 -4.43058e-07
-8.10787e-07 -4.43058e-07 -6.08255e-05
0.00146444 0.000415506 -1.01066e-07
0.000415506 0.000173798 1.47422e-06
-1.01066e-07 1.47422e-06 -9.64225e-05
0.00033509 1.3611e-05 -1.64708e-07
1.3611e-05 -0.000101705 1.20811e-06
-1.64708e-07 1.20811e-06 -0.000207419
0.000364415 0.000110637 -6.34564e-07
0.000110637 -3.41095e-05 -2.21875e-06
-6.34564e-07 -2.21875e-06 -0.000211322
0.00131348 0.000295282 3.60304e-06
0.000295282 0.000338087 -1.86353e-06
3.60304e-06 -1.86353e-06 0.00010678
0.00069417 0.000177315 -2.28696e-06
0.000177315 5.60207e-05 -2.92288e-06
-2.28696e-06 -2.92288e-06 -0.000119659
0.00204578 0.00031926 9.81901e-07
0.00031926 4.35325e-05 -8.69092e-07
9.81901e-07 -8.69092e-07 -1.29265e-05
0.00212973 0.000401152 2.9805e-06
0.000401152 0.000280434 6.56289e-07
2.9805e-06 6.56289e-07 0.000126142
0.00182388 0.000455199 -7.59556e-07
0.000455199 0.000252448 3.6125e-07
-7.59556e-07 3.6125e-07 4.90319e-06
0.00119366 0.00036311 -9.01661e-08
0.00036311 0.000112328 6.669e-07
-9.01661e-08 6.669e-07 -0.000180189
0.00034148 3.78387e-05 -1.35624e-06
3.78387e-05 -0.000103557 2.92368e-06
-1.35624e-06 2.92368e-06 -0.000209876
0.00201041 0.000260971 7.24242e-07
0.000260971 -2.84246e-05 2.4081e-06
7.24242e-07 2.4081e-06 -3.22613e-05
0.00160391 0.000284962 1.74122e-06
0.000284962 0.000685004 3.46205e-06
1.74122e-06 3.46205e-06 0.00045937
0.00117356 0.000295468 5.92224e-06
0.000295468 0.000219512 3.7571e-06
5.92224e-06 3.7571e-06 -1.35381e-05
0.002497 0.000398838 -1.71738e-05
0.000398838 0.000378128 -5.17775e-06
-1.71738e-05 -5.17775e-06 0.000271662
0.00101325 0.000423925 -6.35767e-06
0.000423925 -0.000302197 -8.22071e-06
-6.35767e-06 -8.22071e-06 -0.0005319
0.00208018 0.000476268 -5.80083e-07
0.000476268 0.000546319 2.35856e-06
-5.80083e-07 2.35856e-06 0.000233884
0.000685498 5.69774e-05 -1.40265e-06
5.69774e-05 8.82777e-05 -7.17262e-07
-1.40265e-06 -7.17262e-07 -5.33078e-06
0.000690106 5.08909e-05 -1.60035e-06
5.08909e-05 9.77008e-05 -5.65195e-07
-1.60035e-06 -5.65195e-07 6.70442e-06
0.000940201 3.97397e-05 -1.99448e-06
3.97397e-05 0.000251545 4.08889e-07
-1.99448e-06 4.08889e-07 0.000169454
0.000607944 -3.67302e-06 -7.36921e-09
-3.67302e-06 4.6854e-05 -2.28274e-06
-7.36921e-09 -2.28274e-06 -3.87405e-05
0.000661597 5.18813e-05 7.78858e-07
5.18813e-05 9.03656e-05 -2.22193e-08
7.78858e-07 -2.22193e-08 -1.78489e-05
0.000337897 2.54502e-05 -1.20013e-06
2.54502e-05 -8.96952e-05 1.67055e-06
-1.20013e-06 1.67055e-06 -0.0001951
0.00061922 5.32172e-06 -7.01355e-07
5.32172e-06 6.23017e-05 -5.52583e-09
-7.01355e-07 -5.52583e-09 -2.94584e-05
0.000452327 -1.85332e-05 -6.37815e-07
-1.85332e-05 -2.65534e-05 3.45834e-07
-6.37815e-07 3.45834e-07 -0.000140318
0.000501725 1.0309e-05 3.06368e-07
1.0309e-05 -1.91136e-05 3.4358e-07
3.06368e-07 3.4358e-07 -0.000103845
0.000761441 4.74033e-05 6.15043e-07
4.74033e-05 0.000157797 -3.75311e-07
6.15043e-07 -3.75311e-07 3.79034e-05
0.00116905 5.35901e-05 4.12858e-07
5.35901e-05 0.000357854 -1.0916e-06
4.12858e-07 -1.0916e-06 0.000283508
0.000679862 -1.49021e-05 2.7543e-06
-1.49021e-05 8.6881e-05 -2.67336e-06
2.7543e-06 -2.67336e-06 -7.57108e-06
0.000698243 4.75443e-05 2.63702e-07
4.75443e-05 0.000123403 4.84737e-07
2.63702e-07 4.84737e-07 -5.07523e-06
0.000638159 3.91755e-05 2.47051e-06
3.91755e-05 8.66715e-05 1.8477e-06
2.47051e-06 1.8477e-06 -3.86339e-05
0.000654991 2.2421e-05 1.71424e-06
2.2421e-05 7.7166e-05 2.22082e-06
1.71424e-06 2.22082e-06 -1.35678e-05
0.000567611 -3.2056e-05 -1.56575e-07
-3.2056e-05 1.0007e-05 2.19382e-06
-1.56575e-07 2.19382e-06 -4.72375e-05
0.000580027 -6.38259e-06 -3.40932e-07
-6.38259e-06 1.52883e-05 -8.74835e-09
-3.40932e-07 -8.74835e-09 -4.03563e-05
0.00128167 -2.71089e-06 9.24333e-07
-2.71089e-06 0.000407112 2.33798e-06
9.24333e-07 2.33798e-06 0.000395019
0.000587139 -2.51435e-05 6.49079e-07
-2.51435e-05 1.52616e-05 -2.61601e-06
6.49079e-07 -2.61601e-06 -3.83671e-05
0.00130973 -1.06033e-05 -3.09931e-06
-1.06033e-05 0.000422291 -1.59602e-06
-3.09931e-06 -1.59602e-06 0.000410747
0.000832085 -1.6429e-05 1.26935e-05
-1.6429e-05 0.000137102 8.42977e-06
1.26935e-05 8.42977e-06 0.000144327
0.00135989 -2.06014e-05 -5.26977e-06
-2.06014e-05 0.000451126 -5.75725e-06
-5.26977e-06 -5.75725e-06 0.000439436
0.000811235 -2.52309e-05 3.92483e-06
-2.52309e-05 0.000124061 3.23148e-06
3.92483e-06 3.23148e-06 0.000130575
0.000763686 -3.2372e-05 -7.67138e-07
-3.2372e-05 9.72592e-05 -2.20564e-06
-7.67138e-07 -2.20564e-06 0.000102945
0.000653256 1.04094e-05 1.25893e-06
1.04094e-05 4.03989e-05 -1.36595e-06
1.25893e-06 -1.36595e-06 5.53591e-07
0.000530424 2.85508e-05 3.92387e-07
2.85508e-05 -4.50525e-05 -3.41765e-06
3.92387e-07 -3.41765e-06 -5.68473e-05
0.00053761 3.84965e-05 1.90802e-07
3.84965e-05 -3.2413e-05 1.33905e-07
1.90802e-07 1.33905e-07 -4.84775e-05
0.00214904 7.07342e-05 1.78643e-05
7.07342e-05 0.000944494 -3.96182e-06
1.78643e-05 -3.96182e-06 0.000955517
0.000543088 5.95066e-05 3.36882e-06
5.95066e-05 -1.33223e-05 5.0149e-06
3.36882e-06 5.0149e-06 -3.90265e-05
0.00238239 9.17705e-05 -4.48408e-06
9.17705e-05 0.00109419 -3.58861e-07
-4.48408e-06 -3.58861e-07 0.00109993
0.00269908 0.000112132 -2.88366e-05
0.000112132 0.00129163 3.89503e-06
-2.88366e-05 3.89503e-06 0.00129207
0.00196629 0.000260604 -6.80679e-07
0.000260604 0.000105746 8.64847e-07
-6.80679e-07 8.64847e-07 1.57599e-05
0.0019199 0.000159882 -3.49097e-06
0.000159882 6.41941e-05 -5.28841e-07
-3.49097e-06 -5.28841e-07 1.07693e-05
0.00189496 4.59458e-05 -4.26973e-06
4.59458e-05 6.70064e-05 -1.21741e-07
-4.26973e-06 -1.21741e-07 3.23881e-05
0.00175899 -6.80301e-07 -1.45245e-06
-6.80301e-07 3.15704e-05 -4.77644e-08
-1.45245e-06 -4.77644e-08 -2.55989e-05
0.0018337 -5.25916e-06 -9.00705e-07
-5.25916e-06 2.30768e-05 -6.19209e-08
-9.00705e-07 -6.19209e-08 -4.00707e-06
0.00193196 8.49866e-05 1.12244e-07
8.49866e-05 1.4956e-05 -2.37517e-08
1.12244e-07 -2.37517e-08 1.40006e-06
0.00198816 0.000232781 -5.83549e-07
0.000232781 4.28941e-05 -5.79195e-08
-5.83549e-07 -5.79195e-08 -1.0106e-05
0.00193046 -1.58532e-06 1.48186e-06
-1.58532e-06 7.93821e-06 -4.51e-07
1.48186e-06 -4.51e-07 5.86928e-06
0.00205127 0.000131166 2.70045e-06
0.000131166 1.24647e-05 -7.48687e-07
2.70045e-06 -7.48687e-07 5.0563e-06
0.00226162 8.32902e-05 -3.35536e-06
8.32902e-05 0.000183964 5.11632e-06
-3.35536e-06 5.11632e-06 0.00022444
0.00185726 -6.69193e-05 -4.46153e-06
-6.69193e-05 4.0919e-05 2.01947e-07
-4.46153e-06 2.01947e-07 -5.96777e-06
0.00190131 -0.000175735 -3.6952e-06
-0.000175735 1.66679e-05 6.19163e-07
-3.6952e-06 6.19163e-07 -2.50929e-05
0.00191646 -0.000273908 -3.00741e-06
-0.000273908 9.98787e-05 1.94484e-06
-3.00741e-06 1.94484e-06 2.65536e-05
0.000857554 -0.000260482 1.45618e-06
-0.000260482 2.31584e-05 5.9186e-06
1.45618e-06 5.9186e-06 -0.000212238
0.00141075 -0.000427109 1.93494e-06
-0.000427109 0.000229553 -4.86781e-07
1.93494e-06 -4.86781e-07 -9.25786e-05
0.00196424 -0.000497913 -1.99477e-06
-0.000497913 0.000422345 -1.71214e-06
-1.99477e-06 -1.71214e-06 0.000127956
0.00183295 -0.000344732 1.95121e-06
-0.000344732 3.99587e-05 1.30073e-06
1.95121e-06 1.30073e-06 -6.75268e-05
0.00156899 -0.00039699 -3.74824e-06
-0.00039699 -1.28784e-05 -6.02718e-06
-3.74824e-06 -6.02718e-06 -0.000186469
0.000133858 -0.000185196 -2.50064e-07
-0.000185196 -0.000354685 1.26079e-05
-2.50064e-07 1.26079e-05 -0.000543474
0.00207128 -0.000310061 1.51614e-05
-0.000310061 0.0008967 -4.36554e-06
1.51614e-05 -4.36554e-06 0.000661645
0.000745035 -3.16816e-05 6.64369e-07
-3.16816e-05 0.000139637 -1.3821e-06
6.64369e-07 -1.3821e-06 -4.67152e-05
0.000535886 1.53507e-05 7.73781e-08
1.53507e-05 -1.81951e-05 4.84129e-07
7.73781e-08 4.84129e-07 -6.59821e-05
0.00079619 2.67683e-05 1.8238e-06
2.67683e-05 0.000171128 7.72263e-07
1.8238e-06 7.72263e-07 6.50834e-05
0.00085571 -5.6146e-05 6.5788e-07
-5.6146e-05 0.00022327 1.55378e-06
6.5788e-07 1.55378e-06 7.06561e-05
0.00192824 -8.57084e-05 2.47274e-07
-8.57084e-05 1.67168e-05 -1.06244e-07
2.47274e-07 -1.06244e-07 3.78377e-06
0.000582582 1.84252e-05 1.00658e-06
1.84252e-05 1.72949e-06 1.24207e-07
1.00658e-06 1.24207e-07 -4.07439e-05
0.000526054 -4.18171e-05 -1.75117e-06
-4.18171e-05 -1.02627e-05 -4.29117e-08
-1.75117e-06 -4.29117e-08 -8.16078e-05
0.00198556 -0.000232002 -1.41326e-07
-0.000232002 3.26652e-05 2.47713e-07
-1.41326e-07 2.47713e-07 1.8635e-05
0.00190986 -0.000293676 -1.39003e-06
-0.000293676 4.82351e-05 1.78934e-07
-1.39003e-06 1.78934e-07 -9.59459e-06
0.000767453 -0.000301796 -1.3557e-06
-0.000301796 -5.44077e-05 1.51837e-06
-1.3557e-06 1.51837e-06 -0.000334881
0.00187466 -0.000516612 3.92198e-07
-0.000516612 0.000471943 5.55413e-07
3.92198e-07 5.55413e-07 0.000105809
0.00159106 -0.000484419 3.32865e-06
-0.000484419 0.000147275 -1.59485e-06
3.32865e-06 -1.59485e-06 -0.00013067
0.00206258 -0.000460694 2.36457e-06
-0.000460694 0.000151641 -9.59428e-07
2.36457e-06 -9.59428e-07 2.16443e-05
0.000706834 -8.27543e-06 7.97767e-07
-8.27543e-06 0.000119214 -1.15475e-06
7.97767e-07 -1.15475e-06 2.97076e-05
0.000722696 -3.07789e-05 2.41805e-07
-3.07789e-05 0.000150107 1.35201e-06
2.41805e-07 1.35201e-06 1.04718e-05
0.0010173 -0.000270691 -3.82232e-06
-0.000270691 0.000156155 -1.83106e-06
-3.82232e-06 -1.83106e-06 -5.34095e-05
0.00168799 -0.00029173 1.48649e-05
-0.00029173 0.000720859 -3.19758e-06
1.48649e-05 -3.19758e-06 0.000438657
0.000430396 -8.35731e-05 -2.75082e-06
-8.35731e-05 -4.3011e-05 -4.22875e-07
-2.75082e-06 -4.22875e-07 -0.000237774
0.000655661 -3.22729e-05 6.2385e-07
-3.22729e-05 9.05825e-05 -7.7093e-07
6.2385e-07 -7.7093e-07 -7.24649e-05
0.00194726 -9.97192e-05 1.48815e-06
-9.97192e-05 -4.62034e-05 -1.16595e-06
1.48815e-06 -1.16595e-06 -5.26464e-05
0.0019147 -0.000274702 -3.41155e-07
-0.000274702 -7.53128e-05 3.39724e-07
-3.41155e-07 3.39724e-07 -1.89369e-05
0.0020366 -0.000406369 -4.43202e-06
-0.000406369 4.28542e-05 -1.87082e-06
-4.43202e-06 -1.87082e-06 -2.94679e-05
0.00155413 -0.000521586 7.44997e-07
-0.000521586 -1.86043e-05 -7.6182e-07
7.44997e-07 -7.6182e-07 -0.000183878
0.000846324 -0.000287624 -1.05566e-05
-0.000287624 2.22272e-05 -8.59381e-06
-1.05566e-05 -8.59381e-06 -0.000262151
0.00247954 -0.000613372 -9.80806e-06
-0.000613372 0.000784282 8.72299e-06
-9.80806e-06 8.72299e-06 0.0003939
0.000374812 5.20238e-05 -1.13716e-06
5.20238e-05 -9.08182e-05 -2.0717e-06
-1.13716e-06 -2.0717e-06 -0.000167854
0.000646901 -5.71233e-05 3.34328e-06
-5.71233e-05 6.27349e-05 -7.03192e-07
3.34328e-06 -7.03192e-07 -9.4577e-06
0.000936273 -9.4006e-05 1.40209e-06
-9.4006e-05 0.000246197 2.11194e-06
1.40209e-06 2.11194e-06 0.000147861
0.000449112 1.86394e-05 -1.91867e-06
1.86394e-05 -2.10187e-05 2.80675e-06
-1.91867e-06 2.80675e-06 -0.000147173
0.00091281 -7.29053e-05 -2.23579e-06
-7.29053e-05 0.000244535 3.31545e-06
-2.23579e-06 3.31545e-06 0.000105294
0.00108675 -5.23519e-05 1.82007e-06
-5.23519e-05 0.000298651 3.67813e-08
1.82007e-06 3.67813e-08 0.000122499
-0.000574346 -0.000108229 5.35173e-06
-0.000108229 -0.000453116 7.21271e-07
5.35173e-06 7.21271e-07 -0.000823847
-0.000132213 -0.000256714 -2.2574e-05
-0.000256714 -0.000501914 2.61854e-06
-2.2574e-05 2.61854e-06 -0.000711437
0.000394961 5.06101e-05 -1.55917e-07
5.06101e-05 -5.98233e-05 -8.84312e-07
-1.55917e-07 -8.84312e-07 -0.000172276
0.000955965 0.000155446 -5.31668e-06
0.000155446 0.000315539 -2.70882e-06
-5.31668e-06 -2.70882e-06 0.000133096
0.00207622 0.000310602 -4.11401e-06
0.000310602 6.18218e-05 -1.77267e-06
-4.11401e-06 -1.77267e-06 5.29541e-06
0.0019255 0.000396045 -1.49825e-08
0.000396045 0.000168828 1.67639e-06
-1.49825e-08 1.67639e-06 1.01438e-05
0.00181542 0.000240986 -7.61198e-06
0.000240986 0.00070273 -1.11107e-06
-7.61198e-06 -1.11107e-06 0.000525932
0.00163941 0.000329168 -4.08893e-06
0.000329168 0.000535804 -8.0318e-06
-4.08893e-06 -8.0318e-06 0.000297419
0.00184171 0.000450479 1.99381e-06
0.000450479 0.000254016 2.18224e-06
1.99381e-06 2.18224e-06 8.77717e-06
0.00193704 0.000434391 -4.45391e-07
0.000434391 0.000522753 -1.46679e-06
-4.45391e-07 -1.46679e-06 0.000224286
0.000540964 6.87541e-05 7.60683e-07
6.87541e-05 2.74725e-05 -9.99307e-07
7.60683e-07 -9.99307e-07 -9.11984e-05
0.00207009 0.000246885 -1.02618e-06
0.000246885 2.9946e-07 -7.86776e-07
-1.02618e-06 -7.86776e-07 2.62127e-06
0.00106368 0.000205955 1.15165e-06
0.000205955 0.000352743 1.62966e-06
1.15165e-06 1.62966e-06 0.000146615
0.00117053 0.000297281 1.20753e-06
0.000297281 0.000222185 -9.23314e-07
1.20753e-06 -9.23314e-07 -1.69289e-05
0.00228583 0.000390641 2.54074e-06
0.000390641 0.000262618 5.89365e-07
2.54074e-06 5.89365e-07 0.000158962
0.00163163 0.000465706 -1.31017e-06
0.000465706 4.12284e-05 -3.91887e-06
-1.31017e-06 -3.91887e-06 -0.000189659
0.00194577 0.000463258 -1.0902e-07
0.000463258 0.000480182 1.93517e-07
-1.0902e-07 1.93517e-07 0.000167925
0.00115108 0.00016041 -3.96252e-06
0.00016041 0.000412802 3.33371e-06
-3.96252e-06 3.33371e-06 0.000250122
0.00239832 0.000284921 -4.74713e-05
0.000284921 0.00024741 -1.26841e-05
-4.74713e-05 -1.26841e-05 0.000271313
0.00208287 0.00038329 -5.74597e-06
0.00038329 0.00087282 3.89941e-07
-5.74597e-06 3.89941e-07 0.000636574
0.0020829 0.000428567 -8.1325e-06
0.000428567 0.000658807 -2.01008e-07
-8.1325e-06 -2.01008e-07 0.000378413
0.00202387 0.00051329 -2.44904e-05
0.00051329 0.000156112 -1.3092e-05
-2.44904e-05 -1.3092e-05 -5.45895e-06
0.000800627 0.000390257 -1.84182e-05
0.000390257 -0.00021523 -2.06393e-06
-1.84182e-05 -2.06393e-06 -0.000499004
0.000905224 0.000384306 3.43122e-05
0.000384306 -0.000519168 -2.17085e-05
3.43122e-05 -2.17085e-05 -0.000768608
0.000441589 6.53429e-05 1.05921e-06
6.53429e-05 -3.81211e-05 -6.32812e-07
1.05921e-06 -6.32812e-07 -0.000133716
0.000627645 4.74068e-05 -1.46467e-07
4.74068e-05 8.24779e-05 1.003e-06
-1.46467e-07 1.003e-06 -3.46849e-06
0.00145407 8.18207e-05 5.09537e-07
8.18207e-05 0.000552003 9.65359e-08
5.09537e-07 9.65359e-08 0.000463756
0.00057601 -6.1372e-05 1.8795e-07
-6.1372e-05 4.40853e-05 -2.80143e-06
1.8795e-07 -2.80143e-06 -5.16888e-05
0.000518837 -3.90121e-05 -1.34344e-06
-3.90121e-05 7.81212e-06 -1.50931e-07
-1.34344e-06 -1.50931e-07 -0.000101894
0.000924848 0.000134325 -2.73016e-07
0.000134325 0.000255289 8.7151e-07
-2.73016e-07 8.7151e-07 0.000131252
0.000303954 -4.13753e-06 -1.80254e-06
-4.13753e-06 -0.000126115 4.36913e-06
-1.80254e-06 4.36913e-06 -0.000211872
0.000617542 -2.28227e-05 -1.15415e-07
-2.28227e-05 6.73329e-05 -3.94377e-08
-1.15415e-07 -3.94377e-08 -3.08633e-05
0.000615798 4.57361e-05 -5.39689e-08
4.57361e-05 5.80319e-05 -4.77379e-07
-5.39689e-08 -4.77379e-07 -5.62038e-05
0.000918998 4.61559e-05 -1.35929e-06
4.61559e-05 0.000211152 5.84534e-07
-1.35929e-06 5.84534e-07 0.000136113
0.000714842 2.90211e-05 6.84507e-07
2.90211e-05 0.000119479 7.1969e-08
6.84507e-07 7.1969e-08 3.86923e-07
0.000743192 9.41197e-06 -3.86945e-07
9.41197e-06 0.000120882 -4.77156e-07
-3.86945e-07 -4.77156e-07 2.37913e-05
0.000982707 4.64472e-05 2.27284e-07
4.64472e-05 0.000251718 -3.61956e-06
2.27284e-07 -3.61956e-06 0.000171886
0.000843327 5.32066e-05 -1.84407e-06
5.32066e-05 0.00018092 -2.3232e-06
-1.84407e-06 -2.3232e-06 5.90286e-05
0.00081875 8.12764e-05 9.00409e-07
8.12764e-05 0.000173515 4.38178e-07
9.00409e-07 4.38178e-07 5.51475e-05
0.000681115 4.45244e-05 5.67549e-07
4.45244e-05 0.000112305 1.43921e-06
5.67549e-07 1.43921e-06 -1.98099e-05
0.000474313 -2.33811e-05 -2.56806e-07
-2.33811e-05 -3.38167e-05 2.37361e-06
-2.56806e-07 2.37361e-06 -0.000127564
0.000896038 -3.23937e-05 2.46405e-07
-3.23937e-05 0.000261317 -8.23809e-07
2.46405e-07 -8.23809e-07 0.000128653
0.000383603 -1.79841e-05 -9.55889e-07
-1.79841e-05 -8.45826e-05 2.42043e-06
-9.55889e-07 2.42043e-06 -0.000181974
0.000536925 4.94255e-06 -1.37716e-06
4.94255e-06 -5.35388e-06 2.25806e-06
-1.37716e-06 2.25806e-06 -6.4827e-05
0.000556012 2.37144e-05 1.47796e-06
2.37144e-05 5.07079e-06 -1.61548e-08
1.47796e-06 -1.61548e-08 -5.35373e-05
0.000518286 7.45519e-06 6.20754e-07
7.45519e-06 -4.83566e-05 3.84687e-06
6.20754e-07 3.84687e-06 -6.53518e-05
0.000560745 3.35383e-07 -1.96817e-06
3.35383e-07 6.07096e-06 -2.43657e-06
-1.96817e-06 -2.43657e-06 -5.12882e-05
0.000930838 1.15636e-06 -2.1128e-06
1.15636e-06 0.000197583 -1.66086e-06
-2.1128e-06 -1.66086e-06 0.000183132
0.0024121 -1.32606e-05 8.549e-06
-1.32606e-05 0.00108496 5.26057e-06
8.549e-06 5.26057e-06 0.0011
0.00136679 -8.67095e-06 -3.4351e-06
-8.67095e-06 0.000457058 -5.65755e-06
-3.4351e-06 -5.65755e-06 0.000445216
0.000806107 -1.65817e-05 2.22464e-06
-1.65817e-05 0.000119636 3.26863e-06
2.22464e-06 3.26863e-06 0.000126912
0.000779217 -2.37256e-05 -1.9379e-07
-2.37256e-05 0.00010313 -2.23628e-06
-1.9379e-07 -2.23628e-06 0.000109903
0.000591524 1.11469e-05 -6.61833e-07
1.11469e-05 6.49176e-06 -1.35387e-06
-6.61833e-07 -1.35387e-06 -3.27704e-05
0.000611405 -4.21063e-06 1.08793e-06
-4.21063e-06 1.6839e-05 -1.29439e-07
1.08793e-06 -1.29439e-07 -2.39845e-05
0.0005614 2.18067e-05 3.41177e-07
2.18067e-05 -2.97691e-05 -3.33199e-06
3.41177e-07 -3.33199e-06 -3.93416e-05
0.000867148 3.501e-05 -3.58598e-07
3.501e-05 0.00015839 4.87558e-08
-3.58598e-07 4.87558e-08 0.000147998
0.00211431 5.6595e-05 1.39736e-05
5.6595e-05 0.000916819 -4.17974e-06
1.39736e-05 -4.17974e-06 0.000930648
0.000548987 4.19517e-05 1.01584e-06
4.19517e-05 -2.38708e-05 3.78267e-06
1.01584e-06 3.78267e-06 -4.08186e-05
0.00221033 7.41043e-05 -2.88709e-06
7.41043e-05 0.000982512 -1.96204e-07
-2.88709e-06 -1.96204e-07 0.000992654
0.0024363 9.44095e-05 -1.97835e-05
9.44095e-05 0.00112697 4.03486e-06
-1.97835e-05 4.03486e-06 0.00113202
0.00193641 0.000235548 -4.17121e-06
0.000235548 9.84061e-06 -1.83844e-06
-4.17121e-06 -1.83844e-06 -4.10841e-05
0.00191458 8.0894e-05 -1.8969e-06
8.0894e-05 9.17899e-06 5.49582e-07
-1.8969e-06 5.49582e-07 -5.83075e-06
0.00184474 -3.59082e-06 -4.56957e-06
-3.59082e-06 2.69251e-05 1.58151e-07
-4.56957e-06 1.58151e-07 3.18156e-06
0.00192446 -3.86886e-07 1.40286e-07
-3.86886e-07 6.85124e-06 -1.68985e-07
1.40286e-07 -1.68985e-07 4.70202e-06
0.00203616 0.000131949 3.9676e-08
0.000131949 1.8371e-05 2.03076e-07
3.9676e-08 2.03076e-07 9.88044e-06
0.00195363 6.98502e-05 5.5055e-06
6.98502e-05 -1.0196e-05 -1.38797e-06
5.5055e-06 -1.38797e-06 2.44773e-05
0.00203749 4.46892e-06 -1.71506e-06
4.46892e-06 -1.71049e-05 -1.51528e-06
-1.71506e-06 -1.51528e-06 3.49048e-06
0.00306562 0.000361115 3.51355e-05
0.000361115 -0.000377857 5.29785e-06
3.51355e-05 5.29785e-06 -0.000113841
0.00229288 4.46312e-05 -2.98565e-05
4.46312e-05 0.000347372 1.64218e-05
-2.98565e-05 1.64218e-05 0.000435311
0.00057793 8.478e-05 -8.7931e-07
8.478e-05 3.43004e-05 -2.17766e-07
-8.7931e-07 -2.17766e-07 -4.0155e-05
0.00194112 -8.77759e-05 -1.64203e-06
-8.77759e-05 1.76732e-05 -2.93623e-07
-1.64203e-06 -2.93623e-07 7.39552e-06
0.00195417 -0.000222087 -5.04145e-07
-0.000222087 3.16235e-05 1.39757e-07
-5.04145e-07 1.39757e-07 1.2378e-05
0.00186314 -0.000293958 -5.94802e-07
-0.000293958 1.80606e-05 2.32133e-06
-5.94802e-07 2.32133e-06 -3.97959e-05
0.000708376 -0.000293298 -1.08199e-06
-0.000293298 -8.59859e-05 9.3633e-06
-1.08199e-06 9.3633e-06 -0.000358686
0.0019599 -0.000523987 4.79741e-06
-0.000523987 0.00052583 4.25469e-06
4.79741e-06 4.25469e-06 0.000156089
0.0014461 -0.000477664 1.49278e-06
-0.000477664 4.36897e-05 -8.45385e-06
1.49278e-06 -8.45385e-06 -0.000230034
0.00220263 -0.000467735 -2.59668e-06
-0.000467735 0.000242205 -1.20757e-06
-2.59668e-06 -1.20757e-06 0.000109032
0.00184945 -0.000327534 1.72435e-05
-0.000327534 0.00062847 -1.27739e-07
1.72435e-05 -1.27739e-07 0.000407308
0.000389185 -0.000174539 1.28388e-05
-0.000174539 -4.76469e-05 -5.54549e-06
1.28388e-05 -5.54549e-06 -0.000277371
0.00109598 -0.000115873 1.86082e-06
-0.000115873 0.000344794 -2.87896e-06
1.86082e-06 -2.87896e-06 0.000151477
0.000583357 5.15836e-06 -6.07689e-07
5.15836e-06 1.36649e-06 1.41176e-06
-6.07689e-07 1.41176e-06 -4.00574e-05
0.000868137 -1.98404e-05 1.99242e-06
-1.98404e-05 0.000228464 -1.62774e-06
1.99242e-06 -1.62774e-06 5.8471e-05
0.000896171 -3.71e-05 2.31598e-06
-3.71e-05 0.000240613 -5.64467e-07
2.31598e-06 -5.64467e-07 0.000149117
0.000847973 -2.90245e-05 1.31293e-06
-2.90245e-05 0.000221353 -1.11589e-06
1.31293e-06 -1.11589e-06 8.005e-05
0.000365325 -2.87921e-05 -2.21629e-06
-2.87921e-05 -0.000112739 6.32326e-07
-2.21629e-06 6.32326e-07 -0.00018078
0.00197386 -0.000113948 -2.57961e-07
-0.000113948 -5.24018e-05 1.59948e-07
-2.57961e-07 1.59948e-07 -4.50559e-05
0.000477201 3.61205e-05 -3.34534e-08
3.61205e-05 -2.35812e-05 -1.39118e-06
-3.34534e-08 -1.39118e-06 -0.000103442
0.000634621 -5.42514e-05 9.82087e-07
-5.42514e-05 6.45011e-05 4.80648e-07
9.82087e-07 4.80648e-07 -1.27957e-05
0.000784396 -6.36397e-05 5.27429e-08
-6.36397e-05 0.000153739 7.50163e-07
5.27429e-08 7.50163e-07 5.73748e-05
0.00194835 -0.000277633 1.26494e-06
-0.000277633 -4.19598e-05 -1.73535e-07
1.26494e-06 -1.73535e-07 -1.9539e-06
0.00207278 -0.000408355 -3.51089e-08
-0.000408355 7.09417e-05 -5.37093e-07
-3.51089e-08 -5.37093e-07 -2.21706e-06
0.00130066 -0.000341373 7.32154e-06
-0.000341373 0.000270377 -2.79291e-07
7.32154e-06 -2.79291e-07 -1.62075e-05
0.00213287 -0.000581627 6.47233e-06
-0.000581627 0.000599491 -4.36892e-08
6.47233e-06 -4.36892e-08 0.000221237
0.00193755 -0.000545553 -9.90873e-07
-0.000545553 0.000213585 1.55367e-06
-9.90873e-07 1.55367e-06 3.60835e-05
0.000454453 -1.2848e-05 -5.5926e-07
-1.2848e-05 -1.40323e-05 -1.82812e-07
-5.5926e-07 -1.82812e-07 -0.000136854
0.000846355 -8.37536e-05 -1.77143e-06
-8.37536e-05 0.000212746 5.79224e-07
-1.77143e-06 5.79224e-07 6.25203e-05
0.000642996 -0.000324306 -6.69368e-06
-0.000324306 -4.45139e-05 -6.01366e-07
-6.69368e-06 -6.01366e-07 -0.000296766
0.000537991 -0.00011805 -1.15177e-07
-0.00011805 0.000114803 -1.45972e-06
-1.15177e-07 -1.45972e-06 -0.000194993
0.000737378 -7.13253e-05 -6.94779e-08
-7.13253e-05 9.26151e-05 2.54226e-07
-6.94779e-08 2.54226e-07 -7.6772e-05
0.00239237 -0.000231696 -3.5977e-06
-0.000231696 0.000174565 -1.61036e-06
-3.5977e-06 -1.61036e-06 0.00018801
0.0017856 -0.000293605 -1.2439e-05
-0.000293605 -0.000166349 1.92423e-06
-1.2439e-05 1.92423e-06 -9.46705e-05
0.00242924 -0.000568246 -1.04852e-05
-0.000568246 0.000305369 -1.96122e-06
-1.04852e-05 -1.96122e-06 0.000160504
0.00288551 -0.00066594 -2.31321e-05
-0.00066594 0.000853824 1.02711e-06
-2.31321e-05 1.02711e-06 0.000609335
0.00117865 -0.000369806 -2.20615e-05
-0.000369806 0.000250634 -2.9906e-06
-2.20615e-05 -2.9906e-06 -4.37927e-05
0.000418158 -7.55988e-07 1.25342e-06
-7.55988e-07 -5.81068e-05 -5.13671e-08
1.25342e-06 -5.13671e-08 -0.000155518
0.000472342 3.93918e-05 5.60031e-07
3.93918e-05 -3.9713e-05 1.35247e-06
5.60031e-07 1.35247e-06 -0.000139317
0.000331159 -5.43112e-06 -1.71379e-07
-5.43112e-06 -0.00010943 -8.26032e-07
-1.71379e-07 -8.26032e-07 -0.000215539
0.00139933 -0.000168339 -3.59205e-06
-0.000168339 0.000561017 6.36003e-06
-3.59205e-06 6.36003e-06 0.000415195
0.000470117 -6.02617e-05 -1.71508e-06
-6.02617e-05 -3.50719e-05 7.44835e-06
-1.71508e-06 7.44835e-06 -0.00017621
-0.000140452 -8.76094e-05 1.00231e-06
-8.76094e-05 -0.000200137 4.38231e-06
1.00231e-06 4.38231e-06 -0.000545212
-9.34951e-05 -0.000371854 1.43035e-06
-0.000371854 -0.000241456 1.02516e-06
1.43035e-06 1.02516e-06 -0.00064483
0.000830914 0.000111263 7.51467e-07
0.000111263 0.000213414 -4.55973e-06
7.51467e-07 -4.55973e-06 7.89973e-05
0.000278184 0.000100622 -1.71492e-06
0.000100622 -0.000125311 -1.21447e-06
-1.71492e-06 -1.21447e-06 -0.00030662
0.00212704 0.000229706 7.40338e-06
0.000229706 2.21801e-05 2.98779e-07
7.40338e-06 2.98779e-07 3.52892e-05
0.00209624 0.000382996 1.40247e-05
0.000382996 0.000160702 3.8841e-06
1.40247e-05 3.8841e-06 6.12228e-05
0.00228305 0.000508726 1.35978e-05
0.000508726 0.000406988 4.18771e-06
1.35978e-05 4.18771e-06 0.000174804
0.0011469 0.000297563 -8.52596e-07
0.000297563 0.000210833 -1.44997e-06
-8.52596e-07 -1.44997e-06 -3.36921e-05
0.00174642 0.000444245 1.01456e-06
0.000444245 0.000375444 1.68744e-06
1.01456e-06 1.68744e-06 6.54308e-05
0.00142299 0.00014274 8.80672e-09
0.00014274 0.000552314 2.33824e-07
8.80672e-09 2.33824e-07 0.000402685
0.00233691 0.000251498 -2.67724e-06
0.000251498 0.000242748 7.56011e-07
-2.67724e-06 7.56011e-07 0.000273166
0.00147094 0.000299065 -2.05029e-06
0.000299065 0.000504329 6.24603e-07
-2.05029e-06 6.24603e-07 0.000287642
0.00152625 0.000376379 5.35614e-07
0.000376379 0.000366998 2.39516e-06
5.35614e-07 2.39516e-06 8.1675e-05
0.00200394 0.000505037 -1.59788e-06
0.000505037 0.000133932 -2.77834e-06
-1.59788e-06 -2.77834e-06 -1.39289e-05
0.00164764 0.000470246 -3.53332e-06
0.000470246 0.000258786 5.35738e-06
-3.53332e-06 5.35738e-06 -4.02139e-05
0.00235766 0.000515972 4.5175e-05
0.000515972 -6.98241e-05 4.5617e-06
4.5175e-05 4.5617e-06 -0.000384261
0.00108595 0.000205274 -5.71066e-06
0.000205274 0.000376356 -3.85984e-07
-5.71066e-06 -3.85984e-07 0.000200485
0.00293329 0.00043525 -6.06013e-05
0.00043525 0.000691957 -2.7669e-05
-6.06013e-05 -2.7669e-05 0.000655435
0.00113988 0.000294894 -4.34054e-06
0.000294894 0.000229026 -1.72174e-06
-4.34054e-06 -1.72174e-06 1.86524e-05
0.000364907 0.000289964 -7.60731e-07
0.000289964 -0.000296489 -5.52279e-06
-7.60731e-07 -5.52279e-06 -0.000572163
0.000464614 0.000464609 -2.03493e-05
0.000464609 -0.000543174 -4.02871e-06
-2.03493e-05 -4.02871e-06 -0.000732499
0.0111106 0.000411773 -0.000227277
0.000411773 0.00233696 -4.88537e-05
-0.000227277 -4.88537e-05 0.00144826
0.00605662 0.000926284 0.000120829
0.000926284 0.000747069 -3.43358e-05
0.000120829 -3.43358e-05 0.000558079
9.33584e-05 0.000622883 1.24991e-05
0.000622883 -0.000775839 5.82615e-06
1.24991e-05 5.82615e-06 -0.00105371
-0.004098 -0.0009157 0.000501058
-0.0009157 -0.000626219 7.16169e-05
0.000501058 7.16169e-05 -0.00223022
0.0100857 -0.00315124 -2.34472e-05
-0.00315124 0.00248918 2.18415e-05
-2.34472e-05 2.18415e-05 0.00356444
0.000384793 5.62268e-05 4.13164e-06
5.62268e-05 -4.84325e-05 6.86626e-07
4.13164e-06 6.86626e-07 -0.000136764
0.000876896 5.3682e-05 1.33539e-06
5.3682e-05 0.000234378 -8.40566e-07
1.33539e-06 -8.40566e-07 0.000147122
0.00117222 0.000122023 -2.02036e-06
0.000122023 0.000411071 -3.22471e-07
-2.02036e-06 -3.22471e-07 0.000305173
0.000589845 -6.14718e-05 -1.31747e-07
-6.14718e-05 5.92578e-05 -2.02707e-06
-1.31747e-07 -2.02707e-06 -4.38016e-05
0.000595983 6.02419e-05 -1.51288e-06
6.02419e-05 4.96129e-05 -1.81204e-06
-1.51288e-06 -1.81204e-06 -6.86881e-05
0.000722931 -2.55122e-05 1.87148e-08
-2.55122e-05 0.000126509 -3.57863e-07
1.87148e-08 -3.57863e-07 6.74099e-06
0.000806526 3.33323e-05 -2.01918e-06
3.33323e-05 0.000154483 3.5157e-06
-2.01918e-06 3.5157e-06 5.48793e-05
0.000552065 3.35274e-05 -1.47765e-06
3.35274e-05 -3.22256e-06 2.84882e-06
-1.47765e-06 2.84882e-06 -7.85358e-05
0.000792969 8.66115e-05 -1.7494e-06
8.66115e-05 0.000174092 -5.42665e-07
-1.7494e-06 -5.42665e-07 4.40424e-05
0.000532271 -1.0082e-05 3.74699e-09
-1.0082e-05 7.31604e-06 7.10122e-07
3.74699e-09 7.10122e-07 -8.95084e-05
0.000652551 2.07155e-05 2.79939e-07
2.07155e-05 9.11811e-05 1.94027e-07
2.79939e-07 1.94027e-07 -3.76249e-05
0.000687395 4.3831e-05 6.93562e-07
4.3831e-05 7.53044e-05 -6.46362e-07
6.93562e-07 -6.46362e-07 -5.30063e-06
0.000800608 5.71223e-05 -9.28167e-07
5.71223e-05 0.000155927 -2.73587e-07
-9.28167e-07 -2.73587e-07 3.88391e-05
0.00125099 0.000111426 -1.55867e-06
0.000111426 0.000431037 -1.53204e-06
-1.55867e-06 -1.53204e-06 0.000308754
0.00039344 5.46055e-05 -1.09096e-07
5.46055e-05 -6.67964e-05 -2.97648e-06
-1.09096e-07 -2.97648e-06 -0.000173731
0.00079028 8.56457e-05 1.96154e-06
8.56457e-05 0.000157444 4.09136e-07
1.96154e-06 4.09136e-07 3.43322e-05
0.000544955 -2.2713e-05 1.29094e-06
-2.2713e-05 1.32315e-05 8.99594e-09
1.29094e-06 8.99594e-09 -0.000105858
0.00042037 -5.47085e-05 -1.17079e-06
-5.47085e-05 -6.13733e-05 2.1928e-06
-1.17079e-06 2.1928e-06 -0.000160839
0.000776021 -7.92478e-06 -6.56685e-07
-7.92478e-06 0.000161944 -1.96978e-09
-6.56685e-07 -1.96978e-09 3.78332e-05
0.000836695 3.09585e-05 2.59212e-08
3.09585e-05 0.000201515 -3.42617e-06
2.59212e-08 -3.42617e-06 8.202e-05
0.00065244 -2.7421e-05 -6.33055e-07
-2.7421e-05 9.93356e-05 1.23464e-07
-6.33055e-07 1.23464e-07 -1.75939e-05
0.000790874 -2.73682e-05 1.21229e-06
-2.73682e-05 0.000178758 -6.20863e-07
1.21229e-06 -6.20863e-07 5.82037e-05
0.000664641 -9.0271e-05 -2.486e-06
-9.0271e-05 8.43849e-05 1.59012e-06
-2.486e-06 1.59012e-06 -1.10863e-05
0.000431204 -1.34146e-05 1.54862e-07
-1.34146e-05 -5.41581e-05 8.88192e-07
1.54862e-07 8.88192e-07 -0.000153688
0.000574917 -2.45279e-05 -1.5946e-06
-2.45279e-05 9.67377e-06 2.5555e-06
-1.5946e-06 2.5555e-06 -4.67503e-05
0.000568268 -2.13777e-05 1.14823e-06
-2.13777e-05 1.1687e-05 1.21832e-08
1.14823e-06 1.21832e-08 -4.70625e-05
0.000563275 6.41397e-06 1.93102e-07
6.41397e-06 -2.06426e-05 5.63886e-06
1.93102e-07 5.63886e-06 -3.8165e-05
0.000567822 2.2791e-05 -1.05224e-06
2.2791e-05 9.26775e-06 -2.31635e-06
-1.05224e-06 -2.31635e-06 -4.74263e-05
0.000530975 6.12659e-06 4.15279e-07
6.12659e-06 -4.048e-05 6.98837e-09
4.15279e-07 6.98837e-09 -5.75845e-05
0.00239133 -1.59591e-06 -8.32581e-07
-1.59591e-06 0.00107254 5.31816e-06
-8.32581e-07 5.31816e-06 0.00108762
0.000577983 4.8684e-06 -1.0472e-06
4.8684e-06 -1.39399e-05 -5.81299e-06
-1.0472e-06 -5.81299e-06 -3.08966e-05
0.00161208 -9.89977e-06 2.24232e-08
-9.89977e-06 0.000603599 9.04682e-08
2.24232e-08 9.04682e-08 0.000614552
0.000775409 -1.47586e-05 2.46741e-07
-1.47586e-05 9.92786e-05 -2.14812e-06
2.46741e-07 -2.14812e-06 0.000106903
0.000589302 -1.40615e-05 1.02356e-06
-1.40615e-05 7.83047e-06 -1.2825e-06
1.02356e-06 -1.2825e-06 -3.02328e-05
0.000615026 -2.21454e-05 3.92761e-07
-2.21454e-05 2.11262e-05 -5.0369e-08
3.92761e-07 -5.0369e-08 -1.89602e-05
0.000578583 1.40584e-05 5.00185e-07
1.40584e-05 -2.16932e-05 -3.07871e-06
5.00185e-07 -3.07871e-06 -2.94221e-05
0.000587971 -1.63006e-05 -1.40022e-06
-1.63006e-05 1.57866e-06 1.16007e-06
-1.40022e-06 1.16007e-06 -3.85837e-05
0.000848814 2.57496e-05 -5.81492e-08
2.57496e-05 0.000143143 -7.12312e-07
-5.81492e-08 -7.12312e-07 0.000135513
0.00204015 4.20433e-05 1.04677e-05
4.20433e-05 0.000867293 -4.29439e-06
1.04677e-05 -4.29439e-06 0.000883612
0.000546402 3.06071e-05 -4.02727e-07
3.06071e-05 -3.42977e-05 3.39484e-06
-4.02727e-07 3.39484e-06 -4.67375e-05
0.00217505 5.89432e-05 -7.12145e-06
5.89432e-05 0.000955489 1.11308e-06
-7.12145e-06 1.11308e-06 0.000968615
0.00228449 7.77719e-05 -1.53969e-05
7.77719e-05 0.00102821 4.09496e-06
-1.53969e-05 4.09496e-06 0.00103743
0.00201306 0.000132846 -2.49446e-06
0.000132846 2.01408e-05 -2.77695e-07
-2.49446e-06 -2.77695e-07 1.05856e-05
0.0019252 3.79324e-08 -1.28844e-06
3.79324e-08 9.71194e-06 2.51921e-07
-1.28844e-06 2.51921e-07 7.44939e-06
0.00166052 5.6893e-05 8.70335e-06
5.6893e-05 -0.00019707 5.70819e-07
8.70335e-06 5.70819e-07 -0.000168276
0.00228851 0.000261853 4.16293e-05
0.000261853 -0.000594996 9.07689e-06
4.16293e-05 9.07689e-06 -0.000424333
0.00199882 -1.04931e-05 -2.11441e-06
-1.04931e-05 -2.78594e-05 -6.47066e-07
-2.11441e-06 -6.47066e-07 -6.60201e-06
0.00192223 5.31867e-05 3.7206e-06
5.31867e-05 0.000134938 -3.32778e-06
3.7206e-06 -3.32778e-06 0.000203599
0.00287308 -1.90281e-05 -2.81443e-05
-1.90281e-05 0.00072581 4.34647e-06
-2.81443e-05 4.34647e-06 0.000705808
0.00194224 -1.96237e-05 4.63684e-05
-1.96237e-05 -0.00149573 -2.65976e-05
4.63684e-05 -2.65976e-05 -0.00123529
0.00250727 9.63915e-05 4.04948e-05
9.63915e-05 -0.000156384 2.38734e-05
4.04948e-05 2.38734e-05 2.76655e-05
0.000615255 7.12832e-05 1.18191e-07
7.12832e-05 5.98912e-05 -5.43447e-07
1.18191e-07 -5.43447e-07 -1.76841e-05
0.000639378 -8.42148e-06 5.77687e-07
-8.42148e-06 7.62808e-05 -2.0018e-07
5.77687e-07 -2.0018e-07 -3.28987e-06
0.000615577 -9.70765e-05 -9.69138e-07
-9.70765e-05 6.16869e-05 1.18307e-06
-9.69138e-07 1.18307e-06 -3.28252e-05
0.000588537 -4.30186e-05 -1.28411e-06
-4.30186e-05 6.79036e-05 1.0402e-06
-1.28411e-06 1.0402e-06 -3.70313e-05
0.00201345 -0.000126724 -3.4505e-06
-0.000126724 -5.04012e-05 5.56787e-07
-3.4505e-06 5.56787e-07 -2.85554e-05
0.00197042 -0.000275351 7.99536e-07
-0.000275351 -1.23102e-05 -3.08841e-07
7.99536e-07 -3.08841e-07 1.53354e-05
0.00210259 -0.000407116 -2.10612e-06
-0.000407116 9.57236e-05 2.20596e-06
-2.10612e-06 2.20596e-06 2.30808e-05
0.00247347 -0.000470116 1.13533e-05
-0.000470116 0.000925033 3.23402e-06
1.13533e-05 3.23402e-06 0.000627117
0.0010377 -0.000483798 1.20196e-05
-0.000483798 2.50209e-08 -3.76824e-06
1.20196e-05 -3.76824e-06 -0.000360733
0.00232234 -0.000570246 7.26517e-06
-0.000570246 0.000442983 -3.1997e-06
7.26517e-06 -3.1997e-06 0.00025513
0.00121471 -0.000362766 -3.93852e-06
-0.000362766 0.000298259 2.77029e-06
-3.93852e-06 2.77029e-06 1.36596e-05
0.00199238 -0.000156868 1.60665e-06
-0.000156868 0.000880666 -8.43317e-07
1.60665e-06 -8.43317e-07 0.000629646
0.000222309 -7.44274e-05 3.21628e-08
-7.44274e-05 -0.000215983 -1.22865e-06
3.21628e-08 -1.22865e-06 -0.000374453
0.000674307 -4.10194e-05 -1.2114e-07
-4.10194e-05 8.70676e-05 1.02981e-06
-1.2114e-07 1.02981e-06 1.11238e-05
0.000680325 -9.09954e-05 6.83963e-07
-9.09954e-05 0.000125054 -3.10791e-06
6.83963e-07 -3.10791e-06 -3.54122e-05
0.000754954 -7.6003e-06 9.78035e-07
-7.6003e-06 0.000166527 -9.31903e-07
9.78035e-07 -9.31903e-07 4.39193e-05
0.000639013 7.10272e-06 1.27308e-07
7.10272e-06 7.94207e-05 -2.35689e-07
1.27308e-07 -2.35689e-07 -3.44286e-06
0.000541908 -2.64807e-06 -3.45696e-06
-2.64807e-06 8.95308e-06 2.2032e-06
-3.45696e-06 2.2032e-06 -8.47739e-05
0.00232859 -0.000214322 1.28125e-06
-0.000214322 0.000145839 6.29645e-07
1.28125e-06 6.29645e-07 0.000173141
0.000641389 -1.44963e-05 1.11434e-06
-1.44963e-05 8.65443e-05 -2.20887e-07
1.11434e-06 -2.20887e-07 -1.84314e-05
0.000693446 2.13776e-06 2.70747e-06
2.13776e-06 0.000101738 -1.64797e-07
2.70747e-06 -1.64797e-07 -1.88763e-06
0.000336472 2.87878e-05 2.19905e-07
2.87878e-05 -0.000105242 1.2986e-06
2.19905e-07 1.2986e-06 -0.00019784
0.00178011 -0.00029729 -7.8895e-07
-0.00029729 -0.000195789 -1.56681e-06
-7.8895e-07 -1.56681e-06 -0.000128038
0.00208079 -0.000535493 1.57919e-06
-0.000535493 0.000130603 -4.32298e-07
1.57919e-06 -4.32298e-07 -4.0557e-06
0.00169112 -0.000452338 -1.24495e-06
-0.000452338 0.000528903 3.09098e-07
-1.24495e-06 3.09098e-07 0.000222483
0.00215308 -0.000609263 -5.78884e-06
-0.000609263 0.000460486 1.94836e-06
-5.78884e-06 1.94836e-06 0.00022074
0.00109169 -8.22313e-05 -9.58527e-07
-8.22313e-05 0.000358845 4.21712e-07
-9.58527e-07 4.21712e-07 0.000221922
0.000441145 -7.14782e-05 3.69072e-07
-7.14782e-05 -5.46367e-05 9.20536e-07
3.69072e-07 9.20536e-07 -0.000202615
0.00111832 -0.000455182 4.04238e-06
-0.000455182 0.000445039 -1.73274e-06
4.04238e-06 -1.73274e-06 2.49859e-05
0.00116524 -0.000202866 9.51675e-08
-0.000202866 0.000464672 -4.14541e-07
9.51675e-08 -4.14541e-07 0.000156395
0.00249139 -0.000261881 -2.44815e-05
-0.000261881 0.000148984 -1.49787e-06
-2.44815e-05 -1.49787e-06 0.00027406
0.00231903 -0.000434593 -2.97783e-05
-0.000434593 0.000151772 6.43407e-06
-2.97783e-05 6.43407e-06 0.000169896
0.00281992 -0.000694894 -1.26912e-05
-0.000694894 0.000626836 -5.41152e-06
-1.26912e-05 -5.41152e-06 0.000405262
0.00164331 -0.000520283 -1.04526e-05
-0.000520283 0.000376252 2.8098e-06
-1.04526e-05 2.8098e-06 0.000150461
0.000523787 -1.30508e-05 -1.52059e-06
-1.30508e-05 3.31393e-05 -1.98655e-06
-1.52059e-06 -1.98655e-06 -8.93182e-05
0.000519938 -8.14175e-05 -9.57688e-07
-8.14175e-05 1.89433e-05 -4.5325e-06
-9.57688e-07 -4.5325e-06 -0.000113503
0.000424126 -0.000122686 -3.47098e-06
-0.000122686 6.35867e-05 1.23008e-05
-3.47098e-06 1.23008e-05 -0.000133961
-0.000423686 -0.000229726 -3.60028e-06
-0.000229726 -0.00020041 -5.8953e-06
-3.60028e-06 -5.8953e-06 -0.000708896
0.0010909 -0.000421854 2.72535e-05
-0.000421854 -0.00337555 -6.15233e-06
2.72535e-05 -6.15233e-06 -0.00358144
0.0015592 0.000133292 7.3546e-07
0.000133292 0.000620671 -3.97168e-06
7.3546e-07 -3.97168e-06 0.000479339
0.000697813 0.000208123 2.73031e-06
0.000208123 5.23949e-05 2.04306e-06
2.73031e-06 2.04306e-06 -0.000148532
0.00209839 0.000222106 5.51952e-05
0.000222106 0.000127778 1.13055e-05
5.51952e-05 1.13055e-05 0.000162125
0.00202237 0.000495438 1.89495e-05
0.000495438 0.000136457 6.75741e-06
1.89495e-05 6.75741e-06 -2.6793e-07
0.00210161 0.00051529 7.9677e-06
0.00051529 0.000522588 8.52218e-06
7.9677e-06 8.52218e-06 0.000210618
0.0010565 0.000332281 5.96101e-06
0.000332281 0.000124655 4.55615e-06
5.96101e-06 4.55615e-06 -0.000167257
0.00346438 0.000627096 8.05552e-05
0.000627096 0.0002309 3.06774e-05
8.05552e-05 3.06774e-05 -0.000190618
0.0012674 0.000191702 3.83965e-06
0.000191702 0.000484427 7.20409e-07
3.83965e-06 7.20409e-07 0.000312194
0.00242536 0.000405408 -1.1261e-05
0.000405408 0.000388945 -8.44173e-07
-1.1261e-05 -8.44173e-07 0.000376916
0.00113126 0.00029486 1.94451e-06
0.00029486 0.000246374 6.68265e-07
1.94451e-06 6.68265e-07 3.3818e-05
0.0011801 0.000385157 2.21511e-06
0.000385157 0.000159416 -2.80976e-06
2.21511e-06 -2.80976e-06 -0.000130813
0.00124754 0.000525549 -5.32538e-06
0.000525549 -0.000138559 -1.43344e-06
-5.32538e-06 -1.43344e-06 -0.000335455
0.00275169 -0.000341552 -0.000129608
-0.000341552 -0.00276508 -3.87951e-05
-0.000129608 -3.87951e-05 -0.00376571
0.0061161 0.000785814 -2.68829e-05
0.000785814 0.00061881 -4.77566e-05
-2.68829e-05 -4.77566e-05 0.000212626
0.000581056 0.000547505 -8.58457e-06
0.000547505 -0.000388245 7.18901e-06
-8.58457e-06 7.18901e-06 -0.000721167
-0.002145 -0.000699203 0.000216823
-0.000699203 0.00111769 9.28378e-05
0.000216823 9.28378e-05 -0.000673414
0.00205561 -0.00313954 -0.000159693
-0.00313954 -0.000114599 -0.000168648
-0.000159693 -0.000168648 0.00112089
0.00119696 0.000216571 -6.93077e-06
0.000216571 0.000422951 -2.55681e-06
-6.93077e-06 -2.55681e-06 0.000265587
0.000641764 0.000462094 0.000254998
0.000462094 0.00218165 -3.39329e-06
0.000254998 -3.39329e-06 0.000891072
0.00103076 -0.000956185 -0.000125452
-0.000956185 0.0028223 -0.000192016
-0.000125452 -0.000192016 0.000490022
0.00265608 0.000628595 -3.29981e-05
0.000628595 0.000493207 -8.93211e-06
-3.29981e-05 -8.93211e-06 0.000509099
0.000728601 0.000179138 -1.42597e-05
0.000179138 2.02766e-05 -4.12146e-06
-1.42597e-05 -4.12146e-06 -0.00017707
0.00038405 0.000426135 -2.57909e-05
0.000426135 -0.000269924 -1.76636e-05
-2.57909e-05 -1.76636e-05 -0.000561317
0.000104374 0.000578752 3.40727e-05
0.000578752 -0.000704218 7.21052e-05
3.40727e-05 7.21052e-05 -0.000876186
0.013368 0.000984245 -1.16551e-05
0.000984245 0.00380895 -4.51573e-05
-1.16551e-05 -4.51573e-05 0.00233835
0.0027019 0.00112122 1.23801e-05
0.00112122 0.000399157 3.21376e-06
1.23801e-05 3.21376e-06 -0.000668404
0.00417927 -0.00278576 0.000409547
-0.00278576 0.00021761 0.000276403
0.000409547 0.000276403 0.000157419
0.00690565 -0.00144525 -3.70161e-05
-0.00144525 5.22899e-05 0.000289898
-3.70161e-05 0.000289898 0.000670954
0.000583486 3.70391e-05 2.58044e-06
3.70391e-05 7.97447e-05 -2.52408e-06
2.58044e-06 -2.52408e-06 -8.83991e-06
0.00074179 9.88018e-05 3.49969e-06
9.88018e-05 0.000162844 9.50078e-07
3.49969e-06 9.50078e-07 5.70867e-05
0.0014376 0.000172703 -2.01252e-06
0.000172703 0.000584265 -2.79411e-06
-2.01252e-06 -2.79411e-06 0.000465786
0.000614755 5.1096e-06 8.23768e-07
5.1096e-06 7.42934e-05 -4.83e-07
8.23768e-07 -4.83e-07 -3.35155e-05
0.000723158 3.57024e-05 2.56666e-08
3.57024e-05 0.000130788 -1.76571e-06
2.56666e-08 -1.76571e-06 3.65679e-06
0.000506175 -1.07309e-06 -1.85285e-06
-1.07309e-06 -8.71453e-06 4.03795e-07
-1.85285e-06 4.03795e-07 -0.000125215
0.000740997 6.13231e-05 -1.93072e-06
6.13231e-05 0.000121771 1.43269e-06
-1.93072e-06 1.43269e-06 8.99503e-06
0.000509538 4.24278e-05 -1.57778e-06
4.24278e-05 -3.49711e-05 -2.30117e-07
-1.57778e-06 -2.30117e-07 -0.000116031
0.000430223 -4.67485e-06 2.48117e-07
-4.67485e-06 -5.07181e-05 7.86709e-07
2.48117e-07 7.86709e-07 -0.000153084
0.000910052 4.73547e-05 6.09534e-07
4.73547e-05 0.000231598 7.81047e-07
6.09534e-07 7.81047e-07 0.000111967
0.000777431 3.41468e-05 2.80534e-07
3.41468e-05 0.000150321 3.43131e-07
2.80534e-07 3.43131e-07 2.6459e-05
0.00068297 1.889e-05 6.59947e-07
1.889e-05 0.000111113 -3.17233e-07
6.59947e-07 -3.17233e-07 -1.88526e-05
0.000448809 5.75696e-05 -2.84624e-07
5.75696e-05 -3.24619e-05 -9.35727e-07
-2.84624e-07 -9.35727e-07 -0.000140071
0.00129745 7.4728e-05 -9.46508e-07
7.4728e-05 0.000464551 -3.17567e-06
-9.46508e-07 -3.17567e-06 0.000354276
0.000108874 4.89466e-05 -3.43757e-06
4.89466e-05 -0.000184031 -5.009e-06
-3.43757e-06 -5.009e-06 -0.000300102
0.000764428 -8.25115e-05 -3.83134e-08
-8.25115e-05 0.000141879 -1.04964e-07
-3.83134e-08 -1.04964e-07 1.3617e-05
0.00076479 -5.70868e-05 -6.14124e-07
-5.70868e-05 0.000166667 -2.62061e-07
-6.14124e-07 -2.62061e-07 3.19535e-05
0.000790231 -2.88367e-05 -4.34851e-07
-2.88367e-05 0.000181111 -3.70764e-07
-4.34851e-07 -3.70764e-07 4.94559e-05
0.000807766 9.69193e-09 -1.36173e-06
9.69193e-09 0.000175615 -1.97303e-07
-1.36173e-06 -1.97303e-07 6.3632e-05
0.000777837 1.96001e-05 -3.2005e-06
1.96001e-05 0.000179095 -2.35378e-06
-3.2005e-06 -2.35378e-06 3.73696e-05
0.000725034 3.60004e-06 1.41234e-06
3.60004e-06 0.000129212 -1.94191e-06
1.41234e-06 -1.94191e-06 1.84682e-05
1.49193e-05 -2.19367e-05 -3.63697e-07
-2.19367e-05 -0.000297292 -2.47337e-06
-3.63697e-07 -2.47337e-06 -0.000393827
0.000584391 -6.08414e-06 9.21499e-07
-6.08414e-06 3.46741e-05 1.14432e-07
9.21499e-07 1.14432e-07 -7.36232e-05
0.000639985 -5.30652e-05 2.88195e-07
-5.30652e-05 6.93518e-05 5.84722e-07
2.88195e-07 5.84722e-07 -3.0882e-05
0.000715156 -5.11081e-05 -2.14423e-07
-5.11081e-05 0.000129855 -2.98164e-08
-2.14423e-07 -2.98164e-08 1.56387e-05
0.000653391 -5.67137e-05 -2.07088e-06
-5.67137e-05 6.55715e-05 1.28778e-06
-2.07088e-06 1.28778e-06 -1.79623e-05
0.000669833 -4.07822e-05 1.42369e-06
-4.07822e-05 8.60442e-05 -5.23518e-07
1.42369e-06 -5.23518e-07 -2.21521e-05
0.000593736 -8.33323e-05 2.17403e-08
-8.33323e-05 3.96613e-05 2.27318e-07
2.17403e-08 2.27318e-07 -5.55286e-05
0.000617758 -2.32175e-05 -2.09733e-06
-2.32175e-05 3.07089e-05 2.76807e-06
-2.09733e-06 2.76807e-06 -2.54605e-05
0.000477275 -6.05881e-06 1.26114e-06
-6.05881e-06 -1.64242e-05 -7.95667e-07
1.26114e-06 -7.95667e-07 -0.000123325
0.000573114 2.75086e-06 1.37911e-06
2.75086e-06 1.31389e-05 -5.04179e-09
1.37911e-06 -5.04179e-09 -4.57918e-05
0.00139154 8.53782e-06 -3.35438e-06
8.53782e-06 0.00047451 5.54951e-06
-3.35438e-06 5.54951e-06 0.000461383
0.000566071 3.8328e-05 -7.54948e-07
3.8328e-05 1.06666e-05 -2.3593e-06
-7.54948e-07 -2.3593e-06 -4.79466e-05
0.00094617 2.18175e-06 -1.91947e-06
2.18175e-06 0.000208869 8.07952e-07
-1.91947e-06 8.07952e-07 0.000193739
0.000829241 3.07522e-06 -4.2252e-06
3.07522e-06 0.000134779 5.08694e-06
-4.2252e-06 5.08694e-06 0.000141652
0.000536138 -8.00346e-07 5.87888e-07
-8.00346e-07 -3.72106e-05 -3.87904e-06
5.87888e-07 -3.87904e-06 -5.43573e-05
0.00240704 1.64173e-07 4.72271e-06
1.64173e-07 0.00108206 -7.02947e-09
4.72271e-06 -7.02947e-09 0.00109707
0.000850499 -2.69872e-06 -4.31131e-06
-2.69872e-06 0.000147078 -5.20242e-06
-4.31131e-06 -5.20242e-06 0.000154072
0.000583589 6.38846e-05 2.02095e-06
6.38846e-05 4.72745e-05 1.91489e-07
2.02095e-06 1.91489e-07 -3.74879e-05
0.000565753 3.00859e-05 -1.37821e-06
3.00859e-05 -5.90686e-07 -1.75359e-06
-1.37821e-06 -1.75359e-06 -4.03369e-05
0.000578739 -6.34323e-06 1.05129e-06
-6.34323e-06 4.06451e-06 1.76985e-08
1.05129e-06 1.76985e-08 -3.56781e-05
0.000579037 8.25046e-06 4.30088e-07
8.25046e-06 -2.19321e-05 -3.03366e-06
4.30088e-07 -3.03366e-06 -2.89747e-05
0.000607632 -3.64607e-05 -1.78645e-06
-3.64607e-05 1.86288e-05 1.31109e-06
-1.78645e-06 1.31109e-06 -2.30516e-05
0.000547693 1.40536e-05 1.89911e-08
1.40536e-05 -4.08194e-05 -7.5676e-07
1.89911e-08 -7.5676e-07 -4.82321e-05
0.00201521 2.82968e-05 7.02995e-06
2.82968e-05 0.000848684 -4.44793e-06
7.02995e-06 -4.44793e-06 0.000866599
0.00114706 3.23855e-05 -6.20978e-07
3.23855e-05 0.000323429 1.79675e-06
-6.20978e-07 1.79675e-06 0.000317044
0.00147753 3.62245e-05 6.59647e-08
3.62245e-05 0.000528973 1.40081e-06
6.59647e-08 1.40081e-06 0.000541182
0.000884351 3.94083e-05 -1.2898e-05
3.94083e-05 0.000177154 7.18042e-06
-1.2898e-05 7.18042e-06 0.000183491
0.00151719 0.000175492 7.65864e-05
0.000175492 -0.000878259 1.626e-05
7.65864e-05 1.626e-05 -0.00073041
0.0019651 -2.38678e-05 2.39845e-06
-2.38678e-05 -3.21554e-05 1.59381e-06
2.39845e-06 1.59381e-06 -1.43508e-05
0.00190236 6.52348e-05 3.52012e-05
6.52348e-05 0.000139363 -1.23556e-05
3.52012e-05 -1.23556e-05 0.000199183
0.00157049 0.000146897 -2.09428e-05
0.000146897 -0.00126021 -1.31754e-05
-2.09428e-05 -1.31754e-05 -0.000812245
0.00188489 6.79351e-05 2.09922e-05
6.79351e-05 -0.000395598 -7.33405e-08
2.09922e-05 -7.33405e-08 -0.000227867
0.00237595 -2.24404e-05 8.28345e-07
-2.24404e-05 0.000377275 -3.13141e-06
8.28345e-07 -3.13141e-06 0.000362875
0.00359348 -0.000101741 -6.02828e-05
-0.000101741 0.000852367 1.51794e-06
-6.02828e-05 1.51794e-06 0.000824336
0.0030504 -7.4346e-05 7.50764e-05
-7.4346e-05 0.000315052 4.43969e-06
7.50764e-05 4.43969e-06 0.000284407
0.0105401 -0.000517449 1.51923e-05
-0.000517449 0.00239862 4.22428e-05
1.51923e-05 4.22428e-05 0.000840882
0.0105161 0.00224914 0.000510127
0.00224914 0.00468621 -0.00021984
0.000510127 -0.00021984 0.00432904
0.00651302 0.0024561 -2.78873e-05
0.0024561 0.00491378 1.94781e-05
-2.78873e-05 1.94781e-05 0.00499308
0.000413246 -9.13218e-05 1.75478e-06
-9.13218e-05 -4.92435e-05 -2.05437e-07
1.75478e-06 -2.05437e-07 -0.000146426
0.000634927 -1.17601e-05 1.34138e-06
-1.17601e-05 7.34015e-05 -1.6906e-07
1.34138e-06 -1.6906e-07 -6.05448e-06
0.000683841 -8.0964e-05 -1.66245e-06
-8.0964e-05 0.000109101 1.06124e-06
-1.66245e-06 1.06124e-06 2.37061e-05
0.00062117 -4.42548e-05 -1.65717e-07
-4.42548e-05 6.68281e-05 2.47398e-07
-1.65717e-07 2.47398e-07 -2.90453e-05
0.000612213 5.85277e-05 -1.53875e-06
5.85277e-05 8.45888e-05 1.92259e-06
-1.53875e-06 1.92259e-06 -2.86168e-05
0.000591994 0.000118224 1.35016e-06
0.000118224 4.92832e-05 4.18676e-06
1.35016e-06 4.18676e-06 -6.13179e-05
0.000873022 -1.53093e-05 2.93382e-06
-1.53093e-05 0.00023685 4.40461e-07
2.93382e-06 4.40461e-07 0.000125513
0.000559898 -2.87567e-05 -1.14065e-06
-2.87567e-05 3.89713e-05 1.01089e-06
-1.14065e-06 1.01089e-06 -6.04855e-05
0.00218819 -0.000199661 5.71043e-06
-0.000199661 6.72381e-05 2.21589e-06
5.71043e-06 2.21589e-06 0.000108865
0.00181867 -0.000310551 1.00685e-05
-0.000310551 -0.000210065 -2.19814e-06
1.00685e-05 -2.19814e-06 -0.000148591
0.00161372 -0.000495408 7.16419e-06
-0.000495408 -0.000111605 3.16648e-06
7.16419e-06 3.16648e-06 -0.000236353
0.00146253 -0.000453897 1.60193e-05
-0.000453897 0.000385971 1.66778e-07
1.60193e-05 1.66778e-07 7.56624e-05
0.00178591 -0.000584447 6.7362e-06
-0.000584447 0.000268968 2.49344e-06
6.7362e-06 2.49344e-06 3.13427e-05
0.00235174 -0.000538471 8.88929e-06
-0.000538471 0.00114526 -3.00638e-06
8.88929e-06 -3.00638e-06 0.00070434
0.00241727 -0.000320563 1.65714e-06
-0.000320563 0.00112346 -2.82251e-06
1.65714e-06 -2.82251e-06 0.000834281
0.000792184 -0.000137559 4.86808e-06
-0.000137559 0.000161289 -4.7518e-06
4.86808e-06 -4.7518e-06 -6.45452e-06
0.000663134 -2.65456e-05 5.15483e-07
-2.65456e-05 8.36044e-05 2.21793e-06
5.15483e-07 2.21793e-06 -1.4639e-05
0.000880571 -4.76602e-05 2.26923e-06
-4.76602e-05 0.000216701 -7.62271e-06
2.26923e-06 -7.62271e-06 8.90606e-05
0.000915815 -2.43144e-05 1.71827e-06
-2.43144e-05 0.000252882 -1.78442e-07
1.71827e-06 -1.78442e-07 0.000145466
0.000707744 8.95491e-05 2.12319e-06
8.95491e-05 0.00011879 1.85251e-06
2.12319e-06 1.85251e-06 3.32359e-05
0.0020308 -0.000247772 -3.03838e-07
-0.000247772 -4.29393e-05 2.14262e-06
-3.03838e-07 2.14262e-06 6.44643e-05
0.000651078 8.65106e-06 -1.59462e-06
8.65106e-06 0.000109302 1.43486e-07
-1.59462e-06 1.43486e-07 -1.2566e-05
0.000851892 -9.38002e-05 -2.76923e-06
-9.38002e-05 0.000206921 1.72605e-06
-2.76923e-06 1.72605e-06 8.37942e-05
0.00175937 -0.000417136 2.21253e-06
-0.000417136 -0.000149374 -1.71765e-06
2.21253e-06 -1.71765e-06 -0.000134177
0.00164851 -0.000592971 3.02512e-07
-0.000592971 2.40492e-06 5.30292e-09
3.02512e-07 5.30292e-09 -0.000184841
0.000979981 -0.000459871 -1.14929e-06
-0.000459871 1.56362e-05 -1.88994e-06
-1.14929e-06 -1.88994e-06 -0.00022126
0.00111186 -0.000172607 2.8916e-07
-0.000172607 0.000445526 -6.05732e-06
2.8916e-07 -6.05732e-06 0.000227122
0.00116879 -0.00029922 -1.88109e-06
-0.00029922 0.000644604 1.49743e-06
-1.88109e-06 1.49743e-06 0.000182919
0.00312298 -0.000375201 -3.54278e-05
-0.000375201 0.000509433 4.22194e-06
-3.54278e-05 4.22194e-06 0.000553025
0.00287948 -0.000602992 -3.78615e-05
-0.000602992 0.00059124 5.9933e-06
-3.78615e-05 5.9933e-06 0.000550397
0.00185828 -0.000662341 -1.34141e-05
-0.000662341 0.000205368 -5.18696e-07
-1.34141e-05 -5.18696e-07 1.32712e-05
0.000557635 -0.000330302 -1.62211e-05
-0.000330302 -6.20636e-05 1.67997e-05
-1.62211e-05 1.67997e-05 -0.000278011
0.000660164 -0.000138275 1.51255e-06
-0.000138275 0.000120782 1.97217e-06
1.51255e-06 1.97217e-06 -2.84816e-05
0.00042819 -0.000116149 2.91407e-06
-0.000116149 2.52006e-05 1.69387e-07
2.91407e-06 1.69387e-07 -0.000146543
0.00107112 -0.000124273 -7.49026e-07
-0.000124273 0.000593659 -3.94617e-06
-7.49026e-07 -3.94617e-06 0.000207535
-0.00529482 -0.000124759 0.000286911
-0.000124759 -0.00387415 1.17627e-06
0.000286911 1.17627e-06 -0.00271708
0.0103503 -0.000159096 1.73439e-05
-0.000159096 0.00262526 4.33775e-07
1.73439e-05 4.33775e-07 0.00208714
0.00151083 0.000171312 6.43477e-06
0.000171312 0.000614367 -3.73532e-06
6.43477e-06 -3.73532e-06 0.000454496
0.000972872 0.000280185 2.82006e-06
0.000280185 0.00017275 -1.80116e-06
2.82006e-06 -1.80116e-06 -3.88478e-05
0.00178898 0.000353596 4.81804e-05
0.000353596 2.9278e-05 2.48615e-05
4.81804e-05 2.48615e-05 4.15642e-05
0.00245442 0.000623228 1.60609e-05
0.000623228 0.000488981 5.21622e-06
1.60609e-05 5.21622e-06 0.000280941
0.00227101 0.000507013 1.10912e-05
0.000507013 0.000759791 1.00266e-06
1.10912e-05 1.00266e-06 0.000453852
0.0115528 0.000634143 5.32969e-05
0.000634143 0.00291687 2.52627e-05
5.32969e-05 2.52627e-05 0.00182132
0.00773582 0.00112398 -0.000170857
0.00112398 0.000860199 -2.0408e-05
-0.000170857 -2.0408e-05 0.000572189
0.000907231 0.000483945 5.94722e-06
0.000483945 -0.000100739 -1.85902e-05
5.94722e-06 -1.85902e-05 -0.00049853
0.0105777 -0.00178794 -0.00014182
-0.00178794 0.00478821 1.35685e-05
-0.00014182 1.35685e-05 0.00391484
-0.00695431 -0.00319371 -0.000860677
-0.00319371 -0.00282481 -0.000650959
-0.000860677 -0.000650959 -0.00172394
0.000991567 0.000206297 -7.03493e-07
0.000206297 0.000313823 -1.326e-06
-7.03493e-07 -1.326e-06 0.000155465
-0.0024271 -0.000943198 0.000170573
-0.000943198 -0.00232763 2.50001e-05
0.000170573 2.50001e-05 -0.00271731
-0.00321097 -0.000682956 -0.000200861
-0.000682956 0.00189351 -9.99687e-05
-0.000200861 -9.99687e-05 -0.000795038
0.00285271 0.000570565 -1.24992e-05
0.000570565 0.000609435 -1.18437e-06
-1.24992e-05 -1.18437e-06 0.000627461
0.000877726 0.000245197 -4.17057e-06
0.000245197 0.000136208 1.3974e-06
-4.17057e-06 1.3974e-06 -8.49672e-05
0.00124704 0.000510808 5.06655e-06
0.000510808 0.000197794 2.3045e-06
5.06655e-06 2.3045e-06 -0.000103855
0.00121628 0.000519279 2.05506e-05
0.000519279 2.66453e-05 1.70101e-05
2.05506e-05 1.70101e-05 -2.50512e-05
0.0099218 0.000789131 -7.26414e-05
0.000789131 0.00140832 -3.44931e-05
-7.26414e-05 -3.44931e-05 -0.000463933
0.00598426 0.0016058 -6.56307e-05
0.0016058 0.00134131 -3.06288e-05
-6.56307e-05 -3.06288e-05 0.000621829
0.0117625 -0.00212733 0.00017309
-0.00212733 0.00512591 -4.86701e-05
0.00017309 -4.86701e-05 0.00467351
0.00633818 -0.00181459 0.000169528
-0.00181459 -0.000795534 0.000374446
0.000169528 0.000374446 -0.000139204
0.00165322 0.000204178 -1.66098e-05
0.000204178 0.000703713 -9.3806e-06
-1.66098e-05 -9.3806e-06 0.000561742
-0.00693544 0.00044458 -9.56223e-05
0.00044458 0.00129607 -6.47504e-05
-9.56223e-05 -6.47504e-05 -0.00205734
0.00339737 0.000390753 -0.000199754
0.000390753 0.00211711 -0.000261091
-0.000199754 -0.000261091 -0.00114789
0.00181905 0.000497597 -1.98528e-05
0.000497597 0.000317292 7.2371e-06
-1.98528e-05 7.2371e-06 0.00031791
0.00153768 0.000453687 -5.29299e-05
0.000453687 0.000578584 -1.88964e-05
-5.29299e-05 -1.88964e-05 0.000326901
0.00229246 0.000448631 -6.10027e-05
0.000448631 0.00128689 -5.99982e-06
-6.10027e-05 -5.99982e-06 0.000842556
0.00138967 0.00106491 -4.41097e-05
0.00106491 -2.23964e-05 -1.74457e-05
-4.41097e-05 -1.74457e-05 -0.000255855
0.000461912 0.00101521 0.000179052
0.00101521 -0.00057708 0.000123029
0.000179052 0.000123029 -0.00341848
0.0107984 -0.00251977 0.000126487
-0.00251977 0.00395612 0.000334202
0.000126487 0.000334202 0.0030649
0.00542647 -0.00100934 -5.97691e-05
-0.00100934 -0.00200608 -6.26867e-05
-5.97691e-05 -6.26867e-05 -0.000809091
0.000562752 0.000113749 3.20767e-06
0.000113749 6.99212e-05 5.36199e-07
3.20767e-06 5.36199e-07 -4.54425e-05
0.00124285 0.00015619 6.34777e-06
0.00015619 0.000458698 3.45091e-06
6.34777e-06 3.45091e-06 0.000343941
-8.03123e-05 5.68862e-05 2.8655e-06
5.68862e-05 -0.000244084 -8.72949e-06
2.8655e-06 -8.72949e-06 -0.000367054
0.000443468 4.69173e-05 1.41496e-06
4.69173e-05 -4.32803e-05 -5.13083e-07
1.41496e-06 -5.13083e-07 -0.000145367
0.000744583 5.18368e-05 -5.46755e-07
5.18368e-05 0.000154259 -1.19241e-06
-5.46755e-07 -1.19241e-06 2.05057e-05
0.000741272 -7.06071e-06 -8.02876e-07
-7.06071e-06 0.000127753 1.79521e-06
-8.02876e-07 1.79521e-06 3.81058e-06
0.000713025 3.47604e-06 3.41296e-06
3.47604e-06 0.000124791 1.18782e-06
3.41296e-06 1.18782e-06 1.4721e-06
0.000346631 4.56147e-05 3.78787e-08
4.56147e-05 -8.83942e-05 2.19709e-06
3.78787e-08 2.19709e-06 -0.000195307
0.000761574 4.63516e-05 -1.44139e-08
4.63516e-05 0.000165164 -8.30684e-07
-1.44139e-08 -8.30684e-07 3.01401e-05
0.000851069 5.16326e-05 2.11475e-07
5.16326e-05 0.000196809 4.3137e-08
2.11475e-07 4.3137e-08 8.60678e-05
0.000769075 -4.03255e-05 -6.48423e-07
-4.03255e-05 0.00014723 7.13199e-07
-6.48423e-07 7.13199e-07 1.76033e-05
-0.000147849 3.14726e-05 6.24487e-07
3.14726e-05 -0.000317907 5.96428e-07
6.24487e-07 5.96428e-07 -0.000437348
-0.000535628 2.42917e-05 -9.66087e-07
2.42917e-05 -0.000370517 -2.02111e-06
-9.66087e-07 -2.02111e-06 -0.000562926
0.000943611 -2.84111e-06 -3.3867e-06
-2.84111e-06 0.000259698 -5.31741e-06
-3.3867e-06 -5.31741e-06 0.000139131
0.000930906 8.45766e-06 -3.76421e-07
8.45766e-06 0.000266679 8.97408e-08
-3.76421e-07 8.97408e-08 0.000112422
0.000793325 -5.76962e-05 -3.46577e-07
-5.76962e-05 0.000187782 -8.73444e-07
-3.46577e-07 -8.73444e-07 5.22494e-05
0.000865618 -4.47594e-05 1.81186e-07
-4.47594e-05 0.000203008 1.64879e-06
1.81186e-07 1.64879e-06 9.50616e-05
0.00082312 -5.36863e-05 3.03062e-07
-5.36863e-05 0.000194875 -6.75776e-07
3.03062e-07 -6.75776e-07 5.96691e-05
0.000758316 -6.54736e-06 -3.26158e-07
-6.54736e-06 0.000143249 -9.9465e-09
-3.26158e-07 -9.9465e-09 3.39623e-05
0.000349666 -5.19406e-05 5.90647e-07
-5.19406e-05 -9.06912e-05 1.65532e-06
5.90647e-07 1.65532e-06 -0.000187861
0.000601809 2.11343e-06 8.99559e-07
2.11343e-06 5.22109e-05 9.76119e-07
8.99559e-07 9.76119e-07 -5.39197e-05
0.000316172 -1.20992e-05 -3.17097e-06
-1.20992e-05 -9.09029e-05 -3.67781e-06
-3.17097e-06 -3.67781e-06 -0.000214296
0.000196576 -4.28374e-05 2.3084e-06
-4.28374e-05 -0.000179184 -1.32318e-06
2.3084e-06 -1.32318e-06 -0.000272805
0.000765775 -4.18145e-05 3.4671e-06
-4.18145e-05 0.000104049 -5.88282e-06
3.4671e-06 -5.88282e-06 6.73687e-06
-6.37468e-06 -4.96882e-05 -1.92579e-07
-4.96882e-05 -0.000333747 1.58111e-06
-1.92579e-07 1.58111e-06 -0.000484837
0.000343534 1.53509e-06 -1.22041e-06
1.53509e-06 -9.99844e-05 -7.56958e-07
-1.22041e-06 -7.56958e-07 -0.000214138
0.000726043 -1.40779e-05 2.40593e-07
-1.40779e-05 0.000116246 1.86865e-07
2.40593e-07 1.86865e-07 5.77896e-06
0.000627251 -1.72168e-05 2.80487e-07
-1.72168e-05 6.12028e-05 8.80142e-07
2.80487e-07 8.80142e-07 -3.93696e-05
0.000715799 -3.49342e-05 -2.12186e-07
-3.49342e-05 0.000127749 -7.51013e-08
-2.12186e-07 -7.51013e-08 1.7626e-05
0.00055743 -9.06241e-07 -5.4184e-07
-9.06241e-07 1.69184e-05 1.13502e-06
-5.4184e-07 1.13502e-06 -6.8953e-05
0.000767585 -3.14484e-05 -5.32828e-08
-3.14484e-05 0.000158318 -1.91962e-07
-5.32828e-08 -1.91962e-07 4.57818e-05
0.000661925 -4.99381e-05 -5.14688e-07
-4.99381e-05 7.97453e-05 1.15525e-07
-5.14688e-07 1.15525e-07 -9.63544e-06
0.000549598 4.08066e-05 -7.13585e-07
4.08066e-05 -1.10174e-05 2.59852e-06
-7.13585e-07 2.59852e-06 -6.83931e-05
0.000526909 -7.36832e-05 1.83074e-06
-7.36832e-05 -5.31639e-06 -1.2185e-06
1.83074e-06 -1.2185e-06 -9.84392e-05
0.000586365 -6.67961e-06 -4.01129e-07
-6.67961e-06 1.13766e-05 4.64436e-09
-4.01129e-07 4.64436e-09 -4.4125e-05
0.00138807 1.9788e-05 -4.97283e-06
1.9788e-05 0.000470686 5.73634e-06
-4.97283e-06 5.73634e-06 0.000457081
0.000574849 -2.94585e-05 1.13799e-06
-2.94585e-05 1.18467e-05 -2.33015e-06
1.13799e-06 -2.33015e-06 -4.55596e-05
0.000940426 7.68667e-06 -2.87644e-06
7.68667e-06 0.000203265 7.34503e-07
-2.87644e-06 7.34503e-07 0.000188267
0.000759863 1.46425e-05 3.39373e-08
1.46425e-05 9.05854e-05 2.04064e-06
3.39373e-08 2.04064e-06 9.76055e-05
0.00052933 -9.72825e-07 8.78081e-07
-9.72825e-07 -4.25454e-05 -3.89882e-06
8.78081e-07 -3.89882e-06 -5.94854e-05
0.00240676 1.38519e-05 4.55491e-06
1.38519e-05 0.00108205 6.03032e-08
4.55491e-06 6.03032e-08 0.00109693
0.00239895 1.93333e-06 -5.48079e-07
1.93333e-06 0.00107724 -5.2774e-06
-5.48079e-07 -5.2774e-06 0.00109224
0.000990142 7.20683e-05 -9.39152e-07
7.20683e-05 0.000285466 -5.33227e-07
-9.39152e-07 -5.33227e-07 0.000202071
0.00058528 3.97536e-05 -1.22851e-06
3.97536e-05 1.47127e-05 -2.02749e-06
-1.22851e-06 -2.02749e-06 -2.82025e-05
0.000625726 -1.04312e-05 5.73996e-07
-1.04312e-05 7.18444e-05 8.71872e-07
5.73996e-07 8.71872e-07 -1.23673e-05
0.000580193 3.46449e-06 3.85455e-07
3.46449e-06 -2.14126e-05 -3.26301e-06
3.85455e-07 -3.26301e-06 -2.84439e-05
0.00057774 -1.4287e-05 1.74906e-07
-1.4287e-05 7.03563e-06 -2.25013e-08
1.74906e-07 -2.25013e-08 -3.30996e-05
0.000604193 -3.66514e-05 -1.53046e-06
-3.66514e-05 2.04962e-05 1.19472e-06
-1.53046e-06 1.19472e-06 -2.02739e-05
0.000562376 7.80823e-06 -2.4703e-07
7.80823e-06 -3.19482e-05 -1.95708e-08
-2.4703e-07 -1.95708e-08 -3.8926e-05
0.00200198 1.53183e-05 2.50333e-06
1.53183e-05 0.000838319 -4.60247e-06
2.50333e-06 -4.60247e-06 0.00085713
0.00113348 2.1136e-05 -7.00411e-07
2.1136e-05 0.000312298 1.77293e-06
-7.00411e-07 1.77293e-06 0.000308052
0.00138515 2.4002e-05 5.86175e-07
2.4002e-05 0.000468522 -1.29964e-09
5.86175e-07 -1.29964e-09 0.000483085
0.000857322 2.85694e-05 -1.23339e-05
2.85694e-05 0.000155252 7.00892e-06
-1.23339e-05 7.00892e-06 0.000164604
-0.0087527 0.000522729 0.000242988
0.000522729 -0.00376525 4.42391e-07
0.000242988 4.42391e-07 -0.0049237
-0.00220666 -1.38144e-05 0.000342772
-1.38144e-05 0.00260497 -2.81971e-05
0.000342772 -2.81971e-05 0.000650356
0.00448193 0.000242966 -0.000226168
0.000242966 4.06709e-05 -1.84094e-05
-0.000226168 -1.84094e-05 0.000616692
0.000470742 4.60751e-05 2.68815e-05
4.60751e-05 -0.0010781 -1.68835e-05
2.68815e-05 -1.68835e-05 -0.000983377
0.0014866 -3.19503e-05 1.80104e-05
-3.19503e-05 -0.000214794 5.48833e-07
1.80104e-05 5.48833e-07 -0.000227021
-0.000136393 5.16863e-05 -2.39034e-05
5.16863e-05 -0.000873234 -9.07489e-06
-2.39034e-05 -9.07489e-06 -0.000718432
0.00273299 -0.000143093 -3.13364e-06
-0.000143093 0.000272027 4.47883e-06
-3.13364e-06 4.47883e-06 0.000240719
0.00962958 0.000104996 6.61556e-05
0.000104996 0.00115101 -3.54736e-05
6.61556e-05 -3.54736e-05 9.93778e-05
-0.00294161 0.00137769 -1.82145e-05
0.00137769 -0.000642729 -2.06345e-05
-1.82145e-05 -2.06345e-05 -0.00219666
-0.000111364 0.00268939 -0.000174631
0.00268939 0.00120541 9.51097e-05
-0.000174631 9.51097e-05 0.00186626
0.00193336 -0.000296967 6.80067e-05
-0.000296967 -0.000798857 -7.84964e-06
6.80067e-05 -7.84964e-06 -0.000734027
0.0130932 -0.000602034 0.000119423
-0.000602034 0.00320894 -3.13041e-05
0.000119423 -3.13041e-05 0.00166228
0.00471694 0.00260076 0.000171499
0.00260076 0.000671201 -0.000313777
0.000171499 -0.000313777 0.000817367
0.00833222 0.00188205 -0.00024736
0.00188205 0.00152252 0.000151936
-0.00024736 0.000151936 0.00124109
0.000728631 9.71734e-05 -2.43105e-06
9.71734e-05 0.000160998 1.61397e-06
-2.43105e-06 1.61397e-06 2.83071e-05
0.000472153 1.80554e-05 -1.27249e-07
1.80554e-05 -1.94654e-05 -7.60241e-07
-1.27249e-07 -7.60241e-07 -0.000111931
0.00066058 -9.00966e-05 -9.116e-07
-9.00966e-05 9.41979e-05 8.95145e-07
-9.116e-07 8.95145e-07 1.01755e-05
0.000551987 -7.97647e-06 1.09849e-06
-7.97647e-06 3.33491e-05 -5.90411e-07
1.09849e-06 -5.90411e-07 -6.67609e-05
0.000613761 5.70039e-05 1.01639e-06
5.70039e-05 9.11922e-05 1.37062e-06
1.01639e-06 1.37062e-06 -2.28032e-05
0.000762729 5.16687e-05 1.749e-07
5.16687e-05 0.000182114 3.36642e-06
1.749e-07 3.36642e-06 4.73912e-05
0.000745739 8.90372e-05 1.45147e-06
8.90372e-05 0.000153864 1.99363e-06
1.45147e-06 1.99363e-06 3.57981e-05
0.000599568 2.36575e-05 3.49602e-06
2.36575e-05 5.2514e-05 5.65099e-07
3.49602e-06 5.65099e-07 -6.52379e-05
0.000714604 -2.76593e-05 1.51453e-06
-2.76593e-05 0.000142732 -9.54806e-07
1.51453e-06 -9.54806e-07 2.90065e-05
0.00051946 -9.00492e-06 -1.00192e-07
-9.00492e-06 3.74618e-06 -5.46195e-07
-1.00192e-07 -5.46195e-07 -8.96582e-05
0.00168773 -0.000230398 2.17404e-05
-0.000230398 -0.000161963 2.10422e-07
2.17404e-05 2.10422e-07 -7.54318e-05
0.00131789 -0.000397468 2.82228e-05
-0.000397468 -0.000381012 -4.34267e-06
2.82228e-05 -4.34267e-06 -0.000366185
0.000174578 -0.000460589 1.64266e-05
-0.000460589 -0.000783416 3.32104e-06
1.64266e-05 3.32104e-06 -0.000927066
7.25261e-05 -0.000380994 8.35578e-06
-0.000380994 -0.000465481 -1.6289e-06
8.35578e-06 -1.6289e-06 -0.000702772
0.00269137 -0.000362812 4.94747e-06
-0.000362812 0.0014513 6.07142e-06
4.94747e-06 6.07142e-06 0.00104211
0.000878252 -0.000212882 4.34307e-06
-0.000212882 0.000313331 -2.20477e-06
4.34307e-06 -2.20477e-06 6.40817e-05
0.00104532 -0.000106719 1.60972e-07
-0.000106719 0.000308531 -5.09021e-07
1.60972e-07 -5.09021e-07 0.000197241
0.000718504 4.63828e-06 -1.68396e-06
4.63828e-06 0.00014882 1.69854e-06
-1.68396e-06 1.69854e-06 2.93518e-05
0.00214725 -0.000311974 7.06242e-06
-0.000311974 4.62169e-05 -3.88013e-06
7.06242e-06 -3.88013e-06 0.000109156
0.000662639 -6.77441e-05 -2.03538e-07
-6.77441e-05 0.000127276 -2.32843e-07
-2.03538e-07 -2.32843e-07 -2.68561e-05
0.000249735 -9.79422e-05 8.48526e-07
-9.79422e-05 -7.43431e-05 -2.05238e-06
8.48526e-07 -2.05238e-06 -0.000248395
0.00205013 -0.000547737 7.26333e-06
-0.000547737 0.000157942 -1.15057e-06
7.26333e-06 -1.15057e-06 0.00011859
0.00151687 -0.000641823 5.28327e-07
-0.000641823 -1.1995e-05 3.31546e-06
5.28327e-07 3.31546e-06 -0.000180976
0.000370083 -0.00036354 9.3077e-06
-0.00036354 -0.00015753 -4.8516e-06
9.3077e-06 -4.8516e-06 -0.000395933
0.00146755 -0.000188437 -1.06076e-06
-0.000188437 0.000791884 -4.98358e-06
-1.06076e-06 -4.98358e-06 0.000428296
0.00238345 -0.000502134 -3.66555e-05
-0.000502134 0.000569075 5.72585e-06
-3.66555e-05 5.72585e-06 0.000280523
0.00166278 -0.000512054 -4.50264e-05
-0.000512054 0.000220708 6.22998e-06
-4.50264e-05 6.22998e-06 0.000129248
0.000645305 -0.000286038 -3.59696e-05
-0.000286038 0.0001763 3.73914e-05
-3.59696e-05 3.73914e-05 -0.000105736
-0.000755005 -3.96855e-05 -2.92857e-07
-3.96855e-05 -0.000695269 3.08577e-06
-2.92857e-07 3.08577e-06 -0.000853345
0.000210602 -0.000114122 2.94824e-06
-0.000114122 -0.000100133 2.51579e-06
2.94824e-06 2.51579e-06 -0.000281867
0.000769221 -9.69211e-05 4.42904e-06
-9.69211e-05 0.000311483 4.58577e-07
4.42904e-06 4.58577e-07 4.5953e-05
-0.000225875 0.000385785 -0.000189755
0.000385785 0.00441493 6.45271e-06
-0.000189755 6.45271e-06 0.00219472
0.00153215 -0.000542984 1.42637e-05
-0.000542984 0.00141759 2.60643e-05
1.42637e-05 2.60643e-05 0.00139277
0.00125836 0.000820977 -6.33441e-05
0.000820977 -0.00336991 2.34619e-06
-6.33441e-05 2.34619e-06 -0.00376511
0.000543047 0.000168794 5.87179e-06
0.000168794 6.13202e-05 2.36683e-06
5.87179e-06 2.36683e-06 -9.16817e-05
0.00109762 0.000317446 7.59301e-06
0.000317446 0.000288482 1.18825e-05
7.59301e-06 1.18825e-05 4.44306e-05
0.0030632 0.000499669 3.34789e-05
0.000499669 0.000750334 1.1825e-05
3.34789e-05 1.1825e-05 0.000758224
0.00209886 0.000568071 1.86326e-05
0.000568071 0.000663772 1.41642e-05
1.86326e-05 1.41642e-05 0.000356069
0.00785405 -0.00107912 8.46542e-05
-0.00107912 0.00279078 4.3291e-05
8.46542e-05 4.3291e-05 0.00297861
0.00316636 0.000207655 -0.000181115
0.000207655 -0.0021638 -8.33666e-06
-0.000181115 -8.33666e-06 -0.00399461
0.00298771 0.00145031 -5.71495e-05
0.00145031 -0.00038046 -9.516e-06
-5.71495e-05 -9.516e-06 -0.000977538
0.000796349 0.000355057 2.81255e-05
0.000355057 2.80063e-05 -2.50809e-05
2.81255e-05 -2.50809e-05 2.59458e-05
-0.00318414 -0.00126358 -0.000152228
-0.00126358 -0.00062955 -0.000169439
-0.000152228 -0.000169439 -0.00138031
-0.000938814 -0.00112126 -0.000149904
-0.00112126 0.0019548 -3.15765e-05
-0.000149904 -3.15765e-05 -0.000778974
0.0110535 -0.00230532 0.000272868
-0.00230532 0.00171741 0.000194663
0.000272868 0.000194663 0.00246502
0.000635109 0.000145149 7.99317e-06
0.000145149 0.000131407 -2.606e-06
7.99317e-06 -2.606e-06 -1.5603e-05
-0.00252828 0.000147306 -0.000101346
0.000147306 0.00257728 -2.63464e-05
-0.000101346 -2.63464e-05 -0.000240256
0.00386195 0.00045262 -2.30818e-05
0.00045262 0.00207996 -9.33305e-05
-2.30818e-05 -9.33305e-05 -0.00130881
0.00131157 0.000462296 -3.69547e-06
0.000462296 0.000100085 4.92114e-06
-3.69547e-06 4.92114e-06 6.33072e-05
0.00056799 0.000319325 4.60626e-06
0.000319325 9.73575e-05 2.54261e-06
4.60626e-06 2.54261e-06 -0.000158248
-0.000469154 0.000345575 1.03861e-05
0.000345575 -0.000259691 -4.18506e-05
1.03861e-05 -4.18506e-05 -0.000583471
0.00502299 0.00167381 -7.31264e-06
0.00167381 0.00175147 7.78305e-06
-7.31264e-06 7.78305e-06 0.00119519
0.0129383 0.00120955 6.6857e-05
0.00120955 0.00435002 2.37889e-05
6.6857e-05 2.37889e-05 0.00228
0.00489701 -0.00163794 3.31072e-05
-0.00163794 0.000147774 -5.1917e-05
3.31072e-05 -5.1917e-05 -0.00086212
0.0103962 -0.00140142 2.24754e-06
-0.00140142 0.00137545 -4.11312e-05
2.24754e-06 -4.11312e-05 0.00261369
0.000571144 0.000211599 -8.21786e-06
0.000211599 0.000144958 -1.22662e-05
-8.21786e-06 -1.22662e-05 2.36341e-06
0.00296934 0.000118803 -0.000145434
0.000118803 0.00122967 -2.91868e-05
-0.000145434 -2.91868e-05 -0.000896541
7.78526e-05 0.000145116 -3.43576e-05
0.000145116 8.28374e-06 -0.000105662
-3.43576e-05 -0.000105662 -0.00153455
-0.000916775 0.000101439 -9.70303e-06
0.000101439 -0.000415124 -1.78319e-05
-9.70303e-06 -1.78319e-05 -0.000586222
0.00117939 0.000374912 -5.16952e-05
0.000374912 0.000978521 3.91968e-05
-5.16952e-05 3.91968e-05 0.000252634
0.0101992 0.00167379 4.73949e-05
0.00167379 0.00395933 6.2381e-07
4.73949e-05 6.2381e-07 0.000737257
-0.00669369 -0.0023828 -3.83326e-05
-0.0023828 -0.00332588 0.000147592
-3.83326e-05 0.000147592 -0.00580877
0.00841205 0.000499667 2.77194e-05
0.000499667 -0.00109297 -0.000204856
2.77194e-05 -0.000204856 0.00108684
0.000937825 0.00012266 1.679e-06
0.00012266 0.000259961 8.11973e-06
1.679e-06 8.11973e-06 0.000154449
0.00101432 0.000147878 -6.12035e-06
0.000147878 0.000400455 -1.18123e-06
-6.12035e-06 -1.18123e-06 0.000269621
0.000334533 9.00876e-05 -1.54666e-06
9.00876e-05 0.000171733 -6.95938e-06
-1.54666e-06 -6.95938e-06 -3.65657e-05
0.000743514 7.98546e-05 -2.60082e-06
7.98546e-05 0.000143471 -1.55734e-06
-2.60082e-06 -1.55734e-06 1.65464e-05
0.000835376 -2.97767e-05 -1.16501e-06
-2.97767e-05 0.000197696 1.63459e-06
-1.16501e-06 1.63459e-06 6.06357e-05
0.000403827 3.48149e-05 1.49604e-06
3.48149e-05 -7.25565e-05 2.11947e-06
1.49604e-06 2.11947e-06 -0.000184182
-0.000233357 2.53747e-05 1.68005e-06
2.53747e-05 -0.000350258 4.50237e-06
1.68005e-06 4.50237e-06 -0.000471872
0.000800798 -7.66691e-06 1.12299e-06
-7.66691e-06 0.000170027 1.47353e-07
1.12299e-06 1.47353e-07 3.06468e-05
0.000817018 2.53619e-05 2.04763e-07
2.53619e-05 0.000189844 -1.1194e-06
2.04763e-07 -1.1194e-06 6.68757e-05
0.000263229 -4.96419e-06 1.5396e-06
-4.96419e-06 9.84135e-05 2.14062e-06
1.5396e-06 2.14062e-06 -9.78195e-05
-0.000925576 1.35832e-05 -1.67178e-06
1.35832e-05 -0.000357377 1.61152e-06
-1.67178e-06 1.61152e-06 -0.000651024
0.000888487 1.64392e-06 -2.51798e-06
1.64392e-06 0.000402703 -6.75977e-06
-2.51798e-06 -6.75977e-06 0.000234174
0.000874374 3.50292e-05 -1.84032e-06
3.50292e-05 0.000221671 -3.18542e-06
-1.84032e-06 -3.18542e-06 8.28371e-05
0.000889887 -0.000115711 1.4786e-06
-0.000115711 0.000222291 7.16539e-07
1.4786e-06 7.16539e-07 9.3814e-05
0.000733822 -6.63263e-06 -2.90727e-07
-6.63263e-06 0.000122979 -1.37537e-07
-2.90727e-07 -1.37537e-07 1.60559e-05
0.000568282 -6.13946e-05 -1.09019e-06
-6.13946e-05 4.64342e-05 4.07103e-06
-1.09019e-06 4.07103e-06 -4.86078e-05
0.000429228 -3.11214e-05 2.09129e-06
-3.11214e-05 -3.66675e-05 1.64574e-06
2.09129e-06 1.64574e-06 -0.000151707
0.000699424 -3.06572e-06 2.71774e-07
-3.06572e-06 0.000110001 -1.05205e-07
2.71774e-07 -1.05205e-07 2.03845e-06
0.000567123 -3.45278e-05 -5.80987e-07
-3.45278e-05 3.75046e-05 -2.6613e-07
-5.80987e-07 -2.6613e-07 -5.43669e-05
0.00103011 -3.46591e-05 -1.28581e-06
-3.46591e-05 0.000282604 -3.13178e-06
-1.28581e-06 -3.13178e-06 0.000185275
-5.69931e-06 -4.04145e-05 4.24805e-06
-4.04145e-05 -0.000223419 -4.8467e-06
4.24805e-06 -4.8467e-06 -0.000309786
0.000359362 -0.000111903 3.48838e-07
-0.000111903 -0.000194729 -2.17149e-07
3.48838e-07 -2.17149e-07 -0.000291623
0.000767002 -7.31936e-05 -3.104e-06
-7.31936e-05 0.000111816 -4.29923e-07
-3.104e-06 -4.29923e-07 9.23651e-06
0.000484347 -0.000108593 4.96692e-06
-0.000108593 -5.21863e-05 3.64661e-06
4.96692e-06 3.64661e-06 -0.000196129
0.00120896 -0.000259373 -2.23986e-06
-0.000259373 0.000327626 8.54261e-06
-2.23986e-06 8.54261e-06 9.66209e-05
0.0013824 -0.000134659 9.07359e-07
-0.000134659 0.000522996 -9.59298e-07
9.07359e-07 -9.59298e-07 0.00037993
0.000273418 -8.36187e-05 -2.27379e-06
-8.36187e-05 -0.000150941 -5.06506e-06
-2.27379e-06 -5.06506e-06 -0.00030418
0.000668576 -1.77475e-05 -1.87878e-07
-1.77475e-05 8.15645e-05 1.52558e-07
-1.87878e-07 1.52558e-07 -3.11919e-05
0.000344643 -6.62477e-06 -8.64683e-08
-6.62477e-06 -9.47364e-05 2.97557e-08
-8.64683e-08 2.97557e-08 -0.00020424
0.000861299 -2.82876e-05 -7.07822e-07
-2.82876e-05 0.000194593 7.54108e-07
-7.07822e-07 7.54108e-07 8.16535e-05
0.000727348 -4.52289e-05 -5.51144e-07
-4.52289e-05 0.000131597 6.68814e-07
-5.51144e-07 6.68814e-07 2.03616e-05
0.000594338 -2.5589e-05 -5.04141e-07
-2.5589e-05 3.3205e-05 1.21527e-06
-5.04141e-07 1.21527e-06 -5.19056e-05
0.000851186 -6.54683e-05 -4.57681e-07
-6.54683e-05 0.000221521 -1.06154e-06
-4.57681e-07 -1.06154e-06 9.92396e-05
0.000671131 -5.77488e-05 -6.23127e-07
-5.77488e-05 8.55816e-05 -4.22269e-08
-6.23127e-07 -4.22269e-08 -3.06393e-06
0.000574301 2.83309e-05 -2.02808e-06
2.83309e-05 2.38611e-06 2.07351e-06
-2.02808e-06 2.07351e-06 -5.5284e-05
0.000704834 -8.94439e-05 1.95492e-06
-8.94439e-05 0.000108344 -1.41858e-06
1.95492e-06 -1.41858e-06 1.59346e-05
0.000633695 -1.76027e-05 -2.61798e-07
-1.76027e-05 3.49491e-05 5.07616e-08
-2.61798e-07 5.07616e-08 -2.02328e-05
0.00137966 3.01259e-05 -7.7544e-06
3.01259e-05 0.00046498 5.75045e-06
-7.7544e-06 5.75045e-06 0.00045082
0.000602698 -3.63404e-05 2.09928e-06
-3.63404e-05 2.39519e-05 -2.38943e-06
2.09928e-06 -2.38943e-06 -3.3441e-05
0.000947313 1.69587e-05 -3.84168e-06
1.69587e-05 0.000205605 7.15925e-07
-3.84168e-06 7.15925e-07 0.000190101
0.000772384 2.34936e-05 -2.0137e-07
2.34936e-05 0.000100277 2.20279e-06
-2.0137e-07 2.20279e-06 0.000105871
0.000530574 4.85879e-06 5.29906e-07
4.85879e-06 -4.41275e-05 -4.00943e-06
5.29906e-07 -4.00943e-06 -6.10148e-05
0.00157193 2.34015e-05 6.03405e-06
2.34015e-05 0.000580209 -1.50005e-06
6.03405e-06 -1.50005e-06 0.000590959
0.00238567 1.62672e-05 4.53782e-06
1.62672e-05 0.00106942 -5.18773e-06
4.53782e-06 -5.18773e-06 0.00108433
0.000679964 1.44222e-05 1.51371e-06
1.44222e-05 8.97968e-05 -1.22232e-06
1.51371e-06 -1.22232e-06 2.78807e-06
0.000635517 3.58515e-05 -7.15086e-07
3.58515e-05 4.18288e-05 -1.85738e-06
-7.15086e-07 -1.85738e-06 -3.05738e-06
0.000682963 -3.48814e-06 1.21823e-06
-3.48814e-06 9.90728e-05 3.70858e-07
1.21823e-06 3.70858e-07 1.62597e-05
0.000566695 -1.85128e-06 5.40105e-07
-1.85128e-06 -2.84546e-05 -3.48263e-06
5.40105e-07 -3.48263e-06 -3.64081e-05
0.000579194 2.85187e-05 8.74702e-08
2.85187e-05 8.93709e-06 -3.32585e-08
8.74702e-08 -3.32585e-08 -3.27121e-05
0.000644024 -9.44692e-05 -3.53534e-06
-9.44692e-05 7.67221e-05 1.35082e-06
-3.53534e-06 1.35082e-06 -3.16993e-06
0.00201852 2.46201e-06 -2.30375e-06
2.46201e-06 0.00084686 -4.73088e-06
-2.30375e-06 -4.73088e-06 0.00086599
0.000560938 2.92163e-06 -1.81381e-07
2.92163e-06 -3.2455e-05 -2.22118e-09
-1.81381e-07 -2.22118e-09 -3.94847e-05
0.000580585 -2.01101e-05 -1.63734e-06
-2.01101e-05 7.06864e-06 1.59225e-06
-1.63734e-06 1.59225e-06 -3.20857e-05
0.000543832 7.43255e-06 -6.76423e-07
7.43255e-06 -4.3098e-05 3.11535e-06
-6.76423e-07 3.11535e-06 -5.00291e-05
0.0020276 1.68315e-05 -4.06912e-06
1.68315e-05 0.000853911 -5.29531e-08
-4.06912e-06 -5.29531e-08 0.000872563
0.00200987 2.91531e-05 -9.08128e-06
2.91531e-05 0.000845482 4.32466e-06
-9.08128e-06 4.32466e-06 0.000863503
-0.00497268 -0.000539139 -6.35009e-05
-0.000539139 0.00208794 2.41521e-05
-6.35009e-05 2.41521e-05 -0.000519666
-0.000250532 0.000602136 -0.000106586
0.000602136 -0.000289268 2.49022e-05
-0.000106586 2.49022e-05 -0.00101132
0.00335301 -0.000484515 -0.00031633
-0.000484515 0.00116125 0.000184938
-0.00031633 0.000184938 -0.00190504
-0.00310251 6.88016e-05 0.000459912
6.88016e-05 0.00265849 -0.000190942
0.000459912 -0.000190942 0.000660928
0.000388719 0.000303031 -1.6476e-05
0.000303031 -0.0012872 1.16065e-06
-1.6476e-05 1.16065e-06 -0.0011536
0.00250652 -0.00019947 0.000101282
-0.00019947 5.78717e-05 -8.17667e-06
0.000101282 -8.17667e-06 5.99811e-05
0.00108639 -0.000393535 1.22775e-05
-0.000393535 -0.00244372 -7.40955e-05
1.22775e-05 -7.40955e-05 -0.004077
0.0118283 0.00134895 -0.000191872
0.00134895 0.00566277 -9.84084e-06
-0.000191872 -9.84084e-06 0.00473195
-0.00705562 0.00304331 -0.000806926
0.00304331 -0.0028326 0.000625878
-0.000806926 0.000625878 -0.00167236
0.0029583 -0.000168982 -1.2301e-06
-0.000168982 -0.000278335 -3.90506e-06
-1.2301e-06 -3.90506e-06 -0.000280583
0.00553595 -0.000654294 6.58156e-05
-0.000654294 -0.000314357 -6.42745e-05
6.58156e-05 -6.42745e-05 -0.00252909
0.0124995 0.00243178 -0.000112659
0.00243178 0.00374554 -9.10293e-05
-0.000112659 -9.10293e-05 0.00394102
0.00518375 0.00187843 -7.87137e-05
0.00187843 -0.000661345 0.000205969
-7.87137e-05 0.000205969 -0.000919161
0.00265478 -0.000802267 -7.71011e-05
-0.000802267 -0.00104285 2.10553e-05
-7.71011e-05 2.10553e-05 -0.000837257
0.00308029 -0.00123528 0.000219703
-0.00123528 -1.42635e-06 -0.000146647
0.000219703 -0.000146647 -0.00346127
-0.00337797 0.00148271 -7.55353e-05
0.00148271 -0.00356536 -0.000387224
-7.55353e-05 -0.000387224 -0.00414247
0.00478576 0.000972722 -0.000101252
0.000972722 -0.00297505 5.74152e-06
-0.000101252 5.74152e-06 -0.00170692
0.0011454 -4.26254e-05 8.75993e-07
-4.26254e-05 0.000429137 5.51867e-06
8.75993e-07 5.51867e-06 0.000267412
0.000655593 8.32423e-05 -1.72416e-06
8.32423e-05 0.000108186 -1.41362e-06
-1.72416e-06 -1.41362e-06 -1.56225e-05
0.000620435 7.10935e-05 1.95492e-07
7.10935e-05 6.41173e-05 -1.48799e-06
1.95492e-07 -1.48799e-06 -2.41437e-05
0.000658361 6.19172e-05 3.9684e-06
6.19172e-05 0.000121111 6.6146e-07
3.9684e-06 6.6146e-07 7.91577e-06
0.000627138 5.47972e-05 1.80906e-06
5.47972e-05 8.87411e-05 2.13093e-06
1.80906e-06 2.13093e-06 -6.38427e-05
0.000703356 5.95467e-05 -2.4156e-07
5.95467e-05 0.000144013 1.51871e-06
-2.4156e-07 1.51871e-06 1.49612e-05
0.000575846 3.32735e-05 7.34384e-07
3.32735e-05 5.45112e-05 -4.2821e-07
7.34384e-07 -4.2821e-07 -6.11813e-05
0.000877668 0.000134211 1.67094e-06
0.000134211 0.000242615 2.41759e-06
1.67094e-06 2.41759e-06 0.000100947
0.000842036 8.64556e-05 -1.14027e-07
8.64556e-05 0.000222674 3.45857e-07
-1.14027e-07 3.45857e-07 8.84268e-05
0.000495637 -1.23643e-05 -3.42503e-06
-1.23643e-05 9.08856e-06 -2.21338e-06
-3.42503e-06 -2.21338e-06 -0.000104571
0.000664874 -0.000235981 4.54821e-05
-0.000235981 -0.000723957 -1.76103e-05
4.54821e-05 -1.76103e-05 -0.00064026
0.000992505 -0.000491415 3.71158e-05
-0.000491415 -0.000403388 -4.69977e-06
3.71158e-05 -4.69977e-06 -0.000445229
0.00177011 -0.000671014 1.72897e-05
-0.000671014 0.000105733 5.22694e-06
1.72897e-05 5.22694e-06 -6.02586e-05
0.000205872 -0.000404151 1.03983e-05
-0.000404151 -0.000247376 -1.55547e-05
1.03983e-05 -1.55547e-05 -0.000523146
0.00212489 -0.000230454 -2.52515e-06
-0.000230454 0.00110477 1.59313e-05
-2.52515e-06 1.59313e-05 0.000786155
0.000593044 -0.000101205 -1.18436e-06
-0.000101205 0.000131584 1.25448e-06
-1.18436e-06 1.25448e-06 -4.88874e-05
0.000449739 8.01361e-05 -4.14002e-07
8.01361e-05 6.18628e-06 -4.46253e-06
-4.14002e-07 -4.46253e-06 -0.000150778
0.000649471 -6.6971e-05 -6.53205e-07
-6.6971e-05 0.0001368 3.77268e-06
-6.53205e-07 3.77268e-06 -4.10786e-05
0.00125229 -0.000383218 1.99895e-07
-0.000383218 -0.000110734 -1.69292e-06
1.99895e-07 -1.69292e-06 -0.000265626
0.00067737 -3.05414e-05 7.82776e-08
-3.05414e-05 0.000157231 1.75238e-06
7.82776e-08 1.75238e-06 -2.22064e-05
0.00153238 -0.00016314 -2.22683e-07
-0.00016314 0.000754197 -8.57827e-07
-2.22683e-07 -8.57827e-07 0.000481798
0.00167705 -0.000521608 1.4733e-06
-0.000521608 0.000189423 3.02012e-06
1.4733e-06 3.02012e-06 0.000114746
0.000868307 -0.000357241 -1.43819e-05
-0.000357241 0.00026034 4.74622e-06
-1.43819e-05 4.74622e-06 -2.29139e-05
0.00111857 -0.000658083 -3.95168e-06
-0.000658083 -0.000216375 -2.55825e-05
-3.95168e-06 -2.55825e-05 -0.000230532
0.00144045 -0.00030117 -1.699e-05
-0.00030117 0.000578561 1.38617e-05
-1.699e-05 1.38617e-05 0.000451905
-0.000618142 -5.11643e-05 7.40202e-07
-5.11643e-05 -0.000396201 1.78125e-05
7.40202e-07 1.78125e-05 -0.000716227
0.000715437 1.24697e-05 -7.93597e-07
1.24697e-05 0.000147504 -3.72853e-06
-7.93597e-07 -3.72853e-06 -1.20289e-05
0.000722234 4.05624e-05 3.35646e-06
4.05624e-05 0.000269194 1.29294e-06
3.35646e-06 1.29294e-06 3.45851e-05
0.00176772 -4.61723e-05 -2.1814e-05
-4.61723e-05 0.00136572 -8.47228e-06
-2.1814e-05 -8.47228e-06 -0.000709212
-0.00320583 0.000144421 -0.000153767
0.000144421 0.00351862 -5.98567e-06
-0.000153767 -5.98567e-06 0.000826437
-0.0104444 -0.000802279 -0.000340075
-0.000802279 -0.0054743 6.26408e-07
-0.000340075 6.26408e-07 -0.00523525
-0.000309421 0.000103376 6.25769e-06
0.000103376 -0.000391091 -1.64198e-06
6.25769e-06 -1.64198e-06 -0.000550564
-0.000575174 0.000201773 9.67375e-07
0.000201773 -0.000491788 5.57279e-06
9.67375e-07 5.57279e-06 -0.000752834
0.00151667 0.0004658 2.46991e-05
0.0004658 0.000201104 8.65458e-06
2.46991e-05 8.65458e-06 0.000174001
-0.00420676 0.000650876 -1.51574e-05
0.000650876 0.00209693 2.27959e-05
-1.51574e-05 2.27959e-05 -0.000738853
0.00156756 0.00106155 -0.000106451
0.00106155 -8.4058e-05 -0.000110762
-0.000106451 -0.000110762 -0.00362773
0.00286417 0.00123367 0.000201505
0.00123367 0.000554435 5.17072e-05
0.000201505 5.17072e-05 0.000179907
0.000117231 0.000384987 8.94661e-06
0.000384987 -0.000103911 -3.15911e-05
8.94661e-06 -3.15911e-05 -0.000178526
0.0140224 -0.00176263 -2.16127e-05
-0.00176263 0.00406646 -0.000144375
-2.16127e-05 -0.000144375 0.00346936
0.00421407 0.000498413 0.000182398
0.000498413 0.00208005 7.99514e-05
0.000182398 7.99514e-05 -0.00147949
0.0105132 -0.00123631 6.81081e-05
-0.00123631 0.00160155 2.0025e-05
6.81081e-05 2.0025e-05 0.0028871
0.000771796 0.000224044 2.16813e-06
0.000224044 0.000316505 -2.27034e-06
2.16813e-06 -2.27034e-06 0.000164984
0.00365648 0.000143061 1.08483e-05
0.000143061 0.00176545 3.50466e-06
1.08483e-05 3.50466e-06 6.67736e-05
0.000675759 0.000165679 2.11512e-05
0.000165679 7.03121e-05 1.03008e-05
2.11512e-05 1.03008e-05 -0.00151693
-0.00038131 0.000236735 -5.64972e-06
0.000236735 -0.000201558 -1.77059e-06
-5.64972e-06 -1.77059e-06 -0.000417935
0.00194037 0.000669628 -8.33672e-05
0.000669628 0.00108552 -4.02998e-05
-8.33672e-05 -4.02998e-05 0.000160638
0.00277972 0.00197982 9.46657e-05
0.00197982 0.00102533 6.37819e-05
9.46657e-05 6.37819e-05 -0.0023749
0.00643571 0.000186264 -1.17338e-05
0.000186264 -0.00271003 -0.000132377
-1.17338e-05 -0.000132377 -0.000209022
0.00253935 -0.00145719 -4.11097e-05
-0.00145719 0.000841743 -5.85952e-05
-4.11097e-05 -5.85952e-05 -0.00126552
0.000965416 0.000182895 -5.17754e-06
0.000182895 0.000629168 -1.28728e-05
-5.17754e-06 -1.28728e-05 0.000451651
-3.37888e-05 -4.22603e-05 -2.03811e-06
-4.22603e-05 -3.44769e-05 -5.41097e-06
-2.03811e-06 -5.41097e-06 2.40271e-05
0.00291374 2.60561e-05 3.78826e-05
2.60561e-05 0.000163006 -9.86546e-05
3.78826e-05 -9.86546e-05 -0.000934728
0.004883 0.00101222 0.000109677
0.00101222 -0.00282674 -1.2843e-05
0.000109677 -1.2843e-05 -0.00169808
-0.000848317 0.000121648 7.48914e-07
0.000121648 3.01568e-06 -1.97571e-05
7.48914e-07 -1.97571e-05 -0.000563955
0.0107697 0.00152818 0.000145656
0.00152818 0.00519388 5.10131e-05
0.000145656 5.10131e-05 0.00130299
-0.00828455 -0.000427771 7.6171e-05
-0.000427771 -0.000224391 0.000231386
7.6171e-05 0.000231386 -0.0024271
0.00238627 0.000265632 1.92494e-05
0.000265632 0.00121683 1.41505e-05
1.92494e-05 1.41505e-05 0.00106748
0.000752868 0.000147729 -5.06755e-06
0.000147729 0.000389649 -2.26605e-06
-5.06755e-06 -2.26605e-06 0.000170423
-0.000107321 7.00914e-05 -2.36374e-06
7.00914e-05 0.000108034 -9.37971e-07
-2.36374e-06 -9.37971e-07 -0.000137332
0.000720113 0.000139866 3.27793e-07
0.000139866 0.000134567 1.43458e-08
3.27793e-07 1.43458e-08 -1.17214e-05
0.000562487 6.52737e-05 1.04898e-06
6.52737e-05 3.61988e-05 2.17748e-06
1.04898e-06 2.17748e-06 -8.30679e-05
0.000528237 3.98421e-06 7.03451e-06
3.98421e-06 0.000280909 6.26652e-06
7.03451e-06 6.26652e-06 6.27049e-05
0.00064617 4.58409e-05 -2.68181e-07
4.58409e-05 8.31481e-05 -3.95704e-07
-2.68181e-07 -3.95704e-07 -4.82095e-05
0.00079974 -1.59348e-05 -1.91146e-06
-1.59348e-05 0.000355318 -2.23522e-06
-1.91146e-06 -2.23522e-06 0.000182998
-0.000411084 3.47087e-05 3.85599e-06
3.47087e-05 -6.9937e-05 5.8386e-06
3.85599e-06 5.8386e-06 -0.000367642
0.000637601 -3.32192e-07 -5.86373e-06
-3.32192e-07 0.000410921 -5.52135e-06
-5.86373e-06 -5.52135e-06 0.000259605
0.000244987 -4.10313e-05 -2.99533e-06
-4.10313e-05 9.44436e-06 -7.3723e-06
-2.99533e-06 -7.3723e-06 -0.000137109
0.000597253 -5.5286e-05 3.19811e-06
-5.5286e-05 4.93538e-05 4.39553e-06
3.19811e-06 4.39553e-06 -5.6163e-05
0.000808104 -3.88937e-06 -1.0061e-06
-3.88937e-06 0.000173599 -2.12748e-07
-1.0061e-06 -2.12748e-07 6.42249e-05
0.00103123 -3.34853e-05 -8.01836e-06
-3.34853e-05 0.000308947 5.7615e-06
-8.01836e-06 5.7615e-06 0.000218062
0.00068229 -5.16085e-05 4.24393e-06
-5.16085e-05 0.000166068 -5.2599e-07
4.24393e-06 -5.2599e-07 7.94753e-05
0.000563642 -2.44609e-05 -1.17153e-06
-2.44609e-05 1.55651e-05 7.69499e-08
-1.17153e-06 7.69499e-08 -8.28024e-05
0.000817048 -0.000100067 2.48691e-06
-0.000100067 0.000196067 -2.73532e-07
2.48691e-06 -2.73532e-07 9.45143e-05
0.000393125 -9.59089e-05 -2.65579e-06
-9.59089e-05 -0.000137774 -9.69737e-07
-2.65579e-06 -9.69737e-07 -0.000219037
-0.000361045 -0.000161288 7.46081e-06
-0.000161288 -0.000551364 2.42542e-06
7.46081e-06 2.42542e-06 -0.000736803
0.000809516 -0.000103744 2.18085e-07
-0.000103744 0.00014399 8.29493e-07
2.18085e-07 8.29493e-07 3.56951e-05
0.00119872 -0.000184625 -7.70498e-07
-0.000184625 0.000357353 3.12568e-06
-7.70498e-07 3.12568e-06 0.000197112
0.000971671 -0.000271969 -4.8178e-06
-0.000271969 0.00014649 5.10983e-06
-4.8178e-06 5.10983e-06 -8.99918e-05
0.000969026 -0.000248332 -5.0385e-06
-0.000248332 0.0001393 5.19327e-07
-5.0385e-06 5.19327e-07 -9.25768e-05
0.00104206 -0.000199567 -2.72382e-06
-0.000199567 0.000335937 5.53466e-06
-2.72382e-06 5.53466e-06 0.000147067
0.000336626 -0.000167666 2.45813e-06
-0.000167666 -0.000183808 -4.1503e-08
2.45813e-06 -4.1503e-08 -0.000395799
0.000898406 -8.39667e-05 1.06962e-06
-8.39667e-05 0.000234757 -6.9141e-07
1.06962e-06 -6.9141e-07 0.000103308
0.00105006 -0.000124765 -1.63578e-06
-0.000124765 0.000337761 -4.02348e-07
-1.63578e-06 -4.02348e-07 0.000190253
0.000428875 -0.000106942 4.94791e-06
-0.000106942 -4.31608e-05 -1.17514e-05
4.94791e-06 -1.17514e-05 -0.000195684
0.00097136 -3.75643e-05 8.27915e-08
-3.75643e-05 0.000250266 -1.15168e-07
8.27915e-08 -1.15168e-07 0.000139017
0.000452527 -1.66984e-05 4.17823e-07
-1.66984e-05 -2.90702e-05 -1.61583e-07
4.17823e-07 -1.61583e-07 -0.000140911
0.000612621 -1.50363e-05 -3.32023e-07
-1.50363e-05 4.31351e-05 9.32064e-07
-3.32023e-07 9.32064e-07 -4.7677e-05
0.000796944 -6.38104e-05 -3.22344e-07
-6.38104e-05 0.000183328 -1.13786e-07
-3.22344e-07 -1.13786e-07 6.21888e-05
0.000668872 -4.01835e-05 -7.74822e-08
-4.01835e-05 8.61504e-05 4.53583e-08
-7.74822e-08 4.53583e-08 -6.24698e-06
0.000576725 2.77987e-05 -2.15607e-07
2.77987e-05 8.86885e-06 2.19867e-06
-2.15607e-07 2.19867e-06 -5.35111e-05
0.000734111 -7.32382e-05 4.86301e-07
-7.32382e-05 0.00013095 -1.53898e-06
4.86301e-07 -1.53898e-06 3.59912e-05
0.000599522 1.94719e-05 -1.09037e-06
1.94719e-05 1.81861e-05 -7.89144e-08
-1.09037e-06 -7.89144e-08 -4.04207e-05
0.00134039 4.3958e-05 -8.73589e-06
4.3958e-05 0.000444434 3.84562e-06
-8.73589e-06 3.84562e-06 0.000429151
0.000636842 -2.9111e-05 2.34626e-06
-2.9111e-05 3.8343e-05 -2.43368e-06
2.34626e-06 -2.43368e-06 -1.79496e-05
0.000931133 2.6971e-05 -4.82685e-06
2.6971e-05 0.000195556 6.24834e-07
-4.82685e-06 6.24834e-07 0.00017947
0.00079993 3.25366e-05 -8.42855e-07
3.25366e-05 0.00011965 2.28999e-06
-8.42855e-07 2.28999e-06 0.000123987
0.000517051 1.27323e-05 8.23589e-07
1.27323e-05 -5.44903e-05 -4.2801e-06
8.23589e-07 -4.2801e-06 -7.17047e-05
0.00158606 3.52715e-05 8.24665e-06
3.52715e-05 0.000590738 -1.34916e-06
8.24665e-06 -1.34916e-06 0.000600287
0.00237864 3.14407e-05 8.02904e-06
3.14407e-05 0.00106642 -5.15134e-06
8.02904e-06 -5.15134e-06 0.00108073
0.000424574 7.40278e-06 1.01689e-06
7.40278e-06 -5.18788e-05 -3.34852e-07
1.01689e-06 -3.34852e-07 -0.000158781
0.000298181 6.23672e-06 1.9564e-08
6.23672e-06 -0.000160218 -3.20977e-06
1.9564e-08 -3.20977e-06 -0.00021338
0.000721921 2.41807e-05 7.77587e-09
2.41807e-05 0.000121078 1.23644e-07
7.77587e-09 1.23644e-07 2.92029e-05
0.000561996 -6.19084e-06 4.41014e-07
-6.19084e-06 -3.1154e-05 -3.62261e-06
4.41014e-07 -3.62261e-06 -4.08251e-05
0.000429507 1.74941e-06 1.21559e-06
1.74941e-06 -8.30557e-05 -6.20362e-08
1.21559e-06 -6.20362e-08 -0.000128222
0.000421304 -8.44155e-05 -1.529e-06
-8.44155e-05 -5.66213e-05 6.78136e-07
-1.529e-06 6.78136e-07 -0.000142143
0.00208804 -1.08786e-05 -6.74709e-06
-1.08786e-05 0.00088869 -4.77796e-06
-6.74709e-06 -4.77796e-06 0.000907248
0.000561079 -1.99977e-06 -1.02615e-07
-1.99977e-06 -3.20614e-05 -4.69058e-08
-1.02615e-07 -4.69058e-08 -3.99002e-05
0.000555832 -1.71803e-05 -1.79207e-06
-1.71803e-05 -6.91087e-06 1.8745e-06
-1.79207e-06 1.8745e-06 -4.72842e-05
0.00203334 3.86491e-06 -3.99773e-06
3.86491e-06 0.000855953 1.45246e-08
-3.99773e-06 1.45246e-08 0.000874996
0.000543807 2.60069e-06 -5.70913e-07
2.60069e-06 -4.22209e-05 3.24389e-06
-5.70913e-07 3.24389e-06 -4.92588e-05
0.00201974 1.8222e-05 -2.07019e-06
1.8222e-05 0.000849293 4.52154e-06
-2.07019e-06 4.52154e-06 0.000867911
0.000303266 -0.000231532 -0.000115779
-0.000231532 -0.000229574 3.22097e-05
-0.000115779 3.22097e-05 -0.00193932
0.00134864 0.000196757 -3.65536e-05
0.000196757 0.00399958 -5.58289e-06
-3.65536e-05 -5.58289e-06 0.00225453
0.00106104 -0.000341897 -0.000334059
-0.000341897 0.00224939 2.07922e-05
-0.000334059 2.07922e-05 0.00117034
0.000753888 8.7605e-05 2.27502e-06
8.7605e-05 0.000146316 9.03557e-07
2.27502e-06 9.03557e-07 1.02657e-05
0.00347999 -0.000310256 -2.22849e-05
-0.000310256 0.00239319 0.000110085
-2.22849e-05 0.000110085 0.00092547
0.00367418 -0.000554395 -0.000128554
-0.000554395 0.00134292 8.70743e-06
-0.000128554 8.70743e-06 -0.00185592
0.0031126 0.000882016 0.000224806
0.000882016 0.00392661 -0.000182594
0.000224806 -0.000182594 0.00240304
0.00441001 -0.000304662 3.82497e-05
-0.000304662 0.000366063 -3.74114e-05
3.82497e-05 -3.74114e-05 0.000106379
0.0119378 -0.000649056 0.000138096
-0.000649056 0.00278706 -6.98656e-05
0.000138096 -6.98656e-05 0.00118153
-0.000888765 0.0020374 -0.000184532
0.0020374 -0.00332873 0.000186952
-0.000184532 0.000186952 -0.00293016
0.00630647 0.00199966 3.62351e-05
0.00199966 0.00059728 6.11528e-05
3.62351e-05 6.11528e-05 -1.99721e-05
0.00510125 -0.000948082 -9.5934e-05
-0.000948082 0.000196012 -1.99144e-06
-9.5934e-05 -1.99144e-06 -7.03898e-05
0.0117666 -0.00114956 5.63622e-05
-0.00114956 0.00401506 -1.60729e-05
5.63622e-05 -1.60729e-05 0.00184775
0.00738744 0.00131605 8.46235e-05
0.00131605 0.000853597 -0.000149419
8.46235e-05 -0.000149419 7.66006e-05
0.00650024 0.000902369 2.2623e-06
0.000902369 -0.00152719 1.33731e-05
2.2623e-06 1.33731e-05 -0.000616097
0.00300959 -0.00135866 1.3514e-05
-0.00135866 -6.78659e-06 7.18689e-06
1.3514e-05 7.18689e-06 -0.000695153
0.0116798 -0.00176305 0.000104933
-0.00176305 0.00536457 -5.69777e-05
0.000104933 -5.69777e-05 0.00159093
0.00414693 -9.2875e-05 8.35807e-05
-9.2875e-05 0.000854716 -0.000225173
8.35807e-05 -0.000225173 4.44234e-05
0.00809981 0.000473315 -5.62732e-05
0.000473315 -0.00102017 0.000126648
-5.62732e-05 0.000126648 0.00098512
0.00075541 -2.22346e-05 1.99085e-06
-2.22346e-05 0.000182997 2.84746e-06
1.99085e-06 2.84746e-06 1.91112e-05
0.000854642 -7.16984e-05 -3.54665e-07
-7.16984e-05 0.000258526 -3.92867e-08
-3.54665e-07 -3.92867e-08 9.29148e-05
0.000787206 0.000106026 -2.1201e-07
0.000106026 0.000191681 -2.82591e-06
-2.1201e-07 -2.82591e-06 6.50973e-05
0.000720443 5.66737e-05 1.10295e-06
5.66737e-05 0.000115657 3.49508e-06
1.10295e-06 3.49508e-06 -1.74886e-05
0.000774399 0.000103094 -4.05342e-07
0.000103094 0.000185895 7.21715e-07
-4.05342e-07 7.21715e-07 3.25643e-05
0.000890055 6.29975e-05 -2.38619e-06
6.29975e-05 0.000254345 -8.37813e-07
-2.38619e-06 -8.37813e-07 0.000127111
0.000999328 0.000127725 -1.00819e-06
0.000127725 0.000313694 -7.28117e-08
-1.00819e-06 -7.28117e-08 0.000172071
0.000988163 0.000135985 7.25877e-07
0.000135985 0.000321858 2.17323e-06
7.25877e-07 2.17323e-06 0.000180955
0.000470865 -0.000282331 5.86562e-05
-0.000282331 -0.000589807 -2.29924e-05
5.86562e-05 -2.29924e-05 -0.000590546
0.00192898 -0.00054754 1.27362e-05
-0.00054754 0.000283856 -9.70241e-06
1.27362e-05 -9.70241e-06 0.000227564
0.000950601 -0.000188961 -8.00849e-07
-0.000188961 0.000324509 -5.13854e-06
-8.00849e-07 -5.13854e-06 0.000135322
0.00136684 -0.000429667 1.85511e-05
-0.000429667 0.000514829 -2.14235e-05
1.85511e-05 -2.14235e-05 0.000228611
0.00228258 -0.000235674 -5.91853e-06
-0.000235674 0.00118075 2.88309e-06
-5.91853e-06 2.88309e-06 0.000904471
0.001068 -8.58993e-05 -1.7844e-06
-8.58993e-05 0.000377094 -8.01035e-06
-1.7844e-06 -8.01035e-06 0.000197116
0.000475284 -1.51868e-05 9.52216e-07
-1.51868e-05 1.28035e-05 3.11049e-06
9.52216e-07 3.11049e-06 -0.000149148
0.000263612 -0.000595628 -4.49194e-06
-0.000595628 -0.000694939 -9.44094e-07
-4.49194e-06 -9.44094e-07 -0.000664894
0.00128272 4.55498e-05 3.22719e-07
4.55498e-05 0.000598002 4.33145e-07
3.22719e-07 4.33145e-07 0.000353774
0.000886871 -0.000184096 -1.10731e-05
-0.000184096 0.000404186 3.03913e-06
-1.10731e-05 3.03913e-06 0.000111429
0.000539486 -0.00022019 1.4465e-05
-0.00022019 5.17969e-05 2.79247e-06
1.4465e-05 2.79247e-06 -2.7177e-05
0.00109596 7.88187e-05 1.82549e-06
7.88187e-05 0.000347627 -2.06848e-06
1.82549e-06 -2.06848e-06 0.000208766
0.00108989 -0.000520781 1.70268e-05
-0.000520781 -5.98489e-05 -3.92225e-05
1.70268e-05 -3.92225e-05 6.88716e-05
7.51306e-05 -0.000127684 1.0454e-05
-0.000127684 7.08209e-05 1.92376e-05
1.0454e-05 1.92376e-05 -6.38032e-05
-0.000376226 5.03375e-05 5.55281e-06
5.03375e-05 -9.41431e-05 7.58375e-06
5.55281e-06 7.58375e-06 -0.000513854
0.00135404 0.000204318 2.55304e-06
0.000204318 0.000581053 -3.60321e-06
2.55304e-06 -3.60321e-06 0.000398149
0.000174644 3.06638e-07 1.80723e-06
3.06638e-07 0.000755105 -8.61973e-06
1.80723e-06 -8.61973e-06 0.000115133
0.00119872 -4.3921e-05 9.01153e-05
-4.3921e-05 0.00107582 -1.35475e-05
9.01153e-05 -1.35475e-05 -0.00101797
-0.00629346 -7.63326e-05 -0.000162002
-7.63326e-05 0.00272053 8.11677e-06
-0.000162002 8.11677e-06 -0.000513443
0.00111481 0.00023917 1.45968e-05
0.00023917 0.000582227 4.68197e-06
1.45968e-05 4.68197e-06 0.000421213
-0.0014332 0.000293947 4.41613e-06
0.000293947 -0.000795531 9.87995e-06
4.41613e-06 9.87995e-06 -0.00108431
0.00429947 0.000136504 0.000109881
0.000136504 0.00224955 8.24047e-06
0.000109881 8.24047e-06 0.000970539
0.00758096 0.00112105 0.000168755
0.00112105 0.00341074 8.97773e-05
0.000168755 8.97773e-05 -0.000267089
0.00338553 0.00101193 -0.000109775
0.00101193 0.00168667 -8.77778e-05
-0.000109775 -8.77778e-05 0.000583313
0.00483666 -0.000984626 -3.51892e-05
-0.000984626 0.00178065 -0.00024858
-3.51892e-05 -0.00024858 -1.43079e-05
0.00114831 0.00018672 6.0326e-05
0.00018672 0.000153826 0.00013205
6.0326e-05 0.00013205 -0.00141351
0.00464552 -6.49955e-05 -2.03468e-05
-6.49955e-05 -0.00440244 -0.000136284
-2.03468e-05 -0.000136284 -0.00147189
0.000712872 0.000203305 2.22037e-08
0.000203305 0.000485905 -2.5216e-06
2.22037e-08 -2.5216e-06 0.000288934
-4.74906e-05 -4.47659e-05 7.38218e-07
-4.47659e-05 -3.17588e-05 -8.38247e-07
7.38218e-07 -8.38247e-07 -2.32495e-06
0.00295877 5.62928e-05 4.46653e-05
5.62928e-05 0.00030041 1.8722e-05
4.46653e-05 1.8722e-05 -0.000360842
-0.00100299 0.00018444 -8.90136e-06
0.00018444 -0.000348776 -5.90374e-06
-8.90136e-06 -5.90374e-06 -0.000809018
0.00658787 0.000994171 -1.34302e-06
0.000994171 -0.00150388 -1.28443e-05
-1.34302e-06 -1.28443e-05 -0.000655187
0.00479831 0.00108958 0.00013098
0.00108958 0.00316716 6.82037e-05
0.00013098 6.82037e-05 -0.000950636
0.00378427 0.000486327 -8.54326e-05
0.000486327 0.00253186 6.55922e-06
-8.54326e-05 6.55922e-06 0.000967262
0.000280084 0.000212875 -1.32388e-05
0.000212875 0.000267867 -1.65213e-05
-1.32388e-05 -1.65213e-05 -1.62358e-05
0.00160391 7.97009e-05 1.16822e-05
7.97009e-05 -0.000281735 -1.61518e-05
1.16822e-05 -1.61518e-05 -3.94502e-05
0.00347669 -0.000258476 2.76684e-05
-0.000258476 0.00236405 -0.000113783
2.76684e-05 -0.000113783 0.000935202
0.00849117 0.00200392 0.000225292
0.00200392 0.00133205 -0.000148531
0.000225292 -0.000148531 0.00121372
0.00649032 -0.000143321 -9.57127e-05
-0.000143321 0.00167539 0.000223783
-9.57127e-05 0.000223783 0.00100626
0.000994228 0.000181913 2.09904e-06
0.000181913 0.000264641 -7.55141e-05
2.09904e-06 -7.55141e-05 8.62454e-05
-0.000516923 0.0011519 0.0001349
0.0011519 0.00289682 3.05872e-05
0.0001349 3.05872e-05 -0.00325149
0.00124357 0.000219713 3.80785e-06
0.000219713 0.000628871 1.86156e-05
3.80785e-06 1.86156e-05 0.00041048
0.000169892 0.000107217 2.50696e-06
0.000107217 0.000257853 1.16679e-06
2.50696e-06 1.16679e-06 9.09457e-06
0.000940678 -3.58606e-06 -8.26091e-06
-3.58606e-06 0.000740477 -1.01268e-05
-8.26091e-06 -1.01268e-05 0.000577946
0.000326295 -2.66301e-05 1.2574e-06
-2.66301e-05 -0.000119861 3.44527e-06
1.2574e-06 3.44527e-06 -0.000237391
0.000692998 -1.51877e-05 1.91275e-06
-1.51877e-05 0.000293492 4.92038e-06
1.91275e-06 4.92038e-06 0.000121604
0.000606248 -1.22297e-05 2.87223e-06
-1.22297e-05 0.000476832 -4.85368e-06
2.87223e-06 -4.85368e-06 0.000195294
0.000491785 -5.72159e-05 4.22862e-07
-5.72159e-05 0.00012361 -7.31436e-08
4.22862e-07 -7.31436e-08 -1.59154e-06
5.87378e-05 -1.53088e-05 5.9076e-07
-1.53088e-05 7.52065e-05 1.9664e-06
5.9076e-07 1.9664e-06 -8.2793e-05
0.00138043 -0.000233108 7.75127e-06
-0.000233108 0.000761761 -1.07572e-05
7.75127e-06 -1.07572e-05 0.000564163
0.00126598 -7.07646e-05 -1.63576e-06
-7.07646e-05 0.000495148 3.97641e-06
-1.63576e-06 3.97641e-06 0.000408189
-4.28971e-05 -7.9058e-06 -7.80553e-07
-7.9058e-06 -0.000331753 1.63349e-06
-7.80553e-07 1.63349e-06 -0.000429789
0.00146067 -0.000164186 1.71923e-06
-0.000164186 0.00056167 1.98709e-06
1.71923e-06 1.98709e-06 0.000447004
-0.000952929 -0.000117804 5.54807e-06
-0.000117804 -0.000730411 1.71797e-06
5.54807e-06 1.71797e-06 -0.000958452
0.000337734 -7.5608e-05 -4.2634e-06
-7.5608e-05 -0.000133175 5.45217e-07
-4.2634e-06 5.45217e-07 -0.000198615
-8.21426e-06 -0.000172517 2.94121e-06
-0.000172517 -0.000354406 -1.06222e-06
2.94121e-06 -1.06222e-06 -0.000525559
0.00113108 -0.000319002 9.78219e-06
-0.000319002 0.000209777 -4.27573e-06
9.78219e-06 -4.27573e-06 -6.68709e-05
0.00132445 -0.000354819 -4.15514e-06
-0.000354819 0.000209436 3.11098e-06
-4.15514e-06 3.11098e-06 -6.94158e-05
0.00190736 -0.000260354 -1.65865e-06
-0.000260354 0.000764319 2.00911e-07
-1.65865e-06 2.00911e-07 0.000587426
0.00101772 -0.000277001 -6.65073e-08
-0.000277001 0.000146456 3.5997e-07
-6.65073e-08 3.5997e-07 -0.000101137
0.00242011 -0.000400492 2.82247e-06
-0.000400492 0.000959762 -1.22633e-06
2.82247e-06 -1.22633e-06 0.000713353
0.000203712 -0.000141077 -2.02792e-06
-0.000141077 -0.000219571 2.92873e-06
-2.02792e-06 2.92873e-06 -0.000423972
0.00100561 -0.000247391 -4.14219e-07
-0.000247391 0.000168317 -3.56572e-07
-4.14219e-07 -3.56572e-07 -6.00987e-05
0.000517543 -7.53927e-05 5.33847e-08
-7.53927e-05 2.09618e-05 -1.56922e-06
5.33847e-08 -1.56922e-06 -0.000134155
0.00106404 -0.000214096 -4.21158e-06
-0.000214096 0.000352442 2.48152e-06
-4.21158e-06 2.48152e-06 0.000158731
-0.000522093 -7.76596e-05 -2.18992e-06
-7.76596e-05 -0.000685662 -4.35982e-06
-2.18992e-06 -4.35982e-06 -0.000880125
0.000495225 1.59177e-06 8.63429e-07
1.59177e-06 -1.93203e-05 1.28573e-06
8.63429e-07 1.28573e-06 -0.000125023
0.000666483 -6.68147e-05 5.20859e-07
-6.68147e-05 0.000107072 3.92504e-08
5.20859e-07 3.92504e-08 -2.52056e-05
0.000746245 -0.000116673 4.4686e-06
-0.000116673 0.000168666 -2.78402e-06
4.4686e-06 -2.78402e-06 1.58208e-05
0.000610661 -2.809e-05 2.8339e-07
-2.809e-05 6.61774e-05 -4.14955e-07
2.8339e-07 -4.14955e-07 -4.82064e-05
0.000685287 -2.70381e-05 -6.30895e-07
-2.70381e-05 9.67933e-05 -8.89363e-08
-6.30895e-07 -8.89363e-08 -2.55226e-06
0.000559651 3.18585e-05 -1.51389e-07
3.18585e-05 -3.76454e-07 2.82488e-06
-1.51389e-07 2.82488e-06 -6.79012e-05
0.000767031 -5.30999e-05 4.00142e-07
-5.30999e-05 0.00015234 -1.01503e-06
4.00142e-07 -1.01503e-06 5.31465e-05
0.000600535 2.45214e-05 -9.72766e-07
2.45214e-05 2.14959e-05 -1.76524e-07
-9.72766e-07 -1.76524e-07 -4.03675e-05
0.000533695 4.07399e-05 -9.6624e-07
4.07399e-05 -3.49687e-05 4.44758e-06
-9.6624e-07 4.44758e-06 -5.66675e-05
0.0006707 -2.07476e-05 2.16251e-06
-2.07476e-05 5.62769e-05 -2.28462e-06
2.16251e-06 -2.28462e-06 -8.71798e-08
0.000542351 3.07444e-05 1.75322e-07
3.07444e-05 -3.66782e-05 -3.12507e-09
1.75322e-07 -3.12507e-09 -5.57844e-05
0.0022998 7.79953e-05 -3.83702e-06
7.79953e-05 0.00102959 1.9923e-06
-3.83702e-06 1.9923e-06 0.00103867
0.00051864 2.22884e-05 9.41063e-07
2.22884e-05 -5.30433e-05 -4.39841e-06
9.41063e-07 -4.39841e-06 -7.11416e-05
0.00159276 4.70899e-05 9.77831e-06
4.70899e-05 0.000598249 -1.14682e-06
9.77831e-06 -1.14682e-06 0.000606329
0.00239082 4.61342e-05 1.29311e-05
4.61342e-05 0.00107625 -4.98395e-06
1.29311e-05 -4.98395e-06 0.00108939
0.000369101 6.41286e-06 8.43313e-07
6.41286e-06 -9.97422e-05 -1.67175e-06
8.43313e-07 -1.67175e-06 -0.000201755
0.000318997 2.21329e-06 3.573e-07
2.21329e-06 -0.000150212 -2.78346e-06
3.573e-07 -2.78346e-06 -0.000210774
0.000553471 1.79462e-05 -4.49591e-07
1.79462e-05 2.41287e-05 -1.12154e-06
-4.49591e-07 -1.12154e-06 -7.96453e-05
0.000566225 -1.1652e-05 7.0038e-07
-1.1652e-05 -2.74775e-05 -3.89398e-06
7.0038e-07 -3.89398e-06 -3.98715e-05
0.00028378 5.10003e-06 -4.80331e-07
5.10003e-06 -0.000169355 -1.30926e-06
-4.80331e-07 -1.30926e-06 -0.000223537
0.000723044 3.37398e-05 -3.13467e-07
3.37398e-05 0.000130912 1.48252e-06
-3.13467e-07 1.48252e-06 3.33237e-05
0.00213522 -2.40631e-05 -1.16222e-05
-2.40631e-05 0.000917623 -4.70976e-06
-1.16222e-05 -4.70976e-06 0.00093532
0.000556953 -6.78047e-06 -2.55327e-07
-6.78047e-06 -3.42986e-05 -5.06487e-08
-2.55327e-07 -5.06487e-08 -4.37912e-05
0.000247982 5.06246e-06 7.24674e-07
5.06246e-06 -0.000189897 1.75155e-06
7.24674e-07 1.75155e-06 -0.000237798
0.00206152 -9.359e-06 -3.70216e-06
-9.359e-06 0.000872497 4.42086e-08
-3.70216e-06 4.42086e-08 0.000891318
0.000551667 -2.13287e-06 -5.53887e-07
-2.13287e-06 -3.78712e-05 3.43082e-06
-5.53887e-07 3.43082e-06 -4.55555e-05
0.00205305 5.33345e-06 2.58178e-06
5.33345e-06 0.000868006 4.66383e-06
2.58178e-06 4.66383e-06 0.000886886
0.000682331 -5.08117e-06 2.10225e-05
-5.08117e-06 0.000544042 6.61806e-06
2.10225e-05 6.61806e-06 0.000458038
0.000628207 -0.000160178 -4.2673e-06
-0.000160178 9.73767e-05 -1.34867e-05
-4.2673e-06 -1.34867e-05 -0.00176847
0.00136768 0.000101899 2.98321e-05
0.000101899 0.00398619 -2.78105e-05
2.98321e-05 -2.78105e-05 0.00243693
0.000739672 9.4455e-05 -1.25728e-07
9.4455e-05 0.000130486 3.66201e-07
-1.25728e-07 3.66201e-07 2.89686e-06
0.000538031 6.64224e-05 2.00567e-06
6.64224e-05 -5.36395e-06 -2.89394e-07
2.00567e-06 -2.89394e-07 -0.000124937
0.000966073 0.000135236 3.18636e-06
0.000135236 0.000265835 3.00844e-06
3.18636e-06 3.00844e-06 0.000128804
0.00297141 -5.65362e-05 1.3288e-06
-5.65362e-05 1.0867e-05 0.000176554
1.3288e-06 0.000176554 -0.000862985
0.00351696 -0.000279174 1.9101e-05
-0.000279174 0.00239567 -5.59114e-06
1.9101e-05 -5.59114e-06 0.00113652
0.00413164 -0.000623057 6.84454e-05
-0.000623057 0.00164115 -0.000133921
6.84454e-05 -0.000133921 -0.00174856
0.00633028 -0.00116284 -8.82519e-05
-0.00116284 0.000782144 -5.11814e-06
-8.82519e-05 -5.11814e-06 0.000565016
0.00214973 -0.00112685 -0.000149102
-0.00112685 -0.000245858 8.92336e-05
-0.000149102 8.92336e-05 -0.00291958
0.0129775 0.00186233 0.000116984
0.00186233 0.00463002 5.17285e-05
0.000116984 5.17285e-05 0.00356371
0.00336759 0.000259222 9.54139e-05
0.000259222 -0.00316567 -0.000113771
9.54139e-05 -0.000113771 -0.00254613
0.00536305 -0.00159086 -2.07228e-05
-0.00159086 0.00113916 5.95667e-06
-2.07228e-05 5.95667e-06 0.000592447
0.00655087 -0.00146956 -3.59296e-05
-0.00146956 0.00298795 2.32282e-05
-3.59296e-05 2.32282e-05 -0.000561663
-0.00318794 0.00148762 -4.15652e-05
0.00148762 0.000442397 -0.000153321
-4.15652e-05 -0.000153321 -0.00189218
0.00632844 0.000147164 -2.12438e-05
0.000147164 -0.002747 6.3531e-05
-2.12438e-05 6.3531e-05 -0.00023277
0.00128037 -0.000895972 -4.38209e-05
-0.000895972 0.000125442 -1.30939e-05
-4.38209e-05 -1.30939e-05 -0.000363
0.0114759 -0.00169381 -9.03307e-05
-0.00169381 0.00508979 6.98363e-05
-9.03307e-05 6.98363e-05 0.00114495
-0.0084452 -0.000109924 3.76245e-05
-0.000109924 1.7478e-06 -0.000218853
3.76245e-05 -0.000218853 -0.00249835
0.00510281 -0.00102649 4.91281e-05
-0.00102649 -0.00195533 -7.09809e-06
4.91281e-05 -7.09809e-06 -0.000892603
0.000635796 6.29175e-05 1.57834e-06
6.29175e-05 7.29184e-05 9.04407e-06
1.57834e-06 9.04407e-06 -6.87078e-05
0.000703018 -6.93299e-06 1.28352e-06
-6.93299e-06 0.000149925 -1.04953e-06
1.28352e-06 -1.04953e-06 -1.85966e-05
0.000848167 -9.0977e-05 3.78041e-07
-9.0977e-05 0.000241642 -3.38485e-06
3.78041e-07 -3.38485e-06 7.58651e-05
0.000716871 7.53274e-05 -9.61318e-07
7.53274e-05 0.000113716 -3.90704e-07
-9.61318e-07 -3.90704e-07 -2.2541e-05
0.000772305 0.000118074 5.81419e-07
0.000118074 0.000187813 -1.39323e-06
5.81419e-07 -1.39323e-06 4.0529e-05
0.00109517 0.000139671 -2.52099e-06
0.000139671 0.000374847 -1.34476e-06
-2.52099e-06 -1.34476e-06 0.000230438
-0.000257612 -0.000558512 1.99223e-05
-0.000558512 -0.000989111 1.0317e-05
1.99223e-05 1.0317e-05 -0.000980774
-0.00123081 -0.00014331 1.61393e-05
-0.00014331 -0.000951069 -1.43485e-05
1.61393e-05 -1.43485e-05 -0.000982994
0.000377387 3.63536e-05 -2.20468e-06
3.63536e-05 -4.02095e-05 -3.33348e-06
-2.20468e-06 -3.33348e-06 -0.000208766
0.00166273 -0.000295761 4.0269e-05
-0.000295761 0.000794244 -2.961e-05
4.0269e-05 -2.961e-05 0.000516693
0.00151105 5.70615e-06 -4.6092e-06
5.70615e-06 0.000720902 -4.44352e-06
-4.6092e-06 -4.44352e-06 0.000480718
0.000568483 5.69272e-05 1.13274e-07
5.69272e-05 4.78251e-05 2.35772e-06
1.13274e-07 2.35772e-06 -9.54357e-05
0.000667639 0.000124301 5.00863e-07
0.000124301 0.0001769 -1.64419e-06
5.00863e-07 -1.64419e-06 1.13454e-05
0.000368754 -0.000555533 -1.06951e-06
-0.000555533 -0.000419546 -5.14661e-06
-1.06951e-06 -5.14661e-06 -0.00045477
0.000732491 -1.31381e-05 -1.33974e-06
-1.31381e-05 0.000468311 4.16713e-07
-1.33974e-06 4.16713e-07 0.000138693
-2.99861e-05 -0.000118622 2.46537e-06
-0.000118622 7.97974e-05 -2.3613e-06
2.46537e-06 -2.3613e-06 -9.73096e-05
0.000871897 9.96809e-05 3.92784e-06
9.96809e-05 0.000246382 -1.01855e-05
3.92784e-06 -1.01855e-05 0.000118532
-0.00226124 -1.00885e-05 -5.24905e-05
-1.00885e-05 -0.000821507 -1.86839e-05
-5.24905e-05 -1.86839e-05 -0.0013083
-0.000375028 3.8047e-05 2.65555e-05
3.8047e-05 -0.00011831 2.24759e-05
2.65555e-05 2.24759e-05 -0.000289892
0.00127152 2.90565e-05 8.31385e-06
2.90565e-05 0.00072076 3.32278e-06
8.31385e-06 3.32278e-06 0.000464263
0.000744189 -7.21645e-06 -1.51922e-06
-7.21645e-06 -0.000246342 8.79007e-07
-1.51922e-06 8.79007e-07 -0.000716319
-3.47242e-05 1.36593e-06 -1.21211e-05
1.36593e-06 0.000507558 -1.35119e-05
-1.21211e-05 -1.35119e-05 -1.49622e-05
0.000505706 -4.04722e-05 0.000197698
-4.04722e-05 0.000763105 -8.49559e-06
0.000197698 -8.49559e-06 -0.00138845
0.000224894 0.000195135 5.99666e-06
0.000195135 0.000201134 1.70266e-05
5.99666e-06 1.70266e-05 -1.50319e-05
0.000904411 0.000456266 7.33789e-06
0.000456266 0.000193615 -1.19987e-05
7.33789e-06 -1.19987e-05 -0.000149131
-2.63954e-05 -4.83158e-05 1.23053e-05
-4.83158e-05 -5.9012e-05 2.30025e-06
1.23053e-05 2.30025e-06 -6.41689e-05
-0.00307185 0.000582173 4.27716e-05
0.000582173 0.000572795 8.22111e-05
4.27716e-05 8.22111e-05 -0.00351077
-0.00955984 0.000658841 -0.000100698
0.000658841 -0.00359619 -0.000275022
-0.000100698 -0.000275022 -0.00603221
0.00285726 6.82627e-05 4.11489e-05
6.82627e-05 0.000439535 7.18863e-05
4.11489e-05 7.18863e-05 0.000117591
0.00356667 0.000331304 -9.90879e-05
0.000331304 -0.00301115 0.000114833
-9.90879e-05 0.000114833 -0.00241953
0.000591583 0.000201334 6.55677e-06
0.000201334 0.000444917 -8.81443e-07
6.55677e-06 -8.81443e-07 0.000201252
0.00139512 1.10987e-05 1.63938e-05
1.10987e-05 -0.000401202 -2.75483e-05
1.63938e-05 -2.75483e-05 -0.000131403
0.00355061 -0.000207516 -1.87816e-05
-0.000207516 0.00238738 5.26111e-06
-1.87816e-05 5.26111e-06 0.00114019
0.00101164 0.000265003 -5.66307e-05
0.000265003 0.000644549 -5.03293e-06
-5.66307e-05 -5.03293e-06 -7.87934e-05
0.00517191 0.00193599 7.16545e-05
0.00193599 -0.000813513 -0.0002014
7.16545e-05 -0.0002014 -0.000878496
-0.00262836 0.00131438 4.03909e-05
0.00131438 -7.56588e-05 0.000149768
4.03909e-05 0.000149768 -0.00198765
0.00718311 0.000134752 5.80835e-05
0.000134752 0.00588222 -2.64189e-05
5.80835e-05 -2.64189e-05 0.000288357
0.00149263 -6.10651e-05 5.52822e-05
-6.10651e-05 0.0013663 -2.06222e-05
5.52822e-05 -2.06222e-05 0.000829695
0.000754642 2.08688e-05 -2.21255e-05
2.08688e-05 0.000547459 -4.26893e-06
-2.21255e-05 -4.26893e-06 0.000459199
0.00336313 -0.000446666 0.000329034
-0.000446666 0.00106833 -0.000184673
0.000329034 -0.000184673 -0.00194611
0.0065833 0.00254841 2.02357e-07
0.00254841 0.00498793 -5.87799e-06
2.02357e-07 -5.87799e-06 0.00512832
-0.00302568 0.00145986 2.35123e-05
0.00145986 -0.00361466 0.000387908
2.35123e-05 0.000387908 -0.00413548
0.0132067 -0.00165146 0.000135585
-0.00165146 0.00550903 -0.000120577
0.000135585 -0.000120577 0.00148313
0.00306919 -0.000486651 -6.38798e-05
-0.000486651 0.001417 6.77798e-05
-6.38798e-05 6.77798e-05 0.00100752
0.000983943 0.000173724 8.63471e-06
0.000173724 0.000708067 4.81087e-06
8.63471e-06 4.81087e-06 0.000460063
0.000260087 -5.91279e-07 -2.7658e-05
-5.91279e-07 0.000306158 1.13004e-06
-2.7658e-05 1.13004e-06 0.000132534
0.00140234 -0.000307656 2.2215e-05
-0.000307656 0.000914456 -8.2379e-06
2.2215e-05 -8.2379e-06 0.000590116
0.00080433 -7.93662e-05 1.32902e-06
-7.93662e-05 0.000282415 2.87775e-06
1.32902e-06 2.87775e-06 0.000175812
-3.74826e-05 -3.74897e-05 1.86986e-07
-3.74897e-05 1.58502e-05 2.80651e-06
1.86986e-07 2.80651e-06 -0.000150022
0.000499703 -0.000215011 -9.68404e-07
-0.000215011 0.000310627 -8.36267e-07
-9.68404e-07 -8.36267e-07 0.000117984
0.00164258 -0.000372539 2.67786e-05
-0.000372539 0.000773984 -1.90616e-05
2.67786e-05 -1.90616e-05 0.000537972
0.00216065 -0.000229553 -5.68912e-06
-0.000229553 0.000959096 4.12601e-06
-5.68912e-06 4.12601e-06 0.000829404
0.00185521 -0.00038802 5.32478e-06
-0.00038802 0.000773728 -8.29394e-07
5.32478e-06 -8.29394e-07 0.00052084
0.00140535 -0.00037161 1.26148e-05
-0.00037161 0.000535781 1.87746e-06
1.26148e-05 1.87746e-06 0.000117385
0.000371509 -0.000173474 -2.54739e-06
-0.000173474 -0.000145633 -1.30865e-06
-2.54739e-06 -1.30865e-06 -0.000298264
0.00145958 -0.000348993 -2.07022e-06
-0.000348993 0.000367994 1.22135e-06
-2.07022e-06 1.22135e-06 8.35846e-05
0.0017859 -0.000452582 -9.80084e-07
-0.000452582 0.0004942 2.09489e-06
-9.80084e-07 2.09489e-06 0.000120994
0.00170304 -0.00047005 -4.04229e-06
-0.00047005 0.000332149 3.16491e-06
-4.04229e-06 3.16491e-06 1.32597e-05
0.00121225 -0.00032752 -4.23207e-07
-0.00032752 0.000176241 3.99909e-06
-4.23207e-07 3.99909e-06 -8.07704e-05
0.00134239 -0.000358894 -2.66105e-06
-0.000358894 0.000220002 1.52478e-06
-2.66105e-06 1.52478e-06 -6.3762e-05
0.00113251 -0.000289576 -6.82445e-06
-0.000289576 0.000183653 2.04917e-06
-6.82445e-06 2.04917e-06 -7.61045e-05
0.0018893 -0.000340436 5.08444e-06
-0.000340436 0.000683595 -9.70652e-07
5.08444e-06 -9.70652e-07 0.000450282
0.00163061 -0.000323382 3.19675e-06
-0.000323382 0.000496128 -3.06493e-06
3.19675e-06 -3.06493e-06 0.000267694
-8.94468e-06 -7.00766e-05 1.18227e-06
-7.00766e-05 -0.000326282 8.53697e-07
1.18227e-06 8.53697e-07 -0.000506504
0.000816266 -0.000205638 2.05857e-06
-0.000205638 0.00015183 -1.31594e-06
2.05857e-06 -1.31594e-06 -6.22729e-05
0.00113139 -0.000255288 6.25861e-06
-0.000255288 0.000250729 -5.40728e-06
6.25861e-06 -5.40728e-06 2.44509e-05
0.00019182 2.50553e-07 9.5937e-07
2.50553e-07 -0.000189252 1.79494e-06
9.5937e-07 1.79494e-06 -0.000320915
0.000920864 -0.000117273 -5.75516e-07
-0.000117273 0.000266742 2.14333e-07
-5.75516e-07 2.14333e-07 0.000101702
0.0010359 -0.000222859 -9.66852e-07
-0.000222859 0.00033965 -1.39876e-06
-9.66852e-07 -1.39876e-06 0.000142751
0.000630035 1.30913e-05 -1.07462e-06
1.30913e-05 4.23312e-05 3.10997e-06
-1.07462e-06 3.10997e-06 -3.18238e-05
0.000739793 -3.58909e-05 -4.13654e-07
-3.58909e-05 0.000125077 -3.70587e-07
-4.13654e-07 -3.70587e-07 1.60528e-05
0.000468938 -4.95152e-05 4.15233e-07
-4.95152e-05 -6.62201e-07 4.10006e-07
4.15233e-07 4.10006e-07 -0.000133705
0.000755209 -4.64501e-05 4.49834e-07
-4.64501e-05 0.000141904 -1.31166e-06
4.49834e-07 -1.31166e-06 3.83679e-05
0.000629174 -2.57804e-06 -2.33583e-07
-2.57804e-06 3.61215e-05 -2.05238e-07
-2.33583e-07 -2.05238e-07 -2.91781e-05
0.000523357 4.96987e-05 -1.62636e-07
4.96987e-05 -3.21176e-05 5.13445e-06
-1.62636e-07 5.13445e-06 -5.78703e-05
0.00064189 -1.14525e-05 1.70754e-06
-1.14525e-05 4.12386e-05 -2.25959e-06
1.70754e-06 -2.25959e-06 -1.81837e-05
0.000545695 4.31152e-05 -3.01414e-07
4.31152e-05 -2.7397e-05 -5.93183e-08
-3.01414e-07 -5.93183e-08 -4.95218e-05
0.00236831 8.59907e-05 -2.55954e-05
8.59907e-05 0.00107833 3.94551e-06
-2.55954e-05 3.94551e-06 0.00108595
0.000538832 3.17484e-05 9.90212e-07
3.17484e-05 -3.85979e-05 -4.35201e-06
9.90212e-07 -4.35201e-06 -5.78322e-05
0.00157369 5.91983e-05 1.17595e-05
5.91983e-05 0.000592331 -9.73473e-07
1.17595e-05 -9.73473e-07 0.000598596
0.00240288 6.12301e-05 1.69752e-05
6.12301e-05 0.00108775 -4.6456e-06
1.69752e-05 -4.6456e-06 0.00109924
0.000698788 6.93622e-05 8.03994e-07
6.93622e-05 0.000104184 -9.27531e-07
8.03994e-07 -9.27531e-07 -5.53332e-06
0.000607032 2.85418e-05 -3.15123e-08
2.85418e-05 1.99521e-05 -2.42149e-06
-3.15123e-08 -2.42149e-06 -4.36141e-05
0.000545342 4.15007e-05 -1.18778e-06
4.15007e-05 1.78947e-05 -1.18046e-06
-1.18778e-06 -1.18046e-06 -9.23965e-05
0.000550385 -1.58687e-05 6.31059e-07
-1.58687e-05 -3.56211e-05 -4.3935e-06
6.31059e-07 -4.3935e-06 -5.14527e-05
0.000425809 2.03474e-05 -1.57264e-06
2.03474e-05 -8.58622e-05 -1.31257e-06
-1.57264e-06 -1.31257e-06 -0.000145281
0.000756883 4.66982e-05 -5.09508e-07
4.66982e-05 0.000145903 -1.00066e-06
-5.09508e-07 -1.00066e-06 4.29732e-05
0.00223514 -3.83004e-05 -1.63739e-05
-3.83004e-05 0.000979309 -4.67709e-06
-1.63739e-05 -4.67709e-06 0.000995342
0.000551096 -1.18834e-05 -1.80867e-07
-1.18834e-05 -3.69047e-05 -8.06827e-08
-1.80867e-07 -8.06827e-08 -4.90235e-05
0.000228389 3.96919e-06 -9.90102e-07
3.96919e-06 -0.000202814 7.35287e-07
-9.90102e-07 7.35287e-07 -0.000257803
0.00214538 -2.29447e-05 -4.23208e-06
-2.29447e-05 0.000923516 9.93896e-08
-4.23208e-06 9.93896e-08 0.000941323
0.00055181 -7.5977e-06 -7.44537e-07
-7.5977e-06 -3.74298e-05 3.47639e-06
-7.44537e-07 3.47639e-06 -4.67892e-05
0.00207885 -7.87847e-06 7.32739e-06
-7.87847e-06 0.000882762 4.72376e-06
7.32739e-06 4.72376e-06 0.00090158
0.00146977 -5.05285e-05 -1.6333e-05
-5.05285e-05 -0.000300517 1.90718e-05
-1.6333e-05 1.90718e-05 -7.64929e-05
0.000688836 -4.68211e-05 1.32457e-05
-4.68211e-05 0.000500371 -1.78514e-06
1.32457e-05 -1.78514e-06 0.000432705
0.00101195 -0.000148746 0.000115574
-0.000148746 0.000297948 -3.86379e-05
0.000115574 -3.86379e-05 -0.00154166
0.000507772 2.75059e-05 1.0406e-06
2.75059e-05 -3.58407e-05 -3.16847e-07
1.0406e-06 -3.16847e-07 -0.000148632
0.00100111 6.39173e-05 -5.90392e-07
6.39173e-05 0.000250942 8.81989e-07
-5.90392e-07 8.81989e-07 0.000124032
0.000789478 0.000104559 -5.89431e-07
0.000104559 0.000159525 -2.43566e-07
-5.89431e-07 -2.43566e-07 3.57568e-05
0.000561329 5.03973e-05 2.45217e-07
5.03973e-05 6.84228e-07 3.33594e-07
2.45217e-07 3.33594e-07 -0.000112886
0.000673102 6.65955e-05 1.43933e-07
6.65955e-05 8.68359e-05 3.234e-07
1.43933e-07 3.234e-07 -4.21954e-05
0.000638905 6.11785e-05 1.71287e-06
6.11785e-05 5.74803e-05 -1.40762e-06
1.71287e-06 -1.40762e-06 -6.47392e-05
0.00065897 0.000153134 4.65838e-06
0.000153134 0.000104645 3.78465e-06
4.65838e-06 3.78465e-06 -4.37746e-05
0.000108538 0.000103644 6.5194e-05
0.000103644 -0.000123064 0.000174317
6.5194e-05 0.000174317 -0.00149551
0.00279915 -3.85328e-05 -1.25564e-05
-3.85328e-05 0.000301338 5.23758e-05
-1.25564e-05 5.23758e-05 -0.000388258
0.00333059 -0.000203358 4.1541e-05
-0.000203358 0.00231462 -7.08014e-05
4.1541e-05 -7.08014e-05 0.00125448
0.00454199 -0.000124167 -7.20959e-06
-0.000124167 -0.00451972 7.08191e-05
-7.20959e-06 7.08191e-05 -0.00143052
0.00295551 -0.00129445 -9.24718e-05
-0.00129445 0.000899577 6.91911e-05
-9.24718e-05 6.91911e-05 0.000140329
-0.00192011 -0.00159377 -3.83368e-05
-0.00159377 -0.000104793 8.92748e-05
-3.83368e-05 8.92748e-05 -0.00423755
0.00959057 0.00209243 8.02647e-05
0.00209243 0.00499058 -6.73777e-05
8.02647e-05 -6.73777e-05 0.00277654
0.00320393 -0.00117023 -2.87449e-05
-0.00117023 0.000793 5.79319e-06
-2.87449e-05 5.79319e-06 0.00039541
-0.000708642 -0.00052736 2.52562e-05
-0.00052736 0.00178464 3.13945e-05
2.52562e-05 3.13945e-05 -0.00302444
0.004834 0.000201159 3.34924e-05
0.000201159 0.00257265 -1.16673e-05
3.34924e-05 -1.16673e-05 0.000966633
0.0101017 -0.0014082 -3.41224e-05
-0.0014082 0.00132782 -3.76775e-05
-3.41224e-05 -3.76775e-05 0.00257082
-0.000874237 -0.000102178 -0.00012698
-0.000102178 -0.000959763 8.20968e-05
-0.00012698 8.20968e-05 -0.000760428
0.00089836 0.00148954 -6.84276e-05
0.00148954 0.00224719 -8.26178e-05
-6.84276e-05 -8.26178e-05 -0.00261962
-0.00626005 -0.00231734 5.04038e-05
-0.00231734 -0.00332711 -0.000151516
5.04038e-05 -0.000151516 -0.0057436
0.00652564 -0.00143017 5.55818e-05
-0.00143017 -1.00691e-05 -0.000294412
5.55818e-05 -0.000294412 0.00070864
0.000916166 2.66432e-05 5.97637e-06
2.66432e-05 0.000259021 1.45356e-07
5.97637e-06 1.45356e-07 0.000131719
0.000635409 7.97783e-05 -1.78926e-07
7.97783e-05 8.02316e-05 -1.25673e-06
-1.78926e-07 -1.25673e-06 -6.1893e-05
0.000814689 -1.15525e-05 1.69813e-07
-1.15525e-05 0.000229898 -3.04342e-06
1.69813e-07 -3.04342e-06 4.74185e-05
0.000825893 6.53909e-05 -1.79358e-06
6.53909e-05 0.000191445 -5.14829e-06
-1.79358e-06 -5.14829e-06 4.35031e-05
0.000530073 -0.00046694 -5.20152e-06
-0.00046694 -0.000328488 3.55993e-05
-5.20152e-06 3.55993e-05 -0.000428933
0.0011219 -0.000103626 -2.01225e-05
-0.000103626 0.000784121 -2.03539e-05
-2.01225e-05 -2.03539e-05 0.000575712
0.000734279 4.73379e-05 -3.57402e-06
4.73379e-05 0.000125413 -5.08833e-06
-3.57402e-06 -5.08833e-06 1.97345e-06
0.000703692 0.000170589 -1.60643e-06
0.000170589 0.000210395 3.45567e-06
-1.60643e-06 3.45567e-06 3.98622e-05
0.00261083 -1.89654e-05 7.60387e-06
-1.89654e-05 0.00146299 -1.97616e-05
7.60387e-06 -1.97616e-05 0.00122666
0.000959456 7.6449e-05 3.1563e-06
7.6449e-05 0.000284628 3.64838e-06
3.1563e-06 3.64838e-06 0.000166884
0.000619899 0.000122813 -2.70449e-06
0.000122813 0.000375165 -1.13745e-06
-2.70449e-06 -1.13745e-06 9.12911e-05
0.000580535 -9.03573e-05 1.69381e-05
-9.03573e-05 0.000589429 -8.15109e-06
1.69381e-05 -8.15109e-06 -1.49071e-05
0.000161339 1.85973e-05 2.33213e-05
1.85973e-05 0.000234065 -1.17234e-06
2.33213e-05 -1.17234e-06 6.12001e-05
0.000777427 0.00014045 5.41619e-07
0.00014045 0.000405596 -6.43057e-06
5.41619e-07 -6.43057e-06 0.000212116
-0.000461483 -4.57272e-05 -3.21176e-05
-4.57272e-05 0.000521631 -4.49838e-05
-3.21176e-05 -4.49838e-05 -0.00076673
0.00367105 0.000173604 2.52087e-05
0.000173604 0.0020699 2.25562e-05
2.52087e-05 2.25562e-05 0.00181334
0.000181923 1.55749e-05 -8.54669e-06
1.55749e-05 0.000778098 1.41625e-05
-8.54669e-06 1.41625e-05 0.000115226
0.00123225 -2.52135e-05 1.02149e-07
-2.52135e-05 -1.36351e-05 5.28281e-07
1.02149e-07 5.28281e-07 -0.000167085
-0.000205709 -1.85883e-06 3.16894e-06
-1.85883e-06 0.000258256 -2.01894e-05
3.16894e-06 -2.01894e-05 -0.000125489
-5.03978e-05 0.000117003 -1.98906e-06
0.000117003 0.000149644 5.71931e-06
-1.98906e-06 5.71931e-06 -5.09327e-05
-0.00117416 0.000356493 6.59802e-05
0.000356493 -0.000813919 5.56782e-05
6.59802e-05 5.56782e-05 -0.00112967
0.00121974 -2.05568e-05 2.18606e-05
-2.05568e-05 -0.00047131 -6.39103e-06
2.18606e-05 -6.39103e-06 -0.000149808
0.00284617 -0.00128246 0.000133102
-0.00128246 0.00363249 -0.000128906
0.000133102 -0.000128906 -0.00218602
0.0101198 0.00207145 -8.50188e-05
0.00207145 0.00469282 6.39407e-05
-8.50188e-05 6.39407e-05 0.00276744
0.00335625 -0.000139704 -4.82371e-05
-0.000139704 0.00225159 7.5936e-05
-4.82371e-05 7.5936e-05 0.00120009
0.00616631 0.00201001 -2.45004e-05
0.00201001 0.000537583 -5.99308e-05
-2.45004e-05 -5.99308e-05 -3.60578e-05
3.8389e-05 0.000121968 -4.22498e-05
0.000121968 0.000552396 1.10368e-05
-4.22498e-05 1.10368e-05 -3.80363e-05
0.000794627 -4.76891e-06 -1.55041e-05
-4.76891e-06 0.000491469 2.12264e-06
-1.55041e-05 2.12264e-06 0.000458032
0.00363874 -0.000513352 0.000126222
-0.000513352 0.00126647 -1.06332e-05
0.000126222 -1.06332e-05 -0.00189317
-0.000303155 -0.000199941 1.44513e-05
-0.000199941 -0.000406812 2.57186e-05
1.44513e-05 2.57186e-05 -0.000534729
-0.000104421 0.00275908 0.000181269
0.00275908 0.00129904 -8.98528e-05
0.000181269 -8.98528e-05 0.00195639
0.0074805 0.00128594 -7.87135e-05
0.00128594 0.000712806 0.000148936
-7.87135e-05 0.000148936 9.68736e-05
-0.00309711 -0.000801236 7.61687e-05
-0.000801236 0.000851212 -8.1169e-05
7.61687e-05 -8.1169e-05 -0.00456057
0.00054595 -0.00021024 4.21103e-05
-0.00021024 0.000536022 -9.98661e-06
4.21103e-05 -9.98661e-06 6.89038e-05
0.000470357 -0.000217099 0.000105827
-0.000217099 -0.00023368 -3.32069e-05
0.000105827 -3.32069e-05 -0.00193406
-0.00214384 4.88708e-05 -0.00033331
4.88708e-05 0.0026337 3.56045e-05
-0.00033331 3.56045e-05 0.000698275
0.00496234 0.00260025 -0.000262686
0.00260025 0.000693562 0.000328757
-0.000262686 0.000328757 0.000716987
0.00803841 -0.00112604 -2.47839e-05
-0.00112604 0.00361762 7.9067e-06
-2.47839e-05 7.9067e-06 0.000169682
0.00299275 -0.000638991 -5.79159e-05
-0.000638991 0.00122346 4.27941e-05
-5.79159e-05 4.27941e-05 0.000826454
-0.000718648 3.19999e-05 2.37825e-05
3.19999e-05 -0.0002641 8.09828e-06
2.37825e-05 8.09828e-06 -0.000454472
0.000365684 -0.000227512 -1.52927e-06
-0.000227512 0.000364263 6.23583e-07
-1.52927e-06 6.23583e-07 4.87365e-05
0.000989739 -0.000367013 1.64272e-05
-0.000367013 0.000415943 -3.57953e-06
1.64272e-05 -3.57953e-06 0.000264989
-0.000471958 -0.000188335 -6.67188e-06
-0.000188335 -0.000190246 7.09802e-06
-6.67188e-06 7.09802e-06 -0.000378537
-0.000682197 -0.000200502 -5.60076e-07
-0.000200502 -0.000453158 -3.72145e-06
-5.60076e-07 -3.72145e-06 -0.000689084
0.00319069 -0.00060014 3.31251e-05
-0.00060014 0.0012911 -2.67977e-06
3.31251e-05 -2.67977e-06 0.0010175
0.00458232 -0.000663911 -9.8753e-06
-0.000663911 0.00222693 3.76945e-06
-9.8753e-06 3.76945e-06 0.00194807
0.00235094 -0.00046651 7.2394e-06
-0.00046651 0.000983119 2.39176e-07
7.2394e-06 2.39176e-07 0.000587739
0.00122616 -0.000431512 8.58689e-06
-0.000431512 0.000216241 -6.49876e-06
8.58689e-06 -6.49876e-06 -0.000207251
0.00172343 -0.000373479 -8.33454e-06
-0.000373479 0.000487982 1.96148e-06
-8.33454e-06 1.96148e-06 0.000197267
0.00214874 -0.000497663 1.05361e-06
-0.000497663 0.000662953 5.04074e-07
1.05361e-06 5.04074e-07 0.000280662
0.00200388 -0.000511214 1.44266e-06
-0.000511214 0.000540308 -5.75056e-06
1.44266e-06 -5.75056e-06 0.000156212
0.00198751 -0.000478892 -1.7181e-06
-0.000478892 0.000409365 -3.03954e-06
-1.7181e-06 -3.03954e-06 0.000127964
0.00180068 -0.000473409 -1.43616e-06
-0.000473409 0.000368971 2.25746e-06
-1.43616e-06 2.25746e-06 7.09348e-05
0.00174658 -0.00047879 -9.65868e-07
-0.00047879 0.000356764 -1.55909e-07
-9.65868e-07 -1.55909e-07 3.16423e-05
0.000824885 -0.000270962 6.51343e-06
-0.000270962 -4.09704e-05 1.98333e-06
6.51343e-06 1.98333e-06 -0.000268618
0.00118171 -0.00031718 1.80939e-06
-0.00031718 0.000156086 2.80662e-08
1.80939e-06 2.80662e-08 -9.15134e-05
0.00133052 -0.000359231 1.07774e-06
-0.000359231 0.000215527 -1.98202e-06
1.07774e-06 -1.98202e-06 -7.27023e-05
0.00131082 -0.000267412 3.34219e-06
-0.000267412 0.000380307 1.83764e-06
3.34219e-06 1.83764e-06 0.000152347
0.00132854 -0.00028478 -2.34461e-06
-0.00028478 0.000345707 -1.85347e-06
-2.34461e-06 -1.85347e-06 0.000121988
0.000682632 -0.00023125 6.2005e-06
-0.00023125 -6.01396e-05 -5.88491e-06
6.2005e-06 -5.88491e-06 -0.000267918
0.000346567 -9.39255e-05 1.88723e-06
-9.39255e-05 -8.97774e-05 7.00053e-07
1.88723e-06 7.00053e-07 -0.00026746
0.000481397 -0.000118122 -6.88962e-07
-0.000118122 -1.84176e-05 1.07314e-06
-6.88962e-07 1.07314e-06 -0.000208302
0.00144061 -0.000271099 3.48101e-06
-0.000271099 0.000529677 -5.13881e-06
3.48101e-06 -5.13881e-06 0.000305697
0.000460363 1.519e-05 8.6633e-08
1.519e-05 -5.21143e-05 3.67951e-06
8.6633e-08 3.67951e-06 -0.00013974
0.000702323 -4.13369e-05 -2.32507e-07
-4.13369e-05 0.00012152 -9.36654e-08
-2.32507e-07 -9.36654e-08 -2.05349e-05
0.00124566 -0.000160338 7.74346e-07
-0.000160338 0.000466106 -2.73747e-07
7.74346e-07 -2.73747e-07 0.000291681
0.000497974 5.16232e-05 -1.35337e-06
5.16232e-05 -3.88057e-05 7.40244e-06
-1.35337e-06 7.40244e-06 -6.83034e-05
0.000641151 8.42705e-06 -3.28001e-07
8.42705e-06 4.64946e-05 -2.53604e-07
-3.28001e-07 -2.53604e-07 -2.74412e-05
0.000971089 -6.20646e-05 -3.14712e-07
-6.20646e-05 0.00026786 -1.44119e-06
-3.14712e-07 -1.44119e-06 0.000152071
0.000665581 -3.66289e-06 1.38991e-06
-3.66289e-06 5.67356e-05 -2.75412e-06
1.38991e-06 -2.75412e-06 -8.64131e-06
0.000535195 5.16624e-05 4.58941e-07
5.16624e-05 -2.39278e-05 2.9393e-08
4.58941e-07 2.9393e-08 -5.03076e-05
0.00243756 0.000102809 -2.73186e-05
0.000102809 0.00112839 3.6188e-06
-2.73186e-05 3.6188e-06 0.00113221
0.000555522 4.79594e-05 -5.81006e-07
4.79594e-05 -2.05792e-05 -4.83004e-06
-5.81006e-07 -4.83004e-06 -4.36128e-05
0.00239995 8.91497e-05 2.83114e-06
8.91497e-05 0.0010982 2.72571e-07
2.83114e-06 2.72571e-07 0.00110518
0.00237771 7.54638e-05 2.05303e-05
7.54638e-05 0.00107829 -4.1862e-06
2.05303e-05 -4.1862e-06 0.00108788
0.000695175 6.42376e-05 -1.12219e-07
6.42376e-05 0.000110755 -1.11066e-06
-1.12219e-07 -1.11066e-06 -2.52565e-05
0.000769799 9.0011e-05 9.72131e-07
9.0011e-05 0.000156952 -1.32665e-06
9.72131e-07 -1.32665e-06 3.13701e-05
0.000631144 2.04241e-05 1.20638e-07
2.04241e-05 3.44636e-05 -2.78442e-06
1.20638e-07 -2.78442e-06 -3.53318e-05
0.000692661 8.18256e-05 -2.74726e-08
8.18256e-05 9.89097e-05 -5.27039e-08
-2.74726e-08 -5.27039e-08 -1.04632e-05
0.000540784 -1.81707e-05 -2.53529e-07
-1.81707e-05 -3.79893e-05 -5.07343e-06
-2.53529e-07 -5.07343e-06 -5.78633e-05
0.000612413 2.93368e-05 3.43547e-08
2.93368e-05 2.37806e-05 -9.50402e-08
3.43547e-08 -9.50402e-08 -3.98179e-05
0.000622789 4.3719e-05 -2.2984e-06
4.3719e-05 5.31436e-05 2.04447e-07
-2.2984e-06 2.04447e-07 -4.81203e-05
0.0023397 -5.27976e-05 -2.14836e-05
-5.27976e-05 0.00104476 -4.63916e-06
-2.14836e-05 -4.63916e-06 0.00105861
0.000549322 -1.72236e-05 -3.59583e-07
-1.72236e-05 -3.57993e-05 -7.09927e-08
-3.59583e-07 -7.09927e-08 -5.15641e-05
0.000541661 3.26277e-05 -1.58931e-06
3.26277e-05 -1.62091e-05 7.50067e-07
-1.58931e-06 7.50067e-07 -7.44702e-05
0.00221613 -3.6943e-05 -4.1646e-06
-3.6943e-05 0.000967557 1.63057e-07
-4.1646e-06 1.63057e-07 0.000983896
0.00055023 -1.17733e-05 -8.00492e-07
-1.17733e-05 -3.77137e-05 3.67361e-06
-8.00492e-07 3.67361e-06 -4.95904e-05
0.00212056 -2.16282e-05 1.14723e-05
-2.16282e-05 0.000908258 4.67793e-06
1.14723e-05 4.67793e-06 0.000926318
0.000138259 -7.05492e-05 -1.71889e-06
-7.05492e-05 -3.2994e-05 6.35923e-06
-1.71889e-06 6.35923e-06 7.2435e-05
0.00140882 -9.16058e-05 -1.68691e-05
-9.16058e-05 -0.000390452 2.70676e-05
-1.68691e-05 2.70676e-05 -0.000108669
0.000727101 -7.59493e-05 9.69405e-06
-7.59493e-05 0.000468996 -1.62166e-05
9.69405e-06 -1.62166e-05 0.000407185
0.00073186 6.55587e-05 -2.36666e-07
6.55587e-05 0.000120113 1.51677e-07
-2.36666e-07 1.51677e-07 -8.6481e-06
0.000701091 5.00879e-05 1.31474e-06
5.00879e-05 7.43814e-05 -3.41406e-07
1.31474e-06 -3.41406e-07 -4.84266e-05
2.60953e-05 3.2372e-05 -4.16717e-06
3.2372e-05 -0.000323208 -4.62907e-06
-4.16717e-06 -4.62907e-06 -0.00043659
0.000354544 1.51022e-05 8.87732e-07
1.51022e-05 -0.000114835 1.4669e-06
8.87732e-07 1.4669e-06 -0.000236398
0.00151047 0.000175228 -7.14213e-07
0.000175228 0.000592274 -8.30641e-07
-7.14213e-07 -8.30641e-07 0.000434778
0.000650186 3.1598e-05 -1.85446e-06
3.1598e-05 4.64295e-05 4.26331e-07
-1.85446e-06 4.26331e-07 -6.34956e-05
0.000668045 5.66037e-05 -2.64078e-06
5.66037e-05 7.49924e-05 -3.20023e-06
-2.64078e-06 -3.20023e-06 -4.72457e-05
0.000763322 6.60402e-05 -8.94572e-08
6.60402e-05 0.000132224 -2.18983e-07
-8.94572e-08 -2.18983e-07 7.36987e-06
0.000998433 0.000107011 1.40837e-07
0.000107011 0.000283427 -1.27908e-07
1.40837e-07 -1.27908e-07 0.000148222
0.00104934 8.40212e-05 3.04043e-06
8.40212e-05 0.000338871 -1.96427e-06
3.04043e-06 -1.96427e-06 0.000193981
0.00319806 0.000281666 0.000188358
0.000281666 0.00218513 0.000258765
0.000188358 0.000258765 -0.00111921
0.000651052 0.000121002 9.74422e-06
0.000121002 2.99525e-05 6.84038e-05
9.74422e-06 6.84038e-05 -0.00150379
0.00266953 -4.64555e-05 -1.19299e-05
-4.64555e-05 0.000536949 -6.31185e-06
-1.19299e-05 -6.31185e-06 4.64491e-05
0.0103908 -0.00122663 -0.000106626
-0.00122663 0.00145618 -0.000111756
-0.000106626 -0.000111756 0.00291111
-0.0096824 0.000999298 -1.63584e-05
0.000999298 -0.0033039 0.000270555
-1.63584e-05 0.000270555 -0.00598993
0.00517734 -0.0013012 -0.000124636
-0.0013012 0.00195653 3.78075e-05
-0.000124636 3.78075e-05 0.001581
0.0109848 -0.00106198 -7.50585e-05
-0.00106198 0.00493384 -2.79735e-06
-7.50585e-05 -2.79735e-06 0.00123647
0.00223059 -0.000296302 -2.60823e-05
-0.000296302 0.000567709 6.8776e-05
-2.60823e-05 6.8776e-05 0.000370242
0.0115174 -0.000131128 -1.74394e-05
-0.000131128 0.00597377 -1.26035e-05
-1.74394e-05 -1.26035e-05 0.00135373
0.00264725 -0.00143842 5.82407e-05
-0.00143842 0.000876303 7.88426e-05
5.82407e-05 7.88426e-05 -0.00116031
0.00582813 -0.00175466 -0.000151077
-0.00175466 -0.000861089 -0.000357936
-0.000151077 -0.000357936 -0.000224326
0.00279045 0.000105048 -0.000116575
0.000105048 0.000872346 5.44655e-05
-0.000116575 5.44655e-05 0.000299583
0.0101875 0.00118829 -5.43116e-05
0.00118829 0.00477867 1.47958e-05
-5.43116e-05 1.47958e-05 0.00105131
0.0116356 -0.00250391 -9.28204e-05
-0.00250391 0.00411816 -0.000312829
-9.28204e-05 -0.000312829 0.00353394
0.00908753 -0.00288335 7.67279e-05
-0.00288335 0.00228621 -1.61683e-06
7.67279e-05 -1.61683e-06 0.00323831
0.000175954 7.87073e-05 5.52946e-06
7.87073e-05 -9.13765e-05 -4.69727e-06
5.52946e-06 -4.69727e-06 -0.000234756
0.000892422 2.76769e-05 1.13635e-06
2.76769e-05 0.000263729 2.91906e-06
1.13635e-06 2.91906e-06 0.000115134
0.000716238 9.40411e-05 -3.14604e-06
9.40411e-05 0.000130269 -6.59798e-06
-3.14604e-06 -6.59798e-06 -1.55306e-05
0.0017105 -0.000235804 -2.28624e-05
-0.000235804 0.00107833 2.33317e-05
-2.28624e-05 2.33317e-05 0.000334919
0.000890324 -2.92013e-05 -6.25541e-05
-2.92013e-05 0.000668149 -2.28853e-05
-6.25541e-05 -2.28853e-05 0.00051236
0.000612394 7.49692e-06 -5.31637e-06
7.49692e-06 7.90045e-05 3.83096e-06
-5.31637e-06 3.83096e-06 -3.64042e-05
-0.00111081 9.8866e-05 -9.15654e-06
9.8866e-05 -0.000562526 -4.2743e-06
-9.15654e-06 -4.2743e-06 -0.000890938
0.00040289 8.21295e-05 6.27816e-07
8.21295e-05 0.000177353 -2.21164e-06
6.27816e-07 -2.21164e-06 -2.13979e-05
0.000633726 0.000151006 8.78199e-07
0.000151006 0.000444893 2.81889e-06
8.78199e-07 2.81889e-06 0.000138679
-0.000511124 -6.19867e-05 0.000120016
-6.19867e-05 0.000718136 -4.01777e-05
0.000120016 -4.01777e-05 -0.000558822
-0.00213721 2.39345e-05 -2.09295e-05
2.39345e-05 -0.00112409 1.29995e-05
-2.09295e-05 1.29995e-05 -0.00135486
0.00249748 0.000335982 -5.656e-05
0.000335982 0.00162004 -4.81867e-05
-5.656e-05 -4.81867e-05 0.000752298
0.00192611 5.18149e-05 9.08649e-05
5.18149e-05 0.00124042 1.71921e-05
9.08649e-05 1.71921e-05 -0.000918645
-3.74041e-05 1.27233e-05 1.3154e-05
1.27233e-05 0.00053764 1.50464e-05
1.3154e-05 1.50464e-05 -1.66398e-05
0.00173877 -7.433e-05 3.1806e-07
-7.433e-05 0.000218693 -1.15257e-07
3.1806e-07 -1.15257e-07 0.00037115
-0.0017225 0.000298034 0.000103891
0.000298034 -0.000405282 7.33316e-06
0.000103891 7.33316e-06 -0.00110717
0.00294344 0.000158064 -3.21009e-05
0.000158064 0.00150953 1.82681e-05
-3.21009e-05 1.82681e-05 0.000730678
0.000762883 -4.64498e-05 -8.98902e-06
-4.64498e-05 0.000467985 1.27064e-05
-8.98902e-06 1.27064e-05 0.000414158
0.0160811 -0.00185294 0.00013621
-0.00185294 0.00705412 -4.30421e-05
0.00013621 -4.30421e-05 0.00281033
0.011855 0.00192662 -6.70602e-05
0.00192662 0.0042782 -5.45743e-05
-6.70602e-05 -5.45743e-05 0.00313862
0.00424095 -0.000567177 -8.50955e-05
-0.000567177 0.00163216 0.000135717
-8.50955e-05 0.000135717 -0.00166278
-0.00699151 0.00310851 0.00084177
0.00310851 -0.00276911 -0.000641006
0.00084177 -0.000641006 -0.00168279
0.000673979 -0.000203376 1.19889e-05
-0.000203376 0.000712142 -4.03693e-06
1.19889e-05 -4.03693e-06 0.000157464
0.000732708 -0.000166807 3.26757e-06
-0.000166807 2.23102e-05 1.29309e-05
3.26757e-06 1.29309e-05 -0.00181654
-0.00289806 0.000154586 -0.000463369
0.000154586 0.0026247 0.000191162
-0.000463369 0.000191162 0.000689336
0.00132924 -0.00038072 -2.28572e-05
-0.00038072 0.000398666 3.5524e-05
-2.28572e-05 3.5524e-05 4.3639e-05
0.0127637 0.00252132 0.000119302
0.00252132 0.00382596 8.34682e-05
0.000119302 8.34682e-05 0.0039278
0.00785545 -0.00177261 9.60657e-05
-0.00177261 0.00323186 -5.73644e-05
9.60657e-05 -5.73644e-05 8.46469e-05
0.0022691 -0.000503121 3.77782e-06
-0.000503121 0.0010269 2.30497e-05
3.77782e-06 2.30497e-05 0.000886962
-0.00469096 -0.000517817 4.54178e-05
-0.000517817 0.00206238 -2.84506e-05
4.54178e-05 -2.84506e-05 -0.000405176
0.011023 0.00233004 -0.000518809
0.00233004 0.00491281 0.000242541
-0.000518809 0.000242541 0.00452461
0.0024972 -0.00111962 -0.000226156
-0.00111962 -0.000396995 0.000147062
-0.000226156 0.000147062 -0.0037147
0.0024537 -0.00102931 0.00010741
-0.00102931 0.000504848 -5.26451e-05
0.00010741 -5.26451e-05 0.000538285
-0.000285881 -0.000194261 -4.97985e-05
-0.000194261 -8.86469e-07 1.44864e-05
-4.97985e-05 1.44864e-05 -0.000300427
0.000614017 -0.000314901 -7.75021e-06
-0.000314901 0.000277877 9.40292e-06
-7.75021e-06 9.40292e-06 5.97843e-05
0.00390544 -0.000637806 3.00555e-05
-0.000637806 0.00168107 2.33166e-06
3.00555e-05 2.33166e-06 0.00150557
-0.00286064 -5.31209e-05 -1.47598e-06
-5.31209e-05 -0.00159033 1.02736e-05
-1.47598e-06 1.02736e-05 -0.00182625
0.000838558 -0.000357695 4.36252e-06
-0.000357695 8.28313e-05 1.94383e-06
4.36252e-06 1.94383e-06 -0.000186428
0.00229058 -0.000587317 5.29167e-06
-0.000587317 0.000556305 1.34003e-06
5.29167e-06 1.34003e-06 0.000294753
0.00307282 -0.000536041 -1.5388e-05
-0.000536041 0.00130828 5.1671e-06
-1.5388e-05 5.1671e-06 0.00093959
0.00130146 -0.000428226 -2.35166e-06
-0.000428226 0.0002277 -3.91523e-06
-2.35166e-06 -3.91523e-06 -0.000172759
0.00176638 -0.000554585 4.96363e-06
-0.000554585 0.000252707 -6.41572e-06
4.96363e-06 -6.41572e-06 -6.28689e-05
0.00258566 -0.000548355 -3.47265e-06
-0.000548355 0.000875488 -9.69233e-07
-3.47265e-06 -9.69233e-07 0.000485201
0.00167615 -0.000484469 2.79024e-07
-0.000484469 0.000333357 -3.67437e-06
2.79024e-07 -3.67437e-06 -3.51997e-05
0.0021019 -0.000493016 6.33114e-07
-0.000493016 0.000415909 -6.89502e-06
6.33114e-07 -6.89502e-06 0.000144216
0.001681 -0.000378689 -3.68253e-06
-0.000378689 0.000115264 -3.30173e-06
-3.68253e-06 -3.30173e-06 -9.64553e-05
0.00160137 -0.000456112 1.35151e-06
-0.000456112 0.000168751 -7.97107e-07
1.35151e-06 -7.97107e-07 -0.000106679
0.00180329 -0.000462004 1.97636e-06
-0.000462004 0.000306854 -2.53404e-06
1.97636e-06 -2.53404e-06 2.98472e-05
0.00170995 -0.000401323 -2.5005e-07
-0.000401323 0.000377436 1.70482e-06
-2.5005e-07 1.70482e-06 0.000109004
0.00180927 -0.000475068 -2.1693e-06
-0.000475068 0.000391387 1.42933e-07
-2.1693e-06 1.42933e-07 8.85694e-05
0.0017665 -0.00048663 1.50859e-06
-0.00048663 0.000367125 -3.70315e-06
1.50859e-06 -3.70315e-06 3.60943e-05
0.00133603 -0.000291337 3.20985e-06
-0.000291337 0.000295872 1.04146e-06
3.20985e-06 1.04146e-06 6.78183e-05
0.000853619 -0.000269957 8.39127e-07
-0.000269957 -2.05645e-05 -1.064e-08
8.39127e-07 -1.064e-08 -0.000244467
0.00125104 -0.000317152 4.03161e-06
-0.000317152 0.000193511 -3.16915e-06
4.03161e-06 -3.16915e-06 -4.58384e-05
0.000662477 -0.000195461 -2.53569e-07
-0.000195461 4.3522e-05 4.58746e-07
-2.53569e-07 4.58746e-07 -0.000156461
0.000931138 -0.000227554 2.58097e-08
-0.000227554 0.000156621 -2.91268e-07
2.58097e-08 -2.91268e-07 -6.25566e-05
0.00074752 -0.000227337 -3.52425e-06
-0.000227337 -3.85798e-06 -1.59294e-06
-3.52425e-06 -1.59294e-06 -0.000217847
0.000302845 1.33794e-05 1.36514e-07
1.33794e-05 -0.000139287 5.08314e-06
1.36514e-07 5.08314e-06 -0.000255745
0.000780089 -0.000114757 1.12247e-06
-0.000114757 0.000175764 5.25484e-07
1.12247e-06 5.25484e-07 -1.18304e-05
0.00106515 -0.000169839 -2.16753e-06
-0.000169839 0.000344745 2.2283e-07
-2.16753e-06 2.2283e-07 0.000144142
0.00145139 8.66572e-05 -1.80553e-05
8.66572e-05 0.000546496 4.91385e-06
-1.80553e-05 4.91385e-06 0.000511963
0.000676567 -1.31894e-05 -4.35068e-08
-1.31894e-05 7.24947e-05 -6.09391e-07
-4.35068e-08 -6.09391e-07 -1.66199e-05
0.00120874 -7.67933e-05 -1.76131e-06
-7.67933e-05 0.000430126 -1.72838e-06
-1.76131e-06 -1.72838e-06 0.000277235
0.000737683 4.95945e-05 -2.96325e-05
4.95945e-05 0.00011117 3.81393e-06
-2.96325e-05 3.81393e-06 0.00010824
0.000987389 6.71191e-05 -9.13829e-06
6.71191e-05 0.000257489 -1.46619e-07
-9.13829e-06 -1.46619e-07 0.000228206
0.000662908 1.8519e-06 1.09115e-06
1.8519e-06 5.64408e-05 -3.58383e-06
1.09115e-06 -3.58383e-06 -1.70898e-05
0.00054488 5.41825e-05 -2.52649e-07
5.41825e-05 -1.68809e-05 -5.46968e-06
-2.52649e-07 -5.46968e-06 -4.39689e-05
0.00246659 0.000104756 4.29336e-06
0.000104756 0.00114656 3.88753e-07
4.29336e-06 3.88753e-07 0.00115001
0.00240222 9.11793e-05 2.27655e-05
9.11793e-05 0.0011005 -3.95244e-06
2.27655e-05 -3.95244e-06 0.00110706
0.000759453 6.75749e-05 7.10211e-07
6.75749e-05 0.000133002 1.06071e-06
7.10211e-07 1.06071e-06 6.42688e-06
0.000790054 8.087e-05 5.62026e-07
8.087e-05 0.000169245 -2.0492e-06
5.62026e-07 -2.0492e-06 3.9086e-05
0.000594481 5.0492e-05 -3.70536e-07
5.0492e-05 3.22936e-05 4.80259e-07
-3.70536e-07 4.80259e-07 -9.09479e-05
0.000636785 9.66137e-06 -7.55619e-08
9.66137e-06 3.79083e-05 -3.12149e-06
-7.55619e-08 -3.12149e-06 -3.77343e-05
0.000724867 6.73689e-05 5.78518e-07
6.73689e-05 0.000118097 3.18002e-08
5.78518e-07 3.18002e-08 3.05633e-06
0.000539931 -1.92964e-05 -8.92518e-07
-1.92964e-05 -3.3838e-05 -5.63794e-06
-8.92518e-07 -5.63794e-06 -5.81011e-05
0.000605606 2.30578e-05 -2.68379e-08
2.30578e-05 2.03979e-05 -1.34335e-07
-2.68379e-08 -1.34335e-07 -4.98634e-05
0.000730911 6.83185e-05 -8.50829e-07
6.83185e-05 0.000138226 1.61184e-06
-8.50829e-07 1.61184e-06 1.64262e-05
0.00248787 -6.81664e-05 -2.80764e-05
-6.81664e-05 0.00113779 -4.50401e-06
-2.80764e-05 -4.50401e-06 0.0011489
0.000531143 -2.05872e-05 -5.25961e-07
-2.05872e-05 -4.36416e-05 -5.34235e-08
-5.25961e-07 -5.34235e-08 -6.34343e-05
0.000600763 3.21308e-05 2.34309e-07
3.21308e-05 1.76497e-05 2.56165e-06
2.34309e-07 2.56165e-06 -4.59586e-05
0.00234811 -5.2142e-05 -4.50668e-06
-5.2142e-05 0.00104956 2.43198e-07
-4.50668e-06 2.43198e-07 0.00106356
0.000532437 -1.81321e-05 -1.12756e-06
-1.81321e-05 -4.56054e-05 4.21744e-06
-1.12756e-06 4.21744e-06 -6.12487e-05
0.00221708 -3.56129e-05 1.64205e-05
-3.56129e-05 0.000967777 4.59083e-06
1.64205e-05 4.59083e-06 0.00098432
0.00496419 0.000119525 0.0001177
0.000119525 0.00206325 2.41888e-05
0.0001177 2.41888e-05 0.000849461
9.55542e-05 -6.66143e-05 -8.00585e-07
-6.66143e-05 -3.70073e-05 -7.26534e-07
-8.00585e-07 -7.26534e-07 3.95764e-05
0.00129096 -7.33213e-05 -1.83494e-05
-7.33213e-05 -0.000428631 4.23456e-06
-1.83494e-05 4.23456e-06 -0.000102879
0.000443109 0.000104149 -6.21316e-06
0.000104149 -6.51089e-05 -1.814e-06
-6.21316e-06 -1.814e-06 -0.000191963
0.000816353 6.58651e-05 -1.20968e-06
6.58651e-05 0.000166453 4.31955e-08
-1.20968e-06 4.31955e-08 4.27938e-05
0.000508263 4.03262e-05 5.39111e-07
4.03262e-05 -4.19985e-05 1.04725e-08
5.39111e-07 1.04725e-08 -0.000160742
0.00082207 4.27135e-05 1.31885e-07
4.27135e-05 0.000153419 -2.02883e-07
1.31885e-07 -2.02883e-07 3.18265e-05
0.000707781 8.1939e-05 -8.30446e-07
8.1939e-05 7.83576e-05 2.20332e-07
-8.30446e-07 2.20332e-07 -4.24381e-05
0.00121475 0.000145612 5.99812e-07
0.000145612 0.000412596 -8.4704e-07
5.99812e-07 -8.4704e-07 0.000268439
0.000862563 0.000111843 -1.04972e-06
0.000111843 0.000176656 -6.97025e-06
-1.04972e-06 -6.97025e-06 1.26594e-05
4.526e-06 2.66295e-05 7.8952e-07
2.66295e-05 -0.000274881 1.09311e-06
7.8952e-07 1.09311e-06 -0.000418961
0.000796656 0.000118966 -1.86045e-06
0.000118966 0.000165022 1.00058e-06
-1.86045e-06 1.00058e-06 3.01003e-05
0.000418084 2.46826e-05 -3.31234e-06
2.46826e-05 -8.34638e-05 -2.6404e-06
-3.31234e-06 -2.6404e-06 -0.000194678
0.00052415 6.00871e-05 -1.00623e-07
6.00871e-05 2.4931e-05 9.65773e-07
-1.00623e-07 9.65773e-07 -0.000114181
0.00155079 0.000173298 1.00631e-05
0.000173298 0.00068329 6.22579e-06
1.00631e-05 6.22579e-06 0.000525153
0.00101562 -0.0010144 0.000126827
-0.0010144 0.00273955 0.000209751
0.000126827 0.000209751 0.000375911
0.00379398 0.000375275 2.69216e-05
0.000375275 0.00210782 9.33233e-05
2.69216e-05 9.33233e-05 -0.00129115
0.000945413 0.00011642 -2.40814e-05
0.00011642 0.000249309 -4.43138e-05
-2.40814e-05 -4.43138e-05 -0.00143879
0.0106654 -0.00220695 -0.00029096
-0.00220695 0.0017146 -0.000208559
-0.00029096 -0.000208559 0.00231467
0.00580041 -0.000802095 8.02135e-05
-0.000802095 0.00158618 0.000269196
8.02135e-05 0.000269196 5.18812e-05
0.000923535 -0.000844545 -0.000103983
-0.000844545 0.002113 8.94717e-05
-0.000103983 8.94717e-05 -0.00283694
0.000945996 -0.000366298 8.63952e-06
-0.000366298 0.00020207 5.39121e-05
8.63952e-06 5.39121e-05 -0.00035455
0.00220864 -0.000109651 2.79532e-05
-0.000109651 0.000706172 5.25739e-05
2.79532e-05 5.25739e-05 0.000333628
0.00149455 -0.00295637 0.000144387
-0.00295637 -0.000172075 0.000155051
0.000144387 0.000155051 0.000912077
0.00455787 0.000981429 -1.67651e-05
0.000981429 0.00370291 -2.99518e-05
-1.67651e-05 -2.99518e-05 -0.000924658
0.00343273 -0.00150413 -4.63775e-05
-0.00150413 -0.000475304 5.76248e-05
-4.63775e-05 5.76248e-05 -0.00127803
0.000550802 0.000335932 -1.05095e-05
0.000335932 6.86609e-05 5.15903e-05
-1.05095e-05 5.15903e-05 -5.55329e-05
0.00827269 0.00122796 -4.47327e-05
0.00122796 0.00380477 -2.38524e-05
-4.47327e-05 -2.38524e-05 0.000534579
0.0046103 -0.00250358 -0.000289117
-0.00250358 0.000301852 -0.000240999
-0.000289117 -0.000240999 0.000229549
0.000883624 0.000343339 6.61992e-06
0.000343339 0.000208247 -1.2686e-05
6.61992e-06 -1.2686e-05 5.73181e-05
0.000627148 9.55555e-05 2.76058e-06
9.55555e-05 0.000161312 -3.26622e-07
2.76058e-06 -3.26622e-07 2.40338e-05
0.000393622 4.28916e-05 -4.09331e-06
4.28916e-05 -2.05454e-05 -2.16668e-06
-4.09331e-06 -2.16668e-06 -0.00017854
-0.000153817 -8.90523e-05 -0.000161454
-8.90523e-05 0.00106371 -4.42785e-05
-0.000161454 -4.42785e-05 -0.000162854
-0.00186674 0.000152828 1.77119e-06
0.000152828 -0.00094176 -1.63631e-05
1.77119e-06 -1.63631e-05 -0.00127009
-0.000147776 9.79498e-05 -5.86779e-06
9.79498e-05 -0.000125873 4.34211e-06
-5.86779e-06 4.34211e-06 -0.000350619
0.000549267 0.000331134 1.23809e-05
0.000331134 0.000271048 3.22557e-06
1.23809e-05 3.22557e-06 1.45744e-05
0.000694453 0.00027911 1.50318e-06
0.00027911 0.000594098 -3.43764e-05
1.50318e-06 -3.43764e-05 -0.000155609
-5.09571e-05 0.000557449 3.24755e-05
0.000557449 -0.000442132 7.5672e-06
3.24755e-05 7.5672e-06 -0.000826865
-0.00177479 0.000392522 0.00017402
0.000392522 0.00358862 3.98678e-06
0.00017402 3.98678e-06 0.000555404
0.00215862 -1.4373e-05 -5.66021e-06
-1.4373e-05 0.00137225 2.61633e-05
-5.66021e-06 2.61633e-05 -0.000314651
-0.000279405 -1.71028e-05 1.55522e-08
-1.71028e-05 0.000265066 1.79328e-05
1.55522e-08 1.79328e-05 -0.000143641
0.000129766 -0.000144132 -5.71186e-05
-0.000144132 0.000528082 5.62721e-06
-5.71186e-05 5.62721e-06 -3.2957e-05
-0.00050632 -0.000112902 -6.45439e-05
-0.000112902 -0.00100615 2.47661e-05
-6.45439e-05 2.47661e-05 -0.000760444
0.00113115 -0.000132508 -0.000100278
-0.000132508 0.000183325 3.91934e-05
-0.000100278 3.91934e-05 -0.00161714
-0.00236957 -0.00157841 8.52226e-05
-0.00157841 8.10887e-05 -0.000108084
8.52226e-05 -0.000108084 -0.00416335
-0.000347133 0.00207306 0.000236714
0.00207306 -0.0031683 -0.000207258
0.000236714 -0.000207258 -0.00291619
0.0031067 0.00095253 -0.00023075
0.00095253 0.00389599 0.000171864
-0.00023075 0.000171864 0.00243635
0.00146685 -0.000253112 -6.38961e-06
-0.000253112 0.000625426 -2.40638e-06
-6.38961e-06 -2.40638e-06 0.000560435
0.00146603 0.00020692 3.77576e-05
0.00020692 0.00393665 6.05719e-06
3.77576e-05 6.05719e-06 0.0022599
-0.00314127 0.00145519 2.52751e-05
0.00145519 -0.000696465 1.85704e-05
2.52751e-05 1.85704e-05 -0.00236544
0.00354539 -0.00122309 5.20552e-05
-0.00122309 0.0012535 -1.46418e-05
5.20552e-05 -1.46418e-05 0.000732621
0.0121072 -0.00104345 1.79427e-05
-0.00104345 0.00373646 -1.22469e-05
1.79427e-05 -1.22469e-05 0.00181892
0.00322022 -0.000761631 -1.13778e-05
-0.000761631 0.00112461 2.2482e-05
-1.13778e-05 2.2482e-05 0.00110133
-0.00851545 0.000550419 -0.000236875
0.000550419 -0.00379875 1.05894e-05
-0.000236875 1.05894e-05 -0.00487299
0.0129218 -0.000622157 -0.000111175
-0.000622157 0.00315722 3.45754e-05
-0.000111175 3.45754e-05 0.00159199
0.00333452 -0.00137209 2.68147e-05
-0.00137209 -0.000164037 -2.85597e-05
2.68147e-05 -2.85597e-05 -0.000582477
-0.000118648 -0.000219561 -1.46505e-05
-0.000219561 -5.0955e-05 1.61902e-05
-1.46505e-05 1.61902e-05 -0.000338298
0.00157078 -0.000476346 -3.92959e-06
-0.000476346 0.000324359 9.61936e-07
-3.92959e-06 9.61936e-07 0.000272227
0.003743 -0.000607169 1.22015e-05
-0.000607169 0.00127961 -4.09302e-06
1.22015e-05 -4.09302e-06 0.00115103
-0.00135702 -0.000134716 -5.55536e-06
-0.000134716 -0.00103861 2.66627e-06
-5.55536e-06 2.66627e-06 -0.00130815
0.00132078 -0.000489331 -5.55935e-06
-0.000489331 8.43477e-05 -2.66823e-06
-5.55935e-06 -2.66823e-06 -0.000186881
0.00233483 -0.000620299 3.69346e-06
-0.000620299 0.00042234 -1.0963e-06
3.69346e-06 -1.0963e-06 0.000185329
0.00133506 -0.000423169 -1.60458e-05
-0.000423169 0.000223102 -1.27313e-06
-1.60458e-05 -1.27313e-06 -0.000157622
0.00154882 -0.000524004 -4.23726e-08
-0.000524004 0.000146654 4.0158e-07
-4.23726e-08 4.0158e-07 -0.000171584
0.0015919 -0.000463643 1.35e-06
-0.000463643 -1.4707e-05 -5.89805e-06
1.35e-06 -5.89805e-06 -0.000223636
0.00126931 -0.000451572 -4.21018e-06
-0.000451572 8.39204e-05 -4.24346e-07
-4.21018e-06 -4.24346e-07 -0.000270112
0.00164645 -0.000448928 -4.67995e-07
-0.000448928 0.000166428 6.2017e-07
-4.67995e-07 6.2017e-07 -9.72085e-05
0.00175532 -0.000372162 -1.59978e-06
-0.000372162 9.71993e-05 -5.21705e-06
-1.59978e-06 -5.21705e-06 -7.34474e-05
0.00165003 -0.000297785 -4.70891e-06
-0.000297785 5.08451e-05 -2.82238e-06
-4.70891e-06 -2.82238e-06 -9.70332e-05
0.00153984 -0.000367359 -3.69291e-06
-0.000367359 5.31e-05 -2.15041e-06
-3.69291e-06 -2.15041e-06 -0.000163507
0.00164789 -0.000368074 1.11639e-06
-0.000368074 0.000103822 1.71374e-06
1.11639e-06 1.71374e-06 -0.000102556
0.00145172 -0.000392348 -2.61892e-06
-0.000392348 0.000130516 -1.09315e-06
-2.61892e-06 -1.09315e-06 -0.000126152
0.00170511 -0.000458795 1.68085e-06
-0.000458795 0.000238778 -2.0038e-07
1.68085e-06 -2.0038e-07 -3.43195e-05
0.00168166 -0.000449985 1.79037e-06
-0.000449985 0.00023976 1.85261e-07
1.79037e-06 1.85261e-07 -3.33712e-05
0.00146154 -0.00032618 -1.96085e-06
-0.00032618 0.000283105 1.70876e-06
-1.96085e-06 1.70876e-06 4.54351e-05
0.00154293 -0.000388025 1.04277e-06
-0.000388025 0.000282549 -5.23674e-07
1.04277e-06 -5.23674e-07 1.63671e-05
0.00176234 -0.000470818 -2.38837e-06
-0.000470818 0.000381622 -1.5305e-06
-2.38837e-06 -1.5305e-06 7.45232e-05
0.000925077 -0.000222963 -1.74001e-06
-0.000222963 0.000103116 2.6325e-06
-1.74001e-06 2.6325e-06 -9.96687e-05
0.00121341 -0.000279554 1.37656e-06
-0.000279554 0.00021728 2.98609e-07
1.37656e-06 2.98609e-07 -8.30539e-06
0.000989522 -0.000278197 -4.31431e-07
-0.000278197 6.32939e-05 -3.60116e-06
-4.31431e-07 -3.60116e-06 -0.000158882
0.000644193 -9.96913e-05 -1.1777e-06
-9.96913e-05 4.9941e-05 5.1655e-06
-1.1777e-06 5.1655e-06 -0.00010305
0.00100041 -0.000202868 1.32024e-08
-0.000202868 0.000240484 5.93485e-08
1.32024e-08 5.93485e-08 3.8324e-05
0.000503681 -0.000185031 -3.68303e-06
-0.000185031 -9.5578e-05 -6.65453e-07
-3.68303e-06 -6.65453e-07 -0.000305423
0.000377913 3.37146e-05 -8.67326e-07
3.37146e-05 -9.80354e-05 8.46597e-06
-8.67326e-07 8.46597e-06 -0.000145021
0.000679091 -6.37397e-05 -6.36505e-07
-6.37397e-05 8.30748e-05 -4.64004e-07
-6.36505e-07 -4.64004e-07 -4.139e-05
0.00131197 -0.000138109 9.8528e-07
-0.000138109 0.000497162 -1.94416e-06
9.8528e-07 -1.94416e-06 0.000300608
0.00273737 0.000151054 -6.01514e-06
0.000151054 0.00132713 2.10591e-06
-6.01514e-06 2.10591e-06 0.00131741
0.000517379 4.57996e-05 -2.93188e-07
4.57996e-05 -2.00799e-05 -1.8722e-07
-2.93188e-07 -1.8722e-07 -5.72837e-05
0.000836302 -3.81957e-05 2.55844e-06
-3.81957e-05 0.000166363 -4.52987e-06
2.55844e-06 -4.52987e-06 7.42776e-05
0.00258078 0.000118799 4.27042e-06
0.000118799 0.00122244 3.42341e-07
4.27042e-06 3.42341e-07 0.00122263
0.00056243 4.96403e-05 3.10285e-07
4.96403e-05 1.32156e-06 -6.04641e-06
3.10285e-07 -6.04641e-06 -2.94873e-05
0.00252694 0.000107039 2.95732e-05
0.000107039 0.00118348 -3.39944e-06
2.95732e-05 -3.39944e-06 0.00118648
0.000890026 0.000130934 1.30201e-06
0.000130934 0.000202046 2.43987e-06
1.30201e-06 2.43987e-06 5.96972e-05
0.000766558 7.82452e-05 1.0676e-07
7.82452e-05 0.000139915 7.04618e-08
1.0676e-07 7.04618e-08 9.14514e-06
0.000826321 6.96826e-05 3.20317e-07
6.96826e-05 0.000194644 -2.68144e-06
3.20317e-07 -2.68144e-06 5.36383e-05
0.000651341 8.98015e-06 -5.76842e-07
8.98015e-06 5.21682e-05 -3.92426e-06
-5.76842e-07 -3.92426e-06 -3.04576e-05
0.000714659 4.94246e-05 2.73288e-07
4.94246e-05 0.000115156 2.75492e-07
2.73288e-07 2.75492e-07 -7.94898e-06
0.000546119 6.65418e-05 7.89789e-07
6.65418e-05 1.06873e-05 1.43976e-06
7.89789e-07 1.43976e-06 -0.000118648
0.000546559 -1.91827e-05 -1.58391e-06
-1.91827e-05 -2.62697e-05 -6.26183e-06
-1.58391e-06 -6.26183e-06 -5.47281e-05
0.00062094 1.61596e-05 -2.70088e-08
1.61596e-05 3.1926e-05 -9.15097e-08
-2.70088e-08 -9.15097e-08 -4.4925e-05
0.000680058 6.36988e-05 4.0585e-08
6.36988e-05 8.76765e-05 1.40684e-06
4.0585e-08 1.40684e-06 -2.25538e-05
0.00262729 -8.3047e-05 -3.61242e-05
-8.3047e-05 0.00122682 -4.23298e-06
-3.61242e-05 -4.23298e-06 0.00123502
0.000515534 -2.08257e-05 1.79146e-07
-2.08257e-05 -4.87555e-05 -1.07123e-07
1.79146e-07 -1.07123e-07 -7.2726e-05
0.00060935 2.60568e-05 9.15456e-08
2.60568e-05 2.34182e-05 2.88386e-06
9.15456e-08 2.88386e-06 -4.7164e-05
0.00246152 -6.72253e-05 -4.95118e-06
-6.72253e-05 0.00112151 3.13841e-07
-4.95118e-06 3.13841e-07 0.00113289
0.000522694 -2.18328e-05 -9.62876e-07
-2.18328e-05 -4.85963e-05 4.90587e-06
-9.62876e-07 4.90587e-06 -6.82606e-05
0.00231292 -5.0666e-05 2.05493e-05
-5.0666e-05 0.00102809 4.50579e-06
2.05493e-05 4.50579e-06 0.00104247
-0.00635894 0.000343318 -1.09327e-05
0.000343318 0.00162782 4.77929e-05
-1.09327e-05 4.77929e-05 -0.00156863
0.004736 4.20427e-05 -5.33532e-06
4.20427e-05 0.00223 3.25534e-06
-5.33532e-06 3.25534e-06 0.00102024
0.000140152 -6.99827e-05 -8.1111e-06
-6.99827e-05 -6.6098e-05 -6.56276e-06
-8.1111e-06 -6.56276e-06 -2.42557e-05
0.000368467 7.18028e-05 -1.45528e-06
7.18028e-05 -0.000113575 1.46896e-06
-1.45528e-06 1.46896e-06 -0.000234235
0.00251824 0.000363809 4.57382e-07
0.000363809 0.0011776 4.19798e-06
4.57382e-07 4.19798e-06 0.000979874
0.000638537 7.48585e-05 -3.67824e-06
7.48585e-05 4.59331e-05 -2.45671e-07
-3.67824e-06 -2.45671e-07 -9.18296e-05
0.00102465 4.59092e-05 -1.19474e-06
4.59092e-05 0.000268652 -2.20142e-06
-1.19474e-06 -2.20142e-06 0.000149007
0.00136347 0.000140361 2.63515e-06
0.000140361 0.000462289 1.40035e-07
2.63515e-06 1.40035e-07 0.000335387
0.000318823 5.25601e-05 -3.05282e-06
5.25601e-05 -0.000134125 3.18002e-06
-3.05282e-06 3.18002e-06 -0.00025303
0.000512804 7.13706e-05 -1.15931e-06
7.13706e-05 2.92614e-05 1.31834e-06
-1.15931e-06 1.31834e-06 -0.000126102
0.000679267 8.83912e-05 -1.92056e-06
8.83912e-05 7.34362e-05 -2.27694e-06
-1.92056e-06 -2.27694e-06 -8.30192e-05
0.000984624 0.000168039 2.50476e-06
0.000168039 0.00029582 -4.86268e-06
2.50476e-06 -4.86268e-06 9.62081e-05
0.000609747 0.000252351 2.379e-06
0.000252351 -2.14116e-05 -2.76022e-06
2.379e-06 -2.76022e-06 -0.000135294
0.00101855 8.81672e-05 -3.18701e-06
8.81672e-05 0.000323272 4.69673e-07
-3.18701e-06 4.69673e-07 0.000173853
0.00104483 0.000148728 6.79828e-07
0.000148728 0.000390105 3.36966e-06
6.79828e-07 3.36966e-06 0.000231689
-0.00471185 -0.00105533 -0.000498584
-0.00105533 -0.000799049 -3.38016e-05
-0.000498584 -3.38016e-05 -0.00236147
-0.00329047 -0.000758056 0.0002033
-0.000758056 0.00191917 0.000100482
0.0002033 0.000100482 -0.000791995
0.00432004 0.000422954 -0.000174288
0.000422954 0.00208223 -7.84691e-05
-0.000174288 -7.84691e-05 -0.00146907
-0.00735828 -0.00304083 0.000712953
-0.00304083 -0.00264812 0.000558499
0.000712953 0.000558499 -0.00173266
0.0148693 -0.00173106 -4.53663e-05
-0.00173106 0.00456831 0.00016217
-4.53663e-05 0.00016217 0.0041035
-0.00167204 0.00113395 -6.52999e-06
0.00113395 0.000482914 -8.77957e-05
-6.52999e-06 -8.77957e-05 -0.00388446
0.0023858 1.21407e-06 -0.000138582
1.21407e-06 0.00118034 2.41596e-05
-0.000138582 2.41596e-05 0.00024666
0.0021109 0.000445868 5.62126e-06
0.000445868 0.000799659 2.67966e-05
5.62126e-06 2.67966e-05 0.000546934
0.010666 -0.00192406 -0.000212841
-0.00192406 0.00493635 5.58986e-05
-0.000212841 5.58986e-05 0.00448539
-0.000286639 0.00126372 -2.04293e-05
0.00126372 0.000555386 -3.37362e-05
-2.04293e-05 -3.37362e-05 -0.00298644
0.00196701 0.000902338 -3.06453e-05
0.000902338 0.000384515 -6.0142e-05
-3.06453e-05 -6.0142e-05 0.000434814
0.00425032 0.00186168 -0.000204726
0.00186168 3.70509e-05 -0.00011681
-0.000204726 -0.00011681 -0.00238335
0.00227862 0.000684251 1.81597e-05
0.000684251 0.000646797 -1.99739e-05
1.81597e-05 -1.99739e-05 0.000397886
0.000826556 0.000318197 -4.67972e-06
0.000318197 0.000179006 5.47109e-07
-4.67972e-06 5.47109e-07 3.79428e-05
0.00112446 0.00010416 -6.99999e-06
0.00010416 0.000438354 4.11753e-06
-6.99999e-06 4.11753e-06 0.000312184
-0.00107651 0.000219444 -4.84132e-05
0.000219444 -0.000418479 -4.96394e-05
-4.84132e-05 -4.96394e-05 -0.00107641
0.00254802 0.00050113 -2.42832e-05
0.00050113 0.00129455 -1.62174e-05
-2.42832e-05 -1.62174e-05 0.00103603
0.00133668 0.000685777 1.4028e-05
0.000685777 0.000209213 -4.12934e-06
1.4028e-05 -4.12934e-06 -0.000171716
0.00295344 0.00106093 0.000107722
0.00106093 0.000382358 3.34671e-05
0.000107722 3.34671e-05 0.000226686
-0.00493455 -0.000114635 -0.000305667
-0.000114635 -0.00400709 6.7249e-06
-0.000305667 6.7249e-06 -0.00277687
-0.00385066 0.000219823 0.000153763
0.000219823 0.00301114 2.86898e-06
0.000153763 2.86898e-06 -0.000136203
0.00231404 -6.08454e-05 -7.638e-05
-6.08454e-05 0.00150527 3.10642e-05
-7.638e-05 3.10642e-05 0.000228428
0.00192937 -0.000324882 -5.4295e-05
-0.000324882 0.000672038 -3.92036e-05
-5.4295e-05 -3.92036e-05 0.000604557
0.00127411 -0.00104109 -1.26785e-05
-0.00104109 -0.000121835 1.63989e-05
-1.26785e-05 1.63989e-05 -0.000451955
0.00143474 0.000160404 -1.89691e-05
0.000160404 0.00383911 3.14043e-05
-1.89691e-05 3.14043e-05 0.00231082
0.0028518 -0.00113496 0.000201282
-0.00113496 -3.13217e-05 -0.000136948
0.000201282 -0.000136948 -0.00255126
0.0115939 0.0014137 0.000189899
0.0014137 0.00535534 -1.05952e-05
0.000189899 -1.05952e-05 0.00429873
0.00269395 -0.000888183 -2.38886e-05
-0.000888183 0.000691311 7.34694e-06
-2.38886e-05 7.34694e-06 0.000494107
-0.000236155 0.000634962 0.000101547
0.000634962 -0.000401967 -2.50411e-05
0.000101547 -2.50411e-05 -0.00109289
0.00529666 -0.000573835 -6.65959e-05
-0.000573835 -0.000561897 6.32765e-05
-6.65959e-05 6.32765e-05 -0.00274885
0.0056144 -0.00151075 -3.54796e-05
-0.00151075 0.00102119 1.79422e-05
-3.54796e-05 1.79422e-05 0.000541906
0.00161966 -0.000630009 5.17701e-05
-0.000630009 9.01445e-05 -1.29935e-05
5.17701e-05 -1.29935e-05 -0.000136028
0.0108228 -0.000490747 4.35225e-06
-0.000490747 0.00255069 -2.53498e-05
4.35225e-06 -2.53498e-05 0.000988821
0.00353917 -0.000808382 8.05371e-05
-0.000808382 -0.00081965 -4.83588e-05
8.05371e-05 -4.83588e-05 -0.000582936
-0.00100689 -0.000279337 -2.3571e-05
-0.000279337 -0.00113824 1.28593e-05
-2.3571e-05 1.28593e-05 -0.00108304
0.000371812 -0.000365944 -1.23315e-05
-0.000365944 -0.000559672 -6.95328e-07
-1.23315e-05 -6.95328e-07 -0.000603823
0.00371904 -0.000624963 3.3356e-05
-0.000624963 0.00100892 -1.87922e-05
3.3356e-05 -1.87922e-05 0.000939869
0.000283139 -0.000382233 -1.38297e-05
-0.000382233 -0.000426269 -7.81556e-06
-1.38297e-05 -7.81556e-06 -0.000699137
0.00177349 -0.000563268 1.34029e-07
-0.000563268 0.00014071 -1.04023e-06
1.34029e-07 -1.04023e-06 -8.30019e-05
0.00226635 -0.000518555 -5.58166e-07
-0.000518555 0.000207686 -1.19948e-06
-5.58166e-07 -1.19948e-06 6.3558e-05
0.00160782 -0.000518684 -3.11479e-06
-0.000518684 0.000182032 4.54819e-06
-3.11479e-06 4.54819e-06 -0.000140318
0.00183601 -0.000482178 -1.99468e-06
-0.000482178 0.00011581 8.35704e-07
-1.99468e-06 8.35704e-07 -9.80269e-05
0.00189163 -0.000375215 4.71027e-07
-0.000375215 6.54606e-05 -9.04151e-07
4.71027e-07 -9.04151e-07 -6.15989e-05
0.00126305 -0.000410086 3.56624e-06
-0.000410086 -4.38374e-05 4.57649e-06
3.56624e-06 4.57649e-06 -0.000300021
0.00173821 -0.00036409 -2.08981e-07
-0.00036409 9.49228e-05 1.05196e-06
-2.08981e-07 1.05196e-06 -7.39187e-05
0.00178679 -0.000309241 -3.50592e-06
-0.000309241 7.03823e-05 -1.12684e-06
-3.50592e-06 -1.12684e-06 -4.63403e-05
0.00200711 -0.000295156 -3.2664e-06
-0.000295156 0.00026468 -4.10107e-07
-3.2664e-06 -4.10107e-07 0.000145208
0.00173204 -0.000300556 -2.53127e-06
-0.000300556 9.31026e-05 3.16769e-06
-2.53127e-06 3.16769e-06 -5.02143e-05
0.00177174 -0.000316439 -1.83927e-06
-0.000316439 0.000154926 -5.39005e-06
-1.83927e-06 -5.39005e-06 -8.36972e-06
0.00169339 -0.000368315 -4.33813e-06
-0.000368315 0.000180196 -1.99351e-06
-4.33813e-06 -1.99351e-06 -3.96657e-05
0.00168893 -0.00037817 1.25487e-06
-0.00037817 0.000141053 4.77188e-07
1.25487e-06 4.77188e-07 -7.64686e-05
0.00161862 -0.000357765 4.26643e-06
-0.000357765 9.34647e-05 6.00609e-06
4.26643e-06 6.00609e-06 -0.000107578
0.00154422 -0.000349401 -6.71961e-06
-0.000349401 0.000250397 1.44241e-06
-6.71961e-06 1.44241e-06 1.16393e-05
0.0014603 -0.000394347 -5.25067e-07
-0.000394347 0.000130527 2.9638e-07
-5.25067e-07 2.9638e-07 -0.000126677
0.00179092 -0.000460633 3.10001e-06
-0.000460633 0.000297894 5.39257e-07
3.10001e-06 5.39257e-07 2.71111e-05
0.00107703 -0.000245543 -4.64511e-06
-0.000245543 0.000114177 3.40432e-06
-4.64511e-06 3.40432e-06 -9.38184e-05
0.00130732 -0.000313692 4.58876e-07
-0.000313692 0.000189214 3.44289e-07
4.58876e-07 3.44289e-07 -4.71002e-05
0.00140302 -0.00037774 2.45597e-06
-0.00037774 0.000201726 -1.84202e-06
2.45597e-06 -1.84202e-06 -6.22359e-05
0.000817548 -0.000161871 -5.67683e-06
-0.000161871 0.000110185 5.01113e-06
-5.67683e-06 5.01113e-06 -5.99252e-05
0.00110859 -0.000239804 8.11237e-07
-0.000239804 0.000212788 -2.22646e-07
8.11237e-07 -2.22646e-07 6.72117e-06
0.00108336 -0.000268106 1.10563e-06
-0.000268106 0.000134135 -1.63507e-06
1.10563e-06 -1.63507e-06 -8.9389e-05
0.000325715 -2.44866e-05 -6.78328e-06
-2.44866e-05 -0.000148012 1.15678e-05
-6.78328e-06 1.15678e-05 -0.000205504
0.000732996 -0.000115402 6.6827e-07
-0.000115402 0.000108466 6.84204e-07
6.6827e-07 6.84204e-07 -5.24144e-05
0.00133371 -0.000224154 4.08508e-07
-0.000224154 0.000436402 -1.36289e-06
4.08508e-07 -1.36289e-06 0.000228533
0.0031121 0.000156937 -5.21861e-05
0.000156937 0.00155516 2.45979e-06
-5.21861e-05 2.45979e-06 0.00154507
0.000515167 1.83211e-05 -1.7919e-07
1.83211e-05 -2.24603e-05 -6.84092e-07
-1.7919e-07 -6.84092e-07 -6.86828e-05
0.00112515 -0.000107163 2.01198e-06
-0.000107163 0.000351245 -5.34311e-06
2.01198e-06 -5.34311e-06 0.000217448
0.00184836 0.00010513 2.54753e-05
0.00010513 0.000788169 5.10324e-07
2.54753e-05 5.10324e-07 0.000780267
0.000613878 3.8848e-05 2.26382e-06
3.8848e-05 3.52556e-05 -7.21828e-06
2.26382e-06 -7.21828e-06 -1.21827e-06
0.00268576 0.000120513 4.09183e-05
0.000120513 0.00128537 -2.83358e-06
4.09183e-05 -2.83358e-06 0.00128529
0.000899964 0.00014375 4.1075e-06
0.00014375 0.00018002 8.33761e-07
4.1075e-06 8.33761e-07 3.90105e-05
0.000548079 7.77612e-05 -1.7683e-07
7.77612e-05 -6.15064e-06 7.46243e-08
-1.7683e-07 7.46243e-08 -0.000133909
0.000625884 5.92471e-05 -2.44198e-07
5.92471e-05 5.08369e-05 -1.48433e-06
-2.44198e-07 -1.48433e-06 -8.03615e-05
0.000914761 0.000100352 4.32599e-07
0.000100352 0.000231227 4.12013e-07
4.32599e-07 4.12013e-07 9.4708e-05
0.000703294 4.35252e-05 2.15174e-07
4.35252e-05 0.00010049 2.96121e-08
2.15174e-07 2.96121e-08 -2.38792e-05
0.000669283 1.40392e-05 -9.93356e-07
1.40392e-05 6.41647e-05 -4.7136e-06
-9.93356e-07 -4.7136e-06 -2.60615e-05
0.000560327 -2.01122e-05 -2.33011e-06
-2.01122e-05 -1.17227e-05 -7.17392e-06
-2.33011e-06 -7.17392e-06 -4.48785e-05
0.000610212 8.87905e-06 2.55611e-07
8.87905e-06 2.90521e-05 -7.67176e-08
2.55611e-07 -7.67176e-08 -5.4258e-05
0.000631089 2.29241e-05 -5.37194e-07
2.29241e-05 4.36456e-05 1.89912e-06
-5.37194e-07 1.89912e-06 -6.34018e-05
0.00273127 -9.65967e-05 -4.54571e-05
-9.65967e-05 0.00129565 -3.92887e-06
-4.54571e-05 -3.92887e-06 0.00130107
0.000515554 -1.74433e-05 -1.17158e-08
-1.74433e-05 -4.3725e-05 -9.31664e-08
-1.17158e-08 -9.31664e-08 -7.20532e-05
0.000588648 1.96809e-05 4.10728e-07
1.96809e-05 1.66165e-05 3.22095e-06
4.10728e-07 3.22095e-06 -6.17595e-05
0.00259767 -8.2682e-05 -5.28391e-06
-8.2682e-05 0.00120858 3.62359e-07
-5.28391e-06 3.62359e-07 0.00121689
0.000504927 -2.47694e-05 -1.19176e-07
-2.47694e-05 -5.47502e-05 5.53761e-06
-1.19176e-07 5.53761e-06 -7.87807e-05
0.0024659 -6.66056e-05 2.57187e-05
-6.66056e-05 0.00112371 4.44953e-06
2.57187e-05 4.44953e-06 0.0011352
-2.65251e-05 0.00031448 -0.000274558
0.00031448 0.0019114 1.79571e-05
-0.000274558 1.79571e-05 0.000646475
-0.0032491 2.92802e-05 1.99697e-05
2.92802e-05 0.00216297 1.4119e-05
1.99697e-05 1.4119e-05 -0.00106497
0.00445603 -2.32985e-05 -8.03114e-05
-2.32985e-05 0.00232 -1.11266e-05
-8.03114e-05 -1.11266e-05 0.00112401
0.000448138 4.61562e-05 2.42838e-06
4.61562e-05 -6.88086e-05 -2.47438e-06
2.42838e-06 -2.47438e-06 -0.000183952
0.000649933 5.66145e-05 2.85892e-06
5.66145e-05 4.91072e-05 1.08462e-06
2.85892e-06 1.08462e-06 -9.51975e-05
0.00177022 0.000285559 -1.66132e-06
0.000285559 0.000739591 1.12852e-06
-1.66132e-06 1.12852e-06 0.000560943
0.00134317 0.000300668 3.48473e-06
0.000300668 0.0003863 -2.43809e-06
3.48473e-06 -2.43809e-06 0.000158454
0.00108462 0.000219727 -5.86756e-06
0.000219727 0.00036742 1.28225e-07
-5.86756e-06 1.28225e-07 0.000177644
0.000904715 0.000122112 1.55685e-07
0.000122112 0.000263889 2.9608e-06
1.55685e-07 2.9608e-06 0.000100263
0.000851281 0.000112592 4.94871e-06
0.000112592 0.00018674 3.58597e-06
4.94871e-06 3.58597e-06 3.11769e-05
0.000621038 0.000170577 -4.80668e-06
0.000170577 9.62203e-05 -3.36452e-06
-4.80668e-06 -3.36452e-06 -9.80757e-05
-0.000358318 0.000160355 1.1111e-06
0.000160355 -0.000552678 -5.20564e-07
1.1111e-06 -5.20564e-07 -0.000741045
0.00169569 0.000366041 4.21077e-06
0.000366041 0.000519043 -2.99554e-06
4.21077e-06 -2.99554e-06 0.000384873
0.00201762 0.000577971 6.93088e-06
0.000577971 0.000419198 -6.76589e-06
6.93088e-06 -6.76589e-06 0.000206565
0.000843824 0.000278766 -5.90904e-06
0.000278766 0.000126987 -7.3214e-07
-5.90904e-06 -7.3214e-07 4.36777e-08
0.000757955 0.000109629 -2.46603e-06
0.000109629 0.000170542 -2.30293e-06
-2.46603e-06 -2.30293e-06 2.56137e-05
0.0118364 0.00101781 -0.000101674
0.00101781 0.0027769 4.14865e-05
-0.000101674 4.14865e-05 0.0012949
-9.18232e-05 -0.000834968 -0.000231804
-0.000834968 0.00231993 -7.99614e-05
-0.000231804 -7.99614e-05 0.000676667
-0.00143058 -0.00122309 0.000147257
-0.00122309 0.00194343 7.62289e-06
0.000147257 7.62289e-06 -0.0008071
-0.000733202 -0.00108055 5.32009e-05
-0.00108055 3.42476e-05 0.000183144
5.32009e-05 0.000183144 -0.00047158
0.0113634 0.00147255 -6.24519e-06
0.00147255 0.00491969 2.71722e-06
-6.24519e-06 2.71722e-06 0.00156845
-0.000373212 0.000288928 -2.17252e-05
0.000288928 -0.000372457 -2.59062e-05
-2.17252e-05 -2.59062e-05 -0.000566429
0.00165722 0.000826839 -2.47901e-05
0.000826839 0.000343712 -1.21454e-05
-2.47901e-05 -1.21454e-05 0.000370506
0.0113079 0.00130492 2.49199e-05
0.00130492 0.00352534 2.42696e-05
2.49199e-05 2.42696e-05 0.00149428
0.00596833 0.00170531 -4.38989e-05
0.00170531 0.000904992 -5.62907e-05
-4.38989e-05 -5.62907e-05 0.000517426
0.00158035 0.000689386 4.86441e-06
0.000689386 0.000132892 -6.34271e-06
4.86441e-06 -6.34271e-06 -4.38108e-05
0.00114759 0.000527879 5.88826e-06
0.000527879 0.000173407 -4.74614e-07
5.88826e-06 -4.74614e-07 -5.76786e-05
0.000926315 0.000294847 -1.80995e-05
0.000294847 0.000255243 1.70133e-05
-1.80995e-05 1.70133e-05 0.00012457
0.00266608 0.000849543 -4.81823e-05
0.000849543 0.000778094 -1.9697e-05
-4.81823e-05 -1.9697e-05 0.000411039
0.00188608 0.000962642 2.45773e-06
0.000962642 -0.000282527 1.96141e-05
2.45773e-06 1.96141e-05 -0.000436715
0.00108748 -0.000372724 -4.15212e-05
-0.000372724 -0.00333525 2.50234e-05
-4.15212e-05 2.50234e-05 -0.00356294
0.00197855 -0.000587869 -9.7762e-08
-0.000587869 0.00127244 -2.37511e-05
-9.7762e-08 -2.37511e-05 0.00133485
-0.00613064 1.89522e-05 0.000177121
1.89522e-05 0.00252036 -4.56515e-06
0.000177121 -4.56515e-06 -0.000779376
0.00163511 -0.000899818 -2.82296e-05
-0.000899818 5.52086e-05 6.74066e-06
-2.82296e-05 6.74066e-06 -0.000249295
0.00326411 -0.00135505 3.5148e-05
-0.00135505 0.000441057 -1.91136e-06
3.5148e-05 -1.91136e-06 -0.000342224
0.00126059 -0.000303086 0.000313777
-0.000303086 0.00223568 -3.16366e-05
0.000313777 -3.16366e-05 0.00118873
0.0128588 -0.000711273 -0.00015416
-0.000711273 0.00335021 7.11881e-05
-0.00015416 7.11881e-05 0.0017546
0.00113929 -0.000619826 -3.06814e-05
-0.000619826 -0.000189611 -2.34096e-06
-3.06814e-05 -2.34096e-06 -0.000363795
0.00891958 5.19199e-05 -7.7972e-05
5.19199e-05 0.000864441 3.25262e-05
-7.7972e-05 3.25262e-05 -0.000212176
0.00491314 -0.000890261 8.18984e-05
-0.000890261 -0.000123147 6.62679e-06
8.18984e-05 6.62679e-06 -0.000291629
0.00366586 -0.000621899 5.80051e-05
-0.000621899 0.00100664 -1.60816e-05
5.80051e-05 -1.60816e-05 0.000675223
0.00318315 -0.000326953 -8.63399e-05
-0.000326953 -0.000264214 6.92733e-06
-8.63399e-05 6.92733e-06 -0.000151313
-0.00255118 -0.000170192 -1.3792e-05
-0.000170192 -0.00217881 5.18758e-06
-1.3792e-05 5.18758e-06 -0.00213826
0.0015214 -0.000485311 -1.39057e-06
-0.000485311 -0.00016809 -4.70783e-07
-1.39057e-06 -4.70783e-07 -0.000200917
0.00251373 -0.000436452 1.86144e-05
-0.000436452 0.000216244 -9.77283e-06
1.86144e-05 -9.77283e-06 0.000248965
0.00111248 -0.000501863 -2.9857e-06
-0.000501863 -0.00018989 3.38755e-06
-2.9857e-06 3.38755e-06 -0.000401688
0.00180994 -0.000475354 -2.1053e-06
-0.000475354 -1.32946e-05 5.62483e-07
-2.1053e-06 5.62483e-07 -0.000153346
0.0020569 -0.000378729 2.14359e-06
-0.000378729 1.65958e-05 7.5117e-07
2.14359e-06 7.5117e-07 -3.549e-05
0.00192681 -0.000485894 -4.99298e-06
-0.000485894 0.000168373 6.77567e-06
-4.99298e-06 6.77567e-06 -4.84349e-05
0.0018911 -0.00037419 3.57947e-07
-0.00037419 6.57123e-05 1.76832e-06
3.57947e-07 1.76832e-06 -5.92479e-05
0.00189604 -0.000336016 -2.91482e-07
-0.000336016 7.59575e-05 2.08353e-06
-2.91482e-07 2.08353e-06 -1.18581e-05
0.0017022 -0.000355817 3.65292e-06
-0.000355817 8.08671e-05 5.77054e-06
3.65292e-06 5.77054e-06 -8.62534e-05
0.00177606 -0.000311638 -4.26687e-07
-0.000311638 6.24737e-05 1.46227e-06
-4.26687e-07 1.46227e-06 -5.53776e-05
0.00200265 -0.000317895 -1.35587e-06
-0.000317895 0.0002042 5.75395e-07
-1.35587e-06 5.75395e-07 9.76657e-05
0.00186069 -0.000289453 -4.04992e-06
-0.000289453 0.000170405 3.49846e-06
-4.04992e-06 3.49846e-06 5.44726e-05
0.0018947 -0.000299585 9.67843e-07
-0.000299585 0.00022017 -3.03427e-06
9.67843e-07 -3.03427e-06 8.76976e-05
0.0018126 -0.000303845 3.32758e-06
-0.000303845 0.0001347 7.84099e-06
3.32758e-06 7.84099e-06 -4.21371e-06
0.00177497 -0.000317398 3.20747e-07
-0.000317398 0.000155506 -8.17034e-07
3.20747e-07 -8.17034e-07 -8.28297e-06
0.00170015 -0.000317413 -1.76166e-06
-0.000317413 0.000142852 -3.39628e-06
-1.76166e-06 -3.39628e-06 -3.83052e-05
0.00162498 -0.000333714 -5.2891e-06
-0.000333714 0.000211036 -1.04619e-06
-5.2891e-06 -1.04619e-06 -6.78154e-06
0.00173587 -0.000372437 2.73986e-07
-0.000372437 0.000206515 -2.73605e-07
2.73986e-07 -2.73605e-07 -1.4756e-05
0.00183539 -0.000388777 4.81356e-06
-0.000388777 0.000228132 2.8815e-06
4.81356e-06 2.8815e-06 9.7196e-06
0.00116269 -0.000250585 -7.41428e-06
-0.000250585 9.69826e-05 2.5291e-06
-7.41428e-06 2.5291e-06 -0.00010609
0.00139652 -0.000334736 -9.44706e-07
-0.000334736 0.000166526 2.28247e-07
-9.44706e-07 2.28247e-07 -7.03948e-05
0.00146383 -0.000395189 2.98219e-06
-0.000395189 0.000127944 7.76953e-07
2.98219e-06 7.76953e-07 -0.000129526
0.000834478 -0.000174008 -7.81636e-06
-0.000174008 4.83751e-05 6.45949e-06
-7.81636e-06 6.45949e-06 -0.000121363
0.0011305 -0.000250858 8.17409e-07
-0.000250858 0.00014462 4.75697e-07
8.17409e-07 4.75697e-07 -6.47787e-05
0.00111599 -0.000296244 3.39307e-06
-0.000296244 7.59771e-05 -1.34241e-06
3.39307e-06 -1.34241e-06 -0.000157808
0.00039539 -9.81589e-05 -1.7172e-05
-9.81589e-05 -0.000134751 1.34443e-05
-1.7172e-05 1.34443e-05 -0.000204939
0.000795021 -0.000174484 -4.30542e-07
-0.000174484 9.67443e-05 3.56582e-07
-4.30542e-07 3.56582e-07 -7.51029e-05
0.00113717 -0.000237222 2.27307e-06
-0.000237222 0.000230827 -1.96833e-06
2.27307e-06 -1.96833e-06 2.57435e-05
0.00384856 0.000176677 -8.30705e-05
0.000176677 0.00199868 3.12113e-06
-8.30705e-05 3.12113e-06 0.00198394
0.000551385 -4.46148e-05 1.30728e-06
-4.46148e-05 -1.7701e-05 -3.52084e-07
1.30728e-06 -3.52084e-07 -7.71785e-05
0.000865841 -0.000165514 4.85574e-06
-0.000165514 0.000187642 -4.55281e-06
4.85574e-06 -4.55281e-06 2.06963e-05
0.00334513 0.000146852 9.91313e-06
0.000146852 0.00169059 3.47941e-07
9.91313e-06 3.47941e-07 0.00168391
0.000707052 3.8392e-07 7.33232e-06
3.8392e-07 8.62501e-05 -9.54811e-06
7.33232e-06 -9.54811e-06 3.99089e-05
0.00297903 0.000126579 6.55098e-05
0.000126579 0.00146487 -2.20316e-06
6.55098e-05 -2.20316e-06 0.00146389
0.00093817 0.000233061 4.42504e-06
0.000233061 0.000143746 -4.1974e-06
4.42504e-06 -4.1974e-06 -6.11912e-05
0.000857007 0.000168216 1.3489e-06
0.000168216 0.000163792 -2.2727e-07
1.3489e-06 -2.2727e-07 1.41224e-05
0.000360616 6.34134e-05 8.69498e-07
6.34134e-05 -0.000117845 -7.32182e-07
8.69498e-07 -7.32182e-07 -0.00025502
0.000165368 3.52603e-05 -4.8501e-07
3.52603e-05 -0.000231458 -1.14474e-06
-4.8501e-07 -1.14474e-06 -0.000350386
0.000499105 2.95501e-05 -2.91862e-07
2.95501e-05 -2.82276e-05 7.31431e-07
-2.91862e-07 7.31431e-07 -0.000155599
0.000672716 2.35624e-05 -1.36194e-06
2.35624e-05 6.43327e-05 -4.92319e-06
-1.36194e-06 -4.92319e-06 -3.56848e-05
0.000598681 2.06185e-05 2.20253e-08
2.06185e-05 2.83656e-05 2.18258e-06
2.20253e-08 2.18258e-06 -8.69615e-05
0.000604837 6.99306e-06 3.17152e-07
6.99306e-06 2.80817e-05 -2.32701e-07
3.17152e-07 -2.32701e-07 -6.22279e-05
0.000568943 -2.24425e-05 -2.94969e-06
-2.24425e-05 -7.09812e-07 -8.10506e-06
-2.94969e-06 -8.10506e-06 -3.85896e-05
0.00288613 -0.000111488 -5.5335e-05
-0.000111488 0.001397 -3.49294e-06
-5.5335e-05 -3.49294e-06 0.00139906
0.000507901 -1.99287e-05 2.52921e-07
-1.99287e-05 -4.25468e-05 -5.25793e-08
2.52921e-07 -5.25793e-08 -7.54281e-05
0.000574365 1.03094e-05 8.44255e-07
1.03094e-05 8.82153e-06 4.01239e-06
8.44255e-07 4.01239e-06 -7.48723e-05
0.00274881 -9.81461e-05 -5.74859e-06
-9.81461e-05 0.00130599 4.45858e-07
-5.74859e-06 4.45858e-07 0.00131096
0.000474693 -2.4064e-05 4.90684e-07
-2.4064e-05 -6.66217e-05 6.20308e-06
4.90684e-07 6.20308e-06 -9.52099e-05
0.002576 -8.20223e-05 3.18358e-05
-8.20223e-05 0.00119486 4.29621e-06
3.18358e-05 4.29621e-06 0.00120335
0.0119686 0.000546949 0.000229884
0.000546949 0.00266581 6.45413e-05
0.000229884 6.45413e-05 0.00177553
-0.00329039 -0.00111322 -0.000165726
-0.00111322 -0.00261637 -2.48325e-05
-0.000165726 -2.48325e-05 -0.00302206
-0.00603038 0.000521678 -8.29578e-05
0.000521678 0.00113671 -4.71297e-05
-8.29578e-05 -4.71297e-05 -0.00267237
0.000518289 2.84582e-05 1.08934e-05
2.84582e-05 -3.55587e-05 1.68021e-06
1.08934e-05 1.68021e-06 -0.000185471
0.000974939 0.000207594 -4.80949e-06
0.000207594 0.00026748 1.10506e-06
-4.80949e-06 1.10506e-06 0.000109303
0.00133397 0.000237844 -8.90277e-07
0.000237844 0.000493682 -1.23813e-06
-8.90277e-07 -1.23813e-06 0.000302082
0.00145999 0.000308578 -4.2987e-06
0.000308578 0.000465693 1.21647e-06
-4.2987e-06 1.21647e-06 0.000238584
0.000706826 0.000278865 1.32682e-05
0.000278865 -0.000128606 2.39157e-06
1.32682e-05 2.39157e-06 -0.000375987
8.57546e-05 0.000190121 1.93325e-06
0.000190121 -0.000302132 -1.99351e-06
1.93325e-06 -1.99351e-06 -0.000498902
0.000264347 0.000152292 -3.99037e-06
0.000152292 -9.59436e-05 -2.64278e-06
-3.99037e-06 -2.64278e-06 -0.000286121
0.000329264 0.000236029 1.47845e-06
0.000236029 -0.000183344 1.83203e-06
1.47845e-06 1.83203e-06 -0.000394992
0.00120417 0.000338146 -2.77644e-07
0.000338146 0.000255632 1.05913e-06
-2.77644e-07 1.05913e-06 0.000114109
0.000679096 0.00034636 5.80193e-06
0.00034636 -0.00014723 2.20555e-06
5.80193e-06 2.20555e-06 -0.000345788
0.00300704 0.000626964 -1.54337e-06
0.000626964 0.00093349 -2.66859e-06
-1.54337e-06 -2.66859e-06 0.000741829
0.00205085 0.000608132 -1.83442e-06
0.000608132 0.000360791 6.25507e-06
-1.83442e-06 6.25507e-06 0.0001622
0.00139396 0.000521094 4.09971e-06
0.000521094 9.4765e-05 -3.78906e-06
4.09971e-06 -3.78906e-06 -9.59209e-05
0.000303688 0.000252873 -3.50149e-06
0.000252873 -0.000164981 1.40172e-06
-3.50149e-06 1.40172e-06 -0.000297733
0.0058659 0.000776314 -1.11703e-05
0.000776314 0.000261309 1.1913e-05
-1.11703e-05 1.1913e-05 0.000617962
0.0100893 0.000911091 0.000118189
0.000911091 0.0017974 5.78945e-05
0.000118189 5.78945e-05 0.000140792
0.00609912 -0.00170713 0.000134822
-0.00170713 0.00335623 -5.49875e-05
0.000134822 -5.49875e-05 0.00235691
0.00373858 0.00173261 0.000363129
0.00173261 -0.000172164 0.000182455
0.000363129 0.000182455 -0.00376296
0.000773501 0.000631686 -5.5282e-05
0.000631686 6.5541e-05 -6.37983e-06
-5.5282e-05 -6.37983e-06 0.000248982
0.00341045 0.00129285 -9.19812e-05
0.00129285 -0.000110814 -2.78804e-05
-9.19812e-05 -2.78804e-05 -0.000222781
0.00422841 0.00107314 4.51955e-05
0.00107314 0.000777564 1.99033e-05
4.51955e-05 1.99033e-05 0.000706351
0.00318338 0.000846823 1.04587e-05
0.000846823 0.000847578 5.12253e-06
1.04587e-05 5.12253e-06 0.00066253
0.000654422 0.000453463 -1.19973e-05
0.000453463 -3.50275e-05 1.78489e-05
-1.19973e-05 1.78489e-05 -0.000248654
0.00453123 0.00119961 -0.000133426
0.00119961 0.000968541 -2.46254e-05
-0.000133426 -2.46254e-05 0.000752157
0.00299287 -0.000245379 -5.33978e-05
-0.000245379 0.000372586 6.15134e-06
-5.33978e-05 6.15134e-06 0.000246449
0.0101705 -0.000318659 -1.38653e-05
-0.000318659 0.00242455 5.71558e-06
-1.38653e-05 5.71558e-06 0.00186942
-0.00990387 -0.00085322 0.000350114
-0.00085322 -0.0054968 -6.51446e-06
0.000350114 -6.51446e-06 -0.00515109
0.000183233 -0.000559265 -4.97302e-05
-0.000559265 -0.000765852 1.31515e-05
-4.97302e-05 1.31515e-05 -0.000877196
0.00726084 -0.00116769 0.000103734
-0.00116769 0.000920517 3.93277e-05
0.000103734 3.93277e-05 0.000882577
0.00159912 -0.000354313 -3.69486e-05
-0.000354313 -0.00225306 5.98278e-05
-3.69486e-05 5.98278e-05 -0.00387633
0.00165953 -0.000455275 1.63458e-05
-0.000455275 -0.000130133 1.48439e-06
1.63458e-05 1.48439e-06 -0.000269658
0.00311525 -0.000203844 -1.0162e-05
-0.000203844 -0.000338424 4.30194e-06
-1.0162e-05 4.30194e-06 -0.000310378
0.0043709 -0.000452175 2.61415e-05
-0.000452175 0.000999292 -1.20833e-05
2.61415e-05 -1.20833e-05 0.00110377
0.00372319 -0.000117823 7.125e-05
-0.000117823 0.000861547 1.902e-06
7.125e-05 1.902e-06 0.000816904
-0.000667798 -0.000357587 -6.80465e-06
-0.000357587 -0.00135028 7.52158e-06
-6.80465e-06 7.52158e-06 -0.00133791
0.0017993 -0.000400101 -4.73113e-07
-0.000400101 -0.000169667 4.55031e-07
-4.73113e-07 4.55031e-07 -0.00012109
0.00186685 -0.000284666 1.49123e-05
-0.000284666 -0.000211231 -3.52757e-06
1.49123e-05 -3.52757e-06 -8.07996e-05
0.00154041 -0.000447704 -4.05398e-07
-0.000447704 -0.000144374 2.66825e-06
-4.05398e-07 2.66825e-06 -0.000281699
0.0019975 -0.000377566 1.68545e-06
-0.000377566 -1.30965e-05 6.94201e-07
1.68545e-06 6.94201e-07 -6.58235e-05
0.00193848 -0.000313423 8.30187e-07
-0.000313423 2.81125e-05 8.10797e-07
8.30187e-07 8.10797e-07 4.5652e-06
0.00186392 -0.000371298 2.99895e-06
-0.000371298 5.01787e-05 3.80934e-06
2.99895e-06 3.80934e-06 -7.23391e-05
0.00188188 -0.000331222 7.14729e-07
-0.000331222 7.66835e-05 3.19979e-07
7.14729e-07 3.19979e-07 -9.93014e-06
0.00196012 -0.0003 -2.70804e-06
-0.0003 0.000130215 1.7363e-06
-2.70804e-06 1.7363e-06 4.96735e-05
0.00177641 -0.000314114 4.39078e-06
-0.000314114 6.11354e-05 3.39064e-06
4.39078e-06 3.39064e-06 -5.77307e-05
0.00184516 -0.000310772 2.33614e-07
-0.000310772 0.000121185 4.50702e-07
2.33614e-07 4.50702e-07 1.46576e-05
0.00171899 -0.000288039 2.48842e-06
-0.000288039 8.35822e-05 -1.36901e-06
2.48842e-06 -1.36901e-06 -3.08157e-05
0.00171965 -0.000283999 -1.42494e-06
-0.000283999 7.95828e-05 6.6882e-06
-1.42494e-06 6.6882e-06 -3.2882e-05
0.00190504 -0.000296447 -2.2267e-06
-0.000296447 0.000222749 2.14031e-07
-2.2267e-06 2.14031e-07 9.40243e-05
0.00184029 -0.000294674 4.30208e-07
-0.000294674 0.000209285 -2.00639e-06
4.30208e-07 -2.00639e-06 5.39337e-05
0.00177763 -0.000317701 2.95605e-06
-0.000317701 0.000155679 3.72511e-06
2.95605e-06 3.72511e-06 -8.42069e-06
0.00174703 -0.000321336 5.15212e-07
-0.000321336 0.000171957 -5.83968e-07
5.15212e-07 -5.83968e-07 -1.04485e-05
0.00174158 -0.000301061 -2.10592e-06
-0.000301061 0.000232561 -1.6424e-06
-2.10592e-06 -1.6424e-06 4.21866e-05
0.00123472 -0.00024799 -9.14356e-06
-0.00024799 8.31155e-05 2.52933e-06
-9.14356e-06 2.52933e-06 -0.000112313
0.00162444 -0.000334431 -1.00772e-06
-0.000334431 0.000214709 -2.94669e-07
-1.00772e-06 -2.94669e-07 -4.49595e-06
0.00177331 -0.000376171 4.17884e-06
-0.000376171 0.000230443 1.10973e-06
4.17884e-06 1.10973e-06 7.80295e-06
0.000931291 -0.0001864 -1.10077e-05
-0.0001864 4.40615e-05 6.33365e-06
-1.10077e-05 6.33365e-06 -0.000121746
0.00118384 -0.000254542 -1.76626e-07
-0.000254542 0.00010415 5.86544e-08
-1.76626e-07 5.86544e-08 -9.99701e-05
0.00127389 -0.000323038 2.43663e-06
-0.000323038 9.56245e-05 -3.73603e-07
2.43663e-06 -3.73603e-07 -0.000140052
0.000433018 -0.000126916 -1.92174e-05
-0.000126916 -0.000135466 1.44861e-05
-1.92174e-05 1.44861e-05 -0.000216559
0.000835398 -0.000177849 6.06374e-07
-0.000177849 5.15695e-05 4.56228e-07
6.06374e-07 4.56228e-07 -0.000119221
0.00123792 -0.000261419 6.78596e-06
-0.000261419 0.000206434 -2.37509e-06
6.78596e-06 -2.37509e-06 -5.24243e-06
0.00466162 0.000189529 -0.000123735
0.000189529 0.00248723 6.50975e-06
-0.000123735 6.50975e-06 0.00246789
0.000554273 -0.000102037 -3.09066e-07
-0.000102037 -4.02249e-05 -3.08049e-07
-3.09066e-07 -3.08049e-07 -0.000114807
0.000759203 -0.000186709 7.06556e-06
-0.000186709 7.34467e-05 -5.80142e-06
7.06556e-06 -5.80142e-06 -9.92321e-05
0.00408804 0.000146623 1.02447e-05
0.000146623 0.00213479 5.4088e-07
1.02447e-05 5.4088e-07 0.00212707
0.000712833 -5.42123e-05 1.30261e-05
-5.42123e-05 7.49998e-05 -1.17234e-05
1.30261e-05 -1.17234e-05 1.38804e-05
0.00352554 0.000111734 0.000110449
0.000111734 0.00179107 -4.90985e-06
0.000110449 -4.90985e-06 0.00179287
0.00123123 0.000286441 -3.76964e-06
0.000286441 0.000210244 -4.15305e-06
-3.76964e-06 -4.15305e-06 -2.32941e-05
0.0014299 0.00027826 1.22062e-06
0.00027826 0.000441166 6.85632e-07
1.22062e-06 6.85632e-07 0.000228205
0.000660233 0.000161919 2.72719e-07
0.000161919 1.79133e-05 -5.94895e-06
2.72719e-07 -5.94895e-06 -0.000163274
0.00070071 0.000178237 -2.71126e-06
0.000178237 8.33863e-05 -3.7133e-07
-2.71126e-06 -3.7133e-07 -7.35143e-05
0.000378237 7.46935e-05 4.9975e-07
7.46935e-05 -0.000108618 -5.57834e-07
4.9975e-07 -5.57834e-07 -0.000250958
0.000778691 0.000105036 -2.62183e-06
0.000105036 0.000135215 -5.3458e-06
-2.62183e-06 -5.3458e-06 7.31492e-06
0.000343097 8.0369e-06 1.09128e-07
8.0369e-06 -0.000126252 1.64686e-06
1.09128e-07 1.64686e-06 -0.00024853
0.000630731 2.25657e-05 6.88552e-09
2.25657e-05 4.14112e-05 -2.45373e-07
6.88552e-09 -2.45373e-07 -5.87479e-05
0.000579568 -1.6988e-05 -3.99329e-06
-1.6988e-05 9.82992e-06 -9.08952e-06
-3.99329e-06 -9.08952e-06 -3.31603e-05
0.000552407 3.77429e-06 8.19587e-07
3.77429e-06 -2.53572e-06 4.67836e-06
8.19587e-07 4.67836e-06 -9.20718e-05
0.00050766 -1.99834e-05 2.84412e-07
-1.99834e-05 -3.66083e-05 -8.27443e-08
2.84412e-07 -8.27443e-08 -7.40247e-05
0.00303158 -0.000123674 -6.70987e-05
-0.000123674 0.001493 -2.98155e-06
-6.70987e-05 -2.98155e-06 0.00149217
0.00285686 -0.000112529 -4.68898e-06
-0.000112529 0.00137895 4.56363e-07
-4.68898e-06 4.56363e-07 0.00138055
0.000472796 -1.152e-05 3.1241e-06
-1.152e-05 -6.38844e-05 7.13175e-06
3.1241e-06 7.13175e-06 -9.60024e-05
0.00270074 -9.75024e-05 3.90839e-05
-9.75024e-05 0.00127678 4.02328e-06
3.90839e-05 4.02328e-06 0.00128178
0.00369354 5.23079e-05 3.81193e-05
5.23079e-05 -0.000308085 1.33975e-05
3.81193e-05 1.33975e-05 -5.85574e-06
0.00315568 -0.000601005 7.43297e-05
-0.000601005 -0.00246616 3.49516e-05
7.43297e-05 3.49516e-05 -0.00355917
0.00824253 -0.0011583 -0.000103011
-0.0011583 0.00309484 -6.18121e-05
-0.000103011 -6.18121e-05 0.00336825
0.0011423 0.000350621 6.53867e-06
0.000350621 1.19968e-08 4.89785e-06
6.53867e-06 4.89785e-06 -0.000250821
0.00172223 0.000274767 7.01814e-07
0.000274767 0.000706783 1.89319e-06
7.01814e-07 1.89319e-06 0.000509471
0.00164875 0.000324331 -5.7522e-06
0.000324331 0.000588586 7.6106e-06
-5.7522e-06 7.6106e-06 0.000360364
0.000772869 0.000263425 1.65452e-06
0.000263425 8.91104e-05 2.52414e-06
1.65452e-06 2.52414e-06 -0.000124588
0.00122865 0.000329118 -1.38119e-06
0.000329118 0.000192059 -1.33593e-06
-1.38119e-06 -1.33593e-06 -6.7729e-05
0.00115226 0.000391051 8.7141e-06
0.000391051 0.000103063 6.70062e-06
8.7141e-06 6.70062e-06 -0.000131483
0.00106703 0.000316119 -8.61079e-06
0.000316119 0.000220228 -4.21938e-06
-8.61079e-06 -4.21938e-06 -1.61556e-05
0.000638849 0.000306537 3.04363e-06
0.000306537 -5.14888e-05 3.76773e-06
3.04363e-06 3.76773e-06 -0.000196755
0.0012829 0.000408712 2.30839e-06
0.000408712 0.000181513 -1.13089e-06
2.30839e-06 -1.13089e-06 -2.70319e-05
0.0021603 0.000551538 2.87842e-06
0.000551538 0.000463745 6.25833e-06
2.87842e-06 6.25833e-06 0.000290715
0.00171878 0.000547458 3.98016e-06
0.000547458 0.000144434 7.39921e-07
3.98016e-06 7.39921e-07 -6.42505e-05
0.00176991 0.000513789 7.53333e-06
0.000513789 0.000188769 7.93387e-06
7.53333e-06 7.93387e-06 4.58254e-05
0.00121688 0.000538434 -3.24568e-06
0.000538434 -8.38717e-05 -2.78243e-06
-3.24568e-06 -2.78243e-06 -0.000271103
0.000635671 0.000447355 -2.58757e-06
0.000447355 -0.000298834 -1.02536e-06
-2.58757e-06 -1.02536e-06 -0.000463288
0.00160024 0.000432255 3.32081e-05
0.000432255 -0.000272828 3.51012e-05
3.32081e-05 3.51012e-05 -0.000196674
0.00530415 0.000873249 -5.63978e-05
0.000873249 -0.000284747 -1.59336e-05
-5.63978e-05 -1.59336e-05 4.88139e-05
0.00235913 0.000571407 0.000316826
0.000571407 -0.00233614 4.3233e-05
0.000316826 4.3233e-05 -0.00418359
0.000288163 0.000937532 -2.98998e-05
0.000937532 -0.00138091 -2.62707e-05
-2.98998e-05 -2.62707e-05 -0.0014056
0.00291632 0.000864035 -2.70157e-05
0.000864035 0.000402819 -3.7943e-06
-2.70157e-05 -3.7943e-06 0.000322033
0.00275965 0.000799064 -7.16625e-05
0.000799064 0.000629074 -2.48218e-05
-7.16625e-05 -2.48218e-05 0.000440322
0.00236129 -0.000204945 -2.02882e-05
-0.000204945 -3.06851e-05 -1.087e-05
-2.02882e-05 -1.087e-05 2.00732e-06
0.000752226 -9.26471e-05 2.01279e-05
-9.26471e-05 -0.000278066 6.93875e-06
2.01279e-05 6.93875e-06 -0.000352352
0.00127763 0.000770294 0.000102092
0.000770294 -0.00340997 -1.92026e-05
0.000102092 -1.92026e-05 -0.00380673
-0.000433957 -0.000293676 -2.12436e-05
-0.000293676 -0.00127967 3.34918e-05
-2.12436e-05 3.34918e-05 -0.00122313
0.00404253 -0.000178108 -5.03944e-05
-0.000178108 0.000124561 3.86425e-05
-5.03944e-05 3.86425e-05 -0.000140187
0.0022742 -0.000329133 -1.75689e-05
-0.000329133 -7.83282e-05 6.48446e-06
-1.75689e-05 6.48446e-06 6.0537e-05
0.0032723 -0.000162313 -7.06189e-07
-0.000162313 0.000562252 -3.65813e-06
-7.06189e-07 -3.65813e-06 0.000519061
0.00161571 -0.000187563 3.37817e-05
-0.000187563 -0.000393255 -2.44495e-06
3.37817e-05 -2.44495e-06 -0.000221036
0.00330761 -4.63669e-05 2.72843e-05
-4.63669e-05 0.000996911 1.37716e-07
2.72843e-05 1.37716e-07 0.000957149
0.00109813 -0.000359579 -1.82245e-05
-0.000359579 -0.000535905 8.74028e-06
-1.82245e-05 8.74028e-06 -0.000476058
0.00183227 -0.00029525 2.83041e-07
-0.00029525 -0.000247675 2.16119e-06
2.83041e-07 2.16119e-06 -0.000129321
0.00202837 -0.000283802 2.19116e-06
-0.000283802 -7.04278e-05 -1.02565e-06
2.19116e-06 -1.02565e-06 1.04993e-05
0.00191681 -0.00037293 -5.00505e-07
-0.00037293 -5.02719e-05 2.05141e-06
-5.00505e-07 2.05141e-06 -0.00010346
0.00194331 -0.000318302 3.98172e-07
-0.000318302 3.0904e-05 3.3766e-08
3.98172e-07 3.3766e-08 3.01602e-06
0.00196418 -0.000279413 -1.94566e-06
-0.000279413 7.29437e-05 3.48255e-07
-1.94566e-06 3.48255e-07 2.40039e-05
0.00187973 -0.00032744 3.79187e-07
-0.00032744 8.45553e-05 1.8089e-07
3.79187e-07 1.8089e-07 -1.34488e-06
0.00187497 -0.000302692 -6.13885e-07
-0.000302692 8.6198e-05 5.69902e-08
-6.13885e-07 5.69902e-08 2.18009e-06
0.001821 -0.000267621 -2.80782e-07
-0.000267621 0.000106461 5.02737e-07
-2.80782e-07 5.02737e-07 7.32328e-06
0.00167657 -0.000303004 6.17555e-07
-0.000303004 3.20623e-05 5.87574e-07
6.17555e-07 5.87574e-07 -7.44198e-05
0.00174982 -0.000289938 8.64752e-07
-0.000289938 9.90117e-05 -7.01796e-07
8.64752e-07 -7.01796e-07 -1.58292e-05
0.00177525 -0.000277353 1.64014e-06
-0.000277353 0.000134477 -2.06573e-06
1.64014e-06 -2.06573e-06 -1.23683e-07
0.00191359 -0.000293033 -4.25518e-06
-0.000293033 0.000224752 4.76071e-06
-4.25518e-06 4.76071e-06 9.98155e-05
0.0019004 -0.000295843 -1.44879e-06
-0.000295843 0.000241471 3.99982e-07
-1.44879e-06 3.99982e-07 8.96804e-05
0.00173935 -0.000273816 -1.31617e-06
-0.000273816 0.000200804 -1.26987e-06
-1.31617e-06 -1.26987e-06 2.8623e-05
0.00179527 -0.000325707 2.70595e-06
-0.000325707 0.000201757 1.98373e-06
2.70595e-06 1.98373e-06 1.79996e-05
0.00172927 -0.000302539 8.51301e-07
-0.000302539 0.000225943 -6.09064e-07
8.51301e-07 -6.09064e-07 3.46144e-05
0.00134255 -0.000231818 -7.27079e-06
-0.000231818 0.000106863 1.79708e-06
-7.27079e-06 1.79708e-06 -7.70847e-05
0.000922568 -0.000176211 -1.20744e-05
-0.000176211 2.69587e-06 6.37558e-06
-1.20744e-05 6.37558e-06 -0.000154891
0.00121242 -0.000246366 -1.32331e-06
-0.000246366 7.11899e-05 3.35549e-07
-1.32331e-06 3.35549e-07 -0.000124582
0.00162749 -0.000335546 3.2802e-06
-0.000335546 0.000220414 -1.31287e-07
3.2802e-06 -1.31287e-07 -2.558e-07
0.000513143 -0.000181544 -2.189e-05
-0.000181544 -9.28516e-05 1.50769e-05
-2.189e-05 1.50769e-05 -0.000191331
0.000871243 -0.000182904 4.91718e-07
-0.000182904 1.05276e-05 4.14532e-08
4.91718e-07 4.14532e-08 -0.000155019
0.00121937 -0.000259582 6.81116e-06
-0.000259582 0.000120302 -2.35616e-06
6.81116e-06 -2.35616e-06 -8.50057e-05
0.00524595 0.000175707 -0.000153503
0.000175707 0.00282887 9.21594e-06
-0.000153503 9.21594e-06 0.0028104
0.000558554 -0.000165113 -1.17598e-06
-0.000165113 -5.58459e-05 1.59962e-07
-1.17598e-06 1.59962e-07 -0.000145829
0.000781134 -0.00017997 9.31181e-06
-0.00017997 2.22254e-05 -6.0834e-06
9.31181e-06 -6.0834e-06 -0.000149587
0.00484579 0.000155794 9.19278e-06
0.000155794 0.00258847 1.15677e-06
9.19278e-06 1.15677e-06 0.00257524
0.000725419 -0.000123005 1.88269e-05
-0.000123005 6.01934e-05 -1.41381e-05
1.88269e-05 -1.41381e-05 -1.87849e-05
0.00432677 0.000112926 0.000145952
0.000112926 0.00226905 -8.93963e-06
0.000145952 -8.93963e-06 0.00226719
0.00124391 0.000307318 -3.51419e-06
0.000307318 0.00012467 3.20573e-07
-3.51419e-06 3.20573e-07 -0.000111675
0.00120285 0.000283113 -2.21159e-06
0.000283113 0.000195921 -8.0174e-07
-2.21159e-06 -8.0174e-07 -3.67842e-05
0.00109813 0.000235523 -4.62679e-06
0.000235523 0.000187747 -2.3507e-06
-4.62679e-06 -2.3507e-06 -2.01535e-05
0.0019313 0.000324046 -2.51356e-06
0.000324046 0.000744309 3.42611e-06
-2.51356e-06 3.42611e-06 0.000523277
0.000898602 0.000182436 -1.35151e-06
0.000182436 0.000160896 -2.0773e-06
-1.35151e-06 -2.0773e-06 -2.43543e-05
0.000967811 0.000162409 -4.23893e-06
0.000162409 0.000242544 -6.1587e-06
-4.23893e-06 -6.1587e-06 8.58851e-05
0.000469476 8.9778e-05 -6.14465e-07
8.9778e-05 -5.77652e-05 2.7736e-07
-6.14465e-07 2.7736e-07 -0.000204839
0.000665748 5.3028e-05 -6.25178e-07
5.3028e-05 6.02215e-05 -2.79558e-07
-6.25178e-07 -2.79558e-07 -5.71219e-05
0.000600202 2.11348e-06 -6.70237e-06
2.11348e-06 2.09743e-05 -1.02405e-05
-6.70237e-06 -1.02405e-05 -2.91078e-05
0.000535424 2.59872e-06 8.68275e-07
2.59872e-06 -1.355e-05 5.12283e-06
8.68275e-07 5.12283e-06 -0.000112407
0.000498723 -2.05673e-05 3.91269e-07
-2.05673e-05 -3.63991e-05 -1.66495e-07
3.91269e-07 -1.66495e-07 -7.93081e-05
0.0032531 -0.000131669 -8.41641e-05
-0.000131669 0.00163362 -2.78202e-06
-8.41641e-05 -2.78202e-06 0.00163073
0.000449921 -1.7786e-05 3.32004e-06
-1.7786e-05 -7.04979e-05 7.95454e-06
3.32004e-06 7.95454e-06 -0.000107452
0.00300398 -0.00012757 -3.86278e-06
-0.00012757 0.00147646 4.25045e-07
-3.86278e-06 4.25045e-07 0.00147437
0.00286056 -0.000113267 4.8344e-05
-0.000113267 0.00138073 3.69883e-06
4.8344e-05 3.69883e-06 0.00138203
0.000391896 6.04595e-05 1.68258e-05
6.04595e-05 -0.00103821 1.05055e-05
1.68258e-05 1.05055e-05 -0.00090569
0.00481751 4.05231e-05 5.48414e-05
4.05231e-05 0.000219418 1.42127e-06
5.48414e-05 1.42127e-06 0.000440471
0.0112051 0.000682295 -7.18456e-05
0.000682295 0.00299809 -1.64263e-05
-7.18456e-05 -1.64263e-05 0.00203849
0.00148036 0.000428026 3.37699e-06
0.000428026 0.000158918 2.86078e-06
3.37699e-06 2.86078e-06 -8.25887e-05
0.00178326 0.000439128 2.62397e-06
0.000439128 0.000255184 2.30196e-06
2.62397e-06 2.30196e-06 2.37279e-05
0.0012188 0.00036445 8.49598e-07
0.00036445 5.3416e-05 -2.03243e-06
8.49598e-07 -2.03243e-06 -0.00019894
0.0012932 0.000320531 -2.74127e-06
0.000320531 0.000380764 2.57614e-06
-2.74127e-06 2.57614e-06 0.000153683
0.0017446 0.000377658 -1.76136e-06
0.000377658 0.000509097 -1.26041e-06
-1.76136e-06 -1.26041e-06 0.000237365
0.00146965 0.00042163 7.15161e-06
0.00042163 0.000266082 1.08827e-06
7.15161e-06 1.08827e-06 2.8961e-05
0.0016857 0.000508764 -2.03698e-06
0.000508764 0.000102856 -1.48837e-06
-2.03698e-06 -1.48837e-06 -0.00011428
0.00193506 0.000475686 -7.33556e-06
0.000475686 0.000534504 4.76068e-07
-7.33556e-06 4.76068e-07 0.000315538
0.00124131 0.000472002 8.86086e-06
0.000472002 -4.51642e-05 1.54585e-05
8.86086e-06 1.54585e-05 -0.000200492
0.00219982 0.000585021 -2.5705e-06
0.000585021 0.000410042 9.22602e-07
-2.5705e-06 9.22602e-07 0.000198575
0.00192859 0.000509096 -9.55827e-06
0.000509096 0.000149514 7.23032e-07
-9.55827e-06 7.23032e-07 -2.23328e-05
0.000665508 0.000258785 1.6924e-05
0.000258785 -0.000516595 9.31182e-06
1.6924e-05 9.31182e-06 -0.000546245
0.000942249 0.000450237 1.04646e-05
0.000450237 -0.000234138 -2.21627e-07
1.04646e-05 -2.21627e-07 -0.000371502
0.00114824 0.000524774 -1.28953e-05
0.000524774 -0.000126205 -1.00971e-05
-1.28953e-05 -1.00971e-05 -0.00031004
0.00202816 0.000446264 3.98916e-06
0.000446264 -5.21432e-05 7.36421e-06
3.98916e-06 7.36421e-06 -2.93431e-05
0.00557006 0.000579019 2.54442e-05
0.000579019 -6.84287e-05 -2.26152e-05
2.54442e-05 -2.26152e-05 -7.86787e-05
0.00298653 0.000754664 4.5482e-06
0.000754664 0.000712206 -3.30779e-05
4.5482e-06 -3.30779e-05 0.000649308
0.00150291 -4.5426e-05 2.48018e-05
-4.5426e-05 -3.61928e-05 -2.70535e-06
2.48018e-05 -2.70535e-06 -2.76786e-05
0.0021832 -0.000135906 -2.87544e-05
-0.000135906 -6.73578e-05 3.03186e-07
-2.87544e-05 3.03186e-07 -4.89436e-05
0.00160751 0.000203101 2.53804e-05
0.000203101 -0.000553815 -7.22985e-06
2.53804e-05 -7.22985e-06 -0.000684062
0.000211925 -0.000228475 -3.33323e-05
-0.000228475 -0.00115119 2.61761e-05
-3.33323e-05 2.61761e-05 -0.000996809
0.0033303 -0.00023877 -9.63281e-05
-0.00023877 0.000510709 -1.16215e-06
-9.63281e-05 -1.16215e-06 0.000511474
0.0019314 -0.000216839 4.37433e-06
-0.000216839 -0.000159295 -3.12857e-06
4.37433e-06 -3.12857e-06 -4.76593e-06
0.00235543 -6.0353e-05 -8.42558e-06
-6.0353e-05 0.000393446 4.14468e-07
-8.42558e-06 4.14468e-07 0.000359964
0.00209624 -0.000192175 5.00147e-06
-0.000192175 5.99003e-06 7.91138e-07
5.00147e-06 7.91138e-07 3.44186e-05
0.00204983 -2.22309e-05 6.43645e-06
-2.22309e-05 2.82645e-05 5.0435e-07
6.43645e-06 5.0435e-07 1.58343e-05
0.00181953 -0.000310414 -8.49978e-06
-0.000310414 -0.000281614 3.40703e-06
-8.49978e-06 3.40703e-06 -0.000172776
0.00205163 -0.000283192 -1.88099e-06
-0.000283192 -4.53101e-05 1.3996e-07
-1.88099e-06 1.3996e-07 2.04168e-05
0.0020246 -0.000215679 -1.53561e-06
-0.000215679 9.54978e-06 -6.31544e-07
-1.53561e-06 -6.31544e-07 1.70566e-06
0.00195363 -0.000323404 -1.73705e-06
-0.000323404 3.58793e-05 -4.47769e-07
-1.73705e-06 -4.47769e-07 3.69356e-06
0.00194288 -0.000274813 1.0727e-07
-0.000274813 7.10922e-05 2.16973e-08
1.0727e-07 2.16973e-08 1.68065e-05
0.00193443 -0.00024352 -1.60332e-06
-0.00024352 9.83918e-05 4.1707e-07
-1.60332e-06 4.1707e-07 1.99252e-05
0.00179209 -0.000305275 -8.34922e-07
-0.000305275 4.3424e-05 -1.3459e-06
-8.34922e-07 -1.3459e-06 -4.39737e-05
0.00178692 -0.000265848 4.81296e-07
-0.000265848 8.26937e-05 -1.65259e-07
4.81296e-07 -1.65259e-07 -1.67811e-05
0.00178373 -0.000249389 9.36245e-07
-0.000249389 9.95966e-05 -9.13001e-07
9.36245e-07 -9.13001e-07 -1.57344e-05
0.0017833 -0.000291994 -5.64935e-07
-0.000291994 0.000115898 -3.37939e-08
-5.64935e-07 -3.37939e-08 6.04491e-07
0.00179464 -0.000277649 -1.59538e-08
-0.000277649 0.000146831 -3.49122e-07
-1.59538e-08 -3.49122e-07 1.21929e-05
0.00168682 -0.000250989 -2.41492e-07
-0.000250989 0.000137286 -1.12826e-06
-2.41492e-07 -1.12826e-06 -2.0735e-05
0.00195995 -0.000297055 -1.71912e-06
-0.000297055 0.00027307 3.60116e-06
-1.71912e-06 3.60116e-06 0.000124837
0.00175082 -0.000274932 -6.29686e-07
-0.000274932 0.000208368 -1.13223e-07
-6.29686e-07 -1.13223e-07 3.71387e-05
0.00134953 -0.000210268 -6.33039e-06
-0.000210268 8.52608e-05 1.56758e-06
-6.33039e-06 1.56758e-06 -8.89056e-05
0.0017192 -0.000304086 4.05972e-06
-0.000304086 0.000220593 5.60469e-07
4.05972e-06 5.60469e-07 2.83031e-05
0.00133817 -0.000232655 -2.19069e-07
-0.000232655 0.000104668 -3.83524e-08
-2.19069e-07 -3.83524e-08 -7.91387e-05
0.000935443 -0.000159461 -1.33084e-05
-0.000159461 -1.20557e-05 6.14543e-06
-1.33084e-05 6.14543e-06 -0.000162243
0.000440444 -0.000170059 -2.0119e-05
-0.000170059 -0.00014619 1.42259e-05
-2.0119e-05 1.42259e-05 -0.000245374
0.000929341 -0.000176136 2.47936e-07
-0.000176136 6.28857e-06 1.05187e-07
2.47936e-07 1.05187e-07 -0.000151457
0.001188 -0.000244512 5.73906e-06
-0.000244512 5.79466e-05 -1.76529e-06
5.73906e-06 -1.76529e-06 -0.000138141
0.00562541 0.000105298 -0.000186578
0.000105298 0.00303077 1.01718e-05
-0.000186578 1.01718e-05 0.00302507
0.000540261 -0.000177747 -1.72639e-06
-0.000177747 -8.37638e-05 7.59995e-07
-1.72639e-06 7.59995e-07 -0.000179055
0.000813189 -0.000180272 1.07736e-05
-0.000180272 -2.05887e-05 -6.05611e-06
1.07736e-05 -6.05611e-06 -0.000186077
0.00539373 0.000143819 2.04182e-06
0.000143819 0.00291038 6.0936e-08
2.04182e-06 6.0936e-08 0.00289621
0.000654831 -0.000167984 2.20491e-05
-0.000167984 -1.63985e-06 -1.49838e-05
2.20491e-05 -1.49838e-05 -9.32762e-05
0.00504306 0.000130935 0.000167016
0.000130935 0.00270026 -1.18599e-05
0.000167016 -1.18599e-05 0.00269021
0.00138384 0.000346924 -2.5832e-06
0.000346924 0.000138685 1.798e-06
-2.5832e-06 1.798e-06 -9.10423e-05
0.00120662 0.000305698 1.25975e-07
0.000305698 0.000100111 4.53373e-07
1.25975e-07 4.53373e-07 -0.000135235
0.00109626 0.000244987 -7.21572e-06
0.000244987 8.66576e-05 -1.84046e-06
-7.21572e-06 -1.84046e-06 -0.000118158
0.00115402 0.000278042 -7.39519e-07
0.000278042 0.000169284 2.58077e-06
-7.39519e-07 2.58077e-06 -6.21802e-05
0.00105649 0.00023056 -1.91575e-06
0.00023056 0.000165808 9.97623e-07
-1.91575e-06 9.97623e-07 -4.114e-05
0.000913049 0.000185827 -7.18313e-06
0.000185827 0.000158583 -4.93152e-06
-7.18313e-06 -4.93152e-06 -1.26815e-05
0.00107834 0.000198646 -9.84086e-07
0.000198646 0.00026991 1.22206e-06
-9.84086e-07 1.22206e-06 8.11644e-05
0.000702554 0.000129284 -7.51963e-08
0.000129284 8.88828e-05 -1.86244e-07
-7.51963e-08 -1.86244e-07 -6.32325e-05
0.000762753 6.1408e-05 -1.30907e-05
6.1408e-05 0.00010893 -1.26998e-05
-1.30907e-05 -1.26998e-05 4.33744e-05
0.000567441 1.80351e-05 1.13783e-06
1.80351e-05 6.49402e-07 5.17466e-06
1.13783e-06 5.17466e-06 -0.000111292
0.000496727 -6.6667e-06 -2.29576e-07
-6.6667e-06 -3.76646e-05 -3.11656e-07
-2.29576e-07 -3.11656e-07 -8.7366e-05
0.00363938 -0.000133054 -0.000109877
-0.000133054 0.00187045 -3.8374e-06
-0.000109877 -3.8374e-06 0.00186629
0.000431704 -2.12062e-05 3.47911e-06
-2.12062e-05 -7.52399e-05 8.77401e-06
3.47911e-06 8.77401e-06 -0.000117767
0.00317852 -0.00014088 -3.80706e-06
-0.00014088 0.00159021 4.0702e-07
-3.80706e-06 4.0702e-07 0.00158463
0.0029658 -0.000128175 5.64147e-05
-0.000128175 0.00145321 3.28741e-06
5.64147e-05 3.28741e-06 0.00145071
0.000554605 7.10036e-05 2.14074e-05
7.10036e-05 -0.000602562 4.3471e-06
2.14074e-05 4.3471e-06 -0.0005373
0.00206499 4.36826e-05 -8.49616e-06
4.36826e-05 -0.000347559 -1.52142e-06
-8.49616e-06 -1.52142e-06 -0.000193208
0.0042589 5.95771e-05 0.000148537
5.95771e-05 -0.000494047 4.03592e-05
0.000148537 4.03592e-05 0.00012833
0.00227198 0.000504405 -1.85132e-06
0.000504405 0.000452589 2.21388e-07
-1.85132e-06 2.21388e-07 0.000230343
0.00153274 0.000450836 -1.98765e-06
0.000450836 0.000175238 -3.32498e-06
-1.98765e-06 -3.32498e-06 -6.58569e-05
0.00196574 0.000395007 -1.28164e-07
0.000395007 0.000224373 3.36087e-06
-1.28164e-07 3.36087e-06 3.47836e-05
0.00177908 0.000434924 8.34675e-07
0.000434924 0.000250394 2.76361e-07
8.34675e-07 2.76361e-07 2.02252e-05
0.00127747 0.000377406 1.6052e-06
0.000377406 9.40444e-05 -6.78463e-06
1.6052e-06 -6.78463e-06 -0.000159757
0.0018505 0.000417515 -5.49271e-07
0.000417515 7.82633e-05 1.08793e-06
-5.49271e-07 1.08793e-06 -9.01387e-05
0.00189412 0.000463291 -3.91287e-06
0.000463291 0.000492321 -2.03458e-06
-3.91287e-06 -2.03458e-06 0.000250323
0.0019412 0.000520749 2.47649e-08
0.000520749 0.000263141 -1.69153e-07
2.47649e-08 -1.69153e-07 4.37899e-05
0.00181917 0.000303389 -4.4835e-06
0.000303389 -2.8527e-05 -3.47678e-07
-4.4835e-06 -3.47678e-07 -0.000123867
0.00268562 0.000623436 2.48691e-06
0.000623436 0.000676044 1.92579e-06
2.48691e-06 1.92579e-06 0.000461768
0.00193006 0.000513107 -1.69947e-06
0.000513107 0.000139782 7.40143e-08
-1.69947e-06 7.40143e-08 -3.54694e-05
0.000915424 0.000275649 5.12178e-06
0.000275649 -0.000344941 3.20638e-06
5.12178e-06 3.20638e-06 -0.000384287
-0.000402875 0.000350619 -5.31844e-06
0.000350619 -0.0009217 -3.92559e-06
-5.31844e-06 -3.92559e-06 -0.00104933
0.00210417 0.000461943 -5.96816e-05
0.000461943 -2.3818e-05 -2.93971e-05
-5.96816e-05 -2.93971e-05 -4.84463e-05
0.00188442 4.59096e-05 6.64061e-07
4.59096e-05 -8.31992e-05 -1.35837e-06
6.64061e-07 -1.35837e-06 -7.15655e-05
0.00220993 -4.00671e-05 1.34137e-06
-4.00671e-05 0.00040487 1.36412e-06
1.34137e-06 1.36412e-06 0.000413909
0.00174983 -7.71813e-05 -5.70478e-05
-7.71813e-05 -0.000196952 1.01924e-06
-5.70478e-05 1.01924e-06 -0.000275685
0.00229292 -0.000246086 -3.74243e-05
-0.000246086 9.90304e-05 3.30298e-06
-3.74243e-05 3.30298e-06 0.000229865
0.00144539 -7.76393e-05 -9.95159e-06
-7.76393e-05 -0.00017946 1.05354e-06
-9.95159e-06 1.05354e-06 -0.000205772
0.00202212 -0.000185833 -3.61772e-09
-0.000185833 -4.03963e-05 -7.97574e-07
-3.61772e-09 -7.97574e-07 4.8854e-07
0.00211995 -2.3435e-05 -1.81443e-06
-2.3435e-05 4.88486e-05 1.49517e-06
-1.81443e-06 1.49517e-06 4.25993e-05
0.00210125 -6.87869e-05 -1.81184e-06
-6.87869e-05 2.83842e-05 -2.42635e-07
-1.81184e-06 -2.42635e-07 3.34985e-05
0.00206374 -0.0002805 -4.10485e-06
-0.0002805 -2.30283e-05 7.41671e-07
-4.10485e-06 7.41671e-07 2.77971e-05
0.00199932 -0.000207366 4.11591e-07
-0.000207366 5.8674e-06 -2.0648e-07
4.11591e-07 -2.0648e-07 -3.25812e-06
0.00200837 -0.000170048 -1.71481e-06
-0.000170048 5.75534e-05 -2.14233e-07
-1.71481e-06 -2.14233e-07 2.11962e-05
0.00191906 -0.00027068 1.17705e-06
-0.00027068 6.7194e-05 -9.64771e-07
1.17705e-06 -9.64771e-07 7.83694e-06
0.0018532 -0.000238159 2.19464e-07
-0.000238159 5.82424e-05 3.94258e-09
2.19464e-07 3.94258e-09 -2.24244e-05
0.00179105 -0.00019712 1.93996e-07
-0.00019712 6.38764e-05 -3.97021e-07
1.93996e-07 -3.97021e-07 -3.12548e-05
0.00176713 -0.000264727 1.07568e-06
-0.000264727 6.6574e-05 -6.67028e-07
1.07568e-06 -6.67028e-07 -3.32009e-05
0.00181427 -0.000249918 5.90501e-08
-0.000249918 0.000118795 -2.04328e-07
5.90501e-08 -2.04328e-07 3.3884e-06
0.00173369 -0.000222928 6.03612e-07
-0.000222928 0.000124393 -9.11914e-07
6.03612e-07 -9.11914e-07 -1.74379e-05
0.00181273 -0.000277928 -9.27301e-07
-0.000277928 0.000158275 1.18696e-06
-9.27301e-07 1.18696e-06 2.35931e-05
0.00171631 -0.000251913 -3.11125e-07
-0.000251913 0.000155585 -8.7308e-08
-3.11125e-07 -8.7308e-08 -2.17054e-06
0.00139834 -0.000191789 -4.69307e-06
-0.000191789 8.83604e-05 1.23596e-06
-4.69307e-06 1.23596e-06 -7.75821e-05
0.00176134 -0.00027593 8.58321e-07
-0.00027593 0.00021521 1.20021e-06
8.58321e-07 1.20021e-06 4.49682e-05
0.00137136 -0.000211318 -2.44074e-07
-0.000211318 9.72728e-05 5.89159e-08
-2.44074e-07 5.89159e-08 -7.65857e-05
0.000961879 -0.000143213 -1.37671e-05
-0.000143213 -1.16583e-05 5.6842e-06
-1.37671e-05 5.6842e-06 -0.000156766
0.00133324 -0.000233492 6.41225e-06
-0.000233492 0.000102125 -1.41545e-06
6.41225e-06 -1.41545e-06 -8.15467e-05
0.000960058 -0.000159871 1.3576e-07
-0.000159871 6.83205e-07 6.18235e-08
1.3576e-07 6.18235e-08 -0.00014935
0.00246947 -0.000122208 -3.21732e-05
-0.000122208 0.00105503 8.89535e-06
-3.21732e-05 8.89535e-06 0.000974523
0.00173954 -5.42947e-05 -0.000189446
-5.42947e-05 0.000687088 2.13692e-05
-0.000189446 2.13692e-05 0.000669219
0.00154489 -0.000156297 -6.36094e-06
-0.000156297 0.000509018 -3.30281e-07
-6.36094e-06 -3.30281e-07 0.000416551
0.000948992 -0.000177038 1.23005e-05
-0.000177038 1.75403e-05 -5.99079e-06
1.23005e-05 -5.99079e-06 -0.000140515
0.00571357 8.87997e-05 -6.22246e-06
8.87997e-05 0.00308967 -4.51875e-07
-6.22246e-06 -4.51875e-07 0.00308075
0.000605176 -0.000199967 2.35169e-05
-0.000199967 -4.56054e-05 -1.47535e-05
2.35169e-05 -1.47535e-05 -0.000144139
0.00552772 0.000131856 0.000180447
0.000131856 0.00299824 -1.62699e-05
0.000180447 -1.62699e-05 0.00297962
0.00195824 0.000311632 7.33654e-07
0.000311632 0.000188438 4.00664e-07
7.33654e-07 4.00664e-07 2.89167e-05
0.00170306 0.000359984 1.45157e-06
0.000359984 0.000202353 3.11498e-06
1.45157e-06 3.11498e-06 -5.56072e-06
0.00162209 0.000371176 5.34543e-08
0.000371176 0.000269573 7.13979e-08
5.34543e-08 7.13979e-08 3.68516e-05
0.00116304 0.000257079 -6.3342e-06
0.000257079 6.4735e-05 -1.82175e-06
-6.3342e-06 -1.82175e-06 -0.000135653
0.00121181 0.000308119 5.06764e-06
0.000308119 0.00010158 1.15902e-06
5.06764e-06 1.15902e-06 -0.000133579
0.0011194 0.000244359 -1.64043e-07
0.000244359 0.000102132 1.93619e-07
-1.64043e-07 1.93619e-07 -0.000101902
0.000838659 0.000181998 -9.75997e-06
0.000181998 3.1277e-05 -4.95485e-06
-9.75997e-06 -4.95485e-06 -0.000136881
0.000995518 0.000224091 2.26415e-06
0.000224091 0.000130988 4.79149e-06
2.26415e-06 4.79149e-06 -7.45724e-05
0.000798779 0.000171823 -1.88586e-07
0.000171823 9.08248e-05 7.25862e-07
-1.88586e-07 7.25862e-07 -7.91604e-05
0.000730233 0.000145149 -2.05617e-05
0.000145149 6.93165e-05 -1.43748e-05
-2.05617e-05 -1.43748e-05 -1.58557e-05
0.000594182 9.45884e-05 1.68935e-06
9.45884e-05 2.04937e-05 4.86464e-06
1.68935e-06 4.86464e-06 -0.0001234
0.000518715 4.66387e-05 -1.46159e-06
4.66387e-05 -3.34869e-05 -6.84638e-07
-1.46159e-06 -6.84638e-07 -9.53119e-05
0.00430477 -0.000127145 -0.00014649
-0.000127145 0.00227114 -7.81696e-06
-0.00014649 -7.81696e-06 0.00226401
0.000380878 -1.44943e-05 3.98776e-06
-1.44943e-05 -0.000102859 9.8714e-06
3.98776e-06 9.8714e-06 -0.000152602
0.00347939 -0.00015281 -5.10998e-06
-0.00015281 0.00177862 4.09442e-07
-5.10998e-06 4.09442e-07 0.00176951
0.00312514 -0.000144239 6.527e-05
-0.000144239 0.0015585 2.71613e-06
6.527e-05 2.71613e-06 0.00155178
0.00195399 0.00015988 8.36507e-07
0.00015988 -3.5813e-05 -9.61748e-07
8.36507e-07 -9.61748e-07 -5.11714e-05
0.00191677 5.26977e-05 1.75735e-05
5.26977e-05 0.000112618 -7.78445e-07
1.75735e-05 -7.78445e-07 0.000165809
0.00430458 5.21096e-05 -0.000100704
5.21096e-05 0.000605512 -1.47901e-05
-0.000100704 -1.47901e-05 0.000807397
0.00180025 0.000358582 -2.53952e-06
0.000358582 6.57569e-05 1.32341e-06
-2.53952e-06 1.32341e-06 -9.47516e-05
0.00191564 0.000472336 -2.65622e-06
0.000472336 0.000261562 -8.83342e-08
-2.65622e-06 -8.83342e-08 4.26139e-05
0.00148655 0.000463424 -1.05982e-05
0.000463424 0.000137317 -7.52156e-06
-1.05982e-05 -7.52156e-06 -0.000101136
0.00203209 0.000387232 2.78633e-06
0.000387232 0.000275633 1.07299e-06
2.78633e-06 1.07299e-06 8.82713e-05
0.00176109 0.000429914 -1.57976e-06
0.000429914 0.000238561 -2.75314e-06
-1.57976e-06 -2.75314e-06 9.67904e-06
0.0022087 0.000300408 5.18472e-07
0.000300408 0.000197661 5.43461e-07
5.18472e-07 5.43461e-07 9.48664e-05
0.00172917 0.000410669 -5.13103e-07
0.000410669 2.85593e-05 7.3985e-07
-5.13103e-07 7.3985e-07 -0.000140267
0.00222537 0.000535475 -2.83214e-06
0.000535475 0.000438843 -5.54524e-07
-2.83214e-06 -5.54524e-07 0.000216654
0.0018242 0.000307218 -1.02548e-06
0.000307218 -2.01098e-05 -2.64369e-07
-1.02548e-06 -2.64369e-07 -0.000116887
0.00204484 0.000524916 1.69978e-05
0.000524916 0.000181636 2.28816e-06
1.69978e-05 2.28816e-06 2.57206e-06
0.00114587 0.000277113 -2.86198e-05
0.000277113 -0.000195754 -7.22682e-06
-2.86198e-05 -7.22682e-06 -0.000241887
0.00205354 5.36977e-05 -1.81864e-06
5.36977e-05 1.6431e-05 4.30419e-07
-1.81864e-06 4.30419e-07 1.6185e-05
0.00199133 5.5445e-05 -1.99579e-06
5.5445e-05 -1.10346e-05 2.14708e-07
-1.99579e-06 2.14708e-07 -3.30209e-06
0.00291166 -3.02166e-05 -3.91817e-05
-3.02166e-05 0.000848398 3.5339e-06
-3.91817e-05 3.5339e-06 0.000852988
0.00193638 -0.000178239 -9.7177e-06
-0.000178239 -9.80907e-05 -4.65618e-07
-9.7177e-06 -4.65618e-07 -4.50386e-05
0.00206834 -2.26156e-05 -2.38307e-06
-2.26156e-05 -8.48716e-06 -1.85738e-06
-2.38307e-06 -1.85738e-06 -9.48116e-06
0.00206438 -7.28256e-05 -3.29464e-07
-7.28256e-05 -9.28279e-06 8.41446e-08
-3.29464e-07 8.41446e-08 8.40119e-07
0.00192986 -5.77567e-05 -2.21767e-06
-5.77567e-05 2.5168e-05 1.87632e-07
-2.21767e-06 1.87632e-07 6.90088e-06
0.00197438 -0.000197944 1.82808e-06
-0.000197944 3.87731e-06 2.53784e-07
1.82808e-06 2.53784e-07 -6.36393e-06
0.00192194 -0.000170256 1.72764e-07
-0.000170256 1.75639e-05 -2.07229e-10
1.72764e-07 -2.07229e-10 -2.24643e-05
0.00182046 -0.000130976 2.2629e-06
-0.000130976 5.29695e-05 -1.43187e-06
2.2629e-06 -1.43187e-06 -2.30489e-05
0.00175813 -0.000232044 1.81965e-06
-0.000232044 1.05295e-05 -4.66861e-07
1.81965e-06 -4.66861e-07 -7.24793e-05
0.00184539 -0.000199752 -8.10437e-08
-0.000199752 9.01801e-05 3.01862e-08
-8.10437e-08 3.01862e-08 -5.19682e-06
0.00179899 -0.000183482 8.19355e-07
-0.000183482 0.000120022 -7.62039e-07
8.19355e-07 -7.62039e-07 -6.08342e-06
0.0018441 -0.000250261 -1.28296e-07
-0.000250261 0.000137991 4.08613e-07
-1.28296e-07 4.08613e-07 2.25417e-05
0.00176403 -0.000223948 -2.36165e-07
-0.000223948 0.000141941 -5.97977e-09
-2.36165e-07 -5.97977e-09 2.50444e-07
0.00144841 -0.000168153 -3.55998e-06
-0.000168153 9.05943e-05 8.23416e-07
-3.55998e-06 8.23416e-07 -6.65571e-05
0.0017449 -0.000252818 -2.40021e-07
-0.000252818 0.000173429 9.00533e-07
-2.40021e-07 9.00533e-07 1.59348e-05
0.00141492 -0.000192409 -1.83535e-07
-0.000192409 9.63307e-05 7.04961e-08
-1.83535e-07 7.04961e-08 -6.92375e-05
0.000968615 -0.000126872 -1.34267e-05
-0.000126872 -1.96023e-05 4.88874e-06
-1.34267e-05 4.88874e-06 -0.000161584
0.00139143 -0.000212293 5.46593e-06
-0.000212293 0.00010827 -1.3561e-06
5.46593e-06 -1.3561e-06 -6.52769e-05
0.000977453 -0.000142401 1.2776e-07
-0.000142401 -4.6257e-06 1.20361e-07
1.2776e-07 1.20361e-07 -0.000149193
0.00250008 -0.00012722 -3.98368e-05
-0.00012722 0.00106126 8.21478e-06
-3.98368e-05 8.21478e-06 0.000988115
0.000977738 -0.0001601 1.33491e-05
-0.0001601 9.48677e-06 -5.95435e-06
1.33491e-05 -5.95435e-06 -0.000140409
0.00262166 -0.000166134 3.87742e-05
-0.000166134 0.00114198 -5.10311e-06
3.87742e-05 -5.10311e-06 0.00106782
0.00181957 -9.37672e-05 -0.000192966
-9.37672e-05 0.000741768 2.57419e-05
-0.000192966 2.57419e-05 0.00072242
0.00367741 -3.21554e-05 -0.000190011
-3.21554e-05 0.00186521 1.32336e-05
-0.000190011 1.32336e-05 0.00185324
0.00271053 -0.000219697 0.000121062
-0.000219697 0.00120183 -1.70171e-05
0.000121062 -1.70171e-05 0.00112915
0.00578219 7.38221e-05 0.000198125
7.38221e-05 0.00313994 -1.91249e-05
0.000198125 -1.91249e-05 0.00312666
0.00208589 0.000305798 -1.95776e-06
0.000305798 0.000244913 -8.61268e-07
-1.95776e-06 -8.61268e-07 0.000102317
0.00160474 0.00028896 2.8233e-06
0.00028896 8.54519e-05 1.08221e-06
2.8233e-06 1.08221e-06 -9.21213e-05
0.00194964 0.000308823 3.82395e-07
0.000308823 0.000182048 -1.26767e-06
3.82395e-07 -1.26767e-06 2.75732e-05
0.00124551 0.00025443 -6.01871e-06
0.00025443 5.38018e-05 -8.80656e-07
-6.01871e-06 -8.80656e-07 -0.000138656
0.00177247 0.000363 6.50776e-07
0.000363 0.000233474 4.79514e-07
6.50776e-07 4.79514e-07 2.47854e-05
0.00186903 0.000396474 2.1818e-06
0.000396474 0.000404816 -1.26828e-06
2.1818e-06 -1.26828e-06 0.000168927
0.00120493 0.000257299 -1.45792e-07
0.000257299 9.38245e-05 -7.6672e-08
-1.45792e-07 -7.6672e-08 -0.000106106
0.000904357 0.000182548 -1.17891e-05
0.000182548 8.27018e-06 -5.75672e-06
-1.17891e-05 -5.75672e-06 -0.000154121
0.00114529 0.000244065 7.35921e-06
0.000244065 0.000119466 2.22224e-06
7.35921e-06 2.22224e-06 -8.39373e-05
0.000837001 0.000177716 -3.42359e-07
0.000177716 2.57213e-05 1.94956e-07
-3.42359e-07 1.94956e-07 -0.000141229
0.000608709 0.000192609 -2.33594e-05
0.000192609 -2.45915e-05 -1.52191e-05
-2.33594e-05 -1.52191e-05 -0.000122031
0.000616389 0.000159427 4.20956e-06
0.000159427 -1.356e-05 5.50065e-06
4.20956e-06 5.50065e-06 -0.000183644
0.000545271 0.000117335 2.37431e-09
0.000117335 -3.75089e-05 1.6418e-07
2.37431e-09 1.6418e-07 -0.000117784
0.00516929 -0.000128952 -0.000174921
-0.000128952 0.00279858 -1.44997e-05
-0.000174921 -1.44997e-05 0.00278014
0.00029111 1.8585e-05 6.96109e-06
1.8585e-05 -0.000161193 1.16174e-05
6.96109e-06 1.16174e-05 -0.000221676
0.00408114 -0.000169545 -9.46025e-06
-0.000169545 0.00214796 6.48707e-07
-9.46025e-06 6.48707e-07 0.00213251
0.00336686 -0.000161418 7.61109e-05
-0.000161418 0.00171274 2.37285e-06
7.61109e-05 2.37285e-06 0.00170125
0.00199759 0.000176335 -8.8989e-07
0.000176335 8.51492e-06 4.97201e-07
-8.8989e-07 4.97201e-07 -3.54636e-05
0.00188831 0.000160758 8.88081e-07
0.000160758 -7.0968e-05 -1.84792e-07
8.88081e-07 -1.84792e-07 -8.69203e-05
0.00306324 3.92278e-05 -7.22058e-05
3.92278e-05 0.000721785 -7.36664e-06
-7.22058e-05 -7.36664e-06 0.000768901
0.00199864 0.000263596 8.57868e-07
0.000263596 0.00012184 6.35622e-07
8.57868e-07 6.35622e-07 9.36669e-06
0.00181736 0.000355713 -4.16373e-07
0.000355713 9.42123e-05 3.4541e-07
-4.16373e-07 3.4541e-07 -6.61688e-05
0.00157365 0.000441162 -2.88211e-07
0.000441162 7.72023e-05 -2.09822e-06
-2.88211e-07 -2.09822e-06 -0.000138536
0.00209993 0.000379159 -7.00812e-07
0.000379159 0.000328289 -2.35761e-06
-7.00812e-07 -2.35761e-06 0.000143283
0.0020736 0.000290066 -8.03564e-07
0.000290066 0.000122575 -9.00424e-08
-8.03564e-07 -9.00424e-08 2.01077e-05
0.00161046 0.000403949 -2.90259e-06
0.000403949 -2.02347e-05 1.68799e-07
-2.90259e-06 1.68799e-07 -0.00018951
0.00176864 0.000307303 7.02414e-06
0.000307303 -3.09689e-05 3.52077e-07
7.02414e-06 3.52077e-07 -0.000129191
0.00192518 4.94189e-05 -7.40752e-07
4.94189e-05 1.2746e-05 5.57026e-07
-7.40752e-07 5.57026e-07 -6.95891e-06
0.00201129 5.33595e-05 2.09758e-07
5.33595e-05 2.66974e-06 -1.45794e-07
2.09758e-07 -1.45794e-07 -1.14373e-06
0.00205791 6.54473e-05 -8.17674e-06
6.54473e-05 3.79018e-05 3.96116e-07
-8.17674e-06 3.96116e-07 4.27334e-05
0.00181396 -1.33962e-05 -3.99318e-06
-1.33962e-05 7.32442e-07 3.63521e-07
-3.99318e-06 3.63521e-07 -3.34246e-05
0.00202551 -8.11209e-05 1.95482e-06
-8.11209e-05 -4.7309e-05 -5.19418e-07
1.95482e-06 -5.19418e-07 -3.2709e-05
0.00192134 -6.05526e-05 -7.15203e-07
-6.05526e-05 1.85591e-05 2.7611e-07
-7.15203e-07 2.7611e-07 -3.93067e-07
0.00187822 -7.62868e-05 -2.12736e-06
-7.62868e-05 8.19927e-05 -9.93527e-08
-2.12736e-06 -9.93527e-08 2.0311e-05
0.00183643 -0.000170459 2.65152e-06
-0.000170459 -2.24387e-05 -2.00452e-07
2.65152e-06 -2.00452e-07 -6.61827e-05
0.00186227 -0.000132448 2.12331e-06
-0.000132448 6.86676e-05 -7.96837e-07
2.12331e-06 -7.96837e-07 -6.98921e-06
0.00183776 -0.000129603 3.09154e-06
-0.000129603 0.000124086 -1.15954e-06
3.09154e-06 -1.15954e-06 1.12928e-05
0.00190879 -0.000202186 2.95427e-07
-0.000202186 0.000121856 4.16186e-07
2.95427e-07 4.16186e-07 2.63114e-05
0.0018126 -0.000182251 -1.27307e-07
-0.000182251 0.000130607 -1.58255e-07
-1.27307e-07 -1.58255e-07 4.86891e-06
0.00148962 -0.000136595 -2.72212e-06
-0.000136595 8.90628e-05 3.82056e-07
-2.72212e-06 3.82056e-07 -5.815e-05
0.00179523 -0.000224872 -6.52555e-07
-0.000224872 0.000160308 8.07798e-07
-6.52555e-07 8.07798e-07 1.87876e-05
0.00145117 -0.000167729 -1.81817e-07
-0.000167729 9.02317e-05 1.277e-07
-1.81817e-07 1.277e-07 -6.64848e-05
0.00098059 -0.000108799 -1.29167e-05
-0.000108799 -2.39861e-05 3.94335e-06
-1.29167e-05 3.94335e-06 -0.000162876
0.0014302 -0.000192878 4.12462e-06
-0.000192878 0.000103628 -1.06574e-06
4.12462e-06 -1.06574e-06 -6.15398e-05
0.00099013 -0.000125637 5.0089e-09
-0.000125637 -9.24202e-06 2.01166e-07
5.0089e-09 2.01166e-07 -0.000150503
0.0025254 -0.000133812 -4.76461e-05
-0.000133812 0.00107082 7.97829e-06
-4.76461e-05 7.97829e-06 0.001
0.000993718 -0.000141704 1.36458e-05
-0.000141704 2.59996e-06 -5.47914e-06
1.36458e-05 -5.47914e-06 -0.000141402
0.0026017 -0.000156646 3.5289e-05
-0.000156646 0.00112055 -4.19242e-06
3.5289e-05 -4.19242e-06 0.00105193
0.00185788 -8.12904e-05 -0.000188664
-8.12904e-05 0.00075936 2.29577e-05
-0.000188664 2.29577e-05 0.00074115
0.00275352 -0.000181307 0.000119291
-0.000181307 0.00121675 -1.88243e-05
0.000119291 -1.88243e-05 0.00114833
0.00157142 -3.16104e-05 -8.47853e-05
-3.16104e-05 0.000599245 1.00327e-05
-8.47853e-05 1.00327e-05 0.000570073
0.00549065 0.000151689 3.81309e-05
0.000151689 0.00295497 -2.19575e-06
3.81309e-05 -2.19575e-06 0.00292871
0.00188643 0.000251305 5.3282e-07
0.000251305 0.000113048 2.8418e-07
5.3282e-07 2.8418e-07 -1.7386e-05
0.00186995 0.00027815 -2.14004e-08
0.00027815 0.000197739 -7.45266e-07
-2.14004e-08 -7.45266e-07 3.87042e-05
0.0019738 0.000301543 -3.48847e-06
0.000301543 0.000175201 2.46806e-08
-3.48847e-06 2.46806e-08 3.0584e-05
0.00166071 0.000250801 -3.34176e-06
0.000250801 0.000255228 -5.72171e-07
-3.34176e-06 -5.72171e-07 7.7172e-05
0.00164004 0.000296034 2.79245e-07
0.000296034 9.67429e-05 -1.52319e-06
2.79245e-07 -1.52319e-06 -7.89092e-05
0.00194785 0.000306544 -3.1126e-06
0.000306544 0.000179729 -3.47487e-06
-3.1126e-06 -3.47487e-06 3.0247e-05
0.00095673 0.000177241 -1.34782e-05
0.000177241 -1.49557e-06 -5.54368e-06
-1.34782e-05 -5.54368e-06 -0.000157813
0.00129851 0.000258077 -1.851e-07
0.000258077 8.54744e-05 3.43705e-07
-1.851e-07 3.43705e-07 -0.000107692
0.00183597 0.000365516 2.7339e-06
0.000365516 0.000260253 -1.98074e-06
2.7339e-06 -1.98074e-06 5.08468e-05
0.00126274 0.000258477 7.73795e-06
0.000258477 0.000133204 2.27034e-06
7.73795e-06 2.27034e-06 -6.63488e-05
0.000885058 0.000180703 -5.88286e-07
0.000180703 -2.32871e-06 -4.56725e-08
-5.88286e-07 -4.56725e-08 -0.000164115
0.000551634 0.00021453 -2.50679e-05
0.00021453 -6.90429e-05 -1.48856e-05
-2.50679e-05 -1.48856e-05 -0.000170362
0.000771011 0.000171349 9.27982e-06
0.000171349 -1.77518e-05 5.52212e-06
9.27982e-06 5.52212e-06 -0.000183222
0.000529013 0.000183876 2.15388e-06
0.000183876 -6.87459e-05 4.48748e-07
2.15388e-06 4.48748e-07 -0.000164597
0.00570878 -0.000100822 -0.000188141
-0.000100822 0.00312638 -2.06029e-05
-0.000188141 -2.06029e-05 0.00310028
0.000357888 0.000102479 1.56943e-05
0.000102479 -0.000150143 1.41164e-05
1.56943e-05 1.41164e-05 -0.000224172
0.00489626 -0.000166888 -9.92913e-06
-0.000166888 0.00263574 6.6113e-07
-9.92913e-06 6.6113e-07 0.00261646
0.00381672 -0.000184661 9.15494e-05
-0.000184661 0.00199313 2.99362e-06
9.15494e-05 2.99362e-06 0.00197436
0.00193458 0.000142424 -1.13477e-06
0.000142424 5.23122e-05 1.16441e-06
-1.13477e-06 1.16441e-06 -1.23192e-05
0.00202085 0.000180042 6.4419e-07
0.000180042 1.50203e-05 3.93073e-07
6.4419e-07 3.93073e-07 -2.59415e-05
0.00188915 0.000165364 -2.46502e-07
0.000165364 -7.65937e-05 8.34979e-07
-2.46502e-07 8.34979e-07 -9.33299e-05
0.00199611 0.000258751 2.28033e-07
0.000258751 0.000125179 7.35789e-09
2.28033e-07 7.35789e-09 1.55505e-05
0.00182357 0.000352057 -1.25541e-06
0.000352057 0.000117204 -8.73504e-07
-1.25541e-06 -8.73504e-07 -4.29589e-05
0.00195383 0.000279835 -1.43721e-07
0.000279835 5.7029e-05 -7.53497e-07
-1.43721e-07 -7.53497e-07 -4.49315e-05
0.00192438 5.47649e-05 -2.02763e-06
5.47649e-05 6.63271e-05 1.21161e-07
-2.02763e-06 1.21161e-07 2.551e-05
0.00193779 4.71072e-05 3.7666e-07
4.71072e-05 2.41291e-05 -1.33911e-07
3.7666e-07 -1.33911e-07 2.84341e-06
0.00199385 5.35906e-05 1.54057e-06
5.35906e-05 3.34229e-06 -7.14615e-08
1.54057e-06 -7.14615e-08 -3.95658e-06
0.00186836 -1.80305e-05 -1.93103e-06
-1.80305e-05 3.01666e-05 9.79307e-08
-1.93103e-06 9.79307e-08 -3.46956e-06
0.00179108 -3.6223e-05 -2.46967e-06
-3.6223e-05 3.82907e-05 -8.8055e-08
-2.46967e-06 -8.8055e-08 -2.74093e-05
0.00191255 -6.3345e-05 1.59482e-06
-6.3345e-05 1.16426e-05 5.29777e-08
1.59482e-06 5.29777e-08 -7.92128e-06
0.001836 -7.52573e-05 -1.90863e-06
-7.52573e-05 5.72078e-05 6.24286e-07
-1.90863e-06 6.24286e-07 -8.6763e-06
0.00188553 -7.6578e-05 1.72682e-07
-7.6578e-05 0.000156719 -4.50684e-07
1.72682e-07 -4.50684e-07 5.86609e-05
0.0018911 -0.000133974 2.74748e-06
-0.000133974 7.74346e-05 -2.37221e-07
2.74748e-06 -2.37221e-07 2.05033e-06
0.00180361 -0.000129967 2.40991e-06
-0.000129967 0.0001073 -7.00421e-07
2.40991e-06 -7.00421e-07 -5.55908e-06
0.00150569 -9.7566e-05 -1.44977e-06
-9.7566e-05 7.65138e-05 -1.25e-07
-1.44977e-06 -1.25e-07 -6.12055e-05
0.00181108 -0.000182298 -1.14446e-06
-0.000182298 0.000131477 4.37323e-07
-1.14446e-06 4.37323e-07 5.83188e-06
0.00148175 -0.00013625 -1.1277e-07
-0.00013625 8.13742e-05 3.55337e-08
-1.1277e-07 3.55337e-08 -6.55987e-05
0.000984901 -8.6189e-05 -1.25035e-05
-8.6189e-05 -3.23827e-05 3.00591e-06
-1.25035e-05 3.00591e-06 -0.000167065
0.00145827 -0.000167539 3.06724e-06
-0.000167539 9.1733e-05 -5.86544e-07
3.06724e-06 -5.86544e-07 -6.45627e-05
0.000998848 -0.000107024 -1.1932e-07
-0.000107024 -1.50137e-05 2.29105e-07
-1.1932e-07 2.29105e-07 -0.000153201
0.00250236 -0.000145237 -5.12e-05
-0.000145237 0.00105386 7.16565e-06
-5.12e-05 7.16565e-06 0.000982903
0.00101147 -0.000124455 1.33426e-05
-0.000124455 8.31644e-07 -4.57516e-06
1.33426e-05 -4.57516e-06 -0.000139688
0.00259241 -0.000140173 3.39359e-05
-0.000140173 0.00110716 -3.18194e-06
3.39359e-05 -3.18194e-06 0.00104128
0.00189354 -6.92361e-05 -0.000188576
-6.92361e-05 0.00077421 1.96584e-05
-0.000188576 1.96584e-05 0.000756607
0.002702 -0.000155366 0.000117534
-0.000155366 0.00117501 -1.63312e-05
0.000117534 -1.63312e-05 0.0011127
0.00157327 -4.26514e-05 -7.69379e-05
-4.26514e-05 0.000593945 8.63065e-06
-7.69379e-05 8.63065e-06 0.000567649
0.00137371 -2.52284e-05 3.70597e-05
-2.52284e-05 0.000485971 -5.68244e-06
3.70597e-05 -5.68244e-06 0.000448704
0.00195611 0.000151873 -1.01497e-06
0.000151873 0.000133793 1.47297e-06
-1.01497e-06 1.47297e-06 3.79475e-05
0.00184232 0.000233344 -1.12326e-06
0.000233344 0.000151121 2.41757e-07
-1.12326e-06 2.41757e-07 6.40685e-06
0.00189388 0.0002521 -6.81253e-07
0.0002521 0.000109355 -6.97072e-08
-6.81253e-07 -6.97072e-08 -1.8136e-05
0.00176061 0.00023297 -2.60119e-06
0.00023297 0.000267695 -4.0181e-07
-2.60119e-06 -4.0181e-07 0.000103965
0.00181496 0.00027349 2.22491e-07
0.00027349 0.000171167 -7.47765e-08
2.22491e-07 -7.47765e-08 1.09571e-05
0.00185743 0.000297269 5.30475e-07
0.000297269 0.000103241 1.63214e-07
5.30475e-07 1.63214e-07 -4.34546e-05
0.00100206 0.000163021 -1.40867e-05
0.000163021 3.10448e-07 -5.16512e-06
-1.40867e-05 -5.16512e-06 -0.000148533
0.00152248 0.000247988 3.20445e-06
0.000247988 0.000167997 5.92955e-07
3.20445e-06 5.92955e-07 -1.02517e-05
0.00168122 0.000303461 5.89549e-08
0.000303461 0.000111984 -2.3288e-06
5.89549e-08 -2.3288e-06 -6.1758e-05
0.00049149 0.000178821 -2.26698e-05
0.000178821 -0.000115182 -1.30203e-05
-2.26698e-05 -1.30203e-05 -0.000213007
0.000951208 0.000176326 -5.94935e-07
0.000176326 -2.69898e-06 1.56057e-07
-5.94935e-07 1.56057e-07 -0.000158681
0.00135664 0.000262218 7.59491e-06
0.000262218 0.00011978 2.29989e-06
7.59491e-06 2.29989e-06 -7.42067e-05
0.000878585 0.000179705 1.16574e-05
0.000179705 -5.41838e-06 5.9308e-06
1.16574e-05 5.9308e-06 -0.000166754
0.00052552 0.000196406 1.45551e-06
0.000196406 -8.03861e-05 6.27905e-07
1.45551e-06 6.27905e-07 -0.000183145
0.00592772 -6.57566e-06 -0.000204203
-6.57566e-06 0.00323492 -2.32609e-05
-0.000204203 -2.32609e-05 0.00321819
0.000461699 0.000170455 2.1152e-05
0.000170455 -0.000107719 1.48597e-05
2.1152e-05 1.48597e-05 -0.000200851
0.0055364 -0.000120921 3.77002e-06
-0.000120921 0.00301035 -9.73502e-07
3.77002e-06 -9.73502e-07 0.00299223
0.00459059 -0.000219922 0.000112993
-0.000219922 0.00247079 6.30007e-06
0.000112993 6.30007e-06 0.00243951
0.00183398 9.88093e-05 -3.45453e-06
9.88093e-05 3.37914e-05 9.5648e-07
-3.45453e-06 9.5648e-07 -2.51373e-05
0.00190421 0.000142023 1.24682e-06
0.000142023 3.66526e-05 7.86329e-07
1.24682e-06 7.86329e-07 -2.62544e-05
0.00202109 0.000183568 -4.83466e-07
0.000183568 8.37115e-06 -3.66242e-07
-4.83466e-07 -3.66242e-07 -2.97146e-05
0.00199912 0.000253727 2.39057e-06
0.000253727 0.000131883 -3.05722e-07
2.39057e-06 -3.05722e-07 2.51656e-05
0.00172629 2.609e-06 1.18222e-07
2.609e-06 9.96586e-06 -1.05958e-07
1.18222e-07 -1.05958e-07 -5.92837e-05
0.00192611 4.74989e-05 3.60558e-07
4.74989e-05 6.09293e-05 3.80562e-08
3.60558e-07 3.80562e-08 2.17104e-05
0.001954 4.49297e-05 1.71827e-06
4.49297e-05 3.85314e-05 -2.10844e-07
1.71827e-06 -2.10844e-07 1.54347e-05
0.0019253 -2.04752e-05 6.69014e-07
-2.04752e-05 6.0829e-05 -5.55616e-07
6.69014e-07 -5.55616e-07 2.77962e-05
0.00179087 -2.95757e-05 -2.11645e-06
-2.95757e-05 4.00861e-05 9.357e-08
-2.11645e-06 9.357e-08 -2.3116e-05
0.00182923 -3.0734e-05 2.315e-06
-3.0734e-05 0.000130098 -8.99859e-07
2.315e-06 -8.99859e-07 3.40116e-05
0.00179108 -7.4279e-05 -1.09109e-06
-7.4279e-05 2.96662e-05 1.10968e-06
-1.09109e-06 1.10968e-06 -4.02897e-05
0.00180046 -7.61598e-05 -3.31321e-07
-7.61598e-05 0.000109599 3.18295e-07
-3.31321e-07 3.18295e-07 6.4106e-06
0.00156841 -5.68027e-05 -2.39997e-06
-5.68027e-05 9.91461e-05 -1.56622e-07
-2.39997e-06 -1.56622e-07 -2.67524e-05
0.00178857 -0.000129266 1.49394e-06
-0.000129266 0.000101609 -1.84897e-07
1.49394e-06 -1.84897e-07 -1.10545e-05
0.00150481 -9.55471e-05 7.10185e-07
-9.55471e-05 7.41419e-05 -2.37558e-07
7.10185e-07 -2.37558e-07 -6.31317e-05
0.000983283 -6.0106e-05 -1.22913e-05
-6.0106e-05 -4.16577e-05 2.18626e-06
-1.22913e-05 2.18626e-06 -0.000171966
0.00148025 -0.000133875 2.45908e-06
-0.000133875 7.82983e-05 -3.64397e-07
2.45908e-06 -3.64397e-07 -6.8117e-05
0.000992984 -8.54283e-05 -6.00247e-08
-8.54283e-05 -2.81832e-05 1.77262e-07
-6.00247e-08 1.77262e-07 -0.000162526
0.00057218 -8.23984e-05 -1.97983e-05
-8.23984e-05 -0.000118094 4.98129e-06
-1.97983e-05 4.98129e-06 -0.000195334
0.00101674 -0.000105222 1.27814e-05
-0.000105222 -6.11158e-06 -3.53714e-06
1.27814e-05 -3.53714e-06 -0.000143569
0.00158199 -9.32797e-05 4.81084e-05
-9.32797e-05 0.000493087 -3.21369e-06
4.81084e-05 -3.21369e-06 0.000423929
0.0056848 -0.000123921 -0.000243586
-0.000123921 0.0030475 1.55973e-05
-0.000243586 1.55973e-05 0.00305506
0.00267736 -0.000126619 0.000116518
-0.000126619 0.00114952 -1.31772e-05
0.000116518 -1.31772e-05 0.00109094
0.00158857 -5.18757e-05 -6.93547e-05
-5.18757e-05 0.000599886 5.88621e-06
-6.93547e-05 5.88621e-06 0.000573508
0.00129167 -6.46039e-05 4.82572e-05
-6.46039e-05 0.000438425 -6.7971e-06
4.82572e-05 -6.7971e-06 0.000400459
0.00189142 0.000106314 -1.35182e-06
0.000106314 0.000110166 1.72363e-06
-1.35182e-06 1.72363e-06 2.92039e-05
0.0018935 0.000164941 1.59243e-07
0.000164941 0.0001662 1.41709e-06
1.59243e-07 1.41709e-06 4.36778e-05
0.00197122 0.000148632 4.47358e-07
0.000148632 0.000149591 5.98595e-08
4.47358e-07 5.98595e-08 5.31377e-05
0.00157439 0.00018733 -2.9671e-06
0.00018733 0.000120026 -2.41174e-07
-2.9671e-06 -2.41174e-07 -3.21044e-05
0.00181795 0.000229929 3.91234e-07
0.000229929 0.000137192 3.68416e-09
3.91234e-07 3.68416e-09 -6.96943e-06
0.0018938 0.000253053 4.17096e-07
0.000253053 0.000100469 -9.45106e-08
4.17096e-07 -9.45106e-08 -2.41559e-05
0.000761752 0.000131236 -1.56232e-05
0.000131236 -0.000163691 -4.53932e-06
-1.56232e-05 -4.53932e-06 -0.000306742
0.00177625 0.000233823 2.52775e-06
0.000233823 0.000276684 6.62223e-07
2.52775e-06 6.62223e-07 0.000113063
0.00175344 0.000268358 1.18781e-07
0.000268358 0.000140701 -4.40338e-07
1.18781e-07 -4.40338e-07 -2.06572e-05
0.000477226 0.000130805 -1.9595e-05
0.000130805 -0.000142991 -1.01387e-05
-1.9595e-05 -1.01387e-05 -0.000232159
0.000826247 0.000154249 4.47214e-07
0.000154249 -0.000103782 2.93266e-07
4.47214e-07 2.93266e-07 -0.00025305
0.00137234 0.000244364 8.95048e-06
0.000244364 7.34509e-05 1.41487e-06
8.95048e-06 1.41487e-06 -0.000104864
0.00594451 7.80644e-05 -0.00021649
7.80644e-05 0.00322087 -2.27121e-05
-0.00021649 -2.27121e-05 0.00321513
0.000490335 0.000166707 1.01781e-06
0.000166707 -0.000115622 6.91085e-07
1.01781e-06 6.91085e-07 -0.000214318
0.000927707 0.000174395 1.33539e-05
0.000174395 -1.41318e-05 5.95424e-06
1.33539e-05 5.95424e-06 -0.000169688
0.00045347 0.000179538 2.09283e-05
0.000179538 -0.000118759 1.47445e-05
2.09283e-05 1.47445e-05 -0.000222664
0.00580627 -1.73052e-05 9.0607e-06
-1.73052e-05 0.00315291 -4.97284e-07
9.0607e-06 -4.97284e-07 0.00314335
0.00535537 -0.000158371 0.000161668
-0.000158371 0.00289962 8.30909e-06
0.000161668 8.30909e-06 0.00288201
0.00184037 6.27512e-05 -2.6695e-06
6.27512e-05 8.05444e-05 -3.71554e-07
-2.6695e-06 -3.71554e-07 1.02249e-05
0.001885 9.89898e-05 4.72222e-07
9.89898e-05 6.10293e-05 6.55538e-07
4.72222e-07 6.55538e-07 1.33966e-06
0.00187352 0.000141662 2.00532e-06
0.000141662 2.0911e-05 2.22575e-07
2.00532e-06 2.22575e-07 -4.02066e-05
0.00168172 4.90391e-06 2.47574e-06
4.90391e-06 4.06101e-05 -7.20712e-07
2.47574e-06 -7.20712e-07 -5.77364e-05
0.00172478 5.40467e-06 4.47902e-07
5.40467e-06 1.34316e-05 1.54546e-07
4.47902e-07 1.54546e-07 -5.33148e-05
0.00192469 3.87896e-05 2.0191e-06
3.87896e-05 5.39749e-05 -2.52565e-07
2.0191e-06 -2.52565e-07 1.63786e-05
0.00178627 -2.40391e-05 -1.54424e-06
-2.40391e-05 3.93862e-05 7.98712e-07
-1.54424e-06 7.98712e-07 -2.14929e-05
0.00178682 -2.71579e-05 9.89806e-07
-2.71579e-05 0.000103842 -1.02566e-07
9.89806e-07 -1.02566e-07 8.05252e-06
0.00175653 -2.1245e-05 -2.47387e-07
-2.1245e-05 0.000217371 -5.8917e-07
-2.47387e-07 -5.8917e-07 9.76306e-05
0.00171488 -7.56172e-05 -2.25283e-06
-7.56172e-05 6.30055e-05 1.07057e-06
-2.25283e-06 1.07057e-06 -4.53257e-05
0.00162589 -5.72911e-05 7.51942e-08
-5.72911e-05 0.000135571 5.7071e-08
7.51942e-08 5.7071e-08 7.76026e-06
0.000802124 -2.99451e-05 -1.37321e-05
-2.99451e-05 -0.000157075 1.33623e-06
-1.37321e-05 1.33623e-06 -0.000284061
0.00149282 -9.55054e-05 2.79332e-06
-9.55054e-05 6.50269e-05 -4.14439e-07
2.79332e-06 -4.14439e-07 -7.21216e-05
0.000990936 -5.71076e-05 -4.54123e-08
-5.71076e-05 -3.83826e-05 1.35678e-07
-4.54123e-08 1.35678e-07 -0.000168219
0.000576955 -2.09144e-05 -1.84976e-05
-2.09144e-05 -0.000118875 3.19057e-06
-1.84976e-05 3.19057e-06 -0.000194529
0.00101576 -8.40982e-05 1.23869e-05
-8.40982e-05 -1.61139e-05 -2.64444e-06
1.23869e-05 -2.64444e-06 -0.00014996
0.000577978 -6.553e-05 -2.19485e-07
-6.553e-05 -0.000112493 3.60747e-07
-2.19485e-07 3.60747e-07 -0.000191252
0.00568896 -1.87512e-05 -0.000234832
-1.87512e-05 0.00304633 9.45665e-06
-0.000234832 9.45665e-06 0.00305637
0.000610436 -6.8291e-05 1.5907e-05
-6.8291e-05 -9.1471e-05 -6.88857e-06
1.5907e-05 -6.88857e-06 -0.000172678
0.00358289 -8.14009e-05 0.000108357
-8.14009e-05 0.0017935 -4.23407e-06
0.000108357 -4.23407e-06 0.00177752
0.0012503 -7.44041e-05 5.44954e-05
-7.44041e-05 0.000415277 -7.26326e-06
5.44954e-05 -7.26326e-06 0.000375253
0.00179009 9.35491e-05 -1.73775e-06
9.35491e-05 7.03366e-05 2.07966e-07
-1.73775e-06 2.07966e-07 -1.15521e-05
0.00178175 0.000102701 2.21991e-06
0.000102701 0.000103339 2.40622e-06
2.21991e-06 2.40622e-06 -6.6155e-06
0.00193261 0.000103134 7.72592e-08
0.000103134 0.000135822 -3.16429e-07
7.72592e-08 -3.16429e-07 5.62724e-05
0.00152004 0.000134387 -1.80418e-06
0.000134387 7.35302e-05 8.75175e-09
-1.80418e-06 8.75175e-09 -6.89311e-05
0.0018667 0.000164019 5.31198e-07
0.000164019 0.000145768 2.0558e-07
5.31198e-07 2.0558e-07 2.20035e-05
0.00199398 0.00014531 6.51049e-07
0.00014531 0.000169864 -1.48384e-06
6.51049e-07 -1.48384e-06 7.28378e-05
0.000812475 0.000109138 -1.46689e-05
0.000109138 -0.000149564 -3.46712e-06
-1.46689e-05 -3.46712e-06 -0.000286622
0.00165752 0.000188373 9.91309e-08
0.000188373 0.000173196 2.71848e-07
9.91309e-08 2.71848e-07 2.03487e-05
0.00179796 0.000226638 7.1934e-07
0.000226638 0.000126207 -4.26939e-07
7.1934e-07 -4.26939e-07 -1.73841e-05
0.000494112 9.28929e-05 -1.80173e-05
9.28929e-05 -0.00015132 -7.40232e-06
-1.80173e-05 -7.40232e-06 -0.000233501
0.000738381 0.00013027 -2.70857e-06
0.00013027 -0.000176684 -3.28203e-07
-2.70857e-06 -3.28203e-07 -0.000319823
0.00179508 0.000235072 7.82096e-06
0.000235072 0.000287558 1.83449e-06
7.82096e-06 1.83449e-06 0.000123975
0.00587218 0.000153273 -0.000234576
0.000153273 0.00316463 -2.17858e-05
-0.000234576 -2.17858e-05 0.00316547
0.000489733 0.000125745 3.33986e-07
0.000125745 -0.000136509 3.76966e-07
3.33986e-07 3.76966e-07 -0.000226116
0.000659927 0.000146346 1.38423e-05
0.000146346 -0.000202543 5.0994e-06
1.38423e-05 5.0994e-06 -0.000352333
0.00585596 9.24903e-05 1.28396e-05
9.24903e-05 0.00317018 1.49705e-06
1.28396e-05 1.49705e-06 0.00316498
0.000475878 0.000154287 1.95795e-05
0.000154287 -0.000123942 1.29452e-05
1.95795e-05 1.29452e-05 -0.000223373
0.00569332 -4.96225e-05 0.000198453
-4.96225e-05 0.00307544 1.27117e-05
0.000198453 1.27117e-05 0.00307238
0.00181473 4.48299e-05 9.53991e-07
4.48299e-05 0.00010872 -3.90631e-07
9.53991e-07 -3.90631e-07 1.24942e-05
0.00180231 6.06678e-05 -1.80871e-06
6.06678e-05 6.57125e-05 3.52662e-07
-1.80871e-06 3.52662e-07 -6.41708e-06
0.00192954 9.88038e-05 3.02984e-06
9.88038e-05 8.39296e-05 2.06084e-07
3.02984e-06 2.06084e-07 2.35643e-05
0.00175324 -1.76055e-06 8.10738e-07
-1.76055e-06 0.000222347 -4.15228e-07
8.10738e-07 -4.15228e-07 0.000105017
0.00168439 3.72858e-06 4.00209e-08
3.72858e-06 4.00464e-05 -1.70731e-08
4.00209e-08 -1.70731e-08 -5.62335e-05
0.00175562 9.6186e-06 2.09825e-06
9.6186e-06 3.59023e-05 4.41147e-07
2.09825e-06 4.41147e-07 -2.82025e-05
0.001746 -2.40053e-05 -4.29473e-07
-2.40053e-05 7.88351e-05 7.36651e-07
-4.29473e-07 7.36651e-07 -1.66887e-05
0.00175445 -2.10868e-05 2.7814e-06
-2.10868e-05 0.000215395 -2.73542e-07
2.7814e-06 -2.73542e-07 9.5592e-05
0.00081782 -1.00107e-05 -1.32347e-05
-1.00107e-05 -0.00014506 5.78139e-07
-1.32347e-05 5.78139e-07 -0.000268998
0.00168881 -5.79941e-05 2.64735e-06
-5.79941e-05 0.000175138 4.61483e-08
2.64735e-06 4.61483e-08 4.54109e-05
0.000900781 -2.9734e-05 -2.13778e-06
-2.9734e-05 -9.80354e-05 1.85881e-07
-2.13778e-06 1.85881e-07 -0.000224681
0.000579042 -6.64182e-06 -1.87433e-05
-6.64182e-06 -0.000120855 2.05352e-06
-1.87433e-05 2.05352e-06 -0.000194895
0.00100276 -5.52768e-05 1.19253e-05
-5.52768e-05 -3.22201e-05 -1.8902e-06
1.19253e-05 -1.8902e-06 -0.000161694
0.000558267 -3.19652e-05 8.61527e-07
-3.19652e-05 -0.000131518 -6.38293e-08
8.61527e-07 -6.38293e-08 -0.000205861
0.00562913 -0.000116449 -0.000243032
-0.000116449 0.00301966 1.00388e-05
-0.000243032 1.00388e-05 0.00302623
0.000552946 -4.88505e-05 1.78717e-05
-4.88505e-05 -0.000127436 -3.8875e-06
1.78717e-05 -3.8875e-06 -0.000205976
0.00566541 -5.49208e-05 7.70686e-06
-5.49208e-05 0.00303334 -5.66577e-08
7.70686e-06 -5.66577e-08 0.00304354
0.0015895 -2.17371e-05 0.000194263
-2.17371e-05 0.000592248 -1.09262e-05
0.000194263 -1.09262e-05 0.000579501
0.00168801 7.25667e-05 2.36878e-06
7.25667e-05 4.40655e-05 5.6733e-07
2.36878e-06 5.6733e-07 -6.17616e-05
0.00178385 9.73537e-05 -3.16797e-06
9.73537e-05 6.28853e-05 -1.00274e-06
-3.16797e-06 -1.00274e-06 -1.62923e-05
0.00151832 8.39255e-05 -8.59557e-07
8.39255e-05 7.20261e-05 2.66249e-07
-8.59557e-07 2.66249e-07 -6.01156e-05
0.00178248 0.000101652 6.56039e-07
0.000101652 0.000102226 1.90838e-07
6.56039e-07 1.90838e-07 -7.83875e-06
0.00197756 0.000100233 3.62688e-07
0.000100233 0.000163665 -2.99445e-06
3.62688e-07 -2.99445e-06 8.55086e-05
0.001047 8.41237e-05 -1.25336e-05
8.41237e-05 -1.29264e-05 -2.32877e-06
-1.25336e-05 -2.32877e-06 -0.000142461
0.00151692 0.00013394 1.034e-07
0.00013394 7.35305e-05 8.67412e-08
1.034e-07 8.67412e-08 -6.90797e-05
0.00183519 0.000162916 4.36267e-07
0.000162916 0.000122742 -8.52867e-07
4.36267e-07 -8.52867e-07 -2.26576e-06
0.000521498 6.61184e-05 -1.75809e-05
6.61184e-05 -0.000147833 -5.33434e-06
-1.75809e-05 -5.33434e-06 -0.000226179
0.000890945 0.000112287 -2.88249e-06
0.000112287 -0.000101027 -2.49702e-07
-2.88249e-06 -2.49702e-07 -0.000237865
0.00174309 0.000189262 4.00989e-06
0.000189262 0.000228053 1.06432e-06
4.00989e-06 1.06432e-06 7.45301e-05
0.00581352 0.000194729 -0.000253056
0.000194729 0.00313194 -2.0924e-05
-0.000253056 -2.0924e-05 0.00313203
0.000517795 9.2548e-05 1.3267e-08
9.2548e-05 -0.000138274 1.75689e-07
1.3267e-08 1.75689e-07 -0.000220646
0.000714991 0.000129367 9.76528e-06
0.000129367 -0.000189939 3.68816e-06
9.76528e-06 3.68816e-06 -0.000333116
0.00582715 0.000173686 1.08229e-05
0.000173686 0.00314751 3.08928e-06
1.08229e-05 3.08928e-06 0.00314391
0.000504676 0.000119074 1.84475e-05
0.000119074 -0.000129108 1.01217e-05
1.84475e-05 1.01217e-05 -0.0002187
0.00580409 8.78748e-05 0.00022422
8.78748e-05 0.00312842 1.88802e-05
0.00022422 1.88802e-05 0.00313071
0.00173421 3.10094e-05 1.73533e-06
3.10094e-05 0.000210036 -6.26231e-09
1.73533e-06 -6.26231e-09 9.22042e-05
0.00176456 4.02874e-05 -1.60765e-06
4.02874e-05 8.21129e-05 1.11608e-07
-1.60765e-06 1.11608e-07 -1.56485e-05
0.00175504 5.82913e-05 -8.94595e-07
5.82913e-05 4.59094e-05 1.83262e-07
-8.94595e-07 1.83262e-07 -2.81127e-05
0.00081372 -7.40155e-06 -1.37705e-05
-7.40155e-06 -0.000139738 -1.30999e-07
-1.37705e-05 -1.30999e-07 -0.000262171
0.00175638 4.14002e-06 3.24271e-06
4.14002e-06 0.000224092 -2.19779e-07
3.24271e-06 -2.19779e-07 0.000106686
0.00167479 2.46437e-06 -1.48399e-06
2.46437e-06 3.20879e-05 6.80066e-07
-1.48399e-06 6.80066e-07 -6.21019e-05
0.00175652 -2.13078e-05 5.60659e-06
-2.13078e-05 0.000215909 7.50778e-08
5.60659e-06 7.50778e-08 9.60425e-05
0.000809472 -1.01745e-05 -1.56163e-06
-1.01745e-05 -0.000150881 9.07198e-08
-1.56163e-06 9.07198e-08 -0.00027503
0.000580974 -2.9588e-05 -1.91185e-05
-2.9588e-05 -0.000120677 8.60002e-07
-1.91185e-05 8.60002e-07 -0.000192504
0.000980968 -2.8678e-05 1.03248e-05
-2.8678e-05 -4.98228e-05 -1.22013e-06
1.03248e-05 -1.22013e-06 -0.000176152
0.00055965 4.30431e-06 3.25065e-07
4.30431e-06 -0.000132832 5.46103e-08
3.25065e-07 5.46103e-08 -0.000206168
0.00564384 -9.28387e-05 -0.00024893
-9.28387e-05 0.00302635 7.15635e-06
-0.00024893 7.15635e-06 0.00303522
0.000569627 -3.59911e-05 1.86921e-05
-3.59911e-05 -0.000123007 -2.62444e-06
1.86921e-05 -2.62444e-06 -0.000198491
0.00565584 -1.0391e-05 -3.04944e-06
-1.0391e-05 0.00302634 1.73779e-06
-3.04944e-06 1.73779e-06 0.00303842
0.00566867 -7.2502e-05 0.00024298
-7.2502e-05 0.00303413 -8.89572e-06
0.00024298 -8.89572e-06 0.00304542
0.00148609 4.98279e-05 -6.65017e-07
4.98279e-05 5.92154e-05 4.05856e-08
-6.65017e-07 4.05856e-08 -6.76508e-05
0.00174715 7.55113e-05 -1.67525e-06
7.55113e-05 7.7018e-05 -1.23343e-06
-1.67525e-06 -1.23343e-06 -2.43557e-05
0.00176779 0.000101387 -3.83226e-06
0.000101387 4.95842e-05 -2.20424e-06
-3.83226e-06 -2.20424e-06 -2.69265e-05
0.00104686 4.92625e-05 -1.22527e-05
4.92625e-05 -1.0516e-05 -1.79233e-06
-1.22527e-05 -1.79233e-06 -0.000134685
0.00150359 8.35102e-05 1.98271e-07
8.35102e-05 6.40033e-05 9.53185e-10
1.98271e-07 9.53185e-10 -6.85287e-05
0.00178406 0.000100535 -7.39953e-07
0.000100535 0.000101909 -1.82322e-06
-7.39953e-07 -1.82322e-06 -8.25389e-06
0.000547318 4.17401e-05 -1.71843e-05
4.17401e-05 -0.000137459 -3.81546e-06
-1.71843e-05 -3.81546e-06 -0.000213383
0.00101415 8.52836e-05 2.45927e-07
8.52836e-05 -3.2142e-05 2.49919e-07
2.45927e-07 2.49919e-07 -0.000162254
0.0015149 0.000133559 2.41828e-06
0.000133559 7.38193e-05 2.23876e-07
2.41828e-06 2.23876e-07 -6.89568e-05
0.00573663 0.00018225 -0.000264738
0.00018225 0.0030882 -1.80113e-05
-0.000264738 -1.80113e-05 0.00308979
0.000547962 6.94868e-05 3.39527e-07
6.94868e-05 -0.000132066 1.54311e-07
3.39527e-07 1.54311e-07 -0.000210996
0.000967957 0.00011544 9.79558e-06
0.00011544 -5.35605e-05 3.07709e-06
9.79558e-06 3.07709e-06 -0.000190141
0.00580085 0.000208348 6.29849e-06
0.000208348 0.00313101 2.79959e-06
6.29849e-06 2.79959e-06 0.00312842
0.000545047 9.35975e-05 1.77234e-05
9.35975e-05 -0.000122418 7.83002e-06
1.77234e-05 7.83002e-06 -0.000205198
0.00581106 0.000197387 0.000242596
0.000197387 0.00313874 2.41114e-05
0.000242596 2.41114e-05 0.00313519
0.00100116 1.49128e-05 -1.28836e-05
1.49128e-05 -2.44066e-05 -7.3247e-07
-1.28836e-05 -7.3247e-07 -0.00014579
0.00163808 2.66915e-05 3.69906e-06
2.66915e-05 0.000153295 9.09501e-08
3.69906e-06 9.09501e-08 3.53066e-05
0.00171545 3.521e-05 -4.43187e-06
3.521e-05 5.57274e-05 2.16042e-07
-4.43187e-06 2.16042e-07 -4.35797e-05
0.000611572 3.01728e-05 -1.96506e-05
3.01728e-05 -0.000109976 -4.84698e-07
-1.96506e-05 -4.84698e-07 -0.000174821
0.000790518 -1.73664e-06 -1.78074e-06
-1.73664e-06 -0.000154357 5.34617e-08
-1.78074e-06 5.34617e-08 -0.000276953
0.00175692 1.06249e-05 5.72862e-06
1.06249e-05 0.000224233 1.53019e-07
5.72862e-06 1.53019e-07 0.000106732
0.000798862 -9.93553e-06 1.01693e-05
-9.93553e-06 -0.000158174 -4.25496e-07
1.01693e-05 -4.25496e-07 -0.000282514
0.000575784 -4.67625e-06 2.83543e-07
-4.67625e-06 -0.000123516 3.39652e-07
2.83543e-07 3.39652e-07 -0.000195588
0.0056107 3.69614e-05 -0.000254085
3.69614e-05 0.0030021 -3.42261e-07
-0.000254085 -3.42261e-07 0.00301506
0.000537315 1.57663e-05 1.82125e-05
1.57663e-05 -0.000147201 -1.24063e-06
1.82125e-05 -1.24063e-06 -0.00021948
0.00562279 -9.15644e-05 -7.82769e-06
-9.15644e-05 0.00301466 1.58526e-06
-7.82769e-06 1.58526e-06 0.00302316
0.00561655 9.12715e-06 0.000233782
9.12715e-06 0.00300332 -4.04349e-06
0.000233782 -4.04349e-06 0.00301513
0.00102013 2.64188e-05 -1.26542e-05
2.64188e-05 -1.84773e-05 -1.41871e-06
-1.26542e-05 -1.41871e-06 -0.000140169
0.0014956 4.89966e-05 -1.59189e-07
4.89966e-05 6.49659e-05 -8.67694e-08
-1.59189e-07 -8.67694e-08 -5.9383e-05
0.00181071 7.81882e-05 -4.55241e-06
7.81882e-05 0.000112464 -2.22451e-06
-4.55241e-06 -2.22451e-06 1.55526e-05
0.00262278 5.17005e-05 -0.000121355
5.17005e-05 0.00110113 -3.92822e-06
-0.000121355 -3.92822e-06 0.00105255
0.00101232 5.11462e-05 2.83918e-07
5.11462e-05 -3.15584e-05 1.09176e-07
2.83918e-07 1.09176e-07 -0.000156156
0.00148952 8.3025e-05 2.11757e-06
8.3025e-05 5.63022e-05 -1.21359e-07
2.11757e-06 -1.21359e-07 -7.66299e-05
0.00565801 0.000141792 -0.000266243
0.000141792 0.00303879 -1.32987e-05
-0.000266243 -1.32987e-05 0.00304474
0.0005822 5.90854e-05 8.22073e-07
5.90854e-05 -0.000114782 3.62604e-07
8.22073e-07 3.62604e-07 -0.000192305
0.000984819 8.65624e-05 1.24004e-05
8.65624e-05 -4.92058e-05 2.7783e-06
1.24004e-05 2.7783e-06 -0.000179873
0.0057814 0.000194358 1.81359e-06
0.000194358 0.00311673 1.65759e-06
1.81359e-06 1.65759e-06 0.00311728
0.000584853 7.55758e-05 1.80335e-05
7.55758e-05 -0.000109005 6.14774e-06
1.80335e-05 6.14774e-06 -0.000189127
0.00578815 0.000236146 0.000254145
0.000236146 0.00313242 2.55084e-05
0.000254145 2.55084e-05 0.00312506
0.000659056 9.64026e-06 -1.63432e-05
9.64026e-06 -7.10092e-05 -1.80232e-06
-1.63432e-05 -1.80232e-06 -0.000144045
0.00089037 1.3292e-05 6.34027e-07
1.3292e-05 -9.16515e-05 2.60167e-07
6.34027e-07 2.60167e-07 -0.000213476
0.00153899 2.17592e-05 4.86552e-06
2.17592e-05 9.46556e-05 1.32915e-07
4.86552e-06 1.32915e-07 -2.34497e-05
0.00548625 -9.43501e-05 -0.000238191
-9.43501e-05 0.00294433 1.36443e-06
-0.000238191 1.36443e-06 0.00294746
0.000571643 7.94536e-06 -5.25915e-07
7.94536e-06 -0.000129022 1.16176e-07
-5.25915e-07 1.16176e-07 -0.000196488
0.000782993 3.21483e-06 1.00768e-05
3.21483e-06 -0.000159922 9.92764e-08
1.00768e-05 9.92764e-08 -0.000282631
0.000535726 2.06669e-05 1.84255e-05
2.06669e-05 -0.000147911 1.47978e-07
1.84255e-05 1.47978e-07 -0.000219337
0.00556613 1.15446e-06 2.44239e-06
1.15446e-06 0.00298008 -9.84952e-07
2.44239e-06 -9.84952e-07 0.00298961
0.00563252 -7.52972e-06 0.000242979
-7.52972e-06 0.0030108 -2.17834e-06
0.000242979 -2.17834e-06 0.00302414
0.00269656 8.66324e-06 -0.00011784
8.66324e-06 0.00114225 -2.43021e-06
-0.00011784 -2.43021e-06 0.00109519
0.0010144 2.94263e-05 5.34335e-08
2.94263e-05 -2.36808e-05 6.79364e-08
5.34335e-08 6.79364e-08 -0.000145665
0.00150024 4.83304e-05 1.83697e-06
4.83304e-05 6.80975e-05 -2.64391e-07
1.83697e-06 -2.64391e-07 -5.37274e-05
0.00524274 -5.40429e-05 -8.63262e-05
-5.40429e-05 0.0028022 5.15131e-07
-8.63262e-05 5.15131e-07 0.00278856
0.000598396 5.14503e-05 5.34358e-08
5.14503e-05 -0.000106424 2.07874e-07
5.34358e-08 2.07874e-07 -0.000180767
0.000994636 5.35759e-05 1.21623e-05
5.35759e-05 -4.31792e-05 2.04565e-06
1.21623e-05 2.04565e-06 -0.000168146
0.0057113 0.000112871 -1.07905e-05
0.000112871 0.00306588 -1.27016e-06
-1.07905e-05 -1.27016e-06 0.0030735
0.000614133 8.14164e-05 1.94709e-05
8.14164e-05 -9.52445e-05 5.14182e-06
1.94709e-05 5.14182e-06 -0.000173448
0.0057974 0.000218494 0.000265029
0.000218494 0.00313359 2.32464e-05
0.000265029 2.32464e-05 0.00313066
0.0016809 -5.05199e-05 -0.00019937
-5.05199e-05 0.000641876 7.87842e-07
-0.00019937 7.87842e-07 0.000634426
0.00164558 2.64165e-05 -4.93677e-05
2.64165e-05 0.000511802 2.10999e-07
-4.93677e-05 2.10999e-07 0.000456287
0.000775431 1.41522e-05 1.24532e-05
1.41522e-05 -0.000161031 9.72482e-07
1.24532e-05 9.72482e-07 -0.000283364
0.00554925 -4.10899e-05 7.65358e-06
-4.10899e-05 0.0029763 1.50209e-06
7.65358e-06 1.50209e-06 0.00298378
0.000587185 -1.25516e-05 1.89817e-05
-1.25516e-05 -0.000114281 7.99429e-07
1.89817e-05 7.99429e-07 -0.000185081
0.0056041 -6.6e-05 0.000257299
-6.6e-05 0.003004 -2.40816e-06
0.000257299 -2.40816e-06 0.00301399
0.00126844 1.25752e-05 -4.19493e-05
1.25752e-05 0.00041957 -7.00703e-07
-4.19493e-05 -7.00703e-07 0.000385379
0.00163441 1.3316e-05 -4.97155e-05
1.3316e-05 0.000509015 -7.37139e-07
-4.97155e-05 -7.37139e-07 0.000450347
0.000997749 3.10552e-05 1.23951e-05
3.10552e-05 -3.50766e-05 1.60595e-06
1.23951e-05 1.60595e-06 -0.000157382
0.00346821 5.25787e-05 9.4444e-05
5.25787e-05 0.00172478 2.30393e-06
9.4444e-05 2.30393e-06 0.00171403
0.000607323 6.17709e-05 1.97533e-05
6.17709e-05 -0.000101062 3.93943e-06
1.97533e-05 3.93943e-06 -0.000175444
0.00576682 0.000102116 0.000253498
0.000102116 0.0030932 1.40583e-05
0.000253498 1.40583e-05 0.00310383
0.00549608 -2.15079e-05 -8.92849e-06
-2.15079e-05 0.00294729 -2.12388e-06
-8.92849e-06 -2.12388e-06 0.00295386
0.000587989 4.45229e-05 2.0389e-05
4.45229e-05 -0.000122266 2.04596e-06
2.0389e-05 2.04596e-06 -0.000186807
0.00546367 4.84575e-05 0.000244164
4.84575e-05 0.00292215 9.11227e-08
0.000244164 9.11227e-08 0.00293255
0.00340197 2.70532e-05 0.00010793
2.70532e-05 0.00168939 3.46206e-06
0.00010793 3.46206e-06 0.00167911
0.000618022 5.43975e-06 1.89236e-05
5.43975e-06 -9.59235e-05 2.65978e-06
1.89236e-05 2.65978e-06 -0.000167035
0.00563859 -2.17811e-05 0.000244252
-2.17811e-05 0.00301935 6.16737e-06
0.000244252 6.16737e-06 0.0030297
0.00552912 -0.000125893 0.000240194
-0.000125893 0.00297248 -3.16028e-06
0.000240194 -3.16028e-06 0.00297422
0.00551293 -7.61374e-06 0.000239851
-7.61374e-06 0.00294282 3.27238e-06
0.000239851 3.27238e-06 0.00295637
