# vtk DataFile Version 2.0
Wound Healing Simulation
ASCII
DATASET UNSTRUCTURED_GRID
POINTS 3012 float
69.9759 18.75 4
67.2507 60.3285 4
69.976 18.75 2
73.0099 25.446 4
71.1327 20.9142 4
68.6801 16.6661 4
67.8274 19.9208 3.98961
67.2507 60.3286 2
71.1327 54.0858 4
68.6801 58.3339 4
65.6939 62.2254 4
65.3138 59.0068 3.99115
74.6784 42.3946 4
73.7221 47.2057 4
69.9759 18.75 0
73.0099 25.446 2
68.6801 16.6661 2
71.1327 20.9142 2
67.8276 19.921 2
74.6792 32.6053 4
73.7222 27.7943 4
72.1454 23.1494 4
70.6168 26.2205 3.98837
68.888 21.9544 3.98911
67.2507 14.6715 4
66.6387 17.9658 3.9904
65.8045 21.0161 3.9856
67.2507 60.3285 0
71.1327 54.0858 2
68.6801 58.3339 2
65.694 62.2255 2
65.3139 59.0068 2
72.1454 51.8506 4
69.9759 56.25 4
68.839 53.1164 3.98916
64.0165 64.0165 4
66.6124 57.1393 3.99059
63.8871 60.7708 3.99187
63.5058 57.7835 3.98651
60.3285 67.2507 4
74.6792 42.3947 2
73.7222 47.2057 2
74.9194 39.9526 4
74.2788 44.8158 4
72.1703 42.0854 3.98794
73.0099 49.554 4
71.252 46.5978 3.98852
73.0099 25.446 0
71.1327 20.9142 0
68.6801 16.6661 0
67.8274 19.9208 0.0103911
74.6792 32.6053 2
73.7222 27.7943 2
67.2508 14.6715 2
72.1455 23.1494 2
70.6169 26.2215 2
66.6388 17.9658 2
68.8882 21.9548 2
65.8046 21.0161 2
74.9197 35.0474 4
74.2794 30.1841 4
72.187 32.9434 3.98834
71.2807 28.4316 3.98834
69.8181 24.0578 3.98871
68.3547 26.9481 3.98344
66.7705 22.9262 3.98511
65.694 12.7746 4
65.3251 16.0975 3.99129
64.7203 19.1835 3.98619
63.8998 22.0212 3.98356
71.1327 54.0858 0
65.6939 62.2254 0
68.6801 58.3339 0
65.3138 59.0068 0.00884689
72.1455 51.8506 2
69.9759 56.25 2
68.8392 53.1161 2
64.0165 64.0165 2
66.6125 57.1394 2
63.8872 60.7708 2
63.5059 57.7836 2
62.2254 65.694 4
58.8939 65.4172 3.99261
69.7718 50.9905 3.9887
67.7859 55.1722 3.98993
66.6582 52.216 3.98527
62.3371 62.4314 3.99231
64.6677 56.0422 3.98665
62.2066 59.4164 3.98679
61.8325 56.698 3.98475
58.3339 68.6801 4
60.3285 67.2508 2
73.7221 47.2057 0
74.6784 42.3946 0
74.9197 39.9526 2
74.2794 44.8159 2
72.1702 42.0848 2
73.0099 49.554 2
71.252 46.597 2
75 37.5 4
72.4073 39.8021 3.98758
71.7849 44.3525 3.98835
69.811 41.7903 3.98232
70.578 48.8139 3.98855
68.9203 46.017 3.98302
74.6792 32.6053 0
73.7222 27.7943 0
67.2507 14.6715 0
72.1454 23.1494 0
70.6168 26.2205 0.0116311
68.888 21.9544 0.0108926
66.6387 17.9658 0.00959787
65.8045 21.0161 0.0143996
74.9197 35.0474 2
74.2794 30.1841 2
72.1869 32.9441 2
71.2807 28.4326 2
65.694 12.7745 2
65.3252 16.0974 2
69.8183 24.0585 2
68.3546 26.9482 2
64.7204 19.1834 2
66.7706 22.9262 2
63.8998 22.0212 2
72.4152 35.2242 3.98785
71.8063 30.6765 3.98853
69.8471 33.2678 3.98271
68.9738 29.0361 3.98284
67.6194 24.9069 3.98438
66.2078 27.6278 3.98142
64.0165 10.9835 4
64.7702 23.8183 3.98317
63.8912 14.3222 3.99189
63.5182 17.4342 3.98678
62.9182 20.304 3.98398
62.1105 22.9247 3.98259
60.6844 11.094 3.99234
57.6127 11.4383 3.98754
72.1454 51.8506 0
69.9759 56.25 0
68.839 53.1164 0.0108438
64.0165 64.0165 0
63.8871 60.7708 0.00812845
66.6124 57.1393 0.00940976
63.5058 57.7835 0.0134916
62.2255 65.694 2
58.8941 65.4173 2
69.7719 50.9899 2
67.7861 55.1721 2
66.6583 52.216 2
62.3372 62.4315 2
64.6678 56.0422 2
62.2066 59.4166 2
61.8326 56.698 2
60.669 63.9805 3.99245
57.0243 66.7376 3.99283
57.5579 63.6988 3.98771
67.5163 50.1817 3.9844
65.7101 54.1822 3.98619
64.5525 51.3971 3.98294
60.7753 60.9488 3.98732
62.8319 55.0838 3.98504
60.6653 58.176 3.9847
60.3406 55.8064 3.98398
56.25 69.9759 4
58.3339 68.6801 2
60.3285 67.2507 0
58.9213 9.65257 3.99258
62.2254 9.30607 4
73.0099 49.554 0
74.2788 44.8158 0
71.252 46.5978 0.011482
72.1703 42.0854 0.012056
74.9194 39.9526 0
75 37.5 2
72.4071 39.8018 2
71.7849 44.3518 2
69.8107 41.7901 2
70.5781 48.813 2
68.9202 46.0166 2
72.4906 37.5121 3.98754
70.0474 39.6577 3.98161
69.4379 43.9087 3.98275
67.6094 41.5001 3.97995
68.2744 48.1105 3.98362
66.7235 45.4452 3.98106
74.9197 35.0474 0
74.2794 30.1841 0
72.187 32.9434 0.0116577
71.2807 28.4316 0.0116628
65.694 12.7746 0
65.3251 16.0975 0.00871257
69.8181 24.0578 0.0112851
68.3547 26.9481 0.0165605
66.7705 22.9262 0.0148877
64.7203 19.1835 0.0138066
63.8998 22.0212 0.016444
72.4151 35.2247 2
71.8062 30.6774 2
69.8468 33.268 2
68.9736 29.0363 2
64.0165 10.9835 2
63.8913 14.3222 2
63.5182 17.4341 2
67.6194 24.9069 2
66.2076 27.6277 2
62.9183 20.3041 2
64.7701 23.8183 2
62.1104 22.925 2
60.6845 11.094 2
57.6127 11.4381 2
70.0645 35.3918 3.9823
69.4746 31.1483 3.98283
67.6678 33.5886 3.98031
66.7852 29.6177 3.98073
65.5378 25.69 3.98237
64.1649 28.2451 3.98075
62.3424 12.6509 3.99218
62.8758 24.6211 3.98241
62.202 15.7724 3.98707
61.8224 18.6674 3.98473
61.2331 21.3213 3.98258
60.4479 23.7056 3.98243
59.2473 12.7687 3.98725
55.8742 10.2255 3.98824
56.4067 13.1007 3.98476
69.7718 50.9905 0.0113037
62.2254 65.694 0
58.8939 65.4172 0.00738914
67.7859 55.1722 0.0100718
66.6582 52.216 0.0147327
62.3371 62.4314 0.00768665
62.2066 59.4164 0.0132052
64.6677 56.0422 0.0133489
61.8325 56.698 0.0152477
60.6691 63.9806 2
57.0245 66.7377 2
57.5579 63.6992 2
67.5163 50.1816 2
65.7103 54.1822 2
64.5526 51.3971 2
60.7753 60.9491 2
62.8321 55.0838 2
60.6654 58.1762 2
60.3407 55.8064 2
55.0698 67.9342 3.99307
59.2204 62.3753 3.98747
55.8037 64.9153 3.98814
56.3283 62.0996 3.98508
65.3467 49.4177 3.98214
63.7199 53.3066 3.9842
62.4624 50.6681 3.98172
59.3377 59.5716 3.9852
61.0928 54.3291 3.9843
59.2986 57.0327 3.98333
59.2569 55.2059 3.98413
48.1019 68.5816 3.98984
50.9478 69.9333 3.99361
54.0858 71.1327 4
56.25 69.976 2
58.3339 68.6801 0
57.0583 8.33268 3.99296
60.3285 7.74928 4
58.9214 9.65253 2
62.2255 9.30602 2
70.578 48.8139 0.011445
71.7849 44.3525 0.011655
68.9203 46.017 0.0169776
69.811 41.7903 0.0176782
72.4073 39.8021 0.0124225
75 37.5 0
72.4904 37.5122 2
70.0471 39.6575 2
69.4377 43.9084 2
67.609 41.5001 2
68.2744 48.1104 2
66.7232 45.4452 2
70.1354 37.5216 3.98162
67.8455 39.5136 3.97926
67.2365 43.4738 3.98054
65.5731 41.2142 3.97923
66.0831 47.4252 3.98158
64.6713 44.8567 3.98036
72.4152 35.2242 0.0121517
71.8063 30.6765 0.0114728
69.8471 33.2678 0.0172912
68.9738 29.0361 0.0171559
64.0165 10.9835 0
63.8912 14.3222 0.00810805
63.5182 17.4342 0.0132217
67.6194 24.9069 0.0156153
66.2078 27.6278 0.0185758
64.7702 23.8183 0.016833
62.9182 20.304 0.016022
62.1105 22.9247 0.0174072
60.6844 11.094 0.0076633
57.6127 11.4383 0.0124613
70.0642 35.3919 2
69.4743 31.1486 2
67.6674 33.5884 2
66.7848 29.6176 2
62.3425 12.6509 2
62.2021 15.7722 2
61.8225 18.6674 2
65.5377 25.69 2
64.1645 28.245 2
61.2331 21.3215 2
62.8756 24.6213 2
60.4476 23.7059 2
59.2473 12.7685 2
56.4067 13.1005 2
55.8743 10.2252 2
67.8823 35.5465 3.98003
67.2782 31.6187 3.98066
65.7151 33.9235 3.97944
64.6811 30.1841 3.97968
63.5572 26.4009 3.98163
62.2809 28.7642 3.9811
60.777 14.2123 3.98716
61.0689 25.3181 3.98231
60.6183 17.1115 3.98522
60.2344 19.7956 3.98341
59.6804 22.2351 3.98163
59.0041 24.2961 3.98279
54.0372 9.12917 3.98902
57.9125 14.3183 3.985
54.7874 12.001 3.98497
55.3149 14.6317 3.98362
67.5163 50.1817 0.0155983
57.0243 66.7376 0.00716895
60.669 63.9805 0.00755124
57.5579 63.6988 0.012289
65.7101 54.1822 0.0138108
64.5525 51.3971 0.0170629
60.7753 60.9488 0.0126777
60.6653 58.176 0.0152976
62.8319 55.0838 0.0149578
60.3406 55.8064 0.0160173
55.07 67.9343 2
59.2204 62.3757 2
55.8037 64.9156 2
56.3283 62.0999 2
65.3467 49.4177 2
63.7201 53.3066 2
62.4624 50.668 2
59.3378 59.5719 2
61.093 54.329 2
59.2988 57.0328 2
59.257 55.2059 2
53.0418 69.0017 3.99335
53.9656 66.0169 3.98862
57.8834 60.8822 3.98518
54.6838 63.2142 3.98529
55.214 60.6271 3.98389
63.2151 48.6746 3.98114
61.7606 52.5936 3.98318
60.2999 50.0389 3.98107
58.0244 58.2784 3.98396
59.3454 53.9701 3.98352
58.1387 55.8359 3.98203
50.1082 67.8598 3.98954
47.462 66.5855 3.98722
46.0559 69.161 3.99007
48.102 68.582 2
48.8022 70.7244 3.99379
50.948 69.9334 2
51.8506 72.1454 4
54.0858 71.1327 2
56.25 69.9759 0
55.1026 7.13742 3.99328
58.3339 6.31992 4
57.0585 8.33259 2
60.3286 7.74926 2
58.9213 9.65257 0.00741574
62.2254 9.30607 0
68.2744 48.1105 0.0163805
69.4379 43.9087 0.0172515
66.7235 45.4452 0.0189386
67.6094 41.5001 0.0200509
70.0474 39.6577 0.0183923
72.4906 37.5121 0.0124628
70.1351 37.5215 2
67.8451 39.5136 2
67.2362 43.4738 2
65.5726 41.2142 2
66.083 47.4252 2
64.6709 44.8567 2
67.9418 37.5221 3.97912
65.8037 39.3726 3.9787
65.1941 43.0316 3.97967
63.7776 40.9355 3.97937
63.9856 46.7274 3.98072
62.8313 44.227 3.98081
70.0645 35.3918 0.0176989
69.4746 31.1483 0.0171687
67.6678 33.5886 0.019689
66.7852 29.6177 0.0192736
62.3424 12.6509 0.00781695
62.202 15.7724 0.0129263
61.8224 18.6674 0.0152668
65.5378 25.69 0.0176254
64.1649 28.2451 0.0192497
62.8758 24.6211 0.0175938
61.2331 21.3213 0.0174225
60.4479 23.7056 0.0175683
59.2473 12.7687 0.0127498
56.4067 13.1007 0.0152407
55.8742 10.2255 0.0117565
67.8818 35.5463 2
67.2778 31.6186 2
65.7146 33.9233 2
64.6806 30.184 2
60.7771 14.2121 2
60.6184 17.1114 2
60.2345 19.7957 2
63.5569 26.4009 2
62.2803 28.7642 2
59.6803 22.2355 2
61.0686 25.3184 2
59.0037 24.2966 2
57.9125 14.3181 2
55.3149 14.6315 2
54.0372 9.12881 2
54.7874 12.0007 2
65.8933 35.6651 3.97916
65.2043 32.1483 3.9795
64.3054 34.2456 3.97883
62.6185 30.6249 3.97971
61.6756 27.0555 3.98147
60.8779 29.1247 3.98264
59.3139 15.6542 3.98519
59.3594 25.7742 3.98337
59.1311 18.3363 3.9843
58.7548 20.8307 3.98209
58.3074 23.067 3.98086
57.9961 24.6396 3.98374
52.1119 8.14792 3.98958
53.058 11.0075 3.98578
56.6796 15.7266 3.98425
53.811 13.6681 3.98323
54.3792 15.9829 3.98347
55.0698 67.9342 0.0069303
65.3467 49.4177 0.0178616
55.8037 64.9153 0.0118647
59.2204 62.3753 0.0125318
56.3283 62.0996 0.0149191
63.7199 53.3066 0.0157973
62.4624 50.6681 0.0182769
59.3377 59.5716 0.0148001
59.2986 57.0327 0.0166727
61.0928 54.3291 0.0157037
59.2569 55.2059 0.0158708
53.042 69.0018 2
53.9657 66.0172 2
57.8835 60.8826 2
54.6838 63.2145 2
55.214 60.6274 2
63.215 48.6745 2
61.7608 52.5936 2
60.2998 50.0387 2
58.0246 58.2786 2
59.3455 53.97 2
58.1389 55.8358 2
52.0691 67.0031 3.98911
52.9525 64.2237 3.98561
56.6524 59.5029 3.98427
53.6822 61.6303 3.98401
54.2635 59.3337 3.98329
61.0207 47.8977 3.98048
59.7333 52.1271 3.98286
58.0569 49.6397 3.9815
56.785 57.0081 3.98231
57.1386 54.1477 3.98162
50.1084 67.8601 2
49.3356 65.9257 3.98666
47.462 66.586 2
46.8913 64.7417 3.98525
45.5572 67.103 3.98754
43.9731 69.5936 3.99026
46.056 69.1614 2
46.609 71.3688 3.99397
48.1019 68.5816 0.0101596
48.8023 70.7246 2
49.554 73.0099 4
50.9478 69.9333 0.00639359
51.8506 72.1455 2
54.0858 71.1327 0
53.0637 6.06905 3.99359
55.1027 7.13729 2
56.25 5.02411 4
58.3339 6.3199 2
57.0583 8.33268 0.0070383
60.3285 7.74928 0
66.0831 47.4252 0.0184211
67.2365 43.4738 0.0194601
64.6713 44.8567 0.0196402
65.5731 41.2142 0.0207698
67.8455 39.5136 0.0207388
70.1354 37.5216 0.0183806
67.9413 37.522 2
65.8031 39.3725 2
65.1936 43.0317 2
63.777 40.9354 2
63.9854 46.7274 2
62.8308 44.2269 2
65.9064 37.5021 3.97833
63.9211 39.2702 3.97871
63.352 42.5583 3.97964
62.4575 40.7048 3.97895
61.9933 45.9328 3.98072
61.4801 43.6958 3.98272
67.8823 35.5465 0.0199692
67.2782 31.6187 0.0193429
65.7151 33.9235 0.0205575
64.6811 30.1841 0.0203196
60.777 14.2123 0.0128393
60.6183 17.1115 0.0147825
60.2344 19.7956 0.016587
63.5572 26.4009 0.0183725
62.2809 28.7642 0.0189002
61.0689 25.3181 0.0176887
59.6804 22.2351 0.0183716
59.0041 24.2961 0.0172062
57.9125 14.3183 0.0150033
55.3149 14.6317 0.0163814
54.0372 9.12917 0.0109828
54.7874 12.001 0.0150323
65.8927 35.6649 2
65.2037 32.1481 2
64.3048 34.2454 2
62.6178 30.6248 2
59.314 15.654 2
59.1312 18.3363 2
58.7549 20.831 2
61.6751 27.0556 2
60.8772 29.1248 2
58.3071 23.0676 2
59.3588 25.7746 2
57.9956 24.6402 2
56.6796 15.7265 2
54.3792 15.9828 2
53.8111 13.6678 2
52.1119 8.14755 2
53.0581 11.0071 2
64.1125 35.6302 3.97856
62.955 33.039 3.97858
60.644 30.5979 3.98026
59.6029 27.8908 3.98235
57.9437 16.9662 3.98449
57.7712 25.7013 3.98468
57.7243 19.4548 3.98334
57.3884 21.8155 3.98043
57.2119 23.9213 3.98088
50.1121 7.2803 3.98993
51.2323 10.1162 3.98642
52.1729 12.7855 3.98389
55.541 16.9552 3.98403
52.9798 15.2497 3.98221
53.7614 16.9645 3.98364
53.0418 69.0017 0.00664553
53.9656 66.0169 0.0113849
63.2151 48.6746 0.018859
54.6838 63.2142 0.0147093
57.8834 60.8822 0.0148171
55.214 60.6271 0.0161114
61.7606 52.5936 0.0168165
60.2999 50.0389 0.0189283
58.0244 58.2784 0.0160399
58.1387 55.8359 0.0179656
59.3454 53.9701 0.0164819
52.0692 67.0034 2
52.9525 64.224 2
56.6525 59.5032 2
53.6822 61.6306 2
54.2636 59.334 2
61.0204 47.8974 2
59.7334 52.1269 2
58.0567 49.6392 2
56.7852 57.0083 2
57.1388 54.1475 2
51.1666 65.1325 3.98606
52.0461 62.5445 3.98398
55.4855 58.2655 3.98374
52.8366 60.1445 3.98341
53.6441 58.4845 3.98331
58.342 46.868 3.98256
57.5869 51.8113 3.98145
56.2819 49.5781 3.98264
55.4824 55.8162 3.98085
55.3775 53.4083 3.97898
50.1082 67.8598 0.0104607
49.3357 65.9261 2
48.6171 64.1277 3.98477
47.462 66.5855 0.0127751
45.5573 67.1035 2
46.8913 64.7421 2
46.381 63.0593 3.98381
45.1315 65.2035 3.98561
43.6306 67.4741 3.98772
41.8605 69.8814 3.99037
43.9732 69.5941 2
44.3765 71.8637 3.99412
46.0559 69.161 0.00992889
46.6091 71.369 2
47.2057 73.7222 4
48.8022 70.7244 0.0062059
49.554 73.0099 2
51.8506 72.1454 0
50.9535 5.12961 3.99376
53.0638 6.06888 2
54.0858 3.86728 4
55.1026 7.13742 0.0067185
56.25 5.02406 2
58.3339 6.31992 0
63.9856 46.7274 0.0192787
65.1941 43.0316 0.0203253
62.8313 44.227 0.0191947
63.7776 40.9355 0.0206278
65.8037 39.3726 0.0212955
67.9418 37.5221 0.0208814
65.9059 37.502 2
63.9205 39.2701 2
63.3514 42.5582 2
62.4568 40.7048 2
61.9929 45.9326 2
61.4795 43.6956 2
63.9813 37.4577 3.97852
62.1859 39.3596 3.97866
61.2484 41.9691 3.98006
60.2822 44.785 3.98294
65.8933 35.6651 0.0208442
65.2043 32.1483 0.0205024
64.3054 34.2456 0.0211724
62.6185 30.6249 0.020289
59.3139 15.6542 0.0148124
59.1311 18.3363 0.0156956
58.7548 20.8307 0.0179145
61.6756 27.0555 0.018535
60.8779 29.1247 0.017358
59.3594 25.7742 0.0166277
58.3074 23.067 0.0191379
57.9961 24.6396 0.0162554
56.6796 15.7266 0.0157493
54.3792 15.9829 0.0165307
53.811 13.6681 0.0167731
52.1119 8.14792 0.0104221
53.058 11.0075 0.0142195
64.1119 35.63 2
62.9543 33.0388 2
60.6431 30.5979 2
57.9438 16.966 2
57.7245 19.4549 2
57.3884 21.816 2
59.6022 27.8911 2
57.2115 23.922 2
57.7705 25.7019 2
50.1121 7.27996 2
55.5411 16.9551 2
53.7615 16.9644 2
52.9798 15.2496 2
52.1729 12.7852 2
51.2323 10.1158 2
62.2187 35.3559 3.97827
60.3242 32.7354 3.97804
58.6583 30.0574 3.98117
57.329 27.3573 3.98403
56.6413 18.1375 3.98406
56.3239 25.0766 3.98236
56.3688 20.4994 3.9817
56.1302 22.8437 3.9783
48.056 6.52373 3.99012
49.3241 9.32441 3.98717
50.4334 11.984 3.98436
51.3794 14.4857 3.98213
54.419 17.9038 3.9836
52.364 17.0216 3.98228
52.0691 67.0031 0.0108874
52.9525 64.2237 0.0143867
61.0207 47.8977 0.0195188
53.6822 61.6303 0.015994
56.6524 59.5029 0.0157315
54.2635 59.3337 0.0167132
59.7333 52.1271 0.0171408
58.0569 49.6397 0.0184978
56.785 57.0081 0.0176906
57.1386 54.1477 0.0183802
51.1666 65.1328 2
52.0461 62.5447 2
55.4858 58.2658 2
52.8366 60.1448 2
53.6442 58.4848 2
58.3415 46.8675 2
57.587 51.8109 2
56.2817 49.5774 2
55.4827 55.8163 2
55.3777 53.4081 2
50.3456 63.3856 3.98425
51.245 60.9417 3.98274
54.2252 57.2807 3.98274
52.3158 58.6452 3.98268
56.7648 44.2018 3.98387
55.5348 47.9176 3.9817
55.0987 51.4147 3.979
54.0185 54.5688 3.9785
49.3356 65.9257 0.0133358
48.6171 64.128 2
47.9615 62.4799 3.98347
45.5572 67.103 0.0124595
46.8913 64.7417 0.0147498
43.6307 67.4746 2
46.3809 63.0597 2
45.1315 65.204 2
45.9868 61.5917 3.98265
44.7661 63.4608 3.98417
43.3554 65.5135 3.98575
41.663 67.6935 3.98788
39.7023 70.0286 3.99037
41.8606 69.8818 2
42.111 72.2086 3.99414
43.9731 69.5936 0.00973906
44.3766 71.864 2
44.8159 74.2794 4
46.609 71.3688 0.00602768
47.2057 73.7222 2
49.554 73.0099 0
48.784 4.32077 3.99394
50.9536 5.12943 2
51.8506 2.85458 4
53.0637 6.06905 0.00640566
54.0858 3.86728 2
56.25 5.02411 0
61.9933 45.9328 0.0192795
63.352 42.5583 0.0203618
61.4801 43.6958 0.0172836
62.4575 40.7048 0.021049
63.9211 39.2702 0.0212871
65.9064 37.5021 0.0216665
63.9807 37.4575 2
62.1852 39.3596 2
61.2477 41.969 2
60.2816 44.7847 2
62.0252 37.4453 3.97899
60.2856 39.8547 3.97866
59.0343 42.9331 3.98207
64.1125 35.6302 0.0214371
62.955 33.039 0.0214218
60.644 30.5979 0.0197355
57.9437 16.9662 0.015512
57.7243 19.4548 0.0166617
57.3884 21.8155 0.0195668
59.6029 27.8908 0.017647
57.7712 25.7013 0.0153202
57.2119 23.9213 0.0191159
55.541 16.9552 0.0159703
53.7614 16.9645 0.0163602
52.9798 15.2497 0.0177851
50.1121 7.2803 0.0100727
52.1729 12.7855 0.0161086
51.2323 10.1162 0.0135838
62.2179 35.3557 2
60.3231 32.7353 2
58.6572 30.0576 2
56.6415 18.1374 2
56.369 20.4996 2
56.13 22.8445 2
57.3281 27.3578 2
56.3232 25.0775 2
48.056 6.52339 2
49.3241 9.32406 2
54.4191 17.9039 2
52.3641 17.0216 2
51.3794 14.4854 2
50.4334 11.9836 2
59.9336 35.1149 3.97837
58.0373 32.2552 3.97865
56.5896 29.3166 3.98231
55.4877 26.5741 3.9852
55.3483 19.1713 3.98323
54.9572 24.0311 3.97782
55.0162 21.54 3.98008
45.962 5.879 3.99037
43.3734 7.46818 3.9883
47.3546 8.61858 3.98758
48.6 11.2856 3.98499
49.7149 13.7329 3.98305
50.6357 16.1203 3.98087
53.1293 18.6443 3.9827
51.3063 18.0356 3.98267
51.1666 65.1325 0.0139435
52.0461 62.5445 0.01602
58.342 46.868 0.0174386
52.8366 60.1445 0.0165948
55.4855 58.2655 0.0162602
53.6441 58.4845 0.0166881
57.5869 51.8113 0.018554
56.2819 49.5781 0.0173594
55.4824 55.8162 0.0191544
55.3775 53.4083 0.0210202
50.3455 63.3859 2
51.245 60.9419 2
54.2255 57.281 2
52.3158 58.6455 2
56.7638 44.2013 2
55.5343 47.9167 2
55.0988 51.4141 2
54.0188 54.5689 2
49.5918 61.7493 3.983
55.7004 41.7231 3.97953
50.5687 59.3353 3.98165
52.1913 56.5039 3.98124
54.242 45.582 3.98332
53.384 49.3526 3.97986
52.6899 52.8761 3.97674
48.6171 64.1277 0.0152338
47.9614 62.4802 2
47.3292 61.0143 3.98251
43.6306 67.4741 0.0122784
45.1315 65.2035 0.0143902
46.381 63.0593 0.0161872
41.663 67.694 2
43.3554 65.5139 2
45.9867 61.592 2
44.766 63.4612 2
45.7659 60.6357 3.98182
44.4824 61.8416 3.98293
43.1453 63.7336 3.98439
41.5451 65.6518 3.98593
39.6323 67.7736 3.98801
37.526 70.054 3.99035
39.7024 70.029 2
39.8179 72.4057 3.99406
41.8605 69.8814 0.00962843
42.1111 72.2088 2
42.3947 74.6792 4
44.3765 71.8637 0.00587898
44.8159 74.2794 2
47.2057 73.7222 0
43.8515 5.35609 3.99059
46.5701 3.64545 3.99412
48.7841 4.32059 2
49.554 1.99015 4
50.9535 5.12961 0.00624019
51.8506 2.85453 2
54.0858 3.86728 0
60.2822 44.785 0.0170605
61.2484 41.9691 0.0199446
62.1859 39.3596 0.0213384
63.9813 37.4577 0.0214796
62.0244 37.4452 2
60.2847 39.8547 2
59.0334 42.9329 2
59.8068 37.568 3.97998
58.0514 40.6693 3.97882
55.1863 39.7298 3.98041
62.2187 35.3559 0.0217311
60.3242 32.7354 0.0219593
58.6583 30.0574 0.0188317
56.6413 18.1375 0.0159448
56.3688 20.4994 0.0183039
56.1302 22.8437 0.0216989
57.329 27.3573 0.0159704
56.3239 25.0766 0.0176435
54.419 17.9038 0.0163966
52.364 17.0216 0.0177203
51.3794 14.4857 0.0178676
48.056 6.52373 0.00987519
49.3241 9.32441 0.0128268
50.4334 11.984 0.015637
59.9327 35.1147 2
45.962 5.87866 2
43.3735 7.46787 2
58.036 32.2551 2
56.5883 29.3169 2
55.3486 19.1713 2
55.0163 21.5405 2
54.9567 24.0324 2
55.4868 26.5752 2
47.3546 8.6182 2
48.5999 11.2853 2
53.1295 18.6443 2
51.3063 18.0355 2
50.6357 16.12 2
49.7149 13.7326 2
57.4521 34.7527 3.97914
55.7811 31.498 3.97951
54.5642 28.3781 3.98683
53.8082 25.4722 3.98037
53.9762 20.1192 3.9828
53.6001 22.6854 3.97589
41.3986 7.07343 3.98845
45.3594 7.9901 3.98798
42.8652 9.40913 3.98647
46.6662 10.6466 3.98557
47.7456 13.0933 3.9832
48.933 15.3905 3.982
50.0086 17.6895 3.9794
51.6577 19.3138 3.98384
50.3456 63.3856 0.0157477
51.245 60.9417 0.0172573
56.7648 44.2018 0.0161305
55.5348 47.9176 0.0182954
52.3158 58.6452 0.0173159
54.2252 57.2807 0.0172558
55.0987 51.4147 0.0209988
54.0185 54.5688 0.0215029
49.5917 61.7497 2
55.6991 41.7224 2
50.5687 59.3355 2
52.1917 56.5042 2
54.2409 45.5812 2
53.3838 49.3514 2
52.6904 52.8752 2
48.8496 60.2067 3.98224
52.6115 42.6576 3.98145
49.7925 57.6354 3.98156
50.608 54.4382 3.97807
51.8827 47.2899 3.97988
51.2502 50.9688 3.9753
48.3111 43.7366 3.97733
47.9615 62.4799 0.0165294
47.3291 61.0145 2
46.6189 59.8005 3.9818
41.663 67.6935 0.0121159
43.3554 65.5135 0.0142531
44.7661 63.4608 0.0158265
45.9868 61.5917 0.0173458
39.6324 67.774 2
41.5451 65.6522 2
45.7658 60.6359 2
43.1452 63.734 2
44.4824 61.8419 2
44.623 60.2981 3.98173
42.9495 62.0907 3.98315
41.5986 63.8275 3.98435
39.6468 65.6207 3.98616
37.5631 67.7563 3.98781
31.6978 65.1391 3.98589
33.3924 67.4938 3.98776
35.3334 69.9641 3.99031
37.526 70.0544 2
37.5096 72.4603 3.99406
39.7023 70.0286 0.0096334
39.8179 72.406 2
39.9526 74.9197 4
42.111 72.2086 0.00585562
42.3947 74.6792 2
44.8159 74.2794 0
41.7362 4.96522 3.99078
43.8515 5.35576 2
44.3255 3.10878 3.99426
46.5702 3.64524 2
47.2057 1.27793 4
48.784 4.32077 0.00606032
49.554 1.99013 2
51.8506 2.85458 0
59.0343 42.9331 0.0179293
60.2856 39.8547 0.0213358
62.0252 37.4453 0.0210107
59.8059 37.5679 2
58.0503 40.6692 2
55.1847 39.7294 2
56.8937 37.8991 3.98087
49.7722 41.3043 3.97654
53.2328 39.3139 3.98379
39.442 6.79702 3.98869
59.9336 35.1149 0.0216276
58.0373 32.2552 0.0213455
56.5896 29.3166 0.0176901
55.3483 19.1713 0.0167734
55.0162 21.54 0.0199198
54.9572 24.0311 0.0221815
55.4877 26.5741 0.0148034
53.1293 18.6443 0.017302
51.3063 18.0356 0.0173253
50.6357 16.1203 0.0191346
45.962 5.879 0.00963217
49.7149 13.7329 0.0169545
47.3546 8.61858 0.0124215
48.6 11.2856 0.0150063
43.3734 7.46818 0.0116959
57.451 34.7526 2
41.3986 7.07307 2
45.3594 7.98979 2
42.8652 9.40886 2
55.7794 31.4977 2
54.5625 28.3788 2
53.9765 20.1192 2
53.6002 22.6861 2
53.8073 25.474 2
46.6661 10.6463 2
47.7455 13.093 2
51.6578 19.3137 2
50.0087 17.6894 2
48.933 15.3903 2
54.9605 33.9572 3.97963
53.5615 30.4587 3.98365
52.6409 27.1742 3.98415
52.1721 24.0624 3.97744
52.4019 21.0541 3.98082
41.0133 9.04239 3.98669
44.7234 9.9893 3.98607
42.4679 10.8953 3.98495
46.005 12.7211 3.98386
47.6824 14.5751 3.98254
48.1153 16.9779 3.98049
49.8214 19.5876 3.97811
49.5918 61.7493 0.0169987
50.5687 59.3353 0.0183486
55.7004 41.7231 0.0204744
54.242 45.582 0.0166834
53.384 49.3526 0.0201372
52.1913 56.5039 0.0187565
52.6899 52.8761 0.0232568
48.8495 60.207 2
52.61 42.6568 2
49.7925 57.6356 2
50.6085 54.439 2
51.8818 47.2885 2
51.2503 50.9668 2
48.304 43.7389 2
47.988 58.7485 3.98153
50.2034 45.2841 3.97704
48.6045 55.9265 3.98133
49.1522 52.6151 3.97826
49.7244 49.0676 3.97532
46.1819 39.9086 3.91559
46.5634 42.765 3.9815
46.6172 45.7326 3.98372
44.0303 41.2428 3.96689
42.1056 41.9915 3.96635
47.3292 61.0143 0.0174936
46.6188 59.8006 2
45.4684 58.7965 3.98056
39.6323 67.7736 0.0119928
41.5451 65.6518 0.0140723
43.1453 63.7336 0.0156112
44.4824 61.8416 0.017075
45.7659 60.6357 0.018183
41.5986 63.8278 2
37.5632 67.7567 2
39.6469 65.6212 2
44.623 60.2983 2
42.9495 62.0911 2
41.7524 62.502 3.98326
42.4802 59.99 3.98163
39.8923 63.5631 3.98397
37.6419 65.5199 3.98595
35.4635 67.6656 3.98785
33.5758 65.3528 3.9859
31.9599 63.3114 3.9843
29.884 64.7296 3.98559
31.6978 65.1396 2
31.3773 67.2032 3.98776
33.3924 67.4942 2
33.1563 69.7574 3.99026
35.3334 69.9645 2
35.1951 72.3747 3.99401
37.526 70.054 0.0096478
37.5096 72.4606 2
37.5 75 4
39.8179 72.4057 0.00594106
39.9526 74.9197 2
42.3947 74.6792 0
39.6238 4.71246 3.99085
41.7362 4.96487 2
42.062 2.71642 3.99443
43.8515 5.35609 0.00941152
44.3256 3.10856 2
44.8158 0.721173 4
46.5701 3.64545 0.00588313
47.2057 1.27779 2
49.554 1.99015 0
58.0514 40.6693 0.0211776
59.8068 37.568 0.0200193
55.1863 39.7298 0.0195855
49.7706 41.3053 2
56.8925 37.8991 2
53.2308 39.313 2
54.0872 36.6227 3.98002
47.6949 40.4554 3.98939
50.7255 38.4849 3.98174
37.5159 6.66817 3.98869
39.442 6.79664 2
39.2109 8.68489 3.98691
35.9414 8.48479 3.98696
57.4521 34.7527 0.0208592
55.7811 31.498 0.020488
54.5642 28.3781 0.0131697
53.9762 20.1192 0.0172022
53.6001 22.6854 0.0241084
53.8082 25.4722 0.0196293
51.6577 19.3138 0.0161649
50.0086 17.6895 0.0205962
48.933 15.3905 0.0179988
45.3594 7.9901 0.0120225
47.7456 13.0933 0.0168018
46.6662 10.6466 0.0144254
41.3986 7.07343 0.0115471
42.8652 9.40913 0.013532
54.9591 33.9568 2
41.0133 9.042 2
44.7233 9.98908 2
42.4678 10.8951 2
53.5592 30.4575 2
52.6395 27.1771 2
52.4023 21.0538 2
52.1719 24.0644 2
46.0049 12.7209 2
47.6824 14.5749 2
49.8216 19.5879 2
48.1153 16.9777 2
52.5098 32.8511 3.98149
51.4139 29.1322 3.98719
50.8343 25.7009 3.97453
49.9515 22.1659 3.97903
40.5687 11.5988 3.9843
43.8577 11.9103 3.98422
45.8033 15.4106 3.98204
47.507 19.2113 3.97928
46.5124 37.5051 3.91459
48.8496 60.2067 0.0177574
49.7925 57.6354 0.0184363
52.6115 42.6576 0.018552
51.8827 47.2899 0.0201155
51.2502 50.9688 0.0246964
50.608 54.4382 0.0219278
48.3111 43.7366 0.0226669
47.988 58.7488 2
50.2016 45.2831 2
48.6046 55.9268 2
49.1525 52.616 2
49.7237 49.0651 2
46.1864 39.9112 2
46.5695 42.7684 2
46.6126 45.7295 2
44.0365 41.24 2
42.1154 41.9951 2
46.8405 57.351 3.98232
44.7952 39.5039 3.96312
42.4749 40.8663 3.97673
48.1725 47.2627 3.98169
47.1802 54.2595 3.98163
47.624 50.7765 3.97801
44.8899 47.3425 3.98377
45.2471 42.0247 3.92214
45.029 44.6586 3.97194
42.8242 42.7414 3.9595
40.9599 42.361 3.96564
46.6189 59.8005 0.0181965
45.4683 58.7965 2
43.8759 57.7201 3.98028
37.5631 67.7563 0.0121935
39.6468 65.6207 0.0138441
41.5986 63.8275 0.0156538
42.9495 62.0907 0.0168483
44.623 60.2981 0.0182706
35.4635 67.6661 2
41.7524 62.5023 2
39.8922 63.5634 2
37.6419 65.5203 2
42.4803 59.9903 2
40.6221 61.6601 3.98302
40.4437 58.2193 3.97947
37.836 63.2247 3.9844
35.573 65.4422 3.98592
33.5758 65.3533 2
31.96 63.3118 2
33.6292 63.3515 3.98443
30.3789 62.8695 3.984
32.1231 62.0173 3.98303
26.8678 61.5117 3.98279
28.0628 64.1571 3.98517
29.884 64.73 2
29.407 66.7665 3.98755
31.6978 65.1391 0.0141072
31.3773 67.2036 2
31.0137 69.4221 3.9901
33.3924 67.4938 0.0122446
33.1563 69.7578 2
32.8922 72.149 3.99402
35.3334 69.9641 0.00968765
35.195 72.375 2
35.0474 74.9194 4
37.5096 72.4603 0.00594314
37.5 75 2
39.9526 74.9197 0
35.6205 6.71922 3.98869
37.523 4.61198 3.9909
39.6238 4.71214 2
39.7885 2.47293 3.99448
41.7362 4.96522 0.00921654
42.062 2.71618 2
42.3946 0.32156 4
44.3255 3.10878 0.00573828
44.8159 0.72056 2
47.2057 1.27793 0
49.7722 41.3043 0.0234634
56.8937 37.8991 0.0191327
53.2328 39.3139 0.0162103
47.6939 40.4522 2
50.7227 38.4848 2
54.0859 36.6227 2
51.5099 35.5655 3.96991
48.3574 37.7611 3.99393
46.1803 35.1022 3.91635
44.0214 33.7685 3.96765
42.092 33.0291 3.97142
37.4577 8.52664 3.98698
37.5158 6.66773 2
39.442 6.79702 0.0113116
39.2109 8.68449 2
38.9759 10.1172 3.98601
35.8979 9.76408 3.986
34.1498 8.81421 3.9867
35.9413 8.48434 2
54.9605 33.9572 0.0203723
53.5615 30.4587 0.0163485
52.6409 27.1742 0.0158458
52.4019 21.0541 0.0191771
52.1721 24.0624 0.0225553
49.8214 19.5876 0.0218882
48.1153 16.9779 0.0195091
47.6824 14.5751 0.0174645
44.7234 9.9893 0.0139317
46.005 12.7211 0.0161444
41.0133 9.04239 0.0133077
42.4679 10.8953 0.0150522
52.5081 32.8502 2
40.5687 11.5985 2
43.8576 11.9102 2
51.4115 29.1346 2
50.8335 25.703 2
49.9517 22.1664 2
45.8032 15.4104 2
47.5071 19.2111 2
50.1225 31.384 3.97316
49.353 27.4595 3.97482
49.4349 24.3801 3.97896
47.1939 21.9135 3.97772
38.3014 12.7239 3.98336
42.1009 14.2948 3.98218
44.8025 18.4476 3.97989
45.0696 37.5052 3.95609
46.5224 37.5065 2
47.988 58.7485 0.0184727
48.6045 55.9265 0.0186669
50.2034 45.2841 0.0229637
49.7244 49.0676 0.0246768
49.1522 52.6151 0.0217383
46.1819 39.9086 0.0844105
46.5634 42.765 0.0184992
46.6172 45.7326 0.0162814
44.0303 41.2428 0.0331094
42.1056 41.9915 0.033649
46.8405 57.3513 2
44.8023 39.5015 2
42.4771 40.8669 2
48.1708 47.2595 2
47.1803 54.2595 2
47.6241 50.7756 2
44.8883 47.3339 2
45.2507 42.0274 2
45.0387 44.6649 2
42.836 42.7382 2
40.9696 42.3598 2
45.4009 55.937 3.97972
42.8057 39.2604 3.98239
40.9081 40.814 3.96244
46.1509 48.9395 3.97918
45.5662 52.56 3.98429
43.5229 48.4795 3.95174
43.4136 46.2096 3.99146
43.7894 43.8284 3.91794
41.2917 43.9017 3.97517
39.3238 42.6669 3.95927
45.4684 58.7965 0.0194401
43.8758 57.72 2
42.1064 56.3427 3.98024
35.4635 67.6656 0.012153
37.6419 65.5199 0.0140462
39.8923 63.5631 0.0160277
41.7524 62.502 0.0167362
42.4802 59.99 0.0183661
35.573 65.4426 2
40.6221 61.6604 2
37.8359 63.225 2
40.4438 58.2194 2
38.9249 56.5075 3.98009
38.2498 60.3437 3.98244
35.6067 63.2182 3.98427
33.5758 65.3528 0.0140996
31.9599 63.3114 0.0157004
33.6293 63.3519 2
30.379 62.8698 2
32.1232 62.0176 2
28.6811 62.2141 3.98364
33.3457 61.5299 3.98282
31.0658 61.2337 3.98252
27.5653 59.6082 3.9819
23.7869 59.0988 3.98457
25.0323 60.8844 3.98278
26.8679 61.512 2
26.229 63.4888 3.98467
28.0628 64.1574 2
27.4637 66.19 3.98724
29.884 64.7296 0.0144072
29.407 66.767 2
28.9062 68.9474 3.98998
31.3773 67.2032 0.0122354
31.0137 69.4225 2
30.6146 71.78 3.99395
33.1563 69.7574 0.00973909
32.8921 72.1492 2
32.6054 74.6784 4
35.1951 72.3747 0.00598518
35.0474 74.9197 2
37.5 75 0
33.7231 6.97376 3.98836
35.4344 4.6824 3.99081
35.6204 6.7188 2
37.5141 2.38557 3.99454
37.5229 4.61162 2
39.6238 4.71246 0.0091488
39.7885 2.4727 2
39.9526 0.0806499 4
42.062 2.71642 0.00557237
42.3947 0.320817 2
44.8158 0.721173 0
44.8004 35.5046 3.96171
42.4673 34.1499 3.97637
47.6949 40.4554 0.010612
50.7255 38.4849 0.0182648
54.0872 36.6227 0.0199833
48.3548 37.76 2
51.5083 35.5656 2
46.1804 35.1009 2
44.0317 33.7675 2
42.0989 33.028 2
48.5271 34.2479 4.00517
45.2315 32.9876 3.91949
42.8125 32.2734 3.9631
40.945 32.6672 3.96786
37.3098 10.6203 3.98525
37.4576 8.52612 2
37.5159 6.66817 0.0113076
39.2109 8.68489 0.0130891
38.9758 10.1167 2
34.753 10.3697 3.98522
35.8977 9.76368 2
32.3765 9.36085 3.98609
34.1497 8.81383 2
35.9414 8.48479 0.0130434
52.5098 32.8511 0.0185148
51.4139 29.1322 0.0128125
50.8343 25.7009 0.0254664
49.9515 22.1659 0.0209651
47.507 19.2113 0.0207171
45.8033 15.4106 0.0179576
43.8577 11.9103 0.015778
40.5687 11.5988 0.0157042
50.1198 31.3846 2
38.3012 12.7233 2
42.1007 14.2949 2
49.3513 27.4615 2
49.4348 24.3809 2
47.1939 21.9152 2
44.8024 18.4475 2
47.9025 29.5911 3.97063
47.1377 25.1068 3.97791
44.2932 21.3026 3.97813
36.581 12.9203 3.98343
38.6803 14.7946 3.98206
41.7506 17.8249 3.98025
42.9332 37.4972 3.98686
45.0816 37.5053 2
46.5124 37.5051 0.0854063
46.8405 57.351 0.0176794
47.1802 54.2595 0.0183709
48.1725 47.2627 0.0183133
47.624 50.7765 0.0219943
44.7952 39.5039 0.0368786
45.2471 42.0247 0.0778639
45.029 44.6586 0.0280561
44.8899 47.3425 0.0162346
42.8242 42.7414 0.0404972
42.4749 40.8663 0.0232659
40.9599 42.361 0.034361
45.4011 55.937 2
42.8072 39.2595 2
40.9087 40.8145 2
46.1508 48.9356 2
45.5667 52.5588 2
43.5214 48.4789 2
43.4436 46.2202 2
43.7949 43.8318 2
41.297 43.8949 2
39.329 42.6715 2
43.7409 54.4463 3.9849
40.9791 39.1838 3.94879
39.2377 40.8735 3.92839
43.7479 50.535 3.98993
42.0233 47.7355 4.02383
41.9352 45.2173 3.91792
39.5063 44.6611 3.97645
37.502 42.7797 3.96371
43.8759 57.7201 0.0197151
42.1064 56.3422 2
40.4202 54.9426 3.9779
35.573 65.4422 0.0140806
37.836 63.2247 0.0156023
40.6221 61.6601 0.0169752
40.4437 58.2193 0.0205291
35.6067 63.2186 2
38.2497 60.3439 2
38.9247 56.5087 2
37.9994 55.2606 3.97848
36.9343 57.6432 3.97957
35.3632 60.9287 3.98292
33.6292 63.3515 0.0155678
30.3789 62.8695 0.0159965
32.1231 62.0173 0.0169723
33.3457 61.5302 2
28.6811 62.2144 2
31.0659 61.2339 2
29.4012 60.3024 3.98192
32.355 59.7604 3.98204
28.017 58.3871 3.98306
27.5654 59.6085 2
25.3738 58.6093 3.98232
22.7491 58.2593 3.9815
23.397 60.3649 3.98325
23.7868 59.0992 2
25.0323 60.8848 2
24.4311 62.7809 3.98425
26.8678 61.5117 0.0172145
26.2291 63.4891 2
25.5478 65.4998 3.98675
28.0628 64.1571 0.0148299
27.4637 66.1904 2
26.836 68.3356 3.98982
29.407 66.7665 0.0124509
28.9061 68.9478 2
28.3698 71.2651 3.99387
31.0137 69.4221 0.00989501
30.6145 71.7802 2
30.1842 74.2788 4
32.8922 72.149 0.00597755
32.6053 74.6792 2
35.0474 74.9194 0
31.7876 7.41338 3.98796
33.3464 4.92152 3.99065
33.723 6.97334 2
35.2444 2.46173 3.99446
35.4344 4.68203 2
35.6205 6.71922 0.0113115
37.5 0 4
37.5141 2.38533 2
37.523 4.61198 0.00909957
39.7885 2.47293 0.00552338
39.9526 0.0802889 2
42.3946 0.32156 0
42.8092 35.7419 3.98369
44.8032 35.507 2
40.9008 34.2121 3.96433
42.4701 34.1489 2
48.3574 37.7611 0.00607169
51.5099 35.5655 0.0300894
46.1803 35.1022 0.0836488
44.0214 33.7685 0.0323466
42.092 33.0291 0.0285803
48.5254 34.2492 2
45.2364 32.9814 2
42.8222 32.2738 2
40.9518 32.6657 2
46.4413 31.4913 3.9914
43.7713 31.1834 3.92037
41.2828 31.1262 3.97153
39.3059 32.367 3.95951
35.6913 11.7648 3.98383
37.3097 10.6197 2
37.4577 8.52664 0.0130249
38.9759 10.1172 0.0139925
33.0969 11.2064 3.98436
34.7529 10.3694 2
35.8979 9.76408 0.0140032
30.4812 10.0089 3.98566
32.3764 9.36057 2
34.1498 8.81421 0.0133017
50.1225 31.384 0.0268368
49.353 27.4595 0.0251796
49.4349 24.3801 0.0210365
47.1939 21.9135 0.0222826
44.8025 18.4476 0.0201109
42.1009 14.2948 0.0178217
38.3014 12.7239 0.0166443
36.5809 12.9202 2
47.8985 29.5928 2
38.6801 14.794 2
41.7503 17.8251 2
47.1374 25.1079 2
44.2931 21.3025 2
45.6464 27.8087 3.97364
43.8233 24.037 3.98046
41.3444 20.7028 3.97989
35.7705 14.7453 3.98238
38.6811 17.5818 3.98053
41.0237 37.4945 3.94394
42.9375 37.4976 2
45.0696 37.5052 0.0439116
45.4009 55.937 0.0202762
45.5662 52.56 0.0157057
46.1509 48.9395 0.0208161
42.8057 39.2604 0.0176115
43.7894 43.8284 0.0820605
43.4136 46.2096 0.00853953
43.5229 48.4795 0.0482619
41.2917 43.9017 0.0248312
40.9081 40.814 0.0375583
39.3238 42.6669 0.0407311
43.7415 54.4463 2
40.979 39.1838 2
39.2377 40.8779 2
43.7475 50.5361 2
42.023 47.7377 2
41.9456 45.2174 2
37.5031 42.7852 2
39.5145 44.6646 2
41.8905 53.011 3.98493
39.2318 39.173 3.93448
37.5048 40.9264 3.92842
35.6841 42.6869 3.9611
40.9884 49.7551 3.9957
39.8211 46.0962 3.92038
37.4982 44.9274 3.96786
42.1064 56.3427 0.0197572
40.42 54.9423 2
38.7294 53.869 3.98351
35.6067 63.2182 0.0157315
38.2498 60.3437 0.01756
38.9249 56.5075 0.0199088
35.3632 60.929 2
36.934 57.6433 2
37.999 55.2606 2
36.3181 55.3984 3.97907
34.4866 58.538 3.98147
33.3457 61.5299 0.017184
28.6811 62.2141 0.0163585
31.0658 61.2337 0.0174811
32.3551 59.7606 2
29.4013 60.3026 2
30.293 57.8313 3.98194
28.0171 58.3873 2
26.935 56.8379 3.98079
27.5653 59.6082 0.0181012
25.3738 58.6096 2
23.8277 56.8245 3.97995
21.3236 57.4212 3.98267
21.9882 59.6392 3.98389
22.7489 58.2596 2
22.734 62.0325 3.984
23.397 60.3653 2
23.7869 59.0988 0.0154289
25.0323 60.8844 0.0172182
24.4311 62.7813 2
23.6814 64.7179 3.9861
26.229 63.4888 0.0153278
25.5478 65.5001 2
24.8085 67.5968 3.98961
27.4637 66.19 0.0127609
26.836 68.336 2
26.1652 70.6059 3.99375
28.9062 68.9474 0.0100167
28.3697 71.2653 2
27.7943 73.7221 4
30.6146 71.78 0.0060488
30.1841 74.2794 2
32.6054 74.6784 0
29.8101 7.98655 3.98749
31.2516 5.32854 3.99037
31.7875 7.41303 2
32.9802 2.69981 3.99434
33.3463 4.92111 2
33.7231 6.97376 0.0116376
35.0474 0.080333 4
35.2444 2.46149 2
35.4344 4.6824 0.00919301
37.5 0 2
37.5141 2.38557 0.00546245
39.9526 0.0806499 0
40.9847 35.8173 3.94941
42.8091 35.7427 2
44.8004 35.5046 0.0382898
28.5421 10.6841 3.98518
39.2289 34.1584 3.93139
40.9013 34.2108 2
42.4673 34.1499 0.0236296
48.5271 34.2479 -0.00516661
45.2315 32.9876 0.080511
42.8125 32.2734 0.0369015
40.945 32.6672 0.0321403
46.4506 31.4877 2
43.7727 31.1784 2
41.2914 31.1246 2
39.3113 32.3603 2
44.4554 29.6672 3.98812
41.921 29.8104 3.92562
39.4935 30.3931 3.9717
37.4801 32.266 3.9662
34.091 12.9228 3.98313
35.6913 11.7647 2
37.3098 10.6203 0.0147519
31.1849 11.9747 3.98416
33.0969 11.2062 2
34.753 10.3697 0.0147765
30.4811 10.0085 2
32.3765 9.36085 0.0139091
47.9025 29.5911 0.0293719
47.1377 25.1068 0.0220874
36.581 12.9203 0.0165735
44.2932 21.3026 0.0218717
41.7506 17.8249 0.0197453
38.6803 14.7946 0.0179447
35.7703 14.7457 2
45.6434 27.8133 2
38.6808 17.5814 2
41.3439 20.7027 2
43.823 24.0418 2
33.6058 15.8627 3.98244
43.1196 26.5315 3.98295
40.9272 23.2753 3.98095
38.4223 20.3106 3.98082
35.8468 17.4947 3.98103
39.2406 37.4971 3.9337
41.0248 37.4941 2
42.9332 37.4972 0.013139
43.7409 54.4463 0.0150971
43.7479 50.535 0.0100685
40.9791 39.1838 0.051212
41.9352 45.2173 0.0820819
42.0233 47.7355 -0.0238346
39.5063 44.6611 0.0235532
39.2377 40.8735 0.0716127
37.502 42.7797 0.0362899
41.8908 53.0117 2
39.2317 39.175 2
37.5051 40.9323 2
40.9871 49.7544 2
35.6798 42.6903 2
39.8316 46.1012 2
37.5019 44.9148 2
39.8291 51.929 3.98842
37.5016 39.1927 3.92831
35.7744 40.8942 3.92504
34.0486 42.379 3.96635
35.4835 44.6661 3.97034
38.7747 48.8043 4.03424
37.5061 46.4089 3.91356
40.4202 54.9426 0.0221023
38.7291 53.8678 2
36.7177 53.2214 3.98341
35.3632 60.9287 0.01708
36.9343 57.6432 0.0204283
37.9994 55.2606 0.0215177
34.4865 58.538 2
36.318 55.3978 2
33.2213 55.5187 3.98159
32.355 59.7604 0.0179588
29.4012 60.3024 0.0180823
30.2931 57.8314 2
28.6737 55.3233 3.97892
28.017 58.3871 0.0169351
26.9348 56.8383 2
25.292 55.1617 3.97891
21.7903 55.3712 3.98008
25.3738 58.6093 0.0176793
23.8274 56.8248 2
20.2067 57.0529 3.98407
20.6379 58.7992 3.98398
21.3234 57.4214 2
21.163 61.1839 3.9847
21.9881 59.6396 2
22.7491 58.2593 0.0185003
21.8943 63.8459 3.98566
22.7341 62.0328 2
23.397 60.3649 0.0167478
24.4311 62.7809 0.0157467
23.6815 64.7183 2
22.837 66.7406 3.98928
25.5478 65.4998 0.0132526
24.8085 67.5971 2
24.0095 69.8071 3.99363
26.836 68.3356 0.0101844
26.165 70.6061 2
25.446 73.0099 4
28.3698 71.2651 0.00612866
27.7943 73.7222 2
30.1842 74.2788 0
27.8201 8.64595 3.98722
29.1536 5.87417 3.99001
29.81 7.98616 2
30.7255 3.09689 3.99414
31.2515 5.32817 2
31.7876 7.41338 0.0120352
32.6053 0.320823 4
32.9801 2.69956 2
33.3464 4.92152 0.00934828
35.0474 0.0802903 2
35.2444 2.46173 0.00554472
37.5 0 0
39.2374 35.8338 3.93449
40.9836 35.8164 2
42.8092 35.7419 0.0163077
28.5421 10.6839 2
26.6211 11.3795 3.98493
29.2238 12.6315 3.98384
37.4942 34.112 3.93823
39.2287 34.1534 2
40.9008 34.2121 0.0356696
46.4413 31.4913 0.00859848
43.7713 31.1834 0.079626
41.2828 31.1262 0.0284675
39.3059 32.367 0.0404885
44.4662 29.6593 2
41.9334 29.8051 2
39.5003 30.3897 2
37.4829 32.2607 2
42.3639 28.3556 3.99106
39.8174 28.9453 3.92092
37.4777 30.1339 3.96526
35.6597 32.3604 3.96191
31.9124 14.4688 3.98268
34.091 12.9228 2
35.6913 11.7648 0.016171
31.1849 11.9744 2
33.0969 11.2064 0.0156434
30.4812 10.0089 0.0143378
45.6464 27.8087 0.0263611
43.8233 24.037 0.0195409
35.7705 14.7453 0.017625
41.3444 20.7028 0.0201148
38.6811 17.5818 0.0194702
33.6057 15.8632 2
35.8465 17.4954 2
43.1176 26.5369 2
38.4219 20.3114 2
40.9271 23.2756 2
33.5477 17.3716 3.98234
40.4882 25.6213 3.99264
38.0838 22.8404 3.98785
35.5822 20.0629 3.982
37.5026 37.5069 3.93046
39.2414 37.4968 2
41.0237 37.4945 0.0560589
41.8905 53.011 0.0150696
40.9884 49.7551 0.00429871
39.2318 39.173 0.0655204
39.8211 46.0962 0.0796213
37.4982 44.9274 0.0321373
37.5048 40.9264 0.0715758
35.6841 42.6869 0.0388994
39.8301 51.9285 2
37.5021 39.1957 2
35.7751 40.8982 2
38.7695 48.8115 2
34.0407 42.3796 2
35.4826 44.6648 2
37.5023 46.4214 2
37.6679 51.0009 3.97712
35.7759 39.1965 3.93057
34.1104 40.8369 3.96195
32.902 42.0141 3.971
33.6979 43.9245 3.96984
35.1803 46.1084 3.92159
36.9022 48.4242 4.02304
38.7294 53.869 0.0164874
36.7175 53.22 2
34.3486 52.4887 3.98241
34.4866 58.538 0.0185267
36.3181 55.3984 0.0209252
33.2214 55.5182 2
30.4988 53.4183 3.98024
30.293 57.8313 0.0180629
28.6734 55.3234 2
26.8546 53.4629 3.97756
26.935 56.8379 0.0192118
25.2915 55.162 2
23.5438 53.508 3.97727
20.4379 53.2568 3.97884
19.916 55.8579 3.98315
21.7898 55.3714 2
23.8277 56.8245 0.0200501
19.4287 57.9134 3.98379
20.2064 57.053 2
19.7013 60.2193 3.98441
20.6378 58.7994 2
21.3236 57.4212 0.0173276
20.2058 62.868 3.98579
21.163 61.1842 2
21.9882 59.6392 0.0161117
20.9384 65.7699 3.98883
21.8943 63.8462 2
22.734 62.0325 0.0160036
23.6814 64.7179 0.0139003
22.8369 66.7409 2
21.9122 68.8743 3.99347
24.8085 67.5968 0.0103879
24.0094 69.8073 2
23.1494 72.1454 4
26.1652 70.6059 0.00625213
25.446 73.0099 2
27.7943 73.7221 0
25.8594 9.3741 3.98668
27.0685 6.53805 3.98973
27.82 8.64566 2
28.4878 3.64272 3.99393
29.1535 5.8738 2
29.8101 7.98655 0.012511
30.1841 0.720592 4
30.7254 3.09667 2
31.2516 5.32854 0.00963496
32.6053 0.320817 2
32.9802 2.69981 0.00565845
35.0474 0.080333 0
37.5038 35.8279 3.93042
39.2363 35.8312 2
40.9847 35.8173 0.0505947
24.7758 12.0626 3.9846
23.7492 14.3473 3.98334
28.5421 10.6841 0.0148207
26.6211 11.3794 2
29.2239 12.6314 2
27.2898 13.3646 3.98375
29.7784 14.1908 3.98314
35.7647 34.1479 3.93142
37.4944 34.1071 2
39.2289 34.1584 0.0686087
37.4801 32.266 0.0337989
44.4554 29.6672 0.0118782
41.921 29.8104 0.0743781
39.4935 30.3931 0.0282983
42.3716 28.3449 2
39.8288 28.9398 2
37.4792 30.1358 2
35.6595 32.3548 2
40.0459 27.5375 4.00039
37.4876 28.6438 3.91657
35.4585 30.3913 3.96619
34.0295 32.6629 3.96593
30.9234 16.8264 3.9822
31.9125 14.4687 2
34.091 12.9228 0.0168655
31.1849 11.9747 0.0158441
43.1196 26.5315 0.0170506
40.9272 23.2753 0.0190544
33.6058 15.8627 0.0175648
35.8468 17.4947 0.0189685
38.4223 20.3106 0.0191811
33.5474 17.3724 2
35.5821 20.0636 2
40.4853 25.6291 2
38.0839 22.8432 2
32.8595 19.7794 3.9804
37.7878 25.1359 4.00642
35.2037 22.6224 3.97764
35.7677 37.5165 3.93053
37.5041 37.507 2
39.2406 37.4971 0.066302
39.8291 51.929 0.0115809
38.7747 48.8043 -0.0342357
37.5016 39.1927 0.0716925
37.5061 46.4089 0.0864382
35.4835 44.6661 0.0296567
35.7744 40.8942 0.074963
34.0486 42.379 0.0336461
37.669 51.0095 2
35.7771 39.1984 2
34.1102 40.8378 2
36.8985 48.4302 2
32.8951 42.0154 2
33.6945 43.9219 2
35.1691 46.1117 2
35.4187 50.156 3.98128
34.0363 39.212 3.94504
32.535 40.89 3.9764
32.1739 42.7653 3.96153
33.0757 45.239 3.92152
34.2818 47.5282 3.99948
36.7177 53.2214 0.0165933
34.3485 52.4891 2
31.9648 51.2126 3.97922
33.2213 55.5187 0.0184125
30.4986 53.4203 2
28.3895 51.6441 3.97853
28.6737 55.3233 0.0210792
26.8541 53.4642 2
25.0374 51.7986 3.97483
25.292 55.1617 0.021086
23.5431 53.5082 2
21.9242 51.8444 3.97719
19.1643 51.6685 3.97892
18.8987 54.3367 3.98089
20.4376 53.2565 2
18.4344 56.747 3.9843
19.9155 55.858 2
21.7903 55.3712 0.0199163
18.3619 59.1288 3.98399
19.4285 57.9136 2
20.2067 57.0529 0.0159282
18.6156 61.7771 3.98556
19.7013 60.2195 2
20.6379 58.7992 0.0160161
19.1269 64.6813 3.98851
20.2058 62.8684 2
21.163 61.1839 0.0153009
19.8863 67.8111 3.99319
20.9383 65.7702 2
21.8943 63.8459 0.014336
22.837 66.7406 0.0107219
21.912 68.8745 2
20.9142 71.1327 4
24.0095 69.8071 0.00637373
23.1494 72.1455 2
25.446 73.0099 0
23.0949 12.7773 3.98426
23.972 10.1606 3.98625
25.0225 7.308 3.98943
25.8594 9.37381 2
26.2795 4.32683 3.99368
27.0684 6.53774 2
27.8201 8.64595 0.0127758
27.7943 1.27781 4
28.4876 3.64252 2
29.1536 5.87417 0.00999256
30.1841 0.720551 2
30.7255 3.09689 0.00585863
32.6053 0.320823 0
35.7729 35.839 3.93202
37.5034 35.8254 2
39.2374 35.8338 0.0655137
24.7759 12.0625 2
23.7494 14.3474 2
22.4773 15.0238 3.98332
25.3558 13.8966 3.98353
24.0216 15.6093 3.98295
26.6211 11.3795 0.0150691
29.2238 12.6315 0.016158
27.2899 13.3644 2
29.7785 14.1907 2
28.354 15.9653 3.98266
34.1048 34.209 3.96187
35.7651 34.1439 2
37.4942 34.112 0.0617661
35.6597 32.3604 0.0380934
37.4777 30.1339 0.0347386
42.3639 28.3556 0.00894126
39.8174 28.9453 0.0790765
40.0472 27.5372 2
37.4867 28.6316 2
35.4559 30.3882 2
34.0293 32.6602 2
37.6162 27.2371 4.00228
35.1398 28.9396 3.92095
33.6718 31.1255 3.97248
32.889 33.0343 3.97453
30.2028 19.3297 3.98323
30.9233 16.8267 2
31.9124 14.4688 0.017323
40.4882 25.6213 0.00736193
38.0838 22.8404 0.0121453
33.5477 17.3716 0.0176645
35.5822 20.0629 0.018004
32.8592 19.7809 2
35.2043 22.6228 2
37.7876 25.1432 2
32.3043 22.3957 3.98041
34.936 25.1537 3.98528
33.991 37.5221 3.94212
35.7697 37.5162 2
37.5026 37.5069 0.0695437
37.6679 51.0009 0.0228768
36.9022 48.4242 -0.0230447
35.7759 39.1965 0.0694261
35.1803 46.1084 0.078406
33.6979 43.9245 0.0301608
34.1104 40.8369 0.0380498
32.902 42.0141 0.0289985
35.419 50.1625 2
34.0375 39.2123 2
32.5325 40.89 2
34.2745 47.5386 2
32.1649 42.7606 2
33.0637 45.243 2
33.1736 49.1365 3.98241
32.2 39.2895 3.98306
30.9709 41.2644 3.96778
31.2163 43.8507 3.92009
32.218 46.4691 3.9822
34.3486 52.4887 0.0175872
31.9645 51.2164 2
29.7908 49.7378 3.9772
30.4988 53.4183 0.0197562
28.389 51.6427 2
26.4453 50.0352 3.97389
26.8546 53.4629 0.0224375
25.0368 51.7971 2
23.2851 50.2393 3.97891
23.5438 53.508 0.0227312
21.9238 51.8436 2
20.4182 50.3524 3.97919
17.9498 50.3609 3.98089
17.8054 52.8209 3.98028
19.1643 51.6678 2
17.4199 55.3649 3.98273
18.8984 54.3366 2
20.4379 53.2568 0.0211563
17.126 57.8927 3.98473
18.4341 56.7472 2
19.916 55.8579 0.0168504
17.132 60.5621 3.9851
18.3618 59.129 2
19.4287 57.9134 0.016209
17.4066 63.4749 3.98821
18.6157 61.7773 2
19.7013 60.2193 0.0155894
17.9424 66.6199 3.993
19.1268 64.6816 2
20.2058 62.868 0.0142124
18.75 69.9759 4
19.8861 67.8112 2
20.9384 65.7699 0.0111732
21.9122 68.8743 0.00653209
20.9142 71.1327 2
23.1494 72.1454 0
21.5853 13.5975 3.98401
22.19 11.0198 3.9857
23.095 12.7774 2
23.0406 8.1732 3.98921
23.9721 10.1604 2
24.1172 5.14142 3.9935
25.0224 7.30773 2
25.8594 9.3741 0.01332
25.446 1.99014 4
26.2794 4.32669 2
27.0685 6.53805 0.0102725
27.7943 1.27778 2
28.4878 3.64272 0.00607193
30.1841 0.720592 0
34.0316 35.8325 3.94666
35.7729 35.8366 2
37.5038 35.8279 0.0695776
21.3016 15.819 3.98339
24.7758 12.0626 0.0153972
23.7492 14.3473 0.016661
25.3559 13.8968 2
22.4775 15.024 2
24.0218 15.6096 2
23.2602 16.2406 3.98279
25.3769 16.0773 3.98299
27.2898 13.3646 0.016249
29.7784 14.1908 0.0168572
28.3541 15.9655 2
27.4342 18.7877 3.9829
32.5388 34.1608 3.97785
34.1041 34.2075 2
35.7647 34.1479 0.068583
34.0295 32.6629 0.0340735
35.4585 30.3913 0.0338055
37.4876 28.6438 0.0834289
40.0459 27.5375 -0.000394992
37.6138 27.2095 2
32.8887 33.0356 2
35.1263 28.932 2
33.666 31.1225 2
35.0422 27.3431 4.00449
33.0264 29.813 3.92554
32.1554 32.2788 3.96796
29.5645 21.9252 3.98709
30.203 19.3311 2
30.9234 16.8264 0.0177959
37.7878 25.1359 -0.00642032
35.2037 22.6224 0.0223566
32.8595 19.7794 0.0195971
32.3049 22.3982 2
34.9384 25.1639 2
31.626 25.6122 3.98373
32.0758 37.5261 3.98538
33.9929 37.5215 2
35.7677 37.5165 0.0694732
35.4187 50.156 0.0187211
34.2818 47.5282 0.000517191
34.0363 39.212 0.0549568
33.0757 45.239 0.0784769
32.1739 42.7653 0.0384678
32.535 40.89 0.0236018
33.1742 49.1242 2
32.1994 39.2892 2
30.9615 41.2629 2
32.2012 46.4798 2
31.2104 43.8535 2
31.0411 47.8914 3.98193
30.2001 39.5226 3.96137
29.7588 42.0411 3.92013
30.3222 45.0536 3.98227
31.9648 51.2126 0.0207811
29.791 49.7356 2
27.7802 48.2211 3.97586
28.3895 51.6441 0.0214663
26.4451 50.0328 2
24.5715 48.517 3.98002
25.0374 51.7986 0.0251748
23.285 50.238 2
21.5889 48.8318 3.98145
21.9242 51.8444 0.0228091
20.4185 50.3511 2
18.9854 49.1257 3.98282
16.857 49.3588 3.98323
16.7436 51.4345 3.98098
17.9502 50.3602 2
16.3687 53.8952 3.98177
17.8054 52.8205 2
19.1643 51.6685 0.0210826
15.9652 56.4956 3.98413
17.4196 55.3649 2
18.8987 54.3367 0.0191091
15.7443 59.2244 3.98529
17.1257 57.8929 2
18.4344 56.747 0.0156996
15.7864 62.1465 3.98772
17.132 60.5624 2
18.3619 59.1288 0.0160052
16.0888 65.3028 3.9929
17.4066 63.4752 2
18.6156 61.7771 0.0144392
16.6661 68.6801 4
17.9423 66.62 2
19.1269 64.6813 0.0114929
18.75 69.9759 2
19.8863 67.8111 0.00680775
20.9142 71.1327 0
20.2166 14.5859 3.98382
21.5855 13.5976 2
20.5291 11.9897 3.98527
21.1438 9.14271 3.98889
22.1901 11.0197 2
23.0949 12.7773 0.0157366
22.0163 6.08032 3.99333
23.0406 8.17297 2
23.972 10.1606 0.0137507
23.1494 2.85457 4
24.117 5.1413 2
25.0225 7.308 0.0105705
25.446 1.99012 2
26.2795 4.32683 0.0063161
27.7943 1.27781 0
32.2045 35.7611 3.98183
34.0315 35.8315 2
35.7729 35.839 0.0679804
21.3019 15.8191 2
20.2975 16.9512 3.98431
22.0928 16.6244 3.9831
25.3558 13.8966 0.0164735
22.4773 15.0238 0.0166827
24.0216 15.6093 0.0170495
25.3771 16.0777 2
23.2605 16.2411 2
24.1982 18.4395 3.98187
27.0002 21.4475 3.98094
28.354 15.9653 0.0173448
27.4346 18.7884 2
30.9774 33.7854 3.96357
32.5348 34.1617 2
34.1048 34.209 0.0381311
32.889 33.0343 0.0254747
33.6718 31.1255 0.0275196
35.1398 28.9396 0.0790548
37.6162 27.2371 -0.00227779
35.0325 27.3332 2
32.157 32.2832 2
33.0263 29.8078 2
32.4589 28.0615 4.00868
31.1809 31.2017 3.92593
28.7469 24.3893 3.98687
29.565 21.9282 2
30.2028 19.3297 0.0167668
34.936 25.1537 0.0147235
32.3043 22.3957 0.0195871
31.6276 25.6029 2
29.5515 27.2944 3.98073
29.9311 37.5255 3.95769
32.076 37.5261 2
33.991 37.5221 0.0578817
33.1736 49.1365 0.0175859
32.218 46.4691 0.0177985
32.2 39.2895 0.0169413
31.2163 43.8507 0.0799145
30.9709 41.2644 0.0322218
31.0441 47.8833 2
30.1953 39.5223 2
29.7542 42.0451 2
30.3075 45.0615 2
29.0471 46.4573 3.97313
28.8164 39.9214 3.91435
28.5101 43.2676 3.98978
29.7908 49.7378 0.0227982
27.7808 48.2175 2
25.834 46.6999 3.98012
26.4453 50.0352 0.0261069
24.572 48.5152 2
22.7184 47.1273 3.98757
23.2851 50.2393 0.0210941
21.5897 48.83 2
19.9254 47.6547 3.9858
20.4182 50.3524 0.0208097
18.9859 49.1246 2
17.6285 48.2069 3.98462
16.1086 48.7081 3.98471
16.8574 49.3583 2
15.8205 50.195 3.98241
15.3561 52.4389 3.98168
16.7438 51.4341 2
17.9498 50.3609 0.0191106
14.8546 54.9971 3.98308
16.3686 53.895 2
17.8054 52.8209 0.0197237
14.4524 57.7541 3.98516
15.9649 56.4957 2
17.4199 55.3649 0.0172682
14.2638 60.7018 3.98726
15.7442 59.2247 2
17.126 57.8927 0.0152665
14.3327 63.8623 3.99273
15.7864 62.147 2
17.132 60.5621 0.0149004
14.6715 67.2507 4
16.0887 65.3029 2
17.4066 63.4749 0.01179
16.6661 68.6801 2
17.9424 66.6199 0.00699785
18.75 69.9759 0
18.9292 15.7713 3.9842
20.2168 14.5859 2
18.9783 13.1002 3.98499
21.5853 13.5975 0.0159927
20.5292 11.9896 2
19.3432 10.2304 3.98833
19.991 7.14487 3.99321
21.1438 9.14253 2
22.19 11.0198 0.0142972
20.9142 3.86727 4
22.0161 6.08026 2
23.0406 8.1732 0.0107934
23.1494 2.85451 2
24.1172 5.14142 0.00649822
25.446 1.99014 0
30.2129 35.5314 3.96451
32.2024 35.761 2
34.0316 35.8325 0.0533418
21.3016 15.819 0.0166135
22.0932 16.6246 2
20.2978 16.9513 2
19.2349 18.3964 3.98407
21.7759 17.8391 3.98341
25.3769 16.0773 0.0170096
23.2602 16.2406 0.0172111
24.1989 18.4404 2
22.2667 19.8791 3.98274
24.5759 21.3095 3.98268
26.3757 23.713 3.98309
27.0017 21.4493 2
27.4342 18.7877 0.0170968
29.755 33.0066 3.92308
30.9679 33.785 2
32.5388 34.1608 0.0221462
32.1554 32.2788 0.0320381
33.0264 29.813 0.0744628
35.0422 27.3431 -0.0044851
32.4445 28.0577 2
31.1899 31.2072 2
29.9928 29.4988 4.00149
27.7965 26.5398 3.96966
28.7477 24.3967 2
29.5645 21.9252 0.0129067
31.626 25.6122 0.0162689
29.5451 27.2409 2
28.4866 37.5214 3.91895
29.9263 37.5267 2
32.0758 37.5261 0.0146226
31.0411 47.8914 0.018067
30.3222 45.0536 0.0177341
30.2001 39.5226 0.0386345
29.7588 42.0411 0.0798651
29.0509 46.4549 2
28.8129 39.9217 2
28.5005 43.2708 2
27.1162 44.8191 3.96927
26.5962 40.6625 4.00711
27.7802 48.2211 0.024143
25.8358 46.6977 2
23.8619 45.2582 3.98372
24.5715 48.517 0.0199814
22.7197 47.1247 2
20.8493 45.937 3.98737
21.5889 48.8318 0.0185543
19.9264 47.6534 2
18.2699 46.7672 3.98608
18.9854 49.1257 0.0171752
17.629 48.2064 2
16.2969 47.7379 3.98447
16.109 48.7078 2
15.1664 49.038 3.98352
16.857 49.3588 0.016768
15.8208 50.1946 2
14.4689 51.0058 3.9822
13.815 53.4527 3.98258
15.3562 52.4386 2
16.7436 51.4345 0.0190213
13.246 56.1822 3.98448
14.8544 54.997 2
16.3687 53.8952 0.0182254
12.8457 59.1358 3.98702
14.4522 57.7544 2
15.9652 56.4956 0.0158744
12.6779 62.305 3.99232
14.2638 60.7021 2
15.7443 59.2244 0.0147112
12.7746 65.6939 4
14.3326 63.8624 2
15.7864 62.1465 0.0122829
14.6714 67.2507 2
16.0888 65.3028 0.00709731
16.6661 68.6801 0
17.6623 17.1454 3.9842
18.9294 15.7713 2
17.5089 14.3631 3.98504
20.2166 14.5859 0.0161759
18.9785 13.1 2
17.6386 11.449 3.98773
20.5291 11.9897 0.0147349
19.3433 10.2303 2
18.0512 8.33763 3.99294
18.75 5.0241 4
19.9908 7.14486 2
21.1438 9.14271 0.0111052
20.9142 3.86727 2
22.0163 6.08032 0.00666954
23.1494 2.85457 0
28.8217 35.1245 3.92124
30.208 35.5348 2
32.2045 35.7611 0.018173
22.0928 16.6244 0.0169001
20.2975 16.9512 0.015695
21.7763 17.839 2
19.2352 18.3964 2
17.9681 19.9265 3.98402
20.8663 19.3648 3.98386
24.1982 18.4395 0.0181343
22.2676 19.8789 2
24.5774 21.3108 2
22.3385 21.7027 3.98359
24.6618 23.1549 3.98291
25.3891 25.9414 3.97466
26.3773 23.7137 2
27.0002 21.4475 0.0190598
28.1471 32.2737 3.98727
29.7507 33.0066 2
30.9774 33.7854 0.0364337
31.1809 31.2017 0.0740689
32.4589 28.0615 -0.0086783
29.9649 29.5007 2
26.8909 29.1387 3.97429
27.7913 26.5399 2
28.7469 24.3893 0.0131338
29.5515 27.2944 0.0192701
26.716 37.37 3.9912
28.4837 37.5198 2
29.9311 37.5255 0.0423061
29.0471 46.4573 0.0268698
28.5101 43.2676 0.0102246
28.8164 39.9214 0.0856476
27.1212 44.8182 2
26.5975 40.6634 2
25.0833 43.2132 3.97293
23.8432 39.4431 3.96829
25.834 46.6999 0.0198771
23.8639 45.2577 2
21.8188 43.9898 3.98511
22.7184 47.1273 0.012431
20.8509 45.9359 2
18.9256 44.9999 3.98367
19.9254 47.6547 0.0141953
18.2708 46.7668 2
16.5844 46.2363 3.98309
17.6285 48.2069 0.0153757
16.2974 47.7376 2
14.8947 47.6911 3.98322
16.1086 48.7081 0.0152895
15.1668 49.0377 2
13.7662 49.5649 3.98266
15.8205 50.195 0.0175856
14.4691 51.0055 2
12.881 51.8903 3.9825
12.1325 54.5402 3.98388
13.815 53.4525 2
15.3561 52.4389 0.0183161
11.5295 57.4679 3.98653
13.2459 56.1823 2
14.8546 54.9971 0.0169185
11.1324 60.6315 3.99197
12.8456 59.1361 2
14.4524 57.7541 0.0148407
10.9835 64.0165 4
12.6778 62.3051 2
14.2638 60.7018 0.0127392
12.7745 65.694 2
14.3327 63.8623 0.00726928
14.6715 67.2507 0
16.3931 18.6376 3.98439
17.6625 17.1453 2
16.099 15.771 3.98507
18.9292 15.7713 0.0158017
17.509 14.3629 2
16.0197 12.8018 3.9873
18.9783 13.1002 0.0150119
17.6387 11.4488 2
16.2023 9.66055 3.99266
19.3432 10.2304 0.0116665
18.0511 8.33766 2
16.6661 6.31991 4
18.75 5.02404 2
19.991 7.14487 0.00679017
20.9142 3.86727 0
27.2215 34.7433 3.98404
28.817 35.1236 2
30.2129 35.5314 0.0354878
16.6652 21.36 3.98261
21.7759 17.8391 0.0165858
19.2349 18.3964 0.0159309
20.8668 19.3646 2
17.9685 19.9266 2
19.7064 21.5553 3.98546
22.2667 19.8791 0.017256
24.5759 21.3095 0.0173183
22.3398 21.7017 2
24.6624 23.1555 2
22.8008 24.5869 3.97866
24.4427 28.5178 3.974
25.3859 25.9398 2
26.3757 23.713 0.0169148
25.9844 31.7135 3.97839
28.1382 32.272 2
29.755 33.0066 0.0769183
29.9928 29.4988 -0.00148986
26.8971 29.1403 2
27.7965 26.5398 0.030339
24.5299 36.8764 3.97907
26.7172 37.3736 2
28.4866 37.5214 0.0810518
27.1162 44.8191 0.0307299
26.5962 40.6625 -0.00710664
25.0854 43.2141 2
23.8446 39.4439 2
22.8634 41.8288 3.97998
21.6008 38.5083 3.97881
23.8619 45.2582 0.0162795
21.8207 43.9909 2
19.6716 42.9139 3.98018
20.8493 45.937 0.0126345
18.9269 45 2
16.9103 44.4016 3.98084
18.2699 46.7672 0.0139229
16.5852 46.2361 2
14.8138 46.1097 3.98154
16.2969 47.7379 0.0155302
14.8951 47.6909 2
13.2723 48.0257 3.98221
15.1664 49.038 0.0164785
13.7664 49.5647 2
12.0995 50.2671 3.9825
14.4689 51.0058 0.017801
12.881 51.8901 2
11.1275 52.8479 3.98348
10.3194 55.7193 3.98599
12.1324 54.5402 2
13.815 53.4527 0.0174239
9.699 58.8545 3.99128
11.5294 57.4681 2
13.246 56.1822 0.0155176
9.30605 62.2254 4
11.1323 60.6316 2
12.8457 59.1358 0.0129778
10.9835 64.0165 2
12.6779 62.305 0.00767511
12.7746 65.6939 0
15.1358 20.1705 3.98358
16.3934 18.6376 2
14.7436 17.2927 3.98481
17.6623 17.1454 0.0157965
16.0991 15.7708 2
14.4816 14.2827 3.98701
17.5089 14.3631 0.0149562
16.0198 12.8015 2
14.4449 11.1115 3.99242
17.6386 11.449 0.0122746
16.2022 9.66055 2
14.6715 7.74927 4
18.0512 8.33763 0.0070566
16.6661 6.31988 2
18.75 5.0241 0
25.167 34.2829 3.98498
27.2213 34.746 2
28.8217 35.1245 0.0787595
17.8345 22.3049 3.98605
15.5073 22.9027 3.98132
16.6654 21.3599 2
20.8663 19.3648 0.0161418
17.9681 19.9265 0.0159783
19.7071 21.5549 2
19.6271 24.3607 3.98175
22.3385 21.7027 0.0164079
24.6618 23.1549 0.0170868
22.7988 24.5852 2
21.8315 27.8075 3.97541
23.608 31.1792 3.97415
24.446 28.5211 2
25.3891 25.9414 0.02534
25.9868 31.7112 2
28.1471 32.2737 0.0127273
26.8909 29.1387 0.025711
22.3109 36.2723 3.98399
24.5318 36.8769 2
26.716 37.37 0.0088008
25.0833 43.2132 0.0270704
23.8432 39.4431 0.0317132
22.8644 41.8294 2
21.6018 38.5084 2
20.5879 40.647 3.97872
19.9663 37.7861 3.98161
21.8188 43.9898 0.0148948
19.673 42.914 2
17.3018 42.1179 3.97896
18.9256 44.9999 0.0163348
16.9114 44.4017 2
14.8134 44.2173 3.97935
16.5844 46.2363 0.0169096
14.8144 46.1096 2
12.9436 46.3107 3.98067
14.8947 47.6911 0.0167818
13.2725 48.0256 2
11.4704 48.5625 3.98198
13.7662 49.5649 0.0173363
12.0996 50.267 2
10.2529 51.09 3.98314
12.881 51.8903 0.0175044
11.1275 52.8479 2
9.2279 53.8963 3.98555
8.38254 56.9874 3.99035
10.3193 55.7194 2
12.1325 54.5402 0.0161152
7.74927 60.3285 4
9.69892 58.8546 2
11.5295 57.4679 0.0134705
9.306 62.2255 2
11.1324 60.6315 0.00803198
10.9835 64.0165 0
13.9461 21.7365 3.98272
15.136 20.1703 2
13.4431 18.8889 3.98449
16.3931 18.6376 0.0156138
14.7438 17.2925 2
13.0265 15.8747 3.98668
16.099 15.771 0.0149306
14.4817 14.2824 2
12.782 12.6845 3.99214
16.0197 12.8018 0.0126955
14.4448 11.1115 2
12.7746 9.30605 4
16.2023 9.66055 0.00734109
14.6715 7.74924 2
16.6661 6.31991 0
22.9037 33.794 3.98363
25.167 34.2827 2
27.2215 34.7433 0.0159601
17.5973 24.0235 3.98257
17.8346 22.3044 2
14.2878 24.4349 3.98005
15.5067 22.902 2
16.6652 21.36 0.0173866
18.975 27.1833 3.97517
19.7064 21.5553 0.0145384
19.6257 24.3609 2
21.0618 30.649 3.97638
22.8008 24.5869 0.0213356
21.8338 27.8088 2
23.6097 31.18 2
24.4427 28.5178 0.0259977
25.9844 31.7135 0.0216135
20.0807 35.9187 3.98341
22.3121 36.2731 2
24.5299 36.8764 0.0209261
22.8634 41.8288 0.0200245
21.6008 38.5083 0.0211913
20.5889 40.6471 2
19.9671 37.7863 2
17.9675 39.0092 3.97992
19.6716 42.9139 0.0198245
17.3028 42.1182 2
14.7583 41.9311 3.97847
16.9103 44.4016 0.0191594
14.8142 44.2174 2
12.6827 44.4047 3.97915
14.8138 46.1097 0.0184624
12.9441 46.3107 2
10.9718 46.7445 3.98072
13.2723 48.0257 0.0177928
11.4705 48.5625 2
9.51597 49.2484 3.98257
12.0995 50.2671 0.0174973
10.2529 51.09 2
8.26065 52.008 3.98513
11.1275 52.8479 0.0165245
9.22779 53.8964 2
7.19142 55.0371 3.98957
6.31991 58.3339 4
8.38244 56.9874 2
10.3194 55.7193 0.0140092
7.74924 60.3285 2
9.699 58.8545 0.00872416
9.30605 62.2254 0
13.2086 25.3497 3.98362
12.8118 23.2661 3.9818
13.9458 21.7358 2
12.2272 20.5376 3.98414
15.1358 20.1705 0.0164234
13.4433 18.8886 2
11.6555 17.5553 3.98651
14.7436 17.2927 0.015194
13.0266 15.8745 2
11.2192 14.369 3.99173
14.4816 14.2827 0.0129869
12.7819 12.6845 2
10.9835 10.9835 4
14.4449 11.1115 0.00758421
12.7745 9.306 2
14.6715 7.74927 0
20.4696 33.3839 3.98104
22.9039 33.7941 2
25.167 34.2829 0.0150242
15.8662 26.385 3.97806
17.5964 24.023 2
17.8345 22.3049 0.013955
14.2878 24.4353 2
15.5073 22.9027 0.0186779
18.3102 30.1577 3.97584
18.9767 27.1843 2
19.6271 24.3607 0.0182525
21.0631 30.6491 2
21.8315 27.8075 0.0245906
23.608 31.1792 0.0258458
17.5893 35.9619 3.98251
20.0817 35.919 2
22.3109 36.2723 0.0160128
20.5879 40.647 0.0212779
19.9663 37.7861 0.0183868
17.9681 39.0094 2
14.2611 39.1832 3.98012
17.3018 42.1179 0.021035
14.759 41.9312 2
12.3685 42.2868 3.97901
14.8134 44.2173 0.0206451
12.6833 44.4048 2
10.5485 44.8117 3.97974
12.9436 46.3107 0.0193305
10.9721 46.7446 2
8.89847 47.3261 3.98153
11.4704 48.5625 0.0180154
9.51601 49.2484 2
7.42755 50.04 3.98447
10.2529 51.09 0.0168609
8.26056 52.008 2
6.13184 53.0108 3.98905
9.2279 53.8963 0.0144467
7.1913 55.037 2
5.0241 56.25 4
6.31988 58.3339 2
8.38254 56.9874 0.00965331
7.74927 60.3285 0
13.443 26.8022 3.97931
11.9248 24.7767 3.98113
13.2089 25.3498 2
11.1293 22.2231 3.98332
12.8117 23.266 2
13.9461 21.7365 0.0172765
12.2271 20.5371 2
10.385 19.3103 3.98637
13.4431 18.8889 0.0155126
11.6557 17.5551 2
9.75995 16.1519 3.9912
13.0265 15.8747 0.0133164
11.2192 14.3689 2
9.30607 12.7746 4
12.782 12.6845 0.00786117
10.9835 10.9835 2
12.7746 9.30605 0
17.7729 33.1019 3.9791
20.4699 33.3839 2
22.9037 33.794 0.0163668
15.4505 29.6249 3.97739
15.8672 26.3857 2
17.5973 24.0235 0.017431
14.2878 24.4349 0.0199507
18.311 30.1578 2
18.975 27.1833 0.0248259
21.0618 30.649 0.0236202
14.8517 36.0177 3.98094
17.5902 35.9622 2
20.0807 35.9187 0.0165895
12.5615 37.8327 3.97972
17.9675 39.0092 0.0200843
14.2615 39.1834 2
11.8806 40.1484 3.98014
14.7583 41.9311 0.0215334
12.3691 42.287 2
10.1471 42.7854 3.97929
12.6827 44.4047 0.0208516
10.5489 44.8118 2
8.37631 45.3268 3.9808
10.9718 46.7445 0.0192804
8.89858 47.3262 2
6.71899 48.0041 3.98353
9.51597 49.2484 0.017434
7.42749 50.0401 2
5.20845 50.9126 3.98869
8.26065 52.008 0.014874
6.1317 53.0105 2
3.86727 54.0858 4
7.19142 55.0371 0.0104267
5.02404 56.25 2
6.31991 58.3339 0
12.8971 29.0238 3.97684
11.354 26.4784 3.98031
13.4437 26.802 2
10.1883 23.9588 3.98204
11.9249 24.7766 2
13.2086 25.3497 0.0163849
9.23666 21.1302 3.98565
11.1292 22.2228 2
12.8118 23.2661 0.0182
12.2272 20.5376 0.0158605
10.385 19.3098 2
8.4157 18.0227 3.99054
11.6555 17.5553 0.0134935
9.75997 16.1517 2
7.74928 14.6715 4
11.2192 14.369 0.00826967
9.30602 12.7745 2
10.9835 10.9835 0
14.4408 32.8554 3.97889
17.7733 33.1019 2
20.4696 33.3839 0.0189631
15.451 29.6249 2
15.8662 26.385 0.0219379
18.3102 30.1577 0.0241619
12.8489 36.2092 3.97944
14.8524 36.0179 2
17.5893 35.9619 0.0174904
12.562 37.8328 2
11.239 38.3142 3.97922
14.2611 39.1832 0.019881
11.881 40.1486 2
9.73218 40.7603 3.97997
12.3685 42.2868 0.0209924
10.1475 42.7857 2
7.92535 43.2747 3.98037
10.5485 44.8117 0.0202598
8.37657 45.3269 2
6.12527 45.9082 3.9829
8.89847 47.3261 0.0184663
6.71898 48.004 2
4.41999 48.7522 3.98847
7.42755 50.04 0.0155302
5.20831 50.9122 2
2.85457 51.8506 4
6.13184 53.0108 0.010952
3.86727 54.0858 2
5.0241 56.25 0
12.0375 31.2498 3.97917
10.7662 28.408 3.97876
12.8975 29.0235 2
9.40304 25.7913 3.98129
11.3544 26.4783 2
13.443 26.8022 0.0206908
8.22376 23.0173 3.98434
10.1883 23.9586 2
11.9248 24.7767 0.0188726
7.19763 19.9732 3.98967
9.23657 21.1299 2
11.1293 22.2231 0.0166814
10.385 19.3103 0.0136306
8.41563 18.0225 2
6.31992 16.6661 4
9.75995 16.1519 0.00880244
7.74926 14.6714 2
9.30607 12.7746 0
12.0542 34.2918 3.97868
14.4411 32.8554 2
17.7729 33.1019 0.0209041
15.4505 29.6249 0.0226054
10.8039 36.6122 3.97861
12.8496 36.2093 2
14.8517 36.0177 0.0190594
12.5615 37.8327 0.0202786
11.2395 38.3144 2
9.32763 38.8275 3.97974
11.8806 40.1484 0.0198635
9.73251 40.7605 2
7.53671 41.215 3.98046
10.1471 42.7854 0.0207073
7.92559 43.2749 2
5.63726 43.7705 3.98283
8.37631 45.3268 0.019197
6.12538 45.9081 2
3.7657 46.5375 3.9884
6.71899 48.0041 0.0164654
4.41987 48.7516 2
1.99014 49.554 4
5.20845 50.9126 0.0113069
2.85451 51.8506 2
3.86727 54.0858 0
10.9015 32.915 3.97957
10.0792 30.3769 3.9793
12.0378 31.2495 2
8.71114 27.727 3.98039
10.7664 28.4077 2
12.8971 29.0238 0.0231565
7.34924 24.9782 3.98355
9.40322 25.7911 2
11.354 26.4784 0.0196903
6.11445 21.9984 3.98866
8.22366 23.017 2
10.1883 23.9588 0.0179633
5.02411 18.75 4
7.19751 19.9733 2
9.23666 21.1302 0.0143546
8.4157 18.0227 0.0094624
6.3199 16.6661 2
7.74928 14.6715 0
10.4162 34.999 3.97932
12.0546 34.2918 2
14.4408 32.8554 0.0211131
9.00158 36.9866 3.97848
10.8045 36.6122 2
12.8489 36.2092 0.0205605
11.239 38.3142 0.020783
9.328 38.8277 2
7.21782 39.1846 3.98042
9.73218 40.7603 0.0200321
7.53696 41.2152 2
5.25281 41.6157 3.98267
7.92535 43.2747 0.0196262
5.63737 43.7704 2
3.24352 44.2824 3.98839
6.12527 45.9082 0.0171029
3.76567 46.5367 2
1.27781 47.2057 4
4.41999 48.7522 0.0115278
1.99012 49.554 2
2.85457 51.8506 0
10.0698 33.8792 3.97946
9.37286 32.1509 3.9798
10.9018 32.9149 2
8.06058 29.6921 3.98025
10.0794 30.3767 2
12.0375 31.2498 0.020832
6.59301 27.0057 3.98287
8.71127 27.7267 2
10.7662 28.408 0.0212446
5.16956 24.093 3.98815
7.34928 24.978 2
9.40304 25.7913 0.0187099
3.86728 20.9142 4
6.11427 21.9987 2
8.22376 23.0173 0.0156627
5.02406 18.75 2
7.19763 19.9732 0.0103281
6.31992 16.6661 0
8.82831 35.2792 3.97925
10.4166 34.999 2
12.0542 34.2918 0.0213182
7.00299 37.2072 3.97944
9.00208 36.9867 2
10.8039 36.6122 0.0213881
9.32763 38.8275 0.0202561
7.21815 39.1848 2
4.98103 39.4686 3.98236
7.53671 41.215 0.0195392
5.25295 41.6156 2
2.85417 42.0027 3.98816
5.63726 43.7705 0.0171655
3.2435 44.2816 2
0.720592 44.8159 4
3.7657 46.5375 0.0116046
1.27778 47.2057 2
1.99014 49.554 0
8.87 33.6958 3.97972
10.0702 33.8791 2
7.49842 31.607 3.98046
9.37312 32.1508 2
10.9015 32.915 0.0204328
5.93838 29.0679 3.98251
8.06073 29.6919 2
10.0792 30.3769 0.0207048
4.35713 26.247 3.98806
6.59305 27.0056 2
8.71114 27.727 0.019606
2.85458 23.1494 4
5.16941 24.0937 2
7.34924 24.9782 0.0164482
3.86728 20.9142 2
6.11445 21.9984 0.0113404
5.02411 18.75 0
6.95352 35.3062 3.97963
8.82871 35.2792 2
10.4162 34.999 0.0206797
4.83186 37.3405 3.98187
7.00344 37.2073 2
9.00158 36.9866 0.0215214
7.21782 39.1846 0.0195819
4.98127 39.4686 2
2.60244 39.7144 3.98777
5.25281 41.6157 0.0173327
2.8542 42.002 2
0.320823 42.3947 4
3.24352 44.2824 0.0116093
0.720551 44.8159 2
1.27781 47.2057 0
7.11294 33.4599 3.98023
8.87032 33.6957 2
10.0698 33.8792 0.0205421
5.40947 31.1328 3.98254
7.49861 31.6068 2
9.37286 32.1509 0.0201972
3.67894 28.4437 3.98818
5.93846 29.068 2
8.06058 29.6921 0.0197549
1.99015 25.446 4
4.357 26.2479 2
6.59301 27.0057 0.0171314
2.85453 23.1494 2
5.16956 24.093 0.0118538
3.86728 20.9142 0
4.84635 35.2519 3.9819
6.95391 35.3062 2
8.82831 35.2792 0.0207547
2.49404 37.4289 3.98775
4.83223 37.3407 2
7.00299 37.2072 0.0205603
4.98103 39.4686 0.0176414
2.60254 39.7138 2
0.080333 39.9526 4
2.85417 42.0027 0.0118359
0.320817 42.3947 2
0.720592 44.8159 0
5.03936 33.1901 3.98238
7.11322 33.4598 2
8.87 33.6958 0.0202845
3.14342 30.6665 3.98825
5.40959 31.133 2
7.49842 31.607 0.0195382
1.27793 27.7943 4
3.67888 28.4447 2
5.93838 29.0679 0.0174877
1.99013 25.446 2
4.35713 26.247 0.0119428
2.85458 23.1494 0
2.54624 35.1594 3.98778
4.84667 35.2521 2
6.95352 35.3062 0.0203697
0 37.5 4
2.49422 37.4287 2
4.83186 37.3405 0.0181314
2.60244 39.7144 0.0122301
0.0802903 39.9526 2
0.320823 42.3947 0
2.76369 32.9061 3.98802
5.03958 33.1904 2
7.11294 33.4599 0.019771
0.721173 30.1842 4
3.14342 30.6674 2
5.40947 31.1328 0.0174613
1.27779 27.7943 2
3.67894 28.4437 0.0118246
1.99015 25.446 0
0.0806499 35.0474 4
2.54639 35.1597 2
4.84635 35.2519 0.0181007
0 37.5 2
2.49404 37.4289 0.0122524
0.080333 39.9526 0
0.32156 32.6054 4
2.76377 32.9068 2
5.03936 33.1901 0.0176235
0.72056 30.1841 2
3.14342 30.6665 0.0117548
1.27793 27.7943 0
0.0802889 35.0474 2
2.54624 35.1594 0.0122176
0 37.5 0
0.320817 32.6053 2
2.76369 32.9061 0.0119773
0.721173 30.1842 0
0.0806499 35.0474 0
0.32156 32.6054 0
CELLS 1910 17190
8 18 6 25 56 2 0 5 16
8 57 23 6 18 17 4 0 2
8 78 36 9 29 31 11 1 7
8 31 11 1 7 79 37 10 30
8 110 57 18 50 48 17 2 14
8 50 18 56 111 14 2 16 49
8 116 62 22 55 52 20 3 15
8 56 25 67 118 16 5 24 53
8 119 63 23 57 54 21 4 17
8 55 22 63 119 15 3 21 54
8 58 26 68 121 18 6 25 56
8 122 65 26 58 57 23 6 18
8 73 31 7 27 142 79 30 71
8 143 78 29 72 73 31 7 27
8 83 147 76 34 32 74 28 8
8 84 148 78 36 33 75 29 9
8 76 34 8 28 148 84 33 75
8 37 79 150 86 10 30 77 35
8 151 87 36 78 80 38 11 31
8 80 38 11 31 152 88 37 79
8 175 100 42 94 96 44 12 40
8 44 96 176 101 12 40 95 43
8 101 176 98 46 43 95 41 13
8 46 98 178 103 13 41 97 45
8 178 103 45 97 147 83 32 74
8 189 116 55 109 106 52 15 47
8 111 56 118 191 49 16 53 107
8 192 119 57 110 108 54 17 48
8 109 55 119 192 47 15 54 108
8 194 122 58 112 110 57 18 50
8 112 58 121 195 50 18 56 111
8 115 61 19 51 197 124 59 113
8 115 61 125 198 51 19 60 114
8 198 125 62 116 114 60 20 52
8 200 127 64 120 116 62 22 55
8 118 67 132 202 53 24 66 117
8 121 68 133 203 56 25 67 118
8 120 64 128 204 55 22 63 119
8 204 128 65 122 119 63 23 57
8 206 134 68 121 123 69 26 58
8 123 69 26 58 207 131 65 122
8 226 147 74 138 140 76 28 70
8 229 148 75 139 143 78 29 72
8 140 76 28 70 229 148 75 139
8 142 79 30 71 231 150 77 141
8 144 80 31 73 232 152 79 142
8 233 151 78 143 144 80 31 73
8 150 86 35 77 235 154 81 145
8 235 154 81 145 146 82 39 91
8 146 82 39 91 236 155 90 165
8 238 157 83 147 149 85 34 76
8 239 158 84 148 151 87 36 78
8 149 85 34 76 239 158 84 148
8 152 88 37 79 241 160 86 150
8 242 161 87 151 153 89 38 80
8 153 89 38 80 243 162 88 152
8 171 98 41 92 265 178 97 169
8 265 178 97 169 226 147 74 138
8 172 96 40 93 266 176 95 170
8 266 176 95 170 171 98 41 92
8 269 175 94 173 172 96 40 93
8 271 180 99 174 175 100 42 94
8 197 124 59 113 271 180 99 174
8 272 181 100 175 177 102 44 96
8 273 182 101 176 179 104 46 98
8 177 102 44 96 273 182 101 176
8 179 104 46 98 275 184 103 178
8 275 184 103 178 238 157 83 147
8 188 115 51 105 283 197 113 186
8 188 115 198 284 105 51 114 187
8 284 198 116 189 187 114 52 106
8 286 200 120 193 189 116 55 109
8 191 118 202 288 107 53 117 190
8 195 121 203 289 111 56 118 191
8 193 120 204 290 109 55 119 192
8 290 204 122 194 192 119 57 110
8 196 123 58 112 292 207 122 194
8 293 206 121 195 196 123 58 112
8 199 126 61 115 297 211 124 197
8 298 212 127 200 198 125 62 116
8 199 126 212 298 115 61 125 198
8 205 129 64 120 300 214 127 200
8 301 217 130 201 202 132 66 117
8 209 136 168 264 301 217 130 201
8 302 219 132 202 203 133 67 118
8 303 220 133 203 206 134 68 121
8 205 129 215 304 120 64 128 204
8 304 215 131 207 204 128 65 122
8 306 221 134 206 208 135 69 123
8 208 135 69 123 307 218 131 207
8 210 137 167 263 309 223 136 209
8 328 238 147 226 230 149 76 140
8 228 146 91 166 329 236 165 260
8 231 150 77 141 330 235 145 227
8 330 235 145 227 228 146 91 166
8 332 239 148 229 233 151 78 143
8 230 149 76 140 332 239 148 229
8 232 152 79 142 334 241 150 231
8 234 153 80 144 335 243 152 232
8 336 242 151 233 234 153 80 144
8 236 155 90 165 338 245 164 259
8 241 160 86 150 339 246 154 235
8 339 246 154 235 237 156 82 146
8 237 156 82 146 340 247 155 236
8 342 249 157 238 240 159 85 149
8 343 250 158 239 242 161 87 151
8 240 159 85 149 343 250 158 239
8 243 162 88 152 345 252 160 241
8 244 163 253 346 153 89 161 242
8 244 163 89 153 347 254 162 243
8 311 224 261 371 210 137 167 263
8 263 167 262 372 209 136 168 264
8 267 179 98 171 375 275 178 265
8 375 275 178 265 328 238 147 226
8 376 273 176 266 267 179 98 171
8 268 177 96 172 376 273 176 266
8 379 272 175 269 268 177 96 172
8 380 271 174 270 269 175 94 173
8 283 197 113 186 380 271 174 270
8 381 277 180 271 272 181 100 175
8 297 211 124 197 381 277 180 271
8 382 278 181 272 274 183 102 177
8 274 183 102 177 383 279 182 273
8 383 279 182 273 276 185 104 179
8 385 281 184 275 342 249 157 238
8 276 185 104 179 385 281 184 275
8 285 199 115 188 393 297 197 283
8 394 298 200 286 284 198 116 189
8 285 199 298 394 188 115 198 284
8 291 205 120 193 396 300 200 286
8 397 301 201 287 288 202 117 190
8 295 209 264 374 397 301 201 287
8 398 302 202 288 289 203 118 191
8 399 303 203 289 293 206 121 195
8 291 205 304 400 193 120 204 290
8 400 304 207 292 290 204 122 194
8 294 208 123 196 402 307 207 292
8 403 306 206 293 294 208 123 196
8 296 210 263 373 405 309 209 295
8 408 312 213 299 297 211 126 199
8 299 213 313 409 199 126 212 298
8 409 313 214 300 298 212 127 200
8 305 216 129 205 411 315 214 300
8 412 318 217 301 302 219 132 202
8 309 223 136 209 412 318 217 301
8 413 320 219 302 303 220 133 203
8 306 221 321 414 206 134 220 303
8 307 218 131 207 415 316 215 304
8 305 216 316 415 205 129 215 304
8 417 322 221 306 308 222 135 208
8 308 222 135 208 418 319 218 307
8 310 225 137 210 420 325 223 309
8 423 326 224 311 310 225 137 210
8 329 236 165 260 441 338 259 368
8 442 342 238 328 333 240 149 230
8 331 237 146 228 443 340 236 329
8 334 241 150 231 444 339 235 330
8 444 339 235 330 331 237 146 228
8 446 343 239 332 336 242 151 233
8 333 240 149 230 446 343 239 332
8 335 243 152 232 448 345 241 334
8 337 244 153 234 449 347 243 335
8 337 244 346 450 234 153 242 336
8 338 245 164 259 452 349 258 367
8 340 247 155 236 453 350 245 338
8 345 252 160 241 454 351 246 339
8 454 351 246 339 341 248 156 237
8 341 248 156 237 455 352 247 340
8 240 159 251 344 342 249 354 457
8 242 161 253 346 343 250 355 458
8 343 250 355 458 240 159 251 344
8 347 254 162 243 460 357 252 345
8 348 255 358 461 244 163 253 346
8 348 255 163 244 462 359 254 347
8 473 360 257 365 363 256 364 482
8 452 349 258 367 365 257 366 485
8 422 324 369 488 311 224 261 371
8 371 261 370 490 263 167 262 372
8 407 311 371 491 296 210 263 373
8 373 263 372 492 295 209 264 374
8 493 385 275 375 442 342 238 328
8 377 276 179 267 493 385 275 375
8 378 274 177 268 494 383 273 376
8 494 383 273 376 377 276 179 267
8 497 382 272 379 378 274 177 268
8 498 381 271 380 379 272 175 269
8 393 297 197 283 498 381 271 380
8 499 387 277 381 382 278 181 272
8 408 312 211 297 499 387 277 381
8 500 388 278 382 384 280 183 274
8 501 389 279 383 386 282 185 276
8 384 280 183 274 501 389 279 383
8 386 282 185 276 503 391 281 385
8 503 391 281 385 457 354 249 342
8 511 408 299 395 393 297 199 285
8 395 299 409 512 285 199 298 394
8 512 409 300 396 394 298 200 286
8 401 305 205 291 514 411 300 396
8 515 412 301 397 398 302 202 288
8 405 309 209 295 515 412 301 397
8 516 413 302 398 399 303 203 289
8 403 306 414 517 293 206 303 399
8 402 307 207 292 518 415 304 400
8 401 305 415 518 291 205 304 400
8 404 308 208 294 520 418 307 402
8 521 417 306 403 404 308 208 294
8 406 310 210 296 523 420 309 405
8 526 423 311 407 406 310 210 296
8 410 314 213 299 527 424 312 408
8 528 425 315 411 409 313 214 300
8 410 314 425 528 299 213 313 409
8 416 317 216 305 530 427 315 411
8 531 430 318 412 413 320 219 302
8 420 325 223 309 531 430 318 412
8 532 432 320 413 414 321 220 303
8 417 322 433 533 306 221 321 414
8 418 319 218 307 534 428 316 415
8 416 317 428 534 305 216 316 415
8 419 323 434 536 308 222 322 417
8 419 323 222 308 537 431 319 418
8 421 327 225 310 539 438 325 420
8 421 327 439 541 310 225 326 423
8 543 437 324 422 423 326 224 311
8 441 338 259 368 559 452 367 486
8 443 340 236 329 560 453 338 441
8 333 240 344 447 442 342 457 561
8 445 341 237 331 562 455 340 443
8 448 345 241 334 563 454 339 444
8 563 454 339 444 445 341 237 331
8 336 242 346 450 446 343 458 565
8 446 343 458 565 333 240 344 447
8 449 347 243 335 567 460 345 448
8 451 348 244 337 568 462 347 449
8 451 348 461 569 337 244 346 450
8 570 463 349 452 473 360 257 365
8 453 350 245 338 570 463 349 452
8 455 352 247 340 571 464 350 453
8 460 357 252 345 572 465 351 454
8 572 465 351 454 456 353 248 341
8 456 353 248 341 573 466 352 455
8 344 251 356 459 457 354 468 575
8 458 355 469 576 344 251 356 459
8 346 253 358 461 458 355 469 576
8 462 359 254 347 578 471 357 460
8 348 255 359 462 461 358 472 579
8 591 474 360 473 475 361 256 363
8 475 361 256 363 594 477 362 479
8 363 256 364 482 479 362 480 603
8 590 473 365 484 481 363 482 605
8 482 364 257 365 606 483 366 485
8 559 452 367 486 484 365 485 607
8 542 436 487 609 422 324 369 488
8 525 422 488 611 407 311 371 491
8 488 369 489 612 371 261 370 490
8 491 371 490 613 373 263 372 492
8 495 386 276 377 614 503 385 493
8 614 503 385 493 561 457 342 442
8 615 501 383 494 495 386 276 377
8 496 384 274 378 615 501 383 494
8 618 500 382 497 496 384 274 378
8 619 499 381 498 497 382 272 379
8 511 408 297 393 619 499 381 498
8 620 505 387 499 500 388 278 382
8 527 424 312 408 620 505 387 499
8 502 390 506 621 384 280 388 500
8 622 507 389 501 504 392 282 386
8 502 390 280 384 622 507 389 501
8 504 392 282 386 624 509 391 503
8 624 509 391 503 575 468 354 457
8 513 410 299 395 630 527 408 511
8 631 528 411 514 512 409 300 396
8 513 410 528 631 395 299 409 512
8 519 416 305 401 633 530 411 514
8 634 531 412 515 516 413 302 398
8 523 420 309 405 634 531 412 515
8 635 532 413 516 517 414 303 399
8 521 417 533 636 403 306 414 517
8 520 418 307 402 637 534 415 518
8 519 416 534 637 401 305 415 518
8 522 419 308 404 639 537 418 520
8 522 419 536 640 404 308 417 521
8 524 421 310 406 642 539 420 523
8 524 421 541 644 406 310 423 526
8 646 543 422 525 526 423 311 407
8 529 426 314 410 647 544 424 527
8 528 425 545 648 411 315 427 530
8 529 426 545 648 410 314 425 528
8 535 429 317 416 649 546 427 530
8 650 548 430 531 532 432 320 413
8 539 438 325 420 650 548 430 531
8 533 433 550 651 414 321 432 532
8 536 434 551 652 417 322 433 533
8 537 431 319 418 653 547 428 534
8 535 429 547 653 416 317 428 534
8 538 435 552 654 419 323 434 536
8 538 435 323 419 655 549 431 537
8 540 440 327 421 657 556 438 539
8 540 440 557 659 421 327 439 541
8 541 439 555 660 423 326 437 543
8 661 554 436 542 543 437 324 422
8 676 570 452 559 590 473 365 484
8 560 453 338 441 676 570 452 559
8 562 455 340 443 677 571 453 560
8 447 344 459 566 561 457 575 678
8 564 456 341 445 679 573 455 562
8 567 460 345 448 680 572 454 563
8 680 572 454 563 564 456 341 445
8 565 458 576 682 447 344 459 566
8 450 346 461 569 565 458 576 682
8 568 462 347 449 684 578 460 567
8 451 348 462 568 569 461 579 685
8 686 580 463 570 591 474 360 473
8 571 464 350 453 686 580 463 570
8 573 466 352 455 687 581 464 571
8 572 465 582 688 460 357 471 578
8 574 467 582 688 456 353 465 572
8 574 467 353 456 689 583 466 573
8 459 356 470 577 575 468 585 691
8 576 469 586 692 459 356 470 577
8 461 358 472 579 576 469 586 692
8 462 359 471 578 579 472 588 694
8 704 591 473 590 593 475 363 481
8 595 476 592 705 475 361 474 591
8 593 475 363 481 707 594 479 602
8 594 477 362 479 709 598 478 600
8 595 476 361 475 711 597 477 594
8 479 362 480 603 600 478 601 720
8 481 363 482 605 602 479 603 722
8 603 480 364 482 723 604 483 606
8 605 482 365 484 724 606 485 607
8 656 553 608 726 542 436 487 609
8 645 542 609 728 525 422 488 611
8 609 487 610 729 488 369 489 612
8 611 488 612 730 491 371 490 613
8 616 504 386 495 731 624 503 614
8 731 624 503 614 678 575 457 561
8 732 622 501 615 616 504 386 495
8 617 502 384 496 732 622 501 615
8 617 502 621 735 496 384 500 618
8 736 620 499 619 618 500 382 497
8 630 527 408 511 736 620 499 619
8 621 506 626 737 500 388 505 620
8 647 544 424 527 737 626 505 620
8 623 508 627 738 502 390 506 621
8 623 508 390 502 739 628 507 622
8 625 510 628 739 504 392 507 622
8 740 629 509 624 691 585 468 575
8 625 510 392 504 740 629 509 624
8 632 529 410 513 744 647 527 630
8 631 528 648 745 514 411 530 633
8 632 529 648 745 513 410 528 631
8 638 535 416 519 746 649 530 633
8 747 650 531 634 635 532 413 516
8 642 539 420 523 747 650 531 634
8 636 533 651 748 517 414 532 635
8 640 536 652 749 521 417 533 636
8 639 537 418 520 750 653 534 637
8 638 535 653 750 519 416 534 637
8 641 538 419 522 751 655 537 639
8 641 538 654 752 522 419 536 640
8 643 540 421 524 753 657 539 642
8 643 540 659 755 524 421 541 644
8 644 541 660 757 526 423 543 646
8 758 661 542 645 646 543 422 525
8 529 426 544 647 648 545 662 759
8 530 427 545 648 649 546 663 760
8 535 429 546 649 653 547 664 761
8 762 666 548 650 651 550 432 532
8 657 556 438 539 762 666 548 650
8 652 551 668 763 533 433 550 651
8 654 552 669 764 536 434 551 652
8 655 549 431 537 765 665 547 653
8 538 435 549 655 654 552 667 766
8 661 554 671 768 542 436 553 656
8 658 558 440 540 769 674 556 657
8 658 558 675 770 540 440 557 659
8 659 557 673 771 541 439 555 660
8 660 555 672 772 543 437 554 661
8 788 686 570 676 704 591 473 590
8 677 571 453 560 788 686 570 676
8 679 573 455 562 789 687 571 677
8 566 459 577 683 678 575 691 790
8 681 574 456 564 791 689 573 679
8 680 572 688 792 567 460 578 684
8 681 574 688 792 564 456 572 680
8 682 576 692 794 566 459 577 683
8 569 461 579 685 682 576 692 794
8 568 462 578 684 685 579 694 796
8 687 581 464 571 798 696 580 686
8 798 696 580 686 705 592 474 591
8 689 583 466 573 799 697 581 687
8 688 582 698 800 578 471 588 694
8 690 584 698 800 574 467 582 688
8 690 584 467 574 801 699 583 689
8 693 587 701 803 577 470 585 691
8 693 587 470 577 804 702 586 692
8 695 589 702 804 579 472 586 692
8 695 589 472 579 805 703 588 694
8 708 595 705 813 593 475 591 704
8 710 596 706 814 595 476 592 705
8 707 594 479 602 816 709 600 719
8 708 595 475 593 817 711 594 707
8 709 598 478 600 819 715 599 717
8 711 597 477 594 820 714 598 709
8 710 596 476 595 822 713 597 711
8 600 478 601 720 717 599 718 832
8 602 479 603 722 719 600 720 834
8 720 601 480 603 835 721 604 723
8 722 603 482 605 836 723 606 724
8 767 670 725 839 656 553 608 726
8 756 656 726 841 645 542 609 728
8 726 608 727 842 609 487 610 729
8 728 609 729 843 611 488 612 730
8 844 740 624 731 790 691 575 678
8 733 625 504 616 844 740 624 731
8 734 623 502 617 845 739 622 732
8 733 625 739 845 616 504 622 732
8 734 623 738 846 617 502 621 735
8 735 621 737 847 618 500 620 736
8 744 647 527 630 847 737 620 736
8 621 506 627 738 737 626 741 848
8 647 544 626 737 759 662 741 848
8 623 508 628 739 738 627 742 849
8 740 629 585 691 850 743 700 802
8 625 510 629 740 739 628 743 850
8 632 529 647 744 745 648 759 854
8 633 530 648 745 746 649 760 855
8 638 535 649 746 750 653 761 856
8 857 762 650 747 748 651 532 635
8 753 657 539 642 857 762 650 747
8 749 652 763 858 636 533 651 748
8 752 654 764 859 640 536 652 749
8 751 655 537 639 860 765 653 750
8 641 538 655 751 752 654 766 861
8 754 658 540 643 862 769 657 753
8 754 658 770 863 643 540 659 755
8 755 659 771 864 644 541 660 757
8 758 661 768 866 645 542 656 756
8 757 660 772 867 646 543 661 758
8 759 662 773 868 648 545 663 760
8 649 546 663 760 761 664 774 871
8 765 665 547 653 872 775 664 761
8 873 777 666 762 763 668 550 651
8 769 674 556 657 873 777 666 762
8 764 669 779 874 652 551 668 763
8 654 552 667 766 764 669 778 875
8 655 549 665 765 766 667 776 876
8 768 671 782 877 656 553 670 767
8 772 672 783 878 661 554 671 768
8 658 558 674 769 770 675 786 879
8 659 557 675 770 771 673 785 881
8 882 784 672 772 771 673 555 660
8 789 687 571 677 897 798 686 788
8 897 798 686 788 813 705 591 704
8 791 689 573 679 898 799 687 789
8 795 693 803 900 683 577 691 790
8 793 690 574 681 901 801 689 791
8 792 688 800 902 684 578 694 796
8 793 690 800 902 681 574 688 792
8 795 693 577 683 903 804 692 794
8 797 695 804 903 685 579 692 794
8 797 695 579 685 904 805 694 796
8 905 806 697 799 798 696 581 687
8 814 706 806 905 705 592 696 798
8 689 583 697 799 801 699 808 907
8 800 698 809 908 694 588 703 805
8 690 584 699 801 800 698 809 908
8 803 701 810 909 691 585 700 802
8 693 587 702 804 803 701 811 910
8 695 589 703 805 804 702 812 911
8 818 710 814 919 708 595 705 813
8 821 712 815 920 710 596 706 814
8 816 709 600 719 922 819 717 831
8 817 711 594 707 923 820 709 816
8 818 710 595 708 924 822 711 817
8 819 715 599 717 926 827 716 829
8 820 714 598 709 927 826 715 819
8 929 825 713 822 820 714 597 711
8 821 712 596 710 930 824 713 822
8 717 599 718 832 829 716 830 942
8 719 600 720 834 831 717 832 944
8 832 718 601 720 945 833 721 835
8 834 720 603 722 946 835 723 836
8 869 780 838 950 767 670 725 839
8 865 767 839 952 756 656 726 841
8 839 725 840 953 726 608 727 842
8 841 726 842 954 728 609 729 843
8 844 740 691 790 955 850 802 899
8 733 625 740 844 845 739 850 955
8 734 623 739 845 846 738 849 956
8 735 621 738 846 847 737 848 957
8 744 647 737 847 854 759 848 957
8 738 627 742 849 848 741 851 958
8 848 741 851 958 759 662 773 868
8 850 743 700 802 959 852 807 906
8 849 742 628 739 959 852 743 850
8 854 759 868 965 745 648 760 855
8 746 649 760 855 856 761 871 966
8 860 765 653 750 967 872 761 856
8 968 873 762 857 858 763 651 748
8 862 769 657 753 968 873 762 857
8 859 764 874 969 749 652 763 858
8 752 654 766 861 859 764 875 970
8 751 655 765 860 861 766 876 971
8 754 658 769 862 863 770 879 972
8 755 659 770 863 864 771 881 974
8 976 882 772 867 864 771 660 757
8 866 768 877 977 756 656 767 865
8 867 772 878 978 758 661 768 866
8 760 663 773 868 871 774 883 980
8 870 781 837 948 982 890 780 869
8 982 890 780 869 877 782 670 767
8 761 664 774 871 872 775 884 984
8 876 776 665 765 985 885 775 872
8 873 777 668 763 986 887 779 874
8 769 674 777 873 879 786 887 986
8 764 669 778 875 874 779 888 987
8 766 667 776 876 875 778 886 988
8 878 783 892 989 768 671 782 877
8 878 783 672 772 990 893 784 882
8 880 787 675 770 991 896 786 879
8 880 787 895 992 770 675 785 881
8 881 785 894 993 771 673 784 882
8 1006 905 799 898 897 798 687 789
8 919 814 905 1006 813 705 798 897
8 791 689 799 898 901 801 907 1007
8 900 803 909 1009 790 691 802 899
8 795 693 804 903 900 803 910 1010
8 902 800 908 1011 796 694 805 904
8 793 690 801 901 902 800 908 1011
8 797 695 805 904 903 804 911 1012
8 799 697 806 905 907 808 912 1013
8 920 815 912 1013 814 706 806 905
8 802 700 810 909 906 807 913 1014
8 801 699 808 907 908 809 914 1015
8 805 703 809 908 911 812 915 1016
8 803 701 811 910 909 810 916 1017
8 911 812 917 1018 804 702 811 910
8 925 821 920 1030 818 710 814 919
8 928 823 921 1031 821 712 815 920
8 922 819 717 831 1033 926 829 941
8 923 820 709 816 1034 927 819 922
8 1035 929 822 924 923 820 711 817
8 925 821 710 818 1036 930 822 924
8 1038 933 825 929 927 826 714 820
8 926 827 716 829 1039 935 828 939
8 927 826 715 819 1040 934 827 926
8 928 823 712 821 1041 931 824 930
8 1042 932 824 930 929 825 713 822
8 829 716 830 942 939 828 940 1058
8 831 717 832 944 941 829 942 1060
8 942 830 718 832 1061 943 833 945
8 944 832 720 834 1062 945 835 946
8 981 889 947 1064 870 781 837 948
8 948 837 949 1067 869 780 838 950
8 975 869 950 1069 865 767 839 952
8 950 838 951 1070 839 725 840 953
8 952 839 953 1071 841 726 842 954
8 955 850 802 899 1072 959 906 1008
8 956 849 739 845 1072 959 850 955
8 846 738 849 956 957 848 958 1073
8 957 848 958 1073 854 759 868 965
8 849 742 852 959 958 851 961 1076
8 960 853 961 1076 906 807 852 959
8 958 851 961 1076 868 773 883 980
8 960 853 807 906 1077 963 913 1014
8 855 760 868 965 966 871 980 1085
8 856 761 871 966 967 872 984 1086
8 971 876 765 860 1087 985 872 967
8 968 873 763 858 1088 986 874 969
8 862 769 873 968 972 879 986 1088
8 859 764 875 970 969 874 987 1089
8 861 766 876 971 970 875 988 1090
8 973 880 770 863 1091 991 879 972
8 973 880 992 1092 863 770 881 974
8 974 881 993 1093 864 771 882 976
8 979 870 948 1066 1094 982 869 975
8 1094 982 869 975 977 877 767 865
8 978 878 772 867 1095 990 882 976
8 978 878 989 1096 866 768 877 977
8 871 774 883 980 984 884 994 1099
8 983 891 999 1100 870 781 889 981
8 1101 1000 890 982 989 892 782 877
8 983 891 781 870 1101 1000 890 982
8 872 775 884 984 985 885 995 1103
8 876 776 885 985 988 886 996 1104
8 986 887 779 874 1105 998 888 987
8 879 786 887 986 991 896 998 1105
8 875 778 886 988 987 888 997 1106
8 990 893 1002 1107 878 783 892 989
8 1108 1003 893 990 993 894 784 882
8 880 787 896 991 992 895 1005 1109
8 993 894 785 881 1110 1004 895 992
8 898 799 905 1006 1007 907 1013 1120
8 1030 920 1013 1120 919 814 905 1006
8 901 801 907 1007 1011 908 1015 1121
8 899 802 909 1009 1008 906 1014 1122
8 900 803 910 1010 1009 909 1017 1123
8 1012 911 1018 1124 903 804 910 1010
8 904 805 908 1011 1012 911 1016 1125
8 1013 912 1020 1127 907 808 914 1015
8 1031 921 1020 1127 920 815 912 1013
8 1019 918 962 1075 1128 1021 913 1014
8 1128 1021 913 1014 1017 916 810 909
8 1015 914 1022 1129 908 809 915 1016
8 1016 915 1023 1130 911 812 917 1018
8 1018 917 1024 1131 910 811 916 1017
8 1037 928 1031 1148 925 821 920 1030
8 928 823 931 1041 1031 921 1032 1149
8 1033 926 829 941 1151 1039 939 1057
8 1034 927 819 922 1152 1040 926 1033
8 1153 1038 929 1035 1034 927 820 923
8 1154 1042 930 1036 1035 929 822 924
8 1037 928 821 925 1155 1041 930 1036
8 1039 935 828 939 1156 1047 938 1055
8 1157 1043 932 1042 1038 933 825 929
8 1038 933 826 927 1158 1045 934 1040
8 1040 934 827 926 1159 1046 935 1039
8 930 824 932 1042 1041 931 1044 1160
8 1051 936 1048 1165 1175 1052 937 1053
8 1156 1047 938 1055 1053 937 1054 1178
8 939 828 940 1058 1055 938 1056 1181
8 941 829 942 1060 1057 939 1058 1183
8 942 830 943 1061 1058 940 1059 1184
8 1060 942 832 944 1185 1061 945 1062
8 1082 964 1063 1188 981 889 947 1064
8 1097 981 1064 1190 979 870 948 1066
8 1064 947 1065 1191 948 837 949 1067
8 1066 948 1067 1193 975 869 950 1069
8 1067 949 1068 1194 950 838 951 1070
8 1069 950 1070 1195 952 839 953 1071
8 956 849 959 1072 1073 958 1076 1197
8 1074 960 1076 1197 1008 906 959 1072
8 1073 958 1076 1197 965 868 980 1085
8 1074 960 906 1008 1198 1077 1014 1122
8 1133 1026 1079 1199 1019 918 962 1075
8 1077 963 913 1014 1200 1080 962 1075
8 960 853 963 1077 1076 961 1078 1201
8 980 883 961 1076 1099 994 1078 1201
8 1210 1083 964 1082 1100 999 889 981
8 966 871 980 1085 1086 984 1099 1215
8 967 872 984 1086 1087 985 1103 1216
8 971 876 985 1087 1090 988 1104 1217
8 1088 986 874 969 1218 1105 987 1089
8 972 879 986 1088 1091 991 1105 1218
8 970 875 988 1090 1089 987 1106 1219
8 973 880 991 1091 1092 992 1109 1220
8 1093 993 881 974 1221 1110 992 1092
8 1222 1108 990 1095 1093 993 882 976
8 1223 1101 982 1094 1096 989 877 977
8 1098 983 870 979 1223 1101 982 1094
8 1095 990 1107 1224 978 878 989 1096
8 1098 983 1100 1225 979 870 981 1097
8 984 884 994 1099 1103 995 1111 1227
8 1102 1001 1115 1228 983 891 999 1100
8 1101 1000 892 989 1229 1116 1002 1107
8 1102 1001 891 983 1229 1116 1000 1101
8 985 885 995 1103 1104 996 1112 1230
8 988 886 996 1104 1106 997 1113 1231
8 1105 998 888 987 1232 1114 997 1106
8 991 896 998 1105 1109 1005 1114 1232
8 1108 1003 1117 1233 990 893 1002 1107
8 1108 1003 894 993 1233 1117 1004 1110
8 992 895 1005 1109 1110 1004 1118 1234
8 1120 1013 1127 1244 1007 907 1015 1121
8 1148 1031 1127 1244 1030 920 1013 1120
8 1121 1015 1129 1245 1011 908 1016 1125
8 1126 1019 1075 1196 1246 1128 1014 1122
8 1246 1128 1014 1122 1123 1017 909 1009
8 1124 1018 1131 1247 1010 910 1017 1123
8 1125 1016 1130 1248 1012 911 1018 1124
8 1127 1020 1137 1254 1015 914 1022 1129
8 1031 921 1032 1149 1127 1020 1137 1254
8 1134 1027 918 1019 1257 1140 1021 1128
8 1257 1140 1021 1128 1131 1024 916 1017
8 1129 1022 1141 1258 1016 915 1023 1130
8 1130 1023 1142 1259 1018 917 1024 1131
8 1261 1144 1025 1132 1133 1026 1079 1199
8 1255 1138 1025 1132 1135 1028 1144 1261
8 1133 1026 918 1019 1262 1145 1027 1134
8 1136 1029 1139 1256 1263 1146 1028 1135
8 1037 928 1041 1155 1148 1031 1149 1275
8 1041 931 1044 1160 1149 1032 1150 1276
8 1151 1039 939 1057 1278 1156 1055 1180
8 1152 1040 926 1033 1279 1159 1039 1151
8 1153 1038 927 1034 1280 1158 1040 1152
8 1281 1157 1042 1154 1153 1038 929 1035
8 1036 930 1042 1154 1155 1041 1160 1282
8 1283 1164 1046 1159 1156 1047 935 1039
8 1165 1048 1164 1283 1053 937 1047 1156
8 1157 1043 933 1038 1284 1161 1045 1158
8 1157 1043 1161 1284 1042 932 1044 1160
8 1040 934 1046 1159 1158 1045 1163 1285
8 1166 1049 1167 1292 1051 936 1048 1165
8 1166 1049 936 1051 1293 1168 1050 1172
8 1051 936 1052 1175 1172 1050 1173 1306
8 1174 1051 1165 1290 1308 1175 1053 1177
8 1053 937 1054 1178 1175 1052 1176 1309
8 1278 1156 1055 1180 1177 1053 1178 1311
8 1055 938 1056 1181 1178 1054 1179 1312
8 1057 939 1058 1183 1180 1055 1181 1314
8 1058 940 1059 1184 1181 1056 1182 1315
8 1060 942 1061 1185 1183 1058 1184 1316
8 1208 1081 1187 1321 1082 964 1063 1188
8 1209 1082 1188 1322 1097 981 1064 1190
8 1188 1063 1189 1323 1064 947 1065 1191
8 1190 1064 1191 1325 1066 948 1067 1193
8 1191 1065 1192 1326 1067 949 1068 1194
8 1067 1193 1069 950 1194 1327 1195 1070
8 1250 1133 1199 1330 1126 1019 1075 1196
8 1198 1077 1014 1122 1331 1200 1075 1196
8 1074 960 1077 1198 1197 1076 1201 1332
8 1085 980 1076 1197 1215 1099 1201 1332
8 1199 1079 1203 1333 1075 962 1080 1200
8 1132 1025 1119 1243 1199 1079 1203 1333
8 1201 1078 963 1077 1334 1202 1080 1200
8 1099 994 1078 1201 1227 1111 1202 1334
8 1343 1207 1081 1208 1210 1083 964 1082
8 1214 1084 1186 1319 1343 1207 1081 1208
8 1345 1210 1082 1209 1225 1100 981 1097
8 1346 1211 1083 1210 1228 1115 999 1100
8 1086 984 1099 1215 1216 1103 1227 1352
8 1087 985 1103 1216 1217 1104 1230 1353
8 1090 988 1104 1217 1219 1106 1231 1354
8 1218 1105 987 1089 1355 1232 1106 1219
8 1091 991 1105 1218 1220 1109 1232 1355
8 1092 992 1109 1220 1221 1110 1234 1356
8 1222 1108 1233 1357 1095 990 1107 1224
8 1222 1108 993 1093 1357 1233 1110 1221
8 1223 1101 989 1096 1358 1229 1107 1224
8 1226 1102 983 1098 1358 1229 1101 1223
8 1226 1102 1228 1359 1098 983 1100 1225
8 1103 995 1111 1227 1230 1112 1235 1360
8 1107 1002 1117 1233 1229 1116 1240 1362
8 1102 1001 1116 1229 1228 1115 1240 1362
8 1104 996 1112 1230 1231 1113 1236 1363
8 1364 1237 1114 1232 1231 1113 997 1106
8 1109 1005 1114 1232 1234 1118 1238 1365
8 1110 1004 1118 1234 1233 1117 1241 1366
8 1242 1374 1255 1138 1119 1243 1132 1025
8 1244 1127 1254 1376 1121 1015 1129 1245
8 1148 1031 1149 1275 1244 1127 1254 1376
8 1245 1129 1258 1377 1125 1016 1130 1248
8 1251 1134 1019 1126 1378 1257 1128 1246
8 1378 1257 1128 1246 1247 1131 1017 1123
8 1248 1130 1259 1379 1124 1018 1131 1247
8 1261 1381 1250 1133 1132 1249 1330 1199
8 1255 1380 1252 1135 1132 1249 1381 1261
8 1250 1133 1019 1126 1382 1262 1134 1251
8 1253 1136 1256 1385 1384 1263 1135 1252
8 1254 1137 1265 1387 1129 1022 1141 1258
8 1149 1032 1150 1276 1254 1137 1265 1387
8 1028 1135 1255 1138 1139 1256 1388 1266
8 1136 1029 1147 1264 1256 1139 1267 1389
8 1390 1268 1140 1257 1259 1142 1024 1131
8 1260 1143 1027 1134 1390 1268 1140 1257
8 1258 1141 1269 1391 1130 1023 1142 1259
8 1262 1145 1027 1134 1393 1271 1143 1260
8 1261 1144 1026 1133 1394 1272 1145 1262
8 1135 1028 1144 1261 1263 1146 1272 1394
8 1136 1029 1146 1263 1264 1147 1273 1395
8 1155 1041 1160 1282 1275 1149 1276 1405
8 1276 1150 1044 1160 1406 1277 1162 1286
8 1408 1283 1159 1279 1278 1156 1039 1151
8 1290 1165 1283 1408 1177 1053 1156 1278
8 1152 1040 1159 1279 1280 1158 1285 1409
8 1281 1157 1038 1153 1410 1284 1158 1280
8 1281 1157 1284 1410 1154 1042 1160 1282
8 1159 1046 1164 1283 1285 1163 1289 1412
8 1292 1167 1289 1412 1165 1048 1164 1283
8 1158 1045 1163 1285 1284 1161 1288 1413
8 1284 1161 1288 1413 1160 1044 1162 1286
8 1291 1166 1292 1418 1174 1051 1165 1290
8 1291 1166 1051 1174 1419 1293 1172 1305
8 1294 1169 1296 1421 1166 1049 1167 1292
8 1293 1168 1050 1172 1422 1295 1171 1303
8 1294 1169 1049 1166 1423 1297 1168 1293
8 1422 1295 1171 1303 1301 1170 1302 1435
8 1172 1050 1173 1306 1303 1171 1304 1438
8 1174 1051 1175 1308 1305 1172 1306 1440
8 1175 1052 1176 1309 1306 1173 1307 1441
8 1177 1053 1178 1311 1308 1175 1309 1443
8 1178 1054 1179 1312 1309 1176 1310 1444
8 1180 1055 1181 1314 1311 1178 1312 1446
8 1056 1181 1312 1179 1182 1315 1447 1313
8 1183 1058 1184 1316 1314 1181 1315 1448
8 1319 1186 1084 1214 1451 1317 1213 1350
8 1319 1186 1318 1453 1208 1081 1187 1321
8 1321 1187 1320 1456 1188 1063 1189 1323
8 1344 1208 1321 1457 1209 1082 1188 1322
8 1322 1188 1323 1458 1190 1064 1191 1325
8 1323 1189 1324 1459 1191 1065 1192 1326
8 1191 1325 1193 1067 1326 1460 1327 1194
8 1242 1374 1243 1119 1328 1462 1335 1204
8 1330 1199 1333 1465 1196 1075 1200 1331
8 1132 1249 1330 1199 1243 1375 1465 1333
8 1332 1201 1077 1198 1466 1334 1200 1331
8 1215 1099 1201 1332 1352 1227 1334 1466
8 1119 1243 1333 1203 1204 1335 1470 1338
8 1333 1203 1338 1470 1200 1080 1202 1334
8 1227 1111 1202 1334 1360 1235 1338 1470
8 1328 1462 1335 1204 1205 1336 1471 1339
8 1337 1206 1340 1472 1464 1329 1205 1336
8 1346 1211 1342 1479 1210 1083 1207 1343
8 1346 1211 1115 1228 1479 1342 1239 1361
8 1348 1212 1084 1214 1479 1342 1207 1343
8 1480 1343 1208 1344 1345 1210 1082 1209
8 1351 1214 1319 1454 1480 1343 1208 1344
8 1481 1346 1210 1345 1359 1228 1100 1225
8 1348 1212 1347 1483 1214 1084 1213 1350
8 1216 1103 1227 1352 1353 1230 1360 1488
8 1217 1104 1230 1353 1354 1231 1363 1489
8 1490 1364 1232 1355 1354 1231 1106 1219
8 1220 1109 1232 1355 1356 1234 1365 1491
8 1221 1110 1234 1356 1357 1233 1366 1492
8 1224 1107 1233 1357 1358 1229 1362 1493
8 1226 1102 1229 1358 1359 1228 1362 1493
8 1230 1112 1235 1360 1363 1236 1367 1496
8 1361 1239 1115 1228 1497 1371 1240 1362
8 1366 1241 1372 1498 1233 1117 1240 1362
8 1364 1237 1113 1231 1499 1368 1236 1363
8 1364 1237 1368 1499 1232 1114 1238 1365
8 1234 1118 1238 1365 1366 1241 1369 1500
8 1507 1373 1242 1374 1388 1266 1138 1255
8 1508 1374 1243 1375 1380 1255 1132 1249
8 1376 1254 1387 1509 1245 1129 1258 1377
8 1275 1149 1276 1405 1376 1254 1387 1509
8 1377 1258 1391 1510 1248 1130 1259 1379
8 1511 1390 1257 1378 1379 1259 1131 1247
8 1383 1260 1134 1251 1511 1390 1257 1378
8 1252 1135 1256 1385 1380 1255 1388 1512
8 1261 1381 1513 1394 1133 1250 1382 1262
8 1135 1252 1384 1263 1261 1381 1513 1394
8 1382 1262 1134 1251 1514 1393 1260 1383
8 1253 1136 1263 1384 1386 1264 1395 1516
8 1253 1136 1264 1386 1385 1256 1389 1517
8 1387 1265 1397 1519 1258 1141 1269 1391
8 1276 1150 1277 1406 1387 1265 1397 1519
8 1256 1139 1267 1389 1388 1266 1398 1520
8 1264 1147 1274 1396 1389 1267 1399 1521
8 1392 1270 1143 1260 1522 1400 1268 1390
8 1390 1268 1142 1259 1522 1400 1269 1391
8 1392 1270 1401 1523 1260 1143 1271 1393
8 1272 1394 1524 1402 1145 1262 1393 1271
8 1395 1273 1146 1263 1524 1402 1272 1394
8 1273 1395 1264 1147 1403 1526 1396 1274
8 1405 1276 1160 1282 1534 1406 1286 1411
8 1414 1287 1407 1535 1286 1162 1277 1406
8 1279 1159 1283 1408 1409 1285 1412 1537
8 1418 1292 1412 1537 1290 1165 1283 1408
8 1280 1158 1285 1409 1410 1284 1413 1538
8 1410 1284 1413 1538 1282 1160 1286 1411
8 1285 1163 1289 1412 1413 1288 1417 1540
8 1421 1296 1417 1540 1292 1167 1289 1412
8 1414 1287 1162 1286 1541 1416 1288 1413
8 1420 1294 1421 1545 1291 1166 1292 1418
8 1419 1293 1172 1305 1546 1422 1303 1437
8 1420 1294 1166 1291 1547 1423 1293 1419
8 1294 1169 1297 1423 1421 1296 1425 1548
8 1423 1297 1168 1293 1549 1424 1295 1422
8 1301 1170 1298 1427 1422 1295 1424 1549
8 1432 1300 1428 1554 1301 1170 1298 1427
8 1431 1299 1428 1554 1560 1430 1300 1432
8 1563 1433 1300 1432 1435 1302 1170 1301
8 1546 1422 1303 1437 1434 1301 1435 1565
8 1303 1171 1304 1438 1435 1302 1436 1566
8 1305 1172 1306 1440 1437 1303 1438 1568
8 1306 1173 1307 1441 1438 1304 1439 1569
8 1308 1175 1309 1443 1440 1306 1441 1571
8 1309 1176 1310 1444 1441 1307 1442 1572
8 1311 1178 1312 1446 1443 1309 1444 1574
8 1179 1312 1444 1310 1313 1447 1575 1445
8 1314 1181 1315 1448 1446 1312 1447 1576
8 1350 1213 1349 1486 1451 1317 1449 1579
8 1451 1317 1450 1581 1319 1186 1318 1453
8 1454 1319 1214 1351 1582 1451 1350 1487
8 1453 1318 1452 1584 1321 1187 1320 1456
8 1454 1319 1453 1585 1344 1208 1321 1457
8 1456 1320 1455 1586 1323 1189 1324 1459
8 1457 1321 1456 1587 1322 1188 1323 1458
8 1458 1323 1459 1588 1325 1191 1326 1460
8 1205 1336 1464 1329 1328 1462 1590 1461
8 1507 1373 1461 1590 1374 1242 1328 1462
8 1508 1374 1462 1591 1375 1243 1335 1467
8 1337 1206 1329 1464 1473 1341 1463 1594
8 1375 1243 1335 1467 1465 1333 1470 1596
8 1465 1333 1470 1596 1331 1200 1334 1466
8 1352 1227 1334 1466 1488 1360 1470 1596
8 1591 1462 1336 1468 1467 1335 1471 1597
8 1469 1337 1472 1598 1595 1464 1336 1468
8 1471 1339 1474 1600 1335 1204 1338 1470
8 1600 1474 1367 1496 1470 1338 1235 1360
8 1336 1205 1340 1472 1471 1339 1475 1601
8 1337 1206 1341 1473 1472 1340 1476 1602
8 1495 1370 1478 1609 1361 1239 1342 1479
8 1348 1212 1342 1479 1483 1347 1478 1609
8 1481 1346 1479 1610 1345 1210 1343 1480
8 1481 1346 1228 1359 1610 1479 1361 1494
8 1484 1348 1214 1351 1610 1479 1343 1480
8 1483 1347 1482 1612 1350 1213 1349 1486
8 1484 1348 1483 1613 1351 1214 1350 1487
8 1353 1230 1360 1488 1489 1363 1496 1616
8 1490 1364 1231 1354 1617 1499 1363 1489
8 1490 1364 1499 1617 1355 1232 1365 1491
8 1356 1234 1365 1491 1492 1366 1500 1619
8 1492 1366 1498 1620 1357 1233 1362 1493
8 1494 1361 1228 1359 1621 1497 1362 1493
8 1495 1370 1239 1361 1622 1504 1371 1497
8 1363 1236 1367 1496 1499 1368 1501 1623
8 1497 1371 1240 1362 1624 1505 1372 1498
8 1625 1503 1372 1498 1500 1369 1241 1366
8 1365 1238 1368 1499 1500 1369 1502 1626
8 1520 1398 1506 1633 1388 1266 1373 1507
8 1634 1507 1374 1508 1512 1388 1255 1380
8 1509 1387 1519 1635 1377 1258 1391 1510
8 1405 1276 1406 1534 1509 1387 1519 1635
8 1515 1392 1260 1383 1636 1522 1390 1511
8 1511 1390 1259 1379 1636 1522 1391 1510
8 1385 1256 1389 1517 1512 1388 1520 1637
8 1513 1394 1262 1382 1638 1524 1393 1514
8 1395 1516 1638 1524 1263 1384 1513 1394
8 1515 1392 1523 1639 1383 1260 1393 1514
8 1516 1395 1526 1640 1386 1264 1396 1518
8 1386 1264 1396 1518 1517 1389 1521 1641
8 1519 1397 1527 1643 1391 1269 1400 1522
8 1535 1407 1527 1643 1406 1277 1397 1519
8 1389 1267 1399 1521 1520 1398 1528 1644
8 1645 1529 1399 1521 1525 1404 1274 1396
8 1392 1270 1400 1522 1523 1401 1531 1646
8 1524 1402 1271 1393 1648 1532 1401 1523
8 1403 1526 1648 1532 1273 1395 1524 1402
8 1525 1404 1274 1396 1649 1533 1403 1526
8 1539 1414 1535 1657 1411 1286 1406 1534
8 1542 1415 1536 1658 1414 1287 1407 1535
8 1409 1285 1412 1537 1538 1413 1540 1660
8 1545 1421 1540 1660 1418 1292 1412 1537
8 1539 1414 1286 1411 1661 1541 1413 1538
8 1540 1417 1544 1663 1413 1288 1416 1541
8 1421 1296 1425 1548 1540 1417 1544 1663
8 1542 1415 1287 1414 1664 1543 1416 1541
8 1420 1294 1423 1547 1545 1421 1548 1666
8 1547 1423 1293 1419 1667 1549 1422 1546
8 1434 1301 1427 1553 1546 1422 1549 1667
8 1423 1297 1424 1549 1548 1425 1550 1668
8 1551 1426 1550 1668 1427 1298 1424 1549
8 1551 1426 1298 1427 1671 1552 1428 1554
8 1562 1432 1554 1674 1434 1301 1427 1553
8 1431 1299 1429 1558 1554 1428 1555 1675
8 1431 1299 1430 1560 1558 1429 1557 1680
8 1560 1430 1300 1432 1683 1559 1433 1563
8 1561 1431 1554 1674 1684 1560 1432 1562
8 1685 1563 1432 1562 1565 1435 1301 1434
8 1435 1302 1436 1566 1563 1433 1564 1686
8 1437 1303 1438 1568 1565 1435 1566 1688
8 1438 1304 1439 1569 1566 1436 1567 1689
8 1440 1306 1441 1571 1568 1438 1569 1691
8 1441 1307 1442 1572 1569 1439 1570 1692
8 1443 1309 1444 1574 1571 1441 1572 1694
8 1310 1444 1572 1442 1445 1575 1695 1573
8 1446 1312 1447 1576 1574 1444 1575 1696
8 1486 1349 1485 1614 1579 1449 1577 1699
8 1451 1317 1449 1579 1581 1450 1578 1701
8 1487 1350 1486 1615 1582 1451 1579 1702
8 1581 1450 1580 1704 1453 1318 1452 1584
8 1582 1451 1581 1705 1454 1319 1453 1585
8 1584 1452 1583 1706 1456 1320 1455 1586
8 1585 1453 1584 1707 1457 1321 1456 1587
8 1587 1456 1586 1708 1458 1323 1459 1588
8 1633 1506 1589 1710 1507 1373 1461 1590
8 1464 1329 1461 1590 1594 1463 1589 1710
8 1468 1336 1462 1591 1595 1464 1590 1711
8 1634 1507 1590 1711 1508 1374 1462 1591
8 1473 1341 1463 1594 1603 1477 1593 1716
8 1469 1337 1464 1595 1599 1473 1594 1717
8 1471 1597 1467 1335 1600 1718 1596 1470
8 1718 1600 1496 1616 1596 1470 1360 1488
8 1336 1468 1597 1471 1472 1598 1719 1601
8 1469 1337 1473 1599 1598 1472 1602 1720
8 1722 1604 1501 1623 1600 1474 1367 1496
8 1475 1601 1471 1339 1604 1722 1600 1474
8 1602 1476 1605 1723 1472 1340 1475 1601
8 1476 1602 1724 1606 1341 1473 1603 1477
8 1483 1347 1478 1609 1612 1482 1608 1731
8 1495 1370 1504 1622 1609 1478 1608 1731
8 1618 1495 1609 1732 1494 1361 1479 1610
8 1484 1348 1479 1610 1613 1483 1609 1732
8 1486 1349 1482 1612 1614 1485 1611 1733
8 1613 1483 1612 1734 1487 1350 1486 1615
8 1489 1363 1496 1616 1617 1499 1623 1736
8 1491 1365 1499 1617 1619 1500 1626 1737
8 1618 1495 1361 1494 1738 1622 1497 1621
8 1739 1625 1498 1620 1619 1500 1366 1492
8 1621 1497 1362 1493 1740 1624 1498 1620
8 1742 1631 1504 1622 1624 1505 1371 1497
8 1743 1628 1502 1626 1623 1501 1368 1499
8 1744 1630 1505 1624 1625 1503 1372 1498
8 1745 1629 1503 1625 1626 1502 1369 1500
8 1520 1398 1528 1644 1633 1506 1632 1751
8 1637 1520 1633 1752 1512 1388 1507 1634
8 1635 1519 1643 1753 1510 1391 1522 1636
8 1657 1535 1643 1753 1534 1406 1519 1635
8 1515 1392 1522 1636 1639 1523 1646 1754
8 1517 1389 1521 1641 1637 1520 1644 1755
8 1524 1638 1756 1648 1393 1514 1639 1523
8 1640 1526 1395 1516 1756 1648 1524 1638
8 1642 1525 1396 1518 1757 1649 1526 1640
8 1758 1645 1521 1641 1642 1525 1396 1518
8 1646 1531 1400 1522 1760 1650 1527 1643
8 1535 1407 1536 1658 1643 1527 1650 1760
8 1521 1399 1529 1645 1644 1528 1651 1761
8 1647 1530 1652 1762 1525 1404 1529 1645
8 1401 1523 1648 1532 1531 1646 1763 1655
8 1525 1404 1533 1649 1647 1530 1654 1765
8 1533 1649 1766 1656 1403 1526 1648 1532
8 1662 1542 1658 1774 1539 1414 1535 1657
8 1542 1415 1543 1664 1658 1536 1659 1775
8 1660 1540 1663 1777 1538 1413 1541 1661
8 1545 1421 1548 1666 1660 1540 1663 1777
8 1662 1542 1414 1539 1778 1664 1541 1661
8 1664 1543 1416 1541 1779 1665 1544 1663
8 1548 1425 1550 1668 1663 1544 1665 1779
8 1547 1423 1549 1667 1666 1548 1668 1781
8 1670 1551 1668 1781 1553 1427 1549 1667
8 1551 1426 1552 1671 1668 1550 1669 1782
8 1670 1551 1427 1553 1784 1671 1554 1674
8 1675 1555 1672 1785 1554 1428 1552 1671
8 1678 1556 1673 1789 1558 1429 1555 1675
8 1561 1431 1558 1681 1674 1554 1675 1790
8 1794 1677 1556 1678 1680 1557 1429 1558
8 1560 1430 1559 1683 1680 1557 1679 1797
8 1561 1431 1560 1684 1681 1558 1680 1798
8 1563 1433 1564 1686 1683 1559 1682 1800
8 1684 1560 1432 1562 1801 1683 1563 1685
8 1565 1435 1566 1688 1685 1563 1686 1802
8 1566 1436 1567 1689 1686 1564 1687 1803
8 1568 1438 1569 1691 1688 1566 1689 1805
8 1569 1439 1570 1692 1689 1567 1690 1806
8 1571 1441 1572 1694 1691 1569 1692 1808
8 1442 1572 1692 1570 1573 1695 1809 1693
8 1574 1444 1575 1696 1694 1572 1695 1810
8 1614 1485 1592 1712 1699 1577 1697 1813
8 1579 1449 1577 1699 1701 1578 1698 1815
8 1615 1486 1614 1735 1702 1579 1699 1816
8 1701 1578 1700 1818 1581 1450 1580 1704
8 1582 1451 1579 1702 1705 1581 1701 1819
8 1704 1580 1703 1820 1584 1452 1583 1706
8 1705 1581 1704 1821 1585 1453 1584 1707
8 1707 1584 1706 1822 1587 1456 1586 1708
8 1710 1589 1506 1633 1824 1709 1632 1751
8 1594 1463 1589 1710 1716 1593 1709 1824
8 1752 1633 1710 1825 1634 1507 1590 1711
8 1595 1464 1590 1711 1717 1594 1710 1825
8 1830 1714 1592 1712 1733 1611 1485 1614
8 1603 1477 1593 1716 1725 1607 1715 1834
8 1599 1473 1594 1717 1721 1603 1716 1835
8 1837 1722 1623 1736 1718 1600 1496 1616
8 1719 1601 1722 1837 1597 1471 1600 1718
8 1602 1720 1598 1472 1723 1838 1719 1601
8 1720 1602 1473 1599 1839 1724 1603 1721
8 1723 1605 1726 1840 1601 1475 1604 1722
8 1840 1726 1628 1743 1722 1604 1501 1623
8 1724 1606 1727 1841 1602 1476 1605 1723
8 1725 1607 1728 1842 1603 1477 1606 1724
8 1612 1482 1608 1731 1733 1611 1730 1849
8 1741 1627 1730 1849 1622 1504 1608 1731
8 1613 1483 1609 1732 1734 1612 1731 1850
8 1618 1495 1622 1738 1732 1609 1731 1850
8 1615 1486 1612 1734 1735 1614 1733 1851
8 1852 1743 1626 1737 1736 1623 1499 1617
8 1853 1745 1625 1739 1737 1626 1500 1619
8 1855 1742 1622 1738 1740 1624 1497 1621
8 1856 1744 1624 1740 1739 1625 1498 1620
8 1741 1627 1504 1622 1857 1746 1631 1742
8 1742 1631 1505 1624 1858 1749 1630 1744
8 1859 1747 1629 1745 1743 1628 1502 1626
8 1860 1748 1630 1744 1745 1629 1503 1625
8 1644 1528 1651 1761 1751 1632 1750 1865
8 1637 1520 1644 1755 1752 1633 1751 1866
8 1754 1646 1522 1636 1867 1760 1643 1753
8 1657 1535 1658 1774 1753 1643 1760 1867
8 1639 1523 1646 1754 1756 1648 1763 1868
8 1641 1521 1645 1758 1755 1644 1761 1869
8 1757 1649 1526 1640 1870 1766 1648 1756
8 1642 1525 1649 1757 1759 1647 1765 1871
8 1759 1647 1762 1872 1642 1525 1645 1758
8 1760 1650 1767 1874 1646 1531 1655 1763
8 1658 1536 1659 1775 1760 1650 1767 1874
8 1762 1652 1768 1875 1645 1529 1651 1761
8 1764 1653 1769 1876 1647 1530 1652 1762
8 1656 1766 1877 1773 1532 1648 1763 1655
8 1771 1879 1765 1654 1653 1764 1647 1530
8 1533 1649 1765 1654 1656 1766 1880 1772
8 1662 1542 1664 1778 1774 1658 1775 1887
8 1664 1543 1665 1779 1775 1659 1776 1888
8 1778 1664 1541 1661 1890 1779 1663 1777
8 1666 1548 1668 1781 1777 1663 1779 1890
8 1782 1669 1780 1891 1668 1550 1665 1779
8 1670 1551 1671 1784 1781 1668 1782 1893
8 1671 1552 1672 1785 1782 1669 1783 1894
8 1790 1675 1785 1896 1674 1554 1671 1784
8 1675 1555 1673 1789 1785 1672 1786 1897
8 1792 1676 1788 1903 1678 1556 1673 1789
8 1795 1678 1789 1904 1681 1558 1675 1790
8 1792 1676 1556 1678 1906 1791 1677 1794
8 1680 1557 1679 1797 1794 1677 1793 1909
8 1910 1794 1678 1795 1798 1680 1558 1681
8 1683 1559 1682 1800 1797 1679 1796 1912
8 1684 1560 1683 1801 1798 1680 1797 1913
8 1686 1564 1687 1803 1800 1682 1799 1915
8 1685 1563 1686 1802 1801 1683 1800 1916
8 1688 1566 1689 1805 1802 1686 1803 1917
8 1689 1567 1690 1806 1803 1687 1804 1918
8 1691 1569 1692 1808 1805 1689 1806 1920
8 1692 1570 1693 1809 1806 1690 1807 1921
8 1694 1572 1695 1810 1808 1692 1809 1922
8 1829 1713 1811 1926 1712 1592 1697 1813
8 1813 1697 1812 1928 1699 1577 1698 1815
8 1735 1614 1712 1828 1816 1699 1813 1929
8 1815 1698 1814 1931 1701 1578 1700 1818
8 1702 1579 1699 1816 1819 1701 1815 1932
8 1818 1700 1817 1933 1704 1580 1703 1820
8 1819 1701 1818 1934 1705 1581 1704 1821
8 1821 1704 1820 1935 1707 1584 1706 1822
8 1824 1709 1632 1751 1937 1823 1750 1865
8 1716 1593 1709 1824 1834 1715 1823 1937
8 1825 1710 1633 1752 1938 1824 1751 1866
8 1717 1594 1710 1825 1835 1716 1824 1938
8 1945 1830 1712 1828 1851 1733 1614 1735
8 1830 1714 1831 1946 1712 1592 1713 1829
8 1947 1832 1714 1830 1849 1730 1611 1733
8 1843 1729 1607 1725 1950 1833 1715 1834
8 1721 1603 1716 1835 1836 1725 1834 1951
8 1836 1725 1842 1953 1721 1603 1724 1839
8 1723 1838 1719 1601 1840 1954 1837 1722
8 1954 1840 1743 1852 1837 1722 1623 1736
8 1724 1839 1720 1602 1841 1955 1838 1723
8 1841 1727 1844 1956 1723 1605 1726 1840
8 1956 1844 1747 1859 1840 1726 1628 1743
8 1728 1842 1724 1606 1845 1957 1841 1727
8 1725 1607 1729 1843 1842 1728 1846 1958
8 1741 1627 1746 1857 1849 1730 1848 1965
8 1734 1612 1731 1850 1851 1733 1849 1966
8 1854 1741 1849 1966 1738 1622 1731 1850
8 1967 1859 1745 1853 1852 1743 1626 1737
8 1968 1860 1744 1856 1853 1745 1625 1739
8 1854 1741 1622 1738 1969 1857 1742 1855
8 1855 1742 1624 1740 1970 1858 1744 1856
8 1857 1746 1631 1742 1971 1861 1749 1858
8 1858 1749 1630 1744 1972 1863 1748 1860
8 1859 1747 1862 1973 1745 1629 1748 1860
8 1875 1768 1864 1977 1761 1651 1750 1865
8 1755 1644 1761 1869 1866 1751 1865 1978
8 1867 1760 1874 1979 1754 1646 1763 1868
8 1774 1658 1775 1887 1867 1760 1874 1979
8 1870 1766 1648 1756 1980 1877 1763 1868
8 1872 1762 1875 1981 1758 1645 1761 1869
8 1757 1649 1766 1870 1871 1765 1880 1982
8 1983 1879 1764 1873 1871 1765 1647 1759
8 1873 1764 1876 1984 1759 1647 1762 1872
8 1877 1773 1655 1763 1986 1881 1767 1874
8 1775 1659 1776 1888 1874 1767 1881 1986
8 1876 1769 1882 1987 1762 1652 1768 1875
8 1878 1770 1883 1988 1764 1653 1769 1876
8 1880 1772 1656 1766 1989 1886 1773 1877
8 1878 1770 1653 1764 1990 1884 1771 1879
8 1765 1654 1772 1880 1879 1771 1885 1991
8 1778 1664 1779 1890 1887 1775 1888 1997
8 1998 1889 1776 1888 1891 1780 1665 1779
8 1893 1782 1891 2000 1781 1668 1779 1890
8 1894 1783 1892 2001 1782 1669 1780 1891
8 1784 1671 1785 1896 1893 1782 1894 2003
8 1897 1786 1895 2004 1785 1672 1783 1894
8 1790 1675 1789 1904 1896 1785 1897 2006
8 1901 1787 1898 2007 1789 1673 1786 1897
8 1903 1788 1900 2013 1789 1673 1787 1901
8 1792 1676 1791 1906 1903 1788 1902 2016
8 1907 1792 1903 2017 1795 1678 1789 1904
8 1906 1791 1677 1794 2019 1905 1793 1909
8 1907 1792 1678 1795 2020 1906 1794 1910
8 1797 1679 1796 1912 1909 1793 1908 2022
8 1798 1680 1797 1913 1910 1794 1909 2023
8 1800 1682 1799 1915 1912 1796 1911 2025
8 1801 1683 1800 1916 1913 1797 1912 2026
8 1803 1687 1804 1918 1915 1799 1914 2028
8 1802 1686 1803 1917 1916 1800 1915 2029
8 1805 1689 1806 1920 1917 1803 1918 2030
8 1806 1690 1807 1921 1918 1804 1919 2031
8 1808 1692 1809 1922 1920 1806 1921 2032
8 1939 1826 1924 2037 1829 1713 1811 1926
8 1926 1811 1925 2039 1813 1697 1812 1928
8 1944 1829 1926 2040 1828 1712 1813 1929
8 1928 1812 1927 2042 1815 1698 1814 1931
8 1929 1813 1928 2043 1816 1699 1815 1932
8 1931 1814 1930 2044 1818 1700 1817 1933
8 1932 1815 1931 2045 1819 1701 1818 1934
8 1934 1818 1933 2046 1821 1704 1820 1935
8 2048 1936 1823 1937 1977 1864 1750 1865
8 1950 1833 1715 1834 2048 1936 1823 1937
8 1938 1824 1751 1866 2049 1937 1865 1978
8 1835 1716 1824 1938 1951 1834 1937 2049
8 1939 1826 1713 1829 2053 1942 1831 1946
8 1940 1827 1923 2035 2053 1942 1826 1939
8 1945 1830 1946 2058 1828 1712 1829 1944
8 2059 1947 1830 1945 1966 1849 1733 1851
8 1947 1832 1730 1849 2060 1948 1848 1965
8 1947 1832 1948 2060 1830 1714 1831 1946
8 1959 1847 1729 1843 2063 1949 1833 1950
8 1952 1843 1725 1836 2064 1950 1834 1951
8 1836 1725 1843 1952 1953 1842 1958 2066
8 1953 1842 1957 2067 1839 1724 1841 1955
8 1841 1955 1838 1723 1956 2068 1954 1840
8 2068 1956 1859 1967 1954 1840 1743 1852
8 1956 1844 1960 2069 1859 1747 1862 1973
8 1845 1957 1841 1727 1960 2069 1956 1844
8 1728 1842 1957 1845 1846 1958 2071 1961
8 1962 2072 1959 1847 1846 1958 1843 1729
8 1971 1861 1964 2077 1857 1746 1848 1965
8 1854 1741 1857 1969 1966 1849 1965 2078
8 1967 1859 1973 2079 1853 1745 1860 1968
8 1970 1858 1744 1856 2080 1972 1860 1968
8 1969 1857 1742 1855 2081 1971 1858 1970
8 1971 1861 1749 1858 2082 1974 1863 1972
8 1973 1862 1975 2083 1860 1748 1863 1972
8 1987 1882 1976 2086 1875 1768 1864 1977
8 1981 1875 1977 2087 1869 1761 1865 1978
8 1980 1877 1763 1868 2088 1986 1874 1979
8 1887 1775 1888 1997 1979 1874 1986 2088
8 1880 1982 2089 1989 1766 1870 1980 1877
8 1984 1876 1987 2090 1872 1762 1875 1981
8 1765 1871 1983 1879 1880 1982 2091 1991
8 1985 1878 1764 1873 2092 1990 1879 1983
8 1985 1878 1988 2093 1873 1764 1876 1984
8 2094 1992 1881 1986 1998 1889 1776 1888
8 1986 1881 1992 2094 1877 1773 1886 1989
8 1988 1883 1993 2095 1876 1769 1882 1987
8 1878 1770 1884 1990 1988 1883 1994 2096
8 1991 1885 1772 1880 2097 1996 1886 1989
8 1879 1771 1885 1991 1990 1884 1995 2098
8 2103 1998 1888 1997 2000 1891 1779 1890
8 2104 1999 1889 1998 2001 1892 1780 1891
8 2003 1894 2001 2106 1893 1782 1891 2000
8 2004 1895 2002 2107 1894 1783 1892 2001
8 2006 1897 2004 2109 1896 1785 1894 2003
8 2007 1898 2005 2110 1897 1786 1895 2004
8 2014 1901 2007 2112 1904 1789 1897 2006
8 2011 1899 2008 2113 1901 1787 1898 2007
8 2119 2010 1899 2011 2013 1900 1787 1901
8 2016 1902 2012 2122 1903 1788 1900 2013
8 2017 1903 2013 2123 1904 1789 1901 2014
8 1906 1791 1905 2019 2016 1902 2015 2125
8 1907 1792 1906 2020 2017 1903 2016 2126
8 1909 1793 1908 2022 2019 1905 2018 2128
8 2020 1906 1794 1910 2129 2019 1909 2023
8 1912 1796 1911 2025 2022 1908 2021 2131
8 1913 1797 1912 2026 2023 1909 2022 2132
8 1915 1799 1914 2028 2025 1911 2024 2134
8 1916 1800 1915 2029 2026 1912 2025 2135
8 1918 1804 1919 2031 2028 1914 2027 2136
8 1917 1803 1918 2030 2029 1915 2028 2137
8 1920 1806 1921 2032 2030 1918 2031 2138
8 1940 1827 1941 2054 2035 1923 2033 2140
8 2035 1923 2034 2143 1939 1826 1924 2037
8 2037 1924 2036 2146 1926 1811 1925 2039
8 2051 1939 2037 2147 1944 1829 1926 2040
8 2039 1925 2038 2149 1928 1812 1927 2042
8 2040 1926 2039 2150 1929 1813 1928 2043
8 2042 1927 2041 2151 1931 1814 1930 2044
8 2043 1928 2042 2152 1932 1815 1931 2045
8 2045 1931 2044 2153 1934 1818 1933 2046
8 2155 2047 1936 2048 2086 1976 1864 1977
8 2063 1949 1833 1950 2155 2047 1936 2048
8 2156 2048 1937 2049 2087 1977 1865 1978
8 2064 1950 1834 1951 2156 2048 1937 2049
8 2051 1939 1829 1944 2160 2053 1946 2058
8 2052 1940 2035 2144 2160 2053 1939 2051
8 2053 1942 1831 1946 2163 2057 1948 2060
8 2055 1943 1827 1940 2163 2057 1942 2053
8 2055 1943 2056 2164 1940 1827 1941 2054
8 2059 1947 1849 1966 2167 2060 1965 2078
8 2059 1947 2060 2167 1945 1830 1946 2058
8 2077 1964 2061 2168 1965 1848 1948 2060
8 2070 1963 1847 1959 2170 2062 1949 2063
8 2065 1959 1843 1952 2171 2063 1950 2064
8 2173 2072 1958 2066 2065 1959 1843 1952
8 1953 1842 1958 2066 2067 1957 2071 2174
8 2068 1956 2069 2175 1967 1859 1973 2079
8 2067 1957 2069 2175 1955 1841 1956 2068
8 1845 1957 2069 1960 1961 2071 2176 2073
8 2069 1960 2073 2176 1973 1862 1975 2083
8 2070 1963 2075 2177 1959 1847 1962 2072
8 1846 1958 2071 1961 1962 2072 2178 2074
8 2077 1964 1861 1971 2182 2076 1974 2082
8 2081 1971 2077 2183 1969 1857 1965 2078
8 2079 1973 2083 2184 1968 1860 1972 2080
8 2081 1971 1858 1970 2185 2082 1972 2080
8 2083 1975 2084 2186 1972 1863 1974 2082
8 2086 1976 1882 1987 2189 2085 1993 2095
8 2090 1987 2086 2190 1981 1875 1977 2087
8 2191 2094 1986 2088 2103 1998 1888 1997
8 2088 1986 2094 2191 1980 1877 1989 2089
8 1991 2091 2192 2097 1880 1982 2089 1989
8 2093 1988 2095 2193 1984 1876 1987 2090
8 1879 1983 2092 1990 1991 2091 2194 2098
8 1985 1878 1990 2092 2093 1988 2096 2195
8 2097 1996 1886 1989 2196 2099 1992 2094
8 2196 2099 1992 2094 2104 1999 1889 1998
8 1994 2096 1988 1883 2100 2197 2095 1993
8 2096 1994 1884 1990 2198 2101 1995 2098
8 1995 2098 2199 2102 1885 1991 2097 1996
8 2203 2104 1998 2103 2106 2001 1891 2000
8 2107 2002 2105 2204 2001 1892 1999 2104
8 2109 2004 2107 2206 2003 1894 2001 2106
8 2110 2005 2108 2207 2004 1895 2002 2107
8 2112 2007 2110 2209 2006 1897 2004 2109
8 2113 2008 2111 2210 2007 1898 2005 2110
8 2120 2011 2113 2212 2014 1901 2007 2112
8 2117 2009 2114 2213 2011 1899 2008 2113
8 2219 2116 2009 2117 2119 2010 1899 2011
8 2222 2118 2010 2119 2122 2012 1900 2013
8 2223 2119 2011 2120 2123 2013 1901 2014
8 2016 1902 2015 2125 2122 2012 2121 2225
8 2126 2016 2122 2226 2017 1903 2013 2123
8 2019 1905 2018 2128 2125 2015 2124 2228
8 2020 1906 2019 2129 2126 2016 2125 2229
8 2022 1908 2021 2131 2128 2018 2127 2231
8 2023 1909 2022 2132 2129 2019 2128 2232
8 2025 1911 2024 2134 2131 2021 2130 2234
8 2026 1912 2025 2135 2132 2022 2131 2235
8 1914 2028 2134 2024 2027 2136 2236 2133
8 2029 1915 2028 2137 2135 2025 2134 2237
8 2030 1918 2031 2138 2137 2028 2136 2238
8 2157 2050 2139 2240 2054 1941 2033 2140
8 2052 1940 2054 2161 2144 2035 2140 2242
8 2140 2033 2141 2243 2035 1923 2034 2143
8 2143 2034 2142 2246 2037 1924 2036 2146
8 2144 2035 2143 2247 2051 1939 2037 2147
8 2146 2036 2145 2249 2039 1925 2038 2149
8 2147 2037 2146 2250 2040 1926 2039 2150
8 2149 2038 2148 2251 2042 1927 2041 2151
8 2150 2039 2149 2252 2043 1928 2042 2152
8 2152 2042 2151 2253 2045 1931 2044 2153
8 2255 2154 2047 2155 2189 2085 1976 2086
8 2170 2062 1949 2063 2255 2154 2047 2155
8 2256 2155 2048 2156 2190 2086 1977 2087
8 2171 2063 1950 2064 2256 2155 2048 2156
8 2258 2159 2050 2157 2164 2056 1941 2054
8 2160 2053 1946 2058 2262 2163 2060 2167
8 2162 2055 1940 2052 2262 2163 2053 2160
8 2162 2055 2164 2263 2052 1940 2054 2161
8 2163 2057 1948 2060 2264 2165 2061 2168
8 2055 1943 2057 2163 2164 2056 2165 2264
8 2182 2076 2166 2268 2077 1964 2061 2168
8 2183 2077 2168 2269 2078 1965 2060 2167
8 2070 1963 2062 2170 2177 2075 2169 2271
8 2172 2070 1959 2065 2272 2170 2063 2171
8 2172 2070 2177 2273 2065 1959 2072 2173
8 2066 1958 2072 2173 2174 2071 2178 2274
8 2067 1957 2071 2174 2175 2069 2176 2275
8 2175 2069 2176 2275 2079 1973 2083 2184
8 2071 1961 2074 2178 2176 2073 2179 2276
8 2176 2073 2179 2276 2083 1975 2084 2186
8 2072 1962 2075 2177 2178 2074 2180 2277
8 2182 2076 1974 2082 2280 2181 2084 2186
8 2183 2077 1971 2081 2281 2182 2082 2185
8 2184 2083 2186 2282 2080 1972 2082 2185
8 2189 2085 1993 2095 2285 2188 2100 2197
8 2190 2086 1987 2090 2286 2189 2095 2193
8 2192 2097 1989 2089 2287 2196 2094 2191
8 2287 2196 2094 2191 2203 2104 1998 2103
8 2194 2098 1991 2091 2288 2199 2097 2192
8 2195 2096 2197 2289 2093 1988 2095 2193
8 2096 2195 2290 2198 1990 2092 2194 2098
8 2097 1996 2099 2196 2199 2102 2200 2291
8 2196 2099 1999 2104 2291 2200 2105 2204
8 2100 2197 2292 2201 1994 2096 2198 2101
8 1995 2098 2198 2101 2102 2199 2293 2202
8 2206 2107 2204 2296 2106 2001 2104 2203
8 2207 2108 2205 2297 2107 2002 2105 2204
8 2209 2110 2207 2299 2109 2004 2107 2206
8 2210 2111 2208 2300 2110 2005 2108 2207
8 2212 2113 2210 2302 2112 2007 2110 2209
8 2213 2114 2211 2303 2113 2008 2111 2210
8 2220 2117 2213 2305 2120 2011 2113 2212
8 2216 2115 2214 2306 2117 2009 2114 2213
8 2216 2115 2009 2117 2311 2217 2116 2219
8 2219 2116 2010 2119 2314 2218 2118 2222
8 2315 2219 2117 2220 2223 2119 2011 2120
8 2122 2012 2121 2225 2222 2118 2221 2317
8 2318 2222 2119 2223 2226 2122 2013 2123
8 2125 2015 2124 2228 2225 2121 2224 2320
8 2126 2016 2125 2229 2226 2122 2225 2321
8 2128 2018 2127 2231 2228 2124 2227 2323
8 2129 2019 2128 2232 2229 2125 2228 2324
8 2131 2021 2130 2234 2231 2127 2230 2326
8 2132 2022 2131 2235 2232 2128 2231 2327
8 2134 2024 2133 2236 2234 2130 2233 2328
8 2135 2025 2134 2237 2235 2131 2234 2329
8 2137 2028 2136 2238 2237 2134 2236 2330
8 2157 2050 2158 2259 2240 2139 2239 2332
8 2257 2157 2240 2334 2161 2054 2140 2242
8 2240 2139 2241 2335 2140 2033 2141 2243
8 2242 2140 2243 2337 2144 2035 2143 2247
8 2243 2141 2244 2338 2143 2034 2142 2246
8 2246 2142 2245 2341 2146 2036 2145 2249
8 2247 2143 2246 2342 2147 2037 2146 2250
8 2249 2145 2248 2343 2149 2038 2148 2251
8 2250 2146 2249 2344 2150 2039 2149 2252
8 2252 2149 2251 2345 2152 2042 2151 2253
8 2169 2271 2347 2254 2062 2170 2255 2154
8 2189 2085 2188 2285 2255 2154 2254 2347
8 2348 2255 2155 2256 2286 2189 2086 2190
8 2272 2170 2063 2171 2348 2255 2155 2256
8 2349 2258 2157 2257 2263 2164 2054 2161
8 2258 2159 2261 2351 2157 2050 2158 2259
8 2258 2159 2056 2164 2351 2261 2165 2264
8 2262 2163 2060 2167 2355 2264 2168 2269
8 2162 2055 2163 2262 2263 2164 2264 2355
8 2357 2266 2165 2264 2268 2166 2061 2168
8 2268 2166 2076 2182 2361 2267 2181 2280
8 2281 2182 2268 2362 2183 2077 2168 2269
8 2271 2169 2270 2364 2177 2075 2180 2277
8 2172 2070 2170 2272 2273 2177 2271 2365
8 2072 2173 2274 2178 2177 2273 2366 2277
8 2071 2174 2275 2176 2178 2274 2367 2276
8 2275 2176 2276 2367 2184 2083 2186 2282
8 2283 2187 2084 2186 2368 2278 2179 2276
8 2178 2074 2180 2277 2276 2179 2278 2368
8 2283 2187 2279 2370 2186 2084 2181 2280
8 2281 2182 2082 2185 2371 2280 2186 2282
8 2188 2285 2374 2284 2100 2197 2292 2201
8 2286 2189 2095 2193 2375 2285 2197 2289
8 2192 2097 2196 2287 2288 2199 2291 2376
8 2287 2196 2104 2203 2376 2291 2204 2296
8 2194 2098 2199 2288 2290 2198 2293 2377
8 2289 2197 2096 2195 2378 2292 2198 2290
8 2291 2200 2105 2204 2379 2294 2205 2297
8 2199 2102 2200 2291 2293 2202 2294 2379
8 2198 2101 2202 2293 2292 2201 2295 2380
8 2299 2207 2297 2383 2206 2107 2204 2296
8 2300 2208 2298 2384 2207 2108 2205 2297
8 2302 2210 2300 2386 2209 2110 2207 2299
8 2303 2211 2301 2387 2210 2111 2208 2300
8 2305 2213 2303 2389 2212 2113 2210 2302
8 2306 2214 2304 2390 2213 2114 2211 2303
8 2310 2216 2306 2392 2220 2117 2213 2305
8 2308 2215 2307 2393 2216 2115 2214 2306
8 2308 2215 2115 2216 2396 2309 2217 2311
8 2310 2216 2117 2220 2398 2311 2219 2315
8 2311 2217 2116 2219 2399 2312 2218 2314
8 2314 2218 2118 2222 2402 2313 2221 2317
8 2315 2219 2119 2223 2403 2314 2222 2318
8 2225 2121 2224 2320 2317 2221 2316 2405
8 2226 2122 2225 2321 2318 2222 2317 2406
8 2228 2124 2227 2323 2320 2224 2319 2408
8 2229 2125 2228 2324 2321 2225 2320 2409
8 2231 2127 2230 2326 2323 2227 2322 2411
8 2232 2128 2231 2327 2324 2228 2323 2412
8 2234 2130 2233 2328 2326 2230 2325 2413
8 2235 2131 2234 2329 2327 2231 2326 2414
8 2237 2134 2236 2330 2329 2234 2328 2415
8 2259 2158 2260 2352 2332 2239 2331 2417
8 2257 2157 2259 2350 2334 2240 2332 2419
8 2240 2139 2239 2332 2335 2241 2333 2420
8 2334 2240 2335 2422 2242 2140 2243 2337
8 2335 2241 2336 2423 2243 2141 2244 2338
8 2337 2243 2338 2425 2247 2143 2246 2342
8 2338 2244 2339 2426 2246 2142 2245 2341
8 2341 2245 2340 2428 2249 2145 2248 2343
8 2342 2246 2341 2429 2250 2146 2249 2344
8 2344 2249 2343 2430 2252 2149 2251 2345
8 2188 2285 2347 2254 2284 2374 2432 2346
8 2347 2254 2346 2432 2271 2169 2270 2364
8 2365 2271 2170 2272 2433 2347 2255 2348
8 2286 2189 2285 2375 2348 2255 2347 2433
8 2349 2258 2351 2435 2257 2157 2259 2350
8 2349 2258 2164 2263 2435 2351 2264 2355
8 2259 2158 2261 2351 2352 2260 2354 2437
8 2356 2265 2354 2437 2264 2165 2261 2351
8 2441 2357 2264 2355 2362 2268 2168 2269
8 2356 2265 2165 2264 2442 2358 2266 2357
8 2443 2359 2266 2357 2361 2267 2166 2268
8 2370 2279 2360 2446 2280 2181 2267 2361
8 2362 2268 2182 2281 2447 2361 2280 2371
8 2180 2277 2368 2278 2270 2364 2449 2363
8 2271 2365 2273 2177 2364 2450 2366 2277
8 2372 2283 2186 2282 2451 2368 2276 2367
8 2178 2274 2367 2276 2277 2366 2451 2368
8 2283 2187 2278 2368 2370 2279 2369 2452
8 2372 2283 2370 2453 2282 2186 2280 2371
8 2284 2374 2455 2373 2201 2292 2380 2295
8 2375 2285 2197 2289 2456 2374 2292 2378
8 2376 2291 2204 2296 2457 2379 2297 2383
8 2288 2199 2291 2376 2377 2293 2379 2457
8 2198 2290 2378 2292 2293 2377 2458 2380
8 2293 2202 2294 2379 2380 2295 2381 2459
8 2384 2298 2381 2459 2297 2205 2294 2379
8 2386 2300 2384 2463 2299 2207 2297 2383
8 2387 2301 2385 2464 2300 2208 2298 2384
8 2389 2303 2387 2466 2302 2210 2300 2386
8 2390 2304 2388 2467 2303 2211 2301 2387
8 2392 2306 2390 2469 2305 2213 2303 2389
8 2393 2307 2391 2470 2306 2214 2304 2390
8 2395 2308 2393 2472 2310 2216 2306 2392
8 2308 2215 2309 2396 2393 2307 2394 2473
8 2395 2308 2216 2310 2475 2396 2311 2398
8 2396 2309 2217 2311 2476 2397 2312 2399
8 2398 2311 2219 2315 2478 2399 2314 2403
8 2399 2312 2218 2314 2479 2400 2313 2402
8 2317 2221 2316 2405 2402 2313 2401 2482
8 2403 2314 2222 2318 2483 2402 2317 2406
8 2320 2224 2319 2408 2405 2316 2404 2485
8 2321 2225 2320 2409 2406 2317 2405 2486
8 2323 2227 2322 2411 2408 2319 2407 2488
8 2324 2228 2323 2412 2409 2320 2408 2489
8 2326 2230 2325 2413 2411 2322 2410 2490
8 2327 2231 2326 2414 2412 2323 2411 2491
8 2329 2234 2328 2415 2414 2326 2413 2492
8 2417 2331 2260 2352 2494 2416 2353 2438
8 2350 2259 2352 2436 2419 2332 2417 2496
8 2332 2239 2331 2417 2420 2333 2418 2497
8 2334 2240 2332 2419 2422 2335 2420 2499
8 2420 2333 2421 2500 2335 2241 2336 2423
8 2422 2335 2423 2502 2337 2243 2338 2425
8 2423 2336 2424 2503 2338 2244 2339 2426
8 2425 2338 2426 2505 2342 2246 2341 2429
8 2426 2339 2427 2506 2341 2245 2340 2428
8 2429 2341 2428 2507 2344 2249 2343 2430
8 2432 2346 2284 2374 2509 2431 2373 2455
8 2432 2346 2431 2509 2364 2270 2363 2449
8 2375 2285 2374 2456 2433 2347 2432 2510
8 2347 2433 2365 2271 2432 2510 2450 2364
8 2350 2259 2351 2435 2436 2352 2437 2514
8 2440 2356 2437 2514 2355 2264 2351 2435
8 2352 2260 2354 2437 2438 2353 2439 2516
8 2356 2265 2358 2442 2437 2354 2439 2516
8 2440 2356 2264 2355 2518 2442 2357 2441
8 2519 2443 2357 2441 2447 2361 2268 2362
8 2443 2359 2444 2520 2357 2266 2358 2442
8 2443 2359 2267 2361 2520 2444 2360 2446
8 2446 2360 2279 2370 2523 2445 2369 2452
8 2453 2370 2446 2524 2371 2280 2361 2447
8 2449 2363 2448 2525 2368 2278 2369 2452
8 2366 2277 2364 2450 2451 2368 2449 2526
8 2372 2283 2368 2451 2453 2370 2452 2527
8 2455 2373 2295 2380 2529 2454 2382 2460
8 2456 2374 2292 2378 2530 2455 2380 2458
8 2377 2293 2379 2457 2458 2380 2459 2531
8 2463 2384 2459 2531 2383 2297 2379 2457
8 2533 2461 2382 2460 2459 2381 2295 2380
8 2464 2385 2461 2533 2384 2298 2381 2459
8 2466 2387 2464 2537 2386 2300 2384 2463
8 2467 2388 2465 2538 2387 2301 2385 2464
8 2469 2390 2467 2540 2389 2303 2387 2466
8 2470 2391 2468 2541 2390 2304 2388 2467
8 2472 2393 2470 2543 2392 2306 2390 2469
8 2393 2307 2394 2473 2470 2391 2471 2544
8 2395 2308 2396 2475 2472 2393 2473 2546
8 2396 2309 2397 2476 2473 2394 2474 2547
8 2475 2396 2311 2398 2549 2476 2399 2478
8 2476 2397 2312 2399 2550 2477 2400 2479
8 2478 2399 2314 2403 2552 2479 2402 2483
8 2479 2400 2313 2402 2553 2480 2401 2482
8 2405 2316 2404 2485 2482 2401 2481 2556
8 2406 2317 2405 2486 2483 2402 2482 2557
8 2408 2319 2407 2488 2485 2404 2484 2559
8 2409 2320 2408 2489 2486 2405 2485 2560
8 2411 2322 2410 2490 2488 2407 2487 2561
8 2412 2323 2411 2491 2489 2408 2488 2562
8 2414 2326 2413 2492 2491 2411 2490 2563
8 2513 2434 2493 2565 2438 2353 2416 2494
8 2496 2417 2352 2436 2567 2494 2438 2515
8 2494 2416 2495 2568 2417 2331 2418 2497
8 2419 2332 2417 2496 2499 2420 2497 2570
8 2497 2418 2498 2571 2420 2333 2421 2500
8 2499 2420 2500 2573 2422 2335 2423 2502
8 2500 2421 2501 2574 2423 2336 2424 2503
8 2502 2423 2503 2576 2425 2338 2426 2505
8 2503 2424 2504 2577 2426 2339 2427 2506
8 2505 2426 2506 2578 2429 2341 2428 2507
8 2509 2431 2373 2455 2580 2508 2454 2529
8 2509 2431 2508 2580 2449 2363 2448 2525
8 2432 2510 2581 2509 2374 2456 2530 2455
8 2432 2510 2450 2364 2509 2581 2526 2449
8 2583 2511 2434 2513 2516 2439 2353 2438
8 2436 2352 2437 2514 2515 2438 2516 2588
8 2440 2356 2442 2518 2514 2437 2516 2588
8 2442 2358 2444 2520 2516 2439 2517 2589
8 2519 2443 2520 2591 2441 2357 2442 2518
8 2519 2443 2361 2447 2591 2520 2446 2524
8 2446 2360 2445 2523 2520 2444 2521 2592
8 2525 2448 2522 2593 2452 2369 2445 2523
8 2524 2446 2370 2453 2594 2523 2452 2527
8 2526 2449 2525 2595 2451 2368 2452 2527
8 2534 2462 2528 2597 2460 2382 2454 2529
8 2530 2455 2380 2458 2598 2529 2460 2532
8 2599 2533 2460 2532 2531 2459 2380 2458
8 2537 2464 2533 2599 2463 2384 2459 2531
8 2534 2462 2382 2460 2601 2535 2461 2533
8 2538 2465 2535 2601 2464 2385 2461 2533
8 2540 2467 2538 2604 2466 2387 2464 2537
8 2541 2468 2539 2605 2467 2388 2465 2538
8 2543 2470 2541 2607 2469 2390 2467 2540
8 2470 2391 2471 2544 2541 2468 2542 2608
8 2472 2393 2473 2546 2543 2470 2544 2610
8 2473 2394 2474 2547 2544 2471 2545 2611
8 2475 2396 2476 2549 2546 2473 2547 2613
8 2476 2397 2477 2550 2547 2474 2548 2614
8 2549 2476 2399 2478 2616 2550 2479 2552
8 2479 2400 2480 2553 2550 2477 2551 2617
8 2552 2479 2402 2483 2619 2553 2482 2557
8 2482 2401 2481 2556 2553 2480 2554 2620
8 2485 2404 2484 2559 2556 2481 2555 2623
8 2486 2405 2485 2560 2557 2482 2556 2624
8 2488 2407 2487 2561 2559 2484 2558 2625
8 2489 2408 2488 2562 2560 2485 2559 2626
8 2491 2411 2490 2563 2562 2488 2561 2627
8 2513 2434 2512 2585 2565 2493 2564 2630
8 2586 2513 2565 2632 2515 2438 2494 2567
8 2565 2493 2566 2633 2494 2416 2495 2568
8 2567 2494 2568 2635 2496 2417 2497 2570
8 2568 2495 2569 2636 2497 2418 2498 2571
8 2570 2497 2571 2638 2499 2420 2500 2573
8 2571 2498 2572 2639 2500 2421 2501 2574
8 2573 2500 2574 2641 2502 2423 2503 2576
8 2574 2501 2575 2642 2503 2424 2504 2577
8 2576 2503 2577 2643 2505 2426 2506 2578
8 2597 2528 2579 2645 2529 2454 2508 2580
8 2580 2508 2579 2645 2525 2448 2522 2593
8 2581 2509 2455 2530 2646 2580 2529 2598
8 2581 2509 2580 2646 2526 2449 2525 2595
8 2583 2511 2582 2648 2513 2434 2512 2585
8 2583 2511 2439 2516 2648 2582 2517 2589
8 2649 2583 2513 2586 2588 2516 2438 2515
8 2589 2517 2444 2520 2653 2587 2521 2592
8 2518 2442 2520 2591 2588 2516 2589 2654
8 2593 2522 2590 2655 2523 2445 2521 2592
8 2524 2446 2523 2594 2591 2520 2592 2656
8 2595 2525 2593 2657 2527 2452 2523 2594
8 2602 2536 2596 2659 2534 2462 2528 2597
8 2600 2534 2597 2660 2532 2460 2529 2598
8 2600 2534 2460 2532 2661 2601 2533 2599
8 2604 2538 2601 2661 2537 2464 2533 2599
8 2602 2536 2462 2534 2663 2603 2535 2601
8 2601 2535 2465 2538 2663 2603 2539 2605
8 2607 2541 2605 2665 2540 2467 2538 2604
8 2608 2542 2606 2666 2541 2468 2539 2605
8 2543 2470 2544 2610 2607 2541 2608 2668
8 2544 2471 2545 2611 2608 2542 2609 2669
8 2546 2473 2547 2613 2610 2544 2611 2671
8 2547 2474 2548 2614 2611 2545 2612 2672
8 2549 2476 2550 2616 2613 2547 2614 2674
8 2550 2477 2551 2617 2614 2548 2615 2675
8 2552 2479 2553 2619 2616 2550 2617 2677
8 2553 2480 2554 2620 2617 2551 2618 2678
8 2557 2482 2556 2624 2619 2553 2620 2680
8 2556 2481 2555 2623 2620 2554 2621 2681
8 2559 2484 2558 2625 2623 2555 2622 2683
8 2560 2485 2559 2626 2624 2556 2623 2684
8 2562 2488 2561 2627 2626 2559 2625 2685
8 2690 2629 2564 2630 2650 2584 2512 2585
8 2586 2513 2585 2651 2632 2565 2630 2691
8 2630 2564 2631 2692 2565 2493 2566 2633
8 2632 2565 2633 2694 2567 2494 2568 2635
8 2633 2566 2634 2695 2568 2495 2569 2636
8 2635 2568 2636 2697 2570 2497 2571 2638
8 2636 2569 2637 2698 2571 2498 2572 2639
8 2638 2571 2639 2700 2573 2500 2574 2641
8 2639 2572 2640 2701 2574 2501 2575 2642
8 2641 2574 2642 2702 2576 2503 2577 2643
8 2597 2528 2596 2659 2645 2579 2644 2704
8 2645 2579 2644 2704 2593 2522 2590 2655
8 2660 2597 2645 2705 2598 2529 2580 2646
8 2646 2580 2645 2705 2595 2525 2593 2657
8 2650 2584 2512 2585 2707 2647 2582 2648
8 2648 2582 2517 2589 2707 2647 2587 2653
8 2649 2583 2648 2708 2586 2513 2585 2651
8 2649 2583 2516 2588 2708 2648 2589 2654
8 2655 2590 2652 2710 2592 2521 2587 2653
8 2654 2589 2520 2591 2711 2653 2592 2656
8 2657 2593 2655 2712 2594 2523 2592 2656
8 2602 2536 2603 2663 2659 2596 2658 2714
8 2662 2602 2659 2715 2600 2534 2597 2660
8 2662 2602 2534 2600 2717 2663 2601 2661
8 2661 2601 2538 2604 2717 2663 2605 2665
8 2666 2606 2664 2718 2605 2539 2603 2663
8 2668 2608 2666 2720 2607 2541 2605 2665
8 2608 2542 2609 2669 2666 2606 2667 2721
8 2610 2544 2611 2671 2668 2608 2669 2723
8 2611 2545 2612 2672 2669 2609 2670 2724
8 2613 2547 2614 2674 2671 2611 2672 2726
8 2614 2548 2615 2675 2672 2612 2673 2727
8 2616 2550 2617 2677 2674 2614 2675 2729
8 2617 2551 2618 2678 2675 2615 2676 2730
8 2619 2553 2620 2680 2677 2617 2678 2732
8 2620 2554 2621 2681 2678 2618 2679 2733
8 2624 2556 2623 2684 2680 2620 2681 2735
8 2681 2621 2555 2623 2736 2682 2622 2683
8 2626 2559 2625 2685 2684 2623 2683 2737
8 2688 2628 2584 2650 2740 2686 2647 2707
8 2688 2628 2687 2742 2650 2584 2629 2690
8 2690 2629 2689 2745 2630 2564 2631 2692
8 2746 2690 2630 2691 2709 2650 2585 2651
8 2691 2630 2692 2747 2632 2565 2633 2694
8 2692 2631 2693 2748 2633 2566 2634 2695
8 2694 2633 2695 2750 2635 2568 2636 2697
8 2695 2634 2696 2751 2636 2569 2637 2698
8 2697 2636 2698 2753 2638 2571 2639 2700
8 2698 2637 2699 2754 2639 2572 2640 2701
8 2700 2639 2701 2755 2641 2574 2642 2702
8 2659 2596 2658 2714 2704 2644 2703 2757
8 2704 2644 2703 2757 2655 2590 2652 2710
8 2660 2597 2659 2715 2705 2645 2704 2758
8 2705 2645 2704 2758 2657 2593 2655 2712
8 2759 2706 2647 2707 2710 2652 2587 2653
8 2709 2650 2585 2651 2760 2707 2648 2708
8 2708 2648 2589 2654 2760 2707 2653 2711
8 2712 2655 2710 2761 2656 2592 2653 2711
8 2763 2713 2658 2714 2718 2664 2603 2663
8 2662 2602 2663 2717 2715 2659 2714 2764
8 2720 2666 2718 2767 2665 2605 2663 2717
8 2768 2719 2664 2718 2721 2667 2606 2666
8 2668 2608 2669 2723 2720 2666 2721 2770
8 2669 2609 2670 2724 2721 2667 2722 2771
8 2671 2611 2672 2726 2723 2669 2724 2773
8 2672 2612 2673 2727 2724 2670 2725 2774
8 2674 2614 2675 2729 2726 2672 2727 2776
8 2675 2615 2676 2730 2727 2673 2728 2777
8 2677 2617 2678 2732 2729 2675 2730 2779
8 2678 2618 2679 2733 2730 2676 2731 2780
8 2680 2620 2681 2735 2732 2678 2733 2782
8 2733 2679 2621 2681 2783 2734 2682 2736
8 2735 2681 2623 2684 2784 2736 2683 2737
8 2740 2686 2647 2707 2787 2738 2706 2759
8 2688 2628 2686 2740 2742 2687 2739 2789
8 2743 2688 2650 2709 2790 2740 2707 2760
8 2742 2687 2741 2792 2690 2629 2689 2745
8 2743 2688 2742 2793 2709 2650 2690 2746
8 2745 2689 2744 2795 2692 2631 2693 2748
8 2746 2690 2745 2796 2691 2630 2692 2747
8 2747 2692 2748 2797 2694 2633 2695 2750
8 2748 2693 2749 2798 2695 2634 2696 2751
8 2750 2695 2751 2800 2697 2636 2698 2753
8 2751 2696 2752 2801 2698 2637 2699 2754
8 2753 2698 2754 2802 2700 2639 2701 2755
8 2763 2713 2756 2804 2714 2658 2703 2757
8 2759 2706 2652 2710 2804 2756 2703 2757
8 2715 2659 2714 2764 2758 2704 2757 2805
8 2758 2704 2757 2805 2712 2655 2710 2761
8 2806 2759 2707 2760 2761 2710 2653 2711
8 2765 2716 2762 2808 2718 2664 2713 2763
8 2809 2763 2714 2764 2767 2718 2663 2717
8 2765 2716 2664 2718 2811 2766 2719 2768
8 2813 2768 2718 2767 2770 2721 2666 2720
8 2814 2769 2719 2768 2771 2722 2667 2721
8 2723 2669 2724 2773 2770 2721 2771 2816
8 2724 2670 2725 2774 2771 2722 2772 2817
8 2726 2672 2727 2776 2773 2724 2774 2819
8 2727 2673 2728 2777 2774 2725 2775 2820
8 2729 2675 2730 2779 2776 2727 2777 2822
8 2730 2676 2731 2780 2777 2728 2778 2823
8 2732 2678 2733 2782 2779 2730 2780 2825
8 2780 2731 2679 2733 2826 2781 2734 2783
8 2782 2733 2681 2735 2827 2783 2736 2784
8 2830 2785 2738 2787 2804 2756 2706 2759
8 2789 2739 2686 2740 2832 2786 2738 2787
8 2790 2740 2707 2760 2833 2787 2759 2806
8 2742 2687 2739 2789 2792 2741 2788 2835
8 2743 2688 2740 2790 2793 2742 2789 2836
8 2792 2741 2791 2838 2745 2689 2744 2795
8 2793 2742 2792 2839 2746 2690 2745 2796
8 2795 2744 2794 2841 2748 2693 2749 2798
8 2796 2745 2795 2842 2747 2692 2748 2797
8 2797 2748 2798 2843 2750 2695 2751 2800
8 2798 2749 2799 2844 2751 2696 2752 2801
8 2800 2751 2801 2845 2753 2698 2754 2802
8 2808 2762 2803 2847 2763 2713 2756 2804
8 2809 2763 2804 2848 2764 2714 2757 2805
8 2806 2759 2710 2761 2848 2804 2757 2805
8 2765 2716 2766 2811 2808 2762 2807 2850
8 2810 2765 2808 2851 2767 2718 2763 2809
8 2810 2765 2718 2767 2852 2811 2768 2813
8 2811 2766 2719 2768 2853 2812 2769 2814
8 2855 2814 2768 2813 2816 2771 2721 2770
8 2856 2815 2769 2814 2817 2772 2722 2771
8 2773 2724 2774 2819 2816 2771 2817 2858
8 2774 2725 2775 2820 2817 2772 2818 2859
8 2776 2727 2777 2822 2819 2774 2820 2861
8 2777 2728 2778 2823 2820 2775 2821 2862
8 2779 2730 2780 2825 2822 2777 2823 2864
8 2823 2778 2731 2780 2865 2824 2781 2826
8 2825 2780 2733 2782 2866 2826 2783 2827
8 2869 2828 2785 2830 2847 2803 2756 2804
8 2871 2829 2786 2832 2830 2785 2738 2787
8 2872 2830 2787 2833 2848 2804 2759 2806
8 2789 2739 2786 2832 2835 2788 2831 2874
8 2836 2789 2740 2790 2875 2832 2787 2833
8 2792 2741 2788 2835 2838 2791 2834 2877
8 2793 2742 2789 2836 2839 2792 2835 2878
8 2838 2791 2837 2880 2795 2744 2794 2841
8 2839 2792 2838 2881 2796 2745 2795 2842
8 2841 2794 2840 2882 2798 2749 2799 2844
8 2842 2795 2841 2883 2797 2748 2798 2843
8 2843 2798 2844 2884 2800 2751 2801 2845
8 2886 2846 2803 2847 2850 2807 2762 2808
8 2851 2808 2847 2887 2809 2763 2804 2848
8 2850 2807 2766 2811 2889 2849 2812 2853
8 2810 2765 2811 2852 2851 2808 2850 2890
8 2852 2811 2768 2813 2891 2853 2814 2855
8 2853 2812 2769 2814 2892 2854 2815 2856
8 2894 2856 2814 2855 2858 2817 2771 2816
8 2817 2772 2818 2859 2856 2815 2857 2895
8 2819 2774 2820 2861 2858 2817 2859 2897
8 2820 2775 2821 2862 2859 2818 2860 2898
8 2822 2777 2823 2864 2861 2820 2862 2900
8 2823 2778 2824 2865 2862 2821 2863 2901
8 2864 2823 2780 2825 2902 2865 2826 2866
8 2904 2867 2828 2869 2886 2846 2803 2847
8 2869 2828 2868 2906 2830 2785 2829 2871
8 2907 2869 2830 2872 2887 2847 2804 2848
8 2871 2829 2870 2909 2832 2786 2831 2874
8 2910 2871 2832 2875 2872 2830 2787 2833
8 2835 2788 2831 2874 2877 2834 2873 2912
8 2836 2789 2832 2875 2878 2835 2874 2913
8 2877 2834 2876 2915 2838 2791 2837 2880
8 2839 2792 2835 2878 2881 2838 2877 2916
8 2880 2837 2879 2917 2841 2794 2840 2882
8 2881 2838 2880 2918 2842 2795 2841 2883
8 2883 2841 2882 2919 2843 2798 2844 2884
8 2921 2885 2846 2886 2889 2849 2807 2850
8 2922 2886 2847 2887 2890 2850 2808 2851
8 2889 2849 2812 2853 2924 2888 2854 2892
8 2890 2850 2811 2852 2925 2889 2853 2891
8 2891 2853 2814 2855 2926 2892 2856 2894
8 2892 2854 2815 2856 2927 2893 2857 2895
8 2858 2817 2859 2897 2894 2856 2895 2929
8 2859 2818 2860 2898 2895 2857 2896 2930
8 2861 2820 2862 2900 2897 2859 2898 2932
8 2862 2821 2863 2901 2898 2860 2899 2933
8 2864 2823 2865 2902 2900 2862 2901 2934
8 2904 2867 2846 2886 2936 2903 2885 2921
8 2904 2867 2903 2936 2869 2828 2868 2906
8 2937 2904 2869 2907 2922 2886 2847 2887
8 2906 2868 2905 2939 2871 2829 2870 2909
8 2907 2869 2906 2940 2872 2830 2871 2910
8 2909 2870 2908 2942 2874 2831 2873 2912
8 2910 2871 2909 2943 2875 2832 2874 2913
8 2912 2873 2911 2945 2877 2834 2876 2915
8 2878 2835 2874 2913 2916 2877 2912 2946
8 2915 2876 2914 2947 2880 2837 2879 2917
8 2916 2877 2915 2948 2881 2838 2880 2918
8 2918 2880 2917 2949 2883 2841 2882 2919
8 2921 2885 2849 2889 2951 2920 2888 2924
8 2952 2921 2886 2922 2925 2889 2850 2890
8 2924 2888 2854 2892 2954 2923 2893 2927
8 2925 2889 2853 2891 2955 2924 2892 2926
8 2926 2892 2856 2894 2956 2927 2895 2929
8 2895 2857 2896 2930 2927 2893 2928 2957
8 2897 2859 2898 2932 2929 2895 2930 2959
8 2898 2860 2899 2933 2930 2896 2931 2960
8 2900 2862 2901 2934 2932 2898 2933 2961
8 2936 2903 2885 2921 2963 2935 2920 2951
8 2936 2903 2935 2963 2906 2868 2905 2939
8 2937 2904 2886 2922 2964 2936 2921 2952
8 2937 2904 2936 2964 2907 2869 2906 2940
8 2939 2905 2938 2966 2909 2870 2908 2942
8 2940 2906 2939 2967 2910 2871 2909 2943
8 2942 2908 2941 2969 2912 2873 2911 2945
8 2943 2909 2942 2970 2913 2874 2912 2946
8 2945 2911 2944 2971 2915 2876 2914 2947
8 2946 2912 2945 2972 2916 2877 2915 2948
8 2948 2915 2947 2973 2918 2880 2917 2949
8 2951 2920 2888 2924 2975 2950 2923 2954
8 2952 2921 2889 2925 2976 2951 2924 2955
8 2927 2893 2928 2957 2954 2923 2953 2978
8 2955 2924 2892 2926 2979 2954 2927 2956
8 2929 2895 2930 2959 2956 2927 2957 2980
8 2930 2896 2931 2960 2957 2928 2958 2981
8 2932 2898 2933 2961 2959 2930 2960 2982
8 2951 2920 2950 2975 2963 2935 2962 2984
8 2963 2935 2962 2984 2939 2905 2938 2966
8 2964 2936 2921 2952 2985 2963 2951 2976
8 2964 2936 2963 2985 2940 2906 2939 2967
8 2966 2938 2965 2987 2942 2908 2941 2969
8 2967 2939 2966 2988 2943 2909 2942 2970
8 2969 2941 2968 2989 2945 2911 2944 2971
8 2970 2942 2969 2990 2946 2912 2945 2972
8 2972 2945 2971 2991 2948 2915 2947 2973
8 2954 2923 2953 2978 2975 2950 2974 2993
8 2976 2951 2924 2955 2994 2975 2954 2979
8 2957 2928 2958 2981 2978 2953 2977 2995
8 2956 2927 2957 2980 2979 2954 2978 2996
8 2959 2930 2960 2982 2980 2957 2981 2997
8 2984 2962 2983 2999 2966 2938 2965 2987
8 2975 2950 2974 2993 2984 2962 2983 2999
8 2976 2951 2975 2994 2985 2963 2984 3000
8 2985 2963 2984 3000 2967 2939 2966 2988
8 2987 2965 2986 3001 2969 2941 2968 2989
8 2988 2966 2987 3002 2970 2942 2969 2990
8 2990 2969 2989 3003 2972 2945 2971 2991
8 2978 2953 2977 2995 2993 2974 2992 3004
8 2979 2954 2978 2996 2994 2975 2993 3005
8 2980 2957 2981 2997 2996 2978 2995 3006
8 2974 2993 2999 2983 2992 3004 3007 2998
8 2983 2999 2987 2965 2998 3007 3001 2986
8 3000 2984 2999 3008 2988 2966 2987 3002
8 2994 2975 2993 3005 3000 2984 2999 3008
8 3002 2987 3001 3009 2990 2969 2989 3003
8 2996 2978 2995 3006 3005 2993 3004 3010
8 3005 2993 3004 3010 3008 2999 3007 3011
8 3008 2999 3007 3011 3002 2987 3001 3009

CELL_TYPES 1910
12
12
12
12
12
12
12
12
12
12
12
12
12
12
12
12
12
12
12
12
12
12
12
12
12
12
12
12
12
12
12
12
12
12
12
12
12
12
12
12
12
12
12
12
12
12
12
12
12
12
12
12
12
12
12
12
12
12
12
12
12
12
12
12
12
12
12
12
12
12
12
12
12
12
12
12
12
12
12
12
12
12
12
12
12
12
12
12
12
12
12
12
12
12
12
12
12
12
12
12
12
12
12
12
12
12
12
12
12
12
12
12
12
12
12
12
12
12
12
12
12
12
12
12
12
12
12
12
12
12
12
12
12
12
12
12
12
12
12
12
12
12
12
12
12
12
12
12
12
12
12
12
12
12
12
12
12
12
12
12
12
12
12
12
12
12
12
12
12
12
12
12
12
12
12
12
12
12
12
12
12
12
12
12
12
12
12
12
12
12
12
12
12
12
12
12
12
12
12
12
12
12
12
12
12
12
12
12
12
12
12
12
12
12
12
12
12
12
12
12
12
12
12
12
12
12
12
12
12
12
12
12
12
12
12
12
12
12
12
12
12
12
12
12
12
12
12
12
12
12
12
12
12
12
12
12
12
12
12
12
12
12
12
12
12
12
12
12
12
12
12
12
12
12
12
12
12
12
12
12
12
12
12
12
12
12
12
12
12
12
12
12
12
12
12
12
12
12
12
12
12
12
12
12
12
12
12
12
12
12
12
12
12
12
12
12
12
12
12
12
12
12
12
12
12
12
12
12
12
12
12
12
12
12
12
12
12
12
12
12
12
12
12
12
12
12
12
12
12
12
12
12
12
12
12
12
12
12
12
12
12
12
12
12
12
12
12
12
12
12
12
12
12
12
12
12
12
12
12
12
12
12
12
12
12
12
12
12
12
12
12
12
12
12
12
12
12
12
12
12
12
12
12
12
12
12
12
12
12
12
12
12
12
12
12
12
12
12
12
12
12
12
12
12
12
12
12
12
12
12
12
12
12
12
12
12
12
12
12
12
12
12
12
12
12
12
12
12
12
12
12
12
12
12
12
12
12
12
12
12
12
12
12
12
12
12
12
12
12
12
12
12
12
12
12
12
12
12
12
12
12
12
12
12
12
12
12
12
12
12
12
12
12
12
12
12
12
12
12
12
12
12
12
12
12
12
12
12
12
12
12
12
12
12
12
12
12
12
12
12
12
12
12
12
12
12
12
12
12
12
12
12
12
12
12
12
12
12
12
12
12
12
12
12
12
12
12
12
12
12
12
12
12
12
12
12
12
12
12
12
12
12
12
12
12
12
12
12
12
12
12
12
12
12
12
12
12
12
12
12
12
12
12
12
12
12
12
12
12
12
12
12
12
12
12
12
12
12
12
12
12
12
12
12
12
12
12
12
12
12
12
12
12
12
12
12
12
12
12
12
12
12
12
12
12
12
12
12
12
12
12
12
12
12
12
12
12
12
12
12
12
12
12
12
12
12
12
12
12
12
12
12
12
12
12
12
12
12
12
12
12
12
12
12
12
12
12
12
12
12
12
12
12
12
12
12
12
12
12
12
12
12
12
12
12
12
12
12
12
12
12
12
12
12
12
12
12
12
12
12
12
12
12
12
12
12
12
12
12
12
12
12
12
12
12
12
12
12
12
12
12
12
12
12
12
12
12
12
12
12
12
12
12
12
12
12
12
12
12
12
12
12
12
12
12
12
12
12
12
12
12
12
12
12
12
12
12
12
12
12
12
12
12
12
12
12
12
12
12
12
12
12
12
12
12
12
12
12
12
12
12
12
12
12
12
12
12
12
12
12
12
12
12
12
12
12
12
12
12
12
12
12
12
12
12
12
12
12
12
12
12
12
12
12
12
12
12
12
12
12
12
12
12
12
12
12
12
12
12
12
12
12
12
12
12
12
12
12
12
12
12
12
12
12
12
12
12
12
12
12
12
12
12
12
12
12
12
12
12
12
12
12
12
12
12
12
12
12
12
12
12
12
12
12
12
12
12
12
12
12
12
12
12
12
12
12
12
12
12
12
12
12
12
12
12
12
12
12
12
12
12
12
12
12
12
12
12
12
12
12
12
12
12
12
12
12
12
12
12
12
12
12
12
12
12
12
12
12
12
12
12
12
12
12
12
12
12
12
12
12
12
12
12
12
12
12
12
12
12
12
12
12
12
12
12
12
12
12
12
12
12
12
12
12
12
12
12
12
12
12
12
12
12
12
12
12
12
12
12
12
12
12
12
12
12
12
12
12
12
12
12
12
12
12
12
12
12
12
12
12
12
12
12
12
12
12
12
12
12
12
12
12
12
12
12
12
12
12
12
12
12
12
12
12
12
12
12
12
12
12
12
12
12
12
12
12
12
12
12
12
12
12
12
12
12
12
12
12
12
12
12
12
12
12
12
12
12
12
12
12
12
12
12
12
12
12
12
12
12
12
12
12
12
12
12
12
12
12
12
12
12
12
12
12
12
12
12
12
12
12
12
12
12
12
12
12
12
12
12
12
12
12
12
12
12
12
12
12
12
12
12
12
12
12
12
12
12
12
12
12
12
12
12
12
12
12
12
12
12
12
12
12
12
12
12
12
12
12
12
12
12
12
12
12
12
12
12
12
12
12
12
12
12
12
12
12
12
12
12
12
12
12
12
12
12
12
12
12
12
12
12
12
12
12
12
12
12
12
12
12
12
12
12
12
12
12
12
12
12
12
12
12
12
12
12
12
12
12
12
12
12
12
12
12
12
12
12
12
12
12
12
12
12
12
12
12
12
12
12
12
12
12
12
12
12
12
12
12
12
12
12
12
12
12
12
12
12
12
12
12
12
12
12
12
12
12
12
12
12
12
12
12
12
12
12
12
12
12
12
12
12
12
12
12
12
12
12
12
12
12
12
12
12
12
12
12
12
12
12
12
12
12
12
12
12
12
12
12
12
12
12
12
12
12
12
12
12
12
12
12
12
12
12
12
12
12
12
12
12
12
12
12
12
12
12
12
12
12
12
12
12
12
12
12
12
12
12
12
12
12
12
12
12
12
12
12
12
12
12
12
12
12
12
12
12
12
12
12
12
12
12
12
12
12
12
12
12
12
12
12
12
12
12
12
12
12
12
12
12
12
12
12
12
12
12
12
12
12
12
12
12
12
12
12
12
12
12
12
12
12
12
12
12
12
12
12
12
12
12
12
12
12
12
12
12
12
12
12
12
12
12
12
12
12
12
12
12
12
12
12
12
12
12
12
12
12
12
12
12
12
12
12
12
12
12
12
12
12
12
12
12
12
12
12
12
12
12
12
12
12
12
12
12
12
12
12
12
12
12
12
12
12
12
12
12
12
12
12
12
12
12
12
12
12
12
12
12
12
12
12
12
12
12
12
12
12
12
12
12
12
12
12
12
12
12
12
12
12
12
12
12
12
12
12
12
12
12
12
12
12
12
12
12
12
12
12
12
12
12
12
12
12
12
12
12
12
12
12
12
12
12
12
12
12
12
12
12
12
12
12
12
12
12
12
12
12
12
12
12
12
12
12
12
12
12
12
12
12
12
12
12
12
12
12
12
12
12
12
12
12
12
12
12
12
12
12
12
12
12
12
12
12
12
12
12
12
12
12
12
12
12
12
12
12
12
12
12
12
12
12
12
12
12
12
12
12
12
12
12
12
12
12
12
12
12
12
12
12
12
12
12
12
12
12
12
12
12
12
12
12
12
12
12
12
12
12
12
12
12
12
12
12
12
12
12
12
12
12
12
12
12
12
12
12
12
12
12
12
12
12
12
12
12
12
12
12
12
12
12
12
12
12
12
12
12
12
12
12
12
12
12
12
12
12
12
12
12
12
12
12
12
12
12
12
12
12
12
12
12
12
12
12
12
12
12
12
12
12
12
12
12
12
12
12
12
12
12
12
12
12
12
12
12
12
12
12
12
12
12
12
12
12
12
12
12
12
12
12
12
12
12
12
12
12
12
12
12
12
12
12
12
12
12
12
12
12
12
12
12
12
12
12
12
12
12
12
12
12
12
12
12
12
12
12
12
12
12
12
12
12
12
12
12
12
12
12
12
12
12
12
12
12
12
12
12
12
12
12
12
12
12
12
12
12
12
12
12
12
12
12
12
12
12
12
12
12
12
12
12
12
12
12
12
12
12
12
12
12
12
12
12
12
12
12
12
12
12
12
12
12
12
12
12
12
12
12
12
12
12
12
12
12
12
12
12
12
12
12
12
12
12
12
12
12
12
12
12
12
12
12
12
12
12
12
12
12
12
12
12
12
12
12
12
12
12
12
12
12
12
12
12
12
12
12
12
12
12
12
12
12
12
12
12
12
12
12
12
12
12
12

POINT_DATA 3012
SCALARS Jp_lamdaP float 4
LOOKUP_TABLE default
1 1 1 1
1 1 1 1
1 1 1 1
1 1 1 1
1 1 1 1
1 1 1 1
0.99998 1 1 0.99998
1 1 1 1
1 1 1 1
1 1 1 1
1 1 1 1
1 1 1 1
1 1 1 1
1 1 1 1
1 1 1 1
1 1 1 1
1 1 1 1
1 1 1 1
0.999981 1 1 0.999981
1 1 1 1
1 1 1 1
1 1 1 1
0.999957 1 1 0.999957
0.999974 1 1 0.999974
1 1 1 1
0.999986 1 1 0.999986
0.999924 1 1 0.999924
1 1 1 1
1 1 1 1
1 1 1 1
1 1 1 1
1 1 1 1
1 1 1 1
1 1 1 1
0.999991 1 1 0.999991
1 1 1 1
0.999999 1 1 0.999999
1 1 1 1
0.99994 1 1 0.99994
1 1 1 1
1 1 1 1
1 1 1 1
1 1 1 1
1 1 1 1
0.99997 1 1 0.99997
1 1 1 1
0.999979 1 1 0.999979
1 1 1 1
1 1 1 1
1 1 1 1
0.999981 1 1 0.999981
1 1 1 1
1 1 1 1
1 1 1 1
1 1 1 1
0.999957 1 1 0.999957
0.999987 1 1 0.999987
0.999974 1 1 0.999974
0.999922 1 1 0.999922
1 1 1 1
1 1 1 1
0.999972 1 1 0.999972
0.99995 1 1 0.99995
0.999966 1 1 0.999966
0.999867 1 1 0.999867
0.999899 1 1 0.999899
1 1 1 1
0.99999 1 1 0.99999
0.999939 1 1 0.999939
0.999826 1 1 0.999826
1 1 1 1
1 1 1 1
1 1 1 1
1 1 1 1
1 1 1 1
1 1 1 1
0.999992 1 1 0.999992
1 1 1 1
0.999999 1 1 0.999999
1 1 1 1
0.99994 1 1 0.99994
1 1 1 1
1 1 1 1
0.999986 1 1 0.999986
0.999996 1 1 0.999996
0.999891 1 1 0.999891
1 1 1 1
0.999931 1 1 0.999931
0.99995 1 1 0.99995
0.999864 1 1 0.999864
1 1 1 1
1 1 1 1
1 1 1 1
1 1 1 1
1 1 1 1
1 1 1 1
0.999971 1 1 0.999971
1 1 1 1
0.99998 1 1 0.99998
1 1 1 1
0.999967 1 1 0.999967
0.999975 1 1 0.999975
0.999823 1 1 0.999823
0.999982 1 1 0.999982
0.999844 1 1 0.999844
1 1 1 1
1 1 1 1
1 1 1 1
1 1 1 1
0.999958 1 1 0.999958
0.999975 1 1 0.999975
0.999987 1 1 0.999987
0.99992 1 1 0.99992
1 1 1 1
1 1 1 1
0.999959 1 1 0.999959
0.99995 1 1 0.99995
1 1 1 1
0.999995 1 1 0.999995
0.999967 1 1 0.999967
0.999861 1 1 0.999861
0.999937 1 1 0.999937
0.999903 1 1 0.999903
0.999827 1 1 0.999827
0.999969 1 1 0.999969
0.999949 1 1 0.999949
0.999832 1 1 0.999832
0.999843 1 1 0.999843
0.999879 1 1 0.999879
0.999776 1 1 0.999776
1 1 1 1
0.999816 1 1 0.999816
1 1 1 1
0.999944 1 1 0.999944
0.999838 1 1 0.999838
0.999788 1 1 0.999788
1 1 1 1
0.999959 1 1 0.999959
1 1 1 1
1 1 1 1
0.999994 1 1 0.999994
1 1 1 1
1 1 1 1
1 1 1 1
0.999941 1 1 0.999941
1 1 1 1
1 1 1 1
0.999987 1 1 0.999987
0.999997 1 1 0.999997
0.999891 1 1 0.999891
1 1 1 1
0.999931 1 1 0.999931
0.999951 1 1 0.999951
0.999861 1 1 0.999861
1 1 1 1
1 1 1 1
0.999967 1 1 0.999967
0.999871 1 1 0.999871
0.999914 1 1 0.999914
0.999809 1 1 0.999809
0.99996 1 1 0.99996
0.999852 1 1 0.999852
0.99987 1 1 0.99987
0.999829 1 1 0.999829
1 1 1 1
1 1 1 1
1 1 1 1
1 1 1 1
1 1 1 1
1 1 1 1
1 1 1 1
0.999981 1 1 0.999981
0.999973 1 1 0.999973
1 1 1 1
1 1 1 1
0.999967 1 1 0.999967
0.999976 1 1 0.999976
0.999823 1 1 0.999823
0.999983 1 1 0.999983
0.999844 1 1 0.999844
0.999967 1 1 0.999967
0.999815 1 1 0.999815
0.999834 1 1 0.999834
0.99975 1 1 0.99975
0.999856 1 1 0.999856
0.99977 1 1 0.99977
1 1 1 1
1 1 1 1
0.999946 1 1 0.999946
0.999951 1 1 0.999951
1 1 1 1
1 1 1 1
0.999967 1 1 0.999967
0.999855 1 1 0.999855
0.999908 1 1 0.999908
0.999935 1 1 0.999935
0.999827 1 1 0.999827
0.999968 1 1 0.999968
0.999949 1 1 0.999949
0.99982 1 1 0.99982
0.999847 1 1 0.999847
1 1 1 1
1 1 1 1
0.999947 1 1 0.999947
0.999879 1 1 0.999879
0.999769 1 1 0.999769
0.999836 1 1 0.999836
0.99982 1 1 0.99982
0.999789 1 1 0.999789
1 1 1 1
0.99996 1 1 0.99996
0.999816 1 1 0.999816
0.999835 1 1 0.999835
0.99975 1 1 0.99975
0.999745 1 1 0.999745
0.999804 1 1 0.999804
0.99974 1 1 0.99974
1 1 1 1
0.999781 1 1 0.999781
0.999952 1 1 0.999952
0.999852 1 1 0.999852
0.999798 1 1 0.999798
0.999778 1 1 0.999778
0.999957 1 1 0.999957
0.999966 1 1 0.999966
0.999867 1 1 0.999867
0.999988 1 1 0.999988
1 1 1 1
1 1 1 1
0.999998 1 1 0.999998
0.999892 1 1 0.999892
1 1 1 1
0.999951 1 1 0.999951
0.999931 1 1 0.999931
0.999858 1 1 0.999858
1 1 1 1
1 1 1 1
0.999966 1 1 0.999966
0.999871 1 1 0.999871
0.999915 1 1 0.999915
0.999809 1 1 0.999809
0.99996 1 1 0.99996
0.999855 1 1 0.999855
0.999869 1 1 0.999869
0.999825 1 1 0.999825
1 1 1 1
0.999965 1 1 0.999965
0.99997 1 1 0.99997
0.99988 1 1 0.99988
0.999792 1 1 0.999792
0.999835 1 1 0.999835
0.999769 1 1 0.999769
0.999877 1 1 0.999877
0.999817 1 1 0.999817
0.999818 1 1 0.999818
0.9998 1 1 0.9998
0.999986 1 1 0.999986
1 1 1 1
1 1 1 1
1 1 1 1
1 1 1 1
1 1 1 1
1 1 1 1
1 1 1 1
1 1 1 1
0.999984 1 1 0.999984
0.999978 1 1 0.999978
0.999844 1 1 0.999844
0.999823 1 1 0.999823
0.999968 1 1 0.999968
1 1 1 1
0.999966 1 1 0.999966
0.999815 1 1 0.999815
0.999834 1 1 0.999834
0.99975 1 1 0.99975
0.999856 1 1 0.999856
0.99977 1 1 0.99977
0.999813 1 1 0.999813
0.999744 1 1 0.999744
0.999759 1 1 0.999759
0.999726 1 1 0.999726
0.999781 1 1 0.999781
0.999744 1 1 0.999744
0.999967 1 1 0.999967
0.999949 1 1 0.999949
0.999808 1 1 0.999808
0.999851 1 1 0.999851
1 1 1 1
1 1 1 1
0.99995 1 1 0.99995
0.99988 1 1 0.99988
0.999762 1 1 0.999762
0.999824 1 1 0.999824
0.999834 1 1 0.999834
0.999789 1 1 0.999789
1 1 1 1
0.99996 1 1 0.99996
0.999811 1 1 0.999811
0.999835 1 1 0.999835
0.999749 1 1 0.999749
0.999753 1 1 0.999753
1 1 1 1
0.999952 1 1 0.999952
0.999857 1 1 0.999857
0.999804 1 1 0.999804
0.999738 1 1 0.999738
0.999793 1 1 0.999793
0.999782 1 1 0.999782
0.999777 1 1 0.999777
0.999958 1 1 0.999958
0.999864 1 1 0.999864
0.999966 1 1 0.999966
0.999751 1 1 0.999751
0.999746 1 1 0.999746
0.999713 1 1 0.999713
0.999715 1 1 0.999715
0.999768 1 1 0.999768
0.999739 1 1 0.999739
0.999956 1 1 0.999956
0.999775 1 1 0.999775
0.999872 1 1 0.999872
0.999803 1 1 0.999803
0.999767 1 1 0.999767
0.999789 1 1 0.999789
0.999976 1 1 0.999976
0.999872 1 1 0.999872
0.999857 1 1 0.999857
0.999825 1 1 0.999825
0.999871 1 1 0.999871
1 1 1 1
1 1 1 1
0.999966 1 1 0.999966
0.999915 1 1 0.999915
0.999809 1 1 0.999809
0.999961 1 1 0.999961
0.999868 1 1 0.999868
0.999857 1 1 0.999857
0.999821 1 1 0.999821
1 1 1 1
0.999964 1 1 0.999964
0.99997 1 1 0.99997
0.99988 1 1 0.99988
0.999791 1 1 0.999791
0.999836 1 1 0.999836
0.999769 1 1 0.999769
0.999877 1 1 0.999877
0.999821 1 1 0.999821
0.999817 1 1 0.999817
0.999807 1 1 0.999807
1 1 1 1
0.999974 1 1 0.999974
0.999881 1 1 0.999881
0.999881 1 1 0.999881
0.999824 1 1 0.999824
0.999758 1 1 0.999758
0.999795 1 1 0.999795
0.999754 1 1 0.999754
0.999822 1 1 0.999822
0.999796 1 1 0.999796
0.999768 1 1 0.999768
0.999983 1 1 0.999983
0.999905 1 1 0.999905
0.999989 1 1 0.999989
0.999987 1 1 0.999987
1 1 1 1
1 1 1 1
1 1 1 1
1 1 1 1
1 1 1 1
1 1 1 1
1 1 1 1
1 1 1 1
1 1 1 1
1 1 1 1
1 1 1 1
0.999856 1 1 0.999856
0.999834 1 1 0.999834
0.999771 1 1 0.999771
0.99975 1 1 0.99975
0.999815 1 1 0.999815
0.999966 1 1 0.999966
0.999813 1 1 0.999813
0.999744 1 1 0.999744
0.999759 1 1 0.999759
0.999726 1 1 0.999726
0.999781 1 1 0.999781
0.999745 1 1 0.999745
0.999742 1 1 0.999742
0.999725 1 1 0.999725
0.999732 1 1 0.999732
0.999719 1 1 0.999719
0.999755 1 1 0.999755
0.999752 1 1 0.999752
0.999806 1 1 0.999806
0.999835 1 1 0.999835
0.999747 1 1 0.999747
0.999761 1 1 0.999761
1 1 1 1
0.999951 1 1 0.999951
0.999861 1 1 0.999861
0.999805 1 1 0.999805
0.999736 1 1 0.999736
0.999782 1 1 0.999782
0.999787 1 1 0.999787
0.999777 1 1 0.999777
0.999958 1 1 0.999958
0.99986 1 1 0.99986
0.999966 1 1 0.999966
0.999747 1 1 0.999747
0.999746 1 1 0.999746
0.999709 1 1 0.999709
0.999717 1 1 0.999717
0.999956 1 1 0.999956
0.999872 1 1 0.999872
0.999808 1 1 0.999808
0.99977 1 1 0.99977
0.999742 1 1 0.999742
0.999763 1 1 0.999763
0.999775 1 1 0.999775
0.999792 1 1 0.999792
0.999873 1 1 0.999873
0.99982 1 1 0.99982
0.999975 1 1 0.999975
0.999857 1 1 0.999857
0.999713 1 1 0.999713
0.999705 1 1 0.999705
0.999689 1 1 0.999689
0.999712 1 1 0.999712
0.999769 1 1 0.999769
0.999754 1 1 0.999754
0.999876 1 1 0.999876
0.999796 1 1 0.999796
0.999823 1 1 0.999823
0.999768 1 1 0.999768
0.999749 1 1 0.999749
0.999795 1 1 0.999795
0.999983 1 1 0.999983
0.999863 1 1 0.999863
0.999829 1 1 0.999829
0.999805 1 1 0.999805
0.9998 1 1 0.9998
1 1 1 1
0.999791 1 1 0.999791
0.99997 1 1 0.99997
0.999964 1 1 0.999964
0.99988 1 1 0.99988
0.999836 1 1 0.999836
0.999769 1 1 0.999769
0.999878 1 1 0.999878
0.999816 1 1 0.999816
0.999825 1 1 0.999825
0.999814 1 1 0.999814
1 1 1 1
0.999974 1 1 0.999974
0.999881 1 1 0.999881
0.999881 1 1 0.999881
0.999823 1 1 0.999823
0.999758 1 1 0.999758
0.999795 1 1 0.999795
0.999753 1 1 0.999753
0.999822 1 1 0.999822
0.999798 1 1 0.999798
0.999772 1 1 0.999772
0.999979 1 1 0.999979
0.999884 1 1 0.999884
0.999824 1 1 0.999824
0.999822 1 1 0.999822
0.999799 1 1 0.999799
0.999753 1 1 0.999753
0.999775 1 1 0.999775
0.999768 1 1 0.999768
0.999775 1 1 0.999775
0.999745 1 1 0.999745
0.999984 1 1 0.999984
0.999885 1 1 0.999885
0.999899 1 1 0.999899
0.999844 1 1 0.999844
0.999911 1 1 0.999911
0.999991 1 1 0.999991
0.99999 1 1 0.99999
1 1 1 1
0.999988 1 1 0.999988
1 1 1 1
1 1 1 1
1 1 1 1
1 1 1 1
1 1 1 1
1 1 1 1
1 1 1 1
1 1 1 1
1 1 1 1
1 1 1 1
1 1 1 1
0.999781 1 1 0.999781
0.999759 1 1 0.999759
0.999745 1 1 0.999745
0.999725 1 1 0.999725
0.999744 1 1 0.999744
0.999813 1 1 0.999813
0.999742 1 1 0.999742
0.999725 1 1 0.999725
0.999732 1 1 0.999732
0.999718 1 1 0.999718
0.999754 1 1 0.999754
0.999752 1 1 0.999752
0.999721 1 1 0.999721
0.999722 1 1 0.999722
0.999728 1 1 0.999728
0.999711 1 1 0.999711
0.999758 1 1 0.999758
0.999765 1 1 0.999765
0.999743 1 1 0.999743
0.999746 1 1 0.999746
0.999705 1 1 0.999705
0.999719 1 1 0.999719
0.999956 1 1 0.999956
0.999872 1 1 0.999872
0.999813 1 1 0.999813
0.999772 1 1 0.999772
0.999744 1 1 0.999744
0.999776 1 1 0.999776
0.999758 1 1 0.999758
0.999794 1 1 0.999794
0.999873 1 1 0.999873
0.999814 1 1 0.999814
0.999974 1 1 0.999974
0.999858 1 1 0.999858
0.999713 1 1 0.999713
0.999706 1 1 0.999706
0.999686 1 1 0.999686
0.999713 1 1 0.999713
0.999876 1 1 0.999876
0.999827 1 1 0.999827
0.999768 1 1 0.999768
0.999767 1 1 0.999767
0.999762 1 1 0.999762
0.999747 1 1 0.999747
0.999797 1 1 0.999797
0.999803 1 1 0.999803
0.999829 1 1 0.999829
0.999797 1 1 0.999797
0.999804 1 1 0.999804
0.999975 1 1 0.999975
0.999864 1 1 0.999864
0.999698 1 1 0.999698
0.999678 1 1 0.999678
0.999729 1 1 0.999729
0.999785 1 1 0.999785
0.999835 1 1 0.999835
0.999823 1 1 0.999823
0.999791 1 1 0.999791
0.999727 1 1 0.999727
0.999738 1 1 0.999738
0.999974 1 1 0.999974
0.999889 1 1 0.999889
0.999804 1 1 0.999804
0.999808 1 1 0.999808
0.999764 1 1 0.999764
0.999779 1 1 0.999779
1 1 1 1
0.999974 1 1 0.999974
0.999757 1 1 0.999757
0.999881 1 1 0.999881
0.999881 1 1 0.999881
0.999821 1 1 0.999821
0.999795 1 1 0.999795
0.999751 1 1 0.999751
0.999822 1 1 0.999822
0.999776 1 1 0.999776
0.9998 1 1 0.9998
0.999979 1 1 0.999979
0.999884 1 1 0.999884
0.999827 1 1 0.999827
0.999821 1 1 0.999821
0.999796 1 1 0.999796
0.999752 1 1 0.999752
0.999774 1 1 0.999774
0.99977 1 1 0.99977
0.999773 1 1 0.999773
0.999739 1 1 0.999739
0.999888 1 1 0.999888
0.999811 1 1 0.999811
0.999788 1 1 0.999788
0.999783 1 1 0.999783
0.999775 1 1 0.999775
0.9998 1 1 0.9998
0.999742 1 1 0.999742
0.999758 1 1 0.999758
0.999741 1 1 0.999741
0.999688 1 1 0.999688
0.999985 1 1 0.999985
0.999889 1 1 0.999889
0.999818 1 1 0.999818
0.999893 1 1 0.999893
0.999911 1 1 0.999911
0.999835 1 1 0.999835
0.999791 1 1 0.999791
0.999831 1 1 0.999831
0.999916 1 1 0.999916
0.999992 1 1 0.999992
0.999991 1 1 0.999991
1 1 1 1
0.99999 1 1 0.99999
1 1 1 1
1 1 1 1
1 1 1 1
1 1 1 1
1 1 1 1
1 1 1 1
1 1 1 1
1 1 1 1
1 1 1 1
1 1 1 1
1 1 1 1
0.999754 1 1 0.999754
0.999732 1 1 0.999732
0.999753 1 1 0.999753
0.999716 1 1 0.999716
0.999725 1 1 0.999725
0.999742 1 1 0.999742
0.99972 1 1 0.99972
0.999722 1 1 0.999722
0.999726 1 1 0.999726
0.999706 1 1 0.999706
0.999759 1 1 0.999759
0.99977 1 1 0.99977
0.999726 1 1 0.999726
0.999719 1 1 0.999719
0.999725 1 1 0.999725
0.999802 1 1 0.999802
0.999714 1 1 0.999714
0.999707 1 1 0.999707
0.999683 1 1 0.999683
0.999714 1 1 0.999714
0.999876 1 1 0.999876
0.999831 1 1 0.999831
0.999767 1 1 0.999767
0.999765 1 1 0.999765
0.999769 1 1 0.999769
0.999797 1 1 0.999797
0.999745 1 1 0.999745
0.99981 1 1 0.99981
0.999829 1 1 0.999829
0.999795 1 1 0.999795
0.999803 1 1 0.999803
0.999967 1 1 0.999967
0.999866 1 1 0.999866
0.999694 1 1 0.999694
0.999682 1 1 0.999682
0.999732 1 1 0.999732
0.999835 1 1 0.999835
0.999797 1 1 0.999797
0.999726 1 1 0.999726
0.999782 1 1 0.999782
0.999747 1 1 0.999747
0.999821 1 1 0.999821
0.999974 1 1 0.999974
0.999807 1 1 0.999807
0.999782 1 1 0.999782
0.999767 1 1 0.999767
0.999807 1 1 0.999807
0.999882 1 1 0.999882
0.999689 1 1 0.999689
0.999678 1 1 0.999678
0.99976 1 1 0.99976
0.99982 1 1 0.99982
0.999809 1 1 0.999809
0.999777 1 1 0.999777
0.999744 1 1 0.999744
0.999696 1 1 0.999696
0.99998 1 1 0.99998
0.999901 1 1 0.999901
0.999821 1 1 0.999821
0.999746 1 1 0.999746
0.999783 1 1 0.999783
0.999748 1 1 0.999748
0.99998 1 1 0.99998
0.999884 1 1 0.999884
0.999751 1 1 0.999751
0.999821 1 1 0.999821
0.99983 1 1 0.99983
0.999792 1 1 0.999792
0.999772 1 1 0.999772
0.999772 1 1 0.999772
0.99977 1 1 0.99977
0.999734 1 1 0.999734
0.999888 1 1 0.999888
0.999814 1 1 0.999814
0.999793 1 1 0.999793
0.999786 1 1 0.999786
0.999778 1 1 0.999778
0.999803 1 1 0.999803
0.999744 1 1 0.999744
0.999773 1 1 0.999773
0.999737 1 1 0.999737
0.999683 1 1 0.999683
0.999812 1 1 0.999812
0.999764 1 1 0.999764
0.999755 1 1 0.999755
0.999755 1 1 0.999755
0.999811 1 1 0.999811
0.999801 1 1 0.999801
0.999687 1 1 0.999687
0.999779 1 1.00012 0.999664
0.999894 1 1 0.999894
0.999823 1 1 0.999823
0.999781 1 1 0.999781
0.999911 1 1 0.999911
0.999827 1 1 0.999827
0.999916 1 1 0.999916
0.999785 1 1 0.999785
0.999835 1 1 0.999835
0.999753 1 1 0.999753
0.999781 1 1 0.999781
0.999835 1 1 0.999835
0.999918 1 1 0.999918
0.999993 1 1 0.999993
0.999993 1 1 0.999993
1 1 1 1
0.999992 1 1 0.999992
1 1 1 1
1 1 1 1
1 1 1 1
1 1 1 1
1 1 1 1
1 1 1 1
1 1 1 1
1 1 1 1
1 1 1 1
1 1 1 1
1 1 1 1
0.999759 1 1 0.999759
0.999724 1 1 0.999724
0.999775 1 1 0.999775
0.9997 1 1 0.9997
0.999722 1 1 0.999722
0.99972 1 1 0.99972
0.999723 1 1 0.999723
0.999719 1 1 0.999719
0.99973 1 1 0.99973
0.999799 1 1 0.999799
0.999723 1 1 0.999723
0.999726 1 1 0.999726
0.99977 1 1 0.99977
0.999691 1 1 0.999691
0.999686 1 1 0.999686
0.999735 1 1 0.999735
0.999834 1 1 0.999834
0.999802 1 1 0.999802
0.999725 1 1 0.999725
0.999779 1 1 0.999779
0.999819 1 1 0.999819
0.999757 1 1 0.999757
0.999807 1 1 0.999807
0.999785 1 1 0.999785
0.999769 1 1 0.999769
0.999974 1 1 0.999974
0.999809 1 1 0.999809
0.999876 1 1 0.999876
0.999695 1 1 0.999695
0.999676 1 1 0.999676
0.999755 1 1 0.999755
0.999808 1 1 0.999808
0.999749 1 1 0.999749
0.9997 1 1 0.9997
0.999825 1 1 0.999825
0.999776 1 1 0.999776
0.999987 1 1 0.999987
0.999901 1 1 0.999901
0.999782 1 1 0.999782
0.999749 1 1 0.999749
0.99975 1 1 0.99975
0.999816 1 1 0.999816
0.999707 1 1 0.999707
0.99969 1 1 0.99969
0.999825 1 1 0.999825
0.999833 1 1 0.999833
0.999773 1 1 0.999773
0.999706 1 1.00001 0.999692
0.999707 1 1 0.999707
0.999997 1 1 0.999997
0.999935 1 1 0.999935
0.999905 1 1 0.999905
0.99982 1 1 0.99982
0.999756 1 1 0.999756
0.999715 1 1 0.999715
0.999762 1 1 0.999762
0.999724 1 1 0.999724
0.999888 1 1 0.999888
0.999817 1 1 0.999817
0.999807 1 1 0.999807
0.99979 1 1 0.99979
0.999797 1 1 0.999797
0.99978 1 1 0.99978
0.999746 1 1 0.999746
0.999787 1 1 0.999787
0.999733 1 1 0.999733
0.999678 1 1 0.999678
0.999811 1 1 0.999811
0.999769 1 1 0.999769
0.999759 1 1 0.999759
0.999758 1 1 0.999758
0.999812 1 1 0.999812
0.999798 1 1 0.999798
0.999693 1 1 0.999693
0.999679 1 1.00002 0.999662
0.999773 1 1 0.999773
0.999778 1 1 0.999778
0.999737 1 1 0.999737
0.999717 1 1 0.999717
0.999829 1 1 0.999829
0.999674 1 1 0.999674
0.999861 1 1.00023 0.99963
0.999827 1 1 0.999827
0.999781 1 1 0.999781
0.999748 1 1 0.999748
0.999916 1 1 0.999916
0.999838 1 1 0.999838
0.999779 1 1 0.999779
0.999918 1 1 0.999918
0.999835 1 1 0.999835
0.999748 1 1 0.999748
0.999787 1 1 0.999787
0.999725 1 1 0.999725
0.999741 1 1 0.999741
0.99979 1 1 0.99979
0.999841 1 1 0.999841
0.999917 1 1 0.999917
0.999992 1 1 0.999992
0.999993 1 1 0.999993
1 1 1 1
0.999993 1 1 0.999993
1 1 1 1
1 1 1 1
1 1 1 1
1 1 1 1
1 1 1 1
0.999999 1 1 0.999999
1 1 1 1
1 1 1 1
1 1 1 1
1 1 1 1
1 1 1 1
1 1 1 1
0.999796 1 1 0.999796
0.999734 1 1 0.999734
0.999718 1 1 0.999718
0.999719 1 1 0.999719
0.999728 1 1 0.999728
0.999722 1 1 0.999722
0.99978 1 1 0.99978
0.999733 1 1 0.999733
0.999739 1 1 0.999739
0.999812 1 1 0.999812
0.999701 1 1 0.999701
0.999674 1 1 0.999674
0.999749 1 1 0.999749
0.999808 1 1 0.999808
0.999755 1 1 0.999755
0.999704 1 1 0.999704
0.999829 1 1 0.999829
0.999775 1 1 0.999775
0.999782 1 1 0.999782
0.99975 1 1 0.99975
0.999754 1 1 0.999754
0.999993 1 1 0.999993
0.999901 1 1 0.999901
0.999812 1 1 0.999812
0.999704 1 1 0.999704
0.999996 1 1 0.999996
0.99993 1 1 0.99993
0.999692 1 1 0.999692
0.999814 1 1 0.999814
0.999775 1 1 0.999775
0.999701 1 1 0.999701
0.999695 1 1 0.999695
0.999831 1 1 0.999831
0.999917 1 1 0.999917
0.99982 1 1 0.99982
0.999764 1 1 0.999764
0.99973 1 1 0.99973
0.999708 1 1 0.999708
0.999758 1 1 0.999758
0.999688 1 1 0.999688
0.999756 1 1 0.999756
0.999789 1 0.999899 0.99989
0.999746 1 1 0.999746
0.999746 1 1 0.999746
1.00001 1 1.00036 0.999659
0.999933 1 1 0.999933
0.999927 1 1 0.999927
0.999871 1 1 0.999871
0.999822 1 1 0.999822
0.999768 1 1 0.999768
0.999703 1 1 0.999703
0.999677 1 1 0.999677
0.999728 1 1 0.999728
0.999811 1 1 0.999811
0.999774 1 1 0.999774
0.999814 1 1 0.999814
0.999794 1 1 0.999794
0.999761 1 1 0.999761
0.999764 1 1 0.999764
0.9997 1 1 0.9997
0.999661 1 1 0.999661
0.999773 1 1 0.999773
0.999794 1 1 0.999794
0.999736 1 1 0.999736
0.99971 1 1 0.99971
0.999826 1 1 0.999826
0.999675 1 1 0.999675
0.999859 1 1.00023 0.999628
0.999737 1 1 0.999737
0.999453 1.00001 0.999627 0.999812
0.999713 1 1 0.999713
0.999956 1 1.0003 0.999652
0.999674 1 1 0.999674
1.00044 1 1.00084 0.999598
0.984777 1.00348 0.981738 0.999616
0.999781 1 1 0.999781
0.999748 1 1 0.999748
0.999724 1 1 0.999724
0.999918 1 1 0.999918
0.999835 1 1 0.999835
0.999794 1 1 0.999794
0.999744 1 1 0.999744
0.999917 1 1 0.999917
0.999837 1 1 0.999837
0.999724 1 1 0.999724
0.99979 1 1 0.99979
0.999746 1 1 0.999746
0.999707 1 1 0.999707
0.999749 1 1 0.999749
0.999791 1 1 0.999791
0.999829 1 1 0.999829
0.999904 1 1 0.999904
0.999848 1 1 0.999848
0.999903 1 1 0.999903
0.999992 1 1 0.999992
0.999992 1 1 0.999992
1 1 1 1
0.999993 1 1 0.999993
1 1 1 1
1 1 1 1
1 1 1 1
1 1 1 1
1 1 1 1
1 1 1 1
0.999999 1 1 0.999999
1 1 1 1
1 1 1 1
1 1 1 1
1 1 1 1
1 1 1 1
1 1 1 1
0.999789 1 1 0.999789
0.999718 1 1 0.999718
0.999733 1 1 0.999733
0.999734 1 1 0.999734
0.999742 1 1 0.999742
0.999821 1 1 0.999821
0.999751 1 1 0.999751
0.995727 1.00045 0.995401 0.999874
0.999607 1 0.999705 0.999901
0.999949 1 1 0.999949
0.9997 1 1 0.9997
0.999694 1 1 0.999694
0.999802 1 1 0.999802
0.999778 1 1 0.999778
0.999695 1 1 0.999695
0.999697 1 1 0.999697
0.999829 1 1 0.999829
0.999766 1 1 0.999766
0.999736 1 1 0.999736
0.999701 1 1 0.999701
0.999995 1 1 0.999995
0.999759 1 1 0.999759
0.999929 1 1 0.999929
0.999819 1 1 0.999819
0.999925 1 1 0.999925
0.99968 1 1 0.99968
0.999938 1 1 0.999938
0.999927 1 1 0.999927
0.999861 1 1 0.999861
0.999758 1 1 0.999758
0.999666 1 0.999791 0.999874
0.999748 1 1 0.999748
0.999875 1 1.00022 0.999657
0.999748 1 1 0.999748
0.999829 1 1 0.999829
0.999766 1 1 0.999766
0.999728 1 1 0.999728
0.999708 1 1.00002 0.999684
0.999708 1 1 0.999708
0.999712 1 1.00004 0.999667
0.997515 1 0.99765 0.999864
0.999797 1 0.999996 0.999801
0.999915 1 1.00025 0.999668
1.00003 1 1.00032 0.999709
0.999862 1 1 0.999862
0.999839 1 1 0.999839
0.999809 1 1 0.999809
0.999766 1 1 0.999766
0.999724 1 1 0.999724
0.999671 1 1 0.999671
1.00124 1 1.00157 0.999666
0.999772 1 1 0.999772
0.999736 1 1 0.999736
0.999811 1 1 0.999811
0.999822 1 1 0.999822
0.999676 1 1 0.999676
0.999702 1 1 0.999702
0.999747 1 1.00012 0.999625
0.99974 1 1 0.99974
0.99962 1.00006 0.99974 0.999821
0.999712 1 1 0.999712
0.999811 1 1.00016 0.999651
0.999688 1 1 0.999688
1.001 1 1.0014 0.999596
0.98929 1.00616 0.983584 0.999647
0.999715 1 1 0.999715
0.999967 1.00032 1 0.999644
0.999686 1 1 0.999686
1.00221 1 1.00261 0.999608
1.00042 1 1.00084 0.999579
0.962535 0.963851 1.00004 0.998595
0.987445 1.00121 0.986562 0.999683
0.984677 1.00805 0.977222 0.999579
0.964081 0.970979 0.993096 0.999799
0.96958 0.993126 0.976358 0.999932
0.999748 1 1 0.999748
0.999724 1 1 0.999724
0.999699 1 1 0.999699
0.999917 1 1 0.999917
0.999833 1 1 0.999833
0.99979 1 1 0.99979
0.999752 1 1 0.999752
0.999723 1 1 0.999723
0.999785 1 1 0.999785
0.99991 1 1 0.99991
0.999834 1 1 0.999834
0.999711 1 1 0.999711
0.999747 1 1 0.999747
0.999753 1 1 0.999753
0.999708 1 1 0.999708
0.999771 1 1 0.999771
0.999827 1 1 0.999827
0.999903 1 1 0.999903
0.999842 1 1 0.999842
0.999789 1 1 0.999789
0.999831 1 1 0.999831
0.999839 1 1 0.999839
0.999912 1 1 0.999912
0.999903 1 1 0.999903
0.999991 1 1 0.999991
0.999992 1 1 0.999992
1 1 1 1
0.999992 1 1 0.999992
1 1 1 1
1 1 1 1
1 1 1 1
1 1 1 1
1 1 1 1
1 1 1 1
1 1 1 1
1 1 1 1
0.999998 1 1 0.999998
1 1 1 1
1 1 1 1
1 1 1 1
1 1 1 1
1 1 1 1
0.999746 1 1 0.999746
0.999734 1 1 0.999734
0.99983 1 1 0.99983
0.995249 1.00001 0.995365 0.999871
0.999749 1 1 0.999749
0.999735 1 0.999863 0.999872
0.999748 1 1.00004 0.999711
0.981327 0.984914 0.99692 0.999436
0.999654 1 0.999727 0.999928
0.999953 1 1 0.999953
0.999949 1 1 0.999949
0.99988 1 1 0.99988
0.999891 1 1 0.999891
0.999673 1 1 0.999673
0.999759 1 1 0.999759
0.999598 1 0.99974 0.999858
0.999749 1 1 0.999749
0.999717 1 1.00006 0.999655
0.999751 1 1 0.999751
0.999727 1 1 0.999727
0.999711 1 1.00002 0.999691
0.999712 1 1 0.999712
0.999926 1 1 0.999926
0.999763 1 1 0.999763
0.999836 1 1 0.999836
0.999944 1 1 0.999944
0.999852 1 1 0.999852
0.999711 1 1.00003 0.999676
0.999872 1 1 0.999872
0.999845 1 1 0.999845
0.99981 1 1 0.99981
0.998435 1 0.99857 0.999864
0.999621 1 0.999819 0.999802
1.00007 1 1.00036 0.999708
0.99988 1 1.00021 0.999671
0.999768 1 1 0.999768
0.999727 1 1 0.999727
1.00063 1 1.00096 0.999667
0.99968 1 1.00001 0.999669
0.999766 1 1.00003 0.999735
0.997811 1 0.997959 0.999852
0.999656 1 1 0.999656
1.00018 1 1.00051 0.999668
0.999792 1 1 0.999792
0.999778 1 1 0.999778
0.999696 1 1 0.999696
1.00165 1 1.00203 0.999621
0.960527 0.963765 0.998058 0.99858
0.999743 1 1 0.999743
0.999711 1 1 0.999711
0.999667 1 0.999837 0.99983
0.999701 1 1 0.999701
1.00163 1 1.00203 0.999594
0.999693 1 1.00004 0.999651
0.993918 1.00868 0.985683 0.999679
0.999717 1 1 0.999717
1.0001 1.00062 0.999838 0.999644
0.999687 1 1 0.999687
1.00185 1 1.00224 0.99961
1.00016 1 1.00057 0.99959
0.964107 0.96432 1.00105 0.998734
0.983882 0.998176 0.986332 0.999338
0.987312 1.00998 0.977968 0.999582
0.967124 0.973313 0.99402 0.999619
0.968944 0.990559 0.978241 0.999936
0.999705 1 1 0.999705
0.971516 0.974301 0.997714 0.999425
0.986241 0.995979 0.99027 0.999953
0.99958 1 1 0.99958
1.00127 1 1.0016 0.99967
1.00738 1 1.00778 0.999598
1.00132 1.01017 0.991723 0.999513
0.976058 0.97266 1.005 0.998498
0.986162 1.00663 0.980333 0.999317
0.960327 0.973869 0.986324 0.999768
0.99101 1.00557 0.985562 0.999954
0.999724 1 1 0.999724
0.999699 1 1 0.999699
0.999676 1 1 0.999676
0.999915 1 1 0.999915
0.999839 1 1 0.999839
0.999778 1 1 0.999778
0.999745 1 1 0.999745
0.999714 1 1 0.999714
0.999903 1 1 0.999903
0.999751 1 1 0.999751
0.999778 1 1 0.999778
0.999833 1 1 0.999833
0.999703 1 1 0.999703
0.999729 1 1 0.999729
0.999872 1 1.0002 0.999674
0.999772 1 1 0.999772
0.999839 1 1 0.999839
0.999842 1 1 0.999842
0.999782 1 1 0.999782
0.999782 1 1 0.999782
0.999774 1 1 0.999774
0.999745 1 1 0.999745
0.999758 1 1 0.999758
0.999821 1 1 0.999821
0.999831 1 1 0.999831
0.999906 1 1 0.999906
0.999829 1 1 0.999829
0.999906 1 1 0.999906
0.99999 1 1 0.99999
0.999904 1 1 0.999904
0.999991 1 1 0.999991
1 1 1 1
0.999992 1 1 0.999992
1 1 1 1
1 1 1 1
1 1 1 1
1 1 1 1
1 1 1 1
0.999951 1 1 0.999951
1 1 1 1
1 1 1 1
1 1 1 1
1 1 1 1
1 1 1 1
1 1 1 1
1 1 1 1
1 1 1 1
1 1 1 1
0.994923 1 0.995055 0.999868
0.999747 1 1 0.999747
0.999843 1 1 0.999843
0.982192 0.984488 0.998027 0.99964
0.999809 1 0.999883 0.999925
0.99973 1 1.00003 0.999696
1.0013 1 1.00159 0.999705
0.987632 0.986526 1.00163 0.999495
0.965515 0.967108 1.00011 0.998239
0.962339 0.970491 0.992196 0.999401
0.973689 0.989386 0.984191 0.999943
0.999879 1 1 0.999879
0.999953 1 1 0.999953
0.999949 1 1 0.999949
0.999878 1 1 0.999878
0.999833 1 1 0.999833
0.999847 1 1 0.999847
0.999883 1 1 0.999883
0.999887 1 1 0.999887
0.999712 1 1.00003 0.999686
0.999262 1 0.999398 0.999863
0.99939 1 0.999586 0.999803
1.00011 1 1.0004 0.999707
0.999848 1 1.00017 0.999675
1.0001 1 1.00043 0.999668
0.999716 1 1.00005 0.999668
0.99973 1 1 0.99973
0.999851 1 1 0.999851
0.99977 1 1 0.99977
0.999881 1 1 0.999881
0.999812 1 1 0.999812
0.999205 1 0.999476 0.999729
0.999795 1 1 0.999795
0.999781 1 1 0.999781
0.997408 1 0.997557 0.99985
0.999664 1 1 0.999664
1.00065 1 1.001 0.999656
0.999695 1 1 0.999695
1.00169 1 1.00206 0.999623
0.990378 1.00445 0.986234 0.99975
1.00175 1 1.00206 0.999685
0.999619 1 1 0.999619
1.00468 1 1.00508 0.9996
0.999751 1 1 0.999751
0.99972 1 1 0.99972
1.00018 1 1.00054 0.999636
0.97017 0.976397 0.993909 0.999711
0.964167 0.965604 0.99988 0.998633
0.999719 1 1 0.999719
0.999688 1 1 0.999688
1.00049 1.00107 0.999775 0.999644
0.999864 1 1.00026 0.9996
1.00137 1 1.00175 0.999612
0.963163 0.965039 0.999863 0.998193
0.987375 0.998125 0.989468 0.99976
0.99044 1.01227 0.978839 0.999584
0.96345 0.972493 0.991273 0.999423
0.968156 0.987911 0.980062 0.999941
0.999704 1 1 0.999704
0.969898 0.975426 0.994591 0.999741
0.986449 0.995045 0.9914 0.99996
0.999567 1 0.999988 0.999578
1.00045 1 1.00078 0.999672
1.00667 1 1.00706 0.999609
0.999143 1.0076 0.992104 0.999497
0.974831 0.973425 1.00314 0.998306
0.980269 1.00232 0.978272 0.999718
0.96024 0.973692 0.986782 0.999396
0.986618 1.0054 0.981365 0.999953
0.999683 1 1 0.999683
0.999177 1.00067 0.998533 0.999975
1.0065 1.0083 0.998236 0.999972
1.00959 1 1.01001 0.999582
1.00541 1 1.00571 0.99971
1.00436 1.00361 1.00103 0.999728
0.990672 1.00113 0.989656 0.999898
0.979045 0.976662 1.00403 0.998413
0.971237 0.987192 0.984457 0.999371
1.00114 1.01059 0.990683 0.999961
0.9997 1 1 0.9997
0.999674 1 1 0.999674
1.00008 1 1.00042 0.999662
0.999903 1 1 0.999903
0.999839 1 1 0.999839
0.999786 1 1 0.999786
0.999749 1 1 0.999749
0.999697 1 1 0.999697
0.999839 1 1 0.999839
0.999733 1 1 0.999733
0.999772 1 1 0.999772
0.999915 1 1.00024 0.99967
1.0002 1 1.00055 0.999645
0.999796 1 1.00009 0.999709
0.999777 1 1 0.999777
0.999842 1 1 0.999842
0.999775 1 1 0.999775
0.999781 1 1 0.999781
0.999774 1 1 0.999774
0.999745 1 1 0.999745
0.999762 1 1 0.999762
0.999737 1 1 0.999737
0.999724 1 1 0.999724
0.999738 1 1 0.999738
0.999772 1 1 0.999772
0.999769 1 1 0.999769
0.999759 1 1 0.999759
0.999813 1 1 0.999813
0.99982 1 1 0.99982
0.999898 1 1 0.999898
0.999831 1 1 0.999831
0.999906 1 1 0.999906
0.999989 1 1 0.999989
0.999901 1 1 0.999901
0.99999 1 1 0.99999
1 1 1 1
0.999991 1 1 0.999991
1 1 1 1
1 1 1 1
1 1 1 1
1 1 1 1
1 1 1 1
0.999956 1 1 0.999956
1 1 1 1
0.999951 1 1 0.999951
1 1 1 1
1 1 1 1
1 1 1 1
1 1 1 1
1 1 1 1
1 1 1 1
1 1 1 1
1 1 1 1
0.96808 0.973476 0.99468 0.999775
0.990181 0.99688 0.993307 0.999973
0.984291 0.985147 0.999319 0.999812
0.999907 1 0.999984 0.999923
0.99971 1 1.00003 0.999681
0.986865 0.985041 1.00196 0.999896
1.00051 1 1.0008 0.999714
0.96928 0.969315 1.00136 0.998609
0.964923 0.971352 0.993584 0.999796
0.972433 0.988903 0.983397 0.999948
0.999923 0.995453 1.00465 0.99984
0.974086 0.972861 1.00269 0.998573
0.96071 0.972213 0.988385 0.99978
0.985541 1.00492 0.980765 0.99995
0.999817 1 1 0.999817
0.999883 1 1 0.999883
0.999953 1 1 0.999953
0.999875 1 1 0.999875
0.999838 1 1 0.999838
0.99983 1 1 0.99983
0.999849 1 1 0.999849
0.999862 1 1 0.999862
0.999878 1 1 0.999878
0.999883 1 1 0.999883
0.998748 1 0.999025 0.999722
0.997188 1 0.997339 0.999849
0.999673 1 1 0.999673
1.00108 1 1.00144 0.999645
1.00159 1 1.00196 0.999626
0.999695 1 1 0.999695
0.999783 1 1 0.999783
0.999798 1 1 0.999798
0.992422 1.00299 0.989727 0.999732
0.999748 1 1 0.999748
0.999714 1 1 0.999714
1.00017 1 1.00048 0.999688
0.999947 1 1.00033 0.999615
1.00373 1 1.00414 0.999591
1.00075 1 1.00112 0.999629
0.984827 1.01201 0.973502 0.99963
1.00824 1 1.00864 0.999602
1.00434 1 1.00476 0.999579
0.999747 1 1 0.999747
0.999707 1 1 0.999707
0.99966 1 1 0.99966
0.997229 0.999898 0.997386 0.999945
0.97079 0.975723 0.995542 0.999399
0.962191 0.965399 0.998115 0.99856
0.999703 1 1 0.999703
0.999674 1 1 0.999674
0.999577 1 1 0.999577
1.00608 1 1.00646 0.99962
0.967147 0.974258 0.993302 0.999394
0.971973 0.972155 1.00092 0.998897
0.980477 1.00338 0.97779 0.999367
0.997703 1.00518 0.993072 0.999485
0.96068 0.972741 0.987804 0.999794
0.987635 0.996345 0.991307 0.999951
0.985893 1.00436 0.98166 0.999948
0.999682 1 1 0.999682
0.996964 0.99953 0.997471 0.999962
1.0076 1.00953 0.998114 0.999971
1.00983 1 1.01025 0.999584
1.0056 1 1.00589 0.99971
1.00735 1.00315 1.00473 0.99946
0.987264 1.00119 0.986686 0.999395
0.978631 0.977826 1.00243 0.998401
0.975865 0.987314 0.988587 0.999814
0.997698 1.00918 0.988674 0.999952
0.999723 1 1 0.999723
1.00615 1.00637 0.999791 0.999985
1.00354 1.00501 0.998553 0.99999
1.00692 1 1.0071 0.999823
0.997861 0.995231 1.00269 0.99995
0.988119 0.984624 1.00501 0.998543
0.986411 1.0004 0.986236 0.99978
0.998657 1.01054 0.988302 0.999941
0.999673 1 1 0.999673
1.00002 1 1.00036 0.999667
1.00097 1 1.0013 0.999667
0.999839 1 1 0.999839
0.999772 1 1 0.999772
0.999737 1 1 0.999737
0.999947 1 1.00028 0.999666
0.999776 1 1 0.999776
0.999741 1 1.00003 0.99971
1.00058 1 1.00093 0.999644
1.00051 1 1.00086 0.999656
0.999866 1 1.00021 0.999654
0.999728 1 1 0.999728
0.999781 1 1 0.999781
0.999773 1 1 0.999773
0.999744 1 1 0.999744
0.999739 1 1 0.999739
0.999762 1 1 0.999762
0.999726 1 1 0.999726
0.999719 1 1 0.999719
0.999706 1 1 0.999706
0.999719 1 1 0.999719
0.999738 1 1 0.999738
0.999749 1 1 0.999749
0.999759 1 1 0.999759
0.999806 1 1 0.999806
0.999784 1 1 0.999784
0.999772 1 1 0.999772
0.99981 1 1 0.99981
0.99976 1 1 0.99976
0.999814 1 1 0.999814
0.999889 1 1 0.999889
0.99982 1 1 0.99982
0.999898 1 1 0.999898
0.999987 1 1 0.999987
0.999906 1 1 0.999906
0.999988 1 1 0.999988
1 1 1 1
0.99999 1 1 0.99999
1 1 1 1
1 1 1 1
1 1 1 1
1 1 1 1
1 1 1 1
0.999935 1 1 0.999935
1 1 1 1
0.999947 1 1 0.999947
1 1 1 1
1 1 1 1
0.999952 1 1 0.999952
1 1 1 1
1 1 1 1
1 1 1 1
1 1 1 1
1 1 1 1
1 1 1 1
0.998344 0.999907 0.998458 0.999979
0.968689 0.973878 0.995079 0.99959
1.00551 1.00819 0.997361 0.999978
0.987732 0.994168 0.993557 0.99997
0.983736 0.98371 1.00054 0.999488
0.999767 1 1.00004 0.999724
0.969884 0.969125 1.00178 0.999001
0.963868 0.971536 0.992685 0.999418
0.971663 0.988768 0.982747 0.999953
0.99709 0.997022 1.00037 0.999702
0.973428 0.970856 1.00415 0.998505
0.96296 0.974508 0.988745 0.999398
0.983223 1.004 0.979352 0.999954
0.996407 1.0042 0.992388 0.999849
0.975581 0.972636 1.00463 0.99841
0.973475 0.988654 0.984841 0.999802
0.995096 1.01223 0.983106 0.999964
0.999784 1 1 0.999784
0.999823 1 1 0.999823
0.999888 1 1 0.999888
0.999842 1 1 0.999842
0.999798 1 1 0.999798
0.999833 1 1 0.999833
0.999851 1 1 0.999851
0.999855 1 1 0.999855
0.999867 1 1 0.999867
0.999872 1 1 0.999872
0.994628 1.00173 0.993196 0.999713
0.998599 1 0.998908 0.999691
1.00016 1 1.00055 0.99961
1.00305 1 1.00347 0.999583
1.00138 1 1.00176 0.999623
0.999708 1 1 0.999708
0.999746 1 1 0.999746
0.999748 1 1 0.999748
0.98677 1.00925 0.978092 0.999627
0.999711 1 1 0.999711
0.999748 1 1.00009 0.999657
1.00752 1 1.00793 0.999599
1.00419 1 1.00461 0.999579
0.987554 1.01062 0.977574 0.999595
1.01754 1 1.01792 0.999617
1.00039 1 1.00078 0.999612
0.999716 1 1 0.999716
0.999666 1 1 0.999666
1.00427 1.00451 0.999768 0.999991
0.997913 0.999882 0.998067 0.999963
0.971079 0.976506 0.994692 0.999749
0.99968 1 1 0.99968
1.00564 1 1.00593 0.99971
1.00991 1 1.01033 0.999586
0.998903 1.00036 0.998573 0.999975
0.978402 0.976229 1.00388 0.998358
0.983462 0.999994 0.983587 0.999878
1.0084 1.002 1.00721 0.999181
0.969458 0.98478 0.985045 0.999387
1.00896 1.01103 0.997988 0.99997
0.999553 1.00915 0.990542 0.999949
0.999729 1 1 0.999729
1.00654 1.00664 0.999921 0.999985
1.0041 1.00566 0.998456 0.999991
1.00722 0.999985 1.0075 0.999744
0.996826 0.996521 1.00052 0.999788
0.990377 0.986893 1.00511 0.998432
1.0024 1.01119 0.991349 0.999953
0.986225 0.997178 0.989393 0.999619
0.99977 1 1 0.99977
0.999945 0.999872 1.00007 1
1.00107 1.00258 0.998502 0.999997
0.998474 1.0115 0.987162 0.999962
1.00388 0.996941 1.00704 0.999917
0.984003 0.983008 1.00234 0.998674
0.985693 0.998537 0.987446 0.999687
0.99994 1 1.00027 0.999672
1.00075 1 1.00109 0.999658
1.00324 1 1.00355 0.999693
0.999776 1 1 0.999776
0.99971 1 1 0.99971
1.00102 1 1.00138 0.999642
0.99973 1 1 0.99973
0.999978 1 1.00033 0.999653
1.00091 1 1.00126 0.999647
1.00002 1 1.00035 0.999666
0.999678 1 1 0.999678
0.999741 1 1 0.999741
0.999763 1 1 0.999763
0.999728 1 1 0.999728
0.999706 1 1 0.999706
0.999718 1 1 0.999718
0.999699 1 1 0.999699
0.999734 1 1 0.999734
0.999849 1 1.00016 0.999686
0.999738 1 1 0.999738
0.999749 1 1 0.999749
0.999715 1 1 0.999715
0.999771 1 1 0.999771
0.99981 1 1 0.99981
0.99976 1 1 0.99976
0.999829 1 1 0.999829
0.999803 1 1 0.999803
0.999796 1 1 0.999796
0.999776 1 1 0.999776
0.999813 1 1 0.999813
0.999885 1 1 0.999885
0.999814 1 1 0.999814
0.99989 1 1 0.99989
0.999983 1 1 0.999983
0.999898 1 1 0.999898
0.999986 1 1 0.999986
1 1 1 1
0.999988 1 1 0.999988
1 1 1 1
1 1 1 1
1 1 1 1
1 1 1 1
1 1 1 1
0.99991 1 1 0.99991
0.999987 1 1 0.999987
0.999935 1 1 0.999935
1 1 1 1
0.999995 1 1 0.999995
0.999937 1 1 0.999937
1 1 1 1
1 1 1 1
1 1 1 1
1 1 1 1
1 1 1 1
1 1 1 1
1.00526 1.00542 0.999854 0.999989
0.995618 0.998811 0.996853 0.99995
0.970883 0.974191 0.997172 0.99943
0.99983 1 1 0.99983
1.0038 1.00437 0.999441 0.999992
1.00652 1.00858 0.997979 0.999978
0.985833 0.993546 0.992288 0.999949
0.994428 0.998183 0.99669 0.999547
0.976145 0.971505 1.00626 0.998527
0.965948 0.975835 0.990071 0.999795
0.983664 1.00294 0.98083 0.999948
0.995022 1.00775 0.987928 0.999439
0.977157 0.974115 1.00467 0.998458
0.971013 0.987734 0.983464 0.999601
0.996338 1.01296 0.983634 0.999955
0.978302 1.00041 0.978478 0.999411
0.981807 0.979209 1.00459 0.998067
0.982037 0.995039 0.987532 0.999394
0.995152 1.0114 0.983999 0.999933
0.999747 1 1 0.999747
0.99978 1 1 0.99978
0.99983 1 1 0.99983
0.999787 1 1 0.999787
0.999805 1 1 0.999805
0.999837 1 1 0.999837
0.999857 1 1 0.999857
0.999872 1 1 0.999872
0.988628 1.00636 0.982752 0.999624
1.00672 1 1.00713 0.999595
0.999749 1 1 0.999749
1.00394 1 1.00437 0.999579
0.99982 1 1.00017 0.999654
0.999714 1 1 0.999714
0.999716 1 1 0.999716
0.988651 1.00979 0.97947 0.999592
0.999666 1 1 0.999666
1.00121 1 1.0016 0.99961
1.01767 1 1.01806 0.999615
0.99971 1 1 0.99971
1.00376 1.00289 1.00118 0.999689
1.01328 1 1.01363 0.999653
0.999647 1 1 0.999647
0.999675 1 1 0.999675
0.999601 0.999541 1.00006 1
1.00415 1.00435 0.999812 0.999991
0.998408 0.999872 0.998555 0.99998
0.999735 1 1 0.999735
1.00769 0.999979 1.00805 0.999666
1.0069 1.00692 0.999995 0.999985
0.986975 0.981326 1.00733 0.998442
1.00105 1.00058 1.00106 0.999418
0.980518 0.993913 0.987054 0.999462
1.00433 1.00593 0.998426 0.999991
1.00596 1.01149 0.994575 0.999964
0.999765 1 1 0.999765
0.999627 0.999472 1.00015 1
1.00026 1.00112 0.999142 0.999999
1.0014 0.996138 1.00534 0.999943
0.999314 1.01225 0.987265 0.999952
0.98428 0.986438 0.999013 0.998799
0.981799 0.995081 0.987267 0.999378
1.00356 0.998784 1.00497 0.999809
0.998787 0.998305 1.00048 1
1.0044 1.00442 0.999987 0.999991
0.98723 1.0045 0.982858 0.999948
0.982845 0.992688 0.990673 0.999406
0.99426 0.992966 1.00117 1.00013
0.978011 0.981823 0.997413 0.998701
1.00054 1 1.00089 0.999649
1.00236 1 1.00268 0.999687
1.01226 1 1.0126 0.999662
0.999732 1 1 0.999732
1.00002 1 1.00037 0.999653
1.00118 1 1.00154 0.999638
0.999679 1 1 0.999679
1.0001 1 1.00043 0.999664
1.00302 1 1.00335 0.999667
0.999707 1 1 0.999707
0.999717 1 1 0.999717
0.999875 1 1.00018 0.999696
1.00136 1 1.0017 0.999658
0.999749 1 1 0.999749
0.999793 1 1.0001 0.999693
0.999821 1 1.00016 0.999659
0.999714 1 1 0.999714
0.999749 1 1 0.999749
0.99971 1 1 0.99971
0.999793 1 1 0.999793
0.99981 1 1 0.99981
0.999777 1 1 0.999777
0.999841 1 1 0.999841
0.99981 1 1 0.99981
0.99976 1 1 0.99976
0.999888 1 1 0.999888
0.999827 1 1 0.999827
0.9998 1 1 0.9998
0.999816 1 1 0.999816
0.999885 1 1 0.999885
0.99998 1 1 0.99998
0.99989 1 1 0.99989
0.999983 1 1 0.999983
1 1 1 1
0.999985 1 1 0.999985
1 1 1 1
1 1 1 1
1 1 1 1
1 1 1 1
1 1 1 1
0.999897 1 1 0.999897
0.999981 1 1 0.999981
0.999915 1 1 0.999915
1 1 1 1
0.999987 1 1 0.999987
0.999934 1 1 0.999934
1 1 1 1
1 1 1 1
0.99999 1 1 0.99999
1 1 1 1
1 1 1 1
1 1 1 1
1.00064 1.0005 1.00014 0.999999
1.00513 1.00532 0.999818 0.999989
0.996959 0.999551 0.997459 0.999948
0.999833 1 1 0.999833
0.999817 1 1 0.999817
0.999787 1 1 0.999787
0.999963 1.00243 0.997545 0.999998
1.00369 1.00442 0.999284 0.999993
1.00773 1.009 0.99876 0.999978
0.99829 1.01158 0.987022 0.999837
0.976341 0.972824 1.00519 0.998436
0.970283 0.987105 0.983552 0.999396
1.00009 1.01383 0.986487 0.999958
0.976268 0.998244 0.978172 0.999809
0.985456 0.981031 1.00601 0.998508
0.985801 1.00094 0.985145 0.99973
0.998915 1.01184 0.987273 0.999949
0.975733 0.994155 0.98156 0.999908
0.983121 0.982787 1.00176 0.998584
0.987208 1.0013 0.986302 0.99962
0.994886 1.00996 0.985105 0.999966
0.999736 1 1 0.999736
0.999748 1 1 0.999748
0.999775 1 1 0.999775
0.999787 1 1 0.999787
0.999811 1 1 0.999811
0.999859 1 1 0.999859
0.989601 1.00883 0.981345 0.999589
1.01754 1 1.01794 0.999612
0.999717 1 1 0.999717
1.00192 1 1.00231 0.999608
0.999665 1 1 0.999665
0.999709 1 1 0.999709
0.999671 1 1 0.999671
1.00063 1.0039 0.997063 0.99968
0.999651 1 1 0.999651
1.01378 1 1.01412 0.999662
0.999672 1 1 0.999672
1.02118 0.999941 1.02147 0.999776
1.00015 1 1.00044 0.999717
0.999643 1 1 0.999643
0.999118 0.999047 1.00007 1
0.999454 0.9994 1.00005 1
1.00408 1.00419 0.999897 0.999991
0.999759 1 1 0.999759
1.00094 0.995452 1.00553 0.999986
0.999291 0.999067 1.00022 1
0.989007 0.989719 0.999975 0.999305
0.987654 1.00155 0.986404 0.999718
0.999546 0.999785 0.99976 1
1.00264 1.01322 0.989597 0.999956
1.00309 0.99937 1.0039 0.999817
0.998906 0.998543 1.00036 1
1.00431 1.00448 0.99984 0.999992
0.994475 0.993026 1.00166 0.999799
0.985417 1.00382 0.981717 0.999951
0.985859 0.998536 0.987556 0.999745
0.978246 0.981385 0.998094 0.998705
1.01279 1 1.0129 0.999893
1.00051 1.00043 1.00009 0.999999
1.00633 1.00852 0.997858 0.999976
0.973775 0.989618 0.984052 0.999938
0.975197 0.987026 0.988213 0.9998
0.991125 0.986189 1.0064 0.998616
0.978898 0.991603 0.987496 0.999687
1.00135 1 1.00167 0.999681
1.0134 1 1.01374 0.999665
1.0193 1 1.01964 0.999666
0.99968 1 1 0.99968
1.00021 1 1.00055 0.999661
1.00245 1 1.00279 0.999667
1.01008 1 1.01047 0.999616
1.00001 1 1.00032 0.999693
1.00167 1 1.00202 0.999651
1.00333 1 1.00373 0.999603
0.9997 1 1 0.9997
1.00009 1 1.00043 0.999656
0.999762 1 1.00012 0.999644
0.999695 1 1 0.999695
0.999766 1 1 0.999766
0.999708 1 1 0.999708
0.999706 1 1 0.999706
0.99982 1 1 0.99982
0.999798 1 1 0.999798
0.999839 1 1 0.999839
0.999815 1 1 0.999815
0.999782 1 1 0.999782
0.999894 1 1 0.999894
0.999841 1 1 0.999841
0.999809 1 1 0.999809
0.999977 1 1 0.999977
0.999888 1 1 0.999888
0.999825 1 1 0.999825
0.999886 1 1 0.999886
0.999979 1 1 0.999979
1 1 1 1
0.999982 1 1 0.999982
1 1 1 1
1 1 1 1
1 1 1 1
1 1 1 1
1 1 1 1
0.999897 1 1 0.999897
0.999988 1 1 0.999988
0.999902 1 1 0.999902
1 1 1 1
0.999987 1 1 0.999987
0.99992 1 1 0.99992
1 1 1 1
1 1 1 1
0.999986 1 1 0.999986
1 1 1 1
1 1 1 1
1 1 1 1
0.998956 0.998355 1.0006 1
1.00039 1.00022 1.00017 0.999999
1.00486 1.00517 0.999702 0.999989
0.999816 1 1 0.999816
0.999794 1 1 0.999794
0.999836 1 1 0.999836
0.999817 1 1 0.999817
0.999781 1 1 0.999781
0.999777 1 1 0.999777
0.999751 1 1 0.999751
1.0026 1.0044 0.998221 0.999992
0.99964 1.00116 0.998485 0.999999
1.00357 1.00446 0.999124 0.999993
1.00253 1.01222 0.99046 0.999965
0.980943 1.00361 0.978012 0.999386
0.986479 0.980769 1.00693 0.998903
0.979722 0.998457 0.98188 0.999344
0.979891 0.993707 0.986433 0.999659
0.988211 0.987027 1.00264 0.998568
0.984431 0.998573 0.986504 0.999325
0.992709 1.00946 0.983457 0.999946
0.989562 0.991014 0.998588 0.999947
0.981427 0.986939 0.995857 0.998552
0.986563 1.00408 0.982821 0.999727
0.988793 1.00451 0.984396 0.999958
0.999719 1 1 0.999719
0.999735 1 1 0.999735
0.999748 1 1 0.999748
0.999786 1 1 0.999786
0.996708 1.00489 0.992182 0.999671
1.01464 1 1.01497 0.999671
0.999708 1 1 0.999708
0.999668 1 1 0.999668
0.999655 1 1 0.999655
0.999677 1 1 0.999677
0.99964 1 1 0.99964
1.01211 0.998106 1.01424 0.999788
1.00017 1 1.00044 0.999734
0.999638 1 1 0.999638
1.02495 0.994778 1.03044 0.999897
1.00355 1 1.00395 0.999605
0.999519 0.999502 1.00002 1
0.999348 0.999322 1.00003 1
0.99929 0.999255 1.00003 1
1.00291 1 1.00308 0.999826
0.994574 0.992291 1.00221 1.00009
0.999039 0.998789 1.00025 1
0.978633 0.981641 0.998271 0.998663
0.980122 0.996277 0.984413 0.999362
1.00417 1.00453 0.999656 0.999992
0.986545 1.0027 0.983944 0.999946
1.0135 0.999663 1.01397 0.999879
1.00026 1.00014 1.00011 1
1.00743 1.00888 0.998585 0.999976
0.983142 0.994142 0.98885 1.00009
0.972564 0.98882 0.983615 0.999944
0.971524 0.985328 0.986389 0.999596
0.99287 0.98529 1.00896 0.998747
1.00361 1 1.00373 0.999876
1.00559 1.00554 1.00006 0.999987
0.991151 0.997233 0.993931 0.99997
0.960475 0.971388 0.988995 0.999768
0.984201 0.978881 1.00698 0.998468
0.976033 0.997226 0.979227 0.999511
1.01473 1 1.01507 0.999668
1.0198 1 1.02014 0.999664
1.02 1 1.02039 0.999617
1.00195 1 1.00229 0.999667
1.01047 1 1.01085 0.999624
1.00765 1 1.0081 0.99956
1.00217 1 1.00253 0.999643
1.00355 1 1.00396 0.999594
1.00202 1 1.00243 0.999587
1.00046 1 1.0008 0.999654
0.999928 1 1.00029 0.999636
0.999846 1 1.00019 0.999655
0.999706 1 1 0.999706
0.999739 1 1 0.999739
0.999691 1 1 0.999691
0.999804 1 1 0.999804
0.99977 1 1 0.99977
0.999702 1 1 0.999702
0.999838 1 1 0.999838
0.999817 1 1 0.999817
0.999803 1 1 0.999803
0.999893 1 1 0.999893
0.999842 1 1 0.999842
0.999819 1 1 0.999819
0.999977 1 1 0.999977
0.999894 1 1 0.999894
0.999841 1 1 0.999841
1 1 1 1
0.999977 1 1 0.999977
0.999889 1 1 0.999889
0.999979 1 1 0.999979
1 1 1 1
1 1 1 1
1 1 1 1
1 1 1 1
1 1 1 1
0.999821 1 1 0.999821
0.999888 1 1 0.999888
0.999984 1 1 0.999984
0.999897 1 1 0.999897
1 1 1 1
0.999989 1 1 0.999989
0.999907 1 1 0.999907
1 1 1 1
1 1 1 1
0.999994 1 1 0.999994
1 1 1 1
1 1 1 1
1 1 1 1
0.999876 0.999802 1.00007 1
0.999055 0.998575 1.00048 1
1.00015 0.999945 1.00021 1
0.999819 1 1 0.999819
0.99979 1 1 0.99979
0.999793 1 1 0.999793
0.999782 1 1 0.999782
0.999776 1 1 0.999776
0.999816 1 1 0.999816
0.999775 1 1 0.999775
0.999778 1 1 0.999778
0.999752 1 1 0.999752
0.999751 1 1 0.999751
1.00604 1.00674 0.999334 0.999974
1.00301 1.00498 0.998047 0.999992
0.999171 0.999811 0.999359 1
0.993182 1.00895 0.984427 0.999943
0.989469 1.0041 0.985751 0.999668
0.984803 0.993735 0.991553 0.999453
0.982069 0.984015 0.999379 0.998642
0.993756 0.990253 1.00399 0.999548
0.980383 0.983815 0.997914 0.998594
0.9849 1.00001 0.985319 0.99956
0.987119 1.00424 0.982989 0.999958
1.0144 0.987507 1.02766 0.999586
0.98626 0.985545 1.0021 0.998631
0.970314 0.987193 0.983501 0.999391
0.973996 0.992255 0.98165 0.999947
0.999745 1 1 0.999745
0.999722 1 1 0.999722
0.999734 1 1 0.999734
1.00409 0.996482 1.00784 0.999799
1.00016 1 1.00041 0.999751
0.999682 1 1 0.999682
0.999637 1 1 0.999637
0.999674 1 1.00003 0.999641
1.00404 1 1.00444 0.9996
1.02485 0.996245 1.02882 0.999897
1.00398 1 1.00435 0.999622
1.01279 0.999006 1.01406 0.999747
1.00426 1.00427 1 0.99999
0.999391 0.999376 1.00001 1
0.999596 0.999595 1 1
1.01406 0.999285 1.01492 0.999867
0.985935 0.993241 0.992954 0.999688
1.00001 0.999856 1.00015 1
0.983915 0.982427 1.00328 0.998236
0.972009 0.985659 0.986755 0.999387
1.00859 1.00928 0.999335 0.999975
0.972289 0.988651 0.9835 0.99995
1.00458 1 1.00469 0.999882
1.00549 1.00544 1.00006 0.999987
0.988689 0.99462 0.99407 0.999967
0.972122 0.994364 0.977883 0.999742
0.963129 0.974124 0.989316 0.99939
0.987308 0.980995 1.00824 0.998209
0.985032 1.00028 0.984974 0.999777
0.999011 1.00025 0.998783 0.999975
0.963174 0.971082 0.992457 0.999395
0.976779 0.973944 1.00453 0.998387
0.972309 1.00041 0.972128 0.999775
1.01984 1 1.02019 0.999663
1.02132 1 1.02171 0.999617
1.01173 1 1.01217 0.99957
1.01064 1 1.01101 0.999631
1.00722 1 1.00766 0.999565
1.00182 1 1.00224 0.99958
1.00352 1 1.00394 0.999585
1.00141 1 1.00182 0.99959
0.999674 1 1 0.999674
0.999928 1 1.0003 0.999629
0.999707 1 1.00005 0.99966
0.999727 1 1 0.999727
0.999749 1 1 0.999749
0.999727 1 1 0.999727
0.999708 1 1 0.999708
0.999779 1 1 0.999779
0.999732 1 1 0.999732
0.999687 1 1 0.999687
0.999838 1 1 0.999838
0.999809 1 1 0.999809
0.999775 1 1 0.999775
0.999886 1 1 0.999886
0.999837 1 1 0.999837
0.999814 1 1 0.999814
0.999975 1 1 0.999975
0.999893 1 1 0.999893
0.999844 1 1 0.999844
1 1 1 1
0.999977 1 1 0.999977
0.999894 1 1 0.999894
1 1 1 1
1 1 1 1
0.999978 1 1 0.999978
1 1 1 1
1 1 1 1
1 1 1 1
0.999818 1 1 0.999818
0.999881 1 1 0.999881
0.999819 1 1 0.999819
0.99998 1 1 0.99998
0.999888 1 1 0.999888
1 1 1 1
0.999985 1 1 0.999985
0.999897 1 1 0.999897
1 1 1 1
1 1 1 1
0.999991 1 1 0.999991
1 1 1 1
1 1 1 1
1 1 1 1
1.00445 1.00446 1 0.999986
0.999577 0.999453 1.00012 1
0.999169 0.998799 1.00037 1
0.999802 1 1 0.999802
0.999821 1 1 0.999821
0.999787 1 1 0.999787
0.999786 1 1 0.999786
0.999796 1 1 0.999796
0.999776 1 1 0.999776
0.999773 1 1 0.999773
0.999763 1 1 0.999763
0.999778 1 1 0.999778
0.999752 1 1 0.999752
0.999751 1 1 0.999751
0.999746 1 1 0.999746
0.987445 0.99487 0.99258 0.999956
1.00692 1.00771 0.999236 0.999973
1.00353 1.00565 0.997902 0.999993
0.988552 1.00413 0.98454 0.999947
0.98097 0.997498 0.984035 0.999387
0.980135 0.98584 0.995652 0.998555
0.996123 0.987178 1.00908 0.999985
1.01585 0.987676 1.02853 0.999997
0.973334 0.989554 0.983654 0.999953
0.988255 0.987707 1.00217 0.998385
0.969646 0.984767 0.984841 0.999802
1.00568 0.994474 1.01133 0.99994
0.985385 0.981062 1.00584 0.998575
0.960141 0.970177 0.989841 0.999812
1.00019 1 1.00041 0.999785
0.999746 1 1 0.999746
0.999725 1 1 0.999725
1.0248 0.997848 1.02711 0.999897
1.00466 1 1.00506 0.999596
0.999695 1 1.00005 0.999644
1.00427 1 1.00465 0.999626
1.01183 0.999584 1.01251 0.999748
1.00853 1 1.00877 0.99976
0.997301 0.999946 0.997409 0.999947
1.00362 1.00363 1 0.999991
0.999253 0.999247 1.00001 1
1.0055 1 1.00561 0.999889
0.972354 0.996025 0.976329 0.999905
1.00528 1.00529 1 0.999988
0.991365 0.982278 1.01036 0.998902
0.966004 0.975363 0.990616 0.999786
0.986284 0.993827 0.992464 0.999946
0.983453 1.00103 0.982657 0.999778
0.996165 0.999177 0.997038 0.999947
0.965318 0.971504 0.993839 0.999792
0.97294 1.00104 0.972537 0.999373
0.979553 0.976431 1.00477 0.998431
0.977399 1.00817 0.969851 0.999614
0.968798 0.974323 0.994551 0.999777
0.974332 0.973221 1.00259 0.998556
0.976832 1.00492 0.972658 0.999374
1.02321 1 1.0236 0.999617
1.01126 1 1.0117 0.999566
1.00268 1 1.00305 0.999623
1.00703 1 1.00746 0.999569
1.00173 1 1.00215 0.999583
0.999745 1 1 0.999745
1.00093 1 1.00133 0.999593
0.99968 1 1 0.99968
0.999804 1 1 0.999804
0.999664 1 1 0.999664
0.99973 1 1 0.99973
0.999805 1 1 0.999805
0.999801 1 1 0.999801
0.999752 1 1 0.999752
0.999753 1 1 0.999753
0.999761 1 1 0.999761
0.999732 1 1 0.999732
0.999711 1 1 0.999711
0.999826 1 1 0.999826
0.999778 1 1 0.999778
0.999725 1 1 0.999725
0.999882 1 1 0.999882
0.999838 1 1 0.999838
0.999813 1 1 0.999813
0.99997 1 1 0.99997
0.999886 1 1 0.999886
0.999837 1 1 0.999837
1 1 1 1
0.999975 1 1 0.999975
0.999893 1 1 0.999893
1 1 1 1
1 1 1 1
0.999977 1 1 0.999977
1 1 1 1
1 1 1 1
1 1 1 1
0.999829 1 1 0.999829
0.99982 1 1 0.99982
0.999877 1 1 0.999877
0.999974 1 1 0.999974
0.999881 1 1 0.999881
0.999817 1 1 0.999817
1 1 1 1
0.99998 1 1 0.99998
0.999888 1 1 0.999888
1 1 1 1
1 1 1 1
0.999986 1 1 0.999986
1 1 1 1
1 1 1 1
1 1 1 1
0.997373 0.999127 0.998265 0.99998
1.00518 1.0052 1 0.999986
0.999254 0.999094 1.00016 1
0.999799 1 1 0.999799
0.99981 1 1 0.99981
0.999786 1 1 0.999786
0.99979 1 1 0.99979
0.999799 1 1 0.999799
0.999777 1 1 0.999777
0.999765 1 1 0.999765
0.999775 1 1 0.999775
0.999757 1 1 0.999757
0.999758 1 1 0.999758
0.999751 1 1 0.999751
0.999747 1 1 0.999747
0.965703 0.971094 0.994638 0.999809
0.987031 0.993932 0.993089 0.999967
1.00797 1.00884 0.999163 0.999972
0.973298 0.987321 0.985837 0.99996
0.965888 0.983939 0.982234 0.99941
0.991677 0.990258 1.00247 0.998965
1.0211 0.987981 1.03396 0.999578
1.00616 0.994474 1.01224 0.999523
0.960191 0.971634 0.988771 0.999445
0.989169 0.984711 1.00576 0.998772
0.999644 0.994269 1.00592 0.999485
0.979675 0.977039 1.00413 0.998577
1.00751 1 1.00777 0.999737
1.00005 1 1.00027 0.999786
0.999747 1 1 0.999747
1.01064 1 1.0109 0.99975
1.00457 1 1.00494 0.99963
1.00777 1 1.00801 0.999765
1.00122 1.00032 1.00118 0.999724
0.969854 0.976944 0.993015 0.999725
0.998062 0.999856 0.998242 0.999963
1.00301 1.00302 1 0.999991
0.981186 1.00122 0.980207 0.999779
0.972237 0.999754 0.972638 0.999834
0.997221 0.999856 0.99742 0.999945
0.978347 0.974753 1.00528 0.998418
0.964127 0.971679 0.992815 0.999409
0.97713 1.00739 0.970316 0.999635
0.969162 0.974481 0.994956 0.999584
0.975001 0.972149 1.00445 0.998491
0.974821 1.00373 0.971405 0.999784
0.97749 1.01242 0.96592 0.999565
0.965732 0.967192 1.00026 0.998233
0.990492 1.00175 0.988919 0.999844
1.01085 1 1.01129 0.999563
1.00241 1 1.00279 0.999619
0.999042 1 0.999263 0.999779
1.00158 1 1.00199 0.999586
0.999653 1 0.999906 0.999747
0.999376 1 0.99946 0.999916
0.999686 1 1 0.999686
0.999805 1 1 0.999805
0.999884 1 1 0.999884
0.999732 1 1 0.999732
0.999804 1 1 0.999804
0.999843 1 1 0.999843
0.999823 1 1 0.999823
0.999806 1 1 0.999806
0.999793 1 1 0.999793
0.999769 1 1 0.999769
0.999753 1 1 0.999753
0.999758 1 1 0.999758
0.9998 1 1 0.9998
0.999766 1 1 0.999766
0.999738 1 1 0.999738
0.999873 1 1 0.999873
0.999825 1 1 0.999825
0.999777 1 1 0.999777
0.999963 1 1 0.999963
0.999882 1 1 0.999882
0.999837 1 1 0.999837
1 1 1 1
0.99997 1 1 0.99997
0.999887 1 1 0.999887
1 1 1 1
1 1 1 1
0.999975 1 1 0.999975
1 1 1 1
1 1 1 1
1 1 1 1
0.999832 1 1 0.999832
0.999824 1 1 0.999824
0.999874 1 1 0.999874
0.999822 1 1 0.999822
0.999877 1 1 0.999877
0.999968 1 1 0.999968
1 1 1 1
0.999975 1 1 0.999975
0.999881 1 1 0.999881
1 1 1 1
1 1 1 1
0.999981 1 1 0.999981
1 1 1 1
1 1 1 1
1 1 1 1
0.972119 0.975307 0.997277 0.999452
0.996122 0.998637 0.997514 0.999968
1.00584 1.00586 1 0.999986
0.999797 1 1 0.999797
0.999786 1 1 0.999786
0.999812 1 1 0.999812
0.999814 1 1 0.999814
0.999791 1 1 0.999791
0.999767 1 1 0.999767
0.999777 1 1 0.999777
0.999758 1 1 0.999758
0.999781 1 1 0.999781
0.999751 1 1 0.999751
0.999998 1 1.00026 0.999741
0.999753 1 1 0.999753
0.999747 1 1 0.999747
0.975974 0.976857 1.00086 0.998235
0.968009 0.97319 0.995045 0.99963
0.987145 0.994418 0.992729 0.999957
0.959956 0.97187 0.987914 0.999825
0.985051 0.980733 1.00629 0.998128
1.00895 0.99523 1.01384 0.999948
1.00029 0.995135 1.00548 0.999701
0.980179 0.977811 1.00381 0.998618
0.994698 0.998879 0.996242 0.999571
1.00515 1.00099 1.0046 0.999563
1.00581 1 1.00608 0.999731
0.999787 1 1 0.999787
1.0053 1 1.00553 0.99977
1.00064 1.00066 1.00018 0.999797
0.961903 0.965275 0.997893 0.998611
0.970944 0.976337 0.995047 0.999426
0.998602 0.999713 0.998909 0.999979
0.97689 1.00691 0.970524 0.999656
0.978346 1.0086 0.970625 0.999363
0.971389 0.974869 0.997005 0.999423
0.976704 0.971796 1.00654 0.99852
0.977309 1.01103 0.967073 0.999559
0.968992 0.968897 1.00149 0.998606
0.987351 1.0042 0.983784 0.999433
0.975261 1.00956 0.966381 0.999632
0.998366 0.993018 1.00554 0.999846
1.00191 1 1.00229 0.999615
0.99798 1.00003 0.998177 0.999776
0.996656 1.00005 0.996703 0.999901
0.999487 1 0.999738 0.999749
0.999111 1 0.999197 0.999914
0.999115 1 0.999176 0.99994
0.999806 1 1 0.999806
0.999879 1 1 0.999879
0.999873 1 1 0.999873
0.999804 1 1 0.999804
0.99984 1 1 0.99984
0.999831 1 1 0.999831
0.999829 1 1 0.999829
0.999805 1 1 0.999805
0.999811 1 1 0.999811
0.999792 1 1 0.999792
0.999786 1 1 0.999786
0.99979 1 1 0.99979
0.999768 1 1 0.999768
0.999754 1 1 0.999754
0.999856 1 1 0.999856
0.999804 1 1 0.999804
0.999772 1 1 0.999772
0.999954 1 1 0.999954
0.999873 1 1 0.999873
0.999825 1 1 0.999825
1 1 1 1
0.999963 1 1 0.999963
0.999882 1 1 0.999882
1 1 1 1
1 1 1 1
0.999969 1 1 0.999969
1 1 1 1
1 1 1 1
1 1 1 1
0.999827 1 1 0.999827
0.999832 1 1 0.999832
0.999866 1 1 0.999866
0.999819 1 1 0.999819
0.99987 1 1 0.99987
0.999963 1 1 0.999963
0.999877 1 1 0.999877
0.999968 1 1 0.999968
1 1 1 1
1 1 1 1
1 1 1 1
0.999975 1 1 0.999975
1 1 1 1
1 1 1 1
1 1 1 1
0.969666 0.970669 1.00031 0.998659
0.971396 0.976841 0.994663 0.999762
0.997857 0.99974 0.998138 0.999979
0.999786 1 1 0.999786
0.999814 1 1 0.999814
0.999792 1 1 0.999792
0.999814 1 1 0.999814
0.99981 1 1 0.99981
0.999799 1 1 0.999799
0.999759 1 1 0.999759
0.999779 1 1 0.999779
0.999752 1 1 0.999752
0.999777 1 1 0.999777
0.999748 1 1 0.999748
0.999715 1 1.00011 0.999601
0.999796 1 1.00006 0.999738
0.999748 1 1 0.999748
0.991098 0.993809 0.997404 0.999867
0.972682 0.973864 1.00019 0.998601
0.965325 0.971962 0.993736 0.999432
0.977616 0.975431 1.00371 0.998536
1.0004 0.995293 1.0052 0.999932
0.994336 0.996895 0.997551 0.999882
0.997672 1.004 0.99413 0.99956
1.00332 1.00026 1.00347 0.999584
1.00505 1 1.00533 0.999724
0.997957 1.00038 0.997712 0.999868
0.98829 0.986386 1.00245 0.999485
0.965935 0.966876 1.00035 0.998676
0.971017 0.976846 0.994268 0.999764
0.977137 1.00946 0.968412 0.999554
0.989892 1.00774 0.982456 0.999828
0.97012 0.96849 1.00269 0.998994
0.977788 1.00709 0.971262 0.999631
0.993888 0.993977 1.00021 0.999701
0.983947 1.0026 0.981634 0.999757
1.00213 1 1.00249 0.999647
0.99684 1 0.997066 0.999774
0.996209 1 0.996307 0.999902
0.997198 1 0.997315 0.999883
0.99896 1 0.999047 0.999912
0.999184 1 0.999249 0.999936
0.999657 1 0.999802 0.999855
0.999875 1 1 0.999875
0.99987 1 1 0.99987
0.999811 1 1 0.999811
0.999837 1 1 0.999837
0.999832 1 1 0.999832
0.999794 1 1 0.999794
0.999834 1 1 0.999834
0.999809 1 1 0.999809
0.999789 1 1 0.999789
0.999791 1 1 0.999791
0.999785 1 1 0.999785
0.999797 1 1 0.999797
0.999834 1 1 0.999834
0.999794 1 1 0.999794
0.999767 1 1 0.999767
0.99994 1 1 0.99994
0.999856 1 1 0.999856
0.999807 1 1 0.999807
1 1 1 1
0.999953 1 1 0.999953
0.999873 1 1 0.999873
1 1 1 1
1 1 1 1
0.999963 1 1 0.999963
1 1 1 1
1 1 1 1
1 1 1 1
0.999825 1 1 0.999825
0.99983 1 1 0.99983
0.999863 1 1 0.999863
0.999832 1 1 0.999832
0.999866 1 1 0.999866
0.999957 1 1 0.999957
0.999867 1 1 0.999867
0.999963 1 1 0.999963
1 1 1 1
0.999968 1 1 0.999968
1 1 1 1
1 1 1 1
1 1 1 1
1 1 1 1
1 1 1 1
0.984719 0.986272 0.998582 0.999843
0.965448 0.967849 0.998896 0.998623
0.96889 0.975582 0.99371 0.999426
0.999797 1 1 0.999797
0.999793 1 1 0.999793
0.999815 1 1 0.999815
0.999799 1 1 0.999799
0.999809 1 1 0.999809
0.999814 1 1 0.999814
0.999778 1 1 0.999778
0.999754 1 1 0.999754
0.999781 1 1 0.999781
0.999762 1 1 0.999762
0.999681 1 1 0.999681
0.999487 1 1 0.999487
0.999738 1 1.00013 0.999609
0.999736 1 1 0.999736
0.9971 1.00023 0.997289 0.999577
0.99194 0.99536 0.996885 0.999678
0.974514 0.974818 1.00072 0.998972
0.997628 0.998503 0.999624 0.9995
1.00156 1.00404 0.998044 0.999482
1.00411 1 1.00451 0.999606
0.999867 1 1.00002 0.999847
0.989119 0.985344 1.00397 0.999857
0.963354 0.966694 0.997922 0.998621
0.980295 1.00456 0.976209 0.999629
0.99036 0.994553 0.996243 0.999539
0.98748 1.00157 0.986185 0.999741
1.0011 1 1.00141 0.999694
0.999287 1 0.999591 0.999696
0.999659 1 1 0.999659
0.995865 1 0.995962 0.999902
0.998039 1 0.998155 0.999883
0.999782 1 1 0.999782
0.99934 1 0.999408 0.999932
0.999817 1 0.999964 0.999853
0.999771 1 1 0.999771
0.999866 1 1 0.999866
0.999816 1 1 0.999816
0.999758 1 1 0.999758
0.999833 1 1 0.999833
0.999795 1 1 0.999795
0.999773 1 1 0.999773
0.999813 1 1 0.999813
0.99979 1 1 0.99979
0.999789 1 1 0.999789
0.999784 1 1 0.999784
0.999795 1 1 0.999795
0.999828 1 1 0.999828
0.999923 1 1 0.999923
0.999838 1 1 0.999838
0.999797 1 1 0.999797
1 1 1 1
0.999939 1 1 0.999939
0.999856 1 1 0.999856
1 1 1 1
1 1 1 1
0.999953 1 1 0.999953
1 1 1 1
1 1 1 1
1 1 1 1
0.999813 1 1 0.999813
0.999825 1 1 0.999825
0.999862 1 1 0.999862
0.999834 1 1 0.999834
0.999866 1 1 0.999866
0.999951 1 1 0.999951
0.999866 1 1 0.999866
0.999957 1 1 0.999957
1 1 1 1
0.999963 1 1 0.999963
1 1 1 1
1 1 1 1
1 1 1 1
1 1 1 1
1 1 1 1
0.998003 1 0.998197 0.999806
0.985099 0.987575 0.998008 0.999485
0.96649 0.968101 0.999659 0.998676
0.999802 1 1 0.999802
0.999763 1 1 0.999763
0.999799 1 1 0.999799
0.999798 1 1 0.999798
0.999807 1 1 0.999807
0.999811 1 1 0.999811
0.99971 1 1 0.99971
0.999784 1 1 0.999784
0.999775 1 1 0.999775
0.999681 1 1 0.999681
0.999556 1 1 0.999556
0.999637 1 1 0.999637
0.999498 1 1 0.999498
0.999617 1 1 0.999617
0.998844 1.00168 0.997581 0.999588
0.990822 0.994883 0.996435 0.999482
1.0024 1.00351 0.999489 0.999404
0.999845 1 1 0.999845
1.00101 1 1.00116 0.999851
0.987541 0.985124 1.00298 0.999475
0.991309 1.00082 0.990765 0.999726
1.00008 1 1.00034 0.999741
0.998904 1.00001 0.999187 0.999706
0.999681 1 1 0.999681
0.999694 1 1 0.999694
0.999793 1 1 0.999793
0.998854 1 0.998971 0.999884
0.999786 1 1 0.999786
0.999711 1 1 0.999711
0.999851 1 1 0.999851
0.999771 1 1 0.999771
0.999722 1 1 0.999722
0.999821 1 1 0.999821
0.999758 1 1 0.999758
0.99974 1 1 0.99974
0.999795 1 1 0.999795
0.999773 1 1 0.999773
0.999774 1 1 0.999774
0.999791 1 1 0.999791
0.999789 1 1 0.999789
0.999819 1 1 0.999819
0.999792 1 1 0.999792
0.999827 1 1 0.999827
0.999909 1 1 0.999909
0.999999 1 1 0.999999
0.999923 1 1 0.999923
0.999843 1 1 0.999843
1 1 1 1
1 1 1 1
0.999938 1 1 0.999938
1 1 1 1
1 1 1 1
1 1 1 1
0.999785 1 1 0.999785
0.999809 1 1 0.999809
0.999852 1 1 0.999852
0.999825 1 1 0.999825
0.999862 1 1 0.999862
0.999943 1 1 0.999943
0.999868 1 1 0.999868
0.999951 1 1 0.999951
1 1 1 1
0.999958 1 1 0.999958
1 1 1 1
1 1 1 1
1 1 1 1
1 1 1 1
1 1 1 1
0.999823 1 1 0.999823
0.998051 1 0.998233 0.999817
0.984424 0.986214 0.998319 0.999865
0.999741 1 1 0.999741
0.999816 1 1 0.999816
0.999706 1 1 0.999706
0.999761 1 1 0.999761
0.999801 1 1 0.999801
0.999615 1 1 0.999615
0.999808 1 1 0.999808
0.999711 1 1 0.999711
0.999621 1 1 0.999621
0.999681 1 1 0.999681
0.999543 1 1 0.999543
0.999632 1 1 0.999632
0.999508 1 1 0.999508
1.00074 1.00325 0.997902 0.999599
0.999864 1 1 0.999864
0.999843 1 1 0.999843
1.0021 1 1.00224 0.999855
0.998627 1 0.998911 0.999716
0.999704 1 1 0.999704
0.999689 1 1 0.999689
0.999797 1 1 0.999797
0.999767 1 1 0.999767
0.999789 1 1 0.999789
0.999715 1 1 0.999715
0.999706 1 1 0.999706
0.999772 1 1 0.999772
0.99972 1 1 0.99972
0.999711 1 1 0.999711
0.999758 1 1 0.999758
0.99974 1 1 0.99974
0.999747 1 1 0.999747
0.999773 1 1 0.999773
0.999774 1 1 0.999774
0.999802 1 1 0.999802
0.99979 1 1 0.99979
0.999819 1 1 0.999819
0.999895 1 1 0.999895
0.999825 1 1 0.999825
0.999909 1 1 0.999909
0.999997 1 1 0.999997
1 1 1 1
0.999999 1 1 0.999999
0.999923 1 1 0.999923
1 1 1 1
1 1 1 1
1 1 1 1
0.999716 1 1 0.999716
0.999757 1 1 0.999757
0.999781 1 1 0.999781
0.999839 1 1 0.999839
0.999806 1 1 0.999806
0.999852 1 1 0.999852
0.999935 1 1 0.999935
0.999862 1 1 0.999862
0.999944 1 1 0.999944
1 1 1 1
0.999952 1 1 0.999952
1 1 1 1
1 1 1 1
1 1 1 1
1 1 1 1
1 1 1 1
0.999777 1 1 0.999777
0.999816 1 1 0.999816
0.998451 1.00038 0.998247 0.999828
0.999654 1 1 0.999654
0.999755 1 1 0.999755
0.99983 1 1 0.99983
0.999713 1 1 0.999713
0.999758 1 1 0.999758
0.999608 1 1 0.999608
0.999608 1 1 0.999608
0.999712 1 1 0.999712
0.999616 1 1 0.999616
0.99953 1 1 0.99953
0.999626 1 1 0.999626
0.99984 1 1 0.99984
0.999861 1 1 0.999861
0.99984 1 1 0.99984
0.999685 1 1 0.999685
0.9998 1 1 0.9998
0.999767 1 1 0.999767
0.999761 1 1 0.999761
0.999719 1 1 0.999719
0.999703 1 1 0.999703
0.999718 1 1 0.999718
0.999718 1 1 0.999718
0.99971 1 1 0.99971
0.999722 1 1 0.999722
0.999739 1 1 0.999739
0.999747 1 1 0.999747
0.999778 1 1 0.999778
0.999774 1 1 0.999774
0.999802 1 1 0.999802
0.999877 1 1 0.999877
0.999819 1 1 0.999819
0.999895 1 1 0.999895
0.999994 1 1 0.999994
0.999909 1 1 0.999909
0.999996 1 1 0.999996
1 1 1 1
1 1 1 1
0.999998 1 1 0.999998
1 1 1 1
0.999668 1 1 0.999668
0.999752 1 1 0.999752
0.999738 1 1 0.999738
0.999814 1 1 0.999814
0.999757 1 1 0.999757
0.999777 1 1 0.999777
0.999839 1 1 0.999839
0.999924 1 1 0.999924
0.999853 1 1 0.999853
0.999935 1 1 0.999935
1 1 1 1
0.999944 1 1 0.999944
1 1 1 1
1 1 1 1
1 1 1 1
1 1 1 1
1 1 1 1
0.999733 1 1 0.999733
0.999778 1 1 0.999778
0.99981 1 1 0.99981
0.999631 1 1 0.999631
0.999655 1 1 0.999655
0.99977 1 1 0.99977
0.99972 1 1 0.99972
0.999609 1 1 0.999609
0.9996 1 1 0.9996
0.999612 1 1 0.999612
0.999804 1 1 0.999804
0.999827 1 1 0.999827
0.999857 1 1 0.999857
0.999761 1 1 0.999761
0.999766 1 1 0.999766
0.99976 1 1 0.99976
0.999748 1 1 0.999748
0.999699 1 1 0.999699
0.999718 1 1 0.999718
0.999721 1 1 0.999721
0.999709 1 1 0.999709
0.999722 1 1 0.999722
0.999757 1 1 0.999757
0.999746 1 1 0.999746
0.999778 1 1 0.999778
0.999856 1 1 0.999856
0.999802 1 1 0.999802
0.999877 1 1 0.999877
0.99999 1 1 0.99999
0.999895 1 1 0.999895
0.999993 1 1 0.999993
1 1 1 1
0.999995 1 1 0.999995
1 1 1 1
1 1 1 1
0.999644 1 1 0.999644
0.999701 1 1 0.999701
0.999677 1 1 0.999677
0.999797 1 1 0.999797
0.99975 1 1 0.99975
0.999759 1 1 0.999759
0.999902 1 1 0.999902
0.999814 1 1 0.999814
0.999757 1 1 0.999757
0.999839 1 1 0.999839
0.999924 1 1 0.999924
0.999998 1 1 0.999998
0.999936 1 1 0.999936
1 1 1 1
1 1 1 1
1 1 1 1
1 1 1 1
1 1 1 1
0.999715 1 1 0.999715
0.999723 1 1 0.999723
0.999778 1 1 0.999778
0.999624 1 1 0.999624
0.999655 1 1 0.999655
0.999609 1 1 0.999609
0.999763 1 1 0.999763
0.999807 1 1 0.999807
0.999814 1 1 0.999814
0.999757 1 1 0.999757
0.999745 1 1 0.999745
0.999758 1 1 0.999758
0.999748 1 1 0.999748
0.999744 1 1 0.999744
0.999718 1 1 0.999718
0.999722 1 1 0.999722
0.99975 1 1 0.99975
0.999722 1 1 0.999722
0.999757 1 1 0.999757
0.999838 1 1 0.999838
0.999778 1 1 0.999778
0.999856 1 1 0.999856
0.999985 1 1 0.999985
0.999877 1 1 0.999877
0.999988 1 1 0.999988
1 1 1 1
0.999991 1 1 0.999991
1 1 1 1
1 1 1 1
0.99971 1 1 0.99971
0.999667 1 1 0.999667
0.999641 1 1 0.999641
0.999755 1 1 0.999755
0.999706 1 1 0.999706
0.999685 1 1 0.999685
0.999874 1 1 0.999874
0.999788 1 1 0.999788
0.999748 1 1 0.999748
0.999993 1 1 0.999993
0.999902 1 1 0.999902
0.999814 1 1 0.999814
0.999925 1 1 0.999925
0.999999 1 1 0.999999
1 1 1 1
1 1 1 1
1 1 1 1
1 1 1 1
0.999708 1 1 0.999708
0.999711 1 1 0.999711
0.999713 1 1 0.999713
0.999617 1 1 0.999617
0.999735 1 1 0.999735
0.999767 1 1 0.999767
0.999811 1 1 0.999811
0.999753 1 1 0.999753
0.999747 1 1 0.999747
0.999755 1 1 0.999755
0.999748 1 1 0.999748
0.999744 1 1 0.999744
0.999757 1 1 0.999757
0.999723 1 1 0.999723
0.99975 1 1 0.99975
0.999828 1 1 0.999828
0.999757 1 1 0.999757
0.999837 1 1 0.999837
0.999981 1 1 0.999981
0.999855 1 1 0.999855
0.999984 1 1 0.999984
1 1 1 1
0.999987 1 1 0.999987
1 1 1 1
1 1 1 1
0.999714 1 1 0.999714
0.999704 1 1 0.999704
0.999709 1 1 0.999709
0.999713 1 1 0.999713
0.999675 1 1 0.999675
0.999638 1 1 0.999638
0.99983 1 1 0.99983
0.999755 1 1 0.999755
0.99971 1 1 0.99971
0.999984 1 1 0.999984
0.999866 1 1 0.999866
0.999779 1 1 0.999779
1 1 1 1
0.999995 1 1 0.999995
0.999903 1 1 0.999903
1 1 1 1
1 1 1 1
1 1 1 1
0.999719 1 1 0.999719
0.999717 1 1 0.999717
0.999708 1 1 0.999708
0.999743 1 1 0.999743
0.999735 1 1 0.999735
0.999771 1 1 0.999771
0.999748 1 1 0.999748
0.999755 1 1 0.999755
0.99978 1 1 0.99978
0.999745 1 1 0.999745
0.999763 1 1 0.999763
0.99982 1 1 0.99982
0.999751 1 1 0.999751
0.999828 1 1 0.999828
0.999977 1 1 0.999977
0.999837 1 1 0.999837
0.99998 1 1 0.99998
1 1 1 1
0.999983 1 1 0.999983
1 1 1 1
1 1 1 1
0.999716 1 1 0.999716
0.999725 1 1 0.999725
0.999713 1 1 0.999713
0.99973 1 1 0.99973
0.999707 1 1 0.999707
0.999708 1 1 0.999708
0.999803 1 1 0.999803
0.999723 1 1 0.999723
0.999683 1 1 0.999683
0.999976 1 1 0.999976
0.999826 1 1 0.999826
0.999754 1 1 0.999754
1 1 1 1
0.999987 1 1 0.999987
0.999858 1 1 0.999858
1 1 1 1
0.999997 1 1 0.999997
1 1 1 1
0.999732 1 1 0.999732
0.999719 1 1 0.999719
0.999725 1 1 0.999725
0.999768 1 1 0.999768
0.999742 1 1 0.999742
0.999734 1 1 0.999734
0.999756 1 1 0.999756
0.99978 1 1 0.99978
0.999826 1 1 0.999826
0.999768 1 1 0.999768
0.999824 1 1 0.999824
0.999974 1 1 0.999974
0.999829 1 1 0.999829
0.999976 1 1 0.999976
1 1 1 1
0.999979 1 1 0.999979
1 1 1 1
1 1 1 1
0.999732 1 1 0.999732
0.999711 1 1 0.999711
0.999747 1 1 0.999747
0.999726 1 1 0.999726
0.999712 1 1 0.999712
0.99981 1 1 0.99981
0.999729 1 1 0.999729
0.999709 1 1 0.999709
0.999971 1 1 0.999971
0.999807 1 1 0.999807
0.999732 1 1 0.999732
1 1 1 1
0.999978 1 1 0.999978
0.999822 1 1 0.999822
1 1 1 1
0.99999 1 1 0.99999
1 1 1 1
0.999761 1 1 0.999761
0.999732 1 1 0.999732
0.999719 1 1 0.999719
0.999819 1 1 0.999819
0.999768 1 1 0.999768
0.999741 1 1 0.999741
0.99978 1 1 0.99978
0.999826 1 1 0.999826
0.999972 1 1 0.999972
0.999828 1 1 0.999828
0.999973 1 1 0.999973
1 1 1 1
0.999975 1 1 0.999975
1 1 1 1
1 1 1 1
0.999754 1 1 0.999754
0.999729 1 1 0.999729
0.999707 1 1 0.999707
0.999818 1 1 0.999818
0.999747 1 1 0.999747
0.999727 1 1 0.999727
0.999971 1 1 0.999971
0.99981 1 1 0.99981
0.999728 1 1 0.999728
1 1 1 1
0.999972 1 1 0.999972
0.999811 1 1 0.999811
1 1 1 1
0.999981 1 1 0.999981
1 1 1 1
0.999825 1 1 0.999825
0.999757 1 1 0.999757
0.999733 1 1 0.999733
0.99997 1 1 0.99997
0.99982 1 1 0.99982
0.999768 1 1 0.999768
0.999826 1 1 0.999826
0.999971 1 1 0.999971
1 1 1 1
0.999973 1 1 0.999973
1 1 1 1
1 1 1 1
0.999824 1 1 0.999824
0.999753 1 1 0.999753
0.999726 1 1 0.999726
0.999972 1 1 0.999972
0.999818 1 1 0.999818
0.999747 1 1 0.999747
1 1 1 1
0.99997 1 1 0.99997
0.999809 1 1 0.999809
1 1 1 1
0.999974 1 1 0.999974
1 1 1 1
0.999969 1 1 0.999969
0.99982 1 1 0.99982
0.999752 1 1 0.999752
1 1 1 1
0.99997 1 1 0.99997
0.999821 1 1 0.999821
0.999971 1 1 0.999971
1 1 1 1
1 1 1 1
0.999971 1 1 0.999971
0.999824 1 1 0.999824
0.999752 1 1 0.999752
1 1 1 1
0.999971 1 1 0.999971
0.999817 1 1 0.999817
1 1 1 1
0.99997 1 1 0.99997
1 1 1 1
1 1 1 1
0.999969 1 1 0.999969
0.999816 1 1 0.999816
1 1 1 1
0.999969 1 1 0.999969
1 1 1 1
1 1 1 1
0.999971 1 1 0.999971
0.999824 1 1 0.999824
1 1 1 1
0.999971 1 1 0.999971
1 1 1 1
1 1 1 1
0.99997 1 1 0.99997
1 1 1 1
1 1 1 1
0.999972 1 1 0.999972
1 1 1 1
1 1 1 1
1 1 1 1

VECTORS lamdaE float
0.999077 0.999256 0.997356
0.999253 0.998313 0.999026
0.999053 0.99927 0.997391
0.998892 1.00003 0.997046
0.998967 0.999635 0.997227
0.999195 0.998797 0.997548
0.999483 1.0001 0.99562
0.999278 0.998251 0.999047
0.998862 0.999555 0.998854
0.999118 0.998652 0.999002
0.999388 0.997972 0.997936
0.999492 0.999656 0.995814
0.999038 1.00003 0.996927
0.998817 1.00015 0.997128
0.999028 0.999281 0.997427
0.998856 1.00009 0.997074
0.999177 0.998785 0.997587
0.998939 0.99967 0.997258
0.999497 1.0001 0.995621
0.998961 1.00001 0.998712
0.99891 1.00004 0.997039
0.998898 0.999903 0.997125
0.999728 1.00025 0.995063
0.999536 1.00021 0.995429
0.999318 0.998316 0.997767
0.999429 0.999921 0.99588
1.00027 1.00094 0.993318
0.999306 0.998185 0.999069
0.998889 0.999632 0.998056
0.999141 0.998743 0.998301
0.99938 0.997904 0.999108
0.999469 0.999665 0.995815
0.998865 1.00008 0.997147
0.999008 0.99936 0.997447
0.999583 1.00023 0.995745
0.999472 0.997572 0.999182
0.999481 0.999848 0.996241
0.999523 0.999369 0.996035
0.999916 1.00113 0.993525
0.999648 0.997176 0.9992
0.999031 1.00002 0.998665
0.998855 1.00007 0.997928
0.99911 0.99999 0.998627
0.998875 1.00009 0.997087
1.00004 1 0.994301
0.998794 1.00003 0.998789
0.99985 1.00015 0.995383
0.998818 1.00017 0.997104
0.99891 0.999703 0.997291
0.999157 0.998767 0.997626
0.999512 1.0001 0.99562
0.998955 1.00001 0.997886
0.998876 1.00009 0.997063
0.999304 0.998286 0.9978
0.998866 0.999955 0.997156
0.999751 1.00023 0.995063
0.999441 0.999924 0.995882
0.999558 1.0002 0.99543
1.0003 1.00095 0.993281
0.999022 0.99999 0.998678
0.998915 1.00002 0.997065
0.999953 0.999994 0.995311
0.999824 1.00015 0.994995
0.999611 1.00027 0.995243
1.00106 1.00039 0.992369
1.0005 1.0007 0.992933
0.999464 0.997879 0.997938
0.999419 0.999602 0.996199
1.00001 1.00113 0.993618
1.00082 1.00089 0.992002
0.998915 0.99945 0.998852
0.999411 0.997842 0.999134
0.999174 0.998592 0.998998
0.999445 0.999681 0.995817
0.998857 0.999871 0.998769
0.998989 0.999168 0.998895
0.999528 1.00035 0.994993
0.99949 0.997604 0.998609
0.999455 0.999939 0.995581
0.999515 0.999318 0.996355
0.999906 1.00115 0.993513
0.999566 0.997376 0.999182
0.999796 0.998416 0.996437
0.999674 1.00035 0.994717
0.999501 1.0002 0.995229
1.00046 1.00073 0.992832
0.9996 0.998972 0.996812
1.00002 1.00102 0.993446
0.999869 1.00112 0.993637
1.00026 1.00139 0.992575
0.999714 0.996993 0.999224
0.999661 0.997161 0.999207
0.998859 1.00002 0.998744
0.998986 1.00002 0.998688
0.999093 0.999988 0.998634
0.998916 1.00005 0.997888
1.00003 0.99999 0.994754
0.998821 1.00004 0.997945
0.999817 1.00014 0.994989
0.999101 0.999972 0.998637
1.00012 0.999909 0.994194
0.999939 1.00007 0.995296
1.00154 0.999935 0.991473
0.999757 1.00023 0.995446
1.00122 1.00019 0.991875
0.998987 1.00001 0.997016
0.99884 1.00015 0.997086
0.999289 0.998252 0.997835
0.998833 1.00001 0.997189
0.999775 1.0002 0.995063
0.99958 1.00018 0.995429
0.999455 0.999934 0.995883
1.00033 1.00095 0.993243
0.99905 0.999993 0.998662
0.998889 1.00004 0.997092
0.999964 0.999992 0.994684
0.999846 1.00014 0.994987
0.999429 0.997857 0.998532
0.999441 0.999595 0.99634
0.999636 1.00025 0.995246
1.00106 1.00036 0.992288
1.00005 1.00114 0.993573
1.00052 1.00071 0.992985
1.00082 1.00089 0.992009
1.00005 0.99993 0.99432
0.99986 1.00006 0.995021
1.00145 0.999936 0.991883
1.00124 1.00015 0.992063
1.00077 1.00053 0.992587
1.00171 1.00023 0.991113
0.99953 0.997567 0.999161
1.00105 1.0006 0.991832
0.999535 0.999227 0.99612
0.999835 1.00117 0.993584
1.00056 1.00129 0.992178
1.00113 1.00079 0.991506
0.999731 0.998631 0.996316
1.00006 1.00041 0.993972
0.998855 0.999769 0.998789
0.999026 0.999033 0.998929
0.999476 1.00044 0.994992
0.99951 0.997566 0.999172
0.999504 0.999297 0.996076
0.999405 1.00001 0.995564
0.999896 1.00118 0.993501
0.999583 0.99736 0.999187
0.999802 0.998389 0.996442
0.999638 1.00033 0.995154
0.999457 1.00018 0.995632
1.00047 1.00072 0.992839
0.999612 0.998944 0.996273
1.00001 1.00102 0.993441
0.999848 1.00115 0.993631
1.00026 1.00138 0.992552
0.999709 0.998672 0.996358
0.99986 0.998188 0.99654
1.00007 1.00032 0.994033
1.00076 1.00052 0.992445
1.00019 1.00091 0.993214
1.00102 1.00074 0.991773
0.999925 1.00084 0.993804
1.00044 1.00107 0.992517
1.00012 1.00171 0.992599
1.00037 1.00163 0.992199
0.999768 0.996824 0.999251
0.999723 0.996979 0.999232
0.999674 0.997147 0.999214
0.999796 0.998389 0.996441
0.999606 0.997367 0.999185
0.998838 0.999953 0.998757
0.998908 1.00003 0.998725
0.999803 1.00017 0.994587
1.00001 0.999984 0.994342
0.999075 0.999986 0.998645
0.999109 0.999976 0.99863
1.00012 0.999901 0.994199
0.999906 1.00006 0.994905
1.00154 0.999937 0.991477
0.999718 1.00028 0.994647
1.00121 1.0002 0.991881
1.00013 0.999873 0.994192
1.00168 0.999863 0.991256
1.00138 1.00005 0.991694
1.0022 0.999842 0.990296
1.00102 1.00034 0.992118
1.00185 1.00002 0.990823
0.999077 0.999996 0.998646
0.998862 1.00007 0.99712
0.999959 1 0.994076
0.999869 1.00011 0.99498
0.999389 0.997831 0.999137
0.999464 0.999595 0.996482
0.999663 1.00022 0.995247
1.00106 1.00034 0.992207
1.00055 1.00073 0.993036
1.00009 1.00116 0.993528
1.00081 1.00089 0.992015
1.00005 0.999936 0.994314
0.999884 1.00005 0.995009
1.00143 0.99994 0.991707
1.00125 1.00017 0.992119
0.999509 0.997586 0.999154
0.999534 0.999245 0.996397
0.999878 1.00116 0.99372
1.00077 1.00052 0.992593
1.00169 1.0002 0.991018
1.00052 1.00129 0.992161
1.00107 1.00061 0.991873
1.00112 1.00078 0.991516
0.999721 0.99867 0.996313
1.00006 1.00039 0.993977
1.00159 0.999874 0.991447
1.00134 1.00001 0.992004
1.00211 0.999881 0.990653
1.0019 0.999948 0.990685
1.0013 1.00041 0.991588
1.00204 0.999956 0.990653
0.99963 0.998911 0.996224
1.0014 1.00038 0.99138
0.999842 1.00107 0.993706
1.00022 1.0015 0.992432
1.00086 1.0014 0.991651
1.00132 1.00058 0.991407
1.00001 1.00064 0.99383
1.00007 1.0001 0.994248
1.0002 1.00151 0.992629
0.999593 1.00042 0.99477
0.9996 0.997343 0.999193
0.999809 0.99836 0.996448
0.9994 1.00029 0.995289
1.00047 1.0007 0.992845
0.999607 0.998918 0.996266
0.999827 1.00119 0.993625
1 1.00103 0.993435
1.00027 1.00137 0.99253
0.999715 0.998641 0.996361
0.999864 0.998165 0.996547
1.00006 1.00033 0.994031
1.00077 1.00051 0.992451
1.00018 1.00091 0.993219
1.00101 1.00074 0.991775
0.999902 1.00088 0.993803
1.00044 1.00107 0.992556
1.00012 1.00171 0.992593
1.00036 1.00162 0.992158
0.999903 0.997984 0.996661
1.00001 1.00054 0.993923
1.00009 1.0001 0.994202
1.00019 1.00137 0.992782
1.00135 1.00046 0.991374
1.00067 1.00096 0.992254
1.0013 1.00073 0.991227
1.00012 1.00162 0.992706
1.00061 1.00119 0.992147
1.00017 1.00218 0.992031
1.00046 1.00166 0.991859
1.00012 0.999258 0.99499
0.999964 0.997627 0.996901
0.999813 0.996661 0.999281
0.999774 0.996809 0.99926
0.999732 0.996966 0.99924
0.999838 0.998148 0.996608
0.999659 0.997175 0.999218
0.999788 0.998423 0.996433
0.999593 0.99738 0.999178
0.999703 1.0003 0.994656
0.999899 1.00007 0.994491
1.00121 1.0002 0.991887
1.00154 0.99994 0.991481
1.00012 0.999893 0.994203
0.999118 0.999977 0.998625
1.00014 0.999876 0.994186
1.00168 0.999862 0.991259
1.00137 1.00005 0.991698
1.00221 0.999847 0.990295
1.00101 1.00035 0.992125
1.00186 1.00002 0.990824
1.00169 0.99984 0.991262
1.00234 0.999812 0.990042
1.00204 0.99989 0.99057
1.0025 0.999625 0.98996
1.00162 1.00022 0.99108
1.00219 0.999746 0.990445
1.00006 0.999942 0.994306
0.999909 1.00003 0.994997
1.00142 0.999935 0.991531
1.00126 1.00019 0.992174
0.999489 0.997605 0.999146
0.999535 0.999263 0.996668
0.999921 1.00114 0.993855
1.00077 1.00052 0.9926
1.00167 1.00016 0.990924
1.0011 1.00061 0.991913
1.00047 1.0013 0.992143
1.00111 1.00078 0.991527
0.999712 0.998708 0.99631
1.00006 1.00037 0.993982
1.00158 0.999874 0.991379
1.00134 1.00001 0.992006
1.00211 0.99986 0.990611
1.00191 0.999985 0.990789
0.999628 0.998945 0.996222
0.999866 1.00104 0.99371
1.00022 1.0015 0.992497
1.00133 1.00042 0.991586
1.00202 0.999903 0.990633
1.00082 1.00141 0.991579
1.0014 1.00038 0.991381
1.0013 1.00056 0.991395
1.00002 1.00061 0.993836
1.00021 1.00148 0.992605
1.00007 1.00011 0.994245
1.00223 0.99986 0.990428
1.00203 0.999875 0.990699
1.00242 0.999777 0.990053
1.00227 0.999718 0.990303
1.00161 1.00011 0.991126
1.00222 0.99951 0.9907
0.999917 1.00086 0.993775
1.00155 1.00009 0.991335
1.00014 1.0015 0.992728
1.00038 1.00181 0.991816
1.001 1.00146 0.991202
1.00142 1.00033 0.991587
1.00007 0.999777 0.99457
1.00019 1.00145 0.992688
1.00018 1.00146 0.9926
1.00022 1.00202 0.992175
1.00077 1.0005 0.992457
0.999868 0.998142 0.996554
0.999721 0.998609 0.996364
1.00005 1.00035 0.994029
1.00017 1.0009 0.993223
1.001 1.00074 0.991777
0.999879 1.00092 0.993802
1.00011 1.00172 0.992587
1.00045 1.00108 0.992595
1.00036 1.00161 0.992116
0.999904 0.997967 0.996669
1 1.00057 0.99392
1.00009 1.0001 0.994202
1.00018 1.00138 0.992775
1.00136 1.00046 0.99137
1.00065 1.00096 0.992263
1.00129 1.00073 0.991229
1.0001 1.00164 0.992708
1.00062 1.0012 0.99219
1.00018 1.00219 0.992015
1.00044 1.00163 0.991963
0.999935 0.997797 0.996792
1.0001 0.999873 0.994411
1.00018 1.00142 0.992769
1.0002 1.00128 0.992861
1.0002 1.00194 0.992186
1.00166 1.00035 0.990865
1.00087 1.00104 0.991774
1.00139 1.00078 0.991003
1.00013 1.0022 0.992102
1.00069 1.00134 0.991854
1.00026 1.00244 0.991385
1.00011 0.999432 0.99483
1.00014 1.0005 0.993751
1.00012 0.999138 0.995111
1.00012 0.999262 0.994993
0.999983 0.997457 0.99745
0.999959 0.99761 0.997141
0.999876 0.99653 0.998392
0.999818 0.996643 0.99929
0.999779 0.996794 0.999269
0.999869 0.997925 0.996776
0.999704 0.996977 0.999256
0.999836 0.998173 0.996597
0.999653 0.997192 0.999207
0.999781 0.998456 0.996425
0.999579 0.997395 0.999171
1.00101 1.00035 0.992131
1.00137 1.00005 0.991702
1.00186 1.00002 0.990825
1.00221 0.999852 0.990294
1.00169 0.99986 0.991263
1.00014 0.999882 0.994182
1.0017 0.999837 0.991258
1.00235 0.999815 0.990043
1.00204 0.999896 0.990574
1.00252 0.999613 0.989942
1.00163 1.00022 0.991076
1.00219 0.999756 0.990445
1.00235 0.999819 0.990032
1.00259 0.999652 0.989709
1.00238 0.999611 0.990179
1.0027 0.999313 0.989935
1.00194 1.00001 0.990664
1.00236 0.999198 0.990658
1.00156 0.999878 0.991312
1.00135 0.999999 0.992008
1.0021 0.999844 0.990569
1.00192 1.00002 0.990894
0.999625 0.998978 0.996221
0.999889 1.00101 0.993713
1.00022 1.0015 0.992562
1.00136 1.00044 0.991584
1.00201 0.999851 0.990614
1.0014 1.00037 0.991383
1.00078 1.00141 0.991506
1.00127 1.00055 0.991382
1.00003 1.00058 0.993843
1.00022 1.00145 0.992581
1.00006 1.00011 0.994243
1.00223 0.999859 0.990338
1.00204 0.999855 0.9907
1.00242 0.999761 0.989999
1.00229 0.999728 0.990321
0.999938 1.00083 0.993781
1.00016 1.00149 0.992722
1.00037 1.00182 0.991889
1.00163 1.00015 0.991151
1.0022 0.999423 0.990747
1.00096 1.00151 0.991131
1.00156 1.00009 0.991339
1.00139 1.00025 0.991624
1.0002 1.00143 0.992697
1.00023 1.002 0.992125
1.00006 0.999789 0.994564
1.00018 1.00144 0.992634
1.00249 0.999807 0.989812
1.00244 0.999682 0.990113
1.00258 0.999698 0.989745
1.00246 0.999356 0.990256
1.00179 0.999717 0.991182
1.0024 0.998924 0.990942
1.00015 1.00146 0.992761
1.00162 0.999589 0.991704
1.0002 1.00182 0.992178
1.00052 1.00222 0.991283
1.00108 1.00153 0.990877
1.00152 1.00011 0.991627
1.00007 0.999535 0.994806
1.00016 1.00118 0.992896
1.00024 1.00179 0.992275
1.00016 1.00227 0.991967
1.00028 1.0021 0.99198
0.999905 0.997949 0.996677
1.00136 1.00046 0.991365
1.00009 1.0001 0.994203
0.999986 1.0006 0.993917
1.00018 1.00139 0.992768
1.00064 1.00096 0.992271
1.00128 1.00074 0.991232
1.00008 1.00165 0.99271
1.00019 1.0022 0.991999
1.00063 1.00121 0.992232
1.00042 1.00159 0.992067
0.999934 0.997782 0.996799
1.0001 0.999865 0.994413
1.00017 1.00144 0.992766
1.00019 1.00129 0.992856
1.00019 1.00194 0.992177
1.00167 1.00034 0.990858
1.00086 1.00104 0.991777
1.00138 1.00079 0.990981
1.00012 1.0022 0.992111
1.00069 1.00133 0.991886
1.00031 1.00241 0.99144
1.0001 0.999649 0.99463
1.0002 1.00111 0.993016
1.0002 1.00194 0.992188
1.00019 1.00197 0.992201
1.00021 1.0022 0.991947
1.00179 1.00021 0.990724
1.00095 1.00114 0.991501
1.00129 1.00076 0.991065
1.00014 1.00271 0.991535
1.00063 1.00227 0.99104
1.00011 0.999427 0.994835
1.00017 1.00071 0.993351
1.00015 1.00051 0.993669
1.00012 1.00145 0.992969
1.00011 1.00042 0.993873
1.00012 0.999053 0.995198
1.00012 0.999147 0.995112
1.00001 0.99732 0.997521
1.00012 0.999267 0.994996
0.999985 0.997455 0.997461
0.999919 0.996379 0.998449
0.999955 0.997597 0.99738
0.999864 0.996499 0.998856
0.999822 0.996627 0.999299
0.999902 0.997728 0.996912
0.999872 0.99794 0.996766
0.99975 0.996779 0.999292
0.9997 0.996998 0.999244
0.999833 0.998198 0.996585
0.999645 0.99721 0.999196
1.00163 1.00022 0.991072
1.00205 0.999897 0.990577
1.00219 0.999764 0.990445
1.00253 0.9996 0.989923
1.00235 0.999817 0.990045
1.0017 0.999834 0.991254
1.00235 0.999818 0.990033
1.0026 0.999669 0.989678
1.00239 0.999619 0.990181
1.00271 0.999296 0.989934
1.00194 1.00002 0.990654
1.00237 0.999157 0.990676
1.0026 0.999751 0.989633
1.00268 0.999582 0.989633
1.00258 0.999033 0.990258
1.00283 0.999216 0.989903
1.00212 0.999572 0.990701
1.00259 0.998587 0.990949
1.00222 0.999855 0.990248
1.00205 0.99984 0.9907
1.00241 0.999746 0.989945
1.00231 0.999735 0.990339
0.999958 1.00079 0.993786
1.00018 1.00148 0.992717
1.00036 1.00184 0.991961
1.00166 1.0002 0.991177
1.00218 0.999335 0.990794
1.00156 1.00009 0.991343
1.00092 1.00156 0.99106
1.00136 1.00017 0.991661
1.00022 1.00141 0.992706
1.00023 1.00198 0.992075
1.00006 0.9998 0.994559
1.00019 1.00141 0.992668
1.00249 0.999805 0.989818
1.00243 0.999679 0.990128
1.00256 0.999713 0.98974
1.00247 0.999361 0.990267
1.00017 1.00144 0.992762
1.0002 1.00181 0.992235
1.00051 1.00225 0.991276
1.00182 0.999782 0.991147
1.0023 0.998866 0.991108
1.00107 1.0016 0.99084
1.00161 0.999604 0.991713
1.00147 0.99992 0.991747
1.00025 1.00178 0.992276
1.00028 1.00207 0.991971
1.00015 1.0023 0.99195
1.00007 0.999538 0.994711
1.00017 1.00113 0.992944
1.00263 0.999775 0.989584
1.0027 0.999521 0.989672
1.00262 0.998846 0.99048
1.00204 0.998938 0.991469
1.00021 1.00174 0.992375
1.00183 0.998968 0.99209
1.00017 1.0022 0.991761
1.00066 1.00268 0.990558
1.00128 1.00147 0.990601
1.00009 0.999335 0.994811
1.00016 1.00084 0.993413
1.00011 1.0021 0.992207
1.00027 1.00186 0.992142
1.00019 1.0027 0.991517
1.00032 1.0021 0.99181
0.999933 0.997768 0.996806
1.00011 0.999858 0.994415
1.00169 1.00034 0.990852
1.00018 1.0013 0.99285
1.00015 1.00146 0.992762
1.00019 1.00193 0.992168
1.00085 1.00105 0.991779
1.00138 1.00079 0.990958
1.00011 1.0022 0.99212
1.00035 1.00237 0.991494
1.0007 1.00133 0.991918
1.00011 0.99964 0.994634
1.00019 1.00112 0.99301
1.0002 1.00193 0.992227
1.00019 1.00198 0.992194
1.0002 1.00222 0.991916
1.00179 1.00025 0.990706
1.00097 1.00113 0.991484
1.00133 1.00074 0.991074
1.00013 1.00271 0.991492
1.00063 1.00236 0.990947
1.00019 1.00092 0.993225
1.00019 1.00192 0.99216
1.00021 1.00236 0.991799
1.00021 1.00228 0.991783
1.00027 1.0023 0.9917
1.00204 0.999068 0.991323
1.00101 1.00176 0.990847
1.00137 1.00052 0.990812
1.00034 1.00302 0.991039
1.00061 1.00281 0.990099
1.00011 0.999422 0.994839
1.00017 1.00072 0.993398
1.00015 1.00166 0.992497
1.00015 1.00053 0.993586
1.00011 1.00042 0.993874
1.00013 1.00145 0.992856
1.00012 1.00213 0.992257
1.00011 1.00136 0.99287
1.00009 1.00037 0.993972
1.00013 0.999007 0.995245
1.00012 0.999058 0.995199
1.00004 0.997197 0.997577
1.00012 0.999155 0.995113
1.00001 0.997318 0.99753
0.999957 0.996249 0.998494
0.999988 0.99745 0.997472
0.999914 0.996351 0.998446
0.99985 0.996463 0.999323
0.999938 0.997559 0.99701
0.999906 0.997736 0.996905
0.9998 0.996594 0.999321
0.999874 0.997954 0.996755
0.999746 0.996802 0.999281
0.999696 0.997019 0.999232
1.00195 1.00003 0.990643
1.00239 0.99963 0.990184
1.00239 0.999112 0.990694
1.00271 0.999279 0.989932
1.00262 0.999687 0.989647
1.00236 0.999818 0.990035
1.0026 0.999759 0.989623
1.00267 0.999587 0.989641
1.00263 0.999059 0.9902
1.00278 0.999206 0.989872
1.00211 0.999627 0.990694
1.00253 0.99842 0.991123
1.00265 0.999721 0.989557
1.00267 0.999559 0.989693
1.00277 0.99868 0.99036
1.0024 0.99837 0.991421
1.00248 0.999803 0.989824
1.00242 0.999676 0.990142
1.00254 0.999727 0.989736
1.00248 0.999366 0.990278
1.00019 1.00142 0.992764
1.00021 1.0018 0.992292
1.0005 1.00229 0.99127
1.00185 0.999846 0.991111
1.0022 0.998812 0.991274
1.0016 0.999619 0.991722
1.00106 1.00166 0.990803
1.00143 0.999738 0.991866
1.00025 1.00178 0.992277
1.00028 1.00203 0.991961
1.00015 1.00233 0.991933
1.00007 0.999541 0.994617
1.00019 1.00108 0.992991
1.00261 0.999755 0.989599
1.00268 0.999535 0.989713
1.00259 0.998895 0.990537
1.00023 1.00173 0.992369
1.00022 1.00219 0.991842
1.00063 1.00275 0.990541
1.00207 0.998991 0.991408
1.00125 1.00132 0.990775
1.00176 0.998978 0.992056
1.00009 0.999315 0.994834
1.00027 1.00188 0.992133
1.00031 1.00204 0.991871
1.00019 1.0027 0.991512
1.00012 1.0021 0.99224
1.00017 1.00083 0.993329
1.00269 0.99972 0.989548
1.00286 0.999271 0.989611
1.00258 0.998385 0.990898
1.00235 0.997905 0.991998
1.00024 1.00195 0.992117
1.00169 1.00002 0.991191
1.00027 1.00287 0.990992
1.00078 1.00316 0.989962
1.00009 0.999174 0.99497
1.00015 1.00055 0.993739
1.00014 1.00182 0.992551
1.00013 1.00289 0.991399
1.00028 1.00208 0.991894
1.00027 1.00258 0.991417
1.00011 0.999629 0.994637
1.00019 1.00114 0.993005
1.00179 1.00029 0.990688
1.00018 1.00199 0.992186
1.00019 1.00191 0.992266
1.00018 1.00224 0.991886
1.00098 1.00111 0.991466
1.00138 1.00073 0.991082
1.00012 1.00272 0.991449
1.00064 1.00247 0.990854
1.00019 1.00093 0.993224
1.00019 1.00195 0.992184
1.00021 1.00233 0.991855
1.0002 1.00229 0.991822
1.00023 1.00231 0.991747
1.00209 0.999107 0.991364
1.00105 1.00168 0.990884
1.00137 1.00057 0.990998
1.0003 1.00304 0.990983
1.00067 1.00298 0.990022
1.00017 1.00183 0.992302
1.0002 1.00249 0.991589
1.00026 1.0027 0.991365
1.00024 1.00248 0.991452
1.00309 0.997291 0.991348
1.00208 0.998919 0.991249
1.00112 1.00232 0.989982
1.00031 1.00391 0.989819
1.00016 1.00073 0.993445
1.00014 1.00168 0.992544
1.00014 1.0023 0.991985
1.00011 1.00042 0.993874
1.00013 1.00146 0.992744
1.00009 1.00037 0.993972
1.00013 1.00213 0.992171
1.00011 1.00136 0.992913
1.00016 1.00259 0.991696
1.00011 1.00203 0.992192
1.00009 1.0013 0.992981
1.00008 1.00032 0.994045
1.00012 0.998998 0.995257
1.00013 0.999003 0.995248
1.00006 0.997124 0.997597
1.00012 0.999062 0.9952
1.00004 0.997203 0.997582
0.999992 0.996134 0.998528
1.00001 0.997317 0.99754
0.999953 0.99622 0.998491
0.999908 0.996325 0.998442
0.999975 0.997406 0.997092
0.999943 0.997565 0.997006
0.999851 0.99643 0.999342
0.999911 0.997745 0.996898
0.999795 0.996616 0.999313
0.999742 0.996825 0.999271
1.0021 0.999681 0.990687
1.00267 0.999087 0.990142
1.00247 0.998259 0.991297
1.00274 0.999198 0.989842
1.00267 0.999592 0.989649
1.0026 0.999767 0.989613
1.00264 0.999726 0.989576
1.00266 0.999547 0.989706
1.00275 0.998674 0.990387
1.00241 0.99832 0.9914
1.0026 0.999745 0.989634
1.00273 0.999227 0.989986
1.00283 0.997996 0.99085
1.00259 0.999736 0.989614
1.00266 0.999551 0.989754
1.00255 0.99894 0.990594
1.00024 1.00173 0.992362
1.00027 1.00218 0.991924
1.0006 1.00281 0.990523
1.0021 0.999041 0.991346
1.0017 0.998992 0.992022
1.00122 1.00118 0.990949
1.00028 1.00189 0.992123
1.00029 1.00198 0.991931
1.00019 1.0027 0.991508
1.00008 0.999295 0.994856
1.00013 1.0021 0.992272
1.00017 1.00082 0.993245
1.00267 0.999713 0.989563
1.00287 0.999244 0.989595
1.00262 0.998464 0.990811
1.00025 1.00195 0.992103
1.00025 1.00282 0.991108
1.00079 1.00309 0.990018
1.0023 0.997969 0.992057
1.00169 0.999961 0.991179
1.00009 0.999162 0.995062
1.00014 1.00054 0.993744
1.00026 1.00208 0.991894
1.00027 1.00257 0.991434
1.00012 1.00285 0.991451
1.00014 1.00184 0.992482
1.00269 0.999545 0.98968
1.00297 0.998857 0.98981
1.00277 0.997106 0.991821
1.00241 0.997918 0.992118
1.00018 1.00245 0.991645
1.00105 1.00293 0.989662
1.00043 1.00353 0.990372
1.00011 0.999025 0.995258
1.00011 1.0001 0.99421
1.00012 1.00036 0.993795
1.00013 1.0016 0.992727
1.0001 1.00257 0.991726
1.00014 1.00334 0.990933
1.00026 1.00215 0.99172
1.00021 1.00336 0.991156
1.00018 1.00093 0.993223
1.00019 1.00197 0.992207
1.00215 0.999146 0.991405
1.0002 1.00231 0.99186
1.0002 1.0023 0.99191
1.00019 1.00232 0.991794
1.00108 1.0016 0.99092
1.00137 1.00061 0.991184
1.00026 1.00306 0.990926
1.00072 1.00313 0.989944
1.00017 1.00185 0.992272
1.00021 1.00246 0.991648
1.00024 1.00267 0.991426
1.00026 1.0025 0.991491
1.00307 0.997199 0.991389
1.00203 0.999184 0.991214
1.00116 1.00229 0.990076
1.00038 1.00386 0.989772
1.00015 1.00249 0.991792
1.0031 0.997711 0.990615
1.00022 1.00289 0.991284
1.00024 1.0032 0.990876
1.00322 0.996789 0.991332
1.00173 1.00126 0.989769
1.00067 1.00424 0.989261
1.00014 1.0017 0.992591
1.00013 1.00231 0.991989
1.00014 1.00276 0.991524
1.00009 1.00037 0.993972
1.0001 1.00136 0.992956
1.00014 1.00214 0.992085
1.00008 1.00031 0.994047
1.00009 1.0013 0.992971
1.00017 1.00259 0.991627
1.00011 1.00204 0.992281
1.00027 1.0028 0.991278
1.00019 1.0025 0.991614
1.00011 1.00193 0.99241
1.00006 1.00125 0.993156
1.00008 1.00029 0.994075
1.00011 0.999022 0.995246
1.00012 0.999 0.995257
1.00008 0.997105 0.997584
1.00012 0.998999 0.99525
1.00006 0.99714 0.997596
1.00002 0.996066 0.998531
1.00004 0.997209 0.997588
0.99999 0.996104 0.998526
0.99995 0.996191 0.998487
1.00012 0.998893 0.995365
1.00001 0.997255 0.997171
0.999978 0.997414 0.997088
0.999898 0.99628 0.999362
0.999947 0.997572 0.997002
0.999845 0.996449 0.999336
0.99979 0.996637 0.999305
1.00243 0.998266 0.99138
1.00274 0.998667 0.990414
1.00265 0.999534 0.989719
1.00263 0.999732 0.989596
1.00259 0.999753 0.989662
1.00273 0.999266 0.989916
1.00278 0.99796 0.990994
1.00254 0.999627 0.989902
1.00286 0.998811 0.990093
1.00277 0.998209 0.990694
1.00265 0.999706 0.989578
1.00289 0.999223 0.98958
1.00265 0.998542 0.990724
1.00027 1.00196 0.992089
1.00024 1.00276 0.991224
1.00078 1.00301 0.990073
1.00223 0.998027 0.992116
1.00169 0.999901 0.991166
1.00023 1.00207 0.991895
1.00028 1.00255 0.991451
1.00012 1.00282 0.991504
1.00009 0.999148 0.995155
1.00014 1.00054 0.993749
1.00014 1.00186 0.992413
1.00268 0.999522 0.98971
1.00011 0.999021 0.995256
1.0001 1.0001 0.994154
1.003 0.998825 0.989814
1.00273 0.997331 0.991655
1.00017 1.0024 0.991707
1.00042 1.00363 0.99022
1.00107 1.00265 0.989712
1.00233 0.997901 0.992088
1.00012 1.00036 0.993948
1.00012 1.0016 0.992725
1.00029 1.0022 0.991715
1.00019 1.00302 0.991285
1.00011 1.00343 0.990841
1.00012 1.00255 0.991734
1.00272 0.999133 0.990009
1.00303 0.998135 0.990512
1.00302 0.995745 0.992834
1.00172 1.00056 0.990588
1.00021 1.00285 0.991297
1.00058 1.00441 0.989253
1.00009 1 0.994203
1.00011 1.00022 0.994082
1.00006 1.00109 0.993466
1.0001 1.0014 0.992848
1.00013 1.00234 0.992032
1.00007 1.00316 0.991135
1.00003 1.00412 0.990451
1.00004 1.00311 0.991308
1.00017 1.00189 0.992243
1.00021 1.00243 0.991707
1.00304 0.997109 0.99143
1.00197 0.999452 0.991179
1.00029 1.00252 0.99153
1.00023 1.00265 0.991487
1.0012 1.00229 0.990169
1.00045 1.00376 0.989725
1.00014 1.00248 0.991792
1.00309 0.997591 0.99071
1.00021 1.00284 0.991287
1.00026 1.00318 0.99075
1.00317 0.996852 0.991301
1.00181 1.0012 0.989781
1.00062 1.00429 0.989249
1.00013 1.00299 0.991349
1.00399 0.996168 0.990445
1.00034 1.00304 0.991007
1.0004 1.00412 0.989905
1.00284 0.998737 0.98968
1.00093 1.00354 0.989018
1.0036 0.998712 0.989584
1.00012 1.00232 0.991993
1.00012 1.00277 0.991528
1.00024 1.00293 0.991214
1.00008 1.0003 0.99405
1.00009 1.00131 0.992961
1.0001 1.00205 0.99237
1.00018 1.00258 0.991559
1.00008 1.00028 0.994075
1.00006 1.00126 0.993094
1.00026 1.00279 0.991253
1.00011 1.00193 0.99241
1.00017 1.00251 0.991696
1.00035 1.00276 0.991074
1.00016 1.00239 0.991901
1.00011 1.00191 0.992484
1.00007 1.00123 0.993045
1.00008 1.00031 0.993927
1.00007 1.00131 0.993212
1.00008 1.00036 0.993876
1.00011 0.999048 0.995227
1.00011 0.999025 0.995245
1.00009 0.997126 0.997143
1.00012 0.999001 0.995257
1.00008 0.997125 0.997368
1.00001 0.99601 0.999373
1.00006 0.997155 0.997596
1.00002 0.996034 0.998533
0.999989 0.996074 0.998524
1.00013 0.998787 0.99545
1.00012 0.998887 0.995364
1.00004 0.997121 0.997245
1.00001 0.997263 0.997379
0.99994 0.996146 0.999381
0.999982 0.997421 0.997085
0.999893 0.996299 0.999356
0.99984 0.996468 0.99933
1.00274 0.997922 0.991138
1.00273 0.999305 0.989846
1.00258 0.999762 0.989689
1.00254 0.999626 0.989896
1.00278 0.998809 0.990199
1.00272 0.998511 0.990613
1.0026 0.999073 0.990353
1.0043 0.996782 0.990651
1.00294 0.997417 0.991161
1.00009 0.999943 0.994391
1.00267 0.999497 0.98974
1.00302 0.99879 0.989818
1.00269 0.997515 0.991489
1.00016 1.00236 0.99177
1.00041 1.00372 0.990068
1.00109 1.00238 0.989762
1.00227 0.997918 0.992058
1.00033 1.00223 0.991709
1.00016 1.00272 0.991413
1.00008 1.00352 0.990748
1.00011 0.999021 0.995254
1.00014 1.00253 0.991742
1.00011 1.00037 0.994101
1.00012 1.00159 0.992723
1.00009 1.0001 0.994097
1.00275 0.999092 0.989995
1.0001 1 0.994266
1.0001 1.00023 0.994078
1.00006 1.00108 0.993346
1.00306 0.99799 0.990536
1.00295 0.996025 0.992593
1.00024 1.00269 0.991341
1.00047 1.00444 0.989187
1.00169 1.00049 0.99063
1.00009 1.00138 0.992932
1.00013 1.00234 0.991991
1.00006 1.00311 0.991244
1.00003 1.00403 0.990526
1.00009 1.00313 0.991194
1.00291 0.998504 0.990092
1.00329 0.996488 0.991661
1.00274 0.997891 0.991357
1.00093 1.00352 0.989413
1.00005 1.00378 0.990617
1.00004 1.00097 0.993342
1.00008 1.00123 0.993064
1.00006 1.00183 0.992682
1.0001 1.00221 0.992182
1.00012 1.00281 0.991495
1 1.00378 0.990792
0.999875 1.00453 0.990239
1.00013 1.00247 0.991792
1.0002 1.0028 0.991291
1.00309 0.997451 0.990804
1.0031 0.99691 0.99127
1.00189 1.00114 0.989792
1.00028 1.00315 0.990625
1.00056 1.00436 0.989238
1.00012 1.00296 0.991387
1.00392 0.996047 0.990477
1.0003 1.00299 0.991031
1.00026 1.00421 0.989885
1.00303 0.998514 0.989782
1.00093 1.00364 0.989013
1.00354 0.998507 0.989824
1.00021 1.00309 0.991109
1.00415 0.996147 0.989675
1.00024 1.0035 0.990698
1.00006 1.00483 0.989576
1.00139 1.00195 0.989295
0.997088 1.00167 0.971135
0.998829 1.00154 0.986517
1.00288 0.99919 0.991069
0.994626 0.998449 0.981329
0.99654 0.99646 0.983715
1.00011 1.00278 0.991532
1.00023 1.00294 0.991218
1.0004 1.00284 0.990913
1.00008 1.00028 0.994075
1.00007 1.00128 0.993033
1.0001 1.00193 0.99241
1.00016 1.00251 0.991778
1.00026 1.00277 0.991228
1.00012 1.00192 0.992392
1.00008 1.00031 0.993987
1.00006 1.00124 0.993118
1.00032 1.00277 0.991127
1.00017 1.00238 0.991863
1.00016 1.00235 0.991964
1.00024 1.00287 0.991243
1.00013 1.00194 0.992249
1.00007 1.00123 0.993056
1.00008 1.00033 0.993898
1.00008 1.00126 0.993154
1.0001 1.00198 0.992455
1.00007 1.00142 0.99297
1.00007 1.00131 0.993097
1.00008 1.00038 0.99397
1.00008 1.00036 0.993879
1.00011 0.999076 0.995196
1.00011 0.999046 0.995227
1.00009 0.997158 0.997133
1.00011 0.999028 0.995244
1.00009 0.997129 0.997142
1.00002 0.995997 0.999372
1.00009 0.997146 0.997151
1.00003 0.996007 0.998946
1.00002 0.996003 0.998534
1.00014 0.998721 0.995499
1.00014 0.998781 0.995448
1.00007 0.997018 0.997304
1.00013 0.998882 0.995364
1.00004 0.997118 0.997452
0.999974 0.996032 0.999398
1.00001 0.997281 0.997156
0.999933 0.996184 0.999372
0.999887 0.99632 0.99935
1.00268 0.998808 0.990305
1.00255 0.999624 0.98989
1.00264 0.998825 0.990532
1.0042 0.996589 0.990699
1.0026 0.999073 0.990305
1.00284 0.99761 0.990934
1.003 0.998536 0.989706
0.999592 0.999721 0.984173
1.00316 0.997811 0.992127
1.00009 0.999926 0.994416
1.0001 0.999943 0.99439
1.00004 1.00086 0.993583
1.00006 1.0008 0.993609
1.00278 0.999064 0.989981
1.00308 0.9979 0.99056
1.00287 0.996297 0.992352
1.00026 1.00257 0.991385
1.00035 1.00448 0.989122
1.00166 1.00034 0.990672
1.00007 1.00313 0.991179
1.00002 1.00393 0.990602
1.0001 1.0031 0.991252
1.0001 1.00024 0.994075
1.00014 1.00235 0.991949
1.00009 1.00136 0.993016
1.0001 1 0.994329
1.00006 1.00107 0.993225
1.00291 0.998559 0.990205
1.00004 1.00098 0.993465
1.00007 1.00121 0.993137
1.00006 1.00175 0.992676
1.00327 0.9964 0.991725
1.00267 0.997743 0.991363
1.00007 1.00379 0.990603
1.00085 1.00352 0.98942
1.00009 1.0022 0.992224
1.00013 1.00276 0.991504
0.999882 1.00451 0.990245
1.00002 1.00387 0.990712
1.00353 0.996889 0.990228
1.00378 0.995978 0.991265
1.00173 1.00227 0.989065
1.00004 1.00457 0.98991
1.00005 1.00197 0.992426
1.00006 1.00204 0.992346
1.00009 1.00307 0.991275
0.999994 1.00464 0.989944
0.996716 1.00172 0.968344
1.00012 1.00292 0.991426
1.00025 1.00292 0.991055
1.00391 0.995906 0.990509
1.00321 0.998311 0.989884
1.00093 1.00373 0.989008
1.00013 1.00432 0.989866
1.00335 0.998329 0.990068
1.00019 1.00309 0.99113
1.00438 0.996143 0.98956
1.00018 1.0035 0.990706
1.00004 1.00483 0.989607
1.00139 1.00195 0.98932
0.996838 1.00097 0.97167
0.998686 1.00158 0.982923
1.00269 0.999 0.991294
0.994623 0.998992 0.980274
0.996096 0.996657 0.983577
1.00017 1.00317 0.991052
0.995191 0.998264 0.978265
0.998529 0.995488 0.986081
1.00287 0.998341 0.990605
1.00009 1.00355 0.990622
0.999949 1.00491 0.990112
1.0026 0.999781 0.990746
0.996325 1.00182 0.971086
0.998404 1.00224 0.983002
0.994571 1.00156 0.979175
1.00255 0.996237 0.981783
1.0002 1.00294 0.991222
1.00039 1.00288 0.990925
1.00053 1.00292 0.990645
1.00008 1.00031 0.994046
1.00006 1.00124 0.99319
1.00013 1.00193 0.992299
1.00018 1.00236 0.991826
1.00029 1.00278 0.991179
1.00008 1.00033 0.993901
1.00016 1.0023 0.991944
1.00012 1.00196 0.992354
1.00007 1.00122 0.993121
1.00026 1.00286 0.991137
1.00018 1.00257 0.99162
1.00012 1.00373 0.99066
1.00011 1.00194 0.992378
1.00008 1.00124 0.993157
1.00007 1.00127 0.993153
1.00011 1.00198 0.992356
1.00012 1.0019 0.992412
1.0001 1.00212 0.992225
1.00016 1.0024 0.991866
1.00006 1.00263 0.991766
1.00008 1.00159 0.992779
1.00007 1.00142 0.992969
1.0001 1.00044 0.993885
1.00007 1.00132 0.992982
1.00008 1.00038 0.993907
1.00012 0.999129 0.995142
1.00008 1.00036 0.993883
1.00011 0.999073 0.995196
1.00006 0.997194 0.997556
1.00011 0.999045 0.995227
1.00008 0.997154 0.997349
1.00005 0.996006 0.998506
1.00009 0.997132 0.997142
1.00002 0.995996 0.999371
1.00004 0.996005 0.998518
1.0001 0.999959 0.994377
1.00014 0.998706 0.99551
1.00014 0.998718 0.995498
1.00008 0.996956 0.99734
1.00014 0.998775 0.995447
1.00007 0.997012 0.997307
0.999999 0.995948 0.999411
1.00003 0.997132 0.997645
0.999981 0.99607 0.998975
0.999956 0.996209 0.998525
1.00391 0.996477 0.990748
1.0026 0.999077 0.990256
1.00273 0.997807 0.990707
0.999511 0.999366 0.986615
1.00309 0.997841 0.992271
1.00305 0.998408 0.989624
1.00348 0.998632 0.991106
0.999129 0.999947 0.986321
0.996442 1.00199 0.966747
0.995121 0.99776 0.977767
0.996078 0.995963 0.984703
1.00004 1.00081 0.993507
1.00009 0.999929 0.994415
1.0001 0.999947 0.994389
1.00004 1.00087 0.993537
1.00004 1.00156 0.992968
1.00005 1.00139 0.993075
1.00006 1.00093 0.993504
1.00006 1.00082 0.993558
1.0029 0.998603 0.990317
1.00326 0.996247 0.991789
1.0026 0.997688 0.991369
1.0001 1.00375 0.990589
1.00079 1.00357 0.989427
0.99989 1.00449 0.990252
1.00003 1.00397 0.990632
1.00014 1.00271 0.991514
1.00007 1.00119 0.993211
1.00008 1.0022 0.992267
1.00004 1.00099 0.993588
1.00006 1.00168 0.992669
1.00358 0.997183 0.9901
1.00004 1.00195 0.992473
1.00006 1.00206 0.992358
1.00359 0.996031 0.991253
1.00155 1.00193 0.989267
1.0001 1.00457 0.989791
1.00011 1.00308 0.991247
1.00001 1.00458 0.989969
1.00452 0.996381 0.989198
1.00271 1.00046 0.989305
1.00031 1.00441 0.989065
1.00005 1.0049 0.989566
1.00002 1.00246 0.991956
1.00009 1.00282 0.991529
1.0001 1.00397 0.990457
0.996257 0.997505 0.978075
0.997181 1.00219 0.970761
1.00018 1.0031 0.991151
1.00013 1.00349 0.990714
1.00458 0.996137 0.989444
1.00144 1.00199 0.989344
1.00001 1.00485 0.989639
0.997134 1.00179 0.965953
0.998673 1.00107 0.987433
1.00266 0.998711 0.991504
0.994553 0.999217 0.978419
0.99561 0.996915 0.983441
1.00021 1.00309 0.99104
0.995812 0.996886 0.979981
0.998013 0.995776 0.986267
1.00286 0.998394 0.990543
1.00004 1.00387 0.99064
0.999854 1.00486 0.990142
1.00267 1.00012 0.990501
0.995807 1.00223 0.969016
0.998459 1.00329 0.985848
0.994381 1.00058 0.977806
1.0017 0.997139 0.982343
1.00055 1.00262 0.990748
0.999039 0.995756 0.988398
1.00938 0.997416 0.979289
1.00071 1.00205 0.990793
0.9998 1.00378 0.991721
1.00185 1.00121 0.994992
0.999266 0.999072 0.993037
0.995234 1.00325 0.969545
0.994782 0.998863 0.979396
1.00986 0.995432 0.977243
1.00038 1.00292 0.990937
1.00051 1.00294 0.990595
1.00023 1.00344 0.990429
1.00008 1.00033 0.993903
1.00008 1.0012 0.993186
1.00011 1.00198 0.992459
1.00016 1.00226 0.991923
1.00027 1.00284 0.991031
1.00008 1.00124 0.993157
1.00017 1.00252 0.991689
1.00011 1.00194 0.992376
1.00011 1.00375 0.990588
1.00003 1.00433 0.990234
1.00012 1.00299 0.991383
1.00011 1.00194 0.992397
1.00007 1.00127 0.993153
1.00011 1.00198 0.992256
1.00011 1.00191 0.992411
1.00009 1.00213 0.992222
1.00018 1.00235 0.991837
1.00007 1.00235 0.992002
1.00019 1.00237 0.991834
1.00018 1.00258 0.991519
1.00014 1.00291 0.991345
0.999962 1.00289 0.991577
1.00005 1.00269 0.991692
1.00007 1.00262 0.991776
1.00009 1.00182 0.992546
1.00008 1.00159 0.992775
1.00012 1.00055 0.993733
1.00007 1.00143 0.992968
1.0001 1.00045 0.993882
1.00011 0.999204 0.995076
1.00008 1.00038 0.993845
1.00012 0.999121 0.995142
1.00004 0.997263 0.997533
1.00012 0.99907 0.995196
1.00007 0.997195 0.997335
1.00003 0.99602 0.998503
1.00009 0.997146 0.997132
1.00002 0.996007 0.999369
1.00002 0.995995 0.99937
1.00011 1.00004 0.99444
1.00014 0.998741 0.995473
1.00009 0.999959 0.994377
1.00009 0.996942 0.997349
1.00014 0.998706 0.99551
1.00014 0.998712 0.995497
1.00008 0.996958 0.99734
1.00001 0.995901 0.999418
1.00006 0.997014 0.997705
1.00001 0.99596 0.999003
0.999998 0.996076 0.998569
0.995941 0.996126 0.981343
0.998452 0.99525 0.986208
0.999634 0.998735 0.988858
1.00304 0.997961 0.992414
1.00309 0.99829 0.98954
0.999164 0.999928 0.990941
1.00358 0.99841 0.990984
0.997185 1.00118 0.970993
0.994423 0.998434 0.981586
0.995689 0.995845 0.985
1.00053 0.998771 0.99333
0.995783 1.00216 0.972403
0.994323 1.00036 0.980536
0.999506 0.996952 0.983048
1.00002 1.00169 0.992742
1.00005 1.00081 0.993555
1.00009 0.999929 0.994415
1.00003 1.00088 0.993492
1.00002 1.0015 0.993017
1.00004 1.00167 0.992834
1.00005 1.00134 0.993093
1.00007 1.00121 0.993187
1.00006 1.00095 0.993432
1.00005 1.00084 0.993508
1.00361 0.997417 0.989974
1.00345 0.996026 0.991234
1.00134 1.00156 0.989469
1.00015 1.00457 0.989671
1.00002 1.00453 0.989993
1.00013 1.00309 0.991218
1.00006 1.00207 0.992371
1.00004 1.00194 0.992519
1.0046 0.996205 0.988986
1.00002 1.00249 0.991925
1.00011 1.00284 0.991437
1.00249 1.00036 0.989136
1.00032 1.00433 0.989291
1.00009 1.0049 0.989526
1.00014 1.00396 0.990372
1.00398 0.999426 0.987816
1.00035 1.00458 0.989429
1.00006 1.00452 0.989815
1.00004 1.00255 0.991888
1.00013 1.00293 0.991331
1.00025 1.00335 0.990699
1.00061 0.99629 0.98421
0.995855 0.998169 0.976888
0.996768 1.00186 0.968209
1.00027 1.003 0.991029
0.999991 1.00415 0.990659
1.00281 0.998448 0.990481
0.999738 1.00481 0.990169
0.996336 0.997724 0.976853
0.995721 1.00182 0.974235
0.998374 1.00273 0.98302
1.00268 1.00039 0.990357
0.994256 1.00042 0.980589
0.99789 0.995915 0.98588
0.999449 0.997926 0.983367
1.00049 1.00289 0.990725
0.999498 0.995819 0.986392
1.00914 0.997444 0.979601
1.00079 1.0021 0.990835
0.999594 1.00363 0.991753
1.00272 1.0029 0.990107
0.999162 1.00019 0.987371
0.995612 1.00301 0.970377
0.995811 0.998676 0.982784
1.0073 0.995797 0.97875
1.00004 1.00268 0.991988
1.01258 0.996834 0.978719
1.02029 0.994197 0.969837
0.998603 1.00396 0.993176
0.999006 0.998447 0.998944
0.995582 0.999441 0.973015
0.997478 0.998541 0.982581
1.00875 0.99366 0.980408
1.00048 1.00296 0.990545
1.00032 1.00334 0.990565
1.00036 1.00309 0.991008
1.00008 1.00124 0.993156
1.00011 1.00194 0.992375
1.00015 1.00246 0.991758
1.00009 1.00379 0.990515
1.00011 1.00194 0.992394
1.00012 1.00295 0.991396
0.999998 1.00431 0.990215
0.999833 1.00449 0.990536
1.00014 1.0038 0.990488
1.00019 1.0025 0.991745
1.00011 1.00191 0.99241
1.00009 1.00213 0.99222
1.0002 1.0023 0.991809
1.00019 1.00236 0.991843
1.00007 1.00238 0.992004
1.0002 1.00254 0.991552
1.00017 1.00282 0.991363
1.00026 1.00267 0.991336
1.00016 1.00308 0.991135
1.00015 1.00291 0.991369
0.999957 1.00313 0.991355
1.00019 1.0029 0.991289
1.00011 1.00237 0.992022
0.999927 1.00277 0.991822
1.00006 1.00267 0.991745
1.00009 1.00202 0.992253
1.00008 1.00261 0.991785
1.00009 1.00181 0.992548
1.00013 1.00074 0.993512
1.00008 1.0016 0.992772
1.00011 1.00056 0.993729
1.0001 0.999306 0.994991
1.00009 1.00045 0.993878
1.00011 0.999196 0.995074
1.00001 0.99736 0.997498
1.00012 0.999113 0.995142
1.00005 0.99727 0.997308
0.999999 0.996099 0.998485
1.00008 0.997188 0.997118
1.00002 0.996031 0.998936
1.00001 0.996012 0.999368
1.00012 1.00021 0.994115
1.00014 0.99882 0.995404
1.0001 1.00004 0.994305
1.00008 0.996979 0.997322
1.00014 0.998743 0.995474
1.00009 0.999965 0.994377
1.00002 0.995891 0.999419
1.00009 0.99694 0.997349
1.00014 0.998703 0.99551
1.00008 0.996961 0.997339
1.00001 0.995905 0.999417
0.999997 0.995953 0.999409
1.00006 0.99585 0.986168
0.995654 0.997117 0.979291
1.01084 0.995139 0.979432
0.998344 0.99519 0.985945
0.999215 1.00061 0.985508
1.00372 0.998201 0.990839
0.996658 1.00008 0.97551
0.995062 0.99905 0.978113
0.995377 0.995735 0.985297
1.0006 0.999069 0.990853
0.995857 1.00174 0.970674
0.994235 1.0003 0.97853
1.00083 0.996461 0.983372
0.999801 0.999079 0.992213
0.995182 1.00128 0.971374
0.994551 0.999059 0.982299
1.00803 0.995083 0.980253
1.00005 1.00217 0.992298
1.00003 1.00168 0.992815
1.00006 1.00081 0.993602
1 1.00144 0.993066
1.00007 1.00195 0.992417
1.00004 1.00162 0.992887
1.00005 1.00129 0.993112
1.0001 1.00131 0.993094
1.00007 1.0012 0.993255
1.00006 1.00098 0.99336
1.00475 0.99612 0.988775
1.00221 1.00027 0.988973
1.00034 1.00432 0.989517
1.00013 1.0049 0.989486
1.00017 1.00395 0.990288
1.00013 1.00287 0.991346
1.00002 1.00253 0.991895
1.00005 1.00253 0.991906
1.00408 0.999098 0.987884
1.00011 1.00296 0.991381
1.00025 1.00345 0.990668
1.00035 1.00463 0.989307
1.00014 1.00455 0.9898
1.00242 1.00118 0.988852
0.999721 1.0046 0.990566
1.00031 1.00342 0.990457
1.00016 1.00273 0.99148
1.00033 1.00316 0.990705
1.01436 0.9972 0.977067
1.00048 0.996143 0.985297
0.995962 0.997249 0.980457
1.00043 1.00319 0.990701
0.999382 1.00352 0.991788
1.0009 1.00199 0.990868
0.999787 0.9964 0.985873
0.995421 1.0024 0.969352
0.999046 0.999982 0.990736
1.00364 1.00461 0.985068
0.995071 0.999133 0.979062
1.00883 0.997479 0.979913
1.00709 0.995895 0.978786
1 1.00244 0.992103
1.01306 0.99718 0.977575
1.02028 0.99407 0.969978
0.998836 1.00364 0.99264
0.999179 0.999308 0.995665
0.995523 1.00122 0.971442
1.01054 0.992865 0.978862
0.996386 0.997958 0.981745
0.999678 1.00193 0.993171
1.02459 0.992417 0.967295
1.02445 0.992102 0.968188
1.00772 0.995931 0.979909
0.996639 1.00191 0.997257
0.995403 0.998356 0.976116
0.996538 0.999229 0.981666
1.00041 1.00321 0.990701
1.00044 1.00323 0.990627
0.99988 1.00332 0.991929
1.00011 1.00193 0.992391
1.00012 1.00291 0.991408
0.999978 1.00425 0.990195
1.00019 1.00248 0.99177
1.00015 1.00375 0.990486
0.999921 1.00438 0.990289
0.99986 1.00421 0.990644
1.00032 1.00295 0.990951
1.0002 1.00235 0.991851
1.00006 1.00241 0.992006
1.00022 1.0025 0.991585
1.00027 1.00265 0.991338
1.00018 1.00278 0.991378
1.00003 1.00327 0.991188
1.00009 1.00301 0.991309
1.00006 1.00403 0.990428
1.00016 1.00293 0.991392
1.00004 1.00316 0.991339
1.00017 1.00334 0.990624
1.00016 1.00275 0.991451
1.00009 1.00232 0.992056
1.00014 1.00292 0.99131
1.00013 1.00199 0.992302
1.00011 1.0024 0.991998
0.99989 1.00264 0.992066
1.00008 1.00265 0.991799
1.00009 1.002 0.992313
1.00014 1.00098 0.993255
1.00009 1.00181 0.99255
1.00013 1.00074 0.993509
1.00009 0.999443 0.994874
1.00011 1.00057 0.993725
1.0001 0.999303 0.994988
0.999973 0.997479 0.997447
1.00012 0.999189 0.995072
1.00002 0.997372 0.997268
0.999959 0.996202 0.998463
1.00006 0.997263 0.997089
0.99999 0.996105 0.998926
0.999997 0.996061 0.999365
1.00014 1.00038 0.993746
1.00012 0.998965 0.995113
1.00012 1.00022 0.994112
1.00007 0.997064 0.997261
1.00013 0.998832 0.995318
1.0001 1.00004 0.99417
1.00001 0.995921 0.99941
1.00008 0.996972 0.997324
1.00014 0.998746 0.995475
1.00002 0.99589 0.999419
1.00009 0.996939 0.99735
1.00001 0.99591 0.999415
1.01391 0.99604 0.977213
1.00025 0.995848 0.984712
0.995839 0.997078 0.978149
1.00016 1.0014 0.992805
1.02115 0.992375 0.971486
1.01064 0.995618 0.979717
0.998488 0.995184 0.985194
1.00057 0.998729 0.988444
0.995794 1.00218 0.972867
0.994361 1.00078 0.981254
1.00079 0.995813 0.983628
0.999526 0.999154 0.987085
0.994973 1.00172 0.97281
0.995622 0.999068 0.981108
1.00647 0.995344 0.98126
0.999289 0.998953 0.985911
0.99501 0.999731 0.969524
0.997825 0.998306 0.978366
1.00982 0.992674 0.98088
1.00015 1.00234 0.99184
1.00005 1.00219 0.992252
1.00003 1.00166 0.992889
1.00012 1.00196 0.992298
1.00008 1.00191 0.992502
1.00005 1.00157 0.99294
1.00011 1.0013 0.99312
1.00007 1.00118 0.993322
1.00413 0.998712 0.987949
1.00034 1.00467 0.989185
1.00005 1.00249 0.991923
1.00023 1.0046 0.989784
1.00025 1.00351 0.990637
1.00009 1.00299 0.991431
1.00016 1.00274 0.991488
1.00264 1.00131 0.988902
1.00031 1.00312 0.990781
1.00031 1.00357 0.990407
0.999708 1.00457 0.99044
1.00025 1.00262 0.991489
1.0012 1.00112 0.992234
0.999523 1.00395 0.99161
1.0004 1.00274 0.990943
1.0003 1.00296 0.99108
1.0233 0.994396 0.968258
1.01438 0.996816 0.976799
1.00029 0.996077 0.986385
0.99996 1.00216 0.99222
0.999086 1.00338 0.992105
1.01354 0.997493 0.976434
0.995566 0.999626 0.972975
0.999431 0.999654 0.98884
0.997324 0.998214 0.979372
1.02017 0.993874 0.970118
1.0125 0.992372 0.977317
0.999755 1.00224 0.992896
1.02463 0.992327 0.967138
1.02541 0.990537 0.967027
0.99673 1.00378 0.9977
1.00614 0.996237 0.98074
0.995144 0.998166 0.975664
0.997591 0.998762 0.978306
0.998776 1.00266 0.994957
1.02706 0.992172 0.964615
1.02153 0.994056 0.968857
0.999503 0.997847 0.982467
0.997902 0.998152 0.978265
0.996248 0.999937 1.00312
0.994872 0.999866 0.971647
1.00049 1.00344 0.990246
0.999978 1.00304 0.991712
0.999065 1.00471 0.990841
1.00019 1.00244 0.991795
1.00016 1.00372 0.990484
1.00001 1.00435 0.990041
1.0003 1.00295 0.990969
0.999875 1.00414 0.990579
0.999714 1.00411 0.990959
1.00027 1.00264 0.991339
1.0002 1.00274 0.991393
1.00011 1.00327 0.991129
0.99983 1.00449 0.990353
1.00002 1.00295 0.991482
0.999973 1.00392 0.990556
1.00011 1.00456 0.989794
1.0005 1.00305 0.99054
1.00011 1.00319 0.991323
1.00022 1.00346 0.990523
1.00022 1.00241 0.991845
0.999971 1.00247 0.992028
1.00017 1.00265 0.991544
1.0001 1.00195 0.992406
1.00011 1.00233 0.992039
1.00008 1.00293 0.991331
1.00016 1.00114 0.993083
1.00014 1.00197 0.992287
1.0001 1.00242 0.991973
1.00009 1.00198 0.992373
1.00014 1.00098 0.993256
1.00007 0.999653 0.994707
1.00013 1.00075 0.993506
1.00008 0.99945 0.994869
0.999944 0.997621 0.996936
1.0001 0.999301 0.994984
0.999985 0.997491 0.996992
0.999891 0.996321 0.999339
1.00002 0.997367 0.997047
0.999954 0.996205 0.998911
0.99997 0.996138 0.999357
1.00016 1.00049 0.993569
1.00012 0.999153 0.994925
1.00014 1.00038 0.993821
1.00005 0.997193 0.997173
1.00012 0.998989 0.99509
1.00012 1.00022 0.99411
0.999997 0.995987 0.999394
1.00007 0.997056 0.997264
1.00013 0.998847 0.995231
1.00001 0.995914 0.999413
1.00008 0.996967 0.997326
1.00002 0.995889 0.999419
1.02306 0.993527 0.968824
1.01398 0.995678 0.977278
1.00012 0.995803 0.984946
1.00016 1.0014 0.992832
1.00021 1.00146 0.992609
1.00016 1.00201 0.992291
1.02376 0.990349 0.971153
1.0212 0.991876 0.971618
1.01041 0.996059 0.980002
0.999299 0.999388 0.991132
0.995119 1.00205 0.970927
0.994587 0.998531 0.980056
1.00693 0.994873 0.981033
0.998872 0.998994 0.990293
0.995009 0.999672 0.973555
0.996082 0.998821 0.982481
1.01102 0.991369 0.979729
0.998419 0.997333 0.991966
0.994933 0.999728 0.974575
0.997346 0.999107 0.980781
1.00931 0.9949 0.978028
1.0002 1.00245 0.991689
1.00014 1.00239 0.991836
1.00005 1.00224 0.992206
1.00013 1.00198 0.992291
1.00008 1.00187 0.992586
1.00012 1.00129 0.993146
1.00287 1.00145 0.988953
0.999706 1.00449 0.990314
1.00016 1.00276 0.991497
1.00032 1.00368 0.990357
1.0003 1.00313 0.990857
1.00025 1.00256 0.991497
1.00031 1.00292 0.991045
1.00129 1.00079 0.992175
1.00043 1.00269 0.991071
0.999402 1.00384 0.992219
1.00027 1.00265 0.991266
0.998757 1.00247 0.994981
0.999593 1.00087 0.9944
1.00029 1.003 0.990867
1.02567 0.993553 0.965524
1.02349 0.994143 0.967676
1.01438 0.996333 0.976531
0.99982 1.00253 0.99262
0.996706 1.00086 0.998609
1.02468 0.992252 0.966981
0.995096 0.998622 0.985235
0.99821 0.998879 0.981236
1.02648 0.988977 0.965866
1.00657 0.995871 0.980688
0.998839 1.00229 0.994643
1.02665 0.992414 0.96474
1.02159 0.993893 0.968964
0.996215 1.00125 0.995393
1.00067 0.997431 0.982825
0.996227 0.998594 0.982187
0.994933 0.999966 0.975304
0.998118 1.005 0.996489
1.02315 0.995108 0.967048
1.01083 0.996323 0.9781
0.995975 0.997089 0.984224
0.994737 0.999194 0.981515
0.995213 0.999274 0.974643
0.997442 0.998397 0.993298
1.00007 1.00275 0.991496
0.999163 1.00472 0.990916
0.999116 1.00486 0.991175
1.00028 1.00294 0.990987
0.999884 1.00406 0.990514
0.999655 1.00416 0.99096
0.999628 1.00501 0.990182
1.00018 1.00327 0.991071
0.999973 1.00451 0.990214
1.00012 1.00505 0.989253
0.999894 1.00381 0.990684
1.00013 1.00448 0.989798
1.00056 1.00439 0.98939
1.00071 1.00322 0.99005
1.00028 1.00237 0.99144
1.00047 1.00315 0.99044
1.00026 1.00358 0.990423
1.00019 1.0021 0.992181
1.00018 1.00228 0.991951
0.999987 1.00214 0.992351
0.999995 1.00244 0.992084
1.00017 1.00255 0.991637
1.00013 1.00123 0.99303
1.00012 1.00192 0.992412
1.00012 1.00233 0.992023
1.00005 0.999867 0.99452
1.00016 1.00111 0.993091
1.00015 1.00195 0.992271
1.00015 1.00097 0.993256
1.00006 0.99966 0.994702
0.999901 0.99779 0.99685
1.00008 0.999457 0.994863
0.999947 0.997628 0.996932
0.999856 0.996464 0.999326
0.99999 0.997492 0.996993
0.999907 0.996335 0.998888
0.999934 0.99624 0.999345
1.00019 1.00063 0.993506
1.00012 0.999307 0.994945
1.00016 1.0005 0.993626
1.00003 0.997347 0.997071
1.00012 0.999167 0.994997
1.00015 1.00039 0.993895
0.999973 0.996089 0.999373
1.00005 0.997181 0.997178
1.00012 0.999011 0.995067
0.999999 0.995978 0.999399
1.00007 0.997047 0.997268
1.00001 0.995907 0.999416
1.02669 0.99122 0.966366
1.02339 0.993139 0.968727
1.0141 0.995365 0.977338
1.00022 1.0016 0.992437
1.00023 1.00216 0.991988
1.00016 1.0014 0.99286
1.0002 1.00148 0.992587
1.00017 1.00202 0.992214
1.00019 1.00205 0.99211
1.00018 1.00239 0.991809
1.01954 0.994511 0.970745
1.02484 0.988448 0.969988
1.02125 0.991385 0.97175
1.01249 0.990335 0.978577
0.998373 0.999189 0.986076
0.99504 0.999073 0.97754
0.995579 0.999818 0.979079
0.99798 0.997267 0.989742
0.994948 0.999056 0.972251
0.997955 0.998579 0.977967
1.00771 0.99566 0.978678
0.996364 0.997838 0.994275
0.994825 1.0001 0.970958
0.997789 0.999455 0.981104
1.00199 0.996429 0.982166
1.00028 1.00247 0.991535
1.0002 1.00245 0.991679
1.00012 1.00243 0.991832
1.00013 1.002 0.992285
1.00138 1.00106 0.992116
0.999188 1.00383 0.992829
1.00025 1.0025 0.991505
1.0003 1.00289 0.991009
1.00046 1.00265 0.991199
1.00027 1.00268 0.991273
1.00032 1.003 0.990799
0.998514 1.00281 0.995565
0.999577 1.00076 0.994724
1.00026 1.00321 0.99089
0.997137 1.00175 0.999271
0.999985 1.00365 0.991444
1.02312 0.996055 0.967
1.02516 0.99408 0.965427
1.02367 0.993981 0.967094
0.998959 1.00189 0.994351
0.996261 1.0001 1.00261
1.02619 0.992642 0.964864
0.994871 0.999781 0.97173
0.995822 0.999398 0.978886
1.02165 0.993666 0.969071
1.00053 0.996533 0.983238
0.998127 1.00522 0.996313
1.02349 0.994804 0.966881
1.01062 0.99689 0.978426
0.997393 0.998259 0.999897
0.995622 0.996568 0.984597
0.995773 0.999495 0.980299
0.995209 0.99939 0.974242
0.999407 1.00339 0.995544
1.01398 0.997547 0.975686
0.99832 0.996037 0.9858
0.99448 1.00074 0.979932
0.995308 1.00069 0.972628
0.997926 0.997725 0.988298
0.999313 1.00473 0.990989
0.999075 1.00488 0.991146
1.00001 1.00431 0.990552
0.999594 1.00423 0.990962
0.999446 1.00503 0.990312
1.00023 1.00502 0.989149
1.00012 1.00453 0.990075
1.0002 1.00505 0.989134
1.00068 1.00448 0.988712
1.00017 1.0044 0.989803
1.00057 1.00434 0.989282
1.00081 1.00376 0.989257
1.00106 1.00245 0.99002
1.00066 1.0026 0.990845
1.00071 1.00327 0.989956
1.00021 1.00195 0.991998
1.00029 1.00238 0.991509
1.00046 1.00325 0.990341
1.00013 1.00203 0.992307
1.00016 1.00213 0.99216
1.00013 1.00215 0.992057
1.00007 1.00141 0.992938
1 1.0021 0.992381
1.00002 1.0024 0.992139
1.00003 1.00004 0.994367
1.00014 1.00121 0.993038
1.00013 1.00189 0.992419
0.999872 0.997969 0.99675
1.00005 0.999871 0.994521
1.00017 1.00109 0.9931
1.00006 0.999666 0.994698
0.999903 0.997801 0.996844
0.999805 0.996618 0.999308
0.99995 0.997635 0.996928
0.99985 0.99648 0.999321
0.999892 0.99636 0.999332
1.00022 1.00173 0.992369
1.00022 1.00078 0.993291
1.00011 0.999461 0.994805
1.00019 1.00063 0.993506
0.999994 0.99751 0.996968
1.00012 0.99931 0.994946
1.00016 1.00051 0.993683
0.999941 0.996217 0.999348
1.00002 0.997337 0.997075
1.00012 0.999182 0.995069
0.999976 0.996074 0.999379
1.00005 0.99717 0.997183
1 0.995966 0.999404
1.02389 0.993936 0.966829
1.02635 0.991381 0.966214
1.02373 0.992772 0.968631
1.00022 1.00161 0.992459
1.00023 1.00215 0.991943
1.0002 1.00226 0.991852
1.00022 1.00209 0.991949
1.00021 1.00246 0.991724
1.00019 1.00151 0.992566
1.00018 1.00202 0.992137
1.00019 1.00205 0.992113
1.00019 1.00234 0.991809
1.00018 1.00248 0.99172
1.00904 0.998054 0.979231
1.01943 0.994609 0.970871
1.02585 0.98656 0.968822
1.00729 0.995709 0.978644
0.998141 0.998535 0.980988
0.997627 0.996882 0.98795
0.994976 0.999141 0.973932
0.996105 0.997774 0.98927
0.994924 1.00003 0.973475
0.997168 0.998744 0.97966
1.0014 0.997003 0.982958
0.995254 0.99883 0.99115
0.994932 0.998971 0.974803
0.994652 0.999554 0.979697
0.996422 0.994852 0.985288
1.00007 1.00239 0.991976
1.00024 1.00255 0.99153
1.00021 1.00244 0.991669
0.998356 1.00256 0.996145
0.999569 1.0006 0.99505
1.00027 1.0027 0.99128
1.00034 1.00301 0.990732
1.00022 1.00316 0.990949
0.999756 1.00377 0.991282
0.99716 1.00111 0.999316
0.99938 1.00418 0.991216
0.998515 1.00407 0.994916
1.01397 0.998585 0.976274
1.02328 0.995721 0.966505
1.02466 0.994641 0.965329
0.998118 1.00532 0.99614
0.997396 0.998093 0.991431
1.02384 0.994515 0.966713
0.995245 0.999081 0.968776
0.994892 0.999134 0.979067
1.01039 0.997446 0.978752
0.995367 0.996009 0.984971
0.999387 1.00337 0.99575
1.01407 0.997109 0.975715
0.998219 0.995788 0.985575
0.998219 0.9976 0.991298
0.994315 1.00072 0.978091
0.995225 1.00101 0.969858
1.0007 1.00194 0.992867
1.00007 0.996636 0.985487
0.995139 0.99777 0.977617
0.99532 1.00216 0.970509
0.998273 1.00094 0.988339
0.999052 1.0049 0.991116
0.99989 1.00423 0.990523
1.00107 1.00349 0.989257
0.999282 1.00505 0.990441
1.00011 1.00503 0.989168
1.00113 1.00359 0.988729
1.0003 1.00505 0.989015
1.00068 1.00442 0.988733
1.00127 1.00263 0.989549
1.00058 1.00435 0.989174
1.00082 1.00362 0.989312
1.00138 1.0017 0.990144
1.00149 1.00093 0.990642
1.00088 1.00223 0.99052
1.00107 1.00235 0.99006
1.00048 1.00214 0.991523
1.00061 1.00266 0.990717
1.00071 1.00332 0.989863
1.00019 1.00177 0.992378
1.00021 1.00193 0.992077
1.00031 1.00238 0.991579
1.00005 1.00159 0.992813
1.0001 1.00203 0.992316
1.00014 1.00215 0.992139
0.999985 1.00028 0.994217
1.00008 1.00142 0.992939
1.00002 1.00206 0.99241
0.99982 0.998133 0.997144
1.00003 1.00005 0.994369
1.00015 1.00118 0.993045
0.999768 0.996802 0.998295
0.999863 0.997987 0.996979
1.00004 0.999874 0.994521
0.999906 0.997812 0.996838
0.9998 0.99664 0.9993
0.999844 0.996498 0.999316
1.0002 1.00193 0.992177
1.00022 1.001 0.993072
1.00022 1.00176 0.992326
1.00009 0.999618 0.99467
1.00022 1.00079 0.993293
0.999962 0.997662 0.996876
1.00011 0.999461 0.994808
1.00019 1.00064 0.993507
0.999903 0.996359 0.999324
0.999991 0.9975 0.996972
1.00012 0.999315 0.994948
0.999945 0.9962 0.999355
1.00002 0.997327 0.99708
0.99998 0.996059 0.999386
1.01317 0.998886 0.975382
1.02399 0.99385 0.966737
1.02601 0.991513 0.966063
1.00021 1.00215 0.991959
1.00022 1.00162 0.992481
1.00023 1.00215 0.991897
1.00022 1.00211 0.992006
1.0002 1.00226 0.99189
1.00021 1.0024 0.991717
1.00022 1.00248 0.991634
1.00018 1.00249 0.991634
1.00018 1.00205 0.992116
1.0002 1.0023 0.991808
1.00017 1.00249 0.991722
1.00027 1.00277 0.991518
0.998539 0.995254 0.986282
1.00868 0.998285 0.979516
1.01946 0.994676 0.970996
0.999524 0.997296 0.983876
0.998057 0.999066 0.977724
0.994891 1.00004 0.970949
0.995709 0.997853 0.995173
0.995064 0.998825 0.996695
0.995687 0.995101 0.985869
0.994882 0.999641 0.970453
0.995446 0.998871 0.982679
0.99616 0.999305 0.995533
0.994975 0.998371 0.976649
0.994141 0.998901 0.982232
0.999657 1.00233 0.992801
1.00018 1.00228 0.991977
1.0002 1.00265 0.991525
0.997161 1.00044 0.999371
0.999653 1.00382 0.991117
1.00016 1.00313 0.991009
0.999539 1.00421 0.991214
0.998298 1.00413 0.995017
0.999158 1.00202 0.994181
0.999595 0.996384 0.986837
1.01457 0.998604 0.97435
1.02344 0.995428 0.966011
0.999293 1.00337 0.99599
0.998216 0.997994 0.993001
1.01421 0.996778 0.975739
0.995205 0.999795 0.975715
0.994489 1.00076 0.980824
0.998382 0.995727 0.984828
1.00065 1.00186 0.993162
1.00025 0.996524 0.984077
0.994406 0.9985 0.981483
0.998139 1.00087 0.984872
0.995092 1.00247 0.971737
1.0016 1.00216 0.990022
0.995943 0.996179 0.981395
0.995797 1.00239 0.972103
0.998366 1.00173 0.983993
0.999784 1.0042 0.990495
1.00083 1.00335 0.989343
1.00171 1.00195 0.988923
0.999966 1.00503 0.989188
1.00117 1.00344 0.988738
1.00225 1.0001 0.990311
1.00066 1.00438 0.988755
1.00121 1.00247 0.989632
1.00195 0.999567 0.991207
1.00084 1.00343 0.989367
1.0014 1.00153 0.990178
1.00189 0.999348 0.991429
1.00173 0.999548 0.991589
1.0013 1.00117 0.990804
1.00149 1.00083 0.990737
1.00069 1.00186 0.991128
1.00089 1.00219 0.990606
1.00107 1.00224 0.9901
1.00029 1.00177 0.992188
1.00042 1.00215 0.991515
1.00055 1.00273 0.990589
1.00009 1.00156 0.992784
1.00021 1.00177 0.99237
1.00022 1.00191 0.992156
0.999915 1.00064 0.994021
1.00007 1.00157 0.992822
1.00008 1.00202 0.992325
0.999769 0.99832 0.996572
0.99999 1.00029 0.994214
1.0001 1.00142 0.99294
0.999684 0.996964 0.99926
0.999822 0.998158 0.996635
1.00003 1.00005 0.99437
0.999753 0.996804 0.999277
0.999863 0.998 0.996728
0.999794 0.996661 0.999293
1.0002 1.00193 0.992244
1.0002 1.00194 0.992189
1.00019 1.00127 0.992872
1.00007 0.999829 0.994502
1.00021 1.00102 0.993071
1.00022 1.00179 0.992284
0.999929 0.997801 0.996798
1.0001 0.999606 0.994675
1.00022 1.00079 0.993294
0.99986 0.996499 0.999303
0.999958 0.997654 0.996881
1.00011 0.999458 0.994812
0.999907 0.996341 0.999331
0.999988 0.99749 0.996977
0.999949 0.996181 0.999363
0.999099 0.996077 0.988285
1.01316 0.998933 0.975446
1.02407 0.993779 0.966645
1.00021 1.00217 0.991931
1.00017 1.00213 0.992173
1.00025 1.00224 0.9918
1.00021 1.00212 0.992063
1.0002 1.00227 0.991928
1.00023 1.00234 0.99171
1.00019 1.00249 0.99165
1.00022 1.00246 0.991649
1.00011 1.00289 0.991447
1.00014 1.00268 0.991488
1.00017 1.00249 0.991724
1.00019 1.00274 0.991544
0.994475 0.997904 0.981937
0.998011 0.995195 0.986828
1.00837 0.99849 0.979801
0.995145 0.995099 0.986453
0.994454 0.999126 0.979948
0.995123 0.999709 0.978024
0.994904 0.998878 0.990954
0.996057 0.999305 0.990203
0.994066 0.998574 0.979887
0.994946 0.998749 0.976492
0.998012 0.996036 0.99069
0.995192 1.00016 0.973142
1.00004 1.00353 0.991481
0.999824 1.00204 0.992776
1.00028 1.00217 0.991978
0.997887 1.00424 0.995141
0.999675 1.00424 0.991213
0.999882 1.00212 0.993974
1.00197 0.999511 0.9928
0.996332 0.996758 0.978767
0.999872 0.996574 0.986236
1.01511 0.998497 0.972428
1.00083 1.00169 0.993404
0.998103 1.00105 0.988661
1.00013 0.996509 0.984297
0.995114 1.00251 0.970362
0.995117 0.999292 0.97798
1.00165 1.00228 0.990283
0.995773 0.997067 0.979121
0.996028 1.00164 0.970552
0.998022 1.00182 0.988081
1.00185 1.00332 0.988239
0.996557 1.00164 0.966832
0.9994 0.999287 0.991734
1.00056 1.00311 0.989428
1.00154 1.00233 0.988817
1.00326 0.997748 0.989849
1.00123 1.00328 0.988747
1.0022 0.999823 0.990317
1.00285 0.996535 0.992586
1.00115 1.0023 0.989716
1.00195 0.999374 0.991219
1.00251 0.99701 0.992541
1.00142 1.00135 0.990213
1.0019 0.99927 0.991432
1.00209 0.998049 0.992274
1.00186 0.998875 0.9921
1.00172 0.99944 0.991695
1.00154 1.00001 0.991489
1.00116 1.00113 0.991146
1.0013 1.00119 0.990822
1.00148 1.00072 0.990831
1.00053 1.00161 0.99172
1.0007 1.00188 0.991218
1.0009 1.00215 0.990691
1.00016 1.00151 0.992693
1.0003 1.00178 0.992175
1.00036 1.00216 0.991507
0.999874 1.0009 0.993842
1.00011 1.00154 0.99279
1.00022 1.00177 0.992362
0.999684 0.998584 0.996467
0.999931 1.0006 0.994024
1.00008 1.00155 0.992832
0.999644 0.997129 0.999241
0.999765 0.998345 0.996566
0.999996 1.00029 0.994211
0.999696 0.996973 0.998755
0.999822 0.998171 0.996636
0.999744 0.996832 0.999267
1.00016 1.00189 0.992355
1.0002 1.00193 0.992195
1.00018 1.00141 0.992745
1.00019 1.00196 0.9922
1.00019 1.00128 0.992867
1.00005 1.0001 0.994275
0.99989 0.997963 0.99671
1.00008 0.999815 0.994507
1.00021 1.00103 0.993069
0.999813 0.996639 0.999285
0.999926 0.997794 0.996803
1.00011 0.999598 0.994679
0.999865 0.996487 0.999309
0.999955 0.997646 0.996885
0.999912 0.996325 0.999338
0.995122 0.998012 0.978751
0.999073 0.996116 0.987562
1.01318 0.998985 0.97551
1.00022 1.00218 0.991903
1.00023 1.00228 0.99179
1.00014 1.0021 0.992204
1.0001 1.00217 0.992253
1.00014 1.00237 0.991928
1.0002 1.00249 0.991667
1.00022 1.00245 0.991663
1.00009 1.00285 0.991478
0.999988 1.00247 0.991803
1.00003 1.00293 0.991368
1.00048 1.00337 0.990689
1.00009 1.00294 0.991453
1.00013 1.00273 0.99157
0.996278 1.00059 0.969044
0.994575 0.998859 0.980527
0.997616 0.995386 0.986559
0.994012 0.998392 0.982965
0.994908 0.999012 0.970992
0.99604 0.999262 0.996027
0.998169 0.996344 0.993402
0.995357 0.999085 0.975485
1.00085 0.995976 0.990362
1.00201 1.00256 0.988295
0.999733 1.00346 0.99144
0.999972 1.00172 0.992751
1.00038 1.00223 0.993746
1.00219 0.99888 0.992124
0.996965 1.00042 0.969114
0.996045 0.997262 0.97753
1.00014 0.996936 0.985631
1.00175 1.00239 0.990564
0.997632 1.00216 0.984261
0.995961 0.99711 0.977943
0.995785 1.00185 0.972698
1.00215 1.00314 0.988279
0.997369 1.00072 0.970995
0.99909 0.999862 0.986474
1.00366 1.00076 0.987372
1.00058 0.998423 0.993311
1.00137 1.00275 0.98871
1.00318 0.998088 0.989748
1.00402 0.99519 0.991287
1.00213 0.999545 0.990324
1.00269 0.996536 0.992573
1.00308 0.995208 0.993121
1.00197 0.999158 0.991231
1.0025 0.997011 0.992474
1.00256 0.996718 0.992687
1.00191 0.999194 0.991435
1.00209 0.998126 0.992227
1.00211 0.99811 0.99224
1.00181 0.998748 0.992215
1.00176 0.999341 0.991821
1.00172 0.999343 0.991802
1.00155 1.00002 0.991468
1.00145 1.00031 0.991391
1.00091 1.00112 0.991484
1.00115 1.00117 0.991126
1.00129 1.00122 0.990839
1.00034 1.00141 0.992436
1.00052 1.00164 0.991777
1.00072 1.0019 0.991308
0.999857 1.00107 0.993681
1.00018 1.0015 0.992687
1.00032 1.00178 0.992162
0.999603 0.998884 0.996311
0.999896 1.00085 0.993848
1.00012 1.00151 0.992796
0.999571 0.997319 0.999222
0.999681 0.998617 0.996459
0.999944 1.00058 0.994027
0.999632 0.99714 0.999236
0.999761 0.998372 0.99656
0.999687 0.996987 0.999248
1.0001 1.00203 0.992323
1.00015 1.0019 0.992359
1.00014 1.00152 0.992664
1.00021 1.00193 0.992146
1.00018 1.00143 0.992705
1.00004 1.00036 0.994041
1.00018 1.00129 0.992862
1.00005 1.00009 0.994277
0.999843 0.998178 0.996588
0.999761 0.996795 0.999264
0.999888 0.997952 0.996717
1.00009 0.999799 0.994511
0.999819 0.99663 0.99929
0.999923 0.997788 0.996807
0.99987 0.996473 0.999315
0.996614 1.00127 0.97231
0.995394 0.997492 0.980569
0.998782 0.996008 0.988261
1.0002 1.00234 0.99178
1.00011 1.00208 0.992236
1.00015 1.00236 0.991944
1.00009 1.00216 0.992248
1.00005 1.00233 0.992155
0.999999 1.00232 0.992108
1.00007 1.00278 0.991509
1.00002 1.00261 0.99174
0.999962 1.00312 0.991359
1.00009 1.00234 0.991671
1.00083 1.00287 0.990963
1.00145 1.00291 0.98895
1.00035 1.00318 0.990739
1.00003 1.00322 0.991418
1.00015 0.997962 0.990674
0.995653 1.00124 0.972217
0.994949 0.998138 0.978228
0.995248 0.999972 0.973279
0.998474 0.99646 0.996085
1.00088 0.995943 0.993771
1.00406 0.997386 0.990202
1.00196 1.00196 0.988894
0.999571 1.00345 0.991396
1.00325 0.998328 0.991454
0.999018 1.00083 0.986088
0.9973 1.00092 0.971619
0.996041 0.996503 0.980969
1.00248 1.0031 0.988324
0.998819 1.00016 0.990162
0.99695 0.999579 0.975321
1.0039 1.00005 0.987512
1.00052 0.99893 0.99075
1.00465 0.996812 0.988841
1.00368 0.998666 0.990144
1.00309 0.998512 0.98965
1.00389 0.99531 0.991309
1.0034 0.996202 0.991664
1.00254 0.996536 0.992557
1.00302 0.99547 0.993063
1.00301 0.996518 0.992038
1.00249 0.997032 0.992407
1.00251 0.996888 0.992628
1.00254 0.997744 0.991799
1.00209 0.998208 0.99218
1.00204 0.998185 0.992266
1.00196 0.998989 0.991658
1.00176 0.998628 0.992329
1.00174 0.999239 0.991886
1.00168 0.999838 0.99149
1.00156 1.00002 0.991448
1.00144 1.00033 0.991372
1.00127 1.00054 0.991545
1.00061 1.00108 0.992082
1.00089 1.00116 0.991537
1.00114 1.0012 0.991107
0.999918 1.00117 0.993458
1.00035 1.00142 0.992432
1.00051 1.00166 0.991834
0.999526 0.999218 0.996113
0.999887 1.00103 0.993684
1.0002 1.00149 0.99268
0.999499 0.997549 0.999188
0.999603 0.99892 0.996305
0.999916 1.00081 0.993855
0.99956 0.997342 0.999213
0.99968 0.998646 0.996452
0.99962 0.997153 0.999232
1.00009 1.00214 0.992247
1.00011 1.00202 0.992352
1.00007 1.00171 0.992644
1.00013 1.0019 0.992364
1.00013 1.00155 0.992663
0.999999 1.00062 0.993861
1.00017 1.00146 0.992664
1.00004 1.00037 0.994039
0.999786 0.99842 0.996453
1.00006 1.00008 0.994278
0.999845 0.998154 0.996597
0.999705 0.996978 0.999234
0.999769 0.996783 0.99927
0.999887 0.997939 0.996724
0.999825 0.996621 0.999295
0.999339 0.999709 0.988987
0.9964 1.00083 0.970489
0.995872 0.997854 0.977478
1.00029 1.00215 0.99189
1.00014 1.00237 0.99196
1.00008 1.00214 0.992243
1.00003 1.00238 0.9921
1.00003 1.00236 0.992135
0.999984 1.00199 0.992402
1.00006 1.00282 0.991678
0.999971 1.00333 0.99135
1.00021 1.00236 0.99176
1.00055 1.0028 0.991167
1.00148 1.00186 0.989847
1.00307 1.00061 0.987722
1.00153 1.00251 0.9889
1.00032 1.00286 0.990789
1.0045 0.995988 0.990165
0.999956 0.998246 0.988703
0.995558 1.00113 0.975741
1.00078 0.9958 0.988672
1.0041 0.997322 0.989698
1.00137 1.00134 0.989504
1.00289 0.999676 0.991494
0.999059 1.00037 0.990273
0.996962 1.00043 0.969496
1.0041 0.999325 0.987643
1.00047 0.998721 0.988291
1.00477 0.996438 0.988653
1.00366 0.998412 0.990636
1.00388 0.996948 0.989213
1.00297 0.998583 0.98917
1.00376 0.995356 0.991331
1.00338 0.99611 0.991737
1.00307 0.997827 0.990773
1.00297 0.995696 0.993004
1.003 0.996604 0.992014
1.00284 0.99806 0.990914
1.00246 0.997059 0.99257
1.00244 0.997821 0.991907
1.00233 0.998891 0.990989
1.00198 0.998255 0.992292
1.00194 0.999001 0.99166
1.00186 0.999611 0.991237
1.00172 0.999135 0.99195
1.00166 0.99976 0.991519
1.00149 1.00016 0.991436
1.00144 1.00035 0.991353
1.00125 1.00054 0.991504
1.00095 1.00072 0.991944
1.00011 1.00106 0.993199
1.0006 1.00111 0.992138
1.00087 1.0012 0.99159
0.99947 0.999615 0.995829
0.99994 1.00115 0.993461
1.00035 1.00142 0.992428
0.999419 0.99781 0.999142
0.999538 0.999242 0.996108
0.999916 1.00099 0.993686
0.999485 0.997575 0.999175
0.999603 0.998953 0.9963
0.999548 0.997362 0.999203
1.00019 1.00207 0.992021
1.00009 1.00211 0.992253
1.00008 1.0018 0.992599
1.00013 1.00201 0.99238
1.00006 1.00172 0.992668
0.99992 1.00093 0.993717
1.00012 1.00158 0.992663
0.999986 1.00065 0.993857
0.999705 0.998703 0.996329
1.00003 1.00038 0.994036
0.999792 0.998391 0.996461
0.999641 0.997174 0.999205
0.999847 0.998131 0.996606
0.999715 0.996959 0.999244
0.999776 0.996772 0.999277
1.00359 0.996492 0.991524
0.999332 1.0001 0.985142
0.996699 1.00102 0.971929
1.00033 1.0017 0.992079
1.00086 1.00165 0.99126
1.00016 1.00217 0.991947
1.00007 1.00239 0.992091
1.00003 1.0024 0.992115
1.00011 1.00197 0.992328
1.00135 1.00133 0.990562
1.00026 1.00239 0.99185
1.0001 1.00273 0.991369
1.00141 1.0018 0.989973
1.00278 1.00022 0.988479
1.00385 0.997767 0.988816
1.00316 1.00046 0.987742
1.00168 1.00209 0.98885
1.00432 0.99609 0.990355
0.999845 0.998919 0.985944
1.00422 0.997475 0.989175
1.00258 0.998259 0.991269
1.00284 0.999048 0.991711
0.999164 1.00043 0.985162
1.00491 0.996122 0.988466
1.00369 0.998202 0.991102
1.00394 0.99703 0.989303
1.00307 0.998625 0.989456
1.00298 0.998706 0.989904
1.00264 0.9985 0.990721
1.00336 0.995909 0.991811
1.00308 0.997649 0.990818
1.00296 0.99875 0.989949
1.00298 0.996726 0.99199
1.00279 0.99807 0.990962
1.00268 0.998873 0.990282
1.00233 0.997894 0.992014
1.00233 0.998902 0.990984
1.00221 0.999497 0.990652
1.00193 0.999013 0.991663
1.00186 0.999609 0.991236
1.00169 1.00002 0.991168
1.00164 0.999681 0.991548
1.00147 1.00014 0.991441
1.00116 1.00044 0.991783
1.00123 1.00055 0.991464
1.00092 1.00071 0.991926
1.00036 1.0008 0.99297
0.999489 0.999915 0.995518
1.00011 1.00105 0.993205
1.00059 1.00114 0.992194
0.999323 0.998131 0.999079
0.9995 0.999604 0.995821
0.999961 1.00112 0.993464
0.9994 0.997847 0.999125
0.999549 0.999263 0.996102
0.999471 0.997604 0.999162
1.00044 1.00191 0.99153
1.0002 1.00204 0.991967
1.00021 1.00172 0.992436
1.00009 1.00209 0.99226
1.00006 1.0018 0.9926
0.999862 1.0012 0.993581
1.00006 1.00174 0.992691
0.999901 1.00097 0.993713
0.999607 0.999041 0.996193
0.999974 1.00068 0.993852
0.999712 0.99867 0.996334
0.999561 0.997394 0.999175
0.999798 0.998361 0.996469
0.999654 0.997155 0.999213
0.999724 0.996943 0.999253
1.00328 0.99685 0.990852
1.00351 0.99682 0.991677
0.999496 1.00019 0.989007
1.00143 1.00105 0.990976
1.0002 1.00168 0.992385
1.00138 1.00101 0.990445
1.00087 1.00166 0.991215
1.00002 1.00223 0.992004
1.0026 1.00026 0.989162
1.00024 1.00195 0.992254
1.00142 1.00121 0.990522
1.00346 0.998616 0.988983
1.00137 1.00175 0.9901
1.00287 1.0003 0.988424
1.0038 0.997982 0.988783
1.00312 1.00043 0.987762
1.00417 0.996176 0.990541
1.0025 0.998365 0.991398
1.00253 0.998027 0.991202
1.00277 0.998415 0.991935
1.00397 0.997047 0.989394
1.00317 0.998716 0.989739
1.00309 0.998642 0.989854
1.00263 0.998579 0.990788
1.0026 0.998987 0.990407
1.00307 0.997553 0.990864
1.00298 0.998675 0.989988
1.00284 0.999078 0.989844
1.00274 0.998089 0.991009
1.00269 0.998922 0.990259
1.00256 0.999386 0.990075
1.00234 0.998913 0.99098
1.00222 0.999497 0.99064
1.002 0.999871 0.990693
1.00186 0.999606 0.991234
1.00169 1.00001 0.991165
1.00138 1.00029 0.991492
1.00145 1.00012 0.991447
1.00116 1.00044 0.991787
1.00059 1.00056 0.992745
1.00089 1.0007 0.991908
1.00035 1.00081 0.992974
0.999522 1.00007 0.995928
0.999255 0.998658 0.997566
0.999521 0.99986 0.995843
1.00012 1.00105 0.99321
0.999305 0.998192 0.999052
0.999528 0.999597 0.995812
0.999384 0.997885 0.999108
1.00176 1.00029 0.990641
1.00079 1.00162 0.991124
1.00051 1.00189 0.991468
1.0004 1.00155 0.99221
1.0002 1.002 0.991914
1.00019 1.00171 0.992446
0.99986 1.00132 0.993465
1.00005 1.0018 0.992601
0.999839 1.00122 0.993578
0.999518 0.999399 0.996018
0.99988 1.00101 0.99371
0.999609 0.999006 0.996198
0.999463 0.997656 0.999139
0.999719 0.998636 0.99634
0.999578 0.997371 0.999184
0.999667 0.997135 0.999222
1.00304 0.998057 0.990454
1.00327 0.997048 0.990873
1.00347 0.997178 0.991828
1.00239 1.00007 0.989695
1.00121 1.00108 0.991225
1.00004 1.00163 0.992691
1.00151 1.00097 0.990552
1.00089 1.00167 0.99117
1.00331 0.999143 0.988814
1.00261 1.00031 0.98904
1.00148 1.00114 0.990481
1.00349 0.998653 0.988944
1.00302 1.00032 0.988368
1.00372 0.998165 0.98875
1.00233 0.998892 0.990913
1.00246 0.998337 0.991348
1.00245 0.997737 0.991135
1.00321 0.99857 0.989806
1.00262 0.998636 0.990855
1.00262 0.998966 0.990432
1.0025 0.99935 0.990242
1.003 0.998591 0.990028
1.00286 0.999038 0.989831
1.00266 0.999288 0.989939
1.00269 0.998969 0.990236
1.00256 0.999388 0.990064
1.00231 0.999697 0.990249
1.00222 0.999496 0.990628
1.00201 0.999869 0.990683
1.00166 1.00014 0.991091
1.0017 1.00001 0.991162
1.00139 1.00028 0.99149
1.00081 1.00042 0.992454
1.00115 1.00044 0.991791
1.00059 1.00057 0.992745
0.999577 1.00019 0.995724
1.00035 1.00082 0.992978
0.999568 1.00005 0.995887
0.999133 0.999166 0.997346
0.999226 0.998628 0.998264
0.999557 0.999813 0.99616
0.999289 0.998251 0.999025
1.00243 0.999811 0.989898
1.00133 1.00091 0.991067
1.00163 1.00017 0.991015
1.00061 1.00149 0.991839
1.00089 1.0016 0.991114
1.0006 1.00186 0.991406
1.00037 1.0016 0.992217
0.99994 1.00133 0.993298
1.00018 1.0017 0.992456
0.999845 1.00133 0.99346
0.999457 0.999748 0.995798
0.999818 1.00126 0.993575
0.99951 0.999375 0.996022
0.999346 0.997973 0.99909
0.999612 0.99897 0.996202
0.999485 0.997622 0.999151
0.999596 0.997347 0.999193
1.00295 0.99876 0.989887
1.00304 0.99811 0.990429
1.00326 0.997284 0.990894
1.00303 0.99924 0.989132
1.00239 1.00012 0.989699
1.00102 1.0011 0.991475
1.00164 1.0009 0.99066
1.00332 0.999151 0.98883
1.00265 1.00035 0.988918
1.00352 0.998686 0.988905
1.00243 0.999266 0.990426
1.0024 0.998936 0.990772
1.00243 0.998328 0.991299
1.00244 0.999677 0.990069
1.00264 0.998945 0.990456
1.0025 0.999367 0.990211
1.00252 0.999454 0.990123
1.00289 0.999004 0.989818
1.00267 0.999282 0.989943
1.00243 0.999623 0.990088
1.00257 0.99939 0.990052
1.00231 0.999703 0.990245
1.00193 0.999962 0.990746
1.00202 0.999868 0.990674
1.00166 1.00014 0.991086
1.00104 1.00032 0.992111
1.00139 1.00028 0.991489
1.00081 1.00043 0.992447
0.999641 1.00023 0.995574
1.00058 1.00058 0.992745
0.999625 1.00016 0.99569
0.999026 0.999542 0.997215
0.999613 1.00003 0.995846
0.999111 0.999166 0.997381
0.999184 0.998586 0.998979
1.0028 0.999682 0.989402
1.00208 1.00011 0.990364
1.00234 0.999894 0.99003
1.00103 1.00108 0.991576
1.00132 1.00086 0.991061
1.00152 1.00008 0.991388
1.00013 1.00132 0.992942
1.00061 1.00149 0.991836
1.00098 1.0016 0.991105
1.00033 1.00164 0.992224
0.99992 1.00136 0.993295
0.999442 1.00007 0.995511
0.999831 1.00134 0.993456
0.999434 0.999752 0.995801
0.999212 0.998368 0.999026
0.999503 0.99935 0.996026
0.999374 0.997923 0.999106
0.999507 0.997589 0.999162
1.00292 0.998985 0.989748
1.00304 0.998746 0.989775
1.00302 0.998157 0.990405
1.00311 0.999186 0.989114
1.00237 1.00019 0.989702
1.00334 0.999161 0.988845
1.0025 0.999562 0.990017
1.00241 0.999311 0.990422
1.00248 0.99898 0.990631
1.00242 0.999674 0.990078
1.0024 0.999873 0.98995
1.00251 0.999382 0.99018
1.0025 0.999466 0.990127
1.00239 0.999676 0.990169
1.00269 0.999276 0.989947
1.00243 0.99961 0.990098
1.00205 0.999886 0.990568
1.00231 0.999707 0.990241
1.00192 0.999968 0.990741
1.00124 1.00018 0.991858
1.00167 1.00014 0.991082
1.00104 1.00032 0.9921
0.999735 1.0002 0.995456
1.00081 1.00043 0.992439
0.99969 1.00021 0.995541
0.99895 0.999809 0.997126
0.999673 1.00013 0.995655
0.999001 0.999561 0.997245
0.999088 0.999163 0.997417
1.00284 0.999105 0.989765
1.00247 0.999829 0.989811
1.00282 0.999625 0.989356
1.00157 1.00046 0.991042
1.00204 1.00015 0.990427
1.00224 0.999965 0.990163
1.00046 1.00102 0.992517
1.00101 1.00104 0.991463
1.00131 1.00078 0.991056
0.999485 1.00036 0.995134
1.00012 1.0013 0.992943
1.00062 1.00148 0.991833
0.999896 1.00138 0.993292
0.999394 1.00012 0.995517
0.999072 0.998834 0.998945
0.999411 0.999759 0.995803
0.999239 0.998296 0.999047
0.999402 0.997875 0.999121
1.00275 0.999283 0.989805
1.00295 0.998983 0.989718
1.00311 0.998731 0.989663
1.00319 0.999122 0.989096
1.00253 0.99975 0.989759
1.0025 0.999549 0.990044
1.00239 0.999351 0.990417
1.00241 0.99967 0.990087
1.0024 0.999853 0.989944
1.0023 0.999913 0.990094
1.00249 0.999479 0.99013
1.00237 0.999687 0.990194
1.00207 0.999873 0.990496
1.00243 0.999597 0.990107
1.00205 0.99988 0.990571
1.00135 1.00006 0.991744
1.00192 0.999975 0.990735
1.00124 1.00017 0.99185
0.999833 1.00014 0.994554
1.00105 1.00032 0.992089
0.999773 1.00021 0.995014
0.998905 0.999891 0.998744
0.999739 1.00019 0.995507
0.998921 0.999849 0.997154
0.998975 0.999578 0.997277
1.00272 0.999257 0.989927
1.00253 0.9995 0.989944
1.00282 0.999145 0.989788
1.00194 1.00002 0.990461
1.00245 0.999824 0.989879
1.00284 0.999573 0.989311
1.00086 1.00056 0.99196
1.00158 1.00045 0.991036
1.002 1.00021 0.990489
0.999612 1.00046 0.994751
1.00047 1.001 0.992418
1.00099 1.001 0.991351
0.998971 0.999332 0.998842
0.999425 1.00042 0.995148
1.00012 1.00129 0.992945
0.999342 1.00018 0.995524
0.999096 0.99875 0.998972
0.999273 0.998224 0.999067
1.00263 0.99948 0.989856
1.00274 0.999286 0.989831
1.00298 0.998985 0.989687
1.00252 0.99987 0.989715
1.00255 0.999761 0.989729
1.00251 0.999542 0.990071
1.00239 0.999833 0.989938
1.00231 0.999894 0.990097
1.00208 0.999942 0.990539
1.00235 0.999697 0.99022
1.00206 0.99989 0.990594
1.00141 1.00001 0.991506
1.00205 0.999873 0.990574
1.00135 1.00005 0.991743
0.999884 1.00008 0.994511
1.00124 1.00017 0.991842
0.999839 1.00014 0.994549
0.998905 0.999942 0.998736
0.999804 1.00021 0.994585
0.998901 0.999964 0.997928
0.998891 0.999889 0.997183
1.0026 0.999478 0.990018
1.00248 0.99947 0.990127
1.0027 0.999218 0.989941
1.00209 0.999824 0.99051
1.00252 0.999515 0.989972
1.0028 0.999184 0.989812
1.00121 1.0002 0.991632
1.00197 1.00006 0.990586
1.00243 0.999816 0.989947
0.999753 1.00039 0.994506
1.00092 1.00053 0.991917
1.00158 1.00044 0.991029
0.998927 0.999733 0.998749
0.999554 1.00053 0.994765
1.00049 1.00097 0.992319
0.998976 0.999233 0.998877
0.999363 1.00049 0.995161
0.999119 0.998655 0.998997
1.00252 0.999701 0.989882
1.00263 0.99949 0.989855
1.00272 0.999282 0.989857
1.00227 0.9999 0.990197
1.0025 0.999892 0.989741
1.00257 0.999772 0.989698
1.00231 0.999877 0.9901
1.00209 0.999928 0.990544
1.0015 0.999982 0.991347
1.00205 0.999908 0.990692
1.0014 1.00001 0.991594
0.999938 1.00006 0.994423
1.00135 1.00005 0.991742
0.999886 1.00008 0.99451
0.998917 0.999985 0.998727
0.999844 1.00013 0.994545
0.998913 0.99996 0.998732
0.998914 1.00005 0.997082
1.00245 0.999628 0.990162
1.00258 0.999429 0.990022
1.00213 0.99976 0.990506
1.00249 0.999469 0.990123
1.00268 0.99918 0.989954
1.0014 1.00003 0.991663
1.00211 0.999824 0.9905
1.00251 0.999527 0.990001
0.999861 1.00023 0.994424
1.00124 1.00021 0.991698
1.002 1.00009 0.990712
0.998921 0.999971 0.998702
0.999717 1.00044 0.994516
1.00097 1.00051 0.991873
0.99892 0.999649 0.998778
0.999498 1.0006 0.994779
0.998983 0.999132 0.998909
1.00223 0.99984 0.990347
1.0025 0.999717 0.989905
1.00263 0.999504 0.989853
1.00161 0.999946 0.991152
1.00227 0.99992 0.990197
1.00247 0.999912 0.989766
1.00209 0.999917 0.990549
1.00149 0.999979 0.991375
1.00002 1 0.994308
1.0014 1.00001 0.991682
0.999939 1.00006 0.99442
0.998946 1 0.998707
0.999889 1.00007 0.994509
0.998929 0.999994 0.998721
0.998924 0.999981 0.998729
1.00215 0.999825 0.99044
1.00245 0.999586 0.99014
1.00257 0.999373 0.990027
1.00146 0.99995 0.991612
1.00214 0.999762 0.990501
1.00249 0.999468 0.99012
0.999922 1.00008 0.994432
1.0014 1.00004 0.991664
1.00213 0.999824 0.990491
0.998932 1.00006 0.998694
0.999841 1.00026 0.994431
1.00127 1.00023 0.991764
0.998907 0.999913 0.998715
0.999683 1.00048 0.994526
0.998907 0.999563 0.998808
1.0016 0.999937 0.991366
1.00224 0.999856 0.990243
1.00248 0.99973 0.989928
1.00007 0.999934 0.994254
1.00161 0.999943 0.991167
1.00226 0.999942 0.990197
1.00148 0.999973 0.991402
1.00002 1.00002 0.994304
0.999009 1 0.998672
0.99994 1.00007 0.994416
0.998968 1.00001 0.998694
0.998941 1 0.998714
1.00152 0.999944 0.991507
1.00216 0.999809 0.990403
1.00245 0.999546 0.990117
0.999984 1 0.995262
1.00146 0.999957 0.991611
1.00215 0.999765 0.990497
0.998951 1.00005 0.998701
0.99992 1.00009 0.994436
1.0014 1.00005 0.991666
0.998919 1.00003 0.998696
0.999823 1.00028 0.994439
0.998894 0.999859 0.998729
1.00008 0.99995 0.994258
1.0016 0.99993 0.991288
1.00224 0.999864 0.99014
0.999067 0.999983 0.99865
1.00008 0.999939 0.994249
1.00161 0.999939 0.991182
1.00002 1.00003 0.994298
0.999029 1.00001 0.998661
0.998988 1.00002 0.998679
1.00006 0.999973 0.995185
1.00152 0.999942 0.99151
1.00217 0.999794 0.990366
0.998913 1.00004 0.998752
0.999963 0.999994 0.994438
1.00147 0.999963 0.991611
0.99894 1.00004 0.998699
0.999918 1.00009 0.994439
0.998903 1 0.998698
0.999068 0.999956 0.996894
1.00009 0.999935 0.994703
1.0016 0.999929 0.991211
0.999068 0.999988 0.998647
1.00008 0.999948 0.994248
0.999046 1.00002 0.998652
0.998966 0.999987 0.99701
1.00003 0.999961 0.994786
1.00152 0.99994 0.991513
0.998942 1.00002 0.997872
0.999973 0.999986 0.994433
0.998928 1.00003 0.998698
0.999073 0.999983 0.998651
1.00008 0.999914 0.994281
0.999076 0.999989 0.998646
0.999004 0.999984 0.997834
1.00002 0.99995 0.994366
0.998957 1.00002 0.998702
0.999055 0.999981 0.998662
0.999003 0.999998 0.998688

TENSORS stress float
0.00117284 3.1049e-05 2.8121e-05
3.1049e-05 0.000211689 -5.79349e-06
2.8121e-05 -5.79349e-06 0.00019748
0.00277595 -5.27967e-05 2.59629e-05
-5.27967e-05 0.00100103 3.39021e-06
2.59629e-05 3.39021e-06 0.00100477
0.00117303 3.51971e-05 1.10916e-05
3.51971e-05 0.000214026 -2.06106e-06
1.10916e-05 -2.06106e-06 0.000199499
0.00128439 2.00121e-05 3.82117e-05
2.00121e-05 0.00028841 -4.30694e-06
3.82117e-05 -4.30694e-06 0.000267775
0.00120445 2.91273e-05 3.09557e-05
2.91273e-05 0.000239475 -5.37424e-06
3.09557e-05 -5.37424e-06 0.000221972
0.00114378 3.19929e-05 2.54877e-05
3.19929e-05 0.00018388 -6.08084e-06
2.54877e-05 -6.08084e-06 0.000174105
0.0011356 1.25575e-05 6.9211e-06
1.25575e-05 0.00016324 -2.49163e-06
6.9211e-06 -2.49163e-06 0.000129924
0.00279455 -5.34956e-05 3.30314e-07
-5.34956e-05 0.00100787 -1.2549e-07
3.30314e-07 -1.2549e-07 0.00101211
0.00314827 -7.26078e-05 1.09208e-05
-7.26078e-05 0.00123084 1.17353e-06
1.09208e-05 1.17353e-06 0.00122364
0.00282286 -6.19986e-05 1.0564e-05
-6.19986e-05 0.00103864 1.30733e-06
1.0564e-05 1.30733e-06 0.00103893
0.00109906 -3.07224e-05 2.08801e-05
-3.07224e-05 0.000139006 3.78961e-06
2.08801e-05 3.78961e-06 0.00013797
0.000797653 -2.23339e-05 5.31637e-06
-2.23339e-05 -1.18997e-05 3.18878e-06
5.31637e-06 3.18878e-06 -3.9666e-05
0.00156112 -1.10834e-05 4.70591e-05
-1.10834e-05 0.000416934 1.02229e-06
4.70591e-05 1.02229e-06 0.000396527
0.00134847 -4.6473e-05 6.05834e-06
-4.6473e-05 0.000329817 1.47892e-06
6.05834e-06 1.47892e-06 0.000306423
0.00116651 3.99863e-05 -6.84591e-06
3.99863e-05 0.000213095 1.6672e-06
-6.84591e-06 1.6672e-06 0.000198189
0.00131046 3.1652e-05 1.60748e-05
3.1652e-05 0.000305658 -1.31353e-06
1.60748e-05 -1.31353e-06 0.000283692
0.00112965 3.51986e-05 9.9045e-06
3.51986e-05 0.00017825 -2.20015e-06
9.9045e-06 -2.20015e-06 0.00016845
0.00121592 3.45971e-05 1.24464e-05
3.45971e-05 0.000248064 -1.79974e-06
1.24464e-05 -1.79974e-06 0.000229953
0.00117697 1.23866e-05 -4.06042e-06
1.23866e-05 0.0001828 4.58571e-07
-4.06042e-06 4.58571e-07 0.000149759
0.0039193 6.10345e-05 4.52578e-05
6.10345e-05 0.00161532 -5.9785e-07
4.52578e-05 -5.9785e-07 0.00160659
0.00134202 1.73104e-05 4.10751e-05
1.73104e-05 0.000315979 -3.45982e-06
4.10751e-05 -3.45982e-06 0.000295536
0.0012338 2.52166e-05 3.44197e-05
2.52166e-05 0.000261844 -4.93039e-06
3.44197e-05 -4.93039e-06 0.000242167
0.00128606 7.32527e-06 8.12861e-06
7.32527e-06 0.000220373 -2.58317e-06
8.12861e-06 -2.58317e-06 0.000180972
0.00118372 9.31051e-06 7.24975e-06
9.31051e-06 0.000184124 -2.47234e-06
7.24975e-06 -2.47234e-06 0.00014833
0.00113675 3.19541e-05 2.35988e-05
3.19541e-05 0.000166484 -6.14564e-06
2.35988e-05 -6.14564e-06 0.000161646
0.00108348 1.93449e-05 6.1794e-06
1.93449e-05 0.000139969 -2.63131e-06
6.1794e-06 -2.63131e-06 0.000110104
0.00142918 -2.93329e-05 2.3522e-06
-2.93329e-05 0.00025017 -1.1758e-06
2.3522e-06 -1.1758e-06 0.000193201
0.0028148 -5.42313e-05 -2.47905e-05
-5.42313e-05 0.00101536 -3.37563e-06
-2.47905e-05 -3.37563e-06 0.00102011
0.00217515 -5.10501e-05 -1.17837e-05
-5.10501e-05 0.000737065 -6.01719e-07
-1.17837e-05 -6.01719e-07 0.000724543
0.0020038 -4.71301e-05 -9.86476e-06
-4.71301e-05 0.000622996 -8.87576e-07
-9.86476e-06 -8.87576e-07 0.000618315
0.00268773 -4.9856e-05 2.32211e-07
-4.9856e-05 0.000942982 -8.22002e-08
2.32211e-07 -8.22002e-08 0.000950142
0.000741554 -2.14645e-05 1.71941e-07
-2.14645e-05 -3.826e-05 -4.27159e-08
1.71941e-07 -4.27159e-08 -6.6001e-05
0.0014233 -2.45907e-05 3.32256e-05
-2.45907e-05 0.000361423 2.7593e-06
3.32256e-05 2.7593e-06 0.000341045
0.00125047 -3.20093e-05 2.61436e-05
-3.20093e-05 0.000257439 3.1843e-06
2.61436e-05 3.1843e-06 0.000243341
0.0018151 7.28934e-07 1.67103e-05
7.28934e-07 0.000499125 2.61624e-06
1.67103e-05 2.61624e-06 0.00046676
0.00259103 -5.02961e-05 9.23415e-06
-5.02961e-05 0.000884227 1.50832e-06
9.23415e-06 1.50832e-06 0.000893776
0.00166956 -1.87271e-05 1.39186e-05
-1.87271e-05 0.000430787 2.59536e-06
1.39186e-05 2.59536e-06 0.000405093
0.000792479 -2.8028e-05 6.13685e-06
-2.8028e-05 -1.89293e-05 4.87627e-06
6.13685e-06 4.87627e-06 -4.31581e-05
0.000910396 1.66707e-05 2.77766e-06
1.66707e-05 2.0361e-05 1.36852e-06
2.77766e-06 1.36852e-06 -3.63363e-05
0.00257788 -3.86019e-05 2.19303e-05
-3.86019e-05 0.000859737 3.98699e-06
2.19303e-05 3.98699e-06 0.000873133
0.00408259 -6.18754e-05 1.08379e-06
-6.18754e-05 0.00169255 -1.74457e-07
1.08379e-06 -1.74457e-07 0.0016835
0.00253592 -5.67431e-05 -1.62892e-05
-5.67431e-05 0.00092601 -6.77722e-08
-1.62892e-05 -6.77722e-08 0.000909595
0.00422281 -4.82128e-05 5.02148e-05
-4.82128e-05 0.00175712 1.54628e-07
5.02148e-05 1.54628e-07 0.00174862
0.00138035 -4.05381e-05 6.80376e-06
-4.05381e-05 0.000340035 1.23922e-06
6.80376e-06 1.23922e-06 0.000317268
0.000767931 -1.3227e-05 1.0589e-05
-1.3227e-05 -7.06605e-05 2.32565e-06
1.0589e-05 2.32565e-06 -0.000112899
0.00354661 -8.81883e-05 9.95866e-06
-8.81883e-05 0.00144201 9.58089e-07
9.95866e-06 9.58089e-07 0.00143046
0.00198903 -2.09472e-05 2.35069e-05
-2.09472e-05 0.000563479 2.90476e-06
2.35069e-05 2.90476e-06 0.00052935
0.00134755 4.47598e-05 -6.71261e-06
4.47598e-05 0.000328846 1.7281e-06
-6.71261e-06 1.7281e-06 0.000305329
0.00122457 4.12403e-05 -6.99049e-06
4.12403e-05 0.000255377 1.68378e-06
-6.99049e-06 1.68378e-06 0.00023654
0.00110298 3.86799e-05 -6.42305e-06
3.86799e-05 0.000166417 1.63247e-06
-6.42305e-06 1.63247e-06 0.000156582
0.00122543 1.16323e-05 -1.54481e-05
1.16323e-05 0.000205889 3.42207e-06
-1.54481e-05 3.42207e-06 0.00017314
0.00269307 5.3144e-05 -1.68102e-05
5.3144e-05 0.000996491 -7.76796e-07
-1.68102e-05 -7.76796e-07 0.0009808
0.00134862 3.15721e-05 1.75158e-05
3.15721e-05 0.000323377 -9.82079e-07
1.75158e-05 -9.82079e-07 0.000301403
0.00110276 3.45367e-05 9.00445e-06
3.45367e-05 0.000150302 -2.20673e-06
9.00445e-06 -2.20673e-06 0.00014558
0.0012599 3.30486e-05 1.42134e-05
3.30486e-05 0.000278385 -1.54994e-06
1.42134e-05 -1.54994e-06 0.000257781
0.00133398 4.38235e-06 -6.20705e-06
4.38235e-06 0.000242145 1.68745e-07
-6.20705e-06 1.68745e-07 0.000203409
0.00112809 1.96829e-05 -3.61347e-06
1.96829e-05 0.000161431 4.5078e-07
-3.61347e-06 4.5078e-07 0.000131765
0.00122498 8.61292e-06 -4.67751e-06
8.61292e-06 0.000202838 4.18579e-07
-4.67751e-06 4.18579e-07 0.000167476
0.00147893 -3.18305e-05 -1.2524e-06
-3.18305e-05 0.000272899 5.40322e-07
-1.2524e-06 5.40322e-07 0.000215519
0.00402922 6.29264e-05 4.5499e-05
6.29264e-05 0.00166604 -5.7939e-08
4.5499e-05 -5.7939e-08 0.00165727
0.00136744 1.75765e-05 4.28351e-05
1.75765e-05 0.000328501 -2.66402e-06
4.28351e-05 -2.66402e-06 0.000308483
0.00197445 3.42367e-05 7.63684e-06
3.42367e-05 0.000546919 -1.33392e-06
7.63684e-06 -1.33392e-06 0.000511938
0.00133517 1.14229e-05 8.70002e-06
1.14229e-05 0.000236303 -2.22739e-06
8.70002e-06 -2.22739e-06 0.000196945
0.00122798 7.46134e-06 7.55162e-06
7.46134e-06 0.000200919 -2.60729e-06
7.55162e-06 -2.60729e-06 0.000163009
0.00167314 -3.52027e-05 2.89268e-06
-3.52027e-05 0.000302405 -1.46819e-06
2.89268e-06 -1.46819e-06 0.000240439
0.00120466 -2.87021e-05 2.98337e-06
-2.87021e-05 0.000116096 -1.55541e-06
2.98337e-06 -1.55541e-06 5.69895e-05
0.0011995 3.11038e-05 2.31107e-05
3.11038e-05 0.000182562 -6.10577e-06
2.31107e-05 -6.10577e-06 0.00018212
0.00105044 3.40504e-05 4.92291e-06
3.40504e-05 0.000122764 -2.79702e-06
4.92291e-06 -2.79702e-06 9.70239e-05
0.00132959 -1.8907e-05 2.05044e-06
-1.8907e-05 0.000223149 -1.2039e-06
2.05044e-06 -1.2039e-06 0.000167697
0.00112873 -4.72168e-05 1.98815e-06
-4.72168e-05 5.20387e-05 -1.21553e-06
1.98815e-06 -1.21553e-06 -1.80317e-05
0.00315374 -6.51123e-05 -2.85811e-05
-6.51123e-05 0.00122809 -2.70827e-06
-2.85811e-05 -2.70827e-06 0.00122256
0.00272845 -5.04461e-05 -2.37084e-05
-5.04461e-05 0.000960549 -3.49961e-06
-2.37084e-05 -3.49961e-06 0.000968268
0.00290267 -5.75759e-05 -2.6171e-05
-5.75759e-05 0.00107358 -3.18976e-06
-2.6171e-05 -3.18976e-06 0.00107498
0.000690463 -2.77897e-05 -4.1965e-06
-2.77897e-05 -6.13177e-05 -3.60755e-06
-4.1965e-06 -3.60755e-06 -8.94716e-05
0.00347296 -6.68768e-05 6.35346e-07
-6.68768e-05 0.00139716 -1.57429e-07
6.35346e-07 -1.57429e-07 0.00138863
0.00302909 -6.06677e-05 3.44292e-07
-6.06677e-05 0.00115695 -1.31146e-07
3.44292e-07 -1.31146e-07 0.00115377
0.000724088 1.0965e-05 -2.50393e-08
1.0965e-05 -4.67662e-05 -1.38837e-07
-2.50393e-08 -1.38837e-07 -8.55245e-05
0.00185868 -3.94158e-05 -8.67285e-06
-3.94158e-05 0.000512177 -1.03399e-06
-8.67285e-06 -1.03399e-06 0.000517997
0.000756802 -1.14598e-05 -2.8375e-08
-1.14598e-05 -2.77776e-05 -4.32995e-08
-2.8375e-08 -4.32995e-08 -5.89159e-05
0.00116123 -3.73089e-05 4.42554e-06
-3.73089e-05 0.000168484 5.22738e-07
4.42554e-06 5.22738e-07 0.000146519
0.000900853 1.39436e-05 5.03476e-08
1.39436e-05 1.63625e-05 -2.27203e-07
5.03476e-08 -2.27203e-07 -4.05339e-05
0.00259173 -4.2356e-05 2.26133e-05
-4.2356e-05 0.000875115 3.79674e-06
2.26133e-05 3.79674e-06 0.000886814
0.000828571 -2.5796e-05 4.22512e-06
-2.5796e-05 -3.10719e-05 3.74293e-06
4.22512e-06 3.74293e-06 -4.56495e-05
0.000761313 1.99515e-05 8.75874e-06
1.99515e-05 -3.98484e-05 4.28085e-06
8.75874e-06 4.28085e-06 -8.09347e-05
0.000760262 2.99169e-06 7.77036e-06
2.99169e-06 -2.77592e-05 4.37946e-06
7.77036e-06 4.37946e-06 -6.34527e-05
0.0010055 3.28457e-05 3.03859e-06
3.28457e-05 1.92322e-05 1.77906e-06
3.03859e-06 1.77906e-06 -4.12956e-05
0.00158589 -3.94301e-05 1.14419e-05
-3.94301e-05 0.000373352 3.28412e-06
1.14419e-05 3.28412e-06 0.000357169
0.000937103 2.43827e-05 2.70483e-06
2.43827e-05 2.48783e-05 1.44992e-06
2.70483e-06 1.44992e-06 -3.19381e-05
0.000914487 8.70493e-06 2.62045e-06
8.70493e-06 2.5887e-05 1.82787e-06
2.62045e-06 1.82787e-06 -2.95807e-05
0.000960591 4.19127e-05 1.43152e-06
4.19127e-05 1.89244e-05 3.51659e-07
1.43152e-06 3.51659e-07 -4.88547e-05
0.00254693 -3.47985e-05 2.08805e-05
-3.47985e-05 0.000837229 4.11814e-06
2.08805e-05 4.11814e-06 0.000852212
0.00260588 -3.87464e-05 3.20506e-07
-3.87464e-05 0.00087272 -8.26054e-08
3.20506e-07 -8.26054e-08 0.000886239
0.0036686 -7.23214e-05 -3.68532e-05
-7.23214e-05 0.00149761 -1.58712e-06
-3.68532e-05 -1.58712e-06 0.00148769
0.00396997 -6.11449e-05 -4.34376e-05
-6.11449e-05 0.00163879 -6.53066e-07
-4.34376e-05 -6.53066e-07 0.00162983
0.00417925 -3.95648e-05 1.75383e-06
-3.95648e-05 0.00173529 -2.15043e-07
1.75383e-06 -2.15043e-07 0.00172743
0.00263144 -5.43624e-05 -1.80472e-05
-5.43624e-05 0.00096893 3.7546e-08
-1.80472e-05 3.7546e-08 0.000952677
0.00138714 -5.80531e-06 1.01895e-05
-5.80531e-06 0.000242653 -1.38714e-07
1.01895e-05 -1.38714e-07 0.000204577
0.00240069 -5.37715e-05 -1.48016e-05
-5.37715e-05 0.000859808 -2.24935e-07
-1.48016e-05 -2.24935e-07 0.000843862
0.00129389 -2.96302e-07 8.2517e-06
-2.96302e-07 0.000215433 -4.23724e-08
8.2517e-06 -4.23724e-08 0.000177998
0.00418452 1.77849e-05 4.64201e-05
1.77849e-05 0.00173673 5.1172e-07
4.64201e-05 5.1172e-07 0.00172921
0.000739639 -2.30713e-06 8.70714e-06
-2.30713e-06 -9.36958e-05 7.82458e-07
8.70714e-06 7.82458e-07 -0.000135772
0.00202448 -3.6568e-05 2.54308e-05
-3.6568e-05 0.000574153 2.39898e-06
2.54308e-05 2.39898e-06 0.000539257
0.00115939 2.3273e-07 5.17281e-06
2.3273e-07 -2.75057e-06 1.46911e-06
5.17281e-06 1.46911e-06 -6.96227e-05
0.00191944 6.27762e-06 2.03492e-05
6.27762e-06 0.000537365 2.48187e-06
2.03492e-05 2.48187e-06 0.000502895
0.00113163 2.05681e-05 4.32833e-06
2.05681e-05 1.39843e-05 1.6645e-06
4.32833e-06 1.6645e-06 -5.10782e-05
0.00150504 1.79978e-05 -4.43876e-05
1.79978e-05 0.000392814 8.95478e-07
-4.43876e-05 8.95478e-07 0.000372864
0.00137154 4.64964e-05 -6.57446e-06
4.64964e-05 0.000339429 1.57061e-06
-6.57446e-06 1.57061e-06 0.000315694
0.00105728 3.71601e-05 -6.01053e-06
3.71601e-05 0.00012852 1.59504e-06
-6.01053e-06 1.59504e-06 0.000123917
0.00128848 4.2861e-05 -6.8855e-06
4.2861e-05 0.000296478 1.7249e-06
-6.8855e-06 1.7249e-06 0.000274743
0.00136751 1.21723e-06 -2.07489e-05
1.21723e-06 0.000256403 2.97117e-06
-2.07489e-05 2.97117e-06 0.000218486
0.00126759 7.16839e-06 -1.69589e-05
7.16839e-06 0.000222169 3.23954e-06
-1.69589e-05 3.23954e-06 0.000187292
0.00118701 1.96242e-05 -1.39363e-05
1.96242e-05 0.000189963 3.52143e-06
-1.39363e-05 3.52143e-06 0.000160506
0.00152845 -3.41841e-05 -4.86582e-06
-3.41841e-05 0.000295443 2.24393e-06
-4.86582e-06 2.24393e-06 0.000237658
0.00409276 6.65507e-05 -1.82577e-06
6.65507e-05 0.00169662 -2.22773e-07
-1.82577e-06 -2.22773e-07 0.00168764
0.00135987 3.27678e-05 1.84722e-05
3.27678e-05 0.00032799 -6.38827e-07
1.84722e-05 -6.38827e-07 0.000306527
0.00108471 1.64317e-05 -1.09712e-05
1.64317e-05 9.58905e-05 1.34978e-07
-1.09712e-05 1.34978e-07 5.67008e-05
0.00137783 7.80726e-06 -6.72988e-06
7.80726e-06 0.000255463 1.03842e-07
-6.72988e-06 1.03842e-07 0.000216777
0.00192862 4.04842e-05 1.58013e-05
4.04842e-05 0.00055433 -1.91088e-06
1.58013e-05 -1.91088e-06 0.000557956
0.00131798 3.33256e-05 -3.35207e-06
3.33256e-05 0.000255596 4.20016e-07
-3.35207e-06 4.20016e-07 0.000231522
0.00127442 5.74917e-06 -5.44868e-06
5.74917e-06 0.000221814 2.99035e-07
-5.44868e-06 2.99035e-07 0.000184494
0.00151483 -3.24662e-05 -1.7986e-06
-3.24662e-05 0.000222273 4.08787e-07
-1.7986e-06 4.08787e-07 0.000159616
0.00141997 -2.32374e-05 -1.03946e-06
-2.32374e-05 0.000265431 6.2631e-07
-1.03946e-06 6.2631e-07 0.000209472
0.00137237 -3.2258e-05 -5.54738e-07
-3.2258e-05 0.000199036 1.73633e-07
-5.54738e-07 1.73633e-07 0.000140387
0.001121 -4.67245e-05 1.22377e-08
-4.67245e-05 4.86571e-05 -3.89929e-08
1.22377e-08 -3.89929e-08 -2.13325e-05
0.000721907 5.39115e-06 8.39287e-06
5.39115e-06 -9.58093e-05 -1.52599e-06
8.39287e-06 -1.52599e-06 -0.000136993
0.00135113 2.08492e-05 8.67964e-06
2.08492e-05 0.000240626 -1.84102e-06
8.67964e-06 -1.84102e-06 0.000202066
0.00149066 1.34317e-05 4.60936e-06
1.34317e-05 0.000172858 -9.64041e-07
4.60936e-06 -9.64041e-07 0.000109455
0.00140378 -2.35144e-05 4.00947e-06
-2.35144e-05 0.000149394 -1.37743e-06
4.00947e-06 -1.37743e-06 8.61428e-05
0.00129657 -3.17601e-05 3.18639e-06
-3.17601e-05 0.000138006 -1.73396e-06
3.18639e-06 -1.73396e-06 7.68008e-05
0.00159829 -4.38021e-05 1.53656e-06
-4.38021e-05 0.000207608 -7.0165e-07
1.53656e-06 -7.0165e-07 0.000134265
0.00273074 4.66596e-05 2.34358e-05
4.66596e-05 0.000949657 -3.64039e-06
2.34358e-05 -3.64039e-06 0.000959668
0.00114463 -4.45497e-05 1.84333e-06
-4.45497e-05 3.85098e-05 -1.03812e-06
1.84333e-06 -1.03812e-06 -3.10663e-05
0.000748646 3.4185e-05 4.20761e-06
3.4185e-05 -4.25269e-05 -3.49876e-06
4.20761e-06 -3.49876e-06 -6.56125e-05
0.000814245 -9.53587e-06 2.2562e-06
-9.53587e-06 -2.16915e-05 -1.81114e-06
2.2562e-06 -1.81114e-06 -7.79798e-05
0.00117059 -4.99147e-05 1.91966e-06
-4.99147e-05 9.81186e-05 -1.59209e-06
1.91966e-06 -1.59209e-06 2.70747e-05
0.00121368 -5.46853e-05 1.50169e-06
-5.46853e-05 6.67145e-05 -7.9847e-07
1.50169e-06 -7.9847e-07 -7.88428e-06
0.000764799 2.69088e-05 4.44549e-06
2.69088e-05 -5.57928e-05 -3.82022e-06
4.44549e-06 -3.82022e-06 -7.28733e-05
0.000940881 -4.90432e-06 2.67072e-06
-4.90432e-06 1.83796e-05 -2.58803e-06
2.67072e-06 -2.58803e-06 -2.93026e-05
0.00334735 -6.85506e-05 -3.15225e-05
-6.85506e-05 0.00133318 -2.38061e-06
-3.15225e-05 -2.38061e-06 0.00132516
0.00299399 -6.10767e-05 -2.69606e-05
-6.10767e-05 0.00113517 -2.95804e-06
-2.69606e-05 -2.95804e-06 0.00113302
0.000687522 8.24111e-06 -5.78668e-06
8.24111e-06 -6.05763e-05 -3.38691e-06
-5.78668e-06 -3.38691e-06 -9.97383e-05
0.00268404 -4.65166e-05 -2.3311e-05
-4.65166e-05 0.000927862 -3.65776e-06
-2.3311e-05 -3.65776e-06 0.000937949
0.000688201 -3.30663e-05 -4.18565e-06
-3.30663e-05 -6.98151e-05 -3.68522e-06
-4.18565e-06 -3.68522e-06 -9.369e-05
0.000681523 -1.19456e-05 -5.47348e-06
-1.19456e-05 -6.10278e-05 -3.26136e-06
-5.47348e-06 -3.26136e-06 -9.27251e-05
0.000883911 1.15032e-05 -2.44418e-06
1.15032e-05 8.58564e-06 -1.71042e-06
-2.44418e-06 -1.71042e-06 -4.84602e-05
0.00262852 -4.25287e-05 2.8256e-07
-4.25287e-05 0.000892137 -9.0809e-08
2.8256e-07 -9.0809e-08 0.000903969
0.000813653 -2.50965e-05 1.31552e-07
-2.50965e-05 -3.93144e-05 -1.90469e-08
1.31552e-07 -1.90469e-08 -5.36485e-05
0.00125923 1.23312e-05 6.81394e-06
1.23312e-05 0.000214555 5.79494e-08
6.81394e-06 5.79494e-08 0.000177042
0.00119754 -5.42294e-06 5.23843e-06
-5.42294e-06 0.000196711 3.72393e-07
5.23843e-06 3.72393e-07 0.000164178
0.0009907 3.31665e-05 9.40153e-08
3.31665e-05 1.1641e-05 -2.0532e-08
9.40153e-08 -2.0532e-08 -4.87514e-05
0.000795484 -3.18634e-05 -4.96907e-08
-3.18634e-05 -2.77856e-05 -1.33734e-08
-4.96907e-08 -1.33734e-08 -4.75826e-05
0.000916582 2.34748e-05 -9.42128e-08
2.34748e-05 1.49328e-05 2.57253e-08
-9.42128e-08 2.57253e-08 -4.18472e-05
0.000894581 5.64185e-06 -6.39956e-08
5.64185e-06 1.77599e-05 -1.26508e-07
-6.39956e-08 -1.26508e-07 -3.79196e-05
0.000927543 4.13039e-05 -4.00029e-08
4.13039e-05 1.58526e-06 -1.26736e-07
-4.00029e-08 -1.26736e-07 -6.63375e-05
0.000818544 -2.9111e-05 4.44596e-06
-2.9111e-05 -2.66229e-05 3.60715e-06
4.44596e-06 3.60715e-06 -4.37288e-05
0.000840623 -2.26319e-05 3.82711e-06
-2.26319e-05 -3.23174e-05 3.80578e-06
3.82711e-06 3.80578e-06 -4.43971e-05
0.000926531 3.163e-06 2.81485e-06
3.163e-06 9.51638e-06 2.06626e-06
2.81485e-06 2.06626e-06 -3.69503e-05
0.00104352 3.0666e-05 3.31544e-06
3.0666e-05 1.1212e-05 1.78015e-06
3.31544e-06 1.78015e-06 -5.12262e-05
0.000973977 3.104e-05 2.80413e-06
3.104e-05 2.83406e-05 1.73553e-06
2.80413e-06 1.73553e-06 -2.99775e-05
0.00116778 4.80982e-05 1.78712e-06
4.80982e-05 5.40516e-05 1.45726e-06
1.78712e-06 1.45726e-06 -1.72292e-05
0.000923912 4.33239e-06 2.64697e-06
4.33239e-06 2.38704e-05 1.9428e-06
2.64697e-06 1.9428e-06 -2.81209e-05
0.000964012 4.46089e-05 1.21605e-06
4.46089e-05 3.33345e-06 7.02727e-07
1.21605e-06 7.02727e-07 -6.32597e-05
0.00104347 3.9154e-05 1.4637e-06
3.9154e-05 7.38113e-05 6.53046e-07
1.4637e-06 6.53046e-07 4.61804e-06
0.00110487 5.42686e-05 1.12739e-08
5.42686e-05 8.36396e-05 -9.81801e-08
1.12739e-08 -9.81801e-08 1.00825e-05
0.00250214 -3.10514e-05 1.94904e-05
-3.10514e-05 0.000808896 4.18444e-06
1.94904e-05 4.18444e-06 0.000825383
0.00256627 -3.49447e-05 3.63813e-07
-3.49447e-05 0.00084617 -7.34137e-08
3.63813e-07 -7.34137e-08 0.000861273
0.0026339 -3.89308e-05 -2.16598e-05
-3.89308e-05 0.000885716 -3.97582e-06
-2.16598e-05 -3.97582e-06 0.000899354
0.000792941 2.39977e-05 3.89413e-06
2.39977e-05 -4.91374e-05 -3.88401e-06
3.89413e-06 -3.88401e-06 -6.34615e-05
0.00270898 4.27937e-05 2.27652e-05
4.27937e-05 0.000930801 -3.81638e-06
2.27652e-05 -3.81638e-06 0.000942537
0.00351804 -7.03057e-05 -3.45134e-05
-7.03057e-05 0.00142237 -2.00014e-06
-3.45134e-05 -2.00014e-06 0.00141301
0.00381008 -6.67711e-05 -4.00313e-05
-6.67711e-05 0.00156467 -1.12617e-06
-4.00313e-05 -1.12617e-06 0.0015552
0.000700706 1.22755e-05 -7.14428e-06
1.22755e-05 -8.34021e-05 -3.02645e-06
-7.14428e-06 -3.02645e-06 -0.000123949
0.000719259 8.24885e-06 -8.05538e-06
8.24885e-06 -9.36417e-05 -2.12764e-06
-8.05538e-06 -2.12764e-06 -0.000134947
0.00413801 -4.34724e-05 -4.63353e-05
-4.34724e-05 0.00171538 -1.70842e-07
-4.63353e-05 -1.70842e-07 0.00170753
0.00420281 1.62148e-05 -1.01703e-06
1.62148e-05 0.0017465 2.34143e-07
-1.01703e-06 2.34143e-07 0.00173848
0.000733641 -1.07218e-06 4.46264e-08
-1.07218e-06 -9.67741e-05 -1.99169e-07
4.46264e-08 -1.99169e-07 -0.00013874
0.00133663 -1.09628e-05 9.19529e-06
-1.09628e-05 0.000228603 -4.29728e-08
9.19529e-06 -4.29728e-08 0.000191077
0.00116941 3.11948e-06 1.24142e-07
3.11948e-06 2.28376e-06 -8.39724e-09
1.24142e-07 -8.39724e-09 -6.453e-05
0.000697435 1.46925e-05 3.7418e-08
1.46925e-05 -7.65934e-05 -1.24892e-07
3.7418e-08 -1.24892e-07 -0.000117601
0.00113791 2.1086e-05 7.66997e-08
2.1086e-05 1.74972e-05 -8.74978e-08
7.66997e-08 -8.74978e-08 -4.75684e-05
0.000710996 -1.54855e-06 8.70989e-06
-1.54855e-06 -0.000109149 -4.94087e-07
8.70989e-06 -4.94087e-07 -0.000151046
0.00118507 -1.4297e-06 5.45211e-06
-1.4297e-06 -3.0844e-06 6.70257e-07
5.45211e-06 6.70257e-07 -7.15226e-05
0.00114847 1.07645e-05 4.76429e-06
1.07645e-05 6.87764e-06 1.57458e-06
4.76429e-06 1.57458e-06 -5.87155e-05
0.00135401 3.07241e-07 2.97026e-06
3.07241e-07 3.69583e-05 9.39631e-07
2.97026e-06 9.39631e-07 -4.05988e-05
0.00109134 2.62397e-05 3.75128e-06
2.62397e-05 1.2204e-05 1.78595e-06
3.75128e-06 1.78595e-06 -5.18302e-05
0.00130929 2.34873e-05 2.30705e-06
2.34873e-05 4.69836e-05 8.6319e-07
2.30705e-06 8.6319e-07 -2.71177e-05
0.00415763 6.31703e-05 -5.13166e-05
6.31703e-05 0.00172726 -3.24592e-07
-5.13166e-05 -3.24592e-07 0.00171853
0.00135682 4.14329e-05 -7.18465e-06
4.14329e-05 0.000329224 1.25903e-06
-7.18465e-06 1.25903e-06 0.000306741
0.000187418 5.1516e-06 -1.00555e-05
5.1516e-06 -0.000357438 2.28078e-06
-1.00555e-05 2.28078e-06 -0.000401847
0.00140377 3.70384e-06 -2.22691e-05
3.70384e-06 0.000265962 2.53599e-06
-2.22691e-05 2.53599e-06 0.000228077
0.00265164 5.42603e-05 -9.44534e-06
5.42603e-05 0.000923568 1.42779e-06
-9.44534e-06 1.42779e-06 0.000930799
0.00159486 4.08957e-05 -1.26753e-05
4.08957e-05 0.000393798 3.52136e-06
-1.26753e-05 3.52136e-06 0.000370896
0.00131492 2.81423e-06 -1.88067e-05
2.81423e-06 0.000239561 3.1327e-06
-1.88067e-05 3.1327e-06 0.000202937
0.00136034 -3.02909e-05 -6.32732e-06
-3.02909e-05 0.000144134 2.3157e-06
-6.32732e-06 2.3157e-06 8.07513e-05
0.00154772 -3.57291e-05 -4.20036e-06
-3.57291e-05 0.000285706 1.81922e-06
-4.20036e-06 1.81922e-06 0.000227512
0.00150398 -2.72964e-05 -4.51774e-06
-2.72964e-05 0.000304599 2.50848e-06
-4.51774e-06 2.50848e-06 0.000248125
0.00111378 -4.62948e-05 -1.73829e-06
-4.62948e-05 4.55006e-05 1.07142e-06
-1.73829e-06 1.07142e-06 -2.44096e-05
0.000734934 6.04194e-06 -1.48065e-07
6.04194e-06 -8.96094e-05 -1.39453e-07
-1.48065e-07 -1.39453e-07 -0.000130908
0.00139204 1.5568e-05 -6.96038e-06
1.5568e-05 0.000258477 8.16697e-08
-6.96038e-06 8.16697e-08 0.000220762
0.00119273 1.14056e-05 -1.11584e-06
1.14056e-05 2.34151e-05 9.98459e-08
-1.11584e-06 9.98459e-08 -4.16862e-05
0.00154992 -2.46222e-05 -1.04183e-06
-2.46222e-05 0.000222227 7.27802e-08
-1.04183e-06 7.27802e-08 0.000159544
0.00268552 4.64321e-05 -2.26987e-07
4.64321e-05 0.000928668 -9.02515e-08
-2.26987e-07 -9.02515e-08 0.000938504
0.00117543 3.9965e-05 9.30425e-07
3.9965e-05 0.000173608 4.96821e-08
9.30425e-07 4.96821e-08 0.000152215
0.00112771 -9.51149e-06 1.03851e-07
-9.51149e-06 0.000132973 -2.6136e-08
1.03851e-07 -2.6136e-08 7.79032e-05
0.001302 -3.21848e-05 -7.50106e-07
-3.21848e-05 0.00014074 1.10535e-07
-7.50106e-07 1.10535e-07 7.96293e-05
0.00135052 -4.05369e-05 -7.80996e-07
-4.05369e-05 8.36296e-05 3.52622e-07
-7.80996e-07 3.52622e-07 9.43924e-06
0.00102292 -4.63944e-05 -1.55628e-07
-4.63944e-05 2.69596e-05 -1.24024e-07
-1.55628e-07 -1.24024e-07 -4.42733e-05
0.00129971 -4.64929e-05 5.2191e-08
-4.64929e-05 0.000114638 9.55793e-08
5.2191e-08 9.55793e-08 4.55011e-05
0.00120291 -5.43343e-05 1.17026e-07
-5.43343e-05 6.19623e-05 1.66049e-08
1.17026e-07 1.66049e-08 -1.25185e-05
0.000786433 2.80372e-05 -1.04696e-07
2.80372e-05 -4.3729e-05 -4.2592e-08
-1.04696e-07 -4.2592e-08 -6.11293e-05
0.000928486 -4.37102e-06 -1.85359e-07
-4.37102e-06 1.15902e-05 -5.11631e-08
-1.85359e-07 -5.11631e-08 -3.5909e-05
0.00118022 6.11183e-06 5.30256e-06
6.11183e-06 3.16485e-06 -8.19787e-07
5.30256e-06 -8.19787e-07 -6.36282e-05
0.00143154 -7.89022e-07 4.30262e-06
-7.89022e-07 0.000152899 -1.17169e-06
4.30262e-06 -1.17169e-06 9.03102e-05
0.00166492 8.33244e-06 2.36773e-06
8.33244e-06 0.000202108 -2.05588e-07
2.36773e-06 -2.05588e-07 0.000127783
0.00114607 -2.72441e-05 3.09139e-06
-2.72441e-05 -4.02282e-05 -8.78237e-07
3.09139e-06 -8.78237e-07 -0.000115736
0.00130392 -4.4743e-05 1.52154e-06
-4.4743e-05 9.54883e-05 -1.0879e-06
1.52154e-06 -1.0879e-06 2.50261e-05
0.00156647 -4.39552e-05 9.4113e-07
-4.39552e-05 0.000159168 -5.12689e-07
9.4113e-07 -5.12689e-07 8.30337e-05
0.000728453 3.04789e-05 4.4848e-06
3.04789e-05 -6.32415e-05 -3.63365e-06
4.4848e-06 -3.63365e-06 -8.31621e-05
0.00124747 -5.08897e-05 1.12743e-06
-5.08897e-05 5.78568e-05 -7.6814e-07
1.12743e-06 -7.6814e-07 -1.49627e-05
0.000863436 -3.22183e-06 2.50554e-06
-3.22183e-06 1.97256e-06 -1.73966e-06
2.50554e-06 -1.73966e-06 -5.25303e-05
0.000785054 -3.88163e-05 1.75952e-06
-3.88163e-05 -6.60499e-05 -1.7499e-06
1.75952e-06 -1.7499e-06 -0.000135919
0.00151277 -6.56314e-05 1.07944e-06
-6.56314e-05 0.000245345 -1.11425e-06
1.07944e-06 -1.11425e-06 0.000167917
0.00134237 -5.93561e-05 9.48273e-07
-5.93561e-05 0.000112572 -1.41081e-10
9.48273e-07 -1.41081e-10 3.82341e-05
0.000920835 -5.82819e-06 3.11988e-06
-5.82819e-06 1.39746e-05 -2.22088e-06
3.11988e-06 -2.22088e-06 -3.65611e-05
0.000932399 3.25897e-06 1.84606e-06
3.25897e-06 1.06601e-05 -2.59344e-06
1.84606e-06 -2.59344e-06 -3.24076e-05
0.00101701 -2.77372e-05 1.49848e-06
-2.77372e-05 5.28672e-05 -1.17359e-06
1.49848e-06 -1.17359e-06 -1.44525e-05
0.000699752 1.65811e-05 -6.30535e-06
1.65811e-05 -6.38723e-05 -3.37908e-06
-6.30535e-06 -3.37908e-06 -0.000104923
0.00266474 -4.27287e-05 -2.27056e-05
-4.27287e-05 0.00090888 -3.83903e-06
-2.27056e-05 -3.83903e-06 0.000920845
0.000800469 -2.44508e-05 -4.1186e-06
-2.44508e-05 -4.67466e-05 -3.81668e-06
-4.1186e-06 -3.81668e-06 -6.08357e-05
0.000672309 -2.69053e-06 -5.49205e-06
-2.69053e-06 -6.32507e-05 -3.23306e-06
-5.49205e-06 -3.23306e-06 -9.89259e-05
0.000978304 3.36216e-05 -2.91735e-06
3.36216e-05 5.23593e-06 -1.90545e-06
-2.91735e-06 -1.90545e-06 -5.50303e-05
0.000726846 -3.03365e-05 -4.58791e-06
-3.03365e-05 -6.20983e-05 -3.63237e-06
-4.58791e-06 -3.63237e-06 -8.17525e-05
0.000877758 2.62757e-06 -2.37121e-06
2.62757e-06 1.11703e-05 -2.04124e-06
-2.37121e-06 -2.04124e-06 -4.47302e-05
0.000896607 2.22228e-05 -2.59799e-06
2.22228e-05 5.23081e-06 -1.26133e-06
-2.59799e-06 -1.26133e-06 -5.15175e-05
0.000894369 4.06958e-05 -1.59147e-06
4.06958e-05 -1.58141e-05 -6.54112e-07
-1.59147e-06 -6.54112e-07 -8.38823e-05
0.000795339 -2.82643e-05 8.75982e-08
-2.82643e-05 -3.90451e-05 -3.67604e-08
8.75982e-08 -3.67604e-08 -5.59016e-05
0.000828483 -2.21318e-05 1.33252e-07
-2.21318e-05 -3.89246e-05 4.15534e-09
1.33252e-07 4.15534e-09 -5.07882e-05
0.000926801 2.87081e-06 7.32178e-08
2.87081e-06 1.03227e-05 -2.60158e-08
7.32178e-08 -2.60158e-08 -3.62847e-05
0.00104646 3.13601e-05 1.41228e-07
3.13601e-05 1.24879e-05 -4.0068e-10
1.41228e-07 -4.0068e-10 -4.98747e-05
0.000944943 3.03229e-05 4.48199e-09
3.03229e-05 1.41403e-05 5.81844e-08
4.48199e-09 5.81844e-08 -4.40402e-05
0.0011557 4.81786e-05 9.73655e-08
4.81786e-05 4.85732e-05 4.00819e-08
9.73655e-08 4.00819e-08 -2.27435e-05
0.000909012 2.74997e-06 -1.7632e-07
2.74997e-06 1.8474e-05 2.94064e-08
-1.7632e-07 2.94064e-08 -3.3742e-05
0.00104118 4.66459e-05 -2.94952e-08
4.66459e-05 4.20904e-05 -5.15761e-08
-2.94952e-08 -5.15761e-08 -2.42017e-05
0.00102883 3.90819e-05 9.24563e-08
3.90819e-05 6.6784e-05 -1.83253e-07
9.24563e-08 -1.83253e-07 -2.46765e-06
0.00101791 5.24827e-05 -5.2355e-07
5.24827e-05 4.00624e-05 2.02708e-07
-5.2355e-07 2.02708e-07 -3.38609e-05
0.000853407 -1.98705e-05 3.35178e-06
-1.98705e-05 -3.12006e-05 3.77169e-06
3.35178e-06 3.77169e-06 -4.08407e-05
0.000925067 3.92101e-06 2.89272e-06
3.92101e-06 1.48834e-05 1.83332e-06
2.89272e-06 1.83332e-06 -3.40484e-05
0.000926544 1.18807e-06 2.54685e-06
1.18807e-06 5.81567e-06 2.31501e-06
2.54685e-06 2.31501e-06 -3.7704e-05
0.00102878 1.91248e-05 1.49686e-06
1.91248e-05 5.78816e-05 7.68018e-07
1.49686e-06 7.68018e-07 -6.76191e-06
0.00119514 4.05913e-05 2.22247e-06
4.05913e-05 3.69189e-05 1.30439e-06
2.22247e-06 1.30439e-06 -3.57087e-05
0.00112545 5.00357e-05 1.47246e-06
5.00357e-05 6.4468e-05 1.42179e-06
1.47246e-06 1.42179e-06 -4.0162e-06
0.00123666 5.36338e-05 1.02578e-06
5.36338e-05 6.30966e-05 1.58363e-06
1.02578e-06 1.58363e-06 -1.36828e-05
0.0010542 3.21677e-05 1.38951e-06
3.21677e-05 7.9124e-05 9.45322e-07
1.38951e-06 9.45322e-07 1.17621e-05
0.00112759 5.48372e-05 3.40027e-07
5.48372e-05 7.16769e-05 6.64626e-07
3.40027e-07 6.64626e-07 2.21245e-07
0.00106642 5.29507e-05 7.90021e-07
5.29507e-05 8.39741e-05 -4.27743e-08
7.90021e-07 -4.27743e-08 5.61357e-06
0.000960779 5.29228e-05 3.48525e-07
5.29228e-05 1.71606e-06 7.87564e-08
3.48525e-07 7.87564e-08 -7.54897e-05
0.000934911 -4.85347e-06 8.83665e-07
-4.85347e-06 1.70625e-06 2.07223e-06
8.83665e-07 2.07223e-06 -2.94914e-05
0.000866054 -1.5248e-05 2.35319e-06
-1.5248e-05 -3.28633e-05 3.57329e-06
2.35319e-06 3.57329e-06 -3.8051e-05
0.0024461 -2.73906e-05 1.77626e-05
-2.73906e-05 0.000775604 4.20095e-06
1.77626e-05 4.20095e-06 0.000793552
0.00251246 -3.11966e-05 4.42721e-07
-3.11966e-05 0.000813524 -6.50271e-08
4.42721e-07 -6.50271e-08 0.000830141
0.00258587 -3.5114e-05 -2.02925e-05
-3.5114e-05 0.000855269 -4.05526e-06
-2.02925e-05 -4.05526e-06 0.000870486
0.000813613 2.18836e-05 3.28546e-06
2.18836e-05 -4.42117e-05 -3.71843e-06
3.28546e-06 -3.71843e-06 -5.55225e-05
0.00263692 3.89659e-05 2.12351e-05
3.89659e-05 0.000888651 -3.88873e-06
2.12351e-05 -3.88873e-06 0.000902094
0.000806454 2.47853e-05 -2.20058e-07
2.47853e-05 -4.13735e-05 -1.48146e-08
-2.20058e-07 -1.48146e-08 -5.60027e-05
0.00267363 4.25902e-05 -2.59451e-07
4.25902e-05 0.000914202 -8.9578e-08
-2.59451e-07 -8.9578e-08 0.000925825
0.000695849 1.84727e-05 -6.72196e-06
1.84727e-05 -7.59923e-05 -3.25881e-06
-6.72196e-06 -3.25881e-06 -0.000117147
0.000711356 1.34177e-05 -7.56855e-06
1.34177e-05 -8.71293e-05 -2.66998e-06
-7.56855e-06 -2.66998e-06 -0.000127787
0.00113518 2.02198e-05 -4.23351e-06
2.02198e-05 1.66519e-05 -1.85536e-06
-4.23351e-06 -1.85536e-06 -4.84144e-05
0.00118079 4.16597e-06 -5.02255e-06
4.16597e-06 8.04143e-06 -1.42707e-06
-5.02255e-06 -1.42707e-06 -5.87251e-05
0.00072405 2.68876e-06 -8.59129e-06
2.68876e-06 -0.000101434 -1.21202e-06
-8.59129e-06 -1.21202e-06 -0.000143377
0.00422641 2.91842e-05 -4.9742e-05
2.91842e-05 0.00175879 3.29457e-07
-4.9742e-05 3.29457e-07 0.00174993
0.000730941 2.1632e-07 -2.02299e-08
2.1632e-07 -9.9755e-05 -2.11466e-07
-2.02299e-08 -2.11466e-07 -0.000141711
0.00119599 1.68545e-06 2.87154e-08
1.68545e-06 2.17249e-06 -2.55433e-07
2.87154e-08 -2.55433e-07 -6.61818e-05
0.00115134 9.67827e-06 2.64597e-08
9.67827e-06 8.72442e-06 -2.69081e-08
2.64597e-08 -2.69081e-08 -5.68796e-05
0.00138322 -6.22056e-07 7.41679e-08
-6.22056e-07 5.10937e-05 5.54776e-09
7.41679e-08 5.54776e-09 -2.64737e-05
0.00109814 2.72115e-05 1.50313e-07
2.72115e-05 1.60254e-05 -2.18042e-08
1.50313e-07 -2.18042e-08 -4.80187e-05
0.00132104 2.54074e-05 1.9534e-08
2.54074e-05 5.2645e-05 -3.35426e-09
1.9534e-08 -3.35426e-09 -2.14967e-05
0.00119267 5.94769e-07 5.50024e-06
5.94769e-07 -3.93735e-07 -4.16885e-07
5.50024e-06 -4.16885e-07 -6.85928e-05
0.00138982 3.06463e-06 3.13376e-06
3.06463e-06 4.20015e-05 5.06557e-07
3.13376e-06 5.06557e-07 -3.78442e-05
0.00134406 1.2426e-05 2.70901e-06
1.2426e-05 4.63428e-05 8.96604e-07
2.70901e-06 8.96604e-07 -2.90488e-05
0.00148495 -5.61317e-06 1.88428e-06
-5.61317e-06 7.46099e-05 6.07406e-07
1.88428e-06 6.07406e-07 -4.81488e-06
0.0012628 3.37331e-05 1.97867e-06
3.37331e-05 4.52596e-05 8.73678e-07
1.97867e-06 8.73678e-07 -2.80842e-05
0.00139546 2.68117e-05 1.2865e-06
2.68117e-05 5.83271e-05 7.26961e-07
1.2865e-06 7.26961e-07 -1.77099e-05
0.000748939 9.46191e-06 -8.48061e-06
9.46191e-06 -8.26745e-05 1.21597e-06
-8.48061e-06 1.21597e-06 -0.000124274
0.0014304 1.41678e-05 -2.32485e-05
1.41678e-05 0.000275451 1.95445e-06
-2.32485e-05 1.95445e-06 0.000238316
0.000885284 1.0447e-05 -5.70308e-06
1.0447e-05 -0.000130943 1.08668e-06
-5.70308e-06 1.08668e-06 -0.000197762
0.00170738 -2.54477e-05 -6.24463e-06
-2.54477e-05 0.000300789 1.76187e-06
-6.24463e-06 1.76187e-06 0.000238656
0.00263983 4.61385e-05 -2.30045e-05
4.61385e-05 0.000907419 3.5924e-06
-2.30045e-05 3.5924e-06 0.000917092
0.00160083 3.85378e-05 -1.16498e-05
3.85378e-05 0.00038831 3.00659e-06
-1.16498e-05 3.00659e-06 0.000369177
0.00143328 -1.28048e-05 -3.12387e-06
-1.28048e-05 0.000283497 1.91068e-06
-3.12387e-06 1.91068e-06 0.000229813
0.0013128 -3.24135e-05 -4.5911e-06
-3.24135e-05 0.0001462 1.96662e-06
-4.5911e-06 1.96662e-06 8.51726e-05
0.00110491 -3.7284e-05 -3.09642e-06
-3.7284e-05 -3.9247e-05 1.38512e-06
-3.09642e-06 1.38512e-06 -0.000114293
0.00144771 -4.84119e-05 -1.90859e-06
-4.84119e-05 0.000187294 1.12696e-06
-1.90859e-06 1.12696e-06 0.000118603
0.000862773 -4.25026e-05 -1.75114e-06
-4.25026e-05 -5.01869e-05 1.34482e-06
-1.75114e-06 1.34482e-06 -0.000121598
0.00119028 -5.39381e-05 -1.09298e-06
-5.39381e-05 5.63111e-05 7.83953e-07
-1.09298e-06 7.83953e-07 -1.80508e-05
0.000808889 2.90498e-05 -4.24294e-06
2.90498e-05 -3.13205e-05 3.65987e-06
-4.24294e-06 3.65987e-06 -4.90266e-05
0.000918767 -3.64422e-06 -2.8507e-06
-3.64422e-06 6.14127e-06 2.21139e-06
-2.8507e-06 2.21139e-06 -4.11581e-05
0.00105056 9.84409e-06 -1.2336e-07
9.84409e-06 -6.14154e-05 2.35742e-08
-1.2336e-07 2.35742e-08 -0.00012903
0.00143922 -3.92995e-06 -1.09436e-06
-3.92995e-06 0.000156523 1.20429e-07
-1.09436e-06 1.20429e-07 9.39597e-05
0.0015512 1.01453e-05 -9.03403e-07
1.01453e-05 0.00014513 1.62003e-07
-9.03403e-07 1.62003e-07 7.04214e-05
0.00139408 -2.97196e-05 4.11168e-07
-2.97196e-05 8.42003e-05 -3.06087e-07
4.11168e-07 -3.06087e-07 9.68775e-06
0.000768062 3.1603e-05 6.38086e-09
3.1603e-05 -4.2801e-05 -2.02926e-08
6.38086e-09 -2.02926e-08 -6.29831e-05
0.000895367 -5.977e-06 1.68677e-07
-5.977e-06 1.59691e-05 -4.39936e-08
1.68677e-07 -4.39936e-08 -3.83376e-05
0.000879766 -4.09226e-05 4.70509e-07
-4.09226e-05 -1.80697e-05 -2.99188e-07
4.70509e-07 -2.99188e-07 -8.73363e-05
0.00141286 -4.60455e-05 -4.4596e-07
-4.60455e-05 0.000148084 1.1103e-07
-4.4596e-07 1.1103e-07 7.76136e-05
0.00140491 -4.07947e-05 -2.37433e-07
-4.07947e-05 7.8633e-05 4.12027e-07
-2.37433e-07 4.12027e-07 2.57333e-06
0.00127466 -6.01676e-05 -5.30427e-07
-6.01676e-05 0.000128663 1.29331e-07
-5.30427e-07 1.29331e-07 5.05217e-05
0.00124942 -5.07816e-05 7.87163e-08
-5.07816e-05 5.8768e-05 1.42257e-07
7.87163e-08 1.42257e-07 -1.40146e-05
0.00124252 -5.71388e-05 3.42483e-07
-5.71388e-05 6.36781e-05 3.45154e-07
3.42483e-07 3.45154e-07 -1.06955e-05
0.000923569 -5.79797e-06 3.41117e-09
-5.79797e-06 1.4111e-05 -7.20135e-08
3.41117e-09 -7.20135e-08 -3.61571e-05
0.000974914 -2.64359e-05 -7.64495e-08
-2.64359e-05 3.0457e-05 -1.71491e-07
-7.64495e-08 -1.71491e-07 -3.69167e-05
0.000924256 1.96815e-06 -2.11302e-07
1.96815e-06 6.78214e-06 4.71204e-08
-2.11302e-07 4.71204e-08 -3.6373e-05
0.00166546 1.5267e-05 2.54849e-06
1.5267e-05 0.000191952 -2.33868e-07
2.54849e-06 -2.33868e-07 0.000115658
0.00148199 -7.25202e-06 2.93217e-06
-7.25202e-06 0.000116536 -3.14418e-07
2.93217e-06 -3.14418e-07 4.23845e-05
0.00160107 1.28785e-05 2.37665e-06
1.28785e-05 0.000141312 1.33426e-07
2.37665e-06 1.33426e-07 6.16678e-05
0.00141077 -2.42988e-05 1.72458e-06
-2.42988e-05 5.82355e-05 -8.79439e-07
1.72458e-06 -8.79439e-07 -1.92602e-05
0.0011286 -4.58642e-05 1.20062e-06
-4.58642e-05 -2.26143e-05 -1.17164e-06
1.20062e-06 -1.17164e-06 -9.59385e-05
0.00153899 -4.03874e-05 1.47638e-07
-4.03874e-05 0.000125053 -1.83953e-07
1.47638e-07 -1.83953e-07 5.24156e-05
0.00088967 -3.13731e-06 2.8871e-06
-3.13731e-06 7.5675e-06 -1.8832e-06
2.8871e-06 -1.8832e-06 -4.49233e-05
0.00126198 -5.29275e-05 5.24634e-07
-5.29275e-05 4.78985e-05 -6.53728e-07
5.24634e-07 -6.53728e-07 -2.36555e-05
0.00100005 -3.9274e-05 1.24944e-06
-3.9274e-05 4.90357e-05 -7.38333e-07
1.24944e-06 -7.38333e-07 -1.78319e-05
0.00086277 -5.13468e-05 1.58408e-06
-5.13468e-05 -3.9156e-05 -2.11129e-06
1.58408e-06 -2.11129e-06 -0.000117669
0.00137142 -6.5653e-05 1.82716e-06
-6.5653e-05 0.000160207 -5.02401e-07
1.82716e-06 -5.02401e-07 7.79868e-05
0.0015812 -6.51892e-05 4.42574e-08
-6.51892e-05 0.000220439 8.16996e-07
4.42574e-08 8.16996e-07 0.000149404
0.000929202 9.66079e-06 1.29072e-06
9.66079e-06 6.76486e-06 -2.34966e-06
1.29072e-06 -2.34966e-06 -3.14333e-05
0.00101737 -3.35856e-05 1.73712e-06
-3.35856e-05 5.31865e-05 -7.15347e-07
1.73712e-06 -7.15347e-07 -1.33673e-05
0.000849955 -1.7855e-05 1.60621e-06
-1.7855e-05 -3.03766e-05 -2.06534e-06
1.60621e-06 -2.06534e-06 -9.78043e-05
0.00120115 -5.33963e-05 4.99893e-07
-5.33963e-05 0.000147496 1.42889e-07
4.99893e-07 1.42889e-07 7.16111e-05
0.00105255 3.22901e-05 -3.44577e-06
3.22901e-05 1.53572e-05 -1.95828e-06
-3.44577e-06 -1.95828e-06 -4.69493e-05
0.000817829 -2.1678e-05 -3.61944e-06
-2.1678e-05 -4.48187e-05 -3.81448e-06
-3.61944e-06 -3.81448e-06 -5.6467e-05
0.000771664 -2.73643e-05 -4.51388e-06
-2.73643e-05 -5.17716e-05 -3.7264e-06
-4.51388e-06 -3.7264e-06 -6.83658e-05
0.000928746 1.23829e-06 -2.62256e-06
1.23829e-06 1.18486e-05 -2.29394e-06
-2.62256e-06 -2.29394e-06 -3.47829e-05
0.000917086 2.96359e-05 -2.47379e-06
2.96359e-05 4.91184e-07 -1.56486e-06
-2.47379e-06 -1.56486e-06 -5.75515e-05
0.00113795 4.80414e-05 -1.74474e-06
4.80414e-05 4.03485e-05 -1.42985e-06
-1.74474e-06 -1.42985e-06 -3.09941e-05
0.000892054 8.65867e-07 -2.7848e-06
8.65867e-07 1.21368e-05 -1.91325e-06
-2.7848e-06 -1.91325e-06 -4.03126e-05
0.00101766 3.89732e-05 -1.38029e-06
3.89732e-05 6.14613e-05 -1.03608e-06
-1.38029e-06 -1.03608e-06 -7.85695e-06
0.00112537 4.88314e-05 -1.2735e-06
4.88314e-05 8.41723e-05 -7.8354e-07
-1.2735e-06 -7.8354e-07 1.81866e-05
0.000930097 5.06726e-05 -1.56199e-06
5.06726e-05 -3.87269e-06 -1.66633e-07
-1.56199e-06 -1.66633e-07 -7.8169e-05
0.000840575 -1.95168e-05 1.43792e-07
-1.95168e-05 -3.78709e-05 1.82541e-08
1.43792e-07 1.82541e-08 -4.73314e-05
0.000922603 3.05713e-06 5.03072e-09
3.05713e-06 1.49882e-05 -3.83029e-08
5.03072e-09 -3.83029e-08 -3.41478e-05
0.000926229 -8.68951e-07 6.01268e-08
-8.68951e-07 5.61289e-06 1.67021e-08
6.01268e-08 1.67021e-08 -3.78212e-05
0.0010121 1.83273e-05 1.21588e-07
1.83273e-05 5.01475e-05 -1.24894e-07
1.21588e-07 -1.24894e-07 -1.46067e-05
0.00121948 4.1333e-05 3.78252e-07
4.1333e-05 4.84512e-05 2.23989e-07
3.78252e-07 2.23989e-07 -2.42438e-05
0.00109349 4.96836e-05 4.70029e-08
4.96836e-05 4.97089e-05 1.53808e-08
4.70029e-08 1.53808e-08 -1.87441e-05
0.00122586 5.34483e-05 -7.8378e-09
5.34483e-05 5.82106e-05 2.16449e-07
-7.8378e-09 2.16449e-07 -1.8575e-05
0.0010279 3.37838e-05 -8.25281e-08
3.37838e-05 6.72391e-05 5.62516e-08
-8.25281e-08 5.62516e-08 -1.5455e-07
0.00122901 5.71435e-05 -3.09644e-07
5.71435e-05 0.000122287 -3.86532e-07
-3.09644e-07 -3.86532e-07 5.11911e-05
0.00108301 5.37171e-05 1.83359e-07
5.37171e-05 9.17488e-05 -3.56807e-07
1.83359e-07 -3.56807e-07 1.31364e-05
0.000991548 5.35089e-05 -1.16964e-06
5.35089e-05 1.91852e-05 2.52366e-08
-1.16964e-06 2.52366e-08 -5.68158e-05
0.000866676 -1.74986e-05 2.83415e-06
-1.74986e-05 -2.87315e-05 3.68448e-06
2.83415e-06 3.68448e-06 -3.59949e-05
0.000924207 -2.53451e-06 2.0536e-06
-2.53451e-06 2.3179e-06 2.40497e-06
2.0536e-06 2.40497e-06 -3.78229e-05
0.00104244 2.71107e-05 1.56615e-06
2.71107e-05 6.66631e-05 6.45555e-07
1.56615e-06 6.45555e-07 1.34058e-06
0.00102019 1.41421e-05 1.24826e-06
1.41421e-05 5.24776e-05 1.15532e-06
1.24826e-06 1.15532e-06 -1.08046e-05
0.00101294 4.1744e-05 9.12474e-07
4.1744e-05 5.33932e-05 6.96249e-08
9.12474e-07 6.96249e-08 -2.13161e-05
0.00125181 4.2336e-05 1.58134e-06
4.2336e-05 3.66267e-05 1.17839e-06
1.58134e-06 1.17839e-06 -4.02427e-05
0.00116431 5.62943e-05 6.88256e-07
5.62943e-05 6.61992e-05 1.4341e-06
6.88256e-07 1.4341e-06 -7.80305e-06
0.00128235 5.71468e-05 3.22252e-07
5.71468e-05 7.62008e-05 1.64182e-06
3.22252e-07 1.64182e-06 -3.1896e-06
0.00108476 5.0429e-05 1.42873e-06
5.0429e-05 9.65088e-05 1.42742e-06
1.42873e-06 1.42742e-06 1.89489e-05
0.00116901 5.86909e-05 1.24516e-06
5.86909e-05 8.45422e-05 7.87903e-07
1.24516e-06 7.87903e-07 9.23893e-06
0.000792674 4.99763e-05 1.1179e-06
4.99763e-05 -6.17158e-05 -2.08611e-07
1.1179e-06 -2.08611e-07 -0.000148138
0.000929382 -5.48678e-06 1.17742e-06
-5.48678e-06 8.49093e-07 2.28507e-06
1.17742e-06 2.28507e-06 -3.28339e-05
0.00100549 1.22599e-05 4.03352e-07
1.22599e-05 4.47794e-05 1.27994e-06
4.03352e-07 1.27994e-06 -5.7505e-06
0.000938023 -1.13327e-06 7.69778e-07
-1.13327e-06 2.36162e-06 1.92735e-06
7.69778e-07 1.92735e-06 -2.70383e-05
0.000939915 -2.57024e-06 1.23471e-07
-2.57024e-06 4.46353e-06 2.06237e-08
1.23471e-07 2.06237e-08 -2.67497e-05
0.00147932 -1.65116e-05 2.27315e-06
-1.65116e-05 0.000274793 2.12548e-06
2.27315e-06 2.12548e-06 0.000274553
0.00117599 -1.68577e-05 6.44047e-07
-1.68577e-05 0.000124489 4.71156e-09
6.44047e-07 4.71156e-09 0.000120999
0.00115151 -1.6829e-05 1.49774e-05
-1.6829e-05 0.00011357 6.85486e-06
1.49774e-05 6.85486e-06 0.000126704
0.00244722 -2.75337e-05 5.42722e-07
-2.75337e-05 0.000775693 -5.53023e-08
5.42722e-07 -5.53023e-08 0.000793793
0.00252085 -3.13574e-05 -1.85546e-05
-3.13574e-05 0.000817203 -4.07981e-06
-1.85546e-05 -4.07981e-06 0.000833953
0.000828514 2.02849e-05 2.70325e-06
2.02849e-05 -4.1178e-05 -3.52434e-06
2.70325e-06 -3.52434e-06 -4.96145e-05
0.00253917 3.52063e-05 1.93851e-05
3.52063e-05 0.000834139 -3.8896e-06
1.93851e-05 -3.8896e-06 0.00084936
0.000825964 2.23232e-05 -1.66459e-07
2.23232e-05 -3.75735e-05 3.22969e-08
-1.66459e-07 3.22969e-08 -4.91408e-05
0.00262561 3.87422e-05 -3.33527e-07
3.87422e-05 0.000883584 -8.29394e-08
-3.33527e-07 -8.29394e-08 0.000896874
0.000821539 2.56538e-05 -4.02474e-06
2.56538e-05 -3.29008e-05 3.80955e-06
-4.02474e-06 3.80955e-06 -4.78324e-05
0.00264199 4.24888e-05 -2.26563e-05
4.24888e-05 0.000899477 3.78302e-06
-2.26563e-05 3.78302e-06 0.000910965
0.00111123 2.81953e-05 -3.86544e-06
2.81953e-05 2.29197e-05 -1.97252e-06
-3.86544e-06 -1.97252e-06 -4.11359e-05
0.00115807 1.16071e-05 -4.57173e-06
1.16071e-05 1.23393e-05 -1.56897e-06
-4.57173e-06 -1.56897e-06 -5.32543e-05
0.00132794 2.32479e-05 -2.29717e-06
2.32479e-05 5.61384e-05 -8.96959e-07
-2.29717e-06 -8.96959e-07 -1.80041e-05
0.00141258 -1.18783e-06 -3.03478e-06
-1.18783e-06 6.52752e-05 -9.20803e-07
-3.03478e-06 -9.20803e-07 -1.22972e-05
0.00120213 4.14212e-06 -5.489e-06
4.14212e-06 5.17989e-06 -1.10634e-06
-5.489e-06 -1.10634e-06 -6.31332e-05
0.00074494 5.08797e-07 -8.79042e-06
5.08797e-07 -9.29954e-05 5.26899e-08
-8.79042e-06 5.26899e-08 -0.000135006
0.00119695 2.54441e-06 -2.96531e-08
2.54441e-06 1.40537e-06 -2.67954e-07
-2.96531e-08 -2.67954e-07 -6.68564e-05
0.00140756 4.32788e-06 -5.31959e-09
4.32788e-06 5.06679e-05 -1.77497e-07
-5.31959e-09 -1.77497e-07 -2.91656e-05
0.00135428 8.72561e-06 9.74323e-08
8.72561e-06 5.15622e-05 -9.08313e-10
9.74323e-08 -9.08313e-10 -2.37807e-05
0.00148516 -6.40695e-06 -3.74999e-09
-6.40695e-06 7.33118e-05 6.2324e-08
-3.74999e-09 6.2324e-08 -6.21994e-06
0.00127205 3.38811e-05 -4.0115e-08
3.38811e-05 4.96648e-05 -2.54532e-08
-4.0115e-08 -2.54532e-08 -2.37396e-05
0.00140698 2.62256e-05 -1.19066e-08
2.62256e-05 6.4243e-05 1.22968e-07
-1.19066e-08 1.22968e-07 -1.18276e-05
0.00140576 6.93185e-06 3.49832e-06
6.93185e-06 4.94752e-05 -4.73437e-07
3.49832e-06 -4.73437e-07 -3.04953e-05
0.0014306 -7.50725e-07 1.92121e-06
-7.50725e-07 3.97145e-05 7.31822e-07
1.92121e-06 7.31822e-07 -4.24145e-05
0.00142013 1.16035e-05 1.70062e-06
1.16035e-05 5.22747e-05 5.76747e-07
1.70062e-06 5.76747e-07 -2.51949e-05
0.00162007 -1.24442e-05 2.24055e-06
-1.24442e-05 0.000122331 4.98545e-07
2.24055e-06 4.98545e-07 4.4697e-05
0.00134301 3.27891e-05 9.78364e-07
3.27891e-05 5.52299e-05 4.71565e-07
9.78364e-07 4.71565e-07 -2.06917e-05
0.00146206 1.77533e-05 -7.29844e-07
1.77533e-05 7.06844e-05 9.56302e-07
-7.29844e-07 9.56302e-07 5.97794e-07
0.00092398 1.13995e-05 -5.33341e-06
1.13995e-05 -0.000124362 8.12376e-07
-5.33341e-06 8.12376e-07 -0.000192821
0.0014441 -9.04825e-06 -6.53084e-06
-9.04825e-06 0.000158498 1.38562e-06
-6.53084e-06 1.38562e-06 9.6052e-05
0.00144174 1.55699e-05 -4.20472e-06
1.55699e-05 9.04377e-05 5.04035e-07
-4.20472e-06 5.04035e-07 1.52908e-05
0.00164095 -3.2242e-05 -2.52051e-06
-3.2242e-05 0.000208071 3.70776e-07
-2.52051e-06 3.70776e-07 0.000134553
0.000807595 3.26414e-05 -4.12891e-06
3.26414e-05 -2.24288e-05 3.48093e-06
-4.12891e-06 3.48093e-06 -4.28625e-05
0.000927868 -8.51282e-06 -2.60194e-06
-8.51282e-06 3.02757e-05 1.77567e-06
-2.60194e-06 1.77567e-06 -2.38405e-05
0.000990546 -4.34856e-05 -9.59141e-07
-4.34856e-05 3.7617e-05 1.03576e-06
-9.59141e-07 1.03576e-06 -3.10594e-05
0.00152622 -4.73767e-05 -2.4002e-06
-4.73767e-05 0.000202827 1.26419e-06
-2.4002e-06 1.26419e-06 0.000132347
0.0012433 -3.76653e-05 -1.62391e-06
-3.76653e-05 -1.93779e-06 1.25905e-06
-1.62391e-06 1.25905e-06 -7.79247e-05
0.00125065 -5.06639e-05 -1.01816e-06
-5.06639e-05 5.93345e-05 1.06678e-06
-1.01816e-06 1.06678e-06 -1.34112e-05
0.00103773 -5.47573e-05 -1.74895e-06
-5.47573e-05 1.25318e-05 1.42355e-06
-1.74895e-06 1.42355e-06 -6.63228e-05
0.00113276 -5.47217e-05 -4.14904e-07
-5.47217e-05 1.0002e-05 3.94104e-07
-4.14904e-07 3.94104e-07 -6.44016e-05
0.00092509 -5.84037e-06 -2.95628e-06
-5.84037e-06 1.36715e-05 1.92236e-06
-2.95628e-06 1.92236e-06 -3.63332e-05
0.000932844 -2.51565e-05 -1.77349e-06
-2.51565e-05 8.00991e-06 8.60519e-07
-1.77349e-06 8.60519e-07 -5.94085e-05
0.000916969 9.06408e-07 -2.31929e-06
9.06408e-07 3.31712e-06 2.45452e-06
-2.31929e-06 2.45452e-06 -3.99234e-05
0.00152351 1.56104e-05 -9.24936e-07
1.56104e-05 0.000120519 3.15036e-07
-9.24936e-07 3.15036e-07 4.32e-05
0.00147454 -1.26745e-05 -3.80712e-07
-1.26745e-05 0.00011196 1.88073e-08
-3.80712e-07 1.88073e-08 3.79805e-05
0.00148169 1.51317e-05 -4.22454e-07
1.51317e-05 8.13935e-05 1.38469e-07
-4.22454e-07 1.38469e-07 1.16441e-06
0.00150978 -2.31802e-05 6.01581e-09
-2.31802e-05 0.000106567 -3.20736e-07
6.01581e-09 -3.20736e-07 2.93181e-05
0.000909353 -4.43209e-06 1.05973e-07
-4.43209e-06 1.549e-05 -6.91637e-08
1.05973e-07 -6.91637e-08 -3.67219e-05
0.00103453 -4.03134e-05 4.03051e-08
-4.03134e-05 6.48716e-05 8.68428e-08
4.03051e-08 8.68428e-08 -2.01172e-06
0.000958355 -5.32609e-05 2.98095e-07
-5.32609e-05 1.01585e-05 -4.05171e-07
2.98095e-07 -4.05171e-07 -6.77347e-05
0.0013115 -4.85447e-05 -4.55372e-08
-4.85447e-05 6.80094e-05 -2.05252e-07
-4.55372e-08 -2.05252e-07 -5.24955e-06
0.00142102 -3.89922e-05 3.29923e-07
-3.89922e-05 6.643e-05 7.46334e-07
3.29923e-07 7.46334e-07 -5.26344e-06
0.00120726 -6.22629e-05 5.84376e-08
-6.22629e-05 8.1245e-05 1.20012e-07
5.84376e-08 1.20012e-07 -2.02372e-06
0.00127232 -5.25091e-05 3.83136e-08
-5.25091e-05 5.27969e-05 2.40622e-07
3.83136e-08 2.40622e-07 -1.86495e-05
0.00142513 -6.17546e-05 5.77831e-07
-6.17546e-05 0.000143589 4.05916e-07
5.77831e-07 4.05916e-07 7.34159e-05
0.0010338 -3.39128e-05 7.73228e-08
-3.39128e-05 6.05159e-05 -9.21738e-08
7.73228e-08 -9.21738e-08 -5.85534e-06
0.00111633 -5.11746e-05 -3.47844e-07
-5.11746e-05 0.000104039 2.11199e-07
-3.47844e-07 2.11199e-07 2.78009e-05
0.000918956 8.3738e-06 -1.35859e-07
8.3738e-06 2.13094e-06 8.53268e-08
-1.35859e-07 8.53268e-08 -3.61976e-05
0.000880701 -1.61041e-05 2.64423e-07
-1.61041e-05 -1.56947e-05 -5.23478e-07
2.64423e-07 -5.23478e-07 -8.25302e-05
0.00150006 1.58427e-05 2.83551e-06
1.58427e-05 8.46982e-05 -1.20246e-07
2.83551e-06 -1.20246e-07 2.43934e-06
0.00160592 -5.31e-06 2.23815e-06
-5.31e-06 0.000141118 3.93852e-08
2.23815e-06 3.93852e-08 6.26243e-05
0.00152712 1.76771e-05 2.12834e-06
1.76771e-05 8.91937e-05 3.0433e-07
2.12834e-06 3.0433e-07 6.77878e-06
0.00140699 -1.84647e-05 8.97848e-07
-1.84647e-05 3.57813e-05 -1.51237e-06
8.97848e-07 -1.51237e-06 -3.96742e-05
0.00122996 -4.75164e-05 1.5139e-07
-4.75164e-05 7.80157e-06 -6.56722e-07
1.5139e-07 -6.56722e-07 -6.23808e-05
0.00160961 -3.8293e-05 1.70912e-06
-3.8293e-05 0.000138529 -6.52903e-07
1.70912e-06 -6.52903e-07 7.23562e-05
0.00100628 -3.58818e-05 1.42571e-06
-3.58818e-05 5.13442e-05 -5.38685e-07
1.42571e-06 -5.38685e-07 -1.47179e-05
0.00126254 -5.26869e-05 -4.89546e-07
-5.26869e-05 3.71235e-05 -2.04858e-07
-4.89546e-07 -2.04858e-07 -2.75426e-05
0.000845573 -4.8598e-05 7.7392e-07
-4.8598e-05 -3.17477e-05 -1.34228e-06
7.7392e-07 -1.34228e-06 -0.000106774
0.00112046 -6.09844e-05 1.81691e-06
-6.09844e-05 8.01173e-05 -2.01854e-06
1.81691e-06 -2.01854e-06 -6.21055e-06
0.00126062 -6.65448e-05 2.20757e-06
-6.65448e-05 9.57825e-05 8.20192e-07
2.20757e-06 8.20192e-07 9.81128e-06
0.00164968 -6.67378e-05 1.11626e-06
-6.67378e-05 0.000242045 4.08898e-08
1.11626e-06 4.08898e-08 0.000172861
0.000922041 1.16795e-05 1.01714e-06
1.16795e-05 1.54159e-06 -2.16247e-06
1.01714e-06 -2.16247e-06 -3.31292e-05
0.000812839 -9.26563e-06 1.09348e-06
-9.26563e-06 -4.94798e-05 -2.18421e-06
1.09348e-06 -2.18421e-06 -0.000112429
0.0010462 -4.99146e-05 8.39293e-07
-4.99146e-05 6.67109e-05 1.21222e-07
8.39293e-07 1.21222e-07 -6.88826e-06
0.00105328 -4.87005e-05 1.08604e-06
-4.87005e-05 7.93861e-05 -4.87184e-07
1.08604e-06 -4.87184e-07 1.48943e-07
0.00119788 -5.57575e-05 5.16895e-07
-5.57575e-05 0.000141479 5.72954e-07
5.16895e-07 5.72954e-07 6.29683e-05
0.000828851 -1.91851e-05 -3.07893e-06
-1.91851e-05 -4.39914e-05 -3.76263e-06
-3.07893e-06 -3.76263e-06 -5.32758e-05
0.00123643 4.19618e-05 -1.54268e-06
4.19618e-05 5.64697e-05 -8.97148e-07
-1.54268e-06 -8.97148e-07 -1.63012e-05
0.00092424 -3.89941e-06 -2.15308e-06
-3.89941e-06 4.56739e-06 -2.44255e-06
-2.15308e-06 -2.44255e-06 -3.8775e-05
0.000919661 3.83241e-06 -2.97309e-06
3.83241e-06 1.50475e-05 -2.04008e-06
-2.97309e-06 -2.04008e-06 -3.43762e-05
0.000994119 1.75324e-05 -1.28809e-06
1.75324e-05 4.17137e-05 -9.88364e-07
-1.28809e-06 -9.88364e-07 -2.31415e-05
0.00106667 4.94451e-05 -1.45637e-06
4.94451e-05 3.73845e-05 -1.42856e-06
-1.45637e-06 -1.42856e-06 -3.10337e-05
0.0012142 5.32299e-05 -9.4019e-07
5.32299e-05 5.29314e-05 -1.12877e-06
-9.4019e-07 -1.12877e-06 -2.38623e-05
0.00100326 3.30669e-05 -1.33057e-06
3.30669e-05 5.61569e-05 -6.85443e-07
-1.33057e-06 -6.85443e-07 -1.12397e-05
0.00110408 5.45786e-05 -1.16129e-06
5.45786e-05 0.000101713 -1.05742e-06
-1.16129e-06 -1.05742e-06 2.28444e-05
0.00132834 5.94104e-05 -1.27252e-06
5.94104e-05 0.000171841 -1.1668e-06
-1.27252e-06 -1.1668e-06 0.000101109
0.00102781 5.41956e-05 -2.46939e-06
5.41956e-05 3.9189e-05 3.5385e-07
-2.46939e-06 3.5385e-07 -3.55937e-05
0.000852578 -1.72476e-05 1.37483e-07
-1.72476e-05 -3.58701e-05 3.29463e-08
1.37483e-07 3.29463e-08 -4.29842e-05
0.000925167 -3.62339e-06 5.5796e-08
-3.62339e-06 2.47711e-06 2.94148e-08
5.5796e-08 2.94148e-08 -3.75514e-05
0.00102462 2.56734e-05 -2.86342e-09
2.56734e-05 5.86532e-05 -4.29575e-08
-2.86342e-09 -4.29575e-08 -6.71975e-06
0.00100624 1.39416e-05 5.68115e-08
1.39416e-05 4.61246e-05 -6.21245e-08
5.68115e-08 -6.21245e-08 -1.72956e-05
0.000988796 4.06486e-05 7.37813e-08
4.06486e-05 4.12548e-05 -1.63214e-07
7.37813e-08 -1.63214e-07 -3.3475e-05
0.00129054 4.33907e-05 5.05928e-07
4.33907e-05 5.46309e-05 3.91067e-07
5.05928e-07 3.91067e-07 -2.22883e-05
0.00115382 5.63353e-05 1.1662e-07
5.63353e-05 6.1468e-05 -6.8437e-08
1.1662e-07 -6.8437e-08 -1.2558e-05
0.00124324 5.73767e-05 5.92367e-07
5.73767e-05 5.69157e-05 3.8839e-07
5.92367e-07 3.8839e-07 -2.2821e-05
0.00106543 5.05225e-05 4.6618e-07
5.05225e-05 8.79061e-05 4.51929e-07
4.6618e-07 4.51929e-07 1.0357e-05
0.00122911 5.96582e-05 7.70234e-08
5.96582e-05 0.000114611 -3.41883e-07
7.70234e-08 -3.41883e-07 3.96558e-05
0.000972872 5.44233e-05 -7.944e-07
5.44233e-05 2.5102e-05 -4.42462e-07
-7.944e-07 -4.42462e-07 -6.06026e-05
0.00092413 -4.06468e-06 1.62128e-06
-4.06468e-06 4.96975e-07 2.41039e-06
1.62128e-06 2.41039e-06 -3.62911e-05
0.00100814 1.37266e-05 1.10288e-06
1.37266e-05 4.52911e-05 1.34607e-06
1.10288e-06 1.34607e-06 -1.56613e-05
0.00103924 4.65265e-05 6.36225e-07
4.65265e-05 6.64867e-05 1.24172e-07
6.36225e-07 1.24172e-07 -8.56612e-06
0.00105203 3.91638e-05 7.2603e-07
3.91638e-05 7.33775e-05 3.9546e-07
7.2603e-07 3.9546e-07 -1.04376e-06
0.00108359 4.99527e-05 4.07055e-09
4.99527e-05 8.96768e-05 -4.01289e-07
4.07055e-09 -4.01289e-07 1.05567e-05
0.00125866 4.21544e-05 -5.15428e-07
4.21544e-05 2.59142e-05 2.46318e-07
-5.15428e-07 2.46318e-07 -5.13717e-05
0.0011828 6.1332e-05 1.14083e-06
6.1332e-05 6.63318e-05 1.3708e-06
1.14083e-06 1.3708e-06 -1.12215e-05
0.00105905 6.00882e-05 1.15673e-07
6.00882e-05 -3.101e-05 7.11587e-07
1.15673e-07 7.11587e-07 -0.000110103
0.00104713 5.52577e-05 7.04382e-07
5.52577e-05 7.88779e-05 1.78393e-06
7.04382e-07 1.78393e-06 -7.62885e-06
0.00118272 6.24369e-05 2.32029e-06
6.24369e-05 0.000101052 4.37865e-07
2.32029e-06 4.37865e-07 1.21799e-05
0.000933132 -4.95143e-06 1.2679e-07
-4.95143e-06 2.64243e-06 3.24573e-08
1.2679e-07 3.24573e-08 -3.09687e-05
0.000836643 6.50092e-06 8.24647e-07
6.50092e-06 -4.19848e-05 2.01747e-06
8.24647e-07 2.01747e-06 -9.74741e-05
0.000917019 6.59554e-06 -2.22341e-07
6.59554e-06 -2.66936e-07 6.49757e-08
-2.22341e-07 6.49757e-08 -5.15711e-05
0.00120205 2.38674e-05 2.79508e-07
2.38674e-05 0.000151055 3.44732e-07
2.79508e-07 3.44732e-07 8.73668e-05
0.000974148 8.34684e-06 5.83516e-07
8.34684e-06 3.11527e-05 1.19135e-06
5.83516e-07 1.19135e-06 -1.78027e-05
0.000949659 2.75931e-06 6.68673e-07
2.75931e-06 7.40804e-06 1.86501e-06
6.68673e-07 1.86501e-06 -2.07329e-05
0.000947212 -1.53322e-06 1.09578e-07
-1.53322e-06 7.23769e-06 1.58846e-08
1.09578e-07 1.58846e-08 -2.2225e-05
0.00146909 -1.37345e-05 1.77933e-06
-1.37345e-05 0.00026604 2.0551e-06
1.77933e-06 2.0551e-06 0.000267365
0.000946497 -8.74383e-07 -1.0201e-06
-8.74383e-07 8.00956e-06 -1.99745e-06
-1.0201e-06 -1.99745e-06 -2.32254e-05
0.00149717 -1.55877e-05 -2.54164e-06
-1.55877e-05 0.000283679 -1.27024e-06
-2.54164e-06 -1.27024e-06 0.000283583
0.0011486 -1.45701e-05 1.27864e-05
-1.45701e-05 0.000107242 6.65955e-06
1.27864e-05 6.65955e-06 0.000121907
0.00149224 -1.72545e-05 -7.00519e-06
-1.72545e-05 0.000285025 -3.39124e-06
-7.00519e-06 -3.39124e-06 0.000283301
0.00174793 -2.05229e-05 1.07886e-05
-2.05229e-05 0.00041649 2.39187e-06
1.07886e-05 2.39187e-06 0.000432855
0.0024496 -2.76799e-05 -1.65484e-05
-2.76799e-05 0.000776432 -4.0686e-06
-1.65484e-05 -4.0686e-06 0.000794677
0.000840135 1.88049e-05 2.25507e-06
1.88049e-05 -3.97363e-05 -3.34522e-06
2.25507e-06 -3.34522e-06 -4.57123e-05
0.000842917 2.04817e-05 -1.69794e-07
2.04817e-05 -3.4004e-05 3.75727e-08
-1.69794e-07 3.75727e-08 -4.26092e-05
0.00244222 3.1628e-05 1.72475e-05
3.1628e-05 0.000779874 -3.85925e-06
1.72475e-05 -3.85925e-06 0.000796854
0.00254118 3.50128e-05 -3.83687e-07
3.50128e-05 0.000835587 -6.86447e-08
-3.83687e-07 -6.86447e-08 0.00085062
0.000839624 2.28516e-05 -3.53066e-06
2.28516e-05 -3.02963e-05 3.80276e-06
-3.53066e-06 3.80276e-06 -4.21246e-05
0.00261237 3.8633e-05 -2.19576e-05
3.8633e-05 0.000877625 3.96515e-06
-2.19576e-05 3.96515e-06 0.000890748
0.0012836 3.41716e-05 -2.0776e-06
3.41716e-05 5.51812e-05 -9.61187e-07
-2.0776e-06 -9.61187e-07 -1.82899e-05
0.00136712 8.67635e-06 -2.63496e-06
8.67635e-06 5.79328e-05 -9.02372e-07
-2.63496e-06 -9.02372e-07 -1.74083e-05
0.00141809 2.66487e-05 -1.26708e-06
2.66487e-05 6.99187e-05 -5.06776e-07
-1.26708e-06 -5.06776e-07 -6.19278e-06
0.00147943 -7.30426e-06 -1.96015e-06
-7.30426e-06 6.91456e-05 -5.89165e-07
-1.96015e-06 -5.89165e-07 -1.04957e-05
0.00142929 7.58526e-06 -3.19476e-06
7.58526e-06 6.12742e-05 -8.36305e-07
-3.19476e-06 -8.36305e-07 -1.85766e-05
0.00120096 7.09203e-06 -5.48221e-06
7.09203e-06 2.98781e-06 -4.39792e-08
-5.48221e-06 -4.39792e-08 -6.52824e-05
0.00141547 1.13456e-05 4.30834e-08
1.13456e-05 5.42357e-05 -3.39311e-07
4.30834e-08 -3.39311e-07 -2.57722e-05
0.00145681 -8.27251e-06 5.07704e-08
-8.27251e-06 5.17451e-05 8.12815e-08
5.07704e-08 8.12815e-08 -3.07814e-05
0.00144233 1.03797e-05 6.48679e-08
1.03797e-05 6.33028e-05 -7.845e-08
6.48679e-08 -7.845e-08 -1.4131e-05
0.00160506 -1.34456e-05 1.26311e-07
-1.34456e-05 0.000114216 -1.786e-07
1.26311e-07 -1.786e-07 3.66285e-05
0.0013525 3.36694e-05 -3.56994e-08
3.36694e-05 5.97113e-05 -1.18959e-08
-3.56994e-08 -1.18959e-08 -1.63828e-05
0.00146092 1.78181e-05 -1.15724e-07
1.78181e-05 6.873e-05 8.59269e-07
-1.15724e-07 8.59269e-07 -9.00695e-07
0.00148353 1.12326e-06 2.64628e-06
1.12326e-06 6.66428e-05 -2.63342e-07
2.64628e-06 -2.63342e-07 -1.69059e-05
0.00148578 -1.68439e-06 2.02087e-06
-1.68439e-06 5.94739e-05 4.40127e-07
2.02087e-06 4.40127e-07 -2.30514e-05
0.00131049 2.89191e-06 1.06937e-06
2.89191e-06 -2.59603e-05 1.72331e-06
1.06937e-06 1.72331e-06 -9.89114e-05
0.00182624 -1.99138e-05 2.18274e-06
-1.99138e-05 0.000214009 4.22742e-07
2.18274e-06 4.22742e-07 0.000136723
0.00131009 2.91002e-05 -4.99235e-07
2.91002e-05 1.80497e-05 -2.94935e-07
-4.99235e-07 -2.94935e-07 -5.45141e-05
0.00170497 1.15938e-05 7.21721e-07
1.15938e-05 0.000166836 6.5541e-07
7.21721e-07 6.5541e-07 0.000104043
0.00137101 1.50852e-05 -4.2112e-06
1.50852e-05 4.38732e-05 7.46115e-07
-4.2112e-06 7.46115e-07 -3.44483e-05
0.00146684 -1.47542e-05 -3.69109e-06
-1.47542e-05 0.000107524 4.1431e-07
-3.69109e-06 4.1431e-07 3.36585e-05
0.00136945 1.53087e-05 -3.07806e-06
1.53087e-05 2.48954e-05 7.05117e-08
-3.07806e-06 7.05117e-08 -5.59075e-05
0.00160387 -2.24124e-05 -2.00694e-06
-2.24124e-05 0.000152425 2.14252e-07
-2.00694e-06 2.14252e-07 7.54433e-05
0.000926598 -5.72215e-06 -2.78017e-06
-5.72215e-06 2.22756e-05 1.73142e-06
-2.78017e-06 1.73142e-06 -2.96674e-05
0.00106838 -4.15139e-05 -1.40999e-06
-4.15139e-05 8.04449e-05 1.02882e-06
-1.40999e-06 1.02882e-06 1.35276e-05
0.00104265 -5.48434e-05 -7.92098e-07
-5.48434e-05 5.41494e-05 1.21738e-06
-7.92098e-07 1.21738e-06 -2.3128e-05
0.00149475 -5.11733e-05 -1.1047e-06
-5.11733e-05 0.000158799 7.94435e-07
-1.1047e-06 7.94435e-07 8.56091e-05
0.00130131 -3.7538e-05 -5.74776e-07
-3.7538e-05 6.92197e-06 1.21796e-06
-5.74776e-07 1.21796e-06 -6.38186e-05
0.00128336 -5.21385e-05 -2.53526e-07
-5.21385e-05 5.80429e-05 1.07718e-06
-2.53526e-07 1.07718e-06 -1.33002e-05
0.0010518 -5.90566e-05 -1.70685e-06
-5.90566e-05 6.43796e-06 1.06995e-06
-1.70685e-06 1.06995e-06 -7.78799e-05
0.00126916 -5.83164e-05 2.37102e-07
-5.83164e-05 6.66721e-05 -1.12626e-06
2.37102e-07 -1.12626e-06 -2.62372e-06
0.00105071 -3.43106e-05 -1.62309e-06
-3.43106e-05 6.81111e-05 5.84266e-07
-1.62309e-06 5.84266e-07 1.91835e-06
0.00103289 -4.90174e-05 -1.58719e-06
-4.90174e-05 6.12013e-05 2.05972e-07
-1.58719e-06 2.05972e-07 -1.53886e-05
0.000907137 7.52125e-06 -1.68994e-06
7.52125e-06 -3.2688e-06 2.40797e-06
-1.68994e-06 2.40797e-06 -4.17564e-05
0.000911686 -1.35992e-05 -8.89462e-07
-1.35992e-05 -9.08755e-07 1.05392e-06
-8.89462e-07 1.05392e-06 -6.71484e-05
0.00149096 1.61774e-05 -8.18576e-08
1.61774e-05 8.05316e-05 1.18538e-07
-8.18576e-08 1.18538e-07 -1.66864e-06
0.00159411 -2.97292e-06 -2.82869e-07
-2.97292e-06 0.000135979 1.12791e-07
-2.82869e-07 1.12791e-07 5.76558e-05
0.00148354 1.75833e-05 -6.45901e-07
1.75833e-05 6.89667e-05 1.48467e-07
-6.45901e-07 1.48467e-07 -1.3657e-05
0.00146176 -1.9279e-05 -2.22027e-07
-1.9279e-05 6.265e-05 -2.48441e-07
-2.22027e-07 -2.48441e-07 -1.26776e-05
0.00103411 -3.73522e-05 7.86563e-08
-3.73522e-05 6.39746e-05 -2.7532e-08
7.86563e-08 -2.7532e-08 -2.03445e-06
0.000915019 -4.96224e-05 2.99447e-07
-4.96224e-05 3.29187e-06 -1.69265e-07
2.99447e-07 -1.69265e-07 -7.10847e-05
0.00112817 -6.10412e-05 3.85738e-08
-6.10412e-05 8.51039e-05 -1.34088e-07
3.85738e-08 -1.34088e-07 -1.46754e-06
0.00135305 -4.90051e-05 -5.11548e-07
-4.90051e-05 6.822e-05 -1.30325e-07
-5.11548e-07 -1.30325e-07 -2.62785e-06
0.00144051 -3.7549e-05 3.84143e-07
-3.7549e-05 6.21807e-05 6.4195e-07
3.84143e-07 6.4195e-07 -2.17976e-06
0.00127247 -6.64964e-05 -6.49813e-08
-6.64964e-05 0.000102894 4.92776e-07
-6.49813e-08 4.92776e-07 1.61712e-05
0.00128046 -5.25544e-05 1.77698e-08
-5.25544e-05 4.67321e-05 4.87879e-07
1.77698e-08 4.87879e-07 -1.79222e-05
0.00138391 -6.15068e-05 6.70258e-07
-6.15068e-05 0.000111374 -1.67405e-06
6.70258e-07 -1.67405e-06 4.45342e-05
0.00106944 -5.03908e-05 1.28506e-07
-5.03908e-05 7.78028e-05 1.07069e-08
1.28506e-07 1.07069e-08 4.2275e-06
0.00113854 -5.41713e-05 -4.22661e-08
-5.41713e-05 0.000111141 6.98094e-08
-4.22661e-08 6.98094e-08 3.27372e-05
0.00106931 -4.75903e-05 -1.70306e-07
-4.75903e-05 8.75886e-05 2.00958e-07
-1.70306e-07 2.00958e-07 8.12955e-06
0.00078122 1.50882e-05 -3.0691e-07
1.50882e-05 -6.9302e-05 2.98569e-08
-3.0691e-07 2.98569e-08 -0.000105062
0.000855019 -6.25824e-06 2.92531e-07
-6.25824e-06 -2.98584e-05 -4.82967e-07
2.92531e-07 -4.82967e-07 -9.19626e-05
0.00157193 2.24991e-05 2.40559e-06
2.24991e-05 0.000107669 2.43621e-07
2.40559e-06 2.43621e-07 2.32161e-05
0.00152605 1.1389e-05 2.57819e-06
1.1389e-05 7.6406e-05 8.67107e-08
2.57819e-06 8.67107e-08 -5.57354e-06
0.00148886 -2.20519e-05 2.06792e-06
-2.20519e-05 5.76449e-05 -2.35793e-06
2.06792e-06 -2.35793e-06 -1.20376e-05
0.00128031 -4.2961e-05 1.02621e-06
-4.2961e-05 3.63451e-06 -1.47125e-06
1.02621e-06 -1.47125e-06 -5.81854e-05
0.00104309 -5.10878e-05 5.29373e-07
-5.10878e-05 6.7039e-05 -1.57426e-07
5.29373e-07 -1.57426e-07 -5.45533e-06
0.00158976 -5.93111e-05 9.10814e-07
-5.93111e-05 0.000175359 -2.76675e-07
9.10814e-07 -2.76675e-07 0.000118607
0.000689255 -4.72394e-05 8.9373e-07
-4.72394e-05 -0.000106504 -2.24923e-06
8.9373e-07 -2.24923e-06 -0.000187977
0.00119316 -6.65558e-05 2.86299e-06
-6.65558e-05 0.000105502 -2.02051e-06
2.86299e-06 -2.02051e-06 9.20536e-06
0.00138437 -7.07012e-05 2.54821e-06
-7.07012e-05 0.000138252 9.55455e-07
2.54821e-06 9.55455e-07 5.00794e-05
0.000683482 1.30042e-05 8.89505e-07
1.30042e-05 -0.000121528 -2.67319e-06
8.89505e-07 -2.67319e-06 -0.000155241
0.00107297 -3.02225e-06 9.09586e-07
-3.02225e-06 7.99174e-05 -1.38546e-06
9.09586e-07 -1.38546e-06 2.38116e-05
0.00102763 -4.16703e-05 7.89196e-07
-4.16703e-05 6.82127e-05 -8.94539e-07
7.89196e-07 -8.94539e-07 -7.45567e-06
0.00107493 -5.26608e-05 4.22816e-07
-5.26608e-05 7.81495e-05 2.57572e-07
4.22816e-07 2.57572e-07 2.55817e-06
0.00114172 -5.42849e-05 8.9775e-07
-5.42849e-05 0.00012321 4.05475e-07
8.9775e-07 4.05475e-07 3.68155e-05
0.00109121 -5.38651e-05 3.18293e-07
-5.38651e-05 8.30889e-05 1.10062e-07
3.18293e-07 1.10062e-07 2.84381e-06
0.000839479 -1.70164e-05 -2.55851e-06
-1.70164e-05 -4.24836e-05 -3.65744e-06
-2.55851e-06 -3.65744e-06 -4.94543e-05
0.00092845 -4.12316e-06 -1.86986e-06
-4.12316e-06 3.85909e-06 -2.48554e-06
-1.86986e-06 -2.48554e-06 -3.61202e-05
0.00133049 4.45483e-05 -7.39335e-07
4.45483e-05 7.31813e-05 -4.40913e-07
-7.39335e-07 -4.40913e-07 -3.78612e-06
0.000991073 1.34802e-05 -1.20486e-06
1.34802e-05 3.91564e-05 -1.30438e-06
-1.20486e-06 -1.30438e-06 -2.43967e-05
0.00100298 2.68577e-05 -1.45247e-06
2.68577e-05 4.88381e-05 -6.27188e-07
-1.45247e-06 -6.27188e-07 -1.66074e-05
0.000963398 3.94184e-05 -5.83168e-07
3.94184e-05 2.84503e-05 -2.3474e-07
-5.83168e-07 -2.3474e-07 -4.62806e-05
0.00114366 5.6338e-05 -7.24065e-07
5.6338e-05 5.68996e-05 -1.6418e-06
-7.24065e-07 -1.6418e-06 -1.71464e-05
0.00120482 5.7507e-05 -2.41518e-07
5.7507e-05 3.79584e-05 -1.06717e-06
-2.41518e-07 -1.06717e-06 -4.21139e-05
0.00103724 5.03669e-05 -3.34902e-07
5.03669e-05 7.4848e-05 -4.39177e-07
-3.34902e-07 -4.39177e-07 -2.66105e-06
0.00114178 5.85522e-05 -1.40521e-06
5.85522e-05 0.000106447 -5.03754e-07
-1.40521e-06 -5.03754e-07 2.14705e-05
0.00128419 6.05327e-05 -1.79883e-06
6.05327e-05 0.00014237 -1.02152e-06
-1.79883e-06 -1.02152e-06 6.77519e-05
0.000928892 -4.40689e-06 1.77102e-07
-4.40689e-06 2.56638e-06 3.38122e-08
1.77102e-07 3.38122e-08 -3.4129e-05
0.00100564 1.39518e-05 1.42349e-08
1.39518e-05 4.45145e-05 -4.65863e-08
1.42349e-08 -4.65863e-08 -1.66011e-05
0.001053 4.71073e-05 -1.75766e-07
4.71073e-05 7.3976e-05 -1.63593e-07
-1.75766e-07 -1.63593e-07 -6.37228e-07
0.00105172 4.00284e-05 -7.59675e-08
4.00284e-05 7.36257e-05 -3.00979e-08
-7.59675e-08 -3.00979e-08 -1.03392e-06
0.00103092 4.88688e-05 -2.91345e-07
4.88688e-05 6.41028e-05 -4.62346e-08
-2.91345e-07 -4.62346e-08 -1.54312e-05
0.00130771 4.44305e-05 -3.78548e-07
4.44305e-05 5.04686e-05 -3.86019e-08
-3.78548e-07 -3.86019e-08 -2.73189e-05
0.00118844 6.11372e-05 5.22743e-07
6.11372e-05 6.78497e-05 -1.43392e-07
5.22743e-07 -1.43392e-07 -9.77019e-06
0.00117563 6.12526e-05 2.74784e-07
6.12526e-05 2.38161e-05 4.59138e-07
2.74784e-07 4.59138e-07 -5.49374e-05
0.000941223 5.26971e-05 3.87057e-07
5.26971e-05 2.6691e-05 6.73001e-07
3.87057e-07 6.73001e-07 -6.02627e-05
0.00120361 6.3146e-05 -6.32327e-08
6.3146e-05 0.000111761 -2.3652e-07
-6.32327e-08 -2.3652e-07 2.13852e-05
0.000999467 1.477e-05 1.01497e-06
1.477e-05 4.07656e-05 1.50557e-06
1.01497e-06 1.50557e-06 -1.72508e-05
0.000940022 3.73834e-05 1.2678e-06
3.73834e-05 1.62367e-05 9.25461e-07
1.2678e-06 9.25461e-07 -5.84838e-05
0.00112268 5.6047e-05 -3.0016e-08
5.6047e-05 0.000109877 2.30476e-07
-3.0016e-08 2.30476e-07 2.79728e-05
0.000959719 4.67386e-05 3.45524e-07
4.67386e-05 2.74688e-05 -6.33777e-08
3.45524e-07 -6.33777e-08 -5.36912e-05
0.00106407 5.22284e-05 -2.02706e-07
5.22284e-05 7.48807e-05 -3.2567e-07
-2.02706e-07 -3.2567e-07 -7.43342e-06
0.00127096 4.53834e-05 4.85424e-07
4.53834e-05 -2.73821e-06 2.09956e-07
4.85424e-07 2.09956e-07 -6.65992e-05
0.00134902 6.99046e-05 1.46698e-06
6.99046e-05 0.000145912 6.06289e-07
1.46698e-06 6.06289e-07 5.80761e-05
0.000602678 5.44046e-05 1.0576e-06
5.44046e-05 -0.000271722 8.49721e-07
1.0576e-06 8.49721e-07 -0.000352091
0.00140979 6.62821e-05 2.24794e-06
6.62821e-05 0.000245348 2.74399e-06
2.24794e-06 2.74399e-06 0.000152164
0.000543086 5.12516e-05 6.33282e-07
5.12516e-05 -0.000217441 7.26624e-07
6.33282e-07 7.26624e-07 -0.000319286
0.000937387 -3.2877e-06 -1.1801e-06
-3.2877e-06 4.68627e-06 -2.18702e-06
-1.1801e-06 -2.18702e-06 -2.88617e-05
0.000904273 9.44416e-06 4.21296e-07
9.44416e-06 -7.11581e-06 6.13968e-07
4.21296e-07 6.13968e-07 -6.23396e-05
0.000914597 2.35863e-05 7.24912e-07
2.35863e-05 4.60076e-06 1.37198e-06
7.24912e-07 1.37198e-06 -6.48715e-05
0.000832325 -1.10613e-07 -4.13622e-07
-1.10613e-07 -4.34623e-05 -1.27915e-06
-4.13622e-07 -1.27915e-06 -9.55408e-05
0.000979661 1.15504e-05 9.11652e-08
1.15504e-05 3.3938e-05 2.36028e-08
9.11652e-08 2.36028e-08 -1.5092e-05
0.00106285 1.80985e-05 -1.49315e-07
1.80985e-05 7.97855e-05 -5.38716e-07
-1.49315e-07 -5.38716e-07 1.52502e-05
0.00116382 3.46231e-05 2.51034e-07
3.46231e-05 0.00013537 2.65242e-07
2.51034e-07 2.65242e-07 6.05312e-05
0.00089046 2.57848e-06 1.69479e-07
2.57848e-06 -6.5968e-06 1.27749e-06
1.69479e-07 1.27749e-06 -7.03708e-05
0.00096858 -7.87146e-06 1.58963e-07
-7.87146e-06 2.95593e-05 1.13783e-06
1.58963e-07 1.13783e-06 -1.78676e-05
0.000958974 5.92601e-06 6.17528e-07
5.92601e-06 1.15738e-05 1.79766e-06
6.17528e-07 1.79766e-06 -1.58957e-05
0.000952554 -2.15382e-06 -8.81514e-08
-2.15382e-06 9.07103e-06 2.21981e-08
-8.81514e-08 2.21981e-08 -1.91042e-05
0.00145835 -1.06445e-05 1.32829e-06
-1.06445e-05 0.000257188 2.0023e-06
1.32829e-06 2.0023e-06 0.000259855
0.000955067 -1.59887e-06 -5.81276e-07
-1.59887e-06 1.14139e-05 -1.90859e-06
-5.81276e-07 -1.90859e-06 -1.8086e-05
0.00148359 -1.2944e-05 -2.07812e-06
-1.2944e-05 0.000273363 -1.24576e-06
-2.07812e-06 -1.24576e-06 0.000274791
0.00114072 -1.22464e-05 1.03804e-05
-1.22464e-05 9.90431e-05 6.54287e-06
1.03804e-05 6.54287e-06 0.000115007
0.00151317 -1.49094e-05 -6.33267e-06
-1.49094e-05 0.00029162 -4.59898e-06
-6.33267e-06 -4.59898e-06 0.000291652
0.00108944 -1.54235e-05 4.18731e-06
-1.54235e-05 7.74359e-05 2.5285e-06
4.18731e-06 2.5285e-06 9.21544e-05
0.00233247 -2.65926e-05 -5.20362e-06
-2.65926e-05 0.000713437 -1.6973e-06
-5.20362e-06 -1.6973e-06 0.000732894
0.000849306 1.69636e-05 1.89129e-06
1.69636e-05 -3.97096e-05 -3.28372e-06
1.89129e-06 -3.28372e-06 -4.36897e-05
0.000855799 1.88625e-05 -1.19967e-07
1.88625e-05 -3.21422e-05 4.05541e-08
-1.19967e-07 4.05541e-08 -3.82135e-05
0.00236623 2.80303e-05 1.52046e-05
2.80303e-05 0.000735915 -3.85646e-06
1.52046e-05 -3.85646e-06 0.000754512
0.000856052 2.06851e-05 -3.05774e-06
2.06851e-05 -2.74704e-05 3.61346e-06
-3.05774e-06 3.61346e-06 -3.62398e-05
0.00244971 3.14174e-05 -5.15138e-07
3.14174e-05 0.000784114 -6.03267e-08
-5.15138e-07 -6.03267e-08 0.000800894
0.00254163 3.48253e-05 -2.05895e-05
3.48253e-05 0.00083629 4.03784e-06
-2.05895e-05 4.03784e-06 0.000851133
0.00136105 3.44845e-05 -1.38243e-06
3.44845e-05 6.37555e-05 -6.03182e-07
-1.38243e-06 -6.03182e-07 -1.25121e-05
0.00146966 8.32696e-06 -1.45004e-06
8.32696e-06 7.6863e-05 -7.20904e-07
-1.45004e-06 -7.20904e-07 -5.27589e-07
0.00145582 1.78883e-05 5.40479e-07
1.78883e-05 6.4716e-05 -1.39511e-07
5.40479e-07 -1.39511e-07 -4.43651e-06
0.00158693 -1.45106e-05 -1.81201e-06
-1.45106e-05 0.000104639 -6.8357e-07
-1.81201e-06 -6.8357e-07 2.70932e-05
0.00148606 -1.29636e-05 -2.04718e-06
-1.29636e-05 6.52759e-05 -5.00602e-07
-2.04718e-06 -5.00602e-07 -1.76584e-05
0.00142155 1.46299e-05 -3.23443e-06
1.46299e-05 5.72436e-05 -1.62036e-07
-3.23443e-06 -1.62036e-07 -2.27866e-05
0.00148484 4.69366e-06 6.02091e-08
4.69366e-06 6.72254e-05 -2.24155e-07
6.02091e-08 -2.24155e-07 -1.64449e-05
0.0014958 -5.71366e-06 2.24716e-07
-5.71366e-06 6.48316e-05 -7.27505e-08
2.24716e-07 -7.27505e-08 -1.76089e-05
0.00139522 1.26317e-06 -1.85278e-07
1.26317e-06 1.32597e-05 9.56392e-08
-1.85278e-07 9.56392e-08 -6.03302e-05
0.00162076 -1.90962e-05 -2.16799e-07
-1.90962e-05 0.000114447 -4.52378e-07
-2.16799e-07 -4.52378e-07 3.66768e-05
0.00135653 2.99948e-05 -2.84922e-07
2.99948e-05 4.25108e-05 -1.47243e-08
-2.84922e-07 -1.47243e-08 -3.04457e-05
0.00151477 1.19046e-05 1.60247e-06
1.19046e-05 7.52933e-05 -4.16228e-07
1.60247e-06 -4.16228e-07 1.51315e-05
0.00149515 1.16834e-05 1.7216e-06
1.16834e-05 6.75345e-05 2.38286e-07
1.7216e-06 2.38286e-07 -1.66721e-05
0.00152857 -1.36514e-05 2.25037e-06
-1.36514e-05 8.10766e-05 3.60341e-07
2.25037e-06 3.60341e-07 -7.32442e-07
0.00152392 -6.9707e-06 1.3444e-06
-6.9707e-06 6.14287e-05 1.84559e-06
1.3444e-06 1.84559e-06 -7.94774e-06
0.00148189 2.65457e-05 1.74229e-07
2.65457e-05 6.82586e-05 1.35178e-07
1.74229e-07 1.35178e-07 1.10955e-05
0.00148164 1.64559e-05 -2.45126e-06
1.64559e-05 7.62577e-05 3.67799e-07
-2.45126e-06 3.67799e-07 -5.88168e-06
0.00158663 -2.32414e-06 -3.09695e-06
-2.32414e-06 0.000132862 2.79112e-07
-3.09695e-06 2.79112e-07 5.47161e-05
0.0014199 1.732e-05 -3.44708e-06
1.732e-05 3.91141e-05 3.6678e-08
-3.44708e-06 3.6678e-08 -4.37311e-05
0.0015179 -1.97601e-05 -1.47817e-06
-1.97601e-05 9.01361e-05 7.20321e-07
-1.47817e-06 7.20321e-07 1.49369e-05
0.00105873 -3.84854e-05 -1.41888e-06
-3.84854e-05 7.4997e-05 5.90015e-07
-1.41888e-06 5.90015e-07 9.07215e-06
0.0010017 -5.10942e-05 -2.42906e-07
-5.10942e-05 4.65499e-05 7.50244e-07
-2.42906e-07 7.50244e-07 -2.71776e-05
0.00113238 -6.10186e-05 -1.39148e-06
-6.10186e-05 8.84603e-05 2.17445e-06
-1.39148e-06 2.17445e-06 1.64052e-06
0.00147704 -5.04683e-05 -8.36534e-07
-5.04683e-05 0.00012908 7.45803e-07
-8.36534e-07 7.45803e-07 5.75685e-05
0.00128422 -3.69225e-05 -7.27909e-07
-3.69225e-05 -7.91254e-06 2.10657e-06
-7.27909e-07 2.10657e-06 -7.04762e-05
0.00128835 -5.22854e-05 2.42423e-07
-5.22854e-05 5.15714e-05 1.23666e-06
2.42423e-07 1.23666e-06 -1.30738e-05
0.0012809 -6.63681e-05 -2.09879e-06
-6.63681e-05 0.000108301 4.49793e-07
-2.09879e-06 4.49793e-07 2.08349e-05
0.00114401 -5.67167e-05 -1.69039e-06
-5.67167e-05 -6.6117e-06 -3.87121e-06
-1.69039e-06 -3.87121e-06 -7.11522e-05
0.00109278 -5.09751e-05 -7.53291e-07
-5.09751e-05 8.89331e-05 4.93473e-08
-7.53291e-07 4.93473e-08 1.53751e-05
0.00107561 -5.24862e-05 -1.26761e-06
-5.24862e-05 7.90016e-05 -4.97082e-07
-1.26761e-06 -4.97082e-07 7.1536e-07
0.00108466 -4.59793e-05 -1.08333e-06
-4.59793e-05 9.5415e-05 9.94628e-07
-1.08333e-06 9.94628e-07 1.58095e-05
0.00064307 1.44602e-05 -1.14661e-06
1.44602e-05 -0.000138953 2.22009e-06
-1.14661e-06 2.22009e-06 -0.000175716
0.000901051 -2.43406e-06 -3.70993e-07
-2.43406e-06 -8.46907e-06 1.07675e-06
-3.70993e-07 1.07675e-06 -6.96248e-05
0.0014907 2.10974e-05 9.00816e-09
2.10974e-05 6.86023e-05 -5.53236e-08
9.00816e-09 -5.53236e-08 -1.56673e-05
0.0015573 1.0615e-05 -2.0633e-07
1.0615e-05 9.37214e-05 1.89105e-07
-2.0633e-07 1.89105e-07 1.21081e-05
0.00154315 -2.22414e-05 -7.34083e-07
-2.22414e-05 8.83955e-05 2.05861e-07
-7.34083e-07 2.05861e-07 1.89501e-05
0.00107599 -5.14363e-05 3.69147e-08
-5.14363e-05 8.21952e-05 9.50049e-08
3.69147e-08 9.50049e-08 9.71296e-06
0.000947847 -5.34075e-05 5.47808e-07
-5.34075e-05 1.9837e-05 -4.18307e-07
5.47808e-07 -4.18307e-07 -6.07872e-05
0.001159 -6.5555e-05 -9.26523e-08
-6.5555e-05 9.13213e-05 -1.52559e-07
-9.26523e-08 -1.52559e-07 -5.49545e-06
0.00135534 -4.3594e-05 2.66035e-07
-4.3594e-05 3.94188e-05 -3.59309e-07
2.66035e-07 -3.59309e-07 -2.32883e-05
0.00132678 -6.77713e-05 -1.15763e-07
-6.77713e-05 0.000111307 -5.56772e-07
-1.15763e-07 -5.56772e-07 2.57972e-05
0.00134884 -5.75779e-05 -5.17124e-07
-5.75779e-05 5.99936e-05 -5.73715e-07
-5.17124e-07 -5.73715e-07 2.66909e-06
0.000678702 1.74788e-05 -2.8785e-08
1.74788e-05 -0.000123765 -6.30533e-07
-2.8785e-08 -6.30533e-07 -0.000157215
0.00108758 -5.29774e-05 7.08571e-08
-5.29774e-05 8.44589e-05 1.3593e-07
7.08571e-08 1.3593e-07 8.69353e-06
0.00105151 -5.27014e-05 -8.41151e-07
-5.27014e-05 6.37054e-05 -5.86968e-08
-8.41151e-07 -5.86968e-08 -1.55977e-05
0.00114039 -5.36022e-05 -3.8917e-07
-5.36022e-05 0.000122301 4.23472e-07
-3.8917e-07 4.23472e-07 3.59523e-05
0.00111155 -4.22907e-05 -4.36924e-08
-4.22907e-05 0.000109676 3.11129e-08
-4.36924e-08 3.11129e-08 3.43769e-05
0.00095982 -4.28205e-06 1.51993e-07
-4.28205e-06 2.20052e-05 1.94318e-07
1.51993e-07 1.94318e-07 -3.47757e-05
0.00161431 2.47717e-05 2.55132e-06
2.47717e-05 0.000123332 7.76874e-07
2.55132e-06 7.76874e-07 3.8788e-05
0.00157152 1.11577e-05 2.89513e-06
1.11577e-05 8.24312e-05 -3.34039e-07
2.89513e-06 -3.34039e-07 1.48424e-06
0.00132494 -2.74254e-05 2.4952e-06
-2.74254e-05 -2.73799e-05 -3.10131e-06
2.4952e-06 -3.10131e-06 -9.00825e-05
0.00154731 -5.16541e-05 1.68409e-06
-5.16541e-05 9.7844e-05 -1.77827e-06
1.68409e-06 -1.77827e-06 4.81817e-05
0.00106542 -5.3815e-05 3.99614e-07
-5.3815e-05 7.64798e-05 -5.31088e-07
3.99614e-07 -5.31088e-07 3.60072e-08
0.0013975 -6.80414e-05 3.22178e-06
-6.80414e-05 9.65695e-05 1.39858e-06
3.22178e-06 1.39858e-06 2.36084e-05
0.000875762 -5.53817e-05 8.5408e-07
-5.53817e-05 -1.88244e-05 -2.93265e-06
8.5408e-07 -2.93265e-06 -0.000111824
0.0014138 -7.46305e-05 2.38448e-06
-7.46305e-05 0.000206508 -8.41834e-07
2.38448e-06 -8.41834e-07 0.000101653
0.000689207 1.30432e-05 6.77286e-07
1.30432e-05 -0.000120334 -2.47518e-06
6.77286e-07 -2.47518e-06 -0.000151537
0.00109152 -3.17873e-07 8.33667e-07
-3.17873e-07 8.8167e-05 -1.39385e-06
8.33667e-07 -1.39385e-06 3.69346e-05
0.00119503 -3.51576e-05 3.45941e-08
-3.51576e-05 0.00014849 -4.2419e-08
3.45941e-08 -4.2419e-08 7.82157e-05
0.0010546 -4.48684e-05 7.06909e-07
-4.48684e-05 8.40032e-05 -1.1601e-06
7.06909e-07 -1.1601e-06 -3.9964e-06
0.00105111 -5.34858e-05 3.26337e-07
-5.34858e-05 6.61453e-05 -2.82715e-07
3.26337e-07 -2.82715e-07 -1.32547e-05
0.00107016 -5.36405e-05 1.06243e-06
-5.36405e-05 7.88769e-05 5.21466e-07
1.06243e-06 5.21466e-07 -7.93564e-06
0.00093173 -5.02423e-06 -1.38406e-06
-5.02423e-06 3.60853e-06 -2.3996e-06
-1.38406e-06 -2.3996e-06 -3.29804e-05
0.00100405 1.42089e-05 -1.14372e-06
1.42089e-05 4.42289e-05 -1.51842e-06
-1.14372e-06 -1.51842e-06 -1.70549e-05
0.00135661 4.68147e-05 -5.35887e-07
4.68147e-05 7.50129e-05 -4.34883e-07
-5.35887e-07 -4.34883e-07 -3.29187e-06
0.00105298 4.02908e-05 -9.76629e-07
4.02908e-05 7.45805e-05 -5.16302e-07
-9.76629e-07 -5.16302e-07 -2.6551e-07
0.00107261 4.78844e-05 -5.59645e-07
4.78844e-05 8.44481e-05 -2.21337e-07
-5.59645e-07 -2.21337e-07 1.02489e-05
0.000980039 4.78974e-05 -5.71949e-07
4.78974e-05 3.94704e-05 -1.14547e-07
-5.71949e-07 -1.14547e-07 -4.04937e-05
0.00119623 6.10053e-05 -9.45772e-07
6.10053e-05 7.03907e-05 -1.77557e-06
-9.45772e-07 -1.77557e-06 -7.29835e-06
0.00130844 6.28288e-05 -3.02561e-07
6.28288e-05 8.6476e-05 -6.50484e-07
-3.02561e-07 -6.50484e-07 8.03997e-06
0.000840047 5.02951e-05 -3.13846e-07
5.02951e-05 -2.31002e-05 -5.26941e-07
-3.13846e-07 -5.26941e-07 -0.000110521
0.00123797 6.41985e-05 -1.57112e-06
6.41985e-05 0.000129254 -8.0968e-07
-1.57112e-06 -8.0968e-07 3.73351e-05
0.00100144 1.40932e-05 7.21973e-08
1.40932e-05 4.19947e-05 -8.30738e-09
7.21973e-08 -8.30738e-09 -1.60783e-05
0.00100654 3.98058e-05 4.17543e-07
3.98058e-05 5.02217e-05 2.68607e-07
4.17543e-07 2.68607e-07 -2.44955e-05
0.00114156 5.64537e-05 -1.56161e-07
5.64537e-05 0.000120096 -4.76015e-07
-1.56161e-07 -4.76015e-07 3.88498e-05
0.00102763 4.7819e-05 -2.82827e-07
4.7819e-05 6.216e-05 5.53779e-09
-2.82827e-07 5.53779e-09 -1.86558e-05
0.00104054 5.16349e-05 -7.63845e-07
5.16349e-05 6.62054e-05 -3.61303e-07
-7.63845e-07 -3.61303e-07 -1.575e-05
0.00155741 4.79009e-05 -4.77995e-07
4.79009e-05 0.000136846 -4.77663e-07
-4.77995e-07 -4.77663e-07 7.33005e-05
0.00139881 7.07762e-05 7.82782e-07
7.07762e-05 0.000167466 4.39023e-08
7.82782e-07 4.39023e-08 8.04652e-05
0.000951454 6.04197e-05 -5.24866e-07
6.04197e-05 -9.54521e-05 5.33416e-07
-5.24866e-07 5.33416e-07 -0.000174125
0.00123107 6.19975e-05 9.63086e-07
6.19975e-05 0.000158705 9.41949e-07
9.63086e-07 9.41949e-07 6.4822e-05
0.000880308 5.92486e-05 -1.39631e-06
5.92486e-05 -5.19125e-05 -4.08153e-07
-1.39631e-06 -4.08153e-07 -0.000155383
0.000949052 3.42376e-05 1.13277e-06
3.42376e-05 2.15478e-05 1.28289e-06
1.13277e-06 1.28289e-06 -5.11945e-05
0.000964418 5.00748e-05 7.32163e-07
5.00748e-05 3.15186e-05 1.61354e-07
7.32163e-07 1.61354e-07 -5.30227e-05
0.00114919 5.77812e-05 2.17435e-07
5.77812e-05 0.000120308 6.39106e-07
2.17435e-07 6.39106e-07 3.21582e-05
0.000875067 4.85369e-05 8.08655e-07
4.85369e-05 -1.70987e-05 5.21739e-08
8.08655e-07 5.21739e-08 -0.000103001
0.00196333 3.76556e-05 2.28093e-06
3.76556e-05 0.000236421 1.24358e-06
2.28093e-06 1.24358e-06 0.00018631
0.0011031 5.84821e-05 2.98138e-06
5.84821e-05 -9.59797e-05 1.13781e-06
2.98138e-06 1.13781e-06 -0.000160374
0.00125614 7.26968e-05 1.80504e-06
7.26968e-05 9.13688e-05 -1.31478e-07
1.80504e-06 -1.31478e-07 -8.69166e-06
0.000842004 5.63007e-05 9.4257e-07
5.63007e-05 -3.45461e-05 2.10183e-06
9.4257e-07 2.10183e-06 -0.000146053
0.000972367 1.27376e-05 -1.42757e-07
1.27376e-05 2.79813e-05 -9.77905e-07
-1.42757e-07 -9.77905e-07 -2.69792e-05
0.00099243 2.83471e-05 2.39492e-07
2.83471e-05 4.46523e-05 4.07331e-07
2.39492e-07 4.07331e-07 -2.45633e-05
0.00107321 4.05223e-05 4.41258e-07
4.05223e-05 8.97117e-05 6.05982e-07
4.41258e-07 6.05982e-07 1.08947e-05
0.000984351 1.30495e-05 -5.42929e-07
1.30495e-05 3.63294e-05 -1.17448e-06
-5.42929e-07 -1.17448e-06 -1.27952e-05
0.000923347 1.27245e-05 -3.28959e-07
1.27245e-05 8.46726e-06 -1.44828e-06
-3.28959e-07 -1.44828e-06 -5.69749e-05
0.000975388 -1.1094e-07 3.94221e-07
-1.1094e-07 3.30544e-05 2.51187e-08
3.94221e-07 2.51187e-08 -1.45373e-05
0.00107267 3.12978e-05 -7.24912e-08
3.12978e-05 8.85936e-05 -4.45753e-07
-7.24912e-08 -4.45753e-07 1.28862e-05
0.000945212 8.71379e-06 2.11881e-07
8.71379e-06 2.18161e-05 4.37299e-07
2.11881e-07 4.37299e-07 -4.18453e-05
0.00115252 4.2476e-05 4.32409e-07
4.2476e-05 0.000128653 3.86033e-07
4.32409e-07 3.86033e-07 4.54452e-05
0.000906174 2.37395e-06 1.28354e-07
2.37395e-06 4.07405e-06 1.13109e-06
1.28354e-07 1.13109e-06 -7.01781e-05
0.000891583 2.63854e-05 4.8908e-07
2.63854e-05 -3.43632e-06 1.23834e-06
4.8908e-07 1.23834e-06 -6.65289e-05
0.000983275 -1.9034e-05 -3.13474e-07
-1.9034e-05 3.77843e-05 1.11617e-06
-3.13474e-07 1.11617e-06 -8.98369e-06
0.000947861 7.91607e-06 4.7781e-07
7.91607e-06 6.36828e-06 1.70361e-06
4.7781e-07 1.70361e-06 -2.09779e-05
0.000952963 -2.11604e-06 -2.63597e-07
-2.11604e-06 8.6363e-06 3.11703e-08
-2.63597e-07 3.11703e-08 -1.87997e-05
0.00145107 -7.21015e-06 9.64896e-07
-7.21015e-06 0.000250919 1.95081e-06
9.64896e-07 1.95081e-06 0.000254309
0.00095479 -8.0064e-06 -5.36075e-08
-8.0064e-06 1.03708e-05 -1.84173e-06
-5.36075e-08 -1.84173e-06 -1.7823e-05
0.00147321 -9.99323e-06 -1.60493e-06
-9.99323e-06 0.000264861 -1.22086e-06
-1.60493e-06 -1.22086e-06 0.000267537
0.00113043 -9.66842e-06 7.87058e-06
-9.66842e-06 8.98974e-05 6.41591e-06
7.87058e-06 6.41591e-06 0.000106973
0.00149744 -1.24207e-05 -4.76193e-06
-1.24207e-05 0.000280387 -4.50859e-06
-4.76193e-06 -4.50859e-06 0.000281893
0.00108316 -1.28815e-05 3.09e-06
-1.28815e-05 6.98749e-05 2.49106e-06
3.09e-06 2.49106e-06 8.5945e-05
0.00102908 -1.57734e-05 -2.26312e-06
-1.57734e-05 4.70537e-05 -1.65505e-06
-2.26312e-06 -1.65505e-06 6.18733e-05
0.000856739 1.48185e-05 1.53412e-06
1.48185e-05 -4.03926e-05 -3.25188e-06
1.53412e-06 -3.25188e-06 -4.26087e-05
0.000865487 1.6991e-05 -1.01894e-07
1.6991e-05 -3.18727e-05 1.78099e-08
-1.01894e-07 1.78099e-08 -3.59116e-05
0.00231429 2.42998e-05 1.32548e-05
2.42998e-05 0.00070413 -3.87161e-06
1.32548e-05 -3.87161e-06 0.000724147
0.000871918 1.89328e-05 -2.53512e-06
1.89328e-05 -2.4326e-05 3.41018e-06
-2.53512e-06 3.41018e-06 -3.04937e-05
0.00237195 2.79099e-05 -5.85119e-07
2.79099e-05 0.000739368 -4.85363e-08
-5.85119e-07 -4.85363e-08 0.000757783
0.00245558 3.1216e-05 -1.87434e-05
3.1216e-05 0.000787549 4.01169e-06
-1.87434e-05 4.01169e-06 0.000804134
0.00140243 3.09408e-05 4.39425e-08
3.09408e-05 6.66821e-05 1.92043e-07
4.39425e-08 1.92043e-07 -6.66493e-06
0.00148487 -4.66152e-07 -1.29365e-06
-4.66152e-07 5.49036e-05 -7.81057e-07
-1.29365e-06 -7.81057e-07 -1.93333e-05
0.00134766 1.21204e-05 1.7559e-06
1.21204e-05 -4.92392e-06 -2.19182e-06
1.7559e-06 -2.19182e-06 -6.24817e-05
0.00142531 -1.82917e-05 -2.4695e-06
-1.82917e-05 1.97612e-05 -1.4953e-06
-2.4695e-06 -1.4953e-06 -5.84973e-05
0.00150361 -8.2766e-06 -1.77008e-06
-8.2766e-06 6.92044e-05 -5.51909e-07
-1.77008e-06 -5.51909e-07 -1.32024e-05
0.00148409 4.0745e-06 -2.10092e-06
4.0745e-06 6.68037e-05 -2.57011e-07
-2.10092e-06 -2.57011e-07 -1.69864e-05
0.00150492 1.40399e-05 1.97989e-07
1.40399e-05 7.32539e-05 -4.49754e-08
1.97989e-07 -4.49754e-08 -1.0794e-05
0.00149488 -1.7314e-05 -2.07666e-07
-1.7314e-05 6.50611e-05 1.74178e-07
-2.07666e-07 1.74178e-07 -1.66153e-05
0.00151083 -6.37536e-06 6.78602e-07
-6.37536e-06 5.60348e-05 -2.81666e-07
6.78602e-07 -2.81666e-07 -1.30657e-05
0.00142361 2.36478e-05 6.82423e-08
2.36478e-05 3.73795e-05 -4.30735e-07
6.82423e-08 -4.30735e-07 -1.96466e-05
0.00150026 7.90873e-06 1.83859e-06
7.90873e-06 7.43168e-05 7.09464e-08
1.83859e-06 7.09464e-08 -9.433e-06
0.00167533 -2.63296e-05 2.51559e-06
-2.63296e-05 0.000145486 7.22026e-07
2.51559e-06 7.22026e-07 6.86403e-05
0.00146028 9.20539e-06 1.43922e-06
9.20539e-06 1.5568e-05 2.3404e-06
1.43922e-06 2.3404e-06 -4.43149e-05
0.00141956 1.9904e-05 -2.84441e-06
1.9904e-05 3.43709e-05 -2.68159e-07
-2.84441e-06 -2.68159e-07 -4.97134e-05
0.00158712 9.99981e-06 -2.65336e-06
9.99981e-06 0.000110451 6.13578e-07
-2.65336e-06 6.13578e-07 2.91944e-05
0.001591 -2.24873e-05 -1.86189e-06
-2.24873e-05 0.000115886 1.89384e-06
-1.86189e-06 1.89384e-06 4.67017e-05
0.00110398 -5.15683e-05 -6.51496e-07
-5.15683e-05 9.49832e-05 4.72725e-07
-6.51496e-07 4.72725e-07 2.25228e-05
0.00121612 -5.98108e-05 -4.36427e-07
-5.98108e-05 0.00015084 1.19946e-06
-4.36427e-07 1.19946e-06 7.10598e-05
0.00113255 -6.47162e-05 -2.08701e-06
-6.47162e-05 8.10648e-05 2.65014e-06
-2.08701e-06 2.65014e-06 -1.62975e-05
0.00142225 -4.42093e-05 -1.11893e-06
-4.42093e-05 7.12079e-05 1.20159e-06
-1.11893e-06 1.20159e-06 7.62806e-06
0.00112006 -5.58687e-05 -2.08417e-06
-5.58687e-05 -4.9423e-05 -8.38108e-08
-2.08417e-06 -8.38108e-08 -0.000107343
0.00128511 -6.53188e-05 -3.08612e-06
-6.53188e-05 9.22768e-05 -2.02157e-06
-3.08612e-06 -2.02157e-06 9.39843e-06
0.00110234 -5.33487e-05 -5.51259e-07
-5.33487e-05 9.18174e-05 1.92417e-07
-5.51259e-07 1.92417e-07 1.58729e-05
0.00100593 -5.14022e-05 -2.13021e-06
-5.14022e-05 4.15133e-05 -2.36402e-07
-2.13021e-06 -2.36402e-07 -3.68482e-05
0.00113679 -5.39087e-05 -1.17938e-06
-5.39087e-05 0.000120392 2.77326e-07
-1.17938e-06 2.77326e-07 3.3995e-05
0.000668952 1.97425e-05 -6.70834e-07
1.97425e-05 -0.000128354 1.3336e-06
-6.70834e-07 1.3336e-06 -0.00016158
0.00118493 -4.4404e-05 -7.86658e-07
-4.4404e-05 0.00014609 1.13639e-06
-7.86658e-07 1.13639e-06 7.10616e-05
0.000841648 -2.83173e-06 -6.62785e-08
-2.83173e-06 -3.81588e-05 1.8217e-06
-6.62785e-08 1.8217e-06 -9.57448e-05
0.00155551 2.45694e-05 -2.06955e-08
2.45694e-05 9.56841e-05 8.25032e-08
-2.06955e-08 8.25032e-08 1.13031e-05
0.00156149 9.69339e-06 4.63999e-07
9.69339e-06 7.55611e-05 1.08316e-08
4.63999e-07 1.08316e-08 -5.36922e-06
0.00141222 -2.7765e-05 -2.1146e-07
-2.7765e-05 1.45885e-05 -2.67665e-07
-2.1146e-07 -2.67665e-07 -4.9421e-05
0.00109698 -5.4601e-05 7.12689e-09
-5.4601e-05 9.11283e-05 2.41781e-07
7.12689e-09 2.41781e-07 1.45286e-05
0.000925789 -5.6422e-05 -9.88855e-08
-5.6422e-05 7.45293e-06 1.29732e-07
-9.88855e-08 1.29732e-07 -8.41347e-05
0.00140944 -7.38592e-05 -1.22236e-06
-7.38592e-05 0.000203799 1.22669e-06
-1.22236e-06 1.22669e-06 9.99228e-05
0.00155848 -5.29366e-05 1.97316e-08
-5.29366e-05 0.000108501 3.40793e-07
1.97316e-08 3.40793e-07 5.88574e-05
0.00130078 -6.5944e-05 8.86511e-08
-6.5944e-05 4.73788e-05 -8.31132e-07
8.86511e-08 -8.31132e-07 -2.53448e-05
0.000811599 1.35568e-05 7.29047e-08
1.35568e-05 -5.86648e-05 -5.86524e-07
7.29047e-08 -5.86524e-07 -8.89107e-05
0.00107409 5.58e-06 -1.59414e-07
5.58e-06 7.98849e-05 9.29756e-08
-1.59414e-07 9.29756e-08 2.87334e-05
0.000978785 -5.17473e-05 -5.48385e-07
-5.17473e-05 3.1358e-05 3.29242e-07
-5.48385e-07 3.29242e-07 -4.80099e-05
0.00108788 -5.40004e-05 2.74116e-07
-5.40004e-05 8.7319e-05 3.33553e-08
2.74116e-07 3.33553e-08 7.39186e-07
0.00106562 -4.446e-05 -9.51875e-08
-4.446e-05 8.99512e-05 -2.7018e-07
-9.51875e-08 -2.7018e-07 2.61927e-06
0.00112332 -3.85688e-05 -6.17195e-07
-3.85688e-05 0.000112916 9.74529e-07
-6.17195e-07 9.74529e-07 4.14951e-05
0.00154883 2.89409e-05 2.48746e-06
2.89409e-05 8.87147e-05 1.24785e-06
2.48746e-06 1.24785e-06 6.45206e-06
0.00161909 2.31198e-06 3.04419e-06
2.31198e-06 9.1617e-05 -7.57334e-07
3.04419e-06 -7.57334e-07 1.55278e-05
0.00142623 -3.84434e-05 1.89553e-06
-3.84434e-05 -7.92953e-06 -3.46869e-06
1.89553e-06 -3.46869e-06 -5.27362e-05
0.0019571 -7.08353e-05 2.53377e-06
-7.08353e-05 0.000293261 -1.20059e-06
2.53377e-06 -1.20059e-06 0.000243893
0.000933411 -5.31223e-05 6.05661e-09
-5.31223e-05 1.66317e-05 -1.0202e-06
6.05661e-09 -1.0202e-06 -6.74692e-05
0.00148236 -7.76859e-05 2.88723e-06
-7.76859e-05 0.000213289 1.84341e-06
2.88723e-06 1.84341e-06 0.000107103
0.00145405 -7.29304e-05 2.07014e-06
-7.29304e-05 0.000260462 -3.76818e-06
2.07014e-06 -3.76818e-06 0.000157598
0.000945296 1.05508e-05 6.0906e-07
1.05508e-05 6.26076e-06 -1.82844e-06
6.0906e-07 -1.82844e-06 -2.12556e-05
0.00098013 -2.18339e-05 6.94291e-07
-2.18339e-05 3.36474e-05 -1.2476e-06
6.94291e-07 -1.2476e-06 -1.08695e-05
0.000812319 9.34909e-06 1.90605e-07
9.34909e-06 -5.13915e-05 -1.84474e-06
1.90605e-07 -1.84474e-06 -0.000101257
0.00108835 -2.46632e-05 2.53038e-07
-2.46632e-05 9.33909e-05 -6.95815e-07
2.53038e-07 -6.95815e-07 2.65575e-05
0.000985826 -3.57566e-05 2.53513e-07
-3.57566e-05 4.94118e-05 -1.14808e-06
2.53513e-07 -1.14808e-06 -3.33534e-05
0.00108906 -5.38226e-05 1.87986e-06
-5.38226e-05 0.000102911 2.98463e-07
1.87986e-06 2.98463e-07 7.14157e-06
0.000836011 -4.97613e-05 5.85445e-07
-4.97613e-05 -4.10742e-05 -2.87228e-07
5.85445e-07 -2.87228e-07 -0.000122744
0.00168957 -7.09028e-05 5.82466e-07
-7.09028e-05 0.000399026 4.36417e-07
5.82466e-07 4.36417e-07 0.00030521
0.00100141 1.33765e-05 -7.71312e-07
1.33765e-05 4.22233e-05 -1.61382e-06
-7.71312e-07 -1.61382e-06 -1.58926e-05
0.00107131 4.2836e-05 -5.93326e-07
4.2836e-05 8.33863e-05 -4.60457e-07
-5.93326e-07 -4.60457e-07 8.62141e-06
0.00184872 5.04517e-05 -6.48744e-07
5.04517e-05 0.000278703 -7.00107e-07
-6.48744e-07 -7.00107e-07 0.000215481
0.0011051 5.01061e-05 -9.03685e-07
5.01061e-05 0.000101569 -2.01169e-08
-9.03685e-07 -2.01169e-08 2.10007e-05
0.0011637 5.69475e-05 -7.09542e-07
5.69475e-05 0.000131737 -1.20799e-06
-7.09542e-07 -1.20799e-06 5.11647e-05
0.00100411 5.05401e-05 -8.72869e-07
5.05401e-05 5.12805e-05 -3.18149e-07
-8.72869e-07 -3.18149e-07 -3.0289e-05
0.0014229 7.10725e-05 -5.20861e-07
7.10725e-05 0.00017639 -8.56841e-07
-5.20861e-07 -8.56841e-07 9.02643e-05
0.00127672 6.59898e-05 -1.16479e-06
6.59898e-05 6.91275e-05 5.23125e-07
-1.16479e-06 5.23125e-07 -7.78772e-06
0.00105211 5.76683e-05 6.10206e-08
5.76683e-05 7.20051e-05 -4.63295e-07
6.10206e-08 -4.63295e-07 -2.25817e-05
0.00116135 6.59373e-05 -3.44361e-06
6.59373e-05 8.58582e-05 -1.18446e-06
-3.44361e-06 -1.18446e-06 -1.91484e-05
0.000938366 3.4944e-05 3.81855e-07
3.4944e-05 1.67075e-05 3.63667e-07
3.81855e-07 3.63667e-07 -5.65502e-05
0.00102656 5.15709e-05 -3.74961e-07
5.15709e-05 6.22959e-05 -4.30691e-07
-3.74961e-07 -4.30691e-07 -2.15123e-05
0.00114188 5.75121e-05 -2.35128e-07
5.75121e-05 0.000118021 -6.9651e-07
-2.35128e-07 -6.9651e-07 3.06156e-05
0.00104468 5.24191e-05 -4.89872e-08
5.24191e-05 6.64065e-05 -2.86677e-07
-4.89872e-08 -2.86677e-07 -1.91983e-05
0.00181978 3.48361e-05 -3.21643e-07
3.48361e-05 0.000165777 -1.12138e-06
-3.21643e-07 -1.12138e-06 0.000116659
0.00127197 6.02687e-05 1.61435e-07
6.02687e-05 -3.74468e-06 1.04431e-07
1.61435e-07 1.04431e-07 -7.0244e-05
0.00147152 7.71908e-05 -4.93912e-07
7.71908e-05 0.000195638 -5.592e-08
-4.93912e-07 -5.592e-08 9.68109e-05
0.000896144 5.86107e-05 2.72997e-07
5.86107e-05 -1.38601e-05 3.97447e-07
2.72997e-07 3.97447e-07 -0.000124769
0.00109607 4.93656e-05 2.30222e-07
4.93656e-05 0.000102167 1.5204e-07
2.30222e-07 1.5204e-07 1.98953e-05
0.00149465 7.58149e-06 3.22667e-06
7.58149e-06 7.0609e-06 3.25418e-06
3.22667e-06 3.25418e-06 -5.27134e-05
0.00118839 5.69625e-05 8.38729e-07
5.69625e-05 0.000143919 4.49379e-07
8.38729e-07 4.49379e-07 5.40048e-05
0.00111414 5.82458e-05 5.42795e-07
5.82458e-05 0.000105452 1.20329e-06
5.42795e-07 1.20329e-06 9.6392e-06
0.00172976 6.12676e-05 5.88385e-06
6.12676e-05 9.23277e-05 8.40101e-07
5.88385e-06 8.40101e-07 4.4897e-05
0.0013179 7.69532e-05 4.08527e-06
7.69532e-05 5.61484e-05 2.71214e-07
4.08527e-06 2.71214e-07 -3.98373e-05
0.00165539 8.1467e-05 9.32594e-07
8.1467e-05 0.000343299 2.44144e-06
9.32594e-07 2.44144e-06 0.000223668
0.00106921 3.23604e-05 -5.17601e-07
3.23604e-05 8.40911e-05 -5.71873e-07
-5.17601e-07 -5.71873e-07 1.51765e-05
0.00106448 3.99618e-05 -2.00924e-08
3.99618e-05 8.59793e-05 -8.48524e-08
-2.00924e-08 -8.48524e-08 7.23695e-06
0.00108144 4.79209e-05 6.81879e-07
4.79209e-05 9.64838e-05 4.74596e-07
6.81879e-07 4.74596e-07 1.01253e-05
0.000980587 9.94101e-06 -5.344e-08
9.94101e-06 3.57487e-05 -1.12694e-06
-5.344e-08 -1.12694e-06 -1.20054e-05
0.00100145 1.50299e-05 8.01294e-08
1.50299e-05 5.07941e-05 -3.81858e-07
8.01294e-08 -3.81858e-07 -1.26353e-05
0.000978156 2.68847e-05 -3.99551e-07
2.68847e-05 4.01022e-05 -1.20448e-06
-3.99551e-07 -1.20448e-06 -3.6416e-05
0.000974696 -1.46442e-05 2.24065e-07
-1.46442e-05 3.34132e-05 3.2921e-08
2.24065e-07 3.2921e-08 -1.33609e-05
0.000883851 8.33395e-06 -2.15192e-07
8.33395e-06 -8.01185e-06 4.04823e-07
-2.15192e-07 4.04823e-07 -7.07288e-05
0.00107433 3.61096e-05 2.76584e-08
3.61096e-05 8.83206e-05 -4.44566e-07
2.76584e-08 -4.44566e-07 4.53882e-06
0.00103482 1.8095e-05 1.60225e-07
1.8095e-05 7.02419e-05 4.0517e-07
1.60225e-07 4.0517e-07 -3.64506e-06
0.00118755 5.54682e-05 2.39925e-07
5.54682e-05 0.00013977 1.57067e-07
2.39925e-07 1.57067e-07 5.03042e-05
0.00100184 1.51443e-05 2.15297e-07
1.51443e-05 4.78582e-05 9.03313e-07
2.15297e-07 9.03313e-07 -3.45886e-05
0.0010646 2.44126e-05 3.0702e-07
2.44126e-05 8.40911e-05 6.67135e-07
3.0702e-07 6.67135e-07 1.23331e-05
0.000995035 2.05597e-05 5.52525e-07
2.05597e-05 5.19551e-05 9.36878e-07
5.52525e-07 9.36878e-07 -1.00558e-05
0.00098644 -9.23437e-06 -3.90611e-07
-9.23437e-06 3.88139e-05 1.0233e-06
-3.90611e-07 1.0233e-06 -7.38761e-06
0.000940328 1.03957e-05 3.7103e-07
1.03957e-05 3.53857e-06 1.64802e-06
3.7103e-07 1.64802e-06 -2.40991e-05
0.000947613 -3.31559e-07 -2.50513e-07
-3.31559e-07 6.3107e-06 1.57614e-08
-2.50513e-07 1.57614e-08 -2.10314e-05
0.00144915 -3.69449e-06 6.03253e-07
-3.69449e-06 0.000248538 1.90638e-06
6.03253e-07 1.90638e-06 0.000252
0.00094829 -9.9802e-06 5.98993e-08
-9.9802e-06 6.3699e-06 -1.72893e-06
5.98993e-08 -1.72893e-06 -2.10295e-05
0.00146993 -6.67846e-06 -1.13711e-06
-6.67846e-06 0.000260748 -1.21403e-06
-1.13711e-06 -1.21403e-06 0.00026402
0.00112691 -6.82913e-06 5.49164e-06
-6.82913e-06 8.50663e-05 6.38098e-06
5.49164e-06 6.38098e-06 0.000102683
0.00148808 -9.59912e-06 -3.30024e-06
-9.59912e-06 0.000272558 -4.39867e-06
-3.30024e-06 -4.39867e-06 0.000275224
0.00107895 -1.00799e-05 2.0268e-06
-1.00799e-05 6.365e-05 2.44942e-06
2.0268e-06 2.44942e-06 8.0887e-05
0.00102664 -1.2984e-05 -1.72246e-06
-1.2984e-05 4.11837e-05 -1.60526e-06
-1.72246e-06 -1.60526e-06 5.74083e-05
0.000950721 8.00108e-06 4.46431e-07
8.00108e-06 6.64723e-06 -1.83785e-06
4.46431e-07 -1.83785e-06 -1.90656e-05
0.000866428 1.23737e-05 1.18421e-06
1.23737e-05 -3.99721e-05 -3.21121e-06
1.18421e-06 -3.21121e-06 -4.04603e-05
0.00087475 1.48731e-05 -1.04375e-07
1.48731e-05 -3.15506e-05 1.76996e-08
-1.04375e-07 1.76996e-08 -3.38353e-05
0.00226819 2.03978e-05 1.12684e-05
2.03978e-05 0.000675721 -3.88067e-06
1.12684e-05 -3.88067e-06 0.000697051
0.000882922 1.7039e-05 -2.14172e-06
1.7039e-05 -2.33631e-05 3.2824e-06
-2.14172e-06 3.2824e-06 -2.74712e-05
0.00231586 2.42728e-05 -6.43617e-07
2.42728e-05 0.000705552 -4.34031e-08
-6.43617e-07 -4.34031e-08 0.000725414
0.00237602 2.77181e-05 -1.66257e-05
2.77181e-05 0.000741961 3.97268e-06
-1.66257e-05 3.97268e-06 0.000760209
0.00135842 2.08155e-05 7.12363e-08
2.08155e-05 3.04028e-06 -5.40333e-07
7.12363e-08 -5.40333e-07 -5.38297e-05
0.00148186 -5.70251e-06 -1.47662e-06
-5.70251e-06 4.30483e-05 -2.1959e-06
-1.47662e-06 -2.1959e-06 -2.57824e-05
0.00145851 -1.7007e-05 -2.14644e-06
-1.7007e-05 4.75347e-05 -2.0505e-07
-2.14644e-06 -2.0505e-07 -3.38925e-05
0.00151775 1.62701e-05 -1.83904e-06
1.62701e-05 8.0374e-05 -5.72566e-07
-1.83904e-06 -5.72566e-07 -3.4532e-06
0.0015218 8.23085e-06 4.05267e-08
8.23085e-06 8.6062e-05 -1.40846e-07
4.05267e-08 -1.40846e-07 2.65062e-06
0.00161242 -2.48169e-05 -5.13151e-08
-2.48169e-05 0.000114735 5.81745e-08
-5.13151e-08 5.81745e-08 3.69178e-05
0.00146534 9.41804e-06 -6.2215e-07
9.41804e-06 2.23042e-05 3.34322e-07
-6.2215e-07 3.34322e-07 -3.58912e-05
0.00152434 1.4502e-06 2.69069e-06
1.4502e-06 9.07106e-05 -3.32329e-07
2.69069e-06 -3.32329e-07 1.0046e-05
0.00164853 -1.69014e-05 2.69598e-06
-1.69014e-05 0.000114948 1.80449e-06
2.69598e-06 1.80449e-06 4.21286e-05
0.00136739 -1.66485e-05 3.08048e-06
-1.66485e-05 -2.48801e-05 6.33806e-07
3.08048e-06 6.33806e-07 -8.73987e-05
0.00149898 2.43953e-05 -2.07214e-06
2.43953e-05 6.90876e-05 -3.43355e-07
-2.07214e-06 -3.43355e-07 -1.5127e-05
0.00156366 7.99936e-06 -2.70913e-06
7.99936e-06 7.4747e-05 7.32914e-07
-2.70913e-06 7.32914e-07 -6.18623e-06
0.00151245 -2.81845e-05 -2.61872e-06
-2.81845e-05 6.26623e-05 1.70946e-06
-2.61872e-06 1.70946e-06 -2.64396e-06
0.00112222 -5.52322e-05 -6.24012e-07
-5.52322e-05 0.000102699 1.11531e-06
-6.24012e-07 1.11531e-06 2.59494e-05
0.000964339 -5.71803e-05 -7.63008e-07
-5.71803e-05 2.78407e-05 2.89188e-06
-7.63008e-07 2.89188e-06 -6.22907e-05
0.00134352 -7.15839e-05 -2.7391e-06
-7.15839e-05 0.000170925 2.97352e-06
-2.7391e-06 2.97352e-06 6.81126e-05
0.0015151 -5.37227e-05 9.09472e-07
-5.37227e-05 9.31394e-05 2.08547e-06
9.09472e-07 2.08547e-06 4.35238e-05
0.00120466 -6.3864e-05 -4.22848e-06
-6.3864e-05 -1.61701e-06 -1.96475e-06
-4.22848e-06 -1.96475e-06 -7.40901e-05
0.000912538 -5.01252e-05 -1.03525e-06
-5.01252e-05 -3.37919e-07 6.82299e-07
-1.03525e-06 6.82299e-07 -7.96941e-05
0.00109705 -5.41475e-05 -9.89817e-07
-5.41475e-05 9.16534e-05 -6.95546e-07
-9.89817e-07 -6.95546e-07 5.30687e-06
0.00108568 -3.86595e-05 -2.83117e-07
-3.86595e-05 9.9738e-05 4.59056e-07
-2.83117e-07 4.59056e-07 1.35088e-05
0.000934827 1.36406e-05 -6.8715e-07
1.36406e-05 3.24339e-06 1.27785e-06
-6.8715e-07 1.27785e-06 -2.60157e-05
0.00106222 1.55518e-05 -1.2414e-07
1.55518e-05 7.43925e-05 1.58032e-06
-1.2414e-07 1.58032e-06 2.32186e-05
0.00106048 -3.38778e-05 -1.26358e-06
-3.38778e-05 8.0807e-05 2.09933e-06
-1.26358e-06 2.09933e-06 8.83139e-06
0.00153547 2.89107e-05 2.2004e-07
2.89107e-05 8.2522e-05 2.92697e-07
2.2004e-07 2.92697e-07 6.53599e-07
0.000942993 1.02648e-05 -2.46252e-08
1.02648e-05 4.91196e-06 7.16603e-09
-2.46252e-08 7.16603e-09 -2.25922e-05
0.00087804 -2.30949e-06 -4.55653e-07
-2.30949e-06 -1.7933e-05 6.71803e-09
-4.55653e-07 6.71803e-09 -6.27133e-05
0.0016636 1.99762e-06 1.37921e-07
1.99762e-06 0.00011119 2.79524e-08
1.37921e-07 2.79524e-08 3.54018e-05
0.00136057 -3.92026e-05 -4.98575e-07
-3.92026e-05 -3.44078e-05 -3.13147e-07
-4.98575e-07 -3.13147e-07 -8.26292e-05
0.000919336 -5.24841e-05 -1.5358e-07
-5.24841e-05 1.02302e-05 7.86515e-07
-1.5358e-07 7.86515e-07 -7.29819e-05
0.00134927 -7.06023e-05 -5.08872e-07
-7.06023e-05 0.00020912 3.5656e-07
-5.08872e-07 3.5656e-07 0.00010419
0.0011863 -6.98254e-05 6.92673e-07
-6.98254e-05 6.20449e-05 7.68051e-07
6.92673e-07 7.68051e-07 -4.21135e-05
0.00164366 -6.78892e-05 1.19181e-07
-6.78892e-05 0.00014306 -1.03614e-06
1.19181e-07 -1.03614e-06 9.35072e-05
0.00102689 7.61037e-07 5.72215e-07
7.61037e-07 5.72446e-05 -4.85557e-07
5.72215e-07 -4.85557e-07 8.95929e-06
0.00106645 -1.66618e-05 -5.17486e-07
-1.66618e-05 8.3278e-05 5.15927e-07
-5.17486e-07 5.15927e-07 1.6044e-05
0.0010237 -5.41181e-05 4.17662e-07
-5.41181e-05 5.07025e-05 3.37111e-07
4.17662e-07 3.37111e-07 -3.12832e-05
0.00128385 -6.07493e-05 -1.01521e-06
-6.07493e-05 0.000195145 -2.89086e-07
-1.01521e-06 -2.89086e-07 0.000104348
0.000994851 -4.45899e-05 3.91978e-07
-4.45899e-05 5.74915e-05 3.30775e-07
3.91978e-07 3.30775e-07 -3.91441e-05
0.00102851 -2.9766e-05 2.37622e-07
-2.9766e-05 6.84061e-05 -2.7726e-07
2.37622e-07 -2.7726e-07 -1.36258e-05
0.00152153 3.08373e-05 3.21385e-06
3.08373e-05 6.84083e-05 8.2736e-07
3.21385e-06 8.2736e-07 -8.33915e-06
0.0017951 -9.38758e-06 3.22534e-06
-9.38758e-06 0.000166019 -8.6332e-07
3.22534e-06 -8.6332e-07 0.000102142
0.00170915 -6.17203e-05 2.32628e-07
-6.17203e-05 9.36521e-05 -3.66359e-06
2.32628e-07 -3.66359e-06 6.85148e-05
0.00145614 -7.87875e-05 3.94544e-06
-7.87875e-05 0.000120756 1.16987e-06
3.94544e-06 1.16987e-06 3.81049e-05
0.0011193 -5.84288e-05 -1.30731e-07
-5.84288e-05 0.000108613 -1.93958e-06
-1.30731e-07 -1.93958e-06 1.88443e-05
0.00161029 -8.33683e-05 1.76604e-06
-8.33683e-05 0.000329922 -2.69641e-06
1.76604e-06 -2.69641e-06 0.000208213
0.000776211 1.41067e-05 -3.19556e-07
1.41067e-05 -6.94885e-05 -1.65737e-06
-3.19556e-07 -1.65737e-06 -0.000112968
0.000969943 -9.99855e-06 7.80335e-07
-9.99855e-06 2.85909e-05 -1.28363e-06
7.80335e-07 -1.28363e-06 -1.74036e-05
0.00121964 -1.47082e-05 1.19794e-07
-1.47082e-05 0.000164453 -7.3933e-07
1.19794e-07 -7.3933e-07 0.000106671
0.000886648 9.33611e-06 -4.05268e-07
9.33611e-06 -5.23766e-06 -1.18457e-06
-4.05268e-07 -1.18457e-06 -7.11471e-05
0.00116303 -2.87495e-05 3.48887e-08
-2.87495e-05 0.000134404 -7.87355e-07
3.48887e-08 -7.87355e-07 5.6617e-05
0.000909105 -3.19369e-05 9.72252e-08
-3.19369e-05 1.49576e-05 -5.94469e-07
9.72252e-08 -5.94469e-07 -7.68405e-05
0.00120206 -4.78905e-05 2.39382e-06
-4.78905e-05 0.00017073 -7.78924e-07
2.39382e-06 -7.78924e-07 6.66831e-05
0.000999961 -5.86044e-05 1.99785e-07
-5.86044e-05 6.34498e-05 -2.45562e-07
1.99785e-07 -2.45562e-07 -2.803e-05
0.000930622 3.62614e-05 -3.76626e-07
3.62614e-05 1.34807e-05 -5.66219e-07
-3.76626e-07 -5.66219e-07 -6.03525e-05
0.00108592 5.20691e-05 -1.45488e-06
5.20691e-05 9.16537e-05 -7.61796e-07
-1.45488e-06 -7.61796e-07 8.66576e-06
0.00166162 3.18553e-05 -4.04941e-06
3.18553e-05 8.82761e-05 -3.22965e-06
-4.04941e-06 -3.22965e-06 4.01206e-05
0.00144615 6.21309e-05 -1.97607e-06
6.21309e-05 9.12075e-05 -1.67261e-08
-1.97607e-06 -1.67261e-08 2.25926e-05
0.00122589 5.67807e-05 -1.0447e-06
5.67807e-05 0.000155451 -3.23804e-07
-1.0447e-06 -3.23804e-07 7.01267e-05
0.00114343 5.73852e-05 -9.33202e-07
5.73852e-05 0.000120005 -1.82888e-06
-9.33202e-07 -1.82888e-06 3.33466e-05
0.00174909 8.30857e-05 -1.4874e-06
8.30857e-05 0.000330686 -6.53381e-07
-1.4874e-06 -6.53381e-07 0.000232986
0.000913851 5.98547e-05 -9.61305e-07
5.98547e-05 -1.16529e-05 -1.84264e-06
-9.61305e-07 -1.84264e-06 -0.000122475
0.001064 5.06463e-05 -3.37057e-07
5.06463e-05 8.67891e-05 -3.77018e-07
-3.37057e-07 -3.77018e-07 4.3524e-06
0.00143245 6.6933e-06 9.08712e-07
6.6933e-06 -2.49734e-05 7.37166e-07
9.08712e-07 7.37166e-07 -8.29433e-05
0.00109867 5.46551e-05 3.04139e-07
5.46551e-05 9.93257e-05 3.64234e-07
3.04139e-07 3.64234e-07 9.67508e-06
0.000974947 5.46142e-05 2.63864e-07
5.46142e-05 3.33785e-05 -2.74842e-07
2.63864e-07 -2.74842e-07 -6.36084e-05
0.00159836 5.66962e-05 3.77914e-07
5.66962e-05 3.24906e-05 -2.71083e-07
3.77914e-07 -2.71083e-07 -1.57301e-05
0.00150599 8.26161e-05 7.98209e-07
8.26161e-05 0.00014215 -5.36042e-07
7.98209e-07 -5.36042e-07 4.67603e-05
0.00154887 7.90949e-05 1.86812e-07
7.90949e-05 0.00029456 5.47013e-07
1.86812e-07 5.47013e-07 0.000174403
0.00113562 5.34452e-05 3.66024e-07
5.34452e-05 0.000125929 3.03061e-07
3.66024e-07 3.03061e-07 3.62414e-05
0.00185467 3.94286e-05 6.36778e-06
3.94286e-05 8.10364e-05 1.24062e-06
6.36778e-06 1.24062e-06 3.40316e-05
0.00137819 6.29763e-05 2.7354e-07
6.29763e-05 0.000229577 -2.41229e-08
2.7354e-07 -2.41229e-08 0.000136001
0.00156025 7.32383e-05 -1.25577e-06
7.32383e-05 0.000320636 2.09104e-06
-1.25577e-06 2.09104e-06 0.000207949
0.00110898 8.35183e-05 6.03166e-06
8.35183e-05 -0.000179036 2.6747e-06
6.03166e-06 2.6747e-06 -0.000259299
0.00109506 7.5519e-05 5.52574e-08
7.5519e-05 3.33488e-05 2.76337e-06
5.52574e-08 2.76337e-06 -9.03555e-05
0.00202486 -1.84538e-05 7.33567e-06
-1.84538e-05 0.000119253 -2.85967e-06
7.33567e-06 -2.85967e-06 0.000149759
0.00105692 4.037e-05 -4.45389e-07
4.037e-05 8.29034e-05 -7.60585e-07
-4.45389e-07 -7.60585e-07 4.14875e-06
0.00105627 4.76379e-05 3.11533e-08
4.76379e-05 8.49862e-05 -5.97623e-08
3.11533e-08 -5.97623e-08 -1.41067e-06
0.00121581 5.65845e-05 5.57105e-07
5.65845e-05 0.00015636 2.27225e-07
5.57105e-07 2.27225e-07 6.55472e-05
0.00096905 -1.14747e-05 3.74657e-07
-1.14747e-05 3.05554e-05 -1.06411e-06
3.74657e-07 -1.06411e-06 -1.6248e-05
0.000878076 -6.8956e-06 -7.21993e-08
-6.8956e-06 -1.12854e-05 -4.02733e-07
-7.21993e-08 -4.02733e-07 -7.38356e-05
0.00116243 3.35719e-05 -3.31823e-07
3.35719e-05 0.000136035 -2.62129e-07
-3.31823e-07 -2.62129e-07 6.2435e-05
0.000990276 3.12666e-05 -5.05048e-07
3.12666e-05 4.53215e-05 -1.25177e-06
-5.05048e-07 -1.25177e-06 -3.91348e-05
0.000979089 -1.57695e-05 -2.38124e-07
-1.57695e-05 3.58623e-05 1.47692e-08
-2.38124e-07 1.47692e-08 -1.08376e-05
0.000939676 1.30379e-05 2.284e-07
1.30379e-05 2.25712e-05 3.2899e-08
2.284e-07 3.2899e-08 -3.93492e-05
0.00110651 5.09835e-05 -6.10565e-07
5.09835e-05 9.88604e-05 -7.96467e-07
-6.10565e-07 -7.96467e-07 9.5059e-06
0.00105697 1.53902e-05 -9.18345e-08
1.53902e-05 8.04282e-05 -8.80743e-09
-9.18345e-08 -8.80743e-09 8.72705e-06
0.00107344 1.93862e-05 8.58324e-08
1.93862e-05 8.57017e-05 -1.72309e-08
8.58324e-08 -1.72309e-08 3.82842e-06
0.00110069 4.17192e-05 2.01584e-07
4.17192e-05 8.68818e-05 1.07755e-06
2.01584e-07 1.07755e-06 -3.55265e-06
0.00117229 3.6423e-05 2.0499e-07
3.6423e-05 0.000137035 2.9441e-07
2.0499e-07 2.9441e-07 5.69497e-05
0.00113967 3.41537e-05 3.12366e-07
3.41537e-05 0.000122907 4.44954e-07
3.12366e-07 4.44954e-07 5.13757e-05
0.000821257 8.09772e-06 -2.07805e-07
8.09772e-06 -3.71713e-05 9.11131e-07
-2.07805e-07 9.11131e-07 -9.96956e-05
0.000793068 7.4658e-06 4.1273e-07
7.4658e-06 -5.83776e-05 1.39855e-06
4.1273e-07 1.39855e-06 -0.00010639
0.00118643 -2.60065e-06 2.29412e-07
-2.60065e-06 0.000149111 2.8652e-07
2.29412e-07 2.8652e-07 8.69403e-05
0.00079474 -2.30191e-06 -3.15567e-07
-2.30191e-06 -5.76783e-05 1.41428e-06
-3.15567e-07 1.41428e-06 -0.000106099
0.00094395 1.11271e-05 2.56909e-07
1.11271e-05 5.78372e-06 1.66832e-06
2.56909e-07 1.66832e-06 -2.21752e-05
0.00094204 1.22928e-06 -2.76431e-07
1.22928e-06 4.44318e-06 2.58964e-09
-2.76431e-07 2.58964e-09 -2.3193e-05
0.000892648 1.04001e-07 1.41511e-07
1.04001e-07 -3.49751e-05 3.08789e-06
1.41511e-07 3.08789e-06 -3.45567e-05
0.000946728 -8.82854e-06 2.24935e-07
-8.82854e-06 5.94531e-06 -1.69202e-06
2.24935e-07 -1.69202e-06 -2.13959e-05
0.00118281 -3.1011e-06 -6.58729e-07
-3.1011e-06 0.000113177 -1.24287e-06
-6.58729e-07 -1.24287e-06 0.00011507
0.00224193 -4.69544e-06 3.08656e-06
-4.69544e-06 0.000650561 3.99693e-06
3.08656e-06 3.99693e-06 0.000674123
0.00148812 -6.38926e-06 -1.96402e-06
-6.38926e-06 0.000270248 -4.32479e-06
-1.96402e-06 -4.32479e-06 0.000273392
0.00108259 -7.0186e-06 1.03878e-06
-7.0186e-06 6.22744e-05 2.43357e-06
1.03878e-06 2.43357e-06 8.0118e-05
0.00102801 -9.98127e-06 -1.21337e-06
-9.98127e-06 3.76508e-05 -1.55924e-06
-1.21337e-06 -1.55924e-06 5.5087e-05
0.000955906 5.35504e-06 3.44218e-07
5.35504e-06 7.31297e-06 -1.81752e-06
3.44218e-07 -1.81752e-06 -1.69707e-05
0.000949486 7.68772e-06 -2.8984e-08
7.68772e-06 5.76394e-06 -1.65459e-09
-2.8984e-08 -1.65459e-09 -1.99112e-05
0.000876991 9.62778e-06 8.20639e-07
9.62778e-06 -3.85029e-05 -3.18861e-06
8.20639e-07 -3.18861e-06 -3.74314e-05
0.00116777 1.34372e-05 -4.08963e-07
1.34372e-05 0.000113158 2.69293e-08
-4.08963e-07 2.69293e-08 0.000113977
0.00222726 1.63787e-05 9.17375e-06
1.63787e-05 0.000650486 -3.89153e-06
9.17375e-06 -3.89153e-06 0.000672995
0.000891517 1.49193e-05 -1.76127e-06
1.49193e-05 -2.33259e-05 3.22746e-06
-1.76127e-06 3.22746e-06 -2.56751e-05
0.00227038 2.04597e-05 -7.30064e-07
2.04597e-05 0.000677448 -3.71871e-08
-7.30064e-07 -3.71871e-08 0.000698614
0.00231754 2.41911e-05 -1.44492e-05
2.41911e-05 0.000707012 3.93694e-06
-1.44492e-05 3.93694e-06 0.000726725
0.0014842 9.44299e-06 -2.33403e-06
9.44299e-06 3.55048e-05 -2.11941e-06
-2.33403e-06 -2.11941e-06 -2.09818e-05
0.00155211 -2.27691e-05 -2.0937e-06
-2.27691e-05 8.51684e-05 -1.78279e-07
-2.0937e-06 -1.78279e-07 6.39971e-06
0.00154649 4.58754e-06 -1.98763e-06
4.58754e-06 9.94463e-05 -4.75552e-07
-1.98763e-06 -4.75552e-07 1.62715e-05
0.00153062 1.75e-06 -1.57277e-07
1.75e-06 9.34258e-05 -6.08633e-07
-1.57277e-07 -6.08633e-07 1.27663e-05
0.00152971 -1.6418e-05 -2.17253e-07
-1.6418e-05 6.29692e-05 6.64287e-07
-2.17253e-07 6.64287e-07 -8.94575e-06
0.00142622 -1.88275e-05 1.32547e-06
-1.88275e-05 1.75407e-05 3.55298e-07
1.32547e-06 3.55298e-07 -4.76732e-05
0.00156652 3.30145e-06 2.32989e-06
3.30145e-06 0.000101916 -4.85126e-08
2.32989e-06 -4.85126e-08 2.93718e-05
0.00230674 -5.30948e-05 -1.20357e-06
-5.30948e-05 0.000335712 -5.85673e-06
-1.20357e-06 -5.85673e-06 0.000303911
0.00170658 7.66208e-06 3.96091e-06
7.66208e-06 0.00010586 7.63901e-07
3.96091e-06 7.63901e-07 5.61084e-05
0.000978638 -4.55568e-06 4.28523e-07
-4.55568e-06 3.17004e-05 -1.09282e-06
4.28523e-07 -1.09282e-06 -9.40366e-06
0.0015143 2.8789e-05 -2.76501e-06
2.8789e-05 7.25794e-05 -6.88842e-07
-2.76501e-06 -6.88842e-07 -8.89376e-06
0.00169645 1.43335e-06 -2.87596e-06
1.43335e-06 0.000125062 9.29776e-07
-2.87596e-06 9.29776e-07 4.95915e-05
0.00126738 -3.98232e-05 -1.29687e-06
-3.98232e-05 -7.6052e-05 2.76876e-06
-1.29687e-06 2.76876e-06 -0.000127356
0.000907605 -5.19321e-05 -2.81414e-07
-5.19321e-05 5.0731e-06 1.81452e-06
-2.81414e-07 1.81452e-06 -7.72657e-05
0.00123382 -6.81039e-05 -1.53234e-06
-6.81039e-05 0.000152071 4.56226e-06
-1.53234e-06 4.56226e-06 4.51145e-05
0.000933704 -6.32182e-05 -2.76323e-06
-6.32182e-05 -6.83378e-05 6.01177e-07
-2.76323e-06 6.01177e-07 -0.000170549
0.00140815 -6.55845e-05 -2.74678e-06
-6.55845e-05 3.12262e-05 -1.50712e-06
-2.74678e-06 -1.50712e-06 -1.87416e-05
0.00118906 -5.79803e-05 3.30971e-07
-5.79803e-05 0.000130908 1.22392e-07
3.30971e-07 1.22392e-07 4.87196e-05
0.000944106 -5.22624e-05 -4.15983e-06
-5.22624e-05 2.41176e-05 -2.14897e-06
-4.15983e-06 -2.14897e-06 -6.37988e-05
0.000907565 -4.18108e-05 -1.26704e-07
-4.18108e-05 1.6134e-05 9.97237e-07
-1.26704e-07 9.97237e-07 -8.18586e-05
0.000944708 1.01197e-05 -6.95789e-07
1.01197e-05 5.66413e-06 1.85923e-06
-6.95789e-07 1.85923e-06 -2.1853e-05
0.00106859 -2.96524e-05 3.47729e-08
-2.96524e-05 8.67908e-05 4.54686e-07
3.47729e-08 4.54686e-07 5.04625e-06
0.00123741 -1.46939e-05 -2.49918e-07
-1.46939e-05 0.000164429 7.59766e-07
-2.49918e-07 7.59766e-07 0.000117456
0.00104619 -8.12228e-06 -3.12066e-07
-8.12228e-06 7.37903e-05 1.84989e-06
-3.12066e-07 1.84989e-06 6.27296e-06
0.000773596 5.29633e-06 -2.03868e-07
5.29633e-06 -7.14514e-05 1.23826e-06
-2.03868e-07 1.23826e-06 -0.000116018
0.00154263 2.96403e-05 6.04681e-08
2.96403e-05 7.5676e-05 1.10269e-07
6.04681e-08 1.10269e-07 -9.13268e-07
0.000888349 1.0676e-06 3.03437e-07
1.0676e-06 -1.33582e-05 -4.62146e-07
3.03437e-07 -4.62146e-07 -5.62411e-05
0.000971116 -1.16868e-05 -1.52502e-07
-1.16868e-05 2.95372e-05 3.37842e-08
-1.52502e-07 3.37842e-08 -1.66147e-05
0.00102764 -4.97885e-06 -5.30772e-07
-4.97885e-06 6.74058e-05 4.74954e-07
-5.30772e-07 4.74954e-07 8.44969e-06
0.00170727 -9.40284e-06 8.46819e-07
-9.40284e-06 0.000117813 5.04042e-07
8.46819e-07 5.04042e-07 5.51383e-05
0.00154146 -6.13464e-05 -9.39808e-07
-6.13464e-05 1.75625e-05 -1.21131e-06
-9.39808e-07 -1.21131e-06 -1.1046e-05
0.00102788 -5.67438e-05 -1.77135e-07
-5.67438e-05 5.95493e-05 5.75971e-07
-1.77135e-07 5.75971e-07 -2.89781e-05
0.00121268 -7.37168e-05 1.04579e-06
-7.37168e-05 0.000138841 -4.74127e-07
1.04579e-06 -4.74127e-07 1.70642e-05
0.00132948 -7.62805e-05 -1.71454e-07
-7.62805e-05 5.89262e-05 7.36124e-07
-1.71454e-07 7.36124e-07 -2.26991e-05
0.000968512 5.8996e-06 -1.4885e-07
5.8996e-06 3.58143e-05 2.15819e-08
-1.4885e-07 2.15819e-08 -2.87829e-05
0.00113492 -2.96002e-05 1.82251e-08
-2.96002e-05 0.00012024 -2.13556e-08
1.82251e-08 -2.13556e-08 4.16223e-05
0.000959531 -5.72179e-05 -1.55663e-06
-5.72179e-05 4.19098e-05 1.23745e-07
-1.55663e-06 1.23745e-07 -5.01891e-05
0.00117394 -4.43619e-05 1.83194e-07
-4.43619e-05 0.000156582 -1.92325e-07
1.83194e-07 -1.92325e-07 5.3795e-05
0.000990758 -3.75041e-05 -6.08337e-08
-3.75041e-05 5.52601e-05 6.10372e-07
-6.08337e-08 6.10372e-07 -3.59434e-05
0.00138835 2.53439e-05 3.67467e-06
2.53439e-05 -2.51972e-05 2.42664e-07
3.67467e-06 2.42664e-07 -9.74681e-05
0.00202279 -3.52761e-05 3.23434e-06
-3.52761e-05 0.000213056 -3.52544e-06
3.23434e-06 -3.52544e-06 0.000190294
0.001806 -8.85755e-05 5.13027e-06
-8.85755e-05 0.0001807 -9.1183e-07
5.13027e-06 -9.1183e-07 0.000124239
0.00163134 -8.99736e-05 1.75714e-06
-8.99736e-05 0.000299489 -2.00355e-06
1.75714e-06 -2.00355e-06 0.000184743
0.00100309 -6.43696e-05 7.24032e-07
-6.43696e-05 6.91764e-05 -3.0725e-06
7.24032e-07 -3.0725e-06 -3.60291e-05
0.000786434 1.54097e-05 5.98793e-08
1.54097e-05 -5.35328e-05 -1.39012e-06
5.98793e-08 -1.39012e-06 -0.000111651
0.000889733 1.15375e-05 3.7499e-07
1.15375e-05 -2.58744e-06 -1.30177e-06
3.7499e-07 -1.30177e-06 -6.55341e-05
0.00115294 1.39141e-05 2.77069e-07
1.39141e-05 0.000134302 -2.9919e-07
2.77069e-07 -2.9919e-07 6.44913e-05
0.00109638 -3.67582e-05 6.32207e-07
-3.67582e-05 0.000104431 -1.02228e-06
6.32207e-07 -1.02228e-06 2.7369e-05
0.00107322 -3.78089e-05 -2.36122e-08
-3.78089e-05 9.27781e-05 -1.13555e-07
-2.36122e-08 -1.13555e-07 6.19794e-06
0.00110169 -3.73637e-05 -8.41108e-09
-3.73637e-05 0.000120426 -1.70098e-06
-8.41108e-09 -1.70098e-06 2.18992e-05
0.00102243 -4.9795e-05 3.98777e-06
-4.9795e-05 0.000105736 -7.00373e-07
3.98777e-06 -7.00373e-07 -1.54904e-05
0.00102967 5.10908e-05 -7.91748e-07
5.10908e-05 7.02267e-05 -9.72898e-07
-7.91748e-07 -9.72898e-07 -1.23039e-05
0.00100241 5.22124e-05 -1.61854e-07
5.22124e-05 5.16788e-05 9.94798e-08
-1.61854e-07 9.94798e-08 -3.77192e-05
0.00138434 5.16409e-06 -2.55883e-06
5.16409e-06 -5.09553e-05 -1.0288e-06
-2.55883e-06 -1.0288e-06 -0.000106966
0.00140662 5.1874e-05 -2.35439e-06
5.1874e-05 -5.56192e-05 -1.78646e-06
-2.35439e-06 -1.78646e-06 -0.000104614
0.00168132 8.81059e-05 -2.75602e-06
8.81059e-05 0.000221557 -1.50568e-06
-2.75602e-06 -1.50568e-06 0.00012679
0.000795973 5.01195e-05 -1.1873e-07
5.01195e-05 -5.82832e-05 -1.40381e-06
-1.1873e-07 -1.40381e-06 -0.000156402
0.00144425 7.69019e-05 -3.91043e-07
7.69019e-05 0.000247227 -8.16442e-07
-3.91043e-07 -8.16442e-07 0.00012723
0.00113498 5.36696e-05 7.80373e-08
5.36696e-05 0.000125849 8.931e-08
7.80373e-08 8.931e-08 3.66789e-05
0.00149741 3.63837e-05 -2.17174e-06
3.63837e-05 -9.20471e-05 1.94616e-07
-2.17174e-06 1.94616e-07 -0.000139042
0.00119597 5.81829e-05 -2.38733e-07
5.81829e-05 0.000141197 -3.37616e-07
-2.38733e-07 -3.37616e-07 4.81427e-05
0.00123382 6.40924e-05 -2.00215e-07
6.40924e-05 0.000168092 4.79948e-07
-2.00215e-07 4.79948e-07 5.56385e-05
0.00147572 8.66163e-05 2.5799e-06
8.66163e-05 -1.39838e-05 -9.39397e-07
2.5799e-06 -9.39397e-07 -9.13253e-05
0.00124955 7.99206e-05 -1.04572e-06
7.99206e-05 0.00011454 9.26231e-07
-1.04572e-06 9.26231e-07 -1.42699e-05
0.00182704 -1.56085e-05 -2.25988e-06
-1.56085e-05 2.89727e-05 -1.02852e-06
-2.25988e-06 -1.02852e-06 4.8455e-05
0.00117544 5.61039e-05 -2.19289e-07
5.61039e-05 0.000139589 -4.95964e-07
-2.19289e-07 -4.95964e-07 4.68344e-05
0.00115911 9.54323e-05 9.14656e-06
9.54323e-05 -0.000288522 2.42275e-06
9.14656e-06 2.42275e-06 -0.000350719
0.00128945 6.19828e-05 -1.16107e-06
6.19828e-05 0.000194785 -2.48741e-07
-1.16107e-06 -2.48741e-07 9.55437e-05
0.00110621 6.67741e-05 -1.81847e-06
6.67741e-05 0.000134351 1.80524e-06
-1.81847e-06 1.80524e-06 -2.52575e-06
0.000701871 9.25916e-05 1.47236e-07
9.25916e-05 -0.00022725 1.41117e-06
1.47236e-07 1.41117e-06 -0.000343063
0.00533015 -8.54462e-05 -1.87218e-05
-8.54462e-05 0.00187299 1.63765e-06
-1.87218e-05 1.63765e-06 0.00135422
0.00158113 -0.000114576 4.66585e-05
-0.000114576 -4.95248e-06 1.58587e-05
4.66585e-05 1.58587e-05 -0.000207327
0.00237285 6.42673e-05 3.82274e-06
6.42673e-05 0.000368408 5.02047e-06
3.82274e-06 5.02047e-06 0.000414715
-0.00240848 -0.00010675 -5.24506e-05
-0.00010675 -0.00139546 -2.07691e-05
-5.24506e-05 -2.07691e-05 -0.00140724
0.00128258 -0.00016348 -1.01335e-05
-0.00016348 -0.00014839 -2.94953e-07
-1.01335e-05 -2.94953e-07 0.000333202
0.00103871 4.72755e-05 -5.26281e-07
4.72755e-05 7.707e-05 -6.26953e-07
-5.26281e-07 -6.26953e-07 -9.34141e-06
0.00116872 5.50696e-05 -1.07474e-07
5.50696e-05 0.000134181 -5.20267e-08
-1.07474e-07 -5.20267e-08 4.34207e-05
0.00113795 5.34173e-05 6.25212e-07
5.34173e-05 0.000102536 7.67035e-07
6.25212e-07 7.67035e-07 9.39377e-06
0.000970794 -2.06938e-05 1.46482e-07
-2.06938e-05 3.23095e-05 -9.64754e-07
1.46482e-07 -9.64754e-07 -1.48031e-05
0.000879943 1.89805e-05 -1.0012e-08
1.89805e-05 -7.94937e-06 -1.03152e-06
-1.0012e-08 -1.03152e-06 -7.04609e-05
0.00104761 4.08159e-06 2.01986e-08
4.08159e-06 7.54421e-05 -6.92401e-07
2.01986e-08 -6.92401e-07 4.13087e-06
0.00114179 2.69341e-05 -2.5193e-07
2.69341e-05 0.000122204 -7.73681e-07
-2.5193e-07 -7.73681e-07 4.07981e-05
0.00104867 4.48104e-05 -1.08168e-06
4.48104e-05 6.88241e-05 -1.4486e-06
-1.08168e-06 -1.4486e-06 -2.02375e-05
0.00104653 3.58311e-05 -2.75791e-07
3.58311e-05 7.56564e-05 -4.95879e-07
-2.75791e-07 -4.95879e-07 2.79816e-06
0.000884913 5.05845e-06 1.65551e-07
5.05845e-06 -1.16674e-05 4.41583e-07
1.65551e-07 4.41583e-07 -5.92909e-05
0.000921465 4.33334e-06 -3.79326e-08
4.33334e-06 1.39572e-05 5.71953e-08
-3.79326e-08 5.71953e-08 -4.79483e-05
0.00110141 4.30097e-05 3.17534e-08
4.30097e-05 8.97125e-05 8.04163e-08
3.17534e-08 8.04163e-08 -2.25953e-07
0.00111062 3.51909e-05 -1.61801e-07
3.51909e-05 0.000105384 -4.60453e-07
-1.61801e-07 -4.60453e-07 2.50036e-05
0.00118186 5.5725e-05 -6.40453e-08
5.5725e-05 0.000144008 -6.56833e-08
-6.40453e-08 -6.56833e-08 6.34676e-05
0.00116601 5.05164e-05 2.89166e-07
5.05164e-05 0.00013017 1.15496e-06
2.89166e-07 1.15496e-06 4.02127e-05
0.0008989 2.38634e-05 2.27984e-07
2.38634e-05 -7.03518e-07 1.45844e-06
2.27984e-07 1.45844e-06 -7.43789e-05
0.000851337 2.91688e-07 2.95582e-07
2.91688e-07 -2.18018e-05 2.64999e-07
2.95582e-07 2.64999e-07 -8.45463e-05
0.000768971 -2.62424e-05 -9.73379e-07
-2.62424e-05 -6.92433e-05 1.41754e-06
-9.73379e-07 1.41754e-06 -0.000118125
0.00106112 7.32429e-06 -1.7985e-08
7.32429e-06 8.36176e-05 6.52514e-07
-1.7985e-08 6.52514e-07 2.18201e-05
0.00118442 2.88565e-05 1.95166e-07
2.88565e-05 0.000146625 4.62861e-07
1.95166e-07 4.62861e-07 7.42204e-05
0.000997989 -1.03206e-05 -2.13327e-07
-1.03206e-05 5.30484e-05 8.98707e-07
-2.13327e-07 8.98707e-07 -1.13555e-05
0.0010241 -8.43809e-07 3.47193e-07
-8.43809e-07 6.58836e-05 -4.92402e-07
3.47193e-07 -4.92402e-07 3.33191e-06
0.000968309 -2.30277e-05 -8.01758e-07
-2.30277e-05 3.11907e-05 9.36804e-07
-8.01758e-07 9.36804e-07 -1.72438e-05
0.000793939 3.34824e-06 1.61159e-07
3.34824e-06 -5.71619e-05 4.75573e-07
1.61159e-07 4.75573e-07 -0.000106047
0.000948517 9.2836e-06 5.43691e-09
9.2836e-06 7.9474e-06 1.67982e-06
5.43691e-09 1.67982e-06 -2.03904e-05
0.000942183 1.78985e-06 -2.30651e-07
1.78985e-06 4.80749e-06 -3.8597e-09
-2.30651e-07 -3.8597e-09 -2.31001e-05
0.000911911 2.89209e-06 -3.66688e-07
2.89209e-06 -2.45397e-05 4.33836e-06
-3.66688e-07 4.33836e-06 -2.44465e-05
0.000943786 -8.24202e-06 3.91738e-07
-8.24202e-06 5.37243e-06 -1.6566e-06
3.91738e-07 -1.6566e-06 -2.22641e-05
0.000896583 4.28549e-08 9.24605e-08
4.28549e-08 -3.29661e-05 2.37205e-09
9.24605e-08 2.37205e-09 -3.25721e-05
0.00224212 -9.06769e-07 -7.5911e-09
-9.06769e-07 0.000649968 4.00768e-06
-7.5911e-09 4.00768e-06 0.000673617
0.000913583 -2.7668e-06 -4.51311e-07
-2.7668e-06 -2.36086e-05 -4.35646e-06
-4.51311e-07 -4.35646e-06 -2.32948e-05
0.00165933 -4.10275e-06 -1.17842e-07
-4.10275e-06 0.000353937 2.7585e-08
-1.17842e-07 2.7585e-08 0.000374708
0.00103887 -6.72403e-06 -7.42237e-07
-6.72403e-06 3.97655e-05 -1.53697e-06
-7.42237e-07 -1.53697e-06 5.78596e-05
0.000958389 2.78467e-06 1.59318e-07
2.78467e-06 7.25183e-06 -1.82877e-06
1.59318e-07 -1.82877e-06 -1.61695e-05
0.000953576 4.98633e-06 -3.51118e-09
4.98633e-06 5.8648e-06 -7.60069e-09
-3.51118e-09 -7.60069e-09 -1.83814e-05
0.000886458 6.60852e-06 5.48312e-07
6.60852e-06 -3.66508e-05 -3.16835e-06
5.48312e-07 -3.16835e-06 -3.43471e-05
0.000948091 7.41346e-06 -5.60588e-07
7.41346e-06 4.80982e-06 1.82935e-06
-5.60588e-07 1.82935e-06 -2.08279e-05
0.00116121 1.03754e-05 -1.38955e-07
1.03754e-05 0.000105857 -6.02615e-07
-1.38955e-07 -6.02615e-07 0.000108314
0.00219009 1.22921e-05 6.9274e-06
1.22921e-05 0.000627963 -3.88768e-06
6.9274e-06 -3.88768e-06 0.000651488
0.000890304 1.25239e-05 -1.38759e-06
1.25239e-05 -2.79211e-05 3.20846e-06
-1.38759e-06 3.20846e-06 -2.86917e-05
0.00225066 1.60076e-05 -3.54463e-06
1.60076e-05 0.000663281 1.13291e-06
-3.54463e-06 1.13291e-06 0.000685496
0.00227405 2.04826e-05 -1.23739e-05
2.04826e-05 0.000679917 3.94854e-06
-1.23739e-05 3.94854e-06 0.000700917
0.00137329 -1.53035e-05 -2.64305e-06
-1.53035e-05 -6.81593e-06 -2.05361e-07
-2.64305e-06 -2.05361e-07 -7.78604e-05
0.00153545 1.50344e-06 -2.68233e-06
1.50344e-06 9.53859e-05 -9.6916e-07
-2.68233e-06 -9.6916e-07 1.47224e-05
0.00143416 -1.94555e-05 1.73173e-06
-1.94555e-05 3.5793e-05 4.64818e-07
1.73173e-06 4.64818e-07 -3.22347e-05
0.00178012 -4.55876e-05 -1.24926e-06
-4.55876e-05 8.34506e-05 -2.01437e-06
-1.24926e-06 -2.01437e-06 5.25047e-05
0.00145341 1.54871e-06 -7.2533e-07
1.54871e-06 4.63794e-05 -3.48259e-07
-7.2533e-07 -3.48259e-07 -2.67009e-05
0.00132565 7.2199e-06 -1.00135e-06
7.2199e-06 -7.35857e-05 -4.19411e-07
-1.00135e-06 -4.19411e-07 -0.000128521
0.00171223 3.07744e-05 2.47459e-06
3.07744e-05 0.000100888 2.31239e-06
2.47459e-06 2.31239e-06 2.3543e-05
0.00227007 -0.000114994 0.000127767
-0.000114994 0.000431752 3.67099e-05
0.000127767 3.67099e-05 0.000195643
0.00130732 -6.78405e-06 -3.36509e-06
-6.78405e-06 4.3172e-05 4.8194e-07
-3.36509e-06 4.8194e-07 -6.46899e-07
0.000977682 -3.2418e-07 -2.6753e-07
-3.2418e-07 3.19395e-05 -1.08139e-06
-2.6753e-07 -1.08139e-06 -9.1459e-06
0.000983013 -1.40148e-05 2.72765e-07
-1.40148e-05 3.42444e-05 -2.49316e-09
2.72765e-07 -2.49316e-09 -7.20246e-06
0.000995536 6.60048e-06 -2.33771e-07
6.60048e-06 5.03188e-05 -7.29479e-07
-2.33771e-07 -7.29479e-07 -4.12077e-06
0.00100725 -1.32454e-05 -2.47902e-07
-1.32454e-05 5.60388e-05 -2.69842e-07
-2.47902e-07 -2.69842e-07 1.13467e-06
0.00158448 2.87693e-05 -3.0527e-06
2.87693e-05 9.33906e-05 -7.40712e-07
-3.0527e-06 -7.40712e-07 1.68861e-05
0.0016965 -9.64492e-06 -8.43753e-07
-9.64492e-06 0.000108835 1.65875e-06
-8.43753e-07 1.65875e-06 4.69856e-05
0.00135202 -6.08999e-05 -3.86966e-06
-6.08999e-05 -6.88286e-05 1.19715e-06
-3.86966e-06 1.19715e-06 -0.000101359
0.00100443 -5.66306e-05 -3.96712e-07
-5.66306e-05 4.46401e-05 2.95478e-06
-3.96712e-07 2.95478e-06 -4.28332e-05
0.000809392 -6.37463e-05 -3.11885e-07
-6.37463e-05 -5.44081e-05 2.58389e-06
-3.11885e-07 2.58389e-06 -0.000176047
0.00109605 -7.17876e-05 -3.17598e-06
-7.17876e-05 -5.67735e-05 -4.70887e-07
-3.17598e-06 -4.70887e-07 -0.000136965
0.00091028 -5.56043e-05 -3.90991e-06
-5.56043e-05 1.64245e-05 1.42957e-06
-3.90991e-06 1.42957e-06 -7.63467e-05
0.00111539 -3.90531e-05 -1.03429e-06
-3.90531e-05 0.000126903 5.49159e-07
-1.03429e-06 5.49159e-07 2.57148e-05
0.00106874 -4.35138e-05 -4.48302e-07
-4.35138e-05 9.38433e-05 1.69605e-06
-4.48302e-07 1.69605e-06 3.1852e-06
0.000973823 -1.77602e-06 -6.46092e-07
-1.77602e-06 3.09231e-05 1.28718e-06
-6.46092e-07 1.28718e-06 -1.51883e-05
0.00110596 -3.29265e-05 -1.08141e-07
-3.29265e-05 0.000105577 9.28035e-07
-1.08141e-07 9.28035e-07 2.61562e-05
0.00105393 3.83402e-06 -5.17967e-07
3.83402e-06 7.85122e-05 1.12755e-06
-5.17967e-07 1.12755e-06 1.52846e-05
0.00100058 -5.95063e-06 -1.05162e-07
-5.95063e-06 4.28809e-05 6.68184e-07
-1.05162e-07 6.68184e-07 5.45191e-07
0.000827266 1.24565e-05 -1.08652e-07
1.24565e-05 -3.30728e-05 1.76051e-06
-1.08652e-07 1.76051e-06 -9.35933e-05
0.00156978 2.57233e-05 -2.21432e-08
2.57233e-05 6.91358e-05 1.33156e-06
-2.21432e-08 1.33156e-06 -2.08124e-06
0.000981712 1.31007e-05 8.39219e-08
1.31007e-05 4.43198e-05 -4.93646e-07
8.39219e-08 -4.93646e-07 -1.21011e-05
0.000950956 -9.38542e-07 3.70729e-07
-9.38542e-07 2.87686e-05 -5.64716e-09
3.70729e-07 -5.64716e-09 -3.34036e-05
0.00103229 2.20666e-05 -8.7484e-08
2.20666e-05 7.24969e-05 9.64973e-07
-8.7484e-08 9.64973e-07 3.41826e-06
0.00187562 -3.70334e-05 -2.48377e-06
-3.70334e-05 0.000148661 1.13012e-06
-2.48377e-06 1.13012e-06 0.000120327
0.00138375 -8.05544e-05 -1.1286e-06
-8.05544e-05 -2.5958e-05 -1.3142e-06
-1.1286e-06 -1.3142e-06 -8.0012e-05
0.00107851 -6.59736e-05 7.61721e-08
-6.59736e-05 0.000104451 -3.13119e-07
7.61721e-08 -3.13119e-07 -7.65364e-07
0.00141488 -8.5418e-05 1.6305e-07
-8.5418e-05 0.000196415 3.114e-07
1.6305e-07 3.114e-07 8.19806e-05
0.00113252 -2.64589e-05 -1.79387e-07
-2.64589e-05 0.000122279 8.84892e-08
-1.79387e-07 8.84892e-08 4.63256e-05
0.00103393 -3.65196e-05 -2.73282e-07
-3.65196e-05 7.17564e-05 7.28627e-07
-2.73282e-07 7.28627e-07 -1.4294e-05
0.00103174 -5.00723e-05 1.61287e-06
-5.00723e-05 0.000105186 -3.21274e-07
1.61287e-06 -3.21274e-07 -1.11291e-05
0.00117216 -4.19356e-05 7.18601e-08
-4.19356e-05 0.000155642 -5.30947e-07
7.18601e-08 -5.30947e-07 5.5583e-05
0.000998982 1.72562e-05 4.46923e-06
1.72562e-05 -0.000285542 -8.59099e-07
4.46923e-06 -8.59099e-07 -0.0003443
0.00243446 -9.58231e-05 1.05874e-05
-9.58231e-05 0.000342134 -6.27182e-06
1.05874e-05 -6.27182e-06 0.000315208
0.00172416 -9.97483e-05 6.04748e-06
-9.97483e-05 0.000260802 -1.14777e-06
6.04748e-06 -1.14777e-06 0.000151784
0.00112199 -7.8361e-05 9.76625e-07
-7.8361e-05 0.000129545 -2.42117e-06
9.76625e-07 -2.42117e-06 1.08214e-05
0.000952361 1.54151e-05 -4.17474e-07
1.54151e-05 3.46109e-05 -8.77441e-07
-4.17474e-07 -8.77441e-07 -3.84915e-05
0.000969364 -3.23752e-05 8.03237e-07
-3.23752e-05 4.30904e-05 -1.76176e-06
8.03237e-07 -1.76176e-06 -3.1648e-05
0.00104046 -5.064e-05 6.05136e-07
-5.064e-05 8.04483e-05 -1.19904e-06
6.05136e-07 -1.19904e-06 -1.06299e-05
0.0011327 -3.04101e-05 -4.46685e-07
-3.04101e-05 0.000153062 -1.07964e-06
-4.46685e-07 -1.07964e-06 2.61415e-05
0.000716817 -8.46128e-06 -7.69978e-06
-8.46128e-06 -0.000268388 -1.70729e-06
-7.69978e-06 -1.70729e-06 -0.000762567
0.00112429 5.39645e-05 -2.61171e-07
5.39645e-05 0.00012092 -3.19349e-07
-2.61171e-07 -3.19349e-07 3.22481e-05
0.000994208 5.28515e-05 3.52836e-07
5.28515e-05 4.28395e-05 8.265e-08
3.52836e-07 8.265e-08 -4.96159e-05
0.00138609 3.58772e-05 -7.38595e-06
3.58772e-05 -0.000151418 -2.65593e-07
-7.38595e-06 -2.65593e-07 -0.000197956
0.00189661 8.97347e-05 -5.05355e-06
8.97347e-05 0.000177431 -2.35879e-06
-5.05355e-06 -2.35879e-06 0.000102852
0.00136411 8.34885e-05 -1.89397e-06
8.34885e-05 0.000177388 -8.63698e-07
-1.89397e-06 -8.63698e-07 4.26925e-05
0.000947641 5.58773e-05 1.13322e-06
5.58773e-05 3.60072e-05 -1.82333e-07
1.13322e-06 -1.82333e-07 -7.64488e-05
0.00146706 -5.6881e-06 -6.6609e-06
-5.6881e-06 -0.000147675 -2.07113e-06
-6.6609e-06 -2.07113e-06 -0.000128434
0.00116252 5.57251e-05 1.07125e-08
5.57251e-05 0.000134599 -9.70583e-08
1.07125e-08 -9.70583e-08 4.20194e-05
0.00174029 0.000102394 4.01878e-07
0.000102394 -2.68621e-05 -8.81863e-08
4.01878e-07 -8.81863e-08 -8.8441e-05
0.00111542 5.72007e-05 6.1799e-07
5.72007e-05 0.000112272 -6.28938e-09
6.1799e-07 -6.28938e-09 1.30993e-05
0.00108401 6.63263e-05 -3.22414e-07
6.63263e-05 0.000123844 -8.28398e-08
-3.22414e-07 -8.28398e-08 -1.08708e-05
0.000767423 9.22571e-05 -2.08871e-06
9.22571e-05 -0.000198248 1.23366e-07
-2.08871e-06 1.23366e-07 -0.000310716
0.00160708 -8.01843e-05 -1.2807e-05
-8.01843e-05 0.000255506 -4.88601e-06
-1.2807e-05 -4.88601e-06 -0.000277498
0.00231058 -0.00011081 3.08741e-06
-0.00011081 0.000181942 -4.356e-06
3.08741e-06 -4.356e-06 -9.71189e-05
0.00173007 6.69432e-05 -6.52109e-07
6.69432e-05 5.65963e-05 4.37749e-07
-6.52109e-07 4.37749e-07 0.000111719
-0.000242259 -0.000123114 -9.17452e-06
-0.000123114 -0.000464236 -5.34823e-06
-9.17452e-06 -5.34823e-06 -0.000541776
0.000502511 -0.000164686 -2.00527e-06
-0.000164686 -0.000505834 -8.95378e-07
-2.00527e-06 -8.95378e-07 -8.28511e-05
0.00110418 5.49066e-05 1.29481e-06
5.49066e-05 0.00010685 -2.11484e-07
1.29481e-06 -2.11484e-07 1.29563e-05
1.28716e-05 3.28104e-05 -0.000103743
3.28104e-05 -0.000337239 -9.60038e-06
-0.000103743 -9.60038e-06 -0.000545343
0.00240085 -7.78399e-05 -1.65145e-06
-7.78399e-05 0.000914356 -2.92213e-06
-1.65145e-06 -2.92213e-06 0.00107312
0.00168326 0.000130129 5.74692e-06
0.000130129 0.000100204 5.28338e-06
5.74692e-06 5.28338e-06 2.88007e-05
0.000822192 3.62165e-05 -2.25082e-07
3.62165e-05 -2.1882e-05 -6.37638e-07
-2.25082e-07 -6.37638e-07 -0.00013253
0.00158855 6.04918e-05 -3.92423e-06
6.04918e-05 0.000416081 2.68591e-06
-3.92423e-06 2.68591e-06 0.000245587
0.0014931 5.2281e-05 -2.83321e-06
5.2281e-05 6.28702e-05 -3.58202e-06
-2.83321e-06 -3.58202e-06 1.13016e-05
0.00506365 -0.000174198 -7.20263e-05
-0.000174198 0.00152755 -1.72746e-05
-7.20263e-05 -1.72746e-05 0.000795587
0.0020112 -3.7257e-05 2.62772e-05
-3.7257e-05 4.10329e-05 2.55845e-05
2.62772e-05 2.55845e-05 -0.00029229
0.00038588 -0.000203677 -5.73948e-05
-0.000203677 -0.000104622 -2.84486e-05
-5.73948e-05 -2.84486e-05 -5.19065e-06
-0.000724971 -7.97768e-05 -3.37743e-06
-7.97768e-05 -0.00121662 6.08245e-06
-3.37743e-06 6.08245e-06 -0.000995032
0.0010888 5.24612e-05 -1.01648e-06
5.24612e-05 9.61738e-05 -7.11419e-07
-1.01648e-06 -7.11419e-07 5.50207e-06
0.00116145 5.44664e-05 -4.98742e-07
5.44664e-05 0.000115875 2.89451e-07
-4.98742e-07 2.89451e-07 2.26053e-05
0.00124572 5.70787e-05 -2.29793e-07
5.70787e-05 0.000146482 2.92851e-07
-2.29793e-07 2.92851e-07 5.0203e-05
0.000975674 2.68196e-06 5.38929e-09
2.68196e-06 3.48124e-05 -4.9232e-07
5.38929e-09 -4.9232e-07 -1.26487e-05
0.00101999 -4.65384e-06 1.33172e-07
-4.65384e-06 6.40068e-05 -9.67758e-07
1.33172e-07 -9.67758e-07 2.87678e-06
0.00095392 2.58048e-05 -6.70254e-07
2.58048e-05 2.71803e-05 -1.24048e-06
-6.70254e-07 -1.24048e-06 -4.60452e-05
0.00105082 3.48494e-05 -3.18056e-07
3.48494e-05 7.46291e-05 -1.1486e-06
-3.18056e-07 -1.1486e-06 -6.14428e-06
0.00109834 4.08295e-05 -5.21859e-07
4.08295e-05 9.06173e-05 -1.06515e-06
-5.21859e-07 -1.06515e-06 1.26468e-06
0.00077996 -6.01862e-06 2.78665e-07
-6.01862e-06 -6.42039e-05 4.59945e-07
2.78665e-07 4.59945e-07 -0.000112886
0.00109239 4.48359e-05 -4.23937e-07
4.48359e-05 9.74519e-05 -7.04039e-07
-4.23937e-07 -7.04039e-07 1.75639e-05
0.00105612 9.31265e-06 -1.71273e-08
9.31265e-06 7.95827e-05 4.69894e-07
-1.71273e-08 4.69894e-07 6.72652e-06
0.000938795 9.003e-06 1.85979e-07
9.003e-06 2.21113e-05 -3.75437e-07
1.85979e-07 -3.75437e-07 -4.00798e-05
0.00103706 4.7865e-05 1.99431e-08
4.7865e-05 6.36299e-05 2.58016e-07
1.99431e-08 2.58016e-07 -2.72831e-05
0.00108072 4.03576e-05 2.77082e-08
4.03576e-05 9.00232e-05 5.78431e-07
2.77082e-08 5.78431e-07 5.97908e-06
0.00122319 5.17587e-05 2.71595e-07
5.17587e-05 0.000173759 8.61658e-07
2.71595e-07 8.61658e-07 7.20617e-05
0.00102728 -3.11792e-05 -3.68401e-07
-3.11792e-05 6.57153e-05 6.68965e-07
-3.68401e-07 6.68965e-07 -7.01446e-06
0.00104606 -2.29417e-05 -2.54279e-07
-2.29417e-05 7.56935e-05 1.93948e-07
-2.54279e-07 1.93948e-07 1.3982e-05
0.00105871 -4.67083e-06 -2.1563e-07
-4.67083e-06 8.2276e-05 -5.55949e-08
-2.1563e-07 -5.55949e-08 2.07007e-05
0.00105908 1.26422e-05 -1.379e-07
1.26422e-05 8.18016e-05 -4.23522e-07
-1.379e-07 -4.23522e-07 9.01243e-06
0.00105199 1.04436e-05 1.00968e-07
1.04436e-05 7.93307e-05 8.57148e-07
1.00968e-07 8.57148e-07 5.9666e-06
0.0010379 7.30152e-07 -4.2435e-08
7.30152e-07 7.19583e-05 9.6168e-07
-4.2435e-08 9.6168e-07 -2.41981e-06
0.00113332 9.76928e-06 -1.58625e-08
9.76928e-06 0.000115491 1.84335e-08
-1.58625e-08 1.84335e-08 3.60484e-05
0.00101356 -3.16882e-05 -4.86744e-07
-3.16882e-05 6.61862e-05 1.05025e-06
-4.86744e-07 1.05025e-06 -1.60859e-05
0.00100624 -1.38898e-05 -2.16253e-07
-1.38898e-05 5.55763e-05 9.70419e-07
-2.16253e-07 9.70419e-07 -1.06845e-05
0.000998548 -1.26498e-05 3.49996e-08
-1.26498e-05 5.31943e-05 -2.15707e-08
3.49996e-08 -2.15707e-08 -1.10397e-05
0.000974774 -1.05184e-05 -5.7198e-07
-1.05184e-05 3.32114e-05 1.04923e-06
-5.7198e-07 1.04923e-06 -1.61126e-05
0.000865397 -1.94046e-06 3.01627e-07
-1.94046e-06 -1.57117e-05 -1.25176e-06
3.01627e-07 -1.25176e-06 -7.85572e-05
0.000882175 -1.09603e-05 1.42541e-07
-1.09603e-05 -1.30692e-05 -2.02678e-09
1.42541e-07 -2.02678e-09 -6.16722e-05
0.000953912 6.50354e-06 -2.97781e-07
6.50354e-06 1.08005e-05 1.71112e-06
-2.97781e-07 1.71112e-06 -1.82749e-05
0.000795951 2.62527e-06 1.29378e-07
2.62527e-06 -5.6063e-05 -4.99019e-07
1.29378e-07 -4.99019e-07 -0.000104893
0.000946436 1.33943e-06 -1.6999e-07
1.33943e-06 6.79197e-06 -1.55553e-08
-1.6999e-07 -1.55553e-08 -2.15237e-05
0.00149147 6.23453e-06 -2.27915e-06
6.23453e-06 0.000272099 4.30142e-06
-2.27915e-06 4.30142e-06 0.000274688
0.000940413 -7.49748e-06 5.48373e-07
-7.49748e-06 3.8885e-06 -1.66005e-06
5.48373e-07 -1.66005e-06 -2.40073e-05
0.00119627 3.11736e-06 -8.1688e-07
3.11736e-06 0.000120218 6.12411e-07
-8.1688e-07 6.12411e-07 0.000121772
0.00108871 1.89935e-06 -1.86613e-06
1.89935e-06 6.27645e-05 3.8998e-06
-1.86613e-06 3.8998e-06 8.06596e-05
0.000900608 -2.03594e-08 4.46189e-08
-2.03594e-08 -3.09042e-05 -3.07673e-06
4.46189e-08 -3.07673e-06 -3.05368e-05
0.0022402 -6.99878e-07 1.11857e-06
-6.99878e-07 0.000648995 -3.00602e-11
1.11857e-06 -3.00602e-11 0.000672647
0.00108511 -2.89864e-06 -9.06187e-07
-2.89864e-06 6.15054e-05 -3.90374e-06
-9.06187e-07 -3.90374e-06 7.94963e-05
0.000984244 1.99377e-05 2.07953e-07
1.99377e-05 3.51894e-05 -5.65648e-07
2.07953e-07 -5.65648e-07 -6.54546e-06
0.000958617 5.7027e-07 5.42152e-08
5.7027e-07 7.01147e-06 -1.807e-06
5.42152e-08 -1.807e-06 -1.62115e-05
0.000956817 2.40839e-06 -4.60721e-08
2.40839e-06 6.28332e-06 -1.25702e-08
-4.60721e-08 -1.25702e-08 -1.71175e-05
0.000893957 3.40376e-06 2.40748e-07
3.40376e-06 -3.46536e-05 -3.17932e-06
2.40748e-07 -3.17932e-06 -3.16065e-05
0.000951336 4.63504e-06 -4.03005e-07
4.63504e-06 4.4754e-06 1.83039e-06
-4.03005e-07 1.83039e-06 -1.97362e-05
0.000890309 6.65815e-06 5.53231e-08
6.65815e-06 -3.49766e-05 -6.17915e-07
5.53231e-08 -6.17915e-07 -3.26039e-05
0.00216194 8.18164e-06 4.54762e-06
8.18164e-06 0.000611029 -3.91026e-06
4.54762e-06 -3.91026e-06 0.000635301
0.00143795 1.17233e-05 -1.26482e-06
1.17233e-05 0.000246968 1.96667e-06
-1.26482e-06 1.96667e-06 0.000250582
0.00165046 1.09003e-05 2.02983e-07
1.09003e-05 0.000354112 1.20491e-06
2.02983e-07 1.20491e-06 0.000374573
0.0011262 1.25884e-05 -9.77724e-06
1.25884e-05 9.13924e-05 6.40126e-06
-9.77724e-06 6.40126e-06 0.000107868
0.000688587 -3.62775e-05 -4.82551e-06
-3.62775e-05 -0.000433505 8.25692e-07
-4.82551e-06 8.25692e-07 -0.000459702
0.00138128 -1.31914e-06 -2.7305e-06
-1.31914e-06 1.07405e-05 -3.21952e-07
-2.7305e-06 -3.21952e-07 -6.28937e-05
0.000924291 5.9366e-06 -7.18776e-06
5.9366e-06 -0.000262072 -3.98915e-06
-7.18776e-06 -3.98915e-06 -0.00032223
0.00110597 -9.18021e-05 3.59231e-05
-9.18021e-05 7.37675e-05 5.96436e-06
3.59231e-05 5.96436e-06 -0.000154592
0.00122186 -1.32669e-05 -1.87309e-06
-1.32669e-05 7.70302e-06 -7.32952e-07
-1.87309e-06 -7.32952e-07 -3.1906e-05
0.00150066 3.2059e-05 -1.89368e-06
3.2059e-05 -8.14515e-06 -1.45437e-06
-1.89368e-06 -1.45437e-06 -8.5544e-05
0.0012543 4.65078e-05 2.99621e-06
4.65078e-05 2.73811e-05 1.23988e-06
2.99621e-06 1.23988e-06 -2.95598e-05
0.000984955 -3.4692e-05 0.000105111
-3.4692e-05 1.20728e-05 7.19408e-06
0.000105111 7.19408e-06 -0.000233609
0.00465135 8.0644e-05 -2.20912e-05
8.0644e-05 0.00135673 -4.54719e-06
-2.20912e-05 -4.54719e-06 0.000714162
0.00249981 0.000199264 -4.05456e-05
0.000199264 0.000902506 1.91961e-05
-4.05456e-05 1.91961e-05 0.000832407
0.00105097 0.000129515 -1.02322e-05
0.000129515 -4.6478e-05 2.61624e-06
-1.02322e-05 2.61624e-06 0.000266159
0.000795566 -4.01151e-06 7.03975e-07
-4.01151e-06 -4.93802e-05 -1.10785e-06
7.03975e-07 -1.10785e-06 -0.000105167
0.00098201 -7.33335e-06 -8.80094e-08
-7.33335e-06 3.39518e-05 1.77108e-09
-8.80094e-08 1.77108e-09 -7.04483e-06
0.000991447 -2.26874e-05 -6.13816e-07
-2.26874e-05 3.88628e-05 1.09618e-06
-6.13816e-07 1.09618e-06 -2.93489e-06
0.000922954 1.13304e-05 -1.87489e-07
1.13304e-05 1.44678e-05 1.22943e-08
-1.87489e-07 1.22943e-08 -4.06261e-05
0.00110411 3.64904e-05 1.48171e-07
3.64904e-05 0.000110473 1.61636e-07
1.48171e-07 1.61636e-07 4.50077e-05
0.00106625 4.60741e-05 2.15572e-07
4.60741e-05 9.0043e-05 8.9628e-08
2.15572e-07 8.9628e-08 2.62168e-05
0.00103081 2.96111e-06 4.5699e-07
2.96111e-06 6.92358e-05 -1.61233e-06
4.5699e-07 -1.61233e-06 1.23549e-05
0.000939612 -1.80536e-05 -2.61269e-07
-1.80536e-05 2.20541e-05 4.84313e-07
-2.61269e-07 4.84313e-07 -3.31436e-05
0.00174376 2.60333e-05 -3.37041e-06
2.60333e-05 0.000159637 3.72372e-07
-3.37041e-06 3.72372e-07 8.9522e-05
0.0016603 -3.81153e-05 -2.12329e-06
-3.81153e-05 4.84875e-05 1.97244e-06
-2.12329e-06 1.97244e-06 1.55361e-05
0.00108455 -7.4401e-05 -9.08995e-06
-7.4401e-05 -0.000170423 -2.11819e-07
-9.08995e-06 -2.11819e-07 -0.000222193
0.00110014 -6.6304e-05 -4.04925e-07
-6.6304e-05 0.000112449 2.30465e-06
-4.04925e-07 2.30465e-06 7.23442e-06
0.00131863 -8.34445e-05 -1.48003e-06
-8.34445e-05 0.000153055 2.8719e-06
-1.48003e-06 2.8719e-06 3.85091e-05
0.0010421 -5.05646e-05 -4.82331e-07
-5.05646e-05 0.000105597 9.33243e-07
-4.82331e-07 9.33243e-07 -6.43005e-06
0.00123924 -4.69814e-05 1.5394e-07
-4.69814e-05 0.000189332 7.17027e-07
1.5394e-07 7.17027e-07 8.75183e-05
0.000994679 -3.56927e-05 -5.92674e-07
-3.56927e-05 5.09179e-05 1.3328e-06
-5.92674e-07 1.3328e-06 -3.46412e-05
0.0010089 -1.122e-05 -3.05119e-07
-1.122e-05 5.86829e-05 1.27785e-06
-3.05119e-07 1.27785e-06 -2.84228e-06
0.00116934 -1.85926e-05 -3.73616e-07
-1.85926e-05 0.000140749 9.61921e-07
-3.73616e-07 9.61921e-07 6.57304e-05
0.00119027 5.25297e-06 -2.30252e-07
5.25297e-06 0.00014889 4.90992e-07
-2.30252e-07 4.90992e-07 9.40852e-05
0.000934239 2.96754e-05 4.59581e-07
2.96754e-05 2.18279e-05 2.2597e-06
4.59581e-07 2.2597e-06 -4.65465e-05
0.00168957 2.76818e-05 9.3772e-07
2.76818e-05 3.98063e-05 -3.04545e-06
9.3772e-07 -3.04545e-06 -1.72293e-05
0.000980528 1.62636e-05 -2.29563e-07
1.62636e-05 4.92138e-05 2.97061e-07
-2.29563e-07 2.97061e-07 -2.3244e-05
0.00101649 -3.28481e-05 1.31946e-07
-3.28481e-05 6.71186e-05 -4.42181e-07
1.31946e-07 -4.42181e-07 -7.63545e-06
0.00187283 -8.78613e-05 -5.19818e-06
-8.78613e-05 8.05873e-05 -1.35079e-06
-5.19818e-06 -1.35079e-06 5.89289e-05
0.000965103 -8.51093e-05 1.76536e-06
-8.51093e-05 -0.00010522 1.72745e-06
1.76536e-06 1.72745e-06 -0.000210758
0.00113299 -7.97582e-05 4.18567e-07
-7.97582e-05 0.000134293 -6.62017e-07
4.18567e-07 -6.62017e-07 1.00009e-05
0.00107227 -4.37149e-05 -1.22615e-08
-4.37149e-05 9.42976e-05 -1.63198e-07
-1.22615e-08 -1.63198e-07 3.29276e-06
0.00113555 -3.40811e-05 -1.56314e-07
-3.40811e-05 0.000153132 2.23996e-07
-1.56314e-07 2.23996e-07 2.64878e-05
0.00196005 -4.26994e-05 7.15141e-07
-4.26994e-05 -1.74576e-05 9.37042e-06
7.15141e-07 9.37042e-06 4.61425e-06
0.00277556 -0.000154847 1.30069e-05
-0.000154847 0.000652168 -2.41612e-06
1.30069e-05 -2.41612e-06 0.000544137
0.000557008 -8.27082e-05 8.37052e-07
-8.27082e-05 -0.000190921 -3.26205e-06
8.37052e-07 -3.26205e-06 -0.000314547
0.00117238 -5.68105e-05 6.48139e-07
-5.68105e-05 0.000187035 -1.59134e-06
6.48139e-07 -1.59134e-06 2.80856e-05
0.000920973 -2.96708e-05 2.56393e-07
-2.96708e-05 2.22785e-05 -6.64481e-07
2.56393e-07 -6.64481e-07 -5.78587e-05
0.00103957 -3.01029e-05 8.0377e-07
-3.01029e-05 7.71635e-05 -1.5442e-06
8.0377e-07 -1.5442e-06 -8.96092e-06
0.00123486 -1.93942e-05 -1.74631e-08
-1.93942e-05 0.000181611 -1.03344e-06
-1.74631e-08 -1.03344e-06 7.48945e-05
-0.000664931 -1.30383e-05 -9.55173e-05
-1.30383e-05 -0.000582363 -2.01778e-07
-9.55173e-05 -2.01778e-07 -0.000597909
0.00504568 -2.38941e-05 -2.07335e-05
-2.38941e-05 0.00170614 -2.92672e-06
-2.07335e-05 -2.92672e-06 0.00119578
0.00117824 5.61762e-05 -9.3548e-08
5.61762e-05 0.000143434 1.12861e-07
-9.3548e-08 1.12861e-07 5.10053e-05
0.000954386 5.2703e-05 1.04983e-06
5.2703e-05 3.59839e-05 -1.16137e-06
1.04983e-06 -1.16137e-06 -6.31128e-05
0.00220072 0.000106558 -1.16021e-05
0.000106558 0.00017892 -1.11827e-06
-1.16021e-05 -1.11827e-06 0.000117157
0.00100651 9.56579e-05 -2.41792e-06
9.56579e-05 -8.70795e-05 -3.18875e-06
-2.41792e-06 -3.18875e-06 -0.000195706
0.00109345 6.64313e-05 1.50151e-06
6.64313e-05 0.000128933 -1.83641e-06
1.50151e-06 -1.83641e-06 -2.91085e-06
0.00476945 -3.2053e-05 2.3432e-05
-3.2053e-05 0.0014619 -1.11024e-05
2.3432e-05 -1.11024e-05 0.000822391
0.00109606 -0.000117439 -4.49148e-05
-0.000117439 -0.00012853 -1.55357e-05
-4.49148e-05 -1.55357e-05 -0.000354198
0.00140672 7.04636e-05 4.07285e-06
7.04636e-05 -9.81345e-05 -5.41348e-06
4.07285e-06 -5.41348e-06 -4.73383e-05
0.00261036 -0.000167735 3.47971e-05
-0.000167735 0.00102936 1.17022e-05
3.47971e-05 1.17022e-05 0.000964089
-0.000285091 -0.0001686 1.46494e-05
-0.0001686 -0.000876492 1.40904e-05
1.46494e-05 1.40904e-05 -0.000507605
0.00110842 5.5201e-05 2.72083e-07
5.5201e-05 0.000104739 -2.81204e-07
2.72083e-07 -2.81204e-07 1.11671e-05
-0.000749409 -2.57324e-05 -1.69194e-05
-2.57324e-05 -0.000492846 -5.82062e-07
-1.69194e-05 -5.82062e-07 -0.000519216
0.00132315 -7.50633e-05 -1.91992e-06
-7.50633e-05 0.000305951 1.49354e-06
-1.91992e-06 1.49354e-06 0.000435135
0.00163754 0.000131038 2.07563e-07
0.000131038 7.70889e-05 9.03248e-07
2.07563e-07 9.03248e-07 5.4969e-06
0.00114767 4.75716e-05 -1.54277e-07
4.75716e-05 0.000144523 -1.20637e-06
-1.54277e-07 -1.20637e-06 3.77915e-05
0.00132832 6.47533e-05 6.36141e-07
6.47533e-05 0.000286017 -4.03837e-08
6.36141e-07 -4.03837e-08 0.000117068
0.00161618 4.46898e-05 -1.86182e-05
4.46898e-05 0.000145628 -1.05714e-05
-1.86182e-05 -1.05714e-05 9.07709e-05
0.00419756 -8.82103e-05 7.39014e-06
-8.82103e-05 0.00102559 6.52774e-06
7.39014e-06 6.52774e-06 0.000260096
0.00131451 -3.90466e-05 -5.49362e-06
-3.90466e-05 -6.68229e-05 -1.48523e-05
-5.49362e-06 -1.48523e-05 -0.000191807
0.00273723 -0.000279683 7.17016e-06
-0.000279683 0.000689997 -1.05641e-06
7.17016e-06 -1.05641e-06 0.000701607
0.000215066 -9.24137e-05 -3.23899e-06
-9.24137e-05 -0.000700513 -8.98182e-07
-3.23899e-06 -8.98182e-07 -0.000426382
0.00104641 3.36784e-05 -1.16662e-06
3.36784e-05 4.05514e-05 -9.01306e-07
-1.16662e-06 -9.01306e-07 -5.23482e-05
0.000412701 -1.60457e-05 5.05915e-06
-1.60457e-05 -0.000115417 -1.89154e-07
5.05915e-06 -1.89154e-07 -0.000118505
0.00076753 -3.42445e-06 7.41741e-06
-3.42445e-06 2.61358e-05 2.89945e-06
7.41741e-06 2.89945e-06 -3.1192e-05
0.000712391 6.53613e-05 1.08084e-05
6.53613e-05 -8.663e-05 1.64957e-06
1.08084e-05 1.64957e-06 -0.000265305
0.00180306 4.06683e-05 -6.29645e-06
4.06683e-05 0.000527946 5.41875e-08
-6.29645e-06 5.41875e-08 0.000397475
0.00262959 -3.71871e-05 -7.35278e-06
-3.71871e-05 0.000988027 -2.38854e-06
-7.35278e-06 -2.38854e-06 0.000965108
0.000690728 0.000115407 -5.5258e-05
0.000115407 -6.85007e-05 3.36535e-06
-5.5258e-05 3.36535e-06 -0.000284873
0.00253059 -0.000200979 1.13127e-05
-0.000200979 0.000184639 2.21667e-05
1.13127e-05 2.21667e-05 -0.000621504
0.0036181 -0.000312866 -3.97457e-05
-0.000312866 0.000780802 -1.7057e-05
-3.97457e-05 -1.7057e-05 0.000852307
0.000291595 -2.02322e-05 -3.26321e-06
-2.02322e-05 -0.000486992 6.84068e-06
-3.26321e-06 6.84068e-06 -0.000454011
0.00119776 5.6177e-05 -6.5032e-07
5.6177e-05 0.000135621 5.41634e-07
-6.5032e-07 5.41634e-07 4.21631e-05
0.00114294 5.38253e-05 5.00518e-07
5.38253e-05 9.6208e-05 6.05263e-07
5.00518e-07 6.05263e-07 -6.22356e-07
0.000785164 4.87673e-05 1.88788e-06
4.87673e-05 -5.53641e-05 1.25915e-07
1.88788e-06 1.25915e-07 -0.000160746
0.000790974 1.23762e-05 7.84423e-08
1.23762e-05 -5.893e-05 -4.77006e-07
7.84423e-08 -4.77006e-07 -0.000107553
0.00102404 1.55808e-05 -2.23596e-08
1.55808e-05 6.48827e-05 -1.0392e-06
-2.23596e-08 -1.0392e-06 3.31885e-06
0.00121876 -5.58263e-06 1.4966e-07
-5.58263e-06 0.000162795 -1.72449e-07
1.4966e-07 -1.72449e-07 9.05707e-05
0.00100477 3.70753e-05 -4.18254e-07
3.70753e-05 5.24116e-05 -1.38225e-06
-4.18254e-07 -1.38225e-06 -2.71281e-05
0.000899247 4.57193e-05 -3.56161e-07
4.57193e-05 -7.27724e-06 -5.65403e-07
-3.56161e-07 -5.65403e-07 -9.91908e-05
0.00103631 5.79237e-06 3.27809e-07
5.79237e-06 7.12399e-05 -4.62831e-07
3.27809e-07 -4.62831e-07 9.25519e-06
0.00106001 3.55186e-05 -1.462e-07
3.55186e-05 8.07955e-05 -1.31402e-07
-1.462e-07 -1.31402e-07 -2.37061e-06
0.00102161 -1.3538e-05 2.54136e-08
-1.3538e-05 6.30245e-05 4.68696e-08
2.54136e-08 4.68696e-08 -9.77343e-06
0.0010969 4.36488e-05 2.64492e-07
4.36488e-05 0.00011161 4.14e-07
2.64492e-07 4.14e-07 8.89357e-06
0.00120339 6.32667e-06 2.36006e-07
6.32667e-06 0.000173929 -4.49201e-07
2.36006e-07 -4.49201e-07 6.37697e-05
0.00116294 1.90727e-05 -4.47732e-07
1.90727e-05 0.000139159 1.28296e-06
-4.47732e-07 1.28296e-06 4.99697e-05
0.00106808 8.90255e-06 2.08742e-07
8.90255e-06 8.72379e-05 5.3403e-07
2.08742e-07 5.3403e-07 1.39568e-05
0.00104839 -1.37377e-05 9.64446e-09
-1.37377e-05 7.80047e-05 -7.73583e-07
9.64446e-09 -7.73583e-07 1.60602e-05
0.000933682 -1.07293e-05 7.28575e-08
-1.07293e-05 1.73482e-05 -1.35583e-06
7.28575e-08 -1.35583e-06 -5.60296e-05
0.00105 -4.05779e-07 1.82953e-07
-4.05779e-07 7.79924e-05 4.16857e-08
1.82953e-07 4.16857e-08 4.98818e-06
0.00103099 -1.20076e-06 8.14165e-09
-1.20076e-06 6.88941e-05 3.05317e-08
8.14165e-09 3.05317e-08 -5.54069e-06
0.00107886 -2.23291e-06 -1.34629e-07
-2.23291e-06 8.61605e-05 -7.9135e-07
-1.34629e-07 -7.9135e-07 6.712e-06
0.000989641 -1.30104e-05 -2.8632e-07
-1.30104e-05 5.02879e-05 1.37557e-06
-2.8632e-07 1.37557e-06 -2.73639e-05
0.00112888 1.01461e-05 8.40719e-08
1.01461e-05 0.000112329 2.19229e-07
8.40719e-08 2.19229e-07 3.16631e-05
0.000953543 -1.85674e-05 -1.24642e-07
-1.85674e-05 2.40062e-05 5.24836e-07
-1.24642e-07 5.24836e-07 -5.9996e-05
0.00105891 -3.86828e-05 2.53842e-07
-3.86828e-05 8.40979e-05 -7.42895e-07
2.53842e-07 -7.42895e-07 -4.20446e-06
0.000817335 -4.6743e-05 2.02646e-07
-4.6743e-05 -2.09127e-05 1.39028e-07
2.02646e-07 1.39028e-07 -0.000107857
0.00094086 -4.27736e-05 -9.55725e-07
-4.27736e-05 3.2955e-05 -4.08872e-07
-9.55725e-07 -4.08872e-07 -5.11472e-05
0.00103814 -3.19887e-05 -1.78959e-07
-3.19887e-05 7.79999e-05 2.57749e-07
-1.78959e-07 2.57749e-07 -4.15337e-06
0.00102148 -2.56455e-05 -7.18881e-07
-2.56455e-05 6.43797e-05 1.45967e-06
-7.18881e-07 1.45967e-06 -5.50857e-06
0.00101365 -1.91564e-05 -2.29899e-08
-1.91564e-05 5.98342e-05 -1.84622e-08
-2.29899e-08 -1.84622e-08 -6.78013e-06
0.000980974 -1.16203e-06 -2.968e-07
-1.16203e-06 3.47878e-05 1.20213e-06
-2.968e-07 1.20213e-06 -1.62195e-05
0.00100083 -1.18031e-05 3.81037e-07
-1.18031e-05 5.40828e-05 -8.33087e-07
3.81037e-07 -8.33087e-07 -9.90386e-06
0.000975572 -7.151e-06 7.30803e-08
-7.151e-06 3.36036e-05 -2.8367e-08
7.30803e-08 -2.8367e-08 -1.56581e-05
0.000950293 7.34228e-06 -5.8642e-07
7.34228e-06 9.983e-06 1.72819e-06
-5.8642e-07 1.72819e-06 -2.01638e-05
0.000792297 4.03304e-06 1.23283e-07
4.03304e-06 -5.91214e-05 -9.61922e-07
1.23283e-07 -9.61922e-07 -0.000107884
0.000949047 1.45085e-06 -9.31412e-08
1.45085e-06 8.1567e-06 -8.96964e-09
-9.31412e-08 -8.96964e-09 -2.09087e-05
0.00149303 9.38823e-06 -3.58221e-06
9.38823e-06 0.00027528 4.33847e-06
-3.58221e-06 4.33847e-06 0.000277176
0.000944237 -5.33812e-06 6.29988e-07
-5.33812e-06 5.57723e-06 -1.66214e-06
6.29988e-07 -1.66214e-06 -2.27216e-05
0.00119417 6.21463e-06 -1.29437e-06
6.21463e-06 0.000120707 5.99312e-07
-1.29437e-06 5.99312e-07 0.000121846
0.00104314 6.09068e-06 -7.54306e-07
6.09068e-06 4.12663e-05 1.54336e-06
-7.54306e-07 1.54336e-06 5.90159e-05
0.000898715 2.86718e-06 3.93562e-07
2.86718e-06 -3.15283e-05 -3.08912e-06
3.93562e-07 -3.08912e-06 -3.13386e-05
0.00224395 3.43346e-06 1.05922e-06
3.43346e-06 0.000651191 7.31696e-09
1.05922e-06 7.31696e-09 0.00067475
0.00223764 -4.92222e-07 1.06925e-06
-4.92222e-07 0.000647685 -3.99596e-06
1.06925e-06 -3.99596e-06 0.000671343
0.00123023 2.1325e-05 -6.89693e-07
2.1325e-05 0.000159069 -1.02471e-06
-6.89693e-07 -1.02471e-06 0.000117325
0.000956088 -1.20484e-06 -1.34693e-07
-1.20484e-06 5.96086e-06 -1.80567e-06
-1.34693e-07 -1.80567e-06 -1.77868e-05
0.000975539 5.1585e-06 3.97093e-07
5.1585e-06 3.07118e-05 4.97825e-07
3.97093e-07 4.97825e-07 -1.07815e-05
0.000899267 2.07196e-07 -2.79034e-08
2.07196e-07 -3.24574e-05 -3.1744e-06
-2.79034e-08 -3.1744e-06 -2.92354e-05
0.000958951 1.55923e-07 -1.46276e-08
1.55923e-07 7.15146e-06 -7.70671e-09
-1.46276e-08 -7.70671e-09 -1.60699e-05
0.000953598 2.04238e-06 -3.0399e-07
2.04238e-06 4.46604e-06 1.83793e-06
-3.0399e-07 1.83793e-06 -1.89051e-05
0.000897826 3.49973e-06 -1.00723e-07
3.49973e-06 -3.27267e-05 -1.22266e-09
-1.00723e-07 -1.22266e-09 -2.97015e-05
0.00214744 4.0975e-06 1.99957e-06
4.0975e-06 0.000602136 -3.92443e-06
1.99957e-06 -3.92443e-06 0.000626831
0.00142872 8.04653e-06 -8.74268e-07
8.04653e-06 0.000239195 1.95499e-06
-8.74268e-07 1.95499e-06 0.000244148
0.0016172 7.51329e-06 1.3112e-06
7.51329e-06 0.000333955 3.27437e-08
1.3112e-06 3.27437e-08 0.000355476
0.00112274 9.46078e-06 -7.94447e-06
9.46078e-06 8.51235e-05 6.32889e-06
-7.94447e-06 6.32889e-06 0.000102938
-0.00268948 4.63971e-05 -5.9876e-05
4.63971e-05 -0.00165367 1.28716e-05
-5.9876e-05 1.28716e-05 -0.00166983
-0.00119683 5.72152e-05 -8.06957e-06
5.72152e-05 -0.00118136 5.97228e-06
-8.06957e-06 5.97228e-06 -0.00109395
0.000652753 -7.97174e-05 -5.07415e-05
-7.97174e-05 -7.28043e-05 -1.49754e-05
-5.07415e-05 -1.49754e-05 -0.000307885
0.00133187 -2.04419e-05 -3.42976e-06
-2.04419e-05 6.92129e-05 -3.7523e-07
-3.42976e-06 -3.7523e-07 3.29363e-05
0.00128551 3.48338e-05 -1.25222e-05
3.48338e-05 -0.00011846 -1.11654e-06
-1.25222e-05 -1.11654e-06 -0.000195878
0.000784448 -3.24587e-05 2.03197e-05
-3.24587e-05 9.95566e-05 -7.73459e-07
2.03197e-05 -7.73459e-07 -3.7376e-05
0.00156334 5.25521e-05 2.28453e-06
5.25521e-05 0.000152224 1.69239e-06
2.28453e-06 1.69239e-06 9.095e-05
0.00468453 0.000115669 -3.1022e-05
0.000115669 0.00139995 -1.29956e-07
-3.1022e-05 -1.29956e-07 0.000828233
-0.00167951 0.000109856 7.12487e-06
0.000109856 -0.000894589 -4.22101e-06
7.12487e-06 -4.22101e-06 -0.000908276
0.000434167 0.000141946 2.22205e-06
0.000141946 -0.000404855 -1.31913e-06
2.22205e-06 -1.31913e-06 -8.67514e-05
0.000711806 4.31093e-05 2.73502e-05
4.31093e-05 0.000132489 -1.34341e-05
2.73502e-05 -1.34341e-05 -5.36682e-05
0.00450026 0.000236052 -1.95108e-05
0.000236052 0.00127317 1.26726e-05
-1.95108e-05 1.26726e-05 0.000660919
0.000223413 0.00018528 -5.71585e-05
0.00018528 -9.58133e-05 3.31787e-05
-5.71585e-05 3.31787e-05 -6.06473e-06
0.000619386 9.4591e-05 -4.43974e-06
9.4591e-05 -0.000585989 6.01774e-07
-4.43974e-06 6.01774e-07 -0.000233881
0.000930707 2.43584e-05 -2.78421e-07
2.43584e-05 2.54279e-05 -8.65648e-07
-2.78421e-07 -8.65648e-07 -4.35495e-05
0.000895652 9.1348e-06 2.76568e-08
9.1348e-06 2.18044e-07 -4.29927e-07
2.76568e-08 -4.29927e-07 -5.49703e-05
0.000981292 -1.85647e-05 -5.76754e-07
-1.85647e-05 3.37077e-05 1.06156e-06
-5.76754e-07 1.06156e-06 -7.38621e-06
0.000846033 1.46011e-05 -2.31121e-08
1.46011e-05 -2.41199e-05 8.26687e-07
-2.31121e-08 8.26687e-07 -7.96589e-05
0.00104493 3.72414e-05 5.12134e-07
3.72414e-05 8.17279e-05 9.36305e-07
5.12134e-07 9.36305e-07 1.69941e-05
0.00107758 2.878e-05 -2.28131e-07
2.878e-05 9.89978e-05 -8.07811e-07
-2.28131e-07 -8.07811e-07 3.08733e-05
0.00100841 2.2141e-05 6.80856e-07
2.2141e-05 6.03534e-05 9.69052e-07
6.80856e-07 9.69052e-07 -2.71148e-06
0.0010111 7.30397e-06 4.15847e-07
7.30397e-06 5.9644e-05 -6.78548e-07
4.15847e-07 -6.78548e-07 -1.80107e-06
0.000958516 -2.90204e-06 2.35969e-07
-2.90204e-06 3.29994e-05 -5.16244e-07
2.35969e-07 -5.16244e-07 -2.47817e-05
0.000861082 -1.76912e-05 -3.32455e-07
-1.76912e-05 -1.73207e-05 1.29589e-06
-3.32455e-07 1.29589e-06 -7.27194e-05
0.00221996 3.66545e-05 -7.6995e-06
3.66545e-05 0.000285983 2.99016e-06
-7.6995e-06 2.99016e-06 0.000230504
0.00135281 -8.17363e-05 -1.42838e-05
-8.17363e-05 -0.000165797 2.02482e-06
-1.42838e-05 2.02482e-06 -0.00018269
0.000113384 -6.86139e-05 -2.87207e-06
-6.86139e-05 -0.000515929 3.62678e-06
-2.87207e-06 3.62678e-06 -0.000617786
0.0011121 -8.03178e-05 -1.05203e-06
-8.03178e-05 0.000123657 2.79036e-06
-1.05203e-06 2.79036e-06 -5.74512e-06
0.00113752 -3.75796e-05 1.47643e-07
-3.75796e-05 0.000152024 1.11921e-06
1.47643e-07 1.11921e-06 2.65375e-05
0.00110439 -3.89132e-05 -2.11871e-07
-3.89132e-05 0.000108078 8.59362e-07
-2.11871e-07 8.59362e-07 1.72125e-05
0.00105367 -3.51635e-05 -4.19467e-07
-3.51635e-05 8.59612e-05 7.9117e-07
-4.19467e-07 7.9117e-07 1.13548e-05
0.00100604 1.6934e-05 -3.29842e-08
1.6934e-05 6.24068e-05 1.14185e-06
-3.29842e-08 1.14185e-06 -9.38663e-06
0.00192419 -4.06939e-05 -3.89796e-06
-4.06939e-05 -3.6959e-05 1.17186e-06
-3.89796e-06 1.17186e-06 -3.57402e-05
0.000926135 -1.36371e-05 -1.49922e-07
-1.36371e-05 2.48635e-05 -5.92005e-08
-1.49922e-07 -5.92005e-08 -5.56941e-05
0.000999862 -3.34787e-05 3.66887e-07
-3.34787e-05 5.60773e-05 -5.79426e-07
3.66887e-07 -5.79426e-07 -3.13275e-05
0.00178502 -0.000131409 2.62481e-06
-0.000131409 0.00016679 4.22833e-07
2.62481e-06 4.22833e-07 7.04355e-05
0.000704022 -8.553e-05 -1.55201e-07
-8.553e-05 -0.000112378 1.48121e-06
-1.55201e-07 1.48121e-06 -0.000235453
0.00118739 -5.56067e-05 5.50541e-07
-5.56067e-05 0.000187213 -2.39586e-07
5.50541e-07 -2.39586e-07 3.50598e-05
0.00120092 -2.20228e-05 -1.17468e-07
-2.20228e-05 0.000165066 -3.62051e-07
-1.17468e-07 -3.62051e-07 5.34451e-05
0.00257527 -0.000122507 1.97243e-06
-0.000122507 0.000269676 1.73335e-07
1.97243e-06 1.73335e-07 0.000313038
0.00169818 -0.000127892 1.84584e-06
-0.000127892 0.000396456 -5.5945e-06
1.84584e-06 -5.5945e-06 0.000219845
0.000893421 -1.58189e-06 -9.53443e-07
-1.58189e-06 5.09412e-05 -1.0643e-06
-9.53443e-07 -1.0643e-06 -9.95524e-05
0.000989372 2.92217e-05 1.98016e-07
2.92217e-05 5.63781e-05 -1.48099e-07
1.98016e-07 -1.48099e-07 -2.49232e-05
0.0010448 -4.1649e-05 5.4733e-07
-4.1649e-05 7.73869e-05 -9.03679e-07
5.4733e-07 -9.03679e-07 -1.17058e-05
0.00112264 3.63469e-07 2.13697e-07
3.63469e-07 0.000104766 -5.41161e-07
2.13697e-07 -5.41161e-07 9.09614e-06
0.00105111 -1.01386e-05 8.09356e-06
-1.01386e-05 0.000186257 6.38651e-07
8.09356e-06 6.38651e-07 0.000185767
0.00142036 -6.65744e-06 6.32854e-06
-6.65744e-06 0.00031287 -2.78935e-06
6.32854e-06 -2.78935e-06 0.000167398
0.000731735 7.4904e-05 -4.31306e-05
7.4904e-05 -0.000360612 4.99858e-06
-4.31306e-05 4.99858e-06 -0.000865809
0.00111936 5.56712e-05 -4.06282e-07
5.56712e-05 0.000105629 -2.69197e-07
-4.06282e-07 -2.69197e-07 1.24046e-05
0.00145291 5.77865e-05 2.38062e-06
5.77865e-05 0.000299205 -1.47441e-07
2.38062e-06 -1.47441e-07 0.000196681
0.0014676 0.000129705 -2.17047e-06
0.000129705 -3.57697e-06 -3.95998e-06
-2.17047e-06 -3.95998e-06 -7.59016e-05
0.00100642 6.82756e-05 2.74313e-06
6.82756e-05 0.000128268 -3.77476e-06
2.74313e-06 -3.77476e-06 -4.05012e-05
0.00369533 -0.000120255 4.42161e-05
-0.000120255 0.00142312 4.34541e-06
4.42161e-05 4.34541e-06 0.00133732
0.000862802 -0.000169238 4.76085e-05
-0.000169238 -0.000313021 3.11767e-05
4.76085e-05 3.11767e-05 -0.000789325
0.00310201 -3.93365e-05 -5.33869e-05
-3.93365e-05 0.000464271 -6.30804e-05
-5.33869e-05 -6.30804e-05 0.000250811
0.00158262 2.92951e-05 7.14753e-06
2.92951e-05 0.000157808 -1.42323e-07
7.14753e-06 -1.42323e-07 0.000101429
-0.00186518 -0.000183276 5.97822e-05
-0.000183276 -0.00135045 2.33994e-05
5.97822e-05 2.33994e-05 -0.00126989
0.00240198 -7.72713e-05 7.41263e-06
-7.72713e-05 0.000876347 7.05832e-06
7.41263e-06 7.05832e-06 0.00100738
0.00162581 -0.00011294 1.78672e-06
-0.00011294 8.74112e-05 -3.51119e-06
1.78672e-06 -3.51119e-06 0.000399146
0.00121139 4.42044e-05 -8.2839e-08
4.42044e-05 0.000130249 3.55111e-07
-8.2839e-08 3.55111e-07 3.55902e-05
0.000732185 -2.65016e-05 8.90981e-07
-2.65016e-05 3.10266e-05 3.66747e-07
8.90981e-07 3.66747e-07 4.52726e-05
0.000727339 1.98667e-06 -1.9071e-07
1.98667e-06 -7.22539e-07 -9.157e-07
-1.9071e-07 -9.157e-07 -5.64844e-05
0.00117037 7.53416e-05 1.50757e-07
7.53416e-05 0.000133975 1.45408e-06
1.50757e-07 1.45408e-06 -5.07168e-05
0.000965541 2.63981e-05 -1.53352e-07
2.63981e-05 0.000130153 -5.15739e-07
-1.53352e-07 -5.15739e-07 -4.74056e-06
0.00209619 -1.44452e-05 8.66e-06
-1.44452e-05 0.000622279 6.02951e-06
8.66e-06 6.02951e-06 0.000503789
0.00341227 0.000167029 -2.15329e-05
0.000167029 0.000872064 -2.42088e-05
-2.15329e-05 -2.42088e-05 0.00050254
0.00555683 -0.000227244 -3.45498e-08
-0.000227244 0.00138946 4.87219e-06
-3.45498e-08 4.87219e-06 0.000689198
0.000307328 -0.000229874 8.48673e-06
-0.000229874 -0.000469551 1.764e-05
8.48673e-06 1.764e-05 -0.000435993
0.00158321 -3.29402e-05 -9.41072e-07
-3.29402e-05 0.000222524 -1.27168e-07
-9.41072e-07 -1.27168e-07 0.000317769
0.00133631 5.53485e-05 1.07091e-07
5.53485e-05 0.00023001 -2.74094e-06
1.07091e-07 -2.74094e-06 0.000148027
0.00186919 3.28936e-06 1.01174e-05
3.28936e-06 0.000744916 5.27071e-06
1.01174e-05 5.27071e-06 0.000675653
0.000982102 1.55955e-05 4.60667e-06
1.55955e-05 9.29072e-05 3.33603e-06
4.60667e-06 3.33603e-06 -5.29158e-06
0.00050862 -1.83234e-05 -3.73405e-06
-1.83234e-05 -5.11915e-06 7.33927e-06
-3.73405e-06 7.33927e-06 -0.000138475
0.000884035 0.000107115 -9.12401e-06
0.000107115 0.000384479 3.58139e-05
-9.12401e-06 3.58139e-05 0.00020574
0.00508974 -0.000182647 -3.71816e-05
-0.000182647 0.000838011 -1.07634e-05
-3.71816e-05 -1.07634e-05 5.06085e-05
-0.000577947 -0.000128166 -3.47477e-05
-0.000128166 -0.00133457 -4.64459e-05
-3.47477e-05 -4.64459e-05 -0.00117374
0.00218235 2.99144e-06 -4.67161e-07
2.99144e-06 0.000645989 1.45467e-05
-4.67161e-07 1.45467e-05 0.000715014
0.00103083 5.11791e-05 -5.57644e-07
5.11791e-05 4.16412e-05 -6.79032e-07
-5.57644e-07 -6.79032e-07 -5.5828e-05
0.00111101 5.3803e-05 5.57308e-07
5.3803e-05 9.98178e-05 -2.84161e-08
5.57308e-07 -2.84161e-08 -2.57525e-06
0.00150243 5.6708e-05 -6.5908e-07
5.6708e-05 0.000297207 -2.33913e-06
-6.5908e-07 -2.33913e-06 0.000194554
0.00103721 3.35192e-05 -5.17595e-07
3.35192e-05 7.12313e-05 -1.11789e-06
-5.17595e-07 -1.11789e-06 9.42335e-06
0.00102223 -3.17305e-06 1.34311e-07
-3.17305e-06 6.33681e-05 -5.74115e-07
1.34311e-07 -5.74115e-07 -9.51342e-06
0.0010339 3.09531e-05 -1.04261e-07
3.09531e-05 6.8801e-05 -8.33504e-07
-1.04261e-07 -8.33504e-07 -1.34199e-05
0.000987802 3.50971e-05 1.88796e-07
3.50971e-05 5.80324e-05 -5.08448e-07
1.88796e-07 -5.08448e-07 -4.55697e-05
0.00106606 1.59921e-05 1.78643e-07
1.59921e-05 8.53799e-05 9.23762e-09
1.78643e-07 9.23762e-09 1.25604e-05
0.00112955 1.94442e-05 -7.51761e-08
1.94442e-05 0.000120908 4.61021e-07
-7.51761e-08 4.61021e-07 3.28191e-05
0.00104635 1.10957e-05 4.4863e-07
1.10957e-05 0.000100869 -8.59006e-07
4.4863e-07 -8.59006e-07 -1.31433e-05
0.00125265 -1.31089e-06 2.84825e-07
-1.31089e-06 0.000218476 -1.44428e-07
2.84825e-07 -1.44428e-07 0.000107854
0.00112217 -2.67079e-05 1.19485e-07
-2.67079e-05 0.000118867 1.1963e-06
1.19485e-07 1.1963e-06 1.64164e-05
0.00118028 2.87703e-05 4.88936e-07
2.87703e-05 0.000139686 6.33149e-07
4.88936e-07 6.33149e-07 5.70752e-05
0.00105229 -1.03563e-05 4.53304e-07
-1.03563e-05 7.8725e-05 -7.3716e-07
4.53304e-07 -7.3716e-07 6.08552e-06
0.00102248 -1.2462e-06 1.65067e-07
-1.2462e-06 6.49982e-05 -9.00799e-07
1.65067e-07 -9.00799e-07 -9.51287e-06
0.00102706 -7.93306e-06 -2.25274e-08
-7.93306e-06 5.75012e-05 -1.72699e-06
-2.25274e-08 -1.72699e-06 -2.15854e-05
0.00113472 6.06282e-06 -1.85669e-07
6.06282e-06 0.00011447 -4.78214e-07
-1.85669e-07 -4.78214e-07 3.43113e-05
0.00101924 -9.94751e-06 3.03612e-08
-9.94751e-06 6.60152e-05 3.24147e-07
3.03612e-08 3.24147e-07 -1.19215e-05
0.00100277 -8.05419e-06 6.77898e-08
-8.05419e-06 4.63233e-05 -1.58496e-07
6.77898e-08 -1.58496e-07 -3.6603e-05
0.0010365 -2.85813e-05 -3.23156e-07
-2.85813e-05 6.88443e-05 4.93957e-07
-3.23156e-07 4.93957e-07 -1.83723e-05
0.00107253 -2.38428e-05 2.61844e-08
-2.38428e-05 7.70509e-05 3.59862e-07
2.61844e-08 3.59862e-07 -9.18492e-06
0.00105102 -4.97261e-05 2.53529e-07
-4.97261e-05 8.0237e-05 1.14128e-08
2.53529e-07 1.14128e-08 -1.19072e-05
0.00112188 -4.16855e-05 -3.37684e-07
-4.16855e-05 0.000115642 -8.70299e-08
-3.37684e-07 -8.70299e-08 2.73747e-05
0.000829054 -4.64041e-05 -2.84154e-07
-4.64041e-05 -1.38506e-05 1.00758e-06
-2.84154e-07 1.00758e-06 -0.000104254
0.00110495 -5.68527e-05 -1.15911e-06
-5.68527e-05 0.000104582 1.85721e-06
-1.15911e-06 1.85721e-06 1.46743e-05
0.00114747 -5.25009e-05 7.99215e-08
-5.25009e-05 0.000131266 -1.06143e-06
7.99215e-08 -1.06143e-06 5.1801e-05
0.000874663 -4.79186e-05 3.71969e-07
-4.79186e-05 1.03705e-05 -1.13572e-06
3.71969e-07 -1.13572e-06 -7.35393e-05
0.00103248 -4.57247e-05 2.95261e-07
-4.57247e-05 7.80563e-05 -4.49104e-07
2.95261e-07 -4.49104e-07 -5.48252e-06
0.000911548 -3.12333e-05 -7.27147e-07
-3.12333e-05 1.03702e-05 7.80272e-07
-7.27147e-07 7.80272e-07 -6.37621e-05
0.00106085 -3.27535e-05 -1.38659e-08
-3.27535e-05 8.90257e-05 -2.12063e-07
-1.38659e-08 -2.12063e-07 6.9542e-06
0.00102438 -2.71685e-05 -2.1564e-07
-2.71685e-05 6.60235e-05 4.68181e-07
-2.1564e-07 4.68181e-07 -3.99842e-06
0.000981173 -2.93468e-06 -3.94033e-07
-2.93468e-06 3.43103e-05 1.38612e-06
-3.94033e-07 1.38612e-06 -1.97001e-05
0.00101726 -2.54563e-05 4.53506e-07
-2.54563e-05 6.24047e-05 -1.02582e-06
4.53506e-07 -1.02582e-06 -4.70214e-06
0.000976582 -8.51876e-06 -1.3264e-07
-8.51876e-06 3.33704e-05 -4.94772e-08
-1.3264e-07 -4.94772e-08 -1.8045e-05
0.000941901 8.35081e-06 -7.59044e-07
8.35081e-06 7.4647e-06 1.83464e-06
-7.59044e-07 1.83464e-06 -2.40823e-05
0.000976247 -5.81013e-06 5.75226e-07
-5.81013e-06 3.40975e-05 -1.09426e-06
5.75226e-07 -1.09426e-06 -1.5222e-05
0.00094504 2.50582e-06 -1.54985e-07
2.50582e-06 7.06827e-06 -1.06372e-09
-1.54985e-07 -1.06372e-09 -2.30677e-05
0.00149704 1.23821e-05 -4.91605e-06
1.23821e-05 0.000280538 4.38556e-06
-4.91605e-06 4.38556e-06 0.000281446
0.000943176 -4.51716e-06 9.02726e-07
-4.51716e-06 4.9967e-06 -1.69743e-06
9.02726e-07 -1.69743e-06 -2.4051e-05
0.00119361 9.19444e-06 -1.72503e-06
9.19444e-06 0.000123018 5.96351e-07
-1.72503e-06 5.96351e-07 0.00012338
0.00103996 9.39652e-06 -1.23389e-06
9.39652e-06 4.29156e-05 1.55403e-06
-1.23389e-06 1.55403e-06 5.98931e-05
0.000895921 5.77742e-06 6.92313e-07
5.77742e-06 -3.13793e-05 -3.12094e-06
6.92313e-07 -3.12094e-06 -3.16228e-05
0.00165144 7.1976e-06 2.62554e-06
7.1976e-06 0.000350815 -1.20461e-06
2.62554e-06 -1.20461e-06 0.000371342
0.00224262 3.79067e-06 3.55894e-06
3.79067e-06 0.000650792 -3.97762e-06
3.55894e-06 -3.97762e-06 0.000674313
0.00104576 -5.97565e-07 -2.67099e-08
-5.97565e-07 6.61669e-05 -1.18772e-06
-2.67099e-08 -1.18772e-06 2.03403e-05
0.000958349 -3.05104e-06 -2.73454e-07
-3.05104e-06 8.15599e-06 -1.80592e-06
-2.73454e-07 -1.80592e-06 -1.66795e-05
0.00102365 6.33234e-06 1.51179e-07
6.33234e-06 5.48025e-05 5.01333e-08
1.51179e-07 5.01333e-08 1.20262e-05
0.000903492 -2.88365e-06 -3.78106e-07
-2.88365e-06 -2.97451e-05 -3.17745e-06
-3.78106e-07 -3.17745e-06 -2.6988e-05
0.000957752 -1.57087e-06 -5.66277e-08
-1.57087e-06 6.92666e-06 -2.61813e-10
-5.66277e-08 -2.61813e-10 -1.68355e-05
0.000974775 2.49291e-07 -2.10897e-07
2.49291e-07 3.01187e-05 1.54965e-06
-2.10897e-07 1.54965e-06 -1.10568e-05
0.00214468 8.03581e-08 -7.42691e-07
8.03581e-08 0.000600323 -3.95495e-06
-7.42691e-07 -3.95495e-06 0.000625111
0.00089894 2.97503e-07 -8.67424e-08
2.97503e-07 -3.26775e-05 -6.63072e-09
-8.67424e-08 -6.63072e-09 -2.94414e-05
0.000956059 -2.79411e-07 -1.31239e-07
-2.79411e-07 5.63053e-06 1.80526e-06
-1.31239e-07 1.80526e-06 -1.75741e-05
0.00090244 3.59424e-06 -4.14418e-07
3.59424e-06 -3.04184e-05 3.15512e-06
-4.14418e-07 3.15512e-06 -2.74188e-05
0.00214625 4.24042e-06 -1.09708e-06
4.24042e-06 0.000601679 -8.17409e-09
-1.09708e-06 -8.17409e-09 0.00062634
0.00216029 8.1094e-06 -6.01266e-06
8.1094e-06 0.000610356 3.89134e-06
-6.01266e-06 3.89134e-06 0.000634611
-0.000964674 9.86247e-06 6.15464e-06
9.86247e-06 -0.00095912 -7.7293e-07
6.15464e-06 -7.7293e-07 -0.000969485
-0.000129062 7.86077e-05 2.63655e-05
7.86077e-05 -0.000294396 -3.29914e-06
2.63655e-05 -3.29914e-06 -0.000372011
0.00105338 7.2638e-06 9.50474e-06
7.2638e-06 0.000154662 -9.61699e-07
9.50474e-06 -9.61699e-07 0.000111914
-0.00108713 6.46992e-05 -5.10092e-06
6.46992e-05 -0.00106704 3.36004e-06
-5.10092e-06 3.36004e-06 -0.000972434
0.00168653 1.42619e-05 -6.63604e-05
1.42619e-05 0.00038675 -3.71518e-06
-6.63604e-05 -3.71518e-06 0.000165426
0.00166263 5.53038e-05 3.40229e-06
5.53038e-05 0.000183556 -1.61386e-06
3.40229e-06 -1.61386e-06 0.000118448
0.000393252 4.71744e-07 -2.08516e-05
4.71744e-07 -0.000428607 3.0761e-06
-2.08516e-05 3.0761e-06 -0.000884486
0.00380025 0.000150557 9.40386e-05
0.000150557 0.00164925 -2.84813e-05
9.40386e-05 -2.84813e-05 0.00156088
-9.42679e-05 0.000154651 1.13364e-05
0.000154651 -0.000719123 -1.08947e-05
1.13364e-05 -1.08947e-05 -0.000399599
0.00136326 4.35497e-05 -3.90642e-06
4.35497e-05 0.000274233 4.09615e-06
-3.90642e-06 4.09615e-06 8.871e-05
0.00282811 0.000151106 7.33346e-06
0.000151106 0.00058384 -6.14059e-06
7.33346e-06 -6.14059e-06 -0.000185719
0.00290712 0.000265962 1.48961e-06
0.000265962 0.000894729 2.16421e-07
1.48961e-06 2.16421e-07 0.000885749
0.00128455 8.46433e-05 -2.61601e-06
8.46433e-05 -9.77378e-05 2.77321e-06
-2.61601e-06 2.77321e-06 0.000215334
0.00103767 5.40796e-05 1.62901e-06
5.40796e-05 0.000263276 2.65593e-08
1.62901e-06 2.65593e-08 -5.6891e-06
0.00282724 0.000200649 3.0103e-05
0.000200649 0.000508641 -2.22478e-05
3.0103e-05 -2.22478e-05 -0.000299005
-0.00249306 0.000197504 -4.25224e-05
0.000197504 -0.00210176 4.3289e-05
-4.25224e-05 4.3289e-05 -0.00193586
0.000619682 1.81922e-05 -1.42932e-06
1.81922e-05 -0.000346891 -3.66839e-06
-1.42932e-06 -3.66839e-06 -0.000217483
0.00107973 -2.92872e-06 6.17014e-07
-2.92872e-06 0.000100417 -9.52449e-07
6.17014e-07 -9.52449e-07 2.43487e-05
0.00101956 2.73133e-05 -6.60426e-07
2.73133e-05 6.95841e-05 -2.68425e-07
-6.60426e-07 -2.68425e-07 1.79287e-06
0.000990686 1.10874e-05 2.18013e-07
1.10874e-05 4.67521e-05 2.71411e-07
2.18013e-07 2.71411e-07 -7.37878e-06
0.000971485 3.75551e-05 9.22825e-07
3.75551e-05 4.61431e-05 1.65673e-06
9.22825e-07 1.65673e-06 -1.78593e-05
0.000976054 8.7246e-06 -2.57346e-07
8.7246e-06 4.54456e-05 -7.10587e-07
-2.57346e-07 -7.10587e-07 -2.7881e-05
0.00110499 2.63611e-05 7.63201e-08
2.63611e-05 0.000111754 4.93112e-07
7.63201e-08 4.93112e-07 4.45916e-05
0.000969822 8.77826e-06 -1.43027e-07
8.77826e-06 4.03569e-05 1.81512e-06
-1.43027e-07 1.81512e-06 -2.21342e-05
0.00112749 3.14184e-05 -6.76477e-07
3.14184e-05 0.000116949 -8.47598e-07
-6.76477e-07 -8.47598e-07 5.3469e-05
0.00109393 1.82851e-05 2.08769e-08
1.82851e-05 0.000102044 4.6178e-07
2.08769e-08 4.6178e-07 4.08982e-05
0.000892913 -1.1841e-05 -5.15173e-07
-1.1841e-05 -1.70212e-07 5.68123e-07
-5.15173e-07 5.68123e-07 -5.87163e-05
0.00221223 -4.23972e-05 -8.99571e-06
-4.23972e-05 0.000103654 1.36123e-06
-8.99571e-06 1.36123e-06 8.12152e-05
0.00066926 -0.000105129 -7.8149e-06
-0.000105129 -0.000375136 5.19709e-06
-7.8149e-06 5.19709e-06 -0.000460136
0.00103141 -9.24755e-05 6.21628e-07
-9.24755e-05 5.36442e-05 4.6532e-06
6.21628e-07 4.6532e-06 -6.83331e-05
0.00121255 -5.46999e-05 -4.34007e-08
-5.46999e-05 0.000193809 2.23567e-06
-4.34007e-08 2.23567e-06 4.66536e-05
0.00116222 -1.86988e-05 -6.99466e-08
-1.86988e-05 0.000146859 6.98243e-07
-6.99466e-08 6.98243e-07 2.98532e-05
0.00095505 -3.68748e-05 -1.76528e-07
-3.68748e-05 3.30332e-05 7.3741e-07
-1.76528e-07 7.3741e-07 -5.59312e-05
0.000934089 1.639e-05 1.13239e-08
1.639e-05 2.86114e-05 3.7068e-07
1.13239e-08 3.7068e-07 -5.21477e-05
0.00102779 -4.0592e-06 2.35803e-07
-4.0592e-06 7.47404e-05 6.58673e-07
2.35803e-07 6.58673e-07 -6.42568e-06
0.00231006 -0.000125582 2.3729e-07
-0.000125582 0.000169328 -2.02438e-07
2.3729e-07 -2.02438e-07 0.000188062
0.0010928 -6.46794e-06 -1.08902e-07
-6.46794e-06 0.000102876 -1.75135e-07
-1.08902e-07 -1.75135e-07 1.46187e-05
0.00122544 -8.52557e-06 -2.4339e-08
-8.52557e-06 0.000158164 1.03722e-08
-2.4339e-08 1.03722e-08 6.04971e-05
0.00153459 -0.000120215 3.53654e-08
-0.000120215 0.000323076 -1.3127e-06
3.53654e-08 -1.3127e-06 0.000143452
0.00116699 -9.87386e-06 -4.07028e-07
-9.87386e-06 0.000178967 -3.87506e-08
-4.07028e-07 -3.87506e-08 3.13198e-05
0.00106738 -0.00014129 -8.63983e-06
-0.00014129 -0.000256847 -4.47841e-06
-8.63983e-06 -4.47841e-06 -0.000260491
0.00137847 -3.1246e-05 -1.32829e-06
-3.1246e-05 0.000374374 -2.07104e-06
-1.32829e-06 -2.07104e-06 0.000138376
0.000971441 2.0102e-05 -7.28212e-07
2.0102e-05 3.33364e-05 9.54118e-07
-7.28212e-07 9.54118e-07 -7.19157e-05
0.00104859 3.11246e-05 -1.15609e-07
3.11246e-05 7.60295e-05 -1.27881e-06
-1.15609e-07 -1.27881e-06 -1.00637e-05
0.00110238 2.48395e-05 -1.26164e-07
2.48395e-05 8.85347e-05 -5.32142e-07
-1.26164e-07 -5.32142e-07 -7.39792e-06
0.00210488 -5.04627e-06 5.92231e-06
-5.04627e-06 0.000905643 1.09468e-06
5.92231e-06 1.09468e-06 0.000828543
4.87412e-06 -8.34183e-06 1.22901e-05
-8.34183e-06 -0.000397583 -2.22711e-07
1.22901e-05 -2.22711e-07 -0.000406899
-0.00259089 -1.16692e-05 8.97149e-05
-1.16692e-05 -0.00166819 -1.12089e-06
8.97149e-05 -1.12089e-06 -0.0016907
0.00142841 5.63269e-05 1.08146e-06
5.63269e-05 0.000246406 1.4725e-06
1.08146e-06 1.4725e-06 0.000149735
0.00017657 1.55394e-05 2.37781e-06
1.55394e-05 -0.00024306 -1.62297e-06
2.37781e-06 -1.62297e-06 -0.000381764
0.0014423 8.1751e-05 1.02423e-06
8.1751e-05 0.000258493 -8.09171e-06
1.02423e-06 -8.09171e-06 7.1037e-05
-0.000799868 -1.64294e-05 2.19954e-06
-1.64294e-05 -0.000868948 2.73328e-07
2.19954e-06 2.73328e-07 -0.000885499
0.00258955 -0.000227571 2.75621e-05
-0.000227571 0.000150304 1.41503e-05
2.75621e-05 1.41503e-05 -0.000674564
0.00163571 0.000113102 2.88373e-05
0.000113102 0.000226774 -4.00835e-05
2.88373e-05 -4.00835e-05 4.76514e-05
0.00183307 8.1448e-07 5.99456e-05
8.1448e-07 0.000345731 1.39437e-05
5.99456e-05 1.39437e-05 0.000142043
0.00402112 -0.000331708 4.54505e-05
-0.000331708 0.00104693 5.20988e-05
4.54505e-05 5.20988e-05 0.0010704
0.000619578 6.7139e-06 -1.20549e-05
6.7139e-06 -7.26823e-05 -5.48085e-06
-1.20549e-05 -5.48085e-06 -0.000126857
0.00117004 -2.15977e-05 -4.78802e-06
-2.15977e-05 3.08797e-05 -8.68078e-06
-4.78802e-06 -8.68078e-06 9.25463e-05
0.00103693 5.2155e-05 1.23827e-06
5.2155e-05 8.18581e-05 -1.4578e-07
1.23827e-06 -1.4578e-07 2.01107e-06
0.00130397 5.25241e-06 2.31007e-06
5.25241e-06 0.00040946 1.68144e-06
2.31007e-06 1.68144e-06 0.000332891
0.000898484 1.63213e-05 -3.30936e-07
1.63213e-05 4.7391e-05 -1.6982e-07
-3.30936e-07 -1.6982e-07 -5.19436e-05
-0.000291368 -2.02742e-06 1.07979e-05
-2.02742e-06 -0.000403367 1.51997e-07
1.07979e-05 1.51997e-07 -0.000558526
0.00223135 0.000156347 -3.47359e-05
0.000156347 0.000729107 -1.61124e-05
-3.47359e-05 -1.61124e-05 0.000546314
0.00580738 -2.79293e-05 1.52612e-05
-2.79293e-05 0.00104096 7.5053e-06
1.52612e-05 7.5053e-06 0.000235226
0.000969609 -5.1351e-06 -6.83913e-07
-5.1351e-06 -7.23068e-05 3.57075e-06
-6.83913e-07 3.57075e-06 -4.41403e-05
0.00133234 -0.000202464 1.21826e-06
-0.000202464 -0.000486877 2.54862e-05
1.21826e-06 2.54862e-05 -0.000404302
0.000975282 3.32433e-05 -1.04009e-06
3.32433e-05 6.78418e-05 -6.1306e-06
-1.04009e-06 -6.1306e-06 1.58102e-06
0.00101496 9.25377e-06 9.51232e-06
9.25377e-06 0.000125468 -3.79642e-06
9.51232e-06 -3.79642e-06 1.39414e-05
0.00221117 -4.45249e-06 6.08187e-07
-4.45249e-06 0.00082497 4.84604e-06
6.08187e-07 4.84604e-06 0.000722698
0.000593694 6.98273e-06 -1.01687e-06
6.98273e-06 -0.000305893 7.57737e-06
-1.01687e-06 7.57737e-06 -0.000224288
-0.00129493 4.64274e-05 -6.05208e-06
4.64274e-05 -0.000762174 1.74795e-06
-6.05208e-06 1.74795e-06 -0.000884424
0.00633138 -6.62625e-05 1.468e-05
-6.62625e-05 0.00133215 1.39863e-05
1.468e-05 1.39863e-05 0.000814184
0.000121467 5.04944e-06 -6.99669e-07
5.04944e-06 -0.000941456 -6.62794e-05
-6.99669e-07 -6.62794e-05 -0.000757223
0.00141947 6.04665e-05 4.45043e-07
6.04665e-05 0.000245446 1.57953e-06
4.45043e-07 1.57953e-06 0.000146165
0.00140623 5.51859e-05 -8.55093e-07
5.51859e-05 0.000241244 6.54748e-07
-8.55093e-07 6.54748e-07 0.000135531
0.00179243 5.51633e-05 1.40782e-06
5.51633e-05 0.000483429 -2.25871e-06
1.40782e-06 -2.25871e-06 0.000376342
0.00105208 3.3662e-05 -1.43271e-07
3.3662e-05 7.83782e-05 -5.42376e-07
-1.43271e-07 -5.42376e-07 5.60564e-06
0.00110073 2.70105e-05 -1.30248e-08
2.70105e-05 0.000105201 -7.27235e-07
-1.30248e-08 -7.27235e-07 1.80201e-05
0.000865085 3.5022e-06 -4.22874e-07
3.5022e-06 1.47905e-05 4.27066e-07
-4.22874e-07 4.27066e-07 -0.000103133
0.00118331 2.41491e-05 -5.69135e-08
2.41491e-05 0.000140017 -1.97569e-07
-5.69135e-08 -1.97569e-07 5.84139e-05
0.00110174 -2.66735e-05 3.50609e-08
-2.66735e-05 0.000108047 2.32704e-07
3.50609e-08 2.32704e-07 4.73051e-06
0.00100693 -1.63441e-05 1.291e-07
-1.63441e-05 8.96812e-05 4.50387e-07
1.291e-07 4.50387e-07 -2.61986e-05
0.0010477 -1.08622e-05 -2.1255e-07
-1.08622e-05 0.000109569 7.51965e-07
-2.1255e-07 7.51965e-07 5.4631e-06
0.00111583 -3.35545e-05 -7.75268e-07
-3.35545e-05 9.52348e-05 8.09037e-07
-7.75268e-07 8.09037e-07 3.21709e-06
0.00114434 3.26497e-06 -5.19132e-07
3.26497e-06 0.000118271 -1.071e-06
-5.19132e-07 -1.071e-06 3.87191e-05
0.00104611 -6.7099e-06 5.5288e-08
-6.7099e-06 8.03112e-05 -4.77975e-07
5.5288e-08 -4.77975e-07 2.13019e-06
0.00104739 -4.4299e-06 -8.0358e-08
-4.4299e-06 6.71303e-05 -8.67008e-07
-8.0358e-08 -8.67008e-07 -1.51755e-05
0.00106017 -2.8815e-05 1.72969e-07
-2.8815e-05 7.09062e-05 4.60256e-08
1.72969e-07 4.60256e-08 -1.55898e-05
0.00103891 -2.58144e-05 -1.02835e-07
-2.58144e-05 6.8616e-05 3.77207e-07
-1.02835e-07 3.77207e-07 -1.81678e-05
0.00103904 -5.01095e-05 -1.11639e-07
-5.01095e-05 8.4707e-05 1.09388e-06
-1.11639e-07 1.09388e-06 -8.18106e-06
0.00101091 -4.91807e-05 1.44783e-07
-4.91807e-05 6.54798e-05 -6.57906e-07
1.44783e-07 -6.57906e-07 -2.4645e-05
0.00112058 -5.58232e-05 4.94065e-07
-5.58232e-05 0.000129037 1.11425e-06
4.94065e-07 1.11425e-06 2.31874e-05
0.00120934 -4.54988e-05 3.3338e-07
-4.54988e-05 0.000159167 -3.02993e-07
3.3338e-07 -3.02993e-07 7.08768e-05
0.0010977 -5.35464e-05 -2.05086e-08
-5.35464e-05 0.000115122 1.0405e-06
-2.05086e-08 1.0405e-06 2.43799e-05
0.000750382 -5.10623e-05 -2.98898e-07
-5.10623e-05 -7.17347e-05 1.99524e-06
-2.98898e-07 1.99524e-06 -0.000171011
0.00103795 -5.52736e-05 -1.68761e-06
-5.52736e-05 7.25025e-05 5.00892e-07
-1.68761e-06 5.00892e-07 -1.50203e-05
0.00106962 -5.14869e-05 -1.25388e-06
-5.14869e-05 9.31199e-05 2.41541e-07
-1.25388e-06 2.41541e-07 1.41927e-05
0.000996669 -5.37997e-05 -3.72987e-07
-5.37997e-05 5.42916e-05 -1.03511e-07
-3.72987e-07 -1.03511e-07 -3.54777e-05
0.00105254 -4.32516e-05 -7.31869e-07
-4.32516e-05 7.93947e-05 4.75967e-07
-7.31869e-07 4.75967e-07 5.42837e-06
0.00114267 -5.20634e-05 -2.94142e-07
-5.20634e-05 0.000129047 -2.69957e-07
-2.94142e-07 -2.69957e-07 4.92161e-05
0.000931668 -4.90037e-05 1.90317e-07
-4.90037e-05 4.14925e-05 -1.49007e-06
1.90317e-07 -1.49007e-06 -3.93804e-05
0.00113339 -4.90268e-05 8.54036e-07
-4.90268e-05 0.000127691 -6.10354e-07
8.54036e-07 -6.10354e-07 4.46936e-05
0.0009702 -3.26e-05 7.85947e-08
-3.26e-05 3.98387e-05 -2.76289e-08
7.85947e-08 -2.76289e-08 -3.35962e-05
0.000994932 -8.99321e-06 -6.18723e-07
-8.99321e-06 4.22773e-05 1.49145e-06
-6.18723e-07 1.49145e-06 -1.55943e-05
0.0010277 -2.80271e-05 3.35503e-07
-2.80271e-05 6.79584e-05 -5.53283e-07
3.35503e-07 -5.53283e-07 -2.26071e-06
0.000984889 -6.18042e-06 -5.38089e-08
-6.18042e-06 3.6548e-05 -7.71113e-08
-5.38089e-08 -7.71113e-08 -1.76717e-05
0.000933104 1.00971e-05 -9.4516e-07
1.00971e-05 5.1046e-06 1.97281e-06
-9.4516e-07 1.97281e-06 -2.83504e-05
0.000975029 -1.40582e-05 5.74504e-07
-1.40582e-05 3.32714e-05 -1.24625e-06
5.74504e-07 -1.24625e-06 -1.84975e-05
0.000936302 7.35822e-06 -6.39853e-08
7.35822e-06 4.50715e-06 -8.0015e-09
-6.39853e-08 -8.0015e-09 -2.70609e-05
0.00147372 1.52455e-05 -5.5194e-06
1.52455e-05 0.000273106 3.18374e-06
-5.5194e-06 3.18374e-06 0.000272743
0.000940248 -1.54273e-06 9.36215e-07
-1.54273e-06 4.37263e-06 -1.77521e-06
9.36215e-07 -1.77521e-06 -2.57443e-05
0.00119148 1.19975e-05 -2.15752e-06
1.19975e-05 0.000125348 5.88557e-07
-2.15752e-06 5.88557e-07 0.000124648
0.00103738 1.2542e-05 -1.71935e-06
1.2542e-05 4.58231e-05 1.58417e-06
-1.71935e-06 1.58417e-06 6.18024e-05
0.000892954 8.57286e-06 1.05652e-06
8.57286e-06 -3.02591e-05 -3.15638e-06
1.05652e-06 -3.15638e-06 -3.12878e-05
0.00166089 1.09674e-05 3.54808e-06
1.09674e-05 0.000358524 -1.19297e-06
3.54808e-06 -1.19297e-06 0.000378389
0.00225439 8.01398e-06 5.98697e-06
8.01398e-06 0.000658598 -3.97209e-06
5.98697e-06 -3.97209e-06 0.000681725
0.000805787 -1.8459e-07 -3.61339e-07
-1.8459e-07 -5.52689e-05 -1.66683e-06
-3.61339e-07 -1.66683e-06 -0.000105755
0.000694832 -5.43484e-06 -3.84307e-07
-5.43484e-06 -0.000122381 -2.46902e-06
-3.84307e-07 -2.46902e-06 -0.000150771
0.00105775 5.47363e-07 -6.80743e-09
5.47363e-07 7.19643e-05 8.4613e-08
-6.80743e-09 8.4613e-08 2.61204e-05
0.000905148 -5.85665e-06 -6.68415e-07
-5.85665e-06 -2.72676e-05 -3.20198e-06
-6.68415e-07 -3.20198e-06 -2.55895e-05
0.000830697 -3.46471e-06 2.75718e-08
-3.46471e-06 -5.57297e-05 -1.61345e-08
2.75718e-08 -1.61345e-08 -8.14442e-05
0.000815212 -1.17301e-05 -1.4324e-07
-1.17301e-05 -5.0333e-05 1.22969e-06
-1.4324e-07 1.22969e-06 -9.42549e-05
0.00216049 -3.90214e-06 -3.5449e-06
-3.90214e-06 0.000608994 -3.9807e-06
-3.5449e-06 -3.9807e-06 0.000633493
0.000897553 -2.79893e-06 -1.29201e-07
-2.79893e-06 -3.27952e-05 -1.42424e-08
-1.29201e-07 -1.42424e-08 -2.99836e-05
0.000959056 -1.97096e-06 -3.76982e-08
-1.97096e-06 7.7195e-06 1.79012e-06
-3.76982e-08 1.79012e-06 -1.6057e-05
0.00214443 1.94356e-07 -1.17569e-06
1.94356e-07 0.000600187 -1.39533e-10
-1.17569e-06 -1.39533e-10 0.000624982
0.00089872 3.84707e-07 -1.07886e-07
3.84707e-07 -3.28361e-05 3.16442e-06
-1.07886e-07 3.16442e-06 -2.95885e-05
0.00214696 4.38413e-06 -3.19157e-06
4.38413e-06 0.000602187 3.92309e-06
-3.19157e-06 3.92309e-06 0.000626804
0.0013337 -6.44023e-06 1.07374e-05
-6.44023e-06 0.000408494 -6.88499e-07
1.07374e-05 -6.88499e-07 0.000332319
0.00119445 2.3035e-05 2.09322e-06
2.3035e-05 0.000280263 -2.0291e-07
2.09322e-06 -2.0291e-07 0.000298422
0.000334646 3.95437e-06 0.000113571
3.95437e-06 -0.000209246 -1.8562e-05
0.000113571 -1.8562e-05 -0.000397063
0.00101971 1.84741e-05 -4.6506e-07
1.84741e-05 5.71242e-05 -1.02884e-06
-4.6506e-07 -1.02884e-06 -9.12396e-06
0.00141301 -7.03495e-06 1.25161e-05
-7.03495e-06 0.000363557 1.41938e-07
1.25161e-05 1.41938e-07 0.000276376
0.00129407 3.66372e-06 -2.41927e-06
3.66372e-06 0.000324431 -2.12863e-08
-2.41927e-06 -2.12863e-08 0.000274475
0.00122598 7.9993e-05 1.14576e-06
7.9993e-05 0.000259295 -1.40776e-06
1.14576e-06 -1.40776e-06 0.000393822
0.00139887 6.82698e-05 -4.24294e-05
6.82698e-05 7.44023e-05 1.78074e-05
-4.24294e-05 1.78074e-05 -0.000148373
0.00555792 0.000249106 1.3539e-05
0.000249106 0.00194829 -1.1318e-05
1.3539e-05 -1.1318e-05 0.00120188
-0.00075207 0.000181484 5.50942e-05
0.000181484 -0.000651232 -3.44666e-05
5.50942e-05 -3.44666e-05 -0.000626152
0.00219963 8.14655e-05 3.12439e-06
8.14655e-05 0.000466263 2.06917e-06
3.12439e-06 2.06917e-06 0.000765943
0.00149674 5.04631e-05 -2.33751e-05
5.04631e-05 0.000125202 9.19437e-06
-2.33751e-05 9.19437e-06 -0.000223115
0.00453403 0.000198819 2.06484e-05
0.000198819 0.00123097 -2.05185e-05
2.06484e-05 -2.05185e-05 0.000491622
0.00100339 0.000224627 -5.66016e-06
0.000224627 -0.000526267 1.13623e-05
-5.66016e-06 1.13623e-05 -0.000379936
0.00165417 2.122e-05 1.09713e-06
2.122e-05 0.000218567 1.4363e-06
1.09713e-06 1.4363e-06 0.000376232
0.00266074 -7.31898e-05 2.13014e-05
-7.31898e-05 0.000586543 -3.07854e-05
2.13014e-05 -3.07854e-05 0.000209611
0.00668635 0.000181768 2.37854e-05
0.000181768 0.00170353 -5.01757e-06
2.37854e-05 -5.01757e-06 0.000818646
0.00231938 0.000210261 5.21093e-06
0.000210261 -9.56869e-05 6.65643e-05
5.21093e-06 6.65643e-05 -8.03551e-05
0.002995 2.13827e-05 -4.19039e-06
2.13827e-05 0.00109327 -3.5767e-06
-4.19039e-06 -3.5767e-06 0.00120477
0.000974148 -3.03001e-06 8.05626e-08
-3.03001e-06 3.87696e-05 -1.35251e-06
8.05626e-08 -1.35251e-06 -4.22571e-05
0.00104528 -1.34154e-05 2.41933e-07
-1.34154e-05 8.33084e-05 -4.99106e-08
2.41933e-07 -4.99106e-08 6.55068e-06
0.00111234 3.22631e-05 -3.15555e-07
3.22631e-05 0.000116657 7.0656e-07
-3.15555e-07 7.0656e-07 4.92377e-05
0.000991859 1.19759e-05 -3.98265e-07
1.19759e-05 4.6813e-05 -1.5253e-06
-3.98265e-07 -1.5253e-06 -2.64543e-05
0.00106327 2.72508e-05 -2.49547e-07
2.72508e-05 8.86762e-05 4.15266e-07
-2.49547e-07 4.15266e-07 1.65059e-05
0.00112167 1.5076e-05 3.00752e-07
1.5076e-05 0.000118789 1.68072e-06
3.00752e-07 1.68072e-06 5.28036e-05
0.00117488 3.1469e-05 -2.81979e-07
3.1469e-05 0.000140193 3.79096e-08
-2.81979e-07 3.79096e-08 7.70355e-05
0.00118156 3.19768e-05 5.98092e-07
3.19768e-05 0.00014625 1.64952e-06
5.98092e-07 1.64952e-06 8.57053e-05
0.00181688 -0.000123378 2.14529e-06
-0.000123378 -4.46318e-05 -2.98422e-06
2.14529e-06 -2.98422e-06 -4.77955e-05
0.00135055 -0.000111687 -1.87292e-06
-0.000111687 0.000239476 4.29553e-06
-1.87292e-06 4.29553e-06 5.72808e-05
0.00100849 -5.17856e-05 -9.37449e-07
-5.17856e-05 6.58292e-05 1.3691e-06
-9.37449e-07 1.3691e-06 -1.5964e-05
0.00147234 -1.82369e-05 -6.06162e-08
-1.82369e-05 0.000321902 1.01665e-06
-6.06162e-08 1.01665e-06 0.000178027
0.0012876 -1.9993e-05 -4.40877e-07
-1.9993e-05 0.000189978 9.28032e-07
-4.40877e-07 9.28032e-07 9.10525e-05
0.00114659 6.75899e-06 -3.65823e-07
6.75899e-06 0.000131742 -7.35922e-08
-3.65823e-07 -7.35922e-08 4.39952e-05
0.00107497 2.56879e-05 8.63705e-08
2.56879e-05 8.99893e-05 3.06452e-07
8.63705e-08 3.06452e-07 3.41976e-06
0.00185659 -0.000158706 5.84284e-08
-0.000158706 0.000120893 -7.21055e-07
5.84284e-08 -7.21055e-07 0.000116752
0.0010765 1.16315e-05 6.02655e-08
1.16315e-05 7.83653e-05 -5.94245e-07
6.02655e-08 -5.94245e-07 -1.67509e-05
0.00112515 7.26232e-06 -1.1993e-07
7.26232e-06 0.000116366 1.46554e-07
-1.1993e-07 1.46554e-07 4.59061e-06
0.00111672 -2.54342e-05 -4.52058e-07
-2.54342e-05 0.000255794 4.29123e-07
-4.52058e-07 4.29123e-07 9.61431e-06
0.0011931 2.87279e-05 1.07479e-07
2.87279e-05 0.0001388 -9.2335e-07
1.07479e-07 -9.2335e-07 5.39946e-05
0.00157847 -0.000144801 -2.99155e-05
-0.000144801 0.000337686 -3.95204e-06
-2.99155e-05 -3.95204e-06 0.000193345
0.0013502 4.67487e-05 -4.83444e-06
4.67487e-05 0.000363688 8.06623e-07
-4.83444e-06 8.06623e-07 0.000167854
0.000980321 2.10339e-05 -3.94097e-07
2.10339e-05 2.05737e-05 -1.59515e-07
-3.94097e-07 -1.59515e-07 -7.02536e-05
0.00122423 4.40084e-05 -2.78409e-07
4.40084e-05 0.000154181 -1.12619e-06
-2.78409e-07 -1.12619e-06 6.27181e-05
0.00142765 -7.1385e-07 6.07298e-06
-7.1385e-07 0.000422427 -6.6153e-07
6.07298e-06 -6.6153e-07 0.000311995
0.00164964 -4.62919e-06 -5.72728e-06
-4.62919e-06 0.000620863 1.93238e-07
-5.72728e-06 1.93238e-07 0.000541825
-0.00105956 -6.55467e-06 1.16652e-05
-6.55467e-06 -0.00099625 6.11892e-07
1.16652e-05 6.11892e-07 -0.00101072
0.000661163 4.43066e-05 1.86111e-06
4.43066e-05 -0.000104713 1.49048e-06
1.86111e-06 1.49048e-06 -0.000181868
-0.000965509 7.42437e-06 -8.27183e-06
7.42437e-06 -0.000729211 2.58419e-06
-8.27183e-06 2.58419e-06 -0.000909462
0.000710759 6.91902e-06 -1.3559e-05
6.91902e-06 5.69262e-05 -3.08413e-06
-1.3559e-05 -3.08413e-06 -2.64361e-05
0.00439024 -0.000279058 3.97462e-05
-0.000279058 0.000846631 8.78238e-06
3.97462e-05 8.78238e-06 -3.2836e-05
0.00281893 0.000169013 -2.7755e-05
0.000169013 0.000573609 -6.95717e-05
-2.7755e-05 -6.95717e-05 0.000177188
0.00265465 -0.000247424 1.16461e-05
-0.000247424 -1.72613e-05 0.000102376
1.16461e-05 0.000102376 0.000124968
0.000682347 1.71518e-05 -5.3768e-06
1.71518e-05 -8.02882e-05 -2.59528e-06
-5.3768e-06 -2.59528e-06 -0.000179681
9.32608e-05 -1.16921e-05 4.05041e-07
-1.16921e-05 -0.000575939 -3.22859e-06
4.05041e-07 -3.22859e-06 -0.000588964
0.00123305 4.29983e-05 -1.71486e-06
4.29983e-05 0.000194356 -7.34574e-07
-1.71486e-06 -7.34574e-07 0.000123573
0.00087184 6.90826e-06 -1.91905e-07
6.90826e-06 3.63537e-05 -9.49297e-07
-1.91905e-07 -9.49297e-07 -7.6023e-05
0.00118892 -6.11852e-06 6.16478e-07
-6.11852e-06 0.000174303 5.38673e-07
6.16478e-07 5.38673e-07 6.88997e-05
0.000236679 5.69564e-05 8.19353e-06
5.69564e-05 4.27341e-05 -3.92875e-06
8.19353e-06 -3.92875e-06 -4.03427e-05
0.00152166 1.13897e-05 -1.59563e-06
1.13897e-05 0.00019119 -1.25653e-06
-1.59563e-06 -1.25653e-06 0.000301489
0.00491361 5.91512e-05 2.19353e-05
5.91512e-05 0.000478811 -2.99901e-06
2.19353e-05 -2.99901e-06 0.000110456
0.00340106 1.04775e-05 -2.14019e-05
1.04775e-05 0.000422848 -3.55535e-06
-2.14019e-05 -3.55535e-06 0.000571798
0.00108148 5.9194e-05 2.64371e-06
5.9194e-05 0.000264677 -6.27403e-06
2.64371e-06 -6.27403e-06 0.000179426
0.00142188 -4.95724e-06 -8.11231e-07
-4.95724e-06 0.000341439 -5.46691e-06
-8.11231e-07 -5.46691e-06 0.000217398
0.00125763 -1.97866e-05 -1.50433e-05
-1.97866e-05 0.000261823 5.06482e-07
-1.50433e-05 5.06482e-07 0.000151467
0.000792415 8.81423e-05 2.49634e-06
8.81423e-05 -0.000419986 2.37922e-06
2.49634e-06 2.37922e-06 -0.000115726
0.00223485 0.000244538 -6.12553e-06
0.000244538 -4.99871e-05 -5.85939e-05
-6.12553e-06 -5.85939e-05 -7.64071e-05
0.000655493 0.000110019 8.34195e-06
0.000110019 0.000376636 -6.46709e-06
8.34195e-06 -6.46709e-06 0.000344999
0.00310571 -0.000117503 4.45383e-05
-0.000117503 -0.000120298 2.10598e-05
4.45383e-05 2.10598e-05 -0.000541218
0.00130122 5.22334e-05 -1.2027e-06
5.22334e-05 0.000183455 3.52113e-06
-1.2027e-06 3.52113e-06 7.44003e-05
0.00131563 3.75785e-05 -1.17837e-06
3.75785e-05 0.000234794 6.2926e-07
-1.17837e-06 6.2926e-07 0.000131625
6.24496e-05 -3.01374e-05 -5.37497e-07
-3.01374e-05 -0.000209833 -4.39722e-06
-5.37497e-07 -4.39722e-06 -0.000451443
0.00118042 1.22845e-05 -2.0709e-07
1.22845e-05 0.000137142 -6.92377e-07
-2.0709e-07 -6.92377e-07 5.66903e-05
0.00108713 -2.51786e-05 4.07883e-07
-2.51786e-05 9.97824e-05 -7.29708e-08
4.07883e-07 -7.29708e-08 -3.76157e-06
0.000874646 -1.61404e-05 -1.98412e-06
-1.61404e-05 1.76023e-05 3.26585e-06
-1.98412e-06 3.26585e-06 -0.000103074
0.00107785 -3.88623e-05 -2.01471e-07
-3.88623e-05 7.86336e-05 5.28921e-08
-2.01471e-07 5.28921e-08 -1.36882e-05
0.000902861 -2.06482e-05 2.52494e-07
-2.06482e-05 3.60466e-05 1.16391e-06
2.52494e-07 1.16391e-06 -6.93531e-05
0.000935847 -3.55316e-05 3.65248e-07
-3.55316e-05 9.09692e-05 -7.39958e-08
3.65248e-07 -7.39958e-08 -3.77867e-05
0.00105142 -2.93112e-05 1.54272e-07
-2.93112e-05 6.6321e-05 -4.10458e-07
1.54272e-07 -4.10458e-07 -2.01449e-05
0.00104522 -1.62853e-05 3.20805e-08
-1.62853e-05 6.96731e-05 -8.68725e-09
3.20805e-08 -8.68725e-09 -1.62302e-05
0.00118361 -5.12941e-05 1.06477e-07
-5.12941e-05 0.000152193 4.18005e-07
1.06477e-07 4.18005e-07 5.7644e-05
0.00100524 -5.45757e-05 2.34858e-07
-5.45757e-05 0.000102763 1.29977e-06
2.34858e-07 1.29977e-06 -1.95255e-05
0.000954064 -4.78358e-05 -4.31809e-07
-4.78358e-05 4.28207e-05 -3.77749e-07
-4.31809e-07 -3.77749e-07 -4.5262e-05
0.000884183 -4.93565e-05 7.11087e-07
-4.93565e-05 1.57391e-05 -3.36535e-07
7.11087e-07 -3.36535e-07 -8.77254e-05
0.00113571 -6.35744e-05 5.06206e-07
-6.35744e-05 0.000133303 9.60603e-07
5.06206e-07 9.60603e-07 1.80484e-05
0.00119662 -6.54437e-05 -2.16786e-06
-6.54437e-05 0.000123133 2.08366e-06
-2.16786e-06 2.08366e-06 2.45956e-05
0.00134165 -6.00646e-05 3.5574e-07
-6.00646e-05 0.000231985 -2.27956e-07
3.5574e-07 -2.27956e-07 0.000140946
0.000917097 -5.5471e-05 -2.95307e-07
-5.5471e-05 8.98969e-06 -2.77829e-08
-2.95307e-07 -2.77829e-08 -9.18561e-05
0.00129795 -6.1838e-05 4.45575e-08
-6.1838e-05 0.000197567 1.14568e-07
4.45575e-08 1.14568e-07 0.000115658
0.000877369 -4.60558e-05 -9.86382e-07
-4.60558e-05 6.87919e-06 1.56573e-07
-9.86382e-07 1.56573e-07 -7.30971e-05
0.00103794 -5.50589e-05 4.56859e-07
-5.50589e-05 7.1764e-05 4.69523e-08
4.56859e-07 4.69523e-08 -1.4302e-05
0.00105635 -4.33985e-05 -1.17459e-06
-4.33985e-05 8.36068e-05 1.40756e-07
-1.17459e-06 1.40756e-07 1.08942e-05
0.00109626 -5.21899e-05 -9.3548e-07
-5.21899e-05 0.000105395 5.65198e-07
-9.3548e-07 5.65198e-07 2.62773e-05
0.000885836 -5.07144e-05 -2.26493e-08
-5.07144e-05 2.85348e-06 -9.11276e-07
-2.26493e-08 -9.11276e-07 -8.67846e-05
0.0010214 -1.40931e-05 -1.11321e-06
-1.40931e-05 5.61217e-05 1.35753e-06
-1.11321e-06 1.35753e-06 -4.62235e-06
0.00102305 -4.17068e-05 1.61224e-07
-4.17068e-05 6.37081e-05 1.72866e-07
1.61224e-07 1.72866e-07 -1.02345e-05
0.00113294 -5.16015e-05 1.68052e-06
-5.16015e-05 0.000124434 -3.74892e-07
1.68052e-06 -3.74892e-07 4.42351e-05
0.00102376 -3.38652e-05 7.01296e-07
-3.38652e-05 6.68599e-05 -8.41368e-07
7.01296e-07 -8.41368e-07 -5.87755e-06
0.00099407 -8.76381e-06 1.52426e-07
-8.76381e-06 4.14436e-05 -2.49101e-08
1.52426e-07 -2.49101e-08 -1.63309e-05
0.000934352 9.32813e-06 -1.1817e-06
9.32813e-06 8.82445e-06 2.1677e-06
-1.1817e-06 2.1677e-06 -2.73848e-05
0.000985729 -9.7539e-06 4.95969e-07
-9.7539e-06 3.73032e-05 -1.35204e-06
4.95969e-07 -1.35204e-06 -1.71013e-05
0.000928745 1.06095e-05 8.88106e-08
1.06095e-05 3.09734e-06 -3.09957e-08
8.88106e-08 -3.09957e-08 -3.04643e-05
0.000849243 1.57664e-05 -1.97839e-06
1.57664e-05 -3.98073e-05 3.33634e-06
-1.97839e-06 3.33634e-06 -4.47203e-05
0.000931977 5.63876e-06 8.28024e-07
5.63876e-06 2.16956e-06 -1.91697e-06
8.28024e-07 -1.91697e-06 -2.94068e-05
0.000867701 1.35848e-05 1.309e-07
1.35848e-05 -3.50852e-05 7.03413e-09
1.309e-07 7.03413e-09 -3.85799e-05
0.0022743 2.19579e-05 -4.18122e-06
2.19579e-05 0.000679389 1.6293e-06
-4.18122e-06 1.6293e-06 0.000700133
0.000889333 1.12119e-05 1.41828e-06
1.12119e-05 -2.86189e-05 -3.20599e-06
1.41828e-06 -3.20599e-06 -3.0758e-05
0.00167321 1.45938e-05 4.39554e-06
1.45938e-05 0.000368625 -1.17447e-06
4.39554e-06 -1.17447e-06 0.00038759
0.00227268 1.21097e-05 8.38831e-06
1.21097e-05 0.000670759 -3.97121e-06
8.38831e-06 -3.97121e-06 0.000693233
0.000792738 -2.36708e-06 -3.05753e-07
-2.36708e-06 -6.34173e-05 -1.85125e-06
-3.05753e-07 -1.85125e-06 -0.000116246
0.000679092 -7.0055e-06 -6.55457e-07
-7.0055e-06 -0.00012831 -2.51198e-06
-6.55457e-07 -2.51198e-06 -0.000159546
0.000947188 -1.19186e-06 -1.19102e-07
-1.19186e-06 1.55128e-05 -4.93612e-07
-1.19102e-07 -4.93612e-07 -3.42566e-05
0.000904251 -8.82952e-06 -9.47637e-07
-8.82952e-06 -2.49626e-05 -3.26355e-06
-9.47637e-07 -3.26355e-06 -2.4883e-05
0.000694248 -5.60097e-06 -9.41578e-08
-5.60097e-06 -0.000122439 -6.08809e-07
-9.41578e-08 -6.08809e-07 -0.000151188
0.00106762 2.09107e-07 9.82972e-08
2.09107e-07 7.7072e-05 1.34268e-06
9.82972e-08 1.34268e-06 3.09878e-05
0.00218833 -7.93657e-06 -6.07941e-06
-7.93657e-06 0.000624792 -4.0132e-06
-6.07941e-06 -4.0132e-06 0.000648684
0.000894326 -5.79364e-06 -9.83424e-08
-5.79364e-06 -3.27022e-05 -1.69538e-08
-9.83424e-08 -1.69538e-08 -3.09438e-05
0.000702497 -3.79209e-06 1.13037e-07
-3.79209e-06 -0.000119741 1.78443e-06
1.13037e-07 1.78443e-06 -0.000146354
0.00215841 -3.80248e-06 -1.19613e-06
-3.80248e-06 0.000607784 9.06327e-09
-1.19613e-06 9.06327e-09 0.000632353
0.000891663 -2.71407e-06 1.59948e-07
-2.71407e-06 -3.58086e-05 3.18441e-06
1.59948e-07 3.18441e-06 -3.29446e-05
0.00214315 3.1453e-07 -6.13134e-07
3.1453e-07 0.000599519 3.9376e-06
-6.13134e-07 3.9376e-06 0.000624327
0.00116132 -6.64349e-06 8.25479e-06
-6.64349e-06 0.000249321 -8.07714e-07
8.25479e-06 -8.07714e-07 0.000142923
0.00118939 -7.19786e-06 -3.09715e-06
-7.19786e-06 0.00031527 4.89007e-07
-3.09715e-06 4.89007e-07 0.000240243
0.00113523 7.79333e-06 1.82211e-06
7.79333e-06 0.000250717 3.55188e-06
1.82211e-06 3.55188e-06 0.000252893
0.00105876 2.47806e-05 -8.3768e-08
2.47806e-05 7.62479e-05 8.60362e-08
-8.3768e-08 8.60362e-08 1.06489e-05
0.000954019 1.68906e-05 -3.28209e-07
1.68906e-05 1.86672e-05 -9.82895e-07
-3.28209e-07 -9.82895e-07 -4.85254e-05
0.00116451 3.35605e-05 -2.5276e-07
3.35605e-05 0.000132149 -3.31414e-07
-2.5276e-07 -3.31414e-07 5.80277e-05
0.00218601 1.44833e-05 -2.10421e-06
1.44833e-05 0.000813482 -9.36293e-06
-2.10421e-06 -9.36293e-06 0.000737679
0.00116611 -7.00445e-06 5.82894e-06
-7.00445e-06 0.000213925 -4.02252e-07
5.82894e-06 -4.02252e-07 0.000129528
0.00147919 -9.0096e-08 -1.40474e-05
-9.0096e-08 0.000458821 5.83937e-06
-1.40474e-05 5.83937e-06 0.000401178
0.000253046 5.24441e-05 -3.02203e-05
5.24441e-05 -0.000323599 1.12388e-05
-3.02203e-05 1.12388e-05 -0.000532582
0.00222179 0.000171647 1.38403e-05
0.000171647 0.000326399 -1.31001e-05
1.38403e-05 -1.31001e-05 -0.000516556
0.00320718 0.00028629 3.44336e-05
0.00028629 0.000603534 -2.36354e-05
3.44336e-05 -2.36354e-05 0.000723414
0.000461033 8.0578e-06 4.82279e-06
8.0578e-06 -0.000457772 2.29392e-06
4.82279e-06 2.29392e-06 -0.000341902
0.000615648 -3.44251e-05 -1.19736e-05
-3.44251e-05 -0.000137089 1.09024e-05
-1.19736e-05 1.09024e-05 -0.000285111
0.00502682 9.03792e-05 3.62559e-05
9.03792e-05 0.0010492 -4.25128e-05
3.62559e-05 -4.25128e-05 0.000229707
0.000723802 0.000104285 -6.70571e-07
0.000104285 -0.000724716 1.23481e-05
-6.70571e-07 1.23481e-05 -0.000534682
0.00112058 1.47961e-05 1.53245e-07
1.47961e-05 -4.86222e-05 1.46887e-06
1.53245e-07 1.46887e-06 3.6986e-05
0.00210902 -0.00020238 2.42535e-05
-0.00020238 0.000298287 -5.10058e-05
2.42535e-05 -5.10058e-05 0.000159178
0.0080037 0.000109293 2.37144e-05
0.000109293 0.00211239 -3.32698e-05
2.37144e-05 -3.32698e-05 0.00154971
5.15932e-05 -3.84748e-06 4.75535e-07
-3.84748e-06 -0.000986589 7.59899e-05
4.75535e-07 7.59899e-05 -0.000831529
-4.55732e-05 5.89659e-06 -4.60534e-07
5.89659e-06 -0.000777211 1.446e-06
-4.60534e-07 1.446e-06 -0.000649718
0.00108144 8.28134e-06 -5.39369e-08
8.28134e-06 8.68377e-05 -8.84391e-07
-5.39369e-08 -8.84391e-07 5.05389e-06
0.000995183 -1.91867e-06 -8.13467e-08
-1.91867e-06 5.1033e-05 -2.30125e-07
-8.13467e-08 -2.30125e-07 -3.04367e-05
0.00104716 -1.88593e-05 -1.2847e-07
-1.88593e-05 8.39354e-05 1.10058e-06
-1.2847e-07 1.10058e-06 6.80104e-06
0.00101689 2.06837e-05 -3.92262e-07
2.06837e-05 5.9823e-05 -6.93828e-07
-3.92262e-07 -6.93828e-07 -1.38229e-05
0.00114389 5.04691e-05 1.08238e-06
5.04691e-05 0.000129514 1.46061e-06
1.08238e-06 1.46061e-06 5.8057e-05
0.00122305 3.18089e-05 1.0649e-07
3.18089e-05 0.000163906 1.03896e-06
1.0649e-07 1.03896e-06 0.000101055
0.00263515 -0.000174769 6.71248e-06
-0.000174769 0.000493275 3.85319e-08
6.71248e-06 3.85319e-08 0.000491051
0.000841502 -1.27705e-05 1.25204e-07
-1.27705e-05 0.000125632 5.66053e-06
1.25204e-07 5.66053e-06 -0.000127459
0.00111668 2.88293e-05 4.17328e-07
2.88293e-05 0.000110882 1.19363e-06
4.17328e-07 1.19363e-06 2.42765e-05
0.00122523 -1.23356e-05 6.93931e-07
-1.23356e-05 0.00017204 1.777e-07
6.93931e-07 1.777e-07 5.40901e-05
0.00112448 2.96006e-06 1.37679e-08
2.96006e-06 0.000104788 4.64504e-07
1.37679e-08 4.64504e-07 1.06023e-05
0.00109772 2.31157e-05 3.81312e-07
2.31157e-05 9.11954e-05 1.95245e-07
3.81312e-07 1.95245e-07 6.78261e-06
0.00113683 2.94156e-05 2.10773e-07
2.94156e-05 0.000108803 -2.19849e-07
2.10773e-07 -2.19849e-07 1.74695e-05
0.00120062 -0.000135168 -8.54947e-07
-0.000135168 9.47244e-05 2.08971e-06
-8.54947e-07 2.08971e-06 -7.93801e-06
0.00124617 6.26351e-07 5.2245e-07
6.26351e-07 0.000148665 -1.33084e-06
5.2245e-07 -1.33084e-06 5.95355e-05
0.0014752 5.07334e-05 -1.64323e-06
5.07334e-05 0.000443594 -6.90189e-07
-1.64323e-06 -6.90189e-07 0.000255808
0.00094731 3.68744e-06 3.20131e-07
3.68744e-06 1.26932e-05 -2.2477e-06
3.20131e-07 -2.2477e-06 -7.41014e-05
9.70727e-05 -2.16546e-05 3.54766e-06
-2.16546e-05 -1.80138e-05 -5.17995e-06
3.54766e-06 -5.17995e-06 -0.000282325
0.000522264 2.58758e-05 -2.37949e-06
2.58758e-05 -0.000144586 6.20663e-06
-2.37949e-06 6.20663e-06 -0.000199817
0.00105972 -4.03867e-06 1.12723e-07
-4.03867e-06 6.40171e-05 -1.47826e-06
1.12723e-07 -1.47826e-06 -2.86847e-05
0.00130313 -5.34634e-06 9.10355e-07
-5.34634e-06 0.000307327 -6.85379e-07
9.10355e-07 -6.85379e-07 0.00018394
0.00100154 -2.12255e-06 2.10522e-06
-2.12255e-06 0.000154906 1.20702e-07
2.10522e-06 1.20702e-07 4.09269e-05
0.00111988 -4.23568e-06 -1.8773e-05
-4.23568e-06 0.000289644 1.17331e-06
-1.8773e-05 1.17331e-06 0.000208612
0.00142954 6.01827e-05 2.86319e-06
6.01827e-05 0.000291303 4.11215e-06
2.86319e-06 4.11215e-06 0.000215414
-0.000611777 5.83519e-05 7.08181e-06
5.83519e-05 -0.000443902 -1.19069e-05
7.08181e-06 -1.19069e-05 -0.000526544
0.00075146 4.61607e-06 -5.01147e-06
4.61607e-06 -3.94681e-05 2.26971e-06
-5.01147e-06 2.26971e-06 -0.000152719
0.0034675 -3.0784e-05 -1.58048e-05
-3.0784e-05 0.000283539 -1.08596e-05
-1.58048e-05 -1.08596e-05 4.90023e-05
-0.0011125 2.13412e-05 1.8916e-06
2.13412e-05 -0.00169423 7.01558e-05
1.8916e-06 7.01558e-05 -0.00150094
0.000276807 -7.29263e-06 -1.07674e-06
-7.29263e-06 -0.000406565 -5.19195e-06
-1.07674e-06 -5.19195e-06 -0.000516178
0.00046929 -1.57505e-06 -2.18479e-06
-1.57505e-06 -0.000399749 -6.7711e-06
-2.18479e-06 -6.7711e-06 -0.000327053
0.000646925 4.0162e-05 1.63314e-06
4.0162e-05 2.19834e-05 8.66621e-07
1.63314e-06 8.66621e-07 -6.34256e-05
0.00119066 -4.52571e-06 -3.01493e-07
-4.52571e-06 0.000208075 4.07224e-07
-3.01493e-07 4.07224e-07 8.32073e-05
0.00121082 -2.13644e-05 -5.96254e-06
-2.13644e-05 0.00024035 1.28753e-06
-5.96254e-06 1.28753e-06 0.000131578
0.00139256 0.000158813 2.66219e-05
0.000158813 0.000348128 8.79508e-07
2.66219e-05 8.79508e-07 0.000216691
0.00138424 7.74951e-05 1.80832e-06
7.74951e-05 1.59098e-05 -3.07643e-06
1.80832e-06 -3.07643e-06 0.000281563
0.000570152 0.000135799 2.06063e-06
0.000135799 -0.000736235 -1.33218e-05
2.06063e-06 -1.33218e-05 -0.000586063
0.00701668 -7.18976e-06 7.74028e-06
-7.18976e-06 0.00179621 -1.96168e-05
7.74028e-06 -1.96168e-05 0.00143625
-0.00100871 5.011e-06 -2.0306e-05
5.011e-06 -0.000269976 -1.24249e-05
-2.0306e-05 -1.24249e-05 -0.000525998
0.00115076 -1.37317e-05 -8.76396e-06
-1.37317e-05 0.000245433 7.89481e-07
-8.76396e-06 7.89481e-07 0.000124019
0.000961816 -1.5908e-06 -1.13967e-05
-1.5908e-06 0.00010074 2.18542e-06
-1.13967e-05 2.18542e-06 4.32479e-05
0.00134041 0.000127837 9.51652e-06
0.000127837 0.000136013 -4.8191e-07
9.51652e-06 -4.8191e-07 0.000435282
-0.00294611 0.000221651 4.00895e-05
0.000221651 -0.00219024 -3.86507e-05
4.00895e-05 -3.86507e-05 -0.00212861
0.00776077 0.000155135 -1.26551e-06
0.000155135 0.00207972 -9.02207e-06
-1.26551e-06 -9.02207e-06 0.00129508
0.00143188 -2.22631e-05 -2.10488e-05
-2.22631e-05 0.000347104 9.23495e-05
-2.10488e-05 9.23495e-05 7.03559e-05
0.000817709 2.01017e-05 1.00843e-06
2.01017e-05 -2.23088e-05 3.36046e-06
1.00843e-06 3.36046e-06 -0.000121807
0.000504281 -1.36043e-05 1.23806e-06
-1.36043e-05 -4.57767e-07 -1.44554e-06
1.23806e-06 -1.44554e-06 -0.000238396
0.000736063 -3.58051e-05 7.61747e-09
-3.58051e-05 0.000164432 -2.16753e-06
7.61747e-09 -2.16753e-06 -0.000108376
0.00102736 -4.35967e-05 4.35829e-07
-4.35967e-05 5.53377e-05 -9.49633e-07
4.35829e-07 -9.49633e-07 -3.71918e-05
0.000717754 -2.69838e-05 1.09744e-08
-2.69838e-05 -5.7073e-05 1.14892e-06
1.09744e-08 1.14892e-06 -0.000163993
0.000834338 -2.49025e-05 -1.46905e-07
-2.49025e-05 3.93225e-05 7.15404e-07
-1.46905e-07 7.15404e-07 -8.34653e-05
0.000895998 -6.57376e-05 2.08539e-06
-6.57376e-05 0.000133299 -1.31817e-06
2.08539e-06 -1.31817e-06 -6.70064e-05
0.00132633 -5.58966e-05 -7.8189e-08
-5.58966e-05 0.000218572 -6.89409e-08
-7.8189e-08 -6.89409e-08 0.000122507
0.00128602 -6.47382e-05 -6.34394e-08
-6.47382e-05 0.000231812 3.74375e-07
-6.34394e-08 3.74375e-07 0.000106832
0.0011291 -7.14135e-05 1.36596e-06
-7.14135e-05 0.000154125 1.95523e-06
1.36596e-06 1.95523e-06 9.71856e-07
0.000664373 -4.34651e-05 6.72041e-09
-4.34651e-05 -8.96668e-05 -1.40964e-06
6.72041e-09 -1.40964e-06 -0.000190459
0.00111501 -6.25946e-05 -3.36055e-07
-6.25946e-05 0.000121614 -1.01068e-08
-3.36055e-07 -1.01068e-08 4.64918e-06
0.0017242 -8.53896e-05 -1.32988e-06
-8.53896e-05 0.000387229 1.66589e-06
-1.32988e-06 1.66589e-06 0.000268777
0.00139777 -7.44859e-05 -1.93124e-06
-7.44859e-05 0.000205994 2.52902e-06
-1.93124e-06 2.52902e-06 0.000101473
0.000845068 -5.34616e-05 -5.46961e-07
-5.34616e-05 -3.74442e-05 1.8648e-06
-5.46961e-07 1.8648e-06 -0.000123275
0.00112798 -6.41615e-05 -4.97123e-07
-6.41615e-05 9.10256e-05 4.48848e-07
-4.97123e-07 4.48848e-07 -9.12912e-06
0.00109269 -6.00865e-05 -5.60226e-08
-6.00865e-05 9.39852e-05 -9.71249e-07
-5.60226e-08 -9.71249e-07 -8.43452e-06
0.00123499 -5.79518e-05 3.2364e-07
-5.79518e-05 0.000167313 -3.0463e-07
3.2364e-07 -3.0463e-07 9.06111e-05
0.00112176 -5.71245e-05 1.16394e-06
-5.71245e-05 0.000111882 -6.31996e-07
1.16394e-06 -6.31996e-07 3.17348e-05
0.000910628 -3.75221e-05 -5.33623e-07
-3.75221e-05 2.02262e-05 6.24636e-07
-5.33623e-07 6.24636e-07 -5.39038e-05
0.000979539 -4.85108e-05 2.27519e-07
-4.85108e-05 5.63875e-05 -1.12825e-07
2.27519e-07 -1.12825e-07 -2.28596e-05
0.00104509 -5.50023e-05 2.9471e-06
-5.50023e-05 7.44735e-05 -1.48713e-06
2.9471e-06 -1.48713e-06 -1.01418e-05
0.000996008 -8.69057e-06 -1.48717e-06
-8.69057e-06 4.64853e-05 1.04618e-06
-1.48717e-06 1.04618e-06 -1.55248e-05
0.00107486 -4.3892e-05 -2.96849e-07
-4.3892e-05 9.15109e-05 -5.14671e-08
-2.96849e-07 -5.14671e-08 1.89925e-05
0.00111985 -5.28192e-05 4.4495e-07
-5.28192e-05 0.000116262 -9.02399e-08
4.4495e-07 -9.02399e-08 3.69472e-05
0.000928726 5.66349e-06 -1.7388e-06
5.66349e-06 8.61416e-06 2.30146e-06
-1.7388e-06 2.30146e-06 -3.05372e-05
0.00100889 -1.52096e-05 1.6542e-07
-1.52096e-05 4.9074e-05 1.16275e-07
1.6542e-07 1.16275e-07 -1.12969e-05
0.00100369 -4.05397e-05 1.38213e-06
-4.05397e-05 5.29675e-05 -2.12413e-07
1.38213e-06 -2.12413e-07 -2.09713e-05
0.000996173 -9.15396e-06 9.39645e-07
-9.15396e-06 4.21016e-05 -1.37919e-06
9.39645e-07 -1.37919e-06 -1.55694e-05
0.000924595 1.08945e-05 2.19864e-07
1.08945e-05 4.27598e-06 -3.69364e-08
2.19864e-07 -3.69364e-08 -3.20447e-05
0.000836624 1.78989e-05 -2.36431e-06
1.78989e-05 -4.10507e-05 3.42178e-06
-2.36431e-06 3.42178e-06 -4.78773e-05
0.000923342 1.13127e-05 9.38288e-07
1.13127e-05 5.39563e-07 -2.10665e-06
9.38288e-07 -2.10665e-06 -3.31133e-05
0.000863315 1.59131e-05 1.00003e-07
1.59131e-05 -3.29053e-05 -1.35789e-08
1.00003e-07 -1.35789e-08 -3.78915e-05
0.00235472 2.3692e-05 -1.36906e-05
2.3692e-05 0.000724305 3.90451e-06
-1.36906e-05 3.90451e-06 0.000743986
0.000885117 1.36655e-05 1.82348e-06
1.36655e-05 -2.66937e-05 -3.27076e-06
1.82348e-06 -3.27076e-06 -3.018e-05
0.00168628 1.81616e-05 5.20244e-06
1.81616e-05 0.000380247 -1.14543e-06
5.20244e-06 -1.14543e-06 0.000398017
0.00229574 1.60887e-05 1.06565e-05
1.60887e-05 0.00068619 -3.97616e-06
1.06565e-05 -3.97616e-06 0.000707804
0.000973381 1.51717e-05 -5.88489e-07
1.51717e-05 2.69226e-05 -1.44003e-06
-5.88489e-07 -1.44003e-06 -2.73697e-05
0.000927362 -9.74884e-06 -6.97181e-07
-9.74884e-06 -1.35069e-06 -2.01359e-06
-6.97181e-07 -2.01359e-06 -3.32862e-05
0.000885221 7.72359e-06 -4.82684e-07
7.72359e-06 -1.60887e-05 -5.52621e-07
-4.82684e-07 -5.52621e-07 -6.85822e-05
0.000896807 -1.16082e-05 -1.22232e-06
-1.16082e-05 -2.51046e-05 -3.32887e-06
-1.22232e-06 -3.32887e-06 -2.69356e-05
0.000813018 -7.22923e-06 -2.45069e-07
-7.22923e-06 -6.07338e-05 -5.91503e-07
-2.45069e-07 -5.91503e-07 -9.1367e-05
0.00108939 -2.17943e-06 1.58007e-07
-2.17943e-06 8.67358e-05 7.31197e-07
1.58007e-07 7.31197e-07 3.76797e-05
0.00223273 -1.20251e-05 -8.38628e-06
-1.20251e-05 0.000650017 -4.04024e-06
-8.38628e-06 -4.04024e-06 0.000672975
0.000888725 -8.74161e-06 -9.70522e-08
-8.74161e-06 -3.27473e-05 -1.85279e-08
-9.70522e-08 -1.85279e-08 -3.25562e-05
0.000692674 -5.7129e-06 1.38909e-07
-5.7129e-06 -0.000123055 1.3054e-06
1.38909e-07 1.3054e-06 -0.000152148
0.00218911 -7.83027e-06 -1.06077e-06
-7.83027e-06 0.00062492 1.87986e-08
-1.06077e-06 1.87986e-08 0.000648904
0.000883082 -5.72711e-06 5.02834e-07
-5.72711e-06 -3.83395e-05 3.20943e-06
5.02834e-07 3.20943e-06 -3.65023e-05
0.0021569 -3.69976e-06 2.14699e-06
-3.69976e-06 0.000606845 3.93494e-06
2.14699e-06 3.93494e-06 0.000631481
0.00149233 2.62306e-06 2.66798e-06
2.62306e-06 0.000391268 1.85092e-06
2.66798e-06 1.85092e-06 0.000281263
0.00117552 -5.74237e-06 2.29234e-06
-5.74237e-06 0.000251585 -4.07591e-07
2.29234e-06 -4.07591e-07 0.000146279
0.00112742 -8.02178e-06 -1.68512e-05
-8.02178e-06 0.000272613 1.11245e-06
-1.68512e-05 1.11245e-06 0.000199433
0.00095522 1.28294e-05 -3.30672e-07
1.28294e-05 1.80164e-05 -1.2004e-06
-3.30672e-07 -1.2004e-06 -5.09609e-05
0.00114326 3.55668e-05 -3.46305e-07
3.55668e-05 0.000116551 -7.25588e-07
-3.46305e-07 -7.25588e-07 3.92601e-05
0.00109637 2.93414e-05 9.86446e-07
2.93414e-05 9.4878e-05 1.07044e-06
9.86446e-07 1.07044e-06 2.98173e-05
0.000936029 1.5953e-05 -5.69946e-08
1.5953e-05 1.01403e-05 3.34078e-09
-5.69946e-08 3.34078e-09 -5.72783e-05
0.00108984 2.24595e-05 1.95289e-07
2.24595e-05 9.26143e-05 3.51457e-07
1.95289e-07 3.51457e-07 1.83321e-05
0.00105774 3.03259e-05 -3.79179e-07
3.03259e-05 7.50679e-05 -7.86504e-07
-3.79179e-07 -7.86504e-07 -6.95883e-07
0.00107105 4.62237e-05 -1.41046e-07
4.62237e-05 8.59402e-05 -2.92646e-07
-1.41046e-07 -2.92646e-07 4.34378e-06
0.000915881 2.85283e-05 -3.62592e-06
2.85283e-05 7.05358e-05 -8.95351e-06
-3.62592e-06 -8.95351e-06 -2.263e-05
0.00108519 1.3068e-05 -7.31708e-07
1.3068e-05 0.000113965 -4.86674e-06
-7.31708e-07 -4.86674e-06 3.47742e-05
0.000932851 -7.12801e-06 -4.08756e-07
-7.12801e-06 7.37867e-05 4.61763e-06
-4.08756e-07 4.61763e-06 -7.8323e-06
-0.000341786 8.11011e-06 1.57126e-06
8.11011e-06 -0.000921447 4.02467e-06
1.57126e-06 4.02467e-06 -0.000868043
0.000870563 -4.51257e-05 -6.13809e-05
-4.51257e-05 -0.000388829 6.06566e-05
-6.13809e-05 6.06566e-05 -0.000636577
0.00208071 7.37137e-05 5.24598e-05
7.37137e-05 7.52614e-06 -5.91692e-05
5.24598e-05 -5.91692e-05 -0.000707418
0.00455676 0.000177441 1.68591e-05
0.000177441 0.000852355 -2.88034e-05
1.68591e-05 -2.88034e-05 0.00103502
0.00120638 -0.000173956 -2.30591e-05
-0.000173956 -0.000208966 2.19779e-05
-2.30591e-05 2.19779e-05 -0.0004611
0.00312726 -7.25323e-05 1.86055e-05
-7.25323e-05 -0.000177208 -4.99007e-05
1.86055e-05 -4.99007e-05 -0.000891691
0.00337219 -2.54689e-05 -1.88107e-06
-2.54689e-05 0.000332024 -4.99095e-08
-1.88107e-06 -4.99095e-08 0.000420397
0.00196035 -2.12151e-06 -3.81846e-07
-2.12151e-06 0.000367654 4.63402e-06
-3.81846e-07 4.63402e-06 0.000543641
0.000993678 -0.000137456 3.38772e-05
-0.000137456 -2.0691e-05 -2.39397e-05
3.38772e-05 -2.39397e-05 -0.000175887
0.00314106 -0.000223166 -2.03247e-05
-0.000223166 -0.000534346 -0.000106074
-2.03247e-05 -0.000106074 -0.000866015
-0.000370097 -7.78942e-05 1.91176e-05
-7.78942e-05 -0.00134443 4.87805e-05
1.91176e-05 4.87805e-05 -0.00117843
-0.000936982 -5.72613e-05 -5.98649e-06
-5.72613e-05 -0.00134997 6.42453e-07
-5.98649e-06 6.42453e-07 -0.00110169
0.00114013 1.15724e-05 -7.04294e-07
1.15724e-05 0.000107716 -1.18141e-06
-7.04294e-07 -1.18141e-06 2.49923e-05
0.00105402 1.05813e-05 7.13147e-08
1.05813e-05 7.36003e-05 -2.03445e-07
7.13147e-08 -2.03445e-07 -8.67673e-06
0.000999344 -1.36646e-07 -1.54335e-08
-1.36646e-07 5.47282e-05 7.16596e-07
-1.54335e-08 7.16596e-07 -2.716e-05
0.00104508 2.17185e-05 1.06423e-07
2.17185e-05 7.36774e-05 1.46752e-07
1.06423e-07 1.46752e-07 5.76395e-08
0.0017206 -0.000138073 1.15315e-05
-0.000138073 0.00029972 2.97103e-06
1.15315e-05 2.97103e-06 0.000236855
0.00139999 4.78015e-05 2.79091e-06
4.78015e-05 0.000442948 3.14542e-06
2.79091e-06 3.14542e-06 0.000256197
0.00100862 2.17238e-05 1.95503e-07
2.17238e-05 4.63607e-05 1.34192e-06
1.95503e-07 1.34192e-06 -3.77892e-05
0.00103572 1.80302e-05 -1.94885e-07
1.80302e-05 5.72376e-05 1.20855e-06
-1.94885e-07 1.20855e-06 -3.4086e-05
0.00152628 1.66551e-07 -7.34592e-07
1.66551e-07 0.000284632 -6.81423e-07
-7.34592e-07 -6.81423e-07 0.000196876
0.00101711 1.95687e-05 -8.46124e-07
1.95687e-05 4.83231e-05 -7.71997e-08
-8.46124e-07 -7.71997e-08 -3.89185e-05
0.00101635 -5.75105e-07 -1.12761e-06
-5.75105e-07 4.15357e-05 5.5983e-07
-1.12761e-06 5.5983e-07 -5.2399e-05
0.00068725 -3.07721e-05 1.24081e-05
-3.07721e-05 0.000252823 -6.71554e-07
1.24081e-05 -6.71554e-07 4.8143e-05
0.000867028 1.15799e-05 2.58307e-06
1.15799e-05 2.98889e-05 3.74807e-06
2.58307e-06 3.74807e-06 -2.12176e-05
0.00121711 1.32751e-06 5.92773e-08
1.32751e-06 0.000152305 -3.11922e-06
5.92773e-08 -3.11922e-06 5.77037e-05
0.000679775 1.55017e-05 5.2658e-06
1.55017e-05 0.000431106 3.58009e-06
5.2658e-06 3.58009e-06 0.000205387
0.00168641 -3.28372e-05 6.79452e-06
-3.28372e-05 0.00044026 -1.37971e-06
6.79452e-06 -1.37971e-06 0.000319823
0.00149266 -4.83425e-06 -7.27908e-06
-4.83425e-06 0.000472153 3.12368e-07
-7.27908e-06 3.12368e-07 0.00035
0.00104224 -4.82474e-06 3.06992e-07
-4.82474e-06 0.000156331 -4.3081e-07
3.06992e-07 -4.3081e-07 3.00073e-05
0.000633195 -3.29587e-06 -1.94014e-06
-3.29587e-06 -7.63003e-05 1.55635e-07
-1.94014e-06 1.55635e-07 -0.000193995
0.000396777 2.30019e-05 -3.40142e-06
2.30019e-05 -0.000135951 5.682e-06
-3.40142e-06 5.682e-06 -0.000221775
0.00140799 7.64001e-05 -3.93769e-05
7.64001e-05 0.000645846 1.0081e-05
-3.93769e-05 1.0081e-05 0.000659787
0.000909556 -4.06822e-06 -1.4499e-07
-4.06822e-06 4.45314e-05 3.225e-06
-1.4499e-07 3.225e-06 -8.13945e-05
0.00312238 0.000173554 1.80265e-05
0.000173554 -8.70044e-05 -8.97876e-05
1.80265e-05 -8.97876e-05 -0.000565922
0.00461239 0.000208626 -1.29264e-05
0.000208626 0.000956461 1.87814e-05
-1.29264e-05 1.87814e-05 0.00108696
0.00113262 -2.32682e-05 2.89601e-06
-2.32682e-05 0.00019956 -6.57795e-06
2.89601e-06 -6.57795e-06 9.26314e-05
0.0021286 7.38764e-05 -2.68955e-06
7.38764e-05 0.000487134 -4.55946e-06
-2.68955e-06 -4.55946e-06 0.000727404
7.29821e-05 -9.73863e-06 1.67197e-05
-9.73863e-06 0.000166333 -8.69052e-08
1.67197e-05 -8.69052e-08 -4.30176e-05
0.0011807 -1.31285e-05 -2.61154e-06
-1.31285e-05 0.000257719 3.90681e-07
-2.61154e-06 3.90681e-07 0.000136714
0.00126479 -4.98476e-06 2.66124e-06
-4.98476e-06 0.000311605 4.14968e-07
2.66124e-06 4.14968e-07 0.000246592
0.00192406 -2.87665e-05 -1.24124e-05
-2.87665e-05 0.000680105 1.72404e-05
-1.24124e-05 1.72404e-05 0.000618359
0.000563885 0.000138157 -1.82975e-06
0.000138157 -0.000312378 7.30087e-07
-1.82975e-06 7.30087e-07 -6.30096e-06
0.000986259 0.000257515 4.01213e-06
0.000257515 -0.000418892 -9.97728e-06
4.01213e-06 -9.97728e-06 -0.000359051
0.00300184 1.83999e-05 2.15168e-05
1.83999e-05 0.000265973 -1.04007e-05
2.15168e-05 -1.04007e-05 -0.00070344
0.000570433 -5.93818e-05 4.73576e-06
-5.93818e-05 0.000327799 -1.88497e-05
4.73576e-06 -1.88497e-05 7.78439e-05
0.00138509 -1.05387e-05 -1.19084e-05
-1.05387e-05 0.000445177 1.3138e-06
-1.19084e-05 1.3138e-06 0.000355432
-0.00112091 5.29463e-05 7.59017e-06
5.29463e-05 -0.0011214 -5.29754e-06
7.59017e-06 -5.29754e-06 -0.00105037
0.000178883 0.000197386 5.61486e-05
0.000197386 -6.19053e-05 -2.68892e-05
5.61486e-05 -2.68892e-05 -7.16715e-06
0.00599871 0.00033294 3.59131e-05
0.00033294 0.00163499 -4.56955e-05
3.59131e-05 -4.56955e-05 0.000808772
0.00203788 -0.00016026 -4.7213e-05
-0.00016026 0.000118183 0.000105424
-4.7213e-05 0.000105424 -0.000384972
0.00108688 -7.60902e-06 -1.89031e-06
-7.60902e-06 0.000269684 -1.07687e-06
-1.89031e-06 -1.07687e-06 3.98975e-05
0.000610003 -2.52282e-05 1.85672e-08
-2.52282e-05 0.000110242 -9.46085e-07
1.85672e-08 -9.46085e-07 -0.000168521
0.00143256 -9.43242e-05 1.22722e-06
-9.43242e-05 0.00042182 9.48669e-07
1.22722e-06 9.48669e-07 0.000168428
0.000739312 -1.93822e-05 -9.93057e-08
-1.93822e-05 -7.19313e-06 -1.28287e-07
-9.93057e-08 -1.28287e-07 -0.000125071
0.000547243 -4.49161e-05 1.33155e-07
-4.49161e-05 -1.97016e-05 2.78811e-07
1.33155e-07 2.78811e-07 -0.000225053
0.00120173 -9.06079e-05 2.35893e-06
-9.06079e-05 0.000206492 4.57567e-06
2.35893e-06 4.57567e-06 1.9411e-05
0.00156937 -7.53568e-05 -1.25953e-06
-7.53568e-05 0.000362861 -6.70479e-08
-1.25953e-06 -6.70479e-08 0.000233786
0.00123379 -7.38613e-05 -1.87245e-07
-7.38613e-05 0.000198465 7.09564e-07
-1.87245e-07 7.09564e-07 4.36532e-05
0.00128884 -8.74695e-05 -1.12593e-06
-8.74695e-05 0.000166336 3.66065e-07
-1.12593e-06 3.66065e-07 2.07782e-05
0.00110975 -6.21337e-05 -4.41052e-07
-6.21337e-05 0.000117831 -9.51784e-07
-4.41052e-07 -9.51784e-07 -1.57678e-06
0.00151772 -8.11326e-05 -1.3899e-07
-8.11326e-05 0.000283403 1.59532e-07
-1.3899e-07 1.59532e-07 0.00016274
0.00135644 -7.90092e-05 -4.13097e-07
-7.90092e-05 0.000177404 3.14543e-07
-4.13097e-07 3.14543e-07 6.03576e-05
0.00131019 -7.12452e-05 -1.6059e-06
-7.12452e-05 0.000126537 1.96866e-07
-1.6059e-06 1.96866e-07 2.64656e-05
0.00149267 -7.23749e-05 -1.95919e-06
-7.23749e-05 0.000256443 2.89341e-06
-1.95919e-06 2.89341e-06 0.000163547
0.00133853 -7.3452e-05 -3.00695e-07
-7.3452e-05 0.000176284 2.74673e-07
-3.00695e-07 2.74673e-07 7.05279e-05
0.00081557 -5.01695e-05 7.28399e-09
-5.01695e-05 -4.77024e-05 1.59839e-07
7.28399e-09 1.59839e-07 -0.000125488
0.000980656 -5.65613e-05 8.68464e-07
-5.65613e-05 3.00623e-05 -2.67997e-07
8.68464e-07 -2.67997e-07 -5.50803e-05
0.00107745 -6.33833e-05 7.68001e-07
-6.33833e-05 6.76396e-05 -1.5114e-06
7.68001e-07 -1.5114e-06 -3.41406e-05
0.00111406 -4.83593e-05 -1.98679e-07
-4.83593e-05 0.000111222 2.24171e-07
-1.98679e-07 2.24171e-07 3.67907e-05
0.00115886 -5.59212e-05 -4.14087e-09
-5.59212e-05 0.000131065 -1.71305e-07
-4.14087e-09 -1.71305e-07 5.40387e-05
0.000934888 -5.21737e-05 1.96293e-06
-5.21737e-05 2.10237e-05 -6.86282e-07
1.96293e-06 -6.86282e-07 -5.73528e-05
0.000935027 -6.39501e-07 -7.56361e-07
-6.39501e-07 2.20482e-05 1.02664e-06
-7.56361e-07 1.02664e-06 -4.20321e-05
0.000945333 -3.76005e-05 -1.21951e-07
-3.76005e-05 3.6016e-05 1.47845e-07
-1.21951e-07 1.47845e-07 -3.7553e-05
0.00108558 -5.10516e-05 8.46666e-07
-5.10516e-05 0.000107771 -5.20128e-07
8.46666e-07 -5.20128e-07 2.92509e-05
0.000905139 1.00157e-05 -2.36502e-06
1.00157e-05 -2.11679e-07 2.22424e-06
-2.36502e-06 2.22424e-06 -4.19577e-05
0.0010029 -9.76296e-06 -3.00178e-07
-9.76296e-06 4.89525e-05 1.45671e-08
-3.00178e-07 1.45671e-08 -1.28298e-05
0.00108865 -4.48195e-05 5.86881e-07
-4.48195e-05 9.7118e-05 -2.72301e-07
5.86881e-07 -2.72301e-07 2.4778e-05
0.000863603 1.99294e-05 -3.94071e-06
1.99294e-05 -2.35591e-05 4.81202e-06
-3.94071e-06 4.81202e-06 -3.24429e-05
0.000919678 1.00047e-05 3.45076e-07
1.00047e-05 4.58237e-06 -2.08328e-09
3.45076e-07 -2.08328e-09 -3.46699e-05
0.000995899 -1.58444e-05 1.47364e-06
-1.58444e-05 4.18135e-05 -1.0463e-06
1.47364e-06 -1.0463e-06 -1.82174e-05
0.000915466 1.26783e-05 1.29643e-06
1.26783e-05 4.11862e-09 -2.23395e-06
1.29643e-06 -2.23395e-06 -3.64142e-05
0.000851883 1.81314e-05 1.33067e-07
1.81314e-05 -3.35002e-05 -3.08307e-08
1.33067e-07 -3.08307e-08 -4.04378e-05
0.00239812 2.74403e-05 -1.54946e-05
2.74403e-05 0.000751688 3.87869e-06
-1.54946e-05 3.87869e-06 0.000770044
0.000877786 1.60714e-05 2.18756e-06
1.60714e-05 -2.58048e-05 -3.35507e-06
2.18756e-06 -3.35507e-06 -3.08648e-05
0.00235416 2.36969e-05 5.80346e-07
2.36969e-05 0.000724632 4.18919e-08
5.80346e-07 4.18919e-08 0.000744181
0.00232186 1.99332e-05 1.27766e-05
1.99332e-05 0.000703875 -3.96888e-06
1.27766e-05 -3.96888e-06 0.000724466
0.00105079 2.9594e-05 -6.66827e-07
2.9594e-05 6.84873e-05 -1.18255e-06
-6.66827e-07 -1.18255e-06 -2.70096e-06
0.000992469 1.08878e-05 -6.03265e-07
1.08878e-05 3.48099e-05 -1.64382e-06
-6.03265e-07 -1.64382e-06 -2.24476e-05
0.000917998 -1.43893e-05 -8.6366e-07
-1.43893e-05 -3.9346e-06 -2.16179e-06
-8.6366e-07 -2.16179e-06 -3.816e-05
0.000983847 1.19069e-05 1.08537e-07
1.19069e-05 3.19911e-05 -4.24417e-08
1.08537e-07 -4.24417e-08 -2.21741e-05
0.000887159 -1.40629e-05 -1.63284e-06
-1.40629e-05 -2.58899e-05 -3.4082e-06
-1.63284e-06 -3.4082e-06 -2.96969e-05
0.000934016 -1.11488e-05 -1.31069e-09
-1.11488e-05 2.13562e-06 -5.53909e-09
-1.31069e-09 -5.53909e-09 -2.98449e-05
0.000976396 1.5694e-05 1.60956e-07
1.5694e-05 2.9859e-05 8.60473e-07
1.60956e-07 8.60473e-07 -2.18495e-05
0.00228608 -1.60739e-05 -1.05521e-05
-1.60739e-05 0.000680629 -4.07198e-06
-1.05521e-05 -4.07198e-06 0.000702429
0.000880312 -1.1543e-05 -9.53145e-08
-1.1543e-05 -3.32859e-05 -2.08806e-08
-9.53145e-08 -2.08806e-08 -3.50182e-05
0.000949451 -7.52959e-06 2.83775e-07
-7.52959e-06 8.04568e-06 1.34454e-06
2.83775e-07 1.34454e-06 -2.1988e-05
0.00223008 -1.19229e-05 -9.34503e-07
-1.19229e-05 0.000648277 2.80438e-08
-9.34503e-07 2.80438e-08 0.000671381
0.000873933 -8.65069e-06 7.67803e-07
-8.65069e-06 -4.01526e-05 3.26523e-06
7.67803e-07 3.26523e-06 -3.98533e-05
0.00218689 -7.71018e-06 4.91551e-06
-7.71018e-06 0.000623507 3.95532e-06
4.91551e-06 3.95532e-06 0.000647602
0.000930724 8.69907e-06 -8.13681e-06
8.69907e-06 9.29764e-05 1.15574e-06
-8.13681e-06 1.15574e-06 -2.60345e-05
0.00113448 1.80201e-06 4.1085e-07
1.80201e-06 0.000176255 -1.75928e-06
4.1085e-07 -1.75928e-06 6.34825e-05
0.00120333 -4.86231e-06 -3.99455e-06
-4.86231e-06 0.000262448 -5.58479e-07
-3.99455e-06 -5.58479e-07 0.000158192
0.000994444 2.05105e-05 -5.73784e-08
2.05105e-05 3.90004e-05 1.09056e-08
-5.73784e-08 1.09056e-08 -3.03907e-05
0.00108452 3.29063e-05 7.21394e-08
3.29063e-05 8.63603e-05 2.46184e-07
7.21394e-08 2.46184e-07 8.73571e-06
0.00101385 3.76254e-05 -1.09297e-06
3.76254e-05 5.43923e-05 -1.15984e-06
-1.09297e-06 -1.15984e-06 -2.50338e-05
0.000962551 2.67258e-05 -3.49606e-07
2.67258e-05 2.50445e-05 -1.37866e-06
-3.49606e-07 -1.37866e-06 -5.2098e-05
0.00115334 4.62968e-05 -4.26911e-07
4.62968e-05 0.000125407 -8.50253e-07
-4.26911e-07 -8.50253e-07 4.307e-05
0.000917763 1.83867e-05 2.8016e-07
1.83867e-05 1.9368e-06 1.04267e-06
2.8016e-07 1.04267e-06 -6.60136e-05
0.00101447 1.2982e-05 3.27617e-07
1.2982e-05 5.27184e-05 1.16393e-06
3.27617e-07 1.16393e-06 -2.17378e-05
0.00104746 3.59715e-05 -8.75037e-08
3.59715e-05 7.08485e-05 -1.45525e-08
-8.75037e-08 -1.45525e-08 -5.25097e-06
0.00105639 2.67391e-05 3.16772e-07
2.67391e-05 7.52032e-05 4.68186e-07
3.16772e-07 4.68186e-07 -4.92465e-06
0.00110028 3.1626e-05 -2.7606e-07
3.1626e-05 9.91513e-05 -8.28273e-07
-2.7606e-07 -8.28273e-07 1.72827e-05
0.000716816 2.48814e-06 -1.13886e-05
2.48814e-06 2.87547e-05 -2.80671e-06
-1.13886e-05 -2.80671e-06 -4.10577e-05
0.000872684 2.92983e-05 1.47734e-07
2.92983e-05 5.16149e-05 -4.01881e-06
1.47734e-07 -4.01881e-06 -4.29325e-05
-7.4152e-05 1.16501e-05 5.97054e-07
1.16501e-05 -0.000623973 2.09535e-07
5.97054e-07 2.09535e-07 -0.000705309
0.00128112 3.64794e-06 6.73318e-06
3.64794e-06 -1.46512e-05 8.48019e-06
6.73318e-06 8.48019e-06 0.000151445
-0.00184406 1.16355e-05 -1.54298e-06
1.16355e-05 -0.0021355 -7.58266e-05
-1.54298e-06 -7.58266e-05 -0.0019728
0.00135919 -0.000215342 -6.44257e-05
-0.000215342 -0.00028079 8.96253e-05
-6.44257e-05 8.96253e-05 -0.000636369
0.00700388 0.000107202 -1.27102e-05
0.000107202 0.00151156 -4.68996e-05
-1.27102e-05 -4.68996e-05 0.0011012
0.000686278 -0.000184941 -3.73416e-05
-0.000184941 -0.000387342 2.8261e-05
-3.73416e-05 2.8261e-05 -0.000780893
0.00750524 -0.000124382 1.66498e-05
-0.000124382 0.00174849 2.37598e-06
1.66498e-05 2.37598e-06 0.00134311
0.00100635 -0.000155295 4.33787e-06
-0.000155295 -0.000692014 -1.86224e-05
4.33787e-06 -1.86224e-05 -0.000595469
0.000163589 -5.96234e-05 3.049e-06
-5.96234e-05 -0.000673309 1.63751e-06
3.049e-06 1.63751e-06 -0.00042818
0.00185321 -7.70463e-05 -1.96217e-05
-7.70463e-05 0.00038208 -5.52311e-05
-1.96217e-05 -5.52311e-05 -2.56494e-05
0.00677159 -0.000244776 -1.54709e-05
-0.000244776 0.00151455 5.04243e-05
-1.54709e-05 5.04243e-05 0.000974017
0.00496959 -0.000282131 1.12425e-05
-0.000282131 0.00141425 2.34837e-05
1.12425e-05 2.34837e-05 0.00154593
0.00106938 -0.000127204 9.13504e-07
-0.000127204 -0.000131647 -4.01614e-07
9.13504e-07 -4.01614e-07 0.000240449
0.000978559 2.73834e-05 -6.68535e-07
2.73834e-05 4.56759e-05 -1.67946e-06
-6.68535e-07 -1.67946e-06 -3.353e-05
0.00111307 9.61876e-06 -1.00382e-07
9.61876e-06 9.84579e-05 5.56633e-08
-1.00382e-07 5.56633e-08 1.52834e-05
0.00103932 8.53991e-06 1.81058e-07
8.53991e-06 6.61336e-05 7.40621e-07
1.81058e-07 7.40621e-07 -1.6328e-05
0.00103686 -2.87554e-05 1.94911e-05
-2.87554e-05 0.000382279 -2.69632e-06
1.94911e-05 -2.69632e-06 0.000237134
0.00117904 -6.66902e-06 9.27117e-07
-6.66902e-06 0.000185465 1.66053e-06
9.27117e-07 1.66053e-06 0.000138497
0.00104872 1.64566e-05 -6.64777e-08
1.64566e-05 6.42929e-05 2.14375e-06
-6.64777e-08 2.14375e-06 -2.25929e-05
0.000990159 -7.37288e-06 -4.01096e-07
-7.37288e-06 2.71957e-05 2.82018e-06
-4.01096e-07 2.82018e-06 -6.73753e-05
0.00109614 -1.35873e-06 2.59559e-07
-1.35873e-06 9.53903e-05 1.15946e-09
2.59559e-07 1.15946e-09 1.36034e-06
0.000946974 -3.18114e-05 1.02506e-06
-3.18114e-05 9.87415e-05 1.54367e-06
1.02506e-06 1.54367e-06 -3.18614e-05
-3.07472e-05 1.75138e-05 6.14436e-07
1.75138e-05 6.91355e-05 -3.72613e-06
6.14436e-07 -3.72613e-06 -0.000168496
0.000529213 1.64891e-05 -2.98314e-06
1.64891e-05 -7.99651e-05 3.22539e-07
-2.98314e-06 3.22539e-07 -0.00022127
0.00121893 3.82722e-05 -1.67943e-07
3.82722e-05 0.000474182 8.47599e-06
-1.67943e-07 8.47599e-06 0.000308674
0.00212046 -8.35862e-06 -1.40597e-05
-8.35862e-06 0.000925212 -1.27137e-06
-1.40597e-05 -1.27137e-06 0.000839229
0.00104423 -5.26282e-06 -2.2552e-06
-5.26282e-06 0.000190985 -3.50314e-07
-2.2552e-06 -3.50314e-07 6.57427e-05
0.000811702 -4.2137e-06 8.24996e-07
-4.2137e-06 2.44674e-05 3.20805e-07
8.24996e-07 3.20805e-07 -0.000104831
0.000298304 6.35836e-06 -5.03995e-06
6.35836e-06 0.000234944 1.68702e-05
-5.03995e-06 1.68702e-05 6.58392e-05
4.09508e-05 2.59909e-05 3.9137e-05
2.59909e-05 -0.000435636 -4.88568e-05
3.9137e-05 -4.88568e-05 -0.000769742
0.00122337 -1.24742e-05 3.88444e-06
-1.24742e-05 0.000277976 2.43667e-06
3.88444e-06 2.43667e-06 0.000157367
0.00758558 0.000176201 3.06416e-05
0.000176201 0.00180677 -1.25887e-05
3.06416e-05 -1.25887e-05 0.000954909
0.00336379 0.000330291 -2.95944e-05
0.000330291 0.00079449 1.79968e-05
-2.95944e-05 1.79968e-05 0.000789073
0.00153986 -8.75609e-06 1.60721e-05
-8.75609e-06 0.000502992 -8.44178e-06
1.60721e-05 -8.44178e-06 0.000431279
-0.000132382 0.000148601 -1.06507e-05
0.000148601 -0.000721621 1.13877e-05
-1.06507e-05 1.13877e-05 -0.000418123
-7.30483e-05 -2.30819e-05 -8.80731e-06
-2.30819e-05 6.31047e-05 3.55796e-08
-8.80731e-06 3.55796e-08 -0.000185096
0.00118449 -1.12016e-05 3.09709e-06
-1.12016e-05 0.000315558 -1.96374e-07
3.09709e-06 -1.96374e-07 0.0002267
-0.00108752 6.13282e-05 5.7344e-06
6.13282e-05 -0.00105964 -3.69164e-06
5.7344e-06 -3.69164e-06 -0.00097857
0.00191005 -0.000108542 8.16675e-06
-0.000108542 0.000400154 3.35389e-05
8.16675e-06 3.35389e-05 1.84132e-06
0.00298654 0.000285071 -1.5903e-06
0.000285071 0.000957273 -7.28879e-07
-1.5903e-06 -7.28879e-07 0.00091165
0.00587046 0.000115406 1.84098e-05
0.000115406 0.00144826 -1.16735e-05
1.84098e-05 -1.16735e-05 0.000364816
0.00154832 -5.7483e-05 9.60005e-06
-5.7483e-05 0.000327672 -8.38368e-07
9.60005e-06 -8.38368e-07 0.000294822
-0.00093787 9.76378e-06 -6.9856e-06
9.76378e-06 -0.000937669 2.76962e-07
-6.9856e-06 2.76962e-07 -0.000958794
0.00233204 0.00019579 4.25445e-05
0.00019579 0.000801733 -1.63519e-05
4.25445e-05 -1.63519e-05 0.000724327
0.00347775 0.000269964 -2.54441e-05
0.000269964 0.000673124 2.27384e-05
-2.54441e-05 2.27384e-05 -0.00015576
0.00143911 -7.28187e-05 7.48492e-06
-7.28187e-05 7.88084e-05 4.24125e-05
7.48492e-06 4.24125e-05 -0.000176164
0.000616827 -1.44232e-05 5.35927e-07
-1.44232e-05 0.000112238 2.92791e-06
5.35927e-07 2.92791e-06 -0.000167789
0.00093194 -8.50521e-05 3.12528e-07
-8.50521e-05 0.000201679 -1.21806e-06
3.12528e-07 -1.21806e-06 -7.72984e-05
0.00212682 -0.000148971 4.90568e-07
-0.000148971 0.000566687 3.94388e-06
4.90568e-07 3.94388e-06 0.000360464
0.000246781 -2.45376e-05 -1.08449e-06
-2.45376e-05 -0.000153286 1.91285e-06
-1.08449e-06 1.91285e-06 -0.000360398
0.000941603 -8.34091e-05 8.07596e-07
-8.34091e-05 8.4071e-05 1.71298e-07
8.07596e-07 1.71298e-07 -0.000103893
0.00131283 -0.000109136 -2.05495e-06
-0.000109136 0.000123851 1.54919e-06
-2.05495e-06 1.54919e-06 -1.62477e-05
0.00135226 -7.60614e-05 -1.39978e-06
-7.60614e-05 0.000247421 -1.85081e-07
-1.39978e-06 -1.85081e-07 9.31453e-05
0.0012161 -8.44157e-05 -9.94045e-07
-8.44157e-05 0.000125601 -1.0092e-06
-9.94045e-07 -1.0092e-06 -1.4214e-05
0.00159247 -9.19627e-05 -1.10728e-06
-9.19627e-05 0.000239313 -7.63399e-09
-1.10728e-06 -7.63399e-09 0.000132746
0.00138067 -7.80258e-05 -7.66278e-08
-7.80258e-05 0.000213979 -1.43114e-06
-7.66278e-08 -1.43114e-06 9.20871e-05
0.00127966 -7.60946e-05 4.32854e-07
-7.60946e-05 0.000136285 -7.42874e-07
4.32854e-07 -7.42874e-07 2.16457e-05
0.00139359 -7.31042e-05 -1.48838e-06
-7.31042e-05 0.000133202 -1.20825e-06
-1.48838e-06 -1.20825e-06 3.92022e-05
0.00131237 -6.55521e-05 -1.29203e-06
-6.55521e-05 8.0389e-05 -5.13734e-07
-1.29203e-06 -5.13734e-07 -3.74158e-06
0.00115514 -6.49295e-05 -1.31844e-06
-6.49295e-05 6.44898e-05 1.081e-06
-1.31844e-06 1.081e-06 -2.93634e-05
0.00123451 -6.89221e-05 2.56015e-07
-6.89221e-05 8.7482e-05 -7.61948e-07
2.56015e-07 -7.61948e-07 -1.15866e-05
0.00124262 -6.27421e-05 -8.82502e-07
-6.27421e-05 0.000144788 1.99742e-06
-8.82502e-07 1.99742e-06 6.13067e-05
0.00123366 -6.6614e-05 -2.66783e-07
-6.6614e-05 0.000130772 4.36011e-07
-2.66783e-07 4.36011e-07 3.61728e-05
0.00126175 -7.19046e-05 8.08433e-07
-7.19046e-05 0.000138099 -1.7792e-06
8.08433e-07 -1.7792e-06 3.11191e-05
0.00102435 -5.10049e-05 -4.27105e-07
-5.10049e-05 5.92755e-05 -2.48374e-07
-4.27105e-07 -2.48374e-07 -1.33767e-05
0.000899026 -5.19431e-05 -1.73577e-07
-5.19431e-05 -5.83868e-06 -6.74163e-07
-1.73577e-07 -6.74163e-07 -8.27183e-05
0.00112778 -5.99446e-05 2.09114e-06
-5.99446e-05 0.000103206 -2.23255e-06
2.09114e-06 -2.23255e-06 1.87358e-05
0.000968229 -1.53134e-05 -6.68177e-07
-1.53134e-05 4.09592e-05 8.95628e-07
-6.68177e-07 8.95628e-07 -2.519e-05
0.00104079 -4.57371e-05 1.67392e-07
-4.57371e-05 7.61312e-05 2.80861e-07
1.67392e-07 2.80861e-07 1.88634e-06
0.00108098 -5.38734e-05 5.69351e-07
-5.38734e-05 9.38981e-05 1.73393e-07
5.69351e-07 1.73393e-07 1.65561e-05
0.00088591 2.48629e-05 -2.07525e-06
2.48629e-05 -3.70807e-06 2.07965e-06
-2.07525e-06 2.07965e-06 -4.87371e-05
0.000989235 -2.89626e-06 -8.35873e-08
-2.89626e-06 4.8349e-05 -3.89879e-09
-8.35873e-08 -3.89879e-09 -1.58032e-05
0.000979332 -3.73661e-05 1.467e-07
-3.73661e-05 5.14726e-05 -2.61826e-07
1.467e-07 -2.61826e-07 -2.1524e-05
0.00151738 2.57653e-05 -9.8027e-06
2.57653e-05 0.000313389 3.33603e-06
-9.8027e-06 3.33603e-06 0.000305953
0.00091263 9.18758e-06 6.96381e-08
9.18758e-06 3.46358e-06 -9.55076e-09
6.96381e-08 -9.55076e-09 -3.81745e-05
0.00101295 -1.10877e-05 9.76551e-07
-1.10877e-05 5.29377e-05 -1.01408e-06
9.76551e-07 -1.01408e-06 -8.56892e-06
0.00107994 2.01245e-05 -1.44759e-05
2.01245e-05 8.84841e-05 3.9354e-06
-1.44759e-05 3.9354e-06 9.87427e-05
0.00119645 2.20479e-05 -3.47549e-06
2.20479e-05 0.000145958 5.37949e-07
-3.47549e-06 5.37949e-07 0.000138525
0.000911043 1.44466e-05 1.67994e-06
1.44466e-05 5.89843e-07 -2.14141e-06
1.67994e-06 -2.14141e-06 -3.8664e-05
0.000866693 1.83778e-05 2.61622e-06
1.83778e-05 -2.61738e-05 -3.46383e-06
2.61622e-06 -3.46383e-06 -3.32219e-05
0.00240313 2.74001e-05 5.08867e-07
2.74001e-05 0.000754814 4.70725e-08
5.08867e-07 4.70725e-08 0.000772989
0.00235522 2.36673e-05 1.47078e-05
2.36673e-05 0.000725792 -3.9567e-06
1.47078e-05 -3.9567e-06 0.000745203
0.0010048 2.93121e-05 -1.02375e-06
2.93121e-05 4.76012e-05 -1.262e-06
-1.02375e-06 -1.262e-06 -2.63629e-05
0.00100178 3.92916e-06 -7.42528e-07
3.92916e-06 4.0448e-05 -1.74407e-06
-7.42528e-07 -1.74407e-06 -1.99418e-05
0.00103358 2.50937e-05 -1.12963e-07
2.50937e-05 5.94905e-05 3.53719e-08
-1.12963e-07 3.53719e-08 -1.2033e-05
0.000910326 -1.69821e-05 -1.10714e-06
-1.69821e-05 -5.55651e-06 -2.35466e-06
-1.10714e-06 -2.35466e-06 -4.20262e-05
0.000994638 6.29402e-06 1.55693e-07
6.29402e-06 3.57662e-05 -6.13543e-08
1.55693e-07 -6.13543e-08 -2.12736e-05
0.000876394 -1.6127e-05 -2.08498e-06
-1.6127e-05 -2.72617e-05 -3.47746e-06
-2.08498e-06 -3.47746e-06 -3.28853e-05
0.000925962 -1.18666e-05 -2.41505e-07
-1.18666e-05 5.64525e-08 -1.77718e-09
-2.41505e-07 -1.77718e-09 -3.41218e-05
0.000995756 1.30836e-05 6.04569e-07
1.30836e-05 3.84086e-05 1.53691e-06
6.04569e-07 1.53691e-06 -1.60322e-05
0.00234265 -1.99874e-05 -1.27609e-05
-1.99874e-05 0.000713474 -4.0762e-06
-1.27609e-05 -4.0762e-06 0.000734011
0.000870043 -1.39732e-05 -1.36188e-07
-1.39732e-05 -3.43785e-05 -1.3366e-08
-1.36188e-07 -1.3366e-08 -3.80926e-05
0.000942346 -1.03445e-05 6.75911e-07
-1.03445e-05 6.38639e-06 1.97949e-06
6.75911e-07 1.97949e-06 -2.55835e-05
0.00228484 -1.60289e-05 -8.09143e-07
-1.60289e-05 0.000679539 3.57082e-08
-8.09143e-07 3.57082e-08 0.000701494
0.000863599 -1.14739e-05 1.04502e-06
-1.14739e-05 -4.15748e-05 3.34091e-06
1.04502e-06 3.34091e-06 -4.32094e-05
0.00222897 -1.18013e-05 7.35233e-06
-1.18013e-05 0.000647321 3.96771e-06
7.35233e-06 3.96771e-06 0.000670565
0.000545337 7.52353e-07 -1.13524e-05
7.52353e-07 -3.27793e-05 -5.61324e-06
-1.13524e-05 -5.61324e-06 -0.000125368
0.000885838 6.69896e-06 4.98312e-07
6.69896e-06 6.4391e-05 3.71148e-09
4.98312e-07 3.71148e-09 -5.48392e-05
0.000747819 1.02595e-06 -2.63128e-07
1.02595e-06 -5.64322e-05 -1.56892e-06
-2.63128e-07 -1.56892e-06 -0.000172062
0.00104269 4.62034e-05 -9.59286e-07
4.62034e-05 6.87004e-05 -2.08896e-07
-9.59286e-07 -2.08896e-07 -9.77952e-06
0.00103835 2.02711e-05 3.22944e-07
2.02711e-05 6.14718e-05 1.20938e-06
3.22944e-07 1.20938e-06 -7.76958e-06
0.00101745 3.09557e-05 5.33344e-07
3.09557e-05 5.24315e-05 1.33497e-06
5.33344e-07 1.33497e-06 -2.56434e-05
0.00105913 2.53881e-05 2.38451e-08
2.53881e-05 7.38401e-05 -2.42847e-07
2.38451e-08 -2.42847e-07 -2.56624e-06
0.00107309 4.30512e-05 -1.96128e-07
4.30512e-05 8.48135e-05 -7.59044e-08
-1.96128e-07 -7.59044e-08 5.40844e-06
0.0010638 4.28488e-05 1.87895e-07
4.28488e-05 7.95573e-05 3.55972e-07
1.87895e-07 3.55972e-07 -2.3909e-06
0.00106476 4.9467e-05 -1.24538e-06
4.9467e-05 8.09979e-05 -1.30627e-06
-1.24538e-06 -1.30627e-06 -2.70821e-06
0.000963061 4.05499e-05 -5.28093e-07
4.05499e-05 3.18364e-05 -1.33939e-06
-5.28093e-07 -1.33939e-06 -5.14812e-05
0.00104074 4.41134e-05 5.94915e-07
4.41134e-05 6.86405e-05 7.96395e-07
5.94915e-07 7.96395e-07 -7.99568e-06
0.00102613 1.03064e-05 4.01465e-07
1.03064e-05 5.76516e-05 1.09203e-06
4.01465e-07 1.09203e-06 -2.13831e-05
0.00108614 3.46914e-05 -1.02175e-07
3.46914e-05 9.33277e-05 -1.19183e-08
-1.02175e-07 -1.19183e-08 1.11111e-05
0.00150166 4.06215e-05 8.2124e-07
4.06215e-05 0.000295612 -1.60463e-06
8.2124e-07 -1.60463e-06 0.000210465
0.00230811 -6.18046e-05 1.80677e-06
-6.18046e-05 0.000916554 2.09332e-07
1.80677e-06 2.09332e-07 0.00102405
0.000662102 6.80506e-06 5.63285e-07
6.80506e-06 -3.98749e-06 1.12411e-06
5.63285e-07 1.12411e-06 -7.28236e-05
0.000946644 2.98627e-05 5.09667e-06
2.98627e-05 0.000107648 1.09227e-07
5.09667e-06 1.09227e-07 1.12824e-05
0.00162974 -7.08775e-05 6.08388e-06
-7.08775e-05 0.000147084 8.00331e-07
6.08388e-06 8.00331e-07 0.000410095
0.003236 -0.000204033 2.1924e-06
-0.000204033 0.000176433 -9.15537e-05
2.1924e-06 -9.15537e-05 0.000257898
0.00314426 5.26402e-05 -1.68961e-05
5.26402e-05 -0.000490762 0.000103546
-1.68961e-05 0.000103546 -0.000806538
0.000682449 -0.00017641 -5.82082e-05
-0.00017641 -7.28267e-05 6.25091e-05
-5.82082e-05 6.25091e-05 -0.000309384
0.00187621 -4.86662e-05 -1.13954e-05
-4.86662e-05 0.000643204 8.06836e-07
-1.13954e-05 8.06836e-07 0.000398276
0.000449441 -0.00012548 1.19629e-06
-0.00012548 -0.000386727 1.03551e-07
1.19629e-06 1.03551e-07 -7.00359e-05
0.00532008 -8.91135e-05 1.11069e-05
-8.91135e-05 0.000680073 5.3659e-05
1.11069e-05 5.3659e-05 -4.95476e-05
-0.000523038 -0.000179961 -6.18704e-06
-0.000179961 -0.000816835 -1.32593e-05
-6.18704e-06 -1.32593e-05 -0.000674075
0.00211645 0.000116558 -5.6656e-05
0.000116558 0.000586693 -4.87048e-05
-5.6656e-05 -4.87048e-05 0.000361758
0.00649163 -0.000221679 5.48279e-06
-0.000221679 0.00179311 3.48776e-05
5.48279e-06 3.48776e-05 0.00109633
1.63802e-05 -0.000155788 3.73829e-05
-0.000155788 -8.21069e-05 2.00298e-05
3.73829e-05 2.00298e-05 1.1697e-07
0.000890111 6.47797e-05 -3.31502e-06
6.47797e-05 2.57199e-05 -4.32645e-06
-3.31502e-06 -4.32645e-06 -5.00879e-05
0.00117698 3.12979e-05 2.08012e-06
3.12979e-05 0.000136262 2.28068e-07
2.08012e-06 2.28068e-07 5.77825e-05
0.00110749 2.0573e-05 -2.75502e-07
2.0573e-05 0.000100921 9.65048e-07
-2.75502e-07 9.65048e-07 1.65394e-05
-0.0008524 9.12922e-06 -2.27888e-06
9.12922e-06 -0.000354286 -1.16904e-05
-2.27888e-06 -1.16904e-05 -0.000598805
0.000484161 -2.1041e-05 -1.91135e-07
-2.1041e-05 -0.000114889 3.30663e-06
-1.91135e-07 3.30663e-06 -0.000256177
0.000955244 1.0109e-05 2.48381e-06
1.0109e-05 3.04767e-05 3.77983e-06
2.48381e-06 3.77983e-06 -6.35166e-05
0.00108273 3.46867e-05 -3.21015e-08
3.46867e-05 0.000177334 1.73612e-07
-3.21015e-08 1.73612e-07 3.9338e-05
0.000759622 1.94529e-05 2.18552e-06
1.94529e-05 0.000256248 8.56504e-07
2.18552e-06 8.56504e-07 9.69584e-05
-0.00120406 5.33974e-05 -4.35282e-06
5.33974e-05 -0.000785629 1.80426e-05
-4.35282e-06 1.80426e-05 -0.000952371
0.0026927 -1.54034e-05 -1.07638e-05
-1.54034e-05 0.00120201 -9.74259e-08
-1.07638e-05 -9.74259e-08 0.00121809
0.000924046 -6.41745e-06 -1.04446e-06
-6.41745e-06 0.000190988 -9.49661e-07
-1.04446e-06 -9.49661e-07 9.37403e-05
0.000623125 -5.55638e-06 3.11388e-06
-5.55638e-06 -7.31263e-05 9.97214e-08
3.11388e-06 9.97214e-08 -0.000201524
-7.2316e-05 -2.94997e-05 1.2561e-05
-2.94997e-05 6.33174e-05 1.6981e-05
1.2561e-05 1.6981e-05 -0.000184445
0.00128167 -9.36806e-05 -2.77354e-06
-9.36806e-05 0.000168284 -4.47869e-05
-2.77354e-06 -4.47869e-05 -0.000128192
0.00110771 -1.18927e-05 1.81682e-05
-1.18927e-05 0.000263339 -8.35058e-07
1.81682e-05 -8.35058e-07 0.00017582
0.00130101 0.000145208 -3.76519e-05
0.000145208 -0.000314426 3.20799e-05
-3.76519e-05 3.20799e-05 -0.00127608
-0.00097082 0.000192341 -5.29645e-05
0.000192341 -0.000738781 2.90501e-05
-5.29645e-05 2.90501e-05 -0.000740452
0.00121677 7.80136e-05 2.19397e-07
7.80136e-05 0.000254056 -6.33832e-08
2.19397e-07 -6.33832e-08 0.000384537
0.00158292 -6.91467e-05 2.38728e-06
-6.91467e-05 0.000383634 1.90686e-06
2.38728e-06 1.90686e-06 0.000320355
0.00119243 1.8853e-05 -2.36219e-06
1.8853e-05 0.000277425 2.37872e-07
-2.36219e-06 2.37872e-07 0.000290551
-0.00178183 0.000106305 -7.18053e-06
0.000106305 -0.000945883 3.34157e-06
-7.18053e-06 3.34157e-06 -0.000966079
0.00322442 -0.000136542 -1.32547e-05
-0.000136542 0.000704197 2.24811e-05
-1.32547e-05 2.24811e-05 0.000241825
0.00486889 0.000241963 -7.37702e-06
0.000241963 0.00126896 3.8378e-06
-7.37702e-06 3.8378e-06 0.000487153
0.00105886 -9.07314e-05 6.96104e-06
-9.07314e-05 -0.000183775 6.4609e-06
6.96104e-06 6.4609e-06 -0.000121491
-0.00259698 4.51792e-05 5.75484e-05
4.51792e-05 -0.00164772 -1.39957e-05
5.75484e-05 -1.39957e-05 -0.00165613
0.00484371 0.000231882 1.28329e-05
0.000231882 0.00142185 -6.61569e-06
1.28329e-05 -6.61569e-06 0.000797818
0.00254293 1.3843e-05 -7.18887e-06
1.3843e-05 0.00039136 2.9248e-05
-7.18887e-06 2.9248e-05 3.77294e-05
0.000536967 -7.54824e-05 -1.52201e-06
-7.54824e-05 3.8101e-05 -1.6129e-06
-1.52201e-06 -1.6129e-06 -0.00027199
0.00109825 -0.000124041 1.035e-07
-0.000124041 9.5763e-05 9.27983e-07
1.035e-07 9.27983e-07 -0.000116872
0.00158965 -0.000156124 -4.46636e-06
-0.000156124 0.000146045 4.74388e-06
-4.46636e-06 4.74388e-06 1.21636e-05
0.000592708 -7.41775e-05 -1.40968e-06
-7.41775e-05 -7.76367e-05 -2.07243e-06
-1.40968e-06 -2.07243e-06 -0.000269732
0.00124944 -0.000107341 -1.69417e-06
-0.000107341 8.75172e-05 -1.54349e-06
-1.69417e-06 -1.54349e-06 -5.12484e-05
0.00202606 -0.000110835 -5.45797e-06
-0.000110835 0.000340354 -2.88232e-07
-5.45797e-06 -2.88232e-07 0.000257267
0.00114135 -8.16079e-05 -2.57639e-07
-8.16079e-05 8.62187e-05 -2.80256e-06
-2.57639e-07 -2.80256e-06 -4.91367e-05
0.0013147 -8.46322e-05 1.09216e-06
-8.46322e-05 0.000104964 -6.75994e-07
1.09216e-06 -6.75994e-07 6.98597e-08
0.00161657 -7.63977e-05 -1.65586e-06
-7.63977e-05 0.00017401 -1.76424e-06
-1.65586e-06 -1.76424e-06 0.000104593
0.00112484 -7.15105e-05 6.30439e-07
-7.15105e-05 5.63006e-05 -1.33732e-06
6.30439e-07 -1.33732e-06 -5.64546e-05
0.0012522 -6.92471e-05 -2.59047e-07
-6.92471e-05 5.91995e-05 -5.54836e-07
-2.59047e-07 -5.54836e-07 -3.34055e-05
0.00140212 -6.28215e-05 -1.13887e-06
-6.28215e-05 7.61682e-05 -1.38053e-06
-1.13887e-06 -1.38053e-06 1.04636e-05
0.00138422 -5.88843e-05 -1.25578e-06
-5.88843e-05 8.71364e-05 -7.87545e-07
-1.25578e-06 -7.87545e-07 2.161e-05
0.00131082 -6.50113e-05 -1.62411e-06
-6.50113e-05 9.96594e-05 1.95522e-08
-1.62411e-06 1.95522e-08 1.5498e-05
0.0012921 -6.36198e-05 5.10041e-07
-6.36198e-05 7.01897e-05 2.755e-07
5.10041e-07 2.755e-07 -1.23452e-05
0.000879884 -5.5302e-05 -1.29536e-06
-5.5302e-05 -5.77954e-05 1.4767e-06
-1.29536e-06 1.4767e-06 -0.000143435
0.00125534 -6.66665e-05 6.99682e-07
-6.66665e-05 0.000114175 -6.11243e-07
6.99682e-07 -6.11243e-07 2.14282e-05
0.00114418 -6.62135e-05 1.47215e-06
-6.62135e-05 4.12403e-05 -1.36652e-06
1.47215e-06 -1.36652e-06 -5.67969e-05
0.00105964 -5.48354e-05 -3.49105e-07
-5.48354e-05 6.86653e-05 9.55027e-07
-3.49105e-07 9.55027e-07 -6.07704e-06
0.00104128 -5.79127e-05 2.45747e-07
-5.79127e-05 4.88433e-05 -1.42754e-07
2.45747e-07 -1.42754e-07 -3.47996e-05
0.000970765 -6.07599e-05 8.79097e-07
-6.07599e-05 3.16277e-06 -1.94853e-06
8.79097e-07 -1.94853e-06 -9.31326e-05
0.00100251 -3.33e-05 -1.2211e-06
-3.33e-05 5.473e-05 3.46568e-07
-1.2211e-06 3.46568e-07 -1.15196e-05
0.00106338 -5.15122e-05 -1.83424e-07
-5.15122e-05 7.75801e-05 -2.64325e-07
-1.83424e-07 -2.64325e-07 4.88765e-06
0.000992188 -5.39684e-05 8.57403e-08
-5.39684e-05 4.09352e-05 -1.31555e-06
8.57403e-08 -1.31555e-06 -3.50734e-05
0.000912701 6.31239e-06 -2.28746e-06
6.31239e-06 1.72213e-05 2.01249e-06
-2.28746e-06 2.01249e-06 -3.125e-05
0.000998456 -1.68395e-05 3.0941e-07
-1.68395e-05 5.49629e-05 2.05323e-07
3.0941e-07 2.05323e-07 -1.10477e-05
0.000967514 -4.29108e-05 7.08594e-07
-4.29108e-05 4.09348e-05 1.93819e-07
7.08594e-07 1.93819e-07 -3.31038e-05
0.000800915 2.45595e-05 -4.01405e-06
2.45595e-05 -4.35541e-05 3.47056e-06
-4.01405e-06 3.47056e-06 -5.64431e-05
0.0009087 7.85485e-06 -1.81743e-07
7.85485e-06 6.5695e-06 -3.81275e-08
-1.81743e-07 -3.81275e-08 -3.79986e-05
0.00103151 -5.07458e-06 7.56091e-07
-5.07458e-06 6.87277e-05 -1.08624e-06
7.56091e-07 -1.08624e-06 4.53613e-06
0.002465 3.81211e-05 -7.35442e-06
3.81211e-05 0.000798162 1.59932e-06
-7.35442e-06 1.59932e-06 0.000813133
0.000816652 2.21589e-05 1.45418e-07
2.21589e-05 -4.14485e-05 4.16537e-08
1.45418e-07 4.16537e-08 -5.26074e-05
0.00091879 9.21229e-06 2.39917e-06
9.21229e-06 6.79402e-06 -2.08393e-06
2.39917e-06 -2.08393e-06 -3.49956e-05
0.00246771 3.10465e-05 4.1808e-07
3.10465e-05 0.00079255 4.95697e-08
4.1808e-07 4.95697e-08 0.000809301
0.000851058 2.04585e-05 3.21732e-06
2.04585e-05 -2.89437e-05 -3.51997e-06
3.21732e-06 -3.51997e-06 -3.82121e-05
0.0024064 2.73408e-05 1.66425e-05
2.73408e-05 0.000757064 -3.97609e-06
1.66425e-05 -3.97609e-06 0.000775068
0.00110146 4.00271e-05 -7.48518e-07
4.00271e-05 9.73221e-05 -2.55221e-07
-7.48518e-07 -2.55221e-07 2.34838e-05
0.00103072 3.06101e-05 -1.86014e-07
3.06101e-05 6.12984e-05 -1.81985e-07
-1.86014e-07 -1.81985e-07 -1.26626e-05
0.00100639 2.49139e-06 -1.02055e-06
2.49139e-06 4.68524e-05 -1.60081e-06
-1.02055e-06 -1.60081e-06 -1.70231e-05
0.000907748 -1.33205e-05 -1.62276e-06
-1.33205e-05 -3.85717e-06 -2.5345e-06
-1.62276e-06 -2.5345e-06 -4.30261e-05
0.000998446 2.57539e-06 1.35502e-08
2.57539e-06 3.92943e-05 1.63561e-09
1.35502e-08 1.63561e-09 -2.11211e-05
0.00101272 2.66686e-05 6.31585e-07
2.66686e-05 4.93721e-05 1.30036e-06
6.31585e-07 1.30036e-06 -2.28937e-05
0.000865074 -1.80763e-05 -2.61736e-06
-1.80763e-05 -2.90382e-05 -3.56358e-06
-2.61736e-06 -3.56358e-06 -3.6291e-05
0.000917328 -1.33135e-05 -1.15821e-07
-1.33135e-05 -2.65501e-06 -2.20571e-08
-1.15821e-07 -2.20571e-08 -3.88998e-05
0.000992646 2.70684e-06 5.46244e-07
2.70684e-06 3.46469e-05 1.66263e-06
5.46244e-07 1.66263e-06 -2.21749e-05
0.00238684 -2.37223e-05 -1.48326e-05
-2.37223e-05 0.000740422 -4.06169e-06
-1.48326e-05 -4.06169e-06 0.000759735
0.000860013 -1.6015e-05 -1.28975e-07
-1.6015e-05 -3.53314e-05 -9.84064e-09
-1.28975e-07 -9.84064e-09 -4.08742e-05
0.000930974 -1.14524e-05 8.27099e-07
-1.14524e-05 2.41252e-06 2.08583e-06
8.27099e-07 2.08583e-06 -3.16557e-05
0.00234077 -1.99978e-05 -7.75231e-07
-1.99978e-05 0.000712009 4.39265e-08
-7.75231e-07 4.39265e-08 0.000732702
0.000852193 -1.38784e-05 1.3577e-06
-1.38784e-05 -4.32297e-05 3.43198e-06
1.3577e-06 3.43198e-06 -4.68474e-05
0.00228034 -1.59298e-05 9.533e-06
-1.59298e-05 0.000676791 3.98759e-06
9.533e-06 3.98759e-06 0.000698919
0.000419581 -1.98344e-05 -1.30563e-06
-1.98344e-05 -8.63926e-05 -1.0553e-07
-1.30563e-06 -1.0553e-07 -8.57748e-05
0.0005483 3.29202e-06 -1.57563e-06
3.29202e-06 -2.80816e-05 -1.54202e-06
-1.57563e-06 -1.54202e-06 -0.000120711
0.000835764 4.67532e-06 4.70147e-06
4.67532e-06 3.22994e-05 -1.3428e-06
4.70147e-06 -1.3428e-06 -8.72487e-05
0.00103535 4.55073e-05 7.53973e-08
4.55073e-05 6.48526e-05 1.47403e-07
7.53973e-08 1.47403e-07 -1.3954e-05
0.00119692 5.33252e-05 -9.54359e-07
5.33252e-05 0.000150169 1.00369e-07
-9.54359e-07 1.00369e-07 7.35076e-05
0.001065 5.25026e-05 -9.82444e-07
5.25026e-05 7.74368e-05 -4.07571e-07
-9.82444e-07 -4.07571e-07 -3.59056e-06
0.00114275 2.39008e-05 7.07638e-08
2.39008e-05 0.000116266 6.54553e-07
7.07638e-08 6.54553e-07 4.05963e-05
0.00114607 4.7296e-05 6.80295e-07
4.7296e-05 0.000121918 8.7417e-07
6.80295e-07 8.7417e-07 4.26312e-05
0.0010046 3.69976e-05 5.80153e-07
3.69976e-05 4.76707e-05 1.472e-06
5.80153e-07 1.472e-06 -3.35769e-05
0.00101986 3.81776e-05 -1.00172e-07
3.81776e-05 5.91552e-05 4.09247e-08
-1.00172e-07 4.09247e-08 -2.37106e-05
0.00108788 4.82473e-05 1.15502e-07
4.82473e-05 9.19267e-05 8.69229e-08
1.15502e-07 8.69229e-08 8.59711e-06
0.0010857 4.80827e-05 -1.54454e-06
4.80827e-05 0.000101498 -1.59391e-06
-1.54454e-06 -1.59391e-06 1.37915e-05
0.000915564 4.05722e-05 -1.97465e-06
4.05722e-05 1.14083e-05 -2.94596e-06
-1.97465e-06 -2.94596e-06 -7.46378e-05
0.00108585 3.97048e-05 2.40955e-07
3.97048e-05 9.40239e-05 6.66256e-07
2.40955e-07 6.66256e-07 1.14197e-05
0.00124613 4.08804e-05 2.275e-07
4.08804e-05 0.000174077 -1.05968e-07
2.275e-07 -1.05968e-07 8.88012e-05
-0.002674 -8.94511e-05 4.68944e-05
-8.94511e-05 -0.0014874 1.93635e-05
4.68944e-05 1.93635e-05 -0.00152312
0.00121842 -6.15826e-05 -1.03576e-06
-6.15826e-05 0.000296098 -1.4319e-06
-1.03576e-06 -1.4319e-06 0.000392896
0.000634081 1.14964e-05 1.38482e-05
1.14964e-05 -2.3197e-05 5.24353e-06
1.38482e-05 5.24353e-06 -9.15797e-05
-0.000125144 -0.000122403 1.16041e-06
-0.000122403 -0.000621053 -5.38913e-06
1.16041e-06 -5.38913e-06 -0.000360563
0.00361055 -0.000272355 -1.22652e-05
-0.000272355 0.00087662 -5.51966e-05
-1.22652e-05 -5.51966e-05 0.00102208
0.00472373 -7.46463e-05 3.5498e-05
-7.46463e-05 0.000678038 3.05849e-05
3.5498e-05 3.05849e-05 0.000170404
0.000275483 -3.18669e-05 -2.23946e-05
-3.18669e-05 -0.00019786 6.34994e-05
-2.23946e-05 6.34994e-05 -0.000736245
0.00175899 0.000111998 -3.29333e-05
0.000111998 0.000213579 -3.11664e-05
-3.29333e-05 -3.11664e-05 -0.000206757
0.00231031 -0.00023183 -1.00676e-06
-0.00023183 0.000608404 -3.10636e-06
-1.00676e-06 -3.10636e-06 0.000634326
0.00333617 -9.77094e-05 3.35232e-05
-9.77094e-05 0.000235002 4.51501e-05
3.35232e-05 4.51501e-05 -0.000478248
0.0013614 0.000124404 -6.80569e-05
0.000124404 -0.000105123 -8.31159e-05
-6.80569e-05 -8.31159e-05 -0.000498758
0.00290253 -2.22058e-05 -2.50941e-05
-2.22058e-05 0.000356511 -1.06438e-05
-2.50941e-05 -1.06438e-05 -0.000363307
0.00204669 0.000128363 6.08163e-06
0.000128363 0.000593462 -7.90481e-06
6.08163e-06 -7.90481e-06 0.000449641
0.000919667 6.32505e-05 -3.20793e-07
6.32505e-05 2.82034e-05 -5.71754e-07
-3.20793e-07 -5.71754e-07 -4.49971e-05
0.00132994 3.72687e-05 1.62907e-06
3.72687e-05 0.000205251 1.47659e-06
1.62907e-06 1.47659e-06 0.000127006
-0.000212083 -1.06564e-05 -1.00117e-05
-1.06564e-05 -0.000187693 -3.8545e-06
-1.00117e-05 -3.8545e-06 -0.000346735
0.0016001 5.09507e-05 3.08533e-06
5.09507e-05 0.00041666 -1.86407e-07
3.08533e-06 -1.86407e-07 0.000280976
0.000982954 0.000102408 5.6884e-06
0.000102408 0.000193121 2.2999e-06
5.6884e-06 2.2999e-06 5.83784e-05
0.00017905 0.000103918 2.02613e-05
0.000103918 -0.000322259 2.16799e-05
2.02613e-05 2.16799e-05 -0.000442385
-0.000633081 -1.5304e-05 7.64243e-05
-1.5304e-05 -0.000620812 -4.69905e-06
7.64243e-05 -4.69905e-06 -0.000592215
0.000762902 -1.09386e-05 -1.15379e-05
-1.09386e-05 7.42348e-05 1.78344e-07
-1.15379e-05 1.78344e-07 6.76571e-05
-0.000399073 -4.68728e-06 1.62527e-05
-4.68728e-06 -0.000622213 -8.96758e-07
1.62527e-05 -8.96758e-07 -0.000730715
0.00161223 -6.5234e-05 -2.39797e-05
-6.5234e-05 0.000473605 2.34092e-06
-2.39797e-05 2.34092e-06 0.000340858
0.00110664 -9.61527e-05 -4.11556e-05
-9.61527e-05 -4.68104e-05 -3.53636e-06
-4.11556e-05 -3.53636e-06 -0.00032408
0.00113721 8.93734e-06 -3.27691e-07
8.93734e-06 0.000245395 -3.08871e-06
-3.27691e-07 -3.08871e-06 0.000248213
0.00226035 0.00021426 1.38211e-05
0.00021426 0.000192027 -2.93836e-05
1.38211e-05 -2.93836e-05 -0.000662448
0.00403915 0.000158188 -9.45035e-05
0.000158188 0.00174991 2.13841e-05
-9.45035e-05 2.13841e-05 0.00165415
0.00146391 -0.000101857 9.32561e-06
-0.000101857 8.03123e-05 -1.8007e-06
9.32561e-06 -1.8007e-06 9.08904e-05
-0.000109892 7.41435e-05 -3.09906e-05
7.41435e-05 -0.000337345 3.67253e-06
-3.09906e-05 3.67253e-06 -0.000411109
0.00310908 0.000145131 -8.51803e-06
0.000145131 0.000638903 5.56732e-06
-8.51803e-06 5.56732e-06 -0.0001502
0.000852559 3.15505e-05 -1.33865e-06
3.15505e-05 -0.000213418 3.98608e-06
-1.33865e-06 3.98608e-06 -0.000335091
0.000739326 -7.22566e-05 3.88599e-06
-7.22566e-05 -0.000388489 6.26823e-06
3.88599e-06 6.26823e-06 -0.000325907
0.00459193 9.6247e-05 1.81131e-05
9.6247e-05 0.00131483 9.72434e-06
1.81131e-05 9.72434e-06 0.000667284
0.00121014 7.20297e-05 -2.44298e-06
7.20297e-05 0.000248221 -1.21059e-06
-2.44298e-06 -1.21059e-06 -1.91885e-05
-0.000190282 -9.55306e-05 8.53647e-07
-9.55306e-05 -0.000495717 -8.20488e-06
8.53647e-07 -8.20488e-06 -0.000719408
0.00147075 -0.000150522 2.48141e-08
-0.000150522 0.000107079 -3.65142e-07
2.48141e-08 -3.65142e-07 -3.06354e-05
0.00156518 -0.000137902 -1.86822e-05
-0.000137902 -5.02933e-05 7.47129e-06
-1.86822e-05 7.47129e-06 -0.000115729
0.00121752 -0.000106062 -9.79649e-07
-0.000106062 6.51434e-05 -4.19665e-06
-9.79649e-07 -4.19665e-06 -7.15178e-05
0.0014488 -0.00010021 -7.8687e-07
-0.00010021 5.66127e-05 4.08262e-07
-7.8687e-07 4.08262e-07 -2.36178e-05
0.00196434 -8.17623e-05 -4.95827e-06
-8.17623e-05 0.00023388 2.86112e-06
-4.95827e-06 2.86112e-06 0.000203542
0.000991776 -7.61747e-05 2.51855e-06
-7.61747e-05 -5.16525e-05 -6.64573e-07
2.51855e-06 -6.64573e-07 -0.000154831
0.00136986 -7.16389e-05 -3.56455e-07
-7.16389e-05 4.81155e-05 -2.76831e-07
-3.56455e-07 -2.76831e-07 -1.98723e-05
0.00154895 -6.09926e-05 -9.68955e-07
-6.09926e-05 7.20776e-05 2.54425e-07
-9.68955e-07 2.54425e-07 3.37993e-05
0.00109408 -6.51791e-05 1.58511e-06
-6.51791e-05 -2.27149e-05 -2.95647e-07
1.58511e-06 -2.95647e-07 -0.000113923
0.00131325 -6.11026e-05 2.05367e-07
-6.11026e-05 3.03323e-05 2.94992e-07
2.05367e-07 2.94992e-07 -3.48291e-05
0.00132499 -5.38853e-05 -5.67692e-07
-5.38853e-05 1.14575e-05 1.78025e-07
-5.67692e-07 1.78025e-07 -3.69989e-05
0.00155826 -5.40628e-05 -6.44065e-07
-5.40628e-05 0.000158754 1.2328e-07
-6.44065e-07 1.2328e-07 0.000103008
0.00136534 -5.73206e-05 -5.99642e-07
-5.73206e-05 7.73886e-05 1.20376e-06
-5.99642e-07 1.20376e-06 1.36379e-05
0.00132817 -5.79421e-05 -7.5851e-07
-5.79421e-05 8.04384e-05 -1.50425e-06
-7.5851e-07 -1.50425e-06 1.08416e-05
0.00128097 -6.13929e-05 -1.50013e-06
-6.13929e-05 9.9431e-05 5.19008e-07
-1.50013e-06 5.19008e-07 1.89078e-05
0.00135496 -6.5405e-05 6.13988e-07
-6.5405e-05 0.000122681 -1.81016e-07
6.13988e-07 -1.81016e-07 3.85628e-05
0.00125359 -6.14675e-05 2.04784e-06
-6.14675e-05 5.08048e-05 1.07957e-06
2.04784e-06 1.07957e-06 -3.00758e-05
0.000891433 -5.24412e-05 -1.44718e-06
-5.24412e-05 -3.87845e-05 1.84048e-06
-1.44718e-06 1.84048e-06 -0.000117001
0.00109948 -5.98598e-05 9.859e-08
-5.98598e-05 5.15491e-05 -7.12731e-08
9.859e-08 -7.12731e-08 -3.32669e-05
0.0013466 -6.81806e-05 2.17941e-06
-6.81806e-05 0.000159414 -2.1129e-06
2.17941e-06 -2.1129e-06 6.77958e-05
0.00100509 -4.00627e-05 -9.33492e-07
-4.00627e-05 5.04103e-05 5.95045e-07
-9.33492e-07 5.95045e-07 -1.68388e-05
0.0010885 -5.50789e-05 7.00019e-08
-5.50789e-05 8.19755e-05 -1.33558e-07
7.00019e-08 -1.33558e-07 7.14902e-06
0.000859657 -5.35795e-05 5.42082e-07
-5.35795e-05 -3.78114e-05 -2.19698e-06
5.42082e-07 -2.19698e-06 -0.000121603
0.000905586 -1.56918e-07 -2.54815e-06
-1.56918e-07 1.91497e-05 1.80346e-06
-2.54815e-06 1.80346e-06 -3.27557e-05
0.00102598 -3.45551e-05 -7.51078e-08
-3.45551e-05 6.52193e-05 1.31804e-08
-7.51078e-08 1.31804e-08 -9.2599e-07
0.00109845 -5.1872e-05 5.09496e-07
-5.1872e-05 9.39771e-05 -5.32652e-07
5.09496e-07 -5.32652e-07 2.12501e-05
0.000771505 2.77044e-05 -4.14055e-06
2.77044e-05 -4.89611e-05 3.45266e-06
-4.14055e-06 3.45266e-06 -6.46485e-05
0.000912642 9.20949e-06 -4.06884e-09
9.20949e-06 1.61293e-05 1.66579e-08
-4.06884e-09 1.66579e-08 -3.24417e-05
0.00103239 -1.87506e-05 1.27473e-06
-1.87506e-05 7.08054e-05 -4.92977e-07
1.27473e-06 -4.92977e-07 4.91675e-06
0.00255648 3.87431e-05 -2.01588e-05
3.87431e-05 0.000848927 3.71925e-06
-2.01588e-05 3.71925e-06 0.000862839
0.000815681 2.51126e-05 -2.96542e-09
2.51126e-05 -3.5568e-05 1.1504e-08
-2.96542e-09 1.1504e-08 -4.86815e-05
0.000930878 1.90919e-06 2.48376e-06
1.90919e-06 1.71917e-05 -2.06164e-06
2.48376e-06 -2.06164e-06 -2.73769e-05
0.00177875 3.07641e-05 7.61179e-06
3.07641e-05 0.000449671 -1.04296e-06
7.61179e-06 -1.04296e-06 0.000461456
0.000838189 2.2648e-05 3.80524e-06
2.2648e-05 -3.05274e-05 -3.50333e-06
3.80524e-06 -3.50333e-06 -4.17768e-05
0.00246263 3.10809e-05 1.82959e-05
3.10809e-05 0.000790987 -3.94841e-06
1.82959e-05 -3.94841e-06 0.000807489
0.00109802 4.03297e-05 -6.34652e-07
4.03297e-05 9.85279e-05 2.56925e-07
-6.34652e-07 2.56925e-07 2.5924e-05
0.00103648 3.70492e-05 2.00401e-07
3.70492e-05 6.41466e-05 3.76264e-07
2.00401e-07 3.76264e-07 -1.003e-05
0.000994669 -6.9536e-08 -1.26755e-06
-6.9536e-08 4.25925e-05 -1.13339e-06
-1.26755e-06 -1.13339e-06 -2.32804e-05
0.00105678 3.44827e-05 6.38933e-07
3.44827e-05 7.53046e-05 9.30889e-07
6.38933e-07 9.30889e-07 1.10421e-06
0.00100156 1.07859e-06 -3.68991e-08
1.07859e-06 4.46655e-05 8.40835e-08
-3.68991e-08 8.40835e-08 -1.92315e-05
0.000911153 -6.77184e-06 -2.2377e-06
-6.77184e-06 1.41801e-06 -2.51593e-06
-2.2377e-06 -2.51593e-06 -4.13998e-05
0.000854065 -2.02576e-05 -3.08786e-06
-2.02576e-05 -2.99248e-05 -3.70731e-06
-3.08786e-06 -3.70731e-06 -3.9068e-05
0.000916061 -1.17964e-05 -1.83082e-07
-1.17964e-05 -3.56916e-07 -5.62269e-08
-1.83082e-07 -5.62269e-08 -3.93478e-05
0.000996387 -1.07971e-06 5.40712e-07
-1.07971e-06 3.86231e-05 1.84136e-06
5.40712e-07 1.84136e-06 -2.17001e-05
0.00242067 -2.73435e-05 -1.66522e-05
-2.73435e-05 0.000762511 -4.01331e-06
-1.66522e-05 -4.01331e-06 0.00078062
0.000850688 -1.79147e-05 -1.41064e-07
-1.79147e-05 -3.6052e-05 1.4867e-09
-1.41064e-07 1.4867e-09 -4.32332e-05
0.000930077 -9.22246e-06 1.39269e-06
-9.22246e-06 3.24588e-06 2.2532e-06
1.39269e-06 2.2532e-06 -3.28625e-05
0.00239313 -2.38085e-05 -6.57263e-07
-2.38085e-05 0.00074309 4.94517e-08
-6.57263e-07 4.94517e-08 0.000762504
0.000843621 -1.59183e-05 1.79682e-06
-1.59183e-05 -4.3354e-05 3.4921e-06
1.79682e-06 3.4921e-06 -4.88244e-05
0.00234161 -2.0001e-05 1.15788e-05
-2.0001e-05 0.000711929 4.00065e-06
1.15788e-05 4.00065e-06 0.000732765
0.000186397 3.82095e-05 9.87123e-05
3.82095e-05 -0.000324306 8.15371e-06
9.87123e-05 8.15371e-06 -0.000507047
0.00161443 -2.80714e-05 3.89972e-06
-2.80714e-05 0.00059346 -1.34509e-07
3.89972e-06 -1.34509e-07 0.000606429
0.000595436 5.97374e-06 1.51675e-05
5.97374e-06 5.55844e-06 2.49783e-06
1.51675e-05 2.49783e-06 -8.69258e-05
0.00101309 4.41118e-05 1.41949e-06
4.41118e-05 5.31291e-05 4.91288e-07
1.41949e-06 4.91288e-07 -2.58604e-05
0.0010253 4.96619e-05 7.06863e-07
4.96619e-05 5.97373e-05 2.3177e-08
7.06863e-07 2.3177e-08 -2.14411e-05
0.00110729 5.14591e-05 -2.19503e-08
5.14591e-05 0.000107429 -6.31481e-08
-2.19503e-08 -6.31481e-08 3.11855e-05
0.00114711 5.52628e-05 -5.60998e-07
5.52628e-05 0.000131572 -6.86669e-08
-5.60998e-07 -6.86669e-08 5.50791e-05
0.00110825 5.40898e-05 -2.00321e-06
5.40898e-05 0.000109079 -1.16074e-07
-2.00321e-06 -1.16074e-07 2.84053e-05
0.0010637 4.08994e-05 6.13926e-07
4.08994e-05 8.10126e-05 1.40227e-06
6.13926e-07 1.40227e-06 -1.83765e-06
0.00107959 4.88289e-05 1.39401e-06
4.88289e-05 8.80028e-05 1.11974e-06
1.39401e-06 1.11974e-06 4.81905e-06
0.00099472 5.01084e-05 -4.29764e-07
5.01084e-05 5.79492e-05 -2.8336e-07
-4.29764e-07 -2.8336e-07 -2.96258e-05
0.000601192 4.39888e-05 -1.8759e-06
4.39888e-05 -0.000134124 2.3453e-07
-1.8759e-06 2.3453e-07 -0.00021683
0.000803552 4.97879e-05 -2.41729e-06
4.97879e-05 -3.73979e-05 -1.9866e-06
-2.41729e-06 -1.9866e-06 -0.000126932
0.00182373 9.02506e-05 4.70987e-07
9.02506e-05 0.000437359 -3.82664e-06
4.70987e-07 -3.82664e-06 0.000336874
0.00110461 4.3886e-05 -1.4263e-06
4.3886e-05 0.000111337 1.41358e-07
-1.4263e-06 1.41358e-07 2.36509e-05
0.00108089 3.79976e-05 7.58494e-07
3.79976e-05 9.60375e-05 1.4273e-06
7.58494e-07 1.4273e-06 1.08205e-05
0.0069784 -7.95995e-05 -9.91095e-06
-7.95995e-05 0.00188854 -1.52671e-05
-9.91095e-06 -1.52671e-05 0.00125897
-9.21937e-05 -0.000113187 6.94662e-06
-0.000113187 -0.000391707 5.12242e-06
6.94662e-06 5.12242e-06 -0.000485176
0.00210798 -6.87966e-05 -7.23015e-06
-6.87966e-05 0.000776371 -2.75547e-06
-7.23015e-06 -2.75547e-06 0.000878326
-0.00202352 -0.000143811 -3.25419e-05
-0.000143811 -0.0013593 -2.4465e-05
-3.25419e-05 -2.4465e-05 -0.00122858
0.00725135 -0.000220537 6.48032e-05
-0.000220537 0.00191225 5.08667e-05
6.48032e-05 5.08667e-05 0.000974459
0.00154798 8.94238e-05 3.1301e-05
8.94238e-05 0.000398059 7.14949e-06
3.1301e-05 7.14949e-06 0.000159738
0.00142631 0.000116235 -2.80209e-05
0.000116235 5.54814e-05 -2.52122e-05
-2.80209e-05 -2.52122e-05 -0.000238581
0.00495829 -0.000172883 2.2134e-05
-0.000172883 0.0012252 1.59201e-05
2.2134e-05 1.59201e-05 0.000621525
0.00119922 4.61078e-05 -3.77205e-05
4.61078e-05 -4.68664e-05 -5.01669e-05
-3.77205e-05 -5.01669e-05 -0.000333034
0.00226827 0.000155555 1.7671e-05
0.000155555 0.000493798 8.53252e-06
1.7671e-05 8.53252e-06 0.000340144
0.000919198 8.93338e-05 -3.44325e-07
8.93338e-05 7.56589e-05 -5.40278e-06
-3.44325e-07 -5.40278e-06 -7.22541e-05
0.000841343 4.77412e-05 8.96114e-07
4.77412e-05 -2.30288e-05 4.55123e-06
8.96114e-07 4.55123e-06 -9.17054e-05
0.0020144 0.000130454 -1.75721e-05
0.000130454 0.000662295 -2.34657e-05
-1.75721e-05 -2.34657e-05 0.000545041
-9.59524e-05 0.000118208 -4.99375e-06
0.000118208 -0.000553701 2.21994e-05
-4.99375e-06 2.21994e-05 -0.000669148
0.000791827 4.39926e-05 -3.73947e-06
4.39926e-05 -0.000369343 -4.97725e-06
-3.73947e-06 -4.97725e-06 -0.000829342
0.00152965 8.41496e-06 8.52706e-07
8.41496e-06 0.000287036 3.51198e-06
8.52706e-07 3.51198e-06 0.000179614
-0.00108472 -7.91671e-06 -7.00701e-06
-7.91671e-06 -0.00100468 -2.26247e-07
-7.00701e-06 -2.26247e-07 -0.00103072
0.00219651 -0.000116173 -3.25199e-05
-0.000116173 0.000501183 -2.14245e-06
-3.25199e-05 -2.14245e-06 0.000460234
0.00160335 2.32366e-05 2.83411e-05
2.32366e-05 -0.0002332 -2.34147e-05
2.83411e-05 -2.34147e-05 -0.000452069
0.000313709 1.16227e-06 -0.000118982
1.16227e-06 -0.000262613 2.26558e-05
-0.000118982 2.26558e-05 -0.00044807
0.00511685 0.000243931 -1.94053e-05
0.000243931 0.0017148 5.51484e-06
-1.94053e-05 5.51484e-06 0.000951103
0.00138859 -8.38444e-05 1.35518e-06
-8.38444e-05 -8.15683e-05 -7.73104e-07
1.35518e-06 -7.73104e-07 -2.56506e-05
0.0046875 0.000151827 2.89847e-05
0.000151827 0.00138724 3.14352e-06
2.89847e-05 3.14352e-06 0.000814263
0.00181007 7.7916e-05 2.49228e-05
7.7916e-05 0.000168874 -9.4738e-06
2.49228e-05 -9.4738e-06 -0.000159131
0.00233253 -6.17419e-05 -6.97328e-06
-6.17419e-05 0.000210929 9.98295e-07
-6.97328e-06 9.98295e-07 0.00026938
0.000937873 6.92023e-05 -2.60264e-05
6.92023e-05 0.000263625 1.20943e-05
-2.60264e-05 1.20943e-05 4.12756e-05
0.00141841 -0.000145721 9.22737e-06
-0.000145721 9.97647e-05 -7.88233e-06
9.22737e-06 -7.88233e-06 -4.07063e-05
0.00172654 -0.000137514 -3.64631e-06
-0.000137514 2.70572e-05 1.67692e-06
-3.64631e-06 1.67692e-06 -3.02259e-05
0.00211964 -8.1208e-05 -1.22762e-05
-8.1208e-05 0.000146098 5.10485e-06
-1.22762e-05 5.10485e-06 0.000137746
0.000805406 -8.84794e-05 6.02634e-06
-8.84794e-05 -0.000258052 -1.30408e-06
6.02634e-06 -1.30408e-06 -0.000334622
0.00145279 -7.48499e-05 1.79333e-06
-7.48499e-05 -8.20914e-06 9.85054e-07
1.79333e-06 9.85054e-07 -3.58864e-05
0.00151756 -4.94909e-05 -1.29932e-06
-4.94909e-05 -1.65171e-05 4.56308e-06
-1.29932e-06 4.56308e-06 -2.87809e-05
0.00112809 -6.73349e-05 1.70142e-06
-6.73349e-05 -7.66108e-05 9.83732e-07
1.70142e-06 9.83732e-07 -0.000142961
0.00142577 -6.02194e-05 7.16358e-08
-6.02194e-05 1.13033e-05 1.5185e-06
7.16358e-08 1.5185e-06 -2.75694e-05
0.00146557 -4.82627e-05 6.50348e-07
-4.82627e-05 2.70853e-05 2.78323e-06
6.50348e-07 2.78323e-06 -7.27695e-06
0.00123831 -5.97045e-05 2.28246e-06
-5.97045e-05 -8.83508e-06 1.61455e-06
2.28246e-06 1.61455e-06 -7.34562e-05
0.00137258 -5.50969e-05 7.48528e-08
-5.50969e-05 3.59282e-05 9.10815e-07
7.48528e-08 9.10815e-07 -1.35054e-05
0.00141768 -4.82635e-05 -1.67548e-07
-4.82635e-05 5.89363e-05 1.04127e-06
-1.67548e-07 1.04127e-06 1.00355e-05
0.00138011 -5.20627e-05 -1.07985e-06
-5.20627e-05 7.24686e-05 9.08044e-07
-1.07985e-06 9.08044e-07 1.85369e-05
0.00152128 -5.34611e-05 6.26775e-07
-5.34611e-05 0.000154144 -6.49696e-07
6.26775e-07 -6.49696e-07 9.25764e-05
0.00136255 -5.60632e-05 1.46666e-06
-5.60632e-05 7.57998e-05 2.38649e-06
1.46666e-06 2.38649e-06 1.3765e-05
0.00133948 -5.7726e-05 7.53596e-08
-5.7726e-05 8.54112e-05 -4.05193e-07
7.53596e-08 -4.05193e-07 1.5565e-05
0.00132305 -5.60591e-05 -6.61149e-07
-5.60591e-05 9.02104e-05 -3.09255e-07
-6.61149e-07 -3.09255e-07 1.77801e-05
0.000990433 -5.27501e-05 -1.66969e-06
-5.27501e-05 -2.47007e-05 1.24638e-06
-1.66969e-06 1.24638e-06 -0.000101813
0.00127465 -6.10183e-05 3.56532e-08
-6.10183e-05 9.72575e-05 -1.58407e-07
3.56532e-08 -1.58407e-07 1.63266e-05
0.00140424 -6.59077e-05 1.97336e-06
-6.59077e-05 0.000148399 -4.10555e-07
1.97336e-06 -4.10555e-07 6.42939e-05
0.00104485 -4.64795e-05 -1.24991e-06
-4.64795e-05 5.48637e-05 1.20248e-06
-1.24991e-06 1.20248e-06 -1.45635e-05
0.000970737 -5.40341e-05 -3.5296e-07
-5.40341e-05 2.68296e-06 3.9e-07
-3.5296e-07 3.9e-07 -7.51266e-05
0.00129415 -6.37818e-05 1.342e-06
-6.37818e-05 0.000148945 -1.63862e-06
1.342e-06 -1.63862e-06 6.49595e-05
0.000875559 -2.93048e-06 -2.35701e-06
-2.93048e-06 6.78614e-06 1.6071e-06
-2.35701e-06 1.6071e-06 -4.78305e-05
0.00104007 -4.12626e-05 -3.44807e-08
-4.12626e-05 6.63718e-05 -9.02093e-08
-3.44807e-08 -9.02093e-08 -9.16107e-07
0.00112068 -5.54099e-05 6.0566e-07
-5.54099e-05 9.69454e-05 -1.24401e-06
6.0566e-07 -1.24401e-06 2.20253e-05
0.000732793 3.03424e-05 -4.18234e-06
3.03424e-05 -5.90976e-05 3.47916e-06
-4.18234e-06 3.47916e-06 -7.81868e-05
0.000916473 -1.67558e-06 1.09931e-08
-1.67558e-06 2.25275e-05 7.80238e-08
1.09931e-08 7.80238e-08 -2.90546e-05
0.00104912 -3.54167e-05 1.21136e-06
-3.54167e-05 7.55895e-05 -4.24905e-07
1.21136e-06 -4.24905e-07 9.55409e-06
0.00258158 4.27759e-05 -2.06455e-05
4.27759e-05 0.000869188 3.56294e-06
-2.06455e-05 3.56294e-06 0.000881447
0.00079994 2.8535e-05 -1.24773e-08
2.8535e-05 -3.41038e-05 -1.91679e-08
-1.24773e-08 -1.91679e-08 -5.00777e-05
0.000918086 9.66219e-08 2.51352e-06
9.66219e-08 1.70884e-05 -1.79186e-06
2.51352e-06 -1.79186e-06 -3.1007e-05
0.00252868 3.87397e-05 2.06074e-07
3.87397e-05 0.000836007 6.87274e-08
2.06074e-07 6.87274e-08 0.000849813
0.000835266 2.5752e-05 4.02962e-06
2.5752e-05 -2.51494e-05 -3.46998e-06
4.02962e-06 -3.46998e-06 -3.85056e-05
0.00249024 3.48711e-05 1.93711e-05
3.48711e-05 0.000810813 -3.83112e-06
1.93711e-05 -3.83112e-06 0.000825948
0.0010589 4.43913e-05 -7.82011e-07
4.43913e-05 8.51416e-05 -2.02988e-07
-7.82011e-07 -2.02988e-07 1.09795e-05
0.00106093 4.01966e-05 2.59299e-07
4.01966e-05 8.11724e-05 1.47103e-07
2.59299e-07 1.47103e-07 8.52985e-06
0.000915969 1.48009e-06 -1.62632e-06
1.48009e-06 6.47873e-06 -8.03101e-07
-1.62632e-06 -8.03101e-07 -6.05853e-05
0.000969078 3.37077e-05 1.43206e-06
3.37077e-05 2.9722e-05 9.85157e-07
1.43206e-06 9.85157e-07 -4.47602e-05
0.000958336 3.39363e-07 -9.50526e-08
3.39363e-07 2.45386e-05 1.93135e-07
-9.50526e-08 1.93135e-07 -4.17368e-05
0.000914388 -8.7684e-07 -2.63305e-06
-8.7684e-07 5.7643e-06 -2.20825e-06
-2.63305e-06 -2.20825e-06 -4.08328e-05
0.000995061 5.18168e-08 9.13223e-07
5.18168e-08 4.17079e-05 1.73169e-06
9.13223e-07 1.73169e-06 -2.22363e-05
0.000915134 -6.43807e-06 -1.49363e-07
-6.43807e-06 2.90958e-06 -3.65041e-08
-1.49363e-07 -3.65041e-08 -3.98153e-05
0.000841815 -2.2831e-05 -3.5982e-06
-2.2831e-05 -3.03068e-05 -3.78571e-06
-3.5982e-06 -3.78571e-06 -4.19649e-05
0.00245899 -3.09978e-05 -1.82261e-05
-3.09978e-05 0.000787371 -3.98518e-06
-1.82261e-05 -3.98518e-06 0.000804121
0.000840897 -1.99324e-05 -9.9034e-08
-1.99324e-05 -3.64933e-05 -1.84626e-08
-9.9034e-08 -1.84626e-08 -4.55051e-05
0.000921283 -1.08794e-05 1.43568e-06
-1.08794e-05 1.62535e-06 2.48634e-06
1.43568e-06 2.48634e-06 -3.72056e-05
0.00243463 -2.74677e-05 -5.569e-07
-2.74677e-05 0.000768983 5.87906e-08
-5.569e-07 5.87906e-08 0.000787159
0.000837628 -1.77621e-05 2.28498e-06
-1.77621e-05 -4.24258e-05 3.5719e-06
2.28498e-06 3.5719e-06 -4.95365e-05
0.00239667 -2.38618e-05 1.37319e-05
-2.38618e-05 0.000744363 4.00169e-06
1.37319e-05 4.00169e-06 0.000763893
0.00531192 1.12393e-05 2.18428e-05
1.12393e-05 0.00157217 -3.08105e-06
2.18428e-05 -3.08105e-06 0.00107964
-0.000529175 -1.80836e-05 1.57287e-05
-1.80836e-05 -0.000402609 8.02873e-07
1.57287e-05 8.02873e-07 -0.000427151
0.000425322 -1.9828e-05 3.90592e-06
-1.9828e-05 -0.000112804 -1.71142e-07
3.90592e-06 -1.71142e-07 -0.000112237
0.00103364 4.53942e-05 1.89898e-06
4.53942e-05 6.57664e-05 3.36328e-07
1.89898e-06 3.36328e-07 -1.54547e-05
0.0010279 4.97927e-05 9.15474e-07
4.97927e-05 6.98543e-05 1.41917e-07
9.15474e-07 1.41917e-07 -6.00281e-06
0.00114709 5.42146e-05 1.00187e-07
5.42146e-05 0.000128022 -6.19481e-08
1.00187e-07 -6.19481e-08 4.75893e-05
0.00110496 5.44743e-05 -2.45217e-07
5.44743e-05 0.00011085 -1.77666e-07
-2.45217e-07 -1.77666e-07 3.43488e-05
0.00111647 5.59798e-05 1.38827e-06
5.59798e-05 0.000120111 4.96524e-07
1.38827e-06 4.96524e-07 4.16496e-05
0.000859212 4.94771e-05 -1.9919e-06
4.94771e-05 -5.09678e-06 5.30635e-07
-1.9919e-06 5.30635e-07 -8.39768e-05
0.000883722 4.64772e-05 1.52723e-06
4.64772e-05 3.04799e-06 1.30101e-06
1.52723e-06 1.30101e-06 -8.37956e-05
0.000824136 4.89535e-05 6.82547e-07
4.89535e-05 -2.35848e-05 -1.17031e-07
6.82547e-07 -1.17031e-07 -0.000107622
0.000855146 5.0119e-05 8.64751e-07
5.0119e-05 -4.30345e-06 1.94866e-07
8.64751e-07 1.94866e-07 -9.48661e-05
0.000550406 5.13661e-05 -5.76977e-07
5.13661e-05 -0.00017181 1.89473e-07
-5.76977e-07 1.89473e-07 -0.000255706
0.00259894 0.00010848 6.05321e-08
0.00010848 0.00079238 -8.54588e-07
6.05321e-08 -8.54588e-07 0.000698742
0.00178334 0.000107935 2.56992e-07
0.000107935 0.0003121 -3.87817e-06
2.56992e-07 -3.87817e-06 0.00019595
0.00121217 7.74701e-05 7.96587e-07
7.74701e-05 0.000141393 1.95435e-07
7.96587e-07 1.95435e-07 4.29601e-05
0.00127865 4.85839e-05 -3.82841e-07
4.85839e-05 0.000205149 1.68384e-06
-3.82841e-07 1.68384e-06 0.000115601
0.000659856 -3.88147e-05 -1.78236e-05
-3.88147e-05 -0.000231871 -2.18931e-05
-1.78236e-05 -2.18931e-05 -0.000339741
0.00353023 -8.00834e-05 -1.39255e-05
-8.00834e-05 0.000642749 -2.59561e-06
-1.39255e-05 -2.59561e-06 0.000134211
0.00274153 -0.000156669 -3.62267e-05
-0.000156669 0.00107642 -1.07551e-05
-3.62267e-05 -1.07551e-05 0.000976946
0.00398328 -0.000104534 8.42546e-05
-0.000104534 0.000804506 3.6532e-05
8.42546e-05 3.6532e-05 0.000109902
0.0028608 0.000143879 1.91148e-05
0.000143879 0.000850034 4.18557e-05
1.91148e-05 4.18557e-05 0.000669711
0.000992116 3.31752e-05 -1.37595e-05
3.31752e-05 -2.21139e-05 -1.64636e-06
-1.37595e-05 -1.64636e-06 -0.000148488
0.00104168 5.91689e-05 2.07844e-05
5.91689e-05 -0.000207612 1.19481e-05
2.07844e-05 1.19481e-05 -0.00027507
0.00186542 0.000155461 5.71782e-07
0.000155461 0.00029857 9.8661e-06
5.71782e-07 9.8661e-06 0.00015704
0.000333357 6.96917e-05 -1.36482e-06
6.96917e-05 -0.000201438 7.16296e-06
-1.36482e-06 7.16296e-06 -0.000346041
0.00256488 0.000196571 -5.49706e-05
0.000196571 0.000522392 -8.58079e-05
-5.49706e-05 -8.58079e-05 0.000458225
0.00191274 1.09283e-05 -0.000110737
1.09283e-05 0.000477602 -7.31073e-06
-0.000110737 -7.31073e-06 0.000210145
0.00496352 4.79273e-05 1.25333e-05
4.79273e-05 0.00158771 -8.49959e-08
1.25333e-05 -8.49959e-08 0.00109848
-0.00268801 -1.53422e-05 -7.34522e-05
-1.53422e-05 -0.00177206 5.35036e-06
-7.34522e-05 5.35036e-06 -0.00176194
0.00233534 -9.24904e-05 -1.85028e-06
-9.24904e-05 0.000386855 -1.06973e-06
-1.85028e-06 -1.06973e-06 0.000423186
0.000706655 8.54239e-05 2.99267e-05
8.54239e-05 -0.000231798 -1.07073e-05
2.99267e-05 -1.07073e-05 -0.000422417
0.000375662 1.06949e-05 2.10692e-05
1.06949e-05 -0.000409129 -3.60477e-06
2.10692e-05 -3.60477e-06 -0.000894547
0.00194568 -6.65321e-05 -1.01777e-06
-6.65321e-05 3.23197e-05 2.33625e-06
-1.01777e-06 2.33625e-06 7.33565e-05
0.00131844 9.0852e-05 3.19605e-06
9.0852e-05 0.000266957 -4.97023e-06
3.19605e-06 -4.97023e-06 6.74453e-05
0.00219361 -6.77504e-06 -4.42024e-07
-6.77504e-06 0.000102889 -1.26191e-05
-4.42024e-07 -1.26191e-05 0.00013223
0.000835406 5.88396e-05 1.82809e-06
5.88396e-05 -0.000228032 -1.88185e-06
1.82809e-06 -1.88185e-06 -0.000292075
0.00199792 -0.000137668 9.80456e-06
-0.000137668 0.000162775 -3.69954e-06
9.80456e-06 -3.69954e-06 0.000111745
0.00190681 -7.80091e-05 3.44655e-06
-7.80091e-05 5.1264e-05 -3.48191e-07
3.44655e-06 -3.48191e-07 4.70395e-05
0.00194713 -1.17188e-05 -2.80745e-06
-1.17188e-05 0.000160586 3.60069e-06
-2.80745e-06 3.60069e-06 0.000144269
0.000945341 -6.86348e-05 7.44735e-06
-6.86348e-05 -0.000248759 -1.10304e-06
7.44735e-06 -1.10304e-06 -0.000274548
0.00162464 -5.09403e-05 1.88509e-06
-5.09403e-05 4.48752e-05 4.20604e-07
1.88509e-06 4.20604e-07 3.01179e-05
0.00163404 -2.7675e-05 -6.74227e-07
-2.7675e-05 6.83729e-05 3.52017e-06
-6.74227e-07 3.52017e-06 3.22107e-05
0.00131393 -5.95586e-05 3.12746e-06
-5.95586e-05 -4.3028e-05 1.09813e-06
3.12746e-06 1.09813e-06 -8.2668e-05
0.00147195 -4.87062e-05 6.31986e-07
-4.87062e-05 3.65605e-05 7.53286e-07
6.31986e-07 7.53286e-07 3.7756e-07
0.00157186 -3.84867e-05 -6.14733e-07
-3.84867e-05 9.51052e-05 1.95686e-06
-6.14733e-07 1.95686e-06 4.53626e-05
0.00142771 -5.63169e-05 1.06375e-06
-5.63169e-05 6.42373e-05 1.20087e-06
1.06375e-06 1.20087e-06 1.37836e-05
0.0013628 -4.92398e-05 -1.15167e-07
-4.92398e-05 3.76636e-05 -1.01218e-08
-1.15167e-07 -1.01218e-08 -1.16601e-05
0.00136438 -4.69461e-05 1.05664e-06
-4.69461e-05 5.52886e-05 9.40029e-07
1.05664e-06 9.40029e-07 -5.28366e-06
0.00122378 -5.02978e-05 -1.15151e-07
-5.02978e-05 -3.09479e-06 1.41609e-06
-1.15151e-07 1.41609e-06 -5.52538e-05
0.00139016 -5.10989e-05 -7.59956e-07
-5.10989e-05 8.92268e-05 -5.19839e-07
-7.59956e-07 -5.19839e-07 2.89139e-05
0.00149087 -5.24275e-05 6.70432e-08
-5.24275e-05 0.000151924 -5.7568e-08
6.70432e-08 -5.7568e-08 8.39595e-05
0.00134838 -5.74758e-05 9.21445e-07
-5.74758e-05 8.91327e-05 5.84226e-07
9.21445e-07 5.84226e-07 1.90505e-05
0.00132272 -5.57505e-05 1.43929e-07
-5.57505e-05 9.02689e-05 -3.00677e-07
1.43929e-07 -3.00677e-07 1.75271e-05
0.00134108 -5.41707e-05 -8.77104e-07
-5.41707e-05 0.000117682 3.63671e-07
-8.77104e-07 3.63671e-07 4.537e-05
0.000870155 -4.39307e-05 -2.15885e-06
-4.39307e-05 -5.87408e-05 1.54136e-06
-2.15885e-06 1.54136e-06 -0.00012947
0.00107444 -5.43078e-05 -2.91252e-07
-5.43078e-05 1.95682e-05 2.07894e-07
-2.91252e-07 2.07894e-07 -5.72893e-05
0.00126823 -6.0641e-05 1.38055e-06
-6.0641e-05 9.50692e-05 -1.00021e-06
1.38055e-06 -1.00021e-06 1.37264e-05
0.000879988 -1.17983e-05 -2.13661e-06
-1.17983e-05 4.60657e-06 1.74559e-06
-2.13661e-06 1.74559e-06 -5.27019e-05
0.00106039 -4.6324e-05 6.72078e-08
-4.6324e-05 6.20888e-05 2.20227e-08
6.72078e-08 2.20227e-08 -7.3352e-06
0.00106698 -5.60319e-05 5.33561e-07
-5.60319e-05 5.22501e-05 -9.40455e-07
5.33561e-07 -9.40455e-07 -2.51547e-05
0.000695991 3.26674e-05 -4.20371e-06
3.26674e-05 -6.8361e-05 3.35855e-06
-4.20371e-06 3.35855e-06 -9.13948e-05
0.000907338 -6.10734e-06 -1.57666e-07
-6.10734e-06 2.01967e-05 2.04747e-08
-1.57666e-07 2.04747e-08 -3.41972e-05
0.00107518 -4.23694e-05 1.19314e-06
-4.23694e-05 8.24253e-05 -9.24641e-07
1.19314e-06 -9.24641e-07 1.50948e-05
0.00264868 4.68977e-05 -2.14457e-05
4.68977e-05 0.000910757 3.43175e-06
-2.14457e-05 3.43175e-06 0.000920988
0.000775972 3.14405e-05 1.06727e-07
3.14405e-05 -3.70024e-05 2.30539e-08
1.06727e-07 2.30539e-08 -5.63881e-05
0.000921484 -3.19338e-06 2.58423e-06
-3.19338e-06 2.30827e-05 -1.53953e-06
2.58423e-06 -1.53953e-06 -2.81775e-05
0.00256651 4.27334e-05 2.01488e-07
4.27334e-05 0.000862667 7.26437e-08
2.01488e-07 7.26437e-08 0.000874718
0.000828814 2.93444e-05 3.95866e-06
2.93444e-05 -1.91879e-05 -3.44424e-06
3.95866e-06 -3.44424e-06 -3.54291e-05
0.00250406 3.86833e-05 2.0088e-05
3.86833e-05 0.000824651 -3.68176e-06
2.0088e-05 -3.68176e-06 0.00083835
0.00106892 4.93706e-05 -1.00435e-06
4.93706e-05 9.17002e-05 -6.98633e-07
-1.00435e-06 -6.98633e-07 1.58459e-05
0.0011248 4.62524e-05 1.30741e-07
4.62524e-05 0.000117425 9.45326e-08
1.30741e-07 9.45326e-08 4.35764e-05
0.000951265 1.75121e-05 -1.54422e-06
1.75121e-05 3.08236e-05 -6.87095e-07
-1.54422e-06 -6.87095e-07 -3.7355e-05
0.0010259 4.01151e-05 9.90738e-07
4.01151e-05 6.47996e-05 3.1259e-07
9.90738e-07 3.1259e-07 -7.88175e-06
0.000926617 4.07696e-06 -3.75294e-07
4.07696e-06 1.28133e-05 -5.58798e-08
-3.75294e-07 -5.58798e-08 -5.43697e-05
0.000913232 2.12968e-07 -2.67276e-06
2.12968e-07 1.03517e-05 -1.86104e-06
-2.67276e-06 -1.86104e-06 -3.96102e-05
0.000921704 -2.67563e-06 1.15541e-06
-2.67563e-06 6.6141e-06 1.35683e-06
1.15541e-06 1.35683e-06 -6.03079e-05
0.000915221 -2.76321e-06 -6.14065e-08
-2.76321e-06 6.44508e-06 2.0504e-08
-6.14065e-08 2.0504e-08 -4.01821e-05
0.00082534 -2.61357e-05 -3.92431e-06
-2.61357e-05 -3.17851e-05 -3.707e-06
-3.92431e-06 -3.707e-06 -4.62964e-05
0.000920009 -6.63589e-06 2.00574e-06
-6.63589e-06 4.88011e-06 2.65218e-06
2.00574e-06 2.65218e-06 -3.77562e-05
0.000827169 -2.23028e-05 -1.22875e-07
-2.23028e-05 -3.80407e-05 -9.46491e-09
-1.22875e-07 -9.46491e-09 -4.94651e-05
0.00251256 -3.48601e-05 -1.95534e-05
-3.48601e-05 0.000820471 -3.92581e-06
-1.95534e-05 -3.92581e-06 0.000835593
0.00247522 -3.11226e-05 -4.11081e-07
-3.11226e-05 0.000794845 6.06293e-08
-4.11081e-07 6.06293e-08 0.000811697
0.00082838 -1.96246e-05 2.83956e-06
-1.96246e-05 -4.27964e-05 3.64829e-06
2.83956e-06 3.64829e-06 -5.16696e-05
0.0024459 -2.75976e-05 1.57142e-05
-2.75976e-05 0.000774154 3.97176e-06
1.57142e-05 3.97176e-06 0.0007924
0.000578282 -2.56346e-05 -5.0819e-05
-2.56346e-05 -0.000172022 -1.08956e-05
-5.0819e-05 -1.08956e-05 -0.000302284
0.00169548 -2.99641e-05 -1.09336e-05
-2.99641e-05 1.92675e-06 -5.58921e-06
-1.09336e-05 -5.58921e-06 -0.000471342
0.00328466 -0.000119927 -3.74617e-05
-0.000119927 0.0012075 -2.81164e-06
-3.74617e-05 -2.81164e-06 0.00112499
0.0011927 6.05581e-05 2.14154e-06
6.05581e-05 0.0001366 3.74815e-07
2.14154e-06 3.74815e-07 5.65423e-05
0.00116323 5.58251e-05 1.57453e-06
5.58251e-05 0.000136875 -2.33961e-08
1.57453e-06 -2.33961e-08 5.64322e-05
0.00105101 5.32903e-05 7.41438e-07
5.32903e-05 8.42634e-05 6.22658e-08
7.41438e-07 6.22658e-08 7.79459e-06
0.00102446 5.37263e-05 -1.64594e-08
5.37263e-05 7.61488e-05 8.83621e-08
-1.64594e-08 8.83621e-08 -3.17922e-06
0.00106785 5.51762e-05 -1.26236e-07
5.51762e-05 9.75116e-05 -2.45658e-07
-1.26236e-07 -2.45658e-07 1.86493e-05
0.000763924 5.21465e-05 -1.77609e-06
5.21465e-05 -5.57704e-05 7.02576e-07
-1.77609e-06 7.02576e-07 -0.000130337
0.00115426 5.69909e-05 2.9661e-06
5.69909e-05 0.000140925 -8.27643e-07
2.9661e-06 -8.27643e-07 5.51807e-05
0.00118643 5.5727e-05 1.97642e-06
5.5727e-05 0.000162371 1.18811e-06
1.97642e-06 1.18811e-06 7.08191e-05
0.00106149 6.40994e-05 -2.08186e-07
6.40994e-05 7.55046e-05 -1.28619e-07
-2.08186e-07 -1.28619e-07 -7.59641e-06
0.0019375 9.30253e-05 1.66598e-07
9.30253e-05 0.000483355 6.79112e-07
1.66598e-07 6.79112e-07 0.000391885
0.00153442 9.07484e-05 9.58285e-07
9.07484e-05 0.000189615 -1.21927e-06
9.58285e-07 -1.21927e-06 9.00919e-05
0.00177246 9.22654e-05 -7.7628e-06
9.22654e-05 0.000144614 -3.31436e-06
-7.7628e-06 -3.31436e-06 3.06801e-05
0.00129803 9.54415e-05 3.27436e-06
9.54415e-05 6.47654e-05 1.1121e-06
3.27436e-06 1.1121e-06 -5.0076e-05
0.0007189 6.50912e-05 -6.4453e-07
6.50912e-05 -0.00010486 4.42241e-06
-6.4453e-07 4.42241e-06 -0.000201046
0.00185299 -2.52736e-05 -1.4567e-06
-2.52736e-05 6.12008e-05 5.59816e-06
-1.4567e-06 5.59816e-06 2.0852e-05
0.00159454 -2.84555e-05 9.94874e-07
-2.84555e-05 7.33135e-06 8.36063e-07
9.94874e-07 8.36063e-07 -0.000146721
0.000855421 -8.71871e-05 -2.55486e-05
-8.71871e-05 -0.000421719 -4.0718e-06
-2.55486e-05 -4.0718e-06 -0.000850254
0.00218039 9.44965e-05 1.76026e-05
9.44965e-05 7.58338e-05 1.93729e-05
1.76026e-05 1.93729e-05 -0.000142098
0.00139451 6.36162e-05 2.25601e-06
6.36162e-05 -0.000104237 1.81748e-06
2.25601e-06 1.81748e-06 -0.000172435
-0.000224624 0.000106937 -5.57045e-06
0.000106937 -0.000653243 -9.86299e-06
-5.57045e-06 -9.86299e-06 -0.00080327
0.00224784 2.34016e-06 7.1919e-06
2.34016e-06 0.000557525 -5.18123e-06
7.1919e-06 -5.18123e-06 0.000494005
0.000636341 3.02734e-06 -2.19352e-05
3.02734e-06 4.79539e-05 1.10879e-06
-2.19352e-05 1.10879e-06 -0.000133132
0.00126488 0.000122914 5.71532e-05
0.000122914 -0.000247803 -1.99226e-08
5.71532e-05 -1.99226e-08 -0.000701486
0.00149069 -7.56027e-05 -1.77171e-06
-7.56027e-05 -0.000189511 6.72957e-06
-1.77171e-06 6.72957e-06 -0.000161425
0.00140162 0.000101281 4.26294e-05
0.000101281 0.000101727 -1.88388e-05
4.26294e-05 -1.88388e-05 -0.000141506
0.00201244 -1.13559e-05 4.97761e-06
-1.13559e-05 3.06819e-06 -1.5481e-06
4.97761e-06 -1.5481e-06 1.26971e-05
0.00126399 6.76165e-05 4.88367e-07
6.76165e-05 -1.06683e-05 -3.59986e-06
4.88367e-07 -3.59986e-06 -7.53593e-05
0.00106709 4.52396e-05 -7.24082e-06
4.52396e-05 -0.000306426 1.87047e-08
-7.24082e-06 1.87047e-08 -0.000373761
0.000735249 4.16869e-05 -5.6331e-06
4.16869e-05 -0.000380685 -3.54741e-06
-5.6331e-06 -3.54741e-06 -0.000464925
0.00160617 -7.43072e-05 1.26058e-05
-7.43072e-05 -8.93758e-05 -3.72534e-06
1.26058e-05 -3.72534e-06 -8.79775e-05
0.00180089 -1.43963e-05 3.06916e-06
-1.43963e-05 9.67513e-05 -2.13162e-07
3.06916e-06 -2.13162e-07 7.47153e-05
0.00185048 1.34488e-05 -2.48303e-06
1.34488e-05 0.000187985 1.14191e-06
-2.48303e-06 1.14191e-06 0.000128768
0.00171967 -5.29088e-05 1.64196e-06
-5.29088e-05 9.98837e-05 -1.55989e-06
1.64196e-06 -1.55989e-06 8.18589e-05
0.00166655 -2.86882e-05 -1.7588e-07
-2.86882e-05 8.84685e-05 -1.54762e-07
-1.7588e-07 -1.54762e-07 5.00175e-05
0.00167661 -1.62222e-05 -9.99603e-07
-1.62222e-05 0.000124262 2.18279e-06
-9.99603e-07 2.18279e-06 6.46478e-05
0.00148518 -4.91498e-05 2.43237e-07
-4.91498e-05 4.93189e-05 -8.39969e-07
2.43237e-07 -8.39969e-07 1.13023e-05
0.00151887 -3.99871e-05 -8.52221e-07
-3.99871e-05 7.83874e-05 -8.41815e-07
-8.52221e-07 -8.41815e-07 2.89525e-05
0.00139654 -3.7453e-05 -1.67804e-07
-3.7453e-05 3.78669e-05 2.20624e-06
-1.67804e-07 2.20624e-06 -2.79031e-05
0.00130359 -5.01032e-05 -6.34477e-07
-5.01032e-05 1.41377e-05 -1.45016e-06
-6.34477e-07 -1.45016e-06 -3.55746e-05
0.00134708 -4.65019e-05 1.40507e-07
-4.65019e-05 4.77511e-05 -5.15778e-07
1.40507e-07 -5.15778e-07 -1.28679e-05
0.00134757 -4.72921e-05 1.40441e-07
-4.72921e-05 6.20756e-05 7.81749e-07
1.40441e-07 7.81749e-07 -6.71457e-06
0.00125678 -4.87766e-05 -1.19548e-06
-4.87766e-05 2.31463e-05 3.55777e-07
-1.19548e-06 3.55777e-07 -3.59029e-05
0.00136607 -4.97182e-05 -2.2939e-07
-4.97182e-05 8.96564e-05 -3.31824e-07
-2.2939e-07 -3.31824e-07 2.24711e-05
0.00129971 -4.78187e-05 -7.57465e-07
-4.78187e-05 7.53347e-05 3.76666e-07
-7.57465e-07 3.76666e-07 4.76529e-06
0.00132193 -5.54365e-05 9.69016e-07
-5.54365e-05 9.0055e-05 -2.58719e-07
9.69016e-07 -2.58719e-07 1.70076e-05
0.00121442 -5.17961e-05 2.08044e-07
-5.17961e-05 5.55913e-05 -1.72022e-07
2.08044e-07 -1.72022e-07 -1.71743e-05
0.00119888 -4.70991e-05 -1.80278e-06
-4.70991e-05 7.54704e-05 1.07615e-06
-1.80278e-06 1.07615e-06 6.10521e-06
0.000927206 -2.37245e-05 -2.58348e-06
-2.37245e-05 1.17276e-05 1.73052e-06
-2.58348e-06 1.73052e-06 -4.7268e-05
0.000961181 -4.55148e-05 -4.74524e-07
-4.55148e-05 -1.17192e-05 3.11758e-07
-4.74524e-07 3.11758e-07 -8.20422e-05
0.00114407 -5.54991e-05 9.47417e-07
-5.54991e-05 5.697e-05 -8.54995e-07
9.47417e-07 -8.54995e-07 -1.96318e-05
0.000689976 2.94247e-05 -3.96476e-06
2.94247e-05 -6.40655e-05 3.40052e-06
-3.96476e-06 3.40052e-06 -9.17604e-05
0.000915043 -1.5127e-05 1.71231e-08
-1.5127e-05 2.06161e-05 7.72786e-08
1.71231e-08 7.72786e-08 -3.66685e-05
0.00107833 -4.63139e-05 1.43775e-06
-4.63139e-05 7.04699e-05 -1.17843e-06
1.43775e-06 -1.17843e-06 1.04087e-06
0.00271823 5.07454e-05 -2.25756e-05
5.07454e-05 0.000954462 3.30534e-06
-2.25756e-05 3.30534e-06 0.000962403
0.000759537 3.39517e-05 -3.91869e-08
3.39517e-05 -3.71588e-05 -4.71911e-08
-3.91869e-08 -4.71911e-08 -6.04042e-05
0.000939199 -9.27945e-06 2.50053e-06
-9.27945e-06 3.36804e-05 -1.67246e-06
2.50053e-06 -1.67246e-06 -2.05085e-05
0.00262482 4.65602e-05 2.79934e-07
4.65602e-05 0.000900085 9.16536e-08
2.79934e-07 9.16536e-08 0.000910081
0.000816917 3.24377e-05 4.06187e-06
3.24377e-05 -1.60836e-05 -3.31323e-06
4.06187e-06 -3.31323e-06 -3.57438e-05
0.00254493 4.25066e-05 2.10275e-05
4.25066e-05 0.000852909 -3.59166e-06
2.10275e-05 -3.59166e-06 0.000864782
0.000950325 5.15053e-05 -8.81444e-07
5.15053e-05 2.27729e-05 -7.88361e-07
-8.81444e-07 -7.88361e-07 -5.52196e-05
0.00104527 4.87211e-05 -5.62704e-08
4.87211e-05 7.96016e-05 -2.17394e-07
-5.62704e-08 -2.17394e-07 3.95109e-06
0.00106202 3.45153e-05 -1.36871e-06
3.45153e-05 8.63297e-05 -5.77229e-07
-1.36871e-06 -5.77229e-07 1.69188e-05
0.00119583 4.8374e-05 8.00201e-07
4.8374e-05 0.00015225 8.74855e-08
8.00201e-07 8.74855e-08 7.86916e-05
0.000991321 2.1249e-05 -3.3187e-07
2.1249e-05 5.12578e-05 -1.21886e-07
-3.3187e-07 -1.21886e-07 -1.66612e-05
0.000916251 6.00936e-07 -2.59062e-06
6.00936e-07 2.05811e-05 -1.69648e-06
-2.59062e-06 -1.69648e-06 -3.27162e-05
0.000934857 1.07026e-05 9.97417e-07
1.07026e-05 1.76526e-05 5.54251e-07
9.97417e-07 5.54251e-07 -4.93932e-05
0.000911836 -1.39967e-06 2.48165e-08
-1.39967e-06 1.09066e-05 4.53235e-08
2.48165e-08 4.53235e-08 -3.92476e-05
0.000810116 -3.00989e-05 -3.97299e-06
-3.00989e-05 -3.02525e-05 -3.54655e-06
-3.97299e-06 -3.54655e-06 -4.78653e-05
0.000914614 -4.00495e-06 2.49335e-06
-4.00495e-06 6.48958e-06 2.50232e-06
2.49335e-06 2.50232e-06 -4.01831e-05
0.000810736 -2.5365e-05 -7.95875e-08
-2.5365e-05 -3.98602e-05 1.52794e-08
-7.95875e-08 1.52794e-08 -5.40889e-05
0.00255843 -3.88695e-05 -2.05071e-05
-3.88695e-05 0.00085049 -3.7932e-06
-2.05071e-05 -3.7932e-06 0.000863865
0.000814495 -2.18284e-05 3.36114e-06
-2.18284e-05 -4.48431e-05 3.76358e-06
3.36114e-06 3.76358e-06 -5.60313e-05
0.00252721 -3.49243e-05 -3.34987e-07
-3.49243e-05 0.000826956 6.83819e-08
-3.34987e-07 6.83819e-08 0.000842253
0.00249127 -3.12435e-05 1.75302e-05
-3.12435e-05 0.000802311 3.9234e-06
1.75302e-05 3.9234e-06 0.000819253
0.00144881 -4.70414e-05 -2.93607e-07
-4.70414e-05 -3.26462e-05 3.91731e-07
-2.93607e-07 3.91731e-07 -6.71734e-05
0.00183784 -1.8757e-06 -4.30847e-06
-1.8757e-06 0.000246949 6.33285e-06
-4.30847e-06 6.33285e-06 2.68359e-05
0.00424237 3.80581e-05 -6.23055e-05
3.80581e-05 0.001232 -9.55141e-06
-6.23055e-05 -9.55141e-06 0.000755321
0.00095247 5.50887e-05 1.07163e-06
5.50887e-05 7.85288e-06 3.85417e-07
1.07163e-06 3.85417e-07 -6.78327e-05
0.00131171 6.67708e-05 1.94619e-06
6.67708e-05 0.000142614 -9.96926e-07
1.94619e-06 -9.96926e-07 5.93951e-05
0.000907556 5.44094e-05 3.06974e-07
5.44094e-05 3.73545e-06 -3.40394e-07
3.06974e-07 -3.40394e-07 -7.5989e-05
0.00114953 5.69786e-05 1.44681e-06
5.69786e-05 0.000136138 -7.72919e-07
1.44681e-06 -7.72919e-07 5.66182e-05
0.00106067 5.5529e-05 3.47534e-07
5.5529e-05 9.48416e-05 4.51674e-08
3.47534e-07 4.51674e-08 1.5541e-05
0.00102532 5.92775e-05 7.89247e-07
5.92775e-05 6.51117e-05 6.53427e-07
7.89247e-07 6.53427e-07 -1.01574e-05
0.0013747 7.96586e-05 -1.83248e-06
7.96586e-05 0.000122512 -2.89661e-06
-1.83248e-06 -2.89661e-06 3.33411e-05
0.00140101 7.2618e-05 2.54906e-06
7.2618e-05 0.000242096 9.31756e-08
2.54906e-06 9.31756e-08 0.000159646
0.000762048 6.59373e-05 -1.02185e-06
6.59373e-05 -6.89249e-05 3.41971e-06
-1.02185e-06 3.41971e-06 -0.000158463
0.00140073 8.76617e-05 -1.1567e-06
8.76617e-05 0.000129448 -4.85569e-07
-1.1567e-06 -4.85569e-07 3.12309e-05
0.00115945 7.35039e-05 -4.69998e-06
7.35039e-05 -0.000122281 -2.78101e-06
-4.69998e-06 -2.78101e-06 -0.000225413
0.00167583 3.11774e-05 -7.45891e-06
3.11774e-05 7.17219e-06 3.48082e-06
-7.45891e-06 3.48082e-06 -7.31301e-05
0.00184958 9.32756e-05 3.18363e-07
9.32756e-05 0.000174334 8.4424e-07
3.18363e-07 8.4424e-07 6.18396e-05
0.00105413 8.69435e-05 -4.36057e-07
8.69435e-05 -7.11145e-05 3.93979e-06
-4.36057e-07 3.93979e-06 -0.000183253
0.00162705 -1.96698e-05 9.16159e-07
-1.96698e-05 -3.65533e-05 9.36265e-07
9.16159e-07 9.36265e-07 -7.5747e-05
0.00240351 -3.03955e-05 5.27426e-05
-3.03955e-05 0.000281287 2.89237e-05
5.27426e-05 2.89237e-05 6.29337e-05
0.00216578 7.82573e-05 -3.95773e-06
7.82573e-05 0.000225721 -2.34564e-06
-3.95773e-06 -2.34564e-06 0.000151688
0.00185509 2.54979e-05 -4.76694e-06
2.54979e-05 0.000227178 -2.83052e-06
-4.76694e-06 -2.83052e-06 0.000169094
0.00139616 -4.01439e-06 1.17538e-06
-4.01439e-06 0.000131093 -5.26001e-07
1.17538e-06 -5.26001e-07 7.34644e-05
0.000929344 4.96338e-05 5.4501e-05
4.96338e-05 -3.86461e-05 3.67513e-06
5.4501e-05 3.67513e-06 -0.000275416
0.00193962 -1.7605e-05 8.44417e-06
-1.7605e-05 -4.0392e-05 -6.35466e-07
8.44417e-06 -6.35466e-07 -5.0445e-05
0.00150619 7.40774e-05 -3.33944e-06
7.40774e-05 0.000125882 1.44204e-06
-3.33944e-06 1.44204e-06 6.20616e-05
0.00160621 5.2232e-05 -1.58454e-06
5.2232e-05 -5.10098e-05 4.48841e-06
-1.58454e-06 4.48841e-06 -0.000113953
0.00144002 5.31408e-05 1.72007e-07
5.31408e-05 -3.04543e-05 1.30595e-06
1.72007e-07 1.30595e-06 -0.000111233
0.00156984 4.33907e-05 -5.06791e-06
4.33907e-05 6.31625e-05 -3.26415e-07
-5.06791e-06 -3.26415e-07 -1.21701e-05
0.00135062 3.91965e-05 -3.47481e-06
3.91965e-05 -1.42388e-05 -1.71916e-06
-3.47481e-06 -1.71916e-06 -7.97234e-05
0.00153248 -1.65097e-05 6.2753e-06
-1.65097e-05 -3.05814e-05 -2.60586e-06
6.2753e-06 -2.60586e-06 -5.72236e-05
0.00167871 1.17491e-05 -1.12762e-06
1.17491e-05 9.90715e-05 -1.01205e-06
-1.12762e-06 -1.01205e-06 4.15209e-05
0.00162762 2.16591e-05 -1.99422e-06
2.16591e-05 9.58069e-05 2.45877e-07
-1.99422e-06 2.45877e-07 2.16147e-05
0.00175564 -2.94713e-05 -1.27415e-06
-2.94713e-05 0.000136187 -2.85412e-06
-1.27415e-06 -2.85412e-06 9.61925e-05
0.00160321 -1.61332e-05 -1.39504e-07
-1.61332e-05 9.19661e-05 -4.196e-07
-1.39504e-07 -4.196e-07 3.26299e-05
0.00141416 -1.19475e-05 -1.17334e-06
-1.19475e-05 1.58547e-05 1.88873e-06
-1.17334e-06 1.88873e-06 -5.59851e-05
0.00146313 -4.12836e-05 -2.26914e-06
-4.12836e-05 6.00937e-05 -2.87285e-06
-2.26914e-06 -2.87285e-06 1.10119e-05
0.00141657 -3.6983e-05 2.31757e-07
-3.6983e-05 4.7755e-05 -9.93623e-08
2.31757e-07 -9.93623e-08 -1.80764e-05
0.00139759 -3.91273e-05 -4.7787e-07
-3.91273e-05 5.58477e-05 1.59793e-06
-4.7787e-07 1.59793e-06 -1.73228e-05
0.0013299 -4.6039e-05 -6.4968e-07
-4.6039e-05 4.02623e-05 -1.98689e-06
-6.4968e-07 -1.98689e-06 -2.04009e-05
0.00134544 -4.6645e-05 3.94434e-08
-4.6645e-05 6.08666e-05 -3.69218e-07
3.94434e-08 -3.69218e-07 -7.8792e-06
0.00131316 -4.61379e-05 -6.83326e-07
-4.61379e-05 6.36513e-05 7.73503e-07
-6.83326e-07 7.73503e-07 -8.40242e-06
0.00124017 -4.70617e-05 -1.44022e-07
-4.70617e-05 2.68339e-05 -2.92535e-07
-1.44022e-07 -2.92535e-07 -3.9574e-05
0.00121858 -4.64077e-05 -1.63208e-07
-4.64077e-05 3.56427e-05 -1.52856e-07
-1.63208e-07 -1.52856e-07 -3.47549e-05
0.00119615 -4.30957e-05 -1.77524e-06
-4.30957e-05 5.42129e-05 8.93751e-07
-1.77524e-06 8.93751e-07 -1.46245e-05
0.00109318 -4.95341e-05 1.33796e-06
-4.95341e-05 -3.89659e-06 -7.54546e-07
1.33796e-06 -7.54546e-07 -7.7117e-05
0.00106286 -4.41988e-05 4.65567e-08
-4.41988e-05 9.23038e-06 3.11892e-08
4.65567e-08 3.11892e-08 -6.0265e-05
0.000975261 -2.82596e-05 -2.87821e-06
-2.82596e-05 1.32794e-05 1.57381e-06
-2.87821e-06 1.57381e-06 -4.61642e-05
0.000732755 1.45149e-05 -4.98068e-06
1.45149e-05 -4.2885e-05 3.36074e-06
-4.98068e-06 3.36074e-06 -7.43565e-05
0.000938591 -2.48398e-05 3.15044e-08
-2.48398e-05 1.72846e-05 1.0499e-07
3.15044e-08 1.0499e-07 -4.17425e-05
0.00106251 -4.73754e-05 1.10659e-06
-4.73754e-05 4.0202e-05 -8.84218e-07
1.10659e-06 -8.84218e-07 -2.97143e-05
0.00280139 5.47181e-05 -2.33864e-05
5.47181e-05 0.00100676 3.18852e-06
-2.33864e-05 3.18852e-06 0.00101188
0.000754073 2.37966e-05 1.03216e-07
2.37966e-05 -3.48521e-05 -6.04514e-08
1.03216e-07 -6.04514e-08 -6.22135e-05
0.000944903 -1.8365e-05 2.63389e-06
-1.8365e-05 3.39565e-05 -1.75431e-06
2.63389e-06 -1.75431e-06 -2.32487e-05
0.0026917 5.03838e-05 2.33039e-07
5.03838e-05 0.000942849 8.49034e-08
2.33039e-07 8.49034e-08 0.00095045
0.000815873 3.01717e-05 4.33417e-06
3.01717e-05 -9.96284e-06 -3.26327e-06
4.33417e-06 -3.26327e-06 -3.30903e-05
0.00260533 4.63248e-05 2.20318e-05
4.63248e-05 0.000891591 -3.45553e-06
2.20318e-05 -3.45553e-06 0.000901333
0.00077675 5.16585e-05 -4.02272e-07
5.16585e-05 -8.82875e-05 -6.73391e-07
-4.02272e-07 -6.73391e-07 -0.000170287
0.000850746 4.93756e-05 -1.88395e-09
4.93756e-05 -2.82689e-05 -9.18865e-08
-1.88395e-09 -9.18865e-08 -0.000106622
0.00109626 4.28972e-05 -1.48708e-06
4.28972e-05 9.26248e-05 -5.54692e-07
-1.48708e-06 -5.54692e-07 2.16997e-05
0.00101943 4.80245e-05 6.34259e-07
4.80245e-05 6.6392e-05 1.33112e-07
6.34259e-07 1.33112e-07 -9.04594e-06
0.00101511 3.25855e-05 -3.75931e-08
3.25855e-05 6.38558e-05 -2.87491e-08
-3.75931e-08 -2.87491e-08 -5.46057e-06
0.000925722 3.98399e-06 -2.65003e-06
3.98399e-06 3.21646e-05 -1.53392e-06
-2.65003e-06 -1.53392e-06 -2.41315e-05
0.00103543 2.43035e-05 1.10331e-06
2.43035e-05 7.37433e-05 3.65612e-07
1.10331e-06 3.65612e-07 6.06784e-06
0.000905531 -6.7057e-07 8.04523e-08
-6.7057e-07 1.70911e-05 3.72373e-08
8.04523e-08 3.72373e-08 -3.6463e-05
0.000802915 -3.39341e-05 -3.87786e-06
-3.39341e-05 -2.27754e-05 -3.40302e-06
-3.87786e-06 -3.40302e-06 -4.39525e-05
0.000912412 -2.84635e-06 2.7118e-06
-2.84635e-06 1.24728e-05 2.12634e-06
2.7118e-06 2.12634e-06 -3.78891e-05
0.000790075 -2.92278e-05 -2.20698e-08
-2.92278e-05 -4.11788e-05 1.94984e-08
-2.20698e-08 1.94984e-08 -5.85018e-05
0.00259157 -4.28757e-05 -2.12483e-05
-4.28757e-05 0.000875567 -3.6247e-06
-2.12483e-05 -3.6247e-06 0.000887026
0.000796757 -2.46443e-05 3.90409e-06
-2.46443e-05 -4.76526e-05 3.76029e-06
3.90409e-06 3.76029e-06 -6.15988e-05
0.002583 -3.89577e-05 -2.66705e-07
-3.89577e-05 0.000861675 7.60366e-08
-2.66705e-07 7.60366e-08 0.000875228
0.00254561 -3.50455e-05 1.90154e-05
-3.50455e-05 0.000835369 3.85977e-06
1.90154e-05 3.85977e-06 0.000850818
0.00158867 -1.44264e-05 -1.01665e-06
-1.44264e-05 5.10962e-06 1.28152e-06
-1.01665e-06 1.28152e-06 -4.65962e-05
0.00113397 -4.34248e-05 -1.09213e-08
-4.34248e-05 -0.00014036 -1.44161e-06
-1.09213e-08 -1.44161e-06 -0.000174327
0.000258979 -2.72598e-05 4.31837e-05
-2.72598e-05 -0.000252426 1.92854e-05
4.31837e-05 1.92854e-05 -0.00038881
0.00177259 7.64094e-05 7.07379e-07
7.64094e-05 0.000320422 -2.19272e-06
7.07379e-07 -2.19272e-06 0.000238218
0.00093736 5.56745e-05 -6.63162e-07
5.56745e-05 1.18907e-05 3.33711e-07
-6.63162e-07 3.33711e-07 -6.09364e-05
0.000789277 5.77997e-05 -2.52014e-06
5.77997e-05 -0.000171732 -6.52697e-07
-2.52014e-06 -6.52697e-07 -0.000259285
0.00129421 6.63972e-05 1.38031e-07
6.63972e-05 0.000133104 6.17499e-08
1.38031e-07 6.17499e-08 4.93925e-05
0.000635901 4.82919e-05 -7.99081e-07
4.82919e-05 -0.000121222 8.29488e-07
-7.99081e-07 8.29488e-07 -0.000200785
0.00163048 7.32268e-05 -3.72055e-06
7.32268e-05 0.000134408 -4.28189e-06
-3.72055e-06 -4.28189e-06 3.92016e-05
0.00127987 6.60267e-05 4.90227e-07
6.60267e-05 0.000182339 -9.10271e-08
4.90227e-07 -9.10271e-08 0.000106462
0.00136796 7.79993e-05 8.83341e-08
7.79993e-05 0.000112663 1.95132e-07
8.83341e-08 1.95132e-07 2.39874e-05
0.00159138 3.12656e-05 -3.29231e-06
3.12656e-05 2.79051e-05 2.22498e-06
-3.29231e-06 2.22498e-06 -5.63517e-05
0.0013852 8.71289e-05 1.47244e-06
8.71289e-05 0.000126061 2.69951e-06
1.47244e-06 2.69951e-06 2.90807e-05
0.00146567 8.02197e-05 -1.04596e-06
8.02197e-05 2.34517e-05 -7.35893e-07
-1.04596e-06 -7.35893e-07 -8.051e-05
0.00182934 3.01204e-05 -6.06255e-07
3.01204e-05 8.82592e-05 1.85447e-06
-6.06255e-07 1.85447e-06 6.2932e-06
0.00170602 8.87985e-05 4.77597e-06
8.87985e-05 0.000106364 3.00392e-06
4.77597e-06 3.00392e-06 -5.55524e-06
0.00145942 -8.51149e-06 -9.9615e-06
-8.51149e-06 -0.000108948 -6.33212e-06
-9.9615e-06 -6.33212e-06 -0.00014686
0.00168121 3.18317e-06 -2.49937e-06
3.18317e-06 0.00016349 -1.15343e-06
-2.49937e-06 -1.15343e-06 0.000106374
0.00138768 1.94913e-05 1.47632e-06
1.94913e-05 -1.17256e-05 6.1846e-07
1.47632e-06 6.1846e-07 -6.9314e-05
0.000509871 -8.19279e-06 1.61378e-06
-8.19279e-06 -0.000308723 2.60996e-06
1.61378e-06 2.60996e-06 -0.000361747
0.00204527 5.74086e-05 5.85925e-06
5.74086e-05 0.000153841 -2.61774e-06
5.85925e-06 -2.61774e-06 9.47775e-05
0.00218373 6.45632e-05 1.50785e-05
6.45632e-05 0.000341222 4.63632e-06
1.50785e-05 4.63632e-06 0.000263705
0.00178869 4.68199e-05 -2.97178e-06
4.68199e-05 0.000160033 -6.11505e-07
-2.97178e-06 -6.11505e-07 8.4675e-05
0.00149374 3.92595e-05 8.393e-07
3.92595e-05 6.18711e-05 1.64027e-06
8.393e-07 1.64027e-06 -3.2672e-06
0.00153348 3.80959e-05 -3.59908e-06
3.80959e-05 8.26904e-05 -2.2085e-06
-3.59908e-06 -2.2085e-06 1.10633e-05
0.00159496 9.83503e-06 -6.25417e-07
9.83503e-06 5.58794e-05 -2.35261e-06
-6.25417e-07 -2.35261e-06 -6.13585e-07
0.00164882 2.09469e-05 8.30047e-09
2.09469e-05 0.000103511 -2.66387e-07
8.30047e-09 -2.66387e-07 3.02605e-05
0.00157858 2.42884e-05 -2.89913e-06
2.42884e-05 8.57271e-05 -5.82344e-07
-2.89913e-06 -5.82344e-07 8.20227e-06
0.00153677 -1.62151e-05 -1.28295e-08
-1.62151e-05 6.34744e-05 -2.56223e-06
-1.28295e-08 -2.56223e-06 4.34276e-06
0.00147414 -1.19625e-05 2.94138e-07
-1.19625e-05 4.59283e-05 3.07988e-07
2.94138e-07 3.07988e-07 -2.63917e-05
0.00147519 -1.25124e-05 -1.45481e-06
-1.25124e-05 6.29034e-05 1.09471e-06
-1.45481e-06 1.09471e-06 -1.43451e-05
0.00143168 -3.64324e-05 2.42846e-07
-3.64324e-05 5.53055e-05 -2.34819e-06
2.42846e-07 -2.34819e-06 -1.05897e-05
0.00140883 -3.82784e-05 1.66513e-07
-3.82784e-05 6.0653e-05 1.63552e-09
1.66513e-07 1.63552e-09 -1.25742e-05
0.00136313 -4.00357e-05 -1.10837e-06
-4.00357e-05 6.039e-05 1.18174e-06
-1.10837e-06 1.18174e-06 -1.4866e-05
0.00134318 -4.60554e-05 -3.92974e-08
-4.60554e-05 5.95979e-05 -1.51319e-06
-3.92974e-08 -1.51319e-06 -9.10702e-06
0.00131185 -4.57547e-05 -1.11718e-09
-4.57547e-05 6.27037e-05 -2.19189e-07
-1.11718e-09 -2.19189e-07 -9.32653e-06
0.00122617 -4.12276e-05 -1.66247e-06
-4.12276e-05 4.89967e-05 9.47223e-07
-1.66247e-06 9.47223e-07 -2.14211e-05
0.00113192 -4.48659e-05 6.66195e-07
-4.48659e-05 -6.71784e-06 -6.71225e-07
6.66195e-07 -6.71225e-07 -7.69388e-05
0.00118347 -4.24604e-05 -2.69628e-08
-4.24604e-05 4.81826e-05 -4.081e-08
-2.69628e-08 -4.081e-08 -2.05735e-05
0.00101787 -2.8749e-05 -3.04984e-06
-2.8749e-05 1.33236e-05 1.48699e-06
-3.04984e-06 1.48699e-06 -4.65547e-05
0.000918166 -4.10721e-05 1.63676e-06
-4.10721e-05 -6.11801e-05 -9.5065e-07
1.63676e-06 -9.5065e-07 -0.0001308
0.000972928 -2.84393e-05 1.65804e-08
-2.84393e-05 1.28383e-05 6.18245e-08
1.65804e-08 6.18245e-08 -4.66601e-05
0.00166113 1.66915e-05 -6.03598e-06
1.66915e-05 0.000424806 1.81876e-06
-6.03598e-06 1.81876e-06 0.000394813
0.00115456 3.28919e-05 -2.44745e-05
3.28919e-05 0.000183183 5.78101e-06
-2.44745e-05 5.78101e-06 0.000174377
0.00122625 1.86941e-05 -9.54577e-07
1.86941e-05 0.000203535 -6.16624e-09
-9.54577e-07 -6.16624e-09 0.000174584
0.00095276 -2.57915e-05 2.82472e-06
-2.57915e-05 2.4149e-05 -1.62249e-06
2.82472e-06 -1.62249e-06 -3.49185e-05
0.00279802 5.42705e-05 2.61693e-07
5.42705e-05 0.00100695 1.0044e-07
2.61693e-07 1.0044e-07 0.00101153
0.000820809 2.42834e-05 4.91466e-06
2.42834e-05 -3.50636e-06 -3.23865e-06
4.91466e-06 -3.23865e-06 -3.09883e-05
0.0026709 4.99072e-05 2.31819e-05
4.99072e-05 0.000934013 -3.37309e-06
2.31819e-05 -3.37309e-06 0.000941279
0.00118248 6.1046e-05 -1.13417e-06
6.1046e-05 -1.08679e-05 -5.50314e-07
-1.13417e-06 -5.50314e-07 -9.13588e-05
0.000844392 5.52927e-05 4.75327e-07
5.52927e-05 -8.65451e-05 -1.22458e-07
4.75327e-07 -1.22458e-07 -0.00017091
0.000868349 5.41065e-05 -8.18059e-08
5.41065e-05 -4.79473e-05 -8.2428e-08
-8.18059e-08 -8.2428e-08 -0.000130448
0.00111585 4.84896e-05 -1.40284e-06
4.84896e-05 8.53191e-05 -7.80666e-07
-1.40284e-06 -7.80666e-07 1.29359e-05
0.000733218 4.67606e-05 4.89819e-07
4.67606e-05 -8.83165e-05 5.90011e-07
4.89819e-07 5.90011e-07 -0.000166971
0.00104054 4.04585e-05 -1.12435e-07
4.04585e-05 6.57549e-05 -3.45453e-08
-1.12435e-07 -3.45453e-08 -4.90914e-06
0.000939212 1.05227e-05 -2.66205e-06
1.05227e-05 3.9977e-05 -1.2575e-06
-2.66205e-06 -1.2575e-06 -1.82165e-05
0.00097328 3.08092e-05 1.33938e-06
3.08092e-05 4.38201e-05 5.43776e-07
1.33938e-06 5.43776e-07 -2.54059e-05
0.000893186 1.5954e-06 5.81221e-08
1.5954e-06 1.7825e-05 8.73809e-08
5.81221e-08 8.73809e-08 -3.86673e-05
0.000799467 -3.62665e-05 -3.92977e-06
-3.62665e-05 -1.42821e-05 -3.2136e-06
-3.92977e-06 -3.2136e-06 -3.93613e-05
0.000891935 -2.3827e-06 2.65184e-06
-2.3827e-06 1.21985e-05 1.81058e-06
2.65184e-06 1.81058e-06 -4.16023e-05
0.000765302 -3.29251e-05 1.51626e-08
-3.29251e-05 -4.21982e-05 -1.56031e-09
1.51626e-08 -1.56031e-09 -6.30869e-05
0.00262284 -4.67348e-05 -2.20356e-05
-4.67348e-05 0.00090149 -3.47108e-06
-2.20356e-05 -3.47108e-06 0.000910697
0.000768165 -2.82392e-05 4.20739e-06
-2.82392e-05 -5.30737e-05 3.64871e-06
4.20739e-06 3.64871e-06 -7.0093e-05
0.00262557 -4.30745e-05 -2.35871e-07
-4.30745e-05 0.000891074 8.1566e-08
-2.35871e-07 8.1566e-08 0.000902733
0.00260785 -3.90539e-05 2.03144e-05
-3.90539e-05 0.000873 3.78458e-06
2.03144e-05 3.78458e-06 0.000886731
0.00158785 -2.0285e-05 -6.82091e-07
-2.0285e-05 6.01536e-05 2.02716e-06
-6.82091e-07 2.02716e-06 -4.00721e-06
0.00176343 -1.4031e-05 1.5211e-06
-1.4031e-05 0.000101409 -1.80704e-06
1.5211e-06 -1.80704e-06 4.86322e-05
0.00121969 -4.4768e-05 -2.8444e-06
-4.4768e-05 -6.57867e-05 -4.48424e-06
-2.8444e-06 -4.48424e-06 -9.92855e-05
0.00146707 6.55398e-05 -4.3207e-06
6.55398e-05 7.30491e-05 -3.11888e-06
-4.3207e-06 -3.11888e-06 -1.51909e-05
0.00148637 7.03327e-05 -1.08339e-07
7.03327e-05 0.000196167 4.09517e-07
-1.08339e-07 4.09517e-07 0.000116085
0.000812455 5.42929e-05 -3.26052e-06
5.42929e-05 -3.78881e-05 4.18442e-07
-3.26052e-06 4.18442e-07 -0.000107718
0.00130762 6.73632e-05 8.6051e-07
6.73632e-05 7.75113e-05 9.40056e-07
8.6051e-07 9.40056e-07 -8.40468e-06
0.00130466 6.65678e-05 -1.41393e-06
6.65678e-05 0.000137076 7.45206e-07
-1.41393e-06 7.45206e-07 5.28636e-05
0.00168088 2.78376e-05 -2.70927e-06
2.78376e-05 9.09246e-05 9.24175e-07
-2.70927e-06 9.24175e-07 1.45185e-06
0.0015929 7.41514e-05 -1.4846e-06
7.41514e-05 0.000113774 -1.36201e-06
-1.4846e-06 -1.36201e-06 1.67959e-05
0.00136454 7.67756e-05 1.47389e-06
7.67756e-05 0.000106231 4.35256e-06
1.47389e-06 4.35256e-06 1.77643e-05
0.00167668 2.9534e-05 -3.83458e-07
2.9534e-05 6.8293e-05 8.52543e-07
-3.83458e-07 8.52543e-07 -1.65015e-05
0.00187364 8.8742e-05 4.31884e-06
8.8742e-05 0.000214759 2.17338e-06
4.31884e-06 2.17338e-06 0.000110374
0.00182662 2.66792e-05 6.17045e-06
2.66792e-05 9.35778e-05 1.93629e-07
6.17045e-06 1.93629e-07 1.00181e-05
0.00131785 2.723e-06 -2.07646e-06
2.723e-06 -3.79006e-06 -1.97252e-07
-2.07646e-06 -1.97252e-07 -6.94116e-05
0.00149786 4.57359e-06 -2.39538e-07
4.57359e-06 7.1899e-05 -5.49224e-07
-2.39538e-07 -5.49224e-07 1.43092e-05
0.000774975 1.29547e-05 7.14422e-06
1.29547e-05 -0.000322469 5.3663e-06
7.14422e-06 5.3663e-06 -0.000379254
0.00203104 5.07543e-05 5.16984e-06
5.07543e-05 0.00026801 -9.53729e-07
5.16984e-06 -9.53729e-07 0.000192705
0.00161203 3.9485e-05 7.18203e-06
3.9485e-05 0.00012481 4.7501e-06
7.18203e-06 4.7501e-06 6.01475e-05
0.00160392 3.88283e-05 -1.09499e-06
3.88283e-05 0.000116398 -3.64556e-07
-1.09499e-06 -3.64556e-07 4.51805e-05
0.00149535 3.23865e-05 -1.61023e-06
3.23865e-05 7.75232e-05 -9.08829e-07
-1.61023e-06 -9.08829e-07 2.13862e-06
0.00165861 2.00505e-05 2.22168e-06
2.00505e-05 0.000105437 -8.09829e-07
2.22168e-06 -8.09829e-07 3.31839e-05
0.0015722 2.22304e-05 -4.52696e-07
2.22304e-05 8.00968e-05 -7.43507e-08
-4.52696e-07 -7.43507e-08 2.74573e-06
0.00146446 1.5436e-05 -2.74634e-06
1.5436e-05 4.67099e-05 -9.72457e-07
-2.74634e-06 -9.72457e-07 -3.1029e-05
0.00153003 -1.21399e-05 1.11236e-06
-1.21399e-05 7.39553e-05 -1.03378e-06
1.11236e-06 -1.03378e-06 1.16055e-06
0.00147596 -1.29846e-05 5.96206e-08
-1.29846e-05 6.28639e-05 3.7843e-07
5.96206e-08 3.7843e-07 -1.4506e-05
0.00142858 -1.97202e-05 -1.83816e-06
-1.97202e-05 6.39226e-05 7.21609e-07
-1.83816e-06 7.21609e-07 -1.37245e-05
0.00141957 -3.73696e-05 9.42151e-07
-3.73696e-05 6.52289e-05 -1.57696e-06
9.42151e-07 -1.57696e-06 -8.05291e-06
0.00136937 -3.97093e-05 8.94663e-08
-3.97093e-05 6.28569e-05 7.02204e-08
8.94663e-08 7.02204e-08 -1.24524e-05
0.00127711 -3.71472e-05 -1.92391e-06
-3.71472e-05 4.94601e-05 1.1066e-06
-1.92391e-06 1.1066e-06 -2.35373e-05
0.00131011 -4.54089e-05 7.49174e-07
-4.54089e-05 6.15584e-05 -1.21011e-06
7.49174e-07 -1.21011e-06 -1.04517e-05
0.00122801 -4.08987e-05 -1.5035e-08
-4.08987e-05 4.96641e-05 -1.09189e-07
-1.5035e-08 -1.09189e-07 -2.07239e-05
0.00105853 -2.89158e-05 -3.22263e-06
-2.89158e-05 1.44978e-05 1.59329e-06
-3.22263e-06 1.59329e-06 -4.71187e-05
0.00116983 -4.1826e-05 1.57404e-06
-4.1826e-05 4.1684e-05 -9.24744e-07
1.57404e-06 -9.24744e-07 -2.6991e-05
0.00101022 -2.84371e-05 4.10113e-08
-2.84371e-05 1.02096e-05 -2.29333e-08
4.10113e-08 -2.29333e-08 -4.97456e-05
0.0017038 1.0233e-05 -6.34516e-06
1.0233e-05 0.000442904 1.76162e-06
-6.34516e-06 1.76162e-06 0.000410346
0.000972183 -2.881e-05 2.94749e-06
-2.881e-05 1.31349e-05 -1.4516e-06
2.94749e-06 -1.4516e-06 -4.64206e-05
0.00170802 1.33064e-05 5.17898e-06
1.33064e-05 0.000444521 -9.44157e-07
5.17898e-06 -9.44157e-07 0.000414513
0.00120067 3.19871e-05 -2.77681e-05
3.19871e-05 0.000220312 5.62522e-06
-2.77681e-05 5.62522e-06 0.000206576
0.00204264 4.49806e-05 -1.784e-05
4.49806e-05 0.000634514 1.75561e-06
-1.784e-05 1.75561e-06 0.00063069
0.00173476 1.90939e-05 1.39984e-05
1.90939e-05 0.000457013 -2.67372e-06
1.39984e-05 -2.67372e-06 0.00043091
0.00279363 5.34991e-05 2.50952e-05
5.34991e-05 0.00100648 -3.32676e-06
2.50952e-05 -3.32676e-06 0.00101057
0.00147129 6.02145e-05 -3.33397e-06
6.02145e-05 7.264e-05 -2.26157e-06
-3.33397e-06 -2.26157e-06 -1.14743e-05
0.0013974 6.44309e-05 1.35776e-06
6.44309e-05 0.00014106 -3.99494e-07
1.35776e-06 -3.99494e-07 6.09389e-05
0.0011692 6.06777e-05 9.79605e-07
6.06777e-05 -7.46652e-06 5.82572e-07
9.79605e-07 5.82572e-07 -8.35558e-05
0.00112528 5.31298e-05 -1.38194e-06
5.31298e-05 7.15415e-05 -1.19818e-06
-1.38194e-06 -1.19818e-06 -4.27827e-06
0.00111913 6.20332e-05 -3.31725e-07
6.20332e-05 4.32139e-05 1.60059e-07
-3.31725e-07 1.60059e-07 -4.11085e-05
0.00100513 5.77781e-05 3.84229e-07
5.77781e-05 1.39367e-05 7.24573e-07
3.84229e-07 7.24573e-07 -6.90676e-05
0.00108582 4.76316e-05 -5.86948e-08
4.76316e-05 7.33175e-05 -1.06006e-07
-5.86948e-08 -1.06006e-07 7.3983e-07
0.000957897 1.93966e-05 -2.532e-06
1.93966e-05 4.27399e-05 -1.26231e-06
-2.532e-06 -1.26231e-06 -1.7148e-05
0.00098747 3.81923e-05 1.13307e-06
3.81923e-05 4.02098e-05 4.21206e-07
1.13307e-06 4.21206e-07 -3.02078e-05
0.000898646 7.5337e-06 -2.60422e-08
7.5337e-06 2.07333e-05 9.17934e-08
-2.60422e-08 9.17934e-08 -3.75294e-05
0.000801056 -2.76548e-05 -4.7743e-06
-2.76548e-05 -6.4908e-06 -2.93905e-06
-4.7743e-06 -2.93905e-06 -3.51962e-05
0.00086743 -6.06641e-07 2.49297e-06
-6.06641e-07 6.79459e-06 1.62069e-06
2.49297e-06 1.62069e-06 -4.99027e-05
0.000745573 -3.56735e-05 -1.08358e-08
-3.56735e-05 -4.08675e-05 -1.41387e-08
-1.08358e-08 -1.41387e-08 -6.57967e-05
0.00265811 -5.02996e-05 -2.30447e-05
-5.02996e-05 0.000931444 -3.33101e-06
-2.30447e-05 -3.33101e-06 0.000937954
0.000726957 -3.18291e-05 4.19797e-06
-3.18291e-05 -6.20127e-05 3.5146e-06
4.19797e-06 3.5146e-06 -8.26009e-05
0.00265947 -4.70918e-05 -2.14731e-07
-4.70918e-05 0.000917849 8.43432e-08
-2.14731e-07 8.43432e-08 0.000927337
0.0026577 -4.32191e-05 2.12156e-05
-4.32191e-05 0.000905667 3.64953e-06
2.12156e-05 3.64953e-06 0.000917531
0.00153747 -1.73319e-05 -2.29957e-06
-1.73319e-05 4.95599e-05 2.30692e-06
-2.29957e-06 2.30692e-06 -2.51115e-05
0.00160179 -1.89603e-05 3.71027e-07
-1.89603e-05 6.83612e-05 -5.63929e-07
3.71027e-07 -5.63929e-07 3.65159e-06
0.00203756 -1.42111e-05 3.56161e-06
-1.42111e-05 0.000246148 -4.0351e-06
3.56161e-06 -4.0351e-06 0.000192029
0.00140821 2.99045e-05 -2.57485e-06
2.99045e-05 -1.87485e-05 2.46457e-07
-2.57485e-06 2.46457e-07 -0.000105664
0.00152219 6.67133e-05 1.98892e-07
6.67133e-05 0.000102068 -5.22942e-07
1.98892e-07 -5.22942e-07 1.35071e-05
0.00131655 6.65469e-05 -1.21745e-06
6.65469e-05 0.000127005 1.83839e-06
-1.21745e-06 1.83839e-06 4.91451e-05
0.00175257 7.56224e-05 1.74136e-06
7.56224e-05 0.000290495 1.26833e-06
1.74136e-06 1.26833e-06 0.000206331
0.00174711 2.95334e-05 -1.82897e-07
2.95334e-05 0.000123329 -1.72999e-07
-1.82897e-07 -1.72999e-07 3.40374e-05
0.00157284 7.51097e-05 2.65778e-06
7.51097e-05 0.000100741 2.0981e-06
2.65778e-06 2.0981e-06 2.1546e-06
0.00173355 2.71022e-05 3.67391e-06
2.71022e-05 9.51177e-05 -1.05896e-07
3.67391e-06 -1.05896e-07 9.774e-06
0.0014459 1.9275e-06 -3.40431e-07
1.9275e-06 5.66644e-05 3.5586e-07
-3.40431e-07 3.5586e-07 -1.59793e-05
0.00139036 4.15881e-06 5.6229e-08
4.15881e-06 2.72293e-05 -1.83613e-07
5.6229e-08 -1.83613e-07 -4.00056e-05
0.00134885 6.58846e-06 1.8922e-06
6.58846e-06 -2.22975e-06 8.44022e-07
1.8922e-06 8.44022e-07 -6.04205e-05
0.00152286 3.22151e-05 -1.02667e-06
3.22151e-05 0.000100557 -1.78977e-07
-1.02667e-06 -1.78977e-07 2.14475e-05
0.00166674 3.94028e-05 3.45788e-06
3.94028e-05 0.000146554 1.44826e-06
3.45788e-06 1.44826e-06 7.57446e-05
0.0014942 3.2631e-05 2.61402e-07
3.2631e-05 7.63785e-05 2.08305e-07
2.61402e-07 2.08305e-07 5.58351e-07
0.00153099 2.92086e-05 -1.25539e-06
2.92086e-05 9.46264e-05 -4.42259e-07
-1.25539e-06 -4.42259e-07 1.75096e-05
0.00159094 2.04979e-05 2.09565e-06
2.04979e-05 8.66844e-05 2.63585e-07
2.09565e-06 2.63585e-07 9.48967e-06
0.00149851 1.53695e-05 -6.5375e-07
1.53695e-05 6.28359e-05 -1.90644e-07
-6.5375e-07 -1.90644e-07 -1.47873e-05
0.00143945 9.80908e-06 -2.80843e-06
9.80908e-06 5.82947e-05 -4.46376e-07
-2.80843e-06 -4.46376e-07 -2.0128e-05
0.00147962 -1.28145e-05 2.17561e-06
-1.28145e-05 6.42144e-05 -3.59373e-07
2.17561e-06 -3.59373e-07 -1.32751e-05
0.00142209 -1.8434e-05 4.86601e-08
-1.8434e-05 6.0954e-05 1.68613e-07
4.86601e-08 1.68613e-07 -1.67936e-05
0.00133696 -2.52534e-05 -2.47087e-06
-2.52534e-05 5.44458e-05 7.33815e-07
-2.47087e-06 7.33815e-07 -2.01478e-05
0.0013767 -3.93416e-05 1.49311e-06
-3.93416e-05 6.5852e-05 -1.04961e-06
1.49311e-06 -1.04961e-06 -9.50737e-06
0.00128074 -3.687e-05 3.6539e-08
-3.687e-05 5.09523e-05 8.54354e-08
3.6539e-08 8.54354e-08 -2.2069e-05
0.00110919 -2.72299e-05 -3.66778e-06
-2.72299e-05 1.97753e-05 1.73606e-06
-3.66778e-06 1.73606e-06 -4.42502e-05
0.0012293 -4.05027e-05 1.69303e-06
-4.05027e-05 5.00655e-05 -1.15477e-06
1.69303e-06 -1.15477e-06 -2.02898e-05
0.00105514 -2.82902e-05 1.31466e-07
-2.82902e-05 1.26779e-05 -7.45617e-08
1.31466e-07 -7.45617e-08 -4.90074e-05
0.00173987 5.84649e-06 -6.38752e-06
5.84649e-06 0.000456455 1.79096e-06
-6.38752e-06 1.79096e-06 0.00042221
0.00100387 -2.8161e-05 3.00977e-06
-2.8161e-05 7.74188e-06 -1.44014e-06
3.00977e-06 -1.44014e-06 -5.22918e-05
0.00175849 7.15069e-06 5.68981e-06
7.15069e-06 0.000466359 -8.31234e-07
5.68981e-06 -8.31234e-07 0.000433895
0.001231 3.08783e-05 -3.01869e-05
3.08783e-05 0.000247205 5.14357e-06
-3.01869e-05 5.14357e-06 0.000230104
0.00175846 9.88843e-06 1.70416e-05
9.88843e-06 0.00046598 -3.82493e-06
1.70416e-05 -3.82493e-06 0.000435997
0.00118539 3.57146e-05 -1.07854e-05
3.57146e-05 0.000214573 2.04911e-06
-1.07854e-05 2.04911e-06 0.000200637
0.0028984 6.29621e-05 1.04671e-05
6.29621e-05 0.0010706 -1.3023e-06
1.04671e-05 -1.3023e-06 0.00107116
0.00169895 3.82901e-05 -2.63569e-06
3.82901e-05 0.000153703 -7.58342e-07
-2.63569e-06 -7.58342e-07 6.69307e-05
0.00148275 5.88074e-05 -1.31631e-06
5.88074e-05 0.000113604 -2.0115e-06
-1.31631e-06 -2.0115e-06 3.23301e-05
0.00152096 6.18818e-05 -1.27826e-06
6.18818e-05 0.000105947 9.99347e-07
-1.27826e-06 9.99347e-07 2.25317e-05
0.00144793 5.97998e-05 -9.52324e-07
5.97998e-05 0.000195159 -5.5281e-07
-9.52324e-07 -5.5281e-07 0.000119437
0.00126046 6.24828e-05 4.14803e-07
6.24828e-05 7.26719e-05 -8.45389e-07
4.14803e-07 -8.45389e-07 -7.25286e-06
0.00122621 6.14412e-05 2.75153e-06
6.14412e-05 3.06248e-05 1.64964e-06
2.75153e-06 1.64964e-06 -4.12165e-05
0.000990583 3.21979e-05 -2.64337e-06
3.21979e-05 4.32129e-05 -1.61575e-06
-2.64337e-06 -1.61575e-06 -1.99891e-05
0.00111934 5.323e-05 -5.58439e-08
5.323e-05 6.83333e-05 -7.93508e-08
-5.58439e-08 -7.93508e-08 -7.51201e-06
0.0013593 6.78874e-05 1.41805e-06
6.78874e-05 0.000157218 1.31444e-06
1.41805e-06 1.31444e-06 7.28427e-05
0.00103407 4.61005e-05 1.1435e-06
4.61005e-05 5.07184e-05 4.84334e-07
1.1435e-06 4.84334e-07 -2.20171e-05
0.000923882 1.85706e-05 -3.26392e-08
1.85706e-05 2.71373e-05 -4.01224e-08
-3.26392e-08 -4.01224e-08 -3.27338e-05
0.000805036 -1.37502e-05 -5.27001e-06
-1.37502e-05 -1.5848e-06 -2.90727e-06
-5.27001e-06 -2.90727e-06 -3.42062e-05
0.000854353 5.02541e-06 2.38003e-06
5.02541e-06 -5.28084e-07 1.28497e-06
2.38003e-06 1.28497e-06 -5.8795e-05
0.000739387 -3.03638e-05 -2.17484e-07
-3.03638e-05 -3.5392e-05 -2.40636e-08
-2.17484e-07 -2.40636e-08 -6.42328e-05
0.00273102 -5.37279e-05 -2.46097e-05
-5.37279e-05 0.000982447 -3.17573e-06
-2.46097e-05 -3.17573e-06 0.000985698
0.000690068 -3.44952e-05 4.05605e-06
-3.44952e-05 -6.8318e-05 3.3838e-06
4.05605e-06 3.3838e-06 -9.30434e-05
0.00269235 -5.08343e-05 -2.35448e-07
-5.08343e-05 0.000946057 8.84711e-08
-2.35448e-07 8.84711e-08 0.000952973
0.00269569 -4.73577e-05 2.18762e-05
-4.73577e-05 0.000934041 3.4748e-06
2.18762e-05 3.4748e-06 0.000943813
0.00157073 -7.85607e-06 -1.25377e-06
-7.85607e-06 7.27794e-05 1.06003e-06
-1.25377e-06 1.06003e-06 -4.5247e-06
0.00165382 -1.6701e-05 -1.02635e-07
-1.6701e-05 9.91593e-05 6.02108e-07
-1.02635e-07 6.02108e-07 2.35954e-05
0.0015818 -1.76409e-05 2.14969e-06
-1.76409e-05 6.02762e-05 -3.02292e-06
2.14969e-06 -3.02292e-06 -4.97403e-06
0.00154967 3.08771e-05 3.07319e-07
3.08771e-05 4.48512e-05 -1.14429e-07
3.07319e-07 -1.14429e-07 -4.17406e-05
0.00159407 6.82429e-05 2.16049e-06
6.82429e-05 0.000139906 1.41206e-06
2.16049e-06 1.41206e-06 5.09113e-05
0.00185326 3.07449e-05 2.91608e-06
3.07449e-05 0.000174851 -5.71403e-07
2.91608e-06 -5.71403e-07 8.57854e-05
0.00147615 2.1946e-06 -1.15321e-06
2.1946e-06 6.91768e-05 3.91847e-07
-1.15321e-06 3.91847e-07 -9.44657e-06
0.00143007 4.21127e-06 5.48042e-07
4.21127e-06 5.14517e-05 -2.13579e-07
5.48042e-07 -2.13579e-07 -2.15125e-05
0.00148776 5.4808e-06 1.94187e-06
5.4808e-06 7.00507e-05 2.75497e-08
1.94187e-06 2.75497e-08 1.21419e-06
0.00148098 2.38533e-05 -6.11719e-07
2.38533e-05 8.05282e-05 -1.43448e-07
-6.11719e-07 -1.43448e-07 1.69692e-06
0.00152124 2.1945e-05 -6.23577e-07
2.1945e-05 0.000104044 9.59769e-08
-6.23577e-07 9.59769e-08 2.26717e-05
0.00148109 3.28473e-05 2.07997e-06
3.28473e-05 6.95084e-05 7.98474e-07
2.07997e-06 7.98474e-07 -6.75456e-06
0.00150561 2.8787e-05 4.03856e-07
2.8787e-05 8.33937e-05 2.68264e-07
4.03856e-07 2.68264e-07 6.2084e-06
0.00152737 2.52257e-05 -1.07913e-06
2.52257e-05 0.000106135 -2.85535e-07
-1.07913e-06 -2.85535e-07 2.81183e-05
0.00153082 1.46478e-05 1.94939e-06
1.46478e-05 7.81602e-05 5.49544e-07
1.94939e-06 5.49544e-07 6.5112e-07
0.00144761 8.60393e-06 -5.86548e-07
8.60393e-06 6.19029e-05 -1.57329e-08
-5.86548e-07 -1.57329e-08 -1.63552e-05
0.00135634 1.50622e-06 -3.38652e-06
1.50622e-06 5.21528e-05 2.40399e-07
-3.38652e-06 2.40399e-07 -2.33769e-05
0.0014174 -1.86607e-05 1.90614e-06
-1.86607e-05 5.87603e-05 -3.70327e-07
1.90614e-06 -3.70327e-07 -1.90706e-05
0.00133109 -2.45387e-05 7.47949e-08
-2.45387e-05 5.16279e-05 9.17413e-08
7.47949e-08 9.17413e-08 -2.30379e-05
0.00113934 -1.86923e-05 -4.21176e-06
-1.86923e-05 1.61948e-05 1.45284e-06
-4.21176e-06 1.45284e-06 -4.89376e-05
0.00128511 -3.65461e-05 2.15096e-06
-3.65461e-05 5.27967e-05 -9.28122e-07
2.15096e-06 -9.28122e-07 -2.02467e-05
0.00110453 -2.64986e-05 1.74758e-07
-2.64986e-05 1.6776e-05 5.78869e-08
1.74758e-07 5.78869e-08 -4.72851e-05
0.00181717 5.87957e-06 -6.59166e-06
5.87957e-06 0.00048757 1.86224e-06
-6.59166e-06 1.86224e-06 0.000452416
0.00105263 -2.77185e-05 3.26253e-06
-2.77185e-05 1.13302e-05 -1.60209e-06
3.26253e-06 -1.60209e-06 -5.04319e-05
0.00181362 2.48199e-06 6.36026e-06
2.48199e-06 0.000489468 -6.94804e-07
6.36026e-06 -6.94804e-07 0.000455334
0.00125802 2.86825e-05 -3.29136e-05
2.86825e-05 0.00026908 4.56242e-06
-3.29136e-05 4.56242e-06 0.000249775
0.00181612 3.60642e-06 1.83381e-05
3.60642e-06 0.00049118 -3.60779e-06
1.83381e-05 -3.60779e-06 0.000458857
0.0012278 3.56703e-05 -1.18651e-05
3.56703e-05 0.000247998 1.80288e-06
-1.18651e-05 1.80288e-06 0.000230438
0.00116427 3.98897e-05 6.95383e-06
3.98897e-05 0.000206 -1.53399e-06
6.95383e-06 -1.53399e-06 0.000191819
0.00152196 3.25612e-06 -1.4872e-06
3.25612e-06 5.58995e-05 1.18727e-06
-1.4872e-06 1.18727e-06 -2.20571e-05
0.00148978 4.0565e-05 -2.66762e-06
4.0565e-05 7.97009e-05 -4.624e-07
-2.66762e-06 -4.624e-07 -4.18202e-06
0.0016238 3.76985e-05 -9.92704e-07
3.76985e-05 0.000112997 -7.7228e-07
-9.92704e-07 -7.7228e-07 2.59989e-05
0.001408 5.50552e-05 -2.01871e-06
5.50552e-05 0.00012421 -9.51783e-07
-2.01871e-06 -9.51783e-07 4.75085e-05
0.00153766 5.97551e-05 7.24924e-07
5.97551e-05 0.000144701 4.9884e-07
7.24924e-07 4.9884e-07 6.37979e-05
0.00151796 6.25646e-05 3.66449e-06
6.25646e-05 0.000113764 2.55036e-06
3.66449e-06 2.55036e-06 3.11052e-05
0.000970889 3.75145e-05 -3.06909e-06
3.75145e-05 2.84755e-06 -1.45763e-06
-3.06909e-06 -1.45763e-06 -6.26609e-05
0.00116609 5.49832e-05 8.34892e-07
5.49832e-05 5.42248e-05 5.31191e-07
8.34892e-07 5.31191e-07 -2.24903e-05
0.00110791 6.0262e-05 1.3408e-06
6.0262e-05 -4.11626e-06 1.50205e-06
1.3408e-06 1.50205e-06 -8.37208e-05
0.000814832 3.13658e-06 -5.91538e-06
3.13658e-06 1.80236e-06 -3.23743e-06
-5.91538e-06 -3.23743e-06 -3.56885e-05
0.000956088 3.0572e-05 -1.04219e-07
3.0572e-05 2.59858e-05 -1.02704e-07
-1.04219e-07 -1.02704e-07 -3.70202e-05
0.00112237 5.35722e-05 1.39505e-06
5.35722e-05 6.95076e-05 1.05707e-06
1.39505e-06 1.05707e-06 -6.37623e-06
0.000874593 1.6909e-05 2.31858e-06
1.6909e-05 4.07328e-06 1.06202e-06
2.31858e-06 1.06202e-06 -5.57863e-05
0.000745445 -1.69847e-05 -4.28411e-08
-1.69847e-05 -2.69406e-05 -6.23834e-08
-4.28411e-08 -6.23834e-08 -6.00163e-05
0.00286538 -5.68286e-05 -2.71983e-05
-5.68286e-05 0.0010654 -3.05645e-06
-2.71983e-05 -3.05645e-06 0.00106492
0.00068189 -3.58933e-05 4.00798e-06
-3.58933e-05 -6.16529e-05 3.18879e-06
4.00798e-06 3.18879e-06 -9.09622e-05
0.00273762 -5.43244e-05 -2.92974e-07
-5.43244e-05 0.00098297 9.57613e-08
-2.92974e-07 9.57613e-08 0.000986776
0.00273119 -5.13187e-05 2.25545e-05
-5.13187e-05 0.000962942 3.30081e-06
2.25545e-05 3.30081e-06 0.000970258
0.00155737 -1.4306e-05 -9.97768e-07
-1.4306e-05 8.43994e-05 -4.0005e-07
-9.97768e-07 -4.0005e-07 5.52103e-06
0.00160946 -8.29152e-06 -3.57458e-07
-8.29152e-06 8.95258e-05 2.26754e-07
-3.57458e-07 2.26754e-07 1.19171e-05
0.00168146 -1.58006e-05 1.30186e-06
-1.58006e-05 0.000106627 -1.53031e-06
1.30186e-06 -1.53031e-06 3.00671e-05
0.00166196 3.14663e-05 3.00783e-06
3.14663e-05 9.41124e-05 -1.05666e-07
3.00783e-06 -1.05666e-07 7.87902e-06
0.00148353 -1.09685e-06 -1.15045e-06
-1.09685e-06 7.1159e-05 -3.83631e-07
-1.15045e-06 -3.83631e-07 -1.10357e-05
0.00151444 2.29241e-06 -2.55167e-07
2.29241e-06 8.79044e-05 -1.47348e-07
-2.55167e-07 -1.47348e-07 9.69736e-06
0.00140632 6.40473e-06 1.07918e-06
6.40473e-06 4.2227e-05 -8.16445e-08
1.07918e-06 -8.16445e-08 -3.10328e-05
0.0014444 1.89838e-05 -1.10432e-07
1.89838e-05 6.31867e-05 -1.63568e-07
-1.10432e-07 -1.63568e-07 -1.55051e-05
0.00147634 2.63983e-05 6.45529e-08
2.63983e-05 8.16144e-05 -2.02377e-07
6.45529e-08 -2.02377e-07 1.47528e-07
0.0014895 2.3398e-05 -1.69376e-06
2.3398e-05 9.67899e-05 3.41083e-07
-1.69376e-06 3.41083e-07 1.66029e-05
0.00148518 2.84295e-05 2.09805e-06
2.84295e-05 7.45218e-05 1.04104e-06
2.09805e-06 1.04104e-06 -2.72977e-06
0.00151332 2.54661e-05 4.58053e-07
2.54661e-05 0.000101074 1.52995e-07
4.58053e-07 1.52995e-07 2.32086e-05
0.00130617 2.21931e-05 -2.65455e-06
2.21931e-05 2.4536e-05 -1.22349e-07
-2.65455e-06 -1.22349e-07 -5.17165e-05
0.00144867 8.89502e-06 1.5107e-06
8.89502e-06 6.22026e-05 4.35601e-07
1.5107e-06 4.35601e-07 -1.5912e-05
0.0013522 3.13598e-06 -3.01146e-07
3.13598e-06 4.99695e-05 1.2304e-07
-3.01146e-07 1.2304e-07 -2.54654e-05
0.00114908 -4.21432e-07 -4.53571e-06
-4.21432e-07 1.01919e-05 9.86185e-07
-4.53571e-06 9.86185e-07 -5.51483e-05
0.00132497 -2.16713e-05 2.53162e-06
-2.16713e-05 4.87346e-05 -5.08793e-07
2.53162e-06 -5.08793e-07 -2.59774e-05
0.00113921 -2.00464e-05 9.27955e-08
-2.00464e-05 1.57232e-05 1.41563e-07
9.27955e-08 1.41563e-07 -4.94844e-05
0.000704595 -5.88282e-06 -6.98006e-06
-5.88282e-06 -8.39884e-05 2.77582e-06
-6.98006e-06 2.77582e-06 -0.000124662
0.00110253 -2.58826e-05 3.79905e-06
-2.58826e-05 1.50994e-05 -1.50373e-06
3.79905e-06 -1.50373e-06 -4.90065e-05
0.00130096 -7.49397e-06 8.29781e-06
-7.49397e-06 0.000223242 -3.88046e-07
8.29781e-06 -3.88046e-07 0.000185542
0.00361783 7.15683e-05 -3.63299e-05
7.15683e-05 0.00146647 1.8956e-06
-3.63299e-05 1.8956e-06 0.00145746
0.00188567 -1.45833e-06 2.00516e-05
-1.45833e-06 0.000521499 -3.41669e-06
2.00516e-05 -3.41669e-06 0.000487561
0.0012709 3.50904e-05 -1.32485e-05
3.50904e-05 0.00027852 1.51588e-06
-1.32485e-05 1.51588e-06 0.00025845
0.00122112 4.12005e-05 7.2284e-06
4.12005e-05 0.00024716 -1.50857e-06
7.2284e-06 -1.50857e-06 0.000229057
0.00159467 -7.33449e-06 -6.20976e-07
-7.33449e-06 0.000105768 5.58923e-09
-6.20976e-07 5.58923e-09 2.841e-05
0.00136823 1.13573e-05 -1.79599e-06
1.13573e-05 1.05584e-05 8.19117e-07
-1.79599e-06 8.19117e-07 -6.8661e-05
0.00153719 3.19015e-06 8.80671e-08
3.19015e-06 6.62987e-05 -6.36725e-08
8.80671e-08 -6.36725e-08 -1.16912e-05
0.00107042 3.89859e-05 -3.0059e-06
3.89859e-05 -8.23654e-05 -8.41137e-07
-3.0059e-06 -8.41137e-07 -0.000161463
0.00151031 4.07276e-05 1.29453e-07
4.07276e-05 9.21476e-05 -3.3367e-08
1.29453e-07 -3.3367e-08 9.00689e-06
0.00154483 3.72328e-05 1.93546e-06
3.72328e-05 7.07393e-05 -4.72807e-07
1.93546e-06 -4.72807e-07 -1.65264e-05
0.000700435 3.25705e-05 -4.59338e-06
3.25705e-05 -0.000170989 -1.84771e-06
-4.59338e-06 -1.84771e-06 -0.000238933
0.00140951 5.56396e-05 4.84788e-07
5.56396e-05 0.000124268 4.44486e-09
4.84788e-07 4.44486e-09 4.75179e-05
0.00159092 6.0773e-05 2.51637e-06
6.0773e-05 0.000175704 1.77375e-06
2.51637e-06 1.77375e-06 9.50663e-05
0.000795513 1.70428e-05 -6.75221e-06
1.70428e-05 -1.71974e-05 -3.38107e-06
-6.75221e-06 -3.38107e-06 -5.87019e-05
0.000815672 3.43702e-05 -1.18029e-07
3.43702e-05 -7.66694e-05 8.55132e-08
-1.18029e-07 8.55132e-08 -0.000142984
0.000887988 5.0236e-05 2.55948e-06
5.0236e-05 -8.49272e-05 1.8186e-06
2.55948e-06 1.8186e-06 -0.000162634
0.00313907 -5.8383e-05 -3.24963e-05
-5.8383e-05 0.00121538 -2.96881e-06
-3.24963e-05 -2.96881e-06 0.00121112
0.000741949 3.01959e-07 -1.34931e-07
3.01959e-07 -2.94734e-05 -5.07835e-08
-1.34931e-07 -5.07835e-08 -6.72224e-05
0.000928672 2.89632e-05 2.36941e-06
2.89632e-05 1.22503e-05 1.43497e-06
2.36941e-06 1.43497e-06 -5.05715e-05
0.000682516 -1.88956e-05 4.60055e-06
-1.88956e-05 -5.39506e-05 3.0486e-06
4.60055e-06 3.0486e-06 -8.73097e-05
0.002855 -5.81274e-05 -3.35239e-07
-5.81274e-05 0.00105756 1.17041e-07
-3.35239e-07 1.17041e-07 0.00105765
0.00276712 -5.49341e-05 2.34205e-05
-5.49341e-05 0.000994443 3.13857e-06
2.34205e-05 3.13857e-06 0.000998818
0.0015192 -1.44517e-05 -1.60638e-06
-1.44517e-05 7.83866e-05 -2.66455e-07
-1.60638e-06 -2.66455e-07 -1.24823e-06
0.00155184 -1.42167e-05 -3.3736e-07
-1.42167e-05 8.29563e-05 -2.4351e-07
-3.3736e-07 -2.4351e-07 4.36264e-06
0.00166393 -8.64782e-06 1.21519e-06
-8.64782e-06 0.000113984 -1.00123e-06
1.21519e-06 -1.00123e-06 3.60623e-05
0.00154652 1.30695e-05 -1.56445e-06
1.30695e-05 0.000105579 2.63629e-08
-1.56445e-06 2.63629e-08 2.23246e-05
0.00150564 2.40833e-06 -3.21721e-07
2.40833e-06 8.09813e-05 -2.65935e-07
-3.21721e-07 -2.65935e-07 -1.59232e-06
0.00156789 -5.72429e-07 1.72028e-07
-5.72429e-07 0.00011395 -3.53669e-08
1.72028e-07 -3.53669e-08 3.62493e-05
0.00142272 2.92656e-05 9.37773e-07
2.92656e-05 5.48646e-05 -7.53071e-07
9.37773e-07 -7.53071e-07 -2.66094e-05
0.00148235 2.54953e-05 2.96157e-07
2.54953e-05 9.26512e-05 1.18769e-07
2.96157e-07 1.18769e-07 1.25511e-05
0.00149763 1.96533e-05 -2.2124e-06
1.96533e-05 0.000120715 4.9181e-07
-2.2124e-06 4.9181e-07 4.47613e-05
0.00150403 2.57294e-05 2.28462e-06
2.57294e-05 9.82592e-05 8.18793e-07
2.28462e-06 8.18793e-07 2.05521e-05
0.00143507 2.43035e-05 8.90901e-08
2.43035e-05 9.09419e-05 6.18172e-08
8.90901e-08 6.18172e-08 1.56072e-05
0.000915166 1.69715e-05 -5.4572e-06
1.69715e-05 -0.000113897 8.21928e-07
-5.4572e-06 8.21928e-07 -0.000181457
0.00133955 2.42247e-06 2.4268e-06
2.42247e-06 4.37012e-05 5.54143e-08
2.4268e-06 5.54143e-08 -3.16826e-05
0.00114285 1.0184e-06 -2.74066e-08
1.0184e-06 6.93433e-06 3.67762e-08
-2.74066e-08 3.67762e-08 -5.83721e-05
0.000714117 1.43626e-06 -7.12788e-06
1.43626e-06 -8.43341e-05 2.41528e-06
-7.12788e-06 2.41528e-06 -0.000124817
0.00113644 -1.95572e-05 4.40684e-06
-1.95572e-05 1.39407e-05 -1.13746e-06
4.40684e-06 -1.13746e-06 -5.13118e-05
0.000712869 -3.30994e-06 -6.67938e-08
-3.30994e-06 -8.02077e-05 1.39374e-07
-6.67938e-08 1.39374e-07 -0.000120955
0.00368081 7.57132e-05 -3.70417e-05
7.57132e-05 0.00149904 1.41044e-06
-3.70417e-05 1.41044e-06 0.00148941
0.000766425 -1.68128e-05 9.13911e-06
-1.68128e-05 -4.93888e-05 -3.7355e-06
9.13911e-06 -3.7355e-06 -9.04546e-05
0.00251559 5.89231e-05 1.2644e-05
5.89231e-05 0.000910408 7.68018e-07
1.2644e-05 7.68018e-07 0.000894616
0.00128354 4.27605e-05 7.3463e-06
4.27605e-05 0.000288045 -1.47746e-06
7.3463e-06 -1.47746e-06 0.000267067
0.00166829 -1.52907e-05 -1.02681e-06
-1.52907e-05 0.000156111 2.07337e-09
-1.02681e-06 2.07337e-09 7.81808e-05
0.0014573 -2.54648e-06 -1.32904e-06
-2.54648e-06 5.95386e-05 1.44363e-07
-1.32904e-06 1.44363e-07 -1.73204e-05
0.00149909 -7.33684e-06 -6.33505e-08
-7.33684e-06 5.89101e-05 8.2458e-08
-6.33505e-08 8.2458e-08 -1.81746e-05
0.00131393 1.91495e-05 -2.52834e-06
1.91495e-05 2.5532e-05 1.40178e-07
-2.52834e-06 1.40178e-07 -5.05279e-05
0.00139752 1.0974e-05 4.13516e-07
1.0974e-05 2.65016e-05 -1.46921e-07
4.13516e-07 -1.46921e-07 -5.24625e-05
0.00156164 3.01155e-06 1.54244e-06
3.01155e-06 8.10691e-05 -9.04919e-07
1.54244e-06 -9.04919e-07 3.05568e-06
0.00078099 2.85834e-05 -5.224e-06
2.85834e-05 -0.000163327 -1.68546e-06
-5.224e-06 -1.68546e-06 -0.000231789
0.00140444 4.41118e-05 -6.7376e-07
4.41118e-05 8.3911e-05 -1.72697e-07
-6.7376e-07 -1.72697e-07 6.04119e-06
0.00154155 4.10581e-05 2.84642e-06
4.10581e-05 0.000109537 -1.6793e-07
2.84642e-06 -1.6793e-07 2.71672e-05
0.000763307 2.45656e-05 -7.66151e-06
2.45656e-05 -4.52573e-05 -3.39208e-06
-7.66151e-06 -3.39208e-06 -8.84071e-05
0.000767252 3.41498e-05 -1.17946e-06
3.41498e-05 -0.000141964 -4.51902e-07
-1.17946e-06 -4.51902e-07 -0.000210183
0.00141615 5.63406e-05 2.91134e-06
5.63406e-05 0.000126875 1.12029e-06
2.91134e-06 1.12029e-06 5.00645e-05
0.00345789 -5.82106e-05 -3.77774e-05
-5.82106e-05 0.00138252 -2.77567e-06
-3.77774e-05 -2.77567e-06 0.00137535
0.000734964 1.43882e-05 -1.79346e-07
1.43882e-05 -4.26147e-05 1.17982e-07
-1.79346e-07 1.17982e-07 -8.43321e-05
0.000664483 3.13201e-05 2.89104e-06
3.13201e-05 -0.000154375 1.84017e-06
2.89104e-06 1.84017e-06 -0.000221482
0.00305796 -6.18941e-05 -5.98938e-07
-6.18941e-05 0.00117348 1.48702e-07
-5.98938e-07 1.48702e-07 0.0011697
0.000669977 -1.90249e-06 5.13944e-06
-1.90249e-06 -6.02839e-05 3.27536e-06
5.13944e-06 3.27536e-06 -9.82669e-05
0.00282328 -5.83377e-05 2.44011e-05
-5.83377e-05 0.0010389 2.98967e-06
2.44011e-05 2.98967e-06 0.00103973
0.00154998 -7.05562e-07 -1.48749e-06
-7.05562e-07 0.000105786 -3.41206e-07
-1.48749e-06 -3.41206e-07 2.50833e-05
0.00153001 -1.34963e-05 2.60582e-07
-1.34963e-05 8.40357e-05 2.17295e-07
2.60582e-07 2.17295e-07 4.34586e-06
0.00153144 -1.38468e-05 5.90305e-07
-1.38468e-05 7.40987e-05 -4.52153e-07
5.90305e-07 -4.52153e-07 -4.17502e-06
0.00152488 1.74933e-06 -2.75992e-06
1.74933e-06 0.00011695 7.26586e-08
-2.75992e-06 7.26586e-08 3.81921e-05
0.00155142 1.29613e-05 2.89219e-07
1.29613e-05 0.000110131 -5.68318e-08
2.89219e-07 -5.68318e-08 2.69655e-05
0.00152945 8.41163e-06 1.50025e-06
8.41163e-06 9.18202e-05 -1.40158e-07
1.50025e-06 -1.40158e-07 8.73429e-06
0.00148141 2.64275e-05 1.82658e-06
2.64275e-05 9.15712e-05 -4.21209e-07
1.82658e-06 -4.21209e-07 1.1586e-05
0.00149179 2.01229e-05 5.14552e-07
2.01229e-05 0.000117415 -4.77226e-08
5.14552e-07 -4.77226e-08 4.16167e-05
0.000924152 1.26138e-05 -5.47676e-06
1.26138e-05 -0.000117695 9.12133e-07
-5.47676e-06 9.12133e-07 -0.00018648
0.0015763 2.6431e-05 2.84903e-06
2.6431e-05 0.000163347 1.19272e-07
2.84903e-06 1.19272e-07 8.89342e-05
0.00103319 1.86776e-05 -8.35928e-07
1.86776e-05 -5.37561e-05 1.83913e-07
-8.35928e-07 1.83913e-07 -0.000120417
0.00072334 6.07013e-06 -7.60927e-06
6.07013e-06 -8.43426e-05 2.13e-06
-7.60927e-06 2.13e-06 -0.000125675
0.00113898 2.69927e-07 4.44435e-06
2.69927e-07 4.78129e-06 -9.15259e-07
4.44435e-06 -9.15259e-07 -6.05012e-05
0.000715524 8.57322e-06 1.58755e-07
8.57322e-06 -8.33689e-05 4.11127e-08
1.58755e-07 4.11127e-08 -0.00012416
0.00376544 7.8847e-05 -3.92694e-05
7.8847e-05 0.00154183 9.13498e-07
-3.92694e-05 9.13498e-07 0.00153175
0.000717388 1.31456e-06 6.86705e-06
1.31456e-06 -7.84696e-05 -2.53236e-06
6.86705e-06 -2.53236e-06 -0.000119126
0.00372448 7.41183e-05 2.78604e-07
7.41183e-05 0.00152066 1.52044e-07
2.78604e-07 1.52044e-07 0.00151111
0.00144978 2.70553e-05 3.43065e-05
2.70553e-05 0.000370608 -2.19565e-06
3.43065e-05 -2.19565e-06 0.000349805
0.00162375 -9.95421e-06 -1.36734e-06
-9.95421e-06 0.000148818 -1.49902e-07
-1.36734e-06 -1.49902e-07 7.1453e-05
0.00155003 -1.53566e-05 4.00074e-07
-1.53566e-05 9.76006e-05 2.05246e-07
4.00074e-07 2.05246e-07 1.98644e-05
0.00134233 -2.19914e-06 -2.32713e-06
-2.19914e-06 3.5713e-05 -1.76634e-07
-2.32713e-06 -1.76634e-07 -3.93858e-05
0.00146645 -3.12852e-06 2.31295e-07
-3.12852e-06 6.36911e-05 -1.39714e-07
2.31295e-07 -1.39714e-07 -1.3172e-05
0.00139978 -7.36644e-06 1.66252e-06
-7.36644e-06 1.03287e-05 4.47033e-08
1.66252e-06 4.47033e-08 -6.64925e-05
0.00114016 1.69521e-05 -4.736e-06
1.69521e-05 9.04185e-07 -1.06445e-06
-4.736e-06 -1.06445e-06 -6.52725e-05
0.00135257 1.92729e-05 -4.63265e-08
1.92729e-05 4.34993e-05 1.10542e-07
-4.63265e-08 1.10542e-07 -3.26142e-05
0.00142985 1.06231e-05 1.65254e-06
1.06231e-05 4.37765e-05 -7.71575e-07
1.65254e-06 -7.71575e-07 -3.4916e-05
0.000739106 2.37324e-05 -8.27016e-06
2.37324e-05 -6.77511e-05 -3.26336e-06
-8.27016e-06 -3.26336e-06 -0.000110367
0.000977671 3.16305e-05 -1.3819e-06
3.16305e-05 -6.6064e-05 -3.41242e-07
-1.3819e-06 -3.41242e-07 -0.000133864
0.00173329 4.90359e-05 2.43323e-06
4.90359e-05 0.000247571 3.95752e-07
2.43323e-06 3.95752e-07 0.000170953
0.00372255 -6.01101e-05 -4.09836e-05
-6.01101e-05 0.00151817 -2.42843e-06
-4.09836e-05 -2.42843e-06 0.00150924
0.000729176 2.25718e-05 -7.40208e-08
2.25718e-05 -5.92881e-05 1.58058e-07
-7.40208e-08 1.58058e-07 -0.000102604
0.000826263 3.56715e-05 2.78087e-06
3.56715e-05 -0.000116725 1.19247e-06
2.78087e-06 1.19247e-06 -0.000185213
0.00335351 -6.35239e-05 -9.39289e-07
-6.35239e-05 0.00133018 1.80901e-07
-9.39289e-07 1.80901e-07 0.00132327
0.000678822 1.15985e-05 5.85699e-06
1.15985e-05 -6.60255e-05 3.64271e-06
5.85699e-06 3.64271e-06 -0.000107948
0.00297933 -6.24319e-05 2.60106e-05
-6.24319e-05 0.0011325 2.88484e-06
2.60106e-05 2.88484e-06 0.00112943
0.00153023 3.75088e-06 -2.22016e-06
3.75088e-06 0.000122812 -5.68878e-07
-2.22016e-06 -5.68878e-07 4.5855e-05
0.00154072 -3.17331e-06 2.00668e-07
-3.17331e-06 0.000103089 1.66158e-07
2.00668e-07 1.66158e-07 2.25697e-05
0.00154772 -1.31299e-05 2.03534e-06
-1.31299e-05 9.31843e-05 6.89727e-07
2.03534e-06 6.89727e-07 1.34108e-05
0.000928915 -1.01999e-05 -6.08625e-06
-1.01999e-05 -0.000125348 2.72423e-07
-6.08625e-06 2.72423e-07 -0.000195791
0.00154045 8.6113e-06 5.34048e-07
8.6113e-06 0.000125371 1.11126e-07
5.34048e-07 1.11126e-07 4.64968e-05
0.00154304 1.30555e-05 2.2281e-06
1.30555e-05 0.000108239 -3.00386e-07
2.2281e-06 -3.00386e-07 2.51737e-05
0.00148838 2.02761e-05 3.12166e-06
2.02761e-05 0.000115349 -2.63479e-07
3.12166e-06 -2.63479e-07 3.96993e-05
0.000926306 1.26986e-05 -6.23002e-07
1.26986e-05 -0.000115723 1.64294e-07
-6.23002e-07 1.64294e-07 -0.000184216
0.000718733 1.06555e-05 -7.95344e-06
1.06555e-05 -9.43344e-05 1.52877e-06
-7.95344e-06 1.52877e-06 -0.000136178
0.00114693 2.13031e-05 3.73208e-06
2.13031e-05 4.24384e-06 -6.64841e-07
3.73208e-06 -6.64841e-07 -6.15383e-05
0.000726938 1.491e-05 2.06528e-07
1.491e-05 -8.23095e-05 5.44277e-08
2.06528e-07 5.44277e-08 -0.000123887
0.00385519 8.34173e-05 -4.1283e-05
8.34173e-05 0.00158601 4.25492e-07
-4.1283e-05 4.25492e-07 0.00157546
0.000719087 1.65756e-05 7.07422e-06
1.65756e-05 -8.16385e-05 -2.27251e-06
7.07422e-06 -2.27251e-06 -0.000122534
0.00380915 7.79658e-05 4.31487e-07
7.79658e-05 0.00156312 1.44768e-07
4.31487e-07 1.44768e-07 0.00155313
0.00378398 7.32284e-05 4.08183e-05
7.32284e-05 0.00155001 -1.10971e-06
4.08183e-05 -1.10971e-06 0.00154051
0.00140086 -7.17464e-06 -2.56427e-06
-7.17464e-06 6.42751e-05 -5.84115e-07
-2.56427e-06 -5.84115e-07 -1.17476e-05
0.00152315 -1.09556e-05 2.07383e-07
-1.09556e-05 9.78033e-05 1.61505e-07
2.07383e-07 1.61505e-07 2.03534e-05
0.00141967 -1.51765e-05 1.38813e-06
-1.51765e-05 3.3007e-05 3.64348e-07
1.38813e-06 3.64348e-07 -4.45001e-05
0.00114353 -3.49525e-06 -4.74894e-06
-3.49525e-06 -3.55162e-06 -1.1733e-06
-4.74894e-06 -1.1733e-06 -6.93455e-05
0.00136474 -2.50307e-06 1.28371e-07
-2.50307e-06 4.62972e-05 -9.61e-08
1.28371e-07 -9.61e-08 -2.88384e-05
0.00147395 -3.68492e-06 1.32341e-06
-3.68492e-06 6.70927e-05 -4.97929e-07
1.32341e-06 -4.97929e-07 -9.78118e-06
0.000719512 1.4029e-05 -8.31379e-06
1.4029e-05 -8.43441e-05 -2.97529e-06
-8.31379e-06 -2.97529e-06 -0.000125591
0.00115871 1.65966e-05 -1.03243e-07
1.65966e-05 1.02538e-05 1.2658e-07
-1.03243e-07 1.2658e-07 -5.59998e-05
0.00139021 1.93363e-05 2.72253e-06
1.93363e-05 6.10089e-05 1.57518e-07
2.72253e-06 1.57518e-07 -1.51646e-05
0.0038686 -6.35568e-05 -4.25965e-05
-6.35568e-05 0.00159188 -1.97555e-06
-4.25965e-05 -1.97555e-06 0.00158226
0.00072432 2.27796e-05 1.30827e-08
2.27796e-05 -7.34691e-05 1.61347e-07
1.30827e-08 1.61347e-07 -0.000116197
0.00118786 3.50238e-05 3.39299e-06
3.50238e-05 3.80809e-05 1.168e-06
3.39299e-06 1.168e-06 -2.91189e-05
0.00361326 -6.34583e-05 -7.38309e-07
-6.34583e-05 0.00146398 1.88119e-07
-7.38309e-07 1.88119e-07 0.00145519
0.000699724 2.06483e-05 6.84844e-06
2.06483e-05 -7.12994e-05 3.62331e-06
6.84844e-06 3.62331e-06 -0.000114741
0.00323051 -6.66586e-05 2.93082e-05
-6.66586e-05 0.00126877 2.76868e-06
2.93082e-05 2.76868e-06 0.00126219
0.00118645 -2.9885e-06 -5.25396e-06
-2.9885e-06 5.83907e-06 -6.69209e-07
-5.25396e-06 -6.69209e-07 -6.21953e-05
0.00142124 -1.02018e-06 5.36796e-07
-1.02018e-06 6.7291e-05 -8.36271e-08
5.36796e-07 -8.36271e-08 -1.0845e-05
0.00153669 -6.60946e-06 2.09343e-06
-6.60946e-06 0.000102745 9.27088e-07
2.09343e-06 9.27088e-07 2.24189e-05
0.00071245 8.7565e-06 -8.3307e-06
8.7565e-06 -0.000103479 4.03228e-07
-8.3307e-06 4.03228e-07 -0.000145098
0.000946013 -2.60723e-06 -7.82212e-07
-2.60723e-06 -0.000116855 3.00198e-07
-7.82212e-07 3.00198e-07 -0.000187024
0.00155884 1.48496e-05 3.74508e-06
1.48496e-05 0.000135257 -2.97058e-07
3.74508e-06 -2.97058e-07 5.62484e-05
0.000928498 1.30331e-05 3.8267e-06
1.30331e-05 -0.000113868 -4.55169e-07
3.8267e-06 -4.55169e-07 -0.000182043
0.000727865 1.27991e-05 1.48433e-07
1.27991e-05 -8.94566e-05 1.644e-07
1.48433e-07 1.644e-07 -0.000131521
0.00399131 8.15938e-05 -4.37583e-05
8.15938e-05 0.00164992 -7.26431e-08
-4.37583e-05 -7.26431e-08 0.00163962
0.000730467 2.23871e-05 7.54291e-06
2.23871e-05 -8.02362e-05 -1.94681e-06
7.54291e-06 -1.94681e-06 -0.000122162
0.00391338 8.04169e-05 7.77757e-07
8.04169e-05 0.00161361 1.64853e-07
7.77757e-07 1.64853e-07 0.00160335
0.00384788 7.62297e-05 4.33894e-05
7.62297e-05 0.00158193 -6.356e-07
4.33894e-05 -6.356e-07 0.0015721
0.00116767 -8.29118e-06 -5.11676e-06
-8.29118e-06 3.15529e-06 -1.27508e-06
-5.11676e-06 -1.27508e-06 -6.35411e-05
0.00135059 -8.51564e-06 -6.46316e-08
-8.51564e-06 3.79794e-05 -6.87847e-08
-6.46316e-08 -6.87847e-08 -3.83831e-05
0.00142917 -1.20303e-05 1.63045e-06
-1.20303e-05 5.01167e-05 2.86502e-07
1.63045e-06 2.86502e-07 -2.74361e-05
0.00201145 -8.96462e-06 -2.45866e-05
-8.96462e-06 0.000562148 -1.93121e-06
-2.45866e-05 -1.93121e-06 0.000528315
0.00116521 -4.14929e-06 1.02802e-07
-4.14929e-06 7.18686e-06 2.3771e-08
1.02802e-07 2.3771e-08 -5.873e-05
0.00139126 -3.0124e-06 2.59371e-06
-3.0124e-06 5.89004e-05 1.82369e-08
2.59371e-06 1.82369e-08 -1.628e-05
0.00393511 -6.83032e-05 -4.36011e-05
-6.83032e-05 0.0016244 -1.45283e-06
-4.36011e-05 -1.45283e-06 0.00161465
0.000722515 1.47733e-05 9.46459e-09
1.47733e-05 -8.26879e-05 1.34869e-07
9.46459e-09 1.34869e-07 -0.000123968
0.00117705 1.55192e-05 4.89219e-06
1.55192e-05 1.95918e-05 1.36127e-06
4.89219e-06 1.36127e-06 -4.67858e-05
0.00379129 -6.48438e-05 -5.25337e-07
-6.48438e-05 0.00155373 1.84666e-07
-5.25337e-07 1.84666e-07 0.00154412
0.000709016 2.20558e-05 7.66679e-06
2.20558e-05 -7.95847e-05 3.45568e-06
7.66679e-06 3.45568e-06 -0.000122412
0.00351416 -6.79093e-05 3.47279e-05
-6.79093e-05 0.00141496 2.53724e-06
3.47279e-05 2.53724e-06 0.0014062
0.000757662 4.2108e-06 -1.11289e-05
4.2108e-06 -8.08207e-05 -1.06133e-06
-1.11289e-05 -1.06133e-06 -0.000122617
0.00106401 -5.5832e-06 1.0223e-07
-5.5832e-06 -5.61658e-05 2.51009e-07
1.0223e-07 2.51009e-07 -0.00012495
0.00130151 -5.54405e-06 3.4797e-06
-5.54405e-06 6.24369e-06 5.79625e-07
3.4797e-06 5.79625e-07 -7.29929e-05
0.00411455 -1.33368e-09 -4.42003e-05
-1.33368e-09 0.00170553 -5.9047e-07
-4.42003e-05 -5.9047e-07 0.00169706
0.000727052 6.87906e-06 7.12406e-08
6.87906e-06 -9.62009e-05 1.57236e-07
7.12406e-08 1.57236e-07 -0.000138031
0.000952599 4.66841e-06 4.28278e-06
4.66841e-06 -0.00011342 -1.03677e-08
4.28278e-06 -1.03677e-08 -0.000183336
0.000735819 1.90675e-05 8.10704e-06
1.90675e-05 -8.48941e-05 -1.17002e-06
8.10704e-06 -1.17002e-06 -0.000127402
0.00404738 8.42879e-05 1.6017e-06
8.42879e-05 0.00167745 2.32791e-07
1.6017e-06 2.32791e-07 0.00166692
0.00396784 7.98499e-05 4.69349e-05
7.98499e-05 0.00163987 -1.42442e-07
4.69349e-05 -1.42442e-07 0.00162964
0.00207709 -2.21352e-05 -2.83106e-05
-2.21352e-05 0.000589223 -1.75345e-06
-2.83106e-05 -1.75345e-06 0.000554677
0.00117741 -7.00298e-06 -5.96593e-08
-7.00298e-06 7.79502e-06 1.69121e-08
-5.96593e-08 1.69121e-08 -5.88237e-05
0.00129995 -9.71501e-06 2.53828e-06
-9.71501e-06 1.15085e-05 4.56268e-07
2.53828e-06 4.56268e-07 -6.51897e-05
0.00387482 -9.02474e-05 -1.09016e-05
-9.02474e-05 0.00159818 -6.22417e-07
-1.09016e-05 -6.22417e-07 0.00158647
0.000722456 1.38189e-06 -9.56064e-09
1.38189e-06 -8.72029e-05 5.10853e-08
-9.56064e-09 5.10853e-08 -0.000127843
0.00118854 -3.46724e-06 4.93741e-06
-3.46724e-06 1.8602e-05 1.16737e-06
4.93741e-06 1.16737e-06 -4.73726e-05
0.00387838 -6.56445e-05 1.99824e-08
-6.56445e-05 0.00159625 1.67211e-07
1.99824e-08 1.67211e-07 0.00158666
0.000718535 1.58092e-05 8.31993e-06
1.58092e-05 -8.44647e-05 3.16418e-06
8.31993e-06 3.16418e-06 -0.000125767
0.00370518 -6.76213e-05 3.83912e-05
-6.76213e-05 0.00151165 2.20837e-06
3.83912e-05 2.20837e-06 0.00150195
0.00150021 -8.40546e-06 -4.62682e-05
-8.40546e-06 0.00038347 -2.95033e-07
-4.62682e-05 -2.95033e-07 0.000363293
0.00140812 -3.15519e-06 -1.04641e-05
-3.15519e-06 0.000247511 3.07024e-07
-1.04641e-05 3.07024e-07 0.00020959
0.000952565 -4.30716e-06 5.30894e-06
-4.30716e-06 -0.000112734 9.46195e-07
5.30894e-06 9.46195e-07 -0.000182229
0.00411907 7.4577e-06 1.68116e-06
7.4577e-06 0.00170981 -3.54787e-07
1.68116e-06 -3.54787e-07 0.00170024
0.000734115 4.96771e-06 8.59449e-06
4.96771e-06 -9.24632e-05 -8.67242e-08
8.59449e-06 -8.67242e-08 -0.00013437
0.0040978 7.9477e-05 4.80748e-05
7.9477e-05 0.00170161 3.85417e-07
4.80748e-05 3.85417e-07 0.00169136
0.00140229 -3.87068e-05 -7.34108e-06
-3.87068e-05 0.000342875 -1.00037e-06
-7.34108e-06 -1.00037e-06 0.000320306
0.0013985 -4.83612e-06 -9.85405e-06
-4.83612e-06 0.000247733 1.66936e-07
-9.85405e-06 1.66936e-07 0.000210295
0.00118594 -8.2454e-06 4.90847e-06
-8.2454e-06 1.19525e-05 1.22041e-06
4.90847e-06 1.22041e-06 -5.46613e-05
0.00263676 -5.26497e-05 1.85536e-05
-5.26497e-05 0.000968858 -5.62188e-08
1.85536e-05 -5.62188e-08 0.00095288
0.000735394 6.4439e-06 8.57426e-06
6.4439e-06 -8.17627e-05 2.74504e-06
8.57426e-06 2.74504e-06 -0.000122282
0.00382778 -6.50795e-05 4.12947e-05
-6.50795e-05 0.00157139 1.75584e-06
4.12947e-05 1.75584e-06 0.00156182
0.00413287 -6.06074e-05 -1.23429e-06
-6.06074e-05 0.00171471 2.16961e-07
-1.23429e-06 2.16961e-07 0.00170605
0.000728336 1.09983e-06 8.71635e-06
1.09983e-06 -9.54598e-05 1.20925e-06
8.71635e-06 1.20925e-06 -0.000136789
0.00414412 3.46638e-05 4.76899e-05
3.46638e-05 0.00172254 -4.93319e-07
4.76899e-05 -4.93319e-07 0.00171237
0.00272357 -5.48396e-05 1.89466e-05
-5.48396e-05 0.00100797 -1.16089e-07
1.89466e-05 -1.16089e-07 0.000991899
0.000741796 1.40682e-06 8.53542e-06
1.40682e-06 -8.35435e-05 2.18434e-06
8.53542e-06 2.18434e-06 -0.000124338
0.00390253 -6.34856e-05 4.32781e-05
-6.34856e-05 0.00160658 1.23265e-06
4.32781e-05 1.23265e-06 0.00159741
0.00408987 -7.26834e-05 4.50796e-05
-7.26834e-05 0.00169504 6.53761e-08
4.50796e-05 6.53761e-08 0.00168556
0.00399647 -6.52896e-05 4.45452e-05
-6.52896e-05 0.0016507 6.64813e-07
4.45452e-05 6.64813e-07 0.00164163
