# vtk DataFile Version 2.0
Wound Healing Simulation
ASCII
DATASET UNSTRUCTURED_GRID
POINTS 3012 float
69.9759 18.75 4
67.2507 60.3285 4
69.976 18.75 2
73.0099 25.446 4
71.1327 20.9142 4
68.6801 16.6661 4
67.8277 19.924 3.9882
67.2507 60.3286 2
71.1327 54.0858 4
68.6801 58.3339 4
65.6939 62.2254 4
65.3141 59.0046 3.98938
74.6784 42.3946 4
73.7221 47.2057 4
69.9759 18.75 0
73.0099 25.446 2
68.6801 16.6661 2
71.1327 20.9142 2
67.8282 19.9248 2
74.6792 32.6053 4
73.7222 27.7943 4
72.1454 23.1494 4
70.6161 26.2225 3.987
68.8881 21.9576 3.98792
67.2507 14.6715 4
66.6391 17.9685 3.98881
65.8039 21.0202 3.9836
67.2507 60.3285 0
71.1327 54.0858 2
68.6801 58.3339 2
65.694 62.2255 2
65.3144 59.0045 2
72.1454 51.8506 4
69.9759 56.25 4
68.839 53.1133 3.98771
64.0165 64.0165 4
66.6128 57.1366 3.98896
63.8874 60.7694 3.99056
63.5058 57.7799 3.98487
60.3285 67.2507 4
74.6792 42.3947 2
73.7222 47.2057 2
74.9194 39.9526 4
74.2788 44.8158 4
72.1694 42.0852 3.9855
73.0099 49.554 4
71.2512 46.5968 3.98693
73.0099 25.446 0
71.1327 20.9142 0
68.6801 16.6661 0
67.8277 19.924 0.0117982
74.6792 32.6053 2
73.7222 27.7943 2
67.2508 14.6715 2
72.1455 23.1494 2
70.6163 26.2234 2
66.6395 17.9688 2
68.8885 21.9588 2
65.8041 21.0196 2
74.9197 35.0474 4
74.2794 30.1841 4
72.1859 32.9434 3.98567
71.2798 28.4326 3.98666
69.8179 24.0605 3.98756
68.3521 26.9514 3.97991
66.7693 22.9303 3.98268
65.694 12.7746 4
65.3255 16.0994 3.98979
64.7201 19.1873 3.98459
63.8978 22.0265 3.98095
71.1327 54.0858 0
65.6939 62.2254 0
68.6801 58.3339 0
65.3141 59.0046 0.0106187
72.1455 51.8506 2
69.9759 56.25 2
68.8393 53.1122 2
64.0165 64.0165 2
66.6132 57.1362 2
63.8876 60.7693 2
63.5058 57.7804 2
62.2254 65.694 4
58.8945 65.4164 3.99263
69.7715 50.9879 3.98736
67.7862 55.1691 3.9884
66.6567 52.2119 3.98245
62.3373 62.4303 3.99162
64.6674 56.0383 3.98493
62.2067 59.4133 3.98517
61.8318 56.6934 3.98263
58.3339 68.6801 4
60.3285 67.2508 2
73.7221 47.2057 0
74.6784 42.3946 0
74.9197 39.9526 2
74.2794 44.8159 2
72.1694 42.0857 2
73.0099 49.554 2
71.2512 46.5967 2
75 37.5 4
72.4062 39.8019 3.98453
71.7841 44.3521 3.9864
69.8079 41.7889 3.97846
70.5774 48.812 3.98721
68.9177 46.0143 3.97939
74.6792 32.6053 0
73.7222 27.7943 0
67.2507 14.6715 0
72.1454 23.1494 0
70.6161 26.2225 0.013001
68.8881 21.9576 0.0120753
66.6391 17.9685 0.0111892
65.8039 21.0202 0.0163952
74.9197 35.0474 2
74.2794 30.1841 2
72.1859 32.9435 2
71.2799 28.4331 2
65.694 12.7745 2
65.3258 16.0993 2
69.8181 24.0617 2
68.3521 26.9513 2
64.7204 19.1865 2
66.7694 22.9299 2
63.8981 22.0258 2
72.414 35.224 3.98453
71.8053 30.6769 3.98642
69.8436 33.2687 3.97852
68.9708 29.0386 3.97922
67.6175 24.9108 3.98134
66.2025 27.6324 3.97713
64.0165 10.9835 4
64.7672 23.8237 3.98006
63.8914 14.3234 3.99077
63.5183 17.4375 3.98559
62.9172 20.3089 3.98178
62.107 22.9311 3.97961
60.6846 11.0949 3.99203
57.613 11.4394 3.98716
72.1454 51.8506 0
69.9759 56.25 0
68.839 53.1133 0.0122887
64.0165 64.0165 0
63.8874 60.7694 0.00943898
66.6128 57.1366 0.0110397
63.5058 57.7799 0.0151303
62.2255 65.694 2
58.8947 65.4164 2
69.7716 50.9869 2
67.7866 55.1682 2
66.6567 52.2123 2
62.3375 62.4302 2
64.6676 56.039 2
62.2067 59.4137 2
61.8319 56.694 2
60.6694 63.9794 3.99217
57.025 66.737 3.99311
57.5585 63.6977 3.98748
67.5142 50.1779 3.98112
65.7093 54.178 3.98391
64.5491 51.3913 3.97938
60.7755 60.9461 3.98594
62.8309 55.0788 3.98286
60.6649 58.1721 3.98264
60.3393 55.8009 3.9817
56.25 69.9759 4
58.3339 68.6801 2
60.3285 67.2507 0
58.9216 9.65325 3.99249
62.2254 9.30607 4
73.0099 49.554 0
74.2788 44.8158 0
71.2512 46.5968 0.0130727
72.1694 42.0852 0.014502
74.9194 39.9526 0
75 37.5 2
72.4063 39.8024 2
71.784 44.3524 2
69.808 41.789 2
70.5774 48.8114 2
68.9175 46.0143 2
72.4894 37.5118 3.98408
70.0439 39.6567 3.97726
69.4351 43.9067 3.97911
67.6036 41.4976 3.97553
68.272 48.1073 3.98013
66.7182 45.4411 3.97673
74.9197 35.0474 0
74.2794 30.1841 0
72.1859 32.9434 0.0143305
71.2798 28.4326 0.0133419
65.694 12.7746 0
65.3255 16.0994 0.010208
69.8179 24.0605 0.0124449
68.3521 26.9514 0.0200938
66.7693 22.9303 0.0173188
64.7201 19.1873 0.0154109
63.8978 22.0265 0.0190498
72.4141 35.2241 2
71.8054 30.6771 2
69.8437 33.2688 2
68.9708 29.0386 2
64.0165 10.9835 2
63.8916 14.3234 2
63.5186 17.4368 2
67.6174 24.9106 2
66.2025 27.6321 2
62.9176 20.3081 2
64.7674 23.8231 2
62.1073 22.9305 2
60.6848 11.0948 2
57.613 11.4388 2
70.0605 35.392 3.97747
69.4714 31.1499 3.97907
67.6612 33.5901 3.97553
66.7793 29.6213 3.97631
65.5335 25.6953 3.97854
64.1565 28.2507 3.97625
62.3426 12.6519 3.99148
62.8707 24.6277 3.97892
62.2023 15.7753 3.98583
61.8221 18.6714 3.98301
61.2309 21.327 3.97997
60.4425 23.7126 3.97928
59.2475 12.7705 3.98613
55.8748 10.2261 3.98849
56.4066 13.1017 3.98411
69.7715 50.9879 0.0126399
62.2254 65.694 0
58.8945 65.4164 0.00737445
67.7862 55.1691 0.0115965
66.6567 52.2119 0.0175547
62.3373 62.4303 0.00837515
62.2067 59.4133 0.0148324
64.6674 56.0383 0.0150738
61.8318 56.6934 0.0173733
60.6696 63.9795 2
57.0252 66.7371 2
57.5585 63.6982 2
67.5141 50.1781 2
65.7095 54.1787 2
64.5491 51.392 2
60.7755 60.9468 2
62.831 55.0795 2
60.6648 58.1726 2
60.3394 55.8015 2
55.0704 67.9338 3.99341
59.2207 62.3733 3.98645
55.8046 64.9148 3.98868
56.3284 62.0987 3.98449
65.3423 49.4121 3.97805
63.7177 53.301 3.9812
62.4567 50.6611 3.97786
59.3375 59.5686 3.98382
61.0908 54.323 3.98198
59.2977 57.0279 3.98088
59.255 55.1998 3.98201
48.1028 68.5819 3.99027
50.9482 69.9332 3.99387
54.0858 71.1327 4
56.25 69.976 2
58.3339 68.6801 0
57.0587 8.33316 3.99301
60.3285 7.74928 4
58.9218 9.65314 2
62.2255 9.30602 2
70.5774 48.812 0.0127857
71.7841 44.3521 0.0135977
68.9177 46.0143 0.020606
69.8079 41.7889 0.0215413
72.4062 39.8019 0.0154672
75 37.5 0
72.4895 37.5122 2
70.0441 39.6568 2
69.4351 43.9068 2
67.6037 41.4979 2
68.2719 48.1074 2
66.7181 45.4414 2
70.1315 37.5212 3.97679
67.839 39.512 3.97435
67.2311 43.4705 3.97631
65.5643 41.2111 3.97467
66.0782 47.4203 3.97739
64.6631 44.8515 3.97584
72.414 35.224 0.0154693
71.8053 30.6769 0.0135827
69.8436 33.2687 0.0214847
68.9708 29.0386 0.020781
64.0165 10.9835 0
63.8914 14.3234 0.00923052
63.5183 17.4375 0.0144109
67.6175 24.9108 0.0186617
66.2025 27.6324 0.0228708
64.7672 23.8237 0.0199366
62.9172 20.3089 0.0182187
62.107 22.9311 0.0203925
60.6846 11.0949 0.00797219
57.613 11.4394 0.012843
70.0607 35.3922 2
69.4715 31.15 2
67.6614 33.5899 2
66.7794 29.6211 2
62.3427 12.6518 2
62.2024 15.7747 2
61.8225 18.6707 2
65.5336 25.6948 2
64.1566 28.2503 2
61.2314 21.3264 2
62.8709 24.6272 2
60.4428 23.7121 2
59.2474 12.7699 2
56.4065 13.101 2
55.8748 10.2254 2
67.875 35.547 3.97467
67.2721 31.6212 3.97627
65.7053 33.9252 3.97442
64.672 30.1884 3.97511
63.5502 26.4073 3.97735
62.2694 28.7705 3.9767
60.7772 14.2148 3.98576
61.0614 25.3254 3.97866
60.6182 17.1147 3.9839
60.2333 19.8002 3.9814
59.6767 22.2414 3.9787
58.997 24.3034 3.97945
54.0378 9.12972 3.98917
57.9123 14.3201 3.984
54.7875 12.001 3.98512
55.3143 14.6322 3.98288
67.5142 50.1779 0.0188843
57.025 66.737 0.00689278
60.6694 63.9794 0.00783294
57.5585 63.6977 0.012523
65.7093 54.178 0.016088
64.5491 51.3913 0.0206225
60.7755 60.9461 0.0140639
60.6649 58.1721 0.0173574
62.8309 55.0788 0.0171377
60.3393 55.8009 0.0183017
55.0706 67.9339 2
59.2207 62.374 2
55.8046 64.9153 2
56.3284 62.0992 2
65.3422 49.4127 2
63.7179 53.3018 2
62.4567 50.6618 2
59.3375 59.5694 2
61.0909 54.3237 2
59.2977 57.0284 2
59.2551 55.2003 2
53.0423 69.0015 3.99365
53.9667 66.0167 3.98934
57.8833 60.8802 3.98414
54.6844 63.2145 3.98546
55.2137 60.6267 3.98302
63.2079 48.6677 3.97669
61.7567 52.5869 3.97984
60.2917 50.0312 3.97703
58.0239 58.275 3.98203
59.3426 53.9634 3.98119
58.1372 55.83 3.97918
50.1093 67.8599 3.99004
47.4633 66.5863 3.98803
46.0566 69.1615 3.99052
48.1029 68.5823 2
48.8024 70.7244 3.99406
50.9484 69.9333 2
51.8506 72.1454 4
54.0858 71.1327 2
56.25 69.9759 0
55.1029 7.13778 3.99329
58.3339 6.31992 4
57.0589 8.33299 2
60.3286 7.74926 2
58.9216 9.65325 0.00750709
62.2254 9.30607 0
68.272 48.1073 0.0198705
69.4351 43.9067 0.0208916
66.7182 45.4411 0.0232673
67.6036 41.4976 0.0244731
70.0439 39.6567 0.0227442
72.4894 37.5118 0.0159243
70.1317 37.5213 2
67.8392 39.5122 2
67.2312 43.4708 2
65.5646 41.2115 2
66.0781 47.4207 2
64.6631 44.852 2
67.9345 37.5215 3.97367
65.7939 39.3706 3.97353
65.1858 43.0276 3.97538
63.766 40.9321 3.97445
63.9779 46.7213 3.97632
62.8203 44.2215 3.97651
70.0605 35.392 0.0225343
69.4714 31.1499 0.0209269
67.6612 33.5901 0.0244674
66.7793 29.6213 0.0236927
62.3426 12.6519 0.00852408
62.2023 15.7753 0.0141713
61.8221 18.6714 0.0169946
65.5335 25.6953 0.0214551
64.1565 28.2507 0.0237527
62.8707 24.6277 0.0210763
61.2309 21.327 0.020033
60.4425 23.7126 0.0207179
59.2475 12.7705 0.013866
56.4066 13.1017 0.0158871
55.8748 10.2261 0.0115139
67.8752 35.5469 2
67.2722 31.621 2
65.7056 33.9249 2
64.6721 30.1881 2
60.7772 14.2141 2
60.6184 17.114 2
60.2338 19.7995 2
63.5503 26.4069 2
62.2695 28.7701 2
59.6772 22.2409 2
61.0617 25.325 2
58.9974 24.3031 2
57.9123 14.3195 2
55.3143 14.6314 2
54.0377 9.12912 2
54.7875 12.0002 2
65.8825 35.6656 3.97364
65.195 32.1511 3.97503
64.2931 34.2472 3.97438
62.606 30.6297 3.97499
61.6655 27.0627 3.97686
60.8641 29.131 3.97886
59.3137 15.6568 3.9841
59.3497 25.7819 3.97987
59.1306 18.3399 3.98294
58.7527 20.8357 3.97969
58.302 23.0735 3.97748
57.9877 24.6469 3.98
52.1124 8.1485 3.98957
53.0583 11.0076 3.98611
56.6791 15.7283 3.98321
53.8107 13.6673 3.98337
54.3786 15.983 3.98268
55.0704 67.9338 0.00659355
65.3423 49.4121 0.021948
55.8046 64.9148 0.0113178
59.2207 62.3733 0.0135481
56.3284 62.0987 0.0155081
63.7177 53.301 0.0187962
62.4567 50.6611 0.0221443
59.3375 59.5686 0.0161784
59.2977 57.0279 0.0191209
61.0908 54.323 0.0180219
59.255 55.1998 0.0179861
53.0425 69.0016 2
53.9667 66.0172 2
57.8833 60.8808 2
54.6843 63.215 2
55.2136 60.6273 2
63.2079 48.6683 2
61.7569 52.5876 2
60.2916 50.0319 2
58.024 58.2757 2
59.3427 53.964 2
58.1372 55.8304 2
52.0703 67.003 3.98976
52.9533 64.2245 3.98643
56.652 59.501 3.98298
53.6823 61.6313 3.98376
54.2632 59.3333 3.98192
61.0103 47.8899 3.97593
59.7277 52.1197 3.97952
58.0462 49.6322 3.97819
56.784 57.004 3.97959
57.1355 54.1405 3.97892
50.1093 67.8603 2
49.3369 65.9265 3.9877
47.4632 66.5869 2
46.8921 64.7437 3.9863
45.5585 67.104 3.98801
43.9736 69.594 3.99065
46.0566 69.1619 2
46.6092 71.3689 3.99429
48.1028 68.5819 0.00973221
48.8027 70.7246 2
49.554 73.0099 4
50.9482 69.9332 0.00613414
51.8506 72.1455 2
54.0858 71.1327 0
53.0639 6.0694 3.99351
55.1031 7.13762 2
56.25 5.02411 4
58.3339 6.3199 2
57.0587 8.33316 0.00699062
60.3285 7.74928 0
66.0782 47.4203 0.0226061
67.2311 43.4705 0.0236909
64.6631 44.8515 0.024159
65.5643 41.2111 0.0253329
67.839 39.512 0.0256484
70.1315 37.5212 0.0232101
67.9347 37.5216 2
65.7942 39.3708 2
65.186 43.028 2
63.7664 40.9324 2
63.9778 46.7218 2
62.8204 44.2219 2
65.8957 37.5013 3.97239
63.9082 39.2677 3.97342
63.341 42.5541 3.97522
62.4438 40.7007 3.97465
61.9825 45.9261 3.9764
61.467 43.6899 3.97728
67.875 35.547 0.0253315
67.2721 31.6212 0.0237332
65.7053 33.9252 0.0255812
64.672 30.1884 0.0248855
60.7772 14.2148 0.0142409
60.6182 17.1147 0.0160959
60.2333 19.8002 0.0186026
63.5502 26.4073 0.0226515
62.2694 28.7705 0.0232962
61.0614 25.3254 0.0213419
59.6767 22.2414 0.0212983
58.997 24.3034 0.0205548
57.9123 14.3201 0.0160026
55.3143 14.6322 0.0171217
54.0378 9.12972 0.0108278
54.7875 12.001 0.0148827
65.8829 35.6655 2
65.1952 32.1507 2
64.2935 34.247 2
62.6061 30.6293 2
59.3138 15.656 2
59.131 18.339 2
58.7534 20.835 2
61.6657 27.0624 2
60.8643 29.1306 2
58.3025 23.0731 2
59.3501 25.7816 2
57.9882 24.6466 2
56.6791 15.7276 2
54.3785 15.9822 2
53.8107 13.6664 2
52.1123 8.14794 2
53.0582 11.0069 2
64.0987 35.6305 3.97321
62.9418 33.0419 3.97411
60.6284 30.603 3.97535
59.589 27.8985 3.97793
57.9433 16.9688 3.98337
57.7605 25.709 3.98128
57.7233 19.4584 3.98177
57.3848 21.8205 3.97749
57.2046 23.9279 3.97721
50.1124 7.28077 3.9898
51.2325 10.1163 3.98682
52.1727 12.7847 3.98453
55.5404 16.9565 3.98313
52.9792 15.2483 3.98182
53.7608 16.9643 3.98297
53.0423 69.0015 0.00634634
53.9667 66.0167 0.010663
63.2079 48.6677 0.02331
54.6844 63.2145 0.0145416
57.8833 60.8802 0.0158599
55.2137 60.6267 0.0169826
61.7567 52.5869 0.0201626
60.2917 50.0312 0.022972
58.0239 58.275 0.0179714
58.1372 55.83 0.0208222
59.3426 53.9634 0.0188077
52.0703 67.0034 2
52.9532 64.225 2
56.652 59.5016 2
53.6821 61.6319 2
54.2631 59.334 2
61.0103 47.8905 2
59.7277 52.1203 2
58.0462 49.6328 2
56.7841 57.0047 2
57.1356 54.1408 2
51.1677 65.1334 3.98717
52.0464 62.5463 3.98463
55.4852 58.2635 3.98245
52.8364 60.1457 3.98251
53.6439 58.4838 3.98152
58.3271 46.8612 3.97874
57.5796 51.8036 3.97856
56.2698 49.5701 3.9814
55.4808 55.8111 3.97801
55.3726 53.4009 3.97512
50.1093 67.8599 0.00996458
49.3368 65.9269 2
48.6179 64.1298 3.98586
47.4633 66.5863 0.0119716
45.5584 67.1045 2
46.892 64.7441 2
46.3815 63.0623 3.98495
45.1324 65.2053 3.98649
43.6317 67.4751 3.98818
41.8609 69.8816 3.99068
43.9737 69.5945 2
44.3766 71.8638 3.99433
46.0566 69.1615 0.00947885
46.6094 71.3691 2
47.2057 73.7222 4
48.8024 70.7244 0.00594108
49.554 73.0099 2
51.8506 72.1454 0
50.9536 5.1299 3.99368
53.0641 6.06921 2
54.0858 3.86728 4
55.1029 7.13778 0.0067145
56.25 5.02406 2
58.3339 6.31992 0
63.9779 46.7213 0.0236835
65.1858 43.0276 0.0246164
62.8203 44.2215 0.0234897
63.766 40.9321 0.025549
65.7939 39.3706 0.0264674
67.9345 37.5215 0.0263311
65.8959 37.5014 2
63.9086 39.2679 2
63.3412 42.5545 2
62.4442 40.701 2
61.9826 45.9266 2
61.4671 43.6904 2
63.9669 37.4565 3.9721
62.1703 39.3565 3.97403
61.2343 41.9635 3.97521
60.268 44.7789 3.97775
65.8825 35.6656 0.0263578
65.195 32.1511 0.0249744
64.2931 34.2472 0.0256203
62.606 30.6297 0.02501
59.3137 15.6568 0.0158973
59.1306 18.3399 0.017055
58.7527 20.8357 0.0203092
61.6655 27.0627 0.0231409
60.8641 29.131 0.0211366
59.3497 25.7819 0.0201341
58.302 23.0735 0.0225204
57.9877 24.6469 0.0200006
56.6791 15.7283 0.0167924
54.3786 15.983 0.0173235
53.8107 13.6673 0.0166255
52.1124 8.1485 0.010432
53.0583 11.0076 0.0138897
64.0992 35.6304 2
62.9422 33.0415 2
60.6285 30.6026 2
57.9435 16.968 2
57.7239 19.4575 2
57.3856 21.82 2
59.5891 27.8982 2
57.2051 23.9277 2
57.7609 25.7088 2
50.1124 7.28024 2
55.5405 16.9556 2
53.7608 16.9634 2
52.9792 15.2474 2
52.1726 12.784 2
51.2325 10.1158 2
62.2015 35.3565 3.97274
60.3071 32.7391 3.97357
58.6398 30.0641 3.97559
57.3137 27.3647 3.98002
56.6407 18.1398 3.98323
56.3136 25.0836 3.97761
56.3668 20.5027 3.97965
56.1246 22.8489 3.97434
48.0562 6.524 3.99005
49.3243 9.32469 3.98732
50.4333 11.9833 3.98488
51.3788 14.4838 3.98292
54.4184 17.9045 3.98295
52.3634 17.0201 3.9818
52.0703 67.003 0.0102403
52.9533 64.2245 0.0135709
61.0103 47.8899 0.0240659
53.6823 61.6313 0.0162351
56.652 59.501 0.0170159
54.2632 59.3333 0.0180764
59.7277 52.1197 0.0204763
58.0462 49.6322 0.0218099
56.784 57.004 0.0204111
57.1355 54.1405 0.0210807
51.1676 65.1338 2
52.0463 62.5468 2
55.4851 58.2642 2
52.8362 60.1463 2
53.6438 58.4845 2
58.3272 46.8619 2
57.5797 51.8041 2
56.2697 49.5706 2
55.481 55.8117 2
55.3727 53.4013 2
50.3461 63.3878 3.98537
51.245 60.9444 3.98303
54.225 57.2786 3.98124
52.3156 58.6458 3.98117
56.7449 44.197 3.97613
55.519 47.9123 3.98128
55.0896 51.4053 3.97565
54.0156 54.5631 3.97597
49.3369 65.9265 0.012302
48.6177 64.1302 2
47.9618 62.4831 3.98461
45.5585 67.104 0.0119911
46.8921 64.7437 0.0137004
43.6316 67.4756 2
46.3813 63.0627 2
45.1323 65.2058 2
45.9869 61.5957 3.98387
44.7667 63.4637 3.98545
43.3563 65.5154 3.98667
41.6638 67.6944 3.98818
39.7025 70.0288 3.99057
41.8609 69.8821 2
42.1111 72.2086 3.99429
43.9736 69.594 0.0093467
44.3768 71.864 2
44.8159 74.2794 4
46.6092 71.3689 0.00570981
47.2057 73.7222 2
49.554 73.0099 0
48.7842 4.32099 3.9939
50.9538 5.12968 2
51.8506 2.85458 4
53.0639 6.0694 0.00649339
54.0858 3.86728 2
56.25 5.02411 0
61.9825 45.9261 0.0236006
63.341 42.5541 0.0247757
61.467 43.6899 0.0227218
62.4438 40.7007 0.0253505
63.9082 39.2677 0.0265761
65.8957 37.5013 0.0276145
63.9672 37.4565 2
62.1708 39.3568 2
61.2346 41.9639 2
60.2681 44.7794 2
62.0068 37.444 3.97245
60.2676 39.8506 3.97494
59.0173 42.9263 3.97527
64.0987 35.6305 0.0267946
62.9418 33.0419 0.0258895
60.6284 30.603 0.0246491
57.9433 16.9688 0.0166301
57.7233 19.4584 0.0182341
57.3848 21.8205 0.0225068
59.589 27.8985 0.0220657
57.7605 25.709 0.0187154
57.2046 23.9279 0.0227943
55.5404 16.9565 0.0168672
53.7608 16.9643 0.0170274
52.9792 15.2483 0.0181773
50.1124 7.28077 0.0102038
52.1727 12.7847 0.0154682
51.2325 10.1163 0.0131768
62.2021 35.3564 2
60.3075 32.7387 2
58.6399 30.0637 2
56.6411 18.1388 2
56.3677 20.5018 2
56.1253 22.8486 2
57.3139 27.3643 2
56.3142 25.0839 2
48.0562 6.52355 2
49.3243 9.32412 2
54.4186 17.9035 2
52.3633 17.0191 2
51.3788 14.4831 2
50.4332 11.9827 2
59.9123 35.1161 3.97271
58.0169 32.2611 3.97423
56.5687 29.3235 3.97564
55.4728 26.5821 3.98096
55.3475 19.1729 3.98288
54.9485 24.0364 3.973
55.0128 21.543 3.97787
45.9621 5.8791 3.99038
43.3734 7.46814 3.98846
47.3547 8.61868 3.98757
48.5998 11.2851 3.98558
49.7144 13.7315 3.98373
50.6351 16.1176 3.98113
53.1283 18.6437 3.9816
51.3053 18.0331 3.98429
51.1677 65.1334 0.0128311
52.0464 62.5463 0.0153736
58.3271 46.8612 0.021261
52.8364 60.1457 0.017489
55.4852 58.2635 0.017546
53.6439 58.4838 0.0184818
57.5796 51.8036 0.0214351
56.2698 49.5701 0.0185975
55.4808 55.8111 0.0219853
55.3726 53.4009 0.0248774
50.346 63.3882 2
51.2448 60.9449 2
54.2251 57.2793 2
52.3154 58.6465 2
56.7452 44.1977 2
55.5189 47.9131 2
55.0896 51.4056 2
54.0158 54.5638 2
49.592 61.7528 3.98406
55.679 41.7163 3.97618
50.5687 59.3386 3.98119
52.1912 56.5026 3.97875
54.219 45.5839 3.97872
53.3687 49.3435 3.97687
52.6841 52.8687 3.97449
48.6179 64.1298 0.0141443
47.9616 62.4834 2
47.3292 61.0185 3.98336
43.6317 67.4751 0.0118204
45.1324 65.2053 0.0135145
46.3815 63.0623 0.0150475
41.6637 67.6949 2
43.3563 65.5159 2
45.9867 61.5961 2
44.7666 63.4642 2
45.766 60.6402 3.98312
44.4827 61.8457 3.98414
43.146 63.7365 3.98526
41.5459 65.6537 3.98679
39.6328 67.7743 3.98812
37.526 70.0541 3.99053
39.7026 70.0293 2
39.8179 72.4057 3.9942
41.8609 69.8816 0.00931956
42.1112 72.2088 2
42.3947 74.6792 4
44.3766 71.8638 0.00566518
44.8159 74.2794 2
47.2057 73.7222 0
43.8514 5.35622 3.99061
46.5702 3.6456 3.99414
48.7843 4.32078 2
49.554 1.99015 4
50.9536 5.1299 0.00631724
51.8506 2.85453 2
54.0858 3.86728 0
60.268 44.7789 0.0222491
61.2343 41.9635 0.0247905
62.1703 39.3565 0.0259675
63.9669 37.4565 0.0278958
62.0071 37.4441 2
60.2682 39.8508 2
59.0176 42.9267 2
59.7837 37.5672 3.97344
58.0311 40.6621 3.97433
55.1579 39.7274 3.97533
62.2015 35.3565 0.0272637
60.3071 32.7391 0.0264259
58.6398 30.0641 0.0244062
56.6407 18.1398 0.0167731
56.3668 20.5027 0.02035
56.1246 22.8489 0.0256554
57.3137 27.3647 0.0199766
56.3136 25.0836 0.0223854
54.4184 17.9045 0.0170515
52.3634 17.0201 0.0182021
51.3788 14.4838 0.0170799
48.0562 6.524 0.00995252
49.3243 9.32469 0.0126797
50.4333 11.9833 0.0151165
59.9131 35.1161 2
45.9621 5.87864 2
43.3734 7.46767 2
58.0174 32.2608 2
56.5687 29.323 2
55.3481 19.1717 2
55.0139 21.5419 2
54.9493 24.0374 2
55.473 26.5823 2
47.3547 8.61825 2
48.5997 11.2845 2
53.1286 18.6426 2
51.3055 18.0321 2
50.635 16.1167 2
49.7143 13.7307 2
57.4265 34.7546 3.97575
55.7573 31.5062 3.97166
54.5417 28.3862 3.97877
53.7958 25.4797 3.9754
53.9752 20.1197 3.983
53.5947 22.6876 3.97339
41.3984 7.0733 3.98863
45.3594 7.99007 3.98793
42.8649 9.40857 3.98691
46.666 10.6462 3.98577
47.7453 13.092 3.98399
48.9323 15.3885 3.9828
50.0081 17.6867 3.97929
51.6559 19.3103 3.98573
50.3461 63.3878 0.0146262
51.245 60.9444 0.0169725
56.7449 44.197 0.0238722
55.519 47.9123 0.0187161
52.3156 58.6458 0.0188328
54.225 57.2786 0.0187569
55.0896 51.4053 0.0243466
54.0156 54.5631 0.0240339
49.5917 61.7532 2
55.6799 41.7163 2
50.5685 59.3391 2
52.1913 56.5033 2
54.2192 45.5849 2
53.3685 49.3435 2
52.6843 52.8687 2
48.8496 60.2112 3.98269
52.5891 42.6606 3.97442
49.7927 57.6387 3.9806
50.6047 54.4388 3.97634
51.8584 47.2873 3.97988
51.2386 50.9626 3.97222
48.2568 43.7903 3.98557
47.9618 62.4831 0.0153868
47.3289 61.0188 2
46.619 59.8053 3.98259
41.6638 67.6944 0.0118206
43.3563 65.5154 0.0133304
44.7667 63.4637 0.0145469
45.9869 61.5957 0.0161339
39.6328 67.7748 2
41.5459 65.6541 2
45.7658 60.6405 2
43.1458 63.7369 2
44.4824 61.8461 2
44.6234 60.3029 3.98336
42.9499 62.0946 3.98474
41.5993 63.8305 3.98531
39.6475 65.6224 3.98678
37.5633 67.7569 3.98808
31.6972 65.1413 3.98696
33.392 67.4945 3.98803
35.3333 69.9642 3.9905
37.526 70.0545 2
37.5096 72.4602 3.99413
39.7025 70.0288 0.00942593
39.8179 72.4059 2
39.9526 74.9197 4
42.1111 72.2086 0.00571048
42.3947 74.6792 2
44.8159 74.2794 0
41.736 4.96531 3.99087
43.8515 5.35578 2
44.3256 3.10894 3.99425
46.5704 3.64536 2
47.2057 1.27793 4
48.7842 4.32099 0.00609924
49.554 1.99013 2
51.8506 2.85458 0
59.0173 42.9263 0.0247258
60.2676 39.8506 0.025056
62.0068 37.444 0.0275462
59.7841 37.5674 2
58.0317 40.6621 2
55.1585 39.7274 2
56.864 37.8959 3.9753
49.7063 41.3317 3.97972
53.1995 39.3116 3.97415
39.4417 6.79676 3.98883
59.9123 35.1161 0.0272898
58.0169 32.2611 0.0257726
56.5687 29.3235 0.0243591
55.3475 19.1729 0.0171177
55.0128 21.543 0.0221295
54.9485 24.0364 0.0269962
55.4728 26.5821 0.0190356
53.1283 18.6437 0.0184043
51.3053 18.0331 0.0157085
50.6351 16.1176 0.0188651
45.9621 5.8791 0.00961508
49.7144 13.7315 0.0162666
47.3547 8.61868 0.0124347
48.5998 11.2851 0.0144212
43.3734 7.46814 0.0115436
57.4275 34.7548 2
41.3985 7.07279 2
45.3595 7.98965 2
42.865 9.40806 2
55.7577 31.5059 2
54.5416 28.3865 2
53.976 20.1181 2
53.5956 22.6845 2
53.7962 25.4805 2
46.6659 10.6459 2
47.7451 13.0914 2
51.6563 19.3092 2
50.0081 17.6858 2
48.9321 15.3876 2
54.9316 33.9641 3.97656
53.5327 30.4681 3.97573
52.6203 27.1832 3.97719
52.1631 24.0723 3.97356
52.3995 21.0489 3.98029
41.013 9.04175 3.98704
44.7231 9.98894 3.98626
42.4676 10.8942 3.98522
46.0047 12.7201 3.98447
47.6819 14.5734 3.98348
48.115 16.9756 3.98103
49.8203 19.586 3.97769
49.592 61.7528 0.0159368
50.5687 59.3386 0.0188134
55.679 41.7163 0.0238214
54.219 45.5839 0.0212824
53.3687 49.3435 0.023131
52.1912 56.5026 0.021248
52.6841 52.8687 0.0255127
48.8493 60.2116 2
52.5905 42.6603 2
49.7925 57.6392 2
50.6048 54.4398 2
51.8581 47.287 2
51.2386 50.9619 2
48.2519 43.7915 2
47.9883 58.7536 3.98168
50.1688 45.3008 3.97624
48.6039 55.9309 3.98147
49.1449 52.6158 3.9766
49.705 49.0636 3.97225
46.125 39.89 3.91405
46.5103 42.7115 3.96015
46.5645 45.8357 3.98803
43.9654 41.197 3.93488
42.1086 42.0007 3.91859
47.3292 61.0185 0.0166384
46.6187 59.8054 2
45.4688 58.8019 3.98235
39.6328 67.7743 0.0118783
41.5459 65.6537 0.0132078
43.146 63.7365 0.0147353
44.4827 61.8457 0.0158621
45.766 60.6402 0.0168783
41.5992 63.8308 2
37.5634 67.7574 2
39.6475 65.6227 2
44.6231 60.3032 2
42.9497 62.095 2
41.753 62.5058 3.98531
42.4813 59.9954 3.98401
39.8928 63.5663 3.98544
37.6422 65.5217 3.98644
35.4634 67.6663 3.98805
33.5754 65.3548 3.98677
31.9598 63.3152 3.98594
29.8834 64.7321 3.98687
31.6973 65.1417 2
31.3765 67.2041 3.98813
33.3921 67.495 2
33.1561 69.7575 3.99051
35.3333 69.9646 2
35.195 72.3747 3.99412
37.526 70.0541 0.00947333
37.5096 72.4605 2
37.5 75 4
39.8179 72.4057 0.00580456
39.9526 74.9197 2
42.3947 74.6792 0
39.6236 4.71245 3.99101
41.7361 4.96485 2
42.062 2.71656 3.99442
43.8514 5.35622 0.009385
44.3257 3.10868 2
44.8158 0.721173 4
46.5702 3.6456 0.00586056
47.2057 1.27779 2
49.554 1.99015 0
58.0311 40.6621 0.0256745
59.7837 37.5672 0.0265618
55.1579 39.7274 0.0246694
49.7077 41.3331 2
56.8644 37.8959 2
53.1999 39.3113 2
54.052 36.6231 3.97655
47.6394 40.4391 3.97667
50.6784 38.5052 3.97909
37.5155 6.6678 3.98884
39.4418 6.79621 2
39.2105 8.68422 3.98724
35.9409 8.48412 3.98744
57.4265 34.7546 0.0242496
55.7573 31.5062 0.0283355
54.5417 28.3862 0.0212292
53.9752 20.1197 0.0169994
53.5947 22.6876 0.0266054
53.7958 25.4797 0.024601
51.6559 19.3103 0.0142677
50.0081 17.6867 0.0207135
48.9323 15.3885 0.0172019
45.3594 7.99007 0.0120729
47.7453 13.092 0.0160107
46.666 10.6462 0.0142317
41.3984 7.0733 0.0113692
42.8649 9.40857 0.0130921
54.9329 33.9644 2
41.013 9.04115 2
44.7231 9.98856 2
42.4675 10.8937 2
53.5325 30.4666 2
52.6206 27.1853 2
52.4003 21.0474 2
52.1642 24.0728 2
46.0045 12.7198 2
47.6817 14.5727 2
49.8206 19.5847 2
48.1149 16.9747 2
52.4799 32.8617 3.9761
51.3816 29.1418 3.97537
50.8185 25.7088 3.97124
49.9481 22.1647 3.97845
40.5683 11.5973 3.98485
43.8574 11.9092 3.98506
45.8031 15.4083 3.98348
47.5063 19.2081 3.97942
46.4669 37.5035 3.91674
48.8496 60.2112 0.0173087
49.7927 57.6387 0.0193973
52.5891 42.6606 0.0255844
51.8584 47.2873 0.0201174
51.2386 50.9626 0.0277845
50.6047 54.4388 0.0236645
48.2568 43.7903 0.0144309
47.9881 58.754 2
50.1691 45.3043 2
48.6036 55.9314 2
49.1448 52.6178 2
49.7044 49.0628 2
46.1339 39.8936 2
46.5184 42.7198 2
46.5609 45.8334 2
43.9753 41.2026 2
42.1144 42.0023 2
46.8408 57.3569 3.98269
44.7334 39.4773 3.92835
42.493 40.8748 3.92951
48.1413 47.2597 3.97861
47.1774 54.2659 3.98135
47.6118 50.7733 3.97678
44.8566 47.3758 3.99403
45.1889 41.9869 3.91667
44.982 44.6164 3.96119
42.7695 42.7125 3.93674
40.9609 42.338 3.94078
46.619 59.8053 0.0174069
45.4685 58.802 2
43.877 57.7266 3.98292
37.5633 67.7569 0.0119207
39.6475 65.6224 0.013221
41.5993 63.8305 0.0146939
42.9499 62.0946 0.0152595
44.6234 60.3029 0.0166424
35.4634 67.6668 2
41.7528 62.5061 2
39.8927 63.5665 2
37.6422 65.5221 2
42.481 59.9958 2
40.6229 61.665 3.98457
40.4452 58.2293 3.98314
37.8364 63.2283 3.98601
35.5729 65.444 3.98649
33.5755 65.3552 2
31.9599 63.3156 2
33.6292 63.3552 3.98589
30.3788 62.8736 3.98578
32.1233 62.0225 3.98495
26.868 61.5167 3.98445
28.0622 64.1599 3.98668
29.8835 64.7325 2
29.406 66.7677 3.98816
31.6972 65.1413 0.0130385
31.3766 67.2046 2
31.0133 69.4224 3.99046
33.392 67.4945 0.0119724
33.156 69.7579 2
32.8921 72.1489 3.99412
35.3333 69.9642 0.0094958
35.1949 72.3749 2
35.0474 74.9194 4
37.5096 72.4602 0.00586942
37.5 75 2
39.9526 74.9197 0
35.6199 6.71893 3.98884
37.5227 4.61192 3.99112
39.6236 4.712 2
39.7885 2.47302 3.99453
41.736 4.96531 0.009132
42.0621 2.71628 2
42.3946 0.32156 4
44.3256 3.10894 0.00574873
44.8159 0.72056 2
47.2057 1.27793 0
49.7063 41.3317 0.0202785
56.864 37.8959 0.0246959
53.1995 39.3116 0.0258468
47.6413 40.4395 2
50.6771 38.5059 2
54.0524 36.6232 2
51.4646 35.5787 3.96602
48.3137 37.7704 3.98137
46.1291 35.1188 3.91593
43.9677 33.8009 3.93302
42.1035 33.0062 3.91845
37.4572 8.52588 3.98741
37.5155 6.6673 2
39.4417 6.79676 0.0111687
39.2105 8.68357 2
38.9755 10.1161 3.98672
35.8974 9.76317 3.98636
34.1494 8.81362 3.98719
35.9409 8.48349 2
54.9316 33.9641 0.023442
53.5327 30.4681 0.0242747
52.6203 27.1832 0.0228066
52.3995 21.0489 0.0197145
52.1631 24.0723 0.0264382
49.8203 19.586 0.0223073
48.115 16.9756 0.0189706
47.6819 14.5734 0.0165156
44.7231 9.98894 0.0137417
46.0047 12.7201 0.0155259
41.013 9.04175 0.0129611
42.4676 10.8942 0.0147814
52.4814 32.861 2
40.5682 11.5967 2
43.8572 11.9088 2
51.3815 29.1439 2
50.8196 25.7106 2
49.9491 22.1632 2
45.8028 15.4078 2
47.5064 19.2071 2
50.0835 31.4005 3.97102
49.3259 27.4626 3.96937
49.4256 24.3775 3.98183
47.1911 21.9093 3.97836
38.3008 12.7216 3.98428
42.1007 14.2922 3.98304
44.8022 18.4417 3.9825
45.0193 37.5045 3.92804
46.4817 37.5055 2
47.9883 58.7536 0.0183163
48.6039 55.9309 0.0185289
50.1688 45.3008 0.0237558
49.705 49.0636 0.0277535
49.1449 52.6158 0.0234023
46.125 39.89 0.0859543
46.5103 42.7115 0.0398468
46.5645 45.8357 0.0119731
43.9654 41.197 0.0651242
42.1086 42.0007 0.0814137
46.8405 57.3572 2
44.7455 39.4802 2
42.4942 40.8745 2
48.1399 47.2583 2
47.1771 54.266 2
47.6117 50.774 2
44.8563 47.371 2
45.1952 41.9929 2
44.992 44.6268 2
42.7851 42.7172 2
40.967 42.3391 2
45.4008 55.9437 3.98168
42.8282 39.263 3.94267
40.9357 40.7981 3.96655
46.1331 48.9359 3.9829
45.5595 52.5642 3.98274
43.4973 48.4753 3.98028
43.3869 46.1871 3.96696
43.7443 43.8016 3.91256
41.2469 43.8752 3.93933
39.3241 42.6652 3.93944
45.4688 58.8019 0.0176485
43.8766 57.7267 2
42.1078 56.3528 3.98318
35.4634 67.6663 0.0119534
37.6422 65.5217 0.0135648
39.8928 63.5663 0.0145636
41.753 62.5058 0.0146861
42.4813 59.9954 0.0159878
35.573 65.4444 2
40.6226 61.6652 2
37.8363 63.2285 2
40.445 58.2295 2
38.9262 56.5237 3.98511
38.2504 60.3508 3.98484
35.6069 63.2219 3.98576
33.5754 65.3548 0.0132268
31.9598 63.3152 0.0140563
33.6293 63.3555 2
30.3789 62.8739 2
32.1233 62.0227 2
28.681 62.2189 3.98552
33.346 61.5357 3.98513
31.0661 61.2397 3.98468
27.5657 59.615 3.98297
23.7874 59.1016 3.98349
25.0328 60.8888 3.98351
26.8682 61.517 2
26.2286 63.492 3.9861
28.0624 64.1602 2
27.4626 66.1913 3.98816
29.8834 64.7321 0.0131263
29.4061 66.7681 2
28.9056 68.9479 3.99043
31.3765 67.2041 0.0118688
31.0133 69.4228 2
30.6145 71.78 3.99414
33.1561 69.7575 0.009493
32.8919 72.1491 2
32.6054 74.6784 4
35.195 72.3747 0.00588165
35.0474 74.9197 2
37.5 75 0
33.7224 6.97362 3.9886
35.434 4.68236 3.99103
35.6199 6.71835 2
37.514 2.38565 3.99459
37.5227 4.6115 2
39.6236 4.71245 0.00898926
39.7885 2.47273 2
39.9526 0.0806499 4
42.062 2.71656 0.00558111
42.3947 0.320817 2
44.8158 0.721173 0
44.7444 35.5192 3.928
42.4942 34.124 3.92907
47.6394 40.4391 0.0233325
50.6784 38.5052 0.0209131
54.052 36.6231 0.0234473
48.3135 37.7685 2
51.465 35.5778 2
46.135 35.1173 2
43.9821 33.7913 2
42.107 33.0067 2
48.4771 34.2707 4.00108
45.1854 33.012 3.90848
42.7673 32.2937 3.93557
40.9527 32.6658 3.93922
37.3094 10.619 3.98583
37.4572 8.52525 2
37.5155 6.6678 0.0111573
39.2105 8.68422 0.0127565
38.9754 10.1153 2
34.7525 10.3687 3.98575
35.8973 9.76247 2
32.376 9.36027 3.9864
34.1493 8.81285 2
35.9409 8.48412 0.0125597
52.4799 32.8617 0.0239048
51.3816 29.1418 0.0246338
50.8185 25.7088 0.0287607
49.9481 22.1647 0.0215488
47.5063 19.2081 0.0205809
45.8031 15.4083 0.016516
43.8574 11.9092 0.0149435
40.5683 11.5973 0.0151545
50.0827 31.4005 2
38.3005 12.7208 2
42.1003 14.2917 2
49.326 27.4637 2
49.4269 24.3761 2
47.1919 21.9101 2
44.8021 18.4408 2
47.8627 29.5985 3.96954
47.1286 25.0989 3.98256
44.2914 21.2917 3.98119
36.5805 12.9183 3.9839
38.6801 14.791 3.98271
41.7502 17.8206 3.98053
42.9661 37.4891 3.93945
45.0365 37.5045 2
46.4669 37.5035 0.0832551
46.8408 57.3569 0.0173143
47.1774 54.2659 0.0186499
48.1413 47.2597 0.0213865
47.6118 50.7733 0.0232207
44.7334 39.4773 0.0716472
45.1889 41.9869 0.0833315
44.982 44.6164 0.0388098
44.8566 47.3758 0.00596944
42.7695 42.7125 0.0632607
42.493 40.8748 0.0704894
40.9609 42.338 0.0592194
45.4007 55.9439 2
42.8307 39.2619 2
40.9356 40.7971 2
46.1328 48.9333 2
45.5594 52.5633 2
43.4957 48.4806 2
43.4147 46.1981 2
43.7554 43.8081 2
41.2579 43.8739 2
39.3278 42.6658 2
43.7404 54.4544 3.98725
41.0137 39.1696 3.97164
39.255 40.8726 3.97069
43.7342 50.5328 3.98593
41.9986 47.7207 3.99409
41.9113 45.198 3.90625
39.474 44.6313 3.94364
37.4986 42.7973 3.93762
43.877 57.7266 0.0170823
42.1073 56.3528 2
40.421 54.9594 3.98213
35.5729 65.444 0.0135128
37.8364 63.2283 0.0139942
40.6229 61.665 0.0154297
40.4452 58.2293 0.0168634
35.607 63.2221 2
38.2501 60.3507 2
38.9257 56.5247 2
38 55.2813 3.98426
36.9351 57.6558 3.98384
35.3636 60.935 3.98523
33.6292 63.3552 0.0141086
30.3788 62.8736 0.0142157
32.1233 62.0225 0.0150516
33.346 61.5359 2
28.6812 62.2192 2
31.0662 61.2398 2
29.4015 60.3095 3.98416
32.3554 59.7684 3.98416
28.0172 58.3947 3.98334
27.566 59.6152 2
25.3743 58.6141 3.98208
22.7496 58.2604 3.98029
23.3977 60.368 3.98265
23.7876 59.1021 2
25.033 60.8892 2
24.4308 62.784 3.98531
26.868 61.5167 0.0155472
26.2288 63.4923 2
25.5466 65.5012 3.98797
28.0622 64.1599 0.0133198
27.4627 66.1917 2
26.8353 68.3361 3.99035
29.406 66.7677 0.0118446
28.9056 68.9483 2
28.3696 71.2652 3.99415
31.0133 69.4224 0.00954107
30.6143 71.7802 2
30.1842 74.2788 4
32.8921 72.1489 0.00587539
32.6053 74.6792 2
35.0474 74.9194 0
31.7868 7.41337 3.98829
33.3459 4.92156 3.99085
33.7224 6.97291 2
35.2442 2.46181 3.99454
35.4341 4.68186 2
35.6199 6.71893 0.0111608
37.5 0 4
37.514 2.38537 2
37.5227 4.61192 0.00888214
39.7885 2.47302 0.00546904
39.9526 0.0802889 2
42.3946 0.32156 0
42.8377 35.7237 3.94088
44.753 35.5184 2
40.9373 34.2026 3.96523
42.4953 34.1246 2
48.3137 37.7704 0.0186311
51.4646 35.5787 0.0339795
46.1291 35.1188 0.0840657
43.9677 33.8009 0.0669808
42.1035 33.0062 0.0815473
48.4806 34.2684 2
45.1945 33.0064 2
42.7809 32.2896 2
40.9555 32.6638 2
46.4076 31.531 3.97962
43.7359 31.2062 3.91383
41.2466 31.1266 3.93314
39.3136 32.3404 3.93976
35.6908 11.7633 3.98424
37.3094 10.6182 2
37.4572 8.52588 0.012591
38.9755 10.1161 0.0132759
33.0964 11.2054 3.98455
34.7524 10.3679 2
35.8974 9.76317 0.013638
30.4807 10.0085 3.98583
32.3759 9.35949 2
34.1494 8.81362 0.01281
50.0835 31.4005 0.0289774
49.3259 27.4626 0.0306334
49.4256 24.3775 0.0181747
47.1911 21.9093 0.0216373
44.8022 18.4417 0.0175026
42.1007 14.2922 0.0169628
38.3008 12.7216 0.0157247
36.5803 12.9176 2
47.8602 29.5963 2
38.6796 14.7901 2
41.7499 17.8199 2
47.1303 25.0989 2
44.292 21.2901 2
45.616 27.7753 3.97963
43.8177 24.0225 3.98192
41.3427 20.6982 3.97999
35.7702 14.743 3.98302
38.6806 17.5775 3.98081
41.0607 37.4827 3.96878
42.9693 37.4899 2
45.0193 37.5045 0.0719632
45.4008 55.9437 0.0183223
45.5595 52.5642 0.0172552
46.1331 48.9359 0.0170982
42.8282 39.263 0.0573305
43.7443 43.8016 0.08744
43.3869 46.1871 0.0330374
43.4973 48.4753 0.0197153
41.2469 43.8752 0.0606691
40.9357 40.7981 0.0334494
39.3241 42.6652 0.0605619
43.7404 54.4549 2
41.0144 39.1692 2
39.2543 40.8737 2
43.7334 50.5361 2
42.0006 47.728 2
41.9284 45.2028 2
37.5006 42.8002 2
39.4878 44.6271 2
41.8888 53.026 3.98984
39.2407 39.1634 3.9459
37.4998 40.9101 3.94993
35.6793 42.6711 3.93945
40.9714 49.7659 3.99972
39.8141 46.0796 3.90534
37.5027 44.887 3.94572
42.1078 56.3528 0.0168211
40.4204 54.9593 2
38.7295 53.8922 3.98522
35.6069 63.2219 0.0142384
38.2504 60.3508 0.0151581
38.9262 56.5237 0.0148884
35.3634 60.9351 2
36.9347 57.6551 2
37.9994 55.2806 2
36.3189 55.4179 3.98635
34.487 58.5478 3.98451
33.346 61.5357 0.0148736
28.681 62.2189 0.0144813
31.0661 61.2397 0.015322
32.3555 59.7684 2
29.4017 60.3095 2
30.293 57.8414 3.98405
28.0174 58.3947 2
26.9348 56.8443 3.98124
27.5657 59.615 0.0170296
25.3745 58.6144 2
23.8281 56.8261 3.978
21.3243 57.4197 3.98052
21.9889 59.6403 3.98267
22.7497 58.2609 2
22.7341 62.0348 3.98439
23.3978 60.3685 2
23.7874 59.1016 0.0165095
25.0328 60.8888 0.0164908
24.431 62.7845 2
23.6805 64.7194 3.98735
26.2286 63.492 0.0138965
25.5468 65.5017 2
24.8076 67.5973 3.99028
27.4626 66.1913 0.011841
26.8352 68.3365 2
26.1649 70.606 3.9941
28.9056 68.9479 0.00957025
28.3694 71.2653 2
27.7943 73.7221 4
30.6145 71.78 0.00585509
30.1841 74.2794 2
32.6054 74.6784 0
29.8094 7.98668 3.98775
31.251 5.32867 3.99055
31.7867 7.41261 2
32.98 2.69993 3.99442
33.3459 4.92096 2
33.7224 6.97362 0.011404
35.0474 0.080333 4
35.2442 2.46151 2
35.434 4.68236 0.00896764
37.5 0 2
37.514 2.38565 0.00540565
39.9526 0.0806499 0
41.0228 35.8072 3.96969
42.8388 35.7252 2
44.7444 35.5192 0.0719964
28.5415 10.6838 3.98563
39.2533 34.1318 3.96988
40.9361 34.2039 2
42.4942 34.124 0.070928
48.4771 34.2707 -0.00108245
45.1854 33.012 0.0915246
42.7673 32.2937 0.0644338
40.9527 32.6658 0.0607761
46.4197 31.5281 2
43.741 31.1996 2
41.2588 31.1225 2
39.3166 32.3396 2
44.4341 29.7027 3.97044
41.9077 29.81 3.90875
39.4696 30.3774 3.94349
37.4859 32.2047 3.93926
34.0906 12.9214 3.98355
35.6907 11.7626 2
37.3094 10.619 0.014168
31.1844 11.9737 3.98468
33.0963 11.2046 2
34.7525 10.3687 0.0142547
30.4806 10.0078 2
32.376 9.36027 0.0136023
47.8627 29.5985 0.030465
47.1286 25.0989 0.0174417
36.5805 12.9183 0.0160982
44.2914 21.2917 0.018811
41.7502 17.8206 0.019466
38.6801 14.791 0.0172859
35.7698 14.7425 2
45.6144 27.7735 2
38.6802 17.5763 2
41.3425 20.6967 2
43.8189 24.0247 2
33.6054 15.86 3.98294
43.0965 26.5111 3.99054
40.9232 23.272 3.98023
38.4213 20.306 3.9817
35.8464 17.4908 3.98218
39.2512 37.4832 3.93504
41.0605 37.4827 2
42.9661 37.4891 0.0605488
43.7404 54.4544 0.0127464
43.7342 50.5328 0.0140657
41.0137 39.1696 0.0283628
41.9113 45.198 0.0937547
41.9986 47.7207 0.00591197
39.474 44.6313 0.0563635
39.255 40.8726 0.0293113
37.4986 42.7973 0.0623842
41.8885 53.0273 2
39.2412 39.1641 2
37.4997 40.9126 2
40.97 49.766 2
35.6763 42.671 2
39.8334 46.094 2
37.5006 44.882 2
39.8303 51.9505 3.99649
37.4985 39.1729 3.91765
35.747 40.8825 3.97067
34.0408 42.3396 3.94152
35.515 44.6348 3.94192
38.7616 48.7587 4.01707
37.5079 46.3931 3.90363
40.421 54.9594 0.0178749
38.7288 53.8906 2
36.7162 53.2517 3.99511
35.3636 60.935 0.0147701
36.9351 57.6558 0.0161628
38 55.2813 0.0157444
34.487 58.5475 2
36.3185 55.416 2
33.2215 55.5338 3.98499
32.3554 59.7684 0.0158447
29.4015 60.3095 0.0158427
30.2932 57.8412 2
28.6738 55.3343 3.98107
28.0172 58.3947 0.0166563
26.9351 56.8445 2
25.2928 55.1644 3.9786
21.7914 55.3683 3.9779
25.3743 58.6141 0.0179233
23.8282 56.8266 2
20.2074 57.0501 3.9825
20.6386 58.7984 3.98206
21.3243 57.4203 2
21.1635 61.1847 3.98405
21.9891 59.6408 2
22.7496 58.2604 0.0197108
21.8937 63.847 3.98653
22.7343 62.0353 2
23.3977 60.368 0.0173519
24.4308 62.784 0.0146939
23.6806 64.7199 2
22.8359 66.7409 3.99008
25.5466 65.5012 0.0120323
24.8076 67.5976 2
24.0092 69.8071 3.99403
26.8353 68.3361 0.00965108
26.1646 70.6061 2
25.446 73.0099 4
28.3696 71.2652 0.00585066
27.7943 73.7222 2
30.1842 74.2788 0
27.8193 8.64634 3.98744
29.153 5.87445 3.99014
29.8093 7.98598 2
30.7253 3.09705 3.99423
31.251 5.32806 2
31.7868 7.41337 0.0117087
32.6053 0.320823 4
32.9799 2.6996 2
33.3459 4.92156 0.00914834
35.0474 0.0802903 2
35.2442 2.46181 0.00546174
37.5 0 0
39.2479 35.8158 3.94461
41.0229 35.8078 2
42.8377 35.7237 0.0591203
28.5415 10.6833 2
26.6204 11.3792 3.98531
29.2233 12.6303 3.98463
37.4955 34.0922 3.9479
39.2518 34.1305 2
40.9373 34.2026 0.034767
46.4076 31.531 0.0203788
43.7359 31.2062 0.0861736
41.2466 31.1266 0.0668649
39.3136 32.3404 0.0602427
44.4463 29.6946 2
41.925 29.8004 2
39.4811 30.3789 2
37.4867 32.2002 2
42.3541 28.3526 3.96325
39.8212 28.9262 3.91098
37.4894 30.11 3.94555
35.665 32.3292 3.94009
31.9119 14.4667 3.98351
34.0905 12.9206 2
35.6908 11.7633 0.0157626
31.1843 11.973 2
33.0964 11.2054 0.0154534
30.4807 10.0085 0.0141734
45.616 27.7753 0.0203726
43.8177 24.0225 0.0180757
35.7702 14.743 0.0169767
41.3427 20.6982 0.0200134
38.6806 17.5775 0.0191853
33.6051 15.8599 2
35.8459 17.4905 2
43.0956 26.5125 2
38.4211 20.3052 2
40.9237 23.2689 2
33.5473 17.3679 3.98391
40.4714 25.6185 4.01034
38.0803 22.8348 3.98836
35.5818 20.0575 3.98361
37.5007 37.4918 3.91243
39.2511 37.4833 2
41.0607 37.4827 0.0312227
41.8888 53.026 0.0101608
40.9714 49.7659 0.000284549
39.2407 39.1634 0.054103
39.8141 46.0796 0.0946586
37.5027 44.887 0.0542781
37.4998 40.9101 0.0500686
35.6793 42.6711 0.0605541
39.8304 51.95 2
37.499 39.1742 2
35.7473 40.8841 2
38.7577 48.7836 2
34.0365 42.3423 2
35.5079 44.6306 2
37.505 46.4114 2
37.6691 51.0501 4.00121
35.7609 39.1781 3.94531
34.0712 40.8077 3.96519
32.8898 42.0001 3.91891
33.7402 43.8752 3.93759
35.1896 46.0815 3.9107
36.891 48.4056 4.00258
38.7295 53.8922 0.0147812
36.7161 53.2487 2
34.3508 52.5099 3.98652
34.487 58.5478 0.0154925
36.3189 55.4179 0.0136496
33.2217 55.533 2
30.4998 53.4361 3.98424
30.293 57.8414 0.0159514
28.6741 55.3339 2
26.857 53.469 3.97821
26.9348 56.8443 0.0187629
25.2929 55.1648 2
23.5466 53.5067 3.97538
20.4415 53.2505 3.97488
19.9169 55.8542 3.98146
21.7912 55.3689 2
23.8281 56.8261 0.0220018
19.4294 57.9108 3.9819
20.2074 57.0507 2
19.7019 60.2187 3.98315
20.6386 58.7989 2
21.3243 57.4197 0.0194762
20.2056 62.8682 3.98573
21.1636 61.1852 2
21.9889 59.6403 0.0173262
20.9373 65.7699 3.98957
21.8938 63.8475 2
22.7341 62.0348 0.0156075
23.6805 64.7194 0.0126542
22.8359 66.7413 2
21.9117 68.8743 3.99389
24.8076 67.5973 0.00971528
24.0089 69.8072 2
23.1494 72.1454 4
26.1649 70.606 0.00590056
25.446 73.0099 2
27.7943 73.7221 0
25.8586 9.37435 3.98697
27.0678 6.53854 3.98975
27.8193 8.64573 2
28.4875 3.64295 3.99397
29.1529 5.87389 2
29.8094 7.98668 0.0122518
30.1841 0.720592 4
30.7251 3.09674 2
31.251 5.32867 0.0094517
32.6053 0.320817 2
32.98 2.69993 0.00557806
35.0474 0.080333 0
37.5013 35.8167 3.91539
39.2478 35.8152 2
41.0228 35.8072 0.0303054
24.7752 12.0621 3.98529
23.7489 14.346 3.98423
28.5415 10.6838 0.0143662
26.6205 11.3787 2
29.2233 12.6298 2
27.2894 13.3634 3.98455
29.7778 14.189 3.98374
35.7432 34.1168 3.96988
37.4948 34.0892 2
39.2533 34.1318 0.0301237
37.4859 32.2047 0.0607364
44.4341 29.7027 0.0295642
41.9077 29.81 0.09125
39.4696 30.3774 0.056506
42.3632 28.3399 2
39.8383 28.9148 2
37.4884 30.117 2
35.6631 32.3279 2
40.0354 27.5257 3.97858
37.4958 28.5988 3.9063
35.4996 30.3669 3.94229
34.033 32.6505 3.93773
30.9229 16.823 3.98317
31.9119 14.466 2
34.0906 12.9214 0.0164518
31.1844 11.9737 0.0153173
43.0965 26.5111 0.00946489
40.9232 23.272 0.019772
33.6054 15.86 0.0170617
35.8464 17.4908 0.0178166
38.4213 20.306 0.0182952
33.5469 17.3681 2
35.5816 20.0568 2
40.4692 25.6194 2
38.0802 22.8352 2
32.8595 19.7732 3.98352
37.7882 25.1316 4.0272
35.2014 22.615 3.98044
35.7532 37.4963 3.93478
37.501 37.492 2
39.2512 37.4832 0.0649601
39.8303 51.9505 0.00351435
38.7616 48.7587 -0.0170691
37.4985 39.1729 0.0823456
37.5079 46.3931 0.0963738
35.515 44.6348 0.0580751
35.747 40.8825 0.0293339
34.0408 42.3396 0.0584767
37.6695 51.0568 2
35.7615 39.179 2
34.0713 40.8061 2
36.8884 48.4138 2
32.8851 42.0002 2
33.7318 43.8798 2
35.1677 46.0939 2
35.4267 50.1836 4.00135
33.9944 39.1851 3.96795
32.5045 40.8778 3.92973
32.2224 42.709 3.93555
33.1012 45.1878 3.91443
34.2838 47.4813 3.97867
36.7162 53.2517 0.00489133
34.3506 52.5098 2
31.9695 51.24 3.98742
33.2215 55.5338 0.015013
30.5002 53.4369 2
28.3941 51.6551 3.98055
28.6738 55.3343 0.0189255
26.8571 53.4703 2
25.0428 51.793 3.97421
25.2928 55.1644 0.0214039
23.5465 53.5077 2
21.9298 51.8363 3.97361
19.17 51.6597 3.97438
18.9009 54.3311 3.97794
20.4413 53.251 2
18.4351 56.7433 3.9826
19.9167 55.8547 2
21.7914 55.3683 0.0221046
18.3626 59.1265 3.98205
19.4294 57.9113 2
20.2074 57.0501 0.0175041
18.6158 61.7762 3.9848
19.7021 60.2193 2
20.6386 58.7984 0.0179406
19.1261 64.6807 3.98883
20.2057 62.8688 2
21.1635 61.1847 0.0159451
19.8857 67.8109 3.99357
20.9374 65.7703 2
21.8937 63.847 0.013473
22.8359 66.7409 0.00992362
21.9115 68.8744 2
20.9142 71.1327 4
24.0092 69.8071 0.00597331
23.1494 72.1455 2
25.446 73.0099 0
23.0944 12.7768 3.98493
23.9712 10.1609 3.98673
25.0217 7.30853 3.98955
25.8586 9.3738 2
26.2792 4.32714 3.9937
27.0677 6.53803 2
27.8193 8.64634 0.0125583
27.7943 1.27781 4
28.4872 3.6427 2
29.153 5.87445 0.00986375
30.1841 0.720551 2
30.7253 3.09705 0.00577364
32.6053 0.320823 0
35.7572 35.8165 3.94408
37.5014 35.8156 2
39.2479 35.8158 0.0553856
24.7753 12.0616 2
23.7491 14.3459 2
22.4771 15.0222 3.98384
25.3554 13.8953 3.98422
24.0215 15.6076 3.98358
26.6204 11.3792 0.0146937
29.2233 12.6303 0.015368
27.2894 13.3631 2
29.7779 14.1884 2
28.3535 15.9629 3.98385
34.074 34.1919 3.96478
35.7437 34.1158 2
37.4955 34.0922 0.0520951
35.665 32.3292 0.0599071
37.4894 30.11 0.0544463
42.3541 28.3526 0.0367465
39.8212 28.9262 0.0890199
40.0398 27.5178 2
37.4958 28.5831 2
35.4894 30.3677 2
34.0332 32.646 2
37.6284 27.2144 3.98428
35.1525 28.9112 3.91027
33.7222 31.1179 3.93582
32.8872 32.9942 3.91918
30.203 19.3256 3.9844
30.9228 16.8224 2
31.9119 14.4667 0.016487
40.4714 25.6185 -0.0103438
38.0803 22.8348 0.0116426
33.5473 17.3679 0.0160857
35.5818 20.0575 0.0163857
32.859 19.7738 2
35.2012 22.6129 2
37.788 25.1349 2
32.3037 22.3861 3.98284
34.9446 25.1438 4.00291
33.95 37.4974 3.9665
35.754 37.4967 2
37.5007 37.4918 0.0875688
37.6691 51.0501 -0.00120928
36.891 48.4056 -0.00257567
35.7609 39.1781 0.0546932
35.1896 46.0815 0.0893003
33.7402 43.8752 0.0624144
34.0712 40.8077 0.034809
32.8898 42.0001 0.0810929
35.4262 50.1899 2
33.995 39.184 2
32.5028 40.876 2
34.2767 47.5054 2
32.2095 42.709 2
33.0839 45.2006 2
33.1897 49.1779 4.00374
32.1682 39.2714 3.94249
31.0266 41.1929 3.93426
31.2565 43.7915 3.91342
32.2317 46.4083 3.97275
34.3508 52.5099 0.0134763
31.9694 51.2416 2
29.8016 49.7612 3.98326
30.4998 53.4361 0.0157647
28.3942 51.6533 2
26.4552 50.0356 3.975
26.857 53.469 0.0217889
25.0427 51.7928 2
23.2947 50.23 3.97325
23.5466 53.5067 0.0246204
21.9297 51.8361 2
20.4269 50.3419 3.97403
17.9576 50.3505 3.97627
17.8093 52.8134 3.97652
19.1703 51.6599 2
17.4212 55.3597 3.98028
18.9007 54.3316 2
20.4415 53.2505 0.0251152
17.1265 57.8892 3.98297
18.435 56.7438 2
19.9169 55.8542 0.0185367
17.1324 60.56 3.98367
18.3626 59.1271 2
19.4294 57.9108 0.0181027
17.4061 63.4737 3.98781
18.6159 61.7767 2
19.7019 60.2187 0.0168451
17.9418 66.6193 3.9932
19.1261 64.6812 2
20.2056 62.8682 0.014272
18.75 69.9759 4
19.8855 67.8109 2
20.9373 65.7699 0.0104291
21.9117 68.8743 0.00611265
20.9142 71.1327 2
23.1494 72.1454 0
21.5849 13.5965 3.98462
22.1892 11.02 3.9862
23.0946 12.7765 2
23.0398 8.17386 3.98938
23.9712 10.1604 2
24.1169 5.14177 3.99355
25.0216 7.3081 2
25.8586 9.37435 0.0130322
25.446 1.99014 4
26.2789 4.32695 2
27.0678 6.53854 0.0102453
27.7943 1.27778 2
28.4875 3.64295 0.00602994
30.1841 0.720592 0
33.9875 35.8113 3.96804
35.7575 35.8163 2
37.5013 35.8167 0.0846066
21.3018 15.8178 3.98331
24.7752 12.0621 0.0147111
23.7489 14.346 0.0157699
25.3555 13.895 2
22.4774 15.0222 2
24.0218 15.6075 2
23.2602 16.2388 3.98325
25.3768 16.0753 3.98397
27.2894 13.3634 0.0154496
29.7778 14.189 0.0162621
28.3536 15.9627 2
27.4346 18.784 3.98427
32.5167 34.1167 3.93075
34.0755 34.1909 2
35.7432 34.1168 0.0301212
34.033 32.6505 0.0622678
35.4996 30.3669 0.0577132
37.4958 28.5988 0.0936974
40.0354 27.5257 0.0214236
37.6237 27.1848 2
32.8874 32.9948 2
35.1313 28.8977 2
33.71 31.1079 2
35.0574 27.3292 3.98478
33.0643 29.8042 3.91271
32.2088 32.2758 3.93351
29.5647 21.9199 3.99068
30.203 19.3256 2
30.9229 16.823 0.016827
37.7882 25.1316 -0.0272038
35.2014 22.615 0.0195597
32.8595 19.7732 0.0164823
32.3034 22.3875 2
34.9471 25.1499 2
31.6438 25.6026 3.99228
32.0398 37.4985 3.94001
33.9513 37.4966 2
35.7532 37.4963 0.0652191
35.4267 50.1836 -0.00134863
34.2838 47.4813 0.0213338
33.9944 39.1851 0.0320495
33.1012 45.1878 0.085567
32.2224 42.709 0.0644479
32.5045 40.8778 0.0702702
33.1893 49.1632 2
32.1668 39.2693 2
31.0125 41.1982 2
32.2172 46.423 2
31.2479 43.7975 2
31.0686 47.9713 3.99842
30.2536 39.4695 3.92816
29.8084 41.9828 3.91007
30.3533 44.9855 3.97176
31.9695 51.24 0.0125765
29.8015 49.757 2
27.7973 48.2347 3.98076
28.3941 51.6551 0.0194513
26.4553 50.0342 2
24.5878 48.5071 3.97482
25.0428 51.793 0.0257936
23.295 50.2297 2
21.6022 48.8191 3.97542
21.9298 51.8363 0.0263858
20.4273 50.3415 2
18.9962 49.1139 3.97771
16.8661 49.3476 3.97894
16.7491 51.4254 3.97684
17.958 50.3507 2
16.371 53.8884 3.97862
17.8093 52.8137 2
19.17 51.6597 0.0256215
15.9658 56.491 3.98199
17.4209 55.3602 2
18.9009 54.3311 0.0220628
15.7446 59.2212 3.98363
17.1264 57.8897 2
18.4351 56.7433 0.0174036
15.7861 62.1444 3.98654
17.1325 60.5607 2
18.3626 59.1265 0.0179545
16.0883 65.302 3.99286
17.4062 63.4742 2
18.6158 61.7762 0.0151973
16.6661 68.6801 4
17.9416 66.6194 2
19.1261 64.6807 0.0111698
18.75 69.9759 2
19.8857 67.8109 0.00643433
20.9142 71.1327 0
20.2165 14.5852 3.984
21.5851 13.5965 2
20.5283 11.9895 3.98575
21.1429 9.1434 3.98921
22.1894 11.0196 2
23.0944 12.7768 0.0150716
22.0159 6.08073 3.99338
23.0397 8.17348 2
23.9712 10.1609 0.013273
23.1494 2.85457 4
24.1165 5.14165 2
25.0217 7.30853 0.0104464
25.446 1.99012 2
26.2792 4.32714 0.00630351
27.7943 1.27781 0
32.1716 35.7225 3.94147
33.9884 35.8106 2
35.7572 35.8165 0.0559197
21.302 15.8175 2
20.2982 16.9513 3.9838
22.0931 16.623 3.98266
25.3554 13.8953 0.0157785
22.4771 15.0222 0.0161558
24.0215 15.6076 0.0164168
25.3771 16.0751 2
23.2606 16.2388 2
24.1988 18.4372 3.98205
27.0016 21.4421 3.98387
28.3535 15.9629 0.0161454
27.4347 18.7841 2
31.0327 33.7942 3.93161
32.5154 34.1193 2
34.074 34.1919 0.0352186
32.8872 32.9942 0.0808231
33.7222 31.1179 0.0641788
35.1525 28.9112 0.0897302
37.6284 27.2144 0.0157248
35.0472 27.3135 2
32.2072 32.2799 2
33.0522 29.7911 2
32.4826 28.0523 3.99179
31.2275 31.2004 3.91473
28.7609 24.3847 3.98744
29.5643 21.9206 2
30.203 19.3256 0.0155963
34.9446 25.1438 -0.00291437
32.3037 22.3861 0.017158
31.6448 25.5915 2
29.5776 27.2907 3.97965
29.9769 37.4882 3.92759
32.0394 37.4982 2
33.95 37.4974 0.0335049
33.1897 49.1779 -0.00374378
32.2317 46.4083 0.0272544
32.1682 39.2714 0.0575126
31.2565 43.7915 0.0865769
31.0266 41.1929 0.0657425
31.0699 47.9682 2
30.2432 39.4759 2
29.7995 41.9892 2
30.3396 44.9964 2
29.0831 46.523 3.98542
28.866 39.875 3.91117
28.5508 43.2017 3.96904
29.8016 49.7612 0.016742
27.7978 48.2309 2
25.8606 46.6963 3.98034
26.4552 50.0356 0.0250023
24.5886 48.5064 2
22.7398 47.1134 3.97948
23.2947 50.23 0.0267464
21.6031 48.8185 2
19.9412 47.6414 3.98007
20.4269 50.3419 0.0259737
18.9968 49.1139 2
17.6404 48.195 3.98055
16.1183 48.697 3.9809
16.8665 49.348 2
15.8276 50.1848 3.97817
15.3598 52.4306 3.97807
16.7494 51.4256 2
17.9576 50.3505 0.0237258
14.8558 54.9911 3.98035
16.3709 53.8887 2
17.8093 52.8134 0.0234845
14.4525 57.7502 3.98326
15.9657 56.4915 2
17.4212 55.3597 0.0197231
14.2637 60.6989 3.98566
15.7447 59.2218 2
17.1265 57.8892 0.0170315
14.3324 63.8612 3.9923
15.7862 62.145 2
17.1324 60.56 0.0163255
14.6715 67.2507 4
16.0881 65.302 2
17.4061 63.4737 0.0121885
16.6661 68.6801 2
17.9418 66.6193 0.00680413
18.75 69.9759 0
18.9296 15.7719 3.98362
20.2167 14.585 2
18.9777 13.1003 3.98508
21.5849 13.5965 0.0153791
20.5285 11.9893 2
19.3422 10.2309 3.98887
19.9905 7.14532 3.99332
21.1429 9.14306 2
22.1892 11.02 0.0137988
20.9142 3.86727 4
22.0156 6.08069 2
23.0398 8.17386 0.0106191
23.1494 2.85451 2
24.1169 5.14177 0.00645337
25.446 1.99014 0
30.2633 35.5253 3.93176
32.1699 35.7237 2
33.9875 35.8113 0.0319619
21.3018 15.8178 0.0166869
22.0934 16.6227 2
20.2983 16.9508 2
19.236 18.3975 3.98329
21.7766 17.8384 3.98299
25.3768 16.0753 0.016027
23.2602 16.2388 0.0167477
24.1991 18.4373 2
22.2683 19.8788 3.9815
24.5781 21.3075 3.98299
26.3862 23.7077 3.98154
27.002 21.4428 2
27.4346 18.784 0.015733
29.8063 33 3.91269
31.0195 33.7822 2
32.5167 34.1167 0.0692453
32.2088 32.2758 0.0664944
33.0643 29.8042 0.087291
35.0574 27.3292 0.0152186
32.4689 28.0474 2
31.2337 31.2003 2
30.0282 29.5027 3.98415
27.8194 26.5285 3.97185
28.7612 24.3893 2
29.5647 21.9199 0.00932142
31.6438 25.6026 0.00771633
29.5697 27.2553 2
28.5277 37.4915 3.91856
29.9673 37.4907 2
32.0398 37.4985 0.0599859
31.0686 47.9713 0.00158286
30.3533 44.9855 0.0282412
30.2536 39.4695 0.071836
29.8084 41.9828 0.0899259
29.0872 46.5391 2
28.8572 39.8773 2
28.5388 43.2115 2
27.1589 44.8306 3.97478
26.6459 40.632 4.00089
27.7973 48.2347 0.0192361
25.8626 46.6947 2
23.8979 45.2429 3.97264
24.5878 48.5071 0.0251836
22.7411 47.1125 2
20.8724 45.9226 3.97898
21.6022 48.8191 0.0245838
19.942 47.6415 2
18.2863 46.7553 3.98177
18.9962 49.1139 0.0222923
17.6409 48.1954 2
16.3086 47.7266 3.98055
16.1188 48.6975 2
15.1749 49.0274 3.97947
16.8661 49.3476 0.0210559
15.8279 50.1851 2
14.4741 50.9965 3.97826
13.8172 53.4455 3.9794
15.3599 52.431 2
16.7491 51.4254 0.023157
13.2465 56.1773 3.98219
14.8557 54.9916 2
16.371 53.8884 0.0213752
12.8454 59.1326 3.98553
14.4525 57.7507 2
15.9658 56.491 0.0180111
12.6777 62.3039 3.99143
14.2637 60.6993 2
15.7446 59.2212 0.0163672
12.7746 65.6939 4
14.3322 63.8612 2
15.7861 62.1444 0.0134594
14.6714 67.2507 2
16.0883 65.302 0.00713519
16.6661 68.6801 0
17.6629 17.147 3.98324
18.9297 15.7715 2
17.5088 14.3644 3.98449
20.2165 14.5852 0.0160046
18.9779 13.0999 2
17.6377 11.4498 3.98806
20.5283 11.9895 0.0142477
19.3424 10.2307 2
18.0507 8.33811 3.99321
18.75 5.0241 4
19.9902 7.14535 2
21.1429 9.1434 0.0107921
20.9142 3.86727 2
22.0159 6.08073 0.00661608
23.1494 2.85457 0
28.8676 35.103 3.91388
30.2522 35.523 2
32.1716 35.7225 0.0585308
22.0931 16.623 0.0173434
20.2982 16.9513 0.016204
21.7768 17.8379 2
19.2361 18.3968 2
17.9699 19.9291 3.98262
20.8676 19.3654 3.98316
24.1988 18.4372 0.0179534
22.2687 19.8781 2
24.5786 21.3079 2
22.3418 21.7033 3.98286
24.6697 23.1525 3.98165
25.4079 25.9362 3.97286
26.3872 23.7073 2
27.0016 21.4421 0.0161273
28.1921 32.2726 3.96418
29.7995 32.9986 2
31.0327 33.7942 0.0683934
31.2275 31.2004 0.0852695
32.4826 28.0523 0.00820837
30.0039 29.494 2
26.9279 29.1213 3.98124
27.8153 26.5257 2
28.7609 24.3847 0.0125618
29.5776 27.2907 0.0203457
26.7553 37.3507 3.97644
28.5199 37.4903 2
29.9769 37.4882 0.072409
29.0831 46.523 0.014584
28.5508 43.2017 0.0309645
28.866 39.875 0.0888295
27.1637 44.8314 2
26.6425 40.637 2
25.1334 43.1937 3.96724
23.8889 39.4264 3.96684
25.8606 46.6963 0.0196607
23.899 45.2437 2
21.8458 43.9725 3.97617
22.7398 47.1134 0.0205175
20.8738 45.9234 2
18.9464 44.9879 3.97555
19.9412 47.6414 0.0199335
18.287 46.7562 2
16.5998 46.2251 3.97805
17.6404 48.195 0.0194539
16.3091 47.7272 2
14.9052 47.6803 3.97893
16.1183 48.697 0.0191018
15.1752 49.0278 2
13.7728 49.5552 3.97867
15.8276 50.1848 0.021829
14.4743 50.9969 2
12.8843 51.8822 3.97894
12.1335 54.5344 3.98121
13.8172 53.446 2
15.3598 52.4306 0.021931
11.5293 57.4641 3.98493
13.2463 56.1779 2
14.8558 54.9911 0.0196485
11.1321 60.6301 3.99065
12.8454 59.1329 2
14.4525 57.7502 0.0167351
10.9835 64.0165 4
12.6776 62.3038 2
14.2637 60.6989 0.0143362
12.7745 65.694 2
14.3324 63.8612 0.00769596
14.6715 67.2507 0
16.3941 18.6405 3.98315
17.663 17.1465 2
16.0992 15.7731 3.98434
18.9296 15.7719 0.016383
17.5089 14.3638 2
16.0192 12.8032 3.98679
18.9777 13.1003 0.0149212
17.6379 11.4493 2
16.2018 9.66121 3.9929
19.3422 10.2309 0.0111264
18.0504 8.33819 2
16.6661 6.31991 4
18.75 5.02404 2
19.9905 7.14532 0.00667569
20.9142 3.86727 0
27.2626 34.7338 3.96321
28.8576 35.1011 2
30.2633 35.5253 0.0682386
16.6684 21.3645 3.98022
21.7766 17.8384 0.017011
19.236 18.3975 0.0167107
20.8677 19.3646 2
17.97 19.9284 2
19.7096 21.5575 3.98482
22.2683 19.8788 0.0185005
24.5781 21.3075 0.0170084
22.3423 21.7018 2
24.6697 23.1524 2
22.8129 24.5869 3.97658
24.4731 28.513 3.96979
25.4054 25.9342 2
26.3862 23.7077 0.0184638
26.0326 31.6917 3.98741
28.1837 32.2654 2
29.8063 33 0.0873055
30.0282 29.5027 0.0158457
26.9333 29.1215 2
27.8194 26.5285 0.0281452
24.5715 36.8522 3.9815
26.7529 37.3554 2
28.5277 37.4915 0.0814429
27.1589 44.8306 0.0252173
26.6459 40.632 -0.000885827
25.1326 43.1955 2
23.8879 39.4285 2
22.8896 41.81 3.97816
21.6398 38.4949 3.97236
23.8979 45.2429 0.0273573
21.8465 43.9748 2
19.6931 42.8982 3.97126
20.8724 45.9226 0.0210196
18.9469 44.9889 2
16.9281 44.3901 3.9738
18.2863 46.7553 0.0182341
16.6004 46.2259 2
14.8271 46.0989 3.97628
16.3086 47.7266 0.0194477
14.9056 47.6809 2
13.2807 48.0158 3.97788
15.1749 49.0274 0.0205294
13.7731 49.5557 2
12.1041 50.2587 3.97869
14.4741 50.9965 0.0217359
12.8844 51.8827 2
11.1293 52.8414 3.98042
10.3196 55.7149 3.984
12.1334 54.5349 2
13.8172 53.4455 0.0205985
9.69859 58.8523 3.98956
11.5292 57.4647 2
13.2465 56.1773 0.0178072
9.30605 62.2254 4
11.132 60.6301 2
12.8454 59.1326 0.0144703
10.9835 64.0165 2
12.6777 62.3039 0.00856566
12.7746 65.6939 0
15.1377 20.1746 3.98148
16.3942 18.6399 2
14.7441 17.2957 3.98365
17.6629 17.147 0.0167627
16.0993 15.7724 2
14.4813 14.285 3.986
17.5088 14.3644 0.0155097
16.0194 12.8025 2
14.4444 11.1124 3.99243
17.6377 11.4498 0.0119417
16.2016 9.66121 2
14.6715 7.74927 4
18.0507 8.33811 0.00678723
16.6661 6.31988 2
18.75 5.0241 0
25.2107 34.2539 3.9861
27.259 34.734 2
28.8676 35.103 0.0861178
17.8393 22.3089 3.98541
15.5122 22.9083 3.97813
16.6683 21.3636 2
20.8676 19.3654 0.0168432
17.9699 19.9291 0.017377
19.7098 21.5565 2
19.6372 24.3631 3.97921
22.3418 21.7033 0.0171414
24.6697 23.1525 0.0183453
22.8111 24.5848 2
21.8558 27.807 3.97135
23.6378 31.1707 3.97188
24.4756 28.5125 2
25.4079 25.9362 0.0271384
26.0377 31.6874 2
28.1921 32.2726 0.0358177
26.9279 29.1213 0.0187604
22.3494 36.2625 3.98198
24.5708 36.8528 2
26.7553 37.3507 0.0235612
25.1334 43.1937 0.0327568
23.8889 39.4264 0.0331566
22.8878 41.8115 2
21.6391 38.4954 2
20.6157 40.6303 3.97493
20.0003 37.7751 3.97439
21.8458 43.9725 0.0238282
19.693 42.8994 2
17.3202 42.1055 3.97413
18.9464 44.9879 0.0244518
16.9284 44.3912 2
14.8279 44.207 3.97401
16.5998 46.2251 0.0219454
14.8275 46.0997 2
12.9542 46.301 3.9756
14.9052 47.6803 0.0210651
13.281 48.0164 2
11.4764 48.5539 3.97773
13.7728 49.5552 0.0213326
12.1043 50.2592 2
10.2556 51.0832 3.97973
12.8843 51.8822 0.0210623
11.1293 52.842 2
9.22846 53.8916 3.98322
8.38207 56.9843 3.98856
10.3194 55.7155 2
12.1335 54.5344 0.0187863
7.74927 60.3285 4
9.69835 58.8523 2
11.5293 57.4641 0.0150739
9.306 62.2255 2
11.1321 60.6301 0.00935317
10.9835 64.0165 0
13.949 21.7414 3.97995
15.1377 20.1738 2
13.4439 18.8925 3.98266
16.3941 18.6405 0.0168509
14.7442 17.2949 2
13.0263 15.8776 3.98545
16.0992 15.7731 0.0156628
14.4814 14.2842 2
12.7817 12.6856 3.99175
16.0192 12.8032 0.0132074
14.4443 11.1123 2
12.7746 9.30605 4
16.2018 9.66121 0.0070971
14.6715 7.74924 2
16.6661 6.31991 0
22.9429 33.7862 3.97587
25.2084 34.2533 2
27.2626 34.7338 0.0367864
17.6056 24.0279 3.97997
17.8391 22.3078 2
14.2946 24.4412 3.97639
15.5115 22.9071 2
16.6684 21.3645 0.0197832
18.9937 27.1861 3.9699
19.7096 21.5575 0.0151834
19.6358 24.3624 2
21.0878 30.6455 3.97338
22.8129 24.5869 0.0234159
21.8569 27.8062 2
23.635 31.1707 2
24.4731 28.513 0.03021
26.0326 31.6917 0.012589
20.1162 35.9109 3.98053
22.3484 36.264 2
24.5715 36.8522 0.0185045
22.8896 41.81 0.0218437
21.6398 38.4949 0.0276408
20.6143 40.6305 2
19.9992 37.7756 2
17.9952 38.9992 3.97516
19.6931 42.8982 0.028741
17.3199 42.1064 2
14.7735 41.922 3.9744
16.9281 44.3901 0.0262019
14.8281 44.2079 2
12.694 44.396 3.97443
14.8271 46.0989 0.0237227
12.9545 46.3017 2
10.9795 46.7362 3.97584
13.2807 48.0158 0.0221229
11.4767 48.5545 2
9.51967 49.2416 3.97868
12.1041 50.2587 0.0213053
10.2557 51.0839 2
8.26169 52.0031 3.98245
11.1293 52.8414 0.0195841
9.22837 53.8921 2
7.19102 55.0335 3.98795
6.31991 58.3339 4
8.38171 56.984 2
10.3196 55.7149 0.0160038
7.74924 60.3285 2
9.69859 58.8523 0.0104384
9.30605 62.2254 0
13.2161 25.3553 3.98137
12.8161 23.2717 3.97857
13.9486 21.7403 2
12.2287 20.5419 3.98185
15.1377 20.1746 0.018524
13.4439 18.8916 2
11.6556 17.5585 3.98524
14.7441 17.2957 0.0163516
13.0264 15.8769 2
11.219 14.3702 3.99081
14.4813 14.285 0.0140037
12.7815 12.6855 2
10.9835 10.9835 4
14.4444 11.1124 0.00756869
12.7745 9.306 2
14.6715 7.74927 0
20.5026 33.3794 3.97439
22.9411 33.7871 2
25.2107 34.2539 0.0139032
15.8788 26.3904 3.97369
17.6046 24.0266 2
17.8393 22.3089 0.0145892
14.2943 24.4407 2
15.5122 22.9083 0.0218689
18.3316 30.1579 3.97232
18.994 27.1855 2
19.6372 24.3631 0.0207916
21.0862 30.6444 2
21.8558 27.807 0.0286455
23.6378 31.1707 0.0281166
17.6202 35.9565 3.97673
20.1154 35.9115 2
22.3494 36.2625 0.0180151
20.6157 40.6303 0.0250689
20.0003 37.7751 0.0256139
17.9939 38.9996 2
14.2814 39.176 3.97411
17.3202 42.1055 0.025873
14.7732 41.9228 2
12.3802 42.2795 3.97427
14.8279 44.207 0.0259905
12.6941 44.3968 2
10.5567 44.8043 3.97516
12.9542 46.301 0.0243958
10.9797 46.7369 2
8.90324 47.3195 3.97707
11.4764 48.5539 0.0222737
9.51989 49.2422 2
7.42918 50.0352 3.98136
10.2556 51.0832 0.0202706
8.26177 52.0035 2
6.13164 53.0071 3.98767
9.22846 53.8916 0.016776
7.19065 55.0327 2
5.0241 56.25 4
6.31988 58.3339 2
8.38207 56.9843 0.0114445
7.74927 60.3285 0
13.4531 26.8067 3.97523
11.9305 24.7822 3.97769
13.216 25.3546 2
11.1317 22.2279 3.9805
12.8158 23.2709 2
13.949 21.7414 0.0200498
12.2284 20.5408 2
10.3854 19.3138 3.98475
13.4439 18.8925 0.0173351
11.6556 17.5577 2
9.75968 16.1536 3.98981
13.0263 15.8776 0.0145482
11.2189 14.3702 2
9.30607 12.7746 4
12.7817 12.6856 0.00824924
10.9835 10.9835 2
12.7746 9.30605 0
17.7996 33.0995 3.97295
20.5012 33.3797 2
22.9429 33.7862 0.0241262
15.4671 29.6273 3.97345
15.8789 26.39 2
17.6056 24.0279 0.0200258
14.2946 24.4412 0.023609
18.3305 30.1572 2
18.9937 27.1861 0.0301032
21.0878 30.6455 0.0266202
14.8763 36.0131 3.97418
17.6195 35.9567 2
20.1162 35.9109 0.0194708
12.5797 37.8276 3.97417
17.9952 38.9992 0.0248378
14.2804 39.1766 2
11.8948 40.1415 3.97383
14.7735 41.922 0.0255952
12.38 42.2802 2
10.1555 42.7792 3.97494
12.694 44.396 0.0255676
10.5568 44.8049 2
8.38156 45.321 3.97646
10.9795 46.7362 0.0241585
8.90346 47.3201 2
6.72125 47.9995 3.97996
9.51967 49.2416 0.0213248
7.42936 50.0355 2
5.20855 50.9093 3.98744
8.26169 52.0031 0.0175464
6.13137 53.006 2
3.86727 54.0858 4
7.19102 55.0335 0.012046
5.02404 56.25 2
6.31991 58.3339 0
12.9091 29.0271 3.97189
11.3611 26.4832 3.97648
13.453 26.8059 2
10.1918 23.9637 3.97873
11.9304 24.7814 2
13.2161 25.3553 0.0186329
9.23756 21.134 3.98351
11.1315 22.2269 2
12.8161 23.2717 0.021435
12.2287 20.5419 0.0181468
10.3852 19.3127 2
8.4154 18.0251 3.98897
11.6556 17.5585 0.0147605
9.7595 16.1535 2
7.74928 14.6715 4
11.219 14.3702 0.00919359
9.30602 12.7745 2
10.9835 10.9835 0
14.4604 32.855 3.97341
17.7987 33.0994 2
20.5026 33.3794 0.0256124
15.4663 29.6267 2
15.8788 26.3904 0.0263132
18.3316 30.1579 0.0276833
12.869 36.2054 3.97269
14.8758 36.0133 2
17.6202 35.9565 0.0232662
12.5791 37.8278 2
11.2544 38.3087 3.9735
14.2814 39.176 0.0258909
11.8943 40.1421 2
9.74209 40.7549 3.9744
12.3802 42.2795 0.0257292
10.1554 42.7799 2
7.93069 43.2698 3.9762
10.5567 44.8043 0.0248416
8.3817 45.3215 2
6.12787 45.9043 3.9793
8.90324 47.3195 0.0229274
6.72144 47.9998 2
4.42043 48.7495 3.98708
7.42918 50.0352 0.0186445
5.20844 50.9083 2
2.85457 51.8506 4
6.13164 53.0071 0.0123333
3.86727 54.0858 2
5.0241 56.25 0
12.0506 31.2519 3.97372
10.7745 28.4117 3.97441
12.9086 29.0264 2
9.40742 25.7956 3.97765
11.361 26.4826 2
13.4531 26.8067 0.0247698
8.22529 23.021 3.98165
10.1917 23.9629 2
11.9305 24.7822 0.0223142
7.19746 19.9761 3.98819
9.23744 21.1331 2
11.1317 22.2279 0.0194982
10.3854 19.3138 0.0152478
8.41505 18.0252 2
6.31992 16.6661 4
9.75968 16.1536 0.0101907
7.74926 14.6714 2
9.30607 12.7746 0
12.0708 34.2907 3.97343
14.4598 32.8548 2
17.7996 33.0995 0.0270534
15.4671 29.6273 0.0265484
10.8195 36.6084 3.97221
12.8686 36.2055 2
14.8763 36.0131 0.0258175
12.5797 37.8276 0.0258275
11.2538 38.309 2
9.33904 38.823 3.97367
11.8948 40.1415 0.026175
9.74173 40.7554 2
7.54297 41.2108 3.97555
10.1555 42.7792 0.0250583
7.93067 43.2703 2
5.63996 43.7673 3.97937
8.38156 45.321 0.0235444
6.12802 45.9045 2
3.76638 46.5356 3.98684
6.72125 47.9995 0.020045
4.42041 48.7489 2
1.99014 49.554 4
5.20855 50.9093 0.0125644
2.85451 51.8506 2
3.86727 54.0858 0
10.9145 32.9159 3.97466
10.0883 30.3793 3.97447
12.0502 31.2516 2
8.71631 27.7304 3.97639
10.7741 28.4111 2
12.9091 29.0271 0.0281111
7.35129 24.9814 3.98053
9.40744 25.795 2
11.3611 26.4832 0.0235235
6.11452 22.0012 3.98728
8.2253 23.0203 2
10.1918 23.9637 0.0212747
5.02411 18.75 4
7.19706 19.9767 2
9.23756 21.134 0.0164919
8.4154 18.0251 0.0110324
6.3199 16.6661 2
7.74928 14.6715 0
10.4302 34.9973 3.97411
12.0703 34.2906 2
14.4604 32.855 0.0265924
9.0134 36.9835 3.97218
10.8191 36.6084 2
12.869 36.2054 0.0273121
11.2544 38.3087 0.0264952
9.33866 38.8233 2
7.22535 39.1812 3.97475
9.74209 40.7549 0.0255985
7.54277 41.2113 2
5.25599 41.6131 3.97864
7.93069 43.2698 0.0238048
5.63998 43.7676 2
3.24429 44.2811 3.98667
6.12787 45.9043 0.0207033
3.76642 46.5354 2
1.27781 47.2057 4
4.42043 48.7495 0.0129167
1.99012 49.554 2
2.85457 51.8506 0
10.0822 33.879 3.97479
9.38273 32.1523 3.97475
10.9141 32.9157 2
8.06638 29.6944 3.97588
10.088 30.379 2
12.0506 31.2519 0.0262835
6.59553 27.0082 3.97956
8.71609 27.7298 2
10.7745 28.4117 0.0255874
5.16989 24.0954 3.98695
7.3514 24.981 2
9.40742 25.7956 0.0223507
3.86728 20.9142 4
6.11425 22.0021 2
8.22529 23.021 0.0183517
5.02406 18.75 2
7.19746 19.9761 0.0118088
6.31992 16.6661 0
8.83943 35.2777 3.97369
10.4298 34.9972 2
12.0708 34.2907 0.0265656
7.01097 37.2049 3.97348
9.01311 36.9835 2
10.8195 36.6084 0.0277902
9.33904 38.823 0.0263286
7.22511 39.1815 2
4.98501 39.4665 3.97742
7.54297 41.2108 0.0244496
5.25589 41.6133 2
2.85509 42.0019 3.98594
5.63996 43.7673 0.0206278
3.2443 44.2814 2
0.720592 44.8159 4
3.76638 46.5356 0.0131596
1.27778 47.2057 2
1.99014 49.554 0
8.88018 33.6959 3.97469
10.0818 33.8788 2
7.50498 31.6083 3.97565
9.38236 32.152 2
10.9145 32.9159 0.0253435
5.9413 29.0697 3.97889
8.06615 29.6941 2
10.0883 30.3793 0.0255318
4.35774 26.2485 3.98678
6.59546 27.0079 2
8.71631 27.7304 0.023608
2.85458 23.1494 4
5.16978 24.0962 2
7.35129 24.9814 0.0194658
3.86728 20.9142 2
6.11452 22.0012 0.0127215
5.02411 18.75 0
6.96124 35.3052 3.97402
8.83913 35.2777 2
10.4302 34.9973 0.0258869
4.83619 37.3392 3.9766
7.01079 37.205 2
9.0134 36.9835 0.0278248
7.22535 39.1812 0.0252528
4.98487 39.4667 2
2.60363 39.7138 3.98462
5.25599 41.6131 0.0213615
2.85508 42.0024 2
0.320823 42.3947 4
3.24429 44.2811 0.0133311
0.720551 44.8159 2
1.27781 47.2057 0
7.12004 33.4602 3.97513
8.87983 33.6957 2
10.0822 33.879 0.0252123
5.41294 31.1338 3.97841
7.50468 31.6081 2
9.38273 32.1523 0.0252452
3.67978 28.4443 3.98644
5.94119 29.0696 2
8.06638 29.6944 0.0241162
1.99015 25.446 4
4.35762 26.2491 2
6.59553 27.0082 0.0204368
2.85453 23.1494 2
5.16989 24.0954 0.0130544
3.86728 20.9142 0
4.8506 35.2514 3.97681
6.96101 35.3052 2
8.83943 35.2777 0.0263131
2.49536 37.4285 3.98406
4.8361 37.3394 2
7.01097 37.2049 0.0265154
4.98501 39.4665 0.0225811
2.6036 39.7144 2
0.080333 39.9526 4
2.85509 42.0019 0.0140646
0.320817 42.3947 2
0.720592 44.8159 0
5.04325 33.1903 3.97778
7.11975 33.46 2
8.88018 33.6959 0.0253094
3.14448 30.6666 3.98571
5.41273 31.1338 2
7.50498 31.6083 0.0243453
1.27793 27.7943 4
3.6797 28.4447 2
5.9413 29.0697 0.0211078
1.99013 25.446 2
4.35774 26.2485 0.0132201
2.85458 23.1494 0
2.54755 35.159 3.98406
4.85045 35.2516 2
6.96124 35.3052 0.0259801
0 37.5 4
2.49538 37.429 2
4.83619 37.3392 0.0233961
2.60363 39.7138 0.0153821
0.0802903 39.9526 2
0.320823 42.3947 0
2.76489 32.9059 3.9848
5.04303 33.1905 2
7.12004 33.4602 0.0248659
0.721173 30.1842 4
3.14439 30.6668 2
5.41294 31.1338 0.0215948
1.27779 27.7943 2
3.67978 28.4443 0.0135557
1.99015 25.446 0
0.0806499 35.0474 4
2.54751 35.1595 2
4.8506 35.2514 0.0231948
0 37.5 2
2.49536 37.4285 0.0159436
0.080333 39.9526 0
0.32156 32.6054 4
2.7648 32.9062 2
5.04325 33.1903 0.0222189
0.72056 30.1841 2
3.14448 30.6666 0.0142883
1.27793 27.7943 0
0.0802889 35.0474 2
2.54755 35.159 0.0159365
0 37.5 0
0.320817 32.6053 2
2.76489 32.9059 0.0152015
0.721173 30.1842 0
0.0806499 35.0474 0
0.32156 32.6054 0
CELLS 1910 17190
8 18 6 25 56 2 0 5 16
8 57 23 6 18 17 4 0 2
8 78 36 9 29 31 11 1 7
8 31 11 1 7 79 37 10 30
8 110 57 18 50 48 17 2 14
8 50 18 56 111 14 2 16 49
8 116 62 22 55 52 20 3 15
8 56 25 67 118 16 5 24 53
8 119 63 23 57 54 21 4 17
8 55 22 63 119 15 3 21 54
8 58 26 68 121 18 6 25 56
8 122 65 26 58 57 23 6 18
8 73 31 7 27 142 79 30 71
8 143 78 29 72 73 31 7 27
8 83 147 76 34 32 74 28 8
8 84 148 78 36 33 75 29 9
8 76 34 8 28 148 84 33 75
8 37 79 150 86 10 30 77 35
8 151 87 36 78 80 38 11 31
8 80 38 11 31 152 88 37 79
8 175 100 42 94 96 44 12 40
8 44 96 176 101 12 40 95 43
8 101 176 98 46 43 95 41 13
8 46 98 178 103 13 41 97 45
8 178 103 45 97 147 83 32 74
8 189 116 55 109 106 52 15 47
8 111 56 118 191 49 16 53 107
8 192 119 57 110 108 54 17 48
8 109 55 119 192 47 15 54 108
8 194 122 58 112 110 57 18 50
8 112 58 121 195 50 18 56 111
8 115 61 19 51 197 124 59 113
8 115 61 125 198 51 19 60 114
8 198 125 62 116 114 60 20 52
8 200 127 64 120 116 62 22 55
8 118 67 132 202 53 24 66 117
8 121 68 133 203 56 25 67 118
8 120 64 128 204 55 22 63 119
8 204 128 65 122 119 63 23 57
8 206 134 68 121 123 69 26 58
8 123 69 26 58 207 131 65 122
8 226 147 74 138 140 76 28 70
8 229 148 75 139 143 78 29 72
8 140 76 28 70 229 148 75 139
8 142 79 30 71 231 150 77 141
8 144 80 31 73 232 152 79 142
8 233 151 78 143 144 80 31 73
8 150 86 35 77 235 154 81 145
8 235 154 81 145 146 82 39 91
8 146 82 39 91 236 155 90 165
8 238 157 83 147 149 85 34 76
8 239 158 84 148 151 87 36 78
8 149 85 34 76 239 158 84 148
8 152 88 37 79 241 160 86 150
8 242 161 87 151 153 89 38 80
8 153 89 38 80 243 162 88 152
8 171 98 41 92 265 178 97 169
8 265 178 97 169 226 147 74 138
8 172 96 40 93 266 176 95 170
8 266 176 95 170 171 98 41 92
8 269 175 94 173 172 96 40 93
8 271 180 99 174 175 100 42 94
8 197 124 59 113 271 180 99 174
8 272 181 100 175 177 102 44 96
8 273 182 101 176 179 104 46 98
8 177 102 44 96 273 182 101 176
8 179 104 46 98 275 184 103 178
8 275 184 103 178 238 157 83 147
8 188 115 51 105 283 197 113 186
8 188 115 198 284 105 51 114 187
8 284 198 116 189 187 114 52 106
8 286 200 120 193 189 116 55 109
8 191 118 202 288 107 53 117 190
8 195 121 203 289 111 56 118 191
8 193 120 204 290 109 55 119 192
8 290 204 122 194 192 119 57 110
8 196 123 58 112 292 207 122 194
8 293 206 121 195 196 123 58 112
8 199 126 61 115 297 211 124 197
8 298 212 127 200 198 125 62 116
8 199 126 212 298 115 61 125 198
8 205 129 64 120 300 214 127 200
8 301 217 130 201 202 132 66 117
8 209 136 168 264 301 217 130 201
8 302 219 132 202 203 133 67 118
8 303 220 133 203 206 134 68 121
8 205 129 215 304 120 64 128 204
8 304 215 131 207 204 128 65 122
8 306 221 134 206 208 135 69 123
8 208 135 69 123 307 218 131 207
8 210 137 167 263 309 223 136 209
8 328 238 147 226 230 149 76 140
8 228 146 91 166 329 236 165 260
8 231 150 77 141 330 235 145 227
8 330 235 145 227 228 146 91 166
8 332 239 148 229 233 151 78 143
8 230 149 76 140 332 239 148 229
8 232 152 79 142 334 241 150 231
8 234 153 80 144 335 243 152 232
8 336 242 151 233 234 153 80 144
8 236 155 90 165 338 245 164 259
8 241 160 86 150 339 246 154 235
8 339 246 154 235 237 156 82 146
8 237 156 82 146 340 247 155 236
8 342 249 157 238 240 159 85 149
8 343 250 158 239 242 161 87 151
8 240 159 85 149 343 250 158 239
8 243 162 88 152 345 252 160 241
8 244 163 253 346 153 89 161 242
8 244 163 89 153 347 254 162 243
8 311 224 261 371 210 137 167 263
8 263 167 262 372 209 136 168 264
8 267 179 98 171 375 275 178 265
8 375 275 178 265 328 238 147 226
8 376 273 176 266 267 179 98 171
8 268 177 96 172 376 273 176 266
8 379 272 175 269 268 177 96 172
8 380 271 174 270 269 175 94 173
8 283 197 113 186 380 271 174 270
8 381 277 180 271 272 181 100 175
8 297 211 124 197 381 277 180 271
8 382 278 181 272 274 183 102 177
8 274 183 102 177 383 279 182 273
8 383 279 182 273 276 185 104 179
8 385 281 184 275 342 249 157 238
8 276 185 104 179 385 281 184 275
8 285 199 115 188 393 297 197 283
8 394 298 200 286 284 198 116 189
8 285 199 298 394 188 115 198 284
8 291 205 120 193 396 300 200 286
8 397 301 201 287 288 202 117 190
8 295 209 264 374 397 301 201 287
8 398 302 202 288 289 203 118 191
8 399 303 203 289 293 206 121 195
8 291 205 304 400 193 120 204 290
8 400 304 207 292 290 204 122 194
8 294 208 123 196 402 307 207 292
8 403 306 206 293 294 208 123 196
8 296 210 263 373 405 309 209 295
8 408 312 213 299 297 211 126 199
8 299 213 313 409 199 126 212 298
8 409 313 214 300 298 212 127 200
8 305 216 129 205 411 315 214 300
8 412 318 217 301 302 219 132 202
8 309 223 136 209 412 318 217 301
8 413 320 219 302 303 220 133 203
8 306 221 321 414 206 134 220 303
8 307 218 131 207 415 316 215 304
8 305 216 316 415 205 129 215 304
8 417 322 221 306 308 222 135 208
8 308 222 135 208 418 319 218 307
8 310 225 137 210 420 325 223 309
8 423 326 224 311 310 225 137 210
8 329 236 165 260 441 338 259 368
8 442 342 238 328 333 240 149 230
8 331 237 146 228 443 340 236 329
8 334 241 150 231 444 339 235 330
8 444 339 235 330 331 237 146 228
8 446 343 239 332 336 242 151 233
8 333 240 149 230 446 343 239 332
8 335 243 152 232 448 345 241 334
8 337 244 153 234 449 347 243 335
8 337 244 346 450 234 153 242 336
8 338 245 164 259 452 349 258 367
8 340 247 155 236 453 350 245 338
8 345 252 160 241 454 351 246 339
8 454 351 246 339 341 248 156 237
8 341 248 156 237 455 352 247 340
8 240 159 251 344 342 249 354 457
8 242 161 253 346 343 250 355 458
8 343 250 355 458 240 159 251 344
8 347 254 162 243 460 357 252 345
8 348 255 358 461 244 163 253 346
8 348 255 163 244 462 359 254 347
8 473 360 257 365 363 256 364 482
8 452 349 258 367 365 257 366 485
8 422 324 369 488 311 224 261 371
8 371 261 370 490 263 167 262 372
8 407 311 371 491 296 210 263 373
8 373 263 372 492 295 209 264 374
8 493 385 275 375 442 342 238 328
8 377 276 179 267 493 385 275 375
8 378 274 177 268 494 383 273 376
8 494 383 273 376 377 276 179 267
8 497 382 272 379 378 274 177 268
8 498 381 271 380 379 272 175 269
8 393 297 197 283 498 381 271 380
8 499 387 277 381 382 278 181 272
8 408 312 211 297 499 387 277 381
8 500 388 278 382 384 280 183 274
8 501 389 279 383 386 282 185 276
8 384 280 183 274 501 389 279 383
8 386 282 185 276 503 391 281 385
8 503 391 281 385 457 354 249 342
8 511 408 299 395 393 297 199 285
8 395 299 409 512 285 199 298 394
8 512 409 300 396 394 298 200 286
8 401 305 205 291 514 411 300 396
8 515 412 301 397 398 302 202 288
8 405 309 209 295 515 412 301 397
8 516 413 302 398 399 303 203 289
8 403 306 414 517 293 206 303 399
8 402 307 207 292 518 415 304 400
8 401 305 415 518 291 205 304 400
8 404 308 208 294 520 418 307 402
8 521 417 306 403 404 308 208 294
8 406 310 210 296 523 420 309 405
8 526 423 311 407 406 310 210 296
8 410 314 213 299 527 424 312 408
8 528 425 315 411 409 313 214 300
8 410 314 425 528 299 213 313 409
8 416 317 216 305 530 427 315 411
8 531 430 318 412 413 320 219 302
8 420 325 223 309 531 430 318 412
8 532 432 320 413 414 321 220 303
8 417 322 433 533 306 221 321 414
8 418 319 218 307 534 428 316 415
8 416 317 428 534 305 216 316 415
8 419 323 434 536 308 222 322 417
8 419 323 222 308 537 431 319 418
8 421 327 225 310 539 438 325 420
8 421 327 439 541 310 225 326 423
8 543 437 324 422 423 326 224 311
8 441 338 259 368 559 452 367 486
8 443 340 236 329 560 453 338 441
8 333 240 344 447 442 342 457 561
8 445 341 237 331 562 455 340 443
8 448 345 241 334 563 454 339 444
8 563 454 339 444 445 341 237 331
8 336 242 346 450 446 343 458 565
8 446 343 458 565 333 240 344 447
8 449 347 243 335 567 460 345 448
8 451 348 244 337 568 462 347 449
8 451 348 461 569 337 244 346 450
8 570 463 349 452 473 360 257 365
8 453 350 245 338 570 463 349 452
8 455 352 247 340 571 464 350 453
8 460 357 252 345 572 465 351 454
8 572 465 351 454 456 353 248 341
8 456 353 248 341 573 466 352 455
8 344 251 356 459 457 354 468 575
8 458 355 469 576 344 251 356 459
8 346 253 358 461 458 355 469 576
8 462 359 254 347 578 471 357 460
8 348 255 359 462 461 358 472 579
8 591 474 360 473 475 361 256 363
8 475 361 256 363 594 477 362 479
8 363 256 364 482 479 362 480 603
8 590 473 365 484 481 363 482 605
8 482 364 257 365 606 483 366 485
8 559 452 367 486 484 365 485 607
8 542 436 487 609 422 324 369 488
8 525 422 488 611 407 311 371 491
8 488 369 489 612 371 261 370 490
8 491 371 490 613 373 263 372 492
8 495 386 276 377 614 503 385 493
8 614 503 385 493 561 457 342 442
8 615 501 383 494 495 386 276 377
8 496 384 274 378 615 501 383 494
8 618 500 382 497 496 384 274 378
8 619 499 381 498 497 382 272 379
8 511 408 297 393 619 499 381 498
8 620 505 387 499 500 388 278 382
8 527 424 312 408 620 505 387 499
8 502 390 506 621 384 280 388 500
8 622 507 389 501 504 392 282 386
8 502 390 280 384 622 507 389 501
8 504 392 282 386 624 509 391 503
8 624 509 391 503 575 468 354 457
8 513 410 299 395 630 527 408 511
8 631 528 411 514 512 409 300 396
8 513 410 528 631 395 299 409 512
8 519 416 305 401 633 530 411 514
8 634 531 412 515 516 413 302 398
8 523 420 309 405 634 531 412 515
8 635 532 413 516 517 414 303 399
8 521 417 533 636 403 306 414 517
8 520 418 307 402 637 534 415 518
8 519 416 534 637 401 305 415 518
8 522 419 308 404 639 537 418 520
8 522 419 536 640 404 308 417 521
8 524 421 310 406 642 539 420 523
8 524 421 541 644 406 310 423 526
8 646 543 422 525 526 423 311 407
8 529 426 314 410 647 544 424 527
8 528 425 545 648 411 315 427 530
8 529 426 545 648 410 314 425 528
8 535 429 317 416 649 546 427 530
8 650 548 430 531 532 432 320 413
8 539 438 325 420 650 548 430 531
8 533 433 550 651 414 321 432 532
8 536 434 551 652 417 322 433 533
8 537 431 319 418 653 547 428 534
8 535 429 547 653 416 317 428 534
8 538 435 552 654 419 323 434 536
8 538 435 323 419 655 549 431 537
8 540 440 327 421 657 556 438 539
8 540 440 557 659 421 327 439 541
8 541 439 555 660 423 326 437 543
8 661 554 436 542 543 437 324 422
8 676 570 452 559 590 473 365 484
8 560 453 338 441 676 570 452 559
8 562 455 340 443 677 571 453 560
8 447 344 459 566 561 457 575 678
8 564 456 341 445 679 573 455 562
8 567 460 345 448 680 572 454 563
8 680 572 454 563 564 456 341 445
8 565 458 576 682 447 344 459 566
8 450 346 461 569 565 458 576 682
8 568 462 347 449 684 578 460 567
8 451 348 462 568 569 461 579 685
8 686 580 463 570 591 474 360 473
8 571 464 350 453 686 580 463 570
8 573 466 352 455 687 581 464 571
8 572 465 582 688 460 357 471 578
8 574 467 582 688 456 353 465 572
8 574 467 353 456 689 583 466 573
8 459 356 470 577 575 468 585 691
8 576 469 586 692 459 356 470 577
8 461 358 472 579 576 469 586 692
8 462 359 471 578 579 472 588 694
8 704 591 473 590 593 475 363 481
8 595 476 592 705 475 361 474 591
8 593 475 363 481 707 594 479 602
8 594 477 362 479 709 598 478 600
8 595 476 361 475 711 597 477 594
8 479 362 480 603 600 478 601 720
8 481 363 482 605 602 479 603 722
8 603 480 364 482 723 604 483 606
8 605 482 365 484 724 606 485 607
8 656 553 608 726 542 436 487 609
8 645 542 609 728 525 422 488 611
8 609 487 610 729 488 369 489 612
8 611 488 612 730 491 371 490 613
8 616 504 386 495 731 624 503 614
8 731 624 503 614 678 575 457 561
8 732 622 501 615 616 504 386 495
8 617 502 384 496 732 622 501 615
8 617 502 621 735 496 384 500 618
8 736 620 499 619 618 500 382 497
8 630 527 408 511 736 620 499 619
8 621 506 626 737 500 388 505 620
8 647 544 424 527 737 626 505 620
8 623 508 627 738 502 390 506 621
8 623 508 390 502 739 628 507 622
8 625 510 628 739 504 392 507 622
8 740 629 509 624 691 585 468 575
8 625 510 392 504 740 629 509 624
8 632 529 410 513 744 647 527 630
8 631 528 648 745 514 411 530 633
8 632 529 648 745 513 410 528 631
8 638 535 416 519 746 649 530 633
8 747 650 531 634 635 532 413 516
8 642 539 420 523 747 650 531 634
8 636 533 651 748 517 414 532 635
8 640 536 652 749 521 417 533 636
8 639 537 418 520 750 653 534 637
8 638 535 653 750 519 416 534 637
8 641 538 419 522 751 655 537 639
8 641 538 654 752 522 419 536 640
8 643 540 421 524 753 657 539 642
8 643 540 659 755 524 421 541 644
8 644 541 660 757 526 423 543 646
8 758 661 542 645 646 543 422 525
8 529 426 544 647 648 545 662 759
8 530 427 545 648 649 546 663 760
8 535 429 546 649 653 547 664 761
8 762 666 548 650 651 550 432 532
8 657 556 438 539 762 666 548 650
8 652 551 668 763 533 433 550 651
8 654 552 669 764 536 434 551 652
8 655 549 431 537 765 665 547 653
8 538 435 549 655 654 552 667 766
8 661 554 671 768 542 436 553 656
8 658 558 440 540 769 674 556 657
8 658 558 675 770 540 440 557 659
8 659 557 673 771 541 439 555 660
8 660 555 672 772 543 437 554 661
8 788 686 570 676 704 591 473 590
8 677 571 453 560 788 686 570 676
8 679 573 455 562 789 687 571 677
8 566 459 577 683 678 575 691 790
8 681 574 456 564 791 689 573 679
8 680 572 688 792 567 460 578 684
8 681 574 688 792 564 456 572 680
8 682 576 692 794 566 459 577 683
8 569 461 579 685 682 576 692 794
8 568 462 578 684 685 579 694 796
8 687 581 464 571 798 696 580 686
8 798 696 580 686 705 592 474 591
8 689 583 466 573 799 697 581 687
8 688 582 698 800 578 471 588 694
8 690 584 698 800 574 467 582 688
8 690 584 467 574 801 699 583 689
8 693 587 701 803 577 470 585 691
8 693 587 470 577 804 702 586 692
8 695 589 702 804 579 472 586 692
8 695 589 472 579 805 703 588 694
8 708 595 705 813 593 475 591 704
8 710 596 706 814 595 476 592 705
8 707 594 479 602 816 709 600 719
8 708 595 475 593 817 711 594 707
8 709 598 478 600 819 715 599 717
8 711 597 477 594 820 714 598 709
8 710 596 476 595 822 713 597 711
8 600 478 601 720 717 599 718 832
8 602 479 603 722 719 600 720 834
8 720 601 480 603 835 721 604 723
8 722 603 482 605 836 723 606 724
8 767 670 725 839 656 553 608 726
8 756 656 726 841 645 542 609 728
8 726 608 727 842 609 487 610 729
8 728 609 729 843 611 488 612 730
8 844 740 624 731 790 691 575 678
8 733 625 504 616 844 740 624 731
8 734 623 502 617 845 739 622 732
8 733 625 739 845 616 504 622 732
8 734 623 738 846 617 502 621 735
8 735 621 737 847 618 500 620 736
8 744 647 527 630 847 737 620 736
8 621 506 627 738 737 626 741 848
8 647 544 626 737 759 662 741 848
8 623 508 628 739 738 627 742 849
8 740 629 585 691 850 743 700 802
8 625 510 629 740 739 628 743 850
8 632 529 647 744 745 648 759 854
8 633 530 648 745 746 649 760 855
8 638 535 649 746 750 653 761 856
8 857 762 650 747 748 651 532 635
8 753 657 539 642 857 762 650 747
8 749 652 763 858 636 533 651 748
8 752 654 764 859 640 536 652 749
8 751 655 537 639 860 765 653 750
8 641 538 655 751 752 654 766 861
8 754 658 540 643 862 769 657 753
8 754 658 770 863 643 540 659 755
8 755 659 771 864 644 541 660 757
8 758 661 768 866 645 542 656 756
8 757 660 772 867 646 543 661 758
8 759 662 773 868 648 545 663 760
8 649 546 663 760 761 664 774 871
8 765 665 547 653 872 775 664 761
8 873 777 666 762 763 668 550 651
8 769 674 556 657 873 777 666 762
8 764 669 779 874 652 551 668 763
8 654 552 667 766 764 669 778 875
8 655 549 665 765 766 667 776 876
8 768 671 782 877 656 553 670 767
8 772 672 783 878 661 554 671 768
8 658 558 674 769 770 675 786 879
8 659 557 675 770 771 673 785 881
8 882 784 672 772 771 673 555 660
8 789 687 571 677 897 798 686 788
8 897 798 686 788 813 705 591 704
8 791 689 573 679 898 799 687 789
8 795 693 803 900 683 577 691 790
8 793 690 574 681 901 801 689 791
8 792 688 800 902 684 578 694 796
8 793 690 800 902 681 574 688 792
8 795 693 577 683 903 804 692 794
8 797 695 804 903 685 579 692 794
8 797 695 579 685 904 805 694 796
8 905 806 697 799 798 696 581 687
8 814 706 806 905 705 592 696 798
8 689 583 697 799 801 699 808 907
8 800 698 809 908 694 588 703 805
8 690 584 699 801 800 698 809 908
8 803 701 810 909 691 585 700 802
8 693 587 702 804 803 701 811 910
8 695 589 703 805 804 702 812 911
8 818 710 814 919 708 595 705 813
8 821 712 815 920 710 596 706 814
8 816 709 600 719 922 819 717 831
8 817 711 594 707 923 820 709 816
8 818 710 595 708 924 822 711 817
8 819 715 599 717 926 827 716 829
8 820 714 598 709 927 826 715 819
8 929 825 713 822 820 714 597 711
8 821 712 596 710 930 824 713 822
8 717 599 718 832 829 716 830 942
8 719 600 720 834 831 717 832 944
8 832 718 601 720 945 833 721 835
8 834 720 603 722 946 835 723 836
8 869 780 838 950 767 670 725 839
8 865 767 839 952 756 656 726 841
8 839 725 840 953 726 608 727 842
8 841 726 842 954 728 609 729 843
8 844 740 691 790 955 850 802 899
8 733 625 740 844 845 739 850 955
8 734 623 739 845 846 738 849 956
8 735 621 738 846 847 737 848 957
8 744 647 737 847 854 759 848 957
8 738 627 742 849 848 741 851 958
8 848 741 851 958 759 662 773 868
8 850 743 700 802 959 852 807 906
8 849 742 628 739 959 852 743 850
8 854 759 868 965 745 648 760 855
8 746 649 760 855 856 761 871 966
8 860 765 653 750 967 872 761 856
8 968 873 762 857 858 763 651 748
8 862 769 657 753 968 873 762 857
8 859 764 874 969 749 652 763 858
8 752 654 766 861 859 764 875 970
8 751 655 765 860 861 766 876 971
8 754 658 769 862 863 770 879 972
8 755 659 770 863 864 771 881 974
8 976 882 772 867 864 771 660 757
8 866 768 877 977 756 656 767 865
8 867 772 878 978 758 661 768 866
8 760 663 773 868 871 774 883 980
8 870 781 837 948 982 890 780 869
8 982 890 780 869 877 782 670 767
8 761 664 774 871 872 775 884 984
8 876 776 665 765 985 885 775 872
8 873 777 668 763 986 887 779 874
8 769 674 777 873 879 786 887 986
8 764 669 778 875 874 779 888 987
8 766 667 776 876 875 778 886 988
8 878 783 892 989 768 671 782 877
8 878 783 672 772 990 893 784 882
8 880 787 675 770 991 896 786 879
8 880 787 895 992 770 675 785 881
8 881 785 894 993 771 673 784 882
8 1006 905 799 898 897 798 687 789
8 919 814 905 1006 813 705 798 897
8 791 689 799 898 901 801 907 1007
8 900 803 909 1009 790 691 802 899
8 795 693 804 903 900 803 910 1010
8 902 800 908 1011 796 694 805 904
8 793 690 801 901 902 800 908 1011
8 797 695 805 904 903 804 911 1012
8 799 697 806 905 907 808 912 1013
8 920 815 912 1013 814 706 806 905
8 802 700 810 909 906 807 913 1014
8 801 699 808 907 908 809 914 1015
8 805 703 809 908 911 812 915 1016
8 803 701 811 910 909 810 916 1017
8 911 812 917 1018 804 702 811 910
8 925 821 920 1030 818 710 814 919
8 928 823 921 1031 821 712 815 920
8 922 819 717 831 1033 926 829 941
8 923 820 709 816 1034 927 819 922
8 1035 929 822 924 923 820 711 817
8 925 821 710 818 1036 930 822 924
8 1038 933 825 929 927 826 714 820
8 926 827 716 829 1039 935 828 939
8 927 826 715 819 1040 934 827 926
8 928 823 712 821 1041 931 824 930
8 1042 932 824 930 929 825 713 822
8 829 716 830 942 939 828 940 1058
8 831 717 832 944 941 829 942 1060
8 942 830 718 832 1061 943 833 945
8 944 832 720 834 1062 945 835 946
8 981 889 947 1064 870 781 837 948
8 948 837 949 1067 869 780 838 950
8 975 869 950 1069 865 767 839 952
8 950 838 951 1070 839 725 840 953
8 952 839 953 1071 841 726 842 954
8 955 850 802 899 1072 959 906 1008
8 956 849 739 845 1072 959 850 955
8 846 738 849 956 957 848 958 1073
8 957 848 958 1073 854 759 868 965
8 849 742 852 959 958 851 961 1076
8 960 853 961 1076 906 807 852 959
8 958 851 961 1076 868 773 883 980
8 960 853 807 906 1077 963 913 1014
8 855 760 868 965 966 871 980 1085
8 856 761 871 966 967 872 984 1086
8 971 876 765 860 1087 985 872 967
8 968 873 763 858 1088 986 874 969
8 862 769 873 968 972 879 986 1088
8 859 764 875 970 969 874 987 1089
8 861 766 876 971 970 875 988 1090
8 973 880 770 863 1091 991 879 972
8 973 880 992 1092 863 770 881 974
8 974 881 993 1093 864 771 882 976
8 979 870 948 1066 1094 982 869 975
8 1094 982 869 975 977 877 767 865
8 978 878 772 867 1095 990 882 976
8 978 878 989 1096 866 768 877 977
8 871 774 883 980 984 884 994 1099
8 983 891 999 1100 870 781 889 981
8 1101 1000 890 982 989 892 782 877
8 983 891 781 870 1101 1000 890 982
8 872 775 884 984 985 885 995 1103
8 876 776 885 985 988 886 996 1104
8 986 887 779 874 1105 998 888 987
8 879 786 887 986 991 896 998 1105
8 875 778 886 988 987 888 997 1106
8 990 893 1002 1107 878 783 892 989
8 1108 1003 893 990 993 894 784 882
8 880 787 896 991 992 895 1005 1109
8 993 894 785 881 1110 1004 895 992
8 898 799 905 1006 1007 907 1013 1120
8 1030 920 1013 1120 919 814 905 1006
8 901 801 907 1007 1011 908 1015 1121
8 899 802 909 1009 1008 906 1014 1122
8 900 803 910 1010 1009 909 1017 1123
8 1012 911 1018 1124 903 804 910 1010
8 904 805 908 1011 1012 911 1016 1125
8 1013 912 1020 1127 907 808 914 1015
8 1031 921 1020 1127 920 815 912 1013
8 1019 918 962 1075 1128 1021 913 1014
8 1128 1021 913 1014 1017 916 810 909
8 1015 914 1022 1129 908 809 915 1016
8 1016 915 1023 1130 911 812 917 1018
8 1018 917 1024 1131 910 811 916 1017
8 1037 928 1031 1148 925 821 920 1030
8 928 823 931 1041 1031 921 1032 1149
8 1033 926 829 941 1151 1039 939 1057
8 1034 927 819 922 1152 1040 926 1033
8 1153 1038 929 1035 1034 927 820 923
8 1154 1042 930 1036 1035 929 822 924
8 1037 928 821 925 1155 1041 930 1036
8 1039 935 828 939 1156 1047 938 1055
8 1157 1043 932 1042 1038 933 825 929
8 1038 933 826 927 1158 1045 934 1040
8 1040 934 827 926 1159 1046 935 1039
8 930 824 932 1042 1041 931 1044 1160
8 1051 936 1048 1165 1175 1052 937 1053
8 1156 1047 938 1055 1053 937 1054 1178
8 939 828 940 1058 1055 938 1056 1181
8 941 829 942 1060 1057 939 1058 1183
8 942 830 943 1061 1058 940 1059 1184
8 1060 942 832 944 1185 1061 945 1062
8 1082 964 1063 1188 981 889 947 1064
8 1097 981 1064 1190 979 870 948 1066
8 1064 947 1065 1191 948 837 949 1067
8 1066 948 1067 1193 975 869 950 1069
8 1067 949 1068 1194 950 838 951 1070
8 1069 950 1070 1195 952 839 953 1071
8 956 849 959 1072 1073 958 1076 1197
8 1074 960 1076 1197 1008 906 959 1072
8 1073 958 1076 1197 965 868 980 1085
8 1074 960 906 1008 1198 1077 1014 1122
8 1133 1026 1079 1199 1019 918 962 1075
8 1077 963 913 1014 1200 1080 962 1075
8 960 853 963 1077 1076 961 1078 1201
8 980 883 961 1076 1099 994 1078 1201
8 1210 1083 964 1082 1100 999 889 981
8 966 871 980 1085 1086 984 1099 1215
8 967 872 984 1086 1087 985 1103 1216
8 971 876 985 1087 1090 988 1104 1217
8 1088 986 874 969 1218 1105 987 1089
8 972 879 986 1088 1091 991 1105 1218
8 970 875 988 1090 1089 987 1106 1219
8 973 880 991 1091 1092 992 1109 1220
8 1093 993 881 974 1221 1110 992 1092
8 1222 1108 990 1095 1093 993 882 976
8 1223 1101 982 1094 1096 989 877 977
8 1098 983 870 979 1223 1101 982 1094
8 1095 990 1107 1224 978 878 989 1096
8 1098 983 1100 1225 979 870 981 1097
8 984 884 994 1099 1103 995 1111 1227
8 1102 1001 1115 1228 983 891 999 1100
8 1101 1000 892 989 1229 1116 1002 1107
8 1102 1001 891 983 1229 1116 1000 1101
8 985 885 995 1103 1104 996 1112 1230
8 988 886 996 1104 1106 997 1113 1231
8 1105 998 888 987 1232 1114 997 1106
8 991 896 998 1105 1109 1005 1114 1232
8 1108 1003 1117 1233 990 893 1002 1107
8 1108 1003 894 993 1233 1117 1004 1110
8 992 895 1005 1109 1110 1004 1118 1234
8 1120 1013 1127 1244 1007 907 1015 1121
8 1148 1031 1127 1244 1030 920 1013 1120
8 1121 1015 1129 1245 1011 908 1016 1125
8 1126 1019 1075 1196 1246 1128 1014 1122
8 1246 1128 1014 1122 1123 1017 909 1009
8 1124 1018 1131 1247 1010 910 1017 1123
8 1125 1016 1130 1248 1012 911 1018 1124
8 1127 1020 1137 1254 1015 914 1022 1129
8 1031 921 1032 1149 1127 1020 1137 1254
8 1134 1027 918 1019 1257 1140 1021 1128
8 1257 1140 1021 1128 1131 1024 916 1017
8 1129 1022 1141 1258 1016 915 1023 1130
8 1130 1023 1142 1259 1018 917 1024 1131
8 1261 1144 1025 1132 1133 1026 1079 1199
8 1255 1138 1025 1132 1135 1028 1144 1261
8 1133 1026 918 1019 1262 1145 1027 1134
8 1136 1029 1139 1256 1263 1146 1028 1135
8 1037 928 1041 1155 1148 1031 1149 1275
8 1041 931 1044 1160 1149 1032 1150 1276
8 1151 1039 939 1057 1278 1156 1055 1180
8 1152 1040 926 1033 1279 1159 1039 1151
8 1153 1038 927 1034 1280 1158 1040 1152
8 1281 1157 1042 1154 1153 1038 929 1035
8 1036 930 1042 1154 1155 1041 1160 1282
8 1283 1164 1046 1159 1156 1047 935 1039
8 1165 1048 1164 1283 1053 937 1047 1156
8 1157 1043 933 1038 1284 1161 1045 1158
8 1157 1043 1161 1284 1042 932 1044 1160
8 1040 934 1046 1159 1158 1045 1163 1285
8 1166 1049 1167 1292 1051 936 1048 1165
8 1166 1049 936 1051 1293 1168 1050 1172
8 1051 936 1052 1175 1172 1050 1173 1306
8 1174 1051 1165 1290 1308 1175 1053 1177
8 1053 937 1054 1178 1175 1052 1176 1309
8 1278 1156 1055 1180 1177 1053 1178 1311
8 1055 938 1056 1181 1178 1054 1179 1312
8 1057 939 1058 1183 1180 1055 1181 1314
8 1058 940 1059 1184 1181 1056 1182 1315
8 1060 942 1061 1185 1183 1058 1184 1316
8 1208 1081 1187 1321 1082 964 1063 1188
8 1209 1082 1188 1322 1097 981 1064 1190
8 1188 1063 1189 1323 1064 947 1065 1191
8 1190 1064 1191 1325 1066 948 1067 1193
8 1191 1065 1192 1326 1067 949 1068 1194
8 1067 1193 1069 950 1194 1327 1195 1070
8 1250 1133 1199 1330 1126 1019 1075 1196
8 1198 1077 1014 1122 1331 1200 1075 1196
8 1074 960 1077 1198 1197 1076 1201 1332
8 1085 980 1076 1197 1215 1099 1201 1332
8 1199 1079 1203 1333 1075 962 1080 1200
8 1132 1025 1119 1243 1199 1079 1203 1333
8 1201 1078 963 1077 1334 1202 1080 1200
8 1099 994 1078 1201 1227 1111 1202 1334
8 1343 1207 1081 1208 1210 1083 964 1082
8 1214 1084 1186 1319 1343 1207 1081 1208
8 1345 1210 1082 1209 1225 1100 981 1097
8 1346 1211 1083 1210 1228 1115 999 1100
8 1086 984 1099 1215 1216 1103 1227 1352
8 1087 985 1103 1216 1217 1104 1230 1353
8 1090 988 1104 1217 1219 1106 1231 1354
8 1218 1105 987 1089 1355 1232 1106 1219
8 1091 991 1105 1218 1220 1109 1232 1355
8 1092 992 1109 1220 1221 1110 1234 1356
8 1222 1108 1233 1357 1095 990 1107 1224
8 1222 1108 993 1093 1357 1233 1110 1221
8 1223 1101 989 1096 1358 1229 1107 1224
8 1226 1102 983 1098 1358 1229 1101 1223
8 1226 1102 1228 1359 1098 983 1100 1225
8 1103 995 1111 1227 1230 1112 1235 1360
8 1107 1002 1117 1233 1229 1116 1240 1362
8 1102 1001 1116 1229 1228 1115 1240 1362
8 1104 996 1112 1230 1231 1113 1236 1363
8 1364 1237 1114 1232 1231 1113 997 1106
8 1109 1005 1114 1232 1234 1118 1238 1365
8 1110 1004 1118 1234 1233 1117 1241 1366
8 1242 1374 1255 1138 1119 1243 1132 1025
8 1244 1127 1254 1376 1121 1015 1129 1245
8 1148 1031 1149 1275 1244 1127 1254 1376
8 1245 1129 1258 1377 1125 1016 1130 1248
8 1251 1134 1019 1126 1378 1257 1128 1246
8 1378 1257 1128 1246 1247 1131 1017 1123
8 1248 1130 1259 1379 1124 1018 1131 1247
8 1261 1381 1250 1133 1132 1249 1330 1199
8 1255 1380 1252 1135 1132 1249 1381 1261
8 1250 1133 1019 1126 1382 1262 1134 1251
8 1253 1136 1256 1385 1384 1263 1135 1252
8 1254 1137 1265 1387 1129 1022 1141 1258
8 1149 1032 1150 1276 1254 1137 1265 1387
8 1028 1135 1255 1138 1139 1256 1388 1266
8 1136 1029 1147 1264 1256 1139 1267 1389
8 1390 1268 1140 1257 1259 1142 1024 1131
8 1260 1143 1027 1134 1390 1268 1140 1257
8 1258 1141 1269 1391 1130 1023 1142 1259
8 1262 1145 1027 1134 1393 1271 1143 1260
8 1261 1144 1026 1133 1394 1272 1145 1262
8 1135 1028 1144 1261 1263 1146 1272 1394
8 1136 1029 1146 1263 1264 1147 1273 1395
8 1155 1041 1160 1282 1275 1149 1276 1405
8 1276 1150 1044 1160 1406 1277 1162 1286
8 1408 1283 1159 1279 1278 1156 1039 1151
8 1290 1165 1283 1408 1177 1053 1156 1278
8 1152 1040 1159 1279 1280 1158 1285 1409
8 1281 1157 1038 1153 1410 1284 1158 1280
8 1281 1157 1284 1410 1154 1042 1160 1282
8 1159 1046 1164 1283 1285 1163 1289 1412
8 1292 1167 1289 1412 1165 1048 1164 1283
8 1158 1045 1163 1285 1284 1161 1288 1413
8 1284 1161 1288 1413 1160 1044 1162 1286
8 1291 1166 1292 1418 1174 1051 1165 1290
8 1291 1166 1051 1174 1419 1293 1172 1305
8 1294 1169 1296 1421 1166 1049 1167 1292
8 1293 1168 1050 1172 1422 1295 1171 1303
8 1294 1169 1049 1166 1423 1297 1168 1293
8 1422 1295 1171 1303 1301 1170 1302 1435
8 1172 1050 1173 1306 1303 1171 1304 1438
8 1174 1051 1175 1308 1305 1172 1306 1440
8 1175 1052 1176 1309 1306 1173 1307 1441
8 1177 1053 1178 1311 1308 1175 1309 1443
8 1178 1054 1179 1312 1309 1176 1310 1444
8 1180 1055 1181 1314 1311 1178 1312 1446
8 1056 1181 1312 1179 1182 1315 1447 1313
8 1183 1058 1184 1316 1314 1181 1315 1448
8 1319 1186 1084 1214 1451 1317 1213 1350
8 1319 1186 1318 1453 1208 1081 1187 1321
8 1321 1187 1320 1456 1188 1063 1189 1323
8 1344 1208 1321 1457 1209 1082 1188 1322
8 1322 1188 1323 1458 1190 1064 1191 1325
8 1323 1189 1324 1459 1191 1065 1192 1326
8 1191 1325 1193 1067 1326 1460 1327 1194
8 1242 1374 1243 1119 1328 1462 1335 1204
8 1330 1199 1333 1465 1196 1075 1200 1331
8 1132 1249 1330 1199 1243 1375 1465 1333
8 1332 1201 1077 1198 1466 1334 1200 1331
8 1215 1099 1201 1332 1352 1227 1334 1466
8 1119 1243 1333 1203 1204 1335 1470 1338
8 1333 1203 1338 1470 1200 1080 1202 1334
8 1227 1111 1202 1334 1360 1235 1338 1470
8 1328 1462 1335 1204 1205 1336 1471 1339
8 1337 1206 1340 1472 1464 1329 1205 1336
8 1346 1211 1342 1479 1210 1083 1207 1343
8 1346 1211 1115 1228 1479 1342 1239 1361
8 1348 1212 1084 1214 1479 1342 1207 1343
8 1480 1343 1208 1344 1345 1210 1082 1209
8 1351 1214 1319 1454 1480 1343 1208 1344
8 1481 1346 1210 1345 1359 1228 1100 1225
8 1348 1212 1347 1483 1214 1084 1213 1350
8 1216 1103 1227 1352 1353 1230 1360 1488
8 1217 1104 1230 1353 1354 1231 1363 1489
8 1490 1364 1232 1355 1354 1231 1106 1219
8 1220 1109 1232 1355 1356 1234 1365 1491
8 1221 1110 1234 1356 1357 1233 1366 1492
8 1224 1107 1233 1357 1358 1229 1362 1493
8 1226 1102 1229 1358 1359 1228 1362 1493
8 1230 1112 1235 1360 1363 1236 1367 1496
8 1361 1239 1115 1228 1497 1371 1240 1362
8 1366 1241 1372 1498 1233 1117 1240 1362
8 1364 1237 1113 1231 1499 1368 1236 1363
8 1364 1237 1368 1499 1232 1114 1238 1365
8 1234 1118 1238 1365 1366 1241 1369 1500
8 1507 1373 1242 1374 1388 1266 1138 1255
8 1508 1374 1243 1375 1380 1255 1132 1249
8 1376 1254 1387 1509 1245 1129 1258 1377
8 1275 1149 1276 1405 1376 1254 1387 1509
8 1377 1258 1391 1510 1248 1130 1259 1379
8 1511 1390 1257 1378 1379 1259 1131 1247
8 1383 1260 1134 1251 1511 1390 1257 1378
8 1252 1135 1256 1385 1380 1255 1388 1512
8 1261 1381 1513 1394 1133 1250 1382 1262
8 1135 1252 1384 1263 1261 1381 1513 1394
8 1382 1262 1134 1251 1514 1393 1260 1383
8 1253 1136 1263 1384 1386 1264 1395 1516
8 1253 1136 1264 1386 1385 1256 1389 1517
8 1387 1265 1397 1519 1258 1141 1269 1391
8 1276 1150 1277 1406 1387 1265 1397 1519
8 1256 1139 1267 1389 1388 1266 1398 1520
8 1264 1147 1274 1396 1389 1267 1399 1521
8 1392 1270 1143 1260 1522 1400 1268 1390
8 1390 1268 1142 1259 1522 1400 1269 1391
8 1392 1270 1401 1523 1260 1143 1271 1393
8 1272 1394 1524 1402 1145 1262 1393 1271
8 1395 1273 1146 1263 1524 1402 1272 1394
8 1273 1395 1264 1147 1403 1526 1396 1274
8 1405 1276 1160 1282 1534 1406 1286 1411
8 1414 1287 1407 1535 1286 1162 1277 1406
8 1279 1159 1283 1408 1409 1285 1412 1537
8 1418 1292 1412 1537 1290 1165 1283 1408
8 1280 1158 1285 1409 1410 1284 1413 1538
8 1410 1284 1413 1538 1282 1160 1286 1411
8 1285 1163 1289 1412 1413 1288 1417 1540
8 1421 1296 1417 1540 1292 1167 1289 1412
8 1414 1287 1162 1286 1541 1416 1288 1413
8 1420 1294 1421 1545 1291 1166 1292 1418
8 1419 1293 1172 1305 1546 1422 1303 1437
8 1420 1294 1166 1291 1547 1423 1293 1419
8 1294 1169 1297 1423 1421 1296 1425 1548
8 1423 1297 1168 1293 1549 1424 1295 1422
8 1301 1170 1298 1427 1422 1295 1424 1549
8 1432 1300 1428 1554 1301 1170 1298 1427
8 1431 1299 1428 1554 1560 1430 1300 1432
8 1563 1433 1300 1432 1435 1302 1170 1301
8 1546 1422 1303 1437 1434 1301 1435 1565
8 1303 1171 1304 1438 1435 1302 1436 1566
8 1305 1172 1306 1440 1437 1303 1438 1568
8 1306 1173 1307 1441 1438 1304 1439 1569
8 1308 1175 1309 1443 1440 1306 1441 1571
8 1309 1176 1310 1444 1441 1307 1442 1572
8 1311 1178 1312 1446 1443 1309 1444 1574
8 1179 1312 1444 1310 1313 1447 1575 1445
8 1314 1181 1315 1448 1446 1312 1447 1576
8 1350 1213 1349 1486 1451 1317 1449 1579
8 1451 1317 1450 1581 1319 1186 1318 1453
8 1454 1319 1214 1351 1582 1451 1350 1487
8 1453 1318 1452 1584 1321 1187 1320 1456
8 1454 1319 1453 1585 1344 1208 1321 1457
8 1456 1320 1455 1586 1323 1189 1324 1459
8 1457 1321 1456 1587 1322 1188 1323 1458
8 1458 1323 1459 1588 1325 1191 1326 1460
8 1205 1336 1464 1329 1328 1462 1590 1461
8 1507 1373 1461 1590 1374 1242 1328 1462
8 1508 1374 1462 1591 1375 1243 1335 1467
8 1337 1206 1329 1464 1473 1341 1463 1594
8 1375 1243 1335 1467 1465 1333 1470 1596
8 1465 1333 1470 1596 1331 1200 1334 1466
8 1352 1227 1334 1466 1488 1360 1470 1596
8 1591 1462 1336 1468 1467 1335 1471 1597
8 1469 1337 1472 1598 1595 1464 1336 1468
8 1471 1339 1474 1600 1335 1204 1338 1470
8 1600 1474 1367 1496 1470 1338 1235 1360
8 1336 1205 1340 1472 1471 1339 1475 1601
8 1337 1206 1341 1473 1472 1340 1476 1602
8 1495 1370 1478 1609 1361 1239 1342 1479
8 1348 1212 1342 1479 1483 1347 1478 1609
8 1481 1346 1479 1610 1345 1210 1343 1480
8 1481 1346 1228 1359 1610 1479 1361 1494
8 1484 1348 1214 1351 1610 1479 1343 1480
8 1483 1347 1482 1612 1350 1213 1349 1486
8 1484 1348 1483 1613 1351 1214 1350 1487
8 1353 1230 1360 1488 1489 1363 1496 1616
8 1490 1364 1231 1354 1617 1499 1363 1489
8 1490 1364 1499 1617 1355 1232 1365 1491
8 1356 1234 1365 1491 1492 1366 1500 1619
8 1492 1366 1498 1620 1357 1233 1362 1493
8 1494 1361 1228 1359 1621 1497 1362 1493
8 1495 1370 1239 1361 1622 1504 1371 1497
8 1363 1236 1367 1496 1499 1368 1501 1623
8 1497 1371 1240 1362 1624 1505 1372 1498
8 1625 1503 1372 1498 1500 1369 1241 1366
8 1365 1238 1368 1499 1500 1369 1502 1626
8 1520 1398 1506 1633 1388 1266 1373 1507
8 1634 1507 1374 1508 1512 1388 1255 1380
8 1509 1387 1519 1635 1377 1258 1391 1510
8 1405 1276 1406 1534 1509 1387 1519 1635
8 1515 1392 1260 1383 1636 1522 1390 1511
8 1511 1390 1259 1379 1636 1522 1391 1510
8 1385 1256 1389 1517 1512 1388 1520 1637
8 1513 1394 1262 1382 1638 1524 1393 1514
8 1395 1516 1638 1524 1263 1384 1513 1394
8 1515 1392 1523 1639 1383 1260 1393 1514
8 1516 1395 1526 1640 1386 1264 1396 1518
8 1386 1264 1396 1518 1517 1389 1521 1641
8 1519 1397 1527 1643 1391 1269 1400 1522
8 1535 1407 1527 1643 1406 1277 1397 1519
8 1389 1267 1399 1521 1520 1398 1528 1644
8 1645 1529 1399 1521 1525 1404 1274 1396
8 1392 1270 1400 1522 1523 1401 1531 1646
8 1524 1402 1271 1393 1648 1532 1401 1523
8 1403 1526 1648 1532 1273 1395 1524 1402
8 1525 1404 1274 1396 1649 1533 1403 1526
8 1539 1414 1535 1657 1411 1286 1406 1534
8 1542 1415 1536 1658 1414 1287 1407 1535
8 1409 1285 1412 1537 1538 1413 1540 1660
8 1545 1421 1540 1660 1418 1292 1412 1537
8 1539 1414 1286 1411 1661 1541 1413 1538
8 1540 1417 1544 1663 1413 1288 1416 1541
8 1421 1296 1425 1548 1540 1417 1544 1663
8 1542 1415 1287 1414 1664 1543 1416 1541
8 1420 1294 1423 1547 1545 1421 1548 1666
8 1547 1423 1293 1419 1667 1549 1422 1546
8 1434 1301 1427 1553 1546 1422 1549 1667
8 1423 1297 1424 1549 1548 1425 1550 1668
8 1551 1426 1550 1668 1427 1298 1424 1549
8 1551 1426 1298 1427 1671 1552 1428 1554
8 1562 1432 1554 1674 1434 1301 1427 1553
8 1431 1299 1429 1558 1554 1428 1555 1675
8 1431 1299 1430 1560 1558 1429 1557 1680
8 1560 1430 1300 1432 1683 1559 1433 1563
8 1561 1431 1554 1674 1684 1560 1432 1562
8 1685 1563 1432 1562 1565 1435 1301 1434
8 1435 1302 1436 1566 1563 1433 1564 1686
8 1437 1303 1438 1568 1565 1435 1566 1688
8 1438 1304 1439 1569 1566 1436 1567 1689
8 1440 1306 1441 1571 1568 1438 1569 1691
8 1441 1307 1442 1572 1569 1439 1570 1692
8 1443 1309 1444 1574 1571 1441 1572 1694
8 1310 1444 1572 1442 1445 1575 1695 1573
8 1446 1312 1447 1576 1574 1444 1575 1696
8 1486 1349 1485 1614 1579 1449 1577 1699
8 1451 1317 1449 1579 1581 1450 1578 1701
8 1487 1350 1486 1615 1582 1451 1579 1702
8 1581 1450 1580 1704 1453 1318 1452 1584
8 1582 1451 1581 1705 1454 1319 1453 1585
8 1584 1452 1583 1706 1456 1320 1455 1586
8 1585 1453 1584 1707 1457 1321 1456 1587
8 1587 1456 1586 1708 1458 1323 1459 1588
8 1633 1506 1589 1710 1507 1373 1461 1590
8 1464 1329 1461 1590 1594 1463 1589 1710
8 1468 1336 1462 1591 1595 1464 1590 1711
8 1634 1507 1590 1711 1508 1374 1462 1591
8 1473 1341 1463 1594 1603 1477 1593 1716
8 1469 1337 1464 1595 1599 1473 1594 1717
8 1471 1597 1467 1335 1600 1718 1596 1470
8 1718 1600 1496 1616 1596 1470 1360 1488
8 1336 1468 1597 1471 1472 1598 1719 1601
8 1469 1337 1473 1599 1598 1472 1602 1720
8 1722 1604 1501 1623 1600 1474 1367 1496
8 1475 1601 1471 1339 1604 1722 1600 1474
8 1602 1476 1605 1723 1472 1340 1475 1601
8 1476 1602 1724 1606 1341 1473 1603 1477
8 1483 1347 1478 1609 1612 1482 1608 1731
8 1495 1370 1504 1622 1609 1478 1608 1731
8 1618 1495 1609 1732 1494 1361 1479 1610
8 1484 1348 1479 1610 1613 1483 1609 1732
8 1486 1349 1482 1612 1614 1485 1611 1733
8 1613 1483 1612 1734 1487 1350 1486 1615
8 1489 1363 1496 1616 1617 1499 1623 1736
8 1491 1365 1499 1617 1619 1500 1626 1737
8 1618 1495 1361 1494 1738 1622 1497 1621
8 1739 1625 1498 1620 1619 1500 1366 1492
8 1621 1497 1362 1493 1740 1624 1498 1620
8 1742 1631 1504 1622 1624 1505 1371 1497
8 1743 1628 1502 1626 1623 1501 1368 1499
8 1744 1630 1505 1624 1625 1503 1372 1498
8 1745 1629 1503 1625 1626 1502 1369 1500
8 1520 1398 1528 1644 1633 1506 1632 1751
8 1637 1520 1633 1752 1512 1388 1507 1634
8 1635 1519 1643 1753 1510 1391 1522 1636
8 1657 1535 1643 1753 1534 1406 1519 1635
8 1515 1392 1522 1636 1639 1523 1646 1754
8 1517 1389 1521 1641 1637 1520 1644 1755
8 1524 1638 1756 1648 1393 1514 1639 1523
8 1640 1526 1395 1516 1756 1648 1524 1638
8 1642 1525 1396 1518 1757 1649 1526 1640
8 1758 1645 1521 1641 1642 1525 1396 1518
8 1646 1531 1400 1522 1760 1650 1527 1643
8 1535 1407 1536 1658 1643 1527 1650 1760
8 1521 1399 1529 1645 1644 1528 1651 1761
8 1647 1530 1652 1762 1525 1404 1529 1645
8 1401 1523 1648 1532 1531 1646 1763 1655
8 1525 1404 1533 1649 1647 1530 1654 1765
8 1533 1649 1766 1656 1403 1526 1648 1532
8 1662 1542 1658 1774 1539 1414 1535 1657
8 1542 1415 1543 1664 1658 1536 1659 1775
8 1660 1540 1663 1777 1538 1413 1541 1661
8 1545 1421 1548 1666 1660 1540 1663 1777
8 1662 1542 1414 1539 1778 1664 1541 1661
8 1664 1543 1416 1541 1779 1665 1544 1663
8 1548 1425 1550 1668 1663 1544 1665 1779
8 1547 1423 1549 1667 1666 1548 1668 1781
8 1670 1551 1668 1781 1553 1427 1549 1667
8 1551 1426 1552 1671 1668 1550 1669 1782
8 1670 1551 1427 1553 1784 1671 1554 1674
8 1675 1555 1672 1785 1554 1428 1552 1671
8 1678 1556 1673 1789 1558 1429 1555 1675
8 1561 1431 1558 1681 1674 1554 1675 1790
8 1794 1677 1556 1678 1680 1557 1429 1558
8 1560 1430 1559 1683 1680 1557 1679 1797
8 1561 1431 1560 1684 1681 1558 1680 1798
8 1563 1433 1564 1686 1683 1559 1682 1800
8 1684 1560 1432 1562 1801 1683 1563 1685
8 1565 1435 1566 1688 1685 1563 1686 1802
8 1566 1436 1567 1689 1686 1564 1687 1803
8 1568 1438 1569 1691 1688 1566 1689 1805
8 1569 1439 1570 1692 1689 1567 1690 1806
8 1571 1441 1572 1694 1691 1569 1692 1808
8 1442 1572 1692 1570 1573 1695 1809 1693
8 1574 1444 1575 1696 1694 1572 1695 1810
8 1614 1485 1592 1712 1699 1577 1697 1813
8 1579 1449 1577 1699 1701 1578 1698 1815
8 1615 1486 1614 1735 1702 1579 1699 1816
8 1701 1578 1700 1818 1581 1450 1580 1704
8 1582 1451 1579 1702 1705 1581 1701 1819
8 1704 1580 1703 1820 1584 1452 1583 1706
8 1705 1581 1704 1821 1585 1453 1584 1707
8 1707 1584 1706 1822 1587 1456 1586 1708
8 1710 1589 1506 1633 1824 1709 1632 1751
8 1594 1463 1589 1710 1716 1593 1709 1824
8 1752 1633 1710 1825 1634 1507 1590 1711
8 1595 1464 1590 1711 1717 1594 1710 1825
8 1830 1714 1592 1712 1733 1611 1485 1614
8 1603 1477 1593 1716 1725 1607 1715 1834
8 1599 1473 1594 1717 1721 1603 1716 1835
8 1837 1722 1623 1736 1718 1600 1496 1616
8 1719 1601 1722 1837 1597 1471 1600 1718
8 1602 1720 1598 1472 1723 1838 1719 1601
8 1720 1602 1473 1599 1839 1724 1603 1721
8 1723 1605 1726 1840 1601 1475 1604 1722
8 1840 1726 1628 1743 1722 1604 1501 1623
8 1724 1606 1727 1841 1602 1476 1605 1723
8 1725 1607 1728 1842 1603 1477 1606 1724
8 1612 1482 1608 1731 1733 1611 1730 1849
8 1741 1627 1730 1849 1622 1504 1608 1731
8 1613 1483 1609 1732 1734 1612 1731 1850
8 1618 1495 1622 1738 1732 1609 1731 1850
8 1615 1486 1612 1734 1735 1614 1733 1851
8 1852 1743 1626 1737 1736 1623 1499 1617
8 1853 1745 1625 1739 1737 1626 1500 1619
8 1855 1742 1622 1738 1740 1624 1497 1621
8 1856 1744 1624 1740 1739 1625 1498 1620
8 1741 1627 1504 1622 1857 1746 1631 1742
8 1742 1631 1505 1624 1858 1749 1630 1744
8 1859 1747 1629 1745 1743 1628 1502 1626
8 1860 1748 1630 1744 1745 1629 1503 1625
8 1644 1528 1651 1761 1751 1632 1750 1865
8 1637 1520 1644 1755 1752 1633 1751 1866
8 1754 1646 1522 1636 1867 1760 1643 1753
8 1657 1535 1658 1774 1753 1643 1760 1867
8 1639 1523 1646 1754 1756 1648 1763 1868
8 1641 1521 1645 1758 1755 1644 1761 1869
8 1757 1649 1526 1640 1870 1766 1648 1756
8 1642 1525 1649 1757 1759 1647 1765 1871
8 1759 1647 1762 1872 1642 1525 1645 1758
8 1760 1650 1767 1874 1646 1531 1655 1763
8 1658 1536 1659 1775 1760 1650 1767 1874
8 1762 1652 1768 1875 1645 1529 1651 1761
8 1764 1653 1769 1876 1647 1530 1652 1762
8 1656 1766 1877 1773 1532 1648 1763 1655
8 1771 1879 1765 1654 1653 1764 1647 1530
8 1533 1649 1765 1654 1656 1766 1880 1772
8 1662 1542 1664 1778 1774 1658 1775 1887
8 1664 1543 1665 1779 1775 1659 1776 1888
8 1778 1664 1541 1661 1890 1779 1663 1777
8 1666 1548 1668 1781 1777 1663 1779 1890
8 1782 1669 1780 1891 1668 1550 1665 1779
8 1670 1551 1671 1784 1781 1668 1782 1893
8 1671 1552 1672 1785 1782 1669 1783 1894
8 1790 1675 1785 1896 1674 1554 1671 1784
8 1675 1555 1673 1789 1785 1672 1786 1897
8 1792 1676 1788 1903 1678 1556 1673 1789
8 1795 1678 1789 1904 1681 1558 1675 1790
8 1792 1676 1556 1678 1906 1791 1677 1794
8 1680 1557 1679 1797 1794 1677 1793 1909
8 1910 1794 1678 1795 1798 1680 1558 1681
8 1683 1559 1682 1800 1797 1679 1796 1912
8 1684 1560 1683 1801 1798 1680 1797 1913
8 1686 1564 1687 1803 1800 1682 1799 1915
8 1685 1563 1686 1802 1801 1683 1800 1916
8 1688 1566 1689 1805 1802 1686 1803 1917
8 1689 1567 1690 1806 1803 1687 1804 1918
8 1691 1569 1692 1808 1805 1689 1806 1920
8 1692 1570 1693 1809 1806 1690 1807 1921
8 1694 1572 1695 1810 1808 1692 1809 1922
8 1829 1713 1811 1926 1712 1592 1697 1813
8 1813 1697 1812 1928 1699 1577 1698 1815
8 1735 1614 1712 1828 1816 1699 1813 1929
8 1815 1698 1814 1931 1701 1578 1700 1818
8 1702 1579 1699 1816 1819 1701 1815 1932
8 1818 1700 1817 1933 1704 1580 1703 1820
8 1819 1701 1818 1934 1705 1581 1704 1821
8 1821 1704 1820 1935 1707 1584 1706 1822
8 1824 1709 1632 1751 1937 1823 1750 1865
8 1716 1593 1709 1824 1834 1715 1823 1937
8 1825 1710 1633 1752 1938 1824 1751 1866
8 1717 1594 1710 1825 1835 1716 1824 1938
8 1945 1830 1712 1828 1851 1733 1614 1735
8 1830 1714 1831 1946 1712 1592 1713 1829
8 1947 1832 1714 1830 1849 1730 1611 1733
8 1843 1729 1607 1725 1950 1833 1715 1834
8 1721 1603 1716 1835 1836 1725 1834 1951
8 1836 1725 1842 1953 1721 1603 1724 1839
8 1723 1838 1719 1601 1840 1954 1837 1722
8 1954 1840 1743 1852 1837 1722 1623 1736
8 1724 1839 1720 1602 1841 1955 1838 1723
8 1841 1727 1844 1956 1723 1605 1726 1840
8 1956 1844 1747 1859 1840 1726 1628 1743
8 1728 1842 1724 1606 1845 1957 1841 1727
8 1725 1607 1729 1843 1842 1728 1846 1958
8 1741 1627 1746 1857 1849 1730 1848 1965
8 1734 1612 1731 1850 1851 1733 1849 1966
8 1854 1741 1849 1966 1738 1622 1731 1850
8 1967 1859 1745 1853 1852 1743 1626 1737
8 1968 1860 1744 1856 1853 1745 1625 1739
8 1854 1741 1622 1738 1969 1857 1742 1855
8 1855 1742 1624 1740 1970 1858 1744 1856
8 1857 1746 1631 1742 1971 1861 1749 1858
8 1858 1749 1630 1744 1972 1863 1748 1860
8 1859 1747 1862 1973 1745 1629 1748 1860
8 1875 1768 1864 1977 1761 1651 1750 1865
8 1755 1644 1761 1869 1866 1751 1865 1978
8 1867 1760 1874 1979 1754 1646 1763 1868
8 1774 1658 1775 1887 1867 1760 1874 1979
8 1870 1766 1648 1756 1980 1877 1763 1868
8 1872 1762 1875 1981 1758 1645 1761 1869
8 1757 1649 1766 1870 1871 1765 1880 1982
8 1983 1879 1764 1873 1871 1765 1647 1759
8 1873 1764 1876 1984 1759 1647 1762 1872
8 1877 1773 1655 1763 1986 1881 1767 1874
8 1775 1659 1776 1888 1874 1767 1881 1986
8 1876 1769 1882 1987 1762 1652 1768 1875
8 1878 1770 1883 1988 1764 1653 1769 1876
8 1880 1772 1656 1766 1989 1886 1773 1877
8 1878 1770 1653 1764 1990 1884 1771 1879
8 1765 1654 1772 1880 1879 1771 1885 1991
8 1778 1664 1779 1890 1887 1775 1888 1997
8 1998 1889 1776 1888 1891 1780 1665 1779
8 1893 1782 1891 2000 1781 1668 1779 1890
8 1894 1783 1892 2001 1782 1669 1780 1891
8 1784 1671 1785 1896 1893 1782 1894 2003
8 1897 1786 1895 2004 1785 1672 1783 1894
8 1790 1675 1789 1904 1896 1785 1897 2006
8 1901 1787 1898 2007 1789 1673 1786 1897
8 1903 1788 1900 2013 1789 1673 1787 1901
8 1792 1676 1791 1906 1903 1788 1902 2016
8 1907 1792 1903 2017 1795 1678 1789 1904
8 1906 1791 1677 1794 2019 1905 1793 1909
8 1907 1792 1678 1795 2020 1906 1794 1910
8 1797 1679 1796 1912 1909 1793 1908 2022
8 1798 1680 1797 1913 1910 1794 1909 2023
8 1800 1682 1799 1915 1912 1796 1911 2025
8 1801 1683 1800 1916 1913 1797 1912 2026
8 1803 1687 1804 1918 1915 1799 1914 2028
8 1802 1686 1803 1917 1916 1800 1915 2029
8 1805 1689 1806 1920 1917 1803 1918 2030
8 1806 1690 1807 1921 1918 1804 1919 2031
8 1808 1692 1809 1922 1920 1806 1921 2032
8 1939 1826 1924 2037 1829 1713 1811 1926
8 1926 1811 1925 2039 1813 1697 1812 1928
8 1944 1829 1926 2040 1828 1712 1813 1929
8 1928 1812 1927 2042 1815 1698 1814 1931
8 1929 1813 1928 2043 1816 1699 1815 1932
8 1931 1814 1930 2044 1818 1700 1817 1933
8 1932 1815 1931 2045 1819 1701 1818 1934
8 1934 1818 1933 2046 1821 1704 1820 1935
8 2048 1936 1823 1937 1977 1864 1750 1865
8 1950 1833 1715 1834 2048 1936 1823 1937
8 1938 1824 1751 1866 2049 1937 1865 1978
8 1835 1716 1824 1938 1951 1834 1937 2049
8 1939 1826 1713 1829 2053 1942 1831 1946
8 1940 1827 1923 2035 2053 1942 1826 1939
8 1945 1830 1946 2058 1828 1712 1829 1944
8 2059 1947 1830 1945 1966 1849 1733 1851
8 1947 1832 1730 1849 2060 1948 1848 1965
8 1947 1832 1948 2060 1830 1714 1831 1946
8 1959 1847 1729 1843 2063 1949 1833 1950
8 1952 1843 1725 1836 2064 1950 1834 1951
8 1836 1725 1843 1952 1953 1842 1958 2066
8 1953 1842 1957 2067 1839 1724 1841 1955
8 1841 1955 1838 1723 1956 2068 1954 1840
8 2068 1956 1859 1967 1954 1840 1743 1852
8 1956 1844 1960 2069 1859 1747 1862 1973
8 1845 1957 1841 1727 1960 2069 1956 1844
8 1728 1842 1957 1845 1846 1958 2071 1961
8 1962 2072 1959 1847 1846 1958 1843 1729
8 1971 1861 1964 2077 1857 1746 1848 1965
8 1854 1741 1857 1969 1966 1849 1965 2078
8 1967 1859 1973 2079 1853 1745 1860 1968
8 1970 1858 1744 1856 2080 1972 1860 1968
8 1969 1857 1742 1855 2081 1971 1858 1970
8 1971 1861 1749 1858 2082 1974 1863 1972
8 1973 1862 1975 2083 1860 1748 1863 1972
8 1987 1882 1976 2086 1875 1768 1864 1977
8 1981 1875 1977 2087 1869 1761 1865 1978
8 1980 1877 1763 1868 2088 1986 1874 1979
8 1887 1775 1888 1997 1979 1874 1986 2088
8 1880 1982 2089 1989 1766 1870 1980 1877
8 1984 1876 1987 2090 1872 1762 1875 1981
8 1765 1871 1983 1879 1880 1982 2091 1991
8 1985 1878 1764 1873 2092 1990 1879 1983
8 1985 1878 1988 2093 1873 1764 1876 1984
8 2094 1992 1881 1986 1998 1889 1776 1888
8 1986 1881 1992 2094 1877 1773 1886 1989
8 1988 1883 1993 2095 1876 1769 1882 1987
8 1878 1770 1884 1990 1988 1883 1994 2096
8 1991 1885 1772 1880 2097 1996 1886 1989
8 1879 1771 1885 1991 1990 1884 1995 2098
8 2103 1998 1888 1997 2000 1891 1779 1890
8 2104 1999 1889 1998 2001 1892 1780 1891
8 2003 1894 2001 2106 1893 1782 1891 2000
8 2004 1895 2002 2107 1894 1783 1892 2001
8 2006 1897 2004 2109 1896 1785 1894 2003
8 2007 1898 2005 2110 1897 1786 1895 2004
8 2014 1901 2007 2112 1904 1789 1897 2006
8 2011 1899 2008 2113 1901 1787 1898 2007
8 2119 2010 1899 2011 2013 1900 1787 1901
8 2016 1902 2012 2122 1903 1788 1900 2013
8 2017 1903 2013 2123 1904 1789 1901 2014
8 1906 1791 1905 2019 2016 1902 2015 2125
8 1907 1792 1906 2020 2017 1903 2016 2126
8 1909 1793 1908 2022 2019 1905 2018 2128
8 2020 1906 1794 1910 2129 2019 1909 2023
8 1912 1796 1911 2025 2022 1908 2021 2131
8 1913 1797 1912 2026 2023 1909 2022 2132
8 1915 1799 1914 2028 2025 1911 2024 2134
8 1916 1800 1915 2029 2026 1912 2025 2135
8 1918 1804 1919 2031 2028 1914 2027 2136
8 1917 1803 1918 2030 2029 1915 2028 2137
8 1920 1806 1921 2032 2030 1918 2031 2138
8 1940 1827 1941 2054 2035 1923 2033 2140
8 2035 1923 2034 2143 1939 1826 1924 2037
8 2037 1924 2036 2146 1926 1811 1925 2039
8 2051 1939 2037 2147 1944 1829 1926 2040
8 2039 1925 2038 2149 1928 1812 1927 2042
8 2040 1926 2039 2150 1929 1813 1928 2043
8 2042 1927 2041 2151 1931 1814 1930 2044
8 2043 1928 2042 2152 1932 1815 1931 2045
8 2045 1931 2044 2153 1934 1818 1933 2046
8 2155 2047 1936 2048 2086 1976 1864 1977
8 2063 1949 1833 1950 2155 2047 1936 2048
8 2156 2048 1937 2049 2087 1977 1865 1978
8 2064 1950 1834 1951 2156 2048 1937 2049
8 2051 1939 1829 1944 2160 2053 1946 2058
8 2052 1940 2035 2144 2160 2053 1939 2051
8 2053 1942 1831 1946 2163 2057 1948 2060
8 2055 1943 1827 1940 2163 2057 1942 2053
8 2055 1943 2056 2164 1940 1827 1941 2054
8 2059 1947 1849 1966 2167 2060 1965 2078
8 2059 1947 2060 2167 1945 1830 1946 2058
8 2077 1964 2061 2168 1965 1848 1948 2060
8 2070 1963 1847 1959 2170 2062 1949 2063
8 2065 1959 1843 1952 2171 2063 1950 2064
8 2173 2072 1958 2066 2065 1959 1843 1952
8 1953 1842 1958 2066 2067 1957 2071 2174
8 2068 1956 2069 2175 1967 1859 1973 2079
8 2067 1957 2069 2175 1955 1841 1956 2068
8 1845 1957 2069 1960 1961 2071 2176 2073
8 2069 1960 2073 2176 1973 1862 1975 2083
8 2070 1963 2075 2177 1959 1847 1962 2072
8 1846 1958 2071 1961 1962 2072 2178 2074
8 2077 1964 1861 1971 2182 2076 1974 2082
8 2081 1971 2077 2183 1969 1857 1965 2078
8 2079 1973 2083 2184 1968 1860 1972 2080
8 2081 1971 1858 1970 2185 2082 1972 2080
8 2083 1975 2084 2186 1972 1863 1974 2082
8 2086 1976 1882 1987 2189 2085 1993 2095
8 2090 1987 2086 2190 1981 1875 1977 2087
8 2191 2094 1986 2088 2103 1998 1888 1997
8 2088 1986 2094 2191 1980 1877 1989 2089
8 1991 2091 2192 2097 1880 1982 2089 1989
8 2093 1988 2095 2193 1984 1876 1987 2090
8 1879 1983 2092 1990 1991 2091 2194 2098
8 1985 1878 1990 2092 2093 1988 2096 2195
8 2097 1996 1886 1989 2196 2099 1992 2094
8 2196 2099 1992 2094 2104 1999 1889 1998
8 1994 2096 1988 1883 2100 2197 2095 1993
8 2096 1994 1884 1990 2198 2101 1995 2098
8 1995 2098 2199 2102 1885 1991 2097 1996
8 2203 2104 1998 2103 2106 2001 1891 2000
8 2107 2002 2105 2204 2001 1892 1999 2104
8 2109 2004 2107 2206 2003 1894 2001 2106
8 2110 2005 2108 2207 2004 1895 2002 2107
8 2112 2007 2110 2209 2006 1897 2004 2109
8 2113 2008 2111 2210 2007 1898 2005 2110
8 2120 2011 2113 2212 2014 1901 2007 2112
8 2117 2009 2114 2213 2011 1899 2008 2113
8 2219 2116 2009 2117 2119 2010 1899 2011
8 2222 2118 2010 2119 2122 2012 1900 2013
8 2223 2119 2011 2120 2123 2013 1901 2014
8 2016 1902 2015 2125 2122 2012 2121 2225
8 2126 2016 2122 2226 2017 1903 2013 2123
8 2019 1905 2018 2128 2125 2015 2124 2228
8 2020 1906 2019 2129 2126 2016 2125 2229
8 2022 1908 2021 2131 2128 2018 2127 2231
8 2023 1909 2022 2132 2129 2019 2128 2232
8 2025 1911 2024 2134 2131 2021 2130 2234
8 2026 1912 2025 2135 2132 2022 2131 2235
8 1914 2028 2134 2024 2027 2136 2236 2133
8 2029 1915 2028 2137 2135 2025 2134 2237
8 2030 1918 2031 2138 2137 2028 2136 2238
8 2157 2050 2139 2240 2054 1941 2033 2140
8 2052 1940 2054 2161 2144 2035 2140 2242
8 2140 2033 2141 2243 2035 1923 2034 2143
8 2143 2034 2142 2246 2037 1924 2036 2146
8 2144 2035 2143 2247 2051 1939 2037 2147
8 2146 2036 2145 2249 2039 1925 2038 2149
8 2147 2037 2146 2250 2040 1926 2039 2150
8 2149 2038 2148 2251 2042 1927 2041 2151
8 2150 2039 2149 2252 2043 1928 2042 2152
8 2152 2042 2151 2253 2045 1931 2044 2153
8 2255 2154 2047 2155 2189 2085 1976 2086
8 2170 2062 1949 2063 2255 2154 2047 2155
8 2256 2155 2048 2156 2190 2086 1977 2087
8 2171 2063 1950 2064 2256 2155 2048 2156
8 2258 2159 2050 2157 2164 2056 1941 2054
8 2160 2053 1946 2058 2262 2163 2060 2167
8 2162 2055 1940 2052 2262 2163 2053 2160
8 2162 2055 2164 2263 2052 1940 2054 2161
8 2163 2057 1948 2060 2264 2165 2061 2168
8 2055 1943 2057 2163 2164 2056 2165 2264
8 2182 2076 2166 2268 2077 1964 2061 2168
8 2183 2077 2168 2269 2078 1965 2060 2167
8 2070 1963 2062 2170 2177 2075 2169 2271
8 2172 2070 1959 2065 2272 2170 2063 2171
8 2172 2070 2177 2273 2065 1959 2072 2173
8 2066 1958 2072 2173 2174 2071 2178 2274
8 2067 1957 2071 2174 2175 2069 2176 2275
8 2175 2069 2176 2275 2079 1973 2083 2184
8 2071 1961 2074 2178 2176 2073 2179 2276
8 2176 2073 2179 2276 2083 1975 2084 2186
8 2072 1962 2075 2177 2178 2074 2180 2277
8 2182 2076 1974 2082 2280 2181 2084 2186
8 2183 2077 1971 2081 2281 2182 2082 2185
8 2184 2083 2186 2282 2080 1972 2082 2185
8 2189 2085 1993 2095 2285 2188 2100 2197
8 2190 2086 1987 2090 2286 2189 2095 2193
8 2192 2097 1989 2089 2287 2196 2094 2191
8 2287 2196 2094 2191 2203 2104 1998 2103
8 2194 2098 1991 2091 2288 2199 2097 2192
8 2195 2096 2197 2289 2093 1988 2095 2193
8 2096 2195 2290 2198 1990 2092 2194 2098
8 2097 1996 2099 2196 2199 2102 2200 2291
8 2196 2099 1999 2104 2291 2200 2105 2204
8 2100 2197 2292 2201 1994 2096 2198 2101
8 1995 2098 2198 2101 2102 2199 2293 2202
8 2206 2107 2204 2296 2106 2001 2104 2203
8 2207 2108 2205 2297 2107 2002 2105 2204
8 2209 2110 2207 2299 2109 2004 2107 2206
8 2210 2111 2208 2300 2110 2005 2108 2207
8 2212 2113 2210 2302 2112 2007 2110 2209
8 2213 2114 2211 2303 2113 2008 2111 2210
8 2220 2117 2213 2305 2120 2011 2113 2212
8 2216 2115 2214 2306 2117 2009 2114 2213
8 2216 2115 2009 2117 2311 2217 2116 2219
8 2219 2116 2010 2119 2314 2218 2118 2222
8 2315 2219 2117 2220 2223 2119 2011 2120
8 2122 2012 2121 2225 2222 2118 2221 2317
8 2318 2222 2119 2223 2226 2122 2013 2123
8 2125 2015 2124 2228 2225 2121 2224 2320
8 2126 2016 2125 2229 2226 2122 2225 2321
8 2128 2018 2127 2231 2228 2124 2227 2323
8 2129 2019 2128 2232 2229 2125 2228 2324
8 2131 2021 2130 2234 2231 2127 2230 2326
8 2132 2022 2131 2235 2232 2128 2231 2327
8 2134 2024 2133 2236 2234 2130 2233 2328
8 2135 2025 2134 2237 2235 2131 2234 2329
8 2137 2028 2136 2238 2237 2134 2236 2330
8 2157 2050 2158 2259 2240 2139 2239 2332
8 2257 2157 2240 2334 2161 2054 2140 2242
8 2240 2139 2241 2335 2140 2033 2141 2243
8 2242 2140 2243 2337 2144 2035 2143 2247
8 2243 2141 2244 2338 2143 2034 2142 2246
8 2246 2142 2245 2341 2146 2036 2145 2249
8 2247 2143 2246 2342 2147 2037 2146 2250
8 2249 2145 2248 2343 2149 2038 2148 2251
8 2250 2146 2249 2344 2150 2039 2149 2252
8 2252 2149 2251 2345 2152 2042 2151 2253
8 2169 2271 2347 2254 2062 2170 2255 2154
8 2189 2085 2188 2285 2255 2154 2254 2347
8 2348 2255 2155 2256 2286 2189 2086 2190
8 2272 2170 2063 2171 2348 2255 2155 2256
8 2349 2258 2157 2257 2263 2164 2054 2161
8 2258 2159 2261 2351 2157 2050 2158 2259
8 2258 2159 2056 2164 2351 2261 2165 2264
8 2262 2163 2060 2167 2355 2264 2168 2269
8 2162 2055 2163 2262 2263 2164 2264 2355
8 2357 2266 2165 2264 2268 2166 2061 2168
8 2268 2166 2076 2182 2361 2267 2181 2280
8 2281 2182 2268 2362 2183 2077 2168 2269
8 2271 2169 2270 2364 2177 2075 2180 2277
8 2172 2070 2170 2272 2273 2177 2271 2365
8 2072 2173 2274 2178 2177 2273 2366 2277
8 2071 2174 2275 2176 2178 2274 2367 2276
8 2275 2176 2276 2367 2184 2083 2186 2282
8 2283 2187 2084 2186 2368 2278 2179 2276
8 2178 2074 2180 2277 2276 2179 2278 2368
8 2283 2187 2279 2370 2186 2084 2181 2280
8 2281 2182 2082 2185 2371 2280 2186 2282
8 2188 2285 2374 2284 2100 2197 2292 2201
8 2286 2189 2095 2193 2375 2285 2197 2289
8 2192 2097 2196 2287 2288 2199 2291 2376
8 2287 2196 2104 2203 2376 2291 2204 2296
8 2194 2098 2199 2288 2290 2198 2293 2377
8 2289 2197 2096 2195 2378 2292 2198 2290
8 2291 2200 2105 2204 2379 2294 2205 2297
8 2199 2102 2200 2291 2293 2202 2294 2379
8 2198 2101 2202 2293 2292 2201 2295 2380
8 2299 2207 2297 2383 2206 2107 2204 2296
8 2300 2208 2298 2384 2207 2108 2205 2297
8 2302 2210 2300 2386 2209 2110 2207 2299
8 2303 2211 2301 2387 2210 2111 2208 2300
8 2305 2213 2303 2389 2212 2113 2210 2302
8 2306 2214 2304 2390 2213 2114 2211 2303
8 2310 2216 2306 2392 2220 2117 2213 2305
8 2308 2215 2307 2393 2216 2115 2214 2306
8 2308 2215 2115 2216 2396 2309 2217 2311
8 2310 2216 2117 2220 2398 2311 2219 2315
8 2311 2217 2116 2219 2399 2312 2218 2314
8 2314 2218 2118 2222 2402 2313 2221 2317
8 2315 2219 2119 2223 2403 2314 2222 2318
8 2225 2121 2224 2320 2317 2221 2316 2405
8 2226 2122 2225 2321 2318 2222 2317 2406
8 2228 2124 2227 2323 2320 2224 2319 2408
8 2229 2125 2228 2324 2321 2225 2320 2409
8 2231 2127 2230 2326 2323 2227 2322 2411
8 2232 2128 2231 2327 2324 2228 2323 2412
8 2234 2130 2233 2328 2326 2230 2325 2413
8 2235 2131 2234 2329 2327 2231 2326 2414
8 2237 2134 2236 2330 2329 2234 2328 2415
8 2259 2158 2260 2352 2332 2239 2331 2417
8 2257 2157 2259 2350 2334 2240 2332 2419
8 2240 2139 2239 2332 2335 2241 2333 2420
8 2334 2240 2335 2422 2242 2140 2243 2337
8 2335 2241 2336 2423 2243 2141 2244 2338
8 2337 2243 2338 2425 2247 2143 2246 2342
8 2338 2244 2339 2426 2246 2142 2245 2341
8 2341 2245 2340 2428 2249 2145 2248 2343
8 2342 2246 2341 2429 2250 2146 2249 2344
8 2344 2249 2343 2430 2252 2149 2251 2345
8 2188 2285 2347 2254 2284 2374 2432 2346
8 2347 2254 2346 2432 2271 2169 2270 2364
8 2365 2271 2170 2272 2433 2347 2255 2348
8 2286 2189 2285 2375 2348 2255 2347 2433
8 2349 2258 2351 2435 2257 2157 2259 2350
8 2349 2258 2164 2263 2435 2351 2264 2355
8 2259 2158 2261 2351 2352 2260 2354 2437
8 2356 2265 2354 2437 2264 2165 2261 2351
8 2441 2357 2264 2355 2362 2268 2168 2269
8 2356 2265 2165 2264 2442 2358 2266 2357
8 2443 2359 2266 2357 2361 2267 2166 2268
8 2370 2279 2360 2446 2280 2181 2267 2361
8 2362 2268 2182 2281 2447 2361 2280 2371
8 2180 2277 2368 2278 2270 2364 2449 2363
8 2271 2365 2273 2177 2364 2450 2366 2277
8 2372 2283 2186 2282 2451 2368 2276 2367
8 2178 2274 2367 2276 2277 2366 2451 2368
8 2283 2187 2278 2368 2370 2279 2369 2452
8 2372 2283 2370 2453 2282 2186 2280 2371
8 2284 2374 2455 2373 2201 2292 2380 2295
8 2375 2285 2197 2289 2456 2374 2292 2378
8 2376 2291 2204 2296 2457 2379 2297 2383
8 2288 2199 2291 2376 2377 2293 2379 2457
8 2198 2290 2378 2292 2293 2377 2458 2380
8 2293 2202 2294 2379 2380 2295 2381 2459
8 2384 2298 2381 2459 2297 2205 2294 2379
8 2386 2300 2384 2463 2299 2207 2297 2383
8 2387 2301 2385 2464 2300 2208 2298 2384
8 2389 2303 2387 2466 2302 2210 2300 2386
8 2390 2304 2388 2467 2303 2211 2301 2387
8 2392 2306 2390 2469 2305 2213 2303 2389
8 2393 2307 2391 2470 2306 2214 2304 2390
8 2395 2308 2393 2472 2310 2216 2306 2392
8 2308 2215 2309 2396 2393 2307 2394 2473
8 2395 2308 2216 2310 2475 2396 2311 2398
8 2396 2309 2217 2311 2476 2397 2312 2399
8 2398 2311 2219 2315 2478 2399 2314 2403
8 2399 2312 2218 2314 2479 2400 2313 2402
8 2317 2221 2316 2405 2402 2313 2401 2482
8 2403 2314 2222 2318 2483 2402 2317 2406
8 2320 2224 2319 2408 2405 2316 2404 2485
8 2321 2225 2320 2409 2406 2317 2405 2486
8 2323 2227 2322 2411 2408 2319 2407 2488
8 2324 2228 2323 2412 2409 2320 2408 2489
8 2326 2230 2325 2413 2411 2322 2410 2490
8 2327 2231 2326 2414 2412 2323 2411 2491
8 2329 2234 2328 2415 2414 2326 2413 2492
8 2417 2331 2260 2352 2494 2416 2353 2438
8 2350 2259 2352 2436 2419 2332 2417 2496
8 2332 2239 2331 2417 2420 2333 2418 2497
8 2334 2240 2332 2419 2422 2335 2420 2499
8 2420 2333 2421 2500 2335 2241 2336 2423
8 2422 2335 2423 2502 2337 2243 2338 2425
8 2423 2336 2424 2503 2338 2244 2339 2426
8 2425 2338 2426 2505 2342 2246 2341 2429
8 2426 2339 2427 2506 2341 2245 2340 2428
8 2429 2341 2428 2507 2344 2249 2343 2430
8 2432 2346 2284 2374 2509 2431 2373 2455
8 2432 2346 2431 2509 2364 2270 2363 2449
8 2375 2285 2374 2456 2433 2347 2432 2510
8 2347 2433 2365 2271 2432 2510 2450 2364
8 2350 2259 2351 2435 2436 2352 2437 2514
8 2440 2356 2437 2514 2355 2264 2351 2435
8 2352 2260 2354 2437 2438 2353 2439 2516
8 2356 2265 2358 2442 2437 2354 2439 2516
8 2440 2356 2264 2355 2518 2442 2357 2441
8 2519 2443 2357 2441 2447 2361 2268 2362
8 2443 2359 2444 2520 2357 2266 2358 2442
8 2443 2359 2267 2361 2520 2444 2360 2446
8 2446 2360 2279 2370 2523 2445 2369 2452
8 2453 2370 2446 2524 2371 2280 2361 2447
8 2449 2363 2448 2525 2368 2278 2369 2452
8 2366 2277 2364 2450 2451 2368 2449 2526
8 2372 2283 2368 2451 2453 2370 2452 2527
8 2455 2373 2295 2380 2529 2454 2382 2460
8 2456 2374 2292 2378 2530 2455 2380 2458
8 2377 2293 2379 2457 2458 2380 2459 2531
8 2463 2384 2459 2531 2383 2297 2379 2457
8 2533 2461 2382 2460 2459 2381 2295 2380
8 2464 2385 2461 2533 2384 2298 2381 2459
8 2466 2387 2464 2537 2386 2300 2384 2463
8 2467 2388 2465 2538 2387 2301 2385 2464
8 2469 2390 2467 2540 2389 2303 2387 2466
8 2470 2391 2468 2541 2390 2304 2388 2467
8 2472 2393 2470 2543 2392 2306 2390 2469
8 2393 2307 2394 2473 2470 2391 2471 2544
8 2395 2308 2396 2475 2472 2393 2473 2546
8 2396 2309 2397 2476 2473 2394 2474 2547
8 2475 2396 2311 2398 2549 2476 2399 2478
8 2476 2397 2312 2399 2550 2477 2400 2479
8 2478 2399 2314 2403 2552 2479 2402 2483
8 2479 2400 2313 2402 2553 2480 2401 2482
8 2405 2316 2404 2485 2482 2401 2481 2556
8 2406 2317 2405 2486 2483 2402 2482 2557
8 2408 2319 2407 2488 2485 2404 2484 2559
8 2409 2320 2408 2489 2486 2405 2485 2560
8 2411 2322 2410 2490 2488 2407 2487 2561
8 2412 2323 2411 2491 2489 2408 2488 2562
8 2414 2326 2413 2492 2491 2411 2490 2563
8 2513 2434 2493 2565 2438 2353 2416 2494
8 2496 2417 2352 2436 2567 2494 2438 2515
8 2494 2416 2495 2568 2417 2331 2418 2497
8 2419 2332 2417 2496 2499 2420 2497 2570
8 2497 2418 2498 2571 2420 2333 2421 2500
8 2499 2420 2500 2573 2422 2335 2423 2502
8 2500 2421 2501 2574 2423 2336 2424 2503
8 2502 2423 2503 2576 2425 2338 2426 2505
8 2503 2424 2504 2577 2426 2339 2427 2506
8 2505 2426 2506 2578 2429 2341 2428 2507
8 2509 2431 2373 2455 2580 2508 2454 2529
8 2509 2431 2508 2580 2449 2363 2448 2525
8 2432 2510 2581 2509 2374 2456 2530 2455
8 2432 2510 2450 2364 2509 2581 2526 2449
8 2583 2511 2434 2513 2516 2439 2353 2438
8 2436 2352 2437 2514 2515 2438 2516 2588
8 2440 2356 2442 2518 2514 2437 2516 2588
8 2442 2358 2444 2520 2516 2439 2517 2589
8 2519 2443 2520 2591 2441 2357 2442 2518
8 2519 2443 2361 2447 2591 2520 2446 2524
8 2446 2360 2445 2523 2520 2444 2521 2592
8 2525 2448 2522 2593 2452 2369 2445 2523
8 2524 2446 2370 2453 2594 2523 2452 2527
8 2526 2449 2525 2595 2451 2368 2452 2527
8 2534 2462 2528 2597 2460 2382 2454 2529
8 2530 2455 2380 2458 2598 2529 2460 2532
8 2599 2533 2460 2532 2531 2459 2380 2458
8 2537 2464 2533 2599 2463 2384 2459 2531
8 2534 2462 2382 2460 2601 2535 2461 2533
8 2538 2465 2535 2601 2464 2385 2461 2533
8 2540 2467 2538 2604 2466 2387 2464 2537
8 2541 2468 2539 2605 2467 2388 2465 2538
8 2543 2470 2541 2607 2469 2390 2467 2540
8 2470 2391 2471 2544 2541 2468 2542 2608
8 2472 2393 2473 2546 2543 2470 2544 2610
8 2473 2394 2474 2547 2544 2471 2545 2611
8 2475 2396 2476 2549 2546 2473 2547 2613
8 2476 2397 2477 2550 2547 2474 2548 2614
8 2549 2476 2399 2478 2616 2550 2479 2552
8 2479 2400 2480 2553 2550 2477 2551 2617
8 2552 2479 2402 2483 2619 2553 2482 2557
8 2482 2401 2481 2556 2553 2480 2554 2620
8 2485 2404 2484 2559 2556 2481 2555 2623
8 2486 2405 2485 2560 2557 2482 2556 2624
8 2488 2407 2487 2561 2559 2484 2558 2625
8 2489 2408 2488 2562 2560 2485 2559 2626
8 2491 2411 2490 2563 2562 2488 2561 2627
8 2513 2434 2512 2585 2565 2493 2564 2630
8 2586 2513 2565 2632 2515 2438 2494 2567
8 2565 2493 2566 2633 2494 2416 2495 2568
8 2567 2494 2568 2635 2496 2417 2497 2570
8 2568 2495 2569 2636 2497 2418 2498 2571
8 2570 2497 2571 2638 2499 2420 2500 2573
8 2571 2498 2572 2639 2500 2421 2501 2574
8 2573 2500 2574 2641 2502 2423 2503 2576
8 2574 2501 2575 2642 2503 2424 2504 2577
8 2576 2503 2577 2643 2505 2426 2506 2578
8 2597 2528 2579 2645 2529 2454 2508 2580
8 2580 2508 2579 2645 2525 2448 2522 2593
8 2581 2509 2455 2530 2646 2580 2529 2598
8 2581 2509 2580 2646 2526 2449 2525 2595
8 2583 2511 2582 2648 2513 2434 2512 2585
8 2583 2511 2439 2516 2648 2582 2517 2589
8 2649 2583 2513 2586 2588 2516 2438 2515
8 2589 2517 2444 2520 2653 2587 2521 2592
8 2518 2442 2520 2591 2588 2516 2589 2654
8 2593 2522 2590 2655 2523 2445 2521 2592
8 2524 2446 2523 2594 2591 2520 2592 2656
8 2595 2525 2593 2657 2527 2452 2523 2594
8 2602 2536 2596 2659 2534 2462 2528 2597
8 2600 2534 2597 2660 2532 2460 2529 2598
8 2600 2534 2460 2532 2661 2601 2533 2599
8 2604 2538 2601 2661 2537 2464 2533 2599
8 2602 2536 2462 2534 2663 2603 2535 2601
8 2601 2535 2465 2538 2663 2603 2539 2605
8 2607 2541 2605 2665 2540 2467 2538 2604
8 2608 2542 2606 2666 2541 2468 2539 2605
8 2543 2470 2544 2610 2607 2541 2608 2668
8 2544 2471 2545 2611 2608 2542 2609 2669
8 2546 2473 2547 2613 2610 2544 2611 2671
8 2547 2474 2548 2614 2611 2545 2612 2672
8 2549 2476 2550 2616 2613 2547 2614 2674
8 2550 2477 2551 2617 2614 2548 2615 2675
8 2552 2479 2553 2619 2616 2550 2617 2677
8 2553 2480 2554 2620 2617 2551 2618 2678
8 2557 2482 2556 2624 2619 2553 2620 2680
8 2556 2481 2555 2623 2620 2554 2621 2681
8 2559 2484 2558 2625 2623 2555 2622 2683
8 2560 2485 2559 2626 2624 2556 2623 2684
8 2562 2488 2561 2627 2626 2559 2625 2685
8 2690 2629 2564 2630 2650 2584 2512 2585
8 2586 2513 2585 2651 2632 2565 2630 2691
8 2630 2564 2631 2692 2565 2493 2566 2633
8 2632 2565 2633 2694 2567 2494 2568 2635
8 2633 2566 2634 2695 2568 2495 2569 2636
8 2635 2568 2636 2697 2570 2497 2571 2638
8 2636 2569 2637 2698 2571 2498 2572 2639
8 2638 2571 2639 2700 2573 2500 2574 2641
8 2639 2572 2640 2701 2574 2501 2575 2642
8 2641 2574 2642 2702 2576 2503 2577 2643
8 2597 2528 2596 2659 2645 2579 2644 2704
8 2645 2579 2644 2704 2593 2522 2590 2655
8 2660 2597 2645 2705 2598 2529 2580 2646
8 2646 2580 2645 2705 2595 2525 2593 2657
8 2650 2584 2512 2585 2707 2647 2582 2648
8 2648 2582 2517 2589 2707 2647 2587 2653
8 2649 2583 2648 2708 2586 2513 2585 2651
8 2649 2583 2516 2588 2708 2648 2589 2654
8 2655 2590 2652 2710 2592 2521 2587 2653
8 2654 2589 2520 2591 2711 2653 2592 2656
8 2657 2593 2655 2712 2594 2523 2592 2656
8 2602 2536 2603 2663 2659 2596 2658 2714
8 2662 2602 2659 2715 2600 2534 2597 2660
8 2662 2602 2534 2600 2717 2663 2601 2661
8 2661 2601 2538 2604 2717 2663 2605 2665
8 2666 2606 2664 2718 2605 2539 2603 2663
8 2668 2608 2666 2720 2607 2541 2605 2665
8 2608 2542 2609 2669 2666 2606 2667 2721
8 2610 2544 2611 2671 2668 2608 2669 2723
8 2611 2545 2612 2672 2669 2609 2670 2724
8 2613 2547 2614 2674 2671 2611 2672 2726
8 2614 2548 2615 2675 2672 2612 2673 2727
8 2616 2550 2617 2677 2674 2614 2675 2729
8 2617 2551 2618 2678 2675 2615 2676 2730
8 2619 2553 2620 2680 2677 2617 2678 2732
8 2620 2554 2621 2681 2678 2618 2679 2733
8 2624 2556 2623 2684 2680 2620 2681 2735
8 2681 2621 2555 2623 2736 2682 2622 2683
8 2626 2559 2625 2685 2684 2623 2683 2737
8 2688 2628 2584 2650 2740 2686 2647 2707
8 2688 2628 2687 2742 2650 2584 2629 2690
8 2690 2629 2689 2745 2630 2564 2631 2692
8 2746 2690 2630 2691 2709 2650 2585 2651
8 2691 2630 2692 2747 2632 2565 2633 2694
8 2692 2631 2693 2748 2633 2566 2634 2695
8 2694 2633 2695 2750 2635 2568 2636 2697
8 2695 2634 2696 2751 2636 2569 2637 2698
8 2697 2636 2698 2753 2638 2571 2639 2700
8 2698 2637 2699 2754 2639 2572 2640 2701
8 2700 2639 2701 2755 2641 2574 2642 2702
8 2659 2596 2658 2714 2704 2644 2703 2757
8 2704 2644 2703 2757 2655 2590 2652 2710
8 2660 2597 2659 2715 2705 2645 2704 2758
8 2705 2645 2704 2758 2657 2593 2655 2712
8 2759 2706 2647 2707 2710 2652 2587 2653
8 2709 2650 2585 2651 2760 2707 2648 2708
8 2708 2648 2589 2654 2760 2707 2653 2711
8 2712 2655 2710 2761 2656 2592 2653 2711
8 2763 2713 2658 2714 2718 2664 2603 2663
8 2662 2602 2663 2717 2715 2659 2714 2764
8 2720 2666 2718 2767 2665 2605 2663 2717
8 2768 2719 2664 2718 2721 2667 2606 2666
8 2668 2608 2669 2723 2720 2666 2721 2770
8 2669 2609 2670 2724 2721 2667 2722 2771
8 2671 2611 2672 2726 2723 2669 2724 2773
8 2672 2612 2673 2727 2724 2670 2725 2774
8 2674 2614 2675 2729 2726 2672 2727 2776
8 2675 2615 2676 2730 2727 2673 2728 2777
8 2677 2617 2678 2732 2729 2675 2730 2779
8 2678 2618 2679 2733 2730 2676 2731 2780
8 2680 2620 2681 2735 2732 2678 2733 2782
8 2733 2679 2621 2681 2783 2734 2682 2736
8 2735 2681 2623 2684 2784 2736 2683 2737
8 2740 2686 2647 2707 2787 2738 2706 2759
8 2688 2628 2686 2740 2742 2687 2739 2789
8 2743 2688 2650 2709 2790 2740 2707 2760
8 2742 2687 2741 2792 2690 2629 2689 2745
8 2743 2688 2742 2793 2709 2650 2690 2746
8 2745 2689 2744 2795 2692 2631 2693 2748
8 2746 2690 2745 2796 2691 2630 2692 2747
8 2747 2692 2748 2797 2694 2633 2695 2750
8 2748 2693 2749 2798 2695 2634 2696 2751
8 2750 2695 2751 2800 2697 2636 2698 2753
8 2751 2696 2752 2801 2698 2637 2699 2754
8 2753 2698 2754 2802 2700 2639 2701 2755
8 2763 2713 2756 2804 2714 2658 2703 2757
8 2759 2706 2652 2710 2804 2756 2703 2757
8 2715 2659 2714 2764 2758 2704 2757 2805
8 2758 2704 2757 2805 2712 2655 2710 2761
8 2806 2759 2707 2760 2761 2710 2653 2711
8 2765 2716 2762 2808 2718 2664 2713 2763
8 2809 2763 2714 2764 2767 2718 2663 2717
8 2765 2716 2664 2718 2811 2766 2719 2768
8 2813 2768 2718 2767 2770 2721 2666 2720
8 2814 2769 2719 2768 2771 2722 2667 2721
8 2723 2669 2724 2773 2770 2721 2771 2816
8 2724 2670 2725 2774 2771 2722 2772 2817
8 2726 2672 2727 2776 2773 2724 2774 2819
8 2727 2673 2728 2777 2774 2725 2775 2820
8 2729 2675 2730 2779 2776 2727 2777 2822
8 2730 2676 2731 2780 2777 2728 2778 2823
8 2732 2678 2733 2782 2779 2730 2780 2825
8 2780 2731 2679 2733 2826 2781 2734 2783
8 2782 2733 2681 2735 2827 2783 2736 2784
8 2830 2785 2738 2787 2804 2756 2706 2759
8 2789 2739 2686 2740 2832 2786 2738 2787
8 2790 2740 2707 2760 2833 2787 2759 2806
8 2742 2687 2739 2789 2792 2741 2788 2835
8 2743 2688 2740 2790 2793 2742 2789 2836
8 2792 2741 2791 2838 2745 2689 2744 2795
8 2793 2742 2792 2839 2746 2690 2745 2796
8 2795 2744 2794 2841 2748 2693 2749 2798
8 2796 2745 2795 2842 2747 2692 2748 2797
8 2797 2748 2798 2843 2750 2695 2751 2800
8 2798 2749 2799 2844 2751 2696 2752 2801
8 2800 2751 2801 2845 2753 2698 2754 2802
8 2808 2762 2803 2847 2763 2713 2756 2804
8 2809 2763 2804 2848 2764 2714 2757 2805
8 2806 2759 2710 2761 2848 2804 2757 2805
8 2765 2716 2766 2811 2808 2762 2807 2850
8 2810 2765 2808 2851 2767 2718 2763 2809
8 2810 2765 2718 2767 2852 2811 2768 2813
8 2811 2766 2719 2768 2853 2812 2769 2814
8 2855 2814 2768 2813 2816 2771 2721 2770
8 2856 2815 2769 2814 2817 2772 2722 2771
8 2773 2724 2774 2819 2816 2771 2817 2858
8 2774 2725 2775 2820 2817 2772 2818 2859
8 2776 2727 2777 2822 2819 2774 2820 2861
8 2777 2728 2778 2823 2820 2775 2821 2862
8 2779 2730 2780 2825 2822 2777 2823 2864
8 2823 2778 2731 2780 2865 2824 2781 2826
8 2825 2780 2733 2782 2866 2826 2783 2827
8 2869 2828 2785 2830 2847 2803 2756 2804
8 2871 2829 2786 2832 2830 2785 2738 2787
8 2872 2830 2787 2833 2848 2804 2759 2806
8 2789 2739 2786 2832 2835 2788 2831 2874
8 2836 2789 2740 2790 2875 2832 2787 2833
8 2792 2741 2788 2835 2838 2791 2834 2877
8 2793 2742 2789 2836 2839 2792 2835 2878
8 2838 2791 2837 2880 2795 2744 2794 2841
8 2839 2792 2838 2881 2796 2745 2795 2842
8 2841 2794 2840 2882 2798 2749 2799 2844
8 2842 2795 2841 2883 2797 2748 2798 2843
8 2843 2798 2844 2884 2800 2751 2801 2845
8 2886 2846 2803 2847 2850 2807 2762 2808
8 2851 2808 2847 2887 2809 2763 2804 2848
8 2850 2807 2766 2811 2889 2849 2812 2853
8 2810 2765 2811 2852 2851 2808 2850 2890
8 2852 2811 2768 2813 2891 2853 2814 2855
8 2853 2812 2769 2814 2892 2854 2815 2856
8 2894 2856 2814 2855 2858 2817 2771 2816
8 2817 2772 2818 2859 2856 2815 2857 2895
8 2819 2774 2820 2861 2858 2817 2859 2897
8 2820 2775 2821 2862 2859 2818 2860 2898
8 2822 2777 2823 2864 2861 2820 2862 2900
8 2823 2778 2824 2865 2862 2821 2863 2901
8 2864 2823 2780 2825 2902 2865 2826 2866
8 2904 2867 2828 2869 2886 2846 2803 2847
8 2869 2828 2868 2906 2830 2785 2829 2871
8 2907 2869 2830 2872 2887 2847 2804 2848
8 2871 2829 2870 2909 2832 2786 2831 2874
8 2910 2871 2832 2875 2872 2830 2787 2833
8 2835 2788 2831 2874 2877 2834 2873 2912
8 2836 2789 2832 2875 2878 2835 2874 2913
8 2877 2834 2876 2915 2838 2791 2837 2880
8 2839 2792 2835 2878 2881 2838 2877 2916
8 2880 2837 2879 2917 2841 2794 2840 2882
8 2881 2838 2880 2918 2842 2795 2841 2883
8 2883 2841 2882 2919 2843 2798 2844 2884
8 2921 2885 2846 2886 2889 2849 2807 2850
8 2922 2886 2847 2887 2890 2850 2808 2851
8 2889 2849 2812 2853 2924 2888 2854 2892
8 2890 2850 2811 2852 2925 2889 2853 2891
8 2891 2853 2814 2855 2926 2892 2856 2894
8 2892 2854 2815 2856 2927 2893 2857 2895
8 2858 2817 2859 2897 2894 2856 2895 2929
8 2859 2818 2860 2898 2895 2857 2896 2930
8 2861 2820 2862 2900 2897 2859 2898 2932
8 2862 2821 2863 2901 2898 2860 2899 2933
8 2864 2823 2865 2902 2900 2862 2901 2934
8 2904 2867 2846 2886 2936 2903 2885 2921
8 2904 2867 2903 2936 2869 2828 2868 2906
8 2937 2904 2869 2907 2922 2886 2847 2887
8 2906 2868 2905 2939 2871 2829 2870 2909
8 2907 2869 2906 2940 2872 2830 2871 2910
8 2909 2870 2908 2942 2874 2831 2873 2912
8 2910 2871 2909 2943 2875 2832 2874 2913
8 2912 2873 2911 2945 2877 2834 2876 2915
8 2878 2835 2874 2913 2916 2877 2912 2946
8 2915 2876 2914 2947 2880 2837 2879 2917
8 2916 2877 2915 2948 2881 2838 2880 2918
8 2918 2880 2917 2949 2883 2841 2882 2919
8 2921 2885 2849 2889 2951 2920 2888 2924
8 2952 2921 2886 2922 2925 2889 2850 2890
8 2924 2888 2854 2892 2954 2923 2893 2927
8 2925 2889 2853 2891 2955 2924 2892 2926
8 2926 2892 2856 2894 2956 2927 2895 2929
8 2895 2857 2896 2930 2927 2893 2928 2957
8 2897 2859 2898 2932 2929 2895 2930 2959
8 2898 2860 2899 2933 2930 2896 2931 2960
8 2900 2862 2901 2934 2932 2898 2933 2961
8 2936 2903 2885 2921 2963 2935 2920 2951
8 2936 2903 2935 2963 2906 2868 2905 2939
8 2937 2904 2886 2922 2964 2936 2921 2952
8 2937 2904 2936 2964 2907 2869 2906 2940
8 2939 2905 2938 2966 2909 2870 2908 2942
8 2940 2906 2939 2967 2910 2871 2909 2943
8 2942 2908 2941 2969 2912 2873 2911 2945
8 2943 2909 2942 2970 2913 2874 2912 2946
8 2945 2911 2944 2971 2915 2876 2914 2947
8 2946 2912 2945 2972 2916 2877 2915 2948
8 2948 2915 2947 2973 2918 2880 2917 2949
8 2951 2920 2888 2924 2975 2950 2923 2954
8 2952 2921 2889 2925 2976 2951 2924 2955
8 2927 2893 2928 2957 2954 2923 2953 2978
8 2955 2924 2892 2926 2979 2954 2927 2956
8 2929 2895 2930 2959 2956 2927 2957 2980
8 2930 2896 2931 2960 2957 2928 2958 2981
8 2932 2898 2933 2961 2959 2930 2960 2982
8 2951 2920 2950 2975 2963 2935 2962 2984
8 2963 2935 2962 2984 2939 2905 2938 2966
8 2964 2936 2921 2952 2985 2963 2951 2976
8 2964 2936 2963 2985 2940 2906 2939 2967
8 2966 2938 2965 2987 2942 2908 2941 2969
8 2967 2939 2966 2988 2943 2909 2942 2970
8 2969 2941 2968 2989 2945 2911 2944 2971
8 2970 2942 2969 2990 2946 2912 2945 2972
8 2972 2945 2971 2991 2948 2915 2947 2973
8 2954 2923 2953 2978 2975 2950 2974 2993
8 2976 2951 2924 2955 2994 2975 2954 2979
8 2957 2928 2958 2981 2978 2953 2977 2995
8 2956 2927 2957 2980 2979 2954 2978 2996
8 2959 2930 2960 2982 2980 2957 2981 2997
8 2984 2962 2983 2999 2966 2938 2965 2987
8 2975 2950 2974 2993 2984 2962 2983 2999
8 2976 2951 2975 2994 2985 2963 2984 3000
8 2985 2963 2984 3000 2967 2939 2966 2988
8 2987 2965 2986 3001 2969 2941 2968 2989
8 2988 2966 2987 3002 2970 2942 2969 2990
8 2990 2969 2989 3003 2972 2945 2971 2991
8 2978 2953 2977 2995 2993 2974 2992 3004
8 2979 2954 2978 2996 2994 2975 2993 3005
8 2980 2957 2981 2997 2996 2978 2995 3006
8 2974 2993 2999 2983 2992 3004 3007 2998
8 2983 2999 2987 2965 2998 3007 3001 2986
8 3000 2984 2999 3008 2988 2966 2987 3002
8 2994 2975 2993 3005 3000 2984 2999 3008
8 3002 2987 3001 3009 2990 2969 2989 3003
8 2996 2978 2995 3006 3005 2993 3004 3010
8 3005 2993 3004 3010 3008 2999 3007 3011
8 3008 2999 3007 3011 3002 2987 3001 3009

CELL_TYPES 1910
12
12
12
12
12
12
12
12
12
12
12
12
12
12
12
12
12
12
12
12
12
12
12
12
12
12
12
12
12
12
12
12
12
12
12
12
12
12
12
12
12
12
12
12
12
12
12
12
12
12
12
12
12
12
12
12
12
12
12
12
12
12
12
12
12
12
12
12
12
12
12
12
12
12
12
12
12
12
12
12
12
12
12
12
12
12
12
12
12
12
12
12
12
12
12
12
12
12
12
12
12
12
12
12
12
12
12
12
12
12
12
12
12
12
12
12
12
12
12
12
12
12
12
12
12
12
12
12
12
12
12
12
12
12
12
12
12
12
12
12
12
12
12
12
12
12
12
12
12
12
12
12
12
12
12
12
12
12
12
12
12
12
12
12
12
12
12
12
12
12
12
12
12
12
12
12
12
12
12
12
12
12
12
12
12
12
12
12
12
12
12
12
12
12
12
12
12
12
12
12
12
12
12
12
12
12
12
12
12
12
12
12
12
12
12
12
12
12
12
12
12
12
12
12
12
12
12
12
12
12
12
12
12
12
12
12
12
12
12
12
12
12
12
12
12
12
12
12
12
12
12
12
12
12
12
12
12
12
12
12
12
12
12
12
12
12
12
12
12
12
12
12
12
12
12
12
12
12
12
12
12
12
12
12
12
12
12
12
12
12
12
12
12
12
12
12
12
12
12
12
12
12
12
12
12
12
12
12
12
12
12
12
12
12
12
12
12
12
12
12
12
12
12
12
12
12
12
12
12
12
12
12
12
12
12
12
12
12
12
12
12
12
12
12
12
12
12
12
12
12
12
12
12
12
12
12
12
12
12
12
12
12
12
12
12
12
12
12
12
12
12
12
12
12
12
12
12
12
12
12
12
12
12
12
12
12
12
12
12
12
12
12
12
12
12
12
12
12
12
12
12
12
12
12
12
12
12
12
12
12
12
12
12
12
12
12
12
12
12
12
12
12
12
12
12
12
12
12
12
12
12
12
12
12
12
12
12
12
12
12
12
12
12
12
12
12
12
12
12
12
12
12
12
12
12
12
12
12
12
12
12
12
12
12
12
12
12
12
12
12
12
12
12
12
12
12
12
12
12
12
12
12
12
12
12
12
12
12
12
12
12
12
12
12
12
12
12
12
12
12
12
12
12
12
12
12
12
12
12
12
12
12
12
12
12
12
12
12
12
12
12
12
12
12
12
12
12
12
12
12
12
12
12
12
12
12
12
12
12
12
12
12
12
12
12
12
12
12
12
12
12
12
12
12
12
12
12
12
12
12
12
12
12
12
12
12
12
12
12
12
12
12
12
12
12
12
12
12
12
12
12
12
12
12
12
12
12
12
12
12
12
12
12
12
12
12
12
12
12
12
12
12
12
12
12
12
12
12
12
12
12
12
12
12
12
12
12
12
12
12
12
12
12
12
12
12
12
12
12
12
12
12
12
12
12
12
12
12
12
12
12
12
12
12
12
12
12
12
12
12
12
12
12
12
12
12
12
12
12
12
12
12
12
12
12
12
12
12
12
12
12
12
12
12
12
12
12
12
12
12
12
12
12
12
12
12
12
12
12
12
12
12
12
12
12
12
12
12
12
12
12
12
12
12
12
12
12
12
12
12
12
12
12
12
12
12
12
12
12
12
12
12
12
12
12
12
12
12
12
12
12
12
12
12
12
12
12
12
12
12
12
12
12
12
12
12
12
12
12
12
12
12
12
12
12
12
12
12
12
12
12
12
12
12
12
12
12
12
12
12
12
12
12
12
12
12
12
12
12
12
12
12
12
12
12
12
12
12
12
12
12
12
12
12
12
12
12
12
12
12
12
12
12
12
12
12
12
12
12
12
12
12
12
12
12
12
12
12
12
12
12
12
12
12
12
12
12
12
12
12
12
12
12
12
12
12
12
12
12
12
12
12
12
12
12
12
12
12
12
12
12
12
12
12
12
12
12
12
12
12
12
12
12
12
12
12
12
12
12
12
12
12
12
12
12
12
12
12
12
12
12
12
12
12
12
12
12
12
12
12
12
12
12
12
12
12
12
12
12
12
12
12
12
12
12
12
12
12
12
12
12
12
12
12
12
12
12
12
12
12
12
12
12
12
12
12
12
12
12
12
12
12
12
12
12
12
12
12
12
12
12
12
12
12
12
12
12
12
12
12
12
12
12
12
12
12
12
12
12
12
12
12
12
12
12
12
12
12
12
12
12
12
12
12
12
12
12
12
12
12
12
12
12
12
12
12
12
12
12
12
12
12
12
12
12
12
12
12
12
12
12
12
12
12
12
12
12
12
12
12
12
12
12
12
12
12
12
12
12
12
12
12
12
12
12
12
12
12
12
12
12
12
12
12
12
12
12
12
12
12
12
12
12
12
12
12
12
12
12
12
12
12
12
12
12
12
12
12
12
12
12
12
12
12
12
12
12
12
12
12
12
12
12
12
12
12
12
12
12
12
12
12
12
12
12
12
12
12
12
12
12
12
12
12
12
12
12
12
12
12
12
12
12
12
12
12
12
12
12
12
12
12
12
12
12
12
12
12
12
12
12
12
12
12
12
12
12
12
12
12
12
12
12
12
12
12
12
12
12
12
12
12
12
12
12
12
12
12
12
12
12
12
12
12
12
12
12
12
12
12
12
12
12
12
12
12
12
12
12
12
12
12
12
12
12
12
12
12
12
12
12
12
12
12
12
12
12
12
12
12
12
12
12
12
12
12
12
12
12
12
12
12
12
12
12
12
12
12
12
12
12
12
12
12
12
12
12
12
12
12
12
12
12
12
12
12
12
12
12
12
12
12
12
12
12
12
12
12
12
12
12
12
12
12
12
12
12
12
12
12
12
12
12
12
12
12
12
12
12
12
12
12
12
12
12
12
12
12
12
12
12
12
12
12
12
12
12
12
12
12
12
12
12
12
12
12
12
12
12
12
12
12
12
12
12
12
12
12
12
12
12
12
12
12
12
12
12
12
12
12
12
12
12
12
12
12
12
12
12
12
12
12
12
12
12
12
12
12
12
12
12
12
12
12
12
12
12
12
12
12
12
12
12
12
12
12
12
12
12
12
12
12
12
12
12
12
12
12
12
12
12
12
12
12
12
12
12
12
12
12
12
12
12
12
12
12
12
12
12
12
12
12
12
12
12
12
12
12
12
12
12
12
12
12
12
12
12
12
12
12
12
12
12
12
12
12
12
12
12
12
12
12
12
12
12
12
12
12
12
12
12
12
12
12
12
12
12
12
12
12
12
12
12
12
12
12
12
12
12
12
12
12
12
12
12
12
12
12
12
12
12
12
12
12
12
12
12
12
12
12
12
12
12
12
12
12
12
12
12
12
12
12
12
12
12
12
12
12
12
12
12
12
12
12
12
12
12
12
12
12
12
12
12
12
12
12
12
12
12
12
12
12
12
12
12
12
12
12
12
12
12
12
12
12
12
12
12
12
12
12
12
12
12
12
12
12
12
12
12
12
12
12
12
12
12
12
12
12
12
12
12
12
12
12
12
12
12
12
12
12
12
12
12
12
12
12
12
12
12
12
12
12
12
12
12
12
12
12
12
12
12
12
12
12
12
12
12
12
12
12
12
12
12
12
12
12
12
12
12
12
12
12
12
12
12
12
12
12
12
12
12
12
12
12
12
12
12
12
12
12
12
12
12
12
12
12
12
12
12
12
12
12
12
12
12
12
12
12
12
12
12
12
12
12
12
12
12
12
12
12
12
12
12
12
12
12
12
12
12
12
12
12
12
12
12
12
12
12
12
12
12
12
12
12
12
12
12
12
12
12
12
12
12
12
12
12
12
12
12
12
12
12
12
12
12
12
12
12
12
12
12
12
12
12
12
12
12
12
12
12
12
12
12
12
12
12
12
12
12
12
12
12
12
12
12
12
12
12
12
12
12
12
12
12
12
12
12
12
12
12
12
12
12
12
12
12
12
12
12
12
12
12
12
12
12
12
12
12
12
12
12
12
12
12
12
12
12
12
12
12
12
12
12
12
12
12
12
12
12
12
12
12
12
12
12
12
12
12
12
12
12
12
12
12
12
12
12
12
12
12
12
12
12
12
12
12
12
12
12
12
12
12
12
12
12
12
12
12
12
12
12
12
12
12
12
12
12
12
12
12
12
12
12
12
12
12
12
12
12
12
12
12
12
12
12
12
12
12
12
12
12
12
12
12
12
12
12
12
12
12
12
12
12
12
12
12
12
12
12
12
12
12
12
12
12
12
12
12
12
12
12
12
12
12
12
12
12
12
12
12
12
12
12
12
12
12
12
12
12
12
12
12
12
12
12
12
12
12
12
12
12
12
12
12
12
12
12
12
12
12

POINT_DATA 3012
SCALARS Jp_lamdaP float 4
LOOKUP_TABLE default
1 1 1 1
1 1 1 1
1 1 1 1
0.999999 1 1 0.999999
1 1 1 1
1 1 1 1
0.999937 1 1 0.999937
1 1 1 1
1 1 1 1
1 1 1 1
1 1 1 1
0.999989 1 1 0.999989
0.999994 1 1 0.999994
1 1 1 1
1 1 1 1
1 1 1 1
1 1 1 1
1 1 1 1
0.999938 1 1 0.999938
1 1 1 1
0.999998 1 1 0.999998
1 1 1 1
0.999888 1 1 0.999888
0.999924 1 1 0.999924
1 1 1 1
0.999953 1 1 0.999953
0.999809 1 1 0.999809
1 1 1 1
1 1 1 1
1 1 1 1
1 1 1 1
0.999991 1 1 0.999991
1 1 1 1
1 1 1 1
0.999956 1 1 0.999956
1 1 1 1
0.999981 1 1 0.999981
0.999996 1 1 0.999996
0.999839 1 1 0.999839
1 1 1 1
1 1 1 1
1 1 1 1
1 1 1 1
0.999998 1 1 0.999998
0.999897 1 1 0.999897
1 1 1 1
0.99993 1 1 0.99993
1 1 1 1
1 1 1 1
1 1 1 1
0.999939 1 1 0.999939
0.999997 1 1 0.999997
0.999999 1 1 0.999999
1 1 1 1
1 1 1 1
0.999889 1 1 0.999889
0.999954 1 1 0.999954
0.999925 1 1 0.999925
0.999804 1 1 0.999804
1 1 1 1
0.999997 1 1 0.999997
0.999908 1 1 0.999908
0.999876 1 1 0.999876
0.999907 1 1 0.999907
0.999686 1 1 0.999686
0.999758 1 1 0.999758
1 1 1 1
0.99997 1 1 0.99997
0.999843 1 1 0.999843
0.999632 1 1 0.999632
1 1 1 1
1 1 1 1
1 1 1 1
0.999993 1 1 0.999993
1 1 1 1
1 1 1 1
0.99996 1 1 0.99996
1 1 1 1
0.999984 1 1 0.999984
0.999997 1 1 0.999997
0.999838 1 1 0.999838
1 1 1 1
1 1 1 1
0.999945 1 1 0.999945
0.99997 1 1 0.99997
0.99974 1 1 0.99974
1 1 1 1
0.999823 1 1 0.999823
0.999856 1 1 0.999856
0.999708 1 1 0.999708
1 1 1 1
1 1 1 1
1 1 1 1
1 1 1 1
1 1 1 1
0.999998 1 1 0.999998
0.999903 1 1 0.999903
1 1 1 1
0.999932 1 1 0.999932
1 1 1 1
0.999882 1 1 0.999882
0.999919 1 1 0.999919
0.999582 1 1 0.999582
0.999937 1 1 0.999937
0.99963 1 1 0.99963
0.999995 1 1 0.999995
0.999999 1 1 0.999999
1 1 1 1
1 1 1 1
0.99989 1 1 0.99989
0.999925 1 1 0.999925
0.999954 1 1 0.999954
0.999799 1 1 0.999799
1 1 1 1
0.999997 1 1 0.999997
0.999881 1 1 0.999881
0.999876 1 1 0.999876
1 1 1 1
0.999982 1 1 0.999982
0.999908 1 1 0.999908
0.999675 1 1 0.999675
0.999838 1 1 0.999838
0.999766 1 1 0.999766
0.999633 1 1 0.999633
0.999889 1 1 0.999889
0.999872 1 1 0.999872
0.999611 1 1 0.999611
0.999642 1 1 0.999642
0.999714 1 1 0.999714
0.999514 1 1 0.999514
1 1 1 1
0.999607 1 1 0.999607
0.999999 1 1 0.999999
0.999851 1 1 0.999851
0.999658 1 1 0.999658
0.999562 1 1 0.999562
1 1 1 1
0.9999 1 1 0.9999
1 1 1 1
1 1 1 1
0.999964 1 1 0.999964
1 1 1 1
0.999998 1 1 0.999998
0.999986 1 1 0.999986
0.999838 1 1 0.999838
1 1 1 1
1 1 1 1
0.999948 1 1 0.999948
0.999973 1 1 0.999973
0.999741 1 1 0.999741
1 1 1 1
0.999823 1 1 0.999823
0.999856 1 1 0.999856
0.999703 1 1 0.999703
1 1 1 1
1 1 1 1
0.99991 1 1 0.99991
0.999694 1 1 0.999694
0.999789 1 1 0.999789
0.999592 1 1 0.999592
0.999878 1 1 0.999878
0.999689 1 1 0.999689
0.999716 1 1 0.999716
0.99965 1 1 0.99965
1 1 1 1
1 1 1 1
1 1 1 1
1 1 1 1
1 1 1 1
1 1 1 1
1 1 1 1
0.999933 1 1 0.999933
0.999904 1 1 0.999904
1 1 1 1
1 1 1 1
0.999883 1 1 0.999883
0.999921 1 1 0.999921
0.999582 1 1 0.999582
0.999939 1 1 0.999939
0.999631 1 1 0.999631
0.999877 1 1 0.999877
0.999556 1 1 0.999556
0.999608 1 1 0.999608
0.999437 1 1 0.999437
0.999658 1 1 0.999658
0.99949 1 1 0.99949
1 1 1 1
0.999998 1 1 0.999998
0.999854 1 1 0.999854
0.999877 1 1 0.999877
1 1 1 1
0.999994 1 1 0.999994
0.999909 1 1 0.999909
0.999664 1 1 0.999664
0.999774 1 1 0.999774
0.999833 1 1 0.999833
0.999634 1 1 0.999634
0.999887 1 1 0.999887
0.999872 1 1 0.999872
0.999588 1 1 0.999588
0.999649 1 1 0.999649
1 1 1 1
0.999999 1 1 0.999999
0.99986 1 1 0.99986
0.999715 1 1 0.999715
0.999501 1 1 0.999501
0.999655 1 1 0.999655
0.999613 1 1 0.999613
0.999563 1 1 0.999563
1 1 1 1
0.9999 1 1 0.9999
0.999561 1 1 0.999561
0.999628 1 1 0.999628
0.999455 1 1 0.999455
0.999457 1 1 0.999457
0.999575 1 1 0.999575
0.999449 1 1 0.999449
1 1 1 1
0.999543 1 1 0.999543
0.999866 1 1 0.999866
0.999692 1 1 0.999692
0.999585 1 1 0.999585
0.999544 1 1 0.999544
0.999882 1 1 0.999882
0.999928 1 1 0.999928
0.999733 1 1 0.999733
0.99995 1 1 0.99995
1 1 1 1
1 1 1 1
0.999977 1 1 0.999977
0.999742 1 1 0.999742
1 1 1 1
0.999856 1 1 0.999856
0.999824 1 1 0.999824
0.999699 1 1 0.999699
1 1 1 1
1 1 1 1
0.99991 1 1 0.99991
0.999695 1 1 0.999695
0.99979 1 1 0.99979
0.999592 1 1 0.999592
0.999878 1 1 0.999878
0.999694 1 1 0.999694
0.999715 1 1 0.999715
0.999644 1 1 0.999644
1 1 1 1
0.999894 1 1 0.999894
0.99993 1 1 0.99993
0.999754 1 1 0.999754
0.999547 1 1 0.999547
0.999652 1 1 0.999652
0.999518 1 1 0.999518
0.999735 1 1 0.999735
0.999632 1 1 0.999632
0.999631 1 1 0.999631
0.999601 1 1 0.999601
0.99998 1 1 0.99998
1 1 1 1
1 1 1 1
1 1 1 1
1 1 1 1
1 1 1 1
1 1 1 1
1 1 1 1
1 1 1 1
0.999941 1 1 0.999941
0.999922 1 1 0.999922
0.999631 1 1 0.999631
0.999582 1 1 0.999582
0.999884 1 1 0.999884
1 1 1 1
0.999876 1 1 0.999876
0.999556 1 1 0.999556
0.999608 1 1 0.999608
0.999437 1 1 0.999437
0.999658 1 1 0.999658
0.99949 1 1 0.99949
0.999549 1 1 0.999549
0.999411 1 1 0.999411
0.999464 1 1 0.999464
0.999394 1 1 0.999394
0.999517 1 1 0.999517
0.999441 1 1 0.999441
0.999885 1 1 0.999885
0.999872 1 1 0.999872
0.999565 1 1 0.999565
0.999657 1 1 0.999657
1 1 1 1
0.999998 1 1 0.999998
0.99987 1 1 0.99987
0.999716 1 1 0.999716
0.999488 1 1 0.999488
0.999619 1 1 0.999619
0.999653 1 1 0.999653
0.999565 1 1 0.999565
1 1 1 1
0.9999 1 1 0.9999
0.999553 1 1 0.999553
0.999628 1 1 0.999628
0.99945 1 1 0.99945
0.999471 1 1 0.999471
1 1 1 1
0.999866 1 1 0.999866
0.999701 1 1 0.999701
0.999575 1 1 0.999575
0.999446 1 1 0.999446
0.999575 1 1 0.999575
0.999543 1 1 0.999543
0.999543 1 1 0.999543
0.999883 1 1 0.999883
0.999729 1 1 0.999729
0.999928 1 1 0.999928
0.999437 1 1 0.999437
0.999459 1 1 0.999459
0.999381 1 1 0.999381
0.999404 1 1 0.999404
0.999508 1 1 0.999508
0.999452 1 1 0.999452
0.999875 1 1 0.999875
0.999532 1 1 0.999532
0.999734 1 1 0.999734
0.999607 1 1 0.999607
0.999525 1 1 0.999525
0.999565 1 1 0.999565
0.999956 1 1 0.999956
0.999737 1 1 0.999737
0.999729 1 1 0.999729
0.999665 1 1 0.999665
0.999695 1 1 0.999695
1 1 1 1
1 1 1 1
0.99991 1 1 0.99991
0.999791 1 1 0.999791
0.999592 1 1 0.999592
0.999878 1 1 0.999878
0.999715 1 1 0.999715
0.999699 1 1 0.999699
0.999638 1 1 0.999638
1 1 1 1
0.999894 1 1 0.999894
0.999931 1 1 0.999931
0.999753 1 1 0.999753
0.999547 1 1 0.999547
0.999652 1 1 0.999652
0.999518 1 1 0.999518
0.999735 1 1 0.999735
0.999639 1 1 0.999639
0.999628 1 1 0.999628
0.999615 1 1 0.999615
1 1 1 1
0.999949 1 1 0.999949
0.999747 1 1 0.999747
0.999768 1 1 0.999768
0.999662 1 1 0.999662
0.999483 1 1 0.999483
0.999582 1 1 0.999582
0.999491 1 1 0.999491
0.999642 1 1 0.999642
0.999595 1 1 0.999595
0.999541 1 1 0.999541
0.999972 1 1 0.999972
0.99985 1 1 0.99985
0.999986 1 1 0.999986
0.999982 1 1 0.999982
1 1 1 1
1 1 1 1
1 1 1 1
1 1 1 1
1 1 1 1
1 1 1 1
1 1 1 1
1 1 1 1
1 1 1 1
1 1 1 1
1 1 1 1
0.999659 1 1 0.999659
0.999608 1 1 0.999608
0.99949 1 1 0.99949
0.999437 1 1 0.999437
0.999556 1 1 0.999556
0.999876 1 1 0.999876
0.999548 1 1 0.999548
0.999411 1 1 0.999411
0.999464 1 1 0.999464
0.999392 1 1 0.999392
0.999517 1 1 0.999517
0.999441 1 1 0.999441
0.999403 1 1 0.999403
0.999371 1 1 0.999371
0.999413 1 1 0.999413
0.999384 1 1 0.999384
0.999465 1 1 0.999465
0.99946 1 1 0.99946
0.999545 1 1 0.999545
0.999628 1 1 0.999628
0.999446 1 1 0.999446
0.999485 1 1 0.999485
1 1 1 1
0.999866 1 1 0.999866
0.99971 1 1 0.99971
0.999575 1 1 0.999575
0.999443 1 1 0.999443
0.999543 1 1 0.999543
0.999565 1 1 0.999565
0.999542 1 1 0.999542
0.999884 1 1 0.999884
0.999725 1 1 0.999725
0.999927 1 1 0.999927
0.999426 1 1 0.999426
0.999459 1 1 0.999459
0.999375 1 1 0.999375
0.999407 1 1 0.999407
0.999875 1 1 0.999875
0.999733 1 1 0.999733
0.999616 1 1 0.999616
0.999512 1 1 0.999512
0.999457 1 1 0.999457
0.999517 1 1 0.999517
0.999532 1 1 0.999532
0.999569 1 1 0.999569
0.999738 1 1 0.999738
0.999658 1 1 0.999658
0.999954 1 1 0.999954
0.999733 1 1 0.999733
0.999361 1 1 0.999361
0.999383 1 1 0.999383
0.999342 1 1 0.999342
0.999398 1 1 0.999398
0.999511 1 1 0.999511
0.999479 1 1 0.999479
0.999742 1 1 0.999742
0.999575 1 1 0.999575
0.999654 1 1 0.999654
0.999538 1 1 0.999538
0.999485 1 1 0.999485
0.99957 1 1 0.99957
0.999971 1 1 0.999971
0.999757 1 1 0.999757
0.999672 1 1 0.999672
0.999644 1 1 0.999644
0.99963 1 1 0.99963
1 1 1 1
0.999546 1 1 0.999546
0.999931 1 1 0.999931
0.999894 1 1 0.999894
0.999752 1 1 0.999752
0.999653 1 1 0.999653
0.999518 1 1 0.999518
0.999735 1 1 0.999735
0.999626 1 1 0.999626
0.999645 1 1 0.999645
0.999628 1 1 0.999628
1 1 1 1
0.99995 1 1 0.99995
0.999747 1 1 0.999747
0.999767 1 1 0.999767
0.99966 1 1 0.99966
0.999481 1 1 0.999481
0.999582 1 1 0.999582
0.999488 1 1 0.999488
0.999643 1 1 0.999643
0.999599 1 1 0.999599
0.999548 1 1 0.999548
0.999963 1 1 0.999963
0.999787 1 1 0.999787
0.999655 1 1 0.999655
0.999668 1 1 0.999668
0.99962 1 1 0.99962
0.999468 1 1 0.999468
0.999547 1 1 0.999547
0.999517 1 1 0.999517
0.999561 1 1 0.999561
0.999498 1 1 0.999498
0.999975 1 1 0.999975
0.999812 1 1 0.999812
0.99984 1 1 0.99984
0.99975 1 1 0.99975
0.99986 1 1 0.99986
0.99999 1 1 0.99999
0.999987 1 1 0.999987
1 1 1 1
0.999984 1 1 0.999984
1 1 1 1
1 1 1 1
1 1 1 1
1 1 1 1
1 1 1 1
1 1 1 1
1 1 1 1
1 1 1 1
1 1 1 1
1 1 1 1
1 1 1 1
0.999516 1 1 0.999516
0.999464 1 1 0.999464
0.999442 1 1 0.999442
0.99939 1 1 0.99939
0.999411 1 1 0.999411
0.999548 1 1 0.999548
0.999403 1 1 0.999403
0.999368 1 1 0.999368
0.999414 1 1 0.999414
0.999383 1 1 0.999383
0.999463 1 1 0.999463
0.999461 1 1 0.999461
0.999355 1 1 0.999355
0.999361 1 1 0.999361
0.999412 1 1 0.999412
0.999375 1 1 0.999375
0.999469 1 1 0.999469
0.999482 1 1 0.999482
0.999416 1 1 0.999416
0.999458 1 1 0.999458
0.999368 1 1 0.999368
0.99941 1 1 0.99941
0.999875 1 1 0.999875
0.999733 1 1 0.999733
0.999626 1 1 0.999626
0.999516 1 1 0.999516
0.999462 1 1 0.999462
0.999533 1 1 0.999533
0.999508 1 1 0.999508
0.999573 1 1 0.999573
0.999739 1 1 0.999739
0.99965 1 1 0.99965
0.999952 1 1 0.999952
0.999736 1 1 0.999736
0.999362 1 1 0.999362
0.999385 1 1 0.999385
0.999341 1 1 0.999341
0.999399 1 1 0.999399
0.999742 1 1 0.999742
0.999661 1 1 0.999661
0.999538 1 1 0.999538
0.999507 1 1 0.999507
0.999497 1 1 0.999497
0.999481 1 1 0.999481
0.999576 1 1 0.999576
0.999584 1 1 0.999584
0.999672 1 1 0.999672
0.999628 1 1 0.999628
0.999643 1 1 0.999643
0.999957 1 1 0.999957
0.999762 1 1 0.999762
0.999333 1 1 0.999333
0.999331 1 1 0.999331
0.999422 1 1 0.999422
0.999543 1 1 0.999543
0.999681 1 1 0.999681
0.999621 1 1 0.999621
0.999599 1 1 0.999599
0.999451 1 1 0.999451
0.999452 1 1 0.999452
0.999957 1 1 0.999957
0.999811 1 1 0.999811
0.999665 1 1 0.999665
0.999646 1 1 0.999646
0.999579 1 1 0.999579
0.999602 1 1 0.999602
1 1 1 1
0.999951 1 1 0.999951
0.99948 1 1 0.99948
0.999767 1 1 0.999767
0.999747 1 1 0.999747
0.999657 1 1 0.999657
0.999583 1 1 0.999583
0.999486 1 1 0.999486
0.999644 1 1 0.999644
0.999555 1 1 0.999555
0.999603 1 1 0.999603
0.999965 1 1 0.999965
0.999787 1 1 0.999787
0.99966 1 1 0.99966
0.999668 1 1 0.999668
0.999614 1 1 0.999614
0.999466 1 1 0.999466
0.999545 1 1 0.999545
0.999521 1 1 0.999521
0.999556 1 1 0.999556
0.999486 1 1 0.999486
0.999808 1 1 0.999808
0.999666 1 1 0.999666
0.999595 1 1 0.999595
0.9996 1 1 0.9996
0.99958 1 1 0.99958
0.999557 1 1 0.999557
0.999481 1 1 0.999481
0.999504 1 1 0.999504
0.999498 1 1 0.999498
0.999388 1 1 0.999388
0.999977 1 1 0.999977
0.999819 1 1 0.999819
0.999702 1 1 0.999702
0.999831 1 1 0.999831
0.99986 1 1 0.99986
0.999736 1 1 0.999736
0.999662 1 1 0.999662
0.999733 1 1 0.999733
0.999869 1 1 0.999869
0.999992 1 1 0.999992
0.999991 1 1 0.999991
1 1 1 1
0.999988 1 1 0.999988
1 1 1 1
1 1 1 1
1 1 1 1
1 1 1 1
1 1 1 1
1 1 1 1
1 1 1 1
1 1 1 1
1 1 1 1
1 1 1 1
1 1 1 1
0.999462 1 1 0.999462
0.999414 1 1 0.999414
0.999461 1 1 0.999461
0.999381 1 1 0.999381
0.999365 1 1 0.999365
0.999403 1 1 0.999403
0.999353 1 1 0.999353
0.999362 1 1 0.999362
0.999407 1 1 0.999407
0.999369 1 1 0.999369
0.999469 1 1 0.999469
0.999496 1 1 0.999496
0.999349 1 1 0.999349
0.999365 1 1 0.999365
0.999411 1 1 0.999411
0.999541 1 1 0.999541
0.999362 1 1 0.999362
0.999387 1 1 0.999387
0.999339 1 1 0.999339
0.999401 1 1 0.999401
0.999742 1 1 0.999742
0.999669 1 1 0.999669
0.999537 1 1 0.999537
0.999503 1 1 0.999503
0.999516 1 1 0.999516
0.999577 1 1 0.999577
0.999476 1 1 0.999476
0.999597 1 1 0.999597
0.999672 1 1 0.999672
0.999625 1 1 0.999625
0.999641 1 1 0.999641
0.999943 1 1 0.999943
0.999766 1 1 0.999766
0.999332 1 1 0.999332
0.999337 1 1 0.999337
0.999429 1 1 0.999429
0.99968 1 1 0.99968
0.999609 1 1 0.999609
0.999448 1 1 0.999448
0.999535 1 1 0.999535
0.999472 1 1 0.999472
0.999618 1 1 0.999618
0.999957 1 1 0.999957
0.999645 1 1 0.999645
0.999608 1 1 0.999608
0.99958 1 1 0.99958
0.999669 1 1 0.999669
0.999801 1 1 0.999801
0.999325 1 1 0.999325
0.999325 1 1 0.999325
0.999472 1 1 0.999472
0.999608 1 1 0.999608
0.999643 1 1 0.999643
0.999516 1 1 0.999516
0.999505 1 1 0.999505
0.999382 1 1 0.999382
0.999968 1 1 0.999968
0.99984 1 1 0.99984
0.9997 1 1 0.9997
0.999564 1 1 0.999564
0.99961 1 1 0.99961
0.999556 1 1 0.999556
0.999967 1 1 0.999967
0.999787 1 1 0.999787
0.999465 1 1 0.999465
0.999667 1 1 0.999667
0.999666 1 1 0.999666
0.999609 1 1 0.999609
0.999542 1 1 0.999542
0.999524 1 1 0.999524
0.99955 1 1 0.99955
0.999475 1 1 0.999475
0.999808 1 1 0.999808
0.99967 1 1 0.99967
0.999604 1 1 0.999604
0.999605 1 1 0.999605
0.999584 1 1 0.999584
0.99956 1 1 0.99956
0.999484 1 1 0.999484
0.999533 1 1 0.999533
0.999491 1 1 0.999491
0.999376 1 1 0.999376
0.999684 1 1 0.999684
0.999582 1 1 0.999582
0.999538 1 1 0.999538
0.999545 1 1 0.999545
0.999548 1 1 0.999548
0.999535 1 0.999961 0.999573
0.99938 1 1 0.99938
0.999918 1 1.00056 0.999355
0.999826 1 1 0.999826
0.999709 1 1 0.999709
0.999636 1 1 0.999636
0.99986 1 1 0.99986
0.999722 1 1 0.999722
0.999869 1 1 0.999869
0.999652 1 1 0.999652
0.999738 1 1 0.999738
0.999594 1 1 0.999594
0.999649 1 1 0.999649
0.999741 1 1 0.999741
0.999874 1 1 0.999874
0.999993 1 1 0.999993
0.999992 1 1 0.999992
1 1 1 1
0.999991 1 1 0.999991
1 1 1 1
1 1 1 1
1 1 1 1
1 1 1 1
1 1 1 1
1 1 1 1
1 1 1 1
1 1 1 1
1 1 1 1
1 1 1 1
1 1 1 1
0.999469 1 1 0.999469
0.999402 1 1 0.999402
0.999509 1 1 0.999509
0.999362 1 1 0.999362
0.999364 1 1 0.999364
0.999352 1 1 0.999352
0.999349 1 1 0.999349
0.999365 1 1 0.999365
0.999417 1 1 0.999417
0.999537 1 1 0.999537
0.999356 1 1 0.999356
0.999391 1 1 0.999391
0.999474 1 1 0.999474
0.999331 1 1 0.999331
0.999342 1 1 0.999342
0.999436 1 1 0.999436
0.99968 1 1 0.99968
0.999619 1 1 0.999619
0.999446 1 1 0.999446
0.999528 1 1 0.999528
0.999614 1 1 0.999614
0.999492 1 1 0.999492
0.999644 1 1 0.999644
0.999614 1 1 0.999614
0.999581 1 1 0.999581
0.999958 1 1 0.999958
0.999673 1 1 0.999673
0.99979 1 1 0.99979
0.99933 1 1 0.99933
0.999323 1 1 0.999323
0.999461 1 1 0.999461
0.999641 1 1 0.999641
0.99952 1 1 0.99952
0.999425 1 1.00004 0.999387
0.999615 1 1 0.999615
0.999515 1 1 0.999515
0.999978 1 1 0.999978
0.99984 1 1 0.99984
0.99961 1 1 0.99961
0.999559 1 1 0.999559
0.999569 1 1 0.999569
0.999692 1 1 0.999692
0.999347 1 1 0.999347
0.999343 1 1 0.999343
0.999495 1 0.999905 0.999585
0.999622 1 1 0.999622
0.999587 1 1 0.999587
1.00062 1 1.00127 0.999349
0.999434 1 1 0.999434
0.999996 1 1 0.999996
0.999897 1 1 0.999897
0.999844 1 1 0.999844
0.999709 1 1 0.999709
0.999594 1 1 0.999594
0.999504 1 1 0.999504
0.999587 1 1 0.999587
0.999528 1 1 0.999528
0.999808 1 1 0.999808
0.999674 1 1 0.999674
0.999562 1 1 0.999562
0.999609 1 1 0.999609
0.999612 1 1 0.999612
0.999589 1 1 0.999589
0.999488 1 1 0.999488
0.999561 1 1 0.999561
0.999484 1 1 0.999484
0.999364 1 1 0.999364
0.999681 1 1 0.999681
0.99959 1 1 0.99959
0.999545 1 1 0.999545
0.999551 1 1 0.999551
0.999546 1 1 0.999546
0.999568 1 0.999998 0.999569
0.999394 1 1 0.999394
0.999735 1 1.00038 0.99935
0.999614 1 1 0.999614
0.999468 1 1 0.999468
0.999533 1 1 0.999533
0.999471 1 1 0.999471
0.999851 1.00045 0.99982 0.999577
0.999361 1 1 0.999361
1.0003 1 1.00101 0.999293
0.999715 1 1 0.999715
0.999636 1 1 0.999636
0.999575 1 1 0.999575
0.999869 1 1 0.999869
0.999743 1 1 0.999743
0.999641 1 1 0.999641
0.999874 1 1 0.999874
0.99974 1 1 0.99974
0.999586 1 1 0.999586
0.99966 1 1 0.99966
0.999545 1 1 0.999545
0.999581 1 1 0.999581
0.999669 1 1 0.999669
0.999757 1 1 0.999757
0.999875 1 1 0.999875
0.999992 1 1 0.999992
0.999993 1 1 0.999993
1 1 1 1
0.999993 1 1 0.999993
1 1 1 1
1 1 1 1
1 1 1 1
1 1 1 1
1 1 1 1
0.999999 1 1 0.999999
1 1 1 1
1 1 1 1
1 1 1 1
1 1 1 1
1 1 1 1
1 1 1 1
0.999532 1 1 0.999532
0.999423 1 1 0.999423
0.999365 1 1 0.999365
0.99935 1 1 0.99935
0.999361 1 1 0.999361
0.999384 1 1 0.999384
0.999488 1 1 0.999488
0.999384 1 1 0.999384
0.999411 1 1 0.999411
0.999487 1 1 0.999487
0.999334 1 1 0.999334
0.999321 1 1 0.999321
0.99945 1 1 0.99945
0.99964 1 1 0.99964
0.999534 1 1 0.999534
0.999393 1 1 0.999393
0.999622 1 1 0.999622
0.999513 1 1 0.999513
0.999609 1 1 0.999609
0.999562 1 1 0.999562
0.999575 1 1 0.999575
0.999988 1 1 0.999988
0.99984 1 1 0.99984
0.999684 1 1 0.999684
0.999347 1 1 0.999347
0.999995 1 1 0.999995
0.999889 1 1 0.999889
0.999344 1 1 0.999344
0.999565 1 1 0.999564
0.999594 1 1 0.999594
0.999481 1 1.00006 0.999418
0.999929 1 1.00058 0.999354
0.999619 1 1 0.999619
0.999864 1 1 0.999864
0.999708 1 1 0.999708
0.999586 1 1 0.999586
0.999545 1 1 0.999545
0.999492 1 1 0.999492
0.999596 1 1 0.999596
0.999359 1 1 0.999359
0.999574 1.00015 1 0.999428
0.999496 1.0002 0.999601 0.999697
0.999449 1 1 0.999449
0.999547 1 1 0.999547
1.00151 1 1.0022 0.999314
0.999896 1 1 0.999896
0.999881 1 1 0.999881
0.999797 1 1 0.999797
0.999715 1 1 0.999715
0.999623 1 1 0.999623
0.99951 1 1 0.99951
0.999441 1 1 0.999441
0.999547 1 1 0.999547
0.999678 1 1 0.999678
0.999597 1 1 0.999597
0.999544 1 1 0.999544
0.999565 1 1 0.999565
0.999557 1 1 0.999557
0.999553 1 1 0.999553
0.999407 1 1 0.999407
0.999583 1 1.00024 0.999344
0.999614 1 1 0.999614
0.999483 1 1 0.999483
0.999533 1 1 0.999533
0.999551 1 1.00009 0.999458
0.999653 1.00023 0.999858 0.999569
0.999378 1.00001 1 0.999365
1.00019 1 1.0009 0.999291
0.999547 1 1 0.999547
1.00338 1.00443 0.999451 0.999507
0.999489 1 1 0.999489
0.999936 1 1.00058 0.99936
0.997487 1.00045 0.997667 0.999375
1.00065 1 1.00141 0.999248
1.00455 1.00701 0.998219 0.999341
0.999636 1 1 0.999636
0.999575 1 1 0.999575
0.999533 1 1 0.999533
0.999874 1 1 0.999874
0.999739 1 1 0.999739
0.999671 1 1 0.999671
0.999578 1 1 0.999578
0.999875 1 1 0.999875
0.99975 1 1 0.99975
0.999543 1 1 0.999543
0.999669 1 1 0.999669
0.99959 1 1 0.99959
0.999523 1 1 0.999523
0.999609 1 1 0.999609
0.999677 1 1 0.999677
0.999741 1 1 0.999741
0.999855 1 1 0.999855
0.999773 1 1 0.999773
0.999855 1 1 0.999855
0.999992 1 1 0.999992
0.999992 1 1 0.999992
1 1 1 1
0.999992 1 1 0.999992
1 1 1 1
1 1 1 1
1 1 1 1
1 1 1 1
1 1 1 1
1 1 1 1
0.999998 1 1 0.999998
1 1 1 1
1 1 1 1
1 1 1 1
1 1 1 1
1 1 1 1
1 1 1 1
0.999502 1 1 0.999502
0.999377 1 1 0.999377
0.999367 1 1 0.999367
0.999384 1 1 0.999384
0.999418 1 1 0.999418
0.999493 1 1 0.999493
0.999431 1 1 0.999431
1.00043 1.00555 0.995308 0.999595
1.00146 1.00217 0.999705 0.999583
0.999922 1 1 0.999922
0.999348 1 1 0.999348
0.999346 1 1 0.999346
0.999544 1 1 0.999544
0.999601 1 1 0.999601
0.999739 1 1.00034 0.999402
0.999478 1 1.00012 0.99936
0.999617 1 1 0.999617
0.999585 1 1 0.999585
0.999562 1 1 0.999562
0.99948 1 1 0.99948
0.999993 1 1 0.999993
0.999598 1 1 0.999598
0.999884 1 1 0.999884
0.999708 1 1 0.999708
0.999882 1 1 0.999882
0.999353 1 1 0.999353
0.999905 1 1 0.999905
0.999881 1 1 0.999881
0.999781 1 1 0.999781
0.999639 1.00021 1 0.999431
0.99924 1.0001 0.999469 0.99967
0.999551 1 1 0.999551
1.00159 1 1.00229 0.999307
0.999616 1 1.00016 0.999454
0.999726 1 1 0.999726
0.999619 1 1 0.999619
0.99954 1 1 0.99954
0.999491 1 1.00004 0.999452
0.999518 1 1 0.999518
0.999602 1.00021 1.00004 0.999343
0.997721 1.00078 0.997374 0.999573
0.999493 1.00025 0.999716 0.999528
1.00072 1 1.00139 0.99933
1.00095 1 1.00148 0.999472
0.999782 1 1 0.999782
0.999743 1 1 0.999743
0.999696 1 1 0.999696
0.999629 1 1 0.999629
0.999553 1 1 0.999553
0.999459 1 1 0.999459
1.00103 1 1.00161 0.99942
0.999613 1 1 0.999613
0.999533 1 1 0.999533
0.999499 1 1 0.999499
0.999414 1 0.999852 0.999562
0.999378 1.00001 1 0.999368
0.999609 1 1.00016 0.999445
0.999998 1 1.00071 0.999289
0.999553 1 1 0.999553
1.00343 1.00454 0.99938 0.999514
0.99949 1 1 0.99949
0.999937 1 1.00058 0.99936
0.998308 1.00073 0.998181 0.999397
1.00126 1 1.00201 0.999245
1.00625 1.00936 0.997554 0.99936
0.999508 1 1 0.999508
0.999173 1.00409 0.995722 0.999375
0.999453 1 1 0.999453
1.00296 1 1.00367 0.999301
1.00039 1.00006 1.00109 0.999248
0.960317 0.963823 0.999124 0.997235
1.00142 1.00115 1.00123 0.999038
0.985909 1.00943 0.977302 0.999383
0.935729 0.949143 0.986669 0.999187
0.946939 0.975969 0.970726 0.999514
0.999575 1 1 0.999575
0.999535 1 1 0.999535
0.999504 1 1 0.999504
0.999875 1 1 0.999875
0.999742 1 1 0.999742
0.999669 1 1 0.999669
0.9996 1 1 0.9996
0.99954 1 1 0.99954
0.999666 1 1 0.999666
0.999864 1 1 0.999864
0.999749 1 1 0.999749
0.999528 1 1 0.999528
0.999605 1 1 0.999605
0.999616 1 1 0.999616
0.999543 1 1 0.999543
0.999648 1 1 0.999648
0.99974 1 1 0.99974
0.999854 1 1 0.999854
0.999762 1 1 0.999762
0.99968 1 1 0.99968
0.999746 1 1 0.999746
0.999758 1 1 0.999758
0.999869 1 1 0.999869
0.999855 1 1 0.999855
0.999991 1 1 0.999991
0.999991 1 1 0.999991
1 1 1 1
0.999992 1 1 0.999992
1 1 1 1
1 1 1 1
1 1 1 1
1 1 1 1
1 1 1 1
1 1 1 1
1 1 1 1
1 1 1 1
0.999998 1 1 0.999998
1 1 1 1
1 1 1 1
1 1 1 1
1 1 1 1
1 1 1 1
0.999425 1 1 0.999425
0.999384 1 1 0.999384
0.999498 1 1 0.999498
1.00141 1.00543 0.996399 0.999599
0.999434 1.00001 1 0.999426
1.00129 1.00188 0.999863 0.999549
1.00034 1.00096 1.00004 0.999342
0.979609 0.984914 0.995848 0.99876
1.00108 1.00207 0.999343 0.999676
0.999927 1 1 0.999927
0.999921 1 1 0.999921
0.999813 1 1 0.999813
0.999826 1 1 0.999826
0.999347 1 1 0.999347
0.999699 1.00026 1 0.999435
0.999124 1 0.999481 0.999643
0.999556 1 1 0.999556
1.00118 1 1.00188 0.9993
0.99959 1 1.00013 0.999459
0.999533 1 1 0.999533
0.999563 1 1.0001 0.999464
0.999526 1 1 0.999526
0.99988 1 1 0.99988
0.999614 1 1 0.999614
0.999737 1 1 0.999737
0.999913 1 1 0.999913
0.999765 1 1 0.999765
0.999502 1.00011 1.00003 0.999358
0.999798 1 1 0.999798
0.999753 1 1 0.999753
0.999696 1 1 0.999696
0.998691 1.00081 0.998305 0.999575
0.999191 1.00012 0.999541 0.999529
1.00087 1 1.0014 0.999471
1.00086 1 1.00153 0.999328
0.999632 1 1 0.999632
0.999556 1 1 0.999556
1.00043 1 1.00101 0.99942
0.999502 1 1.00005 0.999452
1.00085 1.00149 0.999954 0.999413
0.998451 1.00122 0.997704 0.999531
1.00005 1.00005 1.00073 0.999282
1.00087 1 1.00147 0.999396
0.999666 1 1 0.999666
0.99965 1 1 0.99965
0.999517 1 1 0.999517
1.00148 1 1.00212 0.999362
0.957725 0.963719 0.996639 0.997132
0.999559 1 1 0.999559
0.999491 1 1 0.999491
1.0036 1.00461 0.999467 0.999521
0.999287 1.001 0.998872 0.99942
1.00192 1 1.00268 0.999242
1.00001 1 1.00065 0.999359
1.00825 1.01157 0.99733 0.999379
0.999512 1 1 0.999512
0.999264 1.00453 0.995382 0.999369
0.999454 1 1 0.999454
1.00267 1 1.00336 0.999304
0.999817 1.00011 1.00045 0.99926
0.959912 0.964303 0.997998 0.997444
0.995802 0.997735 0.999563 0.9985
0.989896 1.01126 0.979455 0.999403
0.941383 0.951892 0.990046 0.998903
0.941696 0.971893 0.969414 0.9995
0.999505 1 1 0.999505
0.947354 0.954123 0.994311 0.998586
0.958845 0.97505 0.98378 0.999593
0.982061 1.0013 0.981431 0.999347
1.00152 1 1.00208 0.999437
1.00842 1 1.0091 0.999324
0.999541 1.01017 0.99009 0.999384
0.971719 0.971347 1.00336 0.997034
1.00163 1.00464 0.998608 0.998391
0.938514 0.956775 0.981793 0.999105
0.985265 1.00532 0.980354 0.999688
0.999537 1 1 0.999537
0.999505 1 1 0.999505
0.999482 1 1 0.999482
0.999872 1 1 0.999872
0.999756 1 1 0.999756
0.999655 1 1 0.999655
0.999602 1 1 0.999602
0.999534 1 1 0.999534
0.999854 1 1 0.999854
0.999615 1 1 0.999615
0.99966 1 1 0.99966
0.999749 1 1 0.999749
0.999533 1 1 0.999533
0.99958 1 1 0.99958
0.999691 1 1.0002 0.999494
0.99966 1 1 0.99966
0.999758 1 1 0.999758
0.999762 1 1 0.999762
0.999669 1 1 0.999669
0.999671 1 1 0.999671
0.999655 1 1 0.999655
0.99961 1 1 0.99961
0.99961 1 1 0.99961
0.999727 1 1 0.999727
0.999746 1 1 0.999746
0.999862 1 1 0.999862
0.999744 1 1 0.999744
0.999861 1 1 0.999861
0.99999 1 1 0.99999
0.999855 1 1 0.999855
0.999991 1 1 0.999991
1 1 1 1
0.999991 1 1 0.999991
1 1 1 1
1 1 1 1
1 1 1 1
1 1 1 1
1 1 1 1
0.999924 1 1 0.999924
1 1 1 1
1 1 1 1
1 1 1 1
1 1 1 1
1 1 1 1
1 1 1 1
1 1 1 1
1 1 1 1
1 1 1 1
1.00239 1.00565 0.997152 0.999603
0.999431 1.00001 1 0.999421
1.00106 1.00155 1 0.999516
0.980774 0.98446 0.997158 0.999096
1.00129 1.00186 0.999752 0.99968
1.00039 1.00103 1.00003 0.999325
1.00244 1.00145 1.00159 0.999402
0.986812 0.986526 1.00136 0.998927
0.963756 0.967083 0.999987 0.996573
0.931043 0.949538 0.982025 0.998469
0.942067 0.967783 0.973895 0.999521
0.999808 1 1 0.999808
0.999927 1 1 0.999927
0.999921 1 1 0.999921
0.999808 1 1 0.999808
0.999735 1 1 0.999735
0.999754 1 1 0.999754
0.999812 1 1 0.999812
0.999819 1 1 0.999819
0.999408 1.00001 1.00003 0.999372
0.999582 1.00088 0.999126 0.999578
0.998846 1 0.999317 0.999529
1.00091 1 1.00144 0.99947
1.00141 1 1.00208 0.999325
0.999867 1 1.00045 0.999421
0.999522 1 1.00008 0.999445
0.99956 1 1 0.99956
0.999763 1 1 0.999763
0.999636 1 1 0.999636
0.999814 1 1 0.999814
0.999696 1 1 0.999696
1.0005 1.00164 0.999465 0.999398
0.999671 1 1 0.999671
0.999652 1 1 0.999652
0.997795 1.00099 0.997283 0.999528
0.999734 1.00003 1.0004 0.999305
1.00135 1 1.00197 0.999377
0.999514 1 1 0.999514
1.00145 1 1.00209 0.999366
0.992162 1.00641 0.986452 0.999382
1.00228 1.00052 1.00244 0.999319
1.00033 1 1.00103 0.999299
1.00442 1 1.0051 0.999329
0.999602 1 1 0.999602
0.999549 1 1 0.999549
0.999955 1 1.00054 0.999412
0.945709 0.957423 0.988775 0.998979
0.962499 0.965575 0.999556 0.997257
0.999516 1 1 0.999516
0.999456 1 1 0.999456
0.99927 1.00517 0.994768 0.999363
0.999095 1.0002 0.999627 0.999271
1.00223 1 1.00292 0.999308
0.960439 0.964993 0.998725 0.996552
0.996228 0.998094 0.999024 0.999105
0.994204 1.01353 0.981503 0.999422
0.936203 0.951212 0.985639 0.998563
0.935638 0.967446 0.967619 0.999486
0.999504 1 1 0.999504
0.942514 0.956028 0.986801 0.99905
0.960443 0.973203 0.987275 0.99961
0.984762 1.00144 0.983994 0.99934
1.00072 1 1.00128 0.99944
1.00765 1 1.00832 0.999336
0.994363 1.0076 0.98749 0.999363
0.972902 0.973038 1.0031 0.996773
0.997095 1.00011 0.998015 0.998971
0.939864 0.9572 0.983351 0.998513
0.979138 1.00325 0.97629 0.999666
0.999478 1 1 0.999478
0.978206 0.98067 0.997761 0.999726
1.01521 1.01751 0.997914 0.999831
1.00189 1 1.00247 0.999414
1.00649 1 1.00696 0.999533
1.00665 1.00361 1.00339 0.999639
0.992712 0.997569 0.995709 0.99942
0.977071 0.974371 1.00588 0.996907
0.956845 0.976974 0.980886 0.998482
1.00178 1.01845 0.983875 0.999749
0.999506 1 1 0.999506
0.999477 1 1 0.999477
0.999889 1 1.00042 0.999468
0.999854 1 1 0.999854
0.999758 1 1 0.999758
0.999672 1 1 0.999672
0.999615 1 1 0.999615
0.999523 1 1 0.999523
0.999758 1 1 0.999758
0.999587 1 1 0.999587
0.99966 1 1 0.99966
0.999733 1 1.00024 0.999488
1.00001 1 1.00055 0.999459
0.999645 1 1.00009 0.999558
0.999666 1 1 0.999666
0.999762 1 1 0.999762
0.999657 1 1 0.999657
0.999671 1 1 0.999671
0.999655 1 1 0.999655
0.999608 1 1 0.999608
0.999632 1 1 0.999632
0.999603 1 1 0.999603
0.999571 1 1 0.999571
0.999558 1 1 0.999558
0.999579 1 1 0.999579
0.999603 1 1 0.999603
0.999611 1 1 0.999611
0.999706 1 1 0.999706
0.999727 1 1 0.999727
0.999849 1 1 0.999849
0.999746 1 1 0.999746
0.999862 1 1 0.999862
0.999987 1 1 0.999987
0.999853 1 1 0.999853
0.999989 1 1 0.999989
1 1 1 1
0.99999 1 1 0.99999
1 1 1 1
1 1 1 1
1 1 1 1
1 1 1 1
1 1 1 1
0.99993 1 1 0.99993
1 1 1 1
0.999924 1 1 0.999924
1 1 1 1
1 1 1 1
1 1 1 1
1 1 1 1
1 1 1 1
1 1 1 1
1 1 1 1
1 1 1 1
0.941051 0.95289 0.988428 0.999138
0.96362 0.975805 0.987822 0.999686
0.983337 0.98512 0.99882 0.99937
1.00135 1.00169 0.999984 0.999684
1.00045 1.00112 1.00003 0.999308
0.986325 0.985026 1.00176 0.999557
1.00175 1.00154 1.0008 0.999412
0.967265 0.96931 1.00066 0.997227
0.937598 0.950786 0.986974 0.999144
0.939328 0.968371 0.970483 0.999511
0.999761 0.996022 1.00413 0.999626
0.973034 0.972805 1.00309 0.997157
0.937144 0.956017 0.981137 0.999105
0.977927 1.00017 0.978142 0.999609
0.999707 1 1 0.999707
0.999815 1 1 0.999815
0.999926 1 1 0.999926
0.999804 1 1 0.999804
0.999743 1 1 0.999743
0.999723 1 1 0.999723
0.999756 1 1 0.999756
0.999771 1 1 0.999771
0.999803 1 1 0.999803
0.999812 1 1 0.999812
1.00008 1.00168 0.999025 0.999383
0.997383 1.0008 0.997063 0.999525
0.99946 1 1.00013 0.999328
1.00161 1 1.00226 0.999358
1.00134 1 1.00198 0.999369
0.999511 1 1 0.999511
0.999654 1 1 0.999654
0.999677 1 1 0.999677
0.994693 1.00549 0.9899 0.999355
0.999598 1 1 0.999598
0.999538 1 1 0.999538
1.0005 1.0004 1.0008 0.999303
1.00065 1 1.00133 0.99932
1.00348 1 1.00416 0.999318
1.00052 1 1.00112 0.999403
0.991689 1.01264 0.980079 0.999214
1.0082 1 1.00887 0.999334
1.00408 1 1.00476 0.999323
0.999593 1 1 0.999593
0.999524 1 1 0.999524
0.999443 1 1 0.999443
0.978893 0.98261 0.996566 0.99965
0.947223 0.956474 0.991821 0.998496
0.960241 0.965399 0.99753 0.99712
0.999503 1 1 0.999503
1 1 1.00056 0.999444
0.987606 1.0015 0.986788 0.999332
1.0071 1 1.00776 0.999347
0.939407 0.954204 0.985982 0.99849
0.970706 0.97207 1.00092 0.997683
0.99864 1.00108 0.999119 0.998438
0.989744 1.00518 0.985285 0.999349
0.942832 0.957219 0.985784 0.999174
0.962595 0.975281 0.987414 0.999574
0.971753 0.997304 0.974751 0.999619
0.999476 1 1 0.999476
0.974721 0.979896 0.995034 0.999683
1.01475 1.01714 0.997815 0.999831
1.0014 1 1.00198 0.999421
1.00671 1 1.00718 0.999535
1.00862 1.00315 1.0062 0.999253
0.992965 0.997523 0.996808 0.998618
0.975913 0.975739 1.00336 0.996826
0.964031 0.979894 0.984564 0.999236
0.996459 1.0142 0.982796 0.999705
0.999803 1 1.00021 0.999594
1.01917 1.0195 0.999791 0.999883
1.02101 1.02378 0.997399 0.999899
1.00795 1 1.00822 0.99973
0.997292 0.992968 1.0046 0.99976
0.983373 0.981077 1.00544 0.99692
0.979975 0.995148 0.985481 0.999262
0.997877 1.016 0.982464 0.999688
0.999472 1 1 0.999472
0.999835 1 1.00036 0.99948
1.00081 1 1.0013 0.999509
0.999758 1 1 0.999758
0.99966 1 1 0.99966
0.999595 1 1 0.999595
0.999763 1 1.00028 0.999482
0.999665 1 1 0.999665
0.99959 1 1.00003 0.999559
1.00039 1 1.00093 0.999458
1.00035 1 1.00086 0.999496
0.999688 1 1.00021 0.999476
0.999591 1 1 0.999591
0.999671 1 1 0.999671
0.999654 1 1 0.999654
0.999606 1 1 0.999606
0.999605 1 1 0.999605
0.999632 1 1 0.999632
0.999575 1 1 0.999575
0.999554 1 1 0.999554
0.999547 1 1 0.999547
0.999529 1 1 0.999529
0.999559 1 1 0.999559
0.999555 1 1 0.999555
0.999541 1 1 0.999541
0.99964 1 1 0.99964
0.999603 1 1 0.999603
0.999611 1 1 0.999611
0.999679 1 1 0.999679
0.999611 1 1 0.999611
0.999706 1 1 0.999706
0.99983 1 1 0.99983
0.999727 1 1 0.999727
0.999849 1 1 0.999849
0.999984 1 1 0.999984
0.999862 1 1 0.999862
0.999987 1 1 0.999987
1 1 1 1
0.999988 1 1 0.999988
1 1 1 1
1 1 1 1
1 1 1 1
1 1 1 1
1 1 1 1
0.999894 1 1 0.999894
1 1 1 1
0.999915 1 1 0.999915
1 1 1 1
1 1 1 1
0.999924 1 1 0.999924
1 1 1 1
1 1 1 1
1 1 1 1
1 1 1 1
1 1 1 1
1 1 1 1
0.978461 0.981022 0.99764 0.999748
0.943503 0.954046 0.990138 0.998799
1.01311 1.0178 0.995556 0.999834
0.960283 0.972793 0.987472 0.999664
0.983023 0.983685 1.00046 0.998869
1.00117 1.0017 1.00004 0.999424
0.967431 0.969125 1.00035 0.997905
0.934927 0.951064 0.984508 0.9985
0.936983 0.96916 0.967282 0.999501
0.996826 0.997482 0.999971 0.999372
0.972214 0.970836 1.0044 0.997033
0.939421 0.959339 0.980718 0.99849
0.977527 1.00078 0.977145 0.999616
0.99759 1.00424 0.993849 0.99953
0.97378 0.971734 1.00523 0.996894
0.965919 0.98277 0.983638 0.999202
0.999221 1.0171 0.982696 0.999723
0.999649 1 1 0.999649
0.999717 1 1 0.999717
0.999822 1 1 0.999822
0.999751 1 1 0.999751
0.999668 1 1 0.999668
0.99973 1 1 0.99973
0.999759 1 1 0.999759
0.99976 1 1 0.99976
0.99978 1 1 0.99978
0.999794 1 1 0.999794
0.997385 1.0049 0.993186 0.999327
0.998649 1.00021 0.999148 0.999287
1.00093 1 1.00159 0.999342
1.0028 1 1.00349 0.999307
1.00115 1 1.00176 0.999394
0.999526 1 1 0.999526
0.999593 1 1 0.999593
0.999595 1 1 0.999595
0.992533 1.01028 0.983195 0.999222
0.999531 1 1 0.999531
0.99953 1 1.00009 0.999439
1.0078 1 1.00849 0.999316
1.00394 1 1.00462 0.999323
0.994574 1.01062 0.98483 0.999282
1.01734 1 1.01794 0.999415
1.00016 1 1.00078 0.999385
0.99954 1 1 0.99954
0.999447 1 1 0.999447
1.01929 1.01963 0.999768 0.999898
0.97963 0.982331 0.997544 0.999706
0.94662 0.957108 0.989933 0.9991
0.999474 1 1 0.999474
1.00672 1 1.00719 0.999536
1.00053 1 1.00111 0.999427
0.979317 0.981732 0.9978 0.999739
0.975676 0.973588 1.00537 0.996793
0.993993 0.997078 0.997594 0.999311
1.00913 1.002 1.00828 0.998843
0.958423 0.976359 0.983119 0.998485
1.01451 1.01702 0.997703 0.999832
0.996223 1.01304 0.983687 0.999706
0.999741 1 1.00014 0.999606
1.01963 1.01982 0.999921 0.999895
1.02238 1.02547 0.997088 0.9999
1.00856 0.999985 1.00895 0.999629
0.998083 0.994821 1.00377 0.999505
0.986209 0.98311 1.00635 0.996825
1.00048 1.0187 0.982381 0.999728
0.975209 0.9904 0.985717 0.99893
0.999976 1 1.00026 0.999713
1.01756 1.01928 0.998346 0.999965
1.02308 1.02579 0.997446 0.999915
1.00029 1.016 0.984815 0.999726
1.0066 0.994941 1.01185 0.999877
0.982595 0.981048 1.00444 0.997152
0.970793 0.988534 0.982888 0.99915
0.999759 1 1.00027 0.999491
1.00057 1 1.00109 0.999479
1.00314 1 1.00355 0.999587
0.999665 1 1 0.999665
0.99956 1 1 0.99956
1.00083 1 1.00138 0.999457
0.999594 1 1 0.999594
0.9998 1 1.00033 0.999475
1.00074 1 1.00126 0.999476
0.999885 1 1.00035 0.999531
0.99951 1 1 0.99951
0.999606 1 1 0.999606
0.999632 1 1 0.999632
0.999579 1 1 0.999579
0.999547 1 1 0.999547
0.999555 1 1 0.999555
0.999524 1 1 0.999524
0.999549 1 1 0.999549
0.999735 1 1.00029 0.999448
0.999561 1 1 0.999561
0.999553 1 1 0.999553
0.999466 1 1 0.999466
0.999556 1 1 0.999556
0.999636 1 1 0.999636
0.999543 1 1 0.999543
0.999687 1 1 0.999687
0.999635 1 1 0.999635
0.999628 1 1 0.999628
0.999619 1 1 0.999619
0.999686 1 1 0.999686
0.99981 1 1 0.99981
0.999706 1 1 0.999706
0.99983 1 1 0.99983
0.999979 1 1 0.999979
0.999848 1 1 0.999848
0.999983 1 1 0.999983
1 1 1 1
0.999986 1 1 0.999986
1 1 1 1
1 1 1 1
1 1 1 1
1 1 1 1
1 1 1 1
0.999849 1 1 0.999849
0.999979 1 1 0.999979
0.999893 1 1 0.999893
1 1 1 1
0.999992 1 1 0.999992
0.999899 1 1 0.999899
1 1 1 1
1 1 1 1
1 1 1 1
1 1 1 1
1 1 1 1
1 1 1 1
1.01817 1.01863 0.999662 0.999891
0.973502 0.979657 0.99407 0.999646
0.946168 0.954076 0.993151 0.998551
0.999722 1 1 0.999722
1.02397 1.0267 0.997425 0.999919
1.01442 1.01821 0.996449 0.999835
0.957188 0.973428 0.983725 0.999586
0.994169 0.99848 0.996589 0.999091
0.974225 0.971501 1.00571 0.997107
0.943241 0.961922 0.981414 0.99915
0.9762 0.998083 0.978487 0.999579
0.997254 1.00777 0.990736 0.998813
0.975057 0.972812 1.00537 0.996959
0.964855 0.982622 0.983015 0.998884
0.996401 1.016 0.981015 0.99969
0.984096 0.99952 0.985922 0.998628
0.978281 0.976542 1.00553 0.996272
0.975659 0.992168 0.984774 0.998565
0.998702 1.01803 0.981336 0.999672
0.99959 1 1 0.99959
0.999643 1 1 0.999643
0.999728 1 1 0.999728
0.999653 1 1 0.999653
0.999679 1 1 0.999679
0.999737 1 1 0.999737
0.999763 1 1 0.999763
0.99979 1 1 0.99979
0.993294 1.00777 0.986394 0.99923
1.00725 1 1.00795 0.999297
0.999596 1 1 0.999596
1.0037 1 1.00438 0.999323
0.999603 1 1.00017 0.999436
0.999537 1 1 0.999537
0.999542 1 1 0.999542
0.995409 1.00979 0.986466 0.999287
0.999452 1 1 0.999452
1.00098 1 1.0016 0.99938
1.01746 1 1.01807 0.999403
0.999538 1 1 0.999538
1.00422 1.00289 1.00176 0.999575
1.01312 1 1.01363 0.9995
0.999445 1 1 0.999445
0.999484 1 1 0.999484
1.01602 1.01675 0.999312 0.99997
1.01827 1.01865 0.999723 0.999901
0.980269 0.98192 0.998555 0.999762
0.999618 1 1 0.999618
1.00953 0.999979 1.01003 0.999529
1.02006 1.02016 0.999995 0.999907
0.982304 0.977812 1.00775 0.99687
1.00086 0.997617 1.00445 0.998807
0.972913 0.990433 0.983671 0.998617
1.02349 1.02687 0.996807 0.999901
1.0035 1.02184 0.982279 0.999769
1.00016 1 1.00047 0.999688
1.01824 1.02003 0.998278 0.999965
1.02251 1.02501 0.997639 0.999929
1.00697 0.995532 1.01156 0.999931
0.997231 1.01477 0.983018 0.999691
0.980705 0.982946 1.00039 0.997332
0.969906 0.988845 0.982304 0.998517
1.00651 0.998161 1.0086 0.999774
1.01039 1.01215 0.998284 0.999981
1.02494 1.02705 0.998036 0.999916
0.979051 0.99976 0.979666 0.999612
0.974406 0.99033 0.985323 0.998576
1.00431 0.992669 1.01157 1.00016
0.97631 0.977625 1.00156 0.997103
1.00034 1 1.00089 0.999449
1.00225 1 1.00268 0.999575
1.0122 1 1.01262 0.999583
0.999596 1 1 0.999596
0.99984 1 1.00037 0.999474
1.001 1 1.00154 0.999457
0.99951 1 1 0.99951
0.999961 1 1.00043 0.999528
1.00287 1 1.00337 0.999493
0.999548 1 1 0.999548
0.999556 1 1 0.999556
0.999696 1 1.00018 0.999518
1.00126 1 1.00183 0.99943
0.99957 1 1 0.99957
0.999621 1 1.00016 0.999463
0.999861 1 1.00049 0.999375
0.999448 1 1 0.999448
0.999552 1 1 0.999552
0.999454 1 1 0.999454
0.999599 1 1 0.999599
0.999628 1 1 0.999628
0.999567 1 1 0.999567
0.999693 1 1 0.999693
0.999635 1 1 0.999635
0.999545 1 1 0.999545
0.999796 1 1 0.999796
0.999684 1 1 0.999684
0.999629 1 1 0.999629
0.999693 1 1 0.999693
0.99981 1 1 0.99981
0.999971 1 1 0.999971
0.99983 1 1 0.99983
0.999977 1 1 0.999977
1 1 1 1
0.999981 1 1 0.999981
1 1 1 1
1 1 1 1
1 1 1 1
1 1 1 1
1 1 1 1
0.999827 1 1 0.999827
0.999966 1 1 0.999966
0.999858 1 1 0.999858
1 1 1 1
0.999978 1 1 0.999978
0.999892 1 1 0.999892
1 1 1 1
1 1 1 1
0.999984 1 1 0.999984
1 1 1 1
1 1 1 1
1 1 1 1
1.01772 1.01859 0.999178 0.999964
1.01826 1.01891 0.999473 0.999892
0.975493 0.98034 0.995408 0.999645
0.999726 1 1 0.999726
0.999699 1 1 0.999699
0.999654 1 1 0.999654
1.02206 1.02489 0.997318 0.999916
1.02508 1.02744 0.997777 0.999919
1.01639 1.01862 0.997973 0.999836
1.00165 1.01157 0.990734 0.999456
0.975253 0.971741 1.0067 0.996931
0.961585 0.979259 0.983429 0.998498
0.997951 1.01756 0.981008 0.999712
0.982069 0.997783 0.984956 0.999284
0.980908 0.977457 1.00658 0.996976
0.977391 0.993688 0.984406 0.999181
1.00049 1.02016 0.981001 0.999718
0.977621 0.991876 0.9862 0.99942
0.980001 0.97867 1.00428 0.99709
0.975681 0.992333 0.984125 0.99908
0.999633 1.01722 0.982959 0.999747
0.999573 1 1 0.999573
0.99959 1 1 0.99959
0.999636 1 1 0.999636
0.999652 1 1 0.999652
0.99969 1 1 0.99969
0.999766 1 1 0.999766
0.996654 1.00883 0.988633 0.999292
1.01732 1 1.01794 0.999391
0.999543 1 1 0.999543
1.00169 1 1.00231 0.999375
0.999458 1 1 0.999458
0.999537 1 1 0.999537
0.99948 1 1 0.99948
1.00272 1.0039 0.999264 0.999566
0.999455 1 1 0.999455
1.01358 0.999944 1.01412 0.999522
0.999501 1 1 0.999501
1.01918 0.998169 1.0213 0.999754
0.999841 0.999769 1.00044 0.999637
0.99945 1 1 0.99945
1.00591 1.00675 0.999181 0.99999
1.01422 1.01502 0.999239 0.999974
1.01722 1.01767 0.99965 0.999903
1.00037 1 1.00071 0.999663
1.00324 0.995184 1.00811 0.999986
1.01887 1.02072 0.998226 0.999965
0.986998 0.986345 1.00228 0.998388
0.977484 0.993964 0.984196 0.999211
1.02221 1.0243 0.998016 0.999942
0.998679 1.01633 0.982918 0.999714
1.00564 0.998995 1.00687 0.99979
1.00905 1.01048 0.998596 0.999984
1.02621 1.02779 0.998548 0.999916
1.00626 0.9919 1.01503 0.999453
0.979348 1.00054 0.979191 0.999617
0.976328 0.992133 0.984864 0.999193
0.977936 0.978815 1.00189 0.997221
1.0256 1 1.02572 0.999889
1.01775 1.01841 0.999387 0.999963
1.01475 1.01819 0.996799 0.99983
0.941649 0.966746 0.974506 0.999521
0.965419 0.980997 0.984892 0.999217
0.988966 0.983752 1.00819 0.99713
0.985292 0.990552 0.995469 0.999217
1.00123 1 1.00167 0.999563
1.01335 1 1.01377 0.999587
1.01951 1 1.01998 0.999542
0.999511 1 1 0.999511
1.00008 1 1.00055 0.999525
1.0023 1 1.00281 0.999498
1.01006 1 1.01067 0.999395
0.999829 1 1.00032 0.999511
1.00154 1 1.00212 0.999414
1.00436 1 1.00506 0.999303
0.999478 1 1 0.999478
1.00024 1 1.00087 0.999373
1.00047 1 1.00116 0.999316
0.999385 1 1 0.999385
0.999549 1 1 0.999549
0.999439 1 1 0.999436
0.999442 1 1 0.999442
0.999644 1 1 0.999644
0.999611 1 1 0.999611
0.999678 1 1 0.999678
0.999636 1 1 0.999636
0.999578 1 1 0.999578
0.999788 1 1 0.999788
0.999694 1 1 0.999694
0.999633 1 1 0.999633
0.99996 1 1 0.99996
0.999797 1 1 0.999797
0.999681 1 1 0.999681
0.99981 1 1 0.99981
0.999969 1 1 0.999969
1 1 1 1
0.999975 1 1 0.999975
1 1 1 1
1 1 1 1
1 1 1 1
1 1 1 1
1 1 1 1
0.999824 1 1 0.999824
0.999978 1 1 0.999978
0.999834 1 1 0.999834
1 1 1 1
0.999978 1 1 0.999978
0.999867 1 1 0.999867
1 1 1 1
1 1 1 1
0.999978 1 1 0.999978
1 1 1 1
1 1 1 1
1 1 1 1
1.01057 1.01202 0.998591 0.999981
1.01797 1.01895 0.999073 0.999964
1.01824 1.01919 0.999175 0.999893
0.999691 1 1 0.999691
0.999646 1 1 0.999646
0.99973 1 1 0.99973
0.999698 1 1 0.999698
0.999645 1 1 0.999645
0.999637 1 1 0.999637
0.999596 1 1 0.999596
1.01975 1.02212 0.997775 0.9999
1.02171 1.02442 0.997419 0.999929
1.02583 1.0282 0.997777 0.999919
1.00327 1.02275 0.981177 0.999764
0.985498 1.00266 0.98423 0.998629
0.982458 0.977942 1.00701 0.997628
0.974627 0.990372 0.985592 0.998489
0.981379 0.992233 0.990021 0.99903
0.983425 0.981892 1.00455 0.997026
0.974885 0.992635 0.983608 0.998485
0.995745 1.01461 0.981713 0.999686
0.982377 0.986104 0.996596 0.999625
0.974419 0.982621 0.994671 0.996966
0.984341 0.999264 0.985866 0.999189
0.985438 1.00437 0.981458 0.999684
0.999552 1 1 0.999552
0.999571 1 1 0.999571
0.99959 1 1 0.99959
0.999652 1 1 0.999652
1.00023 1.00489 0.995799 0.999557
1.01432 0.999813 1.01497 0.999544
0.999535 1 1 0.999535
0.999476 1 1 0.999476
0.999466 1 1 0.999466
0.999504 1 1 0.999504
0.999444 1 1 0.999444
1.01014 0.996186 1.01424 0.99977
0.999959 0.99985 1.00044 0.999671
0.999453 1 1 0.999453
1.02211 0.992 1.03044 0.99992
1.00341 1 1.00395 0.999461
1.01627 1.01666 0.999645 0.999969
1.00413 1.00475 0.999384 0.999993
1.01251 1.01327 0.999268 0.999978
1.00469 0.999772 1.00511 0.999805
1.00684 0.991456 1.0154 1.00011
1.00769 1.00885 0.998869 0.999987
0.976187 0.977408 1.00167 0.997089
0.973544 0.988789 0.986054 0.998506
1.02703 1.02854 0.998619 0.999915
0.977961 0.997671 0.980651 0.999585
1.0278 0.999213 1.02874 0.999873
1.01792 1.01874 0.999226 0.999963
1.01593 1.01858 0.997571 0.999831
0.990105 0.993224 0.996819 1.00004
0.938883 0.967231 0.971166 0.999511
0.963432 0.980091 0.984092 0.998893
0.990134 0.983055 1.00988 0.997351
1.01456 0.999611 1.01512 0.999835
1.0186 1.01868 1.00004 0.999887
0.96462 0.975469 0.989188 0.999687
0.935771 0.954344 0.981416 0.999107
0.981326 0.977211 1.00726 0.996969
0.986583 0.99494 0.992674 0.998918
1.01471 1 1.01513 0.999592
1.02019 1 1.02066 0.99954
1.01797 1 1.01853 0.999453
1.0018 1 1.0023 0.999503
1.01053 1 1.01112 0.999409
1.0077 1 1.00843 0.999283
1.002 1 1.0026 0.999398
1.00432 1 1.00504 0.999288
1.00276 1 1.00354 0.999231
1.00069 1 1.00132 0.99937
1.00058 1 1.00128 0.999302
1.00039 1 1.00109 0.999294
0.99938 1 1 0.99938
0.999478 1 1 0.999478
0.999393 1 1.00002 0.999374
0.999617 1 1 0.999617
0.999558 1 1 0.999558
0.999455 1 1.00003 0.999424
0.999669 1 1 0.999669
0.99964 1 1 0.99964
0.999624 1 1 0.999624
0.999771 1 1 0.999771
0.999683 1 1 0.999683
0.999643 1 1 0.999643
0.999946 1 1 0.999946
0.999788 1 1 0.999788
0.999695 1 1 0.999695
1 1 1 1
0.999959 1 1 0.999959
0.999798 1 1 0.999798
0.999967 1 1 0.999967
1 1 1 1
1 1 1 1
1 1 1 1
1 1 1 1
1 1 1 1
0.999693 1 1 0.999693
0.999805 1 1 0.999805
0.999971 1 1 0.999971
0.999824 1 1 0.999824
1 1 1 1
0.999981 1 1 0.999981
0.999842 1 1 0.999842
1 1 1 1
1 1 1 1
0.999989 1 1 0.999989
1 1 1 1
1 1 1 1
1 1 1 1
1.01788 1.01859 0.999336 0.999964
1.00932 1.01041 0.998939 0.999984
1.01823 1.0193 0.998978 0.999964
0.999695 1 1 0.999695
0.999641 1 1 0.999641
0.999632 1 1 0.999632
0.999634 1 1 0.999634
0.999613 1 1 0.999613
0.999696 1 1 0.999696
0.999635 1 1 0.999635
0.999638 1 1 0.999638
0.999595 1 1 0.999595
0.999594 1 1 0.999594
1.01456 1.01557 0.999178 0.999828
1.02099 1.02366 0.997493 0.999901
1.02102 1.02367 0.997465 0.999943
0.995521 1.0134 0.98266 0.999688
0.980059 0.995793 0.985024 0.999163
0.983591 0.991382 0.993433 0.9987
0.977825 0.981788 0.998848 0.997112
0.986062 0.985835 1.00133 0.998904
0.977427 0.980677 0.999624 0.997061
0.97912 0.994657 0.985499 0.998864
0.980089 1.00243 0.978042 0.999664
1.0047 0.984255 1.02177 0.999027
0.979594 0.983114 0.99926 0.997157
0.956775 0.977935 0.979822 0.99851
0.94867 0.976602 0.97186 0.999526
0.999609 1 1 0.999609
0.999554 1 1 0.999554
0.999569 1 1 0.999569
1.00221 0.99463 1.00784 0.999786
1.00011 1 1.00041 0.999706
0.999508 1 1 0.999508
0.999437 1 1 0.999437
0.999493 1 1.00003 0.99946
1.0039 1 1.00444 0.999458
1.02255 0.994016 1.02878 0.999921
1.00383 1 1.00435 0.999477
1.01267 0.998931 1.01406 0.999702
1.01855 1.01866 1 0.999892
1.01446 1.01487 0.999624 0.999973
1.0023 1.00279 0.999511 0.999996
1.0299 0.998628 1.03146 0.999855
0.989836 0.992296 0.99839 0.999129
1.01812 1.01907 0.999098 0.999963
0.981961 0.981431 1.00417 0.996382
0.9615 0.977557 0.985037 0.998515
1.01774 1.01898 0.998948 0.999831
0.936935 0.96814 0.968251 0.999501
1.01462 0.999806 1.01498 0.999838
1.01877 1.01899 0.999899 0.999888
0.960655 0.972138 0.988519 0.999665
0.983056 0.993108 0.990546 0.999326
0.938577 0.958135 0.981057 0.998503
0.983821 0.978848 1.00854 0.996569
0.997637 0.999676 0.998274 0.999686
0.978871 0.981206 0.997874 0.999746
0.931582 0.94917 0.982973 0.998471
0.975787 0.973585 1.00538 0.9969
0.996638 0.999429 0.997898 0.999309
1.02043 1 1.02091 0.999537
1.01996 1 1.02052 0.999452
1.00522 1 1.00588 0.999348
1.01078 1 1.01137 0.999423
1.00729 1 1.008 0.999292
1.00166 1 1.00242 0.999248
1.00407 1 1.0048 0.999274
1.0022 1 1.00297 0.999234
0.99932 1 1 0.99932
1.00059 1 1.0013 0.999288
1.00002 1 1.00072 0.999301
0.999397 1 1 0.999397
0.999452 1 1 0.999452
0.999439 1 1 0.999439
0.999384 1 1 0.999384
0.99956 1 1 0.99956
0.999463 1 1 0.999463
0.99937 1 1.00001 0.999363
0.999672 1 1 0.999672
0.999627 1 1 0.999627
0.999567 1 1 0.999567
0.99975 1 1 0.99975
0.999669 1 1 0.999669
0.999637 1 1 0.999637
0.999927 1 1 0.999927
0.999771 1 1 0.999771
0.999688 1 1 0.999688
1 1 1 1
0.999946 1 1 0.999946
0.999789 1 1 0.999789
1 1 1 1
1 1 1 1
0.999958 1 1 0.999958
1 1 1 1
1 1 1 1
1 1 1 1
0.999676 1 1 0.999676
0.999787 1 1 0.999787
0.999688 1 1 0.999688
0.999963 1 1 0.999963
0.999805 1 1 0.999805
1 1 1 1
0.999973 1 1 0.999973
0.999824 1 1 0.999824
1 1 1 1
1 1 1 1
0.999983 1 1 0.999983
1 1 1 1
1 1 1 1
1 1 1 1
1.01808 1.01818 1 0.999901
1.01873 1.01947 0.999312 0.999964
1.00809 1.00886 0.999244 0.999986
0.999641 1 1 0.999641
0.999699 1 1 0.999699
0.999635 1 1 0.999635
0.99964 1 1 0.99964
0.999637 1 1 0.999637
0.999613 1 1 0.999613
0.999601 1 1 0.999601
0.999598 1 1 0.999598
0.999638 1 1 0.999638
0.999595 1 1 0.999595
0.999593 1 1 0.999593
0.999582 1 1 0.999582
0.961683 0.975867 0.985871 0.999588
1.01372 1.01484 0.99907 0.999828
1.02256 1.02544 0.997295 0.999901
0.974733 0.997867 0.977203 0.999605
0.978415 0.995517 0.984242 0.998556
0.973551 0.981942 0.994463 0.996975
0.988671 0.982263 1.00683 0.9997
1.00431 0.983565 1.02131 0.99979
0.943914 0.972383 0.971191 0.999517
0.98255 0.983248 1.00259 0.996706
0.959661 0.978041 0.981996 0.999198
0.99944 0.99267 1.00707 0.999753
0.980256 0.977784 1.00532 0.997223
0.935839 0.954356 0.981435 0.999146
1.00011 1 1.00041 0.999702
0.99961 1 1 0.99961
0.999556 1 1 0.999556
1.02288 0.996004 1.02707 0.99992
1.00452 1 1.00506 0.999455
0.999517 1 1.00005 0.999466
1.00412 1 1.00465 0.999479
1.0117 0.999488 1.01251 0.999709
1.00908 1 1.00939 0.999701
0.978402 0.981911 0.996799 0.999627
1.01778 1.01789 0.999986 0.999907
1.01274 1.01308 0.999689 0.999978
1.0147 0.999962 1.0149 0.999843
0.983991 0.995046 0.989273 0.999613
1.01885 1.01931 0.999666 0.999889
0.987571 0.980312 1.00979 0.997641
0.94206 0.960687 0.981443 0.999153
0.9567 0.972666 0.983994 0.999585
0.996894 1.00056 0.996639 0.999695
0.973445 0.979698 0.993972 0.999643
0.938395 0.95007 0.988554 0.999147
0.996743 0.999051 0.999044 0.998645
0.977604 0.975803 1.00491 0.996949
0.995475 1.00817 0.987931 0.999468
0.941345 0.953307 0.988298 0.999144
0.973758 0.973214 1.00347 0.997103
0.997248 1.0046 0.99409 0.998579
1.02266 1 1.02322 0.99945
1.00376 1 1.00441 0.999357
0.998477 1 0.999114 0.999362
1.0071 1 1.0078 0.9993
1.00163 1 1.00238 0.99925
0.999425 1 1 0.999425
1.00178 1 1.00254 0.999237
0.999531 1 1.0002 0.999329
0.999518 1 1 0.999518
0.999698 1 1.00039 0.999307
0.999401 1 1 0.999401
0.999546 1 1 0.999546
0.99956 1 1 0.99956
0.999471 1 1 0.999471
0.999462 1 1 0.999462
0.999512 1 1 0.999512
0.999449 1 1 0.999449
0.999389 1 1 0.999389
0.999646 1 1 0.999646
0.999559 1 1 0.999559
0.999448 1 1 0.999448
0.99974 1 1 0.99974
0.999672 1 1 0.999672
0.999637 1 1 0.999637
0.999902 1 1 0.999902
0.999751 1 1 0.999751
0.99967 1 1 0.99967
1 1 1 1
0.999926 1 1 0.999926
0.999771 1 1 0.999771
1 1 1 1
1 1 1 1
0.999945 1 1 0.999945
1 1 1 1
1 1 1 1
1 1 1 1
0.999685 1 1 0.999685
0.999678 1 1 0.999678
0.99977 1 1 0.99977
0.999953 1 1 0.999953
0.999787 1 1 0.999787
0.999684 1 1 0.999684
1 1 1 1
0.999965 1 1 0.999965
0.999805 1 1 0.999805
1 1 1 1
1 1 1 1
0.999975 1 1 0.999975
1 1 1 1
1 1 1 1
1 1 1 1
0.977465 0.980108 0.997575 0.999728
1.01842 1.01852 1 0.999901
1.01955 1.0203 0.999304 0.999964
0.999637 1 1 0.999637
0.999653 1 1 0.999653
0.999615 1 1 0.999615
0.999647 1 1 0.999647
0.999643 1 1 0.999643
0.999613 1 1 0.999613
0.999599 1 1 0.999599
0.999603 1 1 0.999603
0.999574 1 1 0.999574
0.999591 1 1 0.999591
0.999593 1 1 0.999593
0.999583 1 1 0.999583
0.93828 0.951066 0.98737 0.999176
0.961482 0.974119 0.98741 0.999612
1.01314 1.01426 0.99907 0.999828
0.939256 0.968672 0.970109 0.999509
0.956193 0.975401 0.98176 0.99852
0.989196 0.987901 1.00351 0.997813
1.01075 0.983945 1.02828 0.998997
0.999308 0.992387 1.00799 0.998994
0.938362 0.956437 0.982517 0.998559
0.984389 0.981551 1.00541 0.997496
0.99725 0.992502 1.00579 0.998999
0.977644 0.976146 1.00438 0.997169
1.00776 1 1.00819 0.999574
0.999966 1 1.00027 0.9997
0.999611 1 1 0.999611
1.01045 0.999838 1.0109 0.999715
1.00442 1 1.00494 0.999481
1.00886 1 1.00918 0.999688
1.00164 1.00061 1.00146 0.999559
0.944294 0.958111 0.98656 0.999006
0.979188 0.981722 0.997727 0.999692
1.0169 1.01706 0.999918 0.999921
0.995403 1.00108 0.994619 0.999704
0.997371 0.99761 1.00043 0.999335
0.975536 0.980563 0.995229 0.999643
0.977737 0.974394 1.00651 0.996939
0.934813 0.950192 0.985295 0.998498
0.996453 1.00739 0.989657 0.99948
0.943771 0.954599 0.989856 0.998789
0.974256 0.972148 1.00518 0.997008
0.997387 1.00292 0.99524 0.999243
1.00593 1.01242 0.994289 0.999296
0.964104 0.967187 1.00026 0.996556
0.996399 1.00177 0.995192 0.999442
1.00243 1 1.00306 0.999365
0.999089 1 0.999737 0.999352
0.998351 1.00035 0.998552 0.99945
1.00151 1 1.00226 0.999253
0.999329 1 0.999906 0.999423
0.999495 1.00042 0.999403 0.999674
0.99969 1 1.00035 0.999338
0.99952 1 1 0.99952
0.999679 1 1 0.999679
0.999406 1 1 0.999406
0.999546 1 1 0.999546
0.99964 1 1 0.99964
0.999615 1 1 0.999615
0.999572 1 1 0.999572
0.999549 1 1 0.999549
0.999514 1 1 0.999514
0.999473 1 1 0.999473
0.999473 1 1 0.999473
0.999588 1 1 0.999588
0.999524 1 1 0.999524
0.999459 1 1 0.999459
0.999723 1 1 0.999723
0.999645 1 1 0.999645
0.999558 1 1 0.999558
0.999881 1 1 0.999881
0.999741 1 1 0.999741
0.999671 1 1 0.999671
1 1 1 1
0.999902 1 1 0.999902
0.999752 1 1 0.999752
1 1 1 1
1 1 1 1
0.999926 1 1 0.999926
1 1 1 1
1 1 1 1
1 1 1 1
0.999685 1 1 0.999685
0.999678 1 1 0.999678
0.999757 1 1 0.999757
0.999681 1 1 0.999681
0.99977 1 1 0.99977
0.999936 1 1 0.999936
1 1 1 1
0.999953 1 1 0.999953
0.999787 1 1 0.999787
1 1 1 1
1 1 1 1
0.999966 1 1 0.999966
1 1 1 1
1 1 1 1
1 1 1 1
0.948427 0.955777 0.993686 0.998616
0.975366 0.979809 0.995789 0.999675
1.01877 1.01887 1 0.999902
0.999633 1 1 0.999633
0.999613 1 1 0.999613
0.999657 1 1 0.999657
0.999657 1 1 0.999657
0.999621 1 1 0.999621
0.999601 1 1 0.999601
0.999605 1 1 0.999605
0.999577 1 1 0.999577
0.999605 1 1 0.999605
0.999567 1 1 0.999567
0.999756 1 1.00026 0.999499
0.999586 1 1 0.999586
0.999584 1 1 0.999584
0.974166 0.97684 1.00068 0.996581
0.942877 0.953573 0.989881 0.99889
0.962165 0.974869 0.987391 0.999572
0.940148 0.957325 0.982847 0.999197
0.980518 0.977643 1.00653 0.996436
1.00251 0.993216 1.00959 0.999768
0.998474 0.994122 1.00499 0.999392
0.978453 0.977434 1.00379 0.997259
0.992357 0.999079 0.994196 0.99907
1.00621 1.00129 1.0057 0.999225
1.00622 1 1.00666 0.999565
0.999697 1 1 0.999697
1.00772 1 1.00804 0.999677
1.00065 1.00086 1.00017 0.999617
0.958503 0.965271 0.995805 0.997171
0.94676 0.957302 0.99043 0.998544
0.980274 0.981584 0.998909 0.999757
0.997042 1.00691 0.990707 0.999492
1.00228 1.00749 0.996235 0.998585
0.946977 0.954581 0.993487 0.998538
0.974995 0.971796 1.00622 0.997085
1.00109 1.01105 0.990856 0.999291
0.967065 0.968883 1.00092 0.997206
0.996155 1.0042 0.993217 0.998765
0.995463 1.00999 0.986388 0.999214
0.997853 0.993776 1.00449 0.99961
0.998639 1 0.999298 0.999341
0.997453 1.00034 0.997673 0.999441
0.99851 1.00244 0.996514 0.999561
0.999159 1 0.999738 0.999422
0.999019 1.0002 0.999144 0.999671
0.999287 1.00047 0.99908 0.999734
0.999522 1 1 0.999522
0.999665 1 0.999994 0.999671
0.999675 1 0.999987 0.999688
0.999546 1 1 0.999546
0.999635 1 1 0.999635
0.99963 1 1 0.99963
0.999628 1 1 0.999628
0.999583 1 1 0.999583
0.999584 1 1 0.999584
0.999546 1 1 0.999546
0.99954 1 1 0.99954
0.999559 1 1 0.999559
0.999511 1 1 0.999511
0.999475 1 1 0.999475
0.999689 1 1 0.999689
0.999595 1 1 0.999595
0.999535 1 1 0.999535
0.999861 1 1 0.999861
0.999723 1 1 0.999723
0.999644 1 1 0.999644
1 1 1 1
0.999881 1 1 0.999881
0.999741 1 1 0.999741
1 1 1 1
1 1 1 1
0.999902 1 1 0.999902
1 1 1 1
1 1 1 1
1 1 1 1
0.999673 1 1 0.999673
0.999685 1 1 0.999685
0.999737 1 1 0.999737
0.99967 1 1 0.99967
0.99975 1 1 0.99975
0.999914 1 1 0.999914
0.99977 1 1 0.99977
0.999936 1 1 0.999936
1 1 1 1
1 1 1 1
1 1 1 1
0.999954 1 1 0.999954
1 1 1 1
1 1 1 1
1 1 1 1
0.968242 0.970669 1.00026 0.997238
0.945284 0.958042 0.987581 0.999092
0.978273 0.981053 0.997448 0.999717
0.999612 1 1 0.999612
0.999661 1 1 0.999661
0.999624 1 1 0.999624
0.999657 1 1 0.999657
0.999641 1 1 0.999641
0.999637 1 1 0.999637
0.999579 1 1 0.999579
0.999598 1 1 0.999598
0.999566 1 1 0.999566
0.999587 1 1 0.999587
0.999521 1 1 0.999521
0.999369 1 1.00011 0.999254
0.99956 1 1.00006 0.999503
0.999581 1 1 0.999581
0.990809 0.994079 0.997342 0.999367
0.971863 0.973864 1.0008 0.997147
0.937962 0.95277 0.985913 0.998524
0.976117 0.975241 1.00381 0.997104
0.995818 0.993254 1.0028 0.999782
0.993017 0.997044 0.996317 0.999643
0.997077 1.00447 0.993324 0.999311
1.00324 1.00058 1.00337 0.999278
1.00518 1 1.00563 0.999554
0.998554 1.00095 0.997932 0.999671
0.987701 0.986386 1.00245 0.99889
0.964294 0.966874 1.00003 0.997301
0.945239 0.957558 0.987994 0.99913
0.998094 1.00946 0.989445 0.999287
1.0016 1.00773 0.994558 0.999355
0.967662 0.96849 1.00127 0.99788
0.993986 1.00773 0.98712 0.999227
0.994177 0.994545 1.00028 0.999349
0.991584 1.00627 0.986028 0.999367
1.00344 1.00163 1.00249 0.99932
0.997112 1.00022 0.997457 0.999432
0.997966 1.00213 0.996284 0.999562
0.998916 1.00204 0.997308 0.999573
0.998706 1 0.999038 0.999668
0.999308 1.00037 0.999214 0.999727
0.999535 1.00013 0.999799 0.999605
0.999664 1 1 0.999664
0.999681 1 1 0.999681
0.999575 1 1 0.999575
0.999629 1 1 0.999629
0.999633 1 1 0.999633
0.99956 1 1 0.99956
0.999641 1 1 0.999641
0.99959 1 1 0.99959
0.999548 1 1 0.999548
0.999544 1 1 0.999544
0.999538 1 1 0.999538
0.999565 1 1 0.999565
0.999641 1 1 0.999641
0.999566 1 1 0.999566
0.999509 1 1 0.999509
0.999833 1 1 0.999833
0.999688 1 1 0.999688
0.999603 1 1 0.999603
0.999999 1 1 0.999999
0.999861 1 1 0.999861
0.999722 1 1 0.999722
1 1 1 1
1 1 1 1
0.999881 1 1 0.999881
1 1 1 1
1 1 1 1
1 1 1 1
0.999661 1 1 0.999661
0.999678 1 1 0.999678
0.999727 1 1 0.999727
0.999686 1 1 0.999686
0.999736 1 1 0.999736
0.999891 1 1 0.999891
0.999744 1 1 0.999744
0.999914 1 1 0.999914
1 1 1 1
0.999937 1 1 0.999937
1 1 1 1
1 1 1 1
1 1 1 1
1 1 1 1
1 1 1 1
0.984177 0.986272 0.998582 0.999293
0.962877 0.967849 0.997658 0.997199
0.942299 0.956706 0.986391 0.99853
0.999606 1 1 0.999606
0.999626 1 1 0.999626
0.999657 1 1 0.999657
0.999636 1 1 0.999636
0.999639 1 1 0.999639
0.999665 1 1 0.999665
0.999591 1 1 0.999591
0.999566 1 1 0.999566
0.999597 1 1 0.999597
0.999545 1 1 0.999545
0.999376 1 1 0.999376
1.00049 1.00142 1 0.999067
0.999388 1 1.00013 0.999259
0.999507 1 1 0.999507
0.997737 1.00234 0.996052 0.999356
0.991416 0.995444 0.996885 0.999065
0.973528 0.974818 1.00092 0.997757
0.995989 0.998562 0.998425 0.998996
1.00106 1.00516 0.996689 0.999231
1.00164 1 1.00231 0.999333
0.999617 1 1.00002 0.999597
0.988727 0.985341 1.00397 0.999463
0.961517 0.966694 0.997433 0.997205
0.991618 1.00545 0.986993 0.999239
0.991121 0.994853 0.997189 0.999057
0.993716 1.00596 0.988474 0.999346
1.00201 1.00126 1.00136 0.999395
1.00271 1.00389 0.999492 0.999332
0.999728 1.00045 1 0.999283
0.997422 1.00191 0.995951 0.999563
0.999795 1.00208 0.998138 0.999577
0.999634 1.00018 1 0.999458
0.999342 1.00024 0.999384 0.999721
0.999711 1.00015 0.999957 0.999603
0.999469 1 1 0.999469
0.999674 1 1 0.999674
0.999588 1 1 0.999588
0.99948 1 1 0.99948
0.999637 1 1 0.999637
0.99956 1 1 0.99956
0.999515 1 1 0.999515
0.999597 1 1 0.999597
0.999551 1 1 0.999551
0.999548 1 1 0.999548
0.999536 1 1 0.999536
0.999559 1 1 0.999559
0.999623 1 1 0.999623
0.999799 1 1 0.999799
0.999649 1 1 0.999649
0.999573 1 1 0.999573
0.999993 1 1 0.999993
0.999832 1 1 0.999832
0.999688 1 1 0.999688
1 1 1 1
0.999998 1 1 0.999998
0.99986 1 1 0.99986
1 1 1 1
1 1 1 1
1 1 1 1
0.999629 1 1 0.999629
0.999661 1 1 0.999661
0.999719 1 1 0.999719
0.999683 1 1 0.999683
0.999731 1 1 0.999731
0.999871 1 1 0.999871
0.999734 1 1 0.999734
0.999891 1 1 0.999891
1 1 1 1
0.999914 1 1 0.999914
1 1 1 1
1 1 1 1
1 1 1 1
1 1 1 1
1 1 1 1
0.998767 1.00201 0.997163 0.999599
0.984155 0.987573 0.997811 0.998726
0.965122 0.968098 0.999659 0.997266
0.999625 1 1 0.999625
0.999527 1 1 0.999527
0.999612 1 1 0.999612
0.999635 1 1 0.999635
0.999636 1 1 0.999636
0.999656 1 1 0.999656
0.999439 1 1 0.999439
0.999607 1 1 0.999607
0.999569 1 1 0.999569
0.999383 1 1 0.999383
0.999183 1.00002 1 0.99916
1.00099 1.0022 0.999519 0.999271
1.00027 1.00119 1 0.999079
0.999264 1 1 0.999264
0.999581 1.00395 0.996263 0.999379
0.989917 0.994916 0.996256 0.998715
1.00341 1.00557 0.998694 0.999153
0.999602 1 1 0.999602
1.00078 1 1.00116 0.999617
0.986868 0.98512 1.00298 0.998798
0.996285 1.00596 0.991054 0.999325
1.00068 1.00095 1.00027 0.999472
1.00283 1.00431 0.999187 0.999345
0.999936 1.00062 1 0.999317
0.999765 1.00041 1 0.999354
0.999498 1 1 0.999495
1.00065 1.00212 0.998947 0.999581
0.999702 1.00024 1 0.999463
0.999368 1 1 0.999368
0.999784 1.00018 1 0.999601
0.999476 1 1 0.999476
0.999401 1 1 0.999401
0.999602 1 1 0.999602
0.999479 1 1 0.999479
0.999445 1 1 0.999445
0.99956 1 1 0.99956
0.999515 1 1 0.999515
0.999513 1 1 0.999513
0.999554 1 1 0.999554
0.999548 1 1 0.999548
0.999601 1 1 0.999601
0.999554 1 1 0.999554
0.999621 1 1 0.999621
0.999768 1 1 0.999768
0.999982 1 1 0.999982
0.999799 1 1 0.999799
0.999657 1 1 0.999657
1 1 1 1
0.99999 1 1 0.99999
0.999832 1 1 0.999832
1 1 1 1
0.999996 1 1 0.999996
1 1 1 1
0.999565 1 1 0.999565
0.999622 1 1 0.999622
0.999693 1 1 0.999693
0.999662 1 1 0.999662
0.999719 1 1 0.999719
0.999852 1 1 0.999852
0.999735 1 1 0.999735
0.999871 1 1 0.999871
1 1 1 1
0.999891 1 1 0.999891
1 1 1 1
1 1 1 1
1 1 1 1
1 1 1 1
1 1 1 1
0.999361 1.00036 0.999459 0.999544
0.997864 1.00112 0.997147 0.999601
0.983838 0.986214 0.998318 0.999271
0.999488 1 1 0.999488
0.999659 1 1 0.999659
0.999416 1 1 0.999416
0.999522 1 1 0.999522
0.999618 1 1 0.999618
0.99925 1 1 0.99925
0.999648 1 1 0.999648
0.999436 1 1 0.999436
0.999303 1.00006 1 0.999243
0.999391 1 1 0.999391
0.999238 1.0001 1 0.999142
1.00087 1.00193 0.999671 0.999265
0.999812 1.00072 1 0.999091
1.00117 1.00515 0.996643 0.999402
0.999613 1 1 0.999613
0.999597 1 1 0.999597
1.00188 1 1.00224 0.999637
1.00293 1.00466 0.998911 0.999358
1.0002 1.00085 1 0.99935
0.999893 1.00055 1 0.999348
0.999685 1.00019 1 0.999494
0.999454 1 1 0.999454
0.999782 1.00031 1 0.999469
0.999373 1 1 0.999373
0.999366 1 1 0.999366
0.999482 1 1 0.999482
0.999397 1 1 0.999397
0.999383 1 1 0.999383
0.999479 1 1 0.999479
0.999444 1 1 0.999444
0.999456 1 1 0.999456
0.999515 1 1 0.999515
0.999513 1 1 0.999513
0.999563 1 1 0.999563
0.999549 1 1 0.999549
0.999602 1 1 0.999602
0.999738 1 1 0.999738
0.999618 1 1 0.999618
0.999768 1 1 0.999768
0.99997 1 1 0.99997
1 1 1 1
0.999978 1 1 0.999978
0.999799 1 1 0.999799
1 1 1 1
0.999987 1 1 0.999987
1 1 1 1
0.999438 1 1 0.999438
0.999509 1 1 0.999509
0.999557 1 1 0.999557
0.999661 1 1 0.999661
0.999615 1 1 0.999615
0.999694 1 1 0.999694
0.999835 1 1 0.999835
0.999719 1 1 0.999719
0.999852 1 1 0.999852
0.999997 1 1 0.999997
0.999871 1 1 0.999871
1 1 1 1
1 1 1 1
1 1 1 1
1 1 1 1
1 1 1 1
0.999474 1 1 0.999473
1.00015 1.001 0.9996 0.999549
0.997572 1.00088 0.997094 0.999602
0.999317 1 1 0.999317
0.999519 1 1 0.999519
0.999693 1 1 0.999693
0.99943 1 1 0.99943
0.999516 1 1 0.999516
0.999214 1 1 0.999214
0.999243 1.00001 1 0.999234
0.999432 1 1 0.999432
0.999351 1.00011 1 0.999236
0.999331 1.00021 1 0.999124
1.00123 1.00218 0.99979 0.999259
0.999549 1 1 0.999549
0.999603 1 1 0.999603
0.999593 1 1 0.999593
1.00001 1.00067 1 0.999342
0.999797 1.0003 1 0.999494
0.999514 1.00006 1 0.999454
0.999431 1 1 0.999431
0.999379 1 1 0.999379
0.999362 1 1 0.999362
0.99938 1 1 0.99938
0.999394 1 1 0.999394
0.999382 1 1 0.999382
0.999406 1 1 0.999406
0.999443 1 1 0.999443
0.999455 1 1 0.999455
0.999513 1 1 0.999513
0.999513 1 1 0.999513
0.999563 1 1 0.999563
0.999701 1 1 0.999701
0.999602 1 1 0.999602
0.999738 1 1 0.999738
0.99996 1 1 0.99996
0.999768 1 1 0.999768
0.999967 1 1 0.999967
1 1 1 1
1 1 1 1
0.999975 1 1 0.999975
1 1 1 1
0.999341 1 1 0.999341
0.999499 1 1 0.999499
0.999484 1 1 0.999484
0.99961 1 1 0.99961
0.999508 1 1 0.999508
0.999549 1 1 0.999549
0.999661 1 1 0.999661
0.999811 1 1 0.999811
0.999695 1 1 0.999695
0.999835 1 1 0.999835
0.99999 1 1 0.99999
0.999852 1 1 0.999852
0.999998 1 1 0.999998
1 1 1 1
1 1 1 1
1 1 1 1
1 1 1 1
0.999388 1 1 0.999388
0.999472 1 1 0.999472
1.00071 1.00136 0.999796 0.999553
0.999254 1 1 0.999254
0.999318 1 1 0.999318
0.999551 1 1 0.999551
0.999443 1 1 0.999443
0.99924 1.00003 1 0.999215
0.999269 1.00005 1 0.999219
0.999361 1.00013 1 0.99923
0.999478 1 1 0.999478
0.999527 1 1 0.999527
0.999593 1 1 0.999593
0.999417 1 1 0.999417
0.999595 1.00014 1 0.999453
0.999429 1 1 0.999429
0.999413 1 1 0.999413
0.999358 1 1 0.999358
0.99938 1 1 0.99938
0.999395 1 1 0.999395
0.999381 1 1 0.999381
0.999406 1 1 0.999406
0.999472 1 1 0.999472
0.999454 1 1 0.999454
0.999512 1 1 0.999512
0.999657 1 1 0.999657
0.999563 1 1 0.999563
0.9997 1 1 0.9997
0.99995 1 1 0.99995
0.999738 1 1 0.999738
0.999957 1 1 0.999957
1 1 1 1
0.999964 1 1 0.999964
1 1 1 1
1 1 1 1
0.999282 1 1 0.999282
0.999402 1 1 0.999402
0.999358 1 1 0.999358
0.999575 1 1 0.999575
0.999497 1 1 0.999497
0.999529 1 1 0.999529
0.999764 1 1 0.999764
0.99961 1 1 0.99961
0.999508 1 1 0.999508
0.999662 1 1 0.999662
0.999811 1 1 0.999811
0.999979 1 1 0.999979
0.999835 1 1 0.999835
0.999993 1 1 0.999993
1 1 1 1
0.999999 1 1 0.999999
1 1 1 1
1 1 1 1
0.999361 1 1 0.999361
0.999371 1 1 0.999371
0.999471 1 1 0.999471
0.999247 1 1 0.999247
0.999319 1 1 0.999319
0.999233 1.00002 1 0.999216
0.999414 1 1 0.999414
0.99948 1 1 0.99948
0.999506 1 1 0.999506
0.999416 1 1 0.999416
0.999398 1 1 0.999398
0.999428 1 1 0.999428
0.999413 1 1 0.999413
0.999415 1 1 0.999415
0.999381 1 1 0.999381
0.999396 1 1 0.999396
0.999453 1 1 0.999453
0.999406 1 1 0.999406
0.999471 1 1 0.999471
0.999623 1 1 0.999623
0.999512 1 1 0.999512
0.999656 1 1 0.999656
0.99994 1 1 0.99994
0.999699 1 1 0.999699
0.999947 1 1 0.999947
1 1 1 1
0.999954 1 1 0.999954
1 1 1 1
1 1 1 1
0.999359 1 1 0.999359
0.999329 1 1 0.999329
0.999276 1 1 0.999276
0.999497 1 1 0.999497
0.99941 1 1 0.99941
0.999375 1 1 0.999375
0.999708 1 1 0.999708
0.999559 1 1 0.999559
0.999495 1 1 0.999495
0.999962 1 1 0.999962
0.999764 1 1 0.999764
0.999609 1 1 0.999609
0.999811 1 1 0.999811
0.999983 1 1 0.999983
1 1 1 1
0.999995 1 1 0.999995
1 1 1 1
1 1 1 1
0.999359 1 1 0.999359
0.999356 1 1 0.999356
0.999355 1 1 0.999355
0.99924 1 1 0.99924
0.999376 1 1 0.999376
0.999419 1 1 0.999419
0.999481 1 1 0.999481
0.999415 1 1 0.999415
0.999398 1 1 0.999398
0.999415 1 1 0.999415
0.999413 1 1 0.999413
0.999417 1 1 0.999417
0.999452 1 1 0.999452
0.999398 1 1 0.999398
0.999454 1 1 0.999454
0.999606 1 1 0.999606
0.999471 1 1 0.999471
0.999622 1 1 0.999622
0.999931 1 1 0.999931
0.999655 1 1 0.999655
0.999938 1 1 0.999938
1 1 1 1
0.999945 1 1 0.999945
1 1 1 1
1 1 1 1
0.999375 1 1 0.999375
0.999368 1 1 0.999368
0.99936 1 1 0.99936
0.999415 1 1 0.999415
0.999341 1 1 0.999341
0.999271 1 1 0.999271
0.999629 1 1 0.999629
0.999496 1 1 0.999496
0.999419 1 1 0.999419
0.999942 1 1 0.999942
0.999694 1 1 0.999694
0.999543 1 1 0.999543
1 1 1 1
0.999967 1 1 0.999967
0.999765 1 1 0.999765
0.999986 1 1 0.999986
1 1 1 1
1 1 1 1
0.99937 1 1 0.99937
0.999367 1 1 0.999367
0.999351 1 1 0.999351
0.999379 1 1 0.999379
0.999373 1 1 0.999373
0.999424 1 1 0.999424
0.999399 1 1 0.999399
0.999416 1 1 0.999416
0.999468 1 1 0.999468
0.99942 1 1 0.99942
0.999463 1 1 0.999463
0.999578 1 1 0.999578
0.999455 1 1 0.999455
0.999606 1 1 0.999606
0.999924 1 1 0.999924
0.999622 1 1 0.999622
0.99993 1 1 0.99993
1 1 1 1
0.999935 1 1 0.999935
1 1 1 1
1 1 1 1
0.999382 1 1 0.999382
0.999398 1 1 0.999398
0.999375 1 1 0.999375
0.999431 1 1 0.999431
0.999372 1 1 0.999372
0.999361 1 1 0.999361
0.999578 1 1 0.999578
0.999432 1 1 0.999432
0.999352 1 1 0.999352
0.999928 1 1 0.999928
0.999622 1 1 0.999622
0.999495 1 1 0.999495
1 1 1 1
0.999948 1 1 0.999948
0.99968 1 1 0.99968
1 1 1 1
0.999973 1 1 0.999973
1 1 1 1
0.999383 1 1 0.999383
0.99937 1 1 0.99937
0.999376 1 1 0.999376
0.999435 1 1 0.999435
0.999381 1 1 0.999381
0.99937 1 1 0.99937
0.999416 1 1 0.999416
0.999469 1 1 0.999469
0.999566 1 1 0.999566
0.999475 1 1 0.999475
0.999588 1 1 0.999588
0.999912 1 1 0.999912
0.999606 1 1 0.999606
0.999923 1 1 0.999923
1 1 1 1
0.999929 1 1 0.999929
1 1 1 1
1 1 1 1
0.999406 1 1 0.999406
0.999379 1 1 0.999379
0.999443 1 1 0.999443
0.999399 1 1 0.999399
0.999375 1 1 0.999375
0.999583 1 1 0.999583
0.999429 1 1 0.999429
0.999376 1 1 0.999376
0.999918 1 1 0.999918
0.999586 1 1 0.999586
0.999449 1 1 0.999449
1 1 1 1
0.999931 1 1 0.999931
0.999615 1 1 0.999615
1 1 1 1
0.999953 1 1 0.999953
1 1 1 1
0.999441 1 1 0.999441
0.999385 1 1 0.999385
0.999371 1 1 0.999371
0.999545 1 1 0.999545
0.999435 1 1 0.999435
0.999382 1 1 0.999382
0.999469 1 1 0.999469
0.999568 1 1 0.999568
0.999895 1 1 0.999895
0.999599 1 1 0.999599
0.99991 1 1 0.99991
1 1 1 1
0.999921 1 1 0.999921
1 1 1 1
1 1 1 1
0.999443 1 1 0.999443
0.999402 1 1 0.999402
0.999376 1 1 0.999376
0.999582 1 1 0.999582
0.999442 1 1 0.999442
0.999399 1 1 0.999399
0.999913 1 1 0.999913
0.999582 1 1 0.999582
0.999428 1 1 0.999428
1 1 1 1
0.99992 1 1 0.99992
0.999594 1 1 0.999594
1 1 1 1
0.999935 1 1 0.999935
1 1 1 1
0.999565 1 1 0.999565
0.99943 1 1 0.99943
0.999388 1 1 0.999388
0.999884 1 1 0.999884
0.999547 1 1 0.999547
0.999435 1 1 0.999435
0.999571 1 1 0.999571
0.999894 1 1 0.999894
1 1 1 1
0.999909 1 1 0.999909
1 1 1 1
1 1 1 1
0.999576 1 1 0.999576
0.999439 1 1 0.999439
0.999398 1 1 0.999398
0.99991 1 1 0.99991
0.999582 1 1 0.999582
0.999442 1 1 0.999442
1 1 1 1
0.999913 1 1 0.999913
0.999582 1 1 0.999582
1 1 1 1
0.999922 1 1 0.999922
1 1 1 1
0.999881 1 1 0.999881
0.999556 1 1 0.999556
0.999419 1 1 0.999419
1 1 1 1
0.999883 1 1 0.999883
0.999549 1 1 0.999549
0.999893 1 1 0.999893
1 1 1 1
1 1 1 1
0.999898 1 1 0.999898
0.999576 1 1 0.999576
0.999435 1 1 0.999435
1 1 1 1
0.999907 1 1 0.999907
0.999581 1 1 0.999581
1 1 1 1
0.999913 1 1 0.999913
1 1 1 1
0.999985 1 1 0.999985
0.999887 1 1 0.999887
0.999547 1 1 0.999547
1 1 1 1
0.999882 1 1 0.999882
1 1 1 1
0.99999 1 1 0.99999
0.999898 1 1 0.999898
0.999576 1 1 0.999576
0.999997 1 1 0.999997
0.999906 1 1 0.999906
1 1 1 1
1 1 1 1
0.999884 1 1 0.999884
1 1 1 1
0.999994 1 1 0.999994
0.999895 1 1 0.999895
1 1 1 1
1 1 1 1
1 1 1 1

VECTORS lamdaE float
0.998943 0.999957 0.996975
0.999157 0.998967 0.998818
0.998881 1.00003 0.997021
0.999136 1.0001 0.996635
0.998895 1.00018 0.996893
0.999072 0.999515 0.997131
0.999546 1.00059 0.995054
0.999189 0.998856 0.99885
0.998791 1.00019 0.998704
0.998937 0.999394 0.998828
0.999334 0.998494 0.997591
0.999577 1.00024 0.995095
0.999469 0.99996 0.996255
0.999103 0.999972 0.996733
0.998817 1.00012 0.997071
0.999058 1.00015 0.996701
0.999025 0.999548 0.997179
0.99883 1.00026 0.996939
0.99959 1.00056 0.995053
0.999422 0.999982 0.998369
0.999275 0.999986 0.99654
0.998969 1.00021 0.996777
1.00021 1.00015 0.99434
0.999698 1.00052 0.994862
0.999255 0.998914 0.997371
0.999435 1.0005 0.995315
1.00065 1.00113 0.992493
0.999223 0.998734 0.998881
0.998836 1.00019 0.997782
0.998991 0.999493 0.997996
0.999322 0.998371 0.998945
0.999529 1.0003 0.995095
0.998994 1.00034 0.996766
0.998921 1.00015 0.997023
0.99986 1.0005 0.995136
0.999406 0.99792 0.999106
0.999606 1.00038 0.995608
0.999555 0.999937 0.995415
1.00013 1.00154 0.992775
0.999541 0.997474 0.999183
0.999445 1 0.998338
0.999172 1 0.997608
0.999583 0.999998 0.998227
0.999203 0.999912 0.996609
1.00068 0.999988 0.993133
0.998999 1.00017 0.998642
1.0004 1.00002 0.994674
0.99898 1.0002 0.996765
0.998756 1.00038 0.996988
0.998979 0.999569 0.997234
0.999634 1.00052 0.995048
0.999403 0.999958 0.997369
0.999201 0.999995 0.996606
0.999225 0.998882 0.997421
0.998896 1.00028 0.996839
1.00024 1.00013 0.994332
0.999472 1.00048 0.995316
0.999747 1.00049 0.994862
1.00071 1.00114 0.992437
0.99951 0.999996 0.998292
0.999351 0.999948 0.996451
1.00064 0.999951 0.994239
1.0004 0.999961 0.994183
0.999928 1.00037 0.994615
1.002 1.00014 0.991025
1.00103 1.00073 0.991939
0.999465 0.998271 0.997642
0.999385 1.00019 0.995715
1.00024 1.00145 0.992909
1.0013 1.00117 0.990893
0.998863 1.00006 0.998658
0.999357 0.998248 0.999001
0.999043 0.999266 0.998794
0.999477 1.00038 0.995096
0.998995 1.00023 0.998584
0.998888 0.999906 0.998696
0.999765 1.00058 0.994308
0.999425 0.997968 0.998465
0.99954 1.00052 0.994848
0.999533 0.999888 0.995811
1.00012 1.00154 0.992763
0.999488 0.997704 0.999125
0.999704 0.998669 0.996415
1.00005 1.00035 0.994045
0.999678 1.00062 0.994529
1.00112 1.00078 0.991602
0.999567 0.99942 0.996495
1.00034 1.00132 0.992606
0.999994 1.00163 0.992946
1.00054 1.00178 0.991687
0.999598 0.997217 0.999235
0.999543 0.997433 0.9992
0.999171 1.00006 0.998535
0.999382 1.00001 0.998389
0.999548 1 0.998253
0.999271 0.999976 0.997499
1.00067 0.999993 0.993696
0.999035 1.00011 0.997674
1.00035 0.999991 0.994252
0.999603 0.999995 0.998217
1.00083 0.999965 0.992842
1.00053 0.99999 0.994463
1.00257 0.99977 0.989795
1.00023 1.00014 0.994826
1.00216 1.00002 0.990358
0.999469 0.999927 0.996285
0.999126 0.999999 0.996672
0.999191 0.998826 0.997475
0.998821 1.00038 0.996897
1.00027 1.00012 0.994325
0.999798 1.00042 0.99486
0.99951 1.00046 0.995315
1.00077 1.00117 0.99238
0.999552 0.999993 0.998259
0.999279 0.999932 0.996526
1.00068 0.999922 0.993452
1.00043 0.999956 0.994163
0.999414 0.998221 0.998316
0.999441 1.00016 0.995828
0.999971 1.00034 0.994614
1.002 1.00014 0.990916
1.0003 1.00148 0.992844
1.00107 1.00076 0.992005
1.0013 1.00117 0.990899
1.00081 0.999966 0.992884
1.00049 0.999899 0.994081
1.0026 0.999701 0.990068
1.00224 0.999832 0.990604
1.00154 1.00041 0.991361
1.00289 0.999958 0.989317
0.999503 0.997823 0.999086
1.0017 1.00073 0.990526
0.999553 0.999719 0.995634
0.999942 1.00155 0.993022
1.00089 1.00171 0.991242
1.00171 1.00105 0.99023
0.999705 0.998899 0.996131
1.00008 1.00056 0.993843
0.998938 1.00018 0.9986
0.998892 0.999736 0.998731
0.999725 1.00063 0.994317
0.999443 0.997902 0.999097
0.999504 0.999909 0.995495
0.999467 1.00063 0.994837
1.00012 1.00154 0.992749
0.999492 0.997678 0.999144
0.99971 0.998624 0.996432
1.00002 1.00032 0.99452
0.99961 1.00061 0.994978
1.00111 1.00077 0.991618
0.999582 0.999383 0.995927
1.00033 1.00131 0.992609
0.999979 1.00164 0.992938
1.00055 1.00178 0.991657
0.999636 0.999025 0.996179
0.999775 0.998315 0.996642
1.00003 1.00049 0.993965
1.00157 1.00044 0.991059
1.00066 1.00111 0.992192
1.00181 1.00086 0.990233
1.00002 1.00129 0.993236
1.00082 1.00142 0.991497
1.00032 1.00222 0.991795
1.00068 1.00205 0.99124
0.999668 0.996962 0.999278
0.999605 0.997173 0.99925
0.999546 0.997391 0.999217
0.999755 0.998568 0.996386
0.999551 0.997591 0.999147
0.999053 1.00014 0.998567
0.999274 1.00002 0.998478
1.00034 0.999957 0.993797
1.00062 0.999991 0.99322
0.999508 1.00001 0.998284
0.999605 0.999998 0.998211
1.00082 0.999973 0.992855
1.00048 0.99998 0.994041
1.00257 0.999775 0.989795
1.00017 1.00011 0.993953
1.00215 1.00004 0.99036
1.0009 0.999953 0.992702
1.00283 0.999676 0.989377
1.00235 0.999874 0.990132
1.00347 0.999491 0.988377
1.00192 1.0002 0.990645
1.00302 0.999763 0.988994
0.999586 0.999989 0.998228
0.999205 0.999902 0.996602
1.00069 0.999899 0.992704
1.00046 0.999959 0.994144
0.999342 0.998157 0.999018
0.999494 1.00015 0.995941
1.00001 1.00029 0.994616
1.002 1.00013 0.990806
1.0011 1.0008 0.992071
1.00037 1.00152 0.992779
1.0013 1.00117 0.990905
1.00082 0.999953 0.992873
1.00052 0.999891 0.994059
1.00258 0.999694 0.989867
1.00226 0.999877 0.990673
0.999484 0.997858 0.999064
0.999549 0.99971 0.995946
1.00001 1.00156 0.993127
1.00152 1.00043 0.991373
1.00287 0.999907 0.989192
1.00084 1.00171 0.991228
1.00176 1.00074 0.990562
1.00171 1.00105 0.990241
0.999687 0.998957 0.996121
1.00008 1.00054 0.993841
1.00285 0.99964 0.989362
1.00238 0.999731 0.990445
1.00349 0.999472 0.988607
1.00319 0.999492 0.988799
1.00223 1.00034 0.990012
1.00337 0.999523 0.988724
0.999627 0.999276 0.995876
1.0022 1.00048 0.989849
0.999952 1.00142 0.993159
1.00038 1.00194 0.991713
1.00128 1.00184 0.990574
1.002 1.00082 0.990012
1.00007 1.00097 0.99344
1.00008 1.00007 0.994318
1.00025 1.00165 0.992439
0.999968 1.00036 0.994103
0.999494 0.997647 0.999162
0.999715 0.998585 0.996449
0.999528 1.00074 0.994595
1.0011 1.00076 0.991633
0.999579 0.999339 0.995906
0.99996 1.00165 0.992931
1.00032 1.0013 0.992612
1.00055 1.00177 0.991627
0.999645 0.998975 0.996191
0.999772 0.998293 0.996657
1.00003 1.0005 0.993969
1.00157 1.00044 0.99107
1.00064 1.0011 0.992208
1.0018 1.00086 0.990236
0.999985 1.00134 0.993235
1.00084 1.00143 0.99154
1.00031 1.00222 0.99179
1.00066 1.00206 0.991194
0.999839 0.998019 0.996818
1.00005 1.00086 0.993563
1.00003 1.00005 0.994408
1.0002 1.00154 0.992654
1.00234 1.00041 0.98965
1.00123 1.00124 0.990985
1.0022 1.00079 0.989543
1.00024 1.00209 0.992094
1.00106 1.00151 0.991055
1.00034 1.00287 0.991089
1.00079 1.00204 0.990842
1.00013 0.999063 0.995235
0.999938 0.997605 0.997036
0.999741 0.996739 0.99931
0.999678 0.996926 0.999288
0.999612 0.99713 0.999264
0.999803 0.998258 0.996616
0.99959 0.997351 0.999205
0.999749 0.99861 0.996368
0.999546 0.997618 0.999129
1.00018 1.00009 0.993957
1.00047 0.999949 0.993559
1.00214 1.00005 0.990362
1.00256 0.999781 0.989796
1.0008 0.999981 0.992866
0.9996 1 0.998213
1.0009 0.999956 0.992701
1.00283 0.999676 0.98938
1.00234 0.999887 0.99013
1.00347 0.999498 0.988377
1.0019 1.00021 0.990652
1.00302 0.99976 0.988993
1.00295 0.999617 0.989207
1.00376 0.999387 0.98792
1.00325 0.999574 0.988738
1.00386 0.999139 0.987998
1.00272 1.00004 0.98927
1.00349 0.999312 0.988541
1.00083 0.999943 0.99286
1.00055 0.999897 0.994036
1.00256 0.999677 0.989666
1.00227 0.999918 0.990743
0.999467 0.997896 0.999042
0.999557 0.999711 0.996244
1.00008 1.00156 0.993231
1.00151 1.00046 0.991385
1.00286 0.999854 0.989066
1.00181 1.00074 0.990599
1.00078 1.00171 0.991214
1.0017 1.00105 0.990253
0.999671 0.999017 0.99611
1.00008 1.00052 0.99384
1.00283 0.999628 0.989301
1.00239 0.999736 0.99044
1.00351 0.999442 0.988539
1.00319 0.999555 0.98893
0.999619 0.999329 0.995874
0.999977 1.00142 0.993163
1.00039 1.00191 0.991796
1.00227 1.00037 0.989998
1.00336 0.999448 0.988695
1.00123 1.00186 0.990481
1.00221 1.00047 0.989849
1.00196 1.00081 0.990003
1.00008 1.00093 0.993447
1.00025 1.00161 0.992443
1.00008 1.00007 0.994309
1.00374 0.999413 0.988177
1.00333 0.999434 0.988833
1.00395 0.999206 0.987887
1.00371 0.999083 0.988345
1.00268 0.999929 0.989324
1.00363 0.9989 0.98876
1.00001 1.00127 0.993248
1.00243 1.00015 0.989706
1.0003 1.00181 0.992193
1.00058 1.00233 0.990976
1.00149 1.00192 0.989964
1.00215 1.00059 0.990119
1.00011 0.999662 0.994662
1.0003 1.00165 0.992345
1.00023 1.00133 0.992718
1.00024 1.00219 0.991977
1.00156 1.00045 0.991081
0.999768 0.99827 0.996671
0.999658 0.998922 0.996202
1.00003 1.00051 0.993972
1.00063 1.00109 0.992224
1.00179 1.00086 0.990239
0.999956 1.00139 0.993234
1.00031 1.00222 0.991785
1.00085 1.00143 0.991583
1.00064 1.00207 0.991148
0.999833 0.99801 0.996827
1.00004 1.0009 0.993561
1.00004 1.00005 0.994417
1.0002 1.00156 0.992644
1.00234 1.00042 0.989645
1.00121 1.00124 0.990996
1.0022 1.00078 0.989547
1.00022 1.00209 0.9921
1.00108 1.00153 0.991101
1.00036 1.00287 0.991063
1.00077 1.00203 0.990982
0.999892 0.997793 0.996944
1.00006 0.999671 0.994745
1.00025 1.00175 0.992384
1.00019 1.00117 0.993037
1.00018 1.00229 0.991961
1.00278 1.0002 0.989006
1.00152 1.00126 0.990386
1.00237 1.00069 0.989309
1.00022 1.00292 0.991323
1.00118 1.00155 0.990769
1.00046 1.00313 0.990275
1.00011 0.999224 0.995113
1.00016 1.00009 0.994177
1.00015 0.998936 0.99533
1.00012 0.999081 0.995232
0.999968 0.997404 0.997562
0.999929 0.997585 0.997266
0.999847 0.996564 0.998456
0.999751 0.996708 0.999318
0.999687 0.99689 0.999298
0.999858 0.997996 0.996778
0.999646 0.997102 0.999252
0.999807 0.998279 0.996601
0.99959 0.997387 0.999187
0.999744 0.998653 0.99635
0.999542 0.997647 0.999111
1.0019 1.00023 0.990658
1.00233 0.999896 0.990128
1.00302 0.999766 0.988992
1.00348 0.999504 0.988377
1.00283 0.999675 0.989383
1.0009 0.999958 0.9927
1.00295 0.999614 0.989204
1.00376 0.999389 0.987925
1.00324 0.999585 0.988739
1.00389 0.999126 0.987952
1.00273 1.00005 0.989264
1.00349 0.999323 0.988542
1.00389 0.99932 0.987733
1.00412 0.999099 0.987498
1.00372 0.999115 0.988282
1.00409 0.998854 0.987912
1.00317 0.999707 0.988749
1.00373 0.99866 0.988728
1.00281 0.999619 0.989242
1.0024 0.999732 0.990436
1.00352 0.999419 0.988472
1.00319 0.999621 0.98906
0.999611 0.999374 0.995871
0.999998 1.00141 0.993169
1.0004 1.00189 0.99188
1.00232 1.0004 0.989984
1.00335 0.999372 0.988666
1.00221 1.00046 0.989849
1.00118 1.00188 0.990389
1.00191 1.0008 0.989994
1.00009 1.00088 0.993454
1.00026 1.00158 0.992447
1.00007 1.00008 0.9943
1.00376 0.99939 0.988049
1.00334 0.999406 0.988833
1.00395 0.999164 0.987842
1.00372 0.999116 0.98837
1.00004 1.00121 0.993256
1.00033 1.0018 0.99218
1.00055 1.00233 0.991078
1.0027 1.00001 0.989369
1.00363 0.998775 0.988816
1.00141 1.00198 0.989892
1.00244 1.00014 0.989711
1.00211 1.00051 0.990138
1.0003 1.00165 0.992358
1.00025 1.0022 0.991923
1.0001 0.99968 0.994654
1.00023 1.00126 0.992784
1.00415 0.999149 0.987438
1.00384 0.999088 0.988175
1.00417 0.998943 0.987635
1.00398 0.998619 0.988278
1.00299 0.999413 0.989309
1.00389 0.998189 0.98896
1.00028 1.00171 0.992324
1.00252 0.999597 0.990065
1.00031 1.00224 0.991602
1.00078 1.00276 0.990306
1.00161 1.00201 0.989487
1.00226 1.00048 0.990056
1.00012 0.999463 0.994842
1.00024 1.00083 0.993174
1.00032 1.00204 0.991945
1.0002 1.00211 0.99212
1.00027 1.00233 0.991779
0.999826 0.997999 0.996835
1.00234 1.00042 0.98964
1.00004 1.00003 0.994425
1.00002 1.00095 0.993558
1.00019 1.00158 0.992633
1.00119 1.00124 0.991008
1.0022 1.00078 0.98955
1.00019 1.00211 0.992106
1.00037 1.00289 0.991038
1.00109 1.00154 0.991148
1.00074 1.00201 0.991122
0.999887 0.997783 0.99695
1.00006 0.999662 0.994753
1.00024 1.00175 0.99238
1.00018 1.00118 0.993036
1.00018 1.00231 0.991921
1.00278 1.00021 0.988997
1.00152 1.00126 0.99039
1.00237 1.0007 0.989286
1.00019 1.00292 0.991336
1.0012 1.00156 0.990796
1.00053 1.00312 0.990341
1.00008 0.999417 0.994962
1.00019 1.00074 0.993453
1.00025 1.00248 0.991672
1.00015 1.00207 0.992251
1.00014 1.00283 0.991537
1.00301 0.999903 0.988833
1.00169 1.00118 0.990122
1.00225 1.00031 0.989754
1.00015 1.00371 0.990577
1.00107 1.00268 0.989886
1.00011 0.999229 0.995115
1.00016 1.00024 0.993907
1.00016 1.0001 0.994112
1.00014 1.0009 0.993543
1.00016 1.00004 0.994213
1.00017 0.998842 0.995385
1.00015 0.998944 0.995328
1.00001 0.997225 0.997638
1.00012 0.999098 0.995229
0.999973 0.997392 0.997573
0.999914 0.996368 0.998516
0.999922 0.99757 0.997493
0.999828 0.996533 0.998901
0.999761 0.996677 0.999327
0.999903 0.9978 0.996886
0.999862 0.998008 0.996769
0.999714 0.996882 0.999285
0.999642 0.997142 0.999238
0.99981 0.998299 0.996585
0.999588 0.997423 0.999169
1.00274 1.00005 0.989257
1.00324 0.999588 0.988741
1.00349 0.999331 0.988542
1.00391 0.999114 0.987906
1.00376 0.999391 0.98793
1.00296 0.999613 0.989202
1.0039 0.999319 0.987733
1.00414 0.999121 0.987422
1.00372 0.999123 0.988288
1.0041 0.998807 0.987915
1.00318 0.999714 0.988735
1.00375 0.998628 0.988709
1.0043 0.999096 0.987152
1.00433 0.998942 0.987313
1.00398 0.998579 0.988268
1.00419 0.998662 0.987904
1.00344 0.999098 0.988757
1.00399 0.998252 0.988751
1.00378 0.999364 0.987921
1.00335 0.999382 0.988833
1.00395 0.999123 0.987797
1.00372 0.999146 0.988395
1.00006 1.00116 0.993265
1.00036 1.0018 0.992167
1.00053 1.00233 0.991179
1.00271 1.00008 0.989414
1.00363 0.998649 0.988872
1.00244 1.00013 0.989716
1.00134 1.00204 0.989819
1.00208 1.00044 0.990157
1.00031 1.00165 0.992371
1.00027 1.00221 0.991869
1.00009 0.999698 0.994647
1.00024 1.0012 0.99285
1.00416 0.99915 0.987434
1.00385 0.999082 0.98819
1.00414 0.998913 0.987694
1.00398 0.998616 0.988278
1.00031 1.00169 0.992324
1.00031 1.00221 0.991682
1.00077 1.0028 0.990301
1.003 0.999514 0.989274
1.00377 0.998072 0.989217
1.0016 1.00207 0.989444
1.00251 0.999612 0.990082
1.00222 1.00026 0.990151
1.00034 1.00203 0.991949
1.00028 1.00232 0.991769
1.00019 1.00213 0.992109
1.00012 0.999461 0.994763
1.00025 1.00078 0.993224
1.00439 0.998941 0.987163
1.00422 0.998715 0.987722
1.0042 0.998097 0.988347
1.0033 0.998514 0.989564
1.00031 1.00203 0.99196
1.00278 0.999082 0.990349
1.00022 1.00265 0.991184
1.00101 1.00329 0.989345
1.00192 1.00199 0.989014
1.00014 0.999319 0.994817
1.00024 1.00053 0.993646
1.00019 1.00165 0.992597
1.00033 1.00209 0.991878
1.00019 1.00263 0.991666
1.00033 1.00227 0.991649
0.999882 0.997773 0.996955
1.00007 0.999653 0.99476
1.00278 1.00022 0.988988
1.00018 1.0012 0.993035
1.00023 1.00175 0.992376
1.00017 1.00233 0.991882
1.00152 1.00126 0.990395
1.00236 1.0007 0.989264
1.00017 1.00291 0.991348
1.0006 1.0031 0.990406
1.00121 1.00158 0.990824
1.00008 0.999416 0.994966
1.00019 1.00073 0.993457
1.00023 1.00247 0.991706
1.00015 1.00206 0.992246
1.00012 1.00287 0.991479
1.003 0.999944 0.988826
1.00171 1.00117 0.990099
1.00231 1.0002 0.989806
1.00013 1.0037 0.990532
1.00106 1.00281 0.989764
1.00017 1.00044 0.993787
1.00017 1.00165 0.992538
1.00017 1.00321 0.991141
1.00012 1.00276 0.991557
1.0002 1.00309 0.991128
1.00327 0.998448 0.989782
1.00179 1.00168 0.989604
1.0024 0.99941 0.989904
1.0004 1.00409 0.990035
1.0009 1.00328 0.9889
1.0001 0.999235 0.995116
1.00017 1.00024 0.993956
1.00016 1.00103 0.99316
1.00017 1.00013 0.994046
1.00016 1.00005 0.994213
1.00014 1.00088 0.99345
1.00011 1.0015 0.992956
1.00013 1.00083 0.993446
1.00018 0.999991 0.994251
1.00018 0.998811 0.995392
1.00017 0.998839 0.995386
1.00005 0.997105 0.997673
1.00014 0.998953 0.995326
1.00002 0.997221 0.997645
0.999964 0.996207 0.998568
0.999979 0.997377 0.997585
0.999907 0.996346 0.998513
0.999807 0.996496 0.999351
0.999948 0.997624 0.996977
0.999908 0.997808 0.996881
0.999779 0.996691 0.99931
0.999866 0.99802 0.996761
0.999706 0.996911 0.999276
0.999638 0.997177 0.999224
1.00318 0.999721 0.988722
1.00372 0.999133 0.988294
1.00378 0.9986 0.98869
1.00411 0.998761 0.987919
1.00417 0.999141 0.987346
1.0039 0.99932 0.987734
1.00432 0.999114 0.987124
1.00431 0.998963 0.987341
1.004 0.998592 0.988226
1.0042 0.998587 0.987921
1.00345 0.999125 0.988762
1.00394 0.998154 0.988854
1.00454 0.998985 0.986853
1.00436 0.998704 0.987498
1.00419 0.998245 0.988236
1.00382 0.998266 0.989019
1.00416 0.999151 0.98743
1.00386 0.999072 0.988204
1.00411 0.998881 0.987752
1.00399 0.998618 0.988278
1.00033 1.00168 0.992324
1.00031 1.00217 0.991763
1.00075 1.00285 0.990295
1.00301 0.999615 0.989238
1.00366 0.997958 0.989473
1.0025 0.999627 0.9901
1.00158 1.00213 0.989402
1.00217 1.00006 0.990246
1.00035 1.00202 0.991953
1.00029 1.0023 0.99176
1.00018 1.00215 0.992097
1.00012 0.99946 0.994684
1.00026 1.00074 0.993275
1.00436 0.998916 0.98724
1.00422 0.998746 0.987721
1.00417 0.998125 0.988435
1.00034 1.00202 0.991951
1.0003 1.00261 0.991276
1.00097 1.00337 0.989329
1.00335 0.998569 0.989477
1.00189 1.00182 0.98919
1.00268 0.99906 0.990336
1.00014 0.999295 0.994835
1.00034 1.0021 0.991874
1.00032 1.00224 0.991709
1.00019 1.00268 0.991626
1.0002 1.00164 0.992632
1.00024 1.00052 0.993582
1.00446 0.998813 0.987235
1.00448 0.9983 0.987606
1.00407 0.998013 0.988525
1.00368 0.99757 0.989891
1.00031 1.00222 0.991777
1.0025 1.00051 0.98927
1.00037 1.00346 0.990235
1.00122 1.00376 0.988598
1.00014 0.999164 0.99496
1.00022 1.00033 0.993895
1.0002 1.00136 0.992928
1.00016 1.00242 0.99188
1.00038 1.00216 0.991727
1.00028 1.00259 0.991454
1.00008 0.999414 0.99497
1.00019 1.00073 0.993462
1.00298 0.999986 0.98882
1.00015 1.00206 0.99224
1.00021 1.00247 0.99174
1.00011 1.0029 0.99142
1.00173 1.00116 0.990075
1.00237 1.00007 0.989857
1.0001 1.0037 0.990488
1.00106 1.00295 0.989642
1.00018 1.00043 0.993791
1.00017 1.00166 0.992559
1.00014 1.00319 0.991212
1.00011 1.00278 0.991575
1.00015 1.00314 0.991138
1.00338 0.998453 0.989688
1.00184 1.00155 0.989627
1.00237 0.999419 0.99023
1.00033 1.0041 0.989976
1.00102 1.00356 0.988709
1.00018 1.00123 0.992954
1.00014 1.00243 0.991819
1.00014 1.00374 0.990641
1.00011 1.00331 0.99087
1.0043 0.997633 0.989022
1.00349 0.99723 0.990302
1.00186 1.00219 0.98875
1.0004 1.0046 0.988858
1.00017 1.00023 0.994005
1.00017 1.00105 0.993202
1.00015 1.00167 0.992661
1.00016 1.00006 0.994213
1.00015 1.00086 0.993357
1.00018 0.999987 0.994252
1.00012 1.00151 0.992879
1.00012 1.00082 0.993478
1.0001 1.00199 0.992447
1.0001 1.0014 0.992917
1.00011 1.00079 0.9935
1.00019 0.99995 0.994263
1.00018 0.998831 0.995362
1.00018 0.998805 0.995392
1.00008 0.997057 0.997667
1.00017 0.998833 0.995387
1.00006 0.997114 0.997673
1 0.996111 0.998579
1.00002 0.997216 0.997654
0.999959 0.996183 0.998566
0.999898 0.996327 0.998509
0.999992 0.997442 0.997076
0.999952 0.997631 0.996974
0.999839 0.996511 0.999333
0.999913 0.997815 0.996876
0.999771 0.996716 0.999303
0.999698 0.996944 0.999266
1.00345 0.99915 0.988766
1.00402 0.998603 0.988184
1.00388 0.998052 0.988956
1.0042 0.998509 0.987938
1.00429 0.998983 0.98737
1.00433 0.999133 0.987095
1.00449 0.998987 0.986958
1.00434 0.998713 0.9875
1.00417 0.998254 0.988258
1.00382 0.998173 0.98899
1.0045 0.998854 0.987094
1.00443 0.998209 0.987866
1.0042 0.998063 0.988412
1.00433 0.998891 0.987316
1.00422 0.998774 0.98772
1.00414 0.998149 0.988523
1.00037 1.00201 0.991942
1.00039 1.00257 0.991368
1.00092 1.00347 0.989313
1.0034 0.998623 0.98939
1.00259 0.999029 0.990321
1.00187 1.00166 0.989367
1.00035 1.0021 0.991871
1.0003 1.00222 0.991768
1.00018 1.00272 0.991587
1.00013 0.99927 0.994853
1.0002 1.00161 0.992668
1.00024 1.0005 0.993518
1.00446 0.998819 0.987178
1.00447 0.998332 0.98761
1.00414 0.998013 0.988442
1.00034 1.00222 0.991756
1.00033 1.0034 0.990426
1.00125 1.00378 0.988594
1.00362 0.997661 0.989934
1.00252 1.0004 0.989263
1.00014 0.999148 0.995048
1.00022 1.00032 0.993898
1.00034 1.00217 0.991716
1.00029 1.00252 0.991526
1.00016 1.0024 0.991874
1.0002 1.00139 0.992874
1.00453 0.998587 0.987261
1.00462 0.998 0.987594
1.0044 0.997123 0.988935
1.00371 0.99795 0.989731
1.00015 1.00272 0.991472
1.00167 1.00349 0.987908
1.00061 1.00408 0.989563
1.00016 0.998988 0.995259
1.00016 0.999941 0.994312
1.00019 1.00023 0.99388
1.00018 1.00119 0.993084
1.00013 1.0021 0.992237
1.00009 1.00311 0.991259
1.00045 1.00179 0.991803
1.00024 1.003 0.991594
1.00018 1.00042 0.993795
1.00017 1.00166 0.99258
1.00347 0.998455 0.989593
1.00011 1.0028 0.991593
1.00011 1.00317 0.991282
1.0001 1.00319 0.991148
1.0019 1.0014 0.98965
1.00236 0.99943 0.990555
1.00026 1.0041 0.989916
1.00114 1.00382 0.988519
1.00018 1.00127 0.992909
1.00014 1.00244 0.991846
1.00012 1.00372 0.990697
1.00015 1.00333 0.990925
1.00428 0.99765 0.988863
1.00339 0.997436 0.990346
1.00195 1.00206 0.988923
1.00052 1.00458 0.988765
1.00015 1.00193 0.992387
1.0043 0.997783 0.988432
1.0001 1.00318 0.991308
1.00025 1.00406 0.990078
1.00463 0.996397 0.989308
1.00305 0.999749 0.988776
1.00112 1.00444 0.988301
1.00017 1.00106 0.993243
1.00014 1.00167 0.992659
1.00012 1.00222 0.992155
1.00018 0.999986 0.994253
1.00012 1.00082 0.99351
1.00013 1.00151 0.992802
1.0002 0.99994 0.994265
1.00011 1.0008 0.993494
1.00012 1.002 0.992386
1.0001 1.00141 0.992989
1.00012 1.00232 0.992076
1.0001 1.00189 0.992451
1.0001 1.00135 0.993082
1.00012 1.00072 0.993625
1.00021 0.999945 0.994244
1.00018 0.998864 0.995336
1.00018 0.99883 0.995363
1.0001 0.99706 0.997635
1.00018 0.998802 0.995392
1.00008 0.997077 0.997663
1.00003 0.996067 0.998568
1.00006 0.997123 0.997675
1 0.996082 0.998581
0.999954 0.996161 0.998563
1.00017 0.998828 0.995388
1.00003 0.997269 0.997171
0.999995 0.997453 0.997072
0.999892 0.996341 0.999359
0.999956 0.997639 0.99697
0.999831 0.996539 0.999326
0.999763 0.996742 0.999295
1.00383 0.998085 0.988962
1.00416 0.998262 0.988281
1.00434 0.99872 0.987503
1.00444 0.99899 0.987063
1.00449 0.998857 0.987094
1.00444 0.99819 0.987858
1.00417 0.998061 0.988426
1.00448 0.998456 0.987489
1.00443 0.998148 0.987987
1.00426 0.997847 0.988113
1.00447 0.998825 0.98712
1.00447 0.998374 0.987613
1.00422 0.998018 0.988359
1.00037 1.00222 0.991734
1.00029 1.00332 0.990617
1.00127 1.00374 0.988591
1.00355 0.997753 0.989977
1.00254 1.00027 0.989257
1.0003 1.00217 0.991705
1.00031 1.00246 0.991597
1.00016 1.00239 0.991868
1.00014 0.999131 0.995135
1.00021 1.00032 0.993901
1.00019 1.00142 0.992819
1.00452 0.998518 0.987386
1.00016 0.998983 0.995256
1.00016 0.999942 0.994267
1.00466 0.99802 0.987565
1.0043 0.997236 0.988854
1.00013 1.00266 0.991573
1.00061 1.00425 0.989352
1.00165 1.00336 0.987964
1.00356 0.997961 0.989805
1.00019 1.00023 0.994013
1.00017 1.00119 0.993084
1.00051 1.00186 0.991703
1.00016 1.0026 0.991871
1.00008 1.00319 0.991169
1.00014 1.00207 0.992243
1.00459 0.997461 0.988158
1.00475 0.99796 0.987521
1.00479 0.995984 0.989287
1.00273 1.00065 0.988563
1.00026 1.00286 0.991294
1.00099 1.00484 0.988158
1.00015 0.999837 0.99434
1.00016 1.0001 0.994145
1.00011 1.00082 0.993689
1.00014 1.00112 0.99311
1.00012 1.00192 0.992539
1.00001 1.00276 0.991673
0.999953 1.004 0.990816
1.00017 1.00229 0.991921
1.00018 1.0013 0.992865
1.00013 1.00245 0.991873
1.00426 0.997674 0.988705
1.00329 0.997681 0.990389
1.00019 1.00335 0.990979
1.0001 1.00371 0.990753
1.00203 1.00195 0.989096
1.00065 1.00455 0.988672
1.00014 1.00195 0.99238
1.00429 0.997858 0.988367
1.00008 1.00313 0.991324
1.00025 1.00401 0.990019
1.0045 0.996336 0.9893
1.00318 0.999755 0.988824
1.00105 1.00449 0.988343
1.00009 1.00273 0.991711
1.00483 0.996995 0.988881
1.00035 1.00338 0.99081
1.00055 1.00459 0.989385
1.0045 0.996548 0.989094
1.00162 1.00305 0.988093
1.00181 1.00011 0.990946
1.00015 1.00168 0.992657
1.00012 1.00223 0.99215
1.00018 1.0025 0.99179
1.0002 0.999929 0.994266
1.00011 1.00081 0.993488
1.0001 1.00142 0.99306
1.00013 1.00202 0.992325
1.00021 0.999935 0.994242
1.00013 1.00071 0.993577
1.00012 1.00231 0.992061
1.0001 1.00135 0.993076
1.0001 1.0019 0.992509
1.00014 1.00224 0.99209
1.00005 1.00173 0.992797
1.00013 1.00123 0.993162
1.00017 1.00066 0.993531
1.00022 0.999948 0.994117
1.00017 1.00057 0.993783
1.00021 0.99994 0.994143
1.00018 0.998881 0.995325
1.00018 0.998864 0.995336
1.00011 0.997099 0.997191
1.00018 0.998829 0.995363
1.0001 0.997083 0.997423
1.00002 0.996021 0.999387
1.00008 0.997096 0.997659
1.00003 0.996034 0.998571
1 0.996055 0.998581
1.00018 0.998715 0.995493
1.00018 0.998827 0.995385
1.00007 0.997129 0.997247
1.00003 0.997277 0.997377
0.999939 0.996195 0.99938
0.999997 0.997465 0.997067
0.999885 0.996367 0.999351
0.999824 0.996564 0.999319
1.00414 0.998056 0.98844
1.00444 0.998175 0.98785
1.00447 0.998863 0.987094
1.0045 0.998449 0.987468
1.00438 0.998126 0.988019
1.00436 0.997922 0.988125
1.00448 0.997774 0.988142
1.00286 0.999656 0.989043
1.00489 0.996828 0.98822
1.00016 0.999768 0.994506
1.00451 0.998446 0.987511
1.0047 0.998031 0.987536
1.0042 0.997365 0.988773
1.00012 1.00263 0.991674
1.0006 1.00439 0.989142
1.00162 1.00324 0.988019
1.00342 0.998015 0.989878
1.00057 1.00194 0.991602
1.00007 1.0022 0.99215
1.00005 1.00326 0.99108
1.00016 0.998981 0.995254
1.00016 1.00204 0.99225
1.00018 1.00023 0.994146
1.00017 1.00118 0.993085
1.00015 0.99994 0.994222
1.00457 0.997512 0.988234
1.00016 0.999826 0.994395
1.00017 1.00011 0.994141
1.00011 1.0008 0.993587
1.00483 0.997722 0.987539
1.00463 0.996328 0.98925
1.00031 1.00261 0.991358
1.0008 1.00489 0.988049
1.0027 1.00065 0.988582
1.00015 1.00111 0.993183
1.00011 1.00191 0.992508
1.00014 1.00244 0.991766
0.999948 1.00386 0.990913
1.00003 1.00276 0.991741
1.00462 0.997217 0.988394
1.00494 0.997276 0.987852
1.00429 0.997781 0.988423
1.00153 1.00351 0.988278
1.00023 1.00361 0.990574
1.0001 1.00067 0.99361
1.00011 1.00099 0.993332
1.00011 1.00142 0.993058
1.00007 1.00179 0.992679
1.00007 1.0024 0.992132
0.999906 1.00335 0.991378
0.999825 1.00422 0.990628
1.00012 1.00197 0.992373
1.00006 1.00308 0.991341
1.0043 0.99793 0.988301
1.00436 0.996254 0.989292
1.00334 0.999746 0.988872
1.00025 1.00397 0.98996
1.00097 1.00452 0.988384
1.00008 1.00269 0.991786
1.00481 0.996638 0.988822
1.00025 1.00336 0.990863
1.00038 1.00458 0.989413
1.00454 0.996223 0.98931
1.00164 1.00328 0.988067
1.00184 1.00017 0.990231
1.00019 1.00294 0.991336
1.00508 0.994877 0.990331
1.00018 1.00367 0.990754
1.00028 1.00491 0.989059
1.0024 1.00038 0.98855
0.999845 0.995273 0.968466
0.997421 1.0015 0.982096
1.00146 1.0001 0.992059
0.997077 0.997434 0.966147
0.995728 0.996409 0.967829
1.00011 1.00224 0.992146
1.00015 1.0025 0.991833
1.00024 1.00236 0.991829
1.00021 0.999928 0.994241
1.00013 1.00071 0.993529
1.00011 1.00134 0.99307
1.00009 1.00192 0.992567
1.00012 1.0023 0.992046
1.00013 1.00123 0.99311
1.00021 0.999952 0.994166
1.00017 1.00065 0.993577
1.00012 1.00225 0.992108
1.00006 1.0017 0.992785
1.00007 1.00159 0.992857
1.0001 1.00196 0.992489
1.00018 1.00112 0.993052
1.00021 1.00061 0.993516
1.00021 0.999952 0.994108
1.0002 1.00056 0.993668
1.00016 1.00101 0.993341
1.00013 1.00063 0.993691
1.00016 1.00057 0.993717
1.0002 0.999929 0.994253
1.00021 0.999946 0.994138
1.00018 0.998888 0.995319
1.00018 0.998879 0.995325
1.00011 0.997134 0.997181
1.00018 0.998864 0.995336
1.00011 0.9971 0.997191
1.00002 0.996022 0.999382
1.00011 0.997106 0.99721
1.00003 0.996022 0.998968
1.00004 0.996003 0.998573
1.00018 0.99863 0.99557
1.00018 0.99871 0.995492
1.00009 0.99702 0.997313
1.00018 0.998825 0.995383
1.00006 0.997124 0.997452
0.999977 0.99608 0.999397
1.00004 0.997296 0.997156
0.999932 0.996239 0.999372
0.999879 0.996396 0.999343
1.00434 0.998101 0.988051
1.00451 0.998443 0.987448
1.00445 0.997994 0.988136
1.00268 0.998719 0.989218
1.00452 0.997747 0.988169
1.00484 0.997063 0.988249
1.00498 0.997361 0.987593
0.998826 0.99865 0.981373
1.00398 0.996885 0.98926
1.00016 0.999744 0.994534
1.00016 0.999763 0.994505
1.00009 1.00059 0.993831
1.00007 1.00056 0.993889
1.00457 0.997563 0.98831
1.0049 0.997565 0.987557
1.00448 0.996616 0.989213
1.00036 1.00225 0.991423
1.00063 1.00502 0.98794
1.00269 1.00068 0.988603
1.00013 1.00261 0.99161
0.999951 1.00372 0.991011
1.00005 1.00276 0.991809
1.00017 1.00012 0.994137
1.00011 1.00191 0.992477
1.00014 1.0011 0.993256
1.00016 0.999815 0.99445
1.00011 1.00079 0.993484
1.00457 0.997241 0.988462
1.0001 1.00067 0.993714
1.00011 1.00096 0.993386
1.00011 1.00138 0.993019
1.00497 0.997009 0.987903
1.00421 0.997803 0.988414
1.0003 1.00337 0.990579
1.00153 1.00376 0.9881
1.00007 1.0018 0.992697
1.00004 1.00238 0.992146
0.999847 1.00422 0.990618
0.999938 1.00353 0.991243
1.00489 0.996791 0.988323
1.00504 0.997316 0.987452
1.00261 1.00225 0.987555
1.00018 1.00431 0.989989
1.0001 1.00153 0.992839
1.00005 1.00165 0.992828
1.00003 1.00245 0.992099
0.999972 1.0041 0.990541
0.999067 0.995331 0.965739
1.00007 1.00265 0.991862
1.00015 1.00334 0.990917
1.00479 0.996232 0.988763
1.00456 0.995889 0.989525
1.00164 1.00353 0.988041
1.00021 1.00459 0.989442
1.00177 1.00024 0.989517
1.00014 1.00297 0.991387
1.00506 0.994952 0.990223
1.00011 1.00368 0.990769
1.00026 1.00496 0.989082
1.00259 1.00022 0.988554
0.999691 0.995638 0.96693
0.997142 1.00129 0.97909
1.00139 1.00009 0.992325
0.996774 0.997792 0.965749
0.995639 0.996425 0.965553
1.00012 1.00287 0.991587
0.99795 0.994901 0.965732
0.996552 0.997565 0.968261
1.00393 0.996447 0.990685
0.999969 1.00381 0.990775
1.00018 1.00456 0.989837
1.00122 0.999796 0.993713
0.998019 0.998815 0.967153
0.996202 1.00217 0.977868
0.995781 0.999548 0.967208
0.998265 0.995317 0.972755
1.00012 1.00251 0.991875
1.00021 1.00239 0.991835
1.00024 1.00222 0.992051
1.00021 0.999955 0.994215
1.00017 1.00064 0.993622
1.00014 1.00124 0.993058
1.00008 1.00168 0.992772
1.0001 1.00225 0.992126
1.00022 0.999958 0.994107
1.00006 1.00155 0.992907
1.00018 1.00114 0.99311
1.00021 1.00059 0.993572
1.0001 1.00197 0.992435
1.00017 1.00152 0.992705
1.00013 1.00199 0.992419
1.00021 1.00096 0.993242
1.00022 1.00059 0.993599
1.0002 1.00056 0.993667
1.00016 1.001 0.993281
1.00021 1.00093 0.993277
1.00013 1.00111 0.993222
1.00021 1.00126 0.992989
1.00003 1.00187 0.992641
1.00013 1.00074 0.993586
1.00013 1.00063 0.993687
1.00018 0.999957 0.994264
1.00016 1.00057 0.993651
1.0002 0.999932 0.994215
1.00017 0.998904 0.995311
1.00021 0.999954 0.994133
1.00018 0.998885 0.99532
1.00008 0.99716 0.997605
1.00018 0.998878 0.995325
1.0001 0.997127 0.997393
1.00006 0.996039 0.99853
1.00011 0.997103 0.99719
1.00002 0.996024 0.999381
1.00006 0.996024 0.99855
1.00015 0.999771 0.994509
1.00018 0.998604 0.995602
1.00018 0.998628 0.99557
1.00011 0.996943 0.997365
1.00018 0.998704 0.995492
1.0001 0.997013 0.997315
1 0.995988 0.999413
1.00005 0.997137 0.997646
0.999986 0.996122 0.998974
0.999961 0.996268 0.998526
1.00239 0.997835 0.98939
1.00458 0.997731 0.988195
1.00479 0.997278 0.988278
0.998391 0.998376 0.983441
1.00391 0.99744 0.989431
1.00496 0.997059 0.987675
1.0048 0.997436 0.989263
0.999379 0.99714 0.984116
0.998702 0.996274 0.965198
0.997245 0.997308 0.96454
0.996202 0.995179 0.967196
1.00006 1.00056 0.993792
1.00016 0.999748 0.994533
1.00016 0.999761 0.994505
1.00008 1.00059 0.993801
1.00004 1.00118 0.993335
1.00007 1.00106 0.993411
1.00008 1.00068 0.993782
1.00007 1.00057 0.993841
1.00451 0.997259 0.98853
1.005 0.996644 0.987956
1.00413 0.997845 0.988404
1.00036 1.00322 0.990583
1.00152 1.0039 0.987921
0.999867 1.0042 0.990609
0.999971 1.0037 0.991108
1.00002 1.00235 0.99216
1.00011 1.00093 0.99344
1.00008 1.00181 0.992715
1.00011 1.00068 0.993817
1.00012 1.00134 0.99298
1.00485 0.996996 0.988177
1.00008 1.00152 0.99289
1.00006 1.00165 0.992807
1.00495 0.997249 0.987447
1.0022 1.00202 0.987854
1.00025 1.00433 0.989892
1.00006 1.00246 0.99202
0.999988 1.0041 0.990548
1.00467 0.999226 0.987613
1.00357 1.00038 0.987851
1.00004 1.00438 0.989466
0.999997 1.00401 0.990665
1.00004 1.00195 0.99247
1.0001 1.00231 0.992109
1.00011 1.00316 0.991318
0.998104 0.994774 0.964896
0.99959 0.995617 0.969387
1.00009 1.003 0.991439
1.00003 1.00364 0.990784
1.00503 0.99503 0.990113
1.00282 1.00018 0.988558
1.00024 1.00503 0.989105
0.999753 0.995541 0.964653
0.997388 1.00139 0.980615
1.00129 1.00007 0.992596
0.996703 0.997403 0.965953
0.995522 0.996537 0.963272
1.00012 1.0028 0.991585
0.99814 0.994889 0.965207
0.99634 0.997864 0.967525
1.00409 0.996723 0.990602
0.999881 1.00405 0.990803
1.00003 1.00452 0.989875
1.00128 0.999066 0.993861
0.997838 0.998919 0.965048
0.996235 1.00348 0.980719
0.995739 0.999741 0.96571
0.997798 0.995378 0.971982
1.00026 1.00251 0.991663
0.996463 0.998084 0.97168
1.00191 0.996491 0.978817
1.00148 0.999276 0.992503
0.999625 1.00419 0.991722
1.0004 1.00343 0.994412
0.997245 1.00262 0.984392
0.995616 1.00165 0.965116
0.99539 0.999703 0.966943
1.00219 0.996096 0.973632
1.00018 1.00241 0.991841
1.00023 1.00222 0.991988
0.999971 1.00218 0.992245
1.00022 0.999964 0.994106
1.00021 1.00058 0.993627
1.00019 1.00116 0.993167
1.00004 1.00152 0.992957
1.00011 1.00199 0.992381
1.00022 1.00059 0.9936
1.00014 1.00155 0.99276
1.00021 1.00096 0.993234
1.0001 1.00201 0.992436
1.00016 1.00184 0.99265
1.00023 1.00134 0.992816
1.00022 1.00095 0.993243
1.00021 1.00056 0.993667
1.00017 1.001 0.993221
1.0002 1.00092 0.993283
1.00013 1.00111 0.993219
1.00023 1.00122 0.992956
1.00009 1.00136 0.993029
1.00023 1.00117 0.993011
1.00023 1.0014 0.992724
1.00006 1.00249 0.991962
0.999852 1.0034 0.991382
0.999979 1.00235 0.992182
1.00002 1.0019 0.992635
1.00011 1.00102 0.993339
1.00012 1.00077 0.993577
1.00017 1.00001 0.994248
1.00013 1.00064 0.993684
1.00018 0.999958 0.994263
1.00016 0.998953 0.995297
1.0002 0.999934 0.994177
1.00017 0.998902 0.995313
1.00006 0.9972 0.997608
1.00018 0.998882 0.995321
1.00009 0.997155 0.997394
1.00004 0.996047 0.998532
1.00011 0.997119 0.997181
1.00002 0.996039 0.999379
1.00002 0.996026 0.99938
1.00016 0.999852 0.994586
1.00017 0.99865 0.995572
1.00015 0.999782 0.994509
1.00011 0.996921 0.997385
1.00018 0.998603 0.995602
1.00019 0.998624 0.995569
1.00011 0.996946 0.997363
1.00002 0.995929 0.999424
1.00008 0.997014 0.997712
1.00002 0.996003 0.999003
1.00001 0.996131 0.998566
0.998082 0.995312 0.965938
0.996759 0.996616 0.969966
0.998581 0.997635 0.984784
1.00385 0.998128 0.989599
1.00493 0.996799 0.987755
0.999405 0.996957 0.987202
1.0048 0.997688 0.989179
0.999478 0.99552 0.968202
0.996716 0.997377 0.96569
0.996035 0.995668 0.965083
1.00077 0.996647 0.990603
0.997905 0.998556 0.96821
0.99585 0.999722 0.966529
0.998162 0.996547 0.96991
1.00005 1.00133 0.993125
1.00007 1.00055 0.993835
1.00016 0.999745 0.994532
1.00008 1.00059 0.993771
1.00003 1.00114 0.993404
1.00005 1.00137 0.993154
1.00007 1.00104 0.993413
1.0001 1.00096 0.993423
1.00008 1.00069 0.993721
1.00007 1.00059 0.993793
1.00479 0.997191 0.988034
1.00482 0.997097 0.987439
1.00177 1.00177 0.988154
1.0003 1.00439 0.989796
1.00001 1.00407 0.990556
1.00009 1.00248 0.991941
1.00006 1.00165 0.992785
1.00006 1.00152 0.99294
1.00477 0.998453 0.987491
1.00005 1.00199 0.992435
1.00012 1.00231 0.992009
1.0032 1.00081 0.987332
0.999896 1.00432 0.99006
1.00009 1.0039 0.99057
1.00016 1.00301 0.991341
1.00258 1.00373 0.987333
1.00069 1.00265 0.991225
1.00005 1.00362 0.990869
1.00003 1.00215 0.992347
1.00016 1.00239 0.991839
1.0003 1.00284 0.991247
0.997708 0.997217 0.972683
0.998017 0.995129 0.96496
0.999339 0.995353 0.965491
1.00014 1.00274 0.991583
0.999809 1.00423 0.990831
1.00428 0.99686 0.990518
0.999867 1.00443 0.98991
0.998506 0.994789 0.964917
0.997598 0.998834 0.968129
0.996441 1.00329 0.9778
1.00133 0.998718 0.99402
0.995759 0.999886 0.966519
0.996113 0.998073 0.967578
0.998024 0.995277 0.971206
1.00019 1.00261 0.991662
0.996627 0.997983 0.97157
1.00179 0.996764 0.978951
1.00155 0.999212 0.992708
0.999391 1.00401 0.991736
1.00104 1.00232 0.993767
0.997292 1.00278 0.980419
0.995732 1.00294 0.966592
0.995919 0.999248 0.968606
1.00043 0.99639 0.974075
0.9996 1.00268 0.993057
1.00361 0.997968 0.97978
1.00804 0.997645 0.977354
0.998513 1.00384 0.993748
0.997987 1.00276 0.989951
0.99547 1.0025 0.965969
0.996497 0.9999 0.969728
1.00139 0.998918 0.971113
1.00021 1.00221 0.991925
1.00008 1.00213 0.992344
0.999978 1.00132 0.993089
1.00022 1.00058 0.9936
1.00021 1.00095 0.993227
1.00012 1.00157 0.992814
1.00006 1.00203 0.992453
1.00022 1.00095 0.993244
1.00022 1.00136 0.992815
1.00011 1.00172 0.992701
1.00002 1.00146 0.993294
1.00031 1.00125 0.992764
1.00023 1.00113 0.993002
1.0002 1.00093 0.993289
1.00012 1.00112 0.993216
1.00025 1.00117 0.992923
1.00023 1.00117 0.993006
1.00008 1.0014 0.993021
1.00024 1.00136 0.992748
1.00015 1.0018 0.992468
1.00032 1.0013 0.992677
1.00003 1.00265 0.991867
1.00007 1.00248 0.992003
0.999814 1.00334 0.991502
1.00011 1.00364 0.99077
1.00003 1.00266 0.991955
0.99982 1.00329 0.991573
0.999988 1.00234 0.992272
1.0001 1.00145 0.992846
1.00002 1.00193 0.992629
1.00011 1.00104 0.99333
1.00016 1.00013 0.994137
1.00012 1.00079 0.993569
1.00016 1.00001 0.994243
1.00013 0.999033 0.995272
1.00019 0.999957 0.994262
1.00016 0.998948 0.995298
1.00002 0.997267 0.997606
1.00017 0.998898 0.995314
1.00006 0.997199 0.997397
1 0.996107 0.998536
1.0001 0.997144 0.997182
1.00002 0.996059 0.998955
1.00002 0.996044 0.999379
1.00015 1.00003 0.994296
1.00016 0.998739 0.995502
1.00015 0.99986 0.994466
1.0001 0.99696 0.997363
1.00017 0.998646 0.995572
1.00015 0.999794 0.994508
1.00002 0.995915 0.999426
1.00011 0.996918 0.997385
1.00018 0.998601 0.995602
1.00011 0.99695 0.997361
1.00002 0.995937 0.999421
1 0.995999 0.999409
0.997102 0.997442 0.973059
0.997786 0.995097 0.965221
1.00203 0.997432 0.977421
0.996817 0.996617 0.96905
0.999672 0.996976 0.983022
1.00481 0.997934 0.989046
0.998923 0.995489 0.971209
0.997113 0.998243 0.965022
0.995847 0.996137 0.962969
1.00034 0.997394 0.988624
0.998567 0.997628 0.964724
0.995895 0.999544 0.964851
0.99802 0.996981 0.969232
0.998722 0.998032 0.987863
0.996742 1.00065 0.964861
0.995368 0.999863 0.967171
1.00156 0.997715 0.971337
1.00007 1.00183 0.992661
1.00005 1.00132 0.993188
1.00008 1.00055 0.993878
1.00001 1.0011 0.993473
1.00009 1.00166 0.992716
1.00005 1.00133 0.993211
1.00007 1.00102 0.993415
1.00014 1.00105 0.993334
1.0001 1.00095 0.993489
1.00009 1.00069 0.993661
1.00486 0.997809 0.987371
1.00286 1.00124 0.986817
0.999778 1.00424 0.990653
1.0002 1.00377 0.990475
1.0002 1.00289 0.991365
1.00013 1.00232 0.991909
1.00005 1.00203 0.992401
1.00005 1.00215 0.992346
1.00282 1.0027 0.987612
1.00014 1.00245 0.991894
1.00031 1.00281 0.991287
1.00071 1.00256 0.99071
1.0002 1.00341 0.990896
1.0008 1.00266 0.989903
1.00029 1.00244 0.992144
1.00029 1.0027 0.991154
1.00018 1.00225 0.991981
1.00033 1.00279 0.991153
1.00529 0.997818 0.979344
0.997664 0.997677 0.972945
0.997983 0.995439 0.965694
1.00012 1.00275 0.99166
0.999156 1.00392 0.991751
1.00155 0.999187 0.992906
0.996575 0.997924 0.97275
0.995979 1.0017 0.964519
0.997238 1.00274 0.982719
1.00173 1.00073 0.99311
0.995438 0.999698 0.966956
1.0015 0.997049 0.979085
1.00003 0.996474 0.974243
0.999558 1.00247 0.993111
1.00334 0.997666 0.981273
1.00762 0.997954 0.97774
0.99854 1.00349 0.994025
0.997932 1.00197 0.989227
0.99566 1.00264 0.964045
1.00262 0.998239 0.971587
0.995706 0.999505 0.968931
0.998759 1.00233 0.99467
1.01477 0.99649 0.974173
1.01043 0.998347 0.974784
1.00192 0.997544 0.971212
0.995728 1.00354 0.995919
0.995381 0.999771 0.969763
0.994578 0.999997 0.970867
1.0002 1.00206 0.992442
1.00014 1.00149 0.992737
1.00001 1.00008 0.994589
1.00021 1.00095 0.993244
1.0002 1.00139 0.992814
1.0001 1.00155 0.992752
1.00024 1.00114 0.993007
1.00031 1.00119 0.992754
1.00012 1.00132 0.993121
0.999725 1.0008 0.99419
1.0004 1.00109 0.992722
1.00023 1.00118 0.993001
1.00007 1.00144 0.993014
1.00026 1.00131 0.992772
1.00031 1.0013 0.992672
1.00017 1.00174 0.992519
1 1.00214 0.992412
0.999982 1.00266 0.991923
0.999858 1.00394 0.990934
1.00009 1.00247 0.992044
0.999918 1.00334 0.991461
1.00004 1.00398 0.99028
1.00012 1.0036 0.990727
1.00004 1.00291 0.991632
1.00007 1.00364 0.990787
1.00011 1.00185 0.992525
1.00004 1.00268 0.991888
0.999787 1.00317 0.991765
0.999997 1.00234 0.992362
1.0001 1.00142 0.992933
1.00014 1.00042 0.993881
1.00011 1.00106 0.99332
1.00015 1.00015 0.994129
1.00009 0.999146 0.995222
1.00016 1.00002 0.994239
1.00013 0.999023 0.995273
0.999969 0.997374 0.997586
1.00016 0.998942 0.9953
1.00002 0.997274 0.997392
0.999959 0.996192 0.998535
1.00007 0.997191 0.997185
0.99999 0.996115 0.998957
0.999997 0.996081 0.999379
1.00017 1.00023 0.993922
1.00014 0.99891 0.995221
1.00015 1.00004 0.994292
1.00009 0.997053 0.997304
1.00016 0.998749 0.995419
1.00014 0.999871 0.994346
1.00001 0.995948 0.999418
1.0001 0.996951 0.997365
1.00018 0.998643 0.995573
1.00002 0.995914 0.999426
1.00011 0.996918 0.997385
1.00002 0.995945 0.999418
1.00565 0.997653 0.977763
0.997259 0.997074 0.972123
0.997895 0.994906 0.965242
1.0002 1.00107 0.993129
1.00777 0.996822 0.978986
1.00186 0.997403 0.977553
0.996831 0.996649 0.968813
1.00027 0.998135 0.986442
0.998396 0.998321 0.968191
0.99584 0.999646 0.965603
0.998526 0.996157 0.968497
0.998136 0.998812 0.983013
0.996055 1.00116 0.967376
0.996208 1.00022 0.967029
1.00102 0.997457 0.971469
0.99722 1.00195 0.979508
0.995517 1.00141 0.963386
0.995569 0.99964 0.9678
1.00117 0.998796 0.9714
1.00015 1.00201 0.992265
1.00007 1.00185 0.992623
1.00005 1.00131 0.993252
1.00014 1.00163 0.992681
1.00009 1.00164 0.992804
1.00006 1.00128 0.993267
1.00014 1.00105 0.993353
1.00011 1.00094 0.993555
1.00302 1.0017 0.987891
1.00072 1.00255 0.990194
1.00006 1.00214 0.992345
1.00033 1.00326 0.990922
1.00032 1.00276 0.991328
1.00012 1.00249 0.991949
1.00017 1.00229 0.991992
1.00134 1.00304 0.990113
1.0003 1.00275 0.991277
1.00035 1.00288 0.991097
1.00033 1.00181 0.99193
1.00025 1.00208 0.992111
0.99979 0.999512 0.995027
0.999419 1.00319 0.99272
1.00034 1.0023 0.991457
1.00028 1.00235 0.991771
1.01722 0.995861 0.972018
1.00608 0.99785 0.978354
0.997618 0.998112 0.973214
0.999495 1.00225 0.993168
0.998597 1.00305 0.994291
1.0031 0.997343 0.982761
0.995568 1.0012 0.966584
0.997949 1.00265 0.984159
0.99554 0.999745 0.967863
1.0073 0.998235 0.978125
1.00388 0.997618 0.972061
0.998832 1.00263 0.994264
1.01471 0.996534 0.974476
1.01127 0.99877 0.974449
0.995928 1.00434 0.998236
1.00131 0.99693 0.971517
0.995008 0.999808 0.968047
0.995561 0.999788 0.968124
0.997965 1.00143 0.997685
1.02176 0.994663 0.967191
1.00764 0.996505 0.979427
0.998149 0.995783 0.970777
0.995588 0.999195 0.96807
0.995432 1.00033 0.999816
0.995051 1.00024 0.965315
1.00028 1.00173 0.992386
1.00003 1.00021 0.994437
0.998756 0.999676 0.997078
1.00025 1.00115 0.993012
1.0003 1.00117 0.992745
1.00018 1.00129 0.992947
1.00037 1.00117 0.992702
0.999859 1.00054 0.994173
0.999702 1.00192 0.993043
1.0003 1.0013 0.992667
1.00019 1.00168 0.99257
1.0001 1.00213 0.992349
0.999614 1.00384 0.991443
0.999943 1.00268 0.99198
0.999766 1.00382 0.991101
0.999992 1.00475 0.989857
1.00055 1.00382 0.989721
1.00002 1.00333 0.99142
1.00013 1.00412 0.990083
1.00027 1.00317 0.991108
0.999936 1.00323 0.991356
1.00012 1.00349 0.990842
1.0001 1.00214 0.992273
1.00007 1.00289 0.991621
1.00002 1.00365 0.990804
1.00015 1.00079 0.993521
1.00011 1.00183 0.992503
1.00005 1.0027 0.991821
1.0001 1.0014 0.99302
1.00014 1.00043 0.993873
1.00005 0.999358 0.995097
1.00014 1.00017 0.994121
1.0001 0.999143 0.99522
0.999928 0.997522 0.997124
1.00014 0.999015 0.995273
0.999985 0.997382 0.997159
0.999869 0.996303 0.999376
1.00004 0.997269 0.99718
0.999948 0.996196 0.998957
0.999965 0.99614 0.999379
1.0002 1.00031 0.993772
1.00013 0.999128 0.995011
1.00017 1.00023 0.993988
1.00006 0.997199 0.997211
1.00014 0.998927 0.995197
1.00016 1.00005 0.994288
0.999993 0.996023 0.999403
1.00009 0.997043 0.997308
1.00015 0.998759 0.995337
1.00002 0.995939 0.999421
1.00011 0.996944 0.997367
1.00002 0.995914 0.999426
1.01657 0.995586 0.972259
1.00536 0.997814 0.978105
0.99722 0.996775 0.972349
1.00019 1.00108 0.99315
1.00024 1.00111 0.99298
1.00015 1.00162 0.992736
1.01046 0.998583 0.974334
1.00722 0.997445 0.9794
1.00167 0.997267 0.977686
0.997642 0.999453 0.986153
0.996553 1.00064 0.9648
0.995485 1.00011 0.965814
1.00143 0.996623 0.971612
0.996569 1.00137 0.983336
0.995639 1.0016 0.965293
0.995052 0.99992 0.970321
1.00235 0.998483 0.971815
0.996733 1.00143 0.98285
0.9951 1.00084 0.967883
0.994623 1.00005 0.971107
1.00184 0.996454 0.973508
1.00022 1.00197 0.992208
1.00015 1.00203 0.992255
1.00007 1.00189 0.992585
1.00014 1.00163 0.992675
1.00008 1.00162 0.992892
1.00015 1.00105 0.993371
1.0019 1.00312 0.990323
1.00031 1.00134 0.991721
1.00016 1.00235 0.992004
1.00041 1.00295 0.99104
1.00027 1.00277 0.991402
1.00027 1.00202 0.992067
1.00027 1.00233 0.99179
0.999961 1.00052 0.994964
1.00034 1.00233 0.991588
0.998984 1.00292 0.993932
1.00023 1.00185 0.992285
0.997712 0.999709 0.998615
0.998502 1.00073 0.997194
1.0002 1.00216 0.991931
1.02531 0.993861 0.963366
1.01896 0.99547 0.970015
1.00689 0.997913 0.977365
0.99892 1.00288 0.993857
0.996241 1.00191 0.998198
1.01466 0.996562 0.974779
0.995111 1.00096 0.975914
0.996369 0.999911 0.970094
1.01213 0.999094 0.974114
1.00184 0.996369 0.971631
0.998048 1.00136 0.997523
1.02283 0.994461 0.965862
1.00706 0.997314 0.97978
0.995204 1.00126 0.993091
0.998047 0.996064 0.970078
0.995099 0.999908 0.97004
0.99502 1.00016 0.969433
0.996868 1.00214 1.00109
1.01638 0.995729 0.97246
1.002 0.9973 0.977608
0.996135 0.994868 0.967716
0.995253 0.998951 0.968332
0.994967 1.00006 0.968793
0.995284 1.0001 0.990167
1.00004 1.00036 0.994286
0.998895 0.999374 0.997041
0.998634 1.0016 0.9957
1.00034 1.00122 0.992681
1 1.00025 0.994156
0.999577 1.0021 0.993157
0.999574 1.00282 0.992538
1.00019 1.00212 0.992287
0.99984 1.00377 0.991267
0.999972 1.00478 0.989846
0.999672 1.00368 0.991268
1.00004 1.00472 0.989833
1.0007 1.00482 0.98873
1.00099 1.00417 0.988648
1.00034 1.00309 0.990677
1.00054 1.00393 0.989607
1.00022 1.00425 0.989886
1.00023 1.00282 0.991451
1.00019 1.00304 0.991245
1.00001 1.00265 0.991834
0.999975 1.00318 0.991428
1.00013 1.00338 0.990957
1.00015 1.00117 0.993123
1.00011 1.00212 0.992281
1.0001 1.00287 0.99161
1.00002 0.999658 0.994859
1.00014 1.00078 0.99352
1.00012 1.00181 0.992482
1.00014 1.00044 0.993865
1.00005 0.999359 0.995092
0.99986 0.997724 0.997048
1.0001 0.999138 0.995217
0.999932 0.997527 0.997122
0.999823 0.996449 0.999365
0.99999 0.997381 0.99716
0.99989 0.996318 0.998948
0.999922 0.996225 0.999376
1.00022 1.00041 0.993735
1.00013 0.999279 0.994999
1.0002 1.00032 0.99382
1.00002 0.997389 0.997093
1.00013 0.999142 0.995072
1.00018 1.00024 0.994053
0.999961 0.996142 0.999379
1.00006 0.997188 0.997216
1.00014 0.998946 0.995173
0.999996 0.996009 0.999408
1.00009 0.997033 0.997311
1.00002 0.995929 0.999424
1.02202 0.994815 0.966427
1.01624 0.995874 0.972557
1.00507 0.998002 0.97845
1.00024 1.00121 0.992869
1.0002 1.00175 0.99251
1.00019 1.0011 0.99317
1.00023 1.00113 0.992966
1.00016 1.00161 0.992678
1.00018 1.00162 0.992636
1.00015 1.0019 0.992391
1.00804 0.998027 0.976856
1.01136 0.999083 0.973891
1.00665 0.998108 0.979814
1.00355 0.997908 0.97223
0.995735 1.00109 0.980137
0.99559 1.0022 0.967268
0.994866 1.00036 0.968149
0.996122 1.00039 0.981054
0.995169 1.00015 0.965392
0.995547 0.999805 0.968624
1.00029 0.996988 0.973751
0.995828 0.998103 0.988612
0.99492 1.0002 0.965486
0.996715 1.00032 0.969502
0.998434 0.995645 0.971916
1.00026 1.00189 0.99228
1.00022 1.00194 0.992201
1.00013 1.00205 0.992246
1.00014 1.00164 0.992669
1.00018 1.00214 0.994893
0.998599 1.00265 0.995142
1.00029 1.00195 0.992022
1.00026 1.0023 0.991809
1.00034 1.00242 0.99172
1.00024 1.00187 0.992242
1.00018 1.00219 0.991871
0.997132 1.00093 0.99839
0.998609 1.00057 0.997497
1.00009 1.00209 0.992261
0.995869 0.99792 1.00201
0.999117 1.00275 0.994668
1.01739 0.996233 0.971506
1.02712 0.993252 0.961263
1.0207 0.995011 0.968012
0.998178 1.00126 0.997379
0.995399 1.00032 0.999894
1.02392 0.994292 0.964533
0.99498 1.00025 0.965657
0.994704 1.00001 0.968369
1.00648 0.998114 0.980133
0.998681 0.995895 0.969175
0.996977 1.00177 1.00114
1.01605 0.996018 0.972756
1.0018 0.997308 0.97774
0.995298 1.00009 0.995477
0.995943 0.995431 0.965517
0.995858 0.999516 0.968189
0.995092 1.00011 0.967774
0.996771 1.00312 0.998914
1.00555 0.998074 0.977606
0.996725 0.996662 0.970257
0.995929 0.999393 0.966809
0.995624 1.00021 0.968517
0.995235 1.00013 0.985414
0.999126 0.998983 0.997002
0.998565 1.00189 0.995667
1.00042 0.999264 0.995637
0.999434 1.00228 0.993272
0.999311 1.00287 0.992686
1.00024 1.00364 0.990553
1.00007 1.00368 0.99109
1.00008 1.00479 0.98972
1.00078 1.00463 0.988364
1.00009 1.0047 0.98981
1.00075 1.00482 0.988571
1.00118 1.0045 0.987805
1.00156 1.00345 0.98816
1.00098 1.0034 0.989597
1.00102 1.00426 0.98846
1.0003 1.00259 0.991216
1.00035 1.00308 0.99075
1.00053 1.00403 0.989494
1.0002 1.00267 0.991577
1.0002 1.00286 0.991432
1.00012 1.00291 0.991383
1.00014 1.0016 0.992673
1.00004 1.00258 0.991904
1.00002 1.00314 0.991501
1.00001 1 0.994515
1.00015 1.00115 0.993126
1.00012 1.0021 0.992289
0.999807 0.997961 0.996932
1.00001 0.999664 0.994853
1.00014 1.00077 0.993519
1.00005 0.999359 0.995086
0.999866 0.997734 0.997042
0.99975 0.996627 0.999349
0.999936 0.997532 0.99712
0.999813 0.996472 0.99936
0.999868 0.996342 0.999369
1.00024 1.00131 0.992829
1.00024 1.00051 0.993589
1.00012 0.999415 0.994883
1.00022 1.0004 0.993735
0.999981 0.997576 0.996983
1.00013 0.99929 0.995
1.00019 1.00033 0.993868
0.99992 0.996298 0.99935
1.00002 0.997377 0.9971
1.00014 0.999153 0.995132
0.999965 0.996123 0.999386
1.00006 0.997177 0.997222
0.999999 0.995993 0.999413
1.015 0.996785 0.973495
1.02306 0.994738 0.965153
1.01592 0.99614 0.972855
1.00023 1.00122 0.992895
1.0002 1.00175 0.992467
1.00017 1.00202 0.992205
1.00018 1.00169 0.992497
1.00016 1.00209 0.992236
1.00022 1.00115 0.992951
1.00018 1.0016 0.992619
1.00017 1.00163 0.99264
1.00019 1.00188 0.992357
1.00012 1.00199 0.992411
1.00232 0.996927 0.977801
1.00767 0.998322 0.977269
1.0123 0.999684 0.973448
0.999706 0.996846 0.974069
0.99632 0.999986 0.970526
0.995572 0.999907 0.979378
0.995091 1.00008 0.967778
0.995685 0.997013 0.983447
0.994961 1.00017 0.968178
0.995567 0.999734 0.96898
0.997925 0.99614 0.971018
0.994952 0.995372 0.9882
0.995071 0.999945 0.968828
0.995648 1.00006 0.966647
0.995924 0.996119 0.967063
0.999941 1.00165 0.99301
1.00021 1.00197 0.992259
1.00022 1.00192 0.992193
0.996518 1.00172 0.998168
0.998683 1.00028 0.997819
1.00026 1.00188 0.992199
1.00018 1.00226 0.991812
1.00007 1.00204 0.992325
0.998951 1.00273 0.994391
0.996023 0.99742 1.00206
0.998815 1.00314 0.993559
0.997375 1.00177 0.997129
1.00499 0.998682 0.978749
1.01907 0.995721 0.969591
1.02888 0.992775 0.95916
0.996895 1.00148 1.00116
0.995337 1.00003 0.988143
1.01573 0.99629 0.973052
0.995245 1.00007 0.964065
0.995466 0.999023 0.967507
1.0016 0.997227 0.977873
0.995745 0.996012 0.963319
0.996851 1.00318 0.999121
1.00526 0.998194 0.977955
0.996799 0.996517 0.969329
0.995161 1.00009 0.987886
0.99583 0.99929 0.965375
0.995726 0.999657 0.965504
0.998453 1.00093 0.996784
0.996973 0.997662 0.973305
0.997015 0.997405 0.964786
0.996765 1.00004 0.965556
0.995345 1.00038 0.987002
0.99853 1.00217 0.995633
1.00021 0.999007 0.995626
1.00203 0.998348 0.992521
0.99906 1.00292 0.992835
0.999996 1.00358 0.990784
1.00121 1.00306 0.989088
1.00019 1.0048 0.989594
1.00081 1.00463 0.988356
1.00182 1.00341 0.987756
1.0008 1.00481 0.988411
1.00118 1.00446 0.987835
1.00206 1.00258 0.988047
1.00217 1.00172 0.988654
1.00128 1.00306 0.988992
1.00157 1.00333 0.988195
1.00074 1.00284 0.990458
1.00091 1.00349 0.989431
1.00105 1.00437 0.988272
1.00033 1.00234 0.991602
1.0003 1.00256 0.991315
1.00037 1.00307 0.990823
1.00018 1.00196 0.992275
1.00019 1.00266 0.99161
1.00018 1.0029 0.991413
1.00001 1.00046 0.994065
1.00015 1.00161 0.992675
1.00006 1.00251 0.991974
0.999737 0.998241 0.997219
1 1.00001 0.994507
1.00015 1.00114 0.99313
0.99969 0.996878 0.99838
0.999802 0.997993 0.997134
1.00001 0.999669 0.994847
0.999872 0.997743 0.997037
0.99974 0.996663 0.99934
0.999803 0.996496 0.999356
1.0002 1.0016 0.992561
1.00026 1.00067 0.993409
1.00024 1.00134 0.992791
1.0001 0.999552 0.994792
1.00024 1.00052 0.993589
0.999935 0.997745 0.996899
1.00012 0.999426 0.994884
1.00023 1.00041 0.993735
0.99987 0.996462 0.999325
0.999977 0.997567 0.996987
1.00013 0.999304 0.995
0.999924 0.996272 0.999359
1.00002 0.997365 0.997106
0.999969 0.9961 0.999394
1.00411 0.99812 0.98069
1.01495 0.996811 0.973778
1.0241 0.994722 0.963878
1.00012 1.00225 0.992138
1.00023 1.00124 0.992921
1.00021 1.00175 0.992424
1.00018 1.00171 0.992539
1.00018 1.002 0.992249
1.00017 1.00206 0.992223
1.00015 1.00232 0.991994
1.0001 1.00213 0.992194
1.00015 1.00164 0.992644
1.00021 1.00185 0.992324
1.00012 1.00199 0.992396
1.00011 1.00233 0.992387
0.996787 0.997143 0.96803
1.00204 0.997281 0.977939
1.00733 0.998542 0.97768
0.997957 0.995884 0.97032
0.995748 0.999876 0.96815
0.994927 1.0002 0.965517
0.995475 0.995931 0.987155
0.994917 0.995157 0.992877
0.995885 0.996105 0.965079
0.994918 1.00014 0.965116
0.995734 0.99978 0.96771
0.995731 0.997666 0.990952
0.995625 0.999381 0.970006
0.995953 0.99979 0.965984
0.999383 1.00151 0.994119
1.00005 1.0016 0.993017
1.00016 1.00204 0.992238
0.996219 0.996803 1.00209
0.998933 1.00262 0.994114
1.00001 1.002 0.992388
0.999135 1.00309 0.993436
0.99701 1.00192 0.997229
0.998513 1.0013 0.995005
0.997431 0.997991 0.970545
1.00606 0.998415 0.978669
1.02076 0.995137 0.967676
0.996944 1.00327 0.999381
0.99493 1.00015 0.989631
1.00495 0.998431 0.978307
0.995761 0.998791 0.969482
0.995775 0.999476 0.965956
0.99682 0.996405 0.969128
0.998096 1.00081 0.996959
0.997133 0.997262 0.972282
0.996534 0.997521 0.966084
0.995285 1.00082 0.982719
0.996338 1.00024 0.967836
0.999535 1.0002 0.995415
0.998051 0.995276 0.96611
0.997639 0.99982 0.967241
0.996227 1.00074 0.98025
0.999969 0.998832 0.995617
1.00174 0.998289 0.993116
1.00275 0.997375 0.991399
0.999756 1.00352 0.991016
1.00125 1.0029 0.989101
1.0029 1.00024 0.98868
1.00083 1.00458 0.988347
1.00181 1.00321 0.987791
1.00303 1.00027 0.988546
1.00118 1.00443 0.987864
1.00207 1.00245 0.988084
1.00283 0.999911 0.989227
1.00258 0.999986 0.989675
1.00186 1.00192 0.989063
1.00217 1.00161 0.988777
1.00098 1.00261 0.989811
1.00131 1.00303 0.989084
1.00159 1.00321 0.988229
1.00048 1.00238 0.991276
1.00064 1.00286 0.990459
1.00083 1.00357 0.989266
1.00028 1.00197 0.992092
1.00036 1.00233 0.991594
1.0003 1.00253 0.991414
0.999984 1.00103 0.993568
1.00019 1.00194 0.992289
1.00017 1.00264 0.991642
0.999691 0.998554 0.996531
1 1.00047 0.994056
1.00016 1.00161 0.992677
0.999576 0.997135 0.99928
0.999746 0.998284 0.996714
1 1.00003 0.9945
0.999669 0.996875 0.999313
0.999809 0.998009 0.996893
0.99973 0.996699 0.999332
1.00015 1.00188 0.992469
1.00021 1.00159 0.992573
1.00022 1.00096 0.993179
1.00007 0.9997 0.994688
1.00025 1.00067 0.99341
1.00023 1.00136 0.992753
0.99989 0.997894 0.996836
1.0001 0.999549 0.994794
1.00024 1.00052 0.993589
0.999815 0.996622 0.999305
0.999931 0.997738 0.996902
1.00012 0.999432 0.994885
0.999876 0.996438 0.999332
0.999974 0.997558 0.996992
0.999929 0.996246 0.999368
0.997034 0.998028 0.971223
1.00392 0.998126 0.98103
1.01491 0.99682 0.974062
1.00011 1.00229 0.9921
1.0001 1.00245 0.992055
1.00012 1.00245 0.991934
1.00018 1.00172 0.992581
1.00018 1.00198 0.992292
1.00017 1.00202 0.99221
1.00012 1.00214 0.992187
1.00015 1.00232 0.991985
0.999994 1.00288 0.991779
1.00005 1.0021 0.992278
1.00011 1.00199 0.99238
1.00005 1.00222 0.992396
0.996968 0.997774 0.965454
0.996643 0.997483 0.967369
1.00172 0.997515 0.978079
0.995923 0.996112 0.963089
0.995131 1.00002 0.966447
0.995358 1.00015 0.970768
0.994995 0.995138 0.987884
0.995482 0.997733 0.986818
0.995935 0.998961 0.96495
0.99542 0.999796 0.968538
0.997319 0.996304 0.986183
0.996605 1.00058 0.965629
1.0004 1.00193 0.992552
0.999575 1.00132 0.994034
1.00014 1.00154 0.993025
0.996454 1.00215 0.997334
0.99942 1.00304 0.993311
0.9992 1.00154 0.994601
1.00167 0.999375 0.991842
0.998105 0.994758 0.964989
0.997338 0.99824 0.971863
1.00714 0.998092 0.978587
0.997839 1.00062 0.997129
0.995201 1.00048 0.985484
0.997095 0.996852 0.972533
0.996329 1.00031 0.965186
0.997052 0.998629 0.965324
0.99969 1.00012 0.995048
0.997864 0.995189 0.965183
0.998431 0.998427 0.964415
0.995908 1.00105 0.984095
1.00057 1.00143 0.992697
0.998748 0.997216 0.964454
0.998241 0.998875 0.985447
1.00142 0.998239 0.99371
1.0025 0.99805 0.991273
1.0041 0.996137 0.98969
1.0013 1.00273 0.989114
1.00294 1.00011 0.988609
1.00431 0.996846 0.989241
1.00181 1.00305 0.987827
1.00301 1.00008 0.988544
1.00394 0.99706 0.989908
1.00207 1.00231 0.98812
1.00283 0.999797 0.98924
1.00318 0.998081 0.990299
1.00285 0.999007 0.990276
1.00256 0.999865 0.989801
1.00229 1.00052 0.989664
1.00166 1.00182 0.989592
1.00188 1.00195 0.98908
1.00216 1.0015 0.988899
1.00079 1.00232 0.990556
1.00102 1.00261 0.98993
1.00133 1.003 0.989176
1.00037 1.00196 0.991889
1.00051 1.00239 0.991258
1.00056 1.00287 0.99046
0.999999 1.00134 0.993209
1.0003 1.00195 0.992098
1.00039 1.00233 0.991585
0.999633 0.998928 0.996242
0.999999 1.00097 0.99357
1.0002 1.00193 0.992303
0.999536 0.997356 0.999236
0.999688 0.998591 0.996514
1 1.00046 0.994048
0.999595 0.997152 0.998788
0.999752 0.998294 0.996711
0.999657 0.996942 0.999295
1.00014 1.00212 0.99224
1.00015 1.0019 0.992419
1.00016 1.00133 0.992935
1.00022 1.00158 0.992585
1.00022 1.00096 0.993177
1.00002 0.999977 0.994506
0.999842 0.998038 0.996785
1.00008 0.999694 0.994693
1.00024 1.00069 0.993412
0.999752 0.996778 0.999289
0.999885 0.99789 0.996839
1.0001 0.999549 0.994797
0.999821 0.996603 0.999311
0.999927 0.997733 0.996905
0.999881 0.996415 0.99934
0.997548 0.996017 0.965562
0.996864 0.998312 0.97035
1.00373 0.99814 0.981367
1.00011 1.00232 0.992061
1.0001 1.00253 0.991874
1.00005 1.00243 0.992098
1.00012 1.00248 0.991966
1.00002 1.00274 0.991856
1.00013 1.00215 0.992181
1.00014 1.00232 0.991976
0.999964 1.00279 0.991814
0.999831 1.00283 0.991713
1.00001 1.00262 0.991826
1.00109 1.00245 0.990498
0.999915 1.00245 0.992319
1.00003 1.00211 0.992405
0.998646 0.998672 0.963969
0.996675 0.998304 0.965235
0.996416 0.997832 0.967287
0.996236 0.999073 0.965538
0.995393 1.00042 0.965073
0.995255 0.997759 0.99171
0.997482 0.996498 0.988682
0.996703 0.998649 0.968999
1.00051 0.996915 0.98398
1.00269 1.00028 0.989335
0.999998 1.00179 0.992505
0.999728 1.00111 0.993947
0.999731 1.00174 0.994202
1.00233 0.999295 0.9913
0.998897 0.996077 0.965295
0.998035 0.995126 0.965266
0.997245 0.998578 0.973186
0.999931 1.00006 0.99467
0.995495 1.00145 0.980531
0.998017 0.994908 0.96503
0.997912 0.999153 0.967559
1.0011 1.00092 0.992694
0.999659 0.996059 0.967232
0.997774 0.999855 0.981876
1.00259 1.00273 0.98855
1.00058 0.996871 0.989515
1.00229 0.998763 0.991145
1.00382 0.997097 0.989525
1.00506 0.996291 0.988115
1.00293 0.999994 0.98854
1.0042 0.997101 0.98916
1.00491 0.995664 0.989282
1.00301 0.999884 0.988543
1.00386 0.99713 0.989836
1.00405 0.996468 0.990311
1.00283 0.999683 0.989253
1.00317 0.998144 0.990255
1.00329 0.99791 0.990326
1.00277 0.998858 0.990418
1.00271 0.999548 0.989999
1.00255 0.999756 0.989928
1.00229 1.00054 0.989635
1.00214 1.00081 0.989693
1.00132 1.00178 0.990102
1.00165 1.00186 0.989571
1.00189 1.00199 0.989097
1.00058 1.00198 0.991474
1.00078 1.00232 0.990638
1.00105 1.00261 0.990049
1.00001 1.00148 0.992991
1.00041 1.00196 0.991875
1.00053 1.0024 0.99124
0.999597 0.999322 0.995888
1.00002 1.00129 0.993218
1.00032 1.00192 0.992105
0.999488 0.997613 0.99918
0.999624 0.998983 0.996226
1.00001 1.00093 0.993572
0.999534 0.997395 0.999221
0.999685 0.998631 0.996497
0.999589 0.997188 0.999254
1.00017 1.0023 0.992003
1.00013 1.0021 0.992245
1.00014 1.00167 0.992589
1.00015 1.00191 0.99237
1.00016 1.00138 0.992876
0.999985 1.00039 0.994164
1.00022 1.00096 0.993176
1.00003 0.999957 0.994511
0.999774 0.998255 0.996699
0.99968 0.99694 0.999277
0.999836 0.998036 0.996789
1.00008 0.999684 0.994698
0.999761 0.996762 0.999294
0.99988 0.997885 0.996842
0.999828 0.996584 0.999316
0.999656 0.997081 0.966964
0.997469 0.995851 0.965925
0.996516 0.998591 0.970538
1.00008 1.00261 0.991814
1.00001 1.00241 0.992141
1.00003 1.00274 0.991881
1.0001 1.00248 0.991963
1.00014 1.00279 0.991633
0.999926 1.00267 0.991928
0.999939 1.00269 0.991848
0.999935 1.00299 0.991557
0.999914 1.00287 0.99176
1.00021 1.00238 0.991352
1.00137 1.00223 0.990724
1.00267 1.00112 0.988459
1.00088 1.00232 0.990662
0.999773 1.00279 0.99236
1.00049 0.997034 0.982747
0.998151 0.999004 0.965557
0.996758 0.997963 0.96492
0.997132 1.00021 0.965576
0.997639 0.996534 0.991091
1.00054 0.996889 0.988017
1.00406 0.996797 0.990417
1.00274 0.999827 0.989802
0.999838 1.00168 0.992454
1.00341 0.999387 0.990745
0.998956 0.999097 0.983349
0.999492 0.996298 0.968771
0.997982 0.995415 0.966053
1.0015 1.00081 0.99269
0.997572 1.00079 0.9839
0.999189 0.995852 0.970196
1.00272 1.00206 0.988816
1.00012 0.998068 0.987588
1.00437 1.00022 0.987386
1.00463 0.997841 0.988819
1.0036 0.997986 0.98936
1.00493 0.996496 0.98811
1.00494 0.997334 0.987613
1.00412 0.997307 0.989077
1.00479 0.995992 0.989228
1.00473 0.997021 0.988464
1.00376 0.997235 0.989763
1.00392 0.996694 0.990257
1.00397 0.997582 0.989398
1.00315 0.998212 0.99021
1.00318 0.998001 0.990385
1.00308 0.998943 0.989673
1.0027 0.998713 0.990559
1.00267 0.999441 0.990063
1.00258 1.00009 0.989713
1.0023 1.00056 0.989607
1.00213 1.00084 0.98967
1.0019 1.00103 0.990002
1.00094 1.00167 0.990911
1.0013 1.00181 0.990184
1.00164 1.00189 0.989549
1.00009 1.00163 0.992699
1.0006 1.00198 0.991466
1.00077 1.00232 0.99072
0.999538 0.999828 0.995515
1.00003 1.00149 0.992994
1.00044 1.00195 0.991861
0.999459 0.997878 0.999097
0.999592 0.999381 0.99588
1.00004 1.00124 0.993227
0.999491 0.997652 0.999156
0.999618 0.999035 0.99621
0.999533 0.997433 0.999205
1.00022 1.00252 0.991716
1.00018 1.00228 0.992033
1.00015 1.00195 0.992354
1.00012 1.00209 0.99225
1.00014 1.00171 0.992554
0.999975 1.00083 0.993733
1.00016 1.00143 0.992817
0.999987 1.00039 0.994168
0.9997 0.998565 0.99653
1.00004 0.999939 0.994516
0.999773 0.998236 0.996708
0.999605 0.997147 0.999254
0.999693 0.996924 0.999281
0.999831 0.998033 0.996793
0.999768 0.996747 0.999299
0.999781 0.998256 0.982708
0.9994 0.996632 0.964647
0.997885 0.995949 0.96498
1.00055 1.00253 0.991079
1.00003 1.00274 0.991907
1.00008 1.00248 0.99196
0.999967 1.00274 0.99191
1.0001 1.00284 0.991607
1.00009 1.00213 0.992103
1.00004 1.00319 0.991401
0.999878 1.00315 0.991694
1.00035 1.00238 0.991477
1.00108 1.0022 0.990863
1.00228 1.00109 0.989104
1.00458 0.998478 0.986955
1.0026 1.00092 0.988434
1.00073 1.00209 0.990826
1.00397 0.996023 0.991629
1.0003 0.997658 0.981132
0.998148 0.998916 0.967636
1.00043 0.996735 0.984592
1.0041 0.996479 0.99079
1.00244 0.999247 0.990283
1.00308 0.999083 0.98994
0.998847 0.998438 0.986067
0.999126 0.996046 0.965317
1.00291 1.00089 0.989071
1.00015 0.999118 0.985416
1.00436 0.999455 0.987419
1.00461 0.997998 0.989223
1.00486 0.997329 0.987573
1.005 0.997736 0.987394
1.00475 0.996728 0.988107
1.00499 0.997094 0.987696
1.00458 0.998303 0.987404
1.00472 0.996278 0.989175
1.00471 0.997007 0.988466
1.00438 0.998391 0.9878
1.0038 0.996896 0.990203
1.00381 0.997642 0.989601
1.00366 0.998678 0.988766
1.00308 0.998086 0.990444
1.00307 0.998954 0.989675
1.00294 0.999621 0.989283
1.00264 0.999334 0.990128
1.00255 1.00002 0.98973
1.0023 1.00046 0.989738
1.00213 1.00087 0.989646
1.00186 1.00104 0.989953
1.00148 1.00118 0.990606
1.00038 1.00148 0.992315
1.00093 1.00167 0.990995
1.00127 1.00182 0.990267
0.99948 1.00036 0.995104
1.00011 1.00163 0.992699
1.00062 1.00197 0.991458
0.999379 0.998203 0.999001
0.999563 0.999812 0.995509
1.00006 1.00148 0.992998
0.999445 0.99792 0.999068
0.999586 0.999427 0.995871
0.999492 0.997688 0.99913
1.00042 1.00247 0.991221
1.00021 1.00249 0.991726
1.00024 1.00208 0.992119
1.00019 1.00227 0.992062
1.00014 1.00194 0.992374
0.999967 1.00123 0.993363
1.00013 1.00176 0.992518
0.999965 1.00087 0.99373
0.999618 0.998957 0.996285
0.999987 1.00039 0.994171
0.999703 0.998529 0.996546
0.999536 0.997388 0.999213
0.999774 0.998219 0.996717
0.999617 0.997114 0.999262
0.999703 0.99691 0.999285
1.00358 0.996795 0.991101
0.999792 0.998346 0.979459
0.999192 0.997309 0.96732
1.00062 1.00185 0.991378
1.00151 1.00173 0.990058
1.00037 1.00257 0.991169
1.00001 1.00278 0.991891
1.00006 1.00289 0.991579
1.00026 1.00209 0.991976
1.00222 1.00087 0.98952
1.00045 1.00239 0.991603
1.00067 1.00216 0.991
1.00225 1.00103 0.989218
1.00415 0.999052 0.987184
1.00506 0.996696 0.987655
1.00458 0.99857 0.987001
1.00261 1.00082 0.988409
1.00413 0.996017 0.991819
1.00022 0.998108 0.97879
1.00438 0.996306 0.991149
1.0042 0.996963 0.99014
1.00287 0.998668 0.990234
0.999218 0.997987 0.981859
1.00438 0.998808 0.987461
1.00462 0.998176 0.989578
1.00477 0.99727 0.987745
1.00506 0.997391 0.987488
1.00454 0.997858 0.98784
1.00469 0.996807 0.988528
1.00508 0.996783 0.987781
1.0047 0.998078 0.987414
1.0044 0.99852 0.987473
1.00467 0.997092 0.988468
1.00433 0.998277 0.98799
1.00409 0.99867 0.987948
1.00366 0.997707 0.989804
1.00369 0.998681 0.988742
1.00352 0.99922 0.988546
1.00306 0.998965 0.989677
1.00294 0.999618 0.98928
1.00269 1.00011 0.989289
1.00252 0.999949 0.989746
1.00227 1.00044 0.989746
1.00184 1.00075 0.990293
1.00182 1.00106 0.989905
1.00143 1.00117 0.990585
1.00076 1.00111 0.991952
0.99952 1.00061 0.994743
1.00039 1.00149 0.992313
1.00092 1.00168 0.991078
0.999231 0.998676 0.998895
0.999541 1.00029 0.995095
1.00014 1.00163 0.9927
0.99935 0.998288 0.998969
0.999586 0.999813 0.995505
0.999435 0.997975 0.999039
1.00087 1.00222 0.990392
1.00042 1.00245 0.99114
1.00049 1.00202 0.991706
1.0002 1.00245 0.991736
1.00022 1.00207 0.992126
0.999968 1.00154 0.993091
1.00013 1.00194 0.992395
0.999941 1.00129 0.993357
0.999555 0.999385 0.995972
0.999953 1.0009 0.993727
0.999628 0.998904 0.996301
0.999477 0.99765 0.999152
0.999706 0.998492 0.996562
0.999545 0.997348 0.999227
0.999629 0.997089 0.99927
1.00482 0.995967 0.988706
1.00361 0.996829 0.990729
1 0.997868 0.981289
1.00228 1.00082 0.989738
1.00044 1.00178 0.991819
1.00231 1.00072 0.988945
1.00153 1.00175 0.989996
1.00019 1.00262 0.99126
1.00395 0.999456 0.987558
1.00044 1.00205 0.991851
1.00229 1.0008 0.989405
1.00492 0.997776 0.987227
1.00223 1.00094 0.989331
1.00428 0.999056 0.987057
1.005 0.99685 0.987643
1.00441 0.99871 0.987045
1.00418 0.995901 0.992
1.00422 0.996884 0.989488
1.00402 0.996885 0.990272
1.00265 0.998239 0.990525
1.00466 0.99716 0.987918
1.00509 0.997146 0.98758
1.00449 0.997768 0.987866
1.0048 0.996973 0.988287
1.0045 0.997864 0.988085
1.00478 0.997904 0.987424
1.00441 0.998561 0.987473
1.00423 0.998588 0.987757
1.00428 0.998146 0.98818
1.00413 0.998647 0.987926
1.00396 0.998933 0.98799
1.00373 0.998683 0.988717
1.00354 0.999222 0.988529
1.00323 0.999684 0.988667
1.00295 0.999616 0.989278
1.0027 1.0001 0.989286
1.00226 1.00043 0.989794
1.00223 1.00041 0.989754
1.00184 1.00074 0.990298
1.00114 1.00076 0.991588
1.00138 1.00117 0.990565
1.00076 1.00112 0.991947
0.999582 1.00063 0.99531
0.999129 0.999383 0.997104
0.99958 1.00052 0.995133
1.00039 1.0015 0.992312
0.999203 0.998801 0.998857
0.999598 1.00022 0.995086
0.999326 0.998366 0.998936
1.00283 0.999747 0.989168
1.00148 1.00167 0.989785
1.00098 1.00221 0.990293
1.00079 1.00186 0.991245
1.00042 1.00243 0.991058
1.00045 1.00201 0.991724
1.00004 1.00166 0.992866
1.00019 1.00206 0.992134
0.999941 1.00156 0.993089
0.999527 0.999826 0.995597
0.999915 1.00136 0.993352
0.999559 0.999338 0.995982
0.999411 0.997944 0.999066
0.999637 0.998853 0.996316
0.999482 0.997609 0.999173
0.999554 0.997308 0.999241
1.00458 0.997288 0.988336
1.00477 0.996245 0.98923
1.00367 0.997044 0.990362
1.00369 0.999412 0.987996
1.00199 1.00085 0.990094
1.00026 1.00169 0.992258
1.0025 1.00066 0.989081
1.00155 1.00177 0.989935
1.00484 0.998212 0.987022
1.00397 0.999511 0.987363
1.00236 1.00076 0.989288
1.0049 0.997822 0.98721
1.00446 0.99905 0.986931
1.00496 0.996955 0.987636
1.00441 0.997691 0.988399
1.00431 0.996832 0.989319
1.00382 0.996715 0.990404
1.00447 0.997665 0.987894
1.00496 0.997097 0.988044
1.00446 0.997911 0.988088
1.00429 0.998655 0.98766
1.00443 0.998589 0.987473
1.00422 0.998635 0.987754
1.00407 0.998987 0.987743
1.00417 0.998627 0.987904
1.00397 0.99893 0.987984
1.00364 0.999307 0.988264
1.00355 0.999225 0.988513
1.00324 0.999685 0.988658
1.00274 1.00007 0.989231
1.0027 1.00009 0.989283
1.00227 1.00042 0.989791
1.0015 1.00051 0.991128
1.00183 1.00074 0.990302
1.00114 1.00077 0.991579
0.999723 1.00055 0.995161
1.00076 1.00114 0.991943
0.999671 1.00061 0.995266
0.998982 0.999949 0.996913
0.999076 0.999396 0.997921
0.999656 1.00043 0.9955
0.999179 0.998912 0.998816
1.00376 0.999096 0.988181
1.00225 1.00067 0.98967
1.00269 0.999543 0.989689
1.00119 1.00165 0.990656
1.0016 1.00168 0.989761
1.00109 1.00219 0.990195
1.00075 1.0019 0.991253
1.00022 1.00163 0.992547
1.00041 1.00201 0.991742
1.00002 1.00164 0.992866
0.999528 1.00023 0.995212
0.999916 1.00158 0.993087
0.999512 0.99981 0.995604
0.999304 0.998342 0.99896
0.999564 0.999288 0.995992
0.999422 0.997898 0.999095
0.999489 0.997565 0.999192
1.00475 0.997761 0.987605
1.00463 0.997259 0.988294
1.00471 0.996484 0.98975
1.0046 0.998373 0.987212
1.00369 0.999433 0.988028
1.00173 1.00088 0.99045
1.00268 1.00057 0.989218
1.00486 0.998219 0.986991
1.00399 0.99956 0.98717
1.00486 0.997885 0.987192
1.00452 0.998232 0.987635
1.00444 0.997721 0.988243
1.00439 0.996807 0.989151
1.00431 0.998919 0.987352
1.00441 0.99798 0.988092
1.00428 0.998665 0.987687
1.00407 0.999139 0.987601
1.00422 0.998686 0.98775
1.00407 0.998988 0.987749
1.00376 0.999285 0.988056
1.00398 0.998927 0.987978
1.00364 0.999309 0.988261
1.0031 0.999719 0.988885
1.00324 0.999685 0.98865
1.00274 1.00007 0.989228
1.00188 1.00028 0.990638
1.00227 1.00042 0.989788
1.00152 1.00051 0.991113
0.99991 1.00037 0.995033
1.00114 1.00078 0.99157
0.999807 1.00054 0.99512
0.998923 1.00018 0.996835
0.999762 1.00057 0.995219
0.998928 1.00001 0.996958
0.998984 0.999374 0.998791
1.00427 0.999005 0.987474
1.00327 0.999585 0.988719
1.00366 0.999192 0.988351
1.00181 1.00103 0.990255
1.00224 1.00058 0.989677
1.00257 0.999361 0.990205
1.00058 1.00147 0.991996
1.00118 1.00166 0.99065
1.00171 1.00171 0.989736
1.00071 1.00193 0.991262
1.0002 1.00162 0.992551
0.999555 1.00056 0.994843
1 1.00162 0.992866
0.999481 1.00028 0.995216
0.999147 0.998867 0.998853
0.999497 0.999789 0.995609
0.999328 0.99826 0.998995
0.999432 0.997849 0.999122
1.0048 0.99792 0.987376
1.00483 0.99775 0.987465
1.00471 0.997219 0.988252
1.00464 0.998278 0.987286
1.00369 0.999464 0.98806
1.00487 0.998215 0.986959
1.00457 0.998515 0.987238
1.00452 0.998274 0.987579
1.00449 0.997748 0.988087
1.00431 0.998835 0.987438
1.00419 0.999225 0.987356
1.00426 0.99867 0.987713
1.00408 0.999163 0.987607
1.00379 0.999432 0.987803
1.00406 0.998989 0.987755
1.00375 0.999291 0.988057
1.00325 0.999645 0.988686
1.00364 0.999309 0.988257
1.0031 0.999718 0.988882
1.00216 1.00003 0.990347
1.00274 1.00007 0.989224
1.00189 1.00026 0.990627
1.00016 1.00014 0.994865
1.00153 1.0005 0.991098
0.99999 1.00038 0.994982
0.998967 1.00023 0.996757
0.999899 1.00051 0.995077
0.99887 1.00025 0.996878
0.998872 1.00009 0.997008
1.00448 0.998343 0.987485
1.00382 0.999255 0.987962
1.00426 0.998959 0.98743
1.00259 1.00016 0.989531
1.00325 0.999641 0.988795
1.00355 0.999276 0.988526
1.00109 1.00099 0.991412
1.0018 1.00097 0.990119
1.00223 1.00047 0.989685
0.999652 1.00075 0.994461
1.00057 1.00145 0.992007
1.00118 1.00167 0.990644
1.00018 1.00162 0.992555
0.999477 1.00066 0.994853
0.998984 0.999469 0.998747
0.999429 1.00035 0.99522
0.999177 0.998759 0.998888
0.999356 0.998185 0.999028
1.00468 0.998069 0.987484
1.0048 0.997946 0.987374
1.00489 0.997746 0.987325
1.00467 0.998186 0.98736
1.00454 0.998756 0.987135
1.0046 0.998512 0.987249
1.00452 0.998317 0.987522
1.00432 0.998756 0.987524
1.00421 0.99917 0.987323
1.004 0.999455 0.987491
1.00408 0.999191 0.987613
1.00379 0.999455 0.987861
1.00333 0.999679 0.988372
1.00374 0.999299 0.988058
1.00324 0.999645 0.988685
1.00229 0.999913 0.990198
1.0031 0.999722 0.98888
1.00217 1.00001 0.990345
1.00033 0.999971 0.993791
1.00191 1.00025 0.990615
1.00021 1.00015 0.994353
0.999088 1.00017 0.998552
1.00007 1.00037 0.994932
0.998908 1.00029 0.996812
0.998808 1.00035 0.996925
1.00446 0.998247 0.987722
1.00395 0.998972 0.987854
1.00448 0.998388 0.987533
1.00314 0.999584 0.988723
1.00379 0.999267 0.98802
1.00425 0.998918 0.987387
1.00166 1.00034 0.990682
1.0026 1.00015 0.989522
1.00321 0.999707 0.988871
0.999859 1.00066 0.994109
1.0011 1.00096 0.991293
1.00178 1.00092 0.989983
0.998921 0.999976 0.998646
0.999568 1.00083 0.99448
1.00056 1.00144 0.992017
0.999398 1.00075 0.994862
0.999007 0.999335 0.998786
0.999213 0.998638 0.998921
1.00459 0.998282 0.98745
1.00471 0.998064 0.987448
1.00479 0.997973 0.987373
1.00443 0.999125 0.987015
1.00453 0.998767 0.987084
1.00462 0.998508 0.98726
1.00423 0.999113 0.987291
1.004 0.999445 0.987487
1.00364 0.999591 0.98808
1.00379 0.999476 0.987918
1.00333 0.999705 0.988511
1.00245 0.999887 0.989676
1.00324 0.999641 0.988684
1.00229 0.999905 0.990197
1.00042 0.999946 0.993651
1.00218 0.999998 0.990341
1.00033 0.999983 0.993787
0.999165 1.00008 0.998529
1.00023 1.00017 0.993874
0.999065 1.00019 0.997653
0.998848 1.00037 0.996863
1.00438 0.99839 0.987835
1.00404 0.99878 0.987979
1.00445 0.998208 0.987751
1.00337 0.999399 0.988632
1.00397 0.998963 0.987879
1.00447 0.99843 0.98758
1.00214 0.999902 0.990211
1.00316 0.999649 0.988878
1.00377 0.999275 0.988078
1.00011 1.00035 0.993884
1.00171 1.00033 0.990625
1.0026 1.00015 0.989513
0.998974 1.00024 0.998568
0.999803 1.00071 0.994127
1.00111 1.00093 0.991174
0.998903 0.999859 0.998682
0.999492 1.00091 0.994498
0.999024 0.999198 0.998819
1.00439 0.998779 0.987418
1.00458 0.998306 0.987459
1.00473 0.998053 0.987411
1.00401 0.999328 0.987632
1.00438 0.999141 0.987066
1.00453 0.99878 0.987032
1.004 0.999439 0.987483
1.00364 0.999597 0.988081
1.00279 0.999764 0.989138
1.00333 0.999733 0.98865
1.00243 0.999902 0.98982
1.00055 1 0.993346
1.00231 0.999892 0.990197
1.00042 0.999946 0.993647
0.999242 1.00002 0.998497
1.00032 0.999998 0.993784
0.999189 1.00007 0.99852
0.999099 1.00019 0.996688
1.00413 0.998784 0.987956
1.00437 0.998295 0.987888
1.00355 0.999258 0.98845
1.00406 0.998779 0.987965
1.00444 0.998168 0.98778
1.00241 0.999763 0.990113
1.00339 0.99939 0.988623
1.00399 0.998953 0.987905
1.00033 1.00004 0.993744
1.00216 0.999946 0.990289
1.00318 0.999717 0.989033
0.999087 1.00026 0.998527
1.00008 1.00036 0.9939
1.00176 1.00032 0.990567
0.998931 1.00017 0.998592
0.999746 1.00074 0.994149
0.998885 0.999735 0.998721
1.00391 0.999192 0.987976
1.00436 0.998806 0.987453
1.00457 0.998331 0.987468
1.00304 0.999594 0.988823
1.004 0.999364 0.987627
1.00434 0.999156 0.987116
1.00363 0.999605 0.988081
1.00274 0.999779 0.989208
1.00076 1.00001 0.992922
1.0024 0.999913 0.989964
1.00056 0.999999 0.993333
0.999326 1.00001 0.99843
1.00042 0.99995 0.993644
0.99927 1.00001 0.998479
0.999221 1.00007 0.998509
1.0037 0.999209 0.98824
1.00414 0.998699 0.987946
1.00435 0.998198 0.987942
1.00259 0.999674 0.98984
1.00356 0.999258 0.988441
1.00408 0.998779 0.98795
1.0005 0.999882 0.993558
1.0024 0.999777 0.990111
1.00342 0.999381 0.988613
0.999219 1.00013 0.998491
1.00032 1.00004 0.993756
1.00217 0.999988 0.990366
0.999041 1.00022 0.998537
1.00006 1.00037 0.993914
0.99888 1.0001 0.998621
1.00298 0.999597 0.989172
1.00393 0.999182 0.987838
1.00433 0.99883 0.987489
1.00092 0.999962 0.992649
1.00302 0.999604 0.988845
1.00399 0.999401 0.987621
1.0027 0.999792 0.989279
1.00077 1 0.992908
0.999472 1.00001 0.998313
1.00058 0.999996 0.993319
0.999377 1 0.99839
0.999301 1 0.998458
1.0028 0.999625 0.989496
1.00372 0.999172 0.988186
1.00414 0.998616 0.987936
1.0007 0.999884 0.994271
1.00259 0.999686 0.989833
1.00357 0.99926 0.988431
0.999348 1.00001 0.998431
1.0005 0.999877 0.993567
1.0024 0.999792 0.990109
0.999176 1.00014 0.998503
1.0003 1.00004 0.993769
0.998996 1.00021 0.998549
1.00097 0.999941 0.992602
1.00298 0.999568 0.989075
1.00394 0.999168 0.987699
0.999606 1 0.998218
1.00093 0.999958 0.992643
1.003 0.999616 0.988866
1.00079 1 0.992892
0.999526 1.00001 0.998274
0.99943 0.999997 0.998349
1.0009 0.999922 0.993907
1.0028 0.999622 0.989497
1.00374 0.999134 0.988131
0.999306 0.999981 0.998479
1.00064 0.999878 0.993301
1.0026 0.999695 0.989827
0.999303 1.00003 0.998454
1.00049 0.999875 0.993577
0.999131 1.00014 0.998514
0.999628 1 0.995931
1.00096 0.999944 0.993202
1.00299 0.999544 0.988977
0.999622 0.999996 0.998202
1.00094 0.999953 0.99264
0.999571 1 0.998238
0.9994 0.999961 0.996235
1.00084 0.999938 0.993457
1.0028 0.99962 0.989497
0.999359 0.999972 0.997386
1.00065 0.999887 0.993284
0.999266 1.00005 0.998475
0.999634 0.999992 0.998194
1.00092 0.99994 0.992674
0.99964 0.999993 0.998191
0.999484 0.999991 0.99722
1.0008 0.999944 0.992938
0.999383 0.999994 0.998405
0.999599 0.999988 0.998225
0.999499 0.999989 0.998311

TENSORS stress float
0.00118352 1.77857e-05 5.26904e-05
1.77857e-05 0.00026826 -6.60058e-06
5.26904e-05 -6.60058e-06 0.000248809
0.00305887 -7.64149e-05 4.74474e-05
-7.64149e-05 0.00122702 3.24965e-06
4.74474e-05 3.24965e-06 0.00122449
0.00118066 3.694e-05 2.38538e-05
3.694e-05 0.000273305 -2.15071e-06
2.38538e-05 -2.15071e-06 0.000251079
0.00147536 -1.96012e-06 6.84402e-05
-1.96012e-06 0.000405732 -5.31555e-06
6.84402e-05 -5.31555e-06 0.00038427
0.0012499 3.75581e-06 5.88044e-05
3.75581e-06 0.000307063 -6.53229e-06
5.88044e-05 -6.53229e-06 0.000286588
0.00114406 3.53515e-05 4.32163e-05
3.53515e-05 0.000235993 -6.52373e-06
4.32163e-05 -6.52373e-06 0.000218847
0.00110437 2.40844e-06 8.35652e-06
2.40844e-06 0.000185527 -3.17187e-06
8.35652e-06 -3.17187e-06 0.000142204
0.00303542 -8.08041e-05 1.21122e-06
-8.08041e-05 0.00121184 -2.17734e-07
1.21122e-06 -2.17734e-07 0.00120959
0.00361203 -0.000139445 5.45043e-06
-0.000139445 0.00155771 1.66114e-06
5.45043e-06 1.66114e-06 0.00153884
0.00304939 -0.000104248 1.29483e-05
-0.000104248 0.00124365 1.36219e-06
1.29483e-05 1.36219e-06 0.00123409
0.00110063 -3.69887e-05 3.65081e-05
-3.69887e-05 0.000185986 4.05555e-06
3.65081e-05 4.05555e-06 0.000179107
0.000756228 4.46444e-06 6.73949e-06
4.46444e-06 -4.86359e-06 3.83988e-06
6.73949e-06 3.83988e-06 -4.21705e-05
0.00169387 -7.72395e-06 8.38399e-05
-7.72395e-06 0.000495498 4.17929e-07
8.38399e-05 4.17929e-07 0.000473284
0.00133229 -1.00549e-05 1.24358e-05
-1.00549e-05 0.000331788 1.04085e-06
1.24358e-05 1.04085e-06 0.000308536
0.00119598 6.19131e-05 -5.79675e-06
6.19131e-05 0.000288708 2.26205e-06
-5.79675e-06 2.26205e-06 0.000262997
0.00141177 1.96083e-05 3.09713e-05
1.96083e-05 0.000379157 -1.76711e-06
3.09713e-05 -1.76711e-06 0.000355521
0.00112681 4.35502e-05 1.94496e-05
4.35502e-05 0.000231106 -2.24155e-06
1.94496e-05 -2.24155e-06 0.000212715
0.00124642 3.26326e-05 2.73557e-05
3.26326e-05 0.000313006 -1.96466e-06
2.73557e-05 -1.96466e-06 0.000288902
0.00118831 -2.50057e-06 -9.80322e-06
-2.50057e-06 0.00022518 3.79327e-07
-9.80322e-06 3.79327e-07 0.000183224
0.00469106 1.47504e-05 8.50555e-05
1.47504e-05 0.00206136 -7.87934e-07
8.50555e-05 -7.87934e-07 0.00205516
0.00157593 5.83505e-07 7.29487e-05
5.83505e-07 0.00044692 -4.09453e-06
7.29487e-05 -4.09453e-06 0.000425778
0.00134426 -3.58906e-07 6.32596e-05
-3.58906e-07 0.000350934 -6.19496e-06
6.32596e-05 -6.19496e-06 0.00032959
0.00137701 -7.5887e-06 1.28801e-05
-7.5887e-06 0.000272589 -3.2628e-06
1.28801e-05 -3.2628e-06 0.000226578
0.00117955 5.46845e-07 8.55724e-06
5.46845e-07 0.000213625 -3.61999e-06
8.55724e-06 -3.61999e-06 0.000168544
0.00115803 4.07885e-05 3.72577e-05
4.07885e-05 0.00022499 -6.57041e-06
3.72577e-05 -6.57041e-06 0.000212996
0.00103611 9.39712e-06 7.75761e-06
9.39712e-06 0.000156458 -2.79695e-06
7.75761e-06 -2.79695e-06 0.000116671
0.00144571 -6.54101e-05 3.01784e-06
-6.54101e-05 0.000281601 -9.82505e-07
3.01784e-06 -9.82505e-07 0.000212835
0.00300384 -8.28364e-05 -4.05187e-05
-8.28364e-05 0.00119198 -3.28001e-06
-4.05187e-05 -3.28001e-06 0.00119033
0.00239396 -6.88104e-05 -2.3843e-05
-6.88104e-05 0.000913694 -6.5953e-07
-2.3843e-05 -6.5953e-07 0.000894001
0.00213943 -6.96894e-05 -1.85745e-05
-6.96894e-05 0.000763473 -6.31975e-07
-1.85745e-05 -6.31975e-07 0.000750076
0.00285651 -7.46348e-05 7.20414e-07
-7.46348e-05 0.00110462 -1.17806e-07
7.20414e-07 -1.17806e-07 0.00110644
0.000705683 -3.32599e-06 -8.46331e-08
-3.32599e-06 -2.63694e-05 -1.02155e-07
-8.46331e-08 -1.02155e-07 -6.44446e-05
0.00159611 7.294e-06 6.36623e-05
7.294e-06 0.000480658 3.82046e-06
6.36623e-05 3.82046e-06 0.000459042
0.00147575 -1.11029e-05 5.40026e-05
-1.11029e-05 0.000423263 4.24815e-06
5.40026e-05 4.24815e-06 0.000403467
0.00203668 4.25614e-05 3.36825e-05
4.25614e-05 0.000647498 3.9314e-06
3.36825e-05 3.9314e-06 0.00060816
0.00267954 -7.64847e-05 1.30548e-05
-7.64847e-05 0.00100258 1.43736e-06
1.30548e-05 1.43736e-06 0.00100723
0.00179783 7.00993e-06 2.57334e-05
7.00993e-06 0.000539346 3.09767e-06
2.57334e-05 3.09767e-06 0.000504922
0.000711042 -2.53536e-05 6.9984e-06
-2.53536e-05 -2.66314e-05 5.90311e-06
6.9984e-06 5.90311e-06 -6.06911e-05
0.000907226 4.08726e-05 3.37333e-06
4.08726e-05 4.50068e-05 8.55176e-07
3.37333e-06 8.55176e-07 -2.40229e-05
0.00253592 -5.48795e-05 3.2801e-05
-5.48795e-05 0.000913398 3.6098e-06
3.2801e-05 3.6098e-06 0.000924103
0.00473948 -1.78857e-05 2.49781e-06
-1.78857e-05 0.0020854 -2.98713e-07
2.49781e-06 -2.98713e-07 0.00207904
0.00286357 -1.69526e-05 -3.24515e-05
-1.69526e-05 0.00112585 -5.91809e-07
-3.24515e-05 -5.91809e-07 0.00111077
0.00498205 -1.40952e-05 9.22652e-05
-1.40952e-05 0.00220253 1.47378e-07
9.22652e-05 1.47378e-07 0.00219609
0.00135805 -3.97459e-06 1.22757e-05
-3.97459e-06 0.000337479 5.82857e-07
1.22757e-05 5.82857e-07 0.000313684
0.000791013 -6.57903e-06 1.3371e-05
-6.57903e-06 -7.47164e-05 1.55643e-06
1.3371e-05 1.55643e-06 -0.000126616
0.00411186 -6.91326e-05 1.64398e-05
-6.91326e-05 0.00179125 8.91572e-07
1.64398e-05 8.91572e-07 0.00177957
0.00225637 -2.91554e-07 4.28812e-05
-2.91554e-07 0.000713242 2.62989e-06
4.28812e-05 2.62989e-06 0.000675647
0.0013536 2.24764e-05 -1.11007e-05
2.24764e-05 0.000353964 1.8728e-06
-1.11007e-05 1.8728e-06 0.000329124
0.00127046 6.64156e-05 -3.80264e-06
6.64156e-05 0.000334781 2.51061e-06
-3.80264e-06 2.51061e-06 0.000306254
0.00110176 5.71205e-05 -7.16432e-06
5.71205e-05 0.000222594 1.92974e-06
-7.16432e-06 1.92974e-06 0.000202311
0.00124969 -1.04767e-05 -2.83037e-05
-1.04767e-05 0.00025272 3.92402e-06
-2.83037e-05 3.92402e-06 0.000212494
0.00313106 4.22312e-05 -3.43919e-05
4.22312e-05 0.00125012 -9.93026e-07
-3.43919e-05 -9.93026e-07 0.00123297
0.001469 1.35536e-05 3.13016e-05
1.35536e-05 0.000396526 -1.37232e-06
3.13016e-05 -1.37232e-06 0.000373809
0.00109885 4.64132e-05 1.53369e-05
4.64132e-05 0.000196384 -2.34822e-06
1.53369e-05 -2.34822e-06 0.000183927
0.00132505 3.34495e-05 3.10796e-05
3.34495e-05 0.000349584 -1.79972e-06
3.10796e-05 -1.79972e-06 0.00032438
0.00144226 -1.77468e-05 -1.12253e-05
-1.77468e-05 0.000303254 1.20904e-07
-1.12253e-05 1.20904e-07 0.000258959
0.00110967 8.49073e-06 -7.35388e-06
8.49073e-06 0.000191632 4.05572e-07
-7.35388e-06 4.05572e-07 0.000152746
0.00126832 -8.04601e-06 -1.15204e-05
-8.04601e-06 0.000255026 3.04077e-07
-1.15204e-05 3.04077e-07 0.000211718
0.00155388 -6.97965e-05 -1.84239e-06
-6.97965e-05 0.000334127 6.30019e-07
-1.84239e-06 6.30019e-07 0.000264576
0.00485947 3.1867e-05 8.47717e-05
3.1867e-05 0.00214367 9.56282e-08
8.47717e-05 9.56282e-08 0.00213675
0.0016115 6.97069e-06 7.63891e-05
6.97069e-06 0.000459856 -2.98743e-06
7.63891e-05 -2.98743e-06 0.000438464
0.00222758 3.25294e-05 1.1515e-05
3.25294e-05 0.000679909 -1.08142e-06
1.1515e-05 -1.08142e-06 0.000636036
0.00144908 -9.83578e-06 1.53433e-05
-9.83578e-06 0.000292458 -2.39708e-06
1.53433e-05 -2.39708e-06 0.000247188
0.00127122 4.33416e-06 8.80114e-06
4.33416e-06 0.000243504 -3.87074e-06
8.80114e-06 -3.87074e-06 0.000196703
0.00185186 -6.24142e-05 5.01098e-06
-6.24142e-05 0.000379999 -1.81124e-06
5.01098e-06 -1.81124e-06 0.000304746
0.00119627 -6.02525e-05 4.3382e-06
-6.02525e-05 0.000119163 -1.97128e-06
4.3382e-06 -1.97128e-06 4.75282e-05
0.00123756 4.13944e-05 3.53578e-05
4.13944e-05 0.000245355 -6.42506e-06
3.53578e-05 -6.42506e-06 0.000239761
0.00101675 3.45836e-05 5.86178e-06
3.45836e-05 0.000147637 -2.66016e-06
5.86178e-06 -2.66016e-06 0.00011349
0.0012966 -5.37446e-05 2.36593e-06
-5.37446e-05 0.000236897 -7.03572e-07
2.36593e-06 -7.03572e-07 0.000170537
0.00111632 -7.66302e-05 2.09204e-06
-7.66302e-05 5.93629e-05 -4.52096e-07
2.09204e-06 -4.52096e-07 -2.72629e-05
0.00355943 -9.0086e-05 -5.05792e-05
-9.0086e-05 0.00151991 -3.1249e-06
-5.05792e-05 -3.1249e-06 0.00150796
0.00286374 -7.5611e-05 -3.75804e-05
-7.5611e-05 0.0011048 -3.33518e-06
-3.75804e-05 -3.33518e-06 0.00110763
0.00312239 -8.83134e-05 -4.393e-05
-8.83134e-05 0.00127183 -3.06617e-06
-4.393e-05 -3.06617e-06 0.00126585
0.000662048 -2.94815e-06 -5.61377e-06
-2.94815e-06 -4.55908e-05 -4.43275e-06
-5.61377e-06 -4.43275e-06 -8.34752e-05
0.00409509 -6.44886e-05 -2.68336e-06
-6.44886e-05 0.00178729 -5.21492e-08
-2.68336e-06 -5.21492e-08 0.00177623
0.0034624 -8.34805e-05 1.71448e-06
-8.34805e-05 0.00146552 -1.62025e-07
1.71448e-06 -1.62025e-07 0.00145553
0.000652544 4.71583e-05 -1.62586e-07
4.71583e-05 -6.79652e-05 -1.51221e-07
-1.62586e-07 -1.51221e-07 -0.000114971
0.00187467 -5.60509e-05 -1.43529e-05
-5.60509e-05 0.000580044 -8.62708e-07
-1.43529e-05 -8.62708e-07 0.000581268
0.00068942 1.81633e-05 -1.79239e-07
1.81633e-05 -3.40926e-05 -7.97122e-08
-1.79239e-07 -7.97122e-08 -7.54729e-05
0.0011532 -3.2295e-05 7.86855e-06
-3.2295e-05 0.000204869 5.08113e-07
7.86855e-06 5.08113e-07 0.000174858
0.000871078 4.05934e-05 1.37399e-07
4.05934e-05 2.54696e-05 -2.28352e-07
1.37399e-07 -2.28352e-07 -4.29911e-05
0.0026336 -6.08667e-05 3.52273e-05
-6.08667e-05 0.000970245 3.54838e-06
3.52273e-05 3.54838e-06 0.000978685
0.000756844 -4.18544e-05 2.86904e-06
-4.18544e-05 -2.25405e-05 4.06339e-06
2.86904e-06 4.06339e-06 -4.04434e-05
0.00078703 4.82807e-05 1.25708e-05
4.82807e-05 -2.08606e-05 5.34903e-06
1.25708e-05 5.34903e-06 -6.8853e-05
0.000780254 3.75069e-05 1.03206e-05
3.75069e-05 4.98579e-06 6.01035e-06
1.03206e-05 6.01035e-06 -4.04347e-05
0.00102932 6.16542e-05 4.96952e-06
6.16542e-05 2.57366e-05 1.87988e-06
4.96952e-06 1.87988e-06 -4.95263e-05
0.00156477 -5.23316e-05 1.69974e-05
-5.23316e-05 0.000415667 3.57416e-06
1.69974e-05 3.57416e-06 0.000393217
0.000950821 5.60223e-05 3.48083e-06
5.60223e-05 5.01541e-05 1.10827e-06
3.48083e-06 1.10827e-06 -1.90183e-05
0.000890822 2.76546e-05 3.22437e-06
2.76546e-05 4.65767e-05 1.67505e-06
3.22437e-06 1.67505e-06 -2.10218e-05
0.000909919 7.07372e-05 1.89852e-06
7.07372e-05 1.68458e-05 -3.43e-07
1.89852e-06 -3.43e-07 -6.59625e-05
0.00240331 -4.90249e-05 2.94869e-05
-4.90249e-05 0.000837844 3.67829e-06
2.94869e-05 3.67829e-06 0.000850921
0.00250644 -5.49746e-05 5.45113e-07
-5.49746e-05 0.000897624 -9.1771e-08
5.45113e-07 -9.1771e-08 0.000908607
0.00430743 -1.95553e-05 -7.36194e-05
-1.95553e-05 0.00187909 -2.00735e-06
-7.36194e-05 -2.00735e-06 0.00187243
0.00463889 -1.17419e-05 -8.11797e-05
-1.17419e-05 0.00203721 -7.61167e-07
-8.11797e-05 -7.61167e-07 0.00203079
0.00492496 1.61452e-06 3.75198e-06
1.61452e-06 0.00217558 -4.04451e-07
3.75198e-06 -4.04451e-07 0.00216886
0.00295808 -1.05756e-05 -3.37926e-05
-1.05756e-05 0.0011678 -4.9696e-07
-3.37926e-05 -4.9696e-07 0.00115241
0.00157829 4.40483e-06 1.88612e-05
4.40483e-06 0.000337873 1.3036e-07
1.88612e-05 1.3036e-07 0.000291497
0.00271582 -3.48594e-05 -3.26129e-05
-3.48594e-05 0.00106118 -5.61757e-07
-3.26129e-05 -5.61757e-07 0.00104457
0.00145558 1.79744e-05 1.61717e-05
1.79744e-05 0.000299945 2.29139e-07
1.61717e-05 2.29139e-07 0.000257697
0.00502392 5.55838e-05 8.63532e-05
5.55838e-05 0.00222425 1.10672e-06
8.63532e-05 1.10672e-06 0.00221652
0.000787925 -5.23369e-07 1.16906e-05
-5.23369e-07 -8.90827e-05 1.08336e-07
1.16906e-05 1.08336e-07 -0.000143264
0.002294 -2.11783e-05 4.52694e-05
-2.11783e-05 0.000722529 1.71152e-06
4.52694e-05 1.71152e-06 0.000683262
0.00124365 1.15299e-05 6.86468e-06
1.15299e-05 8.86887e-06 1.22074e-06
6.86468e-06 1.22074e-06 -7.43362e-05
0.00215264 3.83889e-05 3.94905e-05
3.83889e-05 0.00067494 2.94577e-06
3.94905e-05 2.94577e-06 0.000636812
0.00118533 3.82476e-05 6.79977e-06
3.82476e-05 1.65528e-05 1.35834e-06
6.79977e-06 1.35834e-06 -6.35956e-05
0.00168852 1.66834e-05 -8.23643e-05
1.66834e-05 0.000492546 4.39674e-07
-8.23643e-05 4.39674e-07 0.000470459
0.0013509 9.43581e-06 -1.32482e-05
9.43581e-06 0.000339864 1.40071e-06
-1.32482e-05 1.40071e-06 0.000315994
0.000995194 5.22626e-05 -7.63353e-06
5.22626e-05 0.000144977 1.68423e-06
-7.63353e-06 1.68423e-06 0.000132032
0.00133282 4.69255e-05 -6.53967e-06
4.69255e-05 0.000358809 2.28639e-06
-6.53967e-06 2.28639e-06 0.000332031
0.00150429 -1.82835e-05 -3.74525e-05
-1.82835e-05 0.000332945 3.55251e-06
-3.74525e-05 3.55251e-06 0.000289871
0.00131975 -1.84254e-05 -3.13711e-05
-1.84254e-05 0.000276155 4.08256e-06
-3.13711e-05 4.08256e-06 0.00023512
0.00118867 4.34678e-06 -2.40571e-05
4.34678e-06 0.000229295 3.59785e-06
-2.40571e-05 3.59785e-06 0.000191638
0.00168303 -7.4298e-05 -7.03015e-06
-7.4298e-05 0.000397329 2.41866e-06
-7.03015e-06 2.41866e-06 0.000326972
0.00492932 3.08042e-05 -3.22234e-06
3.08042e-05 0.00217723 -4.13172e-07
-3.22234e-06 -4.13172e-07 0.00217042
0.00148578 1.21196e-05 3.24985e-05
1.21196e-05 0.000399205 -8.72424e-07
3.24985e-05 -8.72424e-07 0.0003765
0.00115917 1.019e-05 -2.07459e-05
1.019e-05 0.000118145 2.6451e-07
-2.07459e-05 2.6451e-07 6.9466e-05
0.00149512 -1.43074e-05 -1.15085e-05
-1.43074e-05 0.000314148 1.09751e-07
-1.15085e-05 1.09751e-07 0.000270036
0.00199516 5.72069e-05 2.67858e-05
5.72069e-05 0.000645524 -1.74771e-06
2.67858e-05 -1.74771e-06 0.000644457
0.00129646 3.06747e-05 -5.25525e-06
3.06747e-05 0.000289579 4.04391e-07
-5.25525e-06 4.04391e-07 0.000256811
0.00135338 -1.38655e-05 -1.15353e-05
-1.38655e-05 0.000280277 2.05849e-07
-1.15353e-05 2.05849e-07 0.000236435
0.00169503 -5.83044e-05 -3.47202e-06
-5.83044e-05 0.000297622 6.56992e-07
-3.47202e-06 6.56992e-07 0.000221258
0.00144955 -6.10487e-05 -1.49727e-06
-6.10487e-05 0.000312263 6.73669e-07
-1.49727e-06 6.73669e-07 0.000244802
0.00142854 -6.59686e-05 -8.28568e-07
-6.59686e-05 0.000238119 1.16205e-07
-8.28568e-07 1.16205e-07 0.000167022
0.00112071 -7.62753e-05 -2.51514e-08
-7.62753e-05 6.1516e-05 -1.15106e-08
-2.51514e-08 -1.15106e-08 -2.49591e-05
0.000765771 3.12509e-06 1.16516e-05
3.12509e-06 -9.777e-05 -1.67226e-06
1.16516e-05 -1.67226e-06 -0.000151588
0.00146778 -4.0466e-06 1.55553e-05
-4.0466e-06 0.000294037 -1.84054e-06
1.55553e-05 -1.84054e-06 0.000248865
0.0016243 1.56413e-06 6.27741e-06
1.56413e-06 0.000205407 -1.27733e-06
6.27741e-06 -1.27733e-06 0.000125454
0.00151962 -4.29184e-05 6.28561e-06
-4.29184e-05 0.000183205 -1.35266e-06
6.28561e-06 -1.35266e-06 0.000106335
0.00137815 -6.1754e-05 5.34478e-06
-6.1754e-05 0.000171893 -2.44063e-06
5.34478e-06 -2.44063e-06 9.70848e-05
0.00177973 -7.22539e-05 1.79205e-06
-7.22539e-05 0.000267157 -5.89192e-07
1.79205e-06 -5.89192e-07 0.000175035
0.0027974 6.84002e-05 3.62964e-05
6.84002e-05 0.00105552 -3.28675e-06
3.62964e-05 -3.28675e-06 0.00106232
0.00112856 -7.2839e-05 2.02062e-06
-7.2839e-05 3.02319e-05 -5.5718e-07
2.02062e-06 -5.5718e-07 -5.6586e-05
0.000706254 5.65542e-05 2.56132e-06
5.65542e-05 -2.76083e-05 -4.01302e-06
2.56132e-06 -4.01302e-06 -6.03328e-05
0.000731766 -3.48321e-05 2.39632e-06
-3.48321e-05 -3.45643e-05 -9.05488e-07
2.39632e-06 -9.05488e-07 -0.000100131
0.00119497 -8.26305e-05 2.03341e-06
-8.26305e-05 0.00013734 -7.68355e-07
2.03341e-06 -7.68355e-07 5.00946e-05
0.00122264 -8.57956e-05 9.39611e-07
-8.57956e-05 7.91408e-05 1.34062e-07
9.39611e-07 1.34062e-07 -1.41917e-05
0.000679168 4.39901e-05 3.54487e-06
4.39901e-05 -6.0521e-05 -4.06084e-06
3.54487e-06 -4.06084e-06 -8.24674e-05
0.000858745 1.99239e-05 1.47427e-06
1.99239e-05 1.43594e-05 -2.34534e-06
1.47427e-06 -2.34534e-06 -3.61083e-05
0.00387845 -6.31469e-05 -5.91863e-05
-6.31469e-05 0.00167703 -2.90278e-06
-5.91863e-05 -2.90278e-06 0.00166699
0.00327615 -9.20606e-05 -4.6656e-05
-9.20606e-05 0.00136744 -2.91223e-06
-4.6656e-05 -2.91223e-06 0.00135787
0.000613222 4.09184e-05 -8.25774e-06
4.09184e-05 -8.58166e-05 -4.72471e-06
-8.25774e-06 -4.72471e-06 -0.000132784
0.00275204 -6.81744e-05 -3.58467e-05
-6.81744e-05 0.00103718 -3.35127e-06
-3.58467e-05 -3.35127e-06 0.0010435
0.0006354 -4.70815e-05 -2.46899e-06
-4.70815e-05 -6.07815e-05 -4.66991e-06
-2.46899e-06 -4.66991e-06 -9.48618e-05
0.000627703 1.58881e-05 -6.81062e-06
1.58881e-05 -6.02721e-05 -4.12225e-06
-6.81062e-06 -4.12225e-06 -0.0001023
0.00084261 4.04319e-05 -3.23774e-06
4.04319e-05 9.96107e-06 -1.22157e-06
-3.23774e-06 -1.22157e-06 -5.81607e-05
0.00263506 -6.11349e-05 4.75396e-07
-6.11349e-05 0.00097053 -1.11043e-07
4.75396e-07 -1.11043e-07 0.000979167
0.000734236 -3.96045e-05 1.52258e-07
-3.96045e-05 -3.53803e-05 4.39129e-08
1.52258e-07 4.39129e-08 -5.26829e-05
0.00134434 4.62775e-05 1.37773e-05
4.62775e-05 0.00027188 9.95047e-08
1.37773e-05 9.95047e-08 0.000228698
0.00122113 2.79094e-05 1.13638e-05
2.79094e-05 0.000239994 2.10899e-07
1.13638e-05 2.10899e-07 0.000198871
0.00100993 6.16869e-05 2.75615e-07
6.16869e-05 1.64237e-05 -1.55793e-09
2.75615e-07 -1.55793e-09 -5.87048e-05
0.000724745 -5.24412e-05 3.40593e-08
-5.24412e-05 -2.31605e-05 5.61207e-08
3.40593e-08 5.61207e-08 -5.08122e-05
0.000905604 5.36879e-05 2.03146e-08
5.36879e-05 2.70213e-05 2.04645e-07
2.03146e-08 2.04645e-07 -4.18685e-05
0.000854842 2.28575e-05 1.63962e-07
2.28575e-05 2.87871e-05 -2.60281e-07
1.63962e-07 -2.60281e-07 -3.88145e-05
0.000868812 6.92043e-05 -6.40408e-08
6.92043e-05 -5.02987e-06 -1.6548e-07
-6.40408e-08 -1.6548e-07 -8.80485e-05
0.000731055 -4.77404e-05 2.72748e-06
-4.77404e-05 -2.72595e-05 4.16574e-06
2.72748e-06 4.16574e-06 -5.00056e-05
0.000782613 -3.53831e-05 3.04729e-06
-3.53831e-05 -1.83164e-05 3.8497e-06
3.04729e-06 3.8497e-06 -3.14736e-05
0.000811676 -3.79346e-06 2.60968e-06
-3.79346e-06 -6.15051e-06 2.26929e-06
2.60968e-06 2.26929e-06 -5.60156e-05
0.00107795 5.62027e-05 5.7422e-06
5.62027e-05 1.2521e-05 1.88376e-06
5.7422e-06 1.88376e-06 -6.50663e-05
0.000993398 6.20414e-05 4.10652e-06
6.20414e-05 4.60848e-05 1.62325e-06
4.10652e-06 1.62325e-06 -2.59602e-05
0.00120527 7.93558e-05 2.79281e-06
7.93558e-05 6.28825e-05 8.65522e-07
2.79281e-06 8.65522e-07 -2.81615e-05
0.000874803 1.66164e-05 2.84666e-06
1.66164e-05 3.45484e-05 2.02711e-06
2.84666e-06 2.02711e-06 -2.81146e-05
0.00093984 7.36195e-05 1.50936e-06
7.36195e-05 8.0137e-06 -9.96597e-09
1.50936e-06 -9.96597e-09 -7.46278e-05
0.00105112 7.15486e-05 2.03738e-06
7.15486e-05 0.000110161 2.35602e-07
2.03738e-06 2.35602e-07 2.59719e-05
0.0010622 8.46819e-05 -7.16971e-08
8.46819e-05 8.72998e-05 -1.10611e-06
-7.16971e-08 -1.10611e-06 -3.08072e-06
0.00229744 -4.36253e-05 2.62403e-05
-4.36253e-05 0.000775284 3.71014e-06
2.62403e-05 3.71014e-06 0.000790639
0.00237949 -4.92127e-05 5.43278e-07
-4.92127e-05 0.000824604 -7.53315e-08
5.43278e-07 -7.53315e-08 0.000837974
0.00247856 -5.50869e-05 -2.99266e-05
-5.50869e-05 0.000882539 -3.49397e-06
-2.99266e-05 -3.49397e-06 0.000893818
0.000716893 3.68279e-05 3.36347e-06
3.68279e-05 -4.84956e-05 -3.80991e-06
3.36347e-06 -3.80991e-06 -6.5534e-05
0.00268556 6.18389e-05 3.36965e-05
6.18389e-05 0.000991692 -3.40049e-06
3.36965e-05 -3.40049e-06 0.00100085
0.00412172 -3.25653e-05 -6.79895e-05
-3.25653e-05 0.00179196 -2.50648e-06
-6.79895e-05 -2.50648e-06 0.00178425
0.00446034 -1.37201e-05 -7.76173e-05
-1.37201e-05 0.0019513 -1.40501e-06
-7.76173e-05 -1.40501e-06 0.00194503
0.000688839 2.67277e-05 -1.05739e-05
2.67277e-05 -9.90375e-05 -2.59658e-06
-1.05739e-05 -2.59658e-06 -0.000145442
0.000742197 1.66958e-05 -1.131e-05
1.66958e-05 -9.48694e-05 -1.24518e-06
-1.131e-05 -1.24518e-06 -0.000146146
0.00485669 -2.15201e-05 -8.39606e-05
-2.15201e-05 0.0021425 -3.73687e-08
-8.39606e-05 -3.73687e-08 0.00213578
0.00502449 1.20137e-05 -1.12229e-06
1.20137e-05 0.00222341 4.37172e-07
-1.12229e-06 4.37172e-07 0.00221666
0.000772157 1.32287e-06 -2.79999e-10
1.32287e-06 -9.59076e-05 -2.77607e-07
-2.79999e-10 -2.77607e-07 -0.000150064
0.00152164 2.71355e-06 1.75439e-05
2.71355e-06 0.000322996 2.65273e-07
1.75439e-05 2.65273e-07 0.000279504
0.0012348 1.506e-05 1.10984e-07
1.506e-05 4.91103e-06 4.36046e-08
1.10984e-07 4.36046e-08 -7.83541e-05
0.000661226 3.58987e-05 -2.25484e-08
3.58987e-05 -9.88177e-05 -5.3551e-08
-2.25484e-08 -5.3551e-08 -0.000145221
0.00118355 3.96566e-05 7.70104e-08
3.96566e-05 1.65674e-05 -1.81617e-07
7.70104e-08 -1.81617e-07 -6.37675e-05
0.000768334 -4.05441e-06 1.19067e-05
-4.05441e-06 -0.000104639 -8.80291e-07
1.19067e-05 -8.80291e-07 -0.000160027
0.0012861 5.47756e-06 6.986e-06
5.47756e-06 8.54147e-06 5.19426e-07
6.986e-06 5.19426e-07 -7.81848e-05
0.0012164 2.49001e-05 6.8629e-06
2.49001e-05 1.47201e-05 1.17975e-06
6.8629e-06 1.17975e-06 -6.61353e-05
0.00147812 1.31668e-05 2.94369e-06
1.31668e-05 5.42698e-05 8.75417e-07
2.94369e-06 8.75417e-07 -4.1882e-05
0.00113642 4.78723e-05 6.34859e-06
4.78723e-05 1.29039e-05 1.78428e-06
6.34859e-06 1.78428e-06 -6.62704e-05
0.00140676 4.38678e-05 2.95883e-06
4.38678e-05 5.86516e-05 1.9032e-07
2.95883e-06 1.9032e-07 -3.41088e-05
0.00498137 3.68099e-05 -9.34667e-05
3.68099e-05 0.00220227 -7.15885e-07
-9.34667e-05 -7.15885e-07 0.00219545
0.00133774 3.29071e-06 -1.26838e-05
3.29071e-06 0.000326617 9.69867e-07
-1.26838e-05 9.69867e-07 0.000302877
5.22299e-05 1.29153e-06 -1.23433e-05
1.29153e-06 -0.000460848 2.45911e-06
-1.23433e-05 2.45911e-06 -0.000516921
0.00155462 -1.08068e-05 -3.96851e-05
-1.08068e-05 0.000343149 2.62936e-06
-3.96851e-05 2.62936e-06 0.000299908
0.00271031 8.27069e-05 -1.351e-05
8.27069e-05 0.00102535 1.3236e-06
-1.351e-05 1.3236e-06 0.00102724
0.00160631 2.47517e-05 -2.00427e-05
2.47517e-05 0.000445235 3.58827e-06
-2.00427e-05 3.58827e-06 0.000415267
0.00140962 -2.13698e-05 -3.44664e-05
-2.13698e-05 0.000305211 4.04552e-06
-3.44664e-05 4.04552e-06 0.000263243
0.00153659 -5.45591e-05 -1.11853e-05
-5.45591e-05 0.000214441 3.02361e-06
-1.11853e-05 3.02361e-06 0.00013697
0.0016837 -7.22612e-05 -6.78552e-06
-7.22612e-05 0.000369136 2.27334e-06
-6.78552e-06 2.27334e-06 0.000298477
0.00160393 -6.78554e-05 -6.01853e-06
-6.78554e-05 0.000388536 2.19711e-06
-6.01853e-06 2.19711e-06 0.000319956
0.00112686 -7.60306e-05 -1.69975e-06
-7.60306e-05 6.45701e-05 3.1689e-07
-1.69975e-06 3.1689e-07 -2.17661e-05
0.000770047 4.70771e-06 -1.07461e-07
4.70771e-06 -9.67598e-05 -2.75091e-07
-1.07461e-07 -2.75091e-07 -0.000150595
0.00151733 -4.06024e-06 -1.2483e-05
-4.06024e-06 0.000317594 5.64801e-08
-1.2483e-05 5.64801e-08 0.000273412
0.00125829 6.76184e-07 -2.28674e-06
6.76184e-07 1.59388e-05 8.1912e-08
-2.28674e-06 8.1912e-08 -6.61724e-05
0.00173996 -4.49414e-05 -1.83409e-06
-4.49414e-05 0.000296885 1.90846e-07
-1.83409e-06 1.90846e-07 0.000220758
0.00275969 6.77343e-05 -4.84083e-07
6.77343e-05 0.00103753 -1.21569e-07
-4.84083e-07 -1.21569e-07 0.00104404
0.00113562 4.48677e-05 1.34448e-06
4.48677e-05 0.000194072 1.2059e-07
1.34448e-06 1.2059e-07 0.000165357
0.00109881 -3.42572e-05 8.8348e-08
-3.42572e-05 0.000153007 -6.79048e-08
8.8348e-08 -6.79048e-08 8.75831e-05
0.00138522 -6.12091e-05 -1.49324e-06
-6.12091e-05 0.000176665 1.59182e-07
-1.49324e-06 1.59182e-07 0.000101936
0.00148362 -6.6495e-05 -1.44342e-06
-6.6495e-05 0.000113114 5.32966e-07
-1.44342e-06 5.32966e-07 1.98193e-05
0.00100983 -7.5847e-05 -2.7909e-07
-7.5847e-05 4.45181e-05 -1.47632e-07
-2.7909e-07 -1.47632e-07 -4.26236e-05
0.00135804 -7.77367e-05 1.14729e-07
-7.77367e-05 0.000145539 9.79094e-08
1.14729e-07 9.79094e-08 5.91769e-05
0.00121667 -8.51784e-05 1.11086e-07
-8.51784e-05 7.63754e-05 5.02123e-08
1.11086e-07 5.02123e-08 -1.67603e-05
0.000697925 4.63807e-05 -1.60788e-07
4.63807e-05 -4.88055e-05 2.58208e-08
-1.60788e-07 2.58208e-08 -7.14487e-05
0.000834127 1.80024e-05 -3.1658e-07
1.80024e-05 1.21157e-06 6.16169e-08
-3.1658e-07 6.16169e-08 -4.91697e-05
0.00126987 6.95025e-07 6.75171e-06
6.95025e-07 -1.42892e-06 -1.51456e-06
6.75171e-06 -1.51456e-06 -8.79359e-05
0.00155575 -1.57401e-05 6.15124e-06
-1.57401e-05 0.000188239 -1.13387e-06
6.15124e-06 -1.13387e-06 0.00011162
0.00185605 -2.82585e-06 1.96417e-06
-2.82585e-06 0.000249462 -5.23244e-07
1.96417e-06 -5.23244e-07 0.000156402
0.00123539 -4.53378e-05 3.62042e-06
-4.53378e-05 -4.62831e-05 -7.06353e-07
3.62042e-06 -7.06353e-07 -0.000139969
0.00136527 -7.49307e-05 1.86049e-06
-7.49307e-05 0.000108534 -9.61758e-07
1.86049e-06 -9.61758e-07 1.96397e-05
0.00174047 -7.17088e-05 1.36743e-07
-7.17088e-05 0.000200932 -1.13566e-08
1.36743e-07 -1.13566e-08 0.000105365
0.000627007 5.04361e-05 2.87948e-06
5.04361e-05 -7.79112e-05 -4.16107e-06
2.87948e-06 -4.16107e-06 -0.000105181
0.00128589 -8.19717e-05 4.7058e-07
-8.19717e-05 6.7815e-05 -1.8762e-07
4.7058e-07 -1.8762e-07 -2.47673e-05
0.000761818 -1.08296e-05 2.10813e-06
-1.08296e-05 -1.84044e-05 -9.35797e-07
2.10813e-06 -9.35797e-07 -8.28777e-05
0.000699947 -6.25668e-05 1.6511e-06
-6.25668e-05 -8.00915e-05 -1.03176e-06
1.6511e-06 -1.03176e-06 -0.000163491
0.00159887 -0.00010493 5.43967e-07
-0.00010493 0.000316892 -3.10506e-08
5.43967e-07 -3.10506e-08 0.000220629
0.00144286 -9.5126e-05 -3.29955e-07
-9.5126e-05 0.000165667 1.13753e-06
-3.29955e-07 1.13753e-06 7.13271e-05
0.000877961 -2.40849e-07 2.32562e-06
-2.40849e-07 2.88088e-05 -2.10195e-06
2.32562e-06 -2.10195e-06 -2.90319e-05
0.000848498 2.71576e-05 1.07754e-06
2.71576e-05 5.91613e-06 -1.96169e-06
1.07754e-06 -1.96169e-06 -3.7369e-05
0.000916822 -2.75735e-05 8.24866e-07
-2.75735e-05 4.17175e-05 -7.497e-07
8.24866e-07 -7.497e-07 -3.16565e-05
0.000628827 4.48043e-05 -9.3875e-06
4.48043e-05 -9.73332e-05 -4.32967e-06
-9.3875e-06 -4.32967e-06 -0.00014465
0.00262191 -6.13277e-05 -3.32269e-05
-6.13277e-05 0.000963292 -3.42224e-06
-3.32269e-05 -3.42224e-06 0.000972154
0.00071649 -3.73296e-05 -3.50594e-06
-3.73296e-05 -4.55547e-05 -3.89639e-06
-3.50594e-06 -3.89639e-06 -6.22992e-05
0.000606672 2.76878e-05 -7.04663e-06
2.76878e-05 -7.43743e-05 -4.46422e-06
-7.04663e-06 -4.46422e-06 -0.000119416
0.000990662 6.18034e-05 -4.8137e-06
6.18034e-05 7.3977e-06 -2.02724e-06
-4.8137e-06 -2.02724e-06 -6.76349e-05
0.000619613 -4.96593e-05 -2.90501e-06
-4.96593e-05 -7.78045e-05 -4.40866e-06
-2.90501e-06 -4.40866e-06 -0.000105227
0.000786565 1.83991e-05 -2.36466e-06
1.83991e-05 -5.95289e-06 -1.92981e-06
-2.36466e-06 -1.92981e-06 -7.32183e-05
0.000869897 5.11844e-05 -3.29103e-06
5.11844e-05 8.76413e-06 -7.2615e-07
-3.29103e-06 -7.2615e-07 -5.98464e-05
0.000824529 6.75807e-05 -2.25229e-06
6.75807e-05 -2.86272e-05 3.56474e-08
-2.25229e-06 3.56474e-08 -0.000111837
0.000701287 -4.61141e-05 1.44486e-07
-4.61141e-05 -4.38952e-05 3.86339e-08
1.44486e-07 3.86339e-08 -6.61121e-05
0.000761366 -3.37817e-05 6.59355e-08
-3.37817e-05 -2.94855e-05 6.61107e-08
6.59355e-08 6.61107e-08 -4.22996e-05
0.000833962 -1.85036e-05 1.30856e-07
-1.85036e-05 4.30501e-06 8.07057e-08
1.30856e-07 8.07057e-08 -4.47193e-05
0.00108127 5.70741e-05 3.15398e-07
5.70741e-05 1.48732e-05 -7.22265e-08
3.15398e-07 -7.22265e-08 -6.27153e-05
0.000946215 6.02197e-05 1.95888e-07
6.02197e-05 2.26062e-05 1.28215e-07
1.95888e-07 1.28215e-07 -4.91377e-05
0.00119403 7.95305e-05 1.81696e-07
7.95305e-05 5.77683e-05 5.08536e-08
1.81696e-07 5.08536e-08 -3.33473e-05
0.000850232 1.3953e-05 -2.70792e-07
1.3953e-05 2.43322e-05 -6.49068e-10
-2.70792e-07 -6.49068e-10 -3.85559e-05
0.0010437 7.75864e-05 -7.80979e-08
7.75864e-05 6.19487e-05 -9.40823e-08
-7.80979e-08 -9.40823e-08 -2.05076e-05
0.00101867 7.04276e-05 1.94292e-07
7.04276e-05 9.36034e-05 -2.68678e-07
1.94292e-07 -2.68678e-07 9.46655e-06
0.000957754 8.12573e-05 -6.03008e-07
8.12573e-05 3.38827e-05 2.59498e-07
-6.03008e-07 2.59498e-07 -5.69127e-05
0.000797636 -3.02892e-05 2.94466e-06
-3.02892e-05 -1.84209e-05 3.5933e-06
2.94466e-06 3.5933e-06 -2.78204e-05
0.000830394 5.26162e-07 2.87535e-06
5.26162e-07 4.44678e-06 1.87486e-06
2.87535e-06 1.87486e-06 -5.14049e-05
0.000816789 -2.10482e-05 1.56884e-06
-2.10482e-05 -7.58613e-06 2.39203e-06
1.56884e-06 2.39203e-06 -4.9857e-05
0.000937888 1.93559e-05 1.21451e-06
1.93559e-05 5.49335e-05 8.7838e-07
1.21451e-06 8.7838e-07 -1.52353e-05
0.00128075 6.96517e-05 3.51845e-06
6.96517e-05 5.51802e-05 7.59982e-07
3.51845e-06 7.59982e-07 -3.74078e-05
0.00113727 8.19576e-05 2.17312e-06
8.19576e-05 7.71406e-05 9.13386e-07
2.17312e-06 9.13386e-07 -9.61439e-06
0.00128894 8.68296e-05 1.40049e-06
8.68296e-05 7.16118e-05 7.24354e-07
1.40049e-06 7.24354e-07 -2.67029e-05
0.00105638 5.02073e-05 1.86791e-06
5.02073e-05 0.000117614 9.10163e-07
1.86791e-06 9.10163e-07 3.79018e-05
0.00115022 8.7722e-05 3.56727e-07
8.7722e-05 9.82004e-05 -3.05843e-07
3.56727e-07 -3.05843e-07 9.36372e-06
0.00105007 8.39165e-05 1.08096e-06
8.39165e-05 0.000111215 -8.17227e-07
1.08096e-06 -8.17227e-07 1.44971e-05
0.000827077 7.7863e-05 5.89532e-07
7.7863e-05 -4.72373e-05 -1.02524e-06
5.89532e-07 -1.02524e-06 -0.000141489
0.000867637 -1.29381e-05 9.0543e-07
-1.29381e-05 3.8277e-06 1.77706e-06
9.0543e-07 1.77706e-06 -2.43351e-05
0.000807152 -2.30682e-05 2.06654e-06
-2.30682e-05 -2.5294e-05 3.4363e-06
2.06654e-06 3.4363e-06 -2.97249e-05
0.00223386 -3.86026e-05 2.32888e-05
-3.86026e-05 0.000734765 3.77385e-06
2.32888e-05 3.77385e-06 0.000752076
0.00228967 -4.38497e-05 6.76984e-07
-4.38497e-05 0.000770224 -7.13129e-08
6.76984e-07 -7.13129e-08 0.000785807
0.00235932 -4.92532e-05 -2.70301e-05
-4.92532e-05 0.000813221 -3.56421e-06
-2.70301e-05 -3.56421e-06 0.000826899
0.000742929 3.23143e-05 3.09354e-06
3.23143e-05 -4.18619e-05 -3.47578e-06
3.09354e-06 -3.47578e-06 -5.46519e-05
0.00253458 5.58629e-05 2.99365e-05
5.58629e-05 0.000908055 -3.45875e-06
2.99365e-05 -3.45875e-06 0.000919494
0.000735422 3.95381e-05 -2.61223e-07
3.95381e-05 -3.77465e-05 2.41406e-08
-2.61223e-07 2.41406e-08 -5.54112e-05
0.00268569 6.14511e-05 -4.45094e-07
6.14511e-05 0.000992254 -1.04479e-07
-4.45094e-07 -1.04479e-07 0.00100122
0.000653201 3.89239e-05 -1.00564e-05
3.89239e-05 -0.000103001 -3.50736e-06
-1.00564e-05 -3.50736e-06 -0.000149593
0.000724912 2.49493e-05 -1.09917e-05
2.49493e-05 -9.14046e-05 -1.7854e-06
-1.09917e-05 -1.7854e-06 -0.000139684
0.00116632 3.97807e-05 -6.68376e-06
3.97807e-05 8.80413e-06 -1.60405e-06
-6.68376e-06 -1.60405e-06 -7.16758e-05
0.00122643 1.6553e-05 -6.68436e-06
1.6553e-05 1.19395e-06 -1.09108e-06
-6.68436e-06 -1.09108e-06 -8.21117e-05
0.000752414 5.4709e-06 -1.17755e-05
5.4709e-06 -0.000104755 -7.13678e-07
-1.17755e-05 -7.13678e-07 -0.000158886
0.00501956 -1.96237e-07 -8.96562e-05
-1.96237e-07 0.00222127 6.72e-07
-8.96562e-05 6.72e-07 0.00221447
0.000775207 -1.19999e-08 5.71382e-08
-1.19999e-08 -0.000101264 -3.80053e-07
5.71382e-08 -3.80053e-07 -0.000156628
0.00128005 9.20744e-06 5.01355e-08
9.20744e-06 5.71959e-06 -2.58408e-07
5.01355e-08 -2.58408e-07 -8.09583e-05
0.00120253 2.47532e-05 -2.45751e-08
2.47532e-05 8.4972e-06 -2.02765e-08
-2.45751e-08 -2.02765e-08 -7.24919e-05
0.00149692 1.26454e-05 9.17402e-08
1.26454e-05 6.38449e-05 8.52754e-08
9.17402e-08 8.52754e-08 -3.23035e-05
0.00113808 4.94023e-05 2.24934e-07
4.94023e-05 1.49882e-05 -8.04093e-08
2.24934e-07 -8.04093e-08 -6.43723e-05
0.00141763 4.61692e-05 3.91888e-08
4.61692e-05 6.41167e-05 -8.83904e-08
3.91888e-08 -8.83904e-08 -2.87692e-05
0.00129962 1.22665e-06 6.97815e-06
1.22665e-06 5.74072e-06 -7.73832e-07
6.97815e-06 -7.73832e-07 -8.21897e-05
0.00153413 1.18925e-05 3.05888e-06
1.18925e-05 5.86176e-05 6.31495e-07
3.05888e-06 6.31495e-07 -4.1604e-05
0.00145442 2.83042e-05 3.01196e-06
2.83042e-05 6.18919e-05 4.65268e-07
3.01196e-06 4.65268e-07 -3.15247e-05
0.00160585 8.23072e-06 8.90382e-07
8.23072e-06 8.37055e-05 5.38041e-07
8.90382e-07 5.38041e-07 -1.40441e-05
0.00134407 5.86673e-05 2.85457e-06
5.86673e-05 5.32269e-05 2.71517e-07
2.85457e-06 2.71517e-07 -3.96332e-05
0.00151751 4.79952e-05 8.11693e-07
4.79952e-05 7.17927e-05 -2.89157e-07
8.11693e-07 -2.89157e-07 -2.28977e-05
0.000779461 8.70483e-06 -1.15275e-05
8.70483e-06 -9.29627e-05 1.07764e-06
-1.15275e-05 1.07764e-06 -0.000146993
0.00158728 3.78944e-06 -4.12499e-05
3.78944e-06 0.000352096 1.7494e-06
-4.12499e-05 1.7494e-06 0.000308682
0.000880072 1.25565e-06 -7.35833e-06
1.25565e-06 -0.00017986 1.56282e-06
-7.35833e-06 1.56282e-06 -0.00026417
0.00195164 -4.61454e-05 -1.06284e-05
-4.61454e-05 0.000405976 1.9935e-06
-1.06284e-05 1.9935e-06 0.000330683
0.0027313 6.72224e-05 -3.68011e-05
6.72224e-05 0.00102431 3.41116e-06
-3.68011e-05 3.41116e-06 0.0010305
0.00159707 4.16356e-05 -1.84126e-05
4.16356e-05 0.000434896 2.92631e-06
-1.84126e-05 2.92631e-06 0.000408594
0.00145644 -4.43618e-05 -4.3287e-06
-4.43618e-05 0.00033456 1.40754e-06
-4.3287e-06 1.40754e-06 0.000269949
0.00140253 -6.11652e-05 -8.2103e-06
-6.11652e-05 0.000186824 2.73794e-06
-8.2103e-06 2.73794e-06 0.000112125
0.00118482 -6.06598e-05 -3.95973e-06
-6.06598e-05 -4.23027e-05 1.41867e-06
-3.95973e-06 1.41867e-06 -0.000136763
0.00158436 -8.26209e-05 -2.45659e-06
-8.26209e-05 0.000259231 8.71168e-07
-2.45659e-06 8.71168e-07 0.000173325
0.000815471 -6.86105e-05 -1.66137e-06
-6.86105e-05 -5.28469e-05 4.67257e-07
-1.66137e-06 4.67257e-07 -0.000139861
0.00120902 -8.44937e-05 -3.24578e-07
-8.44937e-05 7.27558e-05 -1.11732e-07
-3.24578e-07 -1.11732e-07 -2.01783e-05
0.000723246 4.81793e-05 -2.58544e-06
4.81793e-05 -3.39102e-05 4.06316e-06
-2.58544e-06 4.06316e-06 -5.7157e-05
0.000810671 1.65693e-05 -2.11749e-06
1.65693e-05 -1.13475e-05 1.96079e-06
-2.11749e-06 1.96079e-06 -6.16617e-05
0.00110373 4.21128e-06 -2.79993e-07
4.21128e-06 -8.64167e-05 -1.26737e-07
-2.79993e-07 -1.26737e-07 -0.000173755
0.0015892 -1.83529e-05 -2.02264e-06
-1.83529e-05 0.000204897 2.4404e-07
-2.02264e-06 2.4404e-07 0.000128176
0.00176048 -3.67703e-07 -1.52423e-06
-3.67703e-07 0.000198116 3.16846e-07
-1.52423e-06 3.16846e-07 0.00010442
0.00152263 -4.87006e-05 7.51692e-07
-4.87006e-05 0.000103737 -3.92739e-07
7.51692e-07 -3.92739e-07 1.13661e-05
0.000678706 5.18705e-05 -6.21101e-08
5.18705e-05 -5.02318e-05 4.04315e-08
-6.21101e-08 4.04315e-08 -7.79252e-05
0.000844713 -2.02121e-05 2.8624e-08
-2.02121e-05 2.25934e-05 -1.16227e-07
2.8624e-08 -1.16227e-07 -4.16295e-05
0.000799036 -6.61891e-05 6.48264e-07
-6.61891e-05 -2.85538e-05 -4.48431e-07
6.48264e-07 -4.48431e-07 -0.000111123
0.00153469 -7.80229e-05 -6.20356e-07
-7.80229e-05 0.000193163 8.91092e-08
-6.20356e-07 8.91092e-08 0.000104121
0.00156255 -6.71879e-05 -4.54068e-07
-6.71879e-05 0.000108105 5.93231e-07
-4.54068e-07 5.93231e-07 1.26619e-05
0.0013353 -9.54517e-05 -8.50754e-07
-9.54517e-05 0.00018305 2.93836e-07
-8.50754e-07 2.93836e-07 8.60514e-05
0.00129485 -8.17867e-05 5.80993e-08
-8.17867e-05 7.17939e-05 2.37566e-07
5.80993e-08 2.37566e-07 -2.06921e-05
0.00128692 -8.98962e-05 3.48934e-07
-8.98962e-05 8.7646e-05 4.65894e-07
3.48934e-07 4.65894e-07 -6.63002e-06
0.000850178 -1.69033e-07 -2.39494e-07
-1.69033e-07 1.30699e-05 -5.82571e-08
-2.39494e-07 -5.82571e-08 -4.43991e-05
0.000889589 -1.58067e-05 -3.06826e-07
-1.58067e-05 2.49494e-05 -2.22284e-07
-3.06826e-07 -2.22284e-07 -4.6928e-05
0.000833565 2.55147e-05 -6.79272e-08
2.55147e-05 -1.87075e-06 1.79292e-07
-6.79272e-08 1.79292e-07 -4.51934e-05
0.00187898 8.99818e-06 2.04263e-06
8.99818e-06 0.000240499 -7.43888e-07
2.04263e-06 -7.43888e-07 0.000143464
0.00163629 -2.12717e-05 2.79272e-06
-2.12717e-05 0.000148741 -3.64632e-07
2.79272e-06 -3.64632e-07 5.75093e-05
0.00179008 1.93545e-06 7.18158e-07
1.93545e-06 0.000173939 -1.18591e-07
7.18158e-07 -1.18591e-07 7.47867e-05
0.0015795 -4.28899e-05 9.8073e-07
-4.28899e-05 8.36169e-05 -4.39408e-07
9.8073e-07 -4.39408e-07 -1.16265e-05
0.00116346 -7.46425e-05 7.4207e-07
-7.46425e-05 -3.99865e-05 -9.31062e-07
7.4207e-07 -9.31062e-07 -0.00013374
0.0016884 -6.60066e-05 -1.87227e-06
-6.60066e-05 0.000143895 7.74041e-07
-1.87227e-06 7.74041e-07 5.32265e-05
0.000846266 -1.0733e-05 2.63412e-06
-1.0733e-05 2.04231e-05 -1.46492e-06
2.63412e-06 -1.46492e-06 -4.2216e-05
0.00131169 -8.53638e-05 -8.99913e-07
-8.53638e-05 5.6485e-05 2.74428e-08
-8.99913e-07 2.74428e-08 -3.56585e-05
0.000950974 -6.69298e-05 1.04908e-06
-6.69298e-05 5.80346e-05 2.88182e-07
1.04908e-06 2.88182e-07 -1.97891e-05
0.000791866 -7.66075e-05 1.23205e-06
-7.66075e-05 -4.49176e-05 -1.44875e-06
1.23205e-06 -1.44875e-06 -0.00013973
0.00145728 -0.000104227 1.18961e-06
-0.000104227 0.000222914 6.12466e-07
1.18961e-06 6.12466e-07 0.000119806
0.00173145 -0.000104937 -1.82291e-06
-0.000104937 0.000297881 2.284e-06
-1.82291e-06 2.284e-06 0.000206071
0.000849658 2.62721e-05 1.25361e-06
2.62721e-05 1.51492e-06 -1.68603e-06
1.25361e-06 -1.68603e-06 -3.60279e-05
0.000947993 -3.79732e-05 1.36973e-06
-3.79732e-05 5.35741e-05 3.93901e-08
1.36973e-06 3.93901e-08 -2.02603e-05
0.000808849 -9.34706e-06 1.00199e-06
-9.34706e-06 -1.66725e-05 -1.46203e-06
1.00199e-06 -1.46203e-06 -8.47772e-05
0.00104517 -6.93671e-05 8.67301e-08
-6.93671e-05 0.000112873 9.49018e-07
8.67301e-08 9.49018e-07 3.01439e-05
0.00107865 5.80384e-05 -5.91569e-06
5.80384e-05 1.43485e-05 -2.14437e-06
-5.91569e-06 -2.14437e-06 -6.32695e-05
0.00073883 -3.2441e-05 -3.23374e-06
-3.2441e-05 -4.12818e-05 -3.66192e-06
-3.23374e-06 -3.66192e-06 -5.37743e-05
0.000677361 -4.39059e-05 -3.54296e-06
-4.39059e-05 -5.78268e-05 -4.13322e-06
-3.54296e-06 -4.13322e-06 -7.94207e-05
0.0008464 -2.4721e-05 -1.52873e-06
-2.4721e-05 1.10187e-05 -2.50857e-06
-1.52873e-06 -2.50857e-06 -3.80832e-05
0.000907181 5.86564e-05 -3.55046e-06
5.86564e-05 3.39064e-06 -1.44979e-06
-3.55046e-06 -1.44979e-06 -6.8088e-05
0.0011795 7.95902e-05 -2.74962e-06
7.95902e-05 5.10381e-05 -8.56783e-07
-2.74962e-06 -8.56783e-07 -4.01484e-05
0.000833825 1.03434e-05 -2.67107e-06
1.03434e-05 1.82897e-05 -1.94177e-06
-2.67107e-06 -1.94177e-06 -4.48464e-05
0.000989376 6.92417e-05 -2.0023e-06
6.92417e-05 7.87778e-05 -9.48775e-07
-2.0023e-06 -9.48775e-07 -5.32374e-06
0.00114822 8.15611e-05 -1.6494e-06
8.15611e-05 0.000116136 -9.07553e-08
-1.6494e-06 -9.07553e-08 3.38773e-05
0.000849642 7.76791e-05 -2.08966e-06
7.76791e-05 -2.13351e-05 7.40145e-07
-2.08966e-06 7.40145e-07 -0.000112542
0.000776748 -2.94865e-05 1.10651e-07
-2.94865e-05 -2.89902e-05 3.31645e-08
1.10651e-07 3.31645e-08 -3.8239e-05
0.000845223 4.29542e-06 1.28646e-08
4.29542e-06 1.42757e-05 -3.41117e-08
1.28646e-08 -3.41117e-08 -4.23463e-05
0.000832092 -2.50276e-05 -2.91575e-08
-2.50276e-05 1.84484e-07 1.56912e-07
-2.91575e-08 1.56912e-07 -4.20406e-05
0.000943716 1.44533e-05 2.06627e-07
1.44533e-05 5.7674e-05 -2.04095e-07
2.06627e-07 -2.04095e-07 -1.22206e-05
0.00128024 7.01763e-05 6.73163e-07
7.01763e-05 5.51695e-05 2.95811e-07
6.73163e-07 2.95811e-07 -3.75854e-05
0.00110654 8.14209e-05 7.93457e-08
8.14209e-05 6.27652e-05 4.51162e-08
7.93457e-08 4.51162e-08 -2.3967e-05
0.00128576 8.68387e-05 4.58771e-08
8.68387e-05 7.00643e-05 2.27721e-07
4.58771e-08 2.27721e-07 -2.82113e-05
0.00100229 5.11588e-05 1.48853e-07
5.11588e-05 9.06912e-05 1.64838e-07
1.48853e-07 1.64838e-07 1.14046e-05
0.00128314 9.24807e-05 -4.30818e-07
9.24807e-05 0.000167075 -7.0443e-07
-4.30818e-07 -7.0443e-07 7.84133e-05
0.00106711 8.49472e-05 2.15132e-07
8.49472e-05 0.000119316 -5.59684e-07
2.15132e-07 -5.59684e-07 2.21908e-05
0.000922156 8.1398e-05 -1.53415e-06
8.1398e-05 4.98699e-06 3.00312e-08
-1.53415e-06 3.00312e-08 -8.79119e-05
0.000808266 -2.65371e-05 2.52057e-06
-2.65371e-05 -1.92657e-05 3.48747e-06
2.52057e-06 3.48747e-06 -2.5889e-05
0.000832341 -2.42852e-05 1.25843e-06
-2.42852e-05 -4.04973e-06 2.19732e-06
1.25843e-06 2.19732e-06 -4.09264e-05
0.00100861 2.92496e-05 1.57204e-06
2.92496e-05 8.947e-05 5.83563e-07
1.57204e-06 5.83563e-07 1.53494e-05
0.000915624 2.70794e-06 8.76342e-07
2.70794e-06 4.0601e-05 1.39741e-06
8.76342e-07 1.39741e-06 -2.2761e-05
0.00098425 5.66115e-05 1.12058e-06
5.66115e-05 8.49701e-05 3.30392e-08
1.12058e-06 3.30392e-08 2.4407e-06
0.00137614 7.33659e-05 1.94457e-06
7.33659e-05 6.47509e-05 3.27802e-07
1.94457e-06 3.27802e-07 -3.33491e-05
0.00118023 8.94179e-05 8.49744e-07
8.94179e-05 7.37233e-05 9.46338e-07
8.49744e-07 9.46338e-07 -2.00566e-05
0.00136807 9.25099e-05 -1.33306e-07
9.25099e-05 9.31271e-05 4.59645e-07
-1.33306e-07 4.59645e-07 -7.44561e-06
0.001093 8.17876e-05 2.28734e-06
8.17876e-05 0.000144013 1.83982e-06
2.28734e-06 1.83982e-06 4.96622e-05
0.00117165 9.24959e-05 1.69696e-06
9.24959e-05 9.62185e-05 -2.07617e-07
1.69696e-06 -2.07617e-07 3.76507e-06
0.000614811 7.07422e-05 1.73399e-06
7.07422e-05 -0.000125794 -1.31011e-06
1.73399e-06 -1.31011e-06 -0.000232178
0.000859448 -1.65587e-05 1.0457e-06
-1.65587e-05 2.7621e-06 1.91706e-06
1.0457e-06 1.91706e-06 -2.7628e-05
0.000894459 7.41797e-06 3.29951e-07
7.41797e-06 2.5688e-05 9.32962e-07
3.29951e-07 9.32962e-07 -2.01777e-05
0.000879416 -8.50565e-06 7.18174e-07
-8.50565e-06 7.2754e-06 1.7286e-06
7.18174e-07 1.7286e-06 -1.91254e-05
0.000868859 -1.11326e-05 1.2547e-07
-1.11326e-05 5.13351e-06 3.64438e-09
1.2547e-07 3.64438e-09 -2.31452e-05
0.00136211 -2.47732e-05 2.13756e-06
-2.47732e-05 0.000261385 2.06204e-06
2.13756e-06 2.06204e-06 0.000261999
0.00108159 -2.52963e-05 7.71129e-07
-2.52963e-05 0.000119109 -1.98727e-08
7.71129e-07 -1.98727e-08 0.000116305
0.0010581 -2.3233e-05 1.9242e-05
-2.3233e-05 0.000109066 6.44297e-06
1.9242e-05 6.44297e-06 0.000122314
0.00222952 -3.87731e-05 8.19067e-07
-3.87731e-05 0.000731513 -6.48945e-08
8.19067e-07 -6.48945e-08 0.000749029
0.00228046 -4.39637e-05 -2.42803e-05
-4.39637e-05 0.000764421 -3.64156e-06
-2.42803e-05 -3.64156e-06 0.000780251
0.000761123 2.91317e-05 2.67038e-06
2.91317e-05 -3.92678e-05 -3.32969e-06
2.67038e-06 -3.32969e-06 -4.87804e-05
0.00240378 5.01671e-05 2.67522e-05
5.01671e-05 0.000833627 -3.51572e-06
2.67522e-05 -3.51572e-06 0.000847366
0.000763247 3.35651e-05 -7.4143e-08
3.35651e-05 -3.12286e-05 7.1149e-08
-7.4143e-08 7.1149e-08 -4.43344e-05
0.00255908 5.54947e-05 -6.09591e-07
5.54947e-05 0.000921109 -9.5569e-08
-6.09591e-07 -9.5569e-08 0.00093232
0.000755024 4.20735e-05 -2.67513e-06
4.20735e-05 -2.64797e-05 3.99441e-06
-2.67513e-06 3.99441e-06 -4.47718e-05
0.00268889 6.13088e-05 -3.54599e-05
6.13088e-05 0.000994413 3.50343e-06
-3.54599e-05 3.50343e-06 0.00100315
0.00114441 5.10217e-05 -6.53651e-06
5.10217e-05 1.93129e-05 -1.95521e-06
-6.53651e-06 -1.95521e-06 -6.02181e-05
0.00119491 2.76198e-05 -6.65845e-06
2.76198e-05 5.22809e-06 -1.08754e-06
-6.65845e-06 -1.08754e-06 -7.59134e-05
0.00142043 4.44006e-05 -2.96005e-06
4.44006e-05 6.56711e-05 -3.70955e-07
-2.96005e-06 -3.70955e-07 -2.72171e-05
0.00151656 1.2399e-05 -2.98514e-06
1.2399e-05 7.37983e-05 -6.76981e-07
-2.98514e-06 -6.76981e-07 -2.23426e-05
0.00127384 1.17078e-05 -6.94631e-06
1.17078e-05 2.86988e-06 -1.06813e-06
-6.94631e-06 -1.06813e-06 -8.37966e-05
0.000778499 3.15197e-06 -1.18796e-05
3.15197e-06 -9.95595e-05 1.2787e-07
-1.18796e-05 1.2787e-07 -0.000154958
0.00129628 3.04885e-06 1.59714e-08
3.04885e-06 3.90972e-06 -3.9751e-07
1.59714e-08 -3.9751e-07 -8.40788e-05
0.00154297 1.35369e-05 1.998e-08
1.35369e-05 6.33085e-05 -1.68894e-07
1.998e-08 -1.68894e-07 -3.6883e-05
0.0014571 2.506e-05 9.3799e-08
2.506e-05 6.35845e-05 6.86763e-08
9.3799e-08 6.86763e-08 -2.97621e-05
0.00159358 7.47618e-06 -3.92379e-08
7.47618e-06 7.50658e-05 1.30956e-07
-3.92379e-08 1.30956e-07 -2.31007e-05
0.00135712 5.91792e-05 -5.31759e-08
5.91792e-05 5.96088e-05 -3.05151e-08
-5.31759e-08 -3.05151e-08 -3.33462e-05
0.00153245 4.76873e-05 -1.13643e-08
4.76873e-05 7.95954e-05 3.82377e-08
-1.13643e-08 3.82377e-08 -1.512e-05
0.00155907 8.18863e-06 3.38637e-06
8.18863e-06 6.03094e-05 -8.29696e-07
3.38637e-06 -8.29696e-07 -4.13386e-05
0.00158841 9.60976e-06 6.7863e-07
9.60976e-06 5.36465e-05 1.19079e-06
6.7863e-07 1.19079e-06 -4.92258e-05
0.00155145 2.77335e-05 9.82419e-07
2.77335e-05 6.7786e-05 4.71531e-08
9.82419e-07 4.71531e-08 -2.74982e-05
0.00176765 1.61092e-06 2.11731e-07
1.61092e-06 0.000144575 6.3082e-08
2.11731e-07 6.3082e-08 4.80359e-05
0.00145562 5.89614e-05 6.19374e-07
5.89614e-05 6.89002e-05 -5.67939e-07
6.19374e-07 -5.67939e-07 -2.70422e-05
0.00158751 3.79677e-05 -1.83912e-06
3.79677e-05 7.87904e-05 -2.12159e-08
-1.83912e-06 -2.12159e-08 -8.92854e-06
0.000938288 5.66812e-06 -6.78926e-06
5.66812e-06 -0.000170906 1.07089e-06
-6.78926e-06 1.07089e-06 -0.00025911
0.00161428 -2.29123e-05 -1.03487e-05
-2.29123e-05 0.000216906 1.45716e-06
-1.03487e-05 1.45716e-06 0.000140185
0.00166345 5.93176e-06 -4.72657e-06
5.93176e-06 0.000146284 1.23923e-06
-4.72657e-06 1.23923e-06 5.1948e-05
0.00181232 -5.21989e-05 -3.12363e-06
-5.21989e-05 0.000255047 1.75023e-07
-3.12363e-06 1.75023e-07 0.000163979
0.00071921 4.53652e-05 -3.4654e-06
4.53652e-05 -2.97389e-05 3.83122e-06
-3.4654e-06 3.83122e-06 -5.69063e-05
0.000898861 -2.15906e-05 -2.65387e-06
-2.15906e-05 4.99185e-05 1.15022e-06
-2.65387e-06 1.15022e-06 -1.4667e-05
0.000911069 -7.04472e-05 -6.59214e-07
-7.04472e-05 2.92398e-05 6.04236e-08
-6.59214e-07 6.04236e-08 -5.2517e-05
0.00170988 -8.12432e-05 -3.43941e-06
-8.12432e-05 0.000280805 1.35464e-06
-3.43941e-06 1.35464e-06 0.000191597
0.00138598 -6.2642e-05 -1.10318e-06
-6.2642e-05 1.59085e-05 8.63553e-07
-1.10318e-06 8.63553e-07 -7.94005e-05
0.00130097 -8.15378e-05 -3.7452e-07
-8.15378e-05 7.43802e-05 6.74828e-07
-3.7452e-07 6.74828e-07 -1.80112e-05
0.00107118 -8.59824e-05 -1.23094e-06
-8.59824e-05 4.89179e-05 5.95619e-07
-1.23094e-06 5.95619e-07 -4.88155e-05
0.00112202 -8.43451e-05 1.21901e-06
-8.43451e-05 5.12881e-06 -7.15795e-07
1.21901e-06 -7.15795e-07 -8.90633e-05
0.000824975 -6.65912e-07 -2.7737e-06
-6.65912e-07 -1.27886e-06 1.61182e-06
-2.7737e-06 1.61182e-06 -5.8375e-05
0.000868297 -1.27895e-05 -1.33287e-06
-1.27895e-05 1.29857e-05 2.57491e-07
-1.33287e-06 2.57491e-07 -5.85486e-05
0.000817918 2.44775e-05 -1.28472e-06
2.44775e-05 -9.92006e-06 2.06182e-06
-1.28472e-06 2.06182e-06 -5.33322e-05
0.00172609 9.46848e-06 -1.56229e-06
9.46848e-06 0.000158887 3.48623e-07
-1.56229e-06 3.48623e-07 6.04222e-05
0.00163387 -2.64069e-05 -6.97438e-07
-2.64069e-05 0.000146274 8.77513e-08
-6.97438e-07 8.77513e-08 5.51639e-05
0.00166546 4.53945e-06 -6.36988e-07
4.53945e-06 0.000108637 4.66176e-07
-6.36988e-07 4.66176e-07 9.08379e-06
0.00167247 -4.14444e-05 9.91099e-08
-4.14444e-05 0.000131839 -3.88607e-07
9.91099e-08 -3.88607e-07 3.68631e-05
0.000850048 -1.31346e-05 1.56216e-07
-1.31346e-05 2.00658e-05 -1.74342e-07
1.56216e-07 -1.74342e-07 -4.21243e-05
0.001017 -6.98366e-05 -7.68509e-08
-6.98366e-05 9.00843e-05 2.01103e-07
-7.68509e-08 2.01103e-07 1.20353e-05
0.000873555 -7.8926e-05 4.80941e-07
-7.8926e-05 -6.13473e-07 -6.5693e-07
4.80941e-07 -6.5693e-07 -9.44223e-05
0.00138394 -7.9132e-05 7.85628e-08
-7.9132e-05 7.43696e-05 -4.8505e-07
7.85628e-08 -4.8505e-07 -1.92669e-05
0.0015884 -6.40676e-05 3.95001e-07
-6.40676e-05 9.05734e-05 1.14092e-06
3.95001e-07 1.14092e-06 1.26911e-06
0.00122321 -9.63071e-05 3.44679e-08
-9.63071e-05 0.000106759 1.25519e-07
3.44679e-08 1.25519e-07 2.68568e-06
0.00132365 -8.46568e-05 -2.93537e-08
-8.46568e-05 6.2035e-05 3.91462e-07
-2.93537e-08 3.91462e-07 -2.98753e-05
0.00153742 -9.87727e-05 5.96944e-07
-9.87727e-05 0.000199278 4.59891e-07
5.96944e-07 4.59891e-07 0.000108272
0.000977231 -4.09663e-05 -1.00357e-07
-4.09663e-05 6.93172e-05 -1.79018e-07
-1.00357e-07 -1.79018e-07 -4.81517e-06
0.00101021 -7.12742e-05 -3.11692e-07
-7.12742e-05 9.45446e-05 3.38381e-07
-3.11692e-07 3.38381e-07 1.07872e-05
0.000840105 2.6613e-05 -1.32598e-08
2.6613e-05 -2.83424e-06 8.68844e-08
-1.32598e-08 8.68844e-08 -4.05702e-05
0.000825302 3.14735e-06 1.24773e-08
3.14735e-06 -1.07446e-05 -5.39025e-07
1.24773e-08 -5.39025e-07 -7.6622e-05
0.00167034 8.38829e-06 1.29558e-06
8.38829e-06 9.43226e-05 -9.07588e-07
1.29558e-06 -9.07588e-07 -9.38992e-06
0.00172525 -1.86726e-05 1.0562e-06
-1.86726e-05 0.000147672 3.28673e-07
1.0562e-06 3.28673e-07 5.18517e-05
0.00170229 6.75894e-06 1.90296e-07
6.75894e-06 0.00010702 8.03313e-08
1.90296e-07 8.03313e-08 6.60869e-06
0.00161283 -3.50965e-05 -1.15753e-06
-3.50965e-05 7.26601e-05 -1.07744e-06
-1.15753e-06 -1.07744e-06 -1.97969e-05
0.00132617 -7.84245e-05 -1.55349e-06
-7.84245e-05 1.20379e-05 2.42192e-08
-1.55349e-06 2.42192e-08 -7.82708e-05
0.00176072 -6.35499e-05 4.051e-07
-6.35499e-05 0.000149376 1.20611e-07
4.051e-07 1.20611e-07 6.61153e-05
0.000954352 -6.36743e-05 1.26382e-06
-6.36743e-05 6.00291e-05 5.03074e-07
1.26382e-06 5.03074e-07 -1.55138e-05
0.00133202 -8.57988e-05 -2.61629e-06
-8.57988e-05 5.07828e-05 9.55328e-07
-2.61629e-06 9.55328e-07 -3.38024e-05
0.000766997 -7.18829e-05 4.77001e-08
-7.18829e-05 -3.61193e-05 -3.30741e-07
4.77001e-08 -3.30741e-07 -0.000123896
0.00108906 -9.20256e-05 1.38051e-06
-9.20256e-05 9.38654e-05 -1.187e-06
1.38051e-06 -1.187e-06 -1.12043e-05
0.00129466 -0.000103226 1.11514e-06
-0.000103226 0.000124618 2.14783e-06
1.11514e-06 2.14783e-06 1.5811e-05
0.00183092 -0.000107771 -6.50954e-07
-0.000107771 0.000335298 1.6975e-06
-6.50954e-07 1.6975e-06 0.000243646
0.000852785 1.90311e-05 1.43725e-06
1.90311e-05 4.38134e-07 -1.60481e-06
1.43725e-06 -1.60481e-06 -3.38824e-05
0.000767857 -4.15664e-07 6.72555e-07
-4.15664e-07 -4.12123e-05 -1.48598e-06
6.72555e-07 -1.48598e-06 -0.000102205
0.000997197 -7.68061e-05 4.34261e-07
-7.68061e-05 8.3015e-05 1.19676e-06
4.34261e-07 1.19676e-06 -9.4717e-08
0.000998341 -5.74893e-05 9.53944e-07
-5.74893e-05 8.9335e-05 7.25807e-08
9.53944e-07 7.25807e-08 9.28698e-06
0.00103563 -7.90195e-05 -1.33057e-07
-7.90195e-05 0.000107906 1.90554e-06
-1.33057e-07 1.90554e-06 2.10503e-05
0.000756013 -2.87602e-05 -2.78582e-06
-2.87602e-05 -3.94934e-05 -3.54559e-06
-2.78582e-06 -3.54559e-06 -4.85945e-05
0.0012918 7.10139e-05 -2.36823e-06
7.10139e-05 6.1211e-05 -2.15983e-07
-2.36823e-06 -2.15983e-07 -3.17232e-05
0.000843993 -2.81768e-05 -1.24822e-06
-2.81768e-05 6.26338e-06 -2.2847e-06
-1.24822e-06 -2.2847e-06 -3.59627e-05
0.000878167 -1.76785e-06 -2.18945e-06
-1.76785e-06 3.22904e-05 -2.22297e-06
-2.18945e-06 -2.22297e-06 -2.42034e-05
0.00094573 1.08624e-05 -7.64327e-07
1.08624e-05 5.85052e-05 -1.18734e-06
-7.64327e-07 -1.18734e-06 -1.11729e-05
0.00106913 8.07122e-05 -2.21086e-06
8.07122e-05 4.50822e-05 -9.07287e-07
-2.21086e-06 -9.07287e-07 -4.16267e-05
0.00128228 8.68278e-05 -1.25328e-06
8.68278e-05 6.83942e-05 -2.69382e-07
-1.25328e-06 -2.69382e-07 -2.98462e-05
0.000956723 6.19998e-05 -1.63677e-06
6.19998e-05 6.94303e-05 -5.10589e-07
-1.63677e-06 -5.10589e-07 -1.0186e-05
0.00109447 8.63936e-05 -1.88213e-06
8.63936e-05 0.000132661 -8.84909e-07
-1.88213e-06 -8.84909e-07 3.50956e-05
0.0014156 9.72238e-05 -1.60775e-06
9.72238e-05 0.000235676 -7.95366e-07
-1.60775e-06 -7.95366e-07 0.000147194
0.00102044 8.50015e-05 -3.29599e-06
8.50015e-05 5.86734e-05 1.687e-06
-3.29599e-06 1.687e-06 -3.28523e-05
0.000787042 -2.59814e-05 1.12677e-07
-2.59814e-05 -3.00722e-05 2.8065e-08
1.12677e-07 2.8065e-08 -3.65837e-05
0.00083969 -2.48222e-05 -1.70131e-08
-2.48222e-05 -3.76723e-07 7.19869e-08
-1.70131e-08 7.19869e-08 -3.71425e-05
0.000975403 3.39079e-05 2.01591e-07
3.39079e-05 7.31817e-05 -8.4447e-08
2.01591e-07 -8.4447e-08 -1.0928e-06
0.000919192 -1.36414e-06 1.48068e-07
-1.36414e-06 4.21766e-05 1.7511e-08
1.48068e-07 1.7511e-08 -2.08256e-05
0.000943696 5.05921e-05 2.72988e-07
5.05921e-05 6.32537e-05 -2.63164e-07
2.72988e-07 -2.63164e-07 -1.90799e-05
0.00137966 7.38996e-05 8.16411e-07
7.38996e-05 6.64626e-05 5.8953e-07
8.16411e-07 5.8953e-07 -3.18204e-05
0.00118203 9.00121e-05 1.0279e-07
9.00121e-05 7.50367e-05 7.30106e-08
1.0279e-07 7.30106e-08 -1.87884e-05
0.00133351 9.26305e-05 8.80723e-07
9.26305e-05 7.56232e-05 4.82756e-07
8.80723e-07 4.82756e-07 -2.53676e-05
0.00103822 7.99932e-05 6.49241e-07
7.99932e-05 0.000117464 7.09156e-07
6.49241e-07 7.09156e-07 2.32438e-05
0.00126946 9.54322e-05 2.82707e-07
9.54322e-05 0.000146902 -6.17776e-07
2.82707e-07 -6.17776e-07 5.45823e-05
0.000907027 8.23695e-05 -1.16008e-06
8.23695e-05 2.11945e-05 -6.38688e-07
-1.16008e-06 -6.38688e-07 -8.48647e-05
0.000847381 -2.08556e-05 1.10409e-06
-2.08556e-05 3.66611e-08 2.04649e-06
1.10409e-06 2.04649e-06 -3.31059e-05
0.000903464 -9.91751e-06 4.88932e-07
-9.91751e-06 2.97042e-05 1.37116e-06
4.88932e-07 1.37116e-06 -2.60167e-05
0.00105023 7.61325e-05 8.11682e-07
7.61325e-05 0.000117036 -7.27908e-08
8.11682e-07 -7.27908e-08 2.91229e-05
0.000976339 2.67204e-05 6.92966e-07
2.67204e-05 7.82124e-05 6.30223e-07
6.92966e-07 6.30223e-07 2.29465e-06
0.00104057 5.38233e-05 4.82397e-07
5.38233e-05 0.000118828 -6.97476e-07
4.82397e-07 -6.97476e-07 2.95665e-05
0.0014127 7.33863e-05 -1.63883e-06
7.33863e-05 5.84079e-05 -1.06758e-06
-1.63883e-06 -1.06758e-06 -3.94033e-05
0.00121853 9.68086e-05 1.23099e-06
9.68086e-05 7.45637e-05 6.97153e-07
1.23099e-06 6.97153e-07 -2.22229e-05
0.00113442 9.54322e-05 -1.71221e-06
9.54322e-05 -2.68737e-05 -1.13337e-06
-1.71221e-06 -1.13337e-06 -0.000121501
0.000987379 8.25026e-05 1.05734e-06
8.25026e-05 9.67128e-05 2.12204e-06
1.05734e-06 2.12204e-06 -1.0195e-05
0.00120879 9.9817e-05 3.39948e-06
9.9817e-05 0.000131146 -6.66158e-07
3.39948e-06 -6.66158e-07 2.20545e-05
0.000859533 -1.52776e-05 7.96995e-08
-1.52776e-05 3.09507e-06 7.51273e-09
7.96995e-08 7.51273e-09 -2.72935e-05
0.00074376 -1.37959e-05 4.2307e-07
-1.37959e-05 -5.44164e-05 1.64798e-06
4.2307e-07 1.64798e-06 -0.00010281
0.000835085 -4.78867e-06 -5.58687e-07
-4.78867e-06 -6.11322e-06 1.15347e-08
-5.58687e-07 1.15347e-08 -5.23177e-05
0.00111794 1.26463e-05 7.30206e-07
1.26463e-05 0.000147459 2.5568e-07
7.30206e-07 2.5568e-07 9.02411e-05
0.00089119 5.2438e-06 1.26407e-06
5.2438e-06 2.38258e-05 9.52885e-07
1.26407e-06 9.52885e-07 -2.16477e-05
0.000890136 -2.64619e-06 6.45646e-07
-2.64619e-06 1.0294e-05 1.72659e-06
6.45646e-07 1.72659e-06 -1.49515e-05
0.000879087 -9.07929e-06 8.32195e-08
-9.07929e-06 7.44859e-06 1.97466e-08
8.32195e-08 1.97466e-08 -1.90379e-05
0.00134965 -2.0292e-05 1.58735e-06
-2.0292e-05 0.000249609 1.9897e-06
1.58735e-06 1.9897e-06 0.000252224
0.000871623 -9.87284e-06 -9.76704e-07
-9.87284e-06 7.18694e-06 -1.8341e-06
-9.76704e-07 -1.8341e-06 -2.12141e-05
0.00137566 -2.33226e-05 -3.36308e-06
-2.33226e-05 0.00026807 -1.19541e-06
-3.36308e-06 -1.19541e-06 0.000268966
0.00105759 -2.00171e-05 1.63089e-05
-2.00171e-05 0.000101992 6.28968e-06
1.63089e-05 6.28968e-06 0.000117148
0.00136564 -2.58203e-05 -8.50699e-06
-2.58203e-05 0.000268556 -3.23787e-06
-8.50699e-06 -3.23787e-06 0.000267533
0.00160123 -2.86826e-05 1.45302e-05
-2.86826e-05 0.000394926 2.15713e-06
1.45302e-05 2.15713e-06 0.000411164
0.00222604 -3.88776e-05 -2.14902e-05
-3.88776e-05 0.000728721 -3.70972e-06
-2.14902e-05 -3.70972e-06 0.000746447
0.000768268 2.64365e-05 2.26177e-06
2.64365e-05 -4.1047e-05 -3.26451e-06
2.26177e-06 -3.26451e-06 -4.81989e-05
0.000777434 2.9614e-05 -1.37881e-07
2.9614e-05 -3.0885e-05 3.17939e-08
-1.37881e-07 3.17939e-08 -4.05471e-05
0.00233019 4.50655e-05 2.38324e-05
4.50655e-05 0.000788288 -3.59337e-06
2.38324e-05 -3.59337e-06 0.000804005
0.00242986 5.00427e-05 -6.19989e-07
5.00427e-05 0.000847814 -7.56776e-08
-6.19989e-07 -7.56776e-08 0.000861273
0.00078116 3.51712e-05 -2.85575e-06
3.51712e-05 -2.18162e-05 3.70567e-06
-2.85575e-06 3.70567e-06 -3.52665e-05
0.00258201 5.52274e-05 -3.29713e-05
5.52274e-05 0.00093341 3.59091e-06
-3.29713e-05 3.59091e-06 0.000944375
0.00137089 5.98377e-05 -3.05138e-06
5.98377e-05 6.63663e-05 -3.50654e-07
-3.05138e-06 -3.50654e-07 -2.66964e-05
0.00146414 2.55256e-05 -2.97284e-06
2.55256e-05 6.73676e-05 -3.06027e-07
-2.97284e-06 -3.06027e-07 -2.60288e-05
0.00154707 4.85465e-05 -6.78692e-07
4.85465e-05 8.72222e-05 3.74574e-07
-6.78692e-07 3.74574e-07 -7.55221e-06
0.00157703 6.65429e-06 -8.09103e-07
6.65429e-06 6.43845e-05 -3.26819e-07
-8.09103e-07 -3.26819e-07 -3.42122e-05
0.00155644 1.69174e-05 -2.96901e-06
1.69174e-05 7.03099e-05 -9.41672e-07
-2.96901e-06 -9.41672e-07 -2.98843e-05
0.00130333 7.83277e-06 -6.95919e-06
7.83277e-06 7.14875e-06 -8.54546e-08
-6.95919e-06 -8.54546e-08 -8.0831e-05
0.00157057 1.26053e-05 6.88797e-08
1.26053e-05 6.61006e-05 -5.68272e-07
6.88797e-08 -5.68272e-07 -3.56181e-05
0.0015843 1.55696e-06 1.87361e-07
1.55696e-06 4.95239e-05 4.2532e-07
1.87361e-07 4.2532e-07 -5.42496e-05
0.00157532 2.70129e-05 3.25482e-08
2.70129e-05 8.00488e-05 5.41237e-08
3.25482e-08 5.41237e-08 -1.51241e-05
0.00172636 9.05626e-07 -3.33947e-08
9.05626e-07 0.000122022 -2.87106e-07
-3.33947e-08 -2.87106e-07 2.5755e-05
0.00146471 6.01713e-05 -8.30894e-08
6.01713e-05 7.32664e-05 1.77338e-08
-8.30894e-08 1.77338e-08 -2.29296e-05
0.00158805 3.8007e-05 -1.06993e-07
3.8007e-05 7.65509e-05 6.60711e-07
-1.06993e-07 6.60711e-07 -1.11146e-05
0.00162666 2.46056e-06 1.67976e-06
2.46056e-06 5.87738e-05 -4.85294e-07
1.67976e-06 -4.85294e-07 -4.77106e-05
0.00172977 9.33971e-06 -2.68002e-07
9.33971e-06 0.00010787 4.82397e-07
-2.68002e-07 4.82397e-07 4.1298e-06
0.00154973 1.83045e-05 -4.78123e-07
1.83045e-05 3.76579e-05 8.85628e-07
-4.78123e-07 8.85628e-07 -5.38836e-05
0.00178613 -4.15304e-06 -1.75432e-07
-4.15304e-06 0.000143126 -2.79364e-07
-1.75432e-07 -2.79364e-07 4.77618e-05
0.00142582 5.37821e-05 -1.38401e-06
5.37821e-05 2.20105e-05 -1.42768e-06
-1.38401e-06 -1.42768e-06 -6.94861e-05
0.00185881 3.11819e-05 -5.39044e-07
3.11819e-05 0.000189658 -5.32873e-07
-5.39044e-07 -5.32873e-07 0.000105888
0.00156469 9.23237e-06 -4.52968e-06
9.23237e-06 7.29236e-05 1.41204e-06
-4.52968e-06 1.41204e-06 -2.69596e-05
0.00162416 -2.82463e-05 -4.2166e-06
-2.82463e-05 0.000140338 4.58423e-07
-4.2166e-06 4.58423e-07 4.93468e-05
0.00155002 4.98844e-06 -1.79471e-06
4.98844e-06 4.78877e-05 7.62069e-07
-1.79471e-06 7.62069e-07 -5.20758e-05
0.00175784 -4.05762e-05 -1.36395e-06
-4.05762e-05 0.00017623 -2.47281e-07
-1.36395e-06 -2.47281e-07 8.15169e-05
0.000864564 -1.54588e-05 -2.73355e-06
-1.54588e-05 2.52324e-05 1.20881e-06
-2.73355e-06 1.20881e-06 -3.65522e-05
0.00108013 -7.26265e-05 -1.36976e-06
-7.26265e-05 0.000120868 1.59711e-07
-1.36976e-06 1.59711e-07 4.2571e-05
0.000946845 -8.07824e-05 -2.29781e-07
-8.07824e-05 3.96269e-05 9.10269e-08
-2.29781e-07 9.10269e-08 -5.3162e-05
0.00160899 -8.36676e-05 -7.26732e-07
-8.36676e-05 0.000191031 2.56069e-07
-7.26732e-07 2.56069e-07 9.75097e-05
0.00148759 -6.21509e-05 1.05126e-06
-6.21509e-05 3.68534e-05 5.80368e-07
1.05126e-06 5.80368e-07 -5.10794e-05
0.00133572 -8.40151e-05 1.45896e-06
-8.40151e-05 6.77048e-05 6.1616e-07
1.45896e-06 6.1616e-07 -2.39857e-05
0.000994888 -8.85887e-05 -8.08164e-07
-8.85887e-05 -6.56118e-06 -5.93027e-08
-8.08164e-07 -5.93027e-08 -0.000111608
0.00134499 -9.2626e-05 2.42099e-06
-9.2626e-05 0.000101228 -2.58648e-06
2.42099e-06 -2.58648e-06 1.10569e-05
0.000997138 -3.59256e-05 -1.39495e-06
-3.59256e-05 7.90825e-05 -2.88646e-07
-1.39495e-06 -2.88646e-07 5.36417e-06
0.000983102 -6.51532e-05 -9.65626e-07
-6.51532e-05 7.82932e-05 -5.98831e-07
-9.65626e-07 -5.98831e-07 -5.37328e-06
0.000828702 2.66567e-05 -1.1031e-06
2.66567e-05 -8.10885e-06 1.85729e-06
-1.1031e-06 1.85729e-06 -4.60369e-05
0.000848899 9.71947e-06 -3.38412e-07
9.71947e-06 2.13368e-07 4.1433e-07
-3.38412e-07 4.1433e-07 -6.44036e-05
0.00167453 8.92533e-06 -1.3896e-07
8.92533e-06 9.62899e-05 8.76203e-08
-1.3896e-07 8.76203e-08 -7.4611e-06
0.00175323 -1.62431e-05 -4.75818e-07
-1.62431e-05 0.000161691 1.03003e-07
-4.75818e-07 1.03003e-07 6.61783e-05
0.00167025 6.42902e-06 -8.36181e-07
6.42902e-06 9.21473e-05 6.19183e-07
-8.36181e-07 6.19183e-07 -7.52341e-06
0.00162487 -3.57201e-05 -1.44721e-07
-3.57201e-05 7.85463e-05 -4.2137e-07
-1.44721e-07 -4.2137e-07 -1.38779e-05
0.00100234 -5.55142e-05 -9.65265e-08
-5.55142e-05 8.25787e-05 2.49253e-08
-9.65265e-08 2.49253e-08 7.56966e-06
0.000828775 -7.34334e-05 4.25804e-07
-7.34334e-05 -4.21616e-06 -3.04971e-07
4.25804e-07 -3.04971e-07 -9.09359e-05
0.00109097 -9.17121e-05 8.3484e-08
-9.17121e-05 9.62379e-05 -2.07515e-07
8.3484e-08 -2.07515e-07 -9.05934e-06
0.00145473 -8.05853e-05 -7.71001e-07
-8.05853e-05 7.9023e-05 -3.91382e-07
-7.71001e-07 -3.91382e-07 -1.22126e-05
0.00160235 -6.22788e-05 1.0936e-07
-6.22788e-05 7.65232e-05 9.27578e-07
1.0936e-07 9.27578e-07 -3.4659e-06
0.00128902 -0.000102192 -1.79875e-07
-0.000102192 0.000122861 6.12335e-07
-1.79875e-07 6.12335e-07 1.32986e-05
0.00134767 -8.52469e-05 -5.74784e-09
-8.52469e-05 5.97309e-05 7.0307e-07
-5.74784e-09 7.0307e-07 -2.47006e-05
0.00152132 -9.85432e-05 9.62524e-07
-9.85432e-05 0.000176545 -1.54675e-06
9.62524e-07 -1.54675e-06 8.75156e-05
0.00103581 -7.82808e-05 6.77708e-08
-7.82808e-05 0.000102011 -3.50377e-08
6.77708e-08 -3.50377e-08 1.89318e-05
0.00103497 -7.88438e-05 4.85605e-08
-7.88438e-05 0.000106574 1.89061e-07
4.85605e-08 1.89061e-07 1.97201e-05
0.000994786 -4.57025e-05 -3.22728e-07
-4.57025e-05 8.63507e-05 3.2927e-08
-3.22728e-07 3.2927e-08 7.09475e-06
0.000727662 2.42365e-05 -2.34109e-07
2.42365e-05 -6.44057e-05 1.40638e-08
-2.34109e-07 1.40638e-08 -9.98325e-05
0.000804052 1.28076e-05 9.60132e-08
1.28076e-05 -2.50641e-05 -3.9168e-07
9.60132e-08 -3.9168e-07 -8.41411e-05
0.0016998 1.3497e-05 3.68073e-07
1.3497e-05 8.68573e-05 -7.55034e-07
3.68073e-07 -7.55034e-07 -1.85904e-05
0.00166731 -1.46735e-07 9.73688e-07
-1.46735e-07 8.12695e-05 -6.77965e-08
9.73688e-07 -6.77965e-08 -1.68921e-05
0.00165613 -4.04689e-05 5.85066e-07
-4.04689e-05 6.83954e-05 -1.90945e-06
5.85066e-07 -1.90945e-06 -1.95863e-05
0.00136511 -7.17368e-05 -1.48659e-07
-7.17368e-05 -6.27222e-06 -1.02511e-06
-1.48659e-07 -1.02511e-06 -8.68838e-05
0.000975365 -7.72026e-05 3.10586e-08
-7.72026e-05 7.23863e-05 1.20051e-06
3.10586e-08 1.20051e-06 -1.06336e-05
0.00179905 -9.8261e-05 -1.27974e-06
-9.8261e-05 0.000260347 1.56199e-06
-1.27974e-06 1.56199e-06 0.000182297
0.000505778 -6.36413e-05 -1.92886e-07
-6.36413e-05 -0.000165665 -1.42192e-06
-1.92886e-07 -1.42192e-06 -0.000259966
0.00117069 -0.000100662 2.63444e-06
-0.000100662 0.000117573 -1.14445e-06
2.63444e-06 -1.14445e-06 -1.11603e-06
0.00153446 -0.000112892 1.46578e-06
-0.000112892 0.000219039 2.39027e-06
1.46578e-06 2.39027e-06 0.000105436
0.000641235 1.7802e-05 1.12555e-06
1.7802e-05 -0.000112097 -2.18049e-06
1.12555e-06 -2.18049e-06 -0.00014601
0.00100029 -3.44806e-07 1.21184e-06
-3.44806e-07 7.89736e-05 -7.97729e-07
1.21184e-06 -7.97729e-07 2.45417e-05
0.00101255 -2.7563e-05 2.91943e-07
-2.7563e-05 9.07006e-05 -3.07152e-07
2.91943e-07 -3.07152e-07 2.02783e-05
0.0010151 -7.83412e-05 -2.65134e-07
-7.83412e-05 9.09265e-05 1.90921e-06
-2.65134e-07 1.90921e-06 6.54535e-06
0.00110164 -6.36392e-05 5.54271e-07
-6.36392e-05 0.000144803 1.41205e-06
5.54271e-07 1.41205e-06 5.70287e-05
0.000946494 -7.56879e-05 -6.93503e-08
-7.56879e-05 5.53417e-05 1.72765e-06
-6.93503e-08 1.72765e-06 -3.23945e-05
0.000766494 -2.54749e-05 -2.31199e-06
-2.54749e-05 -4.05266e-05 -3.49689e-06
-2.31199e-06 -3.49689e-06 -4.69295e-05
0.000848797 -2.50085e-05 -1.35271e-06
-2.50085e-05 4.2689e-06 -2.03087e-06
-1.35271e-06 -2.03087e-06 -3.24311e-05
0.00138571 7.45535e-05 -6.40387e-07
7.45535e-05 6.93812e-05 7.77605e-07
-6.40387e-07 7.77605e-07 -2.90836e-05
0.000930214 -7.46087e-06 -4.8724e-07
-7.46087e-06 4.74399e-05 -1.4427e-06
-4.8724e-07 -1.4427e-06 -1.5128e-05
0.000929009 2.91222e-05 -1.29425e-06
2.91222e-05 4.8816e-05 -5.31687e-07
-1.29425e-06 -5.31687e-07 -2.48356e-05
0.000906031 4.66381e-05 -4.79248e-07
4.66381e-05 4.32127e-05 -2.97754e-07
-4.79248e-07 -2.97754e-07 -3.90505e-05
0.00118189 9.05064e-05 -1.10623e-06
9.05064e-05 7.54004e-05 -9.21861e-07
-1.10623e-06 -9.21861e-07 -1.84645e-05
0.00129298 9.25138e-05 2.73188e-07
9.25138e-05 5.51555e-05 1.98332e-07
2.73188e-07 1.98332e-07 -4.62377e-05
0.000977836 7.79279e-05 -6.52121e-07
7.79279e-05 8.77742e-05 -2.72346e-07
-6.52121e-07 -2.72346e-07 -6.2523e-06
0.00119027 9.35692e-05 -1.99807e-06
9.35692e-05 0.00016361 4.50084e-07
-1.99807e-06 4.50084e-07 5.79113e-05
0.00136519 9.83248e-05 -2.47214e-06
9.83248e-05 0.000196675 -5.93495e-07
-2.47214e-06 -5.93495e-07 0.000104474
0.000850622 -2.02645e-05 6.11219e-08
-2.02645e-05 1.8549e-06 2.99713e-08
6.11219e-08 2.99713e-08 -3.12505e-05
0.000906617 -1.13768e-05 -2.42963e-08
-1.13768e-05 3.12949e-05 1.07206e-07
-2.42963e-08 1.07206e-07 -2.43898e-05
0.00102786 7.54099e-05 -3.18088e-07
7.54099e-05 0.000107043 -2.24989e-07
-3.18088e-07 -2.24989e-07 1.95154e-05
0.000966119 2.52728e-05 1.21286e-07
2.52728e-05 7.20875e-05 -3.29851e-08
1.21286e-07 -3.29851e-08 -3.44471e-06
0.000964847 5.68819e-05 -3.9363e-08
5.68819e-05 8.12391e-05 -3.95655e-07
-3.9363e-08 -3.95655e-07 -9.32507e-06
0.0014206 7.55238e-05 -6.42769e-07
7.55238e-05 6.39587e-05 -9.10716e-10
-6.42769e-07 -9.10716e-10 -3.44034e-05
0.00123706 9.72115e-05 7.89283e-07
9.72115e-05 8.27487e-05 -4.69825e-10
7.89283e-07 -4.69825e-10 -1.42109e-05
0.00122592 9.68494e-05 3.59269e-07
9.68494e-05 1.47283e-05 5.65303e-07
3.59269e-07 5.65303e-07 -7.84658e-05
0.000840295 7.68162e-05 4.8954e-07
7.68162e-05 2.18538e-05 1.14382e-06
4.8954e-07 1.14382e-06 -8.53365e-05
0.00121526 0.000100048 -2.39294e-07
0.000100048 0.000135596 -5.36814e-07
-2.39294e-07 -5.36814e-07 2.44004e-05
0.000895008 -1.00781e-05 5.54656e-07
-1.00781e-05 2.4801e-05 1.26557e-06
5.54656e-07 1.26557e-06 -2.57903e-05
0.00086165 9.52813e-06 4.38872e-07
9.52813e-06 1.24114e-05 1.36765e-06
4.38872e-07 1.36765e-06 -5.73273e-05
0.0011207 8.53933e-05 3.46437e-07
8.53933e-05 0.000163956 -3.16113e-07
3.46437e-07 -3.16113e-07 6.54279e-05
0.00089779 4.15698e-05 4.01943e-07
4.15698e-05 4.3562e-05 2.52912e-07
4.01943e-07 2.52912e-07 -4.41014e-05
0.00100645 6.41074e-05 2.38436e-07
6.41074e-05 9.89515e-05 -8.31202e-07
2.38436e-07 -8.31202e-07 3.0027e-06
0.00152279 7.48647e-05 -2.25678e-06
7.48647e-05 7.38278e-05 -5.85797e-07
-2.25678e-06 -5.85797e-07 -4.17568e-06
0.00154673 0.000116382 1.29886e-06
0.000116382 0.000235153 -1.14341e-06
1.29886e-06 -1.14341e-06 0.000128635
0.000521892 8.14137e-05 7.6935e-07
8.14137e-05 -0.00036726 -1.85588e-06
7.6935e-07 -1.85588e-06 -0.000454799
0.00152517 0.000106434 3.55404e-06
0.000106434 0.000357785 3.01929e-06
3.55404e-06 3.01929e-06 0.000242175
0.00018146 6.61207e-05 8.11657e-07
6.61207e-05 -0.000389853 -4.43371e-07
8.11657e-07 -4.43371e-07 -0.000512654
0.000859465 -1.31207e-05 -1.22534e-06
-1.31207e-05 3.32944e-06 -1.85178e-06
-1.22534e-06 -1.85178e-06 -2.7038e-05
0.000824746 -9.49202e-06 1.51594e-07
-9.49202e-06 -1.22083e-05 5.73238e-07
1.51594e-07 5.73238e-07 -6.02197e-05
0.000831517 -6.89519e-06 3.82229e-07
-6.89519e-06 -5.74956e-06 1.21498e-06
3.82229e-07 1.21498e-06 -6.61027e-05
0.000784685 -1.75248e-05 -5.7054e-07
-1.75248e-05 -3.33419e-05 -8.93601e-07
-5.7054e-07 -8.93601e-07 -7.9831e-05
0.000907214 2.67981e-06 2.1405e-07
2.67981e-06 3.11677e-05 -3.92689e-08
2.1405e-07 -3.92689e-08 -1.35923e-05
0.000968461 -1.05336e-05 1.45078e-07
-1.05336e-05 6.71941e-05 -4.34852e-07
1.45078e-07 -4.34852e-07 1.03241e-05
0.00107477 6.82004e-06 3.35402e-07
6.82004e-06 0.000126649 2.33369e-07
3.35402e-07 2.33369e-07 6.1354e-05
0.000835501 -2.62323e-05 2.02299e-08
-2.62323e-05 -2.77333e-07 8.53253e-07
2.02299e-08 8.53253e-07 -5.75043e-05
0.000914122 -1.99795e-05 5.89278e-09
-1.99795e-05 3.22544e-05 8.7882e-07
5.89278e-09 8.7882e-07 -1.10753e-05
0.000886026 3.00098e-06 7.02793e-07
3.00098e-06 7.02384e-06 1.64343e-06
7.02793e-07 1.64343e-06 -1.79511e-05
0.000883513 -7.13398e-06 -1.36531e-07
-7.13398e-06 7.00085e-06 2.80495e-08
-1.36531e-07 2.80495e-08 -1.8275e-05
0.0013426 -1.52771e-05 1.25675e-06
-1.52771e-05 0.000241647 1.91991e-06
1.25675e-06 1.91991e-06 0.000245533
0.000878891 -9.40834e-06 -5.4685e-07
-9.40834e-06 7.69296e-06 -1.78518e-06
-5.4685e-07 -1.78518e-06 -1.88679e-05
0.00136412 -1.906e-05 -2.75828e-06
-1.906e-05 0.000256984 -1.16168e-06
-2.75828e-06 -1.16168e-06 0.00025976
0.00104699 -1.6666e-05 1.30953e-05
-1.6666e-05 9.12221e-05 6.14187e-06
1.30953e-05 6.14187e-06 0.000107971
0.00138761 -2.22578e-05 -7.38219e-06
-2.22578e-05 0.000273886 -4.41286e-06
-7.38219e-06 -4.41286e-06 0.000275015
0.00100216 -2.12117e-05 5.36019e-06
-2.12117e-05 7.3178e-05 2.38706e-06
5.36019e-06 2.38706e-06 8.8203e-05
0.00213421 -3.75061e-05 -6.0392e-06
-3.75061e-05 0.000675431 -1.59122e-06
-6.0392e-06 -1.59122e-06 0.000694325
0.000778856 2.37553e-05 1.78781e-06
2.37553e-05 -4.08069e-05 -3.24391e-06
1.78781e-06 -3.24391e-06 -4.58645e-05
0.000785414 2.6689e-05 -1.12075e-07
2.6689e-05 -3.23671e-05 2.43872e-08
-1.12075e-07 2.43872e-08 -3.95954e-05
0.00227768 3.99013e-05 2.10569e-05
3.99013e-05 0.000754384 -3.67169e-06
2.10569e-05 -3.67169e-06 0.000771823
0.000795016 3.01947e-05 -2.91201e-06
3.01947e-05 -2.18379e-05 3.39055e-06
-2.91201e-06 3.39055e-06 -3.16556e-05
0.00233523 4.48035e-05 -8.12183e-07
4.48035e-05 0.000791766 -7.1005e-08
-8.12183e-07 -7.1005e-08 0.000807298
0.00244721 4.95868e-05 -2.94967e-05
4.95868e-05 0.000857433 3.64322e-06
-2.94967e-05 3.64322e-06 0.00087068
0.00147367 6.13064e-05 -1.32593e-06
6.13064e-05 7.75614e-05 4.75726e-07
-1.32593e-06 4.75726e-07 -1.88857e-05
0.00160339 2.53575e-05 -5.13601e-07
2.53575e-05 9.44376e-05 1.42565e-07
-5.13601e-07 1.42565e-07 -5.92912e-07
0.00159246 3.80816e-05 1.9506e-06
3.80816e-05 7.63174e-05 9.38926e-07
1.9506e-06 9.38926e-07 -1.13065e-05
0.00168523 1.0263e-07 -1.40634e-07
1.0263e-07 9.95742e-05 -6.13994e-07
-1.40634e-07 -6.13994e-07 3.575e-06
0.00158894 -3.1222e-06 -6.68088e-07
-3.1222e-06 4.96715e-05 -5.63605e-07
-6.68088e-07 -5.63605e-07 -5.50109e-05
0.00157977 1.61571e-05 -3.0785e-06
1.61571e-05 7.07545e-05 -2.68874e-07
-3.0785e-06 -2.68874e-07 -3.10074e-05
0.00166038 6.20646e-06 2.87385e-07
6.20646e-06 7.51005e-05 -3.64331e-07
2.87385e-07 -3.64331e-07 -3.17562e-05
0.00173148 5.28316e-06 6.81206e-08
5.28316e-06 0.000110888 -4.43247e-07
6.81206e-08 -4.43247e-07 7.39109e-06
0.00156639 1.66073e-05 5.12084e-09
1.66073e-05 4.47838e-05 3.35667e-07
5.12084e-09 3.35667e-07 -4.72281e-05
0.00171909 -4.27051e-06 4.97268e-08
-4.27051e-06 0.000107264 -5.95754e-07
4.97268e-08 -5.95754e-07 1.2419e-05
0.00148789 5.54852e-05 -4.19831e-07
5.54852e-05 5.40182e-05 -2.72177e-08
-4.19831e-07 -2.72177e-08 -3.75908e-05
0.00168957 3.06109e-05 1.33622e-06
3.06109e-05 0.000105831 -5.59415e-07
1.33622e-06 -5.59415e-07 2.36649e-05
0.00173879 1.39979e-05 4.15083e-09
1.39979e-05 9.6203e-05 5.39663e-08
4.15083e-09 5.39663e-08 -1.27286e-05
0.00172713 -1.25596e-06 -5.63038e-07
-1.25596e-06 0.000101897 4.05265e-07
-5.63038e-07 4.05265e-07 1.79126e-06
0.00167061 9.44856e-06 -1.75762e-08
9.44856e-06 7.6937e-05 3.94564e-07
-1.75762e-08 3.94564e-07 -1.22178e-05
0.00177637 4.9666e-05 -1.37397e-06
4.9666e-05 0.000158681 -1.00095e-06
-1.37397e-06 -1.00095e-06 7.68576e-05
0.00167509 9.42718e-06 -1.30959e-06
9.42718e-06 9.64752e-05 1.10739e-06
-1.30959e-06 1.10739e-06 -7.31956e-06
0.00178913 -1.55624e-05 -2.37507e-06
-1.55624e-05 0.000179538 1.27765e-07
-2.37507e-06 1.27765e-07 8.4326e-05
0.00161782 6.01453e-06 -1.68041e-06
6.01453e-06 6.71901e-05 1.01664e-06
-1.68041e-06 1.01664e-06 -3.17649e-05
0.00164776 -3.58018e-05 -6.88668e-08
-3.58018e-05 8.99491e-05 2.27785e-08
-6.88668e-08 2.27785e-08 -2.44986e-06
0.00104703 -5.48895e-05 -1.32529e-06
-5.48895e-05 0.000104522 -4.19775e-07
-1.32529e-06 -4.19775e-07 2.94169e-05
0.000910202 -7.59104e-05 4.14986e-07
-7.59104e-05 3.74641e-05 -4.14816e-07
4.14986e-07 -4.14816e-07 -4.82539e-05
0.00109205 -9.13542e-05 -7.34904e-07
-9.13542e-05 9.82791e-05 1.2625e-06
-7.34904e-07 1.2625e-06 -7.25066e-06
0.00158311 -8.27044e-05 3.42657e-07
-8.27044e-05 0.000145864 -7.71365e-08
3.42657e-07 -7.71365e-08 5.37096e-05
0.00145593 -6.12652e-05 6.86791e-07
-6.12652e-05 9.61214e-06 1.85948e-06
6.86791e-07 1.85948e-06 -6.71336e-05
0.00135011 -8.44393e-05 2.47829e-06
-8.44393e-05 6.22273e-05 4.69956e-07
2.47829e-06 4.69956e-07 -2.20553e-05
0.00126553 -0.000100579 -1.13185e-06
-0.000100579 0.000112077 -8.24428e-07
-1.13185e-06 -8.24428e-07 1.79584e-06
0.00123271 -8.98908e-05 -6.33201e-08
-8.98908e-05 2.90901e-05 -5.88879e-06
-6.33201e-08 -5.88879e-06 -5.74634e-05
0.00107423 -7.98313e-05 -4.01252e-07
-7.98313e-05 0.000121055 -1.18215e-06
-4.01252e-07 -1.18215e-06 3.7977e-05
0.00104033 -7.89205e-05 -5.71551e-07
-7.89205e-05 0.000108144 -1.81233e-06
-5.71551e-07 -1.81233e-06 2.1293e-05
0.00098618 -3.44627e-05 -3.16891e-07
-3.44627e-05 8.12541e-05 2.21526e-07
-3.16891e-07 2.21526e-07 2.62573e-06
0.00060617 2.5608e-05 -9.42933e-07
2.5608e-05 -0.000127641 1.70573e-06
-9.42933e-07 1.70573e-06 -0.000164014
0.000843152 2.26397e-05 -1.43016e-07
2.26397e-05 -6.62687e-06 4.94741e-07
-1.43016e-07 4.94741e-07 -6.43509e-05
0.00167453 1.25857e-05 -4.00338e-07
1.25857e-05 7.62864e-05 2.71264e-07
-4.00338e-07 2.71264e-07 -2.82395e-05
0.00172081 -1.25862e-06 -1.11021e-07
-1.25862e-06 0.000109139 -1.38326e-07
-1.11021e-07 -1.38326e-07 1.08634e-05
0.00173442 -4.15925e-05 -1.3703e-06
-4.15925e-05 0.00011184 7.64953e-08
-1.3703e-06 7.64953e-08 2.46075e-05
0.00104398 -7.95322e-05 1.45467e-08
-7.95322e-05 0.000105606 1.5249e-07
1.45467e-08 1.5249e-07 2.25163e-05
0.000829289 -7.59547e-05 8.63098e-07
-7.59547e-05 -3.16686e-06 -7.37227e-07
8.63098e-07 -7.37227e-07 -9.67516e-05
0.00113087 -9.85759e-05 -1.43291e-07
-9.85759e-05 0.000100604 -3.32625e-07
-1.43291e-07 -3.32625e-07 -1.85799e-05
0.00145729 -7.28183e-05 5.83518e-07
-7.28183e-05 3.82806e-05 -6.70507e-07
5.83518e-07 -6.70507e-07 -4.35159e-05
0.00144198 -0.000107435 -2.4562e-07
-0.000107435 0.000173184 -2.53842e-07
-2.4562e-07 -2.53842e-07 6.27713e-05
0.0014512 -9.24131e-05 -6.47206e-07
-9.24131e-05 8.83133e-05 -6.70187e-07
-6.47206e-07 -6.70187e-07 1.00205e-05
0.000630869 2.12782e-05 3.94326e-08
2.12782e-05 -0.000117607 -5.88104e-07
3.94326e-08 -5.88104e-07 -0.00015125
0.0010458 -7.95648e-05 1.12026e-08
-7.95648e-05 0.000106349 6.34777e-08
1.12026e-08 6.34777e-08 2.18292e-05
0.000964899 -7.61751e-05 -6.32659e-07
-7.61751e-05 6.5533e-05 6.20774e-08
-6.32659e-07 6.20774e-08 -2.14594e-05
0.00108929 -6.53144e-05 -3.74394e-07
-6.53144e-05 0.000140092 7.43175e-07
-3.74394e-07 7.43175e-07 5.11607e-05
0.0010534 -2.91376e-05 -9.15873e-09
-2.91376e-05 0.000112431 -5.0135e-09
-9.15873e-09 -5.0135e-09 4.18528e-05
0.000896131 7.96331e-06 -1.28144e-07
7.96331e-06 2.2889e-05 1.72687e-07
-1.28144e-07 1.72687e-07 -3.11707e-05
0.00183109 1.51059e-05 6.15103e-07
1.51059e-05 0.000147401 -5.76715e-07
6.15103e-07 -5.76715e-07 4.36812e-05
0.00168974 -2.58066e-06 2.06195e-07
-2.58066e-06 6.57406e-05 -1.89254e-07
2.06195e-07 -1.89254e-07 -3.08703e-05
0.00144105 -4.87164e-05 1.83703e-06
-4.87164e-05 -3.74541e-05 -2.68575e-06
1.83703e-06 -2.68575e-06 -0.000123415
0.00168643 -8.624e-05 2.83387e-08
-8.624e-05 0.000110372 -9.43571e-07
2.83387e-08 -9.43571e-07 3.97065e-05
0.000998486 -7.92598e-05 -4.41779e-07
-7.92598e-05 8.41314e-05 1.26408e-06
-4.41779e-07 1.26408e-06 -2.1724e-06
0.00152221 -0.000107825 2.15752e-06
-0.000107825 0.000147516 3.25166e-06
2.15752e-06 3.25166e-06 4.70421e-05
0.000777399 -7.86898e-05 -7.45771e-07
-7.86898e-05 -3.34689e-05 -2.24122e-06
-7.45771e-07 -2.24122e-06 -0.000142983
0.00143706 -0.000113767 1.33227e-06
-0.000113767 0.000237612 7.777e-07
1.33227e-06 7.777e-07 0.000108002
0.000643232 1.73856e-05 7.86532e-07
1.73856e-05 -0.000113185 -2.26805e-06
7.86532e-07 -2.26805e-06 -0.000144664
0.00101762 -6.93524e-07 1.00333e-06
-6.93524e-07 8.73348e-05 -7.29219e-07
1.00333e-06 -7.29219e-07 3.71047e-05
0.00109469 -2.56309e-05 2.13979e-07
-2.56309e-05 0.000132849 5.69815e-07
2.13979e-07 5.69815e-07 6.65622e-05
0.00101504 -3.85317e-05 5.40156e-07
-3.85317e-05 9.82142e-05 -7.70036e-07
5.40156e-07 -7.70036e-07 1.49803e-05
0.00104633 -8.01558e-05 -2.29798e-07
-8.01558e-05 0.000102809 1.83937e-06
-2.29798e-07 1.83937e-06 1.6221e-05
0.000998634 -7.88902e-05 -1.51458e-07
-7.88902e-05 8.67035e-05 2.56924e-06
-1.51458e-07 2.56924e-06 -5.26021e-06
0.000851199 -1.93022e-05 -1.33204e-06
-1.93022e-05 2.21438e-06 -1.91823e-06
-1.33204e-06 -1.91823e-06 -3.08025e-05
0.000907592 -1.24472e-05 -4.77624e-07
-1.24472e-05 3.18102e-05 -1.33848e-06
-4.77624e-07 -1.33848e-06 -2.38465e-05
0.0014357 7.78674e-05 2.38537e-07
7.78674e-05 7.30877e-05 1.16709e-06
2.38537e-07 1.16709e-06 -2.5835e-05
0.000959734 2.10187e-05 -5.13371e-07
2.10187e-05 6.77301e-05 -7.43946e-07
-5.13371e-07 -7.43946e-07 -7.26245e-06
0.000999895 7.45356e-05 -6.16927e-07
7.45356e-05 9.44264e-05 -1.8422e-07
-6.16927e-07 -1.8422e-07 7.26444e-06
0.000900022 5.15905e-05 -8.51939e-07
5.15905e-05 4.74998e-05 -2.26123e-07
-8.51939e-07 -2.26123e-07 -4.31961e-05
0.00125767 9.76914e-05 -1.15939e-06
9.76914e-05 9.19518e-05 -9.62315e-07
-1.15939e-06 -9.62315e-07 -5.18206e-06
0.00130876 9.80274e-05 8.44142e-07
9.80274e-05 5.16074e-05 1.30695e-06
8.44142e-07 1.30695e-06 -4.00855e-05
0.000696717 7.13307e-05 -6.00645e-07
7.13307e-05 -5.10671e-05 7.70429e-09
-6.00645e-07 7.70429e-09 -0.00015858
0.00123875 0.000101016 -2.06862e-06
0.000101016 0.000148816 2.48778e-07
-2.06862e-06 2.48778e-07 3.54413e-05
0.000897789 -1.17034e-05 -6.01679e-08
-1.17034e-05 2.60017e-05 9.07286e-08
-6.01679e-08 9.07286e-08 -2.45749e-05
0.000902441 1.36654e-05 1.64557e-07
1.36654e-05 3.38679e-05 5.09935e-07
1.64557e-07 5.09935e-07 -3.58526e-05
0.00110216 8.45074e-05 -1.14163e-07
8.45074e-05 0.00015681 -7.51171e-07
-1.14163e-07 -7.51171e-07 5.90963e-05
0.000943849 3.21717e-05 -1.09099e-07
3.21717e-05 6.60846e-05 -2.97894e-08
-1.09099e-07 -2.97894e-08 -2.01334e-05
0.000959724 6.14029e-05 -1.02332e-06
6.14029e-05 7.79392e-05 -6.57969e-07
-1.02332e-06 -6.57969e-07 -1.79109e-05
0.00170472 7.70618e-05 -1.49154e-06
7.70618e-05 0.000159113 -9.10647e-08
-1.49154e-06 -9.10647e-08 8.03951e-05
0.00153781 0.000115621 1.1363e-06
0.000115621 0.000225487 6.47285e-08
1.1363e-06 6.47285e-08 0.000120095
0.000920974 9.2557e-05 -6.3529e-07
9.2557e-05 -0.000157439 1.08898e-06
-6.3529e-07 1.08898e-06 -0.000241788
0.00123329 9.52817e-05 1.21633e-06
9.52817e-05 0.000211113 1.31722e-06
1.21633e-06 1.31722e-06 9.51556e-05
0.000687746 8.58796e-05 -1.3089e-06
8.58796e-05 -0.00013442 -5.11441e-07
-1.3089e-06 -5.11441e-07 -0.000261333
0.000861097 4.40847e-06 5.36494e-07
4.40847e-06 9.27571e-06 1.29565e-06
5.36494e-07 1.29565e-06 -5.41313e-05
0.000861798 3.92786e-05 4.94028e-07
3.92786e-05 2.06615e-05 3.0168e-07
4.94028e-07 3.0168e-07 -6.2779e-05
0.00109772 8.5324e-05 9.21033e-07
8.5324e-05 0.000155447 1.25188e-07
9.21033e-07 1.25188e-07 4.8854e-05
0.000701061 5.03903e-05 6.89355e-07
5.03903e-05 -5.44846e-05 3.41956e-07
6.89355e-07 3.41956e-07 -0.000153389
0.00234567 5.88692e-05 -3.69065e-07
5.88692e-05 0.000399242 6.62827e-07
-3.69065e-07 6.62827e-07 0.000322145
0.00120306 9.02196e-05 2.32112e-06
9.02196e-05 -0.000126326 -1.69899e-06
2.32112e-06 -1.69899e-06 -0.000192027
0.00130173 0.000114697 1.89272e-06
0.000114697 0.000101047 -2.44745e-06
1.89272e-06 -2.44745e-06 -1.82193e-05
0.000578072 7.48717e-05 1.17824e-06
7.48717e-05 -0.000132576 1.61676e-06
1.17824e-06 1.61676e-06 -0.000268245
0.000898352 5.73408e-06 -3.79356e-07
5.73408e-06 2.78773e-05 -6.54522e-07
-3.79356e-07 -6.54522e-07 -2.0832e-05
0.000916716 5.01566e-06 7.58576e-09
5.01566e-06 3.95078e-05 3.91415e-07
7.58576e-09 3.91415e-07 -2.10325e-05
0.000991061 6.173e-06 3.94382e-07
6.173e-06 8.0347e-05 8.11597e-07
3.94382e-07 8.11597e-07 1.16025e-05
0.000912454 -3.84547e-06 -5.68431e-07
-3.84547e-06 3.29274e-05 -8.65413e-07
-5.68431e-07 -8.65413e-07 -1.11469e-05
0.000813518 -1.68115e-05 5.41894e-09
-1.68115e-05 -1.42205e-05 -1.12914e-06
5.41894e-09 -1.12914e-06 -7.18444e-05
0.000912607 -1.08346e-05 2.00077e-07
-1.08346e-05 3.12521e-05 2.14831e-08
2.00077e-07 2.14831e-08 -1.19405e-05
0.000996014 1.56516e-05 -7.31451e-08
1.56516e-05 8.69869e-05 -3.68106e-07
-7.31451e-08 -3.68106e-07 1.94442e-05
0.000864653 -8.81208e-06 1.66617e-07
-8.81208e-06 1.63725e-05 3.61603e-07
1.66617e-07 3.61603e-07 -4.13358e-05
0.00103762 9.21743e-06 3.89672e-07
9.21743e-06 0.000108792 3.44563e-07
3.89672e-07 3.44563e-07 3.59265e-05
0.000833909 -2.62272e-05 -2.05807e-07
-2.62272e-05 2.5221e-06 8.81097e-07
-2.05807e-07 8.81097e-07 -6.3533e-05
0.000818165 2.15758e-05 3.90729e-07
2.15758e-05 -6.73248e-06 1.02138e-06
3.90729e-07 1.02138e-06 -6.43676e-05
0.000929781 -8.7474e-06 -5.26105e-08
-8.7474e-06 3.82304e-05 8.49016e-07
-5.26105e-08 8.49016e-07 -4.35367e-06
0.00087465 6.18295e-06 6.01396e-07
6.18295e-06 1.221e-06 1.59212e-06
6.01396e-07 1.59212e-06 -2.41424e-05
0.0008796 -4.22357e-06 -2.68944e-07
-4.22357e-06 3.67995e-06 1.93054e-08
-2.68944e-07 1.93054e-08 -2.13032e-05
0.0013431 -1.00358e-05 1.02395e-06
-1.00358e-05 0.000239261 1.85012e-06
1.02395e-06 1.85012e-06 0.000243561
0.000873578 -1.24173e-05 -1.76108e-07
-1.24173e-05 1.92354e-06 -1.71812e-06
-1.76108e-07 -1.71812e-06 -2.33647e-05
0.00136111 -1.42268e-05 -2.16196e-06
-1.42268e-05 0.000251371 -1.16618e-06
-2.16196e-06 -1.16618e-06 0.000255241
0.00104326 -1.2961e-05 1.0133e-05
-1.2961e-05 8.52959e-05 6.11937e-06
1.0133e-05 6.11937e-06 0.000102869
0.00137886 -1.82115e-05 -5.53185e-06
-1.82115e-05 0.000264499 -4.28523e-06
-5.53185e-06 -4.28523e-06 0.000267384
0.000996861 -1.75509e-05 3.94204e-06
-1.75509e-05 6.49744e-05 2.35085e-06
3.94204e-06 2.35085e-06 8.17004e-05
0.000943028 -2.15941e-05 -2.35566e-06
-2.15941e-05 4.2525e-05 -1.61319e-06
-2.35566e-06 -1.61319e-06 5.75418e-05
0.000788647 2.06785e-05 1.34988e-06
2.06785e-05 -4.08956e-05 -3.21027e-06
1.34988e-06 -3.21027e-06 -4.37718e-05
0.000794545 2.38886e-05 -1.47734e-07
2.38886e-05 -3.28263e-05 2.00845e-08
-1.47734e-07 2.00845e-08 -3.79456e-05
0.002225 3.45431e-05 1.80485e-05
3.45431e-05 0.000720823 -3.73195e-06
1.80485e-05 -3.73195e-06 0.000739886
0.000804066 2.69728e-05 -2.51262e-06
2.69728e-05 -2.2938e-05 3.26538e-06
-2.51262e-06 3.26538e-06 -3.02435e-05
0.00228094 3.97995e-05 -9.02733e-07
3.97995e-05 0.000756868 -6.61881e-08
-9.02733e-07 -6.61881e-08 0.000774141
0.00234648 4.45024e-05 -2.60734e-05
4.45024e-05 0.000798431 3.65105e-06
-2.60734e-05 3.65105e-06 0.000813773
0.00154586 5.72173e-05 1.38562e-06
5.72173e-05 8.39841e-05 1.69389e-06
1.38562e-06 1.69389e-06 -7.74322e-06
0.00158107 1.48492e-05 1.7521e-07
1.48492e-05 5.08519e-05 -2.15684e-08
1.7521e-07 -2.15684e-08 -4.16174e-05
0.00151616 3.00348e-05 2.46389e-06
3.00348e-05 1.97221e-05 -1.19386e-06
2.46389e-06 -1.19386e-06 -6.08139e-05
0.00164267 -4.28808e-06 2.42543e-07
-4.28808e-06 6.66356e-05 -6.43656e-07
2.42543e-07 -6.43656e-07 -2.76812e-05
0.00173799 2.42358e-06 4.03439e-07
2.42358e-06 0.000116278 -1.38914e-06
4.03439e-07 -1.38914e-06 1.29761e-05
0.00168419 4.93078e-06 -9.92099e-07
4.93078e-06 8.65578e-05 -2.50386e-07
-9.92099e-07 -2.50386e-07 -2.06529e-05
0.00175313 1.57303e-05 -2.64233e-08
1.57303e-05 0.000107656 -9.21558e-09
-2.64233e-08 -9.21558e-09 -1.58229e-07
0.00170665 -5.35408e-06 1.78948e-07
-5.35408e-06 9.2338e-05 -5.56801e-07
1.78948e-07 -5.56801e-07 -7.80766e-06
0.00167029 9.75121e-06 5.73229e-07
9.75121e-06 7.81524e-05 -1.69716e-08
5.73229e-07 -1.69716e-08 -1.08305e-05
0.00160236 4.53137e-05 -9.28983e-08
4.53137e-05 6.78284e-05 -5.29316e-07
-9.28983e-08 -5.29316e-07 -1.36916e-05
0.00180157 9.57192e-06 -7.8608e-07
9.57192e-06 0.000130159 7.67055e-07
-7.8608e-07 7.67055e-07 2.47773e-05
0.00180686 -9.76191e-06 -3.18046e-07
-9.76191e-06 0.00012818 1.49859e-07
-3.18046e-07 1.49859e-07 3.55571e-05
0.00172676 2.66438e-05 3.61387e-07
2.66438e-05 9.89912e-05 1.15873e-06
3.61387e-07 1.15873e-06 1.30042e-05
0.00166786 1.18389e-05 -1.17378e-06
1.18389e-05 7.48303e-05 1.19661e-06
-1.17378e-06 1.19661e-06 -2.87389e-05
0.00176215 -2.43449e-06 -9.24569e-07
-2.43449e-06 0.000130913 4.6842e-07
-9.24569e-07 4.6842e-07 3.25221e-05
0.00180269 -4.27737e-05 -8.42599e-07
-4.27737e-05 0.000150181 1.23702e-06
-8.42599e-07 1.23702e-06 6.37187e-05
0.0011008 -8.12602e-05 -3.21467e-07
-8.12602e-05 0.000132778 -6.86596e-07
-3.21467e-07 -6.86596e-07 4.96801e-05
0.00116481 -8.87883e-05 3.08402e-07
-8.87883e-05 0.000165269 -6.28279e-09
3.08402e-07 -6.28279e-09 7.23761e-05
0.00110674 -9.69689e-05 -1.34954e-06
-9.69689e-05 9.2047e-05 1.80591e-06
-1.34954e-06 1.80591e-06 -2.7712e-05
0.00154593 -7.38298e-05 1.10645e-07
-7.38298e-05 8.11141e-05 4.20729e-07
1.10645e-07 4.20729e-07 -1.85845e-06
0.00112436 -8.68618e-05 -1.57548e-06
-8.68618e-05 -7.39161e-05 -1.38535e-06
-1.57548e-06 -1.38535e-06 -0.000152399
0.00139655 -0.0001039 -2.11795e-06
-0.0001039 0.000150936 -3.43368e-06
-2.11795e-06 -3.43368e-06 4.36322e-05
0.00107098 -8.05577e-05 -1.74066e-08
-8.05577e-05 0.000118872 -1.58919e-06
-1.74066e-08 -1.58919e-06 3.42434e-05
0.000951061 -7.52461e-05 -1.59068e-06
-7.52461e-05 5.98894e-05 -1.86177e-06
-1.59068e-06 -1.86177e-06 -2.63192e-05
0.00107075 -6.72829e-05 -1.05787e-07
-6.72829e-05 0.000132062 -2.08868e-07
-1.05787e-07 -2.08868e-07 4.20445e-05
0.00061473 2.27768e-05 -8.9623e-07
2.27768e-05 -0.000125972 9.89216e-07
-8.9623e-07 9.89216e-07 -0.000159369
0.00108691 -2.44569e-05 -2.32939e-07
-2.44569e-05 0.000129031 3.68579e-07
-2.32939e-07 3.68579e-07 5.92085e-05
0.000781919 1.87964e-05 -1.65352e-08
1.87964e-05 -3.79225e-05 1.11953e-06
-1.65352e-08 1.11953e-06 -9.18541e-05
0.0017589 1.48897e-05 6.54501e-08
1.48897e-05 0.000109901 -2.62427e-07
6.54501e-08 -2.62427e-07 5.46901e-06
0.00172997 -4.50933e-06 7.34199e-07
-4.50933e-06 8.69055e-05 -1.86558e-07
7.34199e-07 -1.86558e-07 -9.86483e-06
0.00153246 -4.93959e-05 -3.42926e-08
-4.93959e-05 4.36124e-06 -3.70892e-07
-3.42926e-08 -3.70892e-07 -8.23872e-05
0.00105478 -8.14484e-05 2.31813e-08
-8.14484e-05 0.000111015 4.99924e-07
2.31813e-08 4.99924e-07 2.44529e-05
0.000847324 -8.0832e-05 -1.06469e-07
-8.0832e-05 5.65143e-06 1.99654e-07
-1.06469e-07 1.99654e-07 -0.000101621
0.00152402 -0.00011671 -1.67184e-06
-0.00011671 0.000281178 1.54981e-06
-1.67184e-06 1.54981e-06 0.000151251
0.00170275 -8.88816e-05 -8.05526e-07
-8.88816e-05 0.000123684 9.15332e-07
-8.05526e-07 9.15332e-07 5.25752e-05
0.00140722 -0.000104455 7.37908e-07
-0.000104455 8.5931e-05 -8.28045e-07
7.37908e-07 -8.28045e-07 -1.38021e-05
0.000751223 1.74916e-05 1.26685e-07
1.74916e-05 -5.70095e-05 -5.72574e-07
1.26685e-07 -5.72574e-07 -8.75023e-05
0.00100214 1.14246e-05 -3.27083e-07
1.14246e-05 7.91358e-05 1.23513e-07
-3.27083e-07 1.23513e-07 2.92227e-05
0.000924298 -7.53929e-05 -7.81883e-07
-7.53929e-05 4.18561e-05 1.26255e-07
-7.81883e-07 1.26255e-07 -4.46684e-05
0.00103115 -7.98766e-05 7.69133e-07
-7.98766e-05 0.000102862 3.77148e-07
7.69133e-07 3.77148e-07 1.19063e-05
0.00098082 -3.64383e-05 -9.0426e-08
-3.64383e-05 8.05885e-05 -2.61285e-07
-9.0426e-08 -2.61285e-07 -2.7041e-06
0.00103308 -2.48549e-05 -5.44101e-07
-2.48549e-05 0.000101147 9.02904e-07
-5.44101e-07 9.02904e-07 3.42874e-05
0.00175453 1.95202e-05 -1.77674e-06
1.95202e-05 9.88291e-05 1.61023e-07
-1.77674e-06 1.61023e-07 -3.19328e-06
0.00168415 -1.58635e-05 -9.89957e-08
-1.58635e-05 4.52971e-05 5.18433e-07
-9.89957e-08 5.18433e-07 -4.93989e-05
0.00182637 -6.97526e-05 2.18155e-06
-6.97526e-05 0.000114432 -3.97538e-06
2.18155e-06 -3.97538e-06 4.00624e-05
0.00216491 -0.000118581 1.31161e-06
-0.000118581 0.000344541 -1.79492e-07
1.31161e-06 -1.79492e-07 0.000267734
0.000816736 -7.34442e-05 -1.28328e-06
-7.34442e-05 2.46676e-06 1.16265e-06
-1.28328e-06 1.16265e-06 -8.98712e-05
0.00139752 -0.000116502 6.53016e-07
-0.000116502 0.000180857 3.50058e-06
6.53016e-07 3.50058e-06 3.57328e-05
0.00145678 -0.000108691 5.84487e-07
-0.000108691 0.000301581 -2.77661e-06
5.84487e-07 -2.77661e-06 0.000180396
0.000873744 1.41196e-05 6.1903e-07
1.41196e-05 3.98713e-06 -1.62304e-06
6.1903e-07 -1.62304e-06 -2.33837e-05
0.000895466 -3.53328e-05 8.39578e-07
-3.53328e-05 2.73e-05 -8.70971e-07
8.39578e-07 -8.70971e-07 -1.76143e-05
0.000764451 1.19421e-05 2.92761e-07
1.19421e-05 -4.23767e-05 -1.50692e-06
2.92761e-07 -1.50692e-06 -9.2547e-05
0.000989363 -2.62692e-05 6.73416e-07
-2.62692e-05 7.95625e-05 -5.24725e-09
6.73416e-07 -5.24725e-09 1.54941e-05
0.000966104 -4.27945e-06 -1.0369e-07
-4.27945e-06 7.00396e-05 -2.76775e-07
-1.0369e-07 -2.76775e-07 -5.40513e-06
0.00092189 -7.7398e-05 2.05152e-06
-7.7398e-05 6.34821e-05 1.61439e-06
2.05152e-06 1.61439e-06 -3.39346e-05
0.000821193 -7.20807e-05 -1.13501e-06
-7.20807e-05 -2.39039e-05 2.15427e-06
-1.13501e-06 2.15427e-06 -0.000107369
0.00168106 -0.000108724 -5.94519e-07
-0.000108724 0.000447284 2.58858e-06
-5.94519e-07 2.58858e-06 0.000352491
0.000908562 -1.38387e-05 -4.21108e-07
-1.38387e-05 3.13759e-05 -1.23647e-06
-4.21108e-07 -1.23647e-06 -1.9212e-05
0.000942688 1.77663e-05 -3.91016e-07
1.77663e-05 5.49745e-05 -3.62489e-07
-3.91016e-07 -3.62489e-07 -1.46951e-05
0.00186783 7.89224e-05 6.33904e-07
7.89224e-05 0.000235016 6.49185e-07
6.33904e-07 6.49185e-07 0.000155602
0.000986565 3.30921e-05 -6.08592e-07
3.30921e-05 8.86379e-05 -4.60718e-07
-6.08592e-07 -4.60718e-07 2.56581e-06
0.00108853 8.38363e-05 -8.94371e-07
8.38363e-05 0.000152064 -1.67506e-06
-8.94371e-07 -1.67506e-06 5.51596e-05
0.000896777 5.87767e-05 -1.65759e-06
5.87767e-05 4.88101e-05 -2.09954e-07
-1.65759e-06 -2.09954e-07 -4.69604e-05
0.0015243 0.000114649 -4.48757e-07
0.000114649 0.000213303 6.04344e-07
-4.48757e-07 6.04344e-07 0.00010908
0.00135587 0.000104803 1.28854e-06
0.000104803 6.99997e-05 4.84597e-06
1.28854e-06 4.84597e-06 -1.11809e-05
0.000935597 8.37935e-05 -2.27235e-07
8.37935e-05 6.15613e-05 2.0501e-07
-2.27235e-07 2.0501e-07 -5.47203e-05
0.00114677 0.000103763 -4.09277e-06
0.000103763 9.67764e-05 -6.71289e-07
-4.09277e-06 -6.71289e-07 -3.40805e-05
0.000854187 1.22658e-05 2.41974e-07
1.22658e-05 7.14392e-06 4.63929e-07
2.41974e-07 4.63929e-07 -5.77529e-05
0.00090417 4.48582e-05 -1.90457e-07
4.48582e-05 4.37486e-05 -6.60228e-07
-1.90457e-07 -6.60228e-07 -3.9861e-05
0.00109302 8.5127e-05 -3.97448e-07
8.5127e-05 0.000154663 -9.51072e-07
-3.97448e-07 -9.51072e-07 4.87136e-05
0.000922702 5.7009e-05 -2.05603e-07
5.7009e-05 5.83478e-05 -2.30392e-07
-2.05603e-07 -2.30392e-07 -4.02324e-05
0.00207085 5.25236e-05 -5.97331e-07
5.25236e-05 0.000259912 5.81272e-07
-5.97331e-07 5.81272e-07 0.00018111
0.00126392 9.06708e-05 1.29151e-06
9.06708e-05 -8.33386e-05 -1.07609e-06
1.29151e-06 -1.07609e-06 -0.000150413
0.00162222 0.000124804 -1.52321e-06
0.000124804 0.000258506 -9.19749e-08
-1.52321e-06 -9.19749e-08 0.000141788
0.000772214 8.43709e-05 7.22833e-07
8.43709e-05 -4.25284e-05 5.80311e-07
7.22833e-07 5.80311e-07 -0.000177646
0.000987551 1.90378e-05 3.86315e-07
1.90378e-05 8.00062e-05 3.35772e-07
3.86315e-07 3.35772e-07 6.80878e-06
0.00162881 1.89831e-05 -3.94071e-07
1.89831e-05 3.69004e-05 4.04421e-07
-3.94071e-07 4.04421e-07 -4.69549e-05
0.00112263 7.41749e-05 4.40127e-07
7.41749e-05 0.000166655 1.18254e-06
4.40127e-07 1.18254e-06 7.07362e-05
0.00108997 8.63542e-05 7.35648e-07
8.63542e-05 0.000142208 1.1135e-06
7.35648e-07 1.1135e-06 2.79129e-05
0.00223046 8.37459e-05 2.59239e-06
8.37459e-05 0.000273586 4.80286e-07
2.59239e-06 4.80286e-07 0.00020796
0.00138835 0.000118493 4.90016e-06
0.000118493 2.11548e-05 -3.30665e-06
4.90016e-06 -3.30665e-06 -8.21435e-05
0.00171808 0.000126444 1.2104e-06
0.000126444 0.000400285 1.46478e-06
1.2104e-06 1.46478e-06 0.000254759
0.00100202 6.03561e-06 -8.0526e-07
6.03561e-06 8.30975e-05 -4.15934e-07
-8.0526e-07 -4.15934e-07 2.34713e-05
0.000994968 5.73063e-06 -2.49707e-10
5.73063e-06 8.24032e-05 4.0088e-08
-2.49707e-10 4.0088e-08 1.36588e-05
0.00100099 1.2337e-05 4.65072e-07
1.2337e-05 8.91186e-05 7.60475e-07
4.65072e-07 7.60475e-07 1.22114e-05
0.000911958 -5.20775e-06 -4.76817e-08
-5.20775e-06 3.13979e-05 -8.32242e-07
-4.76817e-08 -8.32242e-07 -1.20878e-05
0.000906389 8.14281e-08 9.9935e-08
8.14281e-08 3.89506e-05 -1.16453e-07
9.9935e-08 -1.16453e-07 -1.889e-05
0.000913961 1.23568e-05 -4.07089e-07
1.23568e-05 4.40858e-05 -1.18086e-06
-4.07089e-07 -1.18086e-06 -2.46785e-05
0.000917839 -1.89515e-05 -3.13921e-08
-1.89515e-05 3.30781e-05 2.23103e-08
-3.13921e-08 2.23103e-08 -1.01944e-05
0.000817849 -9.34052e-06 -3.65518e-07
-9.34052e-06 -8.00262e-06 4.24973e-07
-3.65518e-07 4.24973e-07 -6.49397e-05
0.00100043 1.86169e-06 1.44064e-07
1.86169e-06 8.87004e-05 -4.0517e-07
1.44064e-07 -4.0517e-07 1.50374e-05
0.000948546 3.69697e-06 5.2655e-08
3.69697e-06 6.4241e-05 4.53121e-07
5.2655e-08 4.53121e-07 -2.35013e-06
0.00102306 1.81841e-05 3.66795e-07
1.81841e-05 0.000101614 -2.8466e-08
3.66795e-07 -2.8466e-08 2.3026e-05
0.000879703 -1.64282e-05 9.92417e-08
-1.64282e-05 2.71058e-05 6.38435e-07
9.92417e-08 6.38435e-07 -4.57692e-05
0.000995126 1.05757e-05 1.33674e-07
1.05757e-05 8.66912e-05 3.97061e-08
1.33674e-07 3.97061e-08 2.26064e-05
0.000919251 8.23261e-06 7.90523e-07
8.23261e-06 4.57675e-05 6.95837e-07
7.90523e-07 6.95837e-07 -1.07329e-05
0.000932009 -1.55464e-06 4.45158e-09
-1.55464e-06 3.83677e-05 7.77276e-07
4.45158e-09 7.77276e-07 -4.28693e-06
0.000868012 9.48965e-06 3.5225e-07
9.48965e-06 -1.44941e-06 1.5561e-06
3.5225e-07 1.5561e-06 -2.73058e-05
0.000873705 -1.09826e-06 -1.76636e-07
-1.09826e-06 7.27786e-07 8.08733e-09
-1.76636e-07 8.08733e-09 -2.46251e-05
0.00134721 -4.9178e-06 7.44582e-07
-4.9178e-06 0.000240155 1.80684e-06
7.44582e-07 1.80684e-06 0.000244274
0.000876051 -1.12513e-05 -1.38576e-07
-1.12513e-05 1.83935e-06 -1.61933e-06
-1.38576e-07 -1.61933e-06 -2.31521e-05
0.00136528 -9.14836e-06 -1.58166e-06
-9.14836e-06 0.000251144 -1.17969e-06
-1.58166e-06 -1.17969e-06 0.000255295
0.00104598 -8.9902e-06 7.39426e-06
-8.9902e-06 8.40945e-05 6.16709e-06
7.39426e-06 6.16709e-06 0.000101944
0.00138102 -1.35272e-05 -4.03918e-06
-1.35272e-05 0.000261817 -4.19733e-06
-4.03918e-06 -4.19733e-06 0.000265628
0.00100192 -1.35168e-05 2.72637e-06
-1.35168e-05 6.32755e-05 2.3437e-06
2.72637e-06 2.3437e-06 8.0962e-05
0.000945872 -1.76798e-05 -1.73609e-06
-1.76798e-05 3.82698e-05 -1.544e-06
-1.73609e-06 -1.544e-06 5.50781e-05
0.000872288 1.07097e-05 3.56254e-07
1.07097e-05 5.15115e-07 -1.58843e-06
3.56254e-07 -1.58843e-06 -2.46404e-05
0.000799691 1.70029e-05 1.06739e-06
1.70029e-05 -4.01144e-05 -3.12316e-06
1.06739e-06 -3.12316e-06 -4.09006e-05
0.000805504 2.08883e-05 -1.26283e-07
2.08883e-05 -3.21776e-05 2.75804e-08
-1.26283e-07 2.75804e-08 -3.5156e-05
0.00217123 2.89063e-05 1.50671e-05
2.89063e-05 0.000687226 -3.75844e-06
1.50671e-05 -3.75844e-06 0.000707861
0.000810845 2.40456e-05 -2.10325e-06
2.40456e-05 -2.44898e-05 3.20429e-06
-2.10325e-06 3.20429e-06 -2.96798e-05
0.00223322 3.45697e-05 -1.09439e-06
3.45697e-05 0.000725892 -5.90244e-08
-1.09439e-06 -5.90244e-08 0.000744761
0.00228296 3.9574e-05 -2.29117e-05
3.9574e-05 0.000758733 3.72008e-06
-2.29117e-05 3.72008e-06 0.000775855
0.00143673 4.10134e-05 7.33603e-07
4.10134e-05 -1.86989e-05 -2.81377e-07
7.33603e-07 -2.81377e-07 -9.99373e-05
0.00167081 9.98176e-06 4.63851e-07
9.98176e-06 7.97523e-05 -3.98883e-07
4.63851e-07 -3.98883e-07 -9.04981e-06
0.00169886 -5.62665e-06 6.0483e-07
-5.62665e-06 8.886e-05 -1.44178e-06
6.0483e-07 -1.44178e-06 -1.1239e-05
0.00175482 1.78258e-05 -1.57979e-09
1.78258e-05 0.000112823 -2.44523e-07
-1.57979e-09 -2.44523e-07 6.16284e-06
0.00176176 1.00832e-05 -1.14868e-08
1.00832e-05 0.000110586 4.28938e-07
-1.14868e-08 4.28938e-07 5.25237e-06
0.00178562 -9.11464e-06 -1.56041e-07
-9.11464e-06 0.000116844 -3.53903e-07
-1.56041e-07 -3.53903e-07 2.42078e-05
0.00166457 2.69357e-05 2.76493e-07
2.69357e-05 6.89892e-05 4.63235e-07
2.76493e-07 4.63235e-07 -1.68132e-05
0.00176032 3.23182e-06 -6.23624e-07
3.23182e-06 0.000104651 8.95928e-07
-6.23624e-07 8.95928e-07 6.1455e-06
0.0018783 -9.37053e-07 -8.01433e-07
-9.37053e-07 0.000163432 3.65646e-07
-8.01433e-07 3.65646e-07 7.27681e-05
0.00139611 -3.71032e-06 -2.32483e-07
-3.71032e-06 -9.09896e-05 2.26831e-07
-2.32483e-07 2.26831e-07 -0.000178695
0.00170694 1.48937e-05 2.14001e-07
1.48937e-05 8.23955e-05 5.06802e-07
2.14001e-07 5.06802e-07 -2.27252e-05
0.00179653 -6.62743e-06 1.63142e-07
-6.62743e-06 0.000121474 2.62194e-07
1.63142e-07 2.62194e-07 2.45121e-05
0.00164716 -5.04311e-05 -1.6034e-06
-5.04311e-05 5.77564e-05 3.7495e-07
-1.6034e-06 3.7495e-07 -2.97979e-05
0.00110378 -8.33489e-05 -3.22181e-08
-8.33489e-05 0.000134357 -6.82028e-08
-3.22181e-08 -6.82028e-08 4.75361e-05
0.000882209 -8.17146e-05 6.50573e-07
-8.17146e-05 2.63685e-05 2.16513e-06
6.50573e-07 2.16513e-06 -7.85034e-05
0.00153268 -0.000116568 -2.0393e-06
-0.000116568 0.000283492 3.06446e-06
-2.0393e-06 3.06446e-06 0.00015415
0.00168352 -9.08374e-05 2.37871e-06
-9.08374e-05 0.000119946 2.18633e-06
2.37871e-06 2.18633e-06 4.83886e-05
0.00124305 -9.93609e-05 -2.68158e-06
-9.93609e-05 -6.56445e-07 -3.22051e-06
-2.68158e-06 -3.22051e-06 -9.95267e-05
0.000790239 -7.02468e-05 -1.03551e-06
-7.02468e-05 -2.56104e-05 -1.22496e-06
-1.03551e-06 -1.22496e-06 -0.000111989
0.00108639 -8.17806e-05 1.09057e-06
-8.17806e-05 0.000130298 -2.57861e-06
1.09057e-06 -2.57861e-06 4.03134e-05
0.000950433 -1.10883e-05 -4.85847e-08
-1.10883e-05 6.15953e-05 -3.37633e-07
-4.85847e-08 -3.37633e-07 -1.93884e-05
0.000861313 1.72193e-05 -7.83125e-07
1.72193e-05 1.01309e-07 1.09875e-06
-7.83125e-07 1.09875e-06 -2.93831e-05
0.000990359 2.64103e-05 -4.83204e-07
2.64103e-05 7.31822e-05 9.24481e-07
-4.83204e-07 9.24481e-07 2.33631e-05
0.000977817 -1.72249e-05 -7.68797e-07
-1.72249e-05 7.2757e-05 1.30793e-06
-7.68797e-07 1.30793e-06 5.28161e-06
0.00180556 2.02678e-05 3.4884e-07
2.02678e-05 0.000125724 4.23186e-07
3.4884e-07 4.23186e-07 2.5499e-05
0.000874292 1.34782e-05 8.02054e-09
1.34782e-05 3.9236e-06 1.69062e-08
8.02054e-09 1.69062e-08 -2.34206e-05
0.000817335 -1.50395e-06 -4.22007e-07
-1.50395e-06 -1.52426e-05 5.24966e-08
-4.22007e-07 5.24966e-08 -5.92978e-05
0.00180648 -1.66178e-05 -3.58415e-07
-1.66178e-05 0.000104626 -8.49568e-07
-3.58415e-07 -8.49568e-07 9.65898e-06
0.00154917 -6.78819e-05 -1.5576e-07
-6.78819e-05 -1.67144e-05 -8.45651e-07
-1.5576e-07 -8.45651e-07 -9.40674e-05
0.000828373 -7.3619e-05 1.06433e-07
-7.3619e-05 9.42599e-06 1.24747e-06
1.06433e-07 1.24747e-06 -8.15865e-05
0.0013966 -0.00010676 -7.65219e-07
-0.00010676 0.000270961 4.84474e-07
-7.65219e-07 4.84474e-07 0.000146252
0.00124146 -0.000108905 9.54958e-07
-0.000108905 9.60795e-05 1.44759e-06
9.54958e-07 1.44759e-06 -4.17756e-05
0.00183766 -0.000112243 -2.16989e-07
-0.000112243 0.000190135 -4.65165e-07
-2.16989e-07 -4.65165e-07 0.000113885
0.000951102 -5.55692e-06 8.59511e-07
-5.55692e-06 5.5478e-05 -4.88744e-07
8.59511e-07 -4.88744e-07 6.53274e-06
0.000971785 -1.35321e-05 -4.85283e-07
-1.35321e-05 7.1583e-05 4.56543e-07
-4.85283e-07 4.56543e-07 6.92624e-06
0.000964095 -7.75779e-05 3.2437e-07
-7.75779e-05 4.64067e-05 6.00837e-07
3.2437e-07 6.00837e-07 -3.86314e-05
0.00126418 -9.21491e-05 -4.75773e-09
-9.21491e-05 0.000233759 -7.6217e-07
-4.75773e-09 -7.6217e-07 0.000144514
0.00085911 -5.76232e-05 1.02316e-07
-5.76232e-05 3.00867e-05 3.06445e-07
1.02316e-07 3.06445e-07 -6.71315e-05
0.00097272 -5.16554e-06 1.16319e-07
-5.16554e-06 7.36516e-05 -2.63669e-07
1.16319e-07 -2.63669e-07 -2.34837e-06
0.00158807 1.74035e-05 -2.05339e-06
1.74035e-05 -3.05046e-06 -3.78152e-07
-2.05339e-06 -3.78152e-07 -8.82365e-05
0.00196919 -2.87262e-05 1.10963e-06
-2.87262e-05 0.000174114 1.71596e-06
1.10963e-06 1.71596e-06 7.97038e-05
0.00198442 -0.000105841 -1.32857e-06
-0.000105841 0.000130493 -4.37959e-06
-1.32857e-06 -4.37959e-06 6.89388e-05
0.00144894 -0.000123703 2.25644e-06
-0.000123703 8.01411e-05 2.53208e-06
2.25644e-06 2.53208e-06 -3.06734e-05
0.00112271 -8.2292e-05 -1.80682e-06
-8.2292e-05 0.00015167 1.56677e-07
-1.80682e-06 1.56677e-07 5.67715e-05
0.00173636 -0.000134215 -2.76209e-07
-0.000134215 0.000425444 -1.53436e-06
-2.76209e-07 -1.53436e-06 0.000266935
0.000740339 2.869e-05 -8.42457e-07
2.869e-05 -5.52452e-05 -1.21133e-06
-8.42457e-07 -1.21133e-06 -9.80355e-05
0.000888829 -1.50713e-05 6.51302e-07
-1.50713e-05 2.18631e-05 -1.00712e-06
6.51302e-07 -1.00712e-06 -2.36188e-05
0.00111053 -2.87228e-05 3.57874e-07
-2.87228e-05 0.000149374 -3.74179e-07
3.57874e-07 -3.74179e-07 9.22628e-05
0.000819773 2.03207e-05 -6.52608e-07
2.03207e-05 -2.35063e-06 -8.03133e-07
-6.52608e-07 -8.03133e-07 -6.84246e-05
0.001099 -1.09664e-05 3.48265e-09
-1.09664e-05 0.000140955 4.70437e-08
3.48265e-09 4.70437e-08 6.87089e-05
0.000747228 -1.71695e-05 9.02238e-08
-1.71695e-05 -2.9062e-05 5.21661e-07
9.02238e-08 5.21661e-07 -0.000116127
0.00118013 -6.34439e-05 3.8035e-06
-6.34439e-05 0.00020837 4.29338e-07
3.8035e-06 4.29338e-07 0.000102753
0.000911588 -8.28709e-05 -3.36098e-06
-8.28709e-05 4.46981e-05 2.1971e-06
-3.36098e-06 2.1971e-06 -4.23082e-05
0.000844868 2.10048e-05 -3.38963e-07
2.10048e-05 3.75567e-06 -3.87584e-07
-3.38963e-07 -3.87584e-07 -6.26516e-05
0.00094398 4.75811e-05 -1.23446e-06
4.75811e-05 6.51563e-05 -1.42669e-06
-1.23446e-06 -1.42669e-06 -1.83409e-05
0.00180562 4.63724e-05 -2.86583e-08
4.63724e-05 0.000125724 -6.42965e-08
-2.86583e-08 -6.42965e-08 4.51593e-05
0.00139076 9.23147e-05 -7.01115e-07
9.23147e-05 -6.73998e-06 8.38648e-07
-7.01115e-07 8.38648e-07 -7.51681e-05
0.00115122 6.29608e-05 -1.52155e-06
6.29608e-05 0.000174553 -5.48868e-07
-1.52155e-06 -5.48868e-07 7.63602e-05
0.00109177 8.49825e-05 -1.75257e-06
8.49825e-05 0.000155504 -2.08004e-06
-1.75257e-06 -2.08004e-06 5.02128e-05
0.00197059 0.000135958 -2.24259e-06
0.000135958 0.000430734 1.71077e-06
-2.24259e-06 1.71077e-06 0.000316407
0.000972185 9.41024e-05 -1.22147e-06
9.41024e-05 5.06491e-05 -8.75106e-07
-1.22147e-06 -8.75106e-07 -8.42392e-05
0.000972692 2.81435e-05 -5.00234e-08
2.81435e-05 7.45889e-05 -4.75308e-07
-5.00234e-08 -4.75308e-07 3.07818e-07
0.00169612 1.71772e-05 1.55595e-08
1.71772e-05 6.91732e-05 2.82899e-07
1.55595e-08 2.82899e-07 -1.57397e-05
0.001013 6.59356e-05 2.39267e-07
6.59356e-05 0.000109886 6.88034e-07
2.39267e-07 6.88034e-07 1.51055e-05
0.000920644 7.91549e-05 5.94519e-08
7.91549e-05 5.49806e-05 -1.81415e-07
5.94519e-08 -1.81415e-07 -6.03616e-05
0.00172901 7.5234e-05 1.0367e-06
7.5234e-05 2.98767e-05 -2.97608e-07
1.0367e-06 -2.97608e-07 -3.58534e-05
0.00188251 0.000134645 1.07108e-06
0.000134645 0.000261463 -5.65899e-07
1.07108e-06 -5.65899e-07 0.000158522
0.00162425 0.000123614 1.82274e-07
0.000123614 0.000356899 6.27881e-07
1.82274e-07 6.27881e-07 0.00021249
0.0010221 3.86514e-05 1.54002e-07
3.86514e-05 0.000107449 7.64171e-07
1.54002e-07 7.64171e-07 2.12893e-05
0.00233192 4.6661e-05 -7.02607e-08
4.6661e-05 0.000330534 3.89499e-07
-7.02607e-08 3.89499e-07 0.000259156
0.0014481 8.75118e-05 -5.78429e-07
8.75118e-05 0.000317185 1.08319e-07
-5.78429e-07 1.08319e-07 0.000214607
0.00179058 0.000120463 -1.45665e-06
0.000120463 0.000484659 1.55969e-06
-1.45665e-06 1.55969e-06 0.000354637
0.00196781 0.000139184 6.59926e-06
0.000139184 0.00011422 -1.81467e-06
6.59926e-06 -1.81467e-06 5.73189e-05
0.000910697 0.000104576 1.78513e-07
0.000104576 -7.43442e-05 8.78715e-07
1.78513e-07 8.78715e-07 -0.000217419
0.00070328 4.5186e-05 1.23308e-05
4.5186e-05 -0.000282544 9.16558e-07
1.23308e-05 9.16558e-07 -0.000348466
0.00100319 6.17455e-06 -3.83674e-07
6.17455e-06 8.66259e-05 -7.24149e-07
-3.83674e-07 -7.24149e-07 1.78636e-05
0.000994631 1.31968e-05 -6.24653e-09
1.31968e-05 8.62758e-05 -6.92609e-08
-6.24653e-09 -6.92609e-08 9.23239e-06
0.00105634 2.91692e-05 2.17313e-07
2.91692e-05 0.00011591 1.27889e-07
2.17313e-07 1.27889e-07 3.28601e-05
0.000905143 -2.24034e-05 1.90896e-07
-2.24034e-05 2.71883e-05 -8.29357e-07
1.90896e-07 -8.29357e-07 -1.65571e-05
0.000817789 -3.43244e-05 -2.05853e-07
-3.43244e-05 -7.69751e-06 -1.45549e-07
-2.05853e-07 -1.45549e-07 -6.48522e-05
0.00105944 3.51085e-05 -7.20932e-07
3.51085e-05 0.000124443 -8.97578e-08
-7.20932e-07 -8.97578e-08 5.7136e-05
0.000964096 -7.95328e-07 -1.20139e-07
-7.95328e-07 6.93031e-05 -1.0535e-06
-1.20139e-07 -1.0535e-06 -5.28761e-06
0.000910957 -1.63401e-05 -2.40593e-07
-1.63401e-05 2.97257e-05 3.59938e-08
-2.40593e-07 3.59938e-08 -1.44216e-05
0.000858675 -6.59771e-06 1.77575e-07
-6.59771e-06 1.14311e-05 2.33759e-08
1.77575e-07 2.33759e-08 -4.40168e-05
0.000979584 1.41253e-05 7.70383e-08
1.41253e-05 7.90184e-05 -5.8751e-07
7.70383e-08 -5.8751e-07 4.11452e-07
0.00099456 -7.22167e-06 -2.40017e-07
-7.22167e-06 8.62e-05 -2.28577e-07
-2.40017e-07 -2.28577e-07 2.19565e-05
0.000969125 -1.19806e-05 1.93226e-07
-1.19806e-05 7.39925e-05 -1.31188e-08
1.93226e-07 -1.31188e-08 1.70762e-06
0.000979143 8.79192e-06 -1.05742e-07
8.79192e-06 7.73164e-05 3.68277e-07
-1.05742e-07 3.68277e-07 -9.88204e-07
0.000991647 7.29583e-06 2.57837e-07
7.29583e-06 8.84622e-05 -1.42831e-07
2.57837e-07 -1.42831e-07 1.99275e-05
0.00104312 9.23944e-06 3.54993e-07
9.23944e-06 0.000107448 -1.94148e-07
3.54993e-07 -1.94148e-07 4.54739e-05
0.000815551 3.06106e-06 -3.58697e-07
3.06106e-06 -1.22027e-05 6.57232e-07
-3.58697e-07 6.57232e-07 -6.90965e-05
0.000785402 8.68037e-06 3.728e-07
8.68037e-06 -3.85561e-05 1.17743e-06
3.728e-07 1.17743e-06 -8.28296e-05
0.0010637 -3.78481e-06 2.48932e-07
-3.78481e-06 0.00012053 -2.8805e-08
2.48932e-07 -2.8805e-08 6.40404e-05
0.000776021 2.20097e-06 -4.82133e-07
2.20097e-06 -4.19649e-05 1.05757e-06
-4.82133e-07 1.05757e-06 -8.64073e-05
0.000870394 1.17856e-05 2.14118e-07
1.17856e-05 1.74283e-07 1.56502e-06
2.14118e-07 1.56502e-06 -2.59233e-05
0.000867782 1.47408e-06 -2.47335e-07
1.47408e-06 -1.59659e-06 5.29207e-09
-2.47335e-07 5.29207e-09 -2.74251e-05
0.000818045 4.28402e-07 2.09496e-07
4.28402e-07 -3.85297e-05 2.98247e-06
2.09496e-07 2.98247e-06 -3.75962e-05
0.000873586 -8.60901e-06 1.39394e-07
-8.60901e-06 6.7907e-07 -1.56072e-06
1.39394e-07 -1.56072e-06 -2.46695e-05
0.00109667 -3.95131e-06 -9.6849e-07
-3.95131e-06 0.000108415 -1.22245e-06
-9.6849e-07 -1.22245e-06 0.00011098
0.002116 -6.18485e-06 4.45726e-06
-6.18485e-06 0.000645855 3.88066e-06
4.45726e-06 3.88066e-06 0.000669411
0.00138835 -8.60169e-06 -2.53567e-06
-8.60169e-06 0.000263482 -4.16927e-06
-2.53567e-06 -4.16927e-06 0.000267455
0.00101028 -9.2631e-06 1.47217e-06
-9.2631e-06 6.47311e-05 2.364e-06
1.47217e-06 2.364e-06 8.27865e-05
0.000959332 -1.33868e-05 -1.24856e-06
-1.33868e-05 4.06192e-05 -1.50293e-06
-1.24856e-06 -1.50293e-06 5.84964e-05
0.000880687 7.21134e-06 2.70102e-07
7.21134e-06 3.21804e-06 -1.56919e-06
2.70102e-07 -1.56919e-06 -2.0268e-05
0.000877433 1.02103e-05 -3.87798e-08
1.02103e-05 2.90198e-06 8.66908e-09
-3.87798e-08 8.66908e-09 -2.22536e-05
0.000809083 1.30342e-05 6.40642e-07
1.30342e-05 -3.93482e-05 -3.07556e-06
6.40642e-07 -3.07556e-06 -3.8437e-05
0.00109191 1.88113e-05 -4.61754e-07
1.88113e-05 0.000113612 3.70183e-08
-4.61754e-07 3.70183e-08 0.000114107
0.00212716 2.30674e-05 1.22936e-05
2.30674e-05 0.000659431 -3.80157e-06
1.22936e-05 -3.80157e-06 0.000681422
0.000822579 2.11077e-05 -1.60218e-06
2.11077e-05 -2.33317e-05 3.18798e-06
-1.60218e-06 3.18798e-06 -2.64132e-05
0.00217792 2.90647e-05 -1.16728e-06
2.90647e-05 0.000691454 -5.12468e-08
-1.16728e-06 -5.12468e-08 0.000711881
0.00223825 3.45067e-05 -1.99169e-05
3.45067e-05 0.000729279 3.77791e-06
-1.99169e-05 3.77791e-06 0.000747978
0.00158097 2.72265e-05 -3.77364e-07
2.72265e-05 2.83889e-05 6.8814e-08
-3.77364e-07 6.8814e-08 -5.72458e-05
0.00177225 -7.74523e-06 2.75007e-07
-7.74523e-06 0.000109514 -7.24103e-07
2.75007e-07 -7.24103e-07 1.68653e-05
0.00171026 6.59427e-06 4.48859e-07
6.59427e-06 8.5506e-05 -1.86198e-08
4.48859e-07 -1.86198e-08 -1.98791e-05
0.00176173 6.34424e-06 3.97106e-07
6.34424e-06 0.000104328 2.64026e-07
3.97106e-07 2.64026e-07 5.63517e-06
0.00176012 -8.45893e-07 -2.46879e-07
-8.45893e-07 0.000106042 1.2124e-07
-2.46879e-07 1.2124e-07 1.56849e-05
0.00164648 -7.10072e-06 1.05852e-06
-7.10072e-06 4.14812e-05 -7.8588e-08
1.05852e-06 -7.8588e-08 -4.59733e-05
0.00164764 9.12292e-06 -6.15444e-07
9.12292e-06 4.20923e-05 -5.14853e-07
-6.15444e-07 -5.14853e-07 -4.4873e-05
0.00334601 -6.72732e-05 4.80859e-07
-6.72732e-05 0.000823023 -4.27079e-06
4.80859e-07 -4.27079e-06 0.000776182
0.00149078 -6.63687e-06 4.69063e-07
-6.63687e-06 -9.79504e-05 3.00538e-08
4.69063e-07 3.00538e-08 -0.000174173
0.000914022 1.08616e-05 1.60983e-07
1.08616e-05 3.24679e-05 -7.12317e-07
1.60983e-07 -7.12317e-07 -7.0263e-06
0.00183979 2.08831e-05 1.14994e-06
2.08831e-05 0.000144143 -5.9001e-08
1.14994e-06 -5.9001e-08 4.57224e-05
0.00190158 -1.73341e-05 -1.64243e-06
-1.73341e-05 0.000150118 -4.05728e-07
-1.64243e-06 -4.05728e-07 5.49193e-05
0.00130892 -6.62635e-05 1.77289e-07
-6.62635e-05 -0.000130352 1.99518e-06
1.77289e-07 1.99518e-06 -0.000210016
0.000899253 -7.60302e-05 1.259e-06
-7.60302e-05 4.6984e-05 1.21792e-07
1.259e-06 1.21792e-07 -4.29396e-05
0.00128445 -0.000102781 -2.05475e-07
-0.000102781 0.000215362 3.14838e-06
-2.05475e-07 3.14838e-06 8.55616e-05
0.00105767 -0.000100754 4.32032e-07
-0.000100754 -1.92492e-07 -3.51025e-07
4.32032e-07 -3.51025e-07 -0.000132866
0.00158541 -0.000107546 -2.34765e-06
-0.000107546 7.36573e-05 -1.05073e-06
-2.34765e-06 -1.05073e-06 -2.32596e-06
0.00111697 -8.34104e-05 2.37705e-06
-8.34104e-05 0.000122524 -2.64601e-06
2.37705e-06 -2.64601e-06 3.58027e-05
0.000809551 -7.41711e-05 -3.03336e-06
-7.41711e-05 1.18541e-06 -5.9445e-06
-3.03336e-06 -5.9445e-06 -8.245e-05
0.00077391 -5.41946e-05 1.50949e-07
-5.41946e-05 -1.25943e-05 2.90704e-07
1.50949e-07 2.90704e-07 -0.000110931
0.00087738 1.30074e-05 -7.24429e-07
1.30074e-05 5.267e-06 1.68017e-06
-7.24429e-07 1.68017e-06 -2.20743e-05
0.000978798 -1.25956e-05 -1.89607e-08
-1.25956e-05 7.69478e-05 -4.64432e-07
-1.89607e-08 -4.64432e-07 3.26747e-07
0.00114056 -2.93579e-05 -4.15929e-07
-2.93579e-05 0.000155506 5.19656e-07
-4.15929e-07 5.19656e-07 0.000107283
0.000959688 2.20349e-07 -3.0575e-07
2.20349e-07 6.62173e-05 1.03011e-06
-3.0575e-07 1.03011e-06 1.042e-06
0.000735356 1.05623e-05 2.12256e-07
1.05623e-05 -6.01354e-05 8.41286e-07
2.12256e-07 8.41286e-07 -0.000103116
0.00174221 1.67414e-05 -5.84534e-07
1.67414e-05 7.78658e-05 -1.34766e-07
-5.84534e-07 -1.34766e-07 -6.73397e-06
0.000826803 9.46345e-06 2.4263e-07
9.46345e-06 -1.06659e-05 -4.67508e-07
2.4263e-07 -4.67508e-07 -5.28769e-05
0.000895647 -1.77779e-05 -3.8352e-07
-1.77779e-05 2.67118e-05 2.74911e-08
-3.8352e-07 2.74911e-08 -1.97965e-05
0.00094165 -9.72316e-06 -7.31185e-07
-9.72316e-06 6.13641e-05 4.74861e-07
-7.31185e-07 4.74861e-07 3.02473e-06
0.00188445 -2.87161e-05 1.84842e-06
-2.87161e-05 0.000120842 5.40132e-07
1.84842e-06 5.40132e-07 2.8262e-05
0.00193283 -0.000106896 -1.27628e-06
-0.000106896 0.000121061 -6.34415e-07
-1.27628e-06 -6.34415e-07 5.73204e-05
0.000979148 -7.86983e-05 -8.26107e-07
-7.86983e-05 7.14725e-05 6.28849e-07
-8.26107e-07 6.28849e-07 -2.12732e-05
0.00106489 -0.000105941 5.62954e-07
-0.000105941 9.71496e-05 -8.64074e-07
5.62954e-07 -8.64074e-07 -6.47367e-05
0.00141274 -0.000124938 6.18999e-07
-0.000124938 6.4168e-05 6.52287e-07
6.18999e-07 6.52287e-07 -4.74517e-05
0.000921109 1.07042e-05 -1.76581e-07
1.07042e-05 4.95841e-05 4.19418e-08
-1.76581e-07 4.19418e-08 -1.51605e-05
0.00103134 -2.12193e-05 -1.27615e-07
-2.12193e-05 0.00010874 -3.93904e-09
-1.27615e-07 -3.93904e-09 3.44897e-05
0.000836191 -7.97906e-05 -2.9088e-06
-7.97906e-05 7.94937e-06 6.5337e-07
-2.9088e-06 6.5337e-07 -8.12312e-05
0.00110732 -5.05697e-05 3.5362e-07
-5.05697e-05 0.000169358 -3.98555e-07
3.5362e-07 -3.98555e-07 6.6165e-05
0.000909464 -2.90221e-05 8.34045e-08
-2.90221e-05 5.46405e-05 7.33569e-07
8.34045e-08 7.33569e-07 -3.22791e-05
0.00180251 8.06484e-06 -1.27403e-06
8.06484e-06 9.10967e-05 5.57918e-07
-1.27403e-06 5.57918e-07 1.00599e-05
0.00231453 -6.5722e-05 4.19288e-08
-6.5722e-05 0.000280096 -1.65157e-06
4.19288e-08 -1.65157e-06 0.00021434
0.00186423 -0.000142092 4.21178e-06
-0.000142092 0.000118061 -3.0669e-06
4.21178e-06 -3.0669e-06 2.90508e-05
0.0015741 -0.000135645 -2.86316e-06
-0.000135645 0.000277157 4.87911e-08
-2.86316e-06 4.87911e-08 0.000133041
0.0011072 -9.48612e-05 4.66642e-07
-9.48612e-05 0.000159885 -1.24491e-06
4.66642e-07 -1.24491e-06 3.6629e-05
0.000749705 1.13814e-05 7.76323e-08
1.13814e-05 -3.91943e-05 -7.51621e-07
7.76323e-08 -7.51621e-07 -9.61657e-05
0.00085969 2.67447e-05 1.44347e-07
2.67447e-05 2.02097e-05 -9.35923e-07
1.44347e-07 -9.35923e-07 -4.27509e-05
0.0010983 1.09779e-05 4.19005e-07
1.09779e-05 0.000143896 3.41691e-07
4.19005e-07 3.41691e-07 7.68732e-05
0.000968294 -3.54919e-05 7.97518e-07
-3.54919e-05 8.12454e-05 -3.07049e-07
7.97518e-07 -3.07049e-07 7.5757e-06
0.00107628 -4.78963e-06 2.75778e-07
-4.78963e-06 0.000133374 7.24878e-07
2.75778e-07 7.24878e-07 5.49422e-05
0.00091145 -2.2846e-05 -4.49615e-07
-2.2846e-05 6.51912e-05 -9.44986e-07
-4.49615e-07 -9.44986e-07 -2.82202e-05
0.000869603 -6.07961e-05 5.32244e-06
-6.07961e-05 6.69815e-05 1.22288e-06
5.32244e-06 1.22288e-06 -5.55796e-05
0.000955505 3.61928e-05 -6.55214e-07
3.61928e-05 6.79664e-05 -1.36827e-06
-6.55214e-07 -1.36827e-06 -7.34751e-06
0.000904203 5.90799e-05 -8.43992e-08
5.90799e-05 5.39192e-05 -1.02029e-07
-8.43992e-08 -1.02029e-07 -3.99262e-05
0.0017792 1.48977e-05 6.26273e-07
1.48977e-05 0.000108954 -1.45785e-07
6.26273e-07 -1.45785e-07 2.30282e-05
0.00117136 6.59263e-05 -3.22254e-07
6.59263e-05 -0.000242235 -8.79568e-07
-3.22254e-07 -8.79568e-07 -0.000307579
0.00242849 0.000152142 -2.54987e-06
0.000152142 0.000526019 9.3882e-07
-2.54987e-06 9.3882e-07 0.000423513
0.000769844 7.28545e-05 -3.27653e-07
7.28545e-05 -2.27793e-05 -8.29235e-07
-3.27653e-07 -8.29235e-07 -0.00013906
0.00150743 0.000119921 -7.80563e-07
0.000119921 0.000301337 2.37454e-07
-7.80563e-07 2.37454e-07 0.000158648
0.00103657 3.32315e-05 1.54394e-08
3.32315e-05 0.000114557 9.36016e-08
1.54394e-08 9.36016e-08 3.01496e-05
0.00172362 4.06451e-05 -1.51375e-06
4.06451e-05 8.75646e-06 -2.50176e-07
-1.51375e-06 -2.50176e-07 -5.92799e-05
0.00119945 8.09877e-05 -5.36451e-07
8.09877e-05 0.000195719 -7.22328e-08
-5.36451e-07 -7.22328e-08 9.37617e-05
0.00129454 9.9146e-05 -6.00351e-07
9.9146e-05 0.000241073 6.66081e-07
-6.00351e-07 6.66081e-07 0.000111492
0.00189444 0.000129614 1.55992e-06
0.000129614 7.44795e-05 -8.52072e-07
1.55992e-06 -8.52072e-07 1.83595e-05
0.00126993 0.000118611 -1.07666e-06
0.000118611 0.00011309 1.38338e-06
-1.07666e-06 1.38338e-06 -3.65845e-05
0.00179016 3.10411e-05 1.57464e-06
3.10411e-05 0.000117309 -2.21098e-06
1.57464e-06 -2.21098e-06 5.43493e-05
0.0010692 5.1578e-05 -4.32392e-07
5.1578e-05 0.000126788 -4.72496e-07
-4.32392e-07 -4.72496e-07 3.47584e-05
0.00200962 0.000105427 1.53265e-06
0.000105427 8.60718e-05 -5.22316e-06
1.53265e-06 -5.22316e-06 6.99638e-05
0.0012764 9.44627e-05 -1.41253e-06
9.44627e-05 0.000242038 -4.99355e-07
-1.41253e-06 -4.99355e-07 0.000135603
0.000989019 9.45537e-05 -1.65415e-06
9.45537e-05 0.000100943 7.70539e-07
-1.65415e-06 7.70539e-07 -5.67863e-05
0.00035565 0.000125438 -1.19401e-06
0.000125438 -0.000471679 -1.44232e-06
-1.19401e-06 -1.44232e-06 -0.000597679
0.00614954 -0.000100013 -2.89777e-05
-0.000100013 0.00198643 -5.36656e-06
-2.89777e-05 -5.36656e-06 0.00144018
0.00225856 -4.51498e-05 6.29458e-05
-4.51498e-05 -8.52906e-05 3.95557e-06
6.29458e-05 3.95557e-06 -0.000430771
0.00108607 0.000143941 1.16662e-05
0.000143941 -0.00023444 8.46226e-06
1.16662e-05 8.46226e-06 -0.000173367
-0.00249783 -0.000235222 -2.5947e-05
-0.000235222 -0.00124623 -1.87165e-05
-2.5947e-05 -1.87165e-05 -0.00114948
0.00216869 -0.000337912 -1.97481e-05
-0.000337912 0.000139788 -3.88859e-06
-1.97481e-05 -3.88859e-06 0.000935317
0.000992213 1.35616e-05 -4.46704e-07
1.35616e-05 8.53295e-05 -9.23706e-07
-4.46704e-07 -9.23706e-07 8.17118e-06
0.00104189 2.48536e-05 1.54217e-07
2.48536e-05 0.000109956 -1.83072e-07
1.54217e-07 -1.83072e-07 2.76211e-05
0.0010753 4.05558e-05 3.64644e-08
4.05558e-05 0.000122771 1.87052e-07
3.64644e-08 1.87052e-07 3.94303e-05
0.000894146 -3.28163e-05 2.8724e-07
-3.28163e-05 2.30055e-05 -8.60026e-07
2.8724e-07 -8.60026e-07 -2.24516e-05
0.000793427 1.01456e-05 -1.69873e-07
1.01456e-05 -2.24677e-05 -6.11249e-07
-1.69873e-07 -6.11249e-07 -7.87768e-05
0.000991284 -2.74066e-05 -5.31279e-08
-2.74066e-05 8.35162e-05 -4.87572e-07
-5.31279e-08 -4.87572e-07 1.96468e-05
0.00105295 -6.2234e-06 -2.1267e-07
-6.2234e-06 0.000117984 -3.53473e-07
-2.1267e-07 -3.53473e-07 4.64105e-05
0.000944841 8.95727e-06 7.36609e-08
8.95727e-06 6.06375e-05 -1.31582e-06
7.36609e-08 -1.31582e-06 -1.79777e-05
0.000972876 1.5746e-05 -4.20527e-07
1.5746e-05 7.18206e-05 -3.78209e-07
-4.20527e-07 -3.78209e-07 8.53308e-06
0.00084429 3.9602e-06 1.042e-07
3.9602e-06 -5.48336e-06 4.16423e-07
1.042e-07 4.16423e-07 -5.04678e-05
0.000888152 4.29847e-07 -2.00709e-07
4.29847e-07 2.62437e-05 4.13514e-09
-2.00709e-07 4.13514e-09 -3.07808e-05
0.000965186 9.66294e-06 -2.28289e-08
9.66294e-06 7.11335e-05 1.27522e-07
-2.28289e-08 1.27522e-07 -6.9021e-06
0.000979631 4.08954e-06 1.08735e-07
4.08954e-06 8.10334e-05 -5.77789e-08
1.08735e-07 -5.77789e-08 1.25336e-05
0.000921381 2.0237e-05 3.66829e-07
2.0237e-05 4.9919e-05 -2.71533e-07
3.66829e-07 -2.71533e-07 -1.72233e-05
0.00102588 2.69076e-05 3.93044e-07
2.69076e-05 0.000103734 3.57906e-07
3.93044e-07 3.57906e-07 3.00593e-05
0.000856167 5.92152e-06 2.33342e-07
5.92152e-06 5.34447e-06 5.97384e-07
2.33342e-07 5.97384e-07 -5.7098e-05
0.000848373 -1.10348e-07 6.13646e-07
-1.10348e-07 1.96728e-06 1.51227e-07
6.13646e-07 1.51227e-07 -5.50787e-05
0.000753267 -2.94073e-05 -1.20051e-06
-2.94073e-05 -5.28685e-05 1.221e-06
-1.20051e-06 1.221e-06 -9.84424e-05
0.000972821 6.89309e-06 -2.32373e-07
6.89309e-06 6.86141e-05 2.06806e-07
-2.32373e-07 2.06806e-07 1.24747e-05
0.00105042 5.81225e-05 1.12878e-07
5.81225e-05 0.000113166 2.20616e-07
1.12878e-07 2.20616e-07 5.05638e-05
0.000916018 4.15619e-06 -4.71966e-07
4.15619e-06 4.2931e-05 4.31877e-07
-4.71966e-07 4.31877e-07 -1.29135e-05
0.000961984 1.15854e-05 3.9676e-07
1.15854e-05 6.46515e-05 -3.31939e-07
3.9676e-07 -3.31939e-07 9.44374e-06
0.000909872 -1.71506e-05 -1.09722e-06
-1.71506e-05 2.84698e-05 6.83511e-07
-1.09722e-06 6.83511e-07 -1.50267e-05
0.000780973 4.00025e-06 1.0437e-07
4.00025e-06 -3.7585e-05 3.54151e-07
1.0437e-07 3.54151e-07 -8.33274e-05
0.000872714 1.20088e-05 -9.12972e-08
1.20088e-05 1.37543e-06 1.60697e-06
-9.12972e-08 1.60697e-06 -2.4801e-05
0.000866567 3.59195e-06 -1.84141e-07
3.59195e-06 -1.91887e-06 5.99267e-10
-1.84141e-07 5.99267e-10 -2.79375e-05
0.000833773 4.30586e-06 -3.18527e-07
4.30586e-06 -2.94113e-05 4.21089e-06
-3.18527e-07 4.21089e-06 -2.883e-05
0.000866785 -6.79747e-06 3.33833e-07
-6.79747e-06 -2.14997e-06 -1.54429e-06
3.33833e-07 -1.54429e-06 -2.79395e-05
0.000820487 4.2676e-07 1.27141e-07
4.2676e-07 -3.72719e-05 -3.9968e-11
1.27141e-07 -3.9968e-11 -3.63517e-05
0.00212644 -9.64794e-07 8.29532e-08
-9.64794e-07 0.000650898 3.91486e-06
8.29532e-08 3.91486e-06 0.000674408
0.000838469 -3.37309e-06 -5.24477e-07
-3.37309e-06 -2.72617e-05 -4.19492e-06
-5.24477e-07 -4.19492e-06 -2.62632e-05
0.00156444 -5.31163e-06 -2.08742e-07
-5.31163e-06 0.000355185 1.74738e-08
-2.08742e-07 1.74738e-08 0.000375972
0.000972879 -8.85458e-06 -7.73823e-07
-8.85458e-06 4.45173e-05 -1.48637e-06
-7.73823e-07 -1.48637e-06 6.2833e-05
0.000884368 3.44267e-06 5.4549e-08
3.44267e-06 3.8702e-06 -1.614e-06
5.4549e-08 -1.614e-06 -1.83777e-05
0.000879488 6.6528e-06 2.63582e-08
6.6528e-06 2.32925e-06 1.94387e-09
2.63582e-08 1.94387e-09 -2.11118e-05
0.000816263 8.83479e-06 4.04566e-07
8.83479e-06 -3.84758e-05 -3.0339e-06
4.04566e-07 -3.0339e-06 -3.61986e-05
0.000880636 9.73421e-06 -5.51764e-07
9.73421e-06 4.2631e-06 1.61758e-06
-5.51764e-07 1.61758e-06 -2.08833e-05
0.00108295 1.42856e-05 -2.1432e-07
1.42856e-05 0.000104626 -5.99224e-07
-2.1432e-07 -5.99224e-07 0.000106919
0.00209475 1.7287e-05 9.1225e-06
1.7287e-05 0.000638665 -3.83128e-06
9.1225e-06 -3.83128e-06 0.000661722
0.000821407 1.74338e-05 -1.19108e-06
1.74338e-05 -2.865e-05 3.14642e-06
-1.19108e-06 3.14642e-06 -2.97242e-05
0.0021563 2.26759e-05 -4.97038e-06
2.26759e-05 0.000675749 1.0944e-06
-4.97038e-06 1.0944e-06 0.000697451
0.00218932 2.91778e-05 -1.6731e-05
2.91778e-05 0.00069815 3.832e-06
-1.6731e-05 3.832e-06 0.000718356
0.00163484 -2.99933e-07 6.09786e-07
-2.99933e-07 4.50698e-05 2.04609e-07
6.09786e-07 2.04609e-07 -4.49691e-05
0.00175376 8.68571e-06 5.33511e-07
8.68571e-06 9.94095e-05 -3.60537e-07
5.33511e-07 -3.60537e-07 5.02346e-07
0.00184756 -9.38907e-06 2.25508e-06
-9.38907e-06 0.000149525 -6.61082e-07
2.25508e-06 -6.61082e-07 6.22706e-05
0.00160995 -3.65127e-05 1.18485e-07
-3.65127e-05 -4.16943e-05 4.77308e-07
1.18485e-07 4.77308e-07 -8.94969e-05
0.00181722 8.57404e-06 -5.84543e-07
8.57404e-06 0.000123802 1.85184e-07
-5.84543e-07 1.85184e-07 3.74217e-05
0.00165015 8.228e-07 9.98384e-07
8.228e-07 -3.26783e-06 5.70528e-07
9.98384e-07 5.70528e-07 -8.17544e-05
0.00208333 2.30576e-05 1.01558e-06
2.30576e-05 0.000194296 7.28115e-07
1.01558e-06 7.28115e-07 0.000103799
0.00280228 -0.000137675 0.000135493
-0.000137675 0.000463624 2.59869e-05
0.000135493 2.59869e-05 0.000250647
0.00114032 -4.68337e-05 -6.47223e-06
-4.68337e-05 -0.000253917 2.00729e-07
-6.47223e-06 2.00729e-07 -0.000317058
0.000912628 1.38297e-05 -5.76233e-07
1.38297e-05 3.25414e-05 -7.76102e-07
-5.76233e-07 -7.76102e-07 -7.04772e-06
0.000911577 -1.40154e-05 5.16268e-07
-1.40154e-05 3.27019e-05 -2.95583e-08
5.16268e-07 -2.95583e-08 -7.9107e-06
0.000913865 -2.335e-05 -1.90336e-07
-2.335e-05 4.33824e-05 -4.12021e-08
-1.90336e-07 -4.12021e-08 -8.39344e-06
0.000916132 -2.43759e-05 -6.48621e-07
-2.43759e-05 5.18012e-05 6.40034e-08
-6.48621e-07 6.40034e-08 -3.151e-06
0.00190377 1.59132e-05 2.14563e-06
1.59132e-05 0.000162376 -9.28207e-07
2.14563e-06 -9.28207e-07 7.83722e-05
0.00189732 -2.94577e-05 3.08307e-06
-2.94577e-05 0.000119207 -2.04955e-07
3.08307e-06 -2.04955e-07 2.79509e-05
0.00182072 -0.000107666 -3.15926e-06
-0.000107666 8.11121e-05 1.56447e-06
-3.15926e-06 1.56447e-06 1.42778e-05
0.000684612 -6.85486e-05 1.02609e-06
-6.85486e-05 -8.82458e-05 2.05405e-06
1.02609e-06 2.05405e-06 -0.000177994
0.000579309 -8.46237e-05 2.13171e-06
-8.46237e-05 -0.000140463 7.98569e-08
2.13171e-06 7.98569e-08 -0.000301688
0.00146433 -0.000129202 -9.47672e-07
-0.000129202 9.14879e-05 -9.98502e-07
-9.47672e-07 -9.98502e-07 -1.95163e-05
0.000799145 -7.8113e-05 -4.86243e-06
-7.8113e-05 -9.44544e-06 -6.66326e-08
-4.86243e-06 -6.66326e-08 -0.000100922
0.00105294 -3.88026e-05 -8.6846e-07
-3.88026e-05 0.000139679 -7.50647e-07
-8.6846e-07 -7.50647e-07 3.86947e-05
0.00107514 -4.20182e-05 -6.54663e-07
-4.20182e-05 0.000140283 1.02317e-06
-6.54663e-07 1.02317e-06 5.34563e-05
0.00090413 3.67706e-08 -8.64439e-07
3.67706e-08 3.13162e-05 1.04902e-06
-8.64439e-07 1.04902e-06 -1.55146e-05
0.000964678 -3.34434e-05 -1.58429e-07
-3.34434e-05 7.68606e-05 7.10072e-08
-1.58429e-07 7.10072e-08 7.54226e-07
0.00101153 9.57255e-06 -6.65053e-07
9.57255e-06 9.52045e-05 7.13628e-07
-6.65053e-07 7.13628e-07 3.23419e-05
0.000913755 -4.24311e-06 -2.05846e-09
-4.24311e-06 3.47892e-05 3.03154e-07
-2.05846e-09 3.03154e-07 -7.23953e-06
0.000765819 1.76604e-05 1.84106e-07
1.76604e-05 -2.95206e-05 1.095e-06
1.84106e-07 1.095e-06 -8.94186e-05
0.00175555 8.00255e-06 -7.94423e-07
8.00255e-06 7.33498e-05 8.55296e-07
-7.94423e-07 8.55296e-07 -7.10428e-06
0.000917239 9.7296e-06 3.84478e-07
9.7296e-06 4.69216e-05 -4.96922e-07
3.84478e-07 -4.96922e-07 -8.2727e-06
0.000883461 1.33434e-05 5.02487e-07
1.33434e-05 3.21264e-05 1.03212e-08
5.02487e-07 1.03212e-08 -2.96218e-05
0.000982699 3.48075e-05 -2.51085e-07
3.48075e-05 8.36441e-05 8.44275e-07
-2.51085e-07 8.44275e-07 1.64187e-05
0.00206613 -6.46307e-05 -3.75186e-06
-6.46307e-05 0.000154015 4.11221e-07
-3.75186e-06 4.11221e-07 8.35015e-05
0.00162019 -0.000131965 -6.60237e-07
-0.000131965 2.92408e-06 -6.46964e-07
-6.60237e-07 -6.46964e-07 -8.47346e-05
0.000975532 -9.054e-05 -3.70137e-08
-9.054e-05 8.00633e-05 -3.5567e-07
-3.70137e-08 -3.5567e-07 -3.93007e-05
0.00169471 -0.000140474 -7.83955e-08
-0.000140474 0.00034186 -1.04608e-06
-7.83955e-08 -1.04608e-06 0.000192185
0.00100853 -1.48773e-05 -3.61946e-07
-1.48773e-05 9.94825e-05 1.03338e-07
-3.61946e-07 1.03338e-07 2.76659e-05
0.000991141 -1.39036e-05 1.05088e-07
-1.39036e-05 9.25535e-05 7.16109e-07
1.05088e-07 7.16109e-07 1.33092e-05
0.00091524 -6.25506e-05 2.66682e-06
-6.25506e-05 8.41152e-05 -7.47236e-07
2.66682e-06 -7.47236e-07 -3.36408e-05
0.00106856 -4.16448e-05 1.88034e-07
-4.16448e-05 0.00014766 -7.28926e-07
1.88034e-07 -7.28926e-07 5.01694e-05
0.00157019 3.71412e-06 -1.39151e-07
3.71412e-06 -5.53788e-05 1.47563e-06
-1.39151e-07 1.47563e-06 -0.000132714
0.0025931 -0.000144483 9.54163e-06
-0.000144483 0.000358405 -3.04673e-06
9.54163e-06 -3.04673e-06 0.000279621
0.00197828 -0.000152423 8.56459e-07
-0.000152423 0.00036363 -3.84691e-06
8.56459e-07 -3.84691e-06 0.000225487
0.0011576 -0.000110191 -1.52005e-06
-0.000110191 0.000182326 3.69083e-07
-1.52005e-06 3.69083e-07 4.79481e-05
0.000888018 1.95e-05 -7.26207e-07
1.95e-05 3.80881e-05 -1.56405e-07
-7.26207e-07 -1.56405e-07 -3.34393e-05
0.000922828 -3.86137e-05 9.37179e-07
-3.86137e-05 5.96142e-05 -8.33903e-07
9.37179e-07 -8.33903e-07 -1.25991e-05
0.000984629 -3.54884e-05 4.20879e-07
-3.54884e-05 9.02493e-05 -2.16337e-07
4.20879e-07 -2.16337e-07 9.17313e-06
0.00099871 -1.53078e-05 -1.41236e-06
-1.53078e-05 0.000122328 6.19436e-07
-1.41236e-06 6.19436e-07 -9.55658e-07
0.000272374 -2.24654e-05 -4.29665e-06
-2.24654e-05 -0.000761807 -4.35978e-06
-4.29665e-06 -4.35978e-06 -0.00125563
0.00104229 2.96296e-05 -2.11948e-07
2.96296e-05 0.000117582 -7.6853e-07
-2.11948e-07 -7.6853e-07 3.47614e-05
0.000937177 7.0416e-05 7.44741e-07
7.0416e-05 6.65314e-05 3.0364e-07
7.44741e-07 3.0364e-07 -3.42218e-05
0.00109748 3.45665e-05 1.12826e-06
3.45665e-05 -0.000325484 2.23947e-07
1.12826e-06 2.23947e-07 -0.000391132
0.00174437 0.000116992 -3.2167e-06
0.000116992 -1.22946e-06 1.47891e-06
-3.2167e-06 1.47891e-06 -5.77526e-05
0.00159928 0.000131752 -2.56764e-06
0.000131752 0.000288028 1.58929e-06
-2.56764e-06 1.58929e-06 0.000130998
0.000829601 7.91148e-05 1.06333e-06
7.91148e-05 1.44236e-05 2.00131e-07
1.06333e-06 2.00131e-07 -0.000115368
0.0026991 1.94169e-05 -7.62408e-06
1.94169e-05 0.000439578 7.60462e-07
-7.62408e-06 7.60462e-07 0.000373736
0.00104477 5.01949e-05 2.11961e-07
5.01949e-05 0.000117906 -2.75097e-07
2.11961e-07 -2.75097e-07 2.63364e-05
0.00190594 0.000103704 -2.24233e-06
0.000103704 3.30578e-05 -1.49882e-06
-2.24233e-06 -1.49882e-06 1.77529e-05
0.00109356 8.67965e-05 7.73478e-07
8.67965e-05 0.000152652 -2.70263e-07
7.73478e-07 -2.70263e-07 4.65971e-05
0.00102632 9.73773e-05 -2.40659e-07
9.73773e-05 0.000122638 2.47725e-08
-2.40659e-07 2.47725e-08 -3.41228e-05
0.000725975 0.000137427 -3.24438e-06
0.000137427 -0.000311389 1.69569e-07
-3.24438e-06 1.69569e-07 -0.000429619
0.00179061 -0.000151378 -2.19928e-05
-0.000151378 -3.6559e-05 -7.33095e-06
-2.19928e-05 -7.33095e-06 -0.000546798
0.00299959 -0.000110438 8.22232e-06
-0.000110438 0.000159169 -1.02029e-05
8.22232e-06 -1.02029e-05 -0.000250025
0.00109737 0.000136648 3.07793e-06
0.000136648 -0.000222005 8.88702e-07
3.07793e-06 8.88702e-07 -0.000162585
-0.00116473 -0.000235025 6.8672e-06
-0.000235025 -0.000564887 3.18351e-07
6.8672e-06 3.18351e-07 -0.000645395
0.000500527 -0.000366136 8.33401e-06
-0.000366136 -0.000794816 1.30684e-06
8.33401e-06 1.30684e-06 8.33031e-05
0.00113017 6.54053e-05 3.64834e-07
6.54053e-05 0.000164649 -3.74204e-07
3.64834e-07 -3.74204e-07 7.38979e-05
8.80153e-05 4.36841e-05 -8.95699e-05
4.36841e-05 -2.22631e-05 -1.86473e-05
-8.95699e-05 -1.86473e-05 -0.000230602
0.0016801 -0.000211758 -2.34939e-05
-0.000211758 0.000519933 -1.4956e-05
-2.34939e-05 -1.4956e-05 0.000869319
0.00121054 0.000128626 -3.9245e-07
0.000128626 -0.000243098 -1.40417e-06
-3.9245e-07 -1.40417e-06 -0.000214904
0.000900639 3.83469e-05 -5.32523e-07
3.83469e-05 6.74776e-05 -4.23401e-07
-5.32523e-07 -4.23401e-07 -4.99246e-05
0.00136989 9.47877e-05 -5.26368e-06
9.47877e-05 0.000326292 1.52124e-07
-5.26368e-06 1.52124e-07 0.000133975
0.0014914 0.000176109 4.76083e-06
0.000176109 9.1022e-05 1.31741e-05
4.76083e-06 1.31741e-05 0.000107842
0.0062922 -0.000271569 -6.05485e-05
-0.000271569 0.00196751 -1.77383e-05
-6.05485e-05 -1.77383e-05 0.00110475
0.00162203 9.17457e-06 1.5673e-05
9.17457e-06 -0.000605201 2.26079e-05
1.5673e-05 2.26079e-05 -0.00112941
-0.000175981 -0.000346679 -5.00964e-05
-0.000346679 -0.000277855 -1.95458e-05
-5.00964e-05 -1.95458e-05 -5.34645e-05
5.02071e-05 -0.00016629 -2.11251e-05
-0.00016629 -0.00141414 -6.40873e-07
-2.11251e-05 -6.40873e-07 -0.000932121
0.00101521 1.92541e-05 -2.73678e-07
1.92541e-05 9.80252e-05 -8.47e-07
-2.73678e-07 -8.47e-07 1.64371e-05
0.00103775 3.75436e-05 -3.87631e-07
3.75436e-05 0.000104783 1.16369e-07
-3.87631e-07 1.16369e-07 2.17518e-05
0.00120146 6.2226e-05 -3.52372e-07
6.2226e-05 0.000189741 -3.61189e-07
-3.52372e-07 -3.61189e-07 0.00010761
0.000899782 1.97346e-06 -7.3914e-09
1.97346e-06 2.64216e-05 -4.25836e-07
-7.3914e-09 -4.25836e-07 -1.96788e-05
0.000956338 -1.22738e-05 -1.41712e-07
-1.22738e-05 6.1796e-05 -5.52476e-07
-1.41712e-07 -5.52476e-07 5.04764e-06
0.000913564 -5.686e-06 -9.75396e-08
-5.686e-06 3.90035e-05 -8.85152e-07
-9.75396e-08 -8.85152e-07 -2.38218e-05
0.000974892 2.41692e-06 6.25104e-08
2.41692e-06 7.71831e-05 -3.2277e-07
6.25104e-08 -3.2277e-07 8.68854e-06
0.000953843 7.09428e-06 -6.29778e-08
7.09428e-06 6.63555e-05 -3.56347e-07
-6.29778e-08 -3.56347e-07 -1.1507e-05
0.000773579 -6.37492e-06 3.18846e-07
-6.37492e-06 -4.1931e-05 3.84938e-07
3.18846e-07 3.84938e-07 -8.79591e-05
0.000917812 1.21386e-05 -1.17544e-07
1.21386e-05 4.86617e-05 -3.28667e-07
-1.17544e-07 -3.28667e-07 -1.78786e-05
0.000979334 -1.34775e-05 -2.43139e-07
-1.34775e-05 7.12334e-05 3.76614e-07
-2.43139e-07 3.76614e-07 8.11967e-06
0.0009199 1.60527e-05 2.99451e-07
1.60527e-05 4.03805e-05 -1.67981e-07
2.99451e-07 -1.67981e-07 -1.69804e-05
0.000987742 2.7127e-05 -2.00851e-08
2.7127e-05 8.34078e-05 9.78936e-08
-2.00851e-08 9.78936e-08 9.09407e-06
0.000911804 8.62027e-06 3.47806e-07
8.62027e-06 3.60904e-05 3.60735e-07
3.47806e-07 3.60735e-07 -3.23038e-05
0.00108358 4.1713e-05 -2.42963e-07
4.1713e-05 0.000132388 1.7873e-08
-2.42963e-07 1.7873e-08 5.47309e-05
0.000980233 -4.88402e-05 -1.203e-07
-4.88402e-05 7.08068e-05 2.11556e-07
-1.203e-07 2.11556e-07 8.68119e-06
0.000993259 -3.26504e-05 -4.30821e-07
-3.26504e-05 7.77387e-05 -8.49513e-08
-4.30821e-07 -8.49513e-08 2.07185e-05
0.000985712 -2.51854e-06 -2.88037e-07
-2.51854e-06 7.42196e-05 -6.86855e-08
-2.88037e-07 -6.86855e-08 1.85992e-05
0.000966568 4.13438e-05 -2.2754e-07
4.13438e-05 6.65996e-05 -3.02079e-07
-2.2754e-07 -3.02079e-07 5.05204e-06
0.000966125 2.33513e-05 8.77572e-08
2.33513e-05 6.6105e-05 2.64229e-07
8.77572e-08 2.64229e-07 2.96604e-06
0.00094402 3.1414e-05 1.10061e-07
3.1414e-05 5.59247e-05 6.5997e-07
1.10061e-07 6.5997e-07 -5.86731e-06
0.00106482 4.08058e-05 -1.03312e-07
4.08058e-05 0.000113985 1.76785e-08
-1.03312e-07 1.76785e-08 4.83226e-05
0.000905591 1.94852e-06 4.59832e-07
1.94852e-06 4.50888e-05 1.48638e-06
4.59832e-07 1.48638e-06 -2.52743e-05
0.000906034 1.44498e-05 -1.37352e-07
1.44498e-05 3.47188e-05 5.74121e-07
-1.37352e-07 5.74121e-07 -2.02992e-05
0.000911878 3.1726e-06 -4.78091e-09
3.1726e-06 3.9564e-05 -2.92135e-08
-4.78091e-09 -2.92135e-08 -1.54328e-05
0.00090098 5.76121e-06 -8.27906e-07
5.76121e-06 2.50672e-05 6.67804e-07
-8.27906e-07 6.67804e-07 -1.81829e-05
0.000862421 1.80422e-05 2.03367e-07
1.80422e-05 9.74815e-06 -5.92778e-07
2.03367e-07 -5.92778e-07 -4.4124e-05
0.000853936 -8.38422e-06 8.49372e-08
-8.38422e-06 -6.76241e-07 1.93384e-08
8.49372e-08 1.93384e-08 -4.45604e-05
0.000873198 1.16293e-05 -3.88098e-07
1.16293e-05 2.01184e-06 1.65575e-06
-3.88098e-07 1.65575e-06 -2.43332e-05
0.000793443 4.85937e-06 3.47802e-07
4.85937e-06 -3.06941e-05 -4.00815e-07
3.47802e-07 -4.00815e-07 -7.68953e-05
0.000870185 5.04542e-06 -1.59451e-07
5.04542e-06 -7.16796e-08 -6.6394e-09
-1.59451e-07 -6.6394e-09 -2.61672e-05
0.00139454 9.23915e-06 -2.65646e-06
9.23915e-06 0.000267416 4.17847e-06
-2.65646e-06 4.17847e-06 0.00027054
0.000863522 -4.55885e-06 5.48358e-07
-4.55885e-06 -3.54145e-06 -1.56836e-06
5.48358e-07 -1.56836e-06 -2.95168e-05
0.00110796 4.79073e-06 -1.10397e-06
4.79073e-06 0.000114974 6.04213e-07
-1.10397e-06 6.04213e-07 0.000117
0.00102393 2.63177e-06 -2.35665e-06
2.63177e-06 7.02141e-05 3.82099e-06
-2.35665e-06 3.82099e-06 8.80104e-05
0.000823819 4.19667e-07 6.51185e-09
4.19667e-07 -3.55289e-05 -2.97065e-06
6.51185e-09 -2.97065e-06 -3.46294e-05
0.00212771 -6.19591e-07 1.67782e-06
-6.19591e-07 0.000651576 5.28299e-10
1.67782e-06 5.28299e-10 0.000675068
0.00102705 -3.50196e-06 -1.41726e-06
-3.50196e-06 7.18171e-05 -3.80717e-06
-1.41726e-06 -3.80717e-06 8.98658e-05
0.00090106 3.24122e-05 2.22478e-07
3.24122e-05 2.88854e-05 -2.02419e-07
2.22478e-07 -2.02419e-07 -1.23343e-05
0.000886238 -2.38095e-07 1.63911e-08
-2.38095e-07 4.75585e-06 -1.60692e-06
1.63911e-08 -1.60692e-06 -1.70472e-05
0.00088423 2.85666e-06 -5.00873e-08
2.85666e-06 3.70419e-06 -5.53692e-10
-5.00873e-08 -5.53692e-10 -1.85278e-05
0.000824636 4.39635e-06 1.20505e-07
4.39635e-06 -3.59893e-05 -3.00845e-06
1.20505e-07 -3.00845e-06 -3.2709e-05
0.000878806 6.13037e-06 -2.95262e-07
6.13037e-06 1.71239e-06 1.54924e-06
-2.95262e-07 1.54924e-06 -2.16867e-05
0.000817827 8.95801e-06 5.81325e-08
8.95801e-06 -3.79548e-05 -6.12277e-07
5.81325e-08 -6.12277e-07 -3.56059e-05
0.00206073 1.14058e-05 6.03412e-06
1.14058e-05 0.000618134 -3.84713e-06
6.03412e-06 -3.84713e-06 0.000642058
0.00134897 1.64661e-05 -1.28725e-06
1.64661e-05 0.000245113 1.8841e-06
-1.28725e-06 1.8841e-06 0.000248552
0.00157086 1.50858e-05 3.05944e-07
1.50858e-05 0.000363561 1.19437e-06
3.05944e-07 1.19437e-06 0.000383535
0.00106633 1.715e-05 -1.28696e-05
1.715e-05 0.000102029 6.27333e-06
-1.28696e-05 6.27333e-06 0.00011799
-0.000420517 2.1876e-06 3.0559e-06
2.1876e-06 -0.00105176 2.11934e-06
3.0559e-06 2.11934e-06 -0.00109459
0.00204822 7.66333e-06 1.29023e-06
7.66333e-06 0.000236206 2.89561e-07
1.29023e-06 2.89561e-07 0.000150414
0.00179025 8.27591e-06 -2.82197e-06
8.27591e-06 8.16453e-05 -1.5889e-06
-2.82197e-06 -1.5889e-06 1.03918e-06
0.0010892 -7.21561e-05 3.04376e-05
-7.21561e-05 -0.000183554 3.37603e-06
3.04376e-05 3.37603e-06 -0.000381383
0.00165732 -4.2228e-05 -2.59276e-06
-4.2228e-05 4.88209e-05 -4.11843e-07
-2.59276e-06 -4.11843e-07 -2.49008e-05
0.00178557 2.29629e-05 -3.13184e-06
2.29629e-05 3.4062e-05 -2.12412e-06
-3.13184e-06 -2.12412e-06 -5.43927e-05
0.00164813 3.95125e-05 -7.2695e-06
3.95125e-05 9.94087e-05 1.05844e-06
-7.2695e-06 1.05844e-06 2.32104e-05
0.00157376 -6.61071e-05 0.000119034
-6.61071e-05 5.56919e-05 2.29018e-06
0.000119034 2.29018e-06 -0.000221309
0.00551654 0.000115823 -1.77873e-05
0.000115823 0.00160597 -1.5575e-06
-1.77873e-05 -1.5575e-06 0.000871317
0.00388929 0.00042902 -2.84634e-05
0.00042902 0.00163076 1.12828e-05
-2.84634e-05 1.12828e-05 0.0018064
0.00142045 0.000361252 -1.45582e-05
0.000361252 3.90496e-05 5.75051e-06
-1.45582e-05 5.75051e-06 0.000765616
0.000752725 -2.82952e-05 1.10284e-06
-2.82952e-05 -3.67058e-05 -6.58054e-07
1.10284e-06 -6.58054e-07 -9.02665e-05
0.000916422 -9.67491e-06 1.44842e-07
-9.67491e-06 3.50172e-05 -1.8222e-08
1.44842e-07 -1.8222e-08 -4.93073e-06
0.000913266 -3.80775e-05 -7.56962e-07
-3.80775e-05 3.52043e-05 7.92491e-07
-7.56962e-07 7.92491e-07 -6.61572e-06
0.000866724 -4.87933e-06 -2.94059e-07
-4.87933e-06 2.03259e-05 2.07645e-08
-2.94059e-07 2.07645e-08 -3.26568e-05
0.000937999 3.89036e-05 8.46957e-08
3.89036e-05 6.60711e-05 7.00635e-07
8.46957e-08 7.00635e-07 2.48e-06
0.000953671 4.3258e-05 1.5773e-07
4.3258e-05 6.98055e-05 6.33549e-07
1.5773e-07 6.33549e-07 9.35574e-06
0.000957952 -1.74405e-05 6.89994e-07
-1.74405e-05 7.11444e-05 -8.83e-07
6.89994e-07 -8.83e-07 1.60089e-05
0.000863274 -3.9253e-05 -5.04197e-07
-3.9253e-05 2.19088e-05 4.71312e-07
-5.04197e-07 4.71312e-07 -3.20478e-05
0.0017084 8.12623e-06 4.70928e-07
8.12623e-06 5.52907e-05 -4.98553e-07
4.70928e-07 -4.98553e-07 -2.45304e-05
0.00171868 -6.25383e-05 -1.4248e-06
-6.25383e-05 -2.62121e-05 4.13154e-07
-1.4248e-06 4.13154e-07 -0.000100026
0.00138286 -0.00012192 -6.5786e-06
-0.00012192 -0.000108723 1.68239e-06
-6.5786e-06 1.68239e-06 -0.000194706
0.000939703 -9.0531e-05 6.91755e-07
-9.0531e-05 5.25365e-05 7.67151e-07
6.91755e-07 7.67151e-07 -6.47201e-05
0.00162765 -0.000139073 7.48299e-07
-0.000139073 0.000312753 8.13491e-07
7.48299e-07 8.13491e-07 0.000154609
0.000950377 -6.31645e-05 3.82113e-08
-6.31645e-05 9.61592e-05 -9.56599e-07
3.82113e-08 -9.56599e-07 -1.70157e-05
0.00122562 -5.99644e-05 2.73683e-07
-5.99644e-05 0.000229846 -3.90186e-07
2.73683e-07 -3.90186e-07 0.000128484
0.000898579 -2.25764e-05 -3.63133e-07
-2.25764e-05 4.76483e-05 2.73369e-07
-3.63133e-07 2.73369e-07 -3.23076e-05
0.000910538 3.49738e-06 3.26405e-07
3.49738e-06 4.59652e-05 6.68971e-07
3.26405e-07 6.68971e-07 -1.47701e-05
0.00106475 -2.16605e-06 -6.66813e-07
-2.16605e-06 0.000126387 3.25243e-07
-6.66813e-07 3.25243e-07 5.60248e-05
0.00109775 2.51497e-06 2.0866e-07
2.51497e-06 0.000138934 -1.2269e-08
2.0866e-07 -1.2269e-08 8.59213e-05
0.00087523 5.75555e-05 1.03011e-06
5.75555e-05 2.75277e-05 1.48659e-06
1.03011e-06 1.48659e-06 -3.99705e-05
0.00170855 9.38986e-06 2.12774e-06
9.38986e-06 7.02918e-06 -2.63017e-06
2.12774e-06 -2.63017e-06 -6.90456e-05
0.000900614 2.02778e-05 -3.5958e-07
2.02778e-05 4.53316e-05 3.8053e-07
-3.5958e-07 3.8053e-07 -2.51438e-05
0.000916018 -2.79943e-05 -2.37828e-07
-2.79943e-05 5.39549e-05 -3.4798e-07
-2.37828e-07 -3.4798e-07 -1.73298e-05
0.00223469 -0.000136724 -3.48559e-06
-0.000136724 0.0001832 -6.2778e-07
-3.48559e-06 -6.2778e-07 0.000109652
0.000913936 -0.000117512 5.47814e-07
-0.000117512 -0.000152488 1.9835e-06
5.47814e-07 1.9835e-06 -0.000284236
0.00124822 -0.000115127 1.25366e-06
-0.000115127 0.000226495 -8.94883e-07
1.25366e-06 -8.94883e-07 8.73931e-05
0.000985905 -3.51669e-05 1.25115e-07
-3.51669e-05 8.99625e-05 -1.58326e-07
1.25115e-07 -1.58326e-07 7.08049e-06
0.00105986 -2.6477e-05 8.95705e-08
-2.6477e-05 0.000153815 2.47663e-07
8.95705e-08 2.47663e-07 3.00866e-05
0.00297938 -7.79063e-05 -9.00704e-06
-7.79063e-05 0.000665982 9.85851e-06
-9.00704e-06 9.85851e-06 0.000602436
0.00312527 -0.00022143 7.38475e-06
-0.00022143 0.00079357 -4.4731e-06
7.38475e-06 -4.4731e-06 0.000657152
0.000318692 -9.66653e-05 -3.37133e-06
-9.66653e-05 -0.000262622 -1.4167e-06
-3.37133e-06 -1.4167e-06 -0.000400751
0.00126462 -7.54627e-05 -2.06585e-06
-7.54627e-05 0.000267314 1.84588e-06
-2.06585e-06 1.84588e-06 0.000115159
0.000803172 -5.26957e-05 7.21278e-07
-5.26957e-05 -2.34677e-06 -1.06295e-07
7.21278e-07 -1.06295e-07 -7.88573e-05
0.00100681 -4.01812e-05 1.61291e-06
-4.01812e-05 9.84755e-05 -3.80844e-07
1.61291e-06 -3.80844e-07 1.68314e-05
0.00113582 -1.86257e-05 -8.24346e-07
-1.86257e-05 0.000167648 3.3932e-07
-8.24346e-07 3.3932e-07 7.03656e-05
-0.00181186 -1.60971e-05 -4.45841e-05
-1.60971e-05 -0.000972355 -1.16599e-06
-4.45841e-05 -1.16599e-06 -0.000884624
0.00630507 -1.68477e-05 -2.36074e-05
-1.68477e-05 0.00212691 -2.22105e-06
-2.36074e-05 -2.22105e-06 0.00158266
0.00103006 5.27339e-05 4.93302e-07
5.27339e-05 0.00011442 -2.38203e-07
4.93302e-07 -2.38203e-07 2.2804e-05
0.000842321 7.61322e-05 1.37258e-06
7.61322e-05 2.74825e-05 -1.22059e-06
1.37258e-06 -1.22059e-06 -7.7829e-05
0.00180617 0.000102509 -7.19023e-06
0.000102509 -2.14272e-05 3.14213e-06
-7.19023e-06 3.14213e-06 -3.33973e-05
0.00137527 0.000158626 -2.55648e-06
0.000158626 -1.43158e-05 1.06941e-06
-2.55648e-06 1.06941e-06 -0.000123712
0.00109818 0.000101308 1.39874e-06
0.000101308 0.00016164 -9.38721e-07
1.39874e-06 -9.38721e-07 6.76206e-06
0.00551785 -1.98211e-05 2.84409e-05
-1.98211e-05 0.00158624 -8.20785e-06
2.84409e-05 -8.20785e-06 0.000940888
0.00306746 -0.000123509 -6.06364e-05
-0.000123509 0.000208278 -1.60798e-05
-6.06364e-05 -1.60798e-05 -0.000105847
0.00102937 0.00011911 -5.34068e-06
0.00011911 -0.00025658 -8.79662e-06
-5.34068e-06 -8.79662e-06 -0.000193318
0.00296056 -0.00035092 2.92861e-05
-0.00035092 0.00139066 1.71872e-05
2.92861e-05 1.71872e-05 0.00142243
-0.00115776 -0.000399719 1.98831e-05
-0.000399719 -0.00172152 -5.57357e-06
1.98831e-05 -5.57357e-06 -0.000743108
0.00103863 7.21492e-05 -7.41623e-08
7.21492e-05 0.000118496 -2.49009e-07
-7.41623e-08 -2.49009e-07 2.69177e-05
-0.00173594 -8.85072e-05 -4.7655e-06
-8.85072e-05 -0.000953383 -1.37953e-06
-4.7655e-06 -1.37953e-06 -0.000816165
0.000481603 -0.00019735 -8.19608e-06
-0.00019735 -2.26155e-05 -7.66476e-07
-8.19608e-06 -7.66476e-07 0.000195022
0.00201089 0.000144397 -4.3574e-07
0.000144397 0.000150585 -2.52237e-07
-4.3574e-07 -2.52237e-07 0.000171411
0.00102581 5.77724e-05 -1.84765e-07
5.77724e-05 0.000139501 -1.01115e-06
-1.84765e-07 -1.01115e-06 2.49002e-05
0.000950708 9.12696e-05 1.46322e-07
9.12696e-05 0.000116914 3.89286e-07
1.46322e-07 3.89286e-07 -7.39183e-05
0.000278886 0.000123414 8.9576e-06
0.000123414 -0.000495126 3.29684e-06
8.9576e-06 3.29684e-06 -0.000461887
0.00463355 -0.000181242 3.35733e-06
-0.000181242 0.00107853 2.76495e-06
3.35733e-06 2.76495e-06 0.000157071
0.00323683 6.91076e-05 -2.25389e-05
6.91076e-05 0.000325317 -1.39449e-05
-2.25389e-05 -1.39449e-05 3.16288e-05
0.00343293 -0.000477712 9.18214e-06
-0.000477712 0.00118113 -9.59968e-07
9.18214e-06 -9.59968e-07 0.00125703
0.000264076 -0.00021195 5.47824e-06
-0.00021195 -0.00145626 1.43087e-05
5.47824e-06 1.43087e-05 -0.000795938
0.00111255 3.32001e-05 -2.035e-06
3.32001e-05 0.000142836 -1.04254e-06
-2.035e-06 -1.04254e-06 5.6192e-05
-0.000436296 -5.23002e-05 -2.64011e-05
-5.23002e-05 -0.000340178 -5.41222e-06
-2.64011e-05 -5.41222e-06 -0.000438464
0.00127896 -1.74564e-05 -2.03994e-05
-1.74564e-05 -3.78585e-05 -1.88564e-05
-2.03994e-05 -1.88564e-05 -8.87357e-05
0.000448885 0.000132105 -2.65138e-06
0.000132105 -0.000280477 -4.91819e-06
-2.65138e-06 -4.91819e-06 -0.000385655
0.00181147 8.24684e-05 -7.63319e-06
8.24684e-05 0.000602229 -3.85792e-07
-7.63319e-06 -3.85792e-07 0.000454787
0.00316735 -3.20249e-05 -6.32421e-06
-3.20249e-05 0.00131937 -2.55655e-06
-6.32421e-06 -2.55655e-06 0.00127294
0.00195631 0.000257823 -7.77715e-05
0.000257823 2.01261e-05 1.07813e-05
-7.77715e-05 1.07813e-05 -0.000264714
0.000818136 -0.000273978 1.43174e-05
-0.000273978 -0.000428854 1.68378e-05
1.43174e-05 1.68378e-05 -0.0015732
0.00539734 -0.000478562 -4.99131e-05
-0.000478562 0.00142967 -1.01282e-05
-4.99131e-05 -1.01282e-05 0.00157453
0.00071872 -8.4711e-05 -2.25523e-06
-8.4711e-05 -0.000955475 -8.66541e-06
-2.25523e-06 -8.66541e-06 -0.000654899
0.00100258 4.3214e-05 2.35216e-07
4.3214e-05 8.96835e-05 5.8227e-07
2.35216e-07 5.8227e-07 5.83453e-06
0.00108129 5.78315e-05 1.01773e-06
5.78315e-05 0.000127438 5.01502e-07
1.01773e-06 5.01502e-07 4.48238e-05
0.000624582 5.38653e-05 1.3548e-06
5.38653e-05 -8.74004e-05 -7.69271e-07
1.3548e-06 -7.69271e-07 -0.000172489
0.000791478 1.70311e-05 2.13914e-07
1.70311e-05 -3.25363e-05 -4.40115e-07
2.13914e-07 -4.40115e-07 -7.88075e-05
0.000988946 2.45702e-05 -2.40734e-07
2.45702e-05 7.74264e-05 -4.09929e-07
-2.40734e-07 -4.09929e-07 1.99015e-05
0.00110834 -3.51254e-05 1.29308e-07
-3.51254e-05 0.000139311 -8.49595e-08
1.29308e-07 -8.49595e-08 7.60578e-05
0.00090011 6.8037e-06 -4.56213e-07
6.8037e-06 4.0584e-05 -4.38863e-07
-4.56213e-07 -4.38863e-07 -2.5445e-05
0.000952891 2.42719e-05 -3.67233e-07
2.42719e-05 6.43781e-05 2.78829e-08
-3.67233e-07 2.78829e-08 -1.02386e-05
0.000975102 1.12894e-05 3.28968e-07
1.12894e-05 6.92005e-05 -3.72181e-07
3.28968e-07 -3.72181e-07 1.17887e-05
0.000961416 5.27784e-06 -8.37377e-08
5.27784e-06 6.43825e-05 -1.8791e-07
-8.37377e-08 -1.8791e-07 -3.8456e-06
0.000956375 -3.20973e-05 1.61037e-07
-3.20973e-05 5.84227e-05 -6.20034e-08
1.61037e-07 -6.20034e-08 -3.76112e-06
0.00103544 2.87643e-05 -5.49547e-08
2.87643e-05 0.000109474 4.20818e-07
-5.49547e-08 4.20818e-07 3.2136e-05
0.00129896 -1.81397e-05 2.39522e-07
-1.81397e-05 0.000241794 1.32488e-07
2.39522e-07 1.32488e-07 0.000164134
0.000991323 -5.28271e-06 -4.26183e-07
-5.28271e-06 7.41218e-05 6.01566e-07
-4.26183e-07 6.01566e-07 5.20436e-06
0.000978402 3.5886e-06 1.62589e-07
3.5886e-06 7.23311e-05 9.76091e-08
1.62589e-07 9.76091e-08 8.3593e-06
0.000986216 -2.09678e-05 1.86342e-07
-2.09678e-05 7.60105e-05 -3.88045e-07
1.86342e-07 -3.88045e-07 1.93031e-05
0.000877677 1.95274e-05 -2.57623e-07
1.95274e-05 1.74463e-05 -8.10114e-07
-2.57623e-07 -8.10114e-07 -4.29384e-05
0.000958204 2.59914e-06 2.99441e-07
2.59914e-06 6.21672e-05 -1.76542e-08
2.99441e-07 -1.76542e-08 -7.8523e-07
0.000931624 2.93948e-05 6.40812e-09
2.93948e-05 4.97631e-05 -9.241e-09
6.40812e-09 -9.241e-09 -1.19683e-05
0.00100995 2.92514e-05 -4.85853e-07
2.92514e-05 8.26048e-05 -6.32215e-07
-4.85853e-07 -6.32215e-07 1.76414e-05
0.000904512 1.79909e-05 3.20049e-07
1.79909e-05 3.79206e-05 1.17941e-06
3.20049e-07 1.17941e-06 -2.62011e-05
0.00101141 2.9502e-05 3.27265e-07
2.9502e-05 8.67071e-05 1.586e-07
3.27265e-07 1.586e-07 2.01072e-05
0.000935098 1.38525e-05 -1.20247e-07
1.38525e-05 4.28125e-05 5.27155e-07
-1.20247e-07 5.27155e-07 -2.46584e-05
0.000926023 -1.04834e-05 6.27439e-07
-1.04834e-05 5.68002e-05 2.89649e-07
6.27439e-07 2.89649e-07 -2.40416e-05
0.000809512 -4.86408e-05 -1.58288e-07
-4.86408e-05 2.1189e-05 2.46734e-07
-1.58288e-07 2.46734e-07 -7.3065e-05
0.000804522 -1.03346e-05 -5.7796e-07
-1.03346e-05 -9.21645e-07 1.43527e-07
-5.7796e-07 1.43527e-07 -7.83503e-05
0.000933249 1.71651e-06 1.26901e-07
1.71651e-06 5.99978e-05 3.7076e-07
1.26901e-07 3.7076e-07 -1.06018e-05
0.000916569 6.38013e-06 6.06625e-08
6.38013e-06 4.18008e-05 1.26676e-06
6.06625e-08 1.26676e-06 -1.67508e-05
0.000921248 9.92655e-06 -1.23448e-07
9.92655e-06 4.32629e-05 -9.74437e-08
-1.23448e-07 -9.74437e-08 -1.2094e-05
0.000900583 2.03258e-05 -4.08615e-07
2.03258e-05 2.62448e-05 7.2048e-07
-4.08615e-07 7.2048e-07 -1.75735e-05
0.000916045 1.48968e-05 3.56309e-07
1.48968e-05 4.04197e-05 -3.92863e-07
3.56309e-07 -3.92863e-07 -1.36625e-05
0.000907584 7.40685e-06 4.51766e-10
7.40685e-06 2.81696e-05 2.24072e-08
4.51766e-10 2.24072e-08 -1.50192e-05
0.000870826 1.43088e-05 -7.11199e-07
1.43088e-05 2.70367e-06 1.63431e-06
-7.11199e-07 1.63431e-06 -2.42019e-05
0.00079208 9.69765e-06 3.07797e-07
9.69765e-06 -3.38164e-05 -6.80058e-07
3.07797e-07 -6.80058e-07 -7.7414e-05
0.000874565 7.08309e-06 -7.63488e-08
7.08309e-06 2.59118e-06 -6.50498e-09
-7.63488e-08 -6.50498e-09 -2.37063e-05
0.00139119 1.39214e-05 -4.22351e-06
1.39214e-05 0.000267851 4.1766e-06
-4.22351e-06 4.1766e-06 0.000270629
0.000867938 -8.78652e-07 6.49695e-07
-8.78652e-07 -1.38435e-06 -1.58004e-06
6.49695e-07 -1.58004e-06 -2.74109e-05
0.00110534 9.21353e-06 -1.71975e-06
9.21353e-06 0.000115059 5.94982e-07
-1.71975e-06 5.94982e-07 0.000116842
0.000978947 8.34381e-06 -7.16666e-07
8.34381e-06 4.79401e-05 1.50578e-06
-7.16666e-07 1.50578e-06 6.56295e-05
0.000820384 4.41809e-06 3.171e-07
4.41809e-06 -3.68095e-05 -2.98056e-06
3.171e-07 -2.98056e-06 -3.61103e-05
0.00213263 5.1668e-06 1.56889e-06
5.1668e-06 0.000654578 1.08114e-08
1.56889e-06 1.08114e-08 0.000677943
0.00212865 -2.71632e-07 1.08271e-06
-2.71632e-07 0.00065206 -3.91618e-06
1.08271e-06 -3.91618e-06 0.000675532
0.00114208 2.00745e-05 -7.72886e-07
2.00745e-05 0.000153727 -3.88162e-07
-7.72886e-07 -3.88162e-07 0.000113516
0.000886567 -3.25888e-06 -1.58612e-07
-3.25888e-06 5.93859e-06 -1.5187e-06
-1.58612e-07 -1.5187e-06 -1.64148e-05
0.000908783 3.25571e-06 6.07511e-07
3.25571e-06 3.26764e-05 4.56412e-07
6.07511e-07 4.56412e-07 -8.26171e-06
0.000831628 -1.55907e-07 -4.68316e-08
-1.55907e-07 -3.28176e-05 -2.99602e-06
-4.68316e-08 -2.99602e-06 -2.92077e-05
0.000885457 -6.82315e-07 3.05035e-08
-6.82315e-07 4.31225e-06 -2.31027e-09
3.05035e-08 -2.31027e-09 -1.74858e-05
0.000881175 2.29966e-06 -2.31267e-07
2.29966e-06 1.98872e-06 1.58141e-06
-2.31267e-07 1.58141e-06 -2.02141e-05
0.000828155 4.54967e-06 -1.20941e-07
4.54967e-06 -3.41445e-05 8.32398e-09
-1.20941e-07 8.32398e-09 -3.09013e-05
0.00203398 5.59398e-06 2.61314e-06
5.59398e-06 0.000602506 -3.85782e-06
2.61314e-06 -3.85782e-06 0.000626999
0.00134134 1.12287e-05 -8.10189e-07
1.12287e-05 0.00023796 1.84705e-06
-8.10189e-07 1.84705e-06 0.000242883
0.00152967 1.03117e-05 1.75896e-06
1.03117e-05 0.000338567 2.37829e-08
1.75896e-06 2.37829e-08 0.000359695
0.00105894 1.27632e-05 -1.06014e-05
1.27632e-05 9.35257e-05 6.23023e-06
-1.06014e-05 6.23023e-06 0.000110872
-0.00339724 0.000102056 -3.41691e-05
0.000102056 -0.00185046 9.79408e-06
-3.41691e-05 9.79408e-06 -0.00176334
-0.0012695 0.000172 -8.01672e-06
0.000172 -0.0010664 1.05799e-05
-8.01672e-06 1.05799e-05 -0.000837616
0.000461523 -3.79948e-05 -7.57341e-05
-3.79948e-05 -0.000502473 -8.38117e-06
-7.57341e-05 -8.38117e-06 -0.00069342
0.00241852 -4.27068e-05 -1.82257e-07
-4.27068e-05 0.000474504 -2.58522e-07
-1.82257e-07 -2.58522e-07 0.000391508
0.00150677 2.33499e-05 -1.09374e-05
2.33499e-05 -0.000114962 1.47301e-07
-1.09374e-05 1.47301e-07 -0.000201507
0.0010676 -2.69438e-05 2.41688e-05
-2.69438e-05 -2.34137e-05 -2.21836e-06
2.41688e-05 -2.21836e-06 -0.000219888
0.00193007 4.485e-05 1.32286e-06
4.485e-05 0.000245439 1.34187e-06
1.32286e-06 1.34187e-06 0.000166598
0.00508235 0.000240614 -2.57633e-05
0.000240614 0.00135094 -3.01135e-06
-2.57633e-05 -3.01135e-06 0.000707816
-0.00302122 0.00020918 -5.3446e-06
0.00020918 -0.00134911 -3.30723e-06
-5.3446e-06 -3.30723e-06 -0.00128054
0.000232458 0.000385274 4.13925e-06
0.000385274 -0.000825183 -5.32469e-06
4.13925e-06 -5.32469e-06 3.13623e-05
0.00122608 2.1672e-05 4.0538e-05
2.1672e-05 9.98251e-05 -1.12868e-05
4.0538e-05 -1.12868e-05 -0.000124711
0.00633788 0.000384326 -6.38801e-06
0.000384326 0.00190973 -3.22582e-06
-6.38801e-06 -3.22582e-06 0.00109603
-0.000114343 0.000356582 -4.86805e-05
0.000356582 -0.000248432 2.36212e-05
-4.86805e-05 2.36212e-05 8.24062e-06
0.00265851 0.000212217 -2.75923e-05
0.000212217 6.8096e-05 1.56933e-05
-2.75923e-05 1.56933e-05 0.000607302
0.000874137 2.96263e-05 -5.07944e-07
2.96263e-05 3.36638e-05 -3.23012e-07
-5.07944e-07 -3.23012e-07 -3.35989e-05
0.000825499 -6.97336e-06 1.07955e-07
-6.97336e-06 3.43757e-07 -4.02809e-07
1.07955e-07 -4.02809e-07 -5.24831e-05
0.000909852 -3.51708e-05 -7.25566e-07
-3.51708e-05 3.29458e-05 8.03048e-07
-7.25566e-07 8.03048e-07 -7.90141e-06
0.000808776 9.27943e-06 8.52889e-08
9.27943e-06 -8.79718e-06 2.8032e-07
8.52889e-08 2.8032e-07 -6.25826e-05
0.000938585 4.32794e-05 6.65776e-07
4.32794e-05 6.7735e-05 8.55795e-07
6.65776e-07 8.55795e-07 4.83792e-06
0.000976593 3.0273e-05 -4.4433e-07
3.0273e-05 8.73128e-05 8.44951e-08
-4.4433e-07 8.44951e-08 2.04346e-05
0.000923846 3.04599e-05 1.01295e-06
3.04599e-05 5.77513e-05 1.02168e-06
1.01295e-06 1.02168e-06 -4.91668e-06
0.000898909 -4.09098e-06 7.46351e-07
-4.09098e-06 4.08665e-05 1.10634e-07
7.46351e-07 1.10634e-07 -1.99847e-05
0.000888673 -2.09701e-05 2.98796e-07
-2.09701e-05 3.55458e-05 -5.31204e-07
2.98796e-07 -5.31204e-07 -2.07675e-05
0.000802707 -3.22626e-05 -3.88587e-07
-3.22626e-05 -9.3165e-06 6.55067e-07
-3.88587e-07 6.55067e-07 -6.39481e-05
0.00184448 1.65321e-05 -4.08639e-07
1.65321e-05 6.81238e-05 5.5908e-07
-4.08639e-07 5.5908e-07 -7.16425e-06
0.00162979 -0.000123804 -1.06232e-05
-0.000123804 -0.000114647 1.60702e-06
-1.06232e-05 1.60702e-06 -0.000183065
-0.000216983 -7.98292e-05 2.6429e-06
-7.98292e-05 -0.000701525 4.7552e-06
2.6429e-06 4.7552e-06 -0.000826585
0.0013531 -0.000120592 1.37308e-06
-0.000120592 0.000278198 4.63429e-08
1.37308e-06 4.63429e-08 0.000136023
0.00108803 -3.85058e-05 1.83971e-06
-3.85058e-05 0.000167302 -7.13657e-07
1.83971e-06 -7.13657e-07 4.38699e-05
0.00100019 -3.9036e-05 -2.55688e-07
-3.9036e-05 9.50757e-05 -3.47796e-07
-2.55688e-07 -3.47796e-07 1.11282e-05
0.000891879 -2.30335e-05 -8.08386e-07
-2.30335e-05 3.95168e-05 1.27312e-07
-8.08386e-07 1.27312e-07 -3.07826e-05
0.000915176 2.13372e-05 -4.0217e-07
2.13372e-05 5.36811e-05 3.87158e-07
-4.0217e-07 3.87158e-07 -1.57802e-05
0.00194706 -6.08537e-05 -4.56049e-06
-6.08537e-05 0.000115113 1.5136e-06
-4.56049e-06 1.5136e-06 5.87615e-05
0.000834671 -2.49675e-05 -1.63267e-07
-2.49675e-05 1.33654e-05 4.64023e-08
-1.63267e-07 4.64023e-08 -6.37066e-05
0.000926 -4.39117e-05 5.81627e-07
-4.39117e-05 5.51321e-05 -4.42592e-07
5.81627e-07 -4.42592e-07 -2.76475e-05
0.00203898 -0.000183568 2.09834e-06
-0.000183568 0.000263089 -2.41586e-07
2.09834e-06 -2.41586e-07 0.000131624
0.000521563 -9.96972e-05 1.377e-06
-9.96972e-05 -0.000141023 2.89588e-06
1.377e-06 2.89588e-06 -0.000273051
0.00115691 -7.07092e-05 9.51149e-07
-7.07092e-05 0.000202488 5.56252e-08
9.51149e-07 5.56252e-08 5.76623e-05
0.00112268 -2.85734e-05 -4.87529e-07
-2.85734e-05 0.000160715 -2.9689e-07
-4.87529e-07 -2.9689e-07 5.9371e-05
0.00258195 -0.000149434 3.14011e-06
-0.000149434 0.000534804 7.85794e-07
3.14011e-06 7.85794e-07 0.000504301
0.00263676 -0.000203835 -3.42595e-06
-0.000203835 0.00083188 -3.16961e-06
-3.42595e-06 -3.16961e-06 0.000685778
0.000951206 -4.9296e-06 -1.84413e-06
-4.9296e-06 0.000110907 1.46535e-06
-1.84413e-06 1.46535e-06 -2.85467e-05
0.000898444 3.20671e-05 4.54203e-07
3.20671e-05 4.82486e-05 8.86022e-07
4.54203e-07 8.86022e-07 -3.02996e-05
0.000908293 -6.79427e-05 1.13142e-06
-6.79427e-05 4.57043e-05 1.24111e-08
1.13142e-06 1.24111e-08 -4.0876e-05
0.00112724 -2.69048e-05 4.85243e-07
-2.69048e-05 0.000143125 1.03864e-06
4.85243e-07 1.03864e-06 5.25157e-05
0.00116075 -4.0405e-06 -2.66404e-05
-4.0405e-06 0.000580422 5.01537e-07
-2.66404e-05 5.01537e-07 0.000535004
0.00133815 -7.89985e-06 1.11514e-05
-7.89985e-06 0.000514571 7.909e-07
1.11514e-05 7.909e-07 0.000421115
0.000384292 0.000123329 -4.33824e-05
0.000123329 -0.000788591 9.66527e-06
-4.33824e-05 9.66527e-06 -0.00133164
0.000978936 7.21202e-05 6.73718e-08
7.21202e-05 8.69231e-05 2.41682e-07
6.73718e-08 2.41682e-07 -4.50389e-06
0.00112025 7.49051e-05 2.05156e-06
7.49051e-05 0.000193763 -3.67206e-07
2.05156e-06 -3.67206e-07 8.19706e-05
0.00270672 0.00015629 -5.14181e-07
0.00015629 0.000494678 4.08576e-07
-5.14181e-07 4.08576e-07 0.000503195
0.000442599 8.76042e-05 2.5821e-06
8.76042e-05 -0.000134831 -1.75258e-06
2.5821e-06 -1.75258e-06 -0.000327915
0.00337797 -0.00023785 4.61128e-05
-0.00023785 0.00138239 8.76342e-06
4.61128e-05 8.76342e-06 0.00148502
0.000956214 -0.000252946 1.83286e-05
-0.000252946 -0.000567414 2.446e-05
1.83286e-05 2.446e-05 -0.00122299
0.00440186 7.70576e-05 -7.32627e-05
7.70576e-05 0.000660689 -5.36481e-05
-7.32627e-05 -5.36481e-05 0.00021959
-0.000421676 0.000107539 1.55423e-06
0.000107539 -0.000803502 1.80048e-06
1.55423e-06 1.80048e-06 -0.000766927
-0.00205723 -0.00029141 5.71996e-05
-0.00029141 -0.0012173 2.86662e-05
5.71996e-05 2.86662e-05 -0.00113734
0.00183286 -0.000194681 2.45633e-05
-0.000194681 0.000643753 1.40246e-05
2.45633e-05 1.40246e-05 0.00085077
0.00263065 -0.000259306 2.70862e-05
-0.000259306 -2.61558e-05 1.42983e-05
2.70862e-05 1.42983e-05 0.000709327
0.00106437 4.6626e-05 3.93732e-10
4.6626e-05 0.000123485 1.68649e-08
3.93732e-10 1.68649e-08 3.55496e-05
0.000310111 -7.11481e-05 -1.07446e-05
-7.11481e-05 3.76731e-05 -2.22689e-06
-1.07446e-05 -2.22689e-06 3.44241e-05
0.00151396 -1.54641e-05 -2.56795e-06
-1.54641e-05 9.94361e-05 -5.66848e-06
-2.56795e-06 -5.66848e-06 4.95918e-05
0.000904677 0.000124205 -9.5045e-07
0.000124205 -3.97817e-05 -8.37881e-09
-9.5045e-07 -8.37881e-09 -0.000162845
0.000824046 4.92848e-05 -5.15841e-07
4.92848e-05 0.000118987 -1.76861e-08
-5.15841e-07 -1.76861e-08 -3.55509e-05
0.00182364 2.10839e-05 1.39478e-05
2.10839e-05 0.000634729 -4.70232e-06
1.39478e-05 -4.70232e-06 0.000564516
0.00480418 0.000369567 -3.31285e-05
0.000369567 0.00120862 -1.64068e-05
-3.31285e-05 -1.64068e-05 0.000717623
0.00720932 -0.000316614 4.17347e-06
-0.000316614 0.00224542 4.24518e-06
4.17347e-06 4.24518e-06 0.00127099
1.30259e-05 -0.000291299 5.89914e-06
-0.000291299 -0.000962375 1.25272e-05
5.89914e-06 1.25272e-05 -0.000858489
0.00250553 -0.000115518 4.08869e-07
-0.000115518 9.91508e-05 -1.25777e-07
4.08869e-07 -1.25777e-07 0.000476643
0.001474 9.1695e-05 -1.832e-06
9.1695e-05 0.000381028 -3.59328e-06
-1.832e-06 -3.59328e-06 0.000301719
0.00177104 6.68858e-06 -7.2888e-06
6.68858e-06 0.000419556 -1.41369e-06
-7.2888e-06 -1.41369e-06 0.000335651
0.00120543 4.52862e-06 4.08454e-07
4.52862e-06 6.91526e-05 -8.69106e-06
4.08454e-07 -8.69106e-06 5.68778e-06
0.000552321 -4.99104e-05 -1.07538e-05
-4.99104e-05 7.66678e-05 -2.87812e-06
-1.07538e-05 -2.87812e-06 -6.11638e-05
0.00224307 0.000197897 -1.31104e-05
0.000197897 0.000791342 4.54966e-05
-1.31104e-05 4.54966e-05 0.000459664
0.00780894 -0.000185388 1.00628e-06
-0.000185388 0.00217982 -1.61132e-05
1.00628e-06 -1.61132e-05 0.00101573
-0.000820634 -0.000158178 -4.16482e-05
-0.000158178 -0.00168824 -3.80075e-05
-4.16482e-05 -3.80075e-05 -0.00163909
0.00307089 2.80687e-05 -1.47455e-07
2.80687e-05 0.000460859 -7.16034e-06
-1.47455e-07 -7.16034e-06 0.000794826
0.000925672 5.56504e-05 -1.8825e-08
5.56504e-05 4.75217e-05 -3.17259e-08
-1.8825e-08 -3.17259e-08 -3.5772e-05
0.0010242 6.78562e-05 8.13695e-08
6.78562e-05 0.000112085 -3.1484e-07
8.13695e-08 -3.1484e-07 2.85248e-05
0.00064317 4.06945e-05 -1.69201e-07
4.06945e-05 -8.01786e-05 -1.39018e-06
-1.69201e-07 -1.39018e-06 -0.000158454
0.000973824 4.51951e-05 -6.43635e-07
4.51951e-05 6.76544e-05 -6.84413e-07
-6.43635e-07 -6.84413e-07 1.078e-05
0.000933606 -1.79148e-05 2.83361e-07
-1.79148e-05 4.75884e-05 -3.05853e-07
2.83361e-07 -3.05853e-07 -1.53992e-05
0.00100454 2.43529e-06 -4.8701e-07
2.43529e-06 8.90594e-05 -1.45656e-07
-4.8701e-07 -1.45656e-07 2.11196e-05
0.000989151 1.61747e-05 5.45202e-08
1.61747e-05 8.729e-05 -2.74194e-08
5.45202e-08 -2.74194e-08 1.02041e-05
0.000987177 1.12687e-05 3.09595e-07
1.12687e-05 7.45956e-05 -1.19186e-09
3.09595e-07 -1.19186e-09 1.21129e-05
0.000989047 -2.20152e-06 -2.12294e-07
-2.20152e-06 7.29744e-05 2.50468e-07
-2.12294e-07 2.50468e-07 4.66243e-06
0.00105708 -7.41576e-06 2.82603e-07
-7.41576e-06 0.000121861 6.47323e-08
2.82603e-07 6.47323e-08 4.21009e-05
0.00130034 -2.7122e-05 -6.23072e-07
-2.7122e-05 0.000249352 8.51833e-07
-6.23072e-07 8.51833e-07 0.000177876
0.00103772 -4.10347e-05 4.79954e-07
-4.10347e-05 8.91781e-05 6.01581e-07
4.79954e-07 6.01581e-07 1.89701e-05
0.000950583 2.95939e-05 7.99226e-07
2.95939e-05 5.50206e-05 4.68623e-07
7.99226e-07 4.68623e-07 -1.18895e-05
0.00096001 -1.02146e-05 7.21303e-07
-1.02146e-05 6.20041e-05 -2.85849e-07
7.21303e-07 -2.85849e-07 -5.60501e-09
0.000917583 2.91205e-05 -6.89041e-09
2.91205e-05 4.29828e-05 -6.21403e-07
-6.89041e-09 -6.21403e-07 -1.88354e-05
0.000967028 2.36233e-05 -7.87887e-07
2.36233e-05 5.72762e-05 -1.15362e-06
-7.87887e-07 -1.15362e-06 -7.05559e-06
0.00101529 2.84233e-05 -2.60433e-07
2.84233e-05 8.73683e-05 -2.82781e-07
-2.60433e-07 -2.82781e-07 2.16056e-05
0.000922668 2.13385e-05 2.0275e-07
2.13385e-05 4.89026e-05 3.25067e-07
2.0275e-07 3.25067e-07 -1.58779e-05
0.000950782 2.3595e-05 2.12881e-08
2.3595e-05 5.00855e-05 -1.46132e-07
2.12881e-08 -1.46132e-07 -1.71158e-05
0.000932122 4.6832e-06 6.59625e-07
4.6832e-06 4.82923e-05 1.1367e-06
6.59625e-07 1.1367e-06 -2.38208e-05
0.000992429 1.05228e-05 1.25912e-07
1.05228e-05 6.42233e-05 5.41807e-07
1.25912e-07 5.41807e-07 -2.99782e-06
0.000940442 -4.18025e-05 3.05518e-08
-4.18025e-05 6.98126e-05 3.08881e-07
3.05518e-08 3.08881e-07 -1.53179e-05
0.00101536 -1.41558e-05 -1.84948e-07
-1.41558e-05 0.000102106 -6.59415e-09
-1.84948e-07 -6.59415e-09 2.15881e-05
0.000788647 -4.17932e-05 -2.26008e-07
-4.17932e-05 1.12398e-05 1.7962e-06
-2.26008e-07 1.7962e-06 -8.09118e-05
0.0010496 -8.09143e-05 -1.64465e-06
-8.09143e-05 0.000129974 2.3234e-06
-1.64465e-06 2.3234e-06 2.56817e-05
0.00108742 -3.95276e-05 2.59255e-07
-3.95276e-05 0.000147271 -6.32944e-07
2.59255e-07 -6.32944e-07 6.45767e-05
0.000826416 -5.15079e-05 3.34582e-07
-5.15079e-05 3.22374e-05 -1.57803e-06
3.34582e-07 -1.57803e-06 -5.96247e-05
0.000952057 -1.20917e-05 -1.25474e-07
-1.20917e-05 7.50019e-05 -6.27439e-07
-1.25474e-07 -6.27439e-07 -1.33563e-06
0.000807355 2.55884e-07 -4.72446e-08
2.55884e-07 -1.23168e-05 1.0867e-06
-4.72446e-08 1.0867e-06 -7.79248e-05
0.000959667 1.25153e-06 -1.89561e-07
1.25153e-06 7.43222e-05 -5.0573e-07
-1.89561e-07 -5.0573e-07 3.49223e-06
0.000929134 4.99678e-06 1.12843e-07
4.99678e-06 4.86608e-05 3.89643e-07
1.12843e-07 3.89643e-07 -1.01302e-05
0.000891813 2.08477e-05 -3.38694e-07
2.08477e-05 2.29582e-05 8.99568e-07
-3.38694e-07 8.99568e-07 -2.27442e-05
0.000923318 -3.89642e-06 1.087e-07
-3.89642e-06 4.589e-05 -7.30011e-07
1.087e-07 -7.30011e-07 -1.03855e-05
0.000895667 9.1918e-06 -2.74705e-07
9.1918e-06 2.38655e-05 -9.08384e-09
-2.74705e-07 -9.08384e-09 -2.00628e-05
0.000866283 1.69034e-05 -8.93145e-07
1.69034e-05 3.37354e-06 1.62066e-06
-8.93145e-07 1.62066e-06 -2.44053e-05
0.000913231 1.93782e-06 8.19245e-07
1.93782e-06 3.10212e-05 -7.36809e-07
8.19245e-07 -7.36809e-07 -1.22807e-05
0.000874061 9.77592e-06 -1.52099e-07
9.77592e-06 4.02396e-06 -1.07313e-09
-1.52099e-07 -1.07313e-09 -2.27792e-05
0.00138622 1.85961e-05 -5.78086e-06
1.85961e-05 0.000268588 4.1744e-06
-5.78086e-06 4.1744e-06 0.000270758
0.000873616 1.7135e-06 9.57713e-07
1.7135e-06 1.93117e-06 -1.60231e-06
9.57713e-07 -1.60231e-06 -2.42929e-05
0.00110081 1.36056e-05 -2.29606e-06
1.36056e-05 0.000115121 5.76333e-07
-2.29606e-06 5.76333e-07 0.00011652
0.000974827 1.28994e-05 -1.23985e-06
1.28994e-05 4.88965e-05 1.51519e-06
-1.23985e-06 1.51519e-06 6.60671e-05
0.000817054 8.51701e-06 5.88602e-07
8.51701e-06 -3.7141e-05 -3.01453e-06
5.88602e-07 -3.01453e-06 -3.66821e-05
0.00155716 1.0251e-05 3.52711e-06
1.0251e-05 0.000352633 -1.1692e-06
3.52711e-06 -1.1692e-06 0.000373035
0.00213139 5.75723e-06 4.33994e-06
5.75723e-06 0.000654195 -3.88905e-06
4.33994e-06 -3.88905e-06 0.000677526
0.000966152 -1.7536e-05 5.65717e-07
-1.7536e-05 6.2982e-05 -5.11401e-07
5.65717e-07 -5.11401e-07 1.91039e-05
0.000883521 -6.16163e-06 -2.46796e-07
-6.16163e-06 6.01102e-06 -1.4044e-06
-2.46796e-07 -1.4044e-06 -1.75362e-05
0.000947456 -4.22321e-06 4.22727e-07
-4.22321e-06 5.2821e-05 1.31972e-07
4.22727e-07 1.31972e-07 1.14837e-05
0.000835566 -4.55093e-06 -3.32505e-07
-4.55093e-06 -2.98328e-05 -2.97848e-06
-3.32505e-07 -2.97848e-06 -2.66803e-05
0.000884627 -3.76122e-06 -4.78613e-08
-3.76122e-06 4.82273e-06 -1.10365e-08
-4.78613e-08 -1.10365e-08 -1.75102e-05
0.000920082 -1.91042e-05 -7.45268e-07
-1.91042e-05 3.69235e-05 1.04792e-06
-7.45268e-07 1.04792e-06 -2.8387e-06
0.00202667 -1.92485e-07 -7.76747e-07
-1.92485e-07 0.000598321 -3.87592e-06
-7.76747e-07 -3.87592e-06 0.000622957
0.000829533 3.60776e-08 -7.17714e-08
3.60776e-08 -3.39599e-05 -3.01711e-09
-7.17714e-08 -3.01711e-09 -3.03361e-05
0.000883644 -1.15591e-06 -3.15141e-08
-1.15591e-06 3.31246e-06 1.59113e-06
-3.15141e-08 1.59113e-06 -1.84709e-05
0.000831754 4.70211e-06 -2.97914e-07
4.70211e-06 -3.22476e-05 3.0006e-06
-2.97914e-07 3.0006e-06 -2.90446e-05
0.00203787 5.87586e-06 -1.68191e-06
5.87586e-06 0.000604727 -1.14279e-08
-1.68191e-06 -1.14279e-08 0.000629147
0.00206527 1.14059e-05 -7.9218e-06
1.14059e-05 0.000620693 3.84175e-06
-7.9218e-06 3.84175e-06 0.000644564
-0.00108548 4.46095e-05 -1.36285e-05
4.46095e-05 -0.000697194 1.3046e-06
-1.36285e-05 1.3046e-06 -0.00077594
-0.000932277 0.000186432 1.69833e-05
0.000186432 -0.0004764 1.33701e-06
1.69833e-05 1.33701e-06 -0.000497284
0.00121617 3.43956e-05 -2.461e-05
3.43956e-05 -0.000149342 1.40252e-05
-2.461e-05 1.40252e-05 -0.000160055
-0.0012782 0.0001926 1.5398e-05
0.0001926 -0.000979523 -4.79765e-06
1.5398e-05 -4.79765e-06 -0.000735366
0.00185297 2.3163e-05 -7.28273e-05
2.3163e-05 0.000251059 -3.36818e-06
-7.28273e-05 -3.36818e-06 -2.61271e-05
0.00186235 4.22588e-05 1.83809e-05
4.22588e-05 0.000224446 -2.62269e-06
1.83809e-05 -2.62269e-06 0.000144248
0.00122232 -2.62175e-05 -3.8811e-05
-2.62175e-05 -0.000355778 8.87291e-07
-3.8811e-05 8.87291e-07 -0.00086111
0.00480132 0.000327678 8.74827e-05
0.000327678 0.00227842 -2.94518e-05
8.74827e-05 -2.94518e-05 0.00236581
-0.000983016 0.00041023 1.61862e-05
0.00041023 -0.00170867 4.67089e-06
1.61862e-05 4.67089e-06 -0.000722246
0.00133112 7.52011e-05 -1.53297e-06
7.52011e-05 -8.5361e-06 3.93812e-06
-1.53297e-06 3.93812e-06 -0.000199789
0.00269063 0.000264623 6.76871e-06
0.000264623 0.000263427 -1.23864e-05
6.76871e-06 -1.23864e-05 -0.000736003
0.00342636 0.000502626 -1.835e-06
0.000502626 0.000961406 -3.01306e-06
-1.835e-06 -3.01306e-06 0.00116414
0.00199907 0.000210815 -2.60685e-06
0.000210815 -0.000356415 2.01553e-06
-2.60685e-06 2.01553e-06 0.000194649
0.00199713 5.14605e-05 -1.14191e-05
5.14605e-05 7.12e-05 -5.45739e-07
-1.14191e-05 -5.45739e-07 -0.000129698
0.00359643 0.000348739 3.93378e-05
0.000348739 0.000826558 -2.46357e-05
3.93378e-05 -2.46357e-05 -0.000291331
-0.00313425 0.000251349 -7.07835e-05
0.000251349 -0.00259351 3.56702e-05
-7.07835e-05 3.56702e-05 -0.0024646
0.00102004 0.000100201 -5.97122e-06
0.000100201 -0.000844467 9.98816e-06
-5.97122e-06 9.98816e-06 -0.000535538
0.00101283 -7.77892e-06 1.03216e-06
-7.77892e-06 0.00010737 -3.33498e-09
1.03216e-06 -3.33498e-09 3.16838e-05
0.000950828 2.94205e-05 -1.08142e-06
2.94205e-05 7.31217e-05 -3.3811e-07
-1.08142e-06 -3.3811e-07 7.10437e-06
0.000907217 5.44087e-06 6.02417e-07
5.44087e-06 4.23281e-05 -1.28249e-07
6.02417e-07 -1.28249e-07 -1.00106e-05
0.000940021 4.72447e-05 1.49141e-06
4.72447e-05 6.97428e-05 9.38857e-07
1.49141e-06 9.38857e-07 7.55332e-06
0.00087909 9.97886e-06 -1.28577e-07
9.97886e-06 3.60464e-05 3.97599e-07
-1.28577e-07 3.97599e-07 -3.7786e-05
0.00100318 3.04226e-05 1.64629e-07
3.04226e-05 0.000101573 5.09473e-07
1.64629e-07 5.09473e-07 3.50513e-05
0.000905125 -9.62383e-07 -4.05388e-07
-9.62383e-07 4.60614e-05 1.3e-06
-4.05388e-07 1.3e-06 -1.5235e-05
0.0010268 4.73265e-05 -8.17294e-07
4.73265e-05 0.00010849 -6.3031e-09
-8.17294e-07 -6.3031e-09 4.37872e-05
0.00100292 2.00551e-05 -2.82584e-07
2.00551e-05 9.68001e-05 4.1102e-07
-2.82584e-07 4.1102e-07 3.52102e-05
0.000821383 -2.26228e-05 -8.09676e-07
-2.26228e-05 1.84618e-06 -2.25328e-07
-8.09676e-07 -2.25328e-07 -5.6304e-05
0.00106175 -5.27462e-05 -7.13228e-07
-5.27462e-05 -0.000353209 -2.88343e-06
-7.13228e-07 -2.88343e-06 -0.000406606
0.00102198 -0.000145018 -1.78361e-06
-0.000145018 -0.000229535 4.72972e-06
-1.78361e-06 4.72972e-06 -0.000357988
0.000789162 -0.000106056 8.46499e-06
-0.000106056 1.1538e-05 2.47549e-06
8.46499e-06 2.47549e-06 -0.000114701
0.00107403 -6.55686e-05 2.75575e-06
-6.55686e-05 0.00015121 -8.49124e-07
2.75575e-06 -8.49124e-07 1.13119e-05
0.00107992 -2.12333e-05 9.48738e-09
-2.12333e-05 0.000140392 -1.06369e-06
9.48738e-09 -1.06369e-06 3.43462e-05
0.000834481 -4.85046e-05 -5.45388e-07
-4.85046e-05 8.95599e-06 -2.65864e-07
-5.45388e-07 -2.65864e-07 -7.65451e-05
0.000867968 3.11158e-05 -1.15209e-07
3.11158e-05 3.01392e-05 -1.63547e-07
-1.15209e-07 -1.63547e-07 -4.74746e-05
0.000949567 -1.44382e-05 1.27545e-07
-1.44382e-05 7.47612e-05 6.40904e-07
1.27545e-07 6.40904e-07 -4.46462e-06
0.00178388 -0.000150873 3.74837e-06
-0.000150873 0.0001136 2.26916e-07
3.74837e-06 2.26916e-07 0.000102158
0.00101032 -4.35792e-06 -1.99681e-07
-4.35792e-06 9.94803e-05 -3.49144e-07
-1.99681e-07 -3.49144e-07 1.39191e-05
0.00116474 -2.95118e-05 -4.50905e-07
-2.95118e-05 0.000164967 -9.02746e-08
-4.50905e-07 -9.02746e-08 7.25207e-05
0.00165785 -0.000165427 -1.09656e-06
-0.000165427 0.000364554 -2.34618e-06
-1.09656e-06 -2.34618e-06 0.00019819
0.0011199 -1.90565e-05 -5.05799e-07
-1.90565e-05 0.000184217 1.5284e-07
-5.05799e-07 1.5284e-07 4.78344e-05
-0.00084686 -0.000120671 -6.57357e-06
-0.000120671 -0.0010968 -7.70321e-06
-6.57357e-06 -7.70321e-06 -0.00107809
0.00217781 -7.72138e-05 -1.24896e-06
-7.72138e-05 0.000719793 7.47182e-06
-1.24896e-06 7.47182e-06 0.000525368
0.00075625 2.76615e-05 -1.15467e-06
2.76615e-05 -4.36037e-05 3.67415e-06
-1.15467e-06 3.67415e-06 -0.000141655
0.000962133 1.66139e-05 3.25373e-07
1.66139e-05 6.71523e-05 3.50136e-07
3.25373e-07 3.50136e-07 -1.38876e-05
0.000993502 2.07281e-05 -3.84022e-07
2.07281e-05 7.52649e-05 9.8124e-07
-3.84022e-07 9.8124e-07 -1.79702e-05
0.00151211 -5.56991e-06 3.70793e-06
-5.56991e-06 0.000305831 8.35056e-07
3.70793e-06 8.35056e-07 0.000223594
8.51765e-05 -7.54506e-06 1.57552e-06
-7.54506e-06 -1.39242e-05 -4.71748e-07
1.57552e-06 -4.71748e-07 -9.15248e-05
-0.00392814 -3.55649e-05 3.7402e-05
-3.55649e-05 -0.00220233 2.81037e-06
3.7402e-05 2.81037e-06 -0.0021505
0.00105605 6.17833e-05 1.34934e-06
6.17833e-05 0.00012542 9.59856e-07
1.34934e-06 9.59856e-07 3.59392e-05
-1.65742e-05 2.12172e-05 1.96182e-06
2.12172e-05 -0.000290548 -8.02107e-07
1.96182e-06 -8.02107e-07 -0.000449569
0.00121115 0.000108589 3.1171e-06
0.000108589 0.000120752 -1.366e-06
3.1171e-06 -1.366e-06 -9.65431e-06
-0.00120644 -3.59262e-05 1.12309e-05
-3.59262e-05 -0.000806582 2.57332e-06
1.12309e-05 2.57332e-06 -0.000897912
0.00252792 -0.000346893 2.11798e-05
-0.000346893 0.000248996 1.33965e-05
2.11798e-05 1.33965e-05 -0.000893535
0.00412945 0.000321276 7.04559e-05
0.000321276 0.000985587 -3.3112e-05
7.04559e-05 -3.3112e-05 0.000643016
0.00018959 1.91536e-05 4.2839e-06
1.91536e-05 -0.000230277 9.49571e-06
4.2839e-06 9.49571e-06 -0.000312799
0.00479127 -0.000455474 4.56707e-05
-0.000455474 0.00135681 4.76936e-05
4.56707e-05 4.76936e-05 0.00139065
0.00158592 -1.28548e-05 1.30954e-05
-1.28548e-05 0.000131814 6.78525e-06
1.30954e-05 6.78525e-06 8.25724e-05
0.00200375 -9.79683e-05 9.53861e-06
-9.79683e-05 -0.000118196 6.80294e-06
9.53861e-06 6.80294e-06 0.000227054
0.00108488 7.96907e-05 9.67389e-07
7.96907e-05 0.000183438 -8.9641e-07
9.67389e-07 -8.9641e-07 0.000106495
0.00137312 7.96722e-06 -2.03805e-06
7.96722e-06 0.000205917 -1.37961e-06
-2.03805e-06 -1.37961e-06 0.000130876
0.00120655 4.21656e-06 -4.18825e-06
4.21656e-06 6.01468e-05 -4.30752e-06
-4.18825e-06 -4.30752e-06 -8.37781e-07
8.09026e-05 -5.65121e-06 5.45152e-06
-5.65121e-06 -0.000149546 -6.64738e-08
5.45152e-06 -6.64738e-08 -0.000293237
0.00258498 0.000255565 -2.65264e-05
0.000255565 0.00066323 -2.07551e-05
-2.65264e-05 -2.07551e-05 0.000384824
0.00492345 4.78132e-05 2.8641e-05
4.78132e-05 0.000871949 5.91266e-06
2.8641e-05 5.91266e-06 -0.000375315
0.00194927 1.33866e-05 1.83895e-06
1.33866e-05 -0.000199403 -6.43132e-06
1.83895e-06 -6.43132e-06 0.000114078
0.00135686 -0.000225733 -6.69223e-06
-0.000225733 -0.000558586 2.30185e-05
-6.69223e-06 2.30185e-05 -0.000535143
0.000847821 3.20913e-05 -2.9793e-06
3.20913e-05 0.00011584 -7.26158e-06
-2.9793e-06 -7.26158e-06 5.60885e-05
0.000818722 1.13423e-05 9.62772e-06
1.13423e-05 3.68045e-06 1.10937e-05
9.62772e-06 1.10937e-05 -8.21976e-05
0.00127818 3.19495e-07 -7.47295e-06
3.19495e-07 0.000139099 -7.08889e-07
-7.47295e-06 -7.08889e-07 5.13058e-05
0.00113207 8.83596e-05 3.88799e-06
8.83596e-05 -0.000698162 -9.19471e-06
3.88799e-06 -9.19471e-06 -0.000446984
-0.00139604 5.93059e-05 2.49399e-06
5.93059e-05 -0.000738769 -3.52722e-06
2.49399e-06 -3.52722e-06 -0.000949259
0.00729533 -2.28636e-05 3.27286e-05
-2.28636e-05 0.0019233 6.50346e-06
3.27286e-05 6.50346e-06 0.000968748
-0.00011194 -2.89652e-06 6.34482e-06
-2.89652e-06 -0.00106255 -6.42752e-05
6.34482e-06 -6.42752e-05 -0.000849778
0.00141373 8.58904e-05 1.80085e-06
8.58904e-05 0.000305952 2.33852e-06
1.80085e-06 2.33852e-06 0.000223715
0.000853938 5.51202e-05 -8.00353e-07
5.51202e-05 1.80825e-05 1.32601e-06
-8.00353e-07 1.32601e-06 -6.35086e-05
0.00111421 3.80695e-05 -1.81896e-06
3.80695e-05 0.000159923 -2.76101e-06
-1.81896e-06 -2.76101e-06 8.60695e-05
0.000983456 4.98175e-05 -8.55685e-08
4.98175e-05 7.3178e-05 -1.44247e-07
-8.55685e-08 -1.44247e-07 1.04739e-05
0.000981369 8.82397e-06 -2.57584e-07
8.82397e-06 6.87497e-05 -5.10242e-07
-2.57584e-07 -5.10242e-07 1.38423e-06
0.000830639 -1.7472e-05 -2.40994e-07
-1.7472e-05 8.31444e-06 8.52022e-07
-2.40994e-07 8.52022e-07 -7.40221e-05
0.0010041 3.15928e-05 7.12671e-08
3.15928e-05 8.0286e-05 -5.16263e-08
7.12671e-08 -5.16263e-08 1.45857e-05
0.00093406 -4.65401e-05 -1.35836e-07
-4.65401e-05 3.76246e-05 -1.49895e-07
-1.35836e-07 -1.49895e-07 -3.42373e-05
0.00110606 -4.78555e-05 2.38482e-06
-4.78555e-05 0.000145283 1.07599e-06
2.38482e-06 1.07599e-06 6.87374e-05
0.000815003 -1.26125e-05 -9.36026e-08
-1.26125e-05 1.17526e-05 1.1659e-06
-9.36026e-08 1.1659e-06 -4.54678e-05
0.00098699 -1.62834e-05 4.46008e-08
-1.62834e-05 5.46496e-05 2.84556e-07
4.46008e-08 2.84556e-07 -1.21878e-05
0.00101769 2.81266e-05 -7.15966e-07
2.81266e-05 8.71502e-05 -5.77557e-07
-7.15966e-07 -5.77557e-07 2.23062e-05
0.000940824 2.47805e-05 -5.78501e-08
2.47805e-05 5.96928e-05 -4.5807e-07
-5.78501e-08 -4.5807e-07 -5.70302e-06
0.00096312 2.72993e-05 -3.17741e-07
2.72993e-05 5.56134e-05 -9.22757e-07
-3.17741e-07 -9.22757e-07 -1.12801e-05
0.000973319 5.44656e-06 4.49345e-08
5.44656e-06 5.46395e-05 1.51488e-07
4.49345e-08 1.51488e-07 -1.26416e-05
0.000972189 5.80965e-06 4.08194e-07
5.80965e-06 6.77005e-05 4.15693e-07
4.08194e-07 4.15693e-07 -3.74041e-06
0.000921505 -4.47501e-05 1.95689e-08
-4.47501e-05 5.84874e-05 1.13543e-06
1.95689e-08 1.13543e-06 -1.9206e-05
0.000906179 -3.48702e-05 -1.43413e-07
-3.48702e-05 5.44647e-05 -6.72429e-07
-1.43413e-07 -6.72429e-07 -2.92124e-05
0.000996285 -5.49642e-05 6.24267e-07
-5.49642e-05 0.000119339 1.10506e-06
6.24267e-07 1.10506e-06 1.50363e-05
0.0011101 -1.81131e-05 -3.64159e-07
-1.81131e-05 0.000150339 -8.2037e-07
-3.64159e-07 -8.2037e-07 7.01166e-05
0.00103783 -5.07111e-05 -1.68202e-07
-5.07111e-05 0.000133052 7.97081e-07
-1.68202e-07 7.97081e-07 4.02098e-05
0.000639579 -6.72811e-05 -1.17523e-06
-6.72811e-05 -7.76311e-05 2.10753e-06
-1.17523e-06 2.10753e-06 -0.000188997
0.000964466 -7.85603e-05 -2.61644e-06
-7.85603e-05 8.54033e-05 8.39401e-08
-2.61644e-06 8.39401e-08 -1.90284e-05
0.00100681 -6.48361e-05 -1.07663e-06
-6.48361e-05 0.000109937 8.07889e-07
-1.07663e-06 8.07889e-07 2.02921e-05
0.000939269 -7.60722e-05 -6.107e-08
-7.60722e-05 7.60481e-05 6.51236e-09
-6.107e-08 6.51236e-09 -2.78856e-05
0.000951296 -1.65174e-05 -2.07979e-07
-1.65174e-05 6.51621e-05 1.02493e-06
-2.07979e-07 1.02493e-06 -5.86104e-06
0.00103832 -4.11005e-05 -4.67556e-07
-4.11005e-05 0.000121602 -4.79174e-07
-4.67556e-07 -4.79174e-07 3.78993e-05
0.000832034 -5.34102e-05 5.92121e-07
-5.34102e-05 3.73949e-05 -2.24563e-06
5.92121e-07 -2.24563e-06 -5.19978e-05
0.0011014 -1.40903e-05 -2.23168e-07
-1.40903e-05 0.000151925 -1.26847e-06
-2.23168e-07 -1.26847e-06 7.66609e-05
0.000888495 -2.10272e-07 3.96473e-08
-2.10272e-07 2.99122e-05 -3.06058e-08
3.96473e-08 -3.06058e-08 -3.46117e-05
0.000906988 1.82215e-05 -2.38287e-07
1.82215e-05 3.33158e-05 1.18049e-06
-2.38287e-07 1.18049e-06 -1.65057e-05
0.00094778 2.06755e-06 1.93405e-07
2.06755e-06 5.89669e-05 -4.89593e-07
1.93405e-07 -4.89593e-07 -2.75285e-07
0.000898724 1.67543e-05 -1.99507e-07
1.67543e-05 2.68667e-05 -9.91938e-08
-1.99507e-07 -9.91938e-08 -1.8951e-05
0.000859401 2.08029e-05 -1.0685e-06
2.08029e-05 3.56852e-06 1.6193e-06
-1.0685e-06 1.6193e-06 -2.55876e-05
0.000900108 3.73051e-06 5.92477e-07
3.73051e-06 2.60769e-05 -8.65548e-07
5.92477e-07 -8.65548e-07 -1.78227e-05
0.000867768 1.58907e-05 -7.43313e-08
1.58907e-05 3.66208e-06 3.87983e-09
-7.43313e-08 3.87983e-09 -2.4037e-05
0.00135525 2.31433e-05 -6.49484e-06
2.31433e-05 0.000257625 3.00203e-06
-6.49484e-06 3.00203e-06 0.000258733
0.000876089 5.97445e-06 1.01741e-06
5.97445e-06 4.71886e-06 -1.58826e-06
1.01741e-06 -1.58826e-06 -2.19845e-05
0.00109698 1.79811e-05 -2.84735e-06
1.79811e-05 0.000116706 5.47153e-07
-2.84735e-06 5.47153e-07 0.000117405
0.00096579 1.72808e-05 -1.77157e-06
1.72808e-05 4.83919e-05 1.52029e-06
-1.77157e-06 1.52029e-06 6.47809e-05
0.000815643 1.26583e-05 9.06899e-07
1.26583e-05 -3.53823e-05 -3.04648e-06
9.06899e-07 -3.04648e-06 -3.53403e-05
0.00155321 1.5466e-05 4.70321e-06
1.5466e-05 0.000353432 -1.12624e-06
4.70321e-06 -1.12624e-06 0.000373352
0.00212846 1.17205e-05 7.42188e-06
1.17205e-05 0.000654507 -3.83533e-06
7.42188e-06 -3.83533e-06 0.000677537
0.000751135 -8.52163e-07 -3.59304e-07
-8.52163e-07 -4.61506e-05 -1.144e-06
-3.59304e-07 -1.144e-06 -9.67461e-05
0.000647697 -9.84393e-06 -2.17154e-07
-9.84393e-06 -0.00011341 -1.88115e-06
-2.17154e-07 -1.88115e-06 -0.000140693
0.00098023 -7.01863e-06 -4.7709e-08
-7.01863e-06 7.1292e-05 1.54846e-08
-4.7709e-08 1.54846e-08 2.65968e-05
0.000835871 -8.80881e-06 -5.13419e-07
-8.80881e-06 -2.75356e-05 -2.97586e-06
-5.13419e-07 -2.97586e-06 -2.55409e-05
0.000761629 -6.70201e-06 3.2389e-08
-6.70201e-06 -5.70705e-05 4.13532e-09
3.2389e-08 4.13532e-09 -8.14815e-05
0.000759238 -2.83094e-05 -1.43198e-08
-2.83094e-05 -4.42238e-05 6.15927e-07
-1.43198e-08 6.15927e-07 -8.7064e-05
0.00203854 -5.88764e-06 -4.35658e-06
-5.88764e-06 0.000605436 -3.88293e-06
-4.35658e-06 -3.88293e-06 0.000629772
0.000828819 -4.39162e-06 -1.46614e-07
-4.39162e-06 -3.34981e-05 -1.48024e-08
-1.46614e-07 -1.48024e-08 -3.02727e-05
0.000882873 -4.32766e-06 -2.49365e-08
-4.32766e-06 3.8136e-06 1.53895e-06
-2.49365e-08 1.53895e-06 -1.84996e-05
0.00202526 9.08649e-08 -1.65704e-06
9.08649e-08 0.000597564 -2.6575e-10
-1.65704e-06 -2.6575e-10 0.000622209
0.000829543 2.23849e-07 -2.41601e-08
2.23849e-07 -3.39904e-05 2.99556e-06
-2.41601e-08 2.99556e-06 -3.03639e-05
0.00204069 6.15129e-06 -4.0636e-06
6.15129e-06 0.000606382 3.8761e-06
-4.0636e-06 3.8761e-06 0.00063073
0.00120195 -8.31125e-06 -8.31865e-06
-8.31125e-06 8.80695e-05 3.75098e-06
-8.31865e-06 3.75098e-06 -4.62688e-06
0.00115429 7.96624e-05 1.63895e-06
7.96624e-05 0.000551364 -1.74898e-06
1.63895e-06 -1.74898e-06 0.000590101
0.000438918 1.95547e-05 7.88827e-05
1.95547e-05 9.60921e-05 -1.55188e-05
7.88827e-05 -1.55188e-05 -6.05855e-05
0.000941537 1.84327e-05 -1.81106e-07
1.84327e-05 5.7076e-05 -1.99626e-07
-1.81106e-07 -1.99626e-07 -8.59973e-06
0.00108349 1.30545e-05 2.2206e-06
1.30545e-05 -1.52083e-05 4.42071e-06
2.2206e-06 4.42071e-06 -6.85583e-05
0.00120246 2.64961e-05 -8.61828e-06
2.64961e-05 -0.000139891 4.84449e-06
-8.61828e-06 4.84449e-06 -0.000175576
0.00128228 0.000224126 3.00601e-05
0.000224126 0.000345408 -1.74447e-05
3.00601e-05 -1.74447e-05 0.000722661
0.0027869 8.79537e-05 -3.91057e-05
8.79537e-05 0.00048092 1.15155e-05
-3.91057e-05 1.15155e-05 0.000272488
0.00766915 0.000439672 1.82618e-05
0.000439672 0.00265405 -1.10998e-05
1.82618e-05 -1.10998e-05 0.00170528
-0.00209213 0.000339243 5.18129e-05
0.000339243 -0.00161627 -2.23136e-05
5.18129e-05 -2.23136e-05 -0.0013367
0.00280783 0.000218409 1.82352e-05
0.000218409 0.00021027 -1.48172e-05
1.82352e-05 -1.48172e-05 0.000706646
0.001911 6.16939e-05 -3.43028e-05
6.16939e-05 -0.000340459 5.15622e-06
-3.43028e-05 5.15622e-06 -0.000624398
0.00604535 0.000316274 3.1398e-05
0.000316274 0.00194137 -1.46002e-05
3.1398e-05 -1.46002e-05 0.000894942
0.00272986 0.000364297 -4.84656e-06
0.000364297 -9.18779e-05 7.6266e-06
-4.84656e-06 7.6266e-06 3.90838e-05
0.00254079 0.000113216 -2.20183e-06
0.000113216 -1.22243e-05 1.34701e-06
-2.20183e-06 1.34701e-06 0.000356205
0.0046399 -0.000140354 3.11494e-05
-0.000140354 0.000926825 -2.97454e-05
3.11494e-05 -2.97454e-05 0.000601885
0.00764841 0.000352407 2.73584e-05
0.000352407 0.0023597 -3.7357e-06
2.73584e-05 -3.7357e-06 0.0010638
0.00183469 0.000288701 8.80205e-06
0.000288701 -0.000614688 5.41914e-05
8.80205e-06 5.41914e-05 -0.00061711
0.00306141 4.22065e-05 6.46408e-08
4.22065e-05 0.000366908 4.29024e-06
6.46408e-08 4.29024e-06 0.000732028
0.000932607 -1.35634e-05 3.88609e-07
-1.35634e-05 5.80094e-05 5.07791e-08
3.88609e-07 5.07791e-08 -2.13702e-05
0.00098108 -2.29771e-05 3.86368e-07
-2.29771e-05 9.15168e-05 1.12454e-09
3.86368e-07 1.12454e-09 1.49812e-05
0.00102459 3.57903e-05 -7.83581e-07
3.57903e-05 0.000112669 1.80573e-07
-7.83581e-07 1.80573e-07 4.67131e-05
0.00094274 -2.76273e-06 -1.98221e-07
-2.76273e-06 6.01026e-05 -3.54087e-07
-1.98221e-07 -3.54087e-07 -1.08684e-05
0.000974263 3.47564e-05 -4.51189e-07
3.47564e-05 8.54372e-05 3.36241e-07
-4.51189e-07 3.36241e-07 1.28511e-05
0.00102591 1.53095e-05 3.63515e-07
1.53095e-05 0.000113281 1.04918e-06
3.63515e-07 1.04918e-06 4.74068e-05
0.00107554 4.72996e-05 -4.60012e-07
4.72996e-05 0.000133583 1.22978e-07
-4.60012e-07 1.22978e-07 6.90014e-05
0.00110566 4.86068e-05 7.19166e-07
4.86068e-05 0.000151619 9.18342e-07
7.19166e-07 9.18342e-07 8.96478e-05
0.000937774 -0.000150822 5.39821e-06
-0.000150822 -0.000342645 -7.22842e-06
5.39821e-06 -7.22842e-06 -0.000328134
0.000789245 -0.000130136 1.66904e-06
-0.000130136 -4.77877e-05 6.46643e-07
1.66904e-06 6.46643e-07 -0.000233639
0.000959767 -7.97566e-05 -1.85552e-06
-7.97566e-05 8.30011e-05 2.67652e-07
-1.85552e-06 2.67652e-07 1.3594e-06
0.00136322 -3.48477e-05 1.04817e-06
-3.48477e-05 0.000295475 -1.56077e-06
1.04817e-06 -1.56077e-06 0.000163294
0.0012 -4.13693e-05 -1.39775e-06
-4.13693e-05 0.000182674 -7.09025e-07
-1.39775e-06 -7.09025e-07 8.97874e-05
0.00110065 -6.19091e-06 -8.04861e-07
-6.19091e-06 0.000144604 -6.58194e-07
-8.04861e-07 -6.58194e-07 6.16184e-05
0.00101697 1.73356e-05 4.15893e-08
1.73356e-05 9.8444e-05 6.74927e-08
4.15893e-08 6.74927e-08 1.5944e-05
0.00144277 -0.000201486 -2.70564e-06
-0.000201486 3.81773e-06 -4.82e-07
-2.70564e-06 -4.82e-07 2.58579e-05
0.00102384 8.74119e-06 5.18832e-08
8.74119e-06 9.63201e-05 -6.38822e-07
5.18832e-08 -6.38822e-07 2.76364e-06
0.00110225 -1.08363e-05 -8.58574e-07
-1.08363e-05 0.00013716 6.22027e-08
-8.58574e-07 6.22027e-08 3.24913e-05
0.00105142 -5.22145e-05 -9.38657e-07
-5.22145e-05 0.000173594 3.33271e-07
-9.38657e-07 3.33271e-07 -4.42984e-05
0.00113397 1.15799e-05 1.51827e-07
1.15799e-05 0.000148203 6.21644e-07
1.51827e-07 6.21644e-07 7.03424e-05
-0.00111372 -0.00017407 -1.12016e-05
-0.00017407 -0.000925087 -9.10294e-06
-1.12016e-05 -9.10294e-06 -0.00100493
0.00131547 4.97531e-05 -3.95818e-06
4.97531e-05 0.000391187 1.22748e-05
-3.95818e-06 1.22748e-05 0.000209815
0.000766186 9.75608e-06 -8.97691e-07
9.75608e-06 -4.87658e-05 2.67682e-06
-8.97691e-07 2.67682e-06 -0.000135342
0.00105406 6.86277e-05 -5.41487e-08
6.86277e-05 0.00011335 8.99657e-07
-5.41487e-08 8.99657e-07 2.67688e-05
0.00121155 -1.85855e-06 1.97236e-05
-1.85855e-06 0.000249035 3.22503e-06
1.97236e-05 3.22503e-06 0.000148286
0.0014286 -6.34568e-06 4.83e-06
-6.34568e-06 0.000262384 3.51169e-07
4.83e-06 3.51169e-07 0.000174704
-0.00102074 -7.01252e-06 1.42154e-05
-7.01252e-06 -0.000626843 1.2119e-07
1.42154e-05 1.2119e-07 -0.000738376
0.000641819 6.25828e-05 3.53884e-06
6.25828e-05 -4.14466e-05 7.62869e-07
3.53884e-06 7.62869e-07 -0.000115079
-0.000481636 2.30615e-05 -2.50782e-06
2.30615e-05 -0.000410891 2.70044e-06
-2.50782e-06 2.70044e-06 -0.000563769
0.00098194 8.64292e-06 3.61649e-06
8.64292e-06 -6.48175e-06 -1.51009e-06
3.61649e-06 -1.51009e-06 -7.13893e-05
0.00509453 -0.000402692 5.77289e-05
-0.000402692 0.00126495 1.78022e-05
5.77289e-05 1.78022e-05 2.61529e-05
0.00521173 0.00035794 -2.67064e-05
0.00035794 0.00160758 -6.76993e-05
-2.67064e-05 -6.76993e-05 0.00107582
0.00293241 -0.000314147 9.71918e-06
-0.000314147 -0.000140245 8.49155e-05
9.71918e-06 8.49155e-05 -5.89286e-05
0.00127831 3.38313e-06 -8.83811e-06
3.38313e-06 0.000102107 3.92974e-07
-8.83811e-06 3.92974e-07 4.24018e-05
0.00090395 9.81315e-06 -2.99165e-07
9.81315e-06 -0.000834546 1.34397e-07
-2.99165e-07 1.34397e-07 -0.00053827
0.000920415 5.02174e-05 -1.06244e-06
5.02174e-05 0.000151138 -3.88303e-07
-1.06244e-06 -3.88303e-07 8.3309e-05
0.000925294 1.09995e-05 -4.55024e-07
1.09995e-05 7.99372e-05 1.80915e-06
-4.55024e-07 1.80915e-06 -4.82691e-06
0.00119198 -1.18376e-06 -4.70221e-06
-1.18376e-06 0.000140038 9.10613e-08
-4.70221e-06 9.10613e-08 4.89738e-05
-0.000427361 6.42919e-05 4.25237e-06
6.42919e-05 -0.000164293 -1.93425e-06
4.25237e-06 -1.93425e-06 -0.00030778
0.00248716 0.000104764 1.13946e-06
0.000104764 2.16875e-05 -2.82502e-07
1.13946e-06 -2.82502e-07 0.000345128
0.00522378 0.00015155 3.05807e-05
0.00015155 0.00064867 -2.5189e-06
3.05807e-05 -2.5189e-06 -7.85545e-05
0.00336866 9.45017e-05 -3.76515e-05
9.45017e-05 0.000377105 -3.95448e-06
-3.76515e-05 -3.95448e-06 0.000484573
0.000396673 6.25682e-05 -6.07734e-07
6.25682e-05 4.23569e-05 -1.05732e-05
-6.07734e-07 -1.05732e-05 -4.19791e-05
0.00121996 -2.18718e-06 -5.96908e-06
-2.18718e-06 0.000224334 1.41895e-05
-5.96908e-06 1.41895e-05 0.000105409
0.00102427 4.06048e-06 -9.29395e-07
4.06048e-06 -4.7703e-05 -3.99728e-06
-9.29395e-07 -3.99728e-06 -0.000105439
0.0026325 0.000209939 2.70623e-05
0.000209939 0.000107761 -1.46189e-05
2.70623e-05 -1.46189e-05 0.000613453
0.00177639 0.000329777 -8.00301e-06
0.000329777 -0.000580676 -5.51944e-05
-8.00301e-06 -5.51944e-05 -0.000574038
0.00156925 0.000185596 1.47159e-05
0.000185596 0.000519667 -1.18779e-05
1.47159e-05 -1.18779e-05 0.000558442
0.0031999 -0.000181403 7.26353e-05
-0.000181403 0.000195442 7.3448e-06
7.26353e-05 7.3448e-06 -0.000676997
0.00108909 7.07433e-05 -6.23343e-07
7.07433e-05 0.00013109 4.29833e-06
-6.23343e-07 4.29833e-06 4.58945e-05
0.00116387 2.38395e-05 5.15917e-07
2.38395e-05 0.00018033 2.0477e-06
5.15917e-07 2.0477e-06 0.000111567
0.000252704 -2.67417e-05 1.95575e-06
-2.67417e-05 -0.000106621 -5.39286e-06
1.95575e-06 -5.39286e-06 -0.000234178
0.00107014 1.49624e-05 -3.73627e-07
1.49624e-05 0.000111496 -4.06044e-07
-3.73627e-07 -4.06044e-07 4.73637e-05
0.000872736 -4.9501e-05 -3.8312e-07
-4.9501e-05 7.11274e-06 -1.29723e-07
-3.8312e-07 -1.29723e-07 -6.55061e-05
0.000971906 -4.51294e-05 2.84917e-07
-4.51294e-05 7.3561e-05 6.12793e-07
2.84917e-07 6.12793e-07 -6.8736e-06
0.00100015 -2.92027e-05 9.35688e-08
-2.92027e-05 6.48968e-05 -1.20883e-07
9.35688e-08 -1.20883e-07 -3.1811e-06
0.000808245 -2.3527e-05 -8.39283e-07
-2.3527e-05 -3.94996e-06 1.92297e-06
-8.39283e-07 1.92297e-06 -6.00563e-05
0.000707389 -4.32465e-05 9.17889e-07
-4.32465e-05 -4.02691e-06 -4.90752e-07
9.17889e-07 -4.90752e-07 -0.000109048
0.000948945 -1.5814e-07 -1.48953e-07
-1.5814e-07 4.28505e-05 -2.99255e-07
-1.48953e-07 -2.99255e-07 -2.47032e-05
0.00102232 1.77141e-05 1.77676e-08
1.77141e-05 9.17803e-05 -3.04497e-07
1.77676e-08 -3.04497e-07 2.11758e-05
0.00108444 -4.31596e-05 1.10625e-07
-4.31596e-05 0.00013663 1.89747e-07
1.10625e-07 1.89747e-07 5.73212e-05
0.000843607 -5.56604e-05 1.28784e-06
-5.56604e-05 7.11058e-05 1.35758e-06
1.28784e-06 1.35758e-06 -4.26644e-05
0.000887359 -2.81997e-05 -1.15248e-06
-2.81997e-05 4.69401e-05 -1.10338e-06
-1.15248e-06 -1.10338e-06 -3.53396e-05
0.000773522 -5.2072e-05 3.54822e-07
-5.2072e-05 9.77967e-06 -4.12069e-08
3.54822e-07 -4.12069e-08 -9.1609e-05
0.00103353 -8.63582e-05 9.2588e-07
-8.63582e-05 0.000135022 7.30754e-07
9.2588e-07 7.30754e-07 1.0107e-05
0.00111844 -9.17194e-05 -3.00383e-06
-9.17194e-05 0.000129646 2.08108e-06
-3.00383e-06 2.08108e-06 1.25778e-05
0.00127916 -5.96376e-05 -5.54156e-08
-5.96376e-05 0.000250828 -7.57256e-07
-5.54156e-08 -7.57256e-07 0.000157298
0.000819554 -7.4805e-05 -6.48429e-07
-7.4805e-05 9.73819e-06 2.30189e-07
-6.48429e-07 2.30189e-07 -0.000104542
0.00130207 -9.34601e-05 -3.01001e-07
-9.34601e-05 0.000250328 -6.85161e-07
-3.01001e-07 -6.85161e-07 0.000151328
0.000762114 -6.32391e-05 -1.43892e-06
-6.32391e-05 -7.34286e-06 2.94791e-08
-1.43892e-06 2.94791e-08 -0.000101991
0.000960947 -7.80419e-05 3.0983e-07
-7.80419e-05 8.33241e-05 -1.30131e-07
3.0983e-07 -1.30131e-07 -1.92751e-05
0.000981927 -2.40753e-05 -8.26629e-07
-2.40753e-05 8.35944e-05 7.03086e-07
-8.26629e-07 7.03086e-07 8.5098e-06
0.00105578 -6.50175e-05 -1.00948e-06
-6.50175e-05 0.000132881 7.49203e-07
-1.00948e-06 7.49203e-07 4.32461e-05
0.000827287 -7.11876e-05 3.17471e-07
-7.11876e-05 2.14742e-05 -1.16471e-06
3.17471e-07 -1.16471e-06 -8.21221e-05
0.000931338 1.34347e-05 -4.62196e-07
1.34347e-05 4.83515e-05 1.33438e-06
-4.62196e-07 1.33438e-06 -7.1884e-06
0.000896895 -1.49288e-05 3.17073e-07
-1.49288e-05 3.64353e-05 1.09165e-07
3.17073e-07 1.09165e-07 -3.46998e-05
0.000992755 -4.26089e-05 1.35626e-06
-4.26089e-05 9.76726e-05 -1.3627e-06
1.35626e-06 -1.3627e-06 1.29635e-05
0.000967156 -6.62581e-07 1.18139e-07
-6.62581e-07 7.0864e-05 -1.05268e-06
1.18139e-07 -1.05268e-06 7.42876e-06
0.000901798 1.77756e-05 3.08314e-08
1.77756e-05 3.08132e-05 -1.09707e-07
3.08314e-08 -1.09707e-07 -1.90754e-05
0.000855595 2.52151e-05 -1.04993e-06
2.52151e-05 6.87309e-06 1.7352e-06
-1.04993e-06 1.7352e-06 -2.49879e-05
0.000897693 1.22728e-05 2.72105e-07
1.22728e-05 2.66647e-05 -1.08409e-06
2.72105e-07 -1.08409e-06 -1.92569e-05
0.000860897 2.18709e-05 -1.22226e-08
2.18709e-05 4.10469e-06 -1.60813e-08
-1.22226e-08 -1.60813e-08 -2.51105e-05
0.000783254 2.39437e-05 -1.71271e-06
2.39437e-05 -3.76951e-05 3.16331e-06
-1.71271e-06 3.16331e-06 -4.09703e-05
0.000872028 1.43244e-05 9.44597e-07
1.43244e-05 5.38376e-06 -1.60695e-06
9.44597e-07 -1.60695e-06 -2.22265e-05
0.000801572 2.05435e-05 1.39377e-07
2.05435e-05 -3.40382e-05 1.35412e-08
1.39377e-07 1.35412e-08 -3.58597e-05
0.00207266 3.11253e-05 -4.6935e-06
3.11253e-05 0.00063682 1.50978e-06
-4.6935e-06 1.50978e-06 0.000657586
0.000815702 1.67752e-05 1.19747e-06
1.67752e-05 -3.17112e-05 -3.07287e-06
1.19747e-06 -3.07287e-06 -3.24024e-05
0.00154713 2.05182e-05 5.76679e-06
2.05182e-05 0.000354218 -1.08017e-06
5.76679e-06 -1.08017e-06 0.000373427
0.00212174 1.75018e-05 1.04159e-05
1.75018e-05 0.000653948 -3.76303e-06
1.04159e-05 -3.76303e-06 0.00067649
0.000768097 -1.96925e-05 6.62323e-08
-1.96925e-05 -4.22838e-05 -1.12121e-06
6.62323e-08 -1.12121e-06 -9.32446e-05
0.000620567 -1.25067e-05 -3.69694e-07
-1.25067e-05 -0.000124453 -2.0006e-06
-3.69694e-07 -2.0006e-06 -0.000155082
0.000880142 -2.4457e-06 -1.95904e-07
-2.4457e-06 2.04229e-05 -5.42327e-07
-1.95904e-07 -5.42327e-07 -2.94628e-05
0.000834135 -1.31488e-05 -6.32687e-07
-1.31488e-05 -2.49632e-05 -3.04918e-06
-6.32687e-07 -3.04918e-06 -2.47937e-05
0.000635083 -9.97926e-06 -9.65555e-09
-9.97926e-06 -0.000119789 -5.87075e-07
-9.65555e-09 -5.87075e-07 -0.000147413
0.000994652 -2.65503e-07 -6.67933e-08
-2.65503e-07 8.00674e-05 5.75408e-07
-6.67933e-08 5.75408e-07 3.43215e-05
0.00206644 -1.16586e-05 -7.58191e-06
-1.16586e-05 0.000622153 -3.89012e-06
-7.58191e-06 -3.89012e-06 0.000645789
0.000825723 -8.6733e-06 -1.13761e-07
-8.6733e-06 -3.28946e-05 -1.94854e-08
-1.13761e-07 -1.94854e-08 -3.08072e-05
0.000635028 -7.09075e-06 9.84691e-08
-7.09075e-06 -0.000122493 1.37333e-06
9.84691e-08 1.37333e-06 -0.000147768
0.0020344 -5.6469e-06 -1.76891e-06
-5.6469e-06 0.000603065 1.06963e-08
-1.76891e-06 1.06963e-08 0.000627483
0.000823139 -4.23817e-06 1.29984e-07
-4.23817e-06 -3.65869e-05 2.98178e-06
1.29984e-07 2.98178e-06 -3.32963e-05
0.0020267 3.80265e-07 -6.0661e-07
3.80265e-07 0.000598309 3.87067e-06
-6.0661e-07 3.87067e-06 0.000622946
0.00119902 -9.73603e-06 1.39127e-05
-9.73603e-06 0.000197952 -4.15466e-06
1.39127e-05 -4.15466e-06 9.76944e-05
0.0012011 -9.61832e-06 -4.09841e-06
-9.61832e-06 9.24079e-05 1.11161e-06
-4.09841e-06 1.11161e-06 2.86482e-06
0.00101467 5.60532e-05 2.29929e-05
5.60532e-05 0.000512291 -3.39016e-06
2.29929e-05 -3.39016e-06 0.000505053
0.00097051 2.21981e-05 1.02977e-07
2.21981e-05 7.12905e-05 6.61287e-08
1.02977e-07 6.61287e-08 6.84312e-06
0.000895434 2.26903e-06 -2.54765e-08
2.26903e-06 2.63708e-05 -1.80292e-07
-2.54765e-08 -1.80292e-07 -3.81787e-05
0.00104376 3.16423e-05 -2.70451e-07
3.16423e-05 0.000113382 4.61724e-07
-2.70451e-07 4.61724e-07 4.19382e-05
0.00119362 1.24976e-05 6.88113e-06
1.24976e-05 8.43721e-05 2.85644e-06
6.88113e-06 2.85644e-06 -9.80869e-07
0.00113827 7.90016e-06 -3.79563e-06
7.90016e-06 3.63773e-05 3.34689e-06
-3.79563e-06 3.34689e-06 -2.26533e-05
0.00111034 1.8111e-05 7.41132e-06
1.8111e-05 -0.000171845 -1.0669e-05
7.41132e-06 -1.0669e-05 -0.000242067
0.0018829 4.98177e-05 -4.2567e-05
4.98177e-05 -0.000355256 1.24821e-05
-4.2567e-05 1.24821e-05 -0.000485567
0.0018049 0.000275874 7.492e-06
0.000275874 0.000182523 -2.98768e-06
7.492e-06 -2.98768e-06 -0.0010065
0.00440193 0.00045257 5.08536e-05
0.00045257 0.00102495 -2.76466e-05
5.08536e-05 -2.76466e-05 0.00106696
0.00131482 8.71456e-05 3.66133e-06
8.71456e-05 -0.000758152 -1.06926e-05
3.66133e-06 -1.06926e-05 -0.000403689
0.00182561 -8.73654e-05 -3.1665e-06
-8.73654e-05 -0.000275498 7.4354e-06
-3.1665e-06 7.4354e-06 -0.000302576
0.00516839 0.000153992 3.36744e-05
0.000153992 0.00125493 -3.6535e-05
3.36744e-05 -3.6535e-05 3.54415e-05
0.000910111 0.000120735 -6.57165e-06
0.000120735 -0.000802344 1.04458e-05
-6.57165e-06 1.04458e-05 -0.000651537
0.00205005 2.94942e-05 -4.21311e-08
2.94942e-05 -0.000202912 3.6901e-06
-4.21311e-08 3.6901e-06 0.000140393
0.00525501 -0.000372711 7.84085e-06
-0.000372711 0.00129028 -5.81785e-05
7.84085e-06 -5.81785e-05 0.00115117
0.00829573 0.000199298 3.65723e-05
0.000199298 0.00259928 -2.46745e-05
3.65723e-05 -2.46745e-05 0.00154788
0.000222056 2.71826e-05 8.35704e-06
2.71826e-05 -0.00097197 5.69842e-05
8.35704e-06 5.69842e-05 -0.000826711
0.000618113 -6.04078e-05 2.82965e-06
-6.04078e-05 -0.00102138 5.73559e-06
2.82965e-06 5.73559e-06 -0.00069545
0.00100943 3.37896e-07 -2.99039e-08
3.37896e-07 8.95447e-05 5.96729e-07
-2.99039e-08 5.96729e-07 1.13921e-05
0.000935429 -9.17353e-06 -6.68885e-08
-9.17353e-06 6.11898e-05 -1.86377e-07
-6.68885e-08 -1.86377e-07 -1.91671e-05
0.000975698 -3.18458e-05 -3.84811e-07
-3.18458e-05 8.84569e-05 8.11214e-08
-3.84811e-07 8.11214e-08 1.15965e-05
0.000945512 1.33214e-05 -3.83533e-07
1.33214e-05 6.18312e-05 -5.10966e-07
-3.83533e-07 -5.10966e-07 -9.47574e-06
0.00106744 6.49584e-05 1.11998e-06
6.49584e-05 0.00013389 3.27925e-07
1.11998e-06 3.27925e-07 6.25139e-05
0.00112133 4.71982e-05 8.31813e-08
4.71982e-05 0.000157146 3.66125e-07
8.31813e-08 3.66125e-07 9.26787e-05
0.00334117 -0.000265656 1.80035e-06
-0.000265656 0.000925932 -1.67655e-06
1.80035e-06 -1.67655e-06 0.000936321
-3.5178e-05 -2.01747e-05 2.60436e-06
-2.01747e-05 -0.000349743 -3.92299e-07
2.60436e-06 -3.92299e-07 -0.000589952
0.00110188 3.44341e-05 3.24879e-07
3.44341e-05 0.000145252 -2.1382e-07
3.24879e-07 -2.1382e-07 6.13633e-05
0.00130252 -5.04189e-05 5.06486e-07
-5.04189e-05 0.000242243 -2.54297e-06
5.06486e-07 -2.54297e-06 0.000131038
0.00112322 -1.19066e-06 1.49393e-07
-1.19066e-06 0.000149922 -1.40598e-06
1.49393e-07 -1.40598e-06 5.82847e-05
0.0010291 1.75654e-06 4.98489e-07
1.75654e-06 9.21131e-05 -5.14604e-08
4.98489e-07 -5.14604e-08 1.43065e-05
0.00103141 3.61336e-05 3.07746e-07
3.61336e-05 9.97222e-05 -1.94466e-07
3.07746e-07 -1.94466e-07 1.50707e-05
0.000675749 -0.000179742 -4.68937e-06
-0.000179742 -7.72676e-05 2.46156e-06
-4.68937e-06 2.46156e-06 -0.000131062
0.00110408 -1.51079e-05 7.74204e-07
-1.51079e-05 0.000123382 -9.84068e-07
7.74204e-07 -9.84068e-07 3.74721e-05
0.00084516 3.51694e-05 -2.16685e-06
3.51694e-05 0.000210103 -1.31271e-06
-2.16685e-06 -1.31271e-06 3.84552e-05
0.000954363 -9.08015e-07 7.09708e-07
-9.08015e-07 5.68706e-05 5.05286e-08
7.09708e-07 5.05286e-08 -1.8678e-05
-0.000989329 -6.93918e-05 -1.81269e-07
-6.93918e-05 -0.000512022 -1.03752e-05
-1.81269e-07 -1.03752e-05 -0.000732864
0.000175414 -8.64656e-07 -4.04678e-06
-8.64656e-07 -0.000169188 2.00205e-05
-4.04678e-06 2.00205e-05 -0.000208898
0.00102523 -1.49094e-05 1.32058e-07
-1.49094e-05 8.68139e-05 1.62782e-06
1.32058e-07 1.62782e-06 5.01049e-06
0.00124268 6.18731e-07 -3.6239e-07
6.18731e-07 0.000226025 6.87086e-07
-3.6239e-07 6.87086e-07 8.60181e-05
0.00105257 -1.28461e-06 5.70506e-06
-1.28461e-06 0.000144813 1.72369e-06
5.70506e-06 1.72369e-06 3.51264e-05
0.00137623 -6.54755e-06 6.79341e-06
-6.54755e-06 0.000239465 1.50914e-06
6.79341e-06 1.50914e-06 0.000145756
0.00096507 6.85949e-05 4.04642e-06
6.85949e-05 0.000170595 4.13215e-06
4.04642e-06 4.13215e-06 9.44592e-05
0.000564542 0.000118872 1.21998e-05
0.000118872 0.000169615 -1.36619e-05
1.21998e-05 -1.36619e-05 4.26019e-05
0.00102353 1.06805e-05 -1.56054e-05
1.06805e-05 0.000150856 -6.74331e-06
-1.56054e-05 -6.74331e-06 6.7291e-05
0.00350427 4.5623e-05 -2.24645e-05
4.5623e-05 0.00040231 -3.5683e-06
-2.24645e-05 -3.5683e-06 -0.000291923
-0.00167312 3.31544e-05 -9.68718e-06
3.31544e-05 -0.00203026 6.71149e-05
-9.68718e-06 6.71149e-05 -0.00192077
0.00105766 -2.25513e-06 -7.74875e-06
-2.25513e-06 0.000108292 -2.71325e-06
-7.74875e-06 -2.71325e-06 1.24247e-05
0.00150915 7.76585e-05 -2.28045e-06
7.76585e-05 -0.000567644 1.00205e-05
-2.28045e-06 1.00205e-05 -0.000262149
0.000543286 4.21257e-05 -4.05172e-06
4.21257e-05 9.66658e-05 -2.42982e-06
-4.05172e-06 -2.42982e-06 1.8262e-05
0.0011271 -2.22384e-06 -4.60512e-06
-2.22384e-06 0.000165149 6.45641e-06
-4.60512e-06 6.45641e-06 3.84247e-05
0.00112597 -1.55573e-06 3.62357e-06
-1.55573e-06 3.65357e-05 -3.07212e-06
3.62357e-06 -3.07212e-06 -2.86298e-05
0.00124965 0.00022497 4.47909e-05
0.00022497 5.73047e-05 1.70983e-06
4.47909e-05 1.70983e-06 -4.05531e-05
0.00191134 0.000206809 2.73297e-06
0.000206809 -0.000355883 -2.29342e-06
2.73297e-06 -2.29342e-06 0.000152229
0.000922892 0.00015548 5.73457e-06
0.00015548 -0.000758288 -1.0242e-05
5.73457e-06 -1.0242e-05 -0.000609511
0.00733292 9.24719e-05 7.26031e-06
9.24719e-05 0.00224613 -1.86523e-05
7.26031e-06 -1.86523e-05 0.00139353
-0.000533605 7.47186e-06 -3.18002e-05
7.47186e-06 -9.2109e-05 -1.4586e-05
-3.18002e-05 -1.4586e-05 -0.000226791
0.00117858 -1.35185e-05 -1.32021e-05
-1.35185e-05 0.000192588 4.61488e-06
-1.32021e-05 4.61488e-06 9.23986e-05
0.00117081 2.63891e-05 2.50224e-05
2.63891e-05 -0.000159502 -1.27144e-05
2.50224e-05 -1.27144e-05 -0.000193484
0.00134216 0.000368945 1.56489e-05
0.000368945 4.02889e-05 -2.69459e-06
1.56489e-05 -2.69459e-06 0.000754406
-0.00345183 0.000287666 6.22113e-05
0.000287666 -0.0025958 -3.32723e-05
6.22113e-05 -3.32723e-05 -0.00250052
0.00792215 0.00024892 1.6167e-05
0.00024892 0.00234153 -3.68244e-05
1.6167e-05 -3.68244e-05 0.0010893
0.00165878 -4.37805e-05 -1.05495e-05
-4.37805e-05 0.000161395 9.52654e-05
-1.05495e-05 9.52654e-05 -2.77837e-06
0.00119326 1.0238e-05 1.74709e-06
1.0238e-05 0.000193057 7.36335e-06
1.74709e-06 7.36335e-06 0.00012955
0.000226261 -2.76194e-05 -8.28762e-08
-2.76194e-05 -0.000118205 6.66035e-08
-8.28762e-08 6.66035e-08 -0.000261177
0.000239318 -5.35825e-05 2.53302e-06
-5.35825e-05 -1.38774e-05 -5.69928e-06
2.53302e-06 -5.69928e-06 -0.000221471
0.000964376 -3.85122e-05 2.63345e-07
-3.85122e-05 4.9654e-05 -8.84838e-07
2.63345e-07 -8.84838e-07 -1.97134e-05
0.000774463 -2.86764e-05 4.31422e-07
-2.86764e-05 -3.39436e-05 2.76595e-06
4.31422e-07 2.76595e-06 -8.90821e-05
0.000750537 -1.79428e-05 -7.34109e-08
-1.79428e-05 2.02271e-05 2.12324e-07
-7.34109e-08 2.12324e-07 -7.60183e-05
0.000978206 -9.01326e-05 3.99621e-06
-9.01326e-05 0.000198249 -1.01338e-06
3.99621e-06 -1.01338e-06 2.19359e-05
0.0012585 -4.53994e-05 -4.73488e-07
-4.53994e-05 0.000220013 -4.10269e-07
-4.73488e-07 -4.10269e-07 0.000139589
0.00116985 -7.76502e-05 5.26299e-07
-7.76502e-05 0.000222122 2.40632e-07
5.26299e-07 2.40632e-07 0.000104928
0.000984546 -8.82488e-05 2.01747e-06
-8.82488e-05 0.000143435 1.47611e-06
2.01747e-06 1.47611e-06 -2.19117e-05
0.000539879 -4.48391e-05 -1.58571e-07
-4.48391e-05 -0.000106521 -1.35476e-06
-1.58571e-07 -1.35476e-06 -0.000204047
0.0010994 -8.85262e-05 -3.54916e-07
-8.85262e-05 0.000166501 -9.28262e-08
-3.54916e-07 -9.28262e-08 3.88408e-05
0.00162742 -0.000120429 -9.64284e-07
-0.000120429 0.000389469 1.38451e-06
-9.64284e-07 1.38451e-06 0.00024535
0.00139452 -0.000111448 -3.12062e-06
-0.000111448 0.000237925 2.5455e-06
-3.12062e-06 2.5455e-06 0.000106557
0.000774161 -7.61896e-05 -1.06034e-06
-7.61896e-05 -3.3292e-05 1.61269e-06
-1.06034e-06 1.61269e-06 -0.000135866
0.00108577 -9.11813e-05 -8.36547e-07
-9.11813e-05 0.000113638 7.3822e-07
-8.36547e-07 7.3822e-07 -5.31183e-06
0.000990796 -8.20629e-05 -2.67355e-07
-8.20629e-05 9.23209e-05 -6.35058e-07
-2.67355e-07 -6.35058e-07 -2.48209e-05
0.00118017 -8.65474e-05 3.72455e-07
-8.65474e-05 0.000188432 -1.18773e-06
3.72455e-07 -1.18773e-06 9.53975e-05
0.00108961 -8.4378e-05 1.5316e-06
-8.4378e-05 0.00014417 -6.00146e-07
1.5316e-06 -6.00146e-07 4.77228e-05
0.000826893 -4.07056e-05 -5.71901e-07
-4.07056e-05 1.4674e-05 9.61757e-07
-5.71901e-07 9.61757e-07 -6.92495e-05
0.000918375 -6.64424e-05 3.48157e-07
-6.64424e-05 7.08965e-05 -1.11575e-07
3.48157e-07 -1.11575e-07 -2.27443e-05
0.000972103 -7.80998e-05 3.41119e-06
-7.80998e-05 8.85793e-05 -1.36454e-06
3.41119e-06 -1.36454e-06 -1.22132e-05
0.000928778 1.58571e-05 -7.73777e-07
1.58571e-05 4.97667e-05 1.29758e-06
-7.73777e-07 1.29758e-06 -1.2287e-05
0.000995438 -2.98946e-05 -1.45699e-07
-2.98946e-05 9.11039e-05 -2.70556e-08
-1.45699e-07 -2.70556e-08 1.54455e-05
0.00109421 -6.47974e-05 4.67685e-07
-6.47974e-05 0.000150413 -2.93736e-07
4.67685e-07 -2.93736e-07 6.08982e-05
0.000847461 2.6933e-05 -1.10656e-06
2.6933e-05 7.47067e-06 1.95306e-06
-1.10656e-06 1.95306e-06 -2.8481e-05
0.000912305 1.25432e-05 1.18818e-07
1.25432e-05 3.83179e-05 -4.46526e-08
1.18818e-07 -4.46526e-08 -1.69779e-05
0.000846391 -1.41774e-05 8.75333e-07
-1.41774e-05 9.75533e-06 -8.40653e-07
8.75333e-07 -8.40653e-07 -6.15275e-05
0.000899598 1.68921e-05 4.34762e-07
1.68921e-05 2.98613e-05 -1.29592e-06
4.34762e-07 -1.29592e-06 -2.00783e-05
0.000852106 2.7484e-05 7.10128e-08
2.7484e-05 5.15072e-06 -4.61349e-08
7.10128e-08 -4.61349e-08 -2.69088e-05
0.000766931 2.74636e-05 -2.019e-06
2.74636e-05 -3.89717e-05 3.22193e-06
-2.019e-06 3.22193e-06 -4.44718e-05
0.000862598 2.3091e-05 8.1443e-07
2.3091e-05 4.71207e-06 -1.74651e-06
8.1443e-07 -1.74651e-06 -2.45524e-05
0.000798795 2.42868e-05 8.25891e-08
2.42868e-05 -2.98198e-05 -8.77365e-09
8.25891e-08 -8.77365e-09 -3.31436e-05
0.00213082 3.36078e-05 -1.72174e-05
3.36078e-05 0.000672362 3.54266e-06
-1.72174e-05 3.54266e-06 0.000692117
0.000816108 2.07585e-05 1.55009e-06
2.07585e-05 -2.68273e-05 -3.09603e-06
1.55009e-06 -3.09603e-06 -2.86376e-05
0.00154045 2.55457e-05 6.81523e-06
2.55457e-05 0.000356308 -1.02431e-06
6.81523e-06 -1.02431e-06 0.000374396
0.00211564 2.31082e-05 1.31972e-05
2.31082e-05 0.000654813 -3.69052e-06
1.31972e-05 -3.69052e-06 0.000676621
0.000900262 1.56113e-05 -6.43877e-07
1.56113e-05 2.71799e-05 -7.33757e-07
-6.43877e-07 -7.33757e-07 -2.53594e-05
0.000848292 -1.46111e-05 -7.18989e-07
-1.46111e-05 -4.70594e-06 -1.58033e-06
-7.18989e-07 -1.58033e-06 -3.62566e-05
0.000823888 8.57234e-06 -6.08958e-07
8.57234e-06 -1.03081e-05 -5.2087e-07
-6.08958e-07 -5.2087e-07 -6.21796e-05
0.000827499 -1.73246e-05 -7.80094e-07
-1.73246e-05 -2.36588e-05 -3.17654e-06
-7.80094e-07 -3.17654e-06 -2.58366e-05
0.000743721 -1.27321e-05 -1.62085e-07
-1.27321e-05 -6.04488e-05 -6.03647e-07
-1.62085e-07 -6.03647e-07 -9.05296e-05
0.00100938 -3.66302e-06 7.54831e-08
-3.66302e-06 8.71899e-05 1.35922e-07
7.54831e-08 1.35922e-07 3.80217e-05
0.00211318 -1.75057e-05 -1.06029e-05
-1.75057e-05 0.000649916 -3.91238e-06
-1.06029e-05 -3.91238e-06 0.000672445
0.000819151 -1.29541e-05 -1.05869e-07
-1.29541e-05 -3.27097e-05 -2.42895e-08
-1.05869e-07 -2.42895e-08 -3.24311e-05
0.000625851 -1.0061e-05 5.1928e-08
-1.0061e-05 -0.000124407 7.84001e-07
5.1928e-08 7.84001e-07 -0.000152382
0.00206231 -1.14109e-05 -1.60082e-06
-1.14109e-05 0.000619655 2.4278e-08
-1.60082e-06 2.4278e-08 0.000643415
0.000814552 -8.53765e-06 3.89824e-07
-8.53765e-06 -3.8776e-05 2.97953e-06
3.89824e-07 2.97953e-06 -3.65955e-05
0.00203087 -5.39676e-06 2.77815e-06
-5.39676e-06 0.000600993 3.85767e-06
2.77815e-06 3.85767e-06 0.000625488
0.00113029 1.01572e-06 6.13394e-06
1.01572e-06 0.000162184 -1.4006e-05
6.13394e-06 -1.4006e-05 3.69124e-05
0.001179 -9.67711e-06 -1.29144e-06
-9.67711e-06 0.000195951 1.94878e-07
-1.29144e-06 1.94878e-07 9.73528e-05
0.00121947 -1.16182e-05 4.85537e-07
-1.16182e-05 0.000107554 5.26864e-06
4.85537e-07 5.26864e-06 2.29201e-05
0.000881645 -1.78607e-05 3.36702e-08
-1.78607e-05 1.63955e-05 -4.21207e-07
3.36702e-08 -4.21207e-07 -4.77067e-05
0.00103497 1.06498e-07 -9.67705e-08
1.06498e-07 0.000100701 -2.54831e-07
-9.67705e-08 -2.54831e-07 3.03859e-05
0.00100287 2.03054e-05 1.0456e-06
2.03054e-05 8.68518e-05 2.35324e-07
1.0456e-06 2.35324e-07 2.39224e-05
0.000883857 -5.91191e-06 2.38821e-08
-5.91191e-06 1.91705e-05 2.72247e-08
2.38821e-08 2.72247e-08 -4.45127e-05
0.000982022 1.40497e-05 1.05168e-07
1.40497e-05 7.85252e-05 3.3412e-07
1.05168e-07 3.3412e-07 7.63403e-06
0.000988279 1.28559e-05 -5.11899e-07
1.28559e-05 7.92215e-05 8.77503e-08
-5.11899e-07 8.77503e-08 8.8796e-06
0.000961882 7.21441e-05 2.72045e-08
7.21441e-05 7.41741e-05 6.96191e-07
2.72045e-08 6.96191e-07 -4.42097e-06
0.0011639 1.33896e-05 -3.22269e-06
1.33896e-05 5.64546e-05 1.29409e-05
-3.22269e-06 1.29409e-05 -1.09124e-05
0.00114098 1.01587e-05 3.12956e-06
1.01587e-05 0.000104881 2.11525e-06
3.12956e-06 2.11525e-06 1.35874e-05
0.00120781 2.66317e-06 -9.15947e-06
2.66317e-06 9.43768e-05 -1.72855e-07
-9.15947e-06 -1.72855e-07 3.36041e-05
0.000907242 1.99801e-05 4.53029e-06
1.99801e-05 -0.000869353 -4.10793e-06
4.53029e-06 -4.10793e-06 -0.000552893
0.000150044 -4.71715e-05 -5.74748e-05
-4.71715e-05 -0.0014655 5.75755e-05
-5.74748e-05 5.75755e-05 -0.00154889
0.0023153 0.000104009 4.70125e-05
0.000104009 0.000152506 -4.79782e-05
4.70125e-05 -4.79782e-05 -0.000970367
0.00544637 0.00032759 2.61506e-05
0.00032759 0.0013363 -2.4836e-05
2.61506e-05 -2.4836e-05 0.00130722
0.00209791 -0.00027389 -1.89147e-05
-0.00027389 -0.00027028 1.26086e-05
-1.89147e-05 1.26086e-05 -0.000550478
0.00274629 -7.24339e-05 2.94555e-05
-7.24339e-05 -9.26508e-05 -4.45169e-05
2.94555e-05 -4.45169e-05 -0.00119429
0.00357387 3.24922e-06 -1.54914e-05
3.24922e-06 0.000377697 2.43949e-06
-1.54914e-05 2.43949e-06 0.000408506
0.00269022 -8.69379e-05 5.75022e-07
-8.69379e-05 0.000167502 -4.78294e-06
5.75022e-07 -4.78294e-06 0.000565099
0.00358883 -0.000240524 1.45483e-05
-0.000240524 0.000927797 -1.67479e-05
1.45483e-05 -1.67479e-05 0.000812955
0.00323891 -0.000357421 -4.70434e-06
-0.000357421 -0.000647113 -9.80594e-05
-4.70434e-06 -9.80594e-05 -0.000993658
0.00011743 -0.000141819 3.49934e-05
-0.000141819 -0.00135217 3.78348e-05
3.49934e-05 3.78348e-05 -0.00133691
7.88512e-06 -0.000144963 1.46547e-05
-0.000144963 -0.0014115 5.88003e-06
1.46547e-05 5.88003e-06 -0.000952545
0.00110866 -2.34159e-05 -2.31928e-07
-2.34159e-05 0.000133437 1.08792e-06
-2.31928e-07 1.08792e-06 5.89718e-05
0.000931653 3.23116e-06 7.5862e-08
3.23116e-06 5.01094e-05 -1.0581e-07
7.5862e-08 -1.0581e-07 -2.84891e-05
0.000907182 -2.00277e-06 -3.11469e-07
-2.00277e-06 4.85828e-05 -8.17367e-07
-3.11469e-07 -8.17367e-07 -3.26956e-05
0.000953697 2.20037e-05 -7.3945e-08
2.20037e-05 6.65051e-05 -9.18829e-07
-7.3945e-08 -9.18829e-07 -5.22724e-06
0.0035034 -0.000218402 1.23806e-05
-0.000218402 0.00128868 3.59478e-06
1.23806e-05 3.59478e-06 0.00126663
0.000492437 1.2843e-05 4.29363e-06
1.2843e-05 8.93208e-05 -5.8723e-06
4.29363e-06 -5.8723e-06 -7.29746e-05
0.000903253 -9.96676e-06 2.18511e-08
-9.96676e-06 2.41623e-05 -8.4896e-07
2.18511e-08 -8.4896e-07 -5.31906e-05
0.000978503 3.07286e-05 5.24053e-07
3.07286e-05 7.41797e-05 -1.02638e-06
5.24053e-07 -1.02638e-06 -1.10346e-05
0.00147888 -6.64566e-06 7.87023e-07
-6.64566e-06 0.000318133 -3.71626e-06
7.87023e-07 -3.71626e-06 0.000231459
0.00093801 8.618e-06 -3.0984e-07
8.618e-06 4.73934e-05 3.27803e-08
-3.0984e-07 3.27803e-08 -2.83941e-05
0.000935017 -5.84711e-06 -1.33106e-06
-5.84711e-06 4.33355e-05 5.37163e-07
-1.33106e-06 5.37163e-07 -4.05263e-05
0.000299467 -8.88542e-05 9.0116e-07
-8.88542e-05 0.000139548 -4.19885e-06
9.0116e-07 -4.19885e-06 -4.90204e-05
0.000823708 -1.72336e-06 3.83503e-06
-1.72336e-06 0.000155096 7.00073e-06
3.83503e-06 7.00073e-06 0.00012031
0.00102906 -1.01464e-05 6.73565e-07
-1.01464e-05 9.97124e-05 -9.71297e-07
6.73565e-07 -9.71297e-07 2.03441e-05
-0.000236163 2.92404e-05 1.14834e-06
2.92404e-05 0.000308019 -1.31706e-05
1.14834e-06 -1.31706e-05 -0.000210119
0.00154725 -3.78756e-05 6.02169e-06
-3.78756e-05 0.000516416 9.74671e-06
6.02169e-06 9.74671e-06 0.00042577
0.0012763 -6.7562e-07 -1.96768e-05
-6.7562e-07 0.000291663 -2.34433e-06
-1.96768e-05 -2.34433e-06 0.000186219
0.00123645 -4.8429e-07 5.7002e-08
-4.8429e-07 0.000194335 4.5943e-07
5.7002e-08 4.5943e-07 4.33563e-05
0.000869299 -6.84159e-07 -1.14848e-05
-6.84159e-07 2.48798e-05 6.80403e-07
-1.14848e-05 6.80403e-07 -9.37903e-05
0.000875211 2.64435e-05 1.02555e-06
2.64435e-05 0.000237127 4.92378e-06
1.02555e-06 4.92378e-06 0.000165744
0.00156616 0.000137239 -5.92726e-05
0.000137239 0.000518143 1.28023e-05
-5.92726e-05 1.28023e-05 0.000562117
0.00106669 -2.361e-06 -4.11545e-06
-2.361e-06 0.000127005 -5.42817e-06
-4.11545e-06 -5.42817e-06 -7.19879e-06
0.00324892 0.000224997 3.52954e-05
0.000224997 0.00019734 -7.63115e-05
3.52954e-05 -7.63115e-05 -0.000680111
0.00520507 0.00035279 -2.97584e-05
0.00035279 0.00124224 2.64107e-05
-2.97584e-05 2.64107e-05 0.00121461
0.00122276 -7.24503e-06 7.95506e-06
-7.24503e-06 0.000112665 8.10406e-07
7.95506e-06 8.10406e-07 4.54759e-05
0.00312063 0.000210296 -1.74306e-05
0.000210296 0.00048801 1.2752e-05
-1.74306e-05 1.2752e-05 0.00091831
-0.000232058 -1.7511e-05 2.28399e-05
-1.7511e-05 1.87092e-05 -1.8751e-06
2.28399e-05 -1.8751e-06 -0.000113743
0.0011548 -1.29598e-05 1.36455e-06
-1.29598e-05 0.000188762 -3.22089e-07
1.36455e-06 -3.22089e-07 9.0201e-05
0.00115812 1.8556e-05 8.22403e-06
1.8556e-05 -0.000149944 -4.75224e-06
8.22403e-06 -4.75224e-06 -0.000206231
0.00185197 -4.09395e-05 -8.54584e-06
-4.09395e-05 0.000365615 2.00094e-05
-8.54584e-06 2.00094e-05 0.00035517
0.0001315 0.000387891 -4.37301e-06
0.000387891 -0.000827338 3.31932e-06
-4.37301e-06 3.31932e-06 1.65726e-05
0.00220101 0.000401814 3.23721e-06
0.000401814 -0.000198037 -5.65902e-06
3.23721e-06 -5.65902e-06 -8.46741e-05
0.00291662 9.37905e-06 3.09057e-05
9.37905e-06 0.000251473 -1.39831e-05
3.09057e-05 -1.39831e-05 -0.00109539
0.00020599 -6.04892e-05 1.5953e-05
-6.04892e-05 0.000121868 -1.0575e-05
1.5953e-05 -1.0575e-05 8.35082e-08
0.00118105 -1.16884e-05 6.89838e-06
-1.16884e-05 8.4238e-05 -3.0929e-06
6.89838e-06 -3.0929e-06 -1.55164e-05
-0.00122735 0.000171617 9.05327e-06
0.000171617 -0.00098168 -9.72265e-06
9.05327e-06 -9.72265e-06 -0.000793151
-0.000187007 0.000376399 5.05384e-05
0.000376399 -0.000223703 -1.3332e-05
5.05384e-05 -1.3332e-05 2.74419e-05
0.00824265 0.000538051 2.68646e-05
0.000538051 0.00262238 -5.07929e-05
2.68646e-05 -5.07929e-05 0.00149017
0.0031381 -0.000251784 -5.87815e-05
-0.000251784 0.000526584 9.49937e-05
-5.87815e-05 9.49937e-05 -1.49526e-05
0.000343287 -3.46167e-05 -1.68405e-06
-3.46167e-05 -6.72047e-05 4.91259e-06
-1.68405e-06 4.91259e-06 -0.000222679
0.000471461 -3.12028e-05 8.72432e-07
-3.12028e-05 0.000103061 -8.52537e-07
8.72432e-07 -8.52537e-07 -0.00010021
0.0018023 -0.000154319 8.95767e-06
-0.000154319 0.0005894 -3.57595e-06
8.95767e-06 -3.57595e-06 0.000436403
0.00074894 -4.63625e-08 -1.84462e-06
-4.63625e-08 2.47638e-05 -9.1079e-07
-1.84462e-06 -9.1079e-07 -6.42002e-05
0.000466252 -5.78215e-05 4.57097e-07
-5.78215e-05 -3.62506e-05 -3.20112e-07
4.57097e-07 -3.20112e-07 -0.000219918
0.00122017 -0.000112074 4.08879e-06
-0.000112074 0.000245274 3.42746e-06
4.08879e-06 3.42746e-06 6.68736e-05
0.0014899 -0.00010341 -1.29053e-06
-0.00010341 0.000370972 -2.02102e-07
-1.29053e-06 -2.02102e-07 0.000248492
0.00116836 -9.4804e-05 1.47788e-07
-9.4804e-05 0.000225533 6.39205e-07
1.47788e-07 6.39205e-07 6.1253e-05
0.00110579 -0.000110517 6.75818e-07
-0.000110517 0.000118329 6.97916e-07
6.75818e-07 6.97916e-07 -4.99262e-05
0.00120116 -9.20497e-05 -7.30428e-07
-9.20497e-05 0.000216846 -5.83806e-07
-7.30428e-07 -5.83806e-07 8.58179e-05
0.00153915 -0.000117738 -3.81212e-08
-0.000117738 0.000339027 5.51964e-07
-3.81212e-08 5.51964e-07 0.000192917
0.00125278 -0.000113615 -5.14648e-07
-0.000113615 0.00015161 2.30935e-07
-5.14648e-07 2.30935e-07 -1.17258e-07
0.00135484 -0.000111304 -2.4609e-06
-0.000111304 0.000165337 -9.45172e-07
-2.4609e-06 -9.45172e-07 3.33967e-05
0.00160995 -0.000114441 -3.46235e-06
-0.000114441 0.000350456 3.26691e-06
-3.46235e-06 3.26691e-06 0.000233687
0.00136573 -0.000111452 -6.46176e-07
-0.000111452 0.000220374 6.33644e-07
-6.46176e-07 6.33644e-07 8.63553e-05
0.00070788 -7.09658e-05 1.18279e-08
-7.09658e-05 -6.64317e-05 -7.01365e-07
1.18279e-08 -7.01365e-07 -0.000160084
0.000905355 -8.09042e-05 1.18965e-06
-8.09042e-05 3.3816e-05 -4.30033e-07
1.18965e-06 -4.30033e-07 -6.80473e-05
0.00104768 -9.05289e-05 1.23791e-06
-9.05289e-05 9.48998e-05 -1.1354e-06
1.23791e-06 -1.1354e-06 -2.60951e-05
0.00105521 -7.60508e-05 -3.37873e-07
-7.60508e-05 0.000124143 5.13833e-08
-3.37873e-07 5.13833e-08 3.43785e-05
0.0011335 -8.43119e-05 -1.10848e-07
-8.43119e-05 0.000165928 -2.99047e-07
-1.10848e-07 -2.99047e-07 7.26129e-05
0.00086046 -7.46426e-05 2.82454e-06
-7.46426e-05 2.96594e-05 3.23857e-07
2.82454e-06 3.23857e-07 -6.42051e-05
0.00088304 7.9306e-06 -2.81415e-07
7.9306e-06 3.15827e-05 1.20197e-06
-2.81415e-07 1.20197e-06 -3.89792e-05
0.000902222 -4.21011e-05 1.67977e-08
-4.21011e-05 5.22497e-05 3.91668e-07
1.67977e-08 3.91668e-07 -3.09325e-05
0.00107952 -6.98944e-05 1.14945e-06
-6.98944e-05 0.000151752 -6.25944e-07
1.14945e-06 -6.25944e-07 5.90118e-05
0.000829286 3.37431e-05 -1.38485e-06
3.37431e-05 1.68858e-06 2.15125e-06
-1.38485e-06 2.15125e-06 -4.00336e-05
0.000911599 8.71426e-06 -1.56514e-07
8.71426e-06 4.16055e-05 -4.04037e-08
-1.56514e-07 -4.04037e-08 -2.08978e-05
0.00100663 -3.32928e-05 5.65032e-07
-3.32928e-05 9.70391e-05 -7.05021e-07
5.65032e-07 -7.05021e-07 2.10237e-05
0.000782753 3.08572e-05 -3.38743e-06
3.08572e-05 -2.42388e-05 4.5623e-06
-3.38743e-06 4.5623e-06 -3.24614e-05
0.000838411 3.13449e-05 2.41408e-07
3.13449e-05 3.45243e-06 -6.33912e-08
2.41408e-07 -6.33912e-08 -3.29403e-05
0.00089159 1.20934e-05 7.78533e-07
1.20934e-05 2.74671e-05 -1.25547e-06
7.78533e-07 -1.25547e-06 -2.76299e-05
0.00084716 2.97011e-05 7.3557e-07
2.97011e-05 2.62113e-06 -1.93826e-06
7.3557e-07 -1.93826e-06 -2.96059e-05
0.000789805 2.80246e-05 6.18035e-08
2.80246e-05 -2.73669e-05 -4.23131e-08
6.18035e-08 -4.23131e-08 -3.29761e-05
0.00215363 3.88999e-05 -1.95018e-05
3.88999e-05 0.000691336 3.45854e-06
-1.95018e-05 3.45854e-06 0.000709498
0.000815409 2.46575e-05 1.85497e-06
2.46575e-05 -2.13958e-05 -3.14366e-06
1.85497e-06 -3.14366e-06 -2.477e-05
0.0021291 3.37296e-05 8.84072e-07
3.37296e-05 0.000672375 5.37407e-08
8.84072e-07 5.37407e-08 0.000691976
0.00211517 2.85195e-05 1.58539e-05
2.85195e-05 0.000659732 -3.61419e-06
1.58539e-05 -3.61419e-06 0.000680524
0.000958797 1.28125e-05 -2.58433e-07
1.28125e-05 5.95394e-05 -5.32389e-07
-2.58433e-07 -5.32389e-07 -7.01171e-06
0.000906314 1.8528e-05 -8.00274e-07
1.8528e-05 3.09103e-05 -1.01064e-06
-8.00274e-07 -1.01064e-06 -2.48372e-05
0.000841689 -2.12976e-05 -7.49064e-07
-2.12976e-05 -5.66252e-06 -1.7172e-06
-7.49064e-07 -1.7172e-06 -3.93756e-05
0.000907748 9.45119e-06 -1.16601e-07
9.45119e-06 3.01059e-05 -4.38716e-08
-1.16601e-07 -4.38716e-08 -2.19456e-05
0.000813207 -2.0763e-05 -1.25942e-06
-2.0763e-05 -2.60096e-05 -3.27769e-06
-1.25942e-06 -3.27769e-06 -3.04735e-05
0.000856382 -1.60863e-05 -8.4669e-08
-1.60863e-05 -1.02741e-07 7.10876e-09
-8.4669e-08 7.10876e-09 -3.17597e-05
0.000877381 1.29263e-05 1.62556e-07
1.29263e-05 1.62067e-05 2.25595e-07
1.62556e-07 2.25595e-07 -3.37238e-05
0.00217658 -2.33263e-05 -1.35884e-05
-2.33263e-05 0.000687443 -3.93806e-06
-1.35884e-05 -3.93806e-06 0.000708534
0.000808715 -1.70629e-05 -1.13086e-07
-1.70629e-05 -3.3354e-05 -2.66162e-08
-1.13086e-07 -2.66162e-08 -3.54087e-05
0.000866447 -1.31481e-05 1.04821e-07
-1.31481e-05 3.22313e-06 9.46705e-07
1.04821e-07 9.46705e-07 -2.62981e-05
0.00210664 -1.72822e-05 -1.45707e-06
-1.72822e-05 0.00064605 3.86273e-08
-1.45707e-06 3.86273e-08 0.000668753
0.000802994 -1.27534e-05 5.18459e-07
-1.27534e-05 -4.10542e-05 3.03754e-06
5.18459e-07 3.03754e-06 -4.06651e-05
0.0020553 -1.11338e-05 6.30169e-06
-1.11338e-05 0.000615617 3.84909e-06
6.30169e-06 3.84909e-06 0.000639519
0.000817568 1.20011e-05 -9.99385e-06
1.20011e-05 7.90293e-06 -1.16329e-05
-9.99385e-06 -1.16329e-05 -8.75157e-05
0.00111321 9.46896e-07 4.80688e-06
9.46896e-07 0.000152798 -6.74187e-06
4.80688e-06 -6.74187e-06 1.97721e-05
0.00114848 -9.59226e-06 -1.59824e-05
-9.59226e-06 0.000187171 1.09058e-05
-1.59824e-05 1.09058e-05 8.99557e-05
0.000918728 5.25617e-06 -1.7463e-07
5.25617e-06 3.89346e-05 4.09162e-09
-1.7463e-07 4.09162e-09 -2.67949e-05
0.000990911 -1.49289e-06 -2.02711e-08
-1.49289e-06 7.7328e-05 2.28063e-07
-2.02711e-08 2.28063e-07 6.53387e-06
0.000913295 3.62138e-06 -1.73024e-07
3.62138e-06 4.08208e-05 -1.20904e-06
-1.73024e-07 -1.20904e-06 -3.40067e-05
0.000882106 -5.59147e-06 -5.50514e-08
-5.59147e-06 2.23359e-05 -5.88477e-07
-5.50514e-08 -5.88477e-07 -4.81403e-05
0.00104957 3.15637e-05 -4.06071e-07
3.15637e-05 0.00011543 -1.40045e-07
-4.06071e-07 -1.40045e-07 3.80615e-05
0.000868283 -8.67272e-06 -8.13226e-08
-8.67272e-06 1.05827e-05 2.88692e-07
-8.13226e-08 2.88692e-07 -5.27751e-05
0.000917743 -2.33331e-06 1.40978e-07
-2.33331e-06 4.22498e-05 3.96732e-08
1.40978e-07 3.96732e-08 -2.80411e-05
0.000963031 2.53124e-05 -1.75592e-07
2.53124e-05 6.8557e-05 -3.4253e-08
-1.75592e-07 -3.4253e-08 -2.69721e-06
0.000983423 2.56042e-05 3.9514e-07
2.56042e-05 7.83189e-05 4.11215e-07
3.9514e-07 4.11215e-07 2.51754e-06
0.00103624 2.24734e-05 -2.33788e-07
2.24734e-05 0.000110666 2.31803e-07
-2.33788e-07 2.31803e-07 3.49654e-05
0.00129598 -1.77427e-05 1.56304e-05
-1.77427e-05 3.08224e-05 2.10473e-05
1.56304e-05 2.10473e-05 -5.47162e-05
0.00121191 1.28022e-05 2.61414e-06
1.28022e-05 8.15037e-05 9.22289e-06
2.61414e-06 9.22289e-06 1.72904e-05
0.00117811 8.27794e-06 4.99322e-06
8.27794e-06 0.000185718 5.72307e-06
4.99322e-06 5.72307e-06 8.96882e-05
0.00197118 -7.51164e-05 -6.01652e-06
-7.51164e-05 -0.000200502 -1.41459e-05
-6.01652e-06 -1.41459e-05 0.000176107
-0.00137038 5.7662e-05 -4.3053e-06
5.7662e-05 -0.00190673 -6.06458e-05
-4.3053e-06 -6.06458e-05 -0.00185308
0.0010212 -0.000274311 -9.4337e-05
-0.000274311 -0.000891934 8.66771e-05
-9.4337e-05 8.66771e-05 -0.00127037
0.00781339 0.000203745 -2.73555e-05
0.000203745 0.00187097 -4.49207e-05
-2.73555e-05 -4.49207e-05 0.00123835
0.00212667 -0.000259385 -3.45239e-05
-0.000259385 5.35745e-06 3.73984e-05
-3.45239e-05 3.73984e-05 -0.00040534
0.00806519 -0.00012604 4.22226e-05
-0.00012604 0.00224213 -3.82152e-07
4.22226e-05 -3.82152e-07 0.00146787
0.00120844 -0.000201763 1.25455e-05
-0.000201763 -0.000742795 -1.82459e-05
1.25455e-05 -1.82459e-05 -0.00071981
0.000361832 -0.000174565 -4.78752e-06
-0.000174565 -0.0013253 -1.40665e-05
-4.78752e-06 -1.40665e-05 -0.000729957
0.00212667 -5.30869e-05 -5.69956e-05
-5.30869e-05 0.00027992 -5.30357e-05
-5.69956e-05 -5.30357e-05 -0.000160169
0.00791115 -0.00039482 -2.55042e-05
-0.00039482 0.00189828 4.98482e-05
-2.55042e-05 4.98482e-05 0.00126499
0.00701165 -0.000512515 2.61041e-05
-0.000512515 0.00206521 1.97489e-05
2.61041e-05 1.97489e-05 0.00229179
0.00191645 -0.000299705 8.78376e-06
-0.000299705 1.2278e-05 2.59827e-06
8.78376e-06 2.59827e-06 0.000780461
0.000877833 1.90383e-05 -7.05406e-08
1.90383e-05 3.93409e-05 1.47627e-06
-7.05406e-08 1.47627e-06 -2.95978e-05
0.00104755 -1.65173e-05 -1.47807e-07
-1.65173e-05 0.000106355 2.12182e-07
-1.47807e-07 2.12182e-07 3.0656e-05
0.000900885 3.64513e-06 2.25001e-07
3.64513e-06 3.37989e-05 -7.0463e-07
2.25001e-07 -7.0463e-07 -4.48494e-05
0.00103924 -8.66419e-05 2.18547e-05
-8.66419e-05 0.00049083 -2.56899e-06
2.18547e-05 -2.56899e-06 0.000349435
0.0012167 -1.53901e-05 -2.70636e-06
-1.53901e-05 0.000351719 -5.66279e-06
-2.70636e-06 -5.66279e-06 0.000320902
0.000927213 -5.5871e-07 -3.00371e-07
-5.5871e-07 4.04401e-05 5.42406e-08
-3.00371e-07 5.42406e-08 -3.5456e-05
0.000915745 -3.36806e-05 -9.36348e-07
-3.36806e-05 3.26425e-05 -3.22763e-07
-9.36348e-07 -3.22763e-07 -5.08421e-05
0.000949686 -1.45623e-05 -3.22294e-07
-1.45623e-05 6.17039e-05 -4.77357e-08
-3.22294e-07 -4.77357e-08 -1.69162e-05
0.000650137 -3.95353e-05 7.76344e-07
-3.95353e-05 7.11718e-05 4.1903e-06
7.76344e-07 4.1903e-06 -2.46575e-05
-0.00033278 1.66271e-05 8.31753e-06
1.66271e-05 0.000152476 -1.72411e-05
8.31753e-06 -1.72411e-05 -0.000350681
6.00478e-05 -8.4043e-06 -9.90037e-07
-8.4043e-06 -0.00023151 4.71484e-06
-9.90037e-07 4.71484e-06 -0.000344822
0.00163876 0.000110038 2.00984e-05
0.000110038 0.000698362 -3.08614e-06
2.00984e-05 -3.08614e-06 0.000452012
0.00146828 -2.35948e-06 -4.52264e-07
-2.35948e-06 0.000300293 -9.24984e-08
-4.52264e-07 -9.24984e-08 0.000207411
0.00104808 4.32177e-08 -5.51164e-06
4.32177e-08 0.000143365 -1.48364e-06
-5.51164e-06 -1.48364e-06 2.93848e-05
0.00124628 -1.37591e-06 3.4698e-07
-1.37591e-06 0.000174365 -1.28159e-07
3.4698e-07 -1.28159e-07 1.21351e-05
-0.00106513 -2.06078e-05 -1.47093e-05
-2.06078e-05 -0.000364734 1.36178e-05
-1.47093e-05 1.36178e-05 -0.000510719
0.00106168 1.39144e-05 3.52667e-05
1.39144e-05 -0.000186778 -4.55024e-05
3.52667e-05 -4.55024e-05 -0.000503153
0.00112436 -1.23756e-05 1.54572e-05
-1.23756e-05 0.000180607 -1.09894e-05
1.54572e-05 -1.09894e-05 8.33441e-05
0.00907033 0.000245444 5.03993e-05
0.000245444 0.00259982 6.21621e-06
5.03993e-05 6.21621e-06 0.00138465
0.00486271 0.000533734 -4.43741e-05
0.000533734 0.00132861 2.85357e-05
-4.43741e-05 2.85357e-05 0.00132885
0.0010891 1.03479e-05 -8.59732e-06
1.03479e-05 -0.000169745 9.71697e-06
-8.59732e-06 9.71697e-06 -0.000256142
-0.00106963 0.00040729 -1.98506e-05
0.00040729 -0.00169101 -6.2862e-06
-1.98506e-05 -6.2862e-06 -0.000729017
-4.04988e-05 -3.62469e-05 -2.93385e-06
-3.62469e-05 4.67464e-05 -5.52472e-07
-2.93385e-06 -5.52472e-07 -8.41941e-05
0.00115671 -1.32322e-05 3.7412e-06
-1.32322e-05 7.40607e-05 -1.20211e-06
3.7412e-06 -1.20211e-06 -2.29696e-05
-0.00131533 0.000194179 -1.50376e-05
0.000194179 -0.000943124 4.11795e-06
-1.50376e-05 4.11795e-06 -0.000728063
0.00203299 -0.000206953 -1.92698e-06
-0.000206953 0.000220979 2.89954e-05
-1.92698e-06 2.89954e-05 -0.000151485
0.0033748 0.000531599 4.31188e-06
0.000531599 0.000969036 2.69946e-06
4.31188e-06 2.69946e-06 0.00116439
0.0056654 0.000159142 3.1451e-05
0.000159142 0.00140466 -1.60508e-05
3.1451e-05 -1.60508e-05 5.02969e-06
0.00277613 -0.000155081 2.28247e-05
-0.000155081 0.000907202 6.65413e-06
2.28247e-05 6.65413e-06 0.000967476
-0.00104555 4.3191e-05 1.29223e-05
4.3191e-05 -0.000667029 -1.20324e-06
1.29223e-05 -1.20324e-06 -0.000749797
0.00329483 0.000399962 3.1998e-05
0.000399962 0.0014256 -1.13109e-05
3.1998e-05 -1.13109e-05 0.0015566
0.00417274 0.000421783 -3.26201e-05
0.000421783 0.000853051 3.40525e-05
-3.26201e-05 3.40525e-05 -0.00025182
0.00163021 -0.000230262 -8.95538e-06
-0.000230262 -2.49036e-05 3.29198e-05
-8.95538e-06 3.29198e-05 -0.000464157
0.000840086 -1.04055e-05 -3.50419e-06
-1.04055e-05 0.00028052 5.76744e-06
-3.50419e-06 5.76744e-06 8.61459e-05
0.000787793 -0.000120546 1.51349e-06
-0.000120546 0.000112781 -3.04209e-06
1.51349e-06 -3.04209e-06 -7.36009e-05
0.00198093 -0.000169323 6.43426e-06
-0.000169323 0.000394214 3.61935e-07
6.43426e-06 3.61935e-07 0.000287405
-9.68543e-06 -2.48689e-05 -1.25645e-06
-2.48689e-05 -0.000255662 8.66734e-07
-1.25645e-06 8.66734e-07 -0.000443879
0.000809203 -9.50082e-05 2.01915e-06
-9.50082e-05 5.09995e-05 -1.63741e-07
2.01915e-06 -1.63741e-07 -0.000126214
0.00126505 -0.000132431 1.93477e-06
-0.000132431 0.000126207 1.20249e-06
1.93477e-06 1.20249e-06 -1.83824e-05
0.00133625 -0.00010029 -1.7254e-06
-0.00010029 0.00029833 2.94986e-07
-1.7254e-06 2.94986e-07 0.000136916
0.00116491 -0.000110848 -4.88087e-07
-0.000110848 0.000141985 -4.48035e-07
-4.88087e-07 -4.48035e-07 -2.10543e-05
0.00158136 -0.000133173 -1.20019e-06
-0.000133173 0.000241513 -9.88917e-07
-1.20019e-06 -9.88917e-07 0.000103663
0.00145708 -0.000115125 1.00177e-07
-0.000115125 0.000290653 -5.8963e-07
1.00177e-07 -5.8963e-07 0.00014336
0.00126398 -0.000112222 3.47075e-07
-0.000112222 0.000154077 -6.4976e-07
3.47075e-07 -6.4976e-07 6.35593e-06
0.00145509 -0.000115834 -2.19684e-06
-0.000115834 0.000164412 -2.38558e-06
-2.19684e-06 -2.38558e-06 3.67739e-05
0.00136661 -0.00010403 -1.99853e-06
-0.00010403 0.000109422 -2.27543e-06
-1.99853e-06 -2.27543e-06 -5.44374e-06
0.00112349 -9.80021e-05 -2.11714e-06
-9.80021e-05 6.93612e-05 3.90527e-07
-2.11714e-06 3.90527e-07 -5.10437e-05
0.00126302 -0.00010708 3.13674e-07
-0.00010708 0.000116268 -8.29146e-07
3.13674e-07 -8.29146e-07 -1.44368e-05
0.00129115 -9.72778e-05 -1.56339e-06
-9.72778e-05 0.000203834 1.92008e-06
-1.56339e-06 1.92008e-06 0.000100009
0.00127155 -0.00010222 -2.4844e-07
-0.00010222 0.000180074 6.55044e-07
-2.4844e-07 6.55044e-07 6.14225e-05
0.00133748 -0.000111268 1.23958e-06
-0.000111268 0.000203313 -1.01441e-06
1.23958e-06 -1.01441e-06 6.68525e-05
0.000975095 -7.77109e-05 -5.88282e-07
-7.77109e-05 7.12689e-05 -9.35038e-07
-5.88282e-07 -9.35038e-07 -1.68565e-05
0.000806255 -7.4329e-05 -2.28254e-07
-7.4329e-05 -1.51497e-05 -9.87199e-07
-2.28254e-07 -9.87199e-07 -0.00010773
0.00104739 -8.60719e-05 3.44054e-06
-8.60719e-05 0.000106401 -2.15626e-06
3.44054e-06 -2.15626e-06 5.21693e-06
0.000930186 -3.2426e-05 -5.45484e-07
-3.2426e-05 5.61558e-05 9.75324e-07
-5.45484e-07 9.75324e-07 -2.09661e-05
0.00102586 -7.20737e-05 1.66602e-07
-7.20737e-05 0.000109445 4.31568e-07
1.66602e-07 4.31568e-07 2.04723e-05
0.00108563 -8.20484e-05 8.36402e-07
-8.20484e-05 0.000142736 1.04287e-06
8.36402e-07 1.04287e-06 4.91517e-05
0.000836052 4.9896e-05 -1.09558e-06
4.9896e-05 1.06962e-05 2.35201e-06
-1.09558e-06 2.35201e-06 -3.94358e-05
0.000919749 1.20782e-06 -1.40003e-08
1.20782e-06 5.11443e-05 -4.05456e-09
-1.40003e-08 -4.05456e-09 -2.0164e-05
0.00097534 -4.67727e-05 3.07116e-07
-4.67727e-05 8.92758e-05 -2.29917e-07
3.07116e-07 -2.29917e-07 6.54414e-06
0.0013969 3.96879e-05 -1.19832e-05
3.96879e-05 0.000305608 3.14188e-06
-1.19832e-05 3.14188e-06 0.000297171
0.000822702 3.27188e-05 6.2649e-08
3.27188e-05 -1.74043e-06 -1.20969e-07
6.2649e-08 -1.20969e-07 -4.33954e-05
0.000899505 2.39704e-06 7.67124e-07
2.39704e-06 3.59828e-05 -1.29423e-06
7.67124e-07 -1.29423e-06 -2.69129e-05
0.000943204 2.73801e-05 -1.82812e-05
2.73801e-05 6.36511e-05 3.55796e-06
-1.82812e-05 3.55796e-06 7.37038e-05
0.00110756 3.44607e-05 -4.75972e-06
3.44607e-05 0.000146598 4.05868e-07
-4.75972e-06 4.05868e-07 0.000139553
0.000829063 3.5814e-05 8.1502e-07
3.5814e-05 -8.60891e-07 -2.07589e-06
8.1502e-07 -2.07589e-06 -3.7604e-05
0.000812859 2.86374e-05 2.09079e-06
2.86374e-05 -1.56799e-05 -3.25566e-06
2.09079e-06 -3.25566e-06 -2.13993e-05
0.00216473 3.90267e-05 7.15271e-07
3.90267e-05 0.00069815 5.60152e-08
7.15271e-07 5.60152e-08 0.000716044
0.00212897 3.37833e-05 1.83957e-05
3.37833e-05 0.000673249 -3.54584e-06
1.83957e-05 -3.54584e-06 0.000692693
0.000905092 2.06027e-07 -2.23008e-07
2.06027e-07 3.2765e-05 -1.14948e-06
-2.23008e-07 -1.14948e-06 -3.63598e-05
0.000915751 -2.06375e-06 -4.20376e-07
-2.06375e-06 3.4453e-05 -1.2575e-06
-4.20376e-07 -1.2575e-06 -2.33204e-05
0.000951702 -3.2775e-07 -6.78214e-08
-3.2775e-07 5.45071e-05 -1.46894e-08
-6.78214e-08 -1.46894e-08 -1.16591e-05
0.000835962 -3.03831e-05 -6.58494e-07
-3.03831e-05 -4.932e-06 -1.92637e-06
-6.58494e-07 -1.92637e-06 -4.08906e-05
0.000917141 1.45777e-06 4.17634e-07
1.45777e-06 3.54867e-05 -8.58662e-08
4.17634e-07 -8.58662e-08 -1.94478e-05
0.000800297 -2.3827e-05 -1.66215e-06
-2.3827e-05 -2.74565e-05 -3.36651e-06
-1.66215e-06 -3.36651e-06 -3.38995e-05
0.000851364 -1.75144e-05 -2.11602e-07
-1.75144e-05 -4.44575e-07 7.98074e-09
-2.11602e-07 7.98074e-09 -3.41261e-05
0.000920483 2.50104e-05 9.24875e-07
2.50104e-05 3.96133e-05 9.06747e-07
9.24875e-07 9.06747e-07 -1.44649e-05
0.00223446 -2.88455e-05 -1.68686e-05
-2.88455e-05 0.000722724 -3.89875e-06
-1.68686e-05 -3.89875e-06 0.000742343
0.000797248 -2.05079e-05 -2.19011e-07
-2.05079e-05 -3.41814e-05 -4.76631e-09
-2.19011e-07 -4.76631e-09 -3.85616e-05
0.000867629 -1.57009e-05 4.60792e-07
-1.57009e-05 6.08631e-06 1.58283e-06
4.60792e-07 1.58283e-06 -2.56303e-05
0.00216562 -2.31707e-05 -1.29946e-06
-2.31707e-05 0.000681161 5.0232e-08
-1.29946e-06 5.0232e-08 0.000702468
0.000790767 -1.68162e-05 6.52299e-07
-1.68162e-05 -4.25992e-05 3.16788e-06
6.52299e-07 3.16788e-06 -4.45371e-05
0.00209685 -1.70023e-05 9.36763e-06
-1.70023e-05 0.000640456 3.8396e-06
9.36763e-06 3.8396e-06 0.000663354
0.000989311 7.37677e-06 4.70514e-06
7.37677e-06 3.42039e-05 1.60383e-06
4.70514e-06 1.60383e-06 -4.41123e-05
0.000912653 1.21279e-05 3.56827e-07
1.21279e-05 7.53821e-05 -2.32961e-06
3.56827e-07 -2.32961e-06 -1.88101e-05
0.00113052 7.96154e-07 4.43639e-06
7.96154e-07 0.000165799 5.0557e-06
4.43639e-06 5.0557e-06 2.54734e-05
0.000985137 3.74241e-05 -7.36833e-07
3.74241e-05 8.72004e-05 5.13706e-08
-7.36833e-07 5.13706e-08 8.2553e-06
0.000975367 2.31025e-06 1.5351e-07
2.31025e-06 6.85325e-05 3.91113e-07
1.5351e-07 3.91113e-07 3.19134e-06
0.000969689 -1.52459e-06 1.0385e-07
-1.52459e-06 6.54858e-05 5.44673e-07
1.0385e-07 5.44673e-07 -5.84265e-06
0.000975246 -6.72245e-06 9.67658e-08
-6.72245e-06 7.06095e-05 -1.89019e-07
9.67658e-08 -1.89019e-07 5.51476e-07
0.000975762 1.78771e-05 1.48319e-08
1.78771e-05 7.40181e-05 -2.90118e-07
1.48319e-08 -2.90118e-07 -1.18794e-06
0.000991662 2.5732e-05 -1.51972e-09
2.5732e-05 8.3805e-05 4.39307e-07
-1.51972e-09 4.39307e-07 7.16549e-06
0.000998986 3.55922e-05 -5.7817e-07
3.55922e-05 9.07765e-05 -1.04276e-06
-5.7817e-07 -1.04276e-06 1.00379e-05
0.000859735 1.45611e-05 -6.43071e-08
1.45611e-05 1.85133e-05 -2.25461e-07
-6.43071e-08 -2.25461e-07 -5.79095e-05
0.000939833 4.01715e-05 3.86346e-07
4.01715e-05 5.87806e-05 -4.61739e-08
3.86346e-07 -4.61739e-08 -1.3273e-05
0.000966482 -1.97025e-05 3.10539e-07
-1.97025e-05 6.40004e-05 -1.05825e-07
3.10539e-07 -1.05825e-07 -9.50511e-06
0.0009985 1.7714e-05 -1.06935e-07
1.7714e-05 9.06724e-05 4.74043e-08
-1.06935e-07 4.74043e-08 1.53268e-05
0.00146287 2.18814e-05 2.16392e-06
2.18814e-05 0.000334526 3.67565e-07
2.16392e-06 3.67565e-07 0.000257416
0.00156632 -0.000189664 2.22129e-05
-0.000189664 0.000488419 1.62408e-05
2.22129e-05 1.62408e-05 0.000763966
0.00142051 -1.40963e-05 3.1241e-06
-1.40963e-05 0.000104367 6.29939e-06
3.1241e-06 6.29939e-06 1.99186e-05
0.00124563 1.1479e-05 8.50658e-06
1.1479e-05 9.39193e-05 5.39392e-06
8.50658e-06 5.39392e-06 3.14084e-05
0.00255355 -0.000218777 -1.96122e-05
-0.000218777 -1.47299e-05 -1.99508e-05
-1.96122e-05 -1.99508e-05 0.000632773
0.0037719 -0.000312531 1.65606e-06
-0.000312531 8.29861e-05 -7.7063e-05
1.65606e-06 -7.7063e-05 0.0001215
0.00314203 3.4073e-05 -6.58683e-05
3.4073e-05 -0.000659414 9.95037e-05
-6.58683e-05 9.95037e-05 -0.000988396
0.00168071 -0.00025147 -5.95693e-05
-0.00025147 7.56237e-05 8.45691e-05
-5.95693e-05 8.45691e-05 -0.000299901
0.00293336 -0.000107571 -1.8307e-05
-0.000107571 0.00084709 1.15245e-05
-1.8307e-05 1.15245e-05 0.000574527
0.00043329 -0.000321768 -9.12669e-06
-0.000321768 -0.000778313 -3.32027e-06
-9.12669e-06 -3.32027e-06 3.55324e-05
0.005173 -0.000116951 1.61744e-05
-0.000116951 0.000811973 5.05567e-05
1.61744e-05 5.05567e-05 -0.000167592
-0.000527501 -0.000277004 -4.22211e-06
-0.000277004 -0.0012115 -6.77458e-06
-4.22211e-06 -6.77458e-06 -0.001002
0.00312155 0.000170551 -6.61811e-05
0.000170551 0.000717517 -4.57606e-05
-6.61811e-05 -4.57606e-05 0.000478431
0.00808022 -0.000354227 8.3819e-07
-0.000354227 0.00254006 3.654e-05
8.3819e-07 3.654e-05 0.00155346
-5.43368e-05 -0.000311913 1.96675e-05
-0.000311913 -0.000146399 4.85571e-06
1.96675e-05 4.85571e-06 0.000107659
0.000685429 8.77294e-05 -2.29637e-06
8.77294e-05 -3.34798e-05 -4.63589e-07
-2.29637e-06 -4.63589e-07 -9.90728e-05
0.00110894 1.85172e-05 2.02908e-06
1.85172e-05 0.000151651 1.75866e-07
2.02908e-06 1.75866e-07 8.4077e-05
0.000978408 3.57838e-07 -4.19188e-07
3.57838e-07 7.57275e-05 -7.3291e-07
-4.19188e-07 -7.3291e-07 -1.49368e-06
-0.000517016 1.22658e-05 -1.39549e-05
1.22658e-05 -4.48806e-05 -2.28728e-05
-1.39549e-05 -2.28728e-05 -0.000536473
7.30276e-05 -2.63337e-05 -1.12736e-06
-2.63337e-05 -0.00022113 -3.22079e-06
-1.12736e-06 -3.22079e-06 -0.000322929
0.000800559 2.78733e-06 1.55153e-06
2.78733e-06 -9.75144e-06 1.62801e-06
1.55153e-06 1.62801e-06 -8.81008e-05
0.000859053 3.62314e-05 9.13847e-07
3.62314e-05 0.000142586 4.63215e-07
9.13847e-07 4.63215e-07 2.96208e-05
0.000783663 6.27028e-05 7.55591e-07
6.27028e-05 0.000248431 -9.2354e-06
7.55591e-07 -9.2354e-06 4.61257e-05
-0.00088102 6.71696e-05 7.44571e-06
6.71696e-05 -0.000695079 1.29826e-05
7.44571e-06 1.29826e-05 -0.000838897
0.00182584 -1.05022e-05 2.1168e-05
-1.05022e-05 0.000955961 -9.53114e-07
2.1168e-05 -9.53114e-07 0.000888066
0.00100853 -1.33248e-06 -2.18291e-07
-1.33248e-06 5.79977e-05 -6.75444e-07
-2.18291e-07 -6.75444e-07 -3.10128e-05
0.00078893 7.86313e-07 1.19517e-05
7.86313e-07 -2.49502e-05 -1.18772e-06
1.19517e-05 -1.18772e-06 -0.000147492
0.000515514 -4.64591e-05 1.41378e-06
-4.64591e-05 0.000339823 9.68851e-06
1.41378e-06 9.68851e-06 0.000200459
0.000954554 -0.0001794 2.31008e-05
-0.0001794 -0.000295426 -4.09379e-05
2.31008e-05 -4.09379e-05 -0.000540764
0.00119706 -1.47308e-05 3.34427e-07
-1.47308e-05 0.000105432 -6.17821e-06
3.34427e-07 -6.17821e-06 1.21766e-05
0.00186183 0.000190332 -1.34101e-05
0.000190332 -0.000192402 2.37003e-05
-1.34101e-05 2.37003e-05 -0.00143807
-0.00228751 0.000355929 -5.12333e-05
0.000355929 -0.00165542 1.57682e-05
-5.12333e-05 1.57682e-05 -0.00137381
0.00118569 0.000230065 -3.0365e-05
0.000230065 0.00031703 1.49962e-05
-3.0365e-05 1.49962e-05 0.000693546
0.00159603 -0.00013696 -7.13183e-06
-0.00013696 0.000298166 4.391e-06
-7.13183e-06 4.391e-06 0.000397282
0.00112063 7.79783e-05 -2.38951e-06
7.79783e-05 0.000530763 1.88832e-06
-2.38951e-06 1.88832e-06 0.000578273
-0.00314399 0.000197271 4.14719e-06
0.000197271 -0.00129833 2.00984e-06
4.14719e-06 2.00984e-06 -0.00129707
0.00330472 -0.000283846 -8.19422e-06
-0.000283846 0.00058056 1.84101e-05
-8.19422e-06 1.84101e-05 -6.10423e-05
0.00686916 0.000359362 -1.62562e-05
0.000359362 0.00206651 3.90137e-06
-1.62562e-05 3.90137e-06 0.00105318
0.000220128 -0.000145002 -7.95217e-07
-0.000145002 -0.000470238 5.4729e-06
-7.95217e-07 5.4729e-06 -0.000407231
-0.00353861 9.63274e-05 3.40392e-05
9.63274e-05 -0.00193926 -1.44573e-05
3.40392e-05 -1.44573e-05 -0.00185215
0.00628686 0.00033535 6.07525e-06
0.00033535 0.00192994 1.02139e-06
6.07525e-06 1.02139e-06 0.00105467
0.00303733 -6.80522e-05 -1.60434e-05
-6.80522e-05 -4.41551e-05 2.97906e-05
-1.60434e-05 2.97906e-05 -0.000436288
-0.000197364 -8.66591e-05 -5.67919e-06
-8.66591e-05 -0.000336 -7.39274e-07
-5.67919e-06 -7.39274e-07 -0.000565586
0.00141234 -0.000149754 -8.64925e-07
-0.000149754 0.000146907 1.14958e-08
-8.64925e-07 1.14958e-08 5.27794e-05
0.00147188 -0.000157313 2.22402e-06
-0.000157313 -6.10275e-06 -4.90502e-07
2.22402e-06 -4.90502e-07 -6.69171e-05
0.000407199 -7.83671e-05 -2.03134e-06
-7.83671e-05 -0.000137112 -2.64635e-06
-2.03134e-06 -2.64635e-06 -0.000315535
0.00117624 -0.000127888 -4.56095e-07
-0.000127888 7.62196e-05 -1.07682e-06
-4.56095e-07 -1.07682e-06 -6.73013e-05
0.00167998 -0.000144807 -3.52419e-06
-0.000144807 0.000154323 -1.60549e-06
-3.52419e-06 -1.60549e-06 4.61769e-05
0.00114366 -0.000108547 -9.84822e-07
-0.000108547 0.00012595 -1.47946e-06
-9.84822e-07 -1.47946e-06 -3.29815e-05
0.00131179 -0.00012273 2.90587e-07
-0.00012273 0.000104995 -9.52998e-07
2.90587e-07 -9.52998e-07 -3.29578e-05
0.00176582 -0.000124764 -2.92561e-06
-0.000124764 0.000215322 -3.31011e-06
-2.92561e-06 -3.31011e-06 0.000108964
0.00125799 -0.000110218 5.50827e-07
-0.000110218 0.000148969 -1.25898e-06
5.50827e-07 -1.25898e-06 4.73523e-06
0.00132622 -0.00010988 -3.5353e-07
-0.00010988 9.65889e-05 -9.43618e-07
-3.5353e-07 -9.43618e-07 -2.95784e-05
0.00157584 -0.000104447 -2.21171e-06
-0.000104447 0.000142685 -3.82541e-06
-2.21171e-06 -3.82541e-06 4.67619e-05
0.00151426 -9.68009e-05 -1.78888e-06
-9.68009e-05 0.00014029 -2.85843e-06
-1.78888e-06 -2.85843e-06 4.88009e-05
0.0013013 -0.000100866 -2.36412e-06
-0.000100866 0.000106728 -1.19787e-06
-2.36412e-06 -1.19787e-06 -5.24725e-06
0.00136143 -0.000101486 7.91696e-07
-0.000101486 0.000107172 8.48773e-08
7.91696e-07 8.48773e-08 -5.49803e-06
0.00074365 -7.96032e-05 -1.85882e-06
-7.96032e-05 -0.000104032 1.16409e-06
-1.85882e-06 1.16409e-06 -0.000212551
0.00129015 -0.000103076 9.86375e-07
-0.000103076 0.000153881 -9.64332e-07
9.86375e-07 -9.64332e-07 3.46236e-05
0.00117349 -0.000102946 2.29239e-06
-0.000102946 6.83442e-05 -5.24224e-07
2.29239e-06 -5.24224e-07 -6.11156e-05
0.00102501 -8.3242e-05 -5.97124e-07
-8.3242e-05 8.53624e-05 6.27166e-07
-5.97124e-07 6.27166e-07 -6.77727e-06
0.00102034 -8.67718e-05 3.81782e-07
-8.67718e-05 6.96838e-05 -1.9695e-07
3.81782e-07 -1.9695e-07 -3.382e-05
0.00092788 -8.97628e-05 1.56984e-06
-8.97628e-05 6.92344e-06 -1.73457e-06
1.56984e-06 -1.73457e-06 -0.000113584
0.000983515 -6.24427e-05 -1.62344e-06
-6.24427e-05 7.64162e-05 1.40954e-07
-1.62344e-06 1.40954e-07 -2.49734e-06
0.00104622 -8.00421e-05 -2.18011e-07
-8.00421e-05 0.000106 -3.67711e-07
-2.18011e-07 -3.67711e-07 1.77814e-05
0.000909415 -7.78963e-05 3.18634e-07
-7.78963e-05 3.86116e-05 -1.07066e-06
3.18634e-07 -1.07066e-06 -5.29185e-05
0.000887721 1.39603e-05 -1.32616e-06
1.39603e-05 4.08582e-05 2.43579e-06
-1.32616e-06 2.43579e-06 -1.61739e-05
0.000967639 -3.11323e-05 5.89337e-07
-3.11323e-05 7.47769e-05 3.21657e-07
5.89337e-07 3.21657e-07 -2.18178e-06
0.000997229 -6.70281e-05 1.01408e-06
-6.70281e-05 9.48936e-05 7.58498e-07
1.01408e-06 7.58498e-07 6.8062e-06
0.000719175 3.78685e-05 -3.44309e-06
3.78685e-05 -4.26844e-05 3.65347e-06
-3.44309e-06 3.65347e-06 -5.86439e-05
0.000823311 2.28815e-05 -2.08838e-07
2.28815e-05 1.79655e-06 -1.52397e-07
-2.08838e-07 -1.52397e-07 -4.69372e-05
0.00094815 -6.44664e-06 5.5101e-07
-6.44664e-06 6.6421e-05 -1.28892e-06
5.5101e-07 -1.28892e-06 -5.60341e-06
0.00228511 5.48377e-05 -9.06689e-06
5.48377e-05 0.000777154 1.43395e-06
-9.06689e-06 1.43395e-06 0.000789948
0.000756088 3.46183e-05 1.72963e-07
3.46183e-05 -3.03714e-05 4.23496e-09
1.72963e-07 4.23496e-09 -4.27626e-05
0.000815167 3.15604e-05 1.45245e-06
3.15604e-05 -5.25612e-06 -2.18033e-06
1.45245e-06 -2.18033e-06 -4.71242e-05
0.00222637 4.40517e-05 7.3536e-07
4.40517e-05 0.000737445 5.17414e-08
7.3536e-07 5.17414e-08 0.000753447
0.000803497 3.23535e-05 2.5595e-06
3.23535e-05 -1.31036e-05 -3.41431e-06
2.5595e-06 -3.41431e-06 -2.20143e-05
0.00217598 3.90182e-05 2.11053e-05
3.90182e-05 0.000705044 -3.53114e-06
2.11053e-05 -3.53114e-06 0.000722685
0.00101941 3.60099e-05 -4.9953e-07
3.60099e-05 0.000101408 -1.62678e-07
-4.9953e-07 -1.62678e-07 2.78632e-05
0.000919222 6.96405e-06 3.73219e-08
6.96405e-06 4.06666e-05 -3.10474e-07
3.73219e-08 -3.10474e-07 -2.8887e-05
0.0009112 -6.76915e-06 -5.22794e-07
-6.76915e-06 3.66837e-05 -1.48977e-06
-5.22794e-07 -1.48977e-06 -2.55116e-05
0.000828121 -3.31042e-05 -1.01786e-06
-3.31042e-05 -5.99767e-06 -2.15204e-06
-1.01786e-06 -2.15204e-06 -4.40662e-05
0.000902424 -7.63109e-06 3.44213e-07
-7.63109e-06 2.83509e-05 -2.59915e-08
3.44213e-07 -2.59915e-08 -2.95639e-05
0.000915622 1.09458e-05 4.90427e-07
1.09458e-05 3.7772e-05 7.09444e-07
4.90427e-07 7.09444e-07 -3.00109e-05
0.00079291 -2.66509e-05 -2.30151e-06
-2.66509e-05 -2.62939e-05 -3.43998e-06
-2.30151e-06 -3.43998e-06 -3.44246e-05
0.000841238 -2.38185e-05 -2.13797e-07
-2.38185e-05 -2.80078e-06 8.94379e-11
-2.13797e-07 8.94379e-11 -3.83773e-05
0.000911417 -5.72159e-06 8.35873e-07
-5.72159e-06 3.24239e-05 1.01351e-06
8.35873e-07 1.01351e-06 -2.23343e-05
0.0022749 -3.41361e-05 -1.97869e-05
-3.41361e-05 0.000749398 -3.837e-06
-1.97869e-05 -3.837e-06 0.000767596
0.000784755 -2.34786e-05 -1.38675e-07
-2.34786e-05 -3.53908e-05 -4.56234e-09
-1.38675e-07 -4.56234e-09 -4.17688e-05
0.000859476 -1.63629e-05 8.80265e-07
-1.63629e-05 3.75903e-06 1.66087e-06
8.80265e-07 1.66087e-06 -2.98403e-05
0.00222707 -2.88031e-05 -1.33931e-06
-2.88031e-05 0.000718274 6.15674e-08
-1.33931e-06 6.15674e-08 0.000738064
0.000780138 -2.02438e-05 9.10017e-07
-2.02438e-05 -4.29387e-05 3.31075e-06
9.10017e-07 3.31075e-06 -4.72327e-05
0.00215467 -2.2935e-05 1.22117e-05
-2.2935e-05 0.000674881 3.84617e-06
1.22117e-05 3.84617e-06 0.000696411
-0.000418337 -6.09259e-05 1.63207e-05
-6.09259e-05 -0.000318953 4.85036e-06
1.63207e-05 4.85036e-06 -0.000412907
0.00100938 6.57085e-06 2.68933e-06
6.57085e-06 3.93886e-05 8.90902e-07
2.68933e-06 8.90902e-07 -3.69462e-05
0.00100107 1.22168e-05 1.58673e-05
1.22168e-05 0.000138045 6.27146e-06
1.58673e-05 6.27146e-06 4.52134e-05
0.000980166 2.87244e-05 -3.2387e-07
2.87244e-05 8.36122e-05 4.77256e-07
-3.2387e-07 4.77256e-07 4.96627e-06
0.00110193 7.22311e-05 -3.97672e-07
7.22311e-05 0.00015518 9.64108e-07
-3.97672e-07 9.64108e-07 7.12831e-05
0.000996543 4.40891e-05 -5.56324e-07
4.40891e-05 9.44533e-05 2.74128e-07
-5.56324e-07 2.74128e-07 1.1902e-05
0.00105733 -1.08238e-05 1.65435e-09
-1.08238e-05 0.000113107 -2.08335e-07
1.65435e-09 -2.08335e-07 4.35825e-05
0.00101998 1.59633e-05 3.47065e-07
1.59633e-05 9.55169e-05 4.71301e-07
3.47065e-07 4.71301e-07 2.16751e-05
0.000906953 3.45849e-06 -3.0808e-07
3.45849e-06 3.72742e-05 1.09978e-06
-3.0808e-07 1.09978e-06 -3.76215e-05
0.000897111 1.92514e-05 -3.572e-07
1.92514e-05 3.87437e-05 3.52185e-08
-3.572e-07 3.52185e-08 -3.88687e-05
0.000961657 2.32284e-05 1.56514e-07
2.32284e-05 7.05363e-05 7.94329e-10
1.56514e-07 7.94329e-10 -9.32071e-06
0.00104094 4.61972e-05 -6.77012e-08
4.61972e-05 0.000128542 -8.88513e-07
-6.77012e-08 -8.88513e-07 4.09146e-05
0.000814071 4.17327e-05 9.95134e-07
4.17327e-05 4.54053e-07 -1.46449e-06
9.95134e-07 -1.46449e-06 -7.9258e-05
0.00096562 3.89249e-05 -1.81444e-09
3.89249e-05 7.65346e-05 -3.6624e-07
-1.81444e-09 -3.6624e-07 -7.15574e-07
0.00114409 3.03366e-05 3.94167e-07
3.03366e-05 0.000173319 1.71108e-07
3.94167e-07 1.71108e-07 9.59367e-05
-0.00277692 -0.000212148 2.15435e-05
-0.000212148 -0.00140797 2.54444e-05
2.15435e-05 2.54444e-05 -0.00135303
0.000528217 -0.000185 5.96146e-06
-0.000185 -2.50234e-05 1.12813e-06
5.96146e-06 1.12813e-06 0.000188354
0.00143556 -9.61127e-06 -9.71761e-06
-9.61127e-06 0.000107503 -7.99274e-06
-9.71761e-06 -7.99274e-06 2.29264e-05
-0.000946247 -0.000340036 -9.09137e-06
-0.000340036 -0.00153502 2.63367e-06
-9.09137e-06 2.63367e-06 -0.000659915
0.00428505 -0.00042779 -1.97671e-05
-0.00042779 0.00114665 -4.85643e-05
-1.97671e-05 -4.85643e-05 0.00126654
0.00465842 -6.69235e-05 5.2839e-05
-6.69235e-05 0.000685773 2.57272e-05
5.2839e-05 2.57272e-05 -0.000167789
0.00145229 -0.000100481 -5.4296e-05
-0.000100481 7.90655e-05 7.75953e-05
-5.4296e-05 7.75953e-05 -0.000525921
0.0025606 0.000129684 -4.69168e-05
0.000129684 0.000292199 -2.11735e-05
-4.69168e-05 -2.11735e-05 -8.50785e-05
0.00292756 -0.00042704 -5.54036e-06
-0.00042704 0.000926105 4.54685e-06
-5.54036e-06 4.54685e-06 0.00106192
0.00284972 -9.25836e-05 2.87634e-05
-9.25836e-05 5.92037e-05 3.89889e-05
2.87634e-05 3.89889e-05 -0.000963282
0.00166469 0.000199641 -8.32421e-05
0.000199641 -3.17655e-05 -8.8522e-05
-8.32421e-05 -8.8522e-05 -0.000582013
0.00340527 3.76065e-05 -7.26286e-05
3.76065e-05 0.000620742 -1.94044e-05
-7.26286e-05 -1.94044e-05 -0.000409699
0.00237236 0.000204937 1.02485e-05
0.000204937 0.000722524 -5.96145e-06
1.02485e-05 -5.96145e-06 0.000594783
0.000875515 8.67641e-05 -8.16619e-07
8.67641e-05 5.11709e-05 -2.93804e-07
-8.16619e-07 -2.93804e-07 -1.2234e-05
0.00128783 2.41124e-05 7.34208e-07
2.41124e-05 0.000239317 -1.83831e-06
7.34208e-07 -1.83831e-06 0.000171774
-0.000484977 8.31652e-06 -1.71502e-05
8.31652e-06 -0.000393292 -1.33374e-05
-1.71502e-05 -1.33374e-05 -0.00055406
0.00161783 7.25495e-05 -4.16606e-07
7.25495e-05 0.000493507 -4.11881e-06
-4.16606e-07 -4.11881e-06 0.000381656
0.000970566 0.000139071 8.39484e-06
0.000139071 0.000146635 3.676e-07
8.39484e-06 3.676e-07 2.75909e-05
0.000343613 0.000154143 2.85446e-05
0.000154143 -0.000403572 2.23001e-05
2.85446e-05 2.23001e-05 -0.000485556
-0.00178268 -1.75909e-05 2.72525e-05
-1.75909e-05 -0.0010889 -8.06707e-06
2.72525e-05 -8.06707e-06 -0.000901806
0.000358419 -2.69785e-06 -6.35571e-07
-2.69785e-06 0.000139661 8.16221e-07
-6.35571e-07 8.16221e-07 4.90596e-05
0.00052841 -4.35977e-07 1.38543e-06
-4.35977e-07 -0.000197616 -2.63161e-06
1.38543e-06 -2.63161e-06 -0.000282396
0.000241779 -0.000121603 -2.83706e-05
-0.000121603 -0.000356238 -2.17174e-06
-2.83706e-05 -2.17174e-06 -0.000267928
0.00261917 -0.000277474 -4.74519e-05
-0.000277474 0.000332277 -4.46248e-06
-4.74519e-05 -4.46248e-06 -0.000117619
0.000945465 5.82276e-05 -2.20587e-05
5.82276e-05 0.000454488 4.45386e-06
-2.20587e-05 4.45386e-06 0.000459429
0.00144905 0.000287061 1.54729e-05
0.000287061 -0.000206957 -4.04976e-05
1.54729e-05 -4.04976e-05 -0.00137874
0.00524148 0.000345709 -9.41186e-05
0.000345709 0.00253868 2.0378e-05
-9.41186e-05 2.0378e-05 0.00259459
0.00139714 -0.000195558 1.20715e-05
-0.000195558 4.17395e-05 -1.19447e-06
1.20715e-05 -1.19447e-06 9.81062e-05
-0.000807704 0.000160532 -2.36181e-05
0.000160532 -0.000473012 -4.55549e-07
-2.36181e-05 -4.55549e-07 -0.00049097
0.00278868 0.000225477 -5.13773e-06
0.000225477 0.000313618 1.04447e-05
-5.13773e-06 1.04447e-05 -0.000744535
0.00312382 -6.05525e-05 -2.33531e-06
-6.05525e-05 0.000273888 4.60363e-06
-2.33531e-06 4.60363e-06 5.48645e-05
0.000168672 -0.000116188 -2.51555e-06
-0.000116188 -0.000511604 -2.71521e-06
-2.51555e-06 -2.71521e-06 -0.000523163
0.00570521 9.43661e-05 2.24407e-05
9.43661e-05 0.00171726 1.52081e-06
2.24407e-05 1.52081e-06 0.000940638
0.00109056 6.51598e-05 1.91048e-06
6.51598e-05 -0.000517379 -7.38998e-06
1.91048e-06 -7.38998e-06 -0.000752489
0.000726217 -0.000130292 -2.40408e-06
-0.000130292 -0.000155629 -3.42762e-06
-2.40408e-06 -3.42762e-06 -0.000238029
0.00151308 -0.000161744 -5.79318e-07
-0.000161744 4.42284e-05 -1.91646e-07
-5.79318e-07 -1.91646e-07 -2.70086e-05
0.00139531 -0.000154591 -9.04938e-06
-0.000154591 -0.000183754 6.48179e-06
-9.04938e-06 6.48179e-06 -0.00024274
0.0010935 -0.000123125 -3.15015e-06
-0.000123125 2.84385e-05 -2.20527e-06
-3.15015e-06 -2.20527e-06 -0.000113227
0.0014948 -0.00013695 -2.96396e-06
-0.00013695 5.66575e-05 7.11262e-07
-2.96396e-06 7.11262e-07 -5.00678e-05
0.00179853 -0.00012684 -8.06189e-06
-0.00012684 6.72383e-05 1.74304e-06
-8.06189e-06 1.74304e-06 -1.8872e-06
0.00110398 -0.000114499 1.00939e-06
-0.000114499 -3.35256e-07 -4.42535e-07
1.00939e-06 -4.42535e-07 -0.000138077
0.00145271 -0.000114465 -9.47474e-07
-0.000114465 5.35402e-05 -6.46036e-08
-9.47474e-07 -6.46036e-08 -5.13152e-05
0.00184258 -0.000106362 -3.3381e-06
-0.000106362 0.000150172 -1.52264e-06
-3.3381e-06 -1.52264e-06 8.27588e-05
0.00116962 -0.00010315 1.6246e-06
-0.00010315 1.48232e-05 5.77019e-07
1.6246e-06 5.77019e-07 -0.00010982
0.0014127 -9.94931e-05 -4.9827e-08
-9.94931e-05 5.80363e-05 6.80942e-08
-4.9827e-08 6.80942e-08 -3.68984e-05
0.0014982 -9.09233e-05 -1.02649e-06
-9.09233e-05 5.94746e-05 -1.80338e-06
-1.02649e-06 -1.80338e-06 -1.15669e-05
0.00176124 -9.13761e-05 -5.89489e-07
-9.13761e-05 0.000239183 -1.70063e-06
-5.89489e-07 -1.70063e-06 0.000161588
0.00148111 -9.39781e-05 -9.12635e-07
-9.39781e-05 0.000123448 1.33894e-06
-9.12635e-07 1.33894e-06 3.42461e-05
0.00138692 -9.34937e-05 -9.66883e-07
-9.34937e-05 0.000106802 -3.23782e-06
-9.66883e-07 -3.23782e-06 1.148e-05
0.00129639 -9.64266e-05 -2.25089e-06
-9.64266e-05 0.000124299 -1.11579e-07
-2.25089e-06 -1.11579e-07 1.86926e-05
0.00140872 -0.000103351 9.31332e-07
-0.000103351 0.000162198 -3.98905e-07
9.31332e-07 -3.98905e-07 5.02254e-05
0.00134269 -9.87166e-05 2.80904e-06
-9.87166e-05 9.79124e-05 2.3588e-06
2.80904e-06 2.3588e-06 -1.25189e-05
0.000814289 -7.81554e-05 -2.0624e-06
-7.81554e-05 -5.09259e-05 1.76781e-06
-2.0624e-06 1.76781e-06 -0.000149715
0.00104043 -8.93361e-05 1.24013e-07
-8.93361e-05 4.75295e-05 -5.34451e-08
1.24013e-07 -5.34451e-08 -5.99108e-05
0.00145013 -0.000107896 3.42689e-06
-0.000107896 0.000235115 -2.07715e-06
3.42689e-06 -2.07715e-06 0.000117017
0.000962377 -6.84057e-05 -1.35852e-06
-6.84057e-05 5.85407e-05 3.5142e-07
-1.35852e-06 3.5142e-07 -2.30734e-05
0.00107448 -8.4529e-05 9.58311e-08
-8.4529e-05 0.000109092 -2.0446e-07
9.58311e-08 -2.0446e-07 1.68085e-05
0.000786479 -7.7744e-05 9.189e-07
-7.7744e-05 -4.60636e-05 -2.20202e-06
9.189e-07 -2.20202e-06 -0.000149316
0.000853677 -9.8357e-06 -2.56171e-06
-9.8357e-06 2.47976e-05 2.12117e-06
-2.56171e-06 2.12117e-06 -3.81018e-05
0.00102019 -6.4386e-05 -3.76328e-08
-6.4386e-05 9.3869e-05 -1.11471e-08
-3.76328e-08 -1.11471e-08 1.50189e-05
0.00110965 -8.20142e-05 9.02854e-07
-8.20142e-05 0.000136833 -1.81287e-07
9.02854e-07 -1.81287e-07 4.85516e-05
0.000670951 4.43657e-05 -3.10273e-06
4.43657e-05 -5.93264e-05 4.04207e-06
-3.10273e-06 4.04207e-06 -8.07208e-05
0.000848182 7.34974e-06 -2.29736e-08
7.34974e-06 1.99479e-05 2.57821e-08
-2.29736e-08 2.57821e-08 -3.75903e-05
0.00100654 -3.39329e-05 1.55307e-06
-3.39329e-05 9.44466e-05 -2.96386e-07
1.55307e-06 -2.96386e-07 1.73837e-05
0.00242778 5.55004e-05 -2.78977e-05
5.55004e-05 0.000856578 3.3019e-06
-2.78977e-05 3.3019e-06 0.000868102
0.000738988 3.98265e-05 -5.27408e-08
3.98265e-05 -3.16209e-05 -6.86802e-08
-5.27408e-08 -6.86802e-08 -4.80972e-05
0.000810003 8.06818e-06 2.41994e-06
8.06818e-06 -5.5321e-06 -2.35553e-06
2.41994e-06 -2.35553e-06 -5.42118e-05
0.00165329 4.33175e-05 1.06535e-05
4.33175e-05 0.000444875 -8.59399e-07
1.06535e-05 -8.59399e-07 0.000454947
0.000786492 3.60404e-05 3.09842e-06
3.60404e-05 -1.48208e-05 -3.60589e-06
3.09842e-06 -3.60589e-06 -2.73633e-05
0.00226112 4.43212e-05 2.41993e-05
4.43212e-05 0.000757022 -3.51938e-06
2.41993e-05 -3.51938e-06 0.000772491
0.000997486 4.82031e-05 -1.04081e-07
4.82031e-05 9.27437e-05 7.28833e-07
-1.04081e-07 7.28833e-07 1.52455e-05
0.000986971 1.77947e-05 -5.12991e-08
1.77947e-05 8.18066e-05 4.86733e-07
-5.12991e-08 4.86733e-07 9.3658e-06
0.000927671 -1.8476e-05 -6.84105e-07
-1.8476e-05 5.07837e-05 -1.18777e-06
-6.84105e-07 -1.18777e-06 -1.52218e-05
0.000958133 1.90404e-05 3.79972e-07
1.90404e-05 6.17175e-05 5.84888e-07
3.79972e-07 5.84888e-07 -8.62076e-06
0.000914666 -2.31427e-05 6.20099e-08
-2.31427e-05 3.67336e-05 -2.17488e-08
6.20099e-08 -2.17488e-08 -2.42524e-05
0.00081485 -2.98057e-05 -1.45171e-06
-2.98057e-05 -7.79467e-06 -2.31489e-06
-1.45171e-06 -2.31489e-06 -4.90782e-05
0.00078471 -3.00519e-05 -2.759e-06
-3.00519e-05 -2.53344e-05 -3.53191e-06
-2.759e-06 -3.53191e-06 -3.5096e-05
0.000833602 -2.94815e-05 -1.8526e-07
-2.94815e-05 -3.61501e-06 -1.90659e-08
-1.8526e-07 -1.90659e-08 -4.13459e-05
0.000910655 -2.93981e-05 6.03077e-08
-2.93981e-05 3.15935e-05 1.32526e-06
6.03077e-08 1.32526e-06 -2.52367e-05
0.00229483 -3.91611e-05 -2.23989e-05
-3.91611e-05 0.000765865 -3.71656e-06
-2.23989e-05 -3.71656e-06 0.000782696
0.00077632 -2.62719e-05 -1.99561e-07
-2.62719e-05 -3.46289e-05 1.62488e-08
-1.99561e-07 1.62488e-08 -4.27091e-05
0.000849913 -1.63442e-05 1.49905e-06
-1.63442e-05 1.17876e-06 1.8224e-06
1.49905e-06 1.8224e-06 -3.40514e-05
0.00227509 -3.41838e-05 -1.04717e-06
-3.41838e-05 0.000748865 6.65735e-08
-1.04717e-06 6.65735e-08 0.000767179
0.000770419 -2.31799e-05 1.4429e-06
-2.31799e-05 -4.26481e-05 3.39833e-06
1.4429e-06 3.39833e-06 -4.89746e-05
0.00221886 -2.8745e-05 1.50533e-05
-2.8745e-05 0.000713397 3.85214e-06
1.50533e-05 3.85214e-06 0.000733362
0.000365354 7.15313e-05 9.52382e-05
7.15313e-05 3.62511e-05 1.95224e-05
9.52382e-05 1.95224e-05 -0.000167372
0.000792966 -7.43082e-05 5.30861e-06
-7.43082e-05 0.000324993 2.08726e-06
5.30861e-06 2.08726e-06 0.000282506
0.00103701 5.97662e-06 -1.51683e-06
5.97662e-06 4.90919e-05 2.30644e-08
-1.51683e-06 2.30644e-08 -2.53609e-05
0.00097303 2.25984e-05 6.53592e-07
2.25984e-05 7.93335e-05 4.60946e-07
6.53592e-07 4.60946e-07 7.39156e-07
0.000961743 3.05716e-05 2.9343e-07
3.05716e-05 7.63631e-05 2.83571e-07
2.9343e-07 2.83571e-07 -6.01462e-06
0.00100798 7.19148e-05 -7.87358e-08
7.19148e-05 0.000110004 -4.81327e-09
-7.87358e-08 -4.81327e-09 2.63128e-05
0.00110481 8.42131e-05 2.96533e-07
8.42131e-05 0.000156251 1.0258e-06
2.96533e-07 1.0258e-06 6.97996e-05
0.00102783 6.45656e-05 -1.27747e-06
6.45656e-05 0.000122633 5.68337e-07
-1.27747e-06 5.68337e-07 3.53397e-05
0.000944292 2.3501e-05 2.05021e-07
2.3501e-05 6.26244e-05 7.54171e-07
2.05021e-07 7.54171e-07 -1.52432e-05
0.000931726 2.39405e-05 5.60583e-07
2.39405e-05 5.49696e-05 6.91427e-07
5.60583e-07 6.91427e-07 -2.47084e-05
0.000876157 4.9527e-05 -4.6792e-07
4.9527e-05 4.4992e-05 -5.27786e-07
-4.6792e-07 -5.27786e-07 -4.19494e-05
0.000374166 5.54531e-05 -7.69254e-07
5.54531e-05 -0.000203211 1.2715e-06
-7.69254e-07 1.2715e-06 -0.000293104
0.000811246 7.0071e-05 -4.00501e-07
7.0071e-05 9.33334e-07 -1.13217e-06
-4.00501e-07 -1.13217e-06 -8.79301e-05
0.00188426 0.000143785 2.285e-06
0.000143785 0.000462397 -3.75909e-06
2.285e-06 -3.75909e-06 0.000355632
0.00096275 4.91511e-05 -1.69703e-06
4.91511e-05 9.01213e-05 -2.23515e-07
-1.69703e-06 -2.23515e-07 8.37795e-06
0.000930562 2.08219e-05 1.72792e-07
2.08219e-05 6.21207e-05 -4.92575e-08
1.72792e-07 -4.92575e-08 -1.38093e-05
0.00858764 -0.000144922 -2.06348e-05
-0.000144922 0.00253106 -1.02219e-05
-2.06348e-05 -1.02219e-05 0.00169351
-0.000966664 -0.000232153 -7.55806e-06
-0.000232153 -0.000555159 3.52215e-06
-7.55806e-06 3.52215e-06 -0.000635138
0.00184213 -0.000189049 -2.19648e-05
-0.000189049 0.000675775 -1.4275e-05
-2.19648e-05 -1.4275e-05 0.000882028
-0.0022206 -0.000262236 -2.84029e-05
-0.000262236 -0.00145256 -1.73275e-05
-2.84029e-05 -1.73275e-05 -0.0012413
0.00865991 -0.000332632 6.14601e-05
-0.000332632 0.00268895 3.42512e-05
6.14601e-05 3.42512e-05 0.00138883
0.00198511 0.000104766 2.46328e-05
0.000104766 0.000249906 1.50451e-05
2.46328e-05 1.50451e-05 2.37407e-05
0.00188436 0.000201917 -3.47527e-05
0.000201917 7.21702e-05 -2.39065e-05
-3.47527e-05 -2.39065e-05 -0.000350444
0.00587883 -0.000234896 3.82494e-05
-0.000234896 0.00151071 1.80273e-05
3.82494e-05 1.80273e-05 0.000635058
0.00198274 0.000119456 -2.50565e-05
0.000119456 -6.18864e-05 -4.46443e-05
-2.50565e-05 -4.46443e-05 -0.000425311
0.0022223 0.000235559 1.70886e-05
0.000235559 0.000429124 1.0353e-05
1.70886e-05 1.0353e-05 0.000282251
0.000861673 0.000133428 2.84571e-07
0.000133428 3.20963e-05 -4.68226e-06
2.84571e-07 -4.68226e-06 -0.000110105
0.00092212 6.55158e-05 -7.07178e-07
6.55158e-05 6.51623e-05 1.30589e-06
-7.07178e-07 1.30589e-06 6.17039e-06
0.00195486 0.000182882 -3.14745e-05
0.000182882 0.000604751 -1.89823e-05
-3.14745e-05 -1.89823e-05 0.000494916
0.000267322 0.000164949 -8.16699e-06
0.000164949 -0.000456001 1.27266e-05
-8.16699e-06 1.27266e-05 -0.000541623
0.000250442 2.24325e-06 -1.73382e-06
2.24325e-06 -0.000897939 -8.52466e-06
-1.73382e-06 -8.52466e-06 -0.00136281
0.00159691 1.18707e-05 -2.57927e-06
1.18707e-05 0.000535205 1.74716e-06
-2.57927e-06 1.74716e-06 0.00050686
-0.00107069 2.75039e-06 -1.1314e-05
2.75039e-06 -0.000646497 1.0039e-07
-1.1314e-05 1.0039e-07 -0.000769352
0.00296788 -0.000246055 -4.20051e-05
-0.000246055 0.000744872 6.44642e-06
-4.20051e-05 6.44642e-06 0.000813254
0.00246661 -8.37209e-05 9.86526e-06
-8.37209e-05 -0.000274071 -2.36181e-05
9.86526e-06 -2.36181e-05 -0.000711778
0.000257692 4.24774e-06 -9.17024e-05
4.24774e-06 -2.10096e-05 2.6299e-05
-9.17024e-05 2.6299e-05 -0.000200788
0.00674849 0.000380318 -2.69461e-05
0.000380318 0.00227277 1.50078e-05
-2.69461e-05 1.50078e-05 0.00126765
0.000873738 -0.000133449 3.05099e-06
-0.000133449 -0.000192508 -1.3618e-06
3.05099e-06 -1.3618e-06 -0.00018234
0.0049699 0.000191635 2.56734e-05
0.000191635 0.00132481 5.33487e-06
2.56734e-05 5.33487e-06 0.000643156
0.00296452 8.13543e-05 3.62283e-05
8.13543e-05 0.000136486 -3.50514e-06
3.62283e-05 -3.50514e-06 -0.000208321
0.00259666 -0.000117291 -7.27239e-06
-0.000117291 0.000590536 1.05763e-06
-7.27239e-06 1.05763e-06 0.000544194
0.000942203 4.36156e-05 -4.27234e-05
4.36156e-05 -3.86212e-05 1.0099e-07
-4.27234e-05 1.0099e-07 -0.000300047
0.00169372 -0.000166373 6.59359e-06
-0.000166373 0.000155739 -4.68635e-06
6.59359e-06 -4.68635e-06 8.12425e-05
0.00175231 -0.00016098 -2.44127e-06
-0.00016098 1.89594e-05 2.71272e-06
-2.44127e-06 2.71272e-06 -4.13392e-05
0.00206682 -0.000112185 -1.24636e-05
-0.000112185 6.86609e-05 1.33384e-06
-1.24636e-05 1.33384e-06 1.7239e-05
0.00117048 -0.000125707 2.78403e-06
-0.000125707 -0.000106045 5.36791e-08
2.78403e-06 5.36791e-08 -0.000210802
0.00168792 -0.0001214 5.35395e-07
-0.0001214 2.62861e-05 1.15318e-06
5.35395e-07 1.15318e-06 -4.29785e-05
0.00187282 -9.04962e-05 -3.42908e-06
-9.04962e-05 5.46861e-05 3.49187e-06
-3.42908e-06 3.49187e-06 9.87779e-07
0.00114392 -0.000104769 2.74061e-06
-0.000104769 -0.000106406 1.99802e-06
2.74061e-06 1.99802e-06 -0.000209664
0.00157872 -0.000101799 -5.15024e-07
-0.000101799 2.33807e-05 1.77754e-06
-5.15024e-07 1.77754e-06 -4.52395e-05
0.00183187 -8.73105e-05 1.12989e-07
-8.73105e-05 0.000137368 2.6071e-06
1.12989e-07 2.6071e-06 7.99281e-05
0.00126671 -9.50956e-05 3.1853e-06
-9.50956e-05 -1.82114e-05 3.49791e-06
3.1853e-06 3.49791e-06 -0.000112159
0.00148428 -9.13782e-05 1.70153e-07
-9.13782e-05 5.42206e-05 1.22884e-06
1.70153e-07 1.22884e-06 -1.77899e-05
0.0015926 -8.28753e-05 2.61918e-07
-8.28753e-05 0.000102285 -5.27386e-07
2.61918e-07 -5.27386e-07 3.35311e-05
0.00152673 -8.69281e-05 -1.72355e-06
-8.69281e-05 0.000122425 1.11636e-06
-1.72355e-06 1.11636e-06 4.71569e-05
0.00170361 -8.98316e-05 1.34168e-06
-8.98316e-05 0.000229709 -2.36451e-06
1.34168e-06 -2.36451e-06 0.000145538
0.00146739 -9.17303e-05 1.84399e-06
-9.17303e-05 0.000116724 4.55111e-06
1.84399e-06 4.55111e-06 2.97309e-05
0.00139304 -9.27482e-05 2.05581e-07
-9.27482e-05 0.000109527 -5.50076e-07
2.05581e-07 -5.50076e-07 1.3837e-05
0.00137148 -9.04387e-05 -1.09897e-06
-9.04387e-05 0.000117523 -1.39548e-06
-1.09897e-06 -1.39548e-06 2.06958e-05
0.000932387 -8.09692e-05 -2.44688e-06
-8.09692e-05 -3.52672e-05 9.01924e-07
-2.44688e-06 9.01924e-07 -0.000134892
0.00128636 -9.53543e-05 5.50857e-08
-9.53543e-05 0.000119892 -1.49382e-07
5.50857e-08 -1.49382e-07 1.39334e-05
0.00152195 -0.000106073 2.98012e-06
-0.000106073 0.000220698 1.87172e-07
2.98012e-06 1.87172e-07 0.000108698
0.000999049 -7.53321e-05 -1.83106e-06
-7.53321e-05 6.20096e-05 9.44824e-07
-1.83106e-06 9.44824e-07 -2.44341e-05
0.000899043 -8.06772e-05 -5.37691e-07
-8.06772e-05 -5.80416e-06 6.25335e-07
-5.37691e-07 6.25335e-07 -0.000103784
0.00130111 -9.763e-05 2.23876e-06
-9.763e-05 0.00018112 -1.42226e-06
2.23876e-06 -1.42226e-06 7.48216e-05
0.000775446 -1.8743e-05 -2.40388e-06
-1.8743e-05 -1.64186e-05 1.53828e-06
-2.40388e-06 1.53828e-06 -8.19924e-05
0.00103398 -7.15823e-05 3.24345e-08
-7.15823e-05 9.35004e-05 -1.69165e-07
3.24345e-08 -1.69165e-07 1.16177e-05
0.00113087 -8.6129e-05 1.10215e-06
-8.6129e-05 0.000136394 -1.09985e-06
1.10215e-06 -1.09985e-06 4.39338e-05
0.000623463 4.99378e-05 -2.48214e-06
4.99378e-05 -7.73816e-05 4.35801e-06
-2.48214e-06 4.35801e-06 -0.000104836
0.000858557 -1.24844e-05 -2.53701e-08
-1.24844e-05 2.5536e-05 1.97652e-07
-2.53701e-08 1.97652e-07 -3.7025e-05
0.00106022 -6.24786e-05 1.60441e-06
-6.24786e-05 0.000112837 -1.64836e-07
1.60441e-06 -1.64836e-07 3.42765e-05
0.00258138 6.24938e-05 -3.02424e-05
6.24938e-05 0.000942458 3.23421e-06
-3.02424e-05 3.23421e-06 0.00095144
0.000702203 4.6521e-05 4.83888e-09
4.6521e-05 -4.17927e-05 -1.00286e-07
4.83888e-09 -1.00286e-07 -6.38431e-05
0.000818506 -1.13279e-05 2.47504e-06
-1.13279e-05 2.24987e-06 -2.0798e-06
2.47504e-06 -2.0798e-06 -5.43496e-05
0.00245745 5.58141e-05 3.55767e-07
5.58141e-05 0.000872488 7.87318e-08
3.55767e-07 7.87318e-08 0.000883686
0.000763195 4.18635e-05 2.68575e-06
4.18635e-05 -1.8227e-05 -3.89646e-06
2.68575e-06 -3.89646e-06 -3.5253e-05
0.00236221 4.98561e-05 2.71929e-05
4.98561e-05 0.000816916 -3.44333e-06
2.71929e-05 -3.44333e-06 0.000830152
0.00103482 7.36157e-05 -1.58308e-07
7.36157e-05 0.000113757 5.79745e-07
-1.58308e-07 5.79745e-07 3.0218e-05
0.000956576 5.27931e-05 3.12449e-07
5.27931e-05 7.27715e-05 1.4294e-07
3.12449e-07 1.4294e-07 -5.11457e-06
0.000861352 -9.35944e-06 -1.09201e-06
-9.35944e-06 1.99593e-05 -5.49851e-07
-1.09201e-06 -5.49851e-07 -5.1741e-05
0.000941044 1.0135e-05 4.91105e-07
1.0135e-05 5.7177e-05 9.23529e-07
4.91105e-07 9.23529e-07 -1.5552e-05
0.000898897 -2.11279e-05 -6.73384e-08
-2.11279e-05 3.58411e-05 1.50054e-07
-6.73384e-08 1.50054e-07 -3.06832e-05
0.000810501 -2.55893e-05 -1.73123e-06
-2.55893e-05 -5.23846e-06 -2.1678e-06
-1.73123e-06 -2.1678e-06 -5.19841e-05
0.00089692 -2.61929e-05 4.06827e-07
-2.61929e-05 2.75424e-05 1.45925e-06
4.06827e-07 1.45925e-06 -3.33682e-05
0.000827875 -2.96295e-05 -3.71253e-08
-2.96295e-05 -1.87519e-06 -9.59831e-08
-3.71253e-08 -9.59831e-08 -4.29606e-05
0.000776305 -3.50599e-05 -2.97879e-06
-3.50599e-05 -2.21288e-05 -3.65421e-06
-2.97879e-06 -3.65421e-06 -3.44348e-05
0.00230262 -4.4107e-05 -2.44514e-05
-4.4107e-05 0.00077675 -3.5671e-06
-2.44514e-05 -3.5671e-06 0.000792143
0.000771595 -2.94071e-05 -6.22191e-08
-2.94071e-05 -3.17878e-05 1.45033e-08
-6.22191e-08 1.45033e-08 -4.14867e-05
0.000835203 -2.59264e-05 1.46913e-06
-2.59264e-05 -3.2575e-06 2.02168e-06
1.46913e-06 2.02168e-06 -4.06745e-05
0.00230518 -3.92679e-05 -9.37981e-07
-3.92679e-05 0.000770511 7.61221e-08
-9.37981e-07 7.61221e-08 0.000787418
0.000760658 -2.58859e-05 1.90335e-06
-2.58859e-05 -4.25297e-05 3.48716e-06
1.90335e-06 3.48716e-06 -5.05548e-05
0.0022736 -3.41617e-05 1.82896e-05
-3.41617e-05 0.000747474 3.81754e-06
1.82896e-05 3.81754e-06 0.000765916
0.00657127 -1.02901e-05 3.66665e-05
-1.02901e-05 0.00192279 3.77089e-06
3.66665e-05 3.77089e-06 0.00126371
-0.0016581 -5.5114e-05 5.81081e-06
-5.5114e-05 -0.000906004 1.06979e-06
5.81081e-06 1.06979e-06 -0.000803385
-0.000414842 -4.72429e-05 -1.44738e-05
-4.72429e-05 -0.000380256 -1.48872e-06
-1.44738e-05 -1.48872e-06 -0.000481888
0.000948101 1.73946e-05 7.9032e-07
1.73946e-05 6.93938e-05 2.92762e-07
7.9032e-07 2.92762e-07 -1.29276e-05
0.000911155 6.57502e-05 2.35283e-07
6.57502e-05 6.19697e-05 -4.49832e-07
2.35283e-07 -4.49832e-07 -2.06284e-05
0.00107349 6.78234e-05 2.81751e-07
6.78234e-05 0.000146303 -6.23513e-08
2.81751e-07 -6.23513e-08 5.90409e-05
0.00104158 8.1838e-05 -5.65378e-07
8.1838e-05 0.000124782 -1.9213e-07
-5.65378e-07 -1.9213e-07 3.83843e-05
0.0011398 8.7736e-05 4.13097e-06
8.7736e-05 0.000173219 1.70237e-06
4.13097e-06 1.70237e-06 8.15761e-05
0.000740262 7.0306e-05 -1.24868e-06
7.0306e-05 -1.91968e-05 1.43339e-06
-1.24868e-06 1.43339e-06 -0.000106688
0.00069496 4.98774e-05 3.14153e-07
4.98774e-05 -4.67565e-05 1.54962e-08
3.14153e-07 1.54962e-08 -0.000133401
0.000700038 6.8925e-05 5.43713e-07
6.8925e-05 -3.98341e-05 -8.12818e-10
5.43713e-07 -8.12818e-10 -0.000132761
0.000802309 6.32407e-05 5.82777e-07
6.32407e-05 4.99652e-06 5.61588e-08
5.82777e-07 5.61588e-08 -8.54905e-05
0.00036381 6.93171e-05 9.93967e-07
6.93171e-05 -0.000245317 8.18774e-07
9.93967e-07 8.18774e-07 -0.000337802
0.0027348 0.00016834 8.83999e-07
0.00016834 0.000878009 -1.79044e-07
8.83999e-07 -1.79044e-07 0.00077612
0.0019279 0.000161738 1.6796e-06
0.000161738 0.000320986 -1.15194e-06
1.6796e-06 -1.15194e-06 0.000200299
0.00128629 0.000122391 1.15951e-06
0.000122391 0.000172089 -3.97128e-07
1.15951e-06 -3.97128e-07 6.89238e-05
0.00110702 4.746e-05 -2.48564e-06
4.746e-05 0.000175478 7.80103e-07
-2.48564e-06 7.80103e-07 9.25095e-05
0.00177467 -7.86011e-05 -1.55409e-05
-7.86011e-05 -0.00026323 -1.47066e-05
-1.55409e-05 -1.47066e-05 -0.000452107
0.00425784 -0.000141273 4.54789e-07
-0.000141273 0.000811205 -6.27927e-07
4.54789e-07 -6.27927e-07 5.78041e-05
0.00343114 -0.000326107 -3.58139e-05
-0.000326107 0.00156141 -2.27446e-05
-3.58139e-05 -2.27446e-05 0.00159269
0.00585666 -0.000125153 0.000147034
-0.000125153 0.00154383 4.30033e-05
0.000147034 4.30033e-05 0.000543379
0.00311635 0.000227975 4.08529e-05
0.000227975 0.000722611 4.83929e-05
4.08529e-05 4.83929e-05 0.000502267
0.00154322 7.33646e-05 -3.21343e-05
7.33646e-05 -5.87992e-05 -1.09169e-05
-3.21343e-05 -1.09169e-05 -0.000255662
0.00145965 0.000134736 2.19159e-05
0.000134736 -8.47266e-05 1.49526e-05
2.19159e-05 1.49526e-05 -0.000115914
0.00191159 0.000227281 -1.20864e-06
0.000227281 0.000278883 5.52957e-06
-1.20864e-06 5.52957e-06 0.000151017
0.000192026 9.82169e-05 -2.26819e-06
9.82169e-05 -0.00028896 3.16479e-06
-2.26819e-06 3.16479e-06 -0.000428146
0.00180397 0.000237931 -6.29725e-05
0.000237931 0.000219596 -5.06272e-05
-6.29725e-05 -5.06272e-05 0.000163486
0.00279972 -3.94113e-05 -0.000124778
-3.94113e-05 0.000724128 -3.62207e-06
-0.000124778 -3.62207e-06 0.000390653
0.00633871 4.0275e-05 9.14244e-06
4.0275e-05 0.00210685 -3.25362e-06
9.14244e-06 -3.25362e-06 0.00152959
-0.00374964 -4.0487e-05 -2.31871e-05
-4.0487e-05 -0.00221833 6.17719e-06
-2.31871e-05 6.17719e-06 -0.00207714
0.0017565 -0.000161972 1.89519e-06
-0.000161972 0.000227863 6.15142e-06
1.89519e-06 6.15142e-06 0.000242659
0.00339509 7.05903e-05 5.00429e-05
7.05903e-05 0.000394358 2.1115e-06
5.00429e-05 2.1115e-06 0.000124402
0.00115982 -4.48371e-05 3.79963e-05
-4.48371e-05 -0.000330365 6.19289e-06
3.79963e-05 6.19289e-06 -0.000898611
0.00180164 -0.000112947 1.49815e-06
-0.000112947 0.000203152 2.39612e-06
1.49815e-06 2.39612e-06 0.000174355
0.00145806 9.55043e-05 -1.67539e-07
9.55043e-05 9.28772e-05 -4.2256e-06
-1.67539e-07 -4.2256e-06 -0.000136431
0.0030016 -2.99154e-05 8.37296e-07
-2.99154e-05 0.00067357 -1.1726e-05
8.37296e-07 -1.1726e-05 0.000626335
0.00123406 6.57985e-05 1.3254e-05
6.57985e-05 -0.000105439 -3.53494e-06
1.3254e-05 -3.53494e-06 -0.000197594
0.00218772 -0.000171473 6.40136e-06
-0.000171473 0.000263367 -2.06384e-06
6.40136e-06 -2.06384e-06 0.000194975
0.00201698 -0.000108465 -3.76964e-07
-0.000108465 5.66423e-05 -2.22842e-06
-3.76964e-07 -2.22842e-06 4.46649e-06
0.002021 -3.11849e-05 7.0336e-08
-3.11849e-05 0.000120413 -1.16452e-06
7.0336e-08 -1.16452e-06 5.46632e-05
0.00158009 -0.000117433 9.48554e-06
-0.000117433 -1.68393e-05 -6.61297e-08
9.48554e-06 -6.61297e-08 -8.704e-05
0.00189829 -9.10595e-05 2.68428e-06
-9.10595e-05 8.33912e-05 1.55058e-07
2.68428e-06 1.55058e-07 2.57852e-05
0.0019903 -5.50049e-05 -1.51092e-06
-5.50049e-05 0.000165932 2.42723e-06
-1.51092e-06 2.42723e-06 8.98918e-05
0.00132065 -9.73452e-05 5.36156e-06
-9.73452e-05 -9.87822e-05 2.47968e-06
5.36156e-06 2.47968e-06 -0.000169007
0.00168753 -8.56378e-05 1.59446e-06
-8.56378e-05 7.74511e-05 9.90622e-07
1.59446e-06 9.90622e-07 1.75302e-05
0.00180315 -6.98248e-05 -3.40104e-07
-6.98248e-05 0.000150093 1.23949e-06
-3.40104e-07 1.23949e-06 7.58372e-05
0.00147829 -9.17936e-05 2.17111e-06
-9.17936e-05 5.30585e-05 3.47308e-06
2.17111e-06 3.47308e-06 -1.99737e-05
0.00148566 -8.32133e-05 -2.34227e-08
-8.32133e-05 5.67537e-05 -2.07944e-07
-2.34227e-08 -2.07944e-07 -1.23647e-05
0.00147545 -7.92313e-05 1.94602e-06
-7.92313e-05 7.45936e-05 -1.77615e-07
1.94602e-06 -1.77615e-07 -8.25441e-06
0.00130115 -8.26042e-05 -3.33829e-07
-8.26042e-05 1.01361e-05 3.65043e-06
-3.33829e-07 3.65043e-06 -6.28337e-05
0.00153352 -8.54171e-05 -1.02282e-06
-8.54171e-05 0.000143102 -8.28959e-07
-1.02282e-06 -8.28959e-07 6.03279e-05
0.00165708 -8.77968e-05 1.27746e-07
-8.77968e-05 0.000225232 -1.29588e-06
1.27746e-07 -1.29588e-06 0.00013451
0.00139708 -9.19589e-05 1.31386e-06
-9.19589e-05 0.000111099 1.95129e-06
1.31386e-06 1.95129e-06 1.50596e-05
0.00137157 -8.9671e-05 2.27313e-07
-8.9671e-05 0.000118015 -3.42335e-07
2.27313e-07 -3.42335e-07 2.08033e-05
0.00142582 -8.91842e-05 -1.44129e-06
-8.91842e-05 0.000169889 -4.55665e-07
-1.44129e-06 -4.55665e-07 7.4964e-05
0.000778652 -6.90971e-05 -3.03245e-06
-6.90971e-05 -8.38882e-05 1.28305e-06
-3.03245e-06 1.28305e-06 -0.000173687
0.0010203 -8.30934e-05 -4.29868e-07
-8.30934e-05 1.24005e-05 4.14084e-07
-4.29868e-07 4.14084e-07 -8.6522e-05
0.00127562 -9.42707e-05 2.0504e-06
-9.42707e-05 0.000115137 -3.95822e-07
2.0504e-06 -3.95822e-07 8.82429e-06
0.000829137 -4.02306e-05 -2.81574e-06
-4.02306e-05 5.22383e-06 1.49324e-06
-2.81574e-06 1.49324e-06 -6.38589e-05
0.00104634 -7.66322e-05 9.44979e-08
-7.66322e-05 8.48788e-05 1.25322e-08
9.44979e-08 1.25322e-08 -1.59011e-06
0.00100283 -8.39007e-05 7.95595e-07
-8.39007e-05 4.87165e-05 -4.60393e-07
7.95595e-07 -4.60393e-07 -4.84738e-05
0.000645242 5.33698e-05 -2.61166e-06
5.33698e-05 -5.75739e-05 4.1911e-06
-2.61166e-06 4.1911e-06 -9.17049e-05
0.000866988 -2.24858e-05 3.6694e-08
-2.24858e-05 3.00584e-05 6.4671e-08
3.6694e-08 6.4671e-08 -3.59627e-05
0.00109938 -7.43263e-05 1.81178e-06
-7.43263e-05 0.000125427 -8.37689e-07
1.81178e-06 -8.37689e-07 4.32928e-05
0.00276305 6.98995e-05 -3.33507e-05
6.98995e-05 0.00104161 3.21427e-06
-3.33507e-05 3.21427e-06 0.00104783
0.000684956 5.11564e-05 2.69397e-07
5.11564e-05 -4.47884e-05 -2.17918e-08
2.69397e-07 -2.17918e-08 -7.27036e-05
0.00086861 -1.47882e-05 2.81908e-06
-1.47882e-05 2.88718e-05 -1.73035e-06
2.81908e-06 -1.73035e-06 -3.33679e-05
0.00261221 6.25327e-05 3.61566e-07
6.25327e-05 0.000958588 9.37063e-08
3.61566e-07 9.37063e-08 0.000967233
0.000737145 4.80842e-05 2.16214e-06
4.80842e-05 -2.27198e-05 -4.17344e-06
2.16214e-06 -4.17344e-06 -4.53227e-05
0.00248647 5.58672e-05 3.00614e-05
5.58672e-05 0.000887984 -3.39487e-06
3.00614e-05 -3.39487e-06 0.000898902
0.00108696 8.10002e-05 -4.7325e-07
8.10002e-05 0.000138324 -3.54696e-07
-4.7325e-07 -3.54696e-07 4.99951e-05
0.00107737 7.55908e-05 1.99609e-07
7.55908e-05 0.000135631 1.17304e-07
1.99609e-07 1.17304e-07 5.23554e-05
0.000960666 3.34719e-05 -1.30895e-06
3.34719e-05 7.27027e-05 -1.134e-07
-1.30895e-06 -1.134e-07 -3.31499e-06
0.000926591 6.53061e-05 5.28005e-07
6.53061e-05 5.98944e-05 -1.10705e-07
5.28005e-07 -1.10705e-07 -1.9357e-05
0.00086471 -1.57252e-07 -3.85529e-07
-1.57252e-07 2.2522e-05 -3.9403e-08
-3.85529e-07 -3.9403e-08 -5.00052e-05
0.000806966 -6.2839e-06 -2.43873e-06
-6.2839e-06 -2.48664e-06 -1.60712e-06
-2.43873e-06 -1.60712e-06 -5.66981e-05
0.000877785 -2.68896e-05 4.69222e-07
-2.68896e-05 2.52686e-05 1.23606e-06
4.69222e-07 1.23606e-06 -4.21895e-05
0.00082181 -2.71058e-05 3.8774e-08
-2.71058e-05 8.23195e-07 -1.51061e-07
3.8774e-08 -1.51061e-07 -4.59919e-05
0.00076164 -4.17442e-05 -2.82142e-06
-4.17442e-05 -2.06353e-05 -3.77397e-06
-2.82142e-06 -3.77397e-06 -3.69672e-05
0.000841285 -2.99992e-05 1.404e-06
-2.99992e-05 4.34509e-06 2.25197e-06
1.404e-06 2.25197e-06 -3.65821e-05
0.000758863 -3.37009e-05 2.15223e-09
-3.37009e-05 -3.14433e-05 -2.45512e-08
2.15223e-09 -2.45512e-08 -4.3477e-05
0.00235015 -4.93818e-05 -2.67021e-05
-4.93818e-05 0.000809008 -3.42644e-06
-2.67021e-05 -3.42644e-06 0.000822543
0.00232152 -4.42811e-05 -5.51909e-07
-4.42811e-05 0.000785583 7.61545e-08
-5.51909e-07 7.61545e-08 0.000801054
0.000757488 -2.87737e-05 2.59763e-06
-2.87737e-05 -3.88423e-05 3.51933e-06
2.59763e-06 3.51933e-06 -4.84659e-05
0.00231256 -3.94157e-05 2.10411e-05
-3.94157e-05 0.000773689 3.73082e-06
2.10411e-05 3.73082e-06 0.000790666
0.000915773 -4.97951e-05 -5.94924e-05
-4.97951e-05 -0.000374371 -3.77017e-06
-5.94924e-05 -3.77017e-06 -0.000580143
0.00161473 -9.80728e-05 -3.21501e-06
-9.80728e-05 -0.000353919 -2.77744e-06
-3.21501e-06 -2.77744e-06 -0.000928866
0.00329987 -0.000257137 -4.07397e-05
-0.000257137 0.00131463 -6.89387e-06
-4.07397e-05 -6.89387e-06 0.00140264
0.00117469 9.26518e-05 4.61915e-06
9.26518e-05 0.000156252 1.70294e-06
4.61915e-06 1.70294e-06 6.04815e-05
0.00112041 6.91948e-05 7.09211e-07
6.91948e-05 0.000170664 -7.77507e-07
7.09211e-07 -7.77507e-07 8.35785e-05
0.000973085 7.91717e-05 -2.00966e-07
7.91717e-05 9.07316e-05 -7.41774e-07
-2.00966e-07 -7.41774e-07 4.40822e-06
0.000941216 7.86325e-05 1.02358e-07
7.86325e-05 8.33273e-05 2.71436e-07
1.02358e-07 2.71436e-07 -5.19262e-06
0.00104018 8.4189e-05 -1.06661e-07
8.4189e-05 0.000124987 -5.39861e-07
-1.06661e-07 -5.39861e-07 3.28825e-05
0.00070244 7.58311e-05 -6.72315e-07
7.58311e-05 -5.90002e-05 1.69055e-06
-6.72315e-07 1.69055e-06 -0.000142163
0.00108919 8.5473e-05 1.23049e-06
8.5473e-05 0.000156753 -1.58528e-06
1.23049e-06 -1.58528e-06 6.03786e-05
0.00101342 6.31552e-05 -6.00673e-07
6.31552e-05 0.00011806 8.39874e-07
-6.00673e-07 8.39874e-07 2.5574e-05
0.000979144 9.32023e-05 6.79437e-08
9.32023e-05 6.25318e-05 -1.31627e-07
6.79437e-08 -1.31627e-07 -2.96368e-05
0.00202924 0.000143113 4.15135e-07
0.000143113 0.00053712 1.69208e-06
4.15135e-07 1.69208e-06 0.000437585
0.00154297 0.000134902 1.21997e-06
0.000134902 0.000171416 -8.84255e-07
1.21997e-06 -8.84255e-07 6.05487e-05
0.0019147 0.000129294 1.75933e-06
0.000129294 0.000116309 4.96849e-06
1.75933e-06 4.96849e-06 1.87671e-07
0.00136806 0.000141803 1.76099e-06
0.000141803 4.29532e-05 4.78789e-07
1.76099e-06 4.78789e-07 -7.68278e-05
0.000762762 0.000101392 -1.22127e-06
0.000101392 -8.76285e-05 3.201e-06
-1.22127e-06 3.201e-06 -0.000186954
0.000820192 6.51529e-06 -1.05823e-05
6.51529e-06 -0.000317026 2.88982e-06
-1.05823e-05 2.88982e-06 -0.000329677
0.00333399 -6.75371e-05 -7.24482e-06
-6.75371e-05 0.000296003 6.1565e-07
-7.24482e-06 6.1565e-07 5.91922e-05
0.00122225 -0.000167463 2.36824e-06
-0.000167463 -0.000545599 -1.56738e-06
2.36824e-06 -1.56738e-06 -0.00120834
0.00276714 0.000160468 3.80803e-05
0.000160468 0.000218193 2.24415e-05
3.80803e-05 2.24415e-05 -0.000100778
0.00126242 0.00012176 -2.36883e-06
0.00012176 -0.000153907 1.10247e-06
-2.36883e-06 1.10247e-06 -0.000192345
0.000321846 0.000164088 -1.44308e-05
0.000164088 -0.000441363 -9.52462e-06
-1.44308e-05 -9.52462e-06 -0.0005772
0.00265679 -5.16647e-05 9.9653e-06
-5.16647e-05 0.000645541 -7.20526e-06
9.9653e-06 -7.20526e-06 0.000566162
0.000956263 -1.18963e-05 -2.20729e-05
-1.18963e-05 -1.18989e-05 2.59597e-06
-2.20729e-05 2.59597e-06 -0.000295477
0.000713927 0.00016351 5.03783e-05
0.00016351 -0.000724723 -3.44929e-06
5.03783e-05 -3.44929e-06 -0.00126793
0.000508827 -8.29941e-05 -4.97115e-06
-8.29941e-05 -0.000440919 1.14336e-05
-4.97115e-06 1.14336e-05 -0.00044383
0.00349784 0.000149136 4.12889e-05
0.000149136 0.000917393 -7.63862e-06
4.12889e-05 -7.63862e-06 0.000648079
0.00178108 -1.96278e-05 5.52e-06
-1.96278e-05 5.02919e-05 -2.11801e-06
5.52e-06 -2.11801e-06 5.55371e-06
0.00210429 8.34188e-05 1.70829e-06
8.34188e-05 0.000344047 -4.48546e-06
1.70829e-06 -4.48546e-06 0.00025722
0.00106446 3.96765e-05 7.2861e-07
3.96765e-05 -0.000326523 -3.56201e-06
7.2861e-07 -3.56201e-06 -0.000415055
0.00224525 5.9468e-05 -2.05262e-06
5.9468e-05 0.000289141 -5.91468e-06
-2.05262e-06 -5.91468e-06 0.000193361
0.00187463 -0.000102255 7.35432e-06
-0.000102255 -1.25205e-06 -2.16977e-06
7.35432e-06 -2.16977e-06 -5.1052e-05
0.00197854 -3.01631e-05 4.49926e-06
-3.01631e-05 9.65945e-05 1.08959e-07
4.49926e-06 1.08959e-07 2.66954e-05
0.00179883 -2.37145e-06 -5.47707e-07
-2.37145e-06 0.000101391 -2.4958e-06
-5.47707e-07 -2.4958e-06 3.74073e-06
0.00199878 -9.33028e-05 3.40758e-06
-9.33028e-05 0.000147246 2.25789e-07
3.40758e-06 2.25789e-07 8.56188e-05
0.00191167 -5.61168e-05 -1.35698e-07
-5.61168e-05 0.000128247 -5.10636e-07
-1.35698e-07 -5.10636e-07 5.08602e-05
0.00186932 -3.66353e-05 -1.21892e-06
-3.66353e-05 0.000159809 4.06045e-07
-1.21892e-06 4.06045e-07 6.52236e-05
0.00153903 -8.38461e-05 1.95068e-06
-8.38461e-05 1.41352e-05 9.20079e-08
1.95068e-06 9.20079e-08 -4.79924e-05
0.00172123 -7.12181e-05 -5.54454e-07
-7.12181e-05 0.00012163 -1.69748e-06
-5.54454e-07 -1.69748e-06 4.87284e-05
0.00149132 -6.37761e-05 3.38489e-07
-6.37761e-05 3.29631e-05 1.6307e-06
3.38489e-07 1.6307e-06 -5.62305e-05
0.00137579 -8.34556e-05 -8.38596e-07
-8.34556e-05 9.54519e-06 -5.78356e-07
-8.38596e-07 -5.78356e-07 -5.98869e-05
0.00145172 -7.837e-05 3.08785e-07
-7.837e-05 6.35126e-05 -8.20279e-07
3.08785e-07 -8.20279e-07 -1.93705e-05
0.00143367 -7.84215e-05 3.42165e-07
-7.84215e-05 7.51263e-05 -1.05505e-07
3.42165e-07 -1.05505e-07 -1.65171e-05
0.001363 -8.10487e-05 -2.00207e-06
-8.10487e-05 5.62657e-05 1.88991e-06
-2.00207e-06 1.88991e-06 -2.51142e-05
0.00150072 -8.31303e-05 -2.58495e-07
-8.31303e-05 0.000145014 -5.58945e-07
-2.58495e-07 -5.58945e-07 5.50066e-05
0.0014007 -7.97404e-05 -1.26143e-06
-7.97404e-05 0.000119684 -4.63663e-07
-1.26143e-06 -4.63663e-07 2.68725e-05
0.00137204 -8.89143e-05 1.49473e-06
-8.89143e-05 0.000118649 6.60379e-07
1.49473e-06 6.60379e-07 2.1059e-05
0.0012453 -8.37517e-05 3.38575e-07
-8.37517e-05 7.89209e-05 -1.9665e-07
3.38575e-07 -1.9665e-07 -1.65192e-05
0.00125197 -7.90309e-05 -2.79251e-06
-7.90309e-05 0.000116309 5.46978e-07
-2.79251e-06 5.46978e-07 2.71128e-05
0.000900049 -5.24895e-05 -3.39379e-06
-5.24895e-05 1.99666e-05 1.52076e-06
-3.39379e-06 1.52076e-06 -5.25011e-05
0.000887804 -7.23289e-05 -7.03962e-07
-7.23289e-05 -2.63198e-05 5.00954e-07
-7.03962e-07 5.00954e-07 -0.00011534
0.00109003 -8.45042e-05 1.39335e-06
-8.45042e-05 5.10077e-05 -1.59444e-07
1.39335e-06 -1.59444e-07 -4.71791e-05
0.000657099 4.93899e-06 -5.20564e-06
4.93899e-06 -4.85305e-05 4.11481e-06
-5.20564e-06 4.11481e-06 -8.61868e-05
0.000882919 -4.1624e-05 1.29177e-07
-4.1624e-05 3.26328e-05 1.87424e-08
1.29177e-07 1.87424e-08 -3.69474e-05
0.00109282 -7.80436e-05 2.13702e-06
-7.80436e-05 0.000107157 -9.81408e-07
2.13702e-06 -9.81408e-07 2.06723e-05
0.00286372 7.61542e-05 -3.63606e-05
7.61542e-05 0.00110271 3.16202e-06
-3.63606e-05 3.16202e-06 0.00110574
0.00069196 2.5136e-05 -3.5084e-08
2.5136e-05 -3.91159e-05 -1.14949e-07
-3.5084e-08 -1.14949e-07 -7.08243e-05
0.000918722 -2.6872e-05 3.05741e-06
-2.6872e-05 5.56904e-05 -1.75921e-06
3.05741e-06 -1.75921e-06 -1.04101e-05
0.00274034 6.87307e-05 6.37907e-07
6.87307e-05 0.00103106 1.20191e-07
6.37907e-07 1.20191e-07 0.00103699
0.000724684 3.79687e-05 4.17959e-06
3.79687e-05 -2.54442e-05 -3.99718e-06
4.17959e-06 -3.99718e-06 -5.24563e-05
0.00262836 6.20611e-05 3.31089e-05
6.20611e-05 0.000967218 -3.45467e-06
3.31089e-05 -3.45467e-06 0.000975593
0.000893762 7.93143e-05 -4.19152e-07
7.93143e-05 2.0312e-05 -3.329e-07
-4.19152e-07 -3.329e-07 -7.28619e-05
0.00101701 7.79136e-05 -1.34126e-08
7.79136e-05 0.000102474 -4.15045e-07
-1.34126e-08 -4.15045e-07 1.45961e-05
0.00107591 6.65351e-05 -1.01144e-06
6.65351e-05 0.000127071 1.05087e-08
-1.01144e-06 1.05087e-08 4.74176e-05
0.00111428 7.74632e-05 1.80301e-07
7.74632e-05 0.00015456 -6.78268e-07
1.80301e-07 -6.78268e-07 7.15579e-05
0.000953874 3.62104e-05 -5.59521e-07
3.62104e-05 6.94934e-05 -2.11708e-07
-5.59521e-07 -2.11708e-07 -6.01542e-06
0.000833314 2.64889e-06 -2.42737e-06
2.64889e-06 1.47983e-05 -1.2142e-06
-2.42737e-06 -1.2142e-06 -4.56823e-05
0.000864221 1.05677e-05 4.61232e-07
1.05677e-05 2.2428e-05 9.35867e-08
4.61232e-07 9.35867e-08 -5.03701e-05
0.000825488 -2.28134e-05 -7.73845e-08
-2.28134e-05 7.51765e-06 1.75577e-08
-7.73845e-08 1.75577e-08 -4.63997e-05
0.000734375 -4.85764e-05 -2.44995e-06
-4.85764e-05 -2.45977e-05 -3.78012e-06
-2.44995e-06 -3.78012e-06 -4.62047e-05
0.000832465 -2.93159e-05 1.62715e-06
-2.93159e-05 6.69746e-06 2.29561e-06
1.62715e-06 2.29561e-06 -4.02123e-05
0.00074024 -3.96418e-05 -1.04881e-08
-3.96418e-05 -3.25363e-05 -5.04265e-08
-1.04881e-08 -5.04265e-08 -4.83387e-05
0.00243966 -5.51403e-05 -2.9237e-05
-5.51403e-05 0.000862882 -3.28953e-06
-2.9237e-05 -3.28953e-06 0.000874181
0.000748476 -3.26312e-05 3.09221e-06
-3.26312e-05 -3.7155e-05 3.55941e-06
3.09221e-06 3.55941e-06 -4.89401e-05
0.0023491 -4.94609e-05 -3.8539e-07
-4.94609e-05 0.000807313 7.00591e-08
-3.8539e-07 7.00591e-08 0.000821069
0.00233606 -4.43447e-05 2.37286e-05
-4.43447e-05 0.000792322 3.61009e-06
2.37286e-05 3.61009e-06 0.00080787
0.000526933 -4.35796e-05 -4.97018e-06
-4.35796e-05 -0.000443162 1.30441e-06
-4.97018e-06 1.30441e-06 -0.000474369
0.00292621 -3.39677e-05 -2.01941e-06
-3.39677e-05 0.000364994 9.12835e-06
-2.01941e-06 9.12835e-06 7.69097e-05
0.0053708 5.64744e-05 -7.02582e-05
5.64744e-05 0.00158179 -8.55498e-06
-7.02582e-05 -8.55498e-06 0.000962467
0.000819312 7.75901e-05 2.3815e-06
7.75901e-05 -4.12485e-05 1.61125e-06
2.3815e-06 1.61125e-06 -0.000129258
0.0013801 0.0001043 3.33174e-06
0.0001043 0.000178993 -7.01833e-07
3.33174e-06 -7.01833e-07 7.74471e-05
0.00083222 8.07002e-05 1.77877e-07
8.07002e-05 -8.67662e-06 -5.02356e-07
1.77877e-07 -5.02356e-07 -0.000103489
0.00111444 8.58222e-05 -8.68237e-08
8.58222e-05 0.000170733 -1.85882e-06
-8.68237e-08 -1.85882e-06 8.14139e-05
0.000970183 8.1821e-05 -5.45673e-07
8.1821e-05 9.14889e-05 -1.12058e-06
-5.45673e-07 -1.12058e-06 -1.15374e-06
0.00099073 8.83413e-05 1.65066e-06
8.83413e-05 7.74618e-05 1.01647e-06
1.65066e-06 1.01647e-06 -7.40378e-06
0.00159048 0.000125744 -2.0486e-06
0.000125744 0.000207959 -2.51207e-06
-2.0486e-06 -2.51207e-06 0.000103807
0.00147686 0.000112387 1.40437e-06
0.000112387 0.000313188 -4.60256e-07
1.40437e-06 -4.60256e-07 0.000221413
0.00092706 0.000103518 -1.75508e-06
0.000103518 2.16495e-06 4.34986e-06
-1.75508e-06 4.34986e-06 -9.46692e-05
0.00150672 0.000133522 -1.16319e-06
0.000133522 0.00015679 -8.58269e-08
-1.16319e-06 -8.58269e-08 4.71618e-05
0.00148556 0.000113041 -2.41381e-06
0.000113041 -3.18589e-05 4.26381e-07
-2.41381e-06 4.26381e-07 -0.000147853
0.00173011 2.90404e-05 2.97365e-06
2.90404e-05 -3.79148e-05 4.42576e-06
2.97365e-06 4.42576e-06 -0.00012206
0.0020959 0.000132492 2.63468e-06
0.000132492 0.000211426 1.43729e-06
2.63468e-06 1.43729e-06 9.56628e-05
0.00121934 0.00013428 -2.48345e-06
0.00013428 -3.26396e-05 1.87732e-06
-2.48345e-06 1.87732e-06 -0.000151126
0.00131636 4.49814e-06 1.16811e-06
4.49814e-06 -7.08327e-05 -4.43004e-07
1.16811e-06 -4.43004e-07 -8.5766e-05
0.00412942 -0.000127493 4.66967e-05
-0.000127493 0.000573245 2.27203e-05
4.66967e-05 2.27203e-05 0.00028126
0.00194629 0.000126152 -2.69182e-07
0.000126152 0.000207932 -6.8395e-06
-2.69182e-07 -6.8395e-06 0.000161692
0.00187381 -8.72391e-07 1.69878e-06
-8.72391e-07 0.00020238 -5.12385e-06
1.69878e-06 -5.12385e-06 0.00014255
0.00159555 -3.71316e-05 -5.18104e-07
-3.71316e-05 0.000139752 6.91372e-07
-5.18104e-07 6.91372e-07 5.04151e-05
0.000849483 6.37282e-05 5.86823e-05
6.37282e-05 -0.000273907 1.5123e-06
5.86823e-05 1.5123e-06 -0.00061854
0.000740715 -2.13964e-05 -1.39813e-06
-2.13964e-05 -0.000472271 1.6373e-06
-1.39813e-06 1.6373e-06 -0.000519524
0.00266178 9.07667e-05 -2.11282e-05
9.07667e-05 0.000644887 4.29722e-06
-2.11282e-05 4.29722e-06 0.000565961
0.0011518 4.11089e-05 -5.81824e-07
4.11089e-05 -0.000292421 5.06388e-06
-5.81824e-07 5.06388e-06 -0.000374741
0.00217695 5.6757e-05 1.89458e-06
5.6757e-05 0.000239067 1.06444e-07
1.89458e-06 1.06444e-07 0.000146374
0.00178913 2.74831e-05 -1.16927e-06
2.74831e-05 8.84925e-05 4.35001e-07
-1.16927e-06 4.35001e-07 -2.84524e-06
0.00168961 3.46799e-05 5.3316e-07
3.46799e-05 2.37064e-05 -3.01267e-06
5.3316e-07 -3.01267e-06 -5.27542e-05
0.00192001 -2.78308e-05 7.31011e-06
-2.78308e-05 6.16284e-05 2.16301e-06
7.31011e-06 2.16301e-06 -1.18706e-05
0.00184756 -1.92671e-06 -2.20321e-06
-1.92671e-06 0.000113906 2.68847e-07
-2.20321e-06 2.68847e-07 1.81856e-05
0.00162998 3.38001e-06 -3.42249e-07
3.38001e-06 3.78773e-05 -3.43001e-06
-3.42249e-07 -3.43001e-06 -6.13204e-05
0.00190951 -5.73813e-05 -9.21746e-07
-5.73813e-05 0.000131589 -1.95751e-06
-9.21746e-07 -1.95751e-06 5.30521e-05
0.0018271 -3.67006e-05 4.13425e-08
-3.67006e-05 0.000141312 -6.5471e-07
4.13425e-08 -6.5471e-07 4.93546e-05
0.00157004 -2.79188e-05 -4.9733e-07
-2.79188e-05 3.8286e-05 2.22236e-07
-4.9733e-07 2.22236e-07 -5.76768e-05
0.00163748 -7.2445e-05 -3.24955e-06
-7.2445e-05 9.23697e-05 -3.06997e-06
-3.24955e-06 -3.06997e-06 2.07877e-05
0.00156077 -6.39286e-05 4.23227e-07
-6.39286e-05 6.61571e-05 1.64442e-07
4.23227e-07 1.64442e-07 -2.31596e-05
0.00150441 -6.52903e-05 -2.52477e-07
-6.52903e-05 6.0763e-05 8.51902e-07
-2.52477e-07 8.51902e-07 -3.46567e-05
0.00142664 -7.74827e-05 -1.14621e-06
-7.74827e-05 5.17641e-05 -1.46091e-06
-1.14621e-06 -1.46091e-06 -3.11527e-05
0.00143861 -7.7644e-05 1.0976e-07
-7.7644e-05 7.72649e-05 -5.22755e-07
1.0976e-07 -5.22755e-07 -1.42911e-05
0.00138584 -7.60922e-05 -1.07605e-06
-7.60922e-05 7.75392e-05 1.418e-07
-1.07605e-06 1.418e-07 -1.71764e-05
0.00134224 -7.84688e-05 -2.13069e-07
-7.84688e-05 6.37368e-05 7.21666e-07
-2.13069e-07 7.21666e-07 -2.55621e-05
0.00126562 -7.618e-05 -1.84216e-07
-7.618e-05 5.18553e-05 -2.32543e-07
-1.84216e-07 -2.32543e-07 -4.07283e-05
0.00121764 -7.21121e-05 -2.88601e-06
-7.21121e-05 6.62014e-05 3.84685e-07
-2.88601e-06 3.84685e-07 -2.25314e-05
0.00106328 -7.83044e-05 1.99142e-06
-7.83044e-05 -1.27585e-05 -2.33744e-08
1.99142e-06 -2.33744e-08 -0.000108724
0.00106263 -7.29663e-05 1.66399e-07
-7.29663e-05 2.09157e-05 3.79075e-08
1.66399e-07 3.79075e-08 -6.83087e-05
0.000961202 -5.63441e-05 -4.11082e-06
-5.63441e-05 2.02033e-05 1.50177e-06
-4.11082e-06 1.50177e-06 -5.34889e-05
0.000617985 -1.52805e-05 -6.36343e-06
-1.52805e-05 -6.96195e-05 4.24958e-06
-6.36343e-06 4.24958e-06 -0.000112177
0.000926953 -5.46797e-05 1.27146e-07
-5.46797e-05 3.39611e-05 4.36616e-08
1.27146e-07 4.36616e-08 -3.87612e-05
0.00100854 -7.60299e-05 1.46474e-06
-7.60299e-05 3.70068e-05 -2.59231e-07
1.46474e-06 -2.59231e-07 -5.12571e-05
0.00296112 8.33756e-05 -3.77515e-05
8.33756e-05 0.0011686 3.07314e-06
-3.77515e-05 3.07314e-06 0.00116722
0.000716365 8.98772e-06 -2.14703e-07
8.98772e-06 -2.13112e-05 -6.90244e-08
-2.14703e-07 -6.90244e-08 -5.96238e-05
0.000951117 -4.22774e-05 3.32277e-06
-4.22774e-05 6.75965e-05 -1.60809e-06
3.32277e-06 -1.60809e-06 -2.72673e-06
0.00285419 7.56062e-05 6.09915e-07
7.56062e-05 0.0011006 1.25837e-07
6.09915e-07 1.25837e-07 0.00110295
0.000754785 2.81511e-05 5.29651e-06
2.81511e-05 -7.1669e-06 -3.88488e-06
5.29651e-06 -3.88488e-06 -3.96918e-05
0.00274901 6.83497e-05 3.58043e-05
6.83497e-05 0.00103672 -3.40559e-06
3.58043e-05 -3.40559e-06 0.0010422
0.000659157 7.63149e-05 -1.12171e-07
7.63149e-05 -0.000140561 -2.46628e-07
-1.12171e-07 -2.46628e-07 -0.000240783
0.000751088 7.40991e-05 -1.12644e-08
7.40991e-05 -5.42043e-05 -9.38673e-08
-1.12644e-08 -9.38673e-08 -0.000147931
0.00111849 7.62233e-05 -1.43159e-06
7.62233e-05 0.000130683 -3.98648e-08
-1.43159e-06 -3.98648e-08 4.64649e-05
0.000949181 7.48989e-05 -1.93397e-08
7.48989e-05 6.76261e-05 -6.92223e-07
-1.93397e-08 -6.92223e-07 -1.97907e-05
0.000996867 6.27518e-05 -1.25966e-07
6.27518e-05 8.74844e-05 -1.51179e-07
-1.25966e-07 -1.51179e-07 8.20464e-06
0.000895762 1.71393e-05 -2.58525e-06
1.71393e-05 5.04968e-05 -9.82945e-07
-2.58525e-06 -9.82945e-07 -1.53946e-05
0.000949347 3.83868e-05 5.30438e-07
3.83868e-05 6.748e-05 -5.03129e-07
5.30438e-07 -5.03129e-07 -7.56333e-06
0.000837048 -4.30105e-07 7.66075e-08
-4.30105e-07 1.9623e-05 7.43863e-08
7.66075e-08 7.43863e-08 -4.15736e-05
0.000716695 -5.37841e-05 -2.30133e-06
-5.37841e-05 -2.52346e-05 -3.76692e-06
-2.30133e-06 -3.76692e-06 -5.27555e-05
0.000838268 -2.94839e-05 1.81298e-06
-2.94839e-05 1.54927e-05 2.04389e-06
1.81298e-06 2.04389e-06 -3.87348e-05
0.000708638 -4.68943e-05 -2.59977e-08
-4.68943e-05 -3.92416e-05 -6.1329e-08
-2.59977e-08 -6.1329e-08 -6.02556e-05
0.00256253 -6.15598e-05 -3.1932e-05
-6.15598e-05 0.000933588 -3.19098e-06
-3.1932e-05 -3.19098e-06 0.000942329
0.000718957 -3.76215e-05 3.40481e-06
-3.76215e-05 -4.43882e-05 3.59552e-06
3.40481e-06 3.59552e-06 -5.96735e-05
0.00242761 -5.51813e-05 -3.6737e-07
-5.51813e-05 0.000855669 7.27178e-08
-3.6737e-07 7.27178e-08 0.000867258
0.00236047 -4.95456e-05 2.56154e-05
-4.95456e-05 0.000812128 3.44093e-06
2.56154e-05 3.44093e-06 0.000826061
0.0014829 -3.26171e-05 6.82233e-06
-3.26171e-05 -0.00013786 2.48276e-06
6.82233e-06 2.48276e-06 -0.000201646
0.000978311 -5.81643e-05 1.20531e-06
-5.81643e-05 -0.000252443 1.51181e-06
1.20531e-06 1.51181e-06 -0.000291024
0.00174492 -8.61476e-05 5.54827e-05
-8.61476e-05 -0.000100586 1.70292e-05
5.54827e-05 1.70292e-05 -0.000326377
0.00191304 0.000119215 1.50675e-06
0.000119215 0.000383491 -1.89467e-06
1.50675e-06 -1.89467e-06 0.000284417
0.000835114 8.0204e-05 -1.05183e-06
8.0204e-05 -1.97997e-05 5.37893e-07
-1.05183e-06 5.37893e-07 -0.000103472
0.000721662 8.58235e-05 -2.6613e-06
8.58235e-05 -0.000240376 1.20245e-06
-2.6613e-06 1.20245e-06 -0.00034687
0.00137353 0.000104255 3.32413e-07
0.000104255 0.000174632 1.28312e-07
3.32413e-07 1.28312e-07 7.23431e-05
0.000493472 6.87164e-05 -2.26611e-06
6.87164e-05 -0.000171046 2.53863e-07
-2.26611e-06 2.53863e-07 -0.000264971
0.00185962 0.000111864 -2.35587e-06
0.000111864 0.000194994 -2.79305e-06
-2.35587e-06 -2.79305e-06 8.25332e-05
0.00126468 0.000100132 -6.18974e-07
0.000100132 0.000206826 -9.35668e-07
-6.18974e-07 -9.35668e-07 0.000120364
0.00150716 0.000121565 -1.36329e-07
0.000121565 0.000161089 3.76519e-07
-1.36329e-07 3.76519e-07 5.653e-05
0.00179365 4.93522e-05 1.9361e-06
4.93522e-05 6.51183e-05 2.42999e-06
1.9361e-06 2.42999e-06 -3.45361e-05
0.00147661 0.000132706 1.13991e-06
0.000132706 0.000144221 2.20713e-06
1.13991e-06 2.20713e-06 3.59199e-05
0.00164025 0.000118289 -1.05453e-06
0.000118289 3.84182e-05 -7.45179e-07
-1.05453e-06 -7.45179e-07 -7.89295e-05
0.00180222 3.54868e-05 -1.28671e-07
3.54868e-05 7.22769e-06 1.12234e-07
-1.28671e-07 1.12234e-07 -7.93462e-05
0.00184247 0.000121201 1.01796e-06
0.000121201 0.000102343 -1.25542e-06
1.01796e-06 -1.25542e-06 -1.34922e-05
0.0013129 8.6593e-06 -3.47006e-06
8.6593e-06 -7.11171e-05 -7.41209e-06
-3.47006e-06 -7.41209e-06 -8.62726e-05
0.00159412 8.08761e-07 2.08489e-06
8.08761e-07 2.28963e-05 -2.8698e-06
2.08489e-06 -2.8698e-06 -4.33261e-05
0.00166223 -7.2944e-07 6.45995e-08
-7.2944e-07 9.45521e-05 -5.33034e-07
6.45995e-08 -5.33034e-07 3.62426e-05
0.000467759 -1.59776e-05 -3.09713e-06
-1.59776e-05 -0.000399095 3.58848e-06
-3.09713e-06 3.58848e-06 -0.000498125
0.00119326 4.33296e-05 4.78246e-07
4.33296e-05 -0.00028527 2.58956e-06
4.78246e-07 2.58956e-06 -0.000361311
0.00215184 5.42662e-05 9.90579e-06
5.42662e-05 0.000215019 4.97448e-06
9.90579e-06 4.97448e-06 0.000124952
0.00157366 2.59846e-05 -3.22136e-06
2.59846e-05 -2.23889e-05 5.82745e-07
-3.22136e-06 5.82745e-07 -0.000113295
0.00178905 3.30856e-05 4.35632e-07
3.30856e-05 7.26356e-05 2.57428e-06
4.35632e-07 2.57428e-06 -7.01173e-06
0.00183884 2.38841e-05 2.64285e-07
2.38841e-05 0.000134957 -1.56933e-06
2.64285e-07 -1.56933e-06 4.73269e-05
0.00185854 -2.02363e-06 -3.89286e-06
-2.02363e-06 0.000110331 1.61539e-06
-3.89286e-06 1.61539e-06 1.60562e-05
0.00172447 4.27563e-06 -1.69467e-07
4.27563e-06 8.58162e-05 -8.52725e-08
-1.69467e-07 -8.52725e-08 -1.35181e-05
0.00158169 8.93621e-06 -3.09248e-07
8.93621e-06 3.17667e-05 -1.776e-06
-3.09248e-07 -1.776e-06 -6.51029e-05
0.0017618 -3.68846e-05 1.14752e-07
-3.68846e-05 0.000110791 -1.48909e-06
1.14752e-07 -1.48909e-06 2.15309e-05
0.00163432 -2.8798e-05 4.82349e-08
-2.8798e-05 6.79435e-05 8.44738e-07
4.82349e-08 8.44738e-07 -2.80021e-05
0.00158846 -2.96382e-05 -1.08405e-06
-2.96382e-05 6.47201e-05 -4.78902e-07
-1.08405e-06 -4.78902e-07 -3.27545e-05
0.0016317 -6.40272e-05 4.73693e-07
-6.40272e-05 0.000100107 -1.20381e-06
4.73693e-07 -1.20381e-06 1.06709e-05
0.00153607 -6.46274e-05 2.62873e-07
-6.46274e-05 7.5689e-05 3.34832e-07
2.62873e-07 3.34832e-07 -1.98007e-05
0.00147152 -6.61106e-05 -1.44366e-06
-6.61106e-05 7.42418e-05 5.49958e-07
-1.44366e-06 5.49958e-07 -2.31046e-05
0.00144512 -7.69767e-05 -1.03952e-07
-7.69767e-05 8.02052e-05 -9.22222e-07
-1.03952e-07 -9.22222e-07 -1.12706e-05
0.00138993 -7.55724e-05 4.74748e-08
-7.55724e-05 7.90779e-05 -2.84636e-07
4.74748e-08 -2.84636e-07 -1.5561e-05
0.00127659 -6.93774e-05 -2.81999e-06
-6.93774e-05 6.02701e-05 6.15375e-07
-2.81999e-06 6.15375e-07 -3.0897e-05
0.00113167 -7.26142e-05 1.04163e-06
-7.26142e-05 -1.54449e-05 1.06517e-07
1.04163e-06 1.06517e-07 -0.00010779
0.00121008 -7.13502e-05 1.56795e-08
-7.13502e-05 6.23082e-05 -7.90131e-08
1.56795e-08 -7.90131e-08 -2.62772e-05
0.0010186 -5.53565e-05 -4.88289e-06
-5.53565e-05 1.85437e-05 1.66108e-06
-4.88289e-06 1.66108e-06 -5.6057e-05
0.000868874 -6.67002e-05 2.44135e-06
-6.67002e-05 -7.66579e-05 -3.5247e-07
2.44135e-06 -3.5247e-07 -0.0001659
0.000971694 -5.71187e-05 1.67372e-07
-5.71187e-05 2.58882e-05 -4.57348e-09
1.67372e-07 -4.57348e-09 -4.79702e-05
0.00165452 -9.99032e-07 -7.55367e-06
-9.99032e-07 0.000469519 2.6743e-06
-7.55367e-06 2.6743e-06 0.000428953
0.001082 3.76407e-05 -3.94019e-05
3.76407e-05 0.000198252 6.44711e-06
-3.94019e-05 6.44711e-06 0.000181256
0.00122274 -4.77921e-06 -1.41108e-06
-4.77921e-06 0.000241687 -3.46435e-08
-1.41108e-06 -3.46435e-08 0.000201758
0.000965598 -5.69351e-05 3.69368e-06
-5.69351e-05 5.39724e-05 -1.34829e-06
3.69368e-06 -1.34829e-06 -1.90278e-05
0.00300844 8.25613e-05 1.08693e-06
8.25613e-05 0.00119626 1.81731e-07
1.08693e-06 1.81731e-07 0.00119407
0.000778924 -2.69259e-06 6.4412e-06
-2.69259e-06 5.25235e-06 -3.90678e-06
6.4412e-06 -3.90678e-06 -3.19894e-05
0.00284762 7.38961e-05 3.90281e-05
7.38961e-05 0.00109951 -3.3103e-06
3.90281e-05 -3.3103e-06 0.0011014
0.00118792 9.04111e-05 -4.83274e-07
9.04111e-05 -4.77089e-05 7.94664e-07
-4.83274e-07 7.94664e-07 -0.000144293
0.00079734 8.3821e-05 1.68614e-06
8.3821e-05 -0.000122071 1.31582e-06
1.68614e-06 1.31582e-06 -0.000225431
0.000820274 8.26619e-05 -1.71324e-07
8.26619e-05 -6.47238e-05 -9.12734e-08
-1.71324e-07 -9.12734e-08 -0.000166115
0.00113536 8.19738e-05 -1.59059e-06
8.19738e-05 0.000113989 -2.55909e-07
-1.59059e-06 -2.55909e-07 2.57402e-05
0.000603409 6.86907e-05 -7.53467e-08
6.86907e-05 -0.000131276 1.56984e-07
-7.53467e-08 1.56984e-07 -0.000225542
0.0010298 7.17208e-05 -2.52986e-07
7.17208e-05 8.69032e-05 -6.29148e-08
-2.52986e-07 -6.29148e-08 3.17708e-06
0.000941712 3.45703e-05 -2.95458e-06
3.45703e-05 6.90766e-05 -7.1893e-07
-2.95458e-06 -7.1893e-07 6.84276e-07
0.000927334 5.92681e-05 1.01046e-06
5.92681e-05 5.27834e-05 -1.484e-07
1.01046e-06 -1.484e-07 -2.61529e-05
0.000841654 1.37344e-05 4.93734e-08
1.37344e-05 2.40273e-05 1.6502e-07
4.93734e-08 1.6502e-07 -4.17427e-05
0.000735664 -3.42507e-05 -4.59116e-06
-3.42507e-05 -1.26097e-05 -3.53342e-06
-4.59116e-06 -3.53342e-06 -4.46163e-05
0.00085187 -1.22999e-05 1.87511e-06
-1.22999e-05 2.93298e-05 1.39692e-06
1.87511e-06 1.39692e-06 -3.19974e-05
0.000674175 -5.25489e-05 -4.21712e-08
-5.25489e-05 -4.78824e-05 -9.27402e-08
-4.21712e-08 -9.27402e-08 -7.49804e-05
0.00267227 -6.8119e-05 -3.43754e-05
-6.8119e-05 0.000998323 -3.17825e-06
-3.43754e-05 -3.17825e-06 0.0010041
0.000681995 -4.45673e-05 3.35207e-06
-4.45673e-05 -5.43752e-05 3.67886e-06
3.35207e-06 3.67886e-06 -7.4725e-05
0.00254575 -6.16423e-05 -3.62532e-07
-6.16423e-05 0.000924176 8.55207e-08
-3.62532e-07 8.55207e-08 0.000933239
0.00241837 -5.51573e-05 2.75379e-05
-5.51573e-05 0.000849809 3.26455e-06
2.75379e-05 3.26455e-06 0.000861706
0.00165552 -1.29105e-05 4.12577e-06
-1.29105e-05 1.94159e-05 3.97223e-06
4.12577e-06 3.97223e-06 -6.19021e-05
0.00200076 -3.34402e-05 -1.01373e-06
-3.34402e-05 0.000157568 -1.07706e-06
-1.01373e-06 -1.07706e-06 9.63145e-05
0.00193961 -8.50488e-05 3.15918e-06
-8.50488e-05 0.000188726 -4.11744e-07
3.15918e-06 -4.11744e-07 0.000140362
0.0015983 0.000100436 -4.8869e-06
0.000100436 8.81382e-05 -2.02318e-06
-4.8869e-06 -2.02318e-06 -1.84482e-05
0.00161729 0.000109992 -2.55388e-07
0.000109992 0.000254561 4.76704e-07
-2.55388e-07 4.76704e-07 0.00015891
0.000789051 8.1124e-05 -6.24879e-06
8.1124e-05 -2.99144e-05 -6.31824e-08
-6.24879e-06 -6.31824e-08 -0.000109154
0.00139748 0.000105198 1.6058e-06
0.000105198 9.50446e-05 1.31715e-06
1.6058e-06 1.31715e-06 -9.53553e-06
0.00138961 0.000104922 -2.53242e-06
0.000104922 0.000181818 1.91599e-07
-2.53242e-06 1.91599e-07 7.87285e-05
0.00190527 4.88582e-05 1.09873e-06
4.88582e-05 0.000138134 2.01198e-06
1.09873e-06 2.01198e-06 3.31461e-05
0.00172177 0.000110308 -2.1125e-06
0.000110308 0.000121679 -1.48285e-06
-2.1125e-06 -1.48285e-06 6.35941e-06
0.00147593 0.000119394 1.49025e-06
0.000119394 0.000140268 4.26388e-06
1.49025e-06 4.26388e-06 3.50882e-05
0.00179401 4.83804e-05 -3.5948e-07
4.83804e-05 6.62604e-05 -1.16107e-07
-3.5948e-07 -1.16107e-07 -3.39683e-05
0.00193125 0.000127333 1.94268e-06
0.000127333 0.000173931 -1.50583e-06
1.94268e-06 -1.50583e-06 5.53716e-05
0.00188549 3.91029e-05 -4.53253e-06
3.91029e-05 5.07011e-05 -4.04767e-06
-4.53253e-06 -4.04767e-06 -3.74609e-05
0.00177161 -3.16819e-07 1.22585e-06
-3.16819e-07 0.000107583 -1.01873e-07
1.22585e-06 -1.01873e-07 2.47915e-05
0.00164658 7.19161e-07 -1.23831e-06
7.19161e-07 3.67675e-05 -1.32589e-06
-1.23831e-06 -1.32589e-06 -3.09747e-05
0.00125964 -2.80591e-06 -2.98806e-07
-2.80591e-06 -0.000111498 3.7601e-06
-2.98806e-07 3.7601e-06 -0.000167771
0.00140918 2.48623e-05 -1.66357e-06
2.48623e-05 -0.000108474 2.3779e-06
-1.66357e-06 2.3779e-06 -0.000198781
0.00197116 3.30821e-05 4.88376e-06
3.30821e-05 0.000160542 8.06727e-06
4.88376e-06 8.06727e-06 7.80947e-05
0.00179536 2.37757e-05 -5.17665e-07
2.37757e-05 0.000115617 -4.1684e-07
-5.17665e-07 -4.1684e-07 2.76068e-05
0.00169806 2.13534e-05 1.54548e-06
2.13534e-05 9.08399e-05 -1.12798e-06
1.54548e-06 -1.12798e-06 -6.89878e-06
0.00182271 4.90619e-06 1.40391e-06
4.90619e-06 0.000134915 1.1575e-06
1.40391e-06 1.1575e-06 3.55435e-05
0.00162399 7.37909e-06 -5.09062e-07
7.37909e-06 5.43885e-05 1.05373e-07
-5.09062e-07 1.05373e-07 -4.27943e-05
0.00164485 2.48361e-06 -1.59241e-06
2.48361e-06 8.35121e-05 -1.09214e-06
-1.59241e-06 -1.09214e-06 -1.58846e-05
0.00169194 -2.98378e-05 9.96311e-07
-2.98378e-05 9.44992e-05 1.44348e-06
9.96311e-07 1.44348e-06 -1.47119e-06
0.00161145 -3.00477e-05 6.71666e-08
-3.00477e-05 7.55878e-05 3.42933e-07
6.71666e-08 3.42933e-07 -2.18878e-05
0.00155119 -3.7987e-05 -2.0059e-06
-3.7987e-05 7.74719e-05 -5.73725e-07
-2.0059e-06 -5.73725e-07 -1.98162e-05
0.00157022 -6.38819e-05 1.14343e-06
-6.38819e-05 9.1831e-05 -1.77102e-07
1.14343e-06 -1.77102e-07 -3.71634e-06
0.00147962 -6.56337e-05 1.4866e-07
-6.56337e-05 7.7796e-05 3.45859e-07
1.4866e-07 3.45859e-07 -1.95789e-05
0.00136188 -6.21839e-05 -3.12179e-06
-6.21839e-05 6.24672e-05 7.78972e-07
-3.12179e-06 7.78972e-07 -3.12646e-05
0.00139403 -7.51077e-05 1.19927e-06
-7.51077e-05 8.06439e-05 -6.89676e-07
1.19927e-06 -6.89676e-07 -1.39251e-05
0.00128199 -6.89478e-05 4.52971e-08
-6.89478e-05 6.25104e-05 -1.39354e-07
4.52971e-08 -1.39354e-07 -2.85881e-05
0.00107131 -5.3699e-05 -5.57264e-06
-5.3699e-05 1.50903e-05 1.95123e-06
-5.57264e-06 1.95123e-06 -6.20273e-05
0.00120146 -7.05713e-05 2.54331e-06
-7.05713e-05 5.79138e-05 -4.38589e-07
2.54331e-06 -4.38589e-07 -3.05281e-05
0.00102182 -5.54117e-05 2.24761e-07
-5.54117e-05 1.99088e-05 -8.4208e-08
2.24761e-07 -8.4208e-08 -5.47831e-05
0.00173551 -4.82004e-06 -7.51063e-06
-4.82004e-06 0.00050182 2.88791e-06
-7.51063e-06 2.88791e-06 0.000459913
0.000988443 -5.82164e-05 4.19483e-06
-5.82164e-05 3.48695e-05 -1.3477e-06
4.19483e-06 -1.3477e-06 -3.9194e-05
0.0018139 -1.09895e-05 1.1229e-05
-1.09895e-05 0.000545567 -9.42661e-07
1.1229e-05 -9.42661e-07 0.000505692
0.00119455 1.91152e-05 -5.22656e-05
1.91152e-05 0.000270899 6.58363e-06
-5.22656e-05 6.58363e-06 0.000250898
0.00213718 5.67368e-05 -3.62812e-05
5.67368e-05 0.000754153 1.36967e-06
-3.62812e-05 1.36967e-06 0.000742843
0.00186062 -6.75499e-06 2.57504e-05
-6.75499e-06 0.000568547 -3.171e-06
2.57504e-05 -3.171e-06 0.00053288
0.00304034 7.72577e-05 4.54829e-05
7.72577e-05 0.00121524 -3.19023e-06
4.54829e-05 -3.19023e-06 0.00121286
0.00156895 9.06637e-05 -3.21128e-06
9.06637e-05 6.8968e-05 -2.21571e-06
-3.21128e-06 -2.21571e-06 -3.23803e-05
0.00147526 9.93529e-05 3.12921e-06
9.93529e-05 0.000161864 7.86429e-07
3.12921e-06 7.86429e-07 6.43258e-05
0.00121835 9.21418e-05 1.40686e-06
9.21418e-05 -2.13346e-05 8.39151e-07
1.40686e-06 8.39151e-07 -0.000111281
0.00114948 8.68026e-05 -1.6863e-06
8.68026e-05 8.77282e-05 -5.74007e-07
-1.6863e-06 -5.74007e-07 -5.51759e-06
0.00114238 9.65625e-05 -5.21576e-07
9.65625e-05 4.83831e-05 2.69149e-07
-5.21576e-07 2.69149e-07 -5.56608e-05
0.000991104 8.96537e-05 1.20585e-07
8.96537e-05 1.57235e-05 2.26642e-07
1.20585e-07 2.26642e-07 -8.6849e-05
0.00108427 7.99797e-05 -1.30189e-07
7.99797e-05 9.07268e-05 -1.38542e-07
-1.30189e-07 -1.38542e-07 2.37119e-06
0.000976413 5.21588e-05 -2.97352e-06
5.21588e-05 7.23611e-05 -8.46932e-07
-2.97352e-06 -8.46932e-07 1.17842e-06
0.000939267 6.7181e-05 8.61727e-07
6.7181e-05 4.21417e-05 -1.25492e-07
8.61727e-07 -1.25492e-07 -4.10855e-05
0.000865979 2.93958e-05 -2.05876e-07
2.93958e-05 3.06835e-05 6.81849e-08
-2.05876e-07 6.81849e-08 -3.74548e-05
0.000762105 -1.60023e-05 -5.53232e-06
-1.60023e-05 2.56177e-06 -3.38621e-06
-5.53232e-06 -3.38621e-06 -3.44118e-05
0.00078384 7.98118e-06 1.99801e-06
7.98118e-06 -3.98542e-06 9.90567e-07
1.99801e-06 9.90567e-07 -6.99354e-05
0.000673357 -4.87101e-05 -2.73667e-07
-4.87101e-05 -4.24418e-05 -5.27532e-08
-2.73667e-07 -5.27532e-08 -7.51531e-05
0.00278537 -7.48271e-05 -3.73113e-05
-7.48271e-05 0.00106877 -3.10131e-06
-3.73113e-05 -3.10131e-06 0.00107078
0.000627508 -5.09122e-05 2.75812e-06
-5.09122e-05 -7.27551e-05 3.86107e-06
2.75812e-06 3.86107e-06 -9.93614e-05
0.00267837 -6.86752e-05 -4.30371e-07
-6.86752e-05 0.00100035 1.06061e-07
-4.30371e-07 1.06061e-07 0.0010065
0.00253061 -6.15781e-05 2.98333e-05
-6.15781e-05 0.000915432 3.10691e-06
2.98333e-05 3.10691e-06 0.000924859
0.00176544 -8.48096e-06 1.8612e-06
-8.48096e-06 7.2247e-05 2.21709e-06
1.8612e-06 2.21709e-06 -2.01887e-05
0.00169381 -1.24046e-05 6.2738e-07
-1.24046e-05 3.53543e-05 1.14626e-06
6.2738e-07 1.14626e-06 -4.61607e-05
0.00244683 -3.41909e-05 -1.05673e-05
-3.41909e-05 0.000418081 -3.3857e-06
-1.05673e-05 -3.3857e-06 0.000358996
0.00164991 5.13463e-05 2.20498e-08
5.13463e-05 3.08953e-05 1.43656e-06
2.20498e-08 1.43656e-06 -7.32679e-05
0.00167498 0.000102478 2.53031e-07
0.000102478 0.000128639 -9.6237e-07
2.53031e-07 -9.6237e-07 2.21656e-05
0.00138269 0.000102515 -2.45287e-06
0.000102515 0.000155321 1.49216e-06
-2.45287e-06 1.49216e-06 6.31612e-05
0.00201252 0.000122733 1.70302e-06
0.000122733 0.000399627 1.87961e-08
1.70302e-06 1.87961e-08 0.000297093
0.00192464 5.11478e-05 -5.00307e-07
5.11478e-05 0.00014622 -2.55076e-07
-5.00307e-07 -2.55076e-07 4.08064e-05
0.00156793 0.000107747 1.06459e-06
0.000107747 4.0573e-05 -3.53148e-07
1.06459e-06 -3.53148e-07 -7.7519e-05
0.00171899 4.76504e-05 -1.04819e-06
4.76504e-05 3.19076e-05 -2.6343e-06
-1.04819e-06 -2.6343e-06 -6.91378e-05
0.00176016 -1.29238e-06 2.91102e-06
-1.29238e-06 9.9079e-05 4.44424e-07
2.91102e-06 4.44424e-07 4.38511e-06
0.00166831 2.25725e-07 6.54787e-08
2.25725e-07 5.19465e-05 -6.05005e-07
6.54787e-08 -6.05005e-07 -3.28714e-05
0.00172953 1.77473e-06 -3.08022e-06
1.77473e-06 6.71767e-05 1.1289e-06
-3.08022e-06 1.1289e-06 -2.28278e-06
0.00166675 2.4097e-05 1.36626e-06
2.4097e-05 7.83202e-05 -2.86506e-07
1.36626e-06 -2.86506e-07 -2.46147e-05
0.00172825 2.34434e-05 -1.26569e-06
2.34434e-05 8.56223e-05 1.95458e-06
-1.26569e-06 1.95458e-06 -2.96352e-06
0.00172256 2.1864e-05 1.37474e-08
2.1864e-05 0.000104368 2.56613e-07
1.37474e-08 2.56613e-07 6.8379e-06
0.00165775 1.69112e-05 8.53163e-07
1.69112e-05 9.23815e-05 -1.25675e-06
8.53163e-07 -1.25675e-06 -9.30275e-06
0.00169672 6.08374e-06 3.79837e-07
6.08374e-06 9.21457e-05 1.88177e-06
3.79837e-07 1.88177e-06 -5.33489e-06
0.00164638 2.84623e-06 -6.09035e-07
2.84623e-06 8.46724e-05 1.68926e-07
-6.09035e-07 1.68926e-07 -1.4681e-05
0.00159234 -4.07704e-06 -2.69836e-06
-4.07704e-06 8.66898e-05 -5.19543e-07
-2.69836e-06 -5.19543e-07 -1.14715e-05
0.00163668 -2.98251e-05 1.64158e-06
-2.98251e-05 8.75719e-05 1.1656e-06
1.64158e-06 1.1656e-06 -9.89641e-06
0.00154971 -3.64149e-05 1.5907e-08
-3.64149e-05 7.66777e-05 1.61304e-07
1.5907e-08 1.61304e-07 -2.06507e-05
0.001434 -4.39001e-05 -3.55932e-06
-4.39001e-05 6.62339e-05 -8.27211e-08
-3.55932e-06 -8.27211e-08 -2.74558e-05
0.00149199 -6.51583e-05 2.05758e-06
-6.51583e-05 8.3445e-05 1.27509e-07
2.05758e-06 1.27509e-07 -1.3948e-05
0.00136314 -6.16644e-05 1.01967e-07
-6.16644e-05 6.28119e-05 2.85929e-07
1.01967e-07 2.85929e-07 -3.08988e-05
0.00113885 -4.93124e-05 -6.32111e-06
-4.93124e-05 1.79917e-05 1.982e-06
-6.32111e-06 1.982e-06 -6.19254e-05
0.00128755 -6.84755e-05 2.88246e-06
-6.84755e-05 6.48561e-05 -8.64377e-07
2.88246e-06 -8.64377e-07 -2.61738e-05
0.0010818 -5.32715e-05 3.07052e-07
-5.32715e-05 1.9247e-05 -8.53043e-08
3.07052e-07 -8.53043e-08 -5.78975e-05
0.00184065 -2.12362e-06 -7.26867e-06
-2.12362e-06 0.00054199 2.86529e-06
-7.26867e-06 2.86529e-06 0.000499686
0.00102572 -5.5448e-05 4.80554e-06
-5.5448e-05 2.18088e-05 -1.65419e-06
4.80554e-06 -1.65419e-06 -5.29977e-05
0.00190988 -1.77744e-05 1.30185e-05
-1.77744e-05 0.000585667 -9.0801e-07
1.30185e-05 -9.0801e-07 0.000544764
0.00125385 6.45313e-06 -5.78081e-05
6.45313e-06 0.000306802 6.29046e-06
-5.78081e-05 6.29046e-06 0.000285698
0.00196203 -2.34033e-05 3.17628e-05
-2.34033e-05 0.000615173 -5.02175e-06
3.17628e-05 -5.02175e-06 0.000576373
0.00119894 3.78568e-05 -2.32421e-05
3.78568e-05 0.000279019 2.16413e-06
-2.32421e-05 2.16413e-06 0.000256395
0.00310502 0.000104573 1.30614e-05
0.000104573 0.00126862 -1.3607e-06
1.30614e-05 -1.3607e-06 0.00125901
0.00192159 6.50655e-05 -1.3163e-06
6.50655e-05 0.00020841 -6.88818e-07
-1.3163e-06 -6.88818e-07 0.000102926
0.00157365 8.85036e-05 -6.20061e-07
8.85036e-05 0.000120009 -2.07869e-06
-6.20061e-07 -2.07869e-06 2.13735e-05
0.00166194 9.44573e-05 -2.4074e-06
9.44573e-05 0.000126541 1.40645e-06
-2.4074e-06 1.40645e-06 2.6173e-05
0.00152975 9.56503e-05 -1.13724e-06
9.56503e-05 0.000231184 2.27152e-07
-1.13724e-06 2.27152e-07 0.000138073
0.00132421 9.67906e-05 5.18431e-07
9.67906e-05 8.29513e-05 -1.28135e-06
5.18431e-07 -1.28135e-06 -1.41063e-05
0.00132206 9.57063e-05 2.85469e-06
9.57063e-05 4.18328e-05 8.8923e-07
2.85469e-06 8.8923e-07 -4.16389e-05
0.0010094 6.42914e-05 -3.59079e-06
6.42914e-05 6.09134e-05 -1.48826e-06
-3.59079e-06 -1.48826e-06 -1.54132e-05
0.00114414 8.68842e-05 -1.16491e-07
8.68842e-05 8.54867e-05 -8.58834e-08
-1.16491e-07 -8.58834e-08 -7.9488e-06
0.00147612 0.00010869 1.62117e-06
0.00010869 0.000213638 4.93274e-07
1.62117e-06 4.93274e-07 0.000108878
0.00101912 7.74257e-05 1.17896e-06
7.74257e-05 6.03294e-05 -1.02525e-07
1.17896e-06 -1.02525e-07 -2.8088e-05
0.000912435 4.94541e-05 -1.49433e-07
4.94541e-05 4.02763e-05 -1.42837e-07
-1.49433e-07 -1.42837e-07 -3.06259e-05
0.000789881 1.59688e-05 -6.61486e-06
1.59688e-05 1.67871e-05 -3.69087e-06
-6.61486e-06 -3.69087e-06 -2.49472e-05
0.000778088 2.66392e-05 2.11433e-06
2.66392e-05 -1.46607e-05 5.75023e-07
2.11433e-06 5.75023e-07 -8.21505e-05
0.0007002 -1.62045e-05 1.69003e-08
-1.62045e-05 -2.558e-05 -5.20643e-08
1.69003e-08 -5.20643e-08 -6.28327e-05
0.00293242 -8.0679e-05 -4.20845e-05
-8.0679e-05 0.00116183 -2.87331e-06
-4.20845e-05 -2.87331e-06 0.00115943
0.000604882 -5.48047e-05 2.34352e-06
-5.48047e-05 -7.5404e-05 3.94705e-06
2.34352e-06 3.94705e-06 -0.000108883
0.00278415 -7.57419e-05 -6.32355e-07
-7.57419e-05 0.00106573 1.32838e-07
-6.32355e-07 1.32838e-07 0.00106831
0.00267583 -6.89467e-05 3.22118e-05
-6.89467e-05 0.000997882 2.99332e-06
3.22118e-05 2.99332e-06 0.00100445
0.00180756 3.76718e-06 5.118e-07
3.76718e-06 9.38082e-05 5.20161e-07
5.118e-07 5.20161e-07 -2.08001e-06
0.00178086 -7.13304e-06 -1.57251e-07
-7.13304e-06 7.31114e-05 8.92154e-07
-1.57251e-07 8.92154e-07 -2.07738e-05
0.00180187 -1.24511e-05 -3.11583e-06
-1.24511e-05 8.46751e-05 -1.70541e-06
-3.11583e-06 -1.70541e-06 3.15212e-06
0.00173509 5.27957e-05 9.33283e-07
5.27957e-05 7.05391e-05 -1.45945e-07
9.33283e-07 -1.45945e-07 -3.21159e-05
0.00176615 0.000105199 1.05414e-06
0.000105199 0.000176747 -5.87504e-07
1.05414e-06 -5.87504e-07 7.02841e-05
0.00189472 5.2607e-05 -5.15793e-07
5.2607e-05 0.000129963 -2.02796e-06
-5.15793e-07 -2.02796e-06 2.41323e-05
0.00173706 2.5076e-06 8.5199e-07
2.5076e-06 8.68937e-05 5.27963e-07
8.5199e-07 5.27963e-07 -1.42734e-05
0.00173406 2.46979e-06 3.49756e-07
2.46979e-06 8.65089e-05 -4.70765e-07
3.49756e-07 -4.70765e-07 -9.06532e-06
0.00161198 6.84182e-07 -2.27411e-06
6.84182e-07 1.92272e-05 -3.77453e-07
-2.27411e-06 -3.77453e-07 -6.75313e-05
0.0016778 1.54473e-05 -7.14246e-07
1.54473e-05 8.30692e-05 -3.26112e-07
-7.14246e-07 -3.26112e-07 -1.82576e-05
0.00175576 1.23957e-05 1.57721e-06
1.23957e-05 0.000137162 -2.11559e-07
1.57721e-06 -2.11559e-07 3.24225e-05
0.00173353 2.23271e-05 -1.05482e-06
2.23271e-05 0.000111009 9.42179e-07
-1.05482e-06 9.42179e-07 1.37037e-05
0.00171775 1.73331e-05 4.23174e-07
1.73331e-05 0.000123513 -1.57887e-07
4.23174e-07 -1.57887e-07 2.18156e-05
0.00151853 1.09802e-05 -3.08007e-08
1.09802e-05 4.71466e-05 -7.33517e-07
-3.08007e-08 -7.33517e-07 -5.44716e-05
0.00164621 2.53729e-06 4.64177e-07
2.53729e-06 8.5022e-05 1.4322e-06
4.64177e-07 1.4322e-06 -1.42994e-05
0.00157809 -4.86913e-06 -8.90414e-07
-4.86913e-06 8.00394e-05 3.07282e-07
-8.90414e-07 3.07282e-07 -1.82237e-05
0.00147015 -1.31757e-05 -4.21965e-06
-1.31757e-05 7.10404e-05 -1.09918e-07
-4.21965e-06 -1.09918e-07 -2.31213e-05
0.00154962 -3.63663e-05 2.0945e-06
-3.63663e-05 7.64786e-05 8.83088e-07
2.0945e-06 8.83088e-07 -2.08974e-05
0.0014285 -4.29149e-05 8.48213e-08
-4.29149e-05 6.33108e-05 1.283e-07
8.48213e-08 1.283e-07 -3.03565e-05
0.00117477 -3.6257e-05 -6.86672e-06
-3.6257e-05 1.12934e-05 1.17756e-06
-6.86672e-06 1.17756e-06 -6.90097e-05
0.00136476 -6.10905e-05 3.45007e-06
-6.10905e-05 6.33288e-05 -2.05401e-07
3.45007e-06 -2.05401e-07 -3.03583e-05
0.00114117 -4.81256e-05 2.91262e-07
-4.81256e-05 1.78085e-05 2.10734e-07
2.91262e-07 2.10734e-07 -6.2012e-05
0.00199881 -9.68616e-06 -1.03287e-05
-9.68616e-06 0.000601093 2.26793e-06
-1.03287e-05 2.26793e-06 0.000560475
0.00108663 -5.28189e-05 5.64682e-06
-5.28189e-05 2.06325e-05 -2.02345e-06
5.64682e-06 -2.02345e-06 -5.65515e-05
0.00201408 -2.32693e-05 1.34749e-05
-2.32693e-05 0.000624358 -9.16232e-07
1.34749e-05 -9.16232e-07 0.00058389
0.0013363 3.36037e-06 -6.14907e-05
3.36037e-06 0.0003469 5.69059e-06
-6.14907e-05 5.69059e-06 0.000325086
0.00207384 -3.31493e-05 3.49606e-05
-3.31493e-05 0.000663183 -4.99788e-06
3.49606e-05 -4.99788e-06 0.000623632
0.00126136 3.44718e-05 -2.63316e-05
3.44718e-05 0.000317522 1.95534e-06
-2.63316e-05 1.95534e-06 0.000292935
0.00122264 6.18414e-05 6.51303e-06
6.18414e-05 0.000298017 -2.22851e-06
6.51303e-06 -2.22851e-06 0.000272109
0.00160787 1.87576e-05 -3.64075e-07
1.87576e-05 2.09197e-05 1.23863e-06
-3.64075e-07 1.23863e-06 -7.72106e-05
0.00162062 6.59621e-05 -2.31438e-06
6.59621e-05 9.47839e-05 -4.5082e-07
-2.31438e-06 -4.5082e-07 -7.56735e-06
0.0017769 6.30851e-05 -1.63473e-06
6.30851e-05 0.000132854 -1.04319e-06
-1.63473e-06 -1.04319e-06 2.69263e-05
0.00152287 8.62633e-05 -2.42183e-06
8.62633e-05 0.000157501 -6.14024e-07
-2.42183e-06 -6.14024e-07 6.37167e-05
0.00168436 9.16025e-05 1.03743e-06
9.16025e-05 0.000180735 7.40804e-07
1.03743e-06 7.40804e-07 8.2546e-05
0.00170561 9.69601e-05 3.93199e-06
9.69601e-05 0.000159738 2.45461e-06
3.93199e-06 2.45461e-06 6.04184e-05
0.000968662 6.621e-05 -4.56096e-06
6.621e-05 -3.5073e-06 -1.49471e-06
-4.56096e-06 -1.49471e-06 -8.27024e-05
0.00120179 8.73498e-05 1.3793e-06
8.73498e-05 6.10387e-05 7.93969e-07
1.3793e-06 7.93969e-07 -3.32051e-05
0.00116173 9.39629e-05 9.55717e-07
9.39629e-05 -2.22158e-06 6.76913e-07
9.55717e-07 6.76913e-07 -9.87045e-05
0.000797049 3.95615e-05 -8.3256e-06
3.95615e-05 1.58213e-05 -4.45372e-06
-8.3256e-06 -4.45372e-06 -3.09713e-05
0.000963091 6.14851e-05 -2.96169e-07
6.14851e-05 3.74592e-05 -1.96117e-07
-2.96169e-07 -1.96117e-07 -3.84887e-05
0.00114512 8.72153e-05 1.81344e-06
8.72153e-05 8.64923e-05 5.13936e-07
1.81344e-06 5.13936e-07 -7.15734e-06
0.000856123 4.63809e-05 2.624e-06
4.63809e-05 1.21169e-05 5.94519e-07
2.624e-06 5.94519e-07 -5.85037e-05
0.00071511 1.18438e-05 -1.35288e-08
1.18438e-05 -1.57745e-05 -2.08e-08
-1.35288e-08 -2.08e-08 -5.78615e-05
0.00318117 -7.05398e-05 -5.28066e-05
-7.05398e-05 0.00130763 -3.15794e-06
-5.28066e-05 -3.15794e-06 0.00130188
0.000654876 -2.70262e-05 3.44992e-06
-2.70262e-05 -4.45255e-05 3.75645e-06
3.44992e-06 3.75645e-06 -8.22617e-05
0.0029137 -8.34697e-05 -1.00624e-06
-8.34697e-05 0.00114901 1.75738e-07
-1.00624e-06 1.75738e-07 0.00114704
0.00280971 -7.6605e-05 3.46957e-05
-7.6605e-05 0.00107627 2.92843e-06
3.46957e-05 2.92843e-06 0.00107943
0.00179714 -5.01681e-06 -3.76248e-08
-5.01681e-06 0.000102472 -5.48302e-07
-3.76248e-08 -5.48302e-07 6.65982e-06
0.00183026 3.08898e-06 -2.76853e-07
3.08898e-06 0.000105861 1.51628e-07
-2.76853e-07 1.51628e-07 9.74928e-06
0.00177918 -5.31898e-06 -2.44064e-06
-5.31898e-06 6.59258e-05 -1.33696e-06
-2.44064e-06 -1.33696e-06 -2.94693e-05
0.00182638 5.40235e-05 3.18908e-07
5.40235e-05 0.000113289 -1.17917e-06
3.18908e-07 -1.17917e-06 1.21533e-05
0.00182057 -3.40934e-06 6.69012e-07
-3.40934e-06 0.000136352 -1.10575e-06
6.69012e-07 -1.10575e-06 3.24749e-05
0.00181754 2.20287e-06 -2.29536e-07
2.20287e-06 0.000126774 -2.82255e-07
-2.29536e-07 -2.82255e-07 2.58934e-05
0.00169642 6.0974e-06 -2.34673e-06
6.0974e-06 6.82378e-05 2.41709e-08
-2.34673e-06 2.41709e-08 -2.82322e-05
0.00171602 1.03226e-05 -2.69091e-06
1.03226e-05 0.000101533 -8.71236e-07
-2.69091e-06 -8.71236e-07 1.72116e-06
0.00170529 1.74403e-05 -9.6246e-08
1.74403e-05 0.000108503 -6.02193e-07
-9.6246e-08 -6.02193e-07 3.62968e-06
0.00173618 1.32274e-05 -2.05679e-07
1.32274e-05 0.000144138 5.68741e-07
-2.05679e-07 5.68741e-07 3.94597e-05
0.00178729 1.78702e-05 2.72491e-07
1.78702e-05 0.000159492 6.66617e-07
2.72491e-07 6.66617e-07 5.7773e-05
0.00164109 1.22752e-05 5.6443e-07
1.22752e-05 0.000110998 -1.89996e-07
5.6443e-07 -1.89996e-07 1.00087e-05
0.00131051 8.39385e-06 -2.81769e-06
8.39385e-06 -1.93938e-05 6.34707e-08
-2.81769e-06 6.34707e-08 -0.000116844
0.00155411 -4.12826e-06 7.57622e-07
-4.12826e-06 6.86747e-05 1.13301e-06
7.57622e-07 1.13301e-06 -2.9693e-05
0.00145781 -1.07438e-05 -5.23123e-07
-1.07438e-05 6.47625e-05 1.30928e-07
-5.23123e-07 1.30928e-07 -2.93456e-05
0.00118165 -1.47821e-05 -6.82373e-06
-1.47821e-05 2.12353e-06 5.66387e-07
-6.82373e-06 5.66387e-07 -7.82287e-05
0.0014205 -3.97064e-05 3.53695e-06
-3.97064e-05 5.91867e-05 3.69821e-07
3.53695e-06 3.69821e-07 -3.43928e-05
0.00118243 -3.67631e-05 9.81757e-08
-3.67631e-05 1.42585e-05 2.4306e-07
9.81757e-08 2.4306e-07 -6.59676e-05
0.000681813 -2.12275e-05 -1.04376e-05
-2.12275e-05 -0.00010235 2.56649e-06
-1.04376e-05 2.56649e-06 -0.000148619
0.00114464 -4.7156e-05 6.50524e-06
-4.7156e-05 1.81579e-05 -1.56207e-06
6.50524e-06 -1.56207e-06 -6.15721e-05
0.0014035 -3.32864e-05 1.56795e-05
-3.32864e-05 0.000286226 -5.60664e-07
1.56795e-05 -5.60664e-07 0.000243534
0.00424944 4.44944e-05 -6.97897e-05
4.44944e-05 0.00185676 2.35642e-06
-6.97897e-05 2.35642e-06 0.00184828
0.00217604 -3.56727e-05 3.81018e-05
-3.56727e-05 0.0007021 -4.63291e-06
3.81018e-05 -4.63291e-06 0.000662547
0.00133146 3.534e-05 -2.94484e-05
3.534e-05 0.000351784 1.7113e-06
-2.94484e-05 1.7113e-06 0.00032629
0.00129489 6.63622e-05 4.85292e-06
6.63622e-05 0.000343186 -2.37559e-06
4.85292e-06 -2.37559e-06 0.000314419
0.00172696 5.2325e-06 7.57194e-07
5.2325e-06 8.58412e-05 3.3022e-07
7.57194e-07 3.3022e-07 -8.72868e-06
0.00144678 2.92124e-05 -9.38471e-07
2.92124e-05 -1.04955e-05 8.22393e-07
-9.38471e-07 8.22393e-07 -0.000109732
0.00172392 1.87504e-05 -8.5589e-08
1.87504e-05 8.233e-05 -3.38109e-08
-8.5589e-08 -3.38109e-08 -1.54332e-05
0.00114572 6.15504e-05 -3.45358e-06
6.15504e-05 -9.0129e-05 -1.07743e-06
-3.45358e-06 -1.07743e-06 -0.00018709
0.00163809 6.6275e-05 1.12369e-07
6.6275e-05 0.000106588 -4.28459e-08
1.12369e-07 -4.28459e-08 4.81123e-06
0.00163651 6.13901e-05 -1.96314e-07
6.13901e-05 5.96535e-05 -1.00143e-06
-1.96314e-07 -1.00143e-06 -4.67671e-05
0.000670283 5.39848e-05 -6.87217e-06
5.39848e-05 -0.000209866 -2.20636e-06
-6.87217e-06 -2.20636e-06 -0.000291706
0.00152272 8.74632e-05 7.91362e-07
8.74632e-05 0.000157042 1.37105e-08
7.91362e-07 1.37105e-08 6.3072e-05
0.00179242 9.47858e-05 2.63176e-06
9.47858e-05 0.000240635 1.51473e-06
2.63176e-06 1.51473e-06 0.000142806
0.000762845 5.56296e-05 -1.01441e-05
5.56296e-05 -1.714e-05 -4.61238e-06
-1.01441e-05 -4.61238e-06 -6.67302e-05
0.000784021 6.06933e-05 -1.53423e-07
6.06933e-05 -0.000101032 1.20383e-07
-1.53423e-07 1.20383e-07 -0.000181192
0.000873992 7.9087e-05 3.4234e-06
7.9087e-05 -0.000109051 1.43676e-06
3.4234e-06 1.43676e-06 -0.000204425
0.00359307 -6.39038e-05 -6.05606e-05
-6.39038e-05 0.00153087 -3.74362e-06
-6.05606e-05 -3.74362e-06 0.0015214
0.00069633 3.378e-05 -8.23318e-08
3.378e-05 -3.02061e-05 -6.4037e-09
-8.23318e-08 -6.4037e-09 -7.70774e-05
0.000926885 5.89881e-05 3.24278e-06
5.89881e-05 1.93563e-05 1.2964e-06
3.24278e-06 1.2964e-06 -5.62631e-05
0.000637339 8.42187e-06 5.59192e-06
8.42187e-06 -5.00461e-05 3.76517e-06
5.59192e-06 3.76517e-06 -9.24043e-05
0.00310768 -8.95075e-05 -2.69713e-06
-8.95075e-05 0.00126801 2.13826e-07
-2.69713e-06 2.13826e-07 0.00126141
0.00289131 -8.38062e-05 3.67187e-05
-8.38062e-05 0.00113358 2.85512e-06
3.67187e-05 2.85512e-06 0.00113245
0.00177336 -8.14363e-06 -4.1065e-07
-8.14363e-06 0.000101131 -7.82946e-07
-4.1065e-07 -7.82946e-07 3.54213e-06
0.00180952 -5.22047e-06 -3.60517e-07
-5.22047e-06 0.000106759 7.57628e-08
-3.60517e-07 7.57628e-08 1.06862e-05
0.0018486 2.48519e-06 -1.02535e-06
2.48519e-06 0.000115861 -1.33848e-06
-1.02535e-06 -1.33848e-06 1.95079e-05
0.00184742 9.50418e-06 -4.08481e-07
9.50418e-06 0.000163545 -2.84603e-07
-4.08481e-07 -2.84603e-07 5.60522e-05
0.00175515 6.28614e-07 -5.8347e-07
6.28614e-07 0.000102623 -5.3945e-07
-5.8347e-07 -5.3945e-07 -2.0041e-06
0.00189421 -9.40612e-07 -2.43125e-06
-9.40612e-07 0.00016459 2.47815e-07
-2.43125e-06 2.47815e-07 6.40818e-05
0.00163227 2.1012e-05 -1.25977e-06
2.1012e-05 6.84747e-05 -8.79002e-07
-1.25977e-06 -8.79002e-07 -3.6469e-05
0.00171374 1.53872e-05 5.46101e-07
1.53872e-05 0.000132472 -1.12558e-07
5.46101e-07 -1.12558e-07 2.77531e-05
0.00170497 1.02443e-05 -2.09879e-06
1.02443e-05 0.000159707 7.99113e-07
-2.09879e-06 7.99113e-07 6.04292e-05
0.00176788 1.3598e-05 1.73042e-06
1.3598e-05 0.000176865 1.71841e-07
1.73042e-06 1.71841e-07 7.65196e-05
0.00155231 1.12658e-05 -4.5264e-08
1.12658e-05 0.000106802 5.84181e-08
-4.5264e-08 5.84181e-08 1.09668e-05
0.000868125 3.62736e-06 -7.68906e-06
3.62736e-06 -0.000175449 1.16112e-06
-7.68906e-06 1.16112e-06 -0.000260935
0.00143383 -1.08314e-05 2.74671e-06
-1.08314e-05 5.27303e-05 3.87693e-07
2.74671e-06 3.87693e-07 -4.14225e-05
0.00119211 -1.24763e-05 -6.52455e-08
-1.24763e-05 6.76784e-06 -8.2095e-08
-6.52455e-08 -8.2095e-08 -7.34471e-05
0.000709066 -1.09451e-05 -1.05616e-05
-1.09451e-05 -9.64738e-05 1.54227e-06
-1.05616e-05 1.54227e-06 -0.000143302
0.00118336 -3.55848e-05 7.06326e-06
-3.55848e-05 1.38245e-05 -7.97445e-07
7.06326e-06 -7.97445e-07 -6.62593e-05
0.000690078 -1.83705e-05 -2.48822e-08
-1.83705e-05 -9.79757e-05 1.73655e-07
-2.48822e-08 1.73655e-07 -0.000144278
0.00430629 3.77698e-05 -7.21987e-05
3.77698e-05 0.00187941 1.64021e-06
-7.21987e-05 1.64021e-06 0.00187199
0.00078957 -3.65197e-05 1.26267e-05
-3.65197e-05 -3.57305e-05 -4.3333e-06
1.26267e-05 -4.3333e-06 -8.30939e-05
0.00288391 4.53827e-05 2.6454e-05
4.53827e-05 0.00114669 8.01858e-07
2.6454e-05 8.01858e-07 0.00112936
0.00134955 5.00243e-05 7.01763e-06
5.00243e-05 0.000365751 -2.07323e-06
7.01763e-06 -2.07323e-06 0.000338473
0.00183814 -4.45353e-06 4.34555e-07
-4.45353e-06 0.000153473 3.07243e-08
4.34555e-07 3.07243e-08 5.93561e-05
0.00161009 1.16856e-05 -1.77951e-07
1.16856e-05 6.60242e-05 3.32281e-07
-1.77951e-07 3.32281e-07 -2.95706e-05
0.00168208 4.55031e-06 3.50647e-07
4.55031e-06 6.30729e-05 2.19336e-07
3.50647e-07 2.19336e-07 -3.09949e-05
0.00142725 3.81822e-05 -2.67912e-06
3.81822e-05 3.46909e-05 -1.49884e-07
-2.67912e-06 -1.49884e-07 -5.95483e-05
0.00152571 2.94154e-05 4.20333e-07
2.94154e-05 2.89467e-05 -1.09046e-07
4.20333e-07 -1.09046e-07 -6.97655e-05
0.00184594 1.86131e-05 1.09381e-07
1.86131e-05 0.00014656 -1.03146e-06
1.09381e-07 -1.03146e-06 4.91879e-05
0.000771707 4.64632e-05 -7.57911e-06
4.64632e-05 -0.000199546 -2.1976e-06
-7.57911e-06 -2.1976e-06 -0.000282332
0.00152985 6.99732e-05 -1.15827e-06
6.99732e-05 0.000108976 -3.47798e-07
-1.15827e-06 -3.47798e-07 1.34571e-05
0.0016745 6.68776e-05 2.62072e-06
6.68776e-05 0.000127541 -2.48204e-07
2.62072e-06 -2.48204e-07 2.63889e-05
0.000725745 5.62083e-05 -1.11424e-05
5.62083e-05 -5.80704e-05 -4.24024e-06
-1.11424e-05 -4.24024e-06 -0.000107259
0.000716413 5.56004e-05 -1.84134e-06
5.56004e-05 -0.000189534 -6.6939e-07
-1.84134e-06 -6.6939e-07 -0.000271962
0.00152336 8.86934e-05 3.84505e-06
8.86934e-05 0.000156949 8.60685e-07
3.84505e-06 8.60685e-07 6.27965e-05
0.00403099 -6.92137e-05 -6.45847e-05
-6.92137e-05 0.00175799 -3.84222e-06
-6.45847e-05 -3.84222e-06 0.00174564
0.000689083 4.95591e-05 1.46556e-07
4.95591e-05 -5.16571e-05 1.87275e-07
1.46556e-07 1.87275e-07 -0.000101099
0.000593569 5.49519e-05 4.41459e-06
5.49519e-05 -0.000201337 1.93829e-06
4.41459e-06 1.93829e-06 -0.000282473
0.00341666 -8.08795e-05 -3.07404e-06
-8.08795e-05 0.00144053 1.84515e-07
-3.07404e-06 1.84515e-07 0.00143085
0.000605233 2.82137e-05 6.5655e-06
2.82137e-05 -7.19463e-05 4.28133e-06
6.5655e-06 4.28133e-06 -0.000118866
0.00300305 -9.1698e-05 3.85085e-05
-9.1698e-05 0.00121121 2.73663e-06
3.85085e-05 2.73663e-06 0.00120512
0.00182179 3.77895e-06 -6.97373e-08
3.77895e-06 0.000149818 -8.6842e-07
-6.97373e-08 -8.6842e-07 4.86849e-05
0.00178606 -7.14941e-06 8.92868e-08
-7.14941e-06 0.000109034 7.3726e-07
8.92868e-08 7.3726e-07 1.14091e-05
0.00181631 -5.27633e-06 -7.81208e-07
-5.27633e-06 0.00010808 2.46954e-07
-7.81208e-07 2.46954e-07 1.17699e-05
0.00176516 -1.83079e-06 -2.76947e-06
-1.83079e-06 0.000158501 -1.5805e-07
-2.76947e-06 -1.5805e-07 5.62134e-05
0.00181089 9.14701e-06 6.2957e-07
9.14701e-06 0.000148513 -4.25585e-09
6.2957e-07 -4.25585e-09 4.13631e-05
0.00169416 7.05448e-06 -2.09989e-07
7.05448e-06 7.12919e-05 -3.11445e-07
-2.09989e-07 -3.11445e-07 -3.41943e-05
0.00170161 1.62567e-05 8.66786e-07
1.62567e-05 0.000126022 -5.61876e-07
8.66786e-07 -5.61876e-07 2.12816e-05
0.00170342 1.04659e-05 8.21252e-07
1.04659e-05 0.000159146 -9.91303e-08
8.21252e-07 -9.91303e-08 5.98914e-05
0.000941432 3.9087e-06 -7.54617e-06
3.9087e-06 -0.000166295 1.40549e-06
-7.54617e-06 1.40549e-06 -0.000256344
0.00181141 1.41634e-05 3.47037e-06
1.41634e-05 0.000241602 -1.85966e-07
3.47037e-06 -1.85966e-07 0.000147406
0.00103595 6.0161e-06 -1.51034e-06
6.0161e-06 -8.61486e-05 3.71539e-07
-1.51034e-06 3.71539e-07 -0.000170048
0.000721383 -2.63968e-06 -1.08545e-05
-2.63968e-06 -9.95114e-05 1.20086e-06
-1.08545e-05 1.20086e-06 -0.000149645
0.00120756 -1.20391e-05 6.70384e-06
-1.20391e-05 1.37505e-05 -8.45428e-07
6.70384e-06 -8.45428e-07 -6.63589e-05
0.000711866 -2.21538e-06 2.44286e-07
-2.21538e-06 -9.49637e-05 -5.74488e-08
2.44286e-07 -5.74488e-08 -0.000142049
0.00440372 3.76047e-05 -7.53332e-05
3.76047e-05 0.00192447 9.15611e-07
-7.53332e-05 9.15611e-07 0.00191756
0.000690582 -1.35148e-05 1.01927e-05
-1.35148e-05 -9.76005e-05 -2.17664e-06
1.01927e-05 -2.17664e-06 -0.000143713
0.00435713 4.41491e-05 -3.21523e-08
4.41491e-05 0.00190475 2.47786e-07
-3.21523e-08 2.47786e-07 0.00189719
0.00157015 6.80028e-07 6.59725e-05
6.80028e-07 0.00045856 -2.71487e-06
6.59725e-05 -2.71487e-06 0.000437254
0.00183223 1.01222e-06 1.10729e-07
1.01222e-06 0.000176007 -3.55275e-07
1.10729e-07 -3.55275e-07 8.06774e-05
0.00174257 -4.99269e-06 5.20645e-07
-4.99269e-06 0.000103998 4.14533e-07
5.20645e-07 4.14533e-07 1.08979e-05
0.00147391 1.18119e-05 -2.22775e-06
1.18119e-05 4.31498e-05 -4.20048e-07
-2.22775e-06 -4.20048e-07 -5.06883e-05
0.00164125 1.12681e-05 3.42806e-07
1.12681e-05 8.06856e-05 -6.86218e-08
3.42806e-07 -6.86218e-08 -1.49825e-05
0.00163339 3.84181e-06 9.55981e-07
3.84181e-06 3.84385e-05 -2.36458e-07
9.55981e-07 -2.36458e-07 -5.51316e-05
0.00121236 3.39232e-05 -6.676e-06
3.39232e-05 6.72341e-06 -1.49175e-06
-6.676e-06 -1.49175e-06 -7.42895e-05
0.00146836 3.88776e-05 -4.56869e-08
3.88776e-05 5.40697e-05 1.073e-07
-4.56869e-08 1.073e-07 -4.01724e-05
0.0015984 2.95506e-05 1.07918e-06
2.95506e-05 6.53366e-05 -4.89891e-07
1.07918e-06 -4.89891e-07 -3.28654e-05
0.00071792 4.39906e-05 -1.15066e-05
4.39906e-05 -8.20977e-05 -3.61308e-06
-1.15066e-05 -3.61308e-06 -0.000130001
0.000987588 5.14628e-05 -2.19239e-06
5.14628e-05 -8.75022e-05 -5.19163e-07
-2.19239e-06 -5.19163e-07 -0.000169691
0.00191295 7.82818e-05 2.90033e-06
7.82818e-05 0.000307636 3.39064e-07
2.90033e-06 3.39064e-07 0.000213557
0.00432905 -6.3686e-05 -6.92213e-05
-6.3686e-05 0.00190314 -3.39748e-06
-6.92213e-05 -3.39748e-06 0.00189164
0.000683606 5.22213e-05 2.0902e-07
5.22213e-05 -7.7983e-05 1.64268e-07
2.0902e-07 1.64268e-07 -0.000127194
0.000756688 5.7231e-05 4.12328e-06
5.7231e-05 -0.000172044 1.2298e-06
4.12328e-06 1.2298e-06 -0.000255084
0.00382378 -7.00052e-05 -1.66886e-06
-7.00052e-05 0.00165178 2.38859e-07
-1.66886e-06 2.38859e-07 0.00164049
0.000603442 4.44892e-05 8.38147e-06
4.44892e-05 -9.2463e-05 4.7227e-06
8.38147e-06 4.7227e-06 -0.000141667
0.00323917 -9.76696e-05 4.32056e-05
-9.76696e-05 0.00134969 2.7021e-06
4.32056e-05 2.7021e-06 0.00133934
0.00177111 8.76866e-06 -1.72222e-06
8.76866e-06 0.000168551 -1.03402e-06
-1.72222e-06 -1.03402e-06 7.07631e-05
0.00182327 1.50256e-06 3.86223e-07
1.50256e-06 0.000153359 3.86706e-07
3.86223e-07 3.86706e-07 5.24977e-05
0.00180531 -6.6733e-06 1.07498e-06
-6.6733e-06 0.000120231 2.02544e-06
1.07498e-06 2.02544e-06 2.25702e-05
0.000977314 -1.28542e-05 -8.30817e-06
-1.28542e-05 -0.000168958 2.7519e-07
-8.30817e-06 2.7519e-07 -0.00026134
0.0017861 5.04083e-06 8.66605e-07
5.04083e-06 0.000170404 1.12961e-07
8.66605e-07 1.12961e-07 6.78355e-05
0.00176766 9.09538e-06 1.43929e-06
9.09538e-06 0.00013008 -2.43619e-07
1.43929e-06 -2.43619e-07 2.32813e-05
0.00170373 1.03811e-05 3.5841e-06
1.03811e-05 0.000159558 -5.65522e-07
3.5841e-06 -5.65522e-07 6.03209e-05
0.000919597 3.33339e-06 -1.10204e-06
3.33339e-06 -0.000173742 3.84855e-07
-1.10204e-06 3.84855e-07 -0.000263175
0.00074117 5.16697e-06 -1.14004e-05
5.16697e-06 -0.00010667 7.81366e-07
-1.14004e-05 7.81366e-07 -0.000160408
0.00119294 9.17705e-06 5.08538e-06
9.17705e-06 -2.41749e-06 -6.33907e-07
5.08538e-06 -6.33907e-07 -8.47204e-05
0.000743686 6.74416e-06 3.15369e-07
6.74416e-06 -8.9363e-05 -4.39846e-08
3.15369e-07 -4.39846e-08 -0.000139546
0.00453537 3.73963e-05 -7.82813e-05
3.73963e-05 0.00198751 2.22787e-07
-7.82813e-05 2.22787e-07 0.00198059
0.000718278 6.83415e-06 1.02857e-05
6.83415e-06 -9.18777e-05 -1.44862e-06
1.02857e-05 -1.44862e-06 -0.000138953
0.00444782 4.74908e-05 1.61087e-06
4.74908e-05 0.00194638 2.23243e-07
1.61087e-06 2.23243e-07 0.0019392
0.00442478 4.76735e-05 7.70125e-05
4.76735e-05 0.00193793 -1.11037e-06
7.70125e-05 -1.11037e-06 0.00193051
0.00155624 3.05874e-06 -2.29128e-06
3.05874e-06 7.36236e-05 -1.0103e-06
-2.29128e-06 -1.0103e-06 -2.17465e-05
0.00171597 -1.1795e-07 3.9037e-07
-1.1795e-07 0.000114076 5.51154e-08
3.9037e-07 5.51154e-08 1.9e-05
0.00163676 -5.3525e-06 6.83217e-08
-5.3525e-06 4.94106e-05 7.13391e-07
6.83217e-08 7.13391e-07 -4.26738e-05
0.00123324 9.45997e-06 -6.49909e-06
9.45997e-06 1.14578e-06 -1.47403e-06
-6.49909e-06 -1.47403e-06 -8.09436e-05
0.00150316 1.1887e-05 1.3341e-07
1.1887e-05 5.71571e-05 -4.29933e-08
1.3341e-07 -4.29933e-08 -3.67478e-05
0.00166986 1.08585e-05 4.81049e-07
1.08585e-05 9.40989e-05 -4.42584e-07
4.81049e-07 -4.42584e-07 -1.64833e-06
0.000728589 2.61753e-05 -1.13412e-05
2.61753e-05 -9.23851e-05 -3.02396e-06
-1.13412e-05 -3.02396e-06 -0.000140201
0.00121643 3.45534e-05 -8.22174e-08
3.45534e-05 9.37799e-06 1.322e-07
-8.22174e-08 1.322e-07 -7.1821e-05
0.00150976 3.9553e-05 3.02869e-06
3.9553e-05 7.3573e-05 4.27684e-07
3.02869e-06 4.27684e-07 -2.06738e-05
0.00448521 -3.06568e-05 -7.9292e-05
-3.06568e-05 0.001969 -2.58544e-06
-7.9292e-05 -2.58544e-06 0.00196161
0.000693679 4.22504e-05 1.2912e-08
4.22504e-05 -9.3401e-05 1.13489e-07
1.2912e-08 1.13489e-07 -0.000141433
0.00120414 5.67046e-05 4.81871e-06
5.67046e-05 2.48767e-05 1.32866e-06
4.81871e-06 1.32866e-06 -5.67298e-05
0.00416072 -5.12077e-05 3.2186e-06
-5.12077e-05 0.00181738 1.05266e-07
3.2186e-06 1.05266e-07 0.00180689
0.00063448 4.71533e-05 9.76176e-06
4.71533e-05 -0.000101412 4.32415e-06
9.76176e-06 4.32415e-06 -0.000150685
0.00361712 -8.99306e-05 5.09189e-05
-8.99306e-05 0.00154966 3.29945e-06
5.09189e-05 3.29945e-06 0.00153711
0.00131693 1.49496e-06 -6.96212e-06
1.49496e-06 1.24116e-05 -8.37461e-07
-6.96212e-06 -8.37461e-07 -7.57909e-05
0.00160959 3.4914e-06 1.03257e-06
3.4914e-06 8.28858e-05 -1.89838e-07
1.03257e-06 -1.89838e-07 -1.65356e-05
0.00182305 -1.97415e-06 9.61667e-07
-1.97415e-06 0.000155933 1.8904e-06
9.61667e-07 1.8904e-06 5.53459e-05
0.000757167 1.24757e-05 -1.21016e-05
1.24757e-05 -0.000113317 -2.18142e-07
-1.21016e-05 -2.18142e-07 -0.000168226
0.000958261 -5.53011e-06 -1.39221e-06
-5.53011e-06 -0.000177161 3.61163e-07
-1.39221e-06 3.61163e-07 -0.000269347
0.0018076 1.16664e-05 4.39846e-06
1.16664e-05 0.00018261 -2.92514e-07
4.39846e-06 -2.92514e-07 7.97551e-05
0.000897446 3.22888e-06 4.90486e-06
3.22888e-06 -0.000181412 -3.35511e-07
4.90486e-06 -3.35511e-07 -0.000270219
0.000759379 8.19987e-06 2.09465e-07
8.19987e-06 -9.83516e-05 2.54668e-07
2.09465e-07 2.54668e-07 -0.000152249
0.00479611 3.79805e-05 -8.18059e-05
3.79805e-05 0.00211361 -4.65338e-07
-8.18059e-05 -4.65338e-07 0.00210633
0.000761764 1.53432e-05 1.07625e-05
1.53432e-05 -8.0922e-05 -1.07883e-06
1.07625e-05 -1.07883e-06 -0.000131374
0.00462119 4.06502e-05 1.36879e-06
4.06502e-05 0.00202902 2.86258e-07
1.36879e-06 2.86258e-07 0.00202209
0.00449202 4.60702e-05 8.14573e-05
4.60702e-05 0.0019672 -3.99807e-07
8.14573e-05 -3.99807e-07 0.00196039
0.00127814 9.01702e-07 -6.7957e-06
9.01702e-07 7.23789e-06 -1.60627e-06
-6.7957e-06 -1.60627e-06 -7.7719e-05
0.00148028 1.56857e-06 -3.18891e-08
1.56857e-06 3.21317e-05 -1.62752e-07
-3.18891e-08 -1.62752e-07 -6.37026e-05
0.00160424 -1.33639e-06 2.88604e-07
-1.33639e-06 5.44753e-05 4.734e-07
2.88604e-07 4.734e-07 -4.03546e-05
0.00237331 2.73645e-06 -4.61775e-05
2.73645e-06 0.00074945 -1.79453e-06
-4.61775e-05 -1.79453e-06 0.000709491
0.0012432 1.01837e-05 1.16646e-07
1.01837e-05 6.4109e-06 6.92549e-08
1.16646e-07 6.92549e-08 -7.58737e-05
0.00153616 1.18194e-05 2.66853e-06
1.18194e-05 7.30423e-05 3.89717e-07
2.66853e-06 3.89717e-07 -2.09296e-05
0.00461089 -2.19245e-05 -8.62045e-05
-2.19245e-05 0.00202373 -1.84393e-06
-8.62045e-05 -1.84393e-06 0.00201758
0.00072059 2.72529e-05 -6.85332e-08
2.72529e-05 -9.60529e-05 5.72915e-08
-6.85332e-08 5.72915e-08 -0.000143898
0.00121965 3.49928e-05 6.8648e-06
3.49928e-05 1.16178e-05 1.70765e-06
6.8648e-06 1.70765e-06 -6.97831e-05
0.00438752 -2.63277e-05 2.01376e-06
-2.63277e-05 0.00192155 2.67597e-07
2.01376e-06 2.67597e-07 0.00191389
0.000671222 4.09103e-05 1.06002e-05
4.09103e-05 -0.000103787 3.71455e-06
1.06002e-05 3.71455e-06 -0.000151889
0.00401769 -4.64696e-05 6.46989e-05
-4.64696e-05 0.0017441 3.16552e-06
6.46989e-05 3.16552e-06 0.00173495
0.000806769 6.06775e-06 -1.44098e-05
6.06775e-06 -9.03469e-05 -1.80731e-06
-1.44098e-05 -1.80731e-06 -0.000146323
0.00113365 -1.43215e-06 2.36581e-07
-1.43215e-06 -8.33184e-05 3.10486e-07
2.36581e-07 3.10486e-07 -0.000172561
0.00144262 -1.77851e-06 3.58047e-06
-1.77851e-06 -5.71518e-06 1.01726e-06
3.58047e-06 1.01726e-06 -0.000106708
0.00503651 -5.03481e-05 -8.24527e-05
-5.03481e-05 0.00223697 -1.43848e-06
-8.24527e-05 -1.43848e-06 0.00222486
0.000777503 8.57716e-06 3.82453e-08
8.57716e-06 -0.000102682 3.39085e-07
3.82453e-08 3.39085e-07 -0.000158267
0.000942229 1.38273e-06 5.32631e-06
1.38273e-06 -0.000183807 2.75688e-07
5.32631e-06 2.75688e-07 -0.000275811
0.000785132 1.55909e-05 1.14808e-05
1.55909e-05 -8.59809e-05 -1.82567e-07
1.14808e-05 -1.82567e-07 -0.000140245
0.0048921 6.88059e-05 3.72083e-06
6.88059e-05 0.00216251 3.95986e-07
3.72083e-06 3.95986e-07 0.00215368
0.00470798 5.76296e-05 8.71335e-05
5.76296e-05 0.00207157 2.80616e-07
8.71335e-05 2.80616e-07 0.00206411
0.00248397 -1.65143e-05 -5.07927e-05
-1.65143e-05 0.000791729 -1.94469e-06
-5.07927e-05 -1.94469e-06 0.000748539
0.00128035 2.48118e-06 -6.91527e-08
2.48118e-06 8.23298e-06 -2.29398e-09
-6.91527e-08 -2.29398e-09 -7.67086e-05
0.00140379 2.61632e-07 2.30848e-06
2.61632e-07 -9.66178e-06 7.58578e-07
2.30848e-06 7.58578e-07 -0.000105953
0.00451093 -1.47465e-05 -2.44714e-05
-1.47465e-05 0.0019736 -7.5305e-07
-2.44714e-05 -7.5305e-07 0.00196423
0.000763981 9.04562e-06 -1.6311e-07
9.04562e-06 -8.57105e-05 9.75412e-08
-1.6311e-07 9.75412e-08 -0.000135435
0.00125772 1.18572e-05 6.67454e-06
1.18572e-05 1.37159e-05 1.57049e-06
6.67454e-06 1.57049e-06 -6.87064e-05
0.0045366 -1.68842e-05 -1.2488e-07
-1.68842e-05 0.00198837 3.15759e-07
-1.2488e-07 3.15759e-07 0.00198204
0.000708458 2.90106e-05 1.13713e-05
2.90106e-05 -0.000101564 3.18858e-06
1.13713e-05 3.18858e-06 -0.000149448
0.00427845 -1.84817e-05 7.42951e-05
-1.84817e-05 0.00186732 2.88538e-06
7.42951e-05 2.88538e-06 0.00186
0.00175594 -1.05194e-05 -8.69269e-05
-1.05194e-05 0.00051645 -2.42997e-07
-8.69269e-05 -2.42997e-07 0.000491279
0.00166787 3.6702e-06 -2.03686e-05
3.6702e-06 0.000359631 5.16166e-07
-2.03686e-05 5.16166e-07 0.000310098
0.000961138 -8.22189e-07 6.81382e-06
-8.22189e-07 -0.000173492 1.47309e-06
6.81382e-06 1.47309e-06 -0.000263775
0.00505668 -3.31748e-05 3.8365e-06
-3.31748e-05 0.00224368 -7.65867e-07
3.8365e-06 -7.65867e-07 0.00223357
0.000782147 6.65184e-06 1.22513e-05
6.65184e-06 -0.000100363 8.89336e-07
1.22513e-05 8.89336e-07 -0.000156197
0.00497072 4.16293e-05 9.19119e-05
4.16293e-05 0.00219806 9.94198e-07
9.19119e-05 9.94198e-07 0.00219085
0.00146621 -3.51152e-05 -9.86002e-06
-3.51152e-05 0.000381205 -8.28178e-07
-9.86002e-06 -8.28178e-07 0.000352944
0.0016533 1.81872e-06 -1.93475e-05
1.81872e-06 0.000363016 2.01222e-07
-1.93475e-05 2.01222e-07 0.000315214
0.00128342 1.74135e-06 6.49011e-06
1.74135e-06 9.75696e-06 1.61474e-06
6.49011e-06 1.61474e-06 -7.52116e-05
0.00304783 -1.06365e-05 3.52263e-05
-1.06365e-05 0.00120758 3.28168e-07
3.52263e-05 3.28168e-07 0.00119152
0.000757269 1.57028e-05 1.17721e-05
1.57028e-05 -8.92967e-05 2.81534e-06
1.17721e-05 2.81534e-06 -0.000139204
0.00447729 -9.49115e-06 8.04624e-05
-9.49115e-06 0.00196004 2.4043e-06
8.04624e-05 2.4043e-06 0.00195364
0.00507715 -6.65951e-05 -3.91402e-06
-6.65951e-05 0.00225176 4.43287e-07
-3.91402e-06 4.43287e-07 0.00224246
0.000778974 9.70514e-06 1.22946e-05
9.70514e-06 -0.000101748 1.92037e-06
1.22946e-05 1.92037e-06 -0.00015664
0.00509115 4.15377e-05 8.92725e-05
4.15377e-05 0.00226044 -8.77067e-07
8.92725e-05 -8.77067e-07 0.00225007
0.00320306 -1.4248e-05 3.70577e-05
-1.4248e-05 0.00128009 7.3794e-09
3.70577e-05 7.3794e-09 0.00126272
0.000785004 8.15456e-06 1.18947e-05
8.15456e-06 -8.70707e-05 2.4703e-06
1.18947e-05 2.4703e-06 -0.000140177
0.00464766 -1.19309e-05 8.3483e-05
-1.19309e-05 0.00204021 1.72083e-06
8.3483e-05 1.72083e-06 0.00203398
0.0050104 -0.000112239 8.33185e-05
-0.000112239 0.00222457 -6.78468e-08
8.33185e-05 -6.78468e-08 0.00221143
0.00484349 -5.13469e-05 8.37355e-05
-5.13469e-05 0.00213612 7.3535e-07
8.37355e-05 7.3535e-07 0.00212843
