# vtk DataFile Version 2.0
Wound Healing Simulation
ASCII
DATASET UNSTRUCTURED_GRID
POINTS 3012 float
69.9759 18.75 4
67.2507 60.3285 4
69.976 18.75 2
73.0099 25.446 4
71.1327 20.9142 4
68.6801 16.6661 4
67.8264 19.9135 3.99353
67.2507 60.3286 2
71.1327 54.0858 4
68.6801 58.3339 4
65.6939 62.2254 4
65.313 59.0113 3.99435
74.6784 42.3946 4
73.7221 47.2057 4
69.9759 18.75 0
73.0099 25.446 2
68.6801 16.6661 2
71.1327 20.9142 2
67.8263 19.9129 2
74.6792 32.6053 4
73.7222 27.7943 4
72.1454 23.1494 4
70.6165 26.2104 3.99203
68.887 21.9457 3.99309
67.2507 14.6715 4
66.6377 17.9599 3.99392
65.8042 21.0027 3.98962
67.2507 60.3285 0
71.1327 54.0858 2
68.6801 58.3339 2
65.694 62.2255 2
65.3129 59.0118 2
72.1454 51.8506 4
69.9759 56.25 4
68.8378 53.1253 3.99286
64.0165 64.0165 4
66.6114 57.1451 3.99405
63.8864 60.7743 3.99464
63.5045 57.7946 3.99066
60.3285 67.2507 4
74.6792 42.3947 2
73.7222 47.2057 2
74.9194 39.9526 4
74.2788 44.8158 4
72.1717 42.0915 3.99082
73.0099 49.554 4
71.2521 46.6077 3.99144
73.0099 25.446 0
71.1327 20.9142 0
68.6801 16.6661 0
67.8264 19.9135 0.00647474
74.6792 32.6053 2
73.7222 27.7943 2
67.2508 14.6715 2
72.1455 23.1494 2
70.6165 26.2099 2
66.6376 17.9594 2
68.887 21.9451 2
65.8042 21.0023 2
74.9197 35.0474 4
74.2794 30.1841 4
72.1881 32.9376 3.99064
71.2809 28.422 3.9914
69.8174 24.048 3.9926
68.3571 26.935 3.98807
66.7709 22.9125 3.98914
65.694 12.7746 4
65.3242 16.0929 3.99425
64.7192 19.171 3.99008
63.9013 22.0052 3.98746
71.1327 54.0858 0
65.6939 62.2254 0
68.6801 58.3339 0
65.313 59.0113 0.0056516
72.1455 51.8506 2
69.9759 56.25 2
68.8378 53.1259 2
64.0165 64.0165 2
66.6113 57.1456 2
63.8863 60.7748 2
63.5044 57.7951 2
62.2254 65.694 4
58.8936 65.4194 3.99484
69.7709 51.0006 3.99226
67.7847 55.1795 3.99355
66.6581 52.2298 3.98876
62.3365 62.4343 3.9948
64.6664 56.0544 3.99026
62.2053 59.426 3.99107
61.8319 56.7122 3.98836
58.3339 68.6801 4
60.3285 67.2508 2
73.7221 47.2057 0
74.6784 42.3946 0
74.9197 39.9526 2
74.2794 44.8159 2
72.1717 42.0917 2
73.0099 49.554 2
71.2521 46.6081 2
75 37.5 4
72.4093 39.8054 3.99113
71.7857 44.3609 3.99103
69.8164 41.7977 3.98748
70.5775 48.8244 3.99181
68.9235 46.0292 3.98777
74.6792 32.6053 0
73.7222 27.7943 0
67.2507 14.6715 0
72.1454 23.1494 0
70.6165 26.2104 0.00797415
68.887 21.9457 0.00690627
66.6377 17.9599 0.00608189
65.8042 21.0027 0.0103838
74.9197 35.0474 2
74.2794 30.1841 2
72.1882 32.9373 2
71.2809 28.4216 2
65.694 12.7745 2
65.3241 16.0924 2
69.8174 24.0475 2
68.3572 26.9347 2
64.7192 19.1705 2
66.7709 22.912 2
63.9014 22.0048 2
72.417 35.221 3.9908
71.8069 30.6685 3.99089
69.8518 33.2609 3.9872
68.9769 29.0244 3.98748
67.6207 24.8933 3.98863
66.2138 27.614 3.98643
64.0165 10.9835 4
64.773 23.8026 3.98714
63.8904 14.3186 3.99448
63.5167 17.423 3.99053
62.9186 20.2883 3.98779
62.1145 22.9066 3.98657
60.6839 11.0913 3.99469
57.6121 11.4323 3.99129
72.1454 51.8506 0
69.9759 56.25 0
68.8378 53.1253 0.00713529
64.0165 64.0165 0
63.8864 60.7743 0.00536113
66.6114 57.1451 0.00594848
63.5045 57.7946 0.00934261
62.2255 65.694 2
58.8935 65.4198 2
69.7709 51.0012 2
67.7847 55.18 2
66.6581 52.2302 2
62.3364 62.4348 2
64.6664 56.0549 2
62.2052 59.4265 2
61.8319 56.7126 2
60.6686 63.983 3.99482
57.0241 66.7395 3.99488
57.5575 63.7047 3.99145
67.5171 50.1955 3.98826
65.7092 54.1954 3.98953
64.5545 51.4126 3.98672
60.7741 60.9569 3.99136
62.8316 55.0986 3.98805
60.6644 58.1891 3.98868
60.3407 55.823 3.98732
56.25 69.9759 4
58.3339 68.6801 2
60.3285 67.2507 0
58.9208 9.65022 3.99473
62.2254 9.30607 4
73.0099 49.554 0
74.2788 44.8158 0
71.2521 46.6077 0.00856003
72.1717 42.0915 0.00917832
74.9194 39.9526 0
75 37.5 2
72.4094 39.8055 2
71.7857 44.3612 2
69.8165 41.7978 2
70.5776 48.8249 2
68.9236 46.0295 2
72.4927 37.512 3.99091
70.0542 39.6616 3.98806
69.4421 43.9189 3.98745
67.6199 41.5074 3.98644
68.2765 48.1239 3.988
66.7308 45.4579 3.98644
74.9197 35.0474 0
74.2794 30.1841 0
72.1881 32.9376 0.00936094
71.2809 28.422 0.00859983
65.694 12.7746 0
65.3242 16.0929 0.00575401
69.8174 24.048 0.00739912
68.3571 26.935 0.0119345
66.7709 22.9125 0.0108584
64.7192 19.171 0.00991891
63.9013 22.0052 0.0125354
72.417 35.2209 2
71.8069 30.6681 2
69.8519 33.2608 2
68.9771 29.0241 2
64.0165 10.9835 2
63.8903 14.3181 2
63.5166 17.4225 2
67.6208 24.8929 2
66.214 27.6138 2
62.9186 20.288 2
64.7731 23.8023 2
62.1146 22.9063 2
60.6838 11.0909 2
57.6121 11.4318 2
70.0705 35.3881 3.98758
69.4783 31.1387 3.98719
67.6771 33.5821 3.98609
66.7923 29.6059 3.986
65.5421 25.6751 3.98682
64.1749 28.2306 3.9857
62.3418 12.6478 3.99462
62.8815 24.6038 3.98637
62.2005 15.7625 3.99089
61.8217 18.6527 3.9882
61.2353 21.3031 3.98668
60.4543 23.6853 3.98624
59.2463 12.7615 3.99124
55.8738 10.2206 3.99135
56.4061 13.0913 3.98905
69.7709 51.0006 0.00773894
62.2254 65.694 0
58.8936 65.4194 0.00516422
67.7847 55.1795 0.00644863
66.6581 52.2298 0.0112372
62.3365 62.4343 0.00519771
62.2053 59.426 0.00892952
64.6664 56.0544 0.0097396
61.8319 56.7122 0.0116406
60.6685 63.9835 2
57.024 66.7399 2
57.5574 63.7051 2
67.5172 50.1959 2
65.7092 54.1958 2
64.5546 51.4129 2
60.7741 60.9574 2
62.8317 55.099 2
60.6644 58.1895 2
60.3408 55.8233 2
55.0696 67.9358 3.99493
59.2196 62.3822 3.99141
55.8035 64.9203 3.99153
56.3279 62.1088 3.98924
65.3504 49.4329 3.98651
63.7205 53.3218 3.98729
62.467 50.6855 3.98579
59.3367 59.5832 3.98904
61.0934 54.346 3.98706
59.2983 57.0485 3.98725
59.2575 55.2241 3.98705
48.102 68.5845 3.99168
50.9476 69.9345 3.99497
54.0858 71.1327 4
56.25 69.976 2
58.3339 68.6801 0
57.0579 8.3307 3.99477
60.3285 7.74928 4
58.9207 9.64979 2
62.2255 9.30602 2
70.5775 48.8244 0.00819304
71.7857 44.3609 0.00896915
68.9235 46.0292 0.0122327
69.8164 41.7977 0.0125203
72.4093 39.8054 0.00887374
75 37.5 0
72.4928 37.512 2
70.0544 39.6617 2
69.4422 43.9191 2
67.6201 41.5075 2
68.2766 48.1243 2
66.731 45.4581 2
70.1423 37.5217 3.98797
67.8582 39.5176 3.98709
67.2453 43.484 3.98619
65.5889 41.2214 3.98619
66.0887 47.4395 3.98659
64.6832 44.87 3.98605
72.417 35.221 0.00919707
71.8069 30.6685 0.00910983
69.8518 33.2609 0.0128023
68.9769 29.0244 0.0125166
64.0165 10.9835 0
63.8904 14.3186 0.0055205
63.5167 17.423 0.00946936
67.6207 24.8933 0.0113679
66.2138 27.614 0.0135665
64.773 23.8026 0.0128635
62.9186 20.2883 0.0122113
62.1145 22.9066 0.0134282
60.6839 11.0913 0.00530965
57.6121 11.4323 0.0087108
70.0706 35.3881 2
69.4785 31.1385 2
67.6772 33.5821 2
66.7925 29.6058 2
62.3417 12.6473 2
62.2004 15.762 2
61.8217 18.6524 2
65.5423 25.6748 2
64.1751 28.2305 2
61.2354 21.3029 2
62.8816 24.6035 2
60.4545 23.6851 2
59.2463 12.761 2
56.4061 13.0909 2
55.8738 10.2201 2
67.8933 35.5431 3.98652
67.2862 31.6094 3.98592
65.7291 33.9175 3.98589
64.6928 30.1722 3.98518
63.565 26.3847 3.98614
62.2949 28.7491 3.98573
60.7757 14.2038 3.99112
61.0776 25.2991 3.98605
60.617 17.098 3.98859
60.2349 19.7785 3.98696
59.6848 22.2145 3.98615
59.0127 24.2734 3.98643
54.0368 9.12511 3.99138
57.9116 14.3075 3.98903
54.7872 11.9931 3.9891
55.3142 14.6192 3.98768
67.5171 50.1955 0.0117403
57.0241 66.7395 0.00512061
60.6686 63.983 0.00518215
57.5575 63.7047 0.00854904
65.7092 54.1954 0.0104744
64.5545 51.4126 0.0132813
60.7741 60.9569 0.00863514
60.6644 58.1891 0.0113171
62.8316 55.0986 0.0119529
60.3407 55.823 0.0126774
55.0695 67.9362 2
59.2195 62.3826 2
55.8035 64.9208 2
56.3279 62.1092 2
65.3506 49.4332 2
63.7205 53.3222 2
62.4671 50.6858 2
59.3367 59.5836 2
61.0935 54.3463 2
59.2984 57.0488 2
59.2576 55.2244 2
53.0416 69.0031 3.99496
53.9656 66.0214 3.9916
57.8827 60.8925 3.98919
54.6839 63.2224 3.98933
55.2136 60.6394 3.98781
63.2223 48.6913 3.98585
61.7627 52.6109 3.98616
60.3074 50.0588 3.98533
58.0237 58.2925 3.9875
59.3468 53.9892 3.98659
58.1392 55.8543 3.9861
50.1083 67.8631 3.99165
47.4628 66.5901 3.98951
46.056 69.1634 3.99166
48.1019 68.5848 2
48.802 70.7255 3.99498
50.9475 69.9348 2
51.8506 72.1454 4
54.0858 71.1327 2
56.25 69.9759 0
55.1022 7.13576 3.99477
58.3339 6.31992 4
57.0578 8.33029 2
60.3286 7.74926 2
58.9208 9.65022 0.0052676
62.2254 9.30607 0
68.2765 48.1239 0.0120022
69.4421 43.9189 0.0125509
66.7308 45.4579 0.0135646
67.6199 41.5074 0.0135602
70.0542 39.6616 0.0119392
72.4927 37.512 0.00908761
70.1424 37.5217 2
67.8584 39.5176 2
67.2454 43.4841 2
65.5891 41.2214 2
66.0889 47.4398 2
64.6834 44.8701 2
67.9544 37.5224 3.98719
65.8222 39.3765 3.98682
65.2077 43.042 3.98582
63.7986 40.9426 3.98617
63.9955 46.7428 3.98615
62.8479 44.2413 3.9859
70.0705 35.3881 0.0124204
69.4783 31.1387 0.0128134
67.6771 33.5821 0.0139109
66.7923 29.6059 0.0139982
62.3418 12.6478 0.00537708
62.2005 15.7625 0.00911168
61.8217 18.6527 0.0118015
65.5421 25.6751 0.0131823
64.1749 28.2306 0.0142995
62.8815 24.6038 0.0136328
61.2353 21.3031 0.013318
60.4543 23.6853 0.013756
59.2463 12.7615 0.00876451
56.4061 13.0913 0.0109483
55.8738 10.2206 0.00865412
67.8935 35.5431 2
67.2863 31.6093 2
65.7293 33.9175 2
64.693 30.1721 2
60.7757 14.2033 2
60.6171 17.0976 2
60.235 19.7781 2
63.5652 26.3845 2
62.2951 28.7489 2
59.6849 22.2142 2
61.0778 25.2989 2
59.0129 24.2732 2
57.9116 14.3071 2
55.3142 14.6189 2
54.0368 9.12469 2
54.7872 11.9927 2
65.9093 35.662 3.98602
65.217 32.1396 3.9854
64.3232 34.2396 3.98509
62.6349 30.6126 3.98531
61.6871 27.0381 3.98596
60.895 29.1092 3.98563
59.3126 15.642 3.98888
59.3707 25.7528 3.98631
59.1304 18.3205 3.98734
58.7569 20.8112 3.98621
58.3141 23.0436 3.98604
58.0062 24.615 3.98696
52.1114 8.14463 3.99134
53.0581 11.0012 3.98913
56.6786 15.7131 3.98774
53.8107 13.657 3.98763
54.3783 15.9679 3.98701
55.0696 67.9358 0.00507089
65.3504 49.4329 0.0134863
55.8035 64.9203 0.0084748
59.2196 62.3822 0.00858938
56.3279 62.1088 0.010762
63.7205 53.3218 0.01271
62.467 50.6855 0.0142126
59.3367 59.5832 0.0109586
59.2983 57.0485 0.0127466
61.0934 54.346 0.0129389
59.2575 55.2241 0.0129463
53.0415 69.0035 2
53.9656 66.0218 2
57.8827 60.893 2
54.6839 63.2228 2
55.2137 60.6398 2
63.2225 48.6915 2
61.7628 52.6112 2
60.3076 50.0589 2
58.0237 58.2929 2
59.3469 53.9894 2
58.1393 55.8545 2
52.0692 67.0069 3.99164
52.9529 64.231 3.98942
56.6517 59.516 3.98782
53.6822 61.6416 3.98791
54.2631 59.3485 3.98697
61.0321 47.9168 3.98585
59.7368 52.1467 3.98586
58.0669 49.6642 3.98652
56.7847 57.0248 3.98624
57.1406 54.1692 3.98571
50.1083 67.8634 2
49.3364 65.9309 3.98946
47.4627 66.5905 2
46.8921 64.7485 3.98805
45.558 67.1071 3.98951
43.9733 69.5956 3.99159
46.0559 69.1637 2
46.6088 71.3697 3.99496
48.102 68.5845 0.00832011
48.8019 70.7258 2
49.554 73.0099 4
50.9476 69.9345 0.00502925
51.8506 72.1455 2
54.0858 71.1327 0
53.0633 6.06771 3.99475
55.1021 7.13538 2
56.25 5.02411 4
58.3339 6.3199 2
57.0579 8.3307 0.00523347
60.3285 7.74928 0
66.0887 47.4395 0.013413
67.2453 43.484 0.0138052
64.6832 44.87 0.0139543
65.5889 41.2214 0.0138122
67.8582 39.5176 0.0129095
70.1423 37.5217 0.0120251
67.9546 37.5224 2
65.8224 39.3765 2
65.208 43.0421 2
63.7989 40.9426 2
63.9957 46.743 2
62.8482 44.2414 2
65.9251 37.5024 3.9871
63.9451 39.2739 3.98651
63.3708 42.5689 3.98562
62.4826 40.7114 3.98469
62.008 45.9503 3.98658
61.5007 43.7107 3.98559
67.8933 35.5431 0.0134821
67.2862 31.6094 0.0140819
65.7291 33.9175 0.0141116
64.6928 30.1722 0.0148195
60.7757 14.2038 0.00887599
60.617 17.098 0.0114084
60.2349 19.7785 0.0130385
63.565 26.3847 0.0138649
62.2949 28.7491 0.0142669
61.0776 25.2991 0.0139481
59.6848 22.2145 0.0138475
59.0127 24.2734 0.0135663
57.9116 14.3075 0.0109743
55.3142 14.6192 0.0123184
54.0368 9.12511 0.00862455
54.7872 11.9931 0.0109018
65.9096 35.662 2
65.2172 32.1396 2
64.3234 34.2396 2
62.6352 30.6125 2
59.3127 15.6416 2
59.1305 18.3201 2
58.757 20.8109 2
61.6873 27.0379 2
60.8953 29.1091 2
58.3143 23.0434 2
59.3709 25.7526 2
58.0064 24.6148 2
56.6786 15.7127 2
54.3784 15.9675 2
53.8108 13.6567 2
52.1114 8.14423 2
53.0581 11.0008 2
64.1331 35.6267 3.98548
62.9739 33.0307 3.98515
60.6646 30.5854 3.98535
59.6192 27.8718 3.98602
57.9427 16.9515 3.9876
57.7838 25.6769 3.98694
57.7245 19.4369 3.98653
57.3925 21.7933 3.98566
57.2211 23.8951 3.98632
50.1116 7.2774 3.99136
51.2325 10.1111 3.98915
52.1728 12.7766 3.98756
55.54 16.9394 3.98702
52.9792 15.2355 3.9868
53.7606 16.9479 3.98661
53.0416 69.0031 0.00503831
53.9656 66.0214 0.00839566
63.2223 48.6913 0.014154
54.6839 63.2224 0.01067
57.8827 60.8925 0.0108092
55.2136 60.6394 0.0121916
61.7627 52.6109 0.0138376
60.3074 50.0588 0.0146682
58.0237 58.2925 0.0125022
58.1392 55.8543 0.0138982
59.3468 53.9892 0.0134136
52.0691 67.0073 2
52.9528 64.2314 2
56.6518 59.5164 2
53.6822 61.642 2
54.2632 59.3489 2
61.0323 47.9169 2
59.737 52.1469 2
58.0671 49.6643 2
56.7848 57.0251 2
57.1407 54.1693 2
51.1672 65.1387 3.98943
52.0464 62.5547 3.98792
55.485 58.281 3.98702
52.8364 60.1584 3.9871
53.6437 58.5008 3.98656
58.3587 46.8931 3.98724
57.5917 51.8342 3.98573
56.2932 49.606 3.98752
55.483 55.8356 3.98555
55.3808 53.432 3.9845
50.1083 67.8631 0.00834887
49.3364 65.9313 2
48.6178 64.1354 3.98799
47.4628 66.5901 0.0104937
45.558 67.1074 2
46.8921 64.7488 2
46.3816 63.0684 3.98704
45.1323 65.2097 3.98809
43.6313 67.4777 3.98945
41.8607 69.8831 3.99152
43.9732 69.5959 2
44.3764 71.8644 3.99491
46.056 69.1634 0.00833939
46.6088 71.37 2
47.2057 73.7222 4
48.802 70.7255 0.00501512
49.554 73.0099 2
51.8506 72.1454 0
50.9531 5.12845 3.99479
53.0631 6.06736 2
54.0858 3.86728 4
55.1022 7.13576 0.00522514
56.25 5.02406 2
58.3339 6.31992 0
63.9955 46.7428 0.0138471
65.2077 43.042 0.0141818
62.8479 44.2413 0.014099
63.7986 40.9426 0.0138317
65.8222 39.3765 0.013179
67.9544 37.5224 0.0128094
65.9253 37.5024 2
63.9454 39.2739 2
63.371 42.569 2
62.4829 40.7115 2
62.0082 45.9504 2
61.501 43.7108 2
64.0059 37.4578 3.98722
62.2147 39.3628 3.98572
61.2737 41.9796 3.98502
60.3024 44.8051 3.98708
65.9093 35.662 0.0139754
65.217 32.1396 0.0146044
64.3232 34.2396 0.0149111
62.6349 30.6126 0.0146944
59.3126 15.642 0.0111224
59.1304 18.3205 0.0126642
58.7569 20.8112 0.013795
61.6871 27.0381 0.014039
60.895 29.1092 0.0143692
59.3707 25.7528 0.013687
58.3141 23.0436 0.0139624
58.0062 24.615 0.013042
56.6786 15.7131 0.0122575
54.3783 15.9679 0.0129874
53.8107 13.657 0.0123673
52.1114 8.14463 0.00866009
53.0581 11.0012 0.0108696
64.1333 35.6268 2
62.9741 33.0306 2
60.6648 30.5853 2
57.9427 16.9511 2
57.7247 19.4366 2
57.3927 21.7931 2
59.6195 27.8716 2
57.2213 23.8949 2
57.7841 25.6767 2
50.1115 7.27701 2
55.5401 16.9391 2
53.7607 16.9476 2
52.9792 15.2352 2
52.1728 12.7762 2
51.2325 10.1108 2
62.2436 35.3515 3.98576
60.3488 32.7265 3.9849
58.682 30.0418 3.98575
57.3472 27.3348 3.98662
56.6406 18.1207 3.98682
56.3365 25.0475 3.98704
56.3703 20.4792 3.98583
56.137 22.8182 3.98534
48.0554 6.52117 3.99149
49.3244 9.3202 3.98904
50.4335 11.9765 3.98769
51.3789 14.4739 3.98655
54.4183 17.8865 3.98644
52.3633 17.004 3.98615
52.0692 67.0069 0.00836147
52.9529 64.231 0.0105804
61.0321 47.9168 0.0141535
53.6822 61.6416 0.0120919
56.6517 59.516 0.0121773
54.2631 59.3485 0.0130275
59.7368 52.1467 0.0141386
58.0669 49.6642 0.0134762
56.7847 57.0248 0.0137621
57.1406 54.1692 0.0142935
51.1672 65.1391 2
52.0464 62.5551 2
55.4851 58.2814 2
52.8364 60.1588 2
53.6438 58.5011 2
58.359 46.8933 2
57.5919 51.8344 2
56.2934 49.6061 2
55.4832 55.8359 2
55.381 53.4322 2
50.3461 63.3946 3.98791
51.2451 60.9548 3.98687
54.2249 57.2983 3.98627
52.3155 58.6615 3.98645
56.7937 44.2249 3.98735
55.5517 47.9478 3.98739
55.1054 51.4426 3.98525
54.0207 54.5917 3.985
49.3364 65.9309 0.0105442
48.6178 64.1357 2
47.962 62.49 3.98701
45.558 67.1071 0.0104933
46.8921 64.7485 0.0119522
43.6313 67.478 2
46.3816 63.0687 2
45.1323 65.21 2
45.9872 61.603 3.9864
44.7668 63.4692 3.98712
43.3562 65.5191 3.98807
41.6635 67.6968 3.98936
39.7026 70.0305 3.99146
41.8607 69.8835 2
42.111 72.2092 3.99486
43.9733 69.5956 0.00840746
44.3763 71.8647 2
44.8159 74.2794 4
46.6088 71.3697 0.00503594
47.2057 73.7222 2
49.554 73.0099 0
48.7837 4.31979 3.99486
50.953 5.12811 2
51.8506 2.85458 4
53.0633 6.06771 0.00525124
54.0858 3.86728 2
56.25 5.02411 0
62.008 45.9503 0.013418
63.3708 42.5689 0.0143814
61.5007 43.7107 0.014411
62.4826 40.7114 0.0153136
63.9451 39.2739 0.0134879
65.9251 37.5024 0.012901
64.0061 37.4578 2
62.215 39.3627 2
61.274 41.9797 2
60.3027 44.8052 2
62.0557 37.4447 3.98752
60.3188 39.8594 3.98489
59.0628 42.9504 3.98654
64.1331 35.6267 0.0145226
62.9739 33.0307 0.0148524
60.6646 30.5854 0.0146483
57.9427 16.9515 0.012399
57.7245 19.4369 0.0134744
57.3925 21.7933 0.0143442
59.6192 27.8718 0.0139805
57.7838 25.6769 0.0130585
57.2211 23.8951 0.0136849
55.54 16.9394 0.0129783
53.7606 16.9479 0.0133908
52.9792 15.2355 0.0132
50.1116 7.2774 0.00864024
52.1728 12.7766 0.0124415
51.2325 10.1111 0.01085
62.2438 35.3515 2
60.3491 32.7265 2
58.6823 30.0417 2
56.6407 18.1204 2
56.3705 20.479 2
56.1372 22.818 2
57.3475 27.3346 2
56.3367 25.0474 2
48.0554 6.52079 2
49.3244 9.31982 2
54.4185 17.8862 2
52.3634 17.0037 2
51.379 14.4736 2
50.4336 11.9762 2
59.9641 35.1102 3.98602
58.067 32.2441 3.98485
56.6156 29.2973 3.98639
55.5061 26.5442 3.98751
55.3483 19.1529 3.98619
54.9678 24.0007 3.98572
55.0197 21.5171 3.98528
45.9615 5.8769 3.99158
43.3735 7.46567 3.98928
47.3548 8.61473 3.98918
48.6002 11.2796 3.98746
49.7147 13.7229 3.98672
50.6348 16.1051 3.98589
53.1288 18.625 3.98596
51.3057 18.0163 3.98576
51.1672 65.1387 0.0105704
52.0464 62.5547 0.0120791
58.3587 46.8931 0.0127567
52.8364 60.1584 0.0128998
55.485 58.281 0.0129752
53.6437 58.5008 0.0134442
57.5917 51.8342 0.0142718
56.2932 49.606 0.012479
55.483 55.8356 0.0144533
55.3808 53.432 0.0155004
50.3461 63.3949 2
51.2451 60.9551 2
54.225 57.2986 2
52.3155 58.6618 2
56.794 44.225 2
55.552 47.9479 2
55.1055 51.4427 2
54.0209 54.5919 2
49.5921 61.761 3.98689
55.7427 41.738 3.98536
50.5687 59.3514 3.98599
52.1914 56.5236 3.98553
54.2703 45.614 3.98814
53.3981 49.3874 3.98613
52.6945 52.9063 3.98439
48.6178 64.1354 0.0120102
47.962 62.4903 2
47.3294 61.0267 3.98638
43.6313 67.4777 0.010553
45.1323 65.2097 0.0119108
46.3816 63.0684 0.0129578
41.6635 67.6972 2
43.3562 65.5195 2
45.9872 61.6033 2
44.7668 63.4695 2
45.7661 60.6485 3.98612
44.4829 61.8523 3.98634
43.146 63.7415 3.98717
41.5458 65.6571 3.98799
39.6328 67.7769 3.98925
37.5263 70.0558 3.99141
39.7026 70.0308 2
39.8179 72.4064 3.99483
41.8607 69.8831 0.0084804
42.1109 72.2095 2
42.3947 74.6792 4
44.3764 71.8644 0.00508788
44.8159 74.2794 2
47.2057 73.7222 0
43.851 5.35447 3.99152
46.5698 3.64465 3.99489
48.7836 4.31948 2
49.554 1.99015 4
50.9531 5.12845 0.0052056
51.8506 2.85453 2
54.0858 3.86728 0
60.3024 44.8051 0.0129221
61.2737 41.9796 0.0149792
62.2147 39.3628 0.0142815
64.0059 37.4578 0.0127797
62.0559 37.4447 2
60.3192 39.8593 2
59.0631 42.9506 2
59.8438 37.5675 3.98766
58.0899 40.6809 3.98551
55.2345 39.7412 3.99079
62.2436 35.3515 0.0142425
60.3488 32.7265 0.0150982
58.682 30.0418 0.0142545
56.6406 18.1207 0.0131828
56.3703 20.4792 0.0141652
56.137 22.8182 0.0146564
57.3472 27.3348 0.0133812
56.3365 25.0475 0.0129634
54.4183 17.8865 0.0135645
52.3633 17.004 0.0138496
51.3789 14.4739 0.0134494
48.0554 6.52117 0.00851444
49.3244 9.3202 0.0109605
50.4335 11.9765 0.0123116
59.9643 35.1102 2
45.9614 5.87654 2
43.3735 7.46532 2
58.0672 32.244 2
56.616 29.2972 2
55.3485 19.1526 2
55.0198 21.5169 2
54.968 24.0007 2
55.5064 26.544 2
47.3548 8.61435 2
48.6002 11.2792 2
53.1289 18.6247 2
51.3058 18.016 2
50.6349 16.1048 2
49.7148 13.7225 2
57.4882 34.7479 3.98402
55.8153 31.4834 3.98551
54.5913 28.3509 3.98806
53.8244 25.4366 3.98673
53.9768 20.0983 3.98571
53.6065 22.6581 3.98485
41.3986 7.071 3.98956
45.3595 7.98683 3.9894
42.8654 9.40544 3.98778
46.6666 10.6411 3.98761
47.7456 13.0851 3.98655
48.9321 15.378 3.98571
50.0079 17.6705 3.98546
51.6577 19.2931 3.98584
50.3461 63.3946 0.012094
51.2451 60.9548 0.0131274
56.7937 44.2249 0.0126506
55.5517 47.9478 0.0126112
52.3155 58.6615 0.0135516
54.2249 57.2983 0.0137261
55.1054 51.4426 0.0147535
54.0207 54.5917 0.0150045
49.5921 61.7613 2
55.7431 41.738 2
50.5687 59.3517 2
52.1916 56.524 2
54.2707 45.614 2
53.3983 49.3875 2
52.6947 52.9064 2
48.8496 60.221 3.98621
52.6604 42.6845 3.98949
49.7924 57.6548 3.98552
50.6098 54.4637 3.98462
51.907 47.3305 3.98705
51.2598 51.0074 3.98359
48.3729 43.7878 3.98231
47.962 62.49 0.0129922
47.3294 61.027 2
46.6189 59.8149 3.98599
41.6635 67.6968 0.0106433
43.3562 65.5191 0.0119294
44.7668 63.4692 0.012883
45.9872 61.603 0.0135956
39.6328 67.7773 2
41.5458 65.6574 2
45.7661 60.6488 2
43.146 63.7419 2
44.4829 61.8526 2
44.6234 60.3112 3.9859
42.95 62.1008 3.98639
41.5993 63.835 3.98707
39.6474 65.6258 3.98781
37.5635 67.7597 3.98915
31.698 65.1447 3.98782
33.3927 67.4973 3.98915
35.3337 69.966 3.99139
37.5263 70.0562 2
37.5097 72.461 3.99481
39.7026 70.0305 0.00854336
39.8178 72.4066 2
39.9526 74.9197 4
42.111 72.2092 0.00513808
42.3947 74.6792 2
44.8159 74.2794 0
41.7358 4.96381 3.99171
43.851 5.35413 2
44.3253 3.10814 3.9949
46.5697 3.64436 2
47.2057 1.27793 4
48.7837 4.31979 0.00513602
49.554 1.99013 2
51.8506 2.85458 0
59.0628 42.9504 0.0134596
60.3188 39.8594 0.0151077
62.0557 37.4447 0.0124776
59.844 37.5675 2
58.0903 40.6809 2
55.2349 39.7413 2
56.939 37.9046 3.98614
49.8385 41.3347 3.99077
53.2893 39.3288 3.9935
39.442 6.79471 3.98955
59.9641 35.1102 0.0139805
58.067 32.2441 0.015148
56.6156 29.2973 0.0136055
55.3483 19.1529 0.0138131
55.0197 21.5171 0.0147185
54.9678 24.0007 0.0142778
55.5061 26.5442 0.0124872
53.1288 18.625 0.0140424
51.3057 18.0163 0.0142418
50.6348 16.1051 0.0141146
45.9615 5.8769 0.00842428
49.7147 13.7229 0.0132788
47.3548 8.61473 0.010824
48.6002 11.2796 0.0125354
43.3735 7.46567 0.0107206
57.4885 34.7479 2
41.3986 7.07064 2
45.3595 7.98646 2
42.8654 9.40509 2
55.8156 31.4833 2
54.5917 28.3506 2
53.977 20.098 2
53.6067 22.658 2
53.8247 25.4365 2
46.6666 10.6407 2
47.7457 13.0848 2
51.6579 19.2929 2
50.008 17.6702 2
48.9321 15.3777 2
55.001 33.9487 3.98259
53.5989 30.4384 3.98755
52.6665 27.1354 3.988
52.1829 24.0258 3.98536
52.4042 21.0324 3.98537
41.0133 9.03851 3.98789
44.7237 9.98449 3.9878
42.4681 10.8901 3.98743
46.0052 12.7136 3.98616
47.6818 14.5645 3.98607
48.114 16.963 3.9847
49.8204 19.5615 3.98531
49.5921 61.761 0.0131107
50.5687 59.3514 0.0140093
55.7427 41.738 0.0146442
54.2703 45.614 0.0118558
53.3981 49.3874 0.0138653
52.1914 56.5236 0.0144743
52.6945 52.9063 0.015615
48.8496 60.2213 2
52.6609 42.6844 2
49.7925 57.6552 2
50.61 54.4641 2
51.9074 47.3305 2
51.2601 51.0076 2
48.3735 43.7873 2
47.9879 58.7654 3.98573
50.2442 45.3292 3.98622
48.6053 55.9482 3.98531
49.1569 52.6455 3.98345
49.7429 49.1159 3.98282
46.1897 39.8914 3.9588
46.6344 42.7319 3.98892
46.6598 45.7951 3.97756
44.0437 41.2437 4.02787
42.0762 41.9894 4.00894
47.3294 61.0267 0.0136236
46.6189 59.8152 2
45.4686 58.8123 3.98581
39.6328 67.7769 0.0107548
41.5458 65.6571 0.0120121
43.146 63.7415 0.0128297
44.4829 61.8523 0.0136588
45.7661 60.6485 0.013883
41.5993 63.8353 2
37.5635 67.76 2
39.6474 65.6261 2
44.6234 60.3115 2
42.9501 62.1011 2
41.753 62.5113 3.98649
42.481 60.0032 3.98582
39.8929 63.5704 3.98683
37.6423 65.5252 3.98766
35.4638 67.6692 3.98914
33.576 65.3582 3.98775
31.9604 63.319 3.9868
29.8842 64.7356 3.98781
31.698 65.145 2
31.3774 67.2069 3.98918
33.3927 67.4976 2
33.1567 69.7593 3.99137
35.3337 69.9663 2
35.1952 72.3754 3.99478
37.5263 70.0558 0.008586
37.5097 72.4612 2
37.5 75 4
39.8179 72.4064 0.00517417
39.9526 74.9197 2
42.3947 74.6792 0
39.6235 4.71113 3.99175
41.7358 4.96348 2
42.0618 2.71589 3.995
43.851 5.35447 0.00847675
44.3252 3.10787 2
44.8158 0.721173 4
46.5698 3.64465 0.00511345
47.2057 1.27779 2
49.554 1.99015 0
58.0899 40.6809 0.0144912
59.8438 37.5675 0.0123372
55.2345 39.7412 0.00920824
49.839 41.3343 2
56.9393 37.9046 2
53.2896 39.329 2
54.1383 36.627 3.98437
47.7666 40.4448 3.99597
50.7918 38.5017 3.99051
37.5158 6.66552 3.98993
39.442 6.79437 2
39.2107 8.68138 3.9881
35.941 8.48089 3.98854
57.4882 34.7479 0.015977
55.8153 31.4834 0.0144889
54.5913 28.3509 0.0119399
53.9768 20.0983 0.0142889
53.6065 22.6581 0.0151485
53.8244 25.4366 0.0132684
51.6577 19.2931 0.014158
50.0079 17.6705 0.014536
48.9321 15.378 0.0142931
45.3595 7.98683 0.0106007
47.7456 13.0851 0.0134474
46.6666 10.6411 0.0123945
41.3986 7.071 0.0104387
42.8654 9.40544 0.0122164
55.0013 33.9489 2
41.0133 9.03815 2
44.7237 9.98412 2
42.4681 10.8898 2
53.5993 30.438 2
52.6668 27.1354 2
52.4044 21.0321 2
52.1832 24.0257 2
46.0052 12.7132 2
47.6819 14.5642 2
49.8205 19.5612 2
48.1141 16.9627 2
52.5542 32.8352 3.98516
51.452 29.093 3.99082
50.854 25.6562 3.9849
49.9538 22.1297 3.98545
40.569 11.5926 3.98658
43.8579 11.9039 3.9863
45.8023 15.3999 3.98509
47.5054 19.1918 3.98434
46.5241 37.5043 3.96403
48.8496 60.221 0.0137858
49.7924 57.6548 0.0144794
52.6604 42.6845 0.0105146
51.907 47.3305 0.0129486
51.2598 51.0074 0.0164063
50.6098 54.4637 0.01538
48.3729 43.7878 0.0176934
47.9879 58.7657 2
50.2447 45.3291 2
48.6055 55.9486 2
49.1572 52.6459 2
49.7433 49.116 2
46.1893 39.889 2
46.6351 42.7313 2
46.6605 45.795 2
44.0409 41.2375 2
42.0738 41.9876 2
46.8406 57.3697 3.98578
44.7979 39.4956 4.03166
42.4348 40.8599 4.00684
48.2003 47.3224 3.98283
47.1808 54.2849 3.98497
47.6326 50.8313 3.98038
44.9217 47.4249 3.97428
45.2749 42.0054 3.94506
45.151 44.6391 3.99176
42.8609 42.749 4.01859
40.9236 42.3417 4.00562
46.6189 59.8149 0.0140111
45.4687 58.8125 2
43.8772 57.7371 3.98571
37.5635 67.7597 0.0108454
39.6474 65.6258 0.0121936
41.5993 63.835 0.0129348
42.95 62.1008 0.0136105
44.6234 60.3112 0.0141013
35.4638 67.6695 2
41.753 62.5115 2
39.8929 63.5707 2
37.6423 65.5255 2
42.481 60.0035 2
40.6227 61.6704 3.9861
40.4452 58.2364 3.98569
37.8366 63.2322 3.98665
35.5734 65.4475 3.98767
33.576 65.3586 2
31.9604 63.3193 2
33.6298 63.359 3.98672
30.3794 62.8778 3.98681
32.1238 62.0265 3.98646
26.8686 61.5224 3.98641
28.0629 64.1638 3.98768
29.8841 64.736 2
29.4071 66.7705 3.9892
31.698 65.1447 0.0121807
31.3774 67.2072 2
31.0141 69.4243 3.99136
33.3927 67.4973 0.0108462
33.1567 69.7596 2
32.8924 72.1497 3.99476
35.3337 69.966 0.00861327
35.1952 72.3757 2
35.0474 74.9194 4
37.5097 72.461 0.00519268
37.5 75 2
39.9526 74.9197 0
35.6203 6.71662 3.98973
37.5229 4.61061 3.99195
39.6235 4.71081 2
39.7884 2.47242 3.99506
41.7358 4.96381 0.00828603
42.0617 2.71563 2
42.3946 0.32156 4
44.3253 3.10814 0.0050983
44.8159 0.72056 2
47.2057 1.27793 0
49.8385 41.3347 0.00922592
56.939 37.9046 0.0138567
53.2893 39.3288 0.0065039
47.7672 40.4444 2
50.7922 38.5015 2
54.1385 36.6274 2
51.5678 35.5662 3.98005
48.4338 37.7551 3.99507
46.1853 35.1167 3.96413
44.0402 33.7593 4.02814
42.075 33.0073 4.00728
37.4574 8.52242 3.98845
37.5158 6.66517 2
39.442 6.79471 0.0104516
39.2107 8.68102 2
38.9758 10.1123 3.98778
35.8976 9.75894 3.98787
34.1493 8.8099 3.98837
35.941 8.48054 2
55.001 33.9487 0.0174069
53.5989 30.4384 0.0124547
52.6665 27.1354 0.0120001
52.4042 21.0324 0.0146299
52.1829 24.0258 0.0146371
49.8204 19.5615 0.0146877
48.114 16.963 0.0152964
47.6818 14.5645 0.0139261
44.7237 9.98449 0.0121973
46.0052 12.7136 0.0138387
41.0133 9.03851 0.0121097
42.4681 10.8901 0.0125742
52.5547 32.8349 2
40.569 11.5923 2
43.8579 11.9035 2
51.4524 29.093 2
50.8543 25.6562 2
49.9541 22.1294 2
45.8024 15.3995 2
47.5055 19.1915 2
50.1725 31.3669 3.98976
49.3859 27.402 3.98688
49.4472 24.3358 3.98375
47.1937 21.8674 3.98432
38.3012 12.716 3.98532
42.1003 14.2857 3.98524
44.8004 18.4327 3.98385
45.0821 37.5029 4.0337
46.5234 37.5048 2
47.9879 58.7654 0.0142691
48.6053 55.9482 0.0146905
50.2442 45.3292 0.0137804
49.7429 49.1159 0.0171762
49.1569 52.6455 0.016546
46.1897 39.8914 0.0412043
46.6344 42.7319 0.0110793
46.6598 45.7951 0.0224449
44.0437 41.2437 -0.0278708
42.0762 41.9894 -0.00893892
46.8406 57.37 2
44.7953 39.4912 2
42.432 40.8584 2
48.2008 47.3225 2
47.181 54.2854 2
47.6329 50.8317 2
44.9224 47.4254 2
45.2752 42.0019 2
45.1526 44.6395 2
42.8591 42.7433 2
40.9215 42.3431 2
45.4017 55.9566 3.98574
42.7727 39.2582 3.99289
40.8751 40.8056 3.96696
46.1678 49.0238 3.9813
45.5697 52.5768 3.98442
43.5485 48.5176 3.97403
43.5186 46.2104 3.99226
43.8478 43.82 3.93709
41.3259 43.9135 4.00703
39.3001 42.6658 3.97782
45.4686 58.8123 0.014186
43.8773 57.7373 2
42.1086 56.3637 3.98549
35.4638 67.6692 0.010858
37.6423 65.5252 0.0123448
39.8929 63.5704 0.0131747
41.753 62.5113 0.0135095
42.481 60.0032 0.0141833
35.5734 65.4478 2
40.6227 61.6706 2
37.8366 63.2325 2
40.4452 58.2367 2
38.9265 56.5326 3.98572
38.2502 60.3548 3.9858
35.6073 63.2258 3.98661
33.576 65.3582 0.012249
31.9604 63.319 0.0131957
33.6298 63.3593 2
30.3794 62.8781 2
32.1238 62.0269 2
28.6817 62.2234 3.9867
33.3463 61.5396 3.98599
31.0668 61.2441 3.98601
27.5671 59.6225 3.98603
23.7882 59.1149 3.98694
25.0332 60.897 3.98682
26.8685 61.5227 2
26.2293 63.4966 3.98757
28.0629 64.1642 2
27.4637 66.1946 3.98918
29.8842 64.7356 0.012191
29.4071 66.7709 2
28.9067 68.9499 3.99137
31.3774 67.2069 0.0108165
31.0142 69.4246 2
30.6149 71.7808 3.99475
33.1567 69.7593 0.00863083
32.8924 72.1499 2
32.6054 74.6784 4
35.1952 72.3754 0.00521855
35.0474 74.9197 2
37.5 75 0
33.7229 6.97082 3.98964
35.4344 4.68095 3.99185
35.6203 6.71628 2
37.5141 2.38507 3.99513
37.5229 4.61029 2
39.6235 4.71113 0.00824658
39.7884 2.47217 2
39.9526 0.0806499 4
42.0618 2.71589 0.00500159
42.3947 0.320817 2
44.8158 0.721173 0
44.8013 35.5082 4.03536
42.4321 34.1351 4.00935
47.7666 40.4448 0.0040271
50.7918 38.5017 0.00948557
54.1383 36.627 0.0156259
48.4344 37.755 2
51.5681 35.5659 2
46.185 35.1193 2
44.0374 33.7653 2
42.0725 33.0089 2
48.5925 34.2509 3.9888
45.2735 33.0006 3.94558
42.8613 32.2496 4.02067
40.9219 32.6527 4.0044
37.3097 10.6142 3.98696
37.4574 8.52205 2
37.5158 6.66552 0.0100702
39.2107 8.68138 0.0119033
38.9758 10.1119 2
34.7527 10.364 3.98714
35.8975 9.75858 2
32.3759 9.35591 3.98804
34.1493 8.80955 2
35.941 8.48089 0.0114567
52.5542 32.8352 0.0148449
51.452 29.093 0.0091803
50.854 25.6562 0.0151013
49.9538 22.1297 0.0145538
47.5054 19.1918 0.0156592
45.8023 15.3999 0.0149116
43.8579 11.9039 0.0137006
40.569 11.5926 0.0134166
50.173 31.3672 2
38.3012 12.7156 2
42.1003 14.2854 2
49.3864 27.4021 2
49.4476 24.3356 2
47.1939 21.867 2
44.8005 18.4323 2
47.9518 29.5012 3.98624
47.1509 25.0425 3.98372
44.2925 21.2809 3.98233
36.5807 12.9122 3.98556
38.6796 14.7846 3.98482
41.7491 17.8109 3.98428
42.9093 37.4899 3.98744
45.0802 37.5029 2
46.5241 37.5043 0.0359727
46.8406 57.3697 0.0142166
47.1808 54.2849 0.0150269
48.2003 47.3224 0.0171704
47.6326 50.8313 0.0196197
44.7979 39.4956 -0.0316581
45.2749 42.0054 0.0549403
45.151 44.6391 0.00824384
44.9217 47.4249 0.0257168
42.8609 42.749 -0.0185859
42.4348 40.8599 -0.00684465
40.9236 42.3417 -0.00562014
45.4018 55.9569 2
42.7698 39.2572 2
40.8724 40.8068 2
46.1683 49.0245 2
45.5699 52.5774 2
43.5489 48.5191 2
43.5194 46.2116 2
43.8488 43.8151 2
41.3255 43.9115 2
39.2989 42.6709 2
43.7441 54.4665 3.98621
40.9591 39.1745 3.95352
39.2235 40.8758 3.95557
43.7529 50.5575 3.98613
42.0698 47.7534 3.99172
42.0092 45.2185 3.93855
39.5368 44.6774 3.98492
37.5054 42.785 3.96815
43.8772 57.7371 0.0142919
42.1086 56.3639 2
40.4227 54.973 3.98513
35.5734 65.4475 0.0123322
37.8366 63.2322 0.0133452
40.6227 61.6704 0.0139008
40.4452 58.2364 0.0143088
35.6073 63.2261 2
38.2502 60.355 2
38.9265 56.5328 2
38.0013 55.2885 3.98567
36.9347 57.6592 3.98542
35.3637 60.9389 3.98577
33.6298 63.359 0.013275
30.3794 62.8778 0.0131909
32.1238 62.0265 0.013536
33.3463 61.5399 2
28.6817 62.2238 2
31.0668 61.2445 2
29.4026 60.3147 3.98587
32.3561 59.7726 3.9859
28.0188 58.4032 3.98637
27.5671 59.6228 2
25.3756 58.6263 3.98618
22.7499 58.2764 3.98611
23.3981 60.3788 3.98706
23.7881 59.1153 2
25.0332 60.8973 2
24.4314 62.7902 3.98774
26.8686 61.5224 0.0135851
26.2293 63.497 2
25.5478 65.5051 3.98917
28.0629 64.1638 0.012323
27.4637 66.195 2
26.8366 68.3386 3.9914
29.4071 66.7705 0.0108018
28.9067 68.9503 2
28.3701 71.2661 3.99475
31.0141 69.4243 0.00863834
30.615 71.7811 2
30.1842 74.2788 4
32.8924 72.1497 0.0052403
32.6053 74.6792 2
35.0474 74.9194 0
31.7872 7.41 3.98948
33.3465 4.91979 3.99181
33.7229 6.97047 2
35.2444 2.46119 3.99508
35.4345 4.68063 2
35.6203 6.71662 0.010273
37.5 0 4
37.5141 2.38484 2
37.5229 4.61061 0.0080532
39.7884 2.47242 0.00493567
39.9526 0.0802889 2
42.3946 0.32156 0
42.7765 35.7263 3.99348
44.7988 35.5126 2
40.8717 34.1881 3.96705
42.4292 34.1363 2
48.4338 37.7551 0.00493168
51.5678 35.5662 0.0199476
46.1853 35.1167 0.0358749
44.0402 33.7593 -0.028137
42.075 33.0073 -0.00728149
48.5928 34.251 2
45.2737 33.0043 2
42.8596 32.255 2
40.9198 32.6512 2
46.5694 31.5286 3.98658
43.8523 31.1836 3.93833
41.3315 31.0825 4.009
39.295 32.338 3.98119
35.6911 11.7578 3.98605
37.3097 10.6138 2
37.4574 8.52242 0.0115487
38.9758 10.1123 0.0122165
33.0965 11.1995 3.98677
34.7526 10.3636 2
35.8976 9.75894 0.0121346
30.4806 10.0031 3.98784
32.3759 9.35555 2
34.1493 8.8099 0.0116317
50.1725 31.3669 0.010237
49.3859 27.402 0.0131171
49.4472 24.3358 0.0162524
47.1937 21.8674 0.0156785
44.8004 18.4327 0.0161453
42.1003 14.2857 0.014765
38.3012 12.716 0.0146811
36.5807 12.9119 2
47.9524 29.5016 2
38.6796 14.7843 2
41.7491 17.8105 2
47.1514 25.0421 2
44.2926 21.2805 2
45.6793 27.6868 3.98245
43.8268 23.9802 3.98192
41.3432 20.6856 3.98322
35.7699 14.7353 3.98516
38.6801 17.5683 3.98456
41.0087 37.4796 3.94772
42.9067 37.4897 2
45.0821 37.5029 -0.0337042
45.4017 55.9566 0.0142568
45.5697 52.5768 0.015575
46.1678 49.0238 0.0186999
42.7727 39.2582 0.0071139
43.8478 43.82 0.0629076
43.5186 46.2104 0.00773862
43.5485 48.5176 0.0259661
41.3259 43.9135 -0.0070346
40.8751 40.8056 0.0330422
39.3001 42.6658 0.0221822
43.7441 54.4668 2
40.9564 39.175 2
39.2221 40.8791 2
43.7532 50.5584 2
42.0703 47.7545 2
42.0091 45.2161 2
37.5057 42.7902 2
39.5371 44.6818 2
41.8916 53.039 3.98385
39.2206 39.1652 3.94827
37.5048 40.9131 3.95669
35.7106 42.6571 3.98495
40.9948 49.7785 3.99025
39.8808 46.1047 3.96434
37.4974 44.9508 3.97406
42.1086 56.3637 0.0145117
40.4227 54.9732 2
38.7331 53.9068 3.98577
35.6073 63.2258 0.0133904
38.2502 60.3548 0.0142041
38.9265 56.5326 0.0142772
35.3637 60.9392 2
36.9347 57.6594 2
38.0014 55.2886 2
36.3204 55.4193 3.9856
34.4873 58.5511 3.98534
33.3463 61.5396 0.0140085
28.6817 62.2234 0.0133015
31.0668 61.2441 0.0139884
32.3561 59.7729 2
29.4026 60.315 2
30.2949 57.8469 3.98557
28.0188 58.4035 2
26.9358 56.8581 3.98544
27.5671 59.6225 0.0139718
25.3755 58.6267 2
23.8274 56.846 3.98542
21.324 57.4389 3.98619
21.9894 59.6536 3.98722
22.7498 58.2768 2
22.7346 62.0432 3.9878
23.398 60.3791 2
23.7882 59.1149 0.013065
25.0332 60.897 0.0131823
24.4314 62.7905 2
23.6816 64.7242 3.9892
26.2293 63.4966 0.0124345
25.5478 65.5055 2
24.8091 67.6002 3.99144
27.4637 66.1946 0.01082
26.8366 68.3389 2
26.1655 70.607 3.9948
28.9067 68.9499 0.00863373
28.3702 71.2664 2
27.7943 73.7221 4
30.6149 71.7808 0.00525381
30.1841 74.2794 2
32.6054 74.6784 0
29.8098 7.98261 3.98931
31.2518 5.32644 3.9917
31.7872 7.40964 2
32.9803 2.69917 3.99507
33.3466 4.91947 2
33.7229 6.97082 0.0103564
35.0474 0.080333 4
35.2445 2.46095 2
35.4344 4.68095 0.00815322
37.5 0 2
37.5141 2.38507 0.00487258
39.9526 0.0806499 0
40.9638 35.7962 3.95183
42.7735 35.7269 2
44.8013 35.5082 -0.0353648
28.5417 10.6779 3.98759
39.218 34.1267 3.95886
40.8689 34.1864 2
42.4321 34.1351 -0.00934533
48.5925 34.2509 0.0112012
45.2735 33.0006 0.0544245
42.8613 32.2496 -0.0206665
40.9219 32.6527 -0.00439674
46.5702 31.5289 2
43.852 31.1878 2
41.3311 31.0843 2
39.2937 32.3337 2
44.6232 29.6668 3.989
42.0153 29.7792 3.93974
39.5423 30.3261 3.97819
37.4988 32.2093 3.96555
34.0907 12.914 3.98572
35.6911 11.7574 2
37.3097 10.6142 0.0130377
31.1846 11.9668 3.98659
33.0964 11.1991 2
34.7527 10.364 0.0128611
30.4806 10.0028 2
32.3759 9.35591 0.011962
47.9518 29.5012 0.0137553
47.1509 25.0425 0.0162811
36.5807 12.9122 0.0144378
44.2925 21.2809 0.0176739
41.7491 17.8109 0.0157173
38.6796 14.7846 0.0151757
35.7699 14.735 2
45.6801 27.6865 2
38.6801 17.568 2
41.3433 20.6852 2
43.8272 23.9797 2
33.6058 15.8514 3.98471
43.1404 26.3788 3.98012
40.9278 23.2582 3.9833
38.4226 20.2948 3.98436
35.8465 17.4821 3.98436
39.232 37.4815 3.94473
41.0063 37.4794 2
42.9093 37.4899 0.0125554
43.7441 54.4665 0.0137906
43.7529 50.5575 0.0138691
40.9591 39.1745 0.0464808
42.0092 45.2185 0.061451
42.0698 47.7534 0.00827907
39.5368 44.6774 0.0150824
39.2235 40.8758 0.0444265
37.5054 42.785 0.031846
41.8917 53.0393 2
39.2192 39.1668 2
37.5051 40.9163 2
40.9953 49.7783 2
35.7123 42.6611 2
39.881 46.1081 2
37.4977 44.9564 2
39.8316 51.956 3.98359
37.5005 39.1745 3.95069
35.7886 40.8782 3.96052
34.0834 42.3413 4.00642
35.4584 44.6567 3.98269
38.7466 48.9161 4.00409
37.4968 46.3822 3.96526
40.4227 54.973 0.014874
38.7332 53.9068 2
36.7192 53.2497 3.98782
35.3637 60.9389 0.0142256
36.9347 57.6592 0.0145833
38.0013 55.2885 0.0143278
34.4873 58.5514 2
36.3205 55.4196 2
33.2232 55.5352 3.98476
32.3561 59.7726 0.0141032
29.4026 60.3147 0.0141341
30.2949 57.8472 2
28.6728 55.3443 3.98444
28.0188 58.4032 0.0136349
26.9357 56.8585 2
25.2897 55.1885 3.98478
21.7888 55.3927 3.98511
25.3756 58.6263 0.013821
23.8273 56.8464 2
20.2067 57.0709 3.98655
20.6388 58.8147 3.98709
21.3239 57.4393 2
21.1639 61.1955 3.98805
21.9893 59.654 2
22.7499 58.2764 0.0138938
21.8946 63.8534 3.98928
22.7346 62.0435 2
23.3981 60.3788 0.0129407
24.4314 62.7902 0.0122568
23.6816 64.7245 2
22.8375 66.7446 3.99144
25.5478 65.5051 0.0108267
24.8092 67.6006 2
24.01 69.8084 3.99484
26.8366 68.3386 0.00859626
26.1656 70.6073 2
25.446 73.0099 4
28.3701 71.2661 0.00524516
27.7943 73.7222 2
30.1842 74.2788 0
27.8197 8.64149 3.98915
29.1539 5.87168 3.99152
29.8098 7.98225 2
30.7257 3.09611 3.99501
31.2518 5.3261 2
31.7872 7.41 0.0105201
32.6053 0.320823 4
32.9804 2.69893 2
33.3465 4.91979 0.00818554
35.0474 0.0802903 2
35.2444 2.46119 0.00491546
37.5 0 0
39.2252 35.8107 3.94861
40.9611 35.7953 2
42.7765 35.7263 0.00652379
28.5417 10.6775 2
26.6208 11.3719 3.98772
29.2237 12.6232 3.98659
37.4969 34.0867 3.95492
39.2163 34.1238 2
40.8717 34.1881 0.0329549
46.5694 31.5286 0.0134158
43.8523 31.1836 0.0616708
41.3315 31.0825 -0.00899766
39.295 32.338 0.0188089
44.6241 29.6658 2
42.0148 29.781 2
39.5422 30.3224 2
37.499 32.2042 2
42.4678 28.3187 3.99261
39.8878 28.8908 3.95592
37.5025 30.0348 3.96925
35.7045 32.3328 3.98012
31.9124 14.4582 3.98554
34.0907 12.9137 2
35.6911 11.7578 0.0139487
31.1845 11.9665 2
33.0965 11.1995 0.0132255
30.4806 10.0031 0.0121593
45.6793 27.6868 0.0175534
43.8268 23.9802 0.0180828
35.7699 14.7353 0.0148404
41.3432 20.6856 0.0167794
38.6801 17.5683 0.0154428
33.6057 15.851 2
35.8465 17.4818 2
43.141 26.3781 2
38.4227 20.2943 2
40.9281 23.2576 2
33.5478 17.3598 3.98414
40.4944 25.558 3.98025
38.0834 22.8253 3.98611
35.5832 20.0487 3.98307
37.5016 37.4901 3.94909
39.2308 37.4815 2
41.0087 37.4796 0.052279
41.8916 53.039 0.0161482
40.9948 49.7785 0.00975188
39.2206 39.1652 0.0517271
39.8808 46.1047 0.0356598
37.4974 44.9508 0.0259369
37.5048 40.9131 0.0433133
35.7106 42.6571 0.0150463
39.8318 51.9559 2
37.5006 39.1759 2
35.7906 40.881 2
38.747 48.9173 2
34.086 42.3423 2
35.4587 44.6598 2
37.4968 46.3854 2
37.6625 51.1071 3.9854
35.7846 39.1775 3.95078
34.1423 40.8127 3.96837
32.9285 41.9872 4.00813
33.6682 43.9054 4.01056
35.1153 46.0863 3.95903
36.8626 48.5075 4.00457
38.7331 53.9068 0.0142254
36.7193 53.2501 2
34.3472 52.5227 3.9855
34.4873 58.5511 0.0146577
36.3204 55.4193 0.0143965
33.2232 55.5356 2
30.4959 53.4553 3.98346
30.2949 57.8469 0.014429
28.6726 55.3448 2
26.85 53.4966 3.98366
26.9358 56.8581 0.0145623
25.2895 55.1889 2
23.5384 53.5362 3.98414
20.4324 53.2807 3.98462
19.9152 55.8769 3.98607
21.7887 55.393 2
23.8274 56.846 0.0145756
19.4292 57.93 3.9869
20.2066 57.0712 2
19.7023 60.2322 3.98791
20.6388 58.815 2
21.324 57.4389 0.013813
20.2064 62.8768 3.98942
21.1638 61.1959 2
21.9894 59.6536 0.0127767
20.9389 65.7746 3.99149
21.8946 63.8538 2
22.7346 62.0432 0.0122004
23.6816 64.7242 0.0107961
22.8376 66.745 2
21.9126 68.8759 3.99484
24.8091 67.6002 0.00855847
24.0101 69.8088 2
23.1494 72.1454 4
26.1655 70.607 0.00520018
25.446 73.0099 2
27.7943 73.7221 0
25.8591 9.36867 3.98924
27.0689 6.53506 3.99143
27.8197 8.64112 2
28.488 3.6418 3.9949
29.154 5.87133 2
29.8098 7.98261 0.0106921
30.1841 0.720592 4
30.7258 3.09585 2
31.2518 5.32644 0.00830385
32.6053 0.320817 2
32.9803 2.69917 0.00493288
35.0474 0.080333 0
37.5015 35.8116 3.94901
39.2238 35.8093 2
40.9638 35.7962 0.0481727
24.7759 12.0538 3.98783
23.7497 14.335 3.98723
28.5417 10.6779 0.012408
26.6208 11.3716 2
29.2236 12.6228 2
27.2898 13.3548 3.98653
29.7785 14.1806 3.98627
35.7799 34.118 3.958
37.4967 34.0836 2
39.218 34.1267 0.0411429
37.4988 32.2093 0.0344508
44.6232 29.6668 0.0110047
42.0153 29.7792 0.0602564
39.5423 30.3261 0.0218068
42.4687 28.3179 2
39.8878 28.8887 2
37.5026 30.0291 2
35.7062 32.3283 2
40.1095 27.4643 4.00059
37.502 28.598 3.95783
35.4616 30.3223 3.97813
34.0812 32.6498 4.00447
30.924 16.813 3.98533
31.9124 14.4578 2
34.0907 12.914 0.0142781
31.1846 11.9668 0.0134055
43.1404 26.3788 0.019876
40.9278 23.2582 0.0167037
33.6058 15.8514 0.0152912
35.8465 17.4821 0.0156425
38.4226 20.2948 0.0156436
33.5478 17.3594 2
35.5832 20.0484 2
40.4947 25.5569 2
38.0835 22.8246 2
32.8605 19.7668 3.98295
37.7858 25.1404 3.98401
35.2041 22.6074 3.98219
35.774 37.4949 3.94637
37.5017 37.4901 2
39.232 37.4815 0.0552695
39.8316 51.956 0.0164089
38.7466 48.9161 -0.00408934
37.5005 39.1745 0.049307
37.4968 46.3822 0.0347445
35.4584 44.6567 0.0173127
35.7886 40.8782 0.039478
34.0834 42.3413 -0.00642235
37.6626 51.1077 2
35.786 39.1787 2
34.1454 40.8138 2
36.8628 48.5092 2
32.9313 41.9851 2
33.669 43.9028 2
35.1152 46.0875 2
35.4048 50.2824 3.98343
34.0535 39.1891 3.9536
32.573 40.8605 4.01065
32.1382 42.7443 4.02163
32.9886 45.2122 3.93934
34.2187 47.5229 3.99637
36.7192 53.2497 0.0121754
34.3471 52.5234 2
31.9576 51.2977 3.98279
33.2232 55.5352 0.0152444
30.4957 53.4559 2
28.381 51.7031 3.98192
28.6728 55.3443 0.0155566
26.8498 53.4971 2
25.0283 51.8396 3.98334
25.2897 55.1885 0.0152203
23.5382 53.5365 2
21.915 51.8741 3.9844
19.1554 51.6937 3.9851
18.8956 54.357 3.98528
20.4322 53.2809 2
18.4345 56.7641 3.98676
19.9151 55.8772 2
21.7888 55.3927 0.014894
18.3628 59.1429 3.98761
19.4291 57.9304 2
20.2067 57.0709 0.0134459
18.6165 61.7868 3.98933
19.7023 60.2326 2
20.6388 58.8147 0.0129098
19.1275 64.6867 3.99154
20.2064 62.8772 2
21.1639 61.1955 0.0119507
19.8867 67.813 3.99486
20.939 65.775 2
21.8946 63.8534 0.0107245
22.8375 66.7446 0.00855938
21.9127 68.8762 2
20.9142 71.1327 4
24.01 69.8084 0.00516395
23.1494 72.1455 2
25.446 73.0099 0
23.0952 12.7674 3.98794
23.9719 10.1543 3.9893
25.0229 7.30447 3.99145
25.8591 9.36831 2
26.2798 4.32571 3.99484
27.0689 6.53469 2
27.8197 8.64149 0.010845
27.7943 1.27781 4
28.4881 3.64151 2
29.1539 5.87168 0.00847948
30.1841 0.720551 2
30.7257 3.09611 0.00499289
32.6053 0.320823 0
35.7796 35.8144 3.94886
37.5014 35.8102 2
39.2252 35.8107 0.0513912
24.7758 12.0535 2
23.7496 14.3347 2
22.478 15.0099 3.9874
25.356 13.8855 3.98691
24.0224 15.595 3.98684
26.6208 11.3719 0.0122805
29.2237 12.6232 0.0134093
27.2898 13.3545 2
29.7784 14.1802 2
28.3546 15.9527 3.98605
34.1349 34.183 3.96664
35.7813 34.115 2
37.4969 34.0867 0.0450786
35.7045 32.3328 0.0198839
37.5025 30.0348 0.0307534
42.4678 28.3187 0.00738995
39.8878 28.8908 0.0440823
40.11 27.4622 2
37.5021 28.5936 2
35.4618 30.3185 2
34.0836 32.6484 2
37.6001 27.102 4.00876
35.1152 28.8859 3.9563
33.6717 31.0819 4.01142
32.9284 33.0076 4.0106
30.2047 19.3141 3.98549
30.9239 16.8126 2
31.9124 14.4582 0.01446
40.4944 25.558 0.0197496
38.0834 22.8253 0.0138946
33.5478 17.3598 0.0158576
35.5832 20.0487 0.0169251
32.8604 19.7664 2
35.2041 22.607 2
37.7858 25.1392 2
32.3057 22.3804 3.98323
34.9311 25.1122 3.97875
34.0031 37.4968 3.94892
35.7752 37.4948 2
37.5016 37.4901 0.0509119
37.6625 51.1071 0.0145977
36.8626 48.5075 -0.00457307
35.7846 39.1775 0.0492224
35.1153 46.0863 0.0409702
33.6682 43.9054 -0.0105617
34.1423 40.8127 0.0316306
32.9285 41.9872 -0.0081301
35.4046 50.2834 2
34.0561 39.1896 2
32.5762 40.8587 2
34.2184 47.5245 2
32.1402 42.7384 2
32.989 45.2097 2
33.1518 49.2748 3.98196
32.2299 39.2666 3.99472
30.9579 41.2379 4.02798
31.15 43.8138 3.9375
32.1092 46.4488 3.99222
34.3472 52.5227 0.0144995
31.9572 51.2986 2
29.7761 49.8269 3.98086
30.4959 53.4553 0.0165441
28.3806 51.7036 2
26.4291 50.0909 3.98238
26.85 53.4966 0.0163377
25.028 51.8398 2
23.2708 50.2762 3.98488
23.5384 53.5362 0.0158615
21.9148 51.8741 2
20.4055 50.3824 3.98571
17.9387 50.3856 3.98607
17.7996 52.8425 3.98529
19.1552 51.6938 2
17.4187 55.3829 3.98612
18.8955 54.3573 2
20.4324 53.2807 0.0153805
17.1266 57.9076 3.98756
18.4344 56.7644 2
19.9152 55.8769 0.0139329
17.133 60.573 3.98902
18.3627 59.1433 2
19.4292 57.93 0.0131018
17.4074 63.481 3.9915
18.6165 61.7872 2
19.7023 60.2322 0.0120881
17.9429 66.622 3.99487
19.1276 64.6872 2
20.2064 62.8768 0.0105835
18.75 69.9759 4
19.8869 67.8134 2
20.9389 65.7746 0.00851348
21.9126 68.8759 0.00516211
20.9142 71.1327 2
23.1494 72.1454 0
21.5859 13.586 3.98808
22.1902 11.0126 3.98934
23.0952 12.767 2
23.0411 8.16913 3.99149
23.972 10.154 2
24.1175 5.1401 3.99482
25.0229 7.30409 2
25.8591 9.36867 0.0107558
25.446 1.99014 4
26.2799 4.3254 2
27.0689 6.53506 0.00857262
27.7943 1.27778 2
28.488 3.6418 0.00509879
30.1841 0.720592 0
34.0458 35.8048 3.9519
35.7809 35.8129 2
37.5015 35.8116 0.0509925
21.3026 15.8036 3.98717
24.7759 12.0538 0.0121701
23.7497 14.335 0.0127722
25.3559 13.8852 2
22.4779 15.0096 2
24.0223 15.5947 2
23.2612 16.2249 3.98662
25.3778 16.0629 3.9866
27.2898 13.3548 0.0134684
29.7785 14.1806 0.0137296
28.3545 15.9524 2
27.436 18.7705 3.98592
32.5707 34.1358 4.0097
34.1373 34.1816 2
35.7799 34.118 0.0419996
34.0812 32.6498 -0.00447492
35.4616 30.3223 0.0218669
37.502 28.598 0.042175
40.1095 27.4643 -0.000593631
37.6 27.099 2
32.9309 33.0094 2
35.1154 28.8835 2
33.6724 31.0839 2
34.9965 27.2669 3.99984
32.9884 29.7819 3.9408
32.1426 32.2518 4.02304
29.5646 21.9084 3.98663
30.2047 19.3137 2
30.924 16.813 0.0146745
37.7858 25.1404 0.0159934
35.2041 22.6074 0.0178054
32.8605 19.7668 0.0170493
32.3057 22.38 2
34.9307 25.1115 2
31.6117 25.5531 3.98201
32.0952 37.4999 3.98789
34.0055 37.4966 2
35.774 37.4949 0.0536332
35.4048 50.2824 0.0165675
34.2187 47.5229 0.0036306
34.0535 39.1891 0.0463992
32.9886 45.2122 0.0606625
32.1382 42.7443 -0.0216324
32.573 40.8605 -0.0106499
33.1513 49.276 2
32.2328 39.2654 2
30.9612 41.2316 2
32.1085 46.4499 2
31.1501 43.8093 2
31.014 48.0199 3.97839
30.196 39.491 4.03545
29.7257 42.0004 3.94416
30.1852 45.0221 3.98979
31.9576 51.2977 0.0172143
29.7755 49.8275 2
27.7546 48.2967 3.98341
28.381 51.7031 0.0180788
26.4286 50.0911 2
24.5489 48.5616 3.98612
25.0283 51.8396 0.0166639
23.2705 50.2762 2
21.5701 48.866 3.98708
21.915 51.8741 0.015598
20.4052 50.3825 2
18.9704 49.1531 3.98704
16.8447 49.3813 3.98658
16.7355 51.4563 3.9858
17.9385 50.3858 2
16.3654 53.9142 3.98585
17.7995 52.8427 2
19.1554 51.6937 0.014902
15.9652 56.5114 3.98716
17.4186 55.3832 2
18.8956 54.357 0.0147164
15.7454 59.2365 3.98882
17.1266 57.9079 2
18.4345 56.7641 0.0132358
15.7874 62.1536 3.99131
17.133 60.5734 2
18.3628 59.1429 0.0123881
16.0893 65.3051 3.99486
17.4075 63.4815 2
18.6165 61.7868 0.0106689
16.6661 68.6801 4
17.943 66.6224 2
19.1275 64.6867 0.00845557
18.75 69.9759 2
19.8867 67.813 0.00514152
20.9142 71.1327 0
20.2174 14.5727 3.98789
21.5858 13.5856 2
20.5296 11.9811 3.98939
21.1443 9.13819 3.99151
22.1902 11.0122 2
23.0952 12.7674 0.0120596
22.0167 6.07879 3.99484
23.0411 8.16874 2
23.9719 10.1543 0.010701
23.1494 2.85457 4
24.1176 5.13978 2
25.0229 7.30447 0.0085521
25.446 1.99012 2
26.2798 4.32571 0.00515925
27.7943 1.27781 0
32.228 35.7323 3.99164
34.0482 35.8039 2
35.7796 35.8144 0.0511359
21.3025 15.8033 2
20.2989 16.9346 3.98715
22.094 16.6077 3.98692
25.356 13.8855 0.0130943
22.478 15.0099 0.0126018
24.0224 15.595 0.0131611
25.3777 16.0627 2
23.2611 16.2246 2
24.2 18.4206 3.98607
27.0026 21.4261 3.98625
28.3546 15.9527 0.0139461
27.4359 18.7702 2
30.9591 33.761 4.02689
32.573 34.1369 2
34.1349 34.183 0.0333624
32.9284 33.0076 -0.0105964
33.6717 31.0819 -0.0114196
35.1152 28.8859 0.043703
37.6001 27.102 -0.00875553
34.9959 27.2653 2
32.1448 32.2576 2
32.9889 29.7841 2
32.3888 28.0154 3.99496
31.1524 31.1902 3.94382
28.7334 24.3779 3.98621
29.5645 21.9081 2
30.2047 19.3141 0.0145055
34.9311 25.1122 0.0212488
32.3057 22.3804 0.0167721
31.611 25.5526 2
29.5081 27.1843 3.98736
29.9146 37.4983 4.03368
32.0979 37.4995 2
34.0031 37.4968 0.0510753
33.1518 49.2748 0.0180399
32.1092 46.4488 0.00778421
32.2299 39.2666 0.00527866
31.15 43.8138 0.0624954
30.9579 41.2379 -0.0279767
31.0133 48.0204 2
30.1985 39.4868 2
29.7255 41.9964 2
30.1842 45.0235 2
29.0095 46.5545 3.98126
28.8116 39.884 3.96322
28.4134 43.2086 3.98719
29.7761 49.8269 0.0191399
27.754 48.297 2
25.7973 46.7532 3.98833
26.4291 50.0909 0.0176216
24.5485 48.5615 2
22.6904 47.1636 3.9891
23.2708 50.2762 0.0151186
21.5698 48.866 2
19.9046 47.6827 3.9881
20.4055 50.3824 0.0142938
18.9701 49.1533 2
17.6127 48.23 3.98699
16.0958 48.7281 3.9865
16.8445 49.3815 2
15.8108 50.2157 3.98627
15.3509 52.4583 3.98597
16.7354 51.4565 2
17.9387 50.3856 0.0139269
14.8534 55.0139 3.98669
16.3653 53.9145 2
17.7996 52.8425 0.0147105
14.4532 57.7673 3.98848
15.9651 56.5117 2
17.4187 55.3829 0.0138801
14.2651 60.7102 3.99113
15.7453 59.2369 2
17.1266 57.9076 0.0124423
14.3333 63.8649 3.99478
15.7875 62.154 2
17.133 60.573 0.0109771
14.6715 67.2507 4
16.0895 65.3056 2
17.4074 63.481 0.0084964
16.6661 68.6801 2
17.9429 66.622 0.0051261
18.75 69.9759 0
18.9304 15.7568 3.98776
20.2174 14.5724 2
18.9791 13.0901 3.98926
21.5859 13.586 0.0119164
20.5296 11.9807 2
19.3438 10.2251 3.99152
19.9914 7.14314 3.99485
21.1444 9.13778 2
22.1902 11.0126 0.0106614
20.9142 3.86727 4
22.0168 6.07844 2
23.0411 8.16913 0.00851359
23.1494 2.85451 2
24.1175 5.1401 0.00518074
25.446 1.99014 0
30.1957 35.5076 4.03085
32.2306 35.7328 2
34.0458 35.8048 0.0481025
21.3026 15.8036 0.0128276
22.094 16.6073 2
20.2988 16.9343 2
19.2361 18.378 3.98703
21.7776 17.8204 3.98674
25.3778 16.0629 0.0134004
23.2612 16.2249 0.0133839
24.1999 18.4203 2
22.268 19.857 3.98633
24.5777 21.2842 3.98581
26.367 23.6822 3.98671
27.0025 21.4258 2
27.436 18.7705 0.0140777
29.7301 33.0003 3.95038
30.9612 33.7671 2
32.5707 34.1358 -0.00969682
32.1426 32.2518 -0.0230387
32.9884 29.7819 0.0591999
34.9965 27.2669 0.000158777
32.388 28.0141 2
31.1524 31.1955 2
29.8887 29.474 3.99194
27.7625 26.4956 3.98219
28.7329 24.3773 2
29.5646 21.9084 0.0133694
31.6117 25.5531 0.0179892
29.5073 27.1838 2
28.4712 37.4963 3.96321
29.9166 37.4986 2
32.0952 37.4999 0.0121077
31.014 48.0199 0.0216078
30.1852 45.0221 0.0102117
30.196 39.491 -0.0354538
29.7257 42.0004 0.0558364
29.0087 46.5548 2
28.8119 39.8813 2
28.4124 43.2086 2
27.0658 44.9022 3.98599
26.5297 40.6373 3.98945
27.7546 48.2967 0.0165878
25.7968 46.7531 2
23.8215 45.2899 3.99137
24.5489 48.5616 0.0138768
22.69 47.1635 2
20.8191 45.9616 3.98883
21.5701 48.866 0.0129168
19.9042 47.6829 2
18.2486 46.7883 3.98713
18.9704 49.1531 0.0129611
17.6124 48.2302 2
16.2817 47.7565 3.98624
16.0955 48.7283 2
15.1553 49.0567 3.98623
16.8447 49.3813 0.0134198
15.8106 50.2159 2
14.4619 51.0246 3.98618
13.8122 53.47 3.9865
15.3507 52.4585 2
16.7355 51.4563 0.0141985
13.2463 56.1965 3.98798
14.8533 55.0142 2
16.3654 53.9142 0.0141508
12.847 59.1455 3.99085
14.4532 57.7678 2
15.9652 56.5114 0.0128393
12.6786 62.3081 3.99464
14.2651 60.7107 2
15.7454 59.2365 0.0111782
12.7746 65.6939 4
14.3334 63.8654 2
15.7874 62.1536 0.00868529
14.6714 67.2507 2
16.0893 65.3051 0.00513944
16.6661 68.6801 0
17.6637 17.1294 3.98755
18.9304 15.7565 2
17.51 14.3517 3.98908
20.2174 14.5727 0.0121083
18.9791 13.0897 2
17.6393 11.4427 3.99143
20.5296 11.9811 0.0106069
19.3438 10.2247 2
18.0517 8.33559 3.99485
18.75 5.0241 4
19.9915 7.14277 2
21.1443 9.13819 0.0084941
20.9142 3.86727 2
22.0167 6.07879 0.00516368
23.1494 2.85457 0
28.8035 35.1092 3.95946
30.198 35.5118 2
32.228 35.7323 0.00835647
22.094 16.6077 0.0130821
20.2989 16.9346 0.0128454
21.7775 17.82 2
19.236 18.3777 2
17.9684 19.9064 3.98692
20.8675 19.3435 3.98665
24.2 18.4206 0.0139289
22.2679 19.8567 2
24.5776 21.2838 2
22.3387 21.677 3.98627
24.6546 23.1266 3.98663
25.3621 25.9069 3.98343
26.3666 23.6818 2
27.0026 21.4261 0.0137525
28.0839 32.2629 3.99444
29.7296 33.0039 2
30.9591 33.761 -0.0268889
31.1524 31.1902 0.0561836
32.3888 28.0154 0.00503848
29.8879 29.473 2
26.8517 29.1001 3.97577
27.7617 26.495 2
28.7334 24.3779 0.0137862
29.5081 27.1843 0.0126354
26.6371 37.3616 3.99273
28.472 37.4958 2
29.9146 37.4983 -0.0336762
29.0095 46.5545 0.0187385
28.4134 43.2086 0.0128067
28.8116 39.884 0.0367819
27.0651 44.9018 2
26.5294 40.6369 2
25.0303 43.2196 3.9892
23.7833 39.4381 3.98132
25.7973 46.7532 0.0116731
23.821 45.2898 2
21.7792 44.0065 3.98773
22.6904 47.1636 0.0109042
20.8186 45.9619 2
18.8967 45.0165 3.98693
19.9046 47.6827 0.0119042
18.2482 46.7884 2
16.5643 46.252 3.9859
17.6127 48.23 0.0130141
16.2814 47.7567 2
14.8812 47.7077 3.98582
16.0958 48.7281 0.0135041
15.1551 49.0569 2
13.7575 49.5824 3.9861
15.8108 50.2157 0.0137331
14.4617 51.0249 2
12.8767 51.9074 3.98646
12.1317 54.5552 3.98761
13.8121 53.4703 2
15.3509 52.4583 0.0140317
11.5308 57.479 3.99042
13.2462 56.1969 2
14.8534 55.0139 0.0133111
11.1332 60.6352 3.99447
12.8471 59.146 2
14.4532 57.7673 0.0115231
10.9835 64.0165 4
12.6787 62.3086 2
14.2651 60.7102 0.00887479
12.7745 65.694 2
14.3333 63.8649 0.00522451
14.6715 67.2507 0
16.394 18.6199 3.98748
17.6636 17.129 2
16.1004 15.7582 3.98886
18.9304 15.7568 0.0122379
17.51 14.3513 2
16.0208 12.7943 3.99126
18.9791 13.0901 0.0107377
17.6394 11.4422 2
16.2028 9.65813 3.99481
19.3438 10.2251 0.00848379
18.0518 8.33519 2
16.6661 6.31991 4
18.75 5.02404 2
19.9914 7.14314 0.00514837
20.9142 3.86727 0
27.1487 34.7349 3.99847
28.804 35.1114 2
30.1957 35.5076 -0.0308501
16.6638 21.3378 3.98629
21.7776 17.8204 0.0132578
19.2361 18.378 0.0129663
20.8674 19.3432 2
17.9683 19.9061 2
19.706 21.5319 3.98665
22.268 19.857 0.0136743
24.5777 21.2842 0.0141944
22.3385 21.6766 2
24.6543 23.1262 2
22.7855 24.5567 3.9848
24.4072 28.4872 3.98074
25.3615 25.9065 2
26.367 23.6822 0.0132885
25.9319 31.6826 3.98008
28.0829 32.2628 2
29.7301 33.0003 0.0496162
29.8887 29.474 0.00806291
26.8511 29.1003 2
27.7625 26.4956 0.0178061
24.4596 36.8566 3.98793
26.6368 37.3616 2
28.4712 37.4963 0.036791
27.0658 44.9022 0.0140129
26.5297 40.6373 0.0105468
25.0297 43.2191 2
23.7831 39.4385 2
22.8156 41.8386 3.98476
21.5473 38.5046 3.98582
23.8215 45.2899 0.00863328
21.7787 44.0069 2
19.6349 42.9254 3.98586
20.8191 45.9616 0.011169
18.8963 45.0165 2
16.8844 44.4136 3.9858
18.2486 46.7883 0.01287
16.5639 46.2521 2
14.7964 46.1237 3.98535
16.2817 47.7565 0.0137646
14.8809 47.7079 2
13.2616 48.0413 3.98571
15.1553 49.0567 0.0137739
13.7573 49.5826 2
12.0937 50.2833 3.98631
14.4619 51.0246 0.0138212
12.8766 51.9077 2
11.1257 52.8631 3.98736
10.3203 55.7316 3.98995
12.1317 54.5556 2
13.8122 53.47 0.0134989
9.69985 58.859 3.99421
11.5308 57.4795 2
13.2463 56.1965 0.0120168
9.30605 62.2254 4
11.1333 60.6357 2
12.847 59.1455 0.0091466
10.9835 64.0165 2
12.6786 62.3081 0.00535604
12.7746 65.6939 0
15.1358 20.1514 3.98707
16.394 18.6196 2
14.745 17.2782 3.98857
17.6637 17.1294 0.0124485
16.1004 15.7578 2
14.483 14.2738 3.99105
17.51 14.3517 0.0109207
16.0209 12.7938 2
14.4455 11.1087 3.9947
17.6393 11.4427 0.00856598
16.2029 9.6577 2
14.6715 7.74927 4
18.0517 8.33559 0.00514913
16.6661 6.31988 2
18.75 5.0241 0
25.1009 34.2615 3.99275
27.1482 34.7351 2
28.8035 35.1092 0.0405438
17.8312 22.281 3.98682
15.5031 22.8794 3.98572
16.6636 21.3375 2
20.8675 19.3435 0.0133473
17.9684 19.9064 0.0130807
19.7058 21.5316 2
19.6155 24.3369 3.98557
22.3387 21.677 0.0137274
24.6546 23.1266 0.0133705
22.7851 24.5563 2
21.8023 27.7806 3.98116
23.5644 31.1516 3.98436
24.4068 28.4873 2
25.3621 25.9069 0.0165688
25.9313 31.6832 2
28.0839 32.2629 0.0055564
26.8517 29.1001 0.0242337
22.2482 36.2563 3.99154
24.4594 36.8569 2
26.6371 37.3616 0.00727074
25.0303 43.2196 0.010802
23.7833 39.4381 0.0186846
22.8151 41.8388 2
21.5471 38.5044 2
20.5437 40.6524 3.98345
19.9162 37.7819 3.98811
21.7792 44.0065 0.0122664
19.6346 42.9254 2
17.2697 42.1249 3.98508
18.8967 45.0165 0.0130683
16.884 44.4136 2
14.7918 44.2278 3.98497
16.5643 46.252 0.0141021
14.796 46.1238 2
12.9298 46.3243 3.98529
14.8812 47.7077 0.0141805
13.2613 48.0415 2
11.4629 48.5774 3.98596
13.7575 49.5824 0.0139031
12.0935 50.2836 2
10.2499 51.1049 3.98709
12.8767 51.9074 0.0135417
11.1256 52.8635 2
9.22815 53.9095 3.98952
8.38346 56.9931 3.99386
10.3203 55.7321 2
12.1317 54.5552 0.0123889
7.74927 60.3285 4
9.69993 58.8595 2
11.5308 57.479 0.00957604
9.306 62.2255 2
11.1332 60.6352 0.00552719
10.9835 64.0165 0
13.9444 21.7165 3.9867
15.1357 20.1511 2
13.4441 18.873 3.98817
16.394 18.6199 0.0125204
14.7449 17.2778 2
13.0281 15.8643 3.99079
16.1004 15.7582 0.0111362
14.4831 14.2734 2
12.7826 12.6812 3.99456
16.0208 12.7943 0.00873639
14.4456 11.1082 2
12.7746 9.30605 4
16.2028 9.65813 0.00518966
14.6715 7.74924 2
16.6661 6.31991 0
22.8478 33.7699 3.99347
25.1005 34.2623 2
27.1487 34.7349 0.00153393
17.5885 23.999 3.98607
17.831 22.2807 2
14.281 24.412 3.985
15.5028 22.8791 2
16.6638 21.3378 0.0137098
18.9528 27.1605 3.98229
19.706 21.5319 0.0133453
19.6151 24.3366 2
21.0259 30.6278 3.9824
22.7855 24.5567 0.0152007
21.8019 27.7806 2
23.5639 31.152 2
24.4072 28.4872 0.0192579
25.9319 31.6826 0.0199211
20.0253 35.9087 3.9906
22.2479 36.2563 2
24.4596 36.8566 0.012066
22.8156 41.8386 0.0152421
21.5473 38.5046 0.0141761
20.5434 40.6522 2
19.9159 37.7818 2
17.9267 39.009 3.98652
19.6349 42.9254 0.0141431
17.2694 42.1249 2
14.7321 41.9371 3.98487
16.8844 44.4136 0.0142016
14.7915 44.2278 2
12.6661 44.4155 3.98488
14.7964 46.1237 0.0146497
12.9296 46.3244 2
10.9621 46.7579 3.98557
13.2616 48.0413 0.0142891
11.4627 48.5776 2
9.51168 49.2625 3.98672
12.0937 50.2833 0.0136923
10.2498 51.1053 2
8.26019 52.0214 3.98906
11.1257 52.8631 0.0126406
9.22813 53.91 2
7.19238 55.0442 3.99346
6.31991 58.3339 4
8.38353 56.9936 2
10.3203 55.7316 0.0100499
7.74924 60.3285 2
9.69985 58.859 0.00578944
9.30605 62.2254 0
13.2007 25.3286 3.98591
12.8082 23.246 3.98624
13.9442 21.7161 2
12.2274 20.5208 3.98783
15.1358 20.1514 0.0129308
13.4441 18.8725 2
11.6572 17.5435 3.99048
14.745 17.2782 0.0114294
13.0281 15.8638 2
11.22 14.3652 3.99438
14.483 14.2738 0.00894581
12.7827 12.6808 2
10.9835 10.9835 4
14.4455 11.1087 0.00529503
12.7745 9.306 2
14.6715 7.74927 0
20.4225 33.3678 3.98904
22.8474 33.7702 2
25.1009 34.2615 0.00724965
15.8521 26.3614 3.98387
17.5882 23.9987 2
17.8312 22.281 0.0131788
14.2808 24.4117 2
15.5031 22.8794 0.0142788
18.2817 30.1392 3.98197
18.9525 27.1604 2
19.6155 24.3369 0.0144283
21.0255 30.628 2
21.8023 27.7806 0.0188395
23.5644 31.1516 0.0156415
17.5416 35.955 3.99113
20.0249 35.9088 2
22.2482 36.2563 0.00846013
20.5437 40.6524 0.0165549
19.9162 37.7819 0.0118921
17.9264 39.0089 2
14.2307 39.1836 3.98712
17.2697 42.1249 0.0149233
14.7319 41.937 2
12.349 42.2943 3.9858
14.7918 44.2278 0.0150338
12.6658 44.4155 2
10.5368 44.8227 3.98518
12.9298 46.3243 0.0147148
10.9618 46.7581 2
8.89261 47.3391 3.98631
11.4629 48.5774 0.0140382
9.51152 49.2628 2
7.42624 50.0533 3.98851
10.2499 51.1049 0.0129116
8.26014 52.0219 2
6.13274 53.0193 3.99304
9.22815 53.9095 0.0104838
7.19243 55.0448 2
5.0241 56.25 4
6.31988 58.3339 2
8.38346 56.9931 0.00614396
7.74927 60.3285 0
13.4319 26.7823 3.9842
11.9191 24.7568 3.9855
13.2005 25.3284 2
11.1281 22.2057 3.98741
12.808 23.2457 2
13.9444 21.7165 0.0133006
12.2273 20.5204 2
10.3864 19.2972 3.99014
13.4441 18.873 0.0118274
11.6572 17.543 2
9.76091 16.1472 3.99417
13.0281 15.8643 0.00921086
11.2201 14.3646 2
9.30607 12.7746 4
12.7826 12.6812 0.00543879
10.9835 10.9835 2
12.7746 9.30605 0
17.7349 33.0885 3.98714
20.4221 33.3681 2
22.8478 33.7699 0.00653245
15.4294 29.606 3.98308
15.8519 26.3613 2
17.5885 23.999 0.0139303
14.281 24.412 0.0149969
18.2814 30.1393 2
18.9528 27.1605 0.0177088
21.0259 30.6278 0.0175966
14.813 36.0116 3.98998
17.5413 35.955 2
20.0253 35.9087 0.00939922
12.533 37.8318 3.98699
17.9267 39.009 0.013477
14.2305 39.1836 2
11.8584 40.1524 3.98735
14.7321 41.9371 0.0151274
12.3488 42.2942 2
10.1335 42.7936 3.98561
12.6661 44.4155 0.0151213
10.5366 44.8228 2
8.36916 45.338 3.98586
10.9621 46.7579 0.0144339
8.89243 47.3393 2
6.71671 48.0168 3.98792
9.51168 49.2625 0.0132848
7.42615 50.0538 2
5.20913 50.9222 3.99251
8.26019 52.0214 0.0109364
6.13277 53.0198 2
3.86727 54.0858 4
7.19238 55.0442 0.0065363
5.02404 56.25 2
6.31991 58.3339 0
12.8826 29.0065 3.98351
11.3464 26.4599 3.98482
13.4317 26.7821 2
10.1854 23.9414 3.98659
11.919 24.7565 2
13.2007 25.3286 0.0140907
9.23727 21.1162 3.98962
11.1279 22.2053 2
12.8082 23.246 0.0137579
12.2274 20.5208 0.0121718
10.3863 19.2967 2
8.41678 18.0168 3.99394
11.6572 17.5435 0.00952122
9.76099 16.1466 2
7.74928 14.6715 4
11.22 14.3652 0.00562306
9.30602 12.7745 2
10.9835 10.9835 0
14.4131 32.8419 3.98632
17.7346 33.0887 2
20.4225 33.3678 0.0109631
15.4292 29.606 2
15.8521 26.3614 0.0161319
18.2817 30.1392 0.0180287
12.8167 36.2049 3.98812
14.8126 36.0116 2
17.5416 35.955 0.00886811
12.5327 37.8318 2
11.2151 38.3156 3.98709
14.2307 39.1836 0.0128791
11.8582 40.1524 2
9.71629 40.7655 3.98679
12.349 42.2943 0.014204
10.1333 42.7936 2
7.91701 43.2835 3.98591
10.5368 44.8227 0.0148191
8.36897 45.3382 2
6.12216 45.9197 3.98732
8.89261 47.3391 0.0136943
6.7166 48.0171 2
4.42027 48.7622 3.99189
7.42624 50.0533 0.0114852
5.20913 50.9227 2
2.85457 51.8506 4
6.13274 53.0193 0.00696305
3.86727 54.0858 2
5.0241 56.25 0
12.0199 31.2351 3.98665
10.7567 28.3919 3.98397
12.8824 29.0064 2
9.39877 25.7748 3.98588
11.3463 26.4597 2
13.4319 26.7823 0.015796
8.22329 23.0027 3.98871
10.1852 23.941 2
11.9191 24.7568 0.014501
7.19874 19.9658 3.99359
9.23723 21.1157 2
11.1281 22.2057 0.012592
10.3864 19.2972 0.00985723
8.41684 18.0162 2
6.31992 16.6661 4
9.76091 16.1472 0.00582713
7.74926 14.6714 2
9.30607 12.7746 0
12.0293 34.2823 3.98509
14.4129 32.8421 2
17.7349 33.0885 0.0128563
15.4294 29.606 0.0169175
10.7785 36.6109 3.98786
12.8164 36.2049 2
14.813 36.0116 0.0100155
12.533 37.8318 0.0130118
11.2148 38.3156 2
9.30954 38.8299 3.98742
11.8584 40.1524 0.0126531
9.7161 40.7655 2
7.52655 41.2211 3.98666
10.1335 42.7936 0.0143901
7.91684 43.2836 2
5.63341 43.7799 3.98703
8.36916 45.338 0.01414
6.12203 45.92 2
3.76556 46.5469 3.99122
6.71671 48.0168 0.0120818
4.42025 48.7627 2
1.99014 49.554 4
5.20913 50.9222 0.00749095
2.85451 51.8506 2
3.86727 54.0858 0
10.8827 32.9032 3.98633
10.0675 30.3635 3.98552
12.0197 31.2351 2
8.7057 27.7122 3.98502
10.7565 28.3918 2
12.8826 29.0065 0.0164946
7.34792 24.964 3.98791
9.39863 25.7745 2
11.3464 26.4599 0.0151784
6.11538 21.9894 3.99296
8.22324 23.0022 2
10.1854 23.9414 0.0134102
5.02411 18.75 4
7.19878 19.9653 2
9.23727 21.1162 0.01038
8.41678 18.0168 0.00606085
6.3199 16.6661 2
7.74928 14.6715 0
10.3945 34.9933 3.98538
12.0289 34.2823 2
14.4131 32.8419 0.0136798
8.98207 36.986 3.98788
10.7782 36.611 2
12.8167 36.2049 0.0118814
11.2151 38.3156 0.0129101
9.30931 38.8299 2
7.20564 39.1877 3.98744
9.71629 40.7655 0.0132094
7.52637 41.2212 2
5.24775 41.6224 3.98747
7.91701 43.2835 0.0140889
5.63328 43.7801 2
3.24289 44.2902 3.99068
6.12216 45.9197 0.0126791
3.76551 46.5473 2
1.27781 47.2057 4
4.42027 48.7622 0.00811065
1.99012 49.554 2
2.85457 51.8506 0
10.0513 33.8706 3.98511
9.35904 32.1399 3.98648
10.8824 32.9031 2
8.05376 29.6796 3.98547
10.0673 30.3634 2
12.0199 31.2351 0.0133522
6.59095 26.9925 3.98706
8.70556 27.712 2
10.7567 28.3919 0.01603
5.17026 24.083 3.99222
7.34785 24.9636 2
9.39877 25.7748 0.0141179
3.86728 20.9142 4
6.1154 21.9889 2
8.22329 23.0027 0.0112877
5.02406 18.75 2
7.19874 19.9658 0.0064137
6.31992 16.6661 0
8.81063 35.2747 3.98651
10.3942 34.9934 2
12.0293 34.2823 0.0149086
6.98977 37.2067 3.98805
8.9818 36.986 2
10.7785 36.6109 0.0121366
9.30954 38.8299 0.0125838
7.20544 39.1877 2
4.97447 39.4722 3.98828
7.52655 41.2211 0.0133374
5.24761 41.6225 2
2.85295 42.0085 3.9907
5.63341 43.7799 0.012968
3.24283 44.2906 2
0.720592 44.8159 4
3.76556 46.5469 0.00878283
1.27778 47.2057 2
1.99014 49.554 0
8.85493 33.6879 3.98622
10.0511 33.8705 2
7.48958 31.5967 3.98657
9.3588 32.1398 2
10.8827 32.9032 0.0136725
5.93553 29.0563 3.98683
8.05361 29.6794 2
10.0675 30.3635 0.014479
4.35751 26.2367 3.9914
6.59087 26.9922 2
8.7057 27.7122 0.0149806
2.85458 23.1494 4
5.17026 24.0825 2
7.34792 24.964 0.0120938
3.86728 20.9142 2
6.11538 21.9894 0.00704475
5.02411 18.75 0
6.94111 35.3021 3.98745
8.81037 35.2748 2
10.3945 34.9933 0.0146236
4.82472 37.3405 3.98878
6.98953 37.2067 2
8.98207 36.986 0.0121184
7.20564 39.1877 0.0125606
4.9743 39.4722 2
2.60051 39.7175 3.99122
5.24775 41.6224 0.012533
2.85288 42.0087 2
0.320823 42.3947 4
3.24289 44.2902 0.00931853
0.720551 44.8159 2
1.27781 47.2057 0
7.10254 33.4525 3.98679
8.8547 33.6879 2
10.0513 33.8706 0.0148907
5.40523 31.1231 3.98761
7.48938 31.5966 2
9.35904 32.1399 0.0135241
3.67891 28.4341 3.99078
5.93543 29.0561 2
8.05376 29.6796 0.0145251
1.99015 25.446 4
4.3575 26.2363 2
6.59095 26.9925 0.0129423
2.85453 23.1494 2
5.17026 24.083 0.00777942
3.86728 20.9142 0
4.83954 35.2482 3.98855
6.94089 35.3021 2
8.81063 35.2747 0.0134915
2.49189 37.4289 3.9915
4.82454 37.3405 2
6.98977 37.2067 0.011945
4.97447 39.4722 0.0117195
2.60042 39.7176 2
0.080333 39.9526 4
2.85295 42.0085 0.00930235
0.320817 42.3947 2
0.720592 44.8159 0
5.03387 33.1831 3.98793
7.10234 33.4525 2
8.85493 33.6879 0.0137839
3.14269 30.6585 3.99101
5.40509 31.1229 2
7.48958 31.5967 0.0134299
1.27793 27.7943 4
3.67889 28.4337 2
5.93553 29.0563 0.0131707
1.99013 25.446 2
4.35751 26.2367 0.00860439
2.85458 23.1494 0
2.54422 35.1562 3.99155
4.83936 35.2481 2
6.94111 35.3021 0.0125464
0 37.5 4
2.49178 37.4289 2
4.82472 37.3405 0.011221
2.60051 39.7175 0.00878334
0.0802903 39.9526 2
0.320823 42.3947 0
2.76226 32.9002 3.99117
5.03372 33.1829 2
7.10254 33.4525 0.0132086
0.721173 30.1842 4
3.14263 30.6581 2
5.40523 31.1231 0.0123914
1.27779 27.7943 2
3.67891 28.4341 0.00922357
1.99015 25.446 0
0.0806499 35.0474 4
2.54413 35.1561 2
4.83954 35.2482 0.0114457
0 37.5 2
2.49189 37.4289 0.00849666
0.080333 39.9526 0
0.32156 32.6054 4
2.76218 32.9 2
5.03387 33.1831 0.0120705
0.72056 30.1841 2
3.14269 30.6585 0.00899424
1.27793 27.7943 0
0.0802889 35.0474 2
2.54422 35.1562 0.00845066
0 37.5 0
0.320817 32.6053 2
2.76226 32.9002 0.00882796
0.721173 30.1842 0
0.0806499 35.0474 0
0.32156 32.6054 0
CELLS 1910 17190
8 18 6 25 56 2 0 5 16
8 57 23 6 18 17 4 0 2
8 78 36 9 29 31 11 1 7
8 31 11 1 7 79 37 10 30
8 110 57 18 50 48 17 2 14
8 50 18 56 111 14 2 16 49
8 116 62 22 55 52 20 3 15
8 56 25 67 118 16 5 24 53
8 119 63 23 57 54 21 4 17
8 55 22 63 119 15 3 21 54
8 58 26 68 121 18 6 25 56
8 122 65 26 58 57 23 6 18
8 73 31 7 27 142 79 30 71
8 143 78 29 72 73 31 7 27
8 83 147 76 34 32 74 28 8
8 84 148 78 36 33 75 29 9
8 76 34 8 28 148 84 33 75
8 37 79 150 86 10 30 77 35
8 151 87 36 78 80 38 11 31
8 80 38 11 31 152 88 37 79
8 175 100 42 94 96 44 12 40
8 44 96 176 101 12 40 95 43
8 101 176 98 46 43 95 41 13
8 46 98 178 103 13 41 97 45
8 178 103 45 97 147 83 32 74
8 189 116 55 109 106 52 15 47
8 111 56 118 191 49 16 53 107
8 192 119 57 110 108 54 17 48
8 109 55 119 192 47 15 54 108
8 194 122 58 112 110 57 18 50
8 112 58 121 195 50 18 56 111
8 115 61 19 51 197 124 59 113
8 115 61 125 198 51 19 60 114
8 198 125 62 116 114 60 20 52
8 200 127 64 120 116 62 22 55
8 118 67 132 202 53 24 66 117
8 121 68 133 203 56 25 67 118
8 120 64 128 204 55 22 63 119
8 204 128 65 122 119 63 23 57
8 206 134 68 121 123 69 26 58
8 123 69 26 58 207 131 65 122
8 226 147 74 138 140 76 28 70
8 229 148 75 139 143 78 29 72
8 140 76 28 70 229 148 75 139
8 142 79 30 71 231 150 77 141
8 144 80 31 73 232 152 79 142
8 233 151 78 143 144 80 31 73
8 150 86 35 77 235 154 81 145
8 235 154 81 145 146 82 39 91
8 146 82 39 91 236 155 90 165
8 238 157 83 147 149 85 34 76
8 239 158 84 148 151 87 36 78
8 149 85 34 76 239 158 84 148
8 152 88 37 79 241 160 86 150
8 242 161 87 151 153 89 38 80
8 153 89 38 80 243 162 88 152
8 171 98 41 92 265 178 97 169
8 265 178 97 169 226 147 74 138
8 172 96 40 93 266 176 95 170
8 266 176 95 170 171 98 41 92
8 269 175 94 173 172 96 40 93
8 271 180 99 174 175 100 42 94
8 197 124 59 113 271 180 99 174
8 272 181 100 175 177 102 44 96
8 273 182 101 176 179 104 46 98
8 177 102 44 96 273 182 101 176
8 179 104 46 98 275 184 103 178
8 275 184 103 178 238 157 83 147
8 188 115 51 105 283 197 113 186
8 188 115 198 284 105 51 114 187
8 284 198 116 189 187 114 52 106
8 286 200 120 193 189 116 55 109
8 191 118 202 288 107 53 117 190
8 195 121 203 289 111 56 118 191
8 193 120 204 290 109 55 119 192
8 290 204 122 194 192 119 57 110
8 196 123 58 112 292 207 122 194
8 293 206 121 195 196 123 58 112
8 199 126 61 115 297 211 124 197
8 298 212 127 200 198 125 62 116
8 199 126 212 298 115 61 125 198
8 205 129 64 120 300 214 127 200
8 301 217 130 201 202 132 66 117
8 209 136 168 264 301 217 130 201
8 302 219 132 202 203 133 67 118
8 303 220 133 203 206 134 68 121
8 205 129 215 304 120 64 128 204
8 304 215 131 207 204 128 65 122
8 306 221 134 206 208 135 69 123
8 208 135 69 123 307 218 131 207
8 210 137 167 263 309 223 136 209
8 328 238 147 226 230 149 76 140
8 228 146 91 166 329 236 165 260
8 231 150 77 141 330 235 145 227
8 330 235 145 227 228 146 91 166
8 332 239 148 229 233 151 78 143
8 230 149 76 140 332 239 148 229
8 232 152 79 142 334 241 150 231
8 234 153 80 144 335 243 152 232
8 336 242 151 233 234 153 80 144
8 236 155 90 165 338 245 164 259
8 241 160 86 150 339 246 154 235
8 339 246 154 235 237 156 82 146
8 237 156 82 146 340 247 155 236
8 342 249 157 238 240 159 85 149
8 343 250 158 239 242 161 87 151
8 240 159 85 149 343 250 158 239
8 243 162 88 152 345 252 160 241
8 244 163 253 346 153 89 161 242
8 244 163 89 153 347 254 162 243
8 311 224 261 371 210 137 167 263
8 263 167 262 372 209 136 168 264
8 267 179 98 171 375 275 178 265
8 375 275 178 265 328 238 147 226
8 376 273 176 266 267 179 98 171
8 268 177 96 172 376 273 176 266
8 379 272 175 269 268 177 96 172
8 380 271 174 270 269 175 94 173
8 283 197 113 186 380 271 174 270
8 381 277 180 271 272 181 100 175
8 297 211 124 197 381 277 180 271
8 382 278 181 272 274 183 102 177
8 274 183 102 177 383 279 182 273
8 383 279 182 273 276 185 104 179
8 385 281 184 275 342 249 157 238
8 276 185 104 179 385 281 184 275
8 285 199 115 188 393 297 197 283
8 394 298 200 286 284 198 116 189
8 285 199 298 394 188 115 198 284
8 291 205 120 193 396 300 200 286
8 397 301 201 287 288 202 117 190
8 295 209 264 374 397 301 201 287
8 398 302 202 288 289 203 118 191
8 399 303 203 289 293 206 121 195
8 291 205 304 400 193 120 204 290
8 400 304 207 292 290 204 122 194
8 294 208 123 196 402 307 207 292
8 403 306 206 293 294 208 123 196
8 296 210 263 373 405 309 209 295
8 408 312 213 299 297 211 126 199
8 299 213 313 409 199 126 212 298
8 409 313 214 300 298 212 127 200
8 305 216 129 205 411 315 214 300
8 412 318 217 301 302 219 132 202
8 309 223 136 209 412 318 217 301
8 413 320 219 302 303 220 133 203
8 306 221 321 414 206 134 220 303
8 307 218 131 207 415 316 215 304
8 305 216 316 415 205 129 215 304
8 417 322 221 306 308 222 135 208
8 308 222 135 208 418 319 218 307
8 310 225 137 210 420 325 223 309
8 423 326 224 311 310 225 137 210
8 329 236 165 260 441 338 259 368
8 442 342 238 328 333 240 149 230
8 331 237 146 228 443 340 236 329
8 334 241 150 231 444 339 235 330
8 444 339 235 330 331 237 146 228
8 446 343 239 332 336 242 151 233
8 333 240 149 230 446 343 239 332
8 335 243 152 232 448 345 241 334
8 337 244 153 234 449 347 243 335
8 337 244 346 450 234 153 242 336
8 338 245 164 259 452 349 258 367
8 340 247 155 236 453 350 245 338
8 345 252 160 241 454 351 246 339
8 454 351 246 339 341 248 156 237
8 341 248 156 237 455 352 247 340
8 240 159 251 344 342 249 354 457
8 242 161 253 346 343 250 355 458
8 343 250 355 458 240 159 251 344
8 347 254 162 243 460 357 252 345
8 348 255 358 461 244 163 253 346
8 348 255 163 244 462 359 254 347
8 473 360 257 365 363 256 364 482
8 452 349 258 367 365 257 366 485
8 422 324 369 488 311 224 261 371
8 371 261 370 490 263 167 262 372
8 407 311 371 491 296 210 263 373
8 373 263 372 492 295 209 264 374
8 493 385 275 375 442 342 238 328
8 377 276 179 267 493 385 275 375
8 378 274 177 268 494 383 273 376
8 494 383 273 376 377 276 179 267
8 497 382 272 379 378 274 177 268
8 498 381 271 380 379 272 175 269
8 393 297 197 283 498 381 271 380
8 499 387 277 381 382 278 181 272
8 408 312 211 297 499 387 277 381
8 500 388 278 382 384 280 183 274
8 501 389 279 383 386 282 185 276
8 384 280 183 274 501 389 279 383
8 386 282 185 276 503 391 281 385
8 503 391 281 385 457 354 249 342
8 511 408 299 395 393 297 199 285
8 395 299 409 512 285 199 298 394
8 512 409 300 396 394 298 200 286
8 401 305 205 291 514 411 300 396
8 515 412 301 397 398 302 202 288
8 405 309 209 295 515 412 301 397
8 516 413 302 398 399 303 203 289
8 403 306 414 517 293 206 303 399
8 402 307 207 292 518 415 304 400
8 401 305 415 518 291 205 304 400
8 404 308 208 294 520 418 307 402
8 521 417 306 403 404 308 208 294
8 406 310 210 296 523 420 309 405
8 526 423 311 407 406 310 210 296
8 410 314 213 299 527 424 312 408
8 528 425 315 411 409 313 214 300
8 410 314 425 528 299 213 313 409
8 416 317 216 305 530 427 315 411
8 531 430 318 412 413 320 219 302
8 420 325 223 309 531 430 318 412
8 532 432 320 413 414 321 220 303
8 417 322 433 533 306 221 321 414
8 418 319 218 307 534 428 316 415
8 416 317 428 534 305 216 316 415
8 419 323 434 536 308 222 322 417
8 419 323 222 308 537 431 319 418
8 421 327 225 310 539 438 325 420
8 421 327 439 541 310 225 326 423
8 543 437 324 422 423 326 224 311
8 441 338 259 368 559 452 367 486
8 443 340 236 329 560 453 338 441
8 333 240 344 447 442 342 457 561
8 445 341 237 331 562 455 340 443
8 448 345 241 334 563 454 339 444
8 563 454 339 444 445 341 237 331
8 336 242 346 450 446 343 458 565
8 446 343 458 565 333 240 344 447
8 449 347 243 335 567 460 345 448
8 451 348 244 337 568 462 347 449
8 451 348 461 569 337 244 346 450
8 570 463 349 452 473 360 257 365
8 453 350 245 338 570 463 349 452
8 455 352 247 340 571 464 350 453
8 460 357 252 345 572 465 351 454
8 572 465 351 454 456 353 248 341
8 456 353 248 341 573 466 352 455
8 344 251 356 459 457 354 468 575
8 458 355 469 576 344 251 356 459
8 346 253 358 461 458 355 469 576
8 462 359 254 347 578 471 357 460
8 348 255 359 462 461 358 472 579
8 591 474 360 473 475 361 256 363
8 475 361 256 363 594 477 362 479
8 363 256 364 482 479 362 480 603
8 590 473 365 484 481 363 482 605
8 482 364 257 365 606 483 366 485
8 559 452 367 486 484 365 485 607
8 542 436 487 609 422 324 369 488
8 525 422 488 611 407 311 371 491
8 488 369 489 612 371 261 370 490
8 491 371 490 613 373 263 372 492
8 495 386 276 377 614 503 385 493
8 614 503 385 493 561 457 342 442
8 615 501 383 494 495 386 276 377
8 496 384 274 378 615 501 383 494
8 618 500 382 497 496 384 274 378
8 619 499 381 498 497 382 272 379
8 511 408 297 393 619 499 381 498
8 620 505 387 499 500 388 278 382
8 527 424 312 408 620 505 387 499
8 502 390 506 621 384 280 388 500
8 622 507 389 501 504 392 282 386
8 502 390 280 384 622 507 389 501
8 504 392 282 386 624 509 391 503
8 624 509 391 503 575 468 354 457
8 513 410 299 395 630 527 408 511
8 631 528 411 514 512 409 300 396
8 513 410 528 631 395 299 409 512
8 519 416 305 401 633 530 411 514
8 634 531 412 515 516 413 302 398
8 523 420 309 405 634 531 412 515
8 635 532 413 516 517 414 303 399
8 521 417 533 636 403 306 414 517
8 520 418 307 402 637 534 415 518
8 519 416 534 637 401 305 415 518
8 522 419 308 404 639 537 418 520
8 522 419 536 640 404 308 417 521
8 524 421 310 406 642 539 420 523
8 524 421 541 644 406 310 423 526
8 646 543 422 525 526 423 311 407
8 529 426 314 410 647 544 424 527
8 528 425 545 648 411 315 427 530
8 529 426 545 648 410 314 425 528
8 535 429 317 416 649 546 427 530
8 650 548 430 531 532 432 320 413
8 539 438 325 420 650 548 430 531
8 533 433 550 651 414 321 432 532
8 536 434 551 652 417 322 433 533
8 537 431 319 418 653 547 428 534
8 535 429 547 653 416 317 428 534
8 538 435 552 654 419 323 434 536
8 538 435 323 419 655 549 431 537
8 540 440 327 421 657 556 438 539
8 540 440 557 659 421 327 439 541
8 541 439 555 660 423 326 437 543
8 661 554 436 542 543 437 324 422
8 676 570 452 559 590 473 365 484
8 560 453 338 441 676 570 452 559
8 562 455 340 443 677 571 453 560
8 447 344 459 566 561 457 575 678
8 564 456 341 445 679 573 455 562
8 567 460 345 448 680 572 454 563
8 680 572 454 563 564 456 341 445
8 565 458 576 682 447 344 459 566
8 450 346 461 569 565 458 576 682
8 568 462 347 449 684 578 460 567
8 451 348 462 568 569 461 579 685
8 686 580 463 570 591 474 360 473
8 571 464 350 453 686 580 463 570
8 573 466 352 455 687 581 464 571
8 572 465 582 688 460 357 471 578
8 574 467 582 688 456 353 465 572
8 574 467 353 456 689 583 466 573
8 459 356 470 577 575 468 585 691
8 576 469 586 692 459 356 470 577
8 461 358 472 579 576 469 586 692
8 462 359 471 578 579 472 588 694
8 704 591 473 590 593 475 363 481
8 595 476 592 705 475 361 474 591
8 593 475 363 481 707 594 479 602
8 594 477 362 479 709 598 478 600
8 595 476 361 475 711 597 477 594
8 479 362 480 603 600 478 601 720
8 481 363 482 605 602 479 603 722
8 603 480 364 482 723 604 483 606
8 605 482 365 484 724 606 485 607
8 656 553 608 726 542 436 487 609
8 645 542 609 728 525 422 488 611
8 609 487 610 729 488 369 489 612
8 611 488 612 730 491 371 490 613
8 616 504 386 495 731 624 503 614
8 731 624 503 614 678 575 457 561
8 732 622 501 615 616 504 386 495
8 617 502 384 496 732 622 501 615
8 617 502 621 735 496 384 500 618
8 736 620 499 619 618 500 382 497
8 630 527 408 511 736 620 499 619
8 621 506 626 737 500 388 505 620
8 647 544 424 527 737 626 505 620
8 623 508 627 738 502 390 506 621
8 623 508 390 502 739 628 507 622
8 625 510 628 739 504 392 507 622
8 740 629 509 624 691 585 468 575
8 625 510 392 504 740 629 509 624
8 632 529 410 513 744 647 527 630
8 631 528 648 745 514 411 530 633
8 632 529 648 745 513 410 528 631
8 638 535 416 519 746 649 530 633
8 747 650 531 634 635 532 413 516
8 642 539 420 523 747 650 531 634
8 636 533 651 748 517 414 532 635
8 640 536 652 749 521 417 533 636
8 639 537 418 520 750 653 534 637
8 638 535 653 750 519 416 534 637
8 641 538 419 522 751 655 537 639
8 641 538 654 752 522 419 536 640
8 643 540 421 524 753 657 539 642
8 643 540 659 755 524 421 541 644
8 644 541 660 757 526 423 543 646
8 758 661 542 645 646 543 422 525
8 529 426 544 647 648 545 662 759
8 530 427 545 648 649 546 663 760
8 535 429 546 649 653 547 664 761
8 762 666 548 650 651 550 432 532
8 657 556 438 539 762 666 548 650
8 652 551 668 763 533 433 550 651
8 654 552 669 764 536 434 551 652
8 655 549 431 537 765 665 547 653
8 538 435 549 655 654 552 667 766
8 661 554 671 768 542 436 553 656
8 658 558 440 540 769 674 556 657
8 658 558 675 770 540 440 557 659
8 659 557 673 771 541 439 555 660
8 660 555 672 772 543 437 554 661
8 788 686 570 676 704 591 473 590
8 677 571 453 560 788 686 570 676
8 679 573 455 562 789 687 571 677
8 566 459 577 683 678 575 691 790
8 681 574 456 564 791 689 573 679
8 680 572 688 792 567 460 578 684
8 681 574 688 792 564 456 572 680
8 682 576 692 794 566 459 577 683
8 569 461 579 685 682 576 692 794
8 568 462 578 684 685 579 694 796
8 687 581 464 571 798 696 580 686
8 798 696 580 686 705 592 474 591
8 689 583 466 573 799 697 581 687
8 688 582 698 800 578 471 588 694
8 690 584 698 800 574 467 582 688
8 690 584 467 574 801 699 583 689
8 693 587 701 803 577 470 585 691
8 693 587 470 577 804 702 586 692
8 695 589 702 804 579 472 586 692
8 695 589 472 579 805 703 588 694
8 708 595 705 813 593 475 591 704
8 710 596 706 814 595 476 592 705
8 707 594 479 602 816 709 600 719
8 708 595 475 593 817 711 594 707
8 709 598 478 600 819 715 599 717
8 711 597 477 594 820 714 598 709
8 710 596 476 595 822 713 597 711
8 600 478 601 720 717 599 718 832
8 602 479 603 722 719 600 720 834
8 720 601 480 603 835 721 604 723
8 722 603 482 605 836 723 606 724
8 767 670 725 839 656 553 608 726
8 756 656 726 841 645 542 609 728
8 726 608 727 842 609 487 610 729
8 728 609 729 843 611 488 612 730
8 844 740 624 731 790 691 575 678
8 733 625 504 616 844 740 624 731
8 734 623 502 617 845 739 622 732
8 733 625 739 845 616 504 622 732
8 734 623 738 846 617 502 621 735
8 735 621 737 847 618 500 620 736
8 744 647 527 630 847 737 620 736
8 621 506 627 738 737 626 741 848
8 647 544 626 737 759 662 741 848
8 623 508 628 739 738 627 742 849
8 740 629 585 691 850 743 700 802
8 625 510 629 740 739 628 743 850
8 632 529 647 744 745 648 759 854
8 633 530 648 745 746 649 760 855
8 638 535 649 746 750 653 761 856
8 857 762 650 747 748 651 532 635
8 753 657 539 642 857 762 650 747
8 749 652 763 858 636 533 651 748
8 752 654 764 859 640 536 652 749
8 751 655 537 639 860 765 653 750
8 641 538 655 751 752 654 766 861
8 754 658 540 643 862 769 657 753
8 754 658 770 863 643 540 659 755
8 755 659 771 864 644 541 660 757
8 758 661 768 866 645 542 656 756
8 757 660 772 867 646 543 661 758
8 759 662 773 868 648 545 663 760
8 649 546 663 760 761 664 774 871
8 765 665 547 653 872 775 664 761
8 873 777 666 762 763 668 550 651
8 769 674 556 657 873 777 666 762
8 764 669 779 874 652 551 668 763
8 654 552 667 766 764 669 778 875
8 655 549 665 765 766 667 776 876
8 768 671 782 877 656 553 670 767
8 772 672 783 878 661 554 671 768
8 658 558 674 769 770 675 786 879
8 659 557 675 770 771 673 785 881
8 882 784 672 772 771 673 555 660
8 789 687 571 677 897 798 686 788
8 897 798 686 788 813 705 591 704
8 791 689 573 679 898 799 687 789
8 795 693 803 900 683 577 691 790
8 793 690 574 681 901 801 689 791
8 792 688 800 902 684 578 694 796
8 793 690 800 902 681 574 688 792
8 795 693 577 683 903 804 692 794
8 797 695 804 903 685 579 692 794
8 797 695 579 685 904 805 694 796
8 905 806 697 799 798 696 581 687
8 814 706 806 905 705 592 696 798
8 689 583 697 799 801 699 808 907
8 800 698 809 908 694 588 703 805
8 690 584 699 801 800 698 809 908
8 803 701 810 909 691 585 700 802
8 693 587 702 804 803 701 811 910
8 695 589 703 805 804 702 812 911
8 818 710 814 919 708 595 705 813
8 821 712 815 920 710 596 706 814
8 816 709 600 719 922 819 717 831
8 817 711 594 707 923 820 709 816
8 818 710 595 708 924 822 711 817
8 819 715 599 717 926 827 716 829
8 820 714 598 709 927 826 715 819
8 929 825 713 822 820 714 597 711
8 821 712 596 710 930 824 713 822
8 717 599 718 832 829 716 830 942
8 719 600 720 834 831 717 832 944
8 832 718 601 720 945 833 721 835
8 834 720 603 722 946 835 723 836
8 869 780 838 950 767 670 725 839
8 865 767 839 952 756 656 726 841
8 839 725 840 953 726 608 727 842
8 841 726 842 954 728 609 729 843
8 844 740 691 790 955 850 802 899
8 733 625 740 844 845 739 850 955
8 734 623 739 845 846 738 849 956
8 735 621 738 846 847 737 848 957
8 744 647 737 847 854 759 848 957
8 738 627 742 849 848 741 851 958
8 848 741 851 958 759 662 773 868
8 850 743 700 802 959 852 807 906
8 849 742 628 739 959 852 743 850
8 854 759 868 965 745 648 760 855
8 746 649 760 855 856 761 871 966
8 860 765 653 750 967 872 761 856
8 968 873 762 857 858 763 651 748
8 862 769 657 753 968 873 762 857
8 859 764 874 969 749 652 763 858
8 752 654 766 861 859 764 875 970
8 751 655 765 860 861 766 876 971
8 754 658 769 862 863 770 879 972
8 755 659 770 863 864 771 881 974
8 976 882 772 867 864 771 660 757
8 866 768 877 977 756 656 767 865
8 867 772 878 978 758 661 768 866
8 760 663 773 868 871 774 883 980
8 870 781 837 948 982 890 780 869
8 982 890 780 869 877 782 670 767
8 761 664 774 871 872 775 884 984
8 876 776 665 765 985 885 775 872
8 873 777 668 763 986 887 779 874
8 769 674 777 873 879 786 887 986
8 764 669 778 875 874 779 888 987
8 766 667 776 876 875 778 886 988
8 878 783 892 989 768 671 782 877
8 878 783 672 772 990 893 784 882
8 880 787 675 770 991 896 786 879
8 880 787 895 992 770 675 785 881
8 881 785 894 993 771 673 784 882
8 1006 905 799 898 897 798 687 789
8 919 814 905 1006 813 705 798 897
8 791 689 799 898 901 801 907 1007
8 900 803 909 1009 790 691 802 899
8 795 693 804 903 900 803 910 1010
8 902 800 908 1011 796 694 805 904
8 793 690 801 901 902 800 908 1011
8 797 695 805 904 903 804 911 1012
8 799 697 806 905 907 808 912 1013
8 920 815 912 1013 814 706 806 905
8 802 700 810 909 906 807 913 1014
8 801 699 808 907 908 809 914 1015
8 805 703 809 908 911 812 915 1016
8 803 701 811 910 909 810 916 1017
8 911 812 917 1018 804 702 811 910
8 925 821 920 1030 818 710 814 919
8 928 823 921 1031 821 712 815 920
8 922 819 717 831 1033 926 829 941
8 923 820 709 816 1034 927 819 922
8 1035 929 822 924 923 820 711 817
8 925 821 710 818 1036 930 822 924
8 1038 933 825 929 927 826 714 820
8 926 827 716 829 1039 935 828 939
8 927 826 715 819 1040 934 827 926
8 928 823 712 821 1041 931 824 930
8 1042 932 824 930 929 825 713 822
8 829 716 830 942 939 828 940 1058
8 831 717 832 944 941 829 942 1060
8 942 830 718 832 1061 943 833 945
8 944 832 720 834 1062 945 835 946
8 981 889 947 1064 870 781 837 948
8 948 837 949 1067 869 780 838 950
8 975 869 950 1069 865 767 839 952
8 950 838 951 1070 839 725 840 953
8 952 839 953 1071 841 726 842 954
8 955 850 802 899 1072 959 906 1008
8 956 849 739 845 1072 959 850 955
8 846 738 849 956 957 848 958 1073
8 957 848 958 1073 854 759 868 965
8 849 742 852 959 958 851 961 1076
8 960 853 961 1076 906 807 852 959
8 958 851 961 1076 868 773 883 980
8 960 853 807 906 1077 963 913 1014
8 855 760 868 965 966 871 980 1085
8 856 761 871 966 967 872 984 1086
8 971 876 765 860 1087 985 872 967
8 968 873 763 858 1088 986 874 969
8 862 769 873 968 972 879 986 1088
8 859 764 875 970 969 874 987 1089
8 861 766 876 971 970 875 988 1090
8 973 880 770 863 1091 991 879 972
8 973 880 992 1092 863 770 881 974
8 974 881 993 1093 864 771 882 976
8 979 870 948 1066 1094 982 869 975
8 1094 982 869 975 977 877 767 865
8 978 878 772 867 1095 990 882 976
8 978 878 989 1096 866 768 877 977
8 871 774 883 980 984 884 994 1099
8 983 891 999 1100 870 781 889 981
8 1101 1000 890 982 989 892 782 877
8 983 891 781 870 1101 1000 890 982
8 872 775 884 984 985 885 995 1103
8 876 776 885 985 988 886 996 1104
8 986 887 779 874 1105 998 888 987
8 879 786 887 986 991 896 998 1105
8 875 778 886 988 987 888 997 1106
8 990 893 1002 1107 878 783 892 989
8 1108 1003 893 990 993 894 784 882
8 880 787 896 991 992 895 1005 1109
8 993 894 785 881 1110 1004 895 992
8 898 799 905 1006 1007 907 1013 1120
8 1030 920 1013 1120 919 814 905 1006
8 901 801 907 1007 1011 908 1015 1121
8 899 802 909 1009 1008 906 1014 1122
8 900 803 910 1010 1009 909 1017 1123
8 1012 911 1018 1124 903 804 910 1010
8 904 805 908 1011 1012 911 1016 1125
8 1013 912 1020 1127 907 808 914 1015
8 1031 921 1020 1127 920 815 912 1013
8 1019 918 962 1075 1128 1021 913 1014
8 1128 1021 913 1014 1017 916 810 909
8 1015 914 1022 1129 908 809 915 1016
8 1016 915 1023 1130 911 812 917 1018
8 1018 917 1024 1131 910 811 916 1017
8 1037 928 1031 1148 925 821 920 1030
8 928 823 931 1041 1031 921 1032 1149
8 1033 926 829 941 1151 1039 939 1057
8 1034 927 819 922 1152 1040 926 1033
8 1153 1038 929 1035 1034 927 820 923
8 1154 1042 930 1036 1035 929 822 924
8 1037 928 821 925 1155 1041 930 1036
8 1039 935 828 939 1156 1047 938 1055
8 1157 1043 932 1042 1038 933 825 929
8 1038 933 826 927 1158 1045 934 1040
8 1040 934 827 926 1159 1046 935 1039
8 930 824 932 1042 1041 931 1044 1160
8 1051 936 1048 1165 1175 1052 937 1053
8 1156 1047 938 1055 1053 937 1054 1178
8 939 828 940 1058 1055 938 1056 1181
8 941 829 942 1060 1057 939 1058 1183
8 942 830 943 1061 1058 940 1059 1184
8 1060 942 832 944 1185 1061 945 1062
8 1082 964 1063 1188 981 889 947 1064
8 1097 981 1064 1190 979 870 948 1066
8 1064 947 1065 1191 948 837 949 1067
8 1066 948 1067 1193 975 869 950 1069
8 1067 949 1068 1194 950 838 951 1070
8 1069 950 1070 1195 952 839 953 1071
8 956 849 959 1072 1073 958 1076 1197
8 1074 960 1076 1197 1008 906 959 1072
8 1073 958 1076 1197 965 868 980 1085
8 1074 960 906 1008 1198 1077 1014 1122
8 1133 1026 1079 1199 1019 918 962 1075
8 1077 963 913 1014 1200 1080 962 1075
8 960 853 963 1077 1076 961 1078 1201
8 980 883 961 1076 1099 994 1078 1201
8 1210 1083 964 1082 1100 999 889 981
8 966 871 980 1085 1086 984 1099 1215
8 967 872 984 1086 1087 985 1103 1216
8 971 876 985 1087 1090 988 1104 1217
8 1088 986 874 969 1218 1105 987 1089
8 972 879 986 1088 1091 991 1105 1218
8 970 875 988 1090 1089 987 1106 1219
8 973 880 991 1091 1092 992 1109 1220
8 1093 993 881 974 1221 1110 992 1092
8 1222 1108 990 1095 1093 993 882 976
8 1223 1101 982 1094 1096 989 877 977
8 1098 983 870 979 1223 1101 982 1094
8 1095 990 1107 1224 978 878 989 1096
8 1098 983 1100 1225 979 870 981 1097
8 984 884 994 1099 1103 995 1111 1227
8 1102 1001 1115 1228 983 891 999 1100
8 1101 1000 892 989 1229 1116 1002 1107
8 1102 1001 891 983 1229 1116 1000 1101
8 985 885 995 1103 1104 996 1112 1230
8 988 886 996 1104 1106 997 1113 1231
8 1105 998 888 987 1232 1114 997 1106
8 991 896 998 1105 1109 1005 1114 1232
8 1108 1003 1117 1233 990 893 1002 1107
8 1108 1003 894 993 1233 1117 1004 1110
8 992 895 1005 1109 1110 1004 1118 1234
8 1120 1013 1127 1244 1007 907 1015 1121
8 1148 1031 1127 1244 1030 920 1013 1120
8 1121 1015 1129 1245 1011 908 1016 1125
8 1126 1019 1075 1196 1246 1128 1014 1122
8 1246 1128 1014 1122 1123 1017 909 1009
8 1124 1018 1131 1247 1010 910 1017 1123
8 1125 1016 1130 1248 1012 911 1018 1124
8 1127 1020 1137 1254 1015 914 1022 1129
8 1031 921 1032 1149 1127 1020 1137 1254
8 1134 1027 918 1019 1257 1140 1021 1128
8 1257 1140 1021 1128 1131 1024 916 1017
8 1129 1022 1141 1258 1016 915 1023 1130
8 1130 1023 1142 1259 1018 917 1024 1131
8 1261 1144 1025 1132 1133 1026 1079 1199
8 1255 1138 1025 1132 1135 1028 1144 1261
8 1133 1026 918 1019 1262 1145 1027 1134
8 1136 1029 1139 1256 1263 1146 1028 1135
8 1037 928 1041 1155 1148 1031 1149 1275
8 1041 931 1044 1160 1149 1032 1150 1276
8 1151 1039 939 1057 1278 1156 1055 1180
8 1152 1040 926 1033 1279 1159 1039 1151
8 1153 1038 927 1034 1280 1158 1040 1152
8 1281 1157 1042 1154 1153 1038 929 1035
8 1036 930 1042 1154 1155 1041 1160 1282
8 1283 1164 1046 1159 1156 1047 935 1039
8 1165 1048 1164 1283 1053 937 1047 1156
8 1157 1043 933 1038 1284 1161 1045 1158
8 1157 1043 1161 1284 1042 932 1044 1160
8 1040 934 1046 1159 1158 1045 1163 1285
8 1166 1049 1167 1292 1051 936 1048 1165
8 1166 1049 936 1051 1293 1168 1050 1172
8 1051 936 1052 1175 1172 1050 1173 1306
8 1174 1051 1165 1290 1308 1175 1053 1177
8 1053 937 1054 1178 1175 1052 1176 1309
8 1278 1156 1055 1180 1177 1053 1178 1311
8 1055 938 1056 1181 1178 1054 1179 1312
8 1057 939 1058 1183 1180 1055 1181 1314
8 1058 940 1059 1184 1181 1056 1182 1315
8 1060 942 1061 1185 1183 1058 1184 1316
8 1208 1081 1187 1321 1082 964 1063 1188
8 1209 1082 1188 1322 1097 981 1064 1190
8 1188 1063 1189 1323 1064 947 1065 1191
8 1190 1064 1191 1325 1066 948 1067 1193
8 1191 1065 1192 1326 1067 949 1068 1194
8 1067 1193 1069 950 1194 1327 1195 1070
8 1250 1133 1199 1330 1126 1019 1075 1196
8 1198 1077 1014 1122 1331 1200 1075 1196
8 1074 960 1077 1198 1197 1076 1201 1332
8 1085 980 1076 1197 1215 1099 1201 1332
8 1199 1079 1203 1333 1075 962 1080 1200
8 1132 1025 1119 1243 1199 1079 1203 1333
8 1201 1078 963 1077 1334 1202 1080 1200
8 1099 994 1078 1201 1227 1111 1202 1334
8 1343 1207 1081 1208 1210 1083 964 1082
8 1214 1084 1186 1319 1343 1207 1081 1208
8 1345 1210 1082 1209 1225 1100 981 1097
8 1346 1211 1083 1210 1228 1115 999 1100
8 1086 984 1099 1215 1216 1103 1227 1352
8 1087 985 1103 1216 1217 1104 1230 1353
8 1090 988 1104 1217 1219 1106 1231 1354
8 1218 1105 987 1089 1355 1232 1106 1219
8 1091 991 1105 1218 1220 1109 1232 1355
8 1092 992 1109 1220 1221 1110 1234 1356
8 1222 1108 1233 1357 1095 990 1107 1224
8 1222 1108 993 1093 1357 1233 1110 1221
8 1223 1101 989 1096 1358 1229 1107 1224
8 1226 1102 983 1098 1358 1229 1101 1223
8 1226 1102 1228 1359 1098 983 1100 1225
8 1103 995 1111 1227 1230 1112 1235 1360
8 1107 1002 1117 1233 1229 1116 1240 1362
8 1102 1001 1116 1229 1228 1115 1240 1362
8 1104 996 1112 1230 1231 1113 1236 1363
8 1364 1237 1114 1232 1231 1113 997 1106
8 1109 1005 1114 1232 1234 1118 1238 1365
8 1110 1004 1118 1234 1233 1117 1241 1366
8 1242 1374 1255 1138 1119 1243 1132 1025
8 1244 1127 1254 1376 1121 1015 1129 1245
8 1148 1031 1149 1275 1244 1127 1254 1376
8 1245 1129 1258 1377 1125 1016 1130 1248
8 1251 1134 1019 1126 1378 1257 1128 1246
8 1378 1257 1128 1246 1247 1131 1017 1123
8 1248 1130 1259 1379 1124 1018 1131 1247
8 1261 1381 1250 1133 1132 1249 1330 1199
8 1255 1380 1252 1135 1132 1249 1381 1261
8 1250 1133 1019 1126 1382 1262 1134 1251
8 1253 1136 1256 1385 1384 1263 1135 1252
8 1254 1137 1265 1387 1129 1022 1141 1258
8 1149 1032 1150 1276 1254 1137 1265 1387
8 1028 1135 1255 1138 1139 1256 1388 1266
8 1136 1029 1147 1264 1256 1139 1267 1389
8 1390 1268 1140 1257 1259 1142 1024 1131
8 1260 1143 1027 1134 1390 1268 1140 1257
8 1258 1141 1269 1391 1130 1023 1142 1259
8 1262 1145 1027 1134 1393 1271 1143 1260
8 1261 1144 1026 1133 1394 1272 1145 1262
8 1135 1028 1144 1261 1263 1146 1272 1394
8 1136 1029 1146 1263 1264 1147 1273 1395
8 1155 1041 1160 1282 1275 1149 1276 1405
8 1276 1150 1044 1160 1406 1277 1162 1286
8 1408 1283 1159 1279 1278 1156 1039 1151
8 1290 1165 1283 1408 1177 1053 1156 1278
8 1152 1040 1159 1279 1280 1158 1285 1409
8 1281 1157 1038 1153 1410 1284 1158 1280
8 1281 1157 1284 1410 1154 1042 1160 1282
8 1159 1046 1164 1283 1285 1163 1289 1412
8 1292 1167 1289 1412 1165 1048 1164 1283
8 1158 1045 1163 1285 1284 1161 1288 1413
8 1284 1161 1288 1413 1160 1044 1162 1286
8 1291 1166 1292 1418 1174 1051 1165 1290
8 1291 1166 1051 1174 1419 1293 1172 1305
8 1294 1169 1296 1421 1166 1049 1167 1292
8 1293 1168 1050 1172 1422 1295 1171 1303
8 1294 1169 1049 1166 1423 1297 1168 1293
8 1422 1295 1171 1303 1301 1170 1302 1435
8 1172 1050 1173 1306 1303 1171 1304 1438
8 1174 1051 1175 1308 1305 1172 1306 1440
8 1175 1052 1176 1309 1306 1173 1307 1441
8 1177 1053 1178 1311 1308 1175 1309 1443
8 1178 1054 1179 1312 1309 1176 1310 1444
8 1180 1055 1181 1314 1311 1178 1312 1446
8 1056 1181 1312 1179 1182 1315 1447 1313
8 1183 1058 1184 1316 1314 1181 1315 1448
8 1319 1186 1084 1214 1451 1317 1213 1350
8 1319 1186 1318 1453 1208 1081 1187 1321
8 1321 1187 1320 1456 1188 1063 1189 1323
8 1344 1208 1321 1457 1209 1082 1188 1322
8 1322 1188 1323 1458 1190 1064 1191 1325
8 1323 1189 1324 1459 1191 1065 1192 1326
8 1191 1325 1193 1067 1326 1460 1327 1194
8 1242 1374 1243 1119 1328 1462 1335 1204
8 1330 1199 1333 1465 1196 1075 1200 1331
8 1132 1249 1330 1199 1243 1375 1465 1333
8 1332 1201 1077 1198 1466 1334 1200 1331
8 1215 1099 1201 1332 1352 1227 1334 1466
8 1119 1243 1333 1203 1204 1335 1470 1338
8 1333 1203 1338 1470 1200 1080 1202 1334
8 1227 1111 1202 1334 1360 1235 1338 1470
8 1328 1462 1335 1204 1205 1336 1471 1339
8 1337 1206 1340 1472 1464 1329 1205 1336
8 1346 1211 1342 1479 1210 1083 1207 1343
8 1346 1211 1115 1228 1479 1342 1239 1361
8 1348 1212 1084 1214 1479 1342 1207 1343
8 1480 1343 1208 1344 1345 1210 1082 1209
8 1351 1214 1319 1454 1480 1343 1208 1344
8 1481 1346 1210 1345 1359 1228 1100 1225
8 1348 1212 1347 1483 1214 1084 1213 1350
8 1216 1103 1227 1352 1353 1230 1360 1488
8 1217 1104 1230 1353 1354 1231 1363 1489
8 1490 1364 1232 1355 1354 1231 1106 1219
8 1220 1109 1232 1355 1356 1234 1365 1491
8 1221 1110 1234 1356 1357 1233 1366 1492
8 1224 1107 1233 1357 1358 1229 1362 1493
8 1226 1102 1229 1358 1359 1228 1362 1493
8 1230 1112 1235 1360 1363 1236 1367 1496
8 1361 1239 1115 1228 1497 1371 1240 1362
8 1366 1241 1372 1498 1233 1117 1240 1362
8 1364 1237 1113 1231 1499 1368 1236 1363
8 1364 1237 1368 1499 1232 1114 1238 1365
8 1234 1118 1238 1365 1366 1241 1369 1500
8 1507 1373 1242 1374 1388 1266 1138 1255
8 1508 1374 1243 1375 1380 1255 1132 1249
8 1376 1254 1387 1509 1245 1129 1258 1377
8 1275 1149 1276 1405 1376 1254 1387 1509
8 1377 1258 1391 1510 1248 1130 1259 1379
8 1511 1390 1257 1378 1379 1259 1131 1247
8 1383 1260 1134 1251 1511 1390 1257 1378
8 1252 1135 1256 1385 1380 1255 1388 1512
8 1261 1381 1513 1394 1133 1250 1382 1262
8 1135 1252 1384 1263 1261 1381 1513 1394
8 1382 1262 1134 1251 1514 1393 1260 1383
8 1253 1136 1263 1384 1386 1264 1395 1516
8 1253 1136 1264 1386 1385 1256 1389 1517
8 1387 1265 1397 1519 1258 1141 1269 1391
8 1276 1150 1277 1406 1387 1265 1397 1519
8 1256 1139 1267 1389 1388 1266 1398 1520
8 1264 1147 1274 1396 1389 1267 1399 1521
8 1392 1270 1143 1260 1522 1400 1268 1390
8 1390 1268 1142 1259 1522 1400 1269 1391
8 1392 1270 1401 1523 1260 1143 1271 1393
8 1272 1394 1524 1402 1145 1262 1393 1271
8 1395 1273 1146 1263 1524 1402 1272 1394
8 1273 1395 1264 1147 1403 1526 1396 1274
8 1405 1276 1160 1282 1534 1406 1286 1411
8 1414 1287 1407 1535 1286 1162 1277 1406
8 1279 1159 1283 1408 1409 1285 1412 1537
8 1418 1292 1412 1537 1290 1165 1283 1408
8 1280 1158 1285 1409 1410 1284 1413 1538
8 1410 1284 1413 1538 1282 1160 1286 1411
8 1285 1163 1289 1412 1413 1288 1417 1540
8 1421 1296 1417 1540 1292 1167 1289 1412
8 1414 1287 1162 1286 1541 1416 1288 1413
8 1420 1294 1421 1545 1291 1166 1292 1418
8 1419 1293 1172 1305 1546 1422 1303 1437
8 1420 1294 1166 1291 1547 1423 1293 1419
8 1294 1169 1297 1423 1421 1296 1425 1548
8 1423 1297 1168 1293 1549 1424 1295 1422
8 1301 1170 1298 1427 1422 1295 1424 1549
8 1432 1300 1428 1554 1301 1170 1298 1427
8 1431 1299 1428 1554 1560 1430 1300 1432
8 1563 1433 1300 1432 1435 1302 1170 1301
8 1546 1422 1303 1437 1434 1301 1435 1565
8 1303 1171 1304 1438 1435 1302 1436 1566
8 1305 1172 1306 1440 1437 1303 1438 1568
8 1306 1173 1307 1441 1438 1304 1439 1569
8 1308 1175 1309 1443 1440 1306 1441 1571
8 1309 1176 1310 1444 1441 1307 1442 1572
8 1311 1178 1312 1446 1443 1309 1444 1574
8 1179 1312 1444 1310 1313 1447 1575 1445
8 1314 1181 1315 1448 1446 1312 1447 1576
8 1350 1213 1349 1486 1451 1317 1449 1579
8 1451 1317 1450 1581 1319 1186 1318 1453
8 1454 1319 1214 1351 1582 1451 1350 1487
8 1453 1318 1452 1584 1321 1187 1320 1456
8 1454 1319 1453 1585 1344 1208 1321 1457
8 1456 1320 1455 1586 1323 1189 1324 1459
8 1457 1321 1456 1587 1322 1188 1323 1458
8 1458 1323 1459 1588 1325 1191 1326 1460
8 1205 1336 1464 1329 1328 1462 1590 1461
8 1507 1373 1461 1590 1374 1242 1328 1462
8 1508 1374 1462 1591 1375 1243 1335 1467
8 1337 1206 1329 1464 1473 1341 1463 1594
8 1375 1243 1335 1467 1465 1333 1470 1596
8 1465 1333 1470 1596 1331 1200 1334 1466
8 1352 1227 1334 1466 1488 1360 1470 1596
8 1591 1462 1336 1468 1467 1335 1471 1597
8 1469 1337 1472 1598 1595 1464 1336 1468
8 1471 1339 1474 1600 1335 1204 1338 1470
8 1600 1474 1367 1496 1470 1338 1235 1360
8 1336 1205 1340 1472 1471 1339 1475 1601
8 1337 1206 1341 1473 1472 1340 1476 1602
8 1495 1370 1478 1609 1361 1239 1342 1479
8 1348 1212 1342 1479 1483 1347 1478 1609
8 1481 1346 1479 1610 1345 1210 1343 1480
8 1481 1346 1228 1359 1610 1479 1361 1494
8 1484 1348 1214 1351 1610 1479 1343 1480
8 1483 1347 1482 1612 1350 1213 1349 1486
8 1484 1348 1483 1613 1351 1214 1350 1487
8 1353 1230 1360 1488 1489 1363 1496 1616
8 1490 1364 1231 1354 1617 1499 1363 1489
8 1490 1364 1499 1617 1355 1232 1365 1491
8 1356 1234 1365 1491 1492 1366 1500 1619
8 1492 1366 1498 1620 1357 1233 1362 1493
8 1494 1361 1228 1359 1621 1497 1362 1493
8 1495 1370 1239 1361 1622 1504 1371 1497
8 1363 1236 1367 1496 1499 1368 1501 1623
8 1497 1371 1240 1362 1624 1505 1372 1498
8 1625 1503 1372 1498 1500 1369 1241 1366
8 1365 1238 1368 1499 1500 1369 1502 1626
8 1520 1398 1506 1633 1388 1266 1373 1507
8 1634 1507 1374 1508 1512 1388 1255 1380
8 1509 1387 1519 1635 1377 1258 1391 1510
8 1405 1276 1406 1534 1509 1387 1519 1635
8 1515 1392 1260 1383 1636 1522 1390 1511
8 1511 1390 1259 1379 1636 1522 1391 1510
8 1385 1256 1389 1517 1512 1388 1520 1637
8 1513 1394 1262 1382 1638 1524 1393 1514
8 1395 1516 1638 1524 1263 1384 1513 1394
8 1515 1392 1523 1639 1383 1260 1393 1514
8 1516 1395 1526 1640 1386 1264 1396 1518
8 1386 1264 1396 1518 1517 1389 1521 1641
8 1519 1397 1527 1643 1391 1269 1400 1522
8 1535 1407 1527 1643 1406 1277 1397 1519
8 1389 1267 1399 1521 1520 1398 1528 1644
8 1645 1529 1399 1521 1525 1404 1274 1396
8 1392 1270 1400 1522 1523 1401 1531 1646
8 1524 1402 1271 1393 1648 1532 1401 1523
8 1403 1526 1648 1532 1273 1395 1524 1402
8 1525 1404 1274 1396 1649 1533 1403 1526
8 1539 1414 1535 1657 1411 1286 1406 1534
8 1542 1415 1536 1658 1414 1287 1407 1535
8 1409 1285 1412 1537 1538 1413 1540 1660
8 1545 1421 1540 1660 1418 1292 1412 1537
8 1539 1414 1286 1411 1661 1541 1413 1538
8 1540 1417 1544 1663 1413 1288 1416 1541
8 1421 1296 1425 1548 1540 1417 1544 1663
8 1542 1415 1287 1414 1664 1543 1416 1541
8 1420 1294 1423 1547 1545 1421 1548 1666
8 1547 1423 1293 1419 1667 1549 1422 1546
8 1434 1301 1427 1553 1546 1422 1549 1667
8 1423 1297 1424 1549 1548 1425 1550 1668
8 1551 1426 1550 1668 1427 1298 1424 1549
8 1551 1426 1298 1427 1671 1552 1428 1554
8 1562 1432 1554 1674 1434 1301 1427 1553
8 1431 1299 1429 1558 1554 1428 1555 1675
8 1431 1299 1430 1560 1558 1429 1557 1680
8 1560 1430 1300 1432 1683 1559 1433 1563
8 1561 1431 1554 1674 1684 1560 1432 1562
8 1685 1563 1432 1562 1565 1435 1301 1434
8 1435 1302 1436 1566 1563 1433 1564 1686
8 1437 1303 1438 1568 1565 1435 1566 1688
8 1438 1304 1439 1569 1566 1436 1567 1689
8 1440 1306 1441 1571 1568 1438 1569 1691
8 1441 1307 1442 1572 1569 1439 1570 1692
8 1443 1309 1444 1574 1571 1441 1572 1694
8 1310 1444 1572 1442 1445 1575 1695 1573
8 1446 1312 1447 1576 1574 1444 1575 1696
8 1486 1349 1485 1614 1579 1449 1577 1699
8 1451 1317 1449 1579 1581 1450 1578 1701
8 1487 1350 1486 1615 1582 1451 1579 1702
8 1581 1450 1580 1704 1453 1318 1452 1584
8 1582 1451 1581 1705 1454 1319 1453 1585
8 1584 1452 1583 1706 1456 1320 1455 1586
8 1585 1453 1584 1707 1457 1321 1456 1587
8 1587 1456 1586 1708 1458 1323 1459 1588
8 1633 1506 1589 1710 1507 1373 1461 1590
8 1464 1329 1461 1590 1594 1463 1589 1710
8 1468 1336 1462 1591 1595 1464 1590 1711
8 1634 1507 1590 1711 1508 1374 1462 1591
8 1473 1341 1463 1594 1603 1477 1593 1716
8 1469 1337 1464 1595 1599 1473 1594 1717
8 1471 1597 1467 1335 1600 1718 1596 1470
8 1718 1600 1496 1616 1596 1470 1360 1488
8 1336 1468 1597 1471 1472 1598 1719 1601
8 1469 1337 1473 1599 1598 1472 1602 1720
8 1722 1604 1501 1623 1600 1474 1367 1496
8 1475 1601 1471 1339 1604 1722 1600 1474
8 1602 1476 1605 1723 1472 1340 1475 1601
8 1476 1602 1724 1606 1341 1473 1603 1477
8 1483 1347 1478 1609 1612 1482 1608 1731
8 1495 1370 1504 1622 1609 1478 1608 1731
8 1618 1495 1609 1732 1494 1361 1479 1610
8 1484 1348 1479 1610 1613 1483 1609 1732
8 1486 1349 1482 1612 1614 1485 1611 1733
8 1613 1483 1612 1734 1487 1350 1486 1615
8 1489 1363 1496 1616 1617 1499 1623 1736
8 1491 1365 1499 1617 1619 1500 1626 1737
8 1618 1495 1361 1494 1738 1622 1497 1621
8 1739 1625 1498 1620 1619 1500 1366 1492
8 1621 1497 1362 1493 1740 1624 1498 1620
8 1742 1631 1504 1622 1624 1505 1371 1497
8 1743 1628 1502 1626 1623 1501 1368 1499
8 1744 1630 1505 1624 1625 1503 1372 1498
8 1745 1629 1503 1625 1626 1502 1369 1500
8 1520 1398 1528 1644 1633 1506 1632 1751
8 1637 1520 1633 1752 1512 1388 1507 1634
8 1635 1519 1643 1753 1510 1391 1522 1636
8 1657 1535 1643 1753 1534 1406 1519 1635
8 1515 1392 1522 1636 1639 1523 1646 1754
8 1517 1389 1521 1641 1637 1520 1644 1755
8 1524 1638 1756 1648 1393 1514 1639 1523
8 1640 1526 1395 1516 1756 1648 1524 1638
8 1642 1525 1396 1518 1757 1649 1526 1640
8 1758 1645 1521 1641 1642 1525 1396 1518
8 1646 1531 1400 1522 1760 1650 1527 1643
8 1535 1407 1536 1658 1643 1527 1650 1760
8 1521 1399 1529 1645 1644 1528 1651 1761
8 1647 1530 1652 1762 1525 1404 1529 1645
8 1401 1523 1648 1532 1531 1646 1763 1655
8 1525 1404 1533 1649 1647 1530 1654 1765
8 1533 1649 1766 1656 1403 1526 1648 1532
8 1662 1542 1658 1774 1539 1414 1535 1657
8 1542 1415 1543 1664 1658 1536 1659 1775
8 1660 1540 1663 1777 1538 1413 1541 1661
8 1545 1421 1548 1666 1660 1540 1663 1777
8 1662 1542 1414 1539 1778 1664 1541 1661
8 1664 1543 1416 1541 1779 1665 1544 1663
8 1548 1425 1550 1668 1663 1544 1665 1779
8 1547 1423 1549 1667 1666 1548 1668 1781
8 1670 1551 1668 1781 1553 1427 1549 1667
8 1551 1426 1552 1671 1668 1550 1669 1782
8 1670 1551 1427 1553 1784 1671 1554 1674
8 1675 1555 1672 1785 1554 1428 1552 1671
8 1678 1556 1673 1789 1558 1429 1555 1675
8 1561 1431 1558 1681 1674 1554 1675 1790
8 1794 1677 1556 1678 1680 1557 1429 1558
8 1560 1430 1559 1683 1680 1557 1679 1797
8 1561 1431 1560 1684 1681 1558 1680 1798
8 1563 1433 1564 1686 1683 1559 1682 1800
8 1684 1560 1432 1562 1801 1683 1563 1685
8 1565 1435 1566 1688 1685 1563 1686 1802
8 1566 1436 1567 1689 1686 1564 1687 1803
8 1568 1438 1569 1691 1688 1566 1689 1805
8 1569 1439 1570 1692 1689 1567 1690 1806
8 1571 1441 1572 1694 1691 1569 1692 1808
8 1442 1572 1692 1570 1573 1695 1809 1693
8 1574 1444 1575 1696 1694 1572 1695 1810
8 1614 1485 1592 1712 1699 1577 1697 1813
8 1579 1449 1577 1699 1701 1578 1698 1815
8 1615 1486 1614 1735 1702 1579 1699 1816
8 1701 1578 1700 1818 1581 1450 1580 1704
8 1582 1451 1579 1702 1705 1581 1701 1819
8 1704 1580 1703 1820 1584 1452 1583 1706
8 1705 1581 1704 1821 1585 1453 1584 1707
8 1707 1584 1706 1822 1587 1456 1586 1708
8 1710 1589 1506 1633 1824 1709 1632 1751
8 1594 1463 1589 1710 1716 1593 1709 1824
8 1752 1633 1710 1825 1634 1507 1590 1711
8 1595 1464 1590 1711 1717 1594 1710 1825
8 1830 1714 1592 1712 1733 1611 1485 1614
8 1603 1477 1593 1716 1725 1607 1715 1834
8 1599 1473 1594 1717 1721 1603 1716 1835
8 1837 1722 1623 1736 1718 1600 1496 1616
8 1719 1601 1722 1837 1597 1471 1600 1718
8 1602 1720 1598 1472 1723 1838 1719 1601
8 1720 1602 1473 1599 1839 1724 1603 1721
8 1723 1605 1726 1840 1601 1475 1604 1722
8 1840 1726 1628 1743 1722 1604 1501 1623
8 1724 1606 1727 1841 1602 1476 1605 1723
8 1725 1607 1728 1842 1603 1477 1606 1724
8 1612 1482 1608 1731 1733 1611 1730 1849
8 1741 1627 1730 1849 1622 1504 1608 1731
8 1613 1483 1609 1732 1734 1612 1731 1850
8 1618 1495 1622 1738 1732 1609 1731 1850
8 1615 1486 1612 1734 1735 1614 1733 1851
8 1852 1743 1626 1737 1736 1623 1499 1617
8 1853 1745 1625 1739 1737 1626 1500 1619
8 1855 1742 1622 1738 1740 1624 1497 1621
8 1856 1744 1624 1740 1739 1625 1498 1620
8 1741 1627 1504 1622 1857 1746 1631 1742
8 1742 1631 1505 1624 1858 1749 1630 1744
8 1859 1747 1629 1745 1743 1628 1502 1626
8 1860 1748 1630 1744 1745 1629 1503 1625
8 1644 1528 1651 1761 1751 1632 1750 1865
8 1637 1520 1644 1755 1752 1633 1751 1866
8 1754 1646 1522 1636 1867 1760 1643 1753
8 1657 1535 1658 1774 1753 1643 1760 1867
8 1639 1523 1646 1754 1756 1648 1763 1868
8 1641 1521 1645 1758 1755 1644 1761 1869
8 1757 1649 1526 1640 1870 1766 1648 1756
8 1642 1525 1649 1757 1759 1647 1765 1871
8 1759 1647 1762 1872 1642 1525 1645 1758
8 1760 1650 1767 1874 1646 1531 1655 1763
8 1658 1536 1659 1775 1760 1650 1767 1874
8 1762 1652 1768 1875 1645 1529 1651 1761
8 1764 1653 1769 1876 1647 1530 1652 1762
8 1656 1766 1877 1773 1532 1648 1763 1655
8 1771 1879 1765 1654 1653 1764 1647 1530
8 1533 1649 1765 1654 1656 1766 1880 1772
8 1662 1542 1664 1778 1774 1658 1775 1887
8 1664 1543 1665 1779 1775 1659 1776 1888
8 1778 1664 1541 1661 1890 1779 1663 1777
8 1666 1548 1668 1781 1777 1663 1779 1890
8 1782 1669 1780 1891 1668 1550 1665 1779
8 1670 1551 1671 1784 1781 1668 1782 1893
8 1671 1552 1672 1785 1782 1669 1783 1894
8 1790 1675 1785 1896 1674 1554 1671 1784
8 1675 1555 1673 1789 1785 1672 1786 1897
8 1792 1676 1788 1903 1678 1556 1673 1789
8 1795 1678 1789 1904 1681 1558 1675 1790
8 1792 1676 1556 1678 1906 1791 1677 1794
8 1680 1557 1679 1797 1794 1677 1793 1909
8 1910 1794 1678 1795 1798 1680 1558 1681
8 1683 1559 1682 1800 1797 1679 1796 1912
8 1684 1560 1683 1801 1798 1680 1797 1913
8 1686 1564 1687 1803 1800 1682 1799 1915
8 1685 1563 1686 1802 1801 1683 1800 1916
8 1688 1566 1689 1805 1802 1686 1803 1917
8 1689 1567 1690 1806 1803 1687 1804 1918
8 1691 1569 1692 1808 1805 1689 1806 1920
8 1692 1570 1693 1809 1806 1690 1807 1921
8 1694 1572 1695 1810 1808 1692 1809 1922
8 1829 1713 1811 1926 1712 1592 1697 1813
8 1813 1697 1812 1928 1699 1577 1698 1815
8 1735 1614 1712 1828 1816 1699 1813 1929
8 1815 1698 1814 1931 1701 1578 1700 1818
8 1702 1579 1699 1816 1819 1701 1815 1932
8 1818 1700 1817 1933 1704 1580 1703 1820
8 1819 1701 1818 1934 1705 1581 1704 1821
8 1821 1704 1820 1935 1707 1584 1706 1822
8 1824 1709 1632 1751 1937 1823 1750 1865
8 1716 1593 1709 1824 1834 1715 1823 1937
8 1825 1710 1633 1752 1938 1824 1751 1866
8 1717 1594 1710 1825 1835 1716 1824 1938
8 1945 1830 1712 1828 1851 1733 1614 1735
8 1830 1714 1831 1946 1712 1592 1713 1829
8 1947 1832 1714 1830 1849 1730 1611 1733
8 1843 1729 1607 1725 1950 1833 1715 1834
8 1721 1603 1716 1835 1836 1725 1834 1951
8 1836 1725 1842 1953 1721 1603 1724 1839
8 1723 1838 1719 1601 1840 1954 1837 1722
8 1954 1840 1743 1852 1837 1722 1623 1736
8 1724 1839 1720 1602 1841 1955 1838 1723
8 1841 1727 1844 1956 1723 1605 1726 1840
8 1956 1844 1747 1859 1840 1726 1628 1743
8 1728 1842 1724 1606 1845 1957 1841 1727
8 1725 1607 1729 1843 1842 1728 1846 1958
8 1741 1627 1746 1857 1849 1730 1848 1965
8 1734 1612 1731 1850 1851 1733 1849 1966
8 1854 1741 1849 1966 1738 1622 1731 1850
8 1967 1859 1745 1853 1852 1743 1626 1737
8 1968 1860 1744 1856 1853 1745 1625 1739
8 1854 1741 1622 1738 1969 1857 1742 1855
8 1855 1742 1624 1740 1970 1858 1744 1856
8 1857 1746 1631 1742 1971 1861 1749 1858
8 1858 1749 1630 1744 1972 1863 1748 1860
8 1859 1747 1862 1973 1745 1629 1748 1860
8 1875 1768 1864 1977 1761 1651 1750 1865
8 1755 1644 1761 1869 1866 1751 1865 1978
8 1867 1760 1874 1979 1754 1646 1763 1868
8 1774 1658 1775 1887 1867 1760 1874 1979
8 1870 1766 1648 1756 1980 1877 1763 1868
8 1872 1762 1875 1981 1758 1645 1761 1869
8 1757 1649 1766 1870 1871 1765 1880 1982
8 1983 1879 1764 1873 1871 1765 1647 1759
8 1873 1764 1876 1984 1759 1647 1762 1872
8 1877 1773 1655 1763 1986 1881 1767 1874
8 1775 1659 1776 1888 1874 1767 1881 1986
8 1876 1769 1882 1987 1762 1652 1768 1875
8 1878 1770 1883 1988 1764 1653 1769 1876
8 1880 1772 1656 1766 1989 1886 1773 1877
8 1878 1770 1653 1764 1990 1884 1771 1879
8 1765 1654 1772 1880 1879 1771 1885 1991
8 1778 1664 1779 1890 1887 1775 1888 1997
8 1998 1889 1776 1888 1891 1780 1665 1779
8 1893 1782 1891 2000 1781 1668 1779 1890
8 1894 1783 1892 2001 1782 1669 1780 1891
8 1784 1671 1785 1896 1893 1782 1894 2003
8 1897 1786 1895 2004 1785 1672 1783 1894
8 1790 1675 1789 1904 1896 1785 1897 2006
8 1901 1787 1898 2007 1789 1673 1786 1897
8 1903 1788 1900 2013 1789 1673 1787 1901
8 1792 1676 1791 1906 1903 1788 1902 2016
8 1907 1792 1903 2017 1795 1678 1789 1904
8 1906 1791 1677 1794 2019 1905 1793 1909
8 1907 1792 1678 1795 2020 1906 1794 1910
8 1797 1679 1796 1912 1909 1793 1908 2022
8 1798 1680 1797 1913 1910 1794 1909 2023
8 1800 1682 1799 1915 1912 1796 1911 2025
8 1801 1683 1800 1916 1913 1797 1912 2026
8 1803 1687 1804 1918 1915 1799 1914 2028
8 1802 1686 1803 1917 1916 1800 1915 2029
8 1805 1689 1806 1920 1917 1803 1918 2030
8 1806 1690 1807 1921 1918 1804 1919 2031
8 1808 1692 1809 1922 1920 1806 1921 2032
8 1939 1826 1924 2037 1829 1713 1811 1926
8 1926 1811 1925 2039 1813 1697 1812 1928
8 1944 1829 1926 2040 1828 1712 1813 1929
8 1928 1812 1927 2042 1815 1698 1814 1931
8 1929 1813 1928 2043 1816 1699 1815 1932
8 1931 1814 1930 2044 1818 1700 1817 1933
8 1932 1815 1931 2045 1819 1701 1818 1934
8 1934 1818 1933 2046 1821 1704 1820 1935
8 2048 1936 1823 1937 1977 1864 1750 1865
8 1950 1833 1715 1834 2048 1936 1823 1937
8 1938 1824 1751 1866 2049 1937 1865 1978
8 1835 1716 1824 1938 1951 1834 1937 2049
8 1939 1826 1713 1829 2053 1942 1831 1946
8 1940 1827 1923 2035 2053 1942 1826 1939
8 1945 1830 1946 2058 1828 1712 1829 1944
8 2059 1947 1830 1945 1966 1849 1733 1851
8 1947 1832 1730 1849 2060 1948 1848 1965
8 1947 1832 1948 2060 1830 1714 1831 1946
8 1959 1847 1729 1843 2063 1949 1833 1950
8 1952 1843 1725 1836 2064 1950 1834 1951
8 1836 1725 1843 1952 1953 1842 1958 2066
8 1953 1842 1957 2067 1839 1724 1841 1955
8 1841 1955 1838 1723 1956 2068 1954 1840
8 2068 1956 1859 1967 1954 1840 1743 1852
8 1956 1844 1960 2069 1859 1747 1862 1973
8 1845 1957 1841 1727 1960 2069 1956 1844
8 1728 1842 1957 1845 1846 1958 2071 1961
8 1962 2072 1959 1847 1846 1958 1843 1729
8 1971 1861 1964 2077 1857 1746 1848 1965
8 1854 1741 1857 1969 1966 1849 1965 2078
8 1967 1859 1973 2079 1853 1745 1860 1968
8 1970 1858 1744 1856 2080 1972 1860 1968
8 1969 1857 1742 1855 2081 1971 1858 1970
8 1971 1861 1749 1858 2082 1974 1863 1972
8 1973 1862 1975 2083 1860 1748 1863 1972
8 1987 1882 1976 2086 1875 1768 1864 1977
8 1981 1875 1977 2087 1869 1761 1865 1978
8 1980 1877 1763 1868 2088 1986 1874 1979
8 1887 1775 1888 1997 1979 1874 1986 2088
8 1880 1982 2089 1989 1766 1870 1980 1877
8 1984 1876 1987 2090 1872 1762 1875 1981
8 1765 1871 1983 1879 1880 1982 2091 1991
8 1985 1878 1764 1873 2092 1990 1879 1983
8 1985 1878 1988 2093 1873 1764 1876 1984
8 2094 1992 1881 1986 1998 1889 1776 1888
8 1986 1881 1992 2094 1877 1773 1886 1989
8 1988 1883 1993 2095 1876 1769 1882 1987
8 1878 1770 1884 1990 1988 1883 1994 2096
8 1991 1885 1772 1880 2097 1996 1886 1989
8 1879 1771 1885 1991 1990 1884 1995 2098
8 2103 1998 1888 1997 2000 1891 1779 1890
8 2104 1999 1889 1998 2001 1892 1780 1891
8 2003 1894 2001 2106 1893 1782 1891 2000
8 2004 1895 2002 2107 1894 1783 1892 2001
8 2006 1897 2004 2109 1896 1785 1894 2003
8 2007 1898 2005 2110 1897 1786 1895 2004
8 2014 1901 2007 2112 1904 1789 1897 2006
8 2011 1899 2008 2113 1901 1787 1898 2007
8 2119 2010 1899 2011 2013 1900 1787 1901
8 2016 1902 2012 2122 1903 1788 1900 2013
8 2017 1903 2013 2123 1904 1789 1901 2014
8 1906 1791 1905 2019 2016 1902 2015 2125
8 1907 1792 1906 2020 2017 1903 2016 2126
8 1909 1793 1908 2022 2019 1905 2018 2128
8 2020 1906 1794 1910 2129 2019 1909 2023
8 1912 1796 1911 2025 2022 1908 2021 2131
8 1913 1797 1912 2026 2023 1909 2022 2132
8 1915 1799 1914 2028 2025 1911 2024 2134
8 1916 1800 1915 2029 2026 1912 2025 2135
8 1918 1804 1919 2031 2028 1914 2027 2136
8 1917 1803 1918 2030 2029 1915 2028 2137
8 1920 1806 1921 2032 2030 1918 2031 2138
8 1940 1827 1941 2054 2035 1923 2033 2140
8 2035 1923 2034 2143 1939 1826 1924 2037
8 2037 1924 2036 2146 1926 1811 1925 2039
8 2051 1939 2037 2147 1944 1829 1926 2040
8 2039 1925 2038 2149 1928 1812 1927 2042
8 2040 1926 2039 2150 1929 1813 1928 2043
8 2042 1927 2041 2151 1931 1814 1930 2044
8 2043 1928 2042 2152 1932 1815 1931 2045
8 2045 1931 2044 2153 1934 1818 1933 2046
8 2155 2047 1936 2048 2086 1976 1864 1977
8 2063 1949 1833 1950 2155 2047 1936 2048
8 2156 2048 1937 2049 2087 1977 1865 1978
8 2064 1950 1834 1951 2156 2048 1937 2049
8 2051 1939 1829 1944 2160 2053 1946 2058
8 2052 1940 2035 2144 2160 2053 1939 2051
8 2053 1942 1831 1946 2163 2057 1948 2060
8 2055 1943 1827 1940 2163 2057 1942 2053
8 2055 1943 2056 2164 1940 1827 1941 2054
8 2059 1947 1849 1966 2167 2060 1965 2078
8 2059 1947 2060 2167 1945 1830 1946 2058
8 2077 1964 2061 2168 1965 1848 1948 2060
8 2070 1963 1847 1959 2170 2062 1949 2063
8 2065 1959 1843 1952 2171 2063 1950 2064
8 2173 2072 1958 2066 2065 1959 1843 1952
8 1953 1842 1958 2066 2067 1957 2071 2174
8 2068 1956 2069 2175 1967 1859 1973 2079
8 2067 1957 2069 2175 1955 1841 1956 2068
8 1845 1957 2069 1960 1961 2071 2176 2073
8 2069 1960 2073 2176 1973 1862 1975 2083
8 2070 1963 2075 2177 1959 1847 1962 2072
8 1846 1958 2071 1961 1962 2072 2178 2074
8 2077 1964 1861 1971 2182 2076 1974 2082
8 2081 1971 2077 2183 1969 1857 1965 2078
8 2079 1973 2083 2184 1968 1860 1972 2080
8 2081 1971 1858 1970 2185 2082 1972 2080
8 2083 1975 2084 2186 1972 1863 1974 2082
8 2086 1976 1882 1987 2189 2085 1993 2095
8 2090 1987 2086 2190 1981 1875 1977 2087
8 2191 2094 1986 2088 2103 1998 1888 1997
8 2088 1986 2094 2191 1980 1877 1989 2089
8 1991 2091 2192 2097 1880 1982 2089 1989
8 2093 1988 2095 2193 1984 1876 1987 2090
8 1879 1983 2092 1990 1991 2091 2194 2098
8 1985 1878 1990 2092 2093 1988 2096 2195
8 2097 1996 1886 1989 2196 2099 1992 2094
8 2196 2099 1992 2094 2104 1999 1889 1998
8 1994 2096 1988 1883 2100 2197 2095 1993
8 2096 1994 1884 1990 2198 2101 1995 2098
8 1995 2098 2199 2102 1885 1991 2097 1996
8 2203 2104 1998 2103 2106 2001 1891 2000
8 2107 2002 2105 2204 2001 1892 1999 2104
8 2109 2004 2107 2206 2003 1894 2001 2106
8 2110 2005 2108 2207 2004 1895 2002 2107
8 2112 2007 2110 2209 2006 1897 2004 2109
8 2113 2008 2111 2210 2007 1898 2005 2110
8 2120 2011 2113 2212 2014 1901 2007 2112
8 2117 2009 2114 2213 2011 1899 2008 2113
8 2219 2116 2009 2117 2119 2010 1899 2011
8 2222 2118 2010 2119 2122 2012 1900 2013
8 2223 2119 2011 2120 2123 2013 1901 2014
8 2016 1902 2015 2125 2122 2012 2121 2225
8 2126 2016 2122 2226 2017 1903 2013 2123
8 2019 1905 2018 2128 2125 2015 2124 2228
8 2020 1906 2019 2129 2126 2016 2125 2229
8 2022 1908 2021 2131 2128 2018 2127 2231
8 2023 1909 2022 2132 2129 2019 2128 2232
8 2025 1911 2024 2134 2131 2021 2130 2234
8 2026 1912 2025 2135 2132 2022 2131 2235
8 1914 2028 2134 2024 2027 2136 2236 2133
8 2029 1915 2028 2137 2135 2025 2134 2237
8 2030 1918 2031 2138 2137 2028 2136 2238
8 2157 2050 2139 2240 2054 1941 2033 2140
8 2052 1940 2054 2161 2144 2035 2140 2242
8 2140 2033 2141 2243 2035 1923 2034 2143
8 2143 2034 2142 2246 2037 1924 2036 2146
8 2144 2035 2143 2247 2051 1939 2037 2147
8 2146 2036 2145 2249 2039 1925 2038 2149
8 2147 2037 2146 2250 2040 1926 2039 2150
8 2149 2038 2148 2251 2042 1927 2041 2151
8 2150 2039 2149 2252 2043 1928 2042 2152
8 2152 2042 2151 2253 2045 1931 2044 2153
8 2255 2154 2047 2155 2189 2085 1976 2086
8 2170 2062 1949 2063 2255 2154 2047 2155
8 2256 2155 2048 2156 2190 2086 1977 2087
8 2171 2063 1950 2064 2256 2155 2048 2156
8 2258 2159 2050 2157 2164 2056 1941 2054
8 2160 2053 1946 2058 2262 2163 2060 2167
8 2162 2055 1940 2052 2262 2163 2053 2160
8 2162 2055 2164 2263 2052 1940 2054 2161
8 2163 2057 1948 2060 2264 2165 2061 2168
8 2055 1943 2057 2163 2164 2056 2165 2264
8 2182 2076 2166 2268 2077 1964 2061 2168
8 2183 2077 2168 2269 2078 1965 2060 2167
8 2070 1963 2062 2170 2177 2075 2169 2271
8 2172 2070 1959 2065 2272 2170 2063 2171
8 2172 2070 2177 2273 2065 1959 2072 2173
8 2066 1958 2072 2173 2174 2071 2178 2274
8 2067 1957 2071 2174 2175 2069 2176 2275
8 2175 2069 2176 2275 2079 1973 2083 2184
8 2071 1961 2074 2178 2176 2073 2179 2276
8 2176 2073 2179 2276 2083 1975 2084 2186
8 2072 1962 2075 2177 2178 2074 2180 2277
8 2182 2076 1974 2082 2280 2181 2084 2186
8 2183 2077 1971 2081 2281 2182 2082 2185
8 2184 2083 2186 2282 2080 1972 2082 2185
8 2189 2085 1993 2095 2285 2188 2100 2197
8 2190 2086 1987 2090 2286 2189 2095 2193
8 2192 2097 1989 2089 2287 2196 2094 2191
8 2287 2196 2094 2191 2203 2104 1998 2103
8 2194 2098 1991 2091 2288 2199 2097 2192
8 2195 2096 2197 2289 2093 1988 2095 2193
8 2096 2195 2290 2198 1990 2092 2194 2098
8 2097 1996 2099 2196 2199 2102 2200 2291
8 2196 2099 1999 2104 2291 2200 2105 2204
8 2100 2197 2292 2201 1994 2096 2198 2101
8 1995 2098 2198 2101 2102 2199 2293 2202
8 2206 2107 2204 2296 2106 2001 2104 2203
8 2207 2108 2205 2297 2107 2002 2105 2204
8 2209 2110 2207 2299 2109 2004 2107 2206
8 2210 2111 2208 2300 2110 2005 2108 2207
8 2212 2113 2210 2302 2112 2007 2110 2209
8 2213 2114 2211 2303 2113 2008 2111 2210
8 2220 2117 2213 2305 2120 2011 2113 2212
8 2216 2115 2214 2306 2117 2009 2114 2213
8 2216 2115 2009 2117 2311 2217 2116 2219
8 2219 2116 2010 2119 2314 2218 2118 2222
8 2315 2219 2117 2220 2223 2119 2011 2120
8 2122 2012 2121 2225 2222 2118 2221 2317
8 2318 2222 2119 2223 2226 2122 2013 2123
8 2125 2015 2124 2228 2225 2121 2224 2320
8 2126 2016 2125 2229 2226 2122 2225 2321
8 2128 2018 2127 2231 2228 2124 2227 2323
8 2129 2019 2128 2232 2229 2125 2228 2324
8 2131 2021 2130 2234 2231 2127 2230 2326
8 2132 2022 2131 2235 2232 2128 2231 2327
8 2134 2024 2133 2236 2234 2130 2233 2328
8 2135 2025 2134 2237 2235 2131 2234 2329
8 2137 2028 2136 2238 2237 2134 2236 2330
8 2157 2050 2158 2259 2240 2139 2239 2332
8 2257 2157 2240 2334 2161 2054 2140 2242
8 2240 2139 2241 2335 2140 2033 2141 2243
8 2242 2140 2243 2337 2144 2035 2143 2247
8 2243 2141 2244 2338 2143 2034 2142 2246
8 2246 2142 2245 2341 2146 2036 2145 2249
8 2247 2143 2246 2342 2147 2037 2146 2250
8 2249 2145 2248 2343 2149 2038 2148 2251
8 2250 2146 2249 2344 2150 2039 2149 2252
8 2252 2149 2251 2345 2152 2042 2151 2253
8 2169 2271 2347 2254 2062 2170 2255 2154
8 2189 2085 2188 2285 2255 2154 2254 2347
8 2348 2255 2155 2256 2286 2189 2086 2190
8 2272 2170 2063 2171 2348 2255 2155 2256
8 2349 2258 2157 2257 2263 2164 2054 2161
8 2258 2159 2261 2351 2157 2050 2158 2259
8 2258 2159 2056 2164 2351 2261 2165 2264
8 2262 2163 2060 2167 2355 2264 2168 2269
8 2162 2055 2163 2262 2263 2164 2264 2355
8 2357 2266 2165 2264 2268 2166 2061 2168
8 2268 2166 2076 2182 2361 2267 2181 2280
8 2281 2182 2268 2362 2183 2077 2168 2269
8 2271 2169 2270 2364 2177 2075 2180 2277
8 2172 2070 2170 2272 2273 2177 2271 2365
8 2072 2173 2274 2178 2177 2273 2366 2277
8 2071 2174 2275 2176 2178 2274 2367 2276
8 2275 2176 2276 2367 2184 2083 2186 2282
8 2283 2187 2084 2186 2368 2278 2179 2276
8 2178 2074 2180 2277 2276 2179 2278 2368
8 2283 2187 2279 2370 2186 2084 2181 2280
8 2281 2182 2082 2185 2371 2280 2186 2282
8 2188 2285 2374 2284 2100 2197 2292 2201
8 2286 2189 2095 2193 2375 2285 2197 2289
8 2192 2097 2196 2287 2288 2199 2291 2376
8 2287 2196 2104 2203 2376 2291 2204 2296
8 2194 2098 2199 2288 2290 2198 2293 2377
8 2289 2197 2096 2195 2378 2292 2198 2290
8 2291 2200 2105 2204 2379 2294 2205 2297
8 2199 2102 2200 2291 2293 2202 2294 2379
8 2198 2101 2202 2293 2292 2201 2295 2380
8 2299 2207 2297 2383 2206 2107 2204 2296
8 2300 2208 2298 2384 2207 2108 2205 2297
8 2302 2210 2300 2386 2209 2110 2207 2299
8 2303 2211 2301 2387 2210 2111 2208 2300
8 2305 2213 2303 2389 2212 2113 2210 2302
8 2306 2214 2304 2390 2213 2114 2211 2303
8 2310 2216 2306 2392 2220 2117 2213 2305
8 2308 2215 2307 2393 2216 2115 2214 2306
8 2308 2215 2115 2216 2396 2309 2217 2311
8 2310 2216 2117 2220 2398 2311 2219 2315
8 2311 2217 2116 2219 2399 2312 2218 2314
8 2314 2218 2118 2222 2402 2313 2221 2317
8 2315 2219 2119 2223 2403 2314 2222 2318
8 2225 2121 2224 2320 2317 2221 2316 2405
8 2226 2122 2225 2321 2318 2222 2317 2406
8 2228 2124 2227 2323 2320 2224 2319 2408
8 2229 2125 2228 2324 2321 2225 2320 2409
8 2231 2127 2230 2326 2323 2227 2322 2411
8 2232 2128 2231 2327 2324 2228 2323 2412
8 2234 2130 2233 2328 2326 2230 2325 2413
8 2235 2131 2234 2329 2327 2231 2326 2414
8 2237 2134 2236 2330 2329 2234 2328 2415
8 2259 2158 2260 2352 2332 2239 2331 2417
8 2257 2157 2259 2350 2334 2240 2332 2419
8 2240 2139 2239 2332 2335 2241 2333 2420
8 2334 2240 2335 2422 2242 2140 2243 2337
8 2335 2241 2336 2423 2243 2141 2244 2338
8 2337 2243 2338 2425 2247 2143 2246 2342
8 2338 2244 2339 2426 2246 2142 2245 2341
8 2341 2245 2340 2428 2249 2145 2248 2343
8 2342 2246 2341 2429 2250 2146 2249 2344
8 2344 2249 2343 2430 2252 2149 2251 2345
8 2188 2285 2347 2254 2284 2374 2432 2346
8 2347 2254 2346 2432 2271 2169 2270 2364
8 2365 2271 2170 2272 2433 2347 2255 2348
8 2286 2189 2285 2375 2348 2255 2347 2433
8 2349 2258 2351 2435 2257 2157 2259 2350
8 2349 2258 2164 2263 2435 2351 2264 2355
8 2259 2158 2261 2351 2352 2260 2354 2437
8 2356 2265 2354 2437 2264 2165 2261 2351
8 2441 2357 2264 2355 2362 2268 2168 2269
8 2356 2265 2165 2264 2442 2358 2266 2357
8 2443 2359 2266 2357 2361 2267 2166 2268
8 2370 2279 2360 2446 2280 2181 2267 2361
8 2362 2268 2182 2281 2447 2361 2280 2371
8 2180 2277 2368 2278 2270 2364 2449 2363
8 2271 2365 2273 2177 2364 2450 2366 2277
8 2372 2283 2186 2282 2451 2368 2276 2367
8 2178 2274 2367 2276 2277 2366 2451 2368
8 2283 2187 2278 2368 2370 2279 2369 2452
8 2372 2283 2370 2453 2282 2186 2280 2371
8 2284 2374 2455 2373 2201 2292 2380 2295
8 2375 2285 2197 2289 2456 2374 2292 2378
8 2376 2291 2204 2296 2457 2379 2297 2383
8 2288 2199 2291 2376 2377 2293 2379 2457
8 2198 2290 2378 2292 2293 2377 2458 2380
8 2293 2202 2294 2379 2380 2295 2381 2459
8 2384 2298 2381 2459 2297 2205 2294 2379
8 2386 2300 2384 2463 2299 2207 2297 2383
8 2387 2301 2385 2464 2300 2208 2298 2384
8 2389 2303 2387 2466 2302 2210 2300 2386
8 2390 2304 2388 2467 2303 2211 2301 2387
8 2392 2306 2390 2469 2305 2213 2303 2389
8 2393 2307 2391 2470 2306 2214 2304 2390
8 2395 2308 2393 2472 2310 2216 2306 2392
8 2308 2215 2309 2396 2393 2307 2394 2473
8 2395 2308 2216 2310 2475 2396 2311 2398
8 2396 2309 2217 2311 2476 2397 2312 2399
8 2398 2311 2219 2315 2478 2399 2314 2403
8 2399 2312 2218 2314 2479 2400 2313 2402
8 2317 2221 2316 2405 2402 2313 2401 2482
8 2403 2314 2222 2318 2483 2402 2317 2406
8 2320 2224 2319 2408 2405 2316 2404 2485
8 2321 2225 2320 2409 2406 2317 2405 2486
8 2323 2227 2322 2411 2408 2319 2407 2488
8 2324 2228 2323 2412 2409 2320 2408 2489
8 2326 2230 2325 2413 2411 2322 2410 2490
8 2327 2231 2326 2414 2412 2323 2411 2491
8 2329 2234 2328 2415 2414 2326 2413 2492
8 2417 2331 2260 2352 2494 2416 2353 2438
8 2350 2259 2352 2436 2419 2332 2417 2496
8 2332 2239 2331 2417 2420 2333 2418 2497
8 2334 2240 2332 2419 2422 2335 2420 2499
8 2420 2333 2421 2500 2335 2241 2336 2423
8 2422 2335 2423 2502 2337 2243 2338 2425
8 2423 2336 2424 2503 2338 2244 2339 2426
8 2425 2338 2426 2505 2342 2246 2341 2429
8 2426 2339 2427 2506 2341 2245 2340 2428
8 2429 2341 2428 2507 2344 2249 2343 2430
8 2432 2346 2284 2374 2509 2431 2373 2455
8 2432 2346 2431 2509 2364 2270 2363 2449
8 2375 2285 2374 2456 2433 2347 2432 2510
8 2347 2433 2365 2271 2432 2510 2450 2364
8 2350 2259 2351 2435 2436 2352 2437 2514
8 2440 2356 2437 2514 2355 2264 2351 2435
8 2352 2260 2354 2437 2438 2353 2439 2516
8 2356 2265 2358 2442 2437 2354 2439 2516
8 2440 2356 2264 2355 2518 2442 2357 2441
8 2519 2443 2357 2441 2447 2361 2268 2362
8 2443 2359 2444 2520 2357 2266 2358 2442
8 2443 2359 2267 2361 2520 2444 2360 2446
8 2446 2360 2279 2370 2523 2445 2369 2452
8 2453 2370 2446 2524 2371 2280 2361 2447
8 2449 2363 2448 2525 2368 2278 2369 2452
8 2366 2277 2364 2450 2451 2368 2449 2526
8 2372 2283 2368 2451 2453 2370 2452 2527
8 2455 2373 2295 2380 2529 2454 2382 2460
8 2456 2374 2292 2378 2530 2455 2380 2458
8 2377 2293 2379 2457 2458 2380 2459 2531
8 2463 2384 2459 2531 2383 2297 2379 2457
8 2533 2461 2382 2460 2459 2381 2295 2380
8 2464 2385 2461 2533 2384 2298 2381 2459
8 2466 2387 2464 2537 2386 2300 2384 2463
8 2467 2388 2465 2538 2387 2301 2385 2464
8 2469 2390 2467 2540 2389 2303 2387 2466
8 2470 2391 2468 2541 2390 2304 2388 2467
8 2472 2393 2470 2543 2392 2306 2390 2469
8 2393 2307 2394 2473 2470 2391 2471 2544
8 2395 2308 2396 2475 2472 2393 2473 2546
8 2396 2309 2397 2476 2473 2394 2474 2547
8 2475 2396 2311 2398 2549 2476 2399 2478
8 2476 2397 2312 2399 2550 2477 2400 2479
8 2478 2399 2314 2403 2552 2479 2402 2483
8 2479 2400 2313 2402 2553 2480 2401 2482
8 2405 2316 2404 2485 2482 2401 2481 2556
8 2406 2317 2405 2486 2483 2402 2482 2557
8 2408 2319 2407 2488 2485 2404 2484 2559
8 2409 2320 2408 2489 2486 2405 2485 2560
8 2411 2322 2410 2490 2488 2407 2487 2561
8 2412 2323 2411 2491 2489 2408 2488 2562
8 2414 2326 2413 2492 2491 2411 2490 2563
8 2513 2434 2493 2565 2438 2353 2416 2494
8 2496 2417 2352 2436 2567 2494 2438 2515
8 2494 2416 2495 2568 2417 2331 2418 2497
8 2419 2332 2417 2496 2499 2420 2497 2570
8 2497 2418 2498 2571 2420 2333 2421 2500
8 2499 2420 2500 2573 2422 2335 2423 2502
8 2500 2421 2501 2574 2423 2336 2424 2503
8 2502 2423 2503 2576 2425 2338 2426 2505
8 2503 2424 2504 2577 2426 2339 2427 2506
8 2505 2426 2506 2578 2429 2341 2428 2507
8 2509 2431 2373 2455 2580 2508 2454 2529
8 2509 2431 2508 2580 2449 2363 2448 2525
8 2432 2510 2581 2509 2374 2456 2530 2455
8 2432 2510 2450 2364 2509 2581 2526 2449
8 2583 2511 2434 2513 2516 2439 2353 2438
8 2436 2352 2437 2514 2515 2438 2516 2588
8 2440 2356 2442 2518 2514 2437 2516 2588
8 2442 2358 2444 2520 2516 2439 2517 2589
8 2519 2443 2520 2591 2441 2357 2442 2518
8 2519 2443 2361 2447 2591 2520 2446 2524
8 2446 2360 2445 2523 2520 2444 2521 2592
8 2525 2448 2522 2593 2452 2369 2445 2523
8 2524 2446 2370 2453 2594 2523 2452 2527
8 2526 2449 2525 2595 2451 2368 2452 2527
8 2534 2462 2528 2597 2460 2382 2454 2529
8 2530 2455 2380 2458 2598 2529 2460 2532
8 2599 2533 2460 2532 2531 2459 2380 2458
8 2537 2464 2533 2599 2463 2384 2459 2531
8 2534 2462 2382 2460 2601 2535 2461 2533
8 2538 2465 2535 2601 2464 2385 2461 2533
8 2540 2467 2538 2604 2466 2387 2464 2537
8 2541 2468 2539 2605 2467 2388 2465 2538
8 2543 2470 2541 2607 2469 2390 2467 2540
8 2470 2391 2471 2544 2541 2468 2542 2608
8 2472 2393 2473 2546 2543 2470 2544 2610
8 2473 2394 2474 2547 2544 2471 2545 2611
8 2475 2396 2476 2549 2546 2473 2547 2613
8 2476 2397 2477 2550 2547 2474 2548 2614
8 2549 2476 2399 2478 2616 2550 2479 2552
8 2479 2400 2480 2553 2550 2477 2551 2617
8 2552 2479 2402 2483 2619 2553 2482 2557
8 2482 2401 2481 2556 2553 2480 2554 2620
8 2485 2404 2484 2559 2556 2481 2555 2623
8 2486 2405 2485 2560 2557 2482 2556 2624
8 2488 2407 2487 2561 2559 2484 2558 2625
8 2489 2408 2488 2562 2560 2485 2559 2626
8 2491 2411 2490 2563 2562 2488 2561 2627
8 2513 2434 2512 2585 2565 2493 2564 2630
8 2586 2513 2565 2632 2515 2438 2494 2567
8 2565 2493 2566 2633 2494 2416 2495 2568
8 2567 2494 2568 2635 2496 2417 2497 2570
8 2568 2495 2569 2636 2497 2418 2498 2571
8 2570 2497 2571 2638 2499 2420 2500 2573
8 2571 2498 2572 2639 2500 2421 2501 2574
8 2573 2500 2574 2641 2502 2423 2503 2576
8 2574 2501 2575 2642 2503 2424 2504 2577
8 2576 2503 2577 2643 2505 2426 2506 2578
8 2597 2528 2579 2645 2529 2454 2508 2580
8 2580 2508 2579 2645 2525 2448 2522 2593
8 2581 2509 2455 2530 2646 2580 2529 2598
8 2581 2509 2580 2646 2526 2449 2525 2595
8 2583 2511 2582 2648 2513 2434 2512 2585
8 2583 2511 2439 2516 2648 2582 2517 2589
8 2649 2583 2513 2586 2588 2516 2438 2515
8 2589 2517 2444 2520 2653 2587 2521 2592
8 2518 2442 2520 2591 2588 2516 2589 2654
8 2593 2522 2590 2655 2523 2445 2521 2592
8 2524 2446 2523 2594 2591 2520 2592 2656
8 2595 2525 2593 2657 2527 2452 2523 2594
8 2602 2536 2596 2659 2534 2462 2528 2597
8 2600 2534 2597 2660 2532 2460 2529 2598
8 2600 2534 2460 2532 2661 2601 2533 2599
8 2604 2538 2601 2661 2537 2464 2533 2599
8 2602 2536 2462 2534 2663 2603 2535 2601
8 2601 2535 2465 2538 2663 2603 2539 2605
8 2607 2541 2605 2665 2540 2467 2538 2604
8 2608 2542 2606 2666 2541 2468 2539 2605
8 2543 2470 2544 2610 2607 2541 2608 2668
8 2544 2471 2545 2611 2608 2542 2609 2669
8 2546 2473 2547 2613 2610 2544 2611 2671
8 2547 2474 2548 2614 2611 2545 2612 2672
8 2549 2476 2550 2616 2613 2547 2614 2674
8 2550 2477 2551 2617 2614 2548 2615 2675
8 2552 2479 2553 2619 2616 2550 2617 2677
8 2553 2480 2554 2620 2617 2551 2618 2678
8 2557 2482 2556 2624 2619 2553 2620 2680
8 2556 2481 2555 2623 2620 2554 2621 2681
8 2559 2484 2558 2625 2623 2555 2622 2683
8 2560 2485 2559 2626 2624 2556 2623 2684
8 2562 2488 2561 2627 2626 2559 2625 2685
8 2690 2629 2564 2630 2650 2584 2512 2585
8 2586 2513 2585 2651 2632 2565 2630 2691
8 2630 2564 2631 2692 2565 2493 2566 2633
8 2632 2565 2633 2694 2567 2494 2568 2635
8 2633 2566 2634 2695 2568 2495 2569 2636
8 2635 2568 2636 2697 2570 2497 2571 2638
8 2636 2569 2637 2698 2571 2498 2572 2639
8 2638 2571 2639 2700 2573 2500 2574 2641
8 2639 2572 2640 2701 2574 2501 2575 2642
8 2641 2574 2642 2702 2576 2503 2577 2643
8 2597 2528 2596 2659 2645 2579 2644 2704
8 2645 2579 2644 2704 2593 2522 2590 2655
8 2660 2597 2645 2705 2598 2529 2580 2646
8 2646 2580 2645 2705 2595 2525 2593 2657
8 2650 2584 2512 2585 2707 2647 2582 2648
8 2648 2582 2517 2589 2707 2647 2587 2653
8 2649 2583 2648 2708 2586 2513 2585 2651
8 2649 2583 2516 2588 2708 2648 2589 2654
8 2655 2590 2652 2710 2592 2521 2587 2653
8 2654 2589 2520 2591 2711 2653 2592 2656
8 2657 2593 2655 2712 2594 2523 2592 2656
8 2602 2536 2603 2663 2659 2596 2658 2714
8 2662 2602 2659 2715 2600 2534 2597 2660
8 2662 2602 2534 2600 2717 2663 2601 2661
8 2661 2601 2538 2604 2717 2663 2605 2665
8 2666 2606 2664 2718 2605 2539 2603 2663
8 2668 2608 2666 2720 2607 2541 2605 2665
8 2608 2542 2609 2669 2666 2606 2667 2721
8 2610 2544 2611 2671 2668 2608 2669 2723
8 2611 2545 2612 2672 2669 2609 2670 2724
8 2613 2547 2614 2674 2671 2611 2672 2726
8 2614 2548 2615 2675 2672 2612 2673 2727
8 2616 2550 2617 2677 2674 2614 2675 2729
8 2617 2551 2618 2678 2675 2615 2676 2730
8 2619 2553 2620 2680 2677 2617 2678 2732
8 2620 2554 2621 2681 2678 2618 2679 2733
8 2624 2556 2623 2684 2680 2620 2681 2735
8 2681 2621 2555 2623 2736 2682 2622 2683
8 2626 2559 2625 2685 2684 2623 2683 2737
8 2688 2628 2584 2650 2740 2686 2647 2707
8 2688 2628 2687 2742 2650 2584 2629 2690
8 2690 2629 2689 2745 2630 2564 2631 2692
8 2746 2690 2630 2691 2709 2650 2585 2651
8 2691 2630 2692 2747 2632 2565 2633 2694
8 2692 2631 2693 2748 2633 2566 2634 2695
8 2694 2633 2695 2750 2635 2568 2636 2697
8 2695 2634 2696 2751 2636 2569 2637 2698
8 2697 2636 2698 2753 2638 2571 2639 2700
8 2698 2637 2699 2754 2639 2572 2640 2701
8 2700 2639 2701 2755 2641 2574 2642 2702
8 2659 2596 2658 2714 2704 2644 2703 2757
8 2704 2644 2703 2757 2655 2590 2652 2710
8 2660 2597 2659 2715 2705 2645 2704 2758
8 2705 2645 2704 2758 2657 2593 2655 2712
8 2759 2706 2647 2707 2710 2652 2587 2653
8 2709 2650 2585 2651 2760 2707 2648 2708
8 2708 2648 2589 2654 2760 2707 2653 2711
8 2712 2655 2710 2761 2656 2592 2653 2711
8 2763 2713 2658 2714 2718 2664 2603 2663
8 2662 2602 2663 2717 2715 2659 2714 2764
8 2720 2666 2718 2767 2665 2605 2663 2717
8 2768 2719 2664 2718 2721 2667 2606 2666
8 2668 2608 2669 2723 2720 2666 2721 2770
8 2669 2609 2670 2724 2721 2667 2722 2771
8 2671 2611 2672 2726 2723 2669 2724 2773
8 2672 2612 2673 2727 2724 2670 2725 2774
8 2674 2614 2675 2729 2726 2672 2727 2776
8 2675 2615 2676 2730 2727 2673 2728 2777
8 2677 2617 2678 2732 2729 2675 2730 2779
8 2678 2618 2679 2733 2730 2676 2731 2780
8 2680 2620 2681 2735 2732 2678 2733 2782
8 2733 2679 2621 2681 2783 2734 2682 2736
8 2735 2681 2623 2684 2784 2736 2683 2737
8 2740 2686 2647 2707 2787 2738 2706 2759
8 2688 2628 2686 2740 2742 2687 2739 2789
8 2743 2688 2650 2709 2790 2740 2707 2760
8 2742 2687 2741 2792 2690 2629 2689 2745
8 2743 2688 2742 2793 2709 2650 2690 2746
8 2745 2689 2744 2795 2692 2631 2693 2748
8 2746 2690 2745 2796 2691 2630 2692 2747
8 2747 2692 2748 2797 2694 2633 2695 2750
8 2748 2693 2749 2798 2695 2634 2696 2751
8 2750 2695 2751 2800 2697 2636 2698 2753
8 2751 2696 2752 2801 2698 2637 2699 2754
8 2753 2698 2754 2802 2700 2639 2701 2755
8 2763 2713 2756 2804 2714 2658 2703 2757
8 2759 2706 2652 2710 2804 2756 2703 2757
8 2715 2659 2714 2764 2758 2704 2757 2805
8 2758 2704 2757 2805 2712 2655 2710 2761
8 2806 2759 2707 2760 2761 2710 2653 2711
8 2765 2716 2762 2808 2718 2664 2713 2763
8 2809 2763 2714 2764 2767 2718 2663 2717
8 2765 2716 2664 2718 2811 2766 2719 2768
8 2813 2768 2718 2767 2770 2721 2666 2720
8 2814 2769 2719 2768 2771 2722 2667 2721
8 2723 2669 2724 2773 2770 2721 2771 2816
8 2724 2670 2725 2774 2771 2722 2772 2817
8 2726 2672 2727 2776 2773 2724 2774 2819
8 2727 2673 2728 2777 2774 2725 2775 2820
8 2729 2675 2730 2779 2776 2727 2777 2822
8 2730 2676 2731 2780 2777 2728 2778 2823
8 2732 2678 2733 2782 2779 2730 2780 2825
8 2780 2731 2679 2733 2826 2781 2734 2783
8 2782 2733 2681 2735 2827 2783 2736 2784
8 2830 2785 2738 2787 2804 2756 2706 2759
8 2789 2739 2686 2740 2832 2786 2738 2787
8 2790 2740 2707 2760 2833 2787 2759 2806
8 2742 2687 2739 2789 2792 2741 2788 2835
8 2743 2688 2740 2790 2793 2742 2789 2836
8 2792 2741 2791 2838 2745 2689 2744 2795
8 2793 2742 2792 2839 2746 2690 2745 2796
8 2795 2744 2794 2841 2748 2693 2749 2798
8 2796 2745 2795 2842 2747 2692 2748 2797
8 2797 2748 2798 2843 2750 2695 2751 2800
8 2798 2749 2799 2844 2751 2696 2752 2801
8 2800 2751 2801 2845 2753 2698 2754 2802
8 2808 2762 2803 2847 2763 2713 2756 2804
8 2809 2763 2804 2848 2764 2714 2757 2805
8 2806 2759 2710 2761 2848 2804 2757 2805
8 2765 2716 2766 2811 2808 2762 2807 2850
8 2810 2765 2808 2851 2767 2718 2763 2809
8 2810 2765 2718 2767 2852 2811 2768 2813
8 2811 2766 2719 2768 2853 2812 2769 2814
8 2855 2814 2768 2813 2816 2771 2721 2770
8 2856 2815 2769 2814 2817 2772 2722 2771
8 2773 2724 2774 2819 2816 2771 2817 2858
8 2774 2725 2775 2820 2817 2772 2818 2859
8 2776 2727 2777 2822 2819 2774 2820 2861
8 2777 2728 2778 2823 2820 2775 2821 2862
8 2779 2730 2780 2825 2822 2777 2823 2864
8 2823 2778 2731 2780 2865 2824 2781 2826
8 2825 2780 2733 2782 2866 2826 2783 2827
8 2869 2828 2785 2830 2847 2803 2756 2804
8 2871 2829 2786 2832 2830 2785 2738 2787
8 2872 2830 2787 2833 2848 2804 2759 2806
8 2789 2739 2786 2832 2835 2788 2831 2874
8 2836 2789 2740 2790 2875 2832 2787 2833
8 2792 2741 2788 2835 2838 2791 2834 2877
8 2793 2742 2789 2836 2839 2792 2835 2878
8 2838 2791 2837 2880 2795 2744 2794 2841
8 2839 2792 2838 2881 2796 2745 2795 2842
8 2841 2794 2840 2882 2798 2749 2799 2844
8 2842 2795 2841 2883 2797 2748 2798 2843
8 2843 2798 2844 2884 2800 2751 2801 2845
8 2886 2846 2803 2847 2850 2807 2762 2808
8 2851 2808 2847 2887 2809 2763 2804 2848
8 2850 2807 2766 2811 2889 2849 2812 2853
8 2810 2765 2811 2852 2851 2808 2850 2890
8 2852 2811 2768 2813 2891 2853 2814 2855
8 2853 2812 2769 2814 2892 2854 2815 2856
8 2894 2856 2814 2855 2858 2817 2771 2816
8 2817 2772 2818 2859 2856 2815 2857 2895
8 2819 2774 2820 2861 2858 2817 2859 2897
8 2820 2775 2821 2862 2859 2818 2860 2898
8 2822 2777 2823 2864 2861 2820 2862 2900
8 2823 2778 2824 2865 2862 2821 2863 2901
8 2864 2823 2780 2825 2902 2865 2826 2866
8 2904 2867 2828 2869 2886 2846 2803 2847
8 2869 2828 2868 2906 2830 2785 2829 2871
8 2907 2869 2830 2872 2887 2847 2804 2848
8 2871 2829 2870 2909 2832 2786 2831 2874
8 2910 2871 2832 2875 2872 2830 2787 2833
8 2835 2788 2831 2874 2877 2834 2873 2912
8 2836 2789 2832 2875 2878 2835 2874 2913
8 2877 2834 2876 2915 2838 2791 2837 2880
8 2839 2792 2835 2878 2881 2838 2877 2916
8 2880 2837 2879 2917 2841 2794 2840 2882
8 2881 2838 2880 2918 2842 2795 2841 2883
8 2883 2841 2882 2919 2843 2798 2844 2884
8 2921 2885 2846 2886 2889 2849 2807 2850
8 2922 2886 2847 2887 2890 2850 2808 2851
8 2889 2849 2812 2853 2924 2888 2854 2892
8 2890 2850 2811 2852 2925 2889 2853 2891
8 2891 2853 2814 2855 2926 2892 2856 2894
8 2892 2854 2815 2856 2927 2893 2857 2895
8 2858 2817 2859 2897 2894 2856 2895 2929
8 2859 2818 2860 2898 2895 2857 2896 2930
8 2861 2820 2862 2900 2897 2859 2898 2932
8 2862 2821 2863 2901 2898 2860 2899 2933
8 2864 2823 2865 2902 2900 2862 2901 2934
8 2904 2867 2846 2886 2936 2903 2885 2921
8 2904 2867 2903 2936 2869 2828 2868 2906
8 2937 2904 2869 2907 2922 2886 2847 2887
8 2906 2868 2905 2939 2871 2829 2870 2909
8 2907 2869 2906 2940 2872 2830 2871 2910
8 2909 2870 2908 2942 2874 2831 2873 2912
8 2910 2871 2909 2943 2875 2832 2874 2913
8 2912 2873 2911 2945 2877 2834 2876 2915
8 2878 2835 2874 2913 2916 2877 2912 2946
8 2915 2876 2914 2947 2880 2837 2879 2917
8 2916 2877 2915 2948 2881 2838 2880 2918
8 2918 2880 2917 2949 2883 2841 2882 2919
8 2921 2885 2849 2889 2951 2920 2888 2924
8 2952 2921 2886 2922 2925 2889 2850 2890
8 2924 2888 2854 2892 2954 2923 2893 2927
8 2925 2889 2853 2891 2955 2924 2892 2926
8 2926 2892 2856 2894 2956 2927 2895 2929
8 2895 2857 2896 2930 2927 2893 2928 2957
8 2897 2859 2898 2932 2929 2895 2930 2959
8 2898 2860 2899 2933 2930 2896 2931 2960
8 2900 2862 2901 2934 2932 2898 2933 2961
8 2936 2903 2885 2921 2963 2935 2920 2951
8 2936 2903 2935 2963 2906 2868 2905 2939
8 2937 2904 2886 2922 2964 2936 2921 2952
8 2937 2904 2936 2964 2907 2869 2906 2940
8 2939 2905 2938 2966 2909 2870 2908 2942
8 2940 2906 2939 2967 2910 2871 2909 2943
8 2942 2908 2941 2969 2912 2873 2911 2945
8 2943 2909 2942 2970 2913 2874 2912 2946
8 2945 2911 2944 2971 2915 2876 2914 2947
8 2946 2912 2945 2972 2916 2877 2915 2948
8 2948 2915 2947 2973 2918 2880 2917 2949
8 2951 2920 2888 2924 2975 2950 2923 2954
8 2952 2921 2889 2925 2976 2951 2924 2955
8 2927 2893 2928 2957 2954 2923 2953 2978
8 2955 2924 2892 2926 2979 2954 2927 2956
8 2929 2895 2930 2959 2956 2927 2957 2980
8 2930 2896 2931 2960 2957 2928 2958 2981
8 2932 2898 2933 2961 2959 2930 2960 2982
8 2951 2920 2950 2975 2963 2935 2962 2984
8 2963 2935 2962 2984 2939 2905 2938 2966
8 2964 2936 2921 2952 2985 2963 2951 2976
8 2964 2936 2963 2985 2940 2906 2939 2967
8 2966 2938 2965 2987 2942 2908 2941 2969
8 2967 2939 2966 2988 2943 2909 2942 2970
8 2969 2941 2968 2989 2945 2911 2944 2971
8 2970 2942 2969 2990 2946 2912 2945 2972
8 2972 2945 2971 2991 2948 2915 2947 2973
8 2954 2923 2953 2978 2975 2950 2974 2993
8 2976 2951 2924 2955 2994 2975 2954 2979
8 2957 2928 2958 2981 2978 2953 2977 2995
8 2956 2927 2957 2980 2979 2954 2978 2996
8 2959 2930 2960 2982 2980 2957 2981 2997
8 2984 2962 2983 2999 2966 2938 2965 2987
8 2975 2950 2974 2993 2984 2962 2983 2999
8 2976 2951 2975 2994 2985 2963 2984 3000
8 2985 2963 2984 3000 2967 2939 2966 2988
8 2987 2965 2986 3001 2969 2941 2968 2989
8 2988 2966 2987 3002 2970 2942 2969 2990
8 2990 2969 2989 3003 2972 2945 2971 2991
8 2978 2953 2977 2995 2993 2974 2992 3004
8 2979 2954 2978 2996 2994 2975 2993 3005
8 2980 2957 2981 2997 2996 2978 2995 3006
8 2974 2993 2999 2983 2992 3004 3007 2998
8 2983 2999 2987 2965 2998 3007 3001 2986
8 3000 2984 2999 3008 2988 2966 2987 3002
8 2994 2975 2993 3005 3000 2984 2999 3008
8 3002 2987 3001 3009 2990 2969 2989 3003
8 2996 2978 2995 3006 3005 2993 3004 3010
8 3005 2993 3004 3010 3008 2999 3007 3011
8 3008 2999 3007 3011 3002 2987 3001 3009

CELL_TYPES 1910
12
12
12
12
12
12
12
12
12
12
12
12
12
12
12
12
12
12
12
12
12
12
12
12
12
12
12
12
12
12
12
12
12
12
12
12
12
12
12
12
12
12
12
12
12
12
12
12
12
12
12
12
12
12
12
12
12
12
12
12
12
12
12
12
12
12
12
12
12
12
12
12
12
12
12
12
12
12
12
12
12
12
12
12
12
12
12
12
12
12
12
12
12
12
12
12
12
12
12
12
12
12
12
12
12
12
12
12
12
12
12
12
12
12
12
12
12
12
12
12
12
12
12
12
12
12
12
12
12
12
12
12
12
12
12
12
12
12
12
12
12
12
12
12
12
12
12
12
12
12
12
12
12
12
12
12
12
12
12
12
12
12
12
12
12
12
12
12
12
12
12
12
12
12
12
12
12
12
12
12
12
12
12
12
12
12
12
12
12
12
12
12
12
12
12
12
12
12
12
12
12
12
12
12
12
12
12
12
12
12
12
12
12
12
12
12
12
12
12
12
12
12
12
12
12
12
12
12
12
12
12
12
12
12
12
12
12
12
12
12
12
12
12
12
12
12
12
12
12
12
12
12
12
12
12
12
12
12
12
12
12
12
12
12
12
12
12
12
12
12
12
12
12
12
12
12
12
12
12
12
12
12
12
12
12
12
12
12
12
12
12
12
12
12
12
12
12
12
12
12
12
12
12
12
12
12
12
12
12
12
12
12
12
12
12
12
12
12
12
12
12
12
12
12
12
12
12
12
12
12
12
12
12
12
12
12
12
12
12
12
12
12
12
12
12
12
12
12
12
12
12
12
12
12
12
12
12
12
12
12
12
12
12
12
12
12
12
12
12
12
12
12
12
12
12
12
12
12
12
12
12
12
12
12
12
12
12
12
12
12
12
12
12
12
12
12
12
12
12
12
12
12
12
12
12
12
12
12
12
12
12
12
12
12
12
12
12
12
12
12
12
12
12
12
12
12
12
12
12
12
12
12
12
12
12
12
12
12
12
12
12
12
12
12
12
12
12
12
12
12
12
12
12
12
12
12
12
12
12
12
12
12
12
12
12
12
12
12
12
12
12
12
12
12
12
12
12
12
12
12
12
12
12
12
12
12
12
12
12
12
12
12
12
12
12
12
12
12
12
12
12
12
12
12
12
12
12
12
12
12
12
12
12
12
12
12
12
12
12
12
12
12
12
12
12
12
12
12
12
12
12
12
12
12
12
12
12
12
12
12
12
12
12
12
12
12
12
12
12
12
12
12
12
12
12
12
12
12
12
12
12
12
12
12
12
12
12
12
12
12
12
12
12
12
12
12
12
12
12
12
12
12
12
12
12
12
12
12
12
12
12
12
12
12
12
12
12
12
12
12
12
12
12
12
12
12
12
12
12
12
12
12
12
12
12
12
12
12
12
12
12
12
12
12
12
12
12
12
12
12
12
12
12
12
12
12
12
12
12
12
12
12
12
12
12
12
12
12
12
12
12
12
12
12
12
12
12
12
12
12
12
12
12
12
12
12
12
12
12
12
12
12
12
12
12
12
12
12
12
12
12
12
12
12
12
12
12
12
12
12
12
12
12
12
12
12
12
12
12
12
12
12
12
12
12
12
12
12
12
12
12
12
12
12
12
12
12
12
12
12
12
12
12
12
12
12
12
12
12
12
12
12
12
12
12
12
12
12
12
12
12
12
12
12
12
12
12
12
12
12
12
12
12
12
12
12
12
12
12
12
12
12
12
12
12
12
12
12
12
12
12
12
12
12
12
12
12
12
12
12
12
12
12
12
12
12
12
12
12
12
12
12
12
12
12
12
12
12
12
12
12
12
12
12
12
12
12
12
12
12
12
12
12
12
12
12
12
12
12
12
12
12
12
12
12
12
12
12
12
12
12
12
12
12
12
12
12
12
12
12
12
12
12
12
12
12
12
12
12
12
12
12
12
12
12
12
12
12
12
12
12
12
12
12
12
12
12
12
12
12
12
12
12
12
12
12
12
12
12
12
12
12
12
12
12
12
12
12
12
12
12
12
12
12
12
12
12
12
12
12
12
12
12
12
12
12
12
12
12
12
12
12
12
12
12
12
12
12
12
12
12
12
12
12
12
12
12
12
12
12
12
12
12
12
12
12
12
12
12
12
12
12
12
12
12
12
12
12
12
12
12
12
12
12
12
12
12
12
12
12
12
12
12
12
12
12
12
12
12
12
12
12
12
12
12
12
12
12
12
12
12
12
12
12
12
12
12
12
12
12
12
12
12
12
12
12
12
12
12
12
12
12
12
12
12
12
12
12
12
12
12
12
12
12
12
12
12
12
12
12
12
12
12
12
12
12
12
12
12
12
12
12
12
12
12
12
12
12
12
12
12
12
12
12
12
12
12
12
12
12
12
12
12
12
12
12
12
12
12
12
12
12
12
12
12
12
12
12
12
12
12
12
12
12
12
12
12
12
12
12
12
12
12
12
12
12
12
12
12
12
12
12
12
12
12
12
12
12
12
12
12
12
12
12
12
12
12
12
12
12
12
12
12
12
12
12
12
12
12
12
12
12
12
12
12
12
12
12
12
12
12
12
12
12
12
12
12
12
12
12
12
12
12
12
12
12
12
12
12
12
12
12
12
12
12
12
12
12
12
12
12
12
12
12
12
12
12
12
12
12
12
12
12
12
12
12
12
12
12
12
12
12
12
12
12
12
12
12
12
12
12
12
12
12
12
12
12
12
12
12
12
12
12
12
12
12
12
12
12
12
12
12
12
12
12
12
12
12
12
12
12
12
12
12
12
12
12
12
12
12
12
12
12
12
12
12
12
12
12
12
12
12
12
12
12
12
12
12
12
12
12
12
12
12
12
12
12
12
12
12
12
12
12
12
12
12
12
12
12
12
12
12
12
12
12
12
12
12
12
12
12
12
12
12
12
12
12
12
12
12
12
12
12
12
12
12
12
12
12
12
12
12
12
12
12
12
12
12
12
12
12
12
12
12
12
12
12
12
12
12
12
12
12
12
12
12
12
12
12
12
12
12
12
12
12
12
12
12
12
12
12
12
12
12
12
12
12
12
12
12
12
12
12
12
12
12
12
12
12
12
12
12
12
12
12
12
12
12
12
12
12
12
12
12
12
12
12
12
12
12
12
12
12
12
12
12
12
12
12
12
12
12
12
12
12
12
12
12
12
12
12
12
12
12
12
12
12
12
12
12
12
12
12
12
12
12
12
12
12
12
12
12
12
12
12
12
12
12
12
12
12
12
12
12
12
12
12
12
12
12
12
12
12
12
12
12
12
12
12
12
12
12
12
12
12
12
12
12
12
12
12
12
12
12
12
12
12
12
12
12
12
12
12
12
12
12
12
12
12
12
12
12
12
12
12
12
12
12
12
12
12
12
12
12
12
12
12
12
12
12
12
12
12
12
12
12
12
12
12
12
12
12
12
12
12
12
12
12
12
12
12
12
12
12
12
12
12
12
12
12
12
12
12
12
12
12
12
12
12
12
12
12
12
12
12
12
12
12
12
12
12
12
12
12
12
12
12
12
12
12
12
12
12
12
12
12
12
12
12
12
12
12
12
12
12
12
12
12
12
12
12
12
12
12
12
12
12
12
12
12
12
12
12
12
12
12
12
12
12
12
12
12
12
12
12
12
12
12
12
12
12
12
12
12
12
12
12
12
12
12
12
12
12
12
12
12
12
12
12
12
12
12
12
12
12
12
12
12
12
12
12
12
12
12
12
12
12
12
12
12
12
12
12
12
12
12
12
12
12
12
12
12
12
12
12
12
12
12
12
12
12
12
12
12
12
12
12
12
12
12
12
12
12
12
12
12
12
12
12
12
12
12
12
12
12
12
12
12
12
12
12
12
12
12
12
12
12
12
12
12
12
12
12
12
12
12
12
12
12
12
12
12
12
12
12
12
12
12
12
12
12
12
12
12
12
12
12
12
12
12
12
12
12
12
12
12
12
12
12
12
12
12
12
12
12
12
12
12
12
12
12
12
12
12
12
12
12
12
12
12
12
12
12
12
12
12
12
12
12
12
12
12
12
12
12
12
12
12
12
12
12
12
12
12
12
12
12
12
12
12
12
12
12
12
12
12
12
12
12
12
12
12
12
12
12
12
12
12
12
12
12
12
12
12
12
12
12
12
12
12
12
12
12
12
12
12
12
12
12
12
12
12
12
12
12
12
12
12
12
12
12
12
12
12
12
12
12
12
12
12
12
12
12
12
12
12
12
12
12
12
12
12
12
12
12
12
12
12
12
12
12
12
12
12
12
12
12
12
12
12
12
12
12
12
12
12
12
12
12
12
12
12
12
12
12
12
12
12
12
12

POINT_DATA 3012
SCALARS Jp_lamdaP float 4
LOOKUP_TABLE default
1 1 1 1
1 1 1 1
1 1 1 1
1 1 1 1
1 1 1 1
1 1 1 1
1 1 1 1
1 1 1 1
1 1 1 1
1 1 1 1
1 1 1 1
1 1 1 1
1 1 1 1
1 1 1 1
1 1 1 1
1 1 1 1
1 1 1 1
1 1 1 1
1 1 1 1
1 1 1 1
1 1 1 1
1 1 1 1
0.999999 1 1 0.999999
1 1 1 1
1 1 1 1
1 1 1 1
0.999999 1 1 0.999999
1 1 1 1
1 1 1 1
1 1 1 1
1 1 1 1
1 1 1 1
1 1 1 1
1 1 1 1
1 1 1 1
1 1 1 1
1 1 1 1
1 1 1 1
1 1 1 1
1 1 1 1
1 1 1 1
1 1 1 1
1 1 1 1
1 1 1 1
1 1 1 1
1 1 1 1
1 1 1 1
1 1 1 1
1 1 1 1
1 1 1 1
1 1 1 1
1 1 1 1
1 1 1 1
1 1 1 1
1 1 1 1
0.999999 1 1 0.999999
1 1 1 1
1 1 1 1
0.999999 1 1 0.999999
1 1 1 1
1 1 1 1
1 1 1 1
0.999999 1 1 0.999999
1 1 1 1
0.999995 1 1 0.999995
0.999997 1 1 0.999997
1 1 1 1
1 1 1 1
1 1 1 1
0.999992 1 1 0.999992
1 1 1 1
1 1 1 1
1 1 1 1
1 1 1 1
1 1 1 1
1 1 1 1
1 1 1 1
1 1 1 1
1 1 1 1
1 1 1 1
1 1 1 1
1 1 1 1
1 1 1 1
1 1 1 1
1 1 1 1
0.999997 1 1 0.999997
1 1 1 1
1 1 1 1
1 1 1 1
0.999996 1 1 0.999996
1 1 1 1
1 1 1 1
1 1 1 1
1 1 1 1
1 1 1 1
1 1 1 1
1 1 1 1
1 1 1 1
1 1 1 1
1 1 1 1
1 1 1 1
1 1 1 1
0.999994 1 1 0.999994
1 1 1 1
0.999994 1 1 0.999994
1 1 1 1
1 1 1 1
1 1 1 1
1 1 1 1
0.999999 1 1 0.999999
1 1 1 1
1 1 1 1
0.999999 1 1 0.999999
1 1 1 1
1 1 1 1
0.999999 1 1 0.999999
0.999999 1 1 0.999999
1 1 1 1
1 1 1 1
1 1 1 1
0.999995 1 1 0.999995
1 1 1 1
0.999998 1 1 0.999998
0.999992 1 1 0.999992
1 1 1 1
0.999998 1 1 0.999998
0.999994 1 1 0.999994
0.999993 1 1 0.999993
0.999996 1 1 0.999996
0.999988 1 1 0.999988
1 1 1 1
0.99999 1 1 0.99999
1 1 1 1
1 1 1 1
0.999993 1 1 0.999993
0.999987 1 1 0.999987
1 1 1 1
1 1 1 1
1 1 1 1
1 1 1 1
1 1 1 1
1 1 1 1
1 1 1 1
1 1 1 1
1 1 1 1
1 1 1 1
1 1 1 1
1 1 1 1
1 1 1 1
0.999997 1 1 0.999997
1 1 1 1
1 1 1 1
1 1 1 1
0.999996 1 1 0.999996
1 1 1 1
1 1 1 1
1 1 1 1
0.999996 1 1 0.999996
0.999998 1 1 0.999998
0.999989 1 1 0.999989
1 1 1 1
0.999993 1 1 0.999993
0.999997 1 1 0.999997
0.999992 1 1 0.999992
1 1 1 1
1 1 1 1
1 1 1 1
1 1 1 1
1 1 1 1
1 1 1 1
1 1 1 1
1 1 1 1
1 1 1 1
1 1 1 1
1 1 1 1
1 1 1 1
1 1 1 1
0.999994 1 1 0.999994
1 1 1 1
0.999994 1 1 0.999994
1 1 1 1
0.999996 1 1 0.999996
0.999993 1 1 0.999993
0.999989 1 1 0.999989
0.999995 1 1 0.999995
0.999988 1 1 0.999988
1 1 1 1
1 1 1 1
0.999999 1 1 0.999999
0.999999 1 1 0.999999
1 1 1 1
1 1 1 1
1 1 1 1
0.999994 1 1 0.999994
0.999998 1 1 0.999998
1 1 1 1
0.999992 1 1 0.999992
1 1 1 1
0.999998 1 1 0.999998
0.999993 1 1 0.999993
0.999993 1 1 0.999993
1 1 1 1
1 1 1 1
1 1 1 1
0.999996 1 1 0.999996
0.999987 1 1 0.999987
0.999993 1 1 0.999993
0.999991 1 1 0.999991
0.999987 1 1 0.999987
1 1 1 1
1 1 1 1
0.999995 1 1 0.999995
0.999993 1 1 0.999993
0.999988 1 1 0.999988
0.999985 1 1 0.999985
0.999989 1 1 0.999989
0.999984 1 1 0.999984
1 1 1 1
0.999986 1 1 0.999986
1 1 1 1
0.999994 1 1 0.999994
0.999989 1 1 0.999989
0.999986 1 1 0.999986
1 1 1 1
1 1 1 1
0.999998 1 1 0.999998
1 1 1 1
1 1 1 1
1 1 1 1
1 1 1 1
0.999997 1 1 0.999997
1 1 1 1
1 1 1 1
1 1 1 1
0.999995 1 1 0.999995
1 1 1 1
1 1 1 1
1 1 1 1
0.999996 1 1 0.999996
0.999999 1 1 0.999999
0.999989 1 1 0.999989
1 1 1 1
0.999993 1 1 0.999993
0.999997 1 1 0.999997
0.999991 1 1 0.999991
1 1 1 1
1 1 1 1
1 1 1 1
0.999999 1 1 0.999999
0.999988 1 1 0.999988
0.999991 1 1 0.999991
0.999985 1 1 0.999985
0.999998 1 1 0.999998
0.999989 1 1 0.999989
0.999991 1 1 0.999991
0.999988 1 1 0.999988
1 1 1 1
1 1 1 1
1 1 1 1
1 1 1 1
1 1 1 1
1 1 1 1
1 1 1 1
1 1 1 1
1 1 1 1
1 1 1 1
1 1 1 1
0.999994 1 1 0.999994
0.999994 1 1 0.999994
1 1 1 1
1 1 1 1
1 1 1 1
0.999996 1 1 0.999996
0.999993 1 1 0.999993
0.999989 1 1 0.999989
0.999995 1 1 0.999995
0.999988 1 1 0.999988
0.999996 1 1 0.999996
0.999991 1 1 0.999991
0.999988 1 1 0.999988
0.999987 1 1 0.999987
0.999988 1 1 0.999988
0.999986 1 1 0.999986
1 1 1 1
0.999998 1 1 0.999998
0.999992 1 1 0.999992
0.999994 1 1 0.999994
1 1 1 1
1 1 1 1
1 1 1 1
0.999996 1 1 0.999996
0.999986 1 1 0.999986
0.999991 1 1 0.999991
0.999993 1 1 0.999993
0.999987 1 1 0.999987
1 1 1 1
1 1 1 1
0.999994 1 1 0.999994
0.999993 1 1 0.999993
0.999988 1 1 0.999988
0.999986 1 1 0.999986
1 1 1 1
1 1 1 1
0.999994 1 1 0.999994
0.99999 1 1 0.99999
0.999984 1 1 0.999984
0.999988 1 1 0.999988
0.999986 1 1 0.999986
0.999986 1 1 0.999986
1 1 1 1
0.999998 1 1 0.999998
1 1 1 1
0.999991 1 1 0.999991
0.999987 1 1 0.999987
0.999986 1 1 0.999986
0.999983 1 1 0.999983
0.999985 1 1 0.999985
0.999983 1 1 0.999983
1 1 1 1
0.999985 1 1 0.999985
0.999996 1 1 0.999996
0.999989 1 1 0.999989
0.999986 1 1 0.999986
0.999986 1 1 0.999986
1 1 1 1
0.999998 1 1 0.999998
0.999997 1 1 0.999997
0.999993 1 1 0.999993
0.999995 1 1 0.999995
1 1 1 1
1 1 1 1
1 1 1 1
0.999999 1 1 0.999999
0.999989 1 1 0.999989
1 1 1 1
0.999997 1 1 0.999997
0.999994 1 1 0.999994
0.999991 1 1 0.999991
1 1 1 1
1 1 1 1
1 1 1 1
0.999999 1 1 0.999999
0.999988 1 1 0.999988
0.999991 1 1 0.999991
0.999985 1 1 0.999985
0.999998 1 1 0.999998
0.999989 1 1 0.999989
0.999991 1 1 0.999991
0.999989 1 1 0.999989
1 1 1 1
1 1 1 1
0.999998 1 1 0.999998
0.999999 1 1 0.999999
0.999993 1 1 0.999993
0.999986 1 1 0.999986
0.999987 1 1 0.999987
0.999985 1 1 0.999985
0.999992 1 1 0.999992
0.999987 1 1 0.999987
0.999987 1 1 0.999987
1 1 1 1
0.999999 1 1 0.999999
1 1 1 1
1 1 1 1
1 1 1 1
1 1 1 1
1 1 1 1
1 1 1 1
1 1 1 1
1 1 1 1
1 1 1 1
1 1 1 1
1 1 1 1
1 1 1 1
1 1 1 1
0.999994 1 1 0.999994
0.999993 1 1 0.999993
0.999988 1 1 0.999988
0.999989 1 1 0.999989
0.999996 1 1 0.999996
1 1 1 1
0.999996 1 1 0.999996
0.999991 1 1 0.999991
0.999988 1 1 0.999988
0.999987 1 1 0.999987
0.999988 1 1 0.999988
0.999986 1 1 0.999986
0.999992 1 1 0.999992
0.999989 1 1 0.999989
0.999986 1 1 0.999986
0.999986 1 1 0.999986
0.999986 1 1 0.999986
0.999986 1 1 0.999986
0.999994 1 1 0.999994
0.999993 1 1 0.999993
0.999988 1 1 0.999988
0.999987 1 1 0.999987
1 1 1 1
1 1 1 1
0.999995 1 1 0.999995
0.99999 1 1 0.99999
0.999984 1 1 0.999984
0.999986 1 1 0.999986
0.999988 1 1 0.999988
0.999986 1 1 0.999986
1 1 1 1
0.999997 1 1 0.999997
1 1 1 1
0.99999 1 1 0.99999
0.999987 1 1 0.999987
0.999986 1 1 0.999986
0.999983 1 1 0.999983
1 1 1 1
0.999996 1 1 0.999996
0.999989 1 1 0.999989
0.999986 1 1 0.999986
0.999983 1 1 0.999983
0.999986 1 1 0.999986
0.999985 1 1 0.999985
0.999987 1 1 0.999987
0.999998 1 1 0.999998
0.999993 1 1 0.999993
1 1 1 1
0.999997 1 1 0.999997
0.999988 1 1 0.999988
0.999984 1 1 0.999984
0.999984 1 1 0.999984
0.999982 1 1 0.999982
0.999985 1 1 0.999985
0.999983 1 1 0.999983
0.999997 1 1 0.999997
0.999986 1 1 0.999986
0.99999 1 1 0.99999
0.999986 1 1 0.999986
0.999986 1 1 0.999986
0.999988 1 1 0.999988
1 1 1 1
0.999997 1 1 0.999997
0.999992 1 1 0.999992
0.999993 1 1 0.999993
0.99999 1 1 0.99999
1 1 1 1
0.999988 1 1 0.999988
1 1 1 1
1 1 1 1
0.999999 1 1 0.999999
0.999991 1 1 0.999991
0.999985 1 1 0.999985
0.999998 1 1 0.999998
0.999991 1 1 0.999991
0.99999 1 1 0.99999
0.999989 1 1 0.999989
1 1 1 1
1 1 1 1
0.999998 1 1 0.999998
0.999999 1 1 0.999999
0.999993 1 1 0.999993
0.999986 1 1 0.999986
0.999987 1 1 0.999987
0.999985 1 1 0.999985
0.999992 1 1 0.999992
0.999987 1 1 0.999987
0.999987 1 1 0.999987
1 1 1 1
0.999999 1 1 0.999999
0.999992 1 1 0.999992
0.999994 1 1 0.999994
0.99999 1 1 0.99999
0.999986 1 1 0.999986
0.999985 1 1 0.999985
0.999987 1 1 0.999987
0.999988 1 1 0.999988
0.999985 1 1 0.999985
1 1 1 1
0.999998 1 1 0.999998
0.999998 1 1 0.999998
0.999994 1 1 0.999994
0.999999 1 1 0.999999
1 1 1 1
1 1 1 1
1 1 1 1
1 1 1 1
1 1 1 1
1 1 1 1
1 1 1 1
1 1 1 1
1 1 1 1
1 1 1 1
1 1 1 1
1 1 1 1
1 1 1 1
1 1 1 1
1 1 1 1
0.999988 1 1 0.999988
0.999988 1 1 0.999988
0.999986 1 1 0.999986
0.999987 1 1 0.999987
0.999991 1 1 0.999991
0.999996 1 1 0.999996
0.999992 1 1 0.999992
0.99999 1 1 0.99999
0.999986 1 1 0.999986
0.999986 1 1 0.999986
0.999986 1 1 0.999986
0.999986 1 1 0.999986
0.99999 1 1 0.99999
0.999989 1 1 0.999989
0.999985 1 1 0.999985
0.999984 1 1 0.999984
0.999987 1 1 0.999987
0.999985 1 1 0.999985
0.99999 1 1 0.99999
0.999986 1 1 0.999986
0.999985 1 1 0.999985
0.999983 1 1 0.999983
1 1 1 1
0.999996 1 1 0.999996
0.99999 1 1 0.99999
0.999986 1 1 0.999986
0.999983 1 1 0.999983
0.999985 1 1 0.999985
0.999986 1 1 0.999986
0.999987 1 1 0.999987
0.999998 1 1 0.999998
0.999992 1 1 0.999992
1 1 1 1
0.999997 1 1 0.999997
0.999988 1 1 0.999988
0.999984 1 1 0.999984
0.999984 1 1 0.999984
0.999982 1 1 0.999982
0.999997 1 1 0.999997
0.999991 1 1 0.999991
0.999986 1 1 0.999986
0.999985 1 1 0.999985
0.999983 1 1 0.999983
0.999986 1 1 0.999986
0.999986 1 1 0.999986
0.999988 1 1 0.999988
0.999992 1 1 0.999992
0.999989 1 1 0.999989
0.999993 1 1 0.999993
1 1 1 1
0.999997 1 1 0.999997
0.999987 1 1 0.999987
0.999983 1 1 0.999983
0.999982 1 1 0.999982
0.999985 1 1 0.999985
0.999992 1 1 0.999992
0.999989 1 1 0.999989
0.999987 1 1 0.999987
0.999984 1 1 0.999984
0.999986 1 1 0.999986
1 1 1 1
0.999997 1 1 0.999997
0.999992 1 1 0.999992
0.999989 1 1 0.999989
0.999989 1 1 0.999989
0.999987 1 1 0.999987
1 1 1 1
1 1 1 1
0.999986 1 1 0.999986
0.999999 1 1 0.999999
0.999998 1 1 0.999998
0.999993 1 1 0.999993
0.999987 1 1 0.999987
0.999984 1 1 0.999984
0.999992 1 1 0.999992
0.999987 1 1 0.999987
0.999987 1 1 0.999987
1 1 1 1
0.999999 1 1 0.999999
0.999993 1 1 0.999993
0.999993 1 1 0.999993
0.99999 1 1 0.99999
0.999986 1 1 0.999986
0.999985 1 1 0.999985
0.999988 1 1 0.999988
0.999987 1 1 0.999987
0.999984 1 1 0.999984
0.999999 1 1 0.999999
0.999993 1 1 0.999993
0.999989 1 1 0.999989
0.999989 1 1 0.999989
0.999988 1 1 0.999988
0.99999 1 1 0.99999
0.999985 1 1 0.999985
0.999988 1 1 0.999988
0.999985 1 1 0.999985
0.999983 1 1 0.999983
1 1 1 1
0.999998 1 1 0.999998
0.999993 1 1 0.999993
0.999998 1 1 0.999998
0.999999 1 1 0.999999
0.999993 1 1 0.999993
0.99999 1 1 0.99999
0.999993 1 1 0.999993
0.999999 1 1 0.999999
1 1 1 1
1 1 1 1
1 1 1 1
1 1 1 1
1 1 1 1
1 1 1 1
1 1 1 1
1 1 1 1
1 1 1 1
1 1 1 1
1 1 1 1
1 1 1 1
1 1 1 1
1 1 1 1
1 1 1 1
0.999986 1 1 0.999986
0.999986 1 1 0.999986
0.999986 1 1 0.999986
0.999985 1 1 0.999985
0.99999 1 1 0.99999
0.999992 1 1 0.999992
0.99999 1 1 0.99999
0.999989 1 1 0.999989
0.999985 1 1 0.999985
0.999983 1 1 0.999983
0.999987 1 1 0.999987
0.999985 1 1 0.999985
0.999991 1 1 0.999991
0.999987 1 1 0.999987
0.999982 1 1 0.999982
0.999989 1 1 0.999989
0.999988 1 1 0.999988
0.999984 1 1 0.999984
0.999983 1 1 0.999983
0.999982 1 1 0.999982
0.999997 1 1 0.999997
0.999991 1 1 0.999991
0.999986 1 1 0.999986
0.999985 1 1 0.999985
0.999983 1 1 0.999983
0.999986 1 1 0.999986
0.999986 1 1 0.999986
0.999988 1 1 0.999988
0.999992 1 1 0.999992
0.999989 1 1 0.999989
0.999993 1 1 0.999993
1 1 1 1
0.999997 1 1 0.999997
0.999986 1 1 0.999986
0.999983 1 1 0.999983
0.999982 1 1 0.999982
0.999992 1 1 0.999992
0.999987 1 1 0.999987
0.999984 1 1 0.999984
0.999984 1 1 0.999984
0.999986 1 1 0.999986
0.999989 1 1 0.999989
1 1 1 1
0.999989 1 1 0.999989
0.999987 1 1 0.999987
0.999989 1 1 0.999989
0.999993 1 1 0.999993
0.999997 1 1 0.999997
0.999986 1 1 0.999986
0.999982 1 1 0.999982
0.999983 1 1 0.999983
0.999987 1 1 0.999987
0.999988 1 1 0.999988
0.999988 1 1 0.999988
0.999984 1 1 0.999984
0.999984 1 1 0.999984
1 1 1 1
0.999997 1 1 0.999997
0.999993 1 1 0.999993
0.999988 1 1 0.999988
0.999986 1 1 0.999986
0.999986 1 1 0.999986
1 1 1 1
0.999999 1 1 0.999999
0.999986 1 1 0.999986
0.999993 1 1 0.999993
0.999993 1 1 0.999993
0.999989 1 1 0.999989
0.999985 1 1 0.999985
0.999988 1 1 0.999988
0.999987 1 1 0.999987
0.999984 1 1 0.999984
0.999999 1 1 0.999999
0.999993 1 1 0.999993
0.999989 1 1 0.999989
0.99999 1 1 0.99999
0.999988 1 1 0.999988
0.99999 1 1 0.99999
0.999985 1 1 0.999985
0.999989 1 1 0.999989
0.999985 1 1 0.999985
0.999982 1 1 0.999982
0.999993 1 1 0.999993
0.999989 1 1 0.999989
0.999986 1 1 0.999986
0.999987 1 1 0.999987
0.99999 1 1 0.99999
0.999991 1 1 0.999991
0.999984 1 1 0.999984
0.999982 1 1 0.999982
0.999999 1 1 0.999999
0.999993 1 1 0.999993
0.99999 1 1 0.99999
0.999999 1 1 0.999999
0.999993 1 1 0.999993
0.999999 1 1 0.999999
0.999989 1 1 0.999989
0.999993 1 1 0.999993
0.999987 1 1 0.999987
0.999989 1 1 0.999989
0.999993 1 1 0.999993
0.999998 1 1 0.999998
1 1 1 1
1 1 1 1
1 1 1 1
1 1 1 1
1 1 1 1
1 1 1 1
1 1 1 1
1 1 1 1
1 1 1 1
1 1 1 1
1 1 1 1
1 1 1 1
1 1 1 1
1 1 1 1
1 1 1 1
0.999987 1 1 0.999987
0.999985 1 1 0.999985
0.999984 1 1 0.999984
0.999982 1 1 0.999982
0.999989 1 1 0.999989
0.999991 1 1 0.999991
0.99999 1 1 0.99999
0.999987 1 1 0.999987
0.999983 1 1 0.999983
0.999988 1 1 0.999988
0.999989 1 1 0.999989
0.999985 1 1 0.999985
0.999986 1 1 0.999986
0.999986 1 1 0.999986
0.999983 1 1 0.999983
0.999982 1 1 0.999982
0.999992 1 1 0.999992
0.999988 1 1 0.999988
0.999984 1 1 0.999984
0.999984 1 1 0.999984
0.999989 1 1 0.999989
0.999987 1 1 0.999987
0.999989 1 1 0.999989
0.999988 1 1 0.999988
0.999989 1 1 0.999989
1 1 1 1
0.999993 1 1 0.999993
0.999997 1 1 0.999997
0.999987 1 1 0.999987
0.999982 1 1 0.999982
0.999983 1 1 0.999983
0.999988 1 1 0.999988
0.999985 1 1 0.999985
0.999984 1 1 0.999984
0.999988 1 1 0.999988
0.999988 1 1 0.999988
1 1 1 1
0.999997 1 1 0.999997
0.999986 1 1 0.999986
0.999986 1 1 0.999986
0.999988 1 1 0.999988
0.999993 1 1 0.999993
0.999987 1 1 0.999987
0.99998 1 1 0.99998
0.999987 1 1 0.999987
0.99999 1 1 0.99999
0.999985 1 1 0.999985
0.999985 1 1 0.999985
0.999983 1 1 0.999983
1 1 1 1
0.999998 1 1 0.999998
0.999997 1 1 0.999997
0.999992 1 1 0.999992
0.999988 1 1 0.999988
0.999985 1 1 0.999985
0.999985 1 1 0.999985
0.999984 1 1 0.999984
0.999999 1 1 0.999999
0.999993 1 1 0.999993
0.99999 1 1 0.99999
0.99999 1 1 0.99999
0.999989 1 1 0.999989
0.999988 1 1 0.999988
0.999985 1 1 0.999985
0.99999 1 1 0.99999
0.999985 1 1 0.999985
0.999981 1 1 0.999981
0.999993 1 1 0.999993
0.999989 1 1 0.999989
0.999986 1 1 0.999986
0.999987 1 1 0.999987
0.99999 1 1 0.99999
0.999991 1 1 0.999991
0.999984 1 1 0.999984
0.999982 1 1 0.999982
0.999989 1 1 0.999989
0.999989 1 1 0.999989
0.999987 1 1 0.999987
0.999984 1 1 0.999984
0.999993 1 1 0.999993
0.999985 1 1 0.999985
0.999981 1 1 0.999981
0.999994 1 1 0.999994
0.99999 1 1 0.99999
0.999987 1 1 0.999987
0.999999 1 1 0.999999
0.999993 1 1 0.999993
0.999989 1 1 0.999989
0.999998 1 1 0.999998
0.999993 1 1 0.999993
0.999987 1 1 0.999987
0.999989 1 1 0.999989
0.999986 1 1 0.999986
0.999986 1 1 0.999986
0.999989 1 1 0.999989
0.999993 1 1 0.999993
0.999998 1 1 0.999998
1 1 1 1
1 1 1 1
1 1 1 1
1 1 1 1
1 1 1 1
1 1 1 1
1 1 1 1
1 1 1 1
1 1 1 1
1 1 1 1
1 1 1 1
1 1 1 1
1 1 1 1
1 1 1 1
1 1 1 1
1 1 1 1
0.999988 1 1 0.999988
0.999984 1 1 0.999984
0.999987 1 1 0.999987
0.99999 1 1 0.99999
0.99999 1 1 0.99999
0.999985 1 1 0.999985
0.999987 1 1 0.999987
0.999988 1 1 0.999988
0.999986 1 1 0.999986
0.999993 1 1 0.999993
0.999987 1 1 0.999987
0.999981 1 1 0.999981
0.999983 1 1 0.999983
0.999988 1 1 0.999988
0.999985 1 1 0.999985
0.999984 1 1 0.999984
0.999988 1 1 0.999988
0.999988 1 1 0.999988
0.999987 1 1 0.999987
0.999986 1 1 0.999986
0.999988 1 1 0.999988
1 1 1 1
0.999997 1 1 0.999997
0.999993 1 1 0.999993
0.999986 1 1 0.999986
1 1 1 1
0.999998 1 1 0.999998
0.99998 1 1 0.99998
0.999987 1 1 0.999987
0.999985 1 1 0.999985
0.999983 1 1 0.999983
0.999985 1 1 0.999985
0.99999 1 1 0.99999
0.999998 1 1 0.999998
0.999992 1 1 0.999992
0.999985 1 1 0.999985
0.999984 1 1 0.999984
0.999985 1 1 0.999985
0.999988 1 1 0.999988
0.99998 1 1 0.99998
0.999982 1 1 0.999982
0.999993 1 1 0.999993
0.999988 1 1 0.999988
0.999984 1 1 0.999984
0.999983 1 1 0.999983
0.999998 1 1 0.999998
0.999998 1 1 0.999998
0.999994 1 1 0.999994
0.999991 1 1 0.999991
0.999988 1 1 0.999988
0.999984 1 1 0.999984
0.999983 1 1 0.999983
0.999984 1 1 0.999984
0.999993 1 1 0.999993
0.99999 1 1 0.99999
0.999989 1 1 0.999989
0.999991 1 1 0.999991
0.999987 1 1 0.999987
0.999987 1 1 0.999987
0.999984 1 1 0.999984
0.999982 1 1 0.999982
0.999989 1 1 0.999989
0.999991 1 1 0.999991
0.999986 1 1 0.999986
0.999984 1 1 0.999984
0.999993 1 1 0.999993
0.999985 1 1 0.999985
0.999981 1 1 0.999981
0.999986 1 1 0.999986
0.999995 1 1 0.999995
0.999984 1 1 0.999984
0.999981 1 1 0.999981
0.999985 1 1 0.999985
0.999979 1 1 0.999979
0.999613 1 0.999638 0.999975
0.99999 1 1 0.99999
0.999987 1 1 0.999987
0.999985 1 1 0.999985
0.999998 1 1 0.999998
0.999993 1 1 0.999993
0.99999 1 1 0.99999
0.999987 1 1 0.999987
0.999998 1 1 0.999998
0.999992 1 1 0.999992
0.999986 1 1 0.999986
0.999989 1 1 0.999989
0.999987 1 1 0.999987
0.999985 1 1 0.999985
0.999987 1 1 0.999987
0.999989 1 1 0.999989
0.999992 1 1 0.999992
0.999997 1 1 0.999997
0.999993 1 1 0.999993
0.999997 1 1 0.999997
1 1 1 1
1 1 1 1
1 1 1 1
1 1 1 1
1 1 1 1
1 1 1 1
1 1 1 1
1 1 1 1
1 1 1 1
1 1 1 1
1 1 1 1
1 1 1 1
1 1 1 1
1 1 1 1
1 1 1 1
1 1 1 1
1 1 1 1
0.999988 1 1 0.999988
0.999985 1 1 0.999985
0.99999 1 1 0.99999
0.999988 1 1 0.999988
0.999986 1 1 0.999986
0.999996 1 1 0.999996
0.999987 1 1 0.999987
0.999999 1 1 0.999999
1 1 1 1
0.999999 1 1 0.999999
0.999985 1 1 0.999985
0.999981 1 1 0.999981
0.999986 1 1 0.999986
0.999986 1 1 0.999986
0.999983 1 1 0.999983
0.999985 1 1 0.999985
0.99999 1 1 0.99999
0.999985 1 1 0.999985
0.999984 1 1 0.999984
0.999985 1 1 0.999985
1 1 1 1
0.999988 1 1 0.999988
0.999998 1 1 0.999998
0.999992 1 1 0.999992
0.999998 1 1 0.999998
0.999979 1 1 0.999979
0.999998 1 1 0.999998
0.999998 1 1 0.999998
0.999993 1 1 0.999993
0.999982 1 1 0.999982
0.999992 1 1 0.999992
0.999984 1 1 0.999984
0.999983 1 1 0.999983
0.999988 1 1 0.999988
0.999991 1 1 0.999991
0.999988 1 1 0.999988
0.999984 1 1 0.999984
0.999983 1 1 0.999983
0.999984 1 1 0.999984
1.00002 1 1.00004 0.999975
0.99999 1 1 0.99999
0.999991 1 1 0.999991
0.999984 1 1 0.999984
0.999983 1 1 0.999983
0.999992 1 1 0.999992
0.999991 1 1 0.999991
0.999989 1 1 0.999989
0.999986 1 1 0.999986
0.999985 1 1 0.999985
0.999981 1 1 0.999981
0.999982 1 1 0.999982
0.999989 1 1 0.999989
0.999986 1 1 0.999986
0.999993 1 1 0.999993
0.999993 1 1 0.999993
0.999985 1 1 0.999985
0.999984 1 1 0.999984
0.999981 1 1 0.999981
0.999987 1 1 0.999987
0.999996 1 1 0.999996
0.999984 1 1 0.999984
0.999981 1 1 0.999981
0.999986 1 1 0.999986
0.999979 1 1 0.999979
0.999753 1.00002 0.999753 0.999975
0.999984 1 1 0.999984
0.999982 1 1 0.999982
0.999982 1 1 0.999982
0.999977 1 1 0.999977
0.999973 1 1 0.999973
0.984701 0.985078 0.999654 0.999964
0.999856 1.00026 0.999634 0.999964
0.99958 1 0.999618 0.999962
0.986427 0.987071 0.999338 1.00001
0.998603 0.999945 0.998657 1
0.999987 1 1 0.999987
0.999985 1 1 0.999985
0.999984 1 1 0.999984
0.999998 1 1 0.999998
0.999992 1 1 0.999992
0.999989 1 1 0.999989
0.999987 1 1 0.999987
0.999986 1 1 0.999986
0.999989 1 1 0.999989
0.999997 1 1 0.999997
0.999992 1 1 0.999992
0.999985 1 1 0.999985
0.999987 1 1 0.999987
0.999987 1 1 0.999987
0.999984 1 1 0.999984
0.999988 1 1 0.999988
0.999991 1 1 0.999991
0.999997 1 1 0.999997
0.999992 1 1 0.999992
0.999989 1 1 0.999989
0.999993 1 1 0.999993
0.999993 1 1 0.999993
0.999998 1 1 0.999998
0.999997 1 1 0.999997
1 1 1 1
1 1 1 1
1 1 1 1
1 1 1 1
1 1 1 1
1 1 1 1
1 1 1 1
1 1 1 1
1 1 1 1
1 1 1 1
1 1 1 1
1 1 1 1
1 1 1 1
1 1 1 1
1 1 1 1
1 1 1 1
1 1 1 1
1 1 1 1
0.999986 1 1 0.999986
0.999989 1 1 0.999989
0.999999 1 1 0.999999
0.999999 1 1 0.999999
0.999987 1 1 0.999987
0.999998 1 1 0.999998
1.00002 1 1.00004 0.999984
0.999976 1 1 0.999976
1 1 1 1
1 1 1 1
0.999999 1 1 0.999999
0.999994 1 1 0.999994
0.999995 1 1 0.999995
0.999978 1 1 0.999978
0.999982 1 1 0.999982
0.999991 1 1 0.999991
0.999984 1 1 0.999984
0.999983 1 1 0.999983
0.999988 1 1 0.999988
0.999984 1 1 0.999984
0.999984 1 1 0.999984
0.999985 1 1 0.999985
0.999998 1 1 0.999998
0.999988 1 1 0.999988
0.999992 1 1 0.999992
0.999999 1 1 0.999999
0.999992 1 1 0.999992
1.00001 1 1.00003 0.999975
0.999993 1 1 0.999993
0.999992 1 1 0.999992
0.99999 1 1 0.99999
0.99999 1 1 0.99999
0.999991 1 1 0.999991
0.999983 1 1 0.999983
0.999984 1 1 0.999984
0.999987 1 1 0.999987
0.999985 1 1 0.999985
0.999982 1 1 0.999982
0.999982 1 1 0.999982
1.00001 1 1.00003 0.999982
0.999995 1 1 0.999995
0.999985 1 1 0.999985
0.999982 1 1 0.999982
0.999988 1 1 0.999988
0.999987 1 1 0.999987
0.999981 1 1 0.999981
0.999979 1 1 0.999979
0.982851 0.984721 0.998123 0.999978
0.999987 1 1 0.999987
0.999984 1 1 0.999984
0.999997 1 1 0.999997
0.999987 1 1 0.999987
0.999978 1 1 0.999978
0.999981 1 1 0.999981
0.999943 1.00008 0.999883 0.999975
0.999984 1 1 0.999984
0.999982 1 1 0.999982
0.999982 1 1 0.999982
0.999977 1 1 0.999977
0.999975 1 1 0.999975
0.984752 0.985762 0.99901 0.999966
0.999646 1.00016 0.99954 0.999949
0.999763 1.00004 0.999761 0.99996
0.986367 0.987087 0.999268 1
0.999283 0.999945 0.999337 1
0.999984 1 1 0.999984
0.984778 0.985323 0.999445 1
0.999254 0.999871 0.999382 1
0.999968 1 1 0.999968
0.99998 1 1 0.99998
0.99997 1 1 0.99997
1.00085 1 1.0009 0.999952
0.985973 0.986036 1.00001 0.999929
1.00123 1.00031 1.00098 0.999933
0.988145 0.990331 0.997787 1.00001
0.999987 0.999978 1.00001 1
0.999985 1 1 0.999985
0.999984 1 1 0.999984
0.999983 1 1 0.999983
0.999998 1 1 0.999998
0.999992 1 1 0.999992
0.999989 1 1 0.999989
0.999986 1 1 0.999986
0.999985 1 1 0.999985
0.999997 1 1 0.999997
0.999987 1 1 0.999987
0.999988 1 1 0.999988
0.999992 1 1 0.999992
0.999984 1 1 0.999984
0.999985 1 1 0.999985
0.999983 1 1 0.999983
0.999987 1 1 0.999987
0.999992 1 1 0.999992
0.999992 1 1 0.999992
0.999989 1 1 0.999989
0.999988 1 1 0.999988
0.999989 1 1 0.999989
0.999987 1 1 0.999987
0.999988 1 1 0.999988
0.999993 1 1 0.999993
0.999993 1 1 0.999993
0.999998 1 1 0.999998
0.999992 1 1 0.999992
0.999998 1 1 0.999998
1 1 1 1
0.999997 1 1 0.999997
1 1 1 1
1 1 1 1
1 1 1 1
1 1 1 1
1 1 1 1
1 1 1 1
1 1 1 1
1 1 1 1
0.999999 1 1 0.999999
1 1 1 1
1 1 1 1
1 1 1 1
1 1 1 1
1 1 1 1
1 1 1 1
1 1 1 1
1 1 1 1
1 1 1 1
0.999999 1 1 0.999999
0.999987 1 1 0.999987
0.999997 1 1 0.999997
0.999986 1 1 0.999986
1 1 1 1
1.00002 1 1.00003 0.999983
1.00003 1 1.00005 0.99998
0.999981 1 1 0.999981
0.9829 0.983342 0.999597 0.999953
0.984898 0.986457 0.998427 0.999993
0.998383 0.999979 0.998403 1
0.999994 1 1 0.999994
1 1 1 1
0.999999 1 1 0.999999
0.999994 1 1 0.999994
0.99999 1 1 0.99999
0.999991 1 1 0.999991
0.999995 1 1 0.999995
0.999995 1 1 0.999995
1 1 1.00003 0.999976
0.99999 1 1 0.99999
0.999991 1 1 0.999991
0.999983 1 1 0.999983
0.999984 1 1 0.999984
0.999982 1 1 0.999982
0.999982 1 1 0.999982
0.999985 1 1 0.999985
0.999992 1 1 0.999992
0.999987 1 1 0.999987
0.999994 1 1 0.999994
0.99999 1 1 0.99999
1.00002 1 1.00004 0.999982
0.999988 1 1 0.999988
0.999987 1 1 0.999987
0.999995 1 1 0.999995
0.999985 1 1 0.999985
0.999981 1 1 0.999981
0.999982 1 1 0.999982
0.999979 1 1 0.999979
0.99999 1 1 0.99999
0.999986 1 1 0.999986
0.999979 1 1 0.999979
0.999976 1 1 0.999976
0.999983 1 1 0.999983
0.999982 1 1 0.999982
0.999978 1 1 0.999978
0.982953 0.986601 0.996283 1.00002
0.983127 0.984148 0.998987 0.999976
0.999985 1 1 0.999985
0.999982 1 1 0.999982
0.999983 1 1 0.999983
0.999976 1 1 0.999976
0.999977 1 1 0.999977
0.984645 0.985033 0.999654 0.999952
0.999283 1 0.999316 0.999967
0.999896 1.00005 0.999889 0.999958
0.984782 0.986339 0.998431 0.99999
0.999873 0.999947 0.999926 1
0.999984 1 1 0.999984
0.984968 0.987196 0.997727 1.00002
0.999468 0.999876 0.999591 1
0.999968 1 1 0.999968
0.99998 1 1 0.99998
0.99997 1 1 0.99997
1.00076 1 1.00081 0.999952
0.985668 0.985735 1.00001 0.999918
1.0004 1.00013 1.00032 0.999954
0.988037 0.989702 0.998337 0.99998
0.999919 0.999967 0.999952 1
0.999983 1 1 0.999983
0.999826 0.999843 0.999983 1
1.00006 0.999987 1.00007 1
1.00043 1 1.00046 0.999963
0.999977 1 1 0.999977
1.00183 1 1.00187 0.999963
1.00366 1 1.00371 0.999952
0.990218 0.989375 1.00094 0.999912
0.993108 0.996018 0.997103 0.999975
0.999941 0.999939 1 1
0.999984 1 1 0.999984
0.999983 1 1 0.999983
0.999982 1 1 0.999982
0.999997 1 1 0.999997
0.999992 1 1 0.999992
0.999989 1 1 0.999989
0.999987 1 1 0.999987
0.999984 1 1 0.999984
0.999992 1 1 0.999992
0.999986 1 1 0.999986
0.999987 1 1 0.999987
0.999983 1 1 0.999983
0.999982 1 1 0.999982
0.999984 1 1 0.999984
0.999988 1 1 0.999988
0.999992 1 1 0.999992
0.999989 1 1 0.999989
0.999988 1 1 0.999988
0.999989 1 1 0.999989
0.999987 1 1 0.999987
0.999989 1 1 0.999989
0.999986 1 1 0.999986
0.999986 1 1 0.999986
0.999986 1 1 0.999986
0.999988 1 1 0.999988
0.999989 1 1 0.999989
0.999988 1 1 0.999988
0.999992 1 1 0.999992
0.999993 1 1 0.999993
0.999998 1 1 0.999998
0.999993 1 1 0.999993
0.999998 1 1 0.999998
1 1 1 1
0.999997 1 1 0.999997
1 1 1 1
1 1 1 1
1 1 1 1
1 1 1 1
1 1 1 1
1 1 1 1
1 1 1 1
1 1 1 1
0.999999 1 1 0.999999
1 1 1 1
0.999999 1 1 0.999999
1 1 1 1
1 1 1 1
1 1 1 1
1 1 1 1
1 1 1 1
1 1 1 1
1 1 1 1
1 1 1 1
0.983963 0.98633 0.997583 1.00002
0.999988 0.999949 1.00004 1
0.999987 1 1 0.999987
1 1 1 1
1.00001 1 1.00003 0.999981
0.999996 1 1 0.999995
1.00002 1 1.00004 0.99998
0.983111 0.984175 0.998953 0.999966
0.986252 0.987375 0.998851 1.00001
0.999171 0.999963 0.999207 1
0.999991 1 1.00001 0.999976
0.985951 0.985253 1.00077 0.999938
0.988165 0.99019 0.997949 1.00001
0.999453 1.00021 0.999242 1
0.999989 1 1 0.999989
0.999994 1 1 0.999994
0.999999 1 1 0.999999
0.999994 1 1 0.999994
0.999991 1 1 0.999991
0.99999 1 1 0.99999
0.999992 1 1 0.999992
0.999993 1 1 0.999993
0.999994 1 1 0.999994
0.999995 1 1 0.999995
1.00002 1 1.00004 0.999982
0.999994 1 1 0.999994
0.999985 1 1 0.999985
0.999981 1 1 0.999981
0.999979 1 1 0.999979
0.999982 1 1 0.999982
0.999988 1 1 0.999988
0.999988 1 1 0.999988
0.99999 1 1 0.99999
0.999983 1 1 0.999983
0.999982 1 1 0.999982
0.999987 1 1 0.999987
0.999978 1 1 0.999978
0.999977 1 1 0.999977
0.999977 1 1 0.999977
0.999983 1 1 0.999983
0.999973 1 1 0.999973
0.999973 1 1 0.999973
0.999983 1 1 0.999983
0.999981 1 1 0.999981
0.999978 1 1 0.999978
0.999433 0.999906 0.999526 1
0.982811 0.985063 0.997707 1.00001
0.983589 0.985419 0.998167 0.999976
0.999984 1 1 0.999984
0.99998 1 1 0.99998
0.999968 1 1 0.999968
0.999971 1 1 0.999971
0.983449 0.986256 0.997152 1
0.986134 0.986177 1 0.999955
0.999681 1 0.999747 0.999934
1.0007 1 1.00075 0.999952
0.989391 0.990399 0.998978 1
0.999112 0.99988 0.999231 1
0.999398 1.00016 0.999237 1
0.999983 1 1 0.999983
0.999604 0.999893 0.99971 1
1.00005 0.999974 1.00007 1
1.00043 1 1.00047 0.999962
0.999977 1 1 0.999977
1.00161 1 1.00165 0.999958
1.00387 1 1.00393 0.999935
0.988664 0.988084 1.00068 0.999905
0.99533 0.996574 0.99875 1
0.999876 1.0001 0.999777 1
0.999981 1 1 0.999981
0.999996 0.999996 1 1
0.999963 0.999944 1.00002 1
1.00055 1 1.00057 0.999977
1.00647 1 1.00651 0.999963
0.996391 0.993494 1.003 0.999913
0.991106 1.00023 0.99088 0.999998
0.999925 0.999989 0.999937 1
0.999983 1 1 0.999983
0.999982 1 1 0.999982
0.99998 1 1 0.99998
0.999992 1 1 0.999992
0.999987 1 1 0.999987
0.999986 1 1 0.999986
0.999982 1 1 0.999982
0.999988 1 1 0.999988
0.999984 1 1 0.999984
0.999981 1 1 0.999981
0.999981 1 1 0.999981
0.999982 1 1 0.999982
0.999985 1 1 0.999985
0.999988 1 1 0.999988
0.999989 1 1 0.999989
0.999987 1 1 0.999987
0.999986 1 1 0.999986
0.999989 1 1 0.999989
0.999986 1 1 0.999986
0.999986 1 1 0.999986
0.999985 1 1 0.999985
0.999985 1 1 0.999985
0.999986 1 1 0.999986
0.999986 1 1 0.999986
0.999986 1 1 0.999986
0.999991 1 1 0.999991
0.999988 1 1 0.999988
0.999989 1 1 0.999989
0.999992 1 1 0.999992
0.999988 1 1 0.999988
0.999992 1 1 0.999992
0.999998 1 1 0.999998
0.999993 1 1 0.999993
0.999998 1 1 0.999998
1 1 1 1
0.999998 1 1 0.999998
1 1 1 1
1 1 1 1
1 1 1 1
1 1 1 1
1 1 1 1
1 1 1 1
1 1 1 1
1 1 1 1
0.999998 1 1 0.999998
1 1 1 1
0.999999 1 1 0.999999
1 1 1 1
1 1 1 1
1 1 1 1
1 1 1 1
1 1 1 1
1 1 1 1
1 1 1 1
1 1 1 1
1 1 1 1
0.999908 0.999923 0.999985 1
0.983025 0.985108 0.997875 1.00001
1.00008 0.999978 1.0001 1
0.999911 0.999941 0.99997 1
0.999988 1 1 0.999984
1.00002 1 1.00004 0.999981
0.984097 0.984522 0.999586 0.999982
0.984562 0.986105 0.998443 0.999992
0.999877 0.999942 0.999935 1
0.999988 1 1.00001 0.999976
0.986636 0.986234 1.00048 0.999933
0.987921 0.989458 0.998466 0.999981
0.999516 0.999943 0.999573 1
1.00097 1 1.00101 0.999963
0.992769 0.989585 1.00331 0.999905
0.995422 0.996162 0.999255 1
0.999884 0.999861 1.00002 1
0.999986 1 1 0.999986
0.999989 1 1 0.999989
0.999995 1 1 0.999995
0.999991 1 1 0.999991
0.999988 1 1 0.999988
0.999991 1 1 0.999991
0.999992 1 1 0.999992
0.999993 1 1 0.999993
0.999994 1 1 0.999994
0.999994 1 1 0.999994
0.99999 1 1 0.99999
0.999989 1 1 0.999989
0.999977 1 1 0.999977
0.999977 1 1 0.999977
0.999977 1 1 0.999977
0.999982 1 1 0.999982
0.999983 1 1 0.999983
0.999983 1 1 0.999983
0.999983 1 1 0.999983
0.999981 1 1 0.999981
0.999978 1 1 0.999978
0.999974 1 1 0.999974
0.999973 1 1 0.999973
0.99997 1 1 0.99997
0.999968 1 1 0.999968
0.999973 1 1 0.999973
0.999981 1 1 0.999981
0.999978 1 1 0.999978
0.999993 0.999993 1 1
0.999706 0.999909 0.999797 1
0.983361 0.986601 0.996698 1.00002
0.999983 1 1 0.999983
0.999977 1 1 0.999977
1.00042 1 1.00045 0.999961
0.999925 0.999937 0.999988 1
0.990464 0.989658 1.00091 0.999905
1.00364 1 1.00369 0.999952
1.00136 1 1.00141 0.999953
0.992768 0.994461 0.998319 0.999979
1.00004 0.999965 1.00007 1
0.999907 1.00008 0.999828 1
0.999982 1 1 0.999982
1.00003 1.00003 1 1
0.999959 0.999947 1.00001 1
1.00065 1 1.00068 0.999974
1.00688 1 1.00692 0.999963
0.997618 0.995151 1.00257 0.999911
0.999943 0.999959 0.999985 1
0.994143 0.99946 0.994691 0.99999
0.999979 1 1 0.999979
1.00001 1.00001 1 1
0.99998 0.999969 1.00001 1
0.999912 0.999858 1.00005 1
1.00325 1 1.00327 0.999979
1.00914 0.998075 1.01115 0.999933
0.985885 1.00033 0.985566 0.999996
0.999982 1 1 0.999982
0.99998 1 1 0.99998
0.99998 1 1 0.99998
0.999988 1 1 0.999988
0.999984 1 1 0.999984
0.999981 1 1 0.999981
0.999985 1 1 0.999985
0.999982 1 1 0.999982
0.999981 1 1 0.999981
0.999982 1 1 0.999982
0.999983 1 1 0.999983
0.999986 1 1 0.999986
0.999989 1 1 0.999989
0.999986 1 1 0.999986
0.999985 1 1 0.999985
0.999985 1 1 0.999985
0.999984 1 1 0.999984
0.999985 1 1 0.999985
0.999982 1 1 0.999982
0.999986 1 1 0.999986
0.999986 1 1 0.999986
0.999983 1 1 0.999983
0.999986 1 1 0.999986
0.99999 1 1 0.99999
0.999986 1 1 0.999986
0.999994 1 1 0.999994
0.99999 1 1 0.99999
0.999989 1 1 0.999989
0.99999 1 1 0.99999
0.999993 1 1 0.999993
0.999998 1 1 0.999998
0.999992 1 1 0.999992
0.999998 1 1 0.999998
1 1 1 1
0.999998 1 1 0.999998
1 1 1 1
1 1 1 1
1 1 1 1
1 1 1 1
1 1 1 1
1 1 1 1
1 1 1 1
1 1 1 1
0.999997 1 1 0.999997
1 1 1 1
0.999998 1 1 0.999998
1 1 1 1
1 1 1 1
0.999998 1 1 0.999998
1 1 1 1
1 1 1 1
1 1 1 1
1 1 1 1
1 1 1 1
1 1 1 1
0.999952 0.999949 1 1
0.999346 0.999916 0.999428 1
0.983695 0.98444 0.999237 1.00001
0.999992 1 1 0.999992
1.00005 1.00006 0.999998 1
1.00005 0.999979 1.00007 1
0.999159 0.999932 0.999225 1
0.99997 1 1 0.99997
0.986542 0.985346 1.00129 0.999922
0.989303 0.990156 0.999133 1.00001
0.999191 0.999974 0.999217 1
1.00105 1 1.00111 0.999946
0.991482 0.988197 1.00342 0.999905
0.994442 0.995635 0.998814 0.999988
0.999859 0.999989 0.999869 1
1.00365 1 1.00371 0.999935
0.998768 0.994469 1.00444 0.999883
0.99619 0.999939 0.996273 0.999978
0.999967 1.00001 0.999956 1
0.999984 1 1 0.999984
0.999986 1 1 0.999986
0.99999 1 1 0.99999
0.999988 1 1 0.999988
0.999989 1 1 0.999989
0.999991 1 1 0.999991
0.999993 1 1 0.999993
0.999994 1 1 0.999994
0.999983 1 1 0.999983
0.999975 1 1 0.999975
0.999983 1 1 0.999983
0.999973 1 1 0.999973
0.999978 1 1 0.999978
0.999981 1 1 0.999981
0.999981 1 1 0.999981
0.999969 1 1 0.999969
0.999978 1 1 0.999978
0.999973 1 1 0.999973
1 1 1.00003 0.999968
0.99998 1 1 0.99998
1.00103 1 1.00107 0.999963
0.999969 1 1 0.999969
0.999976 1 1 0.999976
0.999977 1 1 0.999977
1.00002 1.00002 1 1
0.999967 0.999967 1 1
0.999911 0.999911 1 1
0.999982 1 1 0.999982
1.00075 1 1.00078 0.999972
1.00006 1.00006 1 1
0.997371 0.993523 1.00397 0.999901
1.00623 1 1.00628 0.999949
0.993565 0.999914 0.993667 0.999983
0.999953 0.99994 1.00001 1
0.999955 0.999921 1.00003 1
0.999979 1 1 0.999979
1.00002 1.00002 1 1
0.999998 0.999991 1.00001 1
1.00219 1 1.00221 0.999985
0.999841 0.999993 0.999848 1
1.0053 0.999046 1.00632 0.999935
0.987677 1.00025 0.987448 0.999981
0.999982 1 1 0.999982
1.00001 1.00001 0.999999 1
1.00005 1.00006 0.999995 1
0.999404 1.00022 0.999182 1
0.994879 0.99951 0.995385 0.999981
1.01114 1 1.01115 0.999989
1.011 0.999485 1.01157 0.999943
0.99998 1 1 0.99998
0.999979 1 1 0.999979
0.999982 1 1 0.999982
0.999985 1 1 0.999985
0.999982 1 1 0.999982
0.999981 1 1 0.999981
0.999983 1 1 0.999983
0.999982 1 1 0.999982
0.999979 1 1 0.999979
0.999985 1 1 0.999985
0.999985 1 1 0.999985
0.999983 1 1 0.999983
0.99998 1 1 0.99998
0.999986 1 1 0.999986
0.999982 1 1 0.999982
0.99998 1 1 0.99998
0.999982 1 1 0.999982
0.999986 1 1 0.999986
0.999983 1 1 0.999983
0.999987 1 1 0.999987
0.999989 1 1 0.999989
0.999987 1 1 0.999987
0.999994 1 1 0.999994
0.99999 1 1 0.99999
0.999986 1 1 0.999986
0.999999 1 1 0.999999
0.999993 1 1 0.999993
0.99999 1 1 0.99999
0.999993 1 1 0.999993
0.999998 1 1 0.999998
1 1 1 1
0.999998 1 1 0.999998
1 1 1 1
1 1 1 1
1 1 1 1
1 1 1 1
1 1 1 1
1 1 1 1
1 1 1 1
1 1 1 1
0.999997 1 1 0.999997
1 1 1 1
0.999997 1 1 0.999997
1 1 1 1
1 1 1 1
0.999998 1 1 0.999998
1 1 1 1
1 1 1 1
1 1 1 1
1 1 1 1
1 1 1 1
1 1 1 1
1.00002 1.00002 1 1
0.999957 0.999954 1 1
0.999454 0.999919 0.999533 1
0.999992 1 1 0.999992
0.999991 1 1 0.999991
0.999988 1 1 0.999988
0.999973 0.999966 1.00001 1
1.00006 1.00006 0.999999 1
1.00001 0.999982 1.00003 1
1.00094 1 1.00098 0.999959
0.992916 0.989233 1.00381 0.999911
0.99386 0.995651 0.998225 0.999976
0.999918 0.999856 1.00006 1
1.00383 1 1.00388 0.999953
0.999975 0.993762 1.00634 0.99991
0.996206 1.00044 0.99577 0.999996
0.999955 0.999965 0.99999 1
1.00705 1 1.00708 0.999964
1.00295 0.998965 1.00407 0.999916
0.987427 1.00044 0.987 0.999993
0.999951 0.999938 1.00001 1
0.999983 1 1 0.999983
0.999984 1 1 0.999984
0.999985 1 1 0.999985
0.999988 1 1 0.999988
0.999989 1 1 0.999989
0.999993 1 1 0.999993
0.999969 1 1 0.999969
1.00003 1 1.00006 0.999968
0.999981 1 1 0.999981
0.999973 1 1 0.999973
0.999978 1 1 0.999978
0.99998 1 1 0.99998
0.999977 1 1 0.999977
1.00069 1 1.00073 0.999963
0.999976 1 1 0.999976
1 1 1.00003 0.999968
0.999977 1 1 0.999977
1.00244 1 1.00248 0.999966
0.999989 1 1.00002 0.999972
0.999972 1 1 0.999972
0.999971 0.99997 1 1
1.00001 1.00001 1 1
0.999939 0.999939 1 1
0.999979 1 1 0.999979
1.00452 1 1.00453 0.999986
1.00002 1.00002 1 1
1.00496 0.999807 1.0052 0.99996
0.985708 1.00018 0.985539 0.999996
1.00002 1.00002 1 1
0.999947 0.999852 1.0001 1
0.999981 1 1 0.999981
1 1 1 1
1.00006 1.00006 0.999998 1
1.01323 1 1.01326 0.999975
0.999503 0.99994 0.999562 1
0.994787 1.00045 0.99434 0.999998
1.00285 0.999957 1.00295 0.999938
1.00004 1 1.00006 0.999986
1.00002 1.00002 1 1
1.0001 0.999974 1.00012 1
0.998283 0.999971 0.998312 1
0.995028 0.995881 0.999141 1
1.00717 0.998473 1.00879 0.999925
1.01948 0.999744 1.01977 0.999965
0.999979 1 1 0.999979
0.999982 1 1 0.999982
0.999994 1 1.00002 0.999975
0.999983 1 1 0.999983
0.999982 1 1 0.999982
0.999979 1 1 0.999979
0.999971 1 1 0.999971
0.999983 1 1 0.999983
0.999979 1 1 0.999979
0.999976 1 1 0.999976
0.999983 1 1 0.999983
0.99998 1 1 0.99998
0.999979 1 1 0.999979
0.999981 1 1 0.999981
0.999985 1 1 0.999985
0.999982 1 1 0.999982
0.999983 1 1 0.999983
0.99999 1 1 0.99999
0.999987 1 1 0.999987
0.999993 1 1 0.999993
0.99999 1 1 0.99999
0.999987 1 1 0.999987
0.999999 1 1 0.999999
0.999994 1 1 0.999994
0.99999 1 1 0.99999
1 1 1 1
0.999999 1 1 0.999999
0.999993 1 1 0.999993
0.999999 1 1 0.999999
1 1 1 1
1 1 1 1
1 1 1 1
1 1 1 1
1 1 1 1
1 1 1 1
1 1 1 1
1 1 1 1
0.999998 1 1 0.999998
1 1 1 1
0.999998 1 1 0.999998
1 1 1 1
1 1 1 1
0.999997 1 1 0.999997
1 1 1 1
1 1 1 1
1 1 1 1
1 1 1 1
1 1 1 1
1 1 1 1
1.00001 1.00001 0.999999 1
1.00002 1.00002 1 1
0.99995 0.99995 1 1
0.999992 1 1 0.999992
0.99999 1 1 0.99999
0.999992 1 1 0.999992
0.999991 1 1 0.999991
0.999988 1 1 0.999988
0.999988 1 1 0.999988
0.999985 1 1 0.999985
0.999973 0.999943 1.00003 1
0.999996 0.999995 1 1
1.00007 1.00006 1 1
0.999939 0.999922 1.00002 1
1.003 1 1.00307 0.999933
1.00121 0.995279 1.00603 0.999929
0.990396 0.999499 0.990918 0.999974
1.00637 1 1.00642 0.99995
1.00281 0.998966 1.00392 0.999925
0.989648 1.00026 0.989413 0.999975
0.999914 1.00014 0.999777 1
1.01181 1 1.01184 0.999972
1.00892 1.00004 1.00895 0.99993
0.992283 1.00034 0.991954 0.999996
0.999984 0.999982 1 1
0.999981 1 1 0.999981
0.999983 1 1 0.999983
0.999984 1 1 0.999984
0.999987 1 1 0.999987
1.00037 1 1.00041 0.999962
1.00003 1 1.00007 0.999968
0.99998 1 1 0.99998
0.999976 1 1 0.999976
0.999975 1 1 0.999975
0.999977 1 1 0.999977
0.999972 1 1 0.999972
1.00208 1 1.00211 0.999967
0.999998 1 1.00003 0.999972
0.999974 1 1 0.999974
1.0033 1 1.00333 0.999974
0.999967 1 1 0.999967
1.00002 1.00002 1 1
0.999989 0.999988 1 1
0.999996 0.999996 1 1
0.999981 1 1 0.999981
1.01108 1 1.01109 0.99999
0.99999 0.99999 1 1
1.01149 0.999423 1.01214 0.999941
0.988579 0.999268 0.989325 0.999978
1.00007 1.00006 1 1
0.999143 0.999972 0.999171 1
1.00002 1 1.00003 0.999986
1.00002 1.00002 1 1
1.00006 0.999976 1.00009 1
1.02417 1 1.02419 0.999974
0.999127 0.999955 0.999171 1
0.99362 0.995306 0.998318 0.999989
1.00597 0.998766 1.00728 0.999934
1.00138 1 1.00141 0.999975
0.99996 0.999947 1.00001 1
0.999996 0.999945 1.00005 1
0.987755 0.989925 0.997802 1.00001
0.999826 0.994047 1.00591 0.999904
1.01776 1 1.01781 0.999947
0.999982 1 1 0.999982
0.999987 1 1.00001 0.999976
1.00047 1 1.00051 0.999966
0.99998 1 1 0.99998
0.999972 1 1 0.999972
0.999969 1 1 0.999969
0.999978 1 1 0.999978
0.999976 1 1 0.999976
0.999976 1 1 0.999976
0.99998 1 1 0.99998
0.999979 1 1 0.999979
0.999981 1 1 0.999981
0.999983 1 1 0.999983
0.999983 1 1 0.999983
0.999981 1 1 0.999981
0.999988 1 1 0.999988
0.999985 1 1 0.999985
0.999982 1 1 0.999982
0.999992 1 1 0.999992
0.999989 1 1 0.999989
0.999987 1 1 0.999987
0.999999 1 1 0.999999
0.999993 1 1 0.999993
0.99999 1 1 0.99999
1 1 1 1
0.999999 1 1 0.999999
0.999994 1 1 0.999994
1 1 1 1
1 1 1 1
0.999999 1 1 0.999999
1 1 1 1
1 1 1 1
1 1 1 1
1 1 1 1
1 1 1 1
1 1 1 1
0.999993 1 1 0.999993
0.999999 1 1 0.999999
1 1 1 1
0.999998 1 1 0.999998
1 1 1 1
1 1 1 1
0.999998 1 1 0.999998
1 1 1 1
1 1 1 1
1 1 1 1
1 1 1 1
1 1 1 1
1 1 1 1
1.00001 1.00001 1 1
1 1 1 1
1.00002 1.00002 1 1
0.999993 1 1 0.999993
0.99999 1 1 0.99999
0.99999 1 1 0.99999
0.999989 1 1 0.999989
0.999988 1 1 0.999988
0.999992 1 1 0.999992
0.999987 1 1 0.999987
0.999988 1 1 0.999988
0.999985 1 1 0.999985
0.999985 1 1 0.999985
1.00006 0.999993 1.00007 1
0.999967 0.999945 1.00002 1
1.00002 1.00002 1 1
0.999956 1.00009 0.999864 1
0.987212 1.00027 0.986947 0.999994
1.0064 1 1.00646 0.999942
1.00723 0.998988 1.00832 0.999924
1.01327 1 1.01332 0.999955
0.999481 1 0.999555 0.999926
0.995751 0.999607 0.996156 0.999986
0.999918 0.999967 0.999951 1
1.01759 1 1.01763 0.999961
1.00663 0.9978 1.00892 0.999925
0.993054 0.995679 0.997387 0.999976
0.998631 0.999948 0.998681 1
0.999982 1 1 0.999982
0.999981 1 1 0.999981
0.999983 1 1 0.999983
1.00169 1 1.00173 0.999967
1.00001 1 1.00004 0.999973
0.999978 1 1 0.999978
0.999972 1 1 0.999972
0.999974 1 1 0.999974
0.999967 1 1 0.999967
1.00331 1 1.00333 0.999975
0.999971 1 1 0.999971
1.00111 1 1.00114 0.99997
0.999988 0.999988 1 1
1.00001 1.00001 1 1
1.00001 1.00001 1 1
0.999986 1 1 0.999986
1.02402 0.99999 1.02407 0.99996
1.00002 1.00002 1 1
1.00819 0.998237 1.01006 0.999915
0.993374 0.99534 0.998048 0.999976
1.00003 0.999979 1.00005 1
0.999886 0.999936 0.99995 1
1.00141 1 1.00144 0.999975
0.999961 0.999952 1.00001 1
0.999917 0.999937 0.99998 1
1.01915 0.999959 1.01923 0.999956
0.987584 0.989224 0.998362 0.999981
1.00022 0.993306 1.00707 0.999897
1.00266 1 1.0027 0.999964
0.999912 0.99992 0.999992 1
0.984813 0.98654 0.998257 0.999992
0.99244 0.98925 1.00332 0.999905
1.00866 1 1.00871 0.99995
0.999976 1 1 0.999976
1.0005 1 1.00053 0.999966
1.00041 1 1.00045 0.999964
0.999973 1 1 0.999973
0.999969 1 1 0.999969
0.999974 1 1 0.999974
0.999975 1 1 0.999975
0.999977 1 1 0.999977
0.999982 1 1 0.999982
0.999979 1 1 0.999979
0.999981 1 1 0.999981
0.999985 1 1 0.999985
0.999985 1 1 0.999985
0.999983 1 1 0.999983
0.999983 1 1 0.999983
0.999986 1 1 0.999986
0.999983 1 1 0.999983
0.999981 1 1 0.999981
0.999992 1 1 0.999992
0.999988 1 1 0.999988
0.999985 1 1 0.999985
0.999998 1 1 0.999998
0.999992 1 1 0.999992
0.999989 1 1 0.999989
1 1 1 1
0.999999 1 1 0.999999
0.999994 1 1 0.999994
1 1 1 1
1 1 1 1
0.999999 1 1 0.999999
1 1 1 1
1 1 1 1
1 1 1 1
1 1 1 1
1 1 1 1
1 1 1 1
0.999993 1 1 0.999993
0.999999 1 1 0.999999
0.999993 1 1 0.999993
1 1 1 1
0.999998 1 1 0.999998
1 1 1 1
1 1 1 1
0.999998 1 1 0.999998
1 1 1 1
1 1 1 1
1 1 1 1
1 1 1 1
1 1 1 1
1 1 1 1
1.00007 1.00007 1 1
1.00002 1.00002 1 1
0.999991 0.999991 1 1
0.999991 1 1 0.999991
0.999993 1 1 0.999993
0.99999 1 1 0.99999
0.999989 1 1 0.999989
0.999991 1 1 0.999991
0.999988 1 1 0.999988
0.999988 1 1 0.999988
0.999987 1 1 0.999987
0.999988 1 1 0.999988
0.999986 1 1 0.999986
0.999985 1 1 0.999985
0.999985 1 1 0.999985
0.999142 0.999865 0.999277 1
1.00005 0.999976 1.00007 1
0.99996 0.999948 1.00001 1
0.999401 1.00022 0.999183 1
0.995696 1.00018 0.995541 0.999977
1.00889 1.00004 1.00892 0.999929
1.01233 1 1.01235 0.999977
1.02239 1 1.02241 0.999977
0.999314 0.999945 0.999368 1
1.00029 0.998853 1.00152 0.999917
0.994998 0.996223 0.99877 1
1.00928 1 1.0093 0.999977
0.999482 0.993168 1.00645 0.99991
0.988041 0.990111 0.997902 1.00001
0.999983 1 1 0.999983
0.999982 1 1 0.999982
0.999981 1 1 0.999981
1.00331 1 1.00334 0.999975
0.999967 1 1 0.999967
0.999975 1 1 0.999975
0.999971 1 1 0.999971
1.00108 1 1.00111 0.999971
0.999973 1 1 0.999973
0.999295 0.999816 0.999477 1
1 1 1 1
0.999996 0.999996 1 1
1.00146 1 1.00149 0.999975
1.01723 1 1.01727 0.999958
0.999948 0.999948 1 1
1.00376 0.994909 1.00896 0.999935
0.98896 0.989894 0.99905 1.00001
0.999125 0.999928 0.999196 1
1.00293 1 1.00297 0.999964
0.999301 0.999914 0.999386 1
0.986149 0.98736 0.998761 1.00001
1.00893 1 1.009 0.999933
0.991249 0.987941 1.00344 0.999904
1.001 1 1.00105 0.999957
0.983973 0.986553 0.997367 1.00002
0.985882 0.985282 1.00067 0.999936
1.00396 1 1.00403 0.999932
1.00052 1 1.00055 0.999966
1.0005 1 1.00053 0.999963
0.999972 1 1 0.999972
0.999969 1 1 0.999969
0.999974 1 1 0.999974
0.999985 1 1 0.999985
0.999977 1 1 0.999977
0.999982 1 1 0.999982
0.999989 1 1 0.999989
0.999981 1 1 0.999981
0.999985 1 1 0.999985
0.999989 1 1 0.999989
0.999987 1 1 0.999987
0.999985 1 1 0.999985
0.999985 1 1 0.999985
0.999985 1 1 0.999985
0.999983 1 1 0.999983
0.999983 1 1 0.999983
0.99999 1 1 0.99999
0.999986 1 1 0.999986
0.999982 1 1 0.999982
0.999997 1 1 0.999997
0.999992 1 1 0.999992
0.999988 1 1 0.999988
1 1 1 1
0.999998 1 1 0.999998
0.999992 1 1 0.999992
1 1 1 1
1 1 1 1
0.999999 1 1 0.999999
1 1 1 1
1 1 1 1
1 1 1 1
1 1 1 1
1 1 1 1
1 1 1 1
0.999994 1 1 0.999994
0.999994 1 1 0.999994
0.999999 1 1 0.999999
1 1 1 1
0.999999 1 1 0.999999
0.999993 1 1 0.999993
1 1 1 1
1 1 1 1
0.999998 1 1 0.999998
1 1 1 1
1 1 1 1
1 1 1 1
1 1 1 1
1 1 1 1
1 1 1 1
0.99981 0.999827 0.999983 1
1.00007 1.00007 1 1
1.00002 1.00002 1 1
0.99999 1 1 0.99999
0.99999 1 1 0.99999
0.999988 1 1 0.999988
0.99999 1 1 0.99999
0.999991 1 1 0.999991
0.999988 1 1 0.999988
0.999987 1 1 0.999987
0.999988 1 1 0.999988
0.999986 1 1 0.999986
0.999985 1 1 0.999985
0.999985 1 1 0.999985
0.999984 1 1 0.999984
0.986627 0.98738 0.999225 1.00001
0.999469 0.999874 0.999594 1
1.00003 0.999965 1.00007 1
0.999893 0.999943 0.999949 1
0.992386 0.994117 0.998279 0.999979
1.0039 1 1.00396 0.99994
1.01887 1 1.01891 0.99996
1.0115 1 1.01154 0.999957
0.987598 0.989242 0.998353 0.999985
1.00072 0.994963 1.00586 0.999927
1.00602 1 1.00607 0.999946
0.992615 0.988733 1.004 0.999925
0.99998 1 1 0.99998
0.999983 1 1 0.999983
0.999982 1 1 0.999982
1.00105 1 1.00108 0.999971
0.999971 1 1 0.999971
0.999986 1 1.00001 0.999973
0.999974 1 1 0.999974
0.982856 0.986924 0.995859 1.00002
0.999636 0.999864 0.999771 1
1.00002 1.00002 1 1
1.0032 1 1.00324 0.999964
1.00868 1 1.00872 0.999953
0.9994 0.999917 0.999482 1
0.992335 0.989049 1.00341 0.999911
0.984396 0.98603 0.99835 0.999992
1.00102 1 1.00107 0.999958
0.982939 0.985234 0.997659 1.00001
0.986536 0.986238 1.00037 0.999932
1.00424 1.00001 1.00427 0.99995
0.999964 1 1 0.999964
0.982976 0.983466 0.999551 0.999951
1.00107 1 1.00111 0.999962
1.00058 1 1.00062 0.999962
0.999972 1 1 0.999972
0.999988 1 1 0.999988
0.999975 1 1 0.999975
0.999985 1 1 0.999985
0.999994 1 1 0.999994
0.999983 1 1 0.999983
0.999989 1 1 0.999989
0.999992 1 1 0.999992
0.999985 1 1 0.999985
0.999989 1 1 0.999989
0.999988 1 1 0.999988
0.999986 1 1 0.999986
0.999987 1 1 0.999987
0.999986 1 1 0.999986
0.999986 1 1 0.999986
0.999985 1 1 0.999985
0.999985 1 1 0.999985
0.999988 1 1 0.999988
0.999985 1 1 0.999985
0.999983 1 1 0.999983
0.999996 1 1 0.999996
0.99999 1 1 0.99999
0.999986 1 1 0.999986
1 1 1 1
0.999997 1 1 0.999997
0.999992 1 1 0.999992
1 1 1 1
1 1 1 1
0.999998 1 1 0.999998
1 1 1 1
1 1 1 1
1 1 1 1
1 1 1 1
1 1 1 1
1 1 1 1
0.999993 1 1 0.999993
0.999994 1 1 0.999994
0.999999 1 1 0.999999
0.999994 1 1 0.999994
0.999999 1 1 0.999999
1 1 1 1
1 1 1 1
1 1 1 1
0.999999 1 1 0.999999
1 1 1 1
1 1 1 1
1 1 1 1
1 1 1 1
1 1 1 1
1 1 1 1
0.984825 0.985461 0.999351 1
0.999499 0.99984 0.999659 1
1.00007 1.00007 1 1
0.99999 1 1 0.99999
0.999989 1 1 0.999989
0.99999 1 1 0.99999
0.999989 1 1 0.999989
0.999988 1 1 0.999988
0.999987 1 1 0.999987
0.999988 1 1 0.999988
0.999986 1 1 0.999986
0.999986 1 1 0.999986
0.999985 1 1 0.999985
0.999982 1 1 0.999982
0.999985 1 1 0.999985
0.999984 1 1 0.999984
0.986754 0.985983 1.00086 0.999927
0.986315 0.98713 0.999169 1.00001
0.999132 0.999884 0.999247 1
0.989287 0.99023 0.999041 1.00001
0.999454 0.993163 1.00645 0.999888
1.00927 1 1.0093 0.999977
1.00626 1 1.00631 0.999955
0.991451 0.987981 1.00359 0.99992
1.00272 1 1.00276 0.999954
0.999973 1 1 0.999973
0.99998 1 1 0.99998
0.999983 1 1 0.999983
0.999997 1 1.00002 0.999973
0.999976 1 1 0.999976
0.982961 0.984987 0.997968 0.999975
0.982788 0.985296 0.997449 1.00001
0.999905 0.999907 0.999998 1
1.00104 1 1.00108 0.999958
1.00357 1.00003 1.00361 0.999931
0.983797 0.984621 0.999157 1.00001
0.986608 0.985399 1.00131 0.999921
0.999964 1 1 0.999964
0.983237 0.984409 0.998844 0.999965
1.001 1.00002 1.00104 0.999945
0.99998 1 1 0.99998
1.00014 1 1.00016 0.999977
0.999973 1 1 0.999973
0.999988 1 1 0.999988
0.999996 1 1 0.999996
0.999986 1 1 0.999986
0.999994 1 1 0.999994
0.999994 1 1 0.999994
0.999989 1 1 0.999989
0.999992 1 1 0.999992
0.999989 1 1 0.999989
0.999988 1 1 0.999988
0.999988 1 1 0.999988
0.999986 1 1 0.999986
0.999986 1 1 0.999986
0.999985 1 1 0.999985
0.999987 1 1 0.999987
0.999986 1 1 0.999986
0.999986 1 1 0.999986
0.999987 1 1 0.999987
0.999985 1 1 0.999985
0.999985 1 1 0.999985
0.999994 1 1 0.999994
0.999988 1 1 0.999988
0.999986 1 1 0.999986
1 1 1 1
0.999996 1 1 0.999996
0.99999 1 1 0.99999
1 1 1 1
1 1 1 1
0.999997 1 1 0.999997
1 1 1 1
1 1 1 1
1 1 1 1
1 1 1 1
1 1 1 1
1 1 1 1
0.999991 1 1 0.999991
0.999993 1 1 0.999993
0.999997 1 1 0.999997
0.999993 1 1 0.999993
0.999998 1 1 0.999998
1 1 1 1
0.999999 1 1 0.999999
1 1 1 1
1 1 1 1
1 1 1 1
1 1 1 1
1 1 1 1
1 1 1 1
1 1 1 1
1 1 1 1
0.98492 0.985343 0.999606 0.999964
0.984851 0.987377 0.997425 1.00002
0.999845 0.999851 0.999993 1
0.999989 1 1 0.999989
0.99999 1 1 0.99999
0.999988 1 1 0.999988
0.999989 1 1 0.999989
0.999988 1 1 0.999988
0.999987 1 1 0.999987
0.999986 1 1 0.999986
0.999986 1 1 0.999986
0.999985 1 1 0.999985
0.999985 1 1 0.999985
0.999983 1 1 0.999983
0.999975 1 1 0.999975
0.999982 1 1 0.999982
0.999985 1 1 0.999985
1.0006 1 1.00061 0.999982
0.985814 0.985863 1 0.999946
0.984408 0.986106 0.998283 0.999996
0.99292 0.989533 1.00351 0.999916
1.00638 1 1.00641 0.99997
1.00327 1 1.0033 0.999967
0.999967 1 1 0.999967
0.999972 1 1 0.999972
0.999979 1 1 0.999979
0.999978 1 1 0.999978
0.999997 1 1.00002 0.999978
0.983425 0.984528 0.998906 0.999973
0.983307 0.986924 0.996317 1.00002
0.999963 1 1 0.999963
1.00098 1.00002 1.001 0.999958
0.984154 0.984702 0.999462 0.999981
0.99998 1 1 0.99998
1.00005 1 1.00007 0.999976
0.999989 1 1 0.999989
1.00014 1 1.00016 0.999981
0.999988 1 1 0.999988
0.999996 1 1 0.999996
0.999991 1 1 0.999991
0.999993 1 1 0.999993
0.999993 1 1 0.999993
0.999988 1 1 0.999988
0.999991 1 1 0.999991
0.999989 1 1 0.999989
0.999985 1 1 0.999985
0.999988 1 1 0.999988
0.999986 1 1 0.999986
0.999983 1 1 0.999983
0.999986 1 1 0.999986
0.999985 1 1 0.999985
0.999985 1 1 0.999985
0.999986 1 1 0.999986
0.999986 1 1 0.999986
0.999987 1 1 0.999987
0.999992 1 1 0.999992
0.999988 1 1 0.999988
0.999985 1 1 0.999985
1 1 1 1
0.999994 1 1 0.999994
0.999989 1 1 0.999989
1 1 1 1
1 1 1 1
0.999996 1 1 0.999996
1 1 1 1
1 1 1 1
1 1 1 1
1 1 1 1
1 1 1 1
1 1 1 1
0.999991 1 1 0.999991
0.999992 1 1 0.999992
0.999996 1 1 0.999996
0.999993 1 1 0.999993
0.999997 1 1 0.999997
1 1 1 1
0.999998 1 1 0.999998
1 1 1 1
1 1 1 1
1 1 1 1
1 1 1 1
1 1 1 1
1 1 1 1
1 1 1 1
1 1 1 1
0.999806 1 0.999812 0.999994
0.984948 0.986047 0.998919 0.999966
0.983512 0.986668 0.996797 1
0.999987 1 1 0.999987
0.999988 1 1 0.999988
0.99999 1 1 0.99999
0.999987 1 1 0.999987
0.999988 1 1 0.999988
0.999986 1 1 0.999986
0.999986 1 1 0.999986
0.999985 1 1 0.999985
0.999985 1 1 0.999985
0.999984 1 1 0.999984
0.999979 1 1 0.999979
0.999968 1 1 0.999968
0.999975 1 1 0.999975
0.999983 1 1 0.999983
0.999936 1 0.99996 0.999976
1.00046 1 1.00049 0.99997
0.986485 0.985942 1.00059 0.999963
1.00287 1 1.00292 0.999951
0.999964 1 1 0.999964
0.999971 1 1 0.999971
1.00002 1 1.00002 0.999998
1.00006 1 1.00007 0.999991
0.9836 0.985605 0.997992 0.999974
0.99998 1 1 0.99998
0.99998 1 1.00001 0.99997
0.999989 1 1 0.999989
1.00006 1 1.00008 0.999982
0.999982 1 1 0.999982
0.999984 1 1 0.999984
0.999996 1 1 0.999996
0.999991 1 1 0.999991
0.999983 1 1 0.999983
0.999993 1 1 0.999993
0.999988 1 1 0.999988
0.999983 1 1 0.999983
0.999989 1 1 0.999989
0.999985 1 1 0.999985
0.999982 1 1 0.999982
0.999986 1 1 0.999986
0.999983 1 1 0.999983
0.999983 1 1 0.999983
0.999985 1 1 0.999985
0.999985 1 1 0.999985
0.999986 1 1 0.999986
0.999986 1 1 0.999986
0.999987 1 1 0.999987
0.999991 1 1 0.999991
1 1 1 1
0.999992 1 1 0.999992
0.999988 1 1 0.999988
1 1 1 1
1 1 1 1
0.999994 1 1 0.999994
1 1 1 1
1 1 1 1
1 1 1 1
1 1 1 1
1 1 1 1
1 1 1 1
0.99999 1 1 0.99999
0.999991 1 1 0.999991
0.999996 1 1 0.999996
0.999993 1 1 0.999993
0.999997 1 1 0.999997
1 1 1 1
0.999997 1 1 0.999997
1 1 1 1
1 1 1 1
1 1 1 1
1 1 1 1
1 1 1 1
1 1 1 1
1 1 1 1
1 1 1 1
0.99995 1 0.999956 0.999994
0.999732 1 0.999754 0.999977
0.984963 0.985327 0.999659 0.999971
0.999986 1 1 0.999986
0.999985 1 1 0.999985
0.999987 1 1 0.999987
0.999987 1 1 0.999987
0.999988 1 1 0.999988
0.999986 1 1 0.999986
0.99998 1 1 0.99998
0.999985 1 1 0.999985
0.999985 1 1 0.999985
0.999979 1 1 0.999979
0.999972 1 1 0.999972
0.999981 1 1 0.999981
0.999969 1 1 0.999969
0.999976 1 1 0.999976
0.999954 1 0.999978 0.999976
1.00045 1 1.00049 0.999965
0.99996 1 1 0.99996
1 1 1 1
1.00008 1 1.00008 0.999998
1.00012 1 1.00014 0.999982
0.999989 1 1 0.999989
0.999996 1 1.00001 0.999984
0.999983 1 1 0.999983
0.999986 1 1 0.999986
0.999981 1 1 0.999981
0.999993 1 1 0.999993
0.99999 1 1 0.99999
0.999984 1 1 0.999984
0.999981 1 1 0.999981
0.999988 1 1 0.999988
0.999983 1 1 0.999983
0.999982 1 1 0.999982
0.999985 1 1 0.999985
0.999982 1 1 0.999982
0.999982 1 1 0.999982
0.999983 1 1 0.999983
0.999983 1 1 0.999983
0.999985 1 1 0.999985
0.999985 1 1 0.999985
0.999986 1 1 0.999986
0.99999 1 1 0.99999
0.999987 1 1 0.999987
0.999991 1 1 0.999991
0.999999 1 1 0.999999
1 1 1 1
1 1 1 1
0.999993 1 1 0.999993
1 1 1 1
1 1 1 1
1 1 1 1
1 1 1 1
1 1 1 1
1 1 1 1
0.999988 1 1 0.999988
0.999989 1 1 0.999989
0.999995 1 1 0.999995
0.999991 1 1 0.999991
0.999996 1 1 0.999996
1 1 1 1
0.999997 1 1 0.999997
1 1 1 1
1 1 1 1
1 1 1 1
1 1 1 1
1 1 1 1
1 1 1 1
1 1 1 1
1 1 1 1
0.999996 1 1 0.999996
0.999975 1 0.99998 0.999995
0.999691 1 0.999695 0.999996
0.999983 1 1 0.999983
0.999986 1 1 0.999986
0.999982 1 1 0.999982
0.999985 1 1 0.999985
0.999987 1 1 0.999987
0.999975 1 1 0.999975
0.999986 1 1 0.999986
0.99998 1 1 0.99998
0.999979 1 1 0.999979
0.999979 1 1 0.999979
0.999971 1 1 0.999971
0.999981 1 1 0.999981
0.99997 1 1 0.99997
0.999976 1 1 0.999976
1 1 1 1
0.999999 1 1 0.999999
1.00013 1 1.00013 0.999997
0.999983 1 1 0.999983
0.999987 1 1 0.999987
0.999981 1 1 0.999981
0.999994 1 1 0.999994
0.999991 1 1 0.999991
0.999984 1 1 0.999984
0.999982 1 1 0.999982
0.999984 1 1 0.999984
0.999983 1 1 0.999983
0.999981 1 1 0.999981
0.999982 1 1 0.999982
0.999982 1 1 0.999982
0.999982 1 1 0.999982
0.999983 1 1 0.999983
0.999983 1 1 0.999983
0.999985 1 1 0.999985
0.999988 1 1 0.999988
0.999986 1 1 0.999986
0.99999 1 1 0.99999
0.999998 1 1 0.999998
0.999991 1 1 0.999991
0.999999 1 1 0.999999
1 1 1 1
1 1 1 1
1 1 1 1
0.999999 1 1 0.999999
1 1 1 1
1 1 1 1
1 1 1 1
0.999982 1 1 0.999982
0.999986 1 1 0.999986
0.999987 1 1 0.999987
0.999993 1 1 0.999993
0.999989 1 1 0.999989
0.999995 1 1 0.999995
1 1 1 1
0.999996 1 1 0.999996
1 1 1 1
1 1 1 1
1 1 1 1
1 1 1 1
1 1 1 1
1 1 1 1
1 1 1 1
1 1 1 1
0.999993 1 1 0.999993
0.999996 1 1 0.999996
0.999995 1 1 0.999995
0.999978 1 1 0.999978
0.999984 1 1 0.999984
0.999987 1 1 0.999987
0.999982 1 1 0.999982
0.999985 1 1 0.999985
0.999977 1 1 0.999977
0.999975 1 1 0.999975
0.99998 1 1 0.99998
0.999978 1 1 0.999978
0.99997 1 1 0.99997
0.999981 1 1 0.999981
0.999998 1 1 0.999998
0.999999 1 1 0.999999
0.999998 1 1 0.999998
0.99998 1 1 0.99998
0.999995 1 1 0.999995
0.999991 1 1 0.999991
0.999991 1 1 0.999991
0.999982 1 1 0.999982
0.999983 1 1 0.999983
0.999986 1 1 0.999986
0.999981 1 1 0.999981
0.999982 1 1 0.999982
0.999983 1 1 0.999983
0.999982 1 1 0.999982
0.999983 1 1 0.999983
0.999986 1 1 0.999986
0.999985 1 1 0.999985
0.999988 1 1 0.999988
0.999996 1 1 0.999996
0.99999 1 1 0.99999
0.999998 1 1 0.999998
1 1 1 1
0.999999 1 1 0.999999
1 1 1 1
1 1 1 1
1 1 1 1
1 1 1 1
1 1 1 1
0.999978 1 1 0.999978
0.999985 1 1 0.999985
0.999982 1 1 0.999982
0.999991 1 1 0.999991
0.999986 1 1 0.999986
0.999987 1 1 0.999987
0.999993 1 1 0.999993
1 1 1 1
0.999995 1 1 0.999995
1 1 1 1
1 1 1 1
1 1 1 1
1 1 1 1
1 1 1 1
1 1 1 1
1 1 1 1
1 1 1 1
0.999989 1 1 0.999989
0.999993 1 1 0.999993
0.999996 1 1 0.999996
0.999978 1 1 0.999978
0.999978 1 1 0.999978
0.999984 1 1 0.999984
0.999982 1 1 0.999982
0.999977 1 1 0.999977
0.999974 1 1 0.999974
0.999978 1 1 0.999978
0.999997 1 1 0.999997
0.999998 1 1 0.999998
0.999999 1 1 0.999999
0.999993 1 1 0.999993
0.99999 1 1 0.99999
0.999991 1 1 0.999991
0.99999 1 1 0.99999
0.999982 1 1 0.999982
0.999986 1 1 0.999986
0.999985 1 1 0.999985
0.999982 1 1 0.999982
0.999983 1 1 0.999983
0.999985 1 1 0.999985
0.999983 1 1 0.999983
0.999986 1 1 0.999986
0.999994 1 1 0.999994
0.999988 1 1 0.999988
0.999996 1 1 0.999996
1 1 1 1
0.999998 1 1 0.999998
1 1 1 1
1 1 1 1
1 1 1 1
1 1 1 1
1 1 1 1
0.999978 1 1 0.999978
0.999981 1 1 0.999981
0.999979 1 1 0.999979
0.99999 1 1 0.99999
0.999985 1 1 0.999985
0.999983 1 1 0.999983
0.999999 1 1 0.999999
0.999991 1 1 0.999991
0.999986 1 1 0.999986
0.999993 1 1 0.999993
1 1 1 1
1 1 1 1
1 1 1 1
1 1 1 1
1 1 1 1
1 1 1 1
1 1 1 1
1 1 1 1
0.999987 1 1 0.999987
0.999988 1 1 0.999988
0.999993 1 1 0.999993
0.999977 1 1 0.999977
0.999978 1 1 0.999978
0.999977 1 1 0.999977
0.999993 1 1 0.999993
0.999997 1 1 0.999997
0.999997 1 1 0.999997
0.999992 1 1 0.999992
0.999992 1 1 0.999992
0.999991 1 1 0.999991
0.99999 1 1 0.99999
0.999989 1 1 0.999989
0.999986 1 1 0.999986
0.999986 1 1 0.999986
0.999987 1 1 0.999987
0.999983 1 1 0.999983
0.999985 1 1 0.999985
0.999992 1 1 0.999992
0.999986 1 1 0.999986
0.999994 1 1 0.999994
1 1 1 1
0.999996 1 1 0.999996
1 1 1 1
1 1 1 1
1 1 1 1
1 1 1 1
1 1 1 1
0.999987 1 1 0.999987
0.999979 1 1 0.999979
0.999978 1 1 0.999978
0.999986 1 1 0.999986
0.999981 1 1 0.999981
0.99998 1 1 0.99998
0.999997 1 1 0.999997
0.999989 1 1 0.999989
0.999984 1 1 0.999984
1 1 1 1
0.999999 1 1 0.999999
0.999991 1 1 0.999991
1 1 1 1
1 1 1 1
1 1 1 1
1 1 1 1
1 1 1 1
1 1 1 1
0.999985 1 1 0.999985
0.999987 1 1 0.999987
0.999988 1 1 0.999988
0.999976 1 1 0.999976
0.999991 1 1 0.999991
0.999994 1 1 0.999994
0.999998 1 1 0.999998
0.999992 1 1 0.999992
0.999992 1 1 0.999992
0.999992 1 1 0.999992
0.99999 1 1 0.99999
0.999989 1 1 0.999989
0.999989 1 1 0.999989
0.999986 1 1 0.999986
0.999987 1 1 0.999987
0.999992 1 1 0.999992
0.999985 1 1 0.999985
0.999992 1 1 0.999992
1 1 1 1
0.999994 1 1 0.999994
1 1 1 1
1 1 1 1
1 1 1 1
1 1 1 1
1 1 1 1
0.999986 1 1 0.999986
0.999985 1 1 0.999985
0.999987 1 1 0.999987
0.999983 1 1 0.999983
0.99998 1 1 0.99998
0.999978 1 1 0.999978
0.999993 1 1 0.999993
0.999986 1 1 0.999986
0.999981 1 1 0.999981
1 1 1 1
0.999997 1 1 0.999997
0.999988 1 1 0.999988
1 1 1 1
1 1 1 1
0.999999 1 1 0.999999
1 1 1 1
1 1 1 1
1 1 1 1
0.999987 1 1 0.999987
0.999987 1 1 0.999987
0.999987 1 1 0.999987
0.999994 1 1 0.999994
0.999991 1 1 0.999991
0.999994 1 1 0.999994
0.999992 1 1 0.999992
0.999992 1 1 0.999992
0.999994 1 1 0.999994
0.999989 1 1 0.999989
0.999989 1 1 0.999989
0.999993 1 1 0.999993
0.999987 1 1 0.999987
0.999992 1 1 0.999992
1 1 1 1
0.999992 1 1 0.999992
1 1 1 1
1 1 1 1
1 1 1 1
1 1 1 1
1 1 1 1
0.999986 1 1 0.999986
0.999987 1 1 0.999987
0.999986 1 1 0.999986
0.999985 1 1 0.999985
0.999985 1 1 0.999985
0.999986 1 1 0.999986
0.99999 1 1 0.99999
0.999983 1 1 0.999983
0.999981 1 1 0.999981
1 1 1 1
0.999993 1 1 0.999993
0.999986 1 1 0.999986
1 1 1 1
1 1 1 1
0.999996 1 1 0.999996
1 1 1 1
1 1 1 1
1 1 1 1
0.99999 1 1 0.99999
0.999987 1 1 0.999987
0.999988 1 1 0.999988
0.999995 1 1 0.999995
0.999993 1 1 0.999993
0.999991 1 1 0.999991
0.999992 1 1 0.999992
0.999994 1 1 0.999994
0.999996 1 1 0.999996
0.99999 1 1 0.99999
0.999993 1 1 0.999993
1 1 1 1
0.999992 1 1 0.999992
1 1 1 1
1 1 1 1
1 1 1 1
1 1 1 1
1 1 1 1
0.999988 1 1 0.999988
0.999985 1 1 0.999985
0.999988 1 1 0.999988
0.999987 1 1 0.999987
0.999986 1 1 0.999986
0.999991 1 1 0.999991
0.999985 1 1 0.999985
0.999985 1 1 0.999985
1 1 1 1
0.999991 1 1 0.999991
0.999984 1 1 0.999984
1 1 1 1
1 1 1 1
0.999992 1 1 0.999992
1 1 1 1
1 1 1 1
1 1 1 1
0.999992 1 1 0.999992
0.99999 1 1 0.99999
0.999987 1 1 0.999987
0.999998 1 1 0.999998
0.999995 1 1 0.999995
0.999993 1 1 0.999993
0.999994 1 1 0.999994
0.999996 1 1 0.999996
1 1 1 1
0.999993 1 1 0.999993
1 1 1 1
1 1 1 1
1 1 1 1
1 1 1 1
1 1 1 1
0.99999 1 1 0.99999
0.999987 1 1 0.999987
0.999984 1 1 0.999984
0.999993 1 1 0.999993
0.999988 1 1 0.999988
0.999987 1 1 0.999987
1 1 1 1
0.999991 1 1 0.999991
0.999985 1 1 0.999985
1 1 1 1
1 1 1 1
0.999991 1 1 0.999991
1 1 1 1
1 1 1 1
1 1 1 1
0.999997 1 1 0.999997
0.999992 1 1 0.999992
0.99999 1 1 0.99999
1 1 1 1
0.999998 1 1 0.999998
0.999996 1 1 0.999996
0.999996 1 1 0.999996
1 1 1 1
1 1 1 1
1 1 1 1
1 1 1 1
1 1 1 1
0.999996 1 1 0.999996
0.99999 1 1 0.99999
0.999987 1 1 0.999987
1 1 1 1
0.999993 1 1 0.999993
0.999988 1 1 0.999988
1 1 1 1
1 1 1 1
0.999991 1 1 0.999991
1 1 1 1
1 1 1 1
1 1 1 1
1 1 1 1
0.999997 1 1 0.999997
0.999992 1 1 0.999992
1 1 1 1
1 1 1 1
0.999998 1 1 0.999998
1 1 1 1
1 1 1 1
1 1 1 1
1 1 1 1
0.999995 1 1 0.999995
0.99999 1 1 0.99999
1 1 1 1
1 1 1 1
0.999993 1 1 0.999993
1 1 1 1
1 1 1 1
1 1 1 1
1 1 1 1
1 1 1 1
0.999997 1 1 0.999997
1 1 1 1
1 1 1 1
1 1 1 1
1 1 1 1
1 1 1 1
0.999995 1 1 0.999995
1 1 1 1
1 1 1 1
1 1 1 1
1 1 1 1
1 1 1 1
1 1 1 1
1 1 1 1
1 1 1 1
1 1 1 1
1 1 1 1
1 1 1 1

VECTORS lamdaE float
0.999378 0.997528 0.998366
0.999492 0.996981 0.999393
0.999382 0.997486 0.998379
0.998985 0.998792 0.997984
0.99927 0.997885 0.998256
0.999462 0.997234 0.998465
0.999574 0.998364 0.997075
0.999502 0.996999 0.999402
0.999295 0.997786 0.999247
0.999448 0.997182 0.999369
0.999557 0.996765 0.998653
0.99964 0.997866 0.997271
0.998371 1.00024 0.997724
0.998813 0.999212 0.997871
0.999385 0.997443 0.998393
0.998982 0.998749 0.998004
0.999468 0.997192 0.998477
0.999272 0.997842 0.998271
0.999567 0.998376 0.997082
0.998453 0.999896 0.999013
0.998824 0.999303 0.997833
0.999137 0.99831 0.99813
0.99932 0.999502 0.996505
0.999504 0.998692 0.996906
0.999532 0.99699 0.998549
0.999624 0.998087 0.997231
0.999861 0.999741 0.995214
0.999512 0.997017 0.999411
0.999294 0.997826 0.998723
0.999448 0.997199 0.998929
0.999553 0.996797 0.999427
0.999635 0.997845 0.997277
0.999144 0.998253 0.99807
0.999364 0.997477 0.998379
0.99955 0.998675 0.997118
0.999621 0.996595 0.999449
0.999608 0.998093 0.997543
0.999663 0.997692 0.997385
0.999838 0.999346 0.995403
0.999712 0.996366 0.999453
0.998388 0.999923 0.999038
0.998781 0.999207 0.998464
0.998233 1.00018 0.999049
0.998608 0.999745 0.997772
0.99888 1.00085 0.995769
0.999002 0.998598 0.999135
0.999205 0.99987 0.99657
0.998979 0.998705 0.998023
0.999273 0.997797 0.998286
0.999473 0.99715 0.998489
0.99956 0.998388 0.997088
0.998433 1.00005 0.998344
0.998818 0.999264 0.997852
0.999539 0.996948 0.998558
0.999136 0.998266 0.998147
0.999317 0.999499 0.996513
0.999617 0.998102 0.997237
0.999498 0.998699 0.996913
0.999863 0.999749 0.995183
0.998332 1.00013 0.99902
0.998651 0.999804 0.997715
0.998927 1.0007 0.996333
0.999224 0.999934 0.996287
0.999416 0.999077 0.996718
0.999822 1.00056 0.994445
0.999856 0.999997 0.99485
0.999606 0.996809 0.998615
0.99967 0.997836 0.997386
0.999857 0.999528 0.995429
1.00009 1.00045 0.993801
0.999308 0.997814 0.999267
0.999566 0.996826 0.999436
0.999453 0.997238 0.999377
0.99963 0.997824 0.997283
0.999151 0.998205 0.999175
0.999363 0.997492 0.999305
0.99955 0.998681 0.996621
0.999621 0.996609 0.999069
0.999607 0.998068 0.997129
0.999664 0.997676 0.997592
0.999834 0.999342 0.995404
0.99966 0.996481 0.999451
0.999804 0.997277 0.997514
0.999479 0.999075 0.996305
0.999574 0.998383 0.996844
0.999935 1 0.994529
0.999712 0.997517 0.997851
0.999856 0.999541 0.99517
0.999834 0.999179 0.995583
0.999981 1.00019 0.994274
0.999759 0.99626 0.999457
0.99972 0.996385 0.999454
0.998856 0.999035 0.999104
0.998464 0.999861 0.99904
0.998263 1.00016 0.999046
0.99858 0.999694 0.9984
0.998898 1.00077 0.996106
0.999007 0.998689 0.998539
0.999233 0.999925 0.99629
0.998229 1.00025 0.999035
0.998748 1.00112 0.995814
0.99905 1.00031 0.996448
0.999573 1.00135 0.99394
0.999375 0.999407 0.996736
0.999814 1.00078 0.994006
0.998415 1.00022 0.997674
0.998812 0.999223 0.99787
0.999546 0.996906 0.998567
0.999135 0.998221 0.998164
0.999315 0.999498 0.996521
0.999492 0.998706 0.996921
0.99961 0.998118 0.997244
0.999866 0.999757 0.995152
0.998299 1.00015 0.999024
0.998643 0.999768 0.997728
0.998937 1.00078 0.995873
0.999222 0.999931 0.996293
0.999604 0.996768 0.999015
0.999661 0.99785 0.997516
0.999412 0.999078 0.996726
0.999829 1.00056 0.994365
0.999861 0.99954 0.995399
0.999856 0.999991 0.994904
1.00009 1.00044 0.993805
0.998805 1.00112 0.995706
0.999107 1.00035 0.996131
0.999647 1.00129 0.993945
0.999823 1.00082 0.994111
0.999837 1.00028 0.994589
1.00012 1.00091 0.993361
0.99966 0.99663 0.999432
1.00011 1.00056 0.993665
0.999713 0.997629 0.997349
0.999863 0.999335 0.99536
1.00006 1.00035 0.993943
1.00025 1.00061 0.993311
0.999795 0.997343 0.997441
0.999955 0.998785 0.995709
0.999202 0.998179 0.999201
0.999385 0.997501 0.999331
0.999529 0.998678 0.996613
0.999622 0.996662 0.999449
0.999664 0.997639 0.997405
0.999595 0.998046 0.997123
0.999831 0.999338 0.995404
0.999669 0.996503 0.999452
0.999804 0.997266 0.997515
0.99948 0.999056 0.99662
0.999569 0.998366 0.997113
0.999931 1.00001 0.994524
0.999716 0.997496 0.997481
0.999849 0.99954 0.995172
0.999831 0.999172 0.995585
0.999978 1.00021 0.994222
0.999763 0.997376 0.997502
0.999841 0.997182 0.997532
0.999927 0.998773 0.995791
0.999952 1.0002 0.99429
0.999886 0.999788 0.994855
1.0002 1.00051 0.993481
0.999867 0.998986 0.995709
1.00004 1.00031 0.993966
0.999952 1.00013 0.994405
1.00007 1.0006 0.993764
0.999801 0.996158 0.999462
0.999765 0.996274 0.999458
0.999727 0.996404 0.999455
0.999828 0.997255 0.997462
0.999709 0.996499 0.999439
0.999048 0.998591 0.999147
0.998656 0.999476 0.999065
0.999207 0.999989 0.995977
0.998893 1.00086 0.995772
0.99829 1.00014 0.999045
0.99822 1.00025 0.999041
0.998747 1.00113 0.99581
0.999078 1.00038 0.99615
0.999575 1.00136 0.993934
0.999385 0.99948 0.996154
0.99981 1.00079 0.994003
0.998713 1.00123 0.995784
0.999418 1.00155 0.994071
0.999709 1.0011 0.993902
0.999859 1.0014 0.993326
0.999904 1.00045 0.994138
1.00009 1.00097 0.99327
0.998265 1.00017 0.999029
0.998635 0.999732 0.997741
0.998945 1.00086 0.995415
0.99922 0.999928 0.996299
0.999601 0.996726 0.999416
0.999653 0.997865 0.997646
0.999408 0.999081 0.996734
0.999835 1.00056 0.994285
0.999856 0.999985 0.994959
0.999865 0.999553 0.995369
1.00009 1.00042 0.99381
0.998803 1.00111 0.995712
0.999107 1.00034 0.996132
0.999663 1.00131 0.993806
0.999825 1.00082 0.994141
0.99965 0.996608 0.999429
0.99971 0.997647 0.997538
0.999865 0.999337 0.995478
0.999838 1.00028 0.994586
1.00012 1.00091 0.993276
1.00006 1.00034 0.99392
1.00011 1.00055 0.993727
1.00025 1.0006 0.993315
0.999795 0.997356 0.99744
0.999955 0.998789 0.995709
0.999484 1.00153 0.993935
0.999783 1.00106 0.993926
0.999968 1.00138 0.993198
1.00015 1.00107 0.993048
1.00011 1.00071 0.99358
1.00028 1.00096 0.992918
0.999753 0.997461 0.997404
1.00027 1.00066 0.993217
0.99988 0.999143 0.9955
1.00002 1.00023 0.994073
1.00022 1.00061 0.993462
1.00033 1.00061 0.993134
0.999938 0.998851 0.995676
0.999968 0.998735 0.995732
1.00004 0.999766 0.994572
0.999471 0.999063 0.996351
0.999678 0.996525 0.999452
0.999803 0.997254 0.997516
0.99956 0.998337 0.996896
0.999927 1.00002 0.99452
0.999711 0.997475 0.997479
0.999828 0.999166 0.995586
0.999841 0.999539 0.995174
0.999976 1.00023 0.994169
0.999762 0.997364 0.997503
0.999841 0.997171 0.997533
0.999926 0.998767 0.995792
0.999951 1.00021 0.994283
0.999878 0.999792 0.994856
1.0002 1.00052 0.993474
0.999864 0.998979 0.995712
1.00004 1.00032 0.993991
0.999948 1.00014 0.994401
1.00007 1.00061 0.993706
0.999876 0.997086 0.997553
0.999904 0.99885 0.995765
0.999949 0.998694 0.995824
1 0.999755 0.994668
1.00024 1.00055 0.993368
1.00011 1.00046 0.993739
1.00039 1.00061 0.993001
0.999969 0.999965 0.994539
1.00017 1.00061 0.993445
1.00002 1.0007 0.993707
1.00013 1.00076 0.993379
1.00004 0.99844 0.995893
0.999939 0.996923 0.997575
0.999841 0.996064 0.999466
0.999807 0.996169 0.999463
0.999771 0.996288 0.99946
0.999859 0.997179 0.997477
0.999751 0.996387 0.999444
0.999829 0.997266 0.997462
0.999701 0.996476 0.999437
0.999358 0.999504 0.996147
0.999053 1.00047 0.995826
0.999807 1.0008 0.994
0.999577 1.00136 0.993928
0.998746 1.00114 0.995806
0.998214 1.00025 0.999045
0.998709 1.00123 0.995787
0.99942 1.00155 0.994066
0.999709 1.00111 0.993898
0.999862 1.0014 0.993323
0.999902 1.00046 0.994132
1.00009 1.00097 0.993268
0.999386 1.00163 0.994064
0.999679 1.00158 0.993526
0.999993 1.00122 0.993219
1.00001 1.00134 0.993106
1.00019 1.0007 0.993335
1.00022 1.00093 0.993037
0.998802 1.0011 0.995718
0.999106 1.00033 0.996134
0.999678 1.00132 0.993667
0.999826 1.00082 0.99417
0.999641 0.996585 0.999426
0.999708 0.997666 0.997728
0.999867 0.999339 0.995596
0.99984 1.00028 0.994583
1.00012 1.00092 0.993191
1.00011 1.00053 0.993788
1.00005 1.00033 0.993897
1.00025 1.00059 0.993319
0.999795 0.997369 0.997438
0.999955 0.998792 0.995709
0.999494 1.00152 0.993889
0.999783 1.00106 0.99392
0.999959 1.00137 0.993199
1.00014 1.00107 0.993127
0.999755 0.997476 0.997401
0.999883 0.999149 0.995498
1.00002 1.00022 0.994131
1.00011 1.00071 0.993592
1.00029 1.00094 0.992891
1.00021 1.0006 0.993404
1.00027 1.00065 0.99322
1.00034 1.00059 0.993138
0.999938 0.998856 0.995676
1.00004 0.999763 0.994525
0.999969 0.998738 0.995732
0.999785 1.00156 0.993409
1.0001 1.0012 0.993088
1.00008 1.00131 0.992949
1.00032 1.00109 0.992727
1.00028 1.00076 0.993105
1.00036 1.00085 0.992836
0.999909 0.998969 0.995615
1.00035 1.00064 0.993078
1.00001 1.00007 0.994341
1.00015 1.00061 0.993471
1.0003 1.00068 0.99316
1.00038 1.00048 0.993202
0.999987 0.998686 0.995742
1.00004 0.999796 0.994548
1.00005 0.99975 0.994484
1.00009 1.00034 0.993987
0.999951 1.00022 0.994276
0.99984 0.99716 0.997535
0.999762 0.997351 0.997503
0.999925 0.998761 0.995792
0.99987 0.999797 0.994856
1.00021 1.00053 0.993467
0.999861 0.998972 0.995714
0.999944 1.00015 0.994397
1.00003 1.00033 0.994016
1.00006 1.00062 0.993648
0.999876 0.997077 0.997554
0.999902 0.998844 0.995766
0.999948 0.998689 0.995824
1 0.999752 0.994668
1.00024 1.00056 0.993359
1.00011 1.00047 0.993737
1.00039 1.00062 0.992995
0.999962 0.999967 0.994541
1.00017 1.00061 0.993496
1.00002 1.00071 0.993696
1.00012 1.00074 0.993422
0.99991 0.996999 0.997568
0.999974 0.998608 0.995856
0.999994 0.999822 0.994626
1.00002 0.999689 0.994706
1.00005 1.00037 0.993955
1.00042 1.00054 0.993014
1.00028 1.00066 0.993195
1.00049 1.00054 0.99289
1.00002 1.00064 0.993782
1.00023 1.00073 0.993232
1.00008 1.00104 0.993134
1.00002 0.998484 0.995886
1.00008 0.999471 0.994789
1.00006 0.998408 0.995885
1.00004 0.998438 0.995894
0.999964 0.996844 0.997942
0.999937 0.996921 0.997757
0.999885 0.996016 0.998742
0.999846 0.996073 0.999466
0.999813 0.99618 0.999464
0.999892 0.99711 0.997479
0.99979 0.996284 0.999446
0.99986 0.997188 0.997476
0.999745 0.996367 0.999442
0.999829 0.997276 0.997461
0.999693 0.996454 0.999436
0.999901 1.00047 0.994127
0.999709 1.00111 0.993893
1.00009 1.00097 0.993266
0.999865 1.0014 0.99332
0.999423 1.00155 0.994061
0.998705 1.00123 0.995791
0.999384 1.00163 0.994066
0.999682 1.00158 0.993523
0.999997 1.00122 0.993216
1 1.00134 0.993124
1.00019 1.0007 0.99333
1.00022 1.00093 0.993042
0.999636 1.00166 0.993539
0.999798 1.00154 0.993339
1.00012 1.00118 0.993011
1.00007 1.00134 0.99299
1.00034 1.00065 0.993074
1.00033 1.0008 0.993017
0.999504 1.00152 0.993843
0.999783 1.00106 0.993913
0.999951 1.00135 0.993201
1.00013 1.00108 0.993206
0.999756 0.997492 0.997399
0.999886 0.999154 0.995496
1.00002 1.0002 0.994189
1.00011 1.00071 0.993603
1.00029 1.00093 0.992865
1.00027 1.00065 0.993223
1.00021 1.0006 0.993345
1.00034 1.00057 0.993141
0.999938 0.998861 0.995675
1.00005 0.99976 0.994478
0.999969 0.998742 0.995731
0.99977 1.00155 0.993389
1.0001 1.00121 0.99308
1.0001 1.00131 0.992915
1.00031 1.00108 0.992759
0.999911 0.998974 0.995613
1.00001 1.00006 0.994341
1.00014 1.00061 0.993526
1.00028 1.00076 0.993136
1.00036 1.00084 0.992835
1.0003 1.00069 0.993132
1.00036 1.00063 0.993079
1.00038 1.00044 0.993225
1.00004 0.999794 0.994548
1.0001 1.00034 0.993913
0.999988 0.998689 0.995742
1.00005 0.999748 0.994486
0.999904 1.00153 0.993127
1.0003 1.00115 0.992748
1.00012 1.00135 0.992752
1.00038 1.00095 0.992702
1.00036 1.0007 0.993012
1.0004 1.00074 0.992859
1.00002 0.999904 0.994476
1.0004 1.00045 0.993171
1.0001 1.00054 0.99363
1.00023 1.00084 0.993164
1.00034 1.00066 0.993092
1.00042 1.00026 0.993319
1 0.998658 0.995739
1.00006 0.999718 0.99449
1.0001 1.00033 0.993884
1.00009 1.00039 0.993905
1.00014 1.00063 0.993571
0.999876 0.997069 0.997555
1.00025 1.00056 0.993351
0.999948 0.998684 0.995825
0.9999 0.998837 0.995767
1 0.999749 0.994668
1.0001 1.00047 0.993735
1.0004 1.00062 0.992989
0.999956 0.999969 0.994543
1.00002 1.00072 0.993684
1.00017 1.00061 0.993547
1.00012 1.00072 0.993465
0.99991 0.996993 0.997569
0.999973 0.998605 0.995857
0.99999 0.999818 0.994627
1.00002 0.999687 0.994706
1.00005 1.00038 0.993926
1.00042 1.00055 0.993004
1.00027 1.00067 0.993195
1.00048 1.00056 0.992876
1.00001 1.00063 0.993786
1.00023 1.00073 0.993256
1.0001 1.00103 0.993157
0.999999 0.998536 0.995876
1.00004 0.999605 0.994739
1.00004 1.00048 0.993841
1.00006 1.00033 0.993982
1.00007 1.00075 0.993593
1.00055 1.00028 0.993026
1.00035 1.00071 0.993006
1.00047 1.0002 0.993216
1.00004 1.00111 0.993244
1.00023 1.00109 0.992894
1.00002 0.998482 0.995887
1.00007 0.999509 0.994664
1.00008 0.999473 0.994736
1.0001 1.00017 0.99416
1.00009 0.999451 0.994785
1.00007 0.998403 0.995858
1.00006 0.998407 0.995885
0.999989 0.996796 0.997937
1.00004 0.998436 0.995894
0.999964 0.996862 0.997942
0.999925 0.995947 0.998745
0.999935 0.996918 0.997939
0.999886 0.995983 0.999105
0.999851 0.996082 0.999467
0.999923 0.997047 0.997479
0.999893 0.997116 0.997479
0.99983 0.996189 0.999446
0.999785 0.996267 0.999446
0.999861 0.997196 0.997475
0.999739 0.996346 0.999441
1.00019 1.0007 0.993324
1 1.00122 0.993213
1.00022 1.00093 0.993046
0.999991 1.00134 0.993141
0.999685 1.00158 0.99352
0.999382 1.00163 0.994068
0.999634 1.00166 0.993542
0.999773 1.00154 0.993372
1.00013 1.00117 0.993009
1.00008 1.00136 0.992945
1.00034 1.00065 0.993073
1.00033 1.00081 0.993005
0.999725 1.00165 0.993393
0.999766 1.00164 0.993275
1.00022 1.00114 0.99285
1.00007 1.00163 0.992758
1.00046 1.00034 0.993131
1.00036 1.0008 0.993001
0.999755 1.00155 0.993369
1.0001 1.00122 0.993073
1.00011 1.00131 0.992881
1.00029 1.00107 0.992791
0.999913 0.99898 0.995611
1.00002 1.00005 0.994341
1.00014 1.00061 0.993581
1.00028 1.00077 0.993167
1.00037 1.00083 0.992835
1.00036 1.00062 0.993079
1.0003 1.0007 0.993104
1.00038 1.0004 0.993248
1.00004 0.999792 0.994549
1.0001 1.00033 0.993838
0.999988 0.998692 0.995741
1.00005 0.999747 0.994487
0.999898 1.00154 0.993135
1.00029 1.00115 0.992761
1.00016 1.00138 0.992698
1.00038 1.00095 0.992707
1.00002 0.999899 0.994476
1.0001 1.00053 0.993673
1.00022 1.00085 0.993158
1.00036 1.00071 0.993016
1.0004 1.00076 0.992852
1.00035 1.00067 0.99308
1.0004 1.00045 0.99317
1.00042 1.00021 0.993366
1.00011 1.00033 0.993884
1.00015 1.00062 0.993527
1.00009 1.00039 0.993901
1 0.998658 0.995659
1.00005 0.99972 0.994491
0.999928 1.00158 0.993
1.00032 1.00116 0.992624
1.00041 1.00089 0.992725
1.00042 1.00054 0.99305
1.0001 1.00041 0.99382
1.00046 1.00006 0.993435
1.00014 1.00084 0.993255
1.00028 1.00098 0.992914
1.00041 1.00051 0.993087
1.00002 0.998631 0.995578
1.00006 0.999696 0.994661
1.00009 1.00041 0.993879
1.00015 1.00062 0.993507
1.00015 1.00075 0.993422
1.00018 1.00078 0.99329
0.99991 0.996987 0.997569
0.999973 0.998602 0.995857
1.00043 1.00057 0.992993
1.00002 0.999685 0.994705
0.999987 0.999813 0.994629
1.00005 1.00039 0.993897
1.00027 1.00068 0.993194
1.00048 1.00058 0.992862
1 1.00063 0.993789
1.00012 1.00101 0.99318
1.00024 1.00072 0.993281
0.999998 0.998534 0.995876
1.00004 0.999605 0.994738
1.00004 1.00047 0.993875
1.00006 1.00034 0.99398
1.00007 1.00076 0.993544
1.00054 1.00031 0.993024
1.00036 1.00071 0.992991
1.00048 1.00016 0.993248
1.00003 1.00112 0.993218
1.00024 1.00111 0.99286
1.00006 0.999543 0.994754
1.00009 1.00027 0.993918
1.00005 1.00095 0.993382
1.00008 1.00073 0.993483
1.00011 1.00093 0.993293
1.00063 0.999629 0.993534
1.00036 1.0008 0.992946
1.00051 0.999956 0.993298
1.00012 1.00135 0.992937
1.00023 1.0013 0.992599
1.00002 0.99848 0.995887
1.00007 0.999511 0.994715
1.0001 1.0002 0.993955
1.00008 0.999476 0.994682
1.00009 0.999449 0.994786
1.0001 1.00017 0.994073
1.00011 1.00066 0.993629
1.00011 1.00015 0.993998
1.0001 0.999455 0.994761
1.00008 0.998413 0.995824
1.00007 0.998403 0.995857
1.00001 0.996769 0.99792
1.00005 0.998407 0.995885
0.99999 0.996815 0.997934
0.999957 0.995886 0.998739
0.999963 0.996879 0.997942
0.999927 0.995912 0.998745
0.999887 0.995952 0.999469
0.999953 0.996972 0.997496
0.999925 0.997052 0.997479
0.999867 0.996095 0.999447
0.999894 0.997122 0.997479
0.999824 0.996176 0.999446
0.99978 0.996251 0.999445
1.00034 1.00066 0.993072
1.00013 1.00117 0.993007
1.00032 1.00082 0.992992
1.00009 1.0014 0.9929
0.999749 1.00153 0.993404
0.999632 1.00166 0.993544
0.999711 1.00165 0.993409
0.999789 1.00161 0.993276
1.00021 1.00113 0.992865
1.00007 1.00171 0.99265
1.00045 1.00034 0.993145
1.00037 1.0008 0.992947
0.999652 1.00166 0.993499
0.999783 1.00181 0.993066
1.00016 1.0015 0.992625
1.0005 1.0001 0.993398
0.999892 1.00154 0.993143
1.00027 1.00115 0.992774
1.0002 1.0014 0.992645
1.00039 1.00096 0.992713
1.00003 0.999893 0.994475
1.0001 1.00053 0.993715
1.00022 1.00087 0.993151
1.00036 1.00072 0.993019
1.0004 1.00077 0.992845
1.0004 1.00045 0.99317
1.00035 1.00068 0.993068
1.00041 1.00016 0.993414
1.00011 1.00033 0.993884
1.00016 1.00061 0.993484
1.00009 1.00039 0.993897
1.00001 0.998657 0.99558
1.00005 0.999722 0.994493
0.999971 1.00158 0.992929
1.00032 1.00117 0.992649
1.0004 1.00088 0.99274
1.0001 1.00041 0.993819
1.00015 1.00083 0.993307
1.00027 1.001 0.992903
1.00042 1.00056 0.993029
1.0004 1.00047 0.993136
1.00045 1.00008 0.993436
1.00002 0.998628 0.995582
1.00015 1.00063 0.993504
1.00019 1.00076 0.993297
1.00014 1.00075 0.993449
1.00009 1.00042 0.993909
1.00006 0.999693 0.994582
1.00006 1.00148 0.992882
1.00032 1.00122 0.992602
1.00043 1.00066 0.99291
1.00049 1.0001 0.993325
1.00014 1.00073 0.993418
1.00051 1.00002 0.993365
1.00019 1.00111 0.992914
1.00033 1.00101 0.992778
1.00004 0.998536 0.995632
1.00006 0.999719 0.99463
1.00009 1.00039 0.993967
1.00012 1.00086 0.993324
1.00018 1.00086 0.993181
1.0002 1.00094 0.9931
0.999998 0.998532 0.995876
1.00004 0.999605 0.994737
1.00052 1.00034 0.993023
1.00006 1.00035 0.993978
1.00003 1.00047 0.993908
1.00007 1.00078 0.993495
1.00036 1.00071 0.992975
1.00048 1.00013 0.993281
1.00002 1.00113 0.993193
1.00024 1.00113 0.992827
1.00006 0.999542 0.994755
1.00009 1.00027 0.993953
1.00005 1.00093 0.993438
1.00008 1.00074 0.993513
1.0001 1.00094 0.993292
1.00063 0.999632 0.993552
1.00038 1.00076 0.992943
1.00048 0.999956 0.993427
1.0001 1.00136 0.992911
1.00025 1.00137 0.99251
1.00011 1.00023 0.993924
1.0001 1.00076 0.99341
1.00008 1.0012 0.99308
1.00011 1.00099 0.993151
1.00057 0.999844 0.993553
1.0007 0.999337 0.993699
1.00038 1.00094 0.992716
1.00014 1.00157 0.992518
1.00007 0.999513 0.994767
1.0001 1.00021 0.994005
1.00011 1.00069 0.993554
1.00009 0.999448 0.994787
1.00011 1.00017 0.993985
1.0001 0.999455 0.994762
1.00011 1.00066 0.993569
1.00011 1.00015 0.994034
1.00012 1.00096 0.993272
1.00011 1.00064 0.99352
1.00012 1.00014 0.993993
1.00011 0.999483 0.99472
1.00009 0.998426 0.995793
1.00008 0.998415 0.995823
1.00003 0.996753 0.9979
1.00007 0.998404 0.995857
1.00001 0.996787 0.997917
0.999985 0.995841 0.998726
0.99999 0.996833 0.997932
0.999958 0.995853 0.99874
0.999929 0.995876 0.998745
0.999982 0.996885 0.997521
0.999954 0.996978 0.997494
0.999903 0.995996 0.999452
0.999926 0.997057 0.997479
0.999862 0.996088 0.999446
0.999819 0.996163 0.999447
1.00045 1.00035 0.993159
1.0002 1.00111 0.99288
1.00037 1.0008 0.992893
1.00007 1.00178 0.992541
0.999812 1.00157 0.993277
0.999696 1.00165 0.993424
0.999702 1.00165 0.993418
0.99982 1.00177 0.993056
1.00013 1.00145 0.992694
1.00049 1.0001 0.993346
0.999745 1.00164 0.993316
0.999756 1.002 0.992889
1.00029 1.0008 0.993071
1.00001 1.00158 0.992858
1.00031 1.00117 0.992674
1.0004 1.00088 0.992755
1.0001 1.00041 0.993819
1.00016 1.00083 0.993359
1.00026 1.00103 0.992893
1.00042 1.00058 0.993008
1.00044 1.0001 0.993437
1.0004 1.00044 0.993184
1.00015 1.00063 0.993501
1.00019 1.00073 0.993304
1.00014 1.00074 0.993477
1.00002 0.998626 0.995586
1.00009 1.00042 0.993939
1.00006 0.99969 0.994502
1.00002 1.00148 0.992968
1.00034 1.00117 0.992577
1.00043 1.00069 0.992881
1.00015 1.00073 0.993417
1.00018 1.0011 0.992948
1.00032 1.00098 0.992817
1.00049 1.00008 0.993369
1.00051 1.00004 0.993352
1.00004 0.998533 0.995718
1.00006 0.999726 0.994629
1.00018 1.00086 0.993194
1.0002 1.00094 0.993108
1.00012 1.00085 0.993348
1.00009 1.00039 0.993928
1.00001 1.00138 0.993068
1.00037 1.00124 0.992496
1.00048 1.0001 0.993357
1.00059 0.999655 0.993613
1.00016 1.00102 0.99305
1.00043 1.00064 0.992949
1.00023 1.00128 0.992732
1.00006 0.998455 0.99583
1.0001 0.999508 0.994707
1.00006 0.999642 0.994536
1.00009 1.00047 0.993838
1.00012 1.00086 0.993342
1.00016 1.00111 0.993016
1.00018 1.00104 0.993039
1.00019 1.0012 0.992912
1.00006 0.999541 0.994755
1.00008 1.00028 0.993988
1.00063 0.999635 0.99357
1.00008 1.00075 0.993542
1.00004 1.00092 0.993494
1.00009 1.00095 0.993292
1.0004 1.00073 0.99294
1.00044 0.999956 0.993555
1.00009 1.00136 0.992886
1.00027 1.00144 0.992421
1.0001 1.00023 0.993921
1.0001 1.00076 0.993453
1.00008 1.00119 0.993118
1.00012 1.001 0.99318
1.00057 0.999815 0.993511
1.00064 0.999424 0.993667
1.0004 1.00092 0.992762
1.00016 1.00158 0.992497
1.00011 1.00075 0.993504
1.00015 1.00075 0.993378
1.00013 1.00112 0.993122
1.00014 1.00134 0.992832
1.00082 0.998945 0.994045
1.00057 1.00038 0.992815
1.00021 1.00167 0.992372
1.0001 1.00021 0.994054
1.0001 1.0007 0.993554
1.00011 1.00101 0.993227
1.0001 0.999455 0.994762
1.00011 1.00015 0.994069
1.00011 1.00066 0.99351
1.00011 0.999486 0.994719
1.00012 1.00014 0.993996
1.00012 1.00096 0.993236
1.00011 1.00064 0.993581
1.00014 1.00111 0.993071
1.00014 1.00096 0.99318
1.00012 1.0006 0.993608
1.00012 1.00018 0.994008
1.00011 0.999524 0.99467
1.00009 0.998442 0.99577
1.00009 0.998429 0.995792
1.00004 0.996741 0.997884
1.00008 0.998417 0.995822
1.00003 0.99677 0.997898
1.00001 0.995805 0.998714
1.00001 0.996805 0.997913
0.999985 0.995809 0.998728
0.999959 0.99582 0.998741
1.00007 0.998411 0.995852
1.00001 0.996819 0.997536
0.999984 0.996891 0.99752
0.999936 0.995908 0.999457
0.999955 0.996984 0.997493
0.999897 0.995995 0.99945
0.999856 0.996081 0.999446
1.00048 1.00011 0.993295
1.0001 1.00141 0.992763
0.999856 1.00174 0.993046
0.99975 1.00165 0.993336
0.999731 1.00164 0.993373
0.999756 1.00206 0.992873
1.00027 1.00075 0.993157
0.999737 1.00177 0.993225
0.999844 1.00171 0.992973
0.999822 1.00079 0.994222
0.999965 1.00147 0.993054
1.00036 1.00114 0.992553
1.00042 1.00073 0.992851
1.00015 1.00073 0.993415
1.00018 1.0011 0.992983
1.00031 1.00095 0.992856
1.00049 1.00007 0.993412
1.0005 1.00006 0.993339
1.00018 1.00085 0.993208
1.0002 1.00094 0.993115
1.00012 1.00084 0.993371
1.00004 0.998532 0.995803
1.00006 0.999732 0.994627
1.0001 1.00039 0.993889
1.00002 1.0014 0.992978
1.00006 0.998457 0.995829
1.0001 0.999503 0.994662
1.00037 1.00118 0.99253
1.00047 1.00019 0.993278
1.00016 1.00101 0.993072
1.00022 1.00128 0.992724
1.00043 1.0006 0.992957
1.00059 0.999642 0.993615
1.00006 0.999642 0.994675
1.00008 1.00047 0.993833
1.00018 1.00104 0.99304
1.00019 1.00117 0.992908
1.00017 1.00112 0.992975
1.00012 1.00085 0.99335
1.00006 1.00203 0.992365
1.00039 1.00082 0.992859
1.00061 0.999241 0.993953
1.00056 1.00002 0.993292
1.00017 1.00122 0.992879
1.00028 1.00128 0.992642
1.0001 0.999443 0.994661
1.00009 0.999535 0.994694
1.00012 1.00022 0.994068
1.00007 1.00048 0.993728
1.00011 1.0009 0.99337
1.00016 1.00123 0.992834
1.00017 1.00143 0.992723
1.00016 1.00124 0.992864
1.0001 1.00024 0.993919
1.0001 1.00075 0.993497
1.00056 0.999784 0.993468
1.00059 0.999508 0.993634
1.00013 1.00101 0.993208
1.00008 1.00118 0.993155
1.00043 1.0009 0.992807
1.00018 1.00159 0.992476
1.00011 1.00074 0.993501
1.00004 1.00063 0.993656
1.00013 1.0011 0.99311
1.00015 1.00134 0.992797
1.00073 0.999008 0.993985
1.00062 1.00038 0.992845
1.00021 1.00171 0.992347
1.00011 1.00112 0.993132
1.00036 0.999378 0.994344
1.00019 1.0013 0.992847
1.0002 1.00172 0.992429
1.001 0.99936 0.99292
1.0003 1.0016 0.99214
1.0025 0.996681 0.992147
1.0001 1.0007 0.993553
1.0001 1.00102 0.993225
1.00013 1.00119 0.993029
1.00011 0.999489 0.994718
1.00012 1.00014 0.994
1.00011 1.00064 0.993643
1.00012 1.00097 0.993199
1.00011 0.999529 0.994668
1.00012 1.00018 0.993977
1.00013 1.0011 0.993071
1.00012 1.0006 0.993606
1.00013 1.00096 0.993223
1.00015 1.00114 0.992984
1.00013 1.00093 0.993279
1.00013 1.00063 0.993603
1.00012 1.00025 0.99387
1.00011 0.999562 0.994523
1.00011 1.00028 0.99403
1.00011 0.999583 0.994524
1.00009 0.99846 0.995755
1.00009 0.998444 0.995769
1.00006 0.996753 0.997499
1.00009 0.998432 0.995791
1.00005 0.996757 0.997696
1 0.99575 0.999453
1.00003 0.996787 0.997895
1.00001 0.995776 0.998716
0.999984 0.995778 0.99873
1.00007 0.998353 0.995898
1.00007 0.998412 0.995852
1.00003 0.996765 0.997554
1.00001 0.996822 0.99772
0.999964 0.995838 0.99946
0.999985 0.996897 0.997518
0.999931 0.995907 0.999456
0.999892 0.995994 0.999448
1.00024 1.0007 0.993244
0.999756 1.00211 0.992857
0.999718 1.00163 0.993431
0.999741 1.00176 0.993237
0.999854 1.00175 0.992969
0.999518 1.00096 0.994556
0.999788 1.0019 0.993084
1.00078 0.997967 0.99556
0.999035 1.00057 0.995637
1.00011 0.999342 0.99486
1.00004 1.00141 0.992888
1.00037 1.00113 0.992564
1.00046 1.00028 0.993198
1.00016 1.00099 0.993093
1.00022 1.00128 0.992717
1.00042 1.00055 0.992965
1.00059 0.99963 0.993618
1.00019 1.00104 0.993041
1.00019 1.00113 0.992904
1.00017 1.00112 0.992935
1.00006 0.998459 0.995829
1.00012 1.00084 0.993357
1.00007 0.999641 0.994813
1.00008 1.00048 0.993829
1.0001 0.999498 0.994616
1.00011 1.00197 0.992254
1.0001 0.999432 0.994728
1.00009 0.99954 0.994693
1.00012 1.00024 0.993984
1.00037 1.00083 0.992867
1.00061 0.999343 0.993847
1.00017 1.00121 0.992882
1.00026 1.00126 0.992652
1.00055 0.999993 0.993299
1.00007 1.00047 0.993787
1.00012 1.0009 0.993347
1.00016 1.00125 0.992866
1.00017 1.00137 0.992759
1.00016 1.00124 0.992872
1.00012 1.00239 0.991881
1.00053 0.999484 0.993852
1.00072 0.999253 0.993699
1.00038 1.00098 0.992773
1.00015 1.00138 0.992753
1.00011 1.00017 0.993936
1.0001 1.00032 0.993803
1.00008 1.00078 0.993507
1.0001 1.00108 0.993189
1.00015 1.00116 0.992938
1.00015 1.00164 0.992544
1.00015 1.0015 0.992623
1.0001 1.00074 0.993499
1.00013 1.00108 0.993097
0.999935 1.0005 0.993933
1.00064 0.999072 0.993924
1.00068 1.00039 0.992875
1.00015 1.00134 0.992762
1.00022 1.00176 0.992321
1.00011 1.00111 0.993154
1.00026 0.999296 0.994452
1.00018 1.00128 0.992834
1.00017 1.00172 0.992416
1.001 0.999314 0.9931
1.00032 1.00169 0.992094
1.00283 0.996777 0.992311
1.00014 1.0013 0.992889
1.00125 0.998732 0.992687
1.00016 1.00155 0.992622
1.00013 1.00231 0.991899
1.00075 1.00124 0.991451
0.996232 0.998515 0.987416
1.00189 0.999429 0.991917
1.00256 0.998033 0.990491
0.995391 0.992488 1.00617
1.00786 0.981658 1.00425
1.0001 1.00102 0.993224
1.00012 1.00118 0.993039
1.00012 1.00127 0.992934
1.00011 0.999534 0.994666
1.00012 1.00018 0.993946
1.00012 1.0006 0.993604
1.00013 1.00096 0.993265
1.00013 1.00109 0.993071
1.00013 1.00063 0.993546
1.00011 0.999564 0.994576
1.00012 1.00024 0.99391
1.00015 1.00114 0.993007
1.00014 1.00092 0.993263
1.00014 1.0009 0.993277
1.00016 1.00113 0.992997
1.00014 1.0007 0.993407
1.00012 1.00032 0.993798
1.00011 0.999582 0.994511
1.00011 1.00031 0.993931
1.00012 1.00074 0.993513
1.00011 1.0003 0.993919
1.00011 1.00028 0.993944
1.0001 0.999582 0.994637
1.00011 0.999583 0.994523
1.00009 0.998479 0.995747
1.00009 0.998459 0.995756
1.00006 0.996778 0.997489
1.00009 0.998445 0.995769
1.00006 0.996754 0.997498
1.00001 0.99574 0.999452
1.00005 0.996773 0.997507
1.00001 0.995749 0.99908
1.00001 0.995746 0.998717
1.00008 0.998277 0.995957
1.00007 0.998355 0.995898
1.00004 0.99671 0.997587
1.00007 0.998414 0.995852
1.00002 0.996762 0.997737
0.999985 0.995779 0.999465
1.00001 0.996822 0.997535
0.999957 0.99585 0.999459
0.999926 0.995905 0.999454
0.999866 1.00178 0.992964
0.999746 1.00175 0.993248
0.999215 1.00111 0.99489
1.00064 0.998116 0.995551
0.99971 1.00191 0.993122
0.999103 1.00095 0.995192
0.999377 1.00264 0.992895
1.00019 0.998679 0.992177
0.99909 1.00141 0.995702
1.00011 0.999278 0.994932
1.00011 0.999345 0.994858
1.00012 1.00008 0.9941
1.0001 0.999933 0.994281
1.00016 1.00192 0.992144
1.00036 1.00085 0.992876
1.00061 0.999448 0.99374
1.00018 1.0012 0.992885
1.00024 1.00124 0.992662
1.00055 0.999968 0.993307
1.00016 1.00125 0.992869
1.00017 1.00131 0.992796
1.00015 1.00125 0.992911
1.00009 0.999545 0.994692
1.00013 1.00091 0.993324
1.00007 1.00046 0.993846
1.0001 0.999422 0.994795
1.00012 1.00025 0.9939
1.00015 1.00225 0.991948
1.00011 1.00018 0.994025
1.00011 1.00032 0.993854
1.00008 1.0007 0.993565
1.00051 0.999628 0.99381
1.00072 0.999228 0.993688
1.00016 1.00139 0.992748
1.00034 1.00095 0.992812
1.0001 1.00109 0.993214
1.00016 1.00113 0.992968
1.00016 1.00151 0.992623
1.00015 1.00163 0.992562
1.00017 1.0013 0.992836
1.00086 0.998381 0.994384
1.00056 1.00038 0.992885
1.00018 1.00147 0.992624
1.00008 1.00093 0.993333
1.0001 1.00097 0.993233
1.00012 1.00159 0.99259
1.00015 1.00194 0.99224
0.994774 0.995944 0.992178
1.00011 1.00109 0.993177
1.00017 1.00126 0.992821
1.00017 0.999215 0.994561
1.001 0.999265 0.993281
1.00034 1.00178 0.992048
1.00015 1.00172 0.992403
1.00315 0.99688 0.992475
1.00013 1.00129 0.992915
1.00128 0.998848 0.992747
1.00015 1.00152 0.992637
1.00013 1.00228 0.991904
1.00078 1.00112 0.991646
0.995013 0.997849 0.990822
1.00207 0.998728 0.989246
1.00281 0.998253 0.990313
0.995927 0.993094 1.00391
1.00804 0.981658 1.00438
1.00009 1.00144 0.992847
0.99565 0.993312 1.00169
1.00573 0.98807 1.00283
1.00116 1.0008 0.990868
1.00003 1.0021 0.992353
1.0001 1.00329 0.991
1.00146 1.00208 0.989323
0.996708 1.00179 0.983019
1.0021 0.999972 0.988269
0.998075 0.992058 1.00439
1.01122 0.985509 0.995464
1.00011 1.00118 0.99305
1.00013 1.00127 0.992932
1.00011 1.00135 0.992882
1.00011 0.999566 0.99463
1.00012 1.00024 0.993949
1.00013 1.00063 0.993489
1.00014 1.00092 0.993246
1.00015 1.00113 0.99303
1.00011 0.999581 0.994511
1.00014 1.00088 0.993271
1.00014 1.0007 0.993468
1.00012 1.00032 0.993857
1.00017 1.00114 0.992974
1.00017 1.00099 0.993077
1.00019 1.00119 0.992883
1.00014 1.00081 0.993365
1.00012 1.00033 0.993899
1.00011 1.00031 0.99393
1.00013 1.00074 0.993458
1.00013 1.00078 0.993417
1.00012 1.00078 0.993421
1.00012 1.00103 0.993181
1.00011 1.00087 0.993329
1.0001 1.00034 0.993876
1.00011 1.0003 0.993919
1.00009 0.999588 0.994639
1.00011 1.00028 0.993859
1.0001 0.999581 0.994587
1.00008 0.9985 0.995746
1.00011 0.999582 0.994521
1.00009 0.998478 0.995748
1.00004 0.996803 0.997857
1.00009 0.998459 0.995756
1.00005 0.996772 0.997676
1.00003 0.995745 0.998696
1.00006 0.996756 0.997498
1.00001 0.995738 0.999451
1.00002 0.995748 0.998707
1.00011 0.999289 0.994923
1.00008 0.998233 0.995998
1.00008 0.998282 0.995956
1.00004 0.996661 0.997622
1.00007 0.998357 0.995897
1.00004 0.996707 0.997588
0.999999 0.995726 0.999473
1.00002 0.99676 0.997915
0.999988 0.995795 0.999094
0.999969 0.995866 0.998721
1.00049 0.998264 0.995543
0.999629 1.00192 0.99316
0.999172 1.00133 0.994748
1.00024 0.998915 0.993659
0.998955 1.0015 0.995686
0.999554 1.00261 0.992583
0.999526 1.00373 0.992241
0.999095 1.00127 0.992276
0.996191 0.997447 0.985255
0.99636 0.99213 1.00296
1.0057 0.98453 1.00455
1.0001 0.999996 0.99413
1.00011 0.99928 0.994929
1.00011 0.999349 0.994855
1.00012 1.00008 0.994084
1.0001 1.00062 0.993665
1.00011 1.00041 0.993815
1.00009 1.00006 0.994213
1.0001 0.999963 0.994239
1.00019 1.00211 0.992014
1.00049 0.999776 0.993768
1.00072 0.999205 0.993677
1.00016 1.0014 0.992742
1.00031 1.00091 0.99285
1.00016 1.00151 0.992623
1.00014 1.00162 0.992579
1.00016 1.00111 0.992998
1.00011 1.00032 0.993906
1.00009 1.0011 0.993238
1.00011 1.00019 0.994114
1.00008 1.00062 0.993623
1.00016 1.00135 0.992843
1.00008 1.00091 0.993352
1.0001 1.00098 0.993276
1.00084 0.998429 0.994352
1.00056 1.00031 0.992929
1.0002 1.00149 0.99255
1.00012 1.00159 0.99261
1.00015 1.00189 0.992261
1.00104 0.998347 0.99391
1.00077 0.999769 0.993279
1.00035 1.00125 0.992356
1.00023 1.00205 0.991988
1.00008 1.00144 0.992839
1.00009 1.00155 0.99273
1.00011 1.00221 0.992131
0.994139 0.991938 1.0107
0.996022 0.99775 0.989118
1.00012 1.00129 0.992941
1.00014 1.00148 0.992653
1.00131 0.998957 0.992807
1.00082 1.001 0.991842
1.00014 1.00224 0.991909
0.996392 0.997146 0.985089
1.002 0.999321 0.992282
1.00305 0.998479 0.990135
0.996195 0.992557 1.00224
1.00818 0.981733 1.00452
1.00009 1.00142 0.992849
0.994494 0.992321 1.00985
1.00558 0.988666 1.00257
1.00126 1.00081 0.990879
1.00002 1.00204 0.992389
1.00005 1.00316 0.991121
1.00139 1.00226 0.989274
0.996037 1.0011 0.982211
1.0019 0.999645 0.99218
0.999297 0.991327 0.997851
1.01082 0.98303 0.997719
1.00002 1.00165 0.992793
1.00539 0.994527 0.996801
1.01233 0.993509 0.98741
0.999914 1.00402 0.990286
0.999673 1.0032 0.992026
1.00006 1.00446 0.991549
1.00077 1.00225 0.992463
0.996326 1.00346 0.982441
1.0023 0.98976 0.99411
1.01286 0.99119 0.987559
1.00013 1.00127 0.99293
1.00012 1.00135 0.99288
1.0001 1.00146 0.99277
1.00011 0.999581 0.994511
1.00012 1.00031 0.993916
1.00014 1.0007 0.993529
1.00015 1.00086 0.993265
1.00017 1.00115 0.992951
1.00012 1.00033 0.993898
1.00017 1.00098 0.993117
1.00014 1.00081 0.993367
1.00019 1.00121 0.992872
1.00018 1.00127 0.992825
1.00018 1.0011 0.992988
1.00013 1.00083 0.993354
1.00011 1.00031 0.993929
1.00013 1.00075 0.993403
1.00013 1.00078 0.993413
1.00012 1.00078 0.993417
1.00012 1.001 0.993197
1.0001 1.00087 0.993354
1.00013 1.00111 0.993085
1.00012 1.00111 0.993046
1.00015 1.00105 0.993074
1.0001 1.00093 0.99328
1.00012 1.00078 0.993368
1.00012 1.00087 0.993331
1.0001 1.00038 0.993852
1.0001 1.00035 0.993874
1.00009 0.999606 0.994634
1.00011 1.0003 0.993918
1.0001 0.99959 0.994638
1.00007 0.998516 0.995751
1.0001 0.999579 0.994537
1.00008 0.9985 0.995746
1.00003 0.996838 0.997853
1.00009 0.998477 0.995749
1.00005 0.996798 0.997667
1.00002 0.995741 0.99869
1.00006 0.996767 0.997487
1.00001 0.995745 0.999449
1.00001 0.995737 0.999451
1.0001 0.99935 0.995028
1.00008 0.998248 0.995989
1.00011 0.999284 0.994923
1.00005 0.99664 0.99764
1.00008 0.998236 0.995997
1.00008 0.998286 0.995954
1.00004 0.996666 0.99762
1.00001 0.995689 0.99948
1.00003 0.996705 0.997946
1 0.995729 0.999108
0.999996 0.995814 0.998729
0.994076 0.992941 1.0079
1.00505 0.989871 0.998971
1.0001 1.0003 0.994315
0.998819 1.00161 0.99567
0.999731 1.00259 0.992271
0.998994 1.00219 0.994976
0.999648 1.00333 0.992283
0.995563 0.998072 0.989347
0.995282 0.992945 1.00765
1.00677 0.98351 1.00438
1.00007 1.00276 0.992367
0.996487 1.00067 0.984044
0.997667 0.9919 1.00514
1.01086 0.984549 0.998476
1.00008 1.00075 0.993481
1.0001 1 0.994179
1.00011 0.999281 0.994926
1.00011 1.00008 0.994067
1.00009 1.00054 0.993729
1.0001 1.00061 0.993668
1.00011 1.00037 0.993849
1.00008 1.00024 0.994042
1.00009 1.00007 0.994156
1.00009 0.999992 0.994197
1.00015 1.00139 0.992849
1.00083 0.998468 0.99432
1.00056 1.00023 0.992972
1.00022 1.00151 0.992475
1.00016 1.00184 0.992281
1.00012 1.00159 0.99263
1.00009 1.00099 0.99332
1.00009 1.0009 0.99337
1.00089 0.998601 0.993855
1.00007 1.00147 0.992804
1.00009 1.00157 0.992677
1.00075 0.999522 0.993456
1.0004 1.00134 0.992224
1.0002 1.00205 0.991988
1.00011 1.00219 0.992088
1.0018 0.997395 0.99329
1.00032 1.00208 0.991802
1.00014 1.00258 0.991585
1.00007 1.00146 0.992803
1.00008 1.00183 0.992501
1.00009 1.00206 0.99224
1.00543 0.995715 0.995287
0.995377 0.992706 1.00393
0.994708 0.996138 0.991791
1.00009 1.00141 0.992851
1.00001 1.00197 0.992424
1.00136 1.00082 0.990889
0.999993 1.00303 0.991243
0.995555 0.991995 1.00463
0.995352 1.00051 0.989542
1.00227 0.999372 0.988437
1.00135 1.00247 0.989227
0.998761 0.991409 1.00282
1.00548 0.989042 1.00336
1.0103 0.984125 0.998244
1.00001 1.00165 0.992797
1.00522 0.994421 0.99737
1.01204 0.993514 0.987513
1 1.00394 0.990197
0.999652 1.00313 0.992028
1.00009 1.00465 0.990295
1.00091 1.00199 0.988981
0.996847 1.00302 0.980293
1.00132 0.991959 0.998803
1.01248 0.990398 0.988771
0.99979 1.00218 0.992637
1.01307 0.998777 0.98239
1.01557 0.994838 0.980591
0.998971 1.00408 0.992382
0.998885 1.00444 0.993257
0.997161 1.00209 0.982116
1.00623 0.989102 0.992017
1.01254 0.99259 0.986545
1.00012 1.00134 0.992878
1.00011 1.00147 0.99278
1.00014 1.00154 0.992588
1.00012 1.00033 0.993898
1.00014 1.00081 0.993368
1.00016 1.00097 0.993157
1.00019 1.00123 0.992861
1.00014 1.00083 0.993353
1.00018 1.00111 0.992985
1.00018 1.00126 0.992826
1.00011 1.00132 0.992902
1.0002 1.00127 0.992775
1.00016 1.00116 0.993001
1.00013 1.00078 0.993409
1.00012 1.00079 0.993414
1.00012 1.00098 0.993212
1.00013 1.00109 0.993106
1.0001 1.00087 0.993356
1.00012 1.00111 0.993062
1.00013 1.00117 0.992987
1.0001 1.00134 0.992901
1.00016 1.00123 0.992897
1.00016 1.00105 0.993069
1.00014 1.00104 0.993098
1.00013 1.00105 0.993131
1.00011 1.00064 0.99363
1.0001 1.00089 0.993334
1.00012 1.00078 0.993418
1.0001 1.00035 0.993826
1.00012 1.00087 0.993333
1.0001 1.00038 0.993853
1.00007 0.99964 0.99463
1.0001 1.00036 0.993871
1.00009 0.999612 0.994631
1.00005 0.998533 0.995765
1.0001 0.999591 0.994636
1.00007 0.998518 0.995751
1.00001 0.996876 0.997855
1.00008 0.9985 0.995746
1.00003 0.996831 0.997663
1.00001 0.995779 0.998687
1.00005 0.996792 0.997478
1.00001 0.995756 0.999069
1.00001 0.995746 0.999448
1.00008 0.999475 0.994841
1.00008 0.998287 0.995962
1.00009 0.999351 0.994903
1.00004 0.996653 0.997633
1.00008 0.998243 0.995991
1.00011 0.99928 0.994922
1.00001 0.995676 0.999483
1.00005 0.996642 0.997639
1.00008 0.998239 0.995996
1.00004 0.996671 0.997618
1.00001 0.995691 0.999479
0.999997 0.995729 0.999471
1.0052 0.994724 0.994198
0.994684 0.992761 1.0067
1.0119 0.992863 0.988152
1.00555 0.989157 0.999944
0.998791 1.00086 0.992842
0.999774 1.00292 0.992325
0.994932 0.998579 0.993523
0.996052 0.992632 1.00232
1.00779 0.982715 1.00421
1.0002 1.00151 0.992016
0.995616 1.00102 0.986056
0.998517 0.991451 0.999077
1.01057 0.983231 0.999621
1.00114 1.00112 0.991578
0.995926 1.00301 0.982462
1.00202 0.990485 0.999946
1.01246 0.991004 0.98877
1.00009 1.00111 0.993157
1.00009 1.00071 0.993558
1.00011 1.00001 0.994228
1.00009 1.00046 0.993793
1.00011 1.0008 0.993406
1.00011 1.00057 0.993703
1.00011 1.00032 0.993882
1.00008 1.00033 0.994031
1.00009 1.00023 0.994092
1.00009 1.00008 0.994099
1.00075 0.998868 0.9938
1.00072 0.999275 0.993634
1.00045 1.00143 0.992093
1.00018 1.00205 0.991989
1.00012 1.00218 0.992046
1.00009 1.0016 0.992624
1.00006 1.00151 0.992769
1.00007 1.00148 0.992799
1.00153 0.997711 0.993234
1.00007 1.00182 0.992515
1.00009 1.00211 0.992212
1.00029 1.002 0.991911
1.00014 1.00256 0.991588
1.00128 0.999983 0.99193
0.999919 1.00337 0.991293
1.00011 1.00243 0.991764
1.00008 1.00171 0.992577
1.00011 1.00195 0.992274
1.0135 1.00075 0.979216
1.00535 0.996643 0.993495
0.994176 0.993146 1.00739
0.999997 1.00166 0.992801
0.999632 1.00306 0.99203
1.00009 1.00385 0.990108
1.00506 0.995069 0.994675
0.995927 1.00291 0.981998
1.00088 1.00163 0.992517
1.00012 1.00479 0.989042
1.00114 0.991073 0.995834
1.01173 0.993521 0.987616
1.01215 0.991467 0.987638
0.999798 1.00215 0.992704
1.01299 0.999236 0.981108
1.01563 0.994679 0.980327
0.999062 1.00421 0.992082
0.999049 1.00446 0.992693
0.997069 1.00245 0.982056
1.01308 0.993122 0.98579
1.00459 0.99304 0.990519
0.999731 1.0023 0.992473
1.01748 0.996725 0.97516
1.01647 0.993191 0.980349
1.01272 0.988912 0.990378
0.998938 1.00288 0.993597
0.99612 1.00151 0.985923
1.00701 0.991638 0.987181
1.00012 1.00149 0.992789
1.00014 1.00156 0.992604
1.00012 1.00148 0.992695
1.00014 1.00083 0.993353
1.00018 1.00113 0.992981
1.00018 1.00127 0.992826
1.00016 1.00115 0.993009
1.00019 1.00129 0.992767
1.00013 1.00131 0.992886
1.0001 1.00132 0.99296
1.00013 1.00141 0.992769
1.00014 1.00107 0.993127
1.0001 1.00087 0.993358
1.00012 1.0011 0.993078
1.00011 1.00132 0.992905
1.00013 1.00116 0.992986
1.0001 1.00148 0.992792
1.00014 1.00117 0.99298
1.00015 1.00147 0.992609
1.00016 1.00106 0.993064
1.00015 1.00105 0.993106
1.00016 1.00131 0.992789
1.00008 1.00115 0.993117
1.00008 1.00068 0.99359
1.00011 1.00106 0.993127
1.0001 1.00027 0.993969
1.00012 1.00065 0.993585
1.0001 1.00085 0.993388
1.00012 1.00078 0.993469
1.0001 1.00034 0.993858
1.00006 0.999644 0.994646
1.0001 1.00038 0.993853
1.00007 0.99964 0.99463
1.00003 0.998565 0.995777
1.00009 0.999617 0.994629
1.00005 0.998536 0.995764
0.999985 0.996893 0.99787
1.00007 0.99852 0.995751
1.00001 0.996866 0.997669
0.999984 0.995822 0.998691
1.00004 0.996825 0.997474
0.999998 0.995795 0.999066
1 0.995772 0.999446
1.00007 0.999583 0.994591
1.00007 0.998372 0.995752
1.00008 0.999476 0.99484
1.00004 0.996685 0.997616
1.00008 0.998289 0.99588
1.00009 0.999351 0.994779
1.00001 0.995684 0.99948
1.00004 0.99665 0.997634
1.00008 0.998239 0.995993
1.00001 0.995677 0.999482
1.00005 0.996643 0.997638
1 0.995694 0.999477
1.01311 0.998272 0.981285
1.0052 0.993959 0.997454
0.995382 0.992404 1.00345
1.00011 1.00036 0.993851
1.01563 0.993565 0.98091
1.01198 0.9931 0.988295
1.00608 0.988301 1.00183
1.00044 1.00116 0.990936
0.996871 1.00197 0.982222
0.997674 0.991282 1.00476
1.01023 0.985614 0.99919
1.00162 1.00045 0.988851
0.996752 1.00295 0.980469
1.00226 0.989991 0.995493
1.01241 0.990202 0.990299
1.00122 1.00145 0.988278
0.996643 1.00224 0.977285
1.00286 0.994736 0.988393
1.01228 0.994452 0.985016
1.00013 1.00129 0.992878
1.0001 1.00114 0.993119
1.00009 1.00067 0.993634
1.00011 1.00085 0.993356
1.00011 1.00078 0.993464
1.00012 1.00054 0.993739
1.00008 1.00032 0.994044
1.00009 1.00022 0.994143
1.00126 0.99806 0.993179
1.00027 1.00193 0.992019
1.00008 1.0015 0.992795
1.00015 1.00254 0.991591
1.0001 1.00217 0.992184
1.00006 1.00182 0.992529
1.00008 1.00171 0.992566
1.00108 1.00003 0.991847
1.00011 1.00198 0.992254
1.00011 1.00248 0.991738
0.999944 1.00335 0.991301
1.0001 1.00172 0.992489
1.00024 1.00278 0.991285
0.999833 1.00341 0.991504
1.00015 1.00201 0.992126
1.00012 1.00206 0.992162
1.01803 0.99807 0.973636
1.01351 1.00036 0.979281
1.00526 0.997475 0.991703
0.999807 1.0021 0.992771
0.999156 1.00434 0.991781
1.0129 0.999622 0.979826
0.996718 1.00218 0.980161
0.999581 1.00437 0.990224
1.00316 0.992195 0.989716
1.01569 0.994507 0.980063
1.01369 0.993572 0.985035
0.999769 1.00241 0.992531
1.01739 0.996739 0.975071
1.01686 0.993427 0.979499
0.998663 1.00292 0.99424
1.01268 0.988295 0.991803
0.997063 1.00055 0.985827
1.00459 0.993502 0.987007
1.00005 1.00108 0.993237
1.01878 0.993738 0.975973
1.01596 0.992183 0.981801
1.0112 0.982995 0.999555
1.00274 0.993505 0.990112
0.998234 1.00209 0.997383
0.997354 0.998245 0.985967
1.00013 1.00158 0.992621
1.00011 1.00152 0.992666
0.999789 1.00151 0.993179
1.00016 1.00115 0.993017
1.00019 1.0013 0.99276
1.00015 1.00128 0.99287
1.00013 1.0014 0.992767
1.0001 1.00128 0.992984
1.00003 1.00196 0.992463
1.00012 1.00131 0.992908
1.00013 1.00115 0.992985
1.00011 1.00149 0.992758
1.00005 1.00193 0.992409
1.00013 1.0011 0.993063
1.00013 1.00147 0.992661
1.00017 1.00174 0.992391
1.00019 1.00142 0.992656
1.00017 1.00106 0.993113
1.00016 1.00133 0.992772
1.00009 1.00112 0.993214
1.00002 1.00085 0.993499
1.00008 1.00112 0.993161
1.00007 1.00028 0.994014
1.00009 1.00069 0.993584
1.0001 1.00106 0.993122
1.00006 0.999616 0.994686
1.0001 1.00027 0.99394
1.00012 1.00066 0.993541
1.0001 1.00034 0.993891
1.00006 0.999643 0.994648
1.00001 0.998595 0.995786
1.00007 0.99964 0.99463
1.00003 0.998567 0.995776
0.999964 0.996938 0.997507
1.00005 0.998539 0.995763
0.999992 0.996892 0.997496
0.999942 0.995872 0.99945
1.00002 0.996859 0.99748
0.999977 0.995841 0.999067
0.999984 0.995809 0.999445
1.00008 0.999618 0.994536
1.00005 0.998481 0.99567
1.00007 0.999587 0.994665
1.00003 0.996743 0.997585
1.00006 0.998378 0.995742
1.00008 0.999478 0.994838
0.999996 0.995707 0.999476
1.00004 0.99668 0.997617
1.00008 0.998291 0.995798
1.00001 0.995685 0.999481
1.00004 0.996646 0.997635
1.00001 0.995678 0.999482
1.01755 0.996565 0.975254
1.01321 0.998261 0.981226
1.00519 0.993758 0.997247
1.00011 1.00034 0.99388
1.00014 1.00029 0.993796
1.00012 1.00082 0.993417
1.01629 0.994202 0.979574
1.01568 0.994308 0.980635
1.01205 0.993268 0.988438
1.00184 1.00105 0.991477
0.996325 1.00331 0.982866
1.00201 0.990773 0.994595
1.01231 0.991221 0.990139
1.00101 1.00169 0.991665
0.996596 1.00274 0.981965
1.00586 0.99359 0.988583
1.0129 0.994801 0.984416
0.999716 1.00245 0.993693
0.996064 1.00061 0.983384
1.00747 0.993217 0.984727
1.01276 0.991046 0.987941
1.00013 1.00134 0.992832
1.00012 1.00129 0.992887
1.0001 1.00117 0.993082
1.00011 1.00086 0.993348
1.00012 1.00076 0.993522
1.00009 1.00031 0.994057
1.00089 1.00003 0.991763
0.999968 1.00333 0.99131
1.00008 1.00171 0.992554
1.00012 1.00253 0.991711
1.00011 1.00201 0.992235
1.0001 1.00178 0.992456
1.00012 1.00206 0.992124
1.00022 1.00248 0.991195
1.00014 1.00205 0.992135
0.999821 1.00337 0.991496
1.0001 1.00211 0.992054
0.99963 1.00366 0.991732
0.999943 1.00228 0.992104
1.00015 1.00243 0.991729
1.01959 0.994704 0.974085
1.01797 0.997483 0.973622
1.01352 0.99994 0.979346
0.999808 1.00252 0.992589
0.998546 1.00298 0.994735
1.01729 0.996753 0.974983
0.997229 1.00086 0.9901
1.00769 0.99051 0.987483
1.01725 0.993688 0.978649
1.01258 0.989241 0.991647
1.00004 1.00122 0.993121
1.01883 0.994038 0.975624
1.01602 0.992873 0.981532
0.998246 1.0019 0.994572
1.01087 0.981715 1.00062
1.0056 0.992085 0.990596
0.995485 0.999357 0.987552
0.999843 1.00045 0.995131
1.01759 0.995607 0.976154
1.01223 0.991598 0.988897
1.00588 0.983498 1.00517
1.00209 0.989629 1.00075
0.996228 1.00034 0.985105
0.99781 1.00248 0.994391
1.0001 1.00157 0.992637
0.99986 1.00144 0.993174
0.999554 1.00277 0.992403
1.00014 1.00139 0.992765
1.0001 1.00125 0.993008
1.00003 1.00192 0.992515
0.999949 1.0029 0.991616
1.00012 1.00151 0.992724
1.00008 1.00201 0.992337
1.00013 1.0023 0.99197
1.00012 1.00146 0.992713
1.00017 1.00174 0.992381
1.00024 1.0018 0.99226
1.00028 1.00142 0.992506
1.00012 1.00119 0.992958
1.00018 1.00144 0.992629
1.00017 1.00135 0.992754
1.00007 1.00086 0.993523
1.00007 1.00108 0.993235
1.00001 1.00044 0.993917
1.00003 1.00084 0.993558
1.00009 1.00109 0.993205
1.00003 0.999633 0.99472
1.00007 1.00027 0.994014
1.00009 1.0007 0.993577
0.999993 0.998614 0.995805
1.00006 0.999615 0.994687
1.0001 1.00026 0.99391
1.00006 0.999641 0.994649
1.00001 0.998596 0.995787
0.999933 0.996995 0.997514
1.00003 0.998568 0.995776
0.999964 0.996941 0.997508
0.999913 0.995975 0.999453
0.999994 0.996895 0.997495
0.999948 0.995887 0.999074
0.999962 0.995851 0.999447
1.00008 0.999591 0.994658
1.00004 0.998532 0.995789
1.00008 0.999624 0.994586
1.00001 0.996818 0.997545
1.00005 0.998481 0.995745
1.00007 0.999591 0.994739
0.999982 0.995754 0.999469
1.00003 0.996736 0.997587
1.00006 0.998385 0.995732
0.999999 0.99571 0.999478
1.00004 0.996676 0.997618
1.00001 0.995686 0.999482
1.0188 0.994306 0.975311
1.01756 0.996825 0.975151
1.01331 0.998401 0.981167
1.00013 1.00021 0.993884
1.00016 1.0005 0.993663
1.00012 1.00033 0.993909
1.00013 1.00029 0.993805
1.00013 1.00084 0.993359
1.00015 1.00078 0.993387
1.00014 1.0011 0.99307
1.01563 0.994186 0.981217
1.01661 0.994602 0.978742
1.01573 0.995067 0.980361
1.01359 0.995089 0.983816
1.0013 1.00195 0.988092
0.996654 1.00318 0.984996
1.00533 0.990344 0.988281
0.999617 1.00301 0.991312
0.99767 1.00027 0.982742
1.00521 0.994807 0.984523
1.01261 0.990101 0.988649
0.99832 1.00335 0.994846
0.9977 0.998519 0.983176
1.0068 0.990013 0.990857
1.0112 0.985595 0.995533
1.00011 1.00162 0.992598
1.00013 1.00138 0.992818
1.00012 1.00129 0.992897
1.00011 1.00088 0.993341
1.0002 1.00221 0.991104
0.999816 1.00332 0.991488
1.00009 1.00185 0.992424
1.00012 1.00206 0.992087
1.00014 1.00208 0.992144
1.0001 1.0021 0.992127
1.00015 1.00245 0.991711
0.999418 1.00354 0.992345
0.99996 1.00213 0.992233
1.00011 1.00246 0.991779
0.999021 1.00252 0.994829
1.00005 1.00315 0.991073
1.01816 0.997285 0.974178
1.01941 0.994481 0.974199
1.0179 0.996936 0.973607
1.00003 1.00137 0.993005
0.998207 1.00176 0.997162
1.01888 0.994351 0.975275
0.997234 0.99826 0.985586
1.00525 0.988816 0.990075
1.01608 0.993577 0.981262
1.01048 0.984009 1.00023
0.999903 1.00019 0.99502
1.01761 0.995837 0.976064
1.01231 0.991807 0.989056
0.998096 1.0023 0.997263
1.00699 0.982529 1.00495
1.00225 0.989036 0.996472
0.997086 1.00014 0.984965
0.999661 1.0017 0.994515
1.01323 0.997252 0.982111
1.00528 0.988864 0.99955
0.997588 0.991676 1.00551
0.996582 1.00199 0.981115
0.999093 1.00283 0.991509
0.99993 1.00136 0.993168
0.999587 1.00272 0.992413
0.999514 1.00389 0.99138
1.00002 1.00188 0.992566
0.99993 1.00282 0.991724
1.00012 1.0031 0.991159
1.00011 1.00209 0.992264
1.00013 1.00234 0.991906
1.00027 1.00205 0.991888
1.00016 1.00174 0.992371
1.00023 1.0018 0.992222
1.00035 1.00142 0.992352
1.00042 1.00095 0.992648
1.00024 1.00125 0.992762
1.00027 1.00143 0.992478
1.00008 1.00091 0.993295
1.00012 1.00118 0.993001
1.00017 1.00146 0.992603
1.00003 1.00053 0.993855
1.00006 1.00087 0.993477
1.00006 1.00104 0.993256
0.999992 0.999755 0.994682
1.00001 1.00042 0.993956
1.00003 1.00082 0.993616
0.999966 0.99865 0.995822
1.00004 0.999633 0.994721
1.00008 1.00027 0.994014
0.9999 0.997083 0.99752
0.999993 0.998613 0.995807
1.00006 0.999614 0.994689
1.00001 0.998596 0.995788
0.999933 0.996999 0.997515
0.999877 0.996053 0.999454
0.999965 0.996944 0.997508
0.999907 0.995968 0.999453
0.999934 0.995899 0.999451
1.00013 1.00016 0.994007
1.00008 0.99957 0.994688
1.00003 0.998552 0.995789
1.00008 0.999594 0.994656
0.99999 0.996885 0.997517
1.00004 0.998532 0.995789
1.00008 0.99963 0.994635
0.999961 0.995818 0.99946
1.00001 0.99681 0.997547
1.00005 0.998481 0.99582
0.999985 0.995755 0.999471
1.00003 0.996728 0.997589
1 0.995713 0.999479
1.0176 0.996089 0.97558
1.01887 0.994633 0.974993
1.01758 0.997083 0.975048
1.00013 1.00022 0.993921
1.00016 1.0005 0.99362
1.00014 1.00047 0.99363
1.00016 1.00059 0.99349
1.00019 1.00069 0.993419
1.00013 1.00028 0.993813
1.00013 1.00085 0.993302
1.00015 1.00077 0.993388
1.00014 1.00106 0.993091
1.00015 1.00111 0.993077
1.0123 0.993706 0.987266
1.01553 0.994176 0.980942
1.01692 0.995018 0.977911
1.01241 0.991108 0.98747
1.00799 0.992167 0.985294
0.999728 1.00336 0.989945
0.995749 1.00035 0.984684
0.997913 1.00369 0.992419
0.996236 0.999268 0.985484
1.00506 0.993696 0.988725
1.01074 0.983071 0.997851
0.997015 1.00337 0.993797
0.995688 1.00073 0.984411
1.00226 0.989925 0.994604
1.00753 0.98174 1.00516
1.00007 1.00154 0.992766
1.00011 1.00159 0.992638
1.00013 1.00141 0.992805
0.999207 1.00342 0.99296
0.999979 1.00197 0.992361
1.00009 1.00209 0.9922
1.00015 1.00247 0.991692
1.00009 1.0025 0.991805
1.00004 1.00317 0.991068
0.99902 1.0024 0.994832
0.999878 1.00301 0.991528
0.999272 1.0038 0.992897
1.01371 1.00004 0.979875
1.01809 0.996734 0.974137
1.01925 0.994254 0.974314
0.999969 0.999944 0.994909
0.997964 1.00206 0.993903
1.01763 0.996067 0.975973
0.995658 1.00034 0.982871
1.00205 0.99004 0.995275
1.01238 0.991939 0.989214
1.00803 0.981776 1.00473
0.999627 1.00153 0.994535
1.01333 0.997257 0.982046
1.00577 0.988188 1.00052
0.998596 1.00282 0.993406
0.998522 0.991259 0.999275
0.996604 1.00265 0.979693
0.999796 1.00272 0.99287
1.00536 0.993873 0.99479
0.996466 0.99201 1.00293
0.995905 1.00307 0.982366
1.00043 1.00199 0.991736
0.999619 1.00268 0.992423
0.999524 1.00387 0.991397
0.999993 1.00394 0.990848
0.999913 1.00273 0.991832
1.00009 1.00309 0.991195
1.00045 1.00189 0.991652
1.00014 1.00237 0.991841
1.00026 1.002 0.991923
1.00049 1.00097 0.992528
1.00023 1.0018 0.992185
1.00034 1.00136 0.992381
1.00054 1.00046 0.992889
1.00053 1.00038 0.992984
1.00035 1.00103 0.9927
1.00042 1.00091 0.992664
1.00017 1.00102 0.993082
1.00023 1.00128 0.992713
1.00026 1.00144 0.99245
1.00006 1.00054 0.993771
1.00009 1.00089 0.993339
1.00013 1.00116 0.993044
0.999977 0.999894 0.994573
1.00003 1.00052 0.99384
1.00006 1.00087 0.99343
0.99993 0.998745 0.995798
0.999995 0.999758 0.994681
1.00002 1.00041 0.993995
0.999856 0.997128 0.997897
0.999967 0.998652 0.995823
1.00004 0.999634 0.994722
0.99985 0.996132 0.998714
0.999895 0.997071 0.997707
0.999993 0.998612 0.995808
0.999934 0.997003 0.997515
0.999871 0.996044 0.999455
0.999901 0.995961 0.999454
1.00012 1.00015 0.993991
1.00007 0.999552 0.994715
1.00013 1.00016 0.993984
1.00002 0.998566 0.995803
1.00008 0.999572 0.994687
0.999966 0.99694 0.99751
1.00003 0.998554 0.995787
1.00008 0.999598 0.994655
0.999936 0.995886 0.999454
0.999989 0.99688 0.997518
1.00004 0.998532 0.995789
0.999965 0.995819 0.999462
1.00001 0.996802 0.997549
0.999988 0.995756 0.999474
1.01325 0.999276 0.979403
1.01752 0.996091 0.97549
1.01894 0.994973 0.974675
1.00012 1.00055 0.993692
1.00012 1.00022 0.993957
1.00017 1.00049 0.993577
1.00015 1.0006 0.993536
1.00014 1.00048 0.993676
1.00019 1.00066 0.993423
1.00017 1.00073 0.993359
1.00016 1.00083 0.993258
1.00015 1.00076 0.993389
1.00014 1.00103 0.993112
1.00015 1.00108 0.993079
1.00016 1.00117 0.993041
1.00591 0.987365 1.00322
1.01204 0.993715 0.98736
1.01544 0.994163 0.980667
1.01018 0.984368 0.998641
1.00367 0.992849 0.987625
0.997722 0.99851 0.983149
0.997714 1.00379 0.996828
0.997173 1.00346 0.997896
1.0075 0.981823 1.00528
0.997242 1.00029 0.981946
1.00099 0.991012 0.999773
0.997845 1.00415 0.995267
0.996449 1.00237 0.981565
0.997517 0.990955 1.00632
0.999929 1.00163 0.992948
1.00009 1.00151 0.992774
1.00011 1.00156 0.992678
0.999016 1.00228 0.994835
1.00002 1.00319 0.991064
1.00007 1.00253 0.991831
0.999902 1.00304 0.991566
0.999328 1.00378 0.992814
0.999561 1.00263 0.992768
1.00583 0.994467 0.998181
1.01365 1.00006 0.978348
1.01801 0.996217 0.974096
0.999598 1.00134 0.994556
0.998956 1.00286 0.994003
1.01343 0.997414 0.98198
0.996696 1.00306 0.986359
0.99768 0.991016 1.00507
1.00631 0.987444 1.00231
0.999804 1.00275 0.992929
1.00536 0.993185 0.99796
0.995355 0.992771 1.00773
1.0005 1.00215 0.988797
0.996785 1.00298 0.980308
1.00093 1.00178 0.990757
0.994219 0.992579 1.00798
0.996465 1.00098 0.983732
1.00172 1.00069 0.988251
0.999536 1.00386 0.991414
0.9999 1.00389 0.990755
1.00062 1.00157 0.99184
1.00006 1.00308 0.991231
1.00044 1.00179 0.9917
1.0008 0.999834 0.993003
1.00025 1.00194 0.991958
1.00048 1.00087 0.992567
1.00068 0.999625 0.993426
1.00033 1.0013 0.992409
1.00053 1.00042 0.992902
1.00061 0.999791 0.993378
1.0005 1.00018 0.993227
1.00045 1.00063 0.992929
1.00052 1.00036 0.992995
1.00027 1.0009 0.992956
1.00033 1.00102 0.992744
1.00042 1.00086 0.99268
1.00009 1.00065 0.993601
1.00015 1.00102 0.993078
1.00021 1.00131 0.992664
0.999983 1.00001 0.994449
1.00006 1.00054 0.99377
1.00009 1.00087 0.993382
0.9999 0.998883 0.995722
0.999981 0.999893 0.994574
1.00002 1.00052 0.993825
0.999819 0.99722 0.997517
0.999933 0.998751 0.995796
0.999998 0.999762 0.994679
0.999795 0.996183 0.999458
0.999861 0.997127 0.997528
0.999968 0.998654 0.995823
0.999835 0.996136 0.999456
0.9999 0.997063 0.997523
0.999865 0.996036 0.999455
1.00009 1.00025 0.9941
1.00011 1.00015 0.994021
1.00006 0.999581 0.994717
1 0.998584 0.995815
1.00007 0.999554 0.994713
1.00013 1.00016 0.993961
0.999939 0.996992 0.997514
1.00002 0.998565 0.995802
1.00008 0.999574 0.994686
0.999906 0.995955 0.999453
0.999965 0.996937 0.997509
1.00003 0.998556 0.995786
0.99994 0.995891 0.999456
0.999988 0.996875 0.997518
0.999969 0.99582 0.999465
1.00607 0.993643 0.996191
1.01325 0.999322 0.979326
1.01743 0.996093 0.975399
1.00012 1.00056 0.993653
1.00012 1.00061 0.9936
1.00015 1.00069 0.993442
1.00015 1.00061 0.993583
1.00014 1.0005 0.993722
1.00018 1.00062 0.993426
1.00017 1.00082 0.993279
1.00017 1.00072 0.993385
1.00014 1.00104 0.993148
1.00011 1.00112 0.993133
1.00015 1.00106 0.993081
1.00015 1.00115 0.993017
0.995621 0.991253 1.0069
1.00565 0.987936 1.00317
1.01177 0.993728 0.987454
1.00747 0.982031 1.0054
1.00106 0.990211 0.997092
0.996955 1.00056 0.985858
0.996943 1.00348 0.993861
0.99785 1.00427 0.991926
0.998754 0.99045 0.99966
0.996685 1.00253 0.98523
0.999131 1.00352 0.989621
0.996185 1.00241 0.98484
0.99979 1.00238 0.992666
0.999952 1.00157 0.992961
1.00011 1.00147 0.992783
0.999376 1.00375 0.992731
0.999923 1.00307 0.991604
0.999796 1.00257 0.992783
1.00009 1.00145 0.992904
0.994392 0.991574 1.01064
1.00569 0.995642 0.995189
1.01357 0.999965 0.976822
0.999802 1.00279 0.992988
1.00045 1.00231 0.992836
1.00536 0.992949 0.997755
0.996258 1.00332 0.982688
0.996087 0.992706 1.0023
1.00074 1.00178 0.991145
0.99481 0.992553 1.00671
0.995549 1.00124 0.985713
1.00152 1.00077 0.991783
1.00201 0.998551 0.991537
0.996176 0.997779 0.984829
1.00131 1.00082 0.991737
0.999807 1.00383 0.990663
1.00059 1.00141 0.991866
1.00118 0.998516 0.993711
1.00043 1.00168 0.991747
1.00077 0.999744 0.993035
1.00087 0.998471 0.994174
1.00047 1.00078 0.992606
1.00068 0.999587 0.993426
1.00068 0.999183 0.99383
1.00053 1.00038 0.992916
1.00061 0.999809 0.993367
1.00055 0.999858 0.99343
1.00047 1.00024 0.993201
1.0005 1.00017 0.993233
1.00044 1.0004 0.993153
1.00037 1.00065 0.993057
1.00044 1.00063 0.992936
1.00052 1.00035 0.993005
1.00017 1.00067 0.993354
1.00026 1.00091 0.993005
1.00032 1.001 0.992789
0.999991 1.00016 0.994282
1.00009 1.00065 0.9936
1.00013 1.00102 0.993074
0.99988 0.999029 0.995618
0.999989 1 0.994449
1.00007 1.00054 0.993768
0.999774 0.997347 0.997479
0.999903 0.998889 0.99572
0.999985 0.999892 0.994574
0.999747 0.996351 0.999456
0.99982 0.997231 0.997515
0.999935 0.998757 0.995794
0.999797 0.996198 0.999087
0.999863 0.997138 0.997528
0.999825 0.996116 0.999457
1.00007 1.00036 0.993971
1.00009 1.00025 0.994028
1.00004 0.999674 0.994681
1.00011 1.00016 0.994051
1.00006 0.99958 0.994717
0.999984 0.99863 0.99581
0.999909 0.997048 0.997519
1 0.998583 0.995814
1.00008 0.999555 0.994711
0.999872 0.996025 0.999454
0.999938 0.996988 0.997513
1.00002 0.998565 0.995802
0.999911 0.995964 0.999453
0.999964 0.996934 0.997509
0.999945 0.995896 0.999457
0.99616 0.99253 1.00166
1.00585 0.993214 0.998591
1.01324 0.99937 0.979248
1.00012 1.00057 0.993614
1.00014 1.00069 0.993449
1.00012 1.00061 0.993619
1.0001 1.00071 0.99353
1.00014 1.00077 0.993376
1.00017 1.0008 0.9933
1.00017 1.0007 0.99341
1.00013 1.00102 0.993135
1.00009 1.00102 0.993185
1.0001 1.00121 0.993043
1.00011 1.00138 0.992904
1.0001 1.00115 0.993106
1.00015 1.00112 0.992993
0.996998 0.999454 0.981876
0.996113 0.992389 1.00447
1.00557 0.988316 1.00373
0.998401 0.990071 1.0046
0.996488 1.00234 0.977887
0.997992 1.00422 0.995088
0.999235 1.00346 0.991263
0.996492 1.00167 0.982462
1.00033 1.00142 0.990683
1.00015 1.00258 0.99164
0.999772 1.00242 0.992614
0.999976 1.00151 0.992974
1.00004 1.00251 0.992798
1.00007 1.00099 0.99312
0.994792 0.996074 0.99185
0.995619 0.992346 1.00381
1.00555 0.996797 0.992198
1.00056 1.0018 0.991534
1.00187 1.00091 0.988061
0.995504 0.992011 1.0035
0.99682 1.00224 0.98192
1.00183 0.998763 0.991443
0.995459 0.998338 0.989074
1.0018 1.00014 0.988885
1.00231 0.996349 0.993154
0.999968 1.00299 0.992502
1.00056 1.00123 0.991892
1.00113 0.998451 0.99372
1.00096 0.99787 0.994681
1.00074 0.999653 0.993067
1.00085 0.998504 0.994145
1.0007 0.998778 0.994203
1.00068 0.999547 0.993427
1.00068 0.999236 0.993804
1.00056 0.999731 0.99355
1.0006 0.999829 0.993356
1.00055 0.999907 0.993411
1.00049 1.00023 0.99318
1.00047 1.00024 0.993217
1.00044 1.00045 0.99308
1.00051 1.00016 0.993239
1.00045 1.00039 0.99315
1.0004 1.0005 0.993138
1.00027 1.00056 0.993266
1.00037 1.00066 0.993048
1.00043 1.00064 0.992943
1.00003 1.0003 0.994071
1.00017 1.00068 0.993391
1.00025 1.00092 0.993053
0.999862 0.999203 0.995477
0.999999 1.00015 0.994281
1.00009 1.00065 0.9936
0.99973 0.997494 0.997417
0.999882 0.999034 0.995616
0.999995 0.999993 0.994449
0.999695 0.996486 0.999449
0.999776 0.997362 0.997476
0.999906 0.998895 0.995718
0.999739 0.996336 0.999454
0.999822 0.997243 0.997513
0.99978 0.996209 0.999457
1.00005 1.00051 0.993787
1.00007 1.00036 0.993973
1.00001 0.999821 0.994503
1.00009 1.00026 0.993955
1.00004 0.999684 0.994627
0.999956 0.998731 0.995769
1.00006 0.999579 0.994717
0.999984 0.998626 0.99581
0.999875 0.997122 0.997515
0.999835 0.996102 0.999455
0.999908 0.997043 0.997519
1 0.998582 0.995814
0.999878 0.996039 0.999454
0.999937 0.996984 0.997513
0.999916 0.995974 0.999453
0.996382 0.998349 0.987394
0.995038 0.991685 1.00961
1.00576 0.993428 0.997531
1.00014 1.00069 0.993457
1.00012 1.00061 0.993639
1.00014 1.00076 0.993396
1.0001 1.0007 0.993553
1.00007 1.00089 0.993439
1.00011 1.00087 0.993351
1.00013 1.001 0.993122
1.0001 1.00104 0.993182
1.00008 1.00123 0.993049
1.00007 1.00116 0.99305
1.00024 1.0012 0.992936
1.00043 1.00185 0.991797
1.00008 1.00137 0.992905
1.00009 1.00117 0.99308
1.00107 0.999164 0.994425
0.996034 0.999518 0.986092
0.996377 0.991423 1.00286
0.995875 1.00211 0.984169
0.999432 1.00332 0.993611
1.00023 1.00156 0.99283
1.00157 1.00034 0.991193
1.00012 1.00239 0.991642
0.999746 1.00245 0.992561
1.00003 1.00057 0.993335
0.999035 1.00189 0.991781
0.995944 0.998086 0.988809
0.994472 0.992727 1.00731
1.00164 0.998933 0.991348
1.00205 1.00067 0.991635
0.994855 0.998845 0.99331
1.00204 0.99674 0.993091
1.00011 1.00172 0.992064
1.00111 0.998282 0.993799
0.999343 1.00372 0.992335
1.00107 0.998401 0.99373
1.00094 0.997934 0.994651
1.00055 0.999336 0.993997
1.00083 0.998538 0.994116
1.00068 0.998887 0.994161
1.00051 0.999893 0.993522
1.00067 0.999291 0.993778
1.00056 0.999777 0.993533
1.0005 1.00032 0.993085
1.00055 0.999954 0.993391
1.00049 1.00025 0.993194
1.00045 1.00057 0.992933
1.00047 1.00023 0.993234
1.00044 1.00042 0.993095
1.0004 1.00057 0.993055
1.00046 1.00038 0.993148
1.00041 1.00049 0.993133
1.00032 1.0005 0.993305
1.0001 1.00034 0.993811
1.00027 1.00057 0.993308
1.00037 1.00067 0.993039
0.99986 0.9994 0.995281
1.00003 1.00028 0.994073
1.00016 1.00068 0.993429
0.999688 0.99766 0.997331
0.999865 0.99921 0.995474
1.00001 1.00014 0.99428
0.999641 0.996642 0.999437
0.999734 0.99751 0.997414
0.999885 0.999039 0.995614
0.999687 0.996472 0.999446
0.999778 0.997377 0.997473
0.999731 0.996322 0.999453
1.00003 1.00065 0.993735
1.00005 1.0005 0.993852
0.999984 1.00001 0.994382
1.00006 1.00037 0.993975
1.00001 0.999839 0.99449
0.999924 0.998877 0.995692
1.00004 0.999694 0.994573
0.999955 0.998726 0.99577
0.999836 0.997229 0.997491
0.999984 0.998623 0.99581
0.999875 0.997113 0.997516
0.999792 0.996192 0.999454
0.999841 0.996119 0.999455
0.999908 0.997037 0.997519
0.999884 0.996053 0.999453
1.00047 0.99901 0.995513
0.99515 0.996622 0.990321
0.995964 0.99116 1.00461
1.00009 1.00099 0.993326
1.00014 1.00076 0.993415
1.00011 1.00069 0.993575
1.00011 1.00088 0.993335
1.00006 1.0009 0.993434
1.00005 1.00105 0.993274
1.00011 1.00106 0.99318
1.00005 1.00125 0.993055
1.00009 1.00117 0.993086
1.00015 1.00118 0.993047
1.00033 1.00142 0.992381
1.00112 1.00135 0.990783
1.00036 1.00183 0.991896
1.00007 1.00135 0.992906
1.00202 0.997879 0.991918
1.00115 0.999261 0.992644
0.995281 0.999573 0.990354
1.00066 1.00165 0.989721
1.00155 1.00068 0.990502
1.0001 1.00216 0.991644
0.999099 1.00219 0.994964
0.999055 1.00293 0.994247
0.994739 0.996242 0.991577
1.00177 0.997141 0.993028
1.0003 1.00143 0.990981
1.00099 0.998488 0.993758
0.999431 1.00347 0.992567
1.00012 1.00131 0.992696
0.999306 1.00296 0.992616
1.00092 0.997988 0.994621
1.00052 0.999462 0.99397
1.00033 1.00081 0.993014
1.00066 0.998996 0.994119
1.0005 0.999919 0.993518
1.00046 1.00053 0.992979
1.00055 0.999822 0.993516
1.0005 1.00032 0.993101
1.00047 1.00073 0.992727
1.00048 1.00027 0.993209
1.00046 1.00057 0.992935
1.00041 1.00071 0.992887
1.00045 1.00039 0.99311
1.00041 1.00054 0.993051
1.00033 1.00057 0.993162
1.00041 1.00049 0.993129
1.00032 1.00049 0.993275
1.00014 1.00039 0.993731
0.999879 0.999579 0.995062
1.00009 1.00033 0.993861
1.00026 1.00058 0.99335
0.999652 0.997852 0.997208
0.999863 0.999405 0.995279
1.00004 1.00027 0.994075
0.999586 0.996817 0.999419
0.999693 0.997678 0.997326
0.999869 0.999217 0.99547
0.999632 0.996627 0.999432
0.999737 0.997527 0.99741
0.999678 0.996457 0.999443
1.00003 1.00077 0.993594
1.00003 1.00065 0.993735
0.999965 1.00017 0.994334
1.00005 1.0005 0.993917
0.999979 1.00001 0.99442
0.999889 0.999054 0.995588
1 0.999857 0.994476
0.999922 0.998872 0.995693
0.999791 0.997374 0.997443
0.999954 0.99872 0.995772
0.999836 0.997217 0.997493
0.999742 0.996307 0.999447
0.999875 0.997105 0.997517
0.9998 0.996211 0.999454
0.999848 0.996136 0.999455
1.00073 0.997621 0.995111
1.0004 0.998384 0.992841
0.996527 0.997029 0.988287
1.00009 1.00102 0.993201
1.00022 1.001 0.993033
1.00005 1.00101 0.99331
1.00012 1.00089 0.993319
1.00005 1.00091 0.993429
1.00006 1.00106 0.993242
1.00033 1.0013 0.99246
1.00011 1.00119 0.993121
1.00007 1.00117 0.993158
1.00032 1.00141 0.992355
1.00084 1.00134 0.991239
1.00121 0.999348 0.992661
1.00112 1.00132 0.990907
1.0003 1.00181 0.991996
1.002 0.997976 0.991965
1.00065 0.998677 0.991605
1.00155 1.00105 0.989811
0.999074 1.00096 0.99519
0.999058 1.00206 0.994954
0.998872 1.00138 0.992461
1.00088 0.998712 0.993718
0.999524 1.0032 0.992799
1.00016 1.00131 0.992793
0.999387 1.00286 0.99279
0.999962 1.00207 0.992494
0.999374 1.00209 0.993957
1.00049 0.99959 0.993942
1.00033 1.00074 0.99305
1.00034 1.00117 0.992656
1.00049 0.999944 0.993515
1.00046 1.00055 0.992963
1.00043 1.00087 0.992639
1.0005 1.00032 0.993116
1.00048 1.00073 0.99273
1.00043 1.00088 0.992683
1.00046 1.00057 0.992936
1.00042 1.0007 0.992886
1.00034 1.00073 0.993017
1.00041 1.00051 0.993046
1.00033 1.00056 0.99316
1.00016 1.0005 0.9936
1.00032 1.00049 0.993245
1.00014 1.00038 0.99371
0.999896 0.999755 0.994849
0.99963 0.998073 0.997072
0.999881 0.99958 0.995063
1.00009 1.00033 0.993912
0.99953 0.997012 0.999394
0.999658 0.997872 0.997201
0.999867 0.999411 0.995277
0.999577 0.996801 0.999413
0.999698 0.997697 0.99732
0.999624 0.996612 0.999427
1.00009 1.00086 0.993324
1.00003 1.00078 0.993553
0.99998 1.00032 0.99416
1.00002 1.00065 0.993736
0.999959 1.00018 0.994333
0.999856 0.999254 0.995458
0.999974 1.00001 0.994458
0.999886 0.99905 0.99559
0.999739 0.997552 0.997374
0.99992 0.998867 0.995695
0.99979 0.99736 0.997446
0.999683 0.996455 0.999435
0.999835 0.997205 0.997495
0.999752 0.996325 0.999449
0.999808 0.996229 0.999455
1.00029 0.998733 0.99526
1.00075 0.997874 0.995301
1.00006 0.999512 0.996329
1.00036 1.00103 0.992756
1.00006 1.00103 0.993264
1.00033 1.00106 0.992546
1.00022 1.00101 0.993017
1.00002 1.00103 0.993294
1.00074 1.00125 0.99168
1.00008 1.00108 0.993209
1.00033 1.00128 0.99246
1.00102 1.00016 0.99204
1.00031 1.00141 0.992329
1.00092 1.00136 0.991104
1.00128 0.999308 0.992592
1.00111 1.00128 0.991031
1.00198 0.998067 0.992011
0.999381 1.00087 0.994991
0.999043 1.00108 0.995129
0.999018 1.00194 0.994944
1.00018 1.0013 0.99289
0.999468 1.00275 0.992964
1.00001 1.00205 0.992426
0.999407 1.00188 0.993976
0.999682 1.0015 0.993636
1.00032 1.00069 0.993086
1.00033 1.00108 0.992699
1.00027 1.00115 0.992779
1.00045 1.00057 0.992947
1.00045 1.0009 0.992612
1.00041 1.00098 0.992627
1.00048 1.00073 0.992733
1.00043 1.00087 0.992682
1.00035 1.0009 0.992825
1.00042 1.0007 0.992885
1.00034 1.00072 0.993017
1.00017 1.00066 0.993417
1.00034 1.00055 0.993158
1.00016 1.00049 0.993603
0.999895 0.99998 0.994625
1.00014 1.00037 0.993689
0.999899 0.999752 0.994851
0.999593 0.99831 0.997362
0.999476 0.997253 0.998461
0.999629 0.998092 0.997279
0.999883 0.999581 0.995064
0.99952 0.996997 0.999385
0.999664 0.997892 0.997194
0.999568 0.996785 0.999406
1.00041 1.00099 0.992559
1.00015 1.001 0.993045
1.0001 1.00086 0.993291
1.00001 1.00045 0.993973
1.00003 1.00078 0.993512
0.99997 1.00033 0.994161
0.999832 0.999456 0.995308
0.999953 1.00018 0.994333
0.999852 0.99925 0.995461
0.999683 0.997757 0.997289
0.999883 0.999046 0.995591
0.999736 0.997537 0.997378
0.999615 0.996634 0.999418
0.999788 0.997346 0.997449
0.999695 0.996469 0.999439
0.999762 0.996342 0.999451
1.00037 0.999763 0.993983
1.00031 0.998684 0.995123
1.00078 0.998135 0.995491
1.00066 1.00103 0.992087
1.0003 1.00102 0.99286
1.00003 1.00103 0.993326
1.00039 1.00104 0.992593
1.00022 1.00101 0.993001
1.00087 1.00078 0.991767
1.00075 1.0013 0.991638
1.00033 1.00126 0.992459
1.00109 1.00018 0.99198
1.00101 1.00138 0.990969
1.00134 0.999269 0.992523
0.999204 1.0011 0.994761
0.99931 1.00099 0.994939
0.999007 1.0012 0.995067
1.00006 1.00202 0.992358
0.999433 1.00169 0.993995
0.999706 1.00148 0.993607
0.999762 1.00135 0.99358
1.00033 1.00099 0.992742
1.00033 1.0011 0.992711
1.00028 1.00093 0.992953
1.00047 1.00092 0.992585
1.00041 1.00098 0.992623
1.00034 1.00102 0.992725
1.00043 1.00087 0.992682
1.00035 1.00089 0.992825
1.00018 1.00085 0.993206
1.00034 1.00072 0.993017
1.00017 1.00066 0.99342
0.999884 1.00026 0.994368
1.00016 1.00048 0.993607
0.9999 0.999973 0.994627
0.999533 0.998619 0.997199
0.999902 0.999749 0.994854
0.999587 0.998335 0.997337
0.999396 0.997511 0.998351
0.999473 0.997217 0.998905
0.99963 0.998111 0.997485
0.999511 0.996983 0.999375
1.00063 1.00098 0.992129
1.00027 1.001 0.992966
1.00039 1.00095 0.992671
1.00003 1.00065 0.993722
1.00017 1.001 0.993058
1.00012 1.00086 0.993259
0.999997 1.00047 0.993972
0.999816 0.999671 0.995128
0.99996 1.00034 0.994162
0.999827 0.999453 0.99531
0.999623 0.997979 0.997191
0.999847 0.999246 0.995463
0.999678 0.997742 0.997293
0.999538 0.996843 0.999398
0.999733 0.997523 0.997381
0.999629 0.996645 0.999423
0.999707 0.996483 0.999443
1.00019 1.00068 0.993407
1.00033 0.999773 0.993999
1.00033 0.998636 0.994987
1.00075 1.00072 0.992007
1.00066 1.00103 0.99208
1.00025 1.00102 0.992964
1.00044 1.00101 0.99264
1.00091 1.00078 0.991785
1.00075 1.00135 0.991596
1.00115 1.00019 0.991921
0.999332 1.0014 0.994351
0.999328 1.00116 0.994595
0.999241 1.00111 0.994888
0.999589 1.00151 0.99377
0.999734 1.00146 0.993578
0.999754 1.00136 0.993592
0.999965 1.00113 0.993413
1.00039 1.00105 0.992642
1.00026 1.00095 0.992957
1.00024 1.00104 0.992924
1.00041 1.00099 0.992619
1.00033 1.00102 0.992732
1.00018 1.00102 0.993043
1.00035 1.00089 0.992825
1.00018 1.00085 0.993209
0.999875 1.00056 0.994085
1.00017 1.00065 0.993423
0.999891 1.00025 0.994371
0.999451 0.998999 0.997006
0.999905 0.999967 0.99463
0.999527 0.998636 0.997171
0.999296 0.997854 0.99824
0.99958 0.99836 0.997313
0.999399 0.997469 0.998364
0.999468 0.997182 0.99935
1.00082 1.00075 0.992034
1.0005 1.00097 0.992439
1.00061 1.00099 0.9922
1.00012 1.00076 0.993577
1.00027 1.001 0.992921
1.00036 1.00091 0.992783
0.999819 0.999937 0.994855
1.00002 1.00066 0.99372
1.00019 1.00101 0.993071
0.999986 1.00048 0.993972
0.999809 0.999673 0.995129
0.999565 0.998222 0.997068
0.999821 0.99945 0.995313
0.999617 0.997965 0.997196
0.999454 0.997076 0.999376
0.999673 0.997728 0.997298
0.999554 0.99685 0.999404
0.999643 0.996655 0.999428
1.00024 1.00087 0.993133
1.00028 1.00064 0.993288
1.00029 0.999782 0.994014
1.00087 1.00068 0.991877
1.00066 1.00103 0.992072
1.00095 1.00077 0.991802
0.99937 1.00186 0.993838
0.999279 1.00149 0.99442
0.999453 1.00122 0.994428
0.999616 1.00156 0.99369
0.99966 1.00151 0.993624
0.999747 1.00138 0.993603
0.999954 1.00113 0.993415
1.00002 1.00114 0.993331
1.00025 1.00096 0.992961
1.00022 1.00105 0.992937
1.0001 1.00114 0.99309
1.00032 1.00102 0.992738
1.00017 1.00102 0.99305
0.99986 1.00086 0.99383
1.00017 1.00085 0.993212
0.999881 1.00055 0.994089
0.999333 0.999458 0.996743
0.999898 1.00024 0.994374
0.999447 0.999008 0.996973
0.999167 0.998279 0.998105
0.99952 0.998653 0.997143
0.999297 0.997808 0.998255
0.999401 0.997427 0.998377
1.00059 1.00028 0.993062
1.00069 1.00086 0.992165
1.00085 1.00073 0.992015
1.00028 1.00084 0.993068
1.00049 1.00097 0.992483
1.00059 1.001 0.992271
0.999865 1.00016 0.994536
1.00011 1.00078 0.993462
1.00026 1.001 0.992876
0.99952 0.998506 0.996879
0.999809 0.999942 0.994857
1.00002 1.00068 0.993718
0.999801 0.999675 0.99513
0.999556 0.998209 0.997075
0.999368 0.997333 0.999346
0.99961 0.997951 0.9972
0.999471 0.99708 0.999382
0.999569 0.996857 0.99941
0.999881 1.0018 0.992919
1.00027 1.00083 0.993088
1.00038 1.0006 0.99317
1.001 1.00065 0.991748
0.999455 1.002 0.993568
0.999344 1.00189 0.993896
0.999227 1.00158 0.994488
0.999641 1.00161 0.99361
0.999649 1.00153 0.993654
0.999667 1.00145 0.993678
0.999944 1.00113 0.993417
1.00001 1.00115 0.993321
0.999929 1.00128 0.993337
1.00021 1.00105 0.992949
1.00009 1.00115 0.993101
0.999792 1.0011 0.993736
1.00016 1.00103 0.993057
0.999861 1.00085 0.993836
0.999239 1 0.995891
0.999887 1.00054 0.994092
0.999347 0.999488 0.996428
0.998996 0.998607 0.999141
0.999442 0.999019 0.99694
0.999166 0.998232 0.998124
0.999298 0.997761 0.998271
1.00024 1.00106 0.993012
1.00059 1.00046 0.992803
1.00053 1.00033 0.993026
1.00039 1.00086 0.992625
1.00067 1.00082 0.992275
1.00088 1.00071 0.991995
0.999962 1.00037 0.993987
1.00029 1.00084 0.993069
1.00049 1.00097 0.992527
0.999501 0.998813 0.996603
0.999859 1.00019 0.994434
1.00011 1.00079 0.993346
0.999288 0.997621 0.999299
0.999506 0.998491 0.99689
0.999799 0.999948 0.994859
0.999547 0.998195 0.997081
0.999384 0.997335 0.999355
0.999488 0.997084 0.999389
0.999577 1.00223 0.993056
0.9998 1.00174 0.993076
1.00031 1.00079 0.993043
0.999406 1.00182 0.993864
0.999462 1.002 0.993583
0.999318 1.00192 0.993955
0.999639 1.00155 0.993684
0.99967 1.00144 0.993685
0.999569 1.00155 0.993816
0.999998 1.00116 0.99331
0.999916 1.0013 0.993369
0.999614 1.00131 0.993846
1.00007 1.00115 0.993112
0.999785 1.0011 0.993745
0.999111 1.00047 0.995703
0.999861 1.00084 0.993842
0.999256 0.999988 0.995884
0.998871 0.999029 0.999092
0.999359 0.999516 0.996113
0.998982 0.998671 0.998555
0.999165 0.998183 0.998142
0.999949 1.0018 0.992933
1.00027 1.00081 0.993083
1.00021 1.00105 0.992979
1.00035 1.00075 0.992909
1.00054 1.00048 0.992833
1.00047 1.00037 0.99299
1.00004 1.00055 0.993602
1.00041 1.00085 0.992722
1.00065 1.00078 0.992385
0.999496 0.99914 0.996271
0.999968 1.0004 0.993929
1.00029 1.00084 0.993069
0.999215 0.99794 0.99923
0.999484 0.9988 0.996616
0.999853 1.00022 0.994332
0.999301 0.997618 0.999314
0.999492 0.998476 0.9969
0.999401 0.997336 0.999364
0.999545 1.00192 0.993403
0.999598 1.00218 0.993086
0.99972 1.00169 0.993234
0.999348 1.00179 0.994026
0.999451 1.0018 0.99381
0.999469 1.002 0.993598
0.999674 1.00144 0.993692
0.999574 1.00154 0.993818
0.999308 1.00156 0.994213
0.999903 1.00131 0.9934
0.999624 1.00132 0.993854
0.998923 1.00086 0.995714
0.999779 1.00109 0.993755
0.999119 1.00045 0.995704
0.998694 0.999472 0.999036
0.999273 0.999971 0.995877
0.998828 0.999073 0.999073
0.998971 0.998737 0.997968
0.999929 1.00148 0.993184
0.999936 1.00184 0.992834
1.00011 1.00096 0.993235
1.00025 1.00081 0.993105
1.00017 1.00105 0.992945
1.00001 1.00066 0.993694
1.00037 1.00075 0.992895
1.00048 1.0005 0.992863
0.999466 0.999505 0.995943
1.00005 1.00056 0.993637
1.00043 1.00084 0.992819
0.999133 0.998294 0.99915
0.999477 0.999135 0.996283
0.999974 1.00042 0.993871
0.999227 0.997931 0.999251
0.999467 0.998788 0.996629
0.999315 0.997614 0.999329
0.999546 1.00173 0.993708
0.999588 1.0019 0.993389
0.999619 1.00214 0.993116
0.999161 1.00171 0.994389
0.999354 1.00176 0.994035
0.999497 1.00178 0.993757
0.999578 1.00152 0.993819
0.999338 1.00155 0.994169
0.998706 1.00116 0.99588
0.999634 1.00132 0.993862
0.99892 1.00085 0.995724
0.99849 0.999857 0.99902
0.999128 1.00043 0.995705
0.998642 0.999517 0.999027
0.998785 0.999116 0.999055
0.999822 1.00141 0.993441
0.999933 1.00152 0.993132
0.999925 1.00188 0.992735
0.999797 1.00092 0.993885
1.00011 1.00096 0.993238
1.00023 1.0008 0.993126
0.999352 0.99989 0.995768
1.00002 1.00066 0.993679
1.00039 1.00075 0.99288
0.99902 0.998688 0.999072
0.99945 0.999511 0.995951
1.00007 1.00057 0.993671
0.99915 0.998278 0.999174
0.999458 0.99913 0.996296
0.99924 0.997922 0.999272
0.999282 1.00161 0.994319
0.999524 1.00174 0.993698
0.999632 1.00187 0.993374
0.998582 1.00127 0.996021
0.999164 1.00171 0.994381
0.99936 1.00174 0.994044
0.999368 1.00155 0.994125
0.9987 1.00115 0.99589
0.998277 1.00014 0.999051
0.998919 1.00083 0.995733
0.99843 0.999895 0.999028
0.998591 0.999562 0.999019
0.999504 1.00132 0.994122
0.9998 1.00143 0.993445
0.999937 1.00156 0.99308
0.999119 1.0002 0.99644
0.9998 1.00093 0.993878
1.0001 1.00097 0.993241
0.998831 0.999107 0.99904
0.999348 0.999906 0.995763
1.00003 1.00067 0.993665
0.999049 0.998662 0.999094
0.999434 0.999517 0.995959
0.999167 0.998261 0.999198
0.998615 1.00115 0.996043
0.999277 1.00161 0.994287
0.999501 1.00174 0.993687
0.998144 1.00026 0.999088
0.99858 1.00127 0.996023
0.999168 1.0017 0.994372
0.998694 1.00114 0.9959
0.998234 1.00016 0.999063
0.998371 0.999934 0.999036
0.998819 1.00064 0.996552
0.999504 1.00132 0.994119
0.999778 1.00144 0.99345
0.998635 0.999485 0.999049
0.999143 1.00034 0.995781
0.999804 1.00094 0.993871
0.998886 0.999073 0.999045
0.999343 0.999923 0.995759
0.999077 0.998636 0.999116
0.998164 1.00054 0.997869
0.998647 1.00106 0.996323
0.999273 1.00162 0.994254
0.998139 1.00026 0.999095
0.998578 1.00127 0.996025
0.99819 1.00018 0.999077
0.998385 1.00016 0.99779
0.99887 1.00073 0.996214
0.999505 1.00132 0.994116
0.998649 0.99963 0.9984
0.999125 1.00037 0.995777
0.998941 0.999038 0.999052
0.998167 1.00017 0.999099
0.998647 1.00116 0.996009
0.998134 1.00026 0.999099
0.998352 1.00008 0.998443
0.998855 1.00083 0.995898
0.998718 0.999454 0.99904
0.998236 1.00013 0.999089
0.998455 0.999841 0.999062

TENSORS stress float
0.00119349 1.92926e-05 7.58877e-06
1.92926e-05 0.000127733 -3.38303e-06
7.58877e-06 -3.38303e-06 0.000133359
0.00227288 -1.86112e-05 4.87566e-06
-1.86112e-05 0.000632774 2.35069e-06
4.87566e-06 2.35069e-06 0.000649327
0.00116197 1.95865e-05 2.74781e-06
1.95865e-05 0.000111963 -1.41868e-06
2.74781e-06 -1.41868e-06 0.000118
0.00120979 1.93244e-05 9.41925e-06
1.93244e-05 0.000182735 -2.70662e-06
9.41925e-06 -2.70662e-06 0.00017675
0.00120369 1.98437e-05 8.13348e-06
1.98437e-05 0.000145701 -3.16399e-06
8.13348e-06 -3.16399e-06 0.000147983
0.00118052 1.84586e-05 7.06143e-06
1.84586e-05 0.000111258 -3.58436e-06
7.06143e-06 -3.58436e-06 0.000119726
0.0011636 1.45395e-05 3.22361e-06
1.45395e-05 0.000100334 -1.22199e-06
3.22361e-06 -1.22199e-06 9.08354e-05
0.00234463 -1.85823e-05 6.99943e-08
-1.85823e-05 0.000666515 -6.99404e-08
6.99943e-08 -6.99404e-08 0.000682979
0.0025971 -2.17684e-05 2.55272e-06
-2.17684e-05 0.000813658 7.3995e-07
2.55272e-06 7.3995e-07 0.00082347
0.0023868 -2.00584e-05 2.20258e-06
-2.00584e-05 0.000693392 8.2766e-07
2.20258e-06 8.2766e-07 0.000708314
0.0010786 -1.6514e-05 4.39549e-06
-1.6514e-05 4.96702e-05 2.26903e-06
4.39549e-06 2.26903e-06 6.29605e-05
0.000936415 -1.29844e-05 3.33996e-06
-1.29844e-05 -1.91567e-05 1.51331e-06
3.33996e-06 1.51331e-06 -2.32539e-05
0.000959207 -1.15005e-05 7.23807e-06
-1.15005e-05 0.000132095 4.75378e-07
7.23807e-06 4.75378e-07 0.000114669
0.00109954 -1.87881e-05 2.71226e-06
-1.87881e-05 0.000149522 3.23473e-07
2.71226e-06 3.23473e-07 0.000139872
0.0011286 1.98819e-05 -2.11299e-06
1.98819e-05 9.53163e-05 5.42906e-07
-2.11299e-06 5.42906e-07 0.000101771
0.00116499 1.96355e-05 3.46499e-06
1.96355e-05 0.000161251 -1.13177e-06
3.46499e-06 -1.13177e-06 0.000155707
0.00115346 1.87457e-05 2.54886e-06
1.87457e-05 9.74412e-05 -1.48549e-06
2.54886e-06 -1.48549e-06 0.000106307
0.00116651 2.01443e-05 2.96118e-06
2.01443e-05 0.000127383 -1.33102e-06
2.96118e-06 -1.33102e-06 0.000130094
0.00116892 1.44256e-05 -6.01208e-07
1.44256e-05 0.000103642 1.90034e-07
-6.01208e-07 1.90034e-07 9.41164e-05
0.00261652 1.53213e-05 7.8744e-06
1.53213e-05 0.000919351 -8.49848e-07
7.8744e-06 -8.49848e-07 0.000913601
0.00121397 1.79457e-05 1.02135e-05
1.79457e-05 0.000203983 -2.34751e-06
1.02135e-05 -2.34751e-06 0.000193457
0.00120819 1.99161e-05 8.72565e-06
1.99161e-05 0.000163845 -2.9465e-06
8.72565e-06 -2.9465e-06 0.000162232
0.00117504 1.45076e-05 3.42375e-06
1.45076e-05 0.000138384 -9.24471e-07
3.42375e-06 -9.24471e-07 0.000116799
0.00117206 1.48684e-05 3.31623e-06
1.48684e-05 0.000113484 -1.09039e-06
3.31623e-06 -1.09039e-06 0.000100438
0.00117395 1.74677e-05 6.59513e-06
1.74677e-05 9.95809e-05 -3.75804e-06
6.59513e-06 -3.75804e-06 0.000110428
0.00114973 1.40578e-05 3.08661e-06
1.40578e-05 8.68019e-05 -1.35642e-06
3.08661e-06 -1.35642e-06 8.04134e-05
0.00139413 7.50745e-06 1.38602e-06
7.50745e-06 0.000192993 -1.28624e-07
1.38602e-06 -1.28624e-07 0.000160456
0.0024171 -1.85569e-05 -4.67806e-06
-1.85569e-05 0.000700572 -2.36257e-06
-4.67806e-06 -2.36257e-06 0.000716949
0.00188189 -2.07792e-05 -1.79023e-06
-2.07792e-05 0.000469643 -8.0729e-07
-1.79023e-06 -8.0729e-07 0.000475551
0.00176416 -1.92464e-05 -1.51146e-06
-1.92464e-05 0.000393583 -8.51822e-07
-1.51146e-06 -8.51822e-07 0.000405427
0.00224866 -1.74531e-05 6.22686e-08
-1.74531e-05 0.000613988 -5.47055e-08
6.22686e-08 -5.47055e-08 0.000632113
0.000897094 -1.30699e-05 8.30536e-08
-1.30699e-05 -3.77308e-05 -2.75585e-08
8.30536e-08 -2.75585e-08 -4.16253e-05
0.00105852 -1.97041e-05 6.27921e-06
-1.97041e-05 9.07573e-05 1.60007e-06
6.27921e-06 1.60007e-06 8.91579e-05
0.00108956 -1.92606e-05 5.41195e-06
-1.92606e-05 7.87601e-05 1.9291e-06
5.41195e-06 1.9291e-06 8.49064e-05
0.00160829 -1.46471e-05 4.32715e-06
-1.46471e-05 0.000318834 1.21811e-06
4.32715e-06 1.21811e-06 0.000307705
0.00220777 -1.65196e-05 1.89192e-06
-1.65196e-05 0.000586305 9.99955e-07
1.89192e-06 9.99955e-07 0.000606057
0.00156502 -1.39309e-05 3.9315e-06
-1.39309e-05 0.000288364 1.46013e-06
3.9315e-06 1.46013e-06 0.000284393
0.000922673 -1.24425e-05 4.03302e-06
-1.24425e-05 -2.92602e-05 2.52744e-06
4.03302e-06 2.52744e-06 -3.1288e-05
0.00101533 -6.52808e-06 2.11564e-06
-6.52808e-06 1.02567e-05 8.42225e-07
2.11564e-06 8.42225e-07 -1.82062e-05
0.0021754 -1.37069e-05 3.97073e-06
-1.37069e-05 0.000560226 2.87824e-06
3.97073e-06 2.87824e-06 0.000581723
0.00248041 -1.45771e-05 9.19057e-08
-1.45771e-05 0.000860374 -1.35997e-07
9.19057e-08 -1.35997e-07 0.000854619
0.00185917 -1.90822e-05 -2.15995e-06
-1.90822e-05 0.000518258 -5.59563e-07
-2.15995e-06 -5.59563e-07 0.000512921
0.002372 -1.08457e-05 6.5189e-06
-1.08457e-05 0.000825112 2.58395e-07
6.5189e-06 2.58395e-07 0.000817793
0.00107269 -1.64373e-05 2.83309e-06
-1.64373e-05 0.000160278 2.72723e-07
2.83309e-06 2.72723e-07 0.000146381
0.000646005 -9.72798e-06 6.08058e-06
-9.72798e-06 -6.44989e-05 4.0237e-07
6.08058e-06 4.0237e-07 -9.99349e-05
0.00267222 -2.18075e-05 2.88707e-06
-2.18075e-05 0.000883924 5.81568e-07
2.88707e-06 5.81568e-07 0.00088743
0.00143622 -1.41445e-05 6.35264e-06
-1.41445e-05 0.000277742 1.26773e-06
6.35264e-06 1.26773e-06 0.000254475
0.00111797 1.99669e-05 -2.54736e-06
1.99669e-05 0.000138696 4.03635e-07
-2.54736e-06 4.03635e-07 0.000133601
0.00112671 2.04481e-05 -2.24252e-06
2.04481e-05 0.000107809 4.81249e-07
-2.24252e-06 4.81249e-07 0.000110959
0.00112546 1.90351e-05 -1.9859e-06
1.90351e-05 8.31862e-05 6.03395e-07
-1.9859e-06 6.03395e-07 9.24528e-05
0.00117488 1.43098e-05 -4.43004e-06
1.43098e-05 0.000107262 1.60631e-06
-4.43004e-06 1.60631e-06 9.77053e-05
0.00179642 1.3696e-05 -6.80276e-07
1.3696e-05 0.000527715 -1.59546e-07
-6.80276e-07 -1.59546e-07 0.000516038
0.00116286 1.82529e-05 3.76846e-06
1.82529e-05 0.000179809 -1.00257e-06
3.76846e-06 -1.00257e-06 0.000169682
0.00114756 1.7743e-05 2.37436e-06
1.7743e-05 8.59258e-05 -1.53941e-06
2.37436e-06 -1.53941e-06 9.71589e-05
0.00116655 2.02223e-05 3.19536e-06
2.02223e-05 0.000143609 -1.23474e-06
3.19536e-06 -1.23474e-06 0.000142438
0.0011749 1.43963e-05 -9.27663e-07
1.43963e-05 0.000138532 1.75804e-07
-9.27663e-07 1.75804e-07 0.000117038
0.00115947 1.39601e-05 -5.35368e-07
1.39601e-05 9.22758e-05 1.86817e-07
-5.35368e-07 1.86817e-07 8.5832e-05
0.00117363 1.47489e-05 -6.85662e-07
1.47489e-05 0.000114827 1.92895e-07
-6.85662e-07 1.92895e-07 0.000101799
0.00136935 7.44142e-06 -7.84963e-07
7.44142e-06 0.00018086 4.99363e-07
-7.84963e-07 4.99363e-07 0.000148016
0.00257527 1.28131e-05 7.82862e-06
1.28131e-05 0.000912796 -4.36164e-07
7.82862e-06 -4.36164e-07 0.000905643
0.00121331 1.57021e-05 1.09283e-05
1.57021e-05 0.000223975 -1.80924e-06
1.09283e-05 -1.80924e-06 0.000209298
0.00140299 1.04638e-05 2.71128e-06
1.04638e-05 0.000294307 -1.65067e-07
2.71128e-06 -1.65067e-07 0.000263963
0.00117926 1.36758e-05 3.50417e-06
1.36758e-05 0.000152689 -7.64588e-07
3.50417e-06 -7.64588e-07 0.000126572
0.00117423 1.48966e-05 3.37136e-06
1.48966e-05 0.000125774 -9.96663e-07
3.37136e-06 -9.96663e-07 0.000108674
0.00134625 7.09343e-06 1.01359e-06
7.09343e-06 0.000178918 -4.56893e-08
1.01359e-06 -4.56893e-08 0.000134967
0.00122077 7.39952e-06 1.66677e-06
7.39952e-06 0.000111686 -3.3025e-07
1.66677e-06 -3.3025e-07 7.44518e-05
0.00124529 1.6302e-05 6.24165e-06
1.6302e-05 0.00012551 -3.90438e-06
6.24165e-06 -3.90438e-06 0.000138143
0.00115893 1.35455e-05 2.91649e-06
1.35455e-05 8.50206e-05 -1.44793e-06
2.91649e-06 -1.44793e-06 8.15691e-05
0.00138515 7.26517e-06 1.40253e-06
7.26517e-06 0.000187588 -2.26281e-07
1.40253e-06 -2.26281e-07 0.000158138
0.00109765 2.96105e-07 9.59605e-07
2.96105e-07 3.2839e-05 -2.56504e-07
9.59605e-07 -2.56504e-07 -1.58119e-05
0.00271063 -2.14566e-05 -5.664e-06
-2.14566e-05 0.000867198 -2.00137e-06
-5.664e-06 -2.00137e-06 0.000876932
0.00234711 -1.73913e-05 -4.43795e-06
-1.73913e-05 0.00066038 -2.48511e-06
-4.43795e-06 -2.48511e-06 0.00067833
0.00249924 -1.96706e-05 -4.96613e-06
-1.96706e-05 0.000747364 -2.23053e-06
-4.96613e-06 -2.23053e-06 0.000761922
0.000857966 -1.31556e-05 -3.20585e-06
-1.31556e-05 -5.62084e-05 -1.62038e-06
-3.20585e-06 -1.62038e-06 -5.99014e-05
0.00263986 -2.14843e-05 8.17096e-08
-2.14843e-05 0.000851058 -9.54128e-08
8.17096e-08 -9.54128e-08 0.000857508
0.0024713 -2.06162e-05 6.62585e-08
-2.06162e-05 0.000744427 -6.66238e-08
6.62585e-08 -6.66238e-08 0.000756711
0.000887317 -1.41326e-05 1.07212e-07
-1.41326e-05 -2.83162e-05 -5.64785e-08
1.07212e-07 -5.64785e-08 -4.29089e-05
0.00166957 -1.5898e-05 -1.26675e-06
-1.5898e-05 0.000327052 -9.34034e-07
-1.26675e-06 -9.34034e-07 0.000344215
0.000916579 -1.3517e-05 4.08239e-08
-1.3517e-05 -2.40422e-05 -8.05168e-09
4.08239e-08 -8.05168e-09 -3.05986e-05
0.00120639 -1.27199e-05 7.22878e-07
-1.27199e-05 0.000107239 4.46185e-07
7.22878e-07 4.46185e-07 0.000106694
0.000998801 -6.52719e-06 5.98458e-08
-6.52719e-06 2.60242e-06 -4.34164e-08
5.98458e-08 -4.34164e-08 -2.58374e-05
0.00217 -1.49954e-05 4.15673e-06
-1.49954e-05 0.000563499 2.71939e-06
4.15673e-06 2.71939e-06 0.000584129
0.000963738 -1.01753e-05 2.60167e-06
-1.01753e-05 -2.62001e-05 2.01279e-06
2.60167e-06 2.01279e-06 -2.43055e-05
0.000771369 -1.40775e-05 5.47759e-06
-1.40775e-05 -7.45114e-05 1.75215e-06
5.47759e-06 1.75215e-06 -9.42133e-05
0.000854538 -1.35945e-05 4.83443e-06
-1.35945e-05 -4.85016e-05 2.20007e-06
4.83443e-06 2.20007e-06 -5.93696e-05
0.00101185 -4.46549e-06 1.97998e-06
-4.46549e-06 3.44276e-06 5.1787e-07
1.97998e-06 5.1787e-07 -3.63457e-05
0.00151165 -1.22167e-05 3.38053e-06
-1.22167e-05 0.000248464 1.79105e-06
3.38053e-06 1.79105e-06 0.000250798
0.00101905 -5.99163e-06 2.05364e-06
-5.99163e-06 1.15797e-05 8.61142e-07
2.05364e-06 8.61142e-07 -2.00214e-05
0.00102138 -6.69736e-06 2.00624e-06
-6.69736e-06 1.23543e-05 1.01219e-06
2.00624e-06 1.01219e-06 -1.35821e-05
0.00107034 -1.10795e-07 1.19119e-06
-1.10795e-07 2.84661e-05 3.84487e-07
1.19119e-06 3.84487e-07 -1.46189e-05
0.00217564 -1.24363e-05 3.73781e-06
-1.24363e-05 0.00055507 3.00961e-06
3.73781e-06 3.00961e-06 0.000577389
0.00222833 -1.36606e-05 8.08004e-08
-1.36606e-05 0.000585143 -4.79794e-08
8.08004e-08 -4.79794e-08 0.000606492
0.00279595 -2.078e-05 -6.9357e-06
-2.078e-05 0.000960541 -1.40591e-06
-6.9357e-06 -1.40591e-06 0.000960944
0.00264004 -1.61744e-05 -7.5715e-06
-1.61744e-05 0.000929318 -7.99465e-07
-7.5715e-06 -7.99465e-07 0.000923972
0.00243188 -1.1502e-05 1.21334e-07
-1.1502e-05 0.000850804 -9.85353e-08
1.21334e-07 -9.85353e-08 0.000843628
0.00182991 -1.6757e-05 -2.27429e-06
-1.6757e-05 0.000527051 -4.58145e-07
-2.27429e-06 -4.58145e-07 0.000518075
0.00108268 -1.04757e-05 1.20392e-06
-1.04757e-05 0.000143385 -2.35317e-08
1.20392e-06 -2.35317e-08 0.000110966
0.00194645 -2.06395e-05 -2.04976e-06
-2.06395e-05 0.000534581 -6.72975e-07
-2.04976e-06 -6.72975e-07 0.000533231
0.00119713 -1.41727e-05 1.12517e-06
-1.41727e-05 0.000160245 2.11106e-07
1.12517e-06 2.11106e-07 0.000134643
0.00243944 8.21179e-07 7.40676e-06
8.21179e-07 0.000858387 -7.86279e-08
7.40676e-06 -7.86279e-08 0.000850575
0.000677898 -7.52581e-06 4.07573e-06
-7.52581e-06 -3.46084e-05 1.12991e-07
4.07573e-06 1.12991e-07 -7.13249e-05
0.00139657 -1.27697e-05 6.56911e-06
-1.27697e-05 0.000276606 9.81605e-07
6.56911e-06 9.81605e-07 0.000249589
0.000960579 -7.40363e-06 1.49753e-06
-7.40363e-06 2.25068e-05 -4.11254e-07
1.49753e-06 -4.11254e-07 -3.06043e-05
0.00155623 -1.5098e-05 4.60926e-06
-1.5098e-05 0.000315724 7.99361e-07
4.60926e-06 7.99361e-07 0.000296783
0.000997447 -7.55402e-06 1.60408e-06
-7.55402e-06 1.3262e-05 1.98692e-07
1.60408e-06 1.98692e-07 -3.5796e-05
0.000991253 1.15779e-05 -7.54296e-06
1.15779e-05 0.000143125 5.13798e-07
-7.54296e-06 5.13798e-07 0.000125488
0.00111057 1.85959e-05 -2.73855e-06
1.85959e-05 0.000155054 3.70267e-07
-2.73855e-06 3.70267e-07 0.000145332
0.00112087 1.802e-05 -1.87252e-06
1.802e-05 7.21251e-05 6.59307e-07
-1.87252e-06 6.59307e-07 8.37454e-05
0.00112258 2.05394e-05 -2.38203e-06
2.05394e-05 0.000122244 4.3397e-07
-2.38203e-06 4.3397e-07 0.000121526
0.00117658 1.42729e-05 -5.2933e-06
1.42729e-05 0.000139552 1.26082e-06
-5.2933e-06 1.26082e-06 0.000118142
0.00117657 1.46273e-05 -4.69512e-06
1.46273e-05 0.000116819 1.46937e-06
-4.69512e-06 1.46937e-06 0.000103802
0.0011694 1.38608e-05 -4.16006e-06
1.38608e-05 9.78408e-05 1.73404e-06
-4.16006e-06 1.73404e-06 9.13402e-05
0.00134532 7.37975e-06 -2.83561e-06
7.37975e-06 0.000169071 1.11333e-06
-2.83561e-06 1.11333e-06 0.00013592
0.00250615 1.17377e-05 -1.3858e-07
1.17377e-05 0.000882934 -1.20532e-07
-1.3858e-07 -1.20532e-07 0.000875669
0.00115381 1.6017e-05 4.04021e-06
1.6017e-05 0.000195987 -8.03598e-07
4.04021e-06 -8.03598e-07 0.000181627
0.000878989 9.54559e-06 -2.15964e-06
9.54559e-06 4.17196e-05 1.79823e-07
-2.15964e-06 1.79823e-07 7.28916e-06
0.00117518 1.35378e-05 -1.07424e-06
1.35378e-05 0.000150879 1.55164e-07
-1.07424e-06 1.55164e-07 0.000124843
0.0017672 1.69843e-05 2.64033e-06
1.69843e-05 0.000376842 -1.65113e-06
2.64033e-06 -1.65113e-06 0.000392437
0.00134347 1.35914e-05 -4.38044e-07
1.35914e-05 0.000174777 2.21363e-07
-4.38044e-07 2.21363e-07 0.000172244
0.00117458 1.47827e-05 -7.93476e-07
1.47827e-05 0.000126321 1.8941e-07
-7.93476e-07 1.8941e-07 0.000109281
0.00125274 6.85103e-06 -7.98684e-07
6.85103e-06 0.000133245 3.77181e-07
-7.98684e-07 3.77181e-07 8.85594e-05
0.00137128 7.19414e-06 -7.52407e-07
7.19414e-06 0.000180623 5.35651e-07
-7.52407e-07 5.35651e-07 0.000150852
0.00129433 7.56122e-06 -4.20407e-07
7.56122e-06 0.000147012 1.84928e-07
-4.20407e-07 1.84928e-07 0.000110321
0.0010909 3.39045e-07 3.22955e-08
3.39045e-07 2.94176e-05 -3.78526e-08
3.22955e-08 -3.78526e-08 -1.9128e-05
0.000700703 6.54886e-06 4.36056e-06
6.54886e-06 -2.9097e-05 -9.52015e-08
4.36056e-06 -9.52015e-08 -6.66262e-05
0.00117849 1.23717e-05 3.53104e-06
1.23717e-05 0.000166469 -5.05553e-07
3.53104e-06 -5.05553e-07 0.000136491
0.0011241 7.00766e-06 1.09445e-06
7.00766e-06 9.3564e-05 2.20667e-07
1.09445e-06 2.20667e-07 4.08651e-05
0.00123903 7.13167e-06 1.26941e-06
7.13167e-06 0.000128798 -1.72067e-07
1.26941e-06 -1.72067e-07 8.04012e-05
0.001188 7.36525e-06 1.45688e-06
7.36525e-06 9.95962e-05 -2.72868e-07
1.45688e-06 -2.72868e-07 5.84506e-05
0.00123312 1.5081e-06 1.90721e-07
1.5081e-06 9.77752e-05 1.63072e-08
1.90721e-07 1.63072e-08 4.26016e-05
0.00236031 1.61735e-05 4.31063e-06
1.61735e-05 0.000656191 -2.65369e-06
4.31063e-06 -2.65369e-06 0.00067555
0.00112936 1.16507e-06 8.00979e-07
1.16507e-06 4.69695e-05 -1.53517e-07
8.00979e-07 -1.53517e-07 -3.53027e-06
0.000940164 1.2608e-05 3.01187e-06
1.2608e-05 -2.61735e-05 -1.66521e-06
3.01187e-06 -1.66521e-06 -2.80016e-05
0.00101764 6.76933e-06 1.98107e-06
6.76933e-06 8.82684e-06 -9.01153e-07
1.98107e-06 -9.01153e-07 -1.99041e-05
0.00107771 -3.84282e-07 1.0215e-06
-3.84282e-07 2.54395e-05 -4.23714e-07
1.0215e-06 -4.23714e-07 -2.14417e-05
0.00116289 -4.80348e-06 2.84066e-07
-4.80348e-06 4.87202e-05 1.03726e-07
2.84066e-07 1.03726e-07 -5.06754e-06
0.000921641 1.08871e-05 2.68063e-06
1.08871e-05 -4.50894e-05 -1.93808e-06
2.68063e-06 -1.93808e-06 -4.41734e-05
0.00101993 5.31769e-06 1.62878e-06
5.31769e-06 -2.85048e-06 -1.17026e-06
1.62878e-06 -1.17026e-06 -2.51486e-05
0.0028043 -2.18716e-05 -6.17163e-06
-2.18716e-05 0.000925072 -1.85698e-06
-6.17163e-06 -1.85698e-06 0.000931853
0.00259416 -2.06779e-05 -5.24818e-06
-2.06779e-05 0.000801507 -2.1059e-06
-5.24818e-06 -2.1059e-06 0.000813876
0.000802913 -1.4093e-05 -3.81857e-06
-1.4093e-05 -6.69014e-05 -1.40781e-06
-3.81857e-06 -1.40781e-06 -8.15229e-05
0.00230968 -1.61554e-05 -4.28028e-06
-1.61554e-05 0.000635723 -2.63263e-06
-4.28028e-06 -2.63263e-06 0.000654963
0.000876575 -1.26303e-05 -3.0031e-06
-1.26303e-05 -5.18631e-05 -1.7064e-06
-3.0031e-06 -1.7064e-06 -5.3355e-05
0.000836426 -1.35938e-05 -3.42594e-06
-1.35938e-05 -6.16045e-05 -1.4767e-06
-3.42594e-06 -1.4767e-06 -6.80387e-05
0.000982187 -6.5197e-06 -2.07314e-06
-6.5197e-06 -5.08874e-06 -9.76792e-07
-2.07314e-06 -9.76792e-07 -3.35056e-05
0.00223244 -1.49368e-05 7.66562e-08
-1.49368e-05 0.000592882 -5.25981e-08
7.66562e-08 -5.25981e-08 0.000613335
0.000946441 -1.02019e-05 6.70711e-08
-1.02019e-05 -3.45632e-05 -2.94842e-08
6.70711e-08 -2.94842e-08 -3.25709e-05
0.00120899 -1.45742e-05 1.07452e-06
-1.45742e-05 0.000135991 3.05126e-07
1.07452e-06 3.05126e-07 0.000118665
0.00120728 -1.40436e-05 9.01483e-07
-1.40436e-05 0.000121769 4.23264e-07
9.01483e-07 4.23264e-07 0.00011287
0.0010056 -4.63043e-06 2.11201e-08
-4.63043e-06 8.57214e-07 -9.50083e-08
2.11201e-08 -9.50083e-08 -3.90112e-05
0.000948254 -1.18768e-05 2.89771e-08
-1.18768e-05 -2.34814e-05 -2.08942e-08
2.89771e-08 -2.08942e-08 -2.3411e-05
0.000996673 -6.19381e-06 -2.21262e-09
-6.19381e-06 1.53508e-06 3.35281e-08
-2.21262e-09 3.35281e-08 -3.00542e-05
0.00100467 -6.7042e-06 4.27e-08
-6.7042e-06 4.55838e-06 -5.03081e-09
4.27e-08 -5.03081e-09 -2.13288e-05
0.00101664 -2.45773e-07 -3.33889e-09
-2.45773e-07 2.97203e-06 -5.44733e-08
-3.33889e-09 -5.44733e-08 -4.07099e-05
0.000957142 -1.10258e-05 2.81598e-06
-1.10258e-05 -2.46516e-05 1.84957e-06
2.81598e-06 1.84957e-06 -2.35649e-05
0.000970466 -9.3313e-06 2.35975e-06
-9.3313e-06 -2.72344e-05 2.15509e-06
2.35975e-06 2.15509e-06 -2.45052e-05
0.00103281 -5.87481e-06 1.73433e-06
-5.87481e-06 5.94585e-06 1.12359e-06
1.73433e-06 1.12359e-06 -1.56314e-05
0.00100629 -5.9332e-06 1.87174e-06
-5.9332e-06 3.60894e-07 2.38904e-07
1.87174e-06 2.38904e-07 -4.26653e-05
0.00101886 -4.88707e-06 2.02681e-06
-4.88707e-06 1.02022e-05 7.8398e-07
2.02681e-06 7.8398e-07 -2.55472e-05
0.00109717 1.68044e-06 8.50938e-07
1.68044e-06 2.19478e-05 1.87419e-07
8.50938e-07 1.87419e-07 -2.98442e-05
0.00102895 -6.53141e-06 1.93872e-06
-6.53141e-06 1.1488e-05 1.05217e-06
1.93872e-06 1.05217e-06 -1.21654e-05
0.00098043 1.0407e-06 1.02298e-06
1.0407e-06 -1.95076e-05 4.43253e-07
1.02298e-06 4.43253e-07 -6.60025e-05
0.00107368 -8.45291e-07 1.17525e-06
-8.45291e-07 3.24436e-05 5.62983e-07
1.17525e-06 5.62983e-07 -9.12657e-06
0.00121609 5.73362e-06 2.51485e-07
5.73362e-06 9.25286e-05 -2.25586e-07
2.51485e-07 -2.25586e-07 4.26503e-05
0.00217158 -1.11737e-05 3.46791e-06
-1.11737e-05 0.000548269 3.11104e-06
3.46791e-06 3.11104e-06 0.000571387
0.0022194 -1.24019e-05 8.25369e-08
-1.24019e-05 0.000575651 -4.23351e-08
8.25369e-08 -4.23351e-08 0.00059786
0.00228162 -1.3617e-05 -3.87248e-06
-1.3617e-05 0.000610225 -2.9263e-06
-3.87248e-06 -2.9263e-06 0.000631428
0.000933558 9.99808e-06 2.46516e-06
9.99808e-06 -4.32332e-05 -2.08346e-06
2.46516e-06 -2.08346e-06 -4.15206e-05
0.00233899 1.48526e-05 4.12395e-06
1.48526e-05 0.000640264 -2.80498e-06
4.12395e-06 -2.80498e-06 0.000660637
0.00283016 -2.17203e-05 -6.60187e-06
-2.17203e-05 0.000955292 -1.65061e-06
-6.60187e-06 -1.65061e-06 0.000958932
0.00273574 -1.89363e-05 -7.2585e-06
-1.89363e-05 0.00095406 -1.13597e-06
-7.2585e-06 -1.13597e-06 0.000951333
0.00074775 -1.3303e-05 -4.21491e-06
-1.3303e-05 -5.30243e-05 -8.36602e-07
-4.21491e-06 -8.36602e-07 -8.13139e-05
0.000712777 -9.55018e-06 -4.32574e-06
-9.55018e-06 -3.35352e-05 -4.09224e-07
-4.32574e-06 -4.09224e-07 -6.8988e-05
0.00248633 -1.25251e-05 -7.55421e-06
-1.25251e-05 0.000874127 -4.20421e-07
-7.55421e-06 -4.20421e-07 0.000867085
0.00242078 1.25761e-07 1.50302e-07
1.25761e-07 0.000850227 -1.23932e-07
1.50302e-07 -1.23932e-07 0.000842443
0.000683874 -7.02282e-06 -2.77339e-08
-7.02282e-06 -3.1513e-05 1.55103e-08
-2.77339e-08 1.55103e-08 -6.83191e-05
0.00115424 -1.28245e-05 1.20696e-06
-1.28245e-05 0.000157754 9.69011e-08
1.20696e-06 9.69011e-08 0.000128155
0.000965944 -7.29413e-06 -2.93259e-08
-7.29413e-06 2.49091e-05 -1.61175e-07
-2.93259e-08 -1.61175e-07 -2.82764e-05
0.000837713 -1.4429e-05 7.28838e-08
-1.4429e-05 -3.05495e-05 -8.22629e-08
7.28838e-08 -8.22629e-08 -5.41118e-05
0.000995676 -7.46463e-06 -2.31706e-08
-7.46463e-06 1.27822e-05 -1.55756e-08
-2.31706e-08 -1.55756e-08 -3.63474e-05
0.000684148 -3.83139e-07 4.17075e-06
-3.83139e-07 -2.74846e-05 2.91468e-08
4.17075e-06 2.91468e-08 -6.51016e-05
0.000935462 -6.3587e-06 1.27043e-06
-6.3587e-06 2.6753e-05 -8.73636e-08
1.27043e-06 -8.73636e-08 -2.64314e-05
0.00098077 -7.48476e-06 1.55898e-06
-7.48476e-06 1.74386e-05 -9.04116e-09
1.55898e-06 -9.04116e-09 -3.44762e-05
0.00106951 -7.18799e-06 3.17498e-07
-7.18799e-06 4.71784e-05 -5.4881e-07
3.17498e-07 -5.4881e-07 -1.13862e-05
0.00100315 -7.34352e-06 1.73014e-06
-7.34352e-06 5.13627e-06 1.49919e-07
1.73014e-06 1.49919e-07 -4.07772e-05
0.00110515 -6.01445e-06 2.98094e-07
-6.01445e-06 3.88842e-05 6.02773e-08
2.98094e-07 6.02773e-08 -1.75082e-05
0.00243459 1.10547e-05 -6.96428e-06
1.10547e-05 0.00085205 2.2636e-07
-6.96428e-06 2.2636e-07 0.000844667
0.00109366 1.63725e-05 -2.90646e-06
1.63725e-05 0.000167698 3.00586e-07
-2.90646e-06 3.00586e-07 0.000153655
0.000347219 8.85652e-06 -6.25607e-06
8.85652e-06 -0.000214556 5.16976e-07
-6.25607e-06 5.16976e-07 -0.000253053
0.00117258 1.3382e-05 -5.67007e-06
1.3382e-05 0.000149782 1.12994e-06
-5.67007e-06 1.12994e-06 0.000123822
0.00228499 1.78372e-05 -1.98699e-06
1.78372e-05 0.000626325 9.45091e-07
-1.98699e-06 9.45091e-07 0.000644877
0.00152784 1.36556e-05 -3.9678e-06
1.36556e-05 0.000264442 1.82658e-06
-3.9678e-06 1.82658e-06 0.000262829
0.00117646 1.46626e-05 -4.97129e-06
1.46626e-05 0.000127604 1.35479e-06
-4.97129e-06 1.35479e-06 0.000110618
0.00115748 6.57185e-06 -2.54068e-06
6.57185e-06 8.67676e-05 8.60046e-07
-2.54068e-06 8.60046e-07 4.13491e-05
0.00136669 7.721e-06 -2.45496e-06
7.721e-06 0.000181799 6.76679e-07
-2.45496e-06 6.76679e-07 0.000145651
0.00135846 7.13249e-06 -2.82563e-06
7.13249e-06 0.000174137 1.29052e-06
-2.82563e-06 1.29052e-06 0.000144045
0.00108377 3.41383e-07 -8.89151e-07
3.41383e-07 2.58236e-05 1.74434e-07
-8.89151e-07 1.74434e-07 -2.26167e-05
0.000689181 7.02512e-06 3.80725e-08
7.02512e-06 -3.45564e-05 -8.28232e-08
3.80725e-08 -8.28232e-08 -7.1986e-05
0.00116793 1.22113e-05 -1.2215e-06
1.22113e-05 0.000161345 1.5365e-07
-1.2215e-06 1.5365e-07 0.000131427
0.000992415 6.7592e-06 -4.54961e-07
6.7592e-06 2.87572e-05 1.0969e-07
-4.54961e-07 1.0969e-07 -2.52476e-05
0.00129361 7.08517e-06 -5.06482e-07
7.08517e-06 0.000154948 1.37904e-07
-5.06482e-07 1.37904e-07 0.000106825
0.00229182 1.62288e-05 -7.1432e-08
1.62288e-05 0.000623963 -5.41674e-08
-7.1432e-08 -5.41674e-08 0.000643482
0.0012373 1.28039e-05 7.31965e-09
1.28039e-05 0.000117369 -8.07432e-08
7.31965e-09 -8.07432e-08 0.000116651
0.0012006 6.90332e-06 1.57819e-09
6.90332e-06 9.66888e-05 -7.69004e-09
1.57819e-09 -7.69004e-09 6.88824e-05
0.00119052 7.40028e-06 -4.54399e-07
7.40028e-06 0.000100635 1.81694e-07
-4.54399e-07 1.81694e-07 5.94718e-05
0.00111939 1.49091e-06 -3.18267e-07
1.49091e-06 4.29036e-05 2.05404e-07
-3.18267e-07 2.05404e-07 -1.30966e-05
0.00101961 -2.00601e-07 2.92947e-09
-2.00601e-07 -2.30872e-06 -5.87143e-08
2.92947e-09 -5.87143e-08 -4.93578e-05
0.00119884 1.33133e-06 2.43042e-08
1.33133e-06 8.02334e-05 -2.61222e-08
2.43042e-08 -2.61222e-08 3.03812e-05
0.001155 -4.672e-06 5.21592e-08
-4.672e-06 4.50512e-05 -5.77124e-09
5.21592e-08 -5.77124e-09 -8.66948e-06
0.000939758 1.0855e-05 -5.41678e-08
1.0855e-05 -3.63007e-05 -2.94031e-08
-5.41678e-08 -2.94031e-08 -3.54973e-05
0.00102566 5.32024e-06 -5.24917e-08
5.32024e-06 -7.92809e-08 -2.46106e-08
-5.24917e-08 -2.46106e-08 -2.24015e-05
0.000920558 5.88396e-06 1.45621e-06
5.88396e-06 1.29317e-05 2.57136e-07
1.45621e-06 2.57136e-07 -4.12602e-05
0.00119895 7.29019e-06 1.18412e-06
7.29019e-06 0.000114957 4.35368e-09
1.18412e-06 4.35368e-09 6.35094e-05
0.0011999 6.85629e-06 7.26397e-08
6.85629e-06 9.9165e-05 2.42515e-07
7.26397e-08 2.42515e-07 3.97255e-05
0.00110812 3.52611e-06 6.76282e-07
3.52611e-06 3.58117e-05 -2.41585e-07
6.76282e-07 -2.41585e-07 -2.31346e-05
0.00123379 2.32489e-06 4.06617e-07
2.32489e-06 9.78921e-05 -2.99239e-08
4.06617e-07 -2.99239e-08 4.57816e-05
0.0012043 7.03574e-07 -3.38515e-07
7.03574e-07 6.7768e-05 3.43969e-09
-3.38515e-07 3.43969e-09 8.44175e-06
0.000905652 1.17923e-05 2.85718e-06
1.17923e-05 -4.79217e-05 -1.78808e-06
2.85718e-06 -1.78808e-06 -4.81295e-05
0.0011624 -3.40738e-06 6.96716e-08
-3.40738e-06 4.68383e-05 8.61653e-08
6.96716e-08 8.61653e-08 -8.05961e-06
0.000994761 6.50832e-06 1.91747e-06
6.50832e-06 -5.13702e-06 -9.31866e-07
1.91747e-06 -9.31866e-07 -3.14931e-05
0.000954807 -4.06629e-08 1.29445e-06
-4.06629e-08 -3.04766e-05 -7.95933e-07
1.29445e-06 -7.95933e-07 -7.55707e-05
0.00125937 -6.12169e-06 1.60914e-07
-6.12169e-06 9.90583e-05 1.7594e-07
1.60914e-07 1.7594e-07 4.6589e-05
0.00116799 -6.04817e-06 -2.42092e-07
-6.04817e-06 4.33571e-05 4.27394e-07
-2.42092e-07 4.27394e-07 -1.19835e-05
0.00101348 5.71066e-06 1.78013e-06
5.71066e-06 -3.84457e-06 -1.0594e-06
1.78013e-06 -1.0594e-06 -2.68454e-05
0.00102478 4.96908e-06 1.47182e-06
4.96908e-06 -2.2072e-06 -1.24945e-06
1.47182e-06 -1.24945e-06 -2.39769e-05
0.00107231 1.08257e-06 1.02704e-06
1.08257e-06 2.08426e-05 -6.43965e-07
1.02704e-06 -6.43965e-07 -1.70285e-05
0.000793046 -1.42273e-05 -4.03756e-06
-1.42273e-05 -6.32683e-05 -1.21074e-06
-4.03756e-06 -1.21074e-06 -8.25045e-05
0.00229539 -1.48801e-05 -4.10308e-06
-1.48801e-05 0.000622492 -2.7907e-06
-4.10308e-06 -2.7907e-06 0.000642768
0.000929046 -1.0229e-05 -2.45574e-06
-1.0229e-05 -4.29675e-05 -2.08341e-06
-2.45574e-06 -2.08341e-06 -4.0878e-05
0.000814706 -1.39002e-05 -3.58745e-06
-1.39002e-05 -6.65582e-05 -1.4512e-06
-3.58745e-06 -1.4512e-06 -7.67091e-05
0.000999107 -4.79046e-06 -2.02447e-06
-4.79046e-06 -1.84593e-06 -7.45446e-07
-2.02447e-06 -7.45446e-07 -4.17937e-05
0.000899116 -1.19333e-05 -2.86661e-06
-1.19333e-05 -4.68416e-05 -1.77913e-06
-2.86661e-06 -1.77913e-06 -4.6623e-05
0.000988363 -6.70919e-06 -1.96214e-06
-6.70919e-06 -3.05407e-06 -1.05112e-06
-1.96214e-06 -1.05112e-06 -2.88925e-05
0.000974081 -6.36395e-06 -2.1375e-06
-6.36395e-06 -8.60062e-06 -8.36529e-07
-2.1375e-06 -8.36529e-07 -4.01789e-05
0.000962199 -3.77556e-07 -1.19845e-06
-3.77556e-07 -2.28728e-05 -5.42193e-07
-1.19845e-06 -5.42193e-07 -6.71504e-05
0.000937451 -1.10571e-05 5.67681e-08
-1.10571e-05 -3.41583e-05 -3.63543e-08
5.67681e-08 -3.63543e-08 -3.29672e-05
0.000955115 -9.35462e-06 6.68413e-08
-9.35462e-06 -3.46582e-05 -1.89773e-08
6.68413e-08 -1.89773e-08 -3.18372e-05
0.00102193 -5.87763e-06 5.74513e-08
-5.87763e-06 7.59202e-07 -2.27751e-08
5.74513e-08 -2.27751e-08 -2.07765e-05
0.00100791 -5.95143e-06 -8.90933e-09
-5.95143e-06 1.26866e-06 -9.525e-08
-8.90933e-09 -9.525e-08 -4.18671e-05
0.000999466 -5.19683e-06 3.98874e-08
-5.19683e-06 1.71333e-06 -2.95279e-08
3.98874e-08 -2.95279e-08 -3.40612e-05
0.00110997 2.06206e-06 1.17095e-08
2.06206e-06 2.77095e-05 -2.20153e-09
1.17095e-08 -2.20153e-09 -2.41697e-05
0.00101292 -6.54458e-06 6.83044e-09
-6.54458e-06 4.02502e-06 1.79673e-08
6.83044e-09 1.79673e-08 -1.95703e-05
0.0010283 1.24073e-06 -3.79448e-08
1.24073e-06 3.72325e-06 -4.14784e-08
-3.79448e-08 -4.14784e-08 -4.25928e-05
0.00107192 -1.27489e-06 4.26699e-08
-1.27489e-06 3.2069e-05 -4.10962e-08
4.26699e-08 -4.10962e-08 -9.61113e-06
0.00113438 5.73799e-06 -3.42705e-07
5.73799e-06 5.346e-05 -1.46165e-07
-3.42705e-07 -1.46165e-07 3.00557e-06
0.000976276 -8.45478e-06 2.12173e-06
-8.45478e-06 -2.85673e-05 2.26969e-06
2.12173e-06 2.26969e-06 -2.49843e-05
0.00103111 -6.17902e-06 1.89823e-06
-6.17902e-06 7.95804e-06 1.03519e-06
1.89823e-06 1.03519e-06 -1.43472e-05
0.00103561 -5.54816e-06 1.55274e-06
-5.54816e-06 4.63165e-06 1.23016e-06
1.55274e-06 1.23016e-06 -1.61552e-05
0.00107885 -4.16829e-06 1.08436e-06
-4.16829e-06 2.74647e-05 6.128e-07
1.08436e-06 6.128e-07 -9.55307e-06
0.00110174 -1.88887e-06 7.9751e-07
-1.88887e-06 2.06232e-05 -9.98636e-08
7.9751e-07 -9.98636e-08 -3.23366e-05
0.00109249 2.36387e-06 9.65963e-07
2.36387e-06 2.82657e-05 4.94139e-07
9.65963e-07 4.94139e-07 -2.09878e-05
0.00115823 5.08588e-06 2.24702e-07
5.08588e-06 3.33173e-05 2.40725e-08
2.24702e-07 2.40725e-08 -2.32143e-05
0.00108656 -2.12408e-06 1.15424e-06
-2.12408e-06 3.59513e-05 7.01398e-07
1.15424e-06 7.01398e-07 -3.4652e-06
0.00108139 6.92521e-06 1.21065e-07
6.92521e-06 1.80778e-05 5.84463e-09
1.21065e-07 5.84463e-09 -3.46568e-05
0.00110921 4.17537e-06 7.53999e-07
4.17537e-06 4.69621e-05 5.62337e-08
7.53999e-07 5.62337e-08 -4.07067e-06
0.00109502 8.4091e-06 1.80502e-07
8.4091e-06 2.87189e-05 -3.4131e-07
1.80502e-07 -3.4131e-07 -2.55e-05
0.00105146 -3.33273e-06 9.40943e-07
-3.33273e-06 1.84024e-06 1.52005e-06
9.40943e-07 1.52005e-06 -1.66465e-05
0.000975198 -6.58169e-06 1.67408e-06
-6.58169e-06 -3.64446e-05 2.47028e-06
1.67408e-06 2.47028e-06 -3.14963e-05
0.00216887 -9.89788e-06 3.17839e-06
-9.89788e-06 0.000542442 3.19569e-06
3.17839e-06 3.19569e-06 0.000566294
0.00220838 -1.11435e-05 8.25954e-08
-1.11435e-05 0.000565524 -3.63645e-08
8.25954e-08 -3.63645e-08 0.000588556
0.00226336 -1.2369e-05 -3.60512e-06
-1.2369e-05 0.000596314 -3.0351e-06
-3.60512e-06 -3.0351e-06 0.000618413
0.000944045 9.13527e-06 2.24433e-06
9.13527e-06 -4.17494e-05 -2.20136e-06
2.24433e-06 -2.20136e-06 -3.93782e-05
0.00231804 1.35518e-05 3.89749e-06
1.35518e-05 0.000625293 -2.93951e-06
3.89749e-06 -2.93951e-06 0.000646537
0.000949437 9.97259e-06 -6.34239e-08
9.97259e-06 -3.55558e-05 -2.79608e-08
-6.34239e-08 -2.79608e-08 -3.39351e-05
0.00227742 1.49082e-05 -7.64843e-08
1.49082e-05 0.000611192 -5.05955e-08
-7.64843e-08 -5.05955e-08 0.000631741
0.000774429 -1.40882e-05 -4.15978e-06
-1.40882e-05 -5.81664e-05 -9.8799e-07
-4.15978e-06 -9.8799e-07 -8.1935e-05
0.000725951 -1.17404e-05 -4.28354e-06
-1.17404e-05 -4.53397e-05 -7.24676e-07
-4.28354e-06 -7.24676e-07 -7.78624e-05
0.000994024 -7.37599e-06 -1.62979e-06
-7.37599e-06 1.23527e-05 -2.34503e-07
-1.62979e-06 -2.34503e-07 -3.68479e-05
0.000971239 -7.18529e-06 -1.5098e-06
-7.18529e-06 2.7279e-05 7.83361e-08
-1.5098e-06 7.83361e-08 -2.59808e-05
0.000689616 -6.51859e-06 -4.20499e-06
-6.51859e-06 -2.85404e-05 -6.73874e-08
-4.20499e-06 -6.73874e-08 -6.54342e-05
0.00240439 -5.6494e-07 -7.15885e-06
-5.6494e-07 0.000842992 -1.24152e-07
-7.15885e-06 -1.24152e-07 0.000835245
0.000675844 8.23119e-08 4.55895e-08
8.23119e-08 -3.10584e-05 -9.93935e-08
4.55895e-08 -9.93935e-08 -6.86494e-05
0.000941205 -6.23406e-06 -6.79894e-08
-6.23406e-06 2.92727e-05 1.21781e-07
-6.79894e-08 1.21781e-07 -2.39661e-05
0.000984151 -7.38563e-06 -2.34381e-09
-7.38563e-06 1.90908e-05 -1.1971e-07
-2.34381e-09 -1.1971e-07 -3.28953e-05
0.00107344 -7.19125e-06 -1.30166e-08
-7.19125e-06 4.87801e-05 -1.17851e-07
-1.30166e-08 -1.17851e-07 -9.80212e-06
0.0010044 -7.28189e-06 -2.89032e-08
-7.28189e-06 5.95995e-06 -4.13706e-08
-2.89032e-08 -4.13706e-08 -4.00539e-05
0.00110428 -6.00207e-06 -1.78173e-08
-6.00207e-06 3.846e-05 1.04285e-08
-1.78173e-08 1.04285e-08 -1.79496e-05
0.00093921 7.9206e-08 1.30517e-06
7.9206e-08 3.21328e-05 2.36287e-07
1.30517e-06 2.36287e-07 -2.15641e-05
0.00103858 -6.48438e-06 1.44494e-07
-6.48438e-06 5.09509e-05 -2.24687e-07
1.44494e-07 -2.24687e-07 -6.96107e-06
0.00108628 -6.4611e-06 3.30021e-07
-6.4611e-06 4.10876e-05 -2.0829e-07
3.30021e-07 -2.0829e-07 -1.73087e-05
0.00116172 -8.15113e-06 -9.80865e-08
-8.15113e-06 7.59001e-05 -5.78831e-07
-9.80865e-08 -5.78831e-07 1.5868e-05
0.00110683 -5.13106e-06 4.09637e-07
-5.13106e-06 2.89702e-05 -9.34677e-08
4.09637e-07 -9.34677e-08 -2.52036e-05
0.00114819 -6.34232e-06 -2.4872e-07
-6.34232e-06 4.64336e-05 6.44499e-08
-2.4872e-07 6.44499e-08 -1.17456e-05
0.000677645 7.5004e-06 -4.23084e-06
7.5004e-06 -4.00427e-05 -5.55539e-08
-4.23084e-06 -5.55539e-08 -7.73706e-05
0.00115839 1.20291e-05 -6.00394e-06
1.20291e-05 0.000156722 8.83812e-07
-6.00394e-06 8.83812e-07 0.00012686
0.000861639 6.51934e-06 -2.06655e-06
6.51934e-06 -3.55933e-05 -4.43002e-08
-2.06655e-06 -4.43002e-08 -9.09091e-05
0.00134905 7.08949e-06 -2.24492e-06
7.08949e-06 0.00018148 5.08378e-07
-2.24492e-06 5.08378e-07 0.000133632
0.00222338 1.6283e-05 -4.37718e-06
1.6283e-05 0.000591743 2.60263e-06
-4.37718e-06 2.60263e-06 0.000611424
0.00153615 1.29117e-05 -3.53584e-06
1.29117e-05 0.00026167 1.65518e-06
-3.53584e-06 1.65518e-06 0.000262064
0.00138436 7.01813e-06 -2.10022e-06
7.01813e-06 0.000184928 8.12533e-07
-2.10022e-06 8.12533e-07 0.000158044
0.00119317 7.43629e-06 -2.3565e-06
7.43629e-06 0.000101738 6.33787e-07
-2.3565e-06 6.33787e-07 6.05564e-05
0.00100543 1.4696e-06 -8.32972e-07
1.4696e-06 -1.20702e-05 4.87151e-07
-8.32972e-07 4.87151e-07 -6.88969e-05
0.00126876 1.49804e-06 -7.39298e-07
1.49804e-06 0.000113701 9.72426e-08
-7.39298e-07 9.72426e-08 6.44958e-05
0.000961699 2.30869e-08 -1.0095e-06
2.30869e-08 -2.99746e-05 3.14577e-07
-1.0095e-06 3.14577e-07 -7.71908e-05
0.00114662 -4.53722e-06 -2.00829e-07
-4.53722e-06 4.11542e-05 -1.04534e-07
-2.00829e-07 -1.04534e-07 -1.24991e-05
0.000957974 1.08226e-05 -2.79644e-06
1.08226e-05 -2.74623e-05 1.8622e-06
-2.79644e-06 1.8622e-06 -2.67719e-05
0.00103136 5.32317e-06 -1.72433e-06
5.32317e-06 2.67485e-06 1.11098e-06
-1.72433e-06 1.11098e-06 -1.96704e-05
0.000878634 5.94985e-06 6.2013e-08
5.94985e-06 -8.2152e-06 -3.04943e-08
6.2013e-08 -3.04943e-08 -6.28066e-05
0.0011908 7.24468e-06 -4.9153e-07
7.24468e-06 0.000111043 1.40152e-07
-4.9153e-07 1.40152e-07 5.95318e-05
0.00115733 6.78692e-06 -2.76186e-07
6.78692e-06 7.9429e-05 -1.86707e-08
-2.76186e-07 -1.86707e-08 2.00474e-05
0.00120471 3.72515e-06 1.87406e-07
3.72515e-06 8.30526e-05 -1.50653e-07
1.87406e-07 -1.50653e-07 2.48303e-05
0.000929296 1.17448e-05 -4.59146e-08
1.17448e-05 -3.65679e-05 -2.17844e-08
-4.59146e-08 -2.17844e-08 -3.69155e-05
0.00101016 6.49758e-06 -2.58831e-08
6.49758e-06 2.00265e-06 -2.77915e-09
-2.58831e-08 -2.77915e-09 -2.44044e-05
0.00102397 -2.44962e-07 2.48064e-07
-2.44962e-07 2.56511e-06 -2.8041e-07
2.48064e-07 -2.8041e-07 -4.19101e-05
0.00125343 2.23469e-06 -2.04937e-07
2.23469e-06 0.000107191 1.18633e-07
-2.04937e-07 1.18633e-07 5.5201e-05
0.00115354 1.05338e-06 -1.48241e-07
1.05338e-06 4.29308e-05 1.82264e-07
-1.48241e-07 1.82264e-07 -1.65656e-05
0.0011569 -5.74302e-06 -2.19442e-07
-5.74302e-06 5.00305e-05 1.81203e-07
-2.19442e-07 1.81203e-07 -2.96856e-06
0.00116015 -3.28519e-06 2.73187e-08
-3.28519e-06 4.57454e-05 -1.71502e-08
2.73187e-08 -1.71502e-08 -9.10577e-06
0.0011594 -5.8608e-06 9.58233e-08
-5.8608e-06 3.87224e-05 1.02597e-07
9.58233e-08 1.02597e-07 -1.64821e-05
0.00102148 5.71293e-06 -3.21845e-08
5.71293e-06 3.76902e-09 -1.85235e-08
-3.21845e-08 -1.85235e-08 -2.30348e-05
0.0010094 1.47132e-06 -5.33912e-08
1.47132e-06 -9.78401e-06 -3.36371e-08
-5.33912e-08 -3.36371e-08 -4.80603e-05
0.00103012 4.96664e-06 -4.62325e-08
4.96664e-06 3.5661e-07 -1.19669e-08
-4.62325e-08 -1.19669e-08 -2.14362e-05
0.00118058 6.81419e-06 4.49391e-08
6.81419e-06 0.000108787 3.31794e-07
4.49391e-08 3.31794e-07 5.00881e-05
0.00120023 6.18568e-06 3.25917e-07
6.18568e-06 8.55069e-05 2.1188e-07
3.25917e-07 2.1188e-07 2.61798e-05
0.00110855 7.6973e-06 1.6375e-07
7.6973e-06 4.36489e-05 1.19441e-07
1.6375e-07 1.19441e-07 -1.76205e-05
0.0012276 4.39155e-06 -1.71725e-07
4.39155e-06 7.64405e-05 -1.58149e-07
-1.71725e-07 -1.58149e-07 1.46635e-05
0.00116275 -1.82747e-06 -4.88088e-08
-1.82747e-06 4.7091e-05 -4.60028e-08
-4.88088e-08 -4.60028e-08 -9.39549e-06
0.00118888 2.1826e-06 -4.96953e-07
2.1826e-06 5.18667e-05 -1.66662e-09
-4.96953e-07 -1.66662e-09 -7.53327e-06
0.00100417 6.171e-06 1.8611e-06
6.171e-06 -4.74344e-06 -9.7192e-07
1.8611e-06 -9.7192e-07 -2.90272e-05
0.00119281 -3.88977e-06 -4.4816e-07
-3.88977e-06 5.34524e-05 2.11265e-07
-4.4816e-07 2.11265e-07 -2.51276e-06
0.00107313 1.45795e-07 1.05579e-06
1.45795e-07 2.62958e-05 -5.3041e-07
1.05579e-06 -5.3041e-07 -1.54236e-05
0.00104951 -5.76459e-06 6.50156e-07
-5.76459e-06 4.75535e-06 -4.28723e-07
6.50156e-07 -4.28723e-07 -4.77474e-05
0.00120295 -7.53534e-06 -1.3135e-08
-7.53534e-06 6.39296e-05 4.71456e-07
-1.3135e-08 4.71456e-07 8.38083e-06
0.00121939 -6.34899e-06 -7.59814e-07
-6.34899e-06 6.30361e-05 7.8929e-07
-7.59814e-07 7.8929e-07 9.11516e-06
0.00102942 4.51828e-06 1.33981e-06
4.51828e-06 -2.18292e-06 -1.28969e-06
1.33981e-06 -1.28969e-06 -2.35322e-05
0.0010728 1.07835e-06 1.12135e-06
1.07835e-06 2.15242e-05 -5.4922e-07
1.12135e-06 -5.4922e-07 -1.67475e-05
0.00093756 1.72799e-06 1.15773e-06
1.72799e-06 -4.46823e-05 -1.07673e-06
1.15773e-06 -1.07673e-06 -8.32447e-05
0.00124606 -3.53078e-06 3.69456e-07
-3.53078e-06 0.000102879 1.31213e-07
3.69456e-07 1.31213e-07 5.65171e-05
0.00100924 -5.92715e-06 -1.95315e-06
-5.92715e-06 2.03685e-06 -4.56127e-07
-1.95315e-06 -4.56127e-07 -4.12079e-05
0.000939614 -9.37833e-06 -2.21841e-06
-9.37833e-06 -4.21484e-05 -2.20857e-06
-2.21841e-06 -2.20857e-06 -3.92358e-05
0.000917532 -1.10885e-05 -2.68354e-06
-1.10885e-05 -4.37661e-05 -1.92838e-06
-2.68354e-06 -1.92838e-06 -4.24709e-05
0.00101099 -5.88082e-06 -1.62453e-06
-5.88082e-06 -4.45767e-06 -1.17415e-06
-1.62453e-06 -1.17415e-06 -2.59516e-05
0.000980466 -5.59662e-06 -2.03455e-06
-5.59662e-06 -6.59227e-06 -8.86298e-07
-2.03455e-06 -8.86298e-07 -4.23928e-05
0.00112267 2.40203e-06 -8.31361e-07
2.40203e-06 3.34197e-05 -1.87275e-07
-8.31361e-07 -1.87275e-07 -1.85463e-05
0.000996797 -6.55597e-06 -1.91267e-06
-6.55597e-06 -3.47834e-06 -1.00321e-06
-1.91267e-06 -1.00321e-06 -2.70158e-05
0.00107075 -1.66833e-06 -1.15907e-06
-1.66833e-06 3.19819e-05 -7.16417e-07
-1.15907e-06 -7.16417e-07 -9.80954e-06
0.00107706 1.36799e-06 -1.02868e-06
1.36799e-06 2.73596e-05 -4.79809e-07
-1.02868e-06 -4.79809e-07 -1.87774e-05
0.00105225 5.73619e-06 -1.02176e-06
5.73619e-06 1.42028e-05 -3.00509e-07
-1.02176e-06 -3.00509e-07 -3.68287e-05
0.000963971 -8.47127e-06 5.85018e-08
-8.47127e-06 -3.4525e-05 -1.26525e-08
5.85018e-08 -1.26525e-08 -3.08679e-05
0.0010182 -6.18587e-06 4.4099e-08
-6.18587e-06 1.86649e-06 -2.15443e-08
4.4099e-08 -2.15443e-08 -2.03905e-05
0.00102709 -5.55063e-06 5.05082e-08
-5.55063e-06 5.51822e-07 -1.33928e-08
5.05082e-08 -1.33928e-08 -2.01977e-05
0.00107096 -4.09559e-06 5.29441e-08
-4.09559e-06 2.37354e-05 -2.1572e-08
5.29441e-08 -2.1572e-08 -1.32699e-05
0.00111811 -1.5622e-06 1.26622e-07
-1.5622e-06 2.80453e-05 7.32017e-09
1.26622e-07 7.32017e-09 -2.50261e-05
0.00109257 2.51797e-06 -1.32235e-09
2.51797e-06 2.86793e-05 1.5888e-09
-1.32235e-09 1.5888e-09 -2.06379e-05
0.00117683 5.2021e-06 1.28494e-08
5.2021e-06 4.16675e-05 1.33353e-07
1.28494e-08 1.33353e-07 -1.49284e-05
0.00107099 -2.70897e-06 9.54937e-09
-2.70897e-06 2.90908e-05 2.96039e-08
9.54937e-09 2.96039e-08 -1.03328e-05
0.00116467 7.1711e-06 -1.64713e-07
7.1711e-06 5.78082e-05 -3.45126e-07
-1.64713e-07 -3.45126e-07 5.56419e-06
0.0011128 4.65628e-06 6.53671e-08
4.65628e-06 4.84047e-05 -1.34664e-07
6.53671e-08 -1.34664e-07 -2.76313e-06
0.00109925 8.30227e-06 -5.29407e-07
8.30227e-06 3.16248e-05 -2.60376e-07
-5.29407e-07 -2.60376e-07 -2.21053e-05
0.000982056 -7.52085e-06 1.90224e-06
-7.52085e-06 -2.97415e-05 2.37073e-06
1.90224e-06 2.37073e-06 -2.54119e-05
0.00103796 -5.05511e-06 1.39702e-06
-5.05511e-06 2.72021e-06 1.30893e-06
1.39702e-06 1.30893e-06 -1.72191e-05
0.00108467 -3.31349e-06 1.15577e-06
-3.31349e-06 3.16279e-05 6.29649e-07
1.15577e-06 6.29649e-07 -6.16587e-06
0.00107979 -4.06546e-06 9.55513e-07
-4.06546e-06 2.61783e-05 7.1282e-07
9.55513e-07 7.1282e-07 -1.01028e-05
0.00109598 -7.85917e-07 6.87529e-07
-7.85917e-07 3.52143e-05 2.4839e-07
6.87529e-07 2.4839e-07 -1.16635e-05
0.00116641 -9.32396e-07 1.6354e-07
-9.32396e-07 3.3743e-05 -4.87145e-07
1.6354e-07 -4.87145e-07 -2.21822e-05
0.00114944 7.39559e-06 2.0719e-07
7.39559e-06 4.04411e-05 4.21267e-07
2.0719e-07 4.21267e-07 -1.47362e-05
0.00122675 4.45736e-06 -6.4824e-07
4.45736e-06 5.57038e-05 -2.24543e-07
-6.4824e-07 -2.24543e-07 -1.31182e-06
0.00112275 2.61948e-06 8.92383e-07
2.61948e-06 5.29669e-05 8.63057e-07
8.92383e-07 8.63057e-07 3.0038e-06
0.00113548 9.46328e-06 2.48046e-07
9.46328e-06 3.89105e-05 -1.95243e-08
2.48046e-07 -1.95243e-08 -1.637e-05
0.000996145 8.07369e-06 6.24779e-07
8.07369e-06 -1.22701e-05 -2.85326e-07
6.24779e-07 -2.85326e-07 -7.04084e-05
0.0010473 -3.87412e-06 1.13029e-06
-3.87412e-06 1.94173e-06 1.4564e-06
1.13029e-06 1.4564e-06 -1.6909e-05
0.00109077 -2.0077e-06 5.90201e-07
-2.0077e-06 2.36983e-05 9.01967e-07
5.90201e-07 9.01967e-07 -1.04714e-05
0.00105395 -2.66756e-06 7.82712e-07
-2.66756e-06 9.77319e-07 1.55905e-06
7.82712e-07 1.55905e-06 -1.73551e-05
0.00104743 -3.33862e-06 4.09173e-08
-3.33862e-06 -5.22073e-08 -3.0892e-09
4.09173e-08 -3.0892e-09 -1.85237e-05
0.00147904 -5.79709e-06 1.07896e-06
-5.79709e-06 0.000203405 1.57343e-06
1.07896e-06 1.57343e-06 0.000211317
0.0012335 -6.68235e-06 1.06455e-07
-6.68235e-06 8.8226e-05 1.70994e-08
1.06455e-07 1.70994e-08 9.43645e-05
0.00117864 -8.20651e-06 3.54068e-06
-8.20651e-06 6.05404e-05 5.25307e-06
3.54068e-06 5.25307e-06 8.0076e-05
0.00220033 -9.86506e-06 8.7711e-08
-9.86506e-06 0.000557144 -3.14838e-08
8.7711e-08 -3.14838e-08 0.000580924
0.00224545 -1.11118e-05 -3.32637e-06
-1.11118e-05 0.000582901 -3.13041e-06
-3.32637e-06 -3.13041e-06 0.000605848
0.000954892 8.24308e-06 2.03962e-06
8.24308e-06 -4.02439e-05 -2.30907e-06
2.03962e-06 -2.30907e-06 -3.73454e-05
0.00229914 1.22706e-05 3.64543e-06
1.22706e-05 0.000611648 -3.05873e-06
3.64543e-06 -3.05873e-06 0.000633683
0.000958561 9.1123e-06 -6.03119e-08
9.1123e-06 -3.47823e-05 -2.08939e-08
-6.03119e-08 -2.08939e-08 -3.24856e-05
0.00226674 1.35964e-05 -8.06125e-08
1.35964e-05 0.000601017 -4.62361e-08
-8.06125e-08 -4.62361e-08 0.000622418
0.000965185 9.94773e-06 -2.59955e-06
9.94773e-06 -2.79386e-05 2.01305e-06
-2.59955e-06 2.01305e-06 -2.64095e-05
0.00221674 1.49641e-05 -4.18791e-06
1.49641e-05 0.000582526 2.74427e-06
-4.18791e-06 2.74427e-06 0.000603248
0.00100555 -7.21829e-06 -1.79635e-06
-7.21829e-06 6.73588e-06 -2.44672e-07
-1.79635e-06 -2.44672e-07 -3.93779e-05
0.000987785 -7.28806e-06 -1.55558e-06
-7.28806e-06 2.08557e-05 -2.41487e-07
-1.55558e-06 -2.41487e-07 -3.12013e-05
0.00110368 -5.99133e-06 -3.12009e-07
-5.99133e-06 3.81619e-05 -4.14309e-08
-3.12009e-07 -4.14309e-08 -1.82646e-05
0.00107699 -7.19412e-06 -3.09042e-07
-7.19412e-06 5.02065e-05 3.07406e-07
-3.09042e-07 3.07406e-07 -8.3936e-06
0.000946956 -6.10965e-06 -1.37871e-06
-6.10965e-06 3.17975e-05 3.16705e-07
-1.37871e-06 3.16705e-07 -2.14959e-05
0.000668278 5.47208e-07 -4.11214e-06
5.47208e-07 -3.43138e-05 -2.1397e-07
-4.11214e-06 -2.1397e-07 -7.18766e-05
0.000934854 1.42028e-07 3.2578e-08
1.42028e-07 3.02532e-05 4.84601e-08
3.2578e-08 4.84601e-08 -2.343e-05
0.00104277 -6.47029e-06 -5.6071e-08
-6.47029e-06 5.2696e-05 1.30523e-07
-5.6071e-08 1.30523e-07 -5.23925e-06
0.00109336 -6.46493e-06 1.05186e-08
-6.46493e-06 4.41217e-05 -1.39558e-07
1.05186e-08 -1.39558e-07 -1.42945e-05
0.00114965 -8.20216e-06 -1.233e-08
-8.20216e-06 7.12317e-05 -3.83054e-08
-1.233e-08 -3.83054e-08 1.13414e-05
0.001113 -4.97802e-06 -6.49796e-08
-4.97802e-06 3.15613e-05 2.9628e-08
-6.49796e-08 2.9628e-08 -2.26556e-05
0.00115038 -6.35243e-06 -6.48095e-09
-6.35243e-06 4.75657e-05 1.48116e-08
-6.48095e-09 1.48116e-08 -1.05687e-05
0.00103824 5.12889e-07 2.31389e-07
5.12889e-07 5.55028e-05 4.51149e-07
2.31389e-07 4.51149e-07 -2.77382e-06
0.0010942 -7.22583e-06 -5.69655e-08
-7.22583e-06 6.5826e-05 -4.68589e-07
-5.69655e-08 -4.68589e-07 6.56913e-06
0.00113167 -7.0096e-06 -1.33025e-07
-7.0096e-06 5.0123e-05 -3.2026e-07
-1.33025e-07 -3.2026e-07 -9.79505e-06
0.00117097 -9.31935e-06 5.44198e-07
-9.31935e-06 7.47081e-05 -3.36363e-07
5.44198e-07 -3.36363e-07 1.36843e-05
0.00116831 -5.49599e-06 -2.51393e-07
-5.49599e-06 4.26592e-05 -1.69318e-07
-2.51393e-07 -1.69318e-07 -1.34186e-05
0.00127689 -8.00827e-06 -4.34228e-07
-8.00827e-06 9.67908e-05 2.34011e-07
-4.34228e-07 2.34011e-07 3.93316e-05
0.00083559 6.00982e-06 -1.3783e-06
6.00982e-06 -2.99188e-05 -3.55586e-07
-1.3783e-06 -3.55586e-07 -8.49043e-05
0.00118238 7.20033e-06 -2.17404e-06
7.20033e-06 0.000107004 2.92151e-07
-2.17404e-06 2.92151e-07 5.54291e-05
0.00111366 6.71347e-06 -6.90009e-07
6.71347e-06 5.91551e-05 -3.31056e-07
-6.90009e-07 -3.31056e-07 -1.63584e-07
0.00130112 3.91836e-06 -3.65889e-07
3.91836e-06 0.000130202 -2.27177e-08
-3.65889e-07 -2.27177e-08 7.27042e-05
0.000952643 1.16967e-05 -2.95779e-06
1.16967e-05 -2.53442e-05 1.72592e-06
-2.95779e-06 1.72592e-06 -2.58324e-05
0.00102551 6.48415e-06 -1.95301e-06
6.48415e-06 9.12625e-06 9.14793e-07
-1.95301e-06 9.14793e-07 -1.7332e-05
0.00109353 -5.05871e-07 -8.28399e-07
-5.05871e-07 3.57874e-05 2.11395e-07
-8.28399e-07 2.11395e-07 -8.06915e-06
0.00127267 2.14593e-06 -8.11904e-07
2.14593e-06 0.000116304 2.21357e-07
-8.11904e-07 2.21357e-07 6.44339e-05
0.00110234 1.39913e-06 1.22179e-07
1.39913e-06 1.78957e-05 3.76506e-07
1.22179e-07 3.76506e-07 -4.1771e-05
0.00115774 -3.16176e-06 -2.55652e-08
-3.16176e-06 4.45738e-05 -1.14934e-07
-2.55652e-08 -1.14934e-07 -1.02305e-05
0.00105497 -5.37422e-06 -6.02353e-07
-5.37422e-06 1.24104e-06 1.80072e-07
-6.02353e-07 1.80072e-07 -5.22866e-05
0.00115219 -5.67036e-06 3.24462e-07
-5.67036e-06 3.47044e-05 -2.91005e-07
3.24462e-07 -2.91005e-07 -2.03622e-05
0.00102932 5.71398e-06 -1.83829e-06
5.71398e-06 3.78449e-06 1.01702e-06
-1.83829e-06 1.01702e-06 -1.92914e-05
0.000947343 1.85346e-06 -1.09031e-06
1.85346e-06 -4.00173e-05 5.85005e-07
-1.09031e-06 5.85005e-07 -7.87e-05
0.00103585 4.9636e-06 -1.55976e-06
4.9636e-06 3.10104e-06 1.21852e-06
-1.55976e-06 1.21852e-06 -1.87159e-05
0.0010944 6.64715e-06 -2.55149e-07
6.64715e-06 6.87379e-05 -1.73208e-07
-2.55149e-07 -1.73208e-07 9.84356e-06
0.00120295 6.13665e-06 -1.42423e-07
6.13665e-06 8.69876e-05 9.29161e-08
-1.42423e-07 9.29161e-08 2.75275e-05
0.00110234 7.77071e-06 -2.0144e-07
7.77071e-06 3.92575e-05 -1.66925e-07
-2.0144e-07 -1.66925e-07 -2.23108e-05
0.00122458 4.75109e-06 -1.78389e-08
4.75109e-06 7.61444e-05 -1.41595e-07
-1.78389e-08 -1.41595e-07 1.4685e-05
0.00101643 6.15938e-06 -2.18918e-08
6.15938e-06 1.01266e-06 -6.66e-09
-2.18918e-08 -6.66e-09 -2.33201e-05
0.00107868 3.40062e-09 -4.32521e-09
3.40062e-09 2.83101e-05 2.7472e-09
-4.32521e-09 2.7472e-09 -1.3352e-05
0.00111404 -5.71288e-06 1.4157e-07
-5.71288e-06 3.63224e-05 -2.07378e-07
1.4157e-07 -2.07378e-07 -1.56823e-05
0.00121366 -1.76367e-06 4.38771e-08
-1.76367e-06 7.18231e-05 -6.55123e-08
4.38771e-08 -6.55123e-08 1.55933e-05
0.00117091 1.856e-06 2.29368e-08
1.856e-06 4.3075e-05 9.63829e-08
2.29368e-08 9.63829e-08 -1.6266e-05
0.00117371 -7.55004e-06 -3.27876e-08
-7.55004e-06 4.99782e-05 1.31013e-07
-3.27876e-08 1.31013e-07 -5.89114e-06
0.00119246 -3.61234e-06 1.54816e-08
-3.61234e-06 5.29156e-05 -2.57754e-08
1.54816e-08 -2.57754e-08 -2.99976e-06
0.00119718 -6.14652e-06 1.67404e-07
-6.14652e-06 5.18665e-05 2.2162e-07
1.67404e-07 2.2162e-07 -1.60625e-06
0.00107857 9.74521e-07 -4.26101e-09
9.74521e-07 2.40461e-05 -2.13882e-09
-4.26101e-09 -2.13882e-09 -1.42044e-05
0.00114306 -3.3395e-06 -2.55313e-07
-3.3395e-06 5.27798e-05 2.87194e-07
-2.55313e-07 2.87194e-07 5.77528e-06
0.00103459 4.51604e-06 -3.31059e-08
4.51604e-06 2.75624e-07 -7.0626e-09
-3.31059e-08 -7.0626e-09 -2.10967e-05
0.00093889 2.06891e-06 2.09145e-07
2.06891e-06 -4.40906e-05 -3.45094e-07
2.09145e-07 -3.45094e-07 -8.26329e-05
0.00112065 7.86047e-06 2.69056e-07
7.86047e-06 6.81056e-05 3.47909e-07
2.69056e-07 3.47909e-07 7.06664e-06
0.00128756 7.23661e-06 -1.49635e-07
7.23661e-06 0.000107354 7.90391e-08
-1.49635e-07 7.90391e-08 4.54288e-05
0.00101258 8.47344e-06 -2.1446e-07
8.47344e-06 -6.69127e-06 1.35525e-07
-2.1446e-07 1.35525e-07 -6.99732e-05
0.00117433 5.52464e-06 -4.875e-07
5.52464e-06 4.40291e-05 -2.49401e-07
-4.875e-07 -2.49401e-07 -1.71465e-05
0.00121749 -1.40236e-06 -5.79647e-07
-1.40236e-06 6.49838e-05 7.69588e-08
-5.79647e-07 7.69588e-08 8.06267e-06
0.00117591 2.84752e-06 -5.60378e-07
2.84752e-06 4.15642e-05 8.15697e-08
-5.60378e-07 8.15697e-08 -1.6991e-05
0.0010705 1.05067e-06 1.08566e-06
1.05067e-06 2.28378e-05 -5.21353e-07
1.08566e-06 -5.21353e-07 -1.67242e-05
0.00118568 -3.2283e-06 -1.07545e-06
-3.2283e-06 4.48127e-05 2.79072e-07
-1.07545e-06 2.79072e-07 -9.19167e-06
0.00102138 -5.37978e-06 6.35991e-07
-5.37978e-06 -4.53297e-06 -4.97091e-07
6.35991e-07 -4.97091e-07 -5.52467e-05
0.00119172 -8.10375e-06 2.75072e-07
-8.10375e-06 6.67942e-05 7.21129e-08
2.75072e-07 7.21129e-08 1.03148e-05
0.00121716 -8.3707e-06 -1.56065e-07
-8.3707e-06 6.61567e-05 1.07079e-06
-1.56065e-07 1.07079e-06 1.01574e-05
0.00119608 -6.05272e-06 -6.15361e-07
-6.05272e-06 4.64636e-05 6.08544e-07
-6.15361e-07 6.08544e-07 -5.08966e-06
0.00103529 4.16323e-06 1.16991e-06
4.16323e-06 -1.0767e-06 -1.36491e-06
1.16991e-06 -1.36491e-06 -2.22613e-05
0.000931692 1.46426e-06 1.04375e-06
1.46426e-06 -4.87354e-05 -1.16973e-06
1.04375e-06 -1.16973e-06 -8.7049e-05
0.00111141 -3.88428e-06 6.20288e-07
-3.88428e-06 3.70271e-05 -1.38864e-07
6.20288e-07 -1.38864e-07 -1.01985e-05
0.00116989 -2.46674e-06 5.79026e-07
-2.46674e-06 6.71597e-05 -1.55385e-07
5.79026e-07 -1.55385e-07 1.97784e-05
0.00121639 -6.88811e-06 2.26844e-07
-6.88811e-06 8.54006e-05 2.20276e-07
2.26844e-07 2.20276e-07 3.37219e-05
0.000951523 -8.48796e-06 -2.00202e-06
-8.48796e-06 -4.05467e-05 -2.316e-06
-2.00202e-06 -2.316e-06 -3.68155e-05
0.00113525 -1.22164e-06 -5.09719e-07
-1.22164e-06 3.58143e-05 1.23885e-07
-5.09719e-07 1.23885e-07 -1.73682e-05
0.00101854 -5.55247e-06 -1.45674e-06
-5.55247e-06 -3.54168e-06 -1.26224e-06
-1.45674e-06 -1.26224e-06 -2.42538e-05
0.00100514 -6.19155e-06 -1.79692e-06
-6.19155e-06 -4.28989e-06 -1.06533e-06
-1.79692e-06 -1.06533e-06 -2.64988e-05
0.00106306 -4.02576e-06 -1.00485e-06
-4.02576e-06 1.99996e-05 -6.73356e-07
-1.00485e-06 -6.73356e-07 -1.69925e-05
0.00109126 2.77235e-06 -9.39135e-07
2.77235e-06 2.84555e-05 -4.74301e-07
-9.39135e-07 -4.74301e-07 -2.09258e-05
0.00119576 5.30785e-06 -1.54729e-07
5.30785e-06 5.01651e-05 2.58359e-07
-1.54729e-07 2.58359e-07 -6.49483e-06
0.00105577 -3.53834e-06 -1.12272e-06
-3.53834e-06 2.24043e-05 -6.49965e-07
-1.12272e-06 -6.49965e-07 -1.70287e-05
0.00111713 5.09304e-06 -7.67528e-07
5.09304e-06 5.02005e-05 -4.42013e-07
-7.67528e-07 -4.42013e-07 -1.10412e-06
0.00124759 7.45132e-06 -5.94674e-07
7.45132e-06 9.73614e-05 -6.20503e-07
-5.94674e-07 -6.20503e-07 4.56089e-05
0.00110495 8.20074e-06 -1.29429e-06
8.20074e-06 3.51912e-05 1.27577e-07
-1.29429e-06 1.27577e-07 -1.80492e-05
0.000972863 -7.53078e-06 5.85768e-08
-7.53078e-06 -3.41898e-05 -1.36214e-08
5.85768e-08 -1.36214e-08 -2.9808e-05
0.00103283 -5.0511e-06 2.92142e-08
-5.0511e-06 2.588e-07 -6.85765e-09
2.92142e-08 -6.85765e-09 -1.9661e-05
0.00106968 -3.78293e-06 1.45007e-08
-3.78293e-06 2.47229e-05 1.33699e-08
1.45007e-08 1.33699e-08 -1.304e-05
0.00107519 -4.00342e-06 3.08776e-08
-4.00342e-06 2.39842e-05 -7.00446e-09
3.08776e-08 -7.00446e-09 -1.22897e-05
0.00106303 -1.37198e-06 7.11264e-08
-1.37198e-06 1.95268e-05 -4.56778e-08
7.11264e-08 -4.56778e-08 -2.768e-05
0.00118385 -9.44627e-07 2.22503e-07
-9.44627e-07 4.19118e-05 -2.97129e-08
2.22503e-07 -2.97129e-08 -1.41862e-05
0.00115485 7.63252e-06 -3.00823e-09
7.63252e-06 4.3292e-05 1.43345e-07
-3.00823e-09 1.43345e-07 -1.19411e-05
0.00121427 5.05165e-06 9.09573e-08
5.05165e-06 5.0447e-05 2.37627e-07
9.09573e-08 2.37627e-07 -6.81946e-06
0.0011035 2.72342e-06 2.16386e-07
2.72342e-06 4.42764e-05 2.957e-07
2.16386e-07 2.957e-07 -5.65474e-06
0.00118511 9.41657e-06 1.37624e-07
9.41657e-06 6.22848e-05 -2.51773e-07
1.37624e-07 -2.51773e-07 7.26081e-06
0.00105869 8.27606e-06 -2.68403e-07
8.27606e-06 1.61954e-05 -2.43708e-07
-2.68403e-07 -2.43708e-07 -4.1605e-05
0.00104194 -4.43136e-06 1.28589e-06
-4.43136e-06 1.67273e-06 1.3765e-06
1.28589e-06 1.3765e-06 -1.76173e-05
0.00108051 -3.34425e-06 8.83575e-07
-3.34425e-06 2.36909e-05 7.65532e-07
8.83575e-07 7.65532e-07 -1.17721e-05
0.00105771 1.6091e-06 5.93909e-07
1.6091e-06 1.82233e-05 3.0287e-07
5.93909e-07 3.0287e-07 -3.03055e-05
0.00110713 -2.85607e-06 5.29624e-07
-2.85607e-06 3.93606e-05 3.49489e-07
5.29624e-07 3.49489e-07 -7.02617e-06
0.00118584 3.04958e-06 2.38415e-07
3.04958e-06 7.88294e-05 -1.88627e-07
2.38415e-07 -1.88627e-07 2.65722e-05
0.00121161 -2.25174e-06 -6.30084e-07
-2.25174e-06 4.12818e-05 -1.11621e-06
-6.30084e-07 -1.11621e-06 -1.28658e-05
0.00118155 9.55435e-06 -1.29869e-07
9.55435e-06 4.86496e-05 2.16379e-07
-1.29869e-07 2.16379e-07 -8.42069e-06
0.00112533 7.44522e-06 -9.74184e-07
7.44522e-06 6.7624e-06 -7.55896e-07
-9.74184e-07 -7.55896e-07 -4.53174e-05
0.00110946 7.43208e-06 3.11678e-07
7.43208e-06 4.71872e-05 8.00914e-07
3.11678e-07 8.00914e-07 -1.03254e-05
0.00119961 1.02458e-05 7.3394e-07
1.02458e-05 7.10807e-05 -2.31173e-07
7.3394e-07 -2.31173e-07 1.07117e-05
0.001043 -3.8764e-06 5.33095e-08
-3.8764e-06 -7.80845e-08 -1.14758e-08
5.33095e-08 -1.14758e-08 -1.89135e-05
0.000942971 -2.07643e-06 8.51125e-07
-2.07643e-06 -4.65837e-05 1.26189e-06
8.51125e-07 1.26189e-06 -8.21043e-05
0.00101711 -1.99477e-06 2.46356e-08
-1.99477e-06 -1.17946e-05 6.76151e-09
2.46356e-08 6.76151e-09 -4.64545e-05
0.00125911 7.89351e-08 2.66702e-07
7.89351e-08 0.000107672 1.40986e-07
2.66702e-07 1.40986e-07 6.38531e-05
0.00109286 -1.55765e-06 4.84921e-07
-1.55765e-06 2.34422e-05 9.17027e-07
4.84921e-07 9.17027e-07 -1.0627e-05
0.00105512 -1.99668e-06 6.24048e-07
-1.99668e-06 3.66872e-08 1.58904e-06
6.24048e-07 1.58904e-06 -1.84646e-05
0.00105129 -2.67323e-06 3.57546e-08
-2.67323e-06 -2.59184e-07 -2.76445e-09
3.57546e-08 -2.76445e-09 -1.85852e-05
0.00148383 -4.72093e-06 8.92936e-07
-4.72093e-06 0.000202879 1.62205e-06
8.92936e-07 1.62205e-06 0.000211109
0.00104339 -3.3449e-06 -8.60407e-07
-3.3449e-06 -1.95197e-06 -1.52243e-06
-8.60407e-07 -1.52243e-06 -2.04083e-05
0.00150356 -5.72697e-06 -5.2813e-07
-5.72697e-06 0.000215355 -1.03068e-06
-5.2813e-07 -1.03068e-06 0.000223128
0.00121236 -6.9196e-06 3.06509e-06
-6.9196e-06 7.23557e-05 5.3492e-06
3.06509e-06 5.3492e-06 9.24267e-05
0.00148908 -6.69938e-06 -1.92385e-06
-6.69938e-06 0.0002116 -2.51669e-06
-1.92385e-06 -2.51669e-06 0.000218941
0.00166681 -8.38936e-06 1.64817e-06
-8.38936e-06 0.000295517 2.02913e-06
1.64817e-06 2.02913e-06 0.000317652
0.00223228 -9.83041e-06 -3.03015e-06
-9.83041e-06 0.000572071 -3.22064e-06
-3.03015e-06 -3.22064e-06 0.000595778
0.000964398 7.38167e-06 1.77123e-06
7.38167e-06 -3.9187e-05 -2.43747e-06
1.77123e-06 -2.43747e-06 -3.58231e-05
0.000966858 8.22643e-06 -5.33816e-08
8.22643e-06 -3.45319e-05 -1.97165e-08
-5.33816e-08 -1.97165e-08 -3.16827e-05
0.00228734 1.09818e-05 3.38377e-06
1.09818e-05 0.000601489 -3.17549e-06
3.38377e-06 -3.17549e-06 0.000624237
0.00225658 1.23066e-05 -8.22466e-08
1.23066e-05 0.000591547 -4.03774e-08
-8.22466e-08 -4.03774e-08 0.000613712
0.000972827 9.08988e-06 -2.37685e-06
9.08988e-06 -2.79286e-05 2.15202e-06
-2.37685e-06 2.15202e-06 -2.57064e-05
0.00221554 1.36433e-05 -3.99112e-06
1.36433e-05 0.00057678 2.88927e-06
-3.99112e-06 2.88927e-06 0.000598339
0.00111908 -4.82586e-06 -5.05352e-07
-4.82586e-06 3.4105e-05 1.5655e-07
-5.05352e-07 1.5655e-07 -2.01549e-05
0.0011006 -6.47025e-06 -2.7867e-07
-6.47025e-06 4.72306e-05 -7.30626e-08
-2.7867e-07 -7.30626e-08 -1.12054e-05
0.00115353 -6.36597e-06 4.03948e-07
-6.36597e-06 4.91219e-05 2.04351e-08
4.03948e-07 2.04351e-08 -8.96603e-06
0.00113646 -8.25175e-06 1.04314e-07
-8.25175e-06 6.60695e-05 4.15668e-07
1.04314e-07 4.15668e-07 6.31889e-06
0.00104687 -6.45632e-06 -2.39418e-07
-6.45632e-06 5.44033e-05 4.74944e-07
-2.39418e-07 4.74944e-07 -3.5555e-06
0.000930866 2.04852e-07 -1.25153e-06
2.04852e-07 2.85408e-05 -1.58694e-07
-1.25153e-06 -1.58694e-07 -2.51284e-05
0.00103454 4.45381e-07 2.81136e-08
4.45381e-07 5.39447e-05 1.98047e-07
2.81136e-08 1.98047e-07 -4.31421e-06
0.00105693 -7.12527e-06 5.63939e-08
-7.12527e-06 5.03012e-05 -1.30133e-07
5.63939e-08 -1.30133e-07 -8.68484e-06
0.00113912 -7.04927e-06 4.11995e-08
-7.04927e-06 5.31908e-05 -1.74763e-07
4.11995e-08 -1.74763e-07 -6.715e-06
0.00118525 -9.57994e-06 -6.28543e-08
-9.57994e-06 8.06181e-05 -1.28342e-07
-6.28543e-08 -1.28342e-07 1.9033e-05
0.00117314 -5.55967e-06 -8.82588e-08
-5.55967e-06 4.51533e-05 1.10868e-07
-8.82588e-08 1.10868e-07 -1.09745e-05
0.0012558 -8.00091e-06 1.52162e-07
-8.00091e-06 8.70959e-05 -5.86297e-08
1.52162e-07 -5.86297e-08 2.94648e-05
0.00109071 9.11663e-07 -6.28256e-08
9.11663e-07 7.19538e-05 5.66335e-07
-6.28256e-08 5.66335e-07 1.25384e-05
0.001046 -7.2365e-06 5.6506e-08
-7.2365e-06 4.63119e-05 -6.74435e-07
5.6506e-08 -6.74435e-07 -1.4138e-05
0.00115156 -8.72037e-06 4.5688e-07
-8.72037e-06 5.00478e-05 -1.18936e-09
4.5688e-07 -1.18936e-09 -1.10541e-05
0.00127409 -1.08539e-05 -9.91133e-08
-1.08539e-05 0.000125707 -1.53855e-07
-9.91133e-08 -1.53855e-07 6.09787e-05
0.00117345 -5.92613e-06 -8.07494e-07
-5.92613e-06 3.18737e-05 1.34039e-07
-8.07494e-07 1.34039e-07 -2.1797e-05
0.00134561 -9.79806e-06 -7.81536e-07
-9.79806e-06 0.00012689 1.19413e-07
-7.81536e-07 1.19413e-07 6.93085e-05
0.00100928 6.48684e-06 -5.44593e-07
6.48684e-06 2.92201e-05 -6.56908e-07
-5.44593e-07 -6.56908e-07 -2.98754e-05
0.00120562 6.15941e-06 -6.17209e-07
6.15941e-06 8.84476e-05 -1.626e-08
-6.17209e-07 -1.626e-08 2.88538e-05
0.00109728 7.85231e-06 -2.35721e-07
7.85231e-06 3.54189e-05 -2.40294e-07
-2.35721e-07 -2.40294e-07 -2.64513e-05
0.00122246 5.07927e-06 7.69634e-08
5.07927e-06 7.62429e-05 -4.39526e-08
7.69634e-08 -4.39526e-08 1.51033e-05
0.00102847 6.14626e-06 -1.90085e-06
6.14626e-06 6.66702e-06 9.55386e-07
-1.90085e-06 9.55386e-07 -1.77152e-05
0.00108433 -3.42375e-07 -1.0629e-06
-3.42375e-07 3.03782e-05 5.22181e-07
-1.0629e-06 5.22181e-07 -1.12282e-05
0.00117752 -5.65149e-06 -3.37587e-07
-5.65149e-06 6.74363e-05 2.85417e-08
-3.37587e-07 2.85417e-08 1.59264e-05
0.00126479 -1.66122e-06 1.10253e-07
-1.66122e-06 9.66552e-05 -1.2213e-07
1.10253e-07 -1.2213e-07 4.06824e-05
0.00115489 1.6063e-06 5.97304e-07
1.6063e-06 3.51833e-05 2.44927e-07
5.97304e-07 2.44927e-07 -2.41001e-05
0.00119245 -3.33802e-06 3.83046e-07
-3.33802e-06 5.25305e-05 -2.37094e-07
3.83046e-07 -2.37094e-07 -3.33449e-06
0.00114322 -7.5637e-06 -1.66458e-07
-7.5637e-06 3.54651e-05 -2.21677e-07
-1.66458e-07 -2.21677e-07 -2.07263e-05
0.00117519 -5.96816e-06 8.97622e-07
-5.96816e-06 4.08179e-05 -6.66099e-07
8.97622e-07 -6.66099e-07 -1.22092e-05
0.00108356 8.73815e-07 -1.10814e-06
8.73815e-07 2.62067e-05 5.24923e-07
-1.10814e-06 5.24923e-07 -1.20213e-05
0.00104056 -3.14405e-06 -8.92523e-07
-3.14405e-06 2.92853e-06 4.92812e-07
-8.92523e-07 4.92812e-07 -4.47193e-05
0.00104005 4.51416e-06 -1.41296e-06
4.51416e-06 2.88148e-06 1.28956e-06
-1.41296e-06 1.28956e-06 -1.85157e-05
0.000940294 2.12688e-06 -7.37755e-07
2.12688e-06 -4.34511e-05 3.83424e-07
-7.37755e-07 3.83424e-07 -8.1975e-05
0.0011162 7.78211e-06 5.57766e-09
7.78211e-06 6.65672e-05 -2.57345e-07
5.57766e-09 -2.57345e-07 5.57856e-06
0.00125971 7.22519e-06 -5.8364e-08
7.22519e-06 9.53218e-05 5.0173e-09
-5.8364e-08 5.0173e-09 3.34991e-05
0.00110093 8.81995e-06 -2.25029e-07
8.81995e-06 3.22784e-05 -2.12999e-07
-2.25029e-07 -2.12999e-07 -3.1587e-05
0.00121021 5.29555e-06 -5.2157e-08
5.29555e-06 6.08457e-05 -5.99448e-08
-5.2157e-08 -5.99448e-08 -3.03317e-07
0.0010783 5.69013e-07 -3.66679e-09
5.69013e-07 2.6055e-05 5.84646e-09
-3.66679e-09 5.84646e-09 -1.34734e-05
0.00107409 -4.808e-06 1.56193e-07
-4.808e-06 2.08289e-05 -2.10703e-07
1.56193e-07 -2.10703e-07 -2.94562e-05
0.00119032 -8.10436e-06 -4.06619e-08
-8.10436e-06 6.67123e-05 4.95462e-08
-4.06619e-08 4.95462e-08 1.00751e-05
0.00123574 -1.22762e-06 1.38098e-08
-1.22762e-06 7.38488e-05 -3.06241e-08
1.38098e-08 -3.06241e-08 1.69105e-05
0.00119034 2.46362e-06 6.57106e-08
2.46362e-06 4.83654e-05 1.82483e-07
6.57106e-08 1.82483e-07 -1.03102e-05
0.00122469 -8.39841e-06 -1.93811e-08
-8.39841e-06 6.96817e-05 2.09676e-07
-1.93811e-08 2.09676e-07 1.35024e-05
0.00119605 -3.03758e-06 -2.97159e-08
-3.03758e-06 4.95007e-05 5.10529e-08
-2.97159e-08 5.10529e-08 -4.50297e-06
0.00118898 -6.28474e-06 2.81711e-07
-6.28474e-06 4.28249e-05 -3.78149e-07
2.81711e-07 -3.78149e-07 -8.01175e-06
0.00111849 -3.70572e-06 3.30117e-08
-3.70572e-06 4.0153e-05 8.58163e-09
3.30117e-08 8.58163e-09 -7.06268e-06
0.00116447 -6.7754e-06 -1.49176e-07
-6.7754e-06 5.96783e-05 1.7954e-07
-1.49176e-07 1.7954e-07 7.64706e-06
0.00116535 -2.90469e-06 -4.09256e-08
-2.90469e-06 6.48694e-05 1.44409e-07
-4.09256e-08 1.44409e-07 1.74579e-05
0.000923175 4.08678e-06 -5.52734e-08
4.08678e-06 -5.52111e-05 -2.73529e-08
-5.52734e-08 -2.73529e-08 -7.70638e-05
0.000934395 1.96206e-06 1.58324e-07
1.96206e-06 -4.73371e-05 -3.68034e-07
1.58324e-07 -3.68034e-07 -8.5652e-05
0.00108457 9.31607e-06 -1.79213e-07
9.31607e-06 4.86459e-05 5.37693e-07
-1.79213e-07 5.37693e-07 -1.38408e-05
0.00120371 8.50163e-06 -4.27253e-07
8.50163e-06 6.45616e-05 2.94396e-07
-4.27253e-07 2.94396e-07 1.41203e-06
0.00121942 5.63498e-06 -5.73604e-07
5.63498e-06 6.2418e-05 -2.4013e-07
-5.73604e-07 -2.4013e-07 1.82148e-06
0.00121825 1.42658e-06 -9.53163e-07
1.42658e-06 5.86427e-05 -6.80443e-09
-9.53163e-07 -6.80443e-09 3.06065e-06
0.00111023 -4.64423e-06 5.29242e-07
-4.64423e-06 3.77753e-05 -2.08005e-07
5.29242e-07 -2.08005e-07 -1.05078e-05
0.00120212 -3.79128e-06 -9.76631e-07
-3.79128e-06 4.42694e-05 2.80524e-07
-9.76631e-07 2.80524e-07 -5.01439e-06
0.00105795 -7.45505e-06 3.74858e-07
-7.45505e-06 1.05266e-05 -3.93806e-07
3.74858e-07 -3.93806e-07 -4.52521e-05
0.00121235 -9.1986e-06 2.44635e-07
-9.1986e-06 7.22354e-05 4.06094e-07
2.44635e-07 4.06094e-07 1.27223e-05
0.00120477 -8.42939e-06 -2.31153e-07
-8.42939e-06 5.27963e-05 1.03363e-06
-2.31153e-07 1.03363e-06 -2.33054e-06
0.000809332 3.7798e-06 1.16566e-06
3.7798e-06 -0.000111612 -1.9951e-06
1.16566e-06 -1.9951e-06 -0.000133966
0.00116387 2.04475e-06 6.81193e-07
2.04475e-06 6.25674e-05 -6.30454e-07
6.81193e-07 -6.30454e-07 2.58421e-05
0.00115595 -2.55809e-06 4.9578e-07
-2.55809e-06 6.06392e-05 -2.97567e-07
4.9578e-07 -2.97567e-07 1.29083e-05
0.0011396 -6.82509e-06 3.319e-07
-6.82509e-06 4.76659e-05 -1.6439e-08
3.319e-07 -1.6439e-08 -4.57348e-06
0.00118543 -7.05107e-06 2.74792e-07
-7.05107e-06 7.12178e-05 1.81206e-07
2.74792e-07 1.81206e-07 1.74645e-05
0.00116259 -7.38928e-06 2.09663e-08
-7.38928e-06 5.66736e-05 3.10088e-07
2.09663e-08 3.10088e-07 1.58322e-06
0.000963578 -7.54141e-06 -1.78286e-06
-7.54141e-06 -3.86804e-05 -2.41688e-06
-1.78286e-06 -2.41688e-06 -3.42464e-05
0.00102771 -5.04639e-06 -1.3452e-06
-5.04639e-06 -2.19657e-06 -1.33009e-06
-1.3452e-06 -1.33009e-06 -2.20967e-05
0.00120099 -9.4981e-07 1.9273e-07
-9.4981e-07 4.99617e-05 3.89928e-07
1.9273e-07 3.89928e-07 -6.31213e-06
0.00107072 -3.94099e-06 -9.14681e-07
-3.94099e-06 2.18466e-05 -7.46632e-07
-9.14681e-07 -7.46632e-07 -1.44206e-05
0.00105388 -4.04367e-06 -1.12294e-06
-4.04367e-06 1.74362e-05 -6.02943e-07
-1.12294e-06 -6.02943e-07 -2.02939e-05
0.00103048 -2.18998e-06 -5.04625e-07
-2.18998e-06 4.0302e-06 -3.06138e-07
-5.04625e-07 -3.06138e-07 -4.35057e-05
0.00116 7.80526e-06 -2.35632e-07
7.80526e-06 4.60215e-05 -1.37663e-07
-2.35632e-07 -1.37663e-07 -9.26654e-06
0.00120039 5.61522e-06 6.44566e-07
5.61522e-06 4.4537e-05 6.44442e-07
6.44566e-07 6.44442e-07 -1.2979e-05
0.0010819 2.86786e-06 -3.98035e-07
2.86786e-06 3.44414e-05 -2.12209e-07
-3.98035e-07 -2.12209e-07 -1.54489e-05
0.00111933 8.46591e-06 -6.83321e-07
8.46591e-06 4.37781e-05 -7.74533e-08
-6.83321e-07 -7.74533e-08 -1.36827e-05
0.00123429 9.36907e-06 -4.57483e-07
9.36907e-06 8.54702e-05 -3.68289e-07
-4.57483e-07 -3.68289e-07 3.07013e-05
0.00103811 -4.42519e-06 3.99101e-08
-4.42519e-06 -1.55016e-07 -1.38302e-08
3.99101e-08 -1.38302e-08 -1.94328e-05
0.00108015 -3.28889e-06 2.73443e-09
-3.28889e-06 2.34746e-05 -1.05248e-09
2.73443e-09 -1.05248e-09 -1.1995e-05
0.00107831 1.55756e-06 -2.89602e-08
1.55756e-06 2.86789e-05 -5.29815e-08
-2.89602e-08 -5.29815e-08 -1.95142e-05
0.00110816 -2.18417e-06 -2.71904e-08
-2.18417e-06 4.00325e-05 1.81425e-09
-2.71904e-08 1.81425e-09 -6.415e-06
0.00113366 2.89237e-06 -1.11576e-07
2.89237e-06 5.37902e-05 -2.28151e-07
-1.11576e-07 -2.28151e-07 1.00761e-06
0.00121884 -1.74705e-06 -2.32359e-07
-1.74705e-06 4.59911e-05 -3.69682e-07
-2.32359e-07 -3.69682e-07 -8.35245e-06
0.0011739 9.55798e-06 2.73886e-07
9.55798e-06 4.45452e-05 1.49292e-07
2.73886e-07 1.49292e-07 -1.26745e-05
0.00114384 7.10365e-06 2.61567e-08
7.10365e-06 1.46761e-05 2.34914e-07
2.61567e-08 2.34914e-07 -3.68843e-05
0.00105862 7.32964e-06 1.75369e-07
7.32964e-06 2.36272e-05 4.63714e-07
1.75369e-07 4.63714e-07 -3.42015e-05
0.00119139 1.02165e-05 4.71223e-08
1.02165e-05 6.69838e-05 -1.62085e-07
4.71223e-08 -1.62085e-07 6.1845e-06
0.00108349 -2.48059e-06 8.62135e-07
-2.48059e-06 2.2568e-05 8.19224e-07
8.62135e-07 8.19224e-07 -1.23632e-05
0.0010116 -4.10382e-07 7.2258e-07
-4.10382e-07 -9.98788e-06 6.56152e-07
7.2258e-07 6.56152e-07 -5.65487e-05
0.00111362 6.6523e-06 1.32739e-07
6.6523e-06 4.70295e-05 -4.24715e-08
1.32739e-07 -4.24715e-08 -8.30016e-06
0.00104593 2.67781e-06 2.57494e-07
2.67781e-06 1.00391e-05 1.20555e-07
2.57494e-07 1.20555e-07 -4.31399e-05
0.00115694 4.68966e-06 -2.33506e-08
4.68966e-06 6.16413e-05 -3.44966e-07
-2.33506e-08 -3.44966e-07 5.69452e-06
0.00127885 -3.80936e-09 -1.22059e-06
-3.80936e-09 6.10805e-05 -6.05362e-07
-1.22059e-06 -6.05362e-07 1.54902e-05
0.00126816 1.14019e-05 -1.42329e-07
1.14019e-05 8.94372e-05 -8.60807e-07
-1.42329e-07 -8.60807e-07 3.13513e-05
0.00102983 8.26466e-06 -3.86076e-07
8.26466e-06 -4.51188e-05 -5.17747e-07
-3.86076e-07 -5.17747e-07 -9.50033e-05
0.0012747 8.75728e-06 4.00119e-07
8.75728e-06 0.000120172 7.97747e-07
4.00119e-07 7.97747e-07 5.8662e-05
0.00106621 1.01199e-05 -1.15423e-07
1.01199e-05 8.44372e-06 -2.35816e-07
-1.15423e-07 -2.35816e-07 -5.5867e-05
0.00103863 -3.87902e-06 -1.0254e-06
-3.87902e-06 -2.13202e-06 -1.4777e-06
-1.0254e-06 -1.4777e-06 -2.09522e-05
0.00101242 -2.12161e-06 1.7884e-07
-2.12161e-06 -1.28688e-05 3.65906e-07
1.7884e-07 3.65906e-07 -4.7946e-05
0.00102277 1.01007e-06 5.41226e-07
1.01007e-06 -6.54709e-06 7.80028e-07
5.41226e-07 7.80028e-07 -5.23877e-05
0.000943892 -1.97559e-06 -5.19604e-07
-1.97559e-06 -4.70769e-05 -9.02823e-07
-5.19604e-07 -9.02823e-07 -8.22285e-05
0.00109082 -1.55517e-06 1.88504e-08
-1.55517e-06 2.24889e-05 4.33442e-09
1.88504e-08 4.33442e-09 -1.15658e-05
0.00114136 -4.93797e-07 -8.81829e-08
-4.93797e-07 5.05866e-05 -3.75707e-07
-8.81829e-08 -3.75707e-07 5.99244e-06
0.0012198 2.19562e-06 1.48748e-07
2.19562e-06 9.1092e-05 -2.62409e-08
1.48748e-07 -2.62409e-08 3.97373e-05
0.0010206 -1.78244e-06 2.57976e-07
-1.78244e-06 -8.33957e-06 8.21117e-07
2.57976e-07 8.21117e-07 -5.34817e-05
0.00109266 -9.58975e-07 3.98763e-07
-9.58975e-07 2.25124e-05 9.12385e-07
3.98763e-07 9.12385e-07 -1.17793e-05
0.00105525 -1.4341e-06 4.29106e-07
-1.4341e-06 -8.9844e-07 1.60985e-06
4.29106e-07 1.60985e-06 -1.9727e-05
0.00105416 -2.00231e-06 4.61026e-08
-2.00231e-06 -3.83153e-07 -2.73223e-09
4.61026e-08 -2.73223e-09 -1.88905e-05
0.00149089 -3.62355e-06 6.98555e-07
-3.62355e-06 0.000203917 1.66362e-06
6.98555e-07 1.66362e-06 0.000212237
0.00104859 -2.67913e-06 -7.12129e-07
-2.67913e-06 -1.51438e-06 -1.55801e-06
-7.12129e-07 -1.55801e-06 -1.9834e-05
0.0015081 -4.65354e-06 -4.41572e-07
-4.65354e-06 0.00021468 -1.04582e-06
-4.41572e-07 -1.04582e-06 0.000222749
0.00121855 -5.64125e-06 2.54698e-06
-5.64125e-06 7.17386e-05 5.45438e-06
2.54698e-06 5.45438e-06 9.22366e-05
0.0015276 -5.66967e-06 -2.04459e-06
-5.66967e-06 0.000227092 -3.63695e-06
-2.04459e-06 -3.63695e-06 0.000234727
0.00116763 -6.974e-06 1.02782e-06
-6.974e-06 5.03801e-05 2.05427e-06
1.02782e-06 2.05427e-06 7.0729e-05
0.00215987 -8.74499e-06 -1.20791e-06
-8.74499e-06 0.000532822 -1.32263e-06
-1.20791e-06 -1.32263e-06 0.000557534
0.000972286 6.54006e-06 1.48462e-06
6.54006e-06 -3.88014e-05 -2.52116e-06
1.48462e-06 -2.52116e-06 -3.47611e-05
0.00097516 7.36466e-06 -8.00531e-08
7.36466e-06 -3.40859e-05 -2.13119e-08
-8.00531e-08 -2.13119e-08 -3.07589e-05
0.00227324 9.70425e-06 3.04389e-06
9.70425e-06 0.000590344 -3.26412e-06
3.04389e-06 -3.26412e-06 0.00061381
0.000978697 8.21023e-06 -2.15952e-06
8.21023e-06 -2.88742e-05 2.26731e-06
-2.15952e-06 2.26731e-06 -2.60746e-05
0.00225038 1.10192e-05 -8.37688e-08
1.10192e-05 0.000584125 -3.48801e-08
-8.37688e-08 -3.48801e-08 0.000606984
0.00221386 1.23439e-05 -3.76144e-06
1.23439e-05 0.000571358 3.01797e-06
-3.76144e-06 3.01797e-06 0.000593655
0.0011781 -5.58357e-06 1.73334e-07
-5.58357e-06 4.77038e-05 4.19244e-07
1.73334e-07 4.19244e-07 -8.47312e-06
0.00114653 -7.08978e-06 2.11787e-07
-7.08978e-06 5.62323e-05 -3.33377e-08
2.11787e-07 -3.33377e-08 -3.66071e-06
0.00123687 -7.99665e-06 8.53228e-07
-7.99665e-06 7.84206e-05 -3.34937e-07
8.53228e-07 -3.34937e-07 2.0614e-05
0.00120214 -9.84526e-06 -2.57533e-07
-9.84526e-06 8.78531e-05 6.16162e-07
-2.57533e-07 6.16162e-07 2.5693e-05
0.00102075 -7.02565e-06 2.08092e-07
-7.02565e-06 3.52357e-05 3.93234e-07
2.08092e-07 3.93234e-07 -2.34748e-05
0.00103138 3.77635e-07 -1.3456e-07
3.77635e-07 5.26322e-05 -6.92403e-08
-1.3456e-07 -6.92403e-08 -5.60886e-06
0.00106671 8.78476e-07 4.50286e-08
8.78476e-07 6.17867e-05 3.02207e-07
4.50286e-08 3.02207e-07 2.49243e-06
0.00106783 -7.22008e-06 1.03566e-07
-7.22008e-06 5.44009e-05 1.80592e-07
1.03566e-07 1.80592e-07 -5.80794e-06
0.00112741 -8.6898e-06 1.57278e-07
-8.6898e-06 3.90633e-05 -8.45465e-08
1.57278e-07 -8.45465e-08 -2.18358e-05
0.00122251 -1.08157e-05 -5.31397e-07
-1.08157e-05 0.000101544 1.59952e-07
-5.31397e-07 1.59952e-07 3.53666e-05
0.00117995 -5.90772e-06 -1.78876e-07
-5.90772e-06 3.5664e-05 3.13747e-07
-1.78876e-07 3.13747e-07 -1.79146e-05
0.00128791 -9.5016e-06 3.98035e-07
-9.5016e-06 9.84569e-05 -4.05243e-07
3.98035e-07 -4.05243e-07 4.03807e-05
0.00103354 1.80255e-06 -3.8823e-07
1.80255e-06 5.15961e-05 3.50673e-07
-3.8823e-07 3.50673e-07 -7.04858e-06
0.00103709 -7.91749e-06 -1.84541e-07
-7.91749e-06 4.1307e-05 -8.34114e-07
-1.84541e-07 -8.34114e-07 -2.19325e-05
0.00115558 -1.11413e-05 -7.22718e-07
-1.11413e-05 5.97524e-05 4.24238e-07
-7.22718e-07 4.24238e-07 -5.43766e-06
0.00136585 -7.148e-06 -1.25486e-06
-7.148e-06 0.000118282 2.60733e-07
-1.25486e-06 2.60733e-07 6.85147e-05
0.00111211 7.70211e-06 3.55677e-08
7.70211e-06 6.51912e-05 -8.79837e-07
3.55677e-08 -8.79837e-07 4.25269e-06
0.00122976 7.13557e-06 -1.80027e-07
7.13557e-06 8.23167e-05 -2.08505e-07
-1.80027e-07 -2.08505e-07 2.05982e-05
0.00118799 9.15993e-06 -3.28668e-07
9.15993e-06 7.06224e-05 -2.23848e-07
-3.28668e-07 -2.23848e-07 6.17712e-06
0.00124308 5.01665e-06 4.71535e-07
5.01665e-06 7.6288e-05 4.46611e-09
4.71535e-07 4.46611e-09 1.5165e-05
0.00108611 3.30869e-07 -1.08028e-06
3.30869e-07 2.92807e-05 5.16097e-07
-1.08028e-06 5.16097e-07 -1.02135e-05
0.00112824 -4.21965e-06 -3.24168e-07
-4.21965e-06 4.68427e-05 5.17432e-08
-3.24168e-07 5.17432e-08 -3.01326e-06
0.00118886 -8.10579e-06 -2.70176e-07
-8.10579e-06 6.66198e-05 1.56169e-07
-2.70176e-07 1.56169e-07 9.82325e-06
0.0012532 -1.0519e-06 4.47724e-07
-1.0519e-06 8.23352e-05 -1.45514e-07
4.47724e-07 -1.45514e-07 2.53822e-05
0.00120171 2.02725e-06 6.83682e-07
2.02725e-06 5.37123e-05 3.97356e-07
6.83682e-07 3.97356e-07 -5.07781e-06
0.00120828 -2.81402e-06 9.20786e-07
-2.81402e-06 5.5029e-05 -1.73886e-07
9.20786e-07 -1.73886e-07 1.02701e-06
0.00123171 -8.42486e-06 9.31407e-08
-8.42486e-06 7.2918e-05 -6.54053e-07
9.31407e-08 -6.54053e-07 1.65656e-05
0.00117924 -6.49802e-06 7.97317e-07
-6.49802e-06 3.79507e-05 -1.28389e-06
7.97317e-07 -1.28389e-06 -1.21652e-05
0.00112563 -3.6455e-06 -5.87334e-07
-3.6455e-06 4.33034e-05 1.96001e-07
-5.87334e-07 1.96001e-07 -3.90103e-06
0.00111214 -6.66351e-06 -5.65642e-07
-6.66351e-06 3.37661e-05 1.52484e-07
-5.65642e-07 1.52484e-07 -1.86173e-05
0.00116103 -3.05995e-06 -6.71314e-07
-3.05995e-06 6.26737e-05 4.41243e-07
-6.71314e-07 4.41243e-07 1.5233e-05
0.000811221 4.00397e-06 -1.25906e-06
4.00397e-06 -0.000109289 1.3477e-06
-1.25906e-06 1.3477e-06 -0.000131808
0.000936674 2.25002e-06 -6.41525e-07
2.25002e-06 -4.61477e-05 4.36044e-07
-6.41525e-07 4.36044e-07 -8.44614e-05
0.00111583 9.40315e-06 2.79409e-07
9.40315e-06 5.94205e-05 -4.28229e-07
2.79409e-07 -4.28229e-07 -3.63748e-06
0.00122441 8.42159e-06 -1.3567e-07
8.42159e-06 7.53343e-05 1.74619e-07
-1.3567e-07 1.74619e-07 1.23818e-05
0.00122189 5.62921e-06 7.61023e-08
5.62921e-06 6.39126e-05 1.04681e-07
7.61023e-08 1.04681e-07 3.48414e-06
0.00111966 -4.04584e-06 9.73011e-09
-4.04584e-06 4.19227e-05 3.84542e-09
9.73011e-09 3.84542e-09 -6.34743e-06
0.0011495 -7.66588e-06 1.34725e-07
-7.66588e-06 5.39763e-05 -1.91221e-07
1.34725e-07 -1.91221e-07 -1.28243e-06
0.00120522 -9.18672e-06 -3.29491e-08
-9.18672e-06 6.9818e-05 8.47258e-08
-3.29491e-08 8.47258e-08 1.00534e-05
0.00122428 1.51419e-06 -4.06095e-08
1.51419e-06 6.15593e-05 -1.0598e-08
-4.06095e-08 -1.0598e-08 5.66419e-06
0.00120232 -8.15991e-06 -9.2741e-09
-8.15991e-06 5.19266e-05 -3.77631e-07
-9.2741e-09 -3.77631e-07 -2.54433e-06
0.00121326 -4.45217e-06 -7.75345e-09
-4.45217e-06 5.02847e-05 -1.85485e-08
-7.75345e-09 -1.85485e-08 8.95785e-07
0.000807298 3.83595e-06 1.55737e-07
3.83595e-06 -0.000112476 -5.2674e-07
1.55737e-07 -5.2674e-07 -0.00013478
0.00114647 -6.86445e-06 1.65827e-08
-6.86445e-06 5.08831e-05 3.65393e-08
1.65827e-08 3.65393e-08 -1.40275e-06
0.00115112 -7.34225e-06 -3.32557e-07
-7.34225e-06 5.03905e-05 2.94625e-07
-3.32557e-07 2.94625e-07 -4.4753e-06
0.00120236 -7.04441e-06 -1.81785e-07
-7.04441e-06 7.96943e-05 2.02062e-07
-1.81785e-07 2.02062e-07 2.62394e-05
0.00121175 -2.91324e-06 -6.28556e-08
-2.91324e-06 8.75447e-05 1.11025e-07
-6.28556e-08 1.11025e-07 4.00523e-05
0.00105065 1.87692e-06 -5.58753e-08
1.87692e-06 7.75819e-06 1.52995e-07
-5.58753e-08 1.52995e-07 -2.96182e-05
0.00121042 1.039e-05 -7.37415e-07
1.039e-05 9.51184e-05 1.38953e-06
-7.37415e-07 1.38953e-06 3.22913e-05
0.00122955 8.9962e-06 -3.75031e-07
8.9962e-06 7.79889e-05 2.00004e-07
-3.75031e-07 2.00004e-07 1.43135e-05
0.00124738 5.56647e-06 -9.80087e-07
5.56647e-06 7.18723e-05 -4.58974e-07
-9.80087e-07 -4.58974e-07 1.42944e-05
0.00120944 -5.71568e-07 -1.06594e-06
-5.71568e-07 4.45489e-05 2.39275e-08
-1.06594e-06 2.39275e-08 -5.90252e-06
0.00113857 -7.22871e-06 2.64341e-07
-7.22871e-06 4.86831e-05 -1.49414e-07
2.64341e-07 -1.49414e-07 -4.97758e-06
0.00122251 -7.42991e-06 -5.81511e-07
-7.42991e-06 4.79424e-05 7.61359e-07
-5.81511e-07 7.61359e-07 -1.66381e-06
0.00110382 -8.73754e-06 1.36476e-07
-8.73754e-06 2.99456e-05 -1.44427e-07
1.36476e-07 -1.44427e-07 -3.04477e-05
0.00124038 -9.78349e-06 2.44816e-08
-9.78349e-06 8.04429e-05 8.10797e-07
2.44816e-08 8.10797e-07 1.95645e-05
0.000804483 3.35113e-06 9.17726e-07
3.35113e-06 -0.000116291 -2.02922e-06
9.17726e-07 -2.02922e-06 -0.000137574
0.00116719 2.42235e-06 5.90044e-07
2.42235e-06 6.38432e-05 -6.87049e-07
5.90044e-07 -6.87049e-07 2.67148e-05
0.00126331 -2.34889e-06 1.47487e-07
-2.34889e-06 0.000112316 2.15106e-07
1.47487e-07 2.15106e-07 6.54791e-05
0.00113215 -6.76725e-06 4.02964e-07
-6.76725e-06 4.83174e-05 -3.70549e-07
4.02964e-07 -3.70549e-07 -6.95148e-06
0.00110996 -7.67299e-06 8.2168e-08
-7.67299e-06 3.20517e-05 9.01524e-08
8.2168e-08 9.01524e-08 -2.45041e-05
0.00115943 -7.85473e-06 2.54611e-07
-7.85473e-06 5.47392e-05 1.54884e-07
2.54611e-07 1.54884e-07 -2.95208e-06
0.00103446 -4.41907e-06 -1.21027e-06
-4.41907e-06 -1.89225e-06 -1.40709e-06
-1.21027e-06 -1.40709e-06 -2.11586e-05
0.00107967 -3.23417e-06 -8.9587e-07
-3.23417e-06 2.32089e-05 -7.87022e-07
-8.9587e-07 -7.87022e-07 -1.22672e-05
0.00122596 -1.20875e-06 5.82601e-07
-1.20875e-06 5.06904e-05 5.31836e-07
5.82601e-07 5.31836e-07 -3.85348e-06
0.0011098 -1.82803e-06 -6.01704e-07
-1.82803e-06 4.09993e-05 -3.69461e-07
-6.01704e-07 -3.69461e-07 -5.51233e-06
0.00110024 1.51813e-06 -5.59458e-07
1.51813e-06 3.97803e-05 -3.42262e-07
-5.59458e-07 -3.42262e-07 -8.0824e-06
0.00108321 2.74484e-06 -4.25175e-07
2.74484e-06 2.95775e-05 -3.23393e-07
-4.25175e-07 -3.23393e-07 -2.37342e-05
0.00116703 9.56357e-06 1.57486e-07
9.56357e-06 4.07751e-05 -3.46133e-08
1.57486e-07 -3.46133e-08 -1.65913e-05
0.0011624 6.77877e-06 8.45403e-07
6.77877e-06 2.26054e-05 8.41166e-07
8.45403e-07 8.41166e-07 -2.8433e-05
0.00100854 7.23463e-06 -1.50258e-07
7.23463e-06 4.44437e-07 8.53577e-09
-1.50258e-07 8.53577e-09 -5.7704e-05
0.00118598 1.01974e-05 -1.72326e-07
1.01974e-05 6.42359e-05 1.75958e-07
-1.72326e-07 1.75958e-07 2.99877e-06
0.00108323 -2.43557e-06 3.32237e-08
-2.43557e-06 2.24053e-05 -1.41441e-08
3.32237e-08 -1.41441e-08 -1.25183e-05
0.00106536 3.9651e-07 1.73709e-07
3.9651e-07 1.6249e-05 2.54301e-07
1.73709e-07 2.54301e-07 -3.00387e-05
0.00115783 6.76394e-06 -3.62171e-08
6.76394e-06 6.86359e-05 -3.24209e-07
-3.62171e-08 -3.24209e-07 1.39096e-05
0.00109105 2.22358e-06 -1.32695e-07
2.22358e-06 3.20672e-05 2.11238e-08
-1.32695e-07 2.11238e-08 -2.08683e-05
0.00113401 4.74859e-06 -2.67271e-07
4.74859e-06 5.18296e-05 -3.71414e-07
-2.67271e-07 -3.71414e-07 -4.20301e-06
0.00129971 -3.9256e-07 -2.40498e-07
-3.9256e-07 7.13991e-05 -2.21501e-07
-2.40498e-07 -2.21501e-07 2.59568e-05
0.00126879 1.13519e-05 1.44876e-07
1.13519e-05 8.79159e-05 -2.74347e-08
1.44876e-07 -2.74347e-08 3.00054e-05
0.00110465 8.29531e-06 -9.68435e-08
8.29531e-06 -5.74389e-06 5.2295e-07
-9.68435e-08 5.2295e-07 -5.4473e-05
0.00119695 8.54936e-06 2.14058e-07
8.54936e-06 8.43207e-05 3.91867e-07
2.14058e-07 3.91867e-07 2.24963e-05
0.00110993 1.03239e-05 -2.96361e-07
1.03239e-05 2.79415e-05 -5.26842e-08
-2.96361e-07 -5.26842e-08 -3.75697e-05
0.00102717 1.92128e-06 6.92225e-07
1.92128e-06 -4.4665e-06 7.59187e-07
6.92225e-07 7.59187e-07 -5.07502e-05
0.00105159 5.55787e-06 3.31483e-07
5.55787e-06 1.08396e-05 -4.11187e-08
3.31483e-07 -4.11187e-08 -4.31436e-05
0.00114434 7.16384e-06 1.45216e-08
7.16384e-06 6.00443e-05 -2.27652e-08
1.45216e-08 -2.27652e-08 6.23957e-07
0.00103705 5.67656e-06 2.77382e-07
5.67656e-06 4.27922e-06 4.32875e-08
2.77382e-07 4.32875e-08 -5.33373e-05
0.00143744 -5.24619e-06 -1.18208e-06
-5.24619e-06 0.000143994 1.28693e-07
-1.18208e-06 1.28693e-07 9.72372e-05
0.00131204 5.50572e-06 -1.91934e-07
5.50572e-06 6.80857e-05 -4.37459e-07
-1.91934e-07 -4.37459e-07 2.58181e-05
0.00119688 1.10665e-05 9.14114e-09
1.10665e-05 5.42065e-05 -1.24389e-06
9.14114e-09 -1.24389e-06 -6.77639e-06
0.00103657 9.00253e-06 -7.07182e-08
9.00253e-06 5.15135e-06 3.09894e-07
-7.07182e-08 3.09894e-07 -6.15111e-05
0.0010817 -2.17207e-06 -5.19698e-07
-2.17207e-06 2.07602e-05 -5.01731e-07
-5.19698e-07 -5.01731e-07 -1.38727e-05
0.00109218 9.50206e-07 1.28684e-07
9.50206e-07 2.71983e-05 2.83616e-07
1.28684e-07 2.83616e-07 -1.82263e-05
0.00116494 4.5105e-06 2.35773e-07
4.5105e-06 6.48822e-05 1.44781e-07
2.35773e-07 1.44781e-07 1.26254e-05
0.00108875 -1.55288e-06 -4.47567e-07
-1.55288e-06 2.15265e-05 -8.95377e-07
-4.47567e-07 -8.95377e-07 -1.25138e-05
0.00102379 -7.98799e-07 -4.07827e-07
-7.98799e-07 -6.42207e-06 -9.17289e-07
-4.07827e-07 -9.17289e-07 -5.17933e-05
0.0010919 -9.48776e-07 2.68103e-08
-9.48776e-07 2.21782e-05 2.78791e-09
2.68103e-08 2.78791e-09 -1.21097e-05
0.00114819 2.41495e-06 -5.02946e-08
2.41495e-06 5.62479e-05 -2.87567e-07
-5.02946e-08 -2.87567e-07 4.33294e-06
0.00106873 -1.06916e-06 6.66737e-08
-1.06916e-06 1.48777e-05 2.89224e-07
6.66737e-08 2.89224e-07 -2.99245e-05
0.00119433 4.89735e-06 9.31235e-08
4.89735e-06 7.88867e-05 -1.57562e-07
9.31235e-08 -1.57562e-07 2.26224e-05
0.00105761 -1.63484e-06 1.33149e-07
-1.63484e-06 1.19845e-05 5.57236e-07
1.33149e-07 5.57236e-07 -4.02481e-05
0.00102729 1.52663e-06 2.84897e-07
1.52663e-06 -6.03134e-06 7.50507e-07
2.84897e-07 7.50507e-07 -5.1158e-05
0.00109056 -8.44195e-07 2.87799e-07
-8.44195e-07 2.11584e-05 9.05539e-07
2.87799e-07 9.05539e-07 -1.36567e-05
0.00105553 -8.63863e-07 2.17259e-07
-8.63863e-07 -1.42952e-06 1.61566e-06
2.17259e-07 1.61566e-06 -2.05865e-05
0.00105609 -1.44091e-06 5.38521e-08
-1.44091e-06 -4.53544e-07 4.86383e-10
5.38521e-08 4.86383e-10 -1.93017e-05
0.00149794 -2.5254e-06 4.78397e-07
-2.5254e-06 0.000205426 1.69287e-06
4.78397e-07 1.69287e-06 0.00021373
0.00105315 -2.00804e-06 -5.33752e-07
-2.00804e-06 -8.26803e-07 -1.58971e-06
-5.33752e-07 -1.58971e-06 -1.934e-05
0.00151426 -3.55935e-06 -3.39335e-07
-3.55935e-06 0.000215262 -1.06128e-06
-3.39335e-07 -1.06128e-06 0.000223414
0.00122553 -4.3376e-06 1.98152e-06
-4.3376e-06 7.20403e-05 5.5529e-06
1.98152e-06 5.5529e-06 9.27943e-05
0.00153208 -4.6012e-06 -1.66717e-06
-4.6012e-06 0.000226353 -3.71642e-06
-1.66717e-06 -3.71642e-06 0.00023426
0.00117395 -5.68213e-06 8.33723e-07
-5.68213e-06 4.99778e-05 2.08569e-06
8.33723e-07 2.08569e-06 7.07454e-05
0.00112369 -7.00349e-06 -8.68079e-07
-7.00349e-06 2.8756e-05 -1.23201e-06
-8.68079e-07 -1.23201e-06 4.93844e-05
0.000980077 5.54903e-06 1.2694e-06
5.54903e-06 -3.85995e-05 -2.56747e-06
1.2694e-06 -2.56747e-06 -3.37347e-05
0.000983861 6.51751e-06 -7.69462e-08
6.51751e-06 -3.33152e-05 -6.35643e-09
-7.69462e-08 -6.35643e-09 -2.93286e-05
0.00225235 8.4202e-06 2.65603e-06
8.4202e-06 0.000576115 -3.31988e-06
2.65603e-06 -3.31988e-06 0.000600362
0.000985747 7.34831e-06 -1.93457e-06
7.34831e-06 -2.90635e-05 2.37692e-06
-1.93457e-06 2.37692e-06 -2.57735e-05
0.0022444 9.73375e-06 -1.01085e-07
9.73375e-06 0.000576938 -3.22528e-08
-1.01085e-07 -3.22528e-08 0.000600464
0.00221394 1.10551e-05 -3.50391e-06
1.10551e-05 0.000566999 3.12758e-06
-3.50391e-06 3.12758e-06 0.000589968
0.00118665 -5.89766e-06 8.22022e-07
-5.89766e-06 3.95181e-05 6.95906e-07
8.22022e-07 6.95906e-07 -1.3965e-05
0.00110245 -8.65966e-06 2.63327e-07
-8.65966e-06 2.76736e-05 -6.75938e-09
2.63327e-07 -6.75938e-09 -3.30188e-05
0.00122407 -9.1975e-06 1.45287e-06
-9.1975e-06 6.72298e-05 -1.33672e-06
1.45287e-06 -1.33672e-06 8.65803e-06
0.00116642 -1.07645e-05 -9.33066e-07
-1.07645e-05 7.50815e-05 4.94768e-07
-9.33066e-07 4.94768e-07 7.48095e-06
0.00108997 -7.24364e-06 -1.52319e-07
-7.24364e-06 6.25536e-05 8.70985e-07
-1.52319e-07 8.70985e-07 2.5941e-06
0.00104225 8.47564e-07 2.69609e-07
8.47564e-07 5.14441e-05 -8.86057e-08
2.69609e-07 -8.86057e-08 -7.73262e-06
0.00106367 1.92815e-06 2.34857e-07
1.92815e-06 6.11829e-05 -3.60399e-08
2.34857e-07 -3.60399e-08 1.90298e-06
0.00109413 -8.14133e-06 -4.23627e-07
-8.14133e-06 6.49338e-05 5.91386e-07
-4.23627e-07 5.91386e-07 1.83353e-06
0.00109509 -1.08396e-05 1.12986e-07
-1.08396e-05 3.31749e-05 1.58024e-07
1.12986e-07 1.58024e-07 -3.11916e-05
0.00124692 -7.18151e-06 2.9612e-07
-7.18151e-06 6.23732e-05 8.62408e-08
2.9612e-07 8.62408e-08 1.20917e-05
0.00103941 2.17795e-06 -2.91663e-07
2.17795e-06 4.51943e-05 -4.88762e-07
-2.91663e-07 -4.88762e-07 -1.49241e-05
0.000978226 -1.16774e-05 -5.68921e-07
-1.16774e-05 1.67807e-05 -3.69734e-07
-5.68921e-07 -3.69734e-07 -4.92309e-05
0.00122404 -9.92792e-06 -1.50068e-06
-9.92792e-06 7.48956e-05 7.98372e-07
-1.50068e-06 7.98372e-07 1.79587e-05
0.00114678 9.49381e-06 3.42338e-07
9.49381e-06 7.00422e-05 -1.46484e-06
3.42338e-07 -1.46484e-06 6.41481e-06
0.00124804 8.35165e-06 2.67184e-07
8.35165e-06 8.74638e-05 -8.4395e-08
2.67184e-07 -8.4395e-08 2.47065e-05
0.00122599 5.66453e-06 7.02613e-07
5.66453e-06 6.61782e-05 2.28276e-07
7.02613e-07 2.28276e-07 5.91482e-06
0.00112845 -3.34094e-06 -5.14708e-07
-3.34094e-06 4.57688e-05 2.39154e-07
-5.14708e-07 2.39154e-07 -2.48685e-06
0.00124097 -7.87612e-06 -1.15763e-07
-7.87612e-06 9.73874e-05 2.05882e-09
-1.15763e-07 2.05882e-09 4.26491e-05
0.00119803 -9.17542e-06 -1.71965e-07
-9.17542e-06 6.73921e-05 -4.7897e-08
-1.71965e-07 -4.7897e-08 7.37361e-06
0.00123378 1.58424e-06 8.14584e-07
1.58424e-06 6.60683e-05 -1.39128e-08
8.14584e-07 -1.39128e-08 9.85888e-06
0.00121961 -5.10343e-06 1.1293e-06
-5.10343e-06 5.40449e-05 -3.37759e-07
1.1293e-06 -3.37759e-07 4.56032e-06
0.00120643 -7.92222e-06 5.27447e-08
-7.92222e-06 5.42191e-05 -1.58e-06
5.27447e-08 -1.58e-06 3.83014e-07
0.00115361 -6.90403e-06 -2.92715e-07
-6.90403e-06 5.42287e-05 8.85699e-08
-2.92715e-07 8.85699e-08 1.89592e-06
0.00113877 -7.28977e-06 -6.72192e-07
-7.28977e-06 4.37112e-05 3.17346e-07
-6.72192e-07 3.17346e-07 -1.09309e-05
0.00121869 -7.03676e-06 -6.36615e-07
-7.03676e-06 8.78839e-05 2.12668e-07
-6.36615e-07 2.12668e-07 3.47295e-05
0.000805569 3.89481e-06 -8.1921e-07
3.89481e-06 -0.000113202 9.48543e-07
-8.1921e-07 9.48543e-07 -0.000135456
0.00126715 -3.06071e-06 -5.38398e-07
-3.06071e-06 0.000114289 5.6579e-07
-5.38398e-07 5.6579e-07 6.70319e-05
0.000937348 1.43583e-06 -8.28602e-07
1.43583e-06 -4.70728e-05 9.03715e-07
-8.28602e-07 9.03715e-07 -8.51008e-05
0.0011666 1.02405e-05 -1.13985e-07
1.02405e-05 7.88593e-05 4.16172e-07
-1.13985e-07 4.16172e-07 1.67813e-05
0.00120637 8.88836e-06 -2.61821e-08
8.88836e-06 6.43647e-05 1.99166e-07
-2.61821e-08 1.99166e-07 7.0448e-07
0.00122563 5.85935e-06 -8.71075e-08
5.85935e-06 6.23453e-05 -5.7399e-08
-8.71075e-08 -5.7399e-08 4.30094e-06
0.00114517 -7.26364e-06 7.03088e-10
-7.26364e-06 5.16712e-05 1.61513e-08
7.03088e-10 1.61513e-08 -2.00678e-06
0.00113328 -8.76707e-06 -3.91803e-09
-8.76707e-06 4.44805e-05 1.81996e-08
-3.91803e-09 1.81996e-08 -1.55576e-05
0.00121747 -9.5078e-06 -1.95194e-07
-9.5078e-06 7.02894e-05 1.67005e-07
-1.95194e-07 1.67005e-07 9.93143e-06
0.00124522 -8.15e-07 1.7825e-07
-8.15e-07 6.17896e-05 1.27022e-07
1.7825e-07 1.27022e-07 1.18337e-05
0.00121628 -7.44561e-06 -2.06611e-07
-7.44561e-06 4.56235e-05 -3.77397e-07
-2.06611e-07 -3.77397e-07 -4.23084e-06
0.000927802 3.39993e-06 1.41167e-07
3.39993e-06 -5.69413e-05 -5.1485e-07
1.41167e-07 -5.1485e-07 -7.7484e-05
0.00116424 2.36652e-06 -6.98989e-08
2.36652e-06 6.27827e-05 1.45653e-07
-6.98989e-08 1.45653e-07 2.55947e-05
0.00111442 -7.64697e-06 -1.28403e-07
-7.64697e-06 3.42784e-05 1.75665e-07
-1.28403e-07 1.75665e-07 -2.21107e-05
0.00116967 -7.90611e-06 -6.39366e-08
-7.90611e-06 5.96573e-05 4.27024e-08
-6.39366e-08 4.27024e-08 2.04005e-06
0.00114297 -6.73069e-06 1.0281e-07
-6.73069e-06 5.38094e-05 -1.7808e-07
1.0281e-07 -1.7808e-07 -1.20986e-06
0.00121715 -2.93377e-06 -3.10034e-07
-2.93377e-06 8.95718e-05 5.90398e-07
-3.10034e-07 5.90398e-07 4.23987e-05
0.00113704 1.06793e-05 1.96064e-07
1.06793e-05 6.51319e-05 1.16937e-06
1.96064e-07 1.16937e-06 4.46849e-06
0.00126725 9.12351e-06 -3.23013e-07
9.12351e-06 9.13267e-05 -4.28689e-07
-3.23013e-07 -4.28689e-07 2.66208e-05
0.001214 2.76213e-06 -1.55893e-06
2.76213e-06 4.78596e-05 -4.31142e-07
-1.55893e-06 -4.31142e-07 -2.31242e-06
0.00128498 -5.20543e-06 -1.02526e-06
-5.20543e-06 6.8603e-05 3.66696e-07
-1.02526e-06 3.66696e-07 2.35049e-05
0.00110089 -8.2181e-06 -6.85472e-09
-8.2181e-06 3.02066e-05 1.98867e-08
-6.85472e-09 1.98867e-08 -2.8458e-05
0.00124856 -9.55125e-06 1.16895e-08
-9.55125e-06 7.25872e-05 1.57599e-06
1.16895e-08 1.57599e-06 1.55258e-05
0.00124326 -9.93628e-06 -1.39939e-08
-9.93628e-06 9.3464e-05 4.70651e-11
-1.39939e-08 4.70651e-11 3.05378e-05
0.00104807 2.48261e-06 7.78318e-07
2.48261e-06 -1.74119e-06 -1.52531e-06
7.78318e-07 -1.52531e-06 -2.08179e-05
0.00109197 1.12199e-06 1.94086e-07
1.12199e-06 2.25002e-05 -9.76512e-07
1.94086e-07 -9.76512e-07 -1.25753e-05
0.000911743 3.03719e-06 4.31099e-07
3.03719e-06 -5.95767e-05 -1.29572e-06
4.31099e-07 -1.29572e-06 -9.70327e-05
0.00118298 -2.60814e-07 2.00456e-07
-2.60814e-07 7.39851e-05 -3.16732e-08
2.00456e-07 -3.16732e-08 2.55593e-05
0.00113829 -6.57919e-06 4.83563e-07
-6.57919e-06 5.18273e-05 -3.81728e-07
4.83563e-07 -3.81728e-07 -3.29291e-06
0.00117888 -7.62781e-06 3.22014e-07
-7.62781e-06 6.84001e-05 9.90271e-08
3.22014e-07 9.90271e-08 8.95442e-06
0.00114645 -8.45967e-06 2.14645e-07
-8.45967e-06 5.09083e-05 -1.07296e-07
2.14645e-07 -1.07296e-07 -7.90685e-06
0.00125061 -8.71475e-06 -9.8526e-08
-8.71475e-06 0.000100803 4.27205e-07
-9.8526e-08 4.27205e-07 3.99315e-05
0.00108313 -2.39275e-06 -7.94898e-07
-2.39275e-06 2.23127e-05 -8.34802e-07
-7.94898e-07 -8.34802e-07 -1.2603e-05
0.00111819 1.63163e-06 -4.26607e-07
1.63163e-06 4.20509e-05 -1.63734e-07
-4.26607e-07 -1.63734e-07 -3.96149e-06
0.00132305 -7.96185e-07 8.76796e-07
-7.96185e-07 8.28965e-05 2.9099e-07
8.76796e-07 2.9099e-07 3.75964e-05
0.00113769 2.30331e-06 -4.69468e-07
2.30331e-06 5.47627e-05 -5.78389e-08
-4.69468e-07 -5.78389e-08 2.07226e-06
0.00120182 6.86967e-06 -3.90727e-07
6.86967e-06 9.01148e-05 -7.03354e-07
-3.90727e-07 -7.03354e-07 3.5995e-05
0.00110477 4.52662e-06 -3.92409e-07
4.52662e-06 3.90754e-05 -4.11711e-07
-3.92409e-07 -4.11711e-07 -1.70349e-05
0.0012677 1.13005e-05 5.38425e-07
1.13005e-05 8.55513e-05 5.57263e-07
5.38425e-07 5.57263e-07 2.78211e-05
0.00117994 8.32036e-06 3.88843e-07
8.32036e-06 3.38452e-05 1.65177e-06
3.88843e-07 1.65177e-06 -1.3732e-05
0.00111861 8.33449e-06 1.1845e-07
8.33449e-06 4.81597e-05 1.84325e-07
1.1845e-07 1.84325e-07 -1.39755e-05
0.00114883 1.0509e-05 -3.98534e-07
1.0509e-05 4.50888e-05 1.31162e-07
-3.98534e-07 1.31162e-07 -2.16068e-05
0.00102088 1.88533e-06 1.67748e-07
1.88533e-06 -7.23105e-06 2.72681e-07
1.67748e-07 2.72681e-07 -5.35657e-05
0.00110547 5.48217e-06 -1.35137e-07
5.48217e-06 3.67512e-05 -2.7141e-07
-1.35137e-07 -2.7141e-07 -1.67876e-05
0.00116975 7.23257e-06 -8.59132e-08
7.23257e-06 7.27115e-05 -2.94964e-07
-8.59132e-08 -2.94964e-07 1.36834e-05
0.00111909 5.3352e-06 3.03271e-08
5.3352e-06 4.31584e-05 -1.31794e-08
3.03271e-08 -1.31794e-08 -1.42289e-05
0.00132032 -5.18147e-06 1.73271e-07
-5.18147e-06 8.785e-05 -4.02557e-07
1.73271e-07 -4.02557e-07 4.08603e-05
0.00122148 5.2561e-06 3.10096e-07
5.2561e-06 3.0305e-05 -7.35347e-08
3.10096e-07 -7.35347e-08 -1.28449e-05
0.00131233 1.13275e-05 -3.18265e-07
1.13275e-05 0.000107444 -6.48539e-08
-3.18265e-07 -6.48539e-08 4.70402e-05
0.00109289 9.32502e-06 1.31016e-07
9.32502e-06 3.01841e-05 1.71811e-07
1.31016e-07 1.71811e-07 -3.66867e-05
0.00116997 5.72715e-06 1.49931e-07
5.72715e-06 6.76366e-05 -5.24801e-08
1.49931e-07 -5.24801e-08 1.46151e-05
0.00114972 -1.13724e-05 -2.62409e-06
-1.13724e-05 5.20731e-05 -5.49361e-07
-2.62409e-06 -5.49361e-07 -2.08562e-06
0.00123582 7.04634e-06 3.53895e-07
7.04634e-06 9.93196e-05 2.22189e-07
3.53895e-07 2.22189e-07 4.07753e-05
0.00117896 8.2348e-06 6.64356e-08
8.2348e-06 7.20372e-05 1.53e-07
6.64356e-08 1.53e-07 9.59813e-06
0.001605 1.35325e-06 -3.53202e-07
1.35325e-06 0.000196333 -7.68186e-07
-3.53202e-07 -7.68186e-07 0.000159703
0.00110876 1.049e-05 1.02229e-06
1.049e-05 -9.57581e-06 -1.62744e-06
1.02229e-06 -1.62744e-06 -6.62683e-05
0.0012096 1.05728e-05 -1.12201e-07
1.05728e-05 8.16061e-05 1.76782e-07
-1.12201e-07 1.76782e-07 1.32136e-05
0.00116209 8.86684e-07 -3.00201e-07
8.86684e-07 6.11861e-05 -2.18847e-07
-3.00201e-07 -2.18847e-07 1.61758e-05
0.00115999 4.52304e-06 -3.55743e-08
4.52304e-06 6.27917e-05 -7.53977e-08
-3.55743e-08 -7.53977e-08 1.05098e-05
0.00116653 5.80642e-06 1.1965e-07
5.80642e-06 6.72983e-05 -2.77123e-08
1.1965e-07 -2.77123e-08 1.02769e-05
0.00109113 -9.37303e-07 -3.46496e-07
-9.37303e-07 2.18392e-05 -8.9309e-07
-3.46496e-07 -8.9309e-07 -1.24451e-05
0.00111659 -3.95229e-07 -1.8115e-07
-3.95229e-07 3.79668e-05 -2.41207e-07
-1.8115e-07 -2.41207e-07 -6.49499e-06
0.00107598 2.5141e-06 -2.66351e-07
2.5141e-06 2.11264e-05 -6.04241e-07
-2.66351e-07 -6.04241e-07 -3.13479e-05
0.00109288 -8.50066e-07 3.6282e-08
-8.50066e-07 2.23141e-05 1.4108e-09
3.6282e-08 1.4108e-09 -1.25261e-05
0.00102588 2.5873e-07 4.10973e-08
2.5873e-07 -6.61686e-06 2.76439e-07
4.10973e-08 2.76439e-07 -5.1698e-05
0.00115019 4.57485e-06 -7.05706e-08
4.57485e-06 5.77195e-05 -2.24841e-07
-7.05706e-08 -2.24841e-07 1.07622e-06
0.00114486 8.14078e-08 5.66577e-08
8.14078e-08 5.4147e-05 2.50504e-07
5.66577e-08 2.50504e-07 2.47417e-06
0.00117622 5.88044e-06 -1.3021e-08
5.88044e-06 6.9652e-05 -3.6229e-07
-1.3021e-08 -3.6229e-07 1.07038e-05
0.00110939 1.41687e-06 1.3545e-07
1.41687e-06 3.64383e-05 1.18697e-07
1.3545e-07 1.18697e-07 -2.06489e-05
0.00115685 3.5892e-06 1.37714e-07
3.5892e-06 5.87828e-05 2.87714e-07
1.37714e-07 2.87714e-07 7.57279e-06
0.00111482 -5.05525e-07 1.95188e-07
-5.05525e-07 3.6303e-05 4.81178e-07
1.95188e-07 4.81178e-07 -8.91559e-06
0.00108927 -8.65785e-07 1.56549e-07
-8.65785e-07 2.04708e-05 9.02855e-07
1.56549e-07 9.02855e-07 -1.5017e-05
0.00105751 -1.14984e-07 2.97798e-08
-1.14984e-07 -7.36918e-07 1.61521e-06
2.97798e-08 1.61521e-06 -2.01799e-05
0.0010578 -8.71085e-07 4.64788e-08
-8.71085e-07 -3.01044e-07 2.18507e-09
4.64788e-08 2.18507e-09 -1.94859e-05
0.0015004 -1.36579e-06 2.4063e-07
-1.36579e-06 0.000205206 1.70198e-06
2.4063e-07 1.70198e-06 0.000213483
0.00105691 -1.44806e-06 -3.24608e-07
-1.44806e-06 -1.98429e-08 -1.61143e-06
-3.24608e-07 -1.61143e-06 -1.88874e-05
0.00152 -2.46988e-06 -2.26222e-07
-2.46988e-06 0.000216124 -1.0699e-06
-2.26222e-07 -1.0699e-06 0.000224273
0.00123051 -3.0117e-06 1.35123e-06
-3.0117e-06 7.19428e-05 5.6137e-06
1.35123e-06 5.6137e-06 9.28838e-05
0.00153739 -3.51357e-06 -1.24818e-06
-3.51357e-06 0.000226498 -3.78624e-06
-1.24818e-06 -3.78624e-06 0.000234483
0.00118027 -4.36367e-06 6.20232e-07
-4.36367e-06 5.00849e-05 2.11595e-06
6.20232e-07 2.11595e-06 7.10995e-05
0.00112996 -5.6929e-06 -7.07444e-07
-5.6929e-06 2.84874e-05 -1.27429e-06
-7.07444e-07 -1.27429e-06 4.95261e-05
0.0010509 2.02846e-06 4.35822e-07
2.02846e-06 -1.71384e-06 -1.62151e-06
4.35822e-07 -1.62151e-06 -2.03114e-05
0.00098884 4.42574e-06 1.07199e-06
4.42574e-06 -3.73895e-05 -2.65714e-06
1.07199e-06 -2.65714e-06 -3.1926e-05
0.000990701 5.52725e-06 -4.63525e-08
5.52725e-06 -3.35574e-05 -3.85056e-09
-4.63525e-08 -3.85056e-09 -2.8751e-05
0.00223788 7.05972e-06 2.3068e-06
7.05972e-06 0.000565275 -3.38173e-06
2.3068e-06 -3.38173e-06 0.000590233
0.000995354 6.49642e-06 -1.63919e-06
6.49642e-06 -2.78659e-05 2.48599e-06
-1.63919e-06 2.48599e-06 -2.39328e-05
0.00223074 8.44723e-06 -1.08134e-07
8.44723e-06 0.000566213 -2.66842e-08
-1.08134e-07 -2.66842e-08 0.000590465
0.00221578 9.76608e-06 -3.21958e-06
9.76608e-06 0.000563626 3.23202e-06
-3.21958e-06 3.23202e-06 0.000587212
0.00112818 -7.21481e-06 1.18016e-06
-7.21481e-06 6.57675e-06 -2.91796e-07
1.18016e-06 -2.91796e-07 -4.42212e-05
0.00103817 -1.05433e-05 4.79821e-07
-1.05433e-05 8.28722e-06 -4.16984e-07
4.79821e-07 -4.16984e-07 -5.52613e-05
0.00115342 -8.37255e-06 -4.02821e-08
-8.37255e-06 8.96964e-05 1.56919e-06
-4.02821e-08 1.56919e-06 2.67232e-05
0.00109162 2.10112e-06 3.88768e-07
2.10112e-06 6.98065e-05 -5.25524e-07
3.88768e-07 -5.25524e-07 9.88771e-06
0.00107194 2.11316e-06 4.88725e-08
2.11316e-06 6.21247e-05 -4.61449e-07
4.88725e-08 -4.61449e-07 2.5471e-06
0.00103667 -1.17231e-05 -2.79013e-08
-1.17231e-05 4.50747e-05 4.10512e-07
-2.79013e-08 4.10512e-07 -2.13467e-05
0.00118888 -9.88306e-06 -2.7039e-07
-9.88306e-06 6.03805e-05 2.06807e-07
-2.7039e-07 2.06807e-07 4.45692e-06
0.00105933 2.67323e-07 -2.84804e-08
2.67323e-07 5.621e-05 -1.25809e-06
-2.84804e-08 -1.25809e-06 -5.40951e-06
0.000965531 -1.24383e-05 -2.075e-06
-1.24383e-05 -7.29356e-08 5.71207e-07
-2.075e-06 5.71207e-07 -6.36183e-05
0.00126888 -1.45131e-05 -1.54817e-06
-1.45131e-05 0.000147498 -4.04917e-07
-1.54817e-06 -4.04917e-07 0.000100138
0.00112146 1.00863e-05 5.37817e-07
1.00863e-05 6.20211e-05 -5.63793e-07
5.37817e-07 -5.63793e-07 6.8929e-07
0.00118631 8.78163e-06 2.56929e-07
8.78163e-06 5.22712e-05 -8.77996e-08
2.56929e-07 -8.77996e-08 -1.13864e-05
0.00119865 6.13681e-06 8.25316e-07
6.13681e-06 5.04559e-05 2.70183e-07
8.25316e-07 2.70183e-07 -8.05814e-06
0.00115112 -7.29684e-06 -2.50202e-07
-7.29684e-06 5.43598e-05 1.75237e-07
-2.50202e-07 1.75237e-07 6.64524e-07
0.00116142 -8.7919e-06 -7.46261e-08
-8.7919e-06 5.83867e-05 2.21249e-07
-7.46261e-08 2.21249e-07 -1.29282e-06
0.00118967 -9.20725e-06 -4.69659e-08
-9.20725e-06 5.77451e-05 -5.99564e-07
-4.69659e-08 -5.99564e-07 -2.07247e-06
0.00128681 -1.10937e-06 1.74702e-06
-1.10937e-06 8.17152e-05 7.30577e-08
1.74702e-06 7.30577e-08 3.22496e-05
0.00121414 -7.4626e-06 7.6754e-09
-7.4626e-06 4.52537e-05 -1.33146e-06
7.6754e-09 -1.33146e-06 -4.86043e-06
0.00111886 -7.62114e-06 -3.46949e-07
-7.62114e-06 3.64934e-05 2.11027e-07
-3.46949e-07 2.11027e-07 -1.97283e-05
0.00118109 -7.9609e-06 -2.96716e-07
-7.9609e-06 6.51165e-05 -6.29438e-08
-2.96716e-07 -6.29438e-08 7.57223e-06
0.00115463 -6.69235e-06 -2.37103e-07
-6.69235e-06 5.96758e-05 -4.57515e-08
-2.37103e-07 -4.57515e-08 4.90746e-06
0.00105029 3.45349e-06 -6.78628e-07
3.45349e-06 2.04902e-06 9.87698e-07
-6.78628e-07 9.87698e-07 -1.77559e-05
0.00116063 2.47355e-06 -6.8996e-07
2.47355e-06 6.14169e-05 9.98462e-07
-6.8996e-07 9.98462e-07 2.41702e-05
0.00116929 -3.23711e-06 -8.11424e-07
-3.23711e-06 6.60186e-05 9.81321e-07
-8.11424e-07 9.81321e-07 1.85113e-05
0.00108235 1.02659e-05 -1.38808e-08
1.02659e-05 3.73747e-05 1.17126e-07
-1.38808e-08 1.17126e-07 -2.42238e-05
0.00105213 2.48479e-06 1.23878e-08
2.48479e-06 1.77978e-07 -4.4842e-09
1.23878e-08 -4.4842e-09 -1.89153e-05
0.00102066 1.14226e-06 -1.42494e-07
1.14226e-06 -1.19511e-05 -3.50066e-08
-1.42494e-07 -3.50066e-08 -4.74085e-05
0.0012352 9.05546e-06 5.02847e-08
9.05546e-06 7.57169e-05 4.36209e-07
5.02847e-08 4.36209e-07 1.1606e-05
0.00121041 2.82532e-06 -1.25994e-07
2.82532e-06 4.75181e-05 -1.36361e-07
-1.25994e-07 -1.36361e-07 -3.93348e-06
0.00110008 -8.15069e-06 -7.20981e-08
-8.15069e-06 2.99941e-05 1.9827e-07
-7.20981e-08 1.9827e-07 -2.83899e-05
0.00120502 -9.81864e-06 -7.71621e-08
-9.81864e-06 7.58856e-05 7.98786e-08
-7.71621e-08 7.98786e-08 1.28604e-05
0.00119011 -9.27785e-06 1.5854e-07
-9.27785e-06 4.44766e-05 8.59611e-08
1.5854e-07 8.59611e-08 -1.22908e-05
0.00128682 -5.50985e-06 7.4759e-08
-5.50985e-06 6.8887e-05 -2.39474e-07
7.4759e-08 -2.39474e-07 2.38985e-05
0.00112071 3.24159e-06 5.16955e-08
3.24159e-06 4.0865e-05 -3.66285e-07
5.16955e-08 -3.66285e-07 4.62147e-06
0.00117352 -2.78068e-07 -1.3754e-07
-2.78068e-07 6.97886e-05 3.63992e-07
-1.3754e-07 3.63992e-07 2.12853e-05
0.00117134 -8.5208e-06 1.43156e-07
-8.5208e-06 6.23643e-05 -1.02448e-07
1.43156e-07 -1.02448e-07 3.55534e-06
0.00119754 -8.5726e-06 -2.08811e-07
-8.5726e-06 7.49252e-05 7.37366e-08
-2.08811e-07 7.37366e-08 1.41938e-05
0.00114229 -7.57735e-06 5.71986e-08
-7.57735e-06 5.03445e-05 5.76026e-08
5.71986e-08 5.76026e-08 -9.5083e-06
0.0011429 -6.59406e-06 1.46462e-07
-6.59406e-06 5.38253e-05 -2.45987e-07
1.46462e-07 -2.45987e-07 -1.17273e-06
0.00127017 1.12816e-05 6.46114e-07
1.12816e-05 0.000126376 8.11172e-07
6.46114e-07 8.11172e-07 5.5833e-05
0.00125212 8.47708e-06 -8.8911e-07
8.47708e-06 7.94442e-05 -1.06801e-06
-8.8911e-07 -1.06801e-06 2.04333e-05
0.00125603 -2.32082e-06 -2.03955e-06
-2.32082e-06 4.93768e-05 4.27558e-08
-2.03955e-06 4.27558e-08 9.89559e-06
0.00127108 -9.32357e-06 -2.67628e-07
-9.32357e-06 6.6601e-05 1.25971e-06
-2.67628e-07 1.25971e-06 1.64182e-05
0.00115627 -9.13961e-06 -8.65791e-08
-9.13961e-06 5.72809e-05 -1.43447e-07
-8.65791e-08 -1.43447e-07 -4.0201e-06
0.00127762 -1.07219e-05 -2.10114e-07
-1.07219e-05 0.000104939 6.94992e-07
-2.10114e-07 6.94992e-07 4.12354e-05
0.000938059 1.22656e-06 2.84585e-07
1.22656e-06 -5.23313e-05 -1.42864e-06
2.84585e-07 -1.42864e-06 -8.74454e-05
0.00108623 1.09386e-06 5.65112e-07
1.09386e-06 2.07237e-05 -8.64665e-07
5.65112e-07 -8.64665e-07 -1.4636e-05
0.00125677 6.72142e-07 9.6143e-08
6.72142e-07 0.000105054 7.12359e-08
9.6143e-08 7.12359e-08 6.01466e-05
0.00098363 2.78684e-07 3.07589e-07
2.78684e-07 -2.01138e-05 -5.18346e-07
3.07589e-07 -5.18346e-07 -6.96479e-05
0.00122832 -4.61689e-06 3.92052e-07
-4.61689e-06 9.58203e-05 -4.77341e-08
3.92052e-07 -4.77341e-08 4.07508e-05
0.0010678 -7.35593e-06 1.05754e-07
-7.35593e-06 1.59526e-05 -4.62159e-08
1.05754e-07 -4.62159e-08 -4.58414e-05
0.00122571 -8.4974e-06 2.97892e-07
-8.4974e-06 9.24361e-05 2.78897e-07
2.97892e-07 2.78897e-07 2.8574e-05
0.00113395 -9.28449e-06 -1.28488e-07
-9.28449e-06 4.80684e-05 2.65462e-07
-1.28488e-07 2.65462e-07 -1.35464e-05
0.00101453 1.85107e-06 -3.53738e-07
1.85107e-06 -1.00384e-05 -2.24468e-07
-3.53738e-07 -2.24468e-07 -5.64219e-05
0.00115969 4.98882e-06 -6.69269e-07
4.98882e-06 6.27989e-05 -3.93659e-07
-6.69269e-07 -3.93659e-07 9.70753e-06
0.00120302 -5.12356e-06 8.4057e-07
-5.12356e-06 3.15158e-05 -7.39311e-07
8.4057e-07 -7.39311e-07 -1.5695e-05
0.00112644 5.01348e-06 4.81862e-07
5.01348e-06 -9.57663e-06 8.56259e-07
4.81862e-07 8.56259e-07 -5.35967e-05
0.00120265 5.27148e-06 -3.41493e-07
5.27148e-06 8.2737e-05 -7.28969e-08
-3.41493e-07 -7.28969e-08 2.55765e-05
0.00119811 7.23507e-06 -2.33236e-07
7.23507e-06 8.67646e-05 -5.23831e-07
-2.33236e-07 -5.23831e-07 2.81246e-05
0.00142992 1.15927e-05 9.05241e-08
1.15927e-05 0.000161718 7.71541e-07
9.05241e-08 7.71541e-07 0.000101889
0.00115275 9.65885e-06 -1.34799e-08
9.65885e-06 5.69775e-05 -7.1633e-08
-1.34799e-08 -7.1633e-08 -1.01165e-05
0.00115856 5.70216e-06 -1.66661e-07
5.70216e-06 6.21946e-05 -2.74373e-07
-1.66661e-07 -2.74373e-07 9.16784e-06
0.00100714 -1.10738e-05 -4.07617e-07
-1.10738e-05 -6.12499e-06 6.38108e-07
-4.07617e-07 6.38108e-07 -5.72257e-05
0.00118323 6.94911e-06 1.08198e-07
6.94911e-06 7.39368e-05 2.43387e-07
1.08198e-07 2.43387e-07 1.53834e-05
0.00113746 8.11702e-06 7.93692e-08
8.11702e-06 5.16054e-05 1.71884e-08
7.93692e-08 1.71884e-08 -1.1163e-05
0.00131091 6.31653e-07 3.44234e-07
6.31653e-07 6.42318e-05 -2.35338e-07
3.44234e-07 -2.35338e-07 2.65576e-05
0.00135943 1.11755e-05 3.58087e-07
1.11755e-05 0.000104947 -2.99829e-07
3.58087e-07 -2.99829e-07 4.86324e-05
0.00125812 1.08411e-05 1.63758e-07
1.08411e-05 0.000104833 2.9996e-07
1.63758e-07 2.9996e-07 3.59608e-05
0.00119171 6.37233e-06 1.15069e-07
6.37233e-06 7.98062e-05 3.48363e-08
1.15069e-07 3.48363e-08 2.13284e-05
0.00139052 -7.47118e-06 -1.23608e-06
-7.47118e-06 0.0001296 -2.47969e-06
-1.23608e-06 -2.47969e-06 9.24585e-05
0.00129161 8.10855e-06 4.01193e-08
8.10855e-06 0.000121078 -1.00955e-07
4.01193e-08 -1.00955e-07 5.91368e-05
0.00132469 1.05064e-05 -2.92139e-07
1.05064e-05 0.000138638 3.03607e-07
-2.92139e-07 3.03607e-07 7.0538e-05
0.00113935 1.09234e-05 1.65518e-06
1.09234e-05 -4.22072e-05 -1.59801e-06
1.65518e-06 -1.59801e-06 -9.13709e-05
0.00105695 1.1942e-05 4.02382e-07
1.1942e-05 -5.76316e-07 -1.32823e-07
4.02382e-07 -1.32823e-07 -7.07568e-05
0.0011954 -3.29184e-06 -1.92708e-06
-3.29184e-06 -0.000201231 -3.46187e-06
-1.92708e-06 -3.46187e-06 -0.000234581
0.00115511 4.54706e-06 -2.78312e-07
4.54706e-06 6.07255e-05 -3.06306e-07
-2.78312e-07 -3.06306e-07 8.41872e-06
0.00115791 5.76353e-06 -3.39902e-08
5.76353e-06 6.35852e-05 -5.16227e-08
-3.39902e-08 -5.16227e-08 6.51197e-06
0.0012106 6.18899e-06 -3.66019e-08
6.18899e-06 8.73904e-05 -3.12968e-07
-3.66019e-08 -3.12968e-07 2.76043e-05
0.00109505 -8.56478e-07 -2.17858e-07
-8.56478e-07 2.3404e-05 -8.99178e-07
-2.17858e-07 -8.99178e-07 -1.14607e-05
0.00102455 -1.10641e-06 -1.42255e-07
-1.10641e-06 -7.16738e-06 -2.22929e-07
-1.42255e-07 -2.22929e-07 -5.22044e-05
0.00123225 1.71994e-06 -1.02039e-07
1.71994e-06 9.63753e-05 -7.30836e-08
-1.02039e-07 -7.30836e-08 4.52634e-05
0.00110683 4.25617e-06 -2.42156e-07
4.25617e-06 3.6915e-05 -2.82655e-07
-2.42156e-07 -2.82655e-07 -2.01083e-05
0.00109319 -8.83153e-07 3.2459e-08
-8.83153e-07 2.2398e-05 -1.21162e-09
3.2459e-08 -1.21162e-09 -1.31308e-05
0.00107197 -1.80765e-07 3.94448e-08
-1.80765e-07 1.55832e-05 6.38007e-09
3.94448e-08 6.38007e-09 -2.99156e-05
0.00115224 5.7675e-06 -1.03225e-07
5.7675e-06 5.83766e-05 -2.50186e-07
-1.03225e-07 -2.50186e-07 -5.34142e-07
0.00115768 1.79898e-06 -1.61554e-08
1.79898e-06 5.91307e-05 -1.74815e-08
-1.61554e-08 -1.74815e-08 7.89976e-06
0.00116129 1.59931e-06 5.37187e-08
1.59931e-06 6.19621e-05 -1.73479e-08
5.37187e-08 -1.73479e-08 5.24722e-06
0.00113977 4.36756e-06 4.58299e-08
4.36756e-06 5.07029e-05 -7.76363e-08
4.58299e-08 -7.76363e-08 -9.19358e-06
0.00120088 3.5054e-06 3.23589e-08
3.5054e-06 8.08264e-05 -1.18023e-07
3.23589e-08 -1.18023e-07 2.47898e-05
0.00122906 3.63571e-06 1.05216e-07
3.63571e-06 9.27754e-05 2.84481e-08
1.05216e-07 2.84481e-08 4.13635e-05
0.00101337 -1.53075e-06 9.98461e-08
-1.53075e-06 -1.22504e-05 4.79574e-07
9.98461e-08 4.79574e-07 -5.90931e-05
0.000934855 -2.14613e-07 1.10474e-08
-2.14613e-07 -5.37695e-05 1.26397e-06
1.10474e-08 1.26397e-06 -9.07876e-05
0.00126249 -1.94943e-07 -1.34853e-07
-1.94943e-07 0.000109041 1.17099e-07
-1.34853e-07 1.17099e-07 6.34407e-05
0.000948112 1.27795e-06 -2.42654e-07
1.27795e-06 -4.66441e-05 1.20708e-06
-2.42654e-07 1.20708e-06 -8.37847e-05
0.00105876 7.32109e-07 -1.33244e-07
7.32109e-07 7.77678e-08 1.60511e-06
-1.33244e-07 1.60511e-06 -1.95992e-05
0.00105891 -1.2135e-07 3.74194e-08
-1.2135e-07 -5.62597e-08 2.90385e-09
3.74194e-08 2.90385e-09 -1.95111e-05
0.00100327 -1.56088e-07 4.96866e-08
-1.56088e-07 -3.59115e-05 2.75211e-06
4.96866e-08 2.75211e-06 -3.02176e-05
0.00106002 -8.783e-07 -1.27879e-07
-8.783e-07 8.01311e-07 -1.61987e-06
-1.27879e-07 -1.61987e-06 -1.84112e-05
0.00126227 -1.32561e-06 -1.08936e-07
-1.32561e-06 9.00825e-05 -1.09204e-06
-1.08936e-07 -1.09204e-06 9.70155e-05
0.00222675 -1.68338e-06 6.23991e-07
-1.68338e-06 0.000552036 3.51556e-06
6.23991e-07 3.51556e-06 0.000578172
0.00154206 -2.43639e-06 -7.77048e-07
-2.43639e-06 0.000226827 -3.82834e-06
-7.77048e-07 -3.82834e-06 0.00023482
0.00118439 -3.02688e-06 3.77091e-07
-3.02688e-06 4.96742e-05 2.13563e-06
3.77091e-07 2.13563e-06 7.08624e-05
0.00113545 -4.35288e-06 -5.33644e-07
-4.35288e-06 2.83244e-05 -1.31161e-06
-5.33644e-07 -1.31161e-06 4.9601e-05
0.00105246 1.5907e-06 3.37857e-07
1.5907e-06 -1.9441e-06 -1.66768e-06
3.37857e-07 -1.66768e-06 -1.97879e-05
0.00105405 2.021e-06 -1.2226e-07
2.021e-06 -2.24582e-07 -2.45098e-08
-1.2226e-07 -2.45098e-08 -1.88343e-05
0.00099259 3.3927e-06 7.31336e-07
3.3927e-06 -3.76432e-05 -2.7363e-06
7.31336e-07 -2.7363e-06 -3.16566e-05
0.00125461 4.47487e-06 -7.58954e-08
4.47487e-06 9.10175e-05 1.5481e-08
-7.58954e-08 1.5481e-08 9.76401e-05
0.00223157 5.64204e-06 1.94435e-06
5.64204e-06 0.000559001 -3.45586e-06
1.94435e-06 -3.45586e-06 0.000584507
0.001001 5.50632e-06 -1.37326e-06
5.50632e-06 -2.86707e-05 2.5616e-06
-1.37326e-06 2.5616e-06 -2.39217e-05
0.00221738 7.10526e-06 -1.00011e-07
7.10526e-06 0.000555891 -2.12499e-08
-1.00011e-07 -2.12499e-08 0.000580854
0.00220955 8.47453e-06 -2.87233e-06
8.47453e-06 0.000556511 3.32446e-06
-2.87233e-06 3.32446e-06 0.000580765
0.00115235 -9.8382e-06 7.65389e-07
-9.8382e-06 4.52398e-05 -3.90297e-07
7.65389e-07 -3.90297e-07 -9.67286e-06
0.00109378 -1.17652e-05 8.95077e-07
-1.17652e-05 7.27218e-05 1.24767e-06
8.95077e-07 1.24767e-06 5.89366e-06
0.0011046 2.04397e-06 4.41228e-07
2.04397e-06 7.90718e-05 -4.10661e-07
4.41228e-07 -4.10661e-07 2.00397e-05
0.00108102 -8.8447e-08 -3.4884e-07
-8.8447e-08 6.62318e-05 -8.77121e-07
-3.4884e-07 -8.77121e-07 4.76699e-06
0.00104445 -1.23434e-05 -2.3956e-08
-1.23434e-05 3.6917e-05 1.133e-07
-2.3956e-08 1.133e-07 -2.67935e-05
0.00108876 -1.44398e-05 9.36131e-07
-1.44398e-05 8.72766e-05 2.58791e-07
9.36131e-07 2.58791e-07 4.15901e-05
0.00123268 -3.42713e-06 -1.34015e-06
-3.42713e-06 0.000134535 1.21225e-06
-1.34015e-06 1.21225e-06 7.1029e-05
0.000986478 -1.90201e-05 -2.76253e-06
-1.90201e-05 -3.84431e-05 -3.52505e-06
-2.76253e-06 -3.52505e-06 -5.61449e-05
0.000654947 -8.32865e-06 -1.65495e-06
-8.32865e-06 -8.34693e-05 -1.06759e-07
-1.65495e-06 -1.06759e-07 -0.000117941
0.00109456 8.27192e-07 -1.59956e-07
8.27192e-07 2.19118e-05 -1.03543e-06
-1.59956e-07 -1.03543e-06 -1.08334e-05
0.00102435 9.84301e-06 -1.95561e-07
9.84301e-06 7.99135e-06 -5.6383e-07
-1.95561e-07 -5.6383e-07 -5.45288e-05
0.00120333 8.98597e-06 5.7327e-07
8.98597e-06 6.02128e-05 5.77925e-07
5.7327e-07 5.77925e-07 -3.30506e-06
0.00119724 2.89998e-06 1.37587e-06
2.89998e-06 4.26568e-05 3.43475e-07
1.37587e-06 3.43475e-07 -1.00543e-05
0.00110094 -8.09018e-06 -1.68569e-07
-8.09018e-06 3.05819e-05 3.15345e-07
-1.68569e-07 3.15345e-07 -2.7526e-05
0.00116638 -9.69955e-06 1.20857e-07
-9.69955e-06 5.81383e-05 1.25116e-07
1.20857e-07 1.25116e-07 -4.98856e-06
0.00113174 -9.01615e-06 1.45523e-08
-9.01615e-06 1.64096e-05 -1.11695e-06
1.45523e-08 -1.11695e-06 -4.00632e-05
0.00128017 -5.77907e-06 1.03832e-06
-5.77907e-06 6.53615e-05 -1.11751e-06
1.03832e-06 -1.11751e-06 2.04753e-05
0.00119718 -8.58114e-06 1.43005e-07
-8.58114e-06 7.42828e-05 -2.07673e-07
1.43005e-07 -2.07673e-07 1.54769e-05
0.00114116 -8.424e-06 -4.98489e-07
-8.424e-06 4.74965e-05 -2.7289e-07
-4.98489e-07 -2.7289e-07 -1.30897e-05
0.00110322 -7.52287e-06 -4.02584e-07
-7.52287e-06 3.11362e-05 -6.29328e-08
-4.02584e-07 -6.29328e-08 -2.9122e-05
0.00105584 2.48585e-06 -7.53298e-07
2.48585e-06 1.92459e-06 1.53025e-06
-7.53298e-07 1.53025e-06 -1.71841e-05
0.00114909 -6.61361e-06 -1.18895e-07
-6.61361e-06 5.65814e-05 1.96765e-08
-1.18895e-07 1.96765e-08 1.70121e-06
0.00133074 3.44553e-06 -3.83974e-07
3.44553e-06 0.000141785 4.90424e-07
-3.83974e-07 4.90424e-07 0.000106754
0.00116641 -3.3668e-07 -6.06126e-07
-3.3668e-07 6.66696e-05 7.07178e-07
-6.06126e-07 7.07178e-07 1.80874e-05
0.000950304 1.15984e-06 -5.18887e-07
1.15984e-06 -4.59916e-05 9.1627e-07
-5.18887e-07 9.1627e-07 -8.18284e-05
0.00118109 1.12422e-05 1.53873e-07
1.12422e-05 7.83868e-05 2.44045e-08
1.53873e-07 2.44045e-08 7.11787e-06
0.00101644 1.23726e-06 5.5731e-08
1.23726e-06 -1.45572e-05 -4.3272e-07
5.5731e-08 -4.3272e-07 -4.90129e-05
0.00109346 1.15888e-06 8.36798e-08
1.15888e-06 2.41823e-05 1.7777e-08
8.36798e-08 1.7777e-08 -1.12122e-05
0.00116681 4.36203e-07 2.53507e-08
4.36203e-07 6.15137e-05 4.06009e-07
2.53507e-08 4.06009e-07 1.57605e-05
0.00124194 8.38753e-06 2.81645e-07
8.38753e-06 7.58103e-05 2.62322e-07
2.81645e-07 2.62322e-07 1.67929e-05
0.00124961 -2.68961e-06 -5.11249e-09
-2.68961e-06 4.68051e-05 -5.03232e-07
-5.11249e-09 -5.03232e-07 5.73072e-06
0.00116572 -9.16581e-06 5.9057e-08
-9.16581e-06 6.13793e-05 -1.75396e-08
5.9057e-08 -1.75396e-08 1.47057e-07
0.00118508 -1.04497e-05 1.86039e-07
-1.04497e-05 6.25249e-05 1.42428e-07
1.86039e-07 1.42428e-07 -1.01437e-06
0.00121342 -9.12929e-06 -1.89062e-07
-9.12929e-06 3.9663e-05 1.03481e-08
-1.89062e-07 1.03481e-08 -1.03152e-05
0.00105452 7.75742e-07 -1.80809e-08
7.75742e-07 1.40064e-05 6.45023e-09
-1.80809e-08 6.45023e-09 -3.49393e-05
0.00121625 -4.84758e-06 1.23237e-07
-4.84758e-06 8.94269e-05 2.72398e-08
1.23237e-07 2.72398e-08 3.41359e-05
0.00115003 -9.26548e-06 -3.44905e-08
-9.26548e-06 5.55299e-05 -7.69772e-08
-3.44905e-08 -7.69772e-08 -6.07007e-06
0.00120375 -8.40808e-06 3.64669e-09
-8.40808e-06 8.12711e-05 4.55423e-09
3.64669e-09 4.55423e-09 1.80512e-05
0.00112678 -7.45402e-06 -2.71062e-07
-7.45402e-06 4.47824e-05 2.70633e-07
-2.71062e-07 2.70633e-07 -1.67003e-05
0.0012574 1.38939e-05 -4.57887e-08
1.38939e-05 0.000117782 -1.95174e-07
-4.57887e-08 -1.95174e-07 4.05282e-05
0.00121897 3.7631e-06 -2.10035e-06
3.7631e-06 4.03488e-05 -1.23748e-06
-2.10035e-06 -1.23748e-06 -1.59744e-06
0.00129316 -8.53295e-06 -1.17399e-06
-8.53295e-06 5.47149e-05 1.31977e-06
-1.17399e-06 1.31977e-06 1.29662e-05
0.0013402 -1.15489e-05 3.1902e-07
-1.15489e-05 0.000123844 7.28682e-07
3.1902e-07 7.28682e-07 6.31742e-05
0.00113842 -1.01914e-05 -3.38649e-07
-1.01914e-05 5.18105e-05 -7.70467e-09
-3.38649e-07 -7.70467e-09 -1.15639e-05
0.000966595 3.25868e-06 1.31902e-07
3.25868e-06 -3.45999e-05 -6.4363e-07
1.31902e-07 -6.4363e-07 -8.04068e-05
0.000964972 -1.26624e-06 2.49791e-07
-1.26624e-06 -3.36015e-05 -3.93429e-07
2.49791e-07 -3.93429e-07 -8.14744e-05
0.00114767 2.40354e-06 1.0169e-08
2.40354e-06 5.91392e-05 2.28598e-07
1.0169e-08 2.28598e-07 5.96439e-06
0.0011906 -4.96975e-06 4.00425e-07
-4.96975e-06 7.99251e-05 -2.48345e-07
4.00425e-07 -2.48345e-07 2.21627e-05
0.00108776 -7.00237e-06 2.75007e-08
-7.00237e-06 2.61093e-05 2.62135e-07
2.75007e-08 2.62135e-07 -3.43603e-05
0.00123956 -8.55185e-06 6.29593e-07
-8.55185e-06 0.00010164 -1.62938e-07
6.29593e-07 -1.62938e-07 3.49281e-05
0.00114701 -9.91943e-06 2.04324e-07
-9.91943e-06 5.62759e-05 4.8063e-07
2.04324e-07 4.8063e-07 -8.98842e-06
0.00114564 5.67194e-06 -4.31038e-07
5.67194e-06 5.60959e-05 -5.17113e-07
-4.31038e-07 -5.17113e-07 3.05954e-06
0.0011327 6.86164e-06 -1.16757e-07
6.86164e-06 4.95557e-05 2.22717e-07
-1.16757e-07 2.22717e-07 -9.01369e-06
0.000862185 -1.07529e-05 2.52796e-06
-1.07529e-05 -6.50542e-05 1.22616e-06
2.52796e-06 1.22616e-06 -0.000113122
0.00101964 -7.64018e-08 1.64928e-06
-7.64018e-08 -6.64579e-05 -4.49474e-08
1.64928e-06 -4.49474e-08 -0.000105182
0.00161391 1.1867e-05 1.04745e-07
1.1867e-05 0.000221173 8.15214e-07
1.04745e-07 8.15214e-07 0.000165236
0.00109113 7.99096e-06 5.96442e-08
7.99096e-06 2.88764e-05 2.41735e-08
5.96442e-08 2.41735e-08 -3.42106e-05
0.00130002 1.10881e-05 -3.89336e-08
1.10881e-05 0.000124879 3.45358e-07
-3.89336e-08 3.45358e-07 5.55438e-05
0.00120061 6.39123e-06 1.32665e-08
6.39123e-06 8.40313e-05 1.92463e-08
1.32665e-08 1.92463e-08 2.58502e-05
0.00108775 -7.28814e-06 -8.41012e-07
-7.28814e-06 -5.69392e-06 -4.50056e-09
-8.41012e-07 -4.50056e-09 -4.1542e-05
0.00120662 7.84243e-06 -1.10595e-08
7.84243e-06 8.12779e-05 5.97308e-08
-1.10595e-08 5.97308e-08 1.92652e-05
0.00122783 1.01513e-05 -3.9633e-08
1.01513e-05 9.42572e-05 1.80762e-07
-3.9633e-08 1.80762e-07 2.59762e-05
0.0013508 1.0147e-05 9.15368e-07
1.0147e-05 5.85593e-05 -7.44604e-07
9.15368e-07 -7.44604e-07 1.13397e-05
0.00118666 1.25701e-05 -5.55297e-08
1.25701e-05 6.03253e-05 5.97936e-07
-5.55297e-08 5.97936e-07 -1.06904e-05
0.00190748 -2.30576e-06 -9.10157e-07
-2.30576e-06 0.00015037 1.55987e-08
-9.10157e-07 1.55987e-08 0.000116591
0.00119261 6.72803e-06 -1.95874e-07
6.72803e-06 7.8571e-05 -3.80789e-07
-1.95874e-07 -3.80789e-07 1.69039e-05
0.00101544 9.57423e-06 2.63242e-06
9.57423e-06 -0.000148196 -2.07697e-07
2.63242e-06 -2.07697e-07 -0.000195655
0.00122667 8.92981e-06 -4.79054e-07
8.92981e-06 9.44803e-05 -2.65483e-07
-4.79054e-07 -2.65483e-07 2.90048e-05
0.00118593 1.21888e-05 -3.71243e-07
1.21888e-05 8.25969e-05 7.57663e-07
-3.71243e-07 7.57663e-07 6.22646e-06
0.000943008 1.71882e-05 1.68117e-06
1.71882e-05 -0.000100545 -1.24518e-06
1.68117e-06 -1.24518e-06 -0.000174987
0.00585929 8.40909e-06 -2.67349e-05
8.40909e-06 0.00176296 -2.61718e-06
-2.67349e-05 -2.61718e-06 0.00165699
0.0020286 1.56653e-05 2.1685e-05
1.56653e-05 0.000321036 9.38526e-06
2.1685e-05 9.38526e-06 0.000264536
0.00103676 1.82991e-05 -3.63624e-06
1.82991e-05 -0.000278699 -4.145e-06
-3.63624e-06 -4.145e-06 -0.000336777
-0.00456392 -4.5275e-05 -3.66349e-05
-4.5275e-05 -0.00194698 -1.71418e-05
-3.66349e-05 -1.71418e-05 -0.00189529
0.000619525 -3.3242e-05 5.74751e-06
-3.3242e-05 0.000123302 3.27659e-06
5.74751e-06 3.27659e-06 0.00020264
0.00114974 5.72181e-06 -1.62267e-07
5.72181e-06 6.00722e-05 -8.686e-08
-1.62267e-07 -8.686e-08 2.94794e-06
0.00118953 6.07287e-06 1.24559e-08
6.07287e-06 7.79693e-05 -9.9998e-08
1.24559e-08 -9.9998e-08 1.83027e-05
0.00116386 6.10204e-06 2.97096e-08
6.10204e-06 6.60652e-05 -3.59737e-07
2.97096e-08 -3.59737e-07 4.94949e-06
0.00109711 -9.01267e-07 -9.43976e-08
-9.01267e-07 2.43302e-05 -9.06796e-07
-9.43976e-08 -9.06796e-07 -1.12396e-05
0.00102919 3.73364e-07 -1.36772e-07
3.73364e-07 -5.11512e-06 -4.72652e-07
-1.36772e-07 -4.72652e-07 -5.08946e-05
0.00115856 2.63611e-07 -1.0281e-07
2.63611e-07 5.95022e-05 -3.268e-07
-1.0281e-07 -3.268e-07 8.24951e-06
0.00121378 1.70896e-06 -4.73278e-08
1.70896e-06 8.77364e-05 -1.15774e-07
-4.73278e-08 -1.15774e-07 3.13955e-05
0.00112705 5.65222e-06 -2.83155e-07
5.65222e-06 4.65302e-05 -1.82096e-07
-2.83155e-07 -1.82096e-07 -1.23405e-05
0.00114785 3.60941e-06 -5.35909e-08
3.60941e-06 5.35263e-05 -2.53795e-07
-5.35909e-08 -2.53795e-07 1.59744e-06
0.0010154 -2.35029e-07 2.06556e-08
-2.35029e-07 -1.49613e-05 3.49639e-07
2.06556e-08 3.49639e-07 -5.15098e-05
0.001065 -2.02259e-06 2.88321e-08
-2.02259e-06 1.26394e-05 -4.04276e-10
2.88321e-08 -4.04276e-10 -3.38238e-05
0.00115969 4.2169e-06 -1.3974e-08
4.2169e-06 6.0559e-05 8.69673e-08
-1.3974e-08 8.69673e-08 8.98736e-07
0.00118201 3.25691e-06 -2.34408e-08
3.25691e-06 7.12477e-05 -2.2326e-07
-2.34408e-08 -2.2326e-07 1.50996e-05
0.00118649 5.87276e-06 1.59008e-10
5.87276e-06 7.29439e-05 -2.5494e-07
1.59008e-10 -2.5494e-07 1.70321e-05
0.00118702 3.049e-06 2.13401e-08
3.049e-06 7.22887e-05 -1.01036e-07
2.13401e-08 -1.01036e-07 1.25785e-05
0.00109083 2.91648e-06 1.01414e-07
2.91648e-06 2.5433e-05 5.13897e-07
1.01414e-07 5.13897e-07 -2.81745e-05
0.00101162 3.96179e-08 1.72136e-08
3.96179e-08 -1.2494e-05 2.05074e-07
1.72136e-08 2.05074e-07 -6.04138e-05
0.000940092 7.76042e-07 -1.23506e-07
7.76042e-07 -5.0907e-05 1.24396e-06
-1.23506e-07 1.24396e-06 -8.81483e-05
0.0011738 1.7574e-06 -1.2191e-07
1.7574e-06 6.58517e-05 3.81833e-07
-1.2191e-07 3.81833e-07 1.92108e-05
0.0012351 -7.29845e-07 -1.02223e-07
-7.29845e-07 9.71051e-05 -1.25144e-07
-1.02223e-07 -1.25144e-07 4.42673e-05
0.00111228 -2.59842e-06 -2.78762e-07
-2.59842e-06 3.70187e-05 4.50505e-07
-2.78762e-07 4.50505e-07 -9.65807e-06
0.00114511 -3.8331e-07 1.13297e-07
-3.8331e-07 5.23042e-05 -3.36168e-07
1.13297e-07 -3.36168e-07 5.92241e-06
0.00109499 1.14896e-06 -3.17841e-07
1.14896e-06 2.45488e-05 8.31394e-07
-3.17841e-07 8.31394e-07 -1.15838e-05
0.000945162 1.25911e-06 -2.39466e-08
1.25911e-06 -4.80885e-05 3.47041e-07
-2.39466e-08 3.47041e-07 -8.5241e-05
0.00105735 1.44188e-06 -2.98129e-07
1.44188e-06 9.67022e-08 1.5807e-06
-2.98129e-07 1.5807e-06 -1.97763e-05
0.0010589 7.27627e-07 3.61884e-08
7.27627e-07 1.26769e-07 2.68774e-09
3.61884e-08 2.68774e-09 -1.95431e-05
0.00102996 1.00402e-06 -3.07424e-07
1.00402e-06 -2.30065e-05 3.83806e-06
-3.07424e-07 3.83806e-06 -1.75746e-05
0.00106035 -1.27692e-07 4.16439e-08
-1.27692e-07 6.45333e-07 -1.61264e-06
4.16439e-08 -1.61264e-06 -1.88215e-05
0.00100504 -1.69905e-07 5.58831e-08
-1.69905e-07 -3.50456e-05 2.01157e-09
5.58831e-08 2.01157e-09 -2.93689e-05
0.00223127 -3.01761e-07 6.69604e-08
-3.01761e-07 0.000553453 3.51816e-06
6.69604e-08 3.51816e-06 0.000579659
0.00102672 -1.31303e-06 -2.92161e-07
-1.31303e-06 -2.38831e-05 -3.85507e-06
-2.92161e-07 -3.85507e-06 -1.82953e-05
0.00170606 -1.63968e-06 4.35843e-08
-1.63968e-06 0.000300177 1.19416e-08
4.35843e-08 1.19416e-08 0.000323915
0.00113853 -2.99823e-06 -3.43346e-07
-2.99823e-06 2.75138e-05 -1.33678e-06
-3.43346e-07 -1.33678e-06 4.89504e-05
0.00105294 9.57739e-07 1.82011e-08
9.57739e-07 -3.00009e-06 -1.67428e-06
1.82011e-08 -1.67428e-06 -1.98694e-05
0.00105606 1.5827e-06 4.8457e-09
1.5827e-06 -2.40685e-07 -5.94255e-10
4.8457e-09 -5.94255e-10 -1.8102e-05
0.000995663 2.34471e-06 4.75171e-07
2.34471e-06 -3.76669e-05 -2.78325e-06
4.75171e-07 -2.78325e-06 -3.10381e-05
0.00105751 2.01448e-06 -6.75677e-07
2.01448e-06 1.41191e-06 1.57427e-06
-6.75677e-07 1.57427e-06 -1.72108e-05
0.00124992 3.39732e-06 2.39694e-08
3.39732e-06 8.65706e-05 -5.27718e-07
2.39694e-08 -5.27718e-07 9.37567e-05
0.00221952 4.25001e-06 1.43127e-06
4.25001e-06 0.000550732 -3.49413e-06
1.43127e-06 -3.49413e-06 0.000576731
0.000991123 4.42988e-06 -1.17625e-06
4.42988e-06 -3.62276e-05 2.61422e-06
-1.17625e-06 2.61422e-06 -3.08054e-05
0.00222484 5.67682e-06 -6.35787e-07
5.67682e-06 0.000556515 1.0114e-06
-6.35787e-07 1.0114e-06 0.000581927
0.00219685 7.14538e-06 -2.4878e-06
7.14538e-06 0.000546484 3.37336e-06
-2.4878e-06 3.37336e-06 0.000571455
0.00112661 -1.22469e-05 5.39774e-07
-1.22469e-05 7.5326e-05 3.87562e-07
5.39774e-07 3.87562e-07 1.14509e-05
0.00110332 -4.38211e-07 1.39493e-07
-4.38211e-07 7.65304e-05 -6.40838e-07
1.39493e-07 -6.40838e-07 1.52194e-05
0.000907396 -1.43705e-05 5.86847e-06
-1.43705e-05 2.575e-05 1.50306e-06
5.86847e-06 1.50306e-06 -1.82078e-05
0.000803198 -1.8014e-05 -1.2227e-06
-1.8014e-05 -0.000115511 -5.34444e-07
-1.2227e-06 -5.34444e-07 -0.000134182
0.00103181 -3.38323e-06 4.15633e-08
-3.38323e-06 4.65317e-05 -1.83355e-07
4.15633e-08 -1.83355e-07 -1.68869e-05
0.000857662 -8.11371e-06 -2.9417e-08
-8.11371e-06 6.0998e-06 -2.09426e-06
-2.9417e-08 -2.09426e-06 -3.43876e-05
0.00084889 9.10367e-06 -1.26105e-06
9.10367e-06 -1.34324e-05 2.92044e-06
-1.26105e-06 2.92044e-06 -8.38425e-05
0.00084375 -1.99741e-06 4.05163e-05
-1.99741e-06 -0.000347427 9.26433e-06
4.05163e-05 9.26433e-06 -0.000412717
0.000908313 -2.17319e-06 -3.03954e-06
-2.17319e-06 0.000103591 3.90695e-06
-3.03954e-06 3.90695e-06 6.51506e-05
0.00110124 -3.06876e-08 9.22094e-08
-3.06876e-08 2.48559e-05 -9.47747e-07
9.22094e-08 -9.47747e-07 -6.89475e-06
0.00109668 8.64592e-07 -1.63637e-07
8.64592e-07 2.29595e-05 -3.39626e-09
-1.63637e-07 -3.39626e-09 -9.82678e-06
0.00109349 3.44902e-06 -1.69904e-07
3.44902e-06 2.5427e-05 -3.99085e-07
-1.69904e-07 -3.99085e-07 -1.83675e-05
0.00109023 -1.44172e-06 1.54373e-08
-1.44172e-06 2.46223e-05 -1.64388e-07
1.54373e-08 -1.64388e-07 -1.67336e-05
0.00110311 1.12196e-05 -5.16969e-07
1.12196e-05 3.55574e-05 -1.28519e-08
-5.16969e-07 -1.28519e-08 -3.64482e-05
0.00122976 8.2893e-06 1.53087e-06
8.2893e-06 7.11322e-05 1.24177e-06
1.53087e-06 1.24177e-06 1.21157e-05
0.0012537 -3.05673e-06 1.41131e-06
-3.05673e-06 4.90621e-05 -5.07107e-07
1.41131e-06 -5.07107e-07 6.39071e-06
0.00117456 -9.19195e-06 1.98255e-07
-9.19195e-06 6.51918e-05 1.02967e-07
1.98255e-07 1.02967e-07 4.02977e-06
0.00109 -1.0172e-05 4.53241e-07
-1.0172e-05 1.89466e-05 -4.19289e-07
4.53241e-07 -4.19289e-07 -4.44258e-05
0.00115988 -8.95144e-06 9.03407e-08
-8.95144e-06 1.45827e-05 -1.48371e-06
9.03407e-08 -1.48371e-06 -3.51883e-05
0.00116499 -9.24427e-06 -8.47629e-08
-9.24427e-06 6.24352e-05 -2.21838e-07
-8.47629e-08 -2.21838e-07 8.55665e-07
0.00118533 -8.32735e-06 -3.93733e-07
-8.32735e-06 7.17537e-05 -3.19011e-07
-3.93733e-07 -3.19011e-07 9.17273e-06
0.00118579 -7.55182e-06 -4.2598e-07
-7.55182e-06 7.36047e-05 5.11588e-07
-4.2598e-07 5.11588e-07 1.24352e-05
0.00110069 1.2266e-06 -3.86295e-07
1.2266e-06 2.76509e-05 8.90832e-07
-3.86295e-07 8.90832e-07 -7.77923e-06
0.00120206 -5.20092e-06 -3.74935e-07
-5.20092e-06 8.20566e-05 1.50711e-07
-3.74935e-07 1.50711e-07 2.65458e-05
0.00112388 1.19323e-06 -2.83652e-07
1.19323e-06 4.74273e-05 5.62277e-07
-2.83652e-07 5.62277e-07 -9.30354e-07
0.00109381 1.24914e-06 -1.31508e-07
1.24914e-06 2.27821e-05 6.10351e-07
-1.31508e-07 6.10351e-07 -1.1018e-05
0.00107505 2.08688e-07 -4.10939e-07
2.08688e-07 1.71275e-05 9.23235e-07
-4.10939e-07 9.23235e-07 -2.94682e-05
0.00124485 1.36304e-05 3.42596e-07
1.36304e-05 0.000108239 7.44187e-07
3.42596e-07 7.44187e-07 3.24847e-05
0.00112045 3.07346e-06 -2.9178e-08
3.07346e-06 3.9482e-05 -2.54081e-07
-2.9178e-08 -2.54081e-07 -5.58868e-06
0.00104906 -2.29989e-06 4.66141e-08
-2.29989e-06 6.65847e-06 -9.08755e-09
4.66141e-08 -9.08755e-09 -4.07368e-05
0.00111677 2.72144e-07 -2.41951e-08
2.72144e-07 4.38957e-05 6.04478e-07
-2.41951e-08 6.04478e-07 -8.32927e-06
0.00127671 3.68933e-06 2.45648e-07
3.68933e-06 7.23217e-05 -4.33328e-08
2.45648e-07 -4.33328e-08 2.90858e-05
0.00124803 -8.45528e-06 -4.11992e-07
-8.45528e-06 3.23035e-05 -6.46023e-07
-4.11992e-07 -6.46023e-07 -9.38459e-06
0.00116688 -1.0238e-05 5.7277e-08
-1.0238e-05 6.50392e-05 -1.08378e-07
5.7277e-08 -1.08378e-07 1.56248e-06
0.00122067 -1.10774e-05 1.34737e-07
-1.10774e-05 6.98386e-05 3.96224e-07
1.34737e-07 3.96224e-07 9.66087e-06
0.00121718 -4.83315e-06 3.53295e-08
-4.83315e-06 9.33026e-05 -2.29154e-08
3.53295e-08 -2.29154e-08 3.57423e-05
0.00111361 -7.24221e-06 -2.88138e-07
-7.24221e-06 3.78531e-05 5.22743e-07
-2.88138e-07 5.22743e-07 -2.21757e-05
0.00115884 -9.96398e-06 -1.08188e-07
-9.96398e-06 6.17947e-05 -9.74398e-08
-1.08188e-07 -9.74398e-08 -3.48017e-06
0.00123003 -8.4043e-06 2.2134e-07
-8.4043e-06 9.7452e-05 -1.7853e-07
2.2134e-07 -1.7853e-07 3.09625e-05
0.00122774 1.33087e-05 -1.64902e-06
1.33087e-05 9.0768e-05 -2.25387e-06
-1.64902e-06 -2.25387e-06 2.84765e-05
0.00133947 -6.5354e-06 -2.0535e-06
-6.5354e-06 6.34243e-05 -5.72946e-07
-2.0535e-06 -5.72946e-07 3.33036e-05
0.00126379 -1.20186e-05 6.5002e-07
-1.20186e-05 6.20521e-05 2.10367e-06
6.5002e-07 2.10367e-06 6.00774e-06
0.00117963 -1.23842e-05 -1.61738e-07
-1.23842e-05 6.94206e-05 -2.23661e-08
-1.61738e-07 -2.23661e-08 4.34683e-06
0.00109371 2.42317e-06 -2.31639e-08
2.42317e-06 3.46376e-05 -2.78856e-07
-2.31639e-08 -2.78856e-07 -2.09516e-05
0.00109028 -5.87289e-06 7.62947e-08
-5.87289e-06 3.07725e-05 -7.7288e-07
7.62947e-08 -7.7288e-07 -2.59514e-05
0.00113818 -7.38997e-06 1.88423e-07
-7.38997e-06 5.54359e-05 -1.98986e-07
1.88423e-07 -1.98986e-07 -1.06439e-05
0.00120821 -9.6596e-06 4.51819e-07
-9.6596e-06 8.89231e-05 4.99957e-07
4.51819e-07 4.99957e-07 1.77702e-05
-0.000612783 2.35047e-06 -4.9446e-05
2.35047e-06 -0.00110754 3.41032e-06
-4.9446e-05 3.41032e-06 -0.00110755
0.00120655 6.39906e-06 -8.59087e-08
6.39906e-06 8.68488e-05 -4.61165e-08
-8.59087e-08 -4.61165e-08 2.89704e-05
0.0011255 7.58598e-06 1.58668e-07
7.58598e-06 4.329e-05 3.8284e-07
1.58668e-07 3.8284e-07 -1.8799e-05
0.000814587 -7.22018e-06 1.04405e-06
-7.22018e-06 -0.000128153 5.9072e-07
1.04405e-06 5.9072e-07 -0.000162714
0.00154798 9.37405e-06 1.03548e-07
9.37405e-06 0.000152819 5.02679e-07
1.03548e-07 5.02679e-07 0.00010755
0.00131653 1.32008e-05 -7.68666e-07
1.32008e-05 0.000121236 1.0439e-06
-7.68666e-07 1.0439e-06 4.93927e-05
0.00113668 9.81083e-06 2.09887e-07
9.81083e-06 5.26213e-05 1.58309e-07
2.09887e-07 1.58309e-07 -1.58557e-05
0.00269468 -1.31029e-06 1.58692e-06
-1.31029e-06 0.000534228 5.35816e-06
1.58692e-06 5.35816e-06 0.000499862
0.00118789 6.67702e-06 -2.47123e-08
6.67702e-06 7.72536e-05 -1.54161e-07
-2.47123e-08 -1.54161e-07 1.58494e-05
0.00134559 8.77296e-06 1.01028e-06
8.77296e-06 9.84379e-06 -1.90284e-07
1.01028e-06 -1.90284e-07 -3.76447e-05
0.0011698 8.68544e-06 -5.03811e-08
8.68544e-06 6.78405e-05 -1.19227e-07
-5.03811e-08 -1.19227e-07 2.65372e-06
0.00115696 1.20527e-05 -3.13124e-07
1.20527e-05 6.79256e-05 2.45138e-07
-3.13124e-07 2.45138e-07 -8.22221e-06
0.00116898 1.67077e-05 2.97483e-07
1.67077e-05 3.73525e-06 -1.85662e-07
2.97483e-07 -1.85662e-07 -6.79346e-05
-0.000527105 5.84528e-06 1.81885e-06
5.84528e-06 -0.000994875 2.29414e-06
1.81885e-06 2.29414e-06 -0.00105472
0.00210235 1.83693e-05 3.70933e-06
1.83693e-05 0.000106157 -1.77399e-06
3.70933e-06 -1.77399e-06 9.73453e-06
0.0019187 2.18179e-05 -1.68856e-06
2.18179e-05 0.000122925 -4.47002e-07
-1.68856e-06 -4.47002e-07 6.06401e-05
-0.000654611 -4.41621e-05 -7.24636e-06
-4.41621e-05 -0.000326676 -3.61108e-06
-7.24636e-06 -3.61108e-06 -0.00030485
0.000384198 -3.45843e-05 -5.65088e-06
-3.45843e-05 -7.59423e-06 -2.13163e-06
-5.65088e-06 -2.13163e-06 7.09641e-05
0.00118391 7.02525e-06 -1.82636e-07
7.02525e-06 7.95751e-05 -4.47206e-07
-1.82636e-07 -4.47206e-07 1.67268e-05
3.2368e-06 -8.28759e-06 -6.20618e-05
-8.28759e-06 -0.000100581 -6.1955e-06
-6.20618e-05 -6.1955e-06 -8.32215e-05
0.00103794 -2.53017e-05 1.16441e-05
-2.53017e-05 0.000472904 7.09008e-06
1.16441e-05 7.09008e-06 0.00051818
0.00115529 2.25892e-05 3.54193e-06
2.25892e-05 -6.13657e-05 9.14724e-07
3.54193e-06 9.14724e-07 -0.000139042
0.00122575 9.72903e-06 -6.2398e-07
9.72903e-06 0.000110073 -5.49583e-09
-6.2398e-07 -5.49583e-09 3.90128e-05
0.0012834 1.5643e-05 -8.03381e-07
1.5643e-05 0.000134012 -3.59283e-07
-8.03381e-07 -3.59283e-07 4.40723e-05
0.00174963 2.6611e-05 -9.37257e-06
2.6611e-05 0.000206848 -1.11925e-05
-9.37257e-06 -1.11925e-05 0.000100797
0.00643704 -1.83539e-05 -6.40242e-05
-1.83539e-05 0.00194261 -2.59389e-05
-6.40242e-05 -2.59389e-05 0.00173118
0.00145055 3.89522e-05 1.82284e-05
3.89522e-05 -0.000102427 2.11128e-05
1.82284e-05 2.11128e-05 -0.000264157
-0.000481472 -7.32148e-05 -3.31316e-05
-7.32148e-05 -6.30339e-05 -3.04851e-05
-3.31316e-05 -3.04851e-05 -2.499e-05
-0.000271335 -1.88569e-05 1.07644e-05
-1.88569e-05 -0.000427928 2.8604e-06
1.07644e-05 2.8604e-06 -0.000392517
0.00116694 5.9509e-06 -5.69761e-08
5.9509e-06 6.78474e-05 -3.1736e-09
-5.69761e-08 -3.1736e-09 8.30105e-06
0.00116538 6.1068e-06 1.06366e-08
6.1068e-06 6.66215e-05 1.3405e-08
1.06366e-08 1.3405e-08 5.48949e-06
0.00116862 5.58858e-06 -6.84133e-08
5.58858e-06 6.96342e-05 -4.94647e-07
-6.84133e-08 -4.94647e-07 7.61955e-06
0.00109506 -2.53191e-07 1.56598e-08
-2.53191e-07 2.34569e-05 -5.58047e-07
1.56598e-08 -5.58047e-07 -1.2623e-05
0.00111707 -2.3948e-06 -5.88204e-08
-2.3948e-06 3.77389e-05 -4.57066e-07
-5.88204e-08 -4.57066e-07 -8.3448e-06
0.00106683 3.10075e-06 -2.00253e-07
3.10075e-06 1.43684e-05 -5.48251e-07
-2.00253e-07 -5.48251e-07 -3.80749e-05
0.00116252 2.81298e-06 -1.03296e-07
2.81298e-06 6.13836e-05 -3.86113e-07
-1.03296e-07 -3.86113e-07 5.12597e-06
0.00117935 4.09835e-06 -4.59226e-08
4.09835e-06 7.0293e-05 2.96803e-07
-4.59226e-08 2.96803e-07 1.0869e-05
0.00093954 8.3899e-07 -2.91625e-09
8.3899e-07 -5.12047e-05 3.51875e-07
-2.91625e-09 3.51875e-07 -8.84449e-05
0.00115481 5.56994e-06 -1.00446e-07
5.56994e-06 5.73059e-05 -3.90332e-07
-1.00446e-07 -3.90332e-07 1.4591e-06
0.00115971 1.10519e-06 6.05798e-08
1.10519e-06 5.90187e-05 2.71128e-07
6.05798e-08 2.71128e-07 5.99524e-06
0.00108909 1.53214e-07 -3.75745e-09
1.53214e-07 2.48244e-05 -2.36339e-07
-3.75745e-09 -2.36339e-07 -2.2534e-05
0.00117432 2.73885e-06 1.4061e-08
2.73885e-06 6.59583e-05 1.24286e-07
1.4061e-08 1.24286e-07 5.99452e-06
0.00111157 4.14067e-06 1.71827e-08
4.14067e-06 3.4736e-05 9.83825e-08
1.71827e-08 9.83825e-08 -2.34849e-05
0.00117321 -2.3881e-07 -3.06157e-08
-2.3881e-07 6.371e-05 -2.75782e-07
-3.06157e-08 -2.75782e-07 2.68516e-06
0.00116022 8.88458e-07 4.38426e-08
8.88458e-07 6.02082e-05 2.18003e-07
4.38426e-08 2.18003e-07 5.62501e-06
0.00116564 1.02373e-06 -5.1737e-08
1.02373e-06 6.20541e-05 1.06745e-07
-5.1737e-08 1.06745e-07 1.49838e-05
0.00116989 1.91679e-06 2.12992e-08
1.91679e-06 6.40626e-05 -7.23181e-08
2.12992e-08 -7.23181e-08 1.74075e-05
0.00116568 -1.96803e-06 6.74124e-09
-1.96803e-06 6.34469e-05 -2.65657e-07
6.74124e-09 -2.65657e-07 1.0084e-05
0.00116449 7.63729e-07 -1.81739e-07
7.63729e-07 6.30045e-05 1.84916e-07
-1.81739e-07 1.84916e-07 9.04518e-06
0.00113851 -3.08897e-06 -1.71404e-07
-3.08897e-06 5.15218e-05 1.62984e-07
-1.71404e-07 1.62984e-07 -2.41471e-06
0.00115409 -3.32127e-06 -3.90846e-08
-3.32127e-06 6.02865e-05 -3.29277e-07
-3.90846e-08 -3.29277e-07 2.79565e-06
0.00112044 -4.40557e-06 -4.49399e-07
-4.40557e-06 4.37311e-05 2.49162e-07
-4.49399e-07 2.49162e-07 -1.15481e-05
0.00110425 -1.70158e-06 -2.69907e-07
-1.70158e-06 3.39627e-05 4.54996e-07
-2.69907e-07 4.54996e-07 -1.33781e-05
0.00111699 -2.64252e-06 -3.64194e-09
-2.64252e-06 3.93281e-05 -1.51481e-08
-3.64194e-09 -1.51481e-08 -7.37838e-06
0.00108868 1.11025e-06 -4.38314e-07
1.11025e-06 2.20948e-05 8.05048e-07
-4.38314e-07 8.05048e-07 -1.40596e-05
0.00102689 -6.8702e-07 3.32368e-07
-6.8702e-07 -4.80504e-06 -7.8631e-07
3.32368e-07 -7.8631e-07 -5.19693e-05
0.0010198 1.09288e-06 3.86044e-08
1.09288e-06 -1.16729e-05 1.09872e-08
3.86044e-08 1.09872e-08 -4.8247e-05
0.0010534 1.95911e-06 -4.93168e-07
1.95911e-06 -7.32176e-07 1.54491e-06
-4.93168e-07 1.54491e-06 -2.07633e-05
0.00094242 1.24093e-06 1.99328e-07
1.24093e-06 -4.94346e-05 -5.25137e-07
1.99328e-07 -5.25137e-07 -8.65993e-05
0.00105773 1.43483e-06 4.82842e-08
1.43483e-06 2.44796e-07 2.83178e-09
4.82842e-08 2.83178e-09 -1.96166e-05
0.00155176 2.16659e-06 -7.97772e-07
2.16659e-06 0.000230385 3.801e-06
-7.97772e-07 3.801e-06 0.000237999
0.00105908 7.23128e-07 2.01915e-07
7.23128e-07 1.98934e-07 -1.59622e-06
2.01915e-07 -1.59622e-06 -1.94638e-05
0.00127805 1.02742e-06 -8.02502e-08
1.02742e-06 9.71164e-05 5.40296e-07
-8.02502e-08 5.40296e-07 0.000103797
0.00118768 1.09662e-06 -3.74951e-07
1.09662e-06 4.8683e-05 3.41204e-06
-3.74951e-07 3.41204e-06 6.99657e-05
0.00100667 -1.8375e-07 6.93917e-08
-1.8375e-07 -3.42517e-05 -2.74689e-06
6.93917e-08 -2.74689e-06 -2.85907e-05
0.00222843 -2.37449e-07 1.55461e-07
-2.37449e-07 0.000552071 8.09572e-14
1.55461e-07 8.09572e-14 0.000578284
0.00118029 -1.53607e-06 -2.56659e-07
-1.53607e-06 4.60145e-05 -3.42112e-06
-2.56659e-07 -3.42112e-06 6.73571e-05
0.00110698 -1.17285e-06 -4.6163e-08
-1.17285e-06 2.75899e-05 -5.79814e-07
-4.6163e-08 -5.79814e-07 -4.29028e-06
0.00105426 9.24637e-08 2.84416e-08
9.24637e-08 -2.898e-06 -1.67767e-06
2.84416e-08 -1.67767e-06 -1.91459e-05
0.00105746 9.46355e-07 -1.08003e-07
9.46355e-07 -8.12744e-07 -1.51462e-09
-1.08003e-07 -1.51462e-09 -1.77227e-05
0.000998708 1.22907e-06 1.70242e-07
1.22907e-06 -3.72636e-05 -2.78615e-06
1.70242e-07 -2.78615e-06 -3.00264e-05
0.00105953 1.57439e-06 -3.23623e-07
1.57439e-06 1.39634e-06 1.66203e-06
-3.23623e-07 1.66203e-06 -1.6482e-05
0.000995176 2.31726e-06 4.33546e-08
2.31726e-06 -3.79792e-05 -5.50091e-07
4.33546e-08 -5.50091e-07 -3.13181e-05
0.00219982 2.84376e-06 9.32627e-07
2.84376e-06 0.000539478 -3.51363e-06
9.32627e-07 -3.51363e-06 0.000565938
0.00148924 3.50301e-06 -7.10802e-07
3.50301e-06 0.000202458 1.65758e-06
-7.10802e-07 1.65758e-06 0.000210814
0.00170795 4.23113e-06 -2.22581e-07
4.23113e-06 0.000303959 1.03849e-06
-2.22581e-07 1.03849e-06 0.000327438
0.00120201 5.5234e-06 -2.571e-06
5.5234e-06 6.24386e-05 5.48387e-06
-2.571e-06 5.48387e-06 8.29729e-05
0.000576767 -1.69061e-05 1.11975e-06
-1.69061e-05 -0.000211519 1.24832e-06
1.11975e-06 1.24832e-06 -0.000231171
0.000821116 -3.36255e-06 4.59824e-07
-3.36255e-06 -4.58618e-05 -6.68532e-07
4.59824e-07 -6.68532e-07 -0.000109189
0.00105831 -7.83948e-06 6.55831e-07
-7.83948e-06 9.48626e-05 -3.4508e-06
6.55831e-07 -3.4508e-06 4.83527e-05
0.000940404 -6.52619e-06 1.11949e-05
-6.52619e-06 -0.000168552 2.15515e-06
1.11949e-05 2.15515e-06 -0.000214418
0.000667416 -2.89166e-06 -7.2126e-07
-2.89166e-06 -2.75909e-06 8.37555e-07
-7.2126e-07 8.37555e-07 -4.17051e-05
0.000882518 8.79899e-06 -4.17324e-07
8.79899e-06 -1.23916e-05 -2.57552e-07
-4.17324e-07 -2.57552e-07 -8.52219e-05
0.0011261 1.89817e-05 -2.10648e-06
1.89817e-05 0.000155917 3.60442e-06
-2.10648e-06 3.60442e-06 7.49346e-05
0.00100259 -6.26251e-06 2.67296e-05
-6.26251e-06 -0.000132655 2.92879e-06
2.67296e-05 2.92879e-06 -0.000207758
0.00436488 1.11869e-05 -6.97178e-05
1.11869e-05 0.000935342 3.0186e-05
-6.97178e-05 3.0186e-05 0.000808565
0.00183667 6.39978e-05 -1.27953e-05
6.39978e-05 0.000947061 8.02818e-06
-1.27953e-05 8.02818e-06 0.000943603
0.000328309 3.57421e-05 5.58165e-06
3.57421e-05 -5.76749e-06 -4.32967e-06
5.58165e-06 -4.32967e-06 6.28642e-05
0.000966609 3.3951e-07 8.73228e-08
3.3951e-07 -3.46965e-05 -9.11038e-07
8.73228e-08 -9.11038e-07 -7.77948e-05
0.00109946 1.36382e-08 1.39387e-07
1.36382e-08 2.40107e-05 6.80358e-09
1.39387e-07 6.80358e-09 -7.77069e-06
0.00109884 8.99151e-07 -1.6672e-07
8.99151e-07 2.40247e-05 1.03983e-06
-1.6672e-07 1.03983e-06 -8.80259e-06
0.00106571 2.90789e-06 8.39723e-08
2.90789e-06 1.22175e-05 6.35862e-09
8.39723e-08 6.35862e-09 -3.17312e-05
0.00118606 6.16234e-06 4.28467e-09
6.16234e-06 7.5658e-05 2.18074e-07
4.28467e-09 2.18074e-07 2.47885e-05
0.0011637 5.72138e-07 1.75533e-08
5.72138e-07 6.16956e-05 1.02566e-07
1.75533e-08 1.02566e-07 1.34034e-05
0.0011512 -2.49546e-07 4.99763e-08
-2.49546e-07 5.57012e-05 -1.06713e-06
4.99763e-08 -1.06713e-06 1.29443e-05
0.00106312 -2.28906e-06 1.05704e-07
-2.28906e-06 1.20434e-05 3.71364e-07
1.05704e-07 3.71364e-07 -2.98754e-05
0.00123355 1.33558e-05 1.15195e-06
1.33558e-05 9.93099e-05 8.83905e-07
1.15195e-06 8.83905e-07 2.50525e-05
0.00133282 3.63264e-06 2.85797e-06
3.63264e-06 0.00010383 7.43247e-07
2.85797e-06 7.43247e-07 5.92802e-05
0.0012014 -8.365e-06 -2.30999e-07
-8.365e-06 9.37999e-06 -1.94421e-06
-2.30999e-07 -1.94421e-06 -3.22731e-05
0.00119898 -1.02902e-05 4.67061e-07
-1.02902e-05 7.99911e-05 -2.2283e-07
4.67061e-07 -2.2283e-07 1.64041e-05
0.00110627 -1.06191e-05 3.38319e-07
-1.06191e-05 1.82473e-05 -4.55053e-07
3.38319e-07 -4.55053e-07 -4.1449e-05
0.00117078 -1.00102e-05 -3.96619e-07
-1.00102e-05 6.73984e-05 -4.46014e-07
-3.96619e-07 -4.46014e-07 2.10877e-06
0.00121946 -8.25115e-06 -1.70226e-08
-8.25115e-06 9.27707e-05 -2.25559e-07
-1.70226e-08 -2.25559e-07 2.65056e-05
0.0011411 -7.48574e-06 -5.33209e-07
-7.48574e-06 5.03812e-05 6.97788e-07
-5.33209e-07 6.97788e-07 -9.21116e-06
0.00113489 -2.79252e-06 -2.85256e-07
-2.79252e-06 4.77385e-05 6.32887e-07
-2.85256e-07 6.32887e-07 8.20167e-07
0.00124568 -4.62203e-06 -2.03299e-07
-4.62203e-06 0.000107538 2.32537e-07
-2.03299e-07 2.32537e-07 5.01825e-05
0.00127559 2.70202e-06 -3.81144e-08
2.70202e-06 0.000114154 2.66817e-07
-3.81144e-08 2.66817e-07 6.98197e-05
0.00108703 -1.84453e-06 -5.23958e-08
-1.84453e-06 2.92335e-05 8.59152e-07
-5.23958e-08 8.59152e-07 -2.20489e-05
0.0013372 1.34279e-05 4.32384e-07
1.34279e-05 0.000141694 4.64335e-07
4.32384e-07 4.64335e-07 7.92142e-05
0.00111097 1.67829e-06 -2.15257e-07
1.67829e-06 4.2531e-05 1.42189e-07
-2.15257e-07 1.42189e-07 -1.28245e-05
0.00115285 -5.74216e-06 4.18319e-08
-5.74216e-06 6.15701e-05 -1.9827e-07
4.18319e-08 -1.9827e-07 5.17461e-06
0.0012825 -6.47687e-06 -1.23255e-06
-6.47687e-06 3.95499e-05 -8.49783e-07
-1.23255e-06 -8.49783e-07 8.8889e-06
0.00117128 -1.18337e-05 7.17e-07
-1.18337e-05 1.95344e-05 2.45105e-07
7.17e-07 2.45105e-07 -3.56654e-05
0.00117772 -1.241e-05 -2.95152e-07
-1.241e-05 6.5994e-05 -5.79412e-08
-2.95152e-07 -5.79412e-08 1.41725e-07
0.00114918 -7.31809e-06 -5.21914e-08
-7.31809e-06 6.11436e-05 -1.09915e-07
-5.21914e-08 -1.09915e-07 -4.73242e-06
0.00117574 -9.58798e-06 6.11886e-08
-9.58798e-06 7.28052e-05 1.52875e-07
6.11886e-08 1.52875e-07 2.08804e-06
0.00158742 -1.33747e-06 -1.802e-06
-1.33747e-06 0.00014273 -1.69509e-06
-1.802e-06 -1.69509e-06 0.000109437
0.00148437 -1.55479e-05 8.57847e-07
-1.55479e-05 0.000150085 2.5075e-06
8.57847e-07 2.5075e-06 0.00010168
0.000982521 -1.41181e-05 -3.49155e-07
-1.41181e-05 -4.16157e-05 4.65918e-07
-3.49155e-07 4.65918e-07 -0.000107855
0.00123137 -1.39995e-05 8.39561e-08
-1.39995e-05 9.39462e-05 4.4036e-07
8.39561e-08 4.4036e-07 1.98935e-05
0.00112912 -3.05289e-06 -6.1292e-08
-3.05289e-06 5.45709e-05 -5.771e-07
-6.1292e-08 -5.771e-07 -8.38405e-06
0.00114905 -6.53547e-06 3.24092e-08
-6.53547e-06 6.43255e-05 -4.60684e-07
3.24092e-08 -4.60684e-07 -2.57167e-07
0.00130992 -8.21783e-06 1.98187e-07
-8.21783e-06 0.000143629 -6.68368e-08
1.98187e-07 -6.68368e-08 7.00323e-05
-0.00332998 1.19458e-06 -6.40603e-05
1.19458e-06 -0.00104851 -2.25161e-06
-6.40603e-05 -2.25161e-06 -0.000885735
0.00602699 7.83136e-06 -9.44392e-06
7.83136e-06 0.00185804 4.06087e-06
-9.44392e-06 4.06087e-06 0.00180808
0.00118392 6.62802e-06 1.06001e-07
6.62802e-06 7.62807e-05 8.26835e-08
1.06001e-07 8.26835e-08 1.51398e-05
0.00111436 8.44764e-06 4.06229e-07
8.44764e-06 4.18807e-05 4.39071e-08
4.06229e-07 4.39071e-08 -2.30204e-05
0.00166594 8.06516e-06 -1.63595e-06
8.06516e-06 0.000163088 7.97949e-07
-1.63595e-06 7.97949e-07 0.000115618
0.00140119 1.62536e-05 -5.17531e-07
1.62536e-05 0.000110955 1.24089e-06
-5.17531e-07 1.24089e-06 4.20476e-05
0.00112526 1.19029e-05 -2.82607e-07
1.19029e-05 5.19841e-05 -2.97275e-07
-2.82607e-07 -2.97275e-07 -2.39413e-05
0.00552653 4.80189e-06 5.11001e-05
4.80189e-06 0.00131984 2.14387e-05
5.11001e-05 2.14387e-05 0.00119207
0.00127635 1.12344e-05 -1.87651e-05
1.12344e-05 2.42102e-05 -1.25978e-05
-1.87651e-05 -1.25978e-05 -2.66125e-05
0.00277972 2.49981e-05 3.02726e-06
2.49981e-05 0.000515469 6.07741e-06
3.02726e-06 6.07741e-06 0.000449038
0.00147776 -5.6846e-05 1.64238e-05
-5.6846e-05 0.000746998 8.21033e-06
1.64238e-05 8.21033e-06 0.000735767
0.000151563 -3.53086e-05 -1.24381e-05
-3.53086e-05 -0.00013496 -9.03601e-06
-1.24381e-05 -9.03601e-06 -5.69929e-05
0.00115604 6.8967e-06 5.68803e-08
6.8967e-06 6.64389e-05 -8.05639e-08
5.68803e-08 -8.05639e-08 3.66261e-06
-0.00278418 -8.45744e-06 -1.20375e-05
-8.45744e-06 -0.000790336 -1.34267e-06
-1.20375e-05 -1.34267e-06 -0.000680334
0.000652646 -2.50692e-05 -4.50538e-06
-2.50692e-05 0.000254041 -1.99116e-06
-4.50538e-06 -1.99116e-06 0.000297729
0.0014928 2.26544e-05 1.08893e-06
2.26544e-05 9.16308e-05 8.74021e-07
1.08893e-06 8.74021e-07 1.45786e-05
0.0011379 9.31464e-06 -1.4381e-07
9.31464e-06 6.87522e-05 -3.95638e-07
-1.4381e-07 -3.95638e-07 -1.6998e-06
0.00105254 1.51022e-05 1.20609e-08
1.51022e-05 2.97825e-05 3.25339e-08
1.20609e-08 3.25339e-08 -5.85541e-05
0.0017666 2.75402e-05 -5.21169e-06
2.75402e-05 0.000219722 -6.34435e-06
-5.21169e-06 -6.34435e-06 0.000113123
0.00236621 -7.32808e-06 7.07526e-06
-7.32808e-06 1.86015e-05 7.69959e-06
7.07526e-06 7.69959e-06 -0.000214279
0.00085419 3.15218e-05 -5.65304e-06
3.15218e-05 -0.000141364 -5.57306e-06
-5.65304e-06 -5.57306e-06 -0.000206033
0.00149104 -9.41078e-05 -1.18238e-06
-9.41078e-05 0.00037295 2.73855e-06
-1.18238e-06 2.73855e-06 0.000337055
-0.000785647 -2.23143e-05 9.57455e-07
-2.23143e-05 -0.000757158 -4.27217e-06
9.57455e-07 -4.27217e-06 -0.000702004
0.00117385 6.96186e-06 -2.83697e-07
6.96186e-06 8.33913e-05 -6.33672e-07
-2.83697e-07 -6.33672e-07 1.8794e-05
-6.44289e-05 -1.44741e-05 1.99563e-05
-1.44741e-05 -0.000147977 7.47121e-06
1.99563e-05 7.47121e-06 -0.000138969
0.000755548 -7.83738e-06 1.19489e-05
-7.83738e-06 0.000228058 1.45381e-05
1.19489e-05 1.45381e-05 0.000204397
0.00103415 1.99251e-05 2.65488e-06
1.99251e-05 2.40046e-05 2.93928e-06
2.65488e-06 2.93928e-06 -8.29785e-05
0.00123284 1.02003e-05 -2.25325e-06
1.02003e-05 0.000152673 -2.30164e-08
-2.25325e-06 -2.30164e-08 7.26382e-05
0.00226798 2.13663e-05 -3.84552e-06
2.13663e-05 0.000699285 -2.84412e-06
-3.84552e-06 -2.84412e-06 0.000600361
0.00089127 4.00342e-05 -3.35173e-06
4.00342e-05 6.53805e-05 -2.50555e-06
-3.35173e-06 -2.50555e-06 -3.79293e-05
0.00345727 -2.93075e-05 -2.37876e-05
-2.93075e-05 0.000495162 -1.54796e-05
-2.37876e-05 -1.54796e-05 0.000216393
0.00179208 -0.000122451 -5.08694e-06
-0.000122451 0.000246532 -1.78058e-05
-5.08694e-06 -1.78058e-05 0.000221884
-4.25288e-06 -1.1731e-06 4.73041e-06
-1.1731e-06 -0.00026534 1.85896e-06
4.73041e-06 1.85896e-06 -0.000278481
0.00116709 6.11366e-06 7.7058e-08
6.11366e-06 6.72812e-05 4.50137e-07
7.7058e-08 4.50137e-07 6.13096e-06
0.00116889 5.72816e-06 1.72134e-08
5.72816e-06 6.96344e-05 2.85772e-08
1.72134e-08 2.85772e-08 7.60257e-06
0.00112381 1.2506e-06 1.97518e-07
1.2506e-06 5.0128e-05 -1.85949e-07
1.97518e-07 -1.85949e-07 -1.35515e-05
0.000938708 9.01389e-07 1.04165e-07
9.01389e-07 -5.16329e-05 -5.49669e-07
1.04165e-07 -5.49669e-07 -8.88714e-05
0.00116763 -9.79723e-08 1.59146e-08
-9.79723e-08 6.26206e-05 -6.6252e-07
1.59146e-08 -6.6252e-07 1.58282e-05
0.00122843 -8.93367e-07 -2.4129e-08
-8.93367e-07 9.25287e-05 3.77301e-08
-2.4129e-08 3.77301e-08 4.00896e-05
0.00112273 5.52897e-06 -2.12788e-07
5.52897e-06 4.14948e-05 -6.13461e-07
-2.12788e-07 -6.13461e-07 -1.42898e-05
0.00116287 2.66452e-06 1.46749e-08
2.66452e-06 6.02275e-05 3.17627e-07
1.46749e-08 3.17627e-07 6.04754e-09
0.00116422 2.14127e-06 1.70898e-08
2.14127e-06 6.13708e-05 -3.4279e-07
1.70898e-08 -3.4279e-07 1.42921e-05
0.00114503 3.6359e-06 3.87648e-10
3.6359e-06 5.11378e-05 9.74563e-08
3.87648e-10 9.74563e-08 -6.65782e-06
0.00116264 1.46099e-06 -3.76467e-08
1.46099e-06 6.14411e-05 6.67327e-08
-3.76467e-08 6.67327e-08 6.86435e-06
0.00119789 -2.53977e-07 -5.25998e-08
-2.53977e-07 7.54579e-05 1.06431e-07
-5.25998e-08 1.06431e-07 1.42158e-05
0.00118827 -1.53675e-06 -1.76301e-07
-1.53675e-06 7.19751e-05 -3.08404e-07
-1.76301e-07 -3.08404e-07 9.97094e-06
0.00117063 8.57722e-07 6.26586e-08
8.57722e-07 6.28277e-05 -2.84844e-08
6.26586e-08 -2.84844e-08 3.23935e-06
0.0011689 2.52355e-06 -2.50369e-08
2.52355e-06 6.47371e-05 2.0013e-07
-2.50369e-08 2.0013e-07 9.93249e-06
0.00116589 2.05013e-06 1.7e-07
2.05013e-06 6.22351e-05 -5.26211e-07
1.7e-07 -5.26211e-07 1.55654e-05
0.00109644 -3.36814e-06 2.63292e-07
-3.36814e-06 2.98556e-05 -5.30452e-07
2.63292e-07 -5.30452e-07 -2.40319e-05
0.00116861 1.36379e-06 1.34373e-08
1.36379e-06 6.4704e-05 -6.35368e-08
1.34373e-08 -6.35368e-08 1.07145e-05
0.00114046 -3.33018e-06 -1.75225e-08
-3.33018e-06 5.23417e-05 2.29727e-08
-1.75225e-08 2.29727e-08 -1.63461e-06
0.0011367 -4.45815e-06 1.2727e-07
-4.45815e-06 5.19457e-05 -3.34668e-07
1.2727e-07 -3.34668e-07 -5.28218e-06
0.0011221 -2.35658e-06 -2.03023e-07
-2.35658e-06 4.55793e-05 4.22504e-07
-2.03023e-07 4.22504e-07 -9.47728e-06
0.00117526 -2.05396e-06 -1.93504e-07
-2.05396e-06 6.99523e-05 -2.10243e-07
-1.93504e-07 -2.10243e-07 1.11236e-05
0.0010739 -5.72446e-06 5.13147e-08
-5.72446e-06 2.23751e-05 -1.01735e-07
5.13147e-08 -1.01735e-07 -3.68648e-05
0.00114282 -5.74735e-06 -1.10568e-07
-5.74735e-06 5.15993e-05 -5.44978e-07
-1.10568e-07 -5.44978e-07 -6.96504e-06
0.00107644 -7.07477e-06 6.41592e-08
-7.07477e-06 2.46241e-05 -2.76353e-07
6.41592e-08 -2.76353e-07 -3.14843e-05
0.00106527 -5.50033e-06 -3.4408e-07
-5.50033e-06 1.60212e-05 -3.10205e-07
-3.4408e-07 -3.10205e-07 -3.84153e-05
0.00112759 -3.91778e-06 -1.6958e-07
-3.91778e-06 4.69734e-05 2.06383e-07
-1.6958e-07 2.06383e-07 -8.27968e-06
0.00111121 -1.71559e-06 -5.47397e-07
-1.71559e-06 3.78102e-05 6.8454e-07
-5.47397e-07 6.8454e-07 -9.95624e-06
0.00111376 -1.95183e-06 1.38363e-08
-1.95183e-06 3.85431e-05 -1.96003e-08
1.38363e-08 -1.96003e-08 -8.86682e-06
0.00108334 1.51309e-06 -5.284e-07
1.51309e-06 2.03787e-05 8.05498e-07
-5.284e-07 8.05498e-07 -1.59404e-05
0.00112198 -2.57003e-06 2.49223e-07
-2.57003e-06 4.17716e-05 -4.18987e-07
2.49223e-07 -4.18987e-07 -4.96462e-06
0.00109049 1.13914e-06 2.10758e-08
1.13914e-06 2.29373e-05 -1.83155e-10
2.10758e-08 -1.83155e-10 -1.32383e-05
0.00104778 2.43112e-06 -6.94284e-07
2.43112e-06 -2.1795e-06 1.49402e-06
-6.94284e-07 1.49402e-06 -2.22804e-05
0.000945614 1.0311e-06 3.85227e-07
1.0311e-06 -4.7444e-05 -8.30635e-07
3.85227e-07 -8.30635e-07 -8.44589e-05
0.00105521 1.95462e-06 5.27172e-08
1.95462e-06 1.01277e-07 4.78985e-09
5.27172e-08 4.78985e-09 -1.99258e-05
0.00155101 3.25625e-06 -1.2523e-06
3.25625e-06 0.000231648 3.762e-06
-1.2523e-06 3.762e-06 0.000238966
0.00105802 1.42796e-06 3.90137e-07
1.42796e-06 3.52391e-07 -1.56808e-06
3.90137e-07 -1.56808e-06 -1.9497e-05
0.00127511 2.19667e-06 -1.5483e-07
2.19667e-06 9.66862e-05 5.42039e-07
-1.5483e-07 5.42039e-07 0.000103116
0.00114239 2.62567e-06 -3.5201e-07
2.62567e-06 2.77962e-05 1.32406e-06
-3.5201e-07 1.32406e-06 4.9075e-05
0.00100713 1.00609e-06 3.233e-07
1.00609e-06 -3.3951e-05 -2.73325e-06
3.233e-07 -2.73325e-06 -2.84426e-05
0.00223668 1.21096e-06 1.52863e-07
1.21096e-06 0.000556055 2.90792e-09
1.52863e-07 2.90792e-09 0.000582201
0.00222568 -1.7294e-07 2.06679e-07
-1.7294e-07 0.000550747 -3.50996e-06
2.06679e-07 -3.50996e-06 0.000576966
0.0013142 -1.02443e-06 -1.30633e-07
-1.02443e-06 0.000128915 -7.47315e-07
-1.30633e-07 -7.47315e-07 9.75074e-05
0.00106221 -7.69622e-07 -2.07678e-07
-7.69622e-07 1.08664e-06 -1.68988e-06
-2.07678e-07 -1.68988e-06 -1.53294e-05
0.00109861 -1.18354e-06 -7.02862e-08
-1.18354e-06 2.3573e-05 3.41121e-07
-7.02862e-08 3.41121e-07 -8.28744e-06
0.00100188 5.09341e-08 -2.76888e-08
5.09341e-08 -3.60997e-05 -2.79052e-06
-2.76888e-08 -2.79052e-06 -2.85834e-05
0.00105771 9.08466e-08 4.45344e-08
9.08466e-08 -1.2146e-06 6.08563e-09
4.45344e-08 6.08563e-09 -1.7494e-05
0.00106234 9.34657e-07 -2.29418e-07
9.34657e-07 1.54536e-06 1.67969e-06
-2.29418e-07 1.67969e-06 -1.54065e-05
0.00100345 1.22295e-06 -7.9299e-08
1.22295e-06 -3.494e-05 3.27564e-09
-7.9299e-08 3.27564e-09 -2.77522e-05
0.00218154 1.42889e-06 3.65827e-07
1.42889e-06 0.000529619 -3.51596e-06
3.65827e-07 -3.51596e-06 0.000556416
0.00149393 2.39307e-06 -4.45209e-07
2.39307e-06 0.000203161 1.71761e-06
-4.45209e-07 1.71761e-06 0.000212138
0.00168559 2.8625e-06 9.76274e-08
2.8625e-06 0.000291103 2.67671e-09
9.76274e-08 2.67671e-09 0.000315196
0.00122615 4.13045e-06 -2.02794e-06
4.13045e-06 7.10534e-05 5.5977e-06
-2.02794e-06 5.5977e-06 9.20363e-05
-0.00526868 3.15312e-05 -3.08076e-05
3.15312e-05 -0.00222489 1.44495e-05
-3.08076e-05 1.44495e-05 -0.00210089
-0.00172965 3.15783e-05 1.57695e-05
3.15783e-05 -0.0012135 -7.33804e-06
1.57695e-05 -7.33804e-06 -0.0011833
0.00112474 4.03166e-08 -2.08061e-05
4.03166e-08 6.4457e-05 -4.79918e-06
-2.08061e-05 -4.79918e-06 2.08046e-05
0.000420792 -3.38332e-06 1.30601e-06
-3.38332e-06 -0.00011146 -8.39395e-07
1.30601e-06 -8.39395e-07 -0.000150912
0.000927899 8.51906e-06 -7.33587e-07
8.51906e-06 -5.46776e-06 -2.30393e-06
-7.33587e-07 -2.30393e-06 -8.07441e-05
0.00124888 1.41108e-06 4.96162e-06
1.41108e-06 0.000249573 -1.95481e-07
4.96162e-06 -1.95481e-07 0.000200567
0.00115671 1.90468e-05 7.03812e-08
1.90468e-05 0.000147851 1.81154e-06
7.03812e-08 1.81154e-06 6.92933e-05
0.00278888 4.06866e-06 -2.21795e-05
4.06866e-06 0.000454673 9.98662e-06
-2.21795e-05 9.98662e-06 0.000388789
-0.00213698 4.41455e-05 1.6261e-05
4.41455e-05 -0.00070668 -7.01749e-06
1.6261e-05 -7.01749e-06 -0.000651132
0.000199589 3.59151e-05 -5.18207e-06
3.59151e-05 -9.11651e-05 4.23391e-06
-5.18207e-06 4.23391e-06 -2.02319e-05
0.0015595 -5.34026e-06 1.03563e-05
-5.34026e-06 0.00030726 -6.39305e-06
1.03563e-05 -6.39305e-06 0.000233522
0.00407719 2.53058e-05 -6.14262e-05
2.53058e-05 0.000973502 3.55905e-05
-6.14262e-05 3.55905e-05 0.000779982
-0.000659543 7.2447e-05 -2.53403e-05
7.2447e-05 -0.000135874 3.35557e-05
-2.53403e-05 3.35557e-05 -9.36849e-05
0.00119742 2.06005e-05 7.88015e-06
2.06005e-05 0.000474542 -5.93588e-06
7.88015e-06 -5.93588e-06 0.000523372
0.00105116 8.46225e-07 7.35691e-08
8.46225e-07 1.30242e-05 -8.0515e-07
7.35691e-08 -8.0515e-07 -4.02461e-05
0.00105232 3.01781e-07 -6.88185e-09
3.01781e-07 6.37848e-06 -3.28776e-07
-6.88185e-09 -3.28776e-07 -3.62911e-05
0.00109752 5.99444e-08 1.97057e-07
5.99444e-08 2.30927e-05 1.00254e-06
1.97057e-07 1.00254e-06 -8.71912e-06
0.00103709 2.5544e-06 -2.96254e-08
2.5544e-06 -1.40621e-06 4.63886e-07
-2.96254e-08 4.63886e-07 -4.55058e-05
0.00114647 5.93939e-06 1.23104e-07
5.93939e-06 5.64622e-05 6.36218e-07
1.23104e-07 6.36218e-07 6.62571e-06
0.00119656 1.45205e-06 8.20148e-08
1.45205e-06 7.97773e-05 -3.96433e-07
8.20148e-08 -3.96433e-07 2.90535e-05
0.00113532 -6.35061e-07 3.41713e-08
-6.35061e-07 4.80285e-05 7.6629e-07
3.41713e-08 7.6629e-07 2.99283e-07
0.0011441 4.29011e-08 -6.82522e-08
4.29011e-08 5.42083e-05 -2.18896e-07
-6.82522e-08 -2.18896e-07 8.86365e-06
0.00108406 -8.45716e-07 -3.42317e-08
-8.45716e-07 2.33511e-05 -3.80771e-07
-3.42317e-08 -3.80771e-07 -1.99626e-05
0.00103463 -3.08316e-06 -3.74186e-08
-3.08316e-06 -1.21218e-06 9.49144e-07
-3.74186e-08 9.49144e-07 -4.3688e-05
0.00142927 1.35496e-05 2.89908e-06
1.35496e-05 0.000183777 2.38005e-06
2.89908e-06 2.38005e-06 0.000121194
0.00122398 -6.42926e-06 -2.75644e-07
-6.42926e-06 1.44556e-05 -1.42329e-06
-2.75644e-07 -1.42329e-06 -1.66764e-05
0.00106929 -1.16346e-05 1.43892e-07
-1.16346e-05 -2.74841e-05 -1.29154e-06
1.43892e-07 -1.29154e-06 -8.17988e-05
0.00116048 -1.23778e-05 9.80765e-08
-1.23778e-05 5.54964e-05 -2.02123e-07
9.80765e-08 -2.02123e-07 -1.1127e-05
0.00114453 -9.52353e-06 -2.913e-07
-9.52353e-06 5.72692e-05 -3.27059e-07
-2.913e-07 -3.27059e-07 -1.30131e-05
0.00116011 -7.24618e-06 -1.44046e-07
-7.24618e-06 6.6818e-05 -2.77346e-08
-1.44046e-07 -2.77346e-08 1.14536e-06
0.00121316 -6.15465e-06 8.5409e-08
-6.15465e-06 9.1318e-05 1.6466e-08
8.5409e-08 1.6466e-08 3.52503e-05
0.00112637 9.99742e-07 -9.6452e-08
9.99742e-07 4.95257e-05 5.73453e-07
-9.6452e-08 5.73453e-07 -5.59044e-06
0.0015089 -1.62613e-06 -7.4026e-07
-1.62613e-06 0.000115149 -8.66235e-07
-7.4026e-07 -8.66235e-07 7.95861e-05
0.00110555 -1.17463e-06 2.87375e-08
-1.17463e-06 4.41689e-05 -1.86698e-07
2.87375e-08 -1.86698e-07 -1.9317e-05
0.00111246 -6.47328e-06 5.10428e-08
-6.47328e-06 4.68155e-05 -2.98026e-07
5.10428e-08 -2.98026e-07 -1.84078e-05
0.00125142 -1.45064e-05 2.87199e-07
-1.45064e-05 4.17441e-05 7.38747e-07
2.87199e-07 7.38747e-07 -3.57931e-06
0.00112409 -1.48224e-05 -4.67738e-07
-1.48224e-05 1.95606e-05 -2.53115e-07
-4.67738e-07 -2.53115e-07 -4.83071e-05
0.00118193 -1.37026e-05 -7.06608e-08
-1.37026e-05 7.09436e-05 -5.40924e-08
-7.06608e-08 -5.40924e-08 -3.17865e-06
0.00124208 -7.98844e-06 1.05993e-07
-7.98844e-06 0.000110393 -1.30782e-07
1.05993e-07 -1.30782e-07 3.64531e-05
0.00196611 -2.06178e-05 -3.5795e-08
-2.06178e-05 0.000230882 1.9627e-06
-3.5795e-08 1.9627e-06 0.000198605
0.00119668 -1.81944e-05 5.82916e-07
-1.81944e-05 7.33413e-05 1.05705e-06
5.82916e-07 1.05705e-06 -2.41841e-06
0.00121255 -1.03479e-05 2.69912e-07
-1.03479e-05 9.32718e-05 2.73362e-07
2.69912e-07 2.73362e-07 1.24732e-05
0.00109722 5.2758e-07 -6.38731e-08
5.2758e-07 3.97819e-05 3.39165e-07
-6.38731e-08 3.39165e-07 -2.36447e-05
0.00119052 -3.81613e-06 -9.40293e-08
-3.81613e-06 8.68778e-05 4.60204e-08
-9.40293e-08 4.60204e-08 1.86972e-05
0.0011974 -5.57651e-06 -1.78222e-07
-5.57651e-06 9.00947e-05 2.93115e-07
-1.78222e-07 2.93115e-07 1.82598e-05
0.000842204 -3.97716e-06 1.75794e-05
-3.97716e-06 0.000382844 6.62267e-07
1.75794e-05 6.62267e-07 0.000373996
0.00115548 3.45347e-06 1.48783e-06
3.45347e-06 0.000554458 -5.19057e-06
1.48783e-06 -5.19057e-06 0.000634576
-0.000898475 1.54005e-05 3.65331e-05
1.54005e-05 -0.00126455 7.46388e-06
3.65331e-05 7.46388e-06 -0.00127492
0.00112676 6.7621e-06 3.32811e-07
6.7621e-06 5.26417e-05 3.1033e-07
3.32811e-07 3.1033e-07 -1.00613e-05
0.00105396 8.91709e-06 7.06992e-07
8.91709e-06 2.9239e-05 -4.08051e-07
7.06992e-07 -4.08051e-07 -4.06053e-05
0.00181432 2.27398e-05 -1.32813e-06
2.27398e-05 0.000237466 7.91812e-07
-1.32813e-06 7.91812e-07 0.000161022
0.000827087 1.45541e-05 1.04559e-06
1.45541e-05 -7.1822e-05 2.87394e-07
1.04559e-06 2.87394e-07 -0.000158579
0.00186474 -2.84627e-05 2.07689e-05
-2.84627e-05 0.000965386 5.05313e-06
2.07689e-05 5.05313e-06 0.0010365
0.000274151 -1.60021e-05 8.62828e-05
-1.60021e-05 -0.000518893 5.28384e-05
8.62828e-05 5.28384e-05 -0.000645243
0.00149995 3.6704e-05 -4.29143e-05
3.6704e-05 -0.00015493 -3.53995e-05
-4.29143e-05 -3.53995e-05 -0.000268293
0.00189614 2.8783e-05 5.50288e-07
2.8783e-05 0.000285058 5.04857e-07
5.50288e-07 5.04857e-07 0.000177592
-0.00222488 -7.47694e-05 2.58968e-05
-7.47694e-05 -0.00111375 3.45381e-05
2.58968e-05 3.45381e-05 -0.00107354
0.00171272 -2.23512e-05 -1.6562e-05
-2.23512e-05 0.000904585 -9.80666e-06
-1.6562e-05 -9.80666e-06 0.000946663
0.000343531 -2.80561e-05 -1.6436e-05
-2.80561e-05 -6.2191e-05 -1.44037e-05
-1.6436e-05 -1.44037e-05 -1.12146e-05
0.00115077 6.86391e-06 1.12897e-07
6.86391e-06 7.33684e-05 -1.66046e-07
1.12897e-07 -1.66046e-07 8.77147e-06
0.000605296 -1.38134e-05 7.32221e-06
-1.38134e-05 0.000254143 1.79545e-06
7.32221e-06 1.79545e-06 0.000260213
0.000489565 -8.6034e-06 2.32465e-06
-8.6034e-06 6.8303e-05 2.95399e-06
2.32465e-06 2.95399e-06 4.57995e-05
0.00100594 2.13415e-05 1.42649e-06
2.13415e-05 3.39632e-06 1.65459e-06
1.42649e-06 1.65459e-06 -0.000103066
0.00107436 9.45014e-06 -9.73489e-08
9.45014e-06 7.77847e-05 2.46651e-07
-9.73489e-08 2.46651e-07 -2.07343e-06
0.00183593 1.96006e-05 3.54884e-06
1.96006e-05 0.000437381 2.0412e-06
3.54884e-06 2.0412e-06 0.000323122
0.00110697 4.60177e-05 -5.41413e-06
4.60177e-05 -9.40856e-05 -1.90576e-05
-5.41413e-06 -1.90576e-05 -0.000277288
0.00505175 -6.55151e-05 8.78947e-06
-6.55151e-05 0.00119768 2.81623e-06
8.78947e-06 2.81623e-06 0.000914543
-0.000476359 -9.42656e-05 3.27629e-06
-9.42656e-05 -0.000474942 1.18431e-05
3.27629e-06 1.18431e-05 -0.00045981
0.000424825 -3.71244e-06 -1.83434e-06
-3.71244e-06 -1.62546e-05 -6.54543e-07
-1.83434e-06 -6.54543e-07 -2.13132e-05
0.00100721 4.51852e-06 4.74924e-08
4.51852e-06 2.76555e-05 -2.19574e-07
4.74924e-08 -2.19574e-07 -4.14998e-05
0.0017093 -3.43026e-06 1.28052e-05
-3.43026e-06 0.000828782 6.47632e-06
1.28052e-05 6.47632e-06 0.000772469
0.000767211 7.35703e-06 7.105e-06
7.35703e-06 0.000176128 3.68042e-06
7.105e-06 3.68042e-06 0.000122295
0.000750682 5.56691e-06 -5.02091e-07
5.56691e-06 -1.08249e-06 2.24647e-06
-5.02091e-07 2.24647e-06 -8.72748e-05
-0.000357806 2.86347e-05 7.31461e-06
2.86347e-05 -0.000343767 1.44764e-05
7.31461e-06 1.44764e-05 -0.000474788
0.00584104 -8.65941e-05 -3.22881e-05
-8.65941e-05 0.00141691 -4.0645e-05
-3.22881e-05 -4.0645e-05 0.00113595
-0.000649763 -6.40311e-05 2.26697e-07
-6.40311e-05 -0.00120344 -2.96235e-05
2.26697e-07 -2.96235e-05 -0.00101151
0.000285743 5.48414e-06 -1.94277e-06
5.48414e-06 -8.80709e-05 1.13414e-06
-1.94277e-06 1.13414e-06 -0.000109186
0.00116686 6.06798e-06 -1.26602e-08
6.06798e-06 6.85038e-05 4.82439e-07
-1.26602e-08 4.82439e-07 6.4624e-06
0.00118916 1.56123e-06 -5.54215e-08
1.56123e-06 8.07936e-05 2.40774e-07
-5.54215e-08 2.40774e-07 1.71564e-05
0.00112616 -3.54378e-06 -2.52762e-07
-3.54378e-06 4.675e-05 -2.8091e-07
-2.52762e-07 -2.8091e-07 -1.90267e-05
0.00116239 3.21936e-06 5.73566e-08
3.21936e-06 6.05091e-05 -7.94643e-07
5.73566e-08 -7.94643e-07 1.34213e-05
0.00116462 2.34681e-06 -6.69482e-09
2.34681e-06 6.2474e-05 -7.19506e-08
-6.69482e-09 -7.19506e-08 7.89994e-06
0.00117831 3.14511e-06 -6.07562e-08
3.14511e-06 6.74344e-05 7.39541e-08
-6.07562e-08 7.39541e-08 1.00649e-05
0.00122136 -3.72522e-07 2.96206e-09
-3.72522e-07 8.66409e-05 3.40536e-07
2.96206e-09 3.40536e-07 2.51844e-05
0.00117039 3.32309e-06 -1.04051e-09
3.32309e-06 6.53471e-05 4.52311e-09
-1.04051e-09 4.52311e-09 1.05371e-05
0.0011876 2.09883e-06 1.88754e-08
2.09883e-06 7.10153e-05 1.54842e-07
1.88754e-08 1.54842e-07 1.132e-05
0.00118659 -1.76272e-06 -7.39629e-08
-1.76272e-06 7.10444e-05 -2.11786e-08
-7.39629e-08 -2.11786e-08 9.05696e-06
0.00116082 -2.84572e-06 -3.37135e-07
-2.84572e-06 6.50777e-05 -4.75942e-07
-3.37135e-07 -4.75942e-07 3.36321e-06
0.0011572 9.26304e-07 1.66853e-07
9.26304e-07 5.59221e-05 -3.53553e-07
1.66853e-07 -3.53553e-07 -6.54317e-06
0.00120527 2.55141e-06 -3.26633e-08
2.55141e-06 8.20513e-05 -4.83968e-08
-3.26633e-08 -4.83968e-08 2.22344e-05
0.00117248 1.99772e-06 8.83722e-08
1.99772e-06 6.62896e-05 -3.00103e-07
8.83722e-08 -3.00103e-07 1.22699e-05
0.00114336 -3.41464e-06 1.91121e-07
-3.41464e-06 5.3614e-05 -2.32118e-07
1.91121e-07 -2.32118e-07 -4.03356e-07
0.00111679 -5.58189e-06 2.06637e-07
-5.58189e-06 4.24528e-05 -4.53937e-07
2.06637e-07 -4.53937e-07 -1.45118e-05
0.00118918 -2.03969e-06 6.93855e-08
-2.03969e-06 7.61293e-05 -1.30208e-07
6.93855e-08 -1.30208e-07 1.76122e-05
0.00112961 -1.92665e-06 -4.79556e-08
-1.92665e-06 4.91708e-05 1.46069e-07
-4.79556e-08 1.46069e-07 -5.87907e-06
0.00110095 -5.74462e-06 2.38485e-08
-5.74462e-06 3.50788e-05 -1.39294e-07
2.38485e-08 -1.39294e-07 -2.39736e-05
0.00112923 -5.21039e-06 -3.42646e-07
-5.21039e-06 4.79201e-05 -1.54649e-07
-3.42646e-07 -1.54649e-07 -1.21568e-05
0.00114175 -6.12376e-06 7.45725e-08
-6.12376e-06 5.80616e-05 -2.23648e-07
7.45725e-08 -2.23648e-07 -3.75477e-06
0.00116355 -7.54629e-06 1.00492e-07
-7.54629e-06 6.22393e-05 -4.51456e-07
1.00492e-07 -4.51456e-07 1.04433e-06
0.00114841 -5.66374e-06 -1.6453e-07
-5.66374e-06 5.41346e-05 -4.46178e-08
-1.6453e-07 -4.46178e-08 -4.50587e-06
0.00109891 -7.62492e-06 -3.22132e-08
-7.62492e-06 3.2132e-05 1.21498e-08
-3.22132e-08 1.21498e-08 -2.61841e-05
0.00114037 -8.04177e-06 -2.32747e-07
-8.04177e-06 5.30328e-05 6.15284e-07
-2.32747e-07 6.15284e-07 -5.07031e-06
0.0012143 -5.43343e-06 -1.72066e-07
-5.43343e-06 8.78052e-05 -3.97932e-07
-1.72066e-07 -3.97932e-07 3.65562e-05
0.00109416 -7.23088e-06 2.08707e-07
-7.23088e-06 3.29601e-05 -5.30239e-07
2.08707e-07 -5.30239e-07 -2.24282e-05
0.00113706 -5.56915e-06 1.72035e-07
-5.56915e-06 5.05625e-05 -1.78787e-07
1.72035e-07 -1.78787e-07 -3.3901e-06
0.00102353 -1.38233e-06 -5.48421e-07
-1.38233e-06 -4.40621e-06 3.10742e-07
-5.48421e-07 3.10742e-07 -5.22619e-05
0.00113521 -3.55069e-06 7.79619e-08
-3.55069e-06 5.04398e-05 2.04273e-07
7.79619e-08 2.04273e-07 -4.7883e-06
0.00111245 -1.8394e-06 -9.09697e-08
-1.8394e-06 3.83754e-05 2.61575e-07
-9.09697e-08 2.61575e-07 -9.38083e-06
0.00108534 2.26439e-06 -6.55607e-07
2.26439e-06 2.28181e-05 8.09817e-07
-6.55607e-07 8.09817e-07 -1.37466e-05
0.00112322 -2.16489e-06 2.91468e-07
-2.16489e-06 4.30954e-05 -4.66061e-07
2.91468e-07 -4.66061e-07 -4.38251e-06
0.00108837 1.54687e-06 3.18463e-08
1.54687e-06 2.2815e-05 -3.04795e-09
3.18463e-08 -3.04795e-09 -1.35555e-05
0.00104398 2.99631e-06 -8.81481e-07
2.99631e-06 -2.42248e-06 1.43912e-06
-8.81481e-07 1.43912e-06 -2.25417e-05
0.00109209 1.16355e-06 4.80989e-07
1.16355e-06 2.36783e-05 -8.24044e-07
4.80989e-07 -8.24044e-07 -1.25179e-05
0.00105216 2.42632e-06 5.03642e-08
2.42632e-06 -1.22878e-07 8.04413e-09
5.03642e-08 8.04413e-09 -2.02394e-05
0.00154915 4.3092e-06 -1.69519e-06
4.3092e-06 0.000232867 3.68958e-06
-1.69519e-06 3.68958e-06 0.00023992
0.00105697 1.95064e-06 5.93475e-07
1.95064e-06 9.08504e-07 -1.52664e-06
5.93475e-07 -1.52664e-06 -1.91144e-05
0.0012719 3.28013e-06 -2.25029e-07
3.28013e-06 9.67982e-05 5.45759e-07
-2.25029e-07 5.45759e-07 0.00010295
0.00114277 4.01345e-06 -5.39354e-07
4.01345e-06 2.97968e-05 1.30415e-06
-5.39354e-07 1.30415e-06 5.07659e-05
0.00100546 2.14585e-06 6.01605e-07
2.14585e-06 -3.38236e-05 -2.70953e-06
6.01605e-07 -2.70953e-06 -2.8564e-05
0.00169702 2.65782e-06 4.1855e-07
2.65782e-06 0.000295937 -1.07875e-06
4.1855e-07 -1.07875e-06 0.000319549
0.00222975 1.31001e-06 7.05712e-07
1.31001e-06 0.00055293 -3.50551e-06
7.05712e-07 -3.50551e-06 0.000579065
0.00115653 -1.7044e-06 -1.91397e-07
-1.7044e-06 5.58869e-05 -7.58874e-07
-1.91397e-07 -7.58874e-07 2.20718e-05
0.00106201 -1.30102e-06 -3.82801e-07
-1.30102e-06 1.82087e-06 -1.66505e-06
-3.82801e-07 -1.66505e-06 -1.50757e-05
0.00112535 -1.12881e-06 6.23532e-08
-1.12881e-06 3.82034e-05 1.87229e-07
6.23532e-08 1.87229e-07 5.72445e-06
0.00100625 -1.08347e-06 -3.39375e-07
-1.08347e-06 -3.3733e-05 -2.7817e-06
-3.39375e-07 -2.7817e-06 -2.63576e-05
0.00105753 -7.73759e-07 -8.60511e-08
-7.73759e-07 -1.18509e-06 2.60424e-10
-8.60511e-08 2.60424e-10 -1.75589e-05
0.00109072 -1.20326e-06 -9.09216e-08
-1.20326e-06 1.97931e-05 1.34695e-06
-9.09216e-08 1.34695e-06 -1.20508e-05
0.00217264 -1.22615e-08 -1.30295e-07
-1.22615e-08 0.00052503 -3.52979e-06
-1.30295e-07 -3.52979e-06 0.000551945
0.00100312 5.18286e-08 -3.09907e-08
5.18286e-08 -3.54828e-05 1.39641e-10
-3.09907e-08 1.39641e-10 -2.79837e-05
0.00106064 8.96923e-08 6.4091e-08
8.96923e-08 2.18241e-07 1.68779e-06
6.4091e-08 1.68779e-06 -1.60903e-05
0.00100816 1.21732e-06 -3.33707e-07
1.21732e-06 -3.2636e-05 2.7863e-06
-3.33707e-07 2.7863e-06 -2.54963e-05
0.00217916 1.47191e-06 -1.76983e-07
1.47191e-06 0.000528598 -3.70644e-09
-1.76983e-07 -3.70644e-09 0.000555363
0.00219477 2.87141e-06 -1.21289e-06
2.87141e-06 0.000537257 3.50742e-06
-1.21289e-06 3.50742e-06 0.000563685
-0.00160078 1.93067e-05 1.48308e-05
1.93067e-05 -0.00111279 -4.21943e-06
1.48308e-05 -4.21943e-06 -0.00111568
-0.00159846 2.24962e-05 2.63704e-05
2.24962e-05 -0.000480105 -6.84973e-06
2.63704e-05 -6.84973e-06 -0.000393394
0.000349964 8.03243e-06 1.80091e-05
8.03243e-06 -2.0344e-05 -8.55488e-06
1.80091e-05 -8.55488e-06 -3.9847e-05
-0.00102284 3.30443e-05 -2.6641e-06
3.30443e-05 -0.000784471 5.02426e-07
-2.6641e-06 5.02426e-07 -0.00074959
-0.000133306 5.91816e-06 -1.59315e-05
5.91816e-06 -0.000632477 -3.50045e-06
-1.59315e-05 -3.50045e-06 -0.000699659
0.00112111 1.88823e-05 2.26676e-06
1.88823e-05 0.000111416 2.06311e-07
2.26676e-06 2.06311e-07 3.52198e-05
0.0008992 -3.28801e-06 1.52314e-05
-3.28801e-06 -7.67732e-05 -2.65192e-06
1.52314e-05 -2.65192e-06 -0.000116552
0.00147963 5.33805e-05 6.86422e-05
5.33805e-05 0.000734482 -3.42107e-05
6.86422e-05 -3.42107e-05 0.000726642
0.000153721 3.55957e-05 -1.40265e-05
3.55957e-05 -0.000121827 8.84015e-06
-1.40265e-05 8.84015e-06 -4.91596e-05
0.00115134 3.72106e-07 8.32641e-09
3.72106e-07 1.25028e-05 1.21812e-07
8.32641e-09 1.21812e-07 -6.01821e-05
0.00106097 4.61539e-06 -4.64299e-06
4.61539e-06 -0.000361534 3.44181e-06
-4.64299e-06 3.44181e-06 -0.000554109
0.00162073 9.47257e-05 8.76455e-07
9.47257e-05 0.000463806 2.71929e-06
8.76455e-07 2.71929e-06 0.000433178
0.000493096 1.55949e-05 -3.42728e-06
1.55949e-05 4.19789e-05 9.22613e-07
-3.42728e-06 9.22613e-07 0.000102725
0.000627436 -2.84866e-05 5.10101e-06
-2.84866e-05 -0.000202254 -5.62546e-06
5.10101e-06 -5.62546e-06 -0.000283915
0.00139533 3.92552e-05 -2.17202e-05
3.92552e-05 -0.00039178 2.45072e-05
-2.17202e-05 2.45072e-05 -0.000740707
1.96855e-05 9.12626e-05 -4.75207e-06
9.12626e-05 -0.000264436 4.07554e-05
-4.75207e-06 4.07554e-05 -0.000239497
8.90951e-05 3.76314e-07 9.84219e-06
3.76314e-07 -0.000194625 -7.93901e-07
9.84219e-06 -7.93901e-07 -0.000202045
0.00115586 -2.81766e-06 -2.42316e-08
-2.81766e-06 6.40959e-05 -4.60297e-07
-2.42316e-08 -4.60297e-07 5.90714e-06
0.00113116 1.58331e-06 -1.28856e-07
1.58331e-06 5.06075e-05 -1.63668e-07
-1.28856e-07 -1.63668e-07 -1.73335e-06
0.00113942 2.62591e-07 1.3041e-07
2.62591e-07 4.8138e-05 2.99907e-07
1.3041e-07 2.99907e-07 5.89028e-06
0.001109 5.73297e-06 -3.13785e-08
5.73297e-06 3.83077e-05 9.04262e-07
-3.13785e-08 9.04262e-07 -1.05046e-05
0.0011086 2.25073e-06 -9.08491e-08
2.25073e-06 3.80878e-05 -9.80128e-08
-9.08491e-08 -9.80128e-08 -1.60802e-05
0.0012184 1.28697e-06 9.32924e-09
1.28697e-06 8.94951e-05 2.78968e-07
9.32924e-09 2.78968e-07 3.92927e-05
0.00110831 -1.65103e-06 -1.07505e-07
-1.65103e-06 3.50117e-05 1.45748e-06
-1.07505e-07 1.45748e-06 -1.21575e-05
0.00124787 2.31099e-06 -2.15835e-07
2.31099e-06 0.000105057 -4.24004e-07
-2.15835e-07 -4.24004e-07 5.91317e-05
0.00120744 1.06869e-06 5.76084e-08
1.06869e-06 8.44235e-05 3.49244e-07
5.76084e-08 3.49244e-07 3.961e-05
0.0010171 -1.01035e-06 1.25365e-08
-1.01035e-06 -8.90188e-06 2.66941e-07
1.25365e-08 2.66941e-07 -5.27778e-05
0.00147148 -1.96172e-06 1.72053e-07
-1.96172e-06 0.000106914 4.38568e-07
1.72053e-07 4.38568e-07 6.90132e-05
0.00100975 -1.34139e-05 -4.43926e-07
-1.34139e-05 -7.06516e-05 -8.17821e-07
-4.43926e-07 -8.17821e-07 -0.000112904
0.00129875 -1.56379e-05 -4.35474e-07
-1.56379e-05 9.58809e-05 -1.72061e-07
-4.35474e-07 -1.72061e-07 2.63641e-05
0.00113774 -1.34308e-05 -7.18199e-07
-1.34308e-05 5.03153e-05 -2.68822e-07
-7.18199e-07 -2.68822e-07 -2.38657e-05
0.0011738 -7.75211e-06 1.39576e-07
-7.75211e-06 7.70137e-05 -2.51521e-07
1.39576e-07 -2.51521e-07 2.72371e-06
0.00107524 -6.41017e-06 7.07473e-08
-6.41017e-06 2.90328e-05 -2.73289e-07
7.07473e-08 -2.73289e-07 -3.68332e-05
0.00108271 2.93842e-07 -1.20715e-07
2.93842e-07 3.4115e-05 3.61884e-08
-1.20715e-07 3.61884e-08 -2.99036e-05
0.00111929 -2.73754e-06 9.26223e-08
-2.73754e-06 5.05664e-05 4.68217e-07
9.26223e-08 4.68217e-07 -1.30031e-05
0.0015315 -2.00149e-05 -6.60938e-08
-2.00149e-05 4.783e-05 -5.00276e-08
-6.60938e-08 -5.00276e-08 1.2682e-05
0.00118098 -2.01334e-06 6.60654e-08
-2.01334e-06 8.29226e-05 -1.56712e-07
6.60654e-08 -1.56712e-07 1.48872e-05
0.00125109 -6.36537e-06 -1.98275e-08
-6.36537e-06 0.000115912 1.72233e-08
-1.98275e-08 1.72233e-08 4.3548e-05
0.00120553 -1.76074e-05 3.13563e-07
-1.76074e-05 7.73197e-05 2.58147e-07
3.13563e-07 2.58147e-07 2.9528e-06
0.00120284 -9.71397e-06 2.73094e-07
-9.71397e-06 8.78256e-05 -3.23984e-07
2.73094e-07 -3.23984e-07 7.18642e-06
0.00204413 -2.81581e-05 -1.53165e-06
-2.81581e-05 0.000338863 4.87976e-06
-1.53165e-06 4.87976e-06 0.000277339
0.00107029 -9.45937e-06 -4.178e-07
-9.45937e-06 5.85742e-05 -2.38609e-07
-4.178e-07 -2.38609e-07 -2.91218e-05
0.00113996 -4.39339e-06 -9.36908e-07
-4.39339e-06 6.09389e-05 8.4099e-07
-9.36908e-07 8.4099e-07 -1.74087e-05
0.00114615 -1.08777e-07 -5.42043e-08
-1.08777e-07 6.41554e-05 1.83119e-07
-5.42043e-08 1.83119e-07 -2.67845e-06
0.00115241 -9.90363e-07 -2.44772e-08
-9.90363e-07 6.60576e-05 4.26001e-07
-2.44772e-08 4.26001e-07 -4.87623e-06
0.00141595 -1.56478e-06 6.22135e-06
-1.56478e-06 0.00064369 1.08783e-06
6.22135e-06 1.08783e-06 0.000568486
-0.000251653 -2.0246e-06 1.30554e-06
-2.0246e-06 -0.00027952 -3.19686e-07
1.30554e-06 -3.19686e-07 -0.000294438
-0.00551822 2.22913e-07 6.35683e-05
2.22913e-07 -0.00238111 1.00553e-06
6.35683e-05 1.00553e-06 -0.00222661
0.00112675 6.76552e-06 5.009e-07
6.76552e-06 6.3005e-05 2.98708e-07
5.009e-07 2.98708e-07 -1.60264e-06
0.000919407 8.7207e-06 9.10973e-07
8.7207e-06 4.52735e-06 -5.78137e-07
9.10973e-07 -5.78137e-07 -7.5154e-05
0.00096692 2.28609e-05 9.01394e-07
2.28609e-05 -2.23998e-05 -7.84455e-08
9.01394e-07 -7.84455e-08 -0.00012811
-0.00121708 -1.38722e-05 -8.71064e-06
-1.38722e-05 -0.000866287 -3.10966e-06
-8.71064e-06 -3.10966e-06 -0.000869352
0.000787409 -4.31767e-05 3.8075e-05
-4.31767e-05 -0.000747196 3.35316e-05
3.8075e-05 3.35316e-05 -0.00103465
0.00034774 3.77644e-05 -1.14669e-05
3.77644e-05 -0.000210417 -1.61517e-05
-1.14669e-05 -1.61517e-05 -0.000308136
0.0013273 1.77453e-05 1.44469e-05
1.77453e-05 0.00013714 1.9154e-06
1.44469e-05 1.9154e-06 7.3836e-06
0.00290925 -0.000112545 3.03992e-05
-0.000112545 0.000816244 5.12237e-05
3.03992e-05 5.12237e-05 0.000779588
0.000211653 -9.44365e-06 -1.55679e-05
-9.44365e-06 -9.76146e-05 -9.07191e-06
-1.55679e-05 -9.07191e-06 -0.000118798
1.44665e-06 -1.38302e-06 -8.43159e-06
-1.38302e-06 -0.000269494 -3.7067e-06
-8.43159e-06 -3.7067e-06 -0.000282911
0.0010699 5.61479e-06 5.37825e-07
5.61479e-06 5.69537e-05 -2.90554e-08
5.37825e-07 -2.90554e-08 -1.13507e-05
0.00118785 -2.72872e-06 2.09179e-06
-2.72872e-06 0.000502398 1.3619e-06
2.09179e-06 1.3619e-06 0.00043987
0.000571034 7.80933e-06 4.93497e-07
7.80933e-06 5.14851e-05 -7.29491e-07
4.93497e-07 -7.29491e-07 -3.04095e-06
0.000898342 7.07714e-06 1.59345e-06
7.07714e-06 5.73266e-05 3.7924e-07
1.59345e-06 3.7924e-07 -3.38275e-05
0.000966616 2.69742e-05 -2.51686e-06
2.69742e-05 0.000210342 -3.2936e-07
-2.51686e-06 -3.2936e-07 5.81721e-05
0.00338695 -5.77302e-05 1.47146e-06
-5.77302e-05 0.000259779 -3.40882e-07
1.47146e-06 -3.40882e-07 -3.15522e-05
0.000514392 6.39609e-06 -7.38714e-07
6.39609e-06 5.49506e-05 2.59195e-06
-7.38714e-07 2.59195e-06 2.90082e-05
0.00293294 -7.85826e-05 3.24524e-06
-7.85826e-05 0.000510009 1.78969e-06
3.24524e-06 1.78969e-06 0.000592604
0.000752139 -3.90167e-06 -6.31542e-07
-3.90167e-06 -8.89739e-05 -1.41547e-06
-6.31542e-07 -1.41547e-06 -0.000160492
0.000742493 6.80392e-06 3.09859e-06
6.80392e-06 0.00012131 2.45114e-06
3.09859e-06 2.45114e-06 3.73399e-05
0.00055451 6.78126e-06 -2.33983e-06
6.78126e-06 1.86069e-05 3.74249e-06
-2.33983e-06 3.74249e-06 -3.03676e-05
6.31145e-05 1.5409e-06 -1.01286e-05
1.5409e-06 -0.000223848 1.57149e-06
-1.01286e-05 1.57149e-06 -0.000218178
0.000462933 2.8848e-06 -4.39519e-06
2.8848e-06 -0.000114031 -1.4873e-06
-4.39519e-06 -1.4873e-06 -0.000204988
0.00507358 -2.09364e-05 -2.57695e-05
-2.09364e-05 0.00113152 -2.11754e-05
-2.57695e-05 -2.11754e-05 0.000827108
0.000749455 1.67972e-05 2.47696e-06
1.67972e-05 -0.000867333 -2.63759e-05
2.47696e-06 -2.63759e-05 -0.0005842
0.00125959 1.59884e-06 2.7252e-08
1.59884e-06 0.000113921 5.87138e-07
2.7252e-08 5.87138e-07 5.03108e-05
0.00115045 -4.01608e-06 -1.10685e-07
-4.01608e-06 5.96149e-05 -2.56374e-07
-1.10685e-07 -2.56374e-07 -6.11366e-06
0.00112995 -5.93787e-06 -1.06993e-06
-5.93787e-06 5.00418e-05 -3.56984e-07
-1.06993e-06 -3.56984e-07 -1.44488e-05
0.00117206 4.23649e-06 -1.38242e-08
4.23649e-06 6.6034e-05 -1.96378e-07
-1.38242e-08 -1.96378e-07 1.12189e-05
0.00120246 3.34778e-06 9.56633e-09
3.34778e-06 7.81931e-05 3.2355e-07
9.56633e-09 3.2355e-07 1.83958e-05
0.00120091 -2.09762e-06 8.46973e-08
-2.09762e-06 7.78571e-05 3.37918e-07
8.46973e-08 3.37918e-07 1.58357e-05
0.00121047 1.53398e-06 -1.04469e-08
1.53398e-06 8.43875e-05 -1.52596e-08
-1.04469e-08 -1.52596e-08 2.46876e-05
0.0011618 8.9363e-07 3.7427e-08
8.9363e-07 5.86615e-05 -1.32527e-09
3.7427e-08 -1.32527e-09 -3.99011e-06
0.0011766 -2.32172e-06 3.4967e-07
-2.32172e-06 7.12789e-05 2.61608e-07
3.4967e-07 2.61608e-07 9.51396e-06
0.00113568 7.85091e-07 1.04503e-07
7.85091e-07 5.78275e-05 -9.18144e-07
1.04503e-07 -9.18144e-07 -3.34406e-06
0.0011501 -2.786e-06 -1.67058e-07
-2.786e-06 5.98612e-05 -2.29846e-07
-1.67058e-07 -2.29846e-07 -3.55003e-06
0.0012049 -2.28573e-06 1.22298e-07
-2.28573e-06 8.31689e-05 -1.73915e-07
1.22298e-07 -1.73915e-07 2.49582e-05
0.00113542 -1.37043e-06 2.43947e-08
-1.37043e-06 5.19688e-05 1.53843e-08
2.43947e-08 1.53843e-08 -3.07192e-06
0.0011284 -5.76453e-06 5.28738e-08
-5.76453e-06 4.79408e-05 4.27748e-08
5.28738e-08 4.27748e-08 -1.09212e-05
0.00115264 -6.13818e-06 6.61672e-08
-6.13818e-06 6.2442e-05 -4.95259e-08
6.61672e-08 -4.95259e-08 7.43164e-07
0.00110024 -4.69706e-06 -1.29363e-07
-4.69706e-06 3.41977e-05 1.8922e-07
-1.29363e-07 1.8922e-07 -2.5834e-05
0.00117842 -7.34923e-06 -9.35641e-08
-7.34923e-06 7.7109e-05 6.22932e-08
-9.35641e-08 6.22932e-08 1.3506e-05
0.00114784 -7.50968e-06 1.04336e-07
-7.50968e-06 5.56245e-05 -3.15864e-07
1.04336e-07 -3.15864e-07 -4.49131e-06
0.00105972 -8.73514e-06 2.73404e-07
-8.73514e-06 1.49748e-05 4.99273e-08
2.73404e-07 4.99273e-08 -5.03113e-05
0.00115987 -5.53177e-06 1.73608e-07
-5.53177e-06 5.93114e-05 2.31855e-07
1.73608e-07 2.31855e-07 6.00339e-07
0.00117834 -7.83852e-06 6.62601e-08
-7.83852e-06 6.88971e-05 2.68106e-07
6.62601e-08 2.68106e-07 1.06202e-05
0.00111218 -8.84418e-06 1.33218e-07
-8.84418e-06 3.81308e-05 3.3601e-07
1.33218e-07 3.3601e-07 -2.45541e-05
0.00111675 -7.61569e-06 -3.19504e-07
-7.61569e-06 4.65699e-05 -5.56675e-08
-3.19504e-07 -5.56675e-08 -1.22476e-05
0.00112955 -5.13942e-06 -4.94708e-07
-5.13942e-06 4.98822e-05 2.86361e-07
-4.94708e-07 2.86361e-07 -2.00755e-06
0.00109698 -7.87466e-06 -1.32918e-07
-7.87466e-06 3.34915e-05 1.59917e-07
-1.32918e-07 1.59917e-07 -2.47044e-05
0.00111493 -1.39178e-06 -5.22024e-07
-1.39178e-06 3.90558e-05 2.41364e-07
-5.22024e-07 2.41364e-07 -7.02257e-06
0.00117662 -5.61331e-06 4.89751e-08
-5.61331e-06 6.93085e-05 -2.14099e-07
4.89751e-08 -2.14099e-07 1.7601e-05
0.00111337 -7.33522e-06 1.25822e-07
-7.33522e-06 4.2005e-05 -6.0019e-07
1.25822e-07 -6.0019e-07 -1.26663e-05
0.0012111 -5.61918e-06 6.26534e-07
-5.61918e-06 8.61221e-05 -1.80108e-07
6.26534e-07 -1.80108e-07 3.26546e-05
0.00106543 -1.31796e-06 2.6031e-08
-1.31796e-06 1.56679e-05 -1.34794e-08
2.6031e-08 -1.34794e-08 -3.1854e-05
0.00108396 2.75933e-06 -7.81885e-07
2.75933e-06 2.31453e-05 7.63555e-07
-7.81885e-07 7.63555e-07 -1.33218e-05
0.00111239 -1.96632e-06 3.64521e-07
-1.96632e-06 3.83394e-05 -1.59029e-07
3.64521e-07 -1.59029e-07 -9.40509e-06
0.00108588 2.28442e-06 3.63501e-08
2.28442e-06 2.30777e-05 7.83227e-09
3.63501e-08 7.83227e-09 -1.34857e-05
0.00104104 3.70564e-06 -1.03808e-06
3.70564e-06 -1.59527e-06 1.3951e-06
-1.03808e-06 1.3951e-06 -2.18439e-05
0.00109364 1.57569e-06 5.95736e-07
1.57569e-06 2.53651e-05 -8.36607e-07
5.95736e-07 -8.36607e-07 -1.10575e-05
0.00104913 2.99231e-06 4.14927e-08
2.99231e-06 6.51865e-09 9.11724e-09
4.14927e-08 9.11724e-09 -2.01367e-05
0.00151238 5.41554e-06 -1.65466e-06
5.41554e-06 0.000217728 2.53927e-06
-1.65466e-06 2.53927e-06 0.000224776
0.0010564 2.4215e-06 7.94246e-07
2.4215e-06 1.86568e-06 -1.48353e-06
7.94246e-07 -1.48353e-06 -1.82662e-05
0.00126703 4.32685e-06 -2.88912e-07
4.32685e-06 9.65994e-05 5.48389e-07
-2.88912e-07 5.48389e-07 0.000102531
0.00114063 5.37021e-06 -7.20078e-07
5.37021e-06 3.11891e-05 1.26888e-06
-7.20078e-07 1.26888e-06 5.18491e-05
0.00100259 3.21994e-06 8.96218e-07
3.21994e-06 -3.35756e-05 -2.66722e-06
8.96218e-07 -2.66722e-06 -2.85976e-05
0.00170172 4.07878e-06 5.71267e-07
4.07878e-06 0.00029995 -1.07308e-06
5.71267e-07 -1.07308e-06 0.000323244
0.00223384 2.76989e-06 1.2168e-06
2.76989e-06 0.000556 -3.49243e-06
1.2168e-06 -3.49243e-06 0.000581925
0.00092824 -1.79482e-06 -4.23025e-07
-1.79482e-06 -5.26514e-05 -1.23118e-06
-4.23025e-07 -1.23118e-06 -8.92537e-05
0.000843351 -2.10032e-06 -5.78772e-07
-2.10032e-06 -0.000101844 -2.15222e-06
-5.78772e-07 -2.15222e-06 -0.000121039
0.00115886 -1.66625e-06 3.8882e-08
-1.66625e-06 5.69428e-05 1.64964e-07
3.8882e-08 1.64964e-07 2.31001e-05
0.00100736 -2.15779e-06 -6.11004e-07
-2.15779e-06 -3.23734e-05 -2.73771e-06
-6.11004e-07 -2.73771e-06 -2.53581e-05
0.000946155 -1.32138e-06 -2.84973e-08
-1.32138e-06 -5.40131e-05 4.57112e-09
-2.84973e-08 4.57112e-09 -7.16009e-05
0.00093525 -1.22544e-06 1.96418e-07
-1.22544e-06 -5.30994e-05 1.12629e-06
1.96418e-07 1.12629e-06 -8.66467e-05
0.00217002 -1.43019e-06 -7.0898e-07
-1.43019e-06 0.000524154 -3.5142e-06
-7.0898e-07 -3.5142e-06 0.000550993
0.0010025 -1.08764e-06 -8.54723e-08
-1.08764e-06 -3.55596e-05 2.55125e-09
-8.54723e-08 2.55125e-09 -2.81507e-05
0.00105295 -7.77704e-07 3.89184e-08
-7.77704e-07 -3.41006e-06 1.66556e-06
3.89184e-08 1.66556e-06 -1.97416e-05
0.00217357 3.74142e-08 -1.42205e-07
3.74142e-08 0.000525482 1.0301e-09
-1.42205e-07 1.0301e-09 0.000552387
0.00100398 5.28491e-08 -4.18636e-08
5.28491e-08 -3.50592e-05 2.80132e-06
-4.18636e-08 2.80132e-06 -2.75742e-05
0.0021771 1.51463e-06 -6.95262e-07
1.51463e-06 0.000527742 3.5294e-06
-6.95262e-07 3.5294e-06 0.000554473
0.000719266 2.31007e-06 1.05243e-05
2.31007e-06 0.000206986 -4.53683e-06
1.05243e-05 -4.53683e-06 0.000144013
0.00086485 1.77181e-05 -2.84495e-06
1.77181e-05 0.000393938 1.28667e-06
-2.84495e-06 1.28667e-06 0.00039747
0.000540112 2.7416e-05 8.90517e-05
2.7416e-05 0.000149922 -1.70469e-05
8.90517e-05 -1.70469e-05 0.000189004
0.00111041 3.14952e-06 -4.15254e-07
3.14952e-06 3.62543e-05 -4.0565e-07
-4.15254e-07 -4.0565e-07 -1.1396e-05
0.000371576 -5.60041e-06 6.59242e-06
-5.60041e-06 -8.33845e-05 -9.09045e-06
6.59242e-06 -9.09045e-06 -0.000131423
0.000651408 8.37176e-06 3.41192e-06
8.37176e-06 0.00016893 -5.80351e-07
3.41192e-06 -5.80351e-07 0.000150415
0.00106267 3.16887e-05 -1.83398e-05
3.16887e-05 0.000473341 1.27046e-05
-1.83398e-05 1.27046e-05 0.000512795
0.00160859 -6.44908e-06 -1.03213e-05
-6.44908e-06 0.000114924 -1.05033e-07
-1.03213e-05 -1.05033e-07 2.99401e-05
0.00571341 1.59427e-05 2.01234e-05
1.59427e-05 0.00170552 -5.61912e-06
2.01234e-05 -5.61912e-06 0.00145301
-0.00200093 7.5858e-05 3.34216e-05
7.5858e-05 -0.000973701 -3.03265e-05
3.34216e-05 -3.03265e-05 -0.000927623
0.00168072 1.42548e-05 -1.3724e-05
1.42548e-05 0.000791185 5.20028e-06
-1.3724e-05 5.20028e-06 0.000837606
0.00179403 -3.85923e-05 -1.07837e-05
-3.85923e-05 7.33121e-05 1.97512e-06
-1.07837e-05 1.97512e-06 -5.15267e-05
0.00467255 6.47847e-05 7.27945e-06
6.47847e-05 0.00107327 -1.26414e-05
7.27945e-06 -1.26414e-05 0.000750854
-0.000869475 9.85229e-05 4.75929e-06
9.85229e-05 -0.00101664 5.6948e-06
4.75929e-06 5.6948e-06 -0.00101498
0.000795304 3.55024e-06 1.23947e-06
3.55024e-06 0.00023315 -1.75048e-06
1.23947e-06 -1.75048e-06 0.000235106
0.00119822 -5.30196e-05 1.83623e-05
-5.30196e-05 -0.000145928 -2.54811e-05
1.83623e-05 -2.54811e-05 -0.000325018
0.00439324 7.36292e-05 -1.02716e-05
7.36292e-05 0.000421715 -7.75952e-06
-1.02716e-05 -7.75952e-06 4.89055e-06
0.0018012 7.28946e-05 5.31653e-06
7.28946e-05 -0.000278448 3.25576e-05
5.31653e-06 3.25576e-05 -0.000165454
0.000233843 -7.38827e-07 2.2866e-06
-7.38827e-07 -0.000109292 1.15661e-06
2.2866e-06 1.15661e-06 -0.000142507
0.00113311 -2.63181e-06 -2.64315e-07
-2.63181e-06 5.05883e-05 -3.30127e-07
-2.64315e-07 -3.30127e-07 -1.11352e-05
0.00114732 -3.02069e-06 1.74388e-08
-3.02069e-06 6.00378e-05 2.13562e-08
1.74388e-08 2.13562e-08 1.34185e-06
0.00121007 2.25521e-06 1.06866e-08
2.25521e-06 8.76562e-05 5.21643e-07
1.06866e-08 5.21643e-07 3.62492e-05
0.00111252 2.4569e-06 -3.6295e-07
2.4569e-06 4.0436e-05 -6.81151e-07
-3.6295e-07 -6.81151e-07 -1.45027e-05
0.00117559 3.98951e-06 5.19663e-08
3.98951e-06 6.98334e-05 2.66098e-07
5.19663e-08 2.66098e-07 1.63163e-05
0.0012393 8.07963e-07 1.6978e-07
8.07963e-07 9.8796e-05 1.05575e-06
1.6978e-07 1.05575e-06 4.91142e-05
0.00126137 2.31461e-06 -3.02837e-08
2.31461e-06 0.000111088 3.8775e-08
-3.02837e-08 3.8775e-08 6.53571e-05
0.00127069 2.50097e-06 2.29166e-07
2.50097e-06 0.000114595 9.3641e-07
2.29166e-07 9.3641e-07 7.0315e-05
0.0011129 -1.95157e-05 -1.19391e-06
-1.95157e-05 -0.00012628 -5.54932e-07
-1.19391e-06 -5.54932e-07 -0.000164512
0.00122341 -1.70583e-05 -1.17699e-07
-1.70583e-05 8.58184e-05 -4.29882e-07
-1.17699e-07 -4.29882e-07 1.27989e-05
0.00114412 -5.87412e-06 3.12396e-07
-5.87412e-06 6.26454e-05 3.3114e-07
3.12396e-07 3.3114e-07 -1.07023e-06
0.00119812 -8.90699e-06 1.86662e-07
-8.90699e-06 8.47767e-05 -5.66363e-07
1.86662e-07 -5.66363e-07 4.2844e-06
0.00130609 -7.05198e-06 1.6303e-07
-7.05198e-06 0.000142267 -3.11483e-08
1.6303e-07 -3.11483e-08 6.93798e-05
0.00117261 9.56287e-08 -6.51012e-08
9.56287e-08 7.94792e-05 -4.06775e-07
-6.51012e-08 -4.06775e-07 1.15912e-05
0.00113514 -8.37865e-07 -2.79473e-08
-8.37865e-07 5.88721e-05 2.00146e-08
-2.79473e-08 2.00146e-08 -8.08999e-06
0.0013588 -2.62737e-05 6.76587e-07
-2.62737e-05 2.92463e-05 -9.13982e-09
6.76587e-07 -9.13982e-09 -3.36844e-05
0.00117596 -2.47915e-06 3.99559e-08
-2.47915e-06 7.70267e-05 -3.61868e-08
3.99559e-08 -3.61868e-08 5.7462e-06
0.00120029 -4.02519e-06 -9.76503e-08
-4.02519e-06 8.9481e-05 1.05368e-07
-9.76503e-08 1.05368e-07 1.06783e-05
0.00113539 -9.79545e-06 -2.17272e-07
-9.79545e-06 8.7509e-05 -1.09734e-07
-2.17272e-07 -1.09734e-07 -1.75787e-07
0.00111119 -9.76255e-07 -9.98196e-09
-9.76255e-07 4.54508e-05 4.2169e-07
-9.98196e-09 4.2169e-07 -2.2294e-05
0.00177779 -1.98105e-05 -4.02935e-06
-1.98105e-05 0.000339918 7.817e-06
-4.02935e-06 7.817e-06 0.000248046
0.00115818 2.20634e-06 -1.82426e-06
2.20634e-06 0.000109891 -5.27065e-08
-1.82426e-06 -5.27065e-08 2.39812e-05
0.00115994 -2.77791e-06 -2.46209e-08
-2.77791e-06 6.53767e-05 8.66901e-07
-2.46209e-08 8.66901e-07 -7.27041e-06
0.00119508 -7.80588e-07 1.84493e-07
-7.80588e-07 8.53151e-05 2.80316e-07
1.84493e-07 2.80316e-07 1.27442e-05
0.00123034 4.27381e-07 1.90504e-06
4.27381e-07 0.000419807 4.20183e-07
1.90504e-06 4.20183e-07 0.000326065
0.00121241 -8.56443e-07 -4.55911e-06
-8.56443e-07 0.000514428 4.70999e-07
-4.55911e-06 4.70999e-07 0.000439631
-0.00141583 -2.83477e-07 -1.84851e-05
-2.83477e-07 -0.00098634 7.15368e-08
-1.84851e-05 7.15368e-08 -0.00100668
0.00112479 6.6765e-06 7.66365e-08
6.6765e-06 8.23237e-05 -1.18839e-07
7.66365e-08 -1.18839e-07 1.49064e-05
0.00106357 8.31868e-06 1.50565e-06
8.31868e-06 0.000124233 1.21663e-06
1.50565e-06 1.21663e-06 2.82601e-05
0.000618419 -1.89823e-06 -1.30603e-05
-1.89823e-06 0.000145687 -3.67458e-06
-1.30603e-05 -3.67458e-06 7.70469e-05
0.00322888 -9.14515e-05 9.8927e-06
-9.14515e-05 0.000160276 7.81951e-06
9.8927e-06 7.81951e-06 -0.000174899
0.00196463 3.99215e-05 2.53321e-06
3.99215e-05 0.000479854 -1.67107e-05
2.53321e-06 -1.67107e-05 0.000296172
0.00129266 -6.88758e-05 -6.16544e-06
-6.88758e-05 -0.000675242 4.37948e-05
-6.16544e-06 4.37948e-05 -0.000452703
0.00036832 8.26579e-06 -4.95749e-06
8.26579e-06 -7.74314e-05 -5.5789e-06
-4.95749e-06 -5.5789e-06 -0.000132726
0.000770186 7.13861e-06 1.9329e-06
7.13861e-06 0.000213335 6.40672e-07
1.9329e-06 6.40672e-07 0.00018299
0.00108872 -1.66825e-06 -3.69619e-07
-1.66825e-06 7.17218e-05 -4.55866e-07
-3.69619e-07 -4.55866e-07 4.33244e-07
0.000601505 6.6614e-06 3.04672e-07
6.6614e-06 3.48085e-05 6.67338e-07
3.04672e-07 6.67338e-07 -4.99936e-05
0.00063609 6.2545e-06 -1.40146e-06
6.2545e-06 6.07498e-05 3.94733e-07
-1.40146e-06 3.94733e-07 7.26438e-06
0.000802214 -4.05643e-06 1.72294e-07
-4.05643e-06 5.65197e-05 -1.33284e-06
1.72294e-07 -1.33284e-06 -2.04504e-05
0.000823315 4.42497e-06 -1.15233e-06
4.42497e-06 0.000238655 1.89795e-06
-1.15233e-06 1.89795e-06 0.000252386
0.00310935 -3.27629e-06 -3.39972e-06
-3.27629e-06 0.000124561 6.4254e-06
-3.39972e-06 6.4254e-06 -5.85358e-05
0.00412661 2.33399e-05 5.31936e-06
2.33399e-05 0.000386177 3.38295e-07
5.31936e-06 3.38295e-07 0.000797381
0.00108777 -1.06184e-05 -1.66584e-06
-1.06184e-05 3.49829e-05 -1.85106e-06
-1.66584e-06 -1.85106e-06 -2.25229e-05
0.000730512 4.32352e-06 -8.34263e-07
4.32352e-06 7.80416e-05 2.39083e-06
-8.34263e-07 2.39083e-06 6.86529e-06
0.000406946 -3.0336e-06 -6.67304e-06
-3.0336e-06 -7.24621e-05 9.57954e-06
-6.67304e-06 9.57954e-06 -0.00011207
0.00125981 1.87846e-05 -7.74715e-06
1.87846e-05 0.000501398 6.5642e-06
-7.74715e-06 6.5642e-06 0.000559183
0.00205134 7.57878e-05 -3.05137e-06
7.57878e-05 -0.000165227 -3.04544e-05
-3.05137e-06 -3.04544e-05 2.487e-06
0.00123589 6.0501e-06 -9.25531e-07
6.0501e-06 0.000440198 -4.65842e-06
-9.25531e-07 -4.65842e-06 0.000333725
0.00295032 1.88849e-05 3.36301e-06
1.88849e-05 9.5118e-05 -6.55012e-06
3.36301e-06 -6.55012e-06 -0.000293033
0.00116235 -4.40466e-06 4.44732e-07
-4.40466e-06 6.67464e-05 -3.28478e-07
4.44732e-07 -3.28478e-07 1.07336e-06
0.00107616 -4.81696e-06 5.551e-07
-4.81696e-06 2.76639e-05 -3.88286e-07
5.551e-07 -3.88286e-07 -3.73644e-05
0.00101439 4.08409e-06 2.71147e-07
4.08409e-06 1.62764e-05 -1.49253e-06
2.71147e-07 -1.49253e-06 -4.4455e-05
0.00121759 6.96906e-07 -1.26147e-08
6.96906e-07 8.76234e-05 7.24055e-08
-1.26147e-08 7.24055e-08 2.80383e-05
0.0011617 9.21154e-07 -6.19997e-08
9.21154e-07 5.91045e-05 3.8076e-07
-6.19997e-08 3.8076e-07 -3.71564e-06
0.00116928 -1.52248e-06 3.67543e-07
-1.52248e-06 6.59402e-05 7.29257e-07
3.67543e-07 7.29257e-07 4.24343e-06
0.00114145 -2.77656e-06 -5.22124e-08
-2.77656e-06 5.53086e-05 1.29004e-07
-5.22124e-08 1.29004e-07 -8.04963e-06
0.00112801 -7.02618e-08 -3.14676e-07
-7.02618e-08 5.33245e-05 3.88724e-07
-3.14676e-07 3.88724e-07 -7.40582e-06
0.0011517 -4.23706e-06 7.39877e-07
-4.23706e-06 7.52225e-05 -2.83104e-07
7.39877e-07 -2.83104e-07 5.942e-06
0.00115991 -6.14731e-06 1.47383e-07
-6.14731e-06 6.50843e-05 1.86146e-07
1.47383e-07 1.86146e-07 3.51364e-06
0.00107064 -4.25042e-06 1.03264e-08
-4.25042e-06 2.02553e-05 3.4606e-07
1.03264e-08 3.4606e-07 -3.97386e-05
0.00118771 -7.47758e-06 6.09085e-08
-7.47758e-06 8.02603e-05 2.14559e-07
6.09085e-08 2.14559e-07 1.62914e-05
0.00110467 -9.38936e-06 -1.04587e-09
-9.38936e-06 4.92848e-05 5.17816e-07
-1.04587e-09 5.17816e-07 -2.03933e-05
0.00111992 -7.43171e-06 -1.88984e-08
-7.43171e-06 4.33912e-05 1.49604e-07
-1.88984e-08 1.49604e-07 -1.56418e-05
0.00107872 -8.63976e-06 1.83497e-07
-8.63976e-06 2.55017e-05 -1.87327e-07
1.83497e-07 -1.87327e-07 -3.92695e-05
0.00119725 -1.02041e-05 1.73952e-07
-1.02041e-05 8.03505e-05 1.40979e-07
1.73952e-07 1.40979e-07 1.16852e-05
0.00118372 -9.57567e-06 -3.30388e-07
-9.57567e-06 7.01621e-05 3.41894e-07
-3.30388e-07 3.41894e-07 5.70883e-06
0.00125293 -8.06599e-06 1.25302e-07
-8.06599e-06 0.000103444 1.86333e-07
1.25302e-07 1.86333e-07 4.52066e-05
0.00113329 -8.98684e-06 -5.60374e-08
-8.98684e-06 4.78289e-05 3.99357e-09
-5.60374e-08 3.99357e-09 -1.50949e-05
0.0012269 -7.80184e-06 1.53882e-08
-7.80184e-06 9.91408e-05 -2.72e-07
1.53882e-08 -2.72e-07 4.14e-05
0.00103192 -3.07807e-06 -3.73201e-07
-3.07807e-06 1.00721e-05 1.78817e-07
-3.73201e-07 1.78817e-07 -4.36623e-05
0.00114405 -7.64937e-06 1.45855e-07
-7.64937e-06 5.9455e-05 -1.81994e-07
1.45855e-07 -1.81994e-07 1.20341e-06
0.00110868 9.48857e-08 -6.67193e-07
9.48857e-08 3.87611e-05 1.67106e-07
-6.67193e-07 1.67106e-07 -7.01494e-06
0.00114261 -5.11575e-06 -2.40332e-07
-5.11575e-06 5.59313e-05 2.75454e-07
-2.40332e-07 2.75454e-07 3.93903e-06
0.00105239 -7.70925e-06 -8.10998e-08
-7.70925e-06 1.33923e-05 -6.24499e-09
-8.10998e-08 -6.24499e-09 -4.48945e-05
0.00108217 2.75524e-06 -9.00272e-07
2.75524e-06 2.26627e-05 6.68785e-07
-9.00272e-07 6.68785e-07 -1.33019e-05
0.00107943 -1.34949e-06 6.90798e-08
-1.34949e-06 2.16202e-05 3.27665e-08
6.90798e-08 3.27665e-08 -2.47195e-05
0.00113725 -5.81758e-06 6.06912e-07
-5.81758e-06 5.0054e-05 -2.44529e-07
6.06912e-07 -2.44529e-07 -2.11414e-06
0.00110653 -1.2785e-06 5.66254e-07
-1.2785e-06 3.53947e-05 -3.17045e-07
5.66254e-07 -3.17045e-07 -1.17962e-05
0.00108272 2.7835e-06 3.42812e-08
2.7835e-06 2.2553e-05 1.23454e-08
3.42812e-08 1.23454e-08 -1.38919e-05
0.00103718 4.32551e-06 -1.17587e-06
4.32551e-06 -1.36582e-06 1.34207e-06
-1.17587e-06 1.34207e-06 -2.17499e-05
0.00108675 2.31989e-06 7.18568e-07
2.31989e-06 2.34917e-05 -7.82066e-07
7.18568e-07 -7.82066e-07 -1.30709e-05
0.00104515 3.70504e-06 3.09065e-08
3.70504e-06 3.20577e-07 7.07728e-09
3.09065e-08 7.07728e-09 -1.99372e-05
0.00097669 6.39823e-06 -1.53882e-06
6.39823e-06 -3.80246e-05 2.44387e-06
-1.53882e-06 2.44387e-06 -3.36539e-05
0.00105436 2.98851e-06 9.68881e-07
2.98851e-06 2.47029e-06 -1.43963e-06
9.68881e-07 -1.43963e-06 -1.76973e-05
0.000985504 5.32939e-06 5.67265e-08
5.32939e-06 -3.69322e-05 1.64352e-08
5.67265e-08 1.64352e-08 -3.23005e-05
0.00219585 7.13014e-06 -1.04124e-06
7.13014e-06 0.000544155 1.34498e-06
-1.04124e-06 1.34498e-06 0.000569352
0.000998966 4.25416e-06 1.1873e-06
4.25416e-06 -3.32071e-05 -2.59686e-06
1.1873e-06 -2.59686e-06 -2.84476e-05
0.00170175 5.47317e-06 7.0084e-07
5.47317e-06 0.000302386 -1.06173e-06
7.0084e-07 -1.06173e-06 0.000325329
0.00223374 4.20491e-06 1.70234e-06
4.20491e-06 0.000557817 -3.45846e-06
1.70234e-06 -3.45846e-06 0.000583454
0.000924229 -1.07786e-06 -6.90527e-07
-1.07786e-06 -5.51297e-05 -1.1907e-06
-6.90527e-07 -1.1907e-06 -9.24129e-05
0.000833793 -2.61127e-06 -7.98773e-07
-2.61127e-06 -0.000104165 -2.06571e-06
-7.98773e-07 -2.06571e-06 -0.000124746
0.00104554 -1.89964e-06 -7.70795e-08
-1.89964e-06 3.74647e-06 -3.63008e-07
-7.70795e-08 -3.63008e-07 -3.22583e-05
0.00100918 -3.28104e-06 -8.42983e-07
-3.28104e-06 -2.99214e-05 -2.68693e-06
-8.42983e-07 -2.68693e-06 -2.35563e-05
0.000828606 -2.11428e-06 -1.15968e-07
-2.11428e-06 -0.000108606 -5.30227e-07
-1.15968e-07 -5.30227e-07 -0.000127929
0.00116121 -1.62517e-06 3.10142e-07
-1.62517e-06 5.80018e-05 1.08021e-06
3.10142e-07 1.08021e-06 2.41317e-05
0.00216934 -2.84843e-06 -1.21954e-06
-2.84843e-06 0.000524872 -3.47744e-06
-1.21954e-06 -3.47744e-06 0.000551506
0.00100205 -2.16448e-06 -5.76057e-08
-2.16448e-06 -3.49605e-05 8.15607e-09
-5.76057e-08 8.15607e-09 -2.79007e-05
0.000831569 -1.34278e-06 3.15028e-07
-1.34278e-06 -0.000109265 1.66355e-06
3.15028e-07 1.66355e-06 -0.000127545
0.00217632 -1.38842e-06 -1.84248e-07
-1.38842e-06 0.000527088 6.06876e-09
-1.84248e-07 6.06876e-09 0.000553923
0.000998772 -1.09207e-06 1.61493e-07
-1.09207e-06 -3.73869e-05 2.78351e-06
1.61493e-07 2.78351e-06 -2.9943e-05
0.00217459 8.70228e-08 -1.33528e-07
8.70228e-08 0.000525992 3.52833e-06
-1.33528e-07 3.52833e-06 0.000552887
0.000764652 -5.57657e-06 2.83292e-06
-5.57657e-06 0.000133546 -3.31951e-06
2.83292e-06 -3.31951e-06 5.07587e-05
0.000772903 2.40276e-06 -2.70689e-07
2.40276e-06 0.000238667 3.799e-07
-2.70689e-07 3.799e-07 0.000176326
0.00058307 1.80232e-05 -1.80808e-05
1.80232e-05 0.000217002 7.2459e-06
-1.80808e-05 7.2459e-06 0.000221339
0.00114487 3.15817e-06 -9.28283e-08
3.15817e-06 5.24268e-05 1.62317e-08
-9.28283e-08 1.62317e-08 5.11159e-06
0.00103021 3.91591e-06 -4.58852e-07
3.91591e-06 -5.49834e-06 -4.61206e-07
-4.58852e-07 -4.61206e-07 -5.32721e-05
0.00120521 2.57341e-06 -5.23984e-08
2.57341e-06 8.33559e-05 2.4059e-07
-5.23984e-08 2.4059e-07 2.91747e-05
0.000518615 8.08087e-07 -1.55869e-07
8.08087e-07 3.165e-06 -5.09648e-06
-1.55869e-07 -5.09648e-06 -5.25547e-05
0.000730112 -5.93972e-06 7.17131e-07
-5.93972e-06 0.000143333 -5.76439e-07
7.17131e-07 -5.76439e-07 9.29682e-05
0.000910432 8.64421e-06 -1.01773e-05
8.64421e-06 0.000332601 9.92666e-06
-1.01773e-05 9.92666e-06 0.00031524
0.00231267 -3.09614e-05 -1.49103e-05
-3.09614e-05 0.000555904 9.77785e-06
-1.49103e-05 9.77785e-06 0.000474234
0.00334257 1.81779e-05 4.91397e-05
1.81779e-05 0.000555013 -4.41107e-05
4.91397e-05 -4.41107e-05 0.00020476
0.0029165 0.000117622 6.02669e-06
0.000117622 0.000829991 -2.05665e-05
6.02669e-06 -2.05665e-05 0.000781042
0.000907914 1.82248e-06 -6.54254e-06
1.82248e-06 0.000324257 1.65223e-06
-6.54254e-06 1.65223e-06 0.000320499
0.000879684 -3.99757e-05 -6.67046e-06
-3.99757e-05 -2.94154e-05 6.67293e-06
-6.67046e-06 6.67293e-06 -0.000146018
0.00445185 7.26533e-05 9.20137e-06
7.26533e-05 0.00083559 -2.25416e-05
9.20137e-06 -2.25416e-05 0.000461831
0.000938809 8.32016e-05 2.96734e-06
8.32016e-05 -0.000313993 5.77557e-06
2.96734e-06 5.77557e-06 -0.000285287
0.000522366 8.37994e-07 1.6403e-06
8.37994e-07 6.89929e-05 -8.38822e-07
1.6403e-06 -8.38822e-07 3.24776e-05
0.000723895 -3.85934e-05 4.99607e-06
-3.85934e-05 4.14903e-05 -1.98747e-05
4.99607e-06 -1.98747e-05 -7.30133e-05
0.00424612 5.5624e-05 -5.32375e-07
5.5624e-05 0.000253236 -1.43393e-05
-5.32375e-07 -1.43393e-05 0.000141961
0.000887069 4.89667e-06 -1.47027e-06
4.89667e-06 -0.000798051 3.09233e-05
-1.47027e-06 3.09233e-05 -0.000577877
3.872e-05 -1.86611e-06 -4.81529e-06
-1.86611e-06 -0.000236335 1.40652e-06
-4.81529e-06 1.40652e-06 -0.00024751
0.00115051 3.22358e-06 -4.33204e-07
3.22358e-06 5.92651e-05 -4.88636e-08
-4.33204e-07 -4.88636e-08 -3.1824e-06
0.00112599 -2.75521e-06 8.31588e-09
-2.75521e-06 4.78887e-05 -1.61404e-07
8.31588e-09 -1.61404e-07 -1.37619e-05
0.00113798 -3.27214e-06 1.21911e-07
-3.27214e-06 5.55903e-05 4.66147e-07
1.21911e-07 4.66147e-07 -3.6107e-06
0.00112691 2.59889e-06 -1.79992e-07
2.59889e-06 4.71697e-05 -5.15809e-07
-1.79992e-07 -5.15809e-07 -7.8943e-06
0.00124187 4.96089e-06 2.84474e-07
4.96089e-06 0.000101218 7.50405e-07
2.84474e-07 7.50405e-07 4.83586e-05
0.00127439 2.3056e-06 1.59107e-07
2.3056e-06 0.000116878 5.81779e-07
1.59107e-07 5.81779e-07 7.13443e-05
0.000604112 -2.4158e-05 7.94703e-07
-2.4158e-05 -0.000314363 -1.99267e-06
7.94703e-07 -1.99267e-06 -0.000378387
0.00119945 -1.00352e-05 1.90153e-07
-1.00352e-05 0.000116042 -5.67599e-07
1.90153e-07 -5.67599e-07 2.83786e-05
0.0011223 -1.4988e-06 7.31151e-09
-1.4988e-06 5.27171e-05 -1.25701e-07
7.31151e-09 -1.25701e-07 -1.43683e-05
0.00126041 -3.84318e-06 7.07849e-07
-3.84318e-06 0.000117947 -4.04711e-07
7.07849e-07 -4.04711e-07 3.86852e-05
0.0011954 -3.89009e-06 -1.82017e-07
-3.89009e-06 8.61165e-05 -3.13156e-07
-1.82017e-07 -3.13156e-07 1.44869e-05
0.00114168 -9.93664e-07 6.77273e-08
-9.93664e-07 6.07364e-05 3.12058e-07
6.77273e-08 3.12058e-07 -7.61854e-06
0.00113598 -3.87794e-07 -1.35678e-07
-3.87794e-07 5.71032e-05 1.6616e-07
-1.35678e-07 1.6616e-07 -1.58553e-05
0.00115162 -1.798e-05 -1.35228e-07
-1.798e-05 3.74013e-05 -3.02326e-07
-1.35228e-07 -3.02326e-07 -5.19567e-05
0.00118923 -3.92132e-06 2.30437e-07
-3.92132e-06 8.14515e-05 -1.86242e-07
2.30437e-07 -1.86242e-07 8.70617e-06
0.00119479 2.75762e-06 -4.44403e-07
2.75762e-06 0.000120896 2.14703e-07
-4.44403e-07 2.14703e-07 3.47897e-05
0.00106586 2.7221e-06 -2.4255e-07
2.7221e-06 2.51737e-05 -7.45195e-08
-2.4255e-07 -7.45195e-08 -4.87932e-05
0.00148074 -4.57239e-06 -4.09615e-06
-4.57239e-06 0.000287052 1.01453e-05
-4.09615e-06 1.01453e-05 0.000183929
0.00110523 3.32438e-09 3.65001e-07
3.32438e-09 4.76455e-05 3.21548e-07
3.65001e-07 3.21548e-07 -2.71956e-05
0.00114331 -5.64875e-06 6.34385e-07
-5.64875e-06 6.28853e-05 1.09609e-07
6.34385e-07 1.09609e-07 -1.56837e-05
0.000990977 1.89251e-06 -7.81108e-07
1.89251e-06 0.00022875 5.77736e-07
-7.81108e-07 5.77736e-07 0.00014574
0.000772234 -1.52978e-08 4.44245e-07
-1.52978e-08 0.000132377 5.70818e-07
4.44245e-07 5.70818e-07 3.87901e-05
0.00098203 -2.33329e-07 -1.56164e-05
-2.33329e-07 0.000368267 6.72729e-07
-1.56164e-05 6.72729e-07 0.000293929
0.00142251 7.06111e-07 -3.16902e-07
7.06111e-07 0.000230916 9.0408e-07
-3.16902e-07 9.0408e-07 0.000159889
0.00131432 -6.08598e-06 5.23118e-06
-6.08598e-06 0.00032357 -1.76053e-06
5.23118e-06 -1.76053e-06 0.000236717
0.000453841 6.52424e-06 -1.76407e-06
6.52424e-06 -5.57851e-05 -1.11275e-06
-1.76407e-06 -1.11275e-06 -0.000141456
0.00236617 -2.00355e-05 8.80529e-07
-2.00355e-05 -1.50639e-07 2.25736e-06
8.80529e-07 2.25736e-06 1.75695e-05
0.000461549 1.9311e-05 2.62924e-07
1.9311e-05 -0.00104589 2.72096e-05
2.62924e-07 2.72096e-05 -0.000757248
0.000726306 5.74419e-06 1.15052e-06
5.74419e-06 0.000108315 -2.67259e-06
1.15052e-06 -2.67259e-06 5.02853e-05
0.000897212 2.83526e-06 6.95575e-06
2.83526e-06 0.000305084 -2.3438e-06
6.95575e-06 -2.3438e-06 0.0003133
0.00119242 -9.80482e-06 4.29832e-07
-9.80482e-06 8.22535e-05 1.20805e-06
4.29832e-07 1.20805e-06 2.29018e-05
0.000740744 3.35973e-06 -1.04776e-08
3.35973e-06 8.48549e-05 1.43366e-06
-1.04776e-08 1.43366e-06 1.11087e-05
0.000740442 -3.57394e-06 -6.57513e-07
-3.57394e-06 0.000138403 5.45594e-07
-6.57513e-07 5.45594e-07 9.64626e-05
0.000377813 2.11703e-05 -7.61264e-07
2.11703e-05 -4.14287e-05 9.55248e-10
-7.61264e-07 9.55248e-10 -0.000299646
0.000490767 1.39615e-05 3.14939e-06
1.39615e-05 2.80179e-05 -1.13009e-06
3.14939e-06 -1.13009e-06 9.8299e-05
0.000717584 8.55199e-05 -2.55843e-06
8.55199e-05 -0.000419732 -5.70079e-06
-2.55843e-06 -5.70079e-06 -0.000339305
0.00530427 2.84492e-05 -6.90775e-07
2.84492e-05 0.000486975 -8.12122e-06
-6.90775e-07 -8.12122e-06 0.000821631
0.00118297 2.91143e-06 5.35535e-07
2.91143e-06 0.000153882 -5.81122e-06
5.35535e-07 -5.81122e-06 0.000114618
0.000766899 -3.98277e-06 -2.75259e-06
-3.98277e-06 0.000131381 3.58984e-06
-2.75259e-06 3.58984e-06 5.57911e-05
0.000367363 7.88102e-06 -1.81299e-05
7.88102e-06 -1.98507e-05 8.77299e-06
-1.81299e-05 8.77299e-06 -3.23819e-05
0.000266748 3.31871e-05 -5.68776e-06
3.31871e-05 -5.20218e-05 4.76275e-06
-5.68776e-06 4.76275e-06 2.30741e-05
-9.76223e-06 8.58142e-05 6.76539e-06
8.58142e-05 -0.0002613 -4.00886e-05
6.76539e-06 -4.00886e-05 -0.0002282
0.00641652 3.69481e-05 2.96416e-06
3.69481e-05 0.00130925 -4.4974e-06
2.96416e-06 -4.4974e-06 0.00124689
0.00078851 -8.40419e-06 1.55968e-06
-8.40419e-06 0.000296446 1.78329e-05
1.55968e-06 1.78329e-05 -0.000131477
0.00103413 -3.74865e-06 1.63306e-06
-3.74865e-06 1.06237e-05 -6.77041e-07
1.63306e-06 -6.77041e-07 -5.49334e-05
0.00109214 1.90334e-06 7.55027e-08
1.90334e-06 4.80076e-05 -9.30761e-07
7.55027e-08 -9.30761e-07 -1.22297e-05
0.00105786 3.65727e-06 1.00438e-06
3.65727e-06 6.29851e-05 -4.66168e-07
1.00438e-06 -4.66168e-07 -1.20124e-05
0.00113453 -2.76638e-06 7.0757e-10
-2.76638e-06 5.15579e-05 3.31176e-07
7.0757e-10 3.31176e-07 -1.17487e-05
0.0011349 -1.18578e-06 2.40593e-08
-1.18578e-06 5.58077e-05 1.79468e-06
2.40593e-08 1.79468e-06 -4.52552e-06
0.0011529 -4.02926e-06 2.86173e-08
-4.02926e-06 7.57825e-05 2.18412e-07
2.86173e-08 2.18412e-07 7.1953e-06
0.00102653 -9.52635e-06 9.24889e-07
-9.52635e-06 2.83224e-05 3.16522e-07
9.24889e-07 3.16522e-07 -5.40723e-05
0.00119593 -7.59294e-06 6.63069e-08
-7.59294e-06 8.2986e-05 3.32583e-07
6.63069e-08 3.32583e-07 1.86434e-05
0.00122741 -9.98555e-06 -1.53118e-07
-9.98555e-06 0.000105382 3.50497e-07
-1.53118e-07 3.50497e-07 3.47002e-05
0.00127771 -1.20838e-05 -1.20654e-07
-1.20838e-05 0.000126352 4.34736e-07
-1.20654e-07 4.34736e-07 5.07361e-05
0.00110575 -8.5635e-06 -7.51585e-08
-8.5635e-06 3.97271e-05 -1.42716e-07
-7.51585e-08 -1.42716e-07 -2.45321e-05
0.00118091 -1.0132e-05 -3.09019e-09
-1.0132e-05 7.27232e-05 -3.68923e-08
-3.09019e-09 -3.68923e-08 3.94439e-06
0.00133879 -1.14596e-05 -1.07693e-07
-1.14596e-05 0.000141791 -1.30232e-08
-1.07693e-07 -1.30232e-08 7.16681e-05
0.00127073 -1.0648e-05 -2.00234e-07
-1.0648e-05 0.000102992 -1.06346e-07
-2.00234e-07 -1.06346e-07 3.72401e-05
0.00107739 -8.40929e-06 -1.70108e-07
-8.40929e-06 2.41016e-05 3.91078e-07
-1.70108e-07 3.91078e-07 -3.64164e-05
0.00114913 -9.51699e-06 -8.27906e-08
-9.51699e-06 5.43087e-05 9.14853e-08
-8.27906e-08 9.14853e-08 -1.05206e-05
0.00115676 -9.12585e-06 -1.53697e-07
-9.12585e-06 5.86122e-05 -8.86667e-08
-1.53697e-07 -8.86667e-08 -4.55159e-06
0.00123003 -6.032e-06 -7.70337e-08
-6.032e-06 0.00010107 -1.51755e-07
-7.70337e-08 -1.51755e-07 4.75787e-05
0.00115912 -7.52e-06 3.25974e-07
-7.52e-06 6.74284e-05 -4.34789e-07
3.25974e-07 -4.34789e-07 1.00754e-05
0.00100345 2.85088e-06 -4.77332e-07
2.85088e-06 -4.8587e-06 5.68286e-07
-4.77332e-07 5.68286e-07 -5.2538e-05
0.0011224 -3.13709e-06 2.83108e-08
-3.13709e-06 5.29433e-05 -4.14412e-08
2.83108e-08 -4.14412e-08 -1.71512e-07
0.00117191 -7.68403e-06 6.14829e-07
-7.68403e-06 7.25951e-05 -5.53451e-07
6.14829e-07 -5.53451e-07 1.49095e-05
0.00107577 3.45204e-06 -1.02186e-06
3.45204e-06 2.21273e-05 5.85626e-07
-1.02186e-06 5.85626e-07 -1.36772e-05
0.0011192 -2.35236e-07 -1.05267e-07
-2.35236e-07 4.32673e-05 -3.70106e-08
-1.05267e-07 -3.70106e-08 -2.474e-06
0.0011577 -5.09565e-06 1.50908e-07
-5.09565e-06 6.29658e-05 6.28519e-08
1.50908e-07 6.28519e-08 1.08643e-05
0.00103353 4.8501e-06 -1.36115e-06
4.8501e-06 -1.25953e-06 1.24093e-06
-1.36115e-06 1.24093e-06 -2.16286e-05
0.00108237 2.79071e-06 5.60089e-08
2.79071e-06 2.27516e-05 2.93308e-08
5.60089e-08 2.93308e-08 -1.31933e-05
0.00104605 -1.32581e-06 7.04324e-07
-1.32581e-06 5.14635e-06 -1.99459e-07
7.04324e-07 -1.99459e-07 -4.14542e-05
0.00108145 2.8042e-06 8.42581e-07
2.8042e-06 2.19468e-05 -7.27287e-07
8.42581e-07 -7.27287e-07 -1.44756e-05
0.00104037 4.3305e-06 5.41428e-08
4.3305e-06 1.20957e-07 1.72984e-08
5.41428e-08 1.72984e-08 -2.02614e-05
0.00096847 7.41761e-06 -1.7514e-06
7.41761e-06 -3.85253e-05 2.352e-06
-1.7514e-06 2.352e-06 -3.45274e-05
0.00104935 3.70476e-06 1.0984e-06
3.70476e-06 2.27874e-06 -1.38442e-06
1.0984e-06 -1.38442e-06 -1.79887e-05
0.000984148 6.38806e-06 4.91626e-08
6.38806e-06 -3.44824e-05 1.55465e-08
4.91626e-08 1.55465e-08 -3.01369e-05
0.00225385 8.32638e-06 -2.66478e-06
8.32638e-06 0.000575717 3.26722e-06
-2.66478e-06 3.26722e-06 0.000600129
0.000995239 5.30517e-06 1.43649e-06
5.30517e-06 -3.23915e-05 -2.50507e-06
1.43649e-06 -2.50507e-06 -2.77951e-05
0.00168321 6.88272e-06 8.05738e-07
6.88272e-06 0.000296644 -1.04597e-06
8.05738e-07 -1.04597e-06 0.000319289
0.0022246 5.62418e-06 2.12749e-06
5.62418e-06 0.00055591 -3.39025e-06
2.12749e-06 -3.39025e-06 0.000581244
0.00107732 -3.14943e-07 -7.28703e-07
-3.14943e-07 1.79524e-05 -7.63903e-07
-7.28703e-07 -7.63903e-07 -1.80775e-05
0.00104979 -2.9073e-06 -9.4893e-07
-2.9073e-06 1.21658e-06 -1.44348e-06
-9.4893e-07 -1.44348e-06 -1.8701e-05
0.00100511 -7.87257e-07 -1.8681e-07
-7.87257e-07 -1.612e-05 -3.36825e-07
-1.8681e-07 -3.36825e-07 -5.29923e-05
0.00100718 -4.3255e-06 -1.12125e-06
-4.3255e-06 -2.87443e-05 -2.61998e-06
-1.12125e-06 -2.61998e-06 -2.32164e-05
0.000938146 -2.64045e-06 -1.62471e-07
-2.64045e-06 -5.37425e-05 -5.03898e-07
-1.62471e-07 -5.03898e-07 -7.37006e-05
0.00116426 -1.99043e-06 2.55237e-07
-1.99043e-06 6.08016e-05 5.12832e-07
2.55237e-07 5.12832e-07 2.53924e-05
0.00217778 -4.26694e-06 -1.66959e-06
-4.26694e-06 0.000530734 -3.44703e-06
-1.66959e-06 -3.44703e-06 0.000556957
0.000999958 -3.29605e-06 -5.25738e-08
-3.29605e-06 -3.4382e-05 2.73261e-09
-5.25738e-08 2.73261e-09 -2.79429e-05
0.000813999 -2.12919e-06 3.69499e-07
-2.12919e-06 -0.000115285 1.085e-06
3.69499e-07 1.085e-06 -0.000134738
0.00218192 -2.80174e-06 -1.49877e-07
-2.80174e-06 0.000530744 1.04902e-08
-1.49877e-07 1.04902e-08 0.000557361
0.000996609 -2.17164e-06 4.88801e-07
-2.17164e-06 -3.76176e-05 2.75864e-06
4.88801e-07 2.75864e-06 -3.05115e-05
0.00218316 -1.34698e-06 3.66345e-07
-1.34698e-06 0.0005303 3.5157e-06
3.66345e-07 3.5157e-06 0.000557127
0.000695481 9.55113e-07 -3.67762e-07
9.55113e-07 5.74722e-05 -2.08522e-06
-3.67762e-07 -2.08522e-06 -1.88453e-05
0.000886008 -5.73873e-06 6.17201e-07
-5.73873e-06 0.000209912 -3.39844e-07
6.17201e-07 -3.39844e-07 0.000126525
0.000931913 2.58412e-06 -1.10565e-05
2.58412e-06 0.000336472 5.04497e-06
-1.10565e-05 5.04497e-06 0.00027455
0.00103141 2.99047e-06 -5.29172e-07
2.99047e-06 -5.21443e-06 -3.344e-07
-5.29172e-07 -3.344e-07 -5.17209e-05
0.00121513 5.83485e-06 -2.55512e-07
5.83485e-06 8.24147e-05 1.70972e-07
-2.55512e-07 1.70972e-07 3.23207e-05
0.00118122 3.28945e-06 2.60006e-07
3.28945e-06 6.95087e-05 5.0294e-07
2.60006e-07 5.0294e-07 2.25233e-05
0.00102237 3.77794e-06 4.12328e-09
3.77794e-06 -9.11627e-06 9.55542e-10
4.12328e-09 9.55542e-10 -5.67669e-05
0.00115438 3.17425e-06 1.31999e-07
3.17425e-06 5.86737e-05 2.69937e-07
1.31999e-07 2.69937e-07 3.87656e-06
0.00118395 6.50845e-06 -2.40601e-07
6.50845e-06 7.04945e-05 -3.29322e-08
-2.40601e-07 -3.29322e-08 1.62658e-05
0.00114978 6.50593e-06 -1.18857e-08
6.50593e-06 5.69229e-05 3.91354e-07
-1.18857e-08 3.91354e-07 -1.97447e-06
0.000816283 4.6417e-06 -7.65247e-06
4.6417e-06 0.000203735 -6.89857e-06
-7.65247e-06 -6.89857e-06 0.000154558
0.000637232 7.54112e-07 7.35935e-07
7.54112e-07 7.05364e-05 -2.18679e-06
7.35935e-07 -2.18679e-06 1.00174e-05
0.00109717 -6.31593e-06 -4.59788e-06
-6.31593e-06 0.00037516 4.24405e-06
-4.59788e-06 4.24405e-06 0.000322321
0.000852252 2.21069e-06 2.71704e-07
2.21069e-06 0.000271587 2.70862e-07
2.71704e-07 2.70862e-07 0.000232162
0.00202531 -4.59915e-05 -3.07009e-05
-4.59915e-05 0.000269552 4.07048e-05
-3.07009e-05 4.07048e-05 5.64453e-05
0.00245725 7.30668e-05 4.02112e-05
7.30668e-05 0.000201351 -6.91487e-05
4.02112e-05 -6.91487e-05 -0.000118527
0.00360851 8.05879e-05 1.29854e-06
8.05879e-05 0.000456588 -1.60014e-05
1.29854e-06 -1.60014e-05 0.000602283
0.000315484 -3.9218e-05 -1.11249e-05
-3.9218e-05 -0.000245768 1.48314e-05
-1.11249e-05 1.48314e-05 -0.00043288
0.00345273 3.04845e-05 -1.90292e-06
3.04845e-05 8.9194e-05 -1.89059e-05
-1.90292e-06 -1.89059e-05 -0.000167512
0.0044349 7.49302e-06 -6.89505e-06
7.49302e-06 0.000544881 -1.26953e-07
-6.89505e-06 -1.26953e-07 0.000862797
0.000307491 -5.19581e-06 3.02483e-06
-5.19581e-06 -9.41105e-05 2.68743e-06
3.02483e-06 2.68743e-06 -9.79117e-05
0.000637555 -2.41119e-05 -2.68799e-07
-2.41119e-05 0.000124221 -5.28093e-06
-2.68799e-07 -5.28093e-06 -3.67239e-05
0.00180841 3.60681e-06 5.22635e-07
3.60681e-06 -0.000582074 -3.47347e-05
5.22635e-07 -3.47347e-05 -0.00101705
0.000340125 -6.57429e-05 -6.49229e-06
-6.57429e-05 -0.000688689 3.3009e-05
-6.49229e-06 3.3009e-05 -0.000556186
-0.000206296 -1.87081e-05 -1.15924e-05
-1.87081e-05 -0.00038707 -2.70527e-06
-1.15924e-05 -2.70527e-06 -0.000351688
0.00114523 7.57969e-06 -1.14896e-06
7.57969e-06 6.05044e-05 -1.51124e-08
-1.14896e-06 -1.51124e-08 -5.68147e-06
0.0011682 2.32629e-06 -3.51921e-08
2.32629e-06 6.81528e-05 -4.9267e-08
-3.51921e-08 -4.9267e-08 5.41552e-06
0.00112161 -2.80303e-06 1.15366e-07
-2.80303e-06 4.65004e-05 -1.46295e-07
1.15366e-07 -1.46295e-07 -1.50859e-05
0.00114117 2.23246e-06 3.37773e-08
2.23246e-06 5.3846e-05 -2.5758e-07
3.37773e-08 -2.5758e-07 -1.33945e-06
0.000557166 -1.63162e-05 1.92396e-06
-1.63162e-05 -0.000249923 -4.61758e-06
1.92396e-06 -4.61758e-06 -0.000336934
0.00123532 3.12015e-06 1.248e-06
3.12015e-06 0.00013326 -3.82635e-07
1.248e-06 -3.82635e-07 4.70103e-05
0.00117539 -8.56189e-07 2.03216e-07
-8.56189e-07 7.75964e-05 4.04392e-07
2.03216e-07 4.04392e-07 8.61867e-06
0.00107942 -2.12889e-07 -2.65614e-07
-2.12889e-07 3.00288e-05 1.79944e-07
-2.65614e-07 1.79944e-07 -4.33144e-05
0.00121218 -5.14183e-06 -1.72048e-07
-5.14183e-06 9.46076e-05 -1.27034e-06
-1.72048e-07 -1.27034e-06 2.17715e-05
0.00113604 3.05816e-06 -1.51828e-07
3.05816e-06 5.93325e-05 -3.98926e-08
-1.51828e-07 -3.98926e-08 -1.38467e-05
0.00114561 -4.28562e-06 -3.39563e-07
-4.28562e-06 6.4046e-05 -2.00626e-07
-3.39563e-07 -2.00626e-07 -1.47955e-05
0.000932417 -3.01489e-06 4.79866e-07
-3.01489e-06 6.94386e-05 1.04636e-07
4.79866e-07 1.04636e-07 -2.39196e-05
0.00107828 -1.08019e-06 8.91357e-07
-1.08019e-06 3.44863e-05 -2.68961e-07
8.91357e-07 -2.68961e-07 -3.84052e-05
0.0011328 4.06084e-06 -1.81239e-07
4.06084e-06 6.15978e-05 2.3818e-07
-1.81239e-07 2.3818e-07 -1.66996e-05
0.000845819 2.87046e-07 -1.11153e-06
2.87046e-07 0.000111046 1.62705e-05
-1.11153e-06 1.62705e-05 4.0678e-05
0.00121304 -3.93649e-06 1.98359e-06
-3.93649e-06 9.49894e-05 -8.22933e-07
1.98359e-06 -8.22933e-07 6.07382e-06
0.00120325 1.11375e-06 -1.89833e-06
1.11375e-06 0.00039809 4.79202e-07
-1.89833e-06 4.79202e-07 0.000309106
0.000741483 8.61934e-07 -2.58832e-07
8.61934e-07 7.47842e-05 2.80532e-07
-2.58832e-07 2.80532e-07 -7.55694e-06
0.000334826 -3.69072e-07 -4.97527e-07
-3.69072e-07 -0.000141822 1.77637e-07
-4.97527e-07 1.77637e-07 -0.000235314
0.00128034 -9.2194e-06 8.15091e-07
-9.2194e-06 0.000122415 3.52155e-06
8.15091e-07 3.52155e-06 6.12053e-05
0.000770138 4.1728e-06 -1.45284e-07
4.1728e-06 0.000192537 5.02188e-06
-1.45284e-07 5.02188e-06 8.72188e-05
0.000762438 2.40097e-06 1.28685e-06
2.40097e-06 9.88513e-05 -2.98437e-07
1.28685e-06 -2.98437e-07 2.25186e-05
0.00221629 3.45154e-05 -2.31598e-06
3.45154e-05 -0.000246579 -5.91568e-06
-2.31598e-06 -5.91568e-06 -0.000650163
0.00367898 7.80331e-05 -1.8018e-06
7.80331e-05 0.000457543 1.43674e-05
-1.8018e-06 1.43674e-05 0.000678524
0.00108224 -4.1568e-06 4.81611e-06
-4.1568e-06 0.00035428 -4.66452e-06
4.81611e-06 -4.66452e-06 0.00030986
0.0016012 1.27005e-05 1.33132e-05
1.27005e-05 0.00072964 -5.89661e-06
1.33132e-05 -5.89661e-06 0.000785899
0.00101909 8.36329e-07 3.98042e-07
8.36329e-07 5.73159e-05 3.41909e-07
3.98042e-07 3.41909e-07 1.92138e-05
0.000878909 -3.97691e-06 -4.70189e-07
-3.97691e-06 0.000201757 2.19315e-07
-4.70189e-07 2.19315e-07 0.000125698
0.000659277 8.07045e-06 -3.44229e-06
8.07045e-06 0.000163363 6.03714e-07
-3.44229e-06 6.03714e-07 0.000151827
0.000834819 -1.41757e-07 -3.21711e-07
-1.41757e-07 0.000360709 3.56534e-06
-3.21711e-07 3.56534e-06 0.000152036
0.000179932 3.33856e-05 4.9575e-06
3.33856e-05 -0.000111329 -4.25251e-06
4.9575e-06 -4.25251e-06 -3.4711e-05
-0.000979241 9.09585e-05 -4.22022e-06
9.09585e-05 -0.0010592 -5.92273e-06
-4.22022e-06 -5.92273e-06 -0.00103391
0.0016436 3.05862e-05 5.98573e-06
3.05862e-05 -0.000522931 -1.10196e-05
5.98573e-06 -1.10196e-05 -0.000791021
0.0011906 5.18689e-06 4.11225e-06
5.18689e-06 0.000202935 -7.99006e-06
4.11225e-06 -7.99006e-06 0.000148209
0.000717257 1.53857e-06 -1.03761e-05
1.53857e-06 0.000200743 4.88276e-06
-1.03761e-05 4.88276e-06 0.000144188
-0.00174879 2.97254e-05 -1.55328e-05
2.97254e-05 -0.00123304 7.47202e-06
-1.55328e-05 7.47202e-06 -0.0011974
-0.000705047 6.67504e-05 2.56607e-05
6.67504e-05 -0.00014071 -3.31177e-05
2.56607e-05 -3.31177e-05 -9.60683e-05
0.004252 6.56561e-05 1.82502e-05
6.56561e-05 0.000586491 -2.23944e-05
1.82502e-05 -2.23944e-05 0.000296917
0.00215424 -4.82077e-05 -3.47282e-06
-4.82077e-05 0.000646366 3.25105e-05
-3.47282e-06 3.25105e-05 0.000312885
0.00116589 1.76719e-07 5.26053e-07
1.76719e-07 7.80224e-05 -3.35809e-07
5.26053e-07 -3.35809e-07 1.82748e-05
0.00109645 3.44007e-06 -2.54662e-08
3.44007e-06 7.83587e-05 -1.04914e-07
-2.54662e-08 -1.04914e-07 3.84985e-06
0.00103882 -7.64341e-06 1.74881e-06
-7.64341e-06 6.97212e-05 1.14152e-07
1.74881e-06 1.14152e-07 -2.48918e-05
0.00114587 -3.85345e-06 -6.14989e-07
-3.85345e-06 7.27453e-05 7.21485e-07
-6.14989e-07 7.21485e-07 4.83916e-06
0.00100367 -9.05233e-06 2.31157e-07
-9.05233e-06 1.86905e-05 3.3805e-07
2.31157e-07 3.3805e-07 -6.22728e-05
0.0013107 -1.48456e-05 1.35857e-07
-1.48456e-05 0.000144175 1.85386e-08
1.35857e-07 1.85386e-08 5.6678e-05
0.0013526 -1.06078e-05 -2.05193e-07
-1.06078e-05 0.000162622 1.27518e-07
-2.05193e-07 1.27518e-07 9.0935e-05
0.00125319 -1.2087e-05 -1.44393e-07
-1.2087e-05 0.00011442 2.31317e-07
-1.44393e-07 2.31317e-07 3.7996e-05
0.00125184 -1.30946e-05 -4.01448e-07
-1.30946e-05 9.87859e-05 -8.40307e-07
-4.01448e-07 -8.40307e-07 2.38349e-05
0.00116171 -1.00668e-05 -1.88129e-07
-1.00668e-05 6.38426e-05 -1.72405e-07
-1.88129e-07 -1.72405e-07 -5.05509e-06
0.00126178 -1.1199e-05 -4.89354e-08
-1.1199e-05 0.000105308 -1.73854e-08
-4.89354e-08 -1.73854e-08 3.48014e-05
0.00126776 -1.11521e-05 -3.55444e-08
-1.11521e-05 9.42746e-05 -1.09989e-06
-3.55444e-08 -1.09989e-06 2.72334e-05
0.00124276 -9.81897e-06 2.49683e-09
-9.81897e-06 7.26024e-05 -1.1153e-06
2.49683e-09 -1.1153e-06 1.09753e-05
0.0012776 -9.97157e-06 -3.469e-07
-9.97157e-06 0.000108728 3.54863e-07
-3.469e-07 3.54863e-07 4.62736e-05
0.00121502 -1.04714e-05 -9.38611e-08
-1.04714e-05 7.69926e-05 -6.09924e-08
-9.38611e-08 -6.09924e-08 1.09109e-05
0.00103525 -7.46232e-06 -2.38646e-07
-7.46232e-06 5.80443e-06 1.32824e-07
-2.38646e-07 1.32824e-07 -5.01094e-05
0.0011219 -8.46578e-06 1.39465e-07
-8.46578e-06 4.52694e-05 -1.17112e-08
1.39465e-07 -1.17112e-08 -1.47472e-05
0.00111491 -9.4704e-06 -2.94938e-08
-9.4704e-06 3.86268e-05 -1.70382e-07
-2.94938e-08 -1.70382e-07 -2.65787e-05
0.00111905 -3.67448e-07 -3.76148e-07
-3.67448e-07 4.90847e-05 3.18274e-07
-3.76148e-07 3.18274e-07 3.98453e-07
0.00116024 -5.81355e-06 8.39697e-08
-5.81355e-06 6.79621e-05 -2.34239e-07
8.39697e-08 -2.34239e-07 1.39834e-05
0.00109052 -7.24078e-06 7.03953e-07
-7.24078e-06 3.53598e-05 -4.73878e-07
7.03953e-07 -4.73878e-07 -2.16071e-05
0.00106162 4.59692e-06 -8.99555e-07
4.59692e-06 2.02665e-05 6.22762e-07
-8.99555e-07 6.22762e-07 -1.66498e-05
0.00105085 2.58203e-06 -9.8831e-08
2.58203e-06 1.73488e-05 2.18647e-07
-9.8831e-08 2.18647e-07 -2.986e-05
0.00121086 -3.17453e-06 2.86751e-07
-3.17453e-06 9.48379e-05 -2.53603e-07
2.86751e-07 -2.53603e-07 4.23484e-05
0.0010252 5.51192e-06 -1.50089e-06
5.51192e-06 -2.40527e-06 1.13139e-06
-1.50089e-06 1.13139e-06 -2.2904e-05
0.00108132 3.50962e-06 -3.88021e-08
3.50962e-06 2.46881e-05 -1.36323e-08
-3.88021e-08 -1.36323e-08 -1.11107e-05
0.00112909 -5.21604e-07 4.80702e-07
-5.21604e-07 4.74713e-05 -2.71557e-07
4.80702e-07 -2.71557e-07 1.76612e-06
0.00100018 8.35152e-06 -2.63563e-06
8.35152e-06 -1.94367e-05 3.19336e-06
-2.63563e-06 3.19336e-06 -1.60607e-05
0.00103597 4.85912e-06 4.77584e-08
4.85912e-06 -1.22698e-07 2.43947e-08
4.77584e-08 2.43947e-08 -2.04794e-05
0.00108252 2.83186e-06 1.01033e-06
2.83186e-06 2.28174e-05 -6.17806e-07
1.01033e-06 -6.17806e-07 -1.31073e-05
0.0010437 4.33524e-06 1.27995e-06
4.33524e-06 1.66965e-06 -1.30371e-06
1.27995e-06 -1.30371e-06 -1.87112e-05
0.000976892 7.40784e-06 6.61861e-08
7.40784e-06 -3.44998e-05 2.08293e-08
6.61861e-08 2.08293e-08 -3.05343e-05
0.00225557 9.69203e-06 -2.96644e-06
9.69203e-06 0.000580549 3.17274e-06
-2.96644e-06 3.17274e-06 0.000604381
0.000991375 6.37862e-06 1.64738e-06
6.37862e-06 -3.10517e-05 -2.41288e-06
1.64738e-06 -2.41288e-06 -2.67305e-05
0.00222632 8.37339e-06 9.05489e-08
8.37339e-06 0.000562949 2.35792e-08
9.05489e-08 2.35792e-08 0.000587424
0.00220995 7.0317e-06 2.48903e-06
7.0317e-06 0.000551929 -3.30437e-06
2.48903e-06 -3.30437e-06 0.000576925
0.00112827 2.44121e-06 -6.15325e-07
2.44121e-06 4.11244e-05 -2.36646e-07
-6.15325e-07 -2.36646e-07 -3.94679e-06
0.00107974 -1.31129e-06 -7.9404e-07
-1.31129e-06 1.93494e-05 -7.2779e-07
-7.9404e-07 -7.2779e-07 -1.62981e-05
0.00104195 -3.31946e-06 -1.1053e-06
-3.31946e-06 -1.30018e-06 -1.35838e-06
-1.1053e-06 -1.35838e-06 -2.13703e-05
0.00108312 -1.47098e-07 -3.46389e-09
-1.47098e-07 2.06811e-05 1.03815e-08
-3.46389e-09 1.03815e-08 -1.53779e-05
0.00100019 -5.28745e-06 -1.39921e-06
-5.28745e-06 -2.96814e-05 -2.51946e-06
-1.39921e-06 -2.51946e-06 -2.48471e-05
0.00104649 -2.91949e-06 -7.00322e-08
-2.91949e-06 -2.71369e-07 2.51447e-08
-7.00322e-08 2.51447e-08 -2.0192e-05
0.00108545 -6.13481e-07 3.75017e-07
-6.13481e-07 2.26366e-05 4.88651e-07
3.75017e-07 4.88651e-07 -1.38238e-05
0.00219146 -5.6543e-06 -2.10271e-06
-5.6543e-06 0.000539784 -3.39856e-06
-2.10271e-06 -3.39856e-06 0.000565459
0.000996139 -4.34464e-06 -7.34456e-08
-4.34464e-06 -3.40571e-05 8.08079e-09
-7.34456e-08 8.08079e-09 -2.84535e-05
0.00104106 -2.66882e-06 4.97042e-07
-2.66882e-06 -3.99912e-06 1.04578e-06
4.97042e-07 1.04578e-06 -2.33306e-05
0.00219301 -4.22353e-06 -1.30456e-07
-4.22353e-06 0.000537779 1.48938e-08
-1.30456e-07 1.48938e-08 0.000564006
0.000990428 -3.31185e-06 7.31889e-07
-3.31185e-06 -3.89953e-05 2.70495e-06
7.31889e-07 2.70495e-06 -3.24804e-05
0.00219491 -2.75376e-06 9.54824e-07
-2.75376e-06 0.000536821 3.50258e-06
9.54824e-07 3.50258e-06 0.000563419
0.000732884 5.65979e-06 -3.06965e-06
5.65979e-06 0.000110956 -3.03151e-06
-3.06965e-06 -3.03151e-06 3.08194e-05
0.000767777 2.48222e-07 -7.25636e-08
2.48222e-07 0.000102827 -1.54255e-06
-7.25636e-08 -1.54255e-06 2.41637e-05
0.00100554 -5.88325e-06 -1.58841e-06
-5.88325e-06 0.000285113 1.84306e-06
-1.58841e-06 1.84306e-06 0.000201096
0.00107097 3.03015e-06 3.5296e-09
3.03015e-06 1.44433e-05 1.11298e-08
3.5296e-09 1.11298e-08 -3.17547e-05
0.00115582 5.66384e-06 2.38182e-07
5.66384e-06 5.36026e-05 1.59346e-07
2.38182e-07 1.59346e-07 3.12724e-06
0.00105769 2.6813e-06 -2.59933e-07
2.6813e-06 8.5317e-06 -3.61012e-07
-2.59933e-07 -3.61012e-07 -4.176e-05
0.00108237 6.01825e-06 -5.94769e-07
6.01825e-06 1.94186e-05 -2.31925e-07
-5.94769e-07 -2.31925e-07 -3.27876e-05
0.00122717 6.89001e-06 4.25056e-08
6.89001e-06 8.66614e-05 3.59014e-07
4.25056e-08 3.59014e-07 3.33101e-05
0.00101277 3.64226e-06 5.48507e-07
3.64226e-06 -1.3544e-05 4.40125e-07
5.48507e-07 4.40125e-07 -6.10703e-05
0.00110404 4.40718e-06 2.83067e-07
4.40718e-06 3.42352e-05 3.74156e-07
2.83067e-07 3.74156e-07 -2.11852e-05
0.001171 6.5381e-06 5.90788e-09
6.5381e-06 6.42023e-05 -5.01862e-09
5.90788e-09 -5.01862e-09 1.00298e-05
0.00113935 6.02926e-06 2.04026e-07
6.02926e-06 5.153e-05 2.79482e-07
2.04026e-07 2.79482e-07 -6.99522e-06
0.00121234 7.3686e-06 -2.63489e-07
7.3686e-06 8.59674e-05 2.37706e-07
-2.63489e-07 2.37706e-07 2.71051e-05
0.00075147 -1.17697e-05 -1.18158e-05
-1.17697e-05 0.000225859 -1.42895e-05
-1.18158e-05 -1.42895e-05 0.000201065
0.000530532 4.38542e-06 -1.2587e-06
4.38542e-06 2.68457e-05 -1.72016e-06
-1.2587e-06 -1.72016e-06 -2.35803e-05
0.000758707 7.44139e-07 -4.26821e-07
7.44139e-07 0.000139701 6.79143e-07
-4.26821e-07 6.79143e-07 7.43223e-05
-3.81157e-05 -3.15073e-06 9.68837e-06
-3.15073e-06 -0.000301543 4.89162e-06
9.68837e-06 4.89162e-06 -0.000314274
0.000640188 7.67217e-06 -9.75955e-07
7.67217e-06 -0.00094687 -3.14602e-05
-9.75955e-07 -3.14602e-05 -0.000720395
0.00174307 -4.59454e-05 -1.77742e-05
-4.59454e-05 0.000325779 5.27634e-05
-1.77742e-05 5.27634e-05 8.37341e-05
0.00477104 4.49676e-05 1.18433e-05
4.49676e-05 0.000685035 -2.35454e-05
1.18433e-05 -2.35454e-05 0.000439704
0.000523215 -3.45603e-05 -1.07105e-06
-3.45603e-05 -1.73415e-05 6.8718e-06
-1.07105e-06 6.8718e-06 -0.000318733
0.00607435 1.00401e-05 1.9527e-06
1.00401e-05 0.00068976 1.55962e-06
1.9527e-06 1.55962e-06 0.00100206
0.00285713 -8.52881e-05 -1.64898e-06
-8.52881e-05 0.000463975 -1.32846e-06
-1.64898e-06 -1.32846e-06 0.000485986
-0.000761423 -2.19498e-05 -1.31739e-06
-2.19498e-05 -0.00074131 3.83622e-06
-1.31739e-06 3.83622e-06 -0.000685606
-0.000216541 -1.3701e-05 1.17757e-06
-1.3701e-05 -0.000177768 -1.9024e-05
1.17757e-06 -1.9024e-05 -0.000614774
0.00447437 -5.20664e-05 2.20632e-05
-5.20664e-05 0.000662515 4.61117e-05
2.20632e-05 4.61117e-05 0.000352249
0.00262367 -0.000123881 5.3781e-07
-0.000123881 0.000660207 1.76274e-05
5.3781e-07 1.76274e-05 0.000627098
0.000856938 -3.78837e-05 -6.22334e-06
-3.78837e-05 0.000279499 -3.70204e-06
-6.22334e-06 -3.70204e-06 0.000358773
0.00112808 9.82212e-06 -4.03892e-07
9.82212e-06 5.59433e-05 8.10364e-07
-4.03892e-07 8.10364e-07 -8.30848e-06
0.00116347 7.59484e-06 -3.28501e-07
7.59484e-06 6.89079e-05 -1.7161e-07
-3.28501e-07 -1.7161e-07 3.27335e-06
0.00118442 8.30732e-07 2.16249e-07
8.30732e-07 7.63366e-05 -2.0612e-07
2.16249e-07 -2.0612e-07 1.33167e-05
0.000415322 -1.47056e-06 4.07775e-06
-1.47056e-06 -0.000134444 -6.29819e-06
4.07775e-06 -6.29819e-06 -0.000217944
0.00106031 -2.17823e-06 3.75183e-07
-2.17823e-06 2.53527e-05 -1.45605e-06
3.75183e-07 -1.45605e-06 -4.55863e-05
0.00120334 3.51469e-06 2.51756e-07
3.51469e-06 9.21727e-05 3.82758e-08
2.51756e-07 3.82758e-08 1.97855e-05
0.00115018 -2.89797e-06 -3.92918e-07
-2.89797e-06 6.62083e-05 -3.3864e-07
-3.92918e-07 -3.3864e-07 -1.28993e-05
0.00116838 3.93711e-06 4.8232e-07
3.93711e-06 8.06192e-05 2.31883e-08
4.8232e-07 2.31883e-08 2.36084e-06
0.00118306 -3.28791e-06 1.13714e-07
-3.28791e-06 8.25084e-05 -7.50803e-07
1.13714e-07 -7.50803e-07 -6.6016e-06
0.000698553 2.14488e-08 -1.63946e-07
2.14488e-08 4.05682e-05 5.84919e-06
-1.63946e-07 5.84919e-06 -3.05741e-05
0.00104084 1.00995e-05 -1.52457e-06
1.00995e-05 3.12317e-05 3.39334e-08
-1.52457e-06 3.39334e-08 -5.28051e-05
0.000885049 8.90677e-06 3.403e-06
8.90677e-06 9.44952e-05 1.28336e-05
3.403e-06 1.28336e-05 1.17839e-05
0.00159998 -2.97094e-06 -1.14537e-05
-2.97094e-06 0.000752443 -6.75738e-07
-1.14537e-05 -6.75738e-07 0.000682175
0.000745029 5.34652e-07 -4.43639e-07
5.34652e-07 0.00011073 -3.70728e-07
-4.43639e-07 -3.70728e-07 2.17948e-05
0.000507654 -2.07605e-07 2.12584e-07
-2.07605e-07 -6.96441e-05 -2.25499e-07
2.12584e-07 -2.25499e-07 -0.000151314
0.00087224 -9.19331e-07 9.55548e-07
-9.19331e-07 -3.01284e-05 7.75948e-06
9.55548e-07 7.75948e-06 -6.71641e-05
-1.84426e-05 2.23201e-05 5.47823e-07
2.23201e-05 -5.24431e-05 -7.92444e-06
5.47823e-07 -7.92444e-06 -0.000554006
0.000990323 -3.95263e-06 1.78064e-06
-3.95263e-06 0.000271735 -2.17796e-06
1.78064e-06 -2.17796e-06 0.000195176
0.0061176 2.66691e-05 -1.1564e-05
2.66691e-05 0.00118315 4.53393e-06
-1.1564e-05 4.53393e-06 0.000868898
0.0029498 0.000111246 -6.87987e-06
0.000111246 0.000855887 1.95972e-05
-6.87987e-06 1.95972e-05 0.00081363
0.000904178 8.19645e-06 1.02747e-05
8.19645e-06 0.000318079 -1.06796e-05
1.02747e-05 -1.06796e-05 0.000307766
0.000160994 3.3125e-05 1.36989e-05
3.3125e-05 -0.000125164 -9.28262e-06
1.36989e-05 -9.28262e-06 -4.7483e-05
0.000859223 4.44074e-06 -7.7369e-07
4.44074e-06 4.8205e-05 -7.22439e-07
-7.7369e-07 -7.22439e-07 -8.12958e-06
0.000776459 1.7146e-06 1.9313e-07
1.7146e-06 0.000235955 -5.0357e-07
1.9313e-07 -5.0357e-07 0.000179985
-0.00103031 3.10093e-05 2.72165e-06
3.10093e-05 -0.000796275 -4.41216e-07
2.72165e-06 -4.41216e-07 -0.000756246
0.000635815 -3.69104e-05 -2.75994e-07
-3.69104e-05 0.000125595 1.00691e-05
-2.75994e-07 1.00691e-05 -0.000199425
0.00159977 8.83752e-05 -8.64917e-07
8.83752e-05 0.000469995 -2.56035e-06
-8.64917e-07 -2.56035e-06 0.000439712
0.00351803 4.90955e-05 2.80467e-06
4.90955e-05 0.000335067 -9.90067e-07
2.80467e-06 -9.90067e-07 -0.000136911
0.000908006 -1.13714e-05 4.84097e-06
-1.13714e-05 6.34639e-05 -6.21727e-06
4.84097e-06 -6.21727e-06 -2.46254e-05
-0.0015926 1.70214e-05 -1.45325e-05
1.70214e-05 -0.00111304 4.68981e-06
-1.45325e-05 4.68981e-06 -0.00111115
0.00183742 5.96849e-05 1.34606e-05
5.96849e-05 0.000952124 -7.92399e-06
1.34606e-05 -7.92399e-06 0.000948752
0.00152699 3.06418e-05 1.82372e-05
3.06418e-05 -0.000327052 -1.9912e-05
1.82372e-05 -1.9912e-05 -0.000682261
0.000594421 -4.23939e-05 -9.77794e-06
-4.23939e-05 -0.000122477 2.45922e-05
-9.77794e-06 2.45922e-05 -0.00028298
0.00114807 3.22052e-06 -1.19466e-06
3.22052e-06 9.96317e-05 1.61565e-07
-1.19466e-06 1.61565e-07 2.5618e-05
0.00107268 -6.45223e-06 9.94699e-10
-6.45223e-06 8.51129e-05 1.23057e-07
9.94699e-10 1.23057e-07 -9.36839e-06
0.00155112 -1.93758e-05 3.91288e-07
-1.93758e-05 0.00028568 -3.73805e-07
3.91288e-07 -3.73805e-07 0.000187895
0.000975736 -8.5651e-06 -6.31428e-07
-8.5651e-06 6.54148e-06 3.8362e-07
-6.31428e-07 3.8362e-07 -7.29715e-05
0.00119367 -1.3965e-05 -3.66662e-08
-1.3965e-05 9.34761e-05 -7.85728e-08
-3.66662e-08 -7.85728e-08 6.31436e-06
0.00132929 -1.65246e-05 -7.35575e-07
-1.65246e-05 0.000113273 -2.23085e-06
-7.35575e-07 -2.23085e-06 3.71861e-05
0.00123159 -1.20918e-05 -2.01761e-07
-1.20918e-05 0.000103788 -5.30485e-08
-2.01761e-07 -5.30485e-08 2.65592e-05
0.00118639 -1.27167e-05 -8.16507e-08
-1.27167e-05 6.80545e-05 -5.21322e-07
-8.16507e-08 -5.21322e-07 -6.3169e-06
0.00131494 -1.20733e-05 -1.86697e-07
-1.20733e-05 0.000100685 -1.86492e-06
-1.86697e-07 -1.86492e-06 3.79792e-05
0.00118463 -1.09286e-05 -2.41776e-07
-1.09286e-05 6.87427e-05 3.54897e-08
-2.41776e-07 3.54897e-08 -2.1461e-06
0.00119429 -1.07313e-05 2.60979e-08
-1.07313e-05 5.94195e-05 -3.74339e-07
2.60979e-08 -3.74339e-07 -7.07047e-06
0.00126342 -9.35811e-06 2.38594e-07
-9.35811e-06 6.78836e-05 -1.69054e-06
2.38594e-07 -1.69054e-06 1.13825e-05
0.00124855 -7.97037e-06 4.85777e-07
-7.97037e-06 6.13787e-05 -9.89405e-07
4.85777e-07 -9.89405e-07 6.20462e-06
0.00120374 -9.68611e-06 -1.094e-07
-9.68611e-06 6.15853e-05 -4.71136e-07
-1.094e-07 -4.71136e-07 -1.42117e-07
0.00119716 -9.49655e-06 3.43935e-08
-9.49655e-06 5.0615e-05 -2.34976e-07
3.43935e-08 -2.34976e-07 -1.06431e-05
0.00117168 -8.60773e-06 -3.07914e-07
-8.60773e-06 6.3429e-05 3.63068e-07
-3.07914e-07 3.63068e-07 5.0986e-06
0.00118737 -9.75592e-06 -1.39889e-07
-9.75592e-06 6.72204e-05 1.0749e-07
-1.39889e-07 1.0749e-07 4.10655e-06
0.00115684 -1.02771e-05 -1.52439e-07
-1.02771e-05 4.98453e-05 1.49345e-07
-1.52439e-07 1.49345e-07 -1.65646e-05
0.00109921 -3.67529e-06 -5.23495e-07
-3.67529e-06 3.7153e-05 1.69439e-07
-5.23495e-07 1.69439e-07 -1.23516e-05
0.00107552 -7.50178e-06 -4.38277e-08
-7.50178e-06 2.49484e-05 -1.40016e-07
-4.38277e-08 -1.40016e-07 -3.04414e-05
0.00116787 -8.52361e-06 3.64872e-07
-8.52361e-06 6.71147e-05 -4.12829e-07
3.64872e-07 -4.12829e-07 7.59869e-06
0.00105992 4.96101e-06 -8.99853e-07
4.96101e-06 2.1818e-05 6.67605e-07
-8.99853e-07 6.67605e-07 -1.68906e-05
0.00106896 -1.5479e-07 7.52202e-08
-1.5479e-07 2.55259e-05 7.86863e-08
7.52202e-08 7.86863e-08 -2.32819e-05
0.00109049 -5.62219e-06 4.08549e-07
-5.62219e-06 3.48565e-05 -2.64794e-07
4.08549e-07 -2.64794e-07 -1.96079e-05
0.00101255 6.17298e-06 -1.54622e-06
6.17298e-06 -4.30365e-06 1.07436e-06
-1.54622e-06 1.07436e-06 -2.56464e-05
0.00107538 4.67151e-06 -8.74612e-09
4.67151e-06 2.65849e-05 -3.0353e-08
-8.74612e-09 -3.0353e-08 -1.03581e-05
0.00109888 2.25509e-06 2.90782e-07
2.25509e-06 3.98677e-05 -1.00956e-07
2.90782e-07 -1.00956e-07 -6.87229e-06
0.00147921 9.62335e-06 -2.62278e-06
9.62335e-06 0.000215995 2.12801e-06
-2.62278e-06 2.12801e-06 0.000221499
0.00103147 5.51739e-06 1.51848e-08
5.51739e-06 5.32991e-07 8.62436e-09
1.51848e-08 8.62436e-09 -1.99744e-05
0.00108638 3.55694e-06 9.37994e-07
3.55694e-06 2.70178e-05 -6.13062e-07
9.37994e-07 -6.13062e-07 -8.77463e-06
0.00119451 1.04031e-05 -3.07238e-06
1.04031e-05 7.24135e-05 2.90681e-06
-3.07238e-06 2.90681e-06 9.08518e-05
0.00124369 8.49034e-06 -4.72467e-07
8.49034e-06 9.8265e-05 5.17145e-07
-4.72467e-07 5.17145e-07 0.000102945
0.00103845 4.86884e-06 1.45047e-06
4.86884e-06 1.02722e-06 -1.18735e-06
1.45047e-06 -1.18735e-06 -1.93172e-05
0.000985227 7.39885e-06 1.89144e-06
7.39885e-06 -3.0515e-05 -2.30306e-06
1.89144e-06 -2.30306e-06 -2.65815e-05
0.00222297 9.733e-06 9.16421e-08
9.733e-06 0.000565371 2.91244e-08
9.16421e-08 2.91244e-08 0.000589283
0.00219881 8.41752e-06 2.80788e-06
8.41752e-06 0.00055019 -3.22409e-06
2.80788e-06 -3.22409e-06 0.00057473
0.00105323 9.39338e-07 -6.25645e-07
9.39338e-07 6.1971e-06 -4.63538e-07
-6.25645e-07 -4.63538e-07 -3.90025e-05
0.00108032 -2.09551e-06 -9.14152e-07
-2.09551e-06 1.9828e-05 -6.39546e-07
-9.14152e-07 -6.39546e-07 -1.54904e-05
0.00109012 2.30045e-06 -2.90025e-08
2.30045e-06 2.28466e-05 2.6193e-08
-2.90025e-08 2.6193e-08 -2.2434e-05
0.0010392 -3.91415e-06 -1.23937e-06
-3.91415e-06 -1.22132e-06 -1.28913e-06
-1.23937e-06 -1.28913e-06 -2.12807e-05
0.00108302 -1.18268e-06 -1.99205e-08
-1.18268e-06 2.08635e-05 4.88009e-09
-1.99205e-08 4.88009e-09 -1.48017e-05
0.000991643 -6.25182e-06 -1.65143e-06
-6.25182e-06 -3.10376e-05 -2.40706e-06
-1.65143e-06 -2.40706e-06 -2.66749e-05
0.00104207 -3.307e-06 -3.35374e-08
-3.307e-06 -1.20524e-06 1.94094e-08
-3.35374e-08 1.94094e-08 -2.12943e-05
0.00108887 1.56639e-08 7.25951e-07
1.56639e-08 2.33851e-05 7.76296e-07
7.25951e-07 7.76296e-07 -1.27023e-05
0.00220041 -7.01542e-06 -2.49519e-06
-7.01542e-06 0.000547071 -3.32567e-06
-2.49519e-06 -3.32567e-06 0.000572191
0.000990723 -5.30598e-06 -7.15628e-08
-5.30598e-06 -3.41799e-05 1.58144e-08
-7.15628e-08 1.58144e-08 -2.93025e-05
0.00104316 -2.93408e-06 8.10282e-07
-2.93408e-06 -1.7718e-06 1.48784e-06
8.10282e-07 1.48784e-06 -2.16957e-05
0.00220995 -5.6147e-06 -1.28259e-07
-5.6147e-06 0.00054832 2.01633e-08
-1.28259e-07 2.01633e-08 0.000573996
0.000985041 -4.36456e-06 9.69111e-07
-4.36456e-06 -3.9396e-05 2.6531e-06
9.69111e-07 2.6531e-06 -3.3716e-05
0.00220808 -4.17767e-06 1.44051e-06
-4.17767e-06 0.000544746 3.45304e-06
1.44051e-06 3.45304e-06 0.000570977
0.000508427 -7.15491e-06 -1.35755e-05
-7.15491e-06 6.6829e-05 -6.74217e-06
-1.35755e-05 -6.74217e-06 -3.94258e-06
0.000593263 4.87013e-06 -4.88806e-07
4.87013e-06 2.51025e-05 -1.15389e-06
-4.88806e-07 -1.15389e-06 -5.58075e-05
0.000849907 -4.43268e-07 -6.64632e-07
-4.43268e-07 0.000154356 -1.496e-07
-6.64632e-07 -1.496e-07 7.33371e-05
0.00120045 1.89591e-06 -1.03182e-07
1.89591e-06 7.98655e-05 2.6198e-07
-1.03182e-07 2.6198e-07 2.96833e-05
0.00111141 3.06849e-06 5.18312e-07
3.06849e-06 3.44908e-05 3.8436e-07
5.18312e-07 3.8436e-07 -1.13971e-05
0.0010965 5.49556e-06 5.51889e-07
5.49556e-06 2.47755e-05 1.06724e-07
5.51889e-07 1.06724e-07 -2.60805e-05
0.00114885 6.12897e-06 -1.76134e-07
6.12897e-06 5.1979e-05 -2.0354e-07
-1.76134e-07 -2.0354e-07 1.45255e-07
0.00113718 2.84615e-06 -1.21255e-07
2.84615e-06 4.70632e-05 -2.72381e-07
-1.21255e-07 -2.72381e-07 -2.87029e-06
0.00117714 6.69473e-06 1.82749e-07
6.69473e-06 6.26058e-05 2.36417e-07
1.82749e-07 2.36417e-07 9.45525e-06
0.00112253 6.46209e-06 -1.99212e-07
6.46209e-06 3.87754e-05 -2.89774e-08
-1.99212e-07 -2.89774e-08 -1.53872e-05
0.00111321 7.08234e-06 -1.46003e-07
7.08234e-06 3.52786e-05 2.29059e-07
-1.46003e-07 2.29059e-07 -2.04008e-05
0.00115909 6.56564e-06 3.10708e-07
6.56564e-06 5.83955e-05 5.57373e-09
3.10708e-07 5.57373e-09 4.27786e-06
0.00112673 6.15333e-06 5.02195e-07
6.15333e-06 4.50798e-05 5.04254e-08
5.02195e-07 5.04254e-08 -1.30714e-05
0.00117815 7.23383e-06 -1.12234e-07
7.23383e-06 6.94615e-05 -4.44533e-08
-1.12234e-07 -4.44533e-08 1.07334e-05
0.00128018 8.1669e-06 4.53482e-08
8.1669e-06 0.000118146 5.51801e-07
4.53482e-08 5.51801e-07 5.86175e-05
0.00101377 -3.27838e-05 -1.17094e-05
-3.27838e-05 0.000449918 -6.89472e-06
-1.17094e-05 -6.89472e-06 0.000499323
0.000522666 -1.23647e-05 -2.27583e-06
-1.23647e-05 8.87941e-05 -2.46725e-06
-2.27583e-06 -2.46725e-06 6.50519e-05
0.0002582 4.10018e-06 4.21267e-06
4.10018e-06 -0.000142054 3.95046e-06
4.21267e-06 3.95046e-06 -0.000193703
0.000619927 -2.83753e-05 1.71964e-05
-2.83753e-05 0.000115981 1.4158e-05
1.71964e-05 1.4158e-05 0.000165337
0.000872564 -6.7111e-05 8.43539e-06
-6.7111e-05 -0.000861071 -4.86922e-05
8.43539e-06 -4.86922e-05 -0.000734616
0.00184619 1.37716e-05 5.02554e-08
1.37716e-05 -0.00056883 3.45458e-05
5.02554e-08 3.45458e-05 -0.00100286
0.000698052 -2.38009e-05 1.31934e-07
-2.38009e-05 0.000282453 1.22113e-05
1.31934e-07 1.22113e-05 0.00013879
0.00139335 5.78196e-08 -2.73559e-07
5.78196e-08 0.0006596 -4.96355e-06
-2.73559e-07 -4.96355e-06 0.00046091
0.000465274 -3.98388e-05 6.16247e-06
-3.98388e-05 5.34939e-05 2.93512e-06
6.16247e-06 2.93512e-06 0.000132495
0.00524083 -2.3568e-05 6.22407e-06
-2.3568e-05 0.000680827 2.0682e-05
6.22407e-06 2.0682e-05 0.000508656
-0.00114404 -9.72948e-05 -2.92735e-06
-9.72948e-05 -0.000807219 -1.28529e-05
-2.92735e-06 -1.28529e-05 -0.00077804
0.000966752 2.73746e-05 -2.93307e-06
2.73746e-05 0.000300749 -1.68413e-05
-2.93307e-06 -1.68413e-05 0.00016204
0.00437898 -0.000102043 3.99623e-05
-0.000102043 0.000795385 5.06386e-05
3.99623e-05 5.06386e-05 0.000432
-0.000553501 -8.27035e-05 3.28099e-05
-8.27035e-05 -0.000115876 2.76151e-05
3.28099e-05 2.76151e-05 -5.92181e-05
0.00108492 1.46424e-05 -8.02582e-07
1.46424e-05 4.86685e-05 7.14946e-07
-8.02582e-07 7.14946e-07 -1.45232e-05
0.00116553 9.44249e-06 6.92262e-07
9.44249e-06 7.13188e-05 1.75392e-07
6.92262e-07 1.75392e-07 7.36761e-06
0.00118308 7.61116e-06 1.21957e-07
7.61116e-06 7.79505e-05 -4.69644e-07
1.21957e-07 -4.69644e-07 1.28654e-05
0.000537886 3.0453e-08 -4.89258e-07
3.0453e-08 -3.59337e-05 -4.85788e-06
-4.89258e-07 -4.85788e-06 -0.000107894
0.00114085 -2.55143e-06 -3.6629e-07
-2.55143e-06 6.45809e-05 -4.01119e-07
-3.6629e-07 -4.01119e-07 -2.47431e-05
0.00120667 3.75132e-06 1.34957e-06
3.75132e-06 0.0001008 -1.26085e-07
1.34957e-06 -1.26085e-07 2.25837e-05
0.00119045 1.05812e-05 -1.03566e-07
1.05812e-05 0.0001027 -2.51275e-08
-1.03566e-07 -2.51275e-08 1.90334e-05
0.000933601 9.62897e-06 1.04506e-06
9.62897e-06 0.000111994 4.92024e-06
1.04506e-06 4.92024e-06 2.83379e-05
0.000282361 2.77464e-05 8.83328e-07
2.77464e-05 -0.000255529 4.46517e-06
8.83328e-07 4.46517e-06 -0.000326983
0.00210217 -5.11585e-06 -1.49986e-05
-5.11585e-06 0.00116881 3.69354e-07
-1.49986e-05 3.69354e-07 0.00117717
0.000663069 -2.04911e-06 -1.1771e-06
-2.04911e-06 0.000163322 -1.34683e-06
-1.1771e-06 -1.34683e-06 8.49112e-05
0.000302743 3.24719e-08 8.6615e-07
3.24719e-08 -0.000166387 -8.18846e-07
8.6615e-07 -8.18846e-07 -0.000255331
0.000549658 2.59776e-06 -4.31947e-06
2.59776e-06 -9.85064e-05 7.94663e-06
-4.31947e-06 7.94663e-06 -0.000156313
0.000421784 -2.66935e-05 4.25839e-06
-2.66935e-05 1.41341e-05 -1.93185e-05
4.25839e-06 -1.93185e-05 -0.00020276
0.00094096 2.00154e-06 1.07619e-05
2.00154e-06 0.000337259 -5.40104e-06
1.07619e-05 -5.40104e-06 0.000281622
0.00403035 5.18605e-05 -3.15699e-05
5.18605e-05 0.00100788 5.82044e-05
-3.15699e-05 5.82044e-05 0.000670618
-0.00201568 7.02551e-05 -3.41753e-05
7.02551e-05 -0.000962437 2.96888e-05
-3.41753e-05 2.96888e-05 -0.000913745
0.00107 2.96952e-05 1.84598e-05
2.96952e-05 0.000471005 -1.31234e-05
1.84598e-05 -1.31234e-05 0.000514829
0.00108825 -9.32497e-06 -1.26347e-07
-9.32497e-06 0.000147311 -1.5365e-07
-1.26347e-07 -1.5365e-07 6.05648e-05
0.000869526 1.56944e-05 2.77821e-06
1.56944e-05 0.000391861 -1.30125e-06
2.77821e-06 -1.30125e-06 0.00039942
-0.00214821 3.96282e-05 -1.64167e-05
3.96282e-05 -0.000704022 7.06193e-06
-1.64167e-05 7.06193e-06 -0.000648334
0.00115144 -5.57825e-05 -4.27159e-06
-5.57825e-05 -2.49475e-05 1.77821e-05
-4.27159e-06 1.77821e-05 -0.000300082
0.00461268 5.57315e-05 -1.30955e-06
5.57315e-05 0.00105094 4.22129e-06
-1.30955e-06 4.22129e-06 0.000721481
0.00162327 -2.63659e-05 5.44192e-06
-2.63659e-05 0.00020067 -6.09087e-06
5.44192e-06 -6.09087e-06 0.00010965
-0.0052701 3.02199e-05 3.17975e-05
3.02199e-05 -0.00224456 -1.48013e-05
3.17975e-05 -1.48013e-05 -0.00211383
0.00413833 1.99144e-05 6.08313e-05
1.99144e-05 0.000996909 -3.43822e-05
6.08313e-05 -3.43822e-05 0.000796778
0.00137495 -5.62361e-05 -1.98112e-05
-5.62361e-05 -0.000101852 2.43097e-05
-1.98112e-05 2.43097e-05 -0.000276781
0.00111115 -5.30634e-06 -1.44359e-06
-5.30634e-06 0.000102372 3.81304e-07
-1.44359e-06 3.81304e-07 8.06503e-06
0.00116701 -1.76332e-05 3.56227e-07
-1.76332e-05 0.000104353 1.21481e-07
3.56227e-07 1.21481e-07 4.0232e-06
0.00144088 -2.26827e-05 -1.37384e-06
-2.26827e-05 0.000159176 -1.80918e-06
-1.37384e-06 -1.80918e-06 8.73384e-05
0.00108527 -1.30902e-05 -6.60789e-07
-1.30902e-05 4.67258e-05 2.44294e-07
-6.60789e-07 2.44294e-07 -4.01042e-05
0.00120217 -1.59013e-05 -3.02355e-07
-1.59013e-05 5.28333e-05 -7.07732e-07
-3.02355e-07 -7.07732e-07 -2.22954e-05
0.00141286 -1.41686e-05 -2.38186e-07
-1.41686e-05 0.000106489 -2.66451e-06
-2.38186e-07 -2.66451e-06 5.50647e-05
0.00112217 -1.23428e-05 2.45433e-08
-1.23428e-05 3.78786e-05 4.52338e-09
2.45433e-08 4.52338e-09 -3.59136e-05
0.00119878 -1.15093e-05 1.05139e-07
-1.15093e-05 4.52032e-05 -3.78697e-07
1.05139e-07 -3.78697e-07 -1.66475e-05
0.00128425 -8.81557e-06 6.25125e-07
-8.81557e-06 5.82652e-05 -1.75276e-06
6.25125e-07 -1.75276e-06 1.17806e-05
0.00112078 -1.0308e-05 -3.75157e-08
-1.0308e-05 2.45229e-05 4.88571e-07
-3.75157e-08 4.88571e-07 -4.14118e-05
0.00120946 -9.08149e-06 1.84628e-08
-9.08149e-06 4.18547e-05 -9.76866e-08
1.84628e-08 -9.76866e-08 -1.42802e-05
0.00123167 -6.46212e-06 1.03632e-06
-6.46212e-06 4.09895e-05 -1.0713e-06
1.03632e-06 -1.0713e-06 -7.03021e-06
0.00120221 -5.69132e-06 8.43882e-07
-5.69132e-06 4.1062e-05 -5.73466e-07
8.43882e-07 -5.73466e-07 -1.07686e-05
0.00127694 -8.68508e-06 1.53459e-07
-8.68508e-06 8.42931e-05 -7.20087e-07
1.53459e-07 -7.20087e-07 2.71155e-05
0.00121466 -7.70558e-06 1.09753e-07
-7.70558e-06 4.55869e-05 2.93416e-07
1.09753e-07 2.93416e-07 -9.39933e-06
0.00111852 -8.59248e-06 -4.14623e-07
-8.59248e-06 2.80071e-05 -7.04783e-08
-4.14623e-07 -7.04783e-08 -3.07463e-05
0.00120354 -9.57292e-06 2.49749e-07
-9.57292e-06 6.27584e-05 -1.85199e-07
2.49749e-07 -1.85199e-07 1.50728e-06
0.00115138 -9.16986e-06 5.1988e-10
-9.16986e-06 2.85087e-05 7.22699e-07
5.1988e-10 7.22699e-07 -3.23749e-05
0.00111285 -6.24394e-06 -4.55795e-07
-6.24394e-06 4.12896e-05 3.70755e-07
-4.55795e-07 3.70755e-07 -1.03411e-05
0.0011067 -8.40541e-06 3.253e-08
-8.40541e-06 3.40381e-05 -4.32086e-08
3.253e-08 -4.32086e-08 -2.43858e-05
0.00109468 -9.53547e-06 4.1705e-08
-9.53547e-06 2.45717e-05 -7.42134e-08
4.1705e-08 -7.42134e-08 -3.91994e-05
0.00106593 3.44733e-06 -1.02425e-06
3.44733e-06 2.48964e-05 5.49293e-07
-1.02425e-06 5.49293e-07 -1.55703e-05
0.00111133 -3.13587e-06 -4.26532e-08
-3.13587e-06 4.25637e-05 -3.98102e-08
-4.26532e-08 -3.98102e-08 -6.95139e-06
0.0011177 -7.54971e-06 1.78361e-07
-7.54971e-06 4.50154e-05 -3.58838e-07
1.78361e-07 -3.58838e-07 -9.85615e-06
0.00100662 6.51994e-06 -1.63113e-06
6.51994e-06 -3.27421e-06 1.05985e-06
-1.63113e-06 1.05985e-06 -2.61467e-05
0.00107079 4.66896e-06 7.76799e-08
4.66896e-06 2.66788e-05 3.12326e-08
7.76799e-08 3.12326e-08 -1.20119e-05
0.00101894 1.74346e-07 5.63728e-07
1.74346e-07 1.99512e-06 -1.9967e-07
5.63728e-07 -1.9967e-07 -4.69342e-05
0.000931982 1.03776e-05 -2.38308e-06
1.03776e-05 -4.33736e-05 1.96261e-06
-2.38308e-06 1.96261e-06 -4.10216e-05
0.00102656 6.1602e-06 1.81022e-08
6.1602e-06 2.22742e-06 -6.53364e-09
1.81022e-08 -6.53364e-09 -1.91685e-05
0.00108917 4.75177e-06 8.54371e-07
4.75177e-06 3.29271e-05 -6.68988e-07
8.54371e-07 -6.68988e-07 -4.0434e-06
0.00218473 1.26465e-05 -1.57687e-06
1.26465e-05 0.000555333 1.15191e-06
-1.57687e-06 1.15191e-06 0.000578221
0.000949141 9.39949e-06 5.12431e-08
9.39949e-06 -3.98739e-05 2.33367e-08
5.12431e-08 2.33367e-08 -3.67664e-05
0.00103752 5.52142e-06 1.52909e-06
5.52142e-06 3.36728e-06 -1.11308e-06
1.52909e-06 -1.11308e-06 -1.71481e-05
0.00224214 1.1049e-05 7.98844e-08
1.1049e-05 0.000578784 3.36125e-08
7.98844e-08 3.36125e-08 0.000602003
0.000977161 8.38169e-06 2.11847e-06
8.38169e-06 -3.06995e-05 -2.16887e-06
2.11847e-06 -2.16887e-06 -2.71619e-05
0.0021907 9.77446e-06 3.11041e-06
9.77446e-06 0.000550353 -3.12976e-06
3.11041e-06 -3.12976e-06 0.000574342
0.00123967 -6.33805e-07 -3.08499e-07
-6.33805e-07 0.000100013 9.57696e-08
-3.08499e-07 9.57696e-08 5.52186e-05
0.00107931 -2.19845e-07 -8.75889e-08
-2.19845e-07 1.94912e-05 -1.97382e-07
-8.75889e-08 -1.97382e-07 -2.54683e-05
0.00108472 -2.98685e-06 -9.00329e-07
-2.98685e-06 2.33827e-05 -6.27499e-07
-9.00329e-07 -6.27499e-07 -1.21075e-05
0.00103596 -4.56042e-06 -1.39106e-06
-4.56042e-06 -1.2577e-06 -1.19393e-06
-1.39106e-06 -1.19393e-06 -2.13549e-05
0.00108234 -1.99442e-06 -3.87467e-08
-1.99442e-06 2.07551e-05 1.85569e-08
-3.87467e-08 1.85569e-08 -1.45854e-05
0.00105215 2.15935e-06 5.61859e-07
2.15935e-06 4.65963e-06 3.0852e-07
5.61859e-07 3.0852e-07 -4.08312e-05
0.000984047 -7.22478e-06 -1.87869e-06
-7.22478e-06 -3.16403e-05 -2.2913e-06
-1.87869e-06 -2.2913e-06 -2.76356e-05
0.00103802 -3.9026e-06 -3.46244e-08
-3.9026e-06 -1.79281e-06 1.25669e-08
-3.46244e-08 1.25669e-08 -2.18505e-05
0.00108656 -1.05691e-06 7.66411e-07
-1.05691e-06 2.24946e-05 7.47524e-07
7.66411e-07 7.47524e-07 -1.31889e-05
0.00220261 -8.36559e-06 -2.83196e-06
-8.36559e-06 0.000551545 -3.23096e-06
-2.83196e-06 -3.23096e-06 0.00057613
0.000983401 -6.26284e-06 -6.24689e-08
-6.26284e-06 -3.49411e-05 2.12092e-08
-6.24689e-08 2.12092e-08 -3.05527e-05
0.0010422 -3.2939e-06 1.04051e-06
-3.2939e-06 -1.10146e-06 1.39407e-06
1.04051e-06 1.39407e-06 -2.12094e-05
0.00222521 -6.97455e-06 -1.14488e-07
-6.97455e-06 0.000558609 2.41735e-08
-1.14488e-07 2.41735e-08 0.000583688
0.000980981 -5.3261e-06 1.25405e-06
-5.3261e-06 -3.88085e-05 2.57279e-06
1.25405e-06 2.57279e-06 -3.38872e-05
0.00222902 -5.57433e-06 1.87684e-06
-5.57433e-06 0.000557137 3.40656e-06
1.87684e-06 3.40656e-06 0.00058281
-0.00031039 -1.89969e-05 -1.66745e-05
-1.89969e-05 -0.000317413 -6.99283e-06
-1.66745e-05 -6.99283e-06 -0.000307124
0.000482803 -5.16716e-06 -6.98577e-07
-5.16716e-06 5.20259e-05 -1.92892e-06
-6.98577e-07 -1.92892e-06 -1.89733e-05
0.000445261 4.08179e-06 2.07129e-06
4.08179e-06 -6.58784e-05 7.30216e-07
2.07129e-06 7.30216e-07 -0.000147593
0.00116094 1.45482e-06 5.85216e-08
1.45482e-06 6.06949e-05 2.2187e-07
5.85216e-08 2.2187e-07 1.01114e-05
0.00115665 2.15861e-06 -9.21845e-08
2.15861e-06 5.89083e-05 3.23835e-07
-9.21845e-08 3.23835e-07 7.56707e-06
0.00113452 6.28642e-06 -2.65828e-08
6.28642e-06 4.60677e-05 3.8218e-07
-2.65828e-08 3.8218e-07 -7.1601e-06
0.00121468 6.24061e-06 2.02318e-07
6.24061e-06 8.42398e-05 -2.82663e-07
2.02318e-07 -2.82663e-07 3.27784e-05
0.00121781 3.01117e-06 2.48323e-07
3.01117e-06 8.61435e-05 -1.03858e-07
2.48323e-07 -1.03858e-07 3.65648e-05
0.00112642 6.49845e-06 1.94269e-07
6.49845e-06 3.82455e-05 3.15911e-07
1.94269e-07 3.15911e-07 -1.4705e-05
0.00113627 7.06136e-06 -7.08165e-08
7.06136e-06 4.59547e-05 2.34042e-08
-7.08165e-08 2.34042e-08 -9.45121e-06
0.00114122 6.48341e-06 5.02703e-08
6.48341e-06 4.77334e-05 4.44162e-08
5.02703e-08 4.44162e-08 -6.1298e-06
0.00117729 7.49755e-06 -1.85837e-07
7.49755e-06 6.96914e-05 1.65639e-07
-1.85837e-07 1.65639e-07 1.18484e-05
0.0012066 9.47692e-06 4.7511e-07
9.47692e-06 8.65157e-05 1.08333e-06
4.7511e-07 1.08333e-06 2.8008e-05
0.00114445 7.10191e-06 4.1793e-08
7.10191e-06 5.31895e-05 -3.11249e-07
4.1793e-08 -3.11249e-07 -5.40495e-06
0.00119473 7.92658e-06 -2.12281e-08
7.92658e-06 7.7243e-05 6.11312e-08
-2.12281e-08 6.11312e-08 1.76025e-05
-0.00454669 -5.88661e-05 3.53027e-05
-5.88661e-05 -0.00198421 1.58274e-05
3.53027e-05 1.58274e-05 -0.00191837
0.000625374 -3.272e-05 3.93545e-06
-3.272e-05 0.000230991 2.2678e-06
3.93545e-06 2.2678e-06 0.000279101
0.000280911 -1.2991e-05 1.52636e-05
-1.2991e-05 -5.49523e-05 9.612e-06
1.52636e-05 9.612e-06 -7.74495e-05
0.000141006 -4.08668e-05 1.47246e-05
-4.08668e-05 -0.000128475 9.92798e-06
1.47246e-05 9.92798e-06 -5.01568e-05
0.00303906 -0.000118997 -2.25986e-05
-0.000118997 0.00090291 -5.48641e-05
-2.25986e-05 -5.48641e-05 0.00087879
0.000769948 -4.3181e-05 1.81708e-06
-4.3181e-05 -0.000995566 1.11003e-05
1.81708e-06 1.11003e-05 -0.00110735
-0.00025987 1.79546e-05 1.86167e-07
1.79546e-05 -0.000182184 1.0301e-05
1.86167e-07 1.0301e-05 -0.000629258
0.00103279 3.92418e-05 -3.11489e-06
3.92418e-05 0.000173653 -1.37808e-05
-3.11489e-06 -1.37808e-05 -0.00010031
0.00148892 -0.000103595 6.41722e-08
-0.000103595 0.000371918 -4.20311e-06
6.41722e-08 -4.20311e-06 0.000363091
0.00385916 -6.38725e-05 9.9622e-06
-6.38725e-05 0.000719651 2.11536e-05
9.9622e-06 2.11536e-05 0.000434872
0.000623977 4.97927e-05 -1.4381e-05
4.97927e-05 -0.000204779 -4.30692e-05
-1.4381e-05 -4.30692e-05 -0.000450781
0.00332822 -2.17054e-05 5.24936e-05
-2.17054e-05 0.00063048 4.72164e-05
5.24936e-05 4.72164e-05 0.000320622
0.00125145 2.16572e-05 1.24976e-06
2.16572e-05 0.00014957 -8.05078e-07
1.24976e-06 -8.05078e-07 7.97905e-05
0.00106981 1.38298e-05 8.30756e-08
1.38298e-05 3.9771e-05 1.17415e-07
8.30756e-08 1.17415e-07 -2.29559e-05
0.00120186 9.068e-06 1.13446e-06
9.068e-06 8.62312e-05 -6.2502e-07
1.13446e-06 -6.2502e-07 2.25773e-05
0.000962432 1.03344e-05 -1.91545e-06
1.03344e-05 0.000120487 -2.97596e-06
-1.91545e-06 -2.97596e-06 3.58605e-05
0.00134567 1.10974e-05 8.89179e-07
1.10974e-05 0.000176437 -1.62151e-07
8.89179e-07 -1.62151e-07 9.31275e-05
0.00104301 2.9227e-05 6.76946e-08
2.9227e-05 8.37152e-05 1.06256e-06
6.76946e-08 1.06256e-06 1.32066e-05
0.000110635 3.27865e-05 2.60329e-06
3.27865e-05 -0.000377897 1.73864e-06
2.60329e-06 1.73864e-06 -0.000441253
-0.00323312 3.49619e-06 6.47192e-05
3.49619e-06 -0.00103668 2.21234e-06
6.47192e-05 2.21234e-06 -0.000864188
0.00044768 -3.73907e-06 -1.49941e-06
-3.73907e-06 0.000153126 3.91366e-07
-1.49941e-06 3.91366e-07 0.000148749
-0.000349769 -1.08563e-06 1.21737e-05
-1.08563e-06 -0.000473594 -2.29349e-06
1.21737e-05 -2.29349e-06 -0.000560009
0.00118418 -7.13931e-06 -5.34762e-06
-7.13931e-06 0.000195237 5.48047e-06
-5.34762e-06 5.48047e-06 0.000109263
0.00106902 -4.47152e-05 -7.72202e-07
-4.47152e-05 0.000196496 -3.01891e-06
-7.72202e-07 -3.01891e-06 4.75061e-05
0.000574836 1.6096e-05 1.7803e-05
1.6096e-05 0.000206526 -7.39992e-06
1.7803e-05 -7.39992e-06 0.000215121
0.00329377 1.01175e-05 -3.08558e-05
1.01175e-05 0.000507864 1.86873e-05
-3.08558e-05 1.86873e-05 0.000159696
0.00161857 4.82136e-05 -6.93939e-05
4.82136e-05 0.000806936 3.41182e-05
-6.93939e-05 3.41182e-05 0.000795631
0.00093347 -2.46995e-05 3.77881e-07
-2.46995e-05 -7.85646e-05 1.12389e-07
3.77881e-07 1.12389e-07 -0.000166594
-0.00153293 1.98451e-05 -2.67636e-05
1.98451e-05 -0.000463299 6.97585e-06
-2.67636e-05 6.97585e-06 -0.000372867
0.00100178 7.20931e-07 3.83284e-06
7.20931e-07 -0.000400626 -2.812e-06
3.83284e-06 -2.812e-06 -0.000598472
0.000872167 -4.2806e-05 1.96579e-06
-4.2806e-05 -5.95165e-05 5.9261e-07
1.96579e-06 5.9261e-07 -0.000172874
0.00192833 -3.07595e-05 2.84708e-06
-3.07595e-05 0.000190639 -5.65233e-06
2.84708e-06 -5.65233e-06 0.000134976
0.00448725 1.14072e-05 6.88246e-05
1.14072e-05 0.000974262 -2.97771e-05
6.88246e-05 -2.97771e-05 0.000839979
0.000656216 -2.77037e-05 -5.44264e-06
-2.77037e-05 -0.000190898 5.61275e-06
-5.44264e-06 5.61275e-06 -0.000269123
0.000767671 -1.58149e-05 -6.97107e-08
-1.58149e-05 -8.3584e-05 8.26902e-08
-6.97107e-08 8.26902e-08 -0.000186501
0.00114856 -2.16017e-05 2.16243e-09
-2.16017e-05 2.03756e-05 -2.1368e-08
2.16243e-09 -2.1368e-08 -5.05646e-05
0.00152783 -1.7149e-05 -2.65341e-06
-1.7149e-05 0.000126432 -1.58919e-06
-2.65341e-06 -1.58919e-06 8.98767e-05
0.00107892 -1.52858e-05 1.12799e-07
-1.52858e-05 -5.82713e-06 8.57755e-07
1.12799e-07 8.57755e-07 -8e-05
0.00122177 -1.35497e-05 1.60594e-07
-1.35497e-05 1.70592e-05 -3.51778e-08
1.60594e-07 -3.51778e-08 -3.35817e-05
0.00130571 -7.87925e-06 1.54522e-06
-7.87925e-06 4.11513e-05 -1.1772e-06
1.54522e-06 -1.1772e-06 8.65179e-06
0.00108355 -1.0953e-05 3.16664e-07
-1.0953e-05 -9.90038e-06 1.2395e-06
3.16664e-07 1.2395e-06 -7.08894e-05
0.0012255 -8.67286e-06 1.68902e-07
-8.67286e-06 2.9852e-05 2.01397e-07
1.68902e-07 2.01397e-07 -1.63912e-05
0.00123124 -4.5724e-06 1.74988e-06
-4.5724e-06 2.96448e-05 -5.40487e-07
1.74988e-06 -5.40487e-07 -1.05299e-05
0.00115548 -8.81721e-06 -5.27359e-08
-8.81721e-06 1.57814e-05 1.38967e-06
-5.27359e-08 1.38967e-06 -3.9982e-05
0.0012291 -6.51394e-06 1.92793e-07
-6.51394e-06 4.02432e-05 3.45232e-07
1.92793e-07 3.45232e-07 -7.97942e-06
0.0011972 -3.48636e-06 1.56363e-06
-3.48636e-06 3.13108e-05 -1.01484e-07
1.56363e-06 -1.01484e-07 -1.66935e-05
0.00117125 -3.96608e-06 8.11904e-07
-3.96608e-06 2.91711e-05 -2.94611e-07
8.11904e-07 -2.94611e-07 -2.32909e-05
0.00121455 -5.73096e-06 -1.01336e-07
-5.73096e-06 4.64755e-05 3.59589e-07
-1.01336e-07 3.59589e-07 -5.24391e-06
0.00123634 -6.83153e-06 6.18828e-07
-6.83153e-06 6.4123e-05 -7.58186e-07
6.18828e-07 -7.58186e-07 1.03123e-05
0.00124095 -8.07798e-06 -1.23086e-07
-8.07798e-06 7.48683e-05 -5.27404e-07
-1.23086e-07 -5.27404e-07 1.86432e-05
0.00125385 -8.56697e-06 1.78414e-07
-8.56697e-06 7.44307e-05 2.67302e-09
1.78414e-07 2.67302e-09 1.72682e-05
0.00118516 -7.45718e-06 -1.27404e-07
-7.45718e-06 3.18817e-05 1.43574e-06
-1.27404e-07 1.43574e-06 -2.29286e-05
0.00104646 -7.00707e-06 -7.52113e-07
-7.00707e-06 1.39179e-06 4.63795e-07
-7.52113e-07 4.63795e-07 -5.25295e-05
0.00118601 -8.7224e-06 1.84796e-08
-8.7224e-06 6.10642e-05 -9.69898e-09
1.84796e-08 -9.69898e-09 2.71975e-06
0.00120034 -9.44568e-06 3.62118e-07
-9.44568e-06 6.25151e-05 1.62757e-07
3.62118e-07 1.62757e-07 1.74655e-06
0.00107187 2.96695e-07 -9.88251e-07
2.96695e-07 2.80455e-05 5.63341e-07
-9.88251e-07 5.63341e-07 -1.47845e-05
0.0011197 -5.80499e-06 2.61873e-08
-5.80499e-06 4.43616e-05 6.07138e-09
2.61873e-08 6.07138e-09 -7.2695e-06
0.00104127 -8.20173e-06 2.66007e-07
-8.20173e-06 4.41831e-06 -4.19517e-07
2.66007e-07 -4.19517e-07 -5.40962e-05
0.00100103 6.58477e-06 -1.79489e-06
6.58477e-06 -2.9183e-06 9.81426e-07
-1.79489e-06 9.81426e-07 -2.75875e-05
0.00107367 2.52479e-06 1.55412e-08
2.52479e-06 2.79744e-05 -7.77348e-09
1.55412e-08 -7.77348e-09 -1.24355e-05
0.00112256 -2.68198e-06 5.13655e-07
-2.68198e-06 4.7557e-05 -3.25385e-07
5.13655e-07 -3.25385e-07 -1.96635e-06
0.000916286 1.12376e-05 -2.5558e-06
1.12376e-05 -4.5599e-05 1.85972e-06
-2.5558e-06 1.85972e-06 -4.44499e-05
0.00102109 6.50439e-06 5.75676e-08
6.50439e-06 3.45774e-06 1.91118e-08
5.75676e-08 1.91118e-08 -1.94652e-05
0.00108171 4.41253e-06 1.00018e-06
4.41253e-06 3.15647e-05 -5.54865e-07
1.00018e-06 -5.54865e-07 -7.10872e-06
0.00227144 1.37021e-05 -3.73193e-06
1.37021e-05 0.000602941 2.82441e-06
-3.73193e-06 2.82441e-06 0.000624542
0.000950842 1.03481e-05 4.43129e-08
1.03481e-05 -3.43426e-05 1.7014e-08
4.43129e-08 1.7014e-08 -3.20933e-05
0.00104034 6.14611e-06 1.59259e-06
6.14611e-06 8.64906e-06 -1.10054e-06
1.59259e-06 -1.10054e-06 -1.27997e-05
0.00166559 1.22132e-05 1.12853e-06
1.22132e-05 0.000305119 -9.54462e-07
1.12853e-06 -9.54462e-07 0.000325492
0.000971433 9.37244e-06 2.31586e-06
9.37244e-06 -2.92683e-05 -2.03606e-06
2.31586e-06 -2.03606e-06 -2.62513e-05
0.00218065 1.11207e-05 3.37424e-06
1.11207e-05 0.000550001 -3.01723e-06
3.37424e-06 -3.01723e-06 0.000573392
0.00115671 -3.0395e-06 -3.89092e-07
-3.0395e-06 6.25907e-05 4.92206e-08
-3.89092e-07 4.92206e-08 1.59447e-05
0.00114633 -2.4608e-06 1.65358e-07
-2.4608e-06 5.49515e-05 3.44191e-07
1.65358e-07 3.44191e-07 9.46275e-06
0.00109364 -3.973e-06 -9.58787e-07
-3.973e-06 3.05816e-05 -5.74426e-07
-9.58787e-07 -5.74426e-07 -5.80695e-06
0.00110492 -1.33685e-06 4.13759e-07
-1.33685e-06 3.25548e-05 3.53364e-08
4.13759e-07 3.53364e-08 -1.21636e-05
0.00108116 -2.93307e-06 1.809e-08
-2.93307e-06 2.17196e-05 -9.37793e-09
1.809e-08 -9.37793e-09 -1.37664e-05
0.001035 -5.25875e-06 -1.49133e-06
-5.25875e-06 4.20488e-07 -1.11943e-06
-1.49133e-06 -1.11943e-06 -2.00367e-05
0.000976655 -8.21621e-06 -2.0946e-06
-8.21621e-06 -3.18439e-05 -2.16044e-06
-2.0946e-06 -2.16044e-06 -2.82242e-05
0.00103442 -4.54554e-06 -4.37654e-08
-4.54554e-06 -2.03399e-06 1.81523e-08
-4.37654e-08 1.81523e-08 -2.21261e-05
0.00108422 -1.89528e-06 8.52209e-07
-1.89528e-06 2.16095e-05 6.93323e-07
8.52209e-07 6.93323e-07 -1.37525e-05
0.00219765 -9.71057e-06 -3.12023e-06
-9.71057e-06 0.000552929 -3.12382e-06
-3.12023e-06 -3.12382e-06 0.000576992
0.000975439 -7.23513e-06 -5.51305e-08
-7.23513e-06 -3.57562e-05 2.2621e-08
-5.51305e-08 2.2621e-08 -3.17173e-05
0.00103694 -3.89085e-06 1.17001e-06
-3.89085e-06 -2.31872e-06 1.30955e-06
1.17001e-06 1.30955e-06 -2.23751e-05
0.00223335 -8.32206e-06 -9.89393e-08
-8.32206e-06 0.000565919 2.83075e-08
-9.89393e-08 2.83075e-08 0.000590425
0.000975065 -6.27435e-06 1.52264e-06
-6.27435e-06 -3.8889e-05 2.46664e-06
1.52264e-06 2.46664e-06 -3.44743e-05
0.00224962 -6.93454e-06 2.30544e-06
-6.93454e-06 0.000569962 3.35621e-06
2.30544e-06 3.35621e-06 0.000595002
0.000120279 -1.16596e-05 6.09382e-05
-1.16596e-05 -7.35129e-05 4.72481e-06
6.09382e-05 4.72481e-06 -5.0661e-05
0.00117234 -1.78413e-05 -2.65573e-06
-1.78413e-05 0.000596713 -1.10753e-06
-2.65573e-06 -1.10753e-06 0.000612136
0.00045881 -3.23047e-06 1.26348e-05
-3.23047e-06 3.80507e-05 2.65275e-06
1.26348e-05 2.65275e-06 -3.31662e-05
0.00111964 8.4561e-07 3.45472e-07
8.4561e-07 4.06561e-05 3.30692e-07
3.45472e-07 3.30692e-07 -1.03219e-05
0.00112749 6.20274e-06 2.97089e-07
6.20274e-06 4.31857e-05 2.78175e-07
2.97089e-07 2.78175e-07 -9.9763e-06
0.00117255 2.64084e-06 9.03207e-08
2.64084e-06 6.68124e-05 1.43771e-07
9.03207e-08 1.43771e-07 1.56583e-05
0.00113756 4.72499e-06 2.10847e-08
4.72499e-06 5.20122e-05 3.53059e-07
2.10847e-08 3.53059e-07 -5.31327e-07
0.00112576 6.51352e-06 -2.16314e-07
6.51352e-06 4.2877e-05 2.68436e-07
-2.16314e-07 2.68436e-07 -1.13756e-05
0.00115934 7.04134e-06 8.15024e-08
7.04134e-06 5.66359e-05 -1.05288e-07
8.15024e-08 -1.05288e-07 1.50367e-06
0.00115966 6.49867e-06 3.5204e-07
6.49867e-06 5.65673e-05 -5.89698e-08
3.5204e-07 -5.89698e-08 3.00462e-06
0.00112413 7.4002e-06 -9.43159e-08
7.4002e-06 4.4273e-05 -9.91116e-08
-9.43159e-08 -9.91116e-08 -1.36179e-05
0.00105689 7.44164e-06 7.23077e-08
7.44164e-06 1.60748e-05 5.52912e-07
7.23077e-08 5.52912e-07 -4.14269e-05
0.00116591 9.67249e-06 1.87596e-07
9.67249e-06 6.86372e-05 7.95249e-07
1.87596e-07 7.95249e-07 8.81095e-06
0.00127009 1.45908e-05 6.73075e-07
1.45908e-05 0.000117006 -3.13849e-07
6.73075e-07 -3.13849e-07 5.4904e-05
0.00116635 9.46887e-06 5.8335e-08
9.46887e-06 6.85561e-05 -5.99901e-08
5.8335e-08 -5.99901e-08 9.62928e-06
0.00110865 7.68489e-06 4.59027e-08
7.68489e-06 3.60741e-05 -5.05e-07
4.59027e-08 -5.05e-07 -2.3681e-05
0.00631152 -1.66711e-05 4.24611e-05
-1.66711e-05 0.00164659 1.85904e-05
4.24611e-05 1.85904e-05 0.00142053
-0.000424325 -5.5261e-05 6.97022e-06
-5.5261e-05 -0.000240004 3.46346e-06
6.97022e-06 3.46346e-06 -0.000206985
0.00156722 -3.02752e-05 1.64692e-05
-3.02752e-05 0.000806839 1.14337e-05
1.64692e-05 1.14337e-05 0.000852924
-0.00230415 -8.48309e-05 -2.40133e-05
-8.48309e-05 -0.00117657 -3.31208e-05
-2.40133e-05 -3.31208e-05 -0.00111644
0.00368217 -9.88526e-05 -5.63242e-06
-9.88526e-05 0.000284281 1.52137e-05
-5.63242e-06 1.52137e-05 -0.000195174
0.00130582 2.84902e-05 -3.21325e-06
2.84902e-05 0.000452145 -4.71467e-06
-3.21325e-06 -4.71467e-06 0.000312002
0.000846 4.71994e-05 -8.93401e-06
4.71994e-05 -1.00405e-05 -1.09145e-05
-8.93401e-06 -1.09145e-05 -0.000199502
0.00451013 -7.15116e-05 5.33281e-06
-7.15116e-05 0.00103695 7.24257e-06
5.33281e-06 7.24257e-06 0.000758616
0.000610888 3.5516e-05 -1.95765e-05
3.5516e-05 -0.000257194 -2.11757e-05
-1.95765e-05 -2.11757e-05 -0.000427017
0.00120029 2.56344e-05 4.51326e-06
2.56344e-05 9.08547e-05 -3.65995e-07
4.51326e-06 -3.65995e-07 1.05125e-05
0.00112871 2.1191e-05 -7.04018e-07
2.1191e-05 9.46428e-05 -1.08427e-06
-7.04018e-07 -1.08427e-06 2.41417e-05
0.00105654 1.30303e-05 8.13169e-07
1.30303e-05 3.17652e-05 -5.1574e-07
8.13169e-07 -5.1574e-07 -3.05018e-05
0.00175141 3.0566e-05 -2.2796e-06
3.0566e-05 0.000401322 -3.83168e-06
-2.2796e-06 -3.83168e-06 0.000331795
0.000621293 3.49849e-05 -1.5895e-06
3.49849e-05 -0.000183563 -3.56232e-07
-1.5895e-06 -3.56232e-07 -0.000241964
-0.000630964 9.18496e-06 4.99029e-05
9.18496e-06 -0.00114041 -3.22154e-06
4.99029e-05 -3.22154e-06 -0.00114138
0.00111177 6.1013e-06 -1.17923e-06
6.1013e-06 0.000508491 5.05091e-06
-1.17923e-06 5.05091e-06 0.00059434
-0.00121794 -2.64196e-06 1.82945e-05
-2.64196e-06 -0.000869958 -8.24322e-07
1.82945e-05 -8.24322e-07 -0.000886469
0.000366066 -2.34584e-05 -3.23053e-06
-2.34584e-05 -0.000303306 4.51102e-06
-3.23053e-06 4.51102e-06 -0.000388115
0.00189604 -5.07421e-05 1.68309e-05
-5.07421e-05 0.000186208 -2.06448e-05
1.68309e-05 -2.06448e-05 -3.77207e-05
0.000393508 2.54597e-05 -9.08862e-05
2.54597e-05 6.70064e-05 1.76201e-05
-9.08862e-05 1.76201e-05 0.000108232
0.00563016 1.0735e-05 -1.96965e-05
1.0735e-05 0.00166285 4.64095e-06
-1.96965e-05 4.64095e-06 0.00140404
0.00150918 -3.00797e-05 3.03706e-07
-3.00797e-05 8.33683e-06 1.58044e-07
3.03706e-07 1.58044e-07 -4.96232e-05
0.00268863 5.23746e-06 2.17336e-05
5.23746e-06 0.00039315 -1.00191e-05
2.17336e-05 -1.00191e-05 0.000324388
0.00181751 -3.7251e-05 1.18653e-05
-3.7251e-05 7.0786e-05 -2.21075e-06
1.18653e-05 -2.21075e-06 -5.11622e-05
0.00202838 -1.94661e-05 -9.58043e-07
-1.94661e-05 0.000194976 -2.77674e-06
-9.58043e-07 -2.77674e-06 0.000169027
0.00155995 -2.86016e-06 -1.12745e-05
-2.86016e-06 0.000329885 6.92624e-06
-1.12745e-05 6.92624e-06 0.000255438
0.000834622 -2.04547e-05 1.85671e-06
-2.04547e-05 -0.000128539 1.1819e-06
1.85671e-06 1.1819e-06 -0.000198537
0.00126092 -1.6481e-05 -1.00389e-06
-1.6481e-05 3.36667e-06 5.51503e-08
-1.00389e-06 5.51503e-08 -3.26932e-05
0.00138946 -4.31735e-06 2.10769e-06
-4.31735e-06 7.25616e-05 1.42678e-06
2.10769e-06 1.42678e-06 4.8445e-05
0.00103182 -1.29439e-05 9.08761e-07
-1.29439e-05 -7.18774e-05 2.25873e-06
9.08761e-07 2.25873e-06 -0.000121728
0.00125964 -7.96545e-06 4.41965e-07
-7.96545e-06 2.0511e-05 7.45809e-07
4.41965e-07 7.45809e-07 -1.24319e-05
0.00123744 -5.00397e-07 2.27653e-06
-5.00397e-07 2.81361e-05 4.14794e-07
2.27653e-06 4.14794e-07 -6.17157e-06
0.00116681 -8.52948e-06 -6.33534e-08
-8.52948e-06 1.42536e-06 1.94664e-06
-6.33534e-08 1.94664e-06 -4.45703e-05
0.00125022 -4.65243e-06 2.95252e-07
-4.65243e-06 3.98024e-05 4.81376e-07
2.95252e-07 4.81376e-07 -9.24839e-07
0.0012126 4.83303e-07 2.02392e-06
4.83303e-07 3.69716e-05 1.92847e-07
2.02392e-06 1.92847e-07 -9.1805e-06
0.00123114 -6.56929e-06 -4.43273e-07
-6.56929e-06 4.1705e-05 1.52674e-06
-4.43273e-07 1.52674e-06 -6.73676e-06
0.00123809 -3.64396e-06 1.18721e-07
-3.64396e-06 5.1348e-05 2.70038e-07
1.18721e-07 2.70038e-07 2.88703e-06
0.00118391 -1.36344e-06 1.16392e-06
-1.36344e-06 3.33052e-05 8.32027e-08
1.16392e-06 8.32027e-08 -1.92481e-05
0.00119095 -4.47585e-06 -3.57766e-07
-4.47585e-06 3.84907e-05 -2.19331e-08
-3.57766e-07 -2.19331e-08 -1.37839e-05
0.00120335 -5.33543e-06 8.27074e-07
-5.33543e-06 4.88898e-05 -3.52806e-07
8.27074e-07 -3.52806e-07 -5.91504e-06
0.0012258 -5.7803e-06 -7.55077e-07
-5.7803e-06 5.13378e-05 9.80796e-07
-7.55077e-07 9.80796e-07 -2.64362e-07
0.00124119 -6.79072e-06 5.1191e-08
-6.79072e-06 6.57827e-05 -1.07486e-07
5.1191e-08 -1.07486e-07 1.201e-05
0.00123693 -6.93537e-06 3.04342e-07
-6.93537e-06 6.89989e-05 -5.13044e-07
3.04342e-07 -5.13044e-07 1.44195e-05
0.00110023 -6.6376e-06 -6.17084e-07
-6.6376e-06 1.62694e-05 4.36593e-08
-6.17084e-07 4.36593e-08 -3.76873e-05
0.0012347 -8.08935e-06 3.65691e-08
-8.08935e-06 7.21958e-05 -1.35057e-07
3.65691e-08 -1.35057e-07 1.58182e-05
0.00123414 -8.46412e-06 7.23811e-08
-8.46412e-06 6.6144e-05 8.31219e-07
7.23811e-08 8.31219e-07 8.99233e-06
0.00108621 -1.52803e-06 -1.04122e-06
-1.52803e-06 3.19759e-05 5.86122e-07
-1.04122e-06 5.86122e-07 -1.34582e-05
0.00109467 -7.06279e-06 -1.63028e-07
-7.06279e-06 2.50772e-05 2.41557e-07
-1.63028e-07 2.41557e-07 -2.85213e-05
0.00125204 -8.84663e-06 3.37088e-07
-8.84663e-06 9.34481e-05 -3.77111e-08
3.37088e-07 -3.77111e-08 3.5513e-05
0.000990857 6.55484e-06 -1.87598e-06
6.55484e-06 -4.83098e-06 9.34876e-07
-1.87598e-06 9.34876e-07 -3.17769e-05
0.00107884 -2.31537e-07 1.12297e-08
-2.31537e-07 3.05326e-05 -1.34096e-08
1.12297e-08 -1.34096e-08 -1.22318e-05
0.00112765 -5.34309e-06 4.90135e-07
-5.34309e-06 4.79416e-05 -3.63467e-07
4.90135e-07 -3.63467e-07 -3.6906e-06
0.000899389 1.19549e-05 -2.75705e-06
1.19549e-05 -4.8447e-05 1.74859e-06
-2.75705e-06 1.74859e-06 -4.88028e-05
0.00101489 6.57073e-06 3.49665e-08
6.57073e-06 3.52178e-06 1.24395e-08
3.49665e-08 1.24395e-08 -2.11896e-05
0.00108125 1.67182e-06 1.05067e-06
1.67182e-06 3.09912e-05 -5.34755e-07
1.05067e-06 -5.34755e-07 -9.36262e-06
0.00229029 1.4994e-05 -3.93545e-06
1.4994e-05 0.000618028 2.69649e-06
-3.93545e-06 2.69649e-06 0.000638577
0.000941007 1.11946e-05 5.78755e-08
1.11946e-05 -3.38153e-05 1.81487e-08
5.78755e-08 1.81487e-08 -3.27983e-05
0.00103582 6.48911e-06 1.74496e-06
6.48911e-06 1.03135e-05 -1.02286e-06
1.74496e-06 -1.02286e-06 -1.2661e-05
0.00222001 1.37446e-05 7.28287e-08
1.37446e-05 0.000578882 4.16615e-08
7.28287e-08 4.16615e-08 0.000600596
0.000969428 1.03183e-05 2.4929e-06
1.03183e-05 -2.54344e-05 -1.92762e-06
2.4929e-06 -1.92762e-06 -2.32881e-05
0.0021708 1.24644e-05 3.60321e-06
1.24644e-05 0.000550281 -2.89474e-06
3.60321e-06 -2.89474e-06 0.000572981
0.0010502 -5.73476e-07 -4.071e-07
-5.73476e-07 1.40388e-05 1.88419e-08
-4.071e-07 1.88419e-08 -3.51523e-05
0.00115684 -2.72097e-06 1.00069e-07
-2.72097e-06 6.29409e-05 1.36653e-07
1.00069e-07 1.36653e-07 1.6284e-05
0.000971692 -4.63524e-06 -1.18003e-06
-4.63524e-06 -2.48206e-05 -7.77577e-07
-1.18003e-06 -7.77577e-07 -6.36936e-05
0.00105322 -4.17118e-06 6.30187e-07
-4.17118e-06 9.99249e-06 5.83757e-07
6.30187e-07 5.83757e-07 -3.61913e-05
0.00102429 -3.93366e-06 -2.19199e-08
-3.93366e-06 -2.62375e-06 1.41313e-08
-2.19199e-08 1.41313e-08 -3.95574e-05
0.00103452 -5.97521e-06 -1.57805e-06
-5.97521e-06 3.57385e-06 -1.04077e-06
-1.57805e-06 -1.04077e-06 -1.7891e-05
0.00107739 -2.87519e-06 9.41649e-07
-2.87519e-06 1.99603e-05 6.12117e-07
9.41649e-07 6.12117e-07 -1.55215e-05
0.00103042 -5.24927e-06 -2.24745e-08
-5.24927e-06 -1.80321e-06 9.54535e-09
-2.24745e-08 9.54535e-09 -2.22348e-05
0.000970119 -9.22286e-06 -2.28908e-06
-9.22286e-06 -3.12141e-05 -2.02672e-06
-2.28908e-06 -2.02672e-06 -2.817e-05
0.00218935 -1.10593e-05 -3.37051e-06
-1.10593e-05 0.000553107 -3.00592e-06
-3.37051e-06 -3.00592e-06 0.000576599
0.000967158 -8.2263e-06 -5.52808e-08
-8.2263e-06 -3.64448e-05 2.48223e-08
-5.52808e-08 2.48223e-08 -3.27748e-05
0.00103291 -4.53089e-06 1.30849e-06
-4.53089e-06 -2.78748e-06 1.23476e-06
1.30849e-06 1.23476e-06 -2.28747e-05
0.00223572 -9.66466e-06 -8.80211e-08
-9.66466e-06 0.00057082 3.18015e-08
-8.80211e-08 3.18015e-08 0.000594765
0.000966717 -7.24614e-06 1.75694e-06
-7.24614e-06 -3.99243e-05 2.34055e-06
1.75694e-06 2.34055e-06 -3.5851e-05
0.00226474 -8.278e-06 2.68274e-06
-8.278e-06 0.00058061 3.27792e-06
2.68274e-06 3.27792e-06 0.000605033
0.00588751 1.0123e-05 2.72124e-05
1.0123e-05 0.00175372 1.18768e-06
2.72124e-05 1.18768e-06 0.0016511
-0.00271269 -1.06109e-05 1.18033e-05
-1.06109e-05 -0.000781932 1.31124e-06
1.18033e-05 1.31124e-06 -0.000666146
9.03709e-05 -1.79849e-05 1.16939e-05
-1.79849e-05 -6.01519e-05 3.72374e-06
1.16939e-05 3.72374e-06 -4.56736e-05
0.00112258 6.12905e-06 5.53932e-07
6.12905e-06 4.13263e-05 -2.99765e-08
5.53932e-07 -2.99765e-08 -1.17757e-05
0.0011886 3.12346e-06 3.0587e-07
3.12346e-06 7.48077e-05 -2.34732e-08
3.0587e-07 -2.34732e-08 2.38374e-05
0.00115533 6.55822e-06 -5.95362e-08
6.55822e-06 5.70466e-05 -6.28369e-09
-5.95362e-08 -6.28369e-09 2.98812e-06
0.00116261 5.16112e-06 6.03616e-08
5.16112e-06 6.38782e-05 8.95022e-08
6.03616e-08 8.95022e-08 1.1594e-05
0.00115671 5.30576e-06 2.40572e-07
5.30576e-06 6.601e-05 2.36983e-08
2.40572e-07 2.36983e-08 1.15555e-05
0.0011328 6.79055e-06 -1.12018e-07
6.79055e-06 5.02033e-05 3.73437e-07
-1.12018e-07 3.73437e-07 -4.90336e-06
0.0010681 7.2917e-06 9.49389e-09
7.2917e-06 1.75102e-05 -4.72705e-07
9.49389e-09 -4.72705e-07 -4.04251e-05
0.00110995 7.46711e-06 2.44384e-07
7.46711e-06 4.07745e-05 9.88481e-08
2.44384e-07 9.88481e-08 -1.68161e-05
0.00111574 9.59312e-06 1.78923e-07
9.59312e-06 4.70923e-05 -1.26391e-07
1.78923e-07 -1.26391e-07 -1.2815e-05
0.000983861 9.56815e-06 4.88006e-07
9.56815e-06 -1.56198e-05 2.73298e-07
4.88006e-07 2.73298e-07 -7.52345e-05
0.0014648 1.33585e-05 6.44704e-07
1.33585e-05 0.000197249 5.49671e-07
6.44704e-07 5.49671e-07 0.000136733
0.00136844 1.95673e-05 9.18898e-07
1.95673e-05 0.000135611 -1.19601e-06
9.18898e-07 -1.19601e-06 6.09096e-05
0.00116499 1.41525e-05 -8.84713e-08
1.41525e-05 6.87973e-05 6.30304e-08
-8.84713e-08 6.30304e-08 6.74851e-06
0.00111313 9.41782e-06 -2.15235e-07
9.41782e-06 4.45402e-05 -8.9764e-07
-2.15235e-07 -8.9764e-07 -1.47891e-05
0.00148536 2.43328e-07 -1.57698e-05
2.43328e-07 0.000210336 -3.66809e-06
-1.57698e-05 -3.66809e-06 0.000167918
0.00273187 -2.76944e-05 -8.98532e-06
-2.76944e-05 0.000323573 -4.58592e-06
-8.98532e-06 -4.58592e-06 0.000164806
0.00125114 -6.5935e-05 -1.60859e-05
-6.5935e-05 0.000620594 -6.72845e-06
-1.60859e-05 -6.72845e-06 0.000628896
0.00125066 -4.66057e-05 -3.04415e-05
-4.66057e-05 -0.000398523 -3.78213e-05
-3.04415e-05 -3.78213e-05 -0.000711219
0.00244612 4.80977e-05 5.31916e-06
4.80977e-05 0.000821073 1.55137e-05
5.31916e-06 1.55137e-05 0.000705215
0.000865327 3.46038e-05 -4.40987e-06
3.46038e-05 -1.34334e-05 -1.41696e-06
-4.40987e-06 -1.41696e-06 -0.000114667
0.00142685 1.02688e-05 7.17431e-06
1.02688e-05 7.00553e-05 2.69798e-06
7.17431e-06 2.69798e-06 -1.12015e-06
0.000981774 2.69093e-05 2.50846e-07
2.69093e-05 -2.09187e-05 1.20179e-06
2.50846e-07 1.20179e-06 -0.00010048
0.000980858 2.06273e-05 -5.08705e-07
2.06273e-05 2.8146e-05 -1.82505e-07
-5.08705e-07 -1.82505e-07 -4.30848e-05
0.00123235 3.73026e-05 -5.97289e-06
3.73026e-05 5.66753e-05 -6.88515e-06
-5.97289e-06 -6.88515e-06 2.9507e-06
0.000947065 -3.14628e-06 -2.72957e-05
-3.14628e-06 -0.00014722 -3.04704e-06
-2.72957e-05 -3.04704e-06 -0.000230592
0.00585415 1.64843e-05 9.39607e-06
1.64843e-05 0.00176738 -3.8365e-06
9.39607e-06 -3.8365e-06 0.00171529
-0.00543176 2.06886e-06 -6.41056e-05
2.06886e-06 -0.00237675 -1.12473e-06
-6.41056e-05 -1.12473e-06 -0.00221212
0.00102063 -2.9168e-05 2.39638e-07
-2.9168e-05 -0.000207473 3.10572e-06
2.39638e-07 3.10572e-06 -0.000267445
0.00229736 -2.94957e-05 1.61973e-05
-2.94957e-05 0.000543063 -1.00795e-05
1.61973e-05 -1.00795e-05 0.000465967
0.000881498 -2.66518e-06 -1.45818e-05
-2.66518e-06 -9.19064e-05 1.93597e-06
-1.45818e-05 1.93597e-06 -0.000132021
0.001692 -1.91526e-05 -1.23959e-06
-1.91526e-05 6.0255e-05 -6.38712e-08
-1.23959e-06 -6.38712e-08 3.08207e-05
0.00112323 3.54438e-06 2.28358e-07
3.54438e-06 1.55471e-05 -4.11564e-07
2.28358e-07 -4.11564e-07 -5.82968e-05
0.00157995 2.60981e-06 2.19792e-06
2.60981e-06 0.000130231 1.76667e-06
2.19792e-06 1.76667e-06 9.65652e-05
0.000791044 2.03249e-05 1.90134e-06
2.03249e-05 5.55004e-06 -2.43874e-06
1.90134e-06 -2.43874e-06 -7.52283e-05
0.00101899 -1.58789e-05 7.62038e-07
-1.58789e-05 -0.000107738 1.43734e-06
7.62038e-07 1.43734e-06 -0.000143411
0.00132758 -4.34563e-06 1.37455e-06
-4.34563e-06 4.74506e-05 7.62144e-07
1.37455e-06 7.62144e-07 2.26987e-05
0.00125379 7.08978e-06 1.95159e-06
7.08978e-06 5.4675e-05 1.66355e-06
1.95159e-06 1.66355e-06 1.49421e-05
0.00121174 -8.0415e-06 -2.34632e-07
-8.0415e-06 -8.40963e-07 2.13659e-06
-2.34632e-07 2.13659e-06 -3.42467e-05
0.00127596 -5.65006e-07 1.10384e-07
-5.65006e-07 4.91321e-05 4.72865e-07
1.10384e-07 4.72865e-07 1.37432e-05
0.00126277 5.93644e-06 1.85252e-06
5.93644e-06 6.65399e-05 5.58446e-07
1.85252e-06 5.58446e-07 1.90969e-05
0.00127216 -4.72308e-06 -1.01683e-06
-4.72308e-06 5.14379e-05 1.31119e-06
-1.01683e-06 1.31119e-06 1.01413e-05
0.00125242 4.55029e-07 3.11196e-08
4.55029e-07 5.65671e-05 9.19685e-08
3.11196e-08 9.19685e-08 9.98551e-06
0.00120131 3.37416e-06 1.29068e-06
3.37416e-06 4.12896e-05 1.63156e-07
1.29068e-06 1.63156e-07 -1.26322e-05
0.00127686 -3.789e-06 -1.31936e-06
-3.789e-06 7.03998e-05 6.32378e-07
-1.31936e-06 6.32378e-07 2.14861e-05
0.00122133 -1.86615e-06 -2.72771e-07
-1.86615e-06 5.17434e-05 -1.24004e-07
-2.72771e-07 -1.24004e-07 -7.72178e-07
0.00120813 -2.93493e-06 9.95085e-07
-2.93493e-06 5.06822e-05 1.6655e-07
9.95085e-07 1.6655e-07 -6.14345e-06
0.0012065 -4.96947e-06 -1.37227e-06
-4.96947e-06 4.59442e-05 -1.84491e-09
-1.37227e-06 -1.84491e-09 -6.14487e-06
0.00118922 -5.1609e-06 -7.31052e-08
-5.1609e-06 4.16579e-05 -1.67052e-07
-7.31052e-08 -1.67052e-07 -1.28337e-05
0.00120901 -5.89011e-06 5.02871e-07
-5.89011e-06 5.61779e-05 -3.0697e-07
5.02871e-07 -3.0697e-07 4.38154e-07
0.00124684 -6.74536e-06 -4.49499e-07
-6.74536e-06 6.78081e-05 6.33516e-07
-4.49499e-07 6.33516e-07 1.40724e-05
0.00123241 -6.89913e-06 6.3167e-08
-6.89913e-06 6.65191e-05 -1.25725e-07
6.3167e-08 -1.25725e-07 1.19259e-05
0.00120539 -5.84062e-06 -7.7673e-08
-5.84062e-06 6.21325e-05 -2.75647e-07
-7.7673e-08 -2.75647e-07 8.97516e-06
0.00099039 -1.18005e-06 -1.33475e-06
-1.18005e-06 -2.0327e-05 5.88125e-07
-1.33475e-06 5.88125e-07 -6.83205e-05
0.00115153 -6.76386e-06 -1.66317e-07
-6.76386e-06 4.16795e-05 1.08272e-07
-1.66317e-07 1.08272e-07 -1.19393e-05
0.00122868 -8.10157e-06 2.19535e-07
-8.10157e-06 6.96088e-05 2.79706e-07
2.19535e-07 2.79706e-07 1.3081e-05
0.000988006 6.42098e-06 -1.943e-06
6.42098e-06 -4.68095e-06 9.37775e-07
-1.943e-06 9.37775e-07 -3.44781e-05
0.00108309 -1.46198e-06 2.70241e-08
-1.46198e-06 2.99631e-05 4.96779e-08
2.70241e-08 4.96779e-08 -1.53734e-05
0.00114161 -7.13963e-06 3.86387e-07
-7.13963e-06 4.81948e-05 -7.2645e-09
3.86387e-07 -7.2645e-09 -5.08276e-06
0.000880071 1.25714e-05 -2.94219e-06
1.25714e-05 -5.2471e-05 1.63019e-06
-2.94219e-06 1.63019e-06 -5.46421e-05
0.00100868 6.53805e-06 2.35293e-08
6.53805e-06 3.41052e-06 -7.56783e-09
2.35293e-08 -7.56783e-09 -2.35944e-05
0.00108601 -8.68403e-07 1.02581e-06
-8.68403e-07 3.31207e-05 -5.8096e-07
1.02581e-06 -5.8096e-07 -9.57859e-06
0.0023255 1.62314e-05 -4.15792e-06
1.62314e-05 0.000641319 2.57364e-06
-4.15792e-06 2.57364e-06 0.000660624
0.000928848 1.1902e-05 6.03578e-08
1.1902e-05 -3.44643e-05 2.0142e-08
6.03578e-08 2.0142e-08 -3.49682e-05
0.00102859 6.55397e-06 1.85558e-06
6.55397e-06 9.88101e-06 -9.49903e-07
1.85558e-06 -9.49903e-07 -1.48725e-05
0.00223588 1.50275e-05 7.35951e-08
1.50275e-05 0.000592557 4.76105e-08
7.35951e-08 4.76105e-08 0.000613206
0.000965636 1.11521e-05 2.68247e-06
1.11521e-05 -2.20676e-05 -1.80836e-06
2.68247e-06 -1.80836e-06 -2.11834e-05
0.00216868 1.37855e-05 3.82118e-06
1.37855e-05 0.000554854 -2.77977e-06
3.82118e-06 -2.77977e-06 0.000576684
0.00111686 7.26156e-07 -3.79493e-07
7.26156e-07 4.90434e-05 -2.3593e-07
-3.79493e-07 -2.3593e-07 -1.4448e-06
0.0011363 -5.29988e-07 1.43126e-08
-5.29988e-07 5.54414e-05 3.19807e-08
1.43126e-08 3.19807e-08 6.88027e-06
0.000964191 -5.17298e-06 -1.09835e-06
-5.17298e-06 -2.42051e-05 -6.56201e-07
-1.09835e-06 -6.56201e-07 -6.52657e-05
0.00115626 -2.40222e-06 5.71974e-07
-2.40222e-06 6.29452e-05 2.38611e-07
5.71974e-07 2.38611e-07 1.62803e-05
0.000957896 -4.61859e-06 -2.034e-07
-4.61859e-06 -3.07469e-05 -2.73279e-07
-2.034e-07 -2.73279e-07 -6.98533e-05
0.00103033 -6.57445e-06 -1.67056e-06
-6.57445e-06 5.76e-06 -9.36902e-07
-1.67056e-06 -9.36902e-07 -1.72962e-05
0.000955561 -3.88741e-06 8.95553e-07
-3.88741e-06 -3.55332e-05 6.06932e-07
8.95553e-07 6.06932e-07 -7.30138e-05
0.00102539 -5.97605e-06 -2.82942e-08
-5.97605e-06 -7.44914e-07 1.00734e-08
-2.82942e-08 1.00734e-08 -2.21667e-05
0.000964969 -1.02292e-05 -2.45938e-06
-1.02292e-05 -2.9132e-05 -1.89846e-06
-2.45938e-06 -1.89846e-06 -2.70471e-05
0.0010258 -5.23844e-06 1.44809e-06
-5.23844e-06 -4.03822e-06 1.14046e-06
1.44809e-06 1.14046e-06 -2.44444e-05
0.000958321 -9.23781e-06 -4.87613e-08
-9.23781e-06 -3.69684e-05 2.37959e-08
-4.87613e-08 2.37959e-08 -3.38467e-05
0.00218085 -1.24151e-05 -3.58785e-06
-1.24151e-05 0.000553789 -2.88096e-06
-3.58785e-06 -2.88096e-06 0.000576592
0.00223501 -1.10099e-05 -8.24456e-08
-1.10099e-05 0.000574606 3.62001e-08
-8.24456e-08 3.62001e-08 0.000597956
0.000957495 -8.23723e-06 1.97324e-06
-8.23723e-06 -4.11227e-05 2.2168e-06
1.97324e-06 2.2168e-06 -3.74021e-05
0.00227414 -9.61801e-06 3.00214e-06
-9.61801e-06 0.000588871 3.17868e-06
3.00214e-06 3.17868e-06 0.000612697
0.00207164 -1.16402e-05 -1.71063e-05
-1.16402e-05 0.000481917 -4.79826e-06
-1.71063e-05 -4.79826e-06 0.000457513
-0.000544594 3.14122e-06 -1.46968e-05
3.14122e-06 -0.00114986 -6.00404e-06
-1.46968e-05 -6.00404e-06 -0.00119993
0.00173462 -3.48157e-05 -2.16102e-05
-3.48157e-05 0.000852569 -4.58661e-06
-2.16102e-05 -4.58661e-06 0.000936482
0.00120524 6.7195e-06 6.27593e-07
6.7195e-06 8.80875e-05 3.45947e-07
6.27593e-07 3.45947e-07 3.205e-05
0.00118441 6.60345e-06 1.66808e-07
6.60345e-06 7.10201e-05 -2.71335e-07
1.66808e-07 -2.71335e-07 1.71526e-05
0.00118745 5.52583e-06 1.77388e-07
5.52583e-06 7.56169e-05 -1.10255e-07
1.77388e-07 -1.10255e-07 2.35966e-05
0.00114612 6.83787e-06 1.06757e-08
6.83787e-06 5.60541e-05 2.24203e-08
1.06757e-08 2.24203e-08 7.56336e-07
0.00113871 5.71248e-06 -1.28206e-07
5.71248e-06 5.80629e-05 -3.03765e-07
-1.28206e-07 -3.03765e-07 3.50353e-06
0.0010915 7.99823e-06 -2.54297e-08
7.99823e-06 3.71894e-05 2.3918e-07
-2.54297e-08 2.3918e-07 -1.97174e-05
0.00117308 7.52401e-06 3.47303e-07
7.52401e-06 7.02147e-05 -4.24933e-07
3.47303e-07 -4.24933e-07 1.2519e-05
0.00107271 9.5386e-06 -6.05098e-07
9.5386e-06 2.89752e-05 -8.32006e-07
-6.05098e-07 -8.32006e-07 -3.10326e-05
0.00112746 9.90923e-06 -7.75626e-08
9.90923e-06 5.12928e-05 2.5703e-09
-7.75626e-08 2.5703e-09 -7.9849e-06
0.00130588 1.27711e-05 5.89135e-08
1.27711e-05 0.000130299 2.98923e-07
5.89135e-08 2.98923e-07 7.07159e-05
0.00124017 1.50367e-05 8.42768e-07
1.50367e-05 8.31748e-05 -9.54947e-07
8.42768e-07 -9.54947e-07 1.62864e-05
0.00128505 1.45655e-05 -1.77858e-06
1.45655e-05 3.13935e-05 -3.20105e-07
-1.77858e-06 -3.20105e-07 -4.95005e-05
0.00127681 1.91904e-05 5.79528e-07
1.91904e-05 9.76622e-05 9.42837e-07
5.79528e-07 9.42837e-07 2.393e-05
0.00108323 1.37839e-05 -8.18564e-07
1.37839e-05 3.12883e-05 3.82902e-07
-8.18564e-07 3.82902e-07 -3.07139e-05
0.0014829 -2.50913e-05 1.59796e-06
-2.50913e-05 -2.74487e-05 7.17365e-06
1.59796e-06 7.17365e-06 -7.55731e-05
0.00154888 9.30839e-06 1.57309e-07
9.30839e-06 0.000111739 1.25098e-06
1.57309e-07 1.25098e-06 4.73527e-05
-0.000329883 -2.22041e-05 -7.20756e-05
-2.22041e-05 -0.00078119 -4.21224e-05
-7.20756e-05 -4.21224e-05 -0.000895098
0.00209744 4.67651e-05 8.34059e-06
4.67651e-05 0.000310909 1.66073e-05
8.34059e-06 1.66073e-05 0.000170398
0.00143792 1.13105e-05 1.89237e-06
1.13105e-05 4.93343e-05 1.46393e-07
1.89237e-06 1.46393e-07 -3.05989e-05
0.00073363 2.8187e-05 -7.89501e-07
2.8187e-05 -0.00014792 3.18377e-06
-7.89501e-07 3.18377e-06 -0.000226503
0.000967019 -1.7807e-06 2.81133e-06
-1.7807e-06 0.00013733 -5.53125e-06
2.81133e-06 -5.53125e-06 8.8562e-05
0.00124583 3.92169e-06 -5.11493e-06
3.92169e-06 0.000258177 5.58096e-07
-5.11493e-06 5.58096e-07 0.000198839
-0.000748913 2.45714e-05 -3.52929e-05
2.45714e-05 -0.00122051 -6.55369e-06
-3.52929e-05 -6.55369e-06 -0.00122973
0.00132539 -1.88124e-05 2.20602e-07
-1.88124e-05 -8.76114e-05 5.7017e-07
2.20602e-07 5.7017e-07 -0.000120602
0.00159807 -3.11555e-06 1.16499e-05
-3.11555e-06 0.000126602 -7.80126e-07
1.16499e-05 -7.80126e-07 3.98025e-05
0.00155886 2.32925e-06 9.01748e-07
2.32925e-06 0.000126495 7.21514e-07
9.01748e-07 7.21514e-07 9.09747e-05
0.00102707 2.08817e-05 6.99588e-07
2.08817e-05 0.000109627 -1.5783e-06
6.99588e-07 -1.5783e-06 3.28088e-05
0.00110345 1.63662e-05 2.86354e-07
1.63662e-05 2.40127e-05 1.59063e-06
2.86354e-07 1.59063e-06 -3.97555e-05
0.000667367 1.46699e-05 8.15018e-08
1.46699e-05 -9.09731e-05 -2.42003e-06
8.15018e-08 -2.42003e-06 -0.000165277
0.00125846 -4.36065e-06 1.8005e-07
-4.36065e-06 1.85401e-05 7.04689e-07
1.8005e-07 7.04689e-07 -6.77162e-06
0.0012902 7.04675e-06 -3.05002e-07
7.04675e-06 7.68036e-05 -1.62579e-07
-3.05002e-07 -1.62579e-07 3.59979e-05
0.00128923 1.25906e-05 1.04325e-06
1.25906e-05 0.00010208 6.43432e-07
1.04325e-06 6.43432e-07 4.453e-05
0.00131451 -6.06094e-07 -1.88395e-06
-6.06094e-07 7.01651e-05 3.35506e-07
-1.88395e-06 3.35506e-07 3.36939e-05
0.00126013 5.8844e-06 -1.37416e-07
5.8844e-06 6.65569e-05 -1.31428e-07
-1.37416e-07 -1.31428e-07 1.89065e-05
0.00124777 7.91254e-06 1.43187e-06
7.91254e-06 6.81731e-05 3.81429e-07
1.43187e-06 3.81429e-07 1.19953e-05
0.00128831 4.36777e-07 -2.024e-06
4.36777e-07 7.43096e-05 1.50385e-07
-2.024e-06 1.50385e-07 2.73071e-05
0.00123043 3.09442e-06 -3.94008e-07
3.09442e-06 5.5265e-05 -1.56114e-07
-3.94008e-07 -1.56114e-07 1.48124e-06
0.0012102 2.27292e-06 9.52333e-07
2.27292e-06 5.05668e-05 2.80999e-07
9.52333e-07 2.80999e-07 -9.04892e-06
0.00125656 -2.33874e-06 -1.75575e-06
-2.33874e-06 6.91478e-05 -2.06952e-07
-1.75575e-06 -2.06952e-07 1.66742e-05
0.00121773 -2.67552e-06 2.95936e-08
-2.67552e-06 5.50453e-05 -1.65603e-08
2.95936e-08 -1.65603e-08 -1.75413e-06
0.0012081 -4.14875e-06 5.50651e-07
-4.14875e-06 5.53793e-05 9.26917e-08
5.50651e-07 9.26917e-08 -2.67789e-06
0.00117517 -5.03012e-06 -9.93593e-07
-5.03012e-06 3.44632e-05 2.21494e-08
-9.93593e-07 2.21494e-08 -1.97156e-05
0.00117657 -5.64441e-06 4.06021e-08
-5.64441e-06 3.99279e-05 -1.53704e-07
4.06021e-08 -1.53704e-07 -1.56918e-05
0.00114661 -4.72842e-06 -2.91157e-08
-4.72842e-06 3.32282e-05 -1.11331e-07
-2.91157e-08 -1.11331e-07 -2.16637e-05
0.00122853 -6.86461e-06 -9.95071e-08
-6.86461e-06 6.43376e-05 3.81007e-07
-9.95071e-08 3.81007e-07 9.72936e-06
0.00116533 -5.70552e-06 1.01115e-07
-5.70552e-06 4.25237e-05 -1.19373e-07
1.01115e-07 -1.19373e-07 -1.08872e-05
0.00108738 -8.06389e-07 -9.38131e-07
-8.06389e-07 2.2281e-05 1.99576e-07
-9.38131e-07 1.99576e-07 -2.66144e-05
0.000992154 6.30304e-06 -2.04012e-06
6.30304e-06 -3.33013e-06 8.5067e-07
-2.04012e-06 8.5067e-07 -3.60466e-05
0.00104885 -1.28105e-06 -2.61152e-07
-1.28105e-06 7.8372e-06 2.51053e-07
-2.61152e-07 2.51053e-07 -3.96353e-05
0.00120358 -6.88558e-06 3.34834e-07
-6.88558e-06 6.74235e-05 1.54643e-07
3.34834e-07 1.54643e-07 1.41435e-05
0.000862117 1.30947e-05 -3.12022e-06
1.30947e-05 -5.61711e-05 1.555e-06
-3.12022e-06 1.555e-06 -6.06079e-05
0.00100406 6.42951e-06 4.78597e-08
6.42951e-06 2.73975e-06 1.24033e-08
4.78597e-08 1.24033e-08 -2.70985e-05
0.00108078 -1.39991e-06 1.07139e-06
-1.39991e-06 2.83192e-05 -4.6721e-07
1.07139e-06 -4.6721e-07 -1.69193e-05
0.00237505 1.74306e-05 -4.38379e-06
1.74306e-05 0.0006718 2.44579e-06
-4.38379e-06 2.44579e-06 0.000689698
0.000915489 1.25038e-05 5.3193e-08
1.25038e-05 -3.57635e-05 8.05157e-09
5.3193e-08 8.05157e-09 -3.8111e-05
0.00102635 6.5149e-06 1.90679e-06
6.5149e-06 1.1583e-05 -9.40007e-07
1.90679e-06 -9.40007e-07 -1.5481e-05
0.0022671 1.62619e-05 7.29605e-08
1.62619e-05 0.000613947 5.36439e-08
7.29605e-08 5.36439e-08 0.000633349
0.000958029 1.18486e-05 2.87752e-06
1.18486e-05 -2.06024e-05 -1.68039e-06
2.87752e-06 -1.68039e-06 -2.12552e-05
0.00218175 1.50611e-05 4.04941e-06
1.50611e-05 0.000567201 -2.66716e-06
4.04941e-06 -2.66716e-06 0.00058795
0.00109471 3.06128e-06 -2.86542e-07
3.06128e-06 3.87163e-05 -1.54266e-07
-2.86542e-07 -1.54266e-07 -1.37092e-05
0.00110577 7.96994e-07 -3.38225e-08
7.96994e-07 4.40739e-05 -1.54426e-07
-3.38225e-08 -1.54426e-07 -6.41695e-06
0.00107795 -4.45523e-06 -8.52113e-07
-4.45523e-06 3.35328e-05 -3.67356e-07
-8.52113e-07 -3.67356e-07 -8.92247e-06
0.00122278 -3.6944e-07 3.99643e-07
-3.6944e-07 9.70544e-05 -1.68425e-08
3.99643e-07 -1.68425e-08 4.91178e-05
0.00100792 -5.18138e-06 -1.95917e-07
-5.18138e-06 -2.62564e-06 -2.56188e-07
-1.95917e-07 -2.56188e-07 -4.33689e-05
0.00102511 -7.01687e-06 -1.73802e-06
-7.01687e-06 7.89247e-06 -8.45411e-07
-1.73802e-06 -8.45411e-07 -1.71747e-05
0.000944474 -4.604e-06 7.45825e-07
-4.604e-06 -3.6498e-05 2.27377e-07
7.45825e-07 2.27377e-07 -7.58384e-05
0.00101881 -6.57331e-06 -3.37805e-08
-6.57331e-06 3.73098e-07 1.80244e-08
-3.37805e-08 1.80244e-08 -2.26456e-05
0.000958543 -1.11777e-05 -2.63383e-06
-1.11777e-05 -2.67495e-05 -1.76202e-06
-2.63383e-06 -1.76202e-06 -2.60664e-05
0.00101628 -5.97685e-06 1.52692e-06
-5.97685e-06 -5.05843e-06 1.06664e-06
1.52692e-06 1.06664e-06 -2.64373e-05
0.000948827 -1.02551e-05 -4.52095e-08
-1.02551e-05 -3.69523e-05 1.87527e-08
-4.52095e-08 1.87527e-08 -3.47572e-05
0.00217751 -1.37607e-05 -3.79097e-06
-1.37607e-05 0.000557852 -2.76067e-06
-3.79097e-06 -2.76067e-06 0.000579748
0.000946372 -9.25282e-06 2.18026e-06
-9.25282e-06 -4.27905e-05 2.08426e-06
2.18026e-06 2.08426e-06 -3.95914e-05
0.00223452 -1.23617e-05 -7.71568e-08
-1.23617e-05 0.000579028 4.05386e-08
-7.71568e-08 4.05386e-08 0.00060168
0.00228099 -1.09605e-05 3.27484e-06
-1.09605e-05 0.000596248 3.06279e-06
3.27484e-06 3.06279e-06 0.000619455
0.00122076 -3.5831e-05 2.9101e-06
-3.5831e-05 -1.01716e-05 -6.72749e-07
2.9101e-06 -6.72749e-07 -2.88961e-05
0.00104737 -1.05946e-05 -1.93787e-06
-1.05946e-05 -0.000219038 9.54055e-07
-1.93787e-06 9.54055e-07 -0.000273309
0.00558716 8.07736e-07 -7.20373e-05
8.07736e-07 0.00158195 -2.41555e-05
-7.20373e-05 -2.41555e-05 0.00149697
0.00106418 7.67151e-06 4.598e-07
7.67151e-06 2.03709e-05 4.5101e-07
4.598e-07 4.5101e-07 -3.70226e-05
0.00124571 8.9664e-06 4.76113e-07
8.9664e-06 9.38496e-05 -1.83845e-07
4.76113e-07 -1.83845e-07 3.5237e-05
0.00110606 6.93735e-06 1.51273e-07
6.93735e-06 4.34215e-05 1.12062e-07
1.51273e-07 1.12062e-07 -1.2918e-05
0.00115682 6.87803e-06 9.07903e-08
6.87803e-06 6.05892e-05 -3.88823e-07
9.07903e-08 -3.88823e-07 5.11425e-06
0.00112358 6.13122e-06 -1.99821e-07
6.13122e-06 5.14398e-05 -3.77944e-07
-1.99821e-07 -3.77944e-07 -3.22582e-06
0.00111901 8.21423e-06 3.47314e-08
8.21423e-06 4.8886e-05 1.34376e-08
3.47314e-08 1.34376e-08 -8.37104e-06
0.00119684 1.24606e-05 1.57039e-07
1.24606e-05 6.13552e-05 -5.42663e-07
1.57039e-07 -5.42663e-07 -4.20469e-06
0.00126653 1.02515e-05 -2.60823e-08
1.02515e-05 0.000116148 -2.13948e-07
-2.60823e-08 -2.13948e-07 5.72067e-05
0.00114891 1.22026e-05 -1.56422e-06
1.22026e-05 6.42229e-05 -2.10043e-07
-1.56422e-06 -2.10043e-07 5.578e-06
0.00117385 1.48764e-05 -2.35904e-08
1.48764e-05 5.16428e-05 -3.30557e-08
-2.35904e-08 -3.30557e-08 -1.55612e-05
0.00110981 1.27803e-05 8.06619e-07
1.27803e-05 -2.92323e-05 -8.122e-07
8.06619e-07 -8.122e-07 -0.000106121
0.00133962 -1.01604e-05 -5.31435e-07
-1.01604e-05 3.68628e-05 4.83878e-06
-5.31435e-07 4.83878e-06 -1.46779e-05
0.00141608 1.40776e-05 -5.95271e-07
1.40776e-05 9.38418e-05 5.51214e-07
-5.95271e-07 5.51214e-07 1.44113e-05
0.00118291 1.8836e-05 -7.54189e-07
1.8836e-05 5.86414e-05 2.49045e-06
-7.54189e-07 2.49045e-06 -1.41118e-05
0.00166944 -2.35222e-05 1.27306e-07
-2.35222e-05 6.32925e-05 1.59141e-06
1.27306e-07 1.59141e-06 1.49479e-05
-9.06005e-05 3.72185e-06 2.58398e-05
3.72185e-06 -0.000754438 7.63094e-06
2.58398e-05 7.63094e-06 -0.000832291
0.00147492 1.23943e-05 -2.77257e-06
1.23943e-05 4.2798e-05 -2.20091e-07
-2.77257e-06 -2.20091e-07 -4.60277e-05
0.000860882 -8.08539e-06 9.23499e-07
-8.08539e-06 5.05463e-06 -2.27651e-06
9.23499e-07 -2.27651e-06 -3.51834e-05
0.0007095 -3.56532e-06 8.54697e-07
-3.56532e-06 1.26587e-05 -1.4927e-06
8.54697e-07 -1.4927e-06 -3.55457e-05
0.000269222 8.8833e-06 1.54164e-05
8.8833e-06 -0.000440169 4.38127e-06
1.54164e-05 4.38127e-06 -0.000514244
0.00159913 1.92608e-06 1.1779e-08
1.92608e-06 0.000151505 -1.03854e-06
1.1779e-08 -1.03854e-06 0.000114012
0.00118655 2.12368e-05 -2.26229e-06
2.12368e-05 0.000180566 -6.8887e-07
-2.26229e-06 -6.8887e-07 0.000107722
0.00130888 1.66897e-05 -6.56212e-07
1.66897e-05 0.000122006 -1.48691e-07
-6.56212e-07 -1.48691e-07 5.93744e-05
0.000959963 1.50664e-05 1.05837e-07
1.50664e-05 4.47252e-05 8.92864e-07
1.05837e-07 8.92864e-07 -2.71108e-05
0.00111445 1.60993e-05 1.26082e-07
1.60993e-05 6.51192e-05 -9.7994e-07
1.26082e-07 -9.7994e-07 -4.60011e-06
0.00134513 1.28337e-05 2.52672e-07
1.28337e-05 0.000235038 -1.17489e-06
2.52672e-07 -1.17489e-06 0.000177961
0.00132656 6.99529e-06 -2.94825e-06
6.99529e-06 9.90111e-05 -1.33649e-06
-2.94825e-06 -1.33649e-06 5.7131e-05
0.0012335 1.24509e-05 -7.94096e-08
1.24509e-05 7.51806e-05 -6.25892e-07
-7.94096e-08 -6.25892e-07 1.82985e-05
0.00130017 1.3524e-05 5.21892e-07
1.3524e-05 0.000109389 2.41359e-07
5.21892e-07 2.41359e-07 4.65155e-05
0.00125385 5.81907e-06 -2.24328e-06
5.81907e-06 6.4856e-05 -5.82013e-07
-2.24328e-06 -5.82013e-07 1.70063e-05
0.00123671 7.83198e-06 -9.53097e-08
7.83198e-06 6.33555e-05 -1.70127e-07
-9.53097e-08 -1.70127e-07 6.92311e-06
0.00116097 7.15046e-06 8.75817e-07
7.15046e-06 3.14833e-05 2.71695e-07
8.75817e-07 2.71695e-07 -2.98314e-05
0.0012601 2.76284e-06 -2.04269e-06
2.76284e-06 6.9487e-05 -2.3596e-07
-2.04269e-06 -2.3596e-07 1.58416e-05
0.00122126 2.33254e-06 1.18737e-08
2.33254e-06 5.5728e-05 4.43587e-08
1.18737e-08 4.43587e-08 -3.85729e-06
0.00121183 1.09641e-07 5.16448e-07
1.09641e-07 5.66483e-05 2.23222e-07
5.16448e-07 2.23222e-07 -4.23504e-06
0.00122813 -2.3803e-06 -9.65912e-07
-2.3803e-06 5.97677e-05 -1.90217e-07
-9.65912e-07 -1.90217e-07 2.99549e-06
0.00120663 -3.92708e-06 1.22595e-08
-3.92708e-06 5.44342e-05 -7.35352e-09
1.22595e-08 -7.35352e-09 -3.60309e-06
0.00118411 -3.76967e-06 7.75459e-08
-3.76967e-06 5.13277e-05 7.41245e-08
7.75459e-08 7.41245e-08 -5.72437e-06
0.00114382 -5.46454e-06 -4.46514e-07
-5.46454e-06 2.35349e-05 -1.11579e-08
-4.46514e-07 -1.11579e-08 -3.19647e-05
0.00113669 -4.59186e-06 -4.04356e-08
-4.59186e-06 2.80752e-05 -3.5553e-08
-4.04356e-08 -3.5553e-08 -2.67662e-05
0.00111599 -1.92952e-07 -7.86603e-07
-1.92952e-07 3.49696e-05 1.41996e-07
-7.86603e-07 1.41996e-07 -1.57137e-05
0.00112343 -5.57653e-06 3.686e-07
-5.57653e-06 2.20913e-05 8.82346e-08
3.686e-07 8.82346e-08 -3.15753e-05
0.00103701 -6.2749e-07 -4.9635e-08
-6.2749e-07 -2.00462e-06 3.13651e-08
-4.9635e-08 3.13651e-08 -5.1037e-05
0.000993773 6.45937e-06 -2.07137e-06
6.45937e-06 -3.06522e-06 6.87197e-07
-2.07137e-06 6.87197e-07 -3.86499e-05
0.000913895 1.35899e-05 -3.33505e-06
1.35899e-05 -2.75267e-05 1.47411e-06
-3.33505e-06 1.47411e-06 -3.45229e-05
0.00100236 6.36082e-06 4.95049e-08
6.36082e-06 1.35957e-06 3.84007e-08
4.95049e-08 3.84007e-08 -3.13514e-05
0.00110559 -1.39175e-06 8.47944e-07
-1.39175e-06 3.52208e-05 -9.49513e-08
8.47944e-07 -9.49513e-08 -1.17309e-05
0.00244134 1.85943e-05 -4.6144e-06
1.85943e-05 0.00071053 2.32212e-06
-4.6144e-06 2.32212e-06 0.000726834
0.000901107 1.30139e-05 6.99455e-08
1.30139e-05 -3.78665e-05 2.04529e-09
6.99455e-08 2.04529e-09 -4.2498e-05
0.00102061 6.43977e-06 1.97733e-06
6.43977e-06 1.03913e-05 -8.77932e-07
1.97733e-06 -8.77932e-07 -1.94887e-05
0.00231265 1.74587e-05 6.64726e-08
1.74587e-05 0.000642507 5.67271e-08
6.64726e-08 5.67271e-08 0.000660492
0.000950642 1.24351e-05 3.05177e-06
1.24351e-05 -1.91727e-05 -1.58773e-06
3.05177e-06 -1.58773e-06 -2.16972e-05
0.0022088 1.62939e-05 4.28053e-06
1.62939e-05 0.000586607 -2.54403e-06
4.28053e-06 -2.54403e-06 0.000606107
0.00101203 5.7663e-06 -2.47082e-07
5.7663e-06 -5.86258e-06 -2.74461e-07
-2.47082e-07 -2.74461e-07 -6.12241e-05
0.00103741 3.37392e-06 -1.5289e-08
3.37392e-06 1.13259e-05 -1.62682e-08
-1.5289e-08 -1.62682e-08 -4.15156e-05
0.00109055 -1.90708e-06 -8.92214e-07
-1.90708e-06 3.9088e-05 -3.25832e-07
-8.92214e-07 -3.25832e-07 -5.75348e-06
0.00109493 8.35188e-07 2.07347e-07
8.35188e-07 3.92033e-05 -1.59416e-07
2.07347e-07 -1.59416e-07 -1.12882e-05
0.00106326 -4.94665e-06 1.2637e-09
-4.94665e-06 2.70766e-05 -1.88289e-08
1.2637e-09 -1.88289e-08 -1.5421e-05
0.00102162 -7.29443e-06 -1.80787e-06
-7.29443e-06 1.08161e-05 -7.8272e-07
-1.80787e-06 -7.8272e-07 -1.66062e-05
0.00105091 -5.20225e-06 7.68798e-07
-5.20225e-06 1.86063e-05 1.50601e-07
7.68798e-07 1.50601e-07 -2.18178e-05
0.00101129 -7.01248e-06 -2.52065e-08
-7.01248e-06 1.51328e-06 1.31019e-08
-2.52065e-08 1.31019e-08 -2.35215e-05
0.000950224 -1.2015e-05 -2.80248e-06
-1.2015e-05 -2.44187e-05 -1.62729e-06
-2.80248e-06 -1.62729e-06 -2.55206e-05
0.00100735 -6.57162e-06 1.62125e-06
-6.57162e-06 -4.9895e-06 9.90644e-07
1.62125e-06 9.90644e-07 -2.79707e-05
0.00093774 -1.12131e-05 -5.26142e-08
-1.12131e-05 -3.67352e-05 1.95738e-08
-5.26142e-08 1.95738e-08 -3.5922e-05
0.00218377 -1.5062e-05 -3.99875e-06
-1.5062e-05 0.000567642 -2.63891e-06
-3.99875e-06 -2.63891e-06 0.00058836
0.000932463 -1.02813e-05 2.35916e-06
-1.02813e-05 -4.48728e-05 1.95092e-06
2.35916e-06 1.95092e-06 -4.25677e-05
0.0022379 -1.37105e-05 -7.22597e-08
-1.37105e-05 0.000586133 4.43541e-08
-7.22597e-08 4.43541e-08 0.000607897
0.00228865 -1.23079e-05 3.51415e-06
-1.23079e-05 0.000604468 2.9375e-06
3.51415e-06 2.9375e-06 0.000626971
0.00124292 -2.48303e-05 1.71713e-06
-2.48303e-05 7.64831e-05 4.63014e-07
1.71713e-06 4.63014e-07 5.07859e-05
0.00136678 -3.47924e-05 1.10174e-06
-3.47924e-05 9.00904e-05 -3.27761e-06
1.10174e-06 -3.27761e-06 7.12093e-05
0.00102926 -1.09703e-05 1.68197e-05
-1.09703e-05 0.000108304 4.62401e-06
1.68197e-05 4.62401e-06 8.80323e-05
0.001318 1.01116e-05 5.44698e-07
1.01116e-05 0.000115261 -3.44491e-07
5.44698e-07 -3.44491e-07 5.41141e-05
0.00107873 7.90702e-06 -3.9842e-08
7.90702e-06 2.99312e-05 2.24654e-07
-3.9842e-08 2.24654e-07 -2.69413e-05
0.000972533 9.5127e-06 -3.55094e-07
9.5127e-06 -4.79162e-05 -2.25647e-07
-3.55094e-07 -2.25647e-07 -0.000111371
0.00121803 8.912e-06 1.95605e-08
8.912e-06 8.09426e-05 1.6962e-08
1.95605e-08 1.6962e-08 2.21334e-05
0.00100779 7.15102e-06 -2.60565e-07
7.15102e-06 -7.5235e-07 2.99387e-07
-2.60565e-07 2.99387e-07 -5.74034e-05
0.0013023 1.21628e-05 1.97377e-08
1.21628e-05 7.16259e-05 -1.68558e-06
1.97377e-08 -1.68558e-06 -5.2943e-07
0.00114858 8.42028e-06 -2.01745e-07
8.42028e-06 6.15101e-05 -3.43384e-07
-2.01745e-07 -3.43384e-07 3.90403e-06
0.00117024 1.23124e-05 -1.53702e-08
1.23124e-05 4.81715e-05 4.03721e-07
-1.53702e-08 4.03721e-07 -1.72679e-05
0.0012039 -7.82776e-06 1.41916e-06
-7.82776e-06 -1.35676e-05 3.69223e-06
1.41916e-06 3.69223e-06 -7.5939e-05
0.00110382 1.4671e-05 -4.23389e-07
1.4671e-05 1.83728e-05 8.83405e-07
-4.23389e-07 8.83405e-07 -4.91427e-05
0.00123879 1.3208e-05 -1.17682e-07
1.3208e-05 2.31798e-05 -4.07897e-07
-1.17682e-07 -4.07897e-07 -5.499e-05
0.00139254 -1.05908e-05 2.04871e-07
-1.05908e-05 5.56404e-05 1.32003e-06
2.04871e-07 1.32003e-06 3.76365e-06
0.00153795 1.34635e-05 -5.73718e-07
1.34635e-05 0.000152077 6.91838e-07
-5.73718e-07 6.91838e-07 7.41015e-05
0.00181453 -2.19957e-05 -4.26159e-06
-2.19957e-05 0.000135126 -4.8301e-06
-4.26159e-06 -4.8301e-06 8.65318e-05
0.00120376 -1.06083e-05 6.94638e-07
-1.06083e-05 0.0001518 -1.21019e-06
6.94638e-07 -1.21019e-06 0.000110421
0.000795555 -7.48782e-06 1.13532e-09
-7.48782e-06 -1.98108e-05 7.18774e-07
1.13532e-09 7.18774e-07 -6.13911e-05
0.000459082 -5.03826e-06 -1.16795e-06
-5.03826e-06 -0.000108477 1.51229e-06
-1.16795e-06 1.51229e-06 -0.000156078
0.0014942 1.6989e-05 -2.8405e-06
1.6989e-05 0.000209921 -2.67988e-06
-2.8405e-06 -2.67988e-06 0.000148467
0.00123747 1.53863e-05 1.45794e-06
1.53863e-05 0.000173945 3.68986e-06
1.45794e-06 3.68986e-06 0.000104584
0.00113868 1.62879e-05 -3.54833e-07
1.62879e-05 7.15348e-05 -8.35613e-07
-3.54833e-07 -8.35613e-07 1.39825e-06
0.00123968 1.21959e-05 2.89703e-07
1.21959e-05 0.00017684 1.82998e-06
2.89703e-07 1.82998e-06 0.000121037
0.00109157 1.37967e-05 -2.68091e-07
1.37967e-05 7.5178e-05 -2.36137e-06
-2.68091e-07 -2.36137e-06 1.85862e-05
0.00118772 1.23202e-05 -1.43841e-06
1.23202e-05 5.31601e-05 -1.24543e-06
-1.43841e-06 -1.24543e-06 -3.09975e-06
0.00122935 1.32053e-05 -5.61346e-09
1.32053e-05 7.51462e-05 -3.5398e-07
-5.61346e-09 -3.5398e-07 1.3108e-05
0.0012469 1.14593e-05 -1.18131e-07
1.14593e-05 9.00708e-05 -5.43865e-07
-1.18131e-07 -5.43865e-07 2.8336e-05
0.00122745 7.76371e-06 -1.55399e-06
7.76371e-06 5.93434e-05 -4.5906e-07
-1.55399e-06 -4.5906e-07 2.65752e-06
0.001216 7.17308e-06 1.59124e-07
7.17308e-06 5.64115e-05 5.42229e-09
1.59124e-07 5.42229e-09 -5.25737e-06
0.00122023 5.42226e-06 4.22791e-07
5.42226e-06 6.31917e-05 9.96656e-08
4.22791e-07 9.96656e-08 1.16954e-06
0.00123308 2.3929e-06 -1.01193e-06
2.3929e-06 6.12299e-05 -1.87033e-07
-1.01193e-06 -1.87033e-07 1.67548e-06
0.00121178 4.45392e-07 6.49938e-09
4.45392e-07 5.64701e-05 1.88539e-08
6.49938e-09 1.88539e-08 -4.40334e-06
0.00118847 -1.10123e-06 9.64919e-08
-1.10123e-06 5.34616e-05 1.93384e-07
9.64919e-08 1.93384e-07 -6.31341e-06
0.00120564 -3.74144e-06 -5.02094e-07
-3.74144e-06 5.37036e-05 -1.08557e-07
-5.02094e-07 -1.08557e-07 -4.31313e-06
0.00118045 -3.59915e-06 -6.92185e-09
-3.59915e-06 4.94096e-05 2.57185e-09
-6.92185e-09 2.57185e-09 -7.61634e-06
0.00111845 1.56329e-07 -6.01157e-07
1.56329e-07 3.6218e-05 1.76603e-07
-6.01157e-07 1.76603e-07 -1.70353e-05
0.00112862 -4.42462e-06 1.12273e-08
-4.42462e-06 2.3742e-05 1.97296e-08
1.12273e-08 1.97296e-08 -3.10464e-05
0.00110799 -6.18801e-08 -4.97793e-08
-6.18801e-08 3.10781e-05 1.61278e-08
-4.97793e-08 1.61278e-08 -1.95255e-05
0.000991586 6.80981e-06 -1.99786e-06
6.80981e-06 -2.48931e-06 5.74149e-07
-1.99786e-06 5.74149e-07 -4.13583e-05
0.000987915 -4.43527e-07 9.11867e-07
-4.43527e-07 -2.57199e-05 -1.52612e-07
9.11867e-07 -1.52612e-07 -7.48878e-05
0.00100274 6.449e-06 2.49284e-08
6.449e-06 9.41807e-07 3.3539e-08
2.49284e-08 3.3539e-08 -3.46057e-05
0.00157221 1.48529e-05 -2.50945e-06
1.48529e-05 0.000294718 6.81081e-07
-2.50945e-06 6.81081e-07 0.000287912
0.00124654 1.82708e-05 -6.95409e-06
1.82708e-05 0.000141892 3.49333e-06
-6.95409e-06 3.49333e-06 0.00015017
0.00124431 1.38085e-05 1.73761e-08
1.38085e-05 0.000131787 8.72029e-08
1.73761e-08 8.72029e-08 0.000126032
0.00101278 6.43561e-06 2.03933e-06
6.43561e-06 6.14651e-06 -7.25854e-07
2.03933e-06 -7.25854e-07 -2.65592e-05
0.00237492 1.86104e-05 6.50331e-08
1.86104e-05 0.000679352 6.21648e-08
6.50331e-08 6.21648e-08 0.000695715
0.000940279 1.29332e-05 3.23663e-06
1.29332e-05 -1.94717e-05 -1.50666e-06
3.23663e-06 -1.50666e-06 -2.42988e-05
0.00224989 1.7485e-05 4.53002e-06
1.7485e-05 0.000613033 -2.43197e-06
4.53002e-06 -2.43197e-06 0.000631107
0.00115889 9.38552e-06 1.80538e-07
9.38552e-06 3.32637e-05 5.80924e-08
1.80538e-07 5.80924e-08 -2.9514e-05
0.00099424 7.1183e-06 7.34766e-08
7.1183e-06 -1.94514e-05 -2.64384e-07
7.34766e-08 -2.64384e-07 -7.80695e-05
0.00101426 6.10862e-06 -9.05819e-09
6.10862e-06 -6.3251e-06 -1.03224e-08
-9.05819e-09 -1.03224e-08 -6.19673e-05
0.0010974 2.73729e-08 -8.85156e-07
2.73729e-08 4.05231e-05 -3.56269e-07
-8.85156e-07 -3.56269e-07 -6.70353e-06
0.00097966 3.67714e-06 1.38389e-07
3.67714e-06 -1.62877e-05 1.52385e-07
1.38389e-07 1.52385e-07 -6.9543e-05
0.00107186 -2.75541e-06 -4.5711e-08
-2.75541e-06 3.11286e-05 1.30227e-08
-4.5711e-08 1.30227e-08 -1.37695e-05
0.00101948 -7.41742e-06 -1.88692e-06
-7.41742e-06 1.3522e-05 -7.08792e-07
-1.88692e-06 -7.08792e-07 -1.64223e-05
0.00104856 -5.43502e-06 9.14386e-07
-5.43502e-06 2.0617e-05 3.79958e-07
9.14386e-07 3.79958e-07 -2.19235e-05
0.00100451 -7.28728e-06 -2.81792e-08
-7.28728e-06 2.98827e-06 7.39781e-09
-2.81792e-08 7.39781e-09 -2.43958e-05
0.000940776 -1.27121e-05 -2.98175e-06
-1.27121e-05 -2.19714e-05 -1.49762e-06
-2.98175e-06 -1.49762e-06 -2.51576e-05
0.000997487 -7.00741e-06 1.70663e-06
-7.00741e-06 -4.86115e-06 8.86857e-07
1.70663e-06 8.86857e-07 -2.98632e-05
0.000924557 -1.2058e-05 -5.25986e-08
-1.2058e-05 -3.66077e-05 1.67362e-08
-5.25986e-08 1.67362e-08 -3.75709e-05
0.00220025 -1.62866e-05 -4.21874e-06
-1.62866e-05 0.000583508 -2.51616e-06
-4.21874e-06 -2.51616e-06 0.000602784
0.000916828 -1.12485e-05 2.52853e-06
-1.12485e-05 -4.67673e-05 1.82851e-06
2.52853e-06 1.82851e-06 -4.58243e-05
0.00224876 -1.50219e-05 -7.16574e-08
-1.50219e-05 0.000597903 4.96146e-08
-7.16574e-08 4.96146e-08 0.000618524
0.00229837 -1.36588e-05 3.71895e-06
-1.36588e-05 0.000614442 2.80463e-06
3.71895e-06 2.80463e-06 0.000636075
0.0013312 -2.52423e-05 1.6932e-06
-2.52423e-05 0.000108205 1.51499e-06
1.6932e-06 1.51499e-06 6.52847e-05
0.00117801 -2.51236e-05 5.76984e-07
-2.51236e-05 3.49778e-05 -1.72774e-06
5.76984e-07 -1.72774e-06 8.46537e-06
0.00159949 -3.38667e-05 -3.54099e-06
-3.38667e-05 0.000228611 -6.2759e-06
-3.54099e-06 -6.2759e-06 0.000209535
0.00130411 1.05596e-05 -1.03602e-07
1.05596e-05 7.94041e-05 -9.15441e-07
-1.03602e-07 -9.15441e-07 1.23079e-05
0.00127512 9.82146e-06 -5.54115e-09
9.82146e-06 0.000100264 1.33087e-07
-5.54115e-09 1.33087e-07 4.00347e-05
0.00108276 8.13513e-06 -7.6535e-07
8.13513e-06 3.46352e-05 -1.13566e-07
-7.6535e-07 -1.13566e-07 -2.17106e-05
0.00117451 9.83683e-06 5.30126e-08
9.83683e-06 4.38685e-05 2.24088e-07
5.30126e-08 2.24088e-07 -1.88667e-05
0.00118988 8.85574e-06 -4.8901e-07
8.85574e-06 6.77729e-05 2.97205e-07
-4.8901e-07 2.97205e-07 8.773e-06
0.00116748 -2.97033e-06 4.38627e-07
-2.97033e-06 -9.1466e-06 1.36934e-06
4.38627e-07 1.36934e-06 -7.77894e-05
0.00133523 1.23504e-05 -3.64657e-07
1.23504e-05 8.72603e-05 -6.85123e-07
-3.64657e-07 -6.85123e-07 1.44489e-05
0.00113955 1.21805e-05 -1.91845e-07
1.21805e-05 3.32549e-05 1.37117e-06
-1.91845e-07 1.37117e-06 -3.20799e-05
0.00135218 -7.41055e-06 7.19132e-08
-7.41055e-06 5.13898e-05 1.10341e-06
7.19132e-08 1.10341e-06 -1.14987e-05
0.00136362 1.36225e-05 -7.43085e-07
1.36225e-05 7.36124e-05 2.41461e-07
-7.43085e-07 2.41461e-07 -5.82056e-06
0.00144495 -1.09519e-05 8.47707e-07
-1.09519e-05 7.42255e-05 -2.29375e-06
8.47707e-07 -2.29375e-06 2.20189e-05
0.000586168 -3.74997e-06 6.95695e-07
-3.74997e-06 -0.000123285 -2.08698e-07
6.95695e-07 -2.08698e-07 -0.000168387
0.00102738 -9.61927e-06 -4.36052e-07
-9.61927e-06 7.71225e-05 -3.03357e-07
-4.36052e-07 -3.03357e-07 3.45529e-05
0.000715925 -7.04545e-06 1.12316e-07
-7.04545e-06 -5.12693e-05 3.62429e-06
1.12316e-07 3.62429e-06 -9.42001e-05
0.00116836 1.65023e-05 4.08897e-07
1.65023e-05 8.04947e-05 -8.09906e-07
4.08897e-07 -8.09906e-07 9.95379e-06
0.00112539 1.15438e-05 7.10351e-07
1.15438e-05 0.000114824 4.34714e-06
7.10351e-07 4.34714e-06 6.0243e-05
0.00109858 1.36348e-05 -4.77252e-07
1.36348e-05 7.5843e-05 -3.40829e-07
-4.77252e-07 -3.40829e-07 1.90947e-05
0.00105404 1.0337e-05 5.88091e-07
1.0337e-05 4.86411e-05 -1.13472e-06
5.88091e-07 -1.13472e-06 -7.49312e-06
0.00114745 1.28711e-05 -7.65854e-07
1.28711e-05 3.55531e-05 -3.09905e-07
-7.65854e-07 -3.09905e-07 -2.5617e-05
0.00126422 1.13975e-05 -1.66022e-07
1.13975e-05 9.24432e-05 -1.06171e-07
-1.66022e-07 -1.06171e-07 3.04191e-05
0.00119993 9.09166e-06 -1.42591e-07
9.09166e-06 6.56648e-05 -1.45454e-06
-1.42591e-07 -1.45454e-06 6.77163e-06
0.00127189 7.19868e-06 -8.53678e-07
7.19868e-06 8.17134e-05 -3.46587e-08
-8.53678e-07 -3.46587e-08 1.96921e-05
0.00121704 5.58878e-06 1.31532e-08
5.58878e-06 6.17198e-05 3.04548e-07
1.31532e-08 3.04548e-07 -3.56699e-07
0.0011922 3.85454e-06 8.61898e-08
3.85454e-06 5.70279e-05 1.37633e-07
8.61898e-08 1.37633e-07 -4.3947e-06
0.00121182 8.57821e-07 -4.94593e-07
8.57821e-07 5.63296e-05 -1.85826e-07
-4.94593e-07 -1.85826e-07 -4.53376e-06
0.0011843 -9.29753e-07 -1.19091e-08
-9.29753e-07 5.14489e-05 1.61896e-08
-1.19091e-08 1.61896e-08 -8.31237e-06
0.0011223 1.10874e-06 -4.87321e-07
1.10874e-06 3.80452e-05 2.34846e-07
-4.87321e-07 2.34846e-07 -1.81653e-05
0.00117699 -3.45807e-06 -5.3542e-08
-3.45807e-06 4.75824e-05 -8.00897e-08
-5.3542e-08 -8.00897e-08 -9.41735e-06
0.00111378 3.67212e-07 -4.12506e-08
3.67212e-07 3.39961e-05 2.75615e-08
-4.12506e-08 2.75615e-08 -1.92083e-05
0.000992128 6.84917e-06 -1.87016e-06
6.84917e-06 5.71859e-07 5.32787e-07
-1.87016e-06 5.32787e-07 -4.2195e-05
0.0010997 7.5108e-08 7.43468e-07
7.5108e-08 2.70473e-05 -1.30271e-07
7.43468e-07 -1.30271e-07 -2.34764e-05
0.00100329 6.57313e-06 4.79312e-09
6.57313e-06 2.56582e-06 2.29696e-08
4.79312e-09 2.29696e-08 -3.62404e-05
0.00158974 1.53884e-05 -2.58697e-06
1.53884e-05 0.000311159 5.88253e-07
-2.58697e-06 5.88253e-07 0.000301022
0.00101163 6.39572e-06 2.0225e-06
6.39572e-06 4.91356e-06 -5.77317e-07
2.0225e-06 -5.77317e-07 -3.05967e-05
0.00155056 1.46053e-05 1.38534e-06
1.46053e-05 0.000285099 -6.85071e-07
1.38534e-06 -6.85071e-07 0.000277942
0.0012027 1.92254e-05 -7.55966e-06
1.92254e-05 0.000130345 3.35921e-06
-7.55966e-06 3.35921e-06 0.000135985
0.0018376 1.90801e-05 -2.96109e-06
1.90801e-05 0.000426665 1.51437e-06
-2.96109e-06 1.51437e-06 0.000438203
0.00157767 1.39386e-05 3.88086e-06
1.39386e-05 0.000292414 -1.41076e-06
3.88086e-06 -1.41076e-06 0.000287903
0.0023087 1.86243e-05 4.83371e-06
1.86243e-05 0.000648258 -2.33477e-06
4.83371e-06 -2.33477e-06 0.000664682
0.00121585 8.47345e-06 -5.74283e-08
8.47345e-06 3.9045e-05 -6.97674e-07
-5.74283e-08 -6.97674e-07 -2.74033e-05
0.00128771 8.1231e-06 4.18586e-07
8.1231e-06 0.000109568 -8.19375e-08
4.18586e-07 -8.19375e-08 5.04395e-05
0.0011664 9.47819e-06 3.17448e-07
9.47819e-06 3.94767e-05 5.06689e-07
3.17448e-07 5.06689e-07 -2.20583e-05
0.00109268 1.15465e-06 -7.54245e-07
1.15465e-06 3.74345e-05 -5.93114e-07
-7.54245e-07 -5.93114e-07 -1.31691e-05
0.00109163 7.60164e-06 -6.10291e-08
7.60164e-06 2.53462e-05 -1.2927e-08
-6.10291e-08 -1.2927e-08 -3.31222e-05
0.00101818 6.43495e-06 2.29536e-07
6.43495e-06 -6.03095e-06 3.24005e-07
2.29536e-07 3.24005e-07 -6.19519e-05
0.00108748 -4.15377e-07 3.59792e-09
-4.15377e-07 3.6885e-05 -1.28036e-09
3.59792e-09 -1.28036e-09 -1.04514e-05
0.00101749 -7.45696e-06 -1.87623e-06
-7.45696e-06 1.56365e-05 -7.0664e-07
-1.87623e-06 -7.0664e-07 -1.71573e-05
0.00105362 -3.63819e-06 8.0362e-07
-3.63819e-06 2.33752e-05 3.61604e-07
8.0362e-07 3.61604e-07 -2.15803e-05
0.00100099 -7.39523e-06 -4.0949e-08
-7.39523e-06 5.13916e-06 1.19107e-08
-4.0949e-08 1.19107e-08 -2.47774e-05
0.000929267 -1.32541e-05 -3.16587e-06
-1.32541e-05 -2.01461e-05 -1.3729e-06
-3.16587e-06 -1.3729e-06 -2.56238e-05
0.000987568 -7.27869e-06 1.76249e-06
-7.27869e-06 -4.76511e-06 8.03786e-07
1.76249e-06 8.03786e-07 -3.21112e-05
0.000910083 -1.27607e-05 -5.86907e-08
-1.27607e-05 -3.63883e-05 1.65776e-08
-5.86907e-08 1.65776e-08 -3.94336e-05
0.0022261 -1.74086e-05 -4.45855e-06
-1.74086e-05 0.000604924 -2.39035e-06
-4.45855e-06 -2.39035e-06 0.000622532
0.000898888 -1.21005e-05 2.70484e-06
-1.21005e-05 -4.8792e-05 1.69589e-06
2.70484e-06 1.69589e-06 -4.96174e-05
0.00226846 -1.62624e-05 -6.86891e-08
-1.62624e-05 0.000615078 5.3668e-08
-6.86891e-08 5.3668e-08 0.000634293
0.002314 -1.49809e-05 3.9081e-06
-1.49809e-05 0.000628266 2.67262e-06
3.9081e-06 2.67262e-06 0.00064879
0.00120067 -1.65902e-05 2.79668e-07
-1.65902e-05 7.25067e-05 2.93242e-06
2.79668e-07 2.93242e-06 1.88817e-05
0.00123113 -2.45939e-05 1.721e-07
-2.45939e-05 6.42465e-05 -1.05774e-06
1.721e-07 -1.05774e-06 2.13388e-05
0.00114254 -2.54696e-05 3.11282e-07
-2.54696e-05 6.40319e-06 -3.0893e-06
3.11282e-07 -3.0893e-06 -2.09304e-05
0.00103363 5.80193e-07 -1.72437e-07
5.80193e-07 -6.18221e-05 8.14246e-07
-1.72437e-07 8.14246e-07 -0.000127954
0.00130526 1.02724e-05 6.28502e-08
1.02724e-05 7.97742e-05 -3.24781e-07
6.28502e-08 -3.24781e-07 1.25846e-05
0.0012419 9.54852e-06 -5.84497e-07
9.54852e-06 8.97213e-05 5.24982e-07
-5.84497e-07 5.24982e-07 3.04049e-05
0.00137514 1.01618e-05 -7.59613e-08
1.01618e-05 0.000135017 3.03662e-07
-7.59613e-08 3.03662e-07 7.30043e-05
0.00131995 -2.40049e-06 -2.43573e-08
-2.40049e-06 6.01515e-05 6.97259e-08
-2.43573e-08 6.97259e-08 -8.18028e-06
0.00137256 1.25294e-05 -3.84397e-07
1.25294e-05 0.000104892 2.32355e-07
-3.84397e-07 2.32355e-07 3.14268e-05
0.00149496 -6.96182e-06 -8.29391e-07
-6.96182e-06 0.000113873 -1.34702e-06
-8.29391e-07 -1.34702e-06 5.04598e-05
0.000847861 -2.40383e-06 1.8663e-06
-2.40383e-06 -8.0164e-06 2.69418e-07
1.8663e-06 2.69418e-07 -5.81093e-05
0.00083691 -3.16217e-06 -2.88222e-08
-3.16217e-06 -1.4635e-05 -6.14221e-08
-2.88222e-08 -6.14221e-08 -6.13052e-05
0.000854155 -8.37482e-06 -1.87938e-06
-8.37482e-06 3.83955e-06 8.81383e-07
-1.87938e-06 8.81383e-07 -3.99026e-05
0.000999806 7.57189e-06 6.30983e-07
7.57189e-06 4.06791e-05 -3.4674e-07
6.30983e-07 -3.4674e-07 -1.47897e-05
0.00112399 1.34946e-05 1.75228e-08
1.34946e-05 8.50182e-05 1.16877e-06
1.75228e-08 1.16877e-06 2.81043e-05
0.00106212 1.04301e-05 3.52223e-07
1.04301e-05 5.34627e-05 -5.31302e-08
3.52223e-07 -5.31302e-08 -2.66998e-06
0.0011367 9.76936e-06 3.04287e-07
9.76936e-06 6.73143e-05 -1.18864e-07
3.04287e-07 -1.18864e-07 1.11822e-05
0.00128288 1.13399e-05 -4.54985e-07
1.13399e-05 9.55367e-05 4.27851e-07
-4.54985e-07 4.27851e-07 3.32096e-05
0.00117967 8.84033e-06 -3.51607e-07
8.84033e-06 5.75688e-05 -5.22193e-07
-3.51607e-07 -5.22193e-07 -1.40233e-06
0.0011828 7.91568e-06 -6.87015e-08
7.91568e-06 6.24456e-05 -1.10454e-06
-6.87015e-08 -1.10454e-06 2.62277e-06
0.00121265 5.75095e-06 -4.50609e-08
5.75095e-06 5.96964e-05 4.63311e-07
-4.50609e-08 4.63311e-07 -2.43438e-06
0.00117922 3.92079e-06 5.02749e-09
3.92079e-06 5.14643e-05 2.26737e-07
5.02749e-09 2.26737e-07 -9.90715e-06
0.00113235 4.02742e-06 -4.20154e-07
4.02742e-06 4.41258e-05 2.30423e-07
-4.20154e-07 2.30423e-07 -1.45649e-05
0.0011795 -6.88524e-07 -8.5264e-08
-6.88524e-07 4.91515e-05 -1.69397e-07
-8.5264e-08 -1.69397e-07 -1.05964e-05
0.0011182 1.32354e-06 -3.77363e-08
1.32354e-06 3.62698e-05 2.22505e-08
-3.77363e-08 2.22505e-08 -1.99141e-05
0.000997239 6.66806e-06 -1.75062e-06
6.66806e-06 5.83025e-06 5.16809e-07
-1.75062e-06 5.16809e-07 -4.12061e-05
0.00110906 6.13527e-07 6.01865e-07
6.13527e-07 3.17462e-05 -1.48988e-07
6.01865e-07 -1.48988e-07 -2.14096e-05
0.00100449 6.60597e-06 4.03546e-10
6.60597e-06 5.79361e-06 3.14369e-08
4.03546e-10 3.14369e-08 -3.68909e-05
0.00159775 1.56695e-05 -2.63023e-06
1.56695e-05 0.000325636 5.31473e-07
-2.63023e-06 5.31473e-07 0.000311478
0.00101473 6.37057e-06 1.92632e-06
6.37057e-06 7.49916e-06 -4.92927e-07
1.92632e-06 -4.92927e-07 -3.12447e-05
0.00155236 1.50981e-05 1.48264e-06
1.50981e-05 0.000293883 -6.49601e-07
1.48264e-06 -6.49601e-07 0.000283415
0.00121802 1.9933e-05 -8.10154e-06
1.9933e-05 0.000149851 3.15377e-06
-8.10154e-06 3.15377e-06 0.000152242
0.00153058 1.43592e-05 5.24881e-06
1.43592e-05 0.000276251 -2.05657e-06
5.24881e-06 -2.05657e-06 0.000268738
0.00117093 1.95147e-05 -2.73418e-06
1.95147e-05 0.00011451 1.41361e-06
-2.73418e-06 1.41361e-06 0.000120553
0.00242403 2.00727e-05 2.19621e-06
2.00727e-05 0.000709377 -8.24713e-07
2.19621e-06 -8.24713e-07 0.00072417
0.0013462 6.37217e-07 -2.91633e-07
6.37217e-07 8.20651e-05 4.69672e-07
-2.91633e-07 4.69672e-07 1.62761e-05
0.00121424 7.97678e-06 1.02891e-07
7.97678e-06 5.17187e-05 -6.67198e-07
1.02891e-07 -6.67198e-07 -1.19315e-05
0.00126064 8.72888e-06 -2.31828e-07
8.72888e-06 6.29481e-05 3.48595e-07
-2.31828e-07 3.48595e-07 -2.91225e-06
0.00132412 2.48831e-06 -4.2972e-07
2.48831e-06 0.000140908 -1.37987e-07
-4.2972e-07 -1.37987e-07 8.85331e-05
0.00121634 8.16345e-06 2.63681e-07
8.16345e-06 7.55171e-05 1.16025e-09
2.63681e-07 1.16025e-09 1.59305e-05
0.00117471 9.56587e-06 3.65396e-07
9.56587e-06 4.60906e-05 8.60945e-07
3.65396e-07 8.60945e-07 -1.42078e-05
0.00101945 -6.52646e-06 -1.81112e-06
-6.52646e-06 1.80466e-05 -8.76072e-07
-1.81112e-06 -8.76072e-07 -1.86613e-05
0.00109537 1.21015e-06 4.42774e-08
1.21015e-06 3.92637e-05 -5.69908e-08
4.42774e-08 -5.69908e-08 -1.1432e-05
0.00118812 8.10887e-06 3.46598e-07
8.10887e-06 6.97792e-05 4.56972e-07
3.46598e-07 4.56972e-07 1.14549e-05
0.00107633 -7.87843e-07 8.35346e-07
-7.87843e-07 3.26757e-05 3.26007e-07
8.35346e-07 3.26007e-07 -1.47692e-05
0.000998981 -7.39385e-06 -2.70381e-08
-7.39385e-06 7.43747e-06 -1.80512e-08
-2.70381e-08 -1.80512e-08 -2.53665e-05
0.000917612 -1.36131e-05 -3.34e-06
-1.36131e-05 -1.83388e-05 -1.30788e-06
-3.34e-06 -1.30788e-06 -2.64304e-05
0.000982576 -7.37451e-06 1.82639e-06
-7.37451e-06 -3.20337e-06 7.42692e-07
1.82639e-06 7.42692e-07 -3.3092e-05
0.000894633 -1.3305e-05 -6.46804e-08
-1.3305e-05 -3.62785e-05 1.6293e-08
-6.46804e-08 1.6293e-08 -4.1619e-05
0.0022614 -1.84147e-05 -4.72339e-06
-1.84147e-05 0.000631716 -2.26149e-06
-4.72339e-06 -2.26149e-06 0.000647476
0.000879528 -1.28086e-05 2.87286e-06
-1.28086e-05 -5.07359e-05 1.56597e-06
2.87286e-06 1.56597e-06 -5.36412e-05
0.00229638 -1.74047e-05 -6.74134e-08
-1.74047e-05 0.000637293 5.82238e-08
-6.74134e-08 5.82238e-08 0.000654873
0.00233694 -1.62366e-05 4.10855e-06
-1.62366e-05 0.000646759 2.54347e-06
4.10855e-06 2.54347e-06 0.000665914
0.00123194 -1.11476e-05 7.40424e-07
-1.11476e-05 8.46768e-05 1.64665e-06
7.40424e-07 1.64665e-06 2.78033e-05
0.00127584 -1.66996e-05 6.88563e-08
-1.66996e-05 9.93705e-05 5.68647e-07
6.88563e-08 5.68647e-07 4.5024e-05
0.00113153 -2.39522e-05 -1.44415e-06
-2.39522e-05 2.0506e-05 -3.60146e-06
-1.44415e-06 -3.60146e-06 -2.23829e-05
0.00119944 1.04606e-07 -1.0617e-07
1.04606e-07 5.40082e-06 -1.211e-07
-1.0617e-07 -1.211e-07 -6.15529e-05
0.00130409 9.98047e-06 -6.8738e-08
9.98047e-06 7.89944e-05 2.92928e-07
-6.8738e-08 2.92928e-07 1.17204e-05
0.00146149 -1.82669e-06 -2.2109e-07
-1.82669e-06 0.000124452 -1.31618e-06
-2.2109e-07 -1.31618e-06 5.64311e-05
0.000899584 -2.6015e-06 1.10336e-06
-2.6015e-06 1.56947e-05 5.29762e-07
1.10336e-06 5.29762e-07 -4.13585e-05
0.000912654 -1.86636e-06 4.70732e-07
-1.86636e-06 2.87055e-05 -2.72284e-09
4.70732e-07 -2.72284e-09 -2.13101e-05
0.00108959 -2.59614e-06 -6.81857e-07
-2.59614e-06 9.49495e-05 2.21789e-07
-6.81857e-07 2.21789e-07 4.67052e-05
0.00104403 7.44609e-06 -2.23374e-07
7.44609e-06 5.96364e-05 4.33794e-07
-2.23374e-07 4.33794e-07 3.21959e-06
0.0010246 8.02003e-06 3.18919e-07
8.02003e-06 4.56199e-05 -1.54651e-07
3.18919e-07 -1.54651e-07 -1.10903e-05
0.00107098 1.05329e-05 -1.46329e-07
1.05329e-05 5.86478e-05 8.47439e-07
-1.46329e-07 8.47439e-07 2.51731e-06
0.00110596 9.52799e-06 8.71917e-08
9.52799e-06 5.36016e-05 3.7263e-07
8.71917e-08 3.7263e-07 -2.53777e-06
0.00121972 9.51517e-06 4.45122e-07
9.51517e-06 0.00010219 -2.87058e-07
4.45122e-07 -2.87058e-07 4.5285e-05
0.00115872 8.58345e-06 -2.02538e-07
8.58345e-06 4.91763e-05 3.61978e-07
-2.02538e-07 3.61978e-07 -9.87488e-06
0.00115927 7.88558e-06 -1.73848e-07
7.88558e-06 5.25917e-05 -3.93449e-07
-1.73848e-07 -3.93449e-07 -7.16101e-06
0.0011257 6.86411e-06 -5.09231e-07
6.86411e-06 4.90248e-05 -3.8047e-07
-5.09231e-07 -3.8047e-07 -9.984e-06
0.00116654 3.9481e-06 -7.22382e-08
3.9481e-06 4.60375e-05 3.14908e-07
-7.22382e-08 3.14908e-07 -1.52826e-05
0.00111779 4.06244e-06 -1.31183e-08
4.06244e-06 3.79059e-05 1.48449e-07
-1.31183e-08 1.48449e-07 -2.07409e-05
0.00100706 6.85872e-06 -1.65696e-06
6.85872e-06 1.38866e-05 4.67397e-07
-1.65696e-06 4.67397e-07 -3.71251e-05
0.00111376 1.5682e-06 4.75314e-07
1.5682e-06 3.43413e-05 -2.08277e-07
4.75314e-07 -2.08277e-07 -2.18162e-05
0.00100644 6.57061e-06 -5.34871e-09
6.57061e-06 9.60121e-06 3.82463e-08
-5.34871e-09 3.82463e-08 -3.73466e-05
0.00150443 1.51047e-05 -2.67996e-06
1.51047e-05 0.00029537 5.1755e-07
-2.67996e-06 5.1755e-07 0.000276142
0.00101665 6.3571e-06 1.80843e-06
6.3571e-06 1.09218e-05 -4.44812e-07
1.80843e-06 -4.44812e-07 -3.16801e-05
0.00154875 1.53425e-05 1.5965e-06
1.53425e-05 0.000302517 -6.00898e-07
1.5965e-06 -6.00898e-07 0.000288035
0.00122426 2.01425e-05 -8.70656e-06
2.01425e-05 0.000168406 2.94636e-06
-8.70656e-06 2.94636e-06 0.000166831
0.00151617 1.48086e-05 5.50813e-06
1.48086e-05 0.000277188 -1.89291e-06
5.50813e-06 -1.89291e-06 0.000266384
0.00117821 2.02236e-05 -2.94769e-06
2.02236e-05 0.000130276 1.32664e-06
-2.94769e-06 1.32664e-06 0.000133113
0.00113721 1.9804e-05 2.1053e-06
1.9804e-05 9.77554e-05 -5.33418e-07
2.1053e-06 -5.33418e-07 0.000104208
0.00141586 -9.46952e-06 4.39976e-07
-9.46952e-06 0.000134992 1.14895e-06
4.39976e-07 1.14895e-06 8.12179e-05
0.00127356 1.19974e-06 -3.77778e-07
1.19974e-06 6.07616e-05 2.96469e-07
-3.77778e-07 2.96469e-07 -4.58382e-06
0.00139538 4.83574e-07 -5.67027e-08
4.83574e-07 0.00010241 -1.86094e-07
-5.67027e-08 -1.86094e-07 3.65918e-05
0.00124902 4.57883e-06 -6.12929e-07
4.57883e-06 8.86267e-05 -5.32691e-07
-6.12929e-07 -5.32691e-07 3.13199e-05
0.00127313 7.9679e-06 1.96919e-07
7.9679e-06 8.0281e-05 3.12671e-07
1.96919e-07 3.12671e-07 1.70603e-05
0.00130407 8.98886e-06 1.81324e-07
8.98886e-06 8.6232e-05 7.57097e-07
1.81324e-07 7.57097e-07 2.09602e-05
0.00103635 -4.99137e-06 -1.94218e-06
-4.99137e-06 2.31678e-05 -8.22821e-07
-1.94218e-06 -8.22821e-07 -1.75805e-05
0.00116673 2.58353e-06 3.6137e-07
2.58353e-06 6.57007e-05 4.1752e-07
3.6137e-07 4.1752e-07 1.21376e-05
0.00114355 8.23666e-06 3.61915e-07
8.23666e-06 4.07815e-05 9.07091e-07
3.61915e-07 9.07091e-07 -1.92585e-05
0.000908739 -1.37043e-05 -3.52852e-06
-1.37043e-05 -1.61962e-05 -1.37108e-06
-3.52852e-06 -1.37108e-06 -2.76581e-05
0.00099773 -6.81955e-06 -2.01638e-08
-6.81955e-06 8.59598e-06 -6.67094e-08
-2.01638e-08 -6.67094e-08 -2.81421e-05
0.00109826 1.15331e-06 7.76753e-07
1.15331e-06 4.11838e-05 4.42319e-07
7.76753e-07 4.42319e-07 -9.60367e-06
0.000979647 -7.33306e-06 1.89771e-06
-7.33306e-06 -1.13501e-06 7.08233e-07
1.89771e-06 7.08233e-07 -3.39491e-05
0.000877415 -1.36677e-05 -6.77455e-08
-1.36677e-05 -3.68895e-05 -1.64718e-09
-6.77455e-08 -1.64718e-09 -4.48375e-05
0.00231419 -1.92851e-05 -5.04838e-06
-1.92851e-05 0.000667334 -2.1533e-06
-5.04838e-06 -2.1533e-06 0.000681044
0.000860056 -1.33552e-05 3.0505e-06
-1.33552e-05 -5.2376e-05 1.44059e-06
3.0505e-06 1.44059e-06 -5.75806e-05
0.00233255 -1.84326e-05 -6.566e-08
-1.84326e-05 0.000664378 6.29982e-08
-6.566e-08 6.29982e-08 0.000680135
0.00236708 -1.73998e-05 4.31696e-06
-1.73998e-05 0.000669846 2.41217e-06
4.31696e-06 2.41217e-06 0.000687398
0.00112877 -1.14684e-05 1.02661e-06
-1.14684e-05 7.55424e-05 -6.66375e-07
1.02661e-06 -6.66375e-07 1.11681e-05
0.00122415 -1.13523e-05 -7.68761e-08
-1.13523e-05 7.7127e-05 3.04844e-07
-7.68761e-08 3.04844e-07 2.00615e-05
0.00135086 -1.67907e-05 -6.39577e-07
-1.67907e-05 0.000126091 -1.90162e-06
-6.39577e-07 -1.90162e-06 7.10326e-05
0.00137168 -3.72109e-07 2.90994e-07
-3.72109e-07 7.56239e-05 -6.89787e-07
2.90994e-07 -6.89787e-07 7.83979e-06
0.000984635 -9.48792e-07 2.77272e-07
-9.48792e-07 4.91812e-05 1.5225e-06
2.77272e-07 1.5225e-06 -1.08655e-05
0.000943498 -2.19362e-06 -4.76545e-07
-2.19362e-06 3.95369e-05 7.97715e-08
-4.76545e-07 7.97715e-08 -1.71527e-05
0.000975975 -1.33838e-06 -1.27026e-06
-1.33838e-06 6.4677e-05 -1.03325e-07
-1.27026e-06 -1.03325e-07 1.47485e-05
0.00107947 7.29883e-06 -7.86224e-07
7.29883e-06 7.4523e-05 1.13583e-06
-7.86224e-07 1.13583e-06 1.71669e-05
0.00105415 8.10876e-06 1.89627e-07
8.10876e-06 6.10433e-05 3.32331e-07
1.89627e-07 3.32331e-07 4.51679e-06
0.00103105 8.68113e-06 9.1635e-08
8.68113e-06 4.77164e-05 -5.63019e-07
9.1635e-08 -5.63019e-07 -8.15655e-06
0.00107377 9.28306e-06 -3.54768e-08
9.28306e-06 3.91498e-05 1.08979e-06
-3.54768e-08 1.08979e-06 -1.6988e-05
0.00118122 9.38053e-06 7.94246e-08
9.38053e-06 8.47399e-05 2.85088e-07
7.94246e-08 2.85088e-07 2.76762e-05
0.0011329 8.17319e-06 -1.73758e-07
8.17319e-06 7.00448e-05 -6.14977e-07
-1.73758e-07 -6.14977e-07 1.23497e-05
0.00113559 7.85444e-06 -2.62436e-07
7.85444e-06 4.26717e-05 3.20396e-07
-2.62436e-07 3.20396e-07 -1.70113e-05
0.00110264 6.79331e-06 -1.13053e-07
6.79331e-06 3.94056e-05 -1.20897e-08
-1.13053e-07 -1.20897e-08 -1.95583e-05
0.0010082 7.29027e-06 -1.5973e-06
7.29027e-06 2.25679e-05 1.64276e-07
-1.5973e-06 1.64276e-07 -3.07406e-05
0.00110308 4.03453e-06 4.0579e-07
4.03453e-06 3.16168e-05 6.57838e-08
4.0579e-07 6.57838e-08 -2.69859e-05
0.00100469 6.84576e-06 -7.81552e-10
6.84576e-06 1.25978e-05 1.09534e-07
-7.81552e-10 1.09534e-07 -3.83123e-05
0.000746127 1.32515e-05 -4.22812e-06
1.32515e-05 -5.67803e-05 1.0112e-06
-4.22812e-06 1.0112e-06 -8.58261e-05
0.00101527 6.46114e-06 1.7017e-06
6.46114e-06 1.32043e-05 -4.2532e-07
1.7017e-06 -4.2532e-07 -3.36545e-05
0.00112808 1.45505e-05 1.84074e-06
1.45505e-05 0.000113015 -6.05008e-07
1.84074e-06 -6.05008e-07 9.13253e-05
0.00267314 2.14773e-05 -6.5131e-06
2.14773e-05 0.000884943 1.69201e-06
-6.5131e-06 1.69201e-06 0.000888435
0.00150044 1.50117e-05 5.76812e-06
1.50117e-05 0.000279756 -1.75484e-06
5.76812e-06 -1.75484e-06 0.000264942
0.00117904 2.04349e-05 -3.18573e-06
2.04349e-05 0.00014645 1.23891e-06
-3.18573e-06 1.23891e-06 0.000145349
0.00113557 2.05151e-05 2.23408e-06
2.05151e-05 0.000109343 -4.71513e-07
2.23408e-06 -4.71513e-07 0.000112639
0.00136575 -1.10562e-05 7.75659e-07
-1.10562e-05 0.000149566 -8.21103e-07
7.75659e-07 -8.21103e-07 9.05544e-05
0.00131546 -7.51736e-06 -2.78894e-08
-7.51736e-06 8.76529e-05 1.06731e-06
-2.78894e-08 1.06731e-06 3.04268e-05
0.00123083 -9.13538e-06 1.9482e-07
-9.13538e-06 5.22262e-05 7.32316e-08
1.9482e-07 7.32316e-08 -2.25988e-06
0.00098122 9.70504e-07 -9.40572e-07
9.70504e-07 -5.06275e-05 -8.52908e-08
-9.40572e-07 -8.52908e-08 -0.000112112
0.00132107 1.13453e-06 6.21225e-08
1.13453e-06 8.50538e-05 1.17572e-09
6.21225e-08 1.17572e-09 2.09622e-05
0.00144318 3.48613e-07 1.57281e-07
3.48613e-07 0.000122093 -9.07073e-07
1.57281e-07 -9.07073e-07 5.62498e-05
0.000852758 -2.80069e-06 -2.38319e-06
-2.80069e-06 -7.34315e-05 -1.21005e-06
-2.38319e-06 -1.21005e-06 -0.000120189
0.00125583 4.562e-06 1.7165e-07
4.562e-06 9.16903e-05 7.33025e-08
1.7165e-07 7.33025e-08 3.43946e-05
0.00133286 7.97045e-06 4.42564e-07
7.97045e-06 0.000109241 8.54991e-07
4.42564e-07 8.54991e-07 4.64479e-05
0.000893434 -1.3575e-05 -3.81948e-06
-1.3575e-05 -1.95751e-05 -1.3669e-06
-3.81948e-06 -1.3669e-06 -3.52022e-05
0.000904968 -5.10098e-06 -8.27982e-08
-5.10098e-06 -3.93096e-05 2.21116e-08
-8.27982e-08 2.21116e-08 -8.11549e-05
0.00100932 2.66506e-06 1.08988e-06
2.66506e-06 -9.52895e-06 1.05316e-06
1.08988e-06 1.05316e-06 -6.4278e-05
0.00240739 -1.99761e-05 -5.52772e-06
-1.99761e-05 0.000721946 -2.10409e-06
-5.52772e-06 -2.10409e-06 0.000733287
0.000858016 -1.37697e-05 -8.7394e-08
-1.37697e-05 -3.93768e-05 -4.09983e-08
-8.7394e-08 -4.09983e-08 -5.06563e-05
0.000975964 -7.06736e-06 1.88409e-06
-7.06736e-06 -8.673e-07 8.05368e-07
1.88409e-06 8.05368e-07 -3.76366e-05
0.000836708 -1.37201e-05 3.23335e-06
-1.37201e-05 -5.5662e-05 1.34325e-06
3.23335e-06 1.34325e-06 -6.34679e-05
0.00238406 -1.93321e-05 -6.09906e-08
-1.93321e-05 0.000699383 6.60322e-08
-6.09906e-08 6.60322e-08 0.000713125
0.00240464 -1.84499e-05 4.54723e-06
-1.84499e-05 0.000697451 2.2795e-06
4.54723e-06 2.2795e-06 0.000713207
0.000968731 -9.74819e-06 3.77329e-07
-9.74819e-06 3.09145e-05 5.02164e-07
3.77329e-07 5.02164e-07 -3.49064e-05
0.0010152 -1.12366e-05 -5.46808e-07
-1.12366e-05 2.84967e-05 -8.76856e-07
-5.46808e-07 -8.76856e-07 -3.42748e-05
0.00121281 -1.15581e-05 -5.99898e-07
-1.15581e-05 6.80003e-05 -1.01798e-06
-5.99898e-07 -1.01798e-06 1.07378e-05
0.000990455 1.0948e-06 2.95054e-07
1.0948e-06 5.58653e-05 4.74828e-07
2.95054e-07 4.74828e-07 -6.03598e-07
0.00102732 -9.14263e-07 1.72264e-07
-9.14263e-07 6.90333e-05 6.22064e-07
1.72264e-07 6.22064e-07 9.15029e-06
0.000987679 -1.77359e-06 -1.81998e-06
-1.77359e-06 6.34849e-05 -3.22084e-07
-1.81998e-06 -3.22084e-07 7.16075e-06
0.00108847 8.21467e-06 -2.18472e-07
8.21467e-06 7.86743e-05 5.23725e-07
-2.18472e-07 5.23725e-07 2.23275e-05
0.00104121 8.74121e-06 -1.18836e-08
8.74121e-06 5.22292e-05 1.44883e-07
-1.18836e-08 1.44883e-07 -3.53815e-06
0.00106154 7.76037e-06 6.46963e-08
7.76037e-06 7.26016e-05 -6.08457e-07
6.46963e-08 -6.08457e-07 1.7324e-05
0.00114247 9.24563e-06 -1.4217e-07
9.24563e-06 6.71566e-05 1.12008e-06
-1.4217e-07 1.12008e-06 9.93585e-06
0.00116145 8.12555e-06 5.75063e-09
8.12555e-06 8.51652e-05 6.63012e-09
5.75063e-09 6.63012e-09 2.76544e-05
0.000900023 7.5201e-06 -1.68856e-06
7.5201e-06 -1.08478e-05 -4.94942e-07
-1.68856e-06 -4.94942e-07 -6.45673e-05
0.00108144 6.73185e-06 2.49816e-07
6.73185e-06 3.0608e-05 3.72533e-07
2.49816e-07 3.72533e-07 -2.83077e-05
0.000992238 7.37407e-06 -2.06164e-08
7.37407e-06 1.54701e-05 1.98921e-07
-2.06164e-08 1.98921e-07 -3.77288e-05
0.000736991 1.18084e-05 -4.37895e-06
1.18084e-05 -4.56682e-05 7.54204e-07
-4.37895e-06 7.54204e-07 -7.91602e-05
0.00100232 6.84756e-06 1.62588e-06
6.84756e-06 1.13045e-05 -2.35483e-07
1.62588e-06 -2.35483e-07 -3.95037e-05
0.000767702 1.3503e-05 1.32611e-07
1.3503e-05 -4.82277e-05 7.97782e-08
1.32611e-07 7.97782e-08 -7.72275e-05
0.00281588 2.09136e-05 -6.87656e-06
2.09136e-05 0.000968684 1.42891e-06
-6.87656e-06 1.42891e-06 0.000969047
0.000745658 1.41006e-05 5.5758e-06
1.41006e-05 -7.21026e-05 -1.65262e-06
5.5758e-06 -1.65262e-06 -9.62487e-05
0.00185957 2.0469e-05 5.43548e-07
2.0469e-05 0.000495082 1.19847e-07
5.43548e-07 1.19847e-07 0.000493998
0.00113128 2.07364e-05 2.37578e-06
2.07364e-05 0.00012326 -4.28402e-07
2.37578e-06 -4.28402e-07 0.000122646
0.00137367 -1.17629e-05 3.02313e-07
-1.17629e-05 0.000186795 -1.51375e-07
3.02313e-07 -1.51375e-07 0.000122682
0.00117651 -9.16116e-06 -1.00229e-07
-9.16116e-06 5.48253e-05 -2.34536e-07
-1.00229e-07 -2.34536e-07 -2.18315e-06
0.00118839 -1.06817e-05 -4.10192e-07
-1.06817e-05 6.76403e-05 2.16155e-08
-4.10192e-07 2.16155e-08 8.27835e-06
0.00110752 -5.17753e-06 -6.61256e-07
-5.17753e-06 1.31388e-05 8.99091e-07
-6.61256e-07 8.99091e-07 -4.50576e-05
0.0012086 -7.54348e-06 2.94356e-07
-7.54348e-06 4.17565e-05 -2.1546e-07
2.94356e-07 -2.1546e-07 -1.54031e-05
0.00104629 -8.81344e-06 2.03413e-08
-8.81344e-06 -3.03656e-05 -5.80722e-07
2.03413e-08 -5.80722e-07 -8.55584e-05
0.000816834 -3.07733e-06 -2.40768e-06
-3.07733e-06 -9.76671e-05 -7.95721e-07
-2.40768e-06 -7.95721e-07 -0.000148835
0.0011698 1.51446e-06 -2.38225e-07
1.51446e-06 3.82442e-05 9.65864e-08
-2.38225e-07 9.65864e-08 -2.22001e-05
0.00136907 9.80941e-07 4.32305e-07
9.80941e-07 0.000109588 -6.88855e-07
4.32305e-07 -6.88855e-07 4.67468e-05
0.000870109 -1.34146e-05 -4.12124e-06
-1.34146e-05 -2.80275e-05 -1.34172e-06
-4.12124e-06 -1.34172e-06 -4.8403e-05
0.000826278 -2.55525e-06 -4.07486e-07
-2.55525e-06 -8.65975e-05 -3.78279e-07
-4.07486e-07 -3.78279e-07 -0.000134018
0.00126306 4.5839e-06 9.53629e-07
4.5839e-06 9.49474e-05 7.0555e-07
9.53629e-07 7.0555e-07 3.76621e-05
0.0025376 -2.04616e-05 -6.15255e-06
-2.04616e-05 0.000793936 -2.0413e-06
-6.15255e-06 -2.0413e-06 0.000802586
0.000838594 -1.36295e-05 -1.5389e-07
-1.36295e-05 -4.43894e-05 -7.58664e-09
-1.5389e-07 -7.58664e-09 -5.98344e-05
0.000775234 -5.20545e-06 1.82368e-06
-5.20545e-06 -0.000101009 9.99187e-07
1.82368e-06 9.99187e-07 -0.000143955
0.00246901 -2.00715e-05 -5.41736e-08
-2.00715e-05 0.000750291 6.83746e-08
-5.41736e-08 6.83746e-08 0.000761741
0.000807036 -1.38303e-05 3.41846e-06
-1.38303e-05 -6.26583e-05 1.34269e-06
3.41846e-06 1.34269e-06 -7.37574e-05
0.00245348 -1.93771e-05 4.79963e-06
-1.93771e-05 0.000731193 2.14722e-06
4.79963e-06 2.14722e-06 0.000744973
0.000926265 -7.22551e-06 -2.4224e-07
-7.22551e-06 1.19311e-05 5.24644e-07
-2.4224e-07 5.24644e-07 -4.91599e-05
0.00101451 -9.70224e-06 4.7828e-07
-9.70224e-06 5.05427e-05 -9.48687e-07
4.7828e-07 -9.48687e-07 -1.47151e-05
0.000905751 -1.10044e-05 -1.47771e-06
-1.10044e-05 -1.66503e-05 -1.44947e-06
-1.47771e-06 -1.44947e-06 -7.78222e-05
0.000998234 9.24144e-07 4.69646e-08
9.24144e-07 6.51605e-05 2.58449e-07
4.69646e-08 2.58449e-07 1.02206e-05
0.00103282 9.6523e-07 -1.25251e-07
9.6523e-07 7.1665e-05 2.70747e-08
-1.25251e-07 2.70747e-08 1.48796e-05
0.00106964 -8.84909e-07 -4.66026e-07
-8.84909e-07 8.87391e-05 -5.36036e-08
-4.66026e-07 -5.36036e-08 2.90174e-05
0.00105047 8.79799e-06 -2.29534e-07
8.79799e-06 5.63138e-05 5.21209e-07
-2.29534e-07 5.21209e-07 6.54478e-07
0.00105706 7.80851e-06 1.79844e-07
7.80851e-06 6.98971e-05 -3.08642e-09
1.79844e-07 -3.08642e-09 1.47189e-05
0.000804502 6.57274e-06 -1.47221e-06
6.57274e-06 -2.54773e-05 -6.48955e-07
-1.47221e-06 -6.48955e-07 -7.76396e-05
0.00118837 8.06901e-06 2.12281e-07
8.06901e-06 9.95653e-05 7.24508e-07
2.12281e-07 7.24508e-07 4.22359e-05
0.000950698 7.67747e-06 -3.09261e-07
7.67747e-06 1.25562e-05 -6.84908e-08
-3.09261e-07 -6.84908e-08 -4.10861e-05
0.000724108 9.79657e-06 -4.35674e-06
9.79657e-06 -3.09218e-05 2.5381e-07
-4.35674e-06 2.5381e-07 -6.68311e-05
0.000976652 7.45979e-06 1.55796e-06
7.45979e-06 8.54051e-06 2.46194e-07
1.55796e-06 2.46194e-07 -4.45485e-05
0.000736721 1.21494e-05 8.74503e-08
1.21494e-05 -4.67529e-05 1.78498e-07
8.74503e-08 1.78498e-07 -8.01259e-05
0.00280881 1.91249e-05 -7.39253e-06
1.91249e-05 0.000985489 1.16022e-06
-7.39253e-06 1.16022e-06 0.000982604
0.000789291 1.37502e-05 4.20784e-06
1.37502e-05 -3.96631e-05 -7.88693e-07
4.20784e-06 -7.88693e-07 -6.86176e-05
0.00271318 2.02142e-05 6.32501e-08
2.02142e-05 0.000923727 1.19445e-07
6.32501e-08 1.19445e-07 0.000923686
0.00105743 1.92102e-05 6.59846e-06
1.92102e-05 0.000110458 -1.40521e-06
6.59846e-06 -1.40521e-06 0.000104785
0.00121294 -9.57055e-06 -4.45163e-07
-9.57055e-06 0.00010972 1.35301e-07
-4.45163e-07 1.35301e-07 4.95269e-05
0.00124995 -1.13498e-05 2.47946e-07
-1.13498e-05 0.000128736 1.77816e-07
2.47946e-07 1.77816e-07 6.34232e-05
0.00110608 -7.69455e-06 -4.40868e-07
-7.69455e-06 3.75336e-05 3.60006e-07
-4.40868e-07 3.60006e-07 -1.91385e-05
0.00114607 -9.15688e-06 7.77488e-08
-9.15688e-06 4.18372e-05 -3.3552e-07
7.77488e-08 -3.3552e-07 -1.49809e-05
0.0010111 -1.03014e-05 -1.948e-07
-1.03014e-05 -1.41518e-05 9.24207e-07
-1.948e-07 9.24207e-07 -7.3876e-05
0.000992495 -5.87876e-06 -2.00213e-06
-5.87876e-06 -8.91134e-06 4.09325e-07
-2.00213e-06 4.09325e-07 -5.98404e-05
0.00114513 -4.9672e-06 5.82198e-08
-4.9672e-06 2.95803e-05 1.83816e-07
5.82198e-08 1.83816e-07 -2.87356e-05
0.00109995 -7.4544e-06 -7.17225e-08
-7.4544e-06 -4.95293e-06 -1.40492e-06
-7.17225e-08 -1.40492e-06 -6.20453e-05
0.000830664 -1.32914e-05 -4.4112e-06
-1.32914e-05 -4.16959e-05 -1.11692e-06
-4.4112e-06 -1.11692e-06 -6.70466e-05
0.000915425 -2.7059e-06 -4.36324e-07
-2.7059e-06 -5.11911e-05 -1.61404e-07
-4.36324e-07 -1.61404e-07 -0.000102035
0.00135859 1.98947e-06 6.03815e-07
1.98947e-06 0.000127223 1.89775e-07
6.03815e-07 1.89775e-07 6.78177e-05
0.00267317 -2.06554e-05 -6.8759e-06
-2.06554e-05 0.000869549 -1.94542e-06
-6.8759e-06 -1.94542e-06 0.000875228
0.000819904 -1.34089e-05 -1.69041e-07
-1.34089e-05 -5.03852e-05 -4.50579e-09
-1.69041e-07 -4.50579e-09 -7.0628e-05
0.000799528 -2.35428e-06 1.58118e-06
-2.35428e-06 -9.98989e-05 5.63711e-07
1.58118e-06 5.63711e-07 -0.000147981
0.00259677 -2.06173e-05 -6.07832e-08
-2.06173e-05 0.000821147 8.60423e-08
-6.07832e-08 8.60423e-08 0.000829984
0.000783847 -1.36825e-05 3.6742e-06
-1.36825e-05 -6.91452e-05 1.44061e-06
3.6742e-06 1.44061e-06 -8.44103e-05
0.00253038 -2.01589e-05 5.09965e-06
-2.01589e-05 0.000778497 2.0345e-06
5.09965e-06 2.0345e-06 0.00079006
0.0010943 -6.91936e-06 -4.90131e-07
-6.91936e-06 9.16524e-05 5.62137e-07
-4.90131e-07 5.62137e-07 3.44043e-05
0.00100701 -7.48642e-06 6.93394e-09
-7.48642e-06 4.64167e-05 -3.16259e-07
6.93394e-09 -3.16259e-07 -1.4574e-05
0.00106086 -9.66074e-06 -3.49505e-07
-9.66074e-06 7.05394e-05 -1.97354e-06
-3.49505e-07 -1.97354e-06 5.83383e-06
0.000802416 5.30042e-07 -1.30175e-06
5.30042e-07 -1.12835e-05 -4.04046e-08
-1.30175e-06 -4.04046e-08 -6.28468e-05
0.00099302 8.8786e-07 1.2266e-07
8.8786e-07 6.18998e-05 -7.69016e-09
1.2266e-07 -7.69016e-09 7.18421e-06
0.00107604 8.41158e-07 -1.42086e-07
8.41158e-07 8.78912e-05 -1.63157e-07
-1.42086e-07 -1.63157e-07 3.07856e-05
0.00105206 7.85489e-06 2.89431e-07
7.85489e-06 6.69429e-05 5.51134e-07
2.89431e-07 5.51134e-07 1.18657e-05
0.000827658 6.78471e-06 -2.96389e-07
6.78471e-06 -1.73049e-05 -1.59117e-07
-2.96389e-07 -1.59117e-07 -6.97785e-05
0.000697754 6.89913e-06 -4.10841e-06
6.89913e-06 -2.06244e-05 -1.10646e-07
-4.10841e-06 -1.10646e-07 -5.70766e-05
0.00100245 7.8433e-06 1.20872e-06
7.8433e-06 3.65202e-05 4.24582e-07
1.20872e-06 4.24582e-07 -1.70525e-05
0.000704537 1.02098e-05 -2.94032e-08
1.02098e-05 -4.02749e-05 1.78722e-07
-2.94032e-08 1.78722e-07 -7.60074e-05
0.00268832 1.63751e-05 -7.70027e-06
1.63751e-05 0.000949979 7.85406e-07
-7.70027e-06 7.85406e-07 0.000944527
0.000737229 1.24885e-05 4.32232e-06
1.24885e-05 -4.74957e-05 -3.62714e-07
4.32232e-06 -3.62714e-07 -8.07491e-05
0.00269524 1.8203e-05 7.18673e-08
1.8203e-05 0.000936196 1.41143e-07
7.18673e-08 1.41143e-07 0.000932965
0.00260842 1.95055e-05 7.39474e-06
1.95055e-05 0.000877849 -1.33668e-06
7.39474e-06 -1.33668e-06 0.000877405
0.00113388 -8.02522e-06 -5.43794e-07
-8.02522e-06 8.18071e-05 5.29858e-07
-5.43794e-07 5.29858e-07 2.42051e-05
0.0012032 -9.7852e-06 6.82929e-08
-9.7852e-06 0.000104771 2.31018e-07
6.82929e-08 2.31018e-07 4.39145e-05
0.00112398 -1.09339e-05 1.40223e-07
-1.09339e-05 6.94507e-05 1.05133e-06
1.40223e-07 1.05133e-06 2.95722e-06
0.000978287 -7.68108e-06 -1.70502e-06
-7.68108e-06 6.55843e-06 3.27915e-07
-1.70502e-06 3.27915e-07 -4.44168e-05
0.0011053 -7.64141e-06 1.13053e-07
-7.64141e-06 3.74641e-05 -2.03464e-07
1.13053e-07 -2.03464e-07 -1.92004e-05
0.00111823 -9.16327e-06 -3.51137e-07
-9.16327e-06 2.9989e-05 -6.96215e-07
-3.51137e-07 -6.96215e-07 -2.66338e-05
0.000767855 -1.31426e-05 -4.62793e-06
-1.31426e-05 -5.82096e-05 -4.63754e-07
-4.62793e-06 -4.63754e-07 -8.74848e-05
0.00102055 -5.76103e-06 8.78327e-09
-5.76103e-06 3.45148e-06 2.83244e-07
8.78327e-09 2.83244e-07 -4.76231e-05
0.0011825 -4.75753e-06 7.5656e-07
-4.75753e-06 4.59195e-05 -5.16908e-07
7.5656e-07 -5.16908e-07 -1.25166e-05
0.00277183 -2.03756e-05 -7.56214e-06
-2.03756e-05 0.000930659 -1.74258e-06
-7.56214e-06 -1.74258e-06 0.000933162
0.000798223 -1.31839e-05 -1.92862e-07
-1.31839e-05 -5.56568e-05 7.63787e-08
-1.92862e-07 7.63787e-08 -8.0974e-05
0.00101305 -2.28011e-06 1.63729e-06
-2.28011e-06 -5.17427e-06 4.55446e-07
1.63729e-06 4.55446e-07 -5.56922e-05
0.00274097 -2.0911e-05 -5.96845e-08
-2.0911e-05 0.000900403 9.71675e-08
-5.96845e-08 9.71675e-08 0.00090634
0.000769861 -1.34019e-05 4.05185e-06
-1.34019e-05 -7.26544e-05 1.4455e-06
4.05185e-06 1.4455e-06 -9.27659e-05
0.0026546 -2.07699e-05 5.53071e-06
-2.07699e-05 0.000847722 1.95995e-06
5.53071e-06 1.95995e-06 0.000856751
0.00094031 -6.27341e-06 -1.34333e-06
-6.27341e-06 4.27008e-05 3.40865e-07
-1.34333e-06 3.40865e-07 -8.74728e-06
0.00101152 -6.7289e-06 5.26181e-08
-6.7289e-06 5.40428e-05 1.84829e-07
5.26181e-08 1.84829e-07 -3.35781e-06
0.0010865 -7.74475e-06 6.89373e-07
-7.74475e-06 8.02619e-05 -1.42529e-06
6.89373e-07 -1.42529e-06 1.9378e-05
0.000667548 -1.93673e-07 -3.88084e-06
-1.93673e-07 -2.24301e-05 -5.633e-08
-3.88084e-06 -5.633e-08 -5.84779e-05
0.000795574 6.00138e-07 -1.90863e-07
6.00138e-07 -1.49086e-05 -1.0829e-07
-1.90863e-07 -1.0829e-07 -6.6524e-05
0.000986626 8.58531e-07 1.96026e-07
8.58531e-07 5.80616e-05 7.95913e-08
1.96026e-07 7.95913e-08 3.57452e-06
0.000850916 6.99825e-06 1.01815e-06
6.99825e-06 -9.08317e-06 3.41785e-07
1.01815e-06 3.41785e-07 -6.18682e-05
0.000675692 7.37374e-06 -8.4328e-08
7.37374e-06 -3.07709e-05 3.74083e-08
-8.4328e-08 3.74083e-08 -6.70781e-05
0.00245167 1.26149e-05 -7.50663e-06
1.26149e-05 0.000858753 3.86326e-07
-7.50663e-06 3.86326e-07 0.000851741
0.000686019 1.06215e-05 4.24954e-06
1.06215e-05 -4.91688e-05 1.00422e-07
4.24954e-06 1.00422e-07 -8.47232e-05
0.00256202 1.52625e-05 8.84478e-08
1.52625e-05 0.000895311 1.38878e-07
8.84478e-08 1.38878e-07 0.000889664
0.00258235 1.72922e-05 7.65909e-06
1.72922e-05 0.000887236 -9.59505e-07
7.65909e-06 -9.59505e-07 0.000883658
0.0009492 -7.43997e-06 -1.55755e-06
-7.43997e-06 2.35402e-05 4.90778e-07
-1.55755e-06 4.90778e-07 -2.78393e-05
0.00108749 -7.98607e-06 -2.12048e-08
-7.98607e-06 6.16898e-05 1.08229e-07
-2.12048e-08 1.08229e-07 4.02082e-06
0.00119463 -1e-05 2.48018e-07
-1e-05 0.000100464 1.02083e-07
2.48018e-07 1.02083e-07 3.89335e-05
0.00144834 -1.32305e-05 -5.02158e-06
-1.32305e-05 0.000294141 -2.70495e-07
-5.02158e-06 -2.70495e-07 0.000267773
0.000990387 -7.61918e-06 1.20611e-07
-7.61918e-06 1.20378e-05 -5.78452e-08
1.20611e-07 -5.78452e-08 -3.90256e-05
0.00110487 -7.59535e-06 4.41434e-07
-7.59535e-06 3.75397e-05 -8.10972e-07
4.41434e-07 -8.10972e-07 -1.91154e-05
0.00272498 -1.93842e-05 -7.76449e-06
-1.93842e-05 0.000929382 -1.31527e-06
-7.76449e-06 -1.31527e-06 0.000928895
0.000770316 -1.29354e-05 -1.23626e-07
-1.29354e-05 -5.64251e-05 2.40547e-07
-1.23626e-07 2.40547e-07 -8.58233e-05
0.00104846 -5.65595e-06 2.04013e-06
-5.65595e-06 1.57439e-05 1.78582e-07
2.04013e-06 1.78582e-07 -3.54757e-05
0.00285905 -2.07817e-05 -6.89503e-08
-2.07817e-05 0.000969692 1.20784e-07
-6.89503e-08 1.20784e-07 0.000972508
0.000766283 -1.30815e-05 4.3887e-06
-1.30815e-05 -6.93719e-05 1.38591e-06
4.3887e-06 1.38591e-06 -9.46575e-05
0.00280883 -2.11586e-05 6.15478e-06
-2.11586e-05 0.00093127 1.8845e-06
6.15478e-06 1.8845e-06 0.000937467
0.000625196 -6.74196e-06 -5.63437e-06
-6.74196e-06 -4.68475e-05 -8.6642e-08
-5.63437e-06 -8.6642e-08 -8.19971e-05
0.000888574 -6.03269e-06 1.04018e-07
-6.03269e-06 1.82612e-05 -1.82638e-08
1.04018e-07 -1.82638e-08 -3.35323e-05
0.000930816 -6.53967e-06 5.40136e-07
-6.53967e-06 1.74172e-05 -6.08533e-07
5.40136e-07 -6.08533e-07 -4.01394e-05
0.00225056 9.1289e-07 -6.89651e-06
9.1289e-07 0.000775737 7.16973e-08
-6.89651e-06 7.16973e-08 0.00076822
0.000662138 2.53021e-07 -2.40074e-08
2.53021e-07 -2.48493e-05 2.76595e-08
-2.40074e-08 2.76595e-08 -6.08712e-05
0.000789679 6.62893e-07 8.94114e-07
6.62893e-07 -1.81198e-05 3.03832e-08
8.94114e-07 3.03832e-08 -6.97847e-05
0.000653776 7.84631e-06 3.97739e-06
7.84631e-06 -4.08678e-05 1.67469e-07
3.97739e-06 1.67469e-07 -7.7028e-05
0.00236529 1.1504e-05 1.09517e-07
1.1504e-05 0.000821536 1.05633e-07
1.09517e-07 1.05633e-07 0.000814456
0.00243727 1.42155e-05 7.45968e-06
1.42155e-05 0.000841379 -5.27242e-07
7.45968e-06 -5.27242e-07 0.000835535
0.00128404 -1.07584e-05 -6.60769e-06
-1.07584e-05 0.000247148 -3.21369e-07
-6.60769e-06 -3.21369e-07 0.000218833
0.000950974 -7.3514e-06 3.75553e-08
-7.3514e-06 2.43855e-05 1.20892e-07
3.75553e-08 1.20892e-07 -2.70301e-05
0.00104066 -7.94901e-06 2.99272e-07
-7.94901e-06 4.14006e-05 -2.26055e-07
2.99272e-07 -2.26055e-07 -1.63388e-05
0.00265598 -1.88548e-05 -3.28563e-06
-1.88548e-05 0.000917912 -3.70997e-07
-3.28563e-06 -3.70997e-07 0.000915008
0.000771354 -1.23606e-05 2.49018e-08
-1.23606e-05 -3.31245e-05 8.85195e-08
2.49018e-08 8.85195e-08 -6.52074e-05
0.00100235 -7.55747e-06 1.83502e-06
-7.55747e-06 1.74501e-05 -4.50436e-07
1.83502e-06 -4.50436e-07 -3.37008e-05
0.00286087 -1.99738e-05 -8.41222e-08
-1.99738e-05 0.000989217 1.56322e-07
-8.41222e-08 1.56322e-07 0.000988992
0.000773367 -1.27249e-05 4.66886e-06
-1.27249e-05 -5.43646e-05 1.01524e-06
4.66886e-06 1.01524e-06 -8.38881e-05
0.00294606 -2.11924e-05 6.85718e-06
-2.11924e-05 0.00100862 1.76657e-06
6.85718e-06 1.76657e-06 0.00101175
0.000936836 -8.04118e-06 -5.99993e-06
-8.04118e-06 0.00014342 -1.22042e-07
-5.99993e-06 -1.22042e-07 0.000125204
0.00100086 -7.53473e-06 -1.06156e-06
-7.53473e-06 0.000130284 -8.16114e-08
-1.06156e-06 -8.16114e-08 9.77818e-05
0.000834786 -5.79098e-06 1.40142e-06
-5.79098e-06 -7.16663e-06 -4.32971e-07
1.40142e-06 -4.32971e-07 -5.92998e-05
0.00224344 2.39786e-08 -4.56705e-08
2.39786e-08 0.000772833 1.04691e-07
-4.56705e-08 1.04691e-07 0.000765341
0.000657084 6.97957e-07 3.89527e-06
6.97957e-07 -2.71235e-05 9.66797e-08
3.89527e-06 9.66797e-08 -6.31173e-05
0.00227677 1.06999e-05 6.39158e-06
1.06999e-05 0.000783416 -1.95003e-07
6.39158e-06 -1.95003e-07 0.000776261
0.000985529 -1.34616e-05 -2.84746e-06
-1.34616e-05 0.000142929 -1.12059e-07
-2.84746e-06 -1.12059e-07 0.00012647
0.00109275 -1.08773e-05 -1.17183e-06
-1.08773e-05 0.000150655 -1.21166e-08
-1.17183e-06 -1.21166e-08 0.000119324
0.000953086 -7.26541e-06 1.52465e-06
-7.26541e-06 2.53829e-05 -2.48283e-07
1.52465e-06 -2.48283e-07 -2.60686e-05
0.00196166 -1.73789e-05 2.34719e-06
-1.73789e-05 0.000583269 4.6917e-07
2.34719e-06 4.6917e-07 0.000574721
0.00075241 -1.17305e-05 4.64368e-06
-1.17305e-05 -4.01555e-05 3.69285e-07
4.64368e-06 3.69285e-07 -7.24708e-05
0.00299969 -2.06165e-05 7.56573e-06
-2.06165e-05 0.00105039 1.53524e-06
7.56573e-06 1.53524e-06 0.00105043
0.00221729 -1.08261e-05 -4.17476e-08
-1.08261e-05 0.000756869 9.76558e-08
-4.17476e-08 9.76558e-08 0.000749946
0.000688783 -6.51882e-06 4.09805e-06
-6.51882e-06 -1.9271e-05 -3.0712e-08
4.09805e-06 -3.0712e-08 -5.46866e-05
0.00223551 -8.7996e-07 6.79521e-06
-8.7996e-07 0.000769469 9.57975e-08
6.79521e-06 9.57975e-08 0.000762008
0.00171838 -1.3764e-05 2.30939e-06
-1.3764e-05 0.000498195 3.37153e-07
2.30939e-06 3.37153e-07 0.000487067
0.000717914 -9.66099e-06 4.33481e-06
-9.66099e-06 -2.75476e-05 1.96266e-07
4.33481e-06 1.96266e-07 -6.17918e-05
0.00286677 -1.9045e-05 7.9195e-06
-1.9045e-05 0.00101093 1.14847e-06
7.9195e-06 1.14847e-06 0.00100819
0.00236533 -1.25477e-05 7.36949e-06
-1.25477e-05 0.000821159 3.9119e-07
7.36949e-06 3.9119e-07 0.000814419
0.00261243 -1.63351e-05 7.70207e-06
-1.63351e-05 0.000916792 7.68285e-07
7.70207e-06 7.68285e-07 0.000911715
