# vtk DataFile Version 2.0
Wound Healing Simulation
ASCII
DATASET UNSTRUCTURED_GRID
POINTS 3012 float
69.9759 18.75 4
67.2507 60.3285 4
69.976 18.75 2
73.0099 25.446 4
71.1327 20.9142 4
68.6801 16.6661 4
67.8266 19.9151 3.99271
67.2507 60.3286 2
71.1327 54.0858 4
68.6801 58.3339 4
65.6939 62.2254 4
65.3131 59.0101 3.99351
74.6784 42.3946 4
73.7221 47.2057 4
69.9759 18.75 0
73.0099 25.446 2
68.6801 16.6661 2
71.1327 20.9142 2
67.8265 19.9146 2
74.6792 32.6053 4
73.7222 27.7943 4
72.1454 23.1494 4
70.6164 26.2121 3.99111
68.8872 21.9474 3.99227
67.2507 14.6715 4
66.6379 17.9613 3.99315
65.8044 21.0067 3.98822
67.2507 60.3285 0
71.1327 54.0858 2
68.6801 58.3339 2
65.694 62.2255 2
65.3131 59.0106 2
72.1454 51.8506 4
69.9759 56.25 4
68.838 53.1237 3.99208
64.0165 64.0165 4
66.6116 57.1437 3.9932
63.8866 60.7734 3.99387
63.5047 57.7917 3.98924
60.3285 67.2507 4
74.6792 42.3947 2
73.7222 47.2057 2
74.9194 39.9526 4
74.2788 44.8158 4
72.1714 42.0905 3.98989
73.0099 49.554 4
71.252 46.6063 3.99071
73.0099 25.446 0
71.1327 20.9142 0
68.6801 16.6661 0
67.8266 19.9151 0.00729326
74.6792 32.6053 2
73.7222 27.7943 2
67.2508 14.6715 2
72.1455 23.1494 2
70.6164 26.2117 2
66.6379 17.9609 2
68.8872 21.9469 2
65.8044 21.0064 2
74.9197 35.0474 4
74.2794 30.1841 4
72.1878 32.9383 3.98992
71.2807 28.4235 3.99052
69.8175 24.0498 3.99176
68.3566 26.9397 3.98699
66.771 22.917 3.9878
65.694 12.7746 4
65.3244 16.0941 3.99353
64.7195 19.1744 3.98876
63.9012 22.01 3.98652
71.1327 54.0858 0
65.6939 62.2254 0
68.6801 58.3339 0
65.3131 59.0101 0.00648505
72.1455 51.8506 2
69.9759 56.25 2
68.838 53.1241 2
64.0165 64.0165 2
66.6115 57.1442 2
63.8865 60.7738 2
63.5047 57.7921 2
62.2254 65.694 4
58.8937 65.4187 3.99414
69.7709 50.999 3.99151
67.7849 55.178 3.99273
66.6582 52.2253 3.98747
62.3366 62.4335 3.99407
64.6666 56.051 3.98884
62.2054 59.4236 3.98979
61.832 56.7079 3.98718
58.3339 68.6801 4
60.3285 67.2508 2
73.7221 47.2057 0
74.6784 42.3946 0
74.9197 39.9526 2
74.2794 44.8159 2
72.1714 42.0907 2
73.0099 49.554 2
71.252 46.6066 2
75 37.5 4
72.4087 39.8047 3.98964
71.7855 44.3597 3.99034
69.8153 41.7951 3.98656
70.5775 48.8228 3.99109
68.9231 46.025 3.987
74.6792 32.6053 0
73.7222 27.7943 0
67.2507 14.6715 0
72.1454 23.1494 0
70.6164 26.2121 0.00888731
68.8872 21.9474 0.00773431
66.6379 17.9613 0.00684678
65.8044 21.0067 0.0117829
74.9197 35.0474 2
74.2794 30.1841 2
72.1878 32.9382 2
71.2807 28.4232 2
65.694 12.7745 2
65.3244 16.0937 2
69.8175 24.0494 2
68.3567 26.9395 2
64.7195 19.174 2
66.771 22.9166 2
63.9012 22.0098 2
72.4165 35.2212 3.98979
71.8066 30.6696 3.99018
69.8506 33.2629 3.98639
68.9763 29.0285 3.98667
67.6206 24.8981 3.98741
66.2125 27.6183 3.98546
64.0165 10.9835 4
64.7725 23.8075 3.98629
63.8906 14.3195 3.99377
63.517 17.4258 3.98935
62.9187 20.293 3.9868
62.1137 22.9119 3.98576
60.684 11.0921 3.99396
57.6122 11.4343 3.99012
72.1454 51.8506 0
69.9759 56.25 0
68.838 53.1237 0.00792431
64.0165 64.0165 0
63.8866 60.7734 0.00612547
66.6116 57.1437 0.00679672
63.5047 57.7917 0.0107551
62.2255 65.694 2
58.8937 65.419 2
69.7709 50.9994 2
67.7849 55.1784 2
66.6582 52.2256 2
62.3366 62.4339 2
64.6667 56.0514 2
62.2054 59.424 2
61.832 56.7082 2
60.6687 63.9823 3.99411
57.0242 66.7388 3.99418
57.5576 63.7027 3.9903
67.5171 50.1908 3.98714
65.7095 54.1914 3.98817
64.5541 51.4079 3.98571
60.7743 60.9547 3.99022
62.8316 55.0941 3.98709
60.6645 58.1851 3.98732
60.3406 55.8178 3.98629
56.25 69.9759 4
58.3339 68.6801 2
60.3285 67.2507 0
58.9209 9.65093 3.99401
62.2254 9.30607 4
73.0099 49.554 0
74.2788 44.8158 0
71.252 46.6063 0.0092934
72.1714 42.0905 0.0101066
74.9194 39.9526 0
75 37.5 2
72.4088 39.8047 2
71.7856 44.36 2
69.8154 41.7952 2
70.5775 48.8232 2
68.9231 46.0251 2
72.4921 37.5117 3.98949
70.0525 39.6599 3.98654
69.4414 43.9155 3.98682
67.6177 41.5048 3.98529
68.2763 48.1192 3.98707
66.7295 45.4537 3.98544
74.9197 35.0474 0
74.2794 30.1841 0
72.1878 32.9383 0.0100833
71.2807 28.4235 0.0094811
65.694 12.7746 0
65.3244 16.0941 0.00647046
69.8175 24.0498 0.00824067
68.3566 26.9397 0.0130068
66.771 22.917 0.0122002
64.7195 19.1744 0.0112393
63.9012 22.01 0.0134803
72.4165 35.2212 2
71.8067 30.6695 2
69.8507 33.2629 2
68.9764 29.0284 2
64.0165 10.9835 2
63.8905 14.3191 2
63.517 17.4254 2
67.6207 24.8978 2
66.2126 27.6182 2
62.9187 20.2928 2
64.7726 23.8072 2
62.1138 22.9117 2
60.6839 11.0917 2
57.6122 11.4339 2
70.0689 35.3889 3.98648
69.4775 31.1418 3.98657
67.6747 33.5839 3.98481
66.7906 29.6096 3.98501
65.5412 25.6797 3.98595
64.1725 28.2347 3.98485
62.3419 12.6486 3.99389
62.8803 24.6088 3.98566
62.2008 15.765 3.98977
61.822 18.6572 3.98721
61.235 21.3085 3.98575
60.453 23.6912 3.98553
59.2465 12.7636 3.99008
55.8739 10.2225 3.99019
56.4062 13.0948 3.98759
69.7709 50.999 0.00848829
62.2254 65.694 0
58.8937 65.4187 0.00586266
67.7849 55.178 0.00726696
66.6582 52.2253 0.0125278
62.3366 62.4335 0.00592697
62.2054 59.4236 0.010207
64.6666 56.051 0.011155
61.832 56.7079 0.012824
60.6686 63.9826 2
57.0242 66.7391 2
57.5575 63.7031 2
67.5172 50.191 2
65.7095 54.1917 2
64.5541 51.4081 2
60.7743 60.9551 2
62.8317 55.0944 2
60.6646 58.1854 2
60.3406 55.818 2
55.0697 67.9351 3.99422
59.2197 62.3801 3.99028
55.8036 64.9184 3.99036
56.328 62.1053 3.98779
65.3497 49.4282 3.9855
63.7203 53.3172 3.98637
62.4659 50.6804 3.98486
59.3369 59.5794 3.9877
61.0931 54.3408 3.98627
59.2983 57.0434 3.98598
59.2572 55.2182 3.98628
48.1022 68.5828 3.99062
50.9478 69.9339 3.99428
54.0858 71.1327 4
56.25 69.976 2
58.3339 68.6801 0
57.0579 8.33138 3.99406
60.3285 7.74928 4
58.9209 9.65059 2
62.2255 9.30602 2
70.5775 48.8228 0.00890624
71.7855 44.3597 0.00966439
68.9231 46.025 0.0130041
69.8153 41.7951 0.0134405
72.4087 39.8047 0.0103576
75 37.5 0
72.4921 37.5117 2
70.0525 39.66 2
69.4415 43.9156 2
67.6178 41.5048 2
68.2763 48.1195 2
66.7295 45.4539 2
70.1404 37.5212 3.98653
67.855 39.5159 3.98553
67.2437 43.4805 3.98526
65.5855 41.219 3.98484
66.0877 47.435 3.98554
64.6809 44.8661 3.98497
72.4165 35.2212 0.0102068
71.8066 30.6696 0.00982168
69.8506 33.2629 0.0136134
68.9763 29.0285 0.0133309
64.0165 10.9835 0
63.8906 14.3195 0.00623435
63.517 17.4258 0.0106511
67.6206 24.8981 0.0125905
66.2125 27.6183 0.0145361
64.7725 23.8075 0.0137111
62.9187 20.293 0.0132049
62.1137 22.9119 0.0142395
60.684 11.0921 0.00603862
57.6122 11.4343 0.00988471
70.069 35.3889 2
69.4775 31.1418 2
67.6747 33.5839 2
66.7908 29.6095 2
62.3419 12.6483 2
62.2008 15.7646 2
61.8221 18.6569 2
65.5414 25.6795 2
64.1727 28.2346 2
61.2351 21.3083 2
62.8804 24.6086 2
60.4531 23.6911 2
59.2465 12.7632 2
56.4062 13.0945 2
55.8739 10.2221 2
67.8905 35.5438 3.98508
67.2842 31.6122 3.98485
65.7254 33.919 3.98431
64.69 30.1754 3.98414
63.5633 26.3893 3.98536
62.2916 28.7532 3.98493
60.7759 14.2061 3.99
61.0757 25.3045 3.98544
60.6174 17.1022 3.98751
60.2349 19.7836 3.98612
59.6839 22.2206 3.98515
59.0109 24.2802 3.98579
54.0369 9.12694 3.99029
57.9118 14.3112 3.98765
54.7872 11.9964 3.9876
55.3143 14.624 3.98637
67.5171 50.1908 0.0128609
57.0242 66.7388 0.00582192
60.6687 63.9823 0.0058923
57.5576 63.7027 0.00969663
65.7095 54.1914 0.0118307
64.5541 51.4079 0.0142906
60.7743 60.9547 0.00977755
60.6645 58.1851 0.0126811
62.8316 55.0941 0.0129089
60.3406 55.8178 0.0137109
55.0697 67.9354 2
59.2197 62.3805 2
55.8036 64.9188 2
56.328 62.1057 2
65.3498 49.4284 2
63.7204 53.3175 2
62.466 50.6806 2
59.3369 59.5798 2
61.0932 54.341 2
59.2983 57.0436 2
59.2573 55.2184 2
53.0417 69.0025 3.99425
53.9657 66.0194 3.99043
57.8828 60.889 3.9878
54.6839 63.219 3.98786
55.2135 60.6346 3.98635
63.2209 48.6865 3.98495
61.7621 52.6057 3.98538
60.3056 50.0528 3.98434
58.0237 58.2877 3.9863
59.3463 53.9831 3.98576
58.1389 55.8481 3.98485
50.1085 67.8612 3.99054
47.4627 66.5872 3.98818
46.0562 69.1618 3.99066
48.1021 68.5832 2
48.8021 70.7249 3.99431
50.9477 69.9342 2
51.8506 72.1454 4
54.0858 71.1327 2
56.25 69.9759 0
55.1022 7.13641 3.99409
58.3339 6.31992 4
57.0579 8.33105 2
60.3286 7.74926 2
58.9209 9.65093 0.00598958
62.2254 9.30607 0
68.2763 48.1192 0.012928
69.4414 43.9155 0.0131847
66.7295 45.4537 0.014564
67.6177 41.5048 0.0147099
70.0525 39.6599 0.0134585
72.4921 37.5117 0.0105114
70.1405 37.5212 2
67.855 39.516 2
67.2438 43.4806 2
65.5856 41.219 2
66.0878 47.4351 2
64.681 44.8662 2
67.9511 37.5219 3.98551
65.8177 39.375 3.98533
65.2051 43.0389 3.98459
63.7941 40.9403 3.98477
63.9936 46.7385 3.98514
62.8447 44.2373 3.98501
70.0689 35.3889 0.0135155
69.4775 31.1418 0.013432
67.6747 33.5839 0.015192
66.7906 29.6096 0.0149921
62.3419 12.6486 0.00610755
62.2008 15.765 0.0102276
61.822 18.6572 0.0127863
65.5412 25.6797 0.0140521
64.1725 28.2347 0.0151523
62.8803 24.6088 0.0143387
61.235 21.3085 0.0142491
60.453 23.6912 0.0144696
59.2465 12.7636 0.00992185
56.4062 13.0948 0.0124121
55.8739 10.2225 0.00980874
67.8905 35.5438 2
67.2843 31.6121 2
65.7255 33.919 2
64.6901 30.1754 2
60.7759 14.2056 2
60.6175 17.1019 2
60.235 19.7834 2
63.5634 26.3892 2
62.2918 28.7531 2
59.684 22.2204 2
61.0759 25.3044 2
59.011 24.2801 2
57.9118 14.3108 2
55.3143 14.6237 2
54.0369 9.12654 2
54.7872 11.996 2
65.9052 35.6625 3.98433
65.2138 32.1419 3.98394
64.3185 34.241 3.98369
62.631 30.6159 3.9842
61.6845 27.0429 3.98521
60.891 29.1134 3.98543
59.3129 15.646 3.98763
59.3682 25.7591 3.98597
59.1306 18.3254 3.98655
58.7566 20.8171 3.98528
58.3127 23.0508 3.98483
58.004 24.6225 3.98649
52.1115 8.14634 3.99031
53.058 11.0043 3.98771
56.6787 15.7179 3.98661
53.8107 13.6617 3.98616
54.3784 15.9736 3.98588
55.0697 67.9351 0.00578317
65.3497 49.4282 0.0144971
55.8036 64.9184 0.00963963
59.2197 62.3801 0.00971678
56.328 62.1053 0.0122088
63.7203 53.3172 0.0136261
62.4659 50.6804 0.0151383
59.3369 59.5794 0.0122986
59.2983 57.0434 0.0140162
61.0931 54.3408 0.0137332
59.2572 55.2182 0.0137185
53.0417 69.0028 2
53.9657 66.0198 2
57.8828 60.8894 2
54.6839 63.2193 2
55.2136 60.6349 2
63.2209 48.6867 2
61.7622 52.6059 2
60.3057 50.0529 2
58.0238 58.288 2
59.3464 53.9833 2
58.139 55.8482 2
52.0693 67.0049 3.99047
52.9528 64.2275 3.98792
56.6517 59.5113 3.98657
53.682 61.6367 3.98636
54.263 59.3424 3.98561
61.0298 47.9113 3.98479
59.7359 52.1406 3.98507
58.0646 49.6563 3.98549
56.7846 57.0188 3.98493
57.1399 54.1617 3.9845
50.1084 67.8616 2
49.3363 65.9278 3.98803
47.4628 66.5876 2
46.8919 64.7442 3.98658
45.558 67.1044 3.98826
43.9734 69.5942 3.99067
46.0561 69.1622 2
46.609 71.3692 3.99433
48.1022 68.5828 0.00938143
48.8021 70.7252 2
49.554 73.0099 4
50.9478 69.9339 0.0057235
51.8506 72.1455 2
54.0858 71.1327 0
53.0633 6.06831 3.99411
55.1022 7.13609 2
56.25 5.02411 4
58.3339 6.3199 2
57.0579 8.33138 0.00593977
60.3285 7.74928 0
66.0877 47.435 0.0144648
67.2437 43.4805 0.01474
64.6809 44.8661 0.015035
65.5855 41.219 0.015164
67.855 39.5159 0.0144691
70.1404 37.5212 0.0134688
67.9512 37.5219 2
65.8178 39.375 2
65.2052 43.0389 2
63.7941 40.9404 2
63.9937 46.7386 2
62.8447 44.2374 2
65.9204 37.5019 3.98534
63.9395 39.2724 3.98517
63.367 42.5659 3.98437
62.4771 40.7093 3.98375
62.0051 45.9454 3.9855
61.4966 43.7065 3.98514
67.8905 35.5438 0.0149205
67.2842 31.6122 0.0151498
65.7254 33.919 0.0156879
64.69 30.1754 0.015855
60.7759 14.2061 0.0100029
60.6174 17.1022 0.0124878
60.2349 19.7836 0.0138849
63.5633 26.3893 0.0146376
62.2916 28.7532 0.0150739
61.0757 25.3045 0.0145587
59.6839 22.2206 0.0148549
59.0109 24.2802 0.0142097
57.9118 14.3112 0.012354
55.3143 14.624 0.0136268
54.0369 9.12694 0.00971149
54.7872 11.9964 0.0124034
65.9052 35.6625 2
65.2139 32.1419 2
64.3186 34.241 2
62.6311 30.6159 2
59.313 15.6456 2
59.1308 18.3252 2
58.7567 20.817 2
61.6847 27.0428 2
60.8912 29.1134 2
58.3128 23.0507 2
59.3684 25.759 2
58.0042 24.6225 2
56.6788 15.7176 2
54.3785 15.9734 2
53.8107 13.6614 2
52.1115 8.14593 2
53.058 11.0039 2
64.1277 35.6273 3.98367
62.9689 33.0328 3.98351
60.6596 30.5886 3.98456
59.6155 27.8772 3.98559
57.9429 16.9564 3.98667
57.7811 25.6843 3.9868
57.7246 19.4426 3.98581
57.3918 21.8002 3.98439
57.2192 23.9033 3.98502
50.1117 7.27889 3.99045
51.2323 10.114 3.98784
52.1727 12.7811 3.98601
55.5401 16.9451 3.98605
52.9791 15.2414 3.98542
53.7606 16.9543 3.98555
53.0417 69.0025 0.00575117
53.9657 66.0194 0.0095745
63.2209 48.6865 0.0150511
54.6839 63.219 0.0121358
57.8828 60.889 0.0121996
55.2135 60.6346 0.0136474
61.7621 52.6057 0.0146246
60.3056 50.0528 0.0156604
58.0237 58.2877 0.013702
58.1389 55.8481 0.0151493
59.3463 53.9831 0.0142424
52.0693 67.0053 2
52.9528 64.2279 2
56.6518 59.5116 2
53.682 61.637 2
54.2631 59.3428 2
61.0298 47.9113 2
59.736 52.1407 2
58.0646 49.6563 2
56.7847 57.019 2
57.14 54.1618 2
51.1672 65.1354 3.98793
52.0462 62.5498 3.98624
55.485 58.2751 3.98587
52.8362 60.1521 3.98565
53.6436 58.4938 3.98531
58.3554 46.8855 3.98647
57.5904 51.8265 3.9846
56.2906 49.5963 3.98648
55.4827 55.8283 3.98403
55.3798 53.4232 3.98288
50.1085 67.8612 0.00945844
49.3363 65.9282 2
48.6176 64.1308 3.9864
47.4627 66.5872 0.0118236
45.558 67.1047 2
46.8919 64.7446 2
46.3814 63.0628 3.98546
45.1322 65.2057 3.9867
43.6313 67.4752 3.98831
41.8609 69.8819 3.99065
43.9734 69.5946 2
44.3765 71.864 3.99435
46.0562 69.1618 0.00934375
46.6089 71.3695 2
47.2057 73.7222 4
48.8021 70.7249 0.00568971
49.554 73.0099 2
51.8506 72.1454 0
50.9532 5.12897 3.99423
53.0633 6.068 2
54.0858 3.86728 4
55.1022 7.13641 0.00590715
56.25 5.02406 2
58.3339 6.31992 0
63.9936 46.7385 0.0148644
65.2051 43.0389 0.0154055
62.8447 44.2373 0.0149875
63.7941 40.9403 0.0152298
65.8177 39.375 0.0146747
67.9511 37.5219 0.0144937
65.9205 37.5019 2
63.9396 39.2725 2
63.367 42.5659 2
62.4772 40.7093 2
62.0052 45.9455 2
61.4967 43.7065 2
63.9998 37.4573 3.98559
62.2082 39.3615 3.98464
61.2685 41.9764 3.98402
60.2984 44.7994 3.98645
65.9052 35.6625 0.0156742
65.2138 32.1419 0.0160638
64.3185 34.241 0.0163103
62.631 30.6159 0.0157977
59.3129 15.646 0.0123693
59.1306 18.3254 0.0134522
58.7566 20.8171 0.0147236
61.6845 27.0429 0.0147949
60.891 29.1134 0.0145721
59.3682 25.7591 0.0140257
58.3127 23.0508 0.0151746
58.004 24.6225 0.013511
56.6787 15.7179 0.0133884
54.3784 15.9736 0.0141236
53.8107 13.6617 0.0138435
52.1115 8.14634 0.00968501
53.058 11.0043 0.0122943
64.1277 35.6273 2
62.969 33.0328 2
60.6598 30.5886 2
57.943 16.9561 2
57.7248 19.4423 2
57.3919 21.8001 2
59.6157 27.8771 2
57.2193 23.9033 2
57.7813 25.6843 2
50.1117 7.27847 2
55.5402 16.9449 2
53.7607 16.954 2
52.9792 15.2411 2
52.1727 12.7807 2
51.2324 10.1136 2
62.2369 35.3522 3.98374
60.3424 32.7283 3.98331
58.6764 30.046 3.98516
57.3431 27.3416 3.98638
56.6407 18.1264 3.98607
56.3337 25.0569 3.98612
56.3702 20.4858 3.98497
56.1357 22.8264 3.9836
48.0556 6.52253 3.99064
49.3242 9.32276 3.98785
50.4334 11.9807 3.98617
51.3788 14.4799 3.98496
54.4183 17.8929 3.98549
52.3631 17.0111 3.9849
52.0693 67.0049 0.00952597
52.9528 64.2275 0.012082
61.0298 47.9113 0.0152061
53.682 61.6367 0.0136432
56.6517 59.5113 0.0134303
54.263 59.3424 0.0143923
59.7359 52.1406 0.0149287
58.0646 49.6563 0.0145112
56.7846 57.0188 0.0150746
57.1399 54.1617 0.0155005
51.1672 65.1357 2
52.0462 62.5501 2
55.4851 58.2754 2
52.8363 60.1525 2
53.6437 58.4942 2
58.3554 46.8855 2
57.5905 51.8265 2
56.2906 49.5961 2
55.4828 55.8285 2
55.3799 53.4232 2
50.3459 63.3897 3.98623
51.2449 60.9482 3.98504
54.2248 57.2911 3.98496
52.3153 58.654 3.98505
56.7878 44.2177 3.98696
55.5481 47.9373 3.98648
55.1036 51.4323 3.98346
54.0199 54.5826 3.98299
49.3363 65.9278 0.0119709
48.6176 64.1312 2
47.9618 62.484 3.98533
45.558 67.1044 0.0117385
46.8919 64.7442 0.0134166
43.6313 67.4756 2
46.3814 63.0631 2
45.1322 65.206 2
45.9871 61.5962 3.98463
44.7666 63.4639 3.98562
43.3561 65.5154 3.98672
41.6636 67.6945 3.98829
39.7027 70.0293 3.9906
41.8609 69.8823 2
42.1111 72.2088 3.99435
43.9734 69.5942 0.00933172
44.3765 71.8643 2
44.8159 74.2794 4
46.609 71.3692 0.0056691
47.2057 73.7222 2
49.554 73.0099 0
48.7837 4.32025 3.99433
50.9531 5.12865 2
51.8506 2.85458 4
53.0633 6.06831 0.0058929
54.0858 3.86728 2
56.25 5.02411 0
62.0051 45.9454 0.0144952
63.367 42.5659 0.0156287
61.4966 43.7065 0.0148568
62.4771 40.7093 0.0162538
63.9395 39.2724 0.0148346
65.9204 37.5019 0.0146612
63.9999 37.4573 2
62.2082 39.3616 2
61.2685 41.9764 2
60.2984 44.7994 2
62.0484 37.4444 3.986
60.3116 39.8573 3.98376
59.057 42.9455 3.98594
64.1277 35.6273 0.0163265
62.9689 33.0328 0.0164947
60.6596 30.5886 0.0154378
57.9429 16.9564 0.0133256
57.7246 19.4426 0.0141874
57.3918 21.8002 0.0156077
59.6155 27.8772 0.0144145
57.7811 25.6843 0.0132002
57.2192 23.9033 0.0149769
55.5401 16.9451 0.0139517
53.7606 16.9543 0.0144541
52.9791 15.2414 0.0145807
50.1117 7.27889 0.00954557
52.1727 12.7811 0.0139942
51.2323 10.114 0.0121576
62.237 35.3523 2
60.3424 32.7284 2
58.6765 30.0461 2
56.6409 18.1261 2
56.3704 20.4856 2
56.1358 22.8264 2
57.3433 27.3416 2
56.3339 25.0569 2
48.0555 6.52211 2
49.3243 9.32234 2
54.4185 17.8927 2
52.3633 17.0109 2
51.3789 14.4796 2
50.4334 11.9803 2
59.9559 35.1104 3.98402
58.0592 32.2464 3.98383
56.6095 29.3031 3.98605
55.5019 26.5539 3.98739
55.3484 19.1593 3.98548
54.9656 24.0107 3.9837
55.0192 21.5247 3.98407
45.9616 5.87815 3.99074
43.3735 7.46725 3.98849
47.3547 8.61709 3.98811
48.6 11.2835 3.98588
49.7146 13.7285 3.9852
50.6346 16.1124 3.98422
53.1288 18.6324 3.98499
51.3055 18.0244 3.98459
51.1672 65.1354 0.0120712
52.0462 62.5498 0.0137598
58.3554 46.8855 0.0135318
52.8362 60.1521 0.0143515
55.485 58.2751 0.0141302
53.6436 58.4938 0.0146865
57.5904 51.8265 0.0154045
56.2906 49.5963 0.0135248
55.4827 55.8283 0.0159718
55.3798 53.4232 0.0171188
50.3459 63.3901 2
51.2449 60.9485 2
54.2249 57.2914 2
52.3154 58.6543 2
56.7878 44.2176 2
55.5481 47.9371 2
55.1037 51.4322 2
54.0201 54.5827 2
49.5918 61.7545 3.9851
55.7338 41.7325 3.98417
50.5684 59.343 3.98394
52.1911 56.5147 3.98376
54.2643 45.603 3.98765
53.3948 49.3738 3.98453
52.6931 52.8941 3.98181
48.6176 64.1308 0.0136046
47.9618 62.4843 2
47.3292 61.0193 3.98463
43.6313 67.4752 0.0116895
45.1322 65.2057 0.0132976
46.3814 63.0628 0.0145356
41.6636 67.6949 2
43.3561 65.5158 2
45.987 61.5965 2
44.7666 63.4642 2
45.766 60.6408 3.98417
44.4828 61.8457 3.98465
43.1458 63.7365 3.98562
41.5457 65.6535 3.98671
39.6329 67.7747 3.98823
37.5263 70.0546 3.99055
39.7027 70.0296 2
39.8179 72.406 3.99432
41.8609 69.8819 0.00935359
42.111 72.2091 2
42.3947 74.6792 4
44.3765 71.864 0.00565371
44.8159 74.2794 2
47.2057 73.7222 0
43.8511 5.35534 3.99092
46.5699 3.64506 3.99438
48.7837 4.31995 2
49.554 1.99015 4
50.9532 5.12897 0.00576589
51.8506 2.85453 2
54.0858 3.86728 0
60.2984 44.7994 0.0135511
61.2685 41.9764 0.0159762
62.2082 39.3615 0.0153586
63.9998 37.4573 0.0144109
62.0485 37.4445 2
60.3116 39.8573 2
59.057 42.9455 2
59.8354 37.5665 3.9865
58.0819 40.6774 3.9845
55.2245 39.7366 3.9896
62.2369 35.3522 0.0162639
60.3424 32.7283 0.0166932
58.6764 30.046 0.0148448
56.6407 18.1264 0.013926
56.3702 20.4858 0.0150324
56.1357 22.8264 0.0164046
57.3431 27.3416 0.013624
56.3337 25.0569 0.013882
54.4183 17.8929 0.0145133
52.3631 17.0111 0.0151048
51.3788 14.4799 0.0150353
48.0556 6.52253 0.00936332
49.3242 9.32276 0.0121499
50.4334 11.9807 0.013828
59.9559 35.1105 2
45.9616 5.87774 2
43.3735 7.46685 2
58.0592 32.2464 2
56.6097 29.3032 2
55.3486 19.159 2
55.0194 21.5245 2
54.9658 24.0108 2
55.5021 26.5538 2
47.3548 8.61667 2
48.6 11.2831 2
53.1289 18.6321 2
51.3057 18.0242 2
50.6347 16.1121 2
49.7147 13.7282 2
57.4783 34.7477 3.98256
55.8065 31.487 3.985
54.585 28.3598 3.98867
53.8208 25.4484 3.98534
53.9768 20.1056 3.98495
53.6055 22.6673 3.98291
41.3986 7.07263 3.98875
45.3595 7.98905 3.98838
42.8653 9.40799 3.98665
46.6663 10.6447 3.98623
47.7455 13.0907 3.98489
48.9319 15.385 3.98392
50.0076 17.6792 3.98379
51.6576 19.3016 3.98491
50.3459 63.3897 0.0137713
51.2449 60.9482 0.0149626
56.7878 44.2177 0.0130359
55.5481 47.9373 0.013521
52.3153 58.654 0.014951
54.2248 57.2911 0.0150387
55.1036 51.4323 0.016537
54.0199 54.5826 0.0170107
49.5918 61.7549 2
55.7338 41.7326 2
50.5684 59.3434 2
52.1913 56.5151 2
54.2643 45.6027 2
53.3949 49.3735 2
52.6933 52.8941 2
48.8494 60.2129 3.98437
52.6503 42.6754 3.98971
49.792 57.6443 3.98347
50.609 54.4513 3.98202
51.9013 47.3144 3.98526
51.2572 50.9912 3.98032
48.3596 43.7612 3.97654
47.9618 62.484 0.0146726
47.3292 61.0196 2
46.6188 59.8064 3.98421
41.6636 67.6945 0.011709
43.3561 65.5154 0.0132791
44.7666 63.4639 0.0143803
45.9871 61.5962 0.0153659
39.6329 67.775 2
41.5457 65.6539 2
45.766 60.6411 2
43.1458 63.7368 2
44.4828 61.846 2
44.6233 60.3033 3.98389
42.9499 62.0945 3.98473
41.5992 63.8301 3.98554
39.6474 65.6222 3.9866
37.5636 67.7574 3.9882
31.6981 65.1413 3.98659
33.3928 67.4951 3.98821
35.3337 69.9649 3.99055
37.5263 70.055 2
37.5097 72.4606 3.99429
39.7027 70.0293 0.00939855
39.8179 72.4062 2
39.9526 74.9197 4
42.1111 72.2088 0.00565319
42.3947 74.6792 2
44.8159 74.2794 0
41.7359 4.96469 3.99105
43.8511 5.35496 2
44.3253 3.10844 3.99454
46.5698 3.64477 2
47.2057 1.27793 4
48.7837 4.32025 0.0056669
49.554 1.99013 2
51.8506 2.85458 0
59.057 42.9455 0.0140574
60.3116 39.8573 0.0162384
62.0484 37.4444 0.0139974
59.8354 37.5666 2
58.0818 40.6774 2
55.2245 39.7367 2
56.9292 37.9022 3.98495
49.826 41.319 3.98847
53.2779 39.3241 3.9937
39.442 6.79611 3.98881
59.9559 35.1104 0.0159845
58.0592 32.2464 0.0161742
56.6095 29.3031 0.0139462
55.3484 19.1593 0.0145194
55.0192 21.5247 0.015929
54.9656 24.0107 0.016304
55.5019 26.5539 0.0126101
53.1288 18.6324 0.0150089
51.3055 18.0244 0.0154125
50.6346 16.1124 0.0157838
45.9616 5.87815 0.00926341
49.7146 13.7285 0.0147966
47.3547 8.61709 0.0118865
48.6 11.2835 0.0141173
43.3735 7.46725 0.0115078
57.4783 34.7478 2
41.3986 7.07223 2
45.3595 7.98861 2
42.8653 9.40757 2
55.8065 31.4871 2
54.5853 28.3596 2
53.977 20.1054 2
53.6058 22.6672 2
53.8209 25.4486 2
46.6664 10.6442 2
47.7456 13.0903 2
51.6578 19.3013 2
50.0078 17.6789 2
48.932 15.3847 2
54.9896 33.9489 3.98209
53.5895 30.4444 3.98799
52.6605 27.1481 3.98765
52.181 24.0375 3.98388
52.404 21.0409 3.98423
41.0133 9.04105 3.98705
44.7235 9.98782 3.98663
42.468 10.8938 3.98594
46.0051 12.719 3.98432
47.6816 14.5713 3.98436
48.1138 16.9717 3.98261
49.8203 19.5719 3.98346
49.5918 61.7545 0.0149031
50.5684 59.343 0.0160627
55.7338 41.7325 0.0158274
54.2643 45.603 0.0123538
53.3948 49.3738 0.0154653
52.1911 56.5147 0.0162381
52.6931 52.8941 0.0181947
48.8494 60.2132 2
52.6501 42.6754 2
49.7921 57.6447 2
50.6093 54.4517 2
51.9014 47.3139 2
51.2574 50.991 2
48.3593 43.7604 2
47.9877 58.7558 3.98394
50.2345 45.3103 3.98398
48.6047 55.9354 3.9834
49.1552 52.6289 3.97967
49.7381 49.0945 3.98002
46.1891 39.9089 3.94003
46.6213 42.786 4.00159
46.6495 45.7618 3.97495
44.0563 41.25 3.9905
42.0857 41.9845 4.00538
47.3292 61.0193 0.0153677
46.6188 59.8067 2
45.4686 58.8029 3.98382
39.6329 67.7747 0.0117734
41.5457 65.6535 0.0132902
43.1458 63.7365 0.0143836
44.4828 61.8457 0.0153467
45.766 60.6408 0.0158269
41.5992 63.8304 2
37.5636 67.7578 2
39.6474 65.6226 2
44.6232 60.3035 2
42.9499 62.0947 2
41.7529 62.5053 3.98483
42.4808 59.9951 3.98395
39.8928 63.5654 3.98536
37.6423 65.5217 3.98656
35.4639 67.6669 3.98819
33.5762 65.3549 3.9866
31.9604 63.3143 3.98541
29.8843 64.7321 3.9865
31.6981 65.1416 2
31.3776 67.2047 3.98818
33.3928 67.4955 2
33.1567 69.7582 3.99056
35.3338 69.9652 2
35.1952 72.3751 3.99428
37.5263 70.0546 0.00944673
37.5097 72.4609 2
37.5 75 4
39.8179 72.406 0.00567852
39.9526 74.9197 2
42.3947 74.6792 0
39.6236 4.71188 3.99119
41.7359 4.96432 2
42.0618 2.71617 3.99462
43.8511 5.35534 0.00908007
44.3253 3.10816 2
44.8158 0.721173 4
46.5699 3.64506 0.00561632
47.2057 1.27779 2
49.554 1.99015 0
58.0819 40.6774 0.015496
59.8354 37.5665 0.0134989
55.2245 39.7366 0.0104039
49.826 41.318 2
56.9291 37.9022 2
53.2779 39.3242 2
54.1263 36.6239 3.98276
47.7516 40.4679 4.00837
50.7798 38.4916 3.9909
37.5158 6.66726 3.98911
39.442 6.79572 2
39.2108 8.68363 3.98725
35.9411 8.48318 3.98767
57.4783 34.7477 0.0174357
55.8065 31.487 0.0149997
54.585 28.3598 0.0113313
53.9768 20.1056 0.0150545
53.6055 22.6673 0.0170895
53.8208 25.4484 0.0146586
51.6576 19.3016 0.0150937
50.0076 17.6792 0.0162146
48.9319 15.385 0.0160811
45.3595 7.98905 0.0116223
47.7455 13.0907 0.0151088
46.6663 10.6447 0.0137705
41.3986 7.07263 0.011247
42.8653 9.40799 0.0133537
54.9896 33.9493 2
41.0133 9.04061 2
44.7236 9.98737 2
42.4681 10.8934 2
53.5896 30.444 2
52.6607 27.1485 2
52.4043 21.0407 2
52.1812 24.0376 2
46.0051 12.7186 2
47.6818 14.5708 2
49.8205 19.5716 2
48.114 16.9714 2
52.5415 32.8371 3.98502
51.4426 29.1036 3.99362
50.8498 25.6701 3.98199
49.9538 22.1421 3.98407
40.569 11.5967 3.98523
43.8578 11.9085 3.98479
45.8021 15.4079 3.98309
47.5052 19.2033 3.98177
46.5188 37.5076 3.94384
48.8494 60.2129 0.0156332
49.792 57.6443 0.016528
52.6503 42.6754 0.0102886
51.9013 47.3144 0.0147396
51.2572 50.9912 0.0196789
50.609 54.4513 0.0179795
48.3596 43.7612 0.0234579
47.9877 58.756 2
50.2343 45.3098 2
48.6048 55.9358 2
49.1556 52.6294 2
49.7384 49.094 2
46.1857 39.9097 2
46.6223 42.7868 2
46.6492 45.7593 2
44.0558 41.2457 2
42.0859 41.9836 2
46.8405 57.3587 3.98422
44.8055 39.5049 3.99093
42.4485 40.859 4.00281
48.1924 47.296 3.98105
47.1802 54.27 3.9839
47.6304 50.8077 3.97746
44.9154 47.3884 3.97365
45.2789 42.0279 3.93345
45.1207 44.6651 4.00304
42.8597 42.7418 3.98998
40.931 42.3394 4.00462
46.6188 59.8064 0.0157916
45.4686 58.8031 2
43.8772 57.727 3.98367
37.5636 67.7574 0.0118011
39.6474 65.6222 0.0133969
41.5992 63.8301 0.0144639
42.9499 62.0945 0.0152736
44.6233 60.3033 0.0161098
35.4639 67.6673 2
41.7529 62.5056 2
39.8928 63.5657 2
37.6423 65.522 2
42.4808 59.9953 2
40.6225 61.6638 3.98448
40.4448 58.2271 3.9839
37.8365 63.2271 3.98523
35.5734 65.444 3.98657
33.5761 65.3552 2
31.9604 63.3146 2
33.6298 63.3542 3.98535
30.3795 62.8728 3.98532
32.1237 62.0208 3.98485
26.8686 61.5165 3.98475
28.0631 64.16 3.9863
29.8843 64.7324 2
29.4072 66.7682 3.98811
31.6981 65.1413 0.0134147
31.3776 67.2051 2
31.0141 69.4231 3.99056
33.3928 67.4951 0.0117924
33.1567 69.7585 2
32.8924 72.1493 3.99427
35.3337 69.9649 0.00944992
35.1952 72.3753 2
35.0474 74.9194 4
37.5097 72.4606 0.00571008
37.5 75 2
39.9526 74.9197 0
35.6202 6.71814 3.989
37.5229 4.61156 3.99121
39.6236 4.71152 2
39.7884 2.47267 3.99473
41.7359 4.96469 0.00895093
42.0618 2.7159 2
42.3946 0.32156 4
44.3253 3.10844 0.00546288
44.8159 0.72056 2
47.2057 1.27793 0
49.826 41.319 0.01153
56.9292 37.9022 0.0150498
53.2779 39.3241 0.00629901
47.7519 40.4666 2
50.7797 38.4912 2
54.126 36.6243 2
51.5526 35.5631 3.97547
48.4193 37.7724 4.00674
46.1781 35.1093 3.94319
44.0418 33.7619 3.99268
42.0798 33.0178 3.99718
37.4574 8.52493 3.98775
37.5158 6.66685 2
39.442 6.79611 0.0111857
39.2108 8.6832 2
38.9758 10.1154 3.9866
35.8976 9.76193 3.98686
34.1495 8.81237 3.98743
35.9411 8.48275 2
54.9896 33.9489 0.0179067
53.5895 30.4444 0.0120079
52.6605 27.1481 0.012348
52.404 21.0409 0.0157746
52.181 24.0375 0.0161195
49.8203 19.5719 0.0165449
48.1138 16.9717 0.017392
47.6816 14.5713 0.0156406
44.7235 9.98782 0.0133675
46.0051 12.719 0.0156785
41.0133 9.04105 0.0129541
42.468 10.8938 0.0140616
52.5417 32.8367 2
40.569 11.5962 2
43.8578 11.9081 2
51.4428 29.1041 2
50.8501 25.6705 2
49.9542 22.1419 2
45.8022 15.4074 2
47.5054 19.203 2
50.1585 31.3683 3.98878
49.3778 27.4199 3.98407
49.4448 24.3503 3.98223
47.1939 21.8828 3.9812
38.3013 12.7206 3.98397
42.1003 14.2922 3.98347
44.8002 18.444 3.98146
45.0818 37.5095 3.99061
46.5167 37.5087 2
47.9877 58.7558 0.0160556
48.6047 55.9354 0.0166001
50.2345 45.3103 0.0160201
49.7381 49.0945 0.0199839
49.1552 52.6289 0.020331
46.1891 39.9089 0.0599657
46.6213 42.786 -0.00158728
46.6495 45.7618 0.0250504
44.0563 41.25 0.00949903
42.0857 41.9845 -0.00538436
46.8405 57.359 2
44.8043 39.5008 2
42.4476 40.8582 2
48.1923 47.2952 2
47.1804 54.2705 2
47.6309 50.8082 2
44.9164 47.3848 2
45.2769 42.0282 2
45.1252 44.6686 2
42.8616 42.736 2
40.9307 42.3403 2
45.4017 55.9446 3.98377
42.7771 39.259 3.99214
40.886 40.8078 3.9641
46.1633 48.9918 3.9811
45.5693 52.5619 3.98268
43.5425 48.4983 3.96013
43.4982 46.2117 4.01644
43.8345 43.8247 3.93115
41.327 43.9 3.98884
39.3041 42.662 3.97207
45.4686 58.8029 0.0161791
43.8771 57.7272 2
42.1082 56.3531 3.98379
35.4639 67.6669 0.0118111
37.6423 65.5217 0.0134371
39.8928 63.5654 0.0146446
41.7529 62.5053 0.0151658
42.4808 59.9951 0.0160498
35.5734 65.4444 2
40.6225 61.6641 2
37.8365 63.2274 2
40.4448 58.2272 2
38.9261 56.5214 3.9838
38.25 60.3474 3.9841
35.6072 63.2209 3.98529
33.5762 65.3549 0.0134022
31.9604 63.3143 0.0145947
33.6297 63.3546 2
30.3794 62.8731 2
32.1237 62.0211 2
28.6817 62.218 3.98508
33.3462 61.5334 3.98432
31.0667 61.2378 3.98437
27.567 59.6149 3.98453
23.7881 59.1088 3.98593
25.0332 60.8912 3.98538
26.8686 61.5168 2
26.2295 63.4924 3.98608
28.0631 64.1603 2
27.4639 66.1921 3.98801
29.8843 64.7321 0.0135018
29.4072 66.7686 2
28.9066 68.9486 3.99053
31.3776 67.2047 0.0118194
31.0141 69.4235 2
30.6149 71.7804 3.99426
33.1567 69.7582 0.00944383
32.8924 72.1496 2
32.6054 74.6784 4
35.1952 72.3751 0.0057204
35.0474 74.9197 2
37.5 75 0
33.7228 6.97249 3.98887
35.4344 4.68177 3.99122
35.6202 6.71774 2
37.5141 2.38539 3.9947
37.5229 4.61119 2
39.6236 4.71188 0.00881432
39.7884 2.47241 2
39.9526 0.0806499 4
42.0618 2.71617 0.00538484
42.3947 0.320817 2
44.8158 0.721173 0
44.8016 35.5123 3.9881
42.4364 34.1473 4.00507
47.7516 40.4679 -0.00837349
50.7798 38.4916 0.00910088
54.1263 36.6239 0.0172447
48.4196 37.7713 2
51.5521 35.5624 2
46.1761 35.1094 2
44.0426 33.7656 2
42.0803 33.0185 2
48.5753 34.2396 3.99772
45.2667 32.9923 3.93712
42.8608 32.259 3.98949
40.9268 32.6607 4.00256
37.3097 10.6176 3.98602
37.4574 8.52449 2
37.5158 6.66726 0.0108907
39.2108 8.68363 0.0127549
38.9758 10.1149 2
34.7527 10.3674 3.98602
35.8976 9.76148 2
32.3761 9.3587 3.98696
34.1494 8.81196 2
35.9411 8.48318 0.0123335
52.5415 32.8371 0.0149815
51.4426 29.1036 0.00638107
50.8498 25.6701 0.0180054
49.9538 22.1421 0.01593
47.5052 19.2033 0.0182258
45.8021 15.4079 0.0169131
43.8578 11.9085 0.0152145
40.569 11.5967 0.0147739
50.1586 31.3704 2
38.3013 12.7201 2
42.1003 14.2919 2
49.3781 27.4206 2
49.4452 24.3504 2
47.1943 21.8826 2
44.8004 18.4436 2
47.9388 29.5276 3.98226
47.1478 25.0621 3.98196
44.2926 21.2961 3.97922
36.5808 12.9172 3.98403
38.6797 14.791 3.98306
41.749 17.8208 3.98228
42.906 37.4961 3.99031
45.0818 37.5093 2
46.5188 37.5076 0.056158
46.8405 57.3587 0.0157773
47.1802 54.27 0.0160999
48.1924 47.296 0.0189501
47.6304 50.8077 0.0225428
44.8055 39.5049 0.00907373
45.2789 42.0279 0.0665492
45.1207 44.6651 -0.00304485
44.9154 47.3884 0.0263545
42.8597 42.7418 0.0100223
42.4485 40.859 -0.0028052
40.931 42.3394 -0.00462026
45.4017 55.9448 2
42.7758 39.2584 2
40.8846 40.809 2
46.164 48.9914 2
45.5697 52.5623 2
43.5433 48.4991 2
43.5007 46.2154 2
43.8359 43.8256 2
41.3281 43.8958 2
39.3033 42.6662 2
43.7436 54.4544 3.98428
40.9635 39.1795 3.95523
39.2306 40.878 3.95297
43.7524 50.5455 3.98969
42.0579 47.7462 4.01608
41.993 45.2195 3.9197
39.5328 44.6723 3.98179
37.5057 42.7874 3.95316
43.8772 57.727 0.0163297
42.1081 56.3532 2
40.4222 54.9608 3.98368
35.5734 65.444 0.0134286
37.8365 63.2271 0.0147695
40.6225 61.6638 0.0155243
40.4448 58.2271 0.0160956
35.6072 63.2212 2
38.25 60.3477 2
38.9261 56.5215 2
38.001 55.2759 3.98397
36.9344 57.6493 3.98334
35.3636 60.9324 3.98417
33.6298 63.3542 0.0146462
30.3795 62.8728 0.014681
32.1237 62.0208 0.0151488
33.3462 61.5337 2
28.6817 62.2183 2
31.0667 61.2381 2
29.4025 60.3075 3.98406
32.3559 59.7649 3.98416
28.0188 58.3947 3.98525
27.567 59.6152 2
25.3755 58.619 3.98488
22.7498 58.2705 3.98494
23.398 60.3734 3.98593
23.788 59.1091 2
25.0332 60.8915 2
24.4315 62.7859 3.98632
26.8686 61.5165 0.0152479
26.2295 63.4927 2
25.548 65.5023 3.98789
28.0631 64.16 0.0137048
27.4639 66.1925 2
26.8365 68.3371 3.9905
29.4072 66.7682 0.011891
28.9066 68.949 2
28.3701 71.2657 3.99423
31.0141 69.4231 0.00943811
30.6149 71.7807 2
30.1842 74.2788 4
32.8924 72.1493 0.00573097
32.6053 74.6792 2
35.0474 74.9194 0
31.7872 7.41187 3.98866
33.3464 4.92071 3.99114
33.7228 6.97209 2
35.2444 2.46147 3.99472
35.4344 4.68142 2
35.6202 6.71814 0.0110016
37.5 0 4
37.5141 2.38513 2
37.5229 4.61156 0.00878538
39.7884 2.47267 0.00526946
39.9526 0.0802889 2
42.3946 0.32156 0
42.7727 35.7376 3.99179
44.8011 35.5154 2
40.8746 34.193 3.96492
42.4364 34.1474 2
48.4193 37.7724 -0.00673918
51.5526 35.5631 0.0245285
46.1781 35.1093 0.0568066
44.0418 33.7619 0.00732236
42.0798 33.0178 0.0028213
48.5743 34.2411 2
45.2647 32.9912 2
42.8624 32.2643 2
40.927 32.6584 2
46.5485 31.4902 4
43.8417 31.1831 3.9315
41.3319 31.1001 3.98834
39.2971 32.3493 3.9711
35.6912 11.762 3.98478
37.3097 10.6172 2
37.4574 8.52493 0.0122527
38.9758 10.1154 0.013401
33.0966 11.2035 3.98541
34.7527 10.3669 2
35.8976 9.76193 0.0131393
30.4809 10.0064 3.98656
32.3761 9.35828 2
34.1495 8.81237 0.0125693
50.1585 31.3683 0.0112152
49.3778 27.4199 0.0159308
49.4448 24.3503 0.0177654
47.1939 21.8828 0.0187967
44.8002 18.444 0.0185403
42.1003 14.2922 0.0165298
38.3013 12.7206 0.0160303
36.5808 12.9167 2
47.9392 29.5295 2
38.6798 14.7904 2
41.7491 17.8205 2
47.1485 25.0621 2
44.2929 21.2957 2
45.6722 27.7132 3.97873
43.8261 23.9987 3.9813
41.3434 20.6985 3.98084
35.7702 14.742 3.98333
38.6802 17.5778 3.98205
41.0071 37.4849 3.94941
42.9056 37.4957 2
45.0818 37.5095 0.00938592
45.4017 55.9446 0.0162329
45.5693 52.5619 0.0173244
46.1633 48.9918 0.0189016
42.7771 39.259 0.00786014
43.8345 43.8247 0.068852
43.4982 46.2117 -0.0164431
43.5425 48.4983 0.0398674
41.327 43.9 0.0111566
40.886 40.8078 0.0359048
39.3041 42.662 0.027931
43.7436 54.4546 2
40.9619 39.1798 2
39.2295 40.8811 2
43.7528 50.5467 2
42.0583 47.7465 2
41.9931 45.2184 2
37.5052 42.7923 2
39.5336 44.6758 2
41.8908 53.026 3.98209
39.2245 39.1706 3.94864
37.5076 40.9185 3.95257
35.7074 42.6679 3.9779
40.996 49.7706 3.99596
39.8709 46.102 3.9534
37.4972 44.9663 3.96145
42.1082 56.3531 0.0162092
40.4222 54.9609 2
38.7325 53.8934 3.98507
35.6072 63.2209 0.0147143
38.25 60.3474 0.0159
38.9261 56.5214 0.0162033
35.3636 60.9326 2
36.9344 57.6496 2
38.0011 55.2758 2
36.3201 55.407 3.98321
34.4871 58.5425 3.98343
33.3462 61.5334 0.0156788
28.6817 62.218 0.0149205
31.0667 61.2378 0.0156278
32.3559 59.7652 2
29.4025 60.3077 2
30.2948 57.8375 3.98391
28.0188 58.3949 2
26.936 56.849 3.98412
27.567 59.6149 0.0154668
25.3755 58.6192 2
23.8275 56.8386 3.98414
21.3239 57.4334 3.98545
21.9892 59.6486 3.98628
22.7498 58.2708 2
22.7346 62.039 3.9865
23.3979 60.3737 2
23.7881 59.1088 0.0140718
25.0332 60.8912 0.0146191
24.4315 62.7862 2
23.6817 64.7213 3.98788
26.2295 63.4924 0.0139222
25.5479 65.5027 2
24.8091 67.5986 3.99046
27.4639 66.1921 0.0119905
26.8366 68.3375 2
26.1655 70.6066 3.99423
28.9066 68.9486 0.00947345
28.3701 71.2659 2
27.7943 73.7221 4
30.6149 71.7804 0.0057404
30.1841 74.2794 2
32.6054 74.6784 0
29.8098 7.9847 3.98834
31.2517 5.3275 3.99097
31.7872 7.41146 2
32.9803 2.69948 3.99467
33.3465 4.92034 2
33.7228 6.97249 0.0111265
35.0474 0.080333 4
35.2444 2.46121 2
35.4344 4.68177 0.00877965
37.5 0 2
37.5141 2.38539 0.00530162
39.9526 0.0806499 0
40.9603 35.801 3.95218
42.7721 35.7374 2
44.8016 35.5123 0.0118999
28.5419 10.6814 3.98622
39.2193 34.1357 3.95718
40.8739 34.1908 2
42.4364 34.1473 -0.00507368
48.5753 34.2396 0.00227774
45.2667 32.9923 0.0628844
42.8608 32.259 0.0105121
40.9268 32.6607 -0.00256452
46.5492 31.4905 2
43.8406 31.1843 2
41.3344 31.1016 2
39.2973 32.3449 2
44.5977 29.658 4.00385
42.0032 29.7873 3.9269
39.5387 30.3341 3.97483
37.4975 32.2254 3.94907
34.0909 12.9192 3.98417
35.6912 11.7615 2
37.3097 10.6176 0.0139792
31.1847 11.9715 3.98511
33.0966 11.2031 2
34.7527 10.3674 0.0139755
30.4808 10.0059 2
32.3761 9.3587 0.0130354
47.9388 29.5276 0.0177412
47.1478 25.0621 0.0180401
36.5808 12.9172 0.0159663
44.2926 21.2961 0.0207765
41.749 17.8208 0.0177235
38.6797 14.791 0.0169369
35.7702 14.7415 2
45.6731 27.7138 2
38.6802 17.5772 2
41.3436 20.6983 2
43.8268 23.9984 2
33.6061 15.859 3.98294
43.1385 26.3992 3.98185
40.9278 23.2738 3.98165
38.4225 20.3085 3.98025
35.8467 17.4917 3.98234
39.2309 37.4884 3.94532
41.0063 37.4843 2
42.906 37.4961 0.0096904
43.7436 54.4544 0.0157169
43.7524 50.5455 0.0103086
40.9635 39.1795 0.0447681
41.993 45.2195 0.080302
42.0579 47.7462 -0.0160822
39.5328 44.6723 0.0182089
39.2306 40.878 0.047031
37.5057 42.7874 0.0468446
41.8907 53.0261 2
39.2236 39.172 2
37.5072 40.9216 2
40.9968 49.7693 2
35.707 42.6723 2
39.87 46.1047 2
37.4971 44.9719 2
39.8294 51.9421 3.98277
37.5034 39.1826 3.95061
35.7875 40.8922 3.95531
34.0777 42.3511 4.00572
35.4611 44.6658 3.98319
38.7526 48.9029 4.02326
37.4951 46.4008 3.95575
40.4222 54.9608 0.0163192
38.7327 53.893 2
36.7191 53.2344 3.98594
35.3636 60.9324 0.0158333
36.9344 57.6493 0.0166628
38.001 55.2759 0.0160341
34.4871 58.5427 2
36.3202 55.4072 2
33.2231 55.5237 3.98273
32.3559 59.7649 0.0158419
29.4025 60.3075 0.0159424
30.2948 57.8377 2
28.6729 55.3331 3.98308
28.0188 58.3947 0.0147541
26.936 56.8493 2
25.2902 55.1793 3.9833
21.7889 55.3864 3.98405
25.3755 58.619 0.0151206
23.8274 56.8389 2
20.2067 57.0655 3.9858
20.6387 58.8098 3.9863
21.3238 57.4337 2
21.1638 61.1915 3.98696
21.9892 59.6489 2
22.7498 58.2705 0.0150559
21.8947 63.8506 3.98799
22.7346 62.0393 2
23.398 60.3734 0.0140723
24.4315 62.7859 0.0136775
23.6817 64.7217 2
22.8375 66.7429 3.99044
25.548 65.5023 0.0121115
24.8091 67.599 2
24.0099 69.8079 3.99423
26.8365 68.3371 0.00949661
26.1655 70.6068 2
25.446 73.0099 4
28.3701 71.2657 0.00576629
27.7943 73.7222 2
30.1842 74.2788 0
27.8198 8.64389 3.98808
29.1538 5.87286 3.99075
29.8098 7.98427 2
30.7256 3.09646 3.99456
31.2517 5.32711 2
31.7872 7.41187 0.0113448
32.6053 0.320823 4
32.9803 2.69921 2
33.3464 4.92071 0.00886479
35.0474 0.0802903 2
35.2444 2.46147 0.00528306
37.5 0 0
39.222 35.8185 3.94897
40.9594 35.7996 2
42.7727 35.7376 0.00821367
28.5419 10.681 2
26.621 11.376 3.98631
29.2238 12.6281 3.98518
37.4959 34.101 3.95336
39.2188 34.1324 2
40.8746 34.193 0.035085
46.5485 31.4902 -3.5024e-06
43.8417 31.1831 0.0685038
41.3319 31.1001 0.0116588
39.2971 32.3493 0.0288984
44.6007 29.6577 2
42.0022 29.7878 2
39.54 30.33 2
37.4981 32.22 2
42.4493 28.3294 4.01106
39.8794 28.8979 3.94858
37.4996 30.0365 3.95259
35.6999 32.3455 3.96993
31.9127 14.4646 3.984
34.0909 12.9188 2
35.6912 11.762 0.0152177
31.1847 11.9711 2
33.0966 11.2035 0.0145912
30.4809 10.0064 0.0134438
45.6722 27.7132 0.0212699
43.8261 23.9987 0.0187022
35.7702 14.742 0.0166654
41.3434 20.6985 0.0191581
38.6802 17.5778 0.0179474
33.606 15.8586 2
35.8467 17.4911 2
43.1392 26.3982 2
38.4226 20.3077 2
40.9284 23.2735 2
33.548 17.3687 3.98237
40.4947 25.5792 3.97772
38.0838 22.8444 3.98274
35.583 20.0607 3.98112
37.5003 37.5005 3.95001
39.2305 37.4882 2
41.0071 37.4849 0.0505901
41.8908 53.026 0.017911
40.996 49.7706 0.00404373
39.2245 39.1706 0.0513608
39.8709 46.102 0.0466047
37.4972 44.9663 0.0385455
37.5076 40.9185 0.0474332
35.7074 42.6679 0.0221037
39.8299 51.9413 2
37.5032 39.184 2
35.7879 40.8955 2
38.7535 48.9039 2
34.0772 42.3542 2
35.4599 44.6691 2
37.4932 46.4046 2
37.6603 51.0878 3.98072
35.7867 39.1913 3.94798
34.1381 40.8263 3.96436
32.9227 41.9957 4.00073
33.6688 43.906 3.98817
35.1263 46.0998 3.94712
36.8679 48.5003 4.03387
38.7325 53.8934 0.0149268
36.7191 53.2348 2
34.347 52.5083 3.98483
34.4871 58.5425 0.0165669
36.3201 55.407 0.0167914
33.2231 55.5237 2
30.4958 53.4421 3.98197
30.2948 57.8375 0.0160931
28.6729 55.3334 2
26.8507 53.4847 3.98191
26.936 56.849 0.0158824
25.29 55.1796 2
23.5391 53.5278 3.98248
20.4332 53.2738 3.98326
19.9152 55.8713 3.98543
21.7888 55.3866 2
23.8275 56.8386 0.0158649
19.4291 57.9251 3.98609
20.2066 57.0658 2
19.7022 60.2282 3.9869
20.6386 58.81 2
21.3239 57.4334 0.0145525
20.2064 62.8739 3.98821
21.1637 61.1918 2
21.9892 59.6486 0.0137221
20.9389 65.773 3.99048
21.8947 63.8509 2
22.7346 62.039 0.0134985
23.6817 64.7213 0.0121168
22.8375 66.7433 2
21.9126 68.8753 3.99422
24.8091 67.5986 0.00953665
24.0099 69.8082 2
23.1494 72.1454 4
26.1655 70.6066 0.00576839
25.446 73.0099 2
27.7943 73.7221 0
25.8593 9.37148 3.98798
27.0687 6.53647 3.99057
27.8198 8.64347 2
28.4879 3.64219 3.99443
29.1538 5.87246 2
29.8098 7.9847 0.0116631
30.1841 0.720592 4
30.7257 3.09619 2
31.2517 5.3275 0.00903093
32.6053 0.320817 2
32.9803 2.69948 0.00533037
35.0474 0.080333 0
37.4981 35.8239 3.94985
39.2216 35.8168 2
40.9603 35.801 0.0478214
24.7759 12.0582 3.98644
23.7497 14.3407 3.98592
28.5419 10.6814 0.0137831
26.6209 11.3756 2
29.2237 12.6277 2
27.2899 13.3602 3.98522
29.7787 14.1865 3.98485
35.7768 34.1289 3.95558
37.4961 34.0977 2
39.2193 34.1357 0.0428242
37.4975 32.2254 0.0509307
44.5977 29.658 -0.00385308
42.0032 29.7873 0.0731035
39.5387 30.3341 0.0251675
42.4516 28.328 2
39.879 28.8952 2
37.5 30.0298 2
35.7009 32.3412 2
40.0996 27.4833 4.02361
37.4996 28.595 3.95277
35.4598 30.3315 3.97439
34.0743 32.6601 4.00129
30.9242 16.8207 3.9842
31.9127 14.4642 2
34.0909 12.9192 0.0158315
31.1847 11.9715 0.0148916
43.1385 26.3992 0.018152
40.9278 23.2738 0.0183455
33.6061 15.859 0.0170552
35.8467 17.4917 0.0176587
38.4225 20.3085 0.0197549
33.548 17.3683 2
35.583 20.06 2
40.4952 25.5769 2
38.0841 22.8431 2
32.8603 19.7777 3.9808
37.7864 25.1639 3.97795
35.205 22.6216 3.98058
35.7726 37.5075 3.9443
37.5004 37.5004 2
39.2309 37.4884 0.0546806
39.8294 51.9421 0.0172301
38.7526 48.9029 -0.0232616
37.5034 39.1826 0.0493936
37.4951 46.4008 0.0442456
35.4611 44.6658 0.0168052
35.7875 40.8922 0.0446948
34.0777 42.3511 -0.00571891
37.6606 51.0885 2
35.7872 39.1929 2
34.1391 40.8289 2
36.8687 48.5035 2
32.9223 41.9953 2
33.6664 43.9054 2
35.1268 46.1023 2
35.4025 50.266 3.98315
34.0554 39.2031 3.95296
32.5664 40.8688 4.0051
32.1391 42.7528 3.98987
33.0046 45.2223 3.92463
34.2291 47.5204 4.02367
36.7191 53.2344 0.0140624
34.347 52.5087 2
31.9575 51.2836 3.98297
33.2231 55.5237 0.0172734
30.4958 53.4422 2
28.3819 51.6877 3.98015
28.6729 55.3331 0.0169166
26.8506 53.485 2
25.0298 51.8279 3.98066
25.2902 55.1793 0.016697
23.539 53.528 2
21.9164 51.8653 3.98267
19.1571 51.6862 3.98343
18.896 54.3512 3.98436
20.4331 53.2739 2
18.4344 56.7591 3.98616
19.915 55.8715 2
21.7889 55.3864 0.0159546
18.3626 59.1388 3.98665
19.429 57.9254 2
20.2067 57.0655 0.0142039
18.6164 61.7838 3.98815
19.7021 60.2285 2
20.6387 58.8098 0.0137009
19.1274 64.6851 3.99055
20.2063 62.8742 2
21.1638 61.1915 0.0130356
19.8867 67.8124 3.99424
20.9389 65.7733 2
21.8947 63.8506 0.0120052
22.8375 66.7429 0.00956468
21.9126 68.8756 2
20.9142 71.1327 4
24.0099 69.8079 0.00577361
23.1494 72.1455 2
25.446 73.0099 0
23.0952 12.772 3.98652
23.972 10.1574 3.98793
25.0228 7.30615 3.99045
25.8592 9.3711 2
26.2797 4.3262 3.99429
27.0687 6.53606 2
27.8198 8.64389 0.0119229
27.7943 1.27781 4
28.4879 3.6419 2
29.1538 5.87286 0.00924577
30.1841 0.720551 2
30.7256 3.09646 0.00543641
32.6053 0.320823 0
35.7762 35.8257 3.94744
37.4984 35.8223 2
39.222 35.8185 0.051029
24.7759 12.0579 2
23.7496 14.3404 2
22.478 15.0158 3.98609
25.356 13.891 3.98567
24.0224 15.6014 3.9856
26.621 11.376 0.0136883
29.2238 12.6281 0.0148223
27.2899 13.3598 2
29.7786 14.1862 2
28.3548 15.9596 3.98476
34.1304 34.1917 3.9636
35.7777 34.1258 2
37.4959 34.101 0.0466362
35.6999 32.3455 0.0300725
37.4996 30.0365 0.0474121
42.4493 28.3294 -0.0110615
39.8794 28.8979 0.0514239
40.1008 27.4794 2
37.5002 28.5877 2
35.4596 30.3279 2
34.0752 32.658 2
37.5993 27.1285 4.03297
35.1176 28.8931 3.94641
33.6667 31.1003 3.98838
32.9217 33.0225 3.99934
30.2047 19.3225 3.98502
30.9242 16.8203 2
31.9127 14.4646 0.0160004
40.4947 25.5792 0.022279
38.0838 22.8444 0.0172552
33.548 17.3687 0.0176284
35.583 20.0607 0.0188848
32.8602 19.7773 2
35.205 22.6207 2
37.7862 25.162 2
32.3062 22.3938 3.98132
34.9314 25.1286 3.97487
34.0023 37.5091 3.94867
35.7731 37.5076 2
37.5003 37.5005 0.0499885
37.6603 51.0878 0.0192772
36.8679 48.5003 -0.033869
35.7867 39.1913 0.0520209
35.1263 46.0998 0.052884
33.6688 43.906 0.0118285
34.1381 40.8263 0.0356402
32.9227 41.9957 -0.000728383
35.4025 50.2668 2
34.0566 39.2045 2
32.5669 40.8685 2
34.2288 47.5252 2
32.1372 42.7472 2
33.0053 45.2231 2
33.1511 49.2586 3.98335
32.2323 39.2758 3.99347
30.9537 41.257 3.99287
31.1621 43.835 3.92988
32.1272 46.4525 4.01638
34.347 52.5083 0.0151677
31.9574 51.2835 2
29.7774 49.8089 3.98038
30.4958 53.4421 0.018028
28.3817 51.6879 2
26.432 50.0742 3.97821
26.8507 53.4847 0.0180942
25.0296 51.8281 2
23.2733 50.2652 3.98301
23.5391 53.5278 0.0175159
21.9164 51.8653 2
20.408 50.3731 3.98394
17.941 50.3782 3.98483
17.8007 52.8363 3.98407
19.1571 51.6862 2
17.4188 55.3778 3.98537
18.8959 54.3513 2
20.4332 53.2738 0.0167422
17.1264 57.9033 3.98678
18.4343 56.7594 2
19.9152 55.8713 0.0145741
17.1328 60.5698 3.98785
18.3625 59.1391 2
19.4291 57.9251 0.0139079
17.4073 63.4793 3.99054
18.6164 61.7842 2
19.7022 60.2282 0.0130985
17.9428 66.6214 3.99426
19.1275 64.6854 2
20.2064 62.8739 0.011792
18.75 69.9759 4
19.8867 67.8127 2
20.9389 65.773 0.00951662
21.9126 68.8753 0.00578359
20.9142 71.1327 2
23.1494 72.1454 0
21.5858 13.5909 3.98661
22.1902 11.0159 3.9879
23.0952 12.7717 2
23.041 8.171 3.99041
23.972 10.1571 2
24.1174 5.14069 3.99418
25.0228 7.30576 2
25.8593 9.37148 0.0120167
25.446 1.99014 4
26.2798 4.3259 2
27.0687 6.53647 0.00943487
27.7943 1.27778 2
28.4879 3.64219 0.0055676
30.1841 0.720592 0
34.0429 35.8147 3.95147
35.7772 35.8242 2
37.4981 35.8239 0.0501549
21.3025 15.8097 3.98596
24.7759 12.0582 0.0135557
23.7497 14.3407 0.0140771
25.356 13.8907 2
22.4779 15.0155 2
24.0224 15.6011 2
23.2612 16.2316 3.98547
25.3779 16.0696 3.98533
27.2899 13.3602 0.0147802
29.7787 14.1865 0.01515
28.3548 15.9592 2
27.4359 18.7787 3.98493
32.5654 34.1536 4.00538
34.1315 34.1899 2
35.7768 34.1289 0.0444225
34.0743 32.6601 -0.00129243
35.4598 30.3315 0.0256119
37.4996 28.595 0.0472335
40.0996 27.4833 -0.0236118
37.5993 27.1243 2
32.9222 33.0234 2
35.119 28.8907 2
33.6652 31.1021 2
35.0042 27.2838 4.01995
32.9942 29.7911 3.92797
32.1413 32.2667 3.991
29.5653 21.9169 3.98634
30.2046 19.322 2
30.9242 16.8207 0.0157985
37.7864 25.1639 0.0220506
35.205 22.6216 0.0194236
32.8603 19.7777 0.0191984
32.3061 22.3936 2
34.9306 25.1271 2
31.6124 25.5681 3.98005
32.0965 37.5136 3.98978
34.0033 37.5093 2
35.7726 37.5075 0.0557007
35.4025 50.266 0.0168466
34.2291 47.5204 -0.0236694
34.0554 39.2031 0.0470384
33.0046 45.2223 0.0753695
32.1391 42.7528 0.0101325
32.5664 40.8688 -0.00509827
33.1507 49.2593 2
32.2332 39.2756 2
30.9535 41.253 2
32.126 46.4577 2
31.1626 43.8346 2
31.0169 47.9842 3.97927
30.1954 39.5094 3.99045
29.7312 42.0315 3.93571
30.2131 45.0548 4.00494
31.9575 51.2836 0.0170309
29.7772 49.8093 2
27.76 48.2723 3.98029
28.3819 51.6877 0.0198495
26.4318 50.0743 2
24.5532 48.5475 3.98395
25.0298 51.8279 0.0193436
23.2732 50.265 2
21.5738 48.855 3.98591
21.9164 51.8653 0.0173266
20.4079 50.373 2
18.9734 49.1446 3.98621
16.8472 49.3749 3.98609
16.7371 51.45 3.98466
17.9409 50.3783 2
16.3659 53.9089 3.9849
17.8006 52.8363 2
19.1571 51.6862 0.0165679
15.9651 56.5069 3.98641
17.4187 55.378 2
18.896 54.3512 0.0156449
15.7451 59.233 3.98773
17.1264 57.9036 2
18.4344 56.7591 0.013844
15.7873 62.1517 3.99035
17.1328 60.5702 2
18.3626 59.1388 0.0133522
16.0893 65.3045 3.99427
17.4073 63.4797 2
18.6164 61.7838 0.0118517
16.6661 68.6801 4
17.9429 66.6217 2
19.1274 64.6851 0.00944998
18.75 69.9759 2
19.8867 67.8124 0.00576293
20.9142 71.1327 0
20.2173 14.5778 3.98651
21.5858 13.5906 2
20.5295 11.9847 3.98792
21.1442 9.14016 3.99038
22.1902 11.0156 2
23.0952 12.772 0.0134841
22.0166 6.07945 3.99414
23.041 8.1706 2
23.972 10.1574 0.0120694
23.1494 2.85457 4
24.1175 5.14039 2
25.0228 7.30615 0.00955036
25.446 1.99012 2
26.2797 4.3262 0.00571099
27.7943 1.27781 0
32.2267 35.7501 3.99245
34.0446 35.8139 2
35.7762 35.8257 0.0525568
21.3025 15.8094 2
20.2987 16.9409 3.98615
22.094 16.6143 3.98574
25.356 13.891 0.0143331
22.478 15.0158 0.0139127
24.0224 15.6014 0.0144001
25.3778 16.0693 2
23.2612 16.2313 2
24.2 18.4284 3.98496
27.0027 21.4357 3.98485
28.3548 15.9596 0.0152356
27.4358 18.7784 2
30.9567 33.7743 3.9897
32.5658 34.1537 2
34.1304 34.1917 0.0363969
32.9217 33.0225 0.000659705
33.6667 31.1003 0.0116184
35.1176 28.8931 0.0535912
37.5993 27.1285 -0.0329724
35.0031 27.2805 2
32.1413 32.2714 2
32.9963 29.7916 2
32.403 28.026 4.01128
31.1589 31.1951 3.9346
28.7347 24.3854 3.98718
29.5654 21.9165 2
30.2047 19.3225 0.0149751
34.9314 25.1286 0.0251272
32.3062 22.3938 0.0186845
31.6109 25.5678 2
29.5159 27.1959 3.99103
29.913 37.5165 3.99042
32.0971 37.5136 2
34.0023 37.5091 0.0513333
33.1511 49.2586 0.0166496
32.1272 46.4525 -0.0163834
32.2323 39.2758 0.00653482
31.1621 43.835 0.0701224
30.9537 41.257 0.00712598
31.0162 47.981 2
30.1963 39.5067 2
29.7338 42.0327 2
30.2098 45.059 2
29.019 46.521 3.97626
28.817 39.9123 3.94149
28.434 43.2704 4.00249
29.7774 49.8089 0.0196192
27.7595 48.2715 2
25.8062 46.7371 3.98885
26.432 50.0742 0.0217924
24.5531 48.5472 2
22.6963 47.1523 3.99051
23.2733 50.2652 0.0169922
21.5738 48.8548 2
19.9088 47.6739 3.98834
20.408 50.3731 0.0160618
18.9733 49.1446 2
17.6158 48.2233 3.98688
16.0983 48.7226 3.98652
16.8471 49.3749 2
15.8127 50.2099 3.98559
15.3518 52.4529 3.985
16.7371 51.4501 2
17.941 50.3782 0.0151723
14.8535 55.0092 3.98583
16.3659 53.909 2
17.8007 52.8363 0.0159269
14.4529 57.7636 3.98752
15.965 56.5072 2
17.4188 55.3778 0.0146343
14.2649 60.7081 3.99014
15.745 59.2334 2
17.1264 57.9033 0.0132169
14.3332 63.8643 3.99417
15.7873 62.1521 2
17.1328 60.5698 0.0121527
14.6715 67.2507 4
16.0893 65.3049 2
17.4073 63.4793 0.00945808
16.6661 68.6801 2
17.9428 66.6214 0.00573852
18.75 69.9759 0
18.9302 15.7622 3.98653
20.2172 14.5775 2
18.9789 13.0938 3.98783
21.5858 13.5909 0.0133901
20.5295 11.9843 2
19.3437 10.2272 3.99034
19.9913 7.14384 3.99414
21.1442 9.13974 2
22.1902 11.0159 0.012098
20.9142 3.86727 4
22.0166 6.07914 2
23.041 8.171 0.00959186
23.1494 2.85451 2
24.1174 5.14069 0.00582449
25.446 1.99014 0
30.1939 35.5227 3.99009
32.2281 35.7501 2
34.0429 35.8147 0.0485322
21.3025 15.8097 0.0140363
22.0939 16.614 2
20.2987 16.9406 2
19.236 18.3846 3.9861
21.7775 17.8275 3.98569
25.3779 16.0696 0.0146701
23.2612 16.2316 0.0145294
24.1999 18.4281 2
22.268 19.865 3.98549
24.5777 21.2937 3.98468
26.368 23.6927 3.98713
27.0027 21.4353 2
27.4359 18.7787 0.015071
29.7354 33.0046 3.93523
30.9566 33.7787 2
32.5654 34.1536 -0.005384
32.1413 32.2667 0.00900205
32.9942 29.7911 0.0720274
35.0042 27.2838 -0.0199536
32.4017 28.0239 2
31.1608 31.1978 2
29.9074 29.4769 4.0034
27.7685 26.5074 3.97843
28.7338 24.3847 2
29.5653 21.9169 0.0136556
31.6124 25.5681 0.0199484
29.5145 27.1959 2
28.474 37.5149 3.94597
29.9134 37.517 2
32.0965 37.5136 0.010217
31.0169 47.9842 0.020728
30.2131 45.0548 -0.00493893
30.1954 39.5094 0.00954818
29.7312 42.0315 0.0642891
29.0184 46.5181 2
28.8196 39.9126 2
28.4332 43.2701 2
27.0795 44.8774 3.97889
26.545 40.6626 4.00017
27.76 48.2723 0.0197142
25.8062 46.7365 2
23.8319 45.2832 3.994
24.5532 48.5475 0.0160508
22.6962 47.152 2
20.8257 45.9546 3.9907
21.5738 48.855 0.0140857
19.9087 47.6739 2
18.2529 46.7822 3.98763
18.9734 49.1446 0.0137875
17.6157 48.2233 2
16.2847 47.7514 3.98632
16.0982 48.7226 2
15.1575 49.0516 3.98601
16.8472 49.3749 0.0139092
15.8127 50.21 2
14.4632 51.0194 3.98542
13.8127 53.4652 3.98561
15.3518 52.453 2
16.7371 51.45 0.0153395
13.246 56.1925 3.98708
14.8534 55.0094 2
16.3659 53.9089 0.0150983
12.8467 59.1432 3.98982
14.4529 57.7639 2
15.9651 56.5069 0.0135907
12.6784 62.3074 3.994
14.2649 60.7086 2
15.7451 59.233 0.012269
12.7746 65.6939 4
14.3333 63.8646 2
15.7873 62.1517 0.00964527
14.6714 67.2507 2
16.0893 65.3045 0.00572977
16.6661 68.6801 0
17.6635 17.135 3.98646
18.9302 15.7618 2
17.5097 14.3556 3.98768
20.2173 14.5778 0.013494
18.9789 13.0934 2
17.6392 11.4448 3.99027
20.5295 11.9847 0.0120825
19.3437 10.2267 2
18.0516 8.33631 3.99414
18.75 5.0241 4
19.9913 7.14351 2
21.1442 9.14016 0.0096249
20.9142 3.86727 2
22.0166 6.07945 0.00585672
23.1494 2.85457 0
28.8049 35.1215 3.94191
30.1954 35.5266 2
32.2267 35.7501 0.0075494
22.094 16.6143 0.0142597
20.2987 16.9409 0.0138468
21.7774 17.8272 2
19.2359 18.3843 2
17.9684 19.9133 3.9861
20.8674 19.3511 3.98574
24.2 18.4284 0.0150399
22.2679 19.8647 2
24.5777 21.2932 2
22.3388 21.6857 3.9855
24.6557 23.1368 3.98661
25.3667 25.918 3.98214
26.3674 23.6921 2
27.0027 21.4357 0.015154
28.0977 32.2596 4.00758
29.7372 33.0043 2
30.9567 33.7743 0.010297
31.1589 31.1951 0.0654007
32.403 28.026 -0.0112825
29.9062 29.4761 2
26.8642 29.1162 3.96651
27.7671 26.5069 2
28.7347 24.3854 0.0128243
29.5159 27.1959 0.008969
26.652 37.3492 4.00702
28.4763 37.5141 2
29.913 37.5165 0.00958046
29.019 46.521 0.0237353
28.434 43.2704 -0.00248644
28.817 39.9123 0.058509
27.0794 44.8751 2
26.546 40.6614 2
25.0444 43.2276 3.98942
23.7977 39.4447 3.97614
25.8062 46.7371 0.0111539
23.8319 45.2834 2
21.789 44.0038 3.98855
22.6963 47.1523 0.00949168
20.8255 45.9548 2
18.9034 45.0122 3.98717
19.9088 47.6739 0.0116554
18.2528 46.7821 2
16.5685 46.2478 3.98591
17.6158 48.2233 0.0131232
16.2846 47.7515 2
14.8839 47.7034 3.98574
16.0983 48.7226 0.0134755
15.1574 49.0518 2
13.7592 49.5777 3.98561
15.8127 50.2099 0.0144122
14.4632 51.0196 2
12.8775 51.9027 3.98565
12.1317 54.551 3.98669
13.8126 53.4654 2
15.3518 52.4529 0.0150035
11.5304 57.4763 3.98927
13.246 56.1928 2
14.8535 55.0092 0.0141668
11.133 60.6343 3.99383
12.8468 59.1436 2
14.4529 57.7636 0.0124836
10.9835 64.0165 4
12.6785 62.3078 2
14.2649 60.7081 0.00986426
12.7745 65.694 2
14.3332 63.8643 0.00583023
14.6715 67.2507 0
16.3939 18.6258 3.98654
17.6634 17.1346 2
16.1001 15.7625 3.9875
18.9302 15.7622 0.0134713
17.5097 14.3552 2
16.0206 12.7965 3.99011
18.9789 13.0938 0.0121678
17.6392 11.4444 2
16.2027 9.65888 3.99411
19.3437 10.2272 0.00965657
18.0516 8.33597 2
16.6661 6.31991 4
18.75 5.02404 2
19.9913 7.14384 0.00585566
20.9142 3.86727 0
27.1646 34.7214 4.01214
28.8073 35.1211 2
30.1939 35.5227 0.00990821
16.664 21.3448 3.98545
21.7775 17.8275 0.0143083
19.236 18.3846 0.0139004
20.8673 19.3508 2
17.9683 19.913 2
19.7061 21.5399 3.98623
22.268 19.865 0.0145056
24.5777 21.2937 0.0153209
22.3387 21.6853 2
24.6552 23.1363 2
22.7877 24.5665 3.98391
24.4176 28.4996 3.97861
25.3656 25.9176 2
26.368 23.6927 0.0128693
25.9445 31.7011 3.97736
28.0973 32.2599 2
29.7354 33.0046 0.064767
29.9074 29.4769 -0.0034044
26.8632 29.1169 2
27.7685 26.5074 0.0215696
24.4728 36.8686 3.98466
26.6516 37.35 2
28.474 37.5149 0.0540323
27.0795 44.8774 0.0211112
26.545 40.6626 -0.000173955
25.0443 43.2255 2
23.7984 39.4459 2
22.828 41.84 3.9832
21.5593 38.5081 3.98356
23.8319 45.2832 0.00600003
21.789 44.0044 2
19.6443 42.9238 3.98528
20.8257 45.9546 0.00930497
18.9032 45.0122 2
16.8904 44.4108 3.98509
18.2529 46.7822 0.0123664
16.5683 46.2478 2
14.8 46.1202 3.98499
16.2847 47.7514 0.0136752
14.8838 47.7035 2
13.2637 48.0372 3.9853
15.1575 49.0516 0.0139942
13.7591 49.5779 2
12.0948 50.2789 3.98566
14.4632 51.0194 0.0145806
12.8774 51.9029 2
11.1259 52.8588 3.98644
10.32 55.7283 3.98865
12.1317 54.5513 2
13.8127 53.4652 0.0143945
9.69964 58.8579 3.99353
11.5304 57.4767 2
13.246 56.1925 0.0129189
9.30605 62.2254 4
11.133 60.6347 2
12.8467 59.1432 0.0101787
10.9835 64.0165 2
12.6784 62.3074 0.00600145
12.7746 65.6939 0
15.1357 20.1574 3.98617
16.3938 18.6254 2
14.7447 17.2829 3.98727
17.6635 17.135 0.0135374
16.1001 15.7621 2
14.4828 14.2763 3.98991
17.5097 14.3556 0.0123233
16.0206 12.7961 2
14.4453 11.1095 3.99399
17.6392 11.4448 0.00972751
16.2028 9.65852 2
14.6715 7.74927 4
18.0516 8.33631 0.00585821
16.6661 6.31988 2
18.75 5.0241 0
25.1157 34.274 3.98934
27.1641 34.7216 2
28.8049 35.1215 0.0580903
17.8317 22.2887 3.98652
15.5037 22.8865 3.98476
16.6638 21.3445 2
20.8674 19.3511 0.0142624
17.9684 19.9133 0.0138972
19.7059 21.5396 2
19.6173 24.3452 3.98532
22.3388 21.6857 0.0144955
24.6557 23.1368 0.0133883
22.787 24.5661 2
21.81 27.7909 3.97852
23.5764 31.1617 3.98259
24.4168 28.4999 2
25.3667 25.918 0.0178632
25.9444 31.703 2
28.0977 32.2596 -0.00757799
26.8642 29.1162 0.0334885
22.2611 36.2619 3.99208
24.4726 36.8696 2
26.652 37.3492 -0.00702136
25.0444 43.2276 0.0105817
23.7977 39.4447 0.0238606
22.8278 41.8405 2
21.5597 38.5082 2
20.5544 40.6533 3.98186
19.927 37.7848 3.98659
21.789 44.0038 0.0114473
19.6443 42.9238 2
17.2779 42.1241 3.98381
18.9034 45.0122 0.0128345
16.8903 44.4108 2
14.7968 44.2254 3.98374
16.5685 46.2478 0.0140896
14.7999 46.1203 2
12.9328 46.3208 3.98462
14.8839 47.7034 0.0142592
13.2636 48.0374 2
11.4644 48.5733 3.98536
13.7592 49.5777 0.0143886
12.0947 50.2791 2
10.2504 51.1005 3.98624
12.8775 51.9027 0.0143508
11.1259 52.859 2
9.22791 53.9056 3.98816
8.38325 56.9917 3.9931
10.32 55.7287 2
12.1317 54.551 0.0133051
7.74927 60.3285 4
9.69968 58.8583 2
11.5304 57.4763 0.0107347
9.306 62.2255 2
11.133 60.6343 0.00617468
10.9835 64.0165 0
13.9446 21.7225 3.98577
15.1356 20.1571 2
13.4438 18.8779 3.98704
16.3939 18.6258 0.013461
14.7446 17.2825 2
13.0278 15.867 3.9896
16.1001 15.7625 0.0125005
14.4828 14.2759 2
12.7825 12.6822 3.99383
16.0206 12.7965 0.00988533
14.4454 11.1091 2
12.7746 9.30605 4
16.2027 9.65888 0.00589414
14.6715 7.74924 2
16.6661 6.31991 0
22.8608 33.779 3.99196
25.1156 34.2753 2
27.1646 34.7214 -0.0121362
17.59 24.0069 3.98553
17.8315 22.2884 2
14.2824 24.4191 3.98377
15.5034 22.8861 2
16.664 21.3448 0.0145524
18.9584 27.1685 3.9805
19.7061 21.5399 0.0137688
19.6168 24.3448 2
21.0357 30.6367 3.98047
22.7877 24.5665 0.0160872
21.8093 27.791 2
23.5763 31.1625 2
24.4176 28.4996 0.021392
25.9445 31.7011 0.0226415
20.0369 35.9133 3.98969
22.2609 36.262 2
24.4728 36.8686 0.0153432
22.828 41.84 0.0168013
21.5593 38.5081 0.0164448
20.5545 40.653 2
19.9272 37.785 2
17.9357 39.0103 3.98509
19.6443 42.9238 0.0147168
17.278 42.1241 2
14.7387 41.936 3.98331
16.8904 44.4108 0.0149143
14.7967 44.2254 2
12.6698 44.4128 3.98364
14.8 46.1202 0.0150081
12.9326 46.3209 2
10.9641 46.7543 3.98477
13.2637 48.0372 0.0147043
11.4642 48.5735 2
9.51246 49.2583 3.98592
12.0948 50.2789 0.0143447
10.2503 51.1008 2
8.26006 52.017 3.98777
11.1259 52.8588 0.0135583
9.2279 53.906 2
7.1922 55.0427 3.99267
6.31991 58.3339 4
8.38329 56.9921 2
10.32 55.7283 0.0113543
7.74924 60.3285 2
9.69964 58.8579 0.00647385
9.30605 62.2254 0
13.2024 25.3352 3.98539
12.8088 23.2521 3.98521
13.9444 21.7221 2
12.2272 20.5259 3.98686
15.1357 20.1574 0.0138343
13.4437 18.8775 2
11.6569 17.5465 3.98924
14.7447 17.2829 0.0127291
13.0278 15.8665 2
11.2198 14.3662 3.99362
14.4828 14.2763 0.0100917
12.7826 12.6817 2
10.9835 10.9835 4
14.4453 11.1095 0.00600562
12.7745 9.306 2
14.6715 7.74927 0
20.4336 33.3744 3.98745
22.8605 33.7796 2
25.1157 34.274 0.0106587
15.8554 26.3692 3.98243
17.5896 24.0066 2
17.8317 22.2887 0.0134847
14.2821 24.4188 2
15.5037 22.8865 0.0152367
18.2895 30.1459 3.98004
18.9579 27.1684 2
19.6173 24.3452 0.0146838
21.0356 30.6373 2
21.81 27.7909 0.0214834
23.5764 31.1617 0.017409
17.5519 35.958 3.99026
20.0366 35.9137 2
22.2611 36.2619 0.00791889
20.5544 40.6533 0.0181375
19.927 37.7848 0.0134141
17.9359 39.0103 2
14.2375 39.1843 3.98589
17.2779 42.1241 0.0161913
14.7388 41.936 2
12.3539 42.2925 3.98426
14.7968 44.2254 0.0162639
12.6697 44.4129 2
10.5393 44.8198 3.98413
12.9328 46.3208 0.0153839
10.964 46.7545 2
8.8938 47.3351 3.98538
11.4644 48.5733 0.0146359
9.51237 49.2585 2
7.42628 50.0487 3.98741
10.2504 51.1005 0.0137599
8.26003 52.0174 2
6.13262 53.0176 3.99225
9.22791 53.9056 0.0118439
7.19223 55.0431 2
5.0241 56.25 4
6.31988 58.3339 2
8.38325 56.9917 0.0068991
7.74927 60.3285 0
13.4345 26.7886 3.98313
11.9204 24.7629 3.98448
13.2021 25.335 2
11.1282 22.2109 3.98644
12.8086 23.2517 2
13.9446 21.7225 0.0142308
12.227 20.5254 2
10.386 19.3007 3.98886
13.4438 18.8779 0.0129645
11.6569 17.546 2
9.7607 16.1484 3.99342
13.0278 15.867 0.0103952
11.2199 14.3658 2
9.30607 12.7746 4
12.7825 12.6822 0.00616815
10.9835 10.9835 2
12.7746 9.30605 0
17.744 33.0935 3.98546
20.4334 33.3749 2
22.8608 33.779 0.00804021
15.435 29.6125 3.98139
15.855 26.3691 2
17.59 24.0069 0.0144694
14.2824 24.4191 0.0162301
18.2894 30.1463 2
18.9584 27.1685 0.0194969
21.0357 30.6367 0.019528
14.8218 36.0142 3.98886
17.5516 35.9582 2
20.0369 35.9133 0.0103116
12.5395 37.8328 3.98541
17.9357 39.0103 0.0149142
14.2375 39.1844 2
11.8636 40.152 3.98626
14.7387 41.936 0.0166889
12.3539 42.2925 2
10.1369 42.7914 3.98399
12.6698 44.4128 0.0163648
10.5392 44.8199 2
8.37061 45.3345 3.98494
10.9641 46.7543 0.0152277
8.8937 47.3353 2
6.71703 48.0122 3.98699
9.51246 49.2583 0.0140844
7.42622 50.049 2
5.20908 50.9205 3.99178
8.26006 52.017 0.0122269
6.13264 53.018 2
3.86727 54.0858 4
7.1922 55.0427 0.00733097
5.02404 56.25 2
6.31991 58.3339 0
12.8863 29.0122 3.98171
11.3482 26.4657 3.98381
13.4342 26.7886 2
10.186 23.9467 3.98548
11.9201 24.7627 2
13.2024 25.3352 0.0146057
9.23702 21.1202 3.98827
11.128 22.2105 2
12.8088 23.2521 0.0147878
12.2272 20.5259 0.0131423
10.386 19.3002 2
8.41655 18.0182 3.99319
11.6569 17.5465 0.0107563
9.76075 16.1479 2
7.74928 14.6715 4
11.2198 14.3662 0.00637857
9.30602 12.7745 2
10.9835 10.9835 0
14.4198 32.8465 3.98468
17.7438 33.0939 2
20.4336 33.3744 0.0125461
15.4349 29.6127 2
15.8554 26.3692 0.0175686
18.2895 30.1459 0.0199615
12.8244 36.2067 3.98682
14.8215 36.0144 2
17.5519 35.958 0.00974289
12.5393 37.8329 2
11.2205 38.3161 3.98541
14.2375 39.1843 0.0141114
11.8636 40.1521 2
9.72012 40.7641 3.9855
12.3539 42.2925 0.015741
10.1368 42.7914 2
7.91895 43.2806 3.98462
10.5393 44.8198 0.0158738
8.37053 45.3346 2
6.12268 45.9156 3.9867
8.8938 47.3351 0.0146196
6.71695 48.0124 2
4.42033 48.7607 3.99115
7.42628 50.0487 0.0125935
5.20908 50.921 2
2.85457 51.8506 4
6.13262 53.0176 0.00774532
3.86727 54.0858 2
5.0241 56.25 0
12.0243 31.2399 3.98498
10.7591 28.3971 3.9826
12.8862 29.0123 2
9.39976 25.78 3.98477
11.348 26.4656 2
13.4345 26.7886 0.0168658
8.22327 23.0072 3.98733
10.1858 23.9464 2
11.9204 24.7629 0.0155218
7.19854 19.9675 3.99279
9.23694 21.1197 2
11.1282 22.2109 0.0135582
10.386 19.3007 0.0111421
8.41659 18.0177 2
6.31992 16.6661 4
9.7607 16.1484 0.00658306
7.74926 14.6714 2
9.30607 12.7746 0
12.0352 34.2855 3.98368
14.4196 32.8468 2
17.744 33.0935 0.0145357
15.435 29.6125 0.0186134
10.7848 36.6119 3.98618
12.8241 36.2069 2
14.8218 36.0142 0.0111397
12.5395 37.8328 0.0145915
11.2204 38.3163 2
9.31356 38.8295 3.98588
11.8636 40.152 0.0137447
9.72009 40.7642 2
7.52905 41.2191 3.98544
10.1369 42.7914 0.016012
7.91887 43.2807 2
5.63421 43.7767 3.9864
8.37061 45.3345 0.0150553
6.12262 45.9158 2
3.76568 46.5456 3.99056
6.71703 48.0122 0.0130118
4.42031 48.7611 2
1.99014 49.554 4
5.20908 50.9205 0.00822496
2.85451 51.8506 2
3.86727 54.0858 0
10.8872 32.9069 3.9849
10.0704 30.3679 3.98401
12.0242 31.24 2
8.70702 27.717 3.98382
10.7589 28.3971 2
12.8863 29.0122 0.0182883
7.34815 24.9686 3.9867
9.39956 25.7797 2
11.3482 26.4657 0.016192
6.11525 21.9912 3.99204
8.22316 23.0068 2
10.186 23.9467 0.0145153
5.02411 18.75 4
7.19855 19.9669 2
9.23702 21.1202 0.0117317
8.41655 18.0182 0.00680914
6.3199 16.6661 2
7.74928 14.6715 0
10.3997 34.9955 3.98413
12.0349 34.2856 2
14.4198 32.8465 0.0153202
8.98707 36.9863 3.98602
10.7845 36.6121 2
12.8244 36.2067 0.0131787
11.2205 38.3161 0.0145921
9.31345 38.8297 2
7.20829 39.1868 3.98618
9.72012 40.7641 0.0145019
7.529 41.2192 2
5.24903 41.6203 3.98656
7.91895 43.2806 0.0153756
5.63413 43.7769 2
3.24308 44.2893 3.99008
6.12268 45.9156 0.0132985
3.76566 46.546 2
1.27781 47.2057 4
4.42033 48.7607 0.00885013
1.99012 49.554 2
2.85457 51.8506 0
10.0558 33.8734 3.98377
9.36238 32.1435 3.98507
10.887 32.907 2
8.05541 29.6837 3.98418
10.0703 30.3679 2
12.0243 31.2399 0.0150208
6.59139 26.9969 3.986
8.7069 27.7169 2
10.7591 28.3971 0.017401
5.17022 24.0849 3.99125
7.34802 24.9683 2
9.39976 25.78 0.0152314
3.86728 20.9142 4
6.11525 21.9907 2
8.22327 23.0072 0.0126672
5.02406 18.75 2
7.19854 19.9675 0.00721196
6.31992 16.6661 0
8.81492 35.2763 3.9852
10.3995 34.9956 2
12.0352 34.2855 0.0163232
6.99329 37.2068 3.98622
8.98685 36.9864 2
10.7848 36.6119 0.0138202
9.31356 38.8295 0.0141198
7.20818 39.1869 2
4.97586 39.4712 3.98728
7.52905 41.2191 0.0145568
5.24897 41.6204 2
2.85333 42.0079 3.98978
5.63421 43.7767 0.013603
3.24305 44.2896 2
0.720592 44.8159 4
3.76568 46.5456 0.00944287
1.27778 47.2057 2
1.99014 49.554 0
8.85854 33.6905 3.98491
10.0556 33.8735 2
7.49171 31.6001 3.98526
9.36221 32.1435 2
10.8872 32.9069 0.0150964
5.93616 29.0601 3.98586
8.05529 29.6837 2
10.0704 30.3679 0.0159906
4.35755 26.2386 3.99051
6.5913 26.9967 2
8.70702 27.717 0.0161765
2.85458 23.1494 4
5.1702 24.0845 2
7.34815 24.9686 0.0133012
3.86728 20.9142 2
6.11525 21.9912 0.00796205
5.02411 18.75 0
6.94419 35.3034 3.98596
8.81472 35.2763 2
10.3997 34.9955 0.0158656
4.82672 37.3406 3.98707
6.99311 37.2069 2
8.98707 36.9863 0.0139798
7.20829 39.1868 0.0138218
4.97576 39.4714 2
2.60091 39.7174 3.99026
5.24903 41.6203 0.0134425
2.85329 42.0081 2
0.320823 42.3947 4
3.24308 44.2893 0.00991938
0.720551 44.8159 2
1.27781 47.2057 0
7.10502 33.455 3.98549
8.85837 33.6905 2
10.0558 33.8734 0.0162295
5.40623 31.1261 3.98652
7.49155 31.6001 2
9.36238 32.1435 0.0149329
3.67901 28.4357 3.99009
5.93607 29.06 2
8.05541 29.6837 0.015821
1.99015 25.446 4
4.35752 26.2382 2
6.59139 26.9969 0.0139979
2.85453 23.1494 2
5.17022 24.0849 0.00875233
3.86728 20.9142 0
4.84128 35.2494 3.98704
6.94403 35.3034 2
8.81492 35.2763 0.0148006
2.49253 37.4291 3.98986
4.82658 37.3407 2
6.99329 37.2068 0.0137823
4.97586 39.4712 0.0127192
2.60086 39.7175 2
0.080333 39.9526 4
2.85333 42.0079 0.0102164
0.320817 42.3947 2
0.720592 44.8159 0
5.03516 33.1852 3.98674
7.10486 33.455 2
8.85854 33.6905 0.0150946
3.14294 30.6597 3.99017
5.4061 31.126 2
7.49171 31.6001 0.0147426
1.27793 27.7943 4
3.67897 28.4354 2
5.93616 29.0601 0.014139
1.99013 25.446 2
4.35755 26.2386 0.00948594
2.85458 23.1494 0
2.54476 35.1568 3.99006
4.84115 35.2494 2
6.94419 35.3034 0.0140429
0 37.5 4
2.49246 37.4292 2
4.82672 37.3406 0.0129293
2.60091 39.7174 0.00973878
0.0802903 39.9526 2
0.320823 42.3947 0
2.76262 32.9011 3.99012
5.03503 33.1852 2
7.10502 33.455 0.0145086
0.721173 30.1842 4
3.14288 30.6595 2
5.40623 31.1261 0.0134791
1.27779 27.7943 2
3.67901 28.4357 0.00991089
1.99015 25.446 0
0.0806499 35.0474 4
2.54469 35.1568 2
4.84128 35.2494 0.0129596
0 37.5 2
2.49253 37.4291 0.0101358
0.080333 39.9526 0
0.32156 32.6054 4
2.76256 32.901 2
5.03516 33.1852 0.0132574
0.72056 30.1841 2
3.14294 30.6597 0.00983174
1.27793 27.7943 0
0.0802889 35.0474 2
2.54476 35.1568 0.00994302
0 37.5 0
0.320817 32.6053 2
2.76262 32.9011 0.00988056
0.721173 30.1842 0
0.0806499 35.0474 0
0.32156 32.6054 0
CELLS 1910 17190
8 18 6 25 56 2 0 5 16
8 57 23 6 18 17 4 0 2
8 78 36 9 29 31 11 1 7
8 31 11 1 7 79 37 10 30
8 110 57 18 50 48 17 2 14
8 50 18 56 111 14 2 16 49
8 116 62 22 55 52 20 3 15
8 56 25 67 118 16 5 24 53
8 119 63 23 57 54 21 4 17
8 55 22 63 119 15 3 21 54
8 58 26 68 121 18 6 25 56
8 122 65 26 58 57 23 6 18
8 73 31 7 27 142 79 30 71
8 143 78 29 72 73 31 7 27
8 83 147 76 34 32 74 28 8
8 84 148 78 36 33 75 29 9
8 76 34 8 28 148 84 33 75
8 37 79 150 86 10 30 77 35
8 151 87 36 78 80 38 11 31
8 80 38 11 31 152 88 37 79
8 175 100 42 94 96 44 12 40
8 44 96 176 101 12 40 95 43
8 101 176 98 46 43 95 41 13
8 46 98 178 103 13 41 97 45
8 178 103 45 97 147 83 32 74
8 189 116 55 109 106 52 15 47
8 111 56 118 191 49 16 53 107
8 192 119 57 110 108 54 17 48
8 109 55 119 192 47 15 54 108
8 194 122 58 112 110 57 18 50
8 112 58 121 195 50 18 56 111
8 115 61 19 51 197 124 59 113
8 115 61 125 198 51 19 60 114
8 198 125 62 116 114 60 20 52
8 200 127 64 120 116 62 22 55
8 118 67 132 202 53 24 66 117
8 121 68 133 203 56 25 67 118
8 120 64 128 204 55 22 63 119
8 204 128 65 122 119 63 23 57
8 206 134 68 121 123 69 26 58
8 123 69 26 58 207 131 65 122
8 226 147 74 138 140 76 28 70
8 229 148 75 139 143 78 29 72
8 140 76 28 70 229 148 75 139
8 142 79 30 71 231 150 77 141
8 144 80 31 73 232 152 79 142
8 233 151 78 143 144 80 31 73
8 150 86 35 77 235 154 81 145
8 235 154 81 145 146 82 39 91
8 146 82 39 91 236 155 90 165
8 238 157 83 147 149 85 34 76
8 239 158 84 148 151 87 36 78
8 149 85 34 76 239 158 84 148
8 152 88 37 79 241 160 86 150
8 242 161 87 151 153 89 38 80
8 153 89 38 80 243 162 88 152
8 171 98 41 92 265 178 97 169
8 265 178 97 169 226 147 74 138
8 172 96 40 93 266 176 95 170
8 266 176 95 170 171 98 41 92
8 269 175 94 173 172 96 40 93
8 271 180 99 174 175 100 42 94
8 197 124 59 113 271 180 99 174
8 272 181 100 175 177 102 44 96
8 273 182 101 176 179 104 46 98
8 177 102 44 96 273 182 101 176
8 179 104 46 98 275 184 103 178
8 275 184 103 178 238 157 83 147
8 188 115 51 105 283 197 113 186
8 188 115 198 284 105 51 114 187
8 284 198 116 189 187 114 52 106
8 286 200 120 193 189 116 55 109
8 191 118 202 288 107 53 117 190
8 195 121 203 289 111 56 118 191
8 193 120 204 290 109 55 119 192
8 290 204 122 194 192 119 57 110
8 196 123 58 112 292 207 122 194
8 293 206 121 195 196 123 58 112
8 199 126 61 115 297 211 124 197
8 298 212 127 200 198 125 62 116
8 199 126 212 298 115 61 125 198
8 205 129 64 120 300 214 127 200
8 301 217 130 201 202 132 66 117
8 209 136 168 264 301 217 130 201
8 302 219 132 202 203 133 67 118
8 303 220 133 203 206 134 68 121
8 205 129 215 304 120 64 128 204
8 304 215 131 207 204 128 65 122
8 306 221 134 206 208 135 69 123
8 208 135 69 123 307 218 131 207
8 210 137 167 263 309 223 136 209
8 328 238 147 226 230 149 76 140
8 228 146 91 166 329 236 165 260
8 231 150 77 141 330 235 145 227
8 330 235 145 227 228 146 91 166
8 332 239 148 229 233 151 78 143
8 230 149 76 140 332 239 148 229
8 232 152 79 142 334 241 150 231
8 234 153 80 144 335 243 152 232
8 336 242 151 233 234 153 80 144
8 236 155 90 165 338 245 164 259
8 241 160 86 150 339 246 154 235
8 339 246 154 235 237 156 82 146
8 237 156 82 146 340 247 155 236
8 342 249 157 238 240 159 85 149
8 343 250 158 239 242 161 87 151
8 240 159 85 149 343 250 158 239
8 243 162 88 152 345 252 160 241
8 244 163 253 346 153 89 161 242
8 244 163 89 153 347 254 162 243
8 311 224 261 371 210 137 167 263
8 263 167 262 372 209 136 168 264
8 267 179 98 171 375 275 178 265
8 375 275 178 265 328 238 147 226
8 376 273 176 266 267 179 98 171
8 268 177 96 172 376 273 176 266
8 379 272 175 269 268 177 96 172
8 380 271 174 270 269 175 94 173
8 283 197 113 186 380 271 174 270
8 381 277 180 271 272 181 100 175
8 297 211 124 197 381 277 180 271
8 382 278 181 272 274 183 102 177
8 274 183 102 177 383 279 182 273
8 383 279 182 273 276 185 104 179
8 385 281 184 275 342 249 157 238
8 276 185 104 179 385 281 184 275
8 285 199 115 188 393 297 197 283
8 394 298 200 286 284 198 116 189
8 285 199 298 394 188 115 198 284
8 291 205 120 193 396 300 200 286
8 397 301 201 287 288 202 117 190
8 295 209 264 374 397 301 201 287
8 398 302 202 288 289 203 118 191
8 399 303 203 289 293 206 121 195
8 291 205 304 400 193 120 204 290
8 400 304 207 292 290 204 122 194
8 294 208 123 196 402 307 207 292
8 403 306 206 293 294 208 123 196
8 296 210 263 373 405 309 209 295
8 408 312 213 299 297 211 126 199
8 299 213 313 409 199 126 212 298
8 409 313 214 300 298 212 127 200
8 305 216 129 205 411 315 214 300
8 412 318 217 301 302 219 132 202
8 309 223 136 209 412 318 217 301
8 413 320 219 302 303 220 133 203
8 306 221 321 414 206 134 220 303
8 307 218 131 207 415 316 215 304
8 305 216 316 415 205 129 215 304
8 417 322 221 306 308 222 135 208
8 308 222 135 208 418 319 218 307
8 310 225 137 210 420 325 223 309
8 423 326 224 311 310 225 137 210
8 329 236 165 260 441 338 259 368
8 442 342 238 328 333 240 149 230
8 331 237 146 228 443 340 236 329
8 334 241 150 231 444 339 235 330
8 444 339 235 330 331 237 146 228
8 446 343 239 332 336 242 151 233
8 333 240 149 230 446 343 239 332
8 335 243 152 232 448 345 241 334
8 337 244 153 234 449 347 243 335
8 337 244 346 450 234 153 242 336
8 338 245 164 259 452 349 258 367
8 340 247 155 236 453 350 245 338
8 345 252 160 241 454 351 246 339
8 454 351 246 339 341 248 156 237
8 341 248 156 237 455 352 247 340
8 240 159 251 344 342 249 354 457
8 242 161 253 346 343 250 355 458
8 343 250 355 458 240 159 251 344
8 347 254 162 243 460 357 252 345
8 348 255 358 461 244 163 253 346
8 348 255 163 244 462 359 254 347
8 473 360 257 365 363 256 364 482
8 452 349 258 367 365 257 366 485
8 422 324 369 488 311 224 261 371
8 371 261 370 490 263 167 262 372
8 407 311 371 491 296 210 263 373
8 373 263 372 492 295 209 264 374
8 493 385 275 375 442 342 238 328
8 377 276 179 267 493 385 275 375
8 378 274 177 268 494 383 273 376
8 494 383 273 376 377 276 179 267
8 497 382 272 379 378 274 177 268
8 498 381 271 380 379 272 175 269
8 393 297 197 283 498 381 271 380
8 499 387 277 381 382 278 181 272
8 408 312 211 297 499 387 277 381
8 500 388 278 382 384 280 183 274
8 501 389 279 383 386 282 185 276
8 384 280 183 274 501 389 279 383
8 386 282 185 276 503 391 281 385
8 503 391 281 385 457 354 249 342
8 511 408 299 395 393 297 199 285
8 395 299 409 512 285 199 298 394
8 512 409 300 396 394 298 200 286
8 401 305 205 291 514 411 300 396
8 515 412 301 397 398 302 202 288
8 405 309 209 295 515 412 301 397
8 516 413 302 398 399 303 203 289
8 403 306 414 517 293 206 303 399
8 402 307 207 292 518 415 304 400
8 401 305 415 518 291 205 304 400
8 404 308 208 294 520 418 307 402
8 521 417 306 403 404 308 208 294
8 406 310 210 296 523 420 309 405
8 526 423 311 407 406 310 210 296
8 410 314 213 299 527 424 312 408
8 528 425 315 411 409 313 214 300
8 410 314 425 528 299 213 313 409
8 416 317 216 305 530 427 315 411
8 531 430 318 412 413 320 219 302
8 420 325 223 309 531 430 318 412
8 532 432 320 413 414 321 220 303
8 417 322 433 533 306 221 321 414
8 418 319 218 307 534 428 316 415
8 416 317 428 534 305 216 316 415
8 419 323 434 536 308 222 322 417
8 419 323 222 308 537 431 319 418
8 421 327 225 310 539 438 325 420
8 421 327 439 541 310 225 326 423
8 543 437 324 422 423 326 224 311
8 441 338 259 368 559 452 367 486
8 443 340 236 329 560 453 338 441
8 333 240 344 447 442 342 457 561
8 445 341 237 331 562 455 340 443
8 448 345 241 334 563 454 339 444
8 563 454 339 444 445 341 237 331
8 336 242 346 450 446 343 458 565
8 446 343 458 565 333 240 344 447
8 449 347 243 335 567 460 345 448
8 451 348 244 337 568 462 347 449
8 451 348 461 569 337 244 346 450
8 570 463 349 452 473 360 257 365
8 453 350 245 338 570 463 349 452
8 455 352 247 340 571 464 350 453
8 460 357 252 345 572 465 351 454
8 572 465 351 454 456 353 248 341
8 456 353 248 341 573 466 352 455
8 344 251 356 459 457 354 468 575
8 458 355 469 576 344 251 356 459
8 346 253 358 461 458 355 469 576
8 462 359 254 347 578 471 357 460
8 348 255 359 462 461 358 472 579
8 591 474 360 473 475 361 256 363
8 475 361 256 363 594 477 362 479
8 363 256 364 482 479 362 480 603
8 590 473 365 484 481 363 482 605
8 482 364 257 365 606 483 366 485
8 559 452 367 486 484 365 485 607
8 542 436 487 609 422 324 369 488
8 525 422 488 611 407 311 371 491
8 488 369 489 612 371 261 370 490
8 491 371 490 613 373 263 372 492
8 495 386 276 377 614 503 385 493
8 614 503 385 493 561 457 342 442
8 615 501 383 494 495 386 276 377
8 496 384 274 378 615 501 383 494
8 618 500 382 497 496 384 274 378
8 619 499 381 498 497 382 272 379
8 511 408 297 393 619 499 381 498
8 620 505 387 499 500 388 278 382
8 527 424 312 408 620 505 387 499
8 502 390 506 621 384 280 388 500
8 622 507 389 501 504 392 282 386
8 502 390 280 384 622 507 389 501
8 504 392 282 386 624 509 391 503
8 624 509 391 503 575 468 354 457
8 513 410 299 395 630 527 408 511
8 631 528 411 514 512 409 300 396
8 513 410 528 631 395 299 409 512
8 519 416 305 401 633 530 411 514
8 634 531 412 515 516 413 302 398
8 523 420 309 405 634 531 412 515
8 635 532 413 516 517 414 303 399
8 521 417 533 636 403 306 414 517
8 520 418 307 402 637 534 415 518
8 519 416 534 637 401 305 415 518
8 522 419 308 404 639 537 418 520
8 522 419 536 640 404 308 417 521
8 524 421 310 406 642 539 420 523
8 524 421 541 644 406 310 423 526
8 646 543 422 525 526 423 311 407
8 529 426 314 410 647 544 424 527
8 528 425 545 648 411 315 427 530
8 529 426 545 648 410 314 425 528
8 535 429 317 416 649 546 427 530
8 650 548 430 531 532 432 320 413
8 539 438 325 420 650 548 430 531
8 533 433 550 651 414 321 432 532
8 536 434 551 652 417 322 433 533
8 537 431 319 418 653 547 428 534
8 535 429 547 653 416 317 428 534
8 538 435 552 654 419 323 434 536
8 538 435 323 419 655 549 431 537
8 540 440 327 421 657 556 438 539
8 540 440 557 659 421 327 439 541
8 541 439 555 660 423 326 437 543
8 661 554 436 542 543 437 324 422
8 676 570 452 559 590 473 365 484
8 560 453 338 441 676 570 452 559
8 562 455 340 443 677 571 453 560
8 447 344 459 566 561 457 575 678
8 564 456 341 445 679 573 455 562
8 567 460 345 448 680 572 454 563
8 680 572 454 563 564 456 341 445
8 565 458 576 682 447 344 459 566
8 450 346 461 569 565 458 576 682
8 568 462 347 449 684 578 460 567
8 451 348 462 568 569 461 579 685
8 686 580 463 570 591 474 360 473
8 571 464 350 453 686 580 463 570
8 573 466 352 455 687 581 464 571
8 572 465 582 688 460 357 471 578
8 574 467 582 688 456 353 465 572
8 574 467 353 456 689 583 466 573
8 459 356 470 577 575 468 585 691
8 576 469 586 692 459 356 470 577
8 461 358 472 579 576 469 586 692
8 462 359 471 578 579 472 588 694
8 704 591 473 590 593 475 363 481
8 595 476 592 705 475 361 474 591
8 593 475 363 481 707 594 479 602
8 594 477 362 479 709 598 478 600
8 595 476 361 475 711 597 477 594
8 479 362 480 603 600 478 601 720
8 481 363 482 605 602 479 603 722
8 603 480 364 482 723 604 483 606
8 605 482 365 484 724 606 485 607
8 656 553 608 726 542 436 487 609
8 645 542 609 728 525 422 488 611
8 609 487 610 729 488 369 489 612
8 611 488 612 730 491 371 490 613
8 616 504 386 495 731 624 503 614
8 731 624 503 614 678 575 457 561
8 732 622 501 615 616 504 386 495
8 617 502 384 496 732 622 501 615
8 617 502 621 735 496 384 500 618
8 736 620 499 619 618 500 382 497
8 630 527 408 511 736 620 499 619
8 621 506 626 737 500 388 505 620
8 647 544 424 527 737 626 505 620
8 623 508 627 738 502 390 506 621
8 623 508 390 502 739 628 507 622
8 625 510 628 739 504 392 507 622
8 740 629 509 624 691 585 468 575
8 625 510 392 504 740 629 509 624
8 632 529 410 513 744 647 527 630
8 631 528 648 745 514 411 530 633
8 632 529 648 745 513 410 528 631
8 638 535 416 519 746 649 530 633
8 747 650 531 634 635 532 413 516
8 642 539 420 523 747 650 531 634
8 636 533 651 748 517 414 532 635
8 640 536 652 749 521 417 533 636
8 639 537 418 520 750 653 534 637
8 638 535 653 750 519 416 534 637
8 641 538 419 522 751 655 537 639
8 641 538 654 752 522 419 536 640
8 643 540 421 524 753 657 539 642
8 643 540 659 755 524 421 541 644
8 644 541 660 757 526 423 543 646
8 758 661 542 645 646 543 422 525
8 529 426 544 647 648 545 662 759
8 530 427 545 648 649 546 663 760
8 535 429 546 649 653 547 664 761
8 762 666 548 650 651 550 432 532
8 657 556 438 539 762 666 548 650
8 652 551 668 763 533 433 550 651
8 654 552 669 764 536 434 551 652
8 655 549 431 537 765 665 547 653
8 538 435 549 655 654 552 667 766
8 661 554 671 768 542 436 553 656
8 658 558 440 540 769 674 556 657
8 658 558 675 770 540 440 557 659
8 659 557 673 771 541 439 555 660
8 660 555 672 772 543 437 554 661
8 788 686 570 676 704 591 473 590
8 677 571 453 560 788 686 570 676
8 679 573 455 562 789 687 571 677
8 566 459 577 683 678 575 691 790
8 681 574 456 564 791 689 573 679
8 680 572 688 792 567 460 578 684
8 681 574 688 792 564 456 572 680
8 682 576 692 794 566 459 577 683
8 569 461 579 685 682 576 692 794
8 568 462 578 684 685 579 694 796
8 687 581 464 571 798 696 580 686
8 798 696 580 686 705 592 474 591
8 689 583 466 573 799 697 581 687
8 688 582 698 800 578 471 588 694
8 690 584 698 800 574 467 582 688
8 690 584 467 574 801 699 583 689
8 693 587 701 803 577 470 585 691
8 693 587 470 577 804 702 586 692
8 695 589 702 804 579 472 586 692
8 695 589 472 579 805 703 588 694
8 708 595 705 813 593 475 591 704
8 710 596 706 814 595 476 592 705
8 707 594 479 602 816 709 600 719
8 708 595 475 593 817 711 594 707
8 709 598 478 600 819 715 599 717
8 711 597 477 594 820 714 598 709
8 710 596 476 595 822 713 597 711
8 600 478 601 720 717 599 718 832
8 602 479 603 722 719 600 720 834
8 720 601 480 603 835 721 604 723
8 722 603 482 605 836 723 606 724
8 767 670 725 839 656 553 608 726
8 756 656 726 841 645 542 609 728
8 726 608 727 842 609 487 610 729
8 728 609 729 843 611 488 612 730
8 844 740 624 731 790 691 575 678
8 733 625 504 616 844 740 624 731
8 734 623 502 617 845 739 622 732
8 733 625 739 845 616 504 622 732
8 734 623 738 846 617 502 621 735
8 735 621 737 847 618 500 620 736
8 744 647 527 630 847 737 620 736
8 621 506 627 738 737 626 741 848
8 647 544 626 737 759 662 741 848
8 623 508 628 739 738 627 742 849
8 740 629 585 691 850 743 700 802
8 625 510 629 740 739 628 743 850
8 632 529 647 744 745 648 759 854
8 633 530 648 745 746 649 760 855
8 638 535 649 746 750 653 761 856
8 857 762 650 747 748 651 532 635
8 753 657 539 642 857 762 650 747
8 749 652 763 858 636 533 651 748
8 752 654 764 859 640 536 652 749
8 751 655 537 639 860 765 653 750
8 641 538 655 751 752 654 766 861
8 754 658 540 643 862 769 657 753
8 754 658 770 863 643 540 659 755
8 755 659 771 864 644 541 660 757
8 758 661 768 866 645 542 656 756
8 757 660 772 867 646 543 661 758
8 759 662 773 868 648 545 663 760
8 649 546 663 760 761 664 774 871
8 765 665 547 653 872 775 664 761
8 873 777 666 762 763 668 550 651
8 769 674 556 657 873 777 666 762
8 764 669 779 874 652 551 668 763
8 654 552 667 766 764 669 778 875
8 655 549 665 765 766 667 776 876
8 768 671 782 877 656 553 670 767
8 772 672 783 878 661 554 671 768
8 658 558 674 769 770 675 786 879
8 659 557 675 770 771 673 785 881
8 882 784 672 772 771 673 555 660
8 789 687 571 677 897 798 686 788
8 897 798 686 788 813 705 591 704
8 791 689 573 679 898 799 687 789
8 795 693 803 900 683 577 691 790
8 793 690 574 681 901 801 689 791
8 792 688 800 902 684 578 694 796
8 793 690 800 902 681 574 688 792
8 795 693 577 683 903 804 692 794
8 797 695 804 903 685 579 692 794
8 797 695 579 685 904 805 694 796
8 905 806 697 799 798 696 581 687
8 814 706 806 905 705 592 696 798
8 689 583 697 799 801 699 808 907
8 800 698 809 908 694 588 703 805
8 690 584 699 801 800 698 809 908
8 803 701 810 909 691 585 700 802
8 693 587 702 804 803 701 811 910
8 695 589 703 805 804 702 812 911
8 818 710 814 919 708 595 705 813
8 821 712 815 920 710 596 706 814
8 816 709 600 719 922 819 717 831
8 817 711 594 707 923 820 709 816
8 818 710 595 708 924 822 711 817
8 819 715 599 717 926 827 716 829
8 820 714 598 709 927 826 715 819
8 929 825 713 822 820 714 597 711
8 821 712 596 710 930 824 713 822
8 717 599 718 832 829 716 830 942
8 719 600 720 834 831 717 832 944
8 832 718 601 720 945 833 721 835
8 834 720 603 722 946 835 723 836
8 869 780 838 950 767 670 725 839
8 865 767 839 952 756 656 726 841
8 839 725 840 953 726 608 727 842
8 841 726 842 954 728 609 729 843
8 844 740 691 790 955 850 802 899
8 733 625 740 844 845 739 850 955
8 734 623 739 845 846 738 849 956
8 735 621 738 846 847 737 848 957
8 744 647 737 847 854 759 848 957
8 738 627 742 849 848 741 851 958
8 848 741 851 958 759 662 773 868
8 850 743 700 802 959 852 807 906
8 849 742 628 739 959 852 743 850
8 854 759 868 965 745 648 760 855
8 746 649 760 855 856 761 871 966
8 860 765 653 750 967 872 761 856
8 968 873 762 857 858 763 651 748
8 862 769 657 753 968 873 762 857
8 859 764 874 969 749 652 763 858
8 752 654 766 861 859 764 875 970
8 751 655 765 860 861 766 876 971
8 754 658 769 862 863 770 879 972
8 755 659 770 863 864 771 881 974
8 976 882 772 867 864 771 660 757
8 866 768 877 977 756 656 767 865
8 867 772 878 978 758 661 768 866
8 760 663 773 868 871 774 883 980
8 870 781 837 948 982 890 780 869
8 982 890 780 869 877 782 670 767
8 761 664 774 871 872 775 884 984
8 876 776 665 765 985 885 775 872
8 873 777 668 763 986 887 779 874
8 769 674 777 873 879 786 887 986
8 764 669 778 875 874 779 888 987
8 766 667 776 876 875 778 886 988
8 878 783 892 989 768 671 782 877
8 878 783 672 772 990 893 784 882
8 880 787 675 770 991 896 786 879
8 880 787 895 992 770 675 785 881
8 881 785 894 993 771 673 784 882
8 1006 905 799 898 897 798 687 789
8 919 814 905 1006 813 705 798 897
8 791 689 799 898 901 801 907 1007
8 900 803 909 1009 790 691 802 899
8 795 693 804 903 900 803 910 1010
8 902 800 908 1011 796 694 805 904
8 793 690 801 901 902 800 908 1011
8 797 695 805 904 903 804 911 1012
8 799 697 806 905 907 808 912 1013
8 920 815 912 1013 814 706 806 905
8 802 700 810 909 906 807 913 1014
8 801 699 808 907 908 809 914 1015
8 805 703 809 908 911 812 915 1016
8 803 701 811 910 909 810 916 1017
8 911 812 917 1018 804 702 811 910
8 925 821 920 1030 818 710 814 919
8 928 823 921 1031 821 712 815 920
8 922 819 717 831 1033 926 829 941
8 923 820 709 816 1034 927 819 922
8 1035 929 822 924 923 820 711 817
8 925 821 710 818 1036 930 822 924
8 1038 933 825 929 927 826 714 820
8 926 827 716 829 1039 935 828 939
8 927 826 715 819 1040 934 827 926
8 928 823 712 821 1041 931 824 930
8 1042 932 824 930 929 825 713 822
8 829 716 830 942 939 828 940 1058
8 831 717 832 944 941 829 942 1060
8 942 830 718 832 1061 943 833 945
8 944 832 720 834 1062 945 835 946
8 981 889 947 1064 870 781 837 948
8 948 837 949 1067 869 780 838 950
8 975 869 950 1069 865 767 839 952
8 950 838 951 1070 839 725 840 953
8 952 839 953 1071 841 726 842 954
8 955 850 802 899 1072 959 906 1008
8 956 849 739 845 1072 959 850 955
8 846 738 849 956 957 848 958 1073
8 957 848 958 1073 854 759 868 965
8 849 742 852 959 958 851 961 1076
8 960 853 961 1076 906 807 852 959
8 958 851 961 1076 868 773 883 980
8 960 853 807 906 1077 963 913 1014
8 855 760 868 965 966 871 980 1085
8 856 761 871 966 967 872 984 1086
8 971 876 765 860 1087 985 872 967
8 968 873 763 858 1088 986 874 969
8 862 769 873 968 972 879 986 1088
8 859 764 875 970 969 874 987 1089
8 861 766 876 971 970 875 988 1090
8 973 880 770 863 1091 991 879 972
8 973 880 992 1092 863 770 881 974
8 974 881 993 1093 864 771 882 976
8 979 870 948 1066 1094 982 869 975
8 1094 982 869 975 977 877 767 865
8 978 878 772 867 1095 990 882 976
8 978 878 989 1096 866 768 877 977
8 871 774 883 980 984 884 994 1099
8 983 891 999 1100 870 781 889 981
8 1101 1000 890 982 989 892 782 877
8 983 891 781 870 1101 1000 890 982
8 872 775 884 984 985 885 995 1103
8 876 776 885 985 988 886 996 1104
8 986 887 779 874 1105 998 888 987
8 879 786 887 986 991 896 998 1105
8 875 778 886 988 987 888 997 1106
8 990 893 1002 1107 878 783 892 989
8 1108 1003 893 990 993 894 784 882
8 880 787 896 991 992 895 1005 1109
8 993 894 785 881 1110 1004 895 992
8 898 799 905 1006 1007 907 1013 1120
8 1030 920 1013 1120 919 814 905 1006
8 901 801 907 1007 1011 908 1015 1121
8 899 802 909 1009 1008 906 1014 1122
8 900 803 910 1010 1009 909 1017 1123
8 1012 911 1018 1124 903 804 910 1010
8 904 805 908 1011 1012 911 1016 1125
8 1013 912 1020 1127 907 808 914 1015
8 1031 921 1020 1127 920 815 912 1013
8 1019 918 962 1075 1128 1021 913 1014
8 1128 1021 913 1014 1017 916 810 909
8 1015 914 1022 1129 908 809 915 1016
8 1016 915 1023 1130 911 812 917 1018
8 1018 917 1024 1131 910 811 916 1017
8 1037 928 1031 1148 925 821 920 1030
8 928 823 931 1041 1031 921 1032 1149
8 1033 926 829 941 1151 1039 939 1057
8 1034 927 819 922 1152 1040 926 1033
8 1153 1038 929 1035 1034 927 820 923
8 1154 1042 930 1036 1035 929 822 924
8 1037 928 821 925 1155 1041 930 1036
8 1039 935 828 939 1156 1047 938 1055
8 1157 1043 932 1042 1038 933 825 929
8 1038 933 826 927 1158 1045 934 1040
8 1040 934 827 926 1159 1046 935 1039
8 930 824 932 1042 1041 931 1044 1160
8 1051 936 1048 1165 1175 1052 937 1053
8 1156 1047 938 1055 1053 937 1054 1178
8 939 828 940 1058 1055 938 1056 1181
8 941 829 942 1060 1057 939 1058 1183
8 942 830 943 1061 1058 940 1059 1184
8 1060 942 832 944 1185 1061 945 1062
8 1082 964 1063 1188 981 889 947 1064
8 1097 981 1064 1190 979 870 948 1066
8 1064 947 1065 1191 948 837 949 1067
8 1066 948 1067 1193 975 869 950 1069
8 1067 949 1068 1194 950 838 951 1070
8 1069 950 1070 1195 952 839 953 1071
8 956 849 959 1072 1073 958 1076 1197
8 1074 960 1076 1197 1008 906 959 1072
8 1073 958 1076 1197 965 868 980 1085
8 1074 960 906 1008 1198 1077 1014 1122
8 1133 1026 1079 1199 1019 918 962 1075
8 1077 963 913 1014 1200 1080 962 1075
8 960 853 963 1077 1076 961 1078 1201
8 980 883 961 1076 1099 994 1078 1201
8 1210 1083 964 1082 1100 999 889 981
8 966 871 980 1085 1086 984 1099 1215
8 967 872 984 1086 1087 985 1103 1216
8 971 876 985 1087 1090 988 1104 1217
8 1088 986 874 969 1218 1105 987 1089
8 972 879 986 1088 1091 991 1105 1218
8 970 875 988 1090 1089 987 1106 1219
8 973 880 991 1091 1092 992 1109 1220
8 1093 993 881 974 1221 1110 992 1092
8 1222 1108 990 1095 1093 993 882 976
8 1223 1101 982 1094 1096 989 877 977
8 1098 983 870 979 1223 1101 982 1094
8 1095 990 1107 1224 978 878 989 1096
8 1098 983 1100 1225 979 870 981 1097
8 984 884 994 1099 1103 995 1111 1227
8 1102 1001 1115 1228 983 891 999 1100
8 1101 1000 892 989 1229 1116 1002 1107
8 1102 1001 891 983 1229 1116 1000 1101
8 985 885 995 1103 1104 996 1112 1230
8 988 886 996 1104 1106 997 1113 1231
8 1105 998 888 987 1232 1114 997 1106
8 991 896 998 1105 1109 1005 1114 1232
8 1108 1003 1117 1233 990 893 1002 1107
8 1108 1003 894 993 1233 1117 1004 1110
8 992 895 1005 1109 1110 1004 1118 1234
8 1120 1013 1127 1244 1007 907 1015 1121
8 1148 1031 1127 1244 1030 920 1013 1120
8 1121 1015 1129 1245 1011 908 1016 1125
8 1126 1019 1075 1196 1246 1128 1014 1122
8 1246 1128 1014 1122 1123 1017 909 1009
8 1124 1018 1131 1247 1010 910 1017 1123
8 1125 1016 1130 1248 1012 911 1018 1124
8 1127 1020 1137 1254 1015 914 1022 1129
8 1031 921 1032 1149 1127 1020 1137 1254
8 1134 1027 918 1019 1257 1140 1021 1128
8 1257 1140 1021 1128 1131 1024 916 1017
8 1129 1022 1141 1258 1016 915 1023 1130
8 1130 1023 1142 1259 1018 917 1024 1131
8 1261 1144 1025 1132 1133 1026 1079 1199
8 1255 1138 1025 1132 1135 1028 1144 1261
8 1133 1026 918 1019 1262 1145 1027 1134
8 1136 1029 1139 1256 1263 1146 1028 1135
8 1037 928 1041 1155 1148 1031 1149 1275
8 1041 931 1044 1160 1149 1032 1150 1276
8 1151 1039 939 1057 1278 1156 1055 1180
8 1152 1040 926 1033 1279 1159 1039 1151
8 1153 1038 927 1034 1280 1158 1040 1152
8 1281 1157 1042 1154 1153 1038 929 1035
8 1036 930 1042 1154 1155 1041 1160 1282
8 1283 1164 1046 1159 1156 1047 935 1039
8 1165 1048 1164 1283 1053 937 1047 1156
8 1157 1043 933 1038 1284 1161 1045 1158
8 1157 1043 1161 1284 1042 932 1044 1160
8 1040 934 1046 1159 1158 1045 1163 1285
8 1166 1049 1167 1292 1051 936 1048 1165
8 1166 1049 936 1051 1293 1168 1050 1172
8 1051 936 1052 1175 1172 1050 1173 1306
8 1174 1051 1165 1290 1308 1175 1053 1177
8 1053 937 1054 1178 1175 1052 1176 1309
8 1278 1156 1055 1180 1177 1053 1178 1311
8 1055 938 1056 1181 1178 1054 1179 1312
8 1057 939 1058 1183 1180 1055 1181 1314
8 1058 940 1059 1184 1181 1056 1182 1315
8 1060 942 1061 1185 1183 1058 1184 1316
8 1208 1081 1187 1321 1082 964 1063 1188
8 1209 1082 1188 1322 1097 981 1064 1190
8 1188 1063 1189 1323 1064 947 1065 1191
8 1190 1064 1191 1325 1066 948 1067 1193
8 1191 1065 1192 1326 1067 949 1068 1194
8 1067 1193 1069 950 1194 1327 1195 1070
8 1250 1133 1199 1330 1126 1019 1075 1196
8 1198 1077 1014 1122 1331 1200 1075 1196
8 1074 960 1077 1198 1197 1076 1201 1332
8 1085 980 1076 1197 1215 1099 1201 1332
8 1199 1079 1203 1333 1075 962 1080 1200
8 1132 1025 1119 1243 1199 1079 1203 1333
8 1201 1078 963 1077 1334 1202 1080 1200
8 1099 994 1078 1201 1227 1111 1202 1334
8 1343 1207 1081 1208 1210 1083 964 1082
8 1214 1084 1186 1319 1343 1207 1081 1208
8 1345 1210 1082 1209 1225 1100 981 1097
8 1346 1211 1083 1210 1228 1115 999 1100
8 1086 984 1099 1215 1216 1103 1227 1352
8 1087 985 1103 1216 1217 1104 1230 1353
8 1090 988 1104 1217 1219 1106 1231 1354
8 1218 1105 987 1089 1355 1232 1106 1219
8 1091 991 1105 1218 1220 1109 1232 1355
8 1092 992 1109 1220 1221 1110 1234 1356
8 1222 1108 1233 1357 1095 990 1107 1224
8 1222 1108 993 1093 1357 1233 1110 1221
8 1223 1101 989 1096 1358 1229 1107 1224
8 1226 1102 983 1098 1358 1229 1101 1223
8 1226 1102 1228 1359 1098 983 1100 1225
8 1103 995 1111 1227 1230 1112 1235 1360
8 1107 1002 1117 1233 1229 1116 1240 1362
8 1102 1001 1116 1229 1228 1115 1240 1362
8 1104 996 1112 1230 1231 1113 1236 1363
8 1364 1237 1114 1232 1231 1113 997 1106
8 1109 1005 1114 1232 1234 1118 1238 1365
8 1110 1004 1118 1234 1233 1117 1241 1366
8 1242 1374 1255 1138 1119 1243 1132 1025
8 1244 1127 1254 1376 1121 1015 1129 1245
8 1148 1031 1149 1275 1244 1127 1254 1376
8 1245 1129 1258 1377 1125 1016 1130 1248
8 1251 1134 1019 1126 1378 1257 1128 1246
8 1378 1257 1128 1246 1247 1131 1017 1123
8 1248 1130 1259 1379 1124 1018 1131 1247
8 1261 1381 1250 1133 1132 1249 1330 1199
8 1255 1380 1252 1135 1132 1249 1381 1261
8 1250 1133 1019 1126 1382 1262 1134 1251
8 1253 1136 1256 1385 1384 1263 1135 1252
8 1254 1137 1265 1387 1129 1022 1141 1258
8 1149 1032 1150 1276 1254 1137 1265 1387
8 1028 1135 1255 1138 1139 1256 1388 1266
8 1136 1029 1147 1264 1256 1139 1267 1389
8 1390 1268 1140 1257 1259 1142 1024 1131
8 1260 1143 1027 1134 1390 1268 1140 1257
8 1258 1141 1269 1391 1130 1023 1142 1259
8 1262 1145 1027 1134 1393 1271 1143 1260
8 1261 1144 1026 1133 1394 1272 1145 1262
8 1135 1028 1144 1261 1263 1146 1272 1394
8 1136 1029 1146 1263 1264 1147 1273 1395
8 1155 1041 1160 1282 1275 1149 1276 1405
8 1276 1150 1044 1160 1406 1277 1162 1286
8 1408 1283 1159 1279 1278 1156 1039 1151
8 1290 1165 1283 1408 1177 1053 1156 1278
8 1152 1040 1159 1279 1280 1158 1285 1409
8 1281 1157 1038 1153 1410 1284 1158 1280
8 1281 1157 1284 1410 1154 1042 1160 1282
8 1159 1046 1164 1283 1285 1163 1289 1412
8 1292 1167 1289 1412 1165 1048 1164 1283
8 1158 1045 1163 1285 1284 1161 1288 1413
8 1284 1161 1288 1413 1160 1044 1162 1286
8 1291 1166 1292 1418 1174 1051 1165 1290
8 1291 1166 1051 1174 1419 1293 1172 1305
8 1294 1169 1296 1421 1166 1049 1167 1292
8 1293 1168 1050 1172 1422 1295 1171 1303
8 1294 1169 1049 1166 1423 1297 1168 1293
8 1422 1295 1171 1303 1301 1170 1302 1435
8 1172 1050 1173 1306 1303 1171 1304 1438
8 1174 1051 1175 1308 1305 1172 1306 1440
8 1175 1052 1176 1309 1306 1173 1307 1441
8 1177 1053 1178 1311 1308 1175 1309 1443
8 1178 1054 1179 1312 1309 1176 1310 1444
8 1180 1055 1181 1314 1311 1178 1312 1446
8 1056 1181 1312 1179 1182 1315 1447 1313
8 1183 1058 1184 1316 1314 1181 1315 1448
8 1319 1186 1084 1214 1451 1317 1213 1350
8 1319 1186 1318 1453 1208 1081 1187 1321
8 1321 1187 1320 1456 1188 1063 1189 1323
8 1344 1208 1321 1457 1209 1082 1188 1322
8 1322 1188 1323 1458 1190 1064 1191 1325
8 1323 1189 1324 1459 1191 1065 1192 1326
8 1191 1325 1193 1067 1326 1460 1327 1194
8 1242 1374 1243 1119 1328 1462 1335 1204
8 1330 1199 1333 1465 1196 1075 1200 1331
8 1132 1249 1330 1199 1243 1375 1465 1333
8 1332 1201 1077 1198 1466 1334 1200 1331
8 1215 1099 1201 1332 1352 1227 1334 1466
8 1119 1243 1333 1203 1204 1335 1470 1338
8 1333 1203 1338 1470 1200 1080 1202 1334
8 1227 1111 1202 1334 1360 1235 1338 1470
8 1328 1462 1335 1204 1205 1336 1471 1339
8 1337 1206 1340 1472 1464 1329 1205 1336
8 1346 1211 1342 1479 1210 1083 1207 1343
8 1346 1211 1115 1228 1479 1342 1239 1361
8 1348 1212 1084 1214 1479 1342 1207 1343
8 1480 1343 1208 1344 1345 1210 1082 1209
8 1351 1214 1319 1454 1480 1343 1208 1344
8 1481 1346 1210 1345 1359 1228 1100 1225
8 1348 1212 1347 1483 1214 1084 1213 1350
8 1216 1103 1227 1352 1353 1230 1360 1488
8 1217 1104 1230 1353 1354 1231 1363 1489
8 1490 1364 1232 1355 1354 1231 1106 1219
8 1220 1109 1232 1355 1356 1234 1365 1491
8 1221 1110 1234 1356 1357 1233 1366 1492
8 1224 1107 1233 1357 1358 1229 1362 1493
8 1226 1102 1229 1358 1359 1228 1362 1493
8 1230 1112 1235 1360 1363 1236 1367 1496
8 1361 1239 1115 1228 1497 1371 1240 1362
8 1366 1241 1372 1498 1233 1117 1240 1362
8 1364 1237 1113 1231 1499 1368 1236 1363
8 1364 1237 1368 1499 1232 1114 1238 1365
8 1234 1118 1238 1365 1366 1241 1369 1500
8 1507 1373 1242 1374 1388 1266 1138 1255
8 1508 1374 1243 1375 1380 1255 1132 1249
8 1376 1254 1387 1509 1245 1129 1258 1377
8 1275 1149 1276 1405 1376 1254 1387 1509
8 1377 1258 1391 1510 1248 1130 1259 1379
8 1511 1390 1257 1378 1379 1259 1131 1247
8 1383 1260 1134 1251 1511 1390 1257 1378
8 1252 1135 1256 1385 1380 1255 1388 1512
8 1261 1381 1513 1394 1133 1250 1382 1262
8 1135 1252 1384 1263 1261 1381 1513 1394
8 1382 1262 1134 1251 1514 1393 1260 1383
8 1253 1136 1263 1384 1386 1264 1395 1516
8 1253 1136 1264 1386 1385 1256 1389 1517
8 1387 1265 1397 1519 1258 1141 1269 1391
8 1276 1150 1277 1406 1387 1265 1397 1519
8 1256 1139 1267 1389 1388 1266 1398 1520
8 1264 1147 1274 1396 1389 1267 1399 1521
8 1392 1270 1143 1260 1522 1400 1268 1390
8 1390 1268 1142 1259 1522 1400 1269 1391
8 1392 1270 1401 1523 1260 1143 1271 1393
8 1272 1394 1524 1402 1145 1262 1393 1271
8 1395 1273 1146 1263 1524 1402 1272 1394
8 1273 1395 1264 1147 1403 1526 1396 1274
8 1405 1276 1160 1282 1534 1406 1286 1411
8 1414 1287 1407 1535 1286 1162 1277 1406
8 1279 1159 1283 1408 1409 1285 1412 1537
8 1418 1292 1412 1537 1290 1165 1283 1408
8 1280 1158 1285 1409 1410 1284 1413 1538
8 1410 1284 1413 1538 1282 1160 1286 1411
8 1285 1163 1289 1412 1413 1288 1417 1540
8 1421 1296 1417 1540 1292 1167 1289 1412
8 1414 1287 1162 1286 1541 1416 1288 1413
8 1420 1294 1421 1545 1291 1166 1292 1418
8 1419 1293 1172 1305 1546 1422 1303 1437
8 1420 1294 1166 1291 1547 1423 1293 1419
8 1294 1169 1297 1423 1421 1296 1425 1548
8 1423 1297 1168 1293 1549 1424 1295 1422
8 1301 1170 1298 1427 1422 1295 1424 1549
8 1432 1300 1428 1554 1301 1170 1298 1427
8 1431 1299 1428 1554 1560 1430 1300 1432
8 1563 1433 1300 1432 1435 1302 1170 1301
8 1546 1422 1303 1437 1434 1301 1435 1565
8 1303 1171 1304 1438 1435 1302 1436 1566
8 1305 1172 1306 1440 1437 1303 1438 1568
8 1306 1173 1307 1441 1438 1304 1439 1569
8 1308 1175 1309 1443 1440 1306 1441 1571
8 1309 1176 1310 1444 1441 1307 1442 1572
8 1311 1178 1312 1446 1443 1309 1444 1574
8 1179 1312 1444 1310 1313 1447 1575 1445
8 1314 1181 1315 1448 1446 1312 1447 1576
8 1350 1213 1349 1486 1451 1317 1449 1579
8 1451 1317 1450 1581 1319 1186 1318 1453
8 1454 1319 1214 1351 1582 1451 1350 1487
8 1453 1318 1452 1584 1321 1187 1320 1456
8 1454 1319 1453 1585 1344 1208 1321 1457
8 1456 1320 1455 1586 1323 1189 1324 1459
8 1457 1321 1456 1587 1322 1188 1323 1458
8 1458 1323 1459 1588 1325 1191 1326 1460
8 1205 1336 1464 1329 1328 1462 1590 1461
8 1507 1373 1461 1590 1374 1242 1328 1462
8 1508 1374 1462 1591 1375 1243 1335 1467
8 1337 1206 1329 1464 1473 1341 1463 1594
8 1375 1243 1335 1467 1465 1333 1470 1596
8 1465 1333 1470 1596 1331 1200 1334 1466
8 1352 1227 1334 1466 1488 1360 1470 1596
8 1591 1462 1336 1468 1467 1335 1471 1597
8 1469 1337 1472 1598 1595 1464 1336 1468
8 1471 1339 1474 1600 1335 1204 1338 1470
8 1600 1474 1367 1496 1470 1338 1235 1360
8 1336 1205 1340 1472 1471 1339 1475 1601
8 1337 1206 1341 1473 1472 1340 1476 1602
8 1495 1370 1478 1609 1361 1239 1342 1479
8 1348 1212 1342 1479 1483 1347 1478 1609
8 1481 1346 1479 1610 1345 1210 1343 1480
8 1481 1346 1228 1359 1610 1479 1361 1494
8 1484 1348 1214 1351 1610 1479 1343 1480
8 1483 1347 1482 1612 1350 1213 1349 1486
8 1484 1348 1483 1613 1351 1214 1350 1487
8 1353 1230 1360 1488 1489 1363 1496 1616
8 1490 1364 1231 1354 1617 1499 1363 1489
8 1490 1364 1499 1617 1355 1232 1365 1491
8 1356 1234 1365 1491 1492 1366 1500 1619
8 1492 1366 1498 1620 1357 1233 1362 1493
8 1494 1361 1228 1359 1621 1497 1362 1493
8 1495 1370 1239 1361 1622 1504 1371 1497
8 1363 1236 1367 1496 1499 1368 1501 1623
8 1497 1371 1240 1362 1624 1505 1372 1498
8 1625 1503 1372 1498 1500 1369 1241 1366
8 1365 1238 1368 1499 1500 1369 1502 1626
8 1520 1398 1506 1633 1388 1266 1373 1507
8 1634 1507 1374 1508 1512 1388 1255 1380
8 1509 1387 1519 1635 1377 1258 1391 1510
8 1405 1276 1406 1534 1509 1387 1519 1635
8 1515 1392 1260 1383 1636 1522 1390 1511
8 1511 1390 1259 1379 1636 1522 1391 1510
8 1385 1256 1389 1517 1512 1388 1520 1637
8 1513 1394 1262 1382 1638 1524 1393 1514
8 1395 1516 1638 1524 1263 1384 1513 1394
8 1515 1392 1523 1639 1383 1260 1393 1514
8 1516 1395 1526 1640 1386 1264 1396 1518
8 1386 1264 1396 1518 1517 1389 1521 1641
8 1519 1397 1527 1643 1391 1269 1400 1522
8 1535 1407 1527 1643 1406 1277 1397 1519
8 1389 1267 1399 1521 1520 1398 1528 1644
8 1645 1529 1399 1521 1525 1404 1274 1396
8 1392 1270 1400 1522 1523 1401 1531 1646
8 1524 1402 1271 1393 1648 1532 1401 1523
8 1403 1526 1648 1532 1273 1395 1524 1402
8 1525 1404 1274 1396 1649 1533 1403 1526
8 1539 1414 1535 1657 1411 1286 1406 1534
8 1542 1415 1536 1658 1414 1287 1407 1535
8 1409 1285 1412 1537 1538 1413 1540 1660
8 1545 1421 1540 1660 1418 1292 1412 1537
8 1539 1414 1286 1411 1661 1541 1413 1538
8 1540 1417 1544 1663 1413 1288 1416 1541
8 1421 1296 1425 1548 1540 1417 1544 1663
8 1542 1415 1287 1414 1664 1543 1416 1541
8 1420 1294 1423 1547 1545 1421 1548 1666
8 1547 1423 1293 1419 1667 1549 1422 1546
8 1434 1301 1427 1553 1546 1422 1549 1667
8 1423 1297 1424 1549 1548 1425 1550 1668
8 1551 1426 1550 1668 1427 1298 1424 1549
8 1551 1426 1298 1427 1671 1552 1428 1554
8 1562 1432 1554 1674 1434 1301 1427 1553
8 1431 1299 1429 1558 1554 1428 1555 1675
8 1431 1299 1430 1560 1558 1429 1557 1680
8 1560 1430 1300 1432 1683 1559 1433 1563
8 1561 1431 1554 1674 1684 1560 1432 1562
8 1685 1563 1432 1562 1565 1435 1301 1434
8 1435 1302 1436 1566 1563 1433 1564 1686
8 1437 1303 1438 1568 1565 1435 1566 1688
8 1438 1304 1439 1569 1566 1436 1567 1689
8 1440 1306 1441 1571 1568 1438 1569 1691
8 1441 1307 1442 1572 1569 1439 1570 1692
8 1443 1309 1444 1574 1571 1441 1572 1694
8 1310 1444 1572 1442 1445 1575 1695 1573
8 1446 1312 1447 1576 1574 1444 1575 1696
8 1486 1349 1485 1614 1579 1449 1577 1699
8 1451 1317 1449 1579 1581 1450 1578 1701
8 1487 1350 1486 1615 1582 1451 1579 1702
8 1581 1450 1580 1704 1453 1318 1452 1584
8 1582 1451 1581 1705 1454 1319 1453 1585
8 1584 1452 1583 1706 1456 1320 1455 1586
8 1585 1453 1584 1707 1457 1321 1456 1587
8 1587 1456 1586 1708 1458 1323 1459 1588
8 1633 1506 1589 1710 1507 1373 1461 1590
8 1464 1329 1461 1590 1594 1463 1589 1710
8 1468 1336 1462 1591 1595 1464 1590 1711
8 1634 1507 1590 1711 1508 1374 1462 1591
8 1473 1341 1463 1594 1603 1477 1593 1716
8 1469 1337 1464 1595 1599 1473 1594 1717
8 1471 1597 1467 1335 1600 1718 1596 1470
8 1718 1600 1496 1616 1596 1470 1360 1488
8 1336 1468 1597 1471 1472 1598 1719 1601
8 1469 1337 1473 1599 1598 1472 1602 1720
8 1722 1604 1501 1623 1600 1474 1367 1496
8 1475 1601 1471 1339 1604 1722 1600 1474
8 1602 1476 1605 1723 1472 1340 1475 1601
8 1476 1602 1724 1606 1341 1473 1603 1477
8 1483 1347 1478 1609 1612 1482 1608 1731
8 1495 1370 1504 1622 1609 1478 1608 1731
8 1618 1495 1609 1732 1494 1361 1479 1610
8 1484 1348 1479 1610 1613 1483 1609 1732
8 1486 1349 1482 1612 1614 1485 1611 1733
8 1613 1483 1612 1734 1487 1350 1486 1615
8 1489 1363 1496 1616 1617 1499 1623 1736
8 1491 1365 1499 1617 1619 1500 1626 1737
8 1618 1495 1361 1494 1738 1622 1497 1621
8 1739 1625 1498 1620 1619 1500 1366 1492
8 1621 1497 1362 1493 1740 1624 1498 1620
8 1742 1631 1504 1622 1624 1505 1371 1497
8 1743 1628 1502 1626 1623 1501 1368 1499
8 1744 1630 1505 1624 1625 1503 1372 1498
8 1745 1629 1503 1625 1626 1502 1369 1500
8 1520 1398 1528 1644 1633 1506 1632 1751
8 1637 1520 1633 1752 1512 1388 1507 1634
8 1635 1519 1643 1753 1510 1391 1522 1636
8 1657 1535 1643 1753 1534 1406 1519 1635
8 1515 1392 1522 1636 1639 1523 1646 1754
8 1517 1389 1521 1641 1637 1520 1644 1755
8 1524 1638 1756 1648 1393 1514 1639 1523
8 1640 1526 1395 1516 1756 1648 1524 1638
8 1642 1525 1396 1518 1757 1649 1526 1640
8 1758 1645 1521 1641 1642 1525 1396 1518
8 1646 1531 1400 1522 1760 1650 1527 1643
8 1535 1407 1536 1658 1643 1527 1650 1760
8 1521 1399 1529 1645 1644 1528 1651 1761
8 1647 1530 1652 1762 1525 1404 1529 1645
8 1401 1523 1648 1532 1531 1646 1763 1655
8 1525 1404 1533 1649 1647 1530 1654 1765
8 1533 1649 1766 1656 1403 1526 1648 1532
8 1662 1542 1658 1774 1539 1414 1535 1657
8 1542 1415 1543 1664 1658 1536 1659 1775
8 1660 1540 1663 1777 1538 1413 1541 1661
8 1545 1421 1548 1666 1660 1540 1663 1777
8 1662 1542 1414 1539 1778 1664 1541 1661
8 1664 1543 1416 1541 1779 1665 1544 1663
8 1548 1425 1550 1668 1663 1544 1665 1779
8 1547 1423 1549 1667 1666 1548 1668 1781
8 1670 1551 1668 1781 1553 1427 1549 1667
8 1551 1426 1552 1671 1668 1550 1669 1782
8 1670 1551 1427 1553 1784 1671 1554 1674
8 1675 1555 1672 1785 1554 1428 1552 1671
8 1678 1556 1673 1789 1558 1429 1555 1675
8 1561 1431 1558 1681 1674 1554 1675 1790
8 1794 1677 1556 1678 1680 1557 1429 1558
8 1560 1430 1559 1683 1680 1557 1679 1797
8 1561 1431 1560 1684 1681 1558 1680 1798
8 1563 1433 1564 1686 1683 1559 1682 1800
8 1684 1560 1432 1562 1801 1683 1563 1685
8 1565 1435 1566 1688 1685 1563 1686 1802
8 1566 1436 1567 1689 1686 1564 1687 1803
8 1568 1438 1569 1691 1688 1566 1689 1805
8 1569 1439 1570 1692 1689 1567 1690 1806
8 1571 1441 1572 1694 1691 1569 1692 1808
8 1442 1572 1692 1570 1573 1695 1809 1693
8 1574 1444 1575 1696 1694 1572 1695 1810
8 1614 1485 1592 1712 1699 1577 1697 1813
8 1579 1449 1577 1699 1701 1578 1698 1815
8 1615 1486 1614 1735 1702 1579 1699 1816
8 1701 1578 1700 1818 1581 1450 1580 1704
8 1582 1451 1579 1702 1705 1581 1701 1819
8 1704 1580 1703 1820 1584 1452 1583 1706
8 1705 1581 1704 1821 1585 1453 1584 1707
8 1707 1584 1706 1822 1587 1456 1586 1708
8 1710 1589 1506 1633 1824 1709 1632 1751
8 1594 1463 1589 1710 1716 1593 1709 1824
8 1752 1633 1710 1825 1634 1507 1590 1711
8 1595 1464 1590 1711 1717 1594 1710 1825
8 1830 1714 1592 1712 1733 1611 1485 1614
8 1603 1477 1593 1716 1725 1607 1715 1834
8 1599 1473 1594 1717 1721 1603 1716 1835
8 1837 1722 1623 1736 1718 1600 1496 1616
8 1719 1601 1722 1837 1597 1471 1600 1718
8 1602 1720 1598 1472 1723 1838 1719 1601
8 1720 1602 1473 1599 1839 1724 1603 1721
8 1723 1605 1726 1840 1601 1475 1604 1722
8 1840 1726 1628 1743 1722 1604 1501 1623
8 1724 1606 1727 1841 1602 1476 1605 1723
8 1725 1607 1728 1842 1603 1477 1606 1724
8 1612 1482 1608 1731 1733 1611 1730 1849
8 1741 1627 1730 1849 1622 1504 1608 1731
8 1613 1483 1609 1732 1734 1612 1731 1850
8 1618 1495 1622 1738 1732 1609 1731 1850
8 1615 1486 1612 1734 1735 1614 1733 1851
8 1852 1743 1626 1737 1736 1623 1499 1617
8 1853 1745 1625 1739 1737 1626 1500 1619
8 1855 1742 1622 1738 1740 1624 1497 1621
8 1856 1744 1624 1740 1739 1625 1498 1620
8 1741 1627 1504 1622 1857 1746 1631 1742
8 1742 1631 1505 1624 1858 1749 1630 1744
8 1859 1747 1629 1745 1743 1628 1502 1626
8 1860 1748 1630 1744 1745 1629 1503 1625
8 1644 1528 1651 1761 1751 1632 1750 1865
8 1637 1520 1644 1755 1752 1633 1751 1866
8 1754 1646 1522 1636 1867 1760 1643 1753
8 1657 1535 1658 1774 1753 1643 1760 1867
8 1639 1523 1646 1754 1756 1648 1763 1868
8 1641 1521 1645 1758 1755 1644 1761 1869
8 1757 1649 1526 1640 1870 1766 1648 1756
8 1642 1525 1649 1757 1759 1647 1765 1871
8 1759 1647 1762 1872 1642 1525 1645 1758
8 1760 1650 1767 1874 1646 1531 1655 1763
8 1658 1536 1659 1775 1760 1650 1767 1874
8 1762 1652 1768 1875 1645 1529 1651 1761
8 1764 1653 1769 1876 1647 1530 1652 1762
8 1656 1766 1877 1773 1532 1648 1763 1655
8 1771 1879 1765 1654 1653 1764 1647 1530
8 1533 1649 1765 1654 1656 1766 1880 1772
8 1662 1542 1664 1778 1774 1658 1775 1887
8 1664 1543 1665 1779 1775 1659 1776 1888
8 1778 1664 1541 1661 1890 1779 1663 1777
8 1666 1548 1668 1781 1777 1663 1779 1890
8 1782 1669 1780 1891 1668 1550 1665 1779
8 1670 1551 1671 1784 1781 1668 1782 1893
8 1671 1552 1672 1785 1782 1669 1783 1894
8 1790 1675 1785 1896 1674 1554 1671 1784
8 1675 1555 1673 1789 1785 1672 1786 1897
8 1792 1676 1788 1903 1678 1556 1673 1789
8 1795 1678 1789 1904 1681 1558 1675 1790
8 1792 1676 1556 1678 1906 1791 1677 1794
8 1680 1557 1679 1797 1794 1677 1793 1909
8 1910 1794 1678 1795 1798 1680 1558 1681
8 1683 1559 1682 1800 1797 1679 1796 1912
8 1684 1560 1683 1801 1798 1680 1797 1913
8 1686 1564 1687 1803 1800 1682 1799 1915
8 1685 1563 1686 1802 1801 1683 1800 1916
8 1688 1566 1689 1805 1802 1686 1803 1917
8 1689 1567 1690 1806 1803 1687 1804 1918
8 1691 1569 1692 1808 1805 1689 1806 1920
8 1692 1570 1693 1809 1806 1690 1807 1921
8 1694 1572 1695 1810 1808 1692 1809 1922
8 1829 1713 1811 1926 1712 1592 1697 1813
8 1813 1697 1812 1928 1699 1577 1698 1815
8 1735 1614 1712 1828 1816 1699 1813 1929
8 1815 1698 1814 1931 1701 1578 1700 1818
8 1702 1579 1699 1816 1819 1701 1815 1932
8 1818 1700 1817 1933 1704 1580 1703 1820
8 1819 1701 1818 1934 1705 1581 1704 1821
8 1821 1704 1820 1935 1707 1584 1706 1822
8 1824 1709 1632 1751 1937 1823 1750 1865
8 1716 1593 1709 1824 1834 1715 1823 1937
8 1825 1710 1633 1752 1938 1824 1751 1866
8 1717 1594 1710 1825 1835 1716 1824 1938
8 1945 1830 1712 1828 1851 1733 1614 1735
8 1830 1714 1831 1946 1712 1592 1713 1829
8 1947 1832 1714 1830 1849 1730 1611 1733
8 1843 1729 1607 1725 1950 1833 1715 1834
8 1721 1603 1716 1835 1836 1725 1834 1951
8 1836 1725 1842 1953 1721 1603 1724 1839
8 1723 1838 1719 1601 1840 1954 1837 1722
8 1954 1840 1743 1852 1837 1722 1623 1736
8 1724 1839 1720 1602 1841 1955 1838 1723
8 1841 1727 1844 1956 1723 1605 1726 1840
8 1956 1844 1747 1859 1840 1726 1628 1743
8 1728 1842 1724 1606 1845 1957 1841 1727
8 1725 1607 1729 1843 1842 1728 1846 1958
8 1741 1627 1746 1857 1849 1730 1848 1965
8 1734 1612 1731 1850 1851 1733 1849 1966
8 1854 1741 1849 1966 1738 1622 1731 1850
8 1967 1859 1745 1853 1852 1743 1626 1737
8 1968 1860 1744 1856 1853 1745 1625 1739
8 1854 1741 1622 1738 1969 1857 1742 1855
8 1855 1742 1624 1740 1970 1858 1744 1856
8 1857 1746 1631 1742 1971 1861 1749 1858
8 1858 1749 1630 1744 1972 1863 1748 1860
8 1859 1747 1862 1973 1745 1629 1748 1860
8 1875 1768 1864 1977 1761 1651 1750 1865
8 1755 1644 1761 1869 1866 1751 1865 1978
8 1867 1760 1874 1979 1754 1646 1763 1868
8 1774 1658 1775 1887 1867 1760 1874 1979
8 1870 1766 1648 1756 1980 1877 1763 1868
8 1872 1762 1875 1981 1758 1645 1761 1869
8 1757 1649 1766 1870 1871 1765 1880 1982
8 1983 1879 1764 1873 1871 1765 1647 1759
8 1873 1764 1876 1984 1759 1647 1762 1872
8 1877 1773 1655 1763 1986 1881 1767 1874
8 1775 1659 1776 1888 1874 1767 1881 1986
8 1876 1769 1882 1987 1762 1652 1768 1875
8 1878 1770 1883 1988 1764 1653 1769 1876
8 1880 1772 1656 1766 1989 1886 1773 1877
8 1878 1770 1653 1764 1990 1884 1771 1879
8 1765 1654 1772 1880 1879 1771 1885 1991
8 1778 1664 1779 1890 1887 1775 1888 1997
8 1998 1889 1776 1888 1891 1780 1665 1779
8 1893 1782 1891 2000 1781 1668 1779 1890
8 1894 1783 1892 2001 1782 1669 1780 1891
8 1784 1671 1785 1896 1893 1782 1894 2003
8 1897 1786 1895 2004 1785 1672 1783 1894
8 1790 1675 1789 1904 1896 1785 1897 2006
8 1901 1787 1898 2007 1789 1673 1786 1897
8 1903 1788 1900 2013 1789 1673 1787 1901
8 1792 1676 1791 1906 1903 1788 1902 2016
8 1907 1792 1903 2017 1795 1678 1789 1904
8 1906 1791 1677 1794 2019 1905 1793 1909
8 1907 1792 1678 1795 2020 1906 1794 1910
8 1797 1679 1796 1912 1909 1793 1908 2022
8 1798 1680 1797 1913 1910 1794 1909 2023
8 1800 1682 1799 1915 1912 1796 1911 2025
8 1801 1683 1800 1916 1913 1797 1912 2026
8 1803 1687 1804 1918 1915 1799 1914 2028
8 1802 1686 1803 1917 1916 1800 1915 2029
8 1805 1689 1806 1920 1917 1803 1918 2030
8 1806 1690 1807 1921 1918 1804 1919 2031
8 1808 1692 1809 1922 1920 1806 1921 2032
8 1939 1826 1924 2037 1829 1713 1811 1926
8 1926 1811 1925 2039 1813 1697 1812 1928
8 1944 1829 1926 2040 1828 1712 1813 1929
8 1928 1812 1927 2042 1815 1698 1814 1931
8 1929 1813 1928 2043 1816 1699 1815 1932
8 1931 1814 1930 2044 1818 1700 1817 1933
8 1932 1815 1931 2045 1819 1701 1818 1934
8 1934 1818 1933 2046 1821 1704 1820 1935
8 2048 1936 1823 1937 1977 1864 1750 1865
8 1950 1833 1715 1834 2048 1936 1823 1937
8 1938 1824 1751 1866 2049 1937 1865 1978
8 1835 1716 1824 1938 1951 1834 1937 2049
8 1939 1826 1713 1829 2053 1942 1831 1946
8 1940 1827 1923 2035 2053 1942 1826 1939
8 1945 1830 1946 2058 1828 1712 1829 1944
8 2059 1947 1830 1945 1966 1849 1733 1851
8 1947 1832 1730 1849 2060 1948 1848 1965
8 1947 1832 1948 2060 1830 1714 1831 1946
8 1959 1847 1729 1843 2063 1949 1833 1950
8 1952 1843 1725 1836 2064 1950 1834 1951
8 1836 1725 1843 1952 1953 1842 1958 2066
8 1953 1842 1957 2067 1839 1724 1841 1955
8 1841 1955 1838 1723 1956 2068 1954 1840
8 2068 1956 1859 1967 1954 1840 1743 1852
8 1956 1844 1960 2069 1859 1747 1862 1973
8 1845 1957 1841 1727 1960 2069 1956 1844
8 1728 1842 1957 1845 1846 1958 2071 1961
8 1962 2072 1959 1847 1846 1958 1843 1729
8 1971 1861 1964 2077 1857 1746 1848 1965
8 1854 1741 1857 1969 1966 1849 1965 2078
8 1967 1859 1973 2079 1853 1745 1860 1968
8 1970 1858 1744 1856 2080 1972 1860 1968
8 1969 1857 1742 1855 2081 1971 1858 1970
8 1971 1861 1749 1858 2082 1974 1863 1972
8 1973 1862 1975 2083 1860 1748 1863 1972
8 1987 1882 1976 2086 1875 1768 1864 1977
8 1981 1875 1977 2087 1869 1761 1865 1978
8 1980 1877 1763 1868 2088 1986 1874 1979
8 1887 1775 1888 1997 1979 1874 1986 2088
8 1880 1982 2089 1989 1766 1870 1980 1877
8 1984 1876 1987 2090 1872 1762 1875 1981
8 1765 1871 1983 1879 1880 1982 2091 1991
8 1985 1878 1764 1873 2092 1990 1879 1983
8 1985 1878 1988 2093 1873 1764 1876 1984
8 2094 1992 1881 1986 1998 1889 1776 1888
8 1986 1881 1992 2094 1877 1773 1886 1989
8 1988 1883 1993 2095 1876 1769 1882 1987
8 1878 1770 1884 1990 1988 1883 1994 2096
8 1991 1885 1772 1880 2097 1996 1886 1989
8 1879 1771 1885 1991 1990 1884 1995 2098
8 2103 1998 1888 1997 2000 1891 1779 1890
8 2104 1999 1889 1998 2001 1892 1780 1891
8 2003 1894 2001 2106 1893 1782 1891 2000
8 2004 1895 2002 2107 1894 1783 1892 2001
8 2006 1897 2004 2109 1896 1785 1894 2003
8 2007 1898 2005 2110 1897 1786 1895 2004
8 2014 1901 2007 2112 1904 1789 1897 2006
8 2011 1899 2008 2113 1901 1787 1898 2007
8 2119 2010 1899 2011 2013 1900 1787 1901
8 2016 1902 2012 2122 1903 1788 1900 2013
8 2017 1903 2013 2123 1904 1789 1901 2014
8 1906 1791 1905 2019 2016 1902 2015 2125
8 1907 1792 1906 2020 2017 1903 2016 2126
8 1909 1793 1908 2022 2019 1905 2018 2128
8 2020 1906 1794 1910 2129 2019 1909 2023
8 1912 1796 1911 2025 2022 1908 2021 2131
8 1913 1797 1912 2026 2023 1909 2022 2132
8 1915 1799 1914 2028 2025 1911 2024 2134
8 1916 1800 1915 2029 2026 1912 2025 2135
8 1918 1804 1919 2031 2028 1914 2027 2136
8 1917 1803 1918 2030 2029 1915 2028 2137
8 1920 1806 1921 2032 2030 1918 2031 2138
8 1940 1827 1941 2054 2035 1923 2033 2140
8 2035 1923 2034 2143 1939 1826 1924 2037
8 2037 1924 2036 2146 1926 1811 1925 2039
8 2051 1939 2037 2147 1944 1829 1926 2040
8 2039 1925 2038 2149 1928 1812 1927 2042
8 2040 1926 2039 2150 1929 1813 1928 2043
8 2042 1927 2041 2151 1931 1814 1930 2044
8 2043 1928 2042 2152 1932 1815 1931 2045
8 2045 1931 2044 2153 1934 1818 1933 2046
8 2155 2047 1936 2048 2086 1976 1864 1977
8 2063 1949 1833 1950 2155 2047 1936 2048
8 2156 2048 1937 2049 2087 1977 1865 1978
8 2064 1950 1834 1951 2156 2048 1937 2049
8 2051 1939 1829 1944 2160 2053 1946 2058
8 2052 1940 2035 2144 2160 2053 1939 2051
8 2053 1942 1831 1946 2163 2057 1948 2060
8 2055 1943 1827 1940 2163 2057 1942 2053
8 2055 1943 2056 2164 1940 1827 1941 2054
8 2059 1947 1849 1966 2167 2060 1965 2078
8 2059 1947 2060 2167 1945 1830 1946 2058
8 2077 1964 2061 2168 1965 1848 1948 2060
8 2070 1963 1847 1959 2170 2062 1949 2063
8 2065 1959 1843 1952 2171 2063 1950 2064
8 2173 2072 1958 2066 2065 1959 1843 1952
8 1953 1842 1958 2066 2067 1957 2071 2174
8 2068 1956 2069 2175 1967 1859 1973 2079
8 2067 1957 2069 2175 1955 1841 1956 2068
8 1845 1957 2069 1960 1961 2071 2176 2073
8 2069 1960 2073 2176 1973 1862 1975 2083
8 2070 1963 2075 2177 1959 1847 1962 2072
8 1846 1958 2071 1961 1962 2072 2178 2074
8 2077 1964 1861 1971 2182 2076 1974 2082
8 2081 1971 2077 2183 1969 1857 1965 2078
8 2079 1973 2083 2184 1968 1860 1972 2080
8 2081 1971 1858 1970 2185 2082 1972 2080
8 2083 1975 2084 2186 1972 1863 1974 2082
8 2086 1976 1882 1987 2189 2085 1993 2095
8 2090 1987 2086 2190 1981 1875 1977 2087
8 2191 2094 1986 2088 2103 1998 1888 1997
8 2088 1986 2094 2191 1980 1877 1989 2089
8 1991 2091 2192 2097 1880 1982 2089 1989
8 2093 1988 2095 2193 1984 1876 1987 2090
8 1879 1983 2092 1990 1991 2091 2194 2098
8 1985 1878 1990 2092 2093 1988 2096 2195
8 2097 1996 1886 1989 2196 2099 1992 2094
8 2196 2099 1992 2094 2104 1999 1889 1998
8 1994 2096 1988 1883 2100 2197 2095 1993
8 2096 1994 1884 1990 2198 2101 1995 2098
8 1995 2098 2199 2102 1885 1991 2097 1996
8 2203 2104 1998 2103 2106 2001 1891 2000
8 2107 2002 2105 2204 2001 1892 1999 2104
8 2109 2004 2107 2206 2003 1894 2001 2106
8 2110 2005 2108 2207 2004 1895 2002 2107
8 2112 2007 2110 2209 2006 1897 2004 2109
8 2113 2008 2111 2210 2007 1898 2005 2110
8 2120 2011 2113 2212 2014 1901 2007 2112
8 2117 2009 2114 2213 2011 1899 2008 2113
8 2219 2116 2009 2117 2119 2010 1899 2011
8 2222 2118 2010 2119 2122 2012 1900 2013
8 2223 2119 2011 2120 2123 2013 1901 2014
8 2016 1902 2015 2125 2122 2012 2121 2225
8 2126 2016 2122 2226 2017 1903 2013 2123
8 2019 1905 2018 2128 2125 2015 2124 2228
8 2020 1906 2019 2129 2126 2016 2125 2229
8 2022 1908 2021 2131 2128 2018 2127 2231
8 2023 1909 2022 2132 2129 2019 2128 2232
8 2025 1911 2024 2134 2131 2021 2130 2234
8 2026 1912 2025 2135 2132 2022 2131 2235
8 1914 2028 2134 2024 2027 2136 2236 2133
8 2029 1915 2028 2137 2135 2025 2134 2237
8 2030 1918 2031 2138 2137 2028 2136 2238
8 2157 2050 2139 2240 2054 1941 2033 2140
8 2052 1940 2054 2161 2144 2035 2140 2242
8 2140 2033 2141 2243 2035 1923 2034 2143
8 2143 2034 2142 2246 2037 1924 2036 2146
8 2144 2035 2143 2247 2051 1939 2037 2147
8 2146 2036 2145 2249 2039 1925 2038 2149
8 2147 2037 2146 2250 2040 1926 2039 2150
8 2149 2038 2148 2251 2042 1927 2041 2151
8 2150 2039 2149 2252 2043 1928 2042 2152
8 2152 2042 2151 2253 2045 1931 2044 2153
8 2255 2154 2047 2155 2189 2085 1976 2086
8 2170 2062 1949 2063 2255 2154 2047 2155
8 2256 2155 2048 2156 2190 2086 1977 2087
8 2171 2063 1950 2064 2256 2155 2048 2156
8 2258 2159 2050 2157 2164 2056 1941 2054
8 2160 2053 1946 2058 2262 2163 2060 2167
8 2162 2055 1940 2052 2262 2163 2053 2160
8 2162 2055 2164 2263 2052 1940 2054 2161
8 2163 2057 1948 2060 2264 2165 2061 2168
8 2055 1943 2057 2163 2164 2056 2165 2264
8 2182 2076 2166 2268 2077 1964 2061 2168
8 2183 2077 2168 2269 2078 1965 2060 2167
8 2070 1963 2062 2170 2177 2075 2169 2271
8 2172 2070 1959 2065 2272 2170 2063 2171
8 2172 2070 2177 2273 2065 1959 2072 2173
8 2066 1958 2072 2173 2174 2071 2178 2274
8 2067 1957 2071 2174 2175 2069 2176 2275
8 2175 2069 2176 2275 2079 1973 2083 2184
8 2071 1961 2074 2178 2176 2073 2179 2276
8 2176 2073 2179 2276 2083 1975 2084 2186
8 2072 1962 2075 2177 2178 2074 2180 2277
8 2182 2076 1974 2082 2280 2181 2084 2186
8 2183 2077 1971 2081 2281 2182 2082 2185
8 2184 2083 2186 2282 2080 1972 2082 2185
8 2189 2085 1993 2095 2285 2188 2100 2197
8 2190 2086 1987 2090 2286 2189 2095 2193
8 2192 2097 1989 2089 2287 2196 2094 2191
8 2287 2196 2094 2191 2203 2104 1998 2103
8 2194 2098 1991 2091 2288 2199 2097 2192
8 2195 2096 2197 2289 2093 1988 2095 2193
8 2096 2195 2290 2198 1990 2092 2194 2098
8 2097 1996 2099 2196 2199 2102 2200 2291
8 2196 2099 1999 2104 2291 2200 2105 2204
8 2100 2197 2292 2201 1994 2096 2198 2101
8 1995 2098 2198 2101 2102 2199 2293 2202
8 2206 2107 2204 2296 2106 2001 2104 2203
8 2207 2108 2205 2297 2107 2002 2105 2204
8 2209 2110 2207 2299 2109 2004 2107 2206
8 2210 2111 2208 2300 2110 2005 2108 2207
8 2212 2113 2210 2302 2112 2007 2110 2209
8 2213 2114 2211 2303 2113 2008 2111 2210
8 2220 2117 2213 2305 2120 2011 2113 2212
8 2216 2115 2214 2306 2117 2009 2114 2213
8 2216 2115 2009 2117 2311 2217 2116 2219
8 2219 2116 2010 2119 2314 2218 2118 2222
8 2315 2219 2117 2220 2223 2119 2011 2120
8 2122 2012 2121 2225 2222 2118 2221 2317
8 2318 2222 2119 2223 2226 2122 2013 2123
8 2125 2015 2124 2228 2225 2121 2224 2320
8 2126 2016 2125 2229 2226 2122 2225 2321
8 2128 2018 2127 2231 2228 2124 2227 2323
8 2129 2019 2128 2232 2229 2125 2228 2324
8 2131 2021 2130 2234 2231 2127 2230 2326
8 2132 2022 2131 2235 2232 2128 2231 2327
8 2134 2024 2133 2236 2234 2130 2233 2328
8 2135 2025 2134 2237 2235 2131 2234 2329
8 2137 2028 2136 2238 2237 2134 2236 2330
8 2157 2050 2158 2259 2240 2139 2239 2332
8 2257 2157 2240 2334 2161 2054 2140 2242
8 2240 2139 2241 2335 2140 2033 2141 2243
8 2242 2140 2243 2337 2144 2035 2143 2247
8 2243 2141 2244 2338 2143 2034 2142 2246
8 2246 2142 2245 2341 2146 2036 2145 2249
8 2247 2143 2246 2342 2147 2037 2146 2250
8 2249 2145 2248 2343 2149 2038 2148 2251
8 2250 2146 2249 2344 2150 2039 2149 2252
8 2252 2149 2251 2345 2152 2042 2151 2253
8 2169 2271 2347 2254 2062 2170 2255 2154
8 2189 2085 2188 2285 2255 2154 2254 2347
8 2348 2255 2155 2256 2286 2189 2086 2190
8 2272 2170 2063 2171 2348 2255 2155 2256
8 2349 2258 2157 2257 2263 2164 2054 2161
8 2258 2159 2261 2351 2157 2050 2158 2259
8 2258 2159 2056 2164 2351 2261 2165 2264
8 2262 2163 2060 2167 2355 2264 2168 2269
8 2162 2055 2163 2262 2263 2164 2264 2355
8 2357 2266 2165 2264 2268 2166 2061 2168
8 2268 2166 2076 2182 2361 2267 2181 2280
8 2281 2182 2268 2362 2183 2077 2168 2269
8 2271 2169 2270 2364 2177 2075 2180 2277
8 2172 2070 2170 2272 2273 2177 2271 2365
8 2072 2173 2274 2178 2177 2273 2366 2277
8 2071 2174 2275 2176 2178 2274 2367 2276
8 2275 2176 2276 2367 2184 2083 2186 2282
8 2283 2187 2084 2186 2368 2278 2179 2276
8 2178 2074 2180 2277 2276 2179 2278 2368
8 2283 2187 2279 2370 2186 2084 2181 2280
8 2281 2182 2082 2185 2371 2280 2186 2282
8 2188 2285 2374 2284 2100 2197 2292 2201
8 2286 2189 2095 2193 2375 2285 2197 2289
8 2192 2097 2196 2287 2288 2199 2291 2376
8 2287 2196 2104 2203 2376 2291 2204 2296
8 2194 2098 2199 2288 2290 2198 2293 2377
8 2289 2197 2096 2195 2378 2292 2198 2290
8 2291 2200 2105 2204 2379 2294 2205 2297
8 2199 2102 2200 2291 2293 2202 2294 2379
8 2198 2101 2202 2293 2292 2201 2295 2380
8 2299 2207 2297 2383 2206 2107 2204 2296
8 2300 2208 2298 2384 2207 2108 2205 2297
8 2302 2210 2300 2386 2209 2110 2207 2299
8 2303 2211 2301 2387 2210 2111 2208 2300
8 2305 2213 2303 2389 2212 2113 2210 2302
8 2306 2214 2304 2390 2213 2114 2211 2303
8 2310 2216 2306 2392 2220 2117 2213 2305
8 2308 2215 2307 2393 2216 2115 2214 2306
8 2308 2215 2115 2216 2396 2309 2217 2311
8 2310 2216 2117 2220 2398 2311 2219 2315
8 2311 2217 2116 2219 2399 2312 2218 2314
8 2314 2218 2118 2222 2402 2313 2221 2317
8 2315 2219 2119 2223 2403 2314 2222 2318
8 2225 2121 2224 2320 2317 2221 2316 2405
8 2226 2122 2225 2321 2318 2222 2317 2406
8 2228 2124 2227 2323 2320 2224 2319 2408
8 2229 2125 2228 2324 2321 2225 2320 2409
8 2231 2127 2230 2326 2323 2227 2322 2411
8 2232 2128 2231 2327 2324 2228 2323 2412
8 2234 2130 2233 2328 2326 2230 2325 2413
8 2235 2131 2234 2329 2327 2231 2326 2414
8 2237 2134 2236 2330 2329 2234 2328 2415
8 2259 2158 2260 2352 2332 2239 2331 2417
8 2257 2157 2259 2350 2334 2240 2332 2419
8 2240 2139 2239 2332 2335 2241 2333 2420
8 2334 2240 2335 2422 2242 2140 2243 2337
8 2335 2241 2336 2423 2243 2141 2244 2338
8 2337 2243 2338 2425 2247 2143 2246 2342
8 2338 2244 2339 2426 2246 2142 2245 2341
8 2341 2245 2340 2428 2249 2145 2248 2343
8 2342 2246 2341 2429 2250 2146 2249 2344
8 2344 2249 2343 2430 2252 2149 2251 2345
8 2188 2285 2347 2254 2284 2374 2432 2346
8 2347 2254 2346 2432 2271 2169 2270 2364
8 2365 2271 2170 2272 2433 2347 2255 2348
8 2286 2189 2285 2375 2348 2255 2347 2433
8 2349 2258 2351 2435 2257 2157 2259 2350
8 2349 2258 2164 2263 2435 2351 2264 2355
8 2259 2158 2261 2351 2352 2260 2354 2437
8 2356 2265 2354 2437 2264 2165 2261 2351
8 2441 2357 2264 2355 2362 2268 2168 2269
8 2356 2265 2165 2264 2442 2358 2266 2357
8 2443 2359 2266 2357 2361 2267 2166 2268
8 2370 2279 2360 2446 2280 2181 2267 2361
8 2362 2268 2182 2281 2447 2361 2280 2371
8 2180 2277 2368 2278 2270 2364 2449 2363
8 2271 2365 2273 2177 2364 2450 2366 2277
8 2372 2283 2186 2282 2451 2368 2276 2367
8 2178 2274 2367 2276 2277 2366 2451 2368
8 2283 2187 2278 2368 2370 2279 2369 2452
8 2372 2283 2370 2453 2282 2186 2280 2371
8 2284 2374 2455 2373 2201 2292 2380 2295
8 2375 2285 2197 2289 2456 2374 2292 2378
8 2376 2291 2204 2296 2457 2379 2297 2383
8 2288 2199 2291 2376 2377 2293 2379 2457
8 2198 2290 2378 2292 2293 2377 2458 2380
8 2293 2202 2294 2379 2380 2295 2381 2459
8 2384 2298 2381 2459 2297 2205 2294 2379
8 2386 2300 2384 2463 2299 2207 2297 2383
8 2387 2301 2385 2464 2300 2208 2298 2384
8 2389 2303 2387 2466 2302 2210 2300 2386
8 2390 2304 2388 2467 2303 2211 2301 2387
8 2392 2306 2390 2469 2305 2213 2303 2389
8 2393 2307 2391 2470 2306 2214 2304 2390
8 2395 2308 2393 2472 2310 2216 2306 2392
8 2308 2215 2309 2396 2393 2307 2394 2473
8 2395 2308 2216 2310 2475 2396 2311 2398
8 2396 2309 2217 2311 2476 2397 2312 2399
8 2398 2311 2219 2315 2478 2399 2314 2403
8 2399 2312 2218 2314 2479 2400 2313 2402
8 2317 2221 2316 2405 2402 2313 2401 2482
8 2403 2314 2222 2318 2483 2402 2317 2406
8 2320 2224 2319 2408 2405 2316 2404 2485
8 2321 2225 2320 2409 2406 2317 2405 2486
8 2323 2227 2322 2411 2408 2319 2407 2488
8 2324 2228 2323 2412 2409 2320 2408 2489
8 2326 2230 2325 2413 2411 2322 2410 2490
8 2327 2231 2326 2414 2412 2323 2411 2491
8 2329 2234 2328 2415 2414 2326 2413 2492
8 2417 2331 2260 2352 2494 2416 2353 2438
8 2350 2259 2352 2436 2419 2332 2417 2496
8 2332 2239 2331 2417 2420 2333 2418 2497
8 2334 2240 2332 2419 2422 2335 2420 2499
8 2420 2333 2421 2500 2335 2241 2336 2423
8 2422 2335 2423 2502 2337 2243 2338 2425
8 2423 2336 2424 2503 2338 2244 2339 2426
8 2425 2338 2426 2505 2342 2246 2341 2429
8 2426 2339 2427 2506 2341 2245 2340 2428
8 2429 2341 2428 2507 2344 2249 2343 2430
8 2432 2346 2284 2374 2509 2431 2373 2455
8 2432 2346 2431 2509 2364 2270 2363 2449
8 2375 2285 2374 2456 2433 2347 2432 2510
8 2347 2433 2365 2271 2432 2510 2450 2364
8 2350 2259 2351 2435 2436 2352 2437 2514
8 2440 2356 2437 2514 2355 2264 2351 2435
8 2352 2260 2354 2437 2438 2353 2439 2516
8 2356 2265 2358 2442 2437 2354 2439 2516
8 2440 2356 2264 2355 2518 2442 2357 2441
8 2519 2443 2357 2441 2447 2361 2268 2362
8 2443 2359 2444 2520 2357 2266 2358 2442
8 2443 2359 2267 2361 2520 2444 2360 2446
8 2446 2360 2279 2370 2523 2445 2369 2452
8 2453 2370 2446 2524 2371 2280 2361 2447
8 2449 2363 2448 2525 2368 2278 2369 2452
8 2366 2277 2364 2450 2451 2368 2449 2526
8 2372 2283 2368 2451 2453 2370 2452 2527
8 2455 2373 2295 2380 2529 2454 2382 2460
8 2456 2374 2292 2378 2530 2455 2380 2458
8 2377 2293 2379 2457 2458 2380 2459 2531
8 2463 2384 2459 2531 2383 2297 2379 2457
8 2533 2461 2382 2460 2459 2381 2295 2380
8 2464 2385 2461 2533 2384 2298 2381 2459
8 2466 2387 2464 2537 2386 2300 2384 2463
8 2467 2388 2465 2538 2387 2301 2385 2464
8 2469 2390 2467 2540 2389 2303 2387 2466
8 2470 2391 2468 2541 2390 2304 2388 2467
8 2472 2393 2470 2543 2392 2306 2390 2469
8 2393 2307 2394 2473 2470 2391 2471 2544
8 2395 2308 2396 2475 2472 2393 2473 2546
8 2396 2309 2397 2476 2473 2394 2474 2547
8 2475 2396 2311 2398 2549 2476 2399 2478
8 2476 2397 2312 2399 2550 2477 2400 2479
8 2478 2399 2314 2403 2552 2479 2402 2483
8 2479 2400 2313 2402 2553 2480 2401 2482
8 2405 2316 2404 2485 2482 2401 2481 2556
8 2406 2317 2405 2486 2483 2402 2482 2557
8 2408 2319 2407 2488 2485 2404 2484 2559
8 2409 2320 2408 2489 2486 2405 2485 2560
8 2411 2322 2410 2490 2488 2407 2487 2561
8 2412 2323 2411 2491 2489 2408 2488 2562
8 2414 2326 2413 2492 2491 2411 2490 2563
8 2513 2434 2493 2565 2438 2353 2416 2494
8 2496 2417 2352 2436 2567 2494 2438 2515
8 2494 2416 2495 2568 2417 2331 2418 2497
8 2419 2332 2417 2496 2499 2420 2497 2570
8 2497 2418 2498 2571 2420 2333 2421 2500
8 2499 2420 2500 2573 2422 2335 2423 2502
8 2500 2421 2501 2574 2423 2336 2424 2503
8 2502 2423 2503 2576 2425 2338 2426 2505
8 2503 2424 2504 2577 2426 2339 2427 2506
8 2505 2426 2506 2578 2429 2341 2428 2507
8 2509 2431 2373 2455 2580 2508 2454 2529
8 2509 2431 2508 2580 2449 2363 2448 2525
8 2432 2510 2581 2509 2374 2456 2530 2455
8 2432 2510 2450 2364 2509 2581 2526 2449
8 2583 2511 2434 2513 2516 2439 2353 2438
8 2436 2352 2437 2514 2515 2438 2516 2588
8 2440 2356 2442 2518 2514 2437 2516 2588
8 2442 2358 2444 2520 2516 2439 2517 2589
8 2519 2443 2520 2591 2441 2357 2442 2518
8 2519 2443 2361 2447 2591 2520 2446 2524
8 2446 2360 2445 2523 2520 2444 2521 2592
8 2525 2448 2522 2593 2452 2369 2445 2523
8 2524 2446 2370 2453 2594 2523 2452 2527
8 2526 2449 2525 2595 2451 2368 2452 2527
8 2534 2462 2528 2597 2460 2382 2454 2529
8 2530 2455 2380 2458 2598 2529 2460 2532
8 2599 2533 2460 2532 2531 2459 2380 2458
8 2537 2464 2533 2599 2463 2384 2459 2531
8 2534 2462 2382 2460 2601 2535 2461 2533
8 2538 2465 2535 2601 2464 2385 2461 2533
8 2540 2467 2538 2604 2466 2387 2464 2537
8 2541 2468 2539 2605 2467 2388 2465 2538
8 2543 2470 2541 2607 2469 2390 2467 2540
8 2470 2391 2471 2544 2541 2468 2542 2608
8 2472 2393 2473 2546 2543 2470 2544 2610
8 2473 2394 2474 2547 2544 2471 2545 2611
8 2475 2396 2476 2549 2546 2473 2547 2613
8 2476 2397 2477 2550 2547 2474 2548 2614
8 2549 2476 2399 2478 2616 2550 2479 2552
8 2479 2400 2480 2553 2550 2477 2551 2617
8 2552 2479 2402 2483 2619 2553 2482 2557
8 2482 2401 2481 2556 2553 2480 2554 2620
8 2485 2404 2484 2559 2556 2481 2555 2623
8 2486 2405 2485 2560 2557 2482 2556 2624
8 2488 2407 2487 2561 2559 2484 2558 2625
8 2489 2408 2488 2562 2560 2485 2559 2626
8 2491 2411 2490 2563 2562 2488 2561 2627
8 2513 2434 2512 2585 2565 2493 2564 2630
8 2586 2513 2565 2632 2515 2438 2494 2567
8 2565 2493 2566 2633 2494 2416 2495 2568
8 2567 2494 2568 2635 2496 2417 2497 2570
8 2568 2495 2569 2636 2497 2418 2498 2571
8 2570 2497 2571 2638 2499 2420 2500 2573
8 2571 2498 2572 2639 2500 2421 2501 2574
8 2573 2500 2574 2641 2502 2423 2503 2576
8 2574 2501 2575 2642 2503 2424 2504 2577
8 2576 2503 2577 2643 2505 2426 2506 2578
8 2597 2528 2579 2645 2529 2454 2508 2580
8 2580 2508 2579 2645 2525 2448 2522 2593
8 2581 2509 2455 2530 2646 2580 2529 2598
8 2581 2509 2580 2646 2526 2449 2525 2595
8 2583 2511 2582 2648 2513 2434 2512 2585
8 2583 2511 2439 2516 2648 2582 2517 2589
8 2649 2583 2513 2586 2588 2516 2438 2515
8 2589 2517 2444 2520 2653 2587 2521 2592
8 2518 2442 2520 2591 2588 2516 2589 2654
8 2593 2522 2590 2655 2523 2445 2521 2592
8 2524 2446 2523 2594 2591 2520 2592 2656
8 2595 2525 2593 2657 2527 2452 2523 2594
8 2602 2536 2596 2659 2534 2462 2528 2597
8 2600 2534 2597 2660 2532 2460 2529 2598
8 2600 2534 2460 2532 2661 2601 2533 2599
8 2604 2538 2601 2661 2537 2464 2533 2599
8 2602 2536 2462 2534 2663 2603 2535 2601
8 2601 2535 2465 2538 2663 2603 2539 2605
8 2607 2541 2605 2665 2540 2467 2538 2604
8 2608 2542 2606 2666 2541 2468 2539 2605
8 2543 2470 2544 2610 2607 2541 2608 2668
8 2544 2471 2545 2611 2608 2542 2609 2669
8 2546 2473 2547 2613 2610 2544 2611 2671
8 2547 2474 2548 2614 2611 2545 2612 2672
8 2549 2476 2550 2616 2613 2547 2614 2674
8 2550 2477 2551 2617 2614 2548 2615 2675
8 2552 2479 2553 2619 2616 2550 2617 2677
8 2553 2480 2554 2620 2617 2551 2618 2678
8 2557 2482 2556 2624 2619 2553 2620 2680
8 2556 2481 2555 2623 2620 2554 2621 2681
8 2559 2484 2558 2625 2623 2555 2622 2683
8 2560 2485 2559 2626 2624 2556 2623 2684
8 2562 2488 2561 2627 2626 2559 2625 2685
8 2690 2629 2564 2630 2650 2584 2512 2585
8 2586 2513 2585 2651 2632 2565 2630 2691
8 2630 2564 2631 2692 2565 2493 2566 2633
8 2632 2565 2633 2694 2567 2494 2568 2635
8 2633 2566 2634 2695 2568 2495 2569 2636
8 2635 2568 2636 2697 2570 2497 2571 2638
8 2636 2569 2637 2698 2571 2498 2572 2639
8 2638 2571 2639 2700 2573 2500 2574 2641
8 2639 2572 2640 2701 2574 2501 2575 2642
8 2641 2574 2642 2702 2576 2503 2577 2643
8 2597 2528 2596 2659 2645 2579 2644 2704
8 2645 2579 2644 2704 2593 2522 2590 2655
8 2660 2597 2645 2705 2598 2529 2580 2646
8 2646 2580 2645 2705 2595 2525 2593 2657
8 2650 2584 2512 2585 2707 2647 2582 2648
8 2648 2582 2517 2589 2707 2647 2587 2653
8 2649 2583 2648 2708 2586 2513 2585 2651
8 2649 2583 2516 2588 2708 2648 2589 2654
8 2655 2590 2652 2710 2592 2521 2587 2653
8 2654 2589 2520 2591 2711 2653 2592 2656
8 2657 2593 2655 2712 2594 2523 2592 2656
8 2602 2536 2603 2663 2659 2596 2658 2714
8 2662 2602 2659 2715 2600 2534 2597 2660
8 2662 2602 2534 2600 2717 2663 2601 2661
8 2661 2601 2538 2604 2717 2663 2605 2665
8 2666 2606 2664 2718 2605 2539 2603 2663
8 2668 2608 2666 2720 2607 2541 2605 2665
8 2608 2542 2609 2669 2666 2606 2667 2721
8 2610 2544 2611 2671 2668 2608 2669 2723
8 2611 2545 2612 2672 2669 2609 2670 2724
8 2613 2547 2614 2674 2671 2611 2672 2726
8 2614 2548 2615 2675 2672 2612 2673 2727
8 2616 2550 2617 2677 2674 2614 2675 2729
8 2617 2551 2618 2678 2675 2615 2676 2730
8 2619 2553 2620 2680 2677 2617 2678 2732
8 2620 2554 2621 2681 2678 2618 2679 2733
8 2624 2556 2623 2684 2680 2620 2681 2735
8 2681 2621 2555 2623 2736 2682 2622 2683
8 2626 2559 2625 2685 2684 2623 2683 2737
8 2688 2628 2584 2650 2740 2686 2647 2707
8 2688 2628 2687 2742 2650 2584 2629 2690
8 2690 2629 2689 2745 2630 2564 2631 2692
8 2746 2690 2630 2691 2709 2650 2585 2651
8 2691 2630 2692 2747 2632 2565 2633 2694
8 2692 2631 2693 2748 2633 2566 2634 2695
8 2694 2633 2695 2750 2635 2568 2636 2697
8 2695 2634 2696 2751 2636 2569 2637 2698
8 2697 2636 2698 2753 2638 2571 2639 2700
8 2698 2637 2699 2754 2639 2572 2640 2701
8 2700 2639 2701 2755 2641 2574 2642 2702
8 2659 2596 2658 2714 2704 2644 2703 2757
8 2704 2644 2703 2757 2655 2590 2652 2710
8 2660 2597 2659 2715 2705 2645 2704 2758
8 2705 2645 2704 2758 2657 2593 2655 2712
8 2759 2706 2647 2707 2710 2652 2587 2653
8 2709 2650 2585 2651 2760 2707 2648 2708
8 2708 2648 2589 2654 2760 2707 2653 2711
8 2712 2655 2710 2761 2656 2592 2653 2711
8 2763 2713 2658 2714 2718 2664 2603 2663
8 2662 2602 2663 2717 2715 2659 2714 2764
8 2720 2666 2718 2767 2665 2605 2663 2717
8 2768 2719 2664 2718 2721 2667 2606 2666
8 2668 2608 2669 2723 2720 2666 2721 2770
8 2669 2609 2670 2724 2721 2667 2722 2771
8 2671 2611 2672 2726 2723 2669 2724 2773
8 2672 2612 2673 2727 2724 2670 2725 2774
8 2674 2614 2675 2729 2726 2672 2727 2776
8 2675 2615 2676 2730 2727 2673 2728 2777
8 2677 2617 2678 2732 2729 2675 2730 2779
8 2678 2618 2679 2733 2730 2676 2731 2780
8 2680 2620 2681 2735 2732 2678 2733 2782
8 2733 2679 2621 2681 2783 2734 2682 2736
8 2735 2681 2623 2684 2784 2736 2683 2737
8 2740 2686 2647 2707 2787 2738 2706 2759
8 2688 2628 2686 2740 2742 2687 2739 2789
8 2743 2688 2650 2709 2790 2740 2707 2760
8 2742 2687 2741 2792 2690 2629 2689 2745
8 2743 2688 2742 2793 2709 2650 2690 2746
8 2745 2689 2744 2795 2692 2631 2693 2748
8 2746 2690 2745 2796 2691 2630 2692 2747
8 2747 2692 2748 2797 2694 2633 2695 2750
8 2748 2693 2749 2798 2695 2634 2696 2751
8 2750 2695 2751 2800 2697 2636 2698 2753
8 2751 2696 2752 2801 2698 2637 2699 2754
8 2753 2698 2754 2802 2700 2639 2701 2755
8 2763 2713 2756 2804 2714 2658 2703 2757
8 2759 2706 2652 2710 2804 2756 2703 2757
8 2715 2659 2714 2764 2758 2704 2757 2805
8 2758 2704 2757 2805 2712 2655 2710 2761
8 2806 2759 2707 2760 2761 2710 2653 2711
8 2765 2716 2762 2808 2718 2664 2713 2763
8 2809 2763 2714 2764 2767 2718 2663 2717
8 2765 2716 2664 2718 2811 2766 2719 2768
8 2813 2768 2718 2767 2770 2721 2666 2720
8 2814 2769 2719 2768 2771 2722 2667 2721
8 2723 2669 2724 2773 2770 2721 2771 2816
8 2724 2670 2725 2774 2771 2722 2772 2817
8 2726 2672 2727 2776 2773 2724 2774 2819
8 2727 2673 2728 2777 2774 2725 2775 2820
8 2729 2675 2730 2779 2776 2727 2777 2822
8 2730 2676 2731 2780 2777 2728 2778 2823
8 2732 2678 2733 2782 2779 2730 2780 2825
8 2780 2731 2679 2733 2826 2781 2734 2783
8 2782 2733 2681 2735 2827 2783 2736 2784
8 2830 2785 2738 2787 2804 2756 2706 2759
8 2789 2739 2686 2740 2832 2786 2738 2787
8 2790 2740 2707 2760 2833 2787 2759 2806
8 2742 2687 2739 2789 2792 2741 2788 2835
8 2743 2688 2740 2790 2793 2742 2789 2836
8 2792 2741 2791 2838 2745 2689 2744 2795
8 2793 2742 2792 2839 2746 2690 2745 2796
8 2795 2744 2794 2841 2748 2693 2749 2798
8 2796 2745 2795 2842 2747 2692 2748 2797
8 2797 2748 2798 2843 2750 2695 2751 2800
8 2798 2749 2799 2844 2751 2696 2752 2801
8 2800 2751 2801 2845 2753 2698 2754 2802
8 2808 2762 2803 2847 2763 2713 2756 2804
8 2809 2763 2804 2848 2764 2714 2757 2805
8 2806 2759 2710 2761 2848 2804 2757 2805
8 2765 2716 2766 2811 2808 2762 2807 2850
8 2810 2765 2808 2851 2767 2718 2763 2809
8 2810 2765 2718 2767 2852 2811 2768 2813
8 2811 2766 2719 2768 2853 2812 2769 2814
8 2855 2814 2768 2813 2816 2771 2721 2770
8 2856 2815 2769 2814 2817 2772 2722 2771
8 2773 2724 2774 2819 2816 2771 2817 2858
8 2774 2725 2775 2820 2817 2772 2818 2859
8 2776 2727 2777 2822 2819 2774 2820 2861
8 2777 2728 2778 2823 2820 2775 2821 2862
8 2779 2730 2780 2825 2822 2777 2823 2864
8 2823 2778 2731 2780 2865 2824 2781 2826
8 2825 2780 2733 2782 2866 2826 2783 2827
8 2869 2828 2785 2830 2847 2803 2756 2804
8 2871 2829 2786 2832 2830 2785 2738 2787
8 2872 2830 2787 2833 2848 2804 2759 2806
8 2789 2739 2786 2832 2835 2788 2831 2874
8 2836 2789 2740 2790 2875 2832 2787 2833
8 2792 2741 2788 2835 2838 2791 2834 2877
8 2793 2742 2789 2836 2839 2792 2835 2878
8 2838 2791 2837 2880 2795 2744 2794 2841
8 2839 2792 2838 2881 2796 2745 2795 2842
8 2841 2794 2840 2882 2798 2749 2799 2844
8 2842 2795 2841 2883 2797 2748 2798 2843
8 2843 2798 2844 2884 2800 2751 2801 2845
8 2886 2846 2803 2847 2850 2807 2762 2808
8 2851 2808 2847 2887 2809 2763 2804 2848
8 2850 2807 2766 2811 2889 2849 2812 2853
8 2810 2765 2811 2852 2851 2808 2850 2890
8 2852 2811 2768 2813 2891 2853 2814 2855
8 2853 2812 2769 2814 2892 2854 2815 2856
8 2894 2856 2814 2855 2858 2817 2771 2816
8 2817 2772 2818 2859 2856 2815 2857 2895
8 2819 2774 2820 2861 2858 2817 2859 2897
8 2820 2775 2821 2862 2859 2818 2860 2898
8 2822 2777 2823 2864 2861 2820 2862 2900
8 2823 2778 2824 2865 2862 2821 2863 2901
8 2864 2823 2780 2825 2902 2865 2826 2866
8 2904 2867 2828 2869 2886 2846 2803 2847
8 2869 2828 2868 2906 2830 2785 2829 2871
8 2907 2869 2830 2872 2887 2847 2804 2848
8 2871 2829 2870 2909 2832 2786 2831 2874
8 2910 2871 2832 2875 2872 2830 2787 2833
8 2835 2788 2831 2874 2877 2834 2873 2912
8 2836 2789 2832 2875 2878 2835 2874 2913
8 2877 2834 2876 2915 2838 2791 2837 2880
8 2839 2792 2835 2878 2881 2838 2877 2916
8 2880 2837 2879 2917 2841 2794 2840 2882
8 2881 2838 2880 2918 2842 2795 2841 2883
8 2883 2841 2882 2919 2843 2798 2844 2884
8 2921 2885 2846 2886 2889 2849 2807 2850
8 2922 2886 2847 2887 2890 2850 2808 2851
8 2889 2849 2812 2853 2924 2888 2854 2892
8 2890 2850 2811 2852 2925 2889 2853 2891
8 2891 2853 2814 2855 2926 2892 2856 2894
8 2892 2854 2815 2856 2927 2893 2857 2895
8 2858 2817 2859 2897 2894 2856 2895 2929
8 2859 2818 2860 2898 2895 2857 2896 2930
8 2861 2820 2862 2900 2897 2859 2898 2932
8 2862 2821 2863 2901 2898 2860 2899 2933
8 2864 2823 2865 2902 2900 2862 2901 2934
8 2904 2867 2846 2886 2936 2903 2885 2921
8 2904 2867 2903 2936 2869 2828 2868 2906
8 2937 2904 2869 2907 2922 2886 2847 2887
8 2906 2868 2905 2939 2871 2829 2870 2909
8 2907 2869 2906 2940 2872 2830 2871 2910
8 2909 2870 2908 2942 2874 2831 2873 2912
8 2910 2871 2909 2943 2875 2832 2874 2913
8 2912 2873 2911 2945 2877 2834 2876 2915
8 2878 2835 2874 2913 2916 2877 2912 2946
8 2915 2876 2914 2947 2880 2837 2879 2917
8 2916 2877 2915 2948 2881 2838 2880 2918
8 2918 2880 2917 2949 2883 2841 2882 2919
8 2921 2885 2849 2889 2951 2920 2888 2924
8 2952 2921 2886 2922 2925 2889 2850 2890
8 2924 2888 2854 2892 2954 2923 2893 2927
8 2925 2889 2853 2891 2955 2924 2892 2926
8 2926 2892 2856 2894 2956 2927 2895 2929
8 2895 2857 2896 2930 2927 2893 2928 2957
8 2897 2859 2898 2932 2929 2895 2930 2959
8 2898 2860 2899 2933 2930 2896 2931 2960
8 2900 2862 2901 2934 2932 2898 2933 2961
8 2936 2903 2885 2921 2963 2935 2920 2951
8 2936 2903 2935 2963 2906 2868 2905 2939
8 2937 2904 2886 2922 2964 2936 2921 2952
8 2937 2904 2936 2964 2907 2869 2906 2940
8 2939 2905 2938 2966 2909 2870 2908 2942
8 2940 2906 2939 2967 2910 2871 2909 2943
8 2942 2908 2941 2969 2912 2873 2911 2945
8 2943 2909 2942 2970 2913 2874 2912 2946
8 2945 2911 2944 2971 2915 2876 2914 2947
8 2946 2912 2945 2972 2916 2877 2915 2948
8 2948 2915 2947 2973 2918 2880 2917 2949
8 2951 2920 2888 2924 2975 2950 2923 2954
8 2952 2921 2889 2925 2976 2951 2924 2955
8 2927 2893 2928 2957 2954 2923 2953 2978
8 2955 2924 2892 2926 2979 2954 2927 2956
8 2929 2895 2930 2959 2956 2927 2957 2980
8 2930 2896 2931 2960 2957 2928 2958 2981
8 2932 2898 2933 2961 2959 2930 2960 2982
8 2951 2920 2950 2975 2963 2935 2962 2984
8 2963 2935 2962 2984 2939 2905 2938 2966
8 2964 2936 2921 2952 2985 2963 2951 2976
8 2964 2936 2963 2985 2940 2906 2939 2967
8 2966 2938 2965 2987 2942 2908 2941 2969
8 2967 2939 2966 2988 2943 2909 2942 2970
8 2969 2941 2968 2989 2945 2911 2944 2971
8 2970 2942 2969 2990 2946 2912 2945 2972
8 2972 2945 2971 2991 2948 2915 2947 2973
8 2954 2923 2953 2978 2975 2950 2974 2993
8 2976 2951 2924 2955 2994 2975 2954 2979
8 2957 2928 2958 2981 2978 2953 2977 2995
8 2956 2927 2957 2980 2979 2954 2978 2996
8 2959 2930 2960 2982 2980 2957 2981 2997
8 2984 2962 2983 2999 2966 2938 2965 2987
8 2975 2950 2974 2993 2984 2962 2983 2999
8 2976 2951 2975 2994 2985 2963 2984 3000
8 2985 2963 2984 3000 2967 2939 2966 2988
8 2987 2965 2986 3001 2969 2941 2968 2989
8 2988 2966 2987 3002 2970 2942 2969 2990
8 2990 2969 2989 3003 2972 2945 2971 2991
8 2978 2953 2977 2995 2993 2974 2992 3004
8 2979 2954 2978 2996 2994 2975 2993 3005
8 2980 2957 2981 2997 2996 2978 2995 3006
8 2974 2993 2999 2983 2992 3004 3007 2998
8 2983 2999 2987 2965 2998 3007 3001 2986
8 3000 2984 2999 3008 2988 2966 2987 3002
8 2994 2975 2993 3005 3000 2984 2999 3008
8 3002 2987 3001 3009 2990 2969 2989 3003
8 2996 2978 2995 3006 3005 2993 3004 3010
8 3005 2993 3004 3010 3008 2999 3007 3011
8 3008 2999 3007 3011 3002 2987 3001 3009

CELL_TYPES 1910
12
12
12
12
12
12
12
12
12
12
12
12
12
12
12
12
12
12
12
12
12
12
12
12
12
12
12
12
12
12
12
12
12
12
12
12
12
12
12
12
12
12
12
12
12
12
12
12
12
12
12
12
12
12
12
12
12
12
12
12
12
12
12
12
12
12
12
12
12
12
12
12
12
12
12
12
12
12
12
12
12
12
12
12
12
12
12
12
12
12
12
12
12
12
12
12
12
12
12
12
12
12
12
12
12
12
12
12
12
12
12
12
12
12
12
12
12
12
12
12
12
12
12
12
12
12
12
12
12
12
12
12
12
12
12
12
12
12
12
12
12
12
12
12
12
12
12
12
12
12
12
12
12
12
12
12
12
12
12
12
12
12
12
12
12
12
12
12
12
12
12
12
12
12
12
12
12
12
12
12
12
12
12
12
12
12
12
12
12
12
12
12
12
12
12
12
12
12
12
12
12
12
12
12
12
12
12
12
12
12
12
12
12
12
12
12
12
12
12
12
12
12
12
12
12
12
12
12
12
12
12
12
12
12
12
12
12
12
12
12
12
12
12
12
12
12
12
12
12
12
12
12
12
12
12
12
12
12
12
12
12
12
12
12
12
12
12
12
12
12
12
12
12
12
12
12
12
12
12
12
12
12
12
12
12
12
12
12
12
12
12
12
12
12
12
12
12
12
12
12
12
12
12
12
12
12
12
12
12
12
12
12
12
12
12
12
12
12
12
12
12
12
12
12
12
12
12
12
12
12
12
12
12
12
12
12
12
12
12
12
12
12
12
12
12
12
12
12
12
12
12
12
12
12
12
12
12
12
12
12
12
12
12
12
12
12
12
12
12
12
12
12
12
12
12
12
12
12
12
12
12
12
12
12
12
12
12
12
12
12
12
12
12
12
12
12
12
12
12
12
12
12
12
12
12
12
12
12
12
12
12
12
12
12
12
12
12
12
12
12
12
12
12
12
12
12
12
12
12
12
12
12
12
12
12
12
12
12
12
12
12
12
12
12
12
12
12
12
12
12
12
12
12
12
12
12
12
12
12
12
12
12
12
12
12
12
12
12
12
12
12
12
12
12
12
12
12
12
12
12
12
12
12
12
12
12
12
12
12
12
12
12
12
12
12
12
12
12
12
12
12
12
12
12
12
12
12
12
12
12
12
12
12
12
12
12
12
12
12
12
12
12
12
12
12
12
12
12
12
12
12
12
12
12
12
12
12
12
12
12
12
12
12
12
12
12
12
12
12
12
12
12
12
12
12
12
12
12
12
12
12
12
12
12
12
12
12
12
12
12
12
12
12
12
12
12
12
12
12
12
12
12
12
12
12
12
12
12
12
12
12
12
12
12
12
12
12
12
12
12
12
12
12
12
12
12
12
12
12
12
12
12
12
12
12
12
12
12
12
12
12
12
12
12
12
12
12
12
12
12
12
12
12
12
12
12
12
12
12
12
12
12
12
12
12
12
12
12
12
12
12
12
12
12
12
12
12
12
12
12
12
12
12
12
12
12
12
12
12
12
12
12
12
12
12
12
12
12
12
12
12
12
12
12
12
12
12
12
12
12
12
12
12
12
12
12
12
12
12
12
12
12
12
12
12
12
12
12
12
12
12
12
12
12
12
12
12
12
12
12
12
12
12
12
12
12
12
12
12
12
12
12
12
12
12
12
12
12
12
12
12
12
12
12
12
12
12
12
12
12
12
12
12
12
12
12
12
12
12
12
12
12
12
12
12
12
12
12
12
12
12
12
12
12
12
12
12
12
12
12
12
12
12
12
12
12
12
12
12
12
12
12
12
12
12
12
12
12
12
12
12
12
12
12
12
12
12
12
12
12
12
12
12
12
12
12
12
12
12
12
12
12
12
12
12
12
12
12
12
12
12
12
12
12
12
12
12
12
12
12
12
12
12
12
12
12
12
12
12
12
12
12
12
12
12
12
12
12
12
12
12
12
12
12
12
12
12
12
12
12
12
12
12
12
12
12
12
12
12
12
12
12
12
12
12
12
12
12
12
12
12
12
12
12
12
12
12
12
12
12
12
12
12
12
12
12
12
12
12
12
12
12
12
12
12
12
12
12
12
12
12
12
12
12
12
12
12
12
12
12
12
12
12
12
12
12
12
12
12
12
12
12
12
12
12
12
12
12
12
12
12
12
12
12
12
12
12
12
12
12
12
12
12
12
12
12
12
12
12
12
12
12
12
12
12
12
12
12
12
12
12
12
12
12
12
12
12
12
12
12
12
12
12
12
12
12
12
12
12
12
12
12
12
12
12
12
12
12
12
12
12
12
12
12
12
12
12
12
12
12
12
12
12
12
12
12
12
12
12
12
12
12
12
12
12
12
12
12
12
12
12
12
12
12
12
12
12
12
12
12
12
12
12
12
12
12
12
12
12
12
12
12
12
12
12
12
12
12
12
12
12
12
12
12
12
12
12
12
12
12
12
12
12
12
12
12
12
12
12
12
12
12
12
12
12
12
12
12
12
12
12
12
12
12
12
12
12
12
12
12
12
12
12
12
12
12
12
12
12
12
12
12
12
12
12
12
12
12
12
12
12
12
12
12
12
12
12
12
12
12
12
12
12
12
12
12
12
12
12
12
12
12
12
12
12
12
12
12
12
12
12
12
12
12
12
12
12
12
12
12
12
12
12
12
12
12
12
12
12
12
12
12
12
12
12
12
12
12
12
12
12
12
12
12
12
12
12
12
12
12
12
12
12
12
12
12
12
12
12
12
12
12
12
12
12
12
12
12
12
12
12
12
12
12
12
12
12
12
12
12
12
12
12
12
12
12
12
12
12
12
12
12
12
12
12
12
12
12
12
12
12
12
12
12
12
12
12
12
12
12
12
12
12
12
12
12
12
12
12
12
12
12
12
12
12
12
12
12
12
12
12
12
12
12
12
12
12
12
12
12
12
12
12
12
12
12
12
12
12
12
12
12
12
12
12
12
12
12
12
12
12
12
12
12
12
12
12
12
12
12
12
12
12
12
12
12
12
12
12
12
12
12
12
12
12
12
12
12
12
12
12
12
12
12
12
12
12
12
12
12
12
12
12
12
12
12
12
12
12
12
12
12
12
12
12
12
12
12
12
12
12
12
12
12
12
12
12
12
12
12
12
12
12
12
12
12
12
12
12
12
12
12
12
12
12
12
12
12
12
12
12
12
12
12
12
12
12
12
12
12
12
12
12
12
12
12
12
12
12
12
12
12
12
12
12
12
12
12
12
12
12
12
12
12
12
12
12
12
12
12
12
12
12
12
12
12
12
12
12
12
12
12
12
12
12
12
12
12
12
12
12
12
12
12
12
12
12
12
12
12
12
12
12
12
12
12
12
12
12
12
12
12
12
12
12
12
12
12
12
12
12
12
12
12
12
12
12
12
12
12
12
12
12
12
12
12
12
12
12
12
12
12
12
12
12
12
12
12
12
12
12
12
12
12
12
12
12
12
12
12
12
12
12
12
12
12
12
12
12
12
12
12
12
12
12
12
12
12
12
12
12
12
12
12
12
12
12
12
12
12
12
12
12
12
12
12
12
12
12
12
12
12
12
12
12
12
12
12
12
12
12
12
12
12
12
12
12
12
12
12
12
12
12
12
12
12
12
12
12
12
12
12
12
12
12
12
12
12
12
12
12
12
12
12
12
12
12
12
12
12
12
12
12
12
12
12
12
12
12
12
12
12
12
12
12
12
12
12
12
12
12
12
12
12
12
12
12
12
12
12
12
12
12
12
12
12
12
12
12
12
12
12
12
12
12
12
12
12
12
12
12
12
12
12
12
12
12
12
12
12
12
12
12
12
12
12
12
12
12
12
12
12
12
12
12
12
12
12
12
12
12
12
12
12
12
12
12
12
12
12
12
12
12
12
12
12
12
12
12
12
12
12
12
12
12
12
12
12
12
12
12
12
12
12
12
12
12
12
12
12
12
12
12
12
12
12
12
12
12
12
12
12
12
12
12
12
12
12
12
12
12
12
12
12
12
12
12
12
12
12
12
12
12
12
12
12
12
12
12
12
12
12
12
12
12
12
12
12
12
12
12
12
12
12
12
12
12
12
12
12
12
12
12
12
12
12
12
12
12
12
12
12
12
12
12
12
12
12
12
12
12
12
12
12
12
12
12
12
12
12
12
12
12
12
12
12
12
12
12
12
12
12
12
12
12
12
12
12
12
12
12
12
12
12
12
12
12
12
12
12
12
12
12
12
12
12
12
12
12
12
12
12
12
12
12
12
12
12
12
12
12
12
12
12
12
12
12
12
12
12
12
12
12
12
12
12
12
12
12
12
12
12
12
12
12
12
12
12
12
12

POINT_DATA 3012
SCALARS Jp_lamdaP float 4
LOOKUP_TABLE default
1 1 1 1
1 1 1 1
1 1 1 1
1 1 1 1
1 1 1 1
1 1 1 1
0.999999 1 1 0.999999
1 1 1 1
1 1 1 1
1 1 1 1
1 1 1 1
1 1 1 1
1 1 1 1
1 1 1 1
1 1 1 1
1 1 1 1
1 1 1 1
1 1 1 1
0.999999 1 1 0.999999
1 1 1 1
1 1 1 1
1 1 1 1
0.999996 1 1 0.999996
0.999998 1 1 0.999998
1 1 1 1
1 1 1 1
0.999993 1 1 0.999993
1 1 1 1
1 1 1 1
1 1 1 1
1 1 1 1
1 1 1 1
1 1 1 1
1 1 1 1
1 1 1 1
1 1 1 1
1 1 1 1
1 1 1 1
0.999997 1 1 0.999997
1 1 1 1
1 1 1 1
1 1 1 1
1 1 1 1
1 1 1 1
0.999998 1 1 0.999998
1 1 1 1
1 1 1 1
1 1 1 1
1 1 1 1
1 1 1 1
1 1 1 1
1 1 1 1
1 1 1 1
1 1 1 1
1 1 1 1
0.999996 1 1 0.999996
1 1 1 1
0.999999 1 1 0.999999
0.999992 1 1 0.999992
1 1 1 1
1 1 1 1
0.999998 1 1 0.999998
0.999994 1 1 0.999994
0.999997 1 1 0.999997
0.999981 1 1 0.999981
0.999987 1 1 0.999987
1 1 1 1
1 1 1 1
0.999996 1 1 0.999996
0.999969 1 1 0.999969
1 1 1 1
1 1 1 1
1 1 1 1
1 1 1 1
1 1 1 1
1 1 1 1
1 1 1 1
1 1 1 1
1 1 1 1
1 1 1 1
0.999998 1 1 0.999998
1 1 1 1
1 1 1 1
1 1 1 1
1 1 1 1
0.999984 1 1 0.999984
1 1 1 1
0.999995 1 1 0.999995
0.999999 1 1 0.999999
0.999979 1 1 0.999979
1 1 1 1
1 1 1 1
1 1 1 1
1 1 1 1
1 1 1 1
1 1 1 1
0.999999 1 1 0.999999
1 1 1 1
1 1 1 1
1 1 1 1
0.999998 1 1 0.999998
0.999999 1 1 0.999999
0.999972 1 1 0.999972
1 1 1 1
0.999974 1 1 0.999974
1 1 1 1
1 1 1 1
1 1 1 1
1 1 1 1
0.999996 1 1 0.999996
0.999999 1 1 0.999999
1 1 1 1
0.999992 1 1 0.999992
1 1 1 1
1 1 1 1
0.999995 1 1 0.999995
0.999995 1 1 0.999995
1 1 1 1
1 1 1 1
0.999997 1 1 0.999997
0.999979 1 1 0.999979
0.999995 1 1 0.999995
0.999988 1 1 0.999988
0.999969 1 1 0.999969
0.999998 1 1 0.999998
0.999993 1 1 0.999993
0.999972 1 1 0.999972
0.999975 1 1 0.999975
0.999982 1 1 0.999982
0.999958 1 1 0.999958
1 1 1 1
0.999965 1 1 0.999965
1 1 1 1
0.999998 1 1 0.999998
0.999972 1 1 0.999972
0.999957 1 1 0.999957
1 1 1 1
1 1 1 1
1 1 1 1
1 1 1 1
1 1 1 1
1 1 1 1
1 1 1 1
1 1 1 1
0.999998 1 1 0.999998
1 1 1 1
1 1 1 1
1 1 1 1
1 1 1 1
0.999985 1 1 0.999985
1 1 1 1
0.999996 1 1 0.999996
0.999999 1 1 0.999999
0.999978 1 1 0.999978
1 1 1 1
1 1 1 1
1 1 1 1
0.99998 1 1 0.99998
0.99999 1 1 0.99999
0.99996 1 1 0.99996
1 1 1 1
0.999972 1 1 0.999972
0.999982 1 1 0.999982
0.999967 1 1 0.999967
1 1 1 1
1 1 1 1
1 1 1 1
1 1 1 1
1 1 1 1
1 1 1 1
1 1 1 1
1 1 1 1
0.999999 1 1 0.999999
1 1 1 1
1 1 1 1
0.999998 1 1 0.999998
0.999999 1 1 0.999999
0.999972 1 1 0.999972
1 1 1 1
0.999974 1 1 0.999974
0.999998 1 1 0.999998
0.999974 1 1 0.999974
0.999972 1 1 0.999972
0.999957 1 1 0.999957
0.999977 1 1 0.999977
0.999956 1 1 0.999956
1 1 1 1
1 1 1 1
0.999993 1 1 0.999993
0.999995 1 1 0.999995
1 1 1 1
1 1 1 1
0.999998 1 1 0.999998
0.999978 1 1 0.999978
0.999989 1 1 0.999989
0.999995 1 1 0.999995
0.999969 1 1 0.999969
0.999998 1 1 0.999998
0.999993 1 1 0.999993
0.999969 1 1 0.999969
0.999976 1 1 0.999976
1 1 1 1
1 1 1 1
0.999998 1 1 0.999998
0.999982 1 1 0.999982
0.999956 1 1 0.999956
0.999971 1 1 0.999971
0.999967 1 1 0.999967
0.999957 1 1 0.999957
1 1 1 1
1 1 1 1
0.999972 1 1 0.999972
0.999972 1 1 0.999972
0.999954 1 1 0.999954
0.999951 1 1 0.999951
0.999963 1 1 0.999963
0.999948 1 1 0.999948
1 1 1 1
0.999955 1 1 0.999955
0.999999 1 1 0.999999
0.999975 1 1 0.999975
0.999961 1 1 0.999961
0.999953 1 1 0.999953
1 1 1 1
1 1 1 1
0.999986 1 1 0.999986
1 1 1 1
1 1 1 1
1 1 1 1
1 1 1 1
0.999985 1 1 0.999985
1 1 1 1
0.999999 1 1 0.999999
0.999996 1 1 0.999996
0.999977 1 1 0.999977
1 1 1 1
1 1 1 1
1 1 1 1
0.99998 1 1 0.99998
0.999991 1 1 0.999991
0.99996 1 1 0.99996
1 1 1 1
0.999973 1 1 0.999973
0.999982 1 1 0.999982
0.999966 1 1 0.999966
1 1 1 1
1 1 1 1
1 1 1 1
0.999988 1 1 0.999988
0.999958 1 1 0.999958
0.999967 1 1 0.999967
0.999949 1 1 0.999949
0.999985 1 1 0.999985
0.99996 1 1 0.99996
0.999966 1 1 0.999966
0.999958 1 1 0.999958
1 1 1 1
1 1 1 1
1 1 1 1
1 1 1 1
1 1 1 1
1 1 1 1
1 1 1 1
1 1 1 1
1 1 1 1
1 1 1 1
1 1 1 1
0.999974 1 1 0.999974
0.999972 1 1 0.999972
0.999998 1 1 0.999998
1 1 1 1
0.999998 1 1 0.999998
0.999974 1 1 0.999974
0.999972 1 1 0.999972
0.999957 1 1 0.999957
0.999977 1 1 0.999977
0.999956 1 1 0.999956
0.999974 1 1 0.999974
0.999961 1 1 0.999961
0.999955 1 1 0.999955
0.999951 1 1 0.999951
0.999957 1 1 0.999957
0.99995 1 1 0.99995
0.999998 1 1 0.999998
0.999993 1 1 0.999993
0.999966 1 1 0.999966
0.999977 1 1 0.999977
1 1 1 1
1 1 1 1
0.999997 1 1 0.999997
0.999983 1 1 0.999983
0.999954 1 1 0.999954
0.999968 1 1 0.999968
0.999971 1 1 0.999971
0.999957 1 1 0.999957
1 1 1 1
1 1 1 1
0.999971 1 1 0.999971
0.999972 1 1 0.999972
0.999954 1 1 0.999954
0.999953 1 1 0.999953
1 1 1 1
0.999999 1 1 0.999999
0.999976 1 1 0.999976
0.999964 1 1 0.999964
0.999947 1 1 0.999947
0.999959 1 1 0.999959
0.999955 1 1 0.999955
0.999953 1 1 0.999953
1 1 1 1
0.999984 1 1 0.999984
1 1 1 1
0.999959 1 1 0.999959
0.999952 1 1 0.999952
0.999947 1 1 0.999947
0.999943 1 1 0.999943
0.999952 1 1 0.999952
0.999946 1 1 0.999946
1 1 1 1
0.999952 1 1 0.999952
0.999981 1 1 0.999981
0.999961 1 1 0.999961
0.999953 1 1 0.999953
0.999955 1 1 0.999955
1 1 1 1
0.999985 1 1 0.999985
0.999983 1 1 0.999983
0.999972 1 1 0.999972
0.999979 1 1 0.999979
1 1 1 1
1 1 1 1
1 1 1 1
0.999991 1 1 0.999991
0.99996 1 1 0.99996
1 1 1 1
0.999982 1 1 0.999982
0.999974 1 1 0.999974
0.999965 1 1 0.999965
1 1 1 1
1 1 1 1
1 1 1 1
0.999988 1 1 0.999988
0.999957 1 1 0.999957
0.999967 1 1 0.999967
0.999949 1 1 0.999949
0.999985 1 1 0.999985
0.999962 1 1 0.999962
0.999965 1 1 0.999965
0.999959 1 1 0.999959
1 1 1 1
1 1 1 1
0.999987 1 1 0.999987
0.999988 1 1 0.999988
0.999971 1 1 0.999971
0.99995 1 1 0.99995
0.999954 1 1 0.999954
0.999947 1 1 0.999947
0.999967 1 1 0.999967
0.999955 1 1 0.999955
0.999952 1 1 0.999952
1 1 1 1
0.99999 1 1 0.99999
1 1 1 1
1 1 1 1
1 1 1 1
1 1 1 1
1 1 1 1
1 1 1 1
1 1 1 1
1 1 1 1
1 1 1 1
1 1 1 1
1 1 1 1
1 1 1 1
1 1 1 1
0.999977 1 1 0.999977
0.999972 1 1 0.999972
0.999956 1 1 0.999956
0.999957 1 1 0.999957
0.999974 1 1 0.999974
0.999998 1 1 0.999998
0.999974 1 1 0.999974
0.999961 1 1 0.999961
0.999955 1 1 0.999955
0.999951 1 1 0.999951
0.999957 1 1 0.999957
0.99995 1 1 0.99995
0.999961 1 1 0.999961
0.999956 1 1 0.999956
0.999949 1 1 0.999949
0.999948 1 1 0.999948
0.999951 1 1 0.999951
0.99995 1 1 0.99995
0.99997 1 1 0.99997
0.999972 1 1 0.999972
0.999954 1 1 0.999954
0.999955 1 1 0.999955
1 1 1 1
0.999999 1 1 0.999999
0.999978 1 1 0.999978
0.999964 1 1 0.999964
0.999947 1 1 0.999947
0.999955 1 1 0.999955
0.999958 1 1 0.999958
0.999953 1 1 0.999953
1 1 1 1
0.999983 1 1 0.999983
1 1 1 1
0.999958 1 1 0.999958
0.999951 1 1 0.999951
0.999946 1 1 0.999946
0.999944 1 1 0.999944
0.999999 1 1 0.999999
0.999981 1 1 0.999981
0.999962 1 1 0.999962
0.999953 1 1 0.999953
0.999946 1 1 0.999946
0.999953 1 1 0.999953
0.999952 1 1 0.999952
0.999956 1 1 0.999956
0.999985 1 1 0.999985
0.99997 1 1 0.99997
1 1 1 1
0.999983 1 1 0.999983
0.999951 1 1 0.999951
0.999943 1 1 0.999943
0.999942 1 1 0.999942
0.999942 1 1 0.999942
0.99995 1 1 0.99995
0.999947 1 1 0.999947
0.999984 1 1 0.999984
0.999955 1 1 0.999955
0.999965 1 1 0.999965
0.999953 1 1 0.999953
0.999951 1 1 0.999951
0.999958 1 1 0.999958
1 1 1 1
0.999984 1 1 0.999984
0.99997 1 1 0.99997
0.99997 1 1 0.99997
0.999962 1 1 0.999962
1 1 1 1
0.999957 1 1 0.999957
1 1 1 1
1 1 1 1
0.999988 1 1 0.999988
0.999967 1 1 0.999967
0.999949 1 1 0.999949
0.999985 1 1 0.999985
0.999965 1 1 0.999965
0.999963 1 1 0.999963
0.999961 1 1 0.999961
1 1 1 1
1 1 1 1
0.999987 1 1 0.999987
0.999988 1 1 0.999988
0.99997 1 1 0.99997
0.999949 1 1 0.999949
0.999954 1 1 0.999954
0.999946 1 1 0.999946
0.999967 1 1 0.999967
0.999956 1 1 0.999956
0.999952 1 1 0.999952
1 1 1 1
0.999989 1 1 0.999989
0.999968 1 1 0.999968
0.999971 1 1 0.999971
0.999962 1 1 0.999962
0.99995 1 1 0.99995
0.99995 1 1 0.99995
0.999954 1 1 0.999954
0.999954 1 1 0.999954
0.999946 1 1 0.999946
1 1 1 1
0.999987 1 1 0.999987
0.999989 1 1 0.999989
0.999975 1 1 0.999975
0.999991 1 1 0.999991
1 1 1 1
1 1 1 1
1 1 1 1
1 1 1 1
1 1 1 1
1 1 1 1
1 1 1 1
1 1 1 1
1 1 1 1
1 1 1 1
1 1 1 1
1 1 1 1
1 1 1 1
1 1 1 1
1 1 1 1
0.999957 1 1 0.999957
0.999954 1 1 0.999954
0.99995 1 1 0.99995
0.999952 1 1 0.999952
0.999961 1 1 0.999961
0.999974 1 1 0.999974
0.999961 1 1 0.999961
0.999957 1 1 0.999957
0.999949 1 1 0.999949
0.999947 1 1 0.999947
0.999951 1 1 0.999951
0.999949 1 1 0.999949
0.999957 1 1 0.999957
0.999955 1 1 0.999955
0.999945 1 1 0.999945
0.999943 1 1 0.999943
0.999952 1 1 0.999952
0.99995 1 1 0.99995
0.999957 1 1 0.999957
0.999951 1 1 0.999951
0.999945 1 1 0.999945
0.999944 1 1 0.999944
0.999999 1 1 0.999999
0.999981 1 1 0.999981
0.999963 1 1 0.999963
0.999954 1 1 0.999954
0.999946 1 1 0.999946
0.999952 1 1 0.999952
0.999952 1 1 0.999952
0.999956 1 1 0.999956
0.999985 1 1 0.999985
0.999968 1 1 0.999968
1 1 1 1
0.999983 1 1 0.999983
0.999951 1 1 0.999951
0.999943 1 1 0.999943
0.99994 1 1 0.99994
0.999942 1 1 0.999942
0.999984 1 1 0.999984
0.999966 1 1 0.999966
0.999953 1 1 0.999953
0.99995 1 1 0.99995
0.999947 1 1 0.999947
0.999951 1 1 0.999951
0.999955 1 1 0.999955
0.999959 1 1 0.999959
0.99997 1 1 0.99997
0.999961 1 1 0.999961
0.999969 1 1 0.999969
0.999999 1 1 0.999999
0.999984 1 1 0.999984
0.999947 1 1 0.999947
0.999939 1 1 0.999939
0.999943 1 1 0.999943
0.999952 1 1 0.999952
0.999969 1 1 0.999969
0.999962 1 1 0.999962
0.999956 1 1 0.999956
0.999946 1 1 0.999946
0.999951 1 1 0.999951
0.999998 1 1 0.999998
0.999986 1 1 0.999986
0.999969 1 1 0.999969
0.999961 1 1 0.999961
0.999958 1 1 0.999958
0.999956 1 1 0.999956
1 1 1 1
1 1 1 1
0.999949 1 1 0.999949
0.999988 1 1 0.999988
0.999987 1 1 0.999987
0.999969 1 1 0.999969
0.999954 1 1 0.999954
0.999946 1 1 0.999946
0.999967 1 1 0.999967
0.999953 1 1 0.999953
0.999956 1 1 0.999956
1 1 1 1
0.999989 1 1 0.999989
0.999969 1 1 0.999969
0.999971 1 1 0.999971
0.999961 1 1 0.999961
0.99995 1 1 0.99995
0.999949 1 1 0.999949
0.999955 1 1 0.999955
0.999953 1 1 0.999953
0.999945 1 1 0.999945
0.999989 1 1 0.999989
0.999969 1 1 0.999969
0.999957 1 1 0.999957
0.999959 1 1 0.999959
0.999955 1 1 0.999955
0.999963 1 1 0.999963
0.999947 1 1 0.999947
0.999956 1 1 0.999956
0.999946 1 1 0.999946
0.999937 1 1 0.999937
1 1 1 1
0.999989 1 1 0.999989
0.99997 1 1 0.99997
0.999988 1 1 0.999988
0.999991 1 1 0.999991
0.999973 1 1 0.999973
0.999962 1 1 0.999962
0.999971 1 1 0.999971
0.99999 1 1 0.99999
1 1 1 1
1 1 1 1
1 1 1 1
1 1 1 1
1 1 1 1
1 1 1 1
1 1 1 1
1 1 1 1
1 1 1 1
1 1 1 1
1 1 1 1
1 1 1 1
1 1 1 1
1 1 1 1
1 1 1 1
0.999951 1 1 0.999951
0.999949 1 1 0.999949
0.999949 1 1 0.999949
0.999946 1 1 0.999946
0.999958 1 1 0.999958
0.999961 1 1 0.999961
0.999957 1 1 0.999957
0.999955 1 1 0.999955
0.999945 1 1 0.999945
0.99994 1 1 0.99994
0.999953 1 1 0.999953
0.999949 1 1 0.999949
0.99996 1 1 0.99996
0.99995 1 1 0.99995
0.99994 1 1 0.99994
0.99996 1 1 0.99996
0.999951 1 1 0.999951
0.999943 1 1 0.999943
0.999939 1 1 0.999939
0.999942 1 1 0.999942
0.999984 1 1 0.999984
0.999967 1 1 0.999967
0.999953 1 1 0.999953
0.99995 1 1 0.99995
0.999947 1 1 0.999947
0.999955 1 1 0.999955
0.999951 1 1 0.999951
0.999961 1 1 0.999961
0.99997 1 1 0.99997
0.99996 1 1 0.99996
0.999969 1 1 0.999969
0.999998 1 1 0.999998
0.999984 1 1 0.999984
0.999945 1 1 0.999945
0.999939 1 1 0.999939
0.999943 1 1 0.999943
0.999969 1 1 0.999969
0.999957 1 1 0.999957
0.999946 1 1 0.999946
0.999951 1 1 0.999951
0.999952 1 1 0.999952
0.999962 1 1 0.999962
0.999998 1 1 0.999998
0.999961 1 1 0.999961
0.999956 1 1 0.999956
0.999959 1 1 0.999959
0.999969 1 1 0.999969
0.999985 1 1 0.999985
0.999944 1 1 0.999944
0.999938 1 1 0.999938
0.999948 1 1 0.999948
0.999959 1 1 0.999959
0.99996 1 1 0.99996
0.999959 1 1 0.999959
0.999947 1 1 0.999947
0.999943 1 1 0.999943
0.999998 1 1 0.999998
0.999986 1 1 0.999986
0.999971 1 1 0.999971
0.999955 1 1 0.999955
0.999954 1 1 0.999954
0.999951 1 1 0.999951
1 1 1 1
0.999989 1 1 0.999989
0.99995 1 1 0.99995
0.999971 1 1 0.999971
0.99997 1 1 0.99997
0.99996 1 1 0.99996
0.999949 1 1 0.999949
0.999956 1 1 0.999956
0.999953 1 1 0.999953
0.999944 1 1 0.999944
0.999989 1 1 0.999989
0.99997 1 1 0.99997
0.999959 1 1 0.999959
0.99996 1 1 0.99996
0.999955 1 1 0.999955
0.999963 1 1 0.999963
0.999947 1 1 0.999947
0.999959 1 1 0.999959
0.999946 1 1 0.999946
0.999935 1 1 0.999935
0.999969 1 1 0.999969
0.999957 1 1 0.999957
0.99995 1 1 0.99995
0.999951 1 1 0.999951
0.999964 1 1 0.999964
0.999966 1 1 0.999966
0.99994 1 1 0.99994
0.999935 1 1 0.999935
0.99999 1 1 0.99999
0.999971 1 1 0.999971
0.99996 1 1 0.99996
0.999991 1 1 0.999991
0.999971 1 1 0.999971
0.99999 1 1 0.99999
0.999961 1 1 0.999961
0.999972 1 1 0.999972
0.999953 1 1 0.999953
0.99996 1 1 0.99996
0.999971 1 1 0.999971
0.99999 1 1 0.99999
1 1 1 1
1 1 1 1
1 1 1 1
1 1 1 1
1 1 1 1
1 1 1 1
1 1 1 1
1 1 1 1
1 1 1 1
1 1 1 1
1 1 1 1
1 1 1 1
1 1 1 1
1 1 1 1
1 1 1 1
0.999953 1 1 0.999953
0.999946 1 1 0.999946
0.999948 1 1 0.999948
0.999938 1 1 0.999938
0.999955 1 1 0.999955
0.999958 1 1 0.999958
0.999958 1 1 0.999958
0.99995 1 1 0.99995
0.999942 1 1 0.999942
0.999958 1 1 0.999958
0.999955 1 1 0.999955
0.999946 1 1 0.999946
0.999952 1 1 0.999952
0.999944 1 1 0.999944
0.99994 1 1 0.99994
0.999944 1 1 0.999944
0.999969 1 1 0.999969
0.999958 1 1 0.999958
0.999946 1 1 0.999946
0.999951 1 1 0.999951
0.999962 1 1 0.999962
0.999954 1 1 0.999954
0.999961 1 1 0.999961
0.999956 1 1 0.999956
0.999959 1 1 0.999959
0.999998 1 1 0.999998
0.99997 1 1 0.99997
0.999984 1 1 0.999984
0.999946 1 1 0.999946
0.999938 1 1 0.999938
0.999947 1 1 0.999947
0.99996 1 1 0.99996
0.999948 1 1 0.999948
0.999944 1 1 0.999944
0.99996 1 1 0.99996
0.999958 1 1 0.999958
0.999999 1 1 0.999999
0.999986 1 1 0.999986
0.999954 1 1 0.999954
0.999951 1 1 0.999951
0.999956 1 1 0.999956
0.99997 1 1 0.99997
0.999949 1 1 0.999949
0.999937 1 1 0.999937
0.99996 1 1 0.99996
0.999966 1 1 0.999966
0.999951 1 1 0.999951
0.999947 1 1 0.999947
0.999942 1 1 0.999942
1 1 1 1
0.99999 1 1 0.99999
0.999986 1 1 0.999986
0.999968 1 1 0.999968
0.999956 1 1 0.999956
0.999948 1 1 0.999948
0.99995 1 1 0.99995
0.999946 1 1 0.999946
0.999989 1 1 0.999989
0.999971 1 1 0.999971
0.999964 1 1 0.999964
0.999961 1 1 0.999961
0.99996 1 1 0.99996
0.999955 1 1 0.999955
0.999947 1 1 0.999947
0.999962 1 1 0.999962
0.999945 1 1 0.999945
0.999933 1 1 0.999933
0.999969 1 1 0.999969
0.999958 1 1 0.999958
0.999951 1 1 0.999951
0.999952 1 1 0.999952
0.999963 1 1 0.999963
0.999966 1 1 0.999966
0.999941 1 1 0.999941
0.999934 1 1 0.999934
0.999959 1 1 0.999959
0.999959 1 1 0.999959
0.999949 1 1 0.999949
0.999943 1 1 0.999943
0.999976 1 1 0.999976
0.999942 1 1 0.999942
0.99993 1 1 0.99993
0.999973 1 1 0.999973
0.99996 1 1 0.99996
0.999952 1 1 0.999952
0.99999 1 1 0.99999
0.999973 1 1 0.999973
0.999959 1 1 0.999959
0.99999 1 1 0.99999
0.999971 1 1 0.999971
0.999952 1 1 0.999952
0.999961 1 1 0.999961
0.999948 1 1 0.999948
0.999951 1 1 0.999951
0.999961 1 1 0.999961
0.999972 1 1 0.999972
0.999989 1 1 0.999989
1 1 1 1
1 1 1 1
1 1 1 1
1 1 1 1
1 1 1 1
1 1 1 1
1 1 1 1
1 1 1 1
1 1 1 1
1 1 1 1
1 1 1 1
1 1 1 1
1 1 1 1
1 1 1 1
1 1 1 1
1 1 1 1
0.999957 1 1 0.999957
0.999944 1 1 0.999944
0.99995 1 1 0.99995
0.999956 1 1 0.999956
0.999957 1 1 0.999957
0.999946 1 1 0.999946
0.999954 1 1 0.999954
0.999954 1 1 0.999954
0.999949 1 1 0.999949
0.999971 1 1 0.999971
0.999948 1 1 0.999948
0.999937 1 1 0.999937
0.999946 1 1 0.999946
0.999959 1 1 0.999959
0.999949 1 1 0.999949
0.999945 1 1 0.999945
0.999961 1 1 0.999961
0.999958 1 1 0.999958
0.999954 1 1 0.999954
0.999951 1 1 0.999951
0.999957 1 1 0.999957
1 1 1 1
0.999986 1 1 0.999986
0.999969 1 1 0.999969
0.999947 1 1 0.999947
1 1 1 1
0.999989 1 1 0.999989
0.999938 1 1 0.999938
0.999958 1 1 0.999958
0.999951 1 1 0.999951
0.999942 1 1 0.999942
0.999947 1 1 0.999947
0.999966 1 1 0.999966
0.999988 1 1 0.999988
0.999968 1 1 0.999968
0.99995 1 1 0.99995
0.999946 1 1 0.999946
0.999947 1 1 0.999947
0.999956 1 1 0.999956
0.999933 1 1 0.999933
0.999948 1 1 0.999948
0.999976 1 1 0.999976
0.999956 1 1 0.999956
0.999946 1 1 0.999946
0.999939 1 1 0.999939
0.999989 1 1 0.999989
0.99999 1 1 0.99999
0.999974 1 1 0.999974
0.999965 1 1 0.999965
0.999956 1 1 0.999956
0.999943 1 1 0.999943
0.99994 1 1 0.99994
0.999945 1 1 0.999945
0.999969 1 1 0.999969
0.999959 1 1 0.999959
0.999962 1 1 0.999962
0.999965 1 1 0.999965
0.999953 1 1 0.999953
0.999952 1 1 0.999952
0.999943 1 1 0.999943
0.999934 1 1 0.999934
0.999959 1 1 0.999959
0.999966 1 1 0.999966
0.999949 1 1 0.999949
0.999942 1 1 0.999942
0.999975 1 1 0.999975
0.999942 1 1 0.999942
0.999929 1 1 0.999929
0.99995 1 1 0.99995
0.999981 1 1 0.999981
0.999943 1 1 0.999943
0.999932 1 1 0.999932
0.999943 1 1 0.999943
0.999923 1 1 0.999923
0.988072 1.00009 0.988059 0.99992
0.99996 1 1 0.99996
0.999952 1 1 0.999952
0.999947 1 1 0.999947
0.999989 1 1 0.999989
0.999971 1 1 0.999971
0.999963 1 1 0.999963
0.999952 1 1 0.999952
0.999989 1 1 0.999989
0.999971 1 1 0.999971
0.999948 1 1 0.999948
0.999961 1 1 0.999961
0.999952 1 1 0.999952
0.999946 1 1 0.999946
0.999953 1 1 0.999953
0.999962 1 1 0.999962
0.999969 1 1 0.999969
0.999985 1 1 0.999985
0.999973 1 1 0.999973
0.999985 1 1 0.999985
1 1 1 1
1 1 1 1
1 1 1 1
1 1 1 1
1 1 1 1
1 1 1 1
1 1 1 1
1 1 1 1
1 1 1 1
1 1 1 1
1 1 1 1
1 1 1 1
1 1 1 1
1 1 1 1
1 1 1 1
1 1 1 1
1 1 1 1
0.999956 1 1 0.999956
0.999945 1 1 0.999945
0.999958 1 1 0.999958
0.999954 1 1 0.999954
0.999949 1 1 0.999949
0.999982 1 1 0.999982
0.999951 1 1 0.999951
0.999021 1 0.999027 0.999995
1 1 1 1
0.999994 1 1 0.999994
0.999945 1 1 0.999945
0.999939 1 1 0.999939
0.999956 1 1 0.999956
0.999952 1 1 0.999952
0.999941 1 1 0.999941
0.999947 1 1 0.999947
0.999966 1 1 0.999966
0.99995 1 1 0.99995
0.999946 1 1 0.999946
0.999946 1 1 0.999946
1 1 1 1
0.999956 1 1 0.999956
0.99999 1 1 0.99999
0.999967 1 1 0.999967
0.999988 1 1 0.999988
0.99993 1 1 0.99993
0.999991 1 1 0.999991
0.99999 1 1 0.99999
0.999972 1 1 0.999972
0.999948 1 1 0.999948
0.999973 1 1 0.999973
0.999946 1 1 0.999946
0.999939 1 1 0.999939
0.999957 1 1 0.999957
0.999967 1 1 0.999967
0.999955 1 1 0.999955
0.999945 1 1 0.999945
0.999941 1 1 0.999941
0.999944 1 1 0.999944
0.999967 1 1.00004 0.999922
0.999973 1 1 0.999973
0.999968 1 1 0.999968
0.999942 1 1 0.999942
0.999943 1 1 0.999943
0.999971 1 1 0.999971
0.999967 1 1 0.999967
0.99996 1 1 0.99996
0.999951 1 1 0.999951
0.999945 1 1 0.999945
0.999936 1 1 0.999936
0.999938 1 1 0.999938
0.999959 1 1 0.999959
0.999949 1 1 0.999949
0.999973 1 1 0.999973
0.999973 1 1 0.999973
0.999943 1 1 0.999943
0.999941 1 1 0.999941
0.999929 1 1 0.999929
0.99995 1 1 0.99995
0.999984 1 1 0.999984
0.999943 1 1 0.999943
0.999932 1 1 0.999932
0.999948 1 1 0.999948
0.999922 1 1 0.999922
0.990642 1.00086 0.989863 0.999924
0.999944 1 1 0.999944
0.999933 1 1 0.999933
0.999937 1 1 0.999937
0.999963 1 1.00005 0.999918
0.999906 1 1 0.999906
0.978919 0.979273 0.999849 0.999789
0.993247 1.0013 0.99202 0.999936
0.987617 1.00091 0.986827 0.999886
0.978622 0.981899 0.99666 1
0.99192 1.00041 0.991511 1
0.999952 1 1 0.999952
0.999948 1 1 0.999948
0.999945 1 1 0.999945
0.999989 1 1 0.999989
0.99997 1 1 0.99997
0.999961 1 1 0.999961
0.999953 1 1 0.999953
0.999948 1 1 0.999948
0.99996 1 1 0.99996
0.999987 1 1 0.999987
0.99997 1 1 0.99997
0.999946 1 1 0.999946
0.999953 1 1 0.999953
0.999953 1 1 0.999953
0.999946 1 1 0.999946
0.999957 1 1 0.999957
0.999967 1 1 0.999967
0.999985 1 1 0.999985
0.999971 1 1 0.999971
0.99996 1 1 0.99996
0.99997 1 1 0.99997
0.999971 1 1 0.999971
0.999988 1 1 0.999988
0.999985 1 1 0.999985
1 1 1 1
1 1 1 1
1 1 1 1
1 1 1 1
1 1 1 1
1 1 1 1
1 1 1 1
1 1 1 1
1 1 1 1
1 1 1 1
1 1 1 1
1 1 1 1
1 1 1 1
1 1 1 1
1 1 1 1
1 1 1 1
1 1 1 1
1 1 1 1
0.999948 1 1 0.999948
0.999954 1 1 0.999954
0.999993 1 1 0.999993
0.998187 1 0.998192 0.999995
0.999951 1 1 0.999951
0.999992 1 1 0.999992
0.999979 1 1.00004 0.999941
0.998025 0.99872 0.999394 0.99991
0.999999 1 1 0.999999
0.999995 1 1 0.999995
0.999994 1 1 0.999994
0.999976 1 1 0.999976
0.99998 1 1 0.99998
0.999927 1 1 0.999927
0.999948 1 1 0.999948
0.99997 1 1 0.99997
0.999946 1 1 0.999946
0.999939 1 1 0.999939
0.999957 1 1 0.999957
0.999945 1 1 0.999945
0.999943 1 1 0.999943
0.999945 1 1 0.999945
0.99999 1 1 0.99999
0.999955 1 1 0.999955
0.999968 1 1 0.999968
0.999992 1 1 0.999992
0.99997 1 1 0.99997
0.999959 1 1.00003 0.999924
0.999974 1 1 0.999974
0.999969 1 1 0.999969
0.999961 1 1 0.999961
0.999973 1 1 0.999973
0.999967 1 1 0.999967
0.999942 1 1 0.999942
0.999943 1 1 0.999943
0.999952 1 1 0.999952
0.999946 1 1 0.999946
0.999938 1 1 0.999938
0.999936 1 1 0.999936
0.999979 1 1.00003 0.999949
0.999986 1 1 0.999986
0.999944 1 1 0.999944
0.999939 1 1 0.999939
0.999956 1 1 0.999956
0.999953 1 1 0.999953
0.999936 1 1 0.999936
0.999927 1 1 0.999927
0.977346 0.979426 0.998058 0.999818
0.999951 1 1 0.999951
0.999942 1 1 0.999942
0.999987 1 1 0.999987
0.999953 1 1 0.999953
0.999921 1 1 0.999921
0.999931 1 1 0.999931
0.993428 1.00167 0.991842 0.999929
0.999945 1 1 0.999945
0.999935 1 1 0.999935
0.999938 1 1 0.999938
0.999941 1 1.00002 0.999918
0.999911 1 1 0.999911
0.979531 0.97884 1.0009 0.999808
0.991886 1.00092 0.991117 0.999859
0.989814 1.0016 0.988346 0.999883
0.978638 0.9823 0.996307 0.999965
0.993325 1.00053 0.992799 1
0.999943 1 1 0.999943
0.977818 0.979749 0.998083 0.999946
0.996281 0.999546 0.996732 1
0.999892 1 1 0.999892
0.999978 1 1.00005 0.999931
1.00086 1 1.00096 0.999898
0.998296 1.00097 0.997459 0.999864
0.985621 0.981996 1.00399 0.999705
0.992323 1.00298 0.98954 0.999833
0.978471 0.986582 0.991783 0.999996
0.998516 1.00039 0.998122 1
0.999948 1 1 0.999948
0.999945 1 1 0.999945
0.999943 1 1 0.999943
0.999988 1 1 0.999988
0.999971 1 1 0.999971
0.999959 1 1 0.999959
0.999952 1 1 0.999952
0.999947 1 1 0.999947
0.999985 1 1 0.999985
0.999953 1 1 0.999953
0.999958 1 1 0.999958
0.999969 1 1 0.999969
0.999945 1 1 0.999945
0.999948 1 1 0.999948
0.999942 1 1 0.999942
0.999956 1 1 0.999956
0.99997 1 1 0.99997
0.999971 1 1 0.999971
0.999959 1 1 0.999959
0.999958 1 1 0.999958
0.999958 1 1 0.999958
0.999952 1 1 0.999952
0.999956 1 1 0.999956
0.999969 1 1 0.999969
0.99997 1 1 0.99997
0.999988 1 1 0.999988
0.999969 1 1 0.999969
0.999987 1 1 0.999987
1 1 1 1
0.999985 1 1 0.999985
1 1 1 1
1 1 1 1
1 1 1 1
1 1 1 1
1 1 1 1
1 1 1 1
1 1 1 1
1 1 1 1
0.999995 1 1 0.999995
1 1 1 1
1 1 1 1
1 1 1 1
1 1 1 1
1 1 1 1
1 1 1 1
1 1 1 1
1 1 1 1
1 1 1 1
0.997317 1 0.997322 0.999996
0.999952 1 1 0.999952
0.999984 1 1 0.999984
0.999436 0.999042 1.00044 0.999952
1.00056 1 1.00056 0.999998
0.999968 1 1.00003 0.999934
1.00146 1 1.00153 0.99993
1.00131 0.999889 1.0015 0.999916
0.978548 0.979211 0.999597 0.999725
0.976257 0.981309 0.99493 0.999921
0.992773 1.0001 0.992673 1
0.999977 1 1 0.999977
0.999995 1 1 0.999995
0.999993 1 1 0.999993
0.999975 1 1 0.999975
0.999965 1 1 0.999965
0.999968 1 1 0.999968
0.999978 1 1 0.999978
0.999979 1 1 0.999979
0.999952 1 1.00003 0.999926
0.999972 1 1 0.999972
0.999967 1 1 0.999967
0.999942 1 1 0.999942
0.999944 1 1 0.999944
0.999938 1 1 0.999938
0.999936 1 1 0.999936
0.999947 1 1 0.999947
0.99997 1 1 0.99997
0.999952 1 1 0.999952
0.999976 1 1 0.999976
0.999963 1 1 0.999963
0.999984 1 1.00004 0.999948
0.999956 1 1 0.999956
0.999954 1 1 0.999954
0.999842 1 0.999857 0.999985
0.999946 1 1 0.999946
0.999937 1 1 0.999937
0.999937 1 1 0.999937
0.999928 1 1 0.999928
0.995399 1 0.995421 0.999978
0.999956 1 1 0.999956
0.999931 1 1 0.999931
0.999921 1 1 0.999921
0.999943 1 1 0.999943
0.99994 1 1 0.99994
0.999924 1 1 0.999924
0.974919 0.980813 0.993975 1.00002
0.97969 0.980108 0.999754 0.999819
0.999945 1 1 0.999945
0.999938 1 1 0.999938
0.999936 1 1 0.999936
0.999916 1 1 0.999916
0.999918 1 1 0.999918
0.979379 0.979817 0.99983 0.999722
0.993447 1.00024 0.993257 0.999949
0.991725 1.00209 0.989778 0.999881
0.975805 0.981778 0.994 0.999915
0.99454 1.0006 0.993939 1
0.999943 1 1 0.999943
0.975766 0.980334 0.995328 1.00001
0.996584 0.999705 0.996877 1
0.999892 1 1 0.999892
0.999955 1 1.00002 0.999932
1.00071 1 1.00081 0.999901
0.99822 1.00069 0.997664 0.999863
0.983239 0.981293 1.00233 0.999653
0.988087 1.00147 0.986703 0.999938
0.979344 0.986733 0.992617 0.999894
0.997361 1.00042 0.996939 1
0.999942 1 1 0.999942
0.998771 0.999242 0.999528 1
0.999924 0.999605 1.00032 1
1.00285 1 1.00297 0.999885
1.00086 1 1.00093 0.999924
1.00319 1.00005 1.00323 0.999917
0.998991 1.00049 0.998559 0.999945
0.989254 0.986289 1.00335 0.999657
0.987078 0.995914 0.99125 0.999877
0.999727 0.999996 0.999731 1
0.999945 1 1 0.999945
0.999943 1 1 0.999943
0.99994 1 1 0.99994
0.999985 1 1 0.999985
0.99997 1 1 0.99997
0.99996 1 1 0.99996
0.999953 1 1 0.999953
0.999944 1 1 0.999944
0.99997 1 1 0.99997
0.999949 1 1 0.999949
0.999956 1 1 0.999956
0.999942 1 1 0.999942
0.99994 1 1 0.99994
0.999945 1 1 0.999945
0.999956 1 1 0.999956
0.999971 1 1 0.999971
0.999957 1 1 0.999957
0.999957 1 1 0.999957
0.999958 1 1 0.999958
0.999952 1 1 0.999952
0.999956 1 1 0.999956
0.999949 1 1 0.999949
0.999948 1 1 0.999948
0.99995 1 1 0.99995
0.999956 1 1 0.999956
0.999957 1 1 0.999957
0.999956 1 1 0.999956
0.999968 1 1 0.999968
0.999969 1 1 0.999969
0.999988 1 1 0.999988
0.99997 1 1 0.99997
0.999988 1 1 0.999988
1 1 1 1
0.999986 1 1 0.999986
1 1 1 1
1 1 1 1
1 1 1 1
1 1 1 1
1 1 1 1
1 1 1 1
1 1 1 1
1 1 1 1
0.999994 1 1 0.999994
1 1 1 1
0.999995 1 1 0.999995
1 1 1 1
1 1 1 1
1 1 1 1
1 1 1 1
1 1 1 1
1 1 1 1
1 1 1 1
1 1 1 1
0.976356 0.98011 0.996155 1.00001
0.998734 0.999833 0.998901 1
0.999626 0.998578 1.00107 0.999978
1.00102 1 1.00102 0.999996
0.999957 1 1.00003 0.999928
1.00188 0.999871 1.00201 0.999992
1.00067 1 1.00073 0.999932
0.979412 0.979428 1.00019 0.99979
0.977525 0.981577 0.995865 1.00001
0.994314 1.00035 0.993965 1
1.00444 1 1.00449 0.999946
0.982888 0.981575 1.00161 0.99973
0.977894 0.985674 0.99211 0.999997
0.996422 1.00175 0.994685 1
0.99996 1 1 0.99996
0.999978 1 1 0.999978
0.999995 1 1 0.999995
0.999975 1 1 0.999975
0.999966 1 1 0.999966
0.999964 1 1 0.999964
0.999969 1 1 0.999969
0.999973 1 1 0.999973
0.999977 1 1 0.999977
0.999978 1 1 0.999978
0.999988 1 1.00004 0.999948
0.999641 1 0.999657 0.999984
0.999947 1 1 0.999947
0.999935 1 1 0.999935
0.999928 1 1 0.999928
0.999937 1 1 0.999937
0.999955 1 1 0.999955
0.999957 1 1 0.999957
0.996944 1 0.996969 0.999975
0.999942 1 1 0.999942
0.999938 1 1 0.999938
0.999788 1 0.999828 0.99996
0.999928 1 1 0.999928
0.999921 1 1 0.999921
0.999923 1 1 0.999923
0.992598 1.00026 0.992376 0.999961
0.999921 1 1 0.999918
0.99991 1 1 0.99991
0.999942 1 1 0.999942
0.999933 1 1 0.999933
0.999926 1 1 0.999926
0.997624 0.999438 0.998183 1
0.976013 0.980085 0.99589 0.999956
0.977965 0.979997 0.998115 0.999811
0.999943 1 1 0.999943
0.999933 1 1 0.999933
0.999892 1 1 0.999892
1.00055 1 1.00064 0.999905
0.97515 0.980683 0.994413 0.999944
0.981791 0.981571 1.00042 0.999805
0.986514 1.00157 0.985121 0.999842
0.998479 1.00052 0.998097 0.999861
0.980659 0.986597 0.993986 0.999995
0.995601 0.999867 0.995732 1
0.995581 1.00153 0.994064 1
0.999942 1 1 0.999942
0.998221 0.999467 0.998753 1
0.999888 0.9995 1.00039 1
1.00315 1 1.00327 0.999884
1.00073 1 1.0008 0.999924
1.00364 1.00004 1.00372 0.999878
0.997153 1.00026 0.997052 0.999842
0.987086 0.985478 1.00198 0.999648
0.990832 0.994931 0.995894 0.999986
0.999427 1.00081 0.998621 0.999999
0.999939 1 1 0.999939
0.999556 0.999555 1 1
0.99972 0.999499 1.00022 1
1.00258 1 1.00264 0.99994
1.00613 0.999873 1.0063 0.999959
0.99416 0.990598 1.00392 0.999682
0.9882 1.00193 0.986322 0.99997
0.999645 0.999676 0.999971 0.999998
0.999943 1 1 0.999943
0.999941 1 1 0.999941
0.999937 1 1 0.999937
0.99997 1 1 0.99997
0.999956 1 1 0.999956
0.99995 1 1 0.99995
0.999942 1 1 0.999942
0.999956 1 1 0.999956
0.999945 1 1 0.999945
0.99994 1 1 0.99994
0.999942 1 1 0.999942
0.999939 1 1 0.999939
0.999946 1 1 0.999946
0.999957 1 1 0.999957
0.999958 1 1 0.999958
0.999952 1 1 0.999952
0.99995 1 1 0.99995
0.999956 1 1 0.999956
0.999949 1 1 0.999949
0.999947 1 1 0.999947
0.999944 1 1 0.999944
0.999945 1 1 0.999945
0.99995 1 1 0.99995
0.999951 1 1 0.999951
0.999952 1 1 0.999952
0.999964 1 1 0.999964
0.999957 1 1 0.999957
0.999958 1 1 0.999958
0.999968 1 1 0.999968
0.999956 1 1 0.999956
0.999968 1 1 0.999968
0.999987 1 1 0.999987
0.999969 1 1 0.999969
0.999988 1 1 0.999988
1 1 1 1
0.999988 1 1 0.999988
1 1 1 1
1 1 1 1
1 1 1 1
1 1 1 1
1 1 1 1
1 1 1 1
1 1 1 1
1 1 1 1
0.99999 1 1 0.99999
1 1 1 1
0.999993 1 1 0.999993
1 1 1 1
1 1 1 1
0.999995 1 1 0.999995
1 1 1 1
1 1 1 1
1 1 1 1
1 1 1 1
1 1 1 1
1 1 1 1
0.999076 0.999562 0.999513 1
0.975466 0.979285 0.996118 0.999982
1.00003 0.999747 1.00028 1
0.998274 0.999768 0.998505 1
1.00055 0.999355 1.00126 0.999928
0.999976 1 1.00004 0.999934
0.979896 0.978966 1.00109 0.999862
0.976668 0.981459 0.995194 0.999925
0.995768 1.00058 0.995191 1
1.00163 1.00016 1.00154 0.999931
0.983786 0.981422 1.0027 0.999712
0.979478 0.98594 0.993548 0.999898
0.99613 1.00044 0.995694 1
0.99959 1.00032 0.999337 0.999937
0.989506 0.985759 1.00416 0.999643
0.991074 0.995642 0.995424 0.999989
0.99927 0.999462 0.999807 1
0.999951 1 1 0.999951
0.999962 1 1 0.999962
0.999979 1 1 0.999979
0.999967 1 1 0.999967
0.999957 1 1 0.999957
0.999965 1 1 0.999965
0.99997 1 1 0.99997
0.999973 1 1 0.999973
0.999975 1 1 0.999975
0.999975 1 1 0.999975
0.998556 1 0.998584 0.999973
0.999677 1 0.999714 0.999964
0.999925 1 1 0.999925
0.99992 1 1 0.99992
0.999922 1 1 0.999922
0.999937 1 1 0.999937
0.999941 1 1 0.999941
0.999942 1 1 0.999942
0.993461 1.00008 0.993422 0.999959
0.999934 1 1 0.999934
0.999926 1 1 0.999926
0.999932 1 1.00001 0.999921
0.99991 1 1 0.99991
0.997056 1.00016 0.99697 0.999926
1.00013 1 1.00022 0.999906
0.999912 1 1 0.999912
0.999935 1 1 0.999935
0.999925 1 1 0.999925
0.999508 0.999508 1 1
0.998516 0.999445 0.999069 1
0.976269 0.980813 0.995353 1.00001
0.999942 1 1 0.999942
1.00055 1 1.00063 0.999924
1.00338 1 1.0035 0.999882
0.999223 0.99968 0.999542 1
0.988986 0.986235 1.00315 0.999636
0.995373 1.00057 0.994863 0.999945
1.00373 1 1.00389 0.999839
0.985287 0.99273 0.992611 0.999891
0.99986 0.999406 1.00045 1
0.999658 1.0003 0.999363 0.999998
0.99994 1 1 0.99994
0.999683 0.999683 1 1
0.999627 0.999448 1.00018 1
1.00273 1 1.0028 0.999929
1.00599 0.999684 1.00637 0.999936
0.996407 0.992576 1.00421 0.999655
0.999801 0.99971 1.00009 0.999999
0.994237 1.00054 0.993755 0.999941
0.999938 1 1 0.999938
1.00013 1.00013 0.999998 1
0.999499 0.99941 1.00009 1
0.99917 0.999433 0.999737 1
1.00377 0.999869 1.00394 0.999962
1.00609 0.995642 1.01074 0.999755
0.984377 1.00174 0.982716 0.999953
0.999941 1 1 0.999941
0.999937 1 1 0.999937
0.99994 1 1 0.99994
0.999956 1 1 0.999956
0.999945 1 1 0.999945
0.99994 1 1 0.99994
0.999947 1 1 0.999947
0.999939 1 1 0.999939
0.999942 1 1 0.999942
0.999942 1 1 0.999942
0.99994 1 1 0.99994
0.99995 1 1 0.99995
0.999956 1 1 0.999956
0.999949 1 1 0.999949
0.999944 1 1 0.999944
0.999947 1 1 0.999947
0.999942 1 1 0.999942
0.999948 1 1 0.999948
0.999938 1 1 0.999938
0.999949 1 1 0.999949
0.999951 1 1 0.999951
0.999943 1 1 0.999943
0.999952 1 1 0.999952
0.999964 1 1 0.999964
0.999952 1 1 0.999952
0.999972 1 1 0.999972
0.999963 1 1 0.999963
0.999958 1 1 0.999958
0.999959 1 1 0.999959
0.999969 1 1 0.999969
0.999988 1 1 0.999988
0.999968 1 1 0.999968
0.999987 1 1 0.999987
1 1 1 1
0.999988 1 1 0.999988
1 1 1 1
1 1 1 1
1 1 1 1
1 1 1 1
1 1 1 1
1 1 1 1
1 1 1 1
1 1 1 1
0.999987 1 1 0.999987
0.999999 1 1 0.999999
0.99999 1 1 0.99999
1 1 1 1
1 1 1 1
0.999992 1 1 0.999992
1 1 1 1
1 1 1 1
1 1 1 1
1 1 1 1
1 1 1 1
1 1 1 1
0.999652 0.999574 1.00008 1
0.997497 0.999526 0.997969 1
0.97705 0.979389 0.997656 0.999956
0.999968 1 1 0.999968
1.00002 0.999917 1.0001 1
0.999934 0.999675 1.00026 1
0.996457 0.999703 0.996752 1
0.999718 1.00032 0.999496 0.999901
0.985218 0.981315 1.00429 0.99969
0.981291 0.985915 0.995313 0.999997
0.995593 1.00046 0.995131 1
0.998275 1.00085 0.997572 0.999858
0.989187 0.985291 1.0043 0.999652
0.989265 0.994379 0.994923 0.999934
0.999251 1.0003 0.998956 1
0.996771 1.00021 0.996718 0.999842
0.996462 0.992341 1.00459 0.99956
0.996763 1.00026 0.996605 0.9999
0.999921 1 0.999922 0.999997
0.999944 1 1 0.999944
0.99995 1 1 0.99995
0.999964 1 1 0.999964
0.999956 1 1 0.999956
0.999959 1 1 0.999959
0.999966 1 1 0.999966
0.999973 1 1 0.999973
0.999976 1 1 0.999976
0.994349 1 0.994392 0.999957
0.99996 1 1.00004 0.999923
0.999942 1 1 0.999942
0.99991 1 1 0.99991
0.999925 1 1 0.999925
0.999934 1 1 0.999934
0.999935 1 1 0.999935
0.995596 1.00013 0.995541 0.999924
0.999925 1 1 0.999925
0.999912 1 1 0.999912
1.00011 1 1.0002 0.999906
0.999934 1 1 0.999934
1.00104 1 1.00113 0.999912
1.00013 1 1.00022 0.999909
0.999919 1 1 0.999919
0.999924 1 1 0.999924
1.00007 1.00007 1 1
0.999489 0.999489 1 1
0.999223 0.999451 0.999771 1
0.999941 1 1 0.999941
1.00296 1 1.00304 0.999918
0.999821 0.99982 1 1
0.996043 0.990575 1.00589 0.999637
1.00538 0.999873 1.00564 0.999869
0.992946 0.999989 0.993037 0.999919
0.999549 0.999365 1.00018 1
0.99998 0.999735 1.00025 1
0.999939 1 1 0.999939
1.00015 1.00015 0.999998 1
0.999713 0.999642 1.00007 1
1.00221 0.999625 1.00261 0.999973
0.998928 1.00024 0.99869 1
1.00335 0.997496 1.0061 0.999775
0.987103 1.00061 0.986588 0.99991
0.999951 1 1 0.999951
1.00011 1.00012 0.999985 1
1.00003 0.999905 1.00013 1
0.995916 1.00165 0.994277 1
0.993939 0.998519 0.995502 0.999911
1.01065 0.999495 1.01117 0.999991
1.00595 0.996743 1.00943 0.999806
0.999938 1 1 0.999938
0.999939 1 1 0.999939
0.999946 1 1 0.999946
0.999947 1 1 0.999947
0.999938 1 1 0.999938
0.999941 1 1 0.999941
0.99994 1 1 0.99994
0.999943 1 1 0.999943
0.999933 1 1 0.999933
0.999944 1 1 0.999944
0.999947 1 1 0.999947
0.999941 1 1 0.999941
0.999933 1 1 0.999933
0.99995 1 1 0.99995
0.99994 1 1 0.99994
0.999933 1 1 0.999933
0.999941 1 1 0.999941
0.999951 1 1 0.999951
0.999943 1 1 0.999943
0.999955 1 1 0.999955
0.999962 1 1 0.999962
0.999953 1 1 0.999953
0.999973 1 1 0.999973
0.999963 1 1 0.999963
0.999952 1 1 0.999952
0.999989 1 1 0.999989
0.999971 1 1 0.999971
0.999962 1 1 0.999962
0.999969 1 1 0.999969
0.999988 1 1 0.999988
1 1 1 1
0.999987 1 1 0.999987
1 1 1 1
1 1 1 1
1 1 1 1
1 1 1 1
1 1 1 1
1 1 1 1
1 1 1 1
1 1 1 1
0.999985 1 1 0.999985
0.999999 1 1 0.999999
0.999987 1 1 0.999987
1 1 1 1
0.999999 1 1 0.999999
0.99999 1 1 0.99999
1 1 1 1
1 1 1 1
0.999999 1 1 0.999999
1 1 1 1
1 1 1 1
1 1 1 1
1.00005 1.00005 1 1
0.999613 0.999568 1.00005 1
0.997578 0.999509 0.998066 1
0.999969 1 1 0.999969
0.999967 1 1 0.999967
0.999957 1 1 0.999957
0.99945 0.999416 1.00003 1
0.999975 0.999902 1.00007 1
0.999848 0.999605 1.00024 1
0.999928 1.00139 0.998608 0.999933
0.989945 0.985885 1.00446 0.999662
0.98761 0.995692 0.991998 0.999884
0.999608 0.99953 1.00008 1
0.998515 1.00018 0.998401 0.999934
0.997154 0.991062 1.00648 0.999665
0.99739 1.00283 0.994613 0.99996
0.999901 0.999866 1.00004 0.999998
1.0046 0.999904 1.00474 0.999958
1.00094 0.997281 1.00397 0.9997
0.987059 1.0025 0.98465 0.999941
0.999822 1.00004 0.999785 1
0.999943 1 1 0.999943
0.999944 1 1 0.999944
0.999949 1 1 0.999949
0.999955 1 1 0.999955
0.99996 1 1 0.99996
0.999973 1 1 0.999973
0.994002 1 0.994079 0.999922
1.00011 1 1.00021 0.999906
0.999935 1 1 0.999935
0.999911 1 1 0.999911
0.999925 1 1 0.999925
0.999933 1 1 0.999933
0.999923 1 1 0.999923
0.999891 1 0.999982 0.999909
0.999919 1 1 0.999919
1.00017 1 1.00026 0.999908
0.999923 1 1 0.999923
1.0025 1 1.00258 0.999921
0.999934 1 1.00002 0.999916
0.999914 1 1 0.999914
1 1 1 1
1.00006 1.00006 1 1
0.999469 0.999469 1 1
0.99994 1 1 0.99994
1.00409 0.999536 1.00458 0.999978
1.00016 1.00016 0.999999 1
1.00412 0.999064 1.0052 0.999865
0.983172 1.00112 0.982112 0.999958
0.999914 0.999891 1.00002 1
0.999622 0.999505 1.00012 1
0.999952 1 1 0.999952
1.00007 1.00008 0.999992 1
0.999989 0.99989 1.0001 1
1.01256 0.999418 1.0132 0.999944
0.995877 1.00042 0.995462 1
0.994836 1.00261 0.992274 0.999971
0.999151 0.997214 1.00215 0.999791
1.00003 1 1.00006 0.999968
1.00005 1.00005 0.999998 1
1.00006 0.999725 1.00033 1
0.992156 1.00007 0.992089 1
0.989977 0.9948 0.995162 0.99999
1.00452 0.996043 1.00877 0.999738
1.01804 0.998546 1.01958 0.999939
0.999938 1 1 0.999938
0.999946 1 1 0.999946
0.999949 1 1.00002 0.99993
0.99994 1 1 0.99994
0.999943 1 1 0.999943
0.999933 1 1 0.999933
0.999915 1 1 0.999915
0.99994 1 1 0.99994
0.999931 1 1 0.999931
0.999922 1 1 0.999922
0.999941 1 1 0.999941
0.999933 1 1 0.999933
0.99993 1 1 0.99993
0.999936 1 1 0.999936
0.999949 1 1 0.999949
0.99994 1 1 0.99994
0.999942 1 1 0.999942
0.999962 1 1 0.999962
0.999956 1 1 0.999956
0.999971 1 1 0.999971
0.999963 1 1 0.999963
0.999955 1 1 0.999955
0.999989 1 1 0.999989
0.999973 1 1 0.999973
0.999963 1 1 0.999963
1 1 1 1
0.999989 1 1 0.999989
0.99997 1 1 0.99997
0.999988 1 1 0.999988
1 1 1 1
1 1 1 1
1 1 1 1
1 1 1 1
1 1 1 1
1 1 1 1
1 1 1 1
1 1 1 1
0.999988 1 1 0.999988
1 1 1 1
0.999986 1 1 0.999986
1 1 1 1
0.999999 1 1 0.999999
0.999988 1 1 0.999988
1 1 1 1
1 1 1 1
0.999999 1 1 0.999999
1 1 1 1
1 1 1 1
1 1 1 1
1.00011 1.00012 0.999992 1
1.00006 1.00006 0.999999 1
0.999543 0.999542 1 1
0.999969 1 1 0.999969
0.999964 1 1 0.999964
0.999969 1 1 0.999969
0.999967 1 1 0.999967
0.999956 1 1 0.999956
0.999957 1 1 0.999957
0.999949 1 1 0.999949
0.999721 0.999499 1.00022 1
0.999681 0.999672 1.00001 1
0.999928 0.999888 1.00004 1
0.999885 0.999759 1.00013 1
1.00078 1.00109 0.99986 0.999832
0.999964 0.993564 1.00669 0.999749
0.988039 1.00154 0.986634 0.99988
1.00448 0.999535 1.00504 0.999898
1.00127 0.997852 1.0037 0.999726
0.99053 1.00169 0.988969 0.999888
0.999827 1.0011 0.998733 0.999998
1.01114 0.999549 1.01163 0.999967
1.00322 0.998678 1.0048 0.999757
0.990158 1.00235 0.987876 0.999961
0.998645 1.0004 0.998245 1
0.999938 1 1 0.999938
0.999942 1 1 0.999942
0.999944 1 1 0.999944
0.999955 1 1 0.999955
0.998767 1 0.99886 0.999907
1.00016 1 1.00025 0.999907
0.999932 1 1 0.999932
0.999923 1 1 0.999923
0.999919 1 1 0.999919
0.999925 1 1 0.999925
0.999913 1 1 0.999913
1.00222 1 1.0023 0.999922
0.999945 1 1.00003 0.999919
0.999916 1 1 0.999916
1.00326 0.99998 1.00333 0.999957
0.999897 1 1 0.999897
1.00007 1.00007 1 1
0.999986 0.999984 1 1
1.00004 1.00004 1 1
0.999952 1 1 0.999952
1.01058 0.999495 1.01111 0.99999
1.00004 1.00005 0.999996 1
1.00613 0.996385 1.00999 0.999796
0.984357 1.00054 0.983936 0.999891
0.999941 0.999875 1.00007 1
0.995145 1.00044 0.994709 1
0.999999 1 1.00003 0.999968
1.00006 1.00007 0.999997 1
0.999975 0.999647 1.00033 1
1.02306 0.999508 1.02357 0.99999
0.993736 1.00032 0.993416 1
0.987658 0.993612 0.99407 0.999937
1.00323 0.996403 1.00709 0.999766
1.00124 1 1.00128 0.99996
0.999696 0.999561 1.00014 1
0.998532 0.999819 0.998713 1
0.977035 0.985336 0.991578 0.999997
0.997033 0.991501 1.00592 0.999662
1.01688 0.999971 1.01702 0.999886
0.999946 1 1 0.999946
0.999942 1 1.00001 0.99993
1.00164 1 1.00173 0.999911
0.999934 1 1 0.999934
0.999917 1 1 0.999917
0.999902 1 1 0.999902
0.99993 1 1 0.99993
0.99992 1 1 0.99992
0.999919 1 1 0.999919
0.999932 1 1 0.999932
0.999929 1 1 0.999929
0.999931 1 1 0.999931
0.999939 1 1 0.999939
0.999943 1 1 0.999943
0.999936 1 1 0.999936
0.999957 1 1 0.999957
0.99995 1 1 0.99995
0.999939 1 1 0.999939
0.99997 1 1 0.99997
0.999961 1 1 0.999961
0.999956 1 1 0.999956
0.999989 1 1 0.999989
0.999972 1 1 0.999972
0.999964 1 1 0.999964
1 1 1 1
0.99999 1 1 0.99999
0.999973 1 1 0.999973
1 1 1 1
1 1 1 1
0.999989 1 1 0.999989
1 1 1 1
1 1 1 1
1 1 1 1
1 1 1 1
1 1 1 1
1 1 1 1
0.999972 1 1 0.999972
0.999988 1 1 0.999988
1 1 1 1
0.999988 1 1 0.999988
1 1 1 1
1 1 1 1
0.999988 1 1 0.999988
1 1 1 1
1 1 1 1
1 1 1 1
1 1 1 1
1 1 1 1
1 1 1 1
1.00013 1.00013 0.999999 1
1.00008 1.00008 0.999997 1
1.00007 1.00008 0.999998 1
0.99997 1 1 0.99997
0.999963 1 1 0.999963
0.999963 1 1 0.999963
0.99996 1 1 0.99996
0.999958 1 1 0.999958
0.999967 1 1 0.999967
0.999954 1 1 0.999954
0.999957 1 1 0.999957
0.999949 1 1 0.999949
0.99995 1 1 0.99995
0.999918 0.99964 1.00028 1
0.999627 0.999452 1.00017 1
0.999904 0.999904 1 1
1.00014 1.00062 0.99953 0.999997
0.986045 1.00166 0.984459 0.999947
1.00586 1 1.00601 0.999854
1.00345 0.997206 1.00652 0.999748
1.01161 0.999375 1.01235 0.999899
0.996071 0.998912 0.997404 0.999751
0.996344 1.00115 0.995274 0.999927
0.997561 1.00041 0.997151 1
1.0147 0.998961 1.01583 0.999929
1.00282 0.99595 1.00716 0.999738
0.986906 0.995655 0.991328 0.999883
0.993534 1.00035 0.993185 1
0.999943 1 1 0.999943
0.999939 1 1 0.999939
0.999942 1 1 0.999942
1.00198 1 1.00206 0.999924
0.999957 1 1.00004 0.999922
0.999927 1 1 0.999927
0.999913 1 1 0.999913
0.999917 1 1 0.999917
0.999897 1 1 0.999897
1.00328 0.999993 1.00333 0.999956
0.99991 1 1 0.99991
1.00106 1 1.00114 0.999922
0.999499 0.999498 1 1
1.00006 1.00006 1 1
0.999969 0.999965 1 1
0.999967 1 1 0.999967
1.02241 0.999406 1.02309 0.999935
1.00007 1.00008 0.999997 1
1.00413 0.994592 1.0099 0.999693
0.985934 0.99481 0.991192 0.999885
0.999901 0.999572 1.00033 1
0.995246 1.00056 0.994686 1
1.0012 1 1.00124 0.99996
0.999631 0.999556 1.00007 1
0.998065 0.999749 0.998315 1
1.01778 0.999177 1.01869 0.999932
0.978663 0.985607 0.993058 0.999896
0.997131 0.99029 1.00731 0.999602
1.0032 1 1.00326 0.999935
0.999015 0.999548 0.999466 1
0.97576 0.981403 0.994331 0.999919
0.988968 0.985426 1.00396 0.99964
0.999974 1.00003 1.00001 0.999935
0.99993 1 1 0.99993
1.00147 1 1.00156 0.999911
1.00369 1 1.0038 0.999896
0.99992 1 1 0.99992
0.999996 1 1.00009 0.999903
0.999911 1 1 0.999911
0.999918 1 1 0.999918
0.99992 1 1 0.99992
0.999935 1 1 0.999935
0.999928 1 1 0.999928
0.999932 1 1 0.999932
0.999945 1 1 0.999945
0.999948 1 1 0.999948
0.999941 1 1 0.999941
0.99994 1 1 0.99994
0.999952 1 1 0.999952
0.999942 1 1 0.999942
0.999935 1 1 0.999935
0.999968 1 1 0.999968
0.999958 1 1 0.999958
0.999951 1 1 0.999951
0.999987 1 1 0.999987
0.99997 1 1 0.99997
0.99996 1 1 0.99996
1 1 1 1
0.999989 1 1 0.999989
0.999973 1 1 0.999973
1 1 1 1
1 1 1 1
0.99999 1 1 0.99999
1 1 1 1
1 1 1 1
1 1 1 1
1 1 1 1
1 1 1 1
1 1 1 1
0.999971 1 1 0.999971
0.999989 1 1 0.999989
0.999971 1 1 0.999971
1 1 1 1
0.999988 1 1 0.999988
1 1 1 1
1 1 1 1
0.999988 1 1 0.999988
1 1 1 1
1 1 1 1
1 1 1 1
1 1 1 1
1 1 1 1
1 1 1 1
0.999872 0.999871 1 1
1.00015 1.00015 0.999999 1
1.00005 1.00005 0.999999 1
0.999965 1 1 0.999965
0.999971 1 1 0.999971
0.999962 1 1 0.999962
0.999961 1 1 0.999961
0.999964 1 1 0.999964
0.999958 1 1 0.999958
0.999957 1 1 0.999957
0.999954 1 1 0.999954
0.999957 1 1 0.999957
0.99995 1 1 0.99995
0.99995 1 1 0.99995
0.999949 1 1 0.999949
0.996414 0.999517 0.996894 1
0.999868 0.999528 1.00034 1
0.999531 0.999411 1.00012 1
0.996084 1.00166 0.994436 1
0.995905 1.00094 0.995078 0.999895
1.00314 0.998611 1.00478 0.999757
1.0116 0.999482 1.01215 0.999981
1.0182 0.999098 1.01912 0.999994
0.994609 1.00038 0.994229 1
0.99882 0.997743 1.00139 0.999693
0.989336 0.994633 0.994686 0.999988
1.00884 0.999578 1.0093 0.999967
0.997084 0.990864 1.00661 0.999668
0.978267 0.985826 0.992332 1
0.999948 1 1 0.999948
0.999943 1 1 0.999943
0.99994 1 1 0.99994
1.00329 1 1.00334 0.999956
0.999897 1 1 0.999897
0.999917 1 1 0.999917
0.999911 1 1 0.999911
1.00103 1 1.00111 0.999923
0.999934 1 1 0.999934
0.996946 0.999045 0.997897 1
0.999662 0.999662 1 1
1.00004 1.00004 1 1
1.00089 1 1.00093 0.999959
1.01671 0.999973 1.01678 0.999955
0.999532 0.999532 1 1
1.00195 0.992756 1.00949 0.999778
0.980779 0.985622 0.99509 0.999997
0.99614 0.999679 0.996458 1
1.00326 1 1.00332 0.999936
0.997236 0.999512 0.997721 1
0.97678 0.981332 0.995354 1.00001
1.00088 0.999858 1.00118 0.999841
0.988801 0.984967 1.00424 0.99965
0.99771 1.00003 0.997783 0.999901
0.976411 0.980565 0.995749 1.00001
0.982618 0.981438 1.00148 0.999725
0.990182 1.00066 0.989689 0.99984
1.00123 1 1.00132 0.999911
1.00364 1 1.00375 0.999894
1.00161 1 1.00169 0.999916
1.00011 1 1.00021 0.999904
0.999972 1 1.00006 0.999912
0.999947 1 1 0.999947
0.999921 1 1 0.999921
0.999936 1 1 0.999936
0.99996 1 1 0.99996
0.999933 1 1 0.999933
0.999946 1 1 0.999946
0.999959 1 1 0.999959
0.999956 1 1 0.999956
0.999947 1 1 0.999947
0.999949 1 1 0.999949
0.999948 1 1 0.999948
0.999943 1 1 0.999943
0.99994 1 1 0.99994
0.999964 1 1 0.999964
0.999952 1 1 0.999952
0.999941 1 1 0.999941
0.999984 1 1 0.999984
0.999968 1 1 0.999968
0.999959 1 1 0.999959
1 1 1 1
0.999986 1 1 0.999986
0.999969 1 1 0.999969
1 1 1 1
1 1 1 1
0.999989 1 1 0.999989
1 1 1 1
1 1 1 1
1 1 1 1
1 1 1 1
1 1 1 1
1 1 1 1
0.999974 1 1 0.999974
0.999972 1 1 0.999972
0.999989 1 1 0.999989
1 1 1 1
0.999989 1 1 0.999989
0.999971 1 1 0.999971
1 1 1 1
1 1 1 1
0.999988 1 1 0.999988
1 1 1 1
1 1 1 1
1 1 1 1
1 1 1 1
1 1 1 1
1 1 1 1
0.998609 0.999155 0.999453 1
0.999848 0.999848 1 1
1.00016 1.00016 1 1
0.999964 1 1 0.999964
0.999963 1 1 0.999963
0.999959 1 1 0.999959
0.999962 1 1 0.999962
0.999965 1 1 0.999965
0.999958 1 1 0.999958
0.999955 1 1 0.999955
0.999958 1 1 0.999958
0.999952 1 1 0.999952
0.999952 1 1 0.999952
0.99995 1 1 0.99995
0.999949 1 1 0.999949
0.979244 0.98236 0.996822 1.00001
0.997198 0.999677 0.997519 1
0.999824 0.999428 1.0004 1
0.995588 1.00041 0.995177 1
0.98462 0.992898 0.991766 0.999896
1.00292 0.999096 1.00405 0.999782
1.01589 0.998984 1.017 0.999927
1.01013 0.999509 1.01073 0.999891
0.978661 0.985706 0.992944 0.999908
0.998569 0.99267 1.00621 0.999733
1.00622 1 1.00637 0.999857
0.98923 0.985464 1.00413 0.999696
0.999941 1 1 0.999941
0.999949 1 1 0.999949
0.999944 1 1 0.999944
1.00101 1 1.00108 0.999924
0.999912 1 1 0.999912
0.999948 1 1.00001 0.999935
0.999934 1 1 0.999934
0.974742 0.981479 0.99312 1.00002
0.998157 0.999264 0.998892 1
0.999836 0.999835 1 1
1.00376 1 1.00382 0.999936
1.0019 1.00008 1.00188 0.999946
0.997227 0.999497 0.997727 1
0.989478 0.985598 1.00428 0.999656
0.975994 0.981299 0.99467 0.999923
0.996922 1.00003 0.99699 0.999904
0.975351 0.979642 0.995638 0.999981
0.983992 0.981307 1.00303 0.999706
0.991126 1.00063 0.990561 0.999938
0.989958 1.00072 0.989336 0.999911
0.978561 0.979276 0.999551 0.999718
0.997637 1.00074 0.996963 0.99994
1.00367 1 1.00378 0.999892
1.00123 1 1.00132 0.999916
0.999816 1 0.999853 0.999964
1 1 1.00009 0.999914
0.999948 1 1 0.999948
0.999982 1 1 0.999982
0.999938 1 1 0.999938
0.99996 1 1 0.99996
0.999973 1 1 0.999973
0.999946 1 1 0.999946
0.999959 1 1 0.999959
0.999962 1 1 0.999962
0.999956 1 1 0.999956
0.999956 1 1 0.999956
0.999954 1 1 0.999954
0.999951 1 1 0.999951
0.999947 1 1 0.999947
0.999949 1 1 0.999949
0.999958 1 1 0.999958
0.999949 1 1 0.999949
0.999944 1 1 0.999944
0.99998 1 1 0.99998
0.999964 1 1 0.999964
0.999951 1 1 0.999951
1 1 1 1
0.999984 1 1 0.999984
0.999968 1 1 0.999968
1 1 1 1
1 1 1 1
0.999986 1 1 0.999986
1 1 1 1
1 1 1 1
1 1 1 1
1 1 1 1
1 1 1 1
1 1 1 1
0.999972 1 1 0.999972
0.999972 1 1 0.999972
0.999988 1 1 0.999988
0.999973 1 1 0.999973
0.999989 1 1 0.999989
1 1 1 1
1 1 1 1
1 1 1 1
0.999988 1 1 0.999988
1 1 1 1
1 1 1 1
1 1 1 1
1 1 1 1
1 1 1 1
1 1 1 1
0.978913 0.981194 0.997727 0.999948
0.997861 0.999247 0.998613 1
0.999825 0.999824 1 1
0.999963 1 1 0.999963
0.999959 1 1 0.999959
0.999964 1 1 0.999964
0.999962 1 1 0.999962
0.999958 1 1 0.999958
0.999955 1 1 0.999955
0.999958 1 1 0.999958
0.999952 1 1 0.999952
0.999954 1 1 0.999954
0.99995 1 1 0.99995
0.999948 1 1 0.999948
0.999951 1 1 0.999951
0.999948 1 1 0.999948
0.983609 0.983095 1.00086 0.99966
0.979383 0.982628 0.996727 0.99997
0.99653 0.99984 0.996688 1
0.980122 0.986098 0.993941 0.999999
0.996759 0.99064 1.00661 0.999568
1.00888 0.999616 1.0093 0.999969
1.00612 0.999729 1.00649 0.999902
0.988809 0.985365 1.00381 0.99969
1.00256 0.99998 1.0027 0.999886
0.999913 1 1 0.999912
1.00004 1 1.0001 0.99994
0.999949 1 1 0.999949
0.999961 1 1.00002 0.999937
0.999949 1 1 0.999949
0.977505 0.97975 0.997893 0.999816
0.976295 0.980944 0.995304 0.999957
0.99918 0.999471 0.999708 1
0.995948 1.00005 0.995993 0.999907
0.993368 1.00175 0.9918 0.99983
0.977166 0.979865 0.997291 0.999955
0.98593 0.981148 1.00519 0.999686
0.988847 1.00044 0.988503 0.999909
0.980184 0.979866 1.00054 0.999786
0.995064 1.00133 0.993883 0.999858
0.986014 1.00081 0.985267 0.999953
1.00635 0.999939 1.00646 0.999949
1.00086 1 1.00095 0.999917
0.999348 1 0.999384 0.999964
0.999548 1 0.999556 0.999992
0.999949 1 1 0.999949
0.999981 1 1 0.999981
0.999985 1 1 0.999985
0.99996 1 1 0.99996
0.999972 1 1 0.999972
0.999966 1 1 0.999966
0.999959 1 1 0.999959
0.999962 1 1 0.999962
0.999956 1 1 0.999956
0.999957 1 1 0.999957
0.999953 1 1 0.999953
0.999957 1 1 0.999957
0.999954 1 1 0.999954
0.999953 1 1 0.999953
0.999956 1 1 0.999956
0.99995 1 1 0.99995
0.999948 1 1 0.999948
0.999975 1 1 0.999975
0.999959 1 1 0.999959
0.999951 1 1 0.999951
0.999999 1 1 0.999999
0.99998 1 1 0.99998
0.999964 1 1 0.999964
1 1 1 1
1 1 1 1
0.999984 1 1 0.999984
1 1 1 1
1 1 1 1
1 1 1 1
1 1 1 1
1 1 1 1
1 1 1 1
0.999968 1 1 0.999968
0.999972 1 1 0.999972
0.999984 1 1 0.999984
0.999971 1 1 0.999971
0.999987 1 1 0.999987
1 1 1 1
0.999989 1 1 0.999989
1 1 1 1
1 1 1 1
1 1 1 1
1 1 1 1
1 1 1 1
1 1 1 1
1 1 1 1
1 1 1 1
0.981558 0.981749 1.00001 0.999791
0.977221 0.982381 0.994735 1.00001
0.998816 0.999336 0.999479 1
0.999959 1 1 0.999959
0.999964 1 1 0.999964
0.999958 1 1 0.999958
0.999962 1 1 0.999962
0.99996 1 1 0.99996
0.999958 1 1 0.999958
0.999951 1 1 0.999951
0.999954 1 1 0.999954
0.99995 1 1 0.99995
0.999951 1 1 0.999951
0.999948 1 1 0.999948
0.999918 1 1 0.999918
0.999948 1 1 0.999948
0.99995 1 1 0.99995
0.998221 0.999797 0.998444 0.999979
0.982306 0.982463 1.0001 0.999744
0.976326 0.981589 0.994711 0.999927
0.989361 0.986026 1.00371 0.999673
1.00639 0.999945 1.00649 0.999958
1.00266 0.999752 1.00296 0.999948
0.999899 1 1 0.999899
1.00003 1 1.00012 0.999913
1.00017 1 1.00023 0.999938
0.999965 1 1 0.999965
1.00182 0.999522 1.00239 0.999912
0.980456 0.98046 1.00018 0.999819
0.976285 0.981479 0.994694 1.00001
0.987465 1 0.987553 0.999906
0.996425 1.00206 0.994445 0.999935
0.980984 0.979328 1.00183 0.999859
0.987579 1.00033 0.9873 0.99995
1.00232 1.00016 1.00223 0.999932
0.992319 1 0.992345 0.999973
1.00237 1 1.00244 0.999929
0.998994 1 0.999029 0.999964
0.999329 1 0.999338 0.999991
0.99977 1 0.999794 0.999977
0.999981 1 1 0.999981
0.999983 1 1 0.999983
0.999965 1 1 0.999965
0.999971 1 1 0.999971
0.999966 1 1 0.999966
0.999954 1 1 0.999954
0.999961 1 1 0.999961
0.999957 1 1 0.999957
0.99995 1 1 0.99995
0.999958 1 1 0.999958
0.999954 1 1 0.999954
0.999952 1 1 0.999952
0.999954 1 1 0.999954
0.999953 1 1 0.999953
0.999957 1 1 0.999957
0.999969 1 1 0.999969
0.999957 1 1 0.999957
0.99995 1 1 0.99995
0.999998 1 1 0.999998
0.999975 1 1 0.999975
0.99996 1 1 0.99996
1 1 1 1
0.999999 1 1 0.999999
0.99998 1 1 0.99998
1 1 1 1
1 1 1 1
0.999999 1 1 0.999999
1 1 1 1
1 1 1 1
1 1 1 1
0.999967 1 1 0.999967
0.999969 1 1 0.999969
0.999981 1 1 0.999981
0.999972 1 1 0.999972
0.999984 1 1 0.999984
1 1 1 1
0.999985 1 1 0.999985
1 1 1 1
1 1 1 1
1 1 1 1
1 1 1 1
1 1 1 1
1 1 1 1
1 1 1 1
1 1 1 1
0.997422 0.999107 0.99832 0.999994
0.979805 0.981089 0.998896 0.999795
0.976245 0.982428 0.993758 0.999948
0.999957 1 1 0.999957
0.999959 1 1 0.999959
0.999963 1 1 0.999963
0.999957 1 1 0.999957
0.99996 1 1 0.99996
0.999957 1 1 0.999957
0.999954 1 1 0.999954
0.99995 1 1 0.99995
0.999952 1 1 0.999952
0.999951 1 1 0.999951
0.999934 1 1 0.999934
0.999891 1 1 0.999891
0.999921 1 1 0.999921
0.999947 1 1 0.999947
0.998233 1 0.99832 0.999913
0.997837 1 0.997907 0.99993
0.982492 0.981961 1.00072 0.999824
1.00218 1 1.00232 0.999866
0.999879 1 1 0.999879
1.00012 1 1.00021 0.999913
1.00001 1 1.00002 0.999988
1.003 0.999421 1.0036 0.999985
0.978287 0.980509 0.997922 0.999813
0.989384 1 0.989436 0.999948
0.999821 1.0004 0.999517 0.999901
0.994623 1 0.994652 0.999971
1.00131 1 1.00137 0.999937
0.999941 1 1 0.999941
0.999935 1 1 0.999935
0.998936 1 0.998946 0.99999
0.999842 1 0.999867 0.999976
0.999951 1 1 0.999951
0.999982 1 1 0.999982
0.999965 1 1 0.999965
0.99995 1 1 0.99995
0.999965 1 1 0.999965
0.999954 1 1 0.999954
0.999944 1 1 0.999944
0.999957 1 1 0.999957
0.99995 1 1 0.99995
0.999948 1 1 0.999948
0.999954 1 1 0.999954
0.999952 1 1 0.999952
0.999954 1 1 0.999954
0.999953 1 1 0.999953
0.999956 1 1 0.999956
0.999967 1 1 0.999967
0.999995 1 1 0.999995
0.99997 1 1 0.99997
0.999958 1 1 0.999958
1 1 1 1
0.999997 1 1 0.999997
0.999975 1 1 0.999975
1 1 1 1
1 1 1 1
0.999998 1 1 0.999998
1 1 1 1
1 1 1 1
1 1 1 1
0.999963 1 1 0.999963
0.999967 1 1 0.999967
0.99998 1 1 0.99998
0.999971 1 1 0.999971
0.999982 1 1 0.999982
0.999999 1 1 0.999999
0.999983 1 1 0.999983
1 1 1 1
1 1 1 1
1 1 1 1
1 1 1 1
1 1 1 1
1 1 1 1
1 1 1 1
1 1 1 1
0.998249 1 0.998271 0.999978
0.997175 0.999395 0.99786 0.999919
0.981568 0.982088 0.999659 0.999811
0.999955 1 1 0.999955
0.99995 1 1 0.99995
0.999957 1 1 0.999957
0.999957 1 1 0.999957
0.99996 1 1 0.99996
0.999956 1 1 0.999956
0.999936 1 1 0.999936
0.999952 1 1 0.999952
0.999955 1 1 0.999955
0.999933 1 1 0.999933
0.999904 1 1 0.999904
0.999934 1 1 0.999934
0.999894 1 1 0.999894
0.999924 1 1 0.999924
0.998345 1 0.998429 0.999916
0.997392 0.999998 0.997498 0.999895
0.999859 1 1 0.999859
0.999994 1 1 0.999994
1.00113 1 1.00114 0.999988
1.00165 0.999046 1.00268 0.999928
0.996988 1 0.997019 0.999969
1.00029 1 1.00034 0.999944
0.999944 1 1 0.999944
0.99994 1 1 0.99994
0.999935 1 1 0.999935
0.999971 1 1 0.999971
0.999975 1 1 0.999975
0.999952 1 1 0.999952
0.99994 1 1 0.99994
0.999965 1 1 0.999965
0.999949 1 1 0.999949
0.99994 1 1 0.99994
0.999955 1 1 0.999955
0.999944 1 1 0.999944
0.999942 1 1 0.999942
0.99995 1 1 0.99995
0.999948 1 1 0.999948
0.99995 1 1 0.99995
0.999952 1 1 0.999952
0.999954 1 1 0.999954
0.999964 1 1 0.999964
0.999956 1 1 0.999956
0.999967 1 1 0.999967
0.999991 1 1 0.999991
1 1 1 1
0.999994 1 1 0.999994
0.999971 1 1 0.999971
1 1 1 1
1 1 1 1
0.999997 1 1 0.999997
1 1 1 1
1 1 1 1
1 1 1 1
0.999957 1 1 0.999957
0.999963 1 1 0.999963
0.999976 1 1 0.999976
0.999967 1 1 0.999967
0.99998 1 1 0.99998
0.999998 1 1 0.999998
0.999983 1 1 0.999983
0.999999 1 1 0.999999
1 1 1 1
1 1 1 1
1 1 1 1
1 1 1 1
1 1 1 1
1 1 1 1
1 1 1 1
0.999985 1 1 0.999985
0.998408 1 0.998426 0.999982
0.997163 0.99914 0.998026 0.999996
0.999944 1 1 0.999944
0.999957 1 1 0.999957
0.999938 1 1 0.999938
0.99995 1 1 0.99995
0.999957 1 1 0.999957
0.999916 1 1 0.999916
0.999955 1 1 0.999955
0.999936 1 1 0.999936
0.999922 1 1 0.999922
0.999933 1 1 0.999933
0.9999 1 1 0.9999
0.999933 1 1 0.999933
0.999897 1 1 0.999897
0.998451 1 0.998532 0.999919
0.999995 1 1 0.999995
0.999992 1 1 0.999992
1.00216 1 1.00217 0.999989
0.999946 1 1 0.999946
0.999945 1 1 0.999945
0.999933 1 1 0.999933
0.999972 1 1 0.999972
0.999963 1 1 0.999963
0.999953 1 1 0.999953
0.999941 1 1 0.999941
0.999943 1 1 0.999943
0.999949 1 1 0.999949
0.99994 1 1 0.99994
0.99994 1 1 0.99994
0.999944 1 1 0.999944
0.999942 1 1 0.999942
0.999945 1 1 0.999945
0.999948 1 1 0.999948
0.99995 1 1 0.99995
0.999959 1 1 0.999959
0.999954 1 1 0.999954
0.999964 1 1 0.999964
0.999987 1 1 0.999987
0.999966 1 1 0.999966
0.999991 1 1 0.999991
1 1 1 1
1 1 1 1
1 1 1 1
0.999994 1 1 0.999994
1 1 1 1
1 1 1 1
1 1 1 1
0.999938 1 1 0.999938
0.99995 1 1 0.99995
0.999956 1 1 0.999956
0.999972 1 1 0.999972
0.999962 1 1 0.999962
0.999976 1 1 0.999976
0.999997 1 1 0.999997
0.99998 1 1 0.99998
0.999999 1 1 0.999999
1 1 1 1
0.999999 1 1 0.999999
1 1 1 1
1 1 1 1
1 1 1 1
1 1 1 1
1 1 1 1
0.99997 1 1 0.99997
0.999985 1 1 0.999985
0.998572 1 0.998587 0.999985
0.999926 1 1 0.999926
0.999946 1 1 0.999946
0.999958 1 1 0.999958
0.999939 1 1 0.999939
0.999949 1 1 0.999949
0.999916 1 1 0.999916
0.999915 1 1 0.999915
0.999937 1 1 0.999937
0.999921 1 1 0.999921
0.999897 1 1 0.999897
0.999931 1 1 0.999931
0.99999 1 1 0.99999
0.999994 1 1 0.999994
0.99999 1 1 0.99999
0.999931 1 1 0.999931
0.999973 1 1 0.999973
0.999963 1 1 0.999963
0.999963 1 1 0.999963
0.999942 1 1 0.999942
0.999941 1 1 0.999941
0.999947 1 1 0.999947
0.999939 1 1 0.999939
0.99994 1 1 0.99994
0.999942 1 1 0.999942
0.999942 1 1 0.999942
0.999945 1 1 0.999945
0.999954 1 1 0.999954
0.99995 1 1 0.99995
0.999959 1 1 0.999959
0.999982 1 1 0.999982
0.999964 1 1 0.999964
0.999987 1 1 0.999987
1 1 1 1
0.999991 1 1 0.999991
1 1 1 1
1 1 1 1
1 1 1 1
1 1 1 1
1 1 1 1
0.999927 1 1 0.999927
0.999948 1 1 0.999948
0.999941 1 1 0.999941
0.999966 1 1 0.999966
0.99995 1 1 0.99995
0.999955 1 1 0.999955
0.999972 1 1 0.999972
0.999995 1 1 0.999995
0.999977 1 1 0.999977
0.999997 1 1 0.999997
1 1 1 1
0.999999 1 1 0.999999
1 1 1 1
1 1 1 1
1 1 1 1
1 1 1 1
1 1 1 1
0.999956 1 1 0.999956
0.99997 1 1 0.99997
0.999984 1 1 0.999984
0.999923 1 1 0.999923
0.999926 1 1 0.999926
0.999949 1 1 0.999949
0.99994 1 1 0.99994
0.999917 1 1 0.999917
0.999914 1 1 0.999914
0.999919 1 1 0.999919
0.999981 1 1 0.999981
0.999986 1 1 0.999986
0.999993 1 1 0.999993
0.999967 1 1 0.999967
0.999962 1 1 0.999962
0.999963 1 1 0.999963
0.999959 1 1 0.999959
0.999939 1 1 0.999939
0.999947 1 1 0.999947
0.999947 1 1 0.999947
0.99994 1 1 0.99994
0.999942 1 1 0.999942
0.99995 1 1 0.99995
0.999945 1 1 0.999945
0.999954 1 1 0.999954
0.999976 1 1 0.999976
0.99996 1 1 0.99996
0.999982 1 1 0.999982
1 1 1 1
0.999987 1 1 0.999987
1 1 1 1
1 1 1 1
1 1 1 1
1 1 1 1
1 1 1 1
0.999924 1 1 0.999924
0.999935 1 1 0.999935
0.999929 1 1 0.999929
0.999963 1 1 0.999963
0.999947 1 1 0.999947
0.999944 1 1 0.999944
0.99999 1 1 0.99999
0.999966 1 1 0.999966
0.999951 1 1 0.999951
0.999972 1 1 0.999972
0.999995 1 1 0.999995
1 1 1 1
0.999998 1 1 0.999998
1 1 1 1
1 1 1 1
1 1 1 1
1 1 1 1
1 1 1 1
0.99995 1 1 0.99995
0.999954 1 1 0.999954
0.99997 1 1 0.99997
0.99992 1 1 0.99992
0.999926 1 1 0.999926
0.999917 1 1 0.999917
0.999969 1 1 0.999969
0.999983 1 1 0.999983
0.999982 1 1 0.999982
0.999965 1 1 0.999965
0.999963 1 1 0.999963
0.999963 1 1 0.999963
0.999959 1 1 0.999959
0.999957 1 1 0.999957
0.999948 1 1 0.999948
0.999947 1 1 0.999947
0.999951 1 1 0.999951
0.999943 1 1 0.999943
0.99995 1 1 0.99995
0.99997 1 1 0.99997
0.999954 1 1 0.999954
0.999976 1 1 0.999976
1 1 1 1
0.999982 1 1 0.999982
1 1 1 1
1 1 1 1
1 1 1 1
1 1 1 1
1 1 1 1
0.999949 1 1 0.999949
0.999928 1 1 0.999928
0.999924 1 1 0.999924
0.99995 1 1 0.99995
0.999936 1 1 0.999936
0.999931 1 1 0.999931
0.999984 1 1 0.999984
0.99996 1 1 0.99996
0.999946 1 1 0.999946
1 1 1 1
0.999991 1 1 0.999991
0.999966 1 1 0.999966
0.999996 1 1 0.999996
1 1 1 1
1 1 1 1
1 1 1 1
1 1 1 1
1 1 1 1
0.999946 1 1 0.999946
0.999949 1 1 0.999949
0.999951 1 1 0.999951
0.999917 1 1 0.999917
0.999962 1 1 0.999962
0.99997 1 1 0.99997
0.999985 1 1 0.999985
0.999963 1 1 0.999963
0.999964 1 1 0.999964
0.999965 1 1 0.999965
0.999959 1 1 0.999959
0.999956 1 1 0.999956
0.999957 1 1 0.999957
0.999947 1 1 0.999947
0.999951 1 1 0.999951
0.999968 1 1 0.999968
0.999951 1 1 0.999951
0.99997 1 1 0.99997
1 1 1 1
0.999976 1 1 0.999976
1 1 1 1
1 1 1 1
1 1 1 1
1 1 1 1
1 1 1 1
0.999948 1 1 0.999948
0.999943 1 1 0.999943
0.999948 1 1 0.999948
0.999939 1 1 0.999939
0.999931 1 1 0.999931
0.999923 1 1 0.999923
0.999972 1 1 0.999972
0.99995 1 1 0.99995
0.999937 1 1 0.999937
1 1 1 1
0.999982 1 1 0.999982
0.999957 1 1 0.999957
1 1 1 1
1 1 1 1
0.999991 1 1 0.999991
1 1 1 1
1 1 1 1
1 1 1 1
0.99995 1 1 0.99995
0.99995 1 1 0.99995
0.999948 1 1 0.999948
0.999968 1 1 0.999968
0.999962 1 1 0.999962
0.999972 1 1 0.999972
0.999965 1 1 0.999965
0.999965 1 1 0.999965
0.999969 1 1 0.999969
0.999956 1 1 0.999956
0.999958 1 1 0.999958
0.99997 1 1 0.99997
0.999952 1 1 0.999952
0.999969 1 1 0.999969
0.999999 1 1 0.999999
0.999971 1 1 0.999971
1 1 1 1
1 1 1 1
1 1 1 1
1 1 1 1
1 1 1 1
0.999947 1 1 0.999947
0.99995 1 1 0.99995
0.999947 1 1 0.999947
0.999946 1 1 0.999946
0.999944 1 1 0.999944
0.999947 1 1 0.999947
0.999963 1 1 0.999963
0.999942 1 1 0.999942
0.999933 1 1 0.999933
1 1 1 1
0.999971 1 1 0.999971
0.99995 1 1 0.99995
1 1 1 1
1 1 1 1
0.99998 1 1 0.99998
1 1 1 1
1 1 1 1
1 1 1 1
0.999958 1 1 0.999958
0.99995 1 1 0.99995
0.999954 1 1 0.999954
0.999972 1 1 0.999972
0.999967 1 1 0.999967
0.999962 1 1 0.999962
0.999965 1 1 0.999965
0.999969 1 1 0.999969
0.999978 1 1 0.999978
0.999959 1 1 0.999959
0.999971 1 1 0.999971
0.999998 1 1 0.999998
0.999969 1 1 0.999969
0.999999 1 1 0.999999
1 1 1 1
0.999999 1 1 0.999999
1 1 1 1
1 1 1 1
0.999953 1 1 0.999953
0.999944 1 1 0.999944
0.999954 1 1 0.999954
0.999951 1 1 0.999951
0.999947 1 1 0.999947
0.999966 1 1 0.999966
0.999946 1 1 0.999946
0.999944 1 1 0.999944
0.999999 1 1 0.999999
0.999964 1 1 0.999964
0.999944 1 1 0.999944
1 1 1 1
1 1 1 1
0.999969 1 1 0.999969
1 1 1 1
1 1 1 1
1 1 1 1
0.999965 1 1 0.999965
0.999958 1 1 0.999958
0.999951 1 1 0.999951
0.999981 1 1 0.999981
0.999973 1 1 0.999973
0.999966 1 1 0.999966
0.999969 1 1 0.999969
0.999977 1 1 0.999977
0.999999 1 1 0.999999
0.999971 1 1 0.999971
0.999998 1 1 0.999998
1 1 1 1
0.999998 1 1 0.999998
1 1 1 1
1 1 1 1
0.999959 1 1 0.999959
0.999952 1 1 0.999952
0.999942 1 1 0.999942
0.999971 1 1 0.999971
0.999954 1 1 0.999954
0.999951 1 1 0.999951
0.999999 1 1 0.999999
0.999966 1 1 0.999966
0.999945 1 1 0.999945
1 1 1 1
0.999999 1 1 0.999999
0.999965 1 1 0.999965
1 1 1 1
1 1 1 1
1 1 1 1
0.99998 1 1 0.99998
0.999965 1 1 0.999965
0.999957 1 1 0.999957
0.999999 1 1 0.999999
0.999981 1 1 0.999981
0.999973 1 1 0.999973
0.999977 1 1 0.999977
0.999999 1 1 0.999999
1 1 1 1
0.999999 1 1 0.999999
1 1 1 1
1 1 1 1
0.999976 1 1 0.999976
0.999959 1 1 0.999959
0.99995 1 1 0.99995
0.999999 1 1 0.999999
0.99997 1 1 0.99997
0.999954 1 1 0.999954
1 1 1 1
0.999999 1 1 0.999999
0.999965 1 1 0.999965
1 1 1 1
1 1 1 1
1 1 1 1
0.999999 1 1 0.999999
0.999979 1 1 0.999979
0.999965 1 1 0.999965
1 1 1 1
0.999999 1 1 0.999999
0.999981 1 1 0.999981
0.999999 1 1 0.999999
1 1 1 1
1 1 1 1
0.999999 1 1 0.999999
0.999976 1 1 0.999976
0.999959 1 1 0.999959
1 1 1 1
0.999999 1 1 0.999999
0.99997 1 1 0.99997
1 1 1 1
0.999999 1 1 0.999999
1 1 1 1
1 1 1 1
0.999999 1 1 0.999999
0.999978 1 1 0.999978
1 1 1 1
0.999999 1 1 0.999999
1 1 1 1
1 1 1 1
0.999999 1 1 0.999999
0.999976 1 1 0.999976
1 1 1 1
0.999999 1 1 0.999999
1 1 1 1
1 1 1 1
0.999999 1 1 0.999999
1 1 1 1
1 1 1 1
0.999999 1 1 0.999999
1 1 1 1
1 1 1 1
1 1 1 1

VECTORS lamdaE float
0.999331 0.997858 0.998157
0.999453 0.997296 0.999302
0.99933 0.997827 0.998173
0.999032 0.998954 0.997752
0.999243 0.998177 0.998043
0.999405 0.997572 0.998268
0.999529 0.998858 0.996698
0.999463 0.9973 0.999312
0.999266 0.998072 0.999163
0.999401 0.997503 0.999279
0.999524 0.997069 0.998458
0.999615 0.998323 0.996873
0.998541 1.00023 0.997471
0.998874 0.999295 0.997688
0.999329 0.997795 0.99819
0.999025 0.998921 0.997775
0.999406 0.997538 0.998283
0.999241 0.998145 0.998061
0.999525 0.99887 0.996704
0.998605 0.999875 0.998926
0.998907 0.999376 0.997613
0.99914 0.998544 0.997911
0.999393 0.999728 0.996153
0.99948 0.99914 0.996535
0.999481 0.997308 0.998364
0.999569 0.998581 0.996873
0.999903 1.00027 0.994626
0.999474 0.997303 0.999322
0.999267 0.998106 0.998582
0.999404 0.997523 0.998778
0.999518 0.99708 0.999342
0.999611 0.998298 0.99688
0.99915 0.998479 0.997878
0.999329 0.997808 0.99817
0.999528 0.99911 0.996797
0.999589 0.996858 0.999371
0.999575 0.998565 0.997198
0.999649 0.998111 0.997007
0.99987 0.999935 0.99476
0.999693 0.996616 0.999377
0.998545 0.999937 0.998921
0.998847 0.999294 0.998332
0.998469 1.00017 0.998893
0.998695 0.999767 0.997594
0.999138 1.00079 0.995298
0.999031 0.998768 0.999058
0.999311 1 0.996296
0.999018 0.998887 0.997798
0.999238 0.998111 0.998079
0.999407 0.997504 0.998299
0.999521 0.998883 0.99671
0.998591 0.999999 0.998204
0.998899 0.999348 0.997631
0.999484 0.99727 0.998376
0.999136 0.99851 0.997932
0.999392 0.99974 0.996157
0.999566 0.998591 0.99688
0.999477 0.99915 0.996539
0.999918 1.00026 0.994596
0.998524 1.00008 0.998913
0.998759 0.999785 0.997527
0.999188 1.00054 0.99603
0.999358 0.999997 0.995975
0.999428 0.999437 0.996358
1.00006 1.00059 0.993958
0.999942 1.00037 0.994311
0.999577 0.997084 0.998432
0.999622 0.998285 0.997057
0.999855 1.00012 0.994868
1.00024 1.00062 0.993339
0.999279 0.998088 0.999179
0.999534 0.99709 0.999353
0.999412 0.997538 0.999285
0.999607 0.998273 0.996887
0.999157 0.998432 0.999092
0.999326 0.997803 0.999215
0.999524 0.999109 0.996242
0.999593 0.996876 0.998937
0.999575 0.99854 0.996723
0.999649 0.998087 0.997245
0.99986 0.999953 0.994757
0.999638 0.996734 0.999373
0.999797 0.99764 0.997176
0.999491 0.999421 0.995953
0.999541 0.998861 0.996451
1.00003 1.00039 0.993947
0.999702 0.997893 0.99755
0.999909 1.00009 0.994527
0.999848 0.999776 0.994972
1.00005 1.00065 0.993689
0.99974 0.996512 0.999381
0.999701 0.996631 0.999378
0.998911 0.999145 0.999023
0.998591 0.999878 0.99894
0.998481 1.00014 0.998898
0.998675 0.999731 0.998263
0.999137 1.00072 0.995686
0.999037 0.998845 0.998408
0.999327 1.00005 0.995988
0.998465 1.00021 0.998893
0.999099 1.00098 0.995215
0.999214 1.00033 0.99616
0.999969 1.00102 0.993453
0.999426 0.999657 0.996452
1.00004 1.00069 0.99363
0.998582 1.00013 0.997474
0.99889 0.99932 0.99765
0.999486 0.997232 0.998388
0.999132 0.998473 0.997953
0.999391 0.999753 0.99616
0.999475 0.999161 0.996544
0.999564 0.998601 0.996888
0.999933 1.00026 0.994566
0.998506 1.0001 0.998906
0.998751 0.999758 0.997541
0.999199 1.00058 0.995541
0.999357 1.00001 0.995976
0.999565 0.997047 0.998885
0.999618 0.998289 0.997203
0.999427 0.999446 0.996362
1.00007 1.0006 0.993888
0.999872 1.00012 0.994834
0.999952 1.00038 0.994349
1.00024 1.00061 0.993345
0.999129 1.00088 0.995243
0.999287 1.00026 0.99587
1.0001 1.00085 0.993486
1.00012 1.00064 0.993674
0.999991 1.00049 0.994082
1.0005 1.00064 0.992901
0.999636 0.996878 0.999353
1.00032 1.00057 0.993235
0.999688 0.99803 0.997005
0.999842 0.999942 0.994805
1.00015 1.00069 0.993459
1.00044 1.00063 0.992928
0.999789 0.997713 0.997092
0.999977 0.999329 0.995134
0.999196 0.998407 0.999116
0.999345 0.997799 0.99924
0.999505 0.999098 0.996234
0.999598 0.99691 0.99937
0.999647 0.998053 0.997034
0.999565 0.998514 0.996718
0.999849 0.999972 0.994753
0.999648 0.996751 0.999374
0.999797 0.997629 0.997177
0.999486 0.999399 0.99629
0.999535 0.998829 0.996747
1.00002 1.00041 0.993944
0.999707 0.997875 0.99713
0.999893 1.00011 0.994527
0.999841 0.999778 0.994972
1.00005 1.00065 0.993647
0.999756 0.997741 0.99716
0.999832 0.997549 0.997193
0.999948 0.999307 0.995226
1.00008 1.00045 0.993772
0.999958 1.00027 0.994235
1.00041 1.00059 0.993005
0.999877 0.999553 0.995138
1.00014 1.0006 0.993485
0.999994 1.00069 0.993775
1.00016 1.00094 0.993247
0.999782 0.996415 0.999385
0.999746 0.996525 0.999382
0.999708 0.996647 0.999379
0.999825 0.997617 0.997117
0.999692 0.996742 0.99936
0.999072 0.99876 0.999066
0.998739 0.999534 0.998982
0.999297 1.00011 0.995649
0.99912 1.00081 0.995329
0.998492 1.00012 0.998905
0.998463 1.00021 0.998892
0.99909 1.00099 0.995215
0.999225 1.00041 0.99584
0.999977 1.00102 0.993445
0.999428 0.999719 0.995817
1.00005 1.00069 0.993626
0.99909 1.00102 0.99519
0.999948 1.00111 0.99341
1.00001 1.00086 0.993539
1.00035 1.00095 0.992766
1.00008 1.00054 0.993694
1.00047 1.00068 0.992806
0.998488 1.00012 0.9989
0.998743 0.999733 0.997555
0.999208 1.00062 0.995055
0.999356 1.00001 0.995976
0.999553 0.997008 0.99934
0.999613 0.998292 0.997349
0.999426 0.999457 0.996366
1.00007 1.0006 0.993818
0.999961 1.00038 0.994387
0.999888 1.00012 0.994799
1.00023 1.00061 0.993352
0.999132 1.00087 0.995244
0.999289 1.00026 0.99587
1.00011 1.00085 0.993357
1.00013 1.00065 0.993717
0.999622 0.996865 0.99935
0.999685 0.998046 0.99722
0.999854 0.999923 0.994937
0.999994 1.00049 0.994079
1.00049 1.00063 0.992823
1.00014 1.00069 0.993442
1.00032 1.00057 0.993278
1.00044 1.00063 0.992934
0.999789 0.997726 0.997091
0.999975 0.999335 0.995135
1.00002 1.00098 0.993366
1.00014 1.00073 0.993552
1.00053 1.00083 0.992635
1.00057 1.00065 0.992585
1.00038 1.0006 0.993137
1.00068 1.00062 0.992499
0.99974 0.997845 0.997057
1.00051 1.00053 0.992872
0.999865 0.999726 0.994955
1.00004 1.00066 0.993593
1.00035 1.00083 0.99303
1.00053 1.00058 0.992806
0.999949 0.999407 0.995109
0.999995 0.999263 0.995166
1.00009 1.00038 0.993884
0.999473 0.999401 0.995993
0.999658 0.996767 0.999375
0.999797 0.997617 0.997177
0.999525 0.9988 0.9965
1.00002 1.00044 0.993942
0.999701 0.997856 0.997128
0.999834 0.99978 0.994971
0.999875 1.00014 0.994526
1.00005 1.00066 0.993604
0.999755 0.997729 0.997161
0.999832 0.997539 0.997194
0.999949 0.999302 0.995226
1.00008 1.00047 0.993766
0.99994 1.0003 0.994236
1.00041 1.00059 0.993
0.999873 0.999546 0.995139
1.00014 1.00061 0.993511
0.999989 1.00071 0.993768
1.00016 1.00094 0.993201
0.999866 0.997463 0.997211
0.999919 0.99939 0.995207
0.99997 0.999237 0.99525
1.00006 1.00035 0.993978
1.00051 1.00051 0.992884
1.00026 1.00065 0.993271
1.00061 1.00061 0.992584
1.00001 1.00055 0.993891
1.00029 1.00077 0.993058
1.00007 1.00119 0.993135
1.00023 1.00104 0.992908
1.00004 0.998972 0.995369
0.999928 0.9973 0.997241
0.999821 0.996323 0.999389
0.999786 0.996425 0.999387
0.999751 0.996538 0.999384
0.999855 0.997536 0.997139
0.999736 0.996628 0.999366
0.999824 0.99763 0.997116
0.999682 0.996724 0.999358
0.999399 0.999739 0.995807
0.999195 1.00049 0.995487
1.00005 1.00069 0.993622
0.999986 1.00102 0.993438
0.999082 1.00101 0.995215
0.99846 1.00021 0.998889
0.999088 1.00102 0.99519
0.999955 1.00111 0.993405
1.00001 1.00086 0.993534
1.00036 1.00094 0.992758
1.00008 1.00055 0.993688
1.00047 1.00068 0.992808
0.999971 1.0011 0.993386
1.00028 1.00105 0.992818
1.00043 1.00082 0.992752
1.00054 1.00088 0.992484
1.00051 1.00054 0.992854
1.00065 1.00061 0.99253
0.999136 1.00086 0.995245
0.999292 1.00025 0.99587
1.00011 1.00085 0.993228
1.00013 1.00066 0.993759
0.999609 0.996851 0.999347
0.999682 0.998063 0.997434
0.999866 0.999905 0.99507
0.999997 1.0005 0.994076
1.00049 1.00062 0.992746
1.00033 1.00057 0.993321
1.00012 1.00068 0.993425
1.00043 1.00063 0.99294
0.999788 0.99774 0.99709
0.999973 0.999341 0.995136
1.00002 1.00098 0.993319
1.00014 1.00073 0.993548
1.00053 1.00082 0.99262
1.00057 1.00065 0.992672
0.999742 0.997859 0.997054
0.999873 0.999725 0.994955
1.00004 1.00066 0.993648
1.00039 1.00059 0.993146
1.00068 1.00059 0.992477
1.00034 1.00082 0.992974
1.00052 1.00053 0.992874
1.00053 1.00057 0.992802
0.999948 0.999414 0.99511
1.0001 1.00036 0.993842
0.999993 0.999269 0.995166
1.00042 1.00097 0.99274
1.00059 1.0007 0.992587
1.0007 1.0008 0.992235
1.00077 1.00064 0.992251
1.00056 1.00052 0.992754
1.00077 1.00045 0.992462
0.999908 0.999533 0.995063
1.0006 1.00045 0.992782
1.00003 1.00055 0.993818
1.0002 1.00092 0.993058
1.00043 1.00091 0.992716
1.00058 1.00044 0.99292
1.00001 0.999192 0.995203
1.00008 1.00038 0.993898
1.00009 1.00038 0.993778
1.00015 1.00088 0.993358
1.00008 1.00048 0.99376
0.999832 0.997528 0.997195
0.999755 0.997717 0.997162
0.999949 0.999296 0.995226
0.999923 1.00033 0.994237
1.00042 1.00059 0.992996
0.999869 0.999539 0.995141
0.999985 1.00072 0.993761
1.00015 1.00061 0.993537
1.00015 1.00093 0.993154
0.999865 0.997454 0.997212
0.999919 0.999383 0.995207
0.999971 0.999233 0.99525
1.00006 1.00035 0.993976
1.00051 1.00051 0.992879
1.00026 1.00065 0.993272
1.00061 1.00061 0.992579
1 1.00056 0.993891
1.0003 1.00078 0.993102
1.00007 1.0012 0.993121
1.00022 1.001 0.992982
0.999898 0.99738 0.997227
0.99999 0.999168 0.995278
1.00005 1.00039 0.993962
1.00006 1.00032 0.993994
1.00011 1.00098 0.993255
1.0007 1.00044 0.992572
1.00043 1.00076 0.992807
1.0007 1.00058 0.992455
1.00006 1.00118 0.993183
1.00035 1.0009 0.992837
1.00014 1.0015 0.992561
1.00002 0.999043 0.995335
1.0001 1.0001 0.994144
1.00006 0.998908 0.995392
1.00004 0.99897 0.99537
0.999955 0.997203 0.997668
0.999925 0.997294 0.997449
0.999868 0.996269 0.998567
0.999825 0.996329 0.99939
0.999791 0.996434 0.999388
0.999885 0.99746 0.997155
0.999774 0.996524 0.999371
0.999855 0.997547 0.997137
0.999729 0.996612 0.999364
0.999824 0.997642 0.997115
0.999673 0.996707 0.999356
1.00008 1.00056 0.993683
1.00001 1.00086 0.993529
1.00047 1.00068 0.99281
1.00037 1.00094 0.992751
0.999961 1.00111 0.993401
0.999085 1.00102 0.995191
0.999966 1.0011 0.99339
1.00029 1.00105 0.992814
1.00043 1.00082 0.99275
1.00054 1.00088 0.992494
1.00051 1.00055 0.992853
1.00064 1.00061 0.992537
1.0003 1.00107 0.992776
1.00039 1.00102 0.992646
1.00061 1.00076 0.992447
1.00062 1.00084 0.992374
1.00068 1.00045 0.992606
1.00075 1.00039 0.992585
1.00002 1.00098 0.993272
1.00014 1.00073 0.993545
1.00052 1.00082 0.992604
1.00057 1.00066 0.992759
0.999743 0.997873 0.997052
0.99988 0.999723 0.994955
1.00005 1.00065 0.993702
1.0004 1.00059 0.993155
1.00068 1.00057 0.992455
1.00052 1.00053 0.992875
1.00033 1.00081 0.992919
1.00053 1.00055 0.992798
0.999948 0.999421 0.995112
1.0001 1.00035 0.9938
0.999991 0.999276 0.995166
1.0004 1.00097 0.992704
1.00059 1.00071 0.992583
1.00071 1.00079 0.992191
1.00078 1.00064 0.992269
0.99991 0.999539 0.995063
1.00004 1.00054 0.993819
1.00019 1.00093 0.993109
1.00057 1.00055 0.992779
1.00076 1.00041 0.992479
1.00042 1.00093 0.992673
1.0006 1.00044 0.992783
1.00057 1.00038 0.992949
1.00009 1.00037 0.993901
1.00016 1.00087 0.993295
1.00001 0.999198 0.995202
1.00009 1.00038 0.993779
1.00057 1.00098 0.992334
1.00085 1.00067 0.992134
1.00079 1.0008 0.991976
1.00087 1.00045 0.992206
1.00065 1.00039 0.992727
1.00083 1.00019 0.992585
1.00005 1.00045 0.993889
1.00064 1.00017 0.992978
1.00014 1.00086 0.993233
1.00027 1.00122 0.992709
1.00047 1.00095 0.992567
1.00063 1.00023 0.993009
1.00002 0.999151 0.99523
1.00009 1.00035 0.993792
1.00017 1.00078 0.993339
1.00013 1.00102 0.993207
1.00021 1.00107 0.993022
0.999865 0.997445 0.997213
1.00052 1.00052 0.992874
0.999971 0.999228 0.995251
0.999918 0.999376 0.995207
1.00005 1.00036 0.993974
1.00025 1.00065 0.993272
1.00062 1.00061 0.992575
0.99999 1.00057 0.993892
1.00008 1.00121 0.993107
1.0003 1.00079 0.993145
1.0002 1.00097 0.993056
0.999897 0.997374 0.997228
0.999991 0.999164 0.995278
1.00004 1.0004 0.993962
1.00006 1.00032 0.993992
1.00011 1.00098 0.993235
1.0007 1.00045 0.992562
1.00043 1.00076 0.992807
1.00069 1.0006 0.992437
1.00005 1.00118 0.993187
1.00036 1.0009 0.992861
1.00016 1.00148 0.992601
1.00001 0.999105 0.995304
1.00008 1.00027 0.994012
1.0001 1.001 0.993223
1.00011 1.001 0.993234
1.00012 1.00132 0.992931
1.00081 1.00021 0.992562
1.0005 1.00083 0.992606
1.00065 1.00031 0.992735
1.00007 1.00168 0.992635
1.00034 1.00149 0.992314
1.00002 0.999039 0.995337
1.00009 1.00019 0.99396
1.0001 1.00011 0.994084
1.0001 1.0009 0.993462
1.0001 1.00006 0.994178
1.00008 0.998863 0.995399
1.00006 0.998909 0.995393
0.999985 0.997128 0.997678
1.00004 0.998967 0.995372
0.999955 0.997215 0.99767
0.999912 0.996181 0.998577
0.999922 0.997288 0.997657
0.999866 0.996235 0.998981
0.999829 0.996334 0.999391
0.999914 0.997379 0.997178
0.999886 0.997467 0.997154
0.999812 0.996423 0.999374
0.999769 0.996512 0.999369
0.999855 0.997558 0.997136
0.999723 0.996595 0.999363
1.00051 1.00056 0.992851
1.00043 1.00082 0.992747
1.00064 1.00061 0.992543
1.00053 1.00089 0.992503
1.00029 1.00105 0.99281
0.999962 1.0011 0.993395
1.00029 1.00107 0.992783
1.00038 1.00102 0.992663
1.00061 1.00076 0.992448
1.00063 1.00086 0.992342
1.00068 1.00045 0.992604
1.00075 1.00038 0.992574
1.0004 1.00108 0.992601
1.00036 1.0011 0.992614
1.00072 1.00063 0.992328
1.00064 1.00101 0.992231
1.0008 1.00011 0.992679
1.00082 1.00025 0.992639
1.00038 1.00096 0.992668
1.00059 1.00072 0.99258
1.00073 1.00079 0.992148
1.00078 1.00064 0.992286
0.999913 0.999544 0.995064
1.00005 1.00053 0.99382
1.00019 1.00094 0.993161
1.00057 1.00057 0.992805
1.00076 1.00037 0.992496
1.00061 1.00044 0.992785
1.00041 1.00095 0.99263
1.00057 1.00032 0.992978
1.00009 1.00035 0.993905
1.00016 1.00085 0.993232
1.00001 0.999203 0.9952
1.0001 1.00037 0.99378
1.00056 1.00098 0.992343
1.00084 1.00067 0.992137
1.00081 1.00082 0.991955
1.00087 1.00046 0.992217
1.00006 1.00043 0.993891
1.00014 1.00085 0.993273
1.00026 1.00124 0.992704
1.00066 1.00042 0.992716
1.00081 1.00016 0.992636
1.00047 1.00098 0.992547
1.00064 1.00017 0.992979
1.00062 1.00012 0.993085
1.00017 1.00077 0.99334
1.00022 1.00105 0.992987
1.00013 1.00103 0.9932
1.00002 0.999149 0.995145
1.0001 1.00034 0.993798
1.00063 1.00102 0.992159
1.00096 1.00063 0.991873
1.00093 1.00018 0.992371
1.00076 1.00002 0.99287
1.00016 1.00077 0.993364
1.00074 0.9997 0.993272
1.00014 1.00118 0.992892
1.00031 1.00152 0.99233
1.00056 1.00085 0.992485
1.00003 0.99909 0.995099
1.00009 1.0003 0.994021
1.00011 1.0011 0.993151
1.00022 1.00096 0.993049
1.0002 1.00135 0.99275
1.00026 1.00117 0.99277
0.999897 0.997367 0.997229
0.999991 0.999161 0.995278
1.00071 1.00045 0.992552
1.00006 1.00032 0.993991
1.00004 1.00041 0.993961
1.0001 1.00098 0.993215
1.00043 1.00077 0.992807
1.00069 1.00061 0.99242
1.00005 1.00117 0.993191
1.00018 1.00145 0.992642
1.00036 1.0009 0.992885
1.00001 0.999102 0.995305
1.00008 1.00027 0.994011
1.00009 1.00099 0.99326
1.00011 1.00101 0.993229
1.00012 1.00133 0.992888
1.0008 1.00025 0.992557
1.00051 1.00082 0.992588
1.00066 1.00028 0.992765
1.00006 1.00168 0.992608
1.00034 1.00153 0.992262
1.00009 1.00023 0.99403
1.00013 1.00101 0.993113
1.00011 1.00146 0.992786
1.00013 1.00138 0.992752
1.00018 1.00147 0.992647
1.00094 0.999384 0.99315
1.00052 1.00109 0.992375
1.0007 1.00006 0.992731
1.00018 1.00196 0.992276
1.00033 1.00182 0.991809
1.00002 0.999035 0.995338
1.00009 1.00019 0.994013
1.00011 1.00099 0.99318
1.0001 1.00012 0.994023
1.0001 1.00006 0.994179
1.0001 1.0009 0.993367
1.00009 1.00147 0.992876
1.0001 1.00086 0.993314
1.0001 1.00004 0.994197
1.0001 0.998838 0.995391
1.00008 0.998865 0.995399
1.00001 0.997063 0.997684
1.00006 0.99891 0.995393
0.999984 0.99714 0.997679
0.999949 0.996097 0.998582
0.999954 0.997226 0.997671
0.999912 0.996146 0.998577
0.999864 0.996203 0.999395
0.999945 0.997274 0.997222
0.999916 0.997386 0.997177
0.99985 0.996311 0.999381
0.999887 0.997475 0.997153
0.999807 0.996415 0.999373
0.999764 0.996499 0.999368
1.00068 1.00046 0.992602
1.00062 1.00077 0.992449
1.00075 1.00038 0.992563
1.00064 1.00088 0.992311
1.00037 1.00102 0.992681
1.00029 1.00107 0.99279
1.00038 1.00108 0.992606
1.00037 1.00107 0.992617
1.00073 1.00063 0.992319
1.00064 1.00106 0.992151
1.00079 1.00013 0.992689
1.00081 1.00021 0.992634
1.00031 1.00111 0.99272
1.00035 1.00121 0.992507
1.00071 1.00082 0.99219
1.00089 0.999616 0.993091
1.00056 1.00098 0.992352
1.00083 1.00067 0.99214
1.00083 1.00083 0.991935
1.00087 1.00048 0.992228
1.00007 1.00041 0.993893
1.00014 1.00085 0.993313
1.00025 1.00127 0.992699
1.00066 1.00045 0.992704
1.00079 1.00013 0.992687
1.00064 1.00017 0.992981
1.00047 1.00102 0.992528
1.00062 1.00001 0.993161
1.00017 1.00077 0.993342
1.00022 1.00104 0.992953
1.00013 1.00103 0.993192
1.00002 0.999146 0.99506
1.0001 1.00034 0.993804
1.00067 1.001 0.992094
1.00095 1.00064 0.991914
1.00092 1.0002 0.992389
1.00016 1.00077 0.993363
1.00016 1.00117 0.992946
1.0003 1.00155 0.992318
1.00077 1.00005 0.992839
1.00055 1.00078 0.992578
1.00072 0.999721 0.993258
1.00003 0.999079 0.995109
1.00022 1.00097 0.993047
1.00026 1.00114 0.992782
1.0002 1.00133 0.99278
1.00011 1.00112 0.993177
1.00009 1.0003 0.993934
1.00076 1.00094 0.992016
1.00101 1.00052 0.991897
1.00096 0.999804 0.992664
1.00091 0.999405 0.99322
1.0002 1.00102 0.993043
1.00075 1.00002 0.992912
1.00017 1.00159 0.992469
1.00036 1.00172 0.99207
1.00005 0.998952 0.995193
1.00009 1.00029 0.994037
1.0001 1.00111 0.993254
1.00015 1.00158 0.992575
1.00025 1.00117 0.992757
1.00027 1.00141 0.992508
1.00001 0.999098 0.995305
1.00008 1.00027 0.994009
1.00079 1.00028 0.992552
1.0001 1.00103 0.993223
1.00009 1.00099 0.993298
1.00012 1.00134 0.992846
1.00052 1.00082 0.99257
1.00068 1.00024 0.992795
1.00005 1.00169 0.992581
1.00034 1.00158 0.992209
1.00009 1.00023 0.994031
1.00012 1.00102 0.993151
1.0001 1.00145 0.992843
1.00013 1.00139 0.992793
1.00016 1.00147 0.992663
1.00095 0.999387 0.993185
1.00054 1.00104 0.992388
1.00067 1.00009 0.992878
1.00016 1.00197 0.992235
1.00035 1.00192 0.991729
1.00012 1.00102 0.993114
1.00014 1.00159 0.992531
1.00015 1.00176 0.992422
1.00018 1.00159 0.992422
1.00113 0.999072 0.993254
1.00104 0.999042 0.99328
1.00055 1.00143 0.991901
1.00019 1.00238 0.991562
1.00009 1.00019 0.994066
1.00011 1.001 0.993232
1.00009 1.00156 0.992743
1.0001 1.00007 0.994179
1.0001 1.00091 0.993272
1.0001 1.00004 0.994198
1.0001 1.00147 0.992808
1.0001 1.00086 0.993352
1.00011 1.00184 0.992444
1.0001 1.00142 0.992772
1.00011 1.00084 0.993331
1.0001 1.00004 0.994191
1.00011 0.998835 0.995372
1.0001 0.998842 0.995391
1.00003 0.997013 0.997684
1.00008 0.998868 0.995399
1.00001 0.997075 0.997684
0.999982 0.996023 0.998586
0.999984 0.997151 0.99768
0.999948 0.996063 0.998582
0.999912 0.996112 0.998576
0.99998 0.99716 0.997267
0.999948 0.997282 0.99722
0.999888 0.996189 0.999392
0.999918 0.997392 0.997175
0.999845 0.996311 0.999379
0.999803 0.996407 0.999372
1.00078 1.00015 0.992699
1.00073 1.00062 0.992311
1.00081 1.00017 0.99263
1.00063 1.00111 0.992072
1.00038 1.00105 0.992619
1.00037 1.00108 0.992611
1.00035 1.00111 0.992643
1.00038 1.0012 0.992489
1.00068 1.00077 0.992267
1.00089 0.999602 0.993044
1.00036 1.00113 0.992581
1.00034 1.00135 0.992393
1.00084 1.00004 0.99272
1.00071 1.00099 0.992029
1.00093 1.00065 0.991955
1.00091 1.00023 0.992407
1.00017 1.00077 0.993362
1.00018 1.00116 0.993
1.00028 1.00159 0.992305
1.00078 1.00008 0.992807
1.00071 0.999739 0.993244
1.00054 1.00071 0.992672
1.00022 1.00098 0.993044
1.00027 1.00111 0.992794
1.00019 1.00132 0.992811
1.00003 0.999068 0.99512
1.00012 1.00113 0.993203
1.0001 1.00029 0.993847
1.00071 1.00093 0.992105
1.00103 1.00048 0.991888
1.00096 0.999868 0.992613
1.0002 1.00102 0.99304
1.00017 1.00157 0.992517
1.00035 1.00169 0.992113
1.00089 0.999401 0.99327
1.00074 1.00003 0.992898
1.00005 0.998946 0.995288
1.00008 1.0003 0.994035
1.00025 1.00117 0.992756
1.00027 1.00142 0.992516
1.00015 1.00156 0.992605
1.00011 1.0011 0.993211
1.0007 1.0008 0.992249
1.00108 1.00024 0.992035
1.00105 0.999005 0.993304
1.00098 0.999087 0.99346
1.00019 1.00134 0.992688
1.00048 1.00137 0.992157
1.00022 1.00194 0.992166
1.00007 0.998842 0.995445
1.0001 0.999959 0.994285
1.00008 1.00016 0.993989
1.00009 1.0012 0.993121
1.00013 1.00162 0.992566
1.0002 1.00181 0.992273
1.00025 1.00136 0.992568
1.00024 1.00177 0.992297
1.00009 1.00023 0.994031
1.00012 1.00104 0.993188
1.00096 0.999391 0.99322
1.00012 1.00139 0.992834
1.0001 1.00143 0.9929
1.00014 1.00147 0.992678
1.00056 1.00099 0.992402
1.00064 1.00012 0.993024
1.00014 1.00198 0.992193
1.00038 1.00202 0.991648
1.00012 1.00103 0.993108
1.00014 1.00157 0.992592
1.00014 1.00175 0.992468
1.00019 1.00161 0.992455
1.00112 0.999023 0.993219
1.00098 0.999194 0.993231
1.00058 1.00141 0.991965
1.00022 1.00236 0.991552
1.0001 1.00164 0.992648
1.00076 0.999899 0.992982
1.00016 1.00202 0.992196
1.0002 1.0021 0.991988
1.00143 0.997974 0.993791
1.00088 1.00068 0.991878
1.00033 1.00264 0.991275
1.0001 1.001 0.993284
1.00009 1.00157 0.992744
1.00008 1.00194 0.992384
1.0001 1.00005 0.994198
1.0001 1.00086 0.99339
1.0001 1.00148 0.99274
1.0001 1.00005 0.994191
1.00011 1.00084 0.993331
1.00011 1.00185 0.992396
1.0001 1.00143 0.992843
1.00014 1.00203 0.992178
1.00014 1.00181 0.992337
1.00011 1.00138 0.992873
1.0001 1.00086 0.993393
1.0001 1.00006 0.994169
1.00011 0.998842 0.995355
1.00011 0.998837 0.995372
1.00005 0.996985 0.997674
1.00009 0.998845 0.995391
1.00004 0.997027 0.997682
1.00001 0.995964 0.998585
1.00001 0.997086 0.997684
0.999981 0.995991 0.998586
0.999948 0.99603 0.998582
1.00008 0.998741 0.99552
1.00001 0.99706 0.997309
0.999982 0.997166 0.997265
0.999926 0.996081 0.999401
0.99995 0.997289 0.997217
0.999883 0.996196 0.999389
0.99984 0.996312 0.999376
1.00088 0.999587 0.992997
1.00065 1.00073 0.992345
1.00042 1.00118 0.992471
1.00039 1.0011 0.992567
1.00034 1.00113 0.992658
1.00033 1.00141 0.992365
1.0008 0.99999 0.992828
1.00033 1.00123 0.99258
1.00044 1.00098 0.992495
1.00041 1 0.993836
1.00066 1.00092 0.992193
1.00105 1.00044 0.99188
1.00096 0.999933 0.992562
1.0002 1.00103 0.993037
1.00017 1.00155 0.992566
1.00034 1.00165 0.992155
1.00088 0.999398 0.993321
1.00074 1.00003 0.992885
1.00025 1.00117 0.992756
1.00027 1.00142 0.992524
1.00014 1.00155 0.992634
1.00005 0.998939 0.995383
1.00008 1.00031 0.994033
1.00012 1.00109 0.993169
1.00071 1.00079 0.992192
1.00007 0.998844 0.995444
1.0001 0.999953 0.994231
1.00108 1.00021 0.99206
1.00102 0.99914 0.993187
1.00019 1.00132 0.992707
1.00021 1.00196 0.992123
1.00048 1.00128 0.992177
1.00098 0.999081 0.993439
1.00008 1.00016 0.994144
1.00009 1.00121 0.993112
1.00025 1.00137 0.99258
1.00025 1.00169 0.992313
1.00021 1.00182 0.992212
1.00013 1.00161 0.992587
1.00077 1.00116 0.99177
1.00113 0.999492 0.992693
1.0012 0.997912 0.994129
1.00074 1.00025 0.992741
1.00018 1.00163 0.992455
1.00027 1.00222 0.991842
1.00011 0.999837 0.994274
1.00009 1.00004 0.994214
1.00009 1.00085 0.993544
1.00007 1.00118 0.993033
1.00012 1.00171 0.992582
1.00018 1.00204 0.99197
1.0002 1.00224 0.991894
1.00019 1.00174 0.992313
1.00012 1.00104 0.993102
1.00014 1.00155 0.992653
1.00111 0.998972 0.993184
1.00092 0.999342 0.993183
1.0002 1.00163 0.992488
1.00013 1.00174 0.992513
1.00061 1.0014 0.992028
1.00026 1.00235 0.991541
1.0001 1.00164 0.992644
1.00066 0.999726 0.993295
1.00016 1.00197 0.99219
1.00021 1.00208 0.991922
1.00133 0.998075 0.993722
1.00095 1.00068 0.99191
1.00032 1.00272 0.991215
1.00009 1.00212 0.992239
1.00106 0.998126 0.993925
1.00021 1.00224 0.991926
1.00027 1.00282 0.991304
1.00159 0.999067 0.991985
1.00049 1.00259 0.990759
1.00346 0.996215 0.991001
1.00008 1.00157 0.992745
1.00007 1.00195 0.992385
1.0001 1.00215 0.992169
1.0001 1.00005 0.99419
1.0001 1.00084 0.993331
1.0001 1.00143 0.992914
1.00012 1.00185 0.992348
1.0001 1.00007 0.994169
1.0001 1.00086 0.993351
1.00014 1.00202 0.992166
1.00011 1.00138 0.992871
1.00014 1.00181 0.992395
1.00019 1.00203 0.992043
1.00014 1.00176 0.992485
1.00012 1.00139 0.992896
1.0001 1.00089 0.993271
1.0001 1.00008 0.994037
1.00009 1.00094 0.993447
1.0001 1.00008 0.994038
1.00011 0.99885 0.995348
1.00011 0.998842 0.995355
1.00007 0.996993 0.997252
1.00011 0.998839 0.995372
1.00006 0.997001 0.997468
1.00001 0.995898 0.9994
1.00004 0.99704 0.997681
1.00001 0.995933 0.998586
0.99998 0.995959 0.998586
1.00009 0.998642 0.995591
1.00008 0.998742 0.995518
1.00003 0.996965 0.99736
1.00001 0.997066 0.997508
0.999958 0.995983 0.999412
0.999984 0.997173 0.997262
0.99992 0.996085 0.999399
0.999878 0.996203 0.999385
1.00077 0.999941 0.992936
1.00033 1.00147 0.992336
1.00032 1.00113 0.992734
1.00033 1.00122 0.992588
1.00044 1.00101 0.992502
1.00011 1.0002 0.994111
1.00039 1.00124 0.992523
1.00175 0.99624 0.996531
0.999517 0.999749 0.995529
1.00012 0.999724 0.994486
1.00072 1.00078 0.992136
1.00109 1.00019 0.992085
1.001 0.999271 0.993071
1.00019 1.0013 0.992726
1.00021 1.00197 0.992079
1.00049 1.00118 0.992196
1.00097 0.999076 0.993418
1.00026 1.00138 0.992592
1.00025 1.0016 0.992329
1.00021 1.00184 0.992152
1.00007 0.998845 0.995443
1.00014 1.0016 0.992607
1.00008 1.00016 0.9943
1.00009 1.00122 0.993104
1.0001 0.999946 0.994176
1.00083 1.00109 0.991675
1.00011 0.999822 0.994343
1.00009 1.00004 0.994213
1.00009 1.00087 0.993438
1.00111 0.999517 0.992701
1.00118 0.998073 0.993942
1.00019 1.0016 0.992466
1.00022 1.00218 0.991845
1.00072 1.00019 0.992767
1.00007 1.00117 0.993107
1.00013 1.00171 0.992557
1.0002 1.00174 0.992307
1.0002 1.00214 0.991966
1.00018 1.00206 0.992016
1.00094 1.00107 0.9915
1.00134 0.997467 0.994163
1.00118 0.99871 0.993398
1.00042 1.00177 0.992017
1.00009 1.00201 0.992212
1.00009 1.00069 0.993465
1.00008 1.00099 0.993187
1.00005 1.00155 0.992862
1.00009 1.00193 0.992388
1.00017 1.00198 0.992077
1.00017 1.00261 0.99159
1.00016 1.00237 0.991768
1.0001 1.00163 0.99264
1.00016 1.00193 0.992184
1.00056 0.999557 0.993608
1.00122 0.99818 0.993654
1.00101 1.00069 0.991942
1.00022 1.00205 0.991855
1.00032 1.00279 0.991155
1.00009 1.00208 0.992266
1.00095 0.998105 0.994093
1.0002 1.0022 0.991908
1.00023 1.00279 0.991282
1.00163 0.998918 0.992199
1.00048 1.00276 0.990712
1.00361 0.99624 0.991862
1.00008 1.00235 0.992009
1.00204 0.998209 0.991413
1.00012 1.00265 0.99166
1.00004 1.00398 0.990515
1.00091 1.00193 0.990279
0.994652 1.00355 0.981188
0.999845 0.9997 0.994627
1.00335 0.997564 0.990016
0.997794 0.995697 0.993701
1.00737 0.983316 0.998589
1.00006 1.00196 0.992386
1.00009 1.00214 0.992173
1.00013 1.0022 0.992026
1.0001 1.00007 0.994168
1.0001 1.00086 0.99331
1.00011 1.00138 0.99287
1.00013 1.00182 0.992452
1.00014 1.00201 0.992154
1.00013 1.00139 0.992827
1.0001 1.00008 0.994095
1.0001 1.0009 0.993316
1.00018 1.00203 0.992081
1.00014 1.00174 0.992462
1.00014 1.00171 0.992502
1.0002 1.00196 0.992136
1.00014 1.00145 0.992691
1.0001 1.00093 0.993238
1.0001 1.00008 0.994035
1.0001 1.00093 0.993373
1.0001 1.00151 0.992844
1.00009 1.00098 0.993289
1.00009 1.00094 0.993348
1.0001 1.0001 0.994137
1.0001 1.00008 0.994038
1.0001 0.998862 0.995349
1.00011 0.998849 0.995349
1.00007 0.997015 0.997246
1.00011 0.998843 0.995355
1.00007 0.996994 0.997252
1.00001 0.995887 0.999398
1.00006 0.997017 0.997261
1.00002 0.995898 0.99899
1.00001 0.995903 0.998586
1.0001 0.998568 0.995647
1.00009 0.998644 0.99559
1.00005 0.996886 0.99741
1.00008 0.998745 0.995517
1.00003 0.996962 0.997559
0.999982 0.995899 0.999424
1.00001 0.997079 0.997296
0.999951 0.996012 0.999406
0.999915 0.996091 0.999396
1.00044 1.00105 0.992508
1.00033 1.00122 0.992595
0.999811 1.00038 0.994385
1.00159 0.996514 0.996496
1.00033 1.00122 0.992556
0.999557 1.00009 0.994984
1.00018 1.00156 0.992115
0.998342 0.999923 0.992787
0.999736 1.00013 0.997039
1.00012 0.999653 0.994554
1.00012 0.999732 0.994482
1.0001 1.00056 0.993686
1.00008 1.00041 0.993871
1.0009 1.00102 0.991579
1.0011 0.999536 0.992708
1.00116 0.998242 0.993756
1.00021 1.00157 0.992477
1.00018 1.00213 0.991847
1.00071 1.00014 0.992793
1.0002 1.00174 0.9923
1.0002 1.00204 0.992037
1.00018 1.00208 0.992061
1.00009 1.00005 0.994212
1.00014 1.00171 0.992531
1.00007 1.00116 0.993181
1.00011 0.999808 0.994412
1.00009 1.00088 0.993333
1.00096 1.00095 0.991602
1.00009 1.0007 0.993573
1.00008 1.00098 0.993259
1.00005 1.00147 0.992899
1.0013 0.997724 0.994124
1.00117 0.998595 0.993401
1.00011 1.00205 0.992202
1.00037 1.00171 0.992072
1.00009 1.00195 0.992404
1.00018 1.00195 0.992118
1.00017 1.00235 0.991776
1.00016 1.00259 0.991619
1.00117 0.99927 0.992769
1.00165 0.996567 0.994588
1.00083 1.00092 0.991903
1.00014 1.00229 0.991912
1.00006 1.00162 0.992694
1.00008 1.00177 0.992502
1.00012 1.00257 0.991643
1.00016 1.00308 0.99111
0.995053 1.00083 0.980936
1.00008 1.00205 0.992294
1.00018 1.00215 0.991891
1.00085 0.998083 0.99426
1.00167 0.998766 0.992414
1.00047 1.00293 0.990664
1.00018 1.00276 0.991259
1.00383 0.996235 0.99272
1.00007 1.00233 0.992031
1.00214 0.998224 0.991457
1.0001 1.00258 0.991689
1.00004 1.00387 0.990523
1.00098 1.00175 0.990496
0.994605 1.0024 0.982121
1.00005 0.999588 0.99087
1.00346 0.997432 0.990045
0.99806 0.996405 0.991689
1.00667 0.983615 0.999849
0.999991 1.0025 0.992013
0.997895 0.997262 0.989315
1.00633 0.988868 0.997085
1.00136 1.00134 0.989894
0.999836 1.00351 0.991407
0.999842 1.00502 0.9899
1.00276 0.999538 0.989442
0.995301 1.00366 0.978987
1.00027 0.999361 0.991913
0.998361 0.996992 0.992592
1.01208 0.98392 0.993574
1.00008 1.00213 0.992177
1.00013 1.00221 0.992025
1.0002 1.00211 0.991964
1.00011 1.00008 0.994153
1.0001 1.0009 0.993361
1.00013 1.00139 0.992758
1.00015 1.00173 0.99244
1.00017 1.00204 0.992118
1.0001 1.00008 0.994034
1.00015 1.00168 0.992491
1.00013 1.00145 0.992767
1.0001 1.00093 0.993297
1.0002 1.00196 0.992108
1.00018 1.0018 0.992279
1.00019 1.00206 0.992028
1.00012 1.00154 0.992694
1.0001 1.00093 0.993359
1.0001 1.00093 0.993372
1.0001 1.00151 0.992775
1.00011 1.00151 0.992755
1.00009 1.00157 0.992703
1.0001 1.00186 0.992431
1.00011 1.00165 0.992571
1.00009 1.00106 0.993204
1.00009 1.00098 0.993288
1.0001 1.00013 0.994107
1.00009 1.00094 0.993249
1.0001 1.0001 0.994081
1.00009 0.998888 0.995346
1.0001 1.00008 0.994038
1.00011 0.99886 0.99535
1.00005 0.997035 0.997655
1.00011 0.998848 0.995349
1.00007 0.997008 0.997452
1.00004 0.99589 0.99857
1.00007 0.996996 0.997252
1.00001 0.995885 0.999397
1.00003 0.995897 0.99858
1.00011 0.999677 0.994545
1.00011 0.998533 0.995675
1.0001 0.998573 0.995645
1.00005 0.996839 0.997442
1.0001 0.998645 0.995589
1.00005 0.996883 0.99741
0.999999 0.995835 0.999435
1.00002 0.996965 0.997748
0.999986 0.995925 0.999023
0.999965 0.996034 0.998599
1.00145 0.996768 0.996462
1.00025 1.0012 0.992589
0.99959 1.00042 0.99444
0.99839 0.999969 0.995181
0.999565 1.00007 0.997014
1.0004 1.00158 0.991753
1.00039 1.00258 0.992342
0.997428 1.00229 0.99243
0.995236 1.00214 0.97683
0.997285 0.997547 0.989176
1.00449 0.989309 0.997944
1.00009 1.00044 0.993726
1.00012 0.999658 0.994551
1.00012 0.99974 0.994478
1.00009 1.00057 0.993662
1.00009 1.00118 0.993161
1.00009 1.00095 0.993348
1.00007 1.00058 0.993761
1.00008 1.00043 0.993824
1.00099 1.00083 0.991704
1.00126 0.998009 0.994086
1.00116 0.998477 0.993405
1.00013 1.00208 0.992192
1.00031 1.00166 0.992128
1.00017 1.00233 0.991784
1.00015 1.00257 0.991647
1.00019 1.00192 0.99216
1.00008 1.00096 0.99333
1.00009 1.00197 0.99242
1.00009 1.00071 0.993681
1.00005 1.0014 0.992937
1.00115 0.999405 0.99272
1.00006 1.0016 0.992718
1.00007 1.00179 0.992542
1.00164 0.996642 0.994559
1.00077 1.00073 0.992028
1.00017 1.00235 0.991781
1.00011 1.00257 0.991669
1.00016 1.00301 0.991141
1.00225 0.99602 0.993879
1.00112 0.999854 0.992575
1.00033 1.00211 0.9914
1.00022 1.00323 0.990873
1.00005 1.00216 0.992159
1.00005 1.00249 0.991895
1.00008 1.00338 0.991032
0.998298 0.995866 0.992652
0.995075 1.00241 0.981888
1.00006 1.00232 0.992053
1.00008 1.00252 0.991719
1.00225 0.998281 0.991501
1.00106 1.00159 0.990713
1.00003 1.00377 0.990531
0.994849 1.00287 0.976513
0.999963 0.999842 0.996287
1.00354 0.99731 0.990073
0.997842 0.997214 0.988795
1.00587 0.983978 1.00111
0.999997 1.00249 0.992006
0.998 0.996594 0.992784
1.00611 0.989112 0.99809
1.00147 1.00135 0.989857
0.99984 1.00338 0.991441
0.999769 1.00481 0.990119
1.00246 1.0002 0.989303
0.995002 1.00391 0.975842
1.00036 0.998746 0.997003
0.998508 0.99622 0.988799
1.01147 0.98189 0.995691
0.999985 1.00256 0.991947
1.00627 0.993598 0.994437
1.01429 0.990922 0.986637
0.999679 1.00505 0.989877
0.999566 1.0042 0.991244
1.00134 1.00107 0.994288
1.00013 0.996636 1.00023
0.995277 1.00417 0.97696
0.999795 0.996359 0.986907
1.01485 0.989737 0.984999
1.00013 1.00222 0.992025
1.00019 1.00213 0.991952
1.00016 1.0022 0.991953
1.0001 1.00008 0.994034
1.0001 1.00093 0.993356
1.00013 1.00144 0.992843
1.00015 1.00165 0.99248
1.0002 1.00196 0.992079
1.0001 1.00093 0.993358
1.00017 1.00179 0.992324
1.00012 1.00154 0.992696
1.00019 1.00207 0.992016
1.00014 1.00225 0.991935
1.00016 1.00198 0.99219
1.00012 1.00154 0.992711
1.00009 1.00093 0.993371
1.0001 1.00151 0.992707
1.00011 1.00152 0.99275
1.0001 1.00158 0.992699
1.0001 1.00183 0.99244
1.00008 1.0017 0.992591
1.00012 1.00194 0.992326
1.00009 1.00199 0.992246
1.00015 1.00178 0.992381
1.00013 1.0014 0.992727
1.00014 1.00145 0.992687
1.00012 1.00165 0.992577
1.0001 1.00109 0.993152
1.00009 1.00107 0.993202
1.0001 1.00018 0.994059
1.00009 1.00099 0.993286
1.0001 1.00013 0.994105
1.00008 0.998926 0.995334
1.0001 1.0001 0.994024
1.00009 0.998887 0.995346
1.00004 0.997073 0.997651
1.00011 0.998858 0.99535
1.00006 0.99703 0.997448
1.00003 0.995882 0.998567
1.00007 0.997002 0.997245
1.00002 0.995889 0.999396
1.00001 0.995883 0.999397
1.0001 0.99975 0.994652
1.0001 0.998553 0.995666
1.00011 0.999673 0.994547
1.00006 0.996826 0.99745
1.00011 0.998536 0.995673
1.0001 0.998577 0.995643
1.00005 0.996843 0.99744
1.00001 0.995801 0.999441
1.00004 0.996882 0.997795
1.00001 0.99584 0.999042
0.999997 0.995936 0.998636
0.997741 0.996395 0.99298
1.00534 0.991474 0.995258
0.998371 1.00047 0.997062
0.99939 1.00005 0.996989
1.00062 1.00161 0.99139
0.997362 1.00266 0.997488
1.00054 1.00218 0.992291
0.995319 1.00228 0.980436
0.997184 0.997569 0.993592
1.00501 0.988171 0.998252
0.999123 1.00246 0.994714
0.995356 1.00305 0.980018
0.998161 0.997694 0.99226
1.01022 0.986369 0.994457
1.00006 1.0013 0.99299
1.00009 1.00043 0.993788
1.00012 0.999664 0.994548
1.00009 1.00057 0.993637
1.00009 1.00111 0.993206
1.00008 1.00123 0.993127
1.00009 1.00091 0.993377
1.00007 1.00082 0.993505
1.00008 1.00059 0.993695
1.00008 1.00046 0.993776
1.00112 0.999492 0.992672
1.00161 0.996729 0.99453
1.00071 1.00054 0.992153
1.0002 1.0024 0.99165
1.00017 1.00294 0.991172
1.00011 1.00257 0.991695
1.00007 1.00181 0.992582
1.00006 1.00158 0.992743
1.00203 0.996201 0.993665
1.00005 1.0022 0.99212
1.00005 1.00251 0.991832
1.00111 0.999605 0.992721
1.00038 1.00219 0.991342
1.00021 1.00327 0.990774
1.00009 1.0034 0.990961
1.00294 0.995962 0.992749
1.00006 1.00333 0.990992
1.00013 1.00387 0.990306
1.00004 1.00223 0.992105
1.00004 1.00277 0.991637
1.00006 1.00323 0.9912
1.00613 0.996158 0.990361
0.998359 0.996595 0.989243
0.99493 1.00117 0.980678
1 1.00247 0.991999
0.99985 1.00324 0.991475
1.00158 1.00136 0.989821
0.999686 1.00463 0.990338
0.997781 0.997094 0.9893
0.994894 1.00305 0.983183
1.00088 0.997915 0.992136
1.00219 1.00099 0.989174
0.998622 0.995378 0.993598
1.00644 0.990058 0.997776
1.00986 0.985514 0.995098
0.999982 1.0026 0.991952
1.00598 0.994319 0.993563
1.01418 0.990799 0.986715
0.99967 1.00495 0.989886
0.999511 1.00424 0.991221
1.00155 1.00276 0.990406
1.00061 0.997814 0.993512
0.995728 1.00353 0.977627
0.999999 0.996794 0.991413
1.01342 0.98946 0.986172
0.999877 1.00268 0.991892
1.01406 0.997265 0.982409
1.01818 0.992118 0.979265
0.998609 1.00414 0.992963
0.997954 1.00056 1.00086
0.995973 1.00255 0.979173
1.00447 0.994623 0.987359
1.01416 0.992998 0.981422
1.00019 1.00214 0.99194
1.00017 1.0022 0.991949
1.00018 1.00233 0.991901
1.0001 1.00093 0.993357
1.00012 1.00154 0.992698
1.00017 1.00178 0.992369
1.00019 1.00208 0.992005
1.00012 1.00154 0.992709
1.00016 1.00199 0.992187
1.00013 1.00225 0.99194
1.00001 1.00236 0.99209
1.00016 1.00232 0.991831
1.00014 1.00199 0.99224
1.00011 1.00152 0.992745
1.0001 1.00158 0.992696
1.0001 1.00179 0.99245
1.00012 1.00191 0.992348
1.00008 1.0017 0.992595
1.00009 1.00197 0.992268
1.00011 1.00205 0.992193
1.00008 1.00223 0.992066
1.00014 1.00199 0.992221
1.00015 1.00179 0.992376
1.00016 1.00161 0.992476
1.00019 1.00145 0.99264
1.00015 1.00114 0.993086
1.00013 1.00136 0.992802
1.00014 1.00144 0.992732
1.00012 1.001 0.993149
1.00012 1.00164 0.992583
1.0001 1.00109 0.993155
1.0001 1.00023 0.994014
1.00009 1.00108 0.993199
1.0001 1.00018 0.994056
1.00007 0.998972 0.995317
1.0001 1.00013 0.994103
1.00008 0.998927 0.995333
1.00001 0.997129 0.997644
1.0001 0.998885 0.995345
1.00004 0.99707 0.997442
1.00001 0.995925 0.998564
1.00006 0.997024 0.997241
1.00002 0.995897 0.998981
1.00001 0.995889 0.999395
1.00008 0.999906 0.994416
1.00009 0.998602 0.995636
1.0001 0.999753 0.994519
1.00005 0.99684 0.997445
1.0001 0.998549 0.995668
1.00011 0.999669 0.994548
1.00001 0.995793 0.999441
1.00006 0.996827 0.99745
1.00011 0.998539 0.995672
1.00005 0.996846 0.997439
1.00001 0.995802 0.999439
0.999997 0.995841 0.999431
1.00612 0.994717 0.991315
0.998226 0.996731 0.990658
1.01323 0.991868 0.986837
1.00509 0.990819 0.996178
0.997187 1.00201 0.993201
1.0007 1.00174 0.992239
0.995289 1.0025 0.984309
0.997069 0.997798 0.989535
1.00547 0.987349 0.998561
0.999401 1.00187 0.993228
0.995082 1.00319 0.978958
0.998361 0.996876 0.988704
1.01074 0.984216 0.995854
1.00029 0.999657 0.995851
0.995135 1.00391 0.976861
1.00072 0.994971 0.992181
1.01463 0.991283 0.984068
1.00006 1.00179 0.992572
1.00007 1.00126 0.993065
1.00009 1.00043 0.99385
1.00008 1.00104 0.993252
1.0001 1.00149 0.99276
1.00008 1.00119 0.993176
1.00008 1.00087 0.993407
1.00008 1.00096 0.99344
1.00007 1.00081 0.99357
1.00008 1.0006 0.993629
1.00183 0.996403 0.993451
1.0011 0.999301 0.992868
1.00044 1.00228 0.991283
1.00021 1.00331 0.990676
1.00009 1.00342 0.99089
1.00005 1.00253 0.991769
1.00004 1.00224 0.992081
1.00004 1.00227 0.992094
1.00248 0.996145 0.992617
1.00003 1.00277 0.991673
1.00006 1.00326 0.991181
1.00009 1.0034 0.991015
1.00015 1.00385 0.990312
1.00207 0.998785 0.991756
0.9996 1.0046 0.990709
1.00012 1.00379 0.990411
1.00005 1.00263 0.99173
1.00009 1.00321 0.991092
1.01375 1.00001 0.979997
1.00611 0.996122 0.990306
0.9983 0.995594 0.992738
0.999977 1.00265 0.991957
0.999454 1.0043 0.991197
0.999659 1.00477 0.989894
1.00602 0.994622 0.992346
0.99523 1.00417 0.976025
1.00047 0.996538 0.99972
1.00177 1.00428 0.986524
0.999738 0.997395 0.987419
1.01403 0.99068 0.986792
1.01328 0.990309 0.985071
0.999883 1.00273 0.991911
1.01395 0.997912 0.981189
1.01822 0.992002 0.978908
0.998819 1.00417 0.992422
0.998605 1.00051 0.99827
0.996387 1.00307 0.976544
1.015 0.993914 0.980803
1.00253 0.996561 0.98656
0.999809 1.00223 0.99235
1.01842 0.9954 0.975023
1.01945 0.9914 0.977419
1.01489 0.988045 0.986656
0.997836 1.0018 0.996586
0.995236 1.00051 0.983999
1.00405 0.998258 0.981971
1.00018 1.00221 0.991944
1.00015 1.00234 0.991907
0.999949 1.00247 0.992163
1.00012 1.00154 0.992708
1.00017 1.00199 0.992185
1.00012 1.00226 0.991944
1.00014 1.00198 0.992251
1.00015 1.00236 0.99182
1.00004 1.00231 0.992074
1.00005 1.00246 0.991978
1.00012 1.00238 0.991859
1.00013 1.00189 0.992369
1.00009 1.0017 0.992599
1.0001 1.00196 0.992289
1.00009 1.00221 0.992071
1.0001 1.00204 0.992186
1.00007 1.00235 0.992007
1.00012 1.00189 0.992344
1.00012 1.00219 0.991973
1.00015 1.0018 0.992371
1.00018 1.00164 0.992483
1.00023 1.00173 0.992206
1.00013 1.00148 0.992715
1.00012 1.00109 0.993128
1.00017 1.00145 0.992634
1.00013 1.00082 0.993368
1.00015 1.00114 0.993049
1.00012 1.00132 0.992878
1.00015 1.00144 0.992777
1.00012 1.001 0.993178
1.0001 1.00022 0.994015
1.0001 1.00109 0.993159
1.0001 1.00023 0.994015
1.00005 0.999025 0.995298
1.0001 1.00019 0.994053
1.00007 0.998975 0.995315
0.999985 0.997175 0.997639
1.00008 0.998927 0.995332
1.00002 0.997126 0.997435
0.999981 0.995986 0.998559
1.00005 0.997065 0.997235
1 0.995939 0.998979
1 0.995914 0.999394
1.00008 1.00007 0.994091
1.00008 0.998713 0.995395
1.00009 0.999909 0.994413
1.00005 0.996885 0.997421
1.00009 0.998607 0.99555
1.00009 0.999756 0.994386
1.00001 0.9958 0.999439
1.00005 0.996837 0.997445
1.0001 0.998545 0.995669
1.00001 0.995793 0.999441
1.00006 0.996827 0.99745
1.00001 0.995803 0.999438
1.01361 0.997726 0.981141
1.00593 0.995291 0.991431
0.998279 0.996638 0.989302
1.00013 1.00099 0.993203
1.01721 0.992233 0.979847
1.01338 0.991949 0.986964
1.00554 0.990942 0.99551
0.999505 1.0013 0.991367
0.995288 1.00351 0.979246
0.99854 0.996069 0.993204
1.01022 0.987915 0.994502
1.00046 0.999382 0.991517
0.995455 1.00335 0.978291
1.00139 0.994174 0.989216
1.01394 0.991 0.985879
1.00011 0.998637 0.99216
0.995059 1.00269 0.973792
1.00184 0.998142 0.982873
1.01383 0.996136 0.978882
1.00011 1.00207 0.992154
1.00007 1.00183 0.992516
1.00008 1.00123 0.993141
1.00011 1.00154 0.992678
1.0001 1.00147 0.992834
1.00009 1.00115 0.993225
1.00009 1.00094 0.993461
1.00008 1.00079 0.993635
1.00195 0.996377 0.992485
1.00011 1.00351 0.991039
1.00004 1.00231 0.992082
1.00018 1.00383 0.990318
1.00006 1.00331 0.991161
1.00002 1.00277 0.991708
1.00005 1.00264 0.991731
1.00167 0.998827 0.991654
1.00009 1.0032 0.99109
1.00013 1.00379 0.990405
0.999642 1.00461 0.990714
1.0001 1.00253 0.991687
1.00052 1.00156 0.992042
0.999666 1.00471 0.990665
1.00016 1.00357 0.990635
1.00011 1.00309 0.99116
1.0182 0.997527 0.974024
1.01375 0.999566 0.980026
1.00609 0.996138 0.990251
0.999891 1.00276 0.991931
0.999033 1.00421 0.991881
1.01384 0.998511 0.97997
0.995093 1.00409 0.977641
0.999297 1.00091 0.993383
1.00214 0.994785 0.986297
1.01825 0.991835 0.978551
1.0159 0.994703 0.980184
0.999868 1.00242 0.992362
1.01831 0.995399 0.97493
1.01951 0.991813 0.976959
0.997781 1.00188 0.996832
1.01416 0.988431 0.988219
0.995686 0.999101 0.98412
1.00242 0.997852 0.982808
0.999912 1.00083 0.993807
1.01981 0.992756 0.975214
1.01829 0.990702 0.979607
1.01032 0.984852 0.9959
1.00163 0.996898 0.984895
0.997882 0.998461 1.00277
0.996714 0.996157 0.983208
1.0001 1.00235 0.991912
0.999975 1.00244 0.992098
0.99963 1.00279 0.992052
1.00014 1.00197 0.992263
1.00014 1.00239 0.991808
1.00007 1.00222 0.992059
1.00012 1.00236 0.991863
1.00004 1.00245 0.992008
0.999992 1.00288 0.991706
1.00011 1.00219 0.992075
1.0001 1.00203 0.992179
1.00007 1.00236 0.991984
0.999938 1.00278 0.991723
1.00009 1.00178 0.992468
1.0001 1.00218 0.99203
1.00022 1.00236 0.991691
1.00025 1.00181 0.99217
1.0002 1.00166 0.99249
1.00024 1.00176 0.992183
1.00012 1.00142 0.992871
1.00005 1.00122 0.993101
1.00013 1.00144 0.99276
1.0001 1.00077 0.993477
1.00013 1.0011 0.993121
1.00015 1.00146 0.992627
1.0001 1.00016 0.994071
1.00014 1.00082 0.99334
1.00015 1.00115 0.993011
1.00012 1.00099 0.993208
1.0001 1.00021 0.994018
1.00004 0.999059 0.995291
1.0001 1.00022 0.994016
1.00005 0.999027 0.995297
0.999963 0.997242 0.997219
1.00007 0.998977 0.995313
0.999994 0.997179 0.997223
0.999934 0.996056 0.99939
1.00002 0.99712 0.997228
0.999976 0.996 0.998975
0.999985 0.995958 0.999392
1.0001 1.00014 0.993977
1.00006 0.998861 0.995273
1.00009 1.00007 0.994167
1.00003 0.996964 0.997373
1.00008 0.998723 0.995381
1.00009 0.999912 0.994409
0.999996 0.995834 0.999433
1.00005 0.996877 0.997423
1.00009 0.998611 0.995463
1.00001 0.995802 0.99944
1.00005 0.996835 0.997446
1.00001 0.995792 0.999441
1.01783 0.996026 0.975389
1.01366 0.997597 0.981119
1.00615 0.995002 0.99112
1.00012 1.00098 0.993242
1.00017 1.00092 0.993142
1.00014 1.00149 0.992742
1.01838 0.993104 0.97727
1.01728 0.993189 0.979457
1.01353 0.991993 0.987092
1.00052 0.999538 0.996027
0.995209 1.00398 0.977602
0.999972 0.997466 0.986834
1.01452 0.9919 0.985696
0.999987 0.999028 0.997112
0.995747 1.00285 0.978537
1.00352 0.997357 0.984663
1.01462 0.996704 0.978618
0.998452 0.997726 1.00046
0.994914 0.998456 0.983198
1.00509 1.00009 0.978194
1.01441 0.991513 0.984119
1.00015 1.00205 0.992115
1.00011 1.00207 0.992161
1.00007 1.00186 0.99246
1.00011 1.00156 0.992667
1.0001 1.00144 0.992908
1.00009 1.00092 0.993482
1.00131 0.998846 0.991552
0.999683 1.00461 0.990718
1.00006 1.00264 0.991732
1.00015 1.0038 0.990399
1.00009 1.00319 0.991089
1.0001 1.00261 0.991645
1.00011 1.00308 0.99114
1.00053 1.00103 0.991893
1.00016 1.00359 0.990631
0.999664 1.00465 0.990587
1.0001 1.00297 0.99121
0.999616 1.00345 0.99226
0.999872 1.00398 0.990404
1.00012 1.00349 0.990746
1.01986 0.994144 0.974028
1.0182 0.996844 0.973984
1.01373 0.999079 0.980056
0.99993 1.00258 0.992374
0.997737 1.00144 0.99775
1.0182 0.995398 0.974838
0.99583 1.00007 0.990976
1.00573 0.996731 0.98296
1.01956 0.992285 0.976499
1.01478 0.988987 0.988089
0.999978 1.00088 0.993568
1.01977 0.993083 0.975018
1.01837 0.991642 0.979224
0.997785 0.997796 0.998136
1.01084 0.982708 0.997265
1.00217 0.996745 0.987875
0.994772 0.996602 0.987259
1.00013 0.999825 0.996525
1.01821 0.995533 0.97525
1.01413 0.990507 0.98675
1.00468 0.988137 0.99862
1.00055 0.994679 0.99285
0.995248 0.998089 0.984656
0.99786 0.995737 0.999449
1.00001 1.0024 0.992033
0.999691 1.0028 0.99204
0.999285 1.00355 0.991989
1.00012 1.00235 0.991866
1.00003 1.00245 0.992037
0.999991 1.00286 0.991717
0.999785 1.00394 0.99107
1.00008 1.00238 0.991961
0.999987 1.0029 0.991648
1.00006 1.00326 0.991114
1.00009 1.00217 0.992088
1.00022 1.00238 0.991675
1.0003 1.00248 0.991522
1.0003 1.00203 0.991901
1.00014 1.00151 0.992604
1.00024 1.00184 0.992117
1.00025 1.0018 0.992159
1.0001 1.00117 0.993153
1.00011 1.00138 0.992891
1.00003 1.00089 0.993444
1.00006 1.00121 0.993152
1.00013 1.0014 0.992805
1.00008 1.00015 0.994135
1.00011 1.00076 0.993478
1.00013 1.00111 0.993115
1.00002 0.999071 0.99531
1.0001 1.00016 0.994075
1.00014 1.00081 0.993313
1.0001 1.00021 0.994021
1.00003 0.99906 0.995292
0.999932 0.997306 0.997218
1.00005 0.999028 0.995296
0.999964 0.997246 0.997219
0.999904 0.996168 0.999389
0.999996 0.997182 0.997222
0.999942 0.996071 0.998974
0.999959 0.996018 0.99939
1.00011 1.00015 0.994054
1.00005 0.998962 0.995357
1.00009 1.00015 0.994032
1.00001 0.997069 0.997312
1.00006 0.998863 0.995353
1.00009 1.00008 0.994243
0.999978 0.995896 0.999421
1.00003 0.996955 0.997376
1.00007 0.998734 0.995368
0.999998 0.995833 0.999435
1.00005 0.99687 0.997425
1.00001 0.995804 0.99944
1.01923 0.993477 0.97529
1.01783 0.996313 0.975297
1.01373 0.997607 0.981097
1.00017 1.00082 0.993227
1.0002 1.00107 0.993032
1.00012 1.00098 0.99328
1.00016 1.00091 0.993149
1.00014 1.0015 0.992684
1.00018 1.00138 0.99275
1.00017 1.00173 0.992408
1.01728 0.993531 0.97933
1.01841 0.993601 0.976946
1.01735 0.99415 0.979067
1.01545 0.997203 0.978355
1.00018 0.99947 0.991982
0.995076 1.00331 0.982243
1.00294 0.996075 0.983158
0.998545 0.999563 0.996894
0.996552 0.998278 0.980508
1.00327 0.999166 0.979682
1.01313 0.991004 0.984982
0.997188 0.997821 1.00113
0.997122 0.995819 0.980884
1.00529 0.995984 0.985012
1.01133 0.986278 0.992348
1.00013 1.0022 0.99201
1.00015 1.00208 0.992105
1.0001 1.00207 0.992169
1.00012 1.00158 0.992656
1.00054 1.00054 0.991743
0.999676 1.00457 0.99051
1.00009 1.0027 0.991602
1.0001 1.00308 0.99112
1.00015 1.0036 0.990627
1.00009 1.00295 0.991307
1.00014 1.00349 0.990733
0.999222 1.0031 0.993739
0.999901 1.00388 0.990481
1.00011 1.00338 0.990915
0.998293 1.00395 0.996075
1.00005 1.00425 0.989903
1.01816 0.997941 0.973555
1.0198 0.993743 0.97429
1.01819 0.996195 0.973943
1.00003 1.00094 0.993328
0.997626 0.99834 1.0022
1.01972 0.993422 0.974823
0.996604 0.996147 0.982762
1.00239 0.99535 0.98534
1.01844 0.992577 0.978841
1.01025 0.986047 0.996053
1.00009 0.99967 0.996231
1.01821 0.995847 0.975149
1.01428 0.990549 0.986923
0.997972 0.994763 1.00565
1.00515 0.986815 0.999239
1.001 0.993877 0.990189
0.995869 0.998688 0.983317
0.999806 0.999468 0.997836
1.01383 0.997238 0.981295
1.00576 0.990282 0.995586
0.998073 0.997602 0.992455
0.995233 1.00237 0.979681
0.998593 0.995332 0.996924
0.999756 1.00281 0.992028
0.999364 1.00347 0.991959
0.999043 1.00468 0.991396
0.999987 1.00284 0.991729
0.999772 1.00377 0.99117
0.999874 1.00464 0.990156
1.00004 1.00302 0.991574
1.00008 1.00337 0.991012
1.0003 1.00306 0.990812
1.00023 1.00241 0.99166
1.00031 1.00248 0.991463
1.00036 1.00227 0.991534
1.00049 1.00154 0.991957
1.00029 1.00166 0.992315
1.0003 1.00205 0.991851
1.00011 1.0012 0.992967
1.00015 1.00149 0.992647
1.00024 1.00188 0.992064
1.00007 1.00093 0.993412
1.0001 1.00119 0.993115
1.00009 1.00133 0.992912
1.00002 1.00027 0.994118
1.00004 1.00087 0.993475
1.00006 1.00119 0.993203
0.999992 0.9991 0.995335
1.00008 1.00015 0.994138
1.00012 1.00075 0.99348
0.999903 0.997386 0.997222
1.00002 0.999071 0.995312
1.00011 1.00015 0.994079
1.00003 0.99906 0.995293
0.999933 0.99731 0.997218
0.999868 0.996257 0.999388
0.999966 0.997249 0.997218
0.999899 0.996166 0.999388
0.999928 0.996087 0.999389
1.00017 1.00078 0.993325
1.00012 1.00016 0.994033
1.00004 0.999034 0.9953
1.00011 1.00016 0.994051
0.999986 0.997179 0.997251
1.00005 0.998965 0.995358
1.00009 1.00017 0.994087
0.999954 0.995983 0.999406
1.00001 0.997059 0.997315
1.00006 0.998866 0.995432
0.999981 0.995892 0.999424
1.00003 0.996945 0.997379
1 0.995832 0.999437
1.01784 0.996522 0.974814
1.0193 0.993816 0.975043
1.01784 0.996593 0.975204
1.00017 1.00083 0.993258
1.0002 1.00107 0.992997
1.00019 1.00103 0.993021
1.00019 1.00115 0.992879
1.00022 1.00122 0.992831
1.00016 1.00091 0.993156
1.00015 1.00152 0.992625
1.00018 1.00137 0.992752
1.00017 1.00169 0.992424
1.00018 1.00164 0.992503
1.01322 0.993409 0.985817
1.01722 0.993545 0.978944
1.01845 0.994108 0.976622
1.01305 0.991757 0.983788
1.00662 0.998474 0.979521
0.99826 0.999855 0.994661
0.994799 0.997095 0.98503
0.996721 0.998747 0.997489
0.994823 0.996726 0.985758
1.00338 0.997387 0.984069
1.01083 0.984179 0.994466
0.99586 0.999023 0.998034
0.994819 0.999041 0.983491
1.00019 0.996888 0.986581
1.00605 0.986234 0.998066
1.00005 1.00195 0.992405
1.00013 1.00215 0.992087
1.00014 1.00212 0.992094
0.998835 1.00271 0.995223
0.99993 1.0038 0.990559
1.00008 1.00294 0.991405
1.00016 1.0035 0.99072
1.00008 1.00344 0.990944
1.00004 1.00422 0.989915
0.998303 1.00382 0.99606
0.999857 1.00383 0.99066
0.998845 1.0043 0.994319
1.01378 1.00038 0.979802
1.01815 0.997245 0.973553
1.01976 0.993335 0.974551
1.00006 0.999589 0.995948
0.997917 0.994639 0.999505
1.0182 0.996151 0.975049
0.995156 0.998005 0.979796
0.999769 0.997514 0.987072
1.01443 0.990528 0.987095
1.00559 0.985832 0.999858
0.999853 0.999377 0.997811
1.01389 0.997106 0.981262
1.00556 0.989661 0.996485
0.99838 0.995153 1.00032
0.9984 0.996679 0.98882
0.99636 1.0025 0.974443
0.999877 0.999788 0.99653
1.00602 0.994251 0.991885
0.997362 0.997283 0.989366
0.995198 1.00413 0.976398
1.00015 0.995661 0.99797
0.999434 1.0034 0.991929
0.999085 1.0046 0.991406
0.999546 1.00553 0.990268
0.99976 1.00362 0.991271
0.999836 1.00464 0.990239
1.00041 1.00329 0.990294
1.00011 1.00348 0.99091
1.0003 1.00302 0.990845
1.00056 1.00183 0.991597
1.00031 1.00247 0.991404
1.00036 1.00217 0.991578
1.00063 1.00103 0.992182
1.0007 1.00062 0.992403
1.00041 1.00144 0.992164
1.00049 1.00148 0.991982
1.00022 1.00134 0.992714
1.00027 1.0017 0.992245
1.0003 1.00207 0.9918
1.0001 1.00087 0.99338
1.00011 1.00118 0.993016
1.00015 1.00148 0.99269
0.999999 1.00042 0.994027
1.00006 1.00092 0.993403
1.00009 1.0012 0.993077
0.999946 0.999205 0.995321
1.00003 1.00027 0.994117
1.00004 1.00086 0.993505
0.999858 0.99743 0.997648
0.999992 0.999103 0.995336
1.00008 1.00014 0.99414
0.999841 0.996339 0.998558
0.999897 0.997378 0.997432
1.00002 0.999071 0.995314
0.999933 0.997314 0.997218
0.999862 0.99625 0.999388
0.999894 0.996164 0.999388
1.00016 1.00078 0.993312
1.00012 1.00018 0.994026
1.00017 1.00079 0.993305
1.00003 0.999081 0.995272
1.00012 1.00017 0.994031
0.999959 0.997276 0.997206
1.00004 0.999035 0.9953
1.00011 1.00017 0.994048
0.999924 0.996085 0.999392
0.999984 0.997172 0.997253
1.00005 0.998967 0.995358
0.999958 0.995977 0.999411
1.00001 0.997049 0.997318
0.999985 0.995888 0.999428
1.01331 1.00005 0.978841
1.01775 0.996511 0.974726
1.01936 0.99417 0.974797
1.00017 1.00105 0.993091
1.00016 1.00084 0.993289
1.0002 1.00107 0.992961
1.00019 1.00116 0.99292
1.00018 1.00104 0.993057
1.00022 1.00119 0.992834
1.00021 1.00122 0.992805
1.0002 1.00135 0.992679
1.00018 1.00136 0.992754
1.00018 1.00165 0.992441
1.00018 1.00162 0.992496
1.00022 1.00162 0.992525
1.00538 0.990874 0.997167
1.01315 0.993356 0.985936
1.01719 0.993565 0.978558
1.00933 0.988012 0.993919
1.00264 0.995724 0.983606
0.997075 0.99569 0.98104
0.995969 0.998872 1.00518
0.995826 0.998537 1.0045
1.00554 0.986805 0.998649
0.996027 0.998863 0.979156
1.00005 0.996871 0.990932
0.996272 1.00083 1.00084
0.995089 1.00369 0.978686
0.997622 0.998026 0.992796
0.999919 1.0018 0.992816
1.00009 1.00188 0.992414
1.00013 1.00209 0.992164
0.998315 1.00368 0.996047
1.00002 1.00419 0.989927
1.00005 1.0035 0.990973
0.999881 1.00388 0.990723
0.998972 1.0042 0.994168
0.999458 1.00219 0.993926
1.00652 0.995054 0.993191
1.01355 1.00063 0.978164
1.01813 0.996578 0.97355
0.999923 0.999447 0.997784
0.998318 0.996219 1.00205
1.01397 0.997139 0.981229
0.995566 1.0014 0.983746
0.998637 0.995706 0.993568
1.00597 0.9899 0.995942
0.999949 0.999987 0.996633
1.00587 0.994872 0.991977
0.997214 0.997254 0.993815
1.0003 0.996232 0.9935
0.995662 1.00324 0.977988
1.00178 0.99914 0.991663
0.997709 0.995818 0.993431
0.995246 1.00364 0.979832
1.0007 0.997077 0.992672
0.999128 1.00449 0.991416
0.999393 1.00555 0.990248
1.00039 1.00288 0.990965
0.999794 1.00463 0.990321
1.00044 1.00315 0.990349
1.00111 1.00013 0.992215
1.0003 1.00297 0.990878
1.00056 1.00164 0.991679
1.00088 0.999731 0.992993
1.00035 1.00208 0.991622
1.00063 1.00095 0.99221
1.00086 0.999707 0.992991
1.00074 0.999999 0.992947
1.00061 1.00083 0.992419
1.00069 1.00058 0.992448
1.00032 1.00121 0.992516
1.0004 1.00143 0.992221
1.00048 1.00142 0.992006
1.00014 1.00095 0.99323
1.00019 1.00135 0.992708
1.00024 1.00174 0.992175
1.00001 1.0005 0.993939
1.0001 1.00088 0.993377
1.00011 1.00117 0.993065
0.999902 0.99937 0.995246
1.00001 1.00041 0.994029
1.00005 1.00092 0.993394
0.999817 0.997523 0.997228
0.999948 0.999212 0.995319
1.00004 1.00026 0.994116
0.999781 0.996395 0.999393
0.999861 0.99743 0.997235
0.999991 0.999107 0.995337
0.999826 0.996342 0.999389
0.9999 0.997372 0.997226
0.999857 0.996244 0.999388
1.00013 1.00083 0.993427
1.00016 1.00079 0.993334
1.0001 1.00022 0.994017
1.00002 0.999123 0.995256
1.00012 1.00018 0.994024
1.00017 1.0008 0.993286
0.999931 0.99735 0.997186
1.00003 0.999077 0.995272
1.00012 1.00017 0.994029
0.999891 0.996185 0.999383
0.999957 0.99727 0.997207
1.00004 0.999036 0.9953
0.999928 0.99608 0.999396
0.999982 0.997164 0.997256
0.999962 0.995971 0.999415
1.00632 0.993607 0.994221
1.01332 1.00012 0.978808
1.01766 0.996498 0.974637
1.00018 1.00105 0.993061
1.00016 1.00107 0.993093
1.00021 1.00114 0.9929
1.00019 1.00117 0.992961
1.00018 1.00105 0.993092
1.00022 1.00116 0.992836
1.00021 1.00134 0.992699
1.00021 1.00121 0.992823
1.00017 1.00152 0.992623
1.00018 1.00139 0.992774
1.00018 1.0016 0.992489
1.0002 1.0016 0.99251
0.997196 0.996546 0.99385
1.00505 0.990669 0.998162
1.01304 0.993311 0.986055
1.00502 0.987467 0.999232
0.999755 0.997491 0.987657
0.995715 0.999565 0.985001
0.995782 0.998966 0.998266
0.996511 1.00099 0.995338
0.99806 0.997218 0.988952
0.995631 1.0032 0.981052
0.997649 1.00144 0.992061
0.995432 1.00374 0.978117
0.999681 1.003 0.992483
0.999954 1.00169 0.992838
1.00013 1.00181 0.992422
0.999075 1.0041 0.994018
0.9999 1.00393 0.990786
0.999856 1.00204 0.993963
1.00024 1.00069 0.994109
0.998556 0.995383 0.992736
1.00635 0.99551 0.991741
1.0133 1.00078 0.976527
0.999994 0.999953 0.996729
0.999799 0.995419 1.00139
1.00607 0.994516 0.991728
0.995151 1.00429 0.977173
0.997162 0.998069 0.98951
1.00141 0.999188 0.992906
0.998086 0.996473 0.991179
0.994936 1.00338 0.978672
1.00024 0.998146 0.997702
1.0028 0.997297 0.990897
0.995106 1.00254 0.976709
1.00019 0.999531 0.996597
0.999242 1.0056 0.990227
1.00034 1.00285 0.990933
1.0017 0.997651 0.993446
1.00048 1.003 0.990404
1.00112 0.999803 0.992278
1.0014 0.997164 0.994482
1.00055 1.00146 0.99176
1.00088 0.999602 0.993017
1.00107 0.998354 0.993878
1.00062 1.00086 0.992238
1.00086 0.999701 0.992984
1.00086 0.999297 0.993361
1.00074 0.999823 0.993139
1.00074 0.999954 0.992993
1.00066 1.00027 0.992862
1.00053 1.00081 0.992611
1.0006 1.00085 0.99243
1.00068 1.00054 0.992492
1.00024 1.00093 0.992952
1.00032 1.00122 0.992575
1.00039 1.00142 0.992279
1.00002 1.00059 0.993814
1.00014 1.00095 0.993225
1.00016 1.00135 0.992701
0.999874 0.999533 0.995134
1.00002 1.00048 0.993941
1.00011 1.00088 0.993374
0.999765 0.997668 0.997186
0.999904 0.999377 0.995245
1.00001 1.00039 0.994031
0.999737 0.996549 0.999391
0.999818 0.997535 0.997227
0.99995 0.99922 0.995317
0.999785 0.996406 0.998977
0.999863 0.997441 0.997235
0.999816 0.996325 0.99939
1.00011 1.0009 0.99338
1.00013 1.00084 0.993364
1.00007 1.00031 0.99399
1.00015 1.0008 0.993356
1.0001 1.00022 0.994016
1 0.999184 0.995238
0.999901 0.997415 0.997181
1.00002 0.999118 0.995257
1.00011 1.00018 0.994023
0.999856 0.996272 0.99938
0.99993 0.997344 0.997187
1.00004 0.999073 0.995272
0.999896 0.996184 0.999385
0.999956 0.997264 0.997209
0.999933 0.996074 0.9994
0.998252 0.996266 0.989471
1.00609 0.993814 0.994883
1.01332 1.00019 0.978775
1.00018 1.00106 0.993031
1.0002 1.00114 0.992902
1.00015 1.00107 0.99311
1.00013 1.00113 0.993101
1.00018 1.0012 0.992893
1.00021 1.00133 0.992719
1.00021 1.0012 0.99284
1.00016 1.00149 0.992617
1.00012 1.00137 0.992765
1.00013 1.00163 0.992563
1.00007 1.00166 0.992792
1.00017 1.00145 0.9927
1.00017 1.00158 0.992494
0.996013 1.00227 0.975114
0.997431 0.997501 0.991844
1.00526 0.99126 0.997498
0.998262 0.99644 0.993409
0.995105 1.00396 0.973229
0.996588 1.00102 1.00048
0.998158 1.00135 0.994571
0.995377 1.00303 0.978981
0.999928 0.999333 0.993289
1.00017 1.00368 0.990619
0.999622 1.00305 0.99239
0.999992 1.00159 0.99286
1.00028 1.00188 0.993996
1.00021 0.999578 0.994484
0.995111 1.00023 0.981298
0.998608 0.995859 0.989444
1.00617 0.996072 0.990292
1.00107 0.99917 0.994154
1.00064 0.998651 0.99249
0.998195 0.996116 0.989794
0.995084 1.00398 0.979072
1.0027 0.99754 0.990732
0.995171 1.00238 0.980496
1.0004 0.999354 0.991883
1.00345 0.994806 0.992135
0.998854 1.0026 0.995392
1.00029 1.00284 0.990899
1.00157 0.99785 0.993452
1.00189 0.995334 0.995248
1.00112 0.999479 0.992341
1.00135 0.997148 0.99444
1.00134 0.99684 0.994826
1.00089 0.999478 0.993042
1.00107 0.998415 0.993831
1.00099 0.998657 0.993732
1.00086 0.999698 0.992978
1.00087 0.999355 0.99333
1.0008 0.999585 0.993215
1.00073 0.999778 0.993185
1.0007 1.00009 0.992976
1.00075 0.999907 0.993039
1.00067 1.00027 0.992854
1.00062 1.00043 0.992802
1.0004 1.00072 0.992848
1.00052 1.00083 0.992598
1.00058 1.00087 0.992441
1.00008 1.00066 0.99362
1.00023 1.00094 0.992991
1.00033 1.00123 0.992633
0.999854 0.999733 0.994974
1.00003 1.00058 0.993814
1.00015 1.00095 0.99322
0.999716 0.997837 0.997114
0.999878 0.999537 0.995134
1.00003 1.00046 0.993943
0.999679 0.996688 0.999383
0.999768 0.997682 0.997183
0.999906 0.999384 0.995244
0.999727 0.996537 0.999389
0.999818 0.997548 0.997225
0.99977 0.996413 0.999391
1.00008 1.00099 0.993283
1.0001 1.0009 0.993383
1.00004 1.00045 0.993846
1.00014 1.00084 0.993301
1.00007 1.00032 0.99394
0.999969 0.999293 0.995199
1.0001 1.00022 0.994015
1 0.999177 0.995238
0.999867 0.997491 0.997174
0.999818 0.996353 0.999379
0.999901 0.997407 0.997182
1.00002 0.999112 0.995257
0.999861 0.996279 0.99938
0.999929 0.997338 0.997187
0.9999 0.996184 0.999388
0.995568 1.00178 0.981711
0.998284 0.996463 0.992623
1.00625 0.993327 0.99519
1.0002 1.00115 0.992905
1.00015 1.00106 0.993127
1.00018 1.00121 0.992908
1.00013 1.00112 0.993112
1.00008 1.00128 0.993055
1.00013 1.00125 0.992931
1.00016 1.00147 0.992611
1.00013 1.00139 0.992772
1.00009 1.00165 0.992602
1.00007 1.00144 0.992735
1.0003 1.00151 0.992696
1.00048 1.00242 0.991118
1.00005 1.00162 0.992751
1.00015 1.0015 0.992626
0.999597 0.998848 0.998324
0.995118 1.00243 0.979532
0.997215 0.997724 0.988907
0.995342 1.00359 0.977602
0.998308 1.0006 0.998126
0.999846 0.999576 0.995975
1.00237 0.99963 0.990579
1.00009 1.00316 0.99077
0.99955 1.00307 0.992297
1.00015 0.998552 0.994859
0.997286 1.00276 0.992356
0.995193 1.00158 0.982476
0.998483 0.995085 0.992769
1.00264 0.997794 0.990568
1.00038 0.999337 0.996644
0.99516 1.00243 0.984483
1.00321 0.995201 0.992001
0.999141 1.00208 0.993746
1.00236 0.995985 0.993664
1.00021 1.0028 0.992174
1.00145 0.997938 0.993459
1.00185 0.995506 0.99523
1.00144 0.997041 0.994392
1.0013 0.997153 0.994397
1.00128 0.997081 0.994747
1.00112 0.998459 0.993713
1.00106 0.998481 0.993784
1.00098 0.99876 0.993689
1.00094 0.99946 0.993081
1.00087 0.999414 0.9933
1.00079 0.999618 0.993223
1.00074 1.00008 0.992869
1.00072 0.999734 0.99323
1.00069 1.00004 0.993008
1.00065 1.00032 0.992834
1.00067 1.00027 0.992846
1.00062 1.00043 0.992793
1.00052 1.00049 0.99294
1.00019 1.0006 0.993361
1.00039 1.00075 0.992888
1.00051 1.00086 0.992586
0.999855 0.999974 0.994738
1.00008 1.00066 0.993623
1.00023 1.00096 0.99303
0.999664 0.998035 0.997017
0.999863 0.99973 0.994973
1.00004 1.00056 0.993813
0.999617 0.996859 0.999368
0.99972 0.997852 0.99711
0.999882 0.999541 0.995135
0.999669 0.996681 0.999379
0.99977 0.997697 0.99718
0.999717 0.996526 0.999388
1.00006 1.00108 0.993264
1.00008 1.00098 0.993331
1 1.00061 0.993764
1.0001 1.0009 0.993387
1.00003 1.00047 0.993837
0.999926 0.999452 0.995127
1.00007 1.00034 0.993889
0.999968 0.999287 0.995199
0.999826 0.997602 0.997151
1 0.999171 0.995239
0.999868 0.997481 0.997175
0.999774 0.996443 0.999377
0.999824 0.996367 0.999379
0.999901 0.997399 0.997182
0.999866 0.996287 0.999381
0.998505 0.999231 0.9985
0.994931 1.00113 0.980641
0.997988 0.996786 0.98939
1.00012 1.00132 0.992951
1.00018 1.00121 0.992923
1.00013 1.00111 0.993122
1.00014 1.00127 0.992929
1.00007 1.00129 0.993047
1.00005 1.0013 0.993013
1.00015 1.00142 0.992779
1.00005 1.00168 0.992641
1.00011 1.00147 0.992758
1.00013 1.00148 0.992882
1.00043 1.00168 0.991962
1.00155 1.00177 0.98964
1.00039 1.00234 0.991303
1.00004 1.00158 0.99271
1.00262 0.99725 0.99079
0.999819 0.998527 0.995733
0.995324 1.00218 0.983661
0.999962 0.999933 0.991102
1.00242 1.00049 0.989094
1.00002 1.00261 0.990923
0.999712 1.00162 0.995845
0.997261 1.00331 0.99728
0.995082 0.999851 0.981305
1.00286 0.995636 0.991864
0.999173 1.00158 0.991712
1.00218 0.996068 0.993469
1.00024 1.00252 0.992499
1.0012 0.999498 0.992177
1.00016 1.00194 0.991467
1.0018 0.995753 0.995212
1.0014 0.997286 0.994361
1.00106 0.999573 0.992808
1.00122 0.997323 0.994669
1.0011 0.998546 0.993695
1.00106 0.999571 0.99275
1.00097 0.99886 0.993646
1.00091 0.999488 0.993119
1.00086 1.00017 0.992518
1.00078 0.999649 0.993232
1.00074 1.00008 0.992872
1.00069 1.00037 0.992682
1.00069 0.99998 0.993039
1.00066 1.00027 0.992843
1.00057 1.00042 0.992865
1.00062 1.00044 0.992783
1.00052 1.00049 0.992906
1.00032 1.00051 0.993287
0.999898 1.00016 0.994473
1.00018 1.00061 0.993411
1.00038 1.00077 0.992928
0.999614 0.998273 0.996874
0.999868 0.999957 0.994738
1.00009 1.00065 0.993626
0.999549 0.997057 0.999348
0.99967 0.998053 0.997011
0.999872 0.999727 0.994972
0.999605 0.996855 0.999363
0.999724 0.997867 0.997106
0.999658 0.996674 0.999375
1.00008 1.00112 0.993151
1.00006 1.00107 0.993265
0.999992 1.00074 0.993735
1.00009 1.00098 0.993379
0.999998 1.00062 0.993792
0.999883 0.999646 0.995024
1.00002 1.00049 0.993827
0.999925 0.999446 0.995128
0.999777 0.997756 0.9971
0.999968 0.99928 0.9952
0.999827 0.997588 0.997152
0.999721 0.99656 0.99937
0.999869 0.99747 0.997176
0.999782 0.996459 0.999378
0.999829 0.99638 0.999379
1.00135 0.996503 0.994666
0.998508 0.999552 0.994316
0.99516 1.00051 0.982428
1.0001 1.00125 0.992949
1.00032 1.00125 0.992638
1.00007 1.00133 0.992955
1.00014 1.00128 0.992926
1.00006 1.0013 0.993039
1.00007 1.00132 0.992994
1.00048 1.0014 0.992083
1.00015 1.0015 0.992781
0.999978 1.00144 0.993068
1.00041 1.00167 0.991923
1.00128 1.00138 0.990367
1.0018 0.999235 0.99169
1.00155 1.00165 0.989772
1.00031 1.00226 0.991488
1.00271 0.997432 0.990819
0.999404 0.999132 0.993723
1.0025 1.00143 0.987605
0.999626 1.00045 0.994523
0.999636 1.00124 0.99582
0.997281 1.00248 0.993206
1.00203 0.996217 0.993272
1.0003 1.00223 0.992823
1.00125 0.99946 0.992283
1.00028 1.00193 0.991732
1.00081 1.00115 0.991722
1.0001 1.00127 0.993287
1.00137 0.997525 0.994329
1.00105 0.999493 0.992865
1.00102 1.00035 0.992116
1.00108 0.998629 0.993678
1.00104 0.999618 0.992743
1.00098 1.00022 0.992188
1.00088 0.999514 0.993157
1.00086 1.00017 0.992521
1.00079 1.00047 0.992362
1.00074 1.00008 0.992875
1.00069 1.00036 0.992681
1.00061 1.00049 0.992721
1.00066 1.00022 0.992853
1.00057 1.0004 0.992863
1.00039 1.00048 0.993187
1.00051 1.00049 0.992873
1.0003 1.0005 0.993271
0.999956 1.00027 0.994243
0.999584 0.998521 0.996712
0.999911 1.00013 0.994475
1.00018 1.00062 0.993461
0.999479 0.997282 0.99932
0.999621 0.998294 0.996865
0.999881 0.99994 0.994737
0.999536 0.997056 0.999341
0.999676 0.99807 0.997004
0.999593 0.996851 0.999357
1.00015 1.00117 0.992879
1.00008 1.00112 0.993115
1.00002 1.00081 0.993617
1.00006 1.00106 0.993266
0.999982 1.00075 0.993732
0.99985 0.999853 0.994887
0.999991 1.00064 0.99382
0.99988 0.999642 0.995024
0.999722 0.997949 0.997024
0.999924 0.999441 0.995128
0.999776 0.997741 0.997103
0.999657 0.996715 0.999357
0.999827 0.997575 0.997154
0.999732 0.996573 0.999373
0.999789 0.996475 0.999378
1.00101 0.998116 0.994473
1.00141 0.996843 0.995388
0.998103 1.00008 1.00056
1.00054 1.00113 0.992385
1.00006 1.00125 0.993047
1.0005 1.0012 0.992017
1.00031 1.00126 0.992615
1.00002 1.00135 0.992958
1.00116 1.0011 0.991021
1.0001 1.00134 0.992974
1.00049 1.00135 0.992112
1.00168 0.999734 0.991111
1.00039 1.00167 0.991885
1.0014 1.00141 0.990157
1.00187 0.999164 0.991585
1.00155 1.00153 0.989905
1.00279 0.997594 0.99085
1.00002 1.00008 0.994479
0.999552 1.00038 0.994554
0.999555 1.00088 0.995797
1.00128 0.999342 0.99239
1.0004 1.00192 0.991997
1.00091 1.00106 0.991641
1.00015 1.00109 0.99328
1.00035 1.00079 0.993004
1.00103 0.999425 0.992921
1.00102 1.00024 0.992172
1.00092 1.0005 0.992129
1.00101 0.999663 0.992736
1.00099 1.00027 0.992155
1.00091 1.00052 0.992091
1.00086 1.00017 0.992524
1.0008 1.00047 0.992357
1.00069 1.00058 0.992461
1.0007 1.00036 0.99268
1.00061 1.00049 0.99272
1.00044 1.00053 0.993023
1.00057 1.00039 0.992861
1.00038 1.00048 0.99319
0.999998 1.00037 0.994051
1.00029 1.0005 0.993255
0.999966 1.00024 0.994246
0.999552 0.998752 0.997039
0.999422 0.997562 0.998269
0.999585 0.998544 0.996944
0.999923 1.0001 0.994477
0.999468 0.997284 0.999309
0.999627 0.998317 0.996856
0.999523 0.997054 0.999333
1.00065 1.00095 0.992093
1.00026 1.00124 0.992572
1.00018 1.00116 0.992843
1.00006 1.00086 0.993476
1.00008 1.00111 0.993078
1.00001 1.00081 0.993617
0.999835 1.00005 0.994727
0.999972 1.00076 0.99373
0.999844 0.999852 0.994887
0.99966 0.998173 0.996929
0.999877 0.999637 0.995024
0.999718 0.997935 0.997028
0.999581 0.996909 0.999338
0.999775 0.997726 0.997106
0.999671 0.996722 0.999361
0.999742 0.996586 0.999375
1.00105 0.999064 0.993286
1.00097 0.998207 0.994325
1.00147 0.997216 0.996111
1.00103 1.0009 0.991472
1.00044 1.00113 0.992524
1.00002 1.00124 0.993144
1.00059 1.00116 0.992082
1.00031 1.00126 0.992592
1.00152 1.00036 0.990909
1.00116 1.00116 0.990972
1.00049 1.0013 0.992142
1.00177 0.999723 0.991048
1.00153 1.00143 0.989947
1.00194 0.9991 0.991481
0.999803 1.00043 0.994208
0.999954 1.00021 0.994433
0.999475 1.00032 0.994584
1.00101 1.00096 0.99156
1.00018 1.00092 0.993273
1.00038 1.00076 0.99297
1.00037 1.00073 0.992969
1.00102 1.00012 0.992227
1.00098 1.00043 0.992066
1.00088 1.00037 0.992308
1.001 1.00032 0.992122
1.00091 1.00052 0.992085
1.00079 1.00064 0.992207
1.00081 1.00046 0.992351
1.0007 1.00057 0.992456
1.00051 1.00061 0.992803
1.00061 1.00048 0.992719
1.00044 1.00053 0.993022
1.00003 1.00049 0.993862
1.00038 1.00047 0.993193
1.00001 1.00035 0.994054
0.99951 0.99902 0.996879
0.999977 1.00021 0.994249
0.99955 0.998789 0.997013
0.999351 0.997828 0.998149
0.999416 0.997531 0.998769
0.999587 0.998567 0.997174
0.999458 0.997286 0.999298
1.00102 1.00077 0.991574
1.00047 1.00109 0.992503
1.00062 1.00088 0.992272
1.00012 1.00098 0.993227
1.00029 1.00125 0.992582
1.0002 1.00116 0.992806
1.00005 1.00087 0.993476
0.999831 1.00025 0.994532
0.999997 1.00082 0.993617
0.999825 1.00006 0.994726
0.999591 0.998418 0.996826
0.999838 0.99985 0.994887
0.999654 0.998159 0.996934
0.999495 0.997138 0.999316
0.999715 0.99792 0.997031
0.999598 0.99691 0.999344
0.999684 0.996729 0.999366
1.00085 1.00007 0.992673
1.00102 0.999077 0.993291
1.00094 0.998293 0.994177
1.00134 1.00033 0.991224
1.00103 1.00091 0.991469
1.00035 1.00113 0.992663
1.00067 1.00111 0.992147
1.00156 1.00036 0.990932
1.00115 1.00121 0.990924
1.00186 0.999712 0.990985
0.99994 1.00077 0.993756
0.99994 1.00049 0.994014
0.999903 1.00034 0.994387
1.00019 1.00098 0.993088
1.00043 1.00073 0.992937
1.00037 1.00075 0.992967
1.00058 1.0005 0.992793
1.00104 1.00037 0.992003
1.00086 1.00039 0.992314
1.00078 1.00061 0.992274
1.00091 1.00052 0.992078
1.00078 1.00064 0.99221
1.00058 1.00068 0.992591
1.00071 1.00057 0.992451
1.00051 1.0006 0.992799
1.00008 1.00058 0.993666
1.00044 1.00052 0.993021
1.00004 1.00047 0.993864
0.999456 0.999323 0.996703
1.00002 1.00032 0.994057
0.999509 0.999047 0.996853
0.999271 0.998126 0.998041
0.999548 0.998827 0.996987
0.999351 0.997798 0.998164
0.999408 0.9975 0.99927
1.00133 1.00047 0.99133
1.00084 1.00083 0.991923
1.00099 1.00079 0.991658
1.00029 1.00096 0.993039
1.00046 1.00107 0.992469
1.00058 1.00081 0.99245
0.99986 1.00049 0.994239
1.00012 1.00099 0.993226
1.00032 1.00127 0.992592
1.00004 1.00088 0.993476
0.999814 1.00028 0.994531
0.999522 0.998691 0.996697
0.999814 1.00006 0.994726
0.999584 0.998403 0.996832
0.999402 0.997391 0.999293
0.999649 0.998145 0.996939
0.999513 0.997132 0.999323
0.999614 0.99691 0.99935
1.00089 1.00029 0.992381
1.00096 1.00003 0.992527
1.00098 0.999091 0.993296
1.00147 1.00028 0.991093
1.00103 1.00091 0.991466
1.0016 1.00036 0.990955
0.999994 1.00124 0.993191
0.99988 1.00085 0.993829
1.00007 1.00055 0.993819
1.00022 1.00105 0.992986
1.00028 1.00104 0.992858
1.00036 1.00076 0.992965
1.00057 1.00051 0.992794
1.00061 1.0006 0.992685
1.00084 1.0004 0.99232
1.00076 1.00061 0.99229
1.00057 1.00074 0.992549
1.00078 1.00064 0.992213
1.00058 1.00068 0.992589
1.00013 1.00066 0.99349
1.00051 1.0006 0.992795
1.00008 1.00058 0.993668
0.999391 0.999667 0.996462
1.00004 1.00045 0.993866
0.999461 0.999338 0.996673
0.99917 0.998482 0.997916
0.999508 0.999076 0.996827
0.99927 0.998092 0.998058
0.99935 0.997767 0.99818
1.00117 0.999871 0.992286
1.00113 1.00062 0.991531
1.00135 1.00045 0.9913
1.00057 1.0008 0.992545
1.00083 1.00084 0.991978
1.00095 1.00082 0.991742
0.99995 1.0006 0.993911
1.00028 1.00095 0.992937
1.00045 1.00106 0.992435
0.999481 0.998992 0.996485
0.999839 1.00052 0.99424
1.00012 1.00099 0.993224
0.999797 1.0003 0.99453
0.999513 0.998674 0.996705
0.999313 0.997662 0.999262
0.999578 0.998389 0.996838
0.99942 0.997381 0.9993
0.999532 0.997127 0.999329
1.00055 1.0011 0.99225
1.00093 1.00025 0.99233
1.00107 0.999993 0.992381
1.0016 1.00023 0.990962
1.00011 1.0014 0.992809
0.999978 1.00125 0.993245
0.999821 1.00093 0.993901
1.00024 1.00112 0.992884
1.00026 1.00105 0.992891
1.00028 1.00094 0.992953
1.00056 1.00051 0.992795
1.0006 1.0006 0.992677
1.00047 1.00077 0.992748
1.00075 1.00061 0.992306
1.00056 1.00074 0.992561
1.00013 1.00077 0.993384
1.00057 1.00068 0.992587
1.00012 1.00066 0.993492
0.999346 1.00007 0.995588
1.00008 1.00057 0.99367
0.999411 0.999692 0.996122
0.99904 0.998761 0.999059
0.999465 0.999354 0.996642
0.999168 0.998444 0.997936
0.999268 0.998057 0.998075
1.00085 1.00051 0.992318
1.00109 1.00014 0.992107
1.00111 0.999921 0.992265
1.00077 1.00067 0.992052
1.00111 1.00058 0.991641
1.00138 1.00042 0.99127
1.00012 1.00059 0.993422
1.00057 1.00081 0.992541
1.00082 1.00085 0.992032
0.999492 0.999267 0.996178
0.999941 1.00063 0.993824
1.00028 1.00094 0.992835
0.999244 0.997953 0.999206
0.999465 0.998972 0.996496
0.999818 1.00055 0.994241
0.999503 0.998657 0.996712
0.999328 0.997651 0.999272
0.99944 0.997372 0.999307
1.00026 1.00147 0.992411
1.00048 1.00106 0.992401
1.00097 1.00022 0.992279
1.0001 1.00124 0.993019
1.00012 1.0014 0.992825
0.999962 1.00126 0.993299
1.00024 1.00106 0.992925
1.00029 1.00092 0.992959
1.00014 1.00102 0.993187
1.00059 1.0006 0.992669
1.00045 1.00078 0.992798
1.00004 1.00087 0.993393
1.00054 1.00074 0.992572
1.00012 1.00077 0.993394
0.999275 1.00041 0.995394
1.00012 1.00066 0.993494
0.999369 1.00005 0.995584
0.998939 0.999117 0.999015
0.999429 0.999715 0.995784
0.999029 0.998811 0.998422
0.999165 0.998405 0.997956
1.00058 1.00114 0.992304
1.00082 1.00035 0.99242
1.00082 1.0005 0.992296
1.00079 1.00047 0.992315
1.00104 1.00016 0.992137
1.00105 0.999972 0.992244
1.00028 1.00057 0.993087
1.0008 1.00067 0.992156
1.00109 1.00055 0.991751
0.999534 0.999501 0.995839
1.00013 1.00062 0.993371
1.00057 1.00081 0.992537
0.999195 0.998257 0.999128
0.999471 0.999253 0.99619
0.999933 1.00066 0.993736
0.999252 0.997939 0.999224
0.999449 0.998952 0.996508
0.999344 0.997639 0.999282
1.00023 1.00124 0.992702
1.00029 1.00143 0.992431
1.0004 1.00101 0.992551
1.00004 1.00122 0.993197
1.00013 1.00124 0.992985
1.00013 1.00141 0.99284
1.00029 1.0009 0.992965
1.00015 1.001 0.993187
0.999814 1.00108 0.99362
1.00043 1.0008 0.992849
1.00004 1.00088 0.993417
0.999163 1.00072 0.995338
1.0001 1.00077 0.993403
0.999293 1.00039 0.995394
0.998793 0.999497 0.998961
0.999391 1.00003 0.99558
0.998903 0.999153 0.998998
0.999019 0.998865 0.997782
1.00054 1.00088 0.99255
1.00057 1.00117 0.992206
1.00061 1.00055 0.992626
1.00081 1.00035 0.992439
1.00078 1.00049 0.992275
1.00031 1.00054 0.993207
1.00081 1.00047 0.9923
1.001 1.00018 0.992167
0.999554 0.999724 0.99555
1.0003 1.00058 0.993132
1.00082 1.00067 0.992261
0.999143 0.998569 0.999046
0.99951 0.9995 0.995849
1.00015 1.00065 0.993321
0.999199 0.99824 0.999152
0.999449 0.99924 0.996202
0.99926 0.997924 0.999242
1.00018 1.00113 0.993014
1.00026 1.00121 0.992705
1.00032 1.00139 0.99245
0.999764 1.00122 0.993602
1.00004 1.00122 0.9932
1.00016 1.00124 0.992952
1.00016 1.00098 0.993187
0.999831 1.00108 0.993603
0.999017 1.00098 0.995385
1.00004 1.0009 0.993442
0.999168 1.0007 0.995345
0.998637 0.999835 0.99893
0.99931 1.00037 0.995393
0.998756 0.999535 0.998948
0.998868 0.999189 0.998981
1.00039 1.00088 0.992817
1.00054 1.00091 0.992499
1.00056 1.00121 0.992109
1.00017 1.00067 0.993369
1.00061 1.00056 0.992626
1.0008 1.00035 0.992457
0.999493 0.999961 0.995408
1.00032 1.00054 0.993194
1.00083 1.00048 0.992286
0.99906 0.998892 0.99898
0.999534 0.999731 0.995556
1.00032 1.00059 0.993176
0.999152 0.998551 0.99907
0.999487 0.999499 0.995859
0.999203 0.998223 0.999176
0.999834 1.00116 0.993613
1.00016 1.00113 0.992996
1.00029 1.00119 0.992708
0.998955 1.00111 0.995383
0.999758 1.00123 0.99361
1.00004 1.00121 0.993203
0.999849 1.00107 0.993587
0.99902 1.00096 0.995389
0.998467 1.0001 0.998937
0.999173 1.00068 0.995351
0.998589 0.999869 0.998931
0.998718 0.999573 0.998935
0.999972 1.00095 0.993524
1.00037 1.00088 0.992813
1.00055 1.00093 0.992447
0.99933 1.00018 0.996106
1.00018 1.00067 0.99336
1.00061 1.00056 0.992625
0.998912 0.999225 0.998952
0.999484 0.999977 0.995404
1.00034 1.00054 0.993181
0.999081 0.998869 0.998998
0.999514 0.999739 0.995563
0.99916 0.998532 0.999094
0.998995 1.00101 0.995376
0.999838 1.00116 0.993572
1.00015 1.00113 0.992977
0.998377 1.00022 0.998939
0.998958 1.00111 0.99538
0.999754 1.00123 0.993619
0.999023 1.00095 0.995393
0.998439 1.00012 0.998938
0.998541 0.999903 0.998934
0.999121 1.00055 0.996113
0.999978 1.00095 0.993518
1.00036 1.00089 0.992809
0.998751 0.999538 0.998959
0.999344 1.0003 0.995393
1.00019 1.00067 0.99335
0.998954 0.999199 0.998958
0.999474 0.999995 0.9954
0.999102 0.998847 0.999017
0.998407 1.00048 0.997502
0.999012 1.00093 0.995734
0.999841 1.00115 0.993531
0.99838 1.00022 0.998938
0.99896 1.0011 0.995379
0.998409 1.00014 0.998942
0.998552 1.00012 0.997531
0.999153 1.00064 0.995758
0.999984 1.00095 0.993512
0.998764 0.99966 0.998243
0.999324 1.00034 0.995385
0.998997 0.999172 0.998964
0.998407 1.00015 0.998935
0.999005 1.00102 0.995375
0.998384 1.00022 0.998932
0.998531 1.00006 0.998236
0.999135 1.00072 0.995398
0.99882 0.999515 0.998949
0.998451 1.00011 0.99894
0.998613 0.999851 0.998949

TENSORS stress float
0.00118725 2.24627e-05 1.11764e-05
2.24627e-05 0.000143532 -3.91483e-06
1.11764e-05 -3.91483e-06 0.000145119
0.0024355 -2.53056e-05 8.72666e-06
-2.53056e-05 0.000735782 2.70204e-06
8.72666e-06 2.70204e-06 0.000749273
0.00116299 2.30994e-05 4.07788e-06
2.30994e-05 0.000131631 -1.58041e-06
4.07788e-06 -1.58041e-06 0.000133533
0.00123978 2.31671e-05 1.3508e-05
2.31671e-05 0.000204978 -3.09787e-06
1.3508e-05 -3.09787e-06 0.000195971
0.00120673 2.30854e-05 1.18411e-05
2.30854e-05 0.000163484 -3.6464e-06
1.18411e-05 -3.6464e-06 0.000161983
0.00116938 2.16867e-05 1.04933e-05
2.16867e-05 0.000125822 -4.15632e-06
1.04933e-05 -4.15632e-06 0.000130276
0.00115571 1.81443e-05 4.30305e-06
1.81443e-05 0.000116393 -1.59446e-06
4.30305e-06 -1.59446e-06 0.000100495
0.00249001 -2.54525e-05 1.34491e-07
-2.54525e-05 0.000761357 -8.28855e-08
1.34491e-07 -8.28855e-08 0.000774876
0.00277191 -3.09217e-05 4.37985e-06
-3.09217e-05 0.000922197 8.63538e-07
4.37985e-06 8.63538e-07 0.000929157
0.00253928 -2.78653e-05 3.93963e-06
-2.78653e-05 0.000792603 9.86502e-07
3.93963e-06 9.86502e-07 0.000804378
0.00109112 -1.97523e-05 7.46648e-06
-1.97523e-05 7.30379e-05 2.72331e-06
7.46648e-06 2.72331e-06 8.25785e-05
0.000905542 -1.6061e-05 4.29636e-06
-1.6061e-05 -1.75655e-05 2.00862e-06
4.29636e-06 2.00862e-06 -2.78582e-05
0.00112154 -1.71674e-05 1.23788e-05
-1.71674e-05 0.0002031 6.5372e-07
1.23788e-05 6.5372e-07 0.000183762
0.00114132 -2.41395e-05 3.84451e-06
-2.41395e-05 0.000174557 4.74057e-07
3.84451e-06 4.74057e-07 0.000162691
0.00113681 2.37564e-05 -3.11829e-06
2.37564e-05 0.00011884 7.66704e-07
-3.11829e-06 7.66704e-07 0.000121061
0.00120316 2.38539e-05 4.99813e-06
2.38539e-05 0.000187693 -1.24838e-06
4.99813e-06 -1.24838e-06 0.000179038
0.00114583 2.22974e-05 3.8257e-06
2.22974e-05 0.00011405 -1.65591e-06
3.8257e-06 -1.65591e-06 0.000118834
0.00117804 2.37374e-05 4.33618e-06
2.37374e-05 0.000149577 -1.46566e-06
4.33618e-06 -1.46566e-06 0.000148402
0.00117102 1.81492e-05 -1.06292e-06
1.81492e-05 0.000124245 1.98745e-07
-1.06292e-06 1.98745e-07 0.000108331
0.00294841 2.94344e-05 1.32747e-05
2.94344e-05 0.001083 -8.93785e-07
1.32747e-05 -8.93785e-07 0.00107657
0.00125629 2.23176e-05 1.4546e-05
2.23176e-05 0.000227707 -2.59185e-06
1.4546e-05 -2.59185e-06 0.000214844
0.00122086 2.33717e-05 1.25558e-05
2.33717e-05 0.000182649 -3.41156e-06
1.25558e-05 -3.41156e-06 0.000177613
0.0012003 1.86071e-05 4.12013e-06
1.86071e-05 0.00015692 -1.11871e-06
4.12013e-06 -1.11871e-06 0.000130886
0.00117226 1.86315e-05 4.34699e-06
1.86315e-05 0.000131068 -1.39651e-06
4.34699e-06 -1.39651e-06 0.000111975
0.00116688 2.07858e-05 9.9455e-06
2.07858e-05 0.000115565 -4.34124e-06
9.9455e-06 -4.34124e-06 0.000122639
0.00113515 1.76882e-05 4.11538e-06
1.76882e-05 0.000100625 -1.77104e-06
4.11538e-06 -1.77104e-06 8.79763e-05
0.00139729 5.36346e-06 1.47386e-06
5.36346e-06 0.000208104 -2.89619e-07
1.47386e-06 -2.89619e-07 0.000167408
0.00254531 -2.5617e-05 -8.5255e-06
-2.5617e-05 0.000787279 -2.72211e-06
-8.5255e-06 -2.72211e-06 0.000800829
0.00197087 -2.69587e-05 -3.31844e-06
-2.69587e-05 0.000532585 -8.16596e-07
-3.31844e-06 -8.16596e-07 0.00053528
0.00184273 -2.47294e-05 -2.93551e-06
-2.47294e-05 0.000453398 -9.01792e-07
-2.93551e-06 -9.01792e-07 0.000461639
0.00238698 -2.38134e-05 1.02457e-07
-2.38134e-05 0.000704582 -6.19839e-08
1.02457e-07 -6.19839e-08 0.000719917
0.000865855 -1.60429e-05 9.47122e-08
-1.60429e-05 -3.66357e-05 -4.29963e-08
9.47122e-08 -4.29963e-08 -4.67057e-05
0.00110653 -2.31935e-05 9.78523e-06
-2.31935e-05 0.000125733 1.86268e-06
9.78523e-06 1.86268e-06 0.000120952
0.00112803 -2.25515e-05 8.71213e-06
-2.25515e-05 0.000114547 2.26509e-06
8.71213e-06 2.26509e-06 0.000116634
0.00167112 -2.03768e-05 6.40766e-06
-2.03768e-05 0.00036886 1.53413e-06
6.40766e-06 1.53413e-06 0.000352298
0.0023339 -2.29723e-05 3.50672e-06
-2.29723e-05 0.000670584 1.18107e-06
3.50672e-06 1.18107e-06 0.000687702
0.00161067 -1.87317e-05 6.12273e-06
-1.87317e-05 0.000331161 1.8468e-06
6.12273e-06 1.8468e-06 0.000321321
0.000898806 -1.55133e-05 5.09518e-06
-1.55133e-05 -2.55729e-05 3.18309e-06
5.09518e-06 3.18309e-06 -3.33781e-05
0.000996023 -5.63033e-06 2.35685e-06
-5.63033e-06 1.39424e-05 1.04658e-06
2.35685e-06 1.04658e-06 -2.35353e-05
0.00232053 -1.87347e-05 7.57666e-06
-1.87347e-05 0.000652575 3.28324e-06
7.57666e-06 3.28324e-06 0.000671605
0.00284141 -2.83536e-05 3.03158e-07
-2.83536e-05 0.00103702 -1.34011e-07
3.03158e-07 -1.34011e-07 0.00103017
0.00199865 -2.72821e-05 -3.84503e-06
-2.72821e-05 0.000594047 -5.4605e-07
-3.84503e-06 -5.4605e-07 0.000586895
0.00289143 -2.56586e-05 1.28561e-05
-2.56586e-05 0.00107049 2.43641e-07
1.28561e-05 2.43641e-07 0.00106207
0.0011222 -2.25172e-05 3.98851e-06
-2.25172e-05 0.000185526 3.7949e-07
3.98851e-06 3.7949e-07 0.000169851
0.000686087 -1.53794e-05 6.77909e-06
-1.53794e-05 -6.2151e-05 9.40837e-07
6.77909e-06 9.40837e-07 -0.000101093
0.00288537 -3.28157e-05 4.81426e-06
-3.28157e-05 0.00100423 6.68021e-07
4.81426e-06 6.68021e-07 0.00100574
0.00154519 -2.10544e-05 8.47733e-06
-2.10544e-05 0.000334131 1.4804e-06
8.47733e-06 1.4804e-06 0.000307769
0.00116475 2.46148e-05 -3.68196e-06
2.46148e-05 0.000169549 6.0629e-07
-3.68196e-06 6.0629e-07 0.000161251
0.00114633 2.44082e-05 -3.28029e-06
2.44082e-05 0.000134219 6.91098e-07
-3.28029e-06 6.91098e-07 0.00013338
0.00112151 2.29302e-05 -2.94645e-06
2.29302e-05 0.000101919 8.28544e-07
-2.94645e-06 8.28544e-07 0.000107033
0.00118695 1.81428e-05 -6.45319e-06
1.81428e-05 0.000132392 2.02427e-06
-6.45319e-06 2.02427e-06 0.000116458
0.00202334 2.46227e-05 -2.80379e-06
2.46227e-05 0.000635302 -2.23994e-07
-2.80379e-06 -2.23994e-07 0.000622701
0.00121398 2.30549e-05 5.40432e-06
2.30549e-05 0.000207889 -1.0738e-06
5.40432e-06 -1.0738e-06 0.000195304
0.00113763 2.13552e-05 3.61406e-06
2.13552e-05 0.00010085 -1.71134e-06
3.61406e-06 -1.71134e-06 0.000108258
0.00118853 2.40399e-05 4.62663e-06
2.40399e-05 0.000167124 -1.35168e-06
4.62663e-06 -1.35168e-06 0.00016245
0.00121776 1.87369e-05 -1.6469e-06
1.87369e-05 0.00016557 2.3195e-07
-1.6469e-06 2.3195e-07 0.00013953
0.00115186 1.76829e-05 -9.73269e-07
1.76829e-05 0.000109064 1.90225e-07
-9.73269e-07 1.90225e-07 9.64207e-05
0.00118702 1.86704e-05 -1.204e-06
1.86704e-05 0.000138504 2.20652e-07
-1.204e-06 2.20652e-07 0.000119404
0.00139114 4.54363e-06 -9.78302e-07
4.54363e-06 0.000203727 5.45574e-07
-9.78302e-07 5.45574e-07 0.000162808
0.00297244 2.87834e-05 1.32715e-05
2.87834e-05 0.00110386 -4.80404e-07
1.32715e-05 -4.80404e-07 0.00109606
0.00125407 2.06733e-05 1.53942e-05
2.06733e-05 0.000243497 -2.01375e-06
1.53942e-05 -2.01375e-06 0.000227346
0.0015547 1.80482e-05 3.40879e-06
1.80482e-05 0.000354024 -3.57284e-07
3.40879e-06 -3.57284e-07 0.000322106
0.00122109 1.66454e-05 4.15726e-06
1.66454e-05 0.000172134 -8.81813e-07
4.15726e-06 -8.81813e-07 0.000142958
0.00118247 1.90822e-05 4.23178e-06
1.90822e-05 0.000143019 -1.25943e-06
4.23178e-06 -1.25943e-06 0.000120533
0.00139886 2.6704e-06 1.12506e-06
2.6704e-06 0.000196152 -2.17054e-07
1.12506e-06 -2.17054e-07 0.000147806
0.00121017 4.92249e-06 1.67548e-06
4.92249e-06 0.000114148 -4.08969e-07
1.67548e-06 -4.08969e-07 7.00261e-05
0.00124578 1.97505e-05 9.72696e-06
1.97505e-05 0.000143352 -4.51692e-06
9.72696e-06 -4.51692e-06 0.000152549
0.00114042 1.7248e-05 3.89146e-06
1.7248e-05 9.60862e-05 -1.83391e-06
3.89146e-06 -1.83391e-06 8.68893e-05
0.00138427 7.7117e-06 1.47107e-06
7.7117e-06 0.000205346 -4.20724e-07
1.47107e-06 -4.20724e-07 0.000167552
0.00111357 -1.00408e-05 8.37162e-07
-1.00408e-05 4.04233e-05 -3.01756e-07
8.37162e-07 -3.01756e-07 -1.34314e-05
0.00286211 -3.0266e-05 -9.786e-06
-3.0266e-05 0.000964855 -2.2447e-06
-9.786e-06 -2.2447e-06 0.00097186
0.00246987 -2.39779e-05 -8.20391e-06
-2.39779e-05 0.000743521 -2.85535e-06
-8.20391e-06 -2.85535e-06 0.000758839
0.00263708 -2.72041e-05 -8.94287e-06
-2.72041e-05 0.000839309 -2.56545e-06
-8.94287e-06 -2.56545e-06 0.000850912
0.000826589 -1.60253e-05 -4.07729e-06
-1.60253e-05 -5.55005e-05 -2.15048e-06
-4.07729e-06 -2.15048e-06 -6.53492e-05
0.00284679 -3.08132e-05 1.49293e-07
-3.08132e-05 0.000971231 -1.04553e-07
1.49293e-07 -1.04553e-07 0.000975318
0.00264676 -2.84145e-05 1.1301e-07
-2.84145e-05 0.000853827 -7.84172e-08
1.1301e-07 -7.84172e-08 0.000863098
0.000840241 -1.73097e-05 1.02432e-07
-1.73097e-05 -3.49801e-05 -7.13348e-08
1.02432e-07 -7.13348e-08 -5.54344e-05
0.00173455 -2.06421e-05 -2.61518e-06
-2.06421e-05 0.000378454 -1.00402e-06
-2.61518e-06 -1.00402e-06 0.00039258
0.000875297 -1.64609e-05 3.51948e-08
-1.64609e-05 -2.68942e-05 -2.82439e-08
3.51948e-08 -2.82439e-08 -3.98105e-05
0.00121242 -1.64219e-05 1.39823e-06
-1.64219e-05 0.000126983 4.81565e-07
1.39823e-06 4.81565e-07 0.000120949
0.000983968 -6.71041e-06 1.10627e-07
-6.71041e-06 9.21025e-06 -6.64944e-08
1.10627e-07 -6.64944e-08 -2.84272e-05
0.00231089 -2.04513e-05 7.79114e-06
-2.04513e-05 0.000653884 3.11346e-06
7.79114e-06 3.11346e-06 0.000672002
0.000932674 -1.27366e-05 3.31485e-06
-1.27366e-05 -2.65465e-05 2.49698e-06
3.31485e-06 2.49698e-06 -2.97376e-05
0.000767539 -1.71603e-05 6.24208e-06
-1.71603e-05 -6.49959e-05 2.14983e-06
6.24208e-06 2.14983e-06 -8.97904e-05
0.000838509 -1.6553e-05 5.85327e-06
-1.6553e-05 -3.92406e-05 2.70311e-06
5.85327e-06 2.70311e-06 -5.63977e-05
0.000997196 1.3063e-06 2.27967e-06
1.3063e-06 2.21895e-06 7.19375e-07
2.27967e-06 7.19375e-07 -4.50254e-05
0.00154821 -1.64466e-05 5.39132e-06
-1.64466e-05 0.00028399 2.23636e-06
5.39132e-06 2.23636e-06 0.000281428
0.00100288 -1.66505e-06 2.32185e-06
-1.66505e-06 1.46304e-05 1.02743e-06
2.32185e-06 1.02743e-06 -2.57673e-05
0.0010024 -9.74043e-06 2.21127e-06
-9.74043e-06 1.80584e-05 1.32564e-06
2.21127e-06 1.32564e-06 -1.6691e-05
0.00104436 6.06166e-06 1.17765e-06
6.06166e-06 2.56153e-05 3.23401e-07
1.17765e-06 3.23401e-07 -2.54532e-05
0.00232416 -1.70192e-05 7.26442e-06
-1.70192e-05 0.000649237 3.42656e-06
7.26442e-06 3.42656e-06 0.000669078
0.00236882 -1.87563e-05 1.35085e-07
-1.87563e-05 0.000675503 -5.53304e-08
1.35085e-07 -5.53304e-08 0.000694414
0.00300311 -3.22913e-05 -1.14819e-05
-3.22913e-05 0.00107523 -1.52029e-06
-1.14819e-05 -1.52029e-06 0.00107409
0.0029288 -2.99225e-05 -1.25907e-05
-2.99225e-05 0.0010746 -8.7454e-07
-1.25907e-05 -8.7454e-07 0.00106822
0.00290291 -2.71067e-05 6.34596e-07
-2.71067e-05 0.00107462 -1.45543e-07
6.34596e-07 -1.45543e-07 0.00106637
0.00198579 -2.58903e-05 -4.07286e-06
-2.58903e-05 0.000607146 -4.29891e-07
-4.07286e-06 -4.29891e-07 0.000596662
0.00115629 -1.75606e-05 2.30316e-06
-1.75606e-05 0.000166113 3.33143e-08
2.30316e-06 3.33143e-08 0.000130527
0.0020617 -2.81259e-05 -3.66991e-06
-2.81259e-05 0.00060352 -6.54858e-07
-3.66991e-06 -6.54858e-07 0.000599891
0.00122438 -1.98781e-05 1.968e-06
-1.98781e-05 0.000176888 1.94095e-07
1.968e-06 1.94095e-07 0.000147961
0.00294233 -1.62636e-06 1.29122e-05
-1.62636e-06 0.00109585 -8.8215e-08
1.29122e-05 -8.8215e-08 0.00108717
0.000718732 -1.18038e-05 4.72673e-06
-1.18038e-05 -4.15762e-05 2.21315e-07
4.72673e-06 2.21315e-07 -8.22679e-05
0.00152499 -2.0906e-05 8.79354e-06
-2.0906e-05 0.000335715 1.2143e-06
8.79354e-06 1.2143e-06 0.000306118
0.000999014 -1.48006e-05 1.72851e-06
-1.48006e-05 1.26528e-05 7.6453e-08
1.72851e-06 7.6453e-08 -4.28702e-05
0.00164165 -2.13208e-05 6.60661e-06
-2.13208e-05 0.000367796 1.03738e-06
6.60661e-06 1.03738e-06 0.000344916
0.00100571 -5.27579e-06 1.89503e-06
-5.27579e-06 7.02803e-06 3.43149e-07
1.89503e-06 3.43149e-07 -4.47983e-05
0.00111289 1.73558e-05 -1.25591e-05
1.73558e-05 0.00019445 6.43241e-07
-1.25591e-05 6.43241e-07 0.000175747
0.00117237 2.39149e-05 -3.93489e-06
2.39149e-05 0.000188419 5.39749e-07
-3.93489e-06 5.39749e-07 0.000176103
0.00110781 2.19367e-05 -2.80308e-06
2.19367e-05 8.58629e-05 8.79716e-07
-2.80308e-06 8.79716e-07 9.36072e-05
0.00115362 2.47475e-05 -3.45267e-06
2.47475e-05 0.000150359 6.37689e-07
-3.45267e-06 6.37689e-07 0.000146057
0.00123777 1.87306e-05 -7.46325e-06
1.87306e-05 0.00017544 1.59176e-06
-7.46325e-06 1.59176e-06 0.000149389
0.00120319 1.86837e-05 -6.76398e-06
1.86837e-05 0.000146606 1.8429e-06
-6.76398e-06 1.8429e-06 0.000127494
0.00116868 1.76686e-05 -6.09412e-06
1.76686e-05 0.00011756 2.16479e-06
-6.09412e-06 2.16479e-06 0.000104921
0.00138674 3.67861e-06 -3.29127e-06
3.67861e-06 0.000200155 1.37982e-06
-3.29127e-06 1.37982e-06 0.000159014
0.00293523 2.77682e-05 -6.49734e-07
2.77682e-05 0.0010877 -1.33102e-07
-6.49734e-07 -1.33102e-07 0.00107975
0.00121118 2.15658e-05 5.76148e-06
2.15658e-05 0.000223332 -8.11645e-07
5.76148e-06 -8.11645e-07 0.000207392
0.000935589 1.43934e-05 -3.32036e-06
1.43934e-05 5.21471e-05 2.07039e-07
-3.32036e-06 2.07039e-07 1.6142e-05
0.00123136 1.65979e-05 -1.85497e-06
1.65979e-05 0.000177215 2.22583e-07
-1.85497e-06 2.22583e-07 0.000148032
0.00181889 2.18979e-05 5.01243e-06
2.18979e-05 0.000423237 -1.78826e-06
5.01243e-06 -1.78826e-06 0.000435742
0.00134677 1.78163e-05 -7.70975e-07
1.78163e-05 0.000196842 2.43248e-07
-7.70975e-07 2.43248e-07 0.000188818
0.00120016 1.91264e-05 -1.41225e-06
1.91264e-05 0.00015173 2.32167e-07
-1.41225e-06 2.32167e-07 0.00012925
0.00132253 2.62824e-06 -8.37515e-07
2.62824e-06 0.00015837 3.4168e-07
-8.37515e-07 3.4168e-07 0.000109362
0.00138388 6.46961e-06 -9.46616e-07
6.46961e-06 0.000203589 6.05318e-07
-9.46616e-07 6.05318e-07 0.000165523
0.00130506 4.39394e-06 -6.17015e-07
4.39394e-06 0.000159402 2.82765e-07
-6.17015e-07 2.82765e-07 0.000115643
0.00110327 -9.49196e-06 3.89751e-08
-9.49196e-06 3.58879e-05 -5.3026e-08
3.89751e-08 -5.3026e-08 -1.79022e-05
0.000712007 1.35658e-05 4.88389e-06
1.35658e-05 -4.80695e-05 -4.52665e-07
4.88389e-06 -4.52665e-07 -8.79878e-05
0.00122676 1.54511e-05 4.16746e-06
1.54511e-05 0.000183351 -6.74244e-07
4.16746e-06 -6.74244e-07 0.000151659
0.0012313 1.03936e-05 1.56174e-06
1.03936e-05 0.000111797 -1.11548e-07
1.56174e-06 -1.11548e-07 5.77169e-05
0.0012581 2.23858e-06 1.52519e-06
2.23858e-06 0.000121897 -3.37544e-07
1.52519e-06 -3.37544e-07 7.077e-05
0.00121128 3.75229e-06 1.50699e-06
3.75229e-06 0.000110766 -4.07075e-07
1.50699e-06 -4.07075e-07 6.39436e-05
0.00133359 -1.10054e-05 2.20308e-07
-1.10054e-05 0.0001232 -1.62653e-07
2.20308e-07 -1.62653e-07 6.54646e-05
0.00248523 2.23013e-05 8.08614e-06
2.23013e-05 0.000739888 -3.02923e-06
8.08614e-06 -3.02923e-06 0.000756761
0.00113577 -9.61775e-06 6.49483e-07
-9.61775e-06 4.38083e-05 -1.71327e-07
6.49483e-07 -1.71327e-07 -1.06567e-05
0.000905187 1.57074e-05 3.82158e-06
1.57074e-05 -2.68335e-05 -2.09788e-06
3.82158e-06 -2.09788e-06 -3.40902e-05
0.000980892 1.00194e-05 2.09659e-06
1.00194e-05 9.29893e-06 -1.15708e-06
2.09659e-06 -1.15708e-06 -2.78956e-05
0.00110293 -9.4085e-06 8.95589e-07
-9.4085e-06 4.44312e-05 -5.3462e-07
8.95589e-07 -5.3462e-07 -8.85275e-06
0.0011776 -1.67889e-05 3.34869e-07
-1.67889e-05 5.27618e-05 4.88536e-08
3.34869e-07 4.88536e-08 -4.89081e-06
0.000891032 1.34151e-05 3.41687e-06
1.34151e-05 -4.5573e-05 -2.42924e-06
3.41687e-06 -2.42924e-06 -4.98856e-05
0.000997053 7.72077e-06 1.98655e-06
7.72077e-06 1.02657e-07 -1.52563e-06
1.98655e-06 -1.52563e-06 -3.03795e-05
0.00297235 -3.15221e-05 -1.04797e-05
-3.15221e-05 0.00102837 -2.05387e-06
-1.04797e-05 -2.05387e-06 0.00103276
0.00273683 -2.87718e-05 -9.26845e-06
-2.87718e-05 0.000895861 -2.39682e-06
-9.26845e-06 -2.39682e-06 0.000905304
0.000749674 -1.68845e-05 -4.59727e-06
-1.68845e-05 -7.71907e-05 -1.82335e-06
-4.59727e-06 -1.82335e-06 -9.76452e-05
0.00243657 -2.22684e-05 -8.04927e-06
-2.22684e-05 0.000720037 -3.01397e-06
-8.04927e-06 -3.01397e-06 0.000736793
0.000848097 -1.55873e-05 -3.80991e-06
-1.55873e-05 -5.04469e-05 -2.21746e-06
-3.80991e-06 -2.21746e-06 -5.76582e-05
0.000796752 -1.62901e-05 -4.36514e-06
-1.62901e-05 -6.42645e-05 -1.96171e-06
-4.36514e-06 -1.96171e-06 -7.70523e-05
0.000972201 -7.75231e-06 -2.26869e-06
-7.75231e-06 4.63841e-06 -1.31418e-06
-2.26869e-06 -1.31418e-06 -3.3159e-05
0.00236919 -2.04855e-05 1.30554e-07
-2.04855e-05 0.000681451 -6.0746e-08
1.30554e-07 -6.0746e-08 0.000699439
0.000916866 -1.27138e-05 7.69364e-08
-1.27138e-05 -3.43322e-05 -3.1814e-08
7.69364e-08 -3.1814e-08 -3.74292e-05
0.00121492 -1.91943e-05 1.84499e-06
-1.91943e-05 0.00015295 2.93035e-07
1.84499e-06 2.93035e-07 0.000130714
0.00120654 -1.78845e-05 1.58867e-06
-1.78845e-05 0.000140217 4.24916e-07
1.58867e-06 4.24916e-07 0.000125328
0.00100293 1.30923e-06 -1.61263e-08
1.30923e-06 5.93867e-06 -1.25059e-07
-1.61263e-08 -1.25059e-07 -4.14697e-05
0.000919149 -1.48703e-05 2.55903e-08
-1.48703e-05 -2.289e-05 -2.23309e-08
2.55903e-08 -2.23309e-08 -2.81248e-05
0.000988818 -2.40563e-06 2.11073e-09
-2.40563e-06 9.58305e-06 2.22376e-08
2.11073e-09 2.22376e-08 -3.09888e-05
0.000981562 -1.04581e-05 8.75601e-08
-1.04581e-05 8.62191e-06 2.57144e-10
8.75601e-08 2.57144e-10 -2.61607e-05
0.000995626 6.31571e-06 -3.36607e-08
6.31571e-06 1.70829e-06 -1.08057e-07
-3.36607e-08 -1.08057e-07 -4.97704e-05
0.000926641 -1.38107e-05 3.59636e-06
-1.38107e-05 -2.48676e-05 2.33074e-06
3.59636e-06 2.33074e-06 -2.89164e-05
0.000939413 -1.16752e-05 3.00432e-06
-1.16752e-05 -2.73165e-05 2.64364e-06
3.00432e-06 2.64364e-06 -2.97107e-05
0.00100675 -8.90042e-06 2.11947e-06
-8.90042e-06 7.4141e-06 1.44542e-06
2.11947e-06 1.44542e-06 -2.21946e-05
0.0009951 -3.51094e-07 2.1905e-06
-3.51094e-07 -3.37915e-06 4.38545e-07
2.1905e-06 4.38545e-07 -5.24931e-05
0.00100492 1.02105e-06 2.2833e-06
1.02105e-06 1.233e-05 9.92862e-07
2.2833e-06 9.92862e-07 -3.17375e-05
0.00112467 1.23872e-05 8.62848e-07
1.23872e-05 2.95836e-05 3.57264e-07
8.62848e-07 3.57264e-07 -2.70512e-05
0.00100772 -1.13154e-05 2.12316e-06
-1.13154e-05 1.64456e-05 1.39688e-06
2.12316e-06 1.39688e-06 -1.55292e-05
0.000983182 9.72035e-06 9.38027e-07
9.72035e-06 -1.33986e-05 4.00064e-07
9.38027e-07 4.00064e-07 -6.60132e-05
0.00106564 3.85387e-06 1.19983e-06
3.85387e-06 4.12606e-05 6.0884e-07
1.19983e-06 6.0884e-07 -9.32946e-06
0.00120138 1.79169e-05 1.23963e-07
1.79169e-05 9.25758e-05 -2.56792e-07
1.23963e-07 -2.56792e-07 3.5848e-05
0.00232321 -1.53134e-05 6.86374e-06
-1.53134e-05 0.000644197 3.54423e-06
6.86374e-06 3.54423e-06 0.000664797
0.00236333 -1.7037e-05 1.39051e-07
-1.7037e-05 0.000667874 -4.95436e-08
1.39051e-07 -4.95436e-08 0.000687617
0.0024179 -1.87882e-05 -7.5405e-06
-1.87882e-05 0.000698812 -3.33507e-06
-7.5405e-06 -3.33507e-06 0.000717601
0.000902745 1.23382e-05 3.11708e-06
1.23382e-05 -4.39664e-05 -2.58451e-06
3.11708e-06 -2.58451e-06 -4.73988e-05
0.00247643 2.04942e-05 7.89591e-06
2.04942e-05 0.000729406 -3.20222e-06
7.89591e-06 -3.20222e-06 0.000747347
0.00301716 -3.22755e-05 -1.10455e-05
-3.22755e-05 0.00106426 -1.80411e-06
-1.10455e-05 -1.80411e-06 0.00106594
0.00295964 -3.14315e-05 -1.19707e-05
-3.14315e-05 0.00107315 -1.21016e-06
-1.19707e-05 -1.21016e-06 0.00106922
0.000717205 -1.72593e-05 -4.66331e-06
-1.72593e-05 -6.63463e-05 -1.10508e-06
-4.66331e-06 -1.10508e-06 -9.81541e-05
0.000706505 -1.46226e-05 -4.76005e-06
-1.46226e-05 -5.03636e-05 -7.64955e-07
-4.76005e-06 -7.64955e-07 -8.91558e-05
0.00291435 -2.80044e-05 -1.29318e-05
-2.80044e-05 0.00107885 -4.83682e-07
-1.29318e-05 -4.83682e-07 0.00107076
0.00293051 7.94752e-07 1.62036e-07
7.94752e-07 0.00109042 -1.02015e-07
1.62036e-07 -1.02015e-07 0.00108173
0.000709756 -1.14587e-05 2.4502e-08
-1.14587e-05 -4.49894e-05 -1.08748e-07
2.4502e-08 -1.08748e-07 -8.57524e-05
0.00120095 -1.92973e-05 2.10079e-06
-1.92973e-05 0.000177513 1.42517e-07
2.10079e-06 1.42517e-07 0.00014513
0.00101315 -1.43161e-05 3.1058e-09
-1.43161e-05 1.87474e-05 -9.09211e-08
3.1058e-09 -9.09211e-08 -3.68071e-05
0.000805061 -1.79346e-05 5.58014e-08
-1.79346e-05 -3.87574e-05 -7.49826e-08
5.58014e-08 -7.49826e-08 -6.6627e-05
0.00100756 -4.5419e-06 -6.65609e-08
-4.5419e-06 7.69128e-06 -2.43682e-08
-6.65609e-08 -2.43682e-08 -4.41547e-05
0.000708561 1.07029e-06 4.81712e-06
1.07029e-06 -4.54527e-05 -2.48561e-07
4.81712e-06 -2.48561e-07 -8.65582e-05
0.00099802 -1.15697e-05 1.56474e-06
-1.15697e-05 1.45259e-05 -1.49061e-08
1.56474e-06 -1.49061e-08 -4.18044e-05
0.00100531 -1.0076e-05 1.76378e-06
-1.0076e-05 1.13566e-05 3.01074e-07
1.76378e-06 3.01074e-07 -4.23803e-05
0.00112598 -1.65564e-05 6.96333e-07
-1.65564e-05 3.73087e-05 -2.20785e-07
6.96333e-07 -2.20785e-07 -2.37334e-05
0.000999076 -2.91737e-06 2.03926e-06
-2.91737e-06 -3.31493e-07 3.45575e-07
2.03926e-06 3.45575e-07 -5.06982e-05
0.00116464 -3.07224e-06 6.76311e-07
-3.07224e-06 4.33121e-05 1.53953e-07
6.76311e-07 1.53953e-07 -1.5501e-05
0.00289812 2.712e-05 -1.332e-05
2.712e-05 0.00107169 2.57608e-07
-1.332e-05 2.57608e-07 0.00106357
0.00116739 2.26071e-05 -4.11927e-06
2.26071e-05 0.000202788 4.21255e-07
-4.11927e-06 4.21255e-07 0.000187048
0.000307016 1.16694e-05 -6.84863e-06
1.16694e-05 -0.000254183 9.02278e-07
-6.84863e-06 9.02278e-07 -0.000294293
0.00124266 1.64192e-05 -7.94495e-06
1.64192e-05 0.000182792 1.37387e-06
-7.94495e-06 1.37387e-06 0.000153605
0.00238851 2.46961e-05 -3.58284e-06
2.46961e-05 0.00070156 1.10516e-06
-3.58284e-06 1.10516e-06 0.000717349
0.00155236 1.84617e-05 -5.92249e-06
1.84617e-05 0.000297228 2.24484e-06
-5.92249e-06 2.24484e-06 0.000290376
0.00121965 1.91333e-05 -7.06175e-06
1.91333e-05 0.000161289 1.70593e-06
-7.06175e-06 1.70593e-06 0.000138812
0.00124046 2.66616e-06 -2.78444e-06
2.66616e-06 0.000117897 1.01334e-06
-2.78444e-06 1.01334e-06 6.8228e-05
0.00140053 3.91401e-06 -2.83797e-06
3.91401e-06 0.00020495 9.37755e-07
-2.83797e-06 9.37755e-07 0.000161551
0.00138458 5.27116e-06 -3.2788e-06
5.27116e-06 0.000202351 1.62227e-06
-3.2788e-06 1.62227e-06 0.000164014
0.00109267 -8.98628e-06 -7.38013e-07
-8.98628e-06 3.12104e-05 1.91696e-07
-7.38013e-07 1.91696e-07 -2.25152e-05
0.000708025 1.38705e-05 -3.22809e-08
1.38705e-05 -5.03983e-05 -6.13779e-08
-3.22809e-08 -6.13779e-08 -9.02557e-05
0.00122893 1.52193e-05 -2.03635e-06
1.52193e-05 0.000184092 1.98645e-07
-2.03635e-06 1.98645e-07 0.000152458
0.00105397 1.16165e-05 -3.75013e-07
1.16165e-05 2.50688e-05 6.66406e-08
-3.75013e-07 6.66406e-08 -3.02108e-05
0.00134864 1.52796e-06 -4.06138e-07
1.52796e-06 0.000165552 1.31371e-07
-4.06138e-07 1.31371e-07 0.000114812
0.00241859 2.2234e-05 -1.24342e-07
2.2234e-05 0.000708608 -6.32496e-08
-1.24342e-07 -6.32496e-08 0.000725572
0.00123302 1.67313e-05 1.81502e-07
1.67313e-05 0.000133235 -6.88715e-08
1.81502e-07 -6.88715e-08 0.000127297
0.00118735 9.26781e-06 3.94783e-08
9.26781e-06 0.000108382 7.51303e-09
3.94783e-08 7.51303e-09 7.24047e-05
0.00121908 3.99266e-06 -5.67639e-07
3.99266e-06 0.000114282 2.35852e-07
-5.67639e-07 2.35852e-07 6.74381e-05
0.0011934 -1.03815e-05 -3.75202e-07
-1.03815e-05 5.50859e-05 1.9527e-07
-3.75202e-07 1.9527e-07 -3.33835e-06
0.00102254 -8.29572e-06 -9.68429e-09
-8.29572e-06 6.80662e-06 -9.19176e-08
-9.68429e-09 -9.19176e-08 -4.66607e-05
0.0012195 -9.55345e-06 3.46875e-08
-9.55345e-06 8.39776e-05 8.58555e-09
3.46875e-08 8.58555e-09 2.99346e-05
0.00117009 -1.66487e-05 7.02494e-08
-1.66487e-05 4.94137e-05 -1.33588e-09
7.02494e-08 -1.33588e-09 -8.16595e-06
0.000908172 1.34454e-05 -5.84422e-08
1.34454e-05 -3.70873e-05 -3.56406e-08
-5.84422e-08 -3.56406e-08 -4.15127e-05
0.00100133 7.88193e-06 -7.64665e-08
7.88193e-06 2.40346e-06 -3.54133e-08
-7.64665e-08 -3.54133e-08 -2.81074e-05
0.000998155 1.25904e-05 1.83088e-06
1.25904e-05 6.60438e-06 -9.58418e-08
1.83088e-06 -9.58418e-08 -4.93822e-05
0.00125778 7.1982e-06 1.60384e-06
7.1982e-06 0.000120813 -2.73222e-07
1.60384e-06 -2.73222e-07 6.80593e-05
0.0013404 1.34532e-05 4.56083e-07
1.34532e-05 0.000123696 2.1871e-08
4.56083e-07 2.1871e-08 6.24167e-05
0.00112617 -6.65344e-06 9.53108e-07
-6.65344e-06 1.50114e-05 -5.28537e-07
9.53108e-07 -5.28537e-07 -4.56706e-05
0.00124855 -9.83418e-06 3.20602e-07
-9.83418e-06 9.22246e-05 -1.89375e-07
3.20602e-07 -1.89375e-07 3.68171e-05
0.00129209 -1.18889e-05 -2.65373e-07
-1.18889e-05 8.56726e-05 -1.64329e-07
-2.65373e-07 -1.64329e-07 2.44654e-05
0.000876042 1.45516e-05 3.64096e-06
1.45516e-05 -4.72824e-05 -2.25251e-06
3.64096e-06 -2.25251e-06 -5.28174e-05
0.00118605 -1.5335e-05 4.5802e-08
-1.5335e-05 4.91854e-05 2.71632e-08
4.5802e-08 2.71632e-08 -8.31198e-06
0.000958485 1.14318e-05 2.18165e-06
1.14318e-05 -5.19303e-06 -1.17074e-06
2.18165e-06 -1.17074e-06 -3.97936e-05
0.000914616 -5.62488e-06 1.14558e-06
-5.62488e-06 -3.70813e-05 -8.22004e-07
1.14558e-06 -8.22004e-07 -8.91627e-05
0.00132183 -1.90843e-05 1.5518e-07
-1.90843e-05 0.000132674 -3.43954e-08
1.5518e-07 -3.43954e-08 7.47794e-05
0.00121284 -1.84815e-05 -1.88671e-07
-1.84815e-05 6.09714e-05 5.2254e-07
-1.88671e-07 5.2254e-07 2.52926e-06
0.00098522 8.61888e-06 2.18877e-06
8.61888e-06 -2.45779e-06 -1.37237e-06
2.18877e-06 -1.37237e-06 -3.36673e-05
0.00100389 7.10626e-06 1.73762e-06
7.10626e-06 1.28098e-06 -1.61245e-06
1.73762e-06 -1.61245e-06 -2.84845e-05
0.00106496 -3.99916e-06 1.16388e-06
-3.99916e-06 2.99925e-05 -7.6218e-07
1.16388e-06 -7.6218e-07 -1.76401e-05
0.000740745 -1.74024e-05 -4.7199e-06
-1.74024e-05 -7.64043e-05 -1.58328e-06
-4.7199e-06 -1.58328e-06 -0.000100777
0.00242757 -2.0527e-05 -7.84898e-06
-2.0527e-05 0.000709044 -3.18438e-06
-7.84898e-06 -3.18438e-06 0.000726904
0.000901151 -1.26914e-05 -3.12685e-06
-1.26914e-05 -4.20754e-05 -2.58285e-06
-3.12685e-06 -2.58285e-06 -4.5078e-05
0.000765679 -1.65411e-05 -4.46248e-06
-1.65411e-05 -7.34681e-05 -1.89029e-06
-4.46248e-06 -1.89029e-06 -8.98629e-05
0.00100894 1.33473e-06 -2.24406e-06
1.33473e-06 9.77983e-06 -9.59523e-07
-2.24406e-06 -9.59523e-07 -3.77916e-05
0.000870322 -1.47874e-05 -3.65398e-06
-1.47874e-05 -4.62047e-05 -2.27217e-06
-3.65398e-06 -2.27217e-06 -5.1318e-05
0.000960862 -1.12595e-05 -2.18177e-06
-1.12595e-05 -7.31476e-07 -1.44634e-06
-2.18177e-06 -1.44634e-06 -3.55536e-05
0.000974427 -3.20872e-06 -2.3545e-06
-3.20872e-06 4.3999e-06 -1.04368e-06
-2.3545e-06 -1.04368e-06 -3.6347e-05
0.000945833 6.5567e-06 -1.1879e-06
6.5567e-06 -2.27212e-05 -5.09032e-07
-1.1879e-06 -5.09032e-07 -7.46078e-05
0.000907965 -1.37832e-05 6.30778e-08
-1.37832e-05 -3.3984e-05 -3.76764e-08
6.30778e-08 -3.76764e-08 -3.7935e-05
0.000925399 -1.16578e-05 7.75852e-08
-1.16578e-05 -3.42078e-05 -2.39483e-08
7.75852e-08 -2.39483e-08 -3.65152e-05
0.00100052 -8.78082e-06 6.93977e-08
-8.78082e-06 4.27842e-06 -3.1279e-08
6.93977e-08 -3.1279e-08 -2.52954e-05
0.00100917 -1.45308e-07 -6.70356e-08
-1.45308e-07 3.56519e-06 -1.1199e-07
-6.70356e-08 -1.1199e-07 -4.5684e-05
0.000994236 5.41319e-07 2.71549e-09
5.41319e-07 8.9813e-06 -3.2561e-08
2.71549e-09 -3.2561e-08 -3.52488e-05
0.00113746 1.27486e-05 5.59351e-08
1.27486e-05 3.53979e-05 1.77005e-08
5.59351e-08 1.77005e-08 -2.12923e-05
0.000987351 -1.10571e-05 -3.03272e-08
-1.10571e-05 6.85758e-06 4.09654e-08
-3.03272e-08 4.09654e-08 -2.50641e-05
0.00103808 1.06035e-05 -4.71669e-08
1.06035e-05 1.30115e-05 -6.29603e-08
-4.71669e-08 -6.29603e-08 -3.93726e-05
0.00106163 3.52718e-06 3.15273e-08
3.52718e-06 3.98053e-05 -1.20088e-07
3.15273e-08 -1.20088e-07 -1.09235e-05
0.00111581 1.7534e-05 -4.1991e-07
1.7534e-05 5.13141e-05 1.43056e-08
-4.1991e-07 1.43056e-08 -5.85437e-06
0.000945894 -1.06088e-05 2.69271e-06
-1.06088e-05 -2.79504e-05 2.75583e-06
2.69271e-06 2.75583e-06 -2.95721e-05
0.00100559 -9.84097e-06 2.26119e-06
-9.84097e-06 1.02023e-05 1.34366e-06
2.26119e-06 1.34366e-06 -2.01234e-05
0.00101071 -8.10169e-06 1.89928e-06
-8.10169e-06 6.70102e-06 1.56435e-06
1.89928e-06 1.56435e-06 -2.2239e-05
0.00106404 -2.49182e-06 1.26011e-06
-2.49182e-06 3.19595e-05 7.26381e-07
1.26011e-06 7.26381e-07 -1.45897e-05
0.00113527 8.0399e-06 8.90965e-07
8.0399e-06 2.5041e-05 5.66923e-08
8.90965e-07 5.66923e-08 -3.2061e-05
0.0011111 1.31437e-05 9.0463e-07
1.31437e-05 3.78672e-05 6.14307e-07
9.0463e-07 6.14307e-07 -1.6827e-05
0.00118529 1.60825e-05 3.41463e-07
1.60825e-05 4.01309e-05 2.99038e-07
3.41463e-07 2.99038e-07 -2.04317e-05
0.00108046 2.62197e-06 1.20097e-06
2.62197e-06 4.57442e-05 8.59286e-07
1.20097e-06 8.59286e-07 -2.90055e-06
0.00110229 1.83149e-05 1.03714e-07
1.83149e-05 3.07836e-05 1.65015e-07
1.03714e-07 1.65015e-07 -2.66837e-05
0.00111121 1.62243e-05 7.5127e-07
1.62243e-05 5.90896e-05 -7.81969e-08
7.5127e-07 -7.81969e-08 -1.68652e-07
0.00106725 2.00022e-05 2.1605e-07
2.00022e-05 2.12366e-05 -2.54788e-07
2.1605e-07 -2.54788e-07 -3.92486e-05
0.00102573 -4.93573e-06 1.06324e-06
-4.93573e-06 5.30344e-06 1.76582e-06
1.06324e-06 1.76582e-06 -2.08783e-05
0.000951487 -8.4292e-06 2.07533e-06
-8.4292e-06 -3.23794e-05 2.92065e-06
2.07533e-06 2.92065e-06 -3.2575e-05
0.00231974 -1.36039e-05 6.38431e-06
-1.36039e-05 0.00063818 3.64393e-06
6.38431e-06 3.64393e-06 0.000659504
0.00235376 -1.53244e-05 1.45844e-07
-1.53244e-05 0.000658702 -4.37288e-08
1.45844e-07 -4.37288e-08 0.00067923
0.00240243 -1.7061e-05 -7.14521e-06
-1.7061e-05 0.000686478 -3.46238e-06
-7.14521e-06 -3.46238e-06 0.000706122
0.000912325 1.13375e-05 2.79872e-06
1.13375e-05 -4.2719e-05 -2.68683e-06
2.79872e-06 -2.68683e-06 -4.53924e-05
0.00245962 1.87035e-05 7.58755e-06
1.87035e-05 0.000716345 -3.34887e-06
7.58755e-06 -3.34887e-06 0.000735178
0.0009175 1.23588e-05 -7.90263e-08
1.23588e-05 -3.66349e-05 -3.25571e-08
-7.90263e-08 -3.25571e-08 -4.01695e-05
0.00241689 2.04555e-05 -1.29269e-07
2.04555e-05 0.000701205 -5.89796e-08
-1.29269e-07 -5.89796e-08 0.000719276
0.000728489 -1.77073e-05 -4.71683e-06
-1.77073e-05 -7.30404e-05 -1.30998e-06
-4.71683e-06 -1.30998e-06 -0.000101135
0.000710063 -1.61288e-05 -4.65113e-06
-1.61288e-05 -5.77187e-05 -9.32615e-07
-4.65113e-06 -9.32615e-07 -9.32494e-05
0.00100749 -3.99479e-06 -1.89686e-06
-3.99479e-06 7.44382e-06 -3.67458e-07
-1.89686e-06 -3.67458e-07 -4.44196e-05
0.00102994 -1.44557e-05 -1.75353e-06
-1.44557e-05 2.60909e-05 -2.79489e-07
-1.75353e-06 -2.79489e-07 -2.95096e-05
0.000702564 -1.054e-05 -4.8496e-06
-1.054e-05 -4.76435e-05 -4.41379e-07
-4.8496e-06 -4.41379e-07 -8.84632e-05
0.00291828 2.3259e-06 -1.27766e-05
2.3259e-06 0.00108465 -6.04387e-08
-1.27766e-05 -6.04387e-08 0.00107593
0.000703158 2.62283e-06 -3.99439e-09
2.62283e-06 -4.78717e-05 -1.7616e-07
-3.99439e-09 -1.7616e-07 -8.89846e-05
0.00101382 -9.21022e-06 -6.0922e-08
-9.21022e-06 2.15125e-05 -2.89488e-08
-6.0922e-08 -2.89488e-08 -3.48261e-05
0.0010092 -9.82546e-06 -3.16818e-08
-9.82546e-06 1.2897e-05 -3.02805e-08
-3.16818e-08 -3.02805e-08 -4.08664e-05
0.00114429 -1.68759e-05 -2.23593e-08
-1.68759e-05 4.52818e-05 -8.09103e-08
-2.23593e-08 -8.09103e-08 -1.58109e-05
0.00100862 -2.44849e-06 -9.49041e-08
-2.44849e-06 4.13981e-06 -4.85209e-08
-9.49041e-08 -4.85209e-08 -4.63072e-05
0.00116655 -8.86229e-07 -2.01786e-08
-8.86229e-07 4.44403e-05 1.43906e-08
-2.01786e-08 1.43906e-08 -1.43611e-05
0.00101986 3.98785e-06 1.65603e-06
3.98785e-06 2.28286e-05 -5.28335e-08
1.65603e-06 -5.28335e-08 -3.35934e-05
0.00112199 -6.99793e-06 4.74796e-07
-6.99793e-06 4.251e-05 -9.60819e-08
4.74796e-07 -9.60819e-08 -1.85446e-05
0.00115252 -9.26547e-06 7.45952e-07
-9.26547e-06 4.25393e-05 1.22265e-08
7.45952e-07 1.22265e-08 -1.77304e-05
0.00122301 -1.7811e-05 3.47523e-07
-1.7811e-05 6.64104e-05 -4.69565e-07
3.47523e-07 -4.69565e-07 3.28283e-06
0.00115633 3.78382e-06 6.59032e-07
3.78382e-06 3.51857e-05 3.16854e-08
6.59032e-07 3.16854e-08 -2.23636e-05
0.00121813 -1.1173e-06 3.44757e-08
-1.1173e-06 5.2341e-05 2.32008e-07
3.44757e-08 2.32008e-07 -8.4191e-06
0.000705995 1.46223e-05 -4.74402e-06
1.46223e-05 -5.18456e-05 3.29592e-07
-4.74402e-06 3.29592e-07 -9.16521e-05
0.00123201 1.48384e-05 -8.3699e-06
1.48384e-05 0.000185278 1.05614e-06
-8.3699e-06 1.05614e-06 0.000153702
0.000879964 1.11781e-05 -2.33523e-06
1.11781e-05 -6.01641e-05 2.9214e-07
-2.33523e-06 2.9214e-07 -0.000116606
0.00144078 9.41713e-07 -2.37154e-06
9.41713e-07 0.000209905 6.12219e-07
-2.37154e-06 6.12219e-07 0.000159556
0.0023523 2.21619e-05 -7.98054e-06
2.21619e-05 0.000677471 2.95666e-06
-7.98054e-06 2.95666e-06 0.000694529
0.00156217 1.74174e-05 -5.52688e-06
1.74174e-05 0.000293878 2.03896e-06
-5.52688e-06 2.03896e-06 0.000289269
0.00139505 8.53015e-06 -2.43547e-06
8.53015e-06 0.000208085 1.04691e-06
-2.43547e-06 1.04691e-06 0.000173321
0.00122699 4.21872e-06 -2.57278e-06
4.21872e-06 0.000117865 8.73051e-07
-2.57278e-06 8.73051e-07 7.09981e-05
0.00105428 -9.7584e-06 -9.6958e-07
-9.7584e-06 -1.25156e-05 6.49275e-07
-9.6958e-07 6.49275e-07 -7.16315e-05
0.00130151 -9.5478e-06 -5.93429e-07
-9.5478e-06 0.000123335 1.55048e-07
-5.93429e-07 1.55048e-07 6.97166e-05
0.000940703 -7.077e-06 -8.84461e-07
-7.077e-06 -3.14796e-05 3.90523e-07
-8.84461e-07 3.90523e-07 -8.513e-05
0.00116177 -1.65013e-05 -1.83688e-07
-1.65013e-05 4.56909e-05 -5.61761e-08
-1.83688e-07 -5.61761e-08 -1.18157e-05
0.000925616 1.34747e-05 -3.56747e-06
1.34747e-05 -2.84632e-05 2.3292e-06
-3.56747e-06 2.3292e-06 -3.30008e-05
0.00100564 8.05284e-06 -2.08778e-06
8.05284e-06 4.70682e-06 1.42371e-06
-2.08778e-06 1.42371e-06 -2.58315e-05
0.000928606 1.44742e-05 7.06472e-08
1.44742e-05 -2.71059e-05 -3.96884e-09
7.06472e-08 -3.96884e-09 -8.36085e-05
0.00125851 5.59627e-06 -3.70977e-07
5.59627e-06 0.000120926 8.88205e-08
-3.70977e-07 8.88205e-08 6.81849e-05
0.00128062 1.38076e-05 -3.8412e-07
1.38076e-05 9.54466e-05 4.18077e-08
-3.8412e-07 4.18077e-08 3.40161e-05
0.00125214 -7.42361e-06 1.99303e-07
-7.42361e-06 7.64291e-05 -1.65401e-07
1.99303e-07 -1.65401e-07 1.65928e-05
0.000898754 1.45846e-05 -3.83874e-08
1.45846e-05 -3.62769e-05 -3.21081e-08
-3.83874e-08 -3.21081e-08 -4.19378e-05
0.000981081 1.07826e-05 -8.50498e-09
1.07826e-05 5.03414e-06 1.21215e-08
-8.50498e-09 1.21215e-08 -2.95366e-05
0.000986498 -5.56981e-06 3.07972e-07
-5.56981e-06 -2.14742e-06 -2.64333e-07
3.07972e-07 -2.64333e-07 -5.3696e-05
0.00128526 -1.00643e-05 -1.86425e-07
-1.00643e-05 0.000109271 7.81139e-08
-1.86425e-07 7.81139e-08 5.39881e-05
0.00121956 -1.08569e-05 -1.61973e-07
-1.08569e-05 5.02306e-05 2.35146e-07
-1.61973e-07 2.35146e-07 -1.10527e-05
0.0011887 -1.80567e-05 -2.66339e-07
-1.80567e-05 6.91487e-05 1.23721e-07
-2.66339e-07 1.23721e-07 1.07253e-05
0.00118517 -1.52326e-05 4.47444e-08
-1.52326e-05 4.87045e-05 3.24975e-08
4.47444e-08 3.24975e-08 -8.75505e-06
0.00117752 -1.80437e-05 1.73564e-07
-1.80437e-05 4.37511e-05 1.84045e-07
1.73564e-07 1.84045e-07 -1.46294e-05
0.000994779 8.85303e-06 -3.11759e-08
8.85303e-06 2.31937e-06 -3.06292e-08
-3.11759e-08 -3.06292e-08 -2.89245e-05
0.00100441 -3.39705e-06 -4.64629e-08
-3.39705e-06 -2.52853e-07 -4.57891e-08
-4.64629e-08 -4.57891e-08 -4.81756e-05
0.00100636 7.21379e-06 -7.58559e-08
7.21379e-06 2.71813e-06 -1.64073e-08
-7.58559e-08 -1.64073e-08 -2.70897e-05
0.00132808 1.86469e-05 4.65551e-07
1.86469e-05 0.000129818 1.48015e-07
4.65551e-07 1.48015e-07 6.85025e-05
0.00128159 5.19463e-06 8.42754e-07
5.19463e-06 8.86882e-05 -8.48632e-08
8.42754e-07 -8.48632e-08 2.77211e-05
0.00125462 1.56442e-05 4.17657e-07
1.56442e-05 6.58864e-05 5.14221e-08
4.17657e-07 5.14221e-08 1.09454e-06
0.00127957 -3.80427e-06 4.19599e-08
-3.80427e-06 7.01653e-05 -5.61268e-07
4.19599e-08 -5.61268e-07 6.64448e-06
0.00115449 -1.37993e-05 -6.47566e-08
-1.37993e-05 2.91235e-05 -2.36024e-07
-6.47566e-08 -2.36024e-07 -2.93512e-05
0.00128003 -9.86495e-06 -6.76166e-07
-9.86495e-06 7.00299e-05 -8.01228e-08
-6.76166e-07 -8.01228e-08 9.55967e-06
0.000968988 1.00244e-05 2.23535e-06
1.00244e-05 -5.48561e-06 -1.23705e-06
2.23535e-06 -1.23705e-06 -3.79284e-05
0.0012031 -1.60956e-05 -5.24397e-07
-1.60956e-05 4.89585e-05 1.48456e-07
-5.24397e-07 1.48456e-07 -8.84191e-06
0.00105284 -3.9416e-06 9.82288e-07
-3.9416e-06 3.04607e-05 -4.79221e-07
9.82288e-07 -4.79221e-07 -1.89287e-05
0.0010083 -1.69954e-05 6.51519e-07
-1.69954e-05 -4.61786e-06 -6.55624e-07
6.51519e-07 -6.55624e-07 -6.3048e-05
0.00124439 -2.04953e-05 2.36517e-07
-2.04953e-05 8.7433e-05 4.01292e-07
2.36517e-07 4.01292e-07 2.61996e-05
0.00131577 -1.95034e-05 -8.35889e-07
-1.95034e-05 0.000105377 1.0492e-06
-8.35889e-07 1.0492e-06 4.89314e-05
0.00100969 6.36617e-06 1.5423e-06
6.36617e-06 1.98174e-06 -1.60379e-06
1.5423e-06 -1.60379e-06 -2.70112e-05
0.00106487 -3.53719e-06 1.25576e-06
-3.53719e-06 3.08981e-05 -6.07915e-07
1.25576e-06 -6.07915e-07 -1.66671e-05
0.000927132 -3.01965e-06 1.36996e-06
-3.01965e-06 -3.73539e-05 -1.24452e-06
1.36996e-06 -1.24452e-06 -8.59781e-05
0.00124297 -1.56467e-05 3.15517e-07
-1.56467e-05 0.000113574 2.06067e-07
3.15517e-07 2.06067e-07 5.82735e-05
0.00102336 1.66854e-07 -2.21262e-06
1.66854e-07 1.05506e-05 -6.34142e-07
-2.21262e-06 -6.34142e-07 -3.88337e-05
0.000911282 -1.16401e-05 -2.81702e-06
-1.16401e-05 -4.11527e-05 -2.70729e-06
-2.81702e-06 -2.70729e-06 -4.33722e-05
0.000888947 -1.3754e-05 -3.42234e-06
-1.3754e-05 -4.32644e-05 -2.42436e-06
-3.42234e-06 -2.42436e-06 -4.71165e-05
0.000994475 -8.66831e-06 -2.00277e-06
-8.66831e-06 1.23273e-06 -1.51288e-06
-2.00277e-06 -1.51288e-06 -2.83062e-05
0.000984188 1.03925e-07 -2.22138e-06
1.03925e-07 5.92788e-06 -1.0699e-06
-2.22138e-06 -1.0699e-06 -3.84646e-05
0.00114944 1.3052e-05 -8.3862e-07
1.3052e-05 4.08412e-05 -3.54764e-07
-8.3862e-07 -3.54764e-07 -1.59038e-05
0.000966088 -1.07878e-05 -2.27692e-06
-1.07878e-05 -3.15091e-06 -1.34659e-06
-2.27692e-06 -1.34659e-06 -3.50185e-05
0.00105795 3.28865e-06 -1.13157e-06
3.28865e-06 3.84993e-05 -8.50538e-07
-1.13157e-06 -8.50538e-07 -1.23655e-05
0.00109602 1.14718e-05 -9.1938e-07
1.14718e-05 4.08064e-05 -4.58452e-07
-9.1938e-07 -4.58452e-07 -1.13442e-05
0.0010295 1.71424e-05 -1.1448e-06
1.71424e-05 9.71385e-06 -1.36946e-07
-1.1448e-06 -1.36946e-07 -4.78965e-05
0.000933723 -1.05908e-05 7.29854e-08
-1.05908e-05 -3.39108e-05 -1.90633e-08
7.29854e-08 -1.90633e-08 -3.54604e-05
0.000995095 -9.67308e-06 4.12473e-08
-9.67308e-06 5.08522e-06 -2.38433e-08
4.12473e-08 -2.38433e-08 -2.51991e-05
0.00100578 -8.0229e-06 6.13073e-08
-8.0229e-06 4.24583e-06 -1.77017e-08
6.13073e-08 -1.77017e-08 -2.46652e-05
0.00105993 -2.75567e-06 7.40969e-08
-2.75567e-06 3.02206e-05 -3.40736e-08
7.40969e-08 -3.40736e-08 -1.63793e-05
0.00116062 8.44413e-06 1.64617e-07
8.44413e-06 3.68328e-05 2.76216e-08
1.64617e-07 2.76216e-08 -2.03538e-05
0.00110621 1.34728e-05 2.39341e-08
1.34728e-05 3.57152e-05 7.29328e-09
2.39341e-08 7.29328e-09 -1.89898e-05
0.00119702 1.61487e-05 8.29557e-10
1.61487e-05 4.5333e-05 1.66978e-07
8.29557e-10 1.66978e-07 -1.52665e-05
0.00106468 1.47961e-06 -5.61412e-08
1.47961e-06 3.91986e-05 2.8227e-08
-5.61412e-08 2.8227e-08 -9.51645e-06
0.00119056 1.89236e-05 -2.04376e-07
1.89236e-05 7.33491e-05 -3.33125e-07
-2.04376e-07 -3.33125e-07 1.62677e-05
0.00111838 1.67187e-05 1.10547e-07
1.67187e-05 6.21961e-05 -2.08441e-07
1.10547e-07 -2.08441e-07 2.754e-06
0.00107743 1.99022e-05 -7.18166e-07
1.99022e-05 2.7434e-05 -1.12595e-07
-7.18166e-07 -1.12595e-07 -3.21801e-05
0.000953324 -9.52097e-06 2.39166e-06
-9.52097e-06 -2.80479e-05 2.84466e-06
2.39166e-06 2.84466e-06 -2.89396e-05
0.00101363 -7.20915e-06 1.69756e-06
-7.20915e-06 5.74432e-06 1.63752e-06
1.69756e-06 1.63752e-06 -2.24974e-05
0.00107455 4.38418e-07 1.31856e-06
4.38418e-07 3.82095e-05 7.26552e-07
1.31856e-06 7.26552e-07 -8.78312e-06
0.00106295 -3.85494e-06 1.11824e-06
-3.85494e-06 3.06298e-05 8.87844e-07
1.11824e-06 8.87844e-07 -1.55797e-05
0.00108982 6.67952e-06 8.10926e-07
6.67952e-06 4.39041e-05 1.63729e-07
8.10926e-07 1.63729e-07 -1.28702e-05
0.00119493 7.94515e-06 3.51753e-07
7.94515e-06 3.53041e-05 -2.7148e-07
3.51753e-07 -2.7148e-07 -2.41294e-05
0.00116444 1.89548e-05 2.75866e-07
1.89548e-05 4.75907e-05 6.17263e-07
2.75866e-07 6.17263e-07 -1.19926e-05
0.00124639 1.60888e-05 -5.37769e-07
1.60888e-05 6.05998e-05 1.19224e-07
-5.37769e-07 1.19224e-07 -8.72905e-07
0.00112664 1.35612e-05 1.01511e-06
1.35612e-05 6.74275e-05 9.80658e-07
1.01511e-06 9.80658e-07 8.73952e-06
0.00115348 2.14947e-05 4.85822e-07
2.14947e-05 5.03423e-05 1.94437e-07
4.85822e-07 1.94437e-07 -9.87325e-06
0.000943206 1.93717e-05 8.29639e-07
1.93717e-05 -2.73614e-05 -3.4665e-07
8.29639e-07 -3.4665e-07 -9.38177e-05
0.00102264 -5.61336e-06 1.30009e-06
-5.61336e-06 5.99686e-06 1.7476e-06
1.30009e-06 1.7476e-06 -2.09289e-05
0.00107032 9.67965e-08 5.98803e-07
9.67965e-08 2.9787e-05 1.06273e-06
5.98803e-07 1.06273e-06 -1.37814e-05
0.00102835 -4.13801e-06 8.61672e-07
-4.13801e-06 4.25452e-06 1.77133e-06
8.61672e-07 1.77133e-06 -2.13087e-05
0.00102349 -4.91367e-06 5.30531e-08
-4.91367e-06 4.20833e-06 1.18151e-09
5.30531e-08 1.18151e-09 -2.19495e-05
0.00152295 -8.14458e-06 1.5468e-06
-8.14458e-06 0.000242788 1.83132e-06
1.5468e-06 1.83132e-06 0.000246119
0.00123954 -8.84832e-06 2.49773e-07
-8.84832e-06 0.000108201 8.04064e-09
2.49773e-07 8.04064e-09 0.000109409
0.00118694 -1.01662e-05 6.19759e-06
-1.01662e-05 8.13889e-05 6.02644e-06
6.19759e-06 6.02644e-06 9.7743e-05
0.00234327 -1.36049e-05 1.63837e-07
-1.36049e-05 0.000649271 -3.86649e-08
1.63837e-07 -3.86649e-08 0.000670552
0.00238479 -1.53373e-05 -6.68471e-06
-1.53373e-05 0.00067344 -3.57278e-06
-6.68471e-06 -3.57278e-06 0.000693894
0.000922484 1.03431e-05 2.50577e-06
1.03431e-05 -4.12233e-05 -2.76526e-06
2.50577e-06 -2.76526e-06 -4.32144e-05
0.00243728 1.6944e-05 7.19186e-06
1.6944e-05 0.000701179 -3.46991e-06
7.19186e-06 -3.46991e-06 0.00072083
0.000926637 1.13505e-05 -7.79621e-08
1.13505e-05 -3.56954e-05 -2.28469e-08
-7.79621e-08 -2.28469e-08 -3.846e-05
0.00241249 1.86749e-05 -1.35311e-07
1.86749e-05 0.000693868 -5.43175e-08
-1.35311e-07 -5.43175e-08 0.000712826
0.000932312 1.23808e-05 -3.3055e-06
1.23808e-05 -2.92811e-05 2.49764e-06
-3.3055e-06 2.49764e-06 -3.29173e-05
0.00235841 2.04227e-05 -7.82291e-06
2.04227e-05 0.000673508 3.13196e-06
-7.82291e-06 3.13196e-06 0.000691706
0.00101932 -2.08528e-06 -2.07204e-06
-2.08528e-06 9.12115e-06 -4.06543e-07
-2.07204e-06 -4.06543e-07 -4.14033e-05
0.00101277 -8.78802e-06 -1.80458e-06
-8.78802e-06 1.42806e-05 -3.68383e-07
-1.80458e-06 -3.68383e-07 -3.94957e-05
0.00116664 -2.04283e-06 -6.47677e-07
-2.04283e-06 4.48144e-05 -1.15478e-07
-6.47677e-07 -1.15478e-07 -1.40189e-05
0.00116194 -1.70313e-05 -7.42145e-07
-1.70313e-05 5.29477e-05 5.70327e-08
-7.42145e-07 5.70327e-08 -8.19114e-06
0.00102783 -7.66816e-06 -1.67404e-06
-7.66816e-06 2.77084e-05 -5.39861e-08
-1.67404e-06 -5.39861e-08 -2.86549e-05
0.000694175 3.20574e-06 -4.75202e-06
3.20574e-06 -5.19095e-05 -9.90902e-08
-4.75202e-06 -9.90902e-08 -9.30291e-05
0.00101307 4.22143e-06 4.55282e-08
4.22143e-06 1.98974e-05 -2.74092e-08
4.55282e-08 -2.74092e-08 -3.64775e-05
0.00113591 -6.9773e-06 -6.51793e-08
-6.9773e-06 4.87043e-05 5.68603e-08
-6.51793e-08 5.68603e-08 -1.23778e-05
0.00115637 -1.19526e-05 9.69621e-09
-1.19526e-05 4.43344e-05 -7.94063e-08
9.69621e-09 -7.94063e-08 -1.6004e-05
0.00122871 -1.78681e-05 -3.90007e-08
-1.78681e-05 6.94535e-05 -6.9339e-08
-3.90007e-08 -6.9339e-08 6.41023e-06
0.0011673 3.83601e-06 -3.90491e-08
3.83601e-06 4.04498e-05 2.5399e-08
-3.90491e-08 2.5399e-08 -1.71406e-05
0.00122333 -2.08844e-06 1.24502e-08
-2.08844e-06 5.51648e-05 6.28049e-08
1.24502e-08 6.28049e-08 -5.56593e-06
0.00115136 1.01628e-05 7.30778e-07
1.01628e-05 5.52919e-05 2.6999e-07
7.30778e-07 2.6999e-07 -6.26415e-06
0.00117838 -9.05719e-06 2.1149e-07
-9.05719e-06 5.94618e-05 -3.21773e-07
2.1149e-07 -3.21773e-07 -2.94374e-06
0.00120548 -9.16898e-06 2.845e-07
-9.16898e-06 5.06228e-05 -1.73121e-07
2.845e-07 -1.73121e-07 -1.19616e-05
0.00126129 -1.81798e-05 7.42657e-07
-1.81798e-05 7.67676e-05 -3.71952e-07
7.42657e-07 -3.71952e-07 1.29342e-05
0.00121831 1.31213e-06 -7.5031e-08
1.31213e-06 4.7879e-05 -4.44129e-08
-7.5031e-08 -4.44129e-08 -1.12164e-05
0.0013212 -8.01208e-06 -5.09524e-07
-8.01208e-06 9.09332e-05 5.17033e-07
-5.09524e-07 5.17033e-07 3.20047e-05
0.000856429 1.42177e-05 -1.72794e-06
1.42177e-05 -6.21086e-05 1.09942e-08
-1.72794e-06 1.09942e-08 -0.000119082
0.00125898 3.74393e-06 -2.36891e-06
3.74393e-06 0.000120916 4.67576e-07
-2.36891e-06 4.67576e-07 6.81877e-05
0.00122242 1.78e-05 -1.3173e-06
1.78e-05 6.80089e-05 1.13645e-08
-1.3173e-06 1.13645e-08 6.35151e-06
0.00137737 -8.17851e-06 -5.95644e-07
-8.17851e-06 0.000137513 1.28657e-07
-5.95644e-07 1.28657e-07 7.85213e-05
0.000921082 1.46141e-05 -3.77221e-06
1.46141e-05 -2.54512e-05 2.1671e-06
-3.77221e-06 2.1671e-06 -3.12375e-05
0.00100293 1.00399e-05 -2.13182e-06
1.00399e-05 1.49191e-05 1.12531e-06
-2.13182e-06 1.12531e-06 -1.96235e-05
0.00106109 -5.73719e-06 -6.53224e-07
-5.73719e-06 3.40097e-05 3.14872e-07
-6.53224e-07 3.14872e-07 -1.70018e-05
0.00132261 -1.0271e-05 -6.8208e-07
-1.0271e-05 0.000126622 2.92298e-07
-6.8208e-07 2.92298e-07 7.14618e-05
0.00114802 -9.80889e-06 2.83006e-09
-9.80889e-06 1.52584e-05 6.32918e-07
2.83006e-09 6.32918e-07 -4.61036e-05
0.00118382 -1.5128e-05 1.9045e-08
-1.5128e-05 4.80048e-05 4.71667e-08
1.9045e-08 4.71667e-08 -9.41737e-06
0.00105682 -1.70469e-05 -6.41333e-07
-1.70469e-05 6.19067e-06 2.80108e-07
-6.41333e-07 2.80108e-07 -5.27602e-05
0.00114337 -1.75979e-05 3.86895e-07
-1.75979e-05 2.70743e-05 -3.21418e-07
3.86895e-07 -3.21418e-07 -3.12447e-05
0.00100446 9.09003e-06 -2.19149e-06
9.09003e-06 7.15506e-06 1.28298e-06
-2.19149e-06 1.28298e-06 -2.41234e-05
0.00094521 -2.80416e-06 -1.24095e-06
-2.80416e-06 -2.98717e-05 6.49185e-07
-1.24095e-06 6.49185e-07 -7.8085e-05
0.00100929 7.3259e-06 -1.85577e-06
7.3259e-06 4.37495e-06 1.55487e-06
-1.85577e-06 1.55487e-06 -2.5476e-05
0.00121923 1.78091e-05 -3.53126e-07
1.78091e-05 7.8293e-05 -9.20975e-08
-3.53126e-07 -9.20975e-08 1.66212e-05
0.00128077 1.19123e-06 -1.70351e-07
1.19123e-06 8.83079e-05 1.8774e-08
-1.70351e-07 1.8774e-08 2.73636e-05
0.00122127 1.76165e-05 -2.46328e-07
1.76165e-05 4.84147e-05 -3.19019e-08
-2.46328e-07 -3.19019e-08 -1.67892e-05
0.00130569 -2.65177e-06 -2.56637e-08
-2.65177e-06 8.27189e-05 -1.93383e-07
-2.56637e-08 -1.93383e-07 1.93847e-05
0.000986767 1.02769e-05 -3.81759e-09
1.02769e-05 2.9374e-06 -1.13531e-08
-3.81759e-09 -1.13531e-08 -2.95314e-05
0.00106377 -4.10928e-06 5.91149e-08
-4.10928e-06 3.48061e-05 -4.55449e-09
5.91149e-08 -4.55449e-09 -1.44951e-05
0.00107919 -1.7294e-05 1.5767e-07
-1.7294e-05 3.03976e-05 -2.30876e-07
1.5767e-07 -2.30876e-07 -2.75828e-05
0.00123296 -1.41679e-05 3.42579e-08
-1.41679e-05 6.71366e-05 -8.13534e-08
3.42579e-08 -8.13534e-08 8.80764e-06
0.00123303 -9.88634e-06 7.55146e-08
-9.88634e-06 4.71967e-05 2.91781e-07
7.55146e-08 2.91781e-07 -1.28963e-05
0.00117771 -2.01689e-05 1.70515e-08
-2.01689e-05 5.63294e-05 1.17872e-07
1.70515e-08 1.17872e-07 -5.48091e-06
0.00120763 -1.57335e-05 2.81744e-08
-1.57335e-05 5.06667e-05 5.34403e-08
2.81744e-08 5.34403e-08 -7.05575e-06
0.00125944 -1.88976e-05 2.79161e-07
-1.88976e-05 7.78981e-05 2.78741e-07
2.79161e-07 2.78741e-07 2.20506e-05
0.00106809 -3.74366e-06 1.89676e-08
-3.74366e-06 3.17012e-05 -2.77886e-08
1.89676e-08 -2.77886e-08 -1.57348e-05
0.00114392 -1.49459e-05 -3.01224e-07
-1.49459e-05 6.49616e-05 2.35962e-07
-3.01224e-07 2.35962e-07 9.13398e-06
0.0010105 6.43413e-06 -4.49358e-08
6.43413e-06 2.55168e-06 -1.66163e-09
-4.49358e-08 -1.66163e-09 -2.64864e-05
0.000930954 -2.7376e-06 2.91931e-07
-2.7376e-06 -3.59265e-05 -3.39659e-07
2.91931e-07 -3.39659e-07 -8.44878e-05
0.00124016 1.86108e-05 6.31878e-07
1.86108e-05 7.23371e-05 1.92554e-07
6.31878e-07 1.92554e-07 7.28807e-06
0.00139096 6.37644e-06 2.20493e-07
6.37644e-06 0.000117312 -3.35436e-08
2.20493e-07 -3.35436e-08 5.26258e-05
0.00115017 1.74543e-05 1.22931e-07
1.74543e-05 6.64647e-06 -4.39874e-09
1.22931e-07 -4.39874e-09 -6.0597e-05
0.00123465 1.69329e-07 -5.44488e-07
1.69329e-07 3.77905e-05 -8.33064e-07
-5.44488e-07 -8.33064e-07 -2.49548e-05
0.00121535 -1.36571e-05 -7.75848e-07
-1.36571e-05 4.90564e-05 1.34442e-08
-7.75848e-07 1.34442e-08 -8.78361e-06
0.00128721 -8.34482e-06 -5.04134e-07
-8.34482e-06 6.52528e-05 -1.52069e-07
-5.04134e-07 -1.52069e-07 7.57048e-06
0.00105943 -3.00253e-06 1.13552e-06
-3.00253e-06 3.1196e-05 -5.01761e-07
1.13552e-06 -5.01761e-07 -1.68747e-05
0.00119571 -1.52313e-05 -1.33308e-06
-1.52313e-05 3.94873e-05 3.67144e-07
-1.33308e-06 3.67144e-07 -1.47526e-05
0.00099419 -1.62407e-05 5.27624e-07
-1.62407e-05 -6.53595e-06 -4.80759e-07
5.27624e-07 -4.80759e-07 -6.3035e-05
0.00116065 -2.04026e-05 4.42349e-07
-2.04026e-05 6.46269e-05 -3.48287e-07
4.42349e-07 -3.48287e-07 1.31396e-06
0.00122089 -2.18158e-05 2.34781e-07
-2.18158e-05 7.22123e-05 1.29424e-06
2.34781e-07 1.29424e-06 9.36977e-06
0.00130847 -1.92385e-05 -5.70848e-07
-1.92385e-05 9.51633e-05 7.05089e-07
-5.70848e-07 7.05089e-07 4.08393e-05
0.00101468 6.13354e-06 1.25594e-06
6.13354e-06 3.33606e-06 -1.64819e-06
1.25594e-06 -1.64819e-06 -2.51624e-05
0.000909324 -3.38857e-06 1.23734e-06
-3.38857e-06 -4.66007e-05 -1.41927e-06
1.23734e-06 -1.41927e-06 -9.48994e-05
0.00111139 -1.5202e-05 6.05786e-07
-1.5202e-05 4.75312e-05 2.69899e-08
6.05786e-07 2.69899e-08 -7.38862e-06
0.00115977 -1.42726e-05 6.49706e-07
-1.42726e-05 7.61195e-05 -6.92636e-08
6.49706e-07 -6.92636e-08 1.86016e-05
0.0012163 -1.88211e-05 2.35936e-07
-1.88211e-05 9.61718e-05 2.98471e-07
2.35936e-07 2.98471e-07 3.66639e-05
0.00092166 -1.05717e-05 -2.52241e-06
-1.05717e-05 -3.98234e-05 -2.80903e-06
-2.52241e-06 -2.80903e-06 -4.13005e-05
0.00118465 8.84881e-06 -6.06862e-07
8.84881e-06 4.80272e-05 -2.87422e-08
-6.06862e-07 -2.87422e-08 -9.24591e-06
0.00100057 -7.94298e-06 -1.79248e-06
-7.94298e-06 1.65349e-06 -1.60818e-06
-1.79248e-06 -1.60818e-06 -2.72273e-05
0.000984394 -9.50851e-06 -2.20607e-06
-9.50851e-06 -1.32053e-07 -1.39181e-06
-2.20607e-06 -1.39181e-06 -3.03747e-05
0.00105591 -3.01386e-06 -1.16335e-06
-3.01386e-06 2.85234e-05 -8.55484e-07
-1.16335e-06 -8.55484e-07 -1.8127e-05
0.0011011 1.38419e-05 -8.71099e-07
1.38419e-05 3.34642e-05 -6.01482e-07
-8.71099e-07 -6.01482e-07 -2.12527e-05
0.001209 1.61992e-05 -2.56581e-07
1.61992e-05 5.0653e-05 6.13415e-08
-2.56581e-07 6.13415e-08 -9.98356e-06
0.00104971 3.1136e-07 -1.19093e-06
3.1136e-07 3.3056e-05 -7.65843e-07
-1.19093e-06 -7.65843e-07 -1.57316e-05
0.00112709 1.71833e-05 -8.40563e-07
1.71833e-05 6.60343e-05 -5.69457e-07
-8.40563e-07 -5.69457e-07 6.40678e-06
0.00127801 1.95551e-05 -6.92949e-07
1.95551e-05 0.000115522 -6.68139e-07
-6.92949e-07 -6.68139e-07 5.88277e-05
0.00108944 1.98158e-05 -1.6268e-06
1.98158e-05 3.44549e-05 3.7701e-07
-1.6268e-06 3.7701e-07 -2.42854e-05
0.000942454 -9.50517e-06 7.86076e-08
-9.50517e-06 -3.33045e-05 -1.73493e-08
7.86076e-08 -1.73493e-08 -3.41407e-05
0.00101038 -7.13662e-06 4.16149e-08
-7.13662e-06 4.07465e-06 -1.06116e-08
4.16149e-08 -1.06116e-08 -2.41455e-05
0.00106406 -4.35648e-07 4.48565e-09
-4.35648e-07 3.38663e-05 6.05356e-09
4.48565e-09 6.05356e-09 -1.31823e-05
0.00106047 -3.93999e-06 3.42185e-08
-3.93999e-06 2.95155e-05 -8.66988e-09
3.42185e-08 -8.66988e-09 -1.67239e-05
0.00105456 6.01275e-06 7.81782e-08
6.01275e-06 2.69274e-05 -9.4911e-08
7.81782e-08 -9.4911e-08 -3.00381e-05
0.00121589 8.39244e-06 2.50286e-07
8.39244e-06 4.48493e-05 -6.22709e-09
2.50286e-07 -6.22709e-09 -1.47107e-05
0.00116451 1.91416e-05 2.42804e-08
1.91416e-05 4.78739e-05 1.04135e-07
2.42804e-08 1.04135e-07 -1.17426e-05
0.00122486 1.68402e-05 1.98749e-07
1.68402e-05 5.08368e-05 2.91015e-07
1.98749e-07 2.91015e-07 -1.09229e-05
0.00110764 1.41712e-05 2.85495e-07
1.41712e-05 5.8861e-05 3.17584e-07
2.85495e-07 3.17584e-07 1.96686e-07
0.00120598 2.15957e-05 1.74602e-07
2.15957e-05 7.54625e-05 -2.67159e-07
1.74602e-07 -2.67159e-07 1.54883e-05
0.00104096 2.01001e-05 -4.4145e-07
2.01001e-05 1.77416e-05 -3.12404e-07
-4.4145e-07 -3.12404e-07 -4.81271e-05
0.00101765 -6.31607e-06 1.5307e-06
-6.31607e-06 5.54435e-06 1.69538e-06
1.5307e-06 1.69538e-06 -2.20576e-05
0.00106448 -3.09932e-06 1.04197e-06
-3.09932e-06 2.97157e-05 9.66825e-07
1.04197e-06 9.66825e-07 -1.60252e-05
0.00106521 1.0622e-05 6.42829e-07
1.0622e-05 3.26033e-05 2.24392e-07
6.42829e-07 2.24392e-07 -2.46955e-05
0.00109926 3.14141e-06 6.35169e-07
3.14141e-06 4.85066e-05 3.36514e-07
6.35169e-07 3.36514e-07 -8.53092e-06
0.00117962 1.46754e-05 2.44155e-07
1.46754e-05 8.81075e-05 -2.85973e-07
2.44155e-07 -2.85973e-07 2.63211e-05
0.00122386 5.54638e-06 -6.21057e-07
5.54638e-06 3.63829e-05 -9.50371e-07
-6.21057e-07 -9.50371e-07 -2.16431e-05
0.00119076 2.20196e-05 1.21782e-07
2.20196e-05 5.38046e-05 4.66919e-07
1.21782e-07 4.66919e-07 -8.01808e-06
0.00109576 1.97267e-05 -8.16019e-07
1.97267e-05 -1.02127e-05 -5.53228e-07
-8.16019e-07 -5.53228e-07 -6.75939e-05
0.00110529 1.97246e-05 4.35356e-07
1.97246e-05 5.88265e-05 1.05362e-06
4.35356e-07 1.05362e-06 -7.87642e-06
0.00120099 2.33297e-05 1.21295e-06
2.33297e-05 7.85036e-05 -1.26092e-07
1.21295e-06 -1.26092e-07 1.00883e-05
0.00101901 -5.58082e-06 6.81925e-08
-5.58082e-06 4.20429e-06 -4.69058e-09
6.81925e-08 -4.69058e-09 -2.26888e-05
0.000912669 -1.52833e-06 9.0546e-07
-1.52833e-06 -4.61251e-05 1.52872e-06
9.0546e-07 1.52872e-06 -9.18832e-05
0.000992773 -4.55971e-07 -4.16078e-09
-4.55971e-07 -7.87191e-06 2.18634e-08
-4.16078e-09 2.18634e-08 -5.20584e-05
0.00125428 6.51002e-06 2.59126e-07
6.51002e-06 0.000124336 2.07758e-07
2.59126e-07 2.07758e-07 6.99376e-05
0.00107123 -2.2675e-07 4.93696e-07
-2.2675e-07 2.96144e-05 1.04837e-06
4.93696e-07 1.04837e-06 -1.34111e-05
0.00103209 -3.28367e-06 6.59137e-07
-3.28367e-06 3.99557e-06 1.7864e-06
6.59137e-07 1.7864e-06 -2.11932e-05
0.00102879 -4.13421e-06 5.27232e-08
-4.13421e-06 4.52088e-06 -1.85356e-10
5.27232e-08 -1.85356e-10 -2.10433e-05
0.0015233 -6.76755e-06 1.26457e-06
-6.76755e-06 0.000239588 1.85372e-06
1.26457e-06 1.85372e-06 0.00024355
0.00102157 -4.89236e-06 -9.54253e-07
-4.89236e-06 3.27794e-06 -1.75246e-06
-9.54253e-07 -1.75246e-06 -2.28583e-05
0.00154099 -7.91619e-06 -9.84078e-07
-7.91619e-06 0.000251684 -1.17008e-06
-9.84078e-07 -1.17008e-06 0.000254939
0.00121127 -8.68357e-06 5.43486e-06
-8.68357e-06 8.84834e-05 6.09529e-06
5.43486e-06 6.09529e-06 0.000105566
0.00152701 -8.99144e-06 -3.23938e-06
-8.99144e-06 0.000248493 -2.91932e-06
-3.23938e-06 -2.91932e-06 0.000251117
0.00173867 -1.10339e-05 3.62665e-06
-1.10339e-05 0.000350169 2.26626e-06
3.62665e-06 2.26626e-06 0.000369481
0.00236694 -1.36064e-05 -6.14344e-06
-1.36064e-05 0.000660438 -3.66614e-06
-6.14344e-06 -3.66614e-06 0.000681675
0.000931848 9.45583e-06 2.10121e-06
9.45583e-06 -4.00279e-05 -2.85555e-06
2.10121e-06 -2.85555e-06 -4.12614e-05
0.000935464 1.03532e-05 -7.15262e-08
1.03532e-05 -3.49602e-05 -1.79125e-08
-7.15262e-08 -1.79125e-08 -3.70141e-05
0.00241454 1.51935e-05 6.73125e-06
1.51935e-05 0.000685837 -3.57689e-06
6.73125e-06 -3.57689e-06 0.000706283
0.00240125 1.69243e-05 -1.38299e-07
1.69243e-05 0.000683975 -4.80324e-08
-1.38299e-07 -4.80324e-08 0.000703724
0.000940833 1.13642e-05 -2.99373e-06
1.13642e-05 -2.87301e-05 2.63718e-06
-2.99373e-06 2.63718e-06 -3.15851e-05
0.00236541 1.86572e-05 -7.61804e-06
1.86572e-05 0.000671423 3.29731e-06
-7.61804e-06 3.29731e-06 0.000690504
0.00117932 4.02194e-06 -7.22645e-07
4.02194e-06 4.62034e-05 8.47124e-09
-7.22645e-07 8.47124e-09 -1.14286e-05
0.00116162 -1.15863e-05 -6.6576e-07
-1.15863e-05 4.66914e-05 -1.5907e-07
-6.6576e-07 -1.5907e-07 -1.36774e-05
0.00122744 -2.07429e-06 1.08783e-07
-2.07429e-06 5.74459e-05 -8.63513e-08
1.08783e-07 -8.63513e-08 -3.23168e-06
0.00123104 -1.78964e-05 -3.3829e-07
-1.78964e-05 7.09354e-05 3.1613e-07
-3.3829e-07 3.1613e-07 7.97693e-06
0.00114959 -6.98414e-06 -6.31603e-07
-6.98414e-06 5.47917e-05 2.02248e-07
-6.31603e-07 2.02248e-07 -6.31836e-06
0.00100642 7.45403e-06 -1.5282e-06
7.45403e-06 1.70763e-05 -6.98872e-09
-1.5282e-06 -6.98872e-09 -3.92779e-05
0.00114197 1.00178e-05 9.28834e-08
1.00178e-05 5.13719e-05 1.04667e-07
9.28834e-08 1.04667e-07 -1.01346e-05
0.00116793 -1.1808e-05 1.99489e-08
-1.1808e-05 5.55254e-05 -7.34483e-08
1.99489e-08 -7.34483e-08 -6.7599e-06
0.0012187 -1.04127e-05 7.0334e-08
-1.04127e-05 5.68198e-05 -1.75306e-07
7.0334e-08 -1.75306e-07 -5.76745e-06
0.00127712 -1.83437e-05 -3.99764e-08
-1.83437e-05 8.35323e-05 -1.22389e-07
-3.99764e-08 -1.22389e-07 1.93095e-05
0.00122247 1.76852e-06 -6.22044e-08
1.76852e-06 5.00384e-05 1.02508e-07
-6.22044e-08 1.02508e-07 -9.11636e-06
0.00129739 -8.23119e-06 8.59183e-08
-8.23119e-06 7.9232e-05 1.64101e-07
8.59183e-08 1.64101e-07 2.02229e-05
0.0012272 5.49147e-06 4.24589e-07
5.49147e-06 8.29151e-05 6.29982e-07
4.24589e-07 6.29982e-07 1.97312e-05
0.00113854 -6.93954e-06 3.53227e-07
-6.93954e-06 4.35385e-05 -6.48422e-07
3.53227e-07 -6.48422e-07 -1.96507e-05
0.00118635 -1.33106e-05 4.71171e-07
-1.33106e-05 3.01858e-05 3.10215e-07
4.71171e-07 3.10215e-07 -3.27485e-05
0.00137447 -1.95248e-05 2.88061e-07
-1.95248e-05 0.000130379 -2.32516e-07
2.88061e-07 -2.32516e-07 6.42834e-05
0.00120574 -2.02147e-06 -7.33251e-07
-2.02147e-06 2.84379e-05 7.16374e-08
-7.33251e-07 7.16374e-08 -2.7932e-05
0.0014155 -1.33314e-05 -6.0171e-07
-1.33314e-05 0.000129183 2.94466e-07
-6.0171e-07 2.94466e-07 7.15727e-05
0.00110756 1.69424e-05 -1.15838e-06
1.69424e-05 2.55179e-05 -3.63235e-07
-1.15838e-06 -3.63235e-07 -3.65166e-05
0.00128033 -5.23311e-07 -1.162e-06
-5.23311e-07 8.81591e-05 2.91525e-07
-1.162e-06 2.91525e-07 2.71927e-05
0.00118913 1.77507e-05 -7.39957e-07
1.77507e-05 3.14772e-05 -3.686e-08
-7.39957e-07 -3.686e-08 -3.41052e-05
0.00133225 -1.9923e-06 -1.51966e-07
-1.9923e-06 9.54666e-05 1.79458e-07
-1.51966e-07 1.79458e-07 3.23314e-05
0.00100392 1.05194e-05 -2.15666e-06
1.05194e-05 1.10715e-05 1.17092e-06
-2.15666e-06 1.17092e-06 -2.14233e-05
0.00107435 -4.34279e-06 -9.90271e-07
-4.34279e-06 3.90052e-05 5.42299e-07
-9.90271e-07 5.42299e-07 -1.02146e-05
0.00114685 -1.75524e-05 -2.51027e-07
-1.75524e-05 6.39683e-05 1.93118e-07
-2.51027e-07 1.93118e-07 6.43326e-06
0.00131097 -1.449e-05 1.31846e-07
-1.449e-05 0.000104919 5.27266e-08
1.31846e-07 5.27266e-08 4.67392e-05
0.00118773 -9.89948e-06 6.6484e-07
-9.89948e-06 2.5141e-05 5.63287e-07
6.6484e-07 5.63287e-07 -3.45725e-05
0.00121228 -1.53762e-05 5.6153e-07
-1.53762e-05 5.24288e-05 -4.25899e-08
5.6153e-07 -4.25899e-08 -5.21534e-06
0.00111045 -1.98476e-05 -3.26117e-07
-1.98476e-05 2.49576e-05 -7.63934e-08
-3.26117e-07 -7.63934e-08 -3.74295e-05
0.00120399 -1.83098e-05 9.82179e-07
-1.83098e-05 5.08869e-05 -1.11975e-06
9.82179e-07 -1.11975e-06 -4.3703e-06
0.00107054 -3.94582e-06 -1.2039e-06
-3.94582e-06 3.21448e-05 5.30557e-07
-1.2039e-06 5.30557e-07 -1.51612e-05
0.00104414 -1.42432e-05 -1.00989e-06
-1.42432e-05 1.60277e-05 2.92892e-07
-1.00989e-06 2.92892e-07 -4.03288e-05
0.0010115 6.50218e-06 -1.63219e-06
6.50218e-06 3.21772e-06 1.61635e-06
-1.63219e-06 1.61635e-06 -2.58662e-05
0.000934783 -2.58818e-06 -7.98496e-07
-2.58818e-06 -3.44769e-05 5.45298e-07
-7.98496e-07 5.45298e-07 -8.29808e-05
0.00123116 1.85496e-05 -2.07835e-08
1.85496e-05 6.86796e-05 -3.04332e-07
-2.07835e-08 -3.04332e-07 3.69769e-06
0.00137266 8.1351e-06 -1.34329e-07
8.1351e-06 0.000109166 9.87329e-08
-1.34329e-07 9.87329e-08 4.44592e-05
0.00121336 1.79977e-05 -3.45253e-07
1.79977e-05 3.55138e-05 -8.30984e-08
-3.45253e-07 -8.30984e-08 -3.1985e-05
0.00127202 -4.96554e-07 -7.43851e-08
-4.96554e-07 5.62599e-05 -9.85417e-08
-7.43851e-08 -9.85417e-08 -6.46178e-06
0.0010658 -3.62565e-06 4.48379e-08
-3.62565e-06 3.33023e-05 -2.08829e-08
4.48379e-08 -2.08829e-08 -1.46469e-05
0.00104779 -1.59515e-05 1.91654e-07
-1.59515e-05 1.94791e-05 -1.56508e-07
1.91654e-07 -1.56508e-07 -3.6597e-05
0.00116597 -2.04399e-05 -2.19433e-08
-2.04399e-05 6.79768e-05 -3.80237e-08
-2.19433e-08 -3.80237e-08 4.48856e-06
0.00125681 -1.36712e-05 -1.04268e-07
-1.36712e-05 6.89886e-05 -3.11646e-08
-1.04268e-07 -3.11646e-08 1.08948e-05
0.00125552 -8.73583e-06 1.9294e-07
-8.73583e-06 5.16536e-05 2.85053e-07
1.9294e-07 2.85053e-07 -5.43792e-06
0.00123034 -2.18619e-05 -1.90798e-08
-2.18619e-05 7.73812e-05 2.84832e-07
-1.90798e-08 2.84832e-07 1.41509e-05
0.00120779 -1.50113e-05 1.46686e-10
-1.50113e-05 4.52589e-05 1.79136e-07
1.46686e-10 1.79136e-07 -8.97784e-06
0.00124021 -1.8944e-05 2.84122e-07
-1.8944e-05 6.18786e-05 -8.56053e-07
2.84122e-07 -8.56053e-07 8.8607e-06
0.00111726 -1.50589e-05 5.23603e-08
-1.50589e-05 5.02374e-05 -1.38535e-08
5.23603e-08 -1.38535e-08 -4.66215e-06
0.00116402 -1.84592e-05 -1.70709e-07
-1.84592e-05 7.0035e-05 1.20359e-07
-1.70709e-07 1.20359e-07 1.02802e-05
0.00115599 -1.45734e-05 -5.90143e-08
-1.45734e-05 7.42417e-05 1.80471e-07
-5.90143e-08 1.80471e-07 1.6624e-05
0.000887744 5.9264e-06 -1.09683e-07
5.9264e-06 -5.8477e-05 -2.33676e-08
-1.09683e-07 -2.33676e-08 -8.77147e-05
0.000919405 -2.96775e-06 2.44669e-07
-2.96775e-06 -4.20229e-05 -3.91862e-07
2.44669e-07 -3.91862e-07 -9.02175e-05
0.00123019 1.94845e-05 2.25187e-07
1.94845e-05 6.17675e-05 3.07982e-07
2.25187e-07 3.07982e-07 -5.12112e-06
0.00130524 1.53906e-05 5.63474e-08
1.53906e-05 6.47262e-05 -4.22083e-08
5.63474e-08 -4.22083e-08 -2.24856e-06
0.00128184 -6.56332e-07 -5.43439e-07
-6.56332e-07 5.28872e-05 -1.04806e-06
-5.43439e-07 -1.04806e-06 -6.61763e-06
0.0012236 -1.00803e-05 -1.00496e-06
-1.00803e-05 4.01342e-05 -2.75107e-07
-1.00496e-06 -2.75107e-07 -1.40134e-05
0.00110879 -1.59729e-05 4.74944e-07
-1.59729e-05 4.72122e-05 -3.04077e-08
4.74944e-07 -3.04077e-08 -7.50336e-06
0.00127959 -1.61168e-05 -1.0271e-06
-1.61168e-05 6.68071e-05 3.54103e-07
-1.0271e-06 3.54103e-07 1.82025e-05
0.000973978 -1.81485e-05 3.29936e-07
-1.81485e-05 -1.47333e-05 -6.53496e-07
3.29936e-07 -6.53496e-07 -7.62775e-05
0.00119491 -2.24163e-05 5.90024e-07
-2.24163e-05 7.81346e-05 -8.33948e-08
5.90024e-07 -8.33948e-08 9.68246e-06
0.00122994 -2.23433e-05 1.91458e-07
-2.23433e-05 6.75412e-05 1.3924e-06
1.91458e-07 1.3924e-06 4.60791e-06
0.000771489 5.43723e-06 1.22109e-06
5.43723e-06 -0.000116598 -2.28092e-06
1.22109e-06 -2.28092e-06 -0.000145879
0.00115534 -2.30375e-06 8.28818e-07
-2.30375e-06 7.33907e-05 -8.27427e-07
8.28818e-07 -8.27427e-07 2.74121e-05
0.00113649 -1.39871e-05 5.48032e-07
-1.39871e-05 6.70728e-05 -2.9322e-07
5.48032e-07 -2.9322e-07 8.55295e-06
0.00113868 -1.82387e-05 3.51723e-07
-1.82387e-05 5.67626e-05 1.16809e-07
3.51723e-07 1.16809e-07 -1.93191e-06
0.00119194 -1.90546e-05 3.37002e-07
-1.90546e-05 8.70134e-05 2.63086e-07
3.37002e-07 2.63086e-07 2.34116e-05
0.00114173 -1.90776e-05 -8.82236e-09
-1.90776e-05 5.59587e-05 3.08438e-07
-8.82236e-09 3.08438e-07 -6.44573e-06
0.000931664 -9.48952e-06 -2.21411e-06
-9.48952e-06 -3.85269e-05 -2.88899e-06
-2.21411e-06 -2.88899e-06 -3.93072e-05
0.0010074 -7.06168e-06 -1.63252e-06
-7.06168e-06 2.52749e-06 -1.67819e-06
-1.63252e-06 -1.67819e-06 -2.5671e-05
0.00123709 8.91893e-06 4.67427e-08
8.91893e-06 5.44984e-05 2.17316e-07
4.67427e-08 2.17316e-07 -5.18836e-06
0.00105755 -4.06273e-06 -1.09312e-06
-4.06273e-06 2.81987e-05 -9.6167e-07
-1.09312e-06 -9.6167e-07 -1.80708e-05
0.00105227 -1.34314e-06 -1.2766e-06
-1.34314e-06 2.89212e-05 -7.26935e-07
-1.2766e-06 -7.26935e-07 -1.81855e-05
0.00101927 5.22137e-06 -5.6317e-07
5.22137e-06 9.92736e-06 -2.52527e-07
-5.6317e-07 -2.52527e-07 -4.72234e-05
0.0011641 1.9267e-05 -2.68868e-07
1.9267e-05 4.79373e-05 -4.19734e-07
-2.68868e-07 -4.19734e-07 -1.17109e-05
0.00120222 1.75293e-05 5.43265e-07
1.75293e-05 4.05425e-05 3.69976e-07
5.43265e-07 3.69976e-07 -2.1501e-05
0.00108441 1.47572e-05 -3.72609e-07
1.47572e-05 4.82461e-05 -2.73361e-07
-3.72609e-07 -2.73361e-07 -1.03852e-05
0.00113563 2.07923e-05 -9.3015e-07
2.07923e-05 6.14024e-05 -7.93058e-08
-9.3015e-07 -7.93058e-08 -3.87711e-06
0.00125733 2.169e-05 -7.86215e-07
2.169e-05 0.000100087 -4.89217e-07
-7.86215e-07 -4.89217e-07 4.03496e-05
0.00101464 -6.25744e-06 6.36338e-08
-6.25744e-06 4.00568e-06 -1.42098e-08
6.36338e-08 -1.42098e-08 -2.35722e-05
0.00106493 -2.89307e-06 1.39292e-09
-2.89307e-06 2.9865e-05 -1.16422e-08
1.39292e-09 -1.16422e-08 -1.58957e-05
0.0010812 1.11472e-05 -5.81406e-08
1.11472e-05 4.10459e-05 -1.01301e-07
-5.81406e-08 -1.01301e-07 -1.58594e-05
0.00110063 4.17035e-06 -4.95525e-08
4.17035e-06 4.95081e-05 -1.19511e-08
-4.95525e-08 -1.19511e-08 -7.67165e-06
0.00112281 1.45866e-05 -1.86643e-07
1.45866e-05 6.06603e-05 -1.46478e-07
-1.86643e-07 -1.46478e-07 -1.58649e-06
0.00123923 6.46706e-06 -2.93734e-07
6.46706e-06 4.50186e-05 -3.68892e-07
-2.93734e-07 -3.68892e-07 -1.32858e-05
0.00118374 2.19122e-05 3.77406e-07
2.19122e-05 4.96285e-05 1.06356e-07
3.77406e-07 1.06356e-07 -1.23343e-05
0.00113954 1.93115e-05 5.85687e-08
1.93115e-05 9.38998e-06 2.64119e-07
5.85687e-08 2.64119e-07 -4.74732e-05
0.00103545 1.9246e-05 2.42423e-07
1.9246e-05 2.58839e-05 5.16799e-07
2.42423e-07 5.16799e-07 -4.11366e-05
0.00120607 2.34139e-05 2.78033e-08
2.34139e-05 8.08873e-05 -1.82005e-07
2.78033e-08 -1.82005e-07 1.17117e-05
0.00106815 -1.43596e-06 9.98905e-07
-1.43596e-06 3.01292e-05 1.04834e-06
9.98905e-07 1.04834e-06 -1.51893e-05
0.000986948 5.65134e-06 9.50694e-07
5.65134e-06 -7.59368e-06 7.41814e-07
9.50694e-07 7.41814e-07 -6.58473e-05
0.0011196 1.91539e-05 1.27586e-07
1.91539e-05 6.12724e-05 5.41482e-08
1.27586e-07 5.41482e-08 -2.77674e-06
0.00102353 1.38022e-05 4.03614e-07
1.38022e-05 1.16633e-05 -3.57977e-08
4.03614e-07 -3.57977e-08 -5.21218e-05
0.00117007 1.77316e-05 -3.09202e-08
1.77316e-05 7.85946e-05 -3.61074e-07
-3.09202e-08 -3.61074e-07 1.33628e-05
0.00128201 8.51038e-06 -1.11326e-06
8.51038e-06 4.6449e-05 -5.38785e-07
-1.11326e-06 -5.38785e-07 -9.95759e-07
0.00129545 2.5456e-05 2.47229e-07
2.5456e-05 0.000104354 -6.18358e-07
2.47229e-07 -6.18358e-07 3.88874e-05
0.000895619 2.04685e-05 -7.24951e-08
2.04685e-05 -0.000114327 -2.60842e-07
-7.24951e-08 -2.60842e-07 -0.000170315
0.00132457 2.27838e-05 9.01237e-07
2.27838e-05 0.000156864 1.24511e-06
9.01237e-07 1.24511e-06 8.54503e-05
0.000937621 2.29756e-05 1.30513e-07
2.29756e-05 -4.72321e-05 2.41419e-08
1.30513e-07 2.41419e-08 -0.000122451
0.00101551 -5.54842e-06 -1.16483e-06
-5.54842e-06 2.4798e-06 -1.7555e-06
-1.16483e-06 -1.7555e-06 -2.43811e-05
0.000990915 -1.2036e-06 2.28831e-07
-1.2036e-06 -7.8747e-06 4.24835e-07
2.28831e-07 4.24835e-07 -5.31518e-05
0.000997625 5.28821e-06 5.86299e-07
5.28821e-06 -9.40539e-07 9.53812e-07
5.86299e-07 9.53812e-07 -5.84468e-05
0.000915408 -2.15552e-06 -5.49249e-07
-2.15552e-06 -4.54439e-05 -1.06348e-06
-5.49249e-07 -1.06348e-06 -9.02571e-05
0.001072 7.81813e-07 3.67698e-08
7.81813e-07 3.00667e-05 1.15052e-08
3.67698e-08 1.15052e-08 -1.29663e-05
0.00112467 4.72348e-06 -1.25398e-07
4.72348e-06 6.1015e-05 -4.14488e-07
-1.25398e-07 -4.14488e-07 5.73148e-06
0.00120984 1.15244e-05 1.55932e-07
1.15244e-05 0.000106862 1.05307e-07
1.55932e-07 1.05307e-07 4.3816e-05
0.000990572 1.13022e-06 3.0147e-07
1.13022e-06 -4.77851e-06 9.55764e-07
3.0147e-07 9.55764e-07 -6.03073e-05
0.00106821 -1.14562e-06 3.74974e-07
-1.14562e-06 2.79798e-05 1.03797e-06
3.74974e-07 1.03797e-06 -1.47483e-05
0.00103574 -2.41031e-06 4.56261e-07
-2.41031e-06 4.08257e-06 1.79113e-06
4.56261e-07 1.79113e-06 -2.09931e-05
0.00103431 -3.29269e-06 4.92429e-08
-3.29269e-06 5.1485e-06 1.24688e-09
4.92429e-08 1.24688e-09 -2.00591e-05
0.0015244 -5.30981e-06 9.72884e-07
-5.30981e-06 0.00023705 1.87445e-06
9.72884e-07 1.87445e-06 0.000241536
0.00102916 -4.13238e-06 -7.54123e-07
-4.13238e-06 4.76044e-06 -1.7587e-06
-7.54123e-07 -1.7587e-06 -2.08059e-05
0.00154099 -6.55866e-06 -8.28964e-07
-6.55866e-06 0.000248293 -1.17764e-06
-8.28964e-07 -1.17764e-06 0.00025217
0.00121578 -7.17788e-06 4.54034e-06
-7.17788e-06 8.65494e-05 6.15646e-06
4.54034e-06 6.15646e-06 0.00010431
0.00155863 -7.73293e-06 -3.25641e-06
-7.73293e-06 0.000260396 -4.15175e-06
-3.25641e-06 -4.15175e-06 0.000263574
0.00116028 -8.84777e-06 1.79623e-06
-8.84777e-06 6.34452e-05 2.32622e-06
1.79623e-06 2.32622e-06 8.07799e-05
0.00229044 -1.24612e-05 -2.35001e-06
-1.24612e-05 0.000618994 -1.517e-06
-2.35001e-06 -1.517e-06 0.000641243
0.000941004 8.51558e-06 1.76314e-06
8.51558e-06 -3.92881e-05 -2.87537e-06
1.76314e-06 -2.87537e-06 -3.94308e-05
0.000945423 9.45405e-06 -1.21038e-07
9.45405e-06 -3.3561e-05 -1.52192e-08
-1.21038e-07 -1.52192e-08 -3.48489e-05
0.00238214 1.3483e-05 6.04824e-06
1.3483e-05 0.0006657 -3.6345e-06
6.04824e-06 -3.6345e-06 0.000687042
0.000948386 1.03623e-05 -2.684e-06
1.03623e-05 -2.87238e-05 2.72986e-06
-2.684e-06 2.72986e-06 -3.08404e-05
0.00238714 1.51875e-05 -1.46356e-07
1.51875e-05 0.000672857 -4.19395e-08
-1.46356e-07 -4.19395e-08 0.000693367
0.00236515 1.69104e-05 -7.3133e-06
1.69104e-05 0.000666746 3.43737e-06
-7.3133e-06 3.43737e-06 0.000686592
0.00122652 2.18878e-06 -6.98677e-08
2.18878e-06 5.21577e-05 2.27752e-07
-6.98677e-08 2.27752e-07 -7.05773e-06
0.0012357 -1.26528e-05 -8.89746e-08
-1.26528e-05 6.48013e-05 -1.76353e-07
-8.89746e-08 -1.76353e-07 2.18901e-06
0.00127471 -8.46191e-06 8.42336e-07
-8.46191e-06 6.80122e-05 -3.15429e-07
8.42336e-07 -3.15429e-07 8.92843e-06
0.00129278 -1.85273e-05 -6.03895e-07
-1.85273e-05 9.02675e-05 5.80796e-07
-6.03895e-07 5.80796e-07 2.56508e-05
0.00115568 -1.34128e-05 -1.50094e-07
-1.34128e-05 5.06831e-05 3.12578e-07
-1.50094e-07 3.12578e-07 -1.14545e-05
0.00113396 9.91529e-06 -4.87155e-07
9.91529e-06 4.80834e-05 -6.63819e-08
-4.87155e-07 -6.63819e-08 -1.33727e-05
0.00119073 6.72553e-06 9.44906e-08
6.72553e-06 6.63889e-05 3.01669e-07
9.44906e-08 3.01669e-07 3.25352e-06
0.00115301 -8.42108e-06 1.38422e-07
-8.42108e-06 4.92695e-05 1.0636e-07
1.38422e-07 1.0636e-07 -1.37644e-05
0.00119573 -1.36079e-05 1.26812e-07
-1.36079e-05 3.38331e-05 -5.78323e-08
1.26812e-07 -5.78323e-08 -2.91375e-05
0.00130483 -1.93803e-05 -4.89454e-07
-1.93803e-05 9.76437e-05 1.84644e-07
-4.89454e-07 1.84644e-07 3.04533e-05
0.00121894 -2.30712e-06 -2.30121e-07
-2.30712e-06 3.57299e-05 2.56206e-07
-2.30121e-07 2.56206e-07 -2.06481e-05
0.00133275 -1.25988e-05 7.13429e-07
-1.25988e-05 8.92412e-05 -4.67291e-07
7.13429e-07 -4.67291e-07 3.17952e-05
0.0011492 8.52783e-06 -8.81005e-08
8.52783e-06 5.37938e-05 5.04235e-07
-8.81005e-08 5.04235e-07 -8.55756e-06
0.00112911 -1.32905e-05 3.45488e-07
-1.32905e-05 4.03721e-05 -8.49595e-07
3.45488e-07 -8.49595e-07 -2.45458e-05
0.00123734 -1.75965e-05 -5.11105e-07
-1.75965e-05 5.65995e-05 6.24019e-07
-5.11105e-07 6.24019e-07 -8.79619e-06
0.00138261 -4.82862e-06 -1.13877e-06
-4.82862e-06 0.000101711 3.04662e-07
-1.13877e-06 3.04662e-07 5.22681e-05
0.00122111 1.84825e-05 -4.48738e-07
1.84825e-05 6.45406e-05 -8.07759e-07
-4.48738e-07 -8.07759e-07 -3.74531e-07
0.00135238 8.31348e-06 -6.55593e-07
8.31348e-06 0.00010004 2.59185e-07
-6.55593e-07 2.59185e-07 3.53476e-05
0.0012697 1.84925e-05 -8.0991e-07
1.84925e-05 6.12143e-05 9.86605e-08
-8.0991e-07 9.86605e-08 -6.54045e-06
0.00130566 -7.36335e-07 3.8778e-07
-7.36335e-07 7.30015e-05 4.12694e-07
3.8778e-07 4.12694e-07 1.02954e-05
0.00107187 -3.99832e-06 -1.10261e-06
-3.99832e-06 3.52755e-05 4.81784e-07
-1.10261e-06 4.81784e-07 -1.25477e-05
0.00110521 -1.56786e-05 -1.53848e-07
-1.56786e-05 4.72319e-05 8.88499e-08
-1.53848e-07 8.88499e-08 -8.41798e-06
0.00117063 -2.0475e-05 -3.11141e-07
-2.0475e-05 7.10481e-05 5.1908e-07
-3.11141e-07 5.1908e-07 7.38226e-06
0.00129858 -1.3683e-05 4.90447e-07
-1.3683e-05 8.90621e-05 2.6837e-08
4.90447e-07 2.6837e-08 3.07151e-05
0.00122239 -9.20312e-06 8.82099e-07
-9.20312e-06 3.73708e-05 8.26163e-07
8.82099e-07 8.26163e-07 -1.91274e-05
0.00122378 -1.47715e-05 1.15796e-06
-1.47715e-05 5.28286e-05 1.84595e-08
1.15796e-06 1.84595e-08 -1.40315e-06
0.00123824 -2.18984e-05 -2.06523e-07
-2.18984e-05 8.17248e-05 -5.88651e-07
-2.06523e-07 -5.88651e-07 1.81205e-05
0.00116778 -1.86246e-05 3.45063e-07
-1.86246e-05 2.65258e-05 -2.482e-06
3.45063e-07 -2.482e-06 -2.51681e-05
0.00112351 -1.50433e-05 -5.72896e-07
-1.50433e-05 5.3104e-05 1.54754e-08
-5.72896e-07 1.54754e-08 -1.77578e-06
0.00111189 -1.81011e-05 -6.87373e-07
-1.81011e-05 4.39592e-05 -6.87929e-08
-6.87373e-07 -6.87929e-08 -1.6041e-05
0.00115223 -1.47452e-05 -7.8121e-07
-1.47452e-05 7.23586e-05 4.26211e-07
-7.8121e-07 4.26211e-07 1.46457e-05
0.000759641 5.67793e-06 -1.40711e-06
5.67793e-06 -0.000120843 1.62367e-06
-1.40711e-06 1.62367e-06 -0.000150817
0.000929738 -2.35589e-06 -6.4108e-07
-2.35589e-06 -3.73401e-05 6.05326e-07
-6.4108e-07 6.05326e-07 -8.54276e-05
0.00123731 1.94665e-05 1.25304e-07
1.94665e-05 6.167e-05 -5.21454e-07
1.25304e-07 -5.21454e-07 -5.72868e-06
0.00133268 1.50947e-05 -8.05944e-08
1.50947e-05 7.93843e-05 1.75128e-07
-8.05944e-08 1.75128e-07 1.27684e-05
0.00130812 -2.97989e-07 -1.035e-07
-2.97989e-07 6.71124e-05 1.09885e-07
-1.035e-07 1.09885e-07 7.60576e-06
0.00112085 -1.54737e-05 3.49587e-08
-1.54737e-05 5.26949e-05 1.81209e-08
3.49587e-08 1.81209e-08 -2.00888e-06
0.00110159 -1.9041e-05 2.10251e-07
-1.9041e-05 4.54835e-05 -2.07805e-07
2.10251e-07 -2.07805e-07 -1.54485e-05
0.00118311 -2.23316e-05 -4.97573e-08
-2.23316e-05 7.41807e-05 1.54237e-08
-4.97573e-08 1.54237e-08 5.37566e-06
0.00125013 -1.0098e-05 2.42738e-08
-1.0098e-05 5.25151e-05 -1.28163e-07
2.42738e-08 -1.28163e-07 -2.09551e-06
0.001224 -2.17392e-05 -6.07367e-08
-2.17392e-05 6.52237e-05 -4.58317e-07
-6.07367e-08 -4.58317e-07 3.57798e-06
0.00123579 -1.6917e-05 -1.53148e-07
-1.6917e-05 4.72146e-05 -1.97538e-07
-1.53148e-07 -1.97538e-07 -1.68722e-06
0.000761277 5.58855e-06 1.6464e-07
5.58855e-06 -0.000121363 -5.84575e-07
1.6464e-07 -5.84575e-07 -0.000150488
0.00114534 -1.83135e-05 7.89968e-09
-1.83135e-05 6.01463e-05 2.16362e-08
7.89968e-09 2.16362e-08 1.37457e-06
0.00113649 -1.90172e-05 -4.97969e-07
-1.90172e-05 5.26064e-05 1.76452e-07
-4.97969e-07 1.76452e-07 -9.51046e-06
0.00120122 -1.90417e-05 -2.67318e-07
-1.90417e-05 9.18438e-05 1.76312e-07
-2.67318e-07 1.76312e-07 2.86116e-05
0.00120153 -1.44718e-05 -1.03494e-07
-1.44718e-05 9.85765e-05 1.3712e-07
-1.03494e-07 1.3712e-07 4.02543e-05
0.00103575 -2.29067e-06 1.73799e-08
-2.29067e-06 1.45859e-05 1.80582e-07
1.73799e-08 1.80582e-07 -3.21087e-05
0.00134648 2.09226e-05 -1.17886e-07
2.09226e-05 0.000105024 1.45032e-06
-1.17886e-07 1.45032e-06 3.73539e-05
0.00134909 1.51885e-05 -7.59448e-08
1.51885e-05 8.00428e-05 -3.82074e-07
-7.59448e-08 -3.82074e-07 1.40123e-05
0.00125451 -2.10879e-06 -8.63818e-07
-2.10879e-06 3.42554e-05 -1.22516e-06
-8.63818e-07 -1.22516e-06 -2.02537e-05
0.00131482 -1.2192e-05 -1.13691e-06
-1.2192e-05 6.56822e-05 -3.7588e-07
-1.13691e-06 -3.7588e-07 1.86312e-05
0.00113241 -1.86239e-05 2.91333e-07
-1.86239e-05 5.63474e-05 -2.89416e-08
2.91333e-07 -2.89416e-08 -2.76595e-06
0.00125735 -2.11089e-05 -9.16011e-08
-2.11089e-05 5.67602e-05 1.3886e-06
-9.16011e-08 1.3886e-06 2.87214e-06
0.00102996 -2.02889e-05 1.25973e-07
-2.02889e-05 1.24915e-05 -6.792e-07
1.25973e-07 -6.792e-07 -5.52659e-05
0.0012689 -2.40636e-05 3.08877e-07
-2.40636e-05 0.00011073 6.20565e-07
3.08877e-07 6.20565e-07 3.87804e-05
0.000759189 4.65318e-06 9.75995e-07
4.65318e-06 -0.000125097 -2.2317e-06
9.75995e-07 -2.2317e-06 -0.0001527
0.00116419 -9.17117e-07 7.4602e-07
-9.17117e-07 7.74851e-05 -9.01277e-07
7.4602e-07 -9.01277e-07 3.17172e-05
0.00126024 -1.32391e-05 4.90504e-08
-1.32391e-05 0.00012819 2.18373e-07
4.90504e-08 2.18373e-07 7.06789e-05
0.00112276 -1.81663e-05 5.18546e-07
-1.81663e-05 5.9275e-05 -4.0669e-07
5.18546e-07 -4.0669e-07 -7.27961e-06
0.00110611 -1.9179e-05 9.61937e-08
-1.9179e-05 3.90315e-05 1.30654e-07
9.61937e-08 1.30654e-07 -2.35252e-05
0.00115227 -1.98422e-05 4.14073e-07
-1.98422e-05 6.17063e-05 3.21404e-07
4.14073e-07 3.21404e-07 -4.52239e-06
0.00101199 -6.20007e-06 -1.41501e-06
-6.20007e-06 2.64153e-06 -1.7375e-06
-1.41501e-06 -1.7375e-06 -2.49128e-05
0.00106555 -2.68587e-06 -1.08184e-06
-2.68587e-06 3.00995e-05 -1.02524e-06
-1.08184e-06 -1.02524e-06 -1.56821e-05
0.00125476 7.42484e-06 4.08995e-07
7.42484e-06 5.37846e-05 3.2633e-07
4.08995e-07 3.2633e-07 -4.80481e-06
0.00110265 4.5353e-06 -7.76864e-07
4.5353e-06 5.08175e-05 -4.12618e-07
-7.76864e-07 -4.12618e-07 -6.49768e-06
0.00110001 1.1737e-05 -5.77784e-07
1.1737e-05 5.08707e-05 -2.86955e-07
-5.77784e-07 -2.86955e-07 -5.64837e-06
0.00106951 1.46136e-05 -5.42961e-07
1.46136e-05 3.49118e-05 -1.54762e-07
-5.42961e-07 -1.54762e-07 -2.78065e-05
0.0011779 2.18175e-05 -5.55834e-08
2.18175e-05 4.5978e-05 -3.88842e-07
-5.55834e-08 -3.88842e-07 -1.61223e-05
0.00118508 1.89501e-05 6.622e-07
1.89501e-05 2.98038e-05 6.42631e-07
6.622e-07 6.42631e-07 -2.65421e-05
0.000966123 1.87795e-05 -2.31583e-07
1.87795e-05 -6.77573e-06 -1.36281e-07
-2.31583e-07 -1.36281e-07 -7.41186e-05
0.00121717 2.35478e-05 -5.21717e-07
2.35478e-05 8.62025e-05 -5.22726e-08
-5.21717e-07 -5.22726e-08 1.62512e-05
0.00106812 -1.16358e-06 5.58723e-08
-1.16358e-06 3.00995e-05 -2.18521e-08
5.58723e-08 -2.18521e-08 -1.52155e-05
0.00105423 6.59936e-06 2.69351e-07
6.59936e-06 2.54171e-05 2.66381e-07
2.69351e-07 2.66381e-07 -3.25635e-05
0.00116184 1.94246e-05 -5.53451e-08
1.94246e-05 8.23673e-05 -3.42035e-07
-5.53451e-08 -3.42035e-07 1.89327e-05
0.00107873 1.35378e-05 -2.65311e-07
1.35378e-05 3.90689e-05 2.16802e-08
-2.65311e-07 2.16802e-08 -2.43459e-05
0.00113399 1.75649e-05 -4.54561e-07
1.75649e-05 6.29866e-05 -3.55572e-07
-4.54561e-07 -3.55572e-07 -2.15943e-06
0.00136053 8.0622e-06 -3.30879e-07
8.0622e-06 8.39789e-05 -3.16913e-07
-3.30879e-07 -3.16913e-07 3.6854e-05
0.00131191 2.54859e-05 3.14801e-07
2.54859e-05 0.000110024 -4.01234e-08
3.14801e-07 -4.01234e-08 4.49887e-05
0.00104865 2.10276e-05 -2.74323e-07
2.10276e-05 -3.66482e-05 6.85557e-07
-2.74323e-07 6.85557e-07 -9.1413e-05
0.00122184 2.20956e-05 4.44347e-07
2.20956e-05 0.000108791 5.01272e-07
4.44347e-07 5.01272e-07 3.68505e-05
0.00105062 2.37605e-05 -6.56631e-07
2.37605e-05 6.01846e-06 -8.82913e-08
-6.56631e-07 -8.82913e-08 -7.04549e-05
0.00100373 8.61946e-06 8.58321e-07
8.61946e-06 7.60721e-07 9.4637e-07
8.58321e-07 9.4637e-07 -5.75819e-05
0.00103264 1.74262e-05 5.72199e-07
1.74262e-05 1.71263e-05 3.07626e-09
5.72199e-07 3.07626e-09 -4.99735e-05
0.00115372 2.03109e-05 1.31349e-07
2.03109e-05 7.58136e-05 2.04954e-07
1.31349e-07 2.04954e-07 6.75214e-06
0.00100724 1.81765e-05 6.50083e-07
1.81765e-05 6.86127e-07 -9.75314e-08
6.50083e-07 -9.75314e-08 -6.74628e-05
0.00159438 -5.13639e-08 -8.70073e-07
-5.13639e-08 0.000177207 3.12343e-07
-8.70073e-07 3.12343e-07 0.000132839
0.00129331 1.8132e-05 4.34841e-07
1.8132e-05 3.88958e-05 -2.40932e-07
4.34841e-07 -2.40932e-07 -5.21947e-06
0.0012114 2.63931e-05 6.1401e-07
2.63931e-05 6.18921e-05 -1.14102e-06
6.1401e-07 -1.14102e-06 -9.90774e-06
0.000966051 2.23644e-05 3.54879e-07
2.23644e-05 -1.68557e-05 6.87363e-07
3.54879e-07 6.87363e-07 -9.75652e-05
0.00106953 -8.03182e-07 -5.1688e-07
-8.03182e-07 3.05471e-05 -6.71171e-07
-5.1688e-07 -6.71171e-07 -1.42475e-05
0.00107817 5.81942e-06 1.53042e-07
5.81942e-06 3.85265e-05 3.24385e-07
1.53042e-07 3.24385e-07 -1.85314e-05
0.00115136 1.40566e-05 2.91248e-07
1.40566e-05 7.89453e-05 2.68324e-07
2.91248e-07 2.68324e-07 1.40958e-05
0.00107382 1.21332e-06 -4.35675e-07
1.21332e-06 3.10275e-05 -1.04566e-06
-4.35675e-07 -1.04566e-06 -1.20162e-05
0.000994938 3.64756e-06 -4.10208e-07
3.64756e-06 -2.34906e-06 -1.07279e-06
-4.10208e-07 -1.07279e-06 -5.852e-05
0.00107176 -1.18788e-06 6.76298e-08
-1.18788e-06 2.97502e-05 1.1777e-08
6.76298e-08 1.1777e-08 -1.29917e-05
0.00112921 9.8979e-06 -4.30294e-08
9.8979e-06 6.7195e-05 -3.31332e-07
-4.30294e-08 -3.31332e-07 3.47187e-06
0.00104497 3.01954e-06 9.69027e-08
3.01954e-06 2.18449e-05 3.16879e-07
9.69027e-08 3.16879e-07 -3.33484e-05
0.00118495 1.37185e-05 2.03026e-07
1.37185e-05 9.47258e-05 4.11283e-08
2.03026e-07 4.11283e-08 2.56404e-05
0.00102632 -1.71563e-06 1.5533e-07
-1.71563e-06 1.59419e-05 7.8581e-07
1.5533e-07 7.8581e-07 -4.77992e-05
0.000992148 9.56083e-06 3.98379e-07
9.56083e-06 -4.31838e-06 9.5388e-07
3.98379e-07 9.5388e-07 -5.96401e-05
0.00106746 -4.18866e-06 2.21812e-07
-4.18866e-06 2.75965e-05 1.02996e-06
2.21812e-07 1.02996e-06 -1.52297e-05
0.00103794 -1.40948e-06 2.35925e-07
-1.40948e-06 4.10506e-06 1.77864e-06
2.35925e-07 1.77864e-06 -2.10955e-05
0.00103816 -2.4318e-06 5.685e-08
-2.4318e-06 5.3478e-06 3.33104e-09
5.685e-08 3.33104e-09 -1.97549e-05
0.00152521 -3.76381e-06 6.68603e-07
-3.76381e-06 0.000234868 1.88628e-06
6.68603e-07 1.88628e-06 0.000239726
0.00103629 -3.30442e-06 -5.59849e-07
-3.30442e-06 6.19457e-06 -1.77079e-06
-5.59849e-07 -1.77079e-06 -1.90316e-05
0.00154186 -5.12168e-06 -6.53545e-07
-5.12168e-06 0.000245627 -1.17825e-06
-6.53545e-07 -1.17825e-06 0.000250021
0.00121883 -5.5995e-06 3.54616e-06
-5.5995e-06 8.43345e-05 6.18284e-06
3.54616e-06 6.18284e-06 0.000102689
0.00155786 -6.40174e-06 -2.60782e-06
-6.40174e-06 0.000256614 -4.19813e-06
-2.60782e-06 -4.19813e-06 0.000260407
0.0011649 -7.3057e-06 1.42733e-06
-7.3057e-06 6.15938e-05 2.34551e-06
1.42733e-06 2.34551e-06 7.96059e-05
0.00110975 -8.9217e-06 -1.35934e-06
-8.9217e-06 3.86018e-05 -1.44086e-06
-1.35934e-06 -1.44086e-06 5.61928e-05
0.000951577 7.26284e-06 1.52338e-06
7.26284e-06 -3.83297e-05 -2.8876e-06
1.52338e-06 -2.8876e-06 -3.73053e-05
0.000956385 8.5051e-06 -8.21205e-08
8.5051e-06 -3.19885e-05 6.76981e-09
-8.21205e-08 6.76981e-09 -3.2199e-05
0.00234345 1.17115e-05 5.34097e-06
1.17115e-05 0.000642394 -3.66522e-06
5.34097e-06 -3.66522e-06 0.000664738
0.000958995 9.45309e-06 -2.35759e-06
9.45309e-06 -2.70903e-05 2.79841e-06
-2.35759e-06 2.79841e-06 -2.84328e-05
0.00236488 1.34642e-05 -1.96608e-07
1.34642e-05 0.000657735 -3.90547e-08
-1.96608e-07 -3.90547e-08 0.000679065
0.00235954 1.5183e-05 -6.91284e-06
1.5183e-05 0.000659785 3.54781e-06
-6.91284e-06 3.54781e-06 0.000680357
0.00123205 -2.51485e-06 7.1145e-07
-2.51485e-06 4.29642e-05 6.13289e-07
7.1145e-07 6.13289e-07 -1.34202e-05
0.00120482 -1.39423e-05 2.20352e-08
-1.39423e-05 3.73556e-05 -1.93059e-07
2.20352e-08 -1.93059e-07 -2.56539e-05
0.00125314 -1.19256e-05 1.73905e-06
-1.19256e-05 5.08376e-05 -1.6896e-06
1.73905e-06 -1.6896e-06 -6.45491e-06
0.00123851 -1.92443e-05 -1.12294e-06
-1.92443e-05 6.63788e-05 6.01162e-07
-1.12294e-06 6.01162e-07 -1.89905e-06
0.00117055 -1.05705e-05 -3.45743e-07
-1.05705e-05 5.6456e-05 6.92242e-07
-3.45743e-07 6.92242e-07 -6.43691e-06
0.00115845 6.7384e-06 -5.07707e-08
6.7384e-06 5.18653e-05 -1.56712e-07
-5.07707e-08 -1.56712e-07 -1.12485e-05
0.00117 9.90518e-06 2.25835e-07
9.90518e-06 5.97287e-05 -3.95833e-08
2.25835e-07 -3.95833e-08 -3.27081e-06
0.00118528 -1.51053e-05 -3.67329e-07
-1.51053e-05 6.44206e-05 4.91694e-07
-3.67329e-07 4.91694e-07 -5.56467e-07
0.00119654 -1.70117e-05 1.66597e-07
-1.70117e-05 3.89501e-05 4.62549e-08
1.66597e-07 4.62549e-08 -2.54816e-05
0.00127427 -5.36244e-06 3.31067e-07
-5.36244e-06 4.94146e-05 1.23343e-08
3.31067e-07 1.23343e-08 -4.24637e-07
0.00113199 4.54113e-06 1.43578e-07
4.54113e-06 4.07565e-05 -2.05719e-07
1.43578e-07 -2.05719e-07 -2.30307e-05
0.00110932 -1.93692e-05 8.35848e-08
-1.93692e-05 3.30301e-05 -3.48348e-07
8.35848e-08 -3.48348e-07 -3.38802e-05
0.0012852 -1.18823e-05 -1.26063e-06
-1.18823e-05 6.21863e-05 1.10371e-06
-1.26063e-06 1.10371e-06 6.64548e-06
0.00124889 1.94848e-05 -3.2596e-07
1.94848e-05 6.35683e-05 -1.43464e-06
-3.2596e-07 -1.43464e-06 -4.33302e-06
0.00136361 1.48586e-05 -1.09542e-07
1.48586e-05 9.56857e-05 4.34365e-07
-1.09542e-07 4.34365e-07 2.94265e-05
0.001335 -2.89139e-08 6.22882e-07
-2.89139e-08 8.15745e-05 8.73798e-07
6.22882e-07 8.73798e-07 2.20748e-05
0.00113145 -1.48589e-05 -4.44365e-07
-1.48589e-05 5.74788e-05 1.13431e-07
-4.44365e-07 1.13431e-07 2.79132e-06
0.00122991 -1.99384e-05 -2.28515e-08
-1.99384e-05 0.00010602 1.64327e-07
-2.28515e-08 1.64327e-07 4.57015e-05
0.00117088 -2.22463e-05 -3.74461e-07
-2.22463e-05 7.00779e-05 5.17734e-07
-3.74461e-07 5.17734e-07 9.14281e-07
0.00127827 -1.00945e-05 8.80528e-07
-1.00945e-05 6.56519e-05 2.5291e-07
8.80528e-07 2.5291e-07 1.05758e-05
0.00118428 -1.76734e-05 8.15927e-07
-1.76734e-05 2.39589e-05 -5.60827e-07
8.15927e-07 -5.60827e-07 -2.52252e-05
0.00122966 -2.12455e-05 -4.39785e-07
-2.12455e-05 6.8544e-05 -2.05002e-06
-4.39785e-07 -2.05002e-06 8.15066e-06
0.00115241 -1.83908e-05 -3.41657e-07
-1.83908e-05 6.37204e-05 -6.53908e-08
-3.41657e-07 -6.53908e-08 4.87137e-06
0.0011304 -1.89444e-05 -9.97424e-07
-1.89444e-05 4.8877e-05 1.13773e-07
-9.97424e-07 1.13773e-07 -1.29542e-05
0.00120994 -1.90238e-05 -8.27349e-07
-1.90238e-05 9.64059e-05 5.42921e-08
-8.27349e-07 5.42921e-08 3.3545e-05
0.000752632 5.74332e-06 -8.40087e-07
5.74332e-06 -0.000125397 1.09097e-06
-8.40087e-07 1.09097e-06 -0.000154368
0.00126744 -1.5162e-05 -6.35062e-07
-1.5162e-05 0.000130522 6.54537e-07
-6.35062e-07 6.54537e-07 7.23909e-05
0.000917275 -3.44457e-06 -8.12696e-07
-3.44457e-06 -4.36795e-05 1.12421e-06
-8.12696e-07 1.12421e-06 -9.11089e-05
0.0012942 2.05045e-05 -2.15658e-08
2.05045e-05 8.44692e-05 5.35935e-07
-2.15658e-08 5.35935e-07 1.76286e-05
0.00133235 1.44705e-05 1.01043e-07
1.44705e-05 6.98533e-05 2.22401e-07
1.01043e-07 2.22401e-07 4.00818e-06
0.00126833 -1.75604e-06 -9.14422e-08
-1.75604e-06 4.15992e-05 -1.66251e-07
-9.14422e-08 -1.66251e-07 -1.37664e-05
0.00114561 -1.87546e-05 3.33124e-08
-1.87546e-05 6.24497e-05 7.6207e-08
3.33124e-08 7.6207e-08 3.28706e-06
0.00107147 -2.05252e-05 -2.58074e-08
-2.05252e-05 3.25856e-05 3.97503e-08
-2.58074e-08 3.97503e-08 -3.45913e-05
0.00125605 -2.36811e-05 -3.66349e-07
-2.36811e-05 0.000105078 4.70027e-07
-3.66349e-07 4.70027e-07 3.37057e-05
0.0013291 -1.2706e-05 1.90392e-07
-1.2706e-05 7.41692e-05 1.54163e-07
1.90392e-07 1.54163e-07 2.75841e-05
0.00122059 -2.09161e-05 -1.5773e-07
-2.09161e-05 3.95752e-05 -5.41353e-07
-1.5773e-07 -5.41353e-07 -1.44815e-05
0.000892888 4.85859e-06 1.80756e-07
4.85859e-06 -6.02218e-05 -5.64756e-07
1.80756e-07 -5.64756e-07 -8.69453e-05
0.00115595 -6.72711e-08 -4.27674e-08
-6.72711e-08 7.3988e-05 1.14572e-07
-4.27674e-08 1.14572e-07 2.81497e-05
0.00110467 -1.91703e-05 -2.11067e-07
-1.91703e-05 3.84804e-05 1.21658e-07
-2.11067e-07 1.21658e-07 -2.4098e-05
0.00116454 -1.99646e-05 -6.1425e-08
-1.99646e-05 6.76924e-05 3.7034e-08
-6.1425e-08 3.7034e-08 1.53154e-06
0.00112897 -1.8111e-05 1.50519e-07
-1.8111e-05 6.2654e-05 -1.7669e-07
1.50519e-07 -1.7669e-07 -3.54591e-06
0.00120957 -1.44648e-05 -4.58528e-07
-1.44648e-05 0.000102898 6.50801e-07
-4.58528e-07 6.50801e-07 4.49895e-05
0.00127699 2.11071e-05 5.83383e-07
2.11071e-05 7.63246e-05 1.37659e-06
5.83383e-07 1.37659e-06 1.15527e-05
0.00137117 1.17919e-05 -2.77465e-07
1.17919e-05 8.20716e-05 -1.15547e-06
-2.77465e-07 -1.15547e-06 1.9076e-05
0.00129206 -6.51051e-06 -1.87588e-06
-6.51051e-06 3.85909e-05 -9.84984e-07
-1.87588e-06 -9.84984e-07 -5.02326e-06
0.00141638 -1.87945e-05 -1.05023e-06
-1.87945e-05 0.000105997 3.97253e-07
-1.05023e-06 3.97253e-07 6.30894e-05
0.00107025 -1.96087e-05 -2.02295e-08
-1.96087e-05 2.81692e-05 -2.20069e-09
-2.02295e-08 -2.20069e-09 -3.6105e-05
0.00127541 -2.40608e-05 3.50966e-07
-2.40608e-05 9.96664e-05 2.16021e-06
3.50966e-07 2.16021e-06 3.06957e-05
0.00128103 -2.37352e-05 1.20734e-07
-2.37352e-05 0.000131536 -7.29001e-07
1.20734e-07 -7.29001e-07 5.9121e-05
0.00102697 4.00068e-06 7.26192e-07
4.00068e-06 2.63488e-06 -1.68096e-06
7.26192e-07 -1.68096e-06 -2.207e-05
0.00108084 -2.12273e-06 2.01406e-07
-2.12273e-06 3.35331e-05 -1.09312e-06
2.01406e-07 -1.09312e-06 -7.96353e-06
0.000871253 4.19731e-06 3.38578e-07
4.19731e-06 -6.5002e-05 -1.47883e-06
3.38578e-07 -1.47883e-06 -0.000110439
0.00117673 -1.00616e-05 1.59339e-07
-1.00616e-05 8.87045e-05 -5.60345e-08
1.59339e-07 -5.60345e-08 2.94533e-05
0.00111556 -1.77233e-05 6.42904e-07
-1.77233e-05 5.77323e-05 -4.34965e-07
6.42904e-07 -4.34965e-07 -9.16338e-06
0.00118857 -1.97473e-05 6.14989e-07
-1.97473e-05 8.74502e-05 2.59559e-07
6.14989e-07 2.59559e-07 1.68474e-05
0.00110699 -2.02211e-05 3.50158e-07
-2.02211e-05 4.1004e-05 4.353e-08
3.50158e-07 4.353e-08 -2.44663e-05
0.00130315 -2.193e-05 -5.26466e-08
-2.193e-05 0.000139026 4.62103e-07
-5.26466e-08 4.62103e-07 6.88723e-05
0.00106779 -8.47892e-07 -9.05527e-07
-8.47892e-07 2.99084e-05 -1.07882e-06
-9.05527e-07 -1.07882e-06 -1.5401e-05
0.00112168 8.2497e-06 -5.03864e-07
8.2497e-06 5.85169e-05 -2.76585e-07
-5.03864e-07 -2.76585e-07 7.98305e-07
0.00144219 7.60052e-06 6.97609e-07
7.60052e-06 0.000123008 7.75826e-08
6.97609e-07 7.75826e-08 7.61962e-05
0.00113852 1.43019e-05 -7.86359e-07
1.43019e-05 6.85368e-05 9.28501e-08
-7.86359e-07 9.28501e-08 5.47721e-06
0.00120435 1.96959e-05 -5.37536e-07
1.96959e-05 0.000103526 -8.33053e-07
-5.37536e-07 -8.33053e-07 4.07134e-05
0.00108417 1.70495e-05 -6.09297e-07
1.70495e-05 4.09029e-05 -3.77708e-07
-6.09297e-07 -3.77708e-07 -2.4136e-05
0.001323 2.54754e-05 3.70561e-07
2.54754e-05 0.000113077 3.00327e-07
3.70561e-07 3.00327e-07 4.84861e-05
0.00119569 2.15585e-05 6.09252e-08
2.15585e-05 3.81716e-05 1.84026e-06
6.09252e-08 1.84026e-06 -1.53631e-05
0.00111696 2.13774e-05 7.05346e-08
2.13774e-05 5.96181e-05 -7.56842e-09
7.05346e-08 -7.56842e-09 -1.28382e-05
0.00114709 2.44175e-05 -1.27505e-06
2.44175e-05 5.13435e-05 -1.79586e-07
-1.27505e-06 -1.79586e-07 -2.63564e-05
0.00100082 8.14902e-06 2.31589e-07
8.14902e-06 -3.78318e-07 3.13199e-07
2.31589e-07 3.13199e-07 -5.88306e-05
0.0010959 1.77459e-05 -2.14612e-07
1.77459e-05 4.75896e-05 -3.7248e-07
-2.14612e-07 -3.7248e-07 -1.87961e-05
0.00117563 2.04453e-05 -1.3949e-07
2.04453e-05 8.7104e-05 -3.81784e-07
-1.3949e-07 -3.81784e-07 1.85471e-05
0.00110924 1.83363e-05 6.10485e-09
1.83363e-05 4.94827e-05 -1.43712e-07
6.10485e-09 -1.43712e-07 -1.8378e-05
0.00144678 -3.0024e-08 3.04165e-07
-3.0024e-08 0.000105864 -6.40395e-07
3.04165e-07 -6.40395e-07 6.14516e-05
0.00124199 1.75602e-05 2.86593e-07
1.75602e-05 2.13487e-05 4.31879e-09
2.86593e-07 4.31879e-09 -2.42235e-05
0.00136651 2.73112e-05 -3.14221e-07
2.73112e-05 0.000134662 -6.54822e-08
-3.14221e-07 -6.54822e-08 6.36458e-05
0.00102286 2.30451e-05 1.31947e-07
2.30451e-05 7.6155e-06 1.85282e-07
1.31947e-07 1.85282e-07 -7.30387e-05
0.00116902 1.71307e-05 1.65295e-07
1.71307e-05 8.69017e-05 4.90778e-08
1.65295e-07 4.90778e-08 2.06916e-05
0.00123256 -1.30936e-05 -2.1605e-06
-1.30936e-05 4.1361e-05 -7.39987e-08
-2.1605e-06 -7.39987e-08 -1.10665e-05
0.00126002 2.04664e-05 6.30622e-07
2.04664e-05 0.000127389 3.46822e-07
6.30622e-07 3.46822e-07 5.49191e-05
0.00119032 2.24228e-05 4.05357e-07
2.24228e-05 9.00406e-05 4.27407e-07
4.05357e-07 4.27407e-07 1.51246e-05
0.00169184 1.36074e-05 9.58702e-07
1.36074e-05 0.000189936 -1.04416e-06
9.58702e-07 -1.04416e-06 0.000157783
0.00114922 2.69754e-05 2.20371e-06
2.69754e-05 -5.0224e-06 -1.6226e-06
2.20371e-06 -1.6226e-06 -7.25539e-05
0.00135866 2.77873e-05 5.64224e-07
2.77873e-05 0.000162186 7.73601e-07
5.64224e-07 7.73601e-07 7.76942e-05
0.00115838 6.04066e-06 -3.10541e-07
6.04066e-06 7.78321e-05 -3.25379e-07
-3.10541e-07 -3.25379e-07 2.1226e-05
0.00114375 1.39617e-05 -4.08661e-08
1.39617e-05 7.56742e-05 -7.5624e-08
-4.08661e-08 -7.5624e-08 1.08115e-05
0.00115022 1.67301e-05 2.62526e-07
1.67301e-05 8.12681e-05 6.25997e-08
2.62526e-07 6.25997e-08 1.09666e-05
0.00107484 6.2154e-08 -2.7919e-07
6.2154e-08 3.12825e-05 -1.02882e-06
-2.7919e-07 -1.02882e-06 -1.14714e-05
0.0010987 5.17341e-06 -1.38869e-07
5.17341e-06 4.81132e-05 -2.9573e-07
-1.38869e-07 -2.9573e-07 -6.72671e-06
0.00104832 8.04022e-06 -2.68987e-07
8.04022e-06 2.73927e-05 -8.29095e-07
-2.68987e-07 -8.29095e-07 -3.70011e-05
0.00107136 -4.02255e-06 7.25299e-08
-4.02255e-06 2.95148e-05 9.52079e-09
7.25299e-08 9.52079e-09 -1.33319e-05
0.000990866 4.55637e-06 3.3992e-08
4.55637e-06 -4.85184e-06 3.2729e-07
3.3992e-08 3.2729e-07 -6.01462e-05
0.00113277 1.11282e-05 -5.17366e-09
1.11282e-05 6.92269e-05 -3.14703e-07
-5.17366e-09 -3.14703e-07 -3.82166e-07
0.0011282 3.90635e-06 7.52571e-08
3.90635e-06 6.57945e-05 3.04636e-07
7.52571e-08 3.04636e-07 2.70165e-06
0.0011646 1.66908e-05 9.25286e-08
1.66908e-05 8.34824e-05 -2.00338e-07
9.25286e-08 -2.00338e-07 1.07975e-05
0.00108588 3.29041e-08 1.8732e-07
3.29041e-08 4.32194e-05 4.4525e-07
1.8732e-07 4.4525e-07 -2.66228e-05
0.00114501 1.10799e-05 1.87209e-07
1.10799e-05 7.24834e-05 4.08706e-07
1.87209e-07 4.08706e-07 9.91564e-06
0.00109382 3.2069e-06 2.5273e-07
3.2069e-06 4.59366e-05 6.38016e-07
2.5273e-07 6.38016e-07 -8.92914e-06
0.00107061 -5.19031e-06 5.52451e-08
-5.19031e-06 2.90905e-05 9.99374e-07
5.52451e-08 9.99374e-07 -1.40553e-05
0.00103865 -2.58127e-07 4.04558e-08
-2.58127e-07 4.00989e-06 1.75574e-06
4.04558e-08 1.75574e-06 -2.13705e-05
0.00103938 -1.4398e-06 4.60006e-08
-1.4398e-06 4.85357e-06 5.0041e-09
4.60006e-08 5.0041e-09 -2.03623e-05
0.00152346 -2.08053e-06 3.56631e-07
-2.08053e-06 0.000232193 1.88697e-06
3.56631e-07 1.88697e-06 0.000237195
0.00104008 -2.45478e-06 -3.43262e-07
-2.45478e-06 6.35738e-06 -1.77711e-06
-3.43262e-07 -1.77711e-06 -1.87698e-05
0.00154378 -3.60185e-06 -4.5516e-07
-3.60185e-06 0.000244001 -1.17628e-06
-4.5516e-07 -1.17628e-06 0.000248742
0.0012196 -3.94682e-06 2.45284e-06
-3.94682e-06 8.16961e-05 6.18352e-06
2.45284e-06 6.18352e-06 0.000100494
0.00155914 -4.99498e-06 -1.89644e-06
-4.99498e-06 0.00025413 -4.22642e-06
-1.89644e-06 -4.22642e-06 0.000258428
0.00116891 -5.69084e-06 1.00816e-06
-5.69084e-06 5.98985e-05 2.35231e-06
1.00816e-06 2.35231e-06 7.84986e-05
0.0011148 -7.32866e-06 -1.09037e-06
-7.32866e-06 3.69911e-05 -1.4622e-06
-1.09037e-06 -1.4622e-06 5.52586e-05
0.00103187 3.2994e-06 4.88516e-07
3.2994e-06 2.94425e-06 -1.72005e-06
4.88516e-07 -1.72005e-06 -2.04832e-05
0.000958481 5.95511e-06 1.18551e-06
5.95511e-06 -3.83889e-05 -2.94351e-06
1.18551e-06 -2.94351e-06 -3.63232e-05
0.000964693 7.25606e-06 -5.22746e-08
7.25606e-06 -3.20934e-05 4.87788e-10
-5.22746e-08 4.87788e-10 -3.11301e-05
0.00231881 9.80804e-06 4.6996e-06
9.80804e-06 0.000626054 -3.71283e-06
4.6996e-06 -3.71283e-06 0.000649288
0.000971394 8.49553e-06 -1.93952e-06
8.49553e-06 -2.4868e-05 2.85959e-06
-1.93952e-06 2.85959e-06 -2.51455e-05
0.00233287 1.17178e-05 -1.97225e-07
1.17178e-05 0.000637753 -3.07546e-08
-1.97225e-07 -3.07546e-08 0.000660026
0.00234821 1.34614e-05 -6.40732e-06
1.34614e-05 0.000650058 3.64225e-06
-6.40732e-06 3.64225e-06 0.000671373
0.00116457 -5.88105e-06 1.15249e-06
-5.88105e-06 -3.5175e-06 -3.79357e-07
1.15249e-06 -3.79357e-07 -5.37519e-05
0.0011544 -1.64019e-05 2.74717e-07
-1.64019e-05 2.07189e-05 -7.15941e-07
2.74717e-07 -7.15941e-07 -4.27533e-05
0.00124113 -1.47116e-05 -5.05135e-07
-1.47116e-05 8.82894e-05 1.43719e-06
-5.05135e-07 1.43719e-06 2.32959e-05
0.00118692 1.20361e-05 4.67124e-08
1.20361e-05 6.38889e-05 -7.54807e-07
4.67124e-08 -7.54807e-07 2.49489e-07
0.00118083 5.88719e-06 1.21171e-07
5.88719e-06 6.62829e-05 -3.8509e-07
1.21171e-07 -3.8509e-07 3.23763e-06
0.00115195 -1.96181e-05 -9.62396e-08
-1.96181e-05 5.41787e-05 3.43303e-07
-9.62396e-08 3.43303e-07 -1.3335e-05
0.00126077 -1.17052e-05 -4.52881e-07
-1.17052e-05 5.32041e-05 2.7242e-07
-4.52881e-07 2.7242e-07 -1.09142e-06
0.001183 1.89915e-06 7.1966e-07
1.89915e-06 6.88923e-05 -1.25934e-06
7.1966e-07 -1.25934e-06 4.40386e-06
0.00105882 -1.78593e-05 -1.45961e-06
-1.78593e-05 -4.59751e-06 9.4319e-07
-1.45961e-06 9.4319e-07 -6.83166e-05
0.0013144 -2.02277e-05 -1.07657e-06
-2.02277e-05 0.000126209 -3.57421e-07
-1.07657e-06 -3.57421e-07 8.02358e-05
0.00124356 2.01062e-05 1.43485e-07
2.01062e-05 6.46999e-05 -3.622e-07
1.43485e-07 -3.622e-07 -1.31505e-06
0.00131851 1.34994e-05 1.31414e-07
1.34994e-05 6.10927e-05 5.36103e-07
1.31414e-07 5.36103e-07 -4.57371e-06
0.00127853 -1.45723e-06 6.86729e-07
-1.45723e-06 4.72974e-05 7.70176e-07
6.86729e-07 7.70176e-07 -8.92798e-06
0.00115717 -1.88724e-05 -2.39963e-07
-1.88724e-05 6.77981e-05 1.95268e-07
-2.39963e-07 1.95268e-07 8.58574e-06
0.00111097 -2.07455e-05 -7.03141e-08
-2.07455e-05 5.16955e-05 7.31712e-07
-7.03141e-08 7.31712e-07 -1.48944e-05
0.00123351 -2.32045e-05 -2.80901e-07
-2.32045e-05 9.46982e-05 1.31482e-07
-2.80901e-07 1.31482e-07 2.39333e-05
0.0013545 -1.33247e-05 2.3097e-06
-1.33247e-05 8.7774e-05 2.89353e-07
2.3097e-06 2.89353e-07 4.16517e-05
0.00119213 -2.07459e-05 -6.61079e-07
-2.07459e-05 2.64064e-05 -1.94627e-06
-6.61079e-07 -1.94627e-06 -2.78461e-05
0.00110246 -1.9154e-05 -5.4326e-07
-1.9154e-05 3.75602e-05 1.92513e-08
-5.4326e-07 1.92513e-08 -2.50382e-05
0.00117828 -2.00999e-05 -5.10986e-07
-2.00999e-05 7.43471e-05 -2.44675e-07
-5.10986e-07 -2.44675e-07 8.25574e-06
0.00113389 -1.8039e-05 -2.41344e-07
-1.8039e-05 6.54161e-05 -6.49044e-08
-2.41344e-07 -6.49044e-08 -4.2713e-07
0.00102598 5.10272e-06 -7.37895e-07
5.10272e-06 4.38439e-06 1.0893e-06
-7.37895e-07 1.0893e-06 -2.14612e-05
0.0011462 2.31337e-06 -6.59325e-07
2.31337e-06 6.98556e-05 1.17864e-06
-6.59325e-07 1.17864e-06 2.39131e-05
0.00115628 -1.44673e-05 -1.06296e-06
-1.44673e-05 7.63262e-05 1.09999e-06
-1.06296e-06 1.09999e-06 1.80431e-05
0.00120868 2.0394e-05 9.01966e-08
2.0394e-05 4.23176e-05 3.91211e-07
9.01966e-08 3.91211e-07 -2.29684e-05
0.00103154 3.98719e-06 -4.59436e-08
3.98719e-06 4.74262e-06 -8.2048e-09
-4.59436e-08 -8.2048e-09 -1.99763e-05
0.000985785 3.90485e-07 -2.20185e-07
3.90485e-07 -1.25982e-05 -1.73885e-08
-2.20185e-07 -1.73885e-08 -5.45768e-05
0.00136626 1.16662e-05 9.49297e-08
1.16662e-05 7.9496e-05 4.13257e-07
9.49297e-08 4.13257e-07 1.69133e-05
0.00124618 -6.96086e-06 -1.65689e-07
-6.96086e-06 1.94415e-05 -1.95506e-07
-1.65689e-07 -1.95506e-07 -2.61202e-05
0.00106603 -1.95149e-05 -9.84672e-08
-1.95149e-05 2.60078e-05 2.99552e-07
-9.84672e-08 2.99552e-07 -3.79653e-05
0.00121979 -2.33623e-05 -1.40006e-07
-2.33623e-05 0.000102305 1.24405e-07
-1.40006e-07 1.24405e-07 2.93707e-05
0.00117163 -2.30467e-05 4.38824e-07
-2.30467e-05 4.83156e-05 3.65021e-07
4.38824e-07 3.65021e-07 -1.99721e-05
0.0013668 -1.91221e-05 9.54243e-08
-1.91221e-05 8.20358e-05 -5.21639e-07
9.54243e-08 -5.21639e-07 3.89983e-05
0.0011062 2.44598e-06 1.32079e-07
2.44598e-06 4.90422e-05 -4.44472e-07
1.32079e-07 -4.44472e-07 5.05147e-06
0.00116418 -8.78221e-06 -2.31097e-07
-8.78221e-06 8.3148e-05 4.43492e-07
-2.31097e-07 4.43492e-07 2.37227e-05
0.00115385 -2.05424e-05 2.34898e-07
-2.05424e-05 6.31836e-05 3.50694e-08
2.34898e-07 3.50694e-08 -2.17669e-06
0.00121187 -2.12852e-05 -4.46655e-07
-2.12852e-05 9.3756e-05 -2.44343e-08
-4.46655e-07 -2.44343e-08 2.41831e-05
0.00113392 -1.93812e-05 1.30006e-07
-1.93812e-05 6.06594e-05 1.21123e-07
1.30006e-07 1.21123e-07 -1.06286e-05
0.00112777 -1.78035e-05 2.57417e-07
-1.78035e-05 6.35839e-05 -3.01451e-07
2.57417e-07 -3.01451e-07 -3.03697e-06
0.00136795 2.21266e-05 1.13777e-06
2.21266e-05 0.000113996 5.08806e-07
1.13777e-06 5.08806e-07 4.27126e-05
0.00136773 7.23277e-06 -1.01383e-06
7.23277e-06 7.11893e-05 -1.63393e-06
-1.01383e-06 -1.63393e-06 1.8949e-05
0.00137281 -1.44217e-05 -2.95915e-06
-1.44217e-05 5.52888e-05 -7.00737e-08
-2.95915e-06 -7.00737e-08 2.62742e-05
0.00132512 -2.44049e-05 1.5084e-07
-2.44049e-05 9.12959e-05 1.95735e-06
1.5084e-07 1.95735e-06 3.45568e-05
0.00110395 -2.10907e-05 -8.47051e-08
-2.10907e-05 4.75687e-05 -3.89824e-07
-8.47051e-08 -3.89824e-07 -2.05113e-05
0.00137475 -2.64e-05 -3.43383e-07
-2.64e-05 0.000173745 1.11919e-07
-3.43383e-07 1.11919e-07 9.68496e-05
0.000898839 1.55592e-06 1.75171e-07
1.55592e-06 -5.6306e-05 -1.49387e-06
1.75171e-07 -1.49387e-06 -9.72443e-05
0.00107049 -1.86601e-06 5.31127e-07
-1.86601e-06 2.98252e-05 -1.00091e-06
5.31127e-07 -1.00091e-06 -1.28004e-05
0.00128357 -6.26447e-07 -5.50776e-08
-6.26447e-07 0.000138819 -7.4125e-08
-5.50776e-08 -7.4125e-08 8.53903e-05
0.000938145 -1.02501e-06 2.60999e-07
-1.02501e-06 -2.47066e-05 -6.71856e-07
2.60999e-07 -6.71856e-07 -8.48563e-05
0.00122544 -1.62987e-05 4.77637e-07
-1.62987e-05 0.000112748 1.56475e-08
4.77637e-07 1.56475e-08 4.56401e-05
0.00102663 -1.83532e-05 1.54229e-07
-1.83532e-05 1.20221e-05 -1.42457e-07
1.54229e-07 -1.42457e-07 -6.28125e-05
0.00125374 -2.14168e-05 7.21697e-07
-2.14168e-05 0.000122165 2.54954e-07
7.21697e-07 2.54954e-07 4.56388e-05
0.00111859 -2.19446e-05 -9.76057e-09
-2.19446e-05 5.37409e-05 2.88202e-07
-9.76057e-09 2.88202e-07 -1.62654e-05
0.000998962 8.09174e-06 -3.76285e-07
8.09174e-06 -1.01783e-06 -3.52677e-07
-3.76285e-07 -3.52677e-07 -5.95911e-05
0.00115652 1.70819e-05 -1.12345e-06
1.70819e-05 7.67964e-05 -5.04466e-07
-1.12345e-06 -5.04466e-07 1.11495e-05
0.00129784 1.55196e-09 2.03367e-07
1.55196e-09 3.37832e-05 -1.26456e-06
2.03367e-07 -1.26456e-06 -1.06594e-05
0.00118763 1.70016e-05 4.50653e-08
1.70016e-05 2.27673e-06 8.52119e-07
4.50653e-08 8.52119e-07 -4.47301e-05
0.00121682 1.87952e-05 -7.99674e-07
1.87952e-05 0.000100892 -1.74117e-07
-7.99674e-07 -1.74117e-07 3.33083e-05
0.00120465 2.05591e-05 -5.17917e-07
2.05591e-05 0.000101784 -8.58187e-07
-5.17917e-07 -8.58187e-07 3.37209e-05
0.00153089 2.82761e-05 -3.45166e-07
2.82761e-05 0.000211901 5.75373e-07
-3.45166e-07 5.75373e-07 0.000141655
0.0010922 2.38162e-05 -4.94682e-07
2.38162e-05 3.82292e-05 -5.0417e-07
-4.94682e-07 -5.0417e-07 -4.24051e-05
0.00114589 1.73812e-05 -2.35059e-07
1.73812e-05 7.58432e-05 -3.14417e-07
-2.35059e-07 -3.14417e-07 9.60716e-06
0.0010976 -1.20252e-05 -2.33887e-07
-1.20252e-05 -1.45749e-05 7.34687e-07
-2.33887e-07 7.34687e-07 -6.32372e-05
0.00117875 1.99597e-05 1.41027e-07
1.99597e-05 8.76017e-05 2.85478e-07
1.41027e-07 2.85478e-07 1.52918e-05
0.00109341 2.16777e-05 1.61946e-07
2.16777e-05 4.20132e-05 -2.96659e-08
1.61946e-07 -2.96659e-08 -3.34999e-05
0.0013987 1.15204e-05 5.25228e-07
1.15204e-05 5.8635e-05 -3.4279e-07
5.25228e-07 -3.4279e-07 2.50686e-05
0.0014109 2.89546e-05 5.5682e-07
2.89546e-05 0.000115253 -5.37059e-07
5.5682e-07 -5.37059e-07 4.82363e-05
0.00138004 2.82201e-05 3.70452e-07
2.82201e-05 0.000173244 5.15082e-07
3.70452e-07 5.15082e-07 8.777e-05
0.0012226 1.83985e-05 1.5858e-07
1.83985e-05 0.000116803 1.32433e-07
1.5858e-07 1.32433e-07 4.41901e-05
0.00131369 3.75338e-07 5.44905e-07
3.75338e-07 2.13612e-05 -2.72855e-06
5.44905e-07 -2.72855e-06 -1.08241e-05
0.00135238 2.21526e-05 1.10152e-07
2.21526e-05 0.000168448 -7.75437e-08
1.10152e-07 -7.75437e-08 9.2316e-05
0.00150174 2.76119e-05 -3.25421e-07
2.76119e-05 0.000237997 1.02611e-06
-3.25421e-07 1.02611e-06 0.000152935
0.00113805 2.99116e-05 3.2133e-06
2.99116e-05 -8.67364e-05 -1.27763e-06
3.2133e-06 -1.27763e-06 -0.000142638
0.00105058 2.96055e-05 9.92526e-07
2.96055e-05 -4.0505e-06 2.30283e-07
9.92526e-07 2.30283e-07 -9.32901e-05
0.00172786 -5.43323e-05 -7.71305e-06
-5.43323e-05 -0.000111854 -8.33211e-06
-7.71305e-06 -8.33211e-06 -7.20764e-05
0.00113683 1.40693e-05 -2.97388e-07
1.40693e-05 7.27294e-05 -4.47634e-07
-2.97388e-07 -4.47634e-07 7.84828e-06
0.00113774 1.65836e-05 -3.69832e-08
1.65836e-05 7.61422e-05 -6.72343e-08
-3.69832e-08 -6.72343e-08 5.77934e-06
0.0012129 1.73046e-05 1.52196e-07
1.73046e-05 0.000111055 -2.37978e-07
1.52196e-07 -2.37978e-07 3.76209e-05
0.0010749 -4.43445e-06 -9.34969e-08
-4.43445e-06 3.12654e-05 -1.01077e-06
-9.34969e-08 -1.01077e-06 -1.1603e-05
0.000990167 -9.19221e-07 -1.69753e-07
-9.19221e-07 -5.10185e-06 -3.09209e-07
-1.69753e-07 -3.09209e-07 -6.03704e-05
0.00123088 9.25107e-06 -1.52939e-07
9.25107e-06 0.000116029 -1.64864e-07
-1.52939e-07 -1.64864e-07 5.35802e-05
0.00108044 9.49756e-06 -3.53266e-07
9.49756e-06 4.36533e-05 -6.62993e-07
-3.53266e-07 -6.62993e-07 -2.64884e-05
0.00107182 -5.99403e-06 3.70728e-08
-5.99403e-06 2.96968e-05 1.19763e-08
3.70728e-08 1.19763e-08 -1.34704e-05
0.00104072 4.07486e-06 9.8964e-08
4.07486e-06 1.9898e-05 1.58958e-08
9.8964e-08 1.58958e-08 -3.53502e-05
0.00113481 1.63624e-05 -2.33843e-07
1.63624e-05 6.87591e-05 -3.73555e-07
-2.33843e-07 -3.73555e-07 -3.98043e-06
0.00114574 5.96158e-06 -4.45822e-08
5.96158e-06 7.28624e-05 -3.76353e-08
-4.45822e-08 -3.76353e-08 1.02891e-05
0.00115186 1.45039e-06 8.80334e-08
1.45039e-06 7.61686e-05 -1.00328e-08
8.80334e-08 -1.00328e-08 6.81859e-06
0.0011283 9.16232e-06 7.25392e-08
9.16232e-06 6.08736e-05 3.12355e-07
7.25392e-08 3.12355e-07 -1.2993e-05
0.00120179 1.12299e-05 6.2436e-08
1.12299e-05 0.000100116 1.44448e-08
6.2436e-08 1.44448e-08 3.19149e-05
0.00123114 1.32107e-05 9.78489e-08
1.32107e-05 0.000113628 1.18814e-07
9.78489e-08 1.18814e-07 5.12075e-05
0.000966384 7.8123e-07 3.04445e-08
7.8123e-07 -1.59053e-05 6.23511e-07
3.04445e-08 6.23511e-07 -7.21074e-05
0.000894268 -6.07761e-07 -3.51276e-08
-6.07761e-07 -5.65216e-05 1.35316e-06
-3.51276e-08 1.35316e-06 -0.000100999
0.00126477 1.41146e-06 -7.95177e-09
1.41146e-06 0.000130332 2.2678e-07
-7.95177e-09 2.2678e-07 7.55274e-05
0.000900655 3.30475e-07 -2.2538e-07
3.30475e-07 -5.33266e-05 1.35519e-06
-2.2538e-07 1.35519e-06 -9.77902e-05
0.00103934 9.54784e-07 -1.53904e-07
9.54784e-07 4.46257e-06 1.72886e-06
-1.53904e-07 1.72886e-06 -2.10222e-05
0.00103947 -2.88841e-07 4.69722e-08
-2.88841e-07 4.40707e-06 5.14953e-09
4.69722e-08 5.14953e-09 -2.09754e-05
0.000978838 -2.9878e-07 8.24064e-08
-2.9878e-07 -3.49662e-05 3.0433e-06
8.24064e-08 3.0433e-06 -3.27851e-05
0.00104076 -1.4696e-06 -1.44906e-07
-1.4696e-06 5.56631e-06 -1.75841e-06
-1.44906e-07 -1.75841e-06 -1.9664e-05
0.00126144 -1.91541e-06 -2.52174e-07
-1.91541e-06 0.000104119 -1.19637e-06
-2.52174e-07 -1.19637e-06 0.00010765
0.00230765 -2.4238e-06 1.25346e-06
-2.4238e-06 0.000611726 3.84771e-06
1.25346e-06 3.84771e-06 0.000636345
0.0015625 -3.50739e-06 -1.14059e-06
-3.50739e-06 0.000253216 -4.2312e-06
-1.14059e-06 -4.2312e-06 0.000257837
0.00117155 -3.99499e-06 5.58889e-07
-3.99499e-06 5.81852e-05 2.35079e-06
5.58889e-07 2.35079e-06 7.7228e-05
0.00111982 -5.65851e-06 -7.99583e-07
-5.65851e-06 3.58284e-05 -1.47662e-06
-7.99583e-07 -1.47662e-06 5.46786e-05
0.00103456 2.39639e-06 3.29458e-07
2.39639e-06 2.29468e-06 -1.78156e-06
3.29458e-07 -1.78156e-06 -1.98986e-05
0.00103569 3.27621e-06 -7.008e-08
3.27621e-06 4.72852e-06 -4.30285e-09
-7.008e-08 -4.30285e-09 -1.8713e-05
0.000965099 4.60276e-06 8.64736e-07
4.60276e-06 -3.79474e-05 -2.96627e-06
8.64736e-07 -2.96627e-06 -3.48148e-05
0.00125097 6.1889e-06 -2.11013e-07
6.1889e-06 0.000104436 2.38166e-08
-2.11013e-07 2.38166e-08 0.000107755
0.00229411 7.87536e-06 3.88692e-06
7.87536e-06 0.000610296 -3.73149e-06
3.88692e-06 -3.73149e-06 0.000634349
0.000977658 7.24893e-06 -1.64974e-06
7.24893e-06 -2.59334e-05 2.88147e-06
-1.64974e-06 2.88147e-06 -2.50302e-05
0.00230545 9.85511e-06 -2.01733e-07
9.85511e-06 0.000620076 -2.53443e-08
-2.01733e-07 -2.53443e-08 0.000643264
0.0023215 1.17175e-05 -5.72997e-06
1.17175e-05 0.000632724 3.70876e-06
-5.72997e-06 3.70876e-06 0.000654931
0.00124129 -1.1591e-05 3.36784e-07
-1.1591e-05 4.64994e-05 -7.93623e-07
3.36784e-07 -7.93623e-07 -6.55162e-06
0.00119469 -1.98599e-05 2.98728e-07
-1.98599e-05 7.52846e-05 1.20443e-06
2.98728e-07 1.20443e-06 7.17961e-06
0.00122541 4.98691e-06 -4.0535e-09
4.98691e-06 8.98617e-05 -5.59171e-07
-4.0535e-09 -5.59171e-07 2.75175e-05
0.00118987 1.30899e-06 -3.0815e-07
1.30899e-06 7.20988e-05 -1.01892e-06
-3.0815e-07 -1.01892e-06 7.72928e-06
0.00113111 -1.8053e-05 -4.21582e-08
-1.8053e-05 3.04088e-05 1.825e-07
-4.21582e-08 1.825e-07 -3.34166e-05
0.00114761 -2.03298e-05 1.31813e-06
-2.03298e-05 6.8463e-05 1.99758e-07
1.31813e-06 1.99758e-07 2.35215e-05
0.00135234 -2.53794e-06 -1.03131e-06
-2.53794e-06 0.000143588 1.47092e-06
-1.03131e-06 1.47092e-06 7.8629e-05
0.0010439 -4.56399e-05 -9.15946e-06
-4.56399e-05 -1.89223e-05 -6.74641e-06
-9.15946e-06 -6.74641e-06 -1.59535e-05
0.00099109 -5.6494e-06 -1.41114e-06
-5.6494e-06 2.7826e-05 9.29731e-08
-1.41114e-06 9.29731e-08 -2.24552e-06
0.00107087 -3.45575e-07 -1.91182e-07
-3.45575e-07 2.57852e-05 -9.88426e-07
-1.91182e-07 -9.88426e-07 -1.25222e-05
0.00113761 1.96764e-05 -5.75562e-07
1.96764e-05 7.01256e-06 -2.56538e-07
-5.75562e-07 -2.56538e-07 -5.87831e-05
0.00136606 1.15212e-05 5.92022e-07
1.15212e-05 7.92703e-05 1.16748e-06
5.92022e-07 1.16748e-06 1.70798e-05
0.00118568 -7.38329e-06 1.67595e-06
-7.38329e-06 -6.58546e-06 9.24048e-07
1.67595e-06 9.24048e-07 -5.40705e-05
0.00106507 -1.94505e-05 -1.97738e-07
-1.94505e-05 2.54333e-05 4.51226e-07
-1.97738e-07 4.51226e-07 -3.82483e-05
0.00115876 -2.29935e-05 4.18237e-08
-2.29935e-05 7.31941e-05 9.91175e-07
4.18237e-08 9.91175e-07 -2.62811e-07
0.0010666 -2.20556e-05 -3.61041e-08
-2.20556e-05 -3.65583e-06 -9.76064e-07
-3.61041e-08 -9.76064e-07 -7.1252e-05
0.00130632 -1.93668e-05 9.51053e-07
-1.93668e-05 5.31979e-05 -2.01108e-06
9.51053e-07 -2.01108e-06 1.00133e-05
0.00120284 -2.08751e-05 1.48894e-07
-2.08751e-05 8.64247e-05 -2.32069e-07
1.48894e-07 -2.32069e-07 2.11657e-05
0.00111791 -2.06236e-05 -1.15356e-06
-2.06236e-05 4.72725e-05 -6.78536e-07
-1.15356e-06 -6.78536e-07 -2.17217e-05
0.00107754 -1.90038e-05 -5.99879e-07
-1.90038e-05 3.30592e-05 -7.72867e-08
-5.99879e-07 -7.72867e-08 -3.89127e-05
0.0010359 3.96767e-06 -8.19886e-07
3.96767e-06 6.75196e-06 1.66566e-06
-8.19886e-07 1.66566e-06 -1.7981e-05
0.00114323 -1.79156e-05 -6.33449e-08
-1.79156e-05 7.09797e-05 1.72664e-08
-6.33449e-08 1.72664e-08 4.62866e-06
0.00133963 9.49758e-07 -3.51541e-07
9.49758e-07 0.000162346 5.49149e-07
-3.51541e-07 5.49149e-07 0.000119809
0.0011549 -8.92968e-06 -6.98429e-07
-8.92968e-06 7.9068e-05 8.79501e-07
-6.98429e-07 8.79501e-07 1.95016e-05
0.000890544 1.2381e-06 -4.71926e-07
1.2381e-06 -5.88349e-05 1.02059e-06
-4.71926e-07 1.02059e-06 -0.000101306
0.00132137 2.1794e-05 1.7088e-07
2.1794e-05 8.52343e-05 1.58085e-07
1.7088e-07 1.58085e-07 1.34488e-05
0.000986466 9.95898e-07 6.80576e-08
9.95898e-07 -1.39913e-05 -4.55106e-07
6.80576e-08 -4.55106e-07 -5.41935e-05
0.00107289 -2.18614e-06 6.56333e-08
-2.18614e-06 3.10044e-05 1.13126e-08
6.56333e-08 1.13126e-08 -1.16398e-05
0.0011466 1.15157e-07 -1.232e-07
1.15157e-07 7.23306e-05 4.49266e-07
-1.232e-07 4.49266e-07 1.78189e-05
0.00138828 7.40972e-06 3.8466e-07
7.40972e-06 8.18612e-05 3.19515e-07
3.8466e-07 3.19515e-07 2.95302e-05
0.00130053 -1.51666e-05 4.47587e-08
-1.51666e-05 2.19495e-05 -1.00897e-06
4.47587e-08 -1.00897e-06 -9.82073e-06
0.00113197 -2.12952e-05 3.74121e-08
-2.12952e-05 5.95408e-05 9.72114e-08
3.74121e-08 9.72114e-08 -8.26139e-06
0.00117244 -2.49506e-05 2.88997e-07
-2.49506e-05 7.92804e-05 4.83381e-09
2.88997e-07 4.83381e-09 2.50821e-06
0.00120809 -2.35541e-05 -1.58263e-07
-2.35541e-05 3.61529e-05 3.85691e-07
-1.58263e-07 3.85691e-07 -2.00234e-05
0.00102542 -1.89108e-06 -3.163e-08
-1.89108e-06 1.76791e-05 3.02102e-08
-3.163e-08 3.02102e-08 -4.16519e-05
0.00121505 -1.65027e-05 1.65344e-07
-1.65027e-05 0.000106988 4.77787e-08
1.65344e-07 4.77787e-08 3.96204e-05
0.00112629 -2.19675e-05 -2.31934e-07
-2.19675e-05 5.70103e-05 -7.07689e-08
-2.31934e-07 -7.07689e-08 -1.30592e-05
0.00120956 -2.09698e-05 5.21286e-09
-2.09698e-05 0.000100075 1.47092e-08
5.21286e-09 1.47092e-08 2.47441e-05
0.00110643 -1.88958e-05 -4.31627e-07
-1.88958e-05 5.12534e-05 3.44356e-07
-4.31627e-07 3.44356e-07 -2.32115e-05
0.00135597 2.33305e-05 2.68257e-07
2.33305e-05 9.25648e-05 -1.0088e-06
2.68257e-07 -1.0088e-06 1.89664e-05
0.00125208 -2.74861e-06 -2.67235e-06
-2.74861e-06 -2.16096e-05 -2.32217e-06
-2.67235e-06 -2.32217e-06 -4.70467e-05
0.00146807 -2.47535e-05 -1.27634e-06
-2.47535e-05 0.000105631 2.28075e-06
-1.27634e-06 2.28075e-06 6.4868e-05
0.00147178 -2.8855e-05 3.15212e-07
-2.8855e-05 0.000202756 2.55068e-07
3.15212e-07 2.55068e-07 0.000130178
0.00102656 -2.31742e-05 -2.80247e-07
-2.31742e-05 2.07381e-05 -4.78948e-07
-2.80247e-07 -4.78948e-07 -5.18839e-05
0.000902781 9.74367e-06 -2.12913e-08
9.74367e-06 -4.67584e-05 -8.67089e-07
-2.12913e-08 -8.67089e-07 -0.000100105
0.000939122 -1.05908e-06 3.09453e-07
-1.05908e-06 -2.70638e-05 -5.49572e-07
3.09453e-07 -5.49572e-07 -8.46442e-05
0.00115914 7.9608e-06 -1.52882e-08
7.9608e-06 8.67301e-05 2.14672e-07
-1.52882e-08 2.14672e-07 2.29717e-05
0.00118304 -1.62706e-05 4.9001e-07
-1.62706e-05 9.60271e-05 -3.60223e-07
4.9001e-07 -3.60223e-07 2.58028e-05
0.00104937 -1.79895e-05 -2.85795e-08
-1.79895e-05 2.37905e-05 2.89394e-07
-2.85795e-08 2.89394e-07 -4.9676e-05
0.00124791 -2.10686e-05 1.02957e-06
-2.10686e-05 0.000124118 -3.73013e-07
1.02957e-06 -3.73013e-07 4.27537e-05
0.00115904 -2.29943e-05 8.92391e-07
-2.29943e-05 7.96071e-05 4.75672e-07
8.92391e-07 4.75672e-07 1.03657e-06
0.00112033 1.72003e-05 -5.39556e-07
1.72003e-05 6.37113e-05 -7.13969e-07
-5.39556e-07 -7.13969e-07 -2.54706e-06
0.00110054 1.94873e-05 -3.15969e-07
1.94873e-05 4.93427e-05 1.96436e-07
-3.15969e-07 1.96436e-07 -2.28194e-05
0.000948536 -1.0884e-05 2.20681e-06
-1.0884e-05 -7.66862e-05 1.14837e-06
2.20681e-06 1.14837e-06 -0.000121604
0.00109338 9.44388e-06 1.5606e-06
9.44388e-06 -7.79108e-05 -1.82767e-07
1.5606e-06 -1.82767e-07 -0.000112918
0.00167361 3.09373e-05 -5.82929e-07
3.09373e-05 0.000236165 5.12313e-07
-5.82929e-07 5.12313e-07 0.000169642
0.000986952 2.08742e-05 -1.77696e-07
2.08742e-05 -1.06097e-05 -2.69848e-07
-1.77696e-07 -2.69848e-07 -8.66999e-05
0.00137882 2.84802e-05 -4.41339e-07
2.84802e-05 0.000173438 7.3213e-08
-4.41339e-07 7.3213e-08 8.70151e-05
0.00120924 1.82798e-05 1.56723e-08
1.82798e-05 0.000110379 1.77897e-08
1.56723e-08 1.77897e-08 3.81795e-05
0.00114104 1.03318e-07 -1.37786e-06
1.03318e-07 -4.99738e-05 8.17287e-08
-1.37786e-06 8.17287e-08 -8.07395e-05
0.00120801 2.10356e-05 -8.74745e-08
2.10356e-05 9.9635e-05 5.04966e-09
-8.74745e-08 5.04966e-09 2.34768e-05
0.00126478 2.55786e-05 -1.85996e-07
2.55786e-05 0.000127132 2.5694e-07
-1.85996e-07 2.5694e-07 4.18331e-05
0.00137348 2.94676e-05 1.58154e-06
2.94676e-05 2.21661e-05 -1.05666e-06
1.58154e-06 -1.05666e-06 -3.07001e-05
0.00120576 3.09933e-05 -2.7667e-07
3.09933e-05 7.32517e-05 6.36348e-07
-2.7667e-07 6.36348e-07 -1.72611e-05
0.00187907 -4.6052e-05 -1.0134e-06
-4.6052e-05 5.31495e-05 5.14715e-07
-1.0134e-06 5.14715e-07 7.4842e-05
0.00121785 1.84054e-05 -2.2016e-07
1.84054e-05 0.000116318 -3.71038e-07
-2.2016e-07 -3.71038e-07 4.02535e-05
0.00103872 3.31276e-05 6.14639e-06
3.31276e-05 -0.000214606 2.22888e-06
6.14639e-06 2.22888e-06 -0.000270986
0.00126885 2.21764e-05 -8.49275e-07
2.21764e-05 0.000138786 -2.74592e-07
-8.49275e-07 -2.74592e-07 5.78356e-05
0.00129439 2.84676e-05 -1.42293e-06
2.84676e-05 0.000165527 1.46273e-06
-1.42293e-06 1.46273e-06 6.63783e-05
0.00067143 3.743e-05 1.38725e-06
3.743e-05 -0.000231062 -9.82386e-07
1.38725e-06 -9.82386e-07 -0.000321717
0.00510662 3.85694e-05 -4.12969e-06
3.85694e-05 0.00161813 -1.10811e-06
-4.12969e-06 -1.10811e-06 0.00134541
0.000366284 -2.47735e-05 3.14864e-05
-2.47735e-05 -0.000219934 1.1612e-05
3.14864e-05 1.1612e-05 -0.000338215
0.00198941 -5.61272e-06 -1.12692e-05
-5.61272e-06 2.9227e-05 -7.16053e-06
-1.12692e-05 -7.16053e-06 5.95702e-05
-0.00286773 -3.40625e-05 -4.38231e-05
-3.40625e-05 -0.00142951 -1.6092e-05
-4.38231e-05 -1.6092e-05 -0.00144453
0.000750353 -4.96302e-05 5.31507e-07
-4.96302e-05 2.6447e-05 7.92762e-07
5.31507e-07 7.92762e-07 0.000153411
0.0011263 1.64461e-05 -2.36871e-07
1.64461e-05 7.14807e-05 -2.41942e-07
-2.36871e-07 -2.41942e-07 1.05862e-06
0.00117612 1.69212e-05 9.57456e-10
1.69212e-05 9.39483e-05 -8.59696e-08
9.57456e-10 -8.59696e-08 2.05809e-05
0.00115806 1.59461e-05 2.41231e-07
1.59461e-05 8.21177e-05 -2.17165e-07
2.41231e-07 -2.17165e-07 7.09277e-06
0.00107339 -6.31522e-06 3.40254e-08
-6.31522e-06 3.04651e-05 -9.80897e-07
3.40254e-08 -9.80897e-07 -1.27176e-05
0.000988231 5.58789e-06 -1.04473e-07
5.58789e-06 -5.82137e-06 -6.29205e-07
-1.04473e-07 -6.29205e-07 -6.14603e-05
0.00114631 2.49251e-07 -1.16242e-07
2.49251e-07 7.30804e-05 -4.90194e-07
-1.16242e-07 -4.90194e-07 1.05563e-05
0.0012181 4.72902e-06 -1.41063e-07
4.72902e-06 0.000109202 -4.05653e-07
-1.41063e-07 -4.05653e-07 4.03833e-05
0.00110669 1.57318e-05 -7.07e-07
1.57318e-05 5.48162e-05 -4.78087e-07
-7.07e-07 -4.78087e-07 -1.79714e-05
0.0011352 1.12299e-05 -8.35752e-08
1.12299e-05 6.66675e-05 -3.1595e-07
-8.35752e-08 -3.1595e-07 3.60443e-06
0.000983266 -8.20369e-07 -1.30974e-08
-8.20369e-07 -1.3342e-05 3.87564e-07
-1.30974e-08 3.87564e-07 -5.72634e-05
0.00102973 -4.86828e-07 1.62676e-08
-4.86828e-07 1.5114e-05 9.2356e-09
1.62676e-08 9.2356e-09 -4.06699e-05
0.00116106 1.09679e-05 -3.51545e-08
1.09679e-05 7.76907e-05 1.68262e-07
-3.51545e-08 1.68262e-07 4.18454e-06
0.00117307 9.9814e-06 -5.88789e-08
9.9814e-06 8.5385e-05 -2.81672e-07
-5.88789e-08 -2.81672e-07 1.70461e-05
0.00118787 1.69185e-05 -4.36799e-08
1.69185e-05 9.25829e-05 -1.92122e-07
-4.36799e-08 -1.92122e-07 2.46497e-05
0.00119621 1.20114e-05 -2.82014e-08
1.20114e-05 9.2293e-05 1.44954e-07
-2.82014e-08 1.44954e-07 1.97541e-05
0.0010546 1.2161e-05 9.63179e-08
1.2161e-05 2.66985e-05 7.40476e-07
9.63179e-08 7.40476e-07 -3.7967e-05
0.00096472 -9.61798e-07 2.76563e-08
-9.61798e-07 -1.63267e-05 2.59273e-07
2.76563e-08 2.59273e-07 -7.30267e-05
0.000895632 -3.43275e-06 -2.09499e-07
-3.43275e-06 -5.5786e-05 1.33107e-06
-2.09499e-07 1.33107e-06 -0.0001003
0.00115176 1.83205e-06 -4.53176e-08
1.83205e-06 7.48215e-05 5.3388e-07
-4.53176e-08 5.3388e-07 1.93952e-05
0.00124167 2.11286e-06 -7.48294e-08
2.11286e-06 0.000121649 6.81909e-08
-7.48294e-08 6.81909e-08 5.81403e-05
0.00108912 -4.62849e-06 -2.16048e-07
-4.62849e-06 4.51811e-05 6.33864e-07
-2.16048e-07 6.33864e-07 -1.13606e-05
0.0011225 -1.02197e-06 1.27595e-07
-1.02197e-06 6.10757e-05 -3.90797e-07
1.27595e-07 -3.90797e-07 5.34007e-06
0.00107242 -1.61867e-06 -2.61861e-07
-1.61867e-06 3.03912e-05 9.87341e-07
-2.61861e-07 9.87341e-07 -1.32518e-05
0.000900474 1.55606e-06 -6.22958e-09
1.55606e-06 -5.33765e-05 3.8473e-07
-6.22958e-09 3.8473e-07 -9.78613e-05
0.00103909 2.05722e-06 -3.33616e-07
2.05722e-06 5.01664e-06 1.71347e-06
-3.33616e-07 1.71347e-06 -2.05486e-05
0.00103948 9.2453e-07 4.06874e-08
9.2453e-07 4.48046e-06 5.37677e-09
4.06874e-08 5.37677e-09 -2.09951e-05
0.00100455 1.23136e-06 -3.72201e-07
1.23136e-06 -2.24151e-05 4.2311e-06
-3.72201e-07 4.2311e-06 -2.04517e-05
0.00104038 -3.20343e-07 5.31862e-08
-3.20343e-07 4.84526e-06 -1.74115e-06
5.31862e-08 -1.74115e-06 -2.05393e-05
0.000980374 -3.03902e-07 7.60068e-08
-3.03902e-07 -3.42098e-05 2.84567e-09
7.60068e-08 2.84567e-09 -3.20428e-05
0.00231535 -5.18677e-07 7.94569e-08
-5.18677e-07 0.00061458 3.85121e-06
7.94569e-08 3.85121e-06 0.000639271
0.00100054 -1.82558e-06 -3.64043e-07
-1.82558e-06 -2.34534e-05 -4.2538e-06
-3.64043e-07 -4.2538e-06 -2.13963e-05
0.00173971 -2.268e-06 -1.99117e-08
-2.268e-06 0.000333939 2.49652e-08
-1.99117e-08 2.49652e-08 0.000355892
0.00112382 -3.90809e-06 -4.96626e-07
-3.90809e-06 3.48156e-05 -1.4825e-06
-4.96626e-07 -1.4825e-06 5.41062e-05
0.00103447 1.24249e-06 1.0613e-07
1.24249e-06 9.25742e-07 -1.75762e-06
1.0613e-07 -1.75762e-06 -2.03235e-05
0.00103864 2.378e-06 -3.21899e-08
2.378e-06 4.20959e-06 -5.84245e-09
-3.21899e-08 -5.84245e-09 -1.79982e-05
0.000971562 3.1463e-06 5.2989e-07
3.1463e-06 -3.68816e-05 -2.99847e-06
5.2989e-07 -2.99847e-06 -3.28103e-05
0.00104007 3.25719e-06 -6.24947e-07
3.25719e-06 6.79173e-06 1.7084e-06
-6.24947e-07 1.7084e-06 -1.66667e-05
0.00124283 4.75422e-06 -5.8436e-10
4.75422e-06 9.76151e-05 -5.65885e-07
-5.8436e-10 -5.65885e-07 0.00010207
0.00226799 5.92258e-06 2.94793e-06
5.92258e-06 0.000594637 -3.74933e-06
2.94793e-06 -3.74933e-06 0.000619419
0.00096995 5.9542e-06 -1.39336e-06
5.9542e-06 -3.27702e-05 2.90971e-06
-1.39336e-06 2.90971e-06 -3.09301e-05
0.0023061 7.78931e-06 -1.35348e-06
7.78931e-06 0.000617005 1.10405e-06
-1.35348e-06 1.10405e-06 0.000640804
0.00229283 9.88832e-06 -5.01285e-06
9.88832e-06 0.000614462 3.72186e-06
-5.01285e-06 3.72186e-06 0.000637601
0.0012056 -1.82341e-05 -1.58037e-07
-1.82341e-05 6.63504e-05 2.19848e-07
-1.58037e-07 2.19848e-07 2.42325e-06
0.00119655 7.1611e-07 -5.32805e-07
7.1611e-07 7.52298e-05 -9.83585e-07
-5.32805e-07 -9.83585e-07 1.09756e-05
0.00101534 -2.02329e-05 6.44317e-06
-2.02329e-05 2.56459e-05 1.57094e-06
6.44317e-06 1.57094e-06 -1.81686e-05
0.000999065 -4.39346e-05 -4.0491e-06
-4.39346e-05 -3.51002e-05 -2.17843e-06
-4.0491e-06 -2.17843e-06 -2.68906e-05
0.00111885 -2.67152e-06 -1.76403e-07
-2.67152e-06 3.8172e-05 -3.19227e-07
-1.76403e-07 -3.19227e-07 -2.65415e-05
0.000952112 -5.12795e-06 -5.09939e-08
-5.12795e-06 9.14779e-07 -2.09667e-06
-5.09939e-08 -2.09667e-06 -3.61959e-05
0.000949309 1.8499e-05 -8.74226e-07
1.8499e-05 -5.16752e-05 3.74386e-06
-8.74226e-07 3.74386e-06 -0.000124114
0.00117826 -2.0529e-05 8.02981e-05
-2.0529e-05 -0.000148598 2.15044e-05
8.02981e-05 2.15044e-05 -0.000250168
0.00123219 -9.70157e-06 -7.13527e-06
-9.70157e-06 0.000293463 4.2207e-06
-7.13527e-06 4.2207e-06 0.000270766
0.00107518 -5.15881e-07 9.25028e-08
-5.15881e-07 2.71065e-05 -9.14973e-07
9.25028e-08 -9.14973e-07 -1.01693e-05
0.0010783 -5.66599e-07 -1.84301e-07
-5.66599e-07 2.94073e-05 5.9441e-09
-1.84301e-07 5.9441e-09 -8.97671e-06
0.00107262 1.02172e-05 -3.43613e-07
1.02172e-05 3.428e-05 -4.94917e-07
-3.43613e-07 -4.94917e-07 -1.62788e-05
0.00108149 -2.89043e-06 2.97979e-09
-2.89043e-06 3.86808e-05 -1.32082e-07
2.97979e-09 -1.32082e-07 -9.29513e-06
0.00127762 2.14827e-05 -6.38036e-07
2.14827e-05 5.75427e-05 3.37736e-07
-6.38036e-07 3.37736e-07 -1.47211e-05
0.00140026 7.51757e-06 1.97623e-06
7.51757e-06 8.83265e-05 1.83875e-06
1.97623e-06 1.83875e-06 3.59257e-05
0.00124047 -1.59344e-05 1.53957e-06
-1.59344e-05 -5.42052e-06 -8.47535e-07
1.53957e-06 -8.47535e-07 -3.99947e-05
0.00115881 -2.14936e-05 1.23312e-07
-2.14936e-05 7.09549e-05 5.49271e-07
1.23312e-07 5.49271e-07 3.43261e-06
0.000967831 -2.34849e-05 6.35601e-07
-2.34849e-05 -1.62572e-05 -1.01816e-07
6.35601e-07 -1.01816e-07 -9.29029e-05
0.00109761 -2.27758e-05 7.69615e-08
-2.27758e-05 -1.58836e-05 -1.79949e-06
7.69615e-08 -1.79949e-06 -7.14995e-05
0.00113295 -2.19825e-05 -6.57411e-07
-2.19825e-05 5.97407e-05 -7.10982e-08
-6.57411e-07 -7.10982e-08 -1.03855e-05
0.00116886 -2.0551e-05 -7.80949e-07
-2.0551e-05 7.96098e-05 -3.32945e-07
-7.80949e-07 -3.32945e-07 5.47261e-06
0.0011852 -1.94284e-05 -6.41245e-07
-1.94284e-05 8.99785e-05 7.28957e-07
-6.41245e-07 7.28957e-07 1.58857e-05
0.00107771 -9.18357e-07 -3.93783e-07
-9.18357e-07 3.3339e-05 9.9058e-07
-3.93783e-07 9.9058e-07 -9.31565e-06
0.00120092 -1.68018e-05 -4.96438e-07
-1.68018e-05 9.94787e-05 1.62277e-07
-4.96438e-07 1.62277e-07 3.18524e-05
0.00111248 -3.28234e-06 -2.59738e-07
-3.28234e-06 6.00206e-05 7.71396e-07
-2.59738e-07 7.71396e-07 1.49765e-06
0.00107313 1.37141e-06 -1.09587e-07
1.37141e-06 2.78965e-05 6.02892e-07
-1.09587e-07 6.02892e-07 -1.15787e-05
0.00100608 1.00673e-06 -3.99258e-07
1.00673e-06 4.17297e-06 1.20457e-06
-3.99258e-07 1.20457e-06 -5.14196e-05
0.00135601 2.25969e-05 1.85852e-07
2.25969e-05 9.17407e-05 1.139e-06
1.85852e-07 1.139e-06 1.99803e-05
0.00108441 9.65006e-06 -4.00611e-08
9.65006e-06 4.15137e-05 -3.60556e-07
-4.00611e-08 -3.60556e-07 -1.08535e-05
0.00102175 -5.08663e-06 1.88104e-07
-5.08663e-06 1.30783e-05 8.12722e-09
1.88104e-07 8.12722e-09 -4.37518e-05
0.00109872 1.61874e-06 3.92853e-08
1.61874e-06 5.70492e-05 7.80319e-07
3.92853e-08 7.80319e-07 -5.95063e-06
0.0013939 -2.68248e-06 1.48702e-07
-2.68248e-06 5.57227e-05 4.52474e-07
1.48702e-07 4.52474e-07 2.80304e-05
0.00127979 -2.36349e-05 -7.13045e-07
-2.36349e-05 1.36726e-05 -9.30041e-07
-7.13045e-07 -9.30041e-07 -2.6378e-05
0.00112845 -2.37766e-05 8.90631e-08
-2.37766e-05 6.83627e-05 -1.9248e-07
8.90631e-08 -1.9248e-07 -4.43975e-06
0.0012822 -2.74732e-05 1.32847e-07
-2.74732e-05 0.000116064 4.38005e-07
1.32847e-07 4.38005e-07 4.41807e-05
0.0012216 -1.59536e-05 2.21849e-08
-1.59536e-05 0.000115183 -1.13562e-08
2.21849e-08 -1.13562e-08 4.50592e-05
0.00108744 -1.8494e-05 -4.63548e-07
-1.8494e-05 4.14498e-05 6.48229e-07
-4.63548e-07 6.48229e-07 -3.14276e-05
0.00115168 -2.29934e-05 -6.55598e-08
-2.29934e-05 7.5487e-05 -1.089e-07
-6.55598e-08 -1.089e-07 -2.89457e-06
0.00124328 -2.08648e-05 3.73567e-07
-2.08648e-05 0.000122466 -2.46954e-07
3.73567e-07 -2.46954e-07 4.14473e-05
0.00131738 1.9994e-05 -1.50929e-06
1.9994e-05 3.84327e-05 -3.79818e-06
-1.50929e-06 -3.79818e-06 -1.20235e-05
0.00141277 -2.36304e-05 -2.04292e-06
-2.36304e-05 2.53744e-05 -2.16071e-06
-2.04292e-06 -2.16071e-06 9.82451e-06
0.00144805 -3.14984e-05 1.50771e-06
-3.14984e-05 0.000141692 2.15478e-06
1.50771e-06 2.15478e-06 7.3104e-05
0.00116565 -2.81645e-05 1.66543e-07
-2.81645e-05 8.39787e-05 -2.07496e-07
1.66543e-07 -2.07496e-07 7.09878e-06
0.00105616 4.92969e-06 -1.96464e-07
4.92969e-06 3.60943e-05 -3.70607e-07
-1.96464e-07 -3.70607e-07 -2.96034e-05
0.0010577 -1.37442e-05 7.64842e-08
-1.37442e-05 3.58317e-05 -1.05757e-06
7.64842e-08 -1.05757e-06 -3.24592e-05
0.00111968 -1.85264e-05 1.98368e-07
-1.85264e-05 6.61237e-05 -3.33831e-07
1.98368e-07 -3.33831e-07 -1.4618e-05
0.00122053 -2.20988e-05 8.64756e-07
-2.20988e-05 0.000114211 2.81108e-07
8.64756e-07 2.81108e-07 2.571e-05
0.00107224 2.37957e-05 -1.96957e-06
2.37957e-05 -0.000528591 2.34183e-06
-1.96957e-06 2.34183e-06 -0.00072141
0.00118912 1.81037e-05 -6.09832e-08
1.81037e-05 0.000100732 -1.62364e-07
-6.09832e-08 -1.62364e-07 2.89559e-05
0.00106777 1.99476e-05 1.41848e-07
1.99476e-05 3.2712e-05 3.55483e-07
1.41848e-07 3.55483e-07 -4.34692e-05
0.00100732 -3.80949e-07 -6.93497e-07
-3.80949e-07 -0.000104459 8.67215e-07
-6.93497e-07 8.67215e-07 -0.00013379
0.00161257 2.90431e-05 -9.72232e-07
2.90431e-05 0.000132652 -1.59864e-07
-9.72232e-07 -1.59864e-07 8.28336e-05
0.00136027 3.23732e-05 -1.41971e-06
3.23732e-05 0.000150003 1.22926e-06
-1.41971e-06 1.22926e-06 5.82413e-05
0.00104569 2.36788e-05 1.24242e-07
2.36788e-05 2.48005e-05 -1.37015e-07
1.24242e-07 -1.37015e-07 -6.07597e-05
0.00233071 -3.73918e-05 5.36215e-06
-3.73918e-05 0.000353069 8.84532e-06
5.36215e-06 8.84532e-06 0.000352489
0.00118259 1.80718e-05 5.95052e-08
1.80718e-05 0.000100289 -1.46193e-07
5.95052e-08 -1.46193e-07 2.45011e-05
0.00144358 3.26961e-05 2.04262e-06
3.26961e-05 -2.69714e-05 -8.14755e-08
2.04262e-06 -8.14755e-08 -8.25702e-05
0.00114956 2.10633e-05 -2.68827e-08
2.10633e-05 8.23624e-05 -2.61564e-07
-2.68827e-08 -2.61564e-07 1.93855e-06
0.001133 2.69502e-05 -6.65732e-07
2.69502e-05 8.6965e-05 7.00858e-07
-6.65732e-07 7.00858e-07 -1.16136e-05
0.00095119 3.80454e-05 1.02209e-07
3.80454e-05 -0.000103348 -2.55956e-07
1.02209e-07 -2.55956e-07 -0.000190381
0.000579891 3.38947e-05 -1.0948e-05
3.38947e-05 -0.000465285 -2.39642e-06
-1.0948e-05 -2.39642e-06 -0.000738881
0.00194229 -6.68406e-06 7.93083e-06
-6.68406e-06 0.000216147 -1.61441e-06
7.93083e-06 -1.61441e-06 1.62628e-06
0.00215706 5.11716e-06 -2.032e-06
5.11716e-06 0.00011064 -5.67712e-07
-2.032e-06 -5.67712e-07 0.000128971
-0.000374289 -3.63757e-05 -1.04045e-05
-3.63757e-05 -0.000339599 -3.72249e-06
-1.04045e-05 -3.72249e-06 -0.000393045
0.000428084 -5.09739e-05 -1.83267e-06
-5.09739e-05 -0.000126532 7.39484e-07
-1.83267e-06 7.39484e-07 -1.0577e-05
0.00114788 1.75097e-05 8.20871e-08
1.75097e-05 9.17734e-05 -4.36494e-07
8.20871e-08 -4.36494e-07 1.48664e-05
0.000542382 1.90874e-05 -6.06726e-05
1.90874e-05 9.67695e-05 -6.72748e-06
-6.06726e-05 -6.72748e-06 5.65984e-06
0.00121075 -2.68482e-05 7.70132e-06
-2.68482e-05 0.000440581 6.28377e-06
7.70132e-06 6.28377e-06 0.000500139
0.00130813 5.07848e-05 4.73387e-06
5.07848e-05 -3.25743e-06 4.34847e-06
4.73387e-06 4.34847e-06 -9.4781e-05
0.00124083 2.10887e-05 -5.60304e-07
2.10887e-05 0.000156861 8.82728e-08
-5.60304e-07 8.82728e-08 6.87124e-05
0.00134577 3.19975e-05 -2.13512e-06
3.19975e-05 0.000217157 -3.68835e-07
-2.13512e-06 -3.68835e-07 9.97039e-05
0.00218356 1.77186e-05 -2.48745e-05
1.77186e-05 0.000269936 -2.69802e-05
-2.48745e-05 -2.69802e-05 0.000197274
0.00515606 2.02218e-05 -4.32117e-05
2.02218e-05 0.00148316 -1.78442e-05
-4.32117e-05 -1.78442e-05 0.00108688
0.00147186 4.08638e-05 2.54987e-05
4.08638e-05 0.000198801 2.2402e-05
2.54987e-05 2.2402e-05 -0.000122795
0.000135017 -8.86507e-05 -4.30789e-05
-8.86507e-05 4.58148e-06 -2.8497e-05
-4.30789e-05 -2.8497e-05 -5.24507e-06
-0.000489 -2.97182e-05 7.08883e-06
-2.97182e-05 -0.000650384 -1.21324e-06
7.08883e-06 -1.21324e-06 -0.000597299
0.00113418 1.6489e-05 -2.82543e-07
1.6489e-05 7.44319e-05 -1.27939e-07
-2.82543e-07 -1.27939e-07 1.13397e-06
0.0011743 1.62214e-05 -9.18494e-08
1.62214e-05 8.991e-05 2.5735e-08
-9.18494e-08 2.5735e-08 1.48468e-05
0.00116523 1.526e-05 -5.29011e-08
1.526e-05 7.84232e-05 -2.57724e-07
-5.29011e-08 -2.57724e-07 3.34474e-06
0.00107222 -1.19518e-06 2.24986e-08
-1.19518e-06 2.98279e-05 -5.70832e-07
2.24986e-08 -5.70832e-07 -1.3547e-05
0.00109265 -2.7363e-06 2.45508e-08
-2.7363e-06 4.5898e-05 -5.94785e-07
2.45508e-08 -5.94785e-07 -9.4554e-06
0.0010376 8.49065e-06 -2.38223e-07
8.49065e-06 1.89201e-05 -7.77821e-07
-2.38223e-07 -7.77821e-07 -4.47708e-05
0.00114218 1.03214e-05 -1.16673e-07
1.03214e-05 6.97234e-05 -6.20155e-07
-1.16673e-07 -6.20155e-07 1.19048e-06
0.00119202 9.95892e-06 -1.69112e-07
9.95892e-06 9.36983e-05 1.10366e-07
-1.69112e-07 1.10366e-07 2.05203e-05
0.000897745 -1.56469e-07 2.19536e-08
-1.56469e-07 -5.47837e-05 3.82148e-07
2.19536e-08 3.82148e-07 -9.93125e-05
0.0011415 1.40713e-05 -1.5107e-07
1.40713e-05 6.94016e-05 -4.7867e-07
-1.5107e-07 -4.7867e-07 1.55935e-06
0.00114321 6.07464e-06 2.66071e-08
6.07464e-06 7.03179e-05 3.31079e-07
2.66071e-08 3.31079e-07 6.43007e-06
0.00105134 8.27853e-07 4.38322e-08
8.27853e-07 2.57246e-05 -3.0013e-07
4.38322e-08 -3.0013e-07 -3.04072e-05
0.00116066 1.16143e-05 4.36532e-08
1.16143e-05 7.4827e-05 1.99396e-07
4.36532e-08 1.99396e-07 2.01891e-06
0.00109775 1.18779e-05 3.53073e-09
1.18779e-05 4.59172e-05 2.55581e-07
3.53073e-09 2.55581e-07 -2.45258e-05
0.0011773 9.71064e-06 1.11391e-08
9.71064e-06 8.41354e-05 -8.7794e-08
1.11391e-08 -8.7794e-08 1.00438e-05
0.00113346 -3.88057e-06 -8.58965e-08
-3.88057e-06 6.6988e-05 4.04118e-07
-8.58965e-08 4.04118e-07 1.96881e-06
0.00114225 -4.2294e-06 -3.8642e-08
-4.2294e-06 7.01088e-05 1.80994e-07
-3.8642e-08 1.80994e-07 1.45619e-05
0.00114891 -5.14553e-07 1.44217e-09
-5.14553e-07 7.35687e-05 -6.65805e-08
1.44217e-09 -6.65805e-08 1.81309e-05
0.00114839 -3.66849e-06 -4.62335e-08
-3.66849e-06 7.60441e-05 -3.10343e-07
-4.62335e-08 -3.10343e-07 1.18609e-05
0.00114355 2.06744e-06 -1.1655e-07
2.06744e-06 7.34167e-05 4.51146e-07
-1.1655e-07 4.51146e-07 8.91746e-06
0.001118 -7.73238e-06 -1.005e-07
-7.73238e-06 6.23698e-05 4.10758e-07
-1.005e-07 4.10758e-07 -2.87753e-06
0.00115271 -1.02978e-05 -1.26486e-08
-1.02978e-05 8.05157e-05 -1.99337e-07
-1.26486e-08 -1.99337e-07 1.11638e-05
0.00110381 -1.54994e-05 -6.46895e-07
-1.54994e-05 5.40899e-05 3.06067e-07
-6.46895e-07 3.06067e-07 -1.28774e-05
0.00108766 -6.70575e-06 -2.25142e-07
-6.70575e-06 4.49695e-05 6.41819e-07
-2.25142e-07 6.41819e-07 -1.27742e-05
0.00109564 -6.33198e-06 -6.30411e-09
-6.33198e-06 4.84259e-05 -1.27328e-08
-6.30411e-09 -1.27328e-08 -8.14038e-06
0.00107037 -3.54832e-06 -4.34382e-07
-3.54832e-06 2.95665e-05 9.98668e-07
-4.34382e-07 9.98668e-07 -1.45234e-05
0.000982014 -3.37587e-06 3.33339e-07
-3.37587e-06 -7.33423e-06 -1.02582e-06
3.33339e-07 -1.02582e-06 -6.40052e-05
0.00098824 -1.1717e-06 5.33757e-08
-1.1717e-06 -1.0545e-05 -4.69313e-09
5.33757e-08 -4.69313e-09 -5.47127e-05
0.00103639 2.95014e-06 -5.32486e-07
2.95014e-06 4.9716e-06 1.70003e-06
-5.32486e-07 1.70003e-06 -2.08056e-05
0.000900925 2.26295e-06 1.57438e-07
2.26295e-06 -5.31235e-05 -5.70729e-07
1.57438e-07 -5.70729e-07 -9.76313e-05
0.00103897 2.0258e-06 5.01215e-08
2.0258e-06 4.87315e-06 5.12755e-09
5.01215e-08 5.12755e-09 -2.0678e-05
0.00157232 2.89824e-06 -1.2601e-06
2.89824e-06 0.000256285 4.17674e-06
-1.2601e-06 4.17674e-06 0.000260763
0.00103951 8.94362e-07 2.35207e-07
8.94362e-07 4.44332e-06 -1.72759e-06
2.35207e-07 -1.72759e-06 -2.10222e-05
0.00127657 1.31978e-06 -2.65058e-07
1.31978e-06 0.000110723 5.90471e-07
-2.65058e-07 5.90471e-07 0.000114081
0.00118048 1.16974e-06 -7.50912e-07
1.16974e-06 5.93787e-05 3.7474e-06
-7.50912e-07 3.7474e-06 7.86443e-05
0.000981908 -3.09153e-07 8.08697e-08
-3.09153e-07 -3.34559e-05 -3.03357e-06
8.08697e-08 -3.03357e-06 -3.13028e-05
0.0023118 -4.36046e-07 3.69741e-07
-4.36046e-07 0.000612835 2.43614e-10
3.69741e-07 2.43614e-10 0.000637538
0.00116985 -1.94254e-06 -4.2305e-07
-1.94254e-06 5.53035e-05 -3.75685e-06
-4.2305e-07 -3.75685e-06 7.45925e-05
0.00108604 -1.2342e-06 -3.13438e-08
-1.2342e-06 3.29292e-05 -5.46688e-07
-3.13438e-08 -5.46688e-07 -4.56926e-06
0.00103577 -8.05624e-09 -1.57201e-08
-8.05624e-09 8.81262e-07 -1.75942e-06
-1.57201e-08 -1.75942e-06 -1.99123e-05
0.00103936 1.22187e-06 -6.09349e-08
1.22187e-06 3.28557e-06 -1.38607e-09
-6.09349e-08 -1.38607e-09 -1.8005e-05
0.000975747 1.57866e-06 2.61287e-07
1.57866e-06 -3.59731e-05 -3.00066e-06
2.61287e-07 -3.00066e-06 -3.13216e-05
0.0010421 2.35899e-06 -3.93517e-07
2.35899e-06 5.8149e-06 1.76805e-06
-3.93517e-07 1.76805e-06 -1.64049e-05
0.000971384 3.12667e-06 2.994e-08
3.12667e-06 -3.70863e-05 -5.89996e-07
2.994e-08 -5.89996e-07 -3.29874e-05
0.00224478 3.95125e-06 1.91026e-06
3.95125e-06 0.000581265 -3.75234e-06
1.91026e-06 -3.75234e-06 0.000606611
0.00150451 5.08477e-06 -9.45532e-07
5.08477e-06 0.000225741 1.81731e-06
-9.45532e-07 1.81731e-06 0.000231404
0.00172953 5.61866e-06 -8.46148e-08
5.61866e-06 0.000332076 1.12553e-06
-8.46148e-08 1.12553e-06 0.000354049
0.00120187 7.01072e-06 -4.47089e-06
7.01072e-06 7.76767e-05 6.041e-06
-4.47089e-06 6.041e-06 9.60507e-05
0.000931412 -4.22061e-05 1.19874e-06
-4.22061e-05 -6.17503e-05 1.9095e-06
1.19874e-06 1.9095e-06 -4.81174e-05
0.000862128 -3.03984e-06 -2.78466e-07
-3.03984e-06 -7.75254e-05 -6.09398e-07
-2.78466e-07 -6.09398e-07 -0.000142034
0.000864026 -4.62189e-06 -2.39786e-07
-4.62189e-06 -4.89792e-05 -5.0831e-06
-2.39786e-07 -5.0831e-06 -9.30567e-05
0.000649537 -3.19505e-05 2.84965e-05
-3.19505e-05 -0.000183774 4.43181e-06
2.84965e-05 4.43181e-06 -0.000264017
0.000713437 -1.27786e-05 -2.61674e-06
-1.27786e-05 4.4964e-05 4.96332e-07
-2.61674e-06 4.96332e-07 2.73504e-05
0.00103393 1.95341e-05 -5.64065e-07
1.95341e-05 -2.55468e-05 -8.16616e-07
-5.64065e-07 -8.16616e-07 -0.00010099
0.00106319 3.06589e-05 -2.61084e-06
3.06589e-05 0.000109174 4.61255e-06
-2.61084e-06 4.61255e-06 3.73166e-05
0.000684336 1.39639e-08 6.468e-05
1.39639e-08 -0.000253555 7.09728e-06
6.468e-05 7.09728e-06 -0.000386947
0.00513321 4.97393e-06 -2.66282e-05
4.97393e-06 0.00125978 9.6377e-06
-2.66282e-05 9.6377e-06 0.000942035
0.00177451 6.56011e-05 -1.85418e-05
6.56011e-05 0.000763886 1.02888e-05
-1.85418e-05 1.02888e-05 0.000686017
0.00105296 3.83564e-05 -9.25193e-07
3.83564e-05 0.00031431 -1.16805e-06
-9.25193e-07 -1.16805e-06 0.000399869
0.000928246 -2.08235e-07 1.60921e-07
-2.08235e-07 -3.60997e-05 -9.28955e-07
1.60921e-07 -9.28955e-07 -8.56409e-05
0.00107912 -7.15451e-07 1.49313e-07
-7.15451e-07 2.90522e-05 1.49472e-08
1.49313e-07 1.49472e-08 -8.27732e-06
0.00108573 -1.17751e-06 -2.05302e-07
-1.17751e-06 3.30332e-05 1.04066e-06
-2.05302e-07 1.04066e-06 -5.42889e-06
0.00102964 8.95871e-06 -2.75649e-08
8.95871e-06 1.36869e-05 2.69411e-08
-2.75649e-08 2.69411e-08 -3.70991e-05
0.0011897 1.69245e-05 -9.85646e-09
1.69245e-05 9.55913e-05 2.45476e-07
-9.85646e-09 2.45476e-07 3.66461e-05
0.00113818 9.51463e-06 1.07295e-07
9.51463e-06 6.85029e-05 1.71961e-07
1.07295e-07 1.71961e-07 1.27072e-05
0.0011301 -5.20208e-07 1.4963e-07
-5.20208e-07 6.43656e-05 -1.21263e-06
1.4963e-07 -1.21263e-06 1.44035e-05
0.00103273 -6.57264e-06 1.4695e-08
-6.57264e-06 1.54937e-05 3.74425e-07
1.4695e-08 3.74425e-07 -3.30735e-05
0.00136658 2.18655e-05 7.35981e-07
2.18655e-05 9.60259e-05 1.69536e-06
7.35981e-07 1.69536e-06 2.60884e-05
0.00159045 -2.58305e-06 4.62695e-06
-2.58305e-06 0.000159551 1.26158e-06
4.62695e-06 1.26158e-06 0.000129386
0.00109503 -2.25391e-05 -1.39756e-06
-2.25391e-05 -7.68523e-05 -3.01066e-06
-1.39756e-06 -3.01066e-06 -0.000116174
0.00123316 -2.43958e-05 5.15333e-07
-2.43958e-05 0.000117327 7.91101e-08
5.15333e-07 7.91101e-08 4.43388e-05
0.00110221 -2.61567e-05 3.63528e-07
-2.61567e-05 3.38402e-05 -1.26123e-07
3.63528e-07 -1.26123e-07 -3.7357e-05
0.00114516 -2.30019e-05 -9.66856e-07
-2.30019e-05 7.18286e-05 -3.50421e-07
-9.66856e-07 -3.50421e-07 -6.37087e-06
0.00123572 -2.06333e-05 -6.27657e-08
-2.06333e-05 0.000119409 -7.62521e-08
-6.27657e-08 -7.62521e-08 3.8739e-05
0.00112872 -1.90225e-05 -7.99648e-07
-1.90225e-05 6.06475e-05 8.57073e-07
-7.99648e-07 8.57073e-07 -1.16459e-05
0.00110567 -7.11153e-06 -2.20976e-07
-7.11153e-06 5.3789e-05 7.8876e-07
-2.20976e-07 7.8876e-07 -2.28584e-06
0.001263 -1.55099e-05 -1.53977e-07
-1.55099e-05 0.000135627 3.2798e-07
-1.53977e-07 3.2798e-07 6.56099e-05
0.00126884 8.76505e-06 -2.44939e-09
8.76505e-06 0.000131106 2.73986e-07
-2.44939e-09 2.73986e-07 7.97231e-05
0.00104609 -4.81206e-06 -5.07171e-08
-4.81206e-06 3.11026e-05 1.20962e-06
-5.07171e-08 1.20962e-06 -3.11583e-05
0.00153223 2.11008e-05 1.16906e-06
2.11008e-05 0.000137638 -2.46289e-07
1.16906e-06 -2.46289e-07 8.59858e-05
0.00107228 4.09341e-06 -1.59554e-07
4.09341e-06 4.34898e-05 1.8379e-07
-1.59554e-07 1.8379e-07 -2.19096e-05
0.00113347 -1.43005e-05 7.41208e-08
-1.43005e-05 7.32391e-05 -2.99148e-07
7.41208e-08 -2.99148e-07 5.20389e-06
0.00136065 -2.29851e-05 -2.86445e-06
-2.29851e-05 4.7942e-06 -1.52353e-06
-2.86445e-06 -1.52353e-06 -1.0184e-05
0.00108427 -2.93053e-05 1.1857e-06
-2.93053e-05 -2.62918e-05 8.47365e-07
1.1857e-06 8.47365e-07 -9.26863e-05
0.00118355 -2.84712e-05 -3.51757e-07
-2.84712e-05 8.92533e-05 -1.20038e-07
-3.51757e-07 -1.20038e-07 1.08178e-05
0.00114129 -1.85207e-05 -3.62094e-08
-1.85207e-05 7.72027e-05 -2.16977e-07
-3.62094e-08 -2.16977e-07 -3.28906e-06
0.00117801 -2.17978e-05 2.14378e-07
-2.17978e-05 9.2846e-05 2.82705e-07
2.14378e-07 2.82705e-07 4.96532e-06
0.00220097 1.46716e-06 -5.79962e-06
1.46716e-06 0.000280243 7.60078e-07
-5.79962e-06 7.60078e-07 0.000293858
0.0016079 -4.03785e-05 2.93941e-06
-4.03785e-05 0.000191572 2.90967e-06
2.93941e-06 2.90967e-06 0.000136561
0.000656106 -3.09121e-05 -4.17292e-07
-3.09121e-05 -0.000177989 -2.80409e-07
-4.17292e-07 -2.80409e-07 -0.000258978
0.00125098 -2.84371e-05 3.84662e-07
-2.84371e-05 0.000125419 6.56152e-07
3.84662e-07 6.56152e-07 3.37926e-05
0.00106128 -1.26113e-05 -1.34959e-08
-1.26113e-05 4.16943e-05 -6.48732e-07
-1.34959e-08 -6.48732e-07 -3.19598e-05
0.00114699 -1.68388e-05 -5.75876e-08
-1.68388e-05 8.54828e-05 -6.33005e-07
-5.75876e-08 -6.33005e-07 7.56517e-06
0.00131131 -1.97169e-05 6.81024e-08
-1.97169e-05 0.000166867 -5.16606e-07
6.81024e-08 -5.16606e-07 7.61629e-05
-0.00204553 2.64049e-06 -5.60851e-05
2.64049e-06 -0.000796049 1.12795e-06
-5.60851e-05 1.12795e-06 -0.000721077
0.00508559 1.34654e-05 -1.82248e-05
1.34654e-05 0.00152088 1.19785e-06
-1.82248e-05 1.19785e-06 0.00129646
0.00115059 1.77681e-05 2.31511e-07
1.77681e-05 8.57794e-05 -1.35525e-08
2.31511e-07 -1.35525e-08 1.02655e-05
0.00103455 1.99914e-05 7.66638e-07
1.99914e-05 2.80519e-05 -3.07269e-07
7.66638e-07 -3.07269e-07 -5.18595e-05
0.00191695 3.23637e-05 -4.6069e-06
3.23637e-05 0.00019402 9.68567e-08
-4.6069e-06 9.68567e-08 0.000138966
0.00129715 3.9067e-05 -1.0432e-06
3.9067e-05 5.54834e-05 5.48394e-07
-1.0432e-06 5.48394e-07 -2.79406e-05
0.00096842 2.53902e-05 -2.15861e-07
2.53902e-05 7.25191e-06 -5.73677e-07
-2.15861e-07 -5.73677e-07 -9.07896e-05
0.00566714 6.43299e-05 9.22807e-07
6.43299e-05 0.00145052 4.95034e-06
9.22807e-07 4.95034e-06 0.00110808
3.18322e-05 -2.90803e-05 -2.13731e-05
-2.90803e-05 -0.000199574 -1.12412e-05
-2.13731e-05 -1.12412e-05 -0.000343049
0.00226949 1.39334e-05 1.40021e-05
1.39334e-05 0.000165538 9.50969e-06
1.40021e-05 9.50969e-06 0.000172791
0.00183181 -5.5072e-05 1.8358e-05
-5.5072e-05 0.000792206 9.37094e-06
1.8358e-05 9.37094e-06 0.000709149
2.60618e-05 -5.18994e-05 5.30055e-06
-5.18994e-05 -0.000327193 3.3153e-06
5.30055e-06 3.3153e-06 -0.000221204
0.00113779 1.74334e-05 2.10438e-07
1.74334e-05 8.62426e-05 -9.21211e-08
2.10438e-07 -9.21211e-08 9.32558e-06
-0.00167154 8.62813e-06 -1.31269e-05
8.62813e-06 -0.000536856 -1.37326e-06
-1.31269e-05 -1.37326e-06 -0.000515409
0.000994269 -2.56723e-05 4.19767e-07
-2.56723e-05 0.000348003 -3.40827e-08
4.19767e-07 -3.40827e-08 0.000402069
0.00159586 5.23829e-05 1.37049e-06
5.23829e-05 0.000126798 1.4705e-06
1.37049e-06 1.4705e-06 3.55671e-05
0.0011159 1.98381e-05 2.90692e-07
1.98381e-05 9.52238e-05 -7.21328e-07
2.90692e-07 -7.21328e-07 8.02407e-06
0.00106553 2.95645e-05 1.13529e-08
2.95645e-05 8.88821e-05 3.3067e-07
1.13529e-08 3.3067e-07 -2.46948e-05
0.00207274 2.21808e-05 -1.64475e-05
2.21808e-05 0.000245433 -1.57574e-05
-1.64475e-05 -1.57574e-05 0.000169341
0.00373447 6.21257e-05 8.19921e-06
6.21257e-05 0.000650583 5.88118e-06
8.19921e-06 5.88118e-06 0.000170228
4.52917e-05 1.73244e-05 -6.37554e-06
1.73244e-05 -0.000190373 -1.02224e-05
-6.37554e-06 -1.02224e-05 -0.000314447
0.00166385 -0.000112653 1.57138e-07
-0.000112653 0.000358541 4.74922e-06
1.57138e-07 4.74922e-06 0.000258992
-0.000785109 -3.45867e-05 -7.43493e-07
-3.45867e-05 -0.000856241 -8.7932e-06
-7.43493e-07 -8.7932e-06 -0.000777107
0.00111929 1.53907e-05 -1.37066e-07
1.53907e-05 7.8578e-05 -4.94108e-07
-1.37066e-07 -4.94108e-07 7.60412e-07
8.98445e-05 -5.95316e-06 1.09987e-05
-5.95316e-06 -0.000124034 4.91855e-06
1.09987e-05 4.91855e-06 -0.00011581
0.000771331 -8.92337e-06 1.12948e-05
-8.92337e-06 0.000188001 1.58083e-05
1.12948e-05 1.58083e-05 0.000171382
0.00143313 3.16691e-05 6.43184e-06
3.16691e-05 0.000263126 4.77252e-06
6.43184e-06 4.77252e-06 0.000120333
0.00118757 1.73148e-05 -4.0891e-06
1.73148e-05 0.000164458 -1.13336e-06
-4.0891e-06 -1.13336e-06 6.4478e-05
0.00305525 1.72427e-05 -8.72976e-06
1.72427e-05 0.00107022 -6.33847e-06
-8.72976e-06 -6.33847e-06 0.00101366
-0.000862396 4.07735e-05 -1.15908e-05
4.07735e-05 -0.000544339 -8.85417e-06
-1.15908e-05 -8.85417e-06 -0.000621848
0.0034193 -9.94831e-06 3.26665e-05
-9.94831e-06 0.000346887 2.04944e-05
3.26665e-05 2.04944e-05 -0.000156434
0.00229092 -0.000153435 -1.51917e-05
-0.000153435 0.000458044 -2.60311e-05
-1.51917e-05 -2.60311e-05 0.000354866
8.40581e-05 -1.00766e-05 5.98859e-06
-1.00766e-05 -0.000278027 1.4457e-06
5.98859e-06 1.4457e-06 -0.000294508
0.00119264 1.66617e-05 -1.5282e-07
1.66617e-05 9.87491e-05 4.97931e-07
-1.5282e-07 4.97931e-07 2.36359e-05
0.00116613 1.51048e-05 3.96131e-08
1.51048e-05 7.90864e-05 8.33699e-08
3.96131e-08 8.33699e-08 3.81213e-06
0.0011402 1.17892e-05 1.49669e-07
1.17892e-05 7.06459e-05 -4.02072e-08
1.49669e-07 -4.02072e-08 -4.9697e-06
0.000900278 3.03673e-06 9.89761e-08
3.03673e-06 -5.35872e-05 -5.64072e-07
9.89761e-08 -5.64072e-07 -9.81306e-05
0.00113709 2.67482e-06 2.40507e-08
2.67482e-06 6.73944e-05 -8.61074e-07
2.40507e-08 -8.61074e-07 1.18242e-05
0.00123066 -7.73854e-08 1.54755e-08
-7.73854e-08 0.000113421 -3.97172e-08
1.54755e-08 -3.97172e-08 5.03012e-05
0.0010997 1.16833e-05 -2.09911e-07
1.16833e-05 4.83484e-05 -8.08878e-07
-2.09911e-07 -8.08878e-07 -1.94057e-05
0.00112411 1.23693e-05 2.6214e-08
1.23693e-05 5.68996e-05 1.33842e-07
2.6214e-08 1.33842e-07 -1.61968e-05
0.00113938 2.96947e-06 8.38956e-08
2.96947e-06 6.88124e-05 -3.80727e-07
8.38956e-08 -3.80727e-07 1.32099e-05
0.00113013 1.11912e-05 2.70568e-08
1.11912e-05 6.20532e-05 1.06942e-07
2.70568e-08 1.06942e-07 -7.86635e-06
0.00114129 8.55649e-07 -5.84448e-08
8.55649e-07 7.07979e-05 8.88283e-08
-5.84448e-08 8.88283e-08 5.74395e-06
0.00117177 1.03352e-05 -1.80711e-08
1.03352e-05 8.15471e-05 4.99122e-08
-1.80711e-08 4.99122e-08 7.27941e-06
0.00113429 8.59883e-06 -3.26123e-08
8.59883e-06 6.97402e-05 -3.39039e-07
-3.26123e-08 -3.39039e-07 -6.28551e-06
0.00117046 7.42974e-06 6.28925e-08
7.42974e-06 8.39551e-05 2.31673e-07
6.28925e-08 2.31673e-07 1.18044e-05
0.0011481 2.81939e-06 3.13384e-08
2.81939e-06 7.45304e-05 4.04152e-07
3.13384e-08 4.04152e-07 9.61043e-06
0.00114539 -1.89179e-06 5.65804e-08
-1.89179e-06 7.19973e-05 -6.67718e-07
5.65804e-08 -6.67718e-07 1.65553e-05
0.00105588 -9.99821e-06 2.55092e-07
-9.99821e-06 3.07948e-05 -8.00204e-07
2.55092e-07 -8.00204e-07 -3.40724e-05
0.00115001 9.72635e-07 4.84193e-08
9.72635e-07 7.61376e-05 -3.82145e-08
4.84193e-08 -3.82145e-08 1.16596e-05
0.00112248 -8.43709e-06 -2.31072e-08
-8.43709e-06 6.44444e-05 1.13941e-08
-2.31072e-08 1.13941e-08 -8.74846e-07
0.00112019 -1.27488e-05 1.82024e-07
-1.27488e-05 6.44952e-05 -4.39188e-07
1.82024e-07 -4.39188e-07 -4.6385e-06
0.00109657 -1.23517e-05 -2.67993e-07
-1.23517e-05 5.37285e-05 6.73563e-07
-2.67993e-07 6.73563e-07 -1.32571e-05
0.00117531 -5.99806e-06 -1.78989e-07
-5.99806e-06 9.01806e-05 -3.22126e-08
-1.78989e-07 -3.22126e-08 1.94155e-05
0.00103683 -1.58078e-05 4.37345e-08
-1.58078e-05 2.58825e-05 8.26302e-08
4.37345e-08 8.26302e-08 -4.60502e-05
0.0011317 -1.72088e-05 -1.92111e-07
-1.72088e-05 6.48668e-05 -7.05538e-07
-1.92111e-07 -7.05538e-07 -4.59428e-06
0.00101813 -1.87022e-05 -2.86046e-09
-1.87022e-05 9.38001e-06 -1.29411e-07
-2.86046e-09 -1.29411e-07 -5.49229e-05
0.0010521 -1.69491e-05 -5.36245e-07
-1.69491e-05 2.5454e-05 -3.11927e-07
-5.36245e-07 -3.11927e-07 -3.93665e-05
0.00111513 -1.51133e-05 -2.55505e-07
-1.51133e-05 5.91819e-05 2.10812e-07
-2.55505e-07 2.10812e-07 -7.6786e-06
0.00109821 -1.07455e-05 -7.06964e-07
-1.07455e-05 4.9135e-05 8.97914e-07
-7.06964e-07 8.97914e-07 -9.25454e-06
0.00109654 -7.89967e-06 5.85144e-09
-7.89967e-06 4.9282e-05 -1.82799e-08
5.85144e-09 -1.82799e-08 -8.53043e-06
0.00106666 -3.47272e-06 -5.51537e-07
-3.47272e-06 2.82141e-05 1.01468e-06
-5.51537e-07 1.01468e-06 -1.65942e-05
0.00110004 -8.67322e-06 2.96684e-07
-8.67322e-06 5.06561e-05 -6.1695e-07
2.96684e-07 -6.1695e-07 -5.94455e-06
0.00107144 -2.82986e-06 5.6798e-08
-2.82986e-06 3.00842e-05 -8.64998e-09
5.6798e-08 -8.64998e-09 -1.40257e-05
0.00103119 3.67096e-06 -7.31782e-07
3.67096e-06 3.98081e-06 1.68885e-06
-7.31782e-07 1.68885e-06 -2.21585e-05
0.000902909 -1.2901e-06 3.45163e-07
-1.2901e-06 -5.20141e-05 -9.87965e-07
3.45163e-07 -9.87965e-07 -9.67059e-05
0.0010365 2.93155e-06 4.90774e-08
2.93155e-06 4.92547e-06 3.86752e-09
4.90774e-08 3.86752e-09 -2.08439e-05
0.00157025 4.45713e-06 -1.95502e-06
4.45713e-06 0.000257109 4.14299e-06
-1.95502e-06 4.14299e-06 0.000261274
0.00103844 1.99517e-06 4.35265e-07
1.99517e-06 4.52305e-06 -1.72105e-06
4.35265e-07 -1.72105e-06 -2.10122e-05
0.00127385 2.93246e-06 -4.34972e-07
2.93246e-06 0.000110411 5.88139e-07
-4.34972e-07 5.88139e-07 0.00011358
0.00113038 3.26225e-06 -5.18923e-07
3.26225e-06 3.59183e-05 1.46459e-06
-5.18923e-07 1.46459e-06 5.52305e-05
0.000982642 1.26785e-06 3.85288e-07
1.26785e-06 -3.30971e-05 -3.01523e-06
3.85288e-07 -3.01523e-06 -3.10344e-05
0.00231899 1.58135e-06 3.49383e-07
1.58135e-06 0.000616252 4.11396e-09
3.49383e-07 4.11396e-09 0.000640913
0.0023082 -3.52685e-07 4.6837e-07
-3.52685e-07 0.000611066 -3.84044e-06
4.6837e-07 -3.84044e-06 0.00063578
0.00131057 2.36281e-07 -1.62219e-07
2.36281e-07 0.000143839 -8.06025e-07
-1.62219e-07 -8.06025e-07 0.000106803
0.00104451 -1.06433e-06 -2.28606e-07
-1.06433e-06 5.55867e-06 -1.7689e-06
-2.28606e-07 -1.7689e-06 -1.54414e-05
0.00107868 -1.78235e-06 -5.94927e-08
-1.78235e-06 2.94184e-05 3.84535e-07
-5.94927e-08 3.84535e-07 -8.04386e-06
0.000978498 1.62763e-08 -6.87154e-08
1.62763e-08 -3.49913e-05 -3.01496e-06
-6.87154e-08 -3.01496e-06 -3.01854e-05
0.00103854 -1.9735e-08 -1.43454e-08
-1.9735e-08 2.24603e-06 2.3163e-09
-1.43454e-08 2.3163e-09 -1.85799e-05
0.00104447 1.20115e-06 -2.25264e-07
1.20115e-06 5.75247e-06 1.78287e-06
-2.25264e-07 1.78287e-06 -1.55797e-05
0.000979902 1.58904e-06 -5.56261e-08
1.58904e-06 -3.39345e-05 -1.15703e-09
-5.56261e-08 -1.15703e-09 -2.93196e-05
0.00223322 1.96467e-06 8.27426e-07
1.96467e-06 0.000574522 -3.78744e-06
8.27426e-07 -3.78744e-06 0.000600168
0.00150418 3.47458e-06 -6.46997e-07
3.47458e-06 0.000223471 1.84393e-06
-6.46997e-07 1.84393e-06 0.000230081
0.00169913 3.81328e-06 4.20878e-07
3.81328e-06 0.000314721 9.329e-09
4.20878e-07 9.329e-09 0.000337483
0.00121468 5.23692e-06 -3.62404e-06
5.23692e-06 8.01631e-05 6.01618e-06
-3.62404e-06 6.01618e-06 9.95381e-05
-0.00377535 2.34687e-05 -3.16953e-05
2.34687e-05 -0.00179487 9.66981e-06
-3.16953e-05 9.66981e-06 -0.00176675
-0.00121111 2.8621e-05 7.36191e-07
2.8621e-05 -0.000954785 -6.68299e-07
7.36191e-07 -6.68299e-07 -0.00093105
0.000172217 -2.50299e-05 -2.7646e-05
-2.50299e-05 -0.00019082 -5.99807e-06
-2.7646e-05 -5.99807e-06 -0.000264618
0.000224598 -1.55914e-05 1.89434e-06
-1.55914e-05 -0.000187053 -1.17065e-06
1.89434e-06 -1.17065e-06 -0.00020033
0.00115099 2.1105e-05 -3.67671e-06
2.1105e-05 1.61251e-05 -2.63536e-06
-3.67671e-06 -2.63536e-06 -6.23583e-05
0.00036166 -4.9348e-06 1.11322e-05
-4.9348e-06 -5.99925e-06 -3.18017e-08
1.11322e-05 -3.18017e-08 -5.86493e-05
0.00131103 3.37359e-05 5.88719e-07
3.37359e-05 0.000192762 2.43351e-06
5.88719e-07 2.43351e-06 0.000120985
0.00304466 -6.92486e-06 -1.76166e-05
-6.92486e-06 0.000549176 1.9861e-06
-1.76166e-05 1.9861e-06 0.000279065
-0.00136811 3.97702e-05 1.23607e-05
3.97702e-05 -0.000590476 -3.24089e-06
1.23607e-05 -3.24089e-06 -0.00060441
0.00049651 4.11391e-05 3.88295e-07
4.11391e-05 -1.81614e-05 1.23048e-06
3.88295e-07 1.23048e-06 6.31146e-05
0.00051021 1.29256e-05 1.34938e-05
1.29256e-05 -5.67476e-06 -1.11273e-05
1.34938e-05 -1.11273e-05 -0.000110591
0.00410547 1.44254e-05 -2.74984e-05
1.44254e-05 0.00107338 1.82525e-05
-2.74984e-05 1.82525e-05 0.000752882
0.000112631 8.01961e-05 -3.41879e-05
8.01961e-05 1.71019e-05 3.19972e-05
-3.41879e-05 3.19972e-05 1.60109e-05
0.00114639 2.86355e-05 3.21694e-06
2.86355e-05 0.000338769 -3.69443e-06
3.21694e-06 -3.69443e-06 0.000402577
0.00102412 5.87673e-06 -7.03569e-08
5.87673e-06 1.80693e-05 -9.23817e-07
-7.03569e-08 -9.23817e-07 -4.30832e-05
0.00101677 -6.75253e-08 9.42591e-08
-6.75253e-08 6.67943e-06 -4.01972e-07
9.42591e-08 -4.01972e-07 -4.22318e-05
0.00108335 -6.48819e-07 1.95058e-07
-6.48819e-07 3.11387e-05 9.59003e-07
1.95058e-07 9.59003e-07 -6.24688e-06
0.000986692 7.68947e-06 9.43999e-10
7.68947e-06 -6.96334e-06 5.39151e-07
9.43999e-10 5.39151e-07 -5.79695e-05
0.0011423 1.64582e-05 3.19512e-07
1.64582e-05 7.23386e-05 8.1896e-07
3.19512e-07 8.1896e-07 1.42114e-05
0.00118582 7.85773e-06 8.5827e-08
7.85773e-06 9.46706e-05 -4.28122e-07
8.5827e-08 -4.28122e-07 3.52142e-05
0.00110785 2.7947e-06 1.19846e-07
2.7947e-06 5.41369e-05 8.8963e-07
1.19846e-07 8.8963e-07 -1.20183e-06
0.00111139 -6.81177e-07 8.87541e-08
-6.81177e-07 5.69135e-05 -3.00753e-07
8.87541e-08 -3.00753e-07 3.22882e-06
0.00105387 -1.43569e-06 9.89913e-09
-1.43569e-06 2.72031e-05 -4.50504e-07
9.89913e-09 -4.50504e-07 -2.34255e-05
0.000982422 -1.02009e-05 -3.58521e-07
-1.02009e-05 -8.44887e-06 1.01788e-06
-3.58521e-07 1.01788e-06 -5.76028e-05
0.00167614 2.21319e-05 3.02412e-06
2.21319e-05 0.000201519 4.6435e-06
3.02412e-06 4.6435e-06 0.000149045
0.001309 -2.23761e-05 -3.16961e-06
-2.23761e-05 -1.55516e-05 -1.67269e-06
-3.16961e-06 -1.67269e-06 -2.95142e-05
0.00069912 -2.69759e-05 1.42809e-07
-2.69759e-05 -0.000204297 -7.18266e-07
1.42809e-07 -7.18266e-07 -0.000268447
0.00116927 -2.85259e-05 -3.09745e-07
-2.85259e-05 7.95306e-05 3.63873e-07
-3.09745e-07 3.63873e-07 -4.51331e-07
0.00113383 -2.149e-05 -3.26739e-07
-2.149e-05 7.06146e-05 -5.3984e-08
-3.26739e-07 -5.3984e-08 -1.66361e-05
0.0011614 -1.85097e-05 -1.28892e-07
-1.85097e-05 8.75816e-05 5.67076e-08
-1.28892e-07 5.67076e-08 7.33994e-06
0.0012042 -1.67329e-05 1.62097e-07
-1.67329e-05 0.000108273 8.22222e-08
1.62097e-07 8.22222e-08 4.05004e-05
0.0010874 3.55998e-06 1.27067e-07
3.55998e-06 5.03684e-05 7.62348e-07
1.27067e-07 7.62348e-07 -1.47209e-05
0.00171761 -4.02004e-06 -2.02834e-06
-4.02004e-06 6.0018e-05 -8.61125e-07
-2.02834e-06 -8.61125e-07 6.26641e-05
0.00104208 -7.30001e-06 -2.48698e-08
-7.30001e-06 3.31114e-05 -1.92713e-07
-2.48698e-08 -1.92713e-07 -4.11123e-05
0.00108114 -1.63886e-05 7.13224e-08
-1.63886e-05 5.37164e-05 -3.9804e-07
7.13224e-08 -3.9804e-07 -2.49475e-05
0.00133544 -3.83207e-05 1.43915e-06
-3.83207e-05 6.19749e-05 1.07888e-06
1.43915e-06 1.07888e-06 1.16237e-05
0.000937465 -3.30479e-05 -7.56418e-07
-3.30479e-05 -5.00727e-05 1.30322e-07
-7.56418e-07 1.30322e-07 -0.0001319
0.00118459 -2.78892e-05 3.43918e-07
-2.78892e-05 9.15514e-05 -1.48951e-07
3.43918e-07 -1.48951e-07 -1.33464e-06
0.00124423 -1.92156e-05 1.12078e-07
-1.92156e-05 0.000134142 -2.43857e-07
1.12078e-07 -2.43857e-07 4.2619e-05
0.00310438 -2.81146e-05 -4.6119e-06
-2.81146e-05 0.000612196 5.39653e-06
-4.6119e-06 5.39653e-06 0.000631801
0.000897028 -3.43821e-05 -1.49048e-07
-3.43821e-05 -2.43769e-05 2.26018e-07
-1.49048e-07 2.26018e-07 -0.000115636
0.00117155 -1.98363e-05 -4.55722e-07
-1.98363e-05 9.4061e-05 5.8036e-07
-4.55722e-07 5.8036e-07 -6.39661e-06
0.0010355 4.17561e-06 -1.10398e-08
4.17561e-06 3.06006e-05 4.00375e-07
-1.10398e-08 4.00375e-07 -4.3902e-05
0.001145 -1.33e-05 -1.0916e-07
-1.33e-05 8.72762e-05 -8.10653e-08
-1.0916e-07 -8.10653e-08 5.45307e-06
0.00124719 -1.63205e-05 -1.19063e-07
-1.63205e-05 0.000137297 -1.32605e-07
-1.19063e-07 -1.32605e-07 4.90055e-05
0.000770688 1.29174e-06 1.37834e-05
1.29174e-06 0.000237064 1.23246e-06
1.37834e-05 1.23246e-06 0.000228647
0.001415 6.23507e-06 5.60755e-07
6.23507e-06 0.000545057 -3.20586e-06
5.60755e-07 -3.20586e-06 0.000518504
0.000955769 5.3614e-05 -3.06746e-05
5.3614e-05 -0.000604768 4.19659e-06
-3.06746e-05 4.19659e-06 -0.000811329
0.00112385 1.73183e-05 3.23776e-07
1.73183e-05 7.88151e-05 1.76066e-07
3.23776e-07 1.76066e-07 1.89974e-06
0.000991598 1.85342e-05 1.46395e-06
1.85342e-05 3.33494e-05 -1.48197e-06
1.46395e-06 -1.48197e-06 -5.28477e-05
0.00188794 5.40947e-05 -1.81955e-06
5.40947e-05 0.000258188 -1.25786e-06
-1.81955e-06 -1.25786e-06 0.000167367
0.000796551 2.74429e-05 2.67766e-06
2.74429e-05 -3.29652e-05 5.33015e-07
2.67766e-06 5.33015e-07 -0.000142778
0.00204057 -2.48556e-05 1.49969e-05
-2.48556e-05 0.000929287 4.71332e-06
1.49969e-05 4.71332e-06 0.000904211
0.000454298 4.21098e-06 5.39329e-05
4.21098e-06 -0.000493551 3.7041e-05
5.39329e-05 3.7041e-05 -0.000748446
0.00184782 3.49548e-05 -6.72873e-05
3.49548e-05 0.000154867 -5.74279e-05
-6.72873e-05 -5.74279e-05 -3.45927e-05
0.00221742 2.8687e-05 6.46374e-06
2.8687e-05 0.0003512 1.39892e-06
6.46374e-06 1.39892e-06 0.00026892
-0.00161429 -8.52096e-05 3.6307e-05
-8.52096e-05 -0.0010423 3.40401e-05
3.6307e-05 3.40401e-05 -0.00105247
0.0026152 -2.36188e-05 -3.34663e-06
-2.36188e-05 0.0013235 -4.47634e-06
-3.34663e-06 -4.47634e-06 0.00137478
0.000949888 -4.24811e-05 -1.45513e-05
-4.24811e-05 0.000199856 -1.4072e-05
-1.45513e-05 -1.4072e-05 0.000271363
0.00117391 1.58228e-05 -7.85196e-08
1.58228e-05 0.000105715 -1.58158e-07
-7.85196e-08 -1.58158e-07 2.7779e-05
0.000704175 -7.11088e-06 5.1443e-06
-7.11088e-06 0.000225333 1.50413e-06
5.1443e-06 1.50413e-06 0.000232183
0.000561901 -9.54681e-06 2.78495e-06
-9.54681e-06 6.09071e-05 4.24715e-06
2.78495e-06 4.24715e-06 4.58962e-05
0.00119137 3.36645e-05 2.01174e-06
3.36645e-05 0.000150457 3.24028e-06
2.01174e-06 3.24028e-06 8.17342e-06
0.00104382 1.52834e-05 -3.39056e-07
1.52834e-05 9.88922e-05 -2.86746e-07
-3.39056e-07 -2.86746e-07 -9.15167e-07
0.00268014 1.59461e-05 7.5269e-06
1.59461e-05 0.000777307 1.04495e-05
7.5269e-06 1.04495e-05 0.000657542
0.00140389 6.243e-05 -1.24359e-05
6.243e-05 0.000108041 -3.82102e-05
-1.24359e-05 -3.82102e-05 -0.000124751
0.00511028 -5.60693e-05 4.60733e-06
-5.60693e-05 0.00122058 2.32093e-06
4.60733e-06 2.32093e-06 0.000786637
-0.000505696 -0.000119763 4.50569e-06
-0.000119763 -0.000561301 1.3506e-05
4.50569e-06 1.3506e-05 -0.000635149
0.000513476 -1.55495e-05 -2.31493e-06
-1.55495e-05 -5.20027e-05 -1.45828e-06
-2.31493e-06 -1.45828e-06 -5.50182e-05
0.00089083 1.0488e-05 -3.10473e-07
1.0488e-05 -2.29853e-05 -1.6064e-07
-3.10473e-07 -1.6064e-07 -0.000102155
0.00170329 7.39959e-07 1.19929e-05
7.39959e-07 0.000806087 4.7164e-06
1.19929e-05 4.7164e-06 0.00075465
0.000912463 5.61134e-06 8.12799e-06
5.61134e-06 0.000209052 3.23858e-06
8.12799e-06 3.23858e-06 0.000158938
0.00053173 2.57055e-06 1.07455e-06
2.57055e-06 -5.28492e-05 4.89575e-06
1.07455e-06 4.89575e-06 -0.000150456
-0.000982825 2.71313e-05 1.40785e-05
2.71313e-05 -0.000431499 1.89139e-05
1.40785e-05 1.89139e-05 -0.000486171
0.00500469 -9.45063e-05 -1.59865e-05
-9.45063e-05 0.00104704 -2.19537e-05
-1.59865e-05 -2.19537e-05 0.0005753
0.000429389 -9.97317e-05 -6.3077e-06
-9.97317e-05 -0.00073606 -3.07102e-05
-6.3077e-06 -3.07102e-05 -0.000558595
0.000167175 -3.84376e-06 -8.92435e-07
-3.84376e-06 -0.00024562 -2.00757e-06
-8.92435e-07 -2.00757e-06 -0.000290053
0.00116314 1.47952e-05 -4.24663e-08
1.47952e-05 7.78969e-05 2.71156e-07
-4.24663e-08 2.71156e-07 2.43461e-06
0.00116982 1.01299e-05 -1.01014e-07
1.01299e-05 8.40294e-05 2.27734e-07
-1.01014e-07 2.27734e-07 8.40382e-06
0.00136051 7.29822e-06 -3.06039e-07
7.29822e-06 0.000174779 -3.07364e-07
-3.06039e-07 -3.07364e-07 9.81837e-05
0.00113733 1.06135e-05 -3.58834e-08
1.06135e-05 6.78956e-05 -9.41564e-07
-3.58834e-08 -9.41564e-07 1.2234e-05
0.00115154 5.03761e-06 -1.91305e-09
5.03761e-06 7.56935e-05 -2.11589e-07
-1.91305e-09 -2.11589e-07 1.06212e-05
0.00116386 1.00602e-05 -1.38788e-08
1.00602e-05 7.88321e-05 -1.03721e-07
-1.38788e-08 -1.03721e-07 9.438e-06
0.00117178 1.01433e-05 -1.10779e-07
1.01433e-05 8.15494e-05 1.22822e-07
-1.10779e-07 1.22822e-07 7.12115e-06
0.00114647 8.80865e-06 2.72218e-08
8.80865e-06 7.37906e-05 6.98805e-09
2.72218e-08 6.98805e-09 8.80116e-06
0.00119113 1.00744e-05 3.9942e-08
1.00744e-05 9.36234e-05 2.36351e-07
3.9942e-08 2.36351e-07 2.14021e-05
0.00111341 8.44386e-06 -6.08973e-08
8.44386e-06 6.0115e-05 -1.2039e-07
-6.08973e-08 -1.2039e-07 -1.58713e-05
0.00112825 7.02803e-06 -1.00464e-07
7.02803e-06 7.79953e-05 -2.90162e-07
-1.00464e-07 -2.90162e-07 2.72514e-06
0.00114638 6.19628e-06 3.31784e-07
6.19628e-06 7.41998e-05 -1.29205e-07
3.31784e-07 -1.29205e-07 -3.15955e-06
0.00121527 5.30819e-06 2.29121e-08
5.30819e-06 0.000107117 1.94228e-07
2.29121e-08 1.94228e-07 3.53628e-05
0.00115584 -7.81921e-07 1.22924e-07
-7.81921e-07 7.85777e-05 -5.15395e-07
1.22924e-07 -5.15395e-07 1.41142e-05
0.00112731 -8.259e-06 1.12325e-07
-8.259e-06 6.66726e-05 -4.56145e-07
1.12325e-07 -4.56145e-07 1.29696e-06
0.00108519 -1.54407e-05 3.57451e-07
-1.54407e-05 4.7328e-05 -8.506e-07
3.57451e-07 -8.506e-07 -2.15832e-05
0.00118375 -5.37403e-06 1.3483e-08
-5.37403e-06 9.35868e-05 -2.2927e-07
1.3483e-08 -2.2927e-07 2.32008e-05
0.00111254 -9.75971e-06 -1.59492e-08
-9.75971e-06 6.13448e-05 1.59682e-07
-1.59492e-08 1.59682e-07 -5.6085e-06
0.00106899 -1.58162e-05 4.05383e-08
-1.58162e-05 4.08127e-05 -1.47319e-07
4.05383e-08 -1.47319e-07 -3.08104e-05
0.00112096 -1.61266e-05 -5.44001e-07
-1.61266e-05 6.51481e-05 -1.48465e-07
-5.44001e-07 -1.48465e-07 -7.54018e-06
0.00111859 -1.66427e-05 8.16021e-08
-1.66427e-05 6.75506e-05 4.19083e-09
8.16021e-08 4.19083e-09 -7.37811e-06
0.00118216 -1.95563e-05 4.59792e-08
-1.95563e-05 9.16103e-05 -2.94848e-07
4.59792e-08 -2.94848e-07 1.9444e-05
0.00114028 -1.72378e-05 -2.59446e-07
-1.72378e-05 6.90647e-05 -6.29944e-08
-2.59446e-07 -6.29944e-08 -5.05802e-07
0.00105386 -1.94132e-05 -1.72652e-07
-1.94132e-05 2.51853e-05 1.19409e-07
-1.72652e-07 1.19409e-07 -4.25982e-05
0.00113553 -2.03692e-05 -6.80378e-07
-2.03692e-05 6.13197e-05 7.27876e-07
-6.80378e-07 7.27876e-07 -3.96204e-06
0.00121198 -1.76634e-05 -2.71253e-07
-1.76634e-05 0.000100389 -4.41315e-07
-2.71253e-07 -4.41315e-07 4.10622e-05
0.00105673 -1.90928e-05 3.98126e-07
-1.90928e-05 2.82718e-05 -5.77639e-07
3.98126e-07 -5.77639e-07 -3.50969e-05
0.00112611 -1.73574e-05 2.58792e-07
-1.73574e-05 6.09564e-05 -1.57916e-07
2.58792e-07 -1.57916e-07 -3.38379e-06
0.00100411 -1.08341e-05 -7.64259e-07
-1.08341e-05 1.40106e-06 3.69626e-07
-7.64259e-07 3.69626e-07 -5.65276e-05
0.00112522 -1.48269e-05 9.20186e-08
-1.48269e-05 6.36789e-05 1.65787e-07
9.20186e-08 1.65787e-07 -3.07358e-06
0.00109931 -1.04619e-05 -1.234e-07
-1.04619e-05 4.96379e-05 3.03388e-07
-1.234e-07 3.03388e-07 -8.7059e-06
0.00107046 -2.46462e-06 -7.02329e-07
-2.46462e-06 3.05791e-05 1.04768e-06
-7.02329e-07 1.04768e-06 -1.49177e-05
0.00110552 -8.60357e-06 3.03628e-07
-8.60357e-06 5.36105e-05 -6.51329e-07
3.03628e-07 -6.51329e-07 -4.24502e-06
0.00107073 -3.42901e-06 3.14523e-08
-3.42901e-06 3.01963e-05 -1.30369e-08
3.14523e-08 -1.30369e-08 -1.46601e-05
0.00102554 4.40229e-06 -9.48487e-07
4.40229e-06 2.98589e-06 1.66635e-06
-9.48487e-07 1.66635e-06 -2.36056e-05
0.00107277 -1.87442e-06 5.10701e-07
-1.87442e-06 3.07154e-05 -1.01294e-06
5.10701e-07 -1.01294e-06 -1.34143e-05
0.00103205 3.66885e-06 6.02189e-08
3.66885e-06 4.34171e-06 5.09041e-09
6.02189e-08 5.09041e-09 -2.18064e-05
0.00156908 5.91878e-06 -2.62656e-06
5.91878e-06 0.000259052 4.09817e-06
-2.62656e-06 4.09817e-06 0.000262758
0.00103629 2.91538e-06 6.32748e-07
2.91538e-06 4.72625e-06 -1.71216e-06
6.32748e-07 -1.71216e-06 -2.10345e-05
0.00127155 4.4377e-06 -5.98381e-07
4.4377e-06 0.000111182 5.85346e-07
-5.98381e-07 5.85346e-07 0.000114012
0.00112786 5.0886e-06 -8.04826e-07
5.0886e-06 3.68257e-05 1.45199e-06
-8.04826e-07 1.45199e-06 5.57776e-05
0.000982279 2.80485e-06 7.11139e-07
2.80485e-06 -3.23186e-05 -2.99195e-06
7.11139e-07 -2.99195e-06 -3.0447e-05
0.00173032 3.53005e-06 9.66538e-07
3.53005e-06 0.00032921 -1.16833e-06
9.66538e-07 -1.16833e-06 0.000351111
0.00231028 1.7228e-06 1.49543e-06
1.7228e-06 0.000612227 -3.82783e-06
1.49543e-06 -3.82783e-06 0.000636892
0.00113991 -3.45005e-06 -8.21816e-08
-3.45005e-06 6.35165e-05 -8.73977e-07
-8.21816e-08 -8.73977e-07 2.33926e-05
0.00104183 -2.0947e-06 -4.00608e-07
-2.0947e-06 5.52885e-06 -1.74891e-06
-4.00608e-07 -1.74891e-06 -1.60381e-05
0.00110721 -2.20084e-06 1.08819e-07
-2.20084e-06 4.53191e-05 1.65394e-07
1.08819e-07 1.65394e-07 7.06931e-06
0.000981784 -1.44499e-06 -4.14008e-07
-1.44499e-06 -3.30299e-05 -3.00258e-06
-4.14008e-07 -3.00258e-06 -2.8368e-05
0.00103888 -1.07967e-06 -6.13017e-08
-1.07967e-06 2.84175e-06 8.33642e-10
-6.13017e-08 8.33642e-10 -1.81206e-05
0.00107232 -2.37989e-06 -1.24629e-07
-2.37989e-06 2.64042e-05 1.32099e-06
-1.24629e-07 1.32099e-06 -1.10259e-05
0.00222969 -1.07433e-08 -3.12898e-07
-1.07433e-08 0.000572522 -3.79435e-06
-3.12898e-07 -3.79435e-06 0.000598233
0.00097876 2.94531e-08 -8.50823e-08
2.94531e-08 -3.48581e-05 -4.02378e-09
-8.50823e-08 -4.02378e-09 -3.00574e-05
0.00104083 -3.14403e-08 -1.4542e-08
-3.14403e-08 3.36993e-06 1.78445e-06
-1.4542e-08 1.78445e-06 -1.74858e-05
0.000984085 1.59929e-06 -3.80918e-07
1.59929e-06 -3.18862e-05 2.99772e-06
-3.80918e-07 2.99772e-06 -2.73073e-05
0.00222869 2.0177e-06 -3.67115e-07
2.0177e-06 0.000572429 -4.25918e-09
-3.67115e-07 -4.25918e-09 0.000598064
0.00224331 3.93974e-06 -2.53434e-06
3.93974e-06 0.000580771 3.76055e-06
-2.53434e-06 3.76055e-06 0.000606049
-0.00129918 1.63742e-05 9.09981e-06
1.63742e-05 -0.00098766 -2.26437e-06
9.09981e-06 -2.26437e-06 -0.000995153
-0.000811177 1.37775e-05 2.07605e-05
1.37775e-05 -0.000335496 -4.98792e-06
2.07605e-05 -4.98792e-06 -0.000351603
0.000473473 5.77962e-06 1.58473e-05
5.77962e-06 2.21106e-05 -6.31593e-06
1.58473e-05 -6.31593e-06 2.38736e-06
-0.0011496 3.16786e-05 -6.59072e-06
3.16786e-05 -0.000924991 1.55976e-06
-6.59072e-06 1.55976e-06 -0.000892631
0.000492589 7.44239e-06 -3.0622e-05
7.44239e-06 -0.000345167 -4.5003e-06
-3.0622e-05 -4.5003e-06 -0.000435443
0.00138692 3.53315e-05 3.79844e-06
3.53315e-05 0.000198721 -7.21807e-08
3.79844e-06 -7.21807e-08 0.000127432
0.000882061 -2.065e-05 -6.60572e-06
-2.065e-05 -0.000140415 -9.52514e-07
-6.60572e-06 -9.52514e-07 -0.000357219
0.00207576 4.72259e-05 6.27845e-05
4.72259e-05 0.000920834 -2.32849e-05
6.27845e-05 -2.32849e-05 0.000843358
8.75924e-05 4.30775e-05 3.70448e-06
4.30775e-05 -0.000253577 -4.8576e-06
3.70448e-06 -4.8576e-06 -0.000178817
0.00131931 1.55932e-05 -2.82548e-06
1.55932e-05 0.000186316 1.11772e-06
-2.82548e-06 1.11772e-06 8.48482e-05
0.00231289 -4.2757e-05 3.19952e-06
-4.2757e-05 0.000122401 -1.92392e-06
3.19952e-06 -1.92392e-06 -0.000301492
0.00200552 0.000108392 -1.10931e-06
0.000108392 0.000585542 4.00962e-06
-1.10931e-06 4.00962e-06 0.000499696
0.000716288 2.05025e-05 -3.18865e-06
2.05025e-05 7.43879e-05 -1.78456e-06
-3.18865e-06 -1.78456e-06 0.000153033
0.000432325 -2.12695e-05 4.59426e-06
-2.12695e-05 -6.48108e-05 -4.69172e-06
4.59426e-06 -4.69172e-06 -0.000178345
0.00256263 1.70538e-05 3.18891e-05
1.70538e-05 -2.13968e-05 -1.35277e-05
3.18891e-05 -1.35277e-05 -0.000577169
-0.00107493 0.000119961 -2.15508e-05
0.000119961 -0.000933574 4.46619e-05
-2.15508e-05 4.46619e-05 -0.00098115
8.99126e-05 -2.76097e-07 1.24502e-05
-2.76097e-07 -0.000259341 6.46579e-07
1.24502e-05 6.46579e-07 -0.000284768
0.00114579 -2.81237e-06 1.53532e-07
-2.81237e-06 7.99151e-05 -5.94785e-07
1.53532e-07 -5.94785e-07 1.21889e-05
0.00111369 7.40958e-06 -2.19051e-07
7.40958e-06 6.07816e-05 -1.81435e-07
-2.19051e-07 -1.81435e-07 5.12139e-07
0.00110459 7.70896e-08 1.89783e-07
7.70896e-08 4.91707e-05 1.94038e-07
1.89783e-07 1.94038e-07 8.85411e-07
0.0010924 1.59833e-05 4.02248e-07
1.59833e-05 4.79786e-05 1.19504e-06
4.02248e-07 1.19504e-06 -9.33699e-06
0.00108188 6.18922e-06 -3.92163e-08
6.18922e-06 4.41541e-05 -1.51612e-07
-3.92163e-08 -1.51612e-07 -2.01474e-05
0.0012083 6.16445e-06 4.13188e-08
6.16445e-06 0.000105036 3.72777e-07
4.13188e-08 3.72777e-07 4.62684e-05
0.00107755 -1.65727e-06 -3.41301e-07
-1.65727e-06 3.97411e-05 1.57894e-06
-3.41301e-07 1.57894e-06 -1.51042e-05
0.00123842 8.90611e-06 -2.16514e-07
8.90611e-06 0.000118844 -4.82421e-07
-2.16514e-07 -4.82421e-07 6.38117e-05
0.00119166 3.76006e-06 1.27183e-08
3.76006e-06 9.56608e-05 4.08219e-07
1.27183e-08 4.08219e-07 4.26548e-05
0.000979319 -2.91007e-06 -1.11637e-07
-2.91007e-06 -9.14609e-06 2.86719e-07
-1.11637e-07 2.86719e-07 -6.04575e-05
0.00133811 -9.87246e-06 -1.25386e-06
-9.87246e-06 -0.000110082 2.15845e-06
-1.25386e-06 2.15845e-06 -0.000120013
0.000975586 -3.58879e-05 -1.53864e-06
-3.58879e-05 -0.000109878 5.30158e-07
-1.53864e-06 5.30158e-07 -0.000155735
0.00128156 -3.56449e-05 1.1767e-07
-3.56449e-05 0.000106865 1.12178e-06
1.1767e-07 1.12178e-06 2.41689e-05
0.0011315 -2.7432e-05 -6.00983e-07
-2.7432e-05 6.38741e-05 -3.25509e-07
-6.00983e-07 -3.25509e-07 -3.02589e-05
0.00117661 -1.86581e-05 3.35119e-07
-1.86581e-05 0.000101207 -6.54956e-08
3.35119e-07 -6.54956e-08 8.86215e-06
0.00101586 -1.59707e-05 1.27761e-07
-1.59707e-05 2.22313e-05 -1.78238e-07
1.27761e-07 -1.78238e-07 -5.71809e-05
0.00101924 -3.02029e-06 -6.709e-08
-3.02029e-06 2.28601e-05 1.28896e-07
-6.709e-08 1.28896e-07 -5.19452e-05
0.0010802 -6.47641e-06 5.83e-09
-6.47641e-06 5.2597e-05 6.80873e-07
5.83e-09 6.80873e-07 -2.22581e-05
0.00177307 -2.7079e-05 5.44118e-07
-2.7079e-05 5.09859e-06 2.87539e-07
5.44118e-07 2.87539e-07 2.51203e-05
0.00117494 -8.85414e-06 2.80196e-08
-8.85414e-06 0.000102306 -2.56708e-07
2.80196e-08 -2.56708e-07 2.0886e-05
0.00127978 -1.7289e-05 1.54322e-07
-1.7289e-05 0.000153102 1.04595e-08
1.54322e-07 1.04595e-08 6.44506e-05
0.00120364 -3.58828e-05 3.1347e-07
-3.58828e-05 0.000118636 -3.90611e-07
3.1347e-07 -3.90611e-07 2.7381e-05
0.00121605 -1.96098e-05 1.31049e-07
-1.96098e-05 0.00011344 -9.68308e-08
1.31049e-07 -9.68308e-08 1.32344e-05
0.00275823 -4.60991e-05 -1.0502e-05
-4.60991e-05 0.000587411 9.40999e-06
-1.0502e-05 9.40999e-06 0.000546568
0.000927098 -1.4775e-05 -9.52173e-07
-1.4775e-05 4.10327e-05 5.27409e-07
-9.52173e-07 5.27409e-07 -6.11653e-05
0.00115826 -1.40697e-05 -6.29954e-07
-1.40697e-05 8.921e-05 9.57925e-07
-6.29954e-07 9.57925e-07 -9.68612e-06
0.00111503 6.63885e-06 -9.84061e-08
6.63885e-06 7.02981e-05 2.04369e-07
-9.84061e-08 2.04369e-07 -9.76766e-06
0.00115906 -9.76833e-07 -1.25843e-07
-9.76833e-07 9.1545e-05 2.6504e-07
-1.25843e-07 2.6504e-07 2.31193e-06
0.00155902 1.47607e-06 5.13419e-06
1.47607e-06 0.000732732 1.47496e-06
5.13419e-06 1.47496e-06 0.000663977
-0.000269179 2.69581e-06 4.67966e-06
2.69581e-06 -0.000370122 -3.81607e-07
4.67966e-06 -3.81607e-07 -0.000383963
-0.00405625 1.36817e-06 5.62988e-05
1.36817e-06 -0.00197347 -1.34817e-06
5.62988e-05 -1.34817e-06 -0.00190625
0.00123686 1.65737e-05 2.64753e-07
1.65737e-05 0.000137099 4.98605e-07
2.64753e-07 4.98605e-07 5.89983e-05
0.000920744 1.40058e-05 1.69726e-06
1.40058e-05 4.34412e-05 -6.32352e-07
1.69726e-06 -6.32352e-07 -5.60074e-05
0.00081508 3.58835e-05 2.9239e-06
3.58835e-05 -2.81701e-05 -2.7424e-06
2.9239e-06 -2.7424e-06 -0.000168425
-0.000740017 -5.87088e-06 -3.86268e-06
-5.87088e-06 -0.00063644 -2.06971e-06
-3.86268e-06 -2.06971e-06 -0.000640617
0.00223489 -2.12638e-05 3.98447e-06
-2.12638e-05 -0.000210902 1.78407e-05
3.98447e-06 1.78407e-05 -0.000751521
-0.000347664 3.47296e-05 -1.77518e-05
3.47296e-05 -0.000348641 -2.68443e-05
-1.77518e-05 -2.68443e-05 -0.00042591
0.00217786 1.00282e-05 4.05031e-05
1.00282e-05 0.000406477 1.36986e-05
4.05031e-05 1.36986e-05 0.000225599
0.00348122 -0.000148026 4.25547e-05
-0.000148026 0.00112858 5.33629e-05
4.25547e-05 5.33629e-05 0.000992263
0.000326705 -1.02748e-05 -1.45669e-05
-1.02748e-05 -8.05644e-05 -7.81558e-06
-1.45669e-05 -7.81558e-06 -9.38521e-05
8.76686e-05 -1.28692e-05 -1.11052e-05
-1.28692e-05 -0.000302141 -4.13823e-06
-1.11052e-05 -4.13823e-06 -0.000317907
0.00101472 1.36459e-05 7.85819e-07
1.36459e-05 3.70354e-05 4.48554e-07
7.85819e-07 4.48554e-07 -4.21671e-05
0.00123424 1.59602e-06 1.80533e-06
1.59602e-06 0.000517341 9.08631e-07
1.80533e-06 9.08631e-07 0.000459848
0.000645355 5.92593e-06 3.94079e-07
5.92593e-06 4.09162e-05 3.81984e-08
3.94079e-07 3.81984e-08 -1.05472e-05
0.000611718 5.42023e-06 5.43763e-06
5.42023e-06 -3.70173e-05 4.94778e-07
5.43763e-06 4.94778e-07 -0.000146886
0.000612348 3.21767e-05 -1.11941e-05
3.21767e-05 0.000162548 -9.23501e-07
-1.11941e-05 -9.23501e-07 3.27434e-05
0.00476056 -4.02992e-05 1.13325e-05
-4.02992e-05 0.00065811 8.99125e-06
1.13325e-05 8.99125e-06 0.000142497
0.000656768 -2.12594e-06 -1.14974e-06
-2.12594e-06 7.40061e-05 1.35404e-06
-1.14974e-06 1.35404e-06 2.52291e-05
0.00201116 -0.000123235 3.44433e-06
-0.000123235 5.81817e-05 4.89971e-06
3.44433e-06 4.89971e-06 9.53827e-05
0.00071813 -1.98861e-07 -7.89755e-07
-1.98861e-07 -0.000105315 -3.07645e-06
-7.89755e-07 -3.07645e-06 -0.000178048
0.000793781 9.32155e-06 2.84319e-06
9.32155e-06 0.000133273 1.18339e-06
2.84319e-06 1.18339e-06 5.32233e-05
0.000616502 -1.40905e-06 -1.00011e-06
-1.40905e-06 -3.33139e-06 1.54211e-06
-1.00011e-06 1.54211e-06 -5.92205e-05
-3.73433e-05 5.93057e-07 -1.24618e-05
5.93057e-07 -0.000358954 1.7209e-06
-1.24618e-05 1.7209e-06 -0.000360968
-0.000358073 -2.43273e-06 -8.45943e-06
-2.43273e-06 -0.00039561 -1.44907e-06
-8.45943e-06 -1.44907e-06 -0.000469346
0.00630538 -4.32463e-05 -1.96426e-05
-4.32463e-05 0.00165282 3.64264e-06
-1.96426e-05 3.64264e-06 0.00111825
0.00101157 1.89594e-06 3.70025e-06
1.89594e-06 -0.000817198 -2.48598e-05
3.70025e-06 -2.48598e-05 -0.000534554
0.00120784 1.00004e-05 8.76499e-08
1.00004e-05 0.000101507 2.78778e-07
8.76499e-08 2.78778e-07 2.58528e-05
0.001269 5.14255e-06 -1.79837e-08
5.14255e-06 0.000134065 -3.09539e-07
-1.79837e-08 -3.09539e-07 5.73849e-05
0.00122621 6.23122e-06 -6.50316e-07
6.23122e-06 0.00013125 1.92031e-07
-6.50316e-07 1.92031e-07 5.60872e-05
0.00114339 1.48042e-05 -1.00489e-07
1.48042e-05 7.23782e-05 -3.91229e-07
-1.00489e-07 -3.91229e-07 7.32342e-06
0.00120817 1.34635e-05 4.05223e-08
1.34635e-05 0.000101603 2.1024e-07
4.05223e-08 2.1024e-07 2.93046e-05
0.0011216 8.08232e-06 -2.67006e-07
8.08232e-06 6.46949e-05 1.87002e-07
-2.67006e-07 1.87002e-07 -1.13323e-05
0.00121896 5.66074e-06 -1.90388e-08
5.66074e-06 0.000108885 -3.88593e-08
-1.90388e-08 -3.88593e-08 3.72544e-05
0.00116269 4.51023e-06 1.03524e-07
4.51023e-06 8.29807e-05 3.87625e-08
1.03524e-07 3.87625e-08 5.3329e-06
0.00111617 8.44023e-06 4.16292e-08
8.44023e-06 6.99987e-05 4.57912e-07
4.16292e-08 4.57912e-07 -5.15371e-06
0.00113576 1.09261e-05 2.18355e-07
1.09261e-05 8.49522e-05 -7.79834e-07
2.18355e-07 -7.79834e-07 8.13062e-06
0.00113433 -9.48878e-06 -2.10903e-07
-9.48878e-06 7.27615e-05 1.45018e-07
-2.10903e-07 1.45018e-07 -4.72633e-06
0.00119668 -5.14413e-06 -1.45316e-09
-5.14413e-06 9.91553e-05 -4.95696e-07
-1.45316e-09 -4.95696e-07 2.91318e-05
0.00112915 -7.42823e-06 3.64687e-08
-7.42823e-06 6.92788e-05 -1.34063e-07
3.64687e-08 -1.34063e-07 2.3544e-06
0.00110164 -1.58924e-05 2.49651e-08
-1.58924e-05 5.59912e-05 -2.09622e-07
2.49651e-08 -2.09622e-07 -1.5326e-05
0.00113083 -1.67427e-05 1.05501e-07
-1.67427e-05 7.23373e-05 -5.74701e-08
1.05501e-07 -5.74701e-08 -2.41468e-06
0.0010772 -1.53348e-05 -2.43812e-07
-1.53348e-05 4.43901e-05 1.90482e-07
-2.43812e-07 1.90482e-07 -2.83338e-05
0.00115729 -1.85997e-05 -3.32872e-07
-1.85997e-05 8.86517e-05 2.68751e-07
-3.32872e-07 2.68751e-07 1.25027e-05
0.00113222 -1.91889e-05 2.42458e-07
-1.91889e-05 6.88753e-05 -2.52049e-07
2.42458e-07 -2.52049e-07 -1.61419e-06
0.00103886 -2.0729e-05 1.78666e-07
-2.0729e-05 2.48837e-05 4.1749e-07
1.78666e-07 4.1749e-07 -5.08681e-05
0.00115276 -1.7223e-05 3.52494e-07
-1.7223e-05 7.5107e-05 2.00169e-07
3.52494e-07 2.00169e-07 5.42487e-06
0.00117067 -2.02912e-05 4.76109e-08
-2.02912e-05 7.99883e-05 3.53454e-07
4.76109e-08 3.53454e-07 1.22158e-05
0.00105161 -2.13153e-05 -1.55457e-07
-2.13153e-05 1.77567e-05 6.31709e-07
-1.55457e-07 6.31709e-07 -5.3195e-05
0.00112396 -1.9507e-05 -4.93355e-07
-1.9507e-05 6.09034e-05 9.86375e-08
-4.93355e-07 9.86375e-08 -3.90812e-06
0.00113087 -1.69081e-05 -8.00551e-07
-1.69081e-05 6.29809e-05 2.57355e-07
-8.00551e-07 2.57355e-07 4.22452e-06
0.00108075 -1.99327e-05 -2.88786e-07
-1.99327e-05 3.62463e-05 1.38531e-07
-2.88786e-07 1.38531e-07 -2.91613e-05
0.00111259 -1.15295e-05 -6.84564e-07
-1.15295e-05 5.16804e-05 2.22372e-07
-6.84564e-07 2.22372e-07 -3.19283e-06
0.00117006 -1.76704e-05 5.36879e-08
-1.76704e-05 7.99343e-05 -1.67998e-07
5.36879e-08 -1.67998e-07 2.02035e-05
0.00109282 -1.94026e-05 4.83294e-07
-1.94026e-05 4.59785e-05 -7.67984e-07
4.83294e-07 -7.67984e-07 -1.64518e-05
0.00120113 -1.77481e-05 9.29854e-07
-1.77481e-05 9.69324e-05 -1.89323e-07
9.29854e-07 -1.89323e-07 3.30725e-05
0.00104851 -1.13413e-05 3.81613e-08
-1.13413e-05 2.2749e-05 -1.79233e-08
3.81613e-08 -1.79233e-08 -3.48668e-05
0.00107244 -1.84423e-06 -9.0907e-07
-1.84423e-06 3.10241e-05 1.00688e-06
-9.0907e-07 1.00688e-06 -1.4404e-05
0.00109984 -9.36317e-06 4.33674e-07
-9.36317e-06 4.98965e-05 -2.60709e-07
4.33674e-07 -2.60709e-07 -8.41259e-06
0.00106972 -2.18123e-06 5.4931e-08
-2.18123e-06 3.01299e-05 9.21591e-09
5.4931e-08 9.21591e-09 -1.53396e-05
0.00102144 5.34849e-06 -1.13919e-06
5.34849e-06 2.98168e-06 1.6654e-06
-1.13919e-06 1.6654e-06 -2.41221e-05
0.0010751 -3.55357e-06 6.19195e-07
-3.55357e-06 3.23211e-05 -1.04399e-06
6.19195e-07 -1.04399e-06 -1.25856e-05
0.00102741 4.41592e-06 4.78978e-08
4.41592e-06 3.88396e-06 2.19883e-09
4.78978e-08 2.19883e-09 -2.27329e-05
0.00153676 7.35121e-06 -2.72599e-06
7.35121e-06 0.00024644 2.86908e-06
-2.72599e-06 2.86908e-06 0.000249777
0.00103298 3.66874e-06 8.56189e-07
3.66874e-06 4.75062e-06 -1.6948e-06
8.56189e-07 -1.6948e-06 -2.14076e-05
0.00126831 5.84918e-06 -7.33234e-07
5.84918e-06 0.000112183 5.87575e-07
-7.33234e-07 5.87575e-07 0.000114552
0.00112391 6.83664e-06 -1.0852e-06
6.83664e-06 3.78783e-05 1.43443e-06
-1.0852e-06 1.43443e-06 5.6319e-05
0.000980911 4.2615e-06 1.04084e-06
4.2615e-06 -3.11104e-05 -2.96462e-06
1.04084e-06 -2.96462e-06 -2.95906e-05
0.001734 5.46631e-06 1.29683e-06
5.46631e-06 0.000332948 -1.15964e-06
1.29683e-06 -1.15964e-06 0.000354506
0.00231255 3.77525e-06 2.51131e-06
3.77525e-06 0.000614468 -3.80994e-06
2.51131e-06 -3.80994e-06 0.000638935
0.000889181 -1.55152e-06 -3.57972e-07
-1.55152e-06 -5.69515e-05 -1.43044e-06
-3.57972e-07 -1.43044e-06 -0.000100925
0.000798186 -3.17673e-06 -5.87206e-07
-3.17673e-06 -0.000110618 -2.2653e-06
-5.87206e-07 -2.2653e-06 -0.00013495
0.00114339 -3.23567e-06 5.09447e-08
-3.23567e-06 6.51095e-05 1.21422e-07
5.09447e-08 1.21422e-07 2.4925e-05
0.000986361 -2.95089e-06 -7.15975e-07
-2.95089e-06 -2.97092e-05 -2.97163e-06
-7.15975e-07 -2.97163e-06 -2.55441e-05
0.000915141 -2.09189e-06 -2.33657e-08
-2.09189e-06 -5.58846e-05 3.31283e-09
-2.33657e-08 3.31283e-09 -7.82239e-05
0.000901155 -3.61828e-06 1.50821e-07
-3.61828e-06 -5.4475e-05 1.12916e-06
1.50821e-07 1.12916e-06 -9.39354e-05
0.00222479 -1.95709e-06 -1.49033e-06
-1.95709e-06 0.000570576 -3.77928e-06
-1.49033e-06 -3.77928e-06 0.000596225
0.00097835 -1.43574e-06 -8.3294e-08
-1.43574e-06 -3.47102e-05 5.56047e-09
-8.3294e-08 5.56047e-09 -3.00234e-05
0.00103307 -1.09447e-06 1.0781e-07
-1.09447e-06 3.1112e-08 1.73989e-06
1.0781e-07 1.73989e-06 -2.08919e-05
0.00222939 3.82329e-08 -3.89344e-07
3.82329e-08 0.000572372 9.41549e-10
-3.89344e-07 9.41549e-10 0.000598087
0.000978841 4.25758e-08 -1.11541e-07
4.25758e-08 -3.48182e-05 3.01973e-06
-1.11541e-07 3.01973e-06 -3.00218e-05
0.00222485 2.06955e-06 -1.41502e-06
2.06955e-06 0.000570681 3.78036e-06
-1.41502e-06 3.78036e-06 0.000596301
0.000816871 9.66208e-07 8.97159e-06
9.66208e-07 0.000257234 -3.50152e-06
8.97159e-06 -3.50152e-06 0.000196739
0.000786322 1.71759e-05 -2.17957e-07
1.71759e-05 0.000241588 1.01293e-06
-2.17957e-07 1.01293e-06 0.000241911
0.000705567 1.04113e-05 8.09564e-05
1.04113e-05 0.000150295 -1.19451e-05
8.09564e-05 -1.19451e-05 7.44678e-05
0.00109417 8.97993e-06 -4.8129e-07
8.97993e-06 4.46147e-05 -4.33351e-07
-4.8129e-07 -4.33351e-07 -1.28132e-05
0.000374767 -1.32479e-05 5.75082e-06
-1.32479e-05 -0.000109769 -7.52976e-06
5.75082e-06 -7.52976e-06 -0.000157517
0.000702341 6.30764e-06 3.31536e-06
6.30764e-06 0.000165038 -8.26691e-07
3.31536e-06 -8.26691e-07 0.000146551
0.000777292 3.49786e-05 -1.3166e-05
3.49786e-05 0.00018925 1.09569e-05
-1.3166e-05 1.09569e-05 0.000231314
0.00130193 1.01676e-05 -2.28279e-05
1.01676e-05 -3.57092e-07 7.09202e-06
-2.28279e-05 7.09202e-06 -0.000126839
0.00459855 2.0376e-06 2.34456e-06
2.0376e-06 0.00134915 -1.507e-06
2.34456e-06 -1.507e-06 0.00093134
-0.00132672 8.47759e-05 3.91737e-05
8.47759e-05 -0.000810451 -2.89735e-05
3.91737e-05 -2.89735e-05 -0.000829053
0.00237266 1.76923e-05 -9.18168e-06
1.76923e-05 0.00110972 9.80005e-07
-9.18168e-06 9.80005e-07 0.00116694
0.00215709 -4.88107e-05 -1.68504e-05
-4.88107e-05 0.000366016 6.96587e-06
-1.68504e-05 6.96587e-06 0.000160622
0.00468227 5.35283e-05 1.60613e-05
5.35283e-05 0.00111991 -2.28152e-05
1.60613e-05 -2.28152e-05 0.000651534
-1.69317e-05 0.000126614 -1.86269e-07
0.000126614 -0.000711374 9.1005e-06
-1.86269e-07 9.1005e-06 -0.000758713
0.00112635 4.14598e-06 1.63936e-06
4.14598e-06 0.000358071 -3.45982e-06
1.63936e-06 -3.45982e-06 0.000348825
0.00120179 -7.53586e-05 2.74979e-05
-7.53586e-05 -7.76251e-05 -3.6438e-05
2.74979e-05 -3.6438e-05 -0.000307293
0.00534956 9.07724e-05 6.54727e-06
9.07724e-05 0.000723979 -4.34111e-05
6.54727e-06 -4.34111e-05 0.000102573
0.00108312 0.000117684 8.56042e-06
0.000117684 -0.000701734 3.49171e-05
8.56042e-06 3.49171e-05 -0.0006687
0.000219346 -1.80853e-06 2.34608e-06
-1.80853e-06 -0.000196383 4.8957e-06
2.34608e-06 4.8957e-06 -0.000263601
0.00110674 1.40611e-06 -2.26647e-07
1.40611e-06 5.7631e-05 -4.80413e-07
-2.26647e-07 -4.80413e-07 -1.54485e-05
0.00112864 -5.36672e-06 3.24596e-08
-5.36672e-06 7.1541e-05 3.80927e-08
3.24596e-08 3.80927e-08 3.06019e-06
0.00120528 9.3438e-06 -4.04013e-09
9.3438e-06 0.000104416 5.7709e-07
-4.04013e-09 5.7709e-07 4.50303e-05
0.00108803 1.19169e-05 -4.64581e-07
1.19169e-05 4.5955e-05 -7.40951e-07
-4.64581e-07 -7.40951e-07 -1.93511e-05
0.00116252 1.16936e-05 1.76703e-08
1.16936e-05 8.30384e-05 3.24546e-07
1.76703e-08 3.24546e-07 1.95699e-05
0.00123048 2.04786e-06 1.17713e-07
2.04786e-06 0.000115306 1.2319e-06
1.17713e-07 1.2319e-06 5.7202e-05
0.00126288 8.40542e-06 -1.00372e-07
8.40542e-06 0.000130121 5.1826e-08
-1.00372e-07 5.1826e-08 7.53904e-05
0.00127147 8.43412e-06 1.85485e-07
8.43412e-06 0.000134161 1.16527e-06
1.85485e-07 1.16527e-06 8.18548e-05
0.000261049 -2.59912e-05 8.23849e-07
-2.59912e-05 -0.00068678 -1.36572e-06
8.23849e-07 -1.36572e-06 -0.000662162
0.00154199 -3.76921e-05 1.95907e-07
-3.76921e-05 0.000277455 -1.83231e-07
1.95907e-07 -1.83231e-07 0.000185994
0.00112632 -1.6849e-05 1.42877e-07
-1.6849e-05 7.5265e-05 6.85755e-07
1.42877e-07 6.85755e-07 5.79839e-08
0.00126959 -1.92371e-05 6.03568e-07
-1.92371e-05 0.000137126 -5.32761e-07
6.03568e-07 -5.32761e-07 3.7161e-05
0.0013228 -1.82545e-05 2.84491e-07
-1.82545e-05 0.000174021 2.77676e-07
2.84491e-07 2.77676e-07 8.49825e-05
0.00120868 -3.46968e-06 -2.96917e-09
-3.46968e-06 0.000119118 -4.12524e-07
-2.96917e-09 -4.12524e-07 3.81032e-05
0.00113556 5.50681e-06 -5.7419e-09
5.50681e-06 8.0205e-05 3.43152e-08
-5.7419e-09 3.43152e-08 9.58278e-08
0.0013312 -3.40554e-05 9.42374e-07
-3.40554e-05 -8.33867e-05 9.15466e-08
9.42374e-07 9.15466e-08 -0.000103426
0.0011691 -2.90625e-06 -3.58324e-08
-2.90625e-06 9.54661e-05 1.1816e-07
-3.58324e-08 1.1816e-07 6.22914e-06
0.00120817 -1.38505e-05 2.80208e-07
-1.38505e-05 0.000111696 5.45818e-08
2.80208e-07 5.45818e-08 1.28053e-05
0.00108714 -1.82352e-05 -1.85783e-08
-1.82352e-05 0.000114057 2.33797e-07
-1.85783e-08 2.33797e-07 1.23031e-05
0.00106394 9.13029e-06 -4.92091e-08
9.13029e-06 4.05554e-05 5.53802e-07
-4.92091e-08 5.53802e-07 -3.94391e-05
0.00206169 -3.9013e-05 -9.84502e-06
-3.9013e-05 0.000444835 1.83362e-05
-9.84502e-06 1.83362e-05 0.000367583
0.00125725 1.56203e-06 -1.37527e-06
1.56203e-06 0.000195111 2.61172e-09
-1.37527e-06 2.61172e-09 9.25926e-05
0.00127924 -6.77865e-06 -4.72144e-07
-6.77865e-06 0.000143901 8.96359e-07
-4.72144e-07 8.96359e-07 4.85462e-05
0.0011787 9.51177e-06 -2.72584e-08
9.51177e-06 9.65725e-05 5.05612e-07
-2.72584e-08 5.05612e-07 8.67952e-06
0.00125064 1.61769e-06 1.48026e-06
1.61769e-06 0.000432062 7.60404e-07
1.48026e-06 7.60404e-07 0.00034279
0.00130974 2.29671e-06 -4.57585e-06
2.29671e-06 0.00057365 1.63012e-07
-4.57585e-06 1.63012e-07 0.000505059
-0.00128776 3.89451e-06 -3.77494e-06
3.89451e-06 -0.000964409 -5.85029e-07
-3.77494e-06 -5.85029e-07 -0.00098281
0.00110906 1.55313e-05 4.28719e-09
1.55313e-05 8.23627e-05 -1.57239e-08
4.28719e-09 -1.57239e-08 3.26389e-06
0.000713432 3.64258e-06 9.36735e-07
3.64258e-06 -8.78329e-06 3.68873e-06
9.36735e-07 3.68873e-06 -0.000131811
0.000738927 2.56921e-06 -1.17803e-05
2.56921e-06 0.000211887 -3.07163e-06
-1.17803e-05 -3.07163e-06 0.000148348
0.00375602 -0.000106426 3.47576e-06
-0.000106426 0.000538539 6.59138e-06
3.47576e-06 6.59138e-06 -3.38069e-05
0.0023043 5.73792e-05 -6.06757e-06
5.73792e-05 0.000609066 -3.5957e-05
-6.06757e-06 -3.5957e-05 0.00040503
0.00196505 -0.000124807 -2.94664e-06
-0.000124807 -0.000399091 5.0521e-05
-2.94664e-06 5.0521e-05 -0.000221285
0.000338053 6.28716e-06 -6.77433e-06
6.28716e-06 -0.000152926 -3.64035e-06
-6.77433e-06 -3.64035e-06 -0.000205583
0.00112174 -5.75152e-07 1.32448e-06
-5.75152e-07 0.000376897 4.2243e-07
1.32448e-06 4.2243e-07 0.000324096
0.00112427 1.88409e-06 -4.35514e-07
1.88409e-06 9.11542e-05 -7.27637e-07
-4.35514e-07 -7.27637e-07 1.78601e-05
0.000623027 9.152e-06 4.70722e-07
9.152e-06 2.8447e-05 1.97974e-07
4.70722e-07 1.97974e-07 -5.2508e-05
0.00071881 -1.99582e-06 -2.24962e-06
-1.99582e-06 5.8767e-05 3.21868e-07
-2.24962e-06 3.21868e-07 -6.57911e-07
0.000170033 -7.2095e-06 5.46278e-07
-7.2095e-06 -0.000155505 -2.95651e-06
5.46278e-07 -2.95651e-06 -0.000213112
0.00121242 4.07654e-06 -1.53634e-06
4.07654e-06 0.000397108 3.81426e-06
-1.53634e-06 3.81426e-06 0.000407577
0.00338338 -1.49434e-05 2.92369e-06
-1.49434e-05 0.000108836 1.77763e-05
2.92369e-06 1.77763e-05 -0.000256318
0.00352067 1.648e-05 8.23349e-06
1.648e-05 8.37947e-05 1.45767e-06
8.23349e-06 1.45767e-06 0.000497685
0.000997148 -6.77656e-06 -8.41128e-07
-6.77656e-06 1.81507e-05 -3.04003e-06
-8.41128e-07 -3.04003e-06 -3.402e-05
0.000743475 1.24013e-06 9.97557e-07
1.24013e-06 6.33165e-05 5.98562e-07
9.97557e-07 5.98562e-07 -8.10867e-06
0.000414848 -1.01676e-05 -6.29043e-06
-1.01676e-05 -0.000112634 8.99405e-06
-6.29043e-06 8.99405e-06 -0.000156395
0.00122285 2.75226e-05 -2.85273e-06
2.75226e-05 0.000375008 4.21604e-06
-2.85273e-06 4.21604e-06 0.000452963
0.00157237 0.000121585 -3.83681e-06
0.000121585 -0.000435687 -4.0458e-05
-3.83681e-06 -4.0458e-05 -0.00034922
0.000724788 3.81395e-06 -3.47687e-07
3.81395e-06 0.000337192 -9.13689e-06
-3.47687e-07 -9.13689e-06 0.000260886
0.00471126 -1.31981e-05 9.5886e-06
-1.31981e-05 0.000852333 2.01518e-05
9.5886e-06 2.01518e-05 0.000127572
0.00114505 1.78236e-06 7.40405e-07
1.78236e-06 7.82817e-05 -4.89524e-07
7.40405e-07 -4.89524e-07 1.50536e-06
0.00108607 6.74608e-06 3.42217e-07
6.74608e-06 6.436e-05 -6.11231e-07
3.42217e-07 -6.11231e-07 -1.1249e-05
0.000975482 1.39643e-05 -2.69207e-07
1.39643e-05 1.67243e-05 -1.45013e-06
-2.69207e-07 -1.45013e-06 -6.2115e-05
0.00121698 6.22717e-06 -1.05843e-07
6.22717e-06 0.000107877 -1.98311e-07
-1.05843e-07 -1.98311e-07 3.63919e-05
0.00116694 4.16147e-06 -1.13238e-07
4.16147e-06 8.57503e-05 1.3901e-07
-1.13238e-07 1.3901e-07 7.8418e-06
0.00105964 9.32608e-06 -4.22086e-07
9.32608e-06 3.97077e-05 1.37779e-06
-4.22086e-07 1.37779e-06 -3.51322e-05
0.00111788 -9.15665e-06 -1.13102e-07
-9.15665e-06 6.47925e-05 1.53421e-07
-1.13102e-07 1.53421e-07 -1.2602e-05
0.00112833 7.39583e-06 -1.15162e-07
7.39583e-06 8.17663e-05 4.30779e-07
-1.15162e-07 4.30779e-07 5.34367e-06
0.00118334 -1.1345e-05 4.99335e-07
-1.1345e-05 0.000115024 -5.07504e-08
4.99335e-07 -5.07504e-08 3.33024e-05
0.00114023 -1.68245e-05 1.51238e-07
-1.68245e-05 7.5751e-05 -8.59923e-08
1.51238e-07 -8.59923e-08 1.18235e-06
0.00103339 -1.46128e-05 2.15152e-09
-1.46128e-05 2.361e-05 2.6763e-07
2.15152e-09 2.6763e-07 -4.91509e-05
0.00116797 -1.87898e-05 4.50322e-08
-1.87898e-05 9.29057e-05 2.97589e-07
4.50322e-08 2.97589e-07 1.64738e-05
0.000962206 -2.01301e-05 -1.69604e-07
-2.01301e-05 8.15989e-06 1.11668e-06
-1.69604e-07 1.11668e-06 -7.32953e-05
0.00107955 -1.87987e-05 1.90409e-07
-1.87987e-05 4.49026e-05 2.06152e-07
1.90409e-07 2.06152e-07 -2.3913e-05
0.00105422 -2.06427e-05 2.83219e-07
-2.06427e-05 3.38396e-05 -2.78133e-07
2.83219e-07 -2.78133e-07 -4.12968e-05
0.00119861 -2.43266e-05 -2.9363e-08
-2.43266e-05 9.34572e-05 5.55473e-07
-2.9363e-08 5.55473e-07 1.4269e-05
0.00119068 -2.26057e-05 -7.92569e-07
-2.26057e-05 8.38021e-05 7.37421e-07
-7.92569e-07 7.37421e-07 1.21329e-05
0.00128291 -2.11612e-05 2.97405e-07
-2.11612e-05 0.000132619 1.30752e-07
2.97405e-07 1.30752e-07 6.48638e-05
0.00110288 -2.18068e-05 -1.04544e-07
-2.18068e-05 4.18525e-05 -2.7148e-08
-1.04544e-07 -2.7148e-08 -2.94691e-05
0.00124179 -1.98683e-05 1.57098e-08
-1.98683e-05 0.000118738 -1.49293e-07
1.57098e-08 -1.49293e-07 5.57196e-05
0.00103647 -1.43353e-05 -4.24905e-07
-1.43353e-05 2.50513e-05 1.63066e-07
-4.24905e-07 1.63066e-07 -3.47564e-05
0.00113154 -1.94991e-05 2.64717e-07
-1.94991e-05 6.43811e-05 -1.37208e-07
2.64717e-07 -1.37208e-07 2.05389e-07
0.00110418 -8.12786e-06 -8.25725e-07
-8.12786e-06 4.99956e-05 9.05792e-08
-8.25725e-07 9.05792e-08 -3.61668e-06
0.00113999 -1.69236e-05 -3.89673e-07
-1.69236e-05 6.71492e-05 2.84554e-07
-3.89673e-07 2.84554e-07 8.30422e-06
0.00102639 -1.95022e-05 8.81173e-08
-1.95022e-05 1.13863e-05 -1.69913e-07
8.81173e-08 -1.69913e-07 -5.41494e-05
0.00107221 -1.92585e-06 -1.10449e-06
-1.92585e-06 3.05629e-05 8.75295e-07
-1.10449e-06 8.75295e-07 -1.40481e-05
0.00107291 -1.14198e-05 4.37669e-08
-1.14198e-05 3.2021e-05 6.54638e-08
4.37669e-08 6.54638e-08 -2.30824e-05
0.00112764 -1.77029e-05 9.65728e-07
-1.77029e-05 5.92371e-05 -1.84861e-07
9.65728e-07 -1.84861e-07 -8.97705e-07
0.00109275 -1.17731e-05 7.5808e-07
-1.17731e-05 4.40562e-05 -3.89988e-07
7.5808e-07 -3.89988e-07 -1.32497e-05
0.00106907 -1.37317e-06 6.73986e-08
-1.37317e-06 2.92781e-05 2.2251e-08
6.73986e-08 2.2251e-08 -1.60796e-05
0.00101869 6.11313e-06 -1.35843e-06
6.11313e-06 3.13857e-06 1.65198e-06
-1.35843e-06 1.65198e-06 -2.4254e-05
0.00106955 -1.96136e-06 7.74753e-07
-1.96136e-06 2.99421e-05 -9.79654e-07
7.74753e-07 -9.79654e-07 -1.54988e-05
0.00102233 5.38048e-06 5.1787e-08
5.38048e-06 3.42486e-06 6.1719e-09
5.1787e-08 6.1719e-09 -2.36936e-05
0.000946514 8.17765e-06 -1.83715e-06
8.17765e-06 -3.85125e-05 2.84075e-06
-1.83715e-06 2.84075e-06 -3.84348e-05
0.00102945 4.43096e-06 1.05093e-06
4.43096e-06 4.87436e-06 -1.68029e-06
1.05093e-06 -1.68029e-06 -2.17696e-05
0.00095958 6.92712e-06 7.627e-08
6.92712e-06 -3.56007e-05 1.37682e-08
7.627e-08 1.37682e-08 -3.5024e-05
0.00229247 1.01585e-05 -2.0007e-06
1.01585e-05 0.000612262 1.50321e-06
-2.0007e-06 1.50321e-06 0.000635601
0.000977446 5.61861e-06 1.39196e-06
5.61861e-06 -3.02159e-05 -2.92338e-06
1.39196e-06 -2.92338e-06 -2.91643e-05
0.00173736 7.3529e-06 1.59119e-06
7.3529e-06 0.000337407 -1.14796e-06
1.59119e-06 -1.14796e-06 0.000358466
0.00231597 5.79262e-06 3.46171e-06
5.79262e-06 0.0006182 -3.78808e-06
3.46171e-06 -3.78808e-06 0.000642312
0.000880806 -2.1217e-07 -6.65682e-07
-2.1217e-07 -6.19325e-05 -1.39166e-06
-6.65682e-07 -1.39166e-06 -0.000107363
0.000782261 -3.93585e-06 -7.86426e-07
-3.93585e-06 -0.000115701 -2.24671e-06
-7.86426e-07 -2.24671e-06 -0.000142011
0.00102291 -2.41841e-06 -8.62783e-08
-2.41841e-06 7.63148e-06 -4.51356e-07
-8.62783e-08 -4.51356e-07 -3.5696e-05
0.000988191 -4.43651e-06 -1.00184e-06
-4.43651e-06 -2.68933e-05 -2.93758e-06
-1.00184e-06 -2.93758e-06 -2.36582e-05
0.000786465 -3.1814e-06 -1.01451e-07
-3.1814e-06 -0.000116045 -5.60892e-07
-1.01451e-07 -5.60892e-07 -0.000140565
0.00114761 -2.37588e-06 2.38991e-07
-2.37588e-06 6.70336e-05 1.1146e-06
2.38991e-07 1.1146e-06 2.67904e-05
0.0022296 -3.93467e-06 -2.51695e-06
-3.93467e-06 0.000574181 -3.76321e-06
-2.51695e-06 -3.76321e-06 0.000599526
0.000978078 -2.94558e-06 -6.87646e-08
-2.94558e-06 -3.37693e-05 3.18566e-10
-6.87646e-08 3.18566e-10 -2.95391e-05
0.00078978 -2.08899e-06 3.09956e-07
-2.08899e-06 -0.000116681 1.74678e-06
3.09956e-07 1.74678e-06 -0.000139793
0.00223171 -1.91302e-06 -4.01814e-07
-1.91302e-06 0.000573852 6.6825e-09
-4.01814e-07 6.6825e-09 0.000599488
0.000974945 -1.42604e-06 2.37505e-07
-1.42604e-06 -3.63795e-05 3.00811e-06
2.37505e-07 3.00811e-06 -3.16672e-05
0.00222844 8.78539e-08 -3.18529e-07
8.78539e-08 0.000571907 3.77889e-06
-3.18529e-07 3.77889e-06 0.000597631
0.000754959 -1.12421e-05 1.79745e-06
-1.12421e-05 0.000124186 -2.22358e-06
1.79745e-06 -2.22358e-06 4.44e-05
0.00075734 8.93179e-07 -2.92925e-07
8.93179e-07 0.000219146 2.60536e-07
-2.92925e-07 2.60536e-07 0.000159096
0.000608358 1.59179e-05 -9.60671e-06
1.59179e-05 0.000126927 4.34878e-06
-9.60671e-06 4.34878e-06 0.000126681
0.00113558 1.19326e-05 -1.56211e-07
1.19326e-05 6.469e-05 4.21375e-08
-1.56211e-07 4.21375e-08 7.69448e-06
0.00101799 1.34037e-05 -5.47417e-07
1.34037e-05 3.21162e-06 -4.24681e-07
-5.47417e-07 -4.24681e-07 -5.43078e-05
0.00119859 1.39136e-05 -2.75826e-08
1.39136e-05 9.66209e-05 3.51606e-07
-2.75826e-08 3.51606e-07 3.22364e-05
0.000454489 -1.69462e-06 -1.47808e-06
-1.69462e-06 -7.64084e-05 3.39932e-07
-1.47808e-06 3.39932e-07 -0.000138731
0.000787519 -1.3547e-05 7.5153e-07
-1.3547e-05 0.000152356 -5.73286e-07
7.5153e-07 -5.73286e-07 0.000101112
0.000906704 6.72044e-06 -8.64812e-06
6.72044e-06 0.000293951 7.57545e-06
-8.64812e-06 7.57545e-06 0.000276653
0.000688616 -2.22195e-05 -1.65827e-05
-2.22195e-05 7.81157e-05 1.34122e-05
-1.65827e-05 1.34122e-05 -4.61279e-05
0.00338355 -4.64598e-06 4.09988e-06
-4.64598e-06 0.000443201 -1.41489e-05
4.09988e-06 -1.41489e-05 -9.72114e-05
0.00293163 0.000152954 1.19889e-05
0.000152954 0.000873279 -2.34682e-05
1.19889e-05 -2.34682e-05 0.000750011
0.00144815 5.03095e-07 -7.40438e-06
5.03095e-07 0.000592815 -4.45273e-07
-7.40438e-06 -4.45273e-07 0.000572967
0.00047411 -5.12079e-05 -1.06416e-05
-5.12079e-05 -2.09398e-05 9.09452e-06
-1.06416e-05 9.09452e-06 -0.000136229
0.00596467 7.81202e-05 2.04016e-05
7.81202e-05 0.00139873 -3.68708e-05
2.04016e-05 -3.68708e-05 0.000844469
0.00113899 0.000112255 5.14826e-06
0.000112255 -0.000320532 5.96171e-06
5.14826e-06 5.96171e-06 -0.000322547
0.000657204 4.44606e-07 3.01041e-06
4.44606e-07 9.06278e-05 -9.99926e-07
3.01041e-06 -9.99926e-07 2.29008e-05
-0.00102155 -4.50897e-05 1.26444e-05
-4.50897e-05 -0.000630667 -3.37692e-05
1.26444e-05 -3.37692e-05 -0.000725984
0.00473784 0.000101638 5.45662e-06
0.000101638 0.000348887 -3.79513e-05
5.45662e-06 -3.79513e-05 0.000122731
0.0015474 4.09604e-06 -3.67581e-06
4.09604e-06 -0.000597412 2.04899e-05
-3.67581e-06 2.04899e-05 -0.000417168
0.000179931 -5.5468e-07 -5.32119e-06
-5.5468e-07 -0.000201414 2.15265e-06
-5.32119e-06 2.15265e-06 -0.000227473
0.00112515 1.38144e-05 -6.18253e-07
1.38144e-05 6.33425e-05 8.343e-08
-6.18253e-07 8.343e-08 -1.00166e-05
0.00110314 -6.79593e-08 3.11782e-08
-6.79593e-08 5.63174e-05 -2.60248e-07
3.11782e-08 -2.60248e-07 -1.67097e-05
0.0011111 -8.02178e-06 7.90093e-08
-8.02178e-06 6.29455e-05 6.21528e-07
7.90093e-08 6.21528e-07 -6.28505e-06
0.00110923 1.23756e-05 -2.81434e-07
1.23756e-05 5.61016e-05 -5.78678e-07
-2.81434e-07 -5.78678e-07 -9.40666e-06
0.0012439 1.60737e-05 3.56383e-07
1.60737e-05 0.000122288 9.16889e-07
3.56383e-07 9.16889e-07 5.96289e-05
0.00128662 8.09954e-06 5.65977e-08
8.09954e-06 0.000141049 7.23075e-07
5.65977e-08 7.23075e-07 8.6623e-05
2.27054e-05 -2.15362e-05 7.16685e-06
-2.15362e-05 -0.000699681 -6.98604e-06
7.16685e-06 -6.98604e-06 -0.000700471
0.00122769 -1.67266e-05 8.90019e-07
-1.67266e-05 0.000177869 -1.5588e-07
8.90019e-07 -1.5588e-07 7.63913e-05
0.0011539 4.12403e-06 8.95531e-08
4.12403e-06 8.91134e-05 -3.66251e-08
8.95531e-08 -3.66251e-08 8.96022e-06
0.00126099 -1.39164e-05 1.17662e-06
-1.39164e-05 0.000135692 -7.03168e-07
1.17662e-06 -7.03168e-07 3.67906e-05
0.00116176 -4.64855e-06 1.67537e-07
-4.64855e-06 9.1078e-05 8.78218e-09
1.67537e-07 8.78218e-09 1.85106e-06
0.0011096 9.71119e-06 2.54833e-07
9.71119e-06 6.36324e-05 3.08126e-07
2.54833e-07 3.08126e-07 -1.71805e-05
0.00112339 1.01635e-05 1.23924e-07
1.01635e-05 7.04073e-05 2.76304e-07
1.23924e-07 2.76304e-07 -1.77175e-05
0.0010741 -3.3036e-05 2.15322e-06
-3.3036e-05 -4.36654e-05 3.08639e-07
2.15322e-06 3.08639e-07 -0.000110365
0.00123594 -8.64528e-06 -1.70512e-08
-8.64528e-06 0.000125722 -4.28332e-07
-1.70512e-08 -4.28332e-07 3.02289e-05
0.00127519 2.89962e-06 -1.50076e-07
2.89962e-06 0.000191965 2.89623e-07
-1.50076e-07 2.89623e-07 8.82998e-05
0.00104914 1.31984e-05 -5.74389e-07
1.31984e-05 3.42385e-05 -1.17117e-07
-5.74389e-07 -1.17117e-07 -5.28067e-05
0.00172951 -1.41134e-05 -7.14319e-06
-1.41134e-05 0.000421372 2.2924e-05
-7.14319e-06 2.2924e-05 0.000324092
0.00105138 -1.95958e-06 1.01962e-07
-1.95958e-06 3.95208e-05 -2.70417e-07
1.01962e-07 -2.70417e-07 -6.12196e-05
0.0010763 -1.17878e-06 -1.00035e-07
-1.17878e-06 5.42288e-05 5.41786e-07
-1.00035e-07 5.41786e-07 -3.96973e-05
0.000930603 2.70897e-06 3.30836e-07
2.70897e-06 0.000184229 2.99062e-07
3.30836e-07 2.99062e-07 0.000103006
0.0008087 1.06733e-06 7.579e-07
1.06733e-06 0.000152158 5.24258e-07
7.579e-07 5.24258e-07 6.3155e-05
0.00102392 3.04341e-06 -1.48178e-05
3.04341e-06 0.000391683 3.37609e-07
-1.48178e-05 3.37609e-07 0.000323335
0.00152054 7.36545e-06 1.80641e-07
7.36545e-06 0.000282446 2.32979e-06
1.80641e-07 2.32979e-06 0.000208639
0.0011078 -4.40088e-06 7.36295e-06
-4.40088e-06 0.000289876 -1.89711e-06
7.36295e-06 -1.89711e-06 0.000231345
0.000445964 8.96144e-06 -1.72986e-06
8.96144e-06 -8.02383e-05 -7.72608e-07
-1.72986e-06 -7.72608e-07 -0.000162131
0.00288073 -4.31042e-05 2.63863e-07
-4.31042e-05 0.000204572 -7.36362e-06
2.63863e-07 -7.36362e-06 0.000162016
0.00122442 7.4292e-06 2.42435e-06
7.4292e-06 -0.000672711 2.51554e-05
2.42435e-06 2.51554e-05 -0.000373432
0.000855917 -2.56848e-06 -3.27924e-07
-2.56848e-06 0.000142821 7.68233e-07
-3.27924e-07 7.68233e-07 7.98043e-05
0.00139379 1.08828e-06 7.56999e-06
1.08828e-06 0.000541038 -1.58454e-06
7.56999e-06 -1.58454e-06 0.000541829
0.00113861 -6.96738e-06 1.69811e-06
-6.96738e-06 6.93208e-05 2.05712e-06
1.69811e-06 2.05712e-06 1.51847e-05
0.000789859 2.92368e-07 3.53648e-07
2.92368e-07 9.42346e-05 8.15756e-07
3.53648e-07 8.15756e-07 2.10033e-05
0.000823067 -1.11913e-05 -1.06493e-06
-1.11913e-05 0.000146879 6.94663e-07
-1.06493e-06 6.94663e-07 9.95531e-05
0.000194527 2.6152e-05 -4.77475e-07
2.6152e-05 -8.93697e-05 1.85616e-07
-4.77475e-07 1.85616e-07 -0.000424001
0.000774738 2.10741e-05 2.41167e-06
2.10741e-05 0.000100057 1.94968e-06
2.41167e-06 1.94968e-06 0.000191905
0.000321807 0.00011059 -3.74952e-06
0.00011059 -0.000599267 -7.77409e-06
-3.74952e-06 -7.77409e-06 -0.000532605
0.00527575 2.34619e-05 5.92636e-06
2.34619e-05 0.000412196 -2.02085e-05
5.92636e-06 -2.02085e-05 0.000633559
0.00116955 3.24058e-06 -1.10102e-06
3.24058e-06 0.000232125 -1.07194e-05
-1.10102e-06 -1.07194e-05 0.00019906
0.00076694 -7.63048e-06 -2.43766e-06
-7.63048e-06 0.000122453 2.16198e-06
-2.43766e-06 2.16198e-06 4.32659e-05
0.000509538 7.20652e-06 -1.66205e-05
7.20652e-06 2.24887e-05 7.11357e-06
-1.66205e-05 7.11357e-06 7.02165e-06
0.00095597 3.66927e-05 1.08567e-06
3.66927e-05 0.000238373 1.2375e-06
1.08567e-06 1.2375e-06 0.00033786
-0.001001 0.000115381 2.74728e-05
0.000115381 -0.000868634 -4.71985e-05
2.74728e-05 -4.71985e-05 -0.000915185
0.0065444 7.84922e-05 -2.03474e-06
7.84922e-05 0.00136805 5.99811e-07
-2.03474e-06 5.99811e-07 0.00110523
0.00063538 -2.02777e-05 -8.79702e-06
-2.02777e-05 0.000279372 4.55644e-05
-8.79702e-06 4.55644e-05 -0.000257366
0.000965473 7.30144e-06 1.47328e-06
7.30144e-06 6.33676e-06 -1.28142e-06
1.47328e-06 -1.28142e-06 -6.96869e-05
0.00110198 1.14987e-05 6.05716e-07
1.14987e-05 7.58589e-05 -1.36771e-06
6.05716e-07 -1.36771e-06 -2.88887e-06
0.00103378 3.6389e-06 4.16557e-07
3.6389e-06 7.4808e-05 -6.80165e-07
4.16557e-07 -6.80165e-07 -9.13834e-06
0.00111167 -1.0141e-05 -4.55706e-08
-1.0141e-05 6.16858e-05 1.79255e-08
-4.55706e-08 1.79255e-08 -1.56108e-05
0.00113772 6.3111e-06 -1.01072e-07
6.3111e-06 8.71897e-05 1.85591e-06
-1.01072e-07 1.85591e-06 1.10446e-05
0.00117126 -8.57013e-06 -3.17356e-08
-8.57013e-06 0.000108742 2.26632e-07
-3.17356e-08 2.26632e-07 2.7222e-05
0.00115615 -2.04698e-05 1.23962e-06
-2.04698e-05 0.000126234 5.53337e-07
1.23962e-06 5.53337e-07 3.27613e-05
0.00117755 -1.89694e-05 2.43864e-07
-1.89694e-05 9.66451e-05 7.60598e-08
2.43864e-07 7.60598e-08 1.99304e-05
0.00119056 -2.23527e-05 -1.76237e-07
-2.23527e-05 0.00011489 3.81432e-07
-1.76237e-07 3.81432e-07 3.2305e-05
0.00116865 -2.61206e-05 -2.11408e-07
-2.61206e-05 9.87178e-05 1.4471e-06
-2.11408e-07 1.4471e-06 9.07756e-06
0.00107358 -2.05958e-05 7.42055e-08
-2.05958e-05 4.46167e-05 -4.45052e-07
7.42055e-08 -4.45052e-07 -2.99013e-05
0.00122611 -2.44818e-05 -9.31812e-08
-2.44818e-05 0.000106551 4.34186e-08
-9.31812e-08 4.34186e-08 2.71094e-05
0.00141304 -2.73383e-05 -7.23075e-07
-2.73383e-05 0.00018999 5.32999e-07
-7.23075e-07 5.32999e-07 0.000108668
0.00129981 -2.46089e-05 -6.08656e-07
-2.46089e-05 0.000132911 6.2368e-07
-6.08656e-07 6.2368e-07 5.75556e-05
0.00103175 -1.95649e-05 -3.49087e-07
-1.95649e-05 1.55203e-05 6.06088e-07
-3.49087e-07 6.06088e-07 -5.05882e-05
0.00114325 -2.23618e-05 -1.17883e-07
-2.23618e-05 6.144e-05 1.75725e-07
-1.17883e-07 1.75725e-07 -1.09464e-05
0.00115824 -2.23297e-05 7.97055e-08
-2.23297e-05 6.78864e-05 -2.97132e-07
7.97055e-08 -2.97132e-07 -3.80995e-06
0.00121798 -1.79393e-05 -3.65216e-08
-1.79393e-05 0.000107769 -1.02622e-07
-3.65216e-08 -1.02622e-07 4.87737e-05
0.00115266 -1.90719e-05 4.5962e-07
-1.90719e-05 7.65216e-05 -4.50633e-07
4.5962e-07 -4.50633e-07 1.3917e-05
0.000996211 -3.95408e-06 -4.59122e-07
-3.95408e-06 4.97732e-06 4.69418e-07
-4.59122e-07 4.69418e-07 -4.96652e-05
0.00110897 -1.47221e-05 7.49091e-08
-1.47221e-05 5.94877e-05 -6.40717e-08
7.49091e-08 -6.40717e-08 2.8392e-07
0.00114114 -1.95049e-05 1.13761e-06
-1.95049e-05 6.88042e-05 -6.77634e-07
1.13761e-06 -6.77634e-07 5.26231e-06
0.00105912 1.18178e-06 -1.25325e-06
1.18178e-06 2.67803e-05 7.41088e-07
-1.25325e-06 7.41088e-07 -1.72338e-05
0.00111118 -8.44152e-06 -1.86674e-07
-8.44152e-06 5.27148e-05 -2.90929e-08
-1.86674e-07 -2.90929e-08 -8.17509e-07
0.00115072 -1.69503e-05 2.33596e-07
-1.69503e-05 7.21302e-05 6.1661e-08
2.33596e-07 6.1661e-08 1.31892e-05
0.00101437 6.81064e-06 -1.63329e-06
6.81064e-06 2.57472e-06 1.57044e-06
-1.63329e-06 1.57044e-06 -2.47707e-05
0.00107071 -1.29309e-06 7.3782e-08
-1.29309e-06 2.96103e-05 4.55805e-08
7.3782e-08 4.55805e-08 -1.49062e-05
0.00103564 -1.15171e-05 9.32537e-07
-1.15171e-05 1.35007e-05 -1.49182e-07
9.32537e-07 -1.49182e-07 -4.18379e-05
0.00106577 -7.75646e-07 9.93719e-07
-7.75646e-07 2.75567e-05 -9.13094e-07
9.93719e-07 -9.13094e-07 -1.77289e-05
0.00101713 6.1778e-06 8.01545e-08
6.1778e-06 2.47894e-06 2.035e-08
8.01545e-08 2.035e-08 -2.49124e-05
0.000939463 9.3586e-06 -2.1357e-06
9.3586e-06 -3.85583e-05 2.78261e-06
-2.1357e-06 2.78261e-06 -3.89753e-05
0.00102326 5.41495e-06 1.23961e-06
5.41495e-06 3.88867e-06 -1.65615e-06
1.23961e-06 -1.65615e-06 -2.32452e-05
0.000956171 8.18338e-06 6.94785e-08
8.18338e-06 -3.39337e-05 1.47239e-08
6.94785e-08 1.47239e-08 -3.38879e-05
0.0023602 1.15133e-05 -5.39048e-06
1.15133e-05 0.000648848 3.63666e-06
-5.39048e-06 3.63666e-06 0.000671322
0.000972022 6.91218e-06 1.70935e-06
6.91218e-06 -2.97811e-05 -2.8707e-06
1.70935e-06 -2.8707e-06 -2.92301e-05
0.00173012 9.2113e-06 1.83122e-06
9.2113e-06 0.000337583 -1.13161e-06
1.83122e-06 -1.13161e-06 0.000358088
0.00231879 7.76572e-06 4.31722e-06
7.76572e-06 0.000622405 -3.74363e-06
4.31722e-06 -3.74363e-06 0.000646049
0.00105628 4.38437e-06 -7.63958e-07
4.38437e-06 2.21535e-05 -8.85884e-07
-7.63958e-07 -8.85884e-07 -2.25755e-05
0.00102084 -4.58629e-06 -9.89434e-07
-4.58629e-06 2.07148e-06 -1.62914e-06
-9.89434e-07 -1.62914e-06 -2.41303e-05
0.000972888 1.87187e-06 -2.87949e-07
1.87187e-06 -1.6916e-05 -4.29978e-07
-2.87949e-07 -4.29978e-07 -6.19043e-05
0.000985694 -5.81878e-06 -1.30291e-06
-5.81878e-06 -2.53981e-05 -2.90196e-06
-1.30291e-06 -2.90196e-06 -2.33651e-05
0.000904444 -4.05038e-06 -1.72171e-07
-4.05038e-06 -5.62958e-05 -5.56874e-07
-1.72171e-07 -5.56874e-07 -8.19319e-05
0.00115794 -3.46955e-06 2.14613e-07
-3.46955e-06 7.28326e-05 5.40559e-07
2.14613e-07 5.40559e-07 3.0148e-05
0.00224645 -5.91106e-06 -3.41396e-06
-5.91106e-06 0.000584517 -3.74675e-06
-3.41396e-06 -3.74675e-06 0.000609304
0.000975856 -4.44194e-06 -6.81179e-08
-4.44194e-06 -3.28966e-05 -2.71513e-09
-6.81179e-08 -2.71513e-09 -2.95715e-05
0.000773986 -3.18266e-06 3.66739e-07
-3.18266e-06 -0.00012181 1.14123e-06
3.66739e-07 1.14123e-06 -0.000146519
0.00223848 -3.88259e-06 -3.36524e-07
-3.88259e-06 0.000578278 1.20435e-08
-3.36524e-07 1.20435e-08 0.000603644
0.000969944 -2.93965e-06 5.67778e-07
-2.93965e-06 -3.77605e-05 2.98897e-06
5.67778e-07 2.98897e-06 -3.34651e-05
0.00223927 -1.87036e-06 8.3724e-07
-1.87036e-06 0.00057745 3.7951e-06
8.3724e-07 3.7951e-06 0.000603068
0.000626894 -1.31679e-06 -6.08426e-07
-1.31679e-06 4.73213e-06 -9.02855e-07
-6.08426e-07 -9.02855e-07 -6.87484e-05
0.000884069 -1.121e-05 7.01061e-07
-1.121e-05 0.000205665 -2.40764e-07
7.01061e-07 -2.40764e-07 0.000125351
0.000803822 8.17505e-07 -9.68291e-06
8.17505e-07 0.000247251 3.2607e-06
-9.68291e-06 3.2607e-06 0.000187587
0.00102495 1.22746e-05 -5.27041e-07
1.22746e-05 5.39864e-06 -2.80935e-07
-5.27041e-07 -2.80935e-07 -5.07611e-05
0.00118866 1.69568e-05 -1.60996e-07
1.69568e-05 8.42243e-05 2.54866e-07
-1.60996e-07 2.54866e-07 2.48226e-05
0.00117854 1.40624e-05 3.73562e-07
1.40624e-05 8.55714e-05 5.8695e-07
3.73562e-07 5.8695e-07 2.8978e-05
0.00101238 1.3179e-05 1.77763e-08
1.3179e-05 8.32145e-07 2.20298e-08
1.77763e-08 2.20298e-08 -5.66082e-05
0.00114418 1.42607e-05 1.85951e-07
1.42607e-05 6.99557e-05 2.9939e-07
1.85951e-07 2.9939e-07 4.9177e-06
0.00116846 1.75747e-05 -2.83148e-07
1.75747e-05 7.80166e-05 9.75804e-08
-2.83148e-07 9.75804e-08 1.42218e-05
0.00115502 1.78751e-05 4.51096e-08
1.78751e-05 7.43133e-05 5.27035e-07
4.51096e-08 5.27035e-07 5.35602e-06
0.000882826 7.66313e-06 -8.47878e-06
7.66313e-06 0.000214216 -3.8492e-06
-8.47878e-06 -3.8492e-06 0.000160254
0.000667944 -1.98917e-06 8.22784e-07
-1.98917e-06 5.6098e-05 -1.59726e-07
8.22784e-07 -1.59726e-07 -9.03483e-06
0.00120205 -1.38808e-05 -3.69902e-06
-1.38808e-05 0.000415107 2.47998e-07
-3.69902e-06 2.47998e-07 0.000360272
0.00108241 2.39453e-06 5.70645e-07
2.39453e-06 0.000369318 -2.95201e-06
5.70645e-07 -2.95201e-06 0.000301145
0.00239273 -7.66327e-05 -5.08657e-05
-7.66327e-05 0.000541914 5.86958e-05
-5.08657e-05 5.86958e-05 0.000259846
0.00117375 9.15426e-05 3.49773e-05
9.15426e-05 -0.000452923 -5.22548e-05
3.49773e-05 -5.22548e-05 -0.000944073
0.00461271 0.000118639 1.7705e-06
0.000118639 0.000907995 -1.67332e-05
1.7705e-06 -1.67332e-05 0.00101516
0.00098179 -5.84197e-05 -2.71667e-05
-5.84197e-05 0.000141609 2.601e-05
-2.71667e-05 2.601e-05 -4.22268e-05
0.00478854 4.917e-05 4.87798e-06
4.917e-05 0.00043429 -3.2297e-05
4.87798e-06 -3.2297e-05 1.13562e-05
0.00379179 1.14755e-05 -1.06657e-05
1.14755e-05 0.000162887 -1.13089e-07
-1.06657e-05 -1.13089e-07 0.000471586
0.000458967 -6.21159e-06 3.89784e-06
-6.21159e-06 -7.59115e-05 2.56378e-06
3.89784e-06 2.56378e-06 -8.95231e-05
-0.000665136 -3.15376e-05 2.9758e-06
-3.15376e-05 -0.000429943 -8.41582e-06
2.9758e-06 -8.41582e-06 -0.000574912
0.00394724 -1.88472e-05 1.54948e-06
-1.88472e-05 8.61887e-05 -0.000100902
1.54948e-06 -0.000100902 -0.000505756
0.00123713 -8.72915e-05 2.21107e-08
-8.72915e-05 -0.000326299 3.24411e-05
2.21107e-08 3.24411e-05 -0.000230549
-0.000588509 -2.34164e-05 -6.80966e-06
-2.34164e-05 -0.000686309 1.97784e-06
-6.80966e-06 1.97784e-06 -0.000647756
0.0011419 1.91756e-05 -1.74811e-06
1.91756e-05 7.42569e-05 3.79972e-07
-1.74811e-06 3.79972e-07 -1.09779e-06
0.00115973 1.14383e-05 -4.87483e-08
1.14383e-05 8.04394e-05 -6.20236e-08
-4.87483e-08 -6.20236e-08 6.81157e-06
0.00109911 -1.2975e-06 7.47863e-08
-1.2975e-06 5.4767e-05 -1.83287e-07
7.47863e-08 -1.83287e-07 -1.81866e-05
0.00112947 1.22074e-05 -3.23848e-08
1.22074e-05 6.57614e-05 -3.40706e-07
-3.23848e-08 -3.40706e-07 8.14735e-08
0.000144116 -2.87327e-05 9.34337e-06
-2.87327e-05 -0.000504789 -1.26067e-05
9.34337e-06 -1.26067e-05 -0.00056168
0.00131115 -7.81654e-08 9.20191e-07
-7.81654e-08 0.000196028 -1.64773e-06
9.20191e-07 -1.64773e-06 9.19281e-05
0.00115671 1.0378e-05 5.52484e-07
1.0378e-05 8.73319e-05 3.65784e-07
5.52484e-07 3.65784e-07 5.70237e-06
0.00107716 1.04642e-05 7.74927e-08
1.04642e-05 4.84328e-05 3.35015e-08
7.74927e-08 3.35015e-08 -3.99171e-05
0.00118237 -1.00081e-05 3.05551e-08
-1.00081e-05 0.000102622 -1.59318e-06
3.05551e-08 -1.59318e-06 7.02864e-06
0.00112834 1.42831e-05 -2.96791e-07
1.42831e-05 7.36972e-05 -8.24615e-08
-2.96791e-07 -8.24615e-08 -1.2275e-05
0.00112379 5.09093e-07 -2.39389e-07
5.09093e-07 7.56858e-05 -3.02465e-07
-2.39389e-07 -3.02465e-07 -1.83372e-05
0.000858817 -1.07458e-05 4.093e-06
-1.07458e-05 9.36186e-05 -2.58968e-06
4.093e-06 -2.58968e-06 1.27439e-05
0.0010542 -4.15057e-06 5.31819e-07
-4.15057e-06 4.09133e-05 -8.05949e-07
5.31819e-07 -8.05949e-07 -5.85952e-05
0.00113619 1.18563e-05 -3.07519e-07
1.18563e-05 8.38118e-05 2.00237e-07
-3.07519e-07 2.00237e-07 -8.08029e-06
0.000653586 7.50663e-06 3.35169e-06
7.50663e-06 0.000174549 2.84522e-05
3.35169e-06 2.84522e-05 0.000108892
0.00125824 -2.14847e-06 1.10792e-06
-2.14847e-06 0.000125753 -1.05861e-06
1.10792e-06 -1.05861e-06 1.89696e-05
0.00117926 2.91133e-06 -1.05367e-06
2.91133e-06 0.000389247 -4.43664e-08
-1.05367e-06 -4.43664e-08 0.000296166
0.000764117 1.25219e-06 1.85265e-07
1.25219e-06 8.02838e-05 1.29875e-07
1.85265e-07 1.29875e-07 1.29814e-06
0.000387544 5.93231e-07 7.46569e-08
5.93231e-07 -0.000114562 -3.74747e-08
7.46569e-08 -3.74747e-08 -0.000203349
0.00125702 -7.92118e-06 -6.03034e-07
-7.92118e-06 0.000111396 5.81445e-06
-6.03034e-07 5.81445e-06 5.5163e-05
4.49505e-05 3.17981e-06 3.7751e-07
3.17981e-06 -3.30927e-05 1.2341e-05
3.7751e-07 1.2341e-05 -0.000108362
0.000826167 -6.15998e-07 7.01655e-07
-6.15998e-07 0.000119171 4.60674e-07
7.01655e-07 4.60674e-07 4.41045e-05
0.00394452 4.42818e-05 1.79709e-06
4.42818e-05 0.000495286 -5.00255e-05
1.79709e-06 -5.00255e-05 -0.000247819
0.00492587 0.000116525 -3.61811e-06
0.000116525 0.00107935 1.81411e-05
-3.61811e-06 1.81411e-05 0.00127373
0.00122569 -1.22317e-05 3.62796e-06
-1.22317e-05 0.000402423 -1.62909e-06
3.62796e-06 -1.62909e-06 0.000351496
0.00223023 1.85504e-05 7.67591e-06
1.85504e-05 0.00100758 -1.33993e-06
7.67591e-06 -1.33993e-06 0.00108147
0.00093594 1.81391e-06 9.0479e-08
1.81391e-06 9.3043e-05 -4.71038e-07
9.0479e-08 -4.71038e-07 6.1337e-05
0.000899121 -7.409e-06 -1.20934e-06
-7.409e-06 0.000205998 2.76097e-07
-1.20934e-06 2.76097e-07 0.0001263
0.000740338 7.31242e-06 -3.21679e-06
7.31242e-06 0.000166345 8.46034e-07
-3.21679e-06 8.46034e-07 0.000152422
0.000137661 -4.29473e-06 -8.36654e-07
-4.29473e-06 0.0001442 7.92351e-06
-8.36654e-07 7.92351e-06 -4.5786e-05
0.000436263 3.95917e-05 -5.61398e-07
3.95917e-05 -7.00125e-05 -1.62321e-06
-5.61398e-07 -1.62321e-06 2.56441e-05
-0.000303859 0.000122254 2.64859e-06
0.000122254 -0.000794542 -1.07237e-05
2.64859e-06 -1.07237e-05 -0.000824211
0.00246402 5.09471e-05 7.7436e-06
5.09471e-05 -0.000236846 -2.89207e-05
7.7436e-06 -2.89207e-05 -0.000706418
0.000796253 1.39633e-06 6.07996e-06
1.39633e-06 0.000111742 -1.99917e-05
6.07996e-06 -1.99917e-05 9.35276e-05
0.000834904 1.21863e-06 -9.49086e-06
1.21863e-06 0.000263041 3.4034e-06
-9.49086e-06 3.4034e-06 0.000204462
-0.00130063 2.58054e-05 -9.3346e-07
2.58054e-05 -0.00102481 1.20089e-06
-9.3346e-07 1.20089e-06 -0.00099345
9.15355e-05 7.3114e-05 3.5771e-05
7.3114e-05 1.22381e-05 -3.40279e-05
3.5771e-05 -3.40279e-05 1.40408e-05
0.00552892 8.75315e-05 1.37984e-05
8.75315e-05 0.00118281 -2.63978e-05
1.37984e-05 -2.63978e-05 0.00075609
0.00133804 -6.42041e-05 -2.08499e-05
-6.42041e-05 0.000194642 7.2241e-05
-2.08499e-05 7.2241e-05 -0.000231139
0.0012473 9.26662e-06 3.64927e-07
9.26662e-06 0.000143789 -1.90208e-06
3.64927e-07 -1.90208e-06 6.51379e-05
0.00111559 5.95953e-06 -1.20707e-07
5.95953e-06 0.000106704 -1.69152e-07
-1.20707e-07 -1.69152e-07 2.31146e-05
0.000918211 -1.21571e-05 1.89453e-06
-1.21571e-05 7.16368e-05 6.36631e-07
1.89453e-06 6.36631e-07 -4.1724e-05
0.00114145 -8.0443e-06 -3.83413e-07
-8.0443e-06 9.41308e-05 5.81412e-07
-3.83413e-07 5.81412e-07 1.28502e-05
0.00100978 -1.91287e-05 4.22241e-07
-1.91287e-05 5.57136e-05 1.05185e-07
4.22241e-07 1.05185e-07 -3.60958e-05
0.00125587 -2.88424e-05 1.25368e-06
-2.88424e-05 0.000163021 1.05791e-06
1.25368e-06 1.05791e-06 5.70459e-05
0.00141653 -2.45555e-05 3.50813e-08
-2.45555e-05 0.000220601 -2.34518e-07
3.50813e-08 -2.34518e-07 0.000136876
0.00126545 -2.71958e-05 -1.86318e-07
-2.71958e-05 0.000143916 5.13148e-07
-1.86318e-07 5.13148e-07 5.28508e-05
0.00120471 -2.97183e-05 -1.3345e-06
-2.97183e-05 9.22175e-05 -4.31422e-07
-1.3345e-06 -4.31422e-07 8.35749e-07
0.00125029 -2.46153e-05 -2.51166e-08
-2.46153e-05 0.00011813 -5.5926e-07
-2.51166e-08 -5.5926e-07 3.84336e-05
0.00133136 -2.67489e-05 -1.46086e-07
-2.67489e-05 0.000149883 4.30992e-08
-1.46086e-07 4.30992e-08 6.79869e-05
0.00129699 -2.61127e-05 -2.96409e-07
-2.61127e-05 0.00012684 -7.60321e-07
-2.96409e-07 -7.60321e-07 4.68196e-05
0.00124893 -2.3502e-05 -4.74987e-07
-2.3502e-05 8.76118e-05 -9.8792e-07
-4.74987e-07 -9.8792e-07 1.57038e-05
0.00131806 -2.32526e-05 -6.86206e-07
-2.32526e-05 0.000140786 1.00627e-06
-6.86206e-07 1.00627e-06 7.14017e-05
0.00124032 -2.42168e-05 -1.27129e-07
-2.42168e-05 0.000104365 5.80666e-08
-1.27129e-07 5.80666e-08 2.84168e-05
0.000991495 -1.81956e-05 -3.15644e-07
-1.81956e-05 -2.60663e-06 1.23949e-07
-3.15644e-07 1.23949e-07 -6.35855e-05
0.00109004 -1.99113e-05 2.35938e-07
-1.99113e-05 4.30928e-05 -6.73794e-08
2.35938e-07 -6.73794e-08 -2.24762e-05
0.00109796 -2.21489e-05 2.91439e-07
-2.21489e-05 4.00576e-05 -4.84804e-07
2.91439e-07 -4.84804e-07 -3.30443e-05
0.00111726 -1.00522e-05 -3.02517e-07
-1.00522e-05 6.06446e-05 2.52046e-07
-3.02517e-07 2.52046e-07 5.51047e-06
0.00115569 -1.74232e-05 1.38115e-07
-1.74232e-05 7.83239e-05 -1.47218e-07
1.38115e-07 -1.47218e-07 1.88746e-05
0.00106194 -1.82723e-05 8.9605e-07
-1.82723e-05 3.35897e-05 -4.75227e-07
8.9605e-07 -4.75227e-07 -2.86023e-05
0.00104238 5.14468e-06 -9.91299e-07
5.14468e-06 2.43883e-05 7.53458e-07
-9.91299e-07 7.53458e-07 -2.05471e-05
0.00103666 -3.149e-06 -1.29545e-07
-3.149e-06 2.39523e-05 1.62229e-07
-1.29545e-07 1.62229e-07 -3.031e-05
0.00117975 -1.50751e-05 3.9778e-07
-1.50751e-05 9.3079e-05 -2.33882e-07
3.9778e-07 -2.33882e-07 3.4485e-05
0.00100372 7.87224e-06 -1.82919e-06
7.87224e-06 2.68406e-07 1.455e-06
-1.82919e-06 1.455e-06 -2.70903e-05
0.00106744 1.04566e-06 -8.48335e-08
1.04566e-06 3.04051e-05 -1.28688e-08
-8.48335e-08 -1.28688e-08 -1.35421e-05
0.00111642 -8.66212e-06 4.93981e-07
-8.66212e-06 5.45745e-05 -2.07533e-07
4.93981e-07 -2.07533e-07 1.1293e-06
0.000972109 1.05129e-05 -3.27013e-06
1.05129e-05 -1.93968e-05 3.75747e-06
-3.27013e-06 3.75747e-06 -2.03883e-05
0.00101278 6.89011e-06 6.44597e-08
6.89011e-06 1.92135e-06 2.74423e-08
6.44597e-08 2.74423e-08 -2.54081e-05
0.00106902 -8.28257e-07 1.20206e-06
-8.28257e-07 2.85572e-05 -7.58797e-07
1.20206e-06 -7.58797e-07 -1.58651e-05
0.00101603 6.24468e-06 1.50494e-06
6.24468e-06 2.03926e-06 -1.60011e-06
1.50494e-06 -1.60011e-06 -2.53514e-05
0.000947708 9.37357e-06 8.7513e-08
9.37357e-06 -3.45955e-05 2.39285e-08
8.7513e-08 2.39285e-08 -3.50422e-05
0.00237181 1.33724e-05 -5.96345e-06
1.33724e-05 0.000658554 3.55564e-06
-5.96345e-06 3.55564e-06 0.000680346
0.000965403 8.18902e-06 1.99913e-06
8.18902e-06 -2.95641e-05 -2.81431e-06
1.99913e-06 -2.81431e-06 -2.95483e-05
0.00234035 1.15445e-05 1.78313e-07
1.15445e-05 0.000639646 2.93622e-08
1.78313e-07 2.93622e-08 0.000662141
0.00231917 9.69319e-06 5.03558e-06
9.69319e-06 0.000625993 -3.68129e-06
5.03558e-06 -3.68129e-06 0.000649107
0.00110881 1.12745e-05 -5.56031e-07
1.12745e-05 4.6092e-05 -1.90538e-07
-5.56031e-07 -1.90538e-07 -8.90613e-06
0.00106654 2.37658e-06 -8.44579e-07
2.37658e-06 2.62181e-05 -8.52417e-07
-8.44579e-07 -8.52417e-07 -1.86985e-05
0.00101098 -5.03981e-06 -1.22667e-06
-5.03981e-06 -1.26797e-06 -1.59233e-06
-1.22667e-06 -1.59233e-06 -2.84139e-05
0.00106785 4.67816e-06 -2.51697e-08
4.67816e-06 2.76967e-05 7.34219e-09
-2.51697e-08 7.34219e-09 -1.71033e-05
0.000977382 -7.04679e-06 -1.63685e-06
-7.04679e-06 -2.62217e-05 -2.85962e-06
-1.63685e-06 -2.85962e-06 -2.54441e-05
0.00102297 -4.60246e-06 -7.91225e-08
-4.60246e-06 3.22028e-06 1.65292e-08
-7.91225e-08 1.65292e-08 -2.29978e-05
0.00106536 4.79274e-06 2.9203e-07
4.79274e-06 2.82469e-05 5.65021e-07
2.9203e-07 5.65021e-07 -1.62753e-05
0.00227373 -7.84769e-06 -4.25206e-06
-7.84769e-06 0.00060074 -3.73304e-06
-4.25206e-06 -3.73304e-06 0.000624766
0.000971173 -5.83263e-06 -7.80421e-08
-5.83263e-06 -3.23891e-05 -4.55775e-09
-7.80421e-08 -4.55775e-09 -3.02665e-05
0.00102599 -4.17506e-06 5.15735e-07
-4.17506e-06 2.81047e-06 1.11909e-06
5.15735e-07 1.11909e-06 -2.21517e-05
0.00225674 -5.8637e-06 -2.89142e-07
-5.8637e-06 0.000589182 1.74033e-08
-2.89142e-07 1.74033e-08 0.000614019
0.000963348 -4.44698e-06 8.53653e-07
-4.44698e-06 -3.89863e-05 2.95876e-06
8.53653e-07 2.95876e-06 -3.55702e-05
0.00224781 -3.82888e-06 2.00305e-06
-3.82888e-06 0.000582597 3.76166e-06
2.00305e-06 3.76166e-06 0.000607983
0.000753724 7.19625e-06 -2.07142e-06
7.19625e-06 0.000123777 -2.46861e-06
-2.07142e-06 -2.46861e-06 3.93538e-05
0.000767268 -2.31138e-06 -1.16051e-07
-2.31138e-06 9.24119e-05 -1.16314e-06
-1.16051e-07 -1.16314e-06 1.69937e-05
0.00100949 -1.11576e-05 -4.16582e-07
-1.11576e-05 0.000284796 7.77072e-07
-4.16582e-07 7.77072e-07 0.000203926
0.00106463 1.20449e-05 5.14057e-08
1.20449e-05 2.53135e-05 1.95912e-08
5.14057e-08 1.95912e-08 -3.06011e-05
0.00114151 1.65494e-05 2.19534e-07
1.65494e-05 6.11178e-05 1.42594e-07
2.19534e-07 1.42594e-07 1.38127e-06
0.0010735 1.24755e-05 -2.80123e-07
1.24755e-05 2.9012e-05 -1.17513e-07
-2.80123e-07 -1.17513e-07 -3.02393e-05
0.0010772 1.65947e-05 -5.77351e-07
1.65947e-05 3.06697e-05 -9.09114e-08
-5.77351e-07 -9.09114e-08 -3.06542e-05
0.001193 1.77096e-05 1.06887e-07
1.77096e-05 8.47563e-05 4.0546e-07
1.06887e-07 4.0546e-07 2.26559e-05
0.00100553 1.29431e-05 6.16588e-07
1.29431e-05 -2.11571e-06 4.14843e-07
6.16588e-07 4.14843e-07 -5.94774e-05
0.00109002 1.52373e-05 4.16786e-07
1.52373e-05 4.34035e-05 2.77847e-07
4.16786e-07 2.77847e-07 -2.23049e-05
0.00116034 1.75335e-05 5.34516e-09
1.75335e-05 7.39764e-05 1.82257e-09
5.34516e-09 1.82257e-09 1.02427e-05
0.0011349 1.73334e-05 2.7394e-07
1.73334e-05 6.3845e-05 2.34891e-07
2.7394e-07 2.34891e-07 -4.72512e-06
0.00121144 1.86429e-05 -1.48713e-07
1.86429e-05 9.9663e-05 5.05783e-07
-1.48713e-07 5.05783e-07 3.21178e-05
0.000684746 -1.30833e-05 -9.94868e-06
-1.30833e-05 0.000163052 -1.3738e-05
-9.94868e-06 -1.3738e-05 0.00013574
0.000576552 7.51716e-06 -1.92442e-06
7.51716e-06 2.40834e-05 -9.34395e-07
-1.92442e-06 -9.34395e-07 -3.19299e-05
0.000905091 -2.21808e-06 -3.82234e-07
-2.21808e-06 0.00020302 -1.62935e-06
-3.82234e-07 -1.62935e-06 0.000135113
-1.99765e-05 -3.57707e-06 1.32381e-05
-3.57707e-06 -0.000361052 2.62923e-06
1.32381e-05 2.62923e-06 -0.000388819
0.00173374 9.18796e-06 -2.87677e-06
9.18796e-06 -0.000462409 -2.0108e-05
-2.87677e-06 -2.0108e-05 -0.000264798
0.00149107 -6.48164e-05 -3.2117e-05
-6.48164e-05 0.000251383 9.5435e-05
-3.2117e-05 9.5435e-05 -4.16633e-05
0.00533057 8.97838e-05 1.09394e-05
8.97838e-05 0.000800994 -1.56503e-05
1.09394e-05 -1.56503e-05 0.0004671
0.000610548 -4.87137e-05 -7.75649e-06
-4.87137e-05 1.4863e-05 1.37136e-05
-7.75649e-06 1.37136e-05 -0.000325343
0.0060496 1.18076e-05 -3.06099e-06
1.18076e-05 0.000483087 3.70151e-06
-3.06099e-06 3.70151e-06 0.000745423
0.00251683 -0.000119168 -6.75617e-08
-0.000119168 0.000245368 -5.23406e-06
-6.75617e-08 -5.23406e-06 0.00021562
-0.000819948 -2.74045e-05 -2.28245e-07
-2.74045e-05 -0.000851782 6.99156e-06
-2.28245e-07 6.99156e-06 -0.000788222
0.000307035 -1.66813e-05 6.67912e-06
-1.66813e-05 2.72059e-05 -3.81107e-05
6.67912e-06 -3.81107e-05 -0.000435091
0.0054708 -0.000100897 1.48703e-05
-0.000100897 0.0010145 3.17132e-05
1.48703e-05 3.17132e-05 0.000580436
0.00318441 -0.000154437 7.96054e-06
-0.000154437 0.000893835 2.34253e-05
7.96054e-06 2.34253e-05 0.000809655
0.000788883 -4.97882e-05 -1.3385e-06
-4.97882e-05 0.000100444 5.63116e-09
-1.3385e-06 5.63116e-09 0.000203036
0.00110581 2.21242e-05 -3.86234e-07
2.21242e-05 6.18815e-05 1.00201e-06
-3.86234e-07 1.00201e-06 -8.51562e-06
0.00116852 1.92142e-05 -4.4629e-07
1.92142e-05 8.6915e-05 -1.02881e-08
-4.4629e-07 -1.02881e-08 1.26136e-05
0.00119597 8.33527e-06 2.73458e-07
8.33527e-06 9.83624e-05 -3.66018e-07
2.73458e-07 -3.66018e-07 2.44575e-05
6.65973e-05 -7.29945e-06 1.61484e-06
-7.29945e-06 -0.000201393 -1.5286e-05
1.61484e-06 -1.5286e-05 -0.000266796
0.00108149 -7.02098e-06 4.56638e-07
-7.02098e-06 5.41942e-05 -2.21182e-06
4.56638e-07 -2.21182e-06 -4.41639e-05
0.00120219 1.55089e-05 5.87019e-07
1.55089e-05 0.000110724 3.40501e-08
5.87019e-07 3.40501e-08 2.58252e-05
0.00117438 2.63618e-06 1.56098e-07
2.63618e-06 9.85713e-05 -9.63224e-07
1.56098e-07 -9.63224e-07 4.45416e-06
0.00116606 1.23508e-05 6.61792e-07
1.23508e-05 0.000101203 -6.87091e-09
6.61792e-07 -6.87091e-09 9.2927e-06
0.00117955 -1.65945e-06 -3.83162e-07
-1.65945e-06 8.92079e-05 -1.20533e-06
-3.83162e-07 -1.20533e-06 -1.73812e-05
0.000538178 -2.41658e-07 -4.1082e-06
-2.41658e-07 0.000119612 1.06542e-05
-4.1082e-06 1.06542e-05 5.24669e-05
0.00106497 1.99994e-05 -2.17615e-06
1.99994e-05 5.11074e-05 -1.72075e-07
-2.17615e-06 -1.72075e-07 -4.64794e-05
0.00065056 1.48743e-05 1.70082e-06
1.48743e-05 0.000108757 2.34308e-05
1.70082e-06 2.34308e-05 3.23598e-05
0.00169809 -2.43346e-06 -1.10428e-05
-2.43346e-06 0.00081899 -1.00509e-06
-1.10428e-05 -1.00509e-06 0.000748655
0.00074142 2.55491e-06 -8.88393e-07
2.55491e-06 0.000112051 -4.14403e-07
-8.88393e-07 -4.14403e-07 1.95205e-05
0.000616677 -2.45513e-07 -6.69399e-08
-2.45513e-07 -1.20655e-05 -2.0206e-07
-6.69399e-08 -2.0206e-07 -8.88738e-05
0.00073402 3.1103e-06 1.48044e-06
3.1103e-06 -2.67187e-05 1.38137e-05
1.48044e-06 1.38137e-05 -5.74906e-05
4.74216e-05 2.77595e-05 2.27429e-06
2.77595e-05 2.18809e-05 -2.2423e-05
2.27429e-06 -2.2423e-05 -0.000633598
0.00102544 -7.18226e-06 1.63011e-08
-7.18226e-06 0.000285826 -6.21228e-07
1.63011e-08 -6.21228e-07 0.000205595
0.00747451 6.05693e-05 3.33836e-06
6.05693e-05 0.00174062 -2.65633e-05
3.33836e-06 -2.65633e-05 0.00110639
0.00289121 0.000148878 -1.52842e-05
0.000148878 0.000877501 2.60445e-05
-1.52842e-05 2.60445e-05 0.000758943
0.000933223 7.26836e-06 9.48623e-06
7.26836e-06 0.000287883 -9.40999e-06
9.48623e-06 -9.40999e-06 0.000275506
8.75582e-05 4.16575e-05 -5.24591e-06
4.16575e-05 -0.000265427 4.90118e-06
-5.24591e-06 4.90118e-06 -0.0001772
0.000712423 4.01354e-06 -1.35481e-06
4.01354e-06 7.24761e-05 -1.00244e-06
-1.35481e-06 -1.00244e-06 5.11313e-05
0.000773797 1.34979e-06 4.74111e-07
1.34979e-06 0.00022376 -4.50175e-07
4.74111e-07 -4.50175e-07 0.000165536
-0.00117705 2.85776e-05 7.30943e-06
2.85776e-05 -0.000957303 -1.8591e-06
7.30943e-06 -1.8591e-06 -0.000917385
0.000720123 -4.34975e-05 -3.19301e-06
-4.34975e-05 0.000158412 2.72993e-05
-3.19301e-06 2.72993e-05 -0.000185912
0.0019369 0.000102187 5.39265e-07
0.000102187 0.000575512 -4.2814e-06
5.39265e-07 -4.2814e-06 0.000485414
0.00553672 4.94152e-05 1.25702e-05
4.94152e-05 0.00104762 -1.26524e-05
1.25702e-05 -1.26524e-05 0.00033054
0.000440997 -1.35666e-05 8.34971e-06
-1.35666e-05 -8.31844e-05 -1.40835e-05
8.34971e-06 -1.40835e-05 -0.00013835
-0.00134694 1.21412e-05 -9.48922e-06
1.21412e-05 -0.00101763 2.78958e-06
-9.48922e-06 2.78958e-06 -0.00102054
0.00176105 5.93136e-05 1.89592e-05
5.93136e-05 0.000765452 -1.19011e-05
1.89592e-05 -1.19011e-05 0.000694133
0.00263137 3.90899e-06 -3.93132e-05
3.90899e-06 3.55225e-07 1.49711e-05
-3.93132e-05 1.49711e-05 -0.000558611
8.51012e-05 -3.98221e-05 -1.63241e-05
-3.98221e-05 -0.000350326 4.01893e-05
-1.63241e-05 4.01893e-05 -0.000492588
0.00120091 8.82575e-06 -8.83954e-08
8.82575e-06 0.000140677 4.48537e-07
-8.83954e-08 4.48537e-07 5.73786e-05
0.000949192 -8.70714e-06 -2.13654e-07
-8.70714e-06 7.90171e-05 5.32989e-10
-2.13654e-07 5.32989e-10 -3.09299e-05
0.00157694 -3.91089e-05 1.59064e-06
-3.91089e-05 0.000384355 9.60035e-07
1.59064e-06 9.60035e-07 0.000247283
0.000890169 -1.79296e-05 -4.77923e-07
-1.79296e-05 -1.9538e-06 -2.951e-07
-4.77923e-07 -2.951e-07 -9.21354e-05
0.00119141 -2.77618e-05 5.3457e-07
-2.77618e-05 0.000138879 8.18575e-08
5.3457e-07 8.18575e-08 3.31423e-05
0.0012009 -3.52803e-05 -1.54829e-06
-3.52803e-05 7.642e-05 -2.52695e-06
-1.54829e-06 -2.52695e-06 -2.10989e-05
0.00136898 -2.8335e-05 -7.11083e-08
-2.8335e-05 0.00019214 -5.55106e-07
-7.11083e-08 -5.55106e-07 9.96623e-05
0.00119745 -2.9491e-05 -3.72898e-07
-2.9491e-05 8.81585e-05 -7.54407e-07
-3.72898e-07 -7.54407e-07 -2.64941e-06
0.00138827 -2.89888e-05 -8.88107e-07
-2.89888e-05 0.000149022 -2.13893e-06
-8.88107e-07 -2.13893e-06 7.22456e-05
0.00124964 -2.61459e-05 1.2118e-07
-2.61459e-05 0.00010975 -4.31362e-07
1.2118e-07 -4.31362e-07 2.72794e-05
0.00120329 -2.50773e-05 2.23049e-07
-2.50773e-05 8.13542e-05 -5.16828e-07
2.23049e-07 -5.16828e-07 2.20554e-06
0.00128525 -2.31207e-05 -2.1163e-07
-2.31207e-05 8.82106e-05 -2.13725e-06
-2.1163e-07 -2.13725e-06 2.15193e-05
0.00124943 -2.09609e-05 2.37699e-08
-2.09609e-05 6.13906e-05 -1.21943e-06
2.37699e-08 -1.21943e-06 -8.42661e-07
0.00117428 -2.24024e-05 -4.61763e-07
-2.24024e-05 5.78802e-05 -1.1536e-07
-4.61763e-07 -1.1536e-07 -1.16627e-05
0.00119182 -2.27792e-05 1.52495e-08
-2.27792e-05 5.96601e-05 -4.56125e-07
1.52495e-08 -4.56125e-07 -1.17101e-05
0.00118794 -2.06668e-05 -4.14174e-07
-2.06668e-05 8.30593e-05 7.19425e-07
-4.14174e-07 7.19425e-07 1.90986e-05
0.0011942 -2.24615e-05 -1.61776e-07
-2.24615e-05 8.31953e-05 2.0474e-07
-1.61776e-07 2.0474e-07 1.285e-05
0.00117476 -2.37615e-05 1.19209e-07
-2.37615e-05 7.29974e-05 -3.03564e-07
1.19209e-07 -3.03564e-07 -3.54412e-06
0.00109208 -1.48967e-05 -5.04646e-07
-1.48967e-05 4.52193e-05 5.47399e-08
-5.04646e-07 5.47399e-08 -9.97607e-06
0.00103961 -1.84665e-05 -7.44887e-08
-1.84665e-05 2.06402e-05 -2.60475e-07
-7.44887e-08 -2.60475e-07 -3.97686e-05
0.00115132 -2.02776e-05 7.29131e-07
-2.02776e-05 7.20706e-05 -8.04556e-07
7.29131e-07 -8.04556e-07 7.03862e-06
0.00105028 3.39551e-06 -9.0485e-07
3.39551e-06 3.14564e-05 7.75103e-07
-9.0485e-07 7.75103e-07 -1.52061e-05
0.0010682 -8.61679e-06 1.27058e-07
-8.61679e-06 3.77198e-05 1.22335e-07
1.27058e-07 1.22335e-07 -1.7515e-05
0.00109316 -1.69346e-05 4.84665e-07
-1.69346e-05 4.87348e-05 -1.57662e-07
4.84665e-07 -1.57662e-07 -1.11655e-05
0.000988909 9.2677e-06 -1.88571e-06
9.2677e-06 -1.80794e-06 1.38084e-06
-1.88571e-06 1.38084e-06 -3.00045e-05
0.00105804 4.08557e-06 -3.91804e-08
4.08557e-06 3.1251e-05 -3.33281e-08
-3.91804e-08 -3.33281e-08 -1.36456e-05
0.0010768 -2.72914e-06 1.84452e-07
-2.72914e-06 4.27793e-05 -1.06644e-07
1.84452e-07 -1.06644e-07 -1.10971e-05
0.00151478 1.2728e-05 -4.2965e-06
1.2728e-05 0.000249625 2.53553e-06
-4.2965e-06 2.53553e-06 0.000251123
0.00100864 7.95884e-06 1.88626e-08
7.95884e-06 2.71778e-06 1.37142e-08
1.88626e-08 1.37142e-08 -2.46549e-05
0.00107441 1.22336e-06 1.04452e-06
1.22336e-06 3.33877e-05 -7.33215e-07
1.04452e-06 -7.33215e-07 -1.04886e-05
0.00118782 1.26012e-05 -5.66694e-06
1.26012e-05 8.48884e-05 3.34498e-06
-5.66694e-06 3.34498e-06 0.000100609
0.00124701 1.10217e-05 -1.09937e-06
1.10217e-05 0.000115072 5.57514e-07
-1.09937e-06 5.57514e-07 0.00011553
0.00101118 6.971e-06 1.73624e-06
6.971e-06 1.26082e-06 -1.48959e-06
1.73624e-06 -1.48959e-06 -2.60519e-05
0.000956025 9.38972e-06 2.33208e-06
9.38972e-06 -3.06013e-05 -2.73168e-06
2.33208e-06 -2.73168e-06 -3.10773e-05
0.00234459 1.3384e-05 1.68746e-07
1.3384e-05 0.000645771 3.53389e-08
1.68746e-07 3.53389e-08 0.000667622
0.00231966 1.15713e-05 5.64141e-06
1.15713e-05 0.000630042 -3.61116e-06
5.64141e-06 -3.61116e-06 0.00065256
0.00105471 6.62585e-06 -5.93194e-07
6.62585e-06 2.05559e-05 -3.05985e-07
-5.93194e-07 -3.05985e-07 -3.45456e-05
0.0010711 -4.00591e-07 -9.96504e-07
-4.00591e-07 2.87611e-05 -7.64721e-07
-9.96504e-07 -7.64721e-07 -1.62924e-05
0.00108348 9.77432e-06 -1.05896e-08
9.77432e-06 3.40307e-05 3.06631e-08
-1.05896e-08 3.06631e-08 -2.11958e-05
0.00100979 -5.68699e-06 -1.44102e-06
-5.68699e-06 -6.79089e-07 -1.55211e-06
-1.44102e-06 -1.55211e-06 -2.8379e-05
0.0010702 2.69137e-06 -2.67529e-08
2.69137e-06 2.8055e-05 1.80797e-09
-2.67529e-08 1.80797e-09 -1.69139e-05
0.000965027 -8.13291e-06 -2.00161e-06
-8.13291e-06 -2.89341e-05 -2.79863e-06
-2.00161e-06 -2.79863e-06 -2.91927e-05
0.00101605 -4.977e-06 -6.29034e-08
-4.977e-06 1.11145e-06 1.68905e-08
-6.29034e-08 1.68905e-08 -2.60427e-05
0.00107882 4.97764e-06 7.61949e-07
4.97764e-06 3.29496e-05 9.72386e-07
7.61949e-07 9.72386e-07 -1.19189e-05
0.00230708 -9.72703e-06 -5.03338e-06
-9.72703e-06 0.000620513 -3.7093e-06
-5.03338e-06 -3.7093e-06 0.000643664
0.0009631 -7.05851e-06 -9.08762e-08
-7.05851e-06 -3.30164e-05 -7.47115e-10
-9.08762e-08 -7.47115e-10 -3.21711e-05
0.00102497 -4.62559e-06 8.32075e-07
-4.62559e-06 4.29961e-06 1.65324e-06
8.32075e-07 1.65324e-06 -2.19344e-05
0.00228463 -7.81391e-06 -2.62152e-07
-7.81391e-06 0.000605612 2.27224e-08
-2.62152e-07 2.27224e-08 0.000629705
0.000956252 -5.84645e-06 1.13554e-06
-5.84645e-06 -3.95744e-05 2.92657e-06
1.13554e-06 2.92657e-06 -3.73606e-05
0.00226709 -5.81102e-06 2.98541e-06
-5.81102e-06 0.00059387 3.73171e-06
2.98541e-06 3.73171e-06 0.000618757
0.000480546 -8.73523e-06 -1.2861e-05
-8.73523e-06 6.0996e-05 -5.62677e-06
-1.2861e-05 -5.62677e-06 -1.27093e-05
0.000607436 6.80784e-06 -6.69847e-07
6.80784e-06 3.37489e-05 -8.72e-07
-6.69847e-07 -8.72e-07 -5.1507e-05
0.000900047 -3.2522e-06 -9.87466e-07
-3.2522e-06 0.000175655 -6.15701e-07
-9.87466e-07 -6.15701e-07 9.8276e-05
0.0011651 1.25044e-05 -8.8882e-08
1.25044e-05 7.47422e-05 4.02467e-07
-8.8882e-08 4.02467e-07 1.60623e-05
0.00110509 1.14479e-05 5.55474e-07
1.14479e-05 4.55709e-05 3.27546e-07
5.55474e-07 3.27546e-07 -1.00945e-05
0.00109389 1.61397e-05 4.79571e-07
1.61397e-05 3.77721e-05 -1.93392e-09
4.79571e-07 -1.93392e-09 -2.22968e-05
0.00113992 1.70468e-05 -1.87538e-07
1.70468e-05 6.16595e-05 -1.76667e-07
-1.87538e-07 -1.76667e-07 6.7005e-07
0.00113609 1.34025e-05 -1.51935e-07
1.34025e-05 5.95507e-05 -2.02973e-07
-1.51935e-07 -2.02973e-07 5.99925e-07
0.00115856 1.73687e-05 2.40821e-07
1.73687e-05 6.77843e-05 2.07922e-07
2.40821e-07 2.07922e-07 5.85766e-06
0.00112161 1.73308e-05 -2.04527e-07
1.73308e-05 5.11515e-05 1.13372e-07
-2.04527e-07 1.13372e-07 -1.12447e-05
0.00110196 1.75671e-05 -1.22088e-07
1.75671e-05 4.31367e-05 2.79794e-07
-1.22088e-07 2.79794e-07 -2.11837e-05
0.00115247 1.74917e-05 3.17048e-07
1.74917e-05 7.00662e-05 -9.99008e-08
3.17048e-07 -9.99008e-08 6.39224e-06
0.00111292 1.7376e-05 6.46038e-07
1.7376e-05 5.25037e-05 -1.50471e-07
6.46038e-07 -1.50471e-07 -1.56931e-05
0.0011719 1.83183e-05 -1.18099e-07
1.83183e-05 8.03879e-05 -2.65312e-08
-1.18099e-07 -2.65312e-08 1.28668e-05
0.00132794 1.96703e-05 4.5609e-07
1.96703e-05 0.000152834 6.85023e-07
4.5609e-07 6.85023e-07 8.56748e-05
0.00147664 -3.70095e-05 -7.29694e-06
-3.70095e-05 0.000634556 -3.3739e-06
-7.29694e-06 -3.3739e-06 0.000683932
0.000590036 -1.40175e-05 -2.74232e-06
-1.40175e-05 0.00010698 -2.83452e-06
-2.74232e-06 -2.83452e-06 8.10117e-05
0.000294819 7.31199e-06 4.03139e-06
7.31199e-06 -0.000151178 2.46181e-06
4.03139e-06 2.46181e-06 -0.000209268
0.00117763 -3.62778e-05 1.4758e-05
-3.62778e-05 0.000373519 1.16711e-05
1.4758e-05 1.16711e-05 0.000424546
0.00119272 -0.000105786 3.33542e-06
-0.000105786 -0.000772856 -5.22055e-05
3.33542e-06 -5.22055e-05 -0.000695534
0.00386069 2.8196e-05 -3.27515e-06
2.8196e-05 4.34881e-05 0.000101667
-3.27515e-06 0.000101667 -0.000540443
-0.000221121 -2.71684e-05 -8.04208e-06
-2.71684e-05 3.11374e-05 2.41076e-05
-8.04208e-06 2.41076e-05 -8.09811e-05
0.000558797 -5.65832e-08 -4.32355e-06
-5.65832e-08 0.000365833 -9.13936e-06
-4.32355e-06 -9.13936e-06 0.000169796
0.000400744 -5.07192e-05 1.97057e-06
-5.07192e-05 -9.634e-05 -9.66598e-07
1.97057e-06 -9.66598e-07 -6.87483e-06
0.00618501 -4.90064e-05 9.60259e-06
-4.90064e-05 0.000849182 3.29594e-05
9.60259e-06 3.29594e-05 0.000515543
-0.000990342 -0.000119877 -2.80207e-06
-0.000119877 -0.000817011 -1.25477e-05
-2.80207e-06 -1.25477e-05 -0.000854915
7.17724e-05 3.12135e-05 -1.04322e-05
3.12135e-05 -6.8783e-06 -2.94946e-05
-1.04322e-05 -2.94946e-05 -0.000132163
0.00471556 -0.000135612 2.46824e-05
-0.000135612 0.000962629 3.56702e-05
2.46824e-05 3.56702e-05 0.000416845
-4.40023e-06 -9.53981e-05 3.71936e-05
-9.53981e-05 -4.37949e-05 2.57194e-05
3.71936e-05 2.57194e-05 -4.22822e-05
0.00105913 2.70223e-05 -1.128e-06
2.70223e-05 4.96329e-05 9.45653e-07
-1.128e-06 9.45653e-07 -1.62607e-05
0.00115577 2.16334e-05 1.20466e-06
2.16334e-05 8.15168e-05 1.69287e-07
1.20466e-06 1.69287e-07 1.16233e-05
0.00119557 1.92459e-05 1.30619e-07
1.92459e-05 9.9736e-05 -6.88886e-07
1.30619e-07 -6.88886e-07 2.64913e-05
0.000420473 -3.2781e-06 2.37087e-06
-3.2781e-06 6.36194e-05 -7.41337e-06
2.37087e-06 -7.41337e-06 -4.96474e-06
0.00108278 -1.99591e-06 -1.43702e-07
-1.99591e-06 4.44005e-05 -9.46025e-07
-1.43702e-07 -9.46025e-07 -6.2015e-05
0.00120105 1.25834e-05 2.18002e-06
1.25834e-05 0.000120751 -3.77912e-08
2.18002e-06 -3.77912e-08 2.88355e-05
0.00124386 2.05865e-05 -7.32207e-08
2.05865e-05 0.000138814 -4.26481e-08
-7.32207e-08 -4.26481e-08 4.18657e-05
0.000756011 1.68157e-05 3.38694e-06
1.68157e-05 0.000147756 9.41816e-06
3.38694e-06 9.41816e-06 6.91828e-05
-0.00028043 3.91165e-05 5.56492e-09
3.91165e-05 -0.000452699 8.50258e-06
5.56492e-09 8.50258e-06 -0.00051624
0.00218361 -5.35254e-06 -1.18036e-05
-5.35254e-06 0.00111032 -3.62482e-08
-1.18036e-05 -3.62482e-08 0.00111979
0.000641449 -7.87853e-07 -1.13335e-06
-7.87853e-07 0.000160787 -1.15772e-06
-1.13335e-06 -1.15772e-06 8.11037e-05
0.000319902 2.25167e-06 -2.42171e-07
2.25167e-06 -0.000154761 -4.10002e-07
-2.42171e-07 -4.10002e-07 -0.000246785
0.00104934 2.17554e-06 -8.71905e-06
2.17554e-06 0.000234339 1.89001e-05
-8.71905e-06 1.89001e-05 0.00020537
0.000711288 -2.87148e-05 3.84149e-06
-2.87148e-05 0.000212359 -2.88406e-05
3.84149e-06 -2.88406e-05 2.55701e-05
0.000835678 1.53471e-06 1.05712e-05
1.53471e-06 0.000261384 -3.57344e-06
1.05712e-05 -3.57344e-06 0.000203398
0.00166195 5.91454e-05 -2.05462e-05
5.91454e-05 -0.000163039 3.11654e-05
-2.05462e-05 3.11654e-05 -0.00071005
-0.0012153 7.82553e-05 -4.06756e-05
7.82553e-05 -0.000732201 3.00477e-05
-4.06756e-05 3.00477e-05 -0.000753232
0.000858759 3.14662e-05 1.35234e-05
3.14662e-05 0.000225371 -1.17951e-05
1.35234e-05 -1.17951e-05 0.000275563
0.00114198 -1.0985e-05 1.68818e-06
-1.0985e-05 0.000243717 1.01723e-06
1.68818e-06 1.01723e-06 0.000194039
0.000810556 1.30708e-05 2.86454e-07
1.30708e-05 0.000255195 -1.01573e-06
2.86454e-07 -1.01573e-06 0.000260362
-0.00157279 3.19915e-05 -1.27653e-05
3.19915e-05 -0.000661318 3.68412e-06
-1.27653e-05 3.68412e-06 -0.000670024
0.00171402 -7.19849e-05 -1.21263e-05
-7.19849e-05 0.00019608 3.87593e-05
-1.21263e-05 3.87593e-05 -0.000149105
0.00477141 3.81554e-05 -1.04233e-05
3.81554e-05 0.00114505 1.0465e-05
-1.04233e-05 1.0465e-05 0.000666528
0.00163604 -3.29326e-05 1.53409e-05
-3.29326e-05 0.000103692 -1.3361e-05
1.53409e-05 -1.3361e-05 5.9554e-05
-0.00399327 2.35162e-05 3.24561e-05
2.35162e-05 -0.00192056 -1.11657e-05
3.24561e-05 -1.11657e-05 -0.00187683
0.00454629 1.45536e-05 2.27877e-05
1.45536e-05 0.00128469 -1.85041e-05
2.27877e-05 -1.85041e-05 0.000957788
0.000976874 -6.65398e-05 -2.87443e-05
-6.65398e-05 -0.000166496 3.69771e-05
-2.87443e-05 3.69771e-05 -0.000442196
0.000957753 -5.56212e-06 -1.5584e-06
-5.56212e-06 7.44155e-05 1.58283e-07
-1.5584e-06 1.58283e-07 -3.13632e-05
0.001305 -3.38261e-05 2.45507e-07
-3.38261e-05 0.000258533 4.35862e-07
2.45507e-07 4.35862e-07 0.000118068
0.00125541 -4.99115e-05 -1.41601e-06
-4.99115e-05 0.000123161 -8.50582e-07
-1.41601e-06 -8.50582e-07 2.19601e-05
0.00110892 -2.66511e-05 -8.66753e-07
-2.66511e-05 0.000106298 -5.49778e-07
-8.66753e-07 -5.49778e-07 6.34228e-07
0.00117283 -3.49336e-05 -9.13199e-07
-3.49336e-05 5.9522e-05 -1.42302e-06
-9.13199e-07 -1.42302e-06 -3.70258e-05
0.00162509 -3.57515e-05 -1.51916e-06
-3.57515e-05 0.000194963 -4.84512e-06
-1.51916e-06 -4.84512e-06 0.000134405
0.00118595 -2.92192e-05 4.30457e-07
-2.92192e-05 8.20052e-05 -9.22178e-07
4.30457e-07 -9.22178e-07 -8.22285e-06
0.00120757 -2.72004e-05 4.47776e-07
-2.72004e-05 6.10032e-05 -7.97406e-07
4.47776e-07 -7.97406e-07 -1.40711e-05
0.00135442 -2.2725e-05 3.42851e-07
-2.2725e-05 8.91203e-05 -3.11578e-06
3.42851e-07 -3.11578e-06 3.801e-05
0.00110859 -2.40333e-05 3.53433e-07
-2.40333e-05 3.54119e-05 7.63033e-08
3.53433e-07 7.63033e-08 -4.28633e-05
0.00119798 -2.22024e-05 -7.35602e-08
-2.22024e-05 4.54303e-05 -4.08022e-07
-7.35602e-08 -4.08022e-07 -2.05466e-05
0.0012517 -1.86527e-05 6.79771e-07
-1.86527e-05 4.16442e-05 -1.81368e-06
6.79771e-07 -1.81368e-06 -9.46759e-06
0.0012264 -1.75123e-05 4.04747e-07
-1.75123e-05 4.34245e-05 -8.97576e-07
4.04747e-07 -8.97576e-07 -1.00227e-05
0.00127661 -2.15662e-05 -3.44743e-07
-2.15662e-05 8.50083e-05 -7.42831e-07
-3.44743e-07 -7.42831e-07 2.16229e-05
0.00121532 -2.02702e-05 2.43803e-07
-2.02702e-05 4.55461e-05 3.26631e-07
2.43803e-07 3.26631e-07 -1.60263e-05
0.0010407 -1.99489e-05 -6.45716e-07
-1.99489e-05 5.80805e-07 2.77302e-07
-6.45716e-07 2.77302e-07 -6.44455e-05
0.00120707 -2.24856e-05 3.4982e-07
-2.24856e-05 7.47864e-05 -3.27479e-07
3.4982e-07 -3.27479e-07 5.8541e-06
0.00113305 -2.20357e-05 3.17249e-07
-2.20357e-05 3.08907e-05 2.43525e-07
3.17249e-07 2.43525e-07 -3.99336e-05
0.00110359 -1.75421e-05 -4.29669e-07
-1.75421e-05 4.76132e-05 4.4797e-07
-4.29669e-07 4.4797e-07 -9.40748e-06
0.00109815 -2.00101e-05 5.93971e-08
-2.00101e-05 4.2068e-05 -5.866e-08
5.93971e-08 -5.866e-08 -2.20513e-05
0.0010666 -2.16458e-05 2.96855e-07
-2.16458e-05 2.38551e-05 -5.37958e-07
2.96855e-07 -5.37958e-07 -4.7449e-05
0.00105468 -3.79259e-07 -1.07105e-06
-3.79259e-07 3.36095e-05 5.8099e-07
-1.07105e-06 5.8099e-07 -1.43401e-05
0.00110928 -1.4409e-05 -7.15106e-08
-1.4409e-05 5.30788e-05 -8.04464e-08
-7.15106e-08 -8.04464e-08 -2.13827e-06
0.00109071 -1.87662e-05 1.73908e-07
-1.87662e-05 4.53413e-05 -5.32665e-07
1.73908e-07 -5.32665e-07 -1.45061e-05
0.000978417 1.04068e-05 -1.93739e-06
1.04068e-05 -1.49509e-06 1.3721e-06
-1.93739e-06 1.3721e-06 -3.14073e-05
0.00105658 2.43616e-06 9.72752e-08
2.43616e-06 3.3674e-05 5.57749e-08
9.72752e-08 5.57749e-08 -1.28731e-05
0.00101985 -6.95248e-06 5.84603e-07
-6.95248e-06 1.51305e-05 -8.56457e-08
5.84603e-07 -8.56457e-08 -4.02126e-05
0.000903785 1.30076e-05 -3.00692e-06
1.30076e-05 -4.34259e-05 2.41203e-06
-3.00692e-06 2.41203e-06 -4.53923e-05
0.00100334 9.35856e-06 -3.65163e-09
9.35856e-06 5.07286e-06 -5.48077e-09
-3.65163e-09 -5.48077e-09 -2.31818e-05
0.00107416 3.14389e-06 9.149e-07
3.14389e-06 3.83538e-05 -7.84509e-07
9.149e-07 -7.84509e-07 -6.50975e-06
0.00230105 1.76994e-05 -2.99395e-06
1.76994e-05 0.000633297 1.3242e-06
-2.99395e-06 1.3242e-06 0.000654047
0.00092006 1.17725e-05 6.61596e-08
1.17725e-05 -4.03871e-05 3.28776e-08
6.61596e-08 3.28776e-08 -4.16163e-05
0.00101353 8.03563e-06 1.85644e-06
8.03563e-06 5.15389e-06 -1.4146e-06
1.85644e-06 -1.4146e-06 -2.22327e-05
0.0023645 1.51999e-05 1.3494e-07
1.51999e-05 0.000659507 3.93846e-08
1.3494e-07 3.93846e-08 0.000680659
0.00094592 1.05647e-05 2.64518e-06
1.05647e-05 -3.19208e-05 -2.61336e-06
2.64518e-06 -2.61336e-06 -3.27867e-05
0.00231785 1.34014e-05 6.17687e-06
1.34014e-05 0.000633232 -3.51535e-06
6.17687e-06 -3.51535e-06 0.000655138
0.00120977 4.39301e-06 -2.86789e-07
4.39301e-06 9.8987e-05 2.29027e-07
-2.86789e-07 2.29027e-07 4.46578e-05
0.00107937 5.25354e-06 -8.38674e-08
5.25354e-06 3.31839e-05 -1.38645e-07
-8.38674e-08 -1.38645e-07 -2.17423e-05
0.001072 -2.71464e-06 -1.02371e-06
-2.71464e-06 3.09991e-05 -7.05536e-07
-1.02371e-06 -7.05536e-07 -1.44201e-05
0.00101164 -6.53874e-06 -1.66258e-06
-6.53874e-06 1.64403e-06 -1.47184e-06
-1.66258e-06 -1.47184e-06 -2.64711e-05
0.0010685 5.86911e-07 -4.80698e-08
5.86911e-07 2.76787e-05 1.92653e-08
-4.80698e-08 1.92653e-08 -1.74229e-05
0.00105845 8.61551e-06 5.23346e-07
8.61551e-06 2.2117e-05 2.56341e-07
5.23346e-07 2.56341e-07 -3.33419e-05
0.000953538 -9.18072e-06 -2.34464e-06
-9.18072e-06 -3.12924e-05 -2.7141e-06
-2.34464e-06 -2.7141e-06 -3.22526e-05
0.0010117 -5.59485e-06 -5.64243e-08
-5.59485e-06 2.10334e-08 8.63096e-09
-5.64243e-08 8.63096e-09 -2.76494e-05
0.00107344 3.30963e-06 8.48531e-07
3.30963e-06 2.96816e-05 9.13498e-07
8.48531e-07 9.13498e-07 -1.53398e-05
0.00233366 -1.15501e-05 -5.71882e-06
-1.15501e-05 0.000637278 -3.64608e-06
-5.71882e-06 -3.64608e-06 0.000659604
0.000952525 -8.13071e-06 -9.4886e-08
-8.13071e-06 -3.48842e-05 1.27035e-08
-9.4886e-08 1.27035e-08 -3.50923e-05
0.00102122 -4.91387e-06 1.10848e-06
-4.91387e-06 3.53793e-06 1.6199e-06
1.10848e-06 1.6199e-06 -2.36239e-05
0.00231958 -9.7051e-06 -2.3185e-07
-9.7051e-06 0.000626137 2.85904e-08
-2.3185e-07 2.85904e-08 0.000649349
0.000948394 -7.07143e-06 1.44736e-06
-7.07143e-06 -4.0017e-05 2.90092e-06
1.44736e-06 2.90092e-06 -3.91025e-05
0.00229529 -7.77591e-06 3.84506e-06
-7.77591e-06 0.000610368 3.70511e-06
3.84506e-06 3.70511e-06 0.000634529
-3.95934e-05 -1.86584e-05 -7.88597e-06
-1.86584e-05 -0.000206852 -4.80689e-06
-7.88597e-06 -4.80689e-06 -0.000197777
0.00048553 -5.93302e-06 -5.47919e-07
-5.93302e-06 6.60295e-05 -1.55162e-06
-5.47919e-07 -1.55162e-06 -7.76779e-06
0.000447819 6.40849e-06 1.48033e-06
6.40849e-06 -6.44102e-05 7.6511e-07
1.48033e-06 7.6511e-07 -0.00015054
0.00114098 1.2441e-05 7.40526e-08
1.2441e-05 6.26723e-05 1.62772e-07
7.40526e-08 1.62772e-07 3.68251e-06
0.00115845 1.41439e-05 -5.52667e-08
1.41439e-05 7.30231e-05 4.50977e-07
-5.52667e-08 4.50977e-07 1.41827e-05
0.00112542 1.76025e-05 4.33154e-08
1.76025e-05 5.29771e-05 4.63992e-07
4.33154e-08 4.63992e-07 -8.09142e-06
0.00120245 1.74981e-05 1.39169e-07
1.74981e-05 9.25769e-05 -3.25175e-07
1.39169e-07 -3.25175e-07 3.19205e-05
0.00120013 1.43127e-05 1.52311e-07
1.43127e-05 9.07907e-05 -2.17887e-07
1.52311e-07 -2.17887e-07 3.2137e-05
0.00112253 1.70166e-05 3.24968e-07
1.70166e-05 5.01034e-05 1.34365e-07
3.24968e-07 1.34365e-07 -1.16523e-05
0.00112989 1.77108e-05 -8.17723e-08
1.77108e-05 5.62843e-05 -4.30774e-09
-8.17723e-08 -4.30774e-09 -7.77831e-06
0.00113767 1.74435e-05 4.74601e-08
1.74435e-05 5.87903e-05 3.18919e-08
4.74601e-08 3.18919e-08 -3.38099e-06
0.00115445 1.85778e-05 -1.90383e-07
1.85778e-05 7.26426e-05 3.28919e-07
-1.90383e-07 3.28919e-07 6.86452e-06
0.00123858 1.97198e-05 7.20404e-07
1.97198e-05 0.000111498 1.73459e-06
7.20404e-07 1.73459e-06 4.77806e-05
0.00113444 1.80139e-05 -9.94744e-09
1.80139e-05 6.20788e-05 -5.02383e-07
-9.94744e-09 -5.02383e-07 -5.41871e-06
0.00120159 1.88252e-05 1.12698e-08
1.88252e-05 9.32712e-05 -1.41119e-08
1.12698e-08 -1.41119e-08 2.60146e-05
-0.0030626 -6.07378e-05 4.15059e-05
-6.07378e-05 -0.00150197 1.78381e-05
4.15059e-05 1.78381e-05 -0.00152082
0.000860245 -3.60273e-05 1.9776e-07
-3.60273e-05 0.00029014 1.56067e-07
1.9776e-07 1.56067e-07 0.00033725
0.000463811 -1.48323e-05 1.45831e-05
-1.48323e-05 3.32875e-05 8.11294e-06
1.45831e-05 8.11294e-06 8.74885e-06
6.55309e-05 -5.08112e-05 -1.84526e-06
-5.08112e-05 -0.000258303 -4.25308e-06
-1.84526e-06 -4.25308e-06 -0.000182184
0.00380973 -0.000154386 -2.62271e-05
-0.000154386 0.00125848 -5.16195e-05
-2.62271e-05 -5.16195e-05 0.00116149
0.00167968 -7.721e-05 4.90254e-06
-7.721e-05 -0.000723295 3.11821e-05
4.90254e-06 3.11821e-05 -0.000956606
0.000260859 1.51571e-05 4.53665e-06
1.51571e-05 1.97086e-05 2.30075e-05
4.53665e-06 2.30075e-05 -0.000463209
0.00115333 5.07082e-05 -9.0938e-06
5.07082e-05 0.000218893 -2.80419e-05
-9.0938e-06 -2.80419e-05 -0.000112507
0.00187692 -0.000120798 -4.82765e-07
-0.000120798 0.000496842 -4.1702e-06
-4.82765e-07 -4.1702e-06 0.000423827
0.00437667 -7.14748e-05 1.8987e-05
-7.14748e-05 0.000806866 3.37634e-05
1.8987e-05 3.37634e-05 0.000336651
0.000127125 5.81542e-05 -2.92035e-05
5.81542e-05 -0.00044019 -7.2661e-05
-2.92035e-05 -7.2661e-05 -0.000756332
0.0033003 -1.32229e-05 1.3788e-05
-1.32229e-05 0.000445545 1.99933e-05
1.3788e-05 1.99933e-05 -6.12667e-05
0.00146869 3.70767e-05 3.44999e-06
3.70767e-05 0.0002806 -1.14915e-06
3.44999e-06 -1.14915e-06 0.000205446
0.00100972 2.54419e-05 6.11502e-08
2.54419e-05 2.38713e-05 -1.03214e-07
6.11502e-08 -1.03214e-07 -4.12256e-05
0.00120275 2.11485e-05 1.64115e-06
2.11485e-05 9.9915e-05 -9.45888e-07
1.64115e-06 -9.45888e-07 3.05129e-05
0.000784223 1.91575e-05 -1.89577e-06
1.91575e-05 0.000153283 -5.76931e-06
-1.89577e-06 -5.76931e-06 7.25061e-05
0.00143988 2.15867e-05 1.442e-06
2.15867e-05 0.00023388 1.38205e-08
1.442e-06 1.38205e-08 0.000137535
0.000964114 4.66425e-05 9.10785e-07
4.66425e-05 0.000105423 2.41027e-06
9.10785e-07 2.41027e-06 4.36177e-05
-0.000636544 4.34673e-05 5.22633e-06
4.34673e-05 -0.000658335 2.46936e-06
5.22633e-06 2.46936e-06 -0.000711545
-0.00189917 1.83081e-06 5.37843e-05
1.83081e-06 -0.000778025 -5.7667e-07
5.37843e-05 -5.7667e-07 -0.000684167
0.000466495 -4.48775e-06 -5.16843e-06
-4.48775e-06 8.29948e-05 3.40555e-07
-5.16843e-06 3.40555e-07 7.8464e-05
-0.000484062 8.8158e-07 1.19072e-05
8.8158e-07 -0.000540594 -1.6801e-06
1.19072e-05 -1.6801e-06 -0.000629581
0.0012097 -3.52485e-06 -9.54175e-06
-3.52485e-06 0.000272484 1.31095e-05
-9.54175e-06 1.31095e-05 0.000231771
0.000114357 -5.2006e-05 -4.82408e-06
-5.2006e-05 -8.48428e-05 2.1832e-06
-4.82408e-06 2.1832e-06 -0.000226793
0.000599983 1.20597e-05 1.02352e-05
1.20597e-05 0.000119894 -4.54427e-06
1.02352e-05 -4.54427e-06 0.000125321
0.00339012 -1.45654e-05 3.52729e-05
-1.45654e-05 0.000418942 -2.34107e-05
3.52729e-05 -2.34107e-05 -0.000126957
0.00252351 3.07957e-05 -6.58485e-05
3.07957e-05 0.00114861 2.4211e-05
-6.58485e-05 2.4211e-05 0.00106931
0.000905637 -2.70686e-05 -4.03377e-06
-2.70686e-05 -0.000135798 2.80673e-07
-4.03377e-06 2.80673e-07 -0.000175994
-0.000794012 1.09389e-05 -2.29434e-05
1.09389e-05 -0.000340293 5.40508e-06
-2.29434e-05 5.40508e-06 -0.000345898
0.0020422 -4.47695e-05 -4.93569e-06
-4.47695e-05 1.08297e-05 2.89208e-06
-4.93569e-06 2.89208e-06 -0.000438948
0.000166252 -3.78046e-05 4.81621e-06
-3.78046e-05 -9.59369e-05 2.96284e-06
4.81621e-06 2.96284e-06 -0.000261261
0.0018036 -3.3258e-05 1.5071e-05
-3.3258e-05 -1.82163e-05 -8.62824e-06
1.5071e-05 -8.62824e-06 -3.74354e-06
0.00546872 1.70273e-05 2.48073e-05
1.70273e-05 0.00140205 -9.75674e-06
2.48073e-05 -9.75674e-06 0.00108028
0.000578982 -3.03925e-06 -4.79724e-06
-3.03925e-06 6.75809e-05 2.8336e-06
-4.79724e-06 2.8336e-06 -7.08639e-05
0.00105865 -2.82241e-05 -8.87884e-07
-2.82241e-05 0.000146885 -2.57571e-06
-8.87884e-07 -2.57571e-06 2.31787e-06
0.00102084 -4.70587e-05 3.2889e-09
-4.70587e-05 1.08807e-05 -1.39256e-07
3.2889e-09 -1.39256e-07 -8.77321e-05
0.00138059 -4.8438e-05 -7.93679e-06
-4.8438e-05 1.26297e-05 -8.09362e-09
-7.93679e-06 -8.09362e-09 -1.90982e-05
0.00115827 -3.45788e-05 -5.60804e-07
-3.45788e-05 4.81638e-05 4.58628e-08
-5.60804e-07 4.58628e-08 -4.7142e-05
0.00125443 -3.32919e-05 -1.29718e-07
-3.32919e-05 1.24705e-05 -2.78736e-07
-1.29718e-07 -2.78736e-07 -4.55382e-05
0.00150222 -2.34181e-05 1.58601e-06
-2.34181e-05 8.91329e-05 -2.4543e-06
1.58601e-06 -2.4543e-06 6.84118e-05
0.00102192 -2.53796e-05 1.31719e-06
-2.53796e-05 -2.93804e-05 1.19183e-06
1.31719e-06 1.19183e-06 -0.000102733
0.00122371 -2.17872e-05 2.03435e-07
-2.17872e-05 2.40915e-05 -9.03509e-08
2.03435e-07 -9.03509e-08 -2.6005e-05
0.00125617 -1.6232e-05 2.00637e-06
-1.6232e-05 1.33528e-05 -1.37342e-06
2.00637e-06 -1.37342e-06 -2.09757e-05
0.00111018 -2.13116e-05 1.88209e-07
-2.13116e-05 2.34201e-06 1.3185e-06
1.88209e-07 1.3185e-06 -6.29088e-05
0.00123026 -1.85879e-05 2.11541e-07
-1.85879e-05 3.12202e-05 3.58962e-07
2.11541e-07 3.58962e-07 -1.99176e-05
0.00120063 -1.47436e-05 1.32888e-06
-1.47436e-05 1.40478e-05 -4.11548e-07
1.32888e-06 -4.11548e-07 -3.11539e-05
0.00125489 -1.50081e-05 6.08367e-07
-1.50081e-05 5.61643e-05 -3.56668e-07
6.08367e-07 -3.56668e-07 5.57493e-06
0.00124325 -1.73835e-05 -1.37872e-07
-1.73835e-05 5.08548e-05 6.72905e-07
-1.37872e-07 6.72905e-07 -1.88888e-06
0.00125571 -1.85467e-05 2.45027e-07
-1.85467e-05 6.70945e-05 -1.24237e-06
2.45027e-07 -1.24237e-06 1.11443e-05
0.00124908 -2.02173e-05 -4.98459e-07
-2.02173e-05 8.01299e-05 -4.02643e-07
-4.98459e-07 -4.02643e-07 1.85603e-05
0.0012748 -2.14503e-05 2.98195e-07
-2.14503e-05 8.57445e-05 -4.48486e-08
2.98195e-07 -4.48486e-08 2.23216e-05
0.00118634 -1.96261e-05 5.14315e-07
-1.96261e-05 3.21495e-05 1.69633e-06
5.14315e-07 1.69633e-06 -2.87732e-05
0.00100101 -1.78346e-05 -8.96819e-07
-1.78346e-05 -1.20347e-05 7.32498e-07
-8.96819e-07 7.32498e-07 -7.15078e-05
0.00115457 -2.06694e-05 3.50657e-08
-2.06694e-05 5.57845e-05 -1.76249e-08
3.50657e-08 -1.76249e-08 -8.72196e-06
0.00123608 -2.25339e-05 7.53953e-07
-2.25339e-05 8.98929e-05 -4.29653e-07
7.53953e-07 -4.29653e-07 2.15772e-05
0.00104864 -3.9281e-06 -9.32655e-07
-3.9281e-06 3.00955e-05 5.69033e-07
-9.32655e-07 5.69033e-07 -1.95561e-05
0.00112005 -1.72347e-05 3.35589e-08
-1.72347e-05 5.5095e-05 -4.36274e-08
3.35589e-08 -4.36274e-08 -1.96561e-06
0.00101105 -1.93752e-05 3.36814e-07
-1.93752e-05 2.27798e-06 -8.00351e-07
3.36814e-07 -8.00351e-07 -6.19945e-05
0.000966052 1.10878e-05 -2.08961e-06
1.10878e-05 -3.72845e-06 1.28393e-06
-2.08961e-06 1.28393e-06 -3.56227e-05
0.00106127 -1.51578e-06 -2.75936e-08
-1.51578e-06 3.57455e-05 1.92001e-08
-2.75936e-08 1.92001e-08 -1.20749e-05
0.00112525 -1.38541e-05 4.95311e-07
-1.38541e-05 6.03675e-05 -3.21315e-07
4.95311e-07 -3.21315e-07 5.12985e-06
0.000886686 1.41407e-05 -3.19619e-06
1.41407e-05 -4.57626e-05 2.31722e-06
-3.19619e-06 2.31722e-06 -4.90918e-05
0.000994489 1.0546e-05 5.42233e-08
1.0546e-05 6.16109e-06 2.18459e-08
5.42233e-08 2.18459e-08 -2.37975e-05
0.00106318 1.35904e-06 1.0745e-06
1.35904e-06 3.60542e-05 -6.05919e-07
1.0745e-06 -6.05919e-07 -1.03776e-05
0.00238217 1.88739e-05 -7.17146e-06
1.88739e-05 0.00067798 3.17452e-06
-7.17146e-06 3.17452e-06 0.00069757
0.000921795 1.30348e-05 3.26772e-08
1.30348e-05 -3.46393e-05 1.77885e-08
3.26772e-08 1.77885e-08 -3.67096e-05
0.00101781 9.44529e-06 1.89107e-06
9.44529e-06 1.19704e-05 -1.40766e-06
1.89107e-06 -1.40766e-06 -1.63427e-05
0.00172052 1.60481e-05 2.44007e-06
1.60481e-05 0.000350186 -1.01564e-06
2.44007e-06 -1.01564e-06 0.000368144
0.000939883 1.18003e-05 2.92308e-06
1.18003e-05 -3.07857e-05 -2.47869e-06
2.92308e-06 -2.47869e-06 -3.21049e-05
0.00230815 1.52161e-05 6.59649e-06
1.52161e-05 0.000632878 -3.39222e-06
6.59649e-06 -3.39222e-06 0.000654183
0.00115496 2.71772e-06 -3.31964e-07
2.71772e-06 7.51304e-05 2.89942e-07
-3.31964e-07 2.89942e-07 1.99804e-05
0.00112737 2.11852e-06 1.52571e-07
2.11852e-06 5.87939e-05 3.40567e-07
1.52571e-07 3.40567e-07 3.8722e-06
0.00107047 -4.99434e-06 -1.06606e-06
-4.99434e-06 3.35267e-05 -6.28154e-07
-1.06606e-06 -6.28154e-07 -1.2689e-05
0.00110327 3.86233e-06 3.47683e-07
3.86233e-06 4.54458e-05 5.5975e-09
3.47683e-07 5.5975e-09 -9.30337e-06
0.00106396 -2.36556e-06 2.06161e-08
-2.36556e-06 2.73316e-05 8.93882e-09
2.06161e-08 8.93882e-09 -1.81071e-05
0.00101347 -7.64182e-06 -1.82863e-06
-7.64182e-06 4.71652e-06 -1.38264e-06
-1.82863e-06 -1.38264e-06 -2.3958e-05
0.000944927 -1.03002e-05 -2.65769e-06
-1.03002e-05 -3.21491e-05 -2.60203e-06
-2.65769e-06 -2.60203e-06 -3.36395e-05
0.00100932 -6.43888e-06 -6.3574e-08
-6.43888e-06 3.06273e-07 1.27641e-08
-6.3574e-08 1.27641e-08 -2.77701e-05
0.00106648 1.23262e-06 9.54845e-07
1.23262e-06 2.68672e-05 8.30123e-07
9.54845e-07 8.30123e-07 -1.82794e-05
0.00234335 -1.3345e-05 -6.26281e-06
-1.3345e-05 0.000645934 -3.54506e-06
-6.26281e-06 -3.54506e-06 0.000667574
0.000942683 -9.16882e-06 -8.01332e-08
-9.16882e-06 -3.65335e-05 2.18931e-08
-8.01332e-08 2.18931e-08 -3.74419e-05
0.0010137 -5.50321e-06 1.33731e-06
-5.50321e-06 7.66538e-07 1.56985e-06
1.33731e-06 1.56985e-06 -2.6875e-05
0.0023518 -1.15325e-05 -2.00781e-07
-1.15325e-05 0.00064566 3.43432e-08
-2.00781e-07 3.43432e-08 0.000667997
0.000940236 -8.12868e-06 1.79658e-06
-8.12868e-06 -4.073e-05 2.85176e-06
1.79658e-06 2.85176e-06 -4.08879e-05
0.00233144 -9.68261e-06 4.65153e-06
-9.68261e-06 0.00063145 3.67985e-06
4.65153e-06 3.67985e-06 0.000654725
0.000293763 -1.84722e-08 5.91303e-05
-1.84722e-08 -9.14451e-05 6.43099e-06
5.91303e-05 6.43099e-06 -0.000168917
0.00127186 -1.99624e-05 -6.45364e-07
-1.99624e-05 0.000575329 -1.0328e-06
-6.45364e-07 -1.0328e-06 0.000590257
0.000489149 -3.17752e-06 1.21922e-05
-3.17752e-06 7.01429e-05 2.29935e-06
1.21922e-05 2.29935e-06 -3.70904e-06
0.00111527 1.22399e-05 3.75638e-07
1.22399e-05 4.98206e-05 1.83818e-08
3.75638e-07 1.83818e-08 -9.47013e-06
0.0011232 1.75442e-05 3.76976e-07
1.75442e-05 5.23186e-05 1.76342e-07
3.76976e-07 1.76342e-07 -8.75351e-06
0.00115876 1.45869e-05 8.39262e-08
1.45869e-05 7.36394e-05 7.35071e-08
8.39262e-08 7.35071e-08 1.49723e-05
0.00114114 1.66963e-05 1.11078e-07
1.66963e-05 6.81481e-05 4.34796e-07
1.11078e-07 4.34796e-07 8.96494e-06
0.00113243 1.79145e-05 -2.026e-07
1.79145e-05 5.90729e-05 4.43665e-07
-2.026e-07 4.43665e-07 -2.46272e-06
0.00115763 1.78529e-05 9.33817e-08
1.78529e-05 6.93442e-05 -2.26678e-07
9.33817e-08 -2.26678e-07 5.54026e-06
0.00115407 1.75514e-05 3.2933e-07
1.75514e-05 6.65596e-05 -1.86484e-07
3.2933e-07 -1.86484e-07 4.61723e-06
0.00110304 1.82351e-05 -1.14722e-07
1.82351e-05 4.78452e-05 -3.77176e-08
-1.14722e-07 -3.77176e-08 -1.7897e-05
0.000976824 1.79415e-05 9.90228e-08
1.79415e-05 -9.73634e-06 6.82803e-07
9.90228e-08 6.82803e-07 -7.35223e-05
0.00112876 2.11766e-05 2.40656e-07
2.11766e-05 6.39313e-05 1.2999e-06
2.40656e-07 1.2999e-06 -3.17552e-06
0.00134177 2.73197e-05 1.05113e-06
2.73197e-05 0.000170031 -1.13101e-07
1.05113e-06 -1.13101e-07 0.000104724
0.00117969 1.96761e-05 -1.80782e-07
1.96761e-05 8.42073e-05 -4.81206e-08
-1.80782e-07 -4.81206e-08 1.94492e-05
0.00107281 1.79598e-05 -1.31693e-07
1.79598e-05 3.26597e-05 -6.84432e-07
-1.31693e-07 -6.84432e-07 -3.47029e-05
0.0069064 -5.7221e-06 -8.82526e-06
-5.7221e-06 0.0018095 3.46418e-06
-8.82526e-06 3.46418e-06 0.00140509
-8.25002e-06 -6.4934e-05 9.30292e-06
-6.4934e-05 -0.00019872 3.3372e-06
9.30292e-06 3.3372e-06 -0.000254758
0.00191962 -3.49433e-05 3.29566e-06
-3.49433e-05 0.000912145 4.30913e-06
3.29566e-06 4.30913e-06 0.000959562
-0.0016343 -9.40181e-05 -3.05521e-05
-9.40181e-05 -0.00100241 -3.23119e-05
-3.05521e-05 -3.23119e-05 -0.00100561
0.00515095 -0.000126097 1.57165e-05
-0.000126097 0.000853368 4.51187e-05
1.57165e-05 4.51187e-05 0.000126133
0.000786857 3.57849e-05 -2.81576e-06
3.57849e-05 0.000323368 -9.72104e-06
-2.81576e-06 -9.72104e-06 0.00019347
0.00104105 6.05376e-05 -1.81349e-05
6.05376e-05 0.000117344 -1.9562e-05
-1.81349e-05 -1.9562e-05 -9.22973e-05
0.00444402 -7.61811e-05 9.38684e-06
-7.61811e-05 0.00101526 1.14513e-05
9.38684e-06 1.14513e-05 0.000589766
0.00088691 4.16253e-05 -3.45134e-05
4.16253e-05 -9.53464e-05 -3.21781e-05
-3.45134e-05 -3.21781e-05 -0.000292012
0.00136207 4.28806e-05 1.01609e-05
4.28806e-05 0.000183199 -1.09007e-06
1.01609e-05 -1.09007e-06 8.62888e-05
0.00114215 3.4937e-05 -1.31248e-06
3.4937e-05 0.000133076 -1.82947e-06
-1.31248e-06 -1.82947e-06 5.57554e-05
0.00097025 2.39588e-05 8.84641e-07
2.39588e-05 2.85547e-06 -1.26348e-06
8.84641e-07 -1.26348e-06 -6.14593e-05
0.00206804 5.31786e-05 -6.42189e-06
5.31786e-05 0.000604257 -7.20258e-06
-6.42189e-06 -7.20258e-06 0.000544272
0.000179875 5.20354e-05 -3.45518e-06
5.20354e-05 -0.000374659 -1.27428e-06
-3.45518e-06 -1.27428e-06 -0.000414977
0.00113223 6.02569e-05 2.00693e-06
6.02569e-05 -0.000549028 -5.22198e-06
2.00693e-06 -5.22198e-06 -0.000727006
0.0014448 6.15466e-06 5.69557e-07
6.15466e-06 0.000487452 4.09782e-06
5.69557e-07 4.09782e-06 0.000479823
-0.00118965 -3.88597e-06 4.1569e-06
-3.88597e-06 -0.000906544 -1.64829e-07
4.1569e-06 -1.64829e-07 -0.000924216
0.000382483 -2.41675e-05 -1.29949e-05
-2.41675e-05 -0.000281624 9.71813e-06
-1.29949e-05 9.71813e-06 -0.000323276
0.00275184 -6.87541e-05 2.28976e-05
-6.87541e-05 0.000782264 -2.13541e-05
2.28976e-05 -2.13541e-05 0.000440493
0.000529842 9.24316e-06 -8.42865e-05
9.24316e-06 4.04294e-05 1.61105e-05
-8.42865e-05 1.61105e-05 -2.66374e-05
0.00452052 1.45106e-06 -3.52362e-07
1.45106e-06 0.00134515 2.08375e-06
-3.52362e-07 2.08375e-06 0.000899547
0.00159473 -2.80074e-05 1.69468e-06
-2.80074e-05 -0.000118868 -2.45482e-07
1.69468e-06 -2.45482e-07 -9.37373e-05
0.00309329 1.15873e-05 1.74547e-05
1.15873e-05 0.000556454 -1.55279e-06
1.74547e-05 -1.55279e-06 0.000275883
0.00218841 -2.79405e-05 1.92527e-05
-2.79405e-05 0.000435499 -7.86115e-06
1.92527e-05 -7.86115e-06 0.000197807
0.00227193 -1.01902e-05 2.17503e-06
-1.01902e-05 8.36258e-05 -6.11191e-06
2.17503e-06 -6.11191e-06 0.000164646
0.00047598 2.73971e-05 -1.44977e-05
2.73971e-05 4.25068e-05 1.16567e-05
-1.44977e-05 1.16567e-05 -7.92737e-05
0.000798082 -4.42392e-05 3.81479e-06
-4.42392e-05 -9.52016e-05 -1.76633e-06
3.81479e-06 -1.76633e-06 -0.000191312
0.0012786 -4.65828e-05 -2.4774e-06
-4.65828e-05 -2.71915e-05 6.64966e-07
-2.4774e-06 6.64966e-07 -5.57557e-05
0.00139197 -2.01043e-05 1.47076e-06
-2.01043e-05 -2.37782e-05 3.16482e-06
1.47076e-06 3.16482e-06 -2.0886e-05
0.00087046 -3.08595e-05 2.50327e-06
-3.08595e-05 -0.00017618 3.42101e-06
2.50327e-06 3.42101e-06 -0.000231568
0.00125533 -2.26553e-05 7.0492e-07
-2.26553e-05 -2.65814e-05 1.47585e-06
7.0492e-07 1.47585e-06 -4.74637e-05
0.00128426 -1.03317e-05 3.14632e-06
-1.03317e-05 -1.01792e-05 9.94726e-07
3.14632e-06 9.94726e-07 -2.56609e-05
0.00110004 -2.09261e-05 2.80983e-07
-2.09261e-05 -3.75344e-05 2.87166e-06
2.80983e-07 2.87166e-06 -8.66341e-05
0.00126436 -1.6491e-05 3.45132e-07
-1.6491e-05 1.81959e-05 9.62227e-07
3.45132e-07 9.62227e-07 -1.69177e-05
0.00122772 -9.99249e-06 2.39991e-06
-9.99249e-06 1.00335e-05 4.64086e-07
2.39991e-06 4.64086e-07 -2.75864e-05
0.00121661 -1.85509e-05 1.04601e-07
-1.85509e-05 2.45571e-05 2.18814e-06
1.04601e-07 2.18814e-06 -2.66325e-05
0.00125838 -1.53095e-05 1.34173e-07
-1.53095e-05 4.20428e-05 5.038e-07
1.34173e-07 5.038e-07 -3.78655e-06
0.00122544 -1.21573e-05 1.09297e-06
-1.21573e-05 3.39044e-05 1.39164e-07
1.09297e-06 1.39164e-07 -1.44501e-05
0.00123061 -1.54072e-05 -4.26908e-07
-1.54072e-05 4.47276e-05 3.18626e-07
-4.26908e-07 3.18626e-07 -5.19981e-06
0.00127941 -1.62562e-05 8.21856e-07
-1.62562e-05 7.40326e-05 -6.58517e-07
8.21856e-07 -6.58517e-07 2.02569e-05
0.00125801 -1.72554e-05 -1.53801e-07
-1.72554e-05 5.72264e-05 1.77029e-06
-1.53801e-07 1.77029e-06 5.19838e-06
0.00126231 -1.84853e-05 2.27204e-08
-1.84853e-05 6.95613e-05 -2.07631e-07
2.27204e-08 -2.07631e-07 1.35677e-05
0.00125755 -1.81927e-05 6.59845e-08
-1.81927e-05 7.34185e-05 -6.91405e-07
6.59845e-08 -6.91405e-07 1.59544e-05
0.00107125 -1.75328e-05 -8.67404e-07
-1.75328e-05 5.1602e-06 2.20402e-07
-8.67404e-07 2.20402e-07 -5.38698e-05
0.00124279 -2.0204e-05 2.58516e-08
-2.0204e-05 7.78758e-05 -1.31302e-07
2.58516e-08 -1.31302e-07 1.60387e-05
0.00127671 -2.13693e-05 5.71206e-07
-2.13693e-05 8.82255e-05 6.85743e-07
5.71206e-07 6.85743e-07 2.47619e-05
0.00106576 -8.57639e-06 -9.48083e-07
-8.57639e-06 3.30936e-05 6.64158e-07
-9.48083e-07 6.64158e-07 -1.86745e-05
0.00106414 -1.82191e-05 -1.93029e-07
-1.82191e-05 1.90996e-05 2.62424e-07
-1.93029e-07 2.62424e-07 -4.00507e-05
0.00126266 -2.13428e-05 5.47723e-07
-2.13428e-05 0.000108326 -4.17363e-07
5.47723e-07 -4.17363e-07 4.43383e-05
0.000957643 1.19136e-05 -2.10547e-06
1.19136e-05 -4.39597e-06 1.21712e-06
-2.10547e-06 1.21712e-06 -3.89044e-05
0.00106327 -4.39809e-06 -4.89027e-08
-4.39809e-06 3.61271e-05 -2.0548e-09
-4.89027e-08 -2.0548e-09 -1.3461e-05
0.0011382 -1.6916e-05 4.89858e-07
-1.6916e-05 6.33644e-05 -5.40914e-07
4.89858e-07 -5.40914e-07 6.26343e-06
0.000871118 1.50259e-05 -3.44045e-06
1.50259e-05 -4.74146e-05 2.20404e-06
-3.44045e-06 2.20404e-06 -5.25e-05
0.000985282 1.13187e-05 3.76526e-08
1.13187e-05 5.28386e-06 1.2985e-08
3.76526e-08 1.2985e-08 -2.66282e-05
0.00106678 -2.56682e-06 1.09615e-06
-2.56682e-06 3.73924e-05 -5.63541e-07
1.09615e-06 -5.63541e-07 -1.02981e-05
0.00239214 2.06942e-05 -7.38335e-06
2.06942e-05 0.000689162 3.02979e-06
-7.38335e-06 3.02979e-06 0.000707659
0.000912184 1.41657e-05 5.29706e-08
1.41657e-05 -3.34956e-05 1.51965e-08
5.29706e-08 1.51965e-08 -3.6956e-05
0.00101073 1.06941e-05 2.00847e-06
1.06941e-05 1.3895e-05 -1.31223e-06
2.00847e-06 -1.31223e-06 -1.61098e-05
0.00233156 1.88576e-05 1.15252e-07
1.88576e-05 0.000654183 4.71876e-08
1.15252e-07 4.71876e-08 0.000673862
0.000939514 1.30587e-05 3.1284e-06
1.30587e-05 -2.5996e-05 -2.3713e-06
3.1284e-06 -2.3713e-06 -2.8169e-05
0.00229197 1.70342e-05 6.90247e-06
1.70342e-05 0.000629952 -3.24839e-06
6.90247e-06 -3.24839e-06 0.000650597
0.00106464 6.75201e-06 -2.85677e-07
6.75201e-06 3.42134e-05 2.0219e-07
-2.85677e-07 2.0219e-07 -2.24551e-05
0.00114848 3.21722e-06 8.25923e-08
3.21722e-06 7.24178e-05 1.52499e-07
8.25923e-08 1.52499e-07 1.72769e-05
0.000958764 -6.65353e-06 -1.23537e-06
-6.65353e-06 -1.67928e-05 -7.27304e-07
-1.23537e-06 -7.27304e-07 -6.52129e-05
0.00104488 6.43957e-08 6.10814e-07
6.43957e-08 1.85555e-05 3.97669e-07
6.10814e-07 3.97669e-07 -3.69592e-05
0.00100546 -5.58414e-06 -2.73648e-09
-5.58414e-06 2.26437e-06 3.21539e-08
-2.73648e-09 3.21539e-08 -4.45138e-05
0.00101168 -9.07373e-06 -1.92281e-06
-9.07373e-06 7.68782e-06 -1.29171e-06
-1.92281e-06 -1.29171e-06 -2.20463e-05
0.00105589 -2.02984e-06 1.08339e-06
-2.02984e-06 2.36611e-05 7.2876e-07
1.08339e-06 7.2876e-07 -2.17994e-05
0.00100682 -7.53337e-06 -3.83693e-08
-7.53337e-06 1.3783e-06 1.65143e-08
-3.83693e-08 1.65143e-08 -2.72546e-05
0.000938734 -1.15174e-05 -2.92791e-06
-1.15174e-05 -3.14215e-05 -2.46918e-06
-2.92791e-06 -2.46918e-06 -3.35297e-05
0.00233885 -1.5145e-05 -6.66788e-06
-1.5145e-05 0.000647897 -3.41872e-06
-6.66788e-06 -3.41872e-06 0.000668914
0.000934473 -1.02791e-05 -7.15788e-08
-1.02791e-05 -3.72943e-05 2.8036e-08
-7.15788e-08 2.8036e-08 -3.87186e-05
0.00100716 -6.34089e-06 1.55396e-06
-6.34089e-06 -9.4563e-07 1.51676e-06
1.55396e-06 1.51676e-06 -2.89846e-05
0.00237152 -1.33299e-05 -1.6665e-07
-1.33299e-05 0.000659219 3.8316e-08
-1.6665e-07 3.8316e-08 0.000680798
0.000932065 -9.15728e-06 2.15267e-06
-9.15728e-06 -4.16606e-05 2.76019e-06
2.15267e-06 2.76019e-06 -4.25176e-05
0.00237065 -1.15203e-05 5.40458e-06
-1.15203e-05 0.000654391 3.64791e-06
5.40458e-06 3.64791e-06 0.000676735
0.0060384 3.55544e-05 5.02432e-06
3.55544e-05 0.00185066 1.1327e-06
5.02432e-06 1.1327e-06 0.0016034
-0.0013198 -1.00037e-05 1.26347e-05
-1.00037e-05 -0.000458036 1.49173e-06
1.26347e-05 1.49173e-06 -0.000429612
0.000412933 -1.9079e-05 7.52797e-06
-1.9079e-05 7.42145e-05 2.46997e-06
7.52797e-06 2.46997e-06 8.6395e-05
0.00112264 1.75055e-05 5.59397e-07
1.75055e-05 5.24872e-05 -2.4991e-07
5.59397e-07 -2.4991e-07 -8.5965e-06
0.00115964 1.50346e-05 2.52801e-07
1.50346e-05 7.45357e-05 -2.49229e-07
2.52801e-07 -2.49229e-07 1.60395e-05
0.00115695 1.81169e-05 -2.84654e-08
1.81169e-05 7.10667e-05 -3.11311e-09
-2.84654e-08 -3.11311e-09 9.66494e-06
0.00115242 1.71516e-05 2.10174e-08
1.71516e-05 7.34174e-05 2.52595e-09
2.10174e-08 2.52595e-09 1.43704e-05
0.00116658 1.7627e-05 5.41728e-07
1.7627e-05 8.52754e-05 3.76755e-07
5.41728e-07 3.76755e-07 2.47639e-05
0.00108943 1.807e-05 -1.12494e-07
1.807e-05 4.33882e-05 6.02976e-07
-1.12494e-07 6.02976e-07 -1.81393e-05
0.00104487 1.78362e-05 1.54685e-08
1.78362e-05 1.98667e-05 -5.136e-07
1.54685e-08 -5.136e-07 -4.58339e-05
0.0010667 1.8459e-05 3.60821e-07
1.8459e-05 3.28357e-05 -2.60516e-08
3.60821e-07 -2.60516e-08 -3.09712e-05
0.00107486 2.08047e-05 4.03466e-07
2.08047e-05 4.19813e-05 -1.41379e-07
4.03466e-07 -1.41379e-07 -2.49431e-05
0.000905403 2.0592e-05 7.50277e-07
2.0592e-05 -4.01129e-05 3.96358e-07
7.50277e-07 3.96358e-07 -0.000104766
0.00170651 2.87702e-05 1.17591e-06
2.87702e-05 0.00032554 8.38998e-07
1.17591e-06 8.38998e-07 0.000260614
0.00136906 3.77286e-05 1.20947e-06
3.77286e-05 0.000145595 -2.3009e-06
1.20947e-06 -2.3009e-06 6.03497e-05
0.00116344 2.58408e-05 -4.0106e-08
2.58408e-05 8.50879e-05 3.48515e-07
-4.0106e-08 3.48515e-07 1.95579e-05
0.00109077 1.9395e-05 -6.94972e-07
1.9395e-05 4.27987e-05 -1.6905e-06
-6.94972e-07 -1.6905e-06 -2.29688e-05
0.000536756 -1.98648e-06 -2.24648e-05
-1.98648e-06 -7.78421e-06 -7.83784e-06
-2.24648e-05 -7.83784e-06 -4.45408e-05
0.00274859 -1.32233e-05 -1.63863e-05
-1.32233e-05 0.000240781 -1.76548e-06
-1.63863e-05 -1.76548e-06 -6.8935e-05
0.00143414 -7.33521e-05 -1.87135e-05
-7.33521e-05 0.000603783 -8.42954e-06
-1.87135e-05 -8.42954e-06 0.000523566
0.00262714 -3.78577e-05 1.7958e-05
-3.78577e-05 2.81316e-05 -2.90537e-06
1.7958e-05 -2.90537e-06 -0.000479664
0.00179628 6.0187e-05 8.8693e-06
6.0187e-05 0.000618925 2.35205e-05
8.8693e-06 2.35205e-05 0.000511063
0.000490533 3.40441e-05 -6.9739e-06
3.40441e-05 -0.000102264 -1.5222e-06
-6.9739e-06 -1.5222e-06 -0.000187686
0.00107218 1.19477e-05 1.48979e-05
1.19477e-05 -0.000123367 6.46103e-06
1.48979e-05 6.46103e-06 -0.00019858
0.000809711 4.36283e-05 5.94247e-07
4.36283e-05 -9.26366e-05 2.52675e-06
5.94247e-07 2.52675e-06 -0.000187117
0.000732916 3.21601e-05 -1.01079e-06
3.21601e-05 -5.35264e-05 1.55408e-07
-1.01079e-06 1.55408e-07 -0.000133202
0.0012007 6.15002e-05 -1.63208e-05
6.15002e-05 2.60588e-06 -1.55146e-05
-1.63208e-05 -1.55146e-05 -2.53438e-05
0.000605102 2.40435e-05 -6.54859e-05
2.40435e-05 -0.00024586 -6.13436e-06
-6.54859e-05 -6.13436e-06 -0.000393125
0.00511928 5.0945e-05 1.70694e-05
5.0945e-05 0.00149193 -2.811e-06
1.70694e-05 -2.811e-06 0.00128087
-0.00404682 7.65075e-08 -5.42986e-05
7.65075e-08 -0.00203951 9.17183e-07
-5.42986e-05 9.17183e-07 -0.00195371
0.00153418 -2.13228e-05 -8.18126e-06
-2.13228e-05 -0.000148284 5.83908e-06
-8.18126e-06 5.83908e-06 -0.000115494
0.000379096 3.03652e-06 1.83216e-05
3.03652e-06 3.66544e-06 -1.22652e-05
1.83216e-05 -1.22652e-05 -0.000157303
0.000787214 -1.24767e-05 9.39291e-06
-1.24767e-05 -0.000186571 1.77297e-06
9.39291e-06 1.77297e-06 -0.000411492
0.00193335 -1.69569e-05 -2.46403e-06
-1.69569e-05 -4.61282e-05 9.89052e-07
-2.46403e-06 9.89052e-07 2.04008e-05
0.00124917 3.67486e-05 3.60558e-06
3.67486e-05 0.000201494 -1.39843e-06
3.60558e-06 -1.39843e-06 9.02129e-05
0.00220824 1.91654e-05 7.33621e-06
1.91654e-05 0.000245964 -2.70197e-06
7.33621e-06 -2.70197e-06 0.000283586
0.000830483 3.69946e-05 3.05439e-06
3.69946e-05 -4.38024e-06 -3.78715e-06
3.05439e-06 -3.78715e-06 -7.64901e-05
0.00103357 -4.44727e-05 3.19182e-06
-4.44727e-05 -0.000136859 1.23125e-06
3.19182e-06 1.23125e-06 -0.000162463
0.0013884 -1.92446e-05 3.35535e-06
-1.92446e-05 -1.74453e-05 7.31635e-07
3.35535e-06 7.31635e-07 -1.36766e-05
0.00128081 7.43476e-06 2.13437e-06
7.43476e-06 -2.26254e-05 3.0574e-06
2.13437e-06 3.0574e-06 -4.11366e-05
0.00104063 -2.19806e-05 1.46138e-06
-2.19806e-05 -0.000126514 3.81063e-06
1.46138e-06 3.81063e-06 -0.000147734
0.00134103 -1.07001e-05 3.79078e-07
-1.07001e-05 2.45153e-05 8.92445e-07
3.79078e-07 8.92445e-07 6.62122e-06
0.00134028 4.20029e-07 2.42404e-06
4.20029e-07 5.04477e-05 1.52923e-06
2.42404e-06 1.52923e-06 1.40765e-05
0.00128179 -1.67381e-05 -7.09936e-07
-1.67381e-05 2.75172e-05 2.42828e-06
-7.09936e-07 2.42828e-06 -8.41936e-06
0.00129226 -1.03267e-05 3.23917e-08
-1.03267e-05 4.28592e-05 4.43122e-07
3.23917e-08 4.43122e-07 4.18831e-06
0.00128068 -5.76177e-06 1.36055e-06
-5.76177e-06 4.69246e-05 5.29679e-07
1.36055e-06 5.29679e-07 -1.6849e-06
0.00131447 -1.58591e-05 -9.86811e-07
-1.58591e-05 6.92502e-05 1.21878e-06
-9.86811e-07 1.21878e-06 2.2797e-05
0.00124388 -1.29658e-05 -2.76827e-07
-1.29658e-05 4.43463e-05 -2.89299e-08
-2.76827e-07 -2.89299e-08 -4.15347e-06
0.00123514 -1.37091e-05 1.16272e-06
-1.37091e-05 4.83267e-05 1.36375e-07
1.16272e-06 1.36375e-07 -6.2769e-06
0.00120498 -1.57942e-05 -1.0646e-06
-1.57942e-05 3.27843e-05 7.16056e-07
-1.0646e-06 7.16056e-07 -1.64962e-05
0.00123426 -1.58042e-05 -2.30934e-07
-1.58042e-05 5.19407e-05 -2.20862e-07
-2.30934e-07 -2.20862e-07 -1.22212e-06
0.00127437 -1.66927e-05 4.78355e-07
-1.66927e-05 7.73723e-05 -4.37575e-07
4.78355e-07 -4.37575e-07 2.086e-05
0.0012704 -1.84206e-05 -1.17231e-07
-1.84206e-05 7.27258e-05 9.05372e-07
-1.17231e-07 9.05372e-07 1.6688e-05
0.00125297 -1.81264e-05 6.14175e-08
-1.81264e-05 7.10826e-05 -1.8786e-07
6.14175e-08 -1.8786e-07 1.3506e-05
0.00123783 -1.68175e-05 -2.27799e-07
-1.68175e-05 7.37913e-05 -2.82561e-07
-2.27799e-07 -2.82561e-07 1.71461e-05
0.00095805 -1.02222e-05 -1.36457e-06
-1.02222e-05 -3.03871e-05 6.84009e-07
-1.36457e-06 6.84009e-07 -8.40818e-05
0.00113149 -1.79549e-05 -1.94158e-07
-1.79549e-05 3.55275e-05 1.25023e-07
-1.94158e-07 1.25023e-07 -2.32534e-05
0.00123676 -2.0193e-05 5.03722e-07
-2.0193e-05 7.57231e-05 7.72804e-08
5.03722e-07 7.72804e-08 1.36209e-05
0.000970099 9.14557e-06 -2.01433e-06
9.14557e-06 3.14591e-06 1.24027e-06
-2.01433e-06 1.24027e-06 -3.4805e-05
0.00107154 -7.76993e-06 1.94613e-08
-7.76993e-06 3.55937e-05 5.96603e-08
1.94613e-08 5.96603e-08 -1.61258e-05
0.00112887 -1.86396e-05 4.14598e-07
-1.86396e-05 5.09666e-05 -2.13845e-07
4.14598e-07 -2.13845e-07 -7.86087e-06
0.000852557 1.57332e-05 -3.68221e-06
1.57332e-05 -5.00516e-05 2.06408e-06
-3.68221e-06 2.06408e-06 -5.72644e-05
0.000981975 1.10595e-05 5.65374e-09
1.10595e-05 6.5072e-06 -2.90635e-08
5.65374e-09 -2.90635e-08 -2.79642e-05
0.00107803 -4.82896e-06 1.00224e-06
-4.82896e-06 4.22231e-05 -6.7036e-07
1.00224e-06 -6.7036e-07 -7.30567e-06
0.00242083 2.24307e-05 -7.6526e-06
2.24307e-05 0.00071016 2.89937e-06
-7.6526e-06 2.89937e-06 0.000727277
0.00090047 1.5055e-05 6.51633e-08
1.5055e-05 -3.34244e-05 2.73601e-08
6.51633e-08 2.73601e-08 -3.86471e-05
0.00100384 1.15464e-05 2.05632e-06
1.15464e-05 1.39798e-05 -1.19979e-06
2.05632e-06 -1.19979e-06 -1.79492e-05
0.00234046 2.06367e-05 1.20445e-07
2.06367e-05 0.000664988 5.37868e-08
1.20445e-07 5.37868e-08 0.000683522
0.000937573 1.4191e-05 3.35024e-06
1.4191e-05 -2.12829e-05 -2.25779e-06
3.35024e-06 -2.25779e-06 -2.48738e-05
0.00228084 1.8833e-05 7.15379e-06
1.8833e-05 0.000630322 -3.12176e-06
7.15379e-06 -3.12176e-06 0.000650091
0.00111736 1.08435e-05 -3.08933e-07
1.08435e-05 6.196e-05 -5.33223e-08
-3.08933e-07 -5.33223e-08 4.55684e-06
0.00113907 7.63752e-06 2.88096e-08
7.63752e-06 7.00632e-05 4.2833e-08
2.88096e-08 4.2833e-08 1.38945e-05
0.000959997 -4.81942e-06 -1.08189e-06
-4.81942e-06 -1.18638e-05 -5.38206e-07
-1.08189e-06 -5.38206e-07 -6.20027e-05
0.00114149 3.71527e-06 4.51291e-07
3.71527e-06 6.94492e-05 7.02375e-08
4.51291e-07 7.02375e-08 1.43196e-05
0.000948938 -6.63617e-06 -1.70348e-07
-6.63617e-06 -2.06304e-05 -2.18162e-07
-1.70348e-07 -2.18162e-07 -6.92763e-05
0.00100483 -1.05752e-05 -1.99558e-06
-1.05752e-05 9.52289e-06 -1.16973e-06
-1.99558e-06 -1.16973e-06 -2.18567e-05
0.000940964 -6.13823e-06 1.04785e-06
-6.13823e-06 -2.87472e-05 6.73411e-07
1.04785e-06 6.73411e-07 -7.60905e-05
0.00100176 -8.94602e-06 -1.99839e-08
-8.94602e-06 2.88291e-06 1.65532e-08
-1.99839e-08 1.65532e-08 -2.68092e-05
0.000934426 -1.28078e-05 -3.13939e-06
-1.28078e-05 -2.88395e-05 -2.33364e-06
-3.13939e-06 -2.33364e-06 -3.19344e-05
0.0010004 -7.42e-06 1.76667e-06
-7.42e-06 -1.84767e-06 1.43339e-06
1.76667e-06 1.43339e-06 -3.04391e-05
0.00092673 -1.14868e-05 -5.75955e-08
-1.14868e-05 -3.73982e-05 3.05637e-08
-5.75955e-08 3.05637e-08 -3.94179e-05
0.00232732 -1.69659e-05 -6.9576e-06
-1.69659e-05 0.000647023 -3.27695e-06
-6.9576e-06 -3.27695e-06 0.000667345
0.00237804 -1.51338e-05 -1.45629e-07
-1.51338e-05 0.000666515 4.30467e-08
-1.45629e-07 4.30467e-08 0.00068742
0.000923806 -1.02587e-05 2.47534e-06
-1.02587e-05 -4.25442e-05 2.65272e-06
2.47534e-06 2.65272e-06 -4.39014e-05
0.00240025 -1.332e-05 6.06623e-06
-1.332e-05 0.000672781 3.58357e-06
6.06623e-06 3.58357e-06 0.000694297
0.000594539 -1.14658e-05 -2.92967e-05
-1.14658e-05 -2.63552e-05 -6.78088e-06
-2.92967e-05 -6.78088e-06 -5.47013e-05
0.00131603 4.17794e-05 -1.30184e-05
4.17794e-05 -0.000465074 -4.50515e-06
-1.30184e-05 -4.50515e-06 -0.000691384
0.00239135 -5.09785e-05 -1.6818e-05
-5.09785e-05 0.000976926 -4.35776e-06
-1.6818e-05 -4.35776e-06 0.000966418
0.00119302 1.93459e-05 1.06231e-06
1.93459e-05 9.46474e-05 4.73391e-07
1.06231e-06 4.73391e-07 3.29562e-05
0.00118049 1.83115e-05 1.88979e-07
1.83115e-05 8.26441e-05 -4.29247e-07
1.88979e-07 -4.29247e-07 2.13718e-05
0.00116156 1.75156e-05 1.24247e-07
1.75156e-05 7.7649e-05 -3.22332e-07
1.24247e-07 -3.22332e-07 1.87461e-05
0.00113483 1.84318e-05 1.96703e-08
1.84318e-05 6.48675e-05 -1.91855e-08
1.96703e-08 -1.91855e-08 3.23968e-06
0.0011332 1.781e-05 -1.56163e-07
1.781e-05 7.02872e-05 -2.22965e-07
-1.56163e-07 -2.22965e-07 9.59791e-06
0.00102009 1.94423e-05 -8.13374e-08
1.94423e-05 1.74685e-05 5.68709e-07
-8.13374e-08 5.68709e-07 -4.37541e-05
0.00117526 1.91246e-05 4.41101e-07
1.91246e-05 8.42114e-05 -7.12186e-07
4.41101e-07 -7.12186e-07 2.03637e-05
0.00103195 2.05416e-05 -7.56882e-07
2.05416e-05 2.54396e-05 -1.53181e-06
-7.56882e-07 -1.53181e-06 -4.13393e-05
0.00110579 2.19532e-05 -1.1199e-07
2.19532e-05 5.37809e-05 8.47946e-10
-1.1199e-07 8.47946e-10 -1.07015e-05
0.00138297 2.63772e-05 8.26828e-08
2.63772e-05 0.000184818 7.23089e-08
8.26828e-08 7.23089e-08 0.000121532
0.00126125 3.06035e-05 1.38184e-06
3.06035e-05 9.92914e-05 -1.5735e-06
1.38184e-06 -1.5735e-06 2.63689e-05
0.00146085 3.53418e-05 -4.21714e-06
3.53418e-05 9.56219e-05 -1.70261e-06
-4.21714e-06 -1.70261e-06 7.74882e-07
0.00122001 3.59316e-05 1.71643e-06
3.59316e-05 8.19982e-05 1.76339e-06
1.71643e-06 1.76339e-06 -1.13835e-06
0.00101574 2.45703e-05 -1.47893e-06
2.45703e-05 1.42512e-05 6.12435e-07
-1.47893e-06 6.12435e-07 -5.15049e-05
0.00112536 -3.74218e-05 7.28462e-06
-3.74218e-05 -0.000281033 8.67383e-06
7.28462e-06 8.67383e-06 -0.000327245
0.000795649 9.82963e-06 1.94645e-06
9.82963e-06 -0.00010598 1.17554e-06
1.94645e-06 1.17554e-06 -0.000180077
0.000835147 -1.75012e-05 -3.40232e-05
-1.75012e-05 -0.000337371 -2.40106e-05
-3.40232e-05 -2.40106e-05 -0.000579454
0.00222499 6.15162e-05 1.14749e-05
6.15162e-05 0.00031603 2.42803e-05
1.14749e-05 2.42803e-05 0.000152726
0.00160026 1.77049e-05 5.71539e-06
1.77049e-05 6.87898e-05 1.33067e-06
5.71539e-06 1.33067e-06 -2.56575e-05
0.000231027 4.43872e-05 -7.51575e-07
4.43872e-05 -0.000382851 7.37596e-06
-7.51575e-07 7.37596e-06 -0.000474371
0.00146279 -8.54581e-06 8.48348e-06
-8.54581e-06 0.000422553 -5.85104e-06
8.48348e-06 -5.85104e-06 0.000381257
0.000281865 1.28642e-05 -1.21476e-05
1.28642e-05 1.19303e-06 -2.76433e-07
-1.21476e-05 -2.76433e-07 -6.88875e-05
0.000637086 9.11661e-05 3.46524e-05
9.11661e-05 -0.000822065 -3.80932e-06
3.46524e-05 -3.80932e-06 -0.00100036
0.00129191 -2.4414e-05 -9.68461e-07
-2.4414e-05 -0.000320526 1.80525e-06
-9.68461e-07 1.80525e-06 -0.000260795
0.00100246 2.84231e-05 2.58638e-05
2.84231e-05 -9.06225e-05 -8.77303e-06
2.58638e-05 -8.77303e-06 -0.000235902
0.00176317 9.75913e-06 2.81173e-06
9.75913e-06 4.27003e-05 8.36711e-07
2.81173e-06 8.36711e-07 6.57584e-05
0.00100449 3.95523e-05 1.27029e-06
3.95523e-05 7.91142e-05 -2.55054e-06
1.27029e-06 -2.55054e-06 7.50991e-06
0.00135133 3.43381e-05 -1.00355e-06
3.43381e-05 2.77842e-05 2.78649e-06
-1.00355e-06 2.78649e-06 -3.02771e-05
0.000403869 2.62332e-05 -1.3811e-06
2.62332e-05 -0.000308563 -3.98807e-06
-1.3811e-06 -3.98807e-06 -0.00038895
0.00149095 -1.83555e-05 2.46035e-06
-1.83555e-05 3.9843e-05 1.05187e-06
2.46035e-06 1.05187e-06 4.5375e-05
0.00143407 6.99596e-06 -2.56764e-07
6.99596e-06 6.02345e-05 -4.3039e-07
-2.56764e-07 -4.3039e-07 3.88693e-05
0.00144569 1.78406e-05 8.21971e-07
1.78406e-05 0.000115275 1.17166e-06
8.21971e-07 1.17166e-06 6.34657e-05
0.00138995 -1.0956e-05 -2.32684e-06
-1.0956e-05 5.56772e-05 7.62256e-07
-2.32684e-06 7.62256e-07 3.5369e-05
0.00137196 3.92131e-07 -2.18995e-07
3.92131e-07 6.86546e-05 -2.62063e-07
-2.18995e-07 -2.62063e-07 3.15009e-05
0.00135484 5.24727e-06 1.6685e-06
5.24727e-06 7.18811e-05 1.16526e-06
1.6685e-06 1.16526e-06 1.96685e-05
0.00134807 -1.06411e-05 -2.30489e-06
-1.06411e-05 7.15405e-05 3.26531e-07
-2.30489e-06 3.26531e-07 3.18402e-05
0.00128553 -6.64493e-06 -6.15568e-07
-6.64493e-06 5.21909e-05 -3.38659e-07
-6.15568e-07 -3.38659e-07 3.72461e-06
0.00125548 -8.58988e-06 9.83565e-07
-8.58988e-06 4.67936e-05 7.36004e-07
9.83565e-07 7.36004e-07 -1.14159e-05
0.00125836 -1.37348e-05 -1.72491e-06
-1.37348e-05 5.29051e-05 -1.73896e-07
-1.72491e-06 -1.73896e-07 4.26913e-06
0.00123754 -1.34483e-05 3.30991e-08
-1.34483e-05 4.96453e-05 -1.63314e-07
3.30991e-08 -1.63314e-07 -4.9379e-06
0.0012364 -1.51539e-05 6.00309e-07
-1.51539e-05 5.5718e-05 7.61704e-08
6.00309e-07 7.61704e-08 -2.43536e-06
0.00118856 -1.54001e-05 -1.08044e-06
-1.54001e-05 2.95772e-05 4.33158e-07
-1.08044e-06 4.33158e-07 -2.29714e-05
0.00121915 -1.60157e-05 -2.4361e-08
-1.60157e-05 5.00571e-05 -1.81419e-07
-2.4361e-08 -1.81419e-07 -6.08013e-06
0.00118465 -1.52181e-05 -1.03067e-07
-1.52181e-05 4.26691e-05 -1.95695e-07
-1.03067e-07 -1.95695e-07 -1.42013e-05
0.00124949 -1.80652e-05 1.39979e-07
-1.80652e-05 6.92635e-05 4.28327e-07
1.39979e-07 4.28327e-07 1.15727e-05
0.00117717 -1.6428e-05 8.68554e-08
-1.6428e-05 4.4504e-05 -1.36982e-07
8.68554e-08 -1.36982e-07 -1.24525e-05
0.00112246 -1.13313e-05 -9.08801e-07
-1.13313e-05 3.71015e-05 2.58701e-07
-9.08801e-07 2.58701e-07 -1.65604e-05
0.000989954 3.6783e-06 -2.18204e-06
3.6783e-06 9.89668e-06 1.1438e-06
-2.18204e-06 1.1438e-06 -3.13729e-05
0.00102758 -1.00541e-05 -3.09215e-07
-1.00541e-05 4.07708e-06 2.63901e-07
-3.09215e-07 2.63901e-07 -4.92068e-05
0.00118938 -1.83469e-05 4.56464e-07
-1.83469e-05 6.48075e-05 -3.69262e-08
4.56464e-07 -3.69262e-08 6.27599e-06
0.000829184 1.62293e-05 -3.87506e-06
1.62293e-05 -5.49099e-05 2.01122e-06
-3.87506e-06 2.01122e-06 -6.48505e-05
0.000986298 7.17042e-06 7.99815e-08
7.17042e-06 9.6552e-06 -2.57289e-09
7.99815e-08 -2.57289e-09 -2.81683e-05
0.00107808 -7.14242e-06 1.04083e-06
-7.14242e-06 3.84149e-05 -6.01677e-07
1.04083e-06 -6.01677e-07 -1.32503e-05
0.00246189 2.40877e-05 -7.9391e-06
2.40877e-05 0.000737955 2.75682e-06
-7.9391e-06 2.75682e-06 0.000753473
0.000887225 1.57653e-05 3.37194e-08
1.57653e-05 -3.36234e-05 6.00816e-09
3.37194e-08 6.00816e-09 -4.10057e-05
0.00100528 9.8678e-06 2.05888e-06
9.8678e-06 1.69338e-05 -1.19412e-06
2.05888e-06 -1.19412e-06 -1.7499e-05
0.00236627 2.23356e-05 1.28306e-07
2.23356e-05 0.000684753 6.20858e-08
1.28306e-07 6.20858e-08 0.000701879
0.000929492 1.50814e-05 3.62426e-06
1.50814e-05 -1.95873e-05 -2.1193e-06
3.62426e-06 -2.1193e-06 -2.4947e-05
0.0022891 2.05748e-05 7.43278e-06
2.05748e-05 0.000640958 -3.00733e-06
7.43278e-06 -3.00733e-06 0.000659528
0.00107155 1.49161e-05 -1.92525e-07
1.49161e-05 3.82963e-05 -9.63358e-08
-1.92525e-07 -9.63358e-08 -2.04504e-05
0.00109866 1.11229e-05 -6.02574e-08
1.11229e-05 5.30066e-05 -1.26028e-07
-6.02574e-08 -1.26028e-07 -4.33683e-06
0.0010664 -1.26548e-06 -8.46097e-07
-1.26548e-06 4.19588e-05 -2.76545e-07
-8.46097e-07 -2.76545e-07 -9.19517e-06
0.00121426 8.64602e-06 2.79279e-07
8.64602e-06 0.000106307 -1.9167e-07
2.79279e-07 -1.9167e-07 5.06303e-05
0.00100124 -4.98255e-06 -1.49843e-07
-4.98255e-06 8.9728e-06 -1.84921e-07
-1.49843e-07 -1.84921e-07 -4.09934e-05
0.000998091 -1.19161e-05 -1.99747e-06
-1.19161e-05 1.17667e-05 -1.05733e-06
-1.99747e-06 -1.05733e-06 -2.17478e-05
0.000939163 -6.61883e-06 8.40476e-07
-6.61883e-06 -2.44332e-05 2.85228e-07
8.40476e-07 2.85228e-07 -7.3306e-05
0.000992956 -1.04084e-05 -2.33171e-08
-1.04084e-05 3.8455e-06 2.49521e-08
-2.33171e-08 2.49521e-08 -2.75003e-05
0.00092885 -1.40604e-05 -3.34468e-06
-1.40604e-05 -2.57839e-05 -2.18439e-06
-3.34468e-06 -2.18439e-06 -3.03679e-05
0.00099187 -8.81977e-06 1.89872e-06
-8.81977e-06 -1.91003e-06 1.33681e-06
1.89872e-06 1.33681e-06 -3.15596e-05
0.000918068 -1.27729e-05 -4.08337e-08
-1.27729e-05 -3.69105e-05 2.34636e-08
-4.08337e-08 2.34636e-08 -3.98904e-05
0.00231852 -1.87881e-05 -7.18847e-06
-1.87881e-05 0.000648513 -3.1387e-06
-7.18847e-06 -3.1387e-06 0.000667911
0.000914556 -1.14554e-05 2.77134e-06
-1.14554e-05 -4.34608e-05 2.5327e-06
2.77134e-06 2.5327e-06 -4.53908e-05
0.00237669 -1.69629e-05 -1.31472e-07
-1.69629e-05 0.000670431 4.80773e-08
-1.31472e-07 4.80773e-08 0.000690627
0.00241707 -1.51284e-05 6.58102e-06
-1.51284e-05 0.000685058 3.47614e-06
6.58102e-06 3.47614e-06 0.000705853
0.000907568 -5.70865e-05 9.39068e-06
-5.70865e-05 -0.000236272 3.69091e-07
9.39068e-06 3.69091e-07 -0.000240665
0.00117313 6.706e-06 -6.50393e-06
6.706e-06 -4.98162e-05 3.17566e-06
-6.50393e-06 3.17566e-06 -0.000144926
0.00379938 3.88545e-05 -4.66603e-05
3.88545e-05 0.000799219 -1.8199e-05
-4.66603e-05 -1.8199e-05 0.000573881
0.00100724 1.91629e-05 7.98781e-07
1.91629e-05 6.35465e-06 5.44759e-07
7.98781e-07 5.44759e-07 -5.51266e-05
0.00127426 2.2317e-05 9.01537e-07
2.2317e-05 0.000114549 -2.54843e-07
9.01537e-07 -2.54843e-07 5.04967e-05
0.0010532 1.88351e-05 2.08092e-07
1.88351e-05 3.16024e-05 2.10286e-08
2.08092e-07 2.10286e-08 -3.02496e-05
0.00117838 1.87806e-05 3.28708e-08
1.87806e-05 8.53328e-05 -6.45531e-07
3.28708e-08 -6.45531e-07 2.36244e-05
0.00110627 1.80492e-05 -3.19855e-07
1.80492e-05 5.82663e-05 -4.37547e-07
-3.19855e-07 -4.37547e-07 -2.59948e-06
0.00110479 2.02389e-05 7.58233e-08
2.02389e-05 5.62864e-05 1.59779e-07
7.58233e-08 1.59779e-07 -5.18033e-06
0.00120898 2.7216e-05 2.61759e-07
2.7216e-05 6.73527e-05 -7.37596e-07
2.61759e-07 -7.37596e-07 -2.88002e-06
0.00129718 2.32678e-05 1.0344e-07
2.32678e-05 0.000143478 -3.93298e-07
1.0344e-07 -3.93298e-07 7.91692e-05
0.00107558 2.41028e-05 -2.90798e-06
2.41028e-05 5.14139e-05 -9.51077e-07
-2.90798e-06 -9.51077e-07 -1.02124e-05
0.00115061 2.99664e-05 1.06804e-08
2.99664e-05 4.65663e-05 -5.6097e-08
1.06804e-08 -5.6097e-08 -2.68691e-05
0.00117309 2.91354e-05 9.02119e-07
2.91354e-05 -2.41926e-05 -1.54409e-06
9.02119e-07 -1.54409e-06 -0.000110189
0.00151754 -9.28141e-07 -2.23782e-06
-9.28141e-07 8.41855e-05 4.219e-06
-2.23782e-06 4.219e-06 2.44207e-05
0.00152981 3.41057e-05 -1.80713e-06
3.41057e-05 0.000126509 4.10491e-07
-1.80713e-06 4.10491e-07 3.37051e-05
0.00108433 3.43294e-05 -5.82617e-07
3.43294e-05 2.46658e-05 4.37194e-06
-5.82617e-07 4.37194e-06 -5.63373e-05
0.00178571 -3.3889e-05 1.24255e-06
-3.3889e-05 3.05993e-05 3.2669e-07
1.24255e-06 3.2669e-07 -1.64201e-05
0.00129017 4.73854e-06 5.50159e-05
4.73854e-06 -2.1362e-05 1.33968e-05
5.50159e-05 1.33968e-05 -0.000133533
0.00221861 2.34983e-05 -5.84272e-06
2.34983e-05 0.000307228 -9.97034e-09
-5.84272e-06 -9.97034e-09 0.000193297
0.00119787 -3.1483e-06 4.06264e-07
-3.1483e-06 0.000105838 -3.37536e-06
4.06264e-07 -3.37536e-06 6.30103e-05
0.000793279 -1.4293e-05 3.551e-06
-1.4293e-05 8.81175e-05 -1.26732e-06
3.551e-06 -1.26732e-06 5.524e-05
0.00120383 3.44517e-05 2.73301e-05
3.44517e-05 4.53119e-06 4.73192e-06
2.73301e-05 4.73192e-06 -8.62055e-05
0.0015198 -3.54865e-08 3.71506e-06
-3.54865e-08 -6.28311e-05 -3.30105e-06
3.71506e-06 -3.30105e-06 -5.71966e-05
0.00109833 4.13401e-05 -4.1735e-06
4.13401e-05 0.000129234 -7.53328e-07
-4.1735e-06 -7.53328e-07 5.88737e-05
0.00154232 3.48286e-05 -1.89459e-06
3.48286e-05 0.000118793 6.96714e-07
-1.89459e-06 6.96714e-07 6.2563e-05
0.00102058 2.97395e-05 4.33533e-07
2.97395e-05 -1.28108e-05 1.12951e-06
4.33533e-07 1.12951e-06 -8.98622e-05
0.00123574 2.79212e-05 -1.37527e-06
2.79212e-05 5.32508e-05 -7.55298e-07
-1.37527e-06 -7.55298e-07 -1.85014e-05
0.00135839 2.52877e-05 -5.97151e-07
2.52877e-05 0.000184687 -1.91771e-06
-5.97151e-07 -1.91771e-06 0.000126306
0.00159476 6.44017e-06 -4.20656e-06
6.44017e-06 0.000146706 -2.3202e-06
-4.20656e-06 -2.3202e-06 0.000121989
0.00137697 1.70366e-05 -2.55686e-07
1.70366e-05 8.19526e-05 -1.07448e-06
-2.55686e-07 -1.07448e-06 3.11209e-05
0.00144166 2.10571e-05 2.64697e-07
2.10571e-05 0.000122254 6.99536e-07
2.64697e-07 6.99536e-07 5.92428e-05
0.00140112 3.32461e-07 -3.4734e-06
3.32461e-07 8.55349e-05 -1.13229e-06
-3.4734e-06 -1.13229e-06 4.76247e-05
0.0013394 5.21043e-06 -1.82677e-07
5.21043e-06 6.68833e-05 -2.70967e-07
-1.82677e-07 -2.70967e-07 1.42751e-05
0.00121423 4.01598e-06 7.57912e-07
4.01598e-06 1.6225e-05 1.02196e-06
7.57912e-07 1.02196e-06 -4.53178e-05
0.00129138 -7.4511e-06 -2.55722e-06
-7.4511e-06 5.78745e-05 -8.70903e-07
-2.55722e-06 -8.70903e-07 9.55782e-06
0.00126244 -8.08887e-06 8.11975e-08
-8.08887e-06 5.02266e-05 -1.13801e-07
8.11975e-08 -1.13801e-07 -7.95866e-06
0.00125045 -1.11726e-05 5.03188e-07
-1.11726e-05 5.31741e-05 5.3053e-07
5.03188e-07 5.3053e-07 -8.37372e-06
0.00124104 -1.315e-05 -1.1361e-06
-1.315e-05 5.14689e-05 -4.65408e-07
-1.1361e-06 -4.65408e-07 -3.09246e-06
0.00123471 -1.48298e-05 5.40946e-09
-1.48298e-05 5.45766e-05 -1.18996e-07
5.40946e-09 -1.18996e-07 -3.53779e-06
0.0012135 -1.48785e-05 4.06349e-08
-1.48785e-05 5.32512e-05 6.98529e-08
4.06349e-08 6.98529e-08 -5.32936e-06
0.00116364 -1.54011e-05 -4.65067e-07
-1.54011e-05 2.2596e-05 1.91261e-07
-4.65067e-07 1.91261e-07 -3.31668e-05
0.00115652 -1.4935e-05 -8.26004e-08
-1.4935e-05 2.89154e-05 -7.29885e-08
-8.26004e-08 -7.29885e-08 -2.78783e-05
0.00114919 -1.10278e-05 -7.68271e-07
-1.10278e-05 4.32997e-05 1.24537e-07
-7.68271e-07 1.24537e-07 -1.10186e-05
0.00111507 -1.60496e-05 5.41751e-07
-1.60496e-05 1.45807e-05 5.31322e-08
5.41751e-07 5.31322e-08 -4.26911e-05
0.00104895 -1.03797e-05 -4.72246e-08
-1.03797e-05 2.45521e-06 3.88693e-08
-4.72246e-08 3.88693e-08 -5.13512e-05
0.00100383 1.3545e-06 -2.27978e-06
1.3545e-06 1.19437e-05 9.1017e-07
-2.27978e-06 9.1017e-07 -3.19757e-05
0.000859333 1.67003e-05 -4.14169e-06
1.67003e-05 -3.56271e-05 1.95065e-06
-4.14169e-06 1.95065e-06 -4.85023e-05
0.000993343 2.72432e-06 7.26492e-08
2.72432e-06 1.01667e-05 4.86311e-08
7.26492e-08 4.86311e-08 -3.09224e-05
0.00109793 -9.92001e-06 7.57069e-07
-9.92001e-06 3.89065e-05 -2.16869e-07
7.57069e-07 -2.16869e-07 -1.39666e-05
0.00252579 2.56957e-05 -8.20156e-06
2.56957e-05 0.000777136 2.6149e-06
-8.20156e-06 2.6149e-06 0.000790825
0.000870447 1.62629e-05 5.41374e-08
1.62629e-05 -3.53487e-05 -2.88491e-09
5.41374e-08 -2.88491e-09 -4.55022e-05
0.00100347 5.59455e-06 2.14253e-06
5.59455e-06 1.66491e-05 -1.14691e-06
2.14253e-06 -1.14691e-06 -2.10543e-05
0.00240788 2.39702e-05 1.14126e-07
2.39702e-05 0.000712861 6.29226e-08
1.14126e-07 6.29226e-08 0.000728355
0.000921455 1.57902e-05 3.83633e-06
1.57902e-05 -1.73885e-05 -2.039e-06
3.83633e-06 -2.039e-06 -2.49413e-05
0.00231224 2.22459e-05 7.71366e-06
2.22459e-05 0.00065959 -2.86392e-06
7.71366e-06 -2.86392e-06 0.000676726
0.000962517 1.74014e-05 -1.45121e-07
1.74014e-05 -2.12675e-05 -2.99659e-07
-1.45121e-07 -2.99659e-07 -8.28114e-05
0.00100293 1.49154e-05 -2.67973e-08
1.49154e-05 5.11934e-06 -5.89475e-08
-2.67973e-08 -5.89475e-08 -5.39753e-05
0.00108681 3.01738e-06 -8.64622e-07
3.01738e-06 4.96358e-05 -2.12013e-07
-8.64622e-07 -2.12013e-07 -3.01043e-06
0.00108041 1.13443e-05 6.086e-08
1.13443e-05 4.42385e-05 -2.92669e-07
6.086e-08 -2.92669e-07 -1.30423e-05
0.00104938 -2.53759e-06 2.10679e-08
-2.53759e-06 3.46977e-05 1.74519e-08
2.10679e-08 1.74519e-08 -1.65621e-05
0.000995841 -1.28156e-05 -1.99739e-06
-1.28156e-05 1.52349e-05 -9.44302e-07
-1.99739e-06 -9.44302e-07 -2.07512e-05
0.00104181 -5.16707e-06 8.06074e-07
-5.16707e-06 2.94987e-05 1.8637e-07
8.06074e-07 1.8637e-07 -2.02941e-05
0.000982393 -1.17149e-05 -7.90927e-09
-1.17149e-05 4.37425e-06 1.27265e-08
-7.90927e-09 1.27265e-08 -2.91165e-05
0.000920805 -1.51766e-05 -3.5427e-06
-1.51766e-05 -2.29848e-05 -2.03764e-06
-3.5427e-06 -2.03764e-06 -2.95225e-05
0.000981096 -1.02436e-05 1.98581e-06
-1.02436e-05 -1.82951e-06 1.23931e-06
1.98581e-06 1.23931e-06 -3.31411e-05
0.000907131 -1.40205e-05 -4.58827e-08
-1.40205e-05 -3.63273e-05 2.21262e-08
-4.58827e-08 2.21262e-08 -4.07821e-05
0.00232012 -2.0565e-05 -7.42269e-06
-2.0565e-05 0.000656405 -3.00014e-06
-7.42269e-06 -3.00014e-06 0.000674554
0.0009016 -1.27372e-05 3.01761e-06
-1.27372e-05 -4.50397e-05 2.40035e-06
3.01761e-06 2.40035e-06 -4.79036e-05
0.00237498 -1.88105e-05 -1.20251e-07
-1.88105e-05 0.000675105 5.16755e-08
-1.20251e-07 5.16755e-08 0.000694406
0.00242613 -1.69628e-05 6.96489e-06
-1.69628e-05 0.000693883 3.34233e-06
6.96489e-06 3.34233e-06 0.000713953
0.00138452 -2.58885e-05 1.20306e-06
-2.58885e-05 8.8273e-05 4.35702e-07
1.20306e-06 4.35702e-07 6.02242e-05
0.00124903 -5.4533e-05 -1.05306e-08
-5.4533e-05 3.14334e-06 -3.60133e-06
-1.05306e-08 -3.60133e-06 -1.22103e-06
-0.000176143 8.36674e-07 2.3119e-05
8.36674e-07 -0.000162393 7.0807e-06
2.3119e-05 7.0807e-06 -0.000181952
0.00143736 2.43957e-05 1.08164e-06
2.43957e-05 0.000171953 -5.36716e-07
1.08164e-06 -5.36716e-07 0.00010639
0.00103041 1.97114e-05 -1.95402e-07
1.97114e-05 2.0937e-05 1.37641e-07
-1.95402e-07 1.37641e-07 -3.966e-05
0.000892545 2.14048e-05 -4.05564e-07
2.14048e-05 -8.92456e-05 -1.38258e-07
-4.05564e-07 -1.38258e-07 -0.000158936
0.00123317 2.2075e-05 4.13335e-08
2.2075e-05 9.52009e-05 2.61766e-08
4.13335e-08 2.61766e-08 3.08565e-05
0.0009167 1.83321e-05 -5.16181e-07
1.83321e-05 -2.96944e-05 1.92296e-07
-5.16181e-07 1.92296e-07 -9.17321e-05
0.00141257 2.80194e-05 -1.86825e-07
2.80194e-05 9.88862e-05 -2.73897e-06
-1.86825e-07 -2.73897e-06 2.0847e-05
0.00119287 2.10361e-05 -4.09363e-07
2.10361e-05 9.67172e-05 -5.07255e-07
-4.09363e-07 -5.07255e-07 3.50021e-05
0.00119474 2.68507e-05 3.84476e-08
2.68507e-05 5.96406e-05 7.14493e-07
3.84476e-08 7.14493e-07 -1.00251e-05
0.00126712 -8.1233e-07 1.03038e-06
-8.1233e-07 -3.43953e-05 3.4877e-06
1.03038e-06 3.4877e-06 -0.000103087
0.00102849 2.91767e-05 -5.70419e-07
2.91767e-05 -1.14236e-05 1.30957e-06
-5.70419e-07 1.30957e-06 -8.53787e-05
0.00136425 3.07193e-05 -1.09265e-07
3.07193e-05 5.38909e-05 -5.92972e-07
-1.09265e-07 -5.92972e-07 -3.41694e-05
0.00147053 -1.55786e-06 -7.46016e-09
-1.55786e-06 5.47594e-05 1.14873e-06
-7.46016e-09 1.14873e-06 -5.66623e-06
0.0015698 3.25294e-05 -2.45754e-07
3.25294e-05 0.000143923 1.7143e-06
-2.45754e-07 1.7143e-06 5.31437e-05
0.00237829 -3.04697e-05 -1.05148e-05
-3.04697e-05 0.000310303 -9.09849e-06
-1.05148e-05 -9.09849e-06 0.000262376
0.00132388 -8.90095e-06 3.56576e-07
-8.90095e-06 0.000154973 -1.87068e-06
3.56576e-07 -1.87068e-06 0.000114102
0.000814447 -2.30749e-06 7.18463e-07
-2.30749e-06 -6.90284e-05 7.61216e-07
7.18463e-07 7.61216e-07 -0.000111703
0.000112012 -1.94213e-05 -2.77934e-06
-1.94213e-05 -0.000249603 2.14232e-06
-2.77934e-06 2.14232e-06 -0.000275018
0.00158579 3.48792e-05 -4.08107e-06
3.48792e-05 0.000137738 -5.02158e-06
-4.08107e-06 -5.02158e-06 8.39027e-05
0.00159952 3.29459e-05 4.88442e-06
3.29459e-05 0.000265881 5.15561e-06
4.88442e-06 5.15561e-06 0.000192176
0.00132347 2.88296e-05 -9.21393e-07
2.88296e-05 8.44707e-05 -9.74451e-07
-9.21393e-07 -9.74451e-07 1.26204e-05
0.00136883 2.4897e-05 5.3391e-07
2.4897e-05 0.000177901 2.36131e-06
5.3391e-07 2.36131e-06 0.000120542
0.00124478 2.42832e-05 -1.43275e-06
2.42832e-05 9.27297e-05 -2.72245e-06
-1.43275e-06 -2.72245e-06 3.45975e-05
0.00131512 1.626e-05 -1.67097e-06
1.626e-05 5.23513e-05 -2.37518e-06
-1.67097e-06 -2.37518e-06 2.41297e-06
0.00136272 2.00064e-05 -7.49074e-09
2.00064e-05 8.32891e-05 -3.84407e-07
-7.49074e-09 -3.84407e-07 2.14276e-05
0.00137587 2.01219e-05 -7.84519e-07
2.01219e-05 0.000100942 -5.79695e-07
-7.84519e-07 -5.79695e-07 3.70288e-05
0.00132315 5.08243e-06 -2.01817e-06
5.08243e-06 6.14102e-05 -1.17685e-06
-2.01817e-06 -1.17685e-06 8.41735e-06
0.00127572 4.73618e-06 2.19852e-07
4.73618e-06 4.54478e-05 1.30029e-07
2.19852e-07 1.30029e-07 -1.66735e-05
0.00129489 3.56248e-06 1.76371e-07
3.56248e-06 6.39945e-05 5.70775e-07
1.76371e-07 5.70775e-07 -2.40383e-07
0.00126936 -7.52615e-06 -1.13066e-06
-7.52615e-06 5.36478e-05 -9.5229e-07
-1.13066e-06 -9.5229e-07 -4.51349e-06
0.00125812 -1.06656e-05 5.76706e-08
-1.06656e-05 5.62024e-05 -7.67623e-08
5.76706e-08 -7.67623e-08 -5.35712e-06
0.00122453 -1.24574e-05 -4.57688e-09
-1.24574e-05 5.09543e-05 3.65689e-07
-4.57688e-09 3.65689e-07 -1.03811e-05
0.00123377 -1.45433e-05 -5.72752e-07
-1.45433e-05 5.37812e-05 -3.12391e-07
-5.72752e-07 -3.12391e-07 -4.29419e-06
0.00121148 -1.47104e-05 -1.78343e-08
-1.47104e-05 5.2032e-05 -7.35198e-08
-1.78343e-08 -7.35198e-08 -6.52404e-06
0.00115819 -1.09378e-05 -6.00928e-07
-1.09378e-05 4.29406e-05 1.73926e-07
-6.00928e-07 1.73926e-07 -1.31447e-05
0.00113036 -1.4619e-05 6.99782e-08
-1.4619e-05 1.60413e-05 4.0238e-08
6.99782e-08 4.0238e-08 -4.06712e-05
0.00113614 -1.04686e-05 -3.77863e-08
-1.04686e-05 3.73112e-05 -2.07132e-09
-3.77863e-08 -2.07132e-09 -1.69592e-05
0.00101103 9.44125e-07 -2.20952e-06
9.44125e-07 1.21547e-05 6.9496e-07
-2.20952e-06 6.9496e-07 -3.40513e-05
0.000975211 -9.38758e-06 8.65329e-07
-9.38758e-06 -3.23091e-05 -1.63853e-07
8.65329e-07 -1.63853e-07 -8.62581e-05
0.000998447 9.45424e-07 1.56086e-08
9.45424e-07 8.14433e-06 6.01867e-08
1.56086e-08 6.01867e-08 -3.55758e-05
0.00157674 1.98778e-05 -3.55806e-06
1.98778e-05 0.000318206 9.93824e-07
-3.55806e-06 9.93824e-07 0.000305841
0.00121172 2.17358e-05 -1.03525e-05
2.17358e-05 0.000144752 4.03944e-06
-1.03525e-05 4.03944e-06 0.000149269
0.00123791 1.80087e-05 -1.47475e-07
1.80087e-05 0.000148641 7.65476e-08
-1.47475e-07 7.65476e-08 0.00013718
0.000997312 1.77263e-06 2.24632e-06
1.77263e-06 1.07136e-05 -9.65538e-07
2.24632e-06 -9.65538e-07 -3.01944e-05
0.00247775 2.55428e-05 1.11734e-07
2.55428e-05 0.000754781 6.90216e-08
1.11734e-07 6.90216e-08 0.000768394
0.000911688 1.62935e-05 4.04623e-06
1.62935e-05 -1.57889e-05 -1.98095e-06
4.04623e-06 -1.98095e-06 -2.61564e-05
0.00235381 2.3841e-05 8.02397e-06
2.3841e-05 0.000687722 -2.73599e-06
8.02397e-06 -2.73599e-06 0.000703194
0.0011205 2.18542e-05 3.3206e-07
2.18542e-05 5.93636e-06 1.18984e-08
3.3206e-07 1.18984e-08 -6.13602e-05
0.000955905 1.90373e-05 3.20772e-07
1.90373e-05 -3.39761e-05 -1.49373e-07
3.20772e-07 -1.49373e-07 -9.87602e-05
0.000984904 1.78647e-05 -2.88637e-08
1.78647e-05 -1.2764e-05 -2.89741e-08
-2.88637e-08 -2.89741e-08 -7.46098e-05
0.00109996 7.20043e-06 -7.90825e-07
7.20043e-06 5.22807e-05 -2.99906e-07
-7.90825e-07 -2.99906e-07 -1.9312e-06
0.000932841 1.48934e-05 3.08473e-08
1.48934e-05 -2.87691e-05 4.7341e-08
3.08473e-08 4.7341e-08 -8.82062e-05
0.00106036 1.9772e-06 -1.21858e-08
1.9772e-06 3.79165e-05 4.23449e-08
-1.21858e-08 4.23449e-08 -1.4771e-05
0.00099877 -1.15441e-05 -2.05425e-06
-1.15441e-05 1.93195e-05 -8.08731e-07
-2.05425e-06 -8.08731e-07 -1.91995e-05
0.00103278 -3.7988e-06 8.59031e-07
-3.7988e-06 2.764e-05 3.06064e-07
8.59031e-07 3.06064e-07 -2.37258e-05
0.000974483 -1.27546e-05 -2.62376e-08
-1.27546e-05 5.41036e-06 6.52216e-09
-2.62376e-08 6.52216e-09 -3.05769e-05
0.00091074 -1.61008e-05 -3.77381e-06
-1.61008e-05 -2.03712e-05 -1.8836e-06
-3.77381e-06 -1.8836e-06 -2.91962e-05
0.000966701 -1.15128e-05 2.0475e-06
-1.15128e-05 -3.0175e-06 1.11683e-06
2.0475e-06 1.11683e-06 -3.64842e-05
0.000893845 -1.51259e-05 -4.1532e-08
-1.51259e-05 -3.5863e-05 1.80307e-08
-4.1532e-08 1.80307e-08 -4.22684e-05
0.00233407 -2.22468e-05 -7.68668e-06
-2.22468e-05 0.000671716 -2.85988e-06
-7.68668e-06 -2.85988e-06 0.000688294
0.000885308 -1.39799e-05 3.21985e-06
-1.39799e-05 -4.69239e-05 2.26779e-06
3.21985e-06 2.26779e-06 -5.12485e-05
0.00238021 -2.06244e-05 -1.21112e-07
-2.06244e-05 0.000684437 5.68276e-08
-1.21112e-07 5.68276e-08 0.000702547
0.00243164 -1.88277e-05 7.23224e-06
-1.88277e-05 0.000701792 3.19296e-06
7.23224e-06 3.19296e-06 0.000720996
0.00143246 -2.93545e-05 1.80269e-06
-2.93545e-05 0.000100606 1.59424e-06
1.80269e-06 1.59424e-06 5.58792e-05
0.00145775 -2.65718e-05 1.61608e-06
-2.65718e-05 0.00011338 -1.72586e-06
1.61608e-06 -1.72586e-06 8.33657e-05
0.00174361 -5.22919e-05 -9.43407e-06
-5.22919e-05 0.000311232 -7.14817e-06
-9.43407e-06 -7.14817e-06 0.000306783
0.0013557 2.44401e-05 -1.60478e-07
2.44401e-05 8.3284e-05 -1.35259e-06
-1.60478e-07 -1.35259e-06 1.0764e-05
0.00133231 2.35686e-05 -2.06758e-08
2.35686e-05 0.000130058 2.10605e-07
-2.06758e-08 2.10605e-07 6.5675e-05
0.00103287 2.0151e-05 -1.41843e-06
2.0151e-05 2.57897e-05 -3.59722e-07
-1.41843e-06 -3.59722e-07 -3.39057e-05
0.00119179 2.3079e-05 1.72442e-07
2.3079e-05 4.7976e-05 3.75616e-07
1.72442e-07 3.75616e-07 -2.06292e-05
0.00118895 2.18159e-05 -8.95594e-07
2.18159e-05 7.42542e-05 4.05041e-07
-8.95594e-07 4.05041e-07 9.63582e-06
0.00131387 2.72908e-06 -5.72344e-08
2.72908e-06 1.2121e-05 1.0163e-06
-5.72344e-08 1.0163e-06 -6.23376e-05
0.00140636 2.82092e-05 -5.82289e-07
2.82092e-05 9.68747e-05 -9.96744e-07
-5.82289e-07 -9.96744e-07 1.80407e-05
0.0011706 2.64613e-05 -2.72739e-07
2.64613e-05 4.75254e-05 2.18099e-06
-2.72739e-07 2.18099e-06 -2.1593e-05
0.00144654 -6.18506e-07 5.62978e-08
-6.18506e-07 4.40192e-05 1.11134e-06
5.62978e-08 1.11134e-06 -2.50308e-05
0.0015435 3.22731e-05 -1.06704e-06
3.22731e-05 0.000126353 7.35948e-07
-1.06704e-06 7.35948e-07 3.62519e-05
0.00143741 -1.87109e-06 3.41919e-06
-1.87109e-06 3.19321e-05 -1.58393e-06
3.41919e-06 -1.58393e-06 -2.9179e-05
0.000695499 -2.20657e-06 1.39418e-07
-2.20657e-06 -0.00012355 -4.54166e-07
1.39418e-07 -4.54166e-07 -0.00016931
0.00117661 -6.94724e-06 -8.36288e-07
-6.94724e-06 9.45134e-05 -4.7913e-07
-8.36288e-07 -4.7913e-07 5.23695e-05
0.000437008 -1.36866e-06 2.16934e-06
-1.36866e-06 -0.000240905 4.63736e-06
2.16934e-06 4.63736e-06 -0.000283472
0.00142865 2.98043e-05 1.86629e-06
2.98043e-05 0.000123693 -1.46535e-06
1.86629e-06 -1.46535e-06 5.17891e-05
0.00130986 2.40154e-05 2.83701e-06
2.40154e-05 0.000139822 5.86172e-06
2.83701e-06 5.86172e-06 8.33717e-05
0.00125006 2.42375e-05 -7.64148e-07
2.42375e-05 9.19913e-05 -3.08679e-07
-7.64148e-07 -3.08679e-07 3.372e-05
0.00116252 2.01331e-05 4.87785e-08
2.01331e-05 5.15058e-05 -1.40744e-06
4.87785e-08 -1.40744e-06 -6.472e-06
0.00126927 1.88384e-05 -4.93549e-07
1.88384e-05 3.72651e-05 -6.58127e-07
-4.93549e-07 -6.58127e-07 -2.34033e-05
0.00137314 1.95334e-05 -2.66679e-07
1.95334e-05 9.35886e-05 -1.50236e-07
-2.66679e-07 -1.50236e-07 2.95488e-05
0.00128673 1.70633e-05 -7.19932e-07
1.70633e-05 6.20069e-05 -1.62575e-06
-7.19932e-07 -1.62575e-06 5.50819e-07
0.00134167 5.38618e-06 -8.23411e-07
5.38618e-06 7.66627e-05 -4.60275e-07
-8.23411e-07 -4.60275e-07 1.39729e-05
0.00128761 3.33808e-06 2.08652e-08
3.33808e-06 6.05457e-05 3.8867e-07
2.08652e-08 3.8867e-07 -3.76794e-06
0.00125572 -1.46262e-06 -2.20674e-07
-1.46262e-06 5.72315e-05 3.99629e-07
-2.20674e-07 3.99629e-07 -6.6824e-06
0.00126466 -1.00713e-05 -3.69359e-07
-1.00713e-05 5.87155e-05 -6.81313e-07
-3.69359e-07 -6.81313e-07 -2.85526e-06
0.00123138 -1.23022e-05 3.07399e-08
-1.23022e-05 5.36956e-05 -1.29232e-08
3.07399e-08 -1.29232e-08 -7.65909e-06
0.00117257 -1.0158e-05 -6.206e-07
-1.0158e-05 4.36032e-05 3.27485e-07
-6.206e-07 3.27485e-07 -1.48632e-05
0.00120984 -1.45774e-05 -3.3048e-08
-1.45774e-05 5.0986e-05 -2.26861e-07
-3.3048e-08 -2.26861e-07 -7.54609e-06
0.00115134 -1.0583e-05 -8.24311e-09
-1.0583e-05 3.95695e-05 -3.73284e-08
-8.24311e-09 -3.73284e-08 -1.64996e-05
0.0010136 7.14108e-07 -2.04373e-06
7.14108e-07 1.09977e-05 5.78753e-07
-2.04373e-06 5.78753e-07 -3.75819e-05
0.00112237 -9.92996e-06 6.76109e-07
-9.92996e-06 3.09848e-05 -1.17782e-07
6.76109e-07 -1.17782e-07 -2.32374e-05
0.00100329 6.52818e-07 -3.36339e-08
6.52818e-07 7.38112e-06 5.19445e-08
-3.36339e-08 5.19445e-08 -3.86435e-05
0.00159879 2.07365e-05 -3.64227e-06
2.07365e-05 0.000334808 8.50205e-07
-3.64227e-06 8.50205e-07 0.000319408
0.000993382 4.76265e-07 2.25493e-06
4.76265e-07 4.49426e-06 -7.44859e-07
2.25493e-06 -7.44859e-07 -3.90268e-05
0.00158654 1.96263e-05 2.0339e-06
1.96263e-05 0.000323401 -7.46124e-07
2.0339e-06 -7.46124e-07 0.000310616
0.00119505 2.2466e-05 -1.11292e-05
2.2466e-05 0.000145207 3.85941e-06
-1.11292e-05 3.85941e-06 0.000146948
0.00187993 2.4437e-05 -5.41444e-06
2.4437e-05 0.000470388 1.61757e-06
-5.41444e-06 1.61757e-06 0.000478529
0.00161834 1.89583e-05 5.96928e-06
1.89583e-05 0.000333714 -1.80764e-06
5.96928e-06 -1.80764e-06 0.000323682
0.0024293 2.53736e-05 8.45797e-06
2.53736e-05 0.000732215 -2.63434e-06
8.45797e-06 -2.63434e-06 0.000745756
0.00128533 2.16394e-05 -2.53836e-07
2.16394e-05 4.94491e-05 -1.22796e-06
-2.53836e-07 -1.22796e-06 -2.13326e-05
0.00130319 2.14632e-05 8.48967e-07
2.14632e-05 0.000113905 -8.80181e-08
8.48967e-07 -8.80181e-08 4.96799e-05
0.00115556 2.21465e-05 5.09613e-07
2.21465e-05 2.61121e-05 4.94241e-07
5.09613e-07 4.94241e-07 -3.91135e-05
0.00109998 1.16892e-05 -6.03124e-07
1.16892e-05 4.74944e-05 -6.16501e-07
-6.03124e-07 -6.16501e-07 -9.65373e-06
0.0010969 2.02696e-05 -1.27043e-07
2.02696e-05 3.14682e-05 3.77566e-08
-1.27043e-07 3.77566e-08 -3.32091e-05
0.0010082 1.83323e-05 1.11229e-07
1.83323e-05 -3.82684e-06 3.6914e-07
1.11229e-07 3.6914e-07 -6.59761e-05
0.00108152 7.09538e-06 2.62071e-08
7.09538e-06 4.42936e-05 -1.2356e-08
2.62071e-08 -1.2356e-08 -9.96917e-06
0.00100351 -7.44967e-06 -2.00308e-06
-7.44967e-06 2.33353e-05 -7.95328e-07
-2.00308e-06 -7.95328e-07 -1.80651e-05
0.0010344 9.20156e-07 6.85085e-07
9.20156e-07 2.64199e-05 1.97626e-07
6.85085e-07 1.97626e-07 -2.63078e-05
0.000976366 -1.1923e-05 -6.47415e-08
-1.1923e-05 9.54092e-06 7.21221e-09
-6.47415e-08 7.21221e-09 -2.90578e-05
0.000898391 -1.67897e-05 -3.99767e-06
-1.67897e-05 -1.80543e-05 -1.72789e-06
-3.99767e-06 -1.72789e-06 -2.93663e-05
0.000953171 -1.25309e-05 2.04521e-06
-1.25309e-05 -4.39619e-06 1.01777e-06
2.04521e-06 1.01777e-06 -4.03807e-05
0.000879647 -1.6039e-05 -5.07976e-08
-1.6039e-05 -3.50585e-05 2.43033e-08
-5.07976e-08 2.43033e-08 -4.37501e-05
0.00235896 -2.37919e-05 -7.98878e-06
-2.37919e-05 0.000693588 -2.70363e-06
-7.98878e-06 -2.70363e-06 0.000708341
0.000866781 -1.50731e-05 3.42401e-06
-1.50731e-05 -4.87919e-05 2.1183e-06
3.42401e-06 2.1183e-06 -5.50645e-05
0.0023956 -2.23523e-05 -1.17868e-07
-2.23523e-05 0.000700121 6.1043e-08
-1.17868e-07 6.1043e-08 0.000716719
0.00244061 -2.06794e-05 7.43496e-06
-2.06794e-05 0.000712617 3.04092e-06
7.43496e-06 3.04092e-06 0.000730687
0.00131115 -2.17536e-05 -3.86361e-07
-2.17536e-05 7.22923e-05 3.05267e-06
-3.86361e-07 3.05267e-06 1.57251e-05
0.00134229 -2.84198e-05 2.6605e-07
-2.84198e-05 6.03631e-05 -9.93008e-07
2.6605e-07 -9.93008e-07 1.55823e-05
0.00155885 -2.75742e-05 1.77909e-06
-2.75742e-05 0.000150506 -2.53565e-06
1.77909e-06 -2.53565e-06 0.000118555
0.00112073 6.37848e-06 -5.12865e-07
6.37848e-06 -6.34762e-05 4.87503e-07
-5.12865e-07 4.87503e-07 -0.000134793
0.00135957 2.41067e-05 7.21911e-08
2.41067e-05 8.52285e-05 -3.8689e-07
7.21911e-08 -3.8689e-07 1.26349e-05
0.00124963 2.28788e-05 -1.06902e-06
2.28788e-05 9.86043e-05 7.69001e-07
-1.06902e-06 7.69001e-07 3.5393e-05
0.00149418 2.47748e-05 -1.68569e-07
2.47748e-05 0.000186689 3.58599e-07
-1.68569e-07 3.58599e-07 0.000119166
0.00146237 3.55244e-06 3.92623e-08
3.55244e-06 8.07769e-05 8.76034e-08
3.92623e-08 8.76034e-08 6.67805e-06
0.00139184 2.83298e-05 -6.13843e-07
2.83298e-05 9.113e-05 6.0599e-07
-6.13843e-07 6.0599e-07 1.14859e-05
0.00163133 -4.03087e-07 -7.36893e-07
-4.03087e-07 0.000124901 -1.18228e-06
-7.36893e-07 -1.18228e-06 5.54912e-05
0.000980065 -5.81116e-07 1.68158e-06
-5.81116e-07 4.21933e-06 7.48536e-08
1.68158e-06 7.48536e-08 -4.7276e-05
0.000948322 -1.10008e-06 -6.27405e-08
-1.10008e-06 -1.35424e-05 -1.01751e-07
-6.27405e-08 -1.01751e-07 -6.11992e-05
0.00104979 -4.5643e-06 -1.69436e-06
-4.5643e-06 4.29461e-05 1.50311e-06
-1.69436e-06 1.50311e-06 -3.93961e-07
0.00112234 1.79237e-05 4.59496e-07
1.79237e-05 5.10861e-05 -5.60881e-07
4.59496e-07 -5.60881e-07 -7.34073e-06
0.00131802 2.46445e-05 1.03924e-06
2.46445e-05 0.00012039 1.51952e-06
1.03924e-06 1.51952e-06 6.19577e-05
0.00116856 2.02384e-05 4.7238e-07
2.02384e-05 5.50657e-05 -7.73504e-08
4.7238e-07 -7.73504e-08 -3.06181e-06
0.00122984 1.93499e-05 -6.52136e-09
1.93499e-05 6.34979e-05 -1.29314e-07
-6.52136e-09 -1.29314e-07 5.46679e-06
0.00137304 1.89887e-05 -8.95104e-08
1.89887e-05 8.76368e-05 3.73144e-07
-8.95104e-08 3.73144e-07 2.34464e-05
0.00126901 1.66963e-05 -5.13674e-07
1.66963e-05 5.49975e-05 -5.49771e-07
-5.13674e-07 -5.49771e-07 -6.51125e-06
0.00127498 1.50956e-05 -6.24453e-07
1.50956e-05 6.75204e-05 -1.04511e-06
-6.24453e-07 -1.04511e-06 4.26986e-06
0.00127931 3.63733e-06 3.45274e-07
3.63733e-06 5.66509e-05 1.52066e-07
3.45274e-07 1.52066e-07 -7.75281e-06
0.00124661 -3.10078e-07 1.90171e-08
-3.10078e-07 5.32725e-05 1.58883e-07
1.90171e-08 1.58883e-07 -1.06599e-05
0.00119317 -5.58975e-06 -7.85925e-07
-5.58975e-06 4.73388e-05 3.17982e-07
-7.85925e-07 3.17982e-07 -1.34081e-05
0.00123719 -1.20755e-05 1.23312e-07
-1.20755e-05 5.59649e-05 -4.02025e-07
1.23312e-07 -4.02025e-07 -5.40888e-06
0.00116969 -9.90765e-06 3.15207e-08
-9.90765e-06 4.18923e-05 2.8906e-08
3.15207e-08 2.8906e-08 -1.65838e-05
0.0010183 1.60474e-07 -1.91881e-06
1.60474e-07 9.24118e-06 5.46377e-07
-1.91881e-06 5.46377e-07 -4.16004e-05
0.00114459 -1.016e-05 5.8461e-07
-1.016e-05 3.62452e-05 -2.40021e-07
5.8461e-07 -2.40021e-07 -1.98071e-05
0.00100811 5.61442e-07 -6.74396e-08
5.61442e-07 7.57061e-06 3.7467e-08
-6.74396e-08 3.7467e-08 -4.08799e-05
0.00161592 2.1719e-05 -3.5805e-06
2.1719e-05 0.000350284 7.4156e-07
-3.5805e-06 7.4156e-07 0.0003315
0.000995437 3.92166e-07 2.17501e-06
3.92166e-07 2.55254e-06 -5.84065e-07
2.17501e-06 -5.84065e-07 -4.32901e-05
0.00159847 2.04913e-05 2.13905e-06
2.04913e-05 0.000334905 -6.98676e-07
2.13905e-06 -6.98676e-07 0.000319145
0.0012185 2.32677e-05 -1.17675e-05
2.32677e-05 0.000166206 3.56738e-06
-1.17675e-05 3.56738e-06 0.000165045
0.00159822 1.93772e-05 7.57578e-06
1.93772e-05 0.00032947 -2.49727e-06
7.57578e-06 -2.49727e-06 0.000316262
0.00117355 2.31086e-05 -4.04822e-06
2.31086e-05 0.000134583 1.56676e-06
-4.04822e-06 1.56676e-06 0.000136627
0.00254501 2.7886e-05 3.85343e-06
2.7886e-05 0.00079466 -9.68382e-07
3.85343e-06 -9.68382e-07 0.000806396
0.00146473 8.38493e-06 -6.05364e-07
8.38493e-06 0.000105678 -2.24146e-07
-6.05364e-07 -2.24146e-07 3.48212e-05
0.00129841 2.07949e-05 1.78322e-07
2.07949e-05 7.37638e-05 -1.09392e-06
1.78322e-07 -1.09392e-06 5.8504e-06
0.0013279 2.20458e-05 -4.58685e-07
2.20458e-05 7.37065e-05 5.95764e-07
-4.58685e-07 5.95764e-07 3.56717e-06
0.00133362 1.57838e-05 -2.84797e-07
1.57838e-05 0.000144775 -1.77459e-07
-2.84797e-07 -1.77459e-07 8.62543e-05
0.00121416 2.11865e-05 3.38056e-07
2.11865e-05 7.10308e-05 -1.81548e-07
3.38056e-07 -1.81548e-07 6.52308e-06
0.00117809 2.23491e-05 5.08607e-07
2.23491e-05 4.03495e-05 8.42971e-07
5.08607e-07 8.42971e-07 -2.27915e-05
0.00100962 -1.89866e-06 -1.95242e-06
-1.89866e-06 2.51583e-05 -9.96283e-07
-1.95242e-06 -9.96283e-07 -2.01828e-05
0.00110036 1.20738e-05 1.65429e-08
1.20738e-05 4.78352e-05 -8.57157e-08
1.65429e-08 -8.57157e-08 -9.35358e-06
0.00123843 2.15175e-05 3.41187e-07
2.15175e-05 9.71781e-05 5.56298e-07
3.41187e-07 5.56298e-07 3.26045e-05
0.00106087 7.07196e-06 6.66674e-07
7.07196e-06 3.52438e-05 1.64811e-07
6.66674e-07 1.64811e-07 -1.90663e-05
0.000984558 -8.51684e-06 -4.39277e-08
-8.51684e-06 1.59286e-05 -2.9002e-08
-4.39277e-08 -2.9002e-08 -2.56544e-05
0.000889397 -1.72429e-05 -4.13453e-06
-1.72429e-05 -1.39205e-05 -1.65793e-06
-4.13453e-06 -1.65793e-06 -2.80874e-05
0.000954145 -1.24545e-05 2.03956e-06
-1.24545e-05 -1.38322e-07 9.08413e-07
2.03956e-06 9.08413e-07 -3.88227e-05
0.000863859 -1.67127e-05 -5.20438e-08
-1.67127e-05 -3.43147e-05 2.45824e-08
-5.20438e-08 2.45824e-08 -4.54893e-05
0.00239667 -2.51884e-05 -8.33586e-06
-2.51884e-05 0.000722471 -2.53707e-06
-8.33586e-06 -2.53707e-06 0.000735238
0.000848849 -1.59755e-05 3.61689e-06
-1.59755e-05 -4.96068e-05 1.96388e-06
3.61689e-06 1.96388e-06 -5.81654e-05
0.00242003 -2.39453e-05 -1.19618e-07
-2.39453e-05 0.000721516 6.65346e-08
-1.19618e-07 6.65346e-08 0.000736337
0.00245741 -2.24501e-05 7.65453e-06
-2.24501e-05 0.000728661 2.89257e-06
7.65453e-06 2.89257e-06 0.000745279
0.00134201 -1.68526e-05 3.59802e-07
-1.68526e-05 8.57371e-05 1.64924e-06
3.59802e-07 1.64924e-06 2.55396e-05
0.00138968 -2.19563e-05 -4.44352e-08
-2.19563e-05 0.000100023 7.1943e-07
-4.44352e-08 7.1943e-07 4.24783e-05
0.00124727 -2.74641e-05 -1.07806e-06
-2.74641e-05 1.79455e-05 -3.47595e-06
-1.07806e-06 -3.47595e-06 -2.68916e-05
0.00129423 5.84848e-06 -1.18664e-07
5.84848e-06 7.32103e-06 -1.57807e-07
-1.18664e-07 -1.57807e-07 -6.47526e-05
0.00135199 2.37042e-05 -1.72118e-07
2.37042e-05 8.17361e-05 6.04768e-07
-1.72118e-07 6.04768e-07 9.08381e-06
0.00162525 4.43898e-06 2.8541e-07
4.43898e-06 0.000155896 -1.01916e-06
2.8541e-07 -1.01916e-06 8.21852e-05
0.00102488 -1.19302e-06 8.83728e-07
-1.19302e-06 2.35472e-05 2.36098e-07
8.83728e-07 2.36098e-07 -3.5687e-05
0.00101068 -2.38543e-07 5.87624e-07
-2.38543e-07 2.52491e-05 -4.22259e-08
5.87624e-07 -4.22259e-08 -2.60934e-05
0.0011765 -2.48621e-07 -7.44214e-08
-2.48621e-07 8.53114e-05 4.26866e-07
-7.44214e-08 4.26866e-07 3.57326e-05
0.00116122 1.79226e-05 -3.38949e-07
1.79226e-05 6.7923e-05 3.8009e-07
-3.38949e-07 3.8009e-07 8.20417e-06
0.00117118 1.84146e-05 1.82787e-07
1.84146e-05 6.62203e-05 -1.57968e-07
1.82787e-07 -1.57968e-07 5.46668e-06
0.00117059 2.03497e-05 3.47846e-07
2.03497e-05 5.68029e-05 9.81811e-07
3.47846e-07 9.81811e-07 -1.47812e-06
0.0012036 1.91006e-05 1.54088e-07
1.91006e-05 5.17431e-05 4.96813e-07
1.54088e-07 4.96813e-07 -6.3184e-06
0.00133277 1.99064e-05 2.27514e-07
1.99064e-05 0.000110695 -2.8484e-07
2.27514e-07 -2.8484e-07 5.11731e-05
0.00125002 1.57741e-05 2.34374e-07
1.57741e-05 4.73949e-05 4.58206e-07
2.34374e-07 4.58206e-07 -1.41568e-05
0.00124404 1.33006e-05 -2.56722e-07
1.33006e-05 5.38495e-05 -3.47283e-07
-2.56722e-07 -3.47283e-07 -9.22931e-06
0.00119999 8.4314e-06 -1.14627e-06
8.4314e-06 5.15131e-05 -1.64254e-07
-1.14627e-06 -1.64254e-07 -1.00395e-05
0.00123592 -6.65905e-07 1.77354e-07
-6.65905e-07 4.85311e-05 -6.14583e-08
1.77354e-07 -6.14583e-08 -1.53839e-05
0.00118413 -5.03578e-06 1.69647e-08
-5.03578e-06 4.30282e-05 4.49988e-08
1.69647e-08 4.49988e-08 -1.77256e-05
0.00102098 7.61295e-07 -1.91665e-06
7.61295e-07 6.39478e-06 4.392e-07
-1.91665e-06 4.392e-07 -4.64113e-05
0.00116771 -9.62293e-06 7.02782e-07
-9.62293e-06 4.05954e-05 -2.6722e-07
7.02782e-07 -2.6722e-07 -1.78903e-05
0.00101395 2.6931e-07 -6.05422e-08
2.6931e-07 6.88862e-06 8.24138e-08
-6.05422e-08 8.24138e-08 -4.38951e-05
0.00155738 2.15388e-05 -3.44706e-06
2.15388e-05 0.000330435 6.73861e-07
-3.44706e-06 6.73861e-07 0.000307488
0.00100248 3.77545e-07 2.06753e-06
3.77545e-07 4.07342e-06 -5.37193e-07
2.06753e-06 -5.37193e-07 -4.4248e-05
0.00160731 2.14664e-05 2.25045e-06
2.14664e-05 0.000345766 -6.5433e-07
2.25045e-06 -6.5433e-07 0.000326668
0.00123315 2.37531e-05 -1.24127e-05
2.37531e-05 0.000185312 3.30203e-06
-1.24127e-05 3.30203e-06 0.000180733
0.00159975 2.02636e-05 7.7665e-06
2.02636e-05 0.000335759 -2.23886e-06
7.7665e-06 -2.23886e-06 0.000319636
0.00119028 2.39159e-05 -4.28958e-06
2.39159e-05 0.000152407 1.44856e-06
-4.28958e-06 1.44856e-06 0.000151576
0.00115049 2.37695e-05 3.11741e-06
2.37695e-05 0.000123247 -7.49659e-07
3.11741e-06 -7.49659e-07 0.000125596
0.00147361 -1.18083e-05 1.35259e-07
-1.18083e-05 0.000120961 1.07199e-06
1.35259e-07 1.07199e-06 6.27397e-05
0.00134538 1.04999e-05 -7.07757e-07
1.04999e-05 6.74278e-05 -1.92268e-07
-7.07757e-07 -1.92268e-07 -2.54638e-06
0.00146812 8.01828e-06 -2.39196e-07
8.01828e-06 0.000104449 -3.86698e-07
-2.39196e-07 -3.86698e-07 3.34718e-05
0.00128415 1.7187e-05 -5.75311e-07
1.7187e-05 9.29211e-05 -6.83762e-07
-5.75311e-07 -6.83762e-07 3.08902e-05
0.00135047 2.09573e-05 3.08515e-07
2.09573e-05 0.00010046 4.11415e-07
3.08515e-07 4.11415e-07 3.30245e-05
0.00137565 2.2501e-05 4.93035e-07
2.2501e-05 0.000100453 1.44188e-06
4.93035e-07 1.44188e-06 3.09463e-05
0.000989682 1.93882e-06 -2.07586e-06
1.93882e-06 7.69128e-06 -8.76983e-07
-2.07586e-06 -8.76983e-07 -4.11785e-05
0.00115431 1.51919e-05 4.01718e-07
1.51919e-05 5.80824e-05 3.96548e-07
4.01718e-07 3.96548e-07 -1.42302e-06
0.00112704 2.09534e-05 2.85328e-07
2.09534e-05 2.91193e-05 9.62629e-07
2.85328e-07 9.62629e-07 -3.56812e-05
0.000887623 -1.75562e-05 -4.17847e-06
-1.75562e-05 -8.72406e-06 -1.73804e-06
-4.17847e-06 -1.73804e-06 -2.65408e-05
0.00099133 -3.15162e-06 -2.52967e-08
-3.15162e-06 1.8406e-05 -6.1013e-08
-2.52967e-08 -6.1013e-08 -2.71197e-05
0.00110036 1.23749e-05 5.9944e-07
1.23749e-05 4.79911e-05 4.15603e-07
5.9944e-07 4.15603e-07 -9.23606e-06
0.000964574 -9.61373e-06 2.01611e-06
-9.61373e-06 8.06613e-06 8.23623e-07
2.01611e-06 8.23623e-07 -3.37026e-05
0.00084437 -1.71173e-05 -4.09749e-08
-1.71173e-05 -3.50228e-05 -5.64206e-09
-4.09749e-08 -5.64206e-09 -4.90292e-05
0.00246339 -2.64567e-05 -8.81409e-06
-2.64567e-05 0.000765183 -2.41008e-06
-8.81409e-06 -2.41008e-06 0.000775791
0.000829808 -1.6635e-05 3.83293e-06
-1.6635e-05 -5.03394e-05 1.79944e-06
3.83293e-06 1.79944e-06 -6.13784e-05
0.00245397 -2.53821e-05 -1.18132e-07
-2.53821e-05 0.000748503 7.05567e-08
-1.18132e-07 7.05567e-08 0.000761365
0.00248207 -2.40952e-05 7.89789e-06
-2.40952e-05 0.00074989 2.74071e-06
7.89789e-06 2.74071e-06 0.000764778
0.00124718 -1.92853e-05 9.98545e-07
-1.92853e-05 7.73138e-05 -7.45776e-07
9.98545e-07 -7.45776e-07 1.07757e-05
0.00133863 -1.66488e-05 -1.37341e-07
-1.66488e-05 8.02282e-05 3.26106e-07
-1.37341e-07 3.26106e-07 1.97444e-05
0.00145916 -2.21274e-05 -2.72791e-07
-2.21274e-05 0.000123472 -1.76308e-06
-2.72791e-07 -1.76308e-06 6.49589e-05
0.0014749 5.33784e-06 7.67885e-07
5.33784e-06 8.16118e-05 -3.20263e-07
7.67885e-07 -3.20263e-07 8.75707e-06
0.00107455 -8.00957e-07 -6.43405e-08
-8.00957e-07 3.75611e-05 1.01388e-06
-6.43405e-08 1.01388e-06 -2.58416e-05
0.00106733 -8.74937e-07 -5.37371e-07
-8.74937e-07 4.58458e-05 1.95088e-08
-5.37371e-07 1.95088e-08 -1.29452e-05
0.0010444 8.52884e-08 -1.01627e-06
8.52884e-08 4.75786e-05 5.54724e-08
-1.01627e-06 5.54724e-08 -3.59271e-06
0.00118134 1.77146e-05 -7.33327e-07
1.77146e-05 7.60268e-05 1.45583e-06
-7.33327e-07 1.45583e-06 1.50277e-05
0.00116037 1.81572e-05 2.81898e-07
1.81572e-05 6.33485e-05 3.53837e-07
2.81898e-07 3.53837e-07 2.81423e-06
0.00116865 1.9083e-05 -2.693e-07
1.9083e-05 6.45432e-05 -5.51621e-07
-2.693e-07 -5.51621e-07 5.1712e-06
0.00117461 1.88155e-05 4.85065e-07
1.88155e-05 3.85995e-05 1.36575e-06
4.85065e-07 1.36575e-06 -1.94769e-05
0.00127855 1.96852e-05 1.96601e-07
1.96852e-05 8.57616e-05 3.68899e-07
1.96601e-07 3.68899e-07 2.61115e-05
0.00120551 1.85019e-05 -7.01204e-07
1.85019e-05 6.3978e-05 -6.22891e-07
-7.01204e-07 -6.22891e-07 3.88831e-06
0.00121271 1.29738e-05 6.17201e-08
1.29738e-05 4.00543e-05 3.71416e-07
6.17201e-08 3.71416e-07 -2.28899e-05
0.00117288 9.64683e-06 -1.49517e-07
9.64683e-06 3.9644e-05 7.21413e-08
-1.49517e-07 7.21413e-08 -2.18419e-05
0.00103624 8.95802e-06 -1.93485e-06
8.95802e-06 1.42704e-05 2.98689e-07
-1.93485e-06 2.98689e-07 -4.02073e-05
0.00117186 -1.85967e-06 7.6638e-07
-1.85967e-06 3.7301e-05 -2.23182e-07
7.6638e-07 -2.23182e-07 -2.34912e-05
0.00102056 1.2027e-06 -5.26224e-08
1.2027e-06 6.43465e-06 4.7575e-08
-5.26224e-08 4.7575e-08 -4.63783e-05
0.000714293 1.59599e-05 -4.6333e-06
1.59599e-05 -7.2745e-05 1.13868e-06
-4.6333e-06 1.13868e-06 -0.000104685
0.00101067 3.4127e-07 2.03027e-06
3.4127e-07 4.9987e-06 -4.35875e-07
2.03027e-06 -4.35875e-07 -4.57235e-05
0.00115784 1.87709e-05 2.71879e-06
1.87709e-05 0.000134307 -6.08851e-07
2.71879e-06 -6.08851e-07 0.000108795
0.00290633 3.19094e-05 -1.07904e-05
3.19094e-05 0.00101339 1.82817e-06
-1.07904e-05 1.82817e-06 0.00101502
0.00159866 2.07642e-05 7.89213e-06
2.07642e-05 0.000341242 -2.02992e-06
7.89213e-06 -2.02992e-06 0.000321834
0.00119936 2.44064e-05 -4.55473e-06
2.44064e-05 0.00016892 1.32753e-06
-4.55473e-06 1.32753e-06 0.000164721
0.00115923 2.45764e-05 3.2707e-06
2.45764e-05 0.00013726 -6.61502e-07
3.2707e-06 -6.61502e-07 0.000136768
0.00143968 -1.74104e-05 8.24425e-07
-1.74104e-05 0.000139031 -9.10713e-07
8.24425e-07 -9.10713e-07 7.69218e-05
0.00133939 -6.84557e-06 -3.56535e-07
-6.84557e-06 6.55439e-05 9.67257e-07
-3.56535e-07 9.67257e-07 3.93742e-06
0.0013285 -1.14758e-05 2.22665e-07
-1.14758e-05 5.63538e-05 4.26206e-08
2.22665e-07 4.26206e-08 -2.47982e-06
0.00101998 1.15616e-05 -1.2272e-06
1.15616e-05 -5.58548e-05 -4.93906e-07
-1.2272e-06 -4.93906e-07 -0.000121615
0.00138762 1.03653e-05 1.12644e-07
1.03653e-05 8.97206e-05 9.54802e-09
1.12644e-07 9.54802e-09 2.10121e-05
0.00147031 7.6855e-06 4.09461e-07
7.6855e-06 0.000102566 -5.79855e-07
4.09461e-07 -5.79855e-07 3.1482e-05
0.000792021 3.80089e-06 -2.62231e-06
3.80089e-06 -0.000104499 -1.29579e-06
-2.62231e-06 -1.29579e-06 -0.000157667
0.00129232 1.7256e-05 2.25546e-07
1.7256e-05 9.67751e-05 8.4552e-09
2.25546e-07 8.4552e-09 3.46667e-05
0.00140832 2.11743e-05 4.42031e-07
2.11743e-05 0.000129696 1.25017e-06
4.42031e-07 1.25017e-06 6.27539e-05
0.000877552 -1.63496e-05 -4.41337e-06
-1.63496e-05 -1.26746e-05 -1.69177e-06
-4.41337e-06 -1.69177e-06 -3.4665e-05
0.000876455 9.83431e-07 -2.72702e-08
9.83431e-07 -4.64081e-05 5.78801e-08
-2.72702e-08 5.78801e-08 -9.62836e-05
0.000976954 1.4557e-05 1.00769e-06
1.4557e-05 -2.76703e-05 1.10485e-06
1.00769e-06 1.10485e-06 -8.8165e-05
0.00258886 -2.76535e-05 -9.60797e-06
-2.76535e-05 0.000834624 -2.36466e-06
-9.60797e-06 -2.36466e-06 0.000842805
0.000822659 -1.72805e-05 -5.7929e-08
-1.72805e-05 -3.88987e-05 -5.17966e-08
-5.7929e-08 -5.17966e-08 -5.65103e-05
0.000972819 -4.42071e-06 1.90686e-06
-4.42071e-06 1.15783e-05 9.2293e-07
1.90686e-06 9.2293e-07 -3.4134e-05
0.000798883 -1.6985e-05 4.02764e-06
-1.6985e-05 -5.63255e-05 1.68192e-06
4.02764e-06 1.68192e-06 -7.01729e-05
0.00251187 -2.66933e-05 -1.07557e-07
-2.66933e-05 0.000787212 7.19085e-08
-1.07557e-07 7.19085e-08 0.00079795
0.00251321 -2.55739e-05 8.18755e-06
-2.55739e-05 0.0007754 2.57916e-06
8.18755e-06 2.57916e-06 0.00078836
0.00109952 -1.81476e-05 2.06841e-07
-1.81476e-05 3.53861e-05 3.44163e-07
2.06841e-07 3.44163e-07 -3.20854e-05
0.00115196 -1.84365e-05 -4.92006e-07
-1.84365e-05 3.81659e-05 -8.95109e-07
-4.92006e-07 -8.95109e-07 -2.6818e-05
0.00133502 -1.64288e-05 -3.16208e-07
-1.64288e-05 7.46391e-05 -9.93034e-07
-3.16208e-07 -9.93034e-07 1.38677e-05
0.00110305 5.12257e-06 1.63736e-07
5.12257e-06 5.16299e-05 1.88313e-07
1.63736e-07 1.88313e-07 -8.81517e-06
0.00113582 -4.05376e-07 4.03842e-08
-4.05376e-07 6.65941e-05 4.6562e-07
4.03842e-08 4.6562e-07 3.30793e-06
0.00111207 -4.12734e-07 -1.66566e-06
-4.12734e-07 6.91763e-05 -8.47696e-08
-1.66566e-06 -8.47696e-08 1.08294e-05
0.0011606 1.844e-05 -6.73328e-08
1.844e-05 6.56396e-05 4.65392e-07
-6.73328e-08 4.65392e-07 5.30606e-06
0.0011571 1.89993e-05 7.77228e-08
1.89993e-05 5.85331e-05 2.17631e-07
7.77228e-08 2.17631e-07 -6.66137e-07
0.00118063 1.80893e-05 -3.74243e-07
1.80893e-05 8.41713e-05 -5.13731e-07
-3.74243e-07 -5.13731e-07 2.63811e-05
0.00122832 1.94791e-05 4.17427e-07
1.94791e-05 6.27171e-05 1.41732e-06
4.17427e-07 1.41732e-06 2.93327e-06
0.00124385 1.88177e-05 1.30946e-08
1.88177e-05 8.43865e-05 3.07955e-08
1.30946e-08 3.07955e-08 2.46681e-05
0.000914317 1.53184e-05 -2.2182e-06
1.53184e-05 -3.57806e-05 -3.44537e-07
-2.2182e-06 -3.44537e-07 -9.10159e-05
0.00115049 8.17664e-06 7.515e-07
8.17664e-06 2.98654e-05 3.23329e-07
7.515e-07 3.23329e-07 -3.15222e-05
0.0010165 8.89184e-06 -2.21933e-08
8.89184e-06 5.77072e-06 1.57837e-07
-2.21933e-08 1.57837e-07 -4.86547e-05
0.000717015 1.52046e-05 -4.71434e-06
1.52046e-05 -6.24532e-05 8.82277e-07
-4.71434e-06 8.82277e-07 -9.81915e-05
0.00101736 1.71931e-06 1.984e-06
1.71931e-06 5.1642e-06 -3.80521e-07
1.984e-06 -3.80521e-07 -4.76536e-05
0.000754879 1.6134e-05 8.69113e-08
1.6134e-05 -5.53461e-05 7.36099e-08
8.69113e-08 7.36099e-08 -8.72048e-05
0.00304063 3.27492e-05 -1.13697e-05
3.27492e-05 0.00109063 1.51303e-06
-1.13697e-05 1.51303e-06 0.0010896
0.000752162 1.69924e-05 6.2103e-06
1.69924e-05 -6.45899e-05 -1.88163e-06
6.2103e-06 -1.88163e-06 -9.26938e-05
0.00200581 2.81068e-05 2.04393e-06
2.81068e-05 0.000576921 1.88543e-07
2.04393e-06 1.88543e-07 0.000573652
0.00116315 2.50913e-05 3.4254e-06
2.50913e-05 0.000151366 -5.89469e-07
3.4254e-06 -5.89469e-07 0.000147557
0.00146207 -2.11159e-05 2.28469e-07
-2.11159e-05 0.000179794 -2.31808e-07
2.28469e-07 -2.31808e-07 0.000113623
0.00125958 -1.47254e-05 -2.57308e-07
-1.47254e-05 5.35276e-05 -2.71181e-07
-2.57308e-07 -2.71181e-07 -6.76384e-06
0.00127828 -1.65574e-05 -4.26848e-07
-1.65574e-05 6.3813e-05 -5.49413e-09
-4.26848e-07 -5.49413e-09 1.47453e-06
0.00117102 -1.99197e-06 -1.04696e-06
-1.99197e-06 1.45684e-05 6.85226e-07
-1.04696e-06 6.85226e-07 -4.73783e-05
0.00127172 -7.19013e-06 3.32787e-07
-7.19013e-06 3.71975e-05 -1.77593e-07
3.32787e-07 -1.77593e-07 -2.4335e-05
0.00118387 -1.1178e-05 2.65526e-07
-1.1178e-05 -8.03843e-06 -5.26174e-07
2.65526e-07 -5.26174e-07 -6.74852e-05
0.000800161 4.03064e-06 -2.83421e-06
4.03064e-06 -0.000116102 -1.02494e-06
-2.83421e-06 -1.02494e-06 -0.000172087
0.0012471 1.2976e-05 -3.32996e-07
1.2976e-05 5.24813e-05 5.20855e-08
-3.32996e-07 5.20855e-08 -1.21764e-05
0.00142125 1.01612e-05 7.89492e-07
1.01612e-05 0.000108138 -3.82505e-07
7.89492e-07 -3.82505e-07 4.06798e-05
0.000857716 -1.37574e-05 -4.78519e-06
-1.37574e-05 -2.46348e-05 -1.59618e-06
-4.78519e-06 -1.59618e-06 -5.07862e-05
0.000808453 4.18204e-06 -4.96994e-07
4.18204e-06 -9.77082e-05 -3.58084e-07
-4.96994e-07 -3.58084e-07 -0.000151492
0.00129933 1.73613e-05 1.00906e-06
1.73613e-05 0.000100063 8.16069e-07
1.00906e-06 8.16069e-07 3.78807e-05
0.00276421 -2.88355e-05 -1.06584e-05
-2.88355e-05 0.000926483 -2.28297e-06
-1.06584e-05 -2.28297e-06 0.00093204
0.000805847 -1.71878e-05 -1.62666e-07
-1.71878e-05 -4.55744e-05 6.81704e-09
-1.62666e-07 6.81704e-09 -6.74187e-05
0.000764343 -2.01358e-07 1.84682e-06
-2.01358e-07 -9.99966e-05 1.12411e-06
1.84682e-06 1.12411e-06 -0.000150884
0.00262062 -2.79433e-05 -9.84677e-08
-2.79433e-05 0.000849228 7.56655e-08
-9.84677e-08 7.56655e-08 0.000857611
0.000757029 -1.70095e-05 4.15879e-06
-1.70095e-05 -6.9363e-05 1.71025e-06
4.15879e-06 1.71025e-06 -8.67712e-05
0.00255974 -2.69073e-05 8.50361e-06
-2.69073e-05 0.000808902 2.4128e-06
8.50361e-06 2.4128e-06 0.000819779
0.00107283 -1.04759e-05 -3.60806e-07
-1.04759e-05 2.42705e-05 3.5202e-07
-3.60806e-07 3.5202e-07 -3.90585e-05
0.00115312 -1.8449e-05 6.03311e-07
-1.8449e-05 5.85135e-05 -8.38589e-07
6.03311e-07 -8.38589e-07 -8.47184e-06
0.00106114 -1.76016e-05 -1.32459e-06
-1.76016e-05 1.08057e-06 -1.41008e-06
-1.32459e-06 -1.41008e-06 -6.2353e-05
0.00113418 3.12669e-06 -1.6851e-07
3.12669e-06 7.29076e-05 1.31246e-07
-1.6851e-07 1.31246e-07 1.40888e-05
0.00115848 5.22391e-06 -1.58915e-07
5.22391e-06 7.55766e-05 -4.90647e-08
-1.58915e-07 -4.90647e-08 1.48491e-05
0.00119416 -4.83612e-07 -2.78276e-07
-4.83612e-07 9.42923e-05 2.23962e-07
-2.78276e-07 2.23962e-07 3.11302e-05
0.00114309 1.88957e-05 1.58017e-07
1.88957e-05 5.13285e-05 3.49159e-07
1.58017e-07 3.49159e-07 -7.68994e-06
0.00117123 1.81034e-05 2.01495e-07
1.81034e-05 7.88099e-05 1.82565e-08
2.01495e-07 1.82565e-08 2.11419e-05
0.000836917 1.43704e-05 -1.90413e-06
1.43704e-05 -5.11263e-05 -4.58532e-07
-1.90413e-06 -4.58532e-07 -0.000105689
0.00127911 1.91231e-05 7.65249e-07
1.91231e-05 0.000103395 8.05379e-07
7.65249e-07 8.05379e-07 4.40457e-05
0.000976435 1.56821e-05 -3.90297e-07
1.56821e-05 -5.8921e-06 6.13839e-09
-3.90297e-07 6.13839e-09 -6.09373e-05
0.0007238 1.55764e-05 -4.79864e-06
1.55764e-05 -4.66194e-05 4.76969e-07
-4.79864e-06 4.76969e-07 -8.47797e-05
0.00099786 8.7898e-06 1.88913e-06
8.7898e-06 -2.21435e-06 2.66202e-08
1.88913e-06 2.66202e-08 -5.65879e-05
0.000736662 1.60689e-05 9.15786e-08
1.60689e-05 -5.47291e-05 1.05912e-07
9.15786e-08 1.05912e-07 -9.03486e-05
0.00304912 3.22367e-05 -1.21279e-05
3.22367e-05 0.00111123 1.20508e-06
-1.21279e-05 1.20508e-06 0.00110739
0.000796147 1.62052e-05 4.61152e-06
1.62052e-05 -3.76214e-05 -9.15922e-07
4.61152e-06 -9.15922e-07 -6.93975e-05
0.00295145 3.18452e-05 1.44933e-07
3.18452e-05 0.001051 1.23673e-07
1.44933e-07 1.23673e-07 0.00104964
0.00111377 2.31979e-05 1.02094e-05
2.31979e-05 0.000144342 -1.5758e-06
1.02094e-05 -1.5758e-06 0.000136202
0.0013171 -1.88947e-05 -6.26245e-07
-1.88947e-05 0.000111908 5.91036e-08
-6.26245e-07 5.91036e-08 4.94284e-05
0.0013435 -2.03276e-05 2.70311e-07
-2.03276e-05 0.000123216 1.32265e-07
2.70311e-07 1.32265e-07 5.58594e-05
0.00117653 -1.46488e-05 -7.03302e-07
-1.46488e-05 3.4961e-05 2.30639e-07
-7.03302e-07 2.30639e-07 -2.48279e-05
0.00124071 -1.47773e-05 1.61135e-07
-1.47773e-05 4.55334e-05 -3.3347e-07
1.61135e-07 -3.3347e-07 -1.45837e-05
0.0011186 -1.57057e-05 -2.67305e-08
-1.57057e-05 -1.04984e-05 8.98411e-07
-2.67305e-08 8.98411e-07 -7.30786e-05
0.0010194 -3.43356e-06 -2.3275e-06
-3.43356e-06 -1.25702e-05 1.05047e-07
-2.3275e-06 1.05047e-07 -6.7103e-05
0.0012139 -1.86116e-06 1.53418e-08
-1.86116e-06 3.37556e-05 2.03167e-07
1.53418e-08 2.03167e-07 -2.83225e-05
0.00120439 -7.47053e-06 1.88974e-07
-7.47053e-06 8.98757e-06 -1.19232e-06
1.88974e-07 -1.19232e-06 -5.24682e-05
0.000826234 -1.09006e-05 -5.02835e-06
-1.09006e-05 -4.03608e-05 -1.31686e-06
-5.02835e-06 -1.31686e-06 -7.02397e-05
0.000935207 5.29096e-06 -6.09028e-07
5.29096e-06 -5.21015e-05 -1.62729e-07
-6.09028e-07 -1.62729e-07 -0.00010763
0.00147609 1.43206e-05 8.57448e-07
1.43206e-05 0.000161695 4.07711e-07
8.57448e-07 4.07711e-07 9.81394e-05
0.00293534 -2.98805e-05 -1.17731e-05
-2.98805e-05 0.00101665 -2.12701e-06
-1.17731e-05 -2.12701e-06 0.00101954
0.000794871 -1.38781e-05 -1.78554e-07
-1.38781e-05 -5.29372e-05 2.79535e-08
-1.78554e-07 2.79535e-08 -7.90103e-05
0.000827841 4.87885e-06 1.61415e-06
4.87885e-06 -8.95534e-05 7.13577e-07
1.61415e-06 7.13577e-07 -0.000143946
0.00278755 -2.91734e-05 -1.24758e-07
-2.91734e-05 0.000937385 1.00506e-07
-1.24758e-07 1.00506e-07 0.000943197
0.000732758 -1.69801e-05 4.31454e-06
-1.69801e-05 -7.91178e-05 1.83475e-06
4.31454e-06 1.83475e-06 -0.000100799
0.00265158 -2.81843e-05 8.91404e-06
-2.81843e-05 0.000863411 2.27999e-06
8.91404e-06 2.27999e-06 0.000872004
0.00120072 -8.33649e-06 -5.40241e-07
-8.33649e-06 9.10822e-05 2.57289e-07
-5.40241e-07 2.57289e-07 3.1279e-05
0.00114067 -1.35924e-05 -3.32641e-08
-1.35924e-05 5.42353e-05 -1.89077e-07
-3.32641e-08 -1.89077e-07 -8.90256e-06
0.00120745 -1.87692e-05 9.39211e-08
-1.87692e-05 8.21015e-05 -1.59454e-06
9.39211e-08 -1.59454e-06 1.55885e-05
0.000858238 8.00299e-07 -1.55443e-06
8.00299e-07 -3.53176e-05 1.40837e-07
-1.55443e-06 1.40837e-07 -9.08256e-05
0.00114236 6.26289e-06 1.60751e-07
6.26289e-06 7.65094e-05 -4.88478e-08
1.60751e-07 -4.88478e-08 1.77956e-05
0.00121596 5.706e-06 3.03722e-08
5.706e-06 0.000100482 4.87354e-08
3.03722e-08 4.87354e-08 3.94792e-05
0.00116181 1.81171e-05 7.24131e-07
1.81171e-05 7.34423e-05 3.81542e-07
7.24131e-07 3.81542e-07 1.58963e-05
0.000862978 1.46074e-05 -3.84553e-07
1.46074e-05 -4.01697e-05 -1.33876e-07
-3.84553e-07 -1.33876e-07 -9.48364e-05
0.000705942 1.36108e-05 -4.70425e-06
1.36108e-05 -3.99632e-05 -1.14741e-08
-4.70425e-06 -1.14741e-08 -7.93505e-05
0.00103826 1.60391e-05 1.50292e-06
1.60391e-05 2.39319e-05 3.98012e-07
1.50292e-06 3.98012e-07 -3.09321e-05
0.000715981 1.60118e-05 4.00712e-08
1.60118e-05 -5.09791e-05 2.28045e-07
4.00712e-08 2.28045e-07 -8.89729e-05
0.0029988 3.08724e-05 -1.28082e-05
3.08724e-05 0.00110398 8.25535e-07
-1.28082e-05 8.25535e-07 0.00109779
0.000756764 1.66804e-05 4.68871e-06
1.66804e-05 -4.68122e-05 -6.15912e-07
4.68871e-06 -6.15912e-07 -8.23063e-05
0.00296694 3.11696e-05 1.85427e-07
3.11696e-05 0.00107515 1.31475e-07
1.85427e-07 1.31475e-07 0.001071
0.00286642 3.08882e-05 1.20944e-05
3.08882e-05 0.00101327 -1.38425e-06
1.20944e-05 -1.38425e-06 0.00101159
0.00120778 -1.76968e-05 -7.58762e-07
-1.76968e-05 7.34995e-05 2.9722e-07
-7.58762e-07 2.9722e-07 1.33722e-05
0.00129129 -1.88361e-05 5.95156e-08
-1.88361e-05 9.90663e-05 2.62787e-07
5.95156e-08 2.62787e-07 3.59615e-05
0.00122207 -1.95254e-05 1.93507e-07
-1.95254e-05 6.51157e-05 9.96821e-07
1.93507e-07 9.96821e-07 -3.40321e-06
0.00101401 -1.30003e-05 -1.98062e-06
-1.30003e-05 -1.37987e-06 5.39143e-08
-1.98062e-06 5.39143e-08 -5.54155e-05
0.0011818 -1.4571e-05 1.92425e-07
-1.4571e-05 3.75359e-05 -1.91451e-07
1.92425e-07 -1.91451e-07 -2.22732e-05
0.00122352 -1.4828e-05 -1.06249e-07
-1.4828e-05 3.8278e-05 -6.63841e-07
-1.06249e-07 -6.63841e-07 -2.16596e-05
0.000771693 -1.44645e-05 -5.12851e-06
-1.44645e-05 -5.95119e-05 -8.00281e-07
-5.12851e-06 -8.00281e-07 -9.21819e-05
0.0010491 -2.50836e-06 2.1142e-08
-2.50836e-06 5.10097e-07 2.40843e-07
2.1142e-08 2.40843e-07 -5.41168e-05
0.00125574 -1.77039e-06 1.09785e-06
-1.77039e-06 5.24681e-05 -2.50392e-07
1.09785e-06 -2.50392e-07 -9.74256e-06
0.00304656 -3.05714e-05 -1.27183e-05
-3.05714e-05 0.00108068 -1.84675e-06
-1.27183e-05 -1.84675e-06 0.00108097
0.000780702 -1.12864e-05 -1.26313e-07
-1.12864e-05 -6.04724e-05 1.0754e-07
-1.26313e-07 1.0754e-07 -9.03591e-05
0.00106741 6.61021e-06 1.81356e-06
6.61021e-06 1.0536e-05 6.49434e-07
1.81356e-06 6.49434e-07 -4.45324e-05
0.0029727 -3.03476e-05 -1.23652e-07
-3.03476e-05 0.00103386 1.1626e-07
-1.23652e-07 1.1626e-07 0.00103701
0.000731863 -1.53046e-05 4.58431e-06
-1.53046e-05 -8.12333e-05 1.78146e-06
4.58431e-06 1.78146e-06 -0.000107261
0.0028111 -2.94958e-05 9.61883e-06
-2.94958e-05 0.000948354 2.20097e-06
9.61883e-06 2.20097e-06 0.000954426
0.00100311 -1.0243e-05 -1.49754e-06
-1.0243e-05 2.80221e-05 9.5886e-09
-1.49754e-06 9.5886e-09 -2.685e-05
0.00112017 -1.0635e-05 6.00661e-08
-1.0635e-05 5.34515e-05 1.34631e-07
6.00661e-08 1.34631e-07 -6.58142e-06
0.00120561 -1.69271e-05 9.3808e-07
-1.69271e-05 8.27794e-05 -8.70294e-07
9.3808e-07 -8.70294e-07 1.98287e-05
0.000691296 4.60075e-06 -4.54551e-06
4.60075e-06 -4.0599e-05 1.92867e-07
-4.54551e-06 1.92867e-07 -8.07054e-05
0.000857558 3.56423e-06 -2.26182e-07
3.56423e-06 -3.5154e-05 4.95934e-08
-2.26182e-07 4.95934e-08 -9.05623e-05
0.00114956 9.05291e-06 4.17091e-07
9.05291e-06 7.96296e-05 9.8141e-08
4.17091e-07 9.8141e-08 2.10195e-05
0.000888013 1.48315e-05 1.25007e-06
1.48315e-05 -2.96778e-05 1.66729e-07
1.25007e-06 1.66729e-07 -8.44491e-05
0.000696767 1.41394e-05 -4.72603e-08
1.41394e-05 -4.47857e-05 -8.69875e-08
-4.72603e-08 -8.69875e-08 -8.4065e-05
0.00284466 2.83071e-05 -1.27687e-05
2.83071e-05 0.00104712 3.88661e-07
-1.27687e-05 3.88661e-07 0.00103937
0.000710564 1.67131e-05 4.80062e-06
1.67131e-05 -5.42629e-05 -9.19898e-10
4.80062e-06 -9.19898e-10 -9.2095e-05
0.00289634 2.95493e-05 2.90445e-07
2.95493e-05 0.00105907 1.60307e-07
2.90445e-07 1.60307e-07 0.0010527
0.00288173 3.00265e-05 1.28947e-05
3.00265e-05 0.00103769 -1.02335e-06
1.28947e-05 -1.02335e-06 0.00103323
0.0010046 -1.5486e-05 -1.78663e-06
-1.5486e-05 1.46429e-05 1.11258e-07
-1.78663e-06 1.11258e-07 -3.98079e-05
0.00116208 -1.73777e-05 -1.21224e-09
-1.73777e-05 5.26715e-05 8.24134e-08
-1.21224e-09 8.24134e-08 -7.54889e-06
0.00126748 -1.8797e-05 3.89253e-07
-1.8797e-05 8.72651e-05 1.35483e-07
3.89253e-07 1.35483e-07 2.35226e-05
0.00159646 -2.16776e-05 -7.40614e-06
-2.16776e-05 0.000358484 -5.50689e-07
-7.40614e-06 -5.50689e-07 0.000329437
0.00103161 -1.25226e-05 1.53336e-07
-1.25226e-05 6.36215e-06 -5.05327e-08
1.53336e-07 -5.05327e-08 -4.77522e-05
0.00118708 -1.44823e-05 8.24997e-07
-1.44823e-05 4.01077e-05 -6.577e-07
8.24997e-07 -6.577e-07 -1.972e-05
0.00301747 -3.05783e-05 -1.30839e-05
-3.05783e-05 0.00108286 -1.42626e-06
-1.30839e-05 -1.42626e-06 0.00108078
0.000759238 -1.34402e-05 -6.11124e-08
-1.34402e-05 -6.4484e-05 1.84383e-07
-6.11124e-08 1.84383e-07 -9.72669e-05
0.00107835 -1.53261e-06 2.42845e-06
-1.53261e-06 1.33787e-05 4.02836e-07
2.42845e-06 4.02836e-07 -4.13429e-05
0.00310636 -3.11861e-05 -1.40028e-07
-3.11861e-05 0.00110765 1.36504e-07
-1.40028e-07 1.36504e-07 0.00110819
0.000737026 -1.15187e-05 4.91107e-06
-1.15187e-05 -7.97244e-05 1.62773e-06
4.91107e-06 1.62773e-06 -0.000109613
0.00300492 -3.07633e-05 1.06933e-05
-3.07633e-05 0.00104868 2.10482e-06
1.06933e-05 2.10482e-06 0.0010521
0.000663041 -8.32668e-06 -6.66341e-06
-8.32668e-06 -5.87884e-05 -5.06174e-07
-6.66341e-06 -5.06174e-07 -9.83696e-05
0.000952245 -9.92374e-06 1.18429e-07
-9.92374e-06 2.92163e-06 -3.46064e-09
1.18429e-07 -3.46064e-09 -5.23159e-05
0.00104182 -1.30305e-05 7.02645e-07
-1.30305e-05 1.68497e-05 -2.44694e-07
7.02645e-07 -2.44694e-07 -4.34093e-05
0.00274676 -9.04918e-07 -1.17214e-05
-9.04918e-07 0.00100915 7.9456e-08
-1.17214e-05 7.9456e-08 0.00100063
0.000693254 3.27554e-06 5.87545e-08
3.27554e-06 -3.98996e-05 2.01512e-07
5.87545e-08 2.01512e-07 -8.0028e-05
0.000859562 6.35749e-06 1.07385e-06
6.35749e-06 -3.37997e-05 1.4384e-07
1.07385e-06 1.4384e-07 -8.91026e-05
0.000687953 1.46771e-05 4.51684e-06
1.46771e-05 -4.94629e-05 -1.68891e-07
4.51684e-06 -1.68891e-07 -8.86317e-05
0.00278752 2.74581e-05 5.0575e-07
2.74581e-05 0.0010223 9.51919e-08
5.0575e-07 9.51919e-08 0.00101444
0.00279638 2.8444e-05 1.29207e-05
2.8444e-05 0.00101535 -5.34859e-07
1.29207e-05 -5.34859e-07 0.00100879
0.00147248 -1.9813e-05 -9.33377e-06
-1.9813e-05 0.00032028 -7.36539e-07
-9.33377e-06 -7.36539e-07 0.00028896
0.00101504 -1.55752e-05 4.88483e-08
-1.55752e-05 1.92028e-05 7.32813e-08
4.88483e-08 7.32813e-08 -3.52968e-05
0.00111558 -1.7051e-05 5.10392e-07
-1.7051e-05 3.1503e-05 -9.75227e-08
5.10392e-07 -9.75227e-08 -2.88142e-05
0.00296933 -3.24724e-05 -5.54665e-06
-3.24724e-05 0.00107695 -4.37354e-07
-5.54665e-06 -4.37354e-07 0.00107275
0.000773827 -1.7003e-05 1.72809e-09
-1.7003e-05 -4.20603e-05 7.9348e-08
1.72809e-09 7.9348e-08 -7.71309e-05
0.0010497 -1.21524e-05 2.20805e-06
-1.21524e-05 1.43326e-05 -1.53669e-07
2.20805e-06 -1.53669e-07 -3.98597e-05
0.00312366 -3.13572e-05 -1.72789e-07
-3.13572e-05 0.00113024 1.51612e-07
-1.72789e-07 1.51612e-07 0.00112836
0.000747798 -1.23102e-05 5.20334e-06
-1.23102e-05 -6.89918e-05 1.23716e-06
5.20334e-06 1.23716e-06 -0.000101887
0.00316884 -3.18143e-05 1.18102e-05
-3.18143e-05 0.00113587 1.93281e-06
1.18102e-05 1.93281e-06 0.00113667
0.00110984 -1.56309e-05 -1.02327e-05
-1.56309e-05 0.00021199 -2.77362e-07
-1.02327e-05 -2.77362e-07 0.00019124
0.00112344 -1.29144e-05 -2.23456e-06
-1.29144e-05 0.000163118 -2.93244e-09
-2.23456e-06 -2.93244e-09 0.000126719
0.00089901 -9.30587e-06 1.6236e-06
-9.30587e-06 -2.32951e-05 -3.49008e-08
1.6236e-06 -3.49008e-08 -7.88922e-05
0.00275372 3.24851e-07 7.48884e-08
3.24851e-07 0.00101236 1.1849e-07
7.48884e-08 1.1849e-07 0.00100379
0.000693138 1.90923e-06 4.5592e-06
1.90923e-06 -4.01399e-05 2.00311e-07
4.5592e-06 2.00311e-07 -8.0288e-05
0.00272844 2.76241e-05 1.10013e-05
2.76241e-05 0.00099678 -2.3675e-07
1.10013e-05 -2.3675e-07 0.000988742
0.00108268 -2.03301e-05 -4.1074e-06
-2.03301e-05 0.000182405 -2.8232e-07
-4.1074e-06 -2.8232e-07 0.000164003
0.00118834 -1.85891e-05 -2.2694e-06
-1.85891e-05 0.000179699 -3.74507e-08
-2.2694e-06 -3.74507e-08 0.000145196
0.00102616 -1.56697e-05 1.78331e-06
-1.56697e-05 2.40824e-05 3.51167e-08
1.78331e-06 3.51167e-08 -3.04664e-05
0.00213958 -2.66254e-05 4.33469e-06
-2.66254e-05 0.00067293 4.43502e-07
4.33469e-06 4.43502e-07 0.000662772
0.00074256 -1.54574e-05 5.16963e-06
-1.54574e-05 -5.50473e-05 7.55399e-07
5.16963e-06 7.55399e-07 -9.03556e-05
0.00323216 -3.22539e-05 1.28297e-05
-3.22539e-05 0.00117869 1.64251e-06
1.28297e-05 1.64251e-06 0.001177
0.00273565 -2.62672e-05 -3.99286e-07
-2.62672e-05 0.00100033 1.32267e-07
-3.99286e-07 1.32267e-07 0.000992235
0.000711404 -1.20229e-05 4.79491e-06
-1.20229e-05 -3.59999e-05 4.15727e-07
4.79491e-06 4.15727e-07 -7.56598e-05
0.00276092 1.45429e-06 1.20538e-05
1.45429e-06 0.00101532 7.79224e-08
1.20538e-05 7.79224e-08 0.00100677
0.00197411 -2.40894e-05 4.34017e-06
-2.40894e-05 0.000617396 3.00801e-07
4.34017e-06 3.00801e-07 0.000604625
0.000726624 -1.55501e-05 4.91959e-06
-1.55501e-05 -4.24639e-05 6.1325e-07
4.91959e-06 6.1325e-07 -8.01727e-05
0.00314579 -3.16877e-05 1.33229e-05
-3.16877e-05 0.00115576 1.24908e-06
1.33229e-05 1.24908e-06 0.00115176
0.00282679 -2.77171e-05 1.27909e-05
-2.77171e-05 0.00104005 4.76004e-07
1.27909e-05 4.76004e-07 0.00103222
0.00297353 -3.0126e-05 1.31557e-05
-3.0126e-05 0.00109406 8.66121e-07
1.31557e-05 8.66121e-07 0.00108792
