# vtk DataFile Version 2.0
Wound Healing Simulation
ASCII
DATASET UNSTRUCTURED_GRID
POINTS 3012 float
69.9759 18.75 4
67.2507 60.3285 4
69.976 18.75 2
73.0099 25.446 4
71.1327 20.9142 4
68.6801 16.6661 4
67.8252 19.9261 3.98199
67.2507 60.3286 2
71.1327 54.0858 4
68.6801 58.3339 4
65.6939 62.2254 4
65.3117 59.0008 3.98084
74.6784 42.3946 4
73.7221 47.2057 4
69.9759 18.75 0
73.0099 25.446 2
68.6801 16.6661 2
71.1327 20.9142 2
67.8258 19.9292 2
74.6792 32.6053 4
73.7222 27.7943 4
72.1454 23.1494 4
70.6139 26.2209 3.98139
68.8854 21.958 3.98233
67.2507 14.6715 4
66.6366 17.9722 3.98099
65.7956 21.0261 3.97197
67.2507 60.3285 0
71.1327 54.0858 2
68.6801 58.3339 2
65.694 62.2255 2
65.3128 58.9973 2
72.1454 51.8506 4
69.9759 56.25 4
68.8361 53.1129 3.98133
64.0165 64.0165 4
66.6104 57.1335 3.98146
63.8851 60.7656 3.98219
63.4985 57.769 3.97233
60.3285 67.2507 4
74.6792 42.3947 2
73.7222 47.2057 2
74.9194 39.9526 4
74.2788 44.8158 4
72.168 42.0854 3.98062
73.0099 49.554 4
71.249 46.5979 3.98048
73.0099 25.446 0
71.1327 20.9142 0
68.6801 16.6661 0
67.8252 19.9261 0.0180108
74.6792 32.6053 2
73.7222 27.7943 2
67.2508 14.6715 2
72.1455 23.1494 2
70.6138 26.2213 2
66.6375 17.976 2
68.8857 21.96 2
65.7951 21.0268 2
74.9197 35.0474 4
74.2794 30.1841 4
72.1846 32.9432 3.98102
71.2779 28.4313 3.98084
69.8153 24.0595 3.98206
68.3455 26.9518 3.97061
66.7611 22.9338 3.97135
65.694 12.7746 4
65.3229 16.1041 3.98065
64.7119 19.1967 3.97274
63.883 22.0386 3.96797
71.1327 54.0858 0
65.6939 62.2254 0
68.6801 58.3339 0
65.3117 59.0008 0.019162
72.1455 51.8506 2
69.9759 56.25 2
68.8363 53.111 2
64.0165 64.0165 2
66.6112 57.13 2
63.8868 60.7625 2
63.498 57.7689 2
62.2254 65.694 4
58.8944 65.4141 3.99051
69.7686 50.9888 3.98116
67.7834 55.1671 3.98139
66.6479 52.2082 3.97031
62.3358 62.4274 3.98588
64.6592 56.03 3.97246
62.2006 59.4005 3.97219
61.8181 56.6751 3.96881
58.3339 68.6801 4
60.3285 67.2508 2
73.7221 47.2057 0
74.6784 42.3946 0
74.9197 39.9526 2
74.2794 44.8159 2
72.1676 42.0855 2
73.0099 49.554 2
71.2489 46.5978 2
75 37.5 4
72.4053 39.8021 3.98113
71.7823 44.3527 3.9807
69.8028 41.7891 3.97022
70.5748 48.8134 3.98077
68.9109 46.014 3.9699
74.6792 32.6053 0
73.7222 27.7943 0
67.2507 14.6715 0
72.1454 23.1494 0
70.6139 26.2209 0.0186085
68.8854 21.958 0.0176706
66.6366 17.9722 0.0190134
65.7956 21.0261 0.0280284
74.9197 35.0474 2
74.2794 30.1841 2
72.1842 32.9435 2
71.2779 28.4317 2
65.694 12.7745 2
65.3243 16.1079 2
69.8154 24.0606 2
68.3454 26.9523 2
64.7113 19.1973 2
66.7607 22.9345 2
63.8824 22.0389 2
72.4131 35.224 3.9812
71.8037 30.6762 3.98109
69.8388 33.2684 3.97065
68.9647 29.0384 3.97045
67.6099 24.9125 3.97084
66.1911 27.6361 3.96769
64.0165 10.9835 4
64.7529 23.8324 3.96798
63.8896 14.3277 3.98337
63.5107 17.4508 3.97224
62.9022 20.3251 3.96781
62.0762 22.9516 3.9671
60.6837 11.0982 3.987
57.6116 11.451 3.97864
72.1454 51.8506 0
69.9759 56.25 0
68.8361 53.1129 0.0186665
64.0165 64.0165 0
63.8851 60.7656 0.0178095
66.6104 57.1335 0.0185357
63.4985 57.769 0.0276701
62.2255 65.694 2
58.8956 65.4135 2
69.7686 50.9879 2
67.7838 55.1642 2
66.6474 52.2075 2
62.3376 62.4252 2
64.6587 56.0297 2
62.2001 59.401 2
61.8176 56.6753 2
60.6685 63.9768 3.98819
57.0255 66.7347 3.99152
57.5575 63.69 3.98139
67.506 50.1758 3.96987
65.7003 54.1721 3.97109
64.5338 51.3821 3.96685
60.772 60.935 3.97676
62.8156 55.0634 3.9677
60.6529 58.1501 3.96624
60.3202 55.7747 3.96812
56.25 69.9759 4
58.3339 68.6801 2
60.3285 67.2507 0
58.921 9.65647 3.98822
62.2254 9.30607 4
73.0099 49.554 0
74.2788 44.8158 0
71.249 46.5979 0.0195213
72.168 42.0854 0.0193808
74.9194 39.9526 0
75 37.5 2
72.4052 39.8023 2
71.7822 44.3525 2
69.8024 41.7888 2
70.5748 48.8132 2
68.9108 46.0135 2
72.4887 37.5119 3.98094
70.0401 39.6569 3.97036
69.4291 43.9068 3.97012
67.5934 41.4962 3.96809
68.2645 48.1063 3.96978
66.7043 45.4376 3.96743
74.9197 35.0474 0
74.2794 30.1841 0
72.1846 32.9432 0.0189782
71.2779 28.4313 0.0191551
65.694 12.7746 0
65.3229 16.1041 0.0193539
69.8153 24.0595 0.0179408
68.3455 26.9518 0.0293876
66.7611 22.9338 0.02865
64.7119 19.1967 0.0272604
63.883 22.0386 0.032031
72.4131 35.2242 2
71.8037 30.6766 2
69.8384 33.2687 2
68.9648 29.0388 2
64.0165 10.9835 2
63.8915 14.3308 2
63.5102 17.4513 2
67.6097 24.9131 2
66.191 27.6364 2
62.9015 20.3253 2
64.7525 23.8327 2
62.0754 22.9519 2
60.6856 11.1003 2
57.6123 11.4499 2
70.0569 35.3918 3.97059
69.4659 31.1496 3.97046
67.6527 33.5913 3.96817
66.7686 29.6239 3.9677
65.5205 25.7011 3.96781
64.1132 28.2629 3.96938
62.3414 12.6554 3.98573
62.8354 24.6453 3.96796
62.1971 15.7892 3.97423
61.8065 18.6925 3.96686
61.2036 21.3512 3.96563
60.3822 23.7436 3.96855
59.2455 12.7828 3.97728
55.874 10.2362 3.98148
56.4038 13.1228 3.97499
69.7686 50.9888 0.0188363
62.2254 65.694 0
58.8944 65.4141 0.00948623
67.7834 55.1671 0.0186115
66.6479 52.2082 0.0296858
62.3358 62.4274 0.0141208
62.2006 59.4005 0.027812
64.6592 56.03 0.0275447
61.8181 56.6751 0.0311902
60.67 63.9755 2
57.0263 66.7345 2
57.5576 63.6915 2
67.5057 50.1752 2
65.6997 54.1715 2
64.5333 51.3819 2
60.7719 60.9362 2
62.8151 55.0634 2
60.6524 58.1505 2
60.3198 55.7746 2
55.0713 67.9316 3.99202
59.2184 62.3634 3.97807
55.8045 64.909 3.98497
56.3253 62.0848 3.97631
65.3275 49.4055 3.96683
63.7017 53.2886 3.96704
62.413 50.641 3.96696
59.3301 59.5506 3.97095
61.0687 54.2994 3.96685
59.2785 56.9959 3.96363
59.2311 55.1683 3.96616
48.1024 68.5778 3.98763
50.949 69.9313 3.99222
54.0858 71.1327 4
56.25 69.976 2
58.3339 68.6801 0
57.0584 8.33627 3.98948
60.3285 7.74928 4
58.9228 9.65772 2
62.2255 9.30602 2
70.5748 48.8134 0.0192335
71.7823 44.3527 0.0193037
68.9109 46.014 0.0300969
69.8028 41.7891 0.0297813
72.4053 39.8021 0.0188693
75 37.5 0
72.4883 37.5121 2
70.0401 39.6568 2
69.429 43.9065 2
67.5932 41.4961 2
68.2644 48.1057 2
66.704 45.4374 2
70.1283 37.5213 3.97069
67.832 39.5115 3.96828
67.218 43.4681 3.96772
65.5109 41.2048 3.97112
66.0637 47.4155 3.96716
64.6074 44.8398 3.96963
72.4131 35.224 0.0187983
71.8037 30.6762 0.0189087
69.8388 33.2684 0.0293478
68.9647 29.0384 0.0295454
64.0165 10.9835 0
63.8896 14.3277 0.0166328
63.5107 17.4508 0.027761
67.6099 24.9125 0.0291562
66.1911 27.6361 0.0323138
64.7529 23.8324 0.0320187
62.9022 20.3251 0.0321887
62.0762 22.9516 0.0329
60.6837 11.0982 0.0130007
57.6116 11.451 0.0213648
70.0568 35.392 2
69.4658 31.1499 2
67.6524 33.5915 2
66.7687 29.6242 2
62.3433 12.6582 2
62.1969 15.7888 2
61.8059 18.6925 2
65.5202 25.7014 2
64.1124 28.2631 2
61.203 21.3513 2
62.8349 24.6456 2
60.3821 23.7441 2
59.246 12.7824 2
56.4044 13.1214 2
55.8746 10.235 2
67.8681 35.5475 3.96833
67.2621 31.6232 3.96794
65.6633 33.9298 3.97114
64.6259 30.1983 3.96988
63.5115 26.422 3.96882
62.1863 28.7914 3.97297
60.7745 14.2271 3.97708
60.9934 25.3534 3.97031
60.6065 17.1375 3.96907
60.2067 19.8283 3.96462
59.6172 22.2763 3.96597
58.9105 24.3432 3.97093
54.0374 9.13797 3.9831
57.9083 14.3406 3.97593
54.7859 12.019 3.97613
55.3094 14.6609 3.97389
67.506 50.1758 0.0301302
57.0255 66.7347 0.00847708
60.6685 63.9768 0.0118101
57.5575 63.69 0.0186108
65.7003 54.1721 0.0289065
64.5338 51.3821 0.0331537
60.772 60.935 0.0232364
60.6529 58.1501 0.0337591
62.8156 55.0634 0.0322996
60.3202 55.7747 0.0318797
55.0719 67.9316 2
59.2185 62.3648 2
55.8045 64.91 2
56.3251 62.0864 2
65.3272 49.4052 2
63.701 53.2885 2
62.4132 50.6408 2
59.3297 59.5522 2
61.0684 54.2992 2
59.2782 56.9956 2
59.231 55.168 2
53.0432 68.9994 3.99212
53.967 66.0122 3.98651
57.8783 60.8641 3.97552
54.6834 63.2043 3.98051
55.2088 60.6052 3.97561
63.1572 48.6501 3.96792
61.7235 52.5648 3.96667
60.2069 49.9984 3.96881
58.0102 58.2502 3.96804
59.31 53.9313 3.96734
58.1048 55.7929 3.9646
50.1091 67.856 3.98742
47.4631 66.5788 3.98437
46.056 69.1569 3.98776
48.1024 68.5784 2
48.8031 70.7225 3.99233
50.9494 69.9313 2
51.8506 72.1454 4
54.0858 71.1327 2
56.25 69.9759 0
55.1032 7.14067 3.99075
58.3339 6.31992 4
57.0599 8.33687 2
60.3286 7.74926 2
58.921 9.65647 0.0117838
62.2254 9.30607 0
68.2645 48.1063 0.0302223
69.4291 43.9068 0.0298769
66.7043 45.4376 0.0325734
67.5934 41.4962 0.0319058
70.0401 39.6569 0.0296359
72.4887 37.5119 0.0190585
70.128 37.5213 2
67.8319 39.5114 2
67.2183 43.4679 2
65.51 41.2046 2
66.0637 47.4152 2
64.6064 44.8395 2
67.9286 37.5216 3.96848
65.7466 39.3673 3.97144
65.1318 43.0185 3.97044
63.6627 40.9211 3.97481
63.9212 46.7065 3.96878
62.718 44.2017 3.9735
70.0569 35.3918 0.0294112
69.4659 31.1496 0.0295364
67.6527 33.5913 0.031834
66.7686 29.6239 0.0322961
62.3414 12.6554 0.0142688
62.1971 15.7892 0.0257744
61.8065 18.6925 0.0331394
65.5205 25.7011 0.0321906
64.1132 28.2629 0.0306243
62.8354 24.6453 0.0320381
61.2036 21.3512 0.0343684
60.3822 23.7436 0.0314494
59.2455 12.7828 0.0227225
56.4038 13.1228 0.0250143
55.874 10.2362 0.018522
67.8681 35.5476 2
67.2621 31.6233 2
65.6627 33.9299 2
64.6254 30.1985 2
60.7744 14.2272 2
60.6063 17.1366 2
60.2063 19.8284 2
63.511 26.4223 2
62.1851 28.7918 2
59.6193 22.2767 2
60.9931 25.3539 2
58.9095 24.344 2
57.9081 14.3398 2
55.3095 14.6606 2
54.0378 9.13675 2
54.7863 12.0171 2
65.837 35.6676 3.97118
65.1456 32.1589 3.97049
64.2139 34.2534 3.97511
62.5016 30.6481 3.97369
61.5864 27.0875 3.97138
60.7474 29.1582 3.97662
59.3076 15.6767 3.97375
59.2432 25.8199 3.97402
59.1102 18.3709 3.96658
58.711 20.8724 3.96354
58.2166 23.1174 3.96634
57.882 24.6927 3.9728
52.1122 8.15522 3.98491
53.0577 11.0228 3.9788
56.6721 15.7554 3.97525
53.8073 13.6935 3.97557
54.37 16.0167 3.9754
55.0713 67.9316 0.00797648
65.3275 49.4055 0.0331688
55.8045 64.909 0.0150332
59.2184 62.3634 0.0219306
56.3253 62.0848 0.0236856
63.7017 53.2886 0.0329574
62.413 50.641 0.0330373
59.3301 59.5506 0.0290476
59.2785 56.9959 0.0363717
61.0687 54.2994 0.0331528
59.2311 55.1683 0.0338394
53.0437 68.9995 2
53.9669 66.0129 2
57.8778 60.8656 2
54.6831 63.2053 2
55.2087 60.6068 2
63.1569 48.6498 2
61.7245 52.5649 2
60.2064 49.9979 2
58.0097 58.2517 2
59.3113 53.9311 2
58.1039 55.7923 2
52.0703 66.9989 3.98714
52.9534 64.2164 3.98293
56.6436 59.4793 3.9743
53.6796 61.6168 3.97751
54.2545 59.3069 3.9745
60.9045 47.8597 3.96947
59.6594 52.0851 3.96785
57.923 49.5873 3.97031
56.762 56.967 3.96736
57.0841 54.0995 3.96553
50.1091 67.8564 2
49.337 65.9193 3.98423
47.463 66.5794 2
46.8924 64.7325 3.98267
45.5581 67.0957 3.98449
43.973 69.5891 3.98789
46.056 69.1575 2
46.6097 71.367 3.99233
48.1024 68.5778 0.0123727
48.8035 70.7227 2
49.554 73.0099 4
50.949 69.9313 0.00777909
51.8506 72.1455 2
54.0858 71.1327 0
53.0646 6.07207 3.99145
55.1043 7.14076 2
56.25 5.02411 4
58.3339 6.3199 2
57.0584 8.33627 0.0105161
60.3285 7.74928 0
66.0637 47.4155 0.0328421
67.218 43.4681 0.0322796
64.6074 44.8398 0.0303657
65.5109 41.2048 0.0288809
67.832 39.5115 0.0317219
70.1283 37.5213 0.0293066
67.9283 37.5216 2
65.7457 39.3672 2
65.1312 43.0182 2
63.6613 40.9209 2
63.9203 46.7062 2
62.7163 44.2012 2
65.8504 37.5007 3.97118
63.8075 39.2614 3.9745
63.2299 42.5381 3.97402
62.3007 40.6863 3.97708
61.8785 45.9014 3.97146
61.3238 43.6645 3.97714
67.8681 35.5475 0.0316707
67.2621 31.6232 0.0320585
65.6633 33.9298 0.028859
64.6259 30.1983 0.0301208
60.7745 14.2271 0.0229188
60.6065 17.1375 0.0309296
60.2067 19.8283 0.0353822
63.5115 26.422 0.0311817
62.1863 28.7914 0.0270282
60.9934 25.3534 0.0296898
59.6172 22.2763 0.0340329
58.9105 24.3432 0.0290695
57.9083 14.3406 0.0240731
55.3094 14.6609 0.0261088
54.0374 9.13797 0.0168982
54.7859 12.019 0.0238736
65.8361 35.6677 2
65.1454 32.1591 2
64.2133 34.2535 2
62.5004 30.6485 2
59.3069 15.6766 2
59.1105 18.3701 2
58.7129 20.8728 2
61.5856 27.088 2
60.7466 29.1587 2
58.216 23.1183 2
59.2425 25.8207 2
57.8814 24.6938 2
56.6717 15.7545 2
54.3697 16.0169 2
53.8074 13.6906 2
52.1124 8.15427 2
53.0579 11.0213 2
64.0091 35.6335 3.97429
62.8303 33.0545 3.97477
60.4884 30.6294 3.97675
59.4611 27.9331 3.97501
57.9317 16.9963 3.97129
57.638 25.7559 3.97543
57.6913 19.4965 3.9628
57.3117 21.8676 3.96283
57.0898 23.9792 3.96798
50.1125 7.28596 3.98687
51.2326 10.1288 3.98085
52.1706 12.8058 3.97711
55.5286 16.989 3.97437
52.9737 15.2831 3.97321
53.7487 17.0015 3.97882
53.0432 68.9994 0.00788459
53.967 66.0122 0.013494
63.1572 48.6501 0.0320792
54.6834 63.2043 0.0194857
57.8783 60.8641 0.0244768
55.2088 60.6052 0.0243949
61.7235 52.5648 0.0333345
60.2069 49.9984 0.0311917
58.0102 58.2502 0.0319647
58.1048 55.7929 0.0354019
59.31 53.9313 0.0326561
52.0703 66.9995 2
52.9531 64.2172 2
56.6433 59.4802 2
53.6793 61.6176 2
54.2544 59.3086 2
60.9034 47.8591 2
59.6598 52.0847 2
57.9199 49.5863 2
56.7609 56.9713 2
57.0827 54.0988 2
51.1681 65.1262 3.98426
52.0456 62.5346 3.97995
55.4717 58.2369 3.97483
52.8302 60.1242 3.97727
53.6303 58.457 3.97919
58.1679 46.8172 3.97387
57.4924 51.7599 3.96728
56.1166 49.5189 3.97068
55.4452 55.767 3.96256
55.3012 53.3539 3.96338
50.1091 67.856 0.0125778
49.3369 65.9197 2
48.6182 64.1193 3.98298
47.4631 66.5788 0.0156304
45.5581 67.0964 2
46.8924 64.733 2
46.3822 63.0481 3.98218
45.1327 65.1934 3.98271
43.6313 67.4663 3.98457
41.8603 69.8764 3.98775
43.973 69.5896 2
44.377 71.8618 3.99227
46.056 69.1569 0.0122366
46.61 71.3672 2
47.2057 73.7222 4
48.8031 70.7225 0.0076722
49.554 73.0099 2
51.8506 72.1454 0
50.9547 5.13231 3.99209
53.0654 6.07203 2
54.0858 3.86728 4
55.1032 7.14067 0.00925193
56.25 5.02406 2
58.3339 6.31992 0
63.9212 46.7065 0.0312181
65.1318 43.0185 0.0295579
62.718 44.2017 0.0265014
63.6627 40.9211 0.0251866
65.7466 39.3673 0.0285633
67.9286 37.5216 0.0315165
65.8495 37.5007 2
63.8062 39.2613 2
63.2284 42.5377 2
62.2989 40.6858 2
61.877 45.9008 2
61.3221 43.6639 2
63.8691 37.455 3.97382
62.0212 39.3482 3.97702
61.0693 41.9409 3.97684
60.1195 44.7466 3.9759
65.837 35.6676 0.0288176
65.1456 32.1589 0.0295101
64.2139 34.2534 0.0248853
62.5016 30.6481 0.0263143
59.3076 15.6767 0.0262483
59.1102 18.3709 0.0334246
58.711 20.8724 0.0364574
61.5864 27.0875 0.0286163
60.7474 29.1582 0.0233845
59.2432 25.8199 0.025983
58.2166 23.1174 0.0336559
57.882 24.6927 0.027195
56.6721 15.7554 0.0247469
54.37 16.0167 0.0246008
53.8073 13.6935 0.0244306
52.1122 8.15522 0.0150949
53.0577 11.0228 0.0212006
64.008 35.6335 2
62.8291 33.0548 2
60.4871 30.6299 2
57.9309 16.9961 2
57.6924 19.4951 2
57.3133 21.8681 2
59.4601 27.9338 2
57.0887 23.9805 2
57.6375 25.7569 2
50.1127 7.28474 2
55.5282 16.9884 2
53.7482 17.0012 2
52.9737 15.2825 2
52.171 12.8047 2
51.2328 10.1277 2
62.0591 35.3645 3.97642
60.1302 32.761 3.97673
58.4655 30.1032 3.977
57.1535 27.4154 3.97641
56.6214 18.1743 3.97028
56.1776 25.1399 3.97288
56.3192 20.5474 3.9613
56.0197 22.9049 3.96316
48.0567 6.528 3.98845
49.3249 9.33436 3.98243
50.4325 12.0011 3.97839
51.374 14.5103 3.97397
54.4002 17.941 3.97542
52.352 17.0629 3.97114
52.0703 66.9989 0.0128579
52.9534 64.2164 0.0170708
60.9045 47.8597 0.0305343
53.6796 61.6168 0.0224907
56.6436 59.4793 0.025701
54.2545 59.3069 0.0254987
59.6594 52.0851 0.032147
57.923 49.5873 0.0296863
56.762 56.967 0.0326367
57.0841 54.0995 0.0344675
51.1679 65.1267 2
52.0453 62.5352 2
55.4713 58.2381 2
52.8303 60.1273 2
53.63 58.4581 2
58.1664 46.8163 2
57.4911 51.7592 2
56.1131 49.5178 2
55.4451 55.7673 2
55.3033 53.3543 2
50.3463 63.3781 3.98261
51.242 60.9284 3.97716
54.2028 57.2532 3.97489
52.3041 58.6167 3.97544
56.5007 44.1414 3.97773
55.3224 47.8541 3.9723
54.9766 51.3561 3.9663
53.9605 54.514 3.9644
49.337 65.9193 0.015771
48.6182 64.1198 2
47.9621 62.4696 3.98168
45.5581 67.0957 0.015509
46.8924 64.7325 0.0173278
43.6313 67.4669 2
46.3823 63.0485 2
45.1327 65.194 2
45.9876 61.5791 3.98279
44.7675 63.4481 3.98132
43.3568 65.5025 3.98248
41.6635 67.685 3.98442
39.7022 70.0233 3.98796
41.8603 69.8769 2
42.1112 72.2067 3.99224
43.973 69.5891 0.0121115
44.3772 71.8621 2
44.8159 74.2794 4
46.6097 71.367 0.00767372
47.2057 73.7222 2
49.554 73.0099 0
48.7853 4.32294 3.99262
50.9552 5.1319 2
51.8506 2.85458 4
53.0646 6.07207 0.00854666
54.0858 3.86728 2
56.25 5.02411 0
61.8785 45.9014 0.0285428
63.2299 42.5381 0.0259836
61.3238 43.6645 0.0228634
62.3007 40.6863 0.0229245
63.8075 39.2614 0.0254954
65.8504 37.5007 0.0288184
63.8678 37.4549 2
62.0193 39.3483 2
61.0676 41.9403 2
60.1181 44.7459 2
61.861 37.4439 3.97754
60.0635 39.8301 3.97733
58.7969 42.8879 3.97739
64.0091 35.6335 0.0257072
62.8303 33.0545 0.025228
60.4884 30.6294 0.0232517
57.9317 16.9963 0.0287128
57.6913 19.4965 0.0372024
57.3117 21.8676 0.0371689
59.4611 27.9331 0.0249938
57.638 25.7559 0.0245679
57.0898 23.9792 0.0320203
55.5286 16.989 0.0256312
53.7487 17.0015 0.0211765
52.9737 15.2831 0.0267889
50.1125 7.28596 0.0131341
52.1706 12.8058 0.022891
51.2326 10.1288 0.0191471
62.0577 35.3648 2
60.1279 32.7614 2
58.4647 30.104 2
56.6205 18.174 2
56.3214 20.5445 2
56.0213 22.906 2
57.1542 27.4163 2
56.1783 25.1411 2
48.0567 6.52687 2
49.3251 9.33295 2
54.4 17.9408 2
52.3514 17.0628 2
51.3737 14.508 2
50.4329 12 2
59.7092 35.131 3.97724
57.7793 32.3002 3.97709
56.3708 29.3789 3.9774
55.2792 26.6467 3.97676
55.3171 19.2107 3.9686
54.8152 24.1022 3.96405
54.9415 21.596 3.95938
45.9628 5.88271 3.98901
43.3743 7.47386 3.98601
47.3556 8.6258 3.98437
48.5999 11.2993 3.97969
49.7108 13.7528 3.97785
50.627 16.1544 3.97707
53.1051 18.6872 3.97085
51.2864 18.0798 3.97938
51.1681 65.1262 0.0157378
52.0456 62.5346 0.0200531
58.1679 46.8172 0.0261336
52.8302 60.1242 0.0227346
55.4717 58.2369 0.0251729
53.6303 58.457 0.0208104
57.4924 51.7599 0.0327172
56.1166 49.5189 0.0293157
55.4452 55.767 0.0374369
55.3012 53.3539 0.0366173
50.3461 63.3782 2
51.2417 60.9288 2
54.2026 57.2545 2
52.3037 58.6176 2
56.4998 44.1405 2
55.3216 47.8531 2
54.9775 51.3559 2
53.961 54.515 2
49.5916 61.7404 3.98134
55.335 41.6723 3.97613
50.5607 59.3176 3.97455
52.1621 56.4709 3.96867
53.9461 45.5097 3.97503
53.1807 49.2858 3.97019
52.5943 52.8191 3.9633
48.6182 64.1193 0.0170177
47.9621 62.4699 2
47.3282 61.0022 3.98352
43.6313 67.4663 0.0154316
45.1327 65.1934 0.0172948
46.3822 63.0481 0.0178214
41.6636 67.6852 2
43.3568 65.5034 2
45.9879 61.5798 2
44.7676 63.4489 2
45.7651 60.6226 3.98144
44.4838 61.8273 3.9812
43.1467 63.72 3.98081
41.5464 65.6402 3.98179
39.6328 67.7644 3.9841
37.526 70.0481 3.9876
39.7022 70.0239 2
39.8179 72.4037 3.99208
41.8603 69.8764 0.0122466
42.1115 72.207 2
42.3947 74.6792 4
44.377 71.8618 0.00773044
44.8159 74.2794 2
47.2057 73.7222 0
43.852 5.35953 3.98904
46.5712 3.64734 3.99279
48.7856 4.32248 2
49.554 1.99015 4
50.9547 5.13231 0.00790905
51.8506 2.85453 2
54.0858 3.86728 0
60.1195 44.7466 0.0241014
61.0693 41.9409 0.0231576
62.0212 39.3482 0.022976
63.8691 37.455 0.0261805
61.8593 37.4442 2
60.0624 39.8298 2
58.7956 42.8871 2
59.5656 37.5647 3.97762
57.754 40.6315 3.97762
54.7708 39.6853 3.97617
62.0591 35.3645 0.023584
60.1302 32.761 0.0232728
58.4655 30.1032 0.0230005
56.6214 18.1743 0.029724
56.3192 20.5474 0.0387004
56.0197 22.9049 0.03684
57.1535 27.4154 0.0235925
56.1776 25.1399 0.0271206
54.4002 17.941 0.0245826
52.352 17.0629 0.0288581
51.374 14.5103 0.026029
48.0567 6.528 0.0115544
49.3249 9.33436 0.0175652
50.4325 12.0011 0.021611
59.708 35.1311 2
45.9626 5.88212 2
43.3741 7.4733 2
57.7785 32.3011 2
56.3704 29.3797 2
55.3165 19.2112 2
54.9455 21.5953 2
54.8141 24.1039 2
55.2748 26.6485 2
47.3557 8.62388 2
48.6003 11.2978 2
53.1053 18.6867 2
51.2863 18.0811 2
50.6268 16.1542 2
49.7106 13.7519 2
57.143 34.7743 3.97735
55.5039 31.5567 3.97745
54.2946 28.4638 3.97788
53.6334 25.5543 3.97449
53.9335 20.1661 3.96894
53.4975 22.7566 3.95635
41.3994 7.07946 3.9864
45.3605 7.99541 3.98643
42.8663 9.4171 3.98306
46.667 10.6571 3.98158
47.7434 13.1098 3.97979
48.9267 15.415 3.97539
49.9937 17.7209 3.9757
51.6237 19.3572 3.97815
50.3463 63.3781 0.0173859
51.242 60.9284 0.0228386
56.5007 44.1414 0.0222728
55.3224 47.8541 0.0276952
52.3041 58.6167 0.0245646
54.2028 57.2532 0.0251099
54.9766 51.3561 0.0337035
53.9605 54.514 0.0356015
49.5912 61.7401 2
55.3346 41.672 2
50.5605 59.3188 2
52.1619 56.4719 2
53.9509 45.5091 2
53.1846 49.286 2
52.5952 52.8182 2
48.8458 60.1968 3.97905
52.1957 42.5838 3.98155
49.7756 57.6094 3.97366
50.5436 54.4035 3.96613
51.5999 47.2183 3.97625
51.0993 50.9092 3.95979
47.8484 43.7238 3.98965
47.9621 62.4696 0.018315
47.3285 61.0026 2
46.6161 59.7877 3.98303
41.6635 67.685 0.0155791
43.3568 65.5025 0.017521
44.7675 63.4481 0.01868
45.9876 61.5791 0.0172099
39.633 67.7651 2
41.5462 65.6401 2
45.7652 60.6234 2
43.1468 63.7208 2
44.4841 61.828 2
44.622 60.2838 3.98257
42.9509 62.0747 3.97936
41.6002 63.8133 3.98098
39.6477 65.6075 3.98085
37.5635 67.746 3.98353
31.697 65.1265 3.98168
33.3924 67.4838 3.9832
35.3337 69.9581 3.98767
37.526 70.0489 2
37.5095 72.4582 3.99198
39.7022 70.0233 0.0120378
39.8181 72.4041 2
39.9526 74.9197 4
42.1112 72.2067 0.00775791
42.3947 74.6792 2
44.8159 74.2794 0
41.7365 4.96877 3.98926
43.852 5.35892 2
44.3265 3.11044 3.99313
46.5714 3.64704 2
47.2057 1.27793 4
48.7853 4.32294 0.00738382
49.554 1.99013 2
51.8506 2.85458 0
58.7969 42.8879 0.0226076
60.0635 39.8301 0.0226721
61.861 37.4439 0.0224609
59.5647 37.565 2
57.7544 40.6316 2
54.7715 39.6844 2
56.5419 37.8842 3.97746
49.2288 41.2937 3.98948
52.7919 39.3024 3.9837
39.4429 6.80336 3.98622
59.7092 35.131 0.0227602
57.7793 32.3002 0.0229051
56.3708 29.3789 0.0225985
55.3171 19.2107 0.0313977
54.9415 21.596 0.0406185
54.8152 24.1022 0.0359512
55.2792 26.6467 0.0232434
53.1051 18.6872 0.0291463
51.2864 18.0798 0.0206232
50.627 16.1544 0.0229332
45.9628 5.88271 0.0109853
49.7108 13.7528 0.0221481
47.3556 8.6258 0.015631
48.5999 11.2993 0.0203077
43.3743 7.47386 0.0139884
57.1415 34.7737 2
41.3994 7.07863 2
45.3601 7.99486 2
42.8661 9.41672 2
55.5065 31.5566 2
54.2935 28.4652 2
53.9337 20.1675 2
53.4969 22.7549 2
53.6306 25.556 2
46.6672 10.6541 2
47.7436 13.1078 2
51.6241 19.3578 2
49.9929 17.7194 2
48.9261 15.4146 2
54.5668 33.9735 3.97622
53.2471 30.5518 3.97761
52.3923 27.2713 3.97545
52.0351 24.16 3.97712
52.3403 21.0939 3.97607
41.0139 9.05047 3.98309
44.7253 9.99575 3.98433
42.4686 10.904 3.98509
46.0041 12.7358 3.97803
47.677 14.5944 3.97425
48.101 16.9999 3.97436
49.8009 19.6895 3.97611
49.5916 61.7404 0.0186593
50.5607 59.3176 0.0254529
55.335 41.6723 0.0238687
53.9461 45.5097 0.0249678
53.1807 49.2858 0.0298063
52.1621 56.4709 0.0313257
52.5943 52.8191 0.0367037
48.8456 60.1954 2
52.2054 42.5865 2
49.7753 57.6102 2
50.5437 54.4048 2
51.6035 47.2196 2
51.1006 50.9076 2
47.8577 43.7448 2
47.979 58.7309 3.97912
49.8012 45.2229 3.98033
48.5686 55.9014 3.9764
49.0533 52.565 3.97393
49.5156 49.0042 3.97104
45.6304 39.8503 3.88359
46.083 42.5997 3.91823
46.2389 45.7638 3.98711
43.447 41.1101 3.79384
41.8537 41.9913 3.6533
47.3282 61.0022 0.0164836
46.616 59.7885 2
45.4634 58.7837 3.98189
39.6328 67.7644 0.0159016
41.5464 65.6402 0.0182122
43.1467 63.72 0.0191887
44.4838 61.8273 0.0188
45.7651 60.6226 0.0185622
41.6002 63.8134 2
37.5637 67.7469 2
39.6477 65.6082 2
44.6221 60.2845 2
42.9511 62.0753 2
41.7538 62.486 3.98009
42.4798 59.9722 3.98204
39.8939 63.5465 3.97939
37.6423 65.5059 3.98133
35.4637 67.6553 3.98339
33.5755 65.3387 3.9808
31.9589 63.2961 3.98141
29.8831 64.7184 3.98284
31.6971 65.1273 2
31.377 67.1941 3.98378
33.3925 67.4845 2
33.1569 69.7519 3.98749
35.3337 69.959 2
35.1949 72.3726 3.99191
37.526 70.0481 0.012401
37.5096 72.4587 2
37.5 75 4
39.8179 72.4037 0.00792393
39.9526 74.9197 2
42.3947 74.6792 0
39.6242 4.7162 3.98953
41.7366 4.96802 2
42.0628 2.71797 3.99329
43.852 5.35953 0.0109602
44.3266 3.11003 2
44.8158 0.721173 4
46.5712 3.64734 0.00721059
47.2057 1.27779 2
49.554 1.99015 0
57.754 40.6315 0.0223762
59.5656 37.5647 0.0223761
54.7708 39.6853 0.0238348
49.2479 41.3004 2
56.5409 37.8842 2
52.7929 39.2948 2
53.6357 36.6296 3.97727
47.1536 40.3689 3.92643
50.1681 38.5141 3.99247
37.5168 6.67471 3.98622
39.4429 6.8023 2
39.2113 8.69386 3.98379
35.9426 8.49444 3.98383
57.143 34.7743 0.022648
55.5039 31.5567 0.0225546
54.2946 28.4638 0.0221153
53.9335 20.1661 0.0310642
53.4975 22.7566 0.0436532
53.6334 25.5543 0.0255074
51.6237 19.3572 0.0218481
49.9937 17.7209 0.0242969
48.9267 15.415 0.0246112
45.3605 7.99541 0.0135681
47.7434 13.1098 0.0202125
46.667 10.6571 0.018421
41.3994 7.07946 0.0135991
42.8663 9.4171 0.016936
54.5627 33.9755 2
41.0139 9.0499 2
44.7247 9.99545 2
42.4683 10.9041 2
53.2444 30.5509 2
52.398 27.2731 2
52.3417 21.0944 2
52.0356 24.1618 2
46.0042 12.7313 2
47.6766 14.5921 2
49.8013 19.6899 2
48.0998 16.9982 2
52.1208 32.8875 3.98004
51.0559 29.2326 3.97521
50.6262 25.8003 3.97275
49.8918 22.2744 3.98224
40.5696 11.6101 3.98065
43.8583 11.917 3.98013
45.7965 15.431 3.98149
47.4916 19.3032 3.97735
45.9961 37.4826 3.88638
48.8458 60.1968 0.0209451
49.7756 57.6094 0.0263369
52.1957 42.5838 0.0184452
51.5999 47.2183 0.0237519
51.0993 50.9092 0.040212
50.5436 54.4035 0.0338708
47.8484 43.7238 0.0103467
47.9784 58.7317 2
49.8128 45.2317 2
48.5676 55.9033 2
49.0532 52.5682 2
49.5184 49.0024 2
45.6665 39.8569 2
46.1061 42.6221 2
46.2406 45.7658 2
43.4701 41.1352 2
41.8686 42.0064 2
46.8249 57.3329 3.98238
44.1952 39.3942 3.79397
42.2058 40.8595 3.70416
47.8599 47.1952 3.97863
47.1232 54.2177 3.97341
47.483 50.7174 3.97008
44.6155 47.359 3.97725
44.7373 41.9251 3.86884
44.7084 44.4979 3.93519
42.327 42.6165 3.80336
40.7781 42.323 3.68869
46.6161 59.7877 0.0169744
45.4635 58.7844 2
43.8689 57.7049 3.98408
37.5635 67.746 0.0164681
39.6477 65.6075 0.0191461
41.6002 63.8133 0.019018
42.9509 62.0747 0.0206385
44.622 60.2838 0.0174254
35.4638 67.6564 2
41.754 62.4864 2
39.8938 63.547 2
37.6424 65.5066 2
42.4801 59.9726 2
40.6237 61.6418 3.98076
40.4421 58.1989 3.98101
37.837 63.2075 3.9796
35.573 65.4274 3.98068
33.5756 65.3392 2
31.9588 63.2968 2
33.6284 63.3343 3.98003
30.378 62.8559 3.98198
32.1232 62.0011 3.98292
26.8693 61.4977 3.98035
28.0619 64.1468 3.98251
29.8831 64.7191 2
29.4064 66.7584 3.98435
31.697 65.1265 0.0183155
31.3771 67.1949 2
31.0143 69.417 3.9875
33.3924 67.4838 0.0168025
33.1568 69.7525 2
32.8919 72.1469 3.99204
35.3337 69.9581 0.0123315
35.1948 72.3731 2
35.0474 74.9194 4
37.5095 72.4582 0.00801749
37.5 75 2
39.9526 74.9197 0
35.6214 6.72592 3.98567
37.5236 4.61579 3.98962
39.6242 4.71529 2
39.7892 2.47446 3.99329
41.7365 4.96877 0.0107384
42.0628 2.71752 2
42.3946 0.32156 4
44.3265 3.11044 0.00686572
44.8159 0.72056 2
47.2057 1.27793 0
49.2288 41.2937 0.0105192
56.5419 37.8842 0.0225351
52.7919 39.3024 0.016302
47.1723 40.3749 2
50.1788 38.5075 2
53.6434 36.6325 2
50.9564 35.573 3.97704
47.8159 37.748 3.93873
45.629 35.1361 3.88248
43.4525 33.8752 3.78754
41.8584 33.0033 3.6498
37.4585 8.53575 3.9844
37.5167 6.67357 2
39.4429 6.80336 0.0137846
39.2115 8.69259 2
38.9766 10.1284 3.98359
35.8992 9.7759 3.98225
34.1514 8.8244 3.98315
35.9423 8.49302 2
54.5668 33.9735 0.0237753
53.2471 30.5518 0.0223852
52.3923 27.2713 0.0245513
52.3403 21.0939 0.0239291
52.0351 24.16 0.0228793
49.8009 19.6895 0.02389
48.101 16.9999 0.0256364
47.677 14.5944 0.0257485
44.7253 9.99575 0.0156681
46.0041 12.7358 0.0219652
41.0139 9.05047 0.016906
42.4686 10.904 0.0149072
52.1264 32.8873 2
40.5698 11.6104 2
43.8574 11.9175 2
51.0698 29.2334 2
50.6301 25.8027 2
49.8914 22.2722 2
45.7954 15.4249 2
47.4915 19.3097 2
49.6625 31.465 3.98551
49.0704 27.5727 3.97353
49.2915 24.4857 3.98097
47.1597 22.0491 3.9774
38.3028 12.7403 3.97849
42.1011 14.3076 3.97849
44.7924 18.4963 3.97692
44.5235 37.4903 3.80176
46.0506 37.4895 2
47.979 58.7309 0.0208805
48.5686 55.9014 0.0235972
49.8012 45.2229 0.0196673
49.5156 49.0042 0.0289577
49.0533 52.565 0.0260729
45.6304 39.8503 0.11641
46.083 42.5997 0.0817712
46.2389 45.7638 0.0128879
43.447 41.1101 0.206159
41.8537 41.9913 0.346703
46.8238 57.3336 2
44.2264 39.4143 2
42.1967 40.8666 2
47.8613 47.1966 2
47.1216 54.2221 2
47.4849 50.7206 2
44.6239 47.3363 2
44.761 41.9438 2
44.7266 44.5158 2
42.3729 42.645 2
40.7827 42.3204 2
45.3756 55.9228 3.98925
42.5251 39.267 3.71581
40.6667 40.7627 3.79714
45.9442 48.8814 3.98607
45.4685 52.5058 3.97924
43.3058 48.3733 3.99978
43.2542 46.0412 3.91691
43.4422 43.7079 3.86755
40.9474 43.7445 3.79305
39.262 42.6397 3.70868
45.4634 58.7837 0.0181062
43.8689 57.7057 2
42.097 56.3236 3.98624
35.4637 67.6553 0.0166145
37.6423 65.5059 0.0186669
39.8939 63.5465 0.0206096
41.7538 62.486 0.0199093
42.4798 59.9722 0.0179592
35.5732 65.4289 2
40.6239 61.6424 2
37.8368 63.2079 2
40.4423 58.1996 2
38.9216 56.4897 3.98895
38.2508 60.3237 3.97953
35.6068 63.1994 3.97777
33.5755 65.3387 0.0192048
31.9589 63.2961 0.018595
33.6284 63.335 2
30.378 62.8564 2
32.1234 62.0019 2
28.681 62.2011 3.98166
33.3457 61.5114 3.98172
31.0674 61.2186 3.98116
27.5717 59.5923 3.98088
23.797 59.0789 3.97946
25.0356 60.8707 3.98031
26.8696 61.4985 2
26.2289 63.478 3.98189
28.0621 64.1473 2
27.463 66.1826 3.98458
29.8831 64.7184 0.0171575
29.4065 66.7589 2
28.9066 68.943 3.98742
31.377 67.1941 0.0162165
31.0143 69.4177 2
30.6142 71.7779 3.99199
33.1569 69.7519 0.0125087
32.8917 72.1473 2
32.6054 74.6784 4
35.1949 72.3726 0.00809059
35.0474 74.9197 2
37.5 75 0
33.7242 6.98092 3.98521
35.4355 4.68606 3.98943
35.6212 6.72491 2
37.5147 2.38703 3.99325
37.5236 4.61501 2
39.6242 4.7162 0.0104695
39.7891 2.47394 2
39.9526 0.0806499 4
42.0628 2.71797 0.00670711
42.3947 0.320817 2
44.8158 0.721173 0
44.2089 35.585 3.78936
42.214 34.1257 3.70193
47.1536 40.3689 0.0735659
50.1681 38.5141 0.00753419
53.6357 36.6296 0.0227335
47.823 37.7524 2
50.9695 35.5716 2
45.6586 35.1185 2
43.4798 33.849 2
41.8742 32.9877 2
47.9854 34.3043 3.96536
44.7382 33.0511 3.8623
42.3335 32.379 3.79892
40.7833 32.6763 3.6861
37.3111 10.6331 3.98143
37.4584 8.53403 2
37.5168 6.67471 0.0137835
39.2113 8.69386 0.0162052
38.9772 10.1271 2
34.7547 10.3828 3.98112
35.8992 9.77396 2
32.3783 9.37183 3.98158
34.1508 8.82297 2
35.9426 8.49444 0.0161741
52.1208 32.8875 0.0199563
51.0559 29.2326 0.0247914
50.6262 25.8003 0.0272498
49.8918 22.2744 0.0177588
47.4916 19.3032 0.0226497
45.7965 15.431 0.0185053
43.8583 11.917 0.0198651
40.5696 11.6101 0.0193519
49.6742 31.4607 2
38.3025 12.7383 2
42.1012 14.3095 2
49.0751 27.5722 2
49.294 24.4815 2
47.1555 22.0469 2
44.7923 18.5094 2
47.4984 29.5691 3.98484
46.9826 25.2347 3.98347
44.2705 21.431 3.97497
36.5831 12.9385 3.97733
38.6825 14.8156 3.97678
41.7466 17.865 3.97845
42.6438 37.484 3.72876
44.5468 37.4908 2
45.9961 37.4826 0.113623
46.8249 57.3329 0.0176194
47.1232 54.2177 0.0265898
47.8599 47.1952 0.0213737
47.483 50.7174 0.0299159
44.1952 39.3942 0.206034
44.7373 41.9251 0.131164
44.7084 44.4979 0.0648074
44.6155 47.359 0.022753
42.327 42.6165 0.196638
42.2058 40.8595 0.29584
40.7781 42.323 0.311313
45.3744 55.9223 2
42.5159 39.265 2
40.6552 40.7483 2
45.9451 48.887 2
45.4681 52.5124 2
43.31 48.3921 2
43.2844 46.0683 2
43.4716 43.7361 2
40.9782 43.7828 2
39.2584 42.6325 2
43.7078 54.426 3.99596
40.7629 39.1531 3.82457
39.1249 40.8296 3.81388
43.5931 50.4322 4.004
41.886 47.5851 3.95262
41.8061 45.1283 3.87972
39.3382 44.4383 3.799
37.5035 42.7357 3.73039
43.8689 57.7049 0.0159161
42.0969 56.3242 2
40.4083 54.9215 3.98227
35.573 65.4274 0.0193244
37.837 63.2075 0.020399
40.6237 61.6418 0.0192411
40.4421 58.1989 0.0189934
35.6067 63.2007 2
38.2511 60.3242 2
38.9215 56.4903 2
37.9982 55.2366 3.99306
36.9347 57.6201 3.98298
35.3633 60.9062 3.9781
33.6284 63.3343 0.0199743
30.378 62.8559 0.018018
32.1232 62.0011 0.0170818
33.346 61.5123 2
28.6812 62.2015 2
31.0677 61.2192 2
29.4049 60.2879 3.98006
32.3598 59.7433 3.98591
28.0308 58.373 3.9885
27.5721 59.5932 2
25.3848 58.5923 3.97775
22.765 58.2337 3.97041
23.4027 60.3486 3.97876
23.797 59.08 2
25.0358 60.8718 2
24.4319 62.7699 3.98191
26.8693 61.4977 0.0196518
26.2291 63.4788 2
25.5471 65.4922 3.98388
28.0619 64.1468 0.0174917
27.463 66.1831 2
26.8361 68.3314 3.98746
29.4064 66.7584 0.0156498
28.9066 68.9433 2
28.3691 71.2631 3.99208
31.0143 69.417 0.012504
30.6139 71.7782 2
30.1842 74.2788 4
32.8919 72.1469 0.00795602
32.6053 74.6792 2
35.0474 74.9194 0
31.7887 7.42109 3.98422
33.3478 4.92548 3.98898
33.7239 6.97977 2
35.2449 2.46308 3.9932
35.4353 4.68539 2
35.6214 6.72592 0.0143307
37.5 0 4
37.5145 2.38661 2
37.5236 4.61579 0.0103828
39.7892 2.47446 0.00670987
39.9526 0.0802889 2
42.3946 0.32156 0
42.5247 35.7082 3.71939
44.2355 35.5664 2
40.6735 34.2321 3.79658
42.2032 34.1199 2
47.8159 37.748 0.0612689
50.9564 35.573 0.0229618
45.629 35.1361 0.117522
43.4525 33.8752 0.21246
41.8584 33.0033 0.350203
48.0026 34.2923 2
44.7639 33.0338 2
42.3775 32.3482 2
40.7894 32.6779 2
46.0101 31.6078 3.94022
43.4332 31.2894 3.8706
40.9476 31.2508 3.79392
39.266 32.3691 3.70801
35.6934 11.7804 3.97935
37.3118 10.6306 2
37.4585 8.53575 0.0156048
38.9766 10.1284 0.016406
33.0989 11.2211 3.97872
34.7544 10.3807 2
35.8992 9.7759 0.0177532
30.4832 10.0214 3.98093
32.3777 9.37127 2
34.1514 8.8244 0.0168521
49.6625 31.465 0.0144898
49.0704 27.5727 0.0264693
49.2915 24.4857 0.0190294
47.1597 22.0491 0.0226026
44.7924 18.4963 0.023083
42.1011 14.3076 0.0215079
38.3028 12.7403 0.0215087
36.5829 12.9355 2
47.5071 29.5488 2
38.6819 14.8127 2
41.7453 17.871 2
46.9881 25.2316 2
44.2678 21.4122 2
45.3479 27.693 4.00084
43.7294 24.1531 4.0067
41.3286 20.807 3.97923
35.7734 14.7678 3.97715
38.6821 17.6116 3.97837
40.8134 37.4773 3.83387
42.6384 37.4852 2
44.5235 37.4903 0.198237
45.3756 55.9228 0.0107509
45.4685 52.5058 0.0207643
45.9442 48.8814 0.0139291
42.5251 39.267 0.284185
43.4422 43.7079 0.132451
43.2542 46.0412 0.0830935
43.3058 48.3733 0.000218435
40.9474 43.7445 0.206946
40.6667 40.7627 0.202855
39.262 42.6397 0.291323
43.7054 54.4261 2
40.7447 39.1445 2
39.1249 40.8145 2
43.593 50.4482 2
41.8794 47.6063 2
41.8264 45.1558 2
37.5031 42.7321 2
39.3554 44.4672 2
41.8542 52.9804 3.99378
39.1435 39.1625 3.83749
37.5016 40.8764 3.82812
35.7464 42.6456 3.7093
40.8648 49.6385 3.99846
39.806 45.9904 3.85865
37.5018 44.6651 3.78905
42.097 56.3236 0.0137561
40.4072 54.9229 2
38.7247 53.8166 3.99434
35.6068 63.1994 0.0222335
38.2508 60.3237 0.0204717
38.9216 56.4897 0.0110453
35.3635 60.9069 2
36.9352 57.6208 2
37.998 55.2345 2
36.3239 55.3292 3.99538
34.4899 58.5127 3.98532
33.3457 61.5114 0.0182815
28.681 62.2011 0.0183413
31.0674 61.2186 0.018841
32.3603 59.7443 2
29.4054 60.2881 2
30.3082 57.8178 3.9837
28.0309 58.3741 2
26.9626 56.8247 3.97596
27.5717 59.5923 0.0191164
25.3849 58.5938 2
23.8565 56.792 3.96425
21.3462 57.3861 3.96979
21.9979 59.619 3.97725
22.765 58.2354 2
22.7365 62.02 3.97989
23.4029 60.3498 2
23.797 59.0789 0.0205371
25.0356 60.8707 0.019686
24.4321 62.771 2
23.6812 64.7098 3.98352
26.2289 63.478 0.0181124
25.5471 65.4931 2
24.8082 67.5927 3.98726
27.463 66.1826 0.015421
26.8361 68.3321 2
26.1643 70.6038 3.99214
28.9066 68.943 0.0125842
28.3689 71.2633 2
27.7943 73.7221 4
30.6142 71.7779 0.00801428
30.1841 74.2794 2
32.6054 74.6784 0
29.8113 7.99539 3.98331
31.2531 5.33258 3.98814
31.7884 7.42028 2
32.9806 2.70136 3.99288
33.3475 4.92463 2
33.7242 6.98092 0.0147919
35.0474 0.080333 4
35.2446 2.46275 2
35.4355 4.68606 0.0105711
37.5 0 2
37.5147 2.38703 0.00674514
39.9526 0.0806499 0
40.7656 35.8196 3.82412
42.5148 35.7109 2
44.2089 35.585 0.210643
28.544 10.6972 3.97988
39.1274 34.178 3.81313
40.6599 34.2461 2
42.214 34.1257 0.298071
47.9854 34.3043 0.0346364
44.7382 33.0511 0.137699
42.3335 32.379 0.201075
40.7833 32.6763 0.313903
46.037 31.5943 2
43.4611 31.2603 2
40.9802 31.216 2
39.2645 32.3767 2
44.2499 29.8019 3.93095
41.8033 29.8683 3.87872
39.3446 30.5661 3.79776
37.5096 32.2813 3.72962
34.0939 12.9411 3.97717
35.6934 11.777 2
37.3111 10.6331 0.0185747
31.1874 11.9913 3.97888
33.0991 11.2204 2
34.7547 10.3828 0.01888
30.4824 10.0193 2
32.3783 9.37183 0.0184209
47.4984 29.5691 0.0151613
46.9826 25.2347 0.0165295
36.5831 12.9385 0.0226702
44.2705 21.431 0.0250276
41.7466 17.865 0.0215487
38.6825 14.8156 0.0232164
35.7737 14.7712 2
45.352 27.6927 2
38.6804 17.6154 2
41.3253 20.7936 2
43.732 24.1403 2
33.6101 15.8887 3.97663
42.9313 26.541 3.9973
40.8765 23.3706 4.01106
38.4145 20.3928 3.98045
35.8514 17.5232 3.97902
39.1522 37.4871 3.85868
40.7956 37.4772 2
42.6438 37.484 0.271244
43.7078 54.426 0.00404216
43.5931 50.4322 -0.00399885
40.7629 39.1531 0.175433
41.8061 45.1283 0.120277
41.886 47.5851 0.0473847
39.3382 44.4383 0.200997
39.1249 40.8296 0.186119
37.5035 42.7357 0.26961
41.8531 52.9777 2
39.1318 39.1519 2
37.5012 40.8531 2
40.8725 49.6543 2
35.7459 42.6381 2
39.8281 46.0241 2
37.4973 44.6907 2
39.796 51.8542 4.00172
37.4991 39.1758 3.86068
35.8764 40.8442 3.81297
34.2286 42.3298 3.6865
35.6634 44.4519 3.79569
38.6722 48.6369 3.96812
37.5131 46.2912 3.87141
40.4083 54.9215 0.0177264
38.7242 53.8106 2
36.7392 53.1487 3.99974
35.3633 60.9062 0.0218953
36.9347 57.6201 0.0170197
37.9982 55.2366 0.00693972
34.4907 58.5133 2
36.3249 55.334 2
33.2445 55.4972 3.99581
32.3598 59.7433 0.0140901
29.4049 60.2879 0.0199413
30.3088 57.8183 2
28.721 55.3131 3.97863
28.0308 58.373 0.0114953
26.962 56.826 2
25.3435 55.1317 3.97304
21.8344 55.3331 3.96579
25.3848 58.5923 0.0222482
23.856 56.7942 2
20.2324 57.0146 3.97327
20.6515 58.77 3.97382
21.3459 57.3878 2
21.168 61.1682 3.97796
21.998 59.6201 2
22.765 58.2337 0.0295853
21.8949 63.837 3.98239
22.7367 62.0212 2
23.4027 60.3486 0.0212383
24.4319 62.7699 0.0180948
23.6813 64.7106 2
22.8366 66.7358 3.98667
25.5471 65.4922 0.0161192
24.8083 67.5935 2
24.0084 69.805 3.99224
26.8361 68.3314 0.0125416
26.1639 70.6041 2
25.446 73.0099 4
28.3691 71.2631 0.00791762
27.7943 73.7222 2
30.1842 74.2788 0
27.8212 8.65525 3.98281
29.1553 5.87874 3.9872
29.8107 7.99374 2
30.7258 3.09848 3.99259
31.2528 5.33185 2
31.7887 7.42109 0.0157775
32.6053 0.320823 4
32.9803 2.70093 2
33.3478 4.92548 0.0110196
35.0474 0.0802903 2
35.2449 2.46308 0.00679742
37.5 0 0
39.148 35.8223 3.83696
40.7465 35.8282 2
42.5247 35.7082 0.280606
28.5433 10.6962 2
26.6227 11.3934 3.97976
29.2264 12.6483 3.97926
37.5025 34.1421 3.82701
39.1256 34.1942 2
40.6735 34.2321 0.203421
46.0101 31.6078 0.0597769
43.4332 31.2894 0.129403
40.9476 31.2508 0.206081
39.266 32.3691 0.29199
44.255 29.79 2
41.8206 29.8479 2
39.3609 30.5313 2
37.5102 32.2836 2
42.2653 28.4569 3.90754
39.8225 29.0048 3.87871
37.5129 30.3472 3.78966
35.7553 32.3688 3.70836
31.9162 14.4907 3.97742
34.0948 12.9406 2
35.6934 11.7804 0.0206452
31.1869 11.9884 2
33.0989 11.2211 0.0212833
30.4832 10.0214 0.0190746
45.3479 27.693 -0.000843186
43.7294 24.1531 -0.00670265
35.7734 14.7678 0.0228542
41.3286 20.807 0.0207659
38.6821 17.6116 0.0216281
33.6091 15.886 2
35.8489 17.5245 2
42.9404 26.5409 2
38.4141 20.3918 2
40.8749 23.3566 2
33.5544 17.3989 3.97816
40.3329 25.7219 3.99387
38.0678 23.008 3.99774
35.583 20.1078 3.98087
37.4981 37.4979 3.88087
39.1411 37.487 2
40.8134 37.4773 0.166127
41.8542 52.9804 0.0062157
40.8648 49.6385 0.0015431
39.1435 39.1625 0.162515
39.806 45.9904 0.141354
37.5018 44.6651 0.210951
37.5016 40.8764 0.171884
35.7464 42.6456 0.290697
39.798 51.8577 2
37.4994 39.1631 2
35.8788 40.8282 2
38.6854 48.6746 2
34.2223 42.3281 2
35.6473 44.4831 2
37.5117 46.3251 2
37.6533 50.9271 4.00428
35.8569 39.1807 3.83773
34.3379 40.7806 3.79681
33.1468 42.0001 3.65283
34.0486 43.7435 3.79321
35.1776 45.983 3.87065
36.8971 48.2688 3.93683
38.7247 53.8166 0.00566496
36.7377 53.1558 2
34.3883 52.4464 3.99692
34.4899 58.5127 0.0146788
36.3239 55.3292 0.00461931
33.2448 55.4995 2
30.5529 53.3464 3.97714
30.3082 57.8178 0.0163001
28.7203 55.3161 2
26.9326 53.4269 3.9718
26.9626 56.8247 0.0240449
25.3428 55.1351 2
23.6293 53.4658 3.95922
20.5285 53.2017 3.96215
19.9528 55.8158 3.96722
21.8331 55.3345 2
23.8565 56.792 0.0357481
19.4471 57.8762 3.97263
20.2318 57.016 2
19.7095 60.1956 3.97687
20.6513 58.7709 2
21.3462 57.3861 0.0302083
20.2078 62.8571 3.98014
21.1681 61.1695 2
21.9979 59.619 0.0227534
20.938 65.7644 3.98589
21.8949 63.838 2
22.7365 62.02 0.0201142
23.6812 64.7098 0.0164818
22.8366 66.7365 2
21.911 68.8719 3.99195
24.8082 67.5927 0.012744
24.008 69.8052 2
23.1494 72.1454 4
26.1643 70.6038 0.0078554
25.446 73.0099 2
27.7943 73.7221 0
25.8604 9.38415 3.98192
27.07 6.54288 3.98623
27.8205 8.65439 2
28.488 3.64455 3.99213
29.1548 5.87762 2
29.8113 7.99539 0.0166919
30.1841 0.720592 4
30.7253 3.09814 2
31.2531 5.33258 0.0118628
32.6053 0.320817 2
32.9806 2.70136 0.00711721
35.0474 0.080333 0
37.5001 35.827 3.85994
39.1354 35.8324 2
40.7656 35.8196 0.175877
24.7776 12.0777 3.97995
23.753 14.3664 3.97901
28.544 10.6972 0.0201197
26.6221 11.393 2
29.2259 12.647 2
27.2928 13.3819 3.97914
29.7824 14.2105 3.97905
35.8804 34.1755 3.81272
37.5022 34.1645 2
39.1274 34.178 0.186867
37.5096 32.2813 0.270383
44.2499 29.8019 0.0690524
41.8033 29.8683 0.121275
39.3446 30.5661 0.202236
42.2905 28.4293 2
39.8341 28.969 2
37.5162 30.3228 2
35.7557 32.3772 2
40.0112 27.6382 3.90752
37.5133 28.7152 3.87404
35.6773 30.5756 3.80037
34.2412 32.6832 3.68676
30.9292 16.8531 3.97739
31.9162 14.4858 2
34.0939 12.9411 0.0228344
31.1874 11.9913 0.02112
42.9313 26.541 0.00270354
40.8765 23.3706 -0.0110649
33.6101 15.8887 0.0233713
35.8514 17.5232 0.0209809
38.4145 20.3928 0.0195523
33.5509 17.4089 2
35.5853 20.1117 2
40.3364 25.7065 2
38.0607 22.992 2
32.8672 19.8073 3.98412
37.7871 25.316 4.00227
35.195 22.7389 3.99332
35.8458 37.5027 3.85901
37.498 37.4981 2
39.1522 37.4871 0.141324
39.796 51.8542 -0.00171963
38.6722 48.6369 0.0318779
37.4991 39.1758 0.139324
37.5131 46.2912 0.128592
35.6634 44.4519 0.204307
35.8764 40.8442 0.187033
34.2286 42.3298 0.3135
37.6403 50.9463 2
35.8699 39.1698 2
34.3495 40.767 2
36.8848 48.3044 2
33.1303 42.0155 2
34.0208 43.7785 2
35.1626 46.0125 2
35.5081 50.082 3.99449
34.2451 39.1763 3.82594
32.7871 40.8748 3.70288
32.6737 42.626 3.8011
33.2015 45.1285 3.87672
34.326 47.3544 3.9123
36.7392 53.1487 0.000257264
34.3844 52.4542 2
32.0646 51.1553 4.00324
33.2445 55.4972 0.00419284
30.552 53.3528 2
28.4886 51.5629 3.97834
28.721 55.3131 0.021365
26.9317 53.4301 2
25.1546 51.7192 3.95892
25.3435 55.1317 0.0269576
23.6283 53.4677 2
22.0531 51.7779 3.95587
19.2945 51.6109 3.96334
18.9565 54.2908 3.96284
20.5278 53.201 2
18.4613 56.708 3.97018
19.9519 55.8171 2
21.8344 55.3331 0.0342124
18.3739 59.0984 3.97181
19.4466 57.8773 2
20.2324 57.0146 0.0267287
18.6202 61.7609 3.97533
19.7097 60.1972 2
20.6515 58.77 0.0261835
19.1269 64.6745 3.98445
20.2078 62.8583 2
21.168 61.1682 0.0220443
19.8852 67.8085 3.99183
20.938 65.7653 2
21.8949 63.837 0.0176133
22.8366 66.7358 0.0133303
21.9105 68.8719 2
20.9142 71.1327 4
24.0084 69.805 0.00776014
23.1494 72.1455 2
25.446 73.0099 0
23.097 12.7933 3.97961
23.973 10.1719 3.98133
25.0237 7.31354 3.98528
25.8599 9.38359 2
26.2797 4.32876 3.99167
27.0695 6.54222 2
27.8212 8.65525 0.0171867
27.7943 1.27781 4
28.4873 3.64414 2
29.1553 5.87874 0.0127955
30.1841 0.720551 2
30.7258 3.09848 0.00741489
32.6053 0.320823 0
35.8544 35.8288 3.83688
37.4997 35.8402 2
39.148 35.8223 0.163041
24.7772 12.0772 2
23.7531 14.3662 2
22.4822 15.0434 3.97922
25.3589 13.915 3.97852
24.0285 15.6301 3.97948
26.6227 11.3934 0.0202444
29.2264 12.6483 0.0207441
27.2926 13.3816 2
29.7815 14.2084 2
28.3602 15.9868 3.97844
34.343 34.2396 3.79437
35.8818 34.1913 2
37.5025 34.1421 0.172992
35.7553 32.3688 0.291636
37.5129 30.3472 0.210335
42.2653 28.4569 0.0924606
39.8225 29.0048 0.121295
40.0249 27.6153 2
37.5114 28.6874 2
35.6602 30.5393 2
34.2319 32.6858 2
37.5909 27.3505 3.92163
35.1914 29.0192 3.8779
34.0639 31.2676 3.79357
33.1664 33.0127 3.65219
30.2143 19.3622 3.98164
30.928 16.8473 2
31.9162 14.4907 0.0225831
40.3329 25.7219 0.00613288
38.0678 23.008 0.00226484
33.5544 17.3989 0.0218352
35.583 20.1078 0.0191346
32.8672 19.8178 2
35.1923 22.7306 2
37.7801 25.2981 2
32.315 22.4757 3.99607
35.0128 25.2852 4.00192
34.1884 37.509 3.83491
35.8575 37.5035 2
37.4981 37.4979 0.119134
37.6533 50.9271 -0.00427627
36.8971 48.2688 0.0631679
35.8569 39.1807 0.162272
35.1776 45.983 0.129352
34.0486 43.7435 0.206791
34.3379 40.7806 0.20319
33.1468 42.0001 0.347171
35.4985 50.0927 2
34.2678 39.1678 2
32.7947 40.8814 2
34.3108 47.3937 2
32.6345 42.6536 2
33.1847 45.1535 2
33.3204 49.0768 3.98928
32.4699 39.289 3.72149
31.5415 41.1228 3.79216
31.5637 43.7143 3.86957
32.3631 46.2877 3.9103
34.3883 52.4464 0.00308426
32.0627 51.1652 2
29.9553 49.6744 3.98667
30.5529 53.3464 0.0228627
28.487 51.561 2
26.6081 49.9479 3.97
26.9326 53.4269 0.0282012
25.1533 51.7168 2
23.4526 50.1557 3.96473
23.6293 53.4658 0.0407807
22.0523 51.7766 2
20.5785 50.2843 3.96535
18.0943 50.3058 3.96792
17.9063 52.771 3.96409
19.2931 51.6103 2
17.4575 55.3261 3.96395
18.9537 54.2909 2
20.5285 53.2017 0.0378458
17.1437 57.8601 3.96942
18.4605 56.7087 2
19.9528 55.8158 0.032782
17.139 60.5387 3.97454
18.3737 59.0995 2
19.4471 57.8762 0.0273672
17.408 63.4652 3.98091
18.6203 61.7623 2
19.7095 60.1956 0.0231343
17.9417 66.6171 3.99152
19.1268 64.6757 2
20.2078 62.8571 0.0198581
18.75 69.9759 4
19.8846 67.8085 2
20.938 65.7644 0.0141093
21.911 68.8719 0.00805038
20.9142 71.1327 2
23.1494 72.1454 0
21.5883 13.6142 3.97917
22.1911 11.0319 3.98061
23.097 12.7932 2
23.0415 8.17971 3.98452
23.9725 10.1712 2
24.1173 5.14358 3.99121
25.0231 7.3129 2
25.8604 9.38415 0.0180803
25.446 1.99014 4
26.2789 4.32865 2
27.07 6.54288 0.0137716
27.7943 1.27778 2
28.488 3.64455 0.00786546
30.1841 0.720592 0
34.2388 35.8362 3.8228
35.8657 35.839 2
37.5001 35.827 0.140063
21.3089 15.8402 3.98011
24.7776 12.0777 0.0200542
23.753 14.3664 0.0209852
25.3589 13.9146 2
22.4827 15.0437 2
24.0284 15.6305 2
23.269 16.2614 3.97724
25.3845 16.0997 3.97902
27.2928 13.3819 0.0208636
29.7824 14.2105 0.0209495
28.3588 15.9876 2
27.4458 18.8151 3.98021
32.802 34.1391 3.70147
34.3581 34.254 2
35.8804 34.1755 0.187283
34.2412 32.6832 0.313242
35.6773 30.5756 0.199634
37.5133 28.7152 0.125957
40.0112 27.6382 0.0924831
37.593 27.3174 2
33.1493 32.999 2
35.1866 28.9817 2
34.0266 31.2259 2
35.0887 27.4774 3.92104
33.2087 29.8853 3.87274
32.6901 32.3808 3.78874
29.5982 21.9582 3.99501
30.2145 19.3716 2
30.9292 16.8531 0.0226083
37.7871 25.316 -0.00227059
35.195 22.7389 0.00668285
32.8672 19.8073 0.0158832
32.3148 22.4701 2
35.0302 25.2753 2
31.7805 25.6973 4.00811
32.3441 37.51 3.73156
34.2105 37.5094 2
35.8458 37.5027 0.14099
35.5081 50.082 0.00550728
34.326 47.3544 0.0877012
34.2451 39.1763 0.174057
33.2015 45.1285 0.123275
32.6737 42.626 0.198904
32.7871 40.8748 0.297125
33.3157 49.0714 2
32.4846 39.2868 2
31.5167 41.1459 2
32.3292 46.3163 2
31.5335 43.7424 2
31.2729 47.9124 3.98765
30.7921 39.4122 3.79139
30.2582 41.9455 3.86296
30.5907 44.8825 3.93196
32.0646 51.1553 -0.00323661
29.9528 49.6737 2
28.0195 48.1339 3.96583
28.4886 51.5629 0.0216629
26.6072 49.9462 2
24.7956 48.4242 3.97275
25.1546 51.7192 0.0410755
23.4521 50.1531 2
21.8147 48.7488 3.96948
22.0531 51.7779 0.0441303
20.5769 50.2833 2
19.1657 49.0628 3.97211
16.996 49.3092 3.97249
16.8509 51.3872 3.96666
18.0957 50.3047 2
16.4229 53.856 3.9644
17.9036 52.7708 2
19.2945 51.6109 0.0366617
15.9895 56.4627 3.96624
17.4564 55.3262 2
18.9565 54.2908 0.0371593
15.7547 59.2003 3.97098
17.1435 57.8611 2
18.4613 56.708 0.0298152
15.7899 62.1326 3.97614
17.1392 60.5405 2
18.3739 59.0984 0.0281914
16.0889 65.2997 3.99023
17.4077 63.4668 2
18.6202 61.7609 0.0246665
16.6661 68.6801 4
17.9408 66.6169 2
19.1269 64.6745 0.0155466
18.75 69.9759 2
19.8852 67.8085 0.00817383
20.9142 71.1327 0
20.2213 14.6043 3.97791
21.5885 13.6143 2
20.5304 12.0025 3.97992
21.1443 9.14997 3.98397
22.1908 11.0317 2
23.097 12.7933 0.020391
22.0164 6.08276 3.99074
23.0409 8.17898 2
23.973 10.1719 0.0186729
23.1494 2.85457 4
24.1164 5.14359 2
25.0237 7.31354 0.01472
25.446 1.99012 2
26.2797 4.32876 0.0083335
27.7943 1.27781 0
32.4695 35.7272 3.71343
34.2576 35.8488 2
35.8544 35.8288 0.163119
21.3093 15.8397 2
20.3081 16.9722 3.98144
22.1021 16.6468 3.97601
25.3589 13.915 0.0214815
22.4822 15.0434 0.0207843
24.0285 15.6301 0.0205208
25.3838 16.1001 2
23.2691 16.2625 2
24.2106 18.4692 3.97389
27.0377 21.4806 3.99111
28.3602 15.9868 0.0215603
27.4473 18.8153 2
31.5636 33.8969 3.79078
32.8119 34.1323 2
34.343 34.2396 0.205634
33.1664 33.0127 0.347815
34.0639 31.2676 0.206429
35.1914 29.0192 0.122095
37.5909 27.3505 0.0783736
35.0736 27.4365 2
32.6236 32.3522 2
33.194 29.8645 2
32.6424 28.1885 3.93242
31.568 31.3054 3.8713
28.8863 24.4386 3.98085
29.5936 21.9688 2
30.2143 19.3622 0.0183557
35.0128 25.2852 -0.00191666
32.315 22.4757 0.00393048
31.7824 25.6771 2
29.771 27.3607 3.96791
30.4594 37.5021 3.80039
32.3572 37.5077 2
34.1884 37.509 0.165088
33.3204 49.0768 0.0107238
32.3631 46.2877 0.089698
32.4699 39.289 0.27851
31.5637 43.7143 0.13043
31.5415 41.1228 0.207837
31.2702 47.9156 2
30.758 39.4315 2
30.2338 41.9621 2
30.5757 44.9004 2
29.3723 46.5155 4.00153
29.3572 39.8526 3.88342
28.9679 43.1111 3.93197
29.9553 49.6744 0.0133324
28.0179 48.1294 2
26.1392 46.6041 3.97677
26.6081 49.9479 0.030001
24.7955 48.4219 2
23.005 47.0276 3.97367
23.4526 50.1557 0.0352718
21.8141 48.7475 2
20.1422 47.5829 3.97687
20.5785 50.2843 0.0346537
19.1675 49.0615 2
17.7908 48.1534 3.97612
16.2356 48.6633 3.97564
16.9974 49.3083 2
15.9287 50.1514 3.97001
15.4267 52.4006 3.96637
16.851 51.3866 2
18.0943 50.3058 0.0320762
14.8834 54.967 3.96537
16.4221 53.8559 2
17.9063 52.771 0.0359096
14.467 57.7287 3.96782
15.9894 56.4629 2
17.4575 55.3261 0.0360456
14.2687 60.6864 3.97511
15.7549 59.2017 2
17.1437 57.8601 0.0305819
14.3339 63.8583 3.98707
15.7897 62.1338 2
17.139 60.5387 0.025456
14.6715 67.2507 4
16.0876 65.2991 2
17.408 63.4652 0.0190881
16.6661 68.6801 2
17.9417 66.6171 0.00848028
18.75 69.9759 0
18.9359 15.7906 3.97895
20.2215 14.6041 2
18.9806 13.1142 3.97872
21.5883 13.6142 0.0208257
20.5305 12.0024 2
19.3435 10.2383 3.98335
19.991 7.14743 3.99041
21.1439 9.14958 2
22.1911 11.0319 0.0193941
20.9142 3.86727 4
22.0152 6.08293 2
23.0415 8.17971 0.0154805
23.1494 2.85451 2
24.1173 5.14358 0.0087878
25.446 1.99014 0
30.81 35.6118 3.79469
32.4815 35.7289 2
34.2388 35.8362 0.177204
21.3089 15.8402 0.0198852
22.1025 16.6469 2
20.3087 16.9714 2
19.2559 18.4212 3.97473
21.788 17.8642 3.97927
25.3845 16.0997 0.02098
23.269 16.2614 0.0227606
24.2115 18.4695 2
22.2994 19.9132 3.97007
24.6201 21.3507 3.99004
26.4952 23.7469 3.9704
27.0373 21.4791 2
27.4458 18.8151 0.0197901
30.2881 33.0758 3.87543
31.5433 33.8623 2
32.802 34.1391 0.298534
32.6901 32.3808 0.211258
33.2087 29.8853 0.127255
35.0887 27.4774 0.0789557
32.6118 28.1663 2
31.5341 31.272 2
30.2805 29.6142 3.94998
28.0163 26.5772 3.9852
28.8816 24.4544 2
29.5982 21.9582 0.00498887
31.7805 25.6973 -0.00811222
29.7682 27.3306 2
28.9852 37.5146 3.88693
30.4434 37.5029 2
32.3441 37.51 0.268437
31.2729 47.9124 0.0123503
30.5907 44.8825 0.0680393
30.7921 39.4122 0.208613
30.2582 41.9455 0.13704
29.372 46.5269 2
29.3277 39.8713 2
28.9405 43.1352 2
27.5433 44.8153 3.97618
27.1285 40.5896 3.9555
28.0195 48.1339 0.0341655
26.1358 46.6063 2
24.251 45.1512 3.97589
24.7956 48.4242 0.0272508
23.0049 47.0265 2
21.1171 45.8514 3.97835
21.8147 48.7488 0.0305225
20.1421 47.5817 2
18.471 46.7076 3.97824
19.1657 49.0628 0.0278897
17.7923 48.1524 2
16.4399 47.6928 3.97679
16.2366 48.6626 2
15.2734 48.9981 3.97313
16.996 49.3092 0.0275097
15.93 50.1507 2
14.5422 50.9707 3.96813
13.8506 53.425 3.96604
15.4276 52.4002 2
16.8509 51.3872 0.0333388
13.2634 56.1593 3.96743
14.8832 54.9671 2
16.4229 53.856 0.0356047
12.8525 59.1197 3.97293
14.4673 57.7293 2
15.9895 56.4627 0.0337554
12.6798 62.3005 3.9845
14.2686 60.6871 2
15.7547 59.2003 0.0290183
12.7746 65.6939 4
14.3323 63.8569 2
15.7899 62.1326 0.0238643
14.6714 67.2507 2
16.0889 65.2997 0.00976685
16.6661 68.6801 0
17.6742 17.1675 3.97371
18.9363 15.7903 2
17.5126 14.3789 3.9779
20.2213 14.6043 0.0220878
18.9807 13.1138 2
17.6391 11.4577 3.9822
20.5304 12.0025 0.020081
19.3433 10.238 2
18.0511 8.34026 3.99019
18.75 5.0241 4
19.9897 7.14807 2
21.1443 9.14997 0.0160339
20.9142 3.86727 2
22.0164 6.08276 0.00926317
23.1494 2.85457 0
29.3751 35.1492 3.88566
30.7693 35.5869 2
32.4695 35.7272 0.286571
22.1021 16.6468 0.0239889
20.3081 16.9722 0.0185575
21.7887 17.8639 2
19.2564 18.42 2
18.0059 19.9576 3.96528
20.8943 19.3952 3.97536
24.2106 18.4692 0.0261123
22.2996 19.9129 2
24.6199 21.3511 2
22.3997 21.7436 3.97687
24.7643 23.191 3.97626
25.6025 25.9761 3.97518
26.4967 23.7462 2
27.0377 21.4806 0.00889092
28.668 32.3886 3.93381
30.2591 33.0564 2
31.5636 33.8969 0.20922
31.568 31.3054 0.128698
32.6424 28.1885 0.0675763
30.2757 29.6137 2
27.2248 29.1641 4.00533
28.01 26.5897 2
28.8863 24.4386 0.0191547
29.771 27.3607 0.0320878
27.2431 37.3669 3.93623
28.9381 37.5063 2
30.4594 37.5021 0.19961
29.3723 46.5155 -0.00152834
28.9679 43.1111 0.0680255
29.3572 39.8526 0.116575
27.5356 44.839 2
27.1111 40.5992 2
25.565 43.1268 3.98798
24.3832 39.4497 3.97666
26.1392 46.6041 0.0232309
24.2442 45.1514 2
22.1384 43.9024 3.97826
23.005 47.0276 0.0263333
21.1155 45.8504 2
19.1688 44.9383 3.97804
20.1422 47.5829 0.0231255
18.4719 46.7065 2
16.7558 46.1907 3.97732
17.7908 48.1534 0.0238832
16.441 47.6921 2
15.018 47.653 3.97466
16.2356 48.6633 0.0243554
15.2747 48.9974 2
13.8423 49.5329 3.9701
15.9287 50.1514 0.0299931
14.5431 50.9702 2
12.9205 51.8656 3.96705
12.1498 54.5214 3.96768
13.8503 53.4249 2
15.4267 52.4006 0.0336333
11.5383 57.4529 3.97168
13.2638 56.1593 2
14.8834 54.967 0.0346258
11.1347 60.6261 3.98214
12.8528 59.1197 2
14.467 57.7287 0.032177
10.9835 64.0165 4
12.6781 62.2982 2
14.2687 60.6864 0.0248859
12.7745 65.694 2
14.3339 63.8583 0.0129344
14.6715 67.2507 0
16.4145 18.666 3.96672
17.6744 17.1667 2
16.1049 15.789 3.97605
18.9359 15.7906 0.0210476
17.5128 14.3783 2
16.0209 12.8119 3.98029
18.9806 13.1142 0.0212763
17.639 11.4573 2
16.2023 9.66331 3.98982
19.3435 10.2383 0.016648
18.0498 8.34127 2
16.6661 6.31991 4
18.75 5.02404 2
19.991 7.14743 0.00958783
20.9142 3.86727 0
27.7714 34.7943 3.92873
29.3451 35.1298 2
30.81 35.6118 0.205313
16.7208 21.3932 3.96437
21.788 17.8642 0.0207291
19.2559 18.4212 0.0252676
20.8947 19.3945 2
18.0065 19.9565 2
19.7681 21.5939 3.97284
22.2994 19.9132 0.0299257
24.6201 21.3507 0.00995547
22.3996 21.7436 2
24.7646 23.1907 2
22.9511 24.6261 3.97227
24.7658 28.5567 3.97795
25.6007 25.9747 2
26.4952 23.7469 0.0296021
26.5149 31.7453 3.98422
28.6404 32.3655 2
30.2881 33.0758 0.124573
30.2805 29.6142 0.0500166
27.2467 29.1487 2
28.0163 26.5772 0.0148006
25.0721 36.8598 3.98412
27.2237 37.3588 2
28.9852 37.5146 0.113073
27.5433 44.8153 0.0238187
27.1285 40.5896 0.0444963
25.5493 43.1375 2
24.3674 39.449 2
23.2788 41.8109 3.97979
22.1012 38.5187 3.9778
24.251 45.1512 0.0241114
22.1363 43.9027 2
19.9847 42.8687 3.97705
21.1171 45.8514 0.0216532
19.1686 44.938 2
17.1227 44.357 3.97707
18.471 46.7076 0.0217634
16.7573 46.1901 2
14.9589 46.0736 3.97513
16.4399 47.6928 0.0232068
15.0192 47.6524 2
13.3581 47.9961 3.97153
15.2734 48.9981 0.0268719
13.8434 49.5325 2
12.1411 50.2452 3.96779
14.5422 50.9707 0.0318672
12.9208 51.8654 2
11.1451 52.8326 3.96769
10.3287 55.7076 3.9721
12.1503 54.5213 2
13.8506 53.425 0.0339582
9.70155 58.8483 3.98035
11.5386 57.4525 2
13.2634 56.1593 0.0325705
9.30605 62.2254 4
11.1331 60.6233 2
12.8525 59.1197 0.0270702
10.9835 64.0165 2
12.6798 62.3005 0.0155016
12.7746 65.6939 0
15.1635 20.199 3.96668
16.4148 18.6654 2
14.7549 17.3148 3.96996
17.6742 17.1675 0.0262945
16.1052 15.7879 2
14.4839 14.2949 3.97838
17.5126 14.3789 0.0221005
16.0209 12.8112 2
14.4451 11.1145 3.98897
17.6391 11.4577 0.0178025
16.201 9.6646 2
14.6715 7.74927 4
18.0511 8.34026 0.00981267
16.6661 6.31988 2
18.75 5.0241 0
25.7301 34.283 3.99114
27.7498 34.8007 2
29.3751 35.1492 0.114344
17.9132 22.3426 3.96884
15.5644 22.9335 3.96751
16.7214 21.393 2
20.8943 19.3952 0.0246435
18.0059 19.9576 0.0347188
19.7683 21.5935 2
19.7752 24.4066 3.97008
22.3997 21.7436 0.0231253
24.7643 23.191 0.0237397
22.9508 24.626 2
22.134 27.857 3.97246
24.0717 31.2269 3.97633
24.7807 28.5569 2
25.6025 25.9761 0.0248242
26.4991 31.721 2
28.668 32.3886 0.0661932
27.2248 29.1641 -0.00533451
22.8243 36.2869 3.9821
25.0527 36.8579 2
27.2431 37.3669 0.0637721
25.565 43.1268 0.012016
24.3832 39.4497 0.0233383
23.2693 41.8094 2
22.0936 38.5167 2
21.0086 40.6379 3.97588
20.4048 37.8019 3.97707
22.1384 43.9024 0.0217402
19.9834 42.869 2
17.5795 42.0769 3.9768
19.1688 44.9383 0.0219604
17.1241 44.3567 2
14.9874 44.1846 3.97585
16.7558 46.1907 0.0226769
14.9599 46.0731 2
13.0443 46.2838 3.97247
15.018 47.653 0.0253353
13.359 47.9957 2
11.5165 48.5428 3.96835
13.8423 49.5329 0.0299049
12.1416 50.2449 2
10.2705 51.0776 3.96763
12.9205 51.8656 0.0329485
11.1456 52.8324 2
9.23741 53.8876 3.97163
8.38494 56.9815 3.98086
10.3291 55.7071 2
12.1498 54.5214 0.032317
7.74927 60.3285 4
9.70035 58.8449 2
11.5383 57.4529 0.0283246
9.306 62.2255 2
11.1347 60.6261 0.01786
10.9835 64.0165 0
13.9796 21.7627 3.966
15.1642 20.1989 2
13.4594 18.9128 3.96734
16.4145 18.666 0.0332762
14.7553 17.3138 2
13.0309 15.8896 3.97518
16.1049 15.789 0.0239481
14.4839 14.2938 2
12.7827 12.6882 3.98728
16.0209 12.8119 0.019705
14.4437 11.1162 2
12.7746 9.30605 4
16.2023 9.66331 0.0101798
14.6715 7.74924 2
16.6661 6.31991 0
23.4071 33.8246 3.98355
25.7077 34.2727 2
27.7714 34.7943 0.0712658
17.7143 24.0636 3.97045
17.9135 22.3424 2
14.3814 24.466 3.96947
15.5652 22.9335 2
16.7208 21.3932 0.0356267
19.2217 27.2331 3.97156
19.7681 21.5939 0.0271637
19.7733 24.4063 2
21.4501 30.6978 3.97483
22.9511 24.6261 0.027727
22.1434 27.8581 2
24.0546 31.2242 2
24.7658 28.5567 0.022052
26.5149 31.7453 0.0157777
20.5271 35.9489 3.97724
22.8219 36.2815 2
25.0721 36.8598 0.015883
23.2788 41.8109 0.0202061
22.1012 38.5187 0.0221963
21.0148 40.6375 2
20.409 37.8016 2
18.3205 39.0068 3.97741
19.9847 42.8687 0.0229467
17.5811 42.0765 2
14.9704 41.9053 3.977
17.1227 44.357 0.0229292
14.9889 44.1841 2
12.8021 44.3814 3.97304
14.9589 46.0736 0.0248696
13.0452 46.2835 2
11.0231 46.7271 3.96887
13.3581 47.9961 0.0284749
11.517 48.5426 2
9.53356 49.2382 3.96738
12.1411 50.2452 0.0322054
10.2709 51.0773 2
8.27028 52.0014 3.97127
11.1451 52.8326 0.0323118
9.23785 53.8868 2
7.19386 55.0323 3.9817
6.31991 58.3339 4
8.38405 56.9781 2
10.3287 55.7076 0.0279027
7.74924 60.3285 2
9.70155 58.8483 0.0196495
9.30605 62.2254 0
13.2805 25.3746 3.97179
12.8582 23.2908 3.96701
13.9795 21.7625 2
12.245 20.5585 3.96794
15.1635 20.199 0.033318
13.4602 18.9124 2
11.6629 17.5715 3.97226
14.7549 17.3148 0.0300391
13.0312 15.8887 2
11.2206 14.3739 3.98419
14.4839 14.2949 0.021618
12.7811 12.6902 2
10.9835 10.9835 4
14.4451 11.1145 0.0110334
12.7745 9.306 2
14.6715 7.74927 0
20.8842 33.4273 3.97577
23.4105 33.8349 2
25.7301 34.283 0.00886379
16.0331 26.4231 3.97179
17.7143 24.0635 2
17.9132 22.3426 0.0311635
14.3813 24.4661 2
15.5644 22.9335 0.0324935
18.5942 30.2016 3.97491
19.2214 27.2332 2
19.7752 24.4066 0.0299205
21.4538 30.6983 2
22.134 27.857 0.027541
24.0717 31.2269 0.0236662
17.932 35.9819 3.97811
20.5256 35.9512 2
22.8243 36.2869 0.0179032
21.0086 40.6379 0.0241221
20.4048 37.8019 0.0229336
18.3208 39.0067 2
14.4756 39.1717 3.97769
17.5795 42.0769 0.0231983
14.972 41.9049 2
12.5043 42.2688 3.9732
14.9874 44.1846 0.0241537
12.8032 44.3811 2
10.6093 44.7964 3.96946
13.0443 46.2838 0.027533
11.0235 46.7269 2
8.91579 47.3177 3.96712
11.5165 48.5428 0.0316494
9.53377 49.2379 2
7.43723 50.035 3.97068
10.2705 51.0776 0.0323653
8.27063 52.0007 2
6.13452 53.0074 3.98208
9.23741 53.8876 0.0283666
7.19332 55.0294 2
5.0241 56.25 4
6.31988 58.3339 2
8.38494 56.9815 0.0191405
7.74927 60.3285 0
13.5447 26.8285 3.97137
11.9637 24.7957 3.96862
13.2798 25.3746 2
11.1473 22.2398 3.96775
12.8583 23.2909 2
13.9796 21.7627 0.0339994
12.246 20.5584 2
10.3939 19.3244 3.97198
13.4594 18.9128 0.032656
11.6637 17.5714 2
9.76201 16.1583 3.98098
13.0309 15.8896 0.0248157
11.2189 14.3766 2
9.30607 12.7746 4
12.7827 12.6882 0.0127192
10.9835 10.9835 2
12.7746 9.30605 0
18.1062 33.1363 3.97721
20.8882 33.4277 2
23.4071 33.8246 0.0164483
15.6553 29.658 3.97403
16.0327 26.4234 2
17.7143 24.0636 0.029551
14.3814 24.466 0.030525
18.5914 30.2016 2
19.2217 27.2331 0.0284368
21.4501 30.6978 0.0251697
15.0935 36.0289 3.97775
17.9348 35.9822 2
20.5271 35.9489 0.0227557
12.7226 37.8296 3.97768
18.3205 39.0068 0.0225858
14.4765 39.1716 2
12.014 40.1363 3.97397
14.9704 41.9053 0.0230039
12.5051 42.2686 2
10.2172 42.773 3.96982
12.8021 44.3814 0.0269584
10.6096 44.7963 2
8.39435 45.3197 3.96711
11.0231 46.7271 0.0311303
8.91585 47.3174 2
6.72855 48.0003 3.9702
9.53356 49.2382 0.0326242
7.4374 50.0344 2
5.21136 50.9108 3.9818
8.27028 52.0014 0.0287332
6.13424 53.0055 2
3.86727 54.0858 4
7.19386 55.0323 0.0182971
5.02404 56.25 2
6.31991 58.3339 0
13.0189 29.0466 3.97096
11.4053 26.4955 3.96882
13.5439 26.8286 2
10.2053 23.9708 3.9679
11.9643 24.7958 2
13.2805 25.3746 0.0282075
9.2461 21.1412 3.97149
11.1482 22.2399 2
12.8582 23.2908 0.0329947
12.245 20.5585 0.0320619
10.3948 19.3248 2
8.41788 18.0295 3.98049
11.6629 17.5715 0.0277368
9.76072 16.1619 2
7.74928 14.6715 4
11.2206 14.3739 0.0158115
9.30602 12.7745 2
10.9835 10.9835 0
14.6523 32.8776 3.97618
18.105 33.1368 2
20.8842 33.4273 0.0242263
15.6559 29.6584 2
16.0331 26.4231 0.028208
18.5942 30.2016 0.0250878
13.018 36.2134 3.97655
15.0947 36.0293 2
17.932 35.9819 0.0218917
12.7237 37.8296 2
11.3559 38.3089 3.97449
14.4756 39.1717 0.0223133
12.0154 40.1361 2
9.80424 40.7512 3.97046
12.5043 42.2688 0.0268033
10.218 42.7727 2
7.94345 43.2688 3.9674
10.6093 44.7964 0.0305397
8.39437 45.3195 2
6.13465 45.9054 3.96987
8.91579 47.3177 0.0328777
6.72863 47.9997 2
4.42292 48.7515 3.98111
7.43723 50.035 0.0293151
5.21124 50.9098 2
2.85457 51.8506 4
6.13452 53.0074 0.0179197
3.86727 54.0858 2
5.0241 56.25 0
12.1652 31.2677 3.97223
10.8278 28.423 3.96903
13.02 29.0469 2
9.41984 25.8001 3.96767
11.4054 26.4956 2
13.5447 26.8285 0.0286281
8.23289 23.0247 3.97123
10.2059 23.971 2
11.9637 24.7957 0.03138
7.1999 19.9792 3.98114
9.24697 21.1417 2
11.1473 22.2398 0.0322487
10.3939 19.3244 0.0280222
8.41715 18.0332 2
6.31992 16.6661 4
9.76201 16.1583 0.0190185
7.74926 14.6714 2
9.30607 12.7746 0
12.1899 34.3017 3.97613
14.653 32.878 2
18.1062 33.1363 0.022791
15.6553 29.658 0.02597
10.9154 36.6128 3.97393
13.0187 36.2136 2
15.0935 36.0289 0.0222483
12.7226 37.8296 0.0223231
11.3571 38.3088 2
9.39516 38.8222 3.9707
12.014 40.1363 0.0260312
9.80489 40.751 2
7.55456 41.2107 3.96778
10.2172 42.773 0.0301794
7.94311 43.2686 2
5.64651 43.7683 3.96983
8.39435 45.3197 0.0328927
6.13477 45.9049 2
3.76851 46.5372 3.98064
6.72855 48.0003 0.0298
4.42295 48.751 2
1.99014 49.554 4
5.21136 50.9108 0.0182032
2.85451 51.8506 2
3.86727 54.0858 0
10.9972 32.9264 3.9741
10.1467 30.3892 3.96945
12.1663 31.268 2
8.72938 27.7337 3.96749
10.8282 28.4232 2
13.0189 29.0466 0.0290434
7.35836 24.9832 3.9707
9.42011 25.8003 2
11.4053 26.4955 0.0311811
6.11681 22.0025 3.98188
8.2335 23.0252 2
10.2053 23.9708 0.0321031
5.02411 18.75 4
7.19957 19.9822 2
9.2461 21.1412 0.0285102
8.41788 18.0295 0.0195056
6.3199 16.6661 2
7.74928 14.6715 0
10.5166 35.0037 3.97367
12.1912 34.3019 2
14.6523 32.8776 0.0238174
9.06038 36.9855 3.97114
10.9168 36.6127 2
13.018 36.2134 0.0234519
11.3559 38.3089 0.0255066
9.39626 38.8221 2
7.23509 39.182 3.96804
9.80424 40.7512 0.0295448
7.55471 41.2105 2
5.26169 41.614 3.96967
7.94345 43.2688 0.0325966
5.64657 43.7679 2
3.24622 44.2819 3.98059
6.13465 45.9054 0.0301326
3.76865 46.5368 2
1.27781 47.2057 4
4.42292 48.7515 0.0188861
1.99012 49.554 2
2.85457 51.8506 0
10.152 33.8862 3.97413
9.43082 32.1596 3.9702
10.9982 32.9266 2
8.07848 29.6971 3.96763
10.1474 30.3894 2
12.1652 31.2677 0.0277729
6.602 27.009 3.9703
8.72924 27.7338 2
10.8278 28.423 0.0309678
5.1722 24.0951 3.98185
7.35866 24.9836 2
9.41984 25.8001 0.0323332
3.86728 20.9142 4
6.1167 22.0043 2
8.23289 23.0247 0.0287727
5.02406 18.75 2
7.1999 19.9792 0.0188602
6.31992 16.6661 0
8.88139 35.2815 3.97133
10.5175 35.0037 2
12.1899 34.3017 0.0238725
7.01734 37.2063 3.96803
9.061 36.9854 2
10.9154 36.6128 0.0260741
9.39516 38.8222 0.0293008
7.23552 39.1819 2
4.98935 39.4673 3.96978
7.55456 41.2107 0.032216
5.26203 41.6137 2
2.85669 42.0022 3.98052
5.64651 43.7683 0.0301742
3.24629 44.2818 2
0.720592 44.8159 4
3.76851 46.5372 0.0193638
1.27778 47.2057 2
1.99014 49.554 0
8.91973 33.7011 3.97118
10.1529 33.8863 2
7.51516 31.6104 3.96782
9.43157 32.1597 2
10.9972 32.9264 0.0258967
5.94701 29.0699 3.97031
8.07815 29.6972 2
10.1467 30.3892 0.0305549
4.35991 26.2475 3.98131
6.6021 27.0093 2
8.72938 27.7337 0.0325067
2.85458 23.1494 4
5.17219 24.0959 2
7.35836 24.9832 0.0293042
3.86728 20.9142 2
6.11681 22.0025 0.0181163
5.02411 18.75 0
6.96675 35.3068 3.96823
8.88225 35.2814 2
10.5166 35.0037 0.0263253
4.83948 37.3398 3.97024
7.01748 37.2062 2
9.06038 36.9855 0.028863
7.23509 39.182 0.0319574
4.98971 39.4672 2
2.60475 39.7139 3.98039
5.26169 41.614 0.0303274
2.85698 42.0023 2
0.320823 42.3947 4
3.24622 44.2819 0.0194114
0.720551 44.8159 2
1.27781 47.2057 0
7.12701 33.4618 3.96804
8.92022 33.7011 2
10.152 33.8862 0.025868
5.41774 31.1338 3.97045
7.51504 31.6105 2
9.43082 32.1596 0.0297976
3.68158 28.4434 3.98086
5.94707 29.0702 2
8.07848 29.6971 0.0323749
1.99015 25.446 4
4.35996 26.2477 2
6.602 27.009 0.0296993
2.85453 23.1494 2
5.1722 24.0951 0.0181495
3.86728 20.9142 0
4.85358 35.2516 3.97066
6.96713 35.3068 2
8.88139 35.2815 0.0286728
2.49618 37.4285 3.98098
4.8395 37.3399 2
7.01734 37.2063 0.0319711
4.98935 39.4673 0.0302158
2.60512 39.7142 2
0.080333 39.9526 4
2.85669 42.0022 0.0194842
0.320817 42.3947 2
0.720592 44.8159 0
5.04703 33.1904 3.97056
7.12708 33.4619 2
8.91973 33.7011 0.0288218
3.14584 30.6661 3.98072
5.41783 31.1341 2
7.51516 31.6104 0.0321802
1.27793 27.7943 4
3.68172 28.4435 2
5.94701 29.0699 0.0296903
1.99013 25.446 2
4.35991 26.2475 0.0186921
2.85458 23.1494 0
2.54822 35.159 3.98102
4.85397 35.2519 2
6.96675 35.3068 0.0317705
0 37.5 4
2.49622 37.4289 2
4.83948 37.3398 0.0297556
2.60475 39.7139 0.0196084
0.0802903 39.9526 2
0.320823 42.3947 0
2.76585 32.9057 3.98109
5.04714 33.1906 2
7.12701 33.4618 0.0319607
0.721173 30.1842 4
3.14602 30.6665 2
5.41774 31.1338 0.0295515
1.27779 27.7943 2
3.68158 28.4434 0.0191376
1.99015 25.446 0
0.0806499 35.0474 4
2.54864 35.1594 2
4.85358 35.2516 0.0293422
0 37.5 2
2.49618 37.4285 0.0190168
0.080333 39.9526 0
0.32156 32.6054 4
2.76595 32.9062 2
5.04703 33.1904 0.0294375
0.72056 30.1841 2
3.14584 30.6661 0.0192822
1.27793 27.7943 0
0.0802889 35.0474 2
2.54822 35.159 0.0189763
0 37.5 0
0.320817 32.6053 2
2.76585 32.9057 0.0189059
0.721173 30.1842 0
0.0806499 35.0474 0
0.32156 32.6054 0
CELLS 1910 17190
8 18 6 25 56 2 0 5 16
8 57 23 6 18 17 4 0 2
8 78 36 9 29 31 11 1 7
8 31 11 1 7 79 37 10 30
8 110 57 18 50 48 17 2 14
8 50 18 56 111 14 2 16 49
8 116 62 22 55 52 20 3 15
8 56 25 67 118 16 5 24 53
8 119 63 23 57 54 21 4 17
8 55 22 63 119 15 3 21 54
8 58 26 68 121 18 6 25 56
8 122 65 26 58 57 23 6 18
8 73 31 7 27 142 79 30 71
8 143 78 29 72 73 31 7 27
8 83 147 76 34 32 74 28 8
8 84 148 78 36 33 75 29 9
8 76 34 8 28 148 84 33 75
8 37 79 150 86 10 30 77 35
8 151 87 36 78 80 38 11 31
8 80 38 11 31 152 88 37 79
8 175 100 42 94 96 44 12 40
8 44 96 176 101 12 40 95 43
8 101 176 98 46 43 95 41 13
8 46 98 178 103 13 41 97 45
8 178 103 45 97 147 83 32 74
8 189 116 55 109 106 52 15 47
8 111 56 118 191 49 16 53 107
8 192 119 57 110 108 54 17 48
8 109 55 119 192 47 15 54 108
8 194 122 58 112 110 57 18 50
8 112 58 121 195 50 18 56 111
8 115 61 19 51 197 124 59 113
8 115 61 125 198 51 19 60 114
8 198 125 62 116 114 60 20 52
8 200 127 64 120 116 62 22 55
8 118 67 132 202 53 24 66 117
8 121 68 133 203 56 25 67 118
8 120 64 128 204 55 22 63 119
8 204 128 65 122 119 63 23 57
8 206 134 68 121 123 69 26 58
8 123 69 26 58 207 131 65 122
8 226 147 74 138 140 76 28 70
8 229 148 75 139 143 78 29 72
8 140 76 28 70 229 148 75 139
8 142 79 30 71 231 150 77 141
8 144 80 31 73 232 152 79 142
8 233 151 78 143 144 80 31 73
8 150 86 35 77 235 154 81 145
8 235 154 81 145 146 82 39 91
8 146 82 39 91 236 155 90 165
8 238 157 83 147 149 85 34 76
8 239 158 84 148 151 87 36 78
8 149 85 34 76 239 158 84 148
8 152 88 37 79 241 160 86 150
8 242 161 87 151 153 89 38 80
8 153 89 38 80 243 162 88 152
8 171 98 41 92 265 178 97 169
8 265 178 97 169 226 147 74 138
8 172 96 40 93 266 176 95 170
8 266 176 95 170 171 98 41 92
8 269 175 94 173 172 96 40 93
8 271 180 99 174 175 100 42 94
8 197 124 59 113 271 180 99 174
8 272 181 100 175 177 102 44 96
8 273 182 101 176 179 104 46 98
8 177 102 44 96 273 182 101 176
8 179 104 46 98 275 184 103 178
8 275 184 103 178 238 157 83 147
8 188 115 51 105 283 197 113 186
8 188 115 198 284 105 51 114 187
8 284 198 116 189 187 114 52 106
8 286 200 120 193 189 116 55 109
8 191 118 202 288 107 53 117 190
8 195 121 203 289 111 56 118 191
8 193 120 204 290 109 55 119 192
8 290 204 122 194 192 119 57 110
8 196 123 58 112 292 207 122 194
8 293 206 121 195 196 123 58 112
8 199 126 61 115 297 211 124 197
8 298 212 127 200 198 125 62 116
8 199 126 212 298 115 61 125 198
8 205 129 64 120 300 214 127 200
8 301 217 130 201 202 132 66 117
8 209 136 168 264 301 217 130 201
8 302 219 132 202 203 133 67 118
8 303 220 133 203 206 134 68 121
8 205 129 215 304 120 64 128 204
8 304 215 131 207 204 128 65 122
8 306 221 134 206 208 135 69 123
8 208 135 69 123 307 218 131 207
8 210 137 167 263 309 223 136 209
8 328 238 147 226 230 149 76 140
8 228 146 91 166 329 236 165 260
8 231 150 77 141 330 235 145 227
8 330 235 145 227 228 146 91 166
8 332 239 148 229 233 151 78 143
8 230 149 76 140 332 239 148 229
8 232 152 79 142 334 241 150 231
8 234 153 80 144 335 243 152 232
8 336 242 151 233 234 153 80 144
8 236 155 90 165 338 245 164 259
8 241 160 86 150 339 246 154 235
8 339 246 154 235 237 156 82 146
8 237 156 82 146 340 247 155 236
8 342 249 157 238 240 159 85 149
8 343 250 158 239 242 161 87 151
8 240 159 85 149 343 250 158 239
8 243 162 88 152 345 252 160 241
8 244 163 253 346 153 89 161 242
8 244 163 89 153 347 254 162 243
8 311 224 261 371 210 137 167 263
8 263 167 262 372 209 136 168 264
8 267 179 98 171 375 275 178 265
8 375 275 178 265 328 238 147 226
8 376 273 176 266 267 179 98 171
8 268 177 96 172 376 273 176 266
8 379 272 175 269 268 177 96 172
8 380 271 174 270 269 175 94 173
8 283 197 113 186 380 271 174 270
8 381 277 180 271 272 181 100 175
8 297 211 124 197 381 277 180 271
8 382 278 181 272 274 183 102 177
8 274 183 102 177 383 279 182 273
8 383 279 182 273 276 185 104 179
8 385 281 184 275 342 249 157 238
8 276 185 104 179 385 281 184 275
8 285 199 115 188 393 297 197 283
8 394 298 200 286 284 198 116 189
8 285 199 298 394 188 115 198 284
8 291 205 120 193 396 300 200 286
8 397 301 201 287 288 202 117 190
8 295 209 264 374 397 301 201 287
8 398 302 202 288 289 203 118 191
8 399 303 203 289 293 206 121 195
8 291 205 304 400 193 120 204 290
8 400 304 207 292 290 204 122 194
8 294 208 123 196 402 307 207 292
8 403 306 206 293 294 208 123 196
8 296 210 263 373 405 309 209 295
8 408 312 213 299 297 211 126 199
8 299 213 313 409 199 126 212 298
8 409 313 214 300 298 212 127 200
8 305 216 129 205 411 315 214 300
8 412 318 217 301 302 219 132 202
8 309 223 136 209 412 318 217 301
8 413 320 219 302 303 220 133 203
8 306 221 321 414 206 134 220 303
8 307 218 131 207 415 316 215 304
8 305 216 316 415 205 129 215 304
8 417 322 221 306 308 222 135 208
8 308 222 135 208 418 319 218 307
8 310 225 137 210 420 325 223 309
8 423 326 224 311 310 225 137 210
8 329 236 165 260 441 338 259 368
8 442 342 238 328 333 240 149 230
8 331 237 146 228 443 340 236 329
8 334 241 150 231 444 339 235 330
8 444 339 235 330 331 237 146 228
8 446 343 239 332 336 242 151 233
8 333 240 149 230 446 343 239 332
8 335 243 152 232 448 345 241 334
8 337 244 153 234 449 347 243 335
8 337 244 346 450 234 153 242 336
8 338 245 164 259 452 349 258 367
8 340 247 155 236 453 350 245 338
8 345 252 160 241 454 351 246 339
8 454 351 246 339 341 248 156 237
8 341 248 156 237 455 352 247 340
8 240 159 251 344 342 249 354 457
8 242 161 253 346 343 250 355 458
8 343 250 355 458 240 159 251 344
8 347 254 162 243 460 357 252 345
8 348 255 358 461 244 163 253 346
8 348 255 163 244 462 359 254 347
8 473 360 257 365 363 256 364 482
8 452 349 258 367 365 257 366 485
8 422 324 369 488 311 224 261 371
8 371 261 370 490 263 167 262 372
8 407 311 371 491 296 210 263 373
8 373 263 372 492 295 209 264 374
8 493 385 275 375 442 342 238 328
8 377 276 179 267 493 385 275 375
8 378 274 177 268 494 383 273 376
8 494 383 273 376 377 276 179 267
8 497 382 272 379 378 274 177 268
8 498 381 271 380 379 272 175 269
8 393 297 197 283 498 381 271 380
8 499 387 277 381 382 278 181 272
8 408 312 211 297 499 387 277 381
8 500 388 278 382 384 280 183 274
8 501 389 279 383 386 282 185 276
8 384 280 183 274 501 389 279 383
8 386 282 185 276 503 391 281 385
8 503 391 281 385 457 354 249 342
8 511 408 299 395 393 297 199 285
8 395 299 409 512 285 199 298 394
8 512 409 300 396 394 298 200 286
8 401 305 205 291 514 411 300 396
8 515 412 301 397 398 302 202 288
8 405 309 209 295 515 412 301 397
8 516 413 302 398 399 303 203 289
8 403 306 414 517 293 206 303 399
8 402 307 207 292 518 415 304 400
8 401 305 415 518 291 205 304 400
8 404 308 208 294 520 418 307 402
8 521 417 306 403 404 308 208 294
8 406 310 210 296 523 420 309 405
8 526 423 311 407 406 310 210 296
8 410 314 213 299 527 424 312 408
8 528 425 315 411 409 313 214 300
8 410 314 425 528 299 213 313 409
8 416 317 216 305 530 427 315 411
8 531 430 318 412 413 320 219 302
8 420 325 223 309 531 430 318 412
8 532 432 320 413 414 321 220 303
8 417 322 433 533 306 221 321 414
8 418 319 218 307 534 428 316 415
8 416 317 428 534 305 216 316 415
8 419 323 434 536 308 222 322 417
8 419 323 222 308 537 431 319 418
8 421 327 225 310 539 438 325 420
8 421 327 439 541 310 225 326 423
8 543 437 324 422 423 326 224 311
8 441 338 259 368 559 452 367 486
8 443 340 236 329 560 453 338 441
8 333 240 344 447 442 342 457 561
8 445 341 237 331 562 455 340 443
8 448 345 241 334 563 454 339 444
8 563 454 339 444 445 341 237 331
8 336 242 346 450 446 343 458 565
8 446 343 458 565 333 240 344 447
8 449 347 243 335 567 460 345 448
8 451 348 244 337 568 462 347 449
8 451 348 461 569 337 244 346 450
8 570 463 349 452 473 360 257 365
8 453 350 245 338 570 463 349 452
8 455 352 247 340 571 464 350 453
8 460 357 252 345 572 465 351 454
8 572 465 351 454 456 353 248 341
8 456 353 248 341 573 466 352 455
8 344 251 356 459 457 354 468 575
8 458 355 469 576 344 251 356 459
8 346 253 358 461 458 355 469 576
8 462 359 254 347 578 471 357 460
8 348 255 359 462 461 358 472 579
8 591 474 360 473 475 361 256 363
8 475 361 256 363 594 477 362 479
8 363 256 364 482 479 362 480 603
8 590 473 365 484 481 363 482 605
8 482 364 257 365 606 483 366 485
8 559 452 367 486 484 365 485 607
8 542 436 487 609 422 324 369 488
8 525 422 488 611 407 311 371 491
8 488 369 489 612 371 261 370 490
8 491 371 490 613 373 263 372 492
8 495 386 276 377 614 503 385 493
8 614 503 385 493 561 457 342 442
8 615 501 383 494 495 386 276 377
8 496 384 274 378 615 501 383 494
8 618 500 382 497 496 384 274 378
8 619 499 381 498 497 382 272 379
8 511 408 297 393 619 499 381 498
8 620 505 387 499 500 388 278 382
8 527 424 312 408 620 505 387 499
8 502 390 506 621 384 280 388 500
8 622 507 389 501 504 392 282 386
8 502 390 280 384 622 507 389 501
8 504 392 282 386 624 509 391 503
8 624 509 391 503 575 468 354 457
8 513 410 299 395 630 527 408 511
8 631 528 411 514 512 409 300 396
8 513 410 528 631 395 299 409 512
8 519 416 305 401 633 530 411 514
8 634 531 412 515 516 413 302 398
8 523 420 309 405 634 531 412 515
8 635 532 413 516 517 414 303 399
8 521 417 533 636 403 306 414 517
8 520 418 307 402 637 534 415 518
8 519 416 534 637 401 305 415 518
8 522 419 308 404 639 537 418 520
8 522 419 536 640 404 308 417 521
8 524 421 310 406 642 539 420 523
8 524 421 541 644 406 310 423 526
8 646 543 422 525 526 423 311 407
8 529 426 314 410 647 544 424 527
8 528 425 545 648 411 315 427 530
8 529 426 545 648 410 314 425 528
8 535 429 317 416 649 546 427 530
8 650 548 430 531 532 432 320 413
8 539 438 325 420 650 548 430 531
8 533 433 550 651 414 321 432 532
8 536 434 551 652 417 322 433 533
8 537 431 319 418 653 547 428 534
8 535 429 547 653 416 317 428 534
8 538 435 552 654 419 323 434 536
8 538 435 323 419 655 549 431 537
8 540 440 327 421 657 556 438 539
8 540 440 557 659 421 327 439 541
8 541 439 555 660 423 326 437 543
8 661 554 436 542 543 437 324 422
8 676 570 452 559 590 473 365 484
8 560 453 338 441 676 570 452 559
8 562 455 340 443 677 571 453 560
8 447 344 459 566 561 457 575 678
8 564 456 341 445 679 573 455 562
8 567 460 345 448 680 572 454 563
8 680 572 454 563 564 456 341 445
8 565 458 576 682 447 344 459 566
8 450 346 461 569 565 458 576 682
8 568 462 347 449 684 578 460 567
8 451 348 462 568 569 461 579 685
8 686 580 463 570 591 474 360 473
8 571 464 350 453 686 580 463 570
8 573 466 352 455 687 581 464 571
8 572 465 582 688 460 357 471 578
8 574 467 582 688 456 353 465 572
8 574 467 353 456 689 583 466 573
8 459 356 470 577 575 468 585 691
8 576 469 586 692 459 356 470 577
8 461 358 472 579 576 469 586 692
8 462 359 471 578 579 472 588 694
8 704 591 473 590 593 475 363 481
8 595 476 592 705 475 361 474 591
8 593 475 363 481 707 594 479 602
8 594 477 362 479 709 598 478 600
8 595 476 361 475 711 597 477 594
8 479 362 480 603 600 478 601 720
8 481 363 482 605 602 479 603 722
8 603 480 364 482 723 604 483 606
8 605 482 365 484 724 606 485 607
8 656 553 608 726 542 436 487 609
8 645 542 609 728 525 422 488 611
8 609 487 610 729 488 369 489 612
8 611 488 612 730 491 371 490 613
8 616 504 386 495 731 624 503 614
8 731 624 503 614 678 575 457 561
8 732 622 501 615 616 504 386 495
8 617 502 384 496 732 622 501 615
8 617 502 621 735 496 384 500 618
8 736 620 499 619 618 500 382 497
8 630 527 408 511 736 620 499 619
8 621 506 626 737 500 388 505 620
8 647 544 424 527 737 626 505 620
8 623 508 627 738 502 390 506 621
8 623 508 390 502 739 628 507 622
8 625 510 628 739 504 392 507 622
8 740 629 509 624 691 585 468 575
8 625 510 392 504 740 629 509 624
8 632 529 410 513 744 647 527 630
8 631 528 648 745 514 411 530 633
8 632 529 648 745 513 410 528 631
8 638 535 416 519 746 649 530 633
8 747 650 531 634 635 532 413 516
8 642 539 420 523 747 650 531 634
8 636 533 651 748 517 414 532 635
8 640 536 652 749 521 417 533 636
8 639 537 418 520 750 653 534 637
8 638 535 653 750 519 416 534 637
8 641 538 419 522 751 655 537 639
8 641 538 654 752 522 419 536 640
8 643 540 421 524 753 657 539 642
8 643 540 659 755 524 421 541 644
8 644 541 660 757 526 423 543 646
8 758 661 542 645 646 543 422 525
8 529 426 544 647 648 545 662 759
8 530 427 545 648 649 546 663 760
8 535 429 546 649 653 547 664 761
8 762 666 548 650 651 550 432 532
8 657 556 438 539 762 666 548 650
8 652 551 668 763 533 433 550 651
8 654 552 669 764 536 434 551 652
8 655 549 431 537 765 665 547 653
8 538 435 549 655 654 552 667 766
8 661 554 671 768 542 436 553 656
8 658 558 440 540 769 674 556 657
8 658 558 675 770 540 440 557 659
8 659 557 673 771 541 439 555 660
8 660 555 672 772 543 437 554 661
8 788 686 570 676 704 591 473 590
8 677 571 453 560 788 686 570 676
8 679 573 455 562 789 687 571 677
8 566 459 577 683 678 575 691 790
8 681 574 456 564 791 689 573 679
8 680 572 688 792 567 460 578 684
8 681 574 688 792 564 456 572 680
8 682 576 692 794 566 459 577 683
8 569 461 579 685 682 576 692 794
8 568 462 578 684 685 579 694 796
8 687 581 464 571 798 696 580 686
8 798 696 580 686 705 592 474 591
8 689 583 466 573 799 697 581 687
8 688 582 698 800 578 471 588 694
8 690 584 698 800 574 467 582 688
8 690 584 467 574 801 699 583 689
8 693 587 701 803 577 470 585 691
8 693 587 470 577 804 702 586 692
8 695 589 702 804 579 472 586 692
8 695 589 472 579 805 703 588 694
8 708 595 705 813 593 475 591 704
8 710 596 706 814 595 476 592 705
8 707 594 479 602 816 709 600 719
8 708 595 475 593 817 711 594 707
8 709 598 478 600 819 715 599 717
8 711 597 477 594 820 714 598 709
8 710 596 476 595 822 713 597 711
8 600 478 601 720 717 599 718 832
8 602 479 603 722 719 600 720 834
8 720 601 480 603 835 721 604 723
8 722 603 482 605 836 723 606 724
8 767 670 725 839 656 553 608 726
8 756 656 726 841 645 542 609 728
8 726 608 727 842 609 487 610 729
8 728 609 729 843 611 488 612 730
8 844 740 624 731 790 691 575 678
8 733 625 504 616 844 740 624 731
8 734 623 502 617 845 739 622 732
8 733 625 739 845 616 504 622 732
8 734 623 738 846 617 502 621 735
8 735 621 737 847 618 500 620 736
8 744 647 527 630 847 737 620 736
8 621 506 627 738 737 626 741 848
8 647 544 626 737 759 662 741 848
8 623 508 628 739 738 627 742 849
8 740 629 585 691 850 743 700 802
8 625 510 629 740 739 628 743 850
8 632 529 647 744 745 648 759 854
8 633 530 648 745 746 649 760 855
8 638 535 649 746 750 653 761 856
8 857 762 650 747 748 651 532 635
8 753 657 539 642 857 762 650 747
8 749 652 763 858 636 533 651 748
8 752 654 764 859 640 536 652 749
8 751 655 537 639 860 765 653 750
8 641 538 655 751 752 654 766 861
8 754 658 540 643 862 769 657 753
8 754 658 770 863 643 540 659 755
8 755 659 771 864 644 541 660 757
8 758 661 768 866 645 542 656 756
8 757 660 772 867 646 543 661 758
8 759 662 773 868 648 545 663 760
8 649 546 663 760 761 664 774 871
8 765 665 547 653 872 775 664 761
8 873 777 666 762 763 668 550 651
8 769 674 556 657 873 777 666 762
8 764 669 779 874 652 551 668 763
8 654 552 667 766 764 669 778 875
8 655 549 665 765 766 667 776 876
8 768 671 782 877 656 553 670 767
8 772 672 783 878 661 554 671 768
8 658 558 674 769 770 675 786 879
8 659 557 675 770 771 673 785 881
8 882 784 672 772 771 673 555 660
8 789 687 571 677 897 798 686 788
8 897 798 686 788 813 705 591 704
8 791 689 573 679 898 799 687 789
8 795 693 803 900 683 577 691 790
8 793 690 574 681 901 801 689 791
8 792 688 800 902 684 578 694 796
8 793 690 800 902 681 574 688 792
8 795 693 577 683 903 804 692 794
8 797 695 804 903 685 579 692 794
8 797 695 579 685 904 805 694 796
8 905 806 697 799 798 696 581 687
8 814 706 806 905 705 592 696 798
8 689 583 697 799 801 699 808 907
8 800 698 809 908 694 588 703 805
8 690 584 699 801 800 698 809 908
8 803 701 810 909 691 585 700 802
8 693 587 702 804 803 701 811 910
8 695 589 703 805 804 702 812 911
8 818 710 814 919 708 595 705 813
8 821 712 815 920 710 596 706 814
8 816 709 600 719 922 819 717 831
8 817 711 594 707 923 820 709 816
8 818 710 595 708 924 822 711 817
8 819 715 599 717 926 827 716 829
8 820 714 598 709 927 826 715 819
8 929 825 713 822 820 714 597 711
8 821 712 596 710 930 824 713 822
8 717 599 718 832 829 716 830 942
8 719 600 720 834 831 717 832 944
8 832 718 601 720 945 833 721 835
8 834 720 603 722 946 835 723 836
8 869 780 838 950 767 670 725 839
8 865 767 839 952 756 656 726 841
8 839 725 840 953 726 608 727 842
8 841 726 842 954 728 609 729 843
8 844 740 691 790 955 850 802 899
8 733 625 740 844 845 739 850 955
8 734 623 739 845 846 738 849 956
8 735 621 738 846 847 737 848 957
8 744 647 737 847 854 759 848 957
8 738 627 742 849 848 741 851 958
8 848 741 851 958 759 662 773 868
8 850 743 700 802 959 852 807 906
8 849 742 628 739 959 852 743 850
8 854 759 868 965 745 648 760 855
8 746 649 760 855 856 761 871 966
8 860 765 653 750 967 872 761 856
8 968 873 762 857 858 763 651 748
8 862 769 657 753 968 873 762 857
8 859 764 874 969 749 652 763 858
8 752 654 766 861 859 764 875 970
8 751 655 765 860 861 766 876 971
8 754 658 769 862 863 770 879 972
8 755 659 770 863 864 771 881 974
8 976 882 772 867 864 771 660 757
8 866 768 877 977 756 656 767 865
8 867 772 878 978 758 661 768 866
8 760 663 773 868 871 774 883 980
8 870 781 837 948 982 890 780 869
8 982 890 780 869 877 782 670 767
8 761 664 774 871 872 775 884 984
8 876 776 665 765 985 885 775 872
8 873 777 668 763 986 887 779 874
8 769 674 777 873 879 786 887 986
8 764 669 778 875 874 779 888 987
8 766 667 776 876 875 778 886 988
8 878 783 892 989 768 671 782 877
8 878 783 672 772 990 893 784 882
8 880 787 675 770 991 896 786 879
8 880 787 895 992 770 675 785 881
8 881 785 894 993 771 673 784 882
8 1006 905 799 898 897 798 687 789
8 919 814 905 1006 813 705 798 897
8 791 689 799 898 901 801 907 1007
8 900 803 909 1009 790 691 802 899
8 795 693 804 903 900 803 910 1010
8 902 800 908 1011 796 694 805 904
8 793 690 801 901 902 800 908 1011
8 797 695 805 904 903 804 911 1012
8 799 697 806 905 907 808 912 1013
8 920 815 912 1013 814 706 806 905
8 802 700 810 909 906 807 913 1014
8 801 699 808 907 908 809 914 1015
8 805 703 809 908 911 812 915 1016
8 803 701 811 910 909 810 916 1017
8 911 812 917 1018 804 702 811 910
8 925 821 920 1030 818 710 814 919
8 928 823 921 1031 821 712 815 920
8 922 819 717 831 1033 926 829 941
8 923 820 709 816 1034 927 819 922
8 1035 929 822 924 923 820 711 817
8 925 821 710 818 1036 930 822 924
8 1038 933 825 929 927 826 714 820
8 926 827 716 829 1039 935 828 939
8 927 826 715 819 1040 934 827 926
8 928 823 712 821 1041 931 824 930
8 1042 932 824 930 929 825 713 822
8 829 716 830 942 939 828 940 1058
8 831 717 832 944 941 829 942 1060
8 942 830 718 832 1061 943 833 945
8 944 832 720 834 1062 945 835 946
8 981 889 947 1064 870 781 837 948
8 948 837 949 1067 869 780 838 950
8 975 869 950 1069 865 767 839 952
8 950 838 951 1070 839 725 840 953
8 952 839 953 1071 841 726 842 954
8 955 850 802 899 1072 959 906 1008
8 956 849 739 845 1072 959 850 955
8 846 738 849 956 957 848 958 1073
8 957 848 958 1073 854 759 868 965
8 849 742 852 959 958 851 961 1076
8 960 853 961 1076 906 807 852 959
8 958 851 961 1076 868 773 883 980
8 960 853 807 906 1077 963 913 1014
8 855 760 868 965 966 871 980 1085
8 856 761 871 966 967 872 984 1086
8 971 876 765 860 1087 985 872 967
8 968 873 763 858 1088 986 874 969
8 862 769 873 968 972 879 986 1088
8 859 764 875 970 969 874 987 1089
8 861 766 876 971 970 875 988 1090
8 973 880 770 863 1091 991 879 972
8 973 880 992 1092 863 770 881 974
8 974 881 993 1093 864 771 882 976
8 979 870 948 1066 1094 982 869 975
8 1094 982 869 975 977 877 767 865
8 978 878 772 867 1095 990 882 976
8 978 878 989 1096 866 768 877 977
8 871 774 883 980 984 884 994 1099
8 983 891 999 1100 870 781 889 981
8 1101 1000 890 982 989 892 782 877
8 983 891 781 870 1101 1000 890 982
8 872 775 884 984 985 885 995 1103
8 876 776 885 985 988 886 996 1104
8 986 887 779 874 1105 998 888 987
8 879 786 887 986 991 896 998 1105
8 875 778 886 988 987 888 997 1106
8 990 893 1002 1107 878 783 892 989
8 1108 1003 893 990 993 894 784 882
8 880 787 896 991 992 895 1005 1109
8 993 894 785 881 1110 1004 895 992
8 898 799 905 1006 1007 907 1013 1120
8 1030 920 1013 1120 919 814 905 1006
8 901 801 907 1007 1011 908 1015 1121
8 899 802 909 1009 1008 906 1014 1122
8 900 803 910 1010 1009 909 1017 1123
8 1012 911 1018 1124 903 804 910 1010
8 904 805 908 1011 1012 911 1016 1125
8 1013 912 1020 1127 907 808 914 1015
8 1031 921 1020 1127 920 815 912 1013
8 1019 918 962 1075 1128 1021 913 1014
8 1128 1021 913 1014 1017 916 810 909
8 1015 914 1022 1129 908 809 915 1016
8 1016 915 1023 1130 911 812 917 1018
8 1018 917 1024 1131 910 811 916 1017
8 1037 928 1031 1148 925 821 920 1030
8 928 823 931 1041 1031 921 1032 1149
8 1033 926 829 941 1151 1039 939 1057
8 1034 927 819 922 1152 1040 926 1033
8 1153 1038 929 1035 1034 927 820 923
8 1154 1042 930 1036 1035 929 822 924
8 1037 928 821 925 1155 1041 930 1036
8 1039 935 828 939 1156 1047 938 1055
8 1157 1043 932 1042 1038 933 825 929
8 1038 933 826 927 1158 1045 934 1040
8 1040 934 827 926 1159 1046 935 1039
8 930 824 932 1042 1041 931 1044 1160
8 1051 936 1048 1165 1175 1052 937 1053
8 1156 1047 938 1055 1053 937 1054 1178
8 939 828 940 1058 1055 938 1056 1181
8 941 829 942 1060 1057 939 1058 1183
8 942 830 943 1061 1058 940 1059 1184
8 1060 942 832 944 1185 1061 945 1062
8 1082 964 1063 1188 981 889 947 1064
8 1097 981 1064 1190 979 870 948 1066
8 1064 947 1065 1191 948 837 949 1067
8 1066 948 1067 1193 975 869 950 1069
8 1067 949 1068 1194 950 838 951 1070
8 1069 950 1070 1195 952 839 953 1071
8 956 849 959 1072 1073 958 1076 1197
8 1074 960 1076 1197 1008 906 959 1072
8 1073 958 1076 1197 965 868 980 1085
8 1074 960 906 1008 1198 1077 1014 1122
8 1133 1026 1079 1199 1019 918 962 1075
8 1077 963 913 1014 1200 1080 962 1075
8 960 853 963 1077 1076 961 1078 1201
8 980 883 961 1076 1099 994 1078 1201
8 1210 1083 964 1082 1100 999 889 981
8 966 871 980 1085 1086 984 1099 1215
8 967 872 984 1086 1087 985 1103 1216
8 971 876 985 1087 1090 988 1104 1217
8 1088 986 874 969 1218 1105 987 1089
8 972 879 986 1088 1091 991 1105 1218
8 970 875 988 1090 1089 987 1106 1219
8 973 880 991 1091 1092 992 1109 1220
8 1093 993 881 974 1221 1110 992 1092
8 1222 1108 990 1095 1093 993 882 976
8 1223 1101 982 1094 1096 989 877 977
8 1098 983 870 979 1223 1101 982 1094
8 1095 990 1107 1224 978 878 989 1096
8 1098 983 1100 1225 979 870 981 1097
8 984 884 994 1099 1103 995 1111 1227
8 1102 1001 1115 1228 983 891 999 1100
8 1101 1000 892 989 1229 1116 1002 1107
8 1102 1001 891 983 1229 1116 1000 1101
8 985 885 995 1103 1104 996 1112 1230
8 988 886 996 1104 1106 997 1113 1231
8 1105 998 888 987 1232 1114 997 1106
8 991 896 998 1105 1109 1005 1114 1232
8 1108 1003 1117 1233 990 893 1002 1107
8 1108 1003 894 993 1233 1117 1004 1110
8 992 895 1005 1109 1110 1004 1118 1234
8 1120 1013 1127 1244 1007 907 1015 1121
8 1148 1031 1127 1244 1030 920 1013 1120
8 1121 1015 1129 1245 1011 908 1016 1125
8 1126 1019 1075 1196 1246 1128 1014 1122
8 1246 1128 1014 1122 1123 1017 909 1009
8 1124 1018 1131 1247 1010 910 1017 1123
8 1125 1016 1130 1248 1012 911 1018 1124
8 1127 1020 1137 1254 1015 914 1022 1129
8 1031 921 1032 1149 1127 1020 1137 1254
8 1134 1027 918 1019 1257 1140 1021 1128
8 1257 1140 1021 1128 1131 1024 916 1017
8 1129 1022 1141 1258 1016 915 1023 1130
8 1130 1023 1142 1259 1018 917 1024 1131
8 1261 1144 1025 1132 1133 1026 1079 1199
8 1255 1138 1025 1132 1135 1028 1144 1261
8 1133 1026 918 1019 1262 1145 1027 1134
8 1136 1029 1139 1256 1263 1146 1028 1135
8 1037 928 1041 1155 1148 1031 1149 1275
8 1041 931 1044 1160 1149 1032 1150 1276
8 1151 1039 939 1057 1278 1156 1055 1180
8 1152 1040 926 1033 1279 1159 1039 1151
8 1153 1038 927 1034 1280 1158 1040 1152
8 1281 1157 1042 1154 1153 1038 929 1035
8 1036 930 1042 1154 1155 1041 1160 1282
8 1283 1164 1046 1159 1156 1047 935 1039
8 1165 1048 1164 1283 1053 937 1047 1156
8 1157 1043 933 1038 1284 1161 1045 1158
8 1157 1043 1161 1284 1042 932 1044 1160
8 1040 934 1046 1159 1158 1045 1163 1285
8 1166 1049 1167 1292 1051 936 1048 1165
8 1166 1049 936 1051 1293 1168 1050 1172
8 1051 936 1052 1175 1172 1050 1173 1306
8 1174 1051 1165 1290 1308 1175 1053 1177
8 1053 937 1054 1178 1175 1052 1176 1309
8 1278 1156 1055 1180 1177 1053 1178 1311
8 1055 938 1056 1181 1178 1054 1179 1312
8 1057 939 1058 1183 1180 1055 1181 1314
8 1058 940 1059 1184 1181 1056 1182 1315
8 1060 942 1061 1185 1183 1058 1184 1316
8 1208 1081 1187 1321 1082 964 1063 1188
8 1209 1082 1188 1322 1097 981 1064 1190
8 1188 1063 1189 1323 1064 947 1065 1191
8 1190 1064 1191 1325 1066 948 1067 1193
8 1191 1065 1192 1326 1067 949 1068 1194
8 1067 1193 1069 950 1194 1327 1195 1070
8 1250 1133 1199 1330 1126 1019 1075 1196
8 1198 1077 1014 1122 1331 1200 1075 1196
8 1074 960 1077 1198 1197 1076 1201 1332
8 1085 980 1076 1197 1215 1099 1201 1332
8 1199 1079 1203 1333 1075 962 1080 1200
8 1132 1025 1119 1243 1199 1079 1203 1333
8 1201 1078 963 1077 1334 1202 1080 1200
8 1099 994 1078 1201 1227 1111 1202 1334
8 1343 1207 1081 1208 1210 1083 964 1082
8 1214 1084 1186 1319 1343 1207 1081 1208
8 1345 1210 1082 1209 1225 1100 981 1097
8 1346 1211 1083 1210 1228 1115 999 1100
8 1086 984 1099 1215 1216 1103 1227 1352
8 1087 985 1103 1216 1217 1104 1230 1353
8 1090 988 1104 1217 1219 1106 1231 1354
8 1218 1105 987 1089 1355 1232 1106 1219
8 1091 991 1105 1218 1220 1109 1232 1355
8 1092 992 1109 1220 1221 1110 1234 1356
8 1222 1108 1233 1357 1095 990 1107 1224
8 1222 1108 993 1093 1357 1233 1110 1221
8 1223 1101 989 1096 1358 1229 1107 1224
8 1226 1102 983 1098 1358 1229 1101 1223
8 1226 1102 1228 1359 1098 983 1100 1225
8 1103 995 1111 1227 1230 1112 1235 1360
8 1107 1002 1117 1233 1229 1116 1240 1362
8 1102 1001 1116 1229 1228 1115 1240 1362
8 1104 996 1112 1230 1231 1113 1236 1363
8 1364 1237 1114 1232 1231 1113 997 1106
8 1109 1005 1114 1232 1234 1118 1238 1365
8 1110 1004 1118 1234 1233 1117 1241 1366
8 1242 1374 1255 1138 1119 1243 1132 1025
8 1244 1127 1254 1376 1121 1015 1129 1245
8 1148 1031 1149 1275 1244 1127 1254 1376
8 1245 1129 1258 1377 1125 1016 1130 1248
8 1251 1134 1019 1126 1378 1257 1128 1246
8 1378 1257 1128 1246 1247 1131 1017 1123
8 1248 1130 1259 1379 1124 1018 1131 1247
8 1261 1381 1250 1133 1132 1249 1330 1199
8 1255 1380 1252 1135 1132 1249 1381 1261
8 1250 1133 1019 1126 1382 1262 1134 1251
8 1253 1136 1256 1385 1384 1263 1135 1252
8 1254 1137 1265 1387 1129 1022 1141 1258
8 1149 1032 1150 1276 1254 1137 1265 1387
8 1028 1135 1255 1138 1139 1256 1388 1266
8 1136 1029 1147 1264 1256 1139 1267 1389
8 1390 1268 1140 1257 1259 1142 1024 1131
8 1260 1143 1027 1134 1390 1268 1140 1257
8 1258 1141 1269 1391 1130 1023 1142 1259
8 1262 1145 1027 1134 1393 1271 1143 1260
8 1261 1144 1026 1133 1394 1272 1145 1262
8 1135 1028 1144 1261 1263 1146 1272 1394
8 1136 1029 1146 1263 1264 1147 1273 1395
8 1155 1041 1160 1282 1275 1149 1276 1405
8 1276 1150 1044 1160 1406 1277 1162 1286
8 1408 1283 1159 1279 1278 1156 1039 1151
8 1290 1165 1283 1408 1177 1053 1156 1278
8 1152 1040 1159 1279 1280 1158 1285 1409
8 1281 1157 1038 1153 1410 1284 1158 1280
8 1281 1157 1284 1410 1154 1042 1160 1282
8 1159 1046 1164 1283 1285 1163 1289 1412
8 1292 1167 1289 1412 1165 1048 1164 1283
8 1158 1045 1163 1285 1284 1161 1288 1413
8 1284 1161 1288 1413 1160 1044 1162 1286
8 1291 1166 1292 1418 1174 1051 1165 1290
8 1291 1166 1051 1174 1419 1293 1172 1305
8 1294 1169 1296 1421 1166 1049 1167 1292
8 1293 1168 1050 1172 1422 1295 1171 1303
8 1294 1169 1049 1166 1423 1297 1168 1293
8 1422 1295 1171 1303 1301 1170 1302 1435
8 1172 1050 1173 1306 1303 1171 1304 1438
8 1174 1051 1175 1308 1305 1172 1306 1440
8 1175 1052 1176 1309 1306 1173 1307 1441
8 1177 1053 1178 1311 1308 1175 1309 1443
8 1178 1054 1179 1312 1309 1176 1310 1444
8 1180 1055 1181 1314 1311 1178 1312 1446
8 1056 1181 1312 1179 1182 1315 1447 1313
8 1183 1058 1184 1316 1314 1181 1315 1448
8 1319 1186 1084 1214 1451 1317 1213 1350
8 1319 1186 1318 1453 1208 1081 1187 1321
8 1321 1187 1320 1456 1188 1063 1189 1323
8 1344 1208 1321 1457 1209 1082 1188 1322
8 1322 1188 1323 1458 1190 1064 1191 1325
8 1323 1189 1324 1459 1191 1065 1192 1326
8 1191 1325 1193 1067 1326 1460 1327 1194
8 1242 1374 1243 1119 1328 1462 1335 1204
8 1330 1199 1333 1465 1196 1075 1200 1331
8 1132 1249 1330 1199 1243 1375 1465 1333
8 1332 1201 1077 1198 1466 1334 1200 1331
8 1215 1099 1201 1332 1352 1227 1334 1466
8 1119 1243 1333 1203 1204 1335 1470 1338
8 1333 1203 1338 1470 1200 1080 1202 1334
8 1227 1111 1202 1334 1360 1235 1338 1470
8 1328 1462 1335 1204 1205 1336 1471 1339
8 1337 1206 1340 1472 1464 1329 1205 1336
8 1346 1211 1342 1479 1210 1083 1207 1343
8 1346 1211 1115 1228 1479 1342 1239 1361
8 1348 1212 1084 1214 1479 1342 1207 1343
8 1480 1343 1208 1344 1345 1210 1082 1209
8 1351 1214 1319 1454 1480 1343 1208 1344
8 1481 1346 1210 1345 1359 1228 1100 1225
8 1348 1212 1347 1483 1214 1084 1213 1350
8 1216 1103 1227 1352 1353 1230 1360 1488
8 1217 1104 1230 1353 1354 1231 1363 1489
8 1490 1364 1232 1355 1354 1231 1106 1219
8 1220 1109 1232 1355 1356 1234 1365 1491
8 1221 1110 1234 1356 1357 1233 1366 1492
8 1224 1107 1233 1357 1358 1229 1362 1493
8 1226 1102 1229 1358 1359 1228 1362 1493
8 1230 1112 1235 1360 1363 1236 1367 1496
8 1361 1239 1115 1228 1497 1371 1240 1362
8 1366 1241 1372 1498 1233 1117 1240 1362
8 1364 1237 1113 1231 1499 1368 1236 1363
8 1364 1237 1368 1499 1232 1114 1238 1365
8 1234 1118 1238 1365 1366 1241 1369 1500
8 1507 1373 1242 1374 1388 1266 1138 1255
8 1508 1374 1243 1375 1380 1255 1132 1249
8 1376 1254 1387 1509 1245 1129 1258 1377
8 1275 1149 1276 1405 1376 1254 1387 1509
8 1377 1258 1391 1510 1248 1130 1259 1379
8 1511 1390 1257 1378 1379 1259 1131 1247
8 1383 1260 1134 1251 1511 1390 1257 1378
8 1252 1135 1256 1385 1380 1255 1388 1512
8 1261 1381 1513 1394 1133 1250 1382 1262
8 1135 1252 1384 1263 1261 1381 1513 1394
8 1382 1262 1134 1251 1514 1393 1260 1383
8 1253 1136 1263 1384 1386 1264 1395 1516
8 1253 1136 1264 1386 1385 1256 1389 1517
8 1387 1265 1397 1519 1258 1141 1269 1391
8 1276 1150 1277 1406 1387 1265 1397 1519
8 1256 1139 1267 1389 1388 1266 1398 1520
8 1264 1147 1274 1396 1389 1267 1399 1521
8 1392 1270 1143 1260 1522 1400 1268 1390
8 1390 1268 1142 1259 1522 1400 1269 1391
8 1392 1270 1401 1523 1260 1143 1271 1393
8 1272 1394 1524 1402 1145 1262 1393 1271
8 1395 1273 1146 1263 1524 1402 1272 1394
8 1273 1395 1264 1147 1403 1526 1396 1274
8 1405 1276 1160 1282 1534 1406 1286 1411
8 1414 1287 1407 1535 1286 1162 1277 1406
8 1279 1159 1283 1408 1409 1285 1412 1537
8 1418 1292 1412 1537 1290 1165 1283 1408
8 1280 1158 1285 1409 1410 1284 1413 1538
8 1410 1284 1413 1538 1282 1160 1286 1411
8 1285 1163 1289 1412 1413 1288 1417 1540
8 1421 1296 1417 1540 1292 1167 1289 1412
8 1414 1287 1162 1286 1541 1416 1288 1413
8 1420 1294 1421 1545 1291 1166 1292 1418
8 1419 1293 1172 1305 1546 1422 1303 1437
8 1420 1294 1166 1291 1547 1423 1293 1419
8 1294 1169 1297 1423 1421 1296 1425 1548
8 1423 1297 1168 1293 1549 1424 1295 1422
8 1301 1170 1298 1427 1422 1295 1424 1549
8 1432 1300 1428 1554 1301 1170 1298 1427
8 1431 1299 1428 1554 1560 1430 1300 1432
8 1563 1433 1300 1432 1435 1302 1170 1301
8 1546 1422 1303 1437 1434 1301 1435 1565
8 1303 1171 1304 1438 1435 1302 1436 1566
8 1305 1172 1306 1440 1437 1303 1438 1568
8 1306 1173 1307 1441 1438 1304 1439 1569
8 1308 1175 1309 1443 1440 1306 1441 1571
8 1309 1176 1310 1444 1441 1307 1442 1572
8 1311 1178 1312 1446 1443 1309 1444 1574
8 1179 1312 1444 1310 1313 1447 1575 1445
8 1314 1181 1315 1448 1446 1312 1447 1576
8 1350 1213 1349 1486 1451 1317 1449 1579
8 1451 1317 1450 1581 1319 1186 1318 1453
8 1454 1319 1214 1351 1582 1451 1350 1487
8 1453 1318 1452 1584 1321 1187 1320 1456
8 1454 1319 1453 1585 1344 1208 1321 1457
8 1456 1320 1455 1586 1323 1189 1324 1459
8 1457 1321 1456 1587 1322 1188 1323 1458
8 1458 1323 1459 1588 1325 1191 1326 1460
8 1205 1336 1464 1329 1328 1462 1590 1461
8 1507 1373 1461 1590 1374 1242 1328 1462
8 1508 1374 1462 1591 1375 1243 1335 1467
8 1337 1206 1329 1464 1473 1341 1463 1594
8 1375 1243 1335 1467 1465 1333 1470 1596
8 1465 1333 1470 1596 1331 1200 1334 1466
8 1352 1227 1334 1466 1488 1360 1470 1596
8 1591 1462 1336 1468 1467 1335 1471 1597
8 1469 1337 1472 1598 1595 1464 1336 1468
8 1471 1339 1474 1600 1335 1204 1338 1470
8 1600 1474 1367 1496 1470 1338 1235 1360
8 1336 1205 1340 1472 1471 1339 1475 1601
8 1337 1206 1341 1473 1472 1340 1476 1602
8 1495 1370 1478 1609 1361 1239 1342 1479
8 1348 1212 1342 1479 1483 1347 1478 1609
8 1481 1346 1479 1610 1345 1210 1343 1480
8 1481 1346 1228 1359 1610 1479 1361 1494
8 1484 1348 1214 1351 1610 1479 1343 1480
8 1483 1347 1482 1612 1350 1213 1349 1486
8 1484 1348 1483 1613 1351 1214 1350 1487
8 1353 1230 1360 1488 1489 1363 1496 1616
8 1490 1364 1231 1354 1617 1499 1363 1489
8 1490 1364 1499 1617 1355 1232 1365 1491
8 1356 1234 1365 1491 1492 1366 1500 1619
8 1492 1366 1498 1620 1357 1233 1362 1493
8 1494 1361 1228 1359 1621 1497 1362 1493
8 1495 1370 1239 1361 1622 1504 1371 1497
8 1363 1236 1367 1496 1499 1368 1501 1623
8 1497 1371 1240 1362 1624 1505 1372 1498
8 1625 1503 1372 1498 1500 1369 1241 1366
8 1365 1238 1368 1499 1500 1369 1502 1626
8 1520 1398 1506 1633 1388 1266 1373 1507
8 1634 1507 1374 1508 1512 1388 1255 1380
8 1509 1387 1519 1635 1377 1258 1391 1510
8 1405 1276 1406 1534 1509 1387 1519 1635
8 1515 1392 1260 1383 1636 1522 1390 1511
8 1511 1390 1259 1379 1636 1522 1391 1510
8 1385 1256 1389 1517 1512 1388 1520 1637
8 1513 1394 1262 1382 1638 1524 1393 1514
8 1395 1516 1638 1524 1263 1384 1513 1394
8 1515 1392 1523 1639 1383 1260 1393 1514
8 1516 1395 1526 1640 1386 1264 1396 1518
8 1386 1264 1396 1518 1517 1389 1521 1641
8 1519 1397 1527 1643 1391 1269 1400 1522
8 1535 1407 1527 1643 1406 1277 1397 1519
8 1389 1267 1399 1521 1520 1398 1528 1644
8 1645 1529 1399 1521 1525 1404 1274 1396
8 1392 1270 1400 1522 1523 1401 1531 1646
8 1524 1402 1271 1393 1648 1532 1401 1523
8 1403 1526 1648 1532 1273 1395 1524 1402
8 1525 1404 1274 1396 1649 1533 1403 1526
8 1539 1414 1535 1657 1411 1286 1406 1534
8 1542 1415 1536 1658 1414 1287 1407 1535
8 1409 1285 1412 1537 1538 1413 1540 1660
8 1545 1421 1540 1660 1418 1292 1412 1537
8 1539 1414 1286 1411 1661 1541 1413 1538
8 1540 1417 1544 1663 1413 1288 1416 1541
8 1421 1296 1425 1548 1540 1417 1544 1663
8 1542 1415 1287 1414 1664 1543 1416 1541
8 1420 1294 1423 1547 1545 1421 1548 1666
8 1547 1423 1293 1419 1667 1549 1422 1546
8 1434 1301 1427 1553 1546 1422 1549 1667
8 1423 1297 1424 1549 1548 1425 1550 1668
8 1551 1426 1550 1668 1427 1298 1424 1549
8 1551 1426 1298 1427 1671 1552 1428 1554
8 1562 1432 1554 1674 1434 1301 1427 1553
8 1431 1299 1429 1558 1554 1428 1555 1675
8 1431 1299 1430 1560 1558 1429 1557 1680
8 1560 1430 1300 1432 1683 1559 1433 1563
8 1561 1431 1554 1674 1684 1560 1432 1562
8 1685 1563 1432 1562 1565 1435 1301 1434
8 1435 1302 1436 1566 1563 1433 1564 1686
8 1437 1303 1438 1568 1565 1435 1566 1688
8 1438 1304 1439 1569 1566 1436 1567 1689
8 1440 1306 1441 1571 1568 1438 1569 1691
8 1441 1307 1442 1572 1569 1439 1570 1692
8 1443 1309 1444 1574 1571 1441 1572 1694
8 1310 1444 1572 1442 1445 1575 1695 1573
8 1446 1312 1447 1576 1574 1444 1575 1696
8 1486 1349 1485 1614 1579 1449 1577 1699
8 1451 1317 1449 1579 1581 1450 1578 1701
8 1487 1350 1486 1615 1582 1451 1579 1702
8 1581 1450 1580 1704 1453 1318 1452 1584
8 1582 1451 1581 1705 1454 1319 1453 1585
8 1584 1452 1583 1706 1456 1320 1455 1586
8 1585 1453 1584 1707 1457 1321 1456 1587
8 1587 1456 1586 1708 1458 1323 1459 1588
8 1633 1506 1589 1710 1507 1373 1461 1590
8 1464 1329 1461 1590 1594 1463 1589 1710
8 1468 1336 1462 1591 1595 1464 1590 1711
8 1634 1507 1590 1711 1508 1374 1462 1591
8 1473 1341 1463 1594 1603 1477 1593 1716
8 1469 1337 1464 1595 1599 1473 1594 1717
8 1471 1597 1467 1335 1600 1718 1596 1470
8 1718 1600 1496 1616 1596 1470 1360 1488
8 1336 1468 1597 1471 1472 1598 1719 1601
8 1469 1337 1473 1599 1598 1472 1602 1720
8 1722 1604 1501 1623 1600 1474 1367 1496
8 1475 1601 1471 1339 1604 1722 1600 1474
8 1602 1476 1605 1723 1472 1340 1475 1601
8 1476 1602 1724 1606 1341 1473 1603 1477
8 1483 1347 1478 1609 1612 1482 1608 1731
8 1495 1370 1504 1622 1609 1478 1608 1731
8 1618 1495 1609 1732 1494 1361 1479 1610
8 1484 1348 1479 1610 1613 1483 1609 1732
8 1486 1349 1482 1612 1614 1485 1611 1733
8 1613 1483 1612 1734 1487 1350 1486 1615
8 1489 1363 1496 1616 1617 1499 1623 1736
8 1491 1365 1499 1617 1619 1500 1626 1737
8 1618 1495 1361 1494 1738 1622 1497 1621
8 1739 1625 1498 1620 1619 1500 1366 1492
8 1621 1497 1362 1493 1740 1624 1498 1620
8 1742 1631 1504 1622 1624 1505 1371 1497
8 1743 1628 1502 1626 1623 1501 1368 1499
8 1744 1630 1505 1624 1625 1503 1372 1498
8 1745 1629 1503 1625 1626 1502 1369 1500
8 1520 1398 1528 1644 1633 1506 1632 1751
8 1637 1520 1633 1752 1512 1388 1507 1634
8 1635 1519 1643 1753 1510 1391 1522 1636
8 1657 1535 1643 1753 1534 1406 1519 1635
8 1515 1392 1522 1636 1639 1523 1646 1754
8 1517 1389 1521 1641 1637 1520 1644 1755
8 1524 1638 1756 1648 1393 1514 1639 1523
8 1640 1526 1395 1516 1756 1648 1524 1638
8 1642 1525 1396 1518 1757 1649 1526 1640
8 1758 1645 1521 1641 1642 1525 1396 1518
8 1646 1531 1400 1522 1760 1650 1527 1643
8 1535 1407 1536 1658 1643 1527 1650 1760
8 1521 1399 1529 1645 1644 1528 1651 1761
8 1647 1530 1652 1762 1525 1404 1529 1645
8 1401 1523 1648 1532 1531 1646 1763 1655
8 1525 1404 1533 1649 1647 1530 1654 1765
8 1533 1649 1766 1656 1403 1526 1648 1532
8 1662 1542 1658 1774 1539 1414 1535 1657
8 1542 1415 1543 1664 1658 1536 1659 1775
8 1660 1540 1663 1777 1538 1413 1541 1661
8 1545 1421 1548 1666 1660 1540 1663 1777
8 1662 1542 1414 1539 1778 1664 1541 1661
8 1664 1543 1416 1541 1779 1665 1544 1663
8 1548 1425 1550 1668 1663 1544 1665 1779
8 1547 1423 1549 1667 1666 1548 1668 1781
8 1670 1551 1668 1781 1553 1427 1549 1667
8 1551 1426 1552 1671 1668 1550 1669 1782
8 1670 1551 1427 1553 1784 1671 1554 1674
8 1675 1555 1672 1785 1554 1428 1552 1671
8 1678 1556 1673 1789 1558 1429 1555 1675
8 1561 1431 1558 1681 1674 1554 1675 1790
8 1794 1677 1556 1678 1680 1557 1429 1558
8 1560 1430 1559 1683 1680 1557 1679 1797
8 1561 1431 1560 1684 1681 1558 1680 1798
8 1563 1433 1564 1686 1683 1559 1682 1800
8 1684 1560 1432 1562 1801 1683 1563 1685
8 1565 1435 1566 1688 1685 1563 1686 1802
8 1566 1436 1567 1689 1686 1564 1687 1803
8 1568 1438 1569 1691 1688 1566 1689 1805
8 1569 1439 1570 1692 1689 1567 1690 1806
8 1571 1441 1572 1694 1691 1569 1692 1808
8 1442 1572 1692 1570 1573 1695 1809 1693
8 1574 1444 1575 1696 1694 1572 1695 1810
8 1614 1485 1592 1712 1699 1577 1697 1813
8 1579 1449 1577 1699 1701 1578 1698 1815
8 1615 1486 1614 1735 1702 1579 1699 1816
8 1701 1578 1700 1818 1581 1450 1580 1704
8 1582 1451 1579 1702 1705 1581 1701 1819
8 1704 1580 1703 1820 1584 1452 1583 1706
8 1705 1581 1704 1821 1585 1453 1584 1707
8 1707 1584 1706 1822 1587 1456 1586 1708
8 1710 1589 1506 1633 1824 1709 1632 1751
8 1594 1463 1589 1710 1716 1593 1709 1824
8 1752 1633 1710 1825 1634 1507 1590 1711
8 1595 1464 1590 1711 1717 1594 1710 1825
8 1830 1714 1592 1712 1733 1611 1485 1614
8 1603 1477 1593 1716 1725 1607 1715 1834
8 1599 1473 1594 1717 1721 1603 1716 1835
8 1837 1722 1623 1736 1718 1600 1496 1616
8 1719 1601 1722 1837 1597 1471 1600 1718
8 1602 1720 1598 1472 1723 1838 1719 1601
8 1720 1602 1473 1599 1839 1724 1603 1721
8 1723 1605 1726 1840 1601 1475 1604 1722
8 1840 1726 1628 1743 1722 1604 1501 1623
8 1724 1606 1727 1841 1602 1476 1605 1723
8 1725 1607 1728 1842 1603 1477 1606 1724
8 1612 1482 1608 1731 1733 1611 1730 1849
8 1741 1627 1730 1849 1622 1504 1608 1731
8 1613 1483 1609 1732 1734 1612 1731 1850
8 1618 1495 1622 1738 1732 1609 1731 1850
8 1615 1486 1612 1734 1735 1614 1733 1851
8 1852 1743 1626 1737 1736 1623 1499 1617
8 1853 1745 1625 1739 1737 1626 1500 1619
8 1855 1742 1622 1738 1740 1624 1497 1621
8 1856 1744 1624 1740 1739 1625 1498 1620
8 1741 1627 1504 1622 1857 1746 1631 1742
8 1742 1631 1505 1624 1858 1749 1630 1744
8 1859 1747 1629 1745 1743 1628 1502 1626
8 1860 1748 1630 1744 1745 1629 1503 1625
8 1644 1528 1651 1761 1751 1632 1750 1865
8 1637 1520 1644 1755 1752 1633 1751 1866
8 1754 1646 1522 1636 1867 1760 1643 1753
8 1657 1535 1658 1774 1753 1643 1760 1867
8 1639 1523 1646 1754 1756 1648 1763 1868
8 1641 1521 1645 1758 1755 1644 1761 1869
8 1757 1649 1526 1640 1870 1766 1648 1756
8 1642 1525 1649 1757 1759 1647 1765 1871
8 1759 1647 1762 1872 1642 1525 1645 1758
8 1760 1650 1767 1874 1646 1531 1655 1763
8 1658 1536 1659 1775 1760 1650 1767 1874
8 1762 1652 1768 1875 1645 1529 1651 1761
8 1764 1653 1769 1876 1647 1530 1652 1762
8 1656 1766 1877 1773 1532 1648 1763 1655
8 1771 1879 1765 1654 1653 1764 1647 1530
8 1533 1649 1765 1654 1656 1766 1880 1772
8 1662 1542 1664 1778 1774 1658 1775 1887
8 1664 1543 1665 1779 1775 1659 1776 1888
8 1778 1664 1541 1661 1890 1779 1663 1777
8 1666 1548 1668 1781 1777 1663 1779 1890
8 1782 1669 1780 1891 1668 1550 1665 1779
8 1670 1551 1671 1784 1781 1668 1782 1893
8 1671 1552 1672 1785 1782 1669 1783 1894
8 1790 1675 1785 1896 1674 1554 1671 1784
8 1675 1555 1673 1789 1785 1672 1786 1897
8 1792 1676 1788 1903 1678 1556 1673 1789
8 1795 1678 1789 1904 1681 1558 1675 1790
8 1792 1676 1556 1678 1906 1791 1677 1794
8 1680 1557 1679 1797 1794 1677 1793 1909
8 1910 1794 1678 1795 1798 1680 1558 1681
8 1683 1559 1682 1800 1797 1679 1796 1912
8 1684 1560 1683 1801 1798 1680 1797 1913
8 1686 1564 1687 1803 1800 1682 1799 1915
8 1685 1563 1686 1802 1801 1683 1800 1916
8 1688 1566 1689 1805 1802 1686 1803 1917
8 1689 1567 1690 1806 1803 1687 1804 1918
8 1691 1569 1692 1808 1805 1689 1806 1920
8 1692 1570 1693 1809 1806 1690 1807 1921
8 1694 1572 1695 1810 1808 1692 1809 1922
8 1829 1713 1811 1926 1712 1592 1697 1813
8 1813 1697 1812 1928 1699 1577 1698 1815
8 1735 1614 1712 1828 1816 1699 1813 1929
8 1815 1698 1814 1931 1701 1578 1700 1818
8 1702 1579 1699 1816 1819 1701 1815 1932
8 1818 1700 1817 1933 1704 1580 1703 1820
8 1819 1701 1818 1934 1705 1581 1704 1821
8 1821 1704 1820 1935 1707 1584 1706 1822
8 1824 1709 1632 1751 1937 1823 1750 1865
8 1716 1593 1709 1824 1834 1715 1823 1937
8 1825 1710 1633 1752 1938 1824 1751 1866
8 1717 1594 1710 1825 1835 1716 1824 1938
8 1945 1830 1712 1828 1851 1733 1614 1735
8 1830 1714 1831 1946 1712 1592 1713 1829
8 1947 1832 1714 1830 1849 1730 1611 1733
8 1843 1729 1607 1725 1950 1833 1715 1834
8 1721 1603 1716 1835 1836 1725 1834 1951
8 1836 1725 1842 1953 1721 1603 1724 1839
8 1723 1838 1719 1601 1840 1954 1837 1722
8 1954 1840 1743 1852 1837 1722 1623 1736
8 1724 1839 1720 1602 1841 1955 1838 1723
8 1841 1727 1844 1956 1723 1605 1726 1840
8 1956 1844 1747 1859 1840 1726 1628 1743
8 1728 1842 1724 1606 1845 1957 1841 1727
8 1725 1607 1729 1843 1842 1728 1846 1958
8 1741 1627 1746 1857 1849 1730 1848 1965
8 1734 1612 1731 1850 1851 1733 1849 1966
8 1854 1741 1849 1966 1738 1622 1731 1850
8 1967 1859 1745 1853 1852 1743 1626 1737
8 1968 1860 1744 1856 1853 1745 1625 1739
8 1854 1741 1622 1738 1969 1857 1742 1855
8 1855 1742 1624 1740 1970 1858 1744 1856
8 1857 1746 1631 1742 1971 1861 1749 1858
8 1858 1749 1630 1744 1972 1863 1748 1860
8 1859 1747 1862 1973 1745 1629 1748 1860
8 1875 1768 1864 1977 1761 1651 1750 1865
8 1755 1644 1761 1869 1866 1751 1865 1978
8 1867 1760 1874 1979 1754 1646 1763 1868
8 1774 1658 1775 1887 1867 1760 1874 1979
8 1870 1766 1648 1756 1980 1877 1763 1868
8 1872 1762 1875 1981 1758 1645 1761 1869
8 1757 1649 1766 1870 1871 1765 1880 1982
8 1983 1879 1764 1873 1871 1765 1647 1759
8 1873 1764 1876 1984 1759 1647 1762 1872
8 1877 1773 1655 1763 1986 1881 1767 1874
8 1775 1659 1776 1888 1874 1767 1881 1986
8 1876 1769 1882 1987 1762 1652 1768 1875
8 1878 1770 1883 1988 1764 1653 1769 1876
8 1880 1772 1656 1766 1989 1886 1773 1877
8 1878 1770 1653 1764 1990 1884 1771 1879
8 1765 1654 1772 1880 1879 1771 1885 1991
8 1778 1664 1779 1890 1887 1775 1888 1997
8 1998 1889 1776 1888 1891 1780 1665 1779
8 1893 1782 1891 2000 1781 1668 1779 1890
8 1894 1783 1892 2001 1782 1669 1780 1891
8 1784 1671 1785 1896 1893 1782 1894 2003
8 1897 1786 1895 2004 1785 1672 1783 1894
8 1790 1675 1789 1904 1896 1785 1897 2006
8 1901 1787 1898 2007 1789 1673 1786 1897
8 1903 1788 1900 2013 1789 1673 1787 1901
8 1792 1676 1791 1906 1903 1788 1902 2016
8 1907 1792 1903 2017 1795 1678 1789 1904
8 1906 1791 1677 1794 2019 1905 1793 1909
8 1907 1792 1678 1795 2020 1906 1794 1910
8 1797 1679 1796 1912 1909 1793 1908 2022
8 1798 1680 1797 1913 1910 1794 1909 2023
8 1800 1682 1799 1915 1912 1796 1911 2025
8 1801 1683 1800 1916 1913 1797 1912 2026
8 1803 1687 1804 1918 1915 1799 1914 2028
8 1802 1686 1803 1917 1916 1800 1915 2029
8 1805 1689 1806 1920 1917 1803 1918 2030
8 1806 1690 1807 1921 1918 1804 1919 2031
8 1808 1692 1809 1922 1920 1806 1921 2032
8 1939 1826 1924 2037 1829 1713 1811 1926
8 1926 1811 1925 2039 1813 1697 1812 1928
8 1944 1829 1926 2040 1828 1712 1813 1929
8 1928 1812 1927 2042 1815 1698 1814 1931
8 1929 1813 1928 2043 1816 1699 1815 1932
8 1931 1814 1930 2044 1818 1700 1817 1933
8 1932 1815 1931 2045 1819 1701 1818 1934
8 1934 1818 1933 2046 1821 1704 1820 1935
8 2048 1936 1823 1937 1977 1864 1750 1865
8 1950 1833 1715 1834 2048 1936 1823 1937
8 1938 1824 1751 1866 2049 1937 1865 1978
8 1835 1716 1824 1938 1951 1834 1937 2049
8 1939 1826 1713 1829 2053 1942 1831 1946
8 1940 1827 1923 2035 2053 1942 1826 1939
8 1945 1830 1946 2058 1828 1712 1829 1944
8 2059 1947 1830 1945 1966 1849 1733 1851
8 1947 1832 1730 1849 2060 1948 1848 1965
8 1947 1832 1948 2060 1830 1714 1831 1946
8 1959 1847 1729 1843 2063 1949 1833 1950
8 1952 1843 1725 1836 2064 1950 1834 1951
8 1836 1725 1843 1952 1953 1842 1958 2066
8 1953 1842 1957 2067 1839 1724 1841 1955
8 1841 1955 1838 1723 1956 2068 1954 1840
8 2068 1956 1859 1967 1954 1840 1743 1852
8 1956 1844 1960 2069 1859 1747 1862 1973
8 1845 1957 1841 1727 1960 2069 1956 1844
8 1728 1842 1957 1845 1846 1958 2071 1961
8 1962 2072 1959 1847 1846 1958 1843 1729
8 1971 1861 1964 2077 1857 1746 1848 1965
8 1854 1741 1857 1969 1966 1849 1965 2078
8 1967 1859 1973 2079 1853 1745 1860 1968
8 1970 1858 1744 1856 2080 1972 1860 1968
8 1969 1857 1742 1855 2081 1971 1858 1970
8 1971 1861 1749 1858 2082 1974 1863 1972
8 1973 1862 1975 2083 1860 1748 1863 1972
8 1987 1882 1976 2086 1875 1768 1864 1977
8 1981 1875 1977 2087 1869 1761 1865 1978
8 1980 1877 1763 1868 2088 1986 1874 1979
8 1887 1775 1888 1997 1979 1874 1986 2088
8 1880 1982 2089 1989 1766 1870 1980 1877
8 1984 1876 1987 2090 1872 1762 1875 1981
8 1765 1871 1983 1879 1880 1982 2091 1991
8 1985 1878 1764 1873 2092 1990 1879 1983
8 1985 1878 1988 2093 1873 1764 1876 1984
8 2094 1992 1881 1986 1998 1889 1776 1888
8 1986 1881 1992 2094 1877 1773 1886 1989
8 1988 1883 1993 2095 1876 1769 1882 1987
8 1878 1770 1884 1990 1988 1883 1994 2096
8 1991 1885 1772 1880 2097 1996 1886 1989
8 1879 1771 1885 1991 1990 1884 1995 2098
8 2103 1998 1888 1997 2000 1891 1779 1890
8 2104 1999 1889 1998 2001 1892 1780 1891
8 2003 1894 2001 2106 1893 1782 1891 2000
8 2004 1895 2002 2107 1894 1783 1892 2001
8 2006 1897 2004 2109 1896 1785 1894 2003
8 2007 1898 2005 2110 1897 1786 1895 2004
8 2014 1901 2007 2112 1904 1789 1897 2006
8 2011 1899 2008 2113 1901 1787 1898 2007
8 2119 2010 1899 2011 2013 1900 1787 1901
8 2016 1902 2012 2122 1903 1788 1900 2013
8 2017 1903 2013 2123 1904 1789 1901 2014
8 1906 1791 1905 2019 2016 1902 2015 2125
8 1907 1792 1906 2020 2017 1903 2016 2126
8 1909 1793 1908 2022 2019 1905 2018 2128
8 2020 1906 1794 1910 2129 2019 1909 2023
8 1912 1796 1911 2025 2022 1908 2021 2131
8 1913 1797 1912 2026 2023 1909 2022 2132
8 1915 1799 1914 2028 2025 1911 2024 2134
8 1916 1800 1915 2029 2026 1912 2025 2135
8 1918 1804 1919 2031 2028 1914 2027 2136
8 1917 1803 1918 2030 2029 1915 2028 2137
8 1920 1806 1921 2032 2030 1918 2031 2138
8 1940 1827 1941 2054 2035 1923 2033 2140
8 2035 1923 2034 2143 1939 1826 1924 2037
8 2037 1924 2036 2146 1926 1811 1925 2039
8 2051 1939 2037 2147 1944 1829 1926 2040
8 2039 1925 2038 2149 1928 1812 1927 2042
8 2040 1926 2039 2150 1929 1813 1928 2043
8 2042 1927 2041 2151 1931 1814 1930 2044
8 2043 1928 2042 2152 1932 1815 1931 2045
8 2045 1931 2044 2153 1934 1818 1933 2046
8 2155 2047 1936 2048 2086 1976 1864 1977
8 2063 1949 1833 1950 2155 2047 1936 2048
8 2156 2048 1937 2049 2087 1977 1865 1978
8 2064 1950 1834 1951 2156 2048 1937 2049
8 2051 1939 1829 1944 2160 2053 1946 2058
8 2052 1940 2035 2144 2160 2053 1939 2051
8 2053 1942 1831 1946 2163 2057 1948 2060
8 2055 1943 1827 1940 2163 2057 1942 2053
8 2055 1943 2056 2164 1940 1827 1941 2054
8 2059 1947 1849 1966 2167 2060 1965 2078
8 2059 1947 2060 2167 1945 1830 1946 2058
8 2077 1964 2061 2168 1965 1848 1948 2060
8 2070 1963 1847 1959 2170 2062 1949 2063
8 2065 1959 1843 1952 2171 2063 1950 2064
8 2173 2072 1958 2066 2065 1959 1843 1952
8 1953 1842 1958 2066 2067 1957 2071 2174
8 2068 1956 2069 2175 1967 1859 1973 2079
8 2067 1957 2069 2175 1955 1841 1956 2068
8 1845 1957 2069 1960 1961 2071 2176 2073
8 2069 1960 2073 2176 1973 1862 1975 2083
8 2070 1963 2075 2177 1959 1847 1962 2072
8 1846 1958 2071 1961 1962 2072 2178 2074
8 2077 1964 1861 1971 2182 2076 1974 2082
8 2081 1971 2077 2183 1969 1857 1965 2078
8 2079 1973 2083 2184 1968 1860 1972 2080
8 2081 1971 1858 1970 2185 2082 1972 2080
8 2083 1975 2084 2186 1972 1863 1974 2082
8 2086 1976 1882 1987 2189 2085 1993 2095
8 2090 1987 2086 2190 1981 1875 1977 2087
8 2191 2094 1986 2088 2103 1998 1888 1997
8 2088 1986 2094 2191 1980 1877 1989 2089
8 1991 2091 2192 2097 1880 1982 2089 1989
8 2093 1988 2095 2193 1984 1876 1987 2090
8 1879 1983 2092 1990 1991 2091 2194 2098
8 1985 1878 1990 2092 2093 1988 2096 2195
8 2097 1996 1886 1989 2196 2099 1992 2094
8 2196 2099 1992 2094 2104 1999 1889 1998
8 1994 2096 1988 1883 2100 2197 2095 1993
8 2096 1994 1884 1990 2198 2101 1995 2098
8 1995 2098 2199 2102 1885 1991 2097 1996
8 2203 2104 1998 2103 2106 2001 1891 2000
8 2107 2002 2105 2204 2001 1892 1999 2104
8 2109 2004 2107 2206 2003 1894 2001 2106
8 2110 2005 2108 2207 2004 1895 2002 2107
8 2112 2007 2110 2209 2006 1897 2004 2109
8 2113 2008 2111 2210 2007 1898 2005 2110
8 2120 2011 2113 2212 2014 1901 2007 2112
8 2117 2009 2114 2213 2011 1899 2008 2113
8 2219 2116 2009 2117 2119 2010 1899 2011
8 2222 2118 2010 2119 2122 2012 1900 2013
8 2223 2119 2011 2120 2123 2013 1901 2014
8 2016 1902 2015 2125 2122 2012 2121 2225
8 2126 2016 2122 2226 2017 1903 2013 2123
8 2019 1905 2018 2128 2125 2015 2124 2228
8 2020 1906 2019 2129 2126 2016 2125 2229
8 2022 1908 2021 2131 2128 2018 2127 2231
8 2023 1909 2022 2132 2129 2019 2128 2232
8 2025 1911 2024 2134 2131 2021 2130 2234
8 2026 1912 2025 2135 2132 2022 2131 2235
8 1914 2028 2134 2024 2027 2136 2236 2133
8 2029 1915 2028 2137 2135 2025 2134 2237
8 2030 1918 2031 2138 2137 2028 2136 2238
8 2157 2050 2139 2240 2054 1941 2033 2140
8 2052 1940 2054 2161 2144 2035 2140 2242
8 2140 2033 2141 2243 2035 1923 2034 2143
8 2143 2034 2142 2246 2037 1924 2036 2146
8 2144 2035 2143 2247 2051 1939 2037 2147
8 2146 2036 2145 2249 2039 1925 2038 2149
8 2147 2037 2146 2250 2040 1926 2039 2150
8 2149 2038 2148 2251 2042 1927 2041 2151
8 2150 2039 2149 2252 2043 1928 2042 2152
8 2152 2042 2151 2253 2045 1931 2044 2153
8 2255 2154 2047 2155 2189 2085 1976 2086
8 2170 2062 1949 2063 2255 2154 2047 2155
8 2256 2155 2048 2156 2190 2086 1977 2087
8 2171 2063 1950 2064 2256 2155 2048 2156
8 2258 2159 2050 2157 2164 2056 1941 2054
8 2160 2053 1946 2058 2262 2163 2060 2167
8 2162 2055 1940 2052 2262 2163 2053 2160
8 2162 2055 2164 2263 2052 1940 2054 2161
8 2163 2057 1948 2060 2264 2165 2061 2168
8 2055 1943 2057 2163 2164 2056 2165 2264
8 2182 2076 2166 2268 2077 1964 2061 2168
8 2183 2077 2168 2269 2078 1965 2060 2167
8 2070 1963 2062 2170 2177 2075 2169 2271
8 2172 2070 1959 2065 2272 2170 2063 2171
8 2172 2070 2177 2273 2065 1959 2072 2173
8 2066 1958 2072 2173 2174 2071 2178 2274
8 2067 1957 2071 2174 2175 2069 2176 2275
8 2175 2069 2176 2275 2079 1973 2083 2184
8 2071 1961 2074 2178 2176 2073 2179 2276
8 2176 2073 2179 2276 2083 1975 2084 2186
8 2072 1962 2075 2177 2178 2074 2180 2277
8 2182 2076 1974 2082 2280 2181 2084 2186
8 2183 2077 1971 2081 2281 2182 2082 2185
8 2184 2083 2186 2282 2080 1972 2082 2185
8 2189 2085 1993 2095 2285 2188 2100 2197
8 2190 2086 1987 2090 2286 2189 2095 2193
8 2192 2097 1989 2089 2287 2196 2094 2191
8 2287 2196 2094 2191 2203 2104 1998 2103
8 2194 2098 1991 2091 2288 2199 2097 2192
8 2195 2096 2197 2289 2093 1988 2095 2193
8 2096 2195 2290 2198 1990 2092 2194 2098
8 2097 1996 2099 2196 2199 2102 2200 2291
8 2196 2099 1999 2104 2291 2200 2105 2204
8 2100 2197 2292 2201 1994 2096 2198 2101
8 1995 2098 2198 2101 2102 2199 2293 2202
8 2206 2107 2204 2296 2106 2001 2104 2203
8 2207 2108 2205 2297 2107 2002 2105 2204
8 2209 2110 2207 2299 2109 2004 2107 2206
8 2210 2111 2208 2300 2110 2005 2108 2207
8 2212 2113 2210 2302 2112 2007 2110 2209
8 2213 2114 2211 2303 2113 2008 2111 2210
8 2220 2117 2213 2305 2120 2011 2113 2212
8 2216 2115 2214 2306 2117 2009 2114 2213
8 2216 2115 2009 2117 2311 2217 2116 2219
8 2219 2116 2010 2119 2314 2218 2118 2222
8 2315 2219 2117 2220 2223 2119 2011 2120
8 2122 2012 2121 2225 2222 2118 2221 2317
8 2318 2222 2119 2223 2226 2122 2013 2123
8 2125 2015 2124 2228 2225 2121 2224 2320
8 2126 2016 2125 2229 2226 2122 2225 2321
8 2128 2018 2127 2231 2228 2124 2227 2323
8 2129 2019 2128 2232 2229 2125 2228 2324
8 2131 2021 2130 2234 2231 2127 2230 2326
8 2132 2022 2131 2235 2232 2128 2231 2327
8 2134 2024 2133 2236 2234 2130 2233 2328
8 2135 2025 2134 2237 2235 2131 2234 2329
8 2137 2028 2136 2238 2237 2134 2236 2330
8 2157 2050 2158 2259 2240 2139 2239 2332
8 2257 2157 2240 2334 2161 2054 2140 2242
8 2240 2139 2241 2335 2140 2033 2141 2243
8 2242 2140 2243 2337 2144 2035 2143 2247
8 2243 2141 2244 2338 2143 2034 2142 2246
8 2246 2142 2245 2341 2146 2036 2145 2249
8 2247 2143 2246 2342 2147 2037 2146 2250
8 2249 2145 2248 2343 2149 2038 2148 2251
8 2250 2146 2249 2344 2150 2039 2149 2252
8 2252 2149 2251 2345 2152 2042 2151 2253
8 2169 2271 2347 2254 2062 2170 2255 2154
8 2189 2085 2188 2285 2255 2154 2254 2347
8 2348 2255 2155 2256 2286 2189 2086 2190
8 2272 2170 2063 2171 2348 2255 2155 2256
8 2349 2258 2157 2257 2263 2164 2054 2161
8 2258 2159 2261 2351 2157 2050 2158 2259
8 2258 2159 2056 2164 2351 2261 2165 2264
8 2262 2163 2060 2167 2355 2264 2168 2269
8 2162 2055 2163 2262 2263 2164 2264 2355
8 2357 2266 2165 2264 2268 2166 2061 2168
8 2268 2166 2076 2182 2361 2267 2181 2280
8 2281 2182 2268 2362 2183 2077 2168 2269
8 2271 2169 2270 2364 2177 2075 2180 2277
8 2172 2070 2170 2272 2273 2177 2271 2365
8 2072 2173 2274 2178 2177 2273 2366 2277
8 2071 2174 2275 2176 2178 2274 2367 2276
8 2275 2176 2276 2367 2184 2083 2186 2282
8 2283 2187 2084 2186 2368 2278 2179 2276
8 2178 2074 2180 2277 2276 2179 2278 2368
8 2283 2187 2279 2370 2186 2084 2181 2280
8 2281 2182 2082 2185 2371 2280 2186 2282
8 2188 2285 2374 2284 2100 2197 2292 2201
8 2286 2189 2095 2193 2375 2285 2197 2289
8 2192 2097 2196 2287 2288 2199 2291 2376
8 2287 2196 2104 2203 2376 2291 2204 2296
8 2194 2098 2199 2288 2290 2198 2293 2377
8 2289 2197 2096 2195 2378 2292 2198 2290
8 2291 2200 2105 2204 2379 2294 2205 2297
8 2199 2102 2200 2291 2293 2202 2294 2379
8 2198 2101 2202 2293 2292 2201 2295 2380
8 2299 2207 2297 2383 2206 2107 2204 2296
8 2300 2208 2298 2384 2207 2108 2205 2297
8 2302 2210 2300 2386 2209 2110 2207 2299
8 2303 2211 2301 2387 2210 2111 2208 2300
8 2305 2213 2303 2389 2212 2113 2210 2302
8 2306 2214 2304 2390 2213 2114 2211 2303
8 2310 2216 2306 2392 2220 2117 2213 2305
8 2308 2215 2307 2393 2216 2115 2214 2306
8 2308 2215 2115 2216 2396 2309 2217 2311
8 2310 2216 2117 2220 2398 2311 2219 2315
8 2311 2217 2116 2219 2399 2312 2218 2314
8 2314 2218 2118 2222 2402 2313 2221 2317
8 2315 2219 2119 2223 2403 2314 2222 2318
8 2225 2121 2224 2320 2317 2221 2316 2405
8 2226 2122 2225 2321 2318 2222 2317 2406
8 2228 2124 2227 2323 2320 2224 2319 2408
8 2229 2125 2228 2324 2321 2225 2320 2409
8 2231 2127 2230 2326 2323 2227 2322 2411
8 2232 2128 2231 2327 2324 2228 2323 2412
8 2234 2130 2233 2328 2326 2230 2325 2413
8 2235 2131 2234 2329 2327 2231 2326 2414
8 2237 2134 2236 2330 2329 2234 2328 2415
8 2259 2158 2260 2352 2332 2239 2331 2417
8 2257 2157 2259 2350 2334 2240 2332 2419
8 2240 2139 2239 2332 2335 2241 2333 2420
8 2334 2240 2335 2422 2242 2140 2243 2337
8 2335 2241 2336 2423 2243 2141 2244 2338
8 2337 2243 2338 2425 2247 2143 2246 2342
8 2338 2244 2339 2426 2246 2142 2245 2341
8 2341 2245 2340 2428 2249 2145 2248 2343
8 2342 2246 2341 2429 2250 2146 2249 2344
8 2344 2249 2343 2430 2252 2149 2251 2345
8 2188 2285 2347 2254 2284 2374 2432 2346
8 2347 2254 2346 2432 2271 2169 2270 2364
8 2365 2271 2170 2272 2433 2347 2255 2348
8 2286 2189 2285 2375 2348 2255 2347 2433
8 2349 2258 2351 2435 2257 2157 2259 2350
8 2349 2258 2164 2263 2435 2351 2264 2355
8 2259 2158 2261 2351 2352 2260 2354 2437
8 2356 2265 2354 2437 2264 2165 2261 2351
8 2441 2357 2264 2355 2362 2268 2168 2269
8 2356 2265 2165 2264 2442 2358 2266 2357
8 2443 2359 2266 2357 2361 2267 2166 2268
8 2370 2279 2360 2446 2280 2181 2267 2361
8 2362 2268 2182 2281 2447 2361 2280 2371
8 2180 2277 2368 2278 2270 2364 2449 2363
8 2271 2365 2273 2177 2364 2450 2366 2277
8 2372 2283 2186 2282 2451 2368 2276 2367
8 2178 2274 2367 2276 2277 2366 2451 2368
8 2283 2187 2278 2368 2370 2279 2369 2452
8 2372 2283 2370 2453 2282 2186 2280 2371
8 2284 2374 2455 2373 2201 2292 2380 2295
8 2375 2285 2197 2289 2456 2374 2292 2378
8 2376 2291 2204 2296 2457 2379 2297 2383
8 2288 2199 2291 2376 2377 2293 2379 2457
8 2198 2290 2378 2292 2293 2377 2458 2380
8 2293 2202 2294 2379 2380 2295 2381 2459
8 2384 2298 2381 2459 2297 2205 2294 2379
8 2386 2300 2384 2463 2299 2207 2297 2383
8 2387 2301 2385 2464 2300 2208 2298 2384
8 2389 2303 2387 2466 2302 2210 2300 2386
8 2390 2304 2388 2467 2303 2211 2301 2387
8 2392 2306 2390 2469 2305 2213 2303 2389
8 2393 2307 2391 2470 2306 2214 2304 2390
8 2395 2308 2393 2472 2310 2216 2306 2392
8 2308 2215 2309 2396 2393 2307 2394 2473
8 2395 2308 2216 2310 2475 2396 2311 2398
8 2396 2309 2217 2311 2476 2397 2312 2399
8 2398 2311 2219 2315 2478 2399 2314 2403
8 2399 2312 2218 2314 2479 2400 2313 2402
8 2317 2221 2316 2405 2402 2313 2401 2482
8 2403 2314 2222 2318 2483 2402 2317 2406
8 2320 2224 2319 2408 2405 2316 2404 2485
8 2321 2225 2320 2409 2406 2317 2405 2486
8 2323 2227 2322 2411 2408 2319 2407 2488
8 2324 2228 2323 2412 2409 2320 2408 2489
8 2326 2230 2325 2413 2411 2322 2410 2490
8 2327 2231 2326 2414 2412 2323 2411 2491
8 2329 2234 2328 2415 2414 2326 2413 2492
8 2417 2331 2260 2352 2494 2416 2353 2438
8 2350 2259 2352 2436 2419 2332 2417 2496
8 2332 2239 2331 2417 2420 2333 2418 2497
8 2334 2240 2332 2419 2422 2335 2420 2499
8 2420 2333 2421 2500 2335 2241 2336 2423
8 2422 2335 2423 2502 2337 2243 2338 2425
8 2423 2336 2424 2503 2338 2244 2339 2426
8 2425 2338 2426 2505 2342 2246 2341 2429
8 2426 2339 2427 2506 2341 2245 2340 2428
8 2429 2341 2428 2507 2344 2249 2343 2430
8 2432 2346 2284 2374 2509 2431 2373 2455
8 2432 2346 2431 2509 2364 2270 2363 2449
8 2375 2285 2374 2456 2433 2347 2432 2510
8 2347 2433 2365 2271 2432 2510 2450 2364
8 2350 2259 2351 2435 2436 2352 2437 2514
8 2440 2356 2437 2514 2355 2264 2351 2435
8 2352 2260 2354 2437 2438 2353 2439 2516
8 2356 2265 2358 2442 2437 2354 2439 2516
8 2440 2356 2264 2355 2518 2442 2357 2441
8 2519 2443 2357 2441 2447 2361 2268 2362
8 2443 2359 2444 2520 2357 2266 2358 2442
8 2443 2359 2267 2361 2520 2444 2360 2446
8 2446 2360 2279 2370 2523 2445 2369 2452
8 2453 2370 2446 2524 2371 2280 2361 2447
8 2449 2363 2448 2525 2368 2278 2369 2452
8 2366 2277 2364 2450 2451 2368 2449 2526
8 2372 2283 2368 2451 2453 2370 2452 2527
8 2455 2373 2295 2380 2529 2454 2382 2460
8 2456 2374 2292 2378 2530 2455 2380 2458
8 2377 2293 2379 2457 2458 2380 2459 2531
8 2463 2384 2459 2531 2383 2297 2379 2457
8 2533 2461 2382 2460 2459 2381 2295 2380
8 2464 2385 2461 2533 2384 2298 2381 2459
8 2466 2387 2464 2537 2386 2300 2384 2463
8 2467 2388 2465 2538 2387 2301 2385 2464
8 2469 2390 2467 2540 2389 2303 2387 2466
8 2470 2391 2468 2541 2390 2304 2388 2467
8 2472 2393 2470 2543 2392 2306 2390 2469
8 2393 2307 2394 2473 2470 2391 2471 2544
8 2395 2308 2396 2475 2472 2393 2473 2546
8 2396 2309 2397 2476 2473 2394 2474 2547
8 2475 2396 2311 2398 2549 2476 2399 2478
8 2476 2397 2312 2399 2550 2477 2400 2479
8 2478 2399 2314 2403 2552 2479 2402 2483
8 2479 2400 2313 2402 2553 2480 2401 2482
8 2405 2316 2404 2485 2482 2401 2481 2556
8 2406 2317 2405 2486 2483 2402 2482 2557
8 2408 2319 2407 2488 2485 2404 2484 2559
8 2409 2320 2408 2489 2486 2405 2485 2560
8 2411 2322 2410 2490 2488 2407 2487 2561
8 2412 2323 2411 2491 2489 2408 2488 2562
8 2414 2326 2413 2492 2491 2411 2490 2563
8 2513 2434 2493 2565 2438 2353 2416 2494
8 2496 2417 2352 2436 2567 2494 2438 2515
8 2494 2416 2495 2568 2417 2331 2418 2497
8 2419 2332 2417 2496 2499 2420 2497 2570
8 2497 2418 2498 2571 2420 2333 2421 2500
8 2499 2420 2500 2573 2422 2335 2423 2502
8 2500 2421 2501 2574 2423 2336 2424 2503
8 2502 2423 2503 2576 2425 2338 2426 2505
8 2503 2424 2504 2577 2426 2339 2427 2506
8 2505 2426 2506 2578 2429 2341 2428 2507
8 2509 2431 2373 2455 2580 2508 2454 2529
8 2509 2431 2508 2580 2449 2363 2448 2525
8 2432 2510 2581 2509 2374 2456 2530 2455
8 2432 2510 2450 2364 2509 2581 2526 2449
8 2583 2511 2434 2513 2516 2439 2353 2438
8 2436 2352 2437 2514 2515 2438 2516 2588
8 2440 2356 2442 2518 2514 2437 2516 2588
8 2442 2358 2444 2520 2516 2439 2517 2589
8 2519 2443 2520 2591 2441 2357 2442 2518
8 2519 2443 2361 2447 2591 2520 2446 2524
8 2446 2360 2445 2523 2520 2444 2521 2592
8 2525 2448 2522 2593 2452 2369 2445 2523
8 2524 2446 2370 2453 2594 2523 2452 2527
8 2526 2449 2525 2595 2451 2368 2452 2527
8 2534 2462 2528 2597 2460 2382 2454 2529
8 2530 2455 2380 2458 2598 2529 2460 2532
8 2599 2533 2460 2532 2531 2459 2380 2458
8 2537 2464 2533 2599 2463 2384 2459 2531
8 2534 2462 2382 2460 2601 2535 2461 2533
8 2538 2465 2535 2601 2464 2385 2461 2533
8 2540 2467 2538 2604 2466 2387 2464 2537
8 2541 2468 2539 2605 2467 2388 2465 2538
8 2543 2470 2541 2607 2469 2390 2467 2540
8 2470 2391 2471 2544 2541 2468 2542 2608
8 2472 2393 2473 2546 2543 2470 2544 2610
8 2473 2394 2474 2547 2544 2471 2545 2611
8 2475 2396 2476 2549 2546 2473 2547 2613
8 2476 2397 2477 2550 2547 2474 2548 2614
8 2549 2476 2399 2478 2616 2550 2479 2552
8 2479 2400 2480 2553 2550 2477 2551 2617
8 2552 2479 2402 2483 2619 2553 2482 2557
8 2482 2401 2481 2556 2553 2480 2554 2620
8 2485 2404 2484 2559 2556 2481 2555 2623
8 2486 2405 2485 2560 2557 2482 2556 2624
8 2488 2407 2487 2561 2559 2484 2558 2625
8 2489 2408 2488 2562 2560 2485 2559 2626
8 2491 2411 2490 2563 2562 2488 2561 2627
8 2513 2434 2512 2585 2565 2493 2564 2630
8 2586 2513 2565 2632 2515 2438 2494 2567
8 2565 2493 2566 2633 2494 2416 2495 2568
8 2567 2494 2568 2635 2496 2417 2497 2570
8 2568 2495 2569 2636 2497 2418 2498 2571
8 2570 2497 2571 2638 2499 2420 2500 2573
8 2571 2498 2572 2639 2500 2421 2501 2574
8 2573 2500 2574 2641 2502 2423 2503 2576
8 2574 2501 2575 2642 2503 2424 2504 2577
8 2576 2503 2577 2643 2505 2426 2506 2578
8 2597 2528 2579 2645 2529 2454 2508 2580
8 2580 2508 2579 2645 2525 2448 2522 2593
8 2581 2509 2455 2530 2646 2580 2529 2598
8 2581 2509 2580 2646 2526 2449 2525 2595
8 2583 2511 2582 2648 2513 2434 2512 2585
8 2583 2511 2439 2516 2648 2582 2517 2589
8 2649 2583 2513 2586 2588 2516 2438 2515
8 2589 2517 2444 2520 2653 2587 2521 2592
8 2518 2442 2520 2591 2588 2516 2589 2654
8 2593 2522 2590 2655 2523 2445 2521 2592
8 2524 2446 2523 2594 2591 2520 2592 2656
8 2595 2525 2593 2657 2527 2452 2523 2594
8 2602 2536 2596 2659 2534 2462 2528 2597
8 2600 2534 2597 2660 2532 2460 2529 2598
8 2600 2534 2460 2532 2661 2601 2533 2599
8 2604 2538 2601 2661 2537 2464 2533 2599
8 2602 2536 2462 2534 2663 2603 2535 2601
8 2601 2535 2465 2538 2663 2603 2539 2605
8 2607 2541 2605 2665 2540 2467 2538 2604
8 2608 2542 2606 2666 2541 2468 2539 2605
8 2543 2470 2544 2610 2607 2541 2608 2668
8 2544 2471 2545 2611 2608 2542 2609 2669
8 2546 2473 2547 2613 2610 2544 2611 2671
8 2547 2474 2548 2614 2611 2545 2612 2672
8 2549 2476 2550 2616 2613 2547 2614 2674
8 2550 2477 2551 2617 2614 2548 2615 2675
8 2552 2479 2553 2619 2616 2550 2617 2677
8 2553 2480 2554 2620 2617 2551 2618 2678
8 2557 2482 2556 2624 2619 2553 2620 2680
8 2556 2481 2555 2623 2620 2554 2621 2681
8 2559 2484 2558 2625 2623 2555 2622 2683
8 2560 2485 2559 2626 2624 2556 2623 2684
8 2562 2488 2561 2627 2626 2559 2625 2685
8 2690 2629 2564 2630 2650 2584 2512 2585
8 2586 2513 2585 2651 2632 2565 2630 2691
8 2630 2564 2631 2692 2565 2493 2566 2633
8 2632 2565 2633 2694 2567 2494 2568 2635
8 2633 2566 2634 2695 2568 2495 2569 2636
8 2635 2568 2636 2697 2570 2497 2571 2638
8 2636 2569 2637 2698 2571 2498 2572 2639
8 2638 2571 2639 2700 2573 2500 2574 2641
8 2639 2572 2640 2701 2574 2501 2575 2642
8 2641 2574 2642 2702 2576 2503 2577 2643
8 2597 2528 2596 2659 2645 2579 2644 2704
8 2645 2579 2644 2704 2593 2522 2590 2655
8 2660 2597 2645 2705 2598 2529 2580 2646
8 2646 2580 2645 2705 2595 2525 2593 2657
8 2650 2584 2512 2585 2707 2647 2582 2648
8 2648 2582 2517 2589 2707 2647 2587 2653
8 2649 2583 2648 2708 2586 2513 2585 2651
8 2649 2583 2516 2588 2708 2648 2589 2654
8 2655 2590 2652 2710 2592 2521 2587 2653
8 2654 2589 2520 2591 2711 2653 2592 2656
8 2657 2593 2655 2712 2594 2523 2592 2656
8 2602 2536 2603 2663 2659 2596 2658 2714
8 2662 2602 2659 2715 2600 2534 2597 2660
8 2662 2602 2534 2600 2717 2663 2601 2661
8 2661 2601 2538 2604 2717 2663 2605 2665
8 2666 2606 2664 2718 2605 2539 2603 2663
8 2668 2608 2666 2720 2607 2541 2605 2665
8 2608 2542 2609 2669 2666 2606 2667 2721
8 2610 2544 2611 2671 2668 2608 2669 2723
8 2611 2545 2612 2672 2669 2609 2670 2724
8 2613 2547 2614 2674 2671 2611 2672 2726
8 2614 2548 2615 2675 2672 2612 2673 2727
8 2616 2550 2617 2677 2674 2614 2675 2729
8 2617 2551 2618 2678 2675 2615 2676 2730
8 2619 2553 2620 2680 2677 2617 2678 2732
8 2620 2554 2621 2681 2678 2618 2679 2733
8 2624 2556 2623 2684 2680 2620 2681 2735
8 2681 2621 2555 2623 2736 2682 2622 2683
8 2626 2559 2625 2685 2684 2623 2683 2737
8 2688 2628 2584 2650 2740 2686 2647 2707
8 2688 2628 2687 2742 2650 2584 2629 2690
8 2690 2629 2689 2745 2630 2564 2631 2692
8 2746 2690 2630 2691 2709 2650 2585 2651
8 2691 2630 2692 2747 2632 2565 2633 2694
8 2692 2631 2693 2748 2633 2566 2634 2695
8 2694 2633 2695 2750 2635 2568 2636 2697
8 2695 2634 2696 2751 2636 2569 2637 2698
8 2697 2636 2698 2753 2638 2571 2639 2700
8 2698 2637 2699 2754 2639 2572 2640 2701
8 2700 2639 2701 2755 2641 2574 2642 2702
8 2659 2596 2658 2714 2704 2644 2703 2757
8 2704 2644 2703 2757 2655 2590 2652 2710
8 2660 2597 2659 2715 2705 2645 2704 2758
8 2705 2645 2704 2758 2657 2593 2655 2712
8 2759 2706 2647 2707 2710 2652 2587 2653
8 2709 2650 2585 2651 2760 2707 2648 2708
8 2708 2648 2589 2654 2760 2707 2653 2711
8 2712 2655 2710 2761 2656 2592 2653 2711
8 2763 2713 2658 2714 2718 2664 2603 2663
8 2662 2602 2663 2717 2715 2659 2714 2764
8 2720 2666 2718 2767 2665 2605 2663 2717
8 2768 2719 2664 2718 2721 2667 2606 2666
8 2668 2608 2669 2723 2720 2666 2721 2770
8 2669 2609 2670 2724 2721 2667 2722 2771
8 2671 2611 2672 2726 2723 2669 2724 2773
8 2672 2612 2673 2727 2724 2670 2725 2774
8 2674 2614 2675 2729 2726 2672 2727 2776
8 2675 2615 2676 2730 2727 2673 2728 2777
8 2677 2617 2678 2732 2729 2675 2730 2779
8 2678 2618 2679 2733 2730 2676 2731 2780
8 2680 2620 2681 2735 2732 2678 2733 2782
8 2733 2679 2621 2681 2783 2734 2682 2736
8 2735 2681 2623 2684 2784 2736 2683 2737
8 2740 2686 2647 2707 2787 2738 2706 2759
8 2688 2628 2686 2740 2742 2687 2739 2789
8 2743 2688 2650 2709 2790 2740 2707 2760
8 2742 2687 2741 2792 2690 2629 2689 2745
8 2743 2688 2742 2793 2709 2650 2690 2746
8 2745 2689 2744 2795 2692 2631 2693 2748
8 2746 2690 2745 2796 2691 2630 2692 2747
8 2747 2692 2748 2797 2694 2633 2695 2750
8 2748 2693 2749 2798 2695 2634 2696 2751
8 2750 2695 2751 2800 2697 2636 2698 2753
8 2751 2696 2752 2801 2698 2637 2699 2754
8 2753 2698 2754 2802 2700 2639 2701 2755
8 2763 2713 2756 2804 2714 2658 2703 2757
8 2759 2706 2652 2710 2804 2756 2703 2757
8 2715 2659 2714 2764 2758 2704 2757 2805
8 2758 2704 2757 2805 2712 2655 2710 2761
8 2806 2759 2707 2760 2761 2710 2653 2711
8 2765 2716 2762 2808 2718 2664 2713 2763
8 2809 2763 2714 2764 2767 2718 2663 2717
8 2765 2716 2664 2718 2811 2766 2719 2768
8 2813 2768 2718 2767 2770 2721 2666 2720
8 2814 2769 2719 2768 2771 2722 2667 2721
8 2723 2669 2724 2773 2770 2721 2771 2816
8 2724 2670 2725 2774 2771 2722 2772 2817
8 2726 2672 2727 2776 2773 2724 2774 2819
8 2727 2673 2728 2777 2774 2725 2775 2820
8 2729 2675 2730 2779 2776 2727 2777 2822
8 2730 2676 2731 2780 2777 2728 2778 2823
8 2732 2678 2733 2782 2779 2730 2780 2825
8 2780 2731 2679 2733 2826 2781 2734 2783
8 2782 2733 2681 2735 2827 2783 2736 2784
8 2830 2785 2738 2787 2804 2756 2706 2759
8 2789 2739 2686 2740 2832 2786 2738 2787
8 2790 2740 2707 2760 2833 2787 2759 2806
8 2742 2687 2739 2789 2792 2741 2788 2835
8 2743 2688 2740 2790 2793 2742 2789 2836
8 2792 2741 2791 2838 2745 2689 2744 2795
8 2793 2742 2792 2839 2746 2690 2745 2796
8 2795 2744 2794 2841 2748 2693 2749 2798
8 2796 2745 2795 2842 2747 2692 2748 2797
8 2797 2748 2798 2843 2750 2695 2751 2800
8 2798 2749 2799 2844 2751 2696 2752 2801
8 2800 2751 2801 2845 2753 2698 2754 2802
8 2808 2762 2803 2847 2763 2713 2756 2804
8 2809 2763 2804 2848 2764 2714 2757 2805
8 2806 2759 2710 2761 2848 2804 2757 2805
8 2765 2716 2766 2811 2808 2762 2807 2850
8 2810 2765 2808 2851 2767 2718 2763 2809
8 2810 2765 2718 2767 2852 2811 2768 2813
8 2811 2766 2719 2768 2853 2812 2769 2814
8 2855 2814 2768 2813 2816 2771 2721 2770
8 2856 2815 2769 2814 2817 2772 2722 2771
8 2773 2724 2774 2819 2816 2771 2817 2858
8 2774 2725 2775 2820 2817 2772 2818 2859
8 2776 2727 2777 2822 2819 2774 2820 2861
8 2777 2728 2778 2823 2820 2775 2821 2862
8 2779 2730 2780 2825 2822 2777 2823 2864
8 2823 2778 2731 2780 2865 2824 2781 2826
8 2825 2780 2733 2782 2866 2826 2783 2827
8 2869 2828 2785 2830 2847 2803 2756 2804
8 2871 2829 2786 2832 2830 2785 2738 2787
8 2872 2830 2787 2833 2848 2804 2759 2806
8 2789 2739 2786 2832 2835 2788 2831 2874
8 2836 2789 2740 2790 2875 2832 2787 2833
8 2792 2741 2788 2835 2838 2791 2834 2877
8 2793 2742 2789 2836 2839 2792 2835 2878
8 2838 2791 2837 2880 2795 2744 2794 2841
8 2839 2792 2838 2881 2796 2745 2795 2842
8 2841 2794 2840 2882 2798 2749 2799 2844
8 2842 2795 2841 2883 2797 2748 2798 2843
8 2843 2798 2844 2884 2800 2751 2801 2845
8 2886 2846 2803 2847 2850 2807 2762 2808
8 2851 2808 2847 2887 2809 2763 2804 2848
8 2850 2807 2766 2811 2889 2849 2812 2853
8 2810 2765 2811 2852 2851 2808 2850 2890
8 2852 2811 2768 2813 2891 2853 2814 2855
8 2853 2812 2769 2814 2892 2854 2815 2856
8 2894 2856 2814 2855 2858 2817 2771 2816
8 2817 2772 2818 2859 2856 2815 2857 2895
8 2819 2774 2820 2861 2858 2817 2859 2897
8 2820 2775 2821 2862 2859 2818 2860 2898
8 2822 2777 2823 2864 2861 2820 2862 2900
8 2823 2778 2824 2865 2862 2821 2863 2901
8 2864 2823 2780 2825 2902 2865 2826 2866
8 2904 2867 2828 2869 2886 2846 2803 2847
8 2869 2828 2868 2906 2830 2785 2829 2871
8 2907 2869 2830 2872 2887 2847 2804 2848
8 2871 2829 2870 2909 2832 2786 2831 2874
8 2910 2871 2832 2875 2872 2830 2787 2833
8 2835 2788 2831 2874 2877 2834 2873 2912
8 2836 2789 2832 2875 2878 2835 2874 2913
8 2877 2834 2876 2915 2838 2791 2837 2880
8 2839 2792 2835 2878 2881 2838 2877 2916
8 2880 2837 2879 2917 2841 2794 2840 2882
8 2881 2838 2880 2918 2842 2795 2841 2883
8 2883 2841 2882 2919 2843 2798 2844 2884
8 2921 2885 2846 2886 2889 2849 2807 2850
8 2922 2886 2847 2887 2890 2850 2808 2851
8 2889 2849 2812 2853 2924 2888 2854 2892
8 2890 2850 2811 2852 2925 2889 2853 2891
8 2891 2853 2814 2855 2926 2892 2856 2894
8 2892 2854 2815 2856 2927 2893 2857 2895
8 2858 2817 2859 2897 2894 2856 2895 2929
8 2859 2818 2860 2898 2895 2857 2896 2930
8 2861 2820 2862 2900 2897 2859 2898 2932
8 2862 2821 2863 2901 2898 2860 2899 2933
8 2864 2823 2865 2902 2900 2862 2901 2934
8 2904 2867 2846 2886 2936 2903 2885 2921
8 2904 2867 2903 2936 2869 2828 2868 2906
8 2937 2904 2869 2907 2922 2886 2847 2887
8 2906 2868 2905 2939 2871 2829 2870 2909
8 2907 2869 2906 2940 2872 2830 2871 2910
8 2909 2870 2908 2942 2874 2831 2873 2912
8 2910 2871 2909 2943 2875 2832 2874 2913
8 2912 2873 2911 2945 2877 2834 2876 2915
8 2878 2835 2874 2913 2916 2877 2912 2946
8 2915 2876 2914 2947 2880 2837 2879 2917
8 2916 2877 2915 2948 2881 2838 2880 2918
8 2918 2880 2917 2949 2883 2841 2882 2919
8 2921 2885 2849 2889 2951 2920 2888 2924
8 2952 2921 2886 2922 2925 2889 2850 2890
8 2924 2888 2854 2892 2954 2923 2893 2927
8 2925 2889 2853 2891 2955 2924 2892 2926
8 2926 2892 2856 2894 2956 2927 2895 2929
8 2895 2857 2896 2930 2927 2893 2928 2957
8 2897 2859 2898 2932 2929 2895 2930 2959
8 2898 2860 2899 2933 2930 2896 2931 2960
8 2900 2862 2901 2934 2932 2898 2933 2961
8 2936 2903 2885 2921 2963 2935 2920 2951
8 2936 2903 2935 2963 2906 2868 2905 2939
8 2937 2904 2886 2922 2964 2936 2921 2952
8 2937 2904 2936 2964 2907 2869 2906 2940
8 2939 2905 2938 2966 2909 2870 2908 2942
8 2940 2906 2939 2967 2910 2871 2909 2943
8 2942 2908 2941 2969 2912 2873 2911 2945
8 2943 2909 2942 2970 2913 2874 2912 2946
8 2945 2911 2944 2971 2915 2876 2914 2947
8 2946 2912 2945 2972 2916 2877 2915 2948
8 2948 2915 2947 2973 2918 2880 2917 2949
8 2951 2920 2888 2924 2975 2950 2923 2954
8 2952 2921 2889 2925 2976 2951 2924 2955
8 2927 2893 2928 2957 2954 2923 2953 2978
8 2955 2924 2892 2926 2979 2954 2927 2956
8 2929 2895 2930 2959 2956 2927 2957 2980
8 2930 2896 2931 2960 2957 2928 2958 2981
8 2932 2898 2933 2961 2959 2930 2960 2982
8 2951 2920 2950 2975 2963 2935 2962 2984
8 2963 2935 2962 2984 2939 2905 2938 2966
8 2964 2936 2921 2952 2985 2963 2951 2976
8 2964 2936 2963 2985 2940 2906 2939 2967
8 2966 2938 2965 2987 2942 2908 2941 2969
8 2967 2939 2966 2988 2943 2909 2942 2970
8 2969 2941 2968 2989 2945 2911 2944 2971
8 2970 2942 2969 2990 2946 2912 2945 2972
8 2972 2945 2971 2991 2948 2915 2947 2973
8 2954 2923 2953 2978 2975 2950 2974 2993
8 2976 2951 2924 2955 2994 2975 2954 2979
8 2957 2928 2958 2981 2978 2953 2977 2995
8 2956 2927 2957 2980 2979 2954 2978 2996
8 2959 2930 2960 2982 2980 2957 2981 2997
8 2984 2962 2983 2999 2966 2938 2965 2987
8 2975 2950 2974 2993 2984 2962 2983 2999
8 2976 2951 2975 2994 2985 2963 2984 3000
8 2985 2963 2984 3000 2967 2939 2966 2988
8 2987 2965 2986 3001 2969 2941 2968 2989
8 2988 2966 2987 3002 2970 2942 2969 2990
8 2990 2969 2989 3003 2972 2945 2971 2991
8 2978 2953 2977 2995 2993 2974 2992 3004
8 2979 2954 2978 2996 2994 2975 2993 3005
8 2980 2957 2981 2997 2996 2978 2995 3006
8 2974 2993 2999 2983 2992 3004 3007 2998
8 2983 2999 2987 2965 2998 3007 3001 2986
8 3000 2984 2999 3008 2988 2966 2987 3002
8 2994 2975 2993 3005 3000 2984 2999 3008
8 3002 2987 3001 3009 2990 2969 2989 3003
8 2996 2978 2995 3006 3005 2993 3004 3010
8 3005 2993 3004 3010 3008 2999 3007 3011
8 3008 2999 3007 3011 3002 2987 3001 3009

CELL_TYPES 1910
12
12
12
12
12
12
12
12
12
12
12
12
12
12
12
12
12
12
12
12
12
12
12
12
12
12
12
12
12
12
12
12
12
12
12
12
12
12
12
12
12
12
12
12
12
12
12
12
12
12
12
12
12
12
12
12
12
12
12
12
12
12
12
12
12
12
12
12
12
12
12
12
12
12
12
12
12
12
12
12
12
12
12
12
12
12
12
12
12
12
12
12
12
12
12
12
12
12
12
12
12
12
12
12
12
12
12
12
12
12
12
12
12
12
12
12
12
12
12
12
12
12
12
12
12
12
12
12
12
12
12
12
12
12
12
12
12
12
12
12
12
12
12
12
12
12
12
12
12
12
12
12
12
12
12
12
12
12
12
12
12
12
12
12
12
12
12
12
12
12
12
12
12
12
12
12
12
12
12
12
12
12
12
12
12
12
12
12
12
12
12
12
12
12
12
12
12
12
12
12
12
12
12
12
12
12
12
12
12
12
12
12
12
12
12
12
12
12
12
12
12
12
12
12
12
12
12
12
12
12
12
12
12
12
12
12
12
12
12
12
12
12
12
12
12
12
12
12
12
12
12
12
12
12
12
12
12
12
12
12
12
12
12
12
12
12
12
12
12
12
12
12
12
12
12
12
12
12
12
12
12
12
12
12
12
12
12
12
12
12
12
12
12
12
12
12
12
12
12
12
12
12
12
12
12
12
12
12
12
12
12
12
12
12
12
12
12
12
12
12
12
12
12
12
12
12
12
12
12
12
12
12
12
12
12
12
12
12
12
12
12
12
12
12
12
12
12
12
12
12
12
12
12
12
12
12
12
12
12
12
12
12
12
12
12
12
12
12
12
12
12
12
12
12
12
12
12
12
12
12
12
12
12
12
12
12
12
12
12
12
12
12
12
12
12
12
12
12
12
12
12
12
12
12
12
12
12
12
12
12
12
12
12
12
12
12
12
12
12
12
12
12
12
12
12
12
12
12
12
12
12
12
12
12
12
12
12
12
12
12
12
12
12
12
12
12
12
12
12
12
12
12
12
12
12
12
12
12
12
12
12
12
12
12
12
12
12
12
12
12
12
12
12
12
12
12
12
12
12
12
12
12
12
12
12
12
12
12
12
12
12
12
12
12
12
12
12
12
12
12
12
12
12
12
12
12
12
12
12
12
12
12
12
12
12
12
12
12
12
12
12
12
12
12
12
12
12
12
12
12
12
12
12
12
12
12
12
12
12
12
12
12
12
12
12
12
12
12
12
12
12
12
12
12
12
12
12
12
12
12
12
12
12
12
12
12
12
12
12
12
12
12
12
12
12
12
12
12
12
12
12
12
12
12
12
12
12
12
12
12
12
12
12
12
12
12
12
12
12
12
12
12
12
12
12
12
12
12
12
12
12
12
12
12
12
12
12
12
12
12
12
12
12
12
12
12
12
12
12
12
12
12
12
12
12
12
12
12
12
12
12
12
12
12
12
12
12
12
12
12
12
12
12
12
12
12
12
12
12
12
12
12
12
12
12
12
12
12
12
12
12
12
12
12
12
12
12
12
12
12
12
12
12
12
12
12
12
12
12
12
12
12
12
12
12
12
12
12
12
12
12
12
12
12
12
12
12
12
12
12
12
12
12
12
12
12
12
12
12
12
12
12
12
12
12
12
12
12
12
12
12
12
12
12
12
12
12
12
12
12
12
12
12
12
12
12
12
12
12
12
12
12
12
12
12
12
12
12
12
12
12
12
12
12
12
12
12
12
12
12
12
12
12
12
12
12
12
12
12
12
12
12
12
12
12
12
12
12
12
12
12
12
12
12
12
12
12
12
12
12
12
12
12
12
12
12
12
12
12
12
12
12
12
12
12
12
12
12
12
12
12
12
12
12
12
12
12
12
12
12
12
12
12
12
12
12
12
12
12
12
12
12
12
12
12
12
12
12
12
12
12
12
12
12
12
12
12
12
12
12
12
12
12
12
12
12
12
12
12
12
12
12
12
12
12
12
12
12
12
12
12
12
12
12
12
12
12
12
12
12
12
12
12
12
12
12
12
12
12
12
12
12
12
12
12
12
12
12
12
12
12
12
12
12
12
12
12
12
12
12
12
12
12
12
12
12
12
12
12
12
12
12
12
12
12
12
12
12
12
12
12
12
12
12
12
12
12
12
12
12
12
12
12
12
12
12
12
12
12
12
12
12
12
12
12
12
12
12
12
12
12
12
12
12
12
12
12
12
12
12
12
12
12
12
12
12
12
12
12
12
12
12
12
12
12
12
12
12
12
12
12
12
12
12
12
12
12
12
12
12
12
12
12
12
12
12
12
12
12
12
12
12
12
12
12
12
12
12
12
12
12
12
12
12
12
12
12
12
12
12
12
12
12
12
12
12
12
12
12
12
12
12
12
12
12
12
12
12
12
12
12
12
12
12
12
12
12
12
12
12
12
12
12
12
12
12
12
12
12
12
12
12
12
12
12
12
12
12
12
12
12
12
12
12
12
12
12
12
12
12
12
12
12
12
12
12
12
12
12
12
12
12
12
12
12
12
12
12
12
12
12
12
12
12
12
12
12
12
12
12
12
12
12
12
12
12
12
12
12
12
12
12
12
12
12
12
12
12
12
12
12
12
12
12
12
12
12
12
12
12
12
12
12
12
12
12
12
12
12
12
12
12
12
12
12
12
12
12
12
12
12
12
12
12
12
12
12
12
12
12
12
12
12
12
12
12
12
12
12
12
12
12
12
12
12
12
12
12
12
12
12
12
12
12
12
12
12
12
12
12
12
12
12
12
12
12
12
12
12
12
12
12
12
12
12
12
12
12
12
12
12
12
12
12
12
12
12
12
12
12
12
12
12
12
12
12
12
12
12
12
12
12
12
12
12
12
12
12
12
12
12
12
12
12
12
12
12
12
12
12
12
12
12
12
12
12
12
12
12
12
12
12
12
12
12
12
12
12
12
12
12
12
12
12
12
12
12
12
12
12
12
12
12
12
12
12
12
12
12
12
12
12
12
12
12
12
12
12
12
12
12
12
12
12
12
12
12
12
12
12
12
12
12
12
12
12
12
12
12
12
12
12
12
12
12
12
12
12
12
12
12
12
12
12
12
12
12
12
12
12
12
12
12
12
12
12
12
12
12
12
12
12
12
12
12
12
12
12
12
12
12
12
12
12
12
12
12
12
12
12
12
12
12
12
12
12
12
12
12
12
12
12
12
12
12
12
12
12
12
12
12
12
12
12
12
12
12
12
12
12
12
12
12
12
12
12
12
12
12
12
12
12
12
12
12
12
12
12
12
12
12
12
12
12
12
12
12
12
12
12
12
12
12
12
12
12
12
12
12
12
12
12
12
12
12
12
12
12
12
12
12
12
12
12
12
12
12
12
12
12
12
12
12
12
12
12
12
12
12
12
12
12
12
12
12
12
12
12
12
12
12
12
12
12
12
12
12
12
12
12
12
12
12
12
12
12
12
12
12
12
12
12
12
12
12
12
12
12
12
12
12
12
12
12
12
12
12
12
12
12
12
12
12
12
12
12
12
12
12
12
12
12
12
12
12
12
12
12
12
12
12
12
12
12
12
12
12
12
12
12
12
12
12
12
12
12
12
12
12
12
12
12
12
12
12
12
12
12
12
12
12
12
12
12
12
12
12
12
12
12
12
12
12
12
12
12
12
12
12
12
12
12
12
12
12
12
12
12
12
12
12
12
12
12
12
12
12
12
12
12
12
12
12
12
12
12
12
12
12
12
12
12
12
12
12
12
12
12
12
12
12
12
12
12
12
12
12
12
12
12
12
12
12
12
12
12
12
12
12
12
12
12
12
12
12
12
12
12
12
12
12
12
12
12
12
12
12
12
12
12
12
12
12
12
12
12
12
12
12
12
12
12
12
12
12
12
12
12
12
12
12
12
12
12
12
12
12
12
12
12
12
12
12
12
12
12
12
12
12
12
12
12
12
12
12
12
12
12
12
12
12
12
12
12
12
12
12
12
12
12
12
12
12
12
12
12
12
12
12
12
12
12
12
12
12
12
12
12
12
12
12
12
12
12
12
12
12
12
12
12
12
12
12
12
12
12
12
12
12
12
12
12
12
12
12
12
12
12
12
12
12
12
12
12
12
12
12
12
12
12
12
12
12
12
12
12
12
12
12
12
12
12
12
12
12
12
12
12
12
12
12
12
12
12
12
12
12
12
12
12
12
12
12
12
12
12
12
12
12
12
12
12
12
12
12
12
12
12
12
12
12
12
12
12
12
12
12
12
12
12
12
12
12
12
12
12
12
12
12
12
12
12
12
12
12
12
12
12
12
12
12
12
12
12
12
12
12
12
12
12

POINT_DATA 3012
SCALARS Jp_lamdaP float 4
LOOKUP_TABLE default
0.999899 1 1 0.999899
1 1 1 1
0.999902 1 1 0.999902
0.999862 1 1 0.999862
0.999897 1 1 0.999897
0.999898 1 1 0.999898
0.999458 1 1 0.999458
1 1 1 1
1 1 1 1
1 1 1 1
0.999967 1 1 0.999967
0.999627 1 1 0.999627
0.999822 1 1 0.999822
0.999853 1 1 0.999853
0.999902 1 1 0.999902
0.999874 1 1 0.999874
0.999902 1 1 0.999902
0.999904 1 1 0.999904
0.999461 1 1 0.999461
1 1 1 1
0.999845 1 1 0.999845
0.999883 1 1 0.999883
0.999334 1 1 0.999334
0.999426 1 1 0.999426
0.999921 1 1 0.999921
0.999496 1 1 0.999496
0.998754 1 1 0.998754
1 1 1 1
0.999939 1 1 0.999939
0.999952 1 1 0.999952
1 1 1 1
0.999636 1 1 0.999636
0.999873 1 1 0.999873
0.999895 1 1 0.999895
0.999527 1 1 0.999527
1 1 1 1
0.999617 1 1 0.999617
0.999718 1 1 0.999718
0.998825 1 1 0.998825
1 1 1 1
1 1 1 1
0.999924 1 1 0.999924
1 1 1 1
0.999843 1 1 0.999843
0.999266 1 1 0.999266
1 1 1 1
0.999439 1 1 0.999439
0.999884 1 1 0.999884
0.999907 1 1 0.999907
0.999904 1 1 0.999904
0.999466 1 1 0.999466
0.999909 1 1 0.999909
0.999857 1 1 0.999857
0.999929 1 1 0.999929
0.999893 1 1 0.999893
0.999334 1 1 0.999334
0.999501 1 1 0.999501
0.999429 1 1 0.999429
0.99874 1 1 0.99874
1 1 1 1
0.999831 1 1 0.999831
0.999403 1 1 0.999403
0.9993 1 1 0.9993
0.99938 1 1 0.99938
0.998465 1 1 0.998461
0.998597 1 1 0.998597
0.999965 1 1 0.999965
0.999611 1 1 0.999611
0.998861 1 1 0.998861
1.0002 1.0021 1 0.998096
1 1 1 1
1 1 1 1
1 1 1 1
0.999644 1 1 0.999644
1 1 1 1
1 1 1 1
0.99947 1 1 0.99947
0.999995 1 1 0.999995
0.999577 1 1 0.999577
0.999753 1 1 0.999753
0.998822 1 1 0.998822
1 1 1 1
0.999977 1 1 0.999977
0.999415 1 1 0.999415
0.999507 1 1 0.999507
0.998467 1.00005 1 0.998417
0.999853 1 1 0.999853
0.998722 1 1 0.998722
0.998953 1 1 0.998953
0.998344 1 1 0.998344
1 1 1 1
1 1 1 1
1 1 1 1
1 1 1 1
1 1 1 1
0.999918 1 1 0.999918
0.999331 1 1 0.999331
0.999929 1 1 0.999929
0.999406 1 1 0.999406
1 1 1 1
0.999246 1 1 0.999246
0.999409 1 1 0.999409
0.998274 1.00017 1 0.998106
0.999471 1 1 0.999471
0.998704 1.0005 1 0.998203
0.999838 1 1 0.999838
0.999868 1 1 0.999868
0.999937 1 1 0.999937
0.999901 1 1 0.999901
0.999336 1 1 0.999336
0.999433 1 1 0.999433
0.999506 1 1 0.999506
0.998725 1 1 0.998725
1 1 1 1
0.999843 1 1 0.999843
0.999271 1 1 0.999271
0.9993 1 1 0.9993
0.999983 1 1 0.999983
0.999657 1 1 0.999657
0.999382 1 1 0.999382
0.998433 1.00001 1 0.998424
0.998843 1 1 0.998843
0.998623 1 1 0.998623
1.00052 1.00242 1 0.9981
0.999267 1 1 0.999267
0.999275 1 1 0.999275
0.998259 1.00001 1 0.998248
0.998391 1.00004 1 0.99835
0.998481 1 1 0.998481
1.00433 1.00647 1 0.99787
1 1 1 1
1.00134 1.00333 1 0.998021
0.999811 1 1 0.999811
0.99892 1 1 0.99892
0.99956 1.00139 1 0.998171
1.00671 1.00887 1 0.997856
0.999926 1 1 0.999926
0.99936 1 1 0.99936
1 1 1 1
1 1 1 1
0.999476 1 1 0.999476
1 1 1 1
0.999761 1 1 0.999761
0.999581 1 1 0.999581
0.99882 1 1 0.99882
1 1 1 1
0.999985 1 1 0.999985
0.999459 1 1 0.999459
0.999549 1 1 0.999549
0.998446 1.00003 1 0.998419
0.999872 1 1 0.999872
0.998725 1 1 0.998725
0.998953 1 1 0.998953
0.998329 1 1 0.998329
0.999931 1 1 0.999931
0.999997 1 1 0.999997
0.999512 1 1 0.999512
0.998495 1.00019 1 0.998306
0.998574 1 1 0.998574
1.00326 1.00538 1 0.997896
0.999134 1 1 0.999134
0.99908 1.00085 1 0.99823
0.998977 1 1.00054 0.99844
0.998669 1.00049 1 0.99818
1 1 1 1
1 1 1 1
1 1 1 1
0.999958 1 1 0.999958
1 1 1 1
1 1 1 1
1 1 1 1
0.99937 1 1 0.99937
0.99929 1 1 0.99929
1 1 1 1
1 1 1 1
0.999248 1 1 0.999248
0.999375 1 1 0.999375
0.998366 1.00026 1 0.998106
0.999397 1 1 0.999397
0.998661 1.00046 1 0.998203
0.999237 1 1 0.999237
0.998086 1.00003 1 0.998053
0.99857 1.00041 1 0.998164
1.00756 1.00993 1 0.997654
0.998602 1.00036 1 0.998241
1.007 1.00928 1 0.997741
1 1 1 1
0.999856 1 1 0.999856
0.99913 1 1 0.99913
0.9993 1 1 0.9993
1 1 1 1
0.999703 1 1 0.999703
0.999386 1 1 0.999386
0.998404 1.00002 1 0.998387
0.99865 1 1 0.99865
0.998824 1 1 0.998824
1.00085 1.00275 1 0.998103
0.999264 1 1 0.999264
0.999274 1 1 0.999274
0.998173 1 1 0.998168
0.998418 1.00004 1 0.998377
1 1 1 1
0.9998 1 1 0.9998
0.99896 1 1 0.99896
0.998481 1 1 0.998481
1.00434 1.00652 1 0.997832
0.999664 1.00151 1 0.998161
1.00172 1.00368 1 0.998047
1.00634 1.0085 1 0.997861
0.999917 1 1 0.999917
0.999361 1 1 0.999361
0.998072 1 1 0.998072
0.998353 1.00005 1 0.998304
1.00573 1.008 1 0.99775
1.00482 1.00708 1 0.997748
1.00248 1.00453 1 0.997965
1.0139 1.01622 1 0.997721
0.999879 1 1 0.999879
1.00838 1.01058 1 0.997822
0.999063 1 1 0.999063
0.998723 1.00041 1 0.998314
1.00522 1.00732 1 0.997916
1.01125 1.01345 1 0.997831
0.999239 1 1 0.999239
0.999516 1 1 0.999516
0.999206 1 1.00034 0.998869
0.999432 1 1 0.999432
1 1 1 1
0.999992 1 1 0.999992
0.999532 1 1 0.999532
0.998427 1 1 0.998422
0.999885 1 1 0.999885
0.998953 1 1 0.998953
0.998728 1 1 0.998728
0.998315 1 1 0.998315
0.999946 1 1 0.999946
0.999999 1 1 0.999999
0.999515 1 1 0.999515
0.998451 1.00014 1 0.998306
0.998579 1 1 0.998579
1.00263 1.00475 1 0.997895
0.999136 1 1 0.999136
0.99881 1.00057 1 0.998241
0.998881 1 1.00044 0.998436
0.998832 1.00067 1 0.998167
1 1 1 1
0.999315 1 1 0.999315
0.999701 1 1 0.999701
0.999169 1 1.00014 0.999025
1.00502 1.00723 1 0.997803
1.00117 1.0031 1 0.998069
1.01016 1.0125 1 0.99769
0.999083 1 1.00044 0.998646
1.00146 1.00341 1 0.998058
1.00009 1.00037 1.00158 0.998145
1.00237 1.00434 1 0.998039
0.999903 1 1 0.999903
1 1 1 1
1 1 1 1
1 1 1 1
1 1 1 1
0.999981 1 1 0.999981
1 1 1 1
0.99995 1 1 0.99995
1 1 1 1
0.999398 1 1 0.999398
0.999335 1 1 0.999335
0.998654 1.00045 1 0.998203
0.998458 1.00035 1 0.998106
0.99925 1 1 0.99925
1 1 1 1
0.999236 1 1 0.999236
0.998121 1.00007 1 0.998053
0.998625 1.00046 1 0.998164
1.00748 1.00985 1 0.997653
0.998568 1.00033 1 0.998241
1.00702 1.0093 1 0.99774
0.998043 1 1 0.998043
1.00709 1.00951 1 0.997604
1.00757 1.00989 1 0.997705
1.02061 1.02304 1 0.997624
1.00639 1.00864 1 0.997766
1.01853 1.02091 1 0.997669
0.999261 1 1 0.999261
0.999273 1 1 0.999273
0.998091 1 1 0.998088
0.998443 1.00004 1 0.998403
1 1 1 1
0.99979 1 1 0.99979
0.999001 1 1 0.999001
0.998481 1 1 0.998481
1.00434 1.00656 1 0.997793
1.00209 1.00403 1 0.998074
0.999757 1.00161 1 0.998151
1.00602 1.00817 1 0.997866
0.999908 1 1 0.999908
0.999362 1 1 0.999361
0.998048 1 1 0.998048
0.998342 1.00004 1 0.998302
1.00594 1.00822 1 0.997742
1.00503 1.00726 1 0.997787
0.999869 1 1 0.999869
0.99906 1 1 0.99906
0.998822 1.00048 1 0.998347
1.00273 1.00477 1 0.997965
1.01423 1.01655 1 0.997723
1.00467 1.0068 1 0.997882
1.00838 1.01058 1 0.997824
1.01154 1.01374 1 0.997831
0.999241 1 1 0.999241
0.999296 1 1.00043 0.99887
0.999513 1 1 0.999513
1.00633 1.00866 1 0.99769
1.00604 1.00829 1 0.997773
1.01825 1.02068 1 0.997621
1.01624 1.01862 1 0.99766
1.01063 1.01288 1 0.997781
1.01829 1.02052 1 0.997817
0.999167 1 1 0.999167
1.01338 1.01558 1 0.997839
0.998606 1 1 0.998606
0.999531 1.00158 1 0.997949
1.00878 1.01106 1 0.997742
1.01291 1.01499 1 0.997946
0.999644 1 1 0.999644
0.998851 1 1 0.998851
0.999452 1 1.00051 0.998945
0.999137 1 1.00043 0.998709
0.998405 1.0001 1 0.998307
1 1 1 1
0.99996 1 1 0.99996
0.999517 1 1 0.999517
0.998584 1 1 0.998584
1.00198 1.0041 1 0.997893
0.999138 1 1 0.999138
0.998725 1 1.00029 0.998432
0.998485 1.00023 1 0.998251
0.998991 1.00084 1 0.998154
1 1 1 1
0.999315 1 1 0.999315
0.999707 1 1 0.999707
0.999128 1 1.00011 0.999021
1.0046 1.00681 1 0.9978
1.00041 1.00235 1 0.998071
1.01026 1.0126 1 0.997688
0.999065 1 1.00042 0.99865
1.00091 1.00285 1 0.998072
1.00047 1.00061 1.00173 0.998134
1.00203 1.00393 1 0.998108
1 1 1 1
0.999815 1 1 0.999815
0.998852 1 1 0.998852
0.99939 1 1.00017 0.999215
0.999356 1 1.00059 0.998762
1.01329 1.01568 1 0.997647
1.00578 1.00794 1 0.997858
1.01223 1.01459 1 0.997676
1.00029 1 1.00199 0.998303
1.00329 1.00533 1 0.997979
1.00191 1.00319 1.00086 0.99787
0.999889 1 1 0.999889
0.999562 1 1 0.999562
0.999912 1 1 0.999912
0.999905 1 1 0.999905
1 1 1 1
1 1 1 1
1 1 1 1
1 1 1 1
1 1 1 1
0.999995 1 1 0.999995
1 1 1 1
0.999975 1 1 0.999975
1 1 1 1
0.999942 1 1 0.999942
1 1 1 1
0.99852 1.00028 1 0.99824
0.998647 1.00048 1 0.998163
1.00698 1.00926 1 0.99774
1.00738 1.00975 1 0.997652
0.998163 1.00011 1 0.998053
0.999236 1 1 0.999236
0.998045 1 1 0.998043
1.00715 1.00957 1 0.997604
1.00736 1.00967 1 0.997704
1.0208 1.02323 1 0.997631
1.00614 1.00839 1 0.997764
1.01801 1.02039 1 0.997669
1.00682 1.00924 1 0.997593
1.02084 1.02329 1 0.997599
1.02021 1.02261 1 0.997649
1.02562 1.02795 1 0.997731
1.01554 1.01792 1 0.997664
1.02042 1.02263 1 0.997841
0.998024 1 1 0.998024
0.998333 1.00003 1 0.9983
1.00612 1.0084 1 0.997734
1.00524 1.00743 1 0.997825
0.99986 1 1 0.99986
0.999057 1 1 0.999057
0.99889 1.00051 1 0.998379
1.00298 1.00503 1 0.997964
1.01455 1.01686 1 0.997726
1.00841 1.0106 1 0.997827
1.00406 1.00622 1 0.997849
1.01182 1.01402 1 0.997831
0.999244 1 1 0.999244
0.999361 1 1.00049 0.998871
0.99951 1 1 0.99951
1.00647 1.00884 1 0.997656
1.00603 1.00828 1 0.997771
1.01803 1.02046 1 0.997625
1.01661 1.01899 1 0.997665
0.999166 1 1 0.999166
0.998621 1.00002 1 0.9986
0.999749 1.00172 1.00003 0.997998
1.01081 1.01305 1 0.997786
1.01756 1.01976 1 0.997844
1.00887 1.01119 1 0.997713
1.01338 1.01557 1 0.997842
1.01229 1.01436 1 0.997965
0.998854 1 1 0.998854
0.999153 1 1.00046 0.998692
0.999639 1 1 0.999639
0.999493 1 1.00053 0.998967
1.01876 1.02124 1 0.997575
1.0187 1.02109 1 0.997655
1.0232 1.0256 1 0.997661
1.01988 1.02212 1 0.997808
1.01578 1.01796 1 0.997859
1.01797 1.02005 1 0.997963
0.99879 1 1 0.99879
1.01318 1.01517 1 0.998041
0.99828 1 1 0.99828
1.00337 1.00549 1.00018 0.997717
1.0111 1.01347 1 0.997666
1.01198 1.01401 1 0.997993
0.999723 1 1 0.999723
0.999181 1 1.00008 0.999099
0.998692 1 1 0.998692
0.99983 1 1.00109 0.998737
0.998923 1 1.00027 0.998655
1 1 1 1
1.00412 1.00634 1 0.997797
0.999713 1 1 0.999713
0.999316 1 1 0.999316
0.999073 1 1.00005 0.999018
0.999758 1.00169 1 0.998073
1.01038 1.01272 1 0.997686
0.999106 1 1.00045 0.998654
1.00094 1.00088 1.00193 0.998122
1.00052 1.00244 1 0.998087
1.00178 1.00361 1 0.998176
1 1 1 1
0.999821 1 1 0.999821
0.998853 1 1 0.998853
0.999315 1 1.0001 0.999215
0.999535 1 1.00079 0.998741
1.01354 1.01593 1 0.997642
1.00564 1.0078 1 0.997858
1.0122 1.01457 1 0.997668
1.00043 1 1.00213 0.998308
1.00469 1.00671 1 0.997993
1.00171 1.00287 1.00096 0.99789
0.999865 1 1 0.999865
0.999381 1 1 0.999381
0.999029 1 1.00048 0.998553
0.999664 1 1.00075 0.998915
0.999497 1 1.00088 0.998616
1.01499 1.01734 1 0.997691
1.00789 1.01011 1 0.997804
1.01167 1.01387 1 0.997829
1.00185 1 1.00379 0.998062
1.00284 1.0051 1 0.997744
0.999892 1 1 0.999892
0.999498 1 1 0.999498
0.999543 1 1 0.999543
0.999351 1 1 0.999351
0.99957 1 1 0.99957
0.999914 1 1 0.999914
0.999913 1 1 0.999913
1 1 1 1
0.999907 1 1 0.999907
1 1 1 1
1 1 1 1
1 1 1 1
1 1 1 1
1 1 1 1
1 1 1 1
0.999991 1 1 0.999991
1 1 1 1
1 1 1 1
0.999969 1 1 0.999969
1 1 1 1
1.00594 1.00819 1 0.997762
1.00722 1.00954 1 0.997703
1.01752 1.0199 1 0.997668
1.02101 1.02343 1 0.997637
1.00722 1.00964 1 0.997605
0.998047 1 1 0.998042
1.00685 1.00928 1 0.997593
1.02076 1.02322 1 0.997592
1.02007 1.02247 1 0.997649
1.02499 1.02742 0.999883 0.997753
1.01584 1.01822 1 0.99766
1.0207 1.02289 1 0.997853
1.01965 1.02214 1 0.997567
1.02414 1.02669 0.999829 0.997687
1.02319 1.02543 1 0.99782
1.02379 1.0266 0.999407 0.997851
1.01833 1.02059 1 0.997785
1.02154 1.02362 0.999971 0.997998
1.00665 1.00905 1 0.997622
1.00601 1.00826 1 0.99777
1.01784 1.02026 1 0.997629
1.017 1.01937 1 0.997669
0.999166 1 1 0.999166
0.998673 1.00008 1 0.998593
1.00008 1.00186 1.00018 0.998047
1.011 1.01324 1 0.99779
1.01682 1.01898 1 0.997871
1.01336 1.01555 1 0.997844
1.00897 1.01132 1 0.997684
1.01163 1.01368 1 0.997985
0.998857 1 1 0.998857
0.999131 1 1.00046 0.998674
0.999635 1 1 0.999635
0.999415 1 1.00043 0.998989
1.01874 1.02121 1 0.997576
1.01846 1.02086 1 0.997645
1.02317 1.02555 1 0.997675
1.01927 1.02152 1 0.997796
0.998786 1 1 0.998786
0.99844 1.00009 1.00003 0.998323
1.00359 1.00551 1.00039 0.997711
1.01552 1.01772 1 0.997836
1.01811 1.02014 1 0.998007
1.01077 1.01314 1 0.997655
1.01306 1.01504 1 0.998043
1.01294 1.01493 1 0.998031
0.998691 1 1 0.998691
0.99876 1 1.0001 0.998656
1.00017 1 1.00144 0.998732
0.999692 1 1 0.999692
0.999138 1 1.00002 0.999119
1.02381 1.02621 1 0.997662
1.0232 1.02554 1 0.997722
1.01917 1.02138 0.99986 0.997972
1.01563 1.01762 1 0.998044
0.998596 1 1 0.998596
1.01506 1.01692 1 0.998173
0.998415 1.00005 1.00029 0.998079
1.00668 1.00871 1.00051 0.997482
1.01116 1.01357 1 0.997628
0.999734 1 1 0.999734
0.99929 1 1 0.99929
0.999363 1 1.00047 0.998895
0.998654 1 1 0.998654
1.00091 1 1.00234 0.998574
0.9986 1 1 0.9986
1 1 1 1
0.999827 1 1 0.999827
1.01384 1.01624 1 0.997637
0.999255 1 1.00004 0.999216
0.998854 1 1 0.998854
0.99982 1 1.0011 0.99872
1.0053 1.00746 1 0.997858
1.01205 1.01443 1 0.99766
1.0006 1 1.00229 0.998312
1.00114 1.00246 1.00077 0.99791
1.0059 1.0079 1 0.998009
0.999869 1 1 0.999869
0.999383 1 1 0.999383
0.998972 1 1.00041 0.998559
0.999889 1 1.00098 0.998913
0.999758 1 1.00115 0.998605
1.01514 1.01749 1 0.997686
1.00838 1.0106 1 0.997795
1.01154 1.01372 1 0.997852
1.00128 1 1.00324 0.99804
1.00238 1.00462 1.00006 0.997713
0.999481 1 1 0.999481
0.999297 1 1.00025 0.999043
1.00038 1 1.002 0.998385
1.00046 1 1.00181 0.998654
0.999494 1 1.001 0.9985
1.01746 1.01946 1 0.998042
1.00778 1.01009 1 0.997721
1.00964 1.01178 1 0.997877
1.00314 1.00093 1.00433 0.997885
1.00018 1.00268 1 0.997508
0.999895 1 1 0.999895
0.999514 1 1 0.999514
0.999262 1 1 0.999262
0.999523 1 1 0.999523
0.99957 1 1 0.99957
0.999323 1 1 0.999323
0.999183 1 1 0.999183
0.999304 1 1 0.999304
0.999574 1 1 0.999574
0.999911 1 1 0.999911
0.999914 1 1 0.999914
1 1 1 1
0.999914 1 1 0.999914
1 1 1 1
1 1 1 1
1 1 1 1
1 1 1 1
1 1 1 1
1 1 1 1
0.999999 1 1 0.999999
1 1 1 1
0.999988 1 1 0.999988
1 1 1 1
1 1 1 1
1.0161 1.01849 1 0.997655
1.0199 1.0223 1 0.997649
1.02097 1.02315 1 0.997866
1.02433 1.0269 0.999718 0.997774
1.02066 1.02313 1 0.997585
1.00687 1.0093 1 0.997594
1.01982 1.02232 1 0.997556
1.0244 1.02689 0.999893 0.997679
1.0231 1.02535 1 0.9978
1.02338 1.02627 0.999321 0.997863
1.01775 1.02 1 0.997786
1.02109 1.02312 0.999978 0.998031
1.02315 1.02556 1 0.997647
1.02448 1.02781 0.998928 0.997834
1.02341 1.02589 0.999607 0.99797
1.01952 1.02146 1 0.998098
1.01867 1.02114 1 0.997577
1.01821 1.02062 1 0.997634
1.02312 1.02549 1 0.997689
1.01869 1.02095 1 0.997784
0.998781 1 1 0.998781
0.998439 1.00007 1 0.998366
1.00382 1.00554 1.00058 0.997704
1.01521 1.01743 1 0.997814
1.01825 1.02024 1 0.998051
1.01302 1.015 1 0.998045
1.01047 1.01285 1 0.997643
1.0138 1.01576 1 0.998069
0.998691 1 1 0.998691
0.998657 1 1 0.998657
1.00079 1 1.00206 0.998727
0.999661 1 1 0.999661
0.999139 1 1 0.999139
1.02364 1.02603 1 0.997665
1.02341 1.02574 1 0.997726
1.01907 1.02133 0.999824 0.997965
0.99859 1 1 0.99859
0.998814 1.00044 1.00026 0.998119
1.00634 1.00812 1.00076 0.997472
1.01608 1.01808 1 0.998034
1.01093 1.01327 1 0.997689
1.01414 1.01601 1 0.998158
0.999743 1 1 0.999743
0.998649 1 1 0.998649
0.998648 1 1 0.998648
1.00078 1 1.00222 0.998562
0.999314 1 1.00041 0.998904
0.999266 1 1 0.999266
1.02414 1.02671 0.999764 0.997733
1.02315 1.02717 0.998197 0.997881
1.01779 1.02054 0.999242 0.99806
1.0202 1.02224 0.999793 0.998211
0.998471 1 1 0.998471
1.01221 1.01434 1 0.997904
1.00023 1.0009 1.00165 0.99769
1.00486 1.00649 1.00104 0.997343
0.999814 1 1 0.999814
0.999398 1 1 0.999398
0.999034 1 1 0.999034
1.00108 1 1.00244 0.998642
0.998573 1 1 0.998573
0.999332 1 1.00085 0.998479
0.999873 1 1 0.999873
0.999386 1 1 0.999386
1.01538 1.01774 1 0.997681
0.999883 1 1.00097 0.998911
0.998835 1 1.00027 0.998566
0.99996 1 1.00137 0.998594
1.00904 1.01128 1 0.997787
1.01161 1.01377 1 0.997875
1.00074 1 1.00273 0.998017
1.00205 1.00411 1.00027 0.997682
0.999482 1 1 0.999482
0.99912 1 1.00007 0.999053
1.00038 1 1.00198 0.998402
1.00077 1 1.00211 0.998658
0.999023 1 1.00048 0.998548
1.01747 1.01944 1 0.998068
1.0074 1.0097 1 0.997722
1.01059 1.01267 1 0.997951
1.00304 1.0006 1.00458 0.997858
1.00082 1.00333 1.00003 0.997467
0.9992 1 1 0.9992
0.999276 1 1.00052 0.998756
1.00202 1 1.00378 0.998246
0.999838 1 1.00144 0.9984
1.02104 1.02581 0.997099 0.99824
1.0147 1.01671 0.999872 0.998154
1.00517 1.00766 1 0.997537
1.00295 1.00119 1.00426 0.997515
0.99953 1 1 0.99953
0.999274 1 1 0.999274
0.999129 1 1 0.999129
0.99957 1 1 0.99957
0.999295 1 1 0.999295
0.999573 1 1 0.999573
0.999164 1 1 0.999164
0.999315 1 1 0.999315
0.999058 1 1 0.999058
0.999146 1 1 0.999146
0.999296 1 1 0.999296
0.999564 1 1 0.999564
0.999906 1 1 0.999906
0.999911 1 1 0.999911
1 1 1 1
0.999914 1 1 0.999914
1 1 1 1
1 1 1 1
1 1 1 1
1 1 1 1
1 1 1 1
1 1 1 1
1 1 1 1
1 1 1 1
0.999998 1 1 0.999998
1 1 1 1
1 1 1 1
1.01715 1.01941 1 0.997786
1.02298 1.02525 1 0.997781
1.02063 1.02263 0.999985 0.998064
1.02298 1.02589 0.99929 0.997876
1.02468 1.02708 1 0.997671
1.02002 1.02253 1 0.997545
1.02315 1.02556 1 0.997654
1.02345 1.02666 0.999051 0.997826
1.02326 1.02589 0.999459 0.997971
1.0209 1.02285 1 0.998098
1.02417 1.02714 0.999327 0.997777
1.02526 1.03055 0.996849 0.998005
1.02496 1.02806 0.99887 0.998111
1.02347 1.02586 1 0.997668
1.02359 1.02592 1 0.99773
1.01893 1.02122 0.999799 0.997958
0.998583 1 1 0.998583
0.999259 1.00092 1.00018 0.998158
1.00579 1.0075 1.00085 0.997462
1.01649 1.0185 1 0.998023
1.01334 1.01522 1 0.998143
1.01102 1.01329 1 0.997751
0.998644 1 1 0.998644
0.998696 1 1 0.998696
1.00051 1 1.00196 0.99855
0.999752 1 1 0.999752
0.999155 1 1.00024 0.998914
0.999242 1 1 0.999242
1.02475 1.02729 0.999788 0.997738
1.02381 1.02729 0.998723 0.997887
1.01789 1.02051 0.999387 0.998051
0.9985 1.00004 1 0.998461
1.00033 1.00116 1.0014 0.997771
1.00442 1.00616 1.0009 0.997371
1.02006 1.02212 0.99976 0.998223
1.0128 1.01494 1 0.997893
0.999847 1 1 0.999847
0.999398 1 1 0.999398
0.998587 1 1 0.998587
0.9998 1 1.00127 0.998535
1.00104 1 1.00239 0.998654
0.999014 1 1 0.999014
1.02614 1.03056 0.997778 0.997921
1.01794 1.025 0.99509 0.998019
1.01883 1.02247 0.998196 0.998247
1.01701 1.01887 0.999914 0.998252
0.999158 1 1.00088 0.998275
1.00412 1.0053 1.0014 0.997431
1.00185 1.00172 1.00264 0.9975
0.999923 1 1 0.999923
0.999605 1 1 0.999605
0.99944 1 1 0.99944
0.999097 1 1 0.999097
0.999378 1 1.00059 0.99879
1.00028 1 1.00175 0.998524
0.99861 1 1 0.99861
1.00838 1 1.00974 0.998652
0.999484 1 1 0.999484
0.999069 1 1.00001 0.999063
1.01736 1.0193 1 0.998093
1.00124 1 1.00259 0.998661
1.00057 1 1.00215 0.99842
0.998631 1 1.00004 0.998596
1.00684 1.00913 1 0.997724
1.01152 1.01352 1 0.998025
1.00302 1.00038 1.00482 0.997831
1.00147 1.00406 1 0.997426
0.999186 1 1 0.999186
0.999572 1 1.00081 0.998766
1.00241 1 1.00415 0.998267
0.999624 1 1.0012 0.998424
1.02201 1.02658 0.997302 0.998248
1.01419 1.01614 0.999949 0.998125
1.00606 1.0085 1 0.997576
1.00261 1.00137 1.00377 0.997478
0.999013 1 1 0.999013
1.02029 1.02687 0.995351 0.998235
1.00034 1 1.0018 0.998537
1.00071 1 1.00268 0.998035
1.01936 1.02248 0.99861 0.998339
1.00627 1.00864 1 0.99765
1.00417 1.00359 1.00323 0.99735
0.999287 1 1 0.999287
0.999126 1 1 0.999126
0.999006 1 1 0.999006
0.999573 1 1 0.999573
0.999326 1 1 0.999326
0.999145 1 1 0.999145
0.999562 1 1 0.999562
0.999298 1 1 0.999298
0.999041 1 1 0.999041
0.999167 1 1 0.999167
0.99896 1 1 0.99896
0.999025 1 1 0.999025
0.999151 1 1 0.999151
0.99929 1 1 0.99929
0.999542 1 1 0.999542
0.999899 1 1 0.999899
0.999905 1 1 0.999905
1 1 1 1
0.99991 1 1 0.99991
1 1 1 1
1 1 1 1
1 1 1 1
1 1 1 1
1 1 1 1
0.999948 1 1 0.999948
1 1 1 1
1 1 1 1
1 1 1 1
1 1 1 1
1 1 1 1
1 1 1 1
1.02229 1.02424 1 0.998097
1.02316 1.02593 0.999327 0.997972
1.02243 1.02554 0.999142 0.997818
1.02316 1.02556 1 0.99766
1.02405 1.02703 0.999298 0.997795
1.02576 1.03084 0.997071 0.997993
1.02478 1.02811 0.998626 0.998124
1.02529 1.03173 0.995771 0.997976
1.02811 1.03408 0.996092 0.998124
1.01301 1.02446 0.990479 0.998328
1.02536 1.02788 0.999812 0.997744
1.02449 1.02749 0.999192 0.997894
1.01796 1.02048 0.99949 0.998041
0.998571 1.00006 1.00006 0.998451
1.00056 1.00144 1.00126 0.997852
1.00387 1.0057 1.00078 0.997399
1.02005 1.02213 0.999731 0.998234
1.01289 1.01504 1 0.997883
0.998602 1 1 0.998602
1.00035 1 1.00176 0.998591
1.00126 1 1.00259 0.998665
0.99988 1 1 0.99988
0.999398 1 1 0.999398
0.998993 1 1 0.998993
1.02543 1.03028 0.997357 0.997934
0.999919 1 1 0.999919
0.999586 1 1 0.999586
1.01801 1.02431 0.995823 0.998018
1.01958 1.0232 0.998239 0.998215
0.999182 1 1.00084 0.998344
1.00236 1.0016 1.0033 0.99747
1.00444 1.00618 1.00084 0.997435
1.01615 1.01798 0.999965 0.998238
0.999493 1 1 0.999493
0.999095 1 1 0.999095
0.998555 1 1 0.998555
1.0052 1 1.00646 0.998745
1.00053 1 1.00202 0.998511
0.99945 1 1.00065 0.9988
1.02728 1.03343 0.995954 0.998087
1.01098 1.02281 0.990251 0.998156
1.01728 1.02161 0.997323 0.998436
1.00544 1.00768 0.999802 0.997971
1.00067 1 1.00234 0.998328
1.00406 1.00129 1.00547 0.997322
0.999605 1 1 0.999605
0.999555 1 1 0.999555
0.999353 1 1 0.999353
0.999109 1 1 0.999109
0.998918 1 1 0.998918
0.999499 1 1.00092 0.998579
1.01361 1 1.01517 0.998465
1.00006 1 1.00129 0.998778
0.999171 1 1 0.999171
0.999563 1 1.00079 0.998777
1.023 1.02732 0.997534 0.998256
1.01377 1.0157 1 0.998096
0.999369 1 1.00092 0.998448
1.00269 1 1.00441 0.998288
1.00712 1.00949 1.00004 0.997615
1.00227 1.00148 1.00335 0.997442
0.999022 1 1.00001 0.999007
1.02096 1.02852 0.994384 0.998261
1.00019 1 1.00164 0.998552
1.00069 1 1.00269 0.998008
1.01851 1.02176 0.998508 0.998313
1.00687 1.0092 1 0.997691
1.00389 1.00305 1.00348 0.997361
0.999842 1 1.00108 0.99876
1.0164 1.02616 0.99192 0.998561
0.999915 1 1.00157 0.998352
1.00216 1.00062 1.00379 0.997761
1.00918 1.01411 0.997124 0.998011
1.00162 1.00196 1.00221 0.997454
1.00437 1.00794 0.997808 0.998638
0.999124 1 1 0.999124
0.999044 1 1.00004 0.999004
0.998888 1 1 0.998888
0.999561 1 1 0.999561
0.9993 1 1 0.9993
0.999188 1 1 0.999188
0.999024 1 1 0.999024
0.999542 1 1 0.999542
0.99928 1 1 0.99928
0.998944 1 1 0.998944
0.999151 1 1 0.999151
0.999041 1 1 0.999041
0.998936 1 1 0.998936
0.999035 1 1 0.999035
0.999146 1 1 0.999146
0.99923 1 1 0.99923
0.999483 1 1 0.999483
0.999328 1 1 0.999328
0.99948 1 1 0.99948
0.999893 1 1 0.999893
0.999898 1 1 0.999898
1 1 1 1
0.999904 1 1 0.999904
1 1 1 1
1 1 1 1
1 1 1 1
1 1 1 1
1 1 1 1
0.999962 1 1 0.999962
0.999945 1 1 0.999945
1 1 1 1
1 1 1 1
1 1 1 1
1 1 1 1
1 1 1 1
1 1 1 1
1.0246 1.02819 0.998366 0.998137
1.02625 1.03115 0.997264 0.997981
1.02393 1.02693 0.999265 0.997812
1.02512 1.03151 0.995818 0.997974
1.02666 1.03248 0.996237 0.998121
1.01359 1.02426 0.991259 0.99831
1.02411 1.03343 0.992787 0.99819
1.00152 1.01596 0.987794 0.997966
1.01145 1.02483 0.988184 0.998744
0.999677 1 1 0.999677
1.02473 1.02995 0.996979 0.997948
1.01837 1.02371 0.996761 0.998017
1.02021 1.02385 0.998258 0.998183
0.999232 1 1.00082 0.998412
1.00298 1.00153 1.00402 0.997441
1.00507 1.00719 1.00045 0.997439
1.01525 1.01706 1 0.998223
0.998501 1 1 0.998501
1.00202 1 1.00319 0.99884
1.00062 1 1.00213 0.998497
0.999915 1 1 0.999915
0.999462 1 1.00065 0.99881
0.999546 1 1 0.999546
0.999092 1 1 0.999092
0.999568 1 1 0.999568
1.0264 1.03406 0.994486 0.998095
0.999631 1 1 0.999631
0.999554 1 1 0.999554
0.999315 1 1 0.999315
1.01164 1.02255 0.991149 0.998159
1.01692 1.02115 0.997469 0.998388
0.999987 1 1.00164 0.998346
1.00385 1.00096 1.00555 0.99735
1.00482 1.0068 1.00006 0.99797
0.999138 1 1 0.999138
0.998969 1 1.00007 0.998896
1.00226 1 1.00355 0.998716
1.01099 1 1.0125 0.998501
0.999317 1 1.00072 0.998602
1.01656 1.02711 0.991537 0.998174
1.0111 1.02561 0.987555 0.998275
1.01032 1.01379 0.998403 0.998165
1.00471 1.00385 1.00304 0.997815
1.0032 1 1.00484 0.998366
0.999304 1 1 0.999304
0.999205 1 1 0.999205
0.999099 1 1 0.999099
0.998939 1 1.00002 0.998922
0.999178 1 1.00044 0.99874
1.00979 1 1.01131 0.998498
1.01245 1 1.01404 0.998426
0.999029 1 1.00003 0.999
1.00012 1 1.00155 0.998567
1.02131 1.03013 0.993136 0.998288
1.01754 1.02098 0.99834 0.998287
1.00724 1.00953 1 0.997732
1.00065 1 1.00268 0.997982
1.0034 1.00243 1.0036 0.997373
0.999773 1 1.00098 0.998794
1.0153 1.02583 0.991154 0.99857
0.999612 1 1.00124 0.998377
1.00215 1.00031 1.00408 0.997772
1.01039 1.01471 0.997663 0.998082
1.00209 1.00196 1.00269 0.99744
1.00412 1.00816 0.997764 0.998222
0.999882 1 1.00125 0.998636
1.00523 1.01672 0.990121 0.998554
1.00028 1 1.00194 0.998341
1.00412 1.00004 1.00636 0.997739
1.00363 1.00486 1.001 0.997772
0.954703 0.978997 0.987258 0.987771
0.978259 0.987824 0.996099 0.994196
0.981124 0.999576 0.9828 0.998718
0.869507 0.909644 0.969859 0.985583
0.835396 0.910496 0.932863 0.983551
0.999033 1 1.00003 0.999002
0.99893 1 1.00003 0.998903
0.998915 1 1 0.998915
0.999541 1 1 0.999541
0.99927 1 1 0.99927
0.99915 1 1 0.99915
0.999056 1 1 0.999056
0.998928 1 1 0.998928
0.999127 1 1 0.999127
0.999504 1 1 0.999504
0.999244 1 1 0.999244
0.998939 1 1 0.998939
0.999036 1 1 0.999036
0.999043 1 1 0.999043
0.998994 1 1 0.998994
0.999074 1 1 0.999074
0.999202 1 1 0.999202
0.999473 1 1 0.999473
0.999265 1 1 0.999265
0.999168 1 1 0.999168
0.999305 1 1 0.999305
0.9993 1 1 0.9993
0.999534 1 1 0.999534
0.999479 1 1 0.999479
0.999889 1 1 0.999889
0.999893 1 1 0.999893
1 1 1 1
0.999898 1 1 0.999898
1 1 1 1
1 1 1 1
1 1 1 1
1 1 1 1
1 1 1 1
0.999969 1 1 0.999969
0.999959 1 1 0.999959
1 1 1 1
0.999942 1 1 0.999942
1 1 1 1
1 1 1 1
1 1 1 1
1 1 1 1
1 1 1 1
1.02525 1.03088 0.996413 0.998118
1.0249 1.03123 0.995874 0.997972
1.01431 1.02396 0.992268 0.998292
1.00262 1.01572 0.989078 0.998006
1.02267 1.03202 0.992737 0.998188
1.01583 1.02669 0.990745 0.998671
1.02339 1.0298 0.995543 0.998226
0.965211 0.984914 0.986506 0.9934
1.00856 1.01935 0.991039 0.998355
0.999686 1 1 0.999686
0.999676 1 1 0.999676
0.999388 1 1 0.999388
0.999416 1 1 0.999416
1.0252 1.03452 0.992875 0.998103
1.01177 1.02189 0.991913 0.998162
1.01669 1.02068 0.997746 0.99834
0.999136 1 1.00077 0.998365
1.00343 1.0007 1.00536 0.997378
1.00424 1.00616 1.00013 0.99797
1.0043 1 1.00566 0.998653
1.00845 1 1.00992 0.998538
0.999143 1 1.00052 0.998624
0.999553 1 1 0.999553
0.998957 1 1.00008 0.998874
0.999166 1 1 0.999166
0.999657 1 1 0.999657
0.999278 1 1 0.999278
1.01468 1.02606 0.990711 0.998188
0.999345 1 1 0.999345
0.999232 1 1 0.999232
0.999118 1 1 0.999118
1.01333 1.02733 0.988075 0.998282
1.00912 1.01294 0.998065 0.998162
1.00305 1 1.0047 0.998357
1.00468 1.00422 1.00264 0.997819
0.999009 1 1.00009 0.998921
0.998909 1 1.00018 0.998727
1.01298 1 1.01457 0.998426
1.01084 1 1.01238 0.998475
1.0097 1.02721 0.98469 0.998236
1.00235 1.02084 0.983601 0.998254
1.00535 1.0071 1.00039 0.997876
1.00113 1.0003 1.00248 0.998356
0.999016 1 1 0.999016
0.99915 1 1.00018 0.998974
1.00234 1 1.00362 0.998721
1.02279 1 1.02456 0.998278
0.940124 0.972906 0.978867 0.987167
0.999842 1 1.00102 0.998828
0.999486 1 1.00109 0.998402
1.01392 1.02529 0.990325 0.998579
1.01154 1.0152 0.998239 0.998154
1.00284 1.00212 1.0033 0.997427
1.00224 1 1.00447 0.997782
1.00336 1.00819 0.997411 0.997798
0.999865 1 1.00121 0.998662
1.0045 1.0168 0.989343 0.998541
0.999788 1 1.00144 0.998352
1.00387 1.00004 1.00611 0.99774
1.00353 1.00581 0.999929 0.997796
0.953327 0.980362 0.984793 0.987439
0.973086 0.985729 0.994552 0.992582
0.98339 0.997764 0.986825 0.998753
0.872307 0.909286 0.973516 0.985431
0.819412 0.898447 0.928592 0.982166
0.999455 1 1.00067 0.99879
0.890981 0.92643 0.975743 0.985645
0.873965 0.91488 0.970227 0.984592
0.983369 1.00646 0.978572 0.998453
1.00492 1 1.00649 0.998436
1.01056 1.00242 1.01019 0.997948
0.980315 0.99331 0.988018 0.998885
0.954342 0.972343 0.994341 0.987072
0.960867 0.969409 0.999227 0.991956
0.850399 0.910073 0.947928 0.985759
0.878805 0.943499 0.945244 0.985388
0.999015 1 1.0001 0.998917
0.998908 1 1 0.998908
0.999111 1 1 0.999111
0.999525 1 1 0.999525
0.999257 1 1 0.999257
0.999107 1 1 0.999107
0.999037 1 1 0.999037
0.998942 1 1 0.998942
0.999473 1 1 0.999473
0.99904 1 1 0.99904
0.999092 1 1 0.999092
0.999225 1 1 0.999225
0.998992 1 1 0.998992
0.999001 1 1 0.999001
0.99921 1 1.0002 0.999013
0.999059 1 1 0.999059
0.999235 1 1 0.999235
0.999263 1 1 0.999263
0.999153 1 1 0.999153
0.999111 1 1 0.999111
0.999148 1 1 0.999148
0.999091 1 1 0.999091
0.999024 1 1 0.999024
0.999285 1 1 0.999285
0.999305 1 1 0.999305
0.999542 1 1 0.999542
0.999272 1 1 0.999272
0.999516 1 1 0.999516
0.999887 1 1 0.999887
0.999477 1 1 0.999477
0.999889 1 1 0.999889
1 1 1 1
0.999892 1 1 0.999892
1 1 1 1
1 1 1 1
1 1 1 1
1 1 1 1
1 1 1 1
0.999669 1 1 0.999669
0.999969 1 1 0.999969
0.999967 1 1 0.999967
1 1 1 1
0.999956 1 1 0.999956
1 1 1 1
1 1 1 1
1 1 1 1
1 1 1 1
1 1 1 1
1.00388 1.01579 0.990206 0.998047
1.0216 1.03084 0.992839 0.998186
1.0199 1.02879 0.992745 0.998598
0.963756 0.981791 0.987325 0.994232
1.00876 1.01907 0.991431 0.998434
1.02525 1.03237 0.994897 0.998194
1.01667 1.02354 0.995089 0.998197
0.970816 0.984174 0.991594 0.994789
0.955 0.97785 0.990048 0.98645
0.849843 0.901341 0.957494 0.984722
0.818211 0.88674 0.938476 0.983209
0.999376 1 1 0.999376
0.999685 1 1 0.999685
0.999675 1 1 0.999675
0.999376 1 1 0.999376
0.999191 1 1 0.999191
0.999227 1 1 0.999227
0.999375 1 1 0.999375
0.999396 1 1 0.999396
1.01338 1.02546 0.99 0.998203
1.01601 1.02975 0.988348 0.998289
1.00796 1.01212 0.99773 0.998159
1.00322 1 1.00488 0.998348
1.00481 1.00436 1.00262 0.997824
1.0133 1 1.01489 0.998426
1.01194 1 1.01351 0.998452
0.998726 1 1.00001 0.998715
0.99926 1 1 0.99926
0.998928 1 1.00001 0.99892
0.999385 1 1 0.999385
0.999138 1 1 0.999138
1.01054 1.02732 0.985422 0.998218
0.99904 1 1 0.99904
0.999 1 1.00001 0.998987
1.00351 1.02014 0.985438 0.998233
1.00453 1.00689 0.999668 0.997978
1.00296 1.00061 1.00405 0.998298
1.00373 1 1.00505 0.998686
1.02012 1 1.02187 0.998286
1.00942 1.0245 0.987048 0.998204
0.985153 1.00644 0.980542 0.998273
0.998526 1.0005 0.999768 0.998257
1.00702 1 1.00865 0.998381
0.998878 1 1 0.998878
1.00126 1 1.00248 0.998775
1.01838 1 1.01993 0.998477
0.879126 0.929843 0.958823 0.986059
0.950604 0.975568 0.98587 0.988377
0.999632 1 1.00095 0.998688
0.999429 1 1.00107 0.998364
1.00504 1.01738 0.989331 0.998528
1.0036 1.00699 0.998815 0.997819
1.00344 1 1.00571 0.997741
0.952312 0.977007 0.988097 0.986465
0.975477 0.989161 0.992848 0.99327
0.985465 0.996383 0.990246 0.998785
0.866348 0.910007 0.966069 0.985462
0.804948 0.885627 0.926726 0.980767
0.999194 1 1.0004 0.998792
0.883754 0.929095 0.964671 0.986033
0.869966 0.909919 0.971622 0.984017
0.98509 1.00725 0.979526 0.998443
1.00445 1 1.00601 0.998457
1.00965 1.00123 1.01038 0.998055
0.972242 0.988861 0.984222 0.998955
0.958533 0.978452 0.993421 0.98613
0.963155 0.973116 0.996218 0.993521
0.852336 0.904397 0.957212 0.984564
0.878605 0.944761 0.944309 0.984822
1.00106 1 1.00207 0.998991
0.89777 0.921805 0.987685 0.98607
0.955896 0.97062 0.994911 0.989868
0.989335 1.00063 0.989813 0.998889
1.01198 1.0012 1.0119 0.998872
0.988937 0.982154 1.00772 0.999194
0.948431 0.96243 0.990803 0.994603
0.947735 0.959859 1.00138 0.986006
0.87017 0.922822 0.957468 0.984831
0.907348 0.963054 0.954121 0.98746
0.998901 1 1 0.998901
0.999091 1 1 0.999091
0.999708 1 1.00042 0.999286
0.999474 1 1 0.999474
0.999248 1 1 0.999248
0.99911 1 1 0.99911
0.999036 1 1 0.999036
0.99899 1 1 0.99899
0.999234 1 1 0.999234
0.999009 1 1 0.999009
0.999059 1 1 0.999059
0.999278 1 1.00024 0.999033
1.00252 1 1.00331 0.999217
0.999071 1 1.00009 0.998984
0.999055 1 1 0.999055
0.999261 1 1 0.999261
0.999139 1 1 0.999139
0.99911 1 1 0.99911
0.999145 1 1 0.999145
0.999095 1 1 0.999095
0.999105 1 1 0.999105
0.999058 1 1 0.999058
0.999074 1 1 0.999074
0.998874 1 1 0.998874
0.99947 1 1.00089 0.998583
0.998911 1 1 0.998911
0.999021 1 1 0.999021
0.999236 1 1 0.999236
0.999284 1 1 0.999284
0.999536 1 1 0.999536
0.999304 1 1 0.999304
0.999542 1 1 0.999542
0.999888 1 1 0.999888
0.999498 1 1 0.999498
0.999888 1 1 0.999888
1 1 1 1
0.999889 1 1 0.999889
1 1 1 1
1 1 1 1
1 1 1 1
1 1 1 1
1 1 1 1
0.999688 1 1 0.999688
0.999962 1 1 0.999962
0.999669 1 1 0.999669
1 1 1 1
0.999969 1 1 0.999969
0.999966 1 1 0.999966
1 1 1 1
1 1 1 1
1 1 1 1
1 1 1 1
1 1 1 1
0.879557 0.919438 0.970431 0.985773
0.879335 0.917063 0.973288 0.985176
0.965542 0.984238 0.986193 0.994738
1.01036 1.01871 0.993275 0.998514
1.02702 1.03454 0.994563 0.998162
0.966056 0.978717 0.991011 0.996017
1.01644 1.02323 0.99511 0.998238
0.958344 0.981201 0.988835 0.987733
0.864018 0.907387 0.966345 0.985367
0.808905 0.884788 0.931191 0.981792
0.989752 0.999136 0.993475 0.997114
0.954386 0.972443 0.993859 0.987495
0.842473 0.904166 0.945525 0.985451
0.875924 0.936936 0.949828 0.984264
0.999117 1 1 0.999117
0.999394 1 1 0.999394
0.999684 1 1 0.999684
0.999364 1 1 0.999364
0.999216 1 1 0.999216
0.999143 1 1 0.999143
0.999227 1 1 0.999227
0.999258 1 1 0.999258
0.999352 1 1 0.999352
0.999377 1 1 0.999377
1.01099 1.02699 0.986201 0.998201
1.0037 1.01851 0.987214 0.998215
1.00381 1.0069 0.998851 0.998081
1.00445 1.00092 1.00529 0.99824
1.01696 1 1.0187 0.998294
1.00521 1 1.00657 0.998651
0.999 1 1 0.999
0.999063 1 1 0.999063
1.00876 1.02478 0.986135 0.998207
0.998877 1 1.00001 0.998868
1.00125 1 1.0025 0.998748
0.986119 1.00532 0.982669 0.998202
0.99859 1.00035 0.999858 0.998378
1.00761 1.00015 1.00919 0.998284
1.01599 1 1.01756 0.998453
1.00003 1.00564 0.995922 0.998496
0.988882 1 0.990006 0.998865
1.01341 1 1.01498 0.998456
0.999617 1 1.00077 0.998851
0.999757 1 1.00105 0.998711
1.00994 1 1.01139 0.998564
0.903171 0.927245 0.986015 0.987852
0.887289 0.929329 0.96861 0.985705
0.94578 0.976656 0.980977 0.987164
0.998793 1 1 0.998793
1.00403 1 1.00556 0.998478
0.987692 1.00776 0.981627 0.998434
1.00877 1 1.01063 0.998162
0.878263 0.924806 0.963575 0.985572
0.957426 0.976155 0.992922 0.987805
0.959264 0.973502 0.993294 0.992026
0.968466 0.985173 0.983999 0.999027
0.853852 0.904991 0.957897 0.984963
0.871936 0.914159 0.969418 0.983903
0.871435 0.940619 0.940766 0.984781
1.00166 1 1.00267 0.998997
0.898915 0.925059 0.985017 0.986519
0.959421 0.973429 0.995759 0.989808
0.991523 1.00038 0.992193 0.99895
1.01136 1.00024 1.01227 0.998855
0.987404 0.982129 1.00636 0.999022
0.949662 0.963516 0.992734 0.992835
0.949798 0.964943 0.997663 0.986611
0.878041 0.931728 0.956148 0.9856
0.898752 0.955544 0.952563 0.987405
1.00266 0.999757 1.00343 0.999475
0.958227 0.973315 0.992349 0.99209
0.949358 0.96439 0.991617 0.992735
1.00591 0.992854 1.01344 0.999715
0.967058 0.966644 1.0037 0.996738
0.955595 0.961499 1.008 0.985967
0.913092 0.949239 0.975813 0.985763
0.914487 0.97511 0.950277 0.986901
0.99907 1 1 0.99907
0.999655 1 1.00037 0.999287
1.00713 1 1.0077 0.999432
0.999233 1 1 0.999233
0.999059 1 1 0.999059
0.999017 1 1 0.999017
0.999334 1 1.00028 0.999053
0.999054 1 1 0.999054
0.999012 1 1.00003 0.998981
1.00455 1 1.0053 0.999251
1.00932 0.998587 1.01131 0.999446
1.00321 1 1.00406 0.999151
0.998997 1 1 0.998997
0.99911 1 1 0.99911
0.999143 1 1 0.999143
0.999099 1 1 0.999099
0.999064 1 1 0.999064
0.999103 1 1 0.999103
0.999079 1 1 0.999079
0.999011 1 1 0.999011
0.999151 1 1 0.999151
0.998891 1 1 0.998891
0.998895 1 1 0.998895
0.999373 1 1.00069 0.998679
0.999768 1 1.00152 0.99825
0.998928 1 1.00009 0.998834
0.99941 1 1.00075 0.998661
0.998941 1 1 0.998941
0.999121 1 1 0.999121
0.999019 1 1 0.999019
0.999234 1 1 0.999234
0.999506 1 1 0.999506
0.999282 1 1 0.999282
0.999535 1 1 0.999535
0.999886 1 1 0.999886
0.999542 1 1 0.999542
0.999887 1 1 0.999887
1 1 1 1
0.999888 1 1 0.999888
1 1 1 1
1 1 1 1
1 1 1 1
1 1 1 1
1 1 1 1
0.999582 1 1 0.999582
0.999951 1 1 0.999951
0.999643 1 1 0.999643
1 1 1 1
0.999964 1 1 0.999964
0.999669 1 1 0.999669
1 1 1 1
1 1 1 1
0.99997 1 1 0.99997
1 1 1 1
1 1 1 1
1 1 1 1
0.903199 0.926056 0.98784 0.987324
0.882191 0.924167 0.968714 0.985409
0.957689 0.975046 0.992427 0.989694
0.870235 0.909968 0.971305 0.984588
0.963053 0.980396 0.987971 0.994271
1.01502 1.02307 0.993844 0.998279
0.961084 0.981638 0.989967 0.988984
0.865119 0.910886 0.96428 0.984938
0.802143 0.884771 0.924765 0.980369
0.986144 0.997257 0.992367 0.996462
0.955094 0.973629 0.994759 0.986132
0.851801 0.910271 0.950724 0.984267
0.873561 0.937397 0.947391 0.98365
0.973036 0.987072 0.989975 0.995763
0.961115 0.966927 1.00839 0.985723
0.877667 0.933697 0.954126 0.985186
0.905005 0.964612 0.951237 0.986301
0.99898 1 1.00001 0.998974
0.999144 1 1 0.999144
0.999412 1 1 0.999412
0.999242 1 1 0.999242
0.998996 1 1 0.998996
0.999161 1 1 0.999161
0.999227 1 1 0.999227
0.999232 1 1 0.999232
0.999283 1 1 0.999283
0.999329 1 1 0.999329
1.00829 1.02568 0.9848 0.99821
0.988467 1.00492 0.985467 0.998131
0.99856 1 1.00006 0.998499
1.00934 1.0006 1.01057 0.998189
1.014 1 1.0156 0.998428
1.00099 1 1.00227 0.998721
0.998859 1 1 0.998857
0.999227 1 1.00038 0.99885
0.995394 1.00608 0.990856 0.99851
0.99961 1 1.00089 0.998721
1.01028 1 1.01174 0.998558
0.987649 1.0001 0.988753 0.998787
1.01275 1.0003 1.01403 0.998439
0.969311 0.992834 0.9773 0.998984
1.00548 0.999374 1.00684 0.999275
1.0135 1 1.01486 0.99866
0.999118 1 1.00038 0.998734
1.00656 1 1.00801 0.998565
0.957581 0.969127 0.994816 0.993235
0.906383 0.927087 0.989566 0.987977
0.881131 0.925935 0.964941 0.986187
1.00225 1 1.00325 0.999002
1.01074 0.999287 1.01264 0.998836
0.991676 1 0.992662 0.999008
0.908623 0.93056 0.989107 0.98718
0.958757 0.964688 1.00823 0.985736
0.952563 0.964874 0.993133 0.994067
0.978776 0.97975 1.00018 0.998823
0.879502 0.930931 0.959289 0.984848
0.96286 0.976063 0.99669 0.989749
0.897086 0.95468 0.951583 0.987484
1.00246 0.999504 1.00351 0.999456
0.956982 0.971658 0.99213 0.992708
0.951961 0.967041 0.991598 0.992747
1.00701 0.994274 1.01325 0.999569
0.969026 0.968276 1.00449 0.996306
0.950186 0.961665 1.00291 0.985201
0.917103 0.977479 0.950003 0.987611
0.906328 0.945619 0.972632 0.985418
1.00441 0.995177 1.00957 0.999711
0.944105 0.963116 0.983908 0.996293
0.959546 0.977472 0.988274 0.993308
0.90708 0.96572 0.952294 0.986332
0.992636 0.978911 1.01493 0.999107
0.970364 0.969566 1.01447 0.986553
0.906897 0.936036 0.982852 0.985774
0.999737 1 1.00045 0.999286
1.00611 1 1.00673 0.999382
1.01195 0.998652 1.01376 0.999566
0.999052 1 1 0.999052
0.998979 1 1 0.998979
1.00708 1 1.0078 0.999286
0.999006 1 1 0.999006
1.00314 1 1.00399 0.999154
1.01103 0.9988 1.01283 0.999421
1.00426 0.998827 1.00595 0.999489
1.00224 1 1.0031 0.999149
0.99907 1 1 0.99907
0.999102 1 1 0.999102
0.999084 1 1 0.999084
0.99914 1 1 0.99914
0.99902 1 1 0.99902
0.99943 1 1.00033 0.999098
0.998985 1 1 0.998985
1.00105 1 1.00259 0.998465
0.998916 1 1 0.998916
0.999216 1 1.00056 0.998654
0.999106 1 1.00101 0.998095
0.999481 1 1.00129 0.998194
0.9999 1 1.00123 0.998676
0.999629 1 1.00136 0.998268
0.99902 1 1 0.99902
0.998942 1 1.00013 0.998808
0.999316 1 1.00058 0.998738
0.99897 1 1 0.99897
0.999148 1 1 0.999148
0.99945 1 1 0.99945
0.999233 1 1 0.999233
0.999505 1 1 0.999505
0.999877 1 1 0.999877
0.999534 1 1 0.999534
0.999885 1 1 0.999885
1 1 1 1
0.999887 1 1 0.999887
1 1 1 1
1 1 1 1
1 1 1 1
1 1 1 1
1 1 1 1
0.999448 1 1 0.999448
0.999866 1 1 0.999866
0.99958 1 1 0.99958
1 1 1 1
0.999924 1 1 0.999924
0.999599 1 1 0.999599
1 1 1 1
1 1 1 1
0.999966 1 1 0.999966
1 1 1 1
1 1 1 1
1 1 1 1
0.954544 0.969598 0.991695 0.99272
0.892411 0.923974 0.978484 0.987078
0.883305 0.921647 0.972768 0.985227
0.999152 1 1 0.999152
0.947329 0.962894 0.990393 0.993378
0.961745 0.976135 0.995565 0.989647
0.864968 0.910565 0.964895 0.984485
0.987071 0.997905 0.993422 0.995693
0.958437 0.974168 0.996526 0.987281
0.858206 0.920571 0.946781 0.984656
0.866065 0.93196 0.944796 0.983592
0.97502 0.988304 0.992718 0.993796
0.947939 0.960658 1.00013 0.986634
0.886429 0.936425 0.961016 0.98501
0.902725 0.961792 0.951901 0.986011
0.959324 0.97191 0.994706 0.992303
0.958914 0.958037 1.01629 0.984873
0.908121 0.949016 0.971368 0.985114
0.912814 0.973071 0.950532 0.986895
0.99891 1 1.00007 0.998837
0.999082 1 1.00012 0.998957
0.99917 1 1 0.99917
0.998992 1 1 0.998992
0.999027 1 1 0.999027
0.999179 1 1 0.999179
0.999239 1 1 0.999239
0.999308 1 1 0.999308
0.990027 1.00577 0.985802 0.998523
0.985559 1.00003 0.986805 0.99871
0.998849 1 1 0.998849
1.01146 1.00029 1.01276 0.99842
1.01065 1 1.01212 0.998552
0.999789 1 1.00106 0.998732
0.999262 1 1.00052 0.998743
0.974162 0.994623 0.980404 0.999004
1.00678 1 1.00821 0.998589
1.01133 1 1.01268 0.998662
0.999552 0.999403 1.00085 0.9993
0.999991 1 1.00122 0.998773
0.966658 0.986463 0.980571 0.999339
1.01024 0.997247 1.01358 0.999454
1.01629 1 1.01759 0.998731
1.00161 1 1.00291 0.99871
0.956076 0.965154 0.993717 0.996858
0.95718 0.96834 0.995112 0.993331
0.910737 0.927317 0.993941 0.988107
1.00189 0.999241 1.00321 0.999439
1.00938 0.995879 1.01414 0.999427
0.956122 0.97004 0.992277 0.993323
0.962481 0.961523 1.0148 0.986399
0.964529 0.965772 1.00459 0.994146
0.910643 0.94872 0.974854 0.984625
0.952897 0.968088 0.991488 0.992758
0.92079 0.981153 0.94957 0.988317
1.0052 0.99641 1.00915 0.999676
0.943849 0.962408 0.984353 0.996306
0.957296 0.975432 0.987209 0.994124
1.00127 0.985578 1.01607 0.99986
0.904245 0.963344 0.951958 0.986023
0.961809 0.96356 1.01224 0.986108
0.917291 0.950249 0.980146 0.98487
1.00791 0.993405 1.01483 0.999771
0.955841 0.975012 0.983318 0.996969
0.948063 0.96399 0.990002 0.99341
0.876151 0.939134 0.947789 0.984327
0.908166 0.951056 0.969586 0.984855
0.977174 0.973465 1.00519 0.998629
0.972046 0.962182 1.02612 0.984535
1.00438 1 1.00505 0.999332
1.01081 0.99778 1.01352 0.999546
1.0032 0.987635 1.01619 0.999582
0.999014 1 1 0.999014
1.00267 1 1.00352 0.999158
1.01235 0.99953 1.01344 0.999396
1.00065 1 1.00151 0.99914
1.00415 0.998996 1.00567 0.999488
1.00639 0.998156 1.00898 0.999277
0.999129 1 1 0.999129
0.999029 1 1 0.999029
1.00006 1 1.001 0.999068
1.00649 1 1.00787 0.998632
0.999079 1 1 0.999079
1.00053 1 1.00198 0.998548
1.00211 1 1.00413 0.997994
1.00024 1.00066 1.00188 0.997708
0.999031 1 1.0004 0.998627
0.999122 1 1.00109 0.998029
0.998812 1 1.00053 0.998288
1.00078 1 1.00228 0.998506
0.999495 1 1.00125 0.998244
0.999857 1 1.00096 0.998901
0.999826 1 1.00116 0.99867
0.999551 1 1.00127 0.998287
0.999354 1 1 0.999354
0.999013 1 1 0.999013
0.999007 1 1.00023 0.998782
0.999175 1 1 0.999175
0.999448 1 1 0.999448
0.999856 1 1 0.999856
0.999504 1 1 0.999504
0.999874 1 1 0.999874
1 1 1 1
0.999883 1 1 0.999883
1 1 1 1
1 1 1 1
1 1 1 1
1 1 1 1
1 1 1 1
0.999394 1 1 0.999394
0.999808 1 1 0.999808
0.999474 1 1 0.999474
1 1 1 1
0.999861 1 1 0.999861
0.999579 1 1 0.999579
1 1 1 1
1 1 1 1
0.999897 1 1 0.999897
1 1 1 1
1 1 1 1
1 1 1 1
0.945542 0.9623 0.986223 0.996312
0.955206 0.970147 0.99182 0.99272
0.892476 0.925125 0.977262 0.987155
0.999166 1 1 0.999166
0.999126 1 1 0.999126
0.999026 1 1 0.999026
0.956656 0.975845 0.986973 0.993275
0.947781 0.96218 0.99158 0.9934
0.966292 0.977202 0.999226 0.989601
0.981397 0.989283 0.996746 0.995266
0.948095 0.961364 1.00045 0.985751
0.877636 0.926931 0.961348 0.984886
0.908385 0.966169 0.953676 0.985862
0.95969 0.97043 0.994897 0.994005
0.953819 0.957525 1.01044 0.985841
0.901224 0.937701 0.974488 0.986262
0.914854 0.975874 0.949247 0.987595
0.94685 0.960631 0.992591 0.993012
0.972197 0.967406 1.01909 0.986128
0.907501 0.934584 0.984898 0.98591
0.907125 0.962306 0.954701 0.987385
0.998828 1 1 0.998828
0.999045 1 1.00021 0.998834
0.999172 1 1.00023 0.998941
0.998988 1 1 0.998988
0.999058 1 1 0.999058
0.999245 1 1 0.999245
0.980822 0.997231 0.98451 0.99902
0.994471 0.999437 0.995703 0.999324
0.999251 1 1.0005 0.998751
1.00995 1 1.0113 0.998665
1.00738 1 1.00878 0.998615
0.99979 1 1.00104 0.998751
1.00161 1 1.00289 0.99872
0.978712 0.990254 0.988985 0.999353
1.0158 1 1.017 0.998822
1.00602 0.992923 1.01372 0.99948
0.999797 1 1.00097 0.998833
0.993628 0.979702 1.01464 0.999577
0.996122 0.988908 1.00777 0.999531
1.01253 1 1.0136 0.99895
0.971152 0.978783 0.994514 0.997678
0.955201 0.964837 0.992903 0.997089
0.957013 0.967508 0.9957 0.993424
1.00681 0.997941 1.00925 0.999641
0.996806 0.987927 1.00952 0.999468
0.944445 0.962548 0.98482 0.996318
0.96371 0.959534 1.01514 0.989369
0.91784 0.947271 0.982699 0.985988
0.956247 0.973712 0.987057 0.99494
0.909603 0.967002 0.954095 0.985899
1.0069 0.993657 1.01354 0.999788
0.955883 0.975291 0.982864 0.997189
0.948899 0.963501 0.991357 0.993432
0.976062 0.970061 1.01009 0.996134
0.872481 0.938117 0.945402 0.983745
0.899238 0.941077 0.969101 0.986008
0.981848 0.968409 1.0283 0.985977
1.00365 0.977423 1.02712 0.99972
0.946338 0.963002 0.986287 0.996358
0.958386 0.976074 0.99201 0.989786
0.816659 0.88573 0.937582 0.9834
0.879982 0.936061 0.954196 0.985218
0.971789 0.968334 1.01793 0.985893
0.952441 0.964566 0.992562 0.994829
1.01037 0.997025 1.01386 0.999526
1.0075 0.991993 1.01605 0.999586
1.01818 0.996846 1.02188 0.999529
0.99916 1 1.00003 0.999131
1.00417 0.998865 1.00583 0.999487
1.00735 0.998662 1.00937 0.99934
1.01736 1 1.01849 0.998887
1.00064 1 1.00161 0.999039
1.00679 1 1.00826 0.998542
1.01485 1 1.01701 0.997878
1.00008 1 1.00145 0.998633
1.003 1 1.00505 0.997961
1.00432 1.00103 1.00589 0.997417
1.002 1.00278 1.00191 0.99732
0.999077 1 1.00108 0.998001
1.00024 1.00068 1.00189 0.997677
0.999187 1 1.00123 0.997963
0.999553 1 1.0011 0.998458
0.998849 1 1.00048 0.99837
1.00082 1 1.00214 0.998686
1.0008 1 1.00227 0.998539
0.999463 1 1.00117 0.998294
0.999272 1 1.00008 0.999195
0.99972 1 1.00082 0.998904
0.999721 1 1.00106 0.998663
0.999809 1 1 0.999809
0.999352 1 1 0.999352
0.999006 1 1 0.999006
0.999446 1 1 0.999446
0.999851 1 1 0.999851
1 1 1 1
0.999872 1 1 0.999872
1 1 1 1
1 1 1 1
1 1 1 1
1 1 1 1
1 1 1 1
0.99939 1 1 0.99939
0.999821 1 1 0.999821
0.999411 1 1 0.999411
1 1 1 1
0.999837 1 1 0.999837
0.999499 1 1 0.999499
1 1 1 1
1 1 1 1
0.999857 1 1 0.999857
1 1 1 1
1 1 1 1
1 1 1 1
0.954896 0.974401 0.982984 0.996947
0.944838 0.962674 0.985091 0.996327
0.954527 0.970636 0.990608 0.992728
0.999107 1 1 0.999107
0.998999 1 1 0.998999
0.99918 1 1 0.99918
0.999124 1 1 0.999124
0.999008 1 1 0.999008
0.99902 1 1 0.99902
0.998922 1 1 0.998922
0.947505 0.963797 0.990353 0.992672
0.955511 0.973783 0.987064 0.994096
0.947227 0.961346 0.991838 0.993423
0.917929 0.979509 0.948231 0.988295
0.948593 0.960797 0.994784 0.992474
0.958381 0.959775 1.01177 0.986932
0.905766 0.93741 0.980831 0.985127
0.943638 0.960159 0.990376 0.992343
0.961655 0.960405 1.01614 0.985398
0.919605 0.9515 0.980918 0.985281
0.89807 0.955078 0.952375 0.987333
0.943832 0.960265 0.988784 0.994037
0.965886 0.964723 1.01639 0.985059
0.915099 0.951004 0.976027 0.98588
0.876513 0.942004 0.944443 0.985212
0.999076 1 1.00017 0.998902
0.998891 1 1.00006 0.998828
0.999129 1 1.0003 0.998832
0.998985 1 1 0.998985
0.988097 0.993298 0.995392 0.999369
1.001 0.989246 1.01238 0.999505
0.998763 1 1.00003 0.998728
1.00137 1 1.00265 0.99873
1.01377 1 1.01488 0.998913
0.999374 1 1.00055 0.998828
1.01331 1 1.01439 0.998936
0.989619 0.977992 1.0129 0.999005
0.998261 0.989615 1.0091 0.999637
1.00553 0.99978 1.00673 0.999029
0.993695 0.975058 1.02021 0.998922
1.01241 0.99484 1.01837 0.99931
0.956294 0.965539 0.993515 0.99689
0.96687 0.976881 0.991835 0.9979
0.95435 0.964482 0.992155 0.99732
1.00456 0.992535 1.01231 0.999805
0.978349 0.970848 1.00903 0.99871
0.955065 0.974954 0.982142 0.997411
0.972549 0.964817 1.02355 0.984818
0.90358 0.939518 0.976556 0.984837
0.948623 0.962983 0.991579 0.993454
0.86568 0.932039 0.944206 0.983687
1.00815 0.97975 1.02922 0.999771
0.945284 0.963184 0.984987 0.996373
0.962076 0.977164 0.994767 0.989738
0.955566 0.965469 0.992839 0.996881
0.809209 0.88481 0.931325 0.981995
0.884408 0.935994 0.959327 0.984947
0.969662 0.963733 1.02061 0.985835
0.999356 0.980672 1.01987 0.9992
0.955126 0.970644 0.991125 0.992824
0.880122 0.91779 0.973197 0.985368
0.84476 0.90481 0.947211 0.985664
0.955574 0.956367 1.01317 0.98618
0.938504 0.959557 0.984876 0.993078
1.01086 0.995657 1.01568 0.99959
1.01846 0.995126 1.02394 0.999522
1.01346 1 1.01411 0.999366
1.00826 0.999146 1.00972 0.999402
1.01685 0.99922 1.0187 0.998955
1.01068 1.00058 1.01193 0.998182
1.0073 1 1.00886 0.998453
1.01394 1 1.01614 0.997829
1.00842 1.00017 1.0109 0.997372
1.00388 1 1.00596 0.997928
1.00416 1.00059 1.00623 0.997362
1.00337 1.00207 1.00414 0.997163
1.00331 1.00598 1 0.99734
1.0032 1.00494 1.00077 0.997505
1.00253 1.00309 1.00218 0.997268
0.998348 1 1.00013 0.998222
0.998825 1.00003 1.00074 0.99805
1.00028 1.00074 1.0019 0.997645
0.999601 1 1.00112 0.998487
0.999532 1 1.00108 0.998451
0.998877 1 1.00043 0.998452
0.999794 1 1.00082 0.998975
1.00065 1 1.00194 0.99872
1.00079 1 1.00222 0.998572
0.999698 1 1 0.999698
0.999319 1 1.00012 0.999196
0.999571 1 1.00067 0.998906
1 1 1 1
0.999804 1 1 0.999804
0.999351 1 1 0.999351
0.999847 1 1 0.999847
1 1 1 1
1 1 1 1
1 1 1 1
1 1 1 1
1 1 1 1
0.999101 1 1 0.999101
0.999345 1 1 0.999345
0.999781 1 1 0.999781
0.999388 1 1 0.999388
1 1 1 1
0.999824 1 1 0.999824
0.999428 1 1 0.999428
1 1 1 1
1 1 1 1
0.999866 1 1 0.999866
1 1 1 1
1 1 1 1
1 1 1 1
0.943941 0.963365 0.98349 0.996286
0.955053 0.974766 0.982557 0.99717
0.944203 0.96307 0.98401 0.996341
0.999116 1 1 0.999116
0.998984 1 1 0.998984
0.998919 1 1 0.998919
0.998986 1 1 0.998986
0.998899 1 1 0.998899
0.999122 1 1 0.999122
0.998991 1 1 0.998991
0.99902 1 1 0.99902
0.998921 1 1 0.998921
0.999038 1 1.00007 0.998967
0.954498 0.969413 0.994829 0.989733
0.950679 0.966559 0.990814 0.99269
0.95537 0.972128 0.987784 0.994915
0.895721 0.954225 0.950645 0.987424
0.917885 0.945714 0.984201 0.986155
0.936697 0.956222 0.987995 0.991484
0.969825 0.967614 1.01658 0.98594
0.94558 0.96192 0.990813 0.992128
0.977185 0.973256 1.01844 0.985856
0.907756 0.94628 0.97317 0.985737
0.877529 0.943877 0.94424 0.984609
0.965356 0.970035 1.00185 0.99334
0.966417 0.966019 1.01432 0.986289
0.868242 0.922604 0.955718 0.98468
0.836292 0.910664 0.934067 0.983155
1.00065 1 1.0014 0.999249
1.00017 1 1.00127 0.998903
0.999448 1 1.00062 0.998828
0.987349 0.976379 1.01283 0.998428
1.00019 0.9894 1.01116 0.999748
0.999606 1 1.00079 0.998822
1.01464 1 1.01573 0.998922
1.00621 0.999894 1.00729 0.999036
1.0132 0.996375 1.0176 0.9993
0.990893 0.972495 1.01998 0.99896
1.01162 0.999625 1.01266 0.999348
0.996246 0.982654 1.0151 0.998749
0.959577 0.970932 0.995115 0.993157
0.955351 0.964987 0.992877 0.997118
0.962439 0.97499 0.988984 0.998122
1.01353 0.982939 1.03131 0.999816
0.955368 0.967001 0.993948 0.993986
0.944608 0.963365 0.984084 0.996387
0.968842 0.968217 1.01688 0.984031
0.878612 0.927658 0.961691 0.984857
0.966341 0.978222 0.998143 0.989692
0.804298 0.885858 0.92591 0.980583
0.997823 0.978956 1.01999 0.999297
0.956485 0.971563 0.991597 0.992824
0.871046 0.910872 0.971053 0.984783
0.940594 0.962044 0.983513 0.994094
0.854068 0.910978 0.952325 0.984462
0.945547 0.954536 1.00553 0.985131
0.976111 0.980794 0.99672 0.9985
0.903436 0.926787 0.987134 0.987509
0.852617 0.902596 0.959078 0.984933
0.959517 0.967036 1.00651 0.985807
0.94286 0.95972 0.987961 0.994404
1.01824 0.993927 1.02496 0.999515
1.01466 0.998936 1.01641 0.999341
0.993755 1.00069 0.994269 0.998791
1.01596 0.998346 1.01864 0.999023
1.0112 1.00072 1.01223 0.998273
1.00238 1.00185 1.00272 0.997817
1.01272 1 1.01497 0.99778
1.007 1.00032 1.00932 0.997386
0.999474 1.00147 1.00054 0.997473
1.00386 1.00015 1.00642 0.997306
1.00359 1.003 1.00342 0.997181
1.00516 1.00769 1 0.997489
1.01068 1.01308 1 0.997633
1.00665 1.00928 1.00002 0.997376
1.00312 1.00578 1 0.997355
1.00033 1.00255 1 0.997787
1.0019 1.00337 1.00107 0.99746
1.00304 1.00339 1.00244 0.997217
0.998376 1 1 0.998376
0.998305 1 1.00002 0.998281
0.998458 1.00004 1.00032 0.998099
0.999542 1 1.00078 0.998762
0.999759 1 1.00125 0.998507
0.999537 1 1.0011 0.998443
0.999545 1 1.00005 0.999491
0.999778 1 1.0008 0.998976
1.00051 1 1.00176 0.998753
1 1 1 1
0.999692 1 1 0.999692
0.999378 1 1.00018 0.999196
1 1 1 1
1 1 1 1
0.999798 1 1 0.999798
1 1 1 1
1 1 1 1
1 1 1 1
0.999021 1 1 0.999021
0.999291 1 1 0.999291
0.999089 1 1 0.999089
0.999749 1 1 0.999749
0.999345 1 1 0.999345
0.999999 1 1 0.999999
0.999783 1 1 0.999783
0.999387 1 1 0.999387
1 1 1 1
1 1 1 1
0.999828 1 1 0.999828
1 1 1 1
1 1 1 1
1 1 1 1
0.957138 0.973253 0.989982 0.993394
0.94354 0.962555 0.983885 0.996301
0.954741 0.974663 0.982118 0.997395
0.998916 1 1 0.998916
0.999126 1 1 0.999126
0.99897 1 1 0.99897
0.999 1 1 0.999
0.998934 1 1 0.998934
0.998898 1 1 0.998898
0.99897 1 1.00016 0.998812
0.999023 1 1.00015 0.998874
0.99902 1 1 0.99902
0.998919 1 1 0.998919
0.999083 1 1.00012 0.998959
0.999346 1 1.00028 0.999065
0.872948 0.914225 0.970025 0.984355
0.957629 0.972148 0.995345 0.989672
0.952089 0.967395 0.991408 0.992708
0.872202 0.940845 0.941579 0.984559
0.915029 0.952947 0.974646 0.985189
0.9661 0.964118 1.0172 0.98511
0.948541 0.961618 0.993389 0.992966
0.965172 0.968074 1.00207 0.994945
0.820649 0.899024 0.92973 0.981814
0.964758 0.963372 1.0167 0.984993
0.875193 0.931092 0.95394 0.98535
0.956046 0.967298 0.993005 0.995329
0.95649 0.958262 1.01143 0.986875
0.849512 0.910042 0.947565 0.985143
1.00002 1 1.00041 0.999611
1.00023 1 1.00098 0.999251
1.00101 1 1.00211 0.998904
0.989804 0.972009 1.01934 0.99899
1.01504 0.998926 1.01685 0.99929
1.00683 1 1.00779 0.999043
1.0111 0.99989 1.01187 0.999347
0.996133 0.984003 1.01355 0.998796
1.00202 0.993585 1.00939 0.999113
0.903677 0.928116 0.986912 0.98658
0.958418 0.970057 0.99397 0.993996
0.954205 0.964296 0.992169 0.997345
0.997389 0.977366 1.02111 0.99939
0.938301 0.963446 0.978971 0.994822
0.956269 0.972384 0.990531 0.992829
0.953747 0.956011 1.01093 0.986844
0.862887 0.923253 0.948974 0.98487
0.864806 0.910864 0.964203 0.984683
0.97616 0.981076 0.996428 0.998556
0.89264 0.924448 0.978053 0.98726
0.86708 0.908491 0.968362 0.9856
0.943577 0.958844 0.991579 0.992435
0.94815 0.963333 0.997545 0.986661
0.965732 0.987931 0.97836 0.999152
0.880131 0.920317 0.969967 0.985945
0.956976 0.975025 0.994159 0.987255
0.95645 0.972165 0.991537 0.992233
1.01648 0.997622 1.0196 0.999316
0.989883 1.00035 0.990637 0.998886
0.9825 1.00247 0.981634 0.998415
1.01225 1.00095 1.01295 0.998363
1.00332 1.00229 1.00322 0.997809
1.00067 1.00327 0.999428 0.997981
1.0059 1.0005 1.00802 0.9974
0.999585 1.00109 1.00101 0.997487
1.00893 1.01102 1 0.99794
1.00389 1.00395 1.00275 0.9972
1.00497 1.00749 1 0.997495
1.01283 1.01488 1 0.99798
1.01642 1.01849 1 0.997972
1.01146 1.01391 1 0.997578
1.01036 1.01274 1 0.997657
1.00515 1.00758 1 0.997593
1.00593 1.00853 1 0.997416
1.0029 1.00555 1 0.99737
0.998649 1.00052 1 0.998132
1.00084 1.0029 1.00014 0.997804
1.00074 1.00185 1.00148 0.997414
0.998601 1 1 0.998601
0.998371 1 1 0.998371
0.99834 1 1 0.99834
0.999263 1 1.00001 0.999251
0.999406 1 1.00064 0.998764
0.999896 1 1.00137 0.998527
0.999988 1 1 0.999988
0.999514 1 1.00003 0.999488
0.999689 1 1.00071 0.998977
1 1 1 1
0.999998 1 1 0.999998
0.999686 1 1 0.999686
1 1 1 1
1 1 1 1
1 1 1 1
0.998991 1 1 0.998991
0.999022 1 1 0.999022
0.999217 1 1 0.999217
0.999715 1 1 0.999715
0.999291 1 1 0.999291
0.999077 1 1 0.999077
0.999997 1 1 0.999997
0.999751 1 1 0.999751
0.999344 1 1 0.999344
1 1 1 1
1 1 1 1
0.999786 1 1 0.999786
1 1 1 1
1 1 1 1
1 1 1 1
0.896237 0.920832 0.986961 0.986149
0.956723 0.971862 0.990958 0.993405
0.944009 0.962641 0.984272 0.996315
0.998903 1 1 0.998903
0.998851 1 1 0.998851
0.998828 1 1 0.998828
0.999014 1 1 0.999014
0.998949 1 1 0.998949
0.998896 1 1 0.998896
0.998963 1 1.00009 0.998872
0.99901 1 1.0002 0.998813
0.999031 1 1.0003 0.998729
0.99912 1 1.00002 0.999102
0.998951 1 1 0.998951
0.999099 1 1.00004 0.999055
0.864512 0.906391 0.968095 0.985229
0.867997 0.908476 0.971218 0.983758
0.961654 0.975694 0.995951 0.989616
0.805097 0.885199 0.927632 0.980463
0.876299 0.928509 0.958478 0.984655
0.967837 0.966706 1.01403 0.987315
0.965531 0.965152 1.00735 0.993098
0.954349 0.965265 0.994978 0.993682
0.849958 0.903271 0.956109 0.984173
0.94841 0.955426 1.00609 0.986645
0.952618 0.966892 0.990968 0.994217
0.947694 0.965729 0.995114 0.986143
1.00726 1 1.00819 0.999079
0.999825 1 1.00027 0.999559
0.999517 1 1.00026 0.999253
0.993435 0.982724 1.01207 0.99884
1.0104 1 1.01106 0.999347
1.00247 0.994336 1.00918 0.999008
0.994084 0.997796 0.997979 0.998298
0.878618 0.930797 0.957224 0.986125
0.907357 0.928256 0.990043 0.987317
0.958322 0.969513 0.993596 0.994828
0.974882 0.981971 0.994132 0.99864
0.943201 0.95853 0.990664 0.99328
0.893069 0.925629 0.977204 0.987332
0.946226 0.960401 0.99936 0.985871
0.869607 0.91404 0.965731 0.985148
0.969242 0.988765 0.981516 0.998715
0.883852 0.925381 0.969114 0.985562
0.95836 0.976547 0.995215 0.986095
0.961291 0.972552 0.994504 0.993884
0.981891 0.995891 0.986963 0.998965
0.956939 0.980136 0.989858 0.986336
0.970793 0.986933 0.988625 0.994964
0.98594 1 0.986946 0.99898
0.98341 1.00315 0.981904 0.998393
0.98415 1.00607 0.979882 0.998296
1.00381 1.00263 1.00338 0.9978
1.00003 1.00342 0.998648 0.997976
1.01151 1.01595 0.997227 0.998395
0.999549 1.00063 1.00142 0.997501
1.00873 1.01082 1 0.997932
1.01778 1.01957 0.999888 0.998356
1.00463 1.00715 1 0.997501
1.0123 1.01435 1 0.997979
1.01728 1.01903 1 0.998281
1.01485 1.0167 1 0.998176
1.01634 1.01836 1 0.998011
1.01577 1.01793 1 0.997879
1.01123 1.01359 1 0.997665
1.01218 1.01463 1 0.997582
1.01006 1.01241 1 0.99768
1.0007 1.00285 1 0.997856
1.00572 1.00811 1 0.997629
1.0052 1.00777 1 0.997456
0.998417 1 1 0.998417
0.99915 1.00103 1 0.998125
1.00122 1.00323 1.00017 0.997822
0.999072 1 1 0.999072
0.9986 1 1 0.9986
0.998407 1.00004 1 0.998366
0.999939 1 1 0.999939
0.999304 1 1.00005 0.999251
0.999331 1 1.00057 0.998767
1 1 1 1
0.999978 1 1 0.999978
0.999536 1 1.00005 0.999484
1 1 1 1
0.999996 1 1 0.999996
1 1 1 1
0.998922 1 1 0.998922
0.99898 1 1 0.99898
0.999136 1 1 0.999136
0.999023 1 1 0.999023
0.999217 1 1 0.999217
0.999659 1 1 0.999659
0.999995 1 1 0.999995
0.999718 1 1 0.999718
0.999291 1 1 0.999291
1 1 1 1
0.999998 1 1 0.999998
0.999753 1 1 0.999753
1 1 1 1
1 1 1 1
1 1 1 1
0.888152 0.924372 0.974821 0.985635
0.897759 0.924206 0.985332 0.985845
0.955636 0.969859 0.991866 0.993415
0.99889 1 1 0.99889
0.998829 1 1.00003 0.998801
0.998883 1 1 0.998883
0.998659 1 1 0.998659
0.998801 1 1.00004 0.998758
0.998967 1 1.0001 0.998869
0.999034 1 1.00022 0.998813
0.998961 1 1.00021 0.998753
0.998624 1 1 0.998624
0.998925 1 1 0.998925
0.998798 1.00034 1.00026 0.998205
0.999471 1 1.00032 0.999149
0.999075 1 1.00003 0.999045
0.953421 0.976472 0.990374 0.985883
0.867996 0.905942 0.972548 0.985159
0.869332 0.911544 0.969538 0.983656
0.84911 0.903831 0.954246 0.984502
0.952861 0.957655 1.01023 0.984921
0.956976 0.96454 0.996682 0.995461
0.953808 0.966999 0.99102 0.995296
0.952199 0.96709 0.997349 0.987219
0.971665 0.989055 0.988054 0.994297
1.00134 1.00132 1.00175 0.998278
1.00571 1 1.00666 0.999059
0.999505 1 1 0.999505
1.003 0.996078 1.00804 0.998918
0.997916 1.00038 0.999344 0.998191
0.94162 0.974519 0.97881 0.987158
0.886845 0.930353 0.966943 0.985822
0.911841 0.92875 0.993654 0.988063
0.972494 0.98961 0.984416 0.998262
0.955896 0.967404 0.995749 0.992322
0.884811 0.923507 0.972342 0.985351
0.957394 0.973736 0.996047 0.98712
0.981126 0.99589 0.986187 0.998974
0.959292 0.982645 0.988565 0.987527
0.972334 0.987597 0.991209 0.993278
0.999695 1.00525 0.996025 0.998441
0.983935 0.996496 0.990831 0.996532
0.984413 1.00397 0.982119 0.998375
0.986058 1.00565 0.982239 0.998249
1.00492 1.02369 0.983251 0.998389
0.999665 1.00358 0.998123 0.997971
1.0107 1.01525 0.997137 0.998384
1.01805 1.02448 0.995162 0.998553
1.00861 1.01071 1 0.997924
1.01765 1.0197 0.999647 0.998341
1.01834 1.02062 0.999319 0.998451
1.01193 1.01398 1 0.997979
1.01756 1.01935 0.999979 0.998266
1.01522 1.01696 1 0.998293
1.01555 1.01736 1 0.998216
1.01468 1.01668 1 0.998036
1.01625 1.01824 1 0.998051
1.01556 1.01772 1 0.997873
1.01336 1.0156 1 0.997801
1.00576 1.00799 1 0.997788
1.01099 1.01337 1 0.997656
1.01287 1.01532 1 0.997586
0.99865 1.00043 1 0.998217
1.00105 1.00318 1 0.997878
1.00628 1.00863 1 0.997664
0.998924 1 1 0.998924
0.998459 1.00005 1 0.998412
0.999561 1.00145 1 0.998119
0.999845 1 1 0.999845
0.999073 1 1 0.999073
0.998599 1 1 0.998599
1 1 1 1
0.99992 1 1 0.99992
0.999291 1 1.00004 0.999251
1 1 1 1
0.999967 1 1 0.999967
1 1 1 1
0.998673 1 1 0.998673
0.998921 1 1 0.998921
0.999013 1 1 0.999013
0.998969 1 1 0.998969
0.999116 1 1 0.999116
0.99955 1 1 0.99955
0.999216 1 1 0.999216
0.999661 1 1 0.999661
0.999991 1 1 0.999991
1 1 1 1
0.999996 1 1 0.999996
0.99972 1 1 0.99972
1 1 1 1
0.999999 1 1 0.999999
1 1 1 1
0.958147 0.981 0.988852 0.987716
0.880698 0.926376 0.964106 0.986087
0.907595 0.929961 0.990057 0.985752
0.998788 1 1.00001 0.998773
0.998915 1 1 0.998915
0.998774 1 1.00001 0.998769
0.998671 1 1 0.998671
0.998968 1.00058 1.00002 0.998369
0.998678 1 1 0.998678
0.998859 1 1.00008 0.998776
0.998544 1 1 0.998544
0.999218 1 1.00033 0.998889
0.998455 1 1 0.998455
1.00048 1.00213 1 0.998347
0.998431 1.00129 0.999365 0.997779
0.999168 1.00081 1.00006 0.998306
0.999835 1 1.00064 0.999195
0.969699 0.988562 0.986375 0.994468
0.955453 0.977001 0.991102 0.986724
0.86249 0.906676 0.965636 0.985119
0.964125 0.973404 1.00467 0.985862
0.95209 0.966375 0.989059 0.996116
0.976031 0.990344 0.98926 0.996247
0.993779 1.00386 0.991579 0.99836
0.999015 1.00067 1 0.998343
1.00466 1 1.00563 0.999039
0.997604 1.00112 0.998415 0.998069
0.970762 0.983482 0.992603 0.994422
0.95178 0.976764 0.985913 0.988344
0.879377 0.926309 0.962545 0.986276
0.981692 0.997193 0.985462 0.99898
0.977723 0.989754 0.993279 0.994529
0.962171 0.983227 0.989731 0.988739
0.99344 1.00449 0.990537 0.998452
0.981947 0.994951 0.990973 0.995921
1.00205 1.02255 0.981717 0.998202
1.00618 1.01475 0.993581 0.997969
0.987623 1.00505 0.984436 0.998199
1.00531 1.02339 0.983925 0.998381
1.00859 1.02858 0.982122 0.998413
1.01004 1.0148 0.996924 0.998373
1.01773 1.02416 0.995181 0.99854
1.01404 1.02065 0.995123 0.998392
1.01743 1.01976 0.999384 0.998325
1.01797 1.02043 0.999152 0.998437
1.01656 1.01898 0.99938 0.998245
1.0178 1.01964 0.999941 0.998251
1.01491 1.01668 0.999971 0.998291
1.01479 1.01677 1 0.998056
1.01625 1.01802 1 0.998255
1.01446 1.01642 1 0.998067
1.01401 1.01618 1 0.997865
1.01539 1.01756 1 0.997867
1.01328 1.01552 1 0.997793
1.00817 1.01034 1 0.997854
0.99968 1.00162 1 0.998063
1.00549 1.0077 1 0.997807
1.01081 1.01319 1 0.997648
0.998759 1 1 0.998759
0.998969 1.00075 1 0.998217
1.00148 1.00359 1 0.9979
0.99973 1 1 0.99973
0.998922 1 1 0.998922
0.998538 1.00013 1 0.998407
1 1 1 1
0.99983 1 1 0.99983
0.999073 1 1 0.999073
1 1 1 1
0.999902 1 1 0.999902
1 1 1 1
0.999682 1.00127 1 0.998413
0.998684 1 1 0.998684
0.998838 1 1 0.998838
0.998921 1 1 0.998921
0.998996 1 1 0.998996
0.999399 1 1 0.999399
0.999096 1 1 0.999096
0.999552 1 1 0.999552
0.999981 1 1 0.999981
0.999663 1 1 0.999663
0.999992 1 1 0.999992
1 1 1 1
1 1 1 1
0.999996 1 1 0.999996
1 1 1 1
0.970524 0.985901 0.989579 0.99477
0.953991 0.980752 0.985614 0.986912
0.875189 0.922745 0.962341 0.985578
1.00324 1.00513 1.00007 0.998055
0.99878 1 1 0.99878
0.998683 1 1 0.998683
0.998657 1 1 0.998657
0.999159 1.00068 1.00012 0.998359
0.99958 1.00099 1 0.998588
0.998465 1 1 0.998465
0.999499 1 1.00065 0.998854
0.998499 1 1 0.998499
0.999827 1.0015 1 0.998324
1.00118 1.00339 1 0.997793
1.00319 1.0058 0.999702 0.997702
0.999514 1.00195 0.999828 0.997736
0.999741 1.00134 1 0.998406
0.99725 1.00622 0.992255 0.998824
0.969676 0.989085 0.986621 0.993672
0.958942 0.978034 0.992575 0.987814
0.970991 0.986641 0.989301 0.994781
0.998017 1.00592 0.993484 0.99865
0.999448 1.0002 1.00084 0.998408
1.00041 1.00668 0.995681 0.998078
0.96815 0.978867 0.993412 0.995611
0.946363 0.976651 0.981509 0.987242
0.986704 1.00283 0.985437 0.998458
0.984108 0.995753 0.993088 0.995184
1.00306 1.02339 0.981876 0.998226
1.00519 1.01307 0.994125 0.998089
1.0091 1.02841 0.983007 0.998189
1.0177 1.02265 0.997044 0.998111
1.00572 1.02294 0.984765 0.998372
1.01093 1.02969 0.983333 0.998415
1.00696 1.02165 0.987338 0.998258
1.01728 1.02363 0.995259 0.998527
1.01489 1.02108 0.995541 0.998389
1.01645 1.02055 0.997852 0.998132
1.01769 1.02027 0.999051 0.998423
1.01659 1.01884 0.999535 0.998259
1.01627 1.01834 1 0.997967
1.01461 1.01639 0.999958 0.99829
1.01441 1.01638 1 0.998057
1.01596 1.01815 1 0.997845
1.01424 1.01617 1 0.998097
1.01404 1.0162 1 0.997882
1.00959 1.01179 1 0.99782
1.01316 1.01541 1 0.997785
1.0081 1.01028 1 0.997835
1.00139 1.00335 1 0.998041
0.998632 1 1 0.998632
0.99996 1.00188 1 0.998087
1.00517 1.00736 1 0.997827
0.999613 1 1 0.999613
0.998758 1 1 0.998758
0.999261 1.00105 1 0.998217
1 1 1 1
0.999718 1 1 0.999718
0.99892 1 1 0.99892
1 1 1 1
0.999815 1 1 0.999815
1 1 1 1
1.00117 1.00306 1 0.998119
0.999232 1.00081 1 0.998419
0.998629 1 1 0.998629
0.998703 1 1.00001 0.998696
0.998846 1 1 0.998846
0.999239 1 1 0.999239
0.998978 1 1 0.998978
0.999399 1 1 0.999399
0.999953 1 1 0.999953
0.999554 1 1 0.999554
0.999984 1 1 0.999984
1 1 1 1
0.999994 1 1 0.999994
1 1 1 1
1 1 1 1
1.00207 1.01048 0.992866 0.998803
0.966373 0.984904 0.987895 0.993207
0.955482 0.976138 0.990759 0.987969
1.0048 1.00658 1.00001 0.998218
1.00757 1.00976 1 0.997833
1.00301 1.00479 1.00013 0.998092
0.998635 1 1 0.998635
0.999379 1.00079 1.00024 0.998347
1.00001 1.00147 1 0.998534
1.00609 1.0082 1 0.997905
0.998543 1 1 0.998543
0.99907 1.00077 1 0.998302
1.00155 1.00371 1 0.997848
1.00863 1.01114 1 0.997516
1.01159 1.01681 0.996837 0.998021
1.00305 1.00585 0.999532 0.997681
1.00028 1.00262 0.999967 0.997693
1.00076 1.00859 0.993304 0.998923
0.970605 0.988922 0.988672 0.992723
0.998897 1.00727 0.992729 0.998947
1.01353 1.01964 0.995368 0.998629
0.999166 1.00539 0.995648 0.998152
0.967208 0.981975 0.990893 0.994014
1.0044 1.02438 0.982213 0.998249
1.00353 1.01164 0.99376 0.998212
1.00794 1.02828 0.981937 0.998244
1.01989 1.02491 0.996975 0.998122
1.01497 1.026 0.991102 0.998131
1.02795 1.0334 0.996481 0.998235
1.01317 1.03116 0.984114 0.998417
1.00749 1.02121 0.988277 0.998262
1.01873 1.02586 0.995006 0.998042
1.01569 1.0215 0.995916 0.998386
1.01669 1.02022 0.998405 0.99813
1.01959 1.02184 0.999893 0.99791
1.01653 1.01864 0.999653 0.998273
1.01628 1.01835 1 0.997965
1.01874 1.02102 1 0.997767
1.01399 1.01597 1 0.998057
1.01587 1.01806 1 0.997845
1.01141 1.01368 1 0.997763
1.01407 1.01621 1 0.997899
1.0095 1.0117 1 0.997824
1.00193 1.00395 1 0.997986
1.00805 1.01026 1 0.997815
1.00138 1.00335 1 0.99803
0.998558 1 1 0.998558
0.999534 1 1 0.999534
0.998632 1 1 0.998632
1.00024 1.00213 1 0.998112
1 1 1 1
0.999602 1 1 0.999602
0.998757 1 1 0.998757
1 1 1 1
0.999706 1 1 0.999706
1 1 1 1
1.00133 1.00347 1 0.997871
1.00094 1.00285 1 0.998092
0.998825 1.00046 1 0.998363
0.998786 1.00036 1 0.998424
0.998634 1 1 0.998634
0.999066 1 1 0.999066
0.998854 1 1 0.998854
0.999239 1 1 0.999239
0.999893 1 1 0.999893
0.999398 1 1 0.999398
0.999962 1 1 0.999962
1 1 1 1
0.999988 1 1 0.999988
1 1 1 1
1 1 1 1
1.01209 1.02056 0.993246 0.998441
0.999206 1.00951 0.991266 0.998511
0.964059 0.985016 0.984611 0.994021
1.01143 1.01359 1 0.997867
1.00339 1.00502 1 0.998378
1.0158 1.01813 1 0.997713
1.00743 1.00964 1 0.997818
1.00278 1.00448 1.00018 0.99813
1.01726 1.01975 1 0.997555
1.00045 1.00197 1 0.998481
1.00587 1.00804 1 0.997848
1.02225 1.0249 0.999729 0.997689
1.00176 1.00387 1 0.997902
1.00935 1.01189 1 0.997487
1.01148 1.01602 0.997494 0.998033
1.00257 1.00527 0.999662 0.997658
1.00345 1.01047 0.994023 0.999024
1.0253 1.03062 0.99652 0.998312
1.01317 1.01945 0.995205 0.998631
0.998525 1.00409 0.996228 0.998223
1.0069 1.02782 0.981315 0.998299
1.02078 1.02615 0.996633 0.998132
1.01437 1.02629 0.990218 0.998145
1.02822 1.03445 0.995737 0.998239
1.02772 1.03468 0.995132 0.998134
1.00795 1.02063 0.989291 0.998266
1.01868 1.02544 0.995354 0.998049
1.02287 1.02718 0.997885 0.99791
1.01695 1.01993 0.998944 0.998128
1.01927 1.02149 0.999932 0.997894
1.02103 1.02339 1 0.997696
1.01637 1.01845 1 0.997964
1.01856 1.02085 1 0.997766
1.01422 1.01658 1 0.997681
1.0158 1.01799 1 0.997846
1.01155 1.01381 1 0.997764
1.00272 1.00483 1 0.997898
1.00942 1.01162 1 0.997828
1.00212 1.00415 1 0.997988
0.998484 1 1 0.998484
1.00134 1.00333 1 0.998019
0.998556 1 1 0.998556
0.99957 1 1 0.99957
0.999881 1 1 0.999881
0.999557 1 1 0.999557
0.998632 1 1 0.998632
1 1 1 1
0.999591 1 1 0.999591
1 1 1 1
1.02103 1.02333 1 0.997756
1.00793 1.01015 1 0.997809
1.00144 1.00359 1 0.997855
1.00043 1.00226 1 0.998171
1.00063 1.00257 1 0.998065
0.998645 1.00028 1 0.998367
0.99888 1 1 0.99888
0.998639 1 1 0.998639
0.999069 1 1 0.999069
0.999792 1 1 0.999792
0.999239 1 1 0.999239
0.99991 1 1 0.99991
1 1 1 1
0.999972 1 1 0.999972
1 1 1 1
1 1 1 1
1.02649 1.02996 0.998552 0.998069
1.01562 1.02364 0.993634 0.998526
0.997743 1.00962 0.990002 0.998218
1.01975 1.02218 1 0.997617
1.01042 1.0125 1 0.997941
1.00191 1.00338 1 0.998536
1.0159 1.01821 1 0.997734
1.00731 1.00952 1 0.997804
1.0253 1.02769 1 0.997672
1.01574 1.01826 1 0.997518
1.00576 1.00799 1 0.997791
1.02176 1.02426 0.999876 0.997683
1.01102 1.01359 1 0.997458
1.01349 1.01736 0.998141 0.998048
1.03142 1.03572 0.99763 0.998221
1.02707 1.03182 0.997063 0.99832
1.01405 1.01939 0.996125 0.998634
1.01464 1.02745 0.989353 0.998159
1.02916 1.0358 0.995335 0.998244
1.02772 1.03537 0.994453 0.998148
1.02761 1.03139 0.998361 0.997967
1.01852 1.02491 0.995697 0.998056
1.0232 1.02687 0.998524 0.997902
1.02333 1.0257 1 0.99769
1.01892 1.02111 0.999979 0.997877
1.02129 1.02365 1 0.997696
1.01735 1.01979 1 0.99761
1.01837 1.02065 1 0.997765
1.01428 1.01664 1 0.997681
1.00382 1.00603 1 0.997801
1.01167 1.01393 1 0.997765
1.003 1.00512 1 0.997898
0.998388 1 1 0.998388
1.00233 1.00435 1 0.99799
0.998482 1 1 0.998482
0.999566 1 1 0.999566
0.998554 1 1 0.998554
0.999566 1 1 0.999566
0.999887 1 1 0.999887
0.999942 1 1 0.999942
0.999581 1 1 0.999581
1 1 1 1
1.0222 1.02464 1 0.997621
1.01215 1.01436 1 0.997826
1.02096 1.02316 1 0.997852
1.00191 1.00388 1 0.998042
1.00878 1.011 1 0.997803
1.00158 1.00375 1 0.997838
0.99981 1.00164 1 0.99817
0.998708 1 1 0.998708
0.998499 1.00013 1 0.998371
0.998883 1 1 0.998883
0.999666 1 1 0.999666
0.999072 1 1 0.999072
0.999809 1 1 0.999809
1 1 1 1
0.999926 1 1 0.999926
1 1 1 1
1 1 1 1
1.02909 1.03165 0.99956 0.997949
1.0264 1.02994 0.998492 0.998066
1.01678 1.0253 0.993071 0.998606
1.02555 1.02799 1 0.997621
1.01909 1.02153 1 0.99762
1.00953 1.01153 1 0.998016
1.01591 1.01819 1 0.997755
1.02525 1.02766 0.999993 0.997654
1.01416 1.01672 1 0.99748
1.01974 1.02216 0.999956 0.997677
1.03063 1.03371 0.998991 0.998027
1.03093 1.03518 0.997705 0.998183
1.02915 1.03362 0.997344 0.998328
1.0259 1.02887 0.999255 0.997861
1.02763 1.036 0.993744 0.998162
1.02725 1.03131 0.998102 0.997957
1.02501 1.02731 1 0.997763
1.02357 1.02659 0.999158 0.997894
1.02376 1.02613 1 0.997692
1.01967 1.02215 1 0.997573
1.02153 1.02388 1 0.997696
1.01708 1.01951 1 0.997611
1.00537 1.00767 1 0.997719
1.01433 1.01669 1 0.997681
1.0042 1.00641 1 0.997801
0.998313 1.00002 1 0.998291
1.0033 1.00541 1 0.997899
0.998387 1 1 0.998387
0.999546 1 1 0.999546
0.99848 1 1 0.99848
0.99956 1 1 0.99956
0.99989 1 1 0.99989
0.999563 1 1 0.999563
0.999889 1 1 0.999889
1 1 1 1
1.02279 1.02533 1 0.997523
1.01457 1.01695 1 0.997657
1.02273 1.02515 1 0.997643
1.00224 1.00424 1 0.998013
1.01203 1.01423 1 0.997827
1.02096 1.02307 1 0.997946
0.998555 1 1 0.998555
1.00163 1.0036 1 0.998038
1.00973 1.01196 1 0.997796
0.999149 1.00098 1 0.998169
0.998709 1 1 0.998709
0.99956 1 1 0.99956
0.998885 1 1 0.998885
0.999679 1 1 0.999679
1 1 1 1
0.999826 1 1 0.999826
1 1 1 1
1 1 1 1
1.0288 1.03112 0.99993 0.997814
1.02917 1.03185 0.99947 0.997934
1.0269 1.03034 0.998592 0.998063
1.02495 1.02739 1 0.997626
1.01842 1.02084 1 0.997623
1.0251 1.02753 0.999997 0.997637
1.02654 1.02885 0.999896 0.997862
1.03053 1.03368 0.998928 0.998019
1.02991 1.03412 0.997785 0.998145
1.02649 1.02924 0.999457 0.997876
1.02364 1.02598 1 0.997721
1.02688 1.03122 0.997845 0.997948
1.02492 1.02725 1 0.997736
1.02064 1.02309 1 0.997604
1.02415 1.02652 1 0.997694
1.01939 1.02187 1 0.997576
1.00709 1.00946 1 0.997653
1.01688 1.01931 1 0.997612
1.00588 1.00818 1 0.997719
0.998353 1.00014 1 0.998214
1.00457 1.00679 1 0.997801
0.998342 1.00005 1 0.99829
0.999505 1 1 0.999505
0.998385 1 1 0.998385
0.999536 1 1 0.999536
0.999879 1 1 0.999879
0.999555 1 1 0.999555
0.999896 1 1 0.999896
0.999888 1 1 0.999888
1.02447 1.02685 1 0.997685
1.01728 1.01981 1 0.997523
1.02308 1.02561 1 0.997533
1.00406 1.00622 1 0.997853
1.01434 1.01672 1 0.997663
1.02317 1.02557 1 0.997665
0.998439 1 1 0.998439
1.00224 1.00428 1 0.997968
1.01179 1.01399 1 0.997829
0.999496 1 1 0.999496
0.998557 1 1 0.998557
1.00131 1.00329 1 0.998034
0.998711 1 1 0.998711
0.99957 1 1 0.99957
1 1 1 1
0.999692 1 1 0.999692
1 1 1 1
1 1 1 1
1.02497 1.02726 1 0.997777
1.02813 1.03053 0.999854 0.997813
1.02955 1.03236 0.999357 0.997918
1.02437 1.0268 1 0.997632
1.02405 1.02643 1 0.997686
1.02698 1.02947 0.999713 0.997871
1.03034 1.03358 0.998852 0.998011
1.02708 1.02959 0.999669 0.997892
1.02342 1.02578 0.99997 0.997729
1.01941 1.02185 1 0.997617
1.02492 1.02727 1 0.997709
1.02039 1.02285 1 0.997593
1.00824 1.01064 1 0.997618
1.01909 1.02157 1 0.997579
1.00747 1.00984 1 0.997655
0.998382 1.00024 1 0.998144
1.00634 1.00864 1 0.997719
0.998383 1.00017 1 0.998213
0.999393 1 1 0.999393
0.998373 1.00008 1 0.998289
0.999466 1 1 0.999466
1 1 1 1
0.999527 1 1 0.999527
0.999888 1 1 0.999888
0.999899 1 1 0.999899
1.02302 1.02534 1 0.997732
1.01846 1.02093 1 0.997581
1.02411 1.02649 1 0.997683
1.00667 1.00902 1 0.99767
1.01738 1.01988 1 0.997545
1.02349 1.02601 1 0.997543
0.998307 1.00005 1 0.998254
1.00408 1.00624 1 0.997852
1.01419 1.01656 1 0.99767
0.999466 1 1 0.999466
0.9984 1 1 0.9984
1.00227 1.00435 1 0.997924
1 1 1 1
0.999506 1 1 0.999506
0.99856 1 1 0.99856
0.99958 1 1 0.99958
1 1 1 1
1 1 1 1
1.02335 1.02571 1 0.997695
1.0253 1.02758 1 0.997786
1.02744 1.02991 0.999785 0.997811
1.02048 1.02297 1 0.997566
1.02324 1.02561 1 0.997691
1.02743 1.03009 0.999535 0.99788
1.02319 1.02559 0.999928 0.997738
1.01949 1.02193 1 0.997617
1.0083 1.01066 1 0.997664
1.02007 1.02255 1 0.997582
1.0083 1.01068 1 0.997649
0.998327 1.00031 1 0.998014
1.00787 1.01024 1 0.997657
0.998405 1.00026 1 0.998145
0.999341 1 1 0.999341
0.998421 1.00021 1 0.998212
0.99939 1 1 0.99939
1 1 1 1
0.99942 1 1 0.99942
0.999934 1 1 0.999934
0.999896 1 1 0.999896
1.02076 1.02311 1 0.997699
1.01874 1.02117 1 0.997623
1.02283 1.02515 1 0.997733
1.00765 1.01 1 0.997675
1.0189 1.02138 1 0.997575
1.02375 1.02613 1 0.99768
0.998531 1.00038 1 0.998147
1.0066 1.00891 1 0.997714
1.01743 1.01991 1 0.997566
0.999438 1 1 0.999438
0.998275 1.00004 1 0.99824
1.0041 1.00626 1 0.997851
1 1 1 1
0.999475 1 1 0.999475
0.99836 1 1 0.99836
1 1 1 1
0.999516 1 1 0.999516
1 1 1 1
1.02054 1.02299 1 0.997604
1.02295 1.02532 1 0.997688
1.02567 1.02793 1 0.997794
1.00751 1.00989 1 0.997647
1.02047 1.02294 1 0.99758
1.02247 1.02484 1 0.997696
1.01959 1.02203 1 0.997618
1.00833 1.01069 1 0.997663
0.998361 1.00039 1 0.997971
1.00838 1.01072 1 0.99768
0.99835 1.0003 1 0.998048
0.999275 1 1 0.999275
0.998411 1.00027 1 0.998145
0.999338 1 1 0.999338
1 1 1 1
0.999387 1 1 0.999387
1 1 1 1
0.999881 1 1 0.999881
1.01878 1.02119 1 0.997643
1.02107 1.02342 1 0.997708
1.00718 1.00952 1 0.997683
1.01864 1.02107 1 0.997623
1.02264 1.02496 1 0.997735
0.998608 1.00044 1 0.998164
1.00757 1.00993 1 0.997672
1.01933 1.02181 1 0.997569
0.999397 1 1 0.999397
0.998549 1.00038 1 0.998175
1.00653 1.00879 1 0.997758
1 1 1 1
0.999444 1 1 0.999444
0.998245 1.00002 1 0.998225
1 1 1 1
0.999483 1 1 0.999483
1 1 1 1
1.00691 1.00924 1 0.997684
1.02045 1.0229 1 0.9976
1.02248 1.02485 1 0.997682
0.998084 1.00011 1 0.99797
1.00755 1.00993 1 0.997647
1.02042 1.02288 1 0.997594
1.00835 1.01071 1 0.997663
0.998359 1.00039 1 0.997974
0.999224 1 1 0.999224
0.998382 1.0003 1 0.998083
0.999272 1 1 0.999272
1 1 1 1
0.999335 1 1 0.999335
1 1 1 1
1 1 1 1
1.00665 1.009 1 0.997677
1.01839 1.02079 1 0.997651
1.02137 1.02371 1 0.997716
0.998393 1.00025 1 0.99814
1.00736 1.0097 1 0.99768
1.01851 1.02094 1 0.997622
0.999351 1 1 0.999351
0.998624 1.00046 1 0.998163
1.00752 1.00988 1 0.997669
1 1 1 1
0.999401 1 1 0.999401
0.99857 1.00037 1 0.998202
1 1 1 1
0.99945 1 1 0.99945
1 1 1 1
0.998056 1 1 0.998056
1.00691 1.00928 1 0.997649
1.02038 1.02284 1 0.997596
0.999218 1 1 0.999218
0.998094 1.00012 1 0.997969
1.00759 1.00997 1 0.997647
0.998356 1.00038 1 0.997978
0.999223 1 1 0.999223
1 1 1 1
0.999268 1 1 0.999268
1 1 1 1
1 1 1 1
0.998151 1.00005 1 0.998102
1.00668 1.00903 1 0.997672
1.01803 1.02042 1 0.997658
0.999406 1 1 0.999406
0.998477 1.00034 1 0.998138
1.00756 1.00991 1 0.997678
1 1 1 1
0.999352 1 1 0.999352
0.99863 1.00047 1 0.998161
1 1 1 1
0.999404 1 1 0.999404
1 1 1 1
0.99922 1 1 0.99922
0.998028 1 1 0.998027
1.00691 1.00932 1 0.997613
1 1 1 1
0.999218 1 1 0.999218
0.998102 1.00013 1 0.997968
0.999222 1 1 0.999222
1 1 1 1
1 1 1 1
0.999358 1 1 0.999358
0.998218 1.00012 1 0.998103
1.0067 1.00905 1 0.997666
1 1 1 1
0.999311 1 1 0.999311
0.998561 1.00043 1 0.998136
1 1 1 1
0.999354 1 1 0.999354
1 1 1 1
0.999799 1 1 0.999799
0.999288 1 1 0.999288
0.998004 1.00001 1 0.997997
1 1 1 1
0.999218 1 1 0.999218
1 1 1 1
0.999816 1 1 0.999816
0.999318 1 1 0.999318
0.998286 1.00018 1 0.998103
0.999912 1 1 0.999912
0.99931 1 1 0.99931
1 1 1 1
1 1 1 1
0.999239 1 1 0.999239
1 1 1 1
0.999905 1 1 0.999905
0.999272 1 1 0.999272
1 1 1 1
1 1 1 1
1 1 1 1

VECTORS lamdaE float
1.00007 1.00015 0.99524
0.999959 1.00037 0.997733
0.99979 1.00034 0.995406
1.00038 0.999929 0.995014
1.00018 0.999964 0.995279
1.00007 1.00029 0.995067
1.0013 1.00049 0.99247
0.999967 1.00026 0.997752
0.999877 1.00023 0.99799
0.999508 1.00068 0.99803
0.99995 1.0002 0.995411
1.00111 1.00124 0.991524
1.00027 1.00001 0.994996
0.999996 0.999986 0.995259
0.999535 1.00055 0.995546
1.00016 0.999906 0.995231
0.999769 1.00058 0.99521
0.99994 1.00004 0.995463
1.00146 1.00033 0.992403
1.00026 1 0.997625
1.00041 0.999984 0.994894
1.0003 0.999885 0.995186
1.00171 0.999988 0.992283
1.0015 1.00013 0.9925
1.00007 1.00022 0.995038
1.00111 1.00098 0.992316
1.00388 1.00034 0.988267
0.999936 1.00019 0.997798
1.00002 1.00011 0.996565
0.999732 1.00052 0.996585
0.999914 0.999974 0.997903
1.00101 1.00136 0.991527
1.00029 0.999848 0.995079
1.00001 1.00038 0.995153
1.00179 1.00018 0.992697
0.999516 0.999365 0.998491
1.00145 1.00083 0.992694
1.00076 1.00153 0.991841
1.00298 1.00191 0.987569
0.999602 0.998378 0.998816
1.00028 1.00001 0.99759
1.00015 1.00001 0.996428
1.00024 0.999997 0.997616
0.999949 1.00004 0.995302
1.00187 1.00004 0.991386
1.00005 0.99996 0.997911
1.00199 1.00011 0.992446
0.999942 0.999845 0.995448
0.99971 1.00011 0.995633
0.999478 1.00091 0.995339
1.00161 1.00015 0.992348
1.00014 1.00001 0.996448
1.00018 0.999985 0.995118
0.999771 1.00055 0.995185
1.00009 0.999873 0.995387
1.0018 0.999954 0.992195
1.0013 1.00078 0.992243
1.00161 1.00004 0.992429
1.00387 1.00036 0.988251
1.00022 0.999999 0.997634
1.00036 1.00002 0.994937
1.00169 1 0.992917
1.00175 1.00002 0.992187
1.00164 0.999973 0.992419
1.0042 0.999936 0.988025
1.00404 1.00002 0.988029
0.999855 0.999679 0.995715
1.00062 1.00164 0.992354
1.00368 1.00078 0.988165
1.0049 1.0001 0.985974
1.00018 1.00014 0.997706
0.999808 0.999741 0.998093
0.999952 1.00036 0.997724
1.00094 1.00145 0.991525
1.00031 0.999979 0.997664
1.00007 1.00032 0.997724
1.00168 1.00013 0.991523
0.999621 0.999447 0.997329
1.00124 1.00092 0.991539
1.00063 1.00157 0.992605
1.00302 1.00186 0.987555
0.999719 0.998818 0.998537
0.999698 1.00016 0.995119
1.00189 0.999982 0.991383
1.00158 1.00042 0.991526
1.00418 1.0002 0.987133
1.00027 1.00129 0.994112
1.00352 1.00099 0.987531
1.00192 1.00348 0.987945
1.00409 1.00154 0.985851
0.999552 0.997991 0.999023
0.999536 0.998302 0.998906
1.00032 0.999988 0.997605
1.0003 1.00001 0.997591
1.00027 1 0.997611
1.00013 1.00001 0.99645
1.0019 1.00002 0.992016
1.00018 0.999969 0.996461
1.00193 1.00013 0.991869
1.00025 0.999994 0.997624
1.00178 0.999957 0.991576
1.00197 1.00011 0.992502
1.00431 0.999722 0.987409
1.00195 1.00002 0.992559
1.00434 0.999932 0.987157
1.00023 1.00001 0.99507
0.999943 0.99998 0.995347
0.999447 1.00094 0.995344
0.999872 0.999838 0.995584
1.00189 0.999959 0.992107
1.00173 0.999953 0.992364
1.00148 1.00053 0.992178
1.00386 1.00038 0.988235
1.00025 0.999997 0.997627
1.00012 1.00001 0.995161
1.0018 0.999978 0.991865
1.00183 1.00001 0.992089
0.999734 0.99993 0.996855
1.00087 1.00154 0.992478
1.00173 0.999924 0.992341
1.00421 0.999912 0.987929
1.00365 1.00082 0.988188
1.00403 1.00009 0.988101
1.00488 1.00011 0.986
1.00176 0.99998 0.991616
1.0017 1 0.992252
1.00422 0.999675 0.988033
1.00424 0.999847 0.987837
1.00415 0.999878 0.987945
1.00513 0.999547 0.986405
0.999661 0.999324 0.998391
1.00499 0.999819 0.986095
1.00011 1.0019 0.992435
1.00292 1.00193 0.987623
1.00481 1.00051 0.985808
1.0052 0.999847 0.985681
0.999858 1.0011 0.993766
1.00019 1.00394 0.990423
1.00029 1.00001 0.997679
1.00002 1.00031 0.997729
1.00169 1.00011 0.991524
0.999683 0.999161 0.998442
1.0004 1.00181 0.992077
1.00119 1.00096 0.991547
1.00305 1.00182 0.98754
0.999635 0.998743 0.998644
0.999692 1.00007 0.995165
1.0019 1.00001 0.992015
1.00157 1.00044 0.992136
1.00418 1.00021 0.98713
1.00006 1.00136 0.993255
1.00352 1.00097 0.987546
1.00193 1.00343 0.987926
1.00418 1.00148 0.985774
0.99984 1.0008 0.994241
0.999734 0.999461 0.99575
1.00028 1.00286 0.991435
1.0043 1.00007 0.987067
1.00388 1.00054 0.987324
1.00506 1.00008 0.985733
1.00108 1.00391 0.989042
1.00457 1.00077 0.985776
1.0031 1.00346 0.985761
1.0049 1.00105 0.985282
0.999585 0.997703 0.99911
0.999524 0.997932 0.999058
0.999485 0.998208 0.998976
0.999801 1.00066 0.994321
0.999626 0.998975 0.998565
1.00033 0.999975 0.997637
1.0003 1 0.997589
1.00185 1.00014 0.991291
1.00182 1.00003 0.991443
1.00024 1 0.99761
1.00022 0.999998 0.997624
1.00177 0.999966 0.99157
1.0019 1.0001 0.991914
1.00431 0.999721 0.987408
1.00185 1.00005 0.991345
1.00434 0.999931 0.987152
1.00174 0.999953 0.991631
1.00426 0.999651 0.987555
1.00433 0.999816 0.987277
1.00516 0.999074 0.986616
1.00434 1.00001 0.98708
1.00518 0.999458 0.986201
1.00023 0.999995 0.997623
0.999897 1.00002 0.995386
1.00182 0.999969 0.99091
1.00193 1 0.991988
0.99942 1.00012 0.99824
1.00118 1.00134 0.992598
1.00183 0.9999 0.992265
1.00423 0.999871 0.987832
1.00403 1.00016 0.988172
1.00361 1.00087 0.98821
1.00486 1.00013 0.986025
1.00174 0.999966 0.991619
1.00181 1 0.992146
1.00424 0.999655 0.98772
1.00426 0.999882 0.987889
0.999695 0.999407 0.998313
1.00036 1.0017 0.992951
1.00282 1.00213 0.987909
1.00415 0.999911 0.987925
1.00513 0.999428 0.986396
1.0048 1.00054 0.985725
1.00499 0.999873 0.986201
1.00519 0.99984 0.985708
0.999884 1.00111 0.993762
1.00028 1.00379 0.99044
1.00423 0.999648 0.987629
1.00424 0.99978 0.987917
1.00514 0.999171 0.986764
1.00515 0.999202 0.986497
1.00508 0.999578 0.986432
1.00524 0.998627 0.986949
0.999952 1.00149 0.993159
1.00521 0.999309 0.986219
1.00157 1.00351 0.988374
1.00435 1.00143 0.985471
1.00516 1.00057 0.985262
1.00518 0.999137 0.986531
1.00058 1.00383 0.989899
1.0001 1.00323 0.99127
1.00078 1.00465 0.988892
1.00182 0.999992 0.991445
0.999556 0.99865 0.998754
0.999688 0.999974 0.995211
1.00144 1.00049 0.99158
1.00418 1.00022 0.987127
0.999968 1.00144 0.993182
1.00191 1.00339 0.987908
1.00353 1.00096 0.987563
1.00426 1.00142 0.985697
0.999809 1.00076 0.994264
0.999748 0.999356 0.995788
1.00014 1.00302 0.991445
1.00429 1.00009 0.987059
1.00389 1.00053 0.987326
1.00506 1.00007 0.985716
1.001 1.00395 0.989066
1.00462 1.00079 0.985756
1.00318 1.00345 0.985733
1.00482 1.00088 0.985223
0.999851 0.998913 0.996073
1.00062 1.00342 0.990255
1.00008 1.00201 0.992621
1.00038 1.00441 0.989729
1.00512 0.99986 0.985853
1.00488 1.00041 0.985691
1.00519 0.999655 0.985929
1.00193 1.0046 0.986895
1.00501 1.00043 0.985449
1.00423 1.0027 0.984868
1.00513 1.00069 0.985119
1.00027 1.0003 0.993977
1.00005 0.998364 0.996257
0.999661 0.997467 0.999143
0.999581 0.997662 0.999122
0.999508 0.997878 0.999085
0.999797 1.00009 0.99491
0.999599 0.99862 0.998724
0.999821 1.0007 0.994297
0.999669 0.999024 0.998506
1.00185 1.00008 0.991338
1.00185 1.00009 0.991336
1.00433 0.999932 0.987147
1.0043 0.99972 0.987407
1.00179 0.999975 0.991566
1.00026 0.999999 0.997617
1.00175 0.999956 0.99163
1.00426 0.999656 0.987554
1.00433 0.999821 0.987273
1.00516 0.999082 0.986611
1.00432 1.00003 0.987071
1.00518 0.99946 0.986191
1.00422 0.999638 0.987644
1.00514 0.998963 0.986773
1.00518 0.999247 0.986408
1.00522 0.997765 0.987875
1.00516 0.999665 0.986015
1.00523 0.99841 0.987196
1.00175 0.999954 0.991622
1.00191 0.999985 0.99204
1.00426 0.999624 0.987409
1.00428 0.999913 0.98794
0.99975 0.999508 0.998225
1.00059 1.0016 0.993359
1.00282 1.00227 0.988193
1.00415 0.999931 0.987905
1.00513 0.999306 0.986387
1.00499 0.999928 0.986308
1.00479 1.00057 0.985642
1.00519 0.999831 0.985735
0.999919 1.00111 0.993757
1.00036 1.00368 0.990456
1.00423 0.999602 0.987572
1.00426 0.999764 0.987902
1.00514 0.999064 0.986878
1.00515 0.999326 0.98648
1.00002 1.00149 0.993146
1.00171 1.0034 0.988361
1.00434 1.00148 0.985489
1.00508 0.999644 0.986387
1.00524 0.998472 0.98713
1.00515 1.00055 0.985235
1.00521 0.999301 0.986239
1.00518 0.999096 0.986535
1.00064 1.00372 0.989905
1.00065 1.00458 0.98893
1.00014 1.00323 0.991263
1.00512 0.999069 0.986882
1.00514 0.999129 0.986814
1.00523 0.997873 0.987737
1.00525 0.998228 0.987304
1.00522 0.998715 0.986807
1.00518 0.997185 0.988405
1.00093 1.00371 0.989361
1.00518 0.998253 0.987247
1.00297 1.00319 0.986355
1.00504 1.00125 0.984484
1.00515 1.00029 0.985451
1.00512 0.99826 0.98745
1.00015 1.00236 0.992105
1.00123 1.00382 0.988781
1.00027 1.00489 0.989261
1.00139 1.00396 0.988642
1.00428 1.0001 0.987051
0.999758 0.999265 0.995825
0.999773 1.00072 0.994288
1.00004 1.00316 0.991455
1.00391 1.00052 0.987327
1.00508 1.00007 0.985699
1.00091 1.004 0.989091
1.00327 1.0035 0.985703
1.00468 1.00082 0.985736
1.00472 1.00073 0.985165
0.999859 0.998864 0.996089
1.00056 1.00352 0.990263
1.00005 1.00198 0.992655
1.00027 1.00461 0.989704
1.00513 0.999863 0.985837
1.0049 1.0004 0.985672
1.00519 0.999661 0.985916
1.00185 1.00465 0.986929
1.00504 1.00049 0.985456
1.0041 1.00258 0.984873
1.00511 1.00069 0.985033
0.999969 0.998562 0.9962
1.00016 1.00108 0.993407
1.00108 1.00445 0.988533
1.00011 1.00372 0.990922
1.00067 1.00456 0.98924
1.0052 0.999251 0.986336
1.00514 1.00003 0.985603
1.00514 0.998901 0.986706
1.00261 1.00436 0.986049
1.00513 1.00013 0.98558
1.00429 1.00187 0.984823
1.00027 1.00037 0.993902
1.00024 1.00167 0.992712
1.00024 1.0003 0.994033
1.00026 1.00031 0.993976
1.00008 0.998187 0.996862
1.00004 0.998353 0.996543
0.999815 0.997276 0.998039
0.999669 0.997423 0.999148
0.999581 0.997611 0.999132
0.999829 0.99953 0.995437
0.999603 0.998233 0.998889
0.999805 1.00016 0.994882
0.999643 0.998684 0.998667
0.999843 1.00074 0.994272
0.999706 0.999079 0.998445
1.00432 1.00004 0.987061
1.00433 0.999825 0.987269
1.00518 0.999474 0.986182
1.00516 0.99909 0.986606
1.00426 0.999661 0.987553
1.00174 0.999958 0.991628
1.00422 0.999636 0.987645
1.00513 0.998966 0.986776
1.00518 0.999261 0.986399
1.00522 0.99765 0.988005
1.00516 0.999672 0.986004
1.00523 0.998426 0.987182
1.00512 0.998934 0.986834
1.0052 0.997448 0.98827
1.00524 0.998003 0.987584
1.00523 0.99636 0.989213
1.0052 0.998856 0.986777
1.00517 0.996868 0.98867
1.00423 0.999558 0.987516
1.00428 0.999758 0.987888
1.00514 0.998967 0.986992
1.00514 0.999451 0.986463
1.00011 1.00146 0.993131
1.00174 1.00336 0.988348
1.00436 1.00152 0.985507
1.00508 0.999709 0.986342
1.00524 0.998315 0.987311
1.0052 0.999293 0.98626
1.00514 1.00054 0.985207
1.00518 0.999058 0.986537
1.00071 1.0036 0.98991
1.00062 1.00453 0.988968
1.00017 1.00321 0.991256
1.00513 0.999025 0.986835
1.00515 0.999125 0.986805
1.00522 0.997661 0.987977
1.00524 0.998304 0.987249
1.00098 1.0037 0.989335
1.00307 1.00308 0.986347
1.00489 1.00138 0.984557
1.00521 0.998873 0.98667
1.00518 0.996988 0.988629
1.00516 1.00029 0.985372
1.00518 0.998258 0.987262
1.00512 0.998158 0.987573
1.00131 1.00381 0.98877
1.00133 1.00399 0.988635
1.00017 1.00236 0.992088
1.00022 1.00478 0.989376
1.00522 0.997652 0.988013
1.00523 0.997987 0.987725
1.00517 0.996494 0.989098
1.0052 0.996284 0.989219
1.00517 0.997497 0.988072
1.00514 0.99618 0.989539
1.00193 1.00355 0.987867
1.00511 0.996879 0.98858
1.00375 1.00298 0.985094
1.00513 1.00145 0.98422
1.00515 0.99982 0.985697
1.0051 0.997894 0.987789
1.00014 1.00171 0.99275
1.00016 1.0042 0.990122
1.00181 1.00326 0.988331
1.0005 1.00501 0.988904
1.00167 1.00331 0.988865
0.999861 0.998827 0.996105
1.00514 0.999866 0.985822
1.00003 1.00194 0.992688
1.00047 1.00367 0.990271
1.00016 1.0048 0.989678
1.00492 1.00039 0.985653
1.00519 0.999667 0.985903
1.00187 1.00455 0.986962
1.00399 1.00246 0.984878
1.00507 1.00055 0.985464
1.00512 1.00069 0.984948
0.999973 0.998548 0.996207
1.00014 1.00107 0.993425
1.00107 1.00442 0.988554
0.999999 1.00386 0.990915
1.00054 1.00454 0.989179
1.0052 0.999255 0.986323
1.00515 1.00003 0.985586
1.00514 0.998874 0.986673
1.00252 1.00437 0.98605
1.00516 1.00016 0.985511
1.0045 1.00178 0.984817
1.00025 1.00058 0.993755
1.00014 1.00262 0.991972
1.00146 1.00424 0.988031
1.00014 1.00475 0.989996
1.00107 1.0039 0.989251
1.00516 0.998298 0.987302
1.00513 0.999463 0.986103
1.00511 0.998257 0.987059
1.00281 1.00343 0.986191
1.00497 1.00087 0.984866
1.00027 1.00038 0.993898
1.00025 1.00164 0.992629
1.00019 1.00171 0.992667
1.0002 1.00241 0.992169
1.0002 1.00171 0.992746
1.00019 1.00035 0.994057
1.00024 1.0003 0.994034
1.00011 0.998109 0.996877
1.00026 1.00032 0.993975
1.00009 0.998203 0.996864
0.999912 0.997051 0.998068
1.00003 0.998352 0.996825
0.999782 0.997236 0.998603
0.999679 0.997375 0.999152
0.999883 0.999019 0.995856
0.999825 0.999582 0.995414
0.999621 0.997884 0.999013
0.999632 0.998316 0.998828
0.999813 1.00022 0.994854
0.999686 0.998736 0.998609
1.00516 0.999678 0.985993
1.00518 0.999263 0.986391
1.00523 0.998435 0.987167
1.00522 0.997535 0.988135
1.00512 0.998967 0.986779
1.00422 0.999636 0.987646
1.00512 0.998934 0.986837
1.0052 0.997448 0.988274
1.00524 0.998014 0.987579
1.00521 0.996165 0.989408
1.00521 0.998853 0.986755
1.00517 0.996751 0.988801
1.00522 0.997469 0.988223
1.00522 0.99615 0.989429
1.00521 0.996227 0.989363
1.00521 0.995321 0.990233
1.00517 0.997564 0.988016
1.00516 0.995781 0.989738
1.00513 0.998978 0.986789
1.00515 0.999131 0.986797
1.00522 0.99744 0.988216
1.00524 0.998375 0.987194
1.00105 1.00369 0.98931
1.00314 1.00298 0.986338
1.00474 1.00144 0.98463
1.00521 0.999033 0.986533
1.00518 0.996788 0.988853
1.00519 0.998262 0.987277
1.00516 1.0003 0.985294
1.00512 0.998053 0.987697
1.00126 1.00387 0.988759
1.00114 1.00405 0.988627
1.0002 1.00236 0.992072
1.00018 1.00472 0.989493
1.00523 0.997657 0.988
1.00522 0.998067 0.987602
1.00517 0.996344 0.989301
1.0052 0.996393 0.98909
1.00186 1.00375 0.987829
1.00368 1.0029 0.985219
1.00513 1.00147 0.98418
1.00517 0.997675 0.987864
1.00514 0.995905 0.989716
1.00514 0.999865 0.985672
1.00512 0.996902 0.988584
1.00511 0.997661 0.987918
1.0019 1.00323 0.988302
1.00162 1.00322 0.988935
1.0005 1.00503 0.98887
1.00015 1.00171 0.992682
1.00011 1.00413 0.990249
1.0052 0.996046 0.98957
1.0052 0.996034 0.989573
1.00515 0.995279 0.990239
1.00513 0.996063 0.989384
1.00235 1.00372 0.986991
1.00514 0.996478 0.989157
1.00412 1.00281 0.984261
1.00508 1.0015 0.984154
1.00512 0.999415 0.985966
1.00008 1.00109 0.993289
1.00011 1.00344 0.991184
1.00039 1.00459 0.989627
1.00212 1.00294 0.988255
1.00075 1.00479 0.988481
1.00195 1.00245 0.988682
0.999974 0.99854 0.996215
1.00013 1.00105 0.993443
1.0052 0.99926 0.986309
0.999889 1.00399 0.990909
1.00096 1.00448 0.988576
1.00042 1.00455 0.989118
1.00516 1.00002 0.985568
1.00514 0.998848 0.986641
1.00239 1.00437 0.986052
1.00467 1.00174 0.984808
1.00518 1.00017 0.985441
1.00024 1.00058 0.993759
1.00007 1.00266 0.991992
1.00148 1.00427 0.987998
1.00001 1.00481 0.989967
1.00097 1.00377 0.989325
1.00515 0.99831 0.987279
1.00514 0.999463 0.986075
1.00511 0.998293 0.987115
1.00292 1.00331 0.986016
1.00496 1.00098 0.98486
1.00022 1.00193 0.992526
0.999824 1.00407 0.990816
1.0021 1.00307 0.98805
1.00015 1.00492 0.989564
1.00155 1.00279 0.989195
1.00512 0.996871 0.988486
1.00511 0.999571 0.985975
1.00509 0.998166 0.98707
1.00389 1.0024 0.985633
1.00499 1.00088 0.984904
1.00027 1.00038 0.993894
1.00025 1.00166 0.992657
1.00007 1.00245 0.992113
1.00016 1.00174 0.992622
1.00017 1.00174 0.992743
1.00011 1.00248 0.992108
1.00004 1.00288 0.991898
1.0001 1.00257 0.991951
1.00014 1.00181 0.992748
1.00014 1.00046 0.994057
1.00019 1.00035 0.994057
1.00013 0.998092 0.99687
1.00023 1.00029 0.994035
1.00012 0.998132 0.996876
0.99998 0.99693 0.998071
1.00009 0.998212 0.996868
0.999901 0.997023 0.998075
0.999744 0.997184 0.999177
0.999935 0.998603 0.996198
0.999874 0.999084 0.995829
0.999661 0.997592 0.9991
0.999819 0.99965 0.995391
0.999641 0.997957 0.998977
0.999668 0.99838 0.998771
1.00521 0.998851 0.986733
1.00524 0.998029 0.987574
1.00518 0.996635 0.988932
1.0052 0.995987 0.989602
1.0052 0.997444 0.988278
1.00511 0.998935 0.98684
1.00522 0.997553 0.988125
1.00523 0.996264 0.989355
1.0052 0.996292 0.989298
1.00522 0.995159 0.990347
1.00517 0.997603 0.988004
1.00516 0.99555 0.989936
1.00524 0.996294 0.989335
1.00523 0.994936 0.990595
1.00517 0.995165 0.990366
1.00514 0.995885 0.98964
1.00523 0.997663 0.987987
1.00522 0.998144 0.98748
1.00517 0.996208 0.989504
1.00521 0.996501 0.988962
1.00187 1.00385 0.987791
1.00367 1.00282 0.985344
1.00512 1.00152 0.984141
1.00517 0.997853 0.987656
1.00513 0.995639 0.989891
1.00513 0.996925 0.988587
1.00514 0.999902 0.985647
1.00512 0.997433 0.988046
1.00199 1.00324 0.988273
1.00166 1.00299 0.989003
1.00047 1.00504 0.988834
1.00016 1.00169 0.992614
1.00009 1.00403 0.990375
1.0052 0.99612 0.989572
1.0052 0.996078 0.989517
1.00515 0.995411 0.990119
1.00235 1.00378 0.986962
1.00424 1.00272 0.984365
1.00508 1.00147 0.984122
1.00513 0.996086 0.989376
1.00511 0.999211 0.986255
1.00513 0.996446 0.988999
1.00009 1.00099 0.99339
1.00224 1.00279 0.988203
1.00177 1.00229 0.989218
1.00088 1.00487 0.988422
1.00039 1.00463 0.989644
1.00011 1.00341 0.991122
1.00521 0.995261 0.990147
1.00519 0.995215 0.990324
1.00513 0.995073 0.990253
1.00516 0.99543 0.989997
1.00296 1.00332 0.986302
1.00512 0.997508 0.987862
1.00484 1.00259 0.983289
1.00501 1.00168 0.983964
1.00014 1.00027 0.994035
1.00009 1.00262 0.99204
1.00026 1.00405 0.990423
1.0006 1.00503 0.988744
1.00236 1.00247 0.987947
1.00187 1.00356 0.98795
1.00023 1.00057 0.993763
1.00001 1.00269 0.992012
1.00515 0.99832 0.987255
0.999872 1.00488 0.989939
1.00151 1.00427 0.987964
1.00074 1.00367 0.989402
1.00514 0.999464 0.986048
1.00511 0.998336 0.98717
1.00307 1.00323 0.985839
1.00496 1.00108 0.984854
1.00019 1.00192 0.99254
0.999892 1.00411 0.99079
1.00216 1.00313 0.988037
1.00001 1.00501 0.989577
1.00137 1.00252 0.989669
1.00512 0.996858 0.988682
1.0051 0.999564 0.986044
1.0051 0.998227 0.987092
1.00379 1.00257 0.985423
1.00501 1.0009 0.984744
0.999924 1.0028 0.991923
0.99977 1.00496 0.989848
1.00285 1.00214 0.987711
1.00057 1.00398 0.988807
1.00513 0.995464 0.98982
1.00495 0.997465 0.988385
1.005 0.99984 0.985692
1.00425 1.00123 0.985074
1.00026 1.00166 0.992684
1.00008 1.00245 0.992133
0.999849 1.0031 0.992052
1.00013 1.00179 0.99274
1.00003 1.00253 0.992047
1.00013 1.00182 0.992741
0.999985 1.00287 0.991912
1.00011 1.00256 0.99199
0.99991 1.00292 0.992031
1.00008 1.00301 0.99163
1.00012 1.00267 0.991794
1.00011 1.0019 0.992677
1.00008 1.00055 0.994034
1.00014 1.00043 0.994056
1.00013 0.99811 0.996853
1.00019 1.00034 0.994057
1.00013 0.998122 0.996867
1.00003 0.996853 0.998061
1.00012 0.998154 0.996876
0.999973 0.996895 0.998078
0.999888 0.997 0.998077
1.00002 0.998212 0.996446
0.999942 0.998631 0.996171
0.999725 0.997271 0.999168
0.999863 0.999149 0.9958
0.99967 0.997642 0.999076
0.999665 0.99802 0.998926
1.00516 0.997641 0.987992
1.00518 0.996356 0.989234
1.00516 0.995318 0.990133
1.00523 0.994971 0.99046
1.00523 0.996365 0.989281
1.00523 0.997641 0.988027
1.00524 0.996276 0.989381
1.00524 0.995022 0.990504
1.00518 0.995194 0.990311
1.00514 0.995811 0.989732
1.00522 0.99521 0.990381
1.00517 0.99494 0.990646
1.00516 0.99507 0.990349
1.0052 0.996193 0.989575
1.0052 0.996122 0.989461
1.00515 0.995545 0.99
1.00236 1.00385 0.986932
1.00432 1.00263 0.984468
1.00507 1.00146 0.984091
1.00514 0.996102 0.989367
1.00512 0.996407 0.98884
1.00509 0.999009 0.986545
1.00236 1.00265 0.988151
1.00155 1.00218 0.989752
1.00106 1.00497 0.988364
1.0001 1.0009 0.993491
1.00033 1.00464 0.989661
1.00012 1.00338 0.991061
1.0052 0.995362 0.990196
1.00519 0.995137 0.990371
1.00513 0.995131 0.990298
1.00291 1.00342 0.986272
1.00466 1.00258 0.983521
1.00494 1.00148 0.984281
1.00515 0.99548 0.989934
1.00513 0.997434 0.987814
1.00013 1.00023 0.994187
1.00009 1.00263 0.992037
1.00213 1.00239 0.9882
1.00174 1.00362 0.988431
1.00054 1.00496 0.988963
1.00024 1.00407 0.990355
1.00515 0.994952 0.990672
1.00514 0.994934 0.99049
1.00513 0.995081 0.99034
1.00514 0.995411 0.989734
1.00335 1.00274 0.985485
1.0048 1.00052 0.985319
1.00503 1.00288 0.982956
1.0002 0.999829 0.994572
1.00021 1.00098 0.993468
1.00009 1.00171 0.992772
1.00003 1.00362 0.991093
1.00013 1.00471 0.989733
1.00028 1.00481 0.989033
1.00253 1.00143 0.98825
1.00181 1.00348 0.989167
1.00015 1.00194 0.992555
0.999956 1.00417 0.990763
1.00512 0.996846 0.988879
1.00008 1.00504 0.989587
1.00221 1.00322 0.988025
1.00116 1.00231 0.990141
1.00509 0.999537 0.986115
1.00511 0.998283 0.987116
1.0037 1.00269 0.985217
1.00505 1.00092 0.984585
0.999938 1.00289 0.991829
0.999845 1.00486 0.989914
1.00277 1.00219 0.987807
1.00093 1.00404 0.988913
1.00514 0.99536 0.989975
1.00502 0.997458 0.98819
1.00502 0.999798 0.985715
1.00452 1.00138 0.984932
0.999776 1.00359 0.991435
1.00514 0.994977 0.990307
1.00057 1.00498 0.98924
1.00287 1.00261 0.987061
1.00498 0.995982 0.989913
1.00488 0.998748 0.986269
1.00492 1.00106 0.984878
1.00008 1.00249 0.992153
0.999836 1.00305 0.992026
0.999557 1.00345 0.992258
1.00013 1.00179 0.992735
1.00011 1.00255 0.99203
0.999857 1.00291 0.991926
1.00012 1.00189 0.992666
1.00011 1.00267 0.991815
0.999787 1.003 0.992053
1.00013 1.00293 0.991663
0.999973 1.00272 0.992267
0.999956 1.00303 0.991821
1.00018 1.00318 0.991318
1.00025 1.00269 0.991615
1.00014 1.00201 0.992525
1.00005 1.00067 0.993969
1.00008 1.00057 0.99403
1.00013 0.998166 0.996809
1.00014 1.00044 0.994055
1.00013 0.998145 0.996849
1.00006 0.996802 0.998051
1.00013 0.998152 0.996865
1.00003 0.996817 0.998067
0.999969 0.996862 0.998081
1.00019 0.999786 0.994652
1.00008 0.997967 0.996591
1.00003 0.998237 0.99643
0.999814 0.996988 0.999214
0.999946 0.998669 0.996144
0.999728 0.99735 0.999149
0.999685 0.997709 0.999051
1.00514 0.995738 0.989825
1.00518 0.995226 0.990256
1.00524 0.995124 0.990413
1.00524 0.996251 0.989428
1.00522 0.995098 0.990513
1.00516 0.994943 0.990663
1.00515 0.995103 0.990328
1.00514 0.994945 0.990718
1.00516 0.99494 0.990559
1.00502 0.995008 0.990937
1.00519 0.995462 0.990245
1.0052 0.995053 0.990417
1.00512 0.995192 0.990342
1.00289 1.00352 0.986243
1.0045 1.0026 0.983757
1.00489 1.0013 0.984597
1.00514 0.99554 0.989872
1.00513 0.997365 0.987765
1.00192 1.00237 0.988454
1.00167 1.00366 0.98891
1.00035 1.00491 0.989182
1.00012 1.00017 0.994339
1.00013 1.0026 0.992035
1.00022 1.00416 0.990286
1.00516 0.994948 0.99063
1.00018 0.999853 0.994567
1.00017 1.00102 0.993399
1.00514 0.994932 0.990503
1.00513 0.995076 0.990336
1.00308 1.00298 0.985893
1.00499 1.00276 0.983123
1.00486 1.00038 0.985241
1.00513 0.995565 0.989651
1.0001 1.00169 0.992954
1.00008 1.00359 0.99107
1.00277 1.00189 0.987965
1.00122 1.00349 0.989563
1.00034 1.00472 0.989218
1.00009 1.00474 0.989828
1.00518 0.994961 0.990444
1.00512 0.994883 0.990545
1.00513 0.995015 0.990092
1.00476 0.996317 0.989334
1.00304 1.00263 0.986473
1.00447 1.00307 0.983854
1.00011 1.00113 0.993292
1.00018 1.00109 0.993384
1.00031 1.00166 0.99274
1.00012 1.00292 0.991491
0.999976 1.00433 0.990613
1.00076 1.00439 0.989155
0.999699 1.00499 0.989571
1.00195 1.00099 0.989717
0.999956 1.00296 0.991737
0.999974 1.00482 0.989982
1.00514 0.995253 0.990129
1.00509 0.997489 0.987996
1.00126 1.00408 0.989019
1.00269 1.00219 0.987899
1.00504 0.999772 0.985737
1.00477 1.00155 0.984786
0.999825 1.00361 0.991396
1.00515 0.99492 0.990443
1.00034 1.00495 0.989323
1.00285 1.0025 0.987006
1.00502 0.995886 0.989861
1.00482 0.998801 0.986528
1.00487 1.00123 0.98493
0.999884 1.00455 0.990674
1.00452 0.994943 0.991928
1.00176 1.00389 0.988767
1.00347 1.00257 0.986495
1.00488 0.996625 0.989174
1.00415 1.00077 0.985777
0.999155 0.9971 0.991166
0.999786 1.00305 0.992001
0.999431 1.00351 0.992248
0.999695 1.00352 0.992143
1.00012 1.0019 0.992654
1.00009 1.00271 0.991835
1.00019 1.00287 0.991696
0.99971 1.00301 0.992074
1.00013 1.002 0.992524
1.00022 1.00275 0.991601
0.999925 1.00281 0.992146
1.00014 1.00324 0.99132
1.00004 1.00297 0.991775
1.00001 1.00266 0.992174
1.00026 1.00331 0.991046
1.00021 1.00324 0.991225
1.00036 1.00281 0.991338
1.00017 1.00212 0.992243
1.00027 1.00261 0.991843
1.00017 1.0022 0.992117
1.00004 1.00072 0.993919
1.00005 1.00068 0.993966
1.00014 0.998259 0.996193
1.00008 1.00056 0.994026
1.00013 0.998211 0.996519
1.00003 0.99677 0.999162
1.00013 0.998182 0.996846
1.00006 0.996764 0.998056
1.00002 0.996782 0.998069
1.00015 0.999764 0.994726
1.0002 0.999754 0.994659
1.0001 0.997838 0.9967
1.00007 0.997975 0.996843
0.999889 0.996793 0.999246
1.00003 0.998258 0.996413
0.999806 0.997057 0.999202
0.999732 0.997406 0.99913
1.00514 0.995133 0.990307
1.00515 0.994946 0.990681
1.00521 0.99499 0.990646
1.00515 0.994943 0.990718
1.00516 0.994939 0.990557
1.00505 0.995054 0.990625
1.00518 0.994978 0.9905
1.001 0.994827 0.987759
1.00426 0.994937 0.993296
1.00004 1.00118 0.993498
1.00518 0.994943 0.990587
1.00514 0.994931 0.990517
1.00513 0.995069 0.990331
1.00277 1.00316 0.986297
1.00494 1.00264 0.98329
1.00497 1.00023 0.985169
1.00513 0.995758 0.989567
1.00312 1.00206 0.987682
1.00059 1.0035 0.989964
1.00046 1.00463 0.989406
1.00016 0.999898 0.994562
1.00007 1.00475 0.989924
1.00009 1.00167 0.993134
1.00014 1.00355 0.991047
1.00015 1.00101 0.993332
1.00518 0.994958 0.990441
1.00012 1.00109 0.993391
1.00015 1.00114 0.99338
1.00029 1.00166 0.992668
1.00511 0.994896 0.990528
1.00514 0.995027 0.990085
1.00323 1.00252 0.986512
1.0044 1.00249 0.984386
1.00465 0.996754 0.989243
1.00004 1.00295 0.991625
1.00006 1.00429 0.990435
1.00185 1.00175 0.989497
1.00009 1.0048 0.989615
1.00065 1.00431 0.989228
1.00515 0.995111 0.990519
1.00514 0.994883 0.990469
1.00505 0.995873 0.989494
1.00448 0.998193 0.988805
1.00182 1.00275 0.988916
1.00013 1.00207 0.992328
1.00034 1.00184 0.992203
1.00013 1.0025 0.99191
0.999897 1.00428 0.991017
1.00001 1.00445 0.990129
1.00011 1.00455 0.989575
1.00043 1.00347 0.990172
0.999922 1.0036 0.991354
1.00004 1.00487 0.989404
1.00517 0.994886 0.990575
1.00506 0.995748 0.989807
1.00479 0.998847 0.986787
1.00285 1.00237 0.986954
1.0048 1.00136 0.984984
0.999931 1.00448 0.990778
1.00443 0.994927 0.992048
1.00137 1.00384 0.988899
1.0032 1.0026 0.986552
1.00484 0.996311 0.989517
1.00424 1.00091 0.985749
0.999193 0.996887 0.989114
1.00002 1.00444 0.990576
1.0031 0.996856 0.992065
1.00128 1.0033 0.989298
1.00274 1.00188 0.987405
1.00393 0.997357 0.988723
1.00027 0.995454 0.95388
0.99701 0.99491 0.972846
0.99683 1.00257 0.99033
0.999765 0.99679 0.902576
0.994722 0.997435 0.879223
0.999333 1.00357 0.992238
0.999382 1.00378 0.992206
0.999759 1.00299 0.992355
1.00013 1.002 0.992522
1.00027 1.00267 0.991586
1.00012 1.00327 0.991323
1.00013 1.0029 0.99173
0.999868 1.00293 0.992026
1.00024 1.00319 0.991183
1.00017 1.00209 0.992315
1.00034 1.00281 0.991361
1.00003 1.00266 0.992088
1.00019 1.00335 0.991149
1.00024 1.00338 0.99114
0.999887 1.00304 0.991743
1.00034 1.00327 0.990992
1.00034 1.00283 0.991283
1.0002 1.0022 0.992096
1.00034 1.00287 0.991374
1.00022 1.0028 0.991653
1.00012 1.00256 0.991986
1.00025 1.00263 0.991778
1.00023 1.00191 0.99247
1.00019 1.00221 0.992103
1.00009 1.00067 0.993893
1.00005 1.00073 0.993917
1.00013 0.998327 0.996168
1.00004 1.0007 0.993962
1.00014 0.998272 0.996191
1.00003 0.996774 0.999156
1.00014 0.998255 0.996228
1.00005 0.996771 0.998593
1.00006 0.996727 0.99806
1.00009 0.999784 0.994803
1.00016 0.999751 0.994728
1.00012 0.997743 0.996776
1.0002 0.999724 0.994666
1.0001 0.997799 0.996954
0.999942 0.996628 0.999275
1.00008 0.998016 0.996562
0.999878 0.996875 0.99923
0.999801 0.997115 0.999191
1.00515 0.99494 0.990554
1.00515 0.994942 0.990717
1.00506 0.994994 0.990313
1.00086 0.994891 0.987875
1.00517 0.994974 0.990496
1.00414 0.995335 0.992867
1.00491 0.99633 0.991182
0.997075 0.994922 0.971749
1.00076 0.996652 0.989248
1.00006 1.00123 0.993432
1.0001 1.00113 0.993491
1.00002 1.00216 0.992553
1.00007 1.00213 0.992533
1.00518 0.994955 0.990437
1.0051 0.994903 0.990511
1.00514 0.995001 0.990077
1.00365 1.00225 0.986552
1.00424 1.0018 0.984912
1.00456 0.997224 0.989148
1.0016 1.00269 0.989277
1.00055 1.00461 0.989657
1.00053 1.0042 0.989301
1.00012 1.00122 0.993375
1.00009 1.0043 0.990255
1.00007 1.00296 0.991759
1.00012 1.00109 0.993492
1.00025 1.00168 0.992593
1.00516 0.995047 0.990512
1.00013 1.00212 0.992432
1.00031 1.00186 0.992373
0.999951 1.00241 0.992305
1.00514 0.994887 0.990378
1.00492 0.995764 0.98953
1.00229 1.00205 0.988828
1.00413 0.998123 0.989197
0.999987 1.00411 0.990892
1.00018 1.00464 0.989677
1.00048 1.00383 0.990125
1.00061 1.00438 0.989491
1.00467 0.995043 0.991376
1.00511 0.995819 0.989948
1.00498 0.996382 0.989399
1.00217 0.99946 0.991522
0.99997 1.00325 0.991492
1.00014 1.00306 0.991345
0.99941 1.00461 0.991095
0.999618 1.00502 0.990107
1.00001 0.994899 0.94698
0.999929 1.00444 0.990883
1.0009 1.00387 0.989029
1.00439 0.994903 0.992166
1.00479 0.9961 0.989859
1.00427 1.00098 0.985716
1.0029 1.00265 0.986606
0.99938 0.996699 0.987004
0.999897 1.00463 0.990671
1.00332 0.996618 0.992082
1.00119 1.00335 0.989325
1.00307 1.00154 0.987363
1.00418 0.997738 0.988758
1.00135 0.995718 0.945395
0.996796 0.995183 0.968609
0.996716 1.0023 0.990086
0.999787 0.997258 0.905865
0.994709 0.997407 0.869208
0.999745 1.0038 0.991633
0.999872 0.99516 0.912125
0.99526 0.99679 0.880485
1.00175 1.00016 0.991092
1.00064 1.00317 0.990297
1.00215 1.00055 0.98901
0.996645 1.00345 0.989789
1.00042 0.99706 0.950801
0.994931 0.996476 0.966473
0.998122 0.998782 0.910058
0.994794 0.998554 0.876379
0.99913 1.00399 0.99227
0.999612 1.00323 0.992289
0.999558 1.00255 0.993529
1.00018 1.00205 0.992387
1.00034 1.00284 0.991383
1.00014 1.00328 0.991143
1.00011 1.00338 0.991252
1.00006 1.00262 0.992002
1.00021 1.00217 0.992107
1.00016 1.00345 0.991101
1.00032 1.00326 0.991003
1.00038 1.00278 0.991345
0.999881 1.00301 0.991834
1.0001 1.00347 0.991371
0.999465 1.00333 0.991966
1.00042 1.00322 0.99085
1.00044 1.00293 0.991151
1.00038 1.00285 0.991352
1.00021 1.00279 0.991687
1.00044 1.00294 0.991186
1.00008 1.0029 0.991767
0.999958 1.00268 0.991841
0.999727 1.00383 0.991347
0.999974 1.00281 0.991983
1.00014 1.00256 0.991982
1.00017 1.00182 0.992654
1.00024 1.00265 0.991714
1.00024 1.00192 0.992402
1.00017 1.00057 0.993886
1.0002 1.00222 0.99209
1.00009 1.00068 0.993895
1.00012 0.998301 0.996766
1.00004 1.00074 0.993914
1.00012 0.998303 0.996466
1.00008 0.996799 0.997986
1.00013 0.998286 0.996189
1.00003 0.996786 0.999153
1.00008 0.996779 0.998022
1.0001 1.00134 0.993264
1.00005 0.999843 0.994814
1.00009 0.99977 0.994805
1.00012 0.997713 0.996798
1.00017 0.999735 0.99473
1.00013 0.99771 0.996777
0.999984 0.996525 0.999289
1.00008 0.997803 0.997188
0.999958 0.996705 0.998765
0.999922 0.99693 0.998198
1.00055 0.995172 0.988015
1.00516 0.994973 0.990493
1.00401 0.996056 0.992434
0.996757 0.994987 0.973098
1.00061 0.996448 0.989506
1.00495 0.995889 0.990999
1.00323 0.997117 0.988923
0.996794 0.996905 0.975633
1.00009 0.995664 0.951366
0.999298 0.998325 0.913401
0.994666 0.997421 0.878002
0.999948 1.00221 0.992494
1.00008 1.00122 0.993431
1.00015 1.00106 0.993485
1.00003 1.00216 0.99253
0.999874 1.00306 0.99192
1.00019 1.00263 0.991853
1.00005 1.00255 0.992212
1.00001 1.00226 0.992457
1.00518 0.994952 0.990502
1.00515 0.994893 0.990285
1.00485 0.995565 0.989569
1.00253 1.00159 0.988743
1.0038 0.998112 0.989594
1.00055 1.00423 0.990077
1.00101 1.00426 0.98941
1.00039 1.00481 0.989227
1.00021 1.00188 0.992545
0.99999 1.00414 0.990767
1.00014 1.00217 0.992539
0.999866 1.0023 0.992698
1.00468 0.994971 0.991469
0.999952 1.00327 0.991574
1.0001 1.00318 0.991492
1.00504 0.995493 0.98989
1.00473 0.995932 0.989642
1.00216 0.999496 0.991176
0.999683 1.00483 0.990607
1.00003 1.00469 0.990199
1.00345 0.996174 0.991907
1.00467 0.996201 0.990514
1.0043 0.995283 0.991308
1.00144 1.00013 0.991631
0.999998 1.00423 0.990501
0.999619 1.00436 0.990951
0.999629 1.00515 0.990501
0.999899 0.994841 0.913472
1.00052 0.99501 0.956047
0.999845 1.00478 0.990766
1.00112 1.00332 0.989354
1.00344 0.996116 0.992103
1.00438 0.998128 0.988795
1.00345 1.00125 0.987329
1.00049 0.994972 0.952304
0.997172 0.995598 0.967849
0.996547 1.00264 0.98981
0.999241 0.997235 0.915064
0.994695 0.997447 0.858935
0.999731 1.00372 0.991642
0.999873 0.995823 0.911041
0.995222 0.996848 0.875407
1.00171 1.00043 0.991151
1.00067 1.00301 0.990352
1.00232 1.00058 0.989476
0.996979 1.00325 0.990397
1.00154 0.996983 0.944537
0.994925 0.995987 0.970368
0.998546 0.999408 0.91043
0.99488 0.998346 0.874198
0.999303 1.00341 0.9931
0.995329 0.996689 0.879812
0.995012 0.998228 0.894243
0.999533 1.00191 0.993062
0.999601 1.00324 0.992316
0.996105 1.00275 0.990743
0.994831 0.998871 0.969632
0.998447 0.999184 0.942441
0.995069 0.999866 0.916147
0.994806 0.995245 0.883132
0.999598 1.00334 0.992223
0.999659 1.00227 0.993478
0.998576 1.00318 0.993721
1.00022 1.00215 0.992119
1.00038 1.00275 0.991408
1.00031 1.00324 0.991014
1.00012 1.00354 0.991061
0.999829 1.00304 0.991924
1.00042 1.00295 0.991147
1.00011 1.00337 0.991301
1.00044 1.00319 0.990869
0.999245 1.00363 0.992092
0.997634 1.00446 0.993806
1.00014 1.00352 0.991127
1.00064 1.00336 0.990431
1.00041 1.00282 0.991329
1.00024 1.00274 0.991721
1.00043 1.00297 0.991158
1.0001 1.0029 0.991741
1 1.00264 0.991971
0.999843 1.00341 0.991597
0.999981 1.00317 0.991475
0.999933 1.0027 0.992038
1.00025 1.00285 0.991499
0.99993 1.005 0.9894
0.999557 1.00421 0.991052
0.999784 1.00381 0.991336
0.999842 1.0032 0.991812
0.999997 1.00282 0.991976
1.00008 1.00189 0.992701
1.00014 1.00261 0.991978
1.00018 1.00181 0.99266
1.00022 1.00042 0.993906
1.00026 1.00192 0.992335
1.00016 1.00056 0.993894
1.00013 0.99828 0.996765
1.00009 1.00068 0.993898
1.00013 0.998273 0.996476
1.00006 0.996769 0.998007
1.00014 0.998277 0.996174
1.00003 0.996804 0.999148
1.00003 0.996792 0.999151
1.00013 1.0015 0.993284
1.00004 0.999951 0.994721
1.00009 1.00135 0.993269
1.00013 0.997714 0.996786
1.00005 0.999837 0.994817
1.0001 0.999766 0.994808
1.00013 0.997702 0.996795
1.00001 0.996468 0.999289
1.00011 0.997687 0.997255
1 0.996539 0.9988
0.999984 0.996706 0.998282
0.999854 0.995979 0.904514
0.994776 0.996745 0.879494
0.998004 0.99485 0.973276
1.00052 0.99573 0.989785
1.005 0.995224 0.990818
0.996394 0.995929 0.976866
1.00342 0.996366 0.989259
1.00122 0.996015 0.950463
0.999809 0.997603 0.904239
0.994678 0.997324 0.867904
0.998713 0.995111 0.98037
1.00002 0.997973 0.951327
0.998295 0.999113 0.908728
0.994774 0.997102 0.876227
1.00001 1.00323 0.99151
0.99995 1.0022 0.992571
1.00012 1.00116 0.993431
1.00003 1.00214 0.992507
0.999853 1.00293 0.99208
1.00012 1.00332 0.991355
1.00013 1.00273 0.991863
1.00022 1.00284 0.991524
1.00008 1.0025 0.992124
0.99995 1.00238 0.992384
1.00468 0.99494 0.991565
1.00509 0.995225 0.989847
1.00428 0.995664 0.989888
1.00201 0.999674 0.990829
1.00044 1.0044 0.99029
0.999916 1.00501 0.990118
1.00008 1.00314 0.99164
0.999887 1.00332 0.991654
1.00347 0.995531 0.992139
0.999948 1.00441 0.9904
0.999592 1.00444 0.990835
1.00486 0.995905 0.990196
1.00402 0.995344 0.991462
1.00174 1.00006 0.991246
0.999851 1.00513 0.990391
1.00072 0.997392 0.99258
1.00265 0.995621 0.994531
1.00038 1.00215 0.991405
0.999647 1.00475 0.990231
0.999713 1.00491 0.99016
0.999451 1.00512 0.990609
0.994755 0.996543 0.895268
0.999887 0.994867 0.916521
1.00002 0.994908 0.947097
0.999566 1.00386 0.991651
1.00073 1.00282 0.990404
1.00174 1.00016 0.991213
1.00251 1.00074 0.989936
0.999846 0.9954 0.917722
1.00027 0.996857 0.944717
0.994908 0.995431 0.966601
0.997298 1.00215 0.990959
0.99827 0.999067 0.900628
0.99522 0.996869 0.877129
0.99482 0.998094 0.88019
0.999045 1.00332 0.993104
0.995283 0.995742 0.88593
0.995102 0.998379 0.893822
0.999826 1.0017 0.993004
0.999389 1.00339 0.992319
0.995928 1 0.993657
0.994871 0.998172 0.968603
0.997441 0.999241 0.951534
0.997273 0.999889 0.905922
0.994807 0.995119 0.889125
0.997699 1.00401 0.995217
0.994997 0.996584 0.904767
0.994779 0.994761 0.903262
0.995888 1.00216 0.999307
0.994812 0.999894 0.976232
0.995159 0.999974 0.952135
0.994802 0.999846 0.903316
0.994841 0.994782 0.886775
0.99974 1.00199 0.993426
0.99878 1.0032 0.993906
0.997168 1.00448 0.995134
1.0004 1.00299 0.991141
1.00046 1.00317 0.990888
1.00015 1.00323 0.991231
0.999037 1.0039 0.992224
1.00056 1.00346 0.990412
1.00011 1.00358 0.991091
0.997692 1.00441 0.994211
0.995717 1.00522 0.99663
0.998227 1.00451 0.993561
1.00036 1.00364 0.990663
1.00044 1.00299 0.991129
1.0001 1.00291 0.991716
1 1.00265 0.992099
0.999997 1.0031 0.991566
0.999871 1.0034 0.991603
0.99992 1.00278 0.992073
1.00009 1.00298 0.991754
0.999114 1.0028 0.993168
1.00125 1.00044 0.991769
1.00029 1.00271 0.991613
1.00024 1.00392 0.990226
1.00151 1.0049 0.987311
0.999837 1.00483 0.990547
0.999802 1.00497 0.989815
0.99966 1.00417 0.99112
0.999692 1.00359 0.991487
0.999844 1.00379 0.991326
0.999921 1.00313 0.991811
1.00003 1.00216 0.992539
1.00007 1.00278 0.991969
1.00012 1.00187 0.992695
1.00024 1.0004 0.993906
1.0002 1.00179 0.992667
1.00023 1.00044 0.993911
1.00013 0.998256 0.996778
1.00017 1.00055 0.993902
1.00014 0.998258 0.996479
1.00002 0.99685 0.998001
1.00015 0.998247 0.996184
1.00004 0.996791 0.998578
1.00003 0.996798 0.999151
1.00014 1.00186 0.992701
1.00008 1.00006 0.994557
1.00009 1.00154 0.993113
1.00013 0.997761 0.996726
1.00004 0.99994 0.994723
1.00006 1.0014 0.993272
1.00003 0.996448 0.999285
1.00013 0.99771 0.996786
1.00005 0.99982 0.99482
1.00013 0.997692 0.996793
1.00001 0.996482 0.99929
0.999983 0.996529 0.999287
0.994701 0.994884 0.887167
0.999878 0.99564 0.910143
0.994975 0.998431 0.89412
0.99492 0.99681 0.87687
0.996353 0.995431 0.974231
1.00348 0.99629 0.989626
1.00027 0.996487 0.948939
0.999803 0.997365 0.914136
0.994698 0.997427 0.857643
0.99851 0.995614 0.979447
1.00129 0.997729 0.941223
0.998464 0.999412 0.909495
0.994819 0.997689 0.870966
0.995673 0.996189 0.97487
0.997804 0.998941 0.943227
0.995704 0.999881 0.90122
0.994854 0.994891 0.87762
1.00002 1.00407 0.990809
0.999982 1.00318 0.991631
0.999923 1.00225 0.992645
0.999832 1.00281 0.99224
1.00037 1.00353 0.990562
1.00011 1.00317 0.99146
1.00002 1.00283 0.991871
1.00037 1.00291 0.991357
1.00024 1.00285 0.991612
1.00011 1.00246 0.992034
1.0036 0.995195 0.992354
1.00488 0.995421 0.989886
1.00413 0.995222 0.99161
1.00189 0.99985 0.990874
1 1.0051 0.990283
0.999685 1.00456 0.99072
0.999859 1.00461 0.990299
0.999914 1.00481 0.990114
1.0009 0.997171 0.992899
0.999866 1.00492 0.990104
0.999713 1.00512 0.990579
1.00285 0.995545 0.994109
1.0008 1.00202 0.991245
0.998586 0.996893 0.994188
0.99847 0.998066 1.00006
0.998736 1.00424 0.991968
0.999947 1.00492 0.989893
0.999407 1.00505 0.990673
0.994823 0.996398 0.91009
0.994749 0.996568 0.893038
0.999871 0.99485 0.907395
0.998797 1.00327 0.993109
0.999216 1.00342 0.992303
1.00017 1.00151 0.992965
0.995246 0.994882 0.886681
0.997676 0.998919 0.943574
0.994873 0.997412 0.968876
0.996061 0.998687 0.996794
0.995619 0.999889 0.91631
0.995357 0.998582 0.893432
0.99486 0.994954 0.889412
0.997604 1.0039 0.995416
0.995094 0.995747 0.90766
0.994761 0.995012 0.903321
0.99613 1.00235 0.998374
0.994838 0.999627 0.977692
0.996137 0.999935 0.943665
0.994829 0.994822 0.887232
0.994847 0.999954 0.910146
0.995644 1.00506 0.997994
0.994693 0.994736 0.922214
0.994731 0.994806 0.906571
0.994845 0.995194 0.877943
0.995058 1.00048 0.993352
0.995024 0.99983 0.955358
0.994944 0.99999 0.909164
0.999074 1.00318 0.994088
0.997642 1.00462 0.994357
0.995458 1.00515 0.998103
1.00054 1.00348 0.990392
1.00006 1.00362 0.991053
0.997695 1.00439 0.994603
1.00025 1.00359 0.990724
0.998241 1.00438 0.9936
0.995896 1.00495 0.996813
0.995489 1.00511 0.998021
0.99837 1.00377 0.993519
1 1.00304 0.991659
0.999892 1.00339 0.99161
0.999937 1.00284 0.992111
0.999294 1.00302 0.993026
1.00004 1.0029 0.991741
0.999883 1.00224 0.992788
1.00054 1.00094 0.992666
1.00121 1.0023 0.989829
1.00037 1.00254 0.99173
1.00064 1.00381 0.989983
1.00207 1.0036 0.987079
1.00203 1.00416 0.986871
1.00019 1.00497 0.989593
1.00122 1.00487 0.98741
0.999877 1.00422 0.990841
0.999754 1.00492 0.990475
0.999664 1.00496 0.99023
0.999765 1.00414 0.991189
0.99975 1.00349 0.991583
0.999994 1.00246 0.992286
0.999988 1.00305 0.991811
1.00007 1.00213 0.992541
1.00021 1.00057 0.993804
1.00016 1.00186 0.992691
1.00025 1.0004 0.993903
1.0001 0.998259 0.996805
1.00024 1.00043 0.993916
1.00014 0.998234 0.996497
0.999975 0.996928 0.998022
1.00016 0.998209 0.996192
1 0.996858 0.998576
1 0.99683 0.999154
1.00026 1.00206 0.992121
1.00013 1.00033 0.993998
1.00016 1.00185 0.9927
1.00015 0.997859 0.996598
1.00008 1.00007 0.994421
1.00009 1.00154 0.992943
1.00003 0.996495 0.999268
1.00013 0.997756 0.996731
1.00004 0.999926 0.994725
1.00003 0.996456 0.999287
1.00012 0.997706 0.996787
1.00001 0.996484 0.999291
0.994784 0.994843 0.906563
0.99471 0.995653 0.89215
0.999863 0.995971 0.911188
1.00047 1.00304 0.990936
0.994813 0.996234 0.908091
0.995014 0.997661 0.893862
0.994985 0.996677 0.881114
0.998609 0.996029 0.978104
0.999543 0.998348 0.950866
0.998255 0.998834 0.899119
0.994822 0.998243 0.874157
0.996527 0.99589 0.970914
0.997469 0.998868 0.95133
0.997123 0.9999 0.90514
0.994821 0.995766 0.87974
0.994868 0.997033 0.967098
0.995361 0.999952 0.950713
0.994896 0.999971 0.910332
0.994853 0.994811 0.886612
1.00018 1.00434 0.990065
1.00001 1.00409 0.990687
0.999988 1.00313 0.991751
1.0003 1.00372 0.990531
1.0003 1.00361 0.990706
1.00012 1.00311 0.991565
1.0004 1.00287 0.991391
1.00024 1.00285 0.991699
1.00082 0.99689 0.993173
1.00303 0.995599 0.993655
1.00001 1.00478 0.989997
1.00146 1.0019 0.991072
0.999987 1.00513 0.990547
0.999956 1.00493 0.990048
0.999919 1.00494 0.989942
0.998014 0.997394 0.994767
0.999625 1.00503 0.99069
0.999434 1.00395 0.992027
0.998566 0.997623 1.00006
0.999954 1.00493 0.98995
0.996471 0.998344 0.994724
0.995856 1.00002 1.00254
0.998431 1.00529 0.9921
0.99973 1.00493 0.9907
0.994661 0.994816 0.927055
0.994807 0.996569 0.910218
0.994745 0.996656 0.890804
0.997451 1.00396 0.995643
0.996067 1.00219 0.99742
0.995122 0.994824 0.910489
0.99524 0.99999 0.952442
0.99485 0.999029 0.974696
0.994866 0.999946 0.909483
0.994694 0.995311 0.903367
0.994827 0.994858 0.88768
0.995947 1.00494 0.997625
0.99466 0.994739 0.922077
0.994741 0.994765 0.910538
0.994909 1.00126 0.996678
0.994813 0.996014 0.879931
0.994906 0.999231 0.950184
0.994977 0.999991 0.913851
0.995078 1.00432 0.998758
0.99469 0.994724 0.926425
0.994814 0.996419 0.908251
0.994758 0.997525 0.876394
0.99592 0.999969 0.90966
0.994901 0.999191 0.984202
0.995189 1.00066 0.942752
0.998138 1.00475 0.993576
0.995647 1.00511 0.997713
0.994955 1.00508 0.999867
1.00012 1.00357 0.990786
0.99823 1.00429 0.993639
0.996126 1.00434 0.996996
0.998562 1.00388 0.993419
0.995645 1.0043 0.997969
0.997648 1.00343 0.996058
0.999508 1.00316 0.992881
0.999913 1.00289 0.991729
0.999964 1.00233 0.992936
0.999624 1.00378 0.991038
0.999786 1.0014 0.993551
1.00101 1.00217 0.99028
1.00232 1.00294 0.987567
1.00415 1.00214 0.98508
1.00105 1.00371 0.989735
1.00251 1.00376 0.986308
1.00295 1.00326 0.986917
1.00074 1.00459 0.988413
1.002 1.00408 0.987078
0.999847 1.00475 0.990152
1.00022 1.00499 0.98955
1.00093 1.00483 0.98751
0.999985 1.00297 0.991784
0.999824 1.0042 0.990875
0.999675 1.00499 0.990402
0.999811 1.0034 0.991679
1.00004 1.00243 0.992283
1.00017 1.00086 0.993572
1.0001 1.0021 0.992544
1.00022 1.00057 0.993799
1.00005 0.998388 0.996229
1.00026 1.00043 0.9939
1.00012 0.998252 0.996241
0.999851 0.997004 0.99917
1.00015 0.998212 0.99621
0.999954 0.996936 0.998584
0.999969 0.99689 0.999154
1.00029 1.00229 0.991808
1.00021 1.00063 0.993563
1.00024 1.00209 0.992212
1.00016 0.99802 0.996419
1.00015 1.00034 0.993946
1.00016 1.00187 0.992698
1.00003 0.99658 0.999237
1.00015 0.997852 0.996608
1.00008 1.00009 0.994286
1.00004 0.996476 0.999274
1.00013 0.997748 0.996736
1.00003 0.996466 0.999288
0.994686 0.994734 0.922849
0.994787 0.995596 0.906389
0.994712 0.996367 0.892378
1.00041 1.00307 0.991017
1.0004 1.00316 0.990814
1.00045 1.0035 0.990627
0.994719 0.994773 0.906184
0.994744 0.99568 0.908128
0.995174 0.997024 0.893596
0.996298 0.995245 0.97333
0.998424 0.999379 0.942018
0.99524 0.999914 0.915927
0.99483 0.996578 0.876169
0.994907 0.996933 0.970245
0.996171 0.999972 0.947663
0.994824 0.999958 0.910459
0.994838 0.994829 0.886952
0.994872 0.997288 0.966127
0.995044 0.999952 0.952198
0.994943 1 0.909577
0.994834 0.995329 0.882952
1.00034 1.00421 0.989945
1.00019 1.00435 0.990008
1.00009 1.00406 0.990566
1.00039 1.00358 0.990507
1.00021 1.00365 0.990851
1.00042 1.00285 0.991426
0.997495 0.997854 0.995338
0.998271 0.997433 1.00009
0.999969 1.00487 0.989991
1.00006 1.00321 0.992093
0.999735 1.005 0.990707
0.999998 1.00485 0.989854
0.999386 1.00492 0.990806
0.996129 0.99809 0.995044
0.998453 1.00495 0.992769
0.995806 1.00072 1.00173
0.999703 1.00448 0.990823
0.995188 0.99779 0.995011
0.996291 1.00219 0.998345
0.998478 1.00523 0.992959
0.994694 0.99475 0.931866
0.994682 0.994803 0.928364
0.9948 0.996687 0.910331
0.996253 1.00475 0.997238
0.995017 1.00122 0.993789
0.9947 0.994744 0.921943
0.994851 0.99921 0.952663
0.994933 0.99997 0.904227
0.99476 0.994709 0.914501
0.994816 0.996764 0.876442
0.99519 1.00404 0.99918
0.994713 0.994753 0.928004
0.994741 0.995895 0.908301
0.994944 0.99943 0.980512
0.994798 0.99803 0.871239
0.994818 0.99996 0.909703
0.994961 1.00044 0.952429
0.995036 1.00464 0.996101
0.994682 0.99473 0.923235
0.995002 0.998746 0.894316
0.99465 0.997576 0.87859
0.996026 0.999228 0.901119
0.99594 0.999966 0.950811
0.995126 1.0003 0.974371
0.995963 1.00514 0.997343
0.995183 1.00395 0.999785
0.996484 1.00354 0.998503
0.998695 1.00408 0.993319
0.99578 1.00384 0.997924
0.996711 1.00393 0.996567
0.999718 1.00259 0.99329
1.00006 1.00252 0.993083
1.00072 1.00348 0.990627
1.00157 1.00448 0.987497
1.00082 1.00209 0.990746
1.00261 1.00309 0.987078
1.00396 1.00376 0.983971
1.00499 1.0016 0.984131
1.00375 1.00212 0.985623
1.00416 1.00235 0.984862
1.00294 1.0039 0.985536
1.00246 1.00337 0.987562
1.00266 1.00308 0.987219
1.00025 1.00482 0.989013
1.00088 1.00457 0.988574
1.00199 1.00402 0.987287
0.99991 1.00413 0.990696
0.999993 1.0047 0.990165
1.00024 1.00502 0.989506
1.00015 1.00126 0.993204
1.00005 1.00293 0.991772
0.999775 1.00418 0.99091
1.00008 1.00241 0.99228
1.00018 1.00086 0.993568
0.999968 0.998616 0.996145
1.00022 1.00058 0.993795
1.00006 0.998387 0.996223
0.999786 0.997165 0.999161
1.00013 0.998243 0.996238
0.999884 0.997033 0.998597
0.999917 0.996977 0.999158
1.00034 1.00251 0.991678
1.00029 1.00085 0.993394
1.00032 1.00228 0.991866
1.00017 0.998207 0.996205
1.00021 1.00062 0.993646
1.00026 1.00209 0.992304
1.00001 0.996717 0.999197
1.00016 0.998 0.996433
1.00016 1.00034 0.993893
1.00003 0.996564 0.999247
1.00014 0.997848 0.996618
1.00004 0.996471 0.99928
0.994691 0.994735 0.926105
0.99469 0.994757 0.922712
0.994794 0.996399 0.906322
1.00029 1.00342 0.990735
1.00038 1.00366 0.990537
1.00037 1.0031 0.9911
1.00037 1.00325 0.9908
1.00033 1.0036 0.99059
1.00028 1.00372 0.990537
1.00041 1.00371 0.990318
0.994754 0.994749 0.902774
0.994725 0.994748 0.910206
0.994672 0.995168 0.90818
0.994791 0.994828 0.887307
0.994888 0.996776 0.967546
0.995215 0.999959 0.945176
0.994856 0.999906 0.916467
0.994863 0.997702 0.965393
0.994901 0.999963 0.944274
0.994952 1 0.914566
0.994796 0.995163 0.888989
0.995268 0.996421 0.969406
0.994917 1.00029 0.944003
0.994783 0.999871 0.903978
0.994794 0.998604 0.875708
0.999695 1.00488 0.990475
1.00025 1.0043 0.989971
1.00022 1.00449 0.989952
1.00049 1.00345 0.990484
0.995953 0.997847 0.995436
0.99577 1.00172 1.00092
0.999994 1.00494 0.989759
0.99934 1.00498 0.990912
0.998784 1.00498 0.993435
0.999656 1.00465 0.990774
0.998203 1.00523 0.992961
0.995065 0.999079 0.992229
0.995693 1.00339 0.998689
0.997813 1.00503 0.993552
0.995143 0.998569 0.990737
0.997408 1.00422 0.997172
0.994666 0.994822 0.927146
0.994673 0.99471 0.934768
0.99468 0.994787 0.929669
0.995044 1.00371 0.999557
0.99493 0.998193 0.98489
0.9947 0.994777 0.929613
0.996197 1.0006 0.943367
0.994849 0.99991 0.915583
0.994668 0.995462 0.90836
0.994809 0.998514 0.874478
0.994978 1.00318 0.996769
0.994693 0.994757 0.923114
0.995096 0.997988 0.894046
0.994911 1.0006 0.975431
0.994671 0.997463 0.86871
0.997182 0.999892 0.904773
0.994897 0.999953 0.94361
0.995467 1.00467 0.990774
0.994798 0.994859 0.907211
0.994852 0.996845 0.880062
0.998686 0.998194 0.909427
0.995278 0.999959 0.950731
0.994885 1.00002 0.968275
0.995373 1.00307 0.999919
0.995782 1.00409 0.998449
0.997532 1.00155 0.997019
0.995858 1.00436 0.997076
0.998494 1.00287 0.99385
1.00293 1.00054 0.989918
1.00184 1.00309 0.990214
1.00196 1.00436 0.987386
1.0029 1.00432 0.984686
1.00293 1.00324 0.986591
1.00433 1.00376 0.983485
1.00444 1.00396 0.982738
1.00501 1.00109 0.984656
1.0051 1.00139 0.98439
1.00492 1.00176 0.984083
1.00339 1.00211 0.986137
1.0038 1.00207 0.985836
1.00414 1.0026 0.984645
1.00184 1.00423 0.987486
1.00231 1.00334 0.98753
1.00235 1.00291 0.987517
1.00016 1.00496 0.989366
1.00029 1.00484 0.989222
1.00104 1.00454 0.988736
1.00005 1.00212 0.992461
1.00006 1.00396 0.99071
1.00013 1.00466 0.990179
0.999879 0.998862 0.996037
1.00016 1.00127 0.993187
1.00012 1.00288 0.99176
1.0002 1.00085 0.993564
0.999967 0.998632 0.996135
0.999696 0.997375 0.999145
1.00007 0.998381 0.996217
0.999778 0.997203 0.999157
0.99985 0.997064 0.999163
1.00032 1.00347 0.990741
1.00042 1.00269 0.9914
1.00033 1.00116 0.993012
1.00035 1.00252 0.991666
1.00016 0.99846 0.995973
1.00028 1.00087 0.993394
1.00028 1.00234 0.991923
0.999983 0.99688 0.999147
1.00016 0.998205 0.99622
1.00021 1.00062 0.993727
1.00001 0.996683 0.999209
1.00016 0.997987 0.996447
1.00003 0.996535 0.999257
0.994699 0.994737 0.921894
0.994711 0.994755 0.927712
0.994692 0.994797 0.922556
1.00037 1.00337 0.990762
1.00027 1.00373 0.990527
1.00015 1.00377 0.990529
1.00017 1.00384 0.990462
1.00033 1.00412 0.990289
1.00036 1.00331 0.990786
1.00027 1.0037 0.990553
1.00033 1.00369 0.990536
1.00037 1.00385 0.990394
1.00012 1.00427 0.990481
0.995084 0.998273 0.893297
0.994778 0.995098 0.902872
0.994784 0.994749 0.914212
0.994835 0.995064 0.88927
0.99494 0.999981 0.904586
0.994872 0.998572 0.96396
0.994908 0.999998 0.951975
0.994895 0.996796 0.966217
0.994953 0.999931 0.95247
0.994844 0.999966 0.911273
0.994931 0.99837 0.873356
0.995018 0.994951 0.971078
0.994934 1.00002 0.952675
0.995612 0.999884 0.915104
0.99474 0.997459 0.877221
0.998789 1.00377 0.992767
0.9998 1.00486 0.990419
1.00025 1.0043 0.989997
0.994905 0.999979 0.98933
0.995414 1.00408 0.999021
0.999649 1.00465 0.990723
0.997595 1.00522 0.992962
0.997984 1.00474 0.993572
0.996604 1.00377 0.997203
0.994934 0.998832 0.990889
0.99619 1.00218 0.998266
0.996016 0.999963 0.991243
0.994992 0.996088 0.909641
0.994682 0.994815 0.928432
0.994677 0.994665 0.937673
0.995018 1.00161 0.99709
0.994879 1.00107 0.971811
0.9947 0.994794 0.922971
0.996232 0.999979 0.949608
0.995159 0.999899 0.915514
0.995277 0.997297 0.893783
0.994695 0.99754 0.858665
0.995308 1.00499 0.991226
0.994789 0.995378 0.90706
0.995002 0.996887 0.877437
0.994894 1.00001 0.969288
0.998503 0.999304 0.910083
0.996083 0.999952 0.946473
0.995131 1.00378 0.988211
0.994715 0.994867 0.888003
0.999531 0.997945 0.9144
0.997735 0.998765 0.943048
0.994875 0.997294 0.971032
0.995272 1.00484 0.998383
0.997603 1.00191 0.996912
1.00232 1.00069 0.991789
0.997349 1.00318 0.994329
1.00188 1.0008 0.990228
1.00396 0.99938 0.988133
1.00231 1.00421 0.987273
1.003 1.00413 0.984763
1.00443 1.0016 0.984868
1.00467 1.00375 0.983001
1.00446 1.0036 0.982819
1.00486 1.00084 0.985024
1.00515 0.999313 0.986075
1.00513 1.0009 0.984599
1.00495 1.00101 0.984737
1.00494 1.00155 0.984556
1.00506 1.00141 0.984355
1.00486 1.00191 0.984035
1.00298 1.00321 0.986326
1.00337 1.00214 0.986349
1.00385 1.00206 0.986051
1.00114 1.0044 0.988261
1.00164 1.00422 0.987623
1.00217 1.00332 0.987496
0.999961 1.00362 0.991074
1.00031 1.00485 0.989384
1.00035 1.00487 0.98943
0.999786 0.999311 0.996343
1.00011 1.00213 0.992424
1.00021 1.0038 0.990725
0.999619 0.997624 0.997929
0.999875 0.998933 0.996295
1.00019 1.00128 0.993171
0.999964 0.998654 0.996124
0.999691 0.997422 0.999136
0.999769 0.997236 0.999153
1.00023 1.00381 0.990536
1.00042 1.00296 0.991136
1.00026 1.00356 0.990709
1.00035 1.00145 0.992686
1.00036 1.00277 0.991392
1.00012 0.998744 0.995744
1.00032 1.00116 0.993014
1.00039 1.00249 0.991654
0.999946 0.997089 0.999093
1.00015 0.998443 0.995988
1.00027 1.00088 0.993394
0.999986 0.996857 0.999162
1.00016 0.998196 0.996234
1.00002 0.996659 0.999221
0.995476 0.994841 0.910852
0.994665 0.994729 0.921776
0.994687 0.994768 0.929337
1.00053 1.00315 0.990656
1.00036 1.00341 0.99079
1.00018 1.00382 0.990517
1.00026 1.00387 0.990478
1.00033 1.00369 0.99057
1.00027 1.00396 0.990448
1.00042 1.00425 0.989829
0.999854 1.00454 0.990117
1.0004 1.00359 0.990535
1.0001 1.004 0.99047
0.999983 1.00431 0.990451
0.999464 1.00461 0.991745
0.995304 0.996987 0.879431
0.995426 0.998376 0.89287
0.994717 0.995389 0.902953
0.995106 0.998069 0.87944
0.994853 0.999948 0.91107
0.994944 1.00025 0.944023
0.995313 0.996941 0.964288
0.995012 0.99505 0.972693
0.99471 0.997547 0.867612
0.994901 0.999913 0.948064
0.997136 0.999889 0.905079
0.994874 0.996264 0.973263
0.995447 0.999974 0.952722
0.999274 0.9983 0.906166
0.99904 1.0019 0.994882
0.998967 1.00387 0.992717
0.999707 1.00484 0.990364
0.994826 0.999245 0.991119
0.995908 1.0033 0.997228
0.998026 1.00453 0.993591
0.997427 1.002 0.998085
0.99552 0.999836 0.991346
0.997006 0.999105 0.993876
0.994756 0.997825 0.889211
0.994916 0.995559 0.913433
0.994678 0.994803 0.929717
0.994974 1.0051 0.99153
0.994863 0.999996 0.969479
0.994781 0.996034 0.906997
0.995175 0.999989 0.944473
0.998553 0.99802 0.90001
0.995095 0.996788 0.881886
0.995571 1.00404 0.988174
0.994715 0.995472 0.892961
0.999822 0.996807 0.905513
0.994916 0.997514 0.967092
0.997471 0.998901 0.951044
0.997299 1.001 0.99177
0.999842 0.995761 0.905312
1.00003 0.998007 0.951144
0.994871 0.99594 0.966646
0.997715 1.00217 0.996914
1.00168 0.99973 0.992211
1.00358 0.999921 0.989354
1.00078 1.00108 0.990543
1.00339 0.999923 0.988116
1.00458 0.998307 0.987811
1.00308 1.00396 0.984838
1.00428 1.00161 0.984835
1.00501 0.998103 0.987133
1.00448 1.00325 0.982899
1.00482 1.00065 0.985066
1.00507 0.997625 0.987734
1.00515 0.997631 0.987749
1.00518 0.999657 0.985682
1.00513 0.999183 0.98619
1.00512 1.00091 0.984626
1.00508 1.00086 0.984681
1.00491 1.00093 0.984817
1.00441 1.00163 0.985296
1.00475 1.00151 0.984703
1.005 1.00137 0.984319
1.00238 1.00359 0.987039
1.00305 1.00313 0.986317
1.00336 1.00211 0.98656
1.00047 1.00426 0.989636
1.00122 1.00443 0.988245
1.00144 1.00419 0.987762
0.999706 1.00012 0.995013
1.00012 1.00347 0.99107
1.00048 1.00473 0.9894
0.999527 0.997858 0.999092
0.999768 0.999408 0.995704
1.00017 1.00211 0.992388
0.99962 0.997625 0.999112
0.999853 0.998988 0.995988
0.999687 0.997475 0.999128
1.00063 1.00344 0.990335
1.00028 1.00379 0.990504
1.00041 1.0033 0.990811
1.00032 1.00177 0.992418
1.00037 1.00301 0.991132
1.00025 1.00358 0.990677
1.00008 0.999018 0.995538
1.00034 1.00147 0.992688
1.00033 1.00283 0.991384
0.999901 0.997309 0.999037
1.00013 0.998717 0.995757
1.00032 1.00117 0.993015
0.999949 0.997047 0.999109
1.00015 0.998431 0.996002
0.999989 0.996812 0.999177
0.995354 0.996307 0.880261
0.995305 0.994838 0.910726
0.994706 0.994722 0.921661
1.00037 1.00338 0.990618
1.00116 1.00292 0.990418
1.00043 1.0037 0.990302
1.00029 1.00394 0.990494
1.0005 1.00359 0.990611
1.00009 1.00388 0.990607
1.00005 1.0045 0.990096
1.00035 1.00426 0.989884
1.00028 1.00474 0.98954
0.999853 1.00102 0.993591
1.00015 1.00421 0.99042
0.999534 1.00435 0.991463
0.999808 0.997389 0.901136
0.9952 0.997134 0.874295
0.995657 0.998555 0.892493
0.994691 0.997711 0.857791
0.996764 0.998931 0.915052
0.994877 0.999988 0.946368
0.995016 0.994985 0.970425
0.994947 0.996335 0.971883
0.998497 0.999414 0.908862
0.996127 0.999971 0.944839
0.994896 0.997704 0.972944
0.998717 0.998884 0.943096
1.00203 0.998107 0.993636
0.999113 1.00188 0.994682
0.999147 1.00401 0.992681
0.995025 0.999889 0.991408
0.998467 1.00184 0.997894
0.997643 0.999229 0.993306
0.999372 0.998758 0.990417
0.9999 0.994841 0.913179
0.994854 0.996969 0.889736
0.994793 0.994878 0.917138
0.995893 1.00435 0.988294
0.99489 0.997523 0.965053
0.994718 0.99593 0.893154
0.998801 0.998636 0.94199
0.999816 0.997364 0.915261
0.997105 1.00021 0.989695
0.999879 0.99543 0.911014
1.00141 0.997438 0.941463
0.994901 0.995867 0.970171
0.998701 0.996576 0.992051
1.00004 0.996039 0.951617
0.996384 0.995978 0.97248
1.00112 0.998541 0.992584
1.00339 0.9989 0.989312
1.00489 0.997499 0.989227
1.00279 1.0004 0.988104
1.00432 0.998478 0.987813
1.00484 0.996712 0.988847
1.00419 1.00163 0.984802
1.00491 0.998368 0.987057
1.00509 0.995912 0.989242
1.00479 1.00048 0.985107
1.00507 0.997615 0.98773
1.00512 0.996036 0.989358
1.00512 0.996696 0.988953
1.00516 0.997455 0.987956
1.00516 0.998371 0.987183
1.00516 1.00007 0.985522
1.00518 0.999711 0.985714
1.00512 0.999056 0.986305
1.00509 1.00072 0.984965
1.00511 1.00092 0.984639
1.00507 1.00082 0.984763
1.00366 1.00243 0.985978
1.00437 1.00173 0.985284
1.00458 1.00155 0.984849
1.0013 1.00376 0.988658
1.00243 1.00356 0.987022
1.0031 1.00308 0.986308
0.999865 1.00098 0.993853
1.00059 1.00406 0.989645
1.00135 1.0044 0.98823
0.999564 0.998162 0.99895
0.999724 1.00022 0.994961
1.00026 1.00334 0.991066
0.999565 0.997886 0.998452
0.999752 0.999503 0.995676
0.99963 0.997684 0.999098
1.00084 1.00292 0.990459
1.00041 1.00357 0.990397
1.00036 1.00363 0.990469
1.00036 1.00377 0.990473
1.00034 1.00336 0.99081
1.00028 1.00213 0.992124
1.00002 0.999294 0.995375
1.00032 1.00176 0.992423
1.00029 1.0031 0.991128
0.999847 0.997519 0.998985
1.00008 0.999 0.995548
1.00033 1.00148 0.992689
0.999903 0.997267 0.999054
1.00013 0.998695 0.99577
0.999953 0.997017 0.999125
0.999836 0.995206 0.911945
0.995395 0.996374 0.882632
0.995216 0.994834 0.910589
1.00023 1.0036 0.99058
1.00036 1.00402 0.990022
1.00085 1.00292 0.990692
1.00213 1.00341 0.987977
1.00047 1.00407 0.990064
1.0002 1.00447 0.990077
1.00034 1.00422 0.98994
1.00013 1.00461 0.989823
1.00064 1.00347 0.989049
1.00097 0.999977 0.993093
1.0042 0.997827 0.989392
0.999958 1.00088 0.993738
0.999829 1.0038 0.991178
0.998963 0.997584 0.950903
0.99978 0.997855 0.905364
0.995203 0.996886 0.876007
0.999141 0.999648 0.898168
0.995795 0.999952 0.950174
0.994881 0.996263 0.973239
0.994869 0.997713 0.97486
0.997425 0.99868 0.952801
0.995929 0.998021 0.97407
1.00291 0.996109 0.993359
1.00135 0.998737 0.993744
0.999205 1.00196 0.994473
0.998409 0.999124 0.992812
1.00023 0.998888 0.989334
0.999999 0.994894 0.947059
0.999886 0.994871 0.916668
0.994977 0.996282 0.890365
0.996763 0.999791 0.98755
0.994955 0.995673 0.966923
0.999861 0.995761 0.911979
1.00021 0.998207 0.950412
0.997966 0.997782 0.99241
1.00129 0.996082 0.950296
0.996668 0.995316 0.96934
1.00141 0.996254 0.990969
0.999197 0.995794 0.97805
1.00323 0.998045 0.989325
1.00481 0.996706 0.989172
1.00496 0.995922 0.990178
1.00408 0.998663 0.987813
1.00472 0.99683 0.988777
1.00514 0.995216 0.989964
1.00478 0.998612 0.986982
1.00509 0.995996 0.989208
1.00507 0.995031 0.990298
1.00507 0.997611 0.987727
1.00512 0.996045 0.989318
1.00514 0.995698 0.989911
1.00513 0.99646 0.989102
1.00513 0.997354 0.988305
1.00516 0.997277 0.988164
1.00517 0.998385 0.987158
1.0052 0.999175 0.98637
1.00515 1.00029 0.985351
1.00516 1.0001 0.985498
1.00518 0.999763 0.985746
1.00461 1.00091 0.985686
1.00505 1.00078 0.984955
1.00511 1.00092 0.984652
1.00223 1.00291 0.987872
1.00363 1.00242 0.985977
1.00436 1.00183 0.985273
1.00022 1.00145 0.992755
1.00137 1.00369 0.988643
1.0024 1.00361 0.987005
0.999668 0.99867 0.998676
0.999927 1.00099 0.993825
1.00074 1.00388 0.989654
0.999623 0.998266 0.998866
0.999753 1.00031 0.994907
0.999621 0.997921 0.99901
1.00201 1.00351 0.987786
1.00089 1.00281 0.990439
1.00046 1.00362 0.990155
1.00022 1.00364 0.990458
1.0003 1.00369 0.990436
1.00028 1.00256 0.991685
1.00029 1.0034 0.990809
1.00027 1.00212 0.992131
0.999939 0.999598 0.995223
0.999781 0.997736 0.998943
1.00002 0.999271 0.995384
1.00031 1.00176 0.992427
0.99985 0.997496 0.999001
1.00008 0.998988 0.995558
0.999907 0.997224 0.999071
1.00022 0.995272 0.95453
0.999848 0.995305 0.911069
0.995317 0.996792 0.879423
1.0003 1.00444 0.989743
1.00059 1.00286 0.990965
1.00061 1.00398 0.99006
1.00196 1.00342 0.988103
1.00377 1.00257 0.985632
1.00093 1.00355 0.9891
0.999954 1.00456 0.990104
1.00135 1.00351 0.988352
1.0007 1.00029 0.993117
1.00269 1.00023 0.989059
1.00459 0.996673 0.990604
1.00431 0.996722 0.990196
1.00373 0.997642 0.990087
0.999668 1.00112 0.993887
0.995995 0.996229 0.973566
1.00018 0.997198 0.948446
0.998252 0.997715 0.91488
0.997965 0.999372 0.943014
0.994863 0.998074 0.975793
0.996031 0.998015 0.978643
0.999867 0.998085 0.992219
1.00317 0.995809 0.993322
1.00097 0.999227 0.993852
1.00181 0.999056 0.988203
0.996634 0.997485 0.974215
1.00032 0.995126 0.956064
0.999871 0.994848 0.907394
0.997288 0.998811 0.992639
0.99675 0.994864 0.971499
1.00023 0.996635 0.948713
1.00102 0.996383 0.991091
0.998649 0.995727 0.977337
1.00373 0.995723 0.991127
1.00294 0.998106 0.987854
1.00471 0.995971 0.989089
1.00486 0.995736 0.990174
1.00515 0.994878 0.990545
1.00463 0.996958 0.988708
1.00514 0.995182 0.989919
1.00508 0.994954 0.990504
1.00509 0.996069 0.989173
1.00506 0.995155 0.990267
1.00513 0.995212 0.990352
1.00512 0.996058 0.989277
1.00513 0.995668 0.989818
1.00513 0.996424 0.989085
1.00513 0.996234 0.989249
1.00514 0.997209 0.988464
1.00519 0.998523 0.987104
1.00517 0.998401 0.987133
1.0052 0.999236 0.986341
1.0052 0.999768 0.985921
1.00485 1.00025 0.985745
1.00514 1.00034 0.985346
1.00517 1.00013 0.985474
1.00327 1.00151 0.987483
1.00458 1.00097 0.98569
1.00498 1.00085 0.984944
1.00055 1.00171 0.99189
1.00224 1.00293 0.987875
1.0036 1.00242 0.985976
0.999839 0.999206 0.998324
1.0003 1.00141 0.992745
1.00145 1.00362 0.988626
0.999758 0.998788 0.998545
0.999978 1.00102 0.993798
0.999698 0.998353 0.99876
1.00338 1.00299 0.985849
1.0021 1.00355 0.987811
1.0013 1.00386 0.988545
1.00086 1.00277 0.990419
1.00055 1.00359 0.990056
1.00048 1.0029 0.991052
1.00024 1.00375 0.990403
1.00026 1.00258 0.991689
0.999861 0.999978 0.994981
1.00026 1.00212 0.992139
0.999941 0.999557 0.995236
0.999712 0.997963 0.998899
0.999786 0.997708 0.998956
1.00002 0.999248 0.995393
0.999851 0.997455 0.999017
0.996716 0.995035 0.975203
1.00047 0.995391 0.945874
0.999831 0.9952 0.917666
1.005 1.00099 0.984815
1.00074 1.00384 0.990054
1.0018 1.00343 0.988232
1.00128 1.00353 0.988835
1.00368 1.00261 0.985646
1.00309 1.00086 0.987846
1.00202 1.00356 0.987659
1.0004 1.00055 0.993148
1.00313 1.00007 0.989
1.00454 0.99638 0.990371
1.00482 0.996836 0.98873
1.0042 0.995745 0.991552
1.00421 0.996385 0.990068
1.00319 0.997382 0.990783
1.00002 0.997166 0.992917
0.995903 0.996061 0.97189
0.999665 0.996624 0.946625
0.995919 0.997453 0.976923
1.00009 0.997089 0.994288
1.00285 0.995506 0.993269
1.00082 0.997279 0.987531
0.996475 0.996205 0.975849
1.00002 0.99491 0.947128
1.00038 0.996848 0.991268
0.998528 0.996126 0.976149
1.00339 0.995514 0.991435
1.00289 0.997659 0.988236
1.00454 0.994921 0.991231
1.00448 0.997458 0.990719
1.00478 0.995544 0.99017
1.00515 0.994878 0.990421
1.00516 0.994884 0.990408
1.00514 0.995158 0.989874
1.00507 0.994953 0.990492
1.00514 0.995038 0.990429
1.00506 0.995271 0.990235
1.00512 0.995187 0.990308
1.00514 0.995942 0.989571
1.00513 0.99563 0.989726
1.00514 0.996438 0.98908
1.00519 0.997728 0.98782
1.00514 0.997062 0.988623
1.00519 0.998395 0.987269
1.00522 0.999415 0.986176
1.00519 0.999295 0.986313
1.0052 0.99978 0.985874
1.00495 1.00007 0.985934
1.00377 1.00055 0.987537
1.00486 1.00032 0.985779
1.00513 1.00037 0.985342
1.00107 1.00135 0.99139
1.00321 1.00157 0.987492
1.00456 1.00103 0.985695
0.999946 0.999692 0.998024
1.00073 1.00151 0.991871
1.00224 1.00292 0.98788
0.99991 0.9993 0.99821
1.00041 1.00132 0.992732
0.999848 0.998888 0.998416
1.00462 1.00128 0.985162
1.00337 1.003 0.985858
1.00252 1.00352 0.986867
1.00219 1.00358 0.987835
1.00136 1.00384 0.988557
1.00077 1.00344 0.990066
1.00065 1.00354 0.989956
1.00035 1.00306 0.991052
0.999829 1.00047 0.994542
1.00021 1.00262 0.991693
0.999859 0.999927 0.995001
0.99966 0.99823 0.998824
0.999943 0.99952 0.995248
0.999715 0.997927 0.998915
0.99979 0.997687 0.998969
1.00095 0.995303 0.991429
0.99685 0.994969 0.971605
0.999998 0.995054 0.955224
1.00422 1.00027 0.986202
1.00512 0.999626 0.986037
1.00493 1.00086 0.984901
1.00162 1.00351 0.988566
1.00357 1.00265 0.985655
1.00353 1.00072 0.98768
1.00508 0.997593 0.987857
1.00358 0.999891 0.988935
1.00447 0.996105 0.990129
1.00485 0.996871 0.988965
1.005 0.996012 0.989439
1.00425 0.99542 0.991515
1.00404 0.995896 0.991368
1.00436 0.996164 0.989934
1.0002 0.997223 0.993055
0.995944 0.996116 0.970019
1.00042 0.996736 0.996423
1.00412 0.995709 0.992089
1.00059 0.99762 0.987701
0.996477 0.995666 0.973536
1.00336 0.994881 0.991713
1.00284 0.997737 0.988647
1.00459 0.995068 0.991514
1.00456 0.996712 0.990649
1.00518 0.994939 0.990364
1.00523 0.995031 0.990555
1.00516 0.994883 0.990297
1.00516 0.9949 0.990394
1.00516 0.994961 0.990381
1.00507 0.994952 0.990479
1.00514 0.995006 0.990404
1.00516 0.995497 0.990022
1.00511 0.995168 0.990265
1.00515 0.995956 0.989563
1.00518 0.997209 0.988358
1.00514 0.996453 0.989075
1.00519 0.997743 0.987826
1.00524 0.999062 0.986467
1.00519 0.998265 0.987434
1.00522 0.999363 0.986238
1.00503 0.999908 0.985958
1.00519 0.999795 0.985826
1.00494 1.00006 0.985927
1.00394 1.00023 0.98756
1.00136 1.00078 0.991392
1.00375 1.00058 0.987529
1.00486 1.00039 0.985812
1.00003 1.0001 0.997785
1.00113 1.00128 0.991388
1.00313 1.00166 0.9875
1.00001 0.999806 0.997923
1.00085 1.00141 0.991859
0.999978 0.999408 0.998098
1.00507 1.00035 0.985418
1.00469 1.00122 0.985106
1.00387 1.00202 0.985869
1.00336 1.00301 0.985866
1.00248 1.00358 0.98687
1.00139 1.00361 0.988764
1.00141 1.00383 0.988569
1.00063 1.00356 0.990092
0.999978 1.00106 0.993751
1.00025 1.0032 0.991055
0.999818 1.00043 0.994562
0.999642 0.998604 0.998673
0.999859 0.99988 0.995021
0.999652 0.998182 0.998855
0.999719 0.997898 0.998929
1.00413 0.994895 0.992438
1.00099 0.995172 0.989849
0.996603 0.994884 0.971465
1.0051 0.998634 0.987058
1.00467 0.999908 0.986045
1.00519 0.998385 0.987172
1.00513 0.999579 0.986072
1.00488 1.0007 0.984989
1.00512 0.996818 0.988475
1.00398 1.00057 0.987516
1.00506 0.997765 0.98776
1.00515 0.995446 0.989745
1.00489 0.996893 0.989205
1.00497 0.996076 0.989342
1.00423 0.99554 0.991626
1.00367 0.995929 0.991173
1.00032 0.997222 0.99313
1.00518 0.994902 0.990404
1.00414 0.996248 0.992125
1.00041 0.997596 0.987851
1.00463 0.995205 0.991794
1.00458 0.995877 0.990589
1.00518 0.994918 0.990408
1.00523 0.994987 0.990466
1.0052 0.994935 0.99055
1.00516 0.994914 0.990382
1.00515 0.994955 0.990404
1.00518 0.995104 0.990382
1.00513 0.994977 0.99038
1.00516 0.995498 0.989965
1.00517 0.996846 0.988712
1.00516 0.99597 0.989555
1.00518 0.99723 0.98836
1.00525 0.998724 0.986813
1.00519 0.997758 0.987833
1.00524 0.999059 0.986487
1.00509 0.999801 0.98597
1.00521 0.999309 0.9863
1.00503 0.999913 0.985973
1.00407 1.00011 0.987461
1.00493 1.00005 0.985919
1.00394 1.00024 0.987552
1.00142 1.0004 0.992967
1.00024 1.00004 0.995029
1.00142 1.00073 0.99207
1.00372 1.00062 0.987521
1.00007 1.00016 0.997728
1.00124 1.00112 0.991384
1.00007 0.999908 0.997821
1.00523 0.9983 0.987239
1.00519 0.999454 0.986097
1.0051 1.00029 0.985485
1.00468 1.00064 0.98583
1.00476 1.00117 0.985051
1.00391 1.00201 0.985847
1.00246 1.00261 0.987778
1.00245 1.00365 0.986874
1.00131 1.00366 0.988781
1.00035 1.00159 0.992605
1.00049 1.0037 0.990116
0.999894 1.00108 0.993776
0.999674 0.99914 0.998393
0.999807 1.00038 0.994582
0.999615 0.998517 0.998736
0.999649 0.998134 0.998881
1.00517 0.995011 0.990222
1.00447 0.994893 0.99247
1.0013 0.994899 0.988305
1.00513 0.997325 0.988065
1.00511 0.998608 0.986896
1.00512 0.999576 0.98589
1.00517 0.998497 0.987122
1.00514 0.999539 0.986107
1.00516 0.99575 0.989803
1.0051 0.996822 0.988407
1.00505 0.997947 0.987665
1.00513 0.995447 0.989752
1.00497 0.996168 0.989246
1.00428 0.995751 0.991763
1.0052 0.994916 0.990625
1.00518 0.994906 0.990546
1.00418 0.996816 0.992166
1.00518 0.994899 0.990445
1.00523 0.99495 0.990378
1.0052 0.994937 0.9905
1.00518 0.994996 0.990662
1.00515 0.994946 0.990427
1.00517 0.995086 0.990342
1.00519 0.996621 0.988957
1.00516 0.995497 0.989907
1.00518 0.996857 0.988719
1.00524 0.998433 0.987127
1.00518 0.997252 0.988362
1.00525 0.998724 0.986827
1.00515 0.999704 0.985995
1.00523 0.999056 0.986508
1.0051 0.999797 0.985986
1.00416 1.00009 0.987327
1.00503 0.999919 0.985989
1.00407 1.0001 0.987461
1.00155 1.00011 0.993072
1.00394 1.00024 0.987544
1.00158 1.00032 0.9929
1.00021 0.999996 0.995186
1.00006 1.00027 0.996381
1.00158 1.00065 0.992626
1.00008 1.00026 0.997691
1.00517 0.99773 0.987935
1.00525 0.99909 0.986353
1.00523 0.998115 0.987388
1.00494 0.999997 0.98603
1.00521 0.999522 0.986033
1.00513 1.00022 0.98555
1.00471 1.00059 0.985822
1.00341 1.00119 0.987474
1.00397 1.002 0.985824
1.00249 1.00256 0.987766
1.00081 1.00167 0.99164
1.00122 1.00373 0.988799
1.00017 1.00172 0.992637
0.999768 0.999869 0.998009
0.999802 1.00112 0.993798
0.999618 0.999027 0.998509
0.999601 0.998439 0.998789
1.00518 0.995051 0.990293
1.00517 0.995031 0.990207
1.00467 0.994892 0.992468
1.00515 0.996477 0.989101
1.00512 0.997374 0.98805
1.00513 0.998585 0.986728
1.00516 0.99861 0.987072
1.00516 0.995748 0.989693
1.00508 0.996831 0.988339
1.00513 0.995445 0.98976
1.00518 0.99496 0.990666
1.00519 0.994924 0.990608
1.00518 0.994912 0.990689
1.00515 0.995343 0.990274
1.0052 0.994941 0.99045
1.00517 0.995073 0.990537
1.00519 0.996347 0.989398
1.00516 0.995071 0.990302
1.0052 0.996603 0.988962
1.00522 0.99823 0.987392
1.00519 0.996873 0.988726
1.00524 0.998437 0.987129
1.00517 0.99959 0.986094
1.00524 0.998724 0.98684
1.00514 0.9997 0.986009
1.00424 1.00006 0.987196
1.00509 0.999794 0.986001
1.00417 1.00007 0.987333
1.00165 1.00003 0.993006
1.00408 1.00008 0.987459
1.00168 1.00006 0.992978
1.00026 0.999898 0.995224
1.00172 1.00022 0.992842
0.99994 1.00015 0.995348
0.999664 1.00054 0.997974
1.00517 0.997626 0.987926
1.00522 0.998689 0.986908
1.00518 0.997773 0.987795
1.00508 0.999695 0.986328
1.00525 0.998937 0.986475
1.00524 0.997934 0.987536
1.00388 1.00035 0.987484
1.00495 0.999959 0.986008
1.00522 0.999588 0.985969
1.00472 1.00054 0.985815
1.00345 1.00115 0.987471
1.0012 1.00121 0.991345
1.00252 1.00251 0.987753
1.0007 1.00179 0.991653
0.999842 1.0005 0.997738
1.00003 1.00184 0.992666
0.999677 0.999718 0.998161
0.999579 0.998885 0.998609
1.00517 0.995607 0.989886
1.00518 0.995019 0.990313
1.00518 0.99505 0.990191
1.00516 0.996381 0.989171
1.0051 0.997419 0.988035
1.00515 0.995734 0.989582
1.00516 0.995336 0.99038
1.00519 0.994961 0.990662
1.00519 0.994932 0.990592
1.00516 0.995233 0.990453
1.00518 0.996544 0.989149
1.00517 0.995146 0.990413
1.0052 0.996509 0.989165
1.00519 0.99791 0.98783
1.00522 0.996577 0.988966
1.00522 0.998212 0.987391
1.00516 0.999427 0.986273
1.00525 0.998429 0.987132
1.00516 0.999581 0.986104
1.0043 1.00002 0.987134
1.00514 0.999696 0.986024
1.00424 1.00006 0.987204
1.00172 1.0001 0.992815
1.00418 1.00005 0.987338
1.00176 0.999993 0.992891
1.00033 0.999888 0.995129
1.00179 1.00001 0.992894
1.00002 0.999952 0.995409
0.999688 1.00033 0.995494
1.00517 0.996918 0.988751
1.0052 0.998582 0.987001
1.00517 0.997445 0.988094
1.00514 0.999404 0.986467
1.00521 0.998766 0.986808
1.00518 0.997816 0.987655
1.00412 0.999934 0.987508
1.00508 0.999589 0.986267
1.00526 0.998785 0.986597
1.0014 1.00066 0.991512
1.0039 1.00033 0.987493
1.00496 0.999924 0.985986
1.00349 1.00111 0.987469
1.00113 1.0013 0.991348
0.999863 1.00075 0.997684
1.00057 1.00191 0.991675
0.999787 1.00035 0.997826
0.999602 0.999536 0.998304
1.00516 0.995639 0.989953
1.00517 0.995653 0.989852
1.00518 0.995 0.990333
1.00516 0.996289 0.989242
1.00515 0.996691 0.98908
1.00517 0.995331 0.990421
1.00519 0.994958 0.990659
1.00517 0.995113 0.990632
1.00517 0.996431 0.98924
1.00521 0.997923 0.987831
1.0052 0.996678 0.988933
1.00519 0.998085 0.987619
1.00515 0.999115 0.986638
1.00523 0.998205 0.987389
1.00516 0.999423 0.98628
1.00432 0.999948 0.987151
1.00516 0.999578 0.986113
1.0043 1.00002 0.987141
1.00181 1.00015 0.991332
1.00425 1.00005 0.987213
1.00183 1.00006 0.992051
1.00028 0.999938 0.997676
1.00188 0.999967 0.992777
1.00012 0.999876 0.995328
0.999799 1.00001 0.995578
1.00516 0.996589 0.989164
1.00519 0.998276 0.987414
1.00517 0.997 0.988711
1.00515 0.999236 0.986408
1.0052 0.99858 0.987013
1.00517 0.997262 0.988262
1.00424 0.999703 0.987289
1.00514 0.999408 0.986477
1.00521 0.99884 0.986708
1.00156 1.00015 0.991702
1.00412 0.999891 0.987419
1.00508 0.999475 0.986205
0.999925 1.00061 0.997735
1.00138 1.00067 0.991517
1.00391 1.00032 0.987502
1.00106 1.00136 0.991353
0.999864 1.00063 0.997687
0.999693 1.00022 0.997941
1.00513 0.996585 0.989163
1.00515 0.995725 0.989936
1.00517 0.995698 0.989818
1.0052 0.997946 0.98773
1.00515 0.996588 0.989154
1.00518 0.995332 0.990463
1.00516 0.996318 0.989331
1.0052 0.997905 0.987833
1.00515 0.999043 0.986878
1.00519 0.998259 0.987407
1.00514 0.999242 0.986584
1.00433 0.999772 0.987134
1.00515 0.999413 0.986287
1.00432 0.999946 0.987157
1.00183 1.00014 0.991307
1.0043 1.00002 0.987148
1.00182 1.00014 0.991331
1.00029 0.999974 0.997638
1.00185 1.00005 0.991377
1.00019 0.99993 0.996466
0.999905 0.999842 0.995524
1.00515 0.996893 0.988827
1.00519 0.998112 0.987537
1.00515 0.996576 0.989196
1.00516 0.999284 0.986363
1.0052 0.998328 0.987326
1.00517 0.997085 0.98867
1.00432 0.999644 0.987238
1.00516 0.999338 0.986412
1.0052 0.998579 0.987025
1.00171 0.99989 0.991705
1.00424 0.999704 0.987279
1.00514 0.999415 0.986486
1.00007 1.0003 0.997763
1.00157 1.00014 0.991708
1.00412 0.999849 0.987329
0.999932 1.00057 0.997709
1.00136 1.00067 0.991522
0.999824 1.00058 0.99771
1.0052 0.997789 0.987926
1.00514 0.996648 0.989072
1.00514 0.995808 0.989918
1.00515 0.998928 0.987002
1.0052 0.997862 0.987826
1.00514 0.99649 0.989228
1.0052 0.997889 0.987835
1.00515 0.999047 0.986876
1.00432 0.999678 0.987264
1.00514 0.99937 0.98653
1.00433 0.999819 0.98717
1.00186 1.00006 0.991334
1.00432 0.999941 0.987163
1.00182 1.00013 0.991309
1.00029 1.00001 0.997595
1.00181 1.00014 0.991328
1.00029 0.999987 0.997617
1.00026 0.999886 0.99507
1.00521 0.998039 0.987585
1.00515 0.996723 0.988963
1.00516 0.999196 0.986476
1.0052 0.998118 0.987526
1.00514 0.99656 0.989228
1.00433 0.999698 0.987389
1.00516 0.999291 0.986358
1.0052 0.998379 0.987238
1.00182 0.999857 0.991569
1.00431 0.999686 0.987296
1.00516 0.999443 0.986416
1.00023 1.00005 0.99772
1.00172 0.999883 0.99171
1.00424 0.999699 0.987268
1.00005 1.00032 0.997754
1.00157 1.00013 0.991713
0.999929 1.00054 0.997688
1.00512 0.998907 0.987056
1.0052 0.997859 0.987844
1.00514 0.996711 0.988982
1.00426 0.999615 0.987415
1.00515 0.998935 0.987003
1.00521 0.997775 0.987921
1.00515 0.999055 0.986875
1.00433 0.999668 0.987244
1.00184 1.00002 0.99141
1.00433 0.999864 0.987205
1.00184 1.00007 0.991336
1.00031 1.00001 0.997576
1.00183 1.00013 0.991311
1.00029 1.00001 0.997592
1.00029 0.999996 0.997602
1.00515 0.999117 0.986589
1.0052 0.997847 0.987794
1.00515 0.996557 0.989098
1.0043 0.999693 0.987453
1.00516 0.999205 0.986467
1.0052 0.998124 0.987516
1.00184 0.999946 0.991453
1.00432 0.999703 0.987384
1.00516 0.999298 0.986353
1.00032 0.999944 0.997645
1.00182 0.999871 0.991571
1.00431 0.999722 0.987353
1.00019 1.00009 0.99774
1.00172 0.999891 0.991716
1.00005 1.00031 0.997738
1.00422 0.999678 0.987621
1.00512 0.998871 0.987009
1.0052 0.997927 0.987762
1.0018 0.999967 0.991545
1.00428 0.999596 0.987392
1.00515 0.998938 0.987003
1.00434 0.999654 0.987225
1.00184 1 0.991416
1.00032 1.00001 0.99756
1.00183 1.00008 0.991338
1.00031 1.00002 0.997565
1.00028 1.00002 0.997586
1.00425 0.999685 0.987552
1.00514 0.999011 0.986707
1.0052 0.997656 0.988004
1.00191 1.00001 0.99266
1.00429 0.999692 0.987453
1.00515 0.999216 0.986458
1.00032 0.999952 0.997591
1.00184 0.999966 0.991454
1.00431 0.999709 0.987378
1.00029 0.999976 0.997674
1.00181 0.999895 0.991573
1.00016 1.0001 0.997753
1.00182 0.999966 0.991543
1.00423 0.999629 0.98755
1.00511 0.998835 0.986962
1.00027 0.999999 0.997589
1.00179 0.999965 0.991547
1.0043 0.999581 0.98737
1.00183 0.999992 0.991419
1.0003 1.00001 0.997566
1.00031 1.00003 0.997561
1.00193 0.999987 0.992685
1.00425 0.999683 0.987551
1.00512 0.998901 0.986826
0.999969 0.99999 0.997929
1.00182 1.00001 0.991453
1.00429 0.999689 0.987454
1.00032 0.999963 0.997616
1.00184 0.999986 0.991455
1.00027 0.999996 0.997701
1.00024 0.999992 0.995092
1.00184 0.999965 0.992161
1.00424 0.999582 0.987478
1.00028 0.999997 0.997594
1.00179 0.999963 0.991554
1.00032 1 0.997567
0.999895 1 0.99542
1.00185 0.999985 0.992113
1.00425 0.999684 0.98755
1.00012 0.999989 0.996479
1.00182 1.00001 0.991463
1.00031 0.999974 0.997641
1.00025 0.999992 0.997607
1.00175 0.999966 0.991615
1.00025 0.999996 0.9976
1.00008 0.999991 0.996521
1.00179 0.999986 0.991559
1.0003 0.999978 0.997605
1.00025 0.999989 0.997619
1.00025 0.999986 0.99761

TENSORS stress float
0.00168883 -8.99663e-05 0.00017243
-8.99663e-05 0.000651761 -2.31596e-05
0.00017243 -2.31596e-05 0.000630677
0.0053251 -0.000121306 0.000163032
-0.000121306 0.00282447 1.76936e-05
0.000163032 1.76936e-05 0.00280032
0.00148997 -1.96812e-05 8.08709e-05
-1.96812e-05 0.000542839 -8.90083e-06
8.08709e-05 -8.90083e-06 0.000512495
0.00182731 -5.45812e-05 0.000173599
-5.45812e-05 0.000707923 -1.48076e-05
0.000173599 -1.48076e-05 0.000689935
0.0017564 -8.12063e-05 0.000169362
-8.12063e-05 0.000682825 -2.10239e-05
0.000169362 -2.10239e-05 0.000663027
0.00164066 -8.62099e-05 0.000177626
-8.62099e-05 0.000620494 -2.28225e-05
0.000177626 -2.28225e-05 0.000601021
0.00145547 -6.28963e-05 2.59359e-05
-6.28963e-05 0.000443551 -9.17801e-06
2.59359e-05 -9.17801e-06 0.000362989
0.00521625 -0.00011609 -2.637e-06
-0.00011609 0.00274492 8.98374e-08
-2.637e-06 8.98374e-08 0.00272977
0.00533029 4.62133e-05 7.3524e-05
4.62133e-05 0.00277358 4.1555e-06
7.3524e-05 4.1555e-06 0.00276028
0.00507644 -0.000227745 1.08811e-05
-0.000227745 0.00267629 3.37484e-06
1.08811e-05 3.37484e-06 0.00263808
0.00169721 7.18586e-05 0.00016982
7.18586e-05 0.000653677 1.55968e-05
0.00016982 1.55968e-05 0.000643417
0.00064963 0.000175786 2.17076e-05
0.000175786 -1.4633e-05 1.3485e-05
2.17076e-05 1.3485e-05 -0.000103351
0.00164415 -3.19494e-05 0.000184547
-3.19494e-05 0.00059516 2.30414e-06
0.000184547 2.30414e-06 0.000585303
0.00127444 -1.39676e-05 3.12123e-05
-1.39676e-05 0.00039957 1.08015e-06
3.12123e-05 1.08015e-06 0.00036312
0.00135772 -8.01031e-06 -2.66989e-05
-8.01031e-06 0.000466013 5.01142e-06
-2.66989e-05 5.01142e-06 0.000431179
0.0015461 -5.83255e-05 6.21467e-05
-5.83255e-05 0.000555382 -3.54107e-06
6.21467e-05 -3.54107e-06 0.000528002
0.0015004 -7.68943e-07 8.76725e-05
-7.68943e-07 0.000555183 -8.34387e-06
8.76725e-05 -8.34387e-06 0.000520356
0.00151195 -3.70794e-05 7.22261e-05
-3.70794e-05 0.000543209 -8.02988e-06
7.22261e-05 -8.02988e-06 0.0005173
0.00152518 -0.00010522 -3.0182e-05
-0.00010522 0.000474524 2.85779e-06
-3.0182e-05 2.85779e-06 0.000402627
0.0054088 -0.000108662 0.000216862
-0.000108662 0.0028266 -6.18224e-06
0.000216862 -6.18224e-06 0.00282907
0.0018082 -3.73744e-05 0.000176514
-3.73744e-05 0.000693722 -1.10895e-05
0.000176514 -1.10895e-05 0.000676397
0.00181805 -6.99448e-05 0.000170847
-6.99448e-05 0.000709023 -1.81708e-05
0.000170847 -1.81708e-05 0.000690606
0.00150228 -9.90641e-05 4.68456e-05
-9.90641e-05 0.000438567 -7.10403e-06
4.68456e-05 -7.10403e-06 0.000365691
0.00148205 -7.94088e-05 3.49415e-05
-7.94088e-05 0.000439612 -8.33618e-06
3.49415e-05 -8.33618e-06 0.000366225
0.00149986 -5.7159e-05 0.00016727
-5.7159e-05 0.000530659 -1.93017e-05
0.00016727 -1.93017e-05 0.000514161
0.00145459 -4.86249e-05 1.8833e-05
-4.86249e-05 0.000462856 -1.00023e-05
1.8833e-05 -1.00023e-05 0.000373582
0.00200842 -0.000210929 1.32116e-05
-0.000210929 0.000624922 -5.84998e-06
1.32116e-05 -5.84998e-06 0.000487889
0.00510755 -0.000142874 -0.00015268
-0.000142874 0.00267923 -9.73461e-06
-0.00015268 -9.73461e-06 0.00266439
0.00342719 5.83801e-05 -0.000100361
5.83801e-05 0.00166376 -7.7483e-06
-0.000100361 -7.7483e-06 0.00164541
0.00331513 -5.54432e-05 -9.36792e-05
-5.54432e-05 0.001625 -4.02724e-06
-9.36792e-05 -4.02724e-06 0.00159842
0.0048715 -0.00016034 8.69549e-06
-0.00016034 0.00255147 -8.24097e-07
8.69549e-06 -8.24097e-07 0.00253223
0.00060372 0.000165645 -2.37991e-06
0.000165645 -4.23027e-05 -5.33051e-07
-2.37991e-06 -5.33051e-07 -0.000127915
0.00156802 5.21109e-05 0.000176827
5.21109e-05 0.000561759 1.32962e-05
0.000176827 1.32962e-05 0.000544761
0.00174539 0.000120956 0.000179225
0.000120956 0.000686315 1.96027e-05
0.000179225 1.96027e-05 0.000665455
0.00260161 0.000167815 0.00010948
0.000167815 0.00108788 1.36417e-05
0.00010948 1.36417e-05 0.0010247
0.00381181 -0.000236007 4.26075e-06
-0.000236007 0.00194562 3.58017e-06
4.26075e-06 3.58017e-06 0.00191059
0.00264654 0.000203329 0.000108031
0.000203329 0.00114021 1.51689e-05
0.000108031 1.51689e-05 0.00107344
0.000641161 0.000136424 2.46825e-05
0.000136424 -1.33162e-05 1.70115e-05
2.46825e-05 1.70115e-05 -9.24478e-05
0.000902163 0.000171432 9.62301e-06
0.000171432 4.69605e-05 4.72288e-06
9.62301e-06 4.72288e-06 -0.000107757
0.00305588 -0.000103792 9.20466e-05
-0.000103792 0.00147106 3.52525e-06
9.20466e-05 3.52525e-06 0.00147442
0.00545066 6.24145e-05 3.76592e-06
6.24145e-05 0.00284116 -1.25609e-06
3.76592e-06 -1.25609e-06 0.00284883
0.00341159 5.30329e-05 -8.24888e-05
5.30329e-05 0.0016474 -2.90895e-06
-8.24888e-05 -2.90895e-06 0.00163272
0.00534885 5.81884e-05 0.000212712
5.81884e-05 0.00278464 2.18008e-06
0.000212712 2.18008e-06 0.00279201
0.00129599 6.08325e-05 3.43967e-05
6.08325e-05 0.000409974 1.85829e-06
3.43967e-05 1.85829e-06 0.000377118
0.00068873 7.39624e-06 1.62035e-05
7.39624e-06 -6.63475e-05 1.60841e-06
1.62035e-05 1.60841e-06 -0.000137365
0.00524479 0.000180751 0.000106152
0.000180751 0.00274414 9.02263e-06
0.000106152 9.02263e-06 0.00272265
0.00267027 5.22154e-05 0.000107805
5.22154e-05 0.00109471 6.21504e-06
0.000107805 6.21504e-06 0.0010437
0.00120049 -7.38013e-05 -4.51591e-05
-7.38013e-05 0.000368263 5.70012e-06
-4.51591e-05 5.70012e-06 0.000329393
0.00127371 -5.42328e-05 -3.85275e-05
-5.42328e-05 0.000413348 5.7609e-06
-3.85275e-05 5.7609e-06 0.000378661
0.00143647 4.71905e-05 -1.50689e-05
4.71905e-05 0.000520465 5.41701e-06
-1.50689e-05 5.41701e-06 0.000479216
0.00155334 -0.000117451 -9.34413e-05
-0.000117451 0.000484125 1.44242e-05
-9.34413e-05 1.44242e-05 0.000418583
0.00341214 1.31993e-05 -8.78892e-05
1.31993e-05 0.00165425 -1.69094e-06
-8.78892e-05 -1.69094e-06 0.00163688
0.00154293 -4.27781e-05 6.92172e-05
-4.27781e-05 0.000548685 -2.96613e-06
6.92172e-05 -2.96613e-06 0.000522676
0.00142082 2.35952e-05 8.95358e-05
2.35952e-05 0.000511511 -6.25793e-06
8.95358e-05 -6.25793e-06 0.000475526
0.00153709 -4.91006e-05 6.59798e-05
-4.91006e-05 0.000550297 -5.89468e-06
6.59798e-05 -5.89468e-06 0.000525264
0.00155395 -8.33875e-05 -2.43914e-05
-8.33875e-05 0.00046253 1.00501e-06
-2.43914e-05 1.00501e-06 0.000395972
0.00152494 -9.56392e-05 -3.52102e-05
-9.56392e-05 0.000487749 2.93003e-06
-3.52102e-05 2.93003e-06 0.000410663
0.00154186 -0.000105363 -2.55741e-05
-0.000105363 0.000471578 2.12702e-06
-2.55741e-05 2.12702e-06 0.000403147
0.00200659 -0.000209267 -6.57009e-06
-0.000209267 0.00062213 1.73188e-06
-6.57009e-06 1.73188e-06 0.000485313
0.0053218 4.47066e-05 0.000207027
4.47066e-05 0.00276877 -1.06891e-07
0.000207027 -1.06891e-07 0.00277665
0.00178627 -1.94597e-05 0.000177102
-1.94597e-05 0.000682608 -7.57034e-06
0.000177102 -7.57034e-06 0.000666645
0.0024032 2.49887e-05 3.14997e-05
2.49887e-05 0.000954708 -9.73164e-07
3.14997e-05 -9.73164e-07 0.000895436
0.00150974 -7.95708e-05 4.05063e-05
-7.95708e-05 0.000434348 -4.88056e-06
4.05063e-05 -4.88056e-06 0.000364489
0.00149476 -9.06672e-05 4.2199e-05
-9.06672e-05 0.000436656 -7.71885e-06
4.2199e-05 -7.71885e-06 0.000365127
0.00193171 -0.00012901 1.12357e-05
-0.00012901 0.000528869 -2.82508e-06
1.12357e-05 -2.82508e-06 0.000408794
0.00163189 -0.000168456 1.49803e-05
-0.000168456 0.000381507 -5.329e-06
1.49803e-05 -5.329e-06 0.000250536
0.00112719 -1.24477e-05 0.000127019
-1.24477e-05 0.000316999 -1.35711e-05
0.000127019 -1.35711e-05 0.000304499
0.00120293 4.7269e-07 9.69477e-06
4.7269e-07 0.000342285 -1.03587e-05
9.69477e-06 -1.03587e-05 0.000253617
0.00198207 -0.000227879 1.25297e-05
-0.000227879 0.000633373 -5.91953e-06
1.25297e-05 -5.91953e-06 0.000487491
0.00123557 -0.000197955 7.89541e-06
-0.000197955 7.65614e-05 -2.4362e-06
7.89541e-06 -2.4362e-06 -9.09248e-05
0.00555629 0.000121757 -0.000217133
0.000121757 0.00290586 -1.69596e-05
-0.000217133 -1.69596e-05 0.00290801
0.00453042 -0.000187194 -0.000117798
-0.000187194 0.00235826 -7.841e-06
-0.000117798 -7.841e-06 0.00233609
0.00530136 -6.57434e-05 -0.000178887
-6.57434e-05 0.00277545 -1.15015e-05
-0.000178887 -1.15015e-05 0.0027716
0.000539321 0.000162966 -2.26069e-05
0.000162966 -7.77116e-05 -1.38006e-05
-2.26069e-05 -1.38006e-05 -0.00016272
0.00559204 0.000148427 -2.9752e-06
0.000148427 0.00292522 -1.77017e-06
-2.9752e-06 -1.77017e-06 0.00292659
0.0055648 5.06459e-05 -8.53328e-06
5.06459e-05 0.00291702 -9.22905e-07
-8.53328e-06 -9.22905e-07 0.00291689
0.000546873 0.00011853 -2.37324e-07
0.00011853 -0.00011493 -2.50981e-07
-2.37324e-07 -2.50981e-07 -0.000197884
0.00252211 -0.000120801 -5.24241e-05
-0.000120801 0.00117017 -1.18224e-06
-5.24241e-05 -1.18224e-06 0.00114664
0.000543851 0.000170795 -6.91209e-07
0.000170795 -8.45457e-05 -3.09026e-07
-6.91209e-07 -3.09026e-07 -0.00017219
0.00147334 0.000110609 3.48708e-05
0.000110609 0.000485852 6.05753e-07
3.48708e-05 6.05753e-07 0.000417217
0.000900763 0.000168362 1.49506e-07
0.000168362 4.39435e-05 -1.63078e-07
1.49506e-07 -1.63078e-07 -0.000110172
0.0036006 -0.000107595 0.000117249
-0.000107595 0.00179014 5.65874e-06
0.000117249 5.65874e-06 0.00179107
0.000617326 -4.3127e-05 2.47455e-06
-4.3127e-05 2.87193e-05 7.64661e-06
2.47455e-06 7.64661e-06 -1.0481e-05
0.000664061 8.79797e-05 1.71517e-05
8.79797e-05 -6.70182e-05 8.36707e-06
1.71517e-05 8.36707e-06 -0.000145819
0.000701271 0.00014128 2.18753e-05
0.00014128 -1.14426e-05 1.41917e-05
2.18753e-05 1.41917e-05 -9.89928e-05
0.000985682 0.000138895 1.3116e-05
0.000138895 -9.80511e-06 5.21522e-06
1.3116e-05 5.21522e-06 -0.000149584
0.00230133 4.28933e-05 7.36474e-05
4.28933e-05 0.000989316 9.64824e-06
7.36474e-05 9.64824e-06 0.000940968
0.000940893 0.000166567 1.1011e-05
0.000166567 2.64058e-05 5.90952e-06
1.1011e-05 5.90952e-06 -0.000121363
0.000943839 0.000177232 8.68567e-06
0.000177232 0.000144866 4.93671e-06
8.68567e-06 4.93671e-06 -1.56763e-05
0.00090204 0.000202833 4.3264e-06
0.000202833 -1.772e-05 1.47871e-06
4.3264e-06 1.47871e-06 -0.000203194
0.00266437 -0.000118463 4.95532e-05
-0.000118463 0.00124068 2.27083e-06
4.95532e-05 2.27083e-06 0.00124052
0.00290589 -0.000131364 1.02139e-05
-0.000131364 0.00138827 -4.14519e-07
1.02139e-05 -4.14519e-07 0.00138454
0.0055528 1.57363e-05 -0.000211685
1.57363e-05 0.00289611 -8.60354e-06
-0.000211685 -8.60354e-06 0.00290236
0.0054915 5.31051e-05 -0.000217776
5.31051e-05 0.0028629 -4.97004e-06
-0.000217776 -4.97004e-06 0.00287126
0.00541736 8.10601e-05 -1.75242e-07
8.10601e-05 0.00283053 -2.35553e-06
-1.75242e-07 -2.35553e-06 0.00283387
0.00339062 8.60009e-06 -9.6939e-05
8.60009e-06 0.00163331 -3.51946e-06
-9.6939e-05 -3.51946e-06 0.00162148
0.00165922 3.00165e-05 4.60734e-05
3.00165e-05 0.000503469 8.13897e-07
4.60734e-05 8.13897e-07 0.000443674
0.00347358 9.89347e-05 -8.38048e-05
9.89347e-05 0.00168662 -4.09611e-06
-8.38048e-05 -4.09611e-06 0.0016687
0.00169008 7.09473e-05 4.49297e-05
7.09473e-05 0.00052481 1.62466e-06
4.49297e-05 1.62466e-06 0.000460899
0.00538016 0.000140668 0.000216095
0.000140668 0.00281922 5.12729e-06
0.000216095 5.12729e-06 0.00281633
0.000615093 9.03502e-06 1.81264e-05
9.03502e-06 -0.000105705 3.33219e-07
1.81264e-05 3.33219e-07 -0.000174998
0.00269376 2.06601e-05 0.000108315
2.06601e-05 0.00110682 4.0945e-06
0.000108315 4.0945e-06 0.00105812
0.00103868 3.27645e-05 1.23774e-05
3.27645e-05 -1.4456e-05 1.13845e-06
1.23774e-05 1.13845e-06 -0.000133693
0.00258767 9.43844e-05 0.000109132
9.43844e-05 0.00105491 7.8532e-06
0.000109132 7.8532e-06 0.00100065
0.00105277 7.77827e-05 1.20762e-05
7.77827e-05 -1.45934e-06 2.49087e-06
1.20762e-05 2.49087e-06 -0.000128193
0.00164819 3.97073e-05 -0.000182579
3.97073e-05 0.000599659 1.50055e-06
-0.000182579 1.50055e-06 0.000590169
0.00125633 3.33857e-06 -3.191e-05
3.33857e-06 0.000391405 1.64398e-06
-3.191e-05 1.64398e-06 0.000356063
0.00138278 0.000105973 -3.09431e-06
0.000105973 0.000512707 7.10008e-06
-3.09431e-06 7.10008e-06 0.000458846
0.00121746 -7.03923e-05 -4.58476e-05
-7.03923e-05 0.000378518 6.20029e-06
-4.58476e-05 6.20029e-06 0.000342075
0.00166981 -6.31524e-05 -9.34593e-05
-6.31524e-05 0.000522796 7.84504e-06
-9.34593e-05 7.84504e-06 0.000463353
0.00160652 -0.000100972 -9.22678e-05
-0.000100972 0.00050324 1.26943e-05
-9.22678e-05 1.26943e-05 0.000440951
0.00153006 -0.000122398 -9.50394e-05
-0.000122398 0.000480743 1.48052e-05
-9.50394e-05 1.48052e-05 0.000411647
0.00200476 -0.000207859 -2.51087e-05
-0.000207859 0.000619987 8.85651e-06
-2.51087e-05 8.85651e-06 0.000483374
0.00539038 -8.36133e-05 2.04339e-06
-8.36133e-05 0.00281559 -1.38108e-06
2.04339e-06 -1.38108e-06 0.00281859
0.00150056 4.4509e-05 7.78519e-05
4.4509e-05 0.000523242 -2.59882e-06
7.78519e-05 -2.59882e-06 0.000499484
0.00113162 -9.27886e-08 -4.87588e-05
-9.27886e-08 0.000199593 8.42563e-07
-4.87588e-05 8.42563e-07 0.000138571
0.00156999 -4.80687e-05 -2.85439e-05
-4.80687e-05 0.000464872 1.44247e-06
-2.85439e-05 1.44247e-06 0.000400404
0.00283225 4.97517e-05 0.000132629
4.97517e-05 0.00133931 -2.5141e-06
0.000132629 -2.5141e-06 0.0013281
0.00187473 -6.52042e-05 -3.13069e-05
-6.52042e-05 0.000717974 -6.82092e-08
-3.13069e-05 -6.82092e-08 0.000639873
0.00155373 -9.67356e-05 -2.36165e-05
-9.67356e-05 0.000468637 1.43228e-06
-2.36165e-05 1.43228e-06 0.000401724
0.00181064 -0.000121762 -8.40693e-06
-0.000121762 0.000456691 1.46354e-06
-8.40693e-06 1.46354e-06 0.000336031
0.00198039 -0.000228077 -5.32827e-06
-0.000228077 0.00063285 1.76181e-06
-5.32827e-06 1.76181e-06 0.000486922
0.00183648 -0.000176928 -3.91624e-06
-0.000176928 0.000500776 9.55886e-07
-3.91624e-06 9.55886e-07 0.000370356
0.00124375 -0.000198447 2.78549e-07
-0.000198447 7.97635e-05 -1.38796e-07
2.78549e-07 -1.38796e-07 -8.75175e-05
0.000655557 1.25556e-05 1.85968e-05
1.25556e-05 -8.38478e-05 -1.20645e-06
1.85968e-05 -1.20645e-06 -0.000150205
0.00146792 1.62776e-05 3.17617e-05
1.62776e-05 0.000405973 -2.51635e-06
3.17617e-05 -2.51635e-06 0.000340283
0.00162861 -2.99038e-05 1.28169e-05
-2.99038e-05 0.000335804 -1.11578e-06
1.28169e-05 -1.11578e-06 0.000225391
0.00163933 -9.54131e-05 1.24735e-05
-9.54131e-05 0.000350734 -2.3386e-06
1.24735e-05 -2.3386e-06 0.000231989
0.00160385 -0.000142109 1.39307e-05
-0.000142109 0.000347696 -4.09952e-06
1.39307e-05 -4.09952e-06 0.000222068
0.00171754 -0.000149391 2.28987e-06
-0.000149391 0.000276519 -7.96793e-07
2.28987e-06 -7.96793e-07 0.000133006
0.00397777 0.000153719 0.000107882
0.000153719 0.00202432 -4.70712e-06
0.000107882 -4.70712e-06 0.0020126
0.0012698 -0.000180979 6.61531e-06
-0.000180979 6.84034e-05 -1.98023e-06
6.61531e-06 -1.98023e-06 -9.06807e-05
0.000366246 -6.28352e-05 1.20612e-05
-6.28352e-05 -0.000148891 -1.23825e-05
1.20612e-05 -1.23825e-05 -0.000214084
0.00085104 -0.000168615 8.73265e-06
-0.000168615 2.17383e-05 -6.72389e-06
8.73265e-06 -6.72389e-06 -0.000132427
0.00133195 -0.000224951 9.25271e-06
-0.000224951 0.000161309 -2.48598e-06
9.25271e-06 -2.48598e-06 -1.81282e-05
0.00146855 -0.000246839 3.97161e-06
-0.000246839 0.000120839 4.55433e-07
3.97161e-06 4.55433e-07 -6.0281e-05
0.000439738 -7.17501e-06 6.46144e-06
-7.17501e-06 -8.68053e-05 -1.00249e-05
6.46144e-06 -1.00249e-05 -0.00013758
0.00061497 -2.51282e-05 1.01373e-06
-2.51282e-05 1.75017e-05 -4.44473e-06
1.01373e-06 -4.44473e-06 -8.8654e-05
0.00560291 0.000162462 -0.000229202
0.000162462 0.00293519 -1.77821e-05
-0.000229202 -1.77821e-05 0.00293489
0.00541946 3.23757e-05 -0.000197362
3.23757e-05 0.00283113 -1.41369e-05
-0.000197362 -1.41369e-05 0.00283389
0.000540214 0.000110841 -1.77848e-05
0.000110841 -0.000120248 -9.87337e-06
-1.77848e-05 -9.87337e-06 -0.000203012
0.00386992 -0.000158367 -0.00010287
-0.000158367 0.00196104 -4.35588e-06
-0.00010287 -4.35588e-06 0.00194968
0.000445042 9.81473e-05 -1.58607e-05
9.81473e-05 -0.000117139 -1.31426e-05
-1.58607e-05 -1.31426e-05 -0.000187149
0.000495273 0.00015521 -1.99432e-05
0.00015521 -0.000108013 -1.29315e-05
-1.99432e-05 -1.29315e-05 -0.000197407
0.000904153 0.000166662 -1.06777e-05
0.000166662 4.37385e-05 -5.22921e-06
-1.06777e-05 -5.22921e-06 -0.000109974
0.00342624 -0.000126491 6.76438e-06
-0.000126491 0.00169345 -3.76422e-07
6.76438e-06 -3.76422e-07 0.00169069
0.000531116 -5.46551e-05 1.64961e-07
-5.46551e-05 -1.77675e-05 4.31787e-07
1.64961e-07 4.31787e-07 -5.79757e-05
0.00164733 0.000113437 4.49033e-05
0.000113437 0.00051206 2.75164e-06
4.49033e-05 2.75164e-06 0.000442616
0.00157887 0.000159986 4.29346e-05
0.000159986 0.000506122 2.44875e-06
4.29346e-05 2.44875e-06 0.00042876
0.000998534 0.000141697 1.94539e-07
0.000141697 -9.69401e-07 -2.05202e-07
1.94539e-07 -2.05202e-07 -0.000141542
0.000621102 4.08665e-05 -6.6191e-07
4.08665e-05 6.546e-06 1.72899e-07
-6.6191e-07 1.72899e-07 -5.11948e-05
0.000941184 0.000166802 4.95017e-07
0.000166802 2.72535e-05 2.78908e-07
4.95017e-07 2.78908e-07 -0.000120466
0.000846953 0.000161692 6.60772e-07
0.000161692 8.52083e-05 -1.12078e-06
6.60772e-07 -1.12078e-06 -7.27573e-05
0.000950172 0.000208919 -6.04433e-07
0.000208919 6.00823e-06 8.82074e-07
-6.04433e-07 8.82074e-07 -0.000181281
0.000657111 2.27021e-06 8.25937e-06
2.27021e-06 4.16413e-05 9.12839e-06
8.25937e-06 9.12839e-06 -6.11854e-06
0.000599139 -6.56724e-05 -5.82722e-07
-6.56724e-05 1.79214e-05 6.29765e-06
-5.82722e-07 6.29765e-06 -1.51819e-05
0.000746401 4.64505e-05 3.1191e-06
4.64505e-05 0.00010339 4.29823e-06
3.1191e-06 4.29823e-06 1.55646e-06
0.0010278 0.000119024 1.27939e-05
0.000119024 -1.44321e-06 4.24749e-06
1.27939e-05 4.24749e-06 -0.000136723
0.00096052 0.000156631 1.25332e-05
0.000156631 4.59805e-06 5.86412e-06
1.25332e-05 5.86412e-06 -0.000139694
0.00133445 0.000194654 6.46138e-06
0.000194654 8.79916e-05 1.76445e-06
6.46138e-06 1.76445e-06 -8.06555e-05
0.000913492 0.000156062 6.45594e-06
0.000156062 0.000178736 6.56873e-06
6.45594e-06 6.56873e-06 3.08836e-05
0.00101297 0.000201587 4.89395e-06
0.000201587 -6.34291e-06 2.64169e-06
4.89395e-06 2.64169e-06 -0.000184524
0.000936674 0.000207513 5.35559e-06
0.000207513 8.22064e-05 2.68225e-07
5.35559e-06 2.68225e-07 -0.000122493
0.00170127 0.000283472 5.13846e-07
0.000283472 0.000388139 1.11761e-07
5.13846e-07 1.11761e-07 0.000184483
0.00245608 -0.000108677 3.35572e-05
-0.000108677 0.00111222 2.88786e-06
3.35572e-05 2.88786e-06 0.00111434
0.00255847 -0.000121627 4.42092e-06
-0.000121627 0.00117988 -4.16525e-07
4.42092e-06 -4.16525e-07 0.00117841
0.00273915 -0.000137934 -4.23298e-05
-0.000137934 0.00129329 -2.42639e-06
-4.23298e-05 -2.42639e-06 0.00128719
0.000446992 7.84668e-06 4.52215e-06
7.84668e-06 -7.84153e-05 -8.51238e-06
4.52215e-06 -8.51238e-06 -0.000123091
0.00363045 0.000137482 9.39656e-05
0.000137482 0.00181523 -3.97744e-06
9.39656e-05 -3.97744e-06 0.00180809
0.0056003 0.00016164 -0.000231957
0.00016164 0.00293466 -1.60202e-05
-0.000231957 -1.60202e-05 0.00293436
0.0054797 5.3972e-05 -0.000214043
5.3972e-05 0.00285434 -6.99557e-06
-0.000214043 -6.99557e-06 0.00286231
0.000640285 8.1856e-05 -1.91553e-05
8.1856e-05 -8.87454e-05 -4.52878e-06
-1.91553e-05 -4.52878e-06 -0.000162844
0.000621291 3.65507e-05 -1.88958e-05
3.65507e-05 -0.0001007 -2.15374e-06
-1.88958e-05 -2.15374e-06 -0.000172602
0.00536781 -2.11159e-05 -0.000208518
-2.11159e-05 0.00279261 -1.08713e-06
-0.000208518 -1.08713e-06 0.00280161
0.00533019 1.77337e-05 -6.75007e-07
1.77337e-05 0.00277232 -2.16602e-07
-6.75007e-07 -2.16602e-07 0.00278083
0.000602786 3.21037e-07 -9.79672e-08
3.21037e-07 -0.000114676 -1.15035e-07
-9.79672e-08 -1.15035e-07 -0.000182699
0.00164367 2.85428e-05 4.57909e-05
2.85428e-05 0.000493885 1.45734e-06
4.57909e-05 1.45734e-06 0.000433712
0.00102404 3.66123e-05 4.91718e-08
3.66123e-05 -2.28554e-05 -1.55879e-07
4.91718e-08 -1.55879e-07 -0.000142432
0.000613077 7.00693e-05 -3.82264e-07
7.00693e-05 -0.00010004 -2.52708e-07
-3.82264e-07 -2.52708e-07 -0.000176496
0.00102418 7.95548e-05 -7.35151e-08
7.95548e-05 -1.6879e-05 -1.70125e-07
-7.35151e-08 -1.70125e-07 -0.000144114
0.000595091 -2.49319e-05 1.85856e-05
-2.49319e-05 -0.000120178 -7.31315e-07
1.85856e-05 -7.31315e-07 -0.000186043
0.00102495 1.42224e-05 1.21825e-05
1.42224e-05 -2.08565e-05 3.01992e-07
1.21825e-05 3.01992e-07 -0.000137913
0.00103178 5.55842e-05 1.21712e-05
5.55842e-05 -1.71262e-05 1.87487e-06
1.21712e-05 1.87487e-06 -0.00013971
0.0014185 5.37936e-05 2.70076e-06
5.37936e-05 5.4369e-05 1.20919e-07
2.70076e-06 1.20919e-07 -7.45446e-05
0.0010522 9.79297e-05 1.22868e-05
9.79297e-05 4.01273e-06 3.30532e-06
1.22868e-05 3.30532e-06 -0.00012692
0.00142944 0.00011506 3.19529e-06
0.00011506 7.63192e-05 4.18708e-07
3.19529e-06 4.18708e-07 -6.57444e-05
0.00533012 -4.48641e-05 -0.000214242
-4.48641e-05 0.0027749 2.55743e-07
-0.000214242 2.55743e-07 0.00278176
0.001254 -0.000121029 -3.38032e-05
-0.000121029 0.000395736 3.5067e-06
-3.38032e-05 3.5067e-06 0.000358824
-0.000245679 -1.33714e-06 -1.31078e-05
-1.33714e-06 -0.000605596 2.14786e-06
-1.31078e-05 2.14786e-06 -0.000684245
0.00165107 -4.32313e-05 -9.41521e-05
-4.32313e-05 0.000507674 5.69856e-06
-9.41521e-05 5.69856e-06 0.000448785
0.00430377 0.000294064 3.3068e-06
0.000294064 0.00226031 5.11231e-06
3.3068e-06 5.11231e-06 0.00220684
0.00256351 -0.000156532 -9.42662e-05
-0.000156532 0.00110414 1.47815e-05
-9.42662e-05 1.47815e-05 0.00103579
0.00165173 -8.28608e-05 -9.26429e-05
-8.28608e-05 0.000518898 1.02986e-05
-9.26429e-05 1.02986e-05 0.000458725
0.00166236 -0.000113681 -2.61102e-05
-0.000113681 0.000368284 5.10769e-06
-2.61102e-05 5.10769e-06 0.00024724
0.0020271 -0.000184632 -2.38235e-05
-0.000184632 0.00061202 7.34853e-06
-2.38235e-05 7.34853e-06 0.000482364
0.00201201 -0.000230199 -2.27658e-05
-0.000230199 0.000652451 8.7173e-06
-2.27658e-05 8.7173e-06 0.000506159
0.00126152 -0.000199646 -6.71409e-06
-0.000199646 8.83313e-05 2.00498e-06
-6.71409e-06 2.00498e-06 -7.8839e-05
0.000598309 8.02006e-06 -6.76394e-08
8.02006e-06 -0.000115337 -1.07456e-08
-6.76394e-08 -1.07456e-08 -0.000182582
0.00157929 -6.02191e-05 -2.82127e-05
-6.02191e-05 0.000469885 3.16467e-07
-2.82127e-05 3.16467e-07 0.000407229
0.00119578 -2.56434e-05 -6.51087e-06
-2.56434e-05 8.29014e-05 3.15611e-07
-6.51087e-06 3.15611e-07 -3.17401e-05
0.00182427 -9.73372e-05 -4.85466e-06
-9.73372e-05 0.000456541 7.15639e-07
-4.85466e-06 7.15639e-07 0.0003393
0.0040742 0.000143906 -5.0072e-06
0.000143906 0.0020789 -7.08253e-07
-5.0072e-06 -7.08253e-07 0.00206878
0.00145256 -6.01908e-05 -1.52455e-06
-6.01908e-05 0.000492042 1.99961e-07
-1.52455e-06 1.99961e-07 0.000417772
0.00131618 -0.000193716 7.81035e-07
-0.000193716 0.000301459 -1.31886e-06
7.81035e-07 -1.31886e-06 0.000147611
0.00163054 -0.000141694 -5.21221e-06
-0.000141694 0.000362925 1.13249e-06
-5.21221e-06 1.13249e-06 0.00023732
0.00153203 -0.000143955 -2.51957e-06
-0.000143955 0.000166449 5.27142e-07
-2.51957e-06 5.27142e-07 2.30287e-05
0.00124744 -0.000219942 4.0793e-07
-0.000219942 0.000110855 -1.04537e-08
4.0793e-07 -1.04537e-08 -6.93834e-05
0.00150213 -0.000191766 3.46986e-07
-0.000191766 0.000201319 -1.43629e-07
3.46986e-07 -1.43629e-07 4.28741e-05
0.00148286 -0.000246551 6.18189e-07
-0.000246551 0.000133284 -4.13292e-09
6.18189e-07 -4.13292e-09 -4.72069e-05
0.000517421 -1.2915e-05 -7.16825e-07
-1.2915e-05 -4.36783e-05 1.51003e-07
-7.16825e-07 1.51003e-07 -9.48103e-05
0.000657193 -4.34236e-05 -5.69698e-07
-4.34236e-05 4.08132e-05 -7.26166e-08
-5.69698e-07 -7.26166e-08 -6.72641e-05
0.00101855 -1.21692e-05 1.20616e-05
-1.21692e-05 -2.18006e-05 -8.97823e-07
1.20616e-05 -8.97823e-07 -0.000137765
0.00165492 -5.75833e-05 1.21868e-05
-5.75833e-05 0.000353496 -1.63359e-06
1.21868e-05 -1.63359e-06 0.000240042
0.00168188 -4.56855e-05 1.82498e-06
-4.56855e-05 0.000225405 -1.15657e-07
1.82498e-06 -1.15657e-07 0.000100169
0.00140683 -0.000113178 3.69028e-06
-0.000113178 7.93155e-05 -4.60787e-07
3.69028e-06 -4.60787e-07 -5.75592e-05
0.0016536 -0.000179926 4.2228e-06
-0.000179926 0.000265661 -1.04338e-06
4.2228e-06 -1.04338e-06 0.00011583
0.00169496 -0.000177856 -6.7468e-07
-0.000177856 0.000149411 4.72885e-07
-6.7468e-07 4.72885e-07 1.08878e-05
0.000387328 -3.67888e-05 9.49588e-06
-3.67888e-05 -0.000125227 -1.12355e-05
9.49588e-06 -1.12355e-05 -0.000182248
0.00154183 -0.000229154 2.20144e-06
-0.000229154 0.000130414 4.3477e-07
2.20144e-06 4.3477e-07 -3.44245e-05
0.00067145 -0.000138129 4.63307e-06
-0.000138129 1.22046e-06 -6.38936e-06
4.63307e-06 -6.38936e-06 -0.000148252
0.000925271 -0.000214236 8.48494e-06
-0.000214236 -1.96586e-05 -4.2717e-06
8.48494e-06 -4.2717e-06 -0.000212519
0.00176322 -0.000290569 3.30392e-06
-0.000290569 0.000334668 4.73138e-08
3.30392e-06 4.73138e-08 0.00013327
0.00182004 -0.00028391 -1.47388e-06
-0.00028391 0.000265344 2.93681e-06
-1.47388e-06 2.93681e-06 9.2697e-05
0.00072983 -8.30331e-05 2.81247e-06
-8.30331e-05 8.09058e-05 -4.22839e-06
2.81247e-06 -4.22839e-06 -4.30618e-05
0.000573216 -1.3631e-05 6.72499e-07
-1.3631e-05 -1.97161e-06 -3.57589e-06
6.72499e-07 -3.57589e-06 -9.60721e-05
0.000994924 -0.000138493 2.87515e-07
-0.000138493 0.000251911 -7.85338e-08
2.87515e-07 -7.85338e-08 9.22457e-05
0.000580256 9.0121e-05 -1.73359e-05
9.0121e-05 -0.000111382 -7.56969e-06
-1.73359e-05 -7.56969e-06 -0.000190617
0.00324716 -0.000149643 -6.99179e-05
-0.000149643 0.00159356 -2.31592e-06
-6.99179e-05 -2.31592e-06 0.00158498
0.00043846 -6.7691e-05 2.29559e-06
-6.7691e-05 -6.59659e-05 -7.43364e-06
2.29559e-06 -7.43364e-06 -0.000108519
0.000502351 0.000135643 -1.86387e-05
0.000135643 -0.000120707 -1.20338e-05
-1.86387e-05 -1.20338e-05 -0.000207553
0.00100402 0.000144308 -1.36343e-05
0.000144308 3.59767e-06 -5.64769e-06
-1.36343e-05 -5.64769e-06 -0.000137754
0.00038364 3.27729e-05 -1.01919e-05
3.27729e-05 -0.000129006 -1.10164e-05
-1.01919e-05 -1.10164e-05 -0.00018513
0.000723683 0.000145403 -6.5334e-06
0.000145403 1.11829e-05 -7.19006e-06
-6.5334e-06 -7.19006e-06 -0.000144107
0.000947359 0.000167325 -1.06134e-05
0.000167325 3.17751e-05 -5.38505e-06
-1.06134e-05 -5.38505e-06 -0.000115952
0.000975063 0.000212856 -7.39182e-06
0.000212856 1.63599e-05 -7.00963e-07
-7.39182e-06 -7.00963e-07 -0.000172342
0.00053488 -8.52758e-06 1.61152e-06
-8.52758e-06 -2.76498e-05 4.02342e-07
1.61152e-06 4.02342e-07 -7.44324e-05
0.000533809 -7.17024e-05 -4.0898e-07
-7.17024e-05 -1.83108e-05 3.01422e-07
-4.0898e-07 3.01422e-07 -5.24227e-05
0.000635352 5.83876e-06 6.51576e-07
5.83876e-06 3.2835e-05 3.5589e-07
6.51576e-07 3.5589e-07 -6.05872e-05
0.00101549 0.000120694 3.27957e-08
0.000120694 -7.01432e-06 -2.43616e-07
3.27957e-08 -2.43616e-07 -0.000143019
0.000977371 0.000159108 4.39558e-07
0.000159108 1.52466e-05 -1.89238e-07
4.39558e-07 -1.89238e-07 -0.000129623
0.00132 0.000192815 2.12135e-07
0.000192815 8.40645e-05 1.45779e-08
2.12135e-07 1.45779e-08 -8.44751e-05
0.000797092 0.000138399 -5.02461e-07
0.000138399 0.000112489 4.25216e-07
-5.02461e-07 4.25216e-07 -3.26905e-05
0.00115054 0.000211119 -4.35739e-08
0.000211119 7.49299e-05 8.38934e-08
-4.35739e-08 8.38934e-08 -0.000104619
0.0010917 0.000220446 1.20004e-06
0.000220446 0.000171245 -1.92918e-06
1.20004e-06 -1.92918e-06 -3.53619e-05
0.00116441 0.000244558 -1.02298e-06
0.000244558 7.30905e-05 3.38593e-07
-1.02298e-06 3.38593e-07 -0.000125581
0.000575877 -6.7338e-05 -1.20067e-06
-6.7338e-05 -5.38974e-06 5.27698e-06
-1.20067e-06 5.27698e-06 -3.30594e-05
0.000742591 9.66943e-05 4.8429e-06
9.66943e-05 8.94533e-05 4.24984e-06
4.8429e-06 4.24984e-06 -3.17663e-05
0.000691615 -1.34278e-05 8.369e-07
-1.34278e-05 6.1093e-05 3.90778e-06
8.369e-07 3.90778e-06 -1.13817e-05
0.000797505 9.65007e-05 1.1833e-06
9.65007e-05 0.000155325 5.28159e-07
1.1833e-06 5.28159e-07 8.9147e-06
0.00136489 0.00017004 5.25862e-06
0.00017004 7.41921e-05 9.31894e-07
5.25862e-06 9.31894e-07 -8.52944e-05
0.00124762 0.000209295 6.96316e-06
0.000209295 8.10622e-05 2.30034e-06
6.96316e-06 2.30034e-06 -9.49966e-05
0.00161777 0.000254683 1.35031e-06
0.000254683 0.000163281 2.75595e-08
1.35031e-06 2.75595e-08 -1.44624e-05
0.0011159 0.00019479 3.09333e-06
0.00019479 0.000263839 4.27796e-06
3.09333e-06 4.27796e-06 7.06874e-05
0.00144 0.000265374 3.83393e-07
0.000265374 0.000179822 2.34901e-07
3.83393e-07 2.34901e-07 -1.41782e-05
0.0017116 0.000295711 3.58335e-06
0.000295711 0.000466956 -1.91021e-06
3.58335e-06 -1.91021e-06 0.000229239
0.0017192 0.000286936 5.08659e-07
0.000286936 0.000329165 1.40139e-07
5.08659e-07 1.40139e-07 0.000125647
0.000648124 -2.4109e-06 2.07696e-06
-2.4109e-06 1.50115e-05 2.18481e-06
2.07696e-06 2.18481e-06 -3.22754e-05
0.000567708 -4.48412e-05 6.79294e-07
-4.48412e-05 -3.35526e-05 4.43108e-06
6.79294e-07 4.43108e-06 -5.17527e-05
0.0023579 -9.46609e-05 2.86764e-05
-9.46609e-05 0.00104596 3.30419e-06
2.86764e-05 3.30419e-06 0.00105158
0.00240235 -0.000106497 2.92716e-06
-0.000106497 0.00108015 -2.94499e-07
2.92716e-06 -2.94499e-07 0.00108269
0.00247575 -0.000119284 -3.56977e-05
-0.000119284 0.00113141 -2.66786e-06
-3.56977e-05 -2.66786e-06 0.00113035
0.000465097 1.47882e-05 3.44995e-06
1.47882e-05 -6.94253e-05 -7.06764e-06
3.44995e-06 -7.06764e-06 -0.000106534
0.00327322 0.00012636 7.67936e-05
0.00012636 0.0016015 -3.44947e-06
7.67936e-05 -3.44947e-06 0.00159735
0.000535648 5.72974e-06 -3.37111e-07
5.72974e-06 -2.85491e-05 1.45233e-07
-3.37111e-07 1.45233e-07 -7.3547e-05
0.00372974 0.000127888 -3.61273e-06
0.000127888 0.00187067 -5.04643e-07
-3.61273e-06 -5.04643e-07 0.00186576
0.000633999 9.29691e-05 -1.88357e-05
9.29691e-05 -8.63629e-05 -5.97924e-06
-1.88357e-05 -5.97924e-06 -0.000164064
0.000637555 3.19215e-05 -1.82234e-05
3.19215e-05 -9.3695e-05 -3.13355e-06
-1.82234e-05 -3.13355e-06 -0.000165506
0.00100905 8.0999e-05 -1.19101e-05
8.0999e-05 -2.51108e-05 -2.81388e-06
-1.19101e-05 -2.81388e-06 -0.000152737
0.00100875 3.86242e-05 -1.23642e-05
3.86242e-05 -3.1797e-05 -1.43402e-06
-1.23642e-05 -1.43402e-06 -0.000151586
0.000652344 -5.83217e-06 -1.88635e-05
-5.83217e-06 -8.94815e-05 -6.89225e-07
-1.88635e-05 -6.89225e-07 -0.000155564
0.00539293 -9.53424e-05 -0.000221909
-9.53424e-05 0.002817 3.26535e-06
-0.000221909 3.26535e-06 0.00282092
0.000635551 -4.51557e-07 1.36088e-07
-4.51557e-07 -9.76362e-05 -3.60165e-07
1.36088e-07 -3.60165e-07 -0.000163311
0.00102033 1.88734e-05 -4.65669e-08
1.88734e-05 -2.33417e-05 -1.42061e-07
-4.65669e-08 -1.42061e-07 -0.00014055
0.00102913 5.71796e-05 -5.56005e-08
5.71796e-05 -1.86373e-05 -1.10758e-07
-5.56005e-08 -1.10758e-07 -0.000141508
0.00141707 5.30535e-05 -5.6071e-08
5.30535e-05 5.40924e-05 3.79509e-08
-5.6071e-08 3.79509e-08 -7.49368e-05
0.00102349 9.9791e-05 -1.03999e-07
9.9791e-05 -1.1108e-05 -2.09093e-07
-1.03999e-07 -2.09093e-07 -0.000142802
0.00141812 0.000116302 -8.68244e-09
0.000116302 6.97275e-05 -4.90508e-08
-8.68244e-09 -4.90508e-08 -7.2855e-05
0.00102257 -2.04523e-07 1.21083e-05
-2.04523e-07 -1.98538e-05 -2.33651e-07
1.21083e-05 -2.33651e-07 -0.000135795
0.00141992 3.01482e-05 2.85396e-06
3.01482e-05 5.79919e-05 8.84396e-09
2.85396e-06 8.84396e-09 -6.74821e-05
0.00142269 8.52934e-05 2.77734e-06
8.52934e-05 6.11084e-05 1.82376e-07
2.77734e-06 1.82376e-07 -7.37268e-05
0.00173029 7.73582e-05 -1.44945e-06
7.73582e-05 9.39033e-05 -4.34235e-07
-1.44945e-06 -4.34235e-07 -1.56433e-05
0.00141544 0.000144655 3.84365e-06
0.000144655 8.14256e-05 6.77298e-07
3.84365e-06 6.77298e-07 -6.91216e-05
0.00171645 0.000154941 -5.5944e-07
0.000154941 0.000116755 -1.02538e-06
-5.5944e-07 -1.02538e-06 -1.35857e-05
0.000616718 2.67925e-06 -1.79741e-05
2.67925e-06 -0.000103165 9.82483e-07
-1.79741e-05 9.82483e-07 -0.000171746
0.00165201 -2.17206e-05 -9.41351e-05
-2.17206e-05 0.000506855 3.70622e-06
-9.41351e-05 3.70622e-06 0.000449868
0.000736633 -2.0151e-05 -1.40329e-05
-2.0151e-05 -0.000184769 1.7086e-06
-1.40329e-05 1.7086e-06 -0.000303829
0.00199841 -9.80154e-05 -2.30426e-05
-9.80154e-05 0.000555778 3.62756e-06
-2.30426e-05 3.62756e-06 0.000440211
0.00423938 0.000123532 -0.000134318
0.000123532 0.00217081 7.15808e-06
-0.000134318 7.15808e-06 0.0021643
0.00252085 -9.56049e-05 -8.31591e-05
-9.56049e-05 0.00110654 1.13448e-05
-8.31591e-05 1.13448e-05 0.00104603
0.00193608 -0.000235063 -1.81957e-05
-0.000235063 0.000668176 7.4575e-06
-1.81957e-05 7.4575e-06 0.000512282
0.00163907 -0.000140225 -2.39279e-05
-0.000140225 0.000367275 6.05414e-06
-2.39279e-05 6.05414e-06 0.000241954
0.00134212 -0.000138245 -6.09235e-06
-0.000138245 5.37844e-05 1.34447e-06
-6.09235e-06 1.34447e-06 -8.95159e-05
0.00173954 -0.000202947 -7.30216e-06
-0.000202947 0.000337258 2.05698e-06
-7.30216e-06 2.05698e-06 0.000179404
0.00115563 -0.000214367 -7.60119e-06
-0.000214367 5.61553e-05 2.23599e-06
-7.60119e-06 2.23599e-06 -0.000124793
0.00149394 -0.000246209 -2.60055e-06
-0.000246209 0.000143291 -4.90266e-07
-2.60055e-06 -4.90266e-07 -3.65799e-05
0.0006108 -2.21332e-05 -8.67236e-06
-2.21332e-05 9.44559e-06 9.97592e-06
-8.67236e-06 9.97592e-06 -4.2744e-05
0.000731021 -6.29501e-05 -2.40516e-06
-6.29501e-05 8.47946e-05 3.39868e-06
-2.40516e-06 3.39868e-06 -2.65364e-05
0.000876689 -7.71782e-06 -3.33567e-07
-7.71782e-06 -0.000104164 -1.23104e-07
-3.33567e-07 -1.23104e-07 -0.000221056
0.00166174 -5.85369e-05 -5.39513e-06
-5.85369e-05 0.000356311 5.47171e-07
-5.39513e-06 5.47171e-07 0.000242921
0.00169921 -4.20747e-05 -2.28779e-06
-4.20747e-05 0.000231999 2.72474e-07
-2.28779e-06 2.72474e-07 0.000108864
0.00154656 -0.000115526 -3.43158e-08
-0.000115526 0.000160838 6.34392e-08
-3.43158e-08 6.34392e-08 2.37353e-05
0.000536205 -4.79013e-05 -5.53329e-08
-4.79013e-05 -4.10063e-05 3.20928e-07
-5.53329e-08 3.20928e-07 -9.96884e-05
0.000853674 -0.000161489 -6.18918e-07
-0.000161489 0.000103967 -1.61195e-07
-6.18918e-07 -1.61195e-07 -4.88649e-05
0.000974962 -0.000217063 1.74082e-06
-0.000217063 9.76267e-06 -1.23665e-06
1.74082e-06 -1.23665e-06 -0.000182836
0.00168446 -0.000178942 -2.36295e-06
-0.000178942 0.000282263 6.08356e-07
-2.36295e-06 6.08356e-07 0.000132029
0.0017466 -0.000180626 2.86052e-07
-0.000180626 0.000174036 4.02304e-08
2.86052e-07 4.02304e-08 3.83899e-05
0.00169583 -0.000288569 -2.01087e-06
-0.000288569 0.000298137 2.06379e-07
-2.01087e-06 2.06379e-07 9.58888e-05
0.00154362 -0.000228882 4.22857e-07
-0.000228882 0.000131957 -7.64443e-08
4.22857e-07 -7.64443e-08 -3.24901e-05
0.0017786 -0.000283505 6.05101e-07
-0.000283505 0.000236645 5.55677e-07
6.05101e-07 5.55677e-07 6.38683e-05
0.000723792 -9.52528e-05 -1.24373e-07
-9.52528e-05 7.72519e-05 -1.95655e-07
-1.24373e-07 -1.95655e-07 -4.84272e-05
0.000619892 -8.52013e-05 -6.23761e-07
-8.52013e-05 2.18859e-05 -7.01826e-07
-6.23761e-07 -7.01826e-07 -0.000125538
0.000666374 -2.51405e-05 1.38921e-07
-2.51405e-05 5.08865e-05 2.46863e-07
1.38921e-07 2.46863e-07 -4.38965e-05
0.00167144 -1.72538e-05 1.44512e-06
-1.72538e-05 0.00021204 -7.93866e-08
1.44512e-06 -7.93866e-08 8.91765e-05
0.00171636 -7.612e-05 1.34187e-06
-7.612e-05 0.000244063 2.08893e-07
1.34187e-06 2.08893e-07 0.000117347
0.00165519 -6.12735e-05 -1.68061e-06
-6.12735e-05 7.23892e-05 9.43963e-07
-1.68061e-06 9.43963e-07 -3.7763e-05
0.00167816 -0.000146465 -2.23481e-06
-0.000146465 0.000105349 1.11862e-06
-2.23481e-06 1.11862e-06 -2.14933e-05
0.00156012 -0.000208272 5.28204e-07
-0.000208272 0.000106288 1.31638e-06
5.28204e-07 1.31638e-06 -4.22002e-05
0.00176932 -0.000202758 -2.08456e-06
-0.000202758 0.00012308 1.29736e-06
-2.08456e-06 1.29736e-06 7.29748e-06
0.000675109 -0.000118866 3.79492e-06
-0.000118866 4.16636e-05 -4.48611e-06
3.79492e-06 -4.48611e-06 -9.62164e-05
0.00165443 -0.000262805 -1.81441e-06
-0.000262805 0.000123661 1.92599e-06
-1.81441e-06 1.92599e-06 -2.94554e-05
0.00101708 -0.000213171 2.41807e-06
-0.000213171 0.000142551 -4.73199e-06
2.41807e-06 -4.73199e-06 -5.0737e-05
0.00125898 -0.000276969 6.2974e-06
-0.000276969 0.0001152 -2.621e-06
6.2974e-06 -2.621e-06 -0.000105326
0.00183837 -0.000322966 1.20105e-06
-0.000322966 0.00032538 2.92836e-06
1.20105e-06 2.92836e-06 0.000118128
0.00193295 -0.000310003 -2.94672e-06
-0.000310003 0.000288569 3.77173e-06
-2.94672e-06 3.77173e-06 0.000127781
0.000615519 -1.62877e-05 8.50283e-07
-1.62877e-05 1.96099e-05 -3.13367e-06
8.50283e-07 -3.13367e-06 -6.21399e-05
0.000794912 -0.000136986 1.27349e-06
-0.000136986 0.000101503 2.76832e-07
1.27349e-06 2.76832e-07 -5.04697e-05
0.000537642 -6.93721e-05 -2.9176e-07
-6.93721e-05 -2.68366e-06 -4.97634e-07
-2.9176e-07 -4.97634e-07 -0.000147979
0.00123475 -0.00019882 -1.78782e-06
-0.00019882 0.000369856 1.86698e-06
-1.78782e-06 1.86698e-06 0.000197006
0.000997471 0.000122398 -1.32751e-05
0.000122398 -1.58918e-05 -4.661e-06
-1.32751e-05 -4.661e-06 -0.000152627
0.000479043 -7.28176e-05 9.88736e-07
-7.28176e-05 -5.05875e-05 -5.67188e-06
9.88736e-07 -5.67188e-06 -8.4366e-05
0.000416149 -2.60259e-05 -2.38715e-06
-2.60259e-05 -9.24672e-05 -9.17464e-06
-2.38715e-06 -9.17464e-06 -0.000139479
0.000580382 -2.70594e-05 7.54434e-07
-2.70594e-05 4.48131e-06 -4.43094e-06
7.54434e-07 -4.43094e-06 -8.77383e-05
0.000998573 0.000162185 -1.24933e-05
0.000162185 2.83337e-05 -6.43127e-06
-1.24933e-05 -6.43127e-06 -0.000117215
0.001316 0.000191479 -6.15986e-06
0.000191479 8.61318e-05 -1.73991e-06
-6.15986e-06 -1.73991e-06 -8.23197e-05
0.000660883 0.00011689 -4.3325e-06
0.00011689 3.38288e-05 -4.62002e-06
-4.3325e-06 -4.62002e-06 -0.000107959
0.0013651 0.000243 -5.50389e-06
0.000243 0.000329647 -4.59393e-06
-5.50389e-06 -4.59393e-06 0.000120072
0.00130181 0.000221481 -5.59587e-06
0.000221481 0.000164605 -2.61301e-06
-5.59587e-06 -2.61301e-06 -1.64088e-05
0.000615843 0.000204664 -4.22137e-06
0.000204664 -0.000247832 2.04087e-06
-4.22137e-06 2.04087e-06 -0.000441509
0.000546817 -6.34818e-05 -1.83579e-07
-6.34818e-05 -2.45391e-05 1.13571e-07
-1.83579e-07 1.13571e-07 -5.09768e-05
0.000744911 8.53267e-05 3.4651e-07
8.53267e-05 9.69024e-05 -2.68502e-07
3.4651e-07 -2.68502e-07 -2.60251e-05
0.000616041 -2.92926e-05 -6.04601e-07
-2.92926e-05 1.99646e-05 6.96672e-07
-6.04601e-07 6.96672e-07 -5.27189e-05
0.000777103 6.53807e-05 1.088e-06
6.53807e-05 0.000140465 -6.832e-07
1.088e-06 -6.832e-07 -7.67734e-07
0.00137385 0.000169918 3.65491e-07
0.000169918 8.22153e-05 -2.03839e-07
3.65491e-07 -2.03839e-07 -7.74154e-05
0.00126482 0.000209884 2.26224e-07
0.000209884 9.61187e-05 -1.29806e-08
2.26224e-07 -1.29806e-08 -8.01338e-05
0.00161768 0.000255049 2.36979e-07
0.000255049 0.000162058 1.96677e-07
2.36979e-07 1.96677e-07 -1.60005e-05
0.00102568 0.000189741 9.34165e-07
0.000189741 0.000215789 5.59625e-07
9.34165e-07 5.59625e-07 2.36473e-05
0.0016031 0.00027446 -1.00549e-06
0.00027446 0.000279849 -2.96289e-07
-1.00549e-06 -2.96289e-07 8.5082e-05
0.0011966 0.000253122 5.07425e-07
0.000253122 0.000169288 -2.75443e-06
5.07425e-07 -2.75443e-06 -6.50159e-05
0.00153364 0.000273949 -2.34079e-06
0.000273949 0.000226224 3.28752e-07
-2.34079e-06 3.28752e-07 2.39198e-05
0.000560505 -5.43677e-05 4.12567e-07
-5.43677e-05 -2.85236e-05 4.58999e-06
4.12567e-07 4.58999e-06 -5.01356e-05
0.000684222 -1.79048e-05 1.33642e-06
-1.79048e-05 4.86052e-05 2.86976e-06
1.33642e-06 2.86976e-06 -1.01562e-05
0.000975998 0.000148804 1.83578e-06
0.000148804 0.00022243 2.01416e-06
1.83578e-06 2.01416e-06 6.01624e-05
0.000790372 5.67227e-05 -5.58198e-07
5.67227e-05 0.000156107 2.48898e-06
-5.58198e-07 2.48898e-06 3.22723e-05
0.00109269 0.000143747 2.65005e-08
0.000143747 0.000324526 -1.01816e-06
2.65005e-08 -1.01816e-06 0.000156015
0.0016791 0.000224146 1.14471e-06
0.000224146 0.000154772 -1.27192e-06
1.14471e-06 -1.27192e-06 -6.06183e-06
0.00151462 0.000271999 1.34464e-06
0.000271999 0.000161384 5.97808e-07
1.34464e-06 5.97808e-07 -2.91888e-05
0.00177098 0.000293539 3.3625e-07
0.000293539 0.000204331 -2.8034e-07
3.3625e-07 -2.8034e-07 3.1668e-05
0.00145036 0.000260729 2.51399e-06
0.000260729 0.000430322 4.83081e-06
2.51399e-06 4.83081e-06 0.000197544
0.00175676 0.000321165 1.84397e-06
0.000321165 0.000312639 5.7789e-08
1.84397e-06 5.7789e-08 0.000109671
0.000793015 0.00022895 2.58384e-06
0.00022895 -0.000132684 -2.04746e-06
2.58384e-06 -2.04746e-06 -0.00035672
0.000644158 -6.55806e-06 2.41651e-06
-6.55806e-06 1.39192e-05 2.19582e-06
2.41651e-06 2.19582e-06 -3.48828e-05
0.000694971 3.91124e-05 2.15095e-07
3.91124e-05 7.03143e-05 9.73442e-07
2.15095e-07 9.73442e-07 -9.45496e-06
0.000662737 7.4005e-06 1.81488e-06
7.4005e-06 2.48361e-05 2.15162e-06
1.81488e-06 2.15162e-06 -2.19893e-05
0.000638862 -2.10745e-05 -4.8255e-07
-2.10745e-05 1.15507e-05 1.37032e-08
-4.8255e-07 1.37032e-08 -3.67636e-05
0.00125542 -5.16642e-05 1.0147e-06
-5.16642e-05 0.000366911 2.58618e-06
1.0147e-06 2.58618e-06 0.000354446
0.000930744 -5.17981e-05 6.298e-07
-5.17981e-05 0.00018071 -7.7709e-08
6.298e-07 -7.7709e-08 0.0001643
0.000905389 -4.85658e-05 2.38589e-05
-4.85658e-05 0.000176885 7.20967e-06
2.38589e-05 7.20967e-06 0.000179598
0.00232057 -9.25064e-05 2.99177e-06
-9.25064e-05 0.00102297 -2.61401e-07
2.99177e-06 -2.61401e-07 0.00102907
0.00234308 -0.000103578 -3.23843e-05
-0.000103578 0.00104455 -3.04249e-06
-3.23843e-05 -3.04249e-06 0.00104772
0.000494479 3.57561e-05 2.00028e-08
3.57561e-05 -5.36201e-05 -5.94392e-06
2.00028e-08 -5.94392e-06 -8.54772e-05
0.00295939 0.000125517 4.97418e-05
0.000125517 0.0014126 -3.07286e-06
4.97418e-05 -3.07286e-06 0.00140911
0.000542676 1.39064e-05 -2.75395e-07
1.39064e-05 -2.47902e-05 2.35329e-07
-2.75395e-07 2.35329e-07 -6.24032e-05
0.00339987 0.000117828 -4.44033e-06
0.000117828 0.00167312 -3.97548e-07
-4.44033e-06 -3.97548e-07 0.00167112
0.000610779 3.04883e-06 -5.30221e-06
3.04883e-06 1.33708e-05 8.70749e-06
-5.30221e-06 8.70749e-06 -3.20628e-05
0.00381739 0.00011636 -0.00011586
0.00011636 0.00191907 5.6481e-06
-0.00011586 5.6481e-06 0.00191656
0.00100294 0.000101788 -1.24514e-05
0.000101788 -2.17961e-05 -3.65807e-06
-1.24514e-05 -3.65807e-06 -0.000154173
0.00101477 6.09045e-05 -1.21002e-05
6.09045e-05 -2.61833e-05 -2.08063e-06
-1.21002e-05 -2.08063e-06 -0.000149558
0.00141922 0.000114367 -3.74634e-06
0.000114367 7.0423e-05 -5.62534e-07
-3.74634e-06 -5.62534e-07 -7.22665e-05
0.00141479 5.24991e-05 -3.02604e-06
5.24991e-05 5.35731e-05 -1.60636e-08
-3.02604e-06 -1.60636e-08 -7.55832e-05
0.00101959 2.23829e-05 -1.22883e-05
2.23829e-05 -2.37298e-05 -6.36145e-07
-1.22883e-05 -6.36145e-07 -0.000141093
0.00060382 2.471e-05 -1.85638e-05
2.471e-05 -0.000115445 1.43179e-08
-1.85638e-05 1.43179e-08 -0.000181171
0.00101931 2.1221e-06 1.29474e-08
2.1221e-06 -2.17504e-05 -2.10861e-08
1.29474e-08 -2.10861e-08 -0.000137724
0.00140907 3.1846e-05 -7.01875e-08
3.1846e-05 5.15703e-05 1.14473e-08
-7.01875e-08 1.14473e-08 -7.40332e-05
0.00142379 8.28302e-05 2.44576e-08
8.28302e-05 6.29689e-05 -3.94473e-08
2.44576e-08 -3.94473e-08 -7.18434e-05
0.00176948 7.77695e-05 -4.72547e-08
7.77695e-05 0.000112882 3.12977e-07
-4.72547e-08 3.12977e-07 5.58499e-06
0.00140806 0.000144251 -1.87658e-07
0.000144251 7.88797e-05 -6.09871e-08
-1.87658e-07 -6.09871e-08 -7.18777e-05
0.00171648 0.000152848 -2.42773e-07
0.000152848 0.000121003 5.93423e-08
-2.42773e-07 5.93423e-08 -9.2905e-06
0.00140851 7.25e-06 3.08243e-06
7.25e-06 5.42692e-05 4.57162e-08
3.08243e-06 4.57162e-08 -6.99555e-05
0.00176776 4.48232e-05 -2.2902e-06
4.48232e-05 0.000114087 2.13849e-07
-2.2902e-06 2.13849e-07 1.30078e-05
0.00173237 0.000122004 -1.19277e-06
0.000122004 0.000101378 -9.40561e-07
-1.19277e-06 -9.40561e-07 -1.75144e-05
0.00181036 8.20611e-05 5.41514e-08
8.20611e-05 7.19229e-05 1.24447e-07
5.41514e-08 1.24447e-07 -1.36691e-05
0.00170523 0.00018517 -1.86626e-07
0.00018517 0.000142807 -1.11487e-06
-1.86626e-07 -1.11487e-06 -8.01962e-07
0.00171539 0.00017566 -2.13429e-06
0.00017566 5.87694e-05 -1.13216e-06
-2.13429e-06 -1.13216e-06 -4.65847e-05
0.000732493 -4.72315e-06 -1.19582e-05
-4.72315e-06 -0.000187653 5.70433e-07
-1.19582e-05 5.70433e-07 -0.000305531
0.00168703 -6.08637e-05 -2.27503e-05
-6.08637e-05 0.000369866 2.68043e-06
-2.27503e-05 2.68043e-06 0.00025651
0.00173596 -3.59271e-05 -6.36946e-06
-3.59271e-05 0.000249678 3.44223e-07
-6.36946e-06 3.44223e-07 0.000128877
0.0016872 -0.00011815 -4.65156e-06
-0.00011815 0.00024291 9.44367e-07
-4.65156e-06 9.44367e-07 0.00010556
0.00071118 -6.20268e-05 -1.21807e-05
-6.20268e-05 5.95113e-05 1.18449e-05
-1.21807e-05 1.18449e-05 -2.12067e-06
0.000854754 -0.000169835 -7.3276e-06
-0.000169835 0.000104276 6.66635e-06
-7.3276e-06 6.66635e-06 -4.99324e-05
0.0011176 -0.00022808 -5.26304e-06
-0.00022808 9.28913e-05 1.82954e-06
-5.26304e-06 1.82954e-06 -0.000100724
0.00171448 -0.000177821 -8.06773e-06
-0.000177821 0.000298349 2.22456e-06
-8.06773e-06 2.22456e-06 0.00014774
0.00179674 -0.000183225 2.37573e-07
-0.000183225 0.00019779 -8.0716e-07
2.37573e-07 -8.0716e-07 6.50524e-05
0.00154567 -0.000228653 -1.69906e-06
-0.000228653 0.000133453 -4.92848e-07
-1.69906e-06 -4.92848e-07 -3.06081e-05
0.00161964 -0.000285491 -5.34964e-06
-0.000285491 0.000257349 -1.53236e-07
-5.34964e-06 -1.53236e-07 5.44318e-05
0.00174419 -0.000282904 3.05278e-06
-0.000282904 0.000212153 -2.56398e-06
3.05278e-06 -2.56398e-06 3.93708e-05
0.000727164 -0.000102755 -3.99828e-06
-0.000102755 7.56266e-05 4.08866e-06
-3.99828e-06 4.08866e-06 -4.97037e-05
0.000527309 -7.33393e-05 -1.22199e-06
-7.33393e-05 -3.09003e-05 -8.10112e-07
-1.22199e-06 -8.10112e-07 -0.000177672
0.000713274 -3.32807e-05 -9.86472e-07
-3.32807e-05 7.75128e-05 3.58092e-06
-9.86472e-07 3.58092e-06 -1.83319e-05
0.00155132 -1.50492e-05 -2.34767e-06
-1.50492e-05 0.000140706 1.01474e-07
-2.34767e-06 1.01474e-07 1.6973e-05
0.00171508 -8.32937e-05 -2.57647e-06
-8.32937e-05 0.000243173 4.33265e-07
-2.57647e-06 4.33265e-07 0.000115774
0.00168968 -5.79084e-05 9.14508e-07
-5.79084e-05 9.1939e-05 5.40285e-07
9.14508e-07 5.40285e-07 -1.3825e-05
0.00169359 -0.000143676 -1.40459e-06
-0.000143676 0.000112591 4.08414e-07
-1.40459e-06 4.08414e-07 -1.48081e-05
0.000753303 -0.000134543 4.43629e-07
-0.000134543 8.76753e-05 3.32261e-07
4.43629e-07 3.32261e-07 -5.27159e-05
0.00110835 -0.00022168 -1.33706e-06
-0.00022168 0.00018888 -1.79301e-07
-1.33706e-06 -1.79301e-07 -4.8748e-06
0.00114857 -0.000263008 1.5672e-06
-0.000263008 5.79373e-05 -5.2856e-07
1.5672e-06 -5.2856e-07 -0.000159732
0.00157934 -0.000208446 -5.5584e-07
-0.000208446 0.000118905 4.59787e-07
-5.5584e-07 4.59787e-07 -3.20127e-05
0.00181482 -0.000203903 1.49938e-06
-0.000203903 0.000152034 1.72392e-07
1.49938e-06 1.72392e-07 4.03877e-05
0.00174306 -0.000321936 -7.75089e-07
-0.000321936 0.00026732 5.27333e-07
-7.75089e-07 5.27333e-07 5.78166e-05
0.00168611 -0.000263334 1.22486e-07
-0.000263334 0.000142058 3.09641e-07
1.22486e-07 3.09641e-07 -1.07136e-05
0.00197091 -0.000309564 1.7025e-06
-0.000309564 0.000311658 -4.14227e-07
1.7025e-06 -4.14227e-07 0.000153618
0.000959447 -0.000159996 2.68001e-07
-0.000159996 0.000201167 5.95627e-07
2.68001e-07 5.95627e-07 4.38335e-05
0.00110746 -0.000195645 -3.66741e-07
-0.000195645 0.000301782 1.25178e-07
-3.66741e-07 1.25178e-07 0.000126646
0.000649751 -2.26569e-05 9.09757e-08
-2.26569e-05 3.90059e-05 1.79103e-07
9.09757e-08 1.79103e-07 -4.355e-05
0.00042008 -3.18205e-05 -2.11393e-07
-3.18205e-05 -8.00383e-05 -5.61688e-07
-2.11393e-07 -5.61688e-07 -0.000216333
0.00171299 -3.39657e-05 -1.69515e-06
-3.39657e-05 0.000100289 5.19128e-08
-1.69515e-06 5.19128e-08 -4.63146e-06
0.00184123 -9.80701e-05 -9.41834e-07
-9.80701e-05 0.000180512 1.25295e-06
-9.41834e-07 1.25295e-06 6.67515e-05
0.00163936 -6.99641e-05 8.42609e-07
-6.99641e-05 -1.50578e-06 -1.30002e-08
8.42609e-07 -1.30002e-08 -8.90368e-05
0.00175722 -0.000171134 -3.84243e-06
-0.000171134 7.70462e-05 9.03243e-07
-3.84243e-06 9.03243e-07 -1.81754e-05
0.00171695 -0.000234252 -3.59775e-06
-0.000234252 0.000124791 2.7943e-06
-3.59775e-06 2.7943e-06 -5.27952e-06
0.00194521 -0.000206441 1.617e-06
-0.000206441 0.000205293 -3.63941e-07
1.617e-06 -3.63941e-07 0.000110517
0.000905698 -0.00018679 9.89143e-07
-0.00018679 0.000142606 -2.60028e-06
9.89143e-07 -2.60028e-06 -3.05424e-05
0.00162616 -0.00027826 -4.17102e-06
-0.00027826 7.43771e-05 2.8264e-06
-4.17102e-06 2.8264e-06 -5.65461e-05
0.00112115 -0.000252331 2.75883e-06
-0.000252331 0.000151223 -4.92079e-06
2.75883e-06 -4.92079e-06 -6.87376e-05
0.00162767 -0.000341958 2.79998e-06
-0.000341958 0.000279328 4.34641e-07
2.79998e-06 4.34641e-07 3.6113e-05
0.00169777 -0.000334148 7.42719e-07
-0.000334148 0.000195291 5.2573e-06
7.42719e-07 5.2573e-06 -1.14332e-05
0.00193175 -0.000299571 3.36781e-07
-0.000299571 0.000274567 1.22019e-06
3.36781e-07 1.22019e-06 0.000122975
0.000575559 -2.3564e-05 1.15912e-06
-2.3564e-05 -5.44312e-06 -2.95981e-06
1.15912e-06 -2.95981e-06 -7.75759e-05
0.000489783 -2.80905e-05 -9.98199e-07
-2.80905e-05 -2.97225e-05 -1.49894e-06
-9.98199e-07 -1.49894e-06 -0.000157614
0.000862818 -0.00019233 -4.38973e-07
-0.00019233 0.000126944 1.15986e-06
-4.38973e-07 1.15986e-06 -4.49689e-05
0.000824279 -0.00013758 7.32021e-07
-0.00013758 0.000172486 1.52477e-06
7.32021e-07 1.52477e-06 3.47837e-06
0.00135203 -0.000236741 -2.71561e-06
-0.000236741 0.000431832 3.48378e-06
-2.71561e-06 3.48378e-06 0.00025399
0.000524998 -5.87647e-05 -7.53739e-07
-5.87647e-05 -3.94316e-05 -4.69179e-06
-7.53739e-07 -4.69179e-06 -6.46081e-05
0.00137691 0.000169412 -4.72795e-06
0.000169412 8.73122e-05 -1.37065e-06
-4.72795e-06 -1.37065e-06 -7.24361e-05
0.000529193 -4.53522e-05 -2.02409e-07
-4.53522e-05 -2.66696e-05 -3.15889e-06
-2.02409e-07 -3.15889e-06 -0.000100325
0.000741505 6.21281e-05 -1.6965e-06
6.21281e-05 9.19504e-05 -4.26844e-06
-1.6965e-06 -4.26844e-06 -2.59023e-05
0.000743635 3.35314e-05 1.63939e-06
3.35314e-05 0.000117069 -1.70344e-06
1.63939e-06 -1.70344e-06 -1.82915e-05
0.00127296 0.000210199 -6.57126e-06
0.000210199 0.000105385 -2.31844e-06
-6.57126e-06 -2.31844e-06 -7.11183e-05
0.00162251 0.000255788 -1.49804e-07
0.000255788 0.000163474 5.33932e-07
-1.49804e-07 5.33932e-07 -1.49469e-05
0.000961805 0.000190378 -1.82036e-06
0.000190378 0.000182239 -3.53611e-06
-1.82036e-06 -3.53611e-06 -1.11392e-05
0.000742892 0.000216762 -1.91987e-06
0.000216762 -9.38023e-05 -2.50229e-06
-1.91987e-06 -2.50229e-06 -0.000325465
0.0017653 0.00028405 -2.8133e-06
0.00028405 0.000378049 -1.50977e-06
-2.8133e-06 -1.50977e-06 0.000182403
0.00142182 0.000267101 -5.55103e-06
0.000267101 0.00016458 1.17696e-06
-5.55103e-06 1.17696e-06 -3.73225e-05
0.000561546 -5.1669e-05 4.51451e-08
-5.1669e-05 -2.93044e-05 1.0863e-09
4.51451e-08 1.0863e-09 -5.02753e-05
0.000636161 -2.64276e-05 -6.3602e-07
-2.64276e-05 2.27321e-05 3.09083e-07
-6.3602e-07 3.09083e-07 -3.63689e-05
0.000928802 0.000144237 7.85437e-08
0.000144237 0.00019514 8.08057e-07
7.85437e-08 8.08057e-07 3.40175e-05
0.000712123 6.91659e-06 -4.8986e-07
6.91659e-06 0.000104563 3.81023e-07
-4.8986e-07 3.81023e-07 -1.1793e-05
0.00066481 9.97358e-05 7.02347e-07
9.97358e-05 6.76446e-05 -5.67212e-07
7.02347e-07 -5.67212e-07 -9.27969e-05
0.00166968 0.000225016 5.84496e-08
0.000225016 0.000146835 -6.98252e-07
5.84496e-08 -6.98252e-07 -1.45082e-05
0.00151754 0.000271914 5.8021e-07
0.000271914 0.000163266 2.85902e-07
5.8021e-07 2.85902e-07 -2.744e-05
0.00169812 0.000290937 1.6885e-06
0.000290937 0.000162286 2.42203e-07
1.6885e-06 2.42203e-07 -1.08493e-05
0.001199 0.000238226 8.31508e-07
0.000238226 0.000292774 1.60422e-06
8.31508e-07 1.60422e-06 6.03273e-05
0.00176223 0.000321972 4.00326e-07
0.000321972 0.000305053 1.22355e-07
4.00326e-07 1.22355e-07 0.000101224
0.00118415 0.000260778 -1.90145e-06
0.000260778 8.97767e-05 1.1536e-07
-1.90145e-06 1.1536e-07 -0.000137727
0.000683856 -1.3035e-05 2.22692e-06
-1.3035e-05 4.04863e-05 2.36504e-06
2.22692e-06 2.36504e-06 -1.14497e-05
0.00079056 3.9674e-05 5.53785e-07
3.9674e-05 0.000138603 2.43959e-06
5.53785e-07 2.43959e-06 4.12527e-05
0.00100039 0.000204099 -2.06719e-06
0.000204099 0.000226902 -2.2449e-07
-2.06719e-06 -2.2449e-07 3.94804e-05
0.00109716 6.33243e-05 6.86678e-08
6.33243e-05 0.00033202 9.21272e-07
6.86678e-08 9.21272e-07 0.000188399
0.00123734 0.000122427 -4.8798e-06
0.000122427 0.00036443 -5.46365e-06
-4.8798e-06 -5.46365e-06 0.000206354
0.00172612 0.000237159 -2.8068e-06
0.000237159 0.000142451 -2.59174e-06
-2.8068e-06 -2.59174e-06 -3.57661e-06
0.00172107 0.000328841 1.71788e-06
0.000328841 0.000224973 4.162e-07
1.71788e-06 4.162e-07 2.96987e-05
0.00152036 0.000310939 3.71749e-06
0.000310939 2.95163e-05 -8.67745e-07
3.71749e-06 -8.67745e-07 -0.000141131
0.000942727 0.000230545 -3.06625e-07
0.000230545 0.000115335 2.63328e-06
-3.06625e-07 2.63328e-06 -0.000127751
0.00147198 0.000316666 5.85909e-06
0.000316666 0.000164863 -3.7361e-07
5.85909e-06 -3.7361e-07 -5.80859e-05
0.000646563 -1.47783e-05 -1.79678e-07
-1.47783e-05 1.55928e-05 1.19507e-08
-1.79678e-07 1.19507e-08 -3.33089e-05
0.000562618 1.68237e-05 1.49592e-06
1.68237e-05 -1.70516e-05 1.44511e-06
1.49592e-06 1.44511e-06 -9.25528e-05
0.000573216 4.19527e-06 -5.93206e-07
4.19527e-06 -6.05812e-06 -8.42113e-08
-5.93206e-07 -8.42113e-08 -8.18823e-05
0.000925313 7.88173e-05 5.05708e-07
7.88173e-05 0.000213468 -3.3377e-07
5.05708e-07 -3.3377e-07 0.000118976
0.000697373 6.03052e-05 1.82239e-06
6.03052e-05 7.193e-05 1.23583e-06
1.82239e-06 1.23583e-06 -6.43651e-06
0.000644542 1.97741e-05 1.82148e-06
1.97741e-05 1.79374e-05 2.20384e-06
1.82148e-06 2.20384e-06 -2.95941e-05
0.000642408 -1.43783e-05 -6.44881e-07
-1.43783e-05 1.44799e-05 1.90306e-08
-6.44881e-07 1.90306e-08 -3.30682e-05
0.00125304 -3.98371e-05 7.736e-07
-3.98371e-05 0.000360952 2.47757e-06
7.736e-07 2.47757e-06 0.000350348
0.000641605 -2.68747e-05 -9.62982e-07
-2.68747e-05 1.31231e-05 -2.21678e-06
-9.62982e-07 -2.21678e-06 -3.49859e-05
0.0012941 -4.84852e-05 -5.1766e-06
-4.84852e-05 0.000389267 -1.36436e-06
-5.1766e-06 -1.36436e-06 0.000377281
0.000873036 -3.889e-05 2.26511e-05
-3.889e-05 0.000149315 7.37448e-06
2.26511e-05 7.37448e-06 0.000154913
0.00130838 -5.65261e-05 -9.51863e-06
-5.65261e-05 0.000404046 -3.77112e-06
-9.51863e-06 -3.77112e-06 0.000389838
0.00156706 -6.36438e-05 2.05594e-05
-6.36438e-05 0.000568691 1.92976e-06
2.05594e-05 1.92976e-06 0.000574642
0.00228344 -9.02455e-05 -2.86448e-05
-9.02455e-05 0.000999974 -3.53285e-06
-2.86448e-05 -3.53285e-06 0.00100658
0.000499335 5.7852e-05 -1.20973e-06
5.7852e-05 -5.3151e-05 -4.98897e-06
-1.20973e-06 -4.98897e-06 -8.12914e-05
0.000529312 2.91798e-05 2.33637e-07
2.91798e-05 -3.42945e-05 2.54521e-07
2.33637e-07 2.54521e-07 -6.58768e-05
0.00267641 0.00011035 3.65474e-05
0.00011035 0.0012401 -3.36337e-06
3.65474e-05 -3.36337e-06 0.00124054
0.0030657 0.000110244 -6.18387e-06
0.000110244 0.0014726 -3.48282e-07
-6.18387e-06 -3.48282e-07 0.00147286
0.000621299 1.25601e-05 -4.07427e-06
1.25601e-05 2.03183e-05 7.36815e-06
-4.07427e-06 7.36815e-06 -1.7812e-05
0.00350022 0.000106596 -0.000101888
0.000106596 0.0017291 4.88724e-06
-0.000101888 4.88724e-06 0.00172966
0.00140265 0.000144139 -4.3939e-06
0.000144139 7.70761e-05 -8.24337e-07
-4.3939e-06 -8.24337e-07 -7.39299e-05
0.00141339 8.3253e-05 -3.24262e-06
8.3253e-05 5.79922e-05 -2.59183e-07
-3.24262e-06 -2.59183e-07 -7.71729e-05
0.00171057 0.000151819 4.98511e-09
0.000151819 0.000121742 1.09437e-06
4.98511e-09 1.09437e-06 -8.65739e-06
0.00181131 7.81774e-05 1.06944e-06
7.81774e-05 0.000133258 8.42719e-07
1.06944e-06 8.42719e-07 2.82276e-05
0.00139365 3.49129e-05 -2.82495e-06
3.49129e-05 4.25547e-05 4.1882e-08
-2.82495e-06 4.1882e-08 -8.32437e-05
0.00102216 6.71975e-06 -1.20096e-05
6.71975e-06 -2.02808e-05 8.50118e-08
-1.20096e-05 8.50118e-08 -0.000136225
0.00140186 1.06106e-05 7.888e-08
1.06106e-05 5.05588e-05 7.84975e-08
7.888e-08 7.84975e-08 -7.37794e-05
0.00176113 3.49341e-05 -1.29616e-06
3.49341e-05 0.000111226 4.88304e-08
-1.29616e-06 4.88304e-08 1.04685e-05
0.00174479 0.000120805 -1.73347e-07
0.000120805 0.000109438 4.78794e-08
-1.73347e-07 4.78794e-08 -9.30013e-06
0.00179366 8.08786e-05 1.79149e-06
8.08786e-05 6.19826e-05 8.7899e-07
1.79149e-06 8.7899e-07 -1.88845e-05
0.00168902 0.000185877 -2.78294e-07
0.000185877 0.000130296 -6.91453e-08
-2.78294e-07 -6.91453e-08 -1.38897e-05
0.00174547 0.00017345 -4.10974e-07
0.00017345 7.31692e-05 1.02698e-06
-4.10974e-07 1.02698e-06 -2.9358e-05
0.00172835 1.38181e-06 -1.44227e-06
1.38181e-06 0.000102439 2.42722e-07
-1.44227e-06 2.42722e-07 1.61672e-06
0.00173617 4.09036e-05 7.31718e-07
4.09036e-05 4.12839e-05 4.56238e-07
7.31718e-07 4.56238e-07 -3.69726e-05
0.00187592 0.000133729 -2.72383e-06
0.000133729 0.000120959 -8.56088e-07
-2.72383e-06 -8.56088e-07 3.33061e-05
0.00186489 8.84627e-05 3.25579e-06
8.84627e-05 8.62993e-05 3.21887e-07
3.25579e-06 3.21887e-07 2.46003e-05
0.00168955 0.000188581 -1.27583e-06
0.000188581 8.04981e-05 -2.62558e-06
-1.27583e-06 -2.62558e-06 -4.01893e-05
0.00184101 0.000183862 2.6736e-06
0.000183862 8.9704e-05 4.38388e-07
2.6736e-06 4.38388e-07 4.73548e-06
0.00142522 -1.32665e-05 -4.95669e-06
-1.32665e-05 6.56122e-05 1.07056e-07
-4.95669e-06 1.07056e-07 -5.90053e-05
0.0017263 -8.74948e-05 -6.57417e-06
-8.74948e-05 0.000249392 7.2522e-07
-6.57417e-06 7.2522e-07 0.000121547
0.00171038 -5.57145e-05 2.15239e-06
-5.57145e-05 0.000103286 -9.05177e-07
2.15239e-06 -9.05177e-07 1.80457e-06
0.00170282 -0.000141212 -1.57001e-07
-0.000141212 0.000116236 -1.70343e-07
-1.57001e-07 -1.70343e-07 -1.17793e-05
0.000883297 -0.000158354 -4.97836e-06
-0.000158354 0.000164698 6.12424e-06
-4.97836e-06 6.12424e-06 2.06656e-05
0.00114198 -0.000224901 -4.54697e-06
-0.000224901 0.000202642 3.95501e-06
-4.54697e-06 3.95501e-06 9.13239e-06
0.000934955 -0.000240014 -2.59365e-06
-0.000240014 -6.0353e-05 5.5918e-07
-2.59365e-06 5.5918e-07 -0.000274287
0.00160028 -0.000208696 -1.37384e-06
-0.000208696 0.000132474 1.547e-07
-1.37384e-06 1.547e-07 -2.08868e-05
0.00185511 -0.000204627 3.68716e-06
-0.000204627 0.00017824 -1.8344e-06
3.68716e-06 -1.8344e-06 7.07816e-05
0.00171756 -0.000263822 2.38533e-06
-0.000263822 0.000160618 -1.31549e-06
2.38533e-06 -1.31549e-06 8.19442e-06
0.0016585 -0.00032319 -2.72331e-07
-0.00032319 0.000215175 -1.68514e-06
-2.72331e-07 -1.68514e-06 2.88662e-06
0.00200058 -0.000308418 4.84962e-06
-0.000308418 0.000330547 -6.33094e-06
4.84962e-06 -6.33094e-06 0.000175368
0.000917019 -0.000160283 -5.55286e-07
-0.000160283 0.000178221 1.02403e-06
-5.55286e-07 1.02403e-06 2.0724e-05
0.000689966 -0.000142352 -2.47443e-07
-0.000142352 5.00157e-05 -9.51373e-07
-2.47443e-07 -9.51373e-07 -0.000113178
0.000712229 -2.77966e-05 -1.39547e-06
-2.77966e-05 7.37425e-05 3.34148e-06
-1.39547e-06 3.34148e-06 -9.12357e-06
0.000389022 -5.77908e-06 6.07679e-07
-5.77908e-06 -0.00010178 -1.02916e-06
6.07679e-07 -1.02916e-06 -0.000232298
0.001714 -3.38465e-05 -2.54187e-08
-3.38465e-05 0.000101007 6.95052e-08
-2.54187e-08 6.95052e-08 -4.07222e-06
0.00176591 -9.7218e-05 1.32241e-07
-9.7218e-05 0.00013787 -2.54065e-07
1.32241e-07 -2.54065e-07 2.20969e-05
0.00170534 -6.98169e-05 1.85339e-06
-6.98169e-05 3.70892e-05 -4.09909e-07
1.85339e-06 -4.09909e-07 -4.69438e-05
0.0017211 -0.000167839 -1.55374e-06
-0.000167839 6.35707e-05 6.8137e-07
-1.55374e-06 6.8137e-07 -3.36888e-05
0.000978189 -0.000184959 -6.12524e-07
-0.000184959 0.000185375 9.5326e-07
-6.12524e-07 9.5326e-07 1.26605e-05
0.0009754 -0.000236565 1.37113e-06
-0.000236565 6.75e-05 -2.09103e-06
1.37113e-06 -2.09103e-06 -0.000147259
0.00161336 -0.000342081 8.59228e-08
-0.000342081 0.000270354 6.97394e-07
8.59228e-08 6.97394e-07 2.44399e-05
0.00166346 -0.000231018 -1.51439e-06
-0.000231018 9.85385e-05 7.30945e-07
-1.51439e-06 7.30945e-07 -3.49287e-05
0.00180505 -0.000203578 2.12809e-06
-0.000203578 0.000119657 -1.12974e-06
2.12809e-06 -1.12974e-06 2.87678e-05
0.00170731 -0.000336103 -8.72123e-07
-0.000336103 0.000203525 8.02739e-07
-8.72123e-07 8.02739e-07 -4.33146e-06
0.00168016 -0.00028091 -4.54284e-07
-0.00028091 0.000105074 1.05951e-06
-4.54284e-07 1.05951e-06 -2.61647e-05
0.00182058 -0.000293539 3.19749e-06
-0.000293539 0.00019924 -4.94716e-06
3.19749e-06 -4.94716e-06 5.17651e-05
0.00101172 -0.000206145 4.96044e-07
-0.000206145 0.000211454 1.29137e-06
4.96044e-07 1.29137e-06 3.70925e-05
0.00120176 -0.000216564 2.63478e-06
-0.000216564 0.000336795 1.02178e-06
2.63478e-06 1.02178e-06 0.000166644
0.000797124 -0.000105467 -1.90198e-07
-0.000105467 0.000152087 -1.21093e-07
-1.90198e-07 -1.21093e-07 -1.58902e-05
0.000490139 -1.85118e-06 -1.1274e-06
-1.85118e-06 -5.5505e-05 3.16457e-07
-1.1274e-06 3.16457e-07 -0.000129085
0.00043841 2.40599e-06 -3.73391e-07
2.40599e-06 -6.23985e-05 -6.58785e-07
-3.73391e-07 -6.58785e-07 -0.000185041
0.00173222 -4.60447e-05 5.49156e-07
-4.60447e-05 4.41186e-05 -7.83812e-07
5.49156e-07 -7.83812e-07 -3.38907e-05
0.00182816 -9.87766e-05 1.3954e-06
-9.87766e-05 9.46667e-05 3.97054e-07
1.3954e-06 3.97054e-07 1.39653e-05
0.0018067 -0.000197828 -1.93705e-07
-0.000197828 8.279e-05 -1.13576e-06
-1.93705e-07 -1.13576e-06 5.15579e-06
0.00159708 -0.000230717 -7.10662e-07
-0.000230717 2.01858e-05 4.3751e-07
-7.10662e-07 4.3751e-07 -8.29424e-05
0.00106245 -0.000222139 -1.60856e-06
-0.000222139 0.000215138 -3.13063e-06
-1.60856e-06 -3.13063e-06 1.99403e-05
0.00219428 -0.000332638 -2.32242e-06
-0.000332638 0.000345362 1.1543e-06
-2.32242e-06 1.1543e-06 0.000217656
0.000786402 -0.000250287 1.29332e-06
-0.000250287 -7.77706e-05 -5.05015e-06
1.29332e-06 -5.05015e-06 -0.000315072
0.00173627 -0.000384851 1.97585e-06
-0.000384851 0.00029307 2.06848e-06
1.97585e-06 2.06848e-06 3.28296e-05
0.00160282 -0.000327449 2.12588e-06
-0.000327449 0.000109858 3.93644e-06
2.12588e-06 3.93644e-06 -8.97663e-05
0.000296134 1.36549e-05 4.76672e-07
1.36549e-05 -0.000168983 -3.3947e-06
4.76672e-07 -3.3947e-06 -0.000233514
0.000757447 -3.15663e-05 5.3135e-07
-3.15663e-05 0.000133089 -9.82072e-07
5.3135e-07 -9.82072e-07 1.82666e-05
0.000964409 -6.36818e-05 -1.16506e-06
-6.36818e-05 0.000242662 2.95588e-07
-1.16506e-06 2.95588e-07 9.81564e-05
0.00111932 -0.000223097 -4.64992e-06
-0.000223097 0.00026007 9.16326e-07
-4.64992e-06 9.16326e-07 8.27352e-05
0.000552782 -0.000120077 2.70322e-06
-0.000120077 1.01361e-06 3.06665e-06
2.70322e-06 3.06665e-06 -0.000181278
0.000584994 -0.000181174 -3.99519e-07
-0.000181174 -5.40918e-05 3.79063e-07
-3.99519e-07 3.79063e-07 -0.000218961
0.000564181 -5.00677e-05 -1.05879e-06
-5.00677e-05 -2.8586e-05 -4.44194e-06
-1.05879e-06 -4.44194e-06 -4.91895e-05
0.00058518 -2.95457e-05 -1.85729e-06
-2.95457e-05 -5.88665e-06 -2.3512e-06
-1.85729e-06 -2.3512e-06 -6.48686e-05
0.0016606 0.000226024 -9.66251e-07
0.000226024 0.000138625 -8.25511e-08
-9.66251e-07 -8.25511e-08 -2.32636e-05
0.000619138 -6.41504e-05 1.49768e-06
-6.41504e-05 4.87493e-05 -2.42053e-06
1.49768e-06 -2.42053e-06 -6.27796e-05
0.000775258 0.00012969 -1.053e-06
0.00012969 0.000106774 -1.3684e-08
-1.053e-06 -1.3684e-08 -5.07599e-05
0.000267882 5.88328e-05 1.58593e-06
5.88328e-05 -0.000170204 9.78849e-07
1.58593e-06 9.78849e-07 -0.00032359
0.0015095 0.000270599 -6.20262e-07
0.000270599 0.000160432 -1.13629e-07
-6.20262e-07 -1.13629e-07 -3.01883e-05
0.00161805 0.000287532 3.4366e-07
0.000287532 0.000117232 3.11844e-07
3.4366e-07 3.11844e-07 -5.62436e-05
0.000851854 0.000206877 8.29234e-07
0.000206877 0.000100546 -1.76653e-06
8.29234e-07 -1.76653e-06 -0.000130919
0.00155916 0.000290876 -1.31633e-06
0.000290876 0.000302049 -5.0584e-07
-1.31633e-06 -5.0584e-07 7.31419e-05
0.0017484 0.000321248 -3.23864e-06
0.000321248 0.000287862 -9.05646e-07
-3.23864e-06 -9.05646e-07 8.33542e-05
0.000644398 -1.38573e-05 -2.81648e-07
-1.38573e-05 1.82214e-05 1.17088e-07
-2.81648e-07 1.17088e-07 -3.37075e-05
0.000701524 -1.17913e-05 -9.73665e-07
-1.17913e-05 8.5067e-05 3.90458e-07
-9.73665e-07 3.90458e-07 -8.69001e-06
0.00103195 0.000207129 -6.43425e-07
0.000207129 0.000247063 1.28989e-07
-6.43425e-07 1.28989e-07 5.87232e-05
0.000799787 2.12989e-05 2.0002e-07
2.12989e-05 0.000154932 -1.45952e-07
2.0002e-07 -1.45952e-07 1.77007e-05
0.000891932 0.0001338 7.58191e-07
0.0001338 0.000179692 7.51494e-07
7.58191e-07 7.51494e-07 1.44513e-05
0.00170659 0.000238998 -1.8172e-06
0.000238998 0.000131093 -1.34053e-06
-1.8172e-06 -1.34053e-06 -1.61244e-05
0.00168426 0.000325686 1.4081e-06
0.000325686 0.0002006 3.86233e-07
1.4081e-06 3.86233e-07 5.46262e-06
0.0016592 0.000315794 4.91298e-07
0.000315794 0.000110307 2.28378e-07
4.91298e-07 2.28378e-07 -5.9397e-05
0.000827016 0.000225511 5.51221e-08
0.000225511 4.00976e-05 2.90703e-06
5.51221e-08 2.90703e-06 -0.000201498
0.00159095 0.000326874 -1.58146e-06
0.000326874 0.000241511 -7.60783e-07
-1.58146e-06 -7.60783e-07 1.52172e-05
0.000775354 2.96023e-05 8.49135e-07
2.96023e-05 0.000117442 1.79573e-06
8.49135e-07 1.79573e-06 3.42755e-05
0.000440173 -1.25244e-05 -1.44834e-06
-1.25244e-05 -6.0508e-05 2.8157e-06
-1.44834e-06 2.8157e-06 -0.000172169
0.00106826 0.000223 -3.35975e-06
0.000223 0.000227615 -1.11269e-06
-3.35975e-06 -1.11269e-06 2.93309e-05
0.000748847 9.22134e-05 -4.06456e-06
9.22134e-05 0.000145103 -3.70898e-06
-4.06456e-06 -3.70898e-06 -2.30601e-05
0.000803821 0.000193556 -1.11911e-06
0.000193556 0.000100709 -2.48749e-06
-1.11911e-06 -2.48749e-06 -7.09231e-05
0.00157898 0.000253245 3.17219e-07
0.000253245 -1.3656e-05 -2.25352e-06
3.17219e-07 -2.25352e-06 -0.000136786
0.001875 0.000366424 3.39474e-06
0.000366424 0.000287178 -1.84682e-06
3.39474e-06 -1.84682e-06 7.98025e-05
0.0015028 0.000323823 3.35735e-06
0.000323823 8.46702e-06 3.26546e-07
3.35735e-06 3.26546e-07 -0.000163416
0.00165308 0.000307409 3.40015e-06
0.000307409 0.000446462 7.36891e-06
3.40015e-06 7.36891e-06 0.000185836
0.00172519 0.000360334 -8.66582e-07
0.000360334 0.00031009 -8.24257e-07
-8.66582e-07 -8.24257e-07 7.49938e-05
0.000628929 -2.41323e-05 -1.39718e-06
-2.41323e-05 6.88003e-06 -2.30568e-06
-1.39718e-06 -2.30568e-06 -4.28885e-05
0.000634517 2.10768e-05 8.82095e-07
2.10768e-05 2.69764e-05 3.56025e-07
8.82095e-07 3.56025e-07 -4.92529e-05
0.000550716 -4.20023e-06 -2.83755e-07
-4.20023e-06 -1.68715e-05 9.10309e-07
-2.83755e-07 9.10309e-07 -0.000101964
0.000470302 -3.20996e-05 -6.98264e-07
-3.20996e-05 -6.76241e-05 -1.16458e-06
-6.98264e-07 -1.16458e-06 -0.00014237
0.0006789 2.85023e-05 -2.22853e-07
2.85023e-05 5.99208e-05 3.19654e-08
-2.22853e-07 3.19654e-08 -1.69564e-05
0.000703094 3.68761e-05 -2.23835e-07
3.68761e-05 7.36696e-05 -3.61048e-07
-2.23835e-07 -3.61048e-07 -1.27851e-05
0.000833565 6.62041e-05 -1.05933e-06
6.62041e-05 0.000158837 -1.35745e-06
-1.05933e-06 -1.35745e-06 6.22597e-05
0.000563408 -1.83788e-05 6.29964e-07
-1.83788e-05 3.9932e-06 4.13395e-07
6.29964e-07 4.13395e-07 -9.14904e-05
0.000702139 4.94115e-05 8.64157e-07
4.94115e-05 7.02281e-05 1.30211e-06
8.64157e-07 1.30211e-06 -3.56622e-06
0.000649244 2.63181e-05 1.82617e-06
2.63181e-05 2.48007e-05 2.23821e-06
1.82617e-06 2.23821e-06 -2.37258e-05
0.000643358 -4.04035e-06 -9.56251e-07
-4.04035e-06 1.75037e-05 1.46958e-08
-9.56251e-07 1.46958e-08 -3.01458e-05
0.00125788 -2.81734e-05 8.49773e-07
-2.81734e-05 0.000361336 2.41251e-06
8.49773e-07 2.41251e-06 0.000351705
0.000620075 -4.02908e-05 -3.14368e-07
-4.02908e-05 3.64473e-06 -2.18218e-06
-3.14368e-07 -2.18218e-06 -4.50844e-05
0.00129653 -3.6852e-05 -4.4488e-06
-3.6852e-05 0.000386328 -1.4275e-06
-4.4488e-06 -1.4275e-06 0.000375973
0.000877327 -3.18696e-05 1.89251e-05
-3.18696e-05 0.000146212 7.7027e-06
1.89251e-05 7.7027e-06 0.000153176
0.00132939 -4.62069e-05 -8.30616e-06
-4.62069e-05 0.000409628 -5.35084e-06
-8.30616e-06 -5.35084e-06 0.000397863
0.000818228 -3.9795e-05 7.0215e-06
-3.9795e-05 0.000116687 2.88638e-06
7.0215e-06 2.88638e-06 0.000121779
0.00221422 -8.46222e-05 -5.03047e-06
-8.46222e-05 0.000951289 -1.87187e-06
-5.03047e-06 -1.87187e-06 0.000959257
0.000531569 4.34641e-05 -2.72529e-07
4.34641e-05 -4.57973e-05 -3.94263e-06
-2.72529e-07 -3.94263e-06 -6.59914e-05
0.000531115 4.62809e-05 -3.83214e-07
4.62809e-05 -3.65168e-05 6.57658e-08
-3.83214e-07 6.57658e-08 -6.35975e-05
0.00247901 9.58103e-05 2.74044e-05
9.58103e-05 0.00111733 -3.63139e-06
2.74044e-05 -3.63139e-06 0.00112154
0.000582114 1.87323e-05 -3.30129e-06
1.87323e-05 -5.3115e-06 6.04825e-06
-3.30129e-06 6.04825e-06 -3.60354e-05
0.00278269 0.000111089 -6.99654e-06
0.000111089 0.00130215 -4.51365e-07
-6.99654e-06 -4.51365e-07 0.00130257
0.00317132 9.94432e-05 -8.45812e-05
9.94432e-05 0.00153227 4.10364e-06
-8.45812e-05 4.10364e-06 0.00153507
0.00167116 0.000186397 -1.38038e-06
0.000186397 0.000117203 7.50848e-07
-1.38038e-06 7.50848e-07 -2.75355e-05
0.00176106 0.000118719 1.22751e-06
0.000118719 0.000119764 1.10386e-06
1.22751e-06 1.10386e-06 1.30486e-06
0.00177755 0.000171372 1.87027e-06
0.000171372 8.86464e-05 2.25657e-06
1.87027e-06 2.25657e-06 -1.10573e-05
0.00180287 8.00939e-05 2.5056e-06
8.00939e-05 6.69246e-05 9.62064e-07
2.5056e-06 9.62064e-07 -8.85811e-06
0.00174994 2.746e-05 -5.63993e-07
2.746e-05 0.000105961 9.17674e-08
-5.63993e-07 9.17674e-08 5.46565e-06
0.00139991 1.33023e-05 -2.77207e-06
1.33023e-05 4.95552e-05 1.40001e-07
-2.77207e-06 1.40001e-07 -7.48157e-05
0.00172364 3.39413e-06 -1.11101e-06
3.39413e-06 9.90692e-05 -1.79772e-08
-1.11101e-06 -1.79772e-08 -3.52813e-06
0.00178556 3.79561e-05 1.47293e-06
3.79561e-05 7.24727e-05 -4.15377e-08
1.47293e-06 -4.15377e-08 -7.75143e-06
0.00184703 0.000131998 -1.44639e-06
0.000131998 0.00010556 -5.73708e-07
-1.44639e-06 -5.73708e-07 1.68094e-05
0.00183532 8.76269e-05 2.18865e-06
8.76269e-05 6.66097e-05 5.51343e-07
2.18865e-06 5.51343e-07 8.17678e-06
0.00171145 0.000187515 -7.5081e-07
0.000187515 0.000100284 -2.58027e-07
-7.5081e-07 -2.58027e-07 -2.0428e-05
0.00180931 0.000185582 3.51085e-06
0.000185582 7.00803e-05 1.40443e-06
3.51085e-06 1.40443e-06 -1.13619e-05
0.00177358 -7.37453e-06 -7.77238e-07
-7.37453e-06 8.20789e-05 -1.08121e-08
-7.77238e-07 -1.08121e-08 1.19529e-06
0.00179595 4.10491e-05 3.54032e-06
4.10491e-05 3.683e-05 -5.03837e-08
3.54032e-06 -5.03837e-08 -1.2001e-05
0.00184797 0.000135113 2.41901e-06
0.000135113 6.9378e-05 4.16733e-07
2.41901e-06 4.16733e-07 4.916e-06
0.00186764 0.000226293 6.21191e-07
0.000226293 0.000116841 -1.08813e-06
6.21191e-07 -1.08813e-06 2.38851e-05
0.00171485 -3.36974e-05 7.67501e-07
-3.36974e-05 0.000101994 1.21997e-07
7.67501e-07 1.21997e-07 -3.23565e-06
0.00168825 -9.81698e-05 1.92593e-06
-9.81698e-05 9.40717e-05 -1.18173e-06
1.92593e-06 -1.18173e-06 -2.38571e-05
0.00178962 -7.00989e-05 3.79937e-06
-7.00989e-05 8.68127e-05 -1.06168e-06
3.79937e-06 -1.06168e-06 6.22146e-06
0.00168684 -0.000164305 -8.57616e-09
-0.000164305 5.05205e-05 -2.52343e-08
-8.57616e-09 -2.52343e-08 -4.87106e-05
0.00110359 -0.000195793 -1.20017e-06
-0.000195793 0.000260089 4.06939e-06
-1.20017e-06 4.06939e-06 8.4539e-05
0.00100489 -0.000236685 -1.1279e-07
-0.000236685 8.41984e-05 1.60853e-06
-1.1279e-07 1.60853e-06 -0.000127301
0.00161948 -0.000343717 -2.76194e-06
-0.000343717 0.000274183 5.50547e-07
-2.76194e-06 5.50547e-07 2.52195e-05
0.00161012 -0.00022791 4.45551e-07
-0.00022791 7.26999e-05 -5.21488e-07
4.45551e-07 -5.21488e-07 -6.41824e-05
0.001677 -0.000201319 3.76349e-06
-0.000201319 4.11175e-05 -2.34568e-06
3.76349e-06 -2.34568e-06 -4.59997e-05
0.00173381 -0.000283637 3.19972e-06
-0.000283637 0.000134888 -6.28304e-07
3.19972e-06 -6.28304e-07 3.31433e-06
0.00171493 -0.000337499 -1.84162e-06
-0.000337499 0.000209661 -2.75059e-06
-1.84162e-06 -2.75059e-06 8.8067e-07
0.00171394 -0.000287814 1.84404e-06
-0.000287814 0.000127656 -1.08709e-05
1.84404e-06 -1.08709e-05 -1.58024e-05
0.00121183 -0.000224483 2.03841e-06
-0.000224483 0.000327155 1.4332e-06
2.03841e-06 1.4332e-06 0.000149321
0.00105376 -0.000202569 2.67779e-06
-0.000202569 0.000241455 -2.70137e-06
2.67779e-06 -2.70137e-06 7.72846e-05
0.00070872 -8.45989e-05 1.21844e-06
-8.45989e-05 9.67182e-05 -2.08154e-06
1.21844e-06 -2.08154e-06 -7.0958e-05
0.000388057 1.19561e-05 -1.25698e-06
1.19561e-05 -0.000114569 2.79068e-06
-1.25698e-06 2.79068e-06 -0.00019013
0.000422791 3.03449e-05 1.35972e-06
3.03449e-05 -7.32654e-05 2.16418e-07
1.35972e-06 2.16418e-07 -0.000192511
0.00183894 -5.08872e-05 1.70947e-07
-5.08872e-05 0.000109734 -1.00498e-07
1.70947e-07 -1.00498e-07 3.13792e-05
0.00181927 -0.000102475 1.18998e-06
-0.000102475 8.71926e-05 -7.12357e-07
1.18998e-06 -7.12357e-07 5.114e-06
0.00179889 -0.000192804 -2.07273e-06
-0.000192804 8.27202e-05 2.12943e-07
-2.07273e-06 2.12943e-07 3.50603e-06
0.00111572 -0.000225117 -7.62483e-07
-0.000225117 0.000245091 6.62244e-07
-7.62483e-07 6.62244e-07 4.93036e-05
0.00113761 -0.000275213 1.16017e-06
-0.000275213 0.000116887 -2.55193e-06
1.16017e-06 -2.55193e-06 -0.000120093
0.0016457 -0.00038266 -4.88661e-07
-0.00038266 0.000244683 6.89716e-07
-4.88661e-07 6.89716e-07 -1.89489e-05
0.00162655 -0.000231695 3.62645e-07
-0.000231695 3.26971e-05 -2.74579e-07
3.62645e-07 -2.74579e-07 -7.07768e-05
0.00166375 -0.000327189 7.50384e-07
-0.000327189 0.000147609 -2.28394e-06
7.50384e-07 -2.28394e-06 -4.58145e-05
0.00186966 -0.00031278 -3.79112e-07
-0.00031278 0.00017104 -1.14372e-06
-3.79112e-07 -1.14372e-06 4.34161e-05
0.000328668 2.98465e-05 -9.59441e-08
2.98465e-05 -0.000153809 -8.32089e-07
-9.59441e-08 -8.32089e-07 -0.000215165
0.00114349 -0.000223854 -1.45633e-07
-0.000223854 0.000265487 1.24318e-06
-1.45633e-07 1.24318e-06 8.90492e-05
0.000665467 -0.000185337 -2.4565e-07
-0.000185337 6.76497e-07 5.3744e-07
-2.4565e-07 5.3744e-07 -0.000157928
0.000933473 -0.000151174 -6.10611e-07
-0.000151174 0.00022498 2.76119e-07
-6.10611e-07 2.76119e-07 3.57672e-05
0.0010531 -6.79392e-05 7.29343e-08
-6.79392e-05 0.00029515 -4.55672e-07
7.29343e-08 -4.55672e-07 0.000150434
0.000635989 3.60465e-06 -3.98378e-07
3.60465e-06 5.5954e-05 4.45731e-07
-3.98378e-07 4.45731e-07 -5.59937e-05
0.0015604 -5.52751e-05 6.67452e-07
-5.52751e-05 -8.21836e-05 -1.10847e-07
6.67452e-07 -1.10847e-07 -0.000147191
0.00198868 -0.000143627 2.0098e-06
-0.000143627 0.00011879 -3.3061e-07
2.0098e-06 -3.3061e-07 6.47749e-05
0.00157545 -0.000221762 1.36336e-06
-0.000221762 -6.14091e-05 -8.34397e-07
1.36336e-06 -8.34397e-07 -0.000136488
0.00200483 -0.000291094 -4.42296e-07
-0.000291094 0.000167236 -1.36395e-06
-4.42296e-07 -1.36395e-06 6.89974e-05
0.00118318 -0.000248257 -3.57865e-06
-0.000248257 0.000244285 -3.64679e-06
-3.57865e-06 -3.64679e-06 3.68004e-05
0.00184869 -0.000348891 2.36279e-06
-0.000348891 0.00018031 4.40523e-06
2.36279e-06 4.40523e-06 1.87715e-05
0.00125114 -0.000333217 -1.83757e-06
-0.000333217 0.000129683 -3.85544e-07
-1.83757e-06 -3.85544e-07 -0.000151574
0.00172875 -0.000402362 -1.05397e-06
-0.000402362 0.000283562 2.98605e-06
-1.05397e-06 2.98605e-06 9.07094e-06
0.000320433 4.87165e-05 -1.5956e-06
4.87165e-05 -0.000162939 -2.32211e-06
-1.5956e-06 -2.32211e-06 -0.000215215
0.000749335 -2.6978e-06 1.18368e-07
-2.6978e-06 0.000119433 -7.67699e-07
1.18368e-07 -7.67699e-07 2.20555e-05
0.000965382 -9.49973e-05 -1.39325e-06
-9.49973e-05 0.000250458 1.49016e-06
-1.39325e-06 1.49016e-06 0.00011888
0.000900952 -2.27901e-05 -2.13721e-06
-2.27901e-05 0.000208639 1.97364e-06
-2.13721e-06 1.97364e-06 3.26791e-05
0.000684704 -0.00020201 -2.41814e-06
-0.00020201 -2.12829e-05 -2.41447e-06
-2.41814e-06 -2.41447e-06 -0.000198658
0.000960033 -0.000210562 -5.87705e-06
-0.000210562 0.000185535 1.56888e-06
-5.87705e-06 1.56888e-06 -5.27179e-06
0.000613361 -2.19718e-05 -2.12061e-06
-2.19718e-05 8.18995e-07 -2.22229e-06
-2.12061e-06 -2.22229e-06 -5.11187e-05
0.000610327 -4.87319e-05 1.95756e-07
-4.87319e-05 2.8419e-05 -1.70653e-06
1.95756e-07 -1.70653e-06 -6.07836e-05
0.00169061 0.000241263 -1.90793e-06
0.000241263 0.000120816 -3.01568e-07
-1.90793e-06 -3.01568e-07 -2.76535e-05
0.000499856 -1.74468e-05 6.90523e-07
-1.74468e-05 -2.41112e-05 -1.02575e-06
6.90523e-07 -1.02575e-06 -0.000153924
0.0010504 0.000208855 1.43133e-06
0.000208855 0.00025876 -7.78218e-07
1.43133e-06 -7.78218e-07 7.03778e-05
0.000251715 7.0234e-05 2.60735e-06
7.0234e-05 -0.000200768 1.78163e-06
2.60735e-06 1.78163e-06 -0.000351963
0.00166338 0.000323907 -5.05147e-07
0.000323907 0.000183827 1.10291e-07
-5.05147e-07 1.10291e-07 -1.1366e-05
0.00181874 0.000322112 -2.59752e-06
0.000322112 0.000200613 1.05854e-06
-2.59752e-06 1.05854e-06 3.16185e-05
0.000851374 0.000231718 -1.48252e-06
0.000231718 4.68636e-05 7.24416e-07
-1.48252e-06 7.24416e-07 -0.000194772
0.0017141 0.000336578 -2.22673e-06
0.000336578 0.000321418 1.13538e-06
-2.22673e-06 1.13538e-06 9.09238e-05
0.000699408 6.63786e-06 -8.07816e-07
6.63786e-06 7.02144e-05 1.96857e-07
-8.07816e-07 1.96857e-07 -9.78146e-06
0.000647446 1.07946e-05 5.90927e-07
1.07946e-05 5.89683e-05 1.21157e-06
5.90927e-07 1.21157e-06 -5.35723e-05
0.00127464 0.000241404 -8.55501e-07
0.000241404 0.000357857 -2.77519e-06
-8.55501e-07 -2.77519e-06 0.000153911
0.000560977 2.11921e-05 -7.25609e-07
2.11921e-05 1.18882e-05 -3.48116e-07
-7.25609e-07 -3.48116e-07 -0.000136444
0.000626624 0.000159968 -1.82065e-06
0.000159968 -1.01969e-05 -8.1222e-07
-1.82065e-06 -8.1222e-07 -0.000162447
0.00185434 0.00026432 -2.69488e-06
0.00026432 0.000144431 -1.35789e-06
-2.69488e-06 -1.35789e-06 2.33779e-05
0.00194693 0.000367437 1.64595e-06
0.000367437 0.000331553 -2.23572e-07
1.64595e-06 -2.23572e-07 0.000125916
0.00168086 0.000342474 1.73278e-06
0.000342474 0.000101068 2.10844e-06
1.73278e-06 2.10844e-06 -7.31292e-05
0.00132416 0.000282437 3.3519e-06
0.000282437 0.000268043 4.38652e-06
3.3519e-06 4.38652e-06 2.55525e-06
0.00159522 0.000355155 -3.05182e-06
0.000355155 0.000231843 4.6498e-07
-3.05182e-06 4.6498e-07 -6.42099e-06
0.00043775 -2.36986e-05 -8.59203e-07
-2.36986e-05 -7.12088e-05 2.40587e-06
-8.59203e-07 2.40587e-06 -0.000163028
0.000210728 7.32084e-05 -1.25978e-07
7.32084e-05 -0.000166889 6.98679e-07
-1.25978e-07 6.98679e-07 -0.000312022
0.00122592 0.000245587 1.80546e-06
0.000245587 0.000289315 3.47705e-06
1.80546e-06 3.47705e-06 7.00834e-05
-0.000574181 5.71684e-05 3.00456e-06
5.71684e-05 -0.000668969 -4.68744e-07
3.00456e-06 -4.68744e-07 -0.000832353
0.0018887 0.000275906 -2.6098e-06
0.000275906 1.8908e-05 -8.37923e-07
-2.6098e-06 -8.37923e-07 -5.01621e-05
0.00216818 0.000328444 6.20686e-07
0.000328444 0.00031913 -2.39822e-07
6.20686e-07 -2.39822e-07 0.000179856
0.0018036 0.000396591 -1.6133e-06
0.000396591 0.000244383 -3.46235e-06
-1.6133e-06 -3.46235e-06 2.07295e-05
0.000310011 0.000226235 -1.06583e-06
0.000226235 -0.000382487 1.96503e-06
-1.06583e-06 1.96503e-06 -0.000647148
0.000694324 4.80196e-05 -9.00856e-07
4.80196e-05 6.70191e-05 -5.82942e-07
-9.00856e-07 -5.82942e-07 -1.21549e-05
0.00062911 2.69449e-05 -3.48587e-08
2.69449e-05 3.45232e-05 4.4575e-07
-3.48587e-08 4.4575e-07 -5.43343e-05
0.000893983 1.54912e-05 -1.61697e-06
1.54912e-05 0.000188834 -1.20995e-06
-1.61697e-06 -1.20995e-06 0.000101329
0.000666274 -2.92677e-06 -1.42291e-06
-2.92677e-06 4.47484e-05 -1.1445e-06
-1.42291e-06 -1.1445e-06 -2.62587e-05
0.000483582 -1.15265e-05 -1.17699e-07
-1.15265e-05 -5.21237e-05 -7.56501e-07
-1.17699e-07 -7.56501e-07 -0.000138718
0.000684404 1.90971e-05 2.29111e-08
1.90971e-05 6.17542e-05 -1.15513e-09
2.29111e-08 -1.15513e-09 -1.30748e-05
0.000671404 6.56024e-05 -5.84226e-07
6.56024e-05 7.37124e-05 -3.61235e-07
-5.84226e-07 -3.61235e-07 -2.70034e-05
0.000636365 1.38554e-05 6.67397e-07
1.38554e-05 4.9088e-05 4.15197e-07
6.67397e-07 4.15197e-07 -4.7807e-05
0.000756947 3.6916e-05 6.20533e-07
3.6916e-05 0.000111349 -6.79777e-07
6.20533e-07 -6.79777e-07 1.88485e-05
0.000726315 -2.74758e-05 1.00042e-06
-2.74758e-05 0.000100746 -9.04427e-07
1.00042e-06 -9.04427e-07 -2.67969e-06
0.000559803 3.80987e-05 5.3541e-07
3.80987e-05 1.46292e-06 1.21909e-06
5.3541e-07 1.21909e-06 -9.63089e-05
0.000673349 6.13509e-05 1.12546e-06
6.13509e-05 5.82936e-05 1.68548e-06
1.12546e-06 1.68548e-06 -1.88394e-05
0.000605162 3.61893e-05 1.35363e-06
3.61893e-05 4.57546e-06 2.05624e-06
1.35363e-06 2.05624e-06 -4.60354e-05
0.000620626 -3.82609e-06 -8.40762e-07
-3.82609e-06 8.91306e-06 1.26806e-08
-8.40762e-07 1.26806e-08 -4.01798e-05
0.00126626 -1.7195e-05 6.71862e-07
-1.7195e-05 0.000365419 2.3489e-06
6.71862e-07 2.3489e-06 0.000356117
0.000620354 -3.69284e-05 -8.33204e-08
-3.69284e-05 5.53852e-06 -2.2077e-06
-8.33204e-08 -2.2077e-06 -4.30279e-05
0.00130333 -2.5439e-05 -3.71813e-06
-2.5439e-05 0.000388221 -1.49689e-06
-3.71813e-06 -1.49689e-06 0.000378638
0.000879662 -2.42396e-05 1.58391e-05
-2.42396e-05 0.000143537 8.00816e-06
1.58391e-05 8.00816e-06 0.000151418
0.00133696 -3.47045e-05 -6.9051e-06
-3.47045e-05 0.00041011 -5.36575e-06
-6.9051e-06 -5.36575e-06 0.000399776
0.000823101 -3.22462e-05 5.67272e-06
-3.22462e-05 0.000113599 2.99394e-06
5.67272e-06 2.99394e-06 0.000120359
0.000758532 -3.87536e-05 -1.43545e-06
-3.87536e-05 8.11713e-05 -2.07439e-06
-1.43545e-06 -2.07439e-06 8.63093e-05
0.000553836 3.59356e-05 3.35308e-07
3.59356e-05 -4.33831e-05 -3.42627e-06
3.35308e-07 -3.42627e-06 -5.79869e-05
0.000548927 4.85338e-05 -3.33313e-08
4.85338e-05 -3.43003e-05 1.20199e-07
-3.33313e-08 1.20199e-07 -5.55833e-05
0.00227531 7.97295e-05 2.18592e-05
7.97295e-05 0.000989586 -3.78241e-06
2.18592e-05 -3.78241e-06 0.000998049
0.000558828 3.78148e-05 -2.07872e-06
3.78148e-05 -2.13696e-05 5.232e-06
-2.07872e-06 5.232e-06 -4.77753e-05
0.00254112 9.71069e-05 -5.6379e-06
9.71069e-05 0.001154 -3.90608e-07
-5.6379e-06 -3.90608e-07 0.00115794
0.00286186 9.49475e-05 -6.39397e-05
9.49475e-05 0.00134636 3.48014e-06
-6.39397e-05 3.48014e-06 0.00135061
0.00172808 0.000186328 4.85221e-07
0.000186328 0.000117165 2.16636e-06
4.85221e-07 2.16636e-06 -3.57553e-06
0.00181565 0.000130062 -4.52171e-07
0.000130062 8.89511e-05 5.02608e-07
-4.52171e-07 5.02608e-07 -8.77833e-07
0.00177837 0.000187167 3.26278e-06
0.000187167 5.08586e-05 1.67742e-06
3.26278e-06 1.67742e-06 -2.70412e-05
0.00176871 8.64203e-05 6.76232e-07
8.64203e-05 2.55329e-05 4.11183e-07
6.76232e-07 4.11183e-07 -3.00492e-05
0.00181614 3.54639e-05 2.53135e-06
3.54639e-05 9.28471e-05 -4.00606e-07
2.53135e-06 -4.00606e-07 1.03153e-05
0.00172428 1.97882e-06 -6.74763e-07
1.97882e-06 9.84254e-05 -2.59274e-08
-6.74763e-07 -2.59274e-08 -5.87261e-06
0.00181351 -3.87123e-06 -1.20265e-07
-3.87123e-06 0.000105801 -6.93882e-08
-1.20265e-07 -6.93882e-08 2.56176e-05
0.00178808 4.08822e-05 1.53129e-06
4.08822e-05 4.38395e-05 7.90712e-08
1.53129e-06 7.90712e-08 -7.73636e-06
0.00183958 0.000139591 5.68505e-07
0.000139591 6.13754e-05 -4.79218e-07
5.68505e-07 -4.79218e-07 -3.19647e-06
0.00190754 0.000223349 1.48076e-07
0.000223349 0.000127402 1.64495e-07
1.48076e-07 1.64495e-07 3.6757e-05
0.00174728 -1.04586e-05 -2.92502e-07
-1.04586e-05 3.10063e-05 -6.19526e-07
-2.92502e-07 -6.19526e-07 -2.48316e-05
0.001904 8.78013e-05 3.07859e-06
8.78013e-05 4.29046e-05 1.50973e-07
3.07859e-06 1.50973e-07 1.17234e-05
0.0019059 0.00020272 2.29232e-06
0.00020272 4.98513e-05 -4.33074e-08
2.29232e-06 -4.33074e-08 -1.57362e-05
0.00194488 -5.56087e-05 1.5353e-06
-5.56087e-05 0.00017479 5.7685e-07
1.5353e-06 5.7685e-07 9.61016e-05
0.0018055 -0.000105963 4.35258e-07
-0.000105963 7.71587e-05 -6.56508e-07
4.35258e-07 -6.56508e-07 -6.28997e-06
0.0017889 -0.000187371 -1.57887e-06
-0.000187371 8.23066e-05 4.8526e-07
-1.57887e-06 4.8526e-07 1.48007e-06
0.00122833 -0.000233333 -4.98542e-07
-0.000233333 0.000309015 4.64284e-06
-4.98542e-07 4.64284e-06 0.000111838
0.00135463 -0.00028814 -6.78545e-07
-0.00028814 0.00023348 1.26831e-06
-6.78545e-07 1.26831e-06 -7.92975e-07
0.00156653 -0.000382097 -2.1627e-06
-0.000382097 0.000203526 -6.91705e-07
-2.1627e-06 -6.91705e-07 -6.27908e-05
0.00165176 -0.000232521 4.30564e-07
-0.000232521 4.27229e-05 -4.03658e-07
4.30564e-07 -4.03658e-07 -6.10284e-05
0.00154939 -0.000295311 -3.53563e-07
-0.000295311 -3.83767e-06 -3.05601e-06
-3.53563e-07 -3.05601e-06 -0.000131824
0.00172589 -0.000328131 -2.34827e-06
-0.000328131 0.000183771 -7.83306e-06
-2.34827e-06 -7.83306e-06 -3.8089e-06
0.00119456 -0.00022721 2.89085e-06
-0.00022721 0.000287587 2.7485e-06
2.89085e-06 2.7485e-06 0.000111385
0.000696748 -0.000184543 -6.9379e-06
-0.000184543 2.82973e-05 6.35468e-07
-6.9379e-06 6.35468e-07 -0.00012348
0.00145704 -0.000188858 6.54786e-07
-0.000188858 0.000539603 2.1447e-07
6.54786e-07 2.1447e-07 0.000337494
0.000380923 1.96318e-05 2.76089e-07
1.96318e-05 -0.000123594 8.9794e-07
2.76089e-07 8.9794e-07 -0.000184044
0.000924842 -6.93535e-05 1.58773e-06
-6.93535e-05 0.000216328 -1.74699e-07
1.58773e-06 -1.74699e-07 7.72233e-05
0.000509946 3.47821e-05 2.09108e-06
3.47821e-05 -2.43073e-05 1.59195e-06
2.09108e-06 1.59195e-06 -0.00013314
0.00174225 -5.63339e-05 -7.07364e-07
-5.63339e-05 2.35998e-05 7.45589e-08
-7.07364e-07 7.45589e-08 -4.13777e-05
0.00195255 -0.000148118 1.63453e-07
-0.000148118 9.99679e-05 -1.0725e-07
1.63453e-07 -1.0725e-07 4.18257e-05
0.00170911 -0.000224692 -1.30159e-07
-0.000224692 1.80464e-05 4.57108e-07
-1.30159e-07 4.57108e-07 -5.79652e-05
0.00117403 -0.000244728 -8.5806e-07
-0.000244728 0.000237211 1.33351e-06
-8.5806e-07 1.33351e-06 3.03503e-05
0.00109516 -0.000314861 -8.91976e-07
-0.000314861 4.26223e-05 -3.97457e-07
-8.91976e-07 -3.97457e-07 -0.000229413
0.00169585 -0.000395683 -3.16817e-06
-0.000395683 0.000267385 8.46032e-09
-3.16817e-06 8.46032e-09 8.0606e-07
0.00195994 -0.000295093 1.04372e-06
-0.000295093 0.000144429 -4.85732e-07
1.04372e-06 -4.85732e-07 4.4163e-05
0.00169615 -0.000342475 1.05564e-06
-0.000342475 8.52374e-05 -2.47956e-06
1.05564e-06 -2.47956e-06 -7.61094e-05
0.000478426 3.92971e-05 -1.42214e-07
3.92971e-05 -7.29829e-05 -8.98258e-07
-1.42214e-07 -8.98258e-07 -0.000121637
0.000758816 -9.24388e-06 -5.4622e-07
-9.24388e-06 0.000124167 3.15684e-07
-5.4622e-07 3.15684e-07 2.7263e-05
0.000332801 -0.00016947 -2.88382e-06
-0.00016947 -0.000222429 3.40119e-06
-2.88382e-06 3.40119e-06 -0.00039091
0.0013918 -0.000233041 3.16448e-07
-0.000233041 0.000448665 -2.69649e-07
3.16448e-07 -2.69649e-07 0.000258465
0.000949645 -5.9531e-05 -1.62469e-07
-5.9531e-05 0.000244467 -5.6163e-07
-1.62469e-07 -5.6163e-07 6.86271e-05
0.000852068 -6.94277e-05 -4.42377e-07
-6.94277e-05 0.000184376 1.33598e-06
-4.42377e-07 1.33598e-06 5.24554e-05
0.0018821 -7.75426e-05 2.93897e-06
-7.75426e-05 4.11871e-05 6.51403e-08
2.93897e-06 6.51403e-08 2.33614e-06
0.00193458 -0.000209783 8.42717e-07
-0.000209783 4.38792e-05 -1.25683e-06
8.42717e-07 -1.25683e-06 1.41128e-05
0.00187224 -0.000247072 9.74056e-07
-0.000247072 6.93219e-05 -1.29872e-06
9.74056e-07 -1.29872e-06 2.25649e-06
0.00191349 -0.000387581 6.09286e-06
-0.000387581 8.73194e-05 -1.59133e-06
6.09286e-06 -1.59133e-06 -3.83517e-05
0.000361443 -0.000204636 -4.7027e-06
-0.000204636 -0.000266673 -4.73692e-06
-4.7027e-06 -4.73692e-06 -0.00048935
0.00166003 -0.000398046 -2.7857e-07
-0.000398046 0.00021248 1.11081e-05
-2.7857e-07 1.11081e-05 -3.89336e-05
0.00193933 -0.000425718 -6.17013e-07
-0.000425718 0.000490946 -2.34255e-06
-6.17013e-07 -2.34255e-06 0.000176819
0.000641385 3.98437e-05 2.77947e-07
3.98437e-05 1.47223e-05 -1.44282e-06
2.77947e-07 -1.44282e-06 -2.65467e-05
0.000698972 -9.83863e-05 2.49682e-06
-9.83863e-05 8.48478e-05 -1.8503e-06
2.49682e-06 -1.8503e-06 6.46857e-06
0.000472083 3.85338e-05 -1.57494e-06
3.85338e-05 -4.83362e-05 -1.17738e-06
-1.57494e-06 -1.17738e-06 -0.000133235
0.000713376 -4.21032e-05 -4.88828e-07
-4.21032e-05 0.000114797 1.97071e-06
-4.88828e-07 1.97071e-06 -7.93125e-06
0.000629263 -1.88574e-05 1.07868e-06
-1.88574e-05 4.58296e-05 -9.47497e-07
1.07868e-06 -9.47497e-07 -9.15505e-05
0.00014909 -9.93374e-05 2.24437e-07
-9.93374e-05 -0.000210203 1.01988e-06
2.24437e-07 1.01988e-06 -0.000382579
9.95121e-05 -0.000165166 -2.13117e-06
-0.000165166 -0.00039006 -3.5432e-06
-2.13117e-06 -3.5432e-06 -0.000550093
0.00249228 -0.000330972 -9.79672e-06
-0.000330972 0.00114466 2.40895e-06
-9.79672e-06 2.40895e-06 0.000878252
0.000648692 -1.28569e-05 -1.12097e-06
-1.28569e-05 3.53079e-05 -9.19442e-07
-1.12097e-06 -9.19442e-07 -3.98052e-05
0.000848787 1.59846e-05 5.20175e-07
1.59846e-05 0.000179178 -1.24003e-06
5.20175e-07 -1.24003e-06 6.2893e-05
0.0021264 0.000274459 -1.40978e-06
0.000274459 0.000302142 -1.10358e-07
-1.40978e-06 -1.10358e-07 0.00018334
0.00078955 5.76163e-05 -9.10763e-07
5.76163e-05 0.000154204 2.37919e-06
-9.10763e-07 2.37919e-06 -4.54442e-06
0.00148685 0.00026133 1.2673e-06
0.00026133 0.000492973 -2.38256e-06
1.2673e-06 -2.38256e-06 0.00028123
0.000434314 0.000125107 -9.01764e-09
0.000125107 -0.000126722 1.4024e-06
-9.01764e-09 1.4024e-06 -0.000260782
0.00197962 0.000364657 -2.91123e-06
0.000364657 0.000355459 1.83277e-07
-2.91123e-06 1.83277e-07 0.000152284
0.00184867 0.000359995 -2.76582e-06
0.000359995 0.000188131 3.95453e-06
-2.76582e-06 3.95453e-06 1.19153e-05
0.000980965 0.000258233 -3.04357e-07
0.000258233 7.93619e-05 -7.24292e-07
-3.04357e-07 -7.24292e-07 -0.000190878
0.0015111 0.000354596 -1.09032e-06
0.000354596 0.000176927 1.96863e-06
-1.09032e-06 1.96863e-06 -6.45982e-05
0.000461642 1.36531e-06 -1.78297e-07
1.36531e-06 -4.89938e-05 1.11661e-06
-1.78297e-07 1.11661e-06 -0.000147594
0.00035721 8.61635e-05 -5.14381e-07
8.61635e-05 -7.96958e-05 -1.95378e-06
-5.14381e-07 -1.95378e-06 -0.000228313
0.00123862 0.000249026 2.80722e-06
0.000249026 0.000307514 -1.95107e-06
2.80722e-06 -1.95107e-06 8.30799e-05
0.000614265 0.000145587 -1.27823e-06
0.000145587 1.39643e-05 -3.10058e-06
-1.27823e-06 -3.10058e-06 -0.000158059
0.00198666 0.000272534 9.44989e-07
0.000272534 7.10925e-05 -1.03665e-06
9.44989e-07 -1.03665e-06 3.84997e-06
0.00205382 0.000329381 3.09918e-06
0.000329381 0.000258468 7.8653e-07
3.09918e-06 7.8653e-07 0.000114741
0.00179446 0.000389668 -1.27038e-06
0.000389668 0.000232894 1.18167e-07
-1.27038e-06 1.18167e-07 1.20167e-05
0.00108492 0.000294985 4.48863e-07
0.000294985 4.19423e-05 5.20217e-07
4.48863e-07 5.20217e-07 -0.000226213
0.000518013 2.74377e-05 -8.43093e-07
2.74377e-05 -2.46147e-05 2.52219e-06
-8.43093e-07 2.52219e-06 -0.000122344
0.00191357 0.00021695 -1.89522e-06
0.00021695 4.97375e-06 1.3245e-06
-1.89522e-06 1.3245e-06 -2.87638e-05
0.00149149 0.000240341 3.6946e-07
0.000240341 0.000581658 2.57902e-06
3.6946e-07 2.57902e-06 0.000385363
0.00117299 0.000253706 2.78928e-06
0.000253706 0.000239533 4.1703e-06
2.78928e-06 4.1703e-06 1.08606e-05
0.00235975 0.00032306 -1.64637e-05
0.00032306 0.000332633 -4.0419e-06
-1.64637e-05 -4.0419e-06 0.000239634
0.00111467 0.000360941 -2.53776e-06
0.000360941 -0.000219375 -6.66613e-06
-2.53776e-06 -6.66613e-06 -0.000422188
0.00188172 0.000393302 -2.2913e-06
0.000393302 0.000411142 2.41406e-06
-2.2913e-06 2.41406e-06 0.000137451
0.00070576 4.0632e-05 -1.26372e-06
4.0632e-05 7.9508e-05 -3.47479e-07
-1.26372e-06 -3.47479e-07 -8.89646e-06
0.000742523 3.24188e-05 -9.80648e-07
3.24188e-05 0.000105094 -4.12202e-07
-9.80648e-07 -4.12202e-07 1.5103e-05
0.000951654 1.91059e-05 -1.2291e-06
1.91059e-05 0.000236953 2.4119e-08
-1.2291e-06 2.4119e-08 0.000147361
0.00064875 -9.91785e-06 -1.29718e-07
-9.91785e-06 4.30481e-05 -1.68364e-06
-1.29718e-07 -1.68364e-06 -3.33131e-05
0.00068375 3.65172e-05 7.1355e-07
3.65172e-05 7.82742e-05 7.81667e-08
7.1355e-07 7.81667e-08 -1.91193e-05
0.000423429 4.23922e-06 -6.27738e-07
4.23922e-06 -6.00837e-05 6.24036e-07
-6.27738e-07 6.24036e-07 -0.000163615
0.000657255 -3.09887e-07 -4.82446e-07
-3.09887e-07 5.47244e-05 -2.02649e-08
-4.82446e-07 -2.02649e-08 -2.65367e-05
0.000538146 -2.4518e-05 -6.58797e-07
-2.4518e-05 -4.00956e-06 3.89321e-07
-6.58797e-07 3.89321e-07 -0.00010552
0.000585341 -1.10533e-05 6.18104e-07
-1.10533e-05 1.58512e-05 -1.02457e-07
6.18104e-07 -1.02457e-07 -7.54036e-05
0.000789999 2.96959e-05 4.09676e-07
2.96959e-05 0.000147912 -3.25287e-08
4.09676e-07 -3.25287e-08 3.7194e-05
0.000983163 2.54677e-05 1.16972e-07
2.54677e-05 0.000228915 -1.37323e-06
1.16972e-07 -1.37323e-06 0.000144279
0.000730232 -3.32437e-05 1.24042e-06
-3.32437e-05 9.52896e-05 -1.20852e-06
1.24042e-06 -1.20852e-06 -2.26726e-07
0.000775231 2.63016e-05 5.67312e-08
2.63016e-05 0.000136141 1.06826e-07
5.67312e-08 1.06826e-07 2.21776e-05
0.000652363 3.00539e-05 1.89477e-06
3.00539e-05 6.42057e-05 1.40487e-06
1.89477e-06 1.40487e-06 -4.46922e-05
0.000680327 1.89377e-05 1.35541e-06
1.89377e-05 6.19476e-05 1.73135e-06
1.35541e-06 1.73135e-06 -1.751e-05
0.000603447 -2.1051e-05 -1.93632e-07
-2.1051e-05 3.50013e-06 1.86444e-06
-1.93632e-07 1.86444e-06 -4.66646e-05
0.000617786 -8.8361e-06 -2.97877e-07
-8.8361e-06 9.92363e-06 3.85132e-08
-2.97877e-07 3.85132e-08 -3.93092e-05
0.00127552 -6.83264e-06 5.73391e-07
-6.83264e-06 0.000371215 2.23666e-06
5.73391e-07 2.23666e-06 0.000361509
0.00062874 -2.67534e-05 6.30739e-07
-2.67534e-05 1.28166e-05 -2.33913e-06
6.30739e-07 -2.33913e-06 -3.56592e-05
0.00130802 -1.47064e-05 -2.79813e-06
-1.47064e-05 0.000390542 -1.55406e-06
-2.79813e-06 -1.55406e-06 0.000381126
0.000873121 -1.65527e-05 1.18387e-05
-1.65527e-05 0.000136982 8.20251e-06
1.18387e-05 8.20251e-06 0.000145412
0.00134843 -2.36266e-05 -4.93474e-06
-2.36266e-05 0.000415039 -5.47323e-06
-4.93474e-06 -5.47323e-06 0.000405306
0.000832465 -2.4589e-05 3.7994e-06
-2.4589e-05 0.000114726 3.10395e-06
3.7994e-06 3.10395e-06 0.000122533
0.000774986 -3.11429e-05 -9.75877e-07
-3.11429e-05 8.42647e-05 -2.05293e-06
-9.75877e-07 -2.05293e-06 9.12306e-05
0.000671273 1.13114e-05 8.71081e-07
1.13114e-05 2.86745e-05 -1.6626e-06
8.71081e-07 -1.6626e-06 -9.26617e-06
0.000568804 2.81238e-05 4.28374e-07
2.81238e-05 -4.18828e-05 -3.5026e-06
4.28374e-07 -3.5026e-06 -5.28433e-05
0.000575103 3.68808e-05 5.05054e-08
3.68808e-05 -3.05081e-05 9.79047e-08
5.05054e-08 9.79047e-08 -4.54504e-05
0.00215865 6.47784e-05 1.88284e-05
6.47784e-05 0.000912306 -3.99172e-06
1.88284e-05 -3.99172e-06 0.000924524
0.000574547 5.31336e-05 1.87491e-06
5.31336e-05 -1.78502e-05 4.62972e-06
1.87491e-06 4.62972e-06 -4.03942e-05
0.00237004 8.28346e-05 -3.76403e-06
8.28346e-05 0.00104603 -2.74377e-07
-3.76403e-06 -2.74377e-07 0.00105368
0.00264092 9.85697e-05 -3.4607e-05
9.85697e-05 0.00121259 3.56279e-06
-3.4607e-05 3.56279e-06 0.00121624
0.00194795 0.000220479 -3.78818e-08
0.000220479 0.000138328 1.93164e-06
-3.78818e-08 1.93164e-06 4.99821e-05
0.00183277 0.000144148 -1.48545e-06
0.000144148 5.43257e-05 -3.13769e-07
-1.48545e-06 -3.13769e-07 -1.05131e-05
0.00180108 4.31771e-05 -1.18033e-07
4.31771e-05 6.2868e-05 -2.83179e-08
-1.18033e-07 -2.83179e-08 8.81051e-06
0.00184495 -2.72793e-07 9.04408e-07
-2.72793e-07 0.000124418 -2.07263e-07
9.04408e-07 -2.07263e-07 4.49322e-05
0.00177447 -5.52244e-06 -1.38936e-06
-5.52244e-06 4.60946e-05 -1.19855e-07
-1.38936e-06 -1.19855e-07 -7.07595e-06
0.00189204 8.27883e-05 2.69995e-07
8.27883e-05 3.77608e-05 1.09397e-08
2.69995e-07 1.09397e-08 5.17107e-06
0.001897 0.000206012 -6.36515e-07
0.000206012 4.31251e-05 -2.48494e-07
-6.36515e-07 -2.48494e-07 -2.10581e-05
0.00189055 1.69911e-06 3.00969e-06
1.69911e-06 2.5759e-05 -2.80069e-07
3.00969e-06 -2.80069e-07 7.25155e-06
0.00196669 0.000122975 1.92216e-06
0.000122975 2.52165e-05 -2.60116e-08
1.92216e-06 -2.60116e-08 -2.2554e-06
0.00200648 6.79203e-05 -4.38451e-06
6.79203e-05 0.000100328 2.83929e-06
-4.38451e-06 2.83929e-06 0.000126898
0.00192756 -5.75029e-05 -2.33489e-06
-5.75029e-05 0.000131075 -4.7804e-08
-2.33489e-06 -4.7804e-08 6.61504e-05
0.0019187 -0.000153629 -3.10155e-06
-0.000153629 8.06529e-05 8.85691e-07
-3.10155e-06 8.85691e-07 1.8755e-05
0.00184835 -0.000227812 -2.61863e-06
-0.000227812 0.000100205 1.35657e-06
-2.61863e-06 1.35657e-06 2.35238e-05
0.00123922 -0.000247891 -8.23013e-08
-0.000247891 0.000272136 6.31698e-06
-8.23013e-08 6.31698e-06 6.45933e-05
0.00101576 -0.000304084 8.0928e-07
-0.000304084 5.69184e-07 3.29091e-06
8.0928e-07 3.29091e-06 -0.000264616
0.00171307 -0.000391462 -4.5072e-06
-0.000391462 0.000281965 -3.40266e-06
-4.5072e-06 -3.40266e-06 2.31766e-05
0.00192038 -0.000297077 2.18055e-06
-0.000297077 0.000125406 -1.50142e-07
2.18055e-06 -1.50142e-07 2.34895e-05
0.00152772 -0.000330676 -4.12733e-06
-0.000330676 -1.19649e-05 -6.09296e-06
-4.12733e-06 -6.09296e-06 -0.000172021
0.000119434 -0.000148687 -2.38067e-06
-0.000148687 -0.000341885 7.26475e-06
-2.38067e-06 7.26475e-06 -0.00050367
0.00195355 -0.000269914 1.19913e-05
-0.000269914 0.000789264 -3.16342e-06
1.19913e-05 -3.16342e-06 0.000596126
0.000702423 -2.14138e-05 1.52246e-07
-2.14138e-05 9.06262e-05 -5.46332e-07
1.52246e-07 -5.46332e-07 -7.03208e-05
0.00059158 1.52483e-05 -1.61141e-07
1.52483e-05 -8.48702e-06 6.18123e-07
-1.61141e-07 6.18123e-07 -5.39626e-05
0.000810163 2.04206e-05 6.41471e-07
2.04206e-05 0.000151368 1.06116e-06
6.41471e-07 1.06116e-06 5.51464e-05
0.000837257 -4.06733e-05 7.28245e-07
-4.06733e-05 0.000176473 1.73703e-06
7.28245e-07 1.73703e-06 4.34812e-05
0.00187415 -7.89433e-05 2.10104e-07
-7.89433e-05 3.21384e-05 -2.60527e-08
2.10104e-07 -2.60527e-08 -3.50962e-06
0.000619691 1.54406e-05 1.0291e-06
1.54406e-05 2.12626e-06 1.09961e-07
1.0291e-06 1.09961e-07 -3.87822e-05
0.000565276 -3.06432e-05 -1.66423e-06
-3.06432e-05 -8.94436e-06 -5.39206e-08
-1.66423e-06 -5.39206e-08 -7.73431e-05
0.00191534 -0.000201549 -3.14632e-07
-0.000201549 4.89512e-05 2.55018e-07
-3.14632e-07 2.55018e-07 1.35294e-05
0.0018355 -0.0002476 -1.57906e-06
-0.0002476 4.58465e-05 3.75887e-07
-1.57906e-06 3.75887e-07 -2.19298e-05
0.00057175 -0.000220279 8.29664e-07
-0.000220279 -0.00013329 2.85127e-06
8.29664e-07 2.85127e-06 -0.000352955
0.0018862 -0.000420124 -4.49234e-07
-0.000420124 0.00046635 2.3648e-07
-4.49234e-07 2.3648e-07 0.000149327
0.0015228 -0.000389767 2.59379e-06
-0.000389767 0.000116 -1.31788e-06
2.59379e-06 -1.31788e-06 -0.00012907
0.00200548 -0.000390076 2.39363e-06
-0.000390076 0.0001519 -1.02037e-06
2.39363e-06 -1.02037e-06 2.35585e-05
0.000735861 -1.65864e-05 9.6429e-07
-1.65864e-05 0.000109828 -1.06819e-06
9.6429e-07 -1.06819e-06 2.47154e-05
0.000751038 -2.71429e-05 2.17514e-07
-2.71429e-05 0.000137035 1.18281e-06
2.17514e-07 1.18281e-06 1.24076e-05
0.000944156 -0.000216835 -2.9488e-06
-0.000216835 9.78138e-05 -8.25054e-07
-2.9488e-06 -8.25054e-07 -7.28495e-05
0.00151668 -0.000249587 1.25481e-05
-0.000249587 0.00057273 -3.39593e-06
1.25481e-05 -3.39593e-06 0.000350874
0.000484261 -8.1873e-05 -2.39349e-06
-8.1873e-05 -2.72645e-05 7.37078e-09
-2.39349e-06 7.37078e-09 -0.000195165
0.000707891 -1.85885e-05 4.11396e-07
-1.85885e-05 0.00010049 -5.93774e-07
4.11396e-07 -5.93774e-07 -4.02446e-05
0.0019162 -8.7293e-05 3.01023e-06
-8.7293e-05 -7.02397e-06 -6.99861e-07
3.01023e-06 -6.99861e-07 -3.1963e-05
0.00185163 -0.000223154 5.05944e-07
-0.000223154 -2.65435e-05 -6.39512e-07
5.05944e-07 -6.39512e-07 -1.10846e-05
0.00204506 -0.000355657 -1.18803e-06
-0.000355657 8.64951e-05 -2.41388e-06
-1.18803e-06 -2.41388e-06 3.38153e-06
0.00162148 -0.000437751 3.25746e-06
-0.000437751 4.35777e-05 7.64882e-07
3.25746e-06 7.64882e-07 -0.000115511
0.000747473 -0.000201327 -8.8385e-06
-0.000201327 -2.11216e-05 -8.06082e-06
-8.8385e-06 -8.06082e-06 -0.00023948
0.00232427 -0.000492483 -7.31262e-06
-0.000492483 0.00068616 5.22756e-06
-7.31262e-06 5.22756e-06 0.000349918
0.000430768 5.70471e-05 -1.19408e-06
5.70471e-05 -7.85251e-05 -2.40754e-06
-1.19408e-06 -2.40754e-06 -0.000151888
0.00068152 -5.89902e-05 2.85527e-06
-5.89902e-05 6.23673e-05 -9.58981e-07
2.85527e-06 -9.58981e-07 -9.14726e-06
0.000926439 -7.95294e-05 1.53944e-06
-7.95294e-05 0.000217224 7.28305e-07
1.53944e-06 7.28305e-07 0.000122877
0.000465766 1.97453e-05 -1.46779e-06
1.97453e-05 -3.37916e-05 2.33724e-06
-1.46779e-06 2.33724e-06 -0.000151559
0.000942685 -5.7899e-05 -1.11039e-06
-5.7899e-05 0.000235642 1.27261e-06
-1.11039e-06 1.27261e-06 0.000111907
0.00101483 -4.6559e-05 2.52509e-06
-4.6559e-05 0.000241785 7.44401e-07
2.52509e-06 7.44401e-07 8.90133e-05
-0.000332477 -9.01958e-05 6.26313e-06
-9.01958e-05 -0.00036068 6.50897e-07
6.26313e-06 6.50897e-07 -0.000653732
0.000161767 -0.000218392 -1.74993e-05
-0.000218392 -0.000339687 2.13505e-06
-1.74993e-05 2.13505e-06 -0.0005061
0.000464662 3.72637e-05 4.31243e-08
3.72637e-05 -4.30182e-05 -9.50794e-07
4.31243e-08 -9.50794e-07 -0.000146056
0.000730985 0.000117191 -3.37195e-06
0.000117191 0.000138136 -2.78434e-06
-3.37195e-06 -2.78434e-06 -1.42255e-05
0.00206177 0.000269397 -2.26746e-06
0.000269397 0.000110363 -1.06909e-06
-2.26746e-06 -1.06909e-06 4.46076e-05
0.0019845 0.000332799 -5.70894e-07
0.000332799 0.000222822 1.99666e-06
-5.70894e-07 1.99666e-06 7.42936e-05
0.00172357 0.000207264 -6.3804e-06
0.000207264 0.00064086 -2.07977e-06
-6.3804e-06 -2.07977e-06 0.000467799
0.00114871 0.00024229 -2.50007e-06
0.00024229 0.000265232 -8.83401e-06
-2.50007e-06 -8.83401e-06 3.8021e-05
0.00183989 0.000387466 7.61723e-07
0.000387466 0.000250821 1.49893e-06
7.61723e-07 1.49893e-06 3.16911e-05
0.0018087 0.000357632 1.66131e-07
0.000357632 0.000440794 -8.31902e-07
1.66131e-07 -8.31902e-07 0.000169015
0.000612356 5.13955e-05 8.05005e-07
5.13955e-05 4.17795e-05 -8.7295e-07
8.05005e-07 -8.7295e-07 -6.52255e-05
0.00198311 0.000209253 -3.07453e-07
0.000209253 3.07065e-05 -2.57553e-07
-3.07453e-07 -2.57553e-07 5.71018e-06
0.000973799 0.000174628 8.7988e-07
0.000174628 0.000277193 1.63624e-06
8.7988e-07 1.63624e-06 9.49705e-05
0.000853582 0.000226747 1.39742e-06
0.000226747 6.20596e-05 2.24026e-07
1.39742e-06 2.24026e-07 -0.000165526
0.00222452 0.000317934 2.73676e-06
0.000317934 0.00025952 5.90926e-07
2.73676e-06 5.90926e-07 0.000166847
0.00141418 0.000380255 -7.3017e-07
0.000380255 -5.40964e-05 -2.95742e-06
-7.3017e-07 -2.95742e-06 -0.000255799
0.00206906 0.00040805 7.83607e-09
0.00040805 0.000532347 5.26318e-07
7.83607e-09 5.26318e-07 0.000256051
0.00113773 0.000122937 -3.20133e-06
0.000122937 0.000366574 2.81535e-06
-3.20133e-06 2.81535e-06 0.000222765
0.00240483 0.000229906 -3.88554e-05
0.000229906 0.000319142 -9.00898e-06
-3.88554e-05 -9.00898e-06 0.000325883
0.0024518 0.000367964 -5.40082e-06
0.000367964 0.00107346 1.92859e-07
-5.40082e-06 1.92859e-07 0.000855863
0.00215776 0.000373663 -7.30099e-06
0.000373663 0.000724136 8.33361e-07
-7.30099e-06 8.33361e-07 0.000470067
0.00208136 0.000437965 -1.73004e-05
0.000437965 0.000197033 -1.2718e-05
-1.73004e-05 -1.2718e-05 6.24448e-05
0.00121691 0.000370431 -1.26566e-05
0.000370431 -1.23812e-05 -7.06355e-07
-1.26566e-05 -7.06355e-07 -0.000267079
0.000814962 0.000296111 2.51881e-05
0.000296111 -0.000502321 -1.62293e-05
2.51881e-05 -1.62293e-05 -0.000719815
0.000565228 4.67092e-05 7.02726e-07
4.67092e-05 9.96628e-06 -3.02633e-07
7.02726e-07 -3.02633e-07 -8.35642e-05
0.000694014 2.80662e-05 -6.82366e-08
2.80662e-05 9.75983e-05 7.68273e-07
-6.82366e-08 7.68273e-07 5.64097e-06
0.00125622 5.02818e-05 -1.75395e-07
5.02818e-05 0.000408859 -1.17106e-06
-1.75395e-07 -1.17106e-06 0.000314683
0.000634893 -5.7699e-05 1.74164e-08
-5.7699e-05 4.74216e-05 -2.14785e-06
1.74164e-08 -2.14785e-06 -3.74057e-05
0.00058261 -4.29443e-05 -1.13823e-06
-4.29443e-05 1.80682e-05 3.33088e-08
-1.13823e-06 3.33088e-08 -8.02277e-05
0.000899226 0.000113117 -1.92157e-07
0.000113117 0.000212338 6.18284e-07
-1.92157e-07 6.18284e-07 9.98762e-05
0.000416257 -2.44237e-05 -8.7703e-07
-2.44237e-05 -7.44235e-05 2.31294e-06
-8.7703e-07 2.31294e-06 -0.000168234
0.000652458 -2.3097e-05 -7.77758e-08
-2.3097e-05 5.64633e-05 -3.03646e-08
-7.77758e-08 -3.03646e-08 -2.97581e-05
0.000648037 3.5323e-05 -8.83473e-08
3.5323e-05 4.88508e-05 -3.5662e-07
-8.83473e-08 -3.5662e-07 -5.11447e-05
0.000801745 1.9789e-05 -6.90775e-07
1.9789e-05 0.000126581 2.61792e-08
-6.90775e-07 2.61792e-08 4.00845e-05
0.00076666 1.28463e-05 3.55837e-07
1.28463e-05 0.000120443 -7.31937e-08
3.55837e-07 -7.31937e-08 1.45157e-05
0.00079473 -1.19702e-05 -1.76681e-08
-1.19702e-05 0.000131279 -2.13767e-07
-1.76681e-08 -2.13767e-07 3.37602e-05
0.000860882 1.82336e-05 -8.09924e-07
1.82336e-05 0.000155804 -2.4691e-06
-8.09924e-07 -2.4691e-06 7.04237e-05
0.000814693 2.75058e-05 -1.23683e-06
2.75058e-05 0.000136929 -1.90961e-06
-1.23683e-06 -1.90961e-06 2.9062e-05
0.000810998 6.38817e-05 4.37928e-07
6.38817e-05 0.000137406 3.6836e-07
4.37928e-07 3.6836e-07 3.43561e-05
0.000696547 3.86861e-05 2.57095e-07
3.86861e-05 8.92906e-05 1.14122e-06
2.57095e-07 1.14122e-06 -2.55416e-05
0.000514846 -1.8568e-05 -1.28906e-07
-1.8568e-05 -3.77195e-05 1.92611e-06
-1.28906e-07 1.92611e-06 -0.00012
0.000889212 -2.27557e-05 7.16277e-08
-2.27557e-05 0.000218918 -9.67631e-07
7.16277e-08 -9.67631e-07 0.000102351
0.000456238 -7.16769e-06 -6.2946e-07
-7.16769e-06 -6.72817e-05 2.06832e-06
-6.2946e-07 2.06832e-06 -0.000154094
0.000578419 7.79825e-06 -9.77114e-07
7.79825e-06 -8.4356e-06 1.84826e-06
-9.77114e-07 1.84826e-06 -6.06777e-05
0.000595214 1.81923e-05 9.6772e-07
1.81923e-05 3.51269e-07 -5.64282e-09
9.6772e-07 -5.64282e-09 -5.08286e-05
0.000567085 2.85352e-06 2.25871e-07
2.85352e-06 -4.55462e-05 3.68992e-06
2.25871e-07 3.68992e-06 -6.00335e-05
0.000605884 -2.11618e-06 -1.23733e-06
-2.11618e-06 4.32667e-06 -2.13596e-06
-1.23733e-06 -2.13596e-06 -4.59278e-05
0.00094938 -3.9448e-06 -1.87006e-06
-3.9448e-06 0.000179501 -1.63701e-06
-1.87006e-06 -1.63701e-06 0.000167574
0.00232926 -1.27726e-05 7.64544e-06
-1.27726e-05 0.000994644 5.12819e-06
7.64544e-06 5.12819e-06 0.001011
0.00135445 -1.31373e-05 -2.89928e-06
-1.31373e-05 0.000418441 -5.4185e-06
-2.89928e-06 -5.4185e-06 0.000408764
0.000831958 -1.6528e-05 2.0202e-06
-1.6528e-05 0.000111467 3.17207e-06
2.0202e-06 3.17207e-06 0.000120002
0.000788043 -2.31252e-05 -4.22567e-07
-2.31252e-05 8.7309e-05 -2.07467e-06
-4.22567e-07 -2.07467e-06 9.5417e-05
0.000632825 7.69635e-06 -3.32298e-07
7.69635e-06 8.52603e-06 -1.62582e-06
-3.32298e-07 -1.62582e-06 -2.87709e-05
0.000646894 -1.65207e-06 8.67941e-07
-1.65207e-06 1.55001e-05 -9.34815e-08
8.67941e-07 -9.34815e-08 -2.32199e-05
0.000595011 2.13829e-05 3.56001e-07
2.13829e-05 -3.00729e-05 -3.43736e-06
3.56001e-07 -3.43736e-06 -3.8749e-05
0.000900912 3.37503e-05 -3.92518e-07
3.37503e-05 0.000155031 5.27656e-08
-3.92518e-07 5.27656e-08 0.000145503
0.0021156 5.16937e-05 1.4906e-05
5.16937e-05 0.00088005 -4.18831e-06
1.4906e-05 -4.18831e-06 0.000894934
0.000582758 3.86977e-05 3.01324e-07
3.86977e-05 -2.52497e-05 3.75491e-06
3.01324e-07 3.75491e-06 -4.06666e-05
0.00222126 6.7519e-05 -2.8444e-06
6.7519e-05 0.000950279 -1.74908e-07
-2.8444e-06 -1.74908e-07 0.000961752
0.00243503 8.51683e-05 -2.35529e-05
8.51683e-05 0.0010848 3.92215e-06
-2.35529e-05 3.92215e-06 0.00109183
0.00189847 0.000209485 -3.91492e-06
0.000209485 4.16208e-05 -1.3153e-06
-3.91492e-06 -1.3153e-06 -2.10269e-05
0.00188185 7.8308e-05 -2.18853e-06
7.8308e-05 3.3348e-05 2.90291e-08
-2.18853e-06 2.90291e-08 -4.22988e-07
0.00180397 -2.79603e-06 -2.95399e-06
-2.79603e-06 6.26649e-05 -6.64946e-09
-2.95399e-06 -6.64946e-09 1.21697e-05
0.00188175 2.06447e-06 5.55256e-08
2.06447e-06 2.37924e-05 -2.13564e-07
5.55256e-08 -2.13564e-07 4.98576e-06
0.00193508 0.000121625 2.77876e-07
0.000121625 2.20549e-05 2.74238e-08
2.77876e-07 2.74238e-08 -6.95259e-06
0.00187783 6.01083e-05 3.68865e-06
6.01083e-05 1.68851e-05 3.44159e-07
3.68865e-06 3.44159e-07 3.50647e-05
0.00191931 1.09e-05 2.7963e-07
1.09e-05 -1.9268e-05 -2.66216e-07
2.7963e-07 -2.66216e-07 -1.12082e-05
0.00272969 0.000272657 2.95194e-05
0.000272657 -0.000195024 3.75365e-06
2.95194e-05 3.75365e-06 -0.000137348
0.0021264 3.35529e-05 -2.89294e-05
3.35529e-05 0.00030512 8.56399e-06
-2.89294e-05 8.56399e-06 0.00036011
0.000631294 7.49914e-05 -8.88735e-07
7.49914e-05 3.95575e-05 -5.99143e-07
-8.88735e-07 -5.99143e-07 -2.92912e-05
0.00185763 -7.99746e-05 -2.72238e-06
-7.99746e-05 1.91447e-05 -4.86869e-08
-2.72238e-06 -4.86869e-08 -1.3666e-05
0.00189235 -0.000193463 -1.10756e-06
-0.000193463 5.31702e-05 1.16344e-06
-1.10756e-06 1.16344e-06 1.0484e-05
0.00179816 -0.000249502 1.40607e-07
-0.000249502 2.21589e-05 1.70821e-06
1.40607e-07 1.70821e-06 -4.62936e-05
0.0005669 -0.000216162 2.12325e-06
-0.000216162 -0.00012521 8.82232e-06
2.12325e-06 8.82232e-06 -0.000338373
0.0017971 -0.000410964 2.00285e-06
-0.000410964 0.000422053 5.91678e-06
2.00285e-06 5.91678e-06 0.000103174
0.00151034 -0.000394082 -4.72381e-07
-0.000394082 8.51809e-05 -7.98025e-06
-4.72381e-07 -7.98025e-06 -0.000156747
0.00215777 -0.000398143 -5.60308e-06
-0.000398143 0.000248642 -2.59418e-06
-5.60308e-06 -2.59418e-06 0.000116668
0.0016873 -0.000264142 1.21553e-05
-0.000264142 0.000519082 -1.40924e-06
1.21553e-05 -1.40924e-06 0.000339145
0.000446831 -0.000163002 9.86607e-06
-0.000163002 -5.0433e-05 -4.79466e-06
9.86607e-06 -4.79466e-06 -0.00022883
0.000946613 -9.87906e-05 8.72456e-07
-9.87906e-05 0.000235513 -1.66757e-06
8.72456e-07 -1.66757e-06 6.73908e-05
0.000621185 3.83726e-06 -9.32753e-07
3.83726e-06 2.57657e-06 1.64429e-06
-9.32753e-07 1.64429e-06 -3.74728e-05
0.000811723 -1.67736e-05 1.67608e-06
-1.67736e-05 0.000170269 -5.53691e-07
1.67608e-06 -5.53691e-07 2.53602e-05
0.000938205 -4.14327e-05 1.48746e-06
-4.14327e-05 0.000233497 -4.07788e-07
1.48746e-06 -4.07788e-07 0.000147884
0.000808579 -2.20296e-05 5.16152e-07
-2.20296e-05 0.000167605 -4.36723e-07
5.16152e-07 -4.36723e-07 4.27045e-05
0.000425539 -2.2479e-05 -1.79024e-06
-2.2479e-05 -9.657e-05 1.2037e-06
-1.79024e-06 1.2037e-06 -0.000161819
0.00194004 -9.94134e-05 -1.88546e-07
-9.94134e-05 -1.39473e-05 1.36718e-07
-1.88546e-07 1.36718e-07 -2.66645e-05
0.00053079 3.61042e-05 7.06561e-08
3.61042e-05 -1.69204e-05 -1.1736e-06
7.06561e-08 -1.1736e-06 -9.10292e-05
0.00067054 -5.31492e-05 6.05941e-07
-5.31492e-05 6.22155e-05 4.03744e-07
6.05941e-07 4.03744e-07 -1.26339e-05
0.000788492 -4.70906e-05 -1.93299e-07
-4.70906e-05 0.000137892 7.84196e-07
-1.93299e-07 7.84196e-07 4.20103e-05
0.00186514 -0.000227035 1.15097e-06
-0.000227035 -1.3079e-05 -2.37984e-07
1.15097e-06 -2.37984e-07 -6.70225e-06
0.00202513 -0.000352035 -7.57673e-07
-0.000352035 8.84545e-05 -2.69414e-07
-7.57673e-07 -2.69414e-07 3.44585e-06
0.00116822 -0.00025421 4.80217e-06
-0.00025421 0.000202766 -6.33673e-08
4.80217e-06 -6.33673e-08 -1.48676e-05
0.00199372 -0.000463449 5.00674e-06
-0.000463449 0.000515207 5.91809e-08
5.00674e-06 5.91809e-08 0.00018759
0.00180919 -0.000447437 -1.20858e-07
-0.000447437 0.000163768 1.80226e-06
-1.20858e-07 1.80226e-06 -2.45648e-06
0.000524102 -9.39295e-06 -3.65603e-07
-9.39295e-06 3.16172e-06 -2.03063e-07
-3.65603e-07 -2.03063e-07 -0.000112534
0.00083266 -6.86238e-05 -1.59697e-06
-6.86238e-05 0.000177981 4.20447e-07
-1.59697e-06 4.20447e-07 4.54961e-05
0.000680019 -0.000260452 -5.04437e-06
-0.000260452 -2.94298e-05 4.85814e-07
-5.04437e-06 4.85814e-07 -0.000225255
0.000524363 -9.81486e-05 -2.66446e-07
-9.81486e-05 7.30983e-05 -1.30604e-06
-2.66446e-07 -1.30604e-06 -0.000179407
0.000704085 -6.52375e-05 1.60679e-09
-6.52375e-05 6.50132e-05 -3.24274e-07
1.60679e-09 -3.24274e-07 -8.39974e-05
0.00229429 -0.000202947 -2.17191e-06
-0.000202947 0.000174577 -1.57889e-06
-2.17191e-06 -1.57889e-06 0.000173625
0.00174999 -0.000240819 -8.19345e-06
-0.000240819 -0.000118815 1.71168e-06
-8.19345e-06 1.71168e-06 -8.63054e-05
0.00253 -0.000495694 -4.90291e-06
-0.000495694 0.000393919 -2.41084e-06
-4.90291e-06 -2.41084e-06 0.000253791
0.00266576 -0.000547411 -2.02211e-05
-0.000547411 0.000743277 1.19967e-06
-2.02211e-05 1.19967e-06 0.000515994
0.00126505 -0.000287063 -1.28601e-05
-0.000287063 0.000299218 -3.80877e-06
-1.28601e-05 -3.80877e-06 6.04161e-05
0.000456357 1.01527e-05 1.30995e-06
1.01527e-05 -5.67508e-05 -1.27538e-06
1.30995e-06 -1.27538e-06 -0.000150452
0.000501693 4.77339e-05 4.57618e-07
4.77339e-05 -3.70049e-05 2.87714e-07
4.57618e-07 2.87714e-07 -0.000136288
0.000511087 3.57879e-06 3.88743e-07
3.57879e-06 -2.20021e-05 -1.1129e-06
3.88743e-07 -1.1129e-06 -0.000127888
0.00124492 -0.000140558 -1.69009e-06
-0.000140558 0.000433342 3.71584e-06
-1.69009e-06 3.71584e-06 0.000300775
0.000531839 -5.38865e-05 -2.35007e-07
-5.38865e-05 -1.83838e-05 4.17112e-06
-2.35007e-07 4.17112e-06 -0.00014387
7.18748e-05 -6.61123e-05 2.17489e-06
-6.61123e-05 -0.000157435 2.23368e-06
2.17489e-06 2.23368e-06 -0.000421854
0.000412167 -0.000299661 3.4326e-06
-0.000299661 1.21703e-05 -1.81827e-06
3.4326e-06 -1.81827e-06 -0.000304257
0.000780145 8.3033e-05 1.45205e-06
8.3033e-05 0.000152791 -4.25863e-06
1.45205e-06 -4.25863e-06 3.35465e-05
0.000182338 8.03251e-05 6.54598e-07
8.03251e-05 -0.000189374 -1.17408e-06
6.54598e-07 -1.17408e-06 -0.000352217
0.00209685 0.000201198 7.51368e-06
0.000201198 8.14998e-05 7.55594e-08
7.51368e-06 7.55594e-08 6.69395e-05
0.0020491 0.00031067 1.21521e-05
0.00031067 0.000164357 3.22493e-06
1.21521e-05 3.22493e-06 7.31521e-05
0.00180762 0.00040542 8.3881e-06
0.00040542 0.00016133 3.42089e-06
8.3881e-06 3.42089e-06 -3.96064e-05
0.000556396 0.000202719 1.42695e-06
0.000202719 -0.000104734 -1.23014e-06
1.42695e-06 -1.23014e-06 -0.000330788
0.00214255 0.000414068 2.64366e-06
0.000414068 0.000589278 8.53321e-07
2.64366e-06 8.53321e-07 0.000312611
0.00131365 0.000103526 -1.66182e-07
0.000103526 0.000455251 5.03444e-07
-1.66182e-07 5.03444e-07 0.00032173
0.00214729 0.00019769 -2.37573e-06
0.00019769 0.000194251 2.75227e-07
-2.37573e-06 2.75227e-07 0.000209566
0.00152375 0.000262594 -1.69387e-06
0.000262594 0.000537314 1.64352e-07
-1.69387e-06 1.64352e-07 0.000341811
0.00150079 0.000315571 -6.46533e-07
0.000315571 0.000377656 1.09843e-06
-6.46533e-07 1.09843e-06 0.000122578
0.00200902 0.000419619 -1.49988e-06
0.000419619 0.000162251 -3.28247e-06
-1.49988e-06 -3.28247e-06 3.6108e-05
0.00161748 0.000407651 -2.62065e-06
0.000407651 0.00021418 3.94308e-06
-2.62065e-06 3.94308e-06 -5.02832e-05
0.00173005 0.000373164 3.09386e-05
0.000373164 -0.000280716 2.16309e-06
3.09386e-05 2.16309e-06 -0.000581861
0.00119702 0.000175331 -4.37219e-06
0.000175331 0.00040972 -9.99995e-07
-4.37219e-06 -9.99995e-07 0.000253541
0.00222462 0.000325087 -4.39146e-05
0.000325087 0.00030589 -2.36248e-05
-4.39146e-05 -2.36248e-05 0.000300789
0.0012454 0.000257248 -5.50895e-06
0.000257248 0.000325418 -8.49987e-07
-5.50895e-06 -8.49987e-07 0.000135181
0.000962565 0.00030093 -3.9406e-06
0.00030093 8.8753e-06 -3.0245e-06
-3.9406e-06 -3.0245e-06 -0.000251737
-1.25952e-05 0.000369798 -1.40874e-05
0.000369798 -0.00079187 -6.52157e-06
-1.40874e-05 -6.52157e-06 -0.000987593
0.0099433 0.000328672 -0.000171348
0.000328672 0.00227619 -3.66923e-05
-0.000171348 -3.66923e-05 0.00138258
0.00525971 0.000708822 0.000131071
0.000708822 0.000651369 -1.87105e-05
0.000131071 -1.87105e-05 0.000232193
0.00151564 0.000523245 2.11591e-05
0.000523245 1.72915e-05 1.15165e-05
2.11591e-05 1.15165e-05 -0.000190529
-0.00484779 -0.000652557 0.000321324
-0.000652557 -0.00130479 1.90833e-05
0.000321324 1.90833e-05 -0.00245663
0.00740839 -0.00204387 -1.46227e-05
-0.00204387 0.00143748 1.09141e-05
-1.46227e-05 1.09141e-05 0.00292437
0.000507204 3.77072e-05 2.74932e-06
3.77072e-05 -3.26653e-06 8.26061e-07
2.74932e-06 8.26061e-07 -9.667e-05
0.000907306 3.01673e-05 8.39803e-07
3.01673e-05 0.000222163 -6.43736e-07
8.39803e-07 -6.43736e-07 0.000128699
0.000931969 7.6244e-05 -2.43882e-06
7.6244e-05 0.000229973 -2.12329e-06
-2.43882e-06 -2.12329e-06 0.000131606
0.000636482 -5.91848e-05 -1.60002e-08
-5.91848e-05 5.43457e-05 -1.69213e-06
-1.60002e-08 -1.69213e-06 -3.64413e-05
0.00063012 5.67084e-05 -1.134e-06
5.67084e-05 4.16513e-05 -1.30935e-06
-1.134e-06 -1.30935e-06 -6.1965e-05
0.000771673 -3.24858e-05 3.23507e-07
-3.24858e-05 0.000125219 -3.17011e-07
3.23507e-07 -3.17011e-07 1.87011e-05
0.000855377 1.18551e-05 -1.12814e-06
1.18551e-05 0.000163856 2.12363e-06
-1.12814e-06 2.12363e-06 6.50404e-05
0.000662251 1.05384e-05 -5.50696e-07
1.05384e-05 4.87311e-05 1.33576e-06
-5.50696e-07 1.33576e-06 -3.94807e-05
0.00075522 7.14438e-05 -1.38529e-06
7.14438e-05 0.000116817 -4.67306e-07
-1.38529e-06 -4.67306e-07 4.50033e-06
0.000579928 -7.96358e-06 -1.71236e-08
-7.96358e-06 6.16094e-06 7.08353e-07
-1.71236e-08 7.08353e-07 -7.88053e-05
0.000686192 2.18164e-05 9.76741e-08
2.18164e-05 8.03902e-05 6.50937e-08
9.76741e-08 6.50937e-08 -3.18437e-05
0.000772145 1.99434e-05 6.79963e-07
1.99434e-05 0.000103132 2.86247e-07
6.79963e-07 2.86247e-07 1.69669e-05
0.000822966 3.44016e-05 -4.92302e-07
3.44016e-05 0.000140967 -1.31377e-07
-4.92302e-07 -1.31377e-07 3.70228e-05
0.000975306 7.68981e-05 -1.11399e-06
7.68981e-05 0.000230616 -1.04828e-06
-1.11399e-06 -1.04828e-06 0.000125006
0.000447244 3.67e-05 5.41287e-08
3.67e-05 -7.14563e-05 -2.53983e-06
5.41287e-08 -2.53983e-06 -0.000164953
0.000851527 7.29464e-05 1.48313e-06
7.29464e-05 0.000157782 6.03698e-07
1.48313e-06 6.03698e-07 5.00032e-05
0.000601743 -1.66913e-05 1.09133e-06
-1.66913e-05 1.85115e-05 9.23055e-08
1.09133e-06 9.23055e-08 -8.67967e-05
0.000491746 -4.84378e-05 -1.16715e-06
-4.84378e-05 -4.52356e-05 1.69417e-06
-1.16715e-06 1.69417e-06 -0.000133923
0.000793686 2.43366e-06 -9.22322e-07
2.43366e-06 0.000141428 -9.87615e-08
-9.22322e-07 -9.87615e-08 3.10125e-05
0.000796396 3.8602e-05 -1.54008e-07
3.8602e-05 0.000142565 -2.3226e-06
-1.54008e-07 -2.3226e-06 3.60333e-05
0.000674389 -1.56683e-05 -9.9453e-07
-1.56683e-05 8.08671e-05 -1.80872e-07
-9.9453e-07 -1.80872e-07 -2.29168e-05
0.000805104 -1.65628e-05 1.08135e-06
-1.65628e-05 0.000153504 -5.56341e-07
1.08135e-06 -5.56341e-07 4.66709e-05
0.000683462 -7.65388e-05 -2.20696e-06
-7.65388e-05 6.54554e-05 1.24972e-06
-2.20696e-06 1.24972e-06 -1.84478e-05
0.000498513 -5.90335e-06 1.17365e-07
-5.90335e-06 -4.02057e-05 7.6623e-07
1.17365e-07 7.6623e-07 -0.000129188
0.000614583 -1.10682e-05 -1.25783e-06
-1.10682e-05 7.08619e-06 2.12215e-06
-1.25783e-06 2.12215e-06 -4.34341e-05
0.000604903 -1.37617e-05 8.26225e-07
-1.37617e-05 5.89168e-06 -2.10459e-08
8.26225e-07 -2.10459e-08 -4.58208e-05
0.000600532 6.58582e-06 -3.51898e-07
6.58582e-06 -2.45963e-05 5.36205e-06
-3.51898e-07 5.36205e-06 -3.97903e-05
0.000602777 1.17536e-05 -6.33984e-07
1.17536e-05 3.51121e-06 -1.9468e-06
-6.33984e-07 -1.9468e-06 -4.67135e-05
0.000577527 2.57338e-06 3.4318e-07
2.57338e-06 -3.91933e-05 -1.43392e-08
3.4318e-07 -1.43392e-08 -5.37753e-05
0.00233653 -1.51494e-06 -4.90398e-07
-1.51494e-06 0.000998495 5.21467e-06
-4.90398e-07 5.21467e-06 0.00101477
0.000615401 -2.09277e-06 -5.30837e-07
-2.09277e-06 -1.74564e-05 -5.48401e-06
-5.30837e-07 -5.48401e-06 -3.16742e-05
0.00158345 -9.59682e-06 -9.35557e-08
-9.59682e-06 0.000553619 7.85878e-08
-9.35557e-08 7.85878e-08 0.000566005
0.000788731 -1.47261e-05 4.78684e-08
-1.47261e-05 8.46773e-05 -2.06416e-06
4.78684e-08 -2.06416e-06 9.35679e-05
0.000628732 -5.97951e-06 6.5743e-07
-5.97951e-06 8.37811e-06 -1.50263e-06
6.5743e-07 -1.50263e-06 -2.79617e-05
0.00064173 -1.30811e-05 4.55214e-07
-1.30811e-05 1.38989e-05 -2.74635e-08
4.55214e-07 -2.74635e-08 -2.3869e-05
0.00060876 1.42482e-05 3.06837e-07
1.42482e-05 -2.45318e-05 -3.25243e-06
3.06837e-07 -3.25243e-06 -3.15368e-05
0.00062541 -1.3882e-05 -1.52781e-06
-1.3882e-05 2.45686e-06 1.57085e-06
-1.52781e-06 1.57085e-06 -3.60483e-05
0.000883532 2.48744e-05 -7.41233e-08
2.48744e-05 0.000140329 -7.15177e-07
-7.41233e-08 -7.15177e-07 0.000133554
0.00205406 3.83058e-05 1.14186e-05
3.83058e-05 0.000838742 -4.3242e-06
1.14186e-05 -4.3242e-06 0.000855864
0.000582704 2.98034e-05 -4.18628e-07
2.98034e-05 -3.2477e-05 3.48236e-06
-4.18628e-07 3.48236e-06 -4.40998e-05
0.00217944 5.34625e-05 -7.30386e-06
5.34625e-05 0.000919768 1.13374e-06
-7.30386e-06 1.13374e-06 0.000933978
0.00227602 7.00213e-05 -1.82081e-05
7.00213e-05 0.000983511 4.03338e-06
-1.82081e-05 4.03338e-06 0.000994321
0.00189758 0.000120199 -2.60184e-06
0.000120199 1.60145e-05 -4.98793e-07
-2.60184e-06 -4.98793e-07 -1.47962e-05
0.00187271 1.87131e-06 -2.52217e-06
1.87131e-06 2.20791e-05 -3.33853e-08
-2.52217e-06 -3.33853e-08 2.92397e-06
0.00156115 4.90367e-05 1.16189e-05
4.90367e-05 -0.000175119 -9.68468e-07
1.16189e-05 -9.68468e-07 -0.000163998
0.00223146 0.000195957 3.25604e-05
0.000195957 -0.000334903 7.6015e-06
3.25604e-05 7.6015e-06 -0.000304449
0.00189712 -9.87704e-07 -2.80618e-06
-9.87704e-07 -2.4742e-05 -4.62861e-07
-2.80618e-06 -4.62861e-07 -1.62229e-05
0.00182935 4.32588e-05 4.21705e-06
4.32588e-05 0.000143184 -1.70475e-06
4.21705e-06 -1.70475e-06 0.000182313
0.00286737 -9.10717e-06 -2.59541e-05
-9.10717e-06 0.000732797 2.86476e-06
-2.59541e-05 2.86476e-06 0.000711835
0.00218891 -5.30581e-05 8.52426e-05
-5.30581e-05 -0.000967405 -1.69269e-05
8.52426e-05 -1.69269e-05 -0.000938677
0.00262082 5.439e-05 1.43212e-05
5.439e-05 0.00011414 1.23593e-05
1.43212e-05 1.23593e-05 0.000189746
0.000655111 6.61757e-05 -5.67221e-08
6.61757e-05 5.67495e-05 -7.34689e-07
-5.67221e-08 -7.34689e-07 -1.53807e-05
0.000675353 -7.81901e-06 6.68387e-07
-7.81901e-06 7.04684e-05 -1.79413e-07
6.68387e-07 -1.79413e-07 -3.30793e-06
0.000644529 -8.66358e-05 -2.84204e-07
-8.66358e-05 5.32309e-05 4.14133e-07
-2.84204e-07 4.14133e-07 -3.4243e-05
0.00067394 -3.57396e-05 -1.01773e-06
-3.57396e-05 8.84381e-05 1.07241e-06
-1.01773e-06 1.07241e-06 -1.12134e-05
0.00196305 -0.00010956 -4.88693e-06
-0.00010956 -2.13745e-05 4.72089e-07
-4.88693e-06 4.72089e-07 -2.05075e-05
0.00185946 -0.000226859 -2.98784e-07
-0.000226859 -6.82613e-06 7.84618e-07
-2.98784e-07 7.84618e-07 -8.20862e-06
0.00194164 -0.000343437 -4.6914e-06
-0.000343437 5.51731e-05 1.83828e-06
-4.6914e-06 1.83828e-06 -3.15937e-05
0.00201266 -0.00035228 6.35391e-06
-0.00035228 0.000664045 5.50832e-06
6.35391e-06 5.50832e-06 0.000440652
0.00124702 -0.000400864 9.06045e-06
-0.000400864 0.000114472 -3.62005e-06
9.06045e-06 -3.62005e-06 -0.000201773
0.00210552 -0.000466136 4.37294e-06
-0.000466136 0.000340634 -3.31343e-06
4.37294e-06 -3.31343e-06 0.000167179
0.0010343 -0.000277805 -4.55289e-06
-0.000277805 0.000188923 1.69415e-06
-4.55289e-06 1.69415e-06 -2.94611e-05
0.00154747 -0.000114198 5.37246e-08
-0.000114198 0.000601217 -5.33376e-07
5.37246e-08 -5.33376e-07 0.000387646
0.000323924 -7.66723e-05 -9.61462e-07
-7.66723e-05 -0.000154387 -2.43573e-07
-9.61462e-07 -2.43573e-07 -0.00029775
0.000697083 -3.36389e-05 -4.92701e-07
-3.36389e-05 7.54901e-05 1.26742e-06
-4.92701e-07 1.26742e-06 2.84057e-06
0.000667959 -8.04786e-05 8.58515e-08
-8.04786e-05 9.10087e-05 -1.58283e-06
8.58515e-08 -1.58283e-06 -5.02688e-05
0.000812586 -6.38273e-06 3.49771e-07
-6.38273e-06 0.000171671 -7.45425e-07
3.49771e-07 -7.45425e-07 5.64934e-05
0.000669479 8.37446e-06 2.69858e-07
8.37446e-06 7.00841e-05 3.57883e-07
2.69858e-07 3.57883e-07 -6.44962e-06
0.000590739 1.33279e-05 -2.3338e-06
1.33279e-05 2.37226e-05 2.75633e-06
-2.3338e-06 2.75633e-06 -7.28103e-05
0.00221096 -0.000183054 1.09344e-06
-0.000183054 0.000140565 6.35881e-07
1.09344e-06 6.35881e-07 0.000150194
0.000674047 -7.91902e-06 1.07445e-06
-7.91902e-06 7.91439e-05 -4.25591e-07
1.07445e-06 -4.25591e-07 -1.87188e-05
0.000698458 1.01377e-05 1.9913e-06
1.01377e-05 8.57862e-05 -2.36541e-07
1.9913e-06 -2.36541e-07 -1.58263e-05
0.000492915 5.26908e-05 1.80263e-09
5.26908e-05 -2.56371e-05 1.52205e-06
1.80263e-09 1.52205e-06 -0.000125679
0.00175137 -0.000243931 -1.13432e-06
-0.000243931 -0.000139056 -1.57778e-06
-1.13432e-06 -1.57778e-06 -0.000112291
0.00199192 -0.000455275 1.38249e-06
-0.000455275 0.000115989 -2.28629e-07
1.38249e-06 -2.28629e-07 -1.43325e-05
0.00141304 -0.00033515 -9.81385e-07
-0.00033515 0.000368927 -1.14282e-06
-9.81385e-07 -1.14282e-06 0.000122998
0.00217031 -0.000511464 -5.30761e-06
-0.000511464 0.000480891 1.84567e-06
-5.30761e-06 1.84567e-06 0.000257839
0.00105153 -6.39915e-05 -9.21457e-07
-6.39915e-05 0.000304955 6.5743e-07
-9.21457e-07 6.5743e-07 0.000179065
0.000590998 -7.45125e-05 -2.8186e-07
-7.45125e-05 1.52703e-05 9.88868e-07
-2.8186e-07 9.88868e-07 -0.0001195
0.000993702 -0.000342109 2.54216e-06
-0.000342109 0.000340388 -7.2753e-07
2.54216e-06 -7.2753e-07 1.46993e-05
0.00107181 -0.00015702 3.43505e-07
-0.00015702 0.000372543 8.99863e-08
3.43505e-07 8.99863e-08 0.000117563
0.00234652 -0.000205677 -1.90075e-05
-0.000205677 0.000156778 2.40087e-07
-1.90075e-05 2.40087e-07 0.000227938
0.00241547 -0.000380868 -1.96116e-05
-0.000380868 0.000231927 6.10254e-06
-1.96116e-05 6.10254e-06 0.000238704
0.00284049 -0.000600471 -9.66203e-06
-0.000600471 0.000652425 -5.73707e-06
-9.66203e-06 -5.73707e-06 0.000453658
0.00174142 -0.000452193 -3.59771e-06
-0.000452193 0.000439327 3.23444e-06
-3.59771e-06 3.23444e-06 0.000226247
0.000587283 2.46446e-06 -9.94476e-07
2.46446e-06 4.26516e-05 -2.35609e-06
-9.94476e-07 -2.35609e-06 -7.74263e-05
0.000546633 -7.0387e-05 -1.64976e-07
-7.0387e-05 1.34042e-05 -4.02278e-06
-1.64976e-07 -4.02278e-06 -0.000112399
0.000549286 -0.00010012 -1.59559e-06
-0.00010012 7.5063e-05 5.01523e-06
-1.59559e-06 5.01523e-06 -8.72668e-05
0.000262938 -0.000137428 9.49002e-07
-0.000137428 8.96813e-05 -6.9042e-06
9.49002e-07 -6.9042e-06 -0.00031281
0.000757215 -0.000336797 3.08233e-05
-0.000336797 -0.00277638 -4.69433e-06
3.08233e-05 -4.69433e-06 -0.00318203
0.00140129 9.52727e-05 7.65659e-07
9.52727e-05 0.000498231 -3.37046e-06
7.65659e-07 -3.37046e-06 0.000372474
0.000467925 0.000151762 3.44463e-06
0.000151762 -6.52657e-05 7.30977e-07
3.44463e-06 7.30977e-07 -0.000240783
0.00198644 0.000175393 4.29054e-05
0.000175393 0.000123526 7.57423e-06
4.29054e-05 7.57423e-06 0.000143117
0.00207109 0.000408552 1.49264e-05
0.000408552 0.000201009 7.42815e-06
1.49264e-05 7.42815e-06 8.10788e-05
0.0017374 0.000422203 5.42398e-06
0.000422203 0.000293424 6.24473e-06
5.42398e-06 6.24473e-06 1.97666e-05
0.000812646 0.000254188 5.66995e-06
0.000254188 1.22721e-05 2.35352e-06
5.66995e-06 2.35352e-06 -0.000244019
0.00299475 0.000464035 6.2569e-05
0.000464035 0.000175914 2.13104e-05
6.2569e-05 2.13104e-05 -0.000252322
0.00128935 0.000155607 2.26562e-06
0.000155607 0.000463735 1.1428e-08
2.26562e-06 1.1428e-08 0.000311789
0.00244472 0.000332159 -1.12266e-05
0.000332159 0.000409059 -1.032e-06
-1.12266e-05 -1.032e-06 0.000416352
0.00107877 0.000242856 1.09378e-06
0.000242856 0.000247413 1.97018e-07
1.09378e-06 1.97018e-07 5.84129e-05
0.00124546 0.000339121 1.70107e-06
0.000339121 0.000177579 -1.11312e-06
1.70107e-06 -1.11312e-06 -9.10429e-05
0.00132824 0.000470118 -5.84817e-06
0.000470118 -0.000104112 -1.50379e-06
-5.84817e-06 -1.50379e-06 -0.000301933
0.00306892 -0.000232461 -0.000102293
-0.000232461 -0.00162236 -3.14139e-05
-0.000102293 -3.14139e-05 -0.00258675
0.00532063 0.000578612 -1.38835e-05
0.000578612 0.000465056 -3.52422e-05
-1.38835e-05 -3.52422e-05 -8.27219e-05
0.000255902 0.000382504 -7.02593e-06
0.000382504 -0.000533176 8.02187e-06
-7.02593e-06 8.02187e-06 -0.000772286
-0.00131311 -0.000477727 0.000145801
-0.000477727 0.000943688 5.94868e-05
0.000145801 5.94868e-05 -0.000369797
0.000308873 -0.00203182 -9.62786e-05
-0.00203182 -0.00103725 -0.000113709
-9.62786e-05 -0.000113709 0.000646218
0.00108667 0.000175542 -5.10004e-06
0.000175542 0.000336131 -3.46922e-06
-5.10004e-06 -3.46922e-06 0.000198798
0.000491819 0.000374114 0.000149888
0.000374114 0.00152818 -1.97134e-05
0.000149888 -1.97134e-05 0.000481303
0.00119391 -0.000653357 -8.95815e-05
-0.000653357 0.00219575 -0.000152543
-8.95815e-05 -0.000152543 0.000748204
0.00241383 0.000471935 -2.62334e-05
0.000471935 0.000425574 -9.45967e-06
-2.62334e-05 -9.45967e-06 0.000458555
0.00096435 0.000164142 -1.22027e-05
0.000164142 0.000173559 -2.40903e-06
-1.22027e-05 -2.40903e-06 -1.61164e-05
-0.000123393 0.00038273 -1.84747e-05
0.00038273 -0.000567724 -1.38498e-05
-1.84747e-05 -1.38498e-05 -0.000850006
0.000183641 0.000434461 3.15737e-05
0.000434461 -0.000605589 6.4016e-05
3.15737e-05 6.4016e-05 -0.000737106
0.0112631 0.000617745 -2.32746e-05
0.000617745 0.0035222 -3.37853e-05
-2.32746e-05 -3.37853e-05 0.00201415
0.0030508 0.000911404 1.19682e-05
0.000911404 0.000595972 8.32311e-06
1.19682e-05 8.32311e-06 -0.000542065
0.00244278 -0.00179196 0.000230908
-0.00179196 -0.000262536 0.000175715
0.000230908 0.000175715 4.88189e-06
0.00475055 -0.000989605 -7.14768e-06
-0.000989605 -0.00089526 0.00021842
-7.14768e-06 0.00021842 0.000379649
0.000633705 1.77139e-05 1.49898e-06
1.77139e-05 7.73953e-05 -5.08942e-07
1.49898e-06 -5.08942e-07 -1.63469e-05
0.000801317 7.51301e-05 1.60496e-06
7.51301e-05 0.000161531 8.03732e-07
1.60496e-06 8.03732e-07 6.1716e-05
0.00148037 0.00013681 -2.92747e-06
0.00013681 0.000564878 -3.09207e-06
-2.92747e-06 -3.09207e-06 0.000472349
0.000643822 4.66536e-06 5.87201e-07
4.66536e-06 5.96647e-05 -4.16678e-07
5.87201e-07 -4.16678e-07 -3.48122e-05
0.00074498 3.31283e-05 -4.35556e-08
3.31283e-05 0.000113138 -1.31253e-06
-4.35556e-08 -1.31253e-06 2.54565e-06
0.000559582 -8.98188e-06 -1.05133e-06
-8.98188e-06 -9.61923e-06 -1.88727e-07
-1.05133e-06 -1.88727e-07 -0.000111482
0.000808388 4.15868e-05 -4.02839e-07
4.15868e-05 0.000132657 1.03723e-06
-4.02839e-07 1.03723e-06 3.2144e-05
0.000686621 2.09756e-05 1.50924e-08
2.09756e-05 5.14078e-05 1.05973e-06
1.50924e-08 1.05973e-06 -3.54473e-05
0.000480986 -1.07428e-06 2.90318e-07
-1.07428e-06 -4.79746e-05 7.61186e-07
2.90318e-07 7.61186e-07 -0.000138954
0.000830041 3.12667e-05 2.09647e-07
3.12667e-05 0.000147631 3.99767e-07
2.09647e-07 3.99767e-07 4.28753e-05
0.000819242 2.79743e-05 1.73505e-07
2.79743e-05 0.000140569 3.40612e-07
1.73505e-07 3.40612e-07 3.25592e-05
0.000712498 2.00813e-05 5.38339e-07
2.00813e-05 9.7376e-05 -3.39638e-07
5.38339e-07 -3.39638e-07 -1.69901e-05
0.000523883 4.03979e-05 -2.13512e-07
4.03979e-05 -2.58388e-05 -3.54484e-07
-2.13512e-07 -3.54484e-07 -0.000118742
0.00107752 4.58456e-05 -4.25024e-07
4.58456e-05 0.000288436 -1.7115e-06
-4.25024e-07 -1.7115e-06 0.000190373
9.36182e-05 3.85585e-05 -1.37785e-06
3.85585e-05 -0.00024752 -4.00204e-06
-1.37785e-06 -4.00204e-06 -0.000345274
0.000767695 -7.40151e-05 -2.77692e-08
-7.40151e-05 0.000111961 9.89279e-08
-2.77692e-08 9.89279e-08 -1.3041e-06
0.000792886 -5.57683e-05 -9.91232e-07
-5.57683e-05 0.000147877 -8.10683e-07
-9.91232e-07 -8.10683e-07 2.74588e-05
0.000814914 -2.43468e-05 -5.62763e-07
-2.43468e-05 0.000160358 -3.61117e-07
-5.62763e-07 -3.61117e-07 4.44987e-05
0.00081509 1.31279e-05 -5.81756e-07
1.31279e-05 0.000145574 -2.70726e-07
-5.81756e-07 -2.70726e-07 4.46401e-05
0.000865621 6.93633e-06 -2.14401e-06
6.93633e-06 0.000194713 -2.38004e-06
-2.14401e-06 -2.38004e-06 6.92614e-05
0.000744089 1.99358e-05 6.64825e-07
1.99358e-05 0.000110112 -1.12822e-06
6.64825e-07 -1.12822e-06 9.22256e-06
0.000236779 -1.28994e-05 1.85589e-07
-1.28994e-05 -0.000199588 -1.84568e-06
1.85589e-07 -1.84568e-06 -0.000287791
0.000625419 1.27451e-05 9.21186e-07
1.27451e-05 3.93412e-05 -1.95059e-08
9.21186e-07 -1.95059e-08 -5.93672e-05
0.000668307 -3.62182e-05 -6.74932e-08
-3.62182e-05 5.84727e-05 1.82816e-07
-6.74932e-08 1.82816e-07 -3.002e-05
0.000722914 -3.48899e-05 -2.20507e-07
-3.48899e-05 0.000103519 -1.30695e-08
-2.20507e-07 -1.30695e-08 2.50464e-06
0.000679197 -4.22658e-05 -1.82533e-06
-4.22658e-05 5.29533e-05 9.72185e-07
-1.82533e-06 9.72185e-07 -2.09702e-05
0.000717908 -2.6963e-05 1.55169e-06
-2.6963e-05 8.51753e-05 -3.18093e-07
1.55169e-06 -3.18093e-07 -1.14052e-05
0.000631361 -7.08406e-05 -9.6832e-09
-7.08406e-05 3.29248e-05 1.78879e-07
-9.6832e-09 1.78879e-07 -5.09849e-05
0.00064778 -9.54443e-06 -1.78791e-06
-9.54443e-06 2.19557e-05 2.29635e-06
-1.78791e-06 2.29635e-06 -2.80112e-05
0.000518302 -5.10276e-06 1.13927e-06
-5.10276e-06 -2.06704e-05 -5.45301e-07
1.13927e-06 -5.45301e-07 -0.000115157
0.000612746 4.95974e-06 1.00937e-06
4.95974e-06 8.60742e-06 -1.82628e-08
1.00937e-06 -1.82628e-08 -4.34332e-05
0.00137861 1.50964e-05 -2.76779e-06
1.50964e-05 0.000434681 5.27979e-06
-2.76779e-06 5.27979e-06 0.000423574
0.000606718 2.80033e-05 -3.5288e-07
2.80033e-05 6.98202e-06 -1.91536e-06
-3.5288e-07 -1.91536e-06 -4.46412e-05
0.000974865 7.57448e-06 -1.60174e-06
7.57448e-06 0.000196157 8.14905e-07
-1.60174e-06 8.14905e-07 0.000183194
0.000846548 3.58416e-06 -3.85452e-06
3.58416e-06 0.000119353 5.03745e-06
-3.85452e-06 5.03745e-06 0.000127468
0.000588111 2.03649e-06 1.15518e-07
2.03649e-06 -3.27453e-05 -3.68942e-06
1.15518e-07 -3.68942e-06 -4.7431e-05
0.00234694 1.9034e-07 4.20683e-06
1.9034e-07 0.00100473 -6.3199e-09
4.20683e-06 -6.3199e-09 0.00102093
0.000862338 -3.30489e-06 -4.02893e-06
-3.30489e-06 0.000128522 -5.11726e-06
-4.02893e-06 -5.11726e-06 0.000137058
0.000649835 6.58754e-05 1.65263e-06
6.58754e-05 6.03933e-05 -1.19937e-08
1.65263e-06 -1.19937e-08 -1.90769e-05
0.00061956 2.01377e-05 -1.07635e-06
2.01377e-05 6.95732e-06 -1.7542e-06
-1.07635e-06 -1.7542e-06 -3.06054e-05
0.000622405 -6.56721e-06 8.10772e-07
-6.56721e-06 5.91903e-06 3.48656e-09
8.10772e-07 3.48656e-09 -3.13662e-05
0.000611597 8.2018e-06 1.66663e-07
8.2018e-06 -2.39197e-05 -3.19859e-06
1.66663e-07 -3.19859e-06 -3.03109e-05
0.00064512 -2.72002e-05 -1.59041e-06
-2.72002e-05 1.68946e-05 1.61733e-06
-1.59041e-06 1.61733e-06 -2.18711e-05
0.000582645 1.41539e-05 1.17993e-08
1.41539e-05 -4.0452e-05 -7.57159e-07
1.17993e-08 -7.57159e-07 -4.71991e-05
0.00203051 2.55723e-05 7.63623e-06
2.55723e-05 0.000821138 -4.4871e-06
7.63623e-06 -4.4871e-06 0.000839686
0.00118644 3.08952e-05 -7.27563e-07
3.08952e-05 0.000319969 1.93274e-06
-7.27563e-07 1.93274e-06 0.000314476
0.0014843 3.29718e-05 1.64908e-07
3.29718e-05 0.000502471 1.41795e-06
1.64908e-07 1.41795e-06 0.000515629
0.000912087 3.63401e-05 -1.42691e-05
3.63401e-05 0.000169831 7.17822e-06
-1.42691e-05 7.17822e-06 0.000177157
0.00167811 0.000122536 6.41256e-05
0.000122536 -0.000547441 1.32255e-05
6.41256e-05 1.32255e-05 -0.000509029
0.0018852 -1.25346e-05 2.22705e-06
-1.25346e-05 -2.46396e-05 2.25207e-07
2.22705e-06 2.25207e-07 -1.73367e-05
0.00194659 5.56987e-05 3.38612e-05
5.56987e-05 0.000227543 -8.08091e-06
3.38612e-05 -8.08091e-06 0.000253947
0.00128908 9.2404e-05 -1.14564e-05
9.2404e-05 -0.00104077 -7.31964e-06
-1.14564e-05 -7.31964e-06 -0.000951924
0.00182049 4.45097e-05 1.6965e-05
4.45097e-05 -0.00024343 8.28588e-07
1.6965e-05 8.28588e-07 -0.000174019
0.00231993 -1.60773e-05 -4.30791e-07
-1.60773e-05 0.000358285 -1.84872e-06
-4.30791e-07 -1.84872e-06 0.000340279
0.00326854 -6.45087e-05 -5.94154e-05
-6.45087e-05 0.000712224 4.01244e-06
-5.94154e-05 4.01244e-06 0.000692122
0.00312526 -7.17999e-05 0.000105842
-7.17999e-05 0.000423878 -3.11326e-06
0.000105842 -3.11326e-06 0.000266674
0.00938791 -0.000379238 1.11286e-05
-0.000379238 0.00223041 2.74327e-05
1.11286e-05 2.74327e-05 0.000858707
0.00811679 0.00158525 0.000314028
0.00158525 0.0039045 -0.000137074
0.000314028 -0.000137074 0.00387015
0.00453379 0.00168554 -9.07209e-06
0.00168554 0.00318317 2.00883e-05
-9.07209e-06 2.00883e-05 0.00384699
0.000433 -8.08089e-05 2.2629e-06
-8.08089e-05 -6.18119e-05 3.32598e-08
2.2629e-06 3.32598e-08 -0.000152878
0.000673477 -1.03282e-05 1.32718e-06
-1.03282e-05 6.93561e-05 -1.58039e-07
1.32718e-06 -1.58039e-07 -4.47582e-06
0.000703569 -7.46668e-05 -1.59906e-06
-7.46668e-05 9.16696e-05 1.27887e-06
-1.59906e-06 1.27887e-06 1.32802e-05
0.00063543 -3.53975e-05 -3.05606e-07
-3.53975e-05 4.97527e-05 2.518e-07
-3.05606e-07 2.518e-07 -3.94953e-05
0.000684674 6.73956e-05 -4.85429e-07
6.73956e-05 9.74881e-05 1.53297e-06
-4.85429e-07 1.53297e-06 -1.04529e-05
0.000761119 0.000121269 1.32425e-06
0.000121269 0.000129675 2.85842e-06
1.32425e-06 2.85842e-06 2.13225e-05
0.000784015 -6.93096e-06 2.17393e-06
-6.93096e-06 0.000148815 -9.52378e-07
2.17393e-06 -9.52378e-07 4.81801e-05
0.000606908 -2.91228e-05 -7.64677e-07
-2.91228e-05 4.12531e-05 7.80348e-07
-7.64677e-07 7.80348e-07 -5.26959e-05
0.00209091 -0.000167428 3.6764e-06
-0.000167428 8.08947e-05 1.71105e-06
3.6764e-06 1.71105e-06 0.000100298
0.00179018 -0.000253855 5.78581e-06
-0.000253855 -0.000149064 -1.69487e-06
5.78581e-06 -1.69487e-06 -0.000126951
0.00152339 -0.000419832 2.03103e-06
-0.000419832 -0.000127995 4.02939e-06
2.03103e-06 4.02939e-06 -0.00024925
0.00130773 -0.00035081 9.40935e-06
-0.00035081 0.000299398 2.92053e-06
9.40935e-06 2.92053e-06 4.79406e-05
0.00180304 -0.000486132 4.20817e-06
-0.000486132 0.000291999 8.69314e-07
4.20817e-06 8.69314e-07 7.20407e-05
0.00168424 -0.000393104 1.67354e-06
-0.000393104 0.000728524 1.93902e-07
1.67354e-06 1.93902e-07 0.000392449
0.00188855 -0.000236042 -3.32223e-07
-0.000236042 0.000809733 -1.65974e-06
-3.32223e-07 -1.65974e-06 0.000558208
0.000749415 -0.000114732 1.54844e-06
-0.000114732 0.000109902 -1.54786e-06
1.54844e-06 -1.54786e-06 -3.85764e-05
0.000703885 -2.28275e-05 1.62594e-07
-2.28275e-05 9.34524e-05 2.36614e-06
1.62594e-07 2.36614e-06 -5.93076e-06
0.000919004 -3.10227e-05 6.66449e-07
-3.10227e-05 0.000215603 -5.55865e-06
6.66449e-07 -5.55865e-06 9.66973e-05
0.000938268 -1.99251e-05 1.35098e-06
-1.99251e-05 0.000236045 5.95375e-07
1.35098e-06 5.95375e-07 0.000137405
0.000679551 0.000110538 2.41821e-06
0.000110538 8.98983e-05 2.96561e-06
2.41821e-06 2.96561e-06 -7.1927e-06
0.00190705 -0.000197791 -5.63929e-08
-0.000197791 -3.83842e-05 1.22211e-06
-5.63929e-08 1.22211e-06 2.40711e-05
0.000691486 1.91144e-05 -1.61755e-06
1.91144e-05 0.000104441 2.77298e-07
-1.61755e-06 2.77298e-07 -1.45305e-05
0.000835112 -7.79015e-05 -1.72402e-06
-7.79015e-05 0.000175605 1.11645e-06
-1.72402e-06 1.11645e-06 5.68373e-05
0.00171023 -0.000356548 1.50635e-06
-0.000356548 -0.000145794 -1.66515e-06
1.50635e-06 -1.66515e-06 -0.000141359
0.00168523 -0.000513025 3.52764e-07
-0.000513025 4.34994e-05 1.49627e-06
3.52764e-07 1.49627e-06 -0.00013123
0.0012996 -0.000414757 -7.40281e-07
-0.000414757 0.00020327 -1.83207e-06
-7.40281e-07 -1.83207e-06 -2.54611e-05
0.000912446 -0.000128509 5.19211e-07
-0.000128509 0.000277253 -3.14219e-06
5.19211e-07 -3.14219e-06 9.74961e-05
0.00104643 -0.000192663 -6.32845e-07
-0.000192663 0.000490554 7.69489e-07
-6.32845e-07 7.69489e-07 0.00011908
0.0033843 -0.000321052 -2.81084e-05
-0.000321052 0.000766948 5.50127e-06
-2.81084e-05 5.50127e-06 0.000764743
0.00268901 -0.000504286 -2.85202e-05
-0.000504286 0.000472463 5.48263e-06
-2.85202e-05 5.48263e-06 0.000466531
0.00158063 -0.000547995 -8.32418e-06
-0.000547995 9.52587e-05 1.49443e-06
-8.32418e-06 1.49443e-06 -8.07398e-05
0.000537315 -0.000301723 -8.05422e-06
-0.000301723 -7.21103e-05 1.68638e-05
-8.05422e-06 1.68638e-05 -0.000305761
0.000675206 -0.000126553 1.53625e-06
-0.000126553 9.58866e-05 8.84075e-08
1.53625e-06 8.84075e-08 -4.00635e-05
0.000534924 -9.69896e-05 2.25799e-06
-9.69896e-05 4.39677e-05 -3.29279e-06
2.25799e-06 -3.29279e-06 -0.00010554
0.00105848 -7.45921e-05 2.27337e-07
-7.45921e-05 0.000492374 -6.47846e-06
2.27337e-07 -6.47846e-06 0.000173572
-0.00464148 -6.1464e-05 0.000254085
-6.1464e-05 -0.00309856 4.21404e-07
0.000254085 4.21404e-07 -0.00225728
0.00984518 -0.000130769 -4.03855e-06
-0.000130769 0.00284521 -8.81804e-07
-4.03855e-06 -8.81804e-07 0.00220132
0.00151563 0.000136596 4.51588e-06
0.000136596 0.000585082 -1.36925e-06
4.51588e-06 -1.36925e-06 0.000441839
0.000828736 0.000220784 3.76049e-06
0.000220784 0.000119628 -1.23729e-06
3.76049e-06 -1.23729e-06 -6.68035e-05
0.00198626 0.000299208 3.65509e-05
0.000299208 0.00014043 2.24514e-05
3.65509e-05 2.24514e-05 0.000170182
0.00253691 0.00056185 1.08874e-05
0.00056185 0.000518774 6.16271e-06
1.08874e-05 6.16271e-06 0.000321069
0.00175891 0.000396761 9.21081e-06
0.000396761 0.000467702 7.67917e-07
9.21081e-06 7.67917e-07 0.000191157
0.0100419 0.000483991 4.17863e-05
0.000483991 0.00255548 1.15824e-05
4.17863e-05 1.15824e-05 0.00144251
0.00741001 0.000870237 -0.000148943
0.000870237 0.00112263 -2.79947e-05
-0.000148943 -2.79947e-05 0.000661432
-0.000343586 0.00025622 2.4633e-06
0.00025622 -0.00068968 -1.79472e-05
2.4633e-06 -1.79472e-05 -0.000987804
0.00780833 -0.00128484 -7.62456e-05
-0.00128484 0.00375518 2.35008e-05
-7.62456e-05 2.35008e-05 0.00318069
-0.00754973 -0.0020581 -0.000534
-0.0020581 -0.00355474 -0.00040519
-0.000534 -0.00040519 -0.00188489
0.000931352 0.000167541 -3.83037e-07
0.000167541 0.000255853 -1.71933e-06
-3.83037e-07 -1.71933e-06 0.000118135
-0.0023664 -0.000610447 0.000113368
-0.000610447 -0.00200275 1.34308e-05
0.000113368 1.34308e-05 -0.0022008
-0.00241241 -0.000483312 -0.000131177
-0.000483312 0.00114208 -6.54667e-05
-0.000131177 -6.54667e-05 -0.000627533
0.00280663 0.000443572 -8.09305e-06
0.000443572 0.000648502 -5.37669e-07
-8.09305e-06 -5.37669e-07 0.000678057
0.000846453 0.000198561 -2.15676e-06
0.000198561 0.00013712 9.68642e-07
-2.15676e-06 9.68642e-07 -6.79878e-05
0.000896571 0.000409984 3.07e-06
0.000409984 -1.39533e-05 1.67506e-06
3.07e-06 1.67506e-06 -0.000290413
0.00107906 0.000370258 1.38989e-05
0.000370258 -1.1922e-05 1.31602e-05
1.38989e-05 1.31602e-05 -4.20844e-05
0.0081028 0.000469911 -4.99267e-05
0.000469911 0.00131014 -2.66189e-05
-4.99267e-05 -2.66189e-05 -0.00045719
0.00637595 0.00125703 -5.47185e-05
0.00125703 0.00164701 -2.23261e-05
-5.47185e-05 -2.23261e-05 0.000868239
0.00946833 -0.00150691 0.000113743
-0.00150691 0.00439449 -4.61522e-05
0.000113743 -4.61522e-05 0.00427579
0.00399612 -0.0011992 0.000129807
-0.0011992 -0.00151824 0.000272951
0.000129807 0.000272951 -0.000252382
0.00145947 0.000152255 -1.47411e-05
0.000152255 0.000576927 -7.56639e-06
-1.47411e-05 -7.56639e-06 0.000455218
-0.00520077 0.000218714 -8.4705e-05
0.000218714 0.000765421 -4.80358e-05
-8.4705e-05 -4.80358e-05 -0.00162687
0.00299298 0.000255106 -0.000142167
0.000255106 0.00142514 -0.000199614
-0.000142167 -0.000199614 -0.000931433
0.000975346 0.000376689 -1.65144e-05
0.000376689 -6.6242e-05 5.75317e-06
-1.65144e-05 5.75317e-06 -7.30913e-05
0.00103522 0.000392867 -4.32483e-05
0.000392867 0.000315629 -1.54458e-05
-4.32483e-05 -1.54458e-05 6.85743e-05
0.00237146 0.000334888 -6.6088e-05
0.000334888 0.00119609 -5.6779e-06
-6.6088e-05 -5.6779e-06 0.000837794
0.002568 0.000923616 -4.26748e-05
0.000923616 0.000261361 -1.54028e-05
-4.26748e-05 -1.54028e-05 -4.48997e-05
0.00135513 0.000636613 0.000138775
0.000636613 5.67448e-05 0.000103309
0.000138775 0.000103309 -0.00250685
0.00960177 -0.00169244 5.70781e-05
-0.00169244 0.00315388 0.000235605
5.70781e-05 0.000235605 0.00272904
0.00386522 -0.000770518 -4.12027e-05
-0.000770518 -0.00197352 -3.65263e-05
-4.12027e-05 -3.65263e-05 -0.000751099
0.000833677 9.16006e-05 3.39509e-06
9.16006e-05 0.000187139 3.28827e-06
3.39509e-06 3.28827e-06 8.12413e-05
0.00125079 0.000122434 5.29055e-06
0.000122434 0.00042496 2.65587e-06
5.29055e-06 2.65587e-06 0.000334276
8.4828e-05 4.21279e-05 3.01246e-06
4.21279e-05 -0.000200087 -3.18551e-06
3.01246e-06 -3.18551e-06 -0.000284151
0.000486631 4.4644e-05 1.19729e-06
4.4644e-05 -4.56735e-05 -1.13362e-07
1.19729e-06 -1.13362e-07 -0.000136063
0.000765403 5.02919e-05 -7.0643e-07
5.02919e-05 0.00013422 -1.09629e-06
-7.0643e-07 -1.09629e-06 1.68277e-05
0.000762144 -5.95558e-06 -3.06873e-07
-5.95558e-06 0.000107509 9.23719e-07
-3.06873e-07 9.23719e-07 1.25135e-08
0.000786477 4.17728e-08 1.92524e-06
4.17728e-08 0.00012844 3.32721e-07
1.92524e-06 3.32721e-07 2.06396e-05
0.000553999 3.35145e-05 4.97242e-07
3.35145e-05 -6.67674e-06 2.74807e-06
4.97242e-07 2.74807e-06 -9.79742e-05
0.000784083 4.22309e-05 -1.96791e-08
4.22309e-05 0.000143457 -7.82937e-07
-1.96791e-08 -7.82937e-07 2.28627e-05
0.000880728 3.73139e-05 -7.10937e-08
3.73139e-05 0.000172539 2.63075e-07
-7.10937e-08 2.63075e-07 7.40494e-05
0.000793592 -3.28524e-05 -3.71625e-07
-3.28524e-05 0.0001292 4.89216e-07
-3.71625e-07 4.89216e-07 1.42673e-05
0.000138885 3.48727e-05 -9.99711e-09
3.48727e-05 -0.000209545 4.59745e-07
-9.99711e-09 4.59745e-07 -0.000306766
-0.000394146 2.06551e-05 -1.80986e-06
2.06551e-05 -0.000398843 -2.74682e-06
-1.80986e-06 -2.74682e-06 -0.000515504
0.000913189 -2.72682e-06 -2.48343e-06
-2.72682e-06 0.000202103 -3.53564e-06
-2.48343e-06 -3.53564e-06 9.37397e-05
0.000935084 1.0785e-05 -6.27122e-07
1.0785e-05 0.000230695 -1.0763e-06
-6.27122e-07 -1.0763e-06 9.27378e-05
0.000823317 -5.4253e-05 5.76486e-08
-5.4253e-05 0.000168808 -6.9571e-07
5.76486e-08 -6.9571e-07 4.95836e-05
0.000878298 -2.47228e-05 -9.48539e-08
-2.47228e-05 0.000176203 1.23881e-06
-9.48539e-08 1.23881e-06 7.83683e-05
0.000851408 -4.79961e-05 1.76252e-07
-4.79961e-05 0.000176179 -6.11565e-07
1.76252e-07 -6.11565e-07 5.71926e-05
0.00077263 1.40176e-05 -2.5727e-07
1.40176e-05 0.00012338 -9.70964e-08
-2.5727e-07 -9.70964e-08 2.35054e-05
0.000485513 -3.96925e-05 1.01747e-07
-3.96925e-05 -5.25427e-05 7.80967e-07
1.01747e-07 7.80967e-07 -0.000141962
0.000656584 2.15814e-05 7.37034e-07
2.15814e-05 5.84417e-05 4.84136e-07
7.37034e-07 4.84136e-07 -3.86953e-05
0.000460463 -1.55171e-05 -1.16397e-06
-1.55171e-05 -4.0477e-05 -3.27386e-06
-1.16397e-06 -3.27386e-06 -0.000151508
0.000486972 -3.17133e-05 1.62279e-06
-3.17133e-05 -5.21837e-05 -1.04961e-06
1.62279e-06 -1.04961e-06 -0.000139627
0.000782549 -1.98318e-05 3.76188e-06
-1.98318e-05 9.80457e-05 -4.82473e-06
3.76188e-06 -4.82473e-06 2.45639e-06
0.000101708 -4.1852e-05 1.16534e-06
-4.1852e-05 -0.000252166 5.9963e-07
1.16534e-06 5.9963e-07 -0.000401411
0.000317953 1.60508e-05 -3.28455e-07
1.60508e-05 -0.000127861 -1.02569e-06
-3.28455e-07 -1.02569e-06 -0.000234156
0.000726612 5.82974e-06 2.43539e-07
5.82974e-06 9.66956e-05 3.95951e-07
2.43539e-07 3.95951e-07 -3.59124e-06
0.000656702 -1.30426e-06 -3.84752e-08
-1.30426e-06 5.28492e-05 3.27109e-07
-3.84752e-08 3.27109e-07 -3.58922e-05
0.00072632 -1.92791e-05 -1.39345e-07
-1.92791e-05 0.000103937 -4.68143e-08
-1.39345e-07 -4.68143e-08 7.04839e-06
0.000609064 5.55405e-06 -6.66537e-07
5.55405e-06 1.89316e-05 8.05144e-07
-6.66537e-07 8.05144e-07 -5.65756e-05
0.000768458 -1.66802e-05 3.55854e-07
-1.66802e-05 0.000128077 2.87467e-08
3.55854e-07 2.87467e-08 2.83504e-05
0.00068872 -3.86525e-05 -3.81349e-07
-3.86525e-05 6.57823e-05 8.2023e-08
-3.81349e-07 8.2023e-08 -1.29021e-05
0.000597287 3.98978e-05 -8.00904e-07
3.98978e-05 -8.16379e-06 2.1975e-06
-8.00904e-07 2.1975e-06 -5.91694e-05
0.000577411 -6.2012e-05 1.56874e-06
-6.2012e-05 -3.2454e-06 -9.02677e-07
1.56874e-06 -9.02677e-07 -8.54751e-05
0.000623061 4.52292e-06 -2.5397e-07
4.52292e-06 7.62286e-06 -1.70878e-08
-2.5397e-07 -1.70878e-08 -4.22572e-05
0.00137639 2.45149e-05 -4.69881e-06
2.45149e-05 0.000433216 5.37184e-06
-4.69881e-06 5.37184e-06 0.000421839
0.000612915 -1.60375e-05 8.6481e-07
-1.60375e-05 7.44747e-06 -1.95378e-06
8.6481e-07 -1.95378e-06 -4.37466e-05
0.000966827 1.39116e-05 -2.56617e-06
1.39116e-05 0.000191093 7.54725e-07
-2.56617e-06 7.54725e-07 0.000178209
0.000779781 1.46081e-05 -2.36599e-07
1.46081e-05 7.95892e-05 1.98082e-06
-2.36599e-07 1.98082e-06 8.77877e-05
0.000573021 5.1257e-06 5.47297e-07
5.1257e-06 -4.19025e-05 -3.7157e-06
5.47297e-07 -3.7157e-06 -5.66772e-05
0.00235481 1.32745e-05 3.88772e-06
1.32745e-05 0.00100985 4.84903e-08
3.88772e-06 4.84903e-08 0.0010258
0.0023511 1.92707e-06 -5.15259e-07
1.92707e-06 0.00100726 -5.22707e-06
-5.15259e-07 -5.22707e-06 0.00102337
0.000999071 7.16778e-05 -1.2162e-06
7.16778e-05 0.000259551 -8.79245e-07
-1.2162e-06 -8.79245e-07 0.00018273
0.000630726 3.03017e-05 -1.10576e-06
3.03017e-05 1.57898e-05 -1.94232e-06
-1.10576e-06 -1.94232e-06 -2.42071e-05
0.000659474 -6.28959e-06 6.73149e-07
-6.28959e-06 6.47242e-05 8.70846e-07
6.73149e-07 8.70846e-07 -1.36556e-05
0.000612935 2.75439e-06 6.28689e-08
2.75439e-06 -2.36983e-05 -3.33983e-06
6.28689e-08 -3.33983e-06 -3.00728e-05
0.000621445 -9.09664e-06 2.30486e-07
-9.09664e-06 8.15229e-06 -2.86954e-08
2.30486e-07 -2.86954e-08 -2.95225e-05
0.000633205 -2.66794e-05 -1.34775e-06
-2.66794e-05 1.28462e-05 1.43149e-06
-1.34775e-06 1.43149e-06 -2.50444e-05
0.000597411 8.00976e-06 -1.92512e-07
8.00976e-06 -3.23357e-05 -2.38656e-08
-1.92512e-07 -2.38656e-08 -3.86617e-05
0.00202549 1.32582e-05 3.22983e-06
1.32582e-05 0.000815735 -4.64457e-06
3.22983e-06 -4.64457e-06 0.000835046
0.00117114 2.0439e-05 -6.62136e-07
2.0439e-05 0.000307756 1.91826e-06
-6.62136e-07 1.91826e-06 0.000304203
0.00141302 2.19682e-05 1.14195e-06
2.19682e-05 0.000455467 2.89186e-08
1.14195e-06 2.89186e-08 0.00047064
0.000870088 2.6104e-05 -1.31846e-05
2.6104e-05 0.000138895 7.05179e-06
-1.31846e-05 7.05179e-06 0.000149252
-0.00795431 0.000327714 0.000192208
0.000327714 -0.00351239 2.34538e-06
0.000192208 2.34538e-06 -0.00429595
-0.00191262 8.58054e-05 0.000217359
8.58054e-05 0.00157931 1.29847e-05
0.000217359 1.29847e-05 0.00020113
0.0042229 0.000215375 -0.000209084
0.000215375 0.000295234 -1.26206e-05
-0.000209084 -1.26206e-05 0.000492294
0.000458268 3.77794e-05 3.32047e-05
3.77794e-05 -0.000902723 -7.24163e-06
3.32047e-05 -7.24163e-06 -0.000888966
0.00147001 -2.48192e-05 1.87863e-05
-2.48192e-05 -0.000197605 -6.36926e-07
1.87863e-05 -6.36926e-07 -0.000213657
0.000442705 4.98647e-05 -7.13757e-07
4.98647e-05 -0.000707261 -5.59588e-06
-7.13757e-07 -5.59588e-06 -0.000694504
0.00252047 -0.000102624 2.50015e-08
-0.000102624 0.000243111 3.68508e-06
2.50015e-08 3.68508e-06 0.000207216
0.00863623 0.000128257 4.34066e-05
0.000128257 0.00146321 -3.00614e-05
4.34066e-05 -3.00614e-05 0.00044787
-0.00336636 0.000932411 -2.99212e-05
0.000932411 -0.000895653 -1.03781e-05
-2.99212e-05 -1.03781e-05 -0.00193344
-0.00142415 0.00181017 -0.000106991
0.00181017 -0.000137083 5.16841e-05
-0.000106991 5.16841e-05 0.0011179
0.00171791 -0.000218087 5.65067e-05
-0.000218087 -0.000616213 2.20424e-06
5.65067e-05 2.20424e-06 -0.000757795
0.0117995 -0.000249361 8.31933e-05
-0.000249361 0.00343112 -3.0814e-05
8.31933e-05 -3.0814e-05 0.00197994
0.00243034 0.00173944 0.00011932
0.00173944 2.04944e-05 -0.000227544
0.00011932 -0.000227544 0.000503602
0.00586681 0.00129546 -0.000168473
0.00129546 0.000567275 0.000110307
-0.000168473 0.000110307 0.000788018
0.000685278 7.27743e-05 -1.53522e-06
7.27743e-05 0.000106094 1.04908e-06
-1.53522e-06 1.04908e-06 -1.6636e-05
0.000537916 1.34103e-05 -1.9666e-07
1.34103e-05 -4.60906e-06 -7.5232e-07
-1.9666e-07 -7.5232e-07 -9.23109e-05
0.000689161 -8.38372e-05 -1.08572e-06
-8.38372e-05 8.30003e-05 8.9124e-07
-1.08572e-06 8.9124e-07 5.30207e-06
0.000567062 -3.49354e-06 4.02154e-07
-3.49354e-06 1.62648e-05 3.94871e-08
4.02154e-07 3.94871e-08 -7.73193e-05
0.000665669 6.27478e-05 9.24739e-07
6.27478e-05 9.15146e-05 1.48665e-06
9.24739e-07 1.48665e-06 -1.68044e-05
0.0008626 7.40875e-05 8.24785e-09
7.40875e-05 0.000205079 1.09115e-06
8.24785e-09 1.09115e-06 8.11673e-05
0.000763838 8.76549e-05 1.65009e-06
8.76549e-05 0.00014001 1.82472e-06
1.65009e-06 1.82472e-06 2.81969e-05
0.000676163 9.1838e-06 2.15316e-06
9.1838e-06 7.33285e-05 1.1384e-08
2.15316e-06 1.1384e-08 -3.39873e-05
0.000678903 -1.8189e-05 7.88035e-07
-1.8189e-05 8.91871e-05 -9.57964e-07
7.88035e-07 -9.57964e-07 -1.49145e-05
0.000539855 -9.07423e-06 -6.25818e-07
-9.07423e-06 -6.00232e-06 -1.36454e-08
-6.25818e-07 -1.36454e-08 -9.42625e-05
0.0014958 -0.000183797 1.62936e-05
-0.000183797 -0.00021387 -1.08834e-06
1.62936e-05 -1.08834e-06 -0.000159407
0.00143483 -0.000349052 1.84916e-05
-0.000349052 -0.000282465 -4.48277e-06
1.84916e-05 -4.48277e-06 -0.00028951
0.000208321 -0.000395754 1.24295e-05
-0.000395754 -0.000734238 3.03657e-06
1.24295e-05 3.03657e-06 -0.000879413
0.000670761 -0.0003647 2.84501e-06
-0.0003647 -0.000124058 -3.15147e-07
2.84501e-06 -3.15147e-07 -0.000360427
0.00185136 -0.00023605 8.33671e-07
-0.00023605 0.000902486 8.45281e-06
8.33671e-07 8.45281e-06 0.000563722
0.0010811 -0.000174511 1.37268e-06
-0.000174511 0.000377367 -3.65781e-07
1.37268e-06 -3.65781e-07 0.000174726
0.000970434 -7.82708e-05 -4.19654e-07
-7.82708e-05 0.000242908 -7.38536e-08
-4.19654e-07 -7.38536e-08 0.000134017
0.000709407 2.91898e-05 -1.39964e-06
2.91898e-05 0.00011585 1.8359e-06
-1.39964e-06 1.8359e-06 -4.04597e-07
0.00177964 -0.000234895 4.01948e-06
-0.000234895 -6.17936e-05 -2.40944e-06
4.01948e-06 -2.40944e-06 -3.91262e-05
0.000660181 -5.746e-05 -2.93334e-07
-5.746e-05 8.99155e-05 -2.23898e-07
-2.93334e-07 -2.23898e-07 -4.75722e-05
0.000406803 -7.83736e-05 7.99955e-07
-7.83736e-05 -2.57852e-05 -1.35746e-06
7.99955e-07 -1.35746e-06 -0.00017914
0.00216293 -0.000477127 6.03185e-06
-0.000477127 0.000204323 -5.3702e-07
6.03185e-06 -5.3702e-07 0.000184644
0.001228 -0.000519923 7.42299e-07
-0.000519923 -9.43755e-05 4.24729e-06
7.42299e-07 4.24729e-06 -0.000260925
0.000830726 -0.000370024 1.01784e-05
-0.000370024 8.96868e-05 -4.97586e-06
1.01784e-05 -4.97586e-06 -0.000167297
0.0014798 -0.000127127 -5.42877e-07
-0.000127127 0.000703282 -3.49206e-06
-5.42877e-07 -3.49206e-06 0.000403643
0.0014594 -0.000344037 -2.19177e-05
-0.000344037 0.000127299 3.11327e-06
-2.19177e-05 3.11327e-06 -0.000126341
0.00130837 -0.000393823 -3.39997e-05
-0.000393823 4.1529e-05 9.49591e-06
-3.39997e-05 9.49591e-06 -1.2846e-05
9.63682e-05 -0.000231276 -2.40155e-05
-0.000231276 -0.000146886 3.90267e-05
-2.40155e-05 3.90267e-05 -0.000438699
0.000135805 1.97743e-05 -2.2121e-08
1.97743e-05 -0.000208325 1.64329e-06
-2.2121e-08 1.64329e-06 -0.000345122
0.000422982 -0.000106632 2.10852e-06
-0.000106632 -2.55355e-05 -1.202e-06
2.10852e-06 -1.202e-06 -0.000178778
0.000727678 -8.46685e-05 2.5238e-06
-8.46685e-05 0.000220893 -5.56072e-06
2.5238e-06 -5.56072e-06 -3.05564e-06
0.00022327 0.000202366 -0.000141629
0.000202366 0.00334783 2.40305e-06
-0.000141629 2.40305e-06 0.00176971
0.00190095 -0.000355574 1.7296e-05
-0.000355574 0.00142661 2.13065e-05
1.7296e-05 2.13065e-05 0.00133656
0.000688827 0.000643769 -6.28781e-05
0.000643769 -0.00290723 1.33057e-05
-6.28781e-05 1.33057e-05 -0.00346734
0.000697114 0.000151546 5.5088e-06
0.000151546 0.000133883 1.57668e-06
5.5088e-06 1.57668e-06 -1.64777e-06
0.000738602 0.00023343 6.07231e-06
0.00023343 0.000103144 6.57536e-06
6.07231e-06 6.57536e-06 -0.00011586
0.00264179 0.000406698 2.2599e-05
0.000406698 0.000536638 1.06844e-05
2.2599e-05 1.06844e-05 0.000579341
0.00218337 0.000441916 1.90861e-05
0.000441916 0.000678243 1.21642e-05
1.90861e-05 1.21642e-05 0.000408372
0.00665255 -0.000713157 5.92555e-05
-0.000713157 0.002503 3.61914e-05
5.92555e-05 3.61914e-05 0.00268347
0.00255024 -1.7334e-05 -0.00013503
-1.7334e-05 -0.00150749 -9.52269e-06
-0.00013503 -9.52269e-06 -0.0031268
0.00295464 0.00113321 -7.92039e-05
0.00113321 -0.000357473 -1.55211e-05
-7.92039e-05 -1.55211e-05 -0.00107049
0.000480255 0.000224601 2.64109e-05
0.000224601 -0.0001483 -2.23198e-05
2.64109e-05 -2.23198e-05 -0.000138413
-0.00359482 -0.000806142 -8.35446e-05
-0.000806142 -0.00103729 -0.000114061
-8.35446e-05 -0.000114061 -0.00143306
-0.000418176 -0.000752046 -7.70327e-05
-0.000752046 0.00123325 1.36168e-06
-7.70327e-05 1.36168e-06 -0.000549001
0.00863134 -0.00158545 0.000189442
-0.00158545 0.000893747 0.000147248
0.000189442 0.000147248 0.00222609
0.000645922 0.000114025 5.39029e-06
0.000114025 0.000129254 -2.41615e-06
5.39029e-06 -2.41615e-06 1.30046e-06
-0.00179272 2.81599e-05 -7.38319e-05
2.81599e-05 0.00181124 -2.26629e-05
-7.38319e-05 -2.26629e-05 -0.000220656
0.00331758 0.000286507 -1.7372e-05
0.000286507 0.00151725 -6.31001e-05
-1.7372e-05 -6.31001e-05 -0.000917026
0.00124865 0.000367645 -6.77695e-06
0.000367645 0.000119177 4.23031e-06
-6.77695e-06 4.23031e-06 6.74132e-05
0.000633261 0.000262065 -4.67613e-07
0.000262065 0.000125379 2.08775e-06
-4.67613e-07 2.08775e-06 -0.000114508
-0.000367732 0.000241637 2.67378e-05
0.000241637 -0.000312144 -3.50839e-05
2.67378e-05 -3.50839e-05 -0.000570889
0.00547596 0.00135461 -8.28688e-06
0.00135461 0.00183106 4.606e-06
-8.28688e-06 4.606e-06 0.00117188
0.0107386 0.00067969 5.44162e-05
0.00067969 0.0037795 2.08033e-05
5.44162e-05 2.08033e-05 0.00185302
0.00344879 -0.00109574 1.97505e-05
-0.00109574 -0.000591975 -3.70212e-05
1.97505e-05 -3.70212e-05 -0.000918023
0.00848868 -0.00104454 9.68655e-06
-0.00104454 0.00107939 -2.89537e-05
9.68655e-06 -2.89537e-05 0.00222811
0.00110377 0.000205595 -1.37566e-05
0.000205595 0.000446394 -1.00062e-05
-1.37566e-05 -1.00062e-05 0.000317429
0.00260661 3.93937e-05 -0.00010018
3.93937e-05 0.000879908 -3.43e-05
-0.00010018 -3.43e-05 -0.000670876
-0.000130193 7.20839e-05 -3.44471e-05
7.20839e-05 0.000110692 -8.8167e-05
-3.44471e-05 -8.8167e-05 -0.00147715
-0.000976332 5.64282e-05 -1.62317e-05
5.64282e-05 -0.000470383 -1.73459e-05
-1.62317e-05 -1.73459e-05 -0.000624574
0.00176653 0.000362843 -3.59126e-05
0.000362843 0.000821757 4.29915e-05
-3.59126e-05 4.29915e-05 0.000137566
0.00953687 0.00102345 3.9853e-05
0.00102345 0.00389357 4.9337e-07
3.9853e-05 4.9337e-07 0.00102038
-0.00684449 -0.00161867 -4.09903e-05
-0.00161867 -0.00382628 0.000108959
-4.09903e-05 0.000108959 -0.00574226
0.00697218 0.000362773 1.22894e-05
0.000362773 -0.000832133 -0.000153007
1.22894e-05 -0.000153007 0.000898575
0.000980031 9.79019e-05 2.74188e-06
9.79019e-05 0.000256335 6.59768e-06
2.74188e-06 6.59768e-06 0.000171413
0.000924543 0.000111132 -4.3154e-06
0.000111132 0.000291805 -1.14129e-06
-4.3154e-06 -1.14129e-06 0.000197461
0.000223619 6.37085e-05 -3.37166e-06
6.37085e-05 2.63487e-05 -1.52651e-06
-3.37166e-06 -1.52651e-06 -0.000116262
0.000786426 7.85162e-05 -2.38519e-06
7.85162e-05 0.000135014 -9.18003e-07
-2.38519e-06 -9.18003e-07 2.12787e-05
0.000858386 -2.84226e-05 -7.4128e-07
-2.84226e-05 0.000176945 9.20525e-07
-7.4128e-07 9.20525e-07 5.51935e-05
0.000668576 3.72299e-05 7.88947e-07
3.72299e-05 4.82124e-05 1.79315e-06
7.88947e-07 1.79315e-06 -5.14905e-05
0.000179318 3.12746e-05 1.48618e-06
3.12746e-05 -0.00017402 2.65746e-06
1.48618e-06 2.65746e-06 -0.00027097
0.000837371 -2.01637e-06 1.01524e-06
-2.01637e-06 0.000157383 1.17791e-07
1.01524e-06 1.17791e-07 3.20851e-05
0.000862916 2.0748e-05 1.46262e-07
2.0748e-05 0.000176887 -7.8547e-07
1.46262e-07 -7.8547e-07 6.66686e-05
0.000277446 -2.07719e-06 -5.55565e-08
-2.07719e-06 -9.6424e-07 1.80354e-06
-5.55565e-08 1.80354e-06 -0.000127369
-0.000319299 1.65073e-05 -4.48998e-06
1.65073e-05 -0.0001651 -1.56276e-06
-4.48998e-06 -1.56276e-06 -0.000333678
0.000891899 -9.079e-06 -2.09112e-06
-9.079e-06 0.000311495 -7.68586e-06
-2.09112e-06 -7.68586e-06 0.000193953
0.000946965 4.43911e-05 -1.41793e-06
4.43911e-05 0.000234619 -3.45233e-06
-1.41793e-06 -3.45233e-06 0.000107881
0.000872077 -9.84308e-05 1.67567e-06
-9.84308e-05 0.000176855 9.03412e-07
1.67567e-06 9.03412e-07 6.44974e-05
0.000766756 1.59849e-05 -2.68057e-07
1.59849e-05 0.000116677 6.07171e-08
-2.68057e-07 6.07171e-08 1.834e-05
0.000672483 -4.76168e-05 -1.96554e-06
-4.76168e-05 5.80692e-05 2.74033e-06
-1.96554e-06 2.74033e-06 -3.07403e-05
0.000534305 -2.77219e-05 1.48086e-06
-2.77219e-05 -8.76594e-06 1.18429e-06
1.48086e-06 1.18429e-06 -0.000112146
0.000730429 1.75331e-05 2.83314e-07
1.75331e-05 0.000101985 9.85487e-08
2.83314e-07 9.85487e-08 3.23957e-06
0.000628016 -1.57594e-05 -7.51987e-07
-1.57594e-05 3.02862e-05 1.86139e-09
-7.51987e-07 1.86139e-09 -5.65187e-05
0.000910493 -9.70462e-06 -2.58698e-07
-9.70462e-06 0.000184292 -2.57988e-06
-2.58698e-07 -2.57988e-06 9.295e-05
0.000135643 -3.43983e-05 3.01713e-06
-3.43983e-05 -0.000211246 -4.00079e-06
3.01713e-06 -4.00079e-06 -0.000289416
0.000301642 -8.56102e-05 1.86184e-06
-8.56102e-05 -0.000230338 -1.43863e-06
1.86184e-06 -1.43863e-06 -0.000325467
0.000872885 -4.63589e-05 -2.26514e-06
-4.63589e-05 0.000155756 -3.71022e-07
-2.26514e-06 -3.71022e-07 5.55365e-05
0.0005057 -8.96962e-05 4.8653e-06
-8.96962e-05 -3.31811e-05 2.46093e-06
4.8653e-06 2.46093e-06 -0.000172534
0.00116679 -0.000224809 -1.00089e-06
-0.000224809 0.000316284 6.68025e-06
-1.00089e-06 6.68025e-06 0.000101681
0.00124193 -0.00010048 1.87365e-06
-0.00010048 0.000414567 -1.59144e-06
1.87365e-06 -1.59144e-06 0.000284603
0.000311898 -6.54813e-05 -1.90973e-06
-6.54813e-05 -0.000118386 -4.4687e-06
-1.90973e-06 -4.4687e-06 -0.000266306
0.000639641 1.56528e-06 -3.12821e-07
1.56528e-06 5.15252e-05 -1.7278e-07
-3.12821e-07 -1.7278e-07 -5.28872e-05
0.000372973 5.60136e-06 5.57971e-07
5.60136e-06 -0.000101287 -1.04937e-07
5.57971e-07 -1.04937e-07 -0.000198104
0.000849834 -6.20467e-06 -3.90762e-07
-6.20467e-06 0.000167122 9.61983e-07
-3.90762e-07 9.61983e-07 6.50014e-05
0.000746284 -2.83734e-05 -5.62155e-07
-2.83734e-05 0.000113837 5.63017e-07
-5.62155e-07 5.63017e-07 1.6772e-05
0.000641167 -1.04605e-05 -6.70978e-07
-1.04605e-05 3.40499e-05 8.25201e-07
-6.70978e-07 8.25201e-07 -4.00539e-05
0.000828631 -4.72117e-05 1.41493e-07
-4.72117e-05 0.000174958 -4.31344e-07
1.41493e-07 -4.31344e-07 6.83355e-05
0.000691216 -4.3712e-05 -5.46826e-07
-4.3712e-05 6.80858e-05 -1.48911e-08
-5.46826e-07 -1.48911e-08 -9.57176e-06
0.000615897 3.13312e-05 -1.85709e-06
3.13312e-05 1.16097e-06 1.79675e-06
-1.85709e-06 1.79675e-06 -4.93407e-05
0.000725751 -7.42404e-05 1.73311e-06
-7.42404e-05 9.04538e-05 -1.03693e-06
1.73311e-06 -1.03693e-06 9.20841e-06
0.000659135 -4.29838e-06 -2.73244e-07
-4.29838e-06 2.42409e-05 2.90381e-08
-2.73244e-07 2.90381e-08 -2.4684e-05
0.00136606 3.40211e-05 -7.13191e-06
3.40211e-05 0.000427845 5.32286e-06
-7.13191e-06 5.32286e-06 0.000416158
0.000634629 -2.37277e-05 1.90505e-06
-2.37277e-05 1.54e-05 -2.01708e-06
1.90505e-06 -2.01708e-06 -3.52341e-05
0.000969823 2.2009e-05 -3.4523e-06
2.2009e-05 0.000192864 7.17047e-07
-3.4523e-06 7.17047e-07 0.000179736
0.000787361 2.29867e-05 -5.82992e-07
2.29867e-05 8.74287e-05 2.03251e-06
-5.82992e-07 2.03251e-06 9.45383e-05
0.000566538 1.09976e-05 4.84283e-07
1.09976e-05 -4.61238e-05 -3.79428e-06
4.84283e-07 -3.79428e-06 -6.08231e-05
0.00155763 2.24367e-05 5.46838e-06
2.24367e-05 0.000539808 -1.48666e-06
5.46838e-06 -1.48666e-06 0.000551651
0.00234209 1.56827e-05 4.09081e-06
1.56827e-05 0.00100258 -5.11485e-06
4.09081e-06 -5.11485e-06 0.00101852
0.000723053 3.56276e-06 1.1077e-06
3.56276e-06 8.94913e-05 -1.32528e-06
1.1077e-06 -1.32528e-06 1.01832e-05
0.000661589 2.51092e-05 -6.34642e-07
2.51092e-05 3.17404e-05 -1.92557e-06
-6.34642e-07 -1.92557e-06 -9.93499e-06
0.000717899 -2.73178e-06 1.05937e-06
-2.73178e-06 9.27248e-05 2.68112e-07
1.05937e-06 2.68112e-07 1.61902e-05
0.000604346 -3.1531e-06 1.57845e-07
-3.1531e-06 -2.83733e-05 -3.47677e-06
1.57845e-07 -3.47677e-06 -3.55149e-05
0.000621926 1.95408e-05 5.43453e-08
1.95408e-05 9.58526e-06 -1.67798e-08
5.43453e-08 -1.67798e-08 -2.97027e-05
0.000670182 -8.31476e-05 -3.38359e-06
-8.31476e-05 6.56907e-05 1.52379e-06
-3.38359e-06 1.52379e-06 -8.54578e-06
0.00203508 9.96091e-07 -1.42207e-06
9.96091e-07 0.000820098 -4.73035e-06
-1.42207e-06 -4.73035e-06 0.000839681
0.000600123 2.5169e-06 -1.70831e-07
2.5169e-06 -3.0991e-05 -9.57699e-09
-1.70831e-07 -9.57699e-09 -3.73355e-05
0.000610646 -1.88883e-05 -1.25537e-06
-1.88883e-05 1.12507e-06 1.61533e-06
-1.25537e-06 1.61533e-06 -3.61708e-05
0.000582964 7.84675e-06 -3.66643e-07
7.84675e-06 -4.08909e-05 3.26399e-06
-3.66643e-07 3.26399e-06 -4.71658e-05
0.0020414 1.466e-05 -3.66202e-06
1.466e-05 0.000825289 -4.41449e-08
-3.66202e-06 -4.41449e-08 0.000844501
0.00203362 2.63051e-05 -9.93443e-06
2.63051e-05 0.000823036 4.36223e-06
-9.93443e-06 4.36223e-06 0.000841648
-0.00384004 -0.000290445 -4.36817e-05
-0.000290445 0.001213 1.51538e-05
-4.36817e-05 1.51538e-05 -0.000808876
-0.000921762 0.000447506 -6.54755e-05
0.000447506 -0.000452666 1.63633e-05
-6.54755e-05 1.63633e-05 -0.000943506
0.00362902 -0.00031861 -0.000212511
-0.00031861 0.00111811 0.000155809
-0.000212511 0.000155809 -0.00102505
-0.00284503 0.000128757 0.000300991
0.000128757 0.0016287 -0.000132485
0.000300991 -0.000132485 0.000299623
0.000606665 0.00022502 -3.67777e-05
0.00022502 -0.00104565 7.42236e-06
-3.67777e-05 7.42236e-06 -0.00110639
0.0023984 -0.000153603 9.86381e-05
-0.000153603 0.000112078 -9.57663e-06
9.86381e-05 -9.57663e-06 9.47467e-05
0.00131148 -0.000411898 -4.46974e-05
-0.000411898 -0.00188895 -5.70042e-05
-4.46974e-05 -5.70042e-05 -0.00319932
0.00945882 0.000948233 -9.29496e-05
0.000948233 0.00464488 -2.1041e-05
-9.29496e-05 -2.1041e-05 0.00411656
-0.00763971 0.00201087 -0.000514231
0.00201087 -0.00370125 0.000394729
-0.000514231 0.000394729 -0.00188201
0.00261852 -8.50664e-05 -7.53453e-06
-8.50664e-05 -0.000236792 -5.05443e-06
-7.53453e-06 -5.05443e-06 -0.000379767
0.00449562 -0.00035367 4.35872e-05
-0.00035367 -0.000102745 -5.54014e-05
4.35872e-05 -5.54014e-05 -0.00215619
0.0100248 0.00175714 -6.64661e-05
0.00175714 0.00316018 -7.18785e-05
-6.64661e-05 -7.18785e-05 0.00371455
0.00303454 0.00124287 -6.2733e-05
0.00124287 -0.00129047 0.000153791
-6.2733e-05 0.000153791 -0.000948472
0.00291401 -0.00062241 -6.36756e-05
-0.00062241 -0.000472051 1.87996e-05
-6.36756e-05 1.87996e-05 -0.000588589
0.00276565 -0.000799697 0.000179582
-0.000799697 0.000224838 -0.000120137
0.000179582 -0.000120137 -0.00295235
-0.00483166 0.000893443 -6.10679e-05
0.000893443 -0.00433067 -0.000293135
-6.10679e-05 -0.000293135 -0.00440368
0.00291652 0.000754875 -7.08982e-05
0.000754875 -0.00294607 2.8226e-06
-7.08982e-05 2.8226e-06 -0.00181223
0.000924747 -1.51681e-05 6.49225e-07
-1.51681e-05 0.000250375 2.37164e-06
6.49225e-07 2.37164e-06 0.000113447
0.000711839 6.2727e-05 -1.79277e-06
6.2727e-05 0.000116941 -1.04719e-06
-1.79277e-06 -1.04719e-06 -1.92728e-07
0.000656115 5.87139e-05 1.47879e-07
5.87139e-05 6.10985e-05 -1.37839e-06
1.47879e-07 -1.37839e-06 -2.28446e-05
0.000662571 6.60822e-05 3.05243e-06
6.60822e-05 9.26246e-05 1.19576e-06
3.05243e-06 1.19576e-06 -1.4526e-05
0.00066794 4.06232e-05 1.84888e-07
4.06232e-05 8.35488e-05 1.07751e-06
1.84888e-07 1.07751e-06 -5.3699e-05
0.000781878 7.35161e-05 8.90607e-08
7.35161e-05 0.000156507 1.17032e-06
8.90607e-08 1.17032e-06 3.53055e-05
0.000637666 2.24978e-05 -5.99226e-07
2.24978e-05 6.59058e-05 6.33215e-07
-5.99226e-07 6.33215e-07 -4.21643e-05
0.00088719 0.00011924 7.24161e-07
0.00011924 0.000219152 1.21862e-06
7.24161e-07 1.21862e-06 9.08852e-05
0.000841542 7.06964e-05 -1.35954e-07
7.06964e-05 0.00019088 4.10111e-07
-1.35954e-07 4.10111e-07 7.09346e-05
0.000546586 -5.05677e-06 -2.41528e-06
-5.05677e-06 1.25047e-05 -8.91543e-07
-2.41528e-06 -8.91543e-07 -9.39493e-05
0.000917412 -0.000204512 3.56878e-05
-0.000204512 -0.0004935 -1.69497e-05
3.56878e-05 -1.69497e-05 -0.000454706
0.000898939 -0.000415846 2.77502e-05
-0.000415846 -0.0004667 -5.49031e-06
2.77502e-05 -5.49031e-06 -0.000488001
0.00170571 -0.000563941 1.52389e-05
-0.000563941 0.000152128 -8.2579e-07
1.52389e-05 -8.2579e-07 -1.84505e-05
0.00052804 -0.000385846 7.50506e-06
-0.000385846 -8.42197e-05 -1.40311e-05
7.50506e-06 -1.40311e-05 -0.00037277
0.00169414 -0.000154698 -1.42267e-06
-0.000154698 0.000786692 1.32243e-05
-1.42267e-06 1.32243e-05 0.000514303
0.000658466 -8.89489e-05 -9.09962e-07
-8.89489e-05 0.000124615 3.48578e-06
-9.09962e-07 3.48578e-06 -3.58822e-05
0.000574421 7.30863e-05 -2.47317e-07
7.30863e-05 4.68345e-05 -1.79785e-06
-2.47317e-07 -1.79785e-06 -9.33514e-05
0.000752123 -4.90702e-05 -4.80136e-07
-4.90702e-05 0.000152818 2.21347e-06
-4.80136e-07 2.21347e-06 5.09227e-06
0.00152263 -0.000308863 -5.38067e-07
-0.000308863 0.000105567 -5.72467e-07
-5.38067e-07 -5.72467e-07 -5.15191e-05
0.000767912 -1.32574e-05 1.34899e-07
-1.32574e-05 0.000169678 7.67464e-07
1.34899e-07 7.67464e-07 1.41858e-05
0.00137814 -0.000128162 -1.28477e-07
-0.000128162 0.000597564 -9.02118e-09
-1.28477e-07 -9.02118e-09 0.000363119
0.00127176 -0.000400751 -6.78238e-07
-0.000400751 -1.01528e-05 -2.01668e-07
-6.78238e-07 -2.01668e-07 -5.49591e-05
0.000832283 -0.000269168 -1.52742e-05
-0.000269168 0.000235157 4.91592e-06
-1.52742e-05 4.91592e-06 -4.56231e-05
0.000461151 -0.000450915 -1.3284e-05
-0.000450915 -0.000493393 -2.27293e-05
-1.3284e-05 -2.27293e-05 -0.000472121
0.00101454 -0.000213987 -2.1185e-05
-0.000213987 0.000324422 2.14938e-05
-2.1185e-05 2.14938e-05 0.000224222
-0.000534197 -4.29972e-05 -2.01228e-06
-4.29972e-05 -0.000428597 2.57128e-05
-2.01228e-06 2.57128e-05 -0.000684817
0.000682155 7.78998e-06 -4.37866e-07
7.78998e-06 9.22092e-05 -3.02744e-06
-4.37866e-07 -3.02744e-06 -4.73361e-05
0.000591598 3.16144e-05 1.43631e-06
3.16144e-05 0.000142941 -3.91044e-06
1.43631e-06 -3.91044e-06 -6.83571e-05
0.00170509 -4.43334e-05 -1.61201e-05
-4.43334e-05 0.000972028 -5.58484e-06
-1.61201e-05 -5.58484e-06 -0.000487867
-0.00221151 7.90963e-05 -0.000112978
7.90963e-05 0.00245878 -5.15539e-06
-0.000112978 -5.15539e-06 0.000549032
-0.00921204 -0.000491169 -0.000287013
-0.000491169 -0.00485672 5.63474e-06
-0.000287013 5.63474e-06 -0.00471033
-0.000108117 8.96181e-05 6.09993e-06
8.96181e-05 -0.000277926 -1.58108e-06
6.09993e-06 -1.58108e-06 -0.000418059
0.000141074 0.000148331 3.31237e-06
0.000148331 -0.000122689 5.67357e-06
3.31237e-06 5.67357e-06 -0.000356811
0.00178903 0.000363034 1.86317e-05
0.000363034 0.00039758 4.03164e-06
1.86317e-05 4.03164e-06 0.000346152
-0.00362369 0.000351978 -2.39219e-05
0.000351978 0.00106759 1.24362e-05
-2.39219e-05 1.24362e-05 -0.00112073
0.00161681 0.000634636 -8.12178e-05
0.000634636 8.90551e-05 -7.80763e-05
-8.12178e-05 -7.80763e-05 -0.00305901
0.00295728 0.00101288 0.000131583
0.00101288 0.000409322 2.89973e-05
0.000131583 2.89973e-05 -8.20888e-05
0.000366857 0.000299555 7.7401e-06
0.000299555 -5.21087e-05 -2.41789e-05
7.7401e-06 -2.41789e-05 -0.000106848
0.0118925 -0.001259 1.12263e-05
-0.001259 0.00348313 -9.69033e-05
1.12263e-05 -9.69033e-05 0.00324555
0.00386175 0.000310298 0.000125427
0.000310298 0.00176083 7.2652e-05
0.000125427 7.2652e-05 -0.000749399
0.00854743 -0.000925369 5.77248e-05
-0.000925369 0.00128095 1.10689e-05
5.77248e-05 1.10689e-05 0.00250202
0.000967978 0.000189486 2.75696e-06
0.000189486 0.000410522 -1.86804e-06
2.75696e-06 -1.86804e-06 0.000276505
0.00307379 4.75931e-05 7.2473e-06
4.75931e-05 0.00133942 -4.49541e-06
7.2473e-06 -4.49541e-06 6.71872e-06
0.000550287 9.91254e-05 1.2399e-05
9.91254e-05 0.0001766 1.15297e-05
1.2399e-05 1.15297e-05 -0.00139846
-0.00025128 0.000186299 -7.30529e-06
0.000186299 -0.000146872 -1.46061e-06
-7.30529e-06 -1.46061e-06 -0.000339067
0.00238162 0.000565969 -6.9776e-05
0.000565969 0.000948252 -3.75977e-05
-6.9776e-05 -3.75977e-05 0.000186414
0.00263564 0.00144346 6.76289e-05
0.00144346 0.000818475 5.32477e-05
6.76289e-05 5.32477e-05 -0.00227659
0.00538831 0.000147243 -9.62396e-06
0.000147243 -0.00226846 -0.000100833
-9.62396e-06 -0.000100833 -0.000165649
0.00183032 -0.00100759 -2.7543e-05
-0.00100759 0.000248933 -3.70684e-05
-2.7543e-05 -3.70684e-05 -0.00116876
0.000753544 0.000133993 -8.30882e-06
0.000133993 0.00048223 -1.10896e-05
-8.30882e-06 -1.10896e-05 0.000330692
0.000749256 -6.39319e-05 -7.89919e-06
-6.39319e-05 0.000103917 -1.37035e-05
-7.89919e-06 -1.37035e-05 5.43193e-05
0.00260474 8.5594e-06 2.45881e-05
8.5594e-06 0.000325959 -7.42371e-05
2.45881e-05 -7.42371e-05 -0.000816551
0.00312093 0.000792231 7.76295e-05
0.000792231 -0.00278879 -2.4939e-06
7.76295e-05 -2.4939e-06 -0.00176516
-0.000723355 9.0464e-05 -5.6407e-06
9.0464e-05 -5.17213e-05 -1.83118e-05
-5.6407e-06 -1.83118e-05 -0.000528254
0.0102706 0.00109684 0.000118994
0.00109684 0.00494761 4.90689e-05
0.000118994 4.90689e-05 0.00147098
-0.00905885 -0.000309036 6.54549e-05
-0.000309036 -0.000782276 0.000172344
6.54549e-05 0.000172344 -0.00260076
0.00192514 0.000200381 1.61394e-05
0.000200381 0.000878086 7.87907e-06
1.61394e-05 7.87907e-06 0.000769485
0.000556709 0.000109292 -4.35283e-06
0.000109292 0.000199372 -3.71189e-07
-4.35283e-06 -3.71189e-07 4.63262e-05
0.000297688 8.12187e-05 -5.31708e-06
8.12187e-05 0.000248206 -1.41328e-06
-5.31708e-06 -1.41328e-06 7.04392e-05
0.000785783 0.000131098 8.82497e-07
0.000131098 0.000136816 1.1114e-06
8.82497e-07 1.1114e-06 5.86157e-06
0.000724573 5.62054e-05 9.17731e-07
5.62054e-05 9.20484e-05 1.8402e-06
9.17731e-07 1.8402e-06 -1.40583e-05
0.00083027 1.02629e-06 5.93979e-06
1.02629e-06 0.000333679 6.75806e-06
5.93979e-06 6.75806e-06 0.000194294
0.000692227 4.40356e-05 -1.62887e-07
4.40356e-05 8.03613e-05 -1.21393e-07
-1.62887e-07 -1.21393e-07 -3.85484e-05
0.000782626 -2.43331e-05 -8.84621e-07
-2.43331e-05 0.000252782 -1.51681e-06
-8.84621e-07 -1.51681e-06 0.000132459
7.53166e-05 2.68264e-05 6.97196e-06
2.68264e-05 5.38394e-05 3.17802e-06
6.97196e-06 3.17802e-06 -0.000119493
0.00101021 1.20497e-05 -9.80839e-06
1.20497e-05 0.000533525 -1.00886e-05
-9.80839e-06 -1.00886e-05 0.000442212
0.000111816 -3.46005e-05 -2.82088e-06
-3.46005e-05 -0.000152573 -7.94015e-06
-2.82088e-06 -7.94015e-06 -0.000261936
0.000608569 -3.85652e-05 2.04484e-06
-3.85652e-05 2.21225e-05 3.45419e-06
2.04484e-06 3.45419e-06 -7.26424e-05
0.000780139 1.80585e-05 -4.60465e-07
1.80585e-05 0.000131398 2.28577e-07
-4.60465e-07 2.28577e-07 3.13421e-05
0.00082383 -7.54571e-06 -4.84896e-06
-7.54571e-06 0.000143902 3.37086e-06
-4.84896e-06 3.37086e-06 5.72866e-05
0.000726188 -3.98496e-05 2.60917e-06
-3.98496e-05 0.000123337 2.1776e-07
2.60917e-06 2.1776e-07 4.32931e-05
0.000639978 -9.71444e-07 -4.33534e-07
-9.71444e-07 3.22938e-05 2.13713e-07
-4.33534e-07 2.13713e-07 -6.05841e-05
0.000765607 -8.50435e-05 3.14376e-06
-8.50435e-05 0.0001255 -7.97284e-07
3.14376e-06 -7.97284e-07 2.99365e-05
0.000454485 -7.57274e-05 -2.15075e-06
-7.57274e-05 -0.000108685 -1.08837e-06
-2.15075e-06 -1.08837e-06 -0.00019266
0.000107826 -0.000153621 8.1337e-06
-0.000153621 -0.000284654 -8.43267e-07
8.1337e-06 -8.43267e-07 -0.000456642
0.00100155 -7.15964e-05 -1.24212e-06
-7.15964e-05 0.000235024 1.24523e-06
-1.24212e-06 1.24523e-06 0.00012972
0.00108328 -0.000144152 -3.56797e-07
-0.000144152 0.000288405 2.35661e-06
-3.56797e-07 2.35661e-06 0.000139014
0.000490942 -0.000192364 -2.00657e-06
-0.000192364 -0.000116004 4.25076e-06
-2.00657e-06 4.25076e-06 -0.000323125
0.00082715 -0.000200833 -4.38656e-06
-0.000200833 8.39105e-05 3.41462e-08
-4.38656e-06 3.41462e-08 -0.000127259
0.000983538 -0.000167257 -1.84881e-06
-0.000167257 0.000282834 3.43701e-06
-1.84881e-06 3.43701e-06 0.000111399
0.000501909 -0.000159144 1.51714e-06
-0.000159144 -6.39148e-05 -1.29824e-07
1.51714e-06 -1.29824e-07 -0.00026591
0.000849668 -5.93266e-05 1.04559e-06
-5.93266e-05 0.000175479 2.96505e-08
1.04559e-06 2.96505e-08 6.22271e-05
0.00104427 -9.50232e-05 -1.32944e-06
-9.50232e-05 0.000308616 -6.14115e-07
-1.32944e-06 -6.14115e-07 0.000174203
0.000522173 -8.87372e-05 1.50128e-06
-8.87372e-05 1.51217e-05 -8.68611e-06
1.50128e-06 -8.68611e-06 -0.000130814
0.000966357 -1.30392e-05 -8.02453e-07
-1.30392e-05 0.000233498 -1.37911e-07
-8.02453e-07 -1.37911e-07 0.000131091
0.000516976 -1.71938e-06 2.69654e-07
-1.71938e-06 -1.58729e-05 -5.8132e-08
2.69654e-07 -5.8132e-08 -0.000114468
0.000636541 1.93636e-06 -3.33353e-07
1.93636e-06 3.37439e-05 5.78012e-07
-3.33353e-07 5.78012e-07 -4.49341e-05
0.000798735 -4.42093e-05 -4.94543e-08
-4.42093e-05 0.000152997 3.91362e-07
-4.94543e-08 3.91362e-07 4.81285e-05
0.000690502 -2.6161e-05 -1.90295e-07
-2.6161e-05 6.97014e-05 3.20179e-08
-1.90295e-07 3.20179e-08 -1.00087e-05
0.000617264 3.12936e-05 -7.61776e-07
3.12936e-05 6.49137e-06 1.7942e-06
-7.61776e-07 1.7942e-06 -4.69069e-05
0.000741887 -5.98323e-05 7.11062e-07
-5.98323e-05 0.000103887 -1.08872e-06
7.11062e-07 -1.08872e-06 2.12839e-05
0.000637744 2.27182e-05 -8.21473e-07
2.27182e-05 1.40966e-05 -4.44386e-08
-8.21473e-07 -4.44386e-08 -3.68631e-05
0.00132951 4.57076e-05 -8.15164e-06
4.57076e-05 0.000409826 3.54559e-06
-8.15164e-06 3.54559e-06 0.000397303
0.000664901 -1.65197e-05 2.18478e-06
-1.65197e-05 2.82274e-05 -2.04034e-06
2.18478e-06 -2.04034e-06 -2.12486e-05
0.000951361 3.09031e-05 -4.36089e-06
3.09031e-05 0.000183104 6.31673e-07
-4.36089e-06 6.31673e-07 0.000169646
0.000805079 3.13659e-05 -1.15724e-06
3.13659e-05 0.000101835 2.06994e-06
-1.15724e-06 2.06994e-06 0.000107892
0.000550503 1.77214e-05 7.97925e-07
1.77214e-05 -5.58353e-05 -3.95534e-06
7.97925e-07 -3.95534e-06 -7.0578e-05
0.0015613 3.3464e-05 7.41508e-06
3.3464e-05 0.000545226 -1.35477e-06
7.41508e-06 -1.35477e-06 0.000556051
0.00233855 2.97232e-05 7.90312e-06
2.97232e-05 0.0010026 -4.99131e-06
7.90312e-06 -4.99131e-06 0.00101791
0.000465778 3.37418e-06 7.01138e-07
3.37418e-06 -5.07269e-05 -1.00872e-06
7.01138e-07 -1.00872e-06 -0.000147628
0.000354689 1.15263e-06 -1.33321e-07
1.15263e-06 -0.000148269 -3.13378e-06
-1.33321e-07 -3.13378e-06 -0.000197428
0.000761114 1.44237e-05 7.52755e-08
1.44237e-05 0.000117147 1.04869e-07
7.52755e-08 1.04869e-07 3.38235e-05
0.000599014 -8.87256e-06 1.51847e-07
-8.87256e-06 -3.10328e-05 -3.65979e-06
1.51847e-07 -3.65979e-06 -3.9917e-05
0.000478094 4.92991e-06 9.93885e-07
4.92991e-06 -7.62273e-05 -5.80338e-08
9.93885e-07 -5.80338e-08 -0.000119023
0.000453395 -7.51119e-05 -1.06373e-06
-7.51119e-05 -6.09097e-05 1.05973e-06
-1.06373e-06 1.05973e-06 -0.000140207
0.00208693 -1.16789e-05 -5.78184e-06
-1.16789e-05 0.000850882 -4.78477e-06
-5.78184e-06 -4.78477e-06 0.000869939
0.000601585 -3.16275e-06 -1.13365e-07
-3.16275e-06 -3.0014e-05 -3.7536e-08
-1.13365e-07 -3.7536e-08 -3.70931e-05
0.00060471 -7.69995e-06 -1.30743e-06
-7.69995e-06 -1.27484e-06 1.80559e-06
-1.30743e-06 1.80559e-06 -3.9943e-05
0.00204675 2.316e-06 -3.70729e-06
2.316e-06 0.000827078 7.58072e-09
-3.70729e-06 7.58072e-09 0.000846614
0.000586668 2.36784e-06 -2.25689e-07
2.36784e-06 -3.86634e-05 3.32044e-06
-2.25689e-07 3.32044e-06 -4.49767e-05
0.00204128 1.60074e-05 -2.97682e-06
1.60074e-05 0.000825354 4.54868e-06
-2.97682e-06 4.54868e-06 0.000844509
0.000548295 -0.000146135 -8.41904e-05
-0.000146135 -0.000164482 2.65163e-05
-8.41904e-05 2.65163e-05 -0.00155978
0.00152165 0.000149249 -2.31227e-05
0.000149249 0.00313224 -9.22402e-06
-2.31227e-05 -9.22402e-06 0.00188599
0.00121978 -0.000329542 -0.00022559
-0.000329542 0.00192306 -1.73939e-06
-0.00022559 -1.73939e-06 0.00105546
0.000756816 7.26818e-05 1.30098e-06
7.26818e-05 0.000124221 5.36849e-07
1.30098e-06 5.36849e-07 -4.15891e-07
0.0037276 -0.000219459 -3.39657e-05
-0.000219459 0.00222499 8.76473e-05
-3.39657e-05 8.76473e-05 0.00109613
0.00350072 -0.000360815 -7.59032e-05
-0.000360815 0.00116476 8.03395e-06
-7.59032e-05 8.03395e-06 -0.00124326
0.00188894 0.000603221 0.00015181
0.000603221 0.00287258 -0.000148368
0.00015181 -0.000148368 0.0019947
0.0038594 -0.000206795 2.06377e-05
-0.000206795 0.000213621 -3.17992e-05
2.06377e-05 -3.17992e-05 -5.73522e-05
0.0110974 -0.000283806 0.00010266
-0.000283806 0.00317567 -5.55629e-05
0.00010266 -5.55629e-05 0.00151361
-0.00270513 0.00136566 -0.000110392
0.00136566 -0.00373786 0.000130302
-0.000110392 0.000130302 -0.0029622
0.0052379 0.00136725 3.28745e-05
0.00136725 6.84316e-05 4.36729e-05
3.28745e-05 4.36729e-05 0.000356241
0.00479724 -0.000752179 -8.35911e-05
-0.000752179 0.000298133 -1.09694e-07
-8.35911e-05 -1.09694e-07 -0.000192881
0.0100825 -0.000641828 5.48363e-05
-0.000641828 0.00379441 -1.42646e-05
5.48363e-05 -1.42646e-05 0.00169152
0.00616775 0.000918167 5.78805e-05
0.000918167 0.000431153 -0.000106684
5.78805e-05 -0.000106684 0.000148225
0.00503433 0.000690337 -1.12715e-05
0.000690337 -0.00155441 1.16736e-05
-1.12715e-05 1.16736e-05 -0.000553392
0.0044121 -0.00122289 1.26202e-05
-0.00122289 0.000588167 -2.10393e-06
1.26202e-05 -2.10393e-06 -0.000310038
0.0109678 -0.00119084 7.83786e-05
-0.00119084 0.00528885 -4.37253e-05
7.83786e-05 -4.37253e-05 0.00166163
0.00315947 -0.000162229 5.74922e-05
-0.000162229 0.000200081 -0.000161137
5.74922e-05 -0.000161137 -0.00015318
0.00675039 0.000330583 -3.25616e-05
0.000330583 -0.000796329 8.63972e-05
-3.25616e-05 8.63972e-05 0.000892599
0.000677658 -2.6748e-05 5.6816e-08
-2.6748e-05 9.43472e-05 1.21467e-06
5.6816e-08 1.21467e-06 -4.96019e-05
0.000751995 -4.98402e-05 1.8692e-07
-4.98402e-05 0.000153486 -1.10394e-07
1.8692e-07 -1.10394e-07 1.2793e-05
0.000828574 8.69764e-05 -7.80543e-07
8.69764e-05 0.000190841 -1.56668e-06
-7.80543e-07 -1.56668e-06 7.14743e-05
0.000743626 3.57419e-05 4.46542e-07
3.57419e-05 0.000107356 1.68344e-06
4.46542e-07 1.68344e-06 -1.49183e-05
0.00082782 8.77419e-05 -6.74389e-07
8.77419e-05 0.000183832 7.14034e-07
-6.74389e-07 7.14034e-07 4.59574e-05
0.000873638 6.37056e-05 -3.12737e-07
6.37056e-05 0.000209394 8.01416e-07
-3.12737e-07 8.01416e-07 8.97326e-05
0.000972174 0.000110564 -8.50503e-07
0.000110564 0.000266006 -5.29715e-08
-8.50503e-07 -5.29715e-08 0.00013901
0.000967071 0.000116185 7.63342e-07
0.000116185 0.000274012 2.28595e-06
7.63342e-07 2.28595e-06 0.000148996
0.000647049 -0.000217724 4.85653e-05
-0.000217724 -0.000432977 -1.89043e-05
4.85653e-05 -1.89043e-05 -0.000465511
0.00128517 -0.000401383 7.71083e-06
-0.000401383 -2.94847e-05 -1.49765e-05
7.71083e-06 -1.49765e-05 -6.78562e-05
0.000792716 -0.000157921 -1.01829e-06
-0.000157921 0.000183029 -1.2465e-06
-1.01829e-06 -1.2465e-06 2.79781e-05
0.00223911 -0.000351818 1.38165e-05
-0.000351818 0.000993284 -2.45914e-05
1.38165e-05 -2.45914e-05 0.000721163
0.00208577 -0.00017066 -3.07792e-06
-0.00017066 0.000997475 6.86388e-06
-3.07792e-06 6.86388e-06 0.000758364
0.000951225 -6.58436e-05 -1.5368e-06
-6.58436e-05 0.000265986 -2.12954e-06
-1.5368e-06 -2.12954e-06 0.000112387
0.000707864 6.86035e-06 4.82721e-07
6.86035e-06 0.000118158 1.43049e-06
4.82721e-07 1.43049e-06 -2.73832e-05
0.000210096 -0.000440517 -9.00745e-06
-0.000440517 -0.000654006 -7.41013e-07
-9.00745e-06 -7.41013e-07 -0.000622992
0.00117835 4.75368e-05 2.21246e-07
4.75368e-05 0.000482379 1.34419e-06
2.21246e-07 1.34419e-06 0.00026365
0.00104348 -0.000148298 -1.15969e-05
-0.000148298 0.000420006 2.28273e-06
-1.15969e-05 2.28273e-06 0.000177744
0.000500172 -0.000170538 5.61437e-06
-0.000170538 6.61788e-06 4.13236e-06
5.61437e-06 4.13236e-06 -4.67052e-05
0.000789278 4.32882e-05 1.64677e-06
4.32882e-05 0.000142481 -1.8575e-06
1.64677e-06 -1.8575e-06 9.74811e-06
0.00137996 -0.000368561 1.43044e-05
-0.000368561 3.24612e-05 -3.49323e-05
1.43044e-05 -3.49323e-05 0.000207972
9.9821e-05 -0.000114703 -3.60579e-06
-0.000114703 4.84172e-05 2.68876e-05
-3.60579e-06 2.68876e-05 -5.33925e-05
0.000342006 1.85527e-05 -2.58394e-07
1.85527e-05 0.00013697 9.55453e-06
-2.58394e-07 9.55453e-06 -0.0001518
0.00136651 0.000186693 1.69632e-06
0.000186693 0.000545488 -3.80609e-06
1.69632e-06 -3.80609e-06 0.000370755
0.000741958 -3.08255e-05 -8.37556e-06
-3.08255e-05 0.000646595 -8.42148e-06
-8.37556e-06 -8.42148e-06 5.36024e-05
0.00136206 -5.48598e-05 7.156e-05
-5.48598e-05 0.000837351 -6.84996e-06
7.156e-05 -6.84996e-06 -0.000641221
-0.00466169 -5.83463e-05 -0.000128908
-5.83463e-05 0.00163649 6.39474e-06
-0.000128908 6.39474e-06 -0.000665175
0.000937791 0.000172306 1.43436e-05
0.000172306 0.000447895 2.37764e-06
1.43436e-05 2.37764e-06 0.000307023
-0.000980407 0.000241148 1.11465e-05
0.000241148 -0.00056565 1.08896e-05
1.11465e-05 1.08896e-05 -0.000816864
0.00336397 3.68252e-05 8.1714e-05
3.68252e-05 0.00171356 2.08924e-06
8.1714e-05 2.08924e-06 0.000575867
0.00777852 0.000612996 0.000132086
0.000612996 0.00350267 7.26135e-05
0.000132086 7.26135e-05 0.000268607
0.00308179 0.000726498 -9.53996e-05
0.000726498 0.00137118 -8.35314e-05
-9.53996e-05 -8.35314e-05 0.000336333
0.00416417 -0.000627871 -1.37057e-06
-0.000627871 0.00115789 -0.000178152
-1.37057e-06 -0.000178152 -0.000150419
0.00106565 0.000123771 4.77492e-05
0.000123771 0.000252185 0.000113446
4.77492e-05 0.000113446 -0.00128952
0.00398361 -1.68862e-05 -6.46633e-06
-1.68862e-05 -0.00378134 -9.871e-05
-6.46633e-06 -9.871e-05 -0.00121999
0.000730487 0.000162188 1.0593e-06
0.000162188 0.000466733 -1.77634e-06
1.0593e-06 -1.77634e-06 0.000298276
0.000670576 -5.99407e-05 1.16439e-06
-5.99407e-05 0.000112292 -3.60944e-06
1.16439e-06 -3.60944e-06 4.42125e-05
0.0027091 2.96953e-05 3.44324e-05
2.96953e-05 0.000521116 1.25946e-05
3.44324e-05 1.25946e-05 -0.000305584
-0.000960735 0.000127183 -7.38269e-06
0.000127183 -0.000362286 -5.22711e-06
-7.38269e-06 -5.22711e-06 -0.000747984
0.00530161 0.000788244 8.55929e-06
0.000788244 -0.00151696 -1.14194e-05
8.55929e-06 -1.14194e-05 -0.000537956
0.00512554 0.000904454 0.00010754
0.000904454 0.00290024 4.99417e-05
0.00010754 4.99417e-05 -0.000714641
0.0032156 0.000289439 -6.06378e-05
0.000289439 0.00224801 6.43557e-06
-6.06378e-05 6.43557e-06 0.00113161
0.00040409 0.000175847 -1.65425e-05
0.000175847 0.000324102 -1.67027e-05
-1.65425e-05 -1.67027e-05 8.65907e-05
0.00172279 5.1706e-05 4.66592e-06
5.1706e-05 -0.000113698 -1.6577e-05
4.66592e-06 -1.6577e-05 -1.90466e-05
0.00371849 -0.000174951 3.63653e-05
-0.000174951 0.0021689 -8.75313e-05
3.63653e-05 -8.75313e-05 0.00107427
0.00625305 0.00140006 0.00016042
0.00140006 0.000377953 -0.00011014
0.00016042 -0.00011014 0.000805946
0.00632843 -0.000145647 -7.85836e-05
-0.000145647 0.00127542 0.000155325
-7.85836e-05 0.000155325 0.00113592
0.000783597 0.000182413 -1.70997e-05
0.000182413 -4.9924e-05 -5.31889e-05
-1.70997e-05 -5.31889e-05 -0.000112416
-0.000582504 0.000904259 0.000120403
0.000904259 0.00251516 3.75488e-05
0.000120403 3.75488e-05 -0.0029217
0.000947292 0.00015825 2.25882e-06
0.00015825 0.000396179 7.9263e-06
2.25882e-06 7.9263e-06 0.000239638
0.000286192 9.0494e-05 3.6957e-06
9.0494e-05 0.000238336 1.86259e-06
3.6957e-06 1.86259e-06 5.78343e-05
0.00125371 3.14534e-05 -2.34277e-05
3.14534e-05 0.000839098 -1.67664e-05
-2.34277e-05 -1.67664e-05 0.000721648
0.000425999 -2.1465e-05 1.10892e-06
-2.1465e-05 -8.63955e-05 3.72172e-06
1.10892e-06 3.72172e-06 -0.000193427
0.000685961 -3.19219e-05 1.75255e-06
-3.19219e-05 0.000198014 5.41084e-06
1.75255e-06 5.41084e-06 7.87144e-05
9.24707e-05 -2.90616e-06 1.8927e-06
-2.90616e-06 4.88152e-05 4.22327e-06
1.8927e-06 4.22327e-06 -0.000126633
0.000625744 -6.18039e-05 8.33929e-07
-6.18039e-05 0.000127082 -5.5909e-07
8.33929e-07 -5.5909e-07 2.77447e-05
0.00014198 -1.09053e-05 1.99199e-06
-1.09053e-05 3.24611e-05 7.59865e-07
1.99199e-06 7.59865e-07 -6.37711e-05
0.00118125 -0.000188099 9.15132e-06
-0.000188099 0.000600283 -8.92414e-06
9.15132e-06 -8.92414e-06 0.000429082
0.00128357 -5.71757e-05 -2.0362e-06
-5.71757e-05 0.000439665 4.14251e-06
-2.0362e-06 4.14251e-06 0.000356302
0.000271505 1.45065e-05 -9.77544e-07
1.45065e-05 -0.000174892 1.73146e-06
-9.77544e-07 1.73146e-06 -0.000268078
0.00138958 -0.000135224 1.10665e-06
-0.000135224 0.000474477 2.11813e-06
1.10665e-06 2.11813e-06 0.000369719
-0.000185268 -0.000142712 5.56026e-06
-0.000142712 -0.00032156 5.87118e-07
5.56026e-06 5.87118e-07 -0.000543673
0.000431499 -5.70668e-05 -5.13505e-06
-5.70668e-05 -8.83092e-05 1.27135e-06
-5.13505e-06 1.27135e-06 -0.00016019
8.37612e-05 -0.000142793 1.87265e-06
-0.000142793 -0.000300632 -1.22652e-06
1.87265e-06 -1.22652e-06 -0.000458859
0.00102982 -0.000260983 1.11081e-05
-0.000260983 0.000177101 -1.80016e-06
1.11081e-05 -1.80016e-06 -5.92352e-05
0.00125604 -0.000295886 -3.48428e-06
-0.000295886 0.000171781 4.14196e-06
-3.48428e-06 4.14196e-06 -7.56756e-05
0.00165375 -0.000198554 -3.18694e-06
-0.000198554 0.000606481 3.69783e-07
-3.18694e-06 3.69783e-07 0.000446848
0.000801494 -0.000221317 -8.70791e-07
-0.000221317 3.77685e-05 2.89396e-07
-8.70791e-07 2.89396e-07 -0.00018414
0.00199373 -0.000316879 2.63419e-06
-0.000316879 0.000728287 -1.21873e-06
2.63419e-06 -1.21873e-06 0.000511395
0.000193964 -0.000115508 -1.68207e-06
-0.000115508 -0.00020656 1.25561e-06
-1.68207e-06 1.25561e-06 -0.000394444
0.000926349 -0.000206708 -1.60156e-07
-0.000206708 0.000146297 1.06384e-07
-1.60156e-07 1.06384e-07 -6.24405e-05
0.000559828 -5.43953e-05 2.9182e-07
-5.43953e-05 2.02738e-05 -2.97855e-07
2.9182e-07 -2.97855e-07 -0.000113856
0.0010398 -0.000181716 -3.68311e-06
-0.000181716 0.000317049 2.38144e-06
-3.68311e-06 2.38144e-06 0.00014256
-0.00018773 -9.14009e-05 -2.50362e-06
-9.14009e-05 -0.000457963 -3.21482e-06
-2.50362e-06 -3.21482e-06 -0.000648023
0.000625299 2.55212e-05 7.73153e-07
2.55212e-05 3.75966e-05 9.50664e-07
7.73153e-07 9.50664e-07 -5.51257e-05
0.000735314 -4.45202e-05 8.93554e-07
-4.45202e-05 0.000114739 -1.63631e-07
8.93554e-07 -1.63631e-07 -1.5973e-07
0.000840031 -8.91966e-05 2.64607e-06
-8.91966e-05 0.000198806 -2.69751e-06
2.64607e-06 -2.69751e-06 5.95409e-05
0.00068046 -1.16269e-05 2.12511e-07
-1.16269e-05 8.09303e-05 -2.47705e-08
2.12511e-07 -2.47705e-08 -1.95624e-05
0.000702954 -1.15891e-05 -6.17871e-07
-1.15891e-05 7.97701e-05 -1.28428e-07
-6.17871e-07 -1.28428e-07 -5.18437e-06
0.000611286 3.55235e-05 -8.49075e-07
3.55235e-05 6.28018e-06 2.05257e-06
-8.49075e-07 2.05257e-06 -5.07193e-05
0.000754136 -3.96409e-05 6.28727e-07
-3.96409e-05 0.000112808 -7.22555e-07
6.28727e-07 -7.22555e-07 2.80286e-05
0.000637117 2.73433e-05 -6.61197e-07
2.73433e-05 1.67361e-05 -9.20493e-08
-6.61197e-07 -9.20493e-08 -3.61232e-05
0.000577564 4.29752e-05 -1.1003e-06
4.29752e-05 -2.84705e-05 3.95525e-06
-1.1003e-06 3.95525e-06 -4.67577e-05
0.000690415 -7.06803e-06 2.11881e-06
-7.06803e-06 4.15664e-05 -1.91595e-06
2.11881e-06 -1.91595e-06 -7.65898e-06
0.000579024 3.43754e-05 1.49245e-07
3.43754e-05 -3.42929e-05 9.24089e-09
1.49245e-07 9.24089e-09 -5.04334e-05
0.00221741 7.11992e-05 -4.13985e-06
7.11992e-05 0.000943792 1.84435e-06
-4.13985e-06 1.84435e-06 0.000954645
0.000550238 2.62385e-05 9.2738e-07
2.62385e-05 -5.42559e-05 -4.00568e-06
9.2738e-07 -4.00568e-06 -6.95414e-05
0.00155565 4.41567e-05 8.87304e-06
4.41567e-05 0.000546331 -1.16863e-06
8.87304e-06 -1.16863e-06 0.000555926
0.00233286 4.3126e-05 1.23377e-05
4.3126e-05 0.00100267 -4.7632e-06
1.23377e-05 -4.7632e-06 0.00101697
0.000430444 4.5642e-08 5.60567e-07
4.5642e-08 -8.32953e-05 -1.69958e-06
5.60567e-07 -1.69958e-06 -0.000177368
0.000357983 -1.82545e-06 7.84747e-08
-1.82545e-06 -0.000147735 -2.80875e-06
7.84747e-08 -2.80875e-06 -0.000203161
0.000597631 1.42664e-05 -4.34559e-07
1.42664e-05 2.50769e-05 -9.84715e-07
-4.34559e-07 -9.84715e-07 -6.91681e-05
0.000597871 -1.49118e-05 2.09186e-07
-1.49118e-05 -3.00204e-05 -3.87956e-06
2.09186e-07 -3.87956e-06 -4.1581e-05
0.000333824 3.9638e-07 -3.64707e-07
3.9638e-07 -0.000160688 -1.11329e-06
-3.64707e-07 -1.11329e-06 -0.000210684
0.000767935 2.46717e-05 -1.96391e-07
2.46717e-05 0.000129432 1.61119e-06
-1.96391e-07 1.61119e-06 4.09388e-05
0.00214867 -2.44883e-05 -1.02581e-05
-2.44883e-05 0.000888537 -4.76246e-06
-1.02581e-05 -4.76246e-06 0.000906496
0.00059516 -9.0061e-06 -1.85927e-07
-9.0061e-06 -3.32253e-05 -4.69456e-08
-1.85927e-07 -4.69456e-08 -4.20004e-05
0.000309172 1.23535e-06 6.0306e-07
1.23535e-06 -0.000174306 1.88309e-06
6.0306e-07 1.88309e-06 -0.000219191
0.00207266 -1.02699e-05 -3.51169e-06
-1.02699e-05 0.000842225 4.17467e-08
-3.51169e-06 4.17467e-08 0.00086148
0.000594836 -3.18053e-06 -1.6015e-07
-3.18053e-06 -3.3978e-05 3.42786e-06
-1.6015e-07 3.42786e-06 -4.09689e-05
0.0020602 3.65934e-06 1.53261e-06
3.65934e-06 0.000835103 4.67172e-06
1.53261e-06 4.67172e-06 0.000854541
0.000913186 2.68763e-06 5.63361e-06
2.68763e-06 0.000440271 1.13402e-05
5.63361e-06 1.13402e-05 0.000232207
0.00104103 -0.000108744 5.16789e-06
-0.000108744 0.000144346 -8.81616e-06
5.16789e-06 -8.81616e-06 -0.00127154
0.0017954 7.42763e-05 2.7593e-05
7.42763e-05 0.00324775 -3.30155e-05
2.7593e-05 -3.30155e-05 0.00217038
0.000757207 7.90909e-05 -1.84989e-07
7.90909e-05 0.000117916 3.37163e-07
-1.84989e-07 3.37163e-07 3.13531e-07
0.000587117 5.2207e-05 1.14745e-06
5.2207e-05 2.97753e-06 -4.11845e-08
1.14745e-06 -4.11845e-08 -0.000107006
0.000942234 0.000111267 1.66104e-06
0.000111267 0.000225001 2.62005e-06
1.66104e-06 2.62005e-06 9.87333e-05
0.00250066 -5.16535e-05 7.23204e-06
-5.16535e-05 0.000231497 0.000144724
7.23204e-06 0.000144724 -0.000796346
0.0032919 -0.000186486 1.30905e-06
-0.000186486 0.00214117 -4.56089e-07
1.30905e-06 -4.56089e-07 0.000960415
0.0034791 -0.000399492 5.92066e-05
-0.000399492 0.00131588 -0.000113191
5.92066e-05 -0.000113191 -0.00139198
0.00541816 -0.000847536 -7.67991e-05
-0.000847536 0.000775381 -1.18748e-07
-7.67991e-05 -1.18748e-07 0.000261227
0.0022551 -0.000730877 -0.000107624
-0.000730877 0.000170279 7.41715e-05
-0.000107624 7.41715e-05 -0.0023979
0.010166 0.00129703 9.28704e-05
0.00129703 0.00341649 4.92976e-05
9.28704e-05 4.92976e-05 0.00288663
0.00263007 0.000215137 5.3354e-05
0.000215137 -0.00295384 -7.83688e-05
5.3354e-05 -7.83688e-05 -0.00196952
0.00527259 -0.00128402 -1.61819e-05
-0.00128402 0.00123249 2.97388e-06
-1.61819e-05 2.97388e-06 0.000508962
0.00663237 -0.00100565 -1.04135e-05
-0.00100565 0.00305679 1.97773e-05
-1.04135e-05 1.97773e-05 -0.000159347
-0.00268852 0.000867369 -2.63621e-05
0.000867369 -0.000207459 -0.000104602
-2.63621e-05 -0.000104602 -0.00184702
0.00529199 6.37964e-05 -1.35776e-05
6.37964e-05 -0.00231261 4.1387e-05
-1.35776e-05 4.1387e-05 -0.00015105
0.00207973 -0.000823126 -3.96272e-05
-0.000823126 0.000320064 -2.09963e-05
-3.96272e-05 -2.09963e-05 -0.000316956
0.0110671 -0.00126443 -5.15945e-05
-0.00126443 0.00497343 4.91077e-05
-5.15945e-05 4.91077e-05 0.00123496
-0.00925321 -0.00010018 4.18214e-05
-0.00010018 -0.00063459 -0.000182507
4.18214e-05 -0.000182507 -0.00268596
0.00368468 -0.000780661 3.13823e-05
-0.000780661 -0.00192439 -2.30059e-05
3.13823e-05 -2.30059e-05 -0.000754048
0.000742025 4.20096e-05 -3.40815e-07
4.20096e-05 0.000107179 5.85619e-06
-3.40815e-07 5.85619e-06 -2.68164e-05
0.00063813 6.69389e-06 3.06227e-07
6.69389e-06 7.10377e-05 -5.01239e-07
3.06227e-07 -5.01239e-07 -7.43796e-05
0.000741203 -6.60337e-05 7.75611e-07
-6.60337e-05 0.000144746 -1.44585e-06
7.75611e-07 -1.44585e-06 7.34195e-07
0.000741207 5.72217e-05 -5.68736e-07
5.72217e-05 0.000105458 -7.28454e-07
-5.68736e-07 -7.28454e-07 -1.95651e-05
0.000841854 0.000117062 1.00229e-06
0.000117062 0.000194187 4.24646e-08
1.00229e-06 4.24646e-08 5.98452e-05
0.00105652 0.000123529 -1.52365e-06
0.000123529 0.000317761 -3.9471e-07
-1.52365e-06 -3.9471e-07 0.000188922
9.92782e-05 -0.000433458 1.8635e-05
-0.000433458 -0.000725518 8.09483e-06
1.8635e-05 8.09483e-06 -0.000730134
-0.000676726 -0.000111268 1.97547e-05
-0.000111268 -0.000653404 -2.03694e-05
1.97547e-05 -2.03694e-05 -0.000666476
0.000789105 5.99095e-05 -1.1015e-06
5.99095e-05 0.000173505 -9.57689e-07
-1.1015e-06 -9.57689e-07 2.17159e-05
0.00178532 -0.000212233 3.11695e-05
-0.000212233 0.000789681 -3.2613e-05
3.11695e-05 -3.2613e-05 0.000559554
0.00147916 1.84024e-05 -2.52075e-06
1.84024e-05 0.000646723 6.13556e-07
-2.52075e-06 6.13556e-07 0.000428173
0.000650737 2.86914e-05 -2.56689e-07
2.86914e-05 6.59115e-05 1.55625e-06
-2.56689e-07 1.55625e-06 -7.11162e-05
0.000594221 9.96109e-05 4.49915e-07
9.96109e-05 9.82538e-05 -5.97186e-07
4.49915e-07 -5.97186e-07 -6.24276e-05
0.000324318 -0.000389924 -1.05794e-06
-0.000389924 -0.000500115 -3.09632e-06
-1.05794e-06 -3.09632e-06 -0.000485217
0.0007452 -1.90202e-05 1.76462e-06
-1.90202e-05 0.000342585 -8.88929e-07
1.76462e-06 -8.88929e-07 8.76505e-05
0.000577215 -8.13675e-05 1.9129e-05
-8.13675e-05 0.000341099 -7.98653e-07
1.9129e-05 -7.98653e-07 0.000222896
0.00078434 7.01316e-05 3.50456e-06
7.01316e-05 0.000155994 -9.31604e-06
3.50456e-06 -9.31604e-06 2.93595e-05
-0.00253598 0.000146903 -7.79894e-05
0.000146903 -0.00107564 -1.35785e-05
-7.79894e-05 -1.35785e-05 -0.00146873
-0.000117194 1.53257e-05 1.04251e-05
1.53257e-05 -3.47287e-05 3.13794e-05
1.04251e-05 3.13794e-05 -0.000161998
0.00140353 2.53823e-06 4.26292e-06
2.53823e-06 0.000689159 1.88976e-06
4.26292e-06 1.88976e-06 0.000486764
0.000940781 -2.73872e-05 -5.51981e-07
-2.73872e-05 -6.66933e-05 2.89503e-07
-5.51981e-07 2.89503e-07 -0.00057162
0.000574671 -2.48003e-05 -1.59871e-05
-2.48003e-05 0.000492356 -9.63379e-06
-1.59871e-05 -9.63379e-06 -1.22454e-05
0.00095036 -3.67437e-05 0.00016069
-3.67437e-05 0.00068404 -7.05771e-06
0.00016069 -7.05771e-06 -0.000830094
0.000568187 0.000176736 1.29653e-05
0.000176736 0.00035421 1.38224e-05
1.29653e-05 1.38224e-05 0.000173792
0.00146341 0.000409614 9.15111e-06
0.000409614 0.000435877 -1.29863e-05
9.15111e-06 -1.29863e-05 0.000172955
0.000725829 -5.86228e-05 9.78591e-06
-5.86228e-05 0.000138206 5.05444e-06
9.78591e-06 5.05444e-06 4.86473e-05
-0.00249151 0.000497479 4.29814e-05
0.000497479 0.000139033 5.15687e-05
4.29814e-05 5.15687e-05 -0.00351321
-0.0104033 0.000405052 -7.12769e-05
0.000405052 -0.00367972 -0.000209469
-7.12769e-05 -0.000209469 -0.00568484
0.00274494 3.30978e-05 3.42697e-05
3.30978e-05 0.000752922 5.87422e-05
3.42697e-05 5.87422e-05 0.000159428
0.00273563 0.000332813 -5.92023e-05
0.000332813 -0.00287795 7.68699e-05
-5.92023e-05 7.68699e-05 -0.00195025
0.000515403 0.000161878 7.14111e-06
0.000161878 0.000378022 -1.91814e-06
7.14111e-06 -1.91814e-06 0.000172182
0.00158147 -3.32584e-06 1.18536e-05
-3.32584e-06 -0.000217111 -2.02563e-05
1.18536e-05 -2.02563e-05 -7.27389e-05
0.00333284 -0.00013525 -2.08952e-06
-0.00013525 0.00209962 2.99191e-07
-2.08952e-06 2.99191e-07 0.000941768
0.00134479 0.00020154 -3.39088e-05
0.00020154 0.000451725 -3.05305e-06
-3.39088e-05 -3.05305e-06 -7.05176e-05
0.00318544 0.00129509 5.83217e-05
0.00129509 -0.00144069 -0.000151357
5.83217e-05 -0.000151357 -0.000888827
-0.00247858 0.000821186 2.34119e-05
0.000821186 -0.00089808 0.000103048
2.34119e-05 0.000103048 -0.00207566
0.00681909 2.46222e-05 6.19121e-05
2.46222e-05 0.00522623 -2.50041e-05
6.19121e-05 -2.50041e-05 0.000187883
0.00183479 -6.23506e-05 5.05415e-05
-6.23506e-05 0.00138771 -1.99964e-05
5.05415e-05 -1.99964e-05 0.000984806
0.0010114 3.435e-05 -9.31349e-06
3.435e-05 0.000451234 -1.14036e-05
-9.31349e-06 -1.14036e-05 0.000246224
0.0035967 -0.000269256 0.000215724
-0.000269256 0.00104453 -0.000155668
0.000215724 -0.000155668 -0.00104994
0.00456522 0.00174074 1.02278e-06
0.00174074 0.00316736 -1.56945e-05
1.02278e-06 -1.56945e-05 0.0039023
-0.00441466 0.000892385 3.90316e-05
0.000892385 -0.00438675 0.000286585
3.90316e-05 0.000286585 -0.0044323
0.0127934 -0.00117949 0.000113422
-0.00117949 0.00525166 -9.97185e-05
0.000113422 -9.97185e-05 0.00158584
0.00352664 -0.000398366 -7.45436e-05
-0.000398366 0.00120385 8.49711e-05
-7.45436e-05 8.49711e-05 0.000988243
0.00077491 0.00013205 7.64307e-06
0.00013205 0.000511287 6.40026e-06
7.64307e-06 6.40026e-06 0.000323798
-3.28681e-05 6.1409e-06 -1.59759e-05
6.1409e-06 0.000108612 1.93113e-06
-1.59759e-05 1.93113e-06 -3.82346e-05
0.00128419 -0.000263797 1.64214e-05
-0.000263797 0.000838857 -1.14281e-05
1.64214e-05 -1.14281e-05 0.000566499
0.00112957 -8.0078e-05 8.59032e-07
-8.0078e-05 0.000404249 3.34556e-06
8.59032e-07 3.34556e-06 0.000314002
-0.000259046 -2.80205e-05 5.04322e-06
-2.80205e-05 -0.000195627 1.04349e-05
5.04322e-06 1.04349e-05 -0.000299308
0.000187825 -0.000169527 -1.23427e-06
-0.000169527 7.71326e-05 -5.13828e-07
-1.23427e-06 -5.13828e-07 -8.65556e-05
0.00137874 -0.000289119 2.53252e-05
-0.000289119 0.000636062 -1.63539e-05
2.53252e-05 -1.63539e-05 0.000353142
0.00218533 -0.000189031 -5.67743e-06
-0.000189031 0.00092269 4.71408e-06
-5.67743e-06 4.71408e-06 0.000807759
0.00184543 -0.000328457 2.40925e-06
-0.000328457 0.000750504 -1.79395e-07
2.40925e-06 -1.79395e-07 0.000514239
0.00127541 -0.000305887 9.84251e-06
-0.000305887 0.000462343 1.69498e-06
9.84251e-06 1.69498e-06 7.63455e-05
0.000135417 -0.000128048 -2.60974e-06
-0.000128048 -0.000275277 8.19774e-07
-2.60974e-06 8.19774e-07 -0.000417466
0.00140809 -0.000293592 -4.18157e-07
-0.000293592 0.00035572 1.26686e-06
-4.18157e-07 1.26686e-06 0.000105919
0.00186035 -0.00039141 4.36875e-07
-0.00039141 0.000529505 2.4778e-06
4.36875e-07 2.4778e-06 0.000198552
0.00173532 -0.000394245 -2.9668e-06
-0.000394245 0.000335839 3.11089e-06
-2.9668e-06 3.11089e-06 5.6944e-05
0.000768568 -0.000238104 2.07971e-07
-0.000238104 -6.88237e-05 5.27268e-06
2.07971e-07 5.27268e-06 -0.000291209
0.00129399 -0.000301774 -2.72128e-06
-0.000301774 0.000193013 1.79467e-06
-2.72128e-06 1.79467e-06 -5.97654e-05
0.00107749 -0.000247244 -7.98391e-06
-0.000247244 0.000170864 2.93036e-06
-7.98391e-06 2.93036e-06 -6.52752e-05
0.0017302 -0.000285083 5.21442e-06
-0.000285083 0.000607552 -1.66165e-06
5.21442e-06 -1.66165e-06 0.000399717
0.00137909 -0.0002593 2.62892e-06
-0.0002593 0.000375831 -2.82732e-06
2.62892e-06 -2.82732e-06 0.00017362
8.73e-05 -5.61346e-05 1.58193e-06
-5.61346e-05 -0.00026125 2.64968e-07
1.58193e-06 2.64968e-07 -0.000424879
0.000770909 -0.000171305 1.72722e-06
-0.000171305 0.000132087 -9.51048e-07
1.72722e-06 -9.51048e-07 -6.20903e-05
0.00106915 -0.00021658 5.70928e-06
-0.00021658 0.000234321 -4.35635e-06
5.70928e-06 -4.35635e-06 2.77119e-05
0.000580426 2.85526e-05 1.58889e-06
2.85526e-05 1.9818e-05 1.63038e-06
1.58889e-06 1.63038e-06 -9.18444e-05
0.000882029 -8.61716e-05 -3.55515e-07
-8.61716e-05 0.000212883 4.8682e-07
-3.55515e-07 4.8682e-07 7.07117e-05
0.00106544 -0.000192976 -9.02768e-07
-0.000192976 0.000333949 -4.49397e-07
-9.02768e-07 -4.49397e-07 0.000156999
0.000600042 2.53569e-05 -1.08069e-06
2.53569e-05 2.27742e-06 2.22799e-06
-1.08069e-06 2.22799e-06 -5.99421e-05
0.000721001 -7.25482e-06 -6.69322e-07
-7.25482e-06 9.11004e-05 -2.58654e-07
-6.69322e-07 -2.58654e-07 -2.57424e-06
0.000620038 -2.79795e-05 -1.9812e-07
-2.79795e-05 5.40362e-05 -1.84077e-07
-1.9812e-07 -1.84077e-07 -6.3007e-05
0.000764634 -3.07359e-05 4.36436e-07
-3.07359e-05 0.000118281 -1.00407e-06
4.36436e-07 -1.00407e-06 3.02777e-05
0.000649121 1.2442e-05 -2.83626e-07
1.2442e-05 2.53101e-05 -1.31162e-07
-2.83626e-07 -1.31162e-07 -3.01891e-05
0.000559556 5.18329e-05 -6.77061e-07
5.18329e-05 -2.96631e-05 4.34446e-06
-6.77061e-07 4.34446e-06 -5.15885e-05
0.000665574 2.37865e-06 1.90205e-06
2.37865e-06 3.0168e-05 -1.81988e-06
1.90205e-06 -1.81988e-06 -2.09706e-05
0.000580748 4.44726e-05 -9.48502e-08
4.44726e-05 -2.63847e-05 -2.95493e-08
-9.48502e-08 -2.95493e-08 -4.48947e-05
0.00226745 7.82072e-05 -2.3979e-05
7.82072e-05 0.000980978 3.79277e-06
-2.3979e-05 3.79277e-06 0.000990421
0.000567377 3.51715e-05 9.99633e-07
3.51715e-05 -4.10631e-05 -3.93446e-06
9.99633e-07 -3.93446e-06 -5.72591e-05
0.00153184 5.49787e-05 1.06247e-05
5.49787e-05 0.000538498 -1.0179e-06
1.06247e-05 -1.0179e-06 0.000546471
0.0023286 5.65086e-05 1.62312e-05
5.65086e-05 0.00100509 -4.42226e-06
1.62312e-05 -4.42226e-06 0.00101794
0.000705556 5.97741e-05 1.2813e-07
5.97741e-05 8.03979e-05 -9.52961e-07
1.2813e-07 -9.52961e-07 -1.85974e-05
0.000643283 1.91924e-05 -4.35955e-07
1.91924e-05 1.74922e-05 -2.30478e-06
-4.35955e-07 -2.30478e-06 -4.03313e-05
0.000580489 3.63994e-05 -1.12028e-06
3.63994e-05 1.44319e-05 -1.02428e-06
-1.12028e-06 -1.02428e-06 -8.61732e-05
0.000583186 -2.12022e-05 3.80577e-07
-2.12022e-05 -3.63261e-05 -4.22548e-06
3.80577e-07 -4.22548e-06 -5.11627e-05
0.000467129 1.21839e-05 -1.26979e-06
1.21839e-05 -8.37308e-05 -1.11677e-06
-1.26979e-06 -1.11677e-06 -0.000137906
0.000789767 3.69097e-05 -7.57331e-08
3.69097e-05 0.00013742 -4.35462e-07
-7.57331e-08 -4.35462e-07 4.38805e-05
0.00224552 -3.79348e-05 -1.49878e-05
-3.79348e-05 0.000948078 -4.69901e-06
-1.49878e-05 -4.69901e-06 0.000964293
0.000587995 -1.47654e-05 -2.18833e-07
-1.47654e-05 -3.6084e-05 -5.96391e-08
-2.18833e-07 -5.96391e-08 -4.7427e-05
0.000283268 -1.08287e-07 -6.7956e-07
-1.08287e-07 -0.000190463 1.02219e-06
-6.7956e-07 1.02219e-06 -0.000241121
0.00214684 -2.32598e-05 -3.75042e-06
-2.32598e-05 0.00088713 9.06746e-08
-3.75042e-06 9.06746e-08 0.000905294
0.00059231 -9.22115e-06 -2.69478e-07
-9.22115e-06 -3.47756e-05 3.5515e-06
-2.69478e-07 3.5515e-06 -4.34695e-05
0.0020786 -8.86332e-06 6.15026e-06
-8.86332e-06 0.000845558 4.7203e-06
6.15026e-06 4.7203e-06 0.000864871
0.00163319 -4.26271e-05 -8.19734e-06
-4.26271e-05 -0.000150541 1.73463e-05
-8.19734e-06 1.73463e-05 -3.66467e-05
0.000990697 -1.58262e-05 2.54013e-06
-1.58262e-05 0.000395832 -2.3817e-06
2.54013e-06 -2.3817e-06 0.000259209
0.00164274 -9.8635e-05 9.86129e-05
-9.8635e-05 0.000429327 -2.22783e-05
9.86129e-05 -2.22783e-05 -0.00089474
0.000579785 1.3149e-05 5.06895e-07
1.3149e-05 -1.17068e-05 -4.26216e-07
5.06895e-07 -4.26216e-07 -0.000113377
0.000888539 4.12599e-05 -3.05878e-07
4.12599e-05 0.000170796 -1.71232e-08
-3.05878e-07 -1.71232e-08 5.86159e-05
0.000810958 8.50288e-05 2.22342e-07
8.50288e-05 0.000146925 9.87289e-10
2.22342e-07 9.87289e-10 3.31977e-05
0.000620452 3.7061e-05 2.12624e-07
3.7061e-05 1.59117e-05 1.5282e-07
2.12624e-07 1.5282e-07 -8.92278e-05
0.000739715 5.46636e-05 4.79198e-08
5.46636e-05 0.000104481 4.61104e-07
4.79198e-08 4.61104e-07 -1.72768e-05
0.00072132 4.74007e-05 7.41725e-07
4.74007e-05 8.5002e-05 -1.08976e-07
7.41725e-07 -1.08976e-07 -3.00653e-05
0.000701476 0.0001459 2.24298e-06
0.0001459 0.000101083 3.77638e-06
2.24298e-06 3.77638e-06 -4.01344e-05
-0.000190816 2.17885e-05 5.48146e-05
2.17885e-05 2.63456e-05 0.000144078
5.48146e-05 0.000144078 -0.00148977
0.00253812 -4.57345e-05 -8.21388e-06
-4.57345e-05 0.000528109 4.76461e-05
-8.21388e-06 4.76461e-05 -0.000306639
0.0028918 -0.000144919 2.36675e-05
-0.000144919 0.00202462 -6.41759e-05
2.36675e-05 -6.41759e-05 0.00086338
0.00378984 -0.000128731 -1.6967e-05
-0.000128731 -0.00388723 4.50837e-05
-1.6967e-05 4.50837e-05 -0.00122695
0.00327275 -0.00106933 -7.48885e-05
-0.00106933 0.00111812 5.91287e-05
-7.48885e-05 5.91287e-05 0.000170365
-0.00181718 -0.00119362 -3.82929e-07
-0.00119362 -0.000409736 7.48321e-05
-3.82929e-07 7.48321e-05 -0.00410595
0.00797625 0.00152026 7.12245e-05
0.00152026 0.00437729 -4.20063e-05
7.12245e-05 -4.20063e-05 0.00252677
0.00366695 -0.000979444 -2.31621e-05
-0.000979444 0.000990635 4.16433e-06
-2.31621e-05 4.16433e-06 0.00035282
-0.000159844 -0.000450467 3.08075e-05
-0.000450467 0.00126479 1.96285e-05
3.08075e-05 1.96285e-05 -0.00292708
0.00440664 6.21991e-05 -9.0444e-08
6.21991e-05 0.00241518 -8.06739e-06
-9.0444e-08 -8.06739e-06 0.00129144
0.00827284 -0.00105705 -3.05608e-05
-0.00105705 0.00103379 -3.72823e-05
-3.05608e-05 -3.72823e-05 0.00219823
-0.00046259 1.44672e-05 -0.000135443
1.44672e-05 -0.00109416 6.42421e-05
-0.000135443 6.42421e-05 -0.000936105
0.000812418 0.00110288 -3.314e-05
0.00110288 0.00162534 -9.18807e-05
-3.314e-05 -9.18807e-05 -0.00255768
-0.0068912 -0.00161971 4.92582e-05
-0.00161971 -0.00397706 -0.000118143
4.92582e-05 -0.000118143 -0.00584572
0.00439918 -0.000989639 2.49868e-05
-0.000989639 -0.000979743 -0.000218795
2.49868e-05 -0.000218795 0.000372064
0.000826136 1.71417e-05 1.32741e-06
1.71417e-05 0.000165227 1.91519e-07
1.32741e-06 1.91519e-07 5.06341e-05
0.000660403 4.60614e-05 3.98086e-07
4.60614e-05 6.68716e-05 -6.29838e-07
3.98086e-07 -6.29838e-07 -6.86206e-05
0.000830518 4.79318e-06 4.98519e-07
4.79318e-06 0.000196959 -2.23762e-06
4.98519e-07 -2.23762e-06 4.06189e-05
0.000772505 4.70032e-05 -7.72613e-07
4.70032e-05 0.000131199 -3.52333e-06
-7.72613e-07 -3.52333e-06 -2.16641e-06
-0.000100215 -0.000383377 -3.72422e-06
-0.000383377 -0.000752656 2.70606e-05
-3.72422e-06 2.70606e-05 -0.000820318
0.00160651 -6.49372e-05 -1.20784e-05
-6.49372e-05 0.000927521 -2.6289e-05
-1.20784e-05 -2.6289e-05 0.000814435
0.000645975 2.68013e-05 -1.93695e-06
2.68013e-05 4.52971e-05 -2.64344e-06
-1.93695e-06 -2.64344e-06 -7.78479e-05
0.000704191 0.000119504 -1.36687e-06
0.000119504 0.000171977 3.37096e-06
-1.36687e-06 3.37096e-06 8.59004e-06
0.00251955 -5.99168e-05 1.37398e-05
-5.99168e-05 0.00132056 -2.34048e-05
1.37398e-05 -2.34048e-05 0.00110639
0.000844619 5.66409e-05 4.21596e-07
5.66409e-05 0.000187504 2.70088e-06
4.21596e-07 2.70088e-06 6.55087e-05
0.000681641 8.84671e-05 -2.03444e-06
8.84671e-05 0.000300587 -1.98916e-06
-2.03444e-06 -1.98916e-06 7.88526e-05
-7.49967e-05 2.81541e-05 4.23911e-05
2.81541e-05 0.000103747 -1.54637e-05
4.23911e-05 -1.54637e-05 -0.000391944
0.000408329 4.97981e-06 3.06593e-05
4.97981e-06 0.000272538 -1.72035e-07
3.06593e-05 -1.72035e-07 0.000170425
0.000477184 0.000126423 -1.35016e-07
0.000126423 0.000136647 -6.19804e-06
-1.35016e-07 -6.19804e-06 -1.94812e-05
7.95561e-05 -9.49711e-05 -2.89723e-05
-9.49711e-05 0.000623189 -4.21393e-05
-2.89723e-05 -4.21393e-05 -0.000522512
0.0037 0.000117134 2.00393e-05
0.000117134 0.00200441 2.14041e-05
2.00393e-05 2.14041e-05 0.00181391
0.000782339 -1.11643e-05 4.39559e-06
-1.11643e-05 0.000631981 9.16153e-06
4.39559e-06 9.16153e-06 5.52552e-05
0.00134764 -3.41955e-05 -8.01362e-08
-3.41955e-05 0.000158647 3.80669e-07
-8.01362e-08 3.80669e-07 -0.000133328
0.000388572 -2.53715e-05 -4.89397e-07
-2.53715e-05 0.000333167 -1.36562e-05
-4.89397e-07 -1.36562e-05 -8.57787e-05
-0.000262925 8.56993e-05 -1.57437e-07
8.56993e-05 1.20429e-06 6.85647e-06
-1.57437e-07 6.85647e-06 -0.00017506
-0.000690321 0.000262837 4.43063e-05
0.000262837 -0.000746573 4.10234e-05
4.43063e-05 4.10234e-05 -0.000935107
0.00139904 -2.97651e-05 1.5519e-05
-2.97651e-05 -0.000321208 -3.17899e-06
1.5519e-05 -3.17899e-06 -0.000109286
0.00372941 -0.000924434 0.000116428
-0.000924434 0.00366133 -0.000126395
0.000116428 -0.000126395 -0.00130033
0.00789917 0.00158063 -6.46433e-05
0.00158063 0.00381013 4.03121e-05
-6.46433e-05 4.03121e-05 0.00220689
0.00302411 -9.11822e-05 -2.84784e-05
-9.11822e-05 0.00200273 6.46935e-05
-2.84784e-05 6.46935e-05 0.000865771
0.00523711 0.00138047 -3.14338e-05
0.00138047 5.85921e-05 -4.11603e-05
-3.14338e-05 -4.11603e-05 0.000407914
-0.000117399 0.000132633 -1.79318e-05
0.000132633 0.000384331 7.52704e-06
-1.79318e-05 7.52704e-06 -9.93085e-05
0.00107222 1.79706e-05 -3.0947e-06
1.79706e-05 0.000406104 2.52456e-06
-3.0947e-06 2.52456e-06 0.000284389
0.0035546 -0.000319841 7.48652e-05
-0.000319841 0.00110435 -9.08948e-06
7.48652e-05 -9.08948e-06 -0.00122059
0.000221556 -0.000160687 3.59446e-06
-0.000160687 -0.000551503 2.41928e-05
3.59446e-06 2.41928e-05 -0.000522631
-0.00132887 0.00186627 0.00011359
0.00186627 -0.000100016 -5.03544e-05
0.00011359 -5.03544e-05 0.00115966
0.00645287 0.000920352 -5.26965e-05
0.000920352 0.000322494 0.000106624
-5.26965e-05 0.000106624 0.000218018
-0.00262392 -0.000778456 6.98594e-05
-0.000778456 0.0003112 -6.51103e-05
6.98594e-05 -6.51103e-05 -0.00449228
0.000879445 -0.000103147 4.4142e-05
-0.000103147 0.000522138 -9.40444e-06
4.4142e-05 -9.40444e-06 0.000246781
0.00071387 -0.000126361 7.10896e-05
-0.000126361 -0.00019674 -2.85931e-05
7.10896e-05 -2.85931e-05 -0.00151837
-0.00182376 0.000136551 -0.000219754
0.000136551 0.00155057 -9.61968e-06
-0.000219754 -9.61968e-06 0.000205209
0.00280036 0.00170969 -0.000145091
0.00170969 0.000159053 0.000229226
-0.000145091 0.000229226 0.000531155
0.00795628 -0.000673534 1.25919e-05
-0.000673534 0.00360064 -1.02349e-05
1.25919e-05 -1.02349e-05 0.000421231
0.00330503 -0.000442645 -6.31168e-05
-0.000442645 0.000953212 5.45692e-05
-6.31168e-05 5.45692e-05 0.000646622
-0.000750063 5.02133e-05 3.10702e-05
5.02133e-05 -0.000306739 1.30972e-05
3.10702e-05 1.30972e-05 -0.000470079
5.49992e-05 -0.000168447 -1.04363e-05
-0.000168447 0.000200867 1.36834e-06
-1.04363e-05 1.36834e-06 -7.61508e-05
-0.000194862 -0.00020515 1.75427e-05
-0.00020515 -0.000219257 -5.4527e-06
1.75427e-05 -5.4527e-06 -0.000380389
-0.000672034 -0.000143215 -4.91825e-06
-0.000143215 -0.000375508 7.09e-06
-4.91825e-06 7.09e-06 -0.000527719
-0.000711437 -0.000151092 7.39883e-07
-0.000151092 -0.000460874 -4.52649e-06
7.39883e-07 -4.52649e-06 -0.00074485
0.00313267 -0.000533797 2.798e-05
-0.000533797 0.00122439 -3.41089e-06
2.798e-05 -3.41089e-06 0.000935474
0.00379735 -0.000518595 -8.38347e-06
-0.000518595 0.0017722 3.75471e-06
-8.38347e-06 3.75471e-06 0.00152125
0.002098 -0.000377791 4.51137e-06
-0.000377791 0.000850408 9.39919e-07
4.51137e-06 9.39919e-07 0.000487437
0.00115297 -0.000356124 8.39623e-06
-0.000356124 0.000168639 -4.15023e-06
8.39623e-06 -4.15023e-06 -0.000208376
0.00189209 -0.000337134 -7.43665e-06
-0.000337134 0.000590553 1.85138e-06
-7.43665e-06 1.85138e-06 0.000327091
0.00222424 -0.000431333 1.30463e-06
-0.000431333 0.00069409 4.67093e-07
1.30463e-06 4.67093e-07 0.000356999
0.00190982 -0.000422863 1.15541e-06
-0.000422863 0.000464304 -5.02256e-06
1.15541e-06 -5.02256e-06 0.000127569
0.00186118 -0.000389697 -5.32502e-07
-0.000389697 0.000339791 -2.6643e-06
-5.32502e-07 -2.6643e-06 9.44762e-05
0.00192224 -0.000403717 -2.58847e-06
-0.000403717 0.000433897 3.84522e-06
-2.58847e-06 3.84522e-06 0.000170018
0.00171326 -0.000395127 -8.20887e-07
-0.000395127 0.00032594 -3.43553e-07
-8.20887e-07 -3.43553e-07 4.17164e-05
0.000453763 -0.000195765 5.32501e-06
-0.000195765 -0.000234647 1.56612e-06
5.32501e-06 1.56612e-06 -0.00043187
0.00113049 -0.000264246 1.60072e-06
-0.000264246 0.000135238 7.98842e-08
1.60072e-06 7.98842e-08 -8.34138e-05
0.00129183 -0.000303764 -4.70595e-07
-0.000303764 0.000192825 -3.08495e-06
-4.70595e-07 -3.08495e-06 -6.48913e-05
0.00122289 -0.000226277 3.0594e-06
-0.000226277 0.000342237 1.03983e-06
3.0594e-06 1.03983e-06 0.000139341
0.0012667 -0.000241261 -1.95629e-06
-0.000241261 0.000335168 -1.65668e-06
-1.95629e-06 -1.65668e-06 0.00013396
0.000729366 -0.000198622 4.33393e-06
-0.000198622 3.5098e-06 -4.87534e-06
4.33393e-06 -4.87534e-06 -0.000183568
0.000545734 -5.16124e-05 2.47485e-06
-5.16124e-05 7.96366e-06 1.41625e-06
2.47485e-06 1.41625e-06 -0.000139789
0.000523056 -9.32031e-05 -4.41245e-07
-9.32031e-05 2.54e-06 9.95668e-07
-4.41245e-07 9.95668e-07 -0.000166464
0.00136585 -0.000228676 2.71351e-06
-0.000228676 0.000480685 -3.40658e-06
2.71351e-06 -3.40658e-06 0.000280139
0.000539473 3.70361e-05 3.4422e-09
3.70361e-05 -2.27128e-05 2.87738e-06
3.4422e-09 2.87738e-06 -9.88179e-05
0.000731698 -1.89123e-05 -4.13985e-07
-1.89123e-05 0.000112062 -5.78089e-07
-4.13985e-07 -5.78089e-07 -7.19756e-06
0.00119236 -0.000118325 1.8425e-07
-0.000118325 0.000397461 -3.74598e-07
1.8425e-07 -3.74598e-07 0.00024843
0.000519067 6.2112e-05 -1.04234e-06
6.2112e-05 -4.20198e-05 6.23252e-06
-1.04234e-06 6.23252e-06 -6.85546e-05
0.000641801 2.22007e-05 -2.58586e-07
2.22007e-05 2.49974e-05 -2.8657e-07
-2.58586e-07 -2.8657e-07 -3.71762e-05
0.000810629 -2.92838e-05 -3.13263e-07
-2.92838e-05 0.000145331 -1.42373e-06
-3.13263e-07 -1.42373e-06 4.79973e-05
0.000663261 1.0825e-05 1.47276e-06
1.0825e-05 3.26073e-05 -2.08069e-06
1.47276e-06 -2.08069e-06 -2.27747e-05
0.000563322 5.44184e-05 1.736e-08
5.44184e-05 -2.62816e-05 -1.8439e-08
1.736e-08 -1.8439e-08 -4.88155e-05
0.00231531 9.22485e-05 -2.63796e-05
9.22485e-05 0.00101784 3.43507e-06
-2.63796e-05 3.43507e-06 0.00102404
0.00057888 4.62427e-05 4.13272e-07
4.62427e-05 -2.72732e-05 -4.13147e-06
4.13272e-07 -4.13147e-06 -4.60472e-05
0.00229543 8.06517e-05 2.50965e-06
8.06517e-05 0.000998408 2.12552e-07
2.50965e-06 2.12552e-07 0.00100734
0.0022893 6.89319e-05 1.96281e-05
6.89319e-05 0.000988031 -3.99624e-06
1.96281e-05 -3.99624e-06 0.000999233
0.000722367 4.86795e-05 8.76467e-08
4.86795e-05 9.58169e-05 -5.54933e-07
8.76467e-08 -5.54933e-07 -2.27204e-05
0.000771842 7.83637e-05 1.17457e-07
7.83637e-05 0.000128835 -1.27686e-06
1.17457e-07 -1.27686e-06 1.75205e-05
0.000653678 1.09776e-05 -5.08176e-07
1.09776e-05 2.29884e-05 -2.55743e-06
-5.08176e-07 -2.55743e-06 -3.99912e-05
0.000720585 7.12559e-05 -1.13156e-07
7.12559e-05 8.88185e-05 2.1986e-08
-1.13156e-07 2.1986e-08 -1.03426e-05
0.000572834 -2.72854e-05 1.47617e-07
-2.72854e-05 -3.79443e-05 -4.72692e-06
1.47617e-07 -4.72692e-06 -5.6729e-05
0.00064235 1.91062e-05 -8.85076e-08
1.91062e-05 1.74894e-05 -8.84137e-08
-8.85076e-08 -8.84137e-08 -4.03058e-05
0.000658679 3.84472e-05 -1.62309e-06
3.84472e-05 4.96392e-05 3.32722e-07
-1.62309e-06 3.32722e-07 -4.25286e-05
0.00234241 -5.17054e-05 -1.96569e-05
-5.17054e-05 0.00100868 -4.62088e-06
-1.96569e-05 -4.62088e-06 0.0010227
0.000584465 -2.11197e-05 -2.34398e-07
-2.11197e-05 -3.53816e-05 -6.04495e-08
-2.34398e-07 -6.04495e-08 -5.01039e-05
0.000589197 2.22543e-05 -9.39462e-07
2.22543e-05 -1.22675e-05 9.52256e-07
-9.39462e-07 9.52256e-07 -6.52304e-05
0.00222132 -3.65346e-05 -3.85213e-06
-3.65346e-05 0.000933323 1.38407e-07
-3.85213e-06 1.38407e-07 0.000949895
0.000588294 -1.46282e-05 -3.19184e-07
-1.46282e-05 -3.61023e-05 3.7183e-06
-3.19184e-07 3.7183e-06 -4.72629e-05
0.00212625 -2.19085e-05 1.02795e-05
-2.19085e-05 0.000874606 4.68293e-06
1.02795e-05 4.68293e-06 0.00089304
0.00086414 -8.21036e-05 7.43353e-06
-8.21036e-05 0.000100182 1.413e-05
7.43353e-06 1.413e-05 7.21484e-05
0.00155144 -6.64459e-05 -1.35059e-05
-6.64459e-05 -0.000230207 2.03651e-05
-1.35059e-05 2.03651e-05 -7.23387e-05
0.00107087 -3.04078e-05 4.59633e-06
-3.04078e-05 0.000353971 -9.97261e-06
4.59633e-06 -9.97261e-06 0.000283823
0.000734121 4.91703e-05 -2.01247e-07
4.91703e-05 9.45384e-05 3.59526e-08
-2.01247e-07 3.59526e-08 -1.93337e-05
0.000699629 2.79503e-05 7.11513e-07
2.79503e-05 6.20611e-05 -8.22532e-08
7.11513e-07 -8.22532e-08 -4.77593e-05
0.000442464 2.67352e-05 -1.81196e-06
2.67352e-05 -8.67834e-05 -3.03568e-06
-1.81196e-06 -3.03568e-06 -0.000195106
0.000480655 3.23674e-06 7.42456e-08
3.23674e-06 -6.03391e-05 -3.99869e-07
7.42456e-08 -3.99869e-07 -0.000170359
0.00109271 0.000118186 -3.16732e-07
0.000118186 0.000312259 -1.2629e-06
-3.16732e-07 -1.2629e-06 0.000180624
0.000659345 1.85925e-05 -1.03271e-06
1.85925e-05 3.33343e-05 3.56642e-07
-1.03271e-06 3.56642e-07 -6.81912e-05
0.000677355 4.3205e-05 -1.04011e-06
4.3205e-05 5.974e-05 -2.32146e-06
-1.04011e-06 -2.32146e-06 -5.54979e-05
0.000776733 5.38969e-05 -8.79982e-08
5.38969e-05 0.000118749 -1.30911e-07
-8.79982e-08 -1.30911e-07 1.31941e-06
0.000928308 8.66036e-05 3.6131e-07
8.66036e-05 0.000214726 2.94436e-07
3.6131e-07 2.94436e-07 8.74909e-05
0.00101637 5.87368e-05 1.06549e-06
5.87368e-05 0.000275774 -2.62648e-07
1.06549e-06 -2.62648e-07 0.000149587
0.00264387 0.000166481 0.000137658
0.000166481 0.00136354 0.000195755
0.000137658 0.000195755 -0.00103057
0.00056332 6.47123e-05 9.35435e-06
6.47123e-05 0.000167904 5.42007e-05
9.35435e-06 5.42007e-05 -0.00136381
0.00262504 -3.55441e-05 -1.32028e-05
-3.55441e-05 0.00085336 -6.22048e-06
-1.32028e-05 -6.22048e-06 0.000194431
0.00844326 -0.000927637 -8.3259e-05
-0.000927637 0.00118838 -8.85713e-05
-8.3259e-05 -8.85713e-05 0.0024823
-0.0106502 0.000684014 -3.466e-05
0.000684014 -0.00354715 0.000218468
-3.466e-05 0.000218468 -0.00570707
0.00551003 -0.0010318 -0.000115698
-0.0010318 0.00205775 5.52721e-05
-0.000115698 5.52721e-05 0.00142947
0.0102451 -0.000771869 -5.20153e-05
-0.000771869 0.00435293 -1.30445e-05
-5.20153e-05 -1.30445e-05 0.000992389
0.0022345 -0.000118568 -8.90433e-06
-0.000118568 0.000360816 5.38848e-05
-8.90433e-06 5.38848e-05 4.89861e-05
0.011335 -0.000126013 1.16607e-05
-0.000126013 0.0055627 -1.54164e-05
1.16607e-05 -1.54164e-05 0.00152305
0.00198019 -0.000989903 4.79739e-05
-0.000989903 0.000268585 5.74159e-05
4.79739e-05 5.74159e-05 -0.00103668
0.00361569 -0.00117566 -0.000118279
-0.00117566 -0.00159357 -0.00026191
-0.000118279 -0.00026191 -0.000321474
0.00337375 0.000108041 -0.000105636
0.000108041 0.000752354 3.09874e-05
-0.000105636 3.09874e-05 0.000237341
0.00940811 0.000797339 -2.02002e-05
0.000797339 0.00432998 1.89076e-05
-2.02002e-05 1.89076e-05 0.00110023
0.0105262 -0.00180089 -3.83412e-05
-0.00180089 0.00339398 -0.000214387
-3.83412e-05 -0.000214387 0.00324811
0.00657713 -0.00187764 5.78072e-05
-0.00187764 0.00122641 3.37096e-06
5.78072e-05 3.37096e-06 0.00264989
0.00012911 5.66467e-05 1.2619e-06
5.66467e-05 -0.000168095 -3.89288e-06
1.2619e-06 -3.89288e-06 -0.000282492
0.00098366 1.44715e-05 6.09173e-07
1.44715e-05 0.000267895 2.49981e-06
6.09173e-07 2.49981e-06 0.000138185
0.00069173 5.218e-05 -6.17103e-07
5.218e-05 8.65478e-05 -4.48025e-06
-6.17103e-07 -4.48025e-06 -5.11976e-05
0.00127592 -3.08853e-05 -4.34923e-05
-3.08853e-05 0.000760043 2.22332e-05
-4.34923e-05 2.22332e-05 0.000127002
0.00100541 -4.02314e-05 -7.10942e-05
-4.02314e-05 0.000629241 -2.81335e-05
-7.10942e-05 -2.81335e-05 0.000543764
0.000750066 2.93542e-06 -2.27432e-06
2.93542e-06 0.000134933 4.71571e-06
-2.27432e-06 4.71571e-06 1.09133e-05
-0.000941248 8.1044e-05 -3.85319e-06
8.1044e-05 -0.000586303 -4.46792e-06
-3.85319e-06 -4.46792e-06 -0.000833569
0.000551223 7.58487e-05 1.83942e-07
7.58487e-05 0.000180112 -2.97346e-06
1.83942e-07 -2.97346e-06 1.32685e-05
0.000645302 9.85297e-05 -3.57745e-06
9.85297e-05 0.000370351 3.57406e-06
-3.57745e-06 3.57406e-06 0.000150618
-0.000329124 -4.47259e-05 0.000117642
-4.47259e-05 0.00064121 -3.97612e-05
0.000117642 -3.97612e-05 -0.000514744
-0.00237557 -2.57121e-06 -2.22683e-05
-2.57121e-06 -0.00130329 1.19263e-05
-2.22683e-05 1.19263e-05 -0.00147742
0.00239232 0.000262213 -2.97275e-05
0.000262213 0.00141406 -4.01129e-05
-2.97275e-05 -4.01129e-05 0.000651808
0.00185422 6.20353e-06 7.27007e-05
6.20353e-06 0.000915877 1.09897e-05
7.27007e-05 1.09897e-05 -0.000605291
0.000590581 -1.43713e-05 1.64788e-05
-1.43713e-05 0.000490731 1.03134e-05
1.64788e-05 1.03134e-05 -8.83209e-06
0.00179487 -5.37129e-05 1.65278e-07
-5.37129e-05 0.000398521 2.76605e-07
1.65278e-07 2.76605e-07 0.000310467
-0.0025046 0.000177888 6.12742e-05
0.000177888 -0.000853648 7.45372e-06
6.12742e-05 7.45372e-06 -0.00146743
0.00342573 0.000112363 -2.24567e-05
0.000112363 0.001235 -2.6517e-06
-2.24567e-05 -2.6517e-06 0.000698935
0.00112348 -7.92492e-06 -1.43271e-06
-7.92492e-06 0.000376115 8.99751e-06
-1.43271e-06 8.99751e-06 0.000310697
0.0158054 -0.00128952 0.000117243
-0.00128952 0.00689658 -2.83859e-05
0.000117243 -2.83859e-05 0.00311189
0.00979519 0.00135299 -7.11129e-05
0.00135299 0.00318815 -4.22709e-05
-7.11129e-05 -4.22709e-05 0.00259282
0.00358786 -0.000358568 -6.48378e-05
-0.000358568 0.00125353 0.000114953
-6.48378e-05 0.000114953 -0.0013466
-0.00738385 0.00207976 0.000528521
0.00207976 -0.00358806 -0.000401157
0.000528521 -0.000401157 -0.00184127
0.00098244 -0.000133407 3.77645e-06
-0.000133407 0.000716594 -2.70138e-06
3.77645e-06 -2.70138e-06 0.00037266
0.001115 -0.000103391 -5.52484e-06
-0.000103391 5.48114e-05 8.68586e-06
-5.52484e-06 8.68586e-06 -0.00132271
-0.0027419 0.000193532 -0.00030268
0.000193532 0.00157329 0.000133017
-0.00030268 0.000133017 0.000291166
0.00184334 -0.000315805 -2.51077e-05
-0.000315805 0.000270506 3.46373e-05
-2.51077e-05 3.46373e-05 -1.57766e-05
0.0102774 0.00183168 7.0249e-05
0.00183168 0.00325298 6.7594e-05
7.0249e-05 6.7594e-05 0.00370147
0.00743048 -0.00122818 7.3973e-05
-0.00122818 0.00311463 -4.90522e-05
7.3973e-05 -4.90522e-05 0.00017587
0.000766415 -0.000240845 9.66371e-06
-0.000240845 0.000102591 2.50459e-05
9.66371e-06 2.50459e-05 0.000144125
-0.00365509 -0.000266105 2.92586e-05
-0.000266105 0.00119254 -1.65823e-05
2.92586e-05 -1.65823e-05 -0.000725114
0.00858247 0.00166686 -0.00031939
0.00166686 0.00409479 0.000149035
-0.00031939 0.000149035 0.00399812
0.00235906 -0.000674367 -0.000167499
-0.000674367 -0.000188035 0.0001184
-0.000167499 0.0001184 -0.00318246
0.00219679 -0.000821032 7.9898e-05
-0.000821032 0.000316144 -3.06081e-05
7.9898e-05 -3.06081e-05 5.72582e-05
-0.000428793 -0.000149255 -3.33063e-05
-0.000149255 -7.97014e-05 1.35516e-05
-3.33063e-05 1.35516e-05 -0.000335346
0.000432695 -0.000235971 -1.07562e-06
-0.000235971 0.000152329 4.18655e-06
-1.07562e-06 4.18655e-06 -7.1434e-05
0.00393876 -0.000567399 3.21296e-05
-0.000567399 0.00156607 4.04464e-06
3.21296e-05 4.04464e-06 0.00145229
-0.00265501 -3.33188e-05 -4.66147e-06
-3.33188e-05 -0.00147618 1.01697e-05
-4.66147e-06 1.01697e-05 -0.00175918
0.00076385 -0.00031401 2.90599e-06
-0.00031401 1.8719e-05 8.10241e-07
2.90599e-06 8.10241e-07 -0.000275944
0.0022532 -0.000520218 4.9497e-06
-0.000520218 0.000505291 5.77273e-07
4.9497e-06 5.77273e-07 0.000261788
0.00273379 -0.000429641 -1.10889e-05
-0.000429641 0.00113693 2.90437e-06
-1.10889e-05 2.90437e-06 0.000800376
0.00129581 -0.000362604 -2.13345e-06
-0.000362604 0.000218817 -3.34779e-06
-2.13345e-06 -3.34779e-06 -0.000134731
0.00204466 -0.000488908 4.72912e-06
-0.000488908 0.00039265 -3.94986e-06
4.72912e-06 -3.94986e-06 0.000120325
0.0024938 -0.000461904 -4.3909e-06
-0.000461904 0.000808951 -2.4618e-06
-4.3909e-06 -2.4618e-06 0.000466771
0.00154636 -0.000393801 -6.92163e-08
-0.000393801 0.000237972 -2.9391e-06
-6.92163e-08 -2.9391e-06 -8.48498e-05
0.00194578 -0.000410828 -2.01188e-07
-0.000410828 0.000323259 -6.22958e-06
-2.01188e-07 -6.22958e-06 8.48443e-05
0.00169779 -0.000325801 -2.03622e-06
-0.000325801 0.000155362 -3.12577e-06
-2.03622e-06 -3.12577e-06 -3.83033e-05
0.00165483 -0.000379567 2.49262e-06
-0.000379567 0.000215952 -7.49544e-07
2.49262e-06 -7.49544e-07 -3.02928e-05
0.00172053 -0.000378582 1.75693e-06
-0.000378582 0.000262423 -1.9992e-06
1.75693e-06 -1.9992e-06 2.00458e-05
0.00169976 -0.000333973 -1.23587e-06
-0.000333973 0.000359772 3.88098e-06
-1.23587e-06 3.88098e-06 0.000124356
0.00180694 -0.000394227 -1.74838e-06
-0.000394227 0.000384471 1.94913e-07
-1.74838e-06 1.94913e-07 0.000117554
0.00170688 -0.000398066 7.08191e-07
-0.000398066 0.000324665 -3.50972e-06
7.08191e-07 -3.50972e-06 3.50406e-05
0.00110029 -0.000234347 3.55492e-06
-0.000234347 0.000187383 5.21782e-07
3.55492e-06 5.21782e-07 -1.53751e-05
0.000738224 -0.000217296 4.25456e-09
-0.000217296 -6.74414e-05 -8.66921e-07
4.25456e-09 -8.66921e-07 -0.000263601
0.00155127 -0.00029634 4.96812e-06
-0.00029634 0.000373299 -4.42985e-06
4.96812e-06 -4.42985e-06 0.000157963
0.000691202 -0.00015189 -3.71405e-08
-0.00015189 5.62035e-05 -5.849e-07
-3.71405e-08 -5.849e-07 -0.000117321
0.000893451 -0.000191436 1.1501e-07
-0.000191436 0.000153494 -2.54352e-07
1.1501e-07 -2.54352e-07 -4.26418e-05
0.000827021 -0.000199349 -2.72093e-06
-0.000199349 7.66507e-05 -8.63395e-07
-2.72093e-06 -8.63395e-07 -0.000118351
0.000507499 3.6453e-05 1.18192e-06
3.6453e-05 -3.20476e-05 4.39863e-06
1.18192e-06 4.39863e-06 -0.000130937
0.000781488 -7.58526e-05 1.08318e-06
-7.58526e-05 0.000151475 6.94726e-07
1.08318e-06 6.94726e-07 -5.13778e-06
0.00101462 -0.000135278 -2.43514e-06
-0.000135278 0.000299106 9.67595e-07
-2.43514e-06 9.67595e-07 0.000123789
0.00135991 0.000100189 -1.37189e-05
0.000100189 0.000470297 4.30662e-06
-1.37189e-05 4.30662e-06 0.000438433
0.000652288 1.45121e-05 -5.00596e-07
1.45121e-05 3.87702e-05 -6.41706e-07
-5.00596e-07 -6.41706e-07 -3.72876e-05
0.000887935 -5.68272e-05 -1.93567e-06
-5.68272e-05 0.000207618 -1.71767e-06
-1.93567e-06 -1.71767e-06 8.06485e-05
0.000747355 4.82159e-05 -2.71896e-05
4.82159e-05 9.88578e-05 3.4683e-06
-2.71896e-05 3.4683e-06 9.80276e-05
0.000980192 7.823e-05 -8.23615e-06
7.823e-05 0.000232594 4.62498e-08
-8.23615e-06 4.62498e-08 0.000206167
0.000683073 1.80963e-05 7.95502e-07
1.80963e-05 4.72381e-05 -2.60063e-06
7.95502e-07 -2.60063e-06 -1.48562e-05
0.000571831 5.92092e-05 -5.13953e-07
5.92092e-05 -1.92331e-05 -4.62476e-06
-5.13953e-07 -4.62476e-06 -4.29074e-05
0.00235917 9.44896e-05 3.03811e-06
9.44896e-05 0.00104455 2.71526e-07
3.03811e-06 2.71526e-07 0.00105026
0.00231412 8.25664e-05 2.27406e-05
8.25664e-05 0.00101043 -3.70355e-06
2.27406e-05 -3.70355e-06 0.00101895
0.000699125 4.54301e-05 4.76682e-07
4.54301e-05 7.00831e-05 -2.47584e-07
4.76682e-07 -2.47584e-07 -4.26071e-05
0.000789171 6.39117e-05 1.56748e-07
6.39117e-05 0.00013502 -1.66853e-06
1.56748e-07 -1.66853e-06 2.18821e-05
0.000662995 3.50451e-05 1.45076e-08
3.50451e-05 4.87858e-05 9.27966e-08
1.45076e-08 9.27966e-08 -6.05349e-05
0.000655975 -7.59023e-08 -7.34346e-07
-7.59023e-08 2.49932e-05 -2.72216e-06
-7.34346e-07 -2.72216e-06 -4.2566e-05
0.000732502 5.29464e-05 6.28108e-07
5.29464e-05 9.39314e-05 3.79067e-08
6.28108e-07 3.79067e-08 -8.21489e-06
0.000565411 -2.9819e-05 -5.32322e-07
-2.9819e-05 -3.70966e-05 -5.15123e-06
-5.32322e-07 -5.15123e-06 -5.98202e-05
0.000638049 1.44024e-05 -8.58083e-08
1.44024e-05 1.51719e-05 -8.47154e-08
-8.58083e-08 -8.47154e-08 -4.82556e-05
0.000747206 6.27278e-05 -2.11274e-07
6.27278e-05 0.000119275 1.58644e-06
-2.11274e-07 1.58644e-06 9.49474e-06
0.0024737 -6.58891e-05 -2.57006e-05
-6.58891e-05 0.00109075 -4.4592e-06
-2.57006e-05 -4.4592e-06 0.00110212
0.000567133 -2.73295e-05 -3.72104e-07
-2.73295e-05 -4.14509e-05 -4.0917e-08
-3.72104e-07 -4.0917e-08 -6.00694e-05
0.000627592 2.0475e-05 4.1319e-07
2.0475e-05 9.53361e-06 2.41668e-06
4.1319e-07 2.41668e-06 -4.82508e-05
0.00233875 -5.07192e-05 -3.87064e-06
-5.07192e-05 0.00100606 1.95671e-07
-3.87064e-06 1.95671e-07 0.00102034
0.000574872 -2.10275e-05 -4.02607e-07
-2.10275e-05 -4.08474e-05 4.07195e-06
-4.02607e-07 4.07195e-06 -5.54399e-05
0.00221685 -3.52594e-05 1.47981e-05
-3.52594e-05 0.000930185 4.63639e-06
1.47981e-05 4.63639e-06 0.000947
0.00387896 2.49584e-05 8.29361e-05
2.49584e-05 0.00150657 2.74545e-05
8.29361e-05 2.74545e-05 0.000516012
0.00076857 -7.65271e-05 -1.03382e-06
-7.65271e-05 0.000104738 3.62345e-06
-1.03382e-06 3.62345e-06 6.14699e-05
0.00140388 -7.57328e-05 -1.52614e-05
-7.57328e-05 -0.000318374 2.78976e-06
-1.52614e-05 2.78976e-06 -0.000112889
0.000722496 0.000104127 -3.81105e-06
0.000104127 7.69691e-05 -3.74242e-07
-3.81105e-06 -3.74242e-07 -4.39112e-05
0.000821039 5.23839e-05 -3.38243e-07
5.23839e-05 0.000141303 4.40509e-07
-3.38243e-07 4.40509e-07 3.06517e-05
0.00057395 1.94981e-05 1.43977e-07
1.94981e-05 -1.03106e-05 3.27004e-07
1.43977e-07 3.27004e-07 -0.000118014
0.00080138 2.51083e-05 -1.53915e-07
2.51083e-05 0.000120629 -8.42713e-08
-1.53915e-07 -8.42713e-08 1.16195e-05
0.000863621 6.69933e-05 -3.8266e-07
6.69933e-05 0.000159843 -4.01689e-08
-3.8266e-07 -4.01689e-08 4.551e-05
0.000917099 9.90302e-05 8.29751e-07
9.90302e-05 0.000207026 7.36078e-07
8.29751e-07 7.36078e-07 8.14819e-05
0.000863477 8.20803e-05 -1.00818e-06
8.20803e-05 0.000165345 -5.11272e-06
-1.00818e-06 -5.11272e-06 3.19975e-05
0.000212913 1.6248e-05 2.63935e-07
1.6248e-05 -0.000199654 -8.25731e-07
2.63935e-07 -8.25731e-07 -0.00031789
0.000816705 0.000106821 -1.16509e-06
0.000106821 0.000150513 2.80253e-08
-1.16509e-06 2.80253e-08 2.52613e-05
0.000572511 9.51294e-06 -6.10642e-07
9.51294e-06 -7.04949e-06 -2.79642e-06
-6.10642e-07 -2.79642e-06 -0.000115603
0.000679445 5.29105e-05 -3.74462e-07
5.29105e-05 7.94319e-05 5.16087e-07
-3.74462e-07 5.16087e-07 -4.26513e-05
0.00168319 0.000138058 6.8285e-06
0.000138058 0.00069833 5.63789e-06
6.8285e-06 5.63789e-06 0.000571983
0.000950833 -0.000701851 8.45617e-05
-0.000701851 0.00213968 0.000162118
8.45617e-05 0.000162118 0.000670013
0.00325629 0.000223793 1.95668e-05
0.000223793 0.00158585 6.20435e-05
1.95668e-05 6.20435e-05 -0.000855086
0.00101045 8.28367e-05 -2.27703e-05
8.28367e-05 0.000312523 -3.77178e-05
-2.27703e-05 -3.77178e-05 -0.00125415
0.00852621 -0.00153822 -0.000208071
-0.00153822 0.000997544 -0.000156326
-0.000208071 -0.000156326 0.00224754
0.00512298 -0.000511082 4.33561e-05
-0.000511082 0.00102848 0.000197865
4.33561e-05 0.000197865 -2.16171e-05
0.000708793 -0.000650734 -9.51379e-05
-0.000650734 0.00155132 9.39792e-05
-9.51379e-05 9.39792e-05 -0.00270039
0.00182723 -0.000247329 -2.57583e-05
-0.000247329 0.000429366 8.0849e-05
-2.57583e-05 8.0849e-05 -0.000117665
0.00300331 -0.000136445 1.95299e-05
-0.000136445 0.000648522 4.9729e-05
1.95299e-05 4.9729e-05 0.000317002
-0.000155815 -0.00192323 8.65911e-05
-0.00192323 -0.00114164 0.000102984
8.65911e-05 0.000102984 0.000468905
0.00508399 0.000757511 2.4087e-06
0.000757511 0.00338589 -1.61612e-05
2.4087e-06 -1.61612e-05 -0.000583351
0.00234886 -0.00101396 -3.12793e-05
-0.00101396 -0.0011338 4.08934e-05
-3.12793e-05 4.08934e-05 -0.00125759
0.00108303 0.000328687 5.23839e-07
0.000328687 -0.000185499 3.7485e-05
5.23839e-07 3.7485e-05 -0.000267405
0.00815485 0.000639252 -3.30034e-05
0.000639252 0.00395102 -2.98873e-06
-3.30034e-05 -2.98873e-06 0.000979431
0.00224777 -0.00164695 -0.00013957
-0.00164695 -0.000438218 -0.000151966
-0.00013957 -0.000151966 -0.000119351
0.000872262 0.000281585 5.19124e-06
0.000281585 0.000195004 -1.20045e-05
5.19124e-06 -1.20045e-05 6.90239e-05
0.000680057 8.33796e-05 3.58472e-06
8.33796e-05 0.000140931 -6.09947e-07
3.58472e-06 -6.09947e-07 2.90303e-05
0.000623608 3.50243e-05 -1.46173e-06
3.50243e-05 6.76239e-05 -1.82376e-06
-1.46173e-06 -1.82376e-06 -6.9054e-05
0.000138122 -3.75068e-05 -0.000160226
-3.75068e-05 0.000948701 -4.48203e-05
-0.000160226 -4.48203e-05 -0.000169222
-0.0021352 0.00011599 7.36622e-06
0.00011599 -0.00115224 -1.3512e-05
7.36622e-06 -1.3512e-05 -0.00138989
0.000404719 0.000111201 -1.22354e-06
0.000111201 0.000100764 2.95978e-06
-1.22354e-06 2.95978e-06 -7.72674e-05
0.000556349 0.000268448 9.89932e-06
0.000268448 0.000220331 3.48271e-06
9.89932e-06 3.48271e-06 3.53289e-05
0.000674973 0.000229098 -3.80821e-06
0.000229098 0.000437432 -3.13816e-05
-3.80821e-06 -3.13816e-05 -0.000209117
-0.000148851 0.000420241 2.39924e-05
0.000420241 -0.000494731 2.65636e-06
2.39924e-05 2.65636e-06 -0.000782623
-0.000567401 0.000210022 0.000133597
0.000210022 0.0028435 1.09567e-05
0.000133597 1.09567e-05 0.000828553
0.00197015 -2.55506e-05 -5.00674e-06
-2.55506e-05 0.000992929 1.69414e-05
-5.00674e-06 1.69414e-05 -0.000221671
0.00036066 -2.05578e-05 2.42e-06
-2.05578e-05 0.000334509 1.38114e-05
2.42e-06 1.38114e-05 -8.20028e-05
8.28779e-05 -8.52533e-05 -3.34748e-05
-8.52533e-05 0.000358068 5.23476e-06
-3.34748e-05 5.23476e-06 -6.94162e-06
0.000544227 -0.000115484 -4.67302e-05
-0.000115484 -0.000907796 6.59579e-06
-4.67302e-05 6.59579e-06 -0.000704817
0.00165555 -9.13994e-05 -8.26741e-05
-9.13994e-05 0.000288946 2.37119e-05
-8.26741e-05 2.37119e-05 -0.0010135
-0.00154779 -0.0011781 5.15777e-05
-0.0011781 -0.000171287 -8.22937e-05
5.15777e-05 -8.22937e-05 -0.00384728
-0.00221213 0.00139272 0.000128528
0.00139272 -0.00365832 -0.000136718
0.000128528 -0.000136718 -0.00303415
0.00205885 0.000678489 -0.000152474
0.000678489 0.00287361 0.000146031
-0.000152474 0.000146031 0.00207912
0.00203894 -0.000143841 -1.03072e-05
-0.000143841 0.000603198 1.32933e-08
-1.03072e-05 1.32933e-08 0.00077728
0.0015686 0.000163748 2.28443e-05
0.000163748 0.00307057 8.8116e-06
2.28443e-05 8.8116e-06 0.00189428
-0.00365357 0.00100206 2.87401e-05
0.00100206 -0.000985719 1.13761e-05
2.87401e-05 1.13761e-05 -0.0021552
0.00374824 -0.000978806 2.63403e-05
-0.000978806 0.001317 -6.56752e-06
2.63403e-05 -6.56752e-06 0.00060885
0.0103974 -0.00054537 1.19083e-05
-0.00054537 0.0035473 -9.48532e-06
1.19083e-05 -9.48532e-06 0.00166552
0.00258627 -0.000539096 -5.64867e-06
-0.000539096 0.000734317 2.4749e-05
-5.64867e-06 2.4749e-05 0.000798892
-0.00779677 0.000384312 -0.000188861
0.000384312 -0.00361566 2.82733e-06
-0.000188861 2.82733e-06 -0.00434398
0.0116071 -0.000266782 -7.56772e-05
-0.000266782 0.00336338 2.44258e-05
-7.56772e-05 2.44258e-05 0.00185713
0.00381811 -0.00109716 1.16425e-05
-0.00109716 8.0767e-05 -1.51236e-05
1.16425e-05 -1.51236e-05 -0.000513841
0.00121414 -0.000269959 -2.16927e-05
-0.000269959 0.000602922 1.63136e-05
-2.16927e-05 1.63136e-05 0.000316354
0.0017476 -0.000420215 -3.19068e-06
-0.000420215 0.000321458 1.38409e-06
-3.19068e-06 1.38409e-06 0.000290482
0.00286094 -0.000476117 1.32291e-05
-0.000476117 0.000721494 -2.63086e-06
1.32291e-05 -2.63086e-06 0.000683032
-0.00175175 -8.31097e-05 -4.25524e-06
-8.31097e-05 -0.00126154 -4.16338e-08
-4.25524e-06 -4.16338e-08 -0.00156604
0.00136499 -0.000436555 -4.26058e-06
-0.000436555 7.32401e-05 -1.95488e-06
-4.26058e-06 -1.95488e-06 -0.000177207
0.00222868 -0.000524691 2.71365e-06
-0.000524691 0.000355971 -1.60621e-07
2.71365e-06 -1.60621e-07 0.000154239
0.00140642 -0.000368023 -1.1926e-05
-0.000368023 0.000257537 -3.12312e-06
-1.1926e-05 -3.12312e-06 -7.61872e-05
0.00157849 -0.000444584 3.83584e-09
-0.000444584 0.000154889 2.36002e-07
3.83584e-09 2.36002e-07 -0.000118577
0.00178768 -0.000412327 -1.00166e-06
-0.000412327 0.000110844 -4.69324e-06
-1.00166e-06 -4.69324e-06 -7.88397e-05
0.00119696 -0.000366917 -3.58705e-06
-0.000366917 2.08201e-05 -4.8434e-07
-3.58705e-06 -4.8434e-07 -0.000288926
0.00161627 -0.0003817 -4.22652e-07
-0.0003817 0.000139147 4.7221e-07
-4.22652e-07 4.7221e-07 -9.38547e-05
0.00174283 -0.00032622 -1.86364e-06
-0.00032622 0.0001037 -5.19549e-06
-1.86364e-06 -5.19549e-06 -5.3525e-05
0.00160489 -0.000259369 -3.64507e-06
-0.000259369 4.22554e-05 -3.26886e-06
-3.64507e-06 -3.26886e-06 -9.99149e-05
0.00152714 -0.000309287 -1.80722e-06
-0.000309287 8.2987e-05 -2.08446e-06
-1.80722e-06 -2.08446e-06 -0.000116815
0.00160218 -0.000311906 8.70192e-07
-0.000311906 0.000105574 1.32342e-06
8.70192e-07 1.32342e-06 -8.32289e-05
0.00145424 -0.000325031 -2.30031e-06
-0.000325031 0.000143197 -1.42769e-08
-2.30031e-06 -1.42769e-08 -8.68997e-05
0.00159126 -0.000370187 1.67563e-06
-0.000370187 0.000189503 -2.61649e-07
1.67563e-06 -2.61649e-07 -5.30833e-05
0.00158753 -0.000368018 1.29835e-06
-0.000368018 0.00018925 5.5478e-07
1.29835e-06 5.5478e-07 -5.01683e-05
0.00121191 -0.00025765 -3.94607e-08
-0.00025765 0.000144472 2.6856e-06
-3.94607e-08 2.6856e-06 -6.43176e-05
0.00134884 -0.000306783 2.08308e-06
-0.000306783 0.000161615 -9.14108e-07
2.08308e-06 -9.14108e-07 -6.9742e-05
0.00152196 -0.000369947 -1.88529e-06
-0.000369947 0.000237479 -2.43491e-06
-1.88529e-06 -2.43491e-06 -3.0697e-05
0.000992232 -0.000198992 -7.72635e-07
-0.000198992 0.000161553 2.07174e-06
-7.72635e-07 2.07174e-06 -2.32636e-05
0.00117469 -0.000238891 5.20265e-07
-0.000238891 0.000224159 -3.2005e-07
5.20265e-07 -3.2005e-07 2.18447e-05
0.000946738 -0.000231952 -5.86272e-07
-0.000231952 5.53435e-05 -4.72816e-06
-5.86272e-07 -4.72816e-06 -0.00013913
0.000692994 -6.47795e-05 -8.89795e-07
-6.47795e-05 6.1613e-05 4.86022e-06
-8.89795e-07 4.86022e-06 -6.44872e-05
0.000925541 -0.000155841 8.00522e-09
-0.000155841 0.000191137 -6.99699e-08
8.00522e-09 -6.99699e-08 1.56739e-05
0.000497696 -0.000151434 -3.41305e-06
-0.000151434 -7.44515e-05 1.56731e-07
-3.41305e-06 1.56731e-07 -0.000262829
0.000411678 5.70345e-05 1.44311e-06
5.70345e-05 -8.59728e-05 7.37571e-06
1.44311e-06 7.37571e-06 -0.000128502
0.000701192 -3.29345e-05 -3.30291e-07
-3.29345e-05 8.00335e-05 -4.23744e-07
-3.30291e-07 -4.23744e-07 -2.39664e-05
0.00106908 -0.000108916 6.96981e-07
-0.000108916 0.000323198 -1.13533e-06
6.96981e-07 -1.13533e-06 0.00015833
0.00251023 0.000131281 -7.55069e-06
0.000131281 0.0011503 1.59899e-06
-7.55069e-06 1.59899e-06 0.00114608
0.000542912 6.47006e-05 -3.88602e-07
6.47006e-05 -1.65001e-05 -2.66739e-07
-3.88602e-07 -2.66739e-07 -4.98031e-05
0.000730504 -6.1688e-06 1.68866e-06
-6.1688e-06 8.2068e-05 -3.92186e-06
1.68866e-06 -3.92186e-06 4.89885e-06
0.00243732 0.000106564 3.25653e-06
0.000106564 0.00109814 2.77267e-07
3.25653e-06 2.77267e-07 0.00110097
0.000568437 6.33875e-05 -7.11356e-07
6.33875e-05 -1.05516e-05 -5.1294e-06
-7.11356e-07 -5.1294e-06 -3.83298e-05
0.00241643 9.67774e-05 2.79097e-05
9.67774e-05 0.00107909 -3.24855e-06
2.79097e-05 -3.24855e-06 0.00108429
0.000909381 0.000110247 1.4245e-07
0.000110247 0.000187775 1.3741e-06
1.4245e-07 1.3741e-06 6.19154e-05
0.000769193 5.7647e-05 -7.1777e-08
5.7647e-05 0.000112775 -2.30789e-07
-7.1777e-08 -2.30789e-07 -2.93727e-06
0.000803917 4.66872e-05 9.70705e-08
4.66872e-05 0.000149329 -2.18673e-06
9.70705e-08 -2.18673e-06 2.68482e-05
0.000661856 -3.9855e-06 -9.97919e-07
-3.9855e-06 3.17235e-05 -3.19168e-06
-9.97919e-07 -3.19168e-06 -4.06651e-05
0.000726519 3.49669e-05 4.03245e-07
3.49669e-05 9.3142e-05 1.55083e-07
4.03245e-07 1.55083e-07 -1.50105e-05
0.000619266 4.67979e-05 6.30549e-07
4.67979e-05 3.03481e-05 9.26359e-07
6.30549e-07 9.26359e-07 -8.36202e-05
0.000564975 -3.53762e-05 -7.90338e-07
-3.53762e-05 -3.17462e-05 -5.58188e-06
-7.90338e-07 -5.58188e-06 -5.84927e-05
0.000640891 6.24167e-06 -3.67133e-08
6.24167e-06 1.81451e-05 -6.45686e-08
-3.67133e-08 -6.45686e-08 -5.01503e-05
0.000718565 5.1308e-05 7.72392e-07
5.1308e-05 8.20673e-05 1.36288e-06
7.72392e-07 1.36288e-06 -1.66602e-05
0.00259732 -7.96845e-05 -3.27724e-05
-7.96845e-05 0.00116918 -4.18427e-06
-3.27724e-05 -4.18427e-06 0.00117777
0.000553523 -3.10494e-05 -4.96615e-07
-3.10494e-05 -4.41997e-05 -4.99612e-08
-4.96615e-07 -4.99612e-08 -6.68176e-05
0.000637649 1.71425e-05 6.33737e-07
1.71425e-05 1.5765e-05 2.69253e-06
6.33737e-07 2.69253e-06 -4.78348e-05
0.00244438 -6.47794e-05 -4.35509e-06
-6.47794e-05 0.00107292 2.58983e-07
-4.35509e-06 2.58983e-07 0.00108461
0.000563618 -2.6695e-05 -4.57694e-07
-2.6695e-05 -4.36496e-05 4.56937e-06
-4.57694e-07 4.56937e-06 -6.20521e-05
0.00230131 -4.91093e-05 1.9104e-05
-4.91093e-05 0.000983468 4.53276e-06
1.9104e-05 4.53276e-06 0.000998181
-0.00516813 0.00013561 -7.49422e-06
0.00013561 0.000771865 4.60104e-05
-7.49422e-06 4.60104e-05 -0.00152282
0.00360891 -2.36685e-05 2.42102e-07
-2.36685e-05 0.00155979 9.89106e-06
2.42102e-07 9.89106e-06 0.000514979
0.000821232 -7.75944e-05 -7.92477e-06
-7.75944e-05 0.000128159 -5.54615e-06
-7.92477e-06 -5.54615e-06 6.85381e-05
0.000585462 6.71217e-05 -8.65236e-07
6.71217e-05 -6.56868e-06 5.74817e-07
-8.65236e-07 5.74817e-07 -0.000120329
0.00170415 0.000251827 -6.99369e-07
0.000251827 0.00065571 1.77371e-06
-6.99369e-07 1.77371e-06 0.000498158
0.000755876 6.88952e-05 -2.48337e-06
6.88952e-05 9.37301e-05 -5.72303e-07
-2.48337e-06 -5.72303e-07 -2.84864e-05
0.00101231 2.63233e-05 -3.85441e-07
2.63233e-05 0.000239045 -4.14245e-07
-3.85441e-07 -4.14245e-07 0.000132074
0.00122332 0.000110141 1.49315e-06
0.000110141 0.000367838 6.25422e-07
1.49315e-06 6.25422e-07 0.000249571
0.000577456 3.96301e-05 -1.35447e-06
3.96301e-05 -4.44516e-06 3.0322e-06
-1.35447e-06 3.0322e-06 -0.000113448
0.000626171 5.83428e-05 -1.27723e-06
5.83428e-05 4.72278e-05 8.16874e-07
-1.27723e-06 8.16874e-07 -8.20257e-05
0.000754909 6.39123e-05 -7.76537e-07
6.39123e-05 9.95021e-05 -4.4249e-07
-7.76537e-07 -4.4249e-07 -2.88005e-05
0.000837979 0.000117229 6.68965e-07
0.000117229 0.000173278 -3.25397e-06
6.68965e-07 -3.25397e-06 1.46244e-05
0.00044498 0.000174661 1.97933e-06
0.000174661 -0.000108645 -5.88077e-06
1.97933e-06 -5.88077e-06 -0.00021158
0.000918896 8.15072e-05 -1.38636e-06
8.15072e-05 0.00022434 -9.32524e-07
-1.38636e-06 -9.32524e-07 9.32262e-05
0.00105179 0.000122749 5.54361e-07
0.000122749 0.000335625 2.58829e-06
5.54361e-07 2.58829e-06 0.000206758
-0.00533202 -0.000776664 -0.000332735
-0.000776664 -0.00140519 7.93735e-06
-0.000332735 7.93735e-06 -0.00249716
-0.00270917 -0.000537766 0.00013603
-0.000537766 0.00111821 6.69047e-05
0.00013603 6.69047e-05 -0.000649497
0.00388918 0.000249868 -0.000122263
0.000249868 0.00175531 -7.08951e-05
-0.000122263 -7.08951e-05 -0.000739748
-0.00782069 -0.0019785 0.000432006
-0.0019785 -0.00349236 0.000351853
0.000432006 0.000351853 -0.00188534
0.0120111 -0.00126279 -6.87423e-05
-0.00126279 0.00366946 0.000106451
-6.87423e-05 0.000106451 0.00355383
-0.000942128 0.000928084 2.8614e-06
0.000928084 0.00015788 -5.84329e-05
2.8614e-06 -5.84329e-05 -0.00371309
0.00258295 -2.86803e-05 -0.00014692
-2.86803e-05 0.000808858 4.51973e-05
-0.00014692 4.51973e-05 -4.52796e-05
0.00269182 0.000358469 -8.42892e-06
0.000358469 0.00075982 2.03377e-05
-8.42892e-06 2.03377e-05 0.00049353
0.00860153 -0.0013997 -0.000143968
-0.0013997 0.00416009 5.03531e-05
-0.000143968 5.03531e-05 0.00413259
7.68171e-05 0.000843321 -7.02469e-06
0.000843321 0.000478786 -2.21946e-05
-7.02469e-06 -2.21946e-05 -0.0025912
0.00142031 0.000632073 -5.55907e-05
0.000632073 0.0002148 -6.6345e-05
-5.55907e-05 -6.6345e-05 -9.01057e-05
0.00420619 0.00130569 -0.00015612
0.00130569 0.00040596 -9.29175e-05
-0.00015612 -9.29175e-05 -0.00179599
0.00215288 0.000571823 1.63355e-05
0.000571823 0.000558767 -2.26153e-05
1.63355e-05 -2.26153e-05 0.000342566
0.000804986 0.000259779 -4.47912e-06
0.000259779 0.000151426 9.07164e-07
-4.47912e-06 9.07164e-07 3.20908e-05
0.00133927 9.1411e-05 -3.54482e-06
9.1411e-05 0.000507707 2.67658e-06
-3.54482e-06 2.67658e-06 0.000403524
-0.000876834 0.000179605 -4.05383e-05
0.000179605 -0.000365835 -4.10672e-05
-4.05383e-05 -4.10672e-05 -0.000910372
0.00289494 0.000399234 -1.7188e-05
0.000399234 0.00144292 -1.19974e-05
-1.7188e-05 -1.19974e-05 0.00124937
0.00117264 0.000533988 1.34794e-05
0.000533988 0.000121717 -3.92998e-06
1.34794e-05 -3.92998e-06 -0.000174518
0.00324532 0.000867724 9.17195e-05
0.000867724 0.000544641 2.8781e-05
9.17195e-05 2.8781e-05 0.000455484
-0.00447581 -5.80904e-05 -0.000270882
-5.80904e-05 -0.00331485 3.50742e-07
-0.000270882 3.50742e-07 -0.00234342
-0.00249053 0.000124381 0.00011259
0.000124381 0.00214719 2.06063e-06
0.00011259 2.06063e-06 -8.35525e-06
0.00192474 -5.07911e-05 -6.37379e-05
-5.07911e-05 0.000986455 2.3787e-05
-6.37379e-05 2.3787e-05 2.64496e-05
0.00355667 -0.00029405 -6.59893e-05
-0.00029405 0.00129759 -3.56683e-05
-6.59893e-05 -3.56683e-05 0.00144256
0.00178376 -0.000854771 -3.69372e-05
-0.000854771 9.61117e-05 6.95745e-06
-3.69372e-05 6.95745e-06 -0.000437602
0.00178161 0.000111263 -1.83331e-05
0.000111263 0.00312656 3.38447e-05
-1.83331e-05 3.38447e-05 0.0020633
0.00226047 -0.000698405 0.000137019
-0.000698405 0.000126017 -0.000113116
0.000137019 -0.000113116 -0.00227896
0.0100452 0.000985085 8.59488e-05
0.000985085 0.00482139 1.03945e-05
8.59488e-05 1.03945e-05 0.00417978
0.00262068 -0.000672443 -1.98289e-05
-0.000672443 0.000592567 7.16503e-06
-1.98289e-05 7.16503e-06 0.000516729
-0.000893026 0.000501997 5.71305e-05
0.000501997 -0.000512088 -1.59114e-05
5.71305e-05 -1.59114e-05 -0.00101155
0.0041907 -0.000259184 -4.41704e-05
-0.000259184 -0.00032611 5.18608e-05
-4.41704e-05 5.18608e-05 -0.00239856
0.00591191 -0.00117856 -3.08694e-05
-0.00117856 0.00133087 1.37047e-05
-3.08694e-05 1.37047e-05 0.00072209
0.000619239 -0.000410028 3.88671e-05
-0.000410028 -0.00035903 -7.87093e-06
3.88671e-05 -7.87093e-06 -0.000568219
0.00961155 -0.000386129 1.82848e-05
-0.000386129 0.00230157 -3.08224e-05
1.82848e-05 -3.08224e-05 0.000944284
0.00413667 -0.000603398 6.02325e-05
-0.000603398 -9.52436e-05 -3.53752e-05
6.02325e-05 -3.53752e-05 -0.000147616
-0.000521449 -0.000272141 -1.99142e-05
-0.000272141 -0.000968402 5.61058e-06
-1.99142e-05 5.61058e-06 -0.00091073
0.000674197 -0.0003456 -7.93174e-06
-0.0003456 -0.000461822 -1.03132e-06
-7.93174e-06 -1.03132e-06 -0.000452726
0.0031387 -0.000503089 2.45064e-05
-0.000503089 0.000703138 -1.60132e-05
2.45064e-05 -1.60132e-05 0.000676587
0.000257985 -0.000334107 -1.03526e-05
-0.000334107 -0.000474817 -4.90033e-06
-1.03526e-05 -4.90033e-06 -0.000725334
0.00170329 -0.000477094 -4.47434e-08
-0.000477094 9.07826e-05 -2.24573e-07
-4.47434e-08 -2.24573e-07 -9.95934e-05
0.0021278 -0.00043388 -3.5391e-06
-0.00043388 0.000172185 -1.08959e-06
-3.5391e-06 -1.08959e-06 4.46961e-05
0.00131432 -0.000416306 -2.83828e-06
-0.000416306 2.25745e-05 2.5992e-06
-2.83828e-06 2.5992e-06 -0.00025274
0.00180473 -0.000410471 -2.36075e-06
-0.000410471 0.000123681 4.01038e-07
-2.36075e-06 4.01038e-07 -6.78204e-05
0.00180437 -0.00032438 -1.78599e-06
-0.00032438 3.56629e-05 -1.30495e-06
-1.78599e-06 -1.30495e-06 -8.29534e-05
0.00134168 -0.000356266 3.73073e-06
-0.000356266 -1.37787e-05 4.08877e-06
3.73073e-06 4.08877e-06 -0.000241805
0.00169361 -0.000317745 5.91673e-10
-0.000317745 8.27395e-05 7.51404e-07
5.91673e-10 7.51404e-07 -7.26115e-05
0.00179988 -0.000267365 -3.13623e-06
-0.000267365 9.5891e-05 -1.88939e-06
-3.13623e-06 -1.88939e-06 -1.26418e-05
0.00188384 -0.000244758 -2.09489e-06
-0.000244758 0.00020534 -7.87324e-07
-2.09489e-06 -7.87324e-07 9.15883e-05
0.00166317 -0.000260132 -2.45311e-06
-0.000260132 7.44175e-05 2.97418e-06
-2.45311e-06 2.97418e-06 -6.33219e-05
0.00172926 -0.000269756 -1.01326e-06
-0.000269756 0.000149838 -5.35342e-06
-1.01326e-06 -5.35342e-06 -6.37697e-06
0.00164748 -0.000306732 -3.54856e-06
-0.000306732 0.000183187 -1.69748e-06
-3.54856e-06 -1.69748e-06 -1.86096e-05
0.00164111 -0.000315301 1.20437e-06
-0.000315301 0.000146188 4.47431e-07
1.20437e-06 4.47431e-07 -5.38253e-05
0.00152217 -0.000298857 2.18063e-06
-0.000298857 6.40496e-05 5.60641e-06
2.18063e-06 5.60641e-06 -0.000119927
0.00134664 -0.000274665 -6.12397e-06
-0.000274665 0.000140837 1.83712e-06
-6.12397e-06 1.83712e-06 -6.8158e-05
0.00147094 -0.000326625 -8.15792e-08
-0.000326625 0.000150001 2.21911e-08
-8.15792e-08 2.21911e-08 -7.9928e-05
0.00158825 -0.000366204 1.85908e-06
-0.000366204 0.000196445 4.04876e-07
1.85908e-06 4.04876e-07 -4.33086e-05
0.00120666 -0.000229882 -2.99946e-06
-0.000229882 0.000204563 3.09683e-06
-2.99946e-06 3.09683e-06 9.45402e-06
0.00124434 -0.0002602 5.95039e-07
-0.0002602 0.000160866 6.58624e-07
5.95039e-07 6.58624e-07 -4.8851e-05
0.00118183 -0.00029502 2.43763e-06
-0.00029502 6.98301e-05 -3.69034e-06
2.43763e-06 -3.69034e-06 -0.000159277
0.000732926 -0.000128048 -4.6225e-06
-0.000128048 5.19915e-05 4.26342e-06
-4.6225e-06 4.26342e-06 -9.35654e-05
0.00108348 -0.000207703 7.87259e-07
-0.000207703 0.000212705 -3.91972e-07
7.87259e-07 -3.91972e-07 2.64369e-05
0.00123806 -0.000242766 -5.28211e-08
-0.000242766 0.000255484 -2.2904e-06
-5.28211e-08 -2.2904e-06 5.34731e-05
0.000412032 7.59944e-06 -2.89385e-06
7.59944e-06 -0.000102527 9.73306e-06
-2.89385e-06 9.73306e-06 -0.000152966
0.000736021 -9.15506e-05 2.22148e-07
-9.15506e-05 9.06544e-05 5.17743e-07
2.22148e-07 5.17743e-07 -4.21243e-05
0.00119177 -0.000170056 8.99768e-09
-0.000170056 0.000346002 -6.33173e-07
8.99768e-09 -6.33173e-07 0.000165846
0.00283894 0.000139422 -4.40329e-05
0.000139422 0.00134696 2.27671e-06
-4.40329e-05 2.27671e-06 0.00134123
0.000541867 4.30545e-05 -3.68619e-07
4.30545e-05 -1.56516e-05 -6.32923e-07
-3.68619e-07 -6.32923e-07 -5.67361e-05
0.000860226 -7.91765e-05 2.92338e-06
-7.91765e-05 0.000173629 -4.56625e-06
2.92338e-06 -4.56625e-06 6.41914e-05
0.00173579 9.6101e-05 2.02033e-05
9.6101e-05 0.000690066 1.21967e-07
2.02033e-05 1.21967e-07 0.00068597
0.000604063 5.8042e-05 3.03534e-07
5.8042e-05 1.76958e-05 -6.08238e-06
3.03534e-07 -6.08238e-06 -1.47449e-05
0.00252744 0.000109235 3.57639e-05
0.000109235 0.00115138 -2.63437e-06
3.57639e-05 -2.63437e-06 0.00115381
0.0009176 0.000119464 2.52565e-06
0.000119464 0.000177552 1.04882e-06
2.52565e-06 1.04882e-06 5.33139e-05
0.000634713 6.21666e-05 -2.81167e-07
6.21666e-05 2.14024e-05 5.36047e-07
-2.81167e-07 5.36047e-07 -9.3008e-05
0.000691563 3.13042e-05 -2.29357e-07
3.13042e-05 6.43794e-05 -1.32529e-06
-2.29357e-07 -1.32529e-06 -5.05839e-05
0.000896837 7.96247e-05 3.11426e-07
7.96247e-05 0.000189588 5.86982e-07
3.11426e-07 5.86982e-07 6.95565e-05
0.000717995 2.40268e-05 1.88698e-07
2.40268e-05 8.14823e-05 4.56284e-08
1.88698e-07 4.56284e-08 -2.73735e-05
0.000669659 -2.52727e-06 -1.21289e-06
-2.52727e-06 3.95588e-05 -3.71718e-06
-1.21289e-06 -3.71718e-06 -3.86534e-05
0.000566961 -3.73813e-05 -1.2513e-06
-3.73813e-05 -2.43507e-05 -6.1644e-06
-1.2513e-06 -6.1644e-06 -5.45141e-05
0.000637577 -1.87448e-06 2.23832e-07
-1.87448e-06 1.889e-05 -7.45068e-08
2.23832e-07 -7.45068e-08 -5.39558e-05
0.000651855 6.31236e-06 -1.51593e-07
6.31236e-06 3.30439e-05 1.46952e-06
-1.51593e-07 1.46952e-06 -6.22425e-05
0.00268807 -9.26004e-05 -4.03631e-05
-9.26004e-05 0.00122893 -3.80099e-06
-4.03631e-05 -3.80099e-06 0.0012349
0.000543519 -3.09399e-05 -2.69791e-07
-3.09399e-05 -4.46887e-05 -3.07097e-08
-2.69791e-07 -3.07097e-08 -7.08753e-05
0.000628807 1.2408e-05 1.21996e-06
1.2408e-05 1.33476e-05 2.8775e-06
1.21996e-06 2.8775e-06 -5.59395e-05
0.00256753 -7.89077e-05 -4.56761e-06
-7.89077e-05 0.00115113 2.99321e-07
-4.56761e-06 2.99321e-07 0.00115994
0.000543587 -3.22397e-05 -1.88395e-07
-3.22397e-05 -5.00654e-05 5.08477e-06
-1.88395e-07 5.08477e-06 -7.26123e-05
0.00243443 -6.38621e-05 2.36902e-05
-6.38621e-05 0.00106648 4.42544e-06
2.36902e-05 4.42544e-06 0.0010784
0.000310099 0.000314927 -0.000168011
0.000314927 0.00146964 4.27545e-05
-0.000168011 4.27545e-05 0.000464466
-0.00222456 -4.99614e-05 8.96314e-06
-4.99614e-05 0.00158788 1.38471e-05
8.96314e-06 1.38471e-05 -0.000671796
0.00335516 -5.79422e-05 -6.51004e-05
-5.79422e-05 0.00167585 -4.56672e-06
-6.51004e-05 -4.56672e-06 0.000585441
0.000487895 3.38597e-05 1.65726e-06
3.38597e-05 -6.64245e-05 -1.3268e-06
1.65726e-06 -1.3268e-06 -0.000174229
0.000651951 4.3328e-05 2.04356e-06
4.3328e-05 3.03684e-05 6.36685e-07
2.04356e-06 6.36685e-07 -9.12277e-05
0.00128345 0.000208513 -1.44959e-06
0.000208513 0.000419634 7.05715e-07
-1.44959e-06 7.05715e-07 0.000271974
0.00152806 0.000272001 2.87514e-06
0.000272001 0.000494818 -1.48959e-06
2.87514e-06 -1.48959e-06 0.000300948
0.00110258 0.000165516 -6.61424e-06
0.000165516 0.000327636 -2.08365e-06
-6.61424e-06 -2.08365e-06 0.000171555
0.000952175 0.000107875 8.86615e-07
0.000107875 0.000237447 2.99225e-06
8.86615e-07 2.99225e-06 0.000102515
0.000746285 7.73246e-05 2.92185e-06
7.73246e-05 9.68248e-05 2.80272e-06
2.92185e-06 2.80272e-06 -3.1852e-05
0.000625495 0.000128405 -3.82094e-06
0.000128405 5.73991e-05 -3.56271e-06
-3.82094e-06 -3.56271e-06 -9.49525e-05
-0.000769196 7.71823e-05 -4.41307e-07
7.71823e-05 -0.00078741 -2.13152e-07
-4.41307e-07 -2.13152e-07 -0.000942277
0.00121006 0.000260732 2.49551e-06
0.000260732 0.000262606 -2.91384e-06
2.49551e-06 -2.91384e-06 0.000145067
0.00217362 0.000501825 3.09743e-06
0.000501825 0.000502118 -1.1996e-05
3.09743e-06 -1.1996e-05 0.000304914
0.000633844 0.000199445 -5.57768e-06
0.000199445 1.38478e-05 -2.8437e-07
-5.57768e-06 -2.8437e-07 -9.54729e-05
0.000600769 7.25592e-05 2.58413e-07
7.25592e-05 4.02252e-05 -1.32883e-06
2.58413e-07 -1.32883e-06 -7.70792e-05
0.0109549 0.000699444 -7.80298e-05
0.000699444 0.00287866 3.70216e-05
-7.80298e-05 3.70216e-05 0.00149909
-0.000599873 -0.000619546 -0.000161707
-0.000619546 0.00151555 -5.03916e-05
-0.000161707 -5.03916e-05 0.000281197
-0.000953005 -0.000838609 8.23968e-05
-0.000838609 0.00121253 -1.7781e-05
8.23968e-05 -1.7781e-05 -0.000600584
-0.00223256 -0.00072943 3.38731e-06
-0.00072943 -0.000707289 0.000126706
3.38731e-06 0.000126706 -0.000829411
0.0108677 0.000801053 2.87762e-06
0.000801053 0.00500882 -3.96061e-06
2.87762e-06 -3.96061e-06 0.00188133
0.000664494 0.000318499 -4.82625e-05
0.000318499 -0.000304879 -2.13826e-05
-4.82625e-05 -2.13826e-05 -0.000425217
0.00148108 0.000640576 -2.083e-05
0.000640576 0.00022069 -1.11354e-05
-2.083e-05 -1.11354e-05 -1.4761e-05
0.00963813 0.000739301 3.02598e-05
0.000739301 0.00318829 2.06948e-05
3.02598e-05 2.06948e-05 0.00132451
0.00555552 0.00129443 -3.5536e-05
0.00129443 0.000920409 -4.11106e-05
-3.5536e-05 -4.11106e-05 0.000463614
0.00181425 0.000607562 1.07803e-06
0.000607562 0.000212879 -6.0357e-06
1.07803e-06 -6.0357e-06 4.7229e-05
0.00102248 0.000429806 5.69865e-06
0.000429806 8.88123e-05 -1.4807e-06
5.69865e-06 -1.4807e-06 -0.000116381
0.000867909 0.000239701 -1.66121e-05
0.000239701 0.000197242 1.69918e-05
-1.66121e-05 1.69918e-05 8.49475e-05
0.00266105 0.000689176 -4.08866e-05
0.000689176 0.000756943 -1.54085e-05
-4.08866e-05 -1.54085e-05 0.000473373
0.00226816 0.000790874 -2.33518e-06
0.000790874 -2.02381e-05 1.78238e-05
-2.33518e-06 1.78238e-05 -0.000133112
0.000714265 -0.000315772 -3.17527e-05
-0.000315772 -0.00290777 8.23227e-06
-3.17527e-05 8.23227e-06 -0.00326177
0.00234018 -0.000376713 -1.34647e-06
-0.000376713 0.00132302 -1.96403e-05
-1.34647e-06 -1.96403e-05 0.00138519
-0.00441581 1.69964e-05 0.000138114
1.69964e-05 0.00156525 -8.97213e-06
0.000138114 -8.97213e-06 -0.00074895
0.00218263 -0.000718831 -3.22752e-05
-0.000718831 0.000284439 4.52348e-06
-3.22752e-05 4.52348e-06 0.00012821
0.00327879 -0.00104618 3.20864e-05
-0.00104618 0.000614604 -1.21981e-05
3.20864e-05 -1.21981e-05 -0.0002932
0.00123964 -0.000277252 0.000200209
-0.000277252 0.00176624 7.86887e-07
0.000200209 7.86887e-07 0.00098324
0.0118379 -0.000310716 -0.000117934
-0.000310716 0.00372234 6.24268e-05
-0.000117934 6.24268e-05 0.0021058
0.000777475 -0.000439238 -2.50424e-05
-0.000439238 -0.000353552 -3.02777e-06
-2.50424e-05 -3.02777e-06 -0.000481568
0.00830169 6.52249e-05 -4.47663e-05
6.52249e-05 0.00129697 2.70711e-05
-4.47663e-05 2.70711e-05 0.00029741
0.00442247 -0.000664047 6.94904e-05
-0.000664047 -6.96369e-05 2.69877e-06
6.94904e-05 2.69877e-06 -0.000479891
0.00282469 -0.000442587 4.22583e-05
-0.000442587 0.000672617 -1.0874e-05
4.22583e-05 -1.0874e-05 0.000367907
0.00339781 -0.000232708 -8.8548e-05
-0.000232708 0.000140551 1.73847e-08
-8.8548e-05 1.73847e-08 6.83518e-05
-0.00102659 -0.000249922 -1.50745e-05
-0.000249922 -0.00139466 2.95223e-06
-1.50745e-05 2.95223e-06 -0.00134525
0.00156652 -0.000418287 3.11222e-07
-0.000418287 -0.000126257 -7.13382e-07
3.11222e-07 -7.13382e-07 -0.000139387
0.00232235 -0.000351975 1.34586e-05
-0.000351975 0.000159077 -8.7794e-06
1.34586e-05 -8.7794e-06 0.000184076
0.00125711 -0.000438803 -1.54025e-06
-0.000438803 -0.000132334 2.46132e-06
-1.54025e-06 2.46132e-06 -0.000314725
0.00180217 -0.00040351 -2.20261e-06
-0.00040351 1.76854e-05 5.23632e-08
-2.20261e-06 5.23632e-08 -0.000107183
0.0020642 -0.000314203 6.32094e-08
-0.000314203 7.39678e-05 1.22443e-06
6.32094e-08 1.22443e-06 1.98658e-05
0.00171327 -0.000399853 -2.53458e-06
-0.000399853 7.89407e-05 4.82852e-06
-2.53458e-06 4.82852e-06 -0.000113237
0.00185225 -0.000325477 4.44016e-07
-0.000325477 6.35649e-05 1.53162e-06
4.44016e-07 1.53162e-06 -5.42305e-05
0.0017574 -0.00027687 -7.91063e-07
-0.00027687 1.19385e-05 1.31017e-06
-7.91063e-07 1.31017e-06 -7.13595e-05
0.00166332 -0.000311313 4.02567e-06
-0.000311313 7.08374e-05 5.36414e-06
4.02567e-06 5.36414e-06 -8.29633e-05
0.0017511 -0.000267416 -2.62818e-07
-0.000267416 6.67292e-05 1.16115e-06
-2.62818e-07 1.16115e-06 -4.27229e-05
0.00204651 -0.000266476 -3.82343e-07
-0.000266476 0.000256505 -2.60391e-08
-3.82343e-07 -2.60391e-08 0.000159095
0.00178014 -0.000241492 -3.89557e-06
-0.000241492 0.000136377 3.55641e-06
-3.89557e-06 3.55641e-06 2.61507e-05
0.00182622 -0.000253217 2.03886e-06
-0.000253217 0.000194963 -3.1767e-06
2.03886e-06 -3.1767e-06 6.60479e-05
0.00172166 -0.000261405 2.05988e-06
-0.000261405 0.000106677 7.60037e-06
2.05988e-06 7.60037e-06 -2.6756e-05
0.0017321 -0.000271792 4.0784e-07
-0.000271792 0.000151443 -8.03585e-07
4.0784e-07 -8.03585e-07 -5.55733e-06
0.00166744 -0.000264601 -1.42585e-06
-0.000264601 0.000155784 -2.96803e-06
-1.42585e-06 -2.96803e-06 -1.50349e-05
0.00149145 -0.000268664 -5.32082e-06
-0.000268664 0.000159886 -9.58699e-08
-5.32082e-06 -9.58699e-08 -3.58514e-05
0.00167261 -0.000309515 3.89911e-07
-0.000309515 0.000199315 -3.75262e-07
3.89911e-07 -3.75262e-07 -3.57405e-06
0.00175175 -0.00032133 2.88386e-06
-0.00032133 0.000208041 2.5908e-06
2.88386e-06 2.5908e-06 7.76456e-06
0.00116134 -0.000225619 -6.69967e-06
-0.000225619 9.57957e-05 2.62851e-06
-6.69967e-06 2.62851e-06 -9.1367e-05
0.00128994 -0.000269759 -1.33082e-06
-0.000269759 0.000108669 4.79522e-07
-1.33082e-06 4.79522e-07 -0.000100065
0.00146978 -0.000326973 2.815e-06
-0.000326973 0.000146613 -3.2879e-07
2.815e-06 -3.2879e-07 -8.30259e-05
0.000794899 -0.000150463 -6.16322e-06
-0.000150463 3.23589e-05 6.02811e-06
-6.16322e-06 6.02811e-06 -0.000120749
0.00113212 -0.000223359 9.51146e-07
-0.000223359 0.000159456 4.90587e-07
9.51146e-07 4.90587e-07 -3.43445e-05
0.00135237 -0.000269078 2.69535e-06
-0.000269078 0.000220671 -1.76509e-06
2.69535e-06 -1.76509e-06 9.19239e-06
0.000423187 -5.88189e-05 -1.1632e-05
-5.88189e-05 -0.000120054 1.13455e-05
-1.1632e-05 1.13455e-05 -0.000180305
0.000787742 -0.000143327 -4.53528e-07
-0.000143327 8.30282e-05 1.05316e-07
-4.53528e-07 1.05316e-07 -6.47353e-05
0.00105872 -0.000202653 1.16331e-06
-0.000202653 0.000196307 -1.89567e-06
1.16331e-06 -1.89567e-06 1.14356e-05
0.0034552 0.000160977 -6.67037e-05
0.000160977 0.00171045 2.31409e-06
-6.67037e-05 2.31409e-06 0.00169942
0.000557306 -1.16699e-05 8.77962e-07
-1.16699e-05 -2.24112e-05 -3.49891e-07
8.77962e-07 -3.49891e-07 -7.33872e-05
0.000874075 -0.00014068 4.55819e-06
-0.00014068 0.000172332 -4.04259e-06
4.55819e-06 -4.04259e-06 3.37893e-05
0.00302248 0.00013596 7.33786e-06
0.00013596 0.00145179 4.22416e-07
7.33786e-06 4.22416e-07 0.00144743
0.000678295 2.5756e-05 4.28593e-06
2.5756e-05 5.85716e-05 -7.96888e-06
4.28593e-06 -7.96888e-06 1.85113e-05
0.00272227 0.000118554 5.11667e-05
0.000118554 0.00127022 -2.13606e-06
5.11667e-05 -2.13606e-06 0.00127072
0.00100126 0.000203915 3.50595e-06
0.000203915 0.000193165 -3.78664e-06
3.50595e-06 -3.78664e-06 1.34638e-05
0.000823216 0.000143571 1.12597e-06
0.000143571 0.000132277 -1.80446e-07
1.12597e-06 -1.80446e-07 6.26317e-07
0.000482917 4.07739e-05 -1.29413e-07
4.07739e-05 -6.37918e-05 -6.02655e-07
-1.29413e-07 -6.02655e-07 -0.000183671
0.000337793 2.40981e-05 6.25062e-08
2.40981e-05 -0.000151657 -2.24965e-07
6.25062e-08 -2.24965e-07 -0.00025933
0.000573063 9.5068e-06 -2.77867e-07
9.5068e-06 -7.59564e-06 5.40023e-07
-2.77867e-07 5.40023e-07 -0.000119428
0.00065947 1.43258e-06 -1.36628e-06
1.43258e-06 3.47672e-05 -3.81123e-06
-1.36628e-06 -3.81123e-06 -5.15533e-05
0.000636752 4.99872e-06 1.01618e-07
4.99872e-06 2.57283e-05 1.72394e-06
1.01618e-07 1.72394e-06 -7.59645e-05
0.000626314 -8.2461e-06 3.27403e-07
-8.2461e-06 1.57552e-05 -1.92896e-07
3.27403e-07 -1.92896e-07 -6.25603e-05
0.00057079 -4.11292e-05 -1.50713e-06
-4.11292e-05 -1.46723e-05 -6.83415e-06
-1.50713e-06 -6.83415e-06 -4.85299e-05
0.00277101 -0.000105536 -4.74173e-05
-0.000105536 0.00128513 -3.30282e-06
-4.74173e-05 -3.30282e-06 0.00128835
0.000539237 -3.54444e-05 9.50665e-08
-3.54444e-05 -4.0741e-05 -6.22497e-09
9.50665e-08 -6.22497e-09 -7.05259e-05
0.000603501 -7.22833e-07 1.49218e-06
-7.22833e-07 4.04988e-07 3.22813e-06
1.49218e-06 3.22813e-06 -7.28184e-05
0.0026864 -9.26524e-05 -4.65834e-06
-9.26524e-05 0.0012276 3.53386e-07
-4.65834e-06 3.53386e-07 0.00123348
0.000527673 -3.16426e-05 7.52541e-07
-3.16426e-05 -5.35958e-05 5.56195e-06
7.52541e-07 5.56195e-06 -7.97656e-05
0.00253965 -7.7961e-05 2.94479e-05
-7.7961e-05 0.00113404 4.24716e-06
2.94479e-05 4.24716e-06 0.00114311
0.0107824 0.00047753 0.000178269
0.00047753 0.00258383 6.42268e-05
0.000178269 6.42268e-05 0.00164624
-0.00282082 -0.000721049 -0.000111632
-0.000721049 -0.00211089 -1.34366e-05
-0.000111632 -1.34366e-05 -0.00229791
-0.00449235 0.000277403 -5.46119e-05
0.000277403 0.000585439 -3.55389e-05
-5.46119e-05 -3.55389e-05 -0.00211231
0.000711624 1.77997e-05 6.17489e-06
1.77997e-05 5.87137e-05 1.63702e-06
6.17489e-06 1.63702e-06 -6.06161e-05
0.000907778 0.00017826 -2.31111e-06
0.00017826 0.000209148 1.58935e-06
-2.31111e-06 1.58935e-06 7.01582e-05
0.00131356 0.000188635 1.04568e-07
0.000188635 0.000444539 -3.88338e-07
1.04568e-07 -3.88338e-07 0.00028655
0.00124061 0.000244263 -3.92129e-06
0.000244263 0.000336021 5.91954e-07
-3.92129e-06 5.91954e-07 0.000147958
0.00142297 0.000296821 1.48665e-05
0.000296821 0.000313888 2.28283e-07
1.48665e-05 2.28283e-07 9.20418e-05
0.000192662 0.000159139 -1.75212e-06
0.000159139 -0.000232989 -2.50724e-06
-1.75212e-06 -2.50724e-06 -0.000400458
0.000495785 0.000130549 -2.72782e-06
0.000130549 -3.84616e-06 -2.64224e-06
-2.72782e-06 -2.64224e-06 -0.00015371
0.000177759 0.000169978 7.12983e-07
0.000169978 -0.000265385 1.4077e-06
7.12983e-07 1.4077e-06 -0.000444662
0.000973787 0.000246063 3.15304e-07
0.000246063 0.000145948 7.1277e-07
3.15304e-07 7.1277e-07 2.47465e-05
0.000448873 0.000253107 5.24206e-06
0.000253107 -0.000260884 8.38306e-07
5.24206e-06 8.38306e-07 -0.000427688
0.00328511 0.000552279 -3.22991e-06
0.000552279 0.00109676 -4.49206e-06
-3.22991e-06 -4.49206e-06 0.000920311
0.00209016 0.000521493 -5.82138e-06
0.000521493 0.000360464 2.96787e-06
-5.82138e-06 2.96787e-06 0.000183134
0.00154667 0.000448214 3.57392e-06
0.000448214 0.000181237 -3.22992e-06
3.57392e-06 -3.22992e-06 1.15644e-06
0.00037419 0.000198 -2.04603e-06
0.000198 -0.000119362 4.8273e-06
-2.04603e-06 4.8273e-06 -0.000231068
0.00535566 0.000560193 -2.16362e-05
0.000560193 0.00034639 9.44131e-06
-2.16362e-05 9.44131e-06 0.000483313
0.008816 0.000515875 7.60478e-05
0.000515875 0.00179295 4.27454e-05
7.60478e-05 4.27454e-05 0.000311193
0.00540931 -0.0012004 8.16142e-05
-0.0012004 0.00306999 -5.88724e-05
8.16142e-05 -5.88724e-05 0.0024466
0.00403759 0.00116725 0.000312432
0.00116725 0.000167171 0.000133905
0.000312432 0.000133905 -0.00290427
0.00144108 0.000574997 -2.58019e-05
0.000574997 0.000182797 7.36641e-06
-2.58019e-05 7.36641e-06 0.000232105
0.00333849 0.00100159 -7.81768e-05
0.00100159 -2.60413e-05 -2.46695e-05
-7.81768e-05 -2.46695e-05 -0.000241163
0.00361768 0.000818363 4.07045e-05
0.000818363 0.000610071 2.08987e-05
4.07045e-05 2.08987e-05 0.000592035
0.00295007 0.000701596 6.23907e-06
0.000701596 0.0007119 7.69897e-06
6.23907e-06 7.69897e-06 0.000549916
0.000665145 0.000374051 -8.88909e-06
0.000374051 -4.58876e-05 1.90155e-05
-8.88909e-06 1.90155e-05 -0.000238397
0.00374425 0.000915223 -0.000116672
0.000915223 0.000681542 -2.91112e-05
-0.000116672 -2.91112e-05 0.000489126
0.00291408 -0.000213195 -7.71849e-05
-0.000213195 0.000395981 8.42251e-06
-7.71849e-05 8.42251e-06 0.000120017
0.00997388 -0.000258101 -4.11703e-06
-0.000258101 0.00277579 1.16169e-06
-4.11703e-06 1.16169e-06 0.00213013
-0.00883865 -0.000527958 0.000297604
-0.000527958 -0.00498574 -8.00015e-06
0.000297604 -8.00015e-06 -0.0046489
0.000711315 -0.000448104 -4.18017e-05
-0.000448104 -0.000501995 8.03893e-06
-4.18017e-05 8.03893e-06 -0.00055649
0.00651975 -0.000848415 0.000118118
-0.000848415 0.000961169 2.14782e-05
0.000118118 2.14782e-05 0.000618883
0.00129986 -0.000391677 1.30899e-05
-0.000391677 -0.00205086 5.80904e-05
1.30899e-05 5.80904e-05 -0.00334781
0.00144993 -0.000337777 1.88796e-05
-0.000337777 -0.000111605 3.88424e-07
1.88796e-05 3.88424e-07 -0.000264924
0.00259418 -0.000113185 -4.87001e-06
-0.000113185 -0.000371635 6.2231e-06
-4.87001e-06 6.2231e-06 -0.000489784
0.00406686 -0.000351421 1.98051e-05
-0.000351421 0.000978493 -8.44476e-06
1.98051e-05 -8.44476e-06 0.00103154
0.00351486 -9.41996e-05 7.18374e-05
-9.41996e-05 0.00081824 3.08699e-07
7.18374e-05 3.08699e-07 0.000785181
-3.3927e-05 -0.000338037 -7.69438e-06
-0.000338037 -0.000971795 7.13637e-06
-7.69438e-06 7.13637e-06 -0.000966294
0.00176045 -0.000331251 -3.68008e-07
-0.000331251 -0.000144372 4.78634e-07
-3.68008e-07 4.78634e-07 -0.000114508
0.00179494 -0.000221922 1.28474e-05
-0.000221922 -0.000165561 -1.89356e-06
1.28474e-05 -1.89356e-06 -7.77511e-05
0.00157492 -0.000381049 1.09664e-06
-0.000381049 -9.11196e-05 1.17252e-06
1.09664e-06 1.17252e-06 -0.000213579
0.00194687 -0.000310031 2.03853e-06
-0.000310031 1.36683e-05 1.03181e-06
2.03853e-06 1.03181e-06 -4.10783e-05
0.00185928 -0.000246729 1.13574e-06
-0.000246729 3.1468e-05 1.57904e-06
1.13574e-06 1.57904e-06 -1.26435e-06
0.00188143 -0.000325062 5.45822e-06
-0.000325062 8.03832e-05 3.63957e-06
5.45822e-06 3.63957e-06 -3.61562e-05
0.00184805 -0.000278868 8.55352e-07
-0.000278868 6.96283e-05 4.80395e-07
8.55352e-07 4.80395e-07 -1.34522e-05
0.00196953 -0.000248354 -1.58251e-06
-0.000248354 0.000176144 1.24793e-06
-1.58251e-06 1.24793e-06 9.76363e-05
0.00170328 -0.000267033 3.74819e-06
-0.000267033 3.85292e-05 3.89648e-06
3.74819e-06 3.89648e-06 -7.16007e-05
0.00184797 -0.000258835 1.39429e-07
-0.000258835 0.000147804 6.48359e-07
1.39429e-07 6.48359e-07 4.98922e-05
0.00168022 -0.000244081 3.71227e-06
-0.000244081 8.46949e-05 -1.63477e-06
3.71227e-06 -1.63477e-06 -2.71358e-05
0.00169043 -0.000238954 -2.58413e-06
-0.000238954 7.57367e-05 7.54169e-06
-2.58413e-06 7.54169e-06 -3.10879e-05
0.00185842 -0.000251662 -2.13861e-06
-0.000251662 0.000211996 5.45543e-08
-2.13861e-06 5.45543e-08 8.66576e-05
0.00176242 -0.000243391 6.79809e-07
-0.000243391 0.000191968 -1.87098e-06
6.79809e-07 -1.87098e-06 4.19511e-05
0.00173538 -0.000273387 2.01399e-06
-0.000273387 0.000153174 3.45637e-06
2.01399e-06 3.45637e-06 -4.49645e-06
0.00170849 -0.000267041 6.74743e-07
-0.000267041 0.000181109 -6.65841e-07
6.74743e-07 -6.65841e-07 9.33494e-06
0.00169829 -0.000247071 -2.6337e-06
-0.000247071 0.000239891 -1.00055e-06
-2.6337e-06 -1.00055e-06 6.52448e-05
0.000986565 -0.000197383 -8.89678e-06
-0.000197383 -5.25171e-05 2.46742e-06
-8.89678e-06 2.46742e-06 -0.000227595
0.00152307 -0.000271618 -1.04809e-06
-0.000271618 0.000181953 -2.28443e-07
-1.04809e-06 -2.28443e-07 -1.45568e-05
0.00169857 -0.000311808 3.58136e-06
-0.000311808 0.000215765 6.94679e-07
3.58136e-06 6.94679e-07 1.1929e-05
0.000960172 -0.000171199 -9.57666e-06
-0.000171199 6.01682e-05 6.18194e-06
-9.57666e-06 6.18194e-06 -9.30247e-05
0.00117623 -0.000225396 3.13935e-08
-0.000225396 0.000103256 3.34e-07
3.13935e-08 3.34e-07 -8.37826e-05
0.00120606 -0.000262085 2.25283e-06
-0.000262085 6.08309e-05 -5.85983e-07
2.25283e-06 -5.85983e-07 -0.000147215
0.000439173 -9.46421e-05 -1.61052e-05
-9.46421e-05 -0.000130708 1.25282e-05
-1.61052e-05 1.25282e-05 -0.000201096
0.000861991 -0.000160261 5.10616e-07
-0.000160261 7.23414e-05 3.04435e-07
5.10616e-07 3.04435e-07 -8.24386e-05
0.00104105 -0.000215662 5.04256e-06
-0.000215662 0.000105262 -2.19731e-06
5.04256e-06 -2.19731e-06 -8.71993e-05
0.00417053 0.000169057 -0.000105052
0.000169057 0.00212936 3.9457e-06
-0.000105052 3.9457e-06 0.00211574
0.000579315 -6.68017e-05 7.48957e-07
-6.68017e-05 -3.1215e-05 -2.49637e-07
7.48957e-07 -2.49637e-07 -9.38571e-05
0.000876002 -0.000159314 5.95875e-06
-0.000159314 0.000132229 -5.26135e-06
5.95875e-06 -5.26135e-06 -1.74037e-05
0.00367212 0.000137156 7.46043e-06
0.000137156 0.0018316 3.48265e-07
7.46043e-06 3.48265e-07 0.00182635
0.0007005 -2.13093e-05 9.17071e-06
-2.13093e-05 5.73933e-05 -9.61629e-06
9.17071e-06 -9.61629e-06 5.77619e-06
0.00319019 0.000110518 8.98673e-05
0.000110518 0.00154434 -3.32172e-06
8.98673e-05 -3.32172e-06 0.00154629
0.00118226 0.000244568 -3.12079e-06
0.000244568 0.000203093 -4.0425e-06
-3.12079e-06 -4.0425e-06 -3.93533e-06
0.00132666 0.000232348 6.05528e-07
0.000232348 0.000387057 2.62138e-07
6.05528e-07 2.62138e-07 0.000202381
0.00070248 0.00013328 -3.25813e-07
0.00013328 4.10211e-05 -5.29527e-06
-3.25813e-07 -5.29527e-06 -0.000114753
0.000677468 0.000155335 -1.44816e-06
0.000155335 5.84405e-05 2.13841e-07
-1.44816e-06 2.13841e-07 -7.9358e-05
0.000513655 5.56874e-05 -2.97084e-08
5.56874e-05 -4.5012e-05 -4.52912e-07
-2.97084e-08 -4.52912e-07 -0.000169572
0.000762439 7.06352e-05 -2.52997e-06
7.06352e-05 0.000104812 -3.78787e-06
-2.52997e-06 -3.78787e-06 -3.95569e-06
0.00045758 -7.71554e-06 2.59629e-07
-7.71554e-06 -7.80613e-05 1.40836e-06
2.59629e-07 1.40836e-06 -0.000186515
0.000641882 -2.10598e-07 2.23365e-07
-2.10598e-07 2.71975e-05 -2.61161e-07
2.23365e-07 -2.61161e-07 -5.9901e-05
0.000574124 -3.79577e-05 -2.05175e-06
-3.79577e-05 -7.42672e-06 -7.56789e-06
-2.05175e-06 -7.56789e-06 -4.5266e-05
0.000591362 -1.07846e-05 1.20319e-06
-1.07846e-05 -4.15401e-06 3.63556e-06
1.20319e-06 3.63556e-06 -8.20518e-05
0.000533301 -3.91107e-05 2.47409e-07
-3.91107e-05 -3.69954e-05 -4.64376e-08
2.47409e-07 -4.64376e-08 -7.03697e-05
0.00286158 -0.000117347 -5.57626e-05
-0.000117347 0.00134611 -2.69004e-06
-5.57626e-05 -2.69004e-06 0.0013467
0.00276481 -0.000105611 -3.58325e-06
-0.000105611 0.00128101 3.53711e-07
-3.58325e-06 3.53711e-07 0.00128406
0.000516748 -2.95514e-05 2.16461e-06
-2.95514e-05 -5.47303e-05 6.10246e-06
2.16461e-06 6.10246e-06 -8.37699e-05
0.00265165 -9.18614e-05 3.60914e-05
-9.18614e-05 0.00120672 3.9503e-06
3.60914e-05 3.9503e-06 0.0012127
0.00298706 3.65951e-06 9.07792e-06
3.65951e-06 -0.000339836 1.3282e-05
9.07792e-06 1.3282e-05 -0.000280847
0.00260283 -0.000549586 5.46545e-05
-0.000549586 -0.00186798 2.49813e-05
5.46545e-05 2.49813e-05 -0.00294462
0.00671227 -0.000795345 -6.16356e-05
-0.000795345 0.00254776 -5.89495e-05
-6.16356e-05 -5.89495e-05 0.00284145
0.00135095 0.00030337 6.45621e-06
0.00030337 0.000134751 4.14366e-06
6.45621e-06 4.14366e-06 -8.78562e-05
0.00145432 0.000213372 2.43133e-06
0.000213372 0.000522026 1.4883e-06
2.43133e-06 1.4883e-06 0.000360845
0.00101879 0.000222991 -5.26707e-06
0.000222991 0.000215985 5.27374e-06
-5.26707e-06 5.27374e-06 3.24081e-05
0.000735828 0.000212544 1.2988e-06
0.000212544 6.98159e-05 2.12146e-06
1.2988e-06 2.12146e-06 -0.000110182
0.00124474 0.000283316 -3.43053e-07
0.000283316 0.000216708 -2.24902e-06
-3.43053e-07 -2.24902e-06 -5.21712e-06
0.000610831 0.000258817 3.79788e-06
0.000258817 -0.000183252 1.89522e-06
3.79788e-06 1.89522e-06 -0.000365694
0.0010701 0.000258645 -3.41346e-06
0.000258645 0.000226904 -2.62848e-06
-3.41346e-06 -2.62848e-06 2.36903e-05
0.000622251 0.00022996 2.7891e-06
0.00022996 -3.44879e-05 3.94587e-06
2.7891e-06 3.94587e-06 -0.000158579
0.00133547 0.000332958 2.7546e-06
0.000332958 0.000225313 -4.67948e-07
2.7546e-06 -4.67948e-07 4.67671e-05
0.00229178 0.000471659 2.95206e-06
0.000471659 0.000558119 6.82225e-06
2.95206e-06 6.82225e-06 0.000393532
0.00166779 0.000453068 3.47843e-07
0.000453068 0.00011903 -5.04826e-07
3.47843e-07 -5.04826e-07 -6.42943e-05
0.00159889 0.000421336 3.459e-06
0.000421336 9.56204e-05 8.91177e-06
3.459e-06 8.91177e-06 -2.84015e-05
0.0011697 0.000452819 -2.47121e-06
0.000452819 -0.000129203 -3.09872e-06
-2.47121e-06 -3.09872e-06 -0.000299554
0.000595329 0.000363899 2.45311e-07
0.000363899 -0.000309616 3.10063e-06
2.45311e-07 3.10063e-06 -0.000467185
0.00125938 0.000321295 2.35766e-05
0.000321295 -0.000261218 2.7237e-05
2.35766e-05 2.7237e-05 -0.000225751
0.00510852 0.000676919 -4.44561e-05
0.000676919 5.75271e-05 -1.13812e-05
-4.44561e-05 -1.13812e-05 9.94744e-05
0.00200516 0.000290331 0.000244938
0.000290331 -0.00171352 2.73701e-05
0.000244938 2.73701e-05 -0.00332333
0.000693883 0.000755404 -1.62167e-06
0.000755404 -0.00111336 -1.72722e-05
-1.62167e-06 -1.72722e-05 -0.00134074
0.00240969 0.000653509 -2.52436e-05
0.000653509 0.000263897 -2.26038e-06
-2.52436e-05 -2.26038e-06 0.000220905
0.00215855 0.000618807 -5.41743e-05
0.000618807 0.00032893 -2.08915e-05
-5.41743e-05 -2.08915e-05 0.000166216
0.00235917 -0.000176116 1.36961e-06
-0.000176116 0.000118964 -1.87873e-06
1.36961e-06 -1.87873e-06 8.20819e-05
0.00112019 -3.38335e-05 2.3531e-06
-3.38335e-05 -0.000248108 5.4082e-06
2.3531e-06 5.4082e-06 -0.000429036
0.000954401 0.000640643 8.55456e-05
0.000640643 -0.00279449 -2.50448e-05
8.55456e-05 -2.50448e-05 -0.00338371
-3.59706e-05 -0.000225569 -1.47598e-05
-0.000225569 -0.000914254 2.69474e-05
-1.47598e-05 2.69474e-05 -0.000918543
0.00320647 -0.000105608 -2.81277e-05
-0.000105608 -0.000158065 3.50645e-05
-2.81277e-05 3.50645e-05 -0.000469899
0.00212355 -0.000251138 -1.27936e-05
-0.000251138 -7.61143e-06 4.63733e-06
-1.27936e-05 4.63733e-06 6.92754e-05
0.00292107 -0.000121537 -4.87988e-06
-0.000121537 0.000469344 -2.88052e-06
-4.87988e-06 -2.88052e-06 0.000423285
0.00156805 -0.000144305 2.82032e-05
-0.000144305 -0.000295717 -9.3442e-07
2.82032e-05 -9.3442e-07 -0.000194206
0.00302634 -5.85759e-05 2.34552e-05
-5.85759e-05 0.000851357 1.47612e-06
2.34552e-05 1.47612e-06 0.000810386
0.00121841 -0.000309677 -1.50337e-05
-0.000309677 -0.000431428 7.41986e-06
-1.50337e-05 7.41986e-06 -0.00039981
0.00175287 -0.000231556 8.49781e-07
-0.000231556 -0.00020598 2.14864e-06
8.49781e-07 2.14864e-06 -0.000129615
0.00192753 -0.000233847 1.77317e-06
-0.000233847 -3.00175e-05 4.01199e-07
1.77317e-06 4.01199e-07 9.92445e-06
0.00182112 -0.000304458 1.98169e-06
-0.000304458 -4.81573e-05 1.54764e-06
1.98169e-06 1.54764e-06 -0.00010385
0.0018636 -0.00025578 4.16529e-07
-0.00025578 3.04353e-05 1.09654e-07
4.16529e-07 1.09654e-07 -8.06239e-06
0.00191327 -0.00023531 -7.60631e-07
-0.00023531 9.91459e-05 1.03404e-06
-7.60631e-07 1.03404e-06 4.02343e-05
0.00192631 -0.000281105 1.28927e-06
-0.000281105 0.000120625 7.01571e-07
1.28927e-06 7.01571e-07 3.71008e-05
0.00185332 -0.000250801 -6.41543e-07
-0.000250801 0.000112626 3.94245e-08
-6.41543e-07 3.94245e-08 3.11592e-05
0.00170966 -0.000221593 1.05476e-06
-0.000221593 7.53148e-05 2.551e-07
1.05476e-06 2.551e-07 -2.22495e-05
0.00163439 -0.000250422 -6.53764e-07
-0.000250422 3.06906e-05 1.65426e-06
-6.53764e-07 1.65426e-06 -6.77842e-05
0.00170583 -0.000245255 6.34412e-07
-0.000245255 0.00010148 -6.99938e-07
6.34412e-07 -6.99938e-07 -1.05944e-05
0.0017014 -0.000230752 1.98916e-06
-0.000230752 0.000121735 -1.85187e-06
1.98916e-06 -1.85187e-06 -1.20819e-05
0.0018848 -0.000249674 -5.03316e-06
-0.000249674 0.000225724 4.82066e-06
-5.03316e-06 4.82066e-06 0.000104022
0.00181955 -0.000244597 -1.11502e-06
-0.000244597 0.000222455 2.16449e-07
-1.11502e-06 2.16449e-07 7.55368e-05
0.00160669 -0.000217541 -1.83584e-06
-0.000217541 0.000160932 -6.07626e-07
-1.83584e-06 -6.07626e-07 -1.09754e-06
0.00174788 -0.00026975 2.65855e-06
-0.00026975 0.000205518 1.39775e-06
2.65855e-06 1.39775e-06 3.27154e-05
0.00163816 -0.000245038 1.00194e-06
-0.000245038 0.000205239 -6.32671e-07
1.00194e-06 -6.32671e-07 2.96681e-05
0.00126654 -0.00019178 -7.18649e-06
-0.00019178 7.91669e-05 2.26312e-06
-7.18649e-06 2.26312e-06 -8.64829e-05
0.000973931 -0.000165334 -1.1399e-05
-0.000165334 2.58914e-05 5.52382e-06
-1.1399e-05 5.52382e-06 -0.000118877
0.00114097 -0.000207626 -2.1179e-06
-0.000207626 3.73901e-05 4.54102e-07
-2.1179e-06 4.54102e-07 -0.000138633
0.00154516 -0.000274344 3.45606e-06
-0.000274344 0.000198758 -5.46269e-07
3.45606e-06 -5.46269e-07 1.43209e-06
0.000539987 -0.000162848 -2.06341e-05
-0.000162848 -8.60652e-05 1.35414e-05
-2.06341e-05 1.35414e-05 -0.000171564
0.000896593 -0.000168108 6.1594e-07
-0.000168108 2.57733e-05 4.41455e-07
6.1594e-07 4.41455e-07 -0.00012724
0.00122458 -0.000228012 7.01383e-06
-0.000228012 0.000129584 -2.05825e-06
7.01383e-06 -2.05825e-06 -5.76512e-05
0.00471868 0.000189793 -0.000123012
0.000189793 0.00245955 7.15616e-06
-0.000123012 7.15616e-06 0.00243755
0.000593379 -0.000130495 -1.59861e-07
-0.000130495 -3.81298e-05 2.36912e-08
-1.59861e-07 2.36912e-08 -0.000116342
0.000865702 -0.000166809 7.88297e-06
-0.000166809 7.56089e-05 -5.77946e-06
7.88297e-06 -5.77946e-06 -8.0488e-05
0.00432702 0.000146202 7.18934e-06
0.000146202 0.00221651 8.14364e-07
7.18934e-06 8.14364e-07 0.00220664
0.000730609 -8.57333e-05 1.467e-05
-8.57333e-05 5.5503e-05 -1.18186e-05
1.467e-05 -1.18186e-05 -1.06838e-05
0.00386443 0.000109709 0.000121682
0.000109709 0.00193786 -6.02801e-06
0.000121682 -6.02801e-06 0.00193748
0.00110703 0.000251963 -4.3156e-06
0.000251963 4.42916e-05 -8.7486e-07
-4.3156e-06 -8.7486e-07 -0.000162364
0.00116946 0.000242242 -1.22617e-06
0.000242242 0.000200429 -3.69658e-07
-1.22617e-06 -3.69658e-07 -6.23247e-06
0.00104826 0.000202237 -2.52467e-06
0.000202237 0.000183132 -2.69199e-06
-2.52467e-06 -2.69199e-06 -2.30952e-06
0.00163582 0.000259168 -2.23156e-06
0.000259168 0.000571192 2.82299e-06
-2.23156e-06 2.82299e-06 0.000381846
0.000856555 0.000147038 -1.15032e-06
0.000147038 0.00013111 -1.95901e-06
-1.15032e-06 -1.95901e-06 -2.61749e-05
0.000878876 0.000117936 -3.63628e-06
0.000117936 0.000167599 -4.72564e-06
-3.63628e-06 -4.72564e-06 3.90558e-05
0.000556059 7.39474e-05 -2.08287e-07
7.39474e-05 -2.20679e-05 2.72587e-07
-2.08287e-07 2.72587e-07 -0.000150066
0.000661133 2.56019e-05 -6.10537e-07
2.56019e-05 3.88984e-05 -1.28524e-07
-6.10537e-07 -1.28524e-07 -6.12521e-05
0.000584972 -2.31078e-05 -4.15835e-06
-2.31078e-05 -4.82091e-07 -8.33551e-06
-4.15835e-06 -8.33551e-06 -4.38009e-05
0.0005744 -1.59255e-05 1.04801e-06
-1.59255e-05 -1.08438e-05 3.91958e-06
1.04801e-06 3.91958e-06 -9.68414e-05
0.00052144 -4.15703e-05 3.93688e-07
-4.15703e-05 -3.684e-05 -1.55987e-07
3.93688e-07 -1.55987e-07 -7.48622e-05
0.00300493 -0.000126042 -6.85993e-05
-0.000126042 0.00143713 -2.17827e-06
-6.85993e-05 -2.17827e-06 0.00143563
0.000501508 -3.71568e-05 2.08899e-06
-3.71568e-05 -5.60124e-05 6.67585e-06
2.08899e-06 6.67585e-06 -8.88695e-05
0.00283915 -0.000118391 -2.76603e-06
-0.000118391 0.00133265 3.25475e-07
-2.76603e-06 3.25475e-07 0.00133275
0.00276175 -0.000105309 4.38431e-05
-0.000105309 0.00127882 3.55485e-06
4.38431e-05 3.55485e-06 0.00128179
0.000331536 4.67324e-05 1.48142e-05
4.67324e-05 -0.000863223 8.29879e-06
1.48142e-05 8.29879e-06 -0.000821569
0.00441644 1.93996e-05 4.97069e-05
1.93996e-05 0.00028249 2.69697e-06
4.97069e-05 2.69697e-06 0.000217549
0.0100242 0.000573539 -8.10764e-05
0.000573539 0.00285778 -3.02662e-05
-8.10764e-05 -3.02662e-05 0.00174666
0.000433516 0.000230836 1.82685e-06
0.000230836 -0.000409433 2.11791e-06
1.82685e-06 2.11791e-06 -0.000598447
0.00171801 0.000337115 1.85131e-06
0.000337115 0.000246065 3.00726e-06
1.85131e-06 3.00726e-06 4.60957e-05
0.00114732 0.000293517 -1.36289e-06
0.000293517 1.88222e-05 8.33652e-08
-1.36289e-06 8.33652e-08 -0.00020232
0.00121552 0.000259866 -1.67102e-06
0.000259866 0.000335766 1.40816e-06
-1.67102e-06 1.40816e-06 0.000144404
0.00101781 0.00026471 -1.53567e-06
0.00026471 9.11783e-05 -6.95488e-07
-1.53567e-06 -6.95488e-07 -0.000129996
0.00138746 0.000330843 8.30221e-06
0.000330843 0.000236168 1.06416e-06
8.30221e-06 1.06416e-06 4.12255e-05
0.00202103 0.00044588 -4.64295e-06
0.00044588 0.000307441 -2.63794e-06
-4.64295e-06 -2.63794e-06 0.000116723
0.00221556 0.000412366 -3.73775e-06
0.000412366 0.00070775 9.7254e-07
-3.73775e-06 9.7254e-07 0.000517481
0.0012899 0.000391228 1.06596e-05
0.000391228 1.14387e-05 1.88597e-05
1.06596e-05 1.88597e-05 -0.000141609
0.00213395 0.000483647 -2.75635e-06
0.000483647 0.000376788 3.84122e-07
-2.75635e-06 3.84122e-07 0.000192744
0.00198551 0.000433376 -1.25471e-05
0.000433376 0.000195437 1.61746e-06
-1.25471e-05 1.61746e-06 3.99308e-05
0.000704301 0.000210117 1.36285e-05
0.000210117 -0.000470213 6.53158e-06
1.36285e-05 6.53158e-06 -0.000514171
0.00112732 0.00038596 9.53923e-06
0.00038596 -0.000144436 7.48767e-08
9.53923e-06 7.48767e-08 -0.000267086
0.00111956 0.000442755 -7.09094e-06
0.000442755 -0.000163879 -7.13125e-06
-7.09094e-06 -7.13125e-06 -0.000333917
0.00167187 0.000326934 3.04965e-06
0.000326934 -5.24963e-05 5.53452e-06
3.04965e-06 5.53452e-06 -4.80176e-05
0.0052136 0.000446297 3.14476e-05
0.000446297 9.27709e-05 -1.57945e-05
3.14476e-05 -1.57945e-05 -7.1188e-05
0.0025333 0.000576884 1.14364e-05
0.000576884 0.000572245 -2.52429e-05
1.14364e-05 -2.52429e-05 0.000531867
0.00150882 -4.03767e-05 2.38238e-05
-4.03767e-05 2.05272e-05 -9.06933e-07
2.38238e-05 -9.06933e-07 8.50265e-06
0.00213033 -0.000112022 -2.30724e-05
-0.000112022 4.59846e-05 -5.26075e-07
-2.30724e-05 -5.26075e-07 9.12294e-06
0.00137714 0.00016254 2.80969e-05
0.00016254 -0.000639807 -5.75709e-06
2.80969e-05 -5.75709e-06 -0.000864168
0.000356956 -0.000180465 -2.82895e-05
-0.000180465 -0.000913914 2.18703e-05
-2.82895e-05 2.18703e-05 -0.000825846
0.00313329 -0.000180594 -9.00024e-05
-0.000180594 0.000534928 -3.17034e-07
-9.00024e-05 -3.17034e-07 0.000511157
0.00189873 -0.000174786 2.62529e-06
-0.000174786 -7.8683e-05 -2.30892e-06
2.62529e-06 -2.30892e-06 1.58839e-05
0.00228891 -6.74517e-05 -8.85841e-06
-6.74517e-05 0.000379801 2.6532e-07
-8.85841e-06 2.6532e-07 0.000340946
0.00199318 -0.000174003 2.26109e-06
-0.000174003 5.06335e-06 1.39401e-06
2.26109e-06 1.39401e-06 1.60536e-05
0.00214738 -2.77891e-05 4.24193e-06
-2.77891e-05 0.000142559 1.45619e-07
4.24193e-06 1.45619e-07 0.000118893
0.00173857 -0.000243865 -6.37903e-06
-0.000243865 -0.000238282 2.47825e-06
-6.37903e-06 2.47825e-06 -0.000170206
0.00194169 -0.000229648 -1.84056e-06
-0.000229648 -1.32001e-05 -3.43004e-08
-1.84056e-06 -3.43004e-08 1.9122e-05
0.00194873 -0.000189274 -2.33265e-06
-0.000189274 3.09927e-05 3.00834e-07
-2.33265e-06 3.00834e-07 4.52793e-06
0.00187224 -0.000264114 -1.65174e-06
-0.000264114 3.16093e-05 -9.94169e-07
-1.65174e-06 -9.94169e-07 -1.20463e-05
0.00181495 -0.000230053 1.80558e-07
-0.000230053 5.08128e-05 -2.37432e-07
1.80558e-07 -2.37432e-07 -1.27422e-05
0.0018899 -0.000204125 -3.60442e-07
-0.000204125 0.000121007 3.09737e-07
-3.60442e-07 3.09737e-07 3.85417e-05
0.00174926 -0.000253462 -1.97505e-06
-0.000253462 5.62163e-05 -7.78584e-07
-1.97505e-06 -7.78584e-07 -2.78703e-05
0.00174618 -0.000222622 3.31745e-07
-0.000222622 9.41578e-05 -8.86869e-08
3.31745e-07 -8.86869e-08 -3.51211e-06
0.00173832 -0.000208535 1.74604e-06
-0.000208535 0.000105049 -8.73521e-07
1.74604e-06 -8.73521e-07 -1.40284e-05
0.00173451 -0.000246577 -2.03438e-06
-0.000246577 0.000120091 2.03633e-07
-2.03438e-06 2.03633e-07 7.77481e-06
0.00172797 -0.000231202 -5.25605e-08
-0.000231202 0.000138025 -3.14462e-07
-5.25605e-08 -3.14462e-07 4.30089e-06
0.00159237 -0.000201187 -7.42413e-07
-0.000201187 0.000125713 -5.50763e-07
-7.42413e-07 -5.50763e-07 -2.71076e-05
0.00187697 -0.000245878 -1.67178e-06
-0.000245878 0.000253112 3.10333e-06
-1.67178e-06 3.10333e-06 0.00010928
0.00161302 -0.000218343 -5.74954e-07
-0.000218343 0.000164787 -1.29925e-07
-5.74954e-07 -1.29925e-07 3.66813e-06
0.0012734 -0.000171807 -6.52688e-06
-0.000171807 6.42367e-05 1.98331e-06
-6.52688e-06 1.98331e-06 -9.46519e-05
0.00158132 -0.000243125 4.5919e-06
-0.000243125 0.000172288 -2.01094e-07
4.5919e-06 -2.01094e-07 -4.21421e-06
0.00122631 -0.000190427 -8.75509e-08
-0.000190427 5.54197e-05 -3.20989e-08
-8.75509e-08 -3.20989e-08 -0.000110453
0.00099523 -0.000149484 -1.22704e-05
-0.000149484 1.77886e-05 5.9099e-06
-1.22704e-05 5.9099e-06 -0.000119894
0.000465665 -0.00015778 -1.98028e-05
-0.00015778 -0.000139473 1.27869e-05
-1.98028e-05 1.27869e-05 -0.000227825
0.000945155 -0.000162844 1.44248e-07
-0.000162844 9.95556e-06 -1.02493e-07
1.44248e-07 -1.02493e-07 -0.000134638
0.00130102 -0.000218265 5.35623e-06
-0.000218265 0.000130569 -1.86958e-06
5.35623e-06 -1.86958e-06 -4.64552e-05
0.00520026 0.000149342 -0.00014915
0.000149342 0.00272579 8.17578e-06
-0.00014915 8.17578e-06 0.002711
0.000576447 -0.000154967 -2.04543e-06
-0.000154967 -6.86991e-05 5.40019e-07
-2.04543e-06 5.40019e-07 -0.000153163
0.00084603 -0.000167221 9.84735e-06
-0.000167221 3.23413e-08 -5.21394e-06
9.84735e-06 -5.21394e-06 -0.000153184
0.0049021 0.00015848 9.84755e-06
0.00015848 0.00255804 1.11191e-06
9.84755e-06 1.11191e-06 0.00254154
0.000726171 -0.00013445 1.92476e-05
-0.00013445 3.38213e-05 -1.31655e-05
1.92476e-05 -1.31655e-05 -4.5293e-05
0.00450269 0.000121927 0.000142735
0.000121927 0.00231282 -8.04946e-06
0.000142735 -8.04946e-06 0.00230668
0.00144256 0.000277659 -3.65009e-06
0.000277659 0.000183485 9.4428e-07
-3.65009e-06 9.4428e-07 -1.67123e-05
0.00112147 0.000252628 1.02974e-07
0.000252628 4.97333e-05 7.16749e-07
1.02974e-07 7.16749e-07 -0.000157382
0.00102867 0.000210282 -6.07659e-06
0.000210282 7.17673e-05 -1.45991e-06
-6.07659e-06 -1.45991e-06 -0.000117199
0.00115688 0.000240203 -5.45174e-07
0.000240203 0.00019777 2.37521e-06
-5.45174e-07 2.37521e-06 -8.52815e-06
0.00102691 0.000199386 -1.46716e-06
0.000199386 0.000173524 3.60706e-07
-1.46716e-06 3.60706e-07 -1.17446e-05
0.000911957 0.000157215 -5.7451e-06
0.000157215 0.00015703 -5.44291e-06
-5.7451e-06 -5.44291e-06 7.80619e-06
0.000972578 0.00015716 -4.50645e-07
0.00015716 0.000199036 6.21297e-07
-4.50645e-07 6.21297e-07 4.0794e-05
0.000737304 9.23049e-05 -2.30554e-07
9.23049e-05 8.74641e-05 -2.70913e-07
-2.30554e-07 -2.70913e-07 -3.78192e-05
0.000683839 2.2951e-05 -8.98666e-06
2.2951e-05 4.99927e-05 -1.01565e-05
-8.98666e-06 -1.01565e-05 -4.06888e-06
0.000600671 -6.04586e-06 9.86932e-07
-6.04586e-06 3.55067e-06 3.85509e-06
9.86932e-07 3.85509e-06 -9.32846e-05
0.000513256 -3.13136e-05 -8.52452e-08
-3.13136e-05 -3.99275e-05 -2.52305e-07
-8.52452e-08 -2.52305e-07 -8.34361e-05
0.00328473 -0.0001284 -8.97279e-05
-0.0001284 0.00160643 -2.41166e-06
-8.97279e-05 -2.41166e-06 0.00160379
0.000478072 -4.26289e-05 1.81085e-06
-4.26289e-05 -6.15852e-05 7.32678e-06
1.81085e-06 7.32678e-06 -9.94318e-05
0.00296085 -0.00013106 -2.65289e-06
-0.00013106 0.00141194 3.19635e-07
-2.65289e-06 3.19635e-07 0.0014089
0.00282937 -0.000118274 5.01578e-05
-0.000118274 0.0013265 3.05447e-06
5.01578e-05 3.05447e-06 0.00132647
0.000657754 5.21367e-05 1.54787e-05
5.21367e-05 -0.00050148 -4.97507e-06
1.54787e-05 -4.97507e-06 -0.000480946
0.00191084 1.33553e-05 -6.51843e-06
1.33553e-05 -0.000194302 -6.48615e-07
-6.51843e-06 -6.48615e-07 -0.000146024
0.00420829 2.15736e-05 0.000131951
2.15736e-05 -0.000128772 3.14016e-05
0.000131951 3.14016e-05 0.000140118
0.00203843 0.000391074 -1.52168e-06
0.000391074 0.000340919 1.66521e-06
-1.52168e-06 1.66521e-06 0.000150727
0.000967685 0.000296826 1.60707e-06
0.000296826 -0.00011765 -1.443e-06
1.60707e-06 -1.443e-06 -0.00031753
0.00193203 0.000332188 -1.61229e-07
0.000332188 0.000253025 3.21933e-06
-1.61229e-07 3.21933e-06 7.92227e-05
0.00172848 0.000337446 9.17389e-07
0.000337446 0.000251869 3.03216e-07
9.17389e-07 3.03216e-07 5.23918e-05
0.000974293 0.000287406 6.01831e-07
0.000287406 -8.16993e-05 -2.08411e-06
6.01831e-07 -2.08411e-06 -0.000301938
0.0018573 0.000360157 -3.08694e-06
0.000360157 0.000109639 1.57553e-06
-3.08694e-06 1.57553e-06 -4.5699e-05
0.00215327 0.000402468 -4.02137e-06
0.000402468 0.000650256 -6.93872e-07
-4.02137e-06 -6.93872e-07 0.000442782
0.00206233 0.000443097 -1.04569e-09
0.000443097 0.000338355 -9.49835e-07
-1.04569e-09 -9.49835e-07 0.000146527
0.00180596 0.000254667 -7.4119e-06
0.000254667 5.72746e-06 -7.05412e-08
-7.4119e-06 -7.05412e-08 -9.35604e-05
0.00259623 0.000515049 4.8164e-06
0.000515049 0.00063278 3.50916e-06
4.8164e-06 3.50916e-06 0.000447906
0.00193579 0.000431924 -1.53035e-06
0.000431924 0.000161182 2.39114e-07
-1.53035e-06 2.39114e-07 3.78329e-06
0.000875433 0.000223273 3.14802e-06
0.000223273 -0.000343159 2.60419e-06
3.14802e-06 2.60419e-06 -0.000396953
-0.000138634 0.000302443 5.27807e-07
0.000302443 -0.000795584 -3.97186e-06
5.27807e-07 -3.97186e-06 -0.000912741
0.0017574 0.000329495 -4.40082e-05
0.000329495 -2.39752e-05 -2.11609e-05
-4.40082e-05 -2.11609e-05 -3.82886e-05
0.00179264 3.49154e-05 1.43828e-06
3.49154e-05 -5.94201e-05 -1.86295e-06
1.43828e-06 -1.86295e-06 -8.50077e-05
0.00210726 -2.92985e-05 5.03293e-07
-2.92985e-05 0.000380069 2.90588e-06
5.03293e-07 2.90588e-06 0.000372884
0.00147725 -2.53731e-05 -5.91682e-05
-2.53731e-05 -0.000225469 -6.92513e-06
-5.91682e-05 -6.92513e-06 -0.000326013
0.00221417 -0.00020306 -2.95977e-05
-0.00020306 0.000127137 1.28294e-06
-2.95977e-05 1.28294e-06 0.000211725
0.00130141 -7.18286e-05 -7.38871e-06
-7.18286e-05 -0.000230866 3.23488e-08
-7.38871e-06 3.23488e-08 -0.000265723
0.00192779 -0.000166912 2.90637e-07
-0.000166912 -3.11977e-05 -5.04224e-07
2.90637e-07 -5.04224e-07 -1.29471e-05
0.00203572 -2.84627e-05 -3.60145e-06
-2.84627e-05 5.63084e-05 8.08442e-07
-3.60145e-06 8.08442e-07 3.85698e-05
0.00204638 -6.11227e-05 -5.36449e-06
-6.11227e-05 5.49047e-05 -5.02236e-07
-5.36449e-06 -5.02236e-07 4.00684e-05
0.00194954 -0.000224511 -3.56822e-06
-0.000224511 2.9042e-06 -6.67236e-07
-3.56822e-06 -6.67236e-07 2.7009e-05
0.00192784 -0.000181168 4.63346e-07
-0.000181168 3.01043e-05 -1.76842e-07
4.63346e-07 -1.76842e-07 1.51656e-06
0.00199912 -0.000148227 -7.29319e-07
-0.000148227 0.000105487 -2.70499e-07
-7.29319e-07 -2.70499e-07 5.57981e-05
0.00172478 -0.000225504 1.68757e-07
-0.000225504 6.65036e-06 -1.23939e-06
1.68757e-07 -1.23939e-06 -6.1597e-05
0.00179936 -0.000200337 -2.31528e-08
-0.000200337 7.18027e-05 -8.83656e-08
-2.31528e-08 -8.83656e-08 -1.1667e-05
0.00175588 -0.00016989 1.16363e-06
-0.00016989 7.67411e-05 -3.79649e-07
1.16363e-06 -3.79649e-07 -2.84904e-05
0.00178578 -0.00022372 -3.03478e-07
-0.00022372 0.000114056 -3.379e-07
-3.03478e-07 -3.379e-07 1.62879e-05
0.00176534 -0.000208412 2.46755e-08
-0.000208412 0.000122186 -1.69579e-07
2.46755e-08 -1.69579e-07 3.20194e-06
0.00165196 -0.000182007 2.6582e-07
-0.000182007 0.000124259 -5.65056e-07
2.6582e-07 -5.65056e-07 -1.80532e-05
0.00175411 -0.0002317 -1.51189e-06
-0.0002317 0.000153905 1.0797e-06
-1.51189e-06 1.0797e-06 2.02598e-05
0.00160669 -0.000201493 -2.30231e-07
-0.000201493 0.000133456 -1.78791e-08
-2.30231e-07 -1.78791e-08 -1.90372e-05
0.00131926 -0.000155367 -5.36196e-06
-0.000155367 7.26817e-05 1.70263e-06
-5.36196e-06 1.70263e-06 -8.15018e-05
0.00161562 -0.00021888 1.4437e-06
-0.00021888 0.000166376 5.85548e-07
1.4437e-06 5.85548e-07 6.20561e-06
0.00130967 -0.000173536 -2.29545e-07
-0.000173536 8.36299e-05 5.09055e-08
-2.29545e-07 5.09055e-08 -7.51282e-05
0.00101992 -0.000133114 -1.30013e-05
-0.000133114 1.70326e-05 5.41594e-06
-1.30013e-05 5.41594e-06 -0.00011662
0.00118753 -0.00018922 6.50976e-06
-0.00018922 3.26073e-05 -1.87557e-06
6.50976e-06 -1.87557e-06 -0.000133512
0.000991128 -0.000147835 2.61089e-07
-0.000147835 1.49618e-05 6.17205e-08
2.61089e-07 6.17205e-08 -0.000122414
0.00236538 -9.83978e-05 -2.56261e-05
-9.83978e-05 0.000968361 7.97441e-06
-2.56261e-05 7.97441e-06 0.000894234
0.00165471 -3.98073e-05 -0.000168898
-3.98073e-05 0.000614222 1.7649e-05
-0.000168898 1.7649e-05 0.000596239
0.00151559 -0.000135525 -3.94102e-06
-0.000135525 0.000473013 -3.0126e-07
-3.94102e-06 -3.0126e-07 0.000389598
0.000925651 -0.00016108 1.11289e-05
-0.00016108 -4.91213e-07 -5.58841e-06
1.11289e-05 -5.58841e-06 -0.000145033
0.00531961 0.000121571 -2.12284e-06
0.000121571 0.00279582 -4.26256e-07
-2.12284e-06 -4.26256e-07 0.00278153
0.000642119 -0.000173796 2.1384e-05
-0.000173796 -2.94284e-05 -1.32025e-05
2.1384e-05 -1.32025e-05 -0.000117913
0.00506073 0.000125646 0.000160626
0.000125646 0.00264735 -1.18394e-05
0.000160626 -1.18394e-05 0.00263323
0.00189621 0.000266804 1.16547e-06
0.000266804 0.000199092 6.43523e-07
1.16547e-06 6.43523e-07 4.61277e-05
0.00157887 0.000280452 7.3974e-07
0.000280452 0.000167984 2.5047e-06
7.3974e-07 2.5047e-06 -1.61319e-05
0.00154498 0.000289936 -3.10217e-07
0.000289936 0.000238291 -2.47459e-07
-3.10217e-07 -2.47459e-07 3.69131e-05
0.00121513 0.00022385 -6.8944e-06
0.00022385 9.81464e-05 -1.70136e-06
-6.8944e-06 -1.70136e-06 -8.35629e-05
0.00115574 0.000254883 4.4408e-06
0.000254883 6.78179e-05 8.36545e-07
4.4408e-06 8.36545e-07 -0.000140086
0.00111522 0.00021695 -7.0695e-07
0.00021695 0.000123123 6.59689e-07
-7.0695e-07 6.59689e-07 -6.70526e-05
0.000857694 0.00016582 -8.54318e-06
0.00016582 5.41258e-05 -4.74494e-06
-8.54318e-06 -4.74494e-06 -0.000101148
0.00103631 0.000198941 1.48323e-06
0.000198941 0.000181971 4.3621e-06
1.48323e-06 4.3621e-06 -3.52356e-06
0.000802306 0.000142325 -2.59996e-07
0.000142325 9.45418e-05 1.11745e-07
-2.59996e-07 1.11745e-07 -5.22508e-05
0.000780741 9.90927e-05 -1.50766e-05
9.90927e-05 9.20925e-05 -1.24802e-05
-1.50766e-05 -1.24802e-05 2.06294e-05
0.000628475 6.66232e-05 1.74993e-06
6.66232e-05 2.20621e-05 3.54751e-06
1.74993e-06 3.54751e-06 -9.74147e-05
0.000531005 1.07329e-05 -7.87228e-07
1.07329e-05 -3.61578e-05 -4.87183e-07
-7.87228e-07 -4.87183e-07 -8.81514e-05
0.00374731 -0.000123338 -0.000118057
-0.000123338 0.00188164 -4.60572e-06
-0.000118057 -4.60572e-06 0.00187721
0.000432644 -3.93817e-05 1.72377e-06
-3.93817e-05 -8.35752e-05 8.26512e-06
1.72377e-06 8.26512e-06 -0.000127783
0.00318073 -0.000142821 -3.60689e-06
-0.000142821 0.00154799 3.492e-07
-3.60689e-06 3.492e-07 0.00154171
0.0029202 -0.000131795 5.62868e-05
-0.000131795 0.00138805 2.44894e-06
5.62868e-05 2.44894e-06 0.00138463
0.0018104 0.000140394 -1.33643e-06
0.000140394 -4.30156e-05 -8.8358e-07
-1.33643e-06 -8.8358e-07 -9.84541e-05
0.00194693 4.34011e-05 1.45345e-05
4.34011e-05 0.000178071 2.26887e-06
1.45345e-05 2.26887e-06 0.000188552
0.00406237 -9.45284e-06 -8.82937e-05
-9.45284e-06 0.000758482 -1.37477e-05
-8.82937e-05 -1.37477e-05 0.000822433
0.00174046 0.000311696 -2.60789e-06
0.000311696 6.18847e-05 1.29508e-06
-2.60789e-06 1.29508e-06 -8.90115e-05
0.00175264 0.000368149 -5.6472e-07
0.000368149 0.000193575 -1.27345e-07
-5.6472e-07 -1.27345e-07 4.88905e-06
0.0015184 0.000363352 -1.83959e-05
0.000363352 0.000184702 -6.90333e-06
-1.83959e-05 -6.90333e-06 -2.5819e-05
0.00195004 0.000322457 2.44795e-06
0.000322457 0.000269684 7.74039e-07
2.44795e-06 7.74039e-07 9.78552e-05
0.00174124 0.000337638 -1.45295e-06
0.000337638 0.000260046 -2.27712e-06
-1.45295e-06 -2.27712e-06 6.1047e-05
0.00216301 0.000251939 8.83051e-07
0.000251939 0.000223635 1.2153e-06
8.83051e-07 1.2153e-06 0.00012456
0.00171742 0.000353812 -1.47729e-06
0.000353812 4.22179e-05 8.04911e-07
-1.47729e-06 8.04911e-07 -0.000114123
0.00212923 0.000442294 6.56982e-07
0.000442294 0.000382599 -2.88884e-07
6.56982e-07 -2.88884e-07 0.000189338
0.00179427 0.000258677 -9.59134e-07
0.000258677 5.92259e-06 1.55889e-07
-9.59134e-07 1.55889e-07 -9.53071e-05
0.00203635 0.000440779 1.82497e-05
0.000440779 0.000198426 1.38808e-06
1.82497e-05 1.38808e-06 3.81129e-05
0.0013924 0.000242175 -2.1405e-05
0.000242175 -4.21571e-05 -4.08632e-06
-2.1405e-05 -4.08632e-06 -0.000105291
0.00199767 4.63703e-05 -5.19906e-06
4.63703e-05 5.443e-05 -5.26161e-07
-5.19906e-06 -5.26161e-07 2.07453e-05
0.00189752 4.67471e-05 -2.51264e-06
4.67471e-05 5.28287e-06 3.92216e-07
-2.51264e-06 3.92216e-07 -2.36234e-05
0.00283952 -1.61942e-05 -3.96153e-05
-1.61942e-05 0.000823949 -2.36682e-06
-3.96153e-05 -2.36682e-06 0.000810592
0.00185572 -0.000158377 -7.46399e-06
-0.000158377 -7.71578e-05 -1.68113e-06
-7.46399e-06 -1.68113e-06 -5.17557e-05
0.00194079 -2.84382e-05 4.512e-06
-2.84382e-05 -2.00892e-05 2.09687e-08
4.512e-06 2.09687e-08 -3.44999e-05
0.00201276 -6.59165e-05 -2.86848e-07
-6.59165e-05 2.02946e-05 8.16009e-08
-2.86848e-07 8.16009e-08 1.09435e-05
0.00193853 -4.49047e-05 -2.22341e-06
-4.49047e-05 8.00918e-05 -1.96085e-07
-2.22341e-06 -1.96085e-07 3.78281e-05
0.0018997 -0.00017201 2.79442e-06
-0.00017201 2.6242e-05 -8.10454e-07
2.79442e-06 -8.10454e-07 -4.35279e-06
0.00186219 -0.000146747 6.26382e-07
-0.000146747 3.63867e-05 -3.11315e-08
6.26382e-07 -3.11315e-08 -1.97482e-05
0.00182376 -0.000118411 3.31471e-06
-0.000118411 8.86579e-05 -1.16938e-06
3.31471e-06 -1.16938e-06 -5.06427e-06
0.0017039 -0.000196425 7.42307e-07
-0.000196425 2.02489e-05 -1.41055e-07
7.42307e-07 -1.41055e-07 -6.43006e-05
0.00180019 -0.000171251 5.22267e-09
-0.000171251 0.00010042 -1.17548e-07
5.22267e-09 -1.17548e-07 -4.78816e-06
0.00171903 -0.000153354 6.36376e-07
-0.000153354 0.000121879 -5.27136e-07
6.36376e-07 -5.27136e-07 -9.49418e-06
0.00179233 -0.000208178 -1.20228e-06
-0.000208178 0.000139505 4.69424e-07
-1.20228e-06 4.69424e-07 2.06341e-05
0.0016624 -0.000181883 -2.58831e-07
-0.000181883 0.000130276 1.79398e-08
-2.58831e-07 1.79398e-08 -1.17681e-05
0.00136749 -0.000136157 -4.5137e-06
-0.000136157 8.00885e-05 1.32086e-06
-4.5137e-06 1.32086e-06 -6.94423e-05
0.00162249 -0.000201872 3.35375e-07
-0.000201872 0.000142158 4.92598e-07
3.35375e-07 4.92598e-07 -1.00057e-05
0.00134259 -0.000156292 -1.38509e-07
-0.000156292 8.35989e-05 7.90472e-08
-1.38509e-07 7.90472e-08 -7.03378e-05
0.00102165 -0.000116834 -1.28407e-05
-0.000116834 7.614e-06 4.76294e-06
-1.28407e-05 4.76294e-06 -0.000124125
0.00134899 -0.000175481 5.89983e-06
-0.000175481 0.000104693 -1.79894e-06
5.89983e-06 -1.79894e-06 -5.39575e-05
0.00100944 -0.000130657 2.19686e-07
-0.000130657 1.01468e-05 7.29571e-08
2.19686e-07 7.29571e-08 -0.000122917
0.00242157 -0.000107517 -3.31868e-05
-0.000107517 0.000986867 7.18032e-06
-3.31868e-05 7.18032e-06 0.000919914
0.000980467 -0.00014599 1.22837e-05
-0.00014599 8.46704e-06 -5.63592e-06
1.22837e-05 -5.63592e-06 -0.000128611
0.00253416 -0.000145036 3.57856e-05
-0.000145036 0.00106065 -4.29366e-06
3.57856e-05 -4.29366e-06 0.000992844
0.00172214 -8.00887e-05 -0.00017295
-8.00887e-05 0.000660906 2.17046e-05
-0.00017295 2.17046e-05 0.000641684
0.00348448 -3.17943e-06 -0.000170732
-3.17943e-06 0.00170975 9.48937e-06
-0.000170732 9.48937e-06 0.00169443
0.00262569 -0.00019626 0.000107478
-0.00019626 0.00111698 -1.41815e-05
0.000107478 -1.41815e-05 0.00105194
0.00542792 0.000118204 0.000165635
0.000118204 0.00287362 -1.65377e-05
0.000165635 -1.65377e-05 0.00285145
0.00202215 0.000267302 -1.35373e-06
0.000267302 0.000240529 -4.9228e-07
-1.35373e-06 -4.9228e-07 0.000100419
0.00155815 0.000235082 2.7546e-06
0.000235082 0.000104358 9.93419e-07
2.7546e-06 9.93419e-07 -5.93378e-05
0.00187402 0.000267172 3.8787e-07
0.000267172 0.000182523 -1.02698e-06
3.8787e-07 -1.02698e-06 3.30198e-05
0.00132605 0.000217598 -6.58834e-06
0.000217598 0.000115078 -1.3187e-06
-6.58834e-06 -1.3187e-06 -5.6673e-05
0.00162406 0.000280835 5.30654e-07
0.000280835 0.000188383 3.77948e-07
5.30654e-07 3.77948e-07 3.72259e-06
0.0016494 0.000302613 2.80724e-06
0.000302613 0.000293904 -4.8557e-07
2.80724e-06 -4.8557e-07 9.129e-05
0.00119025 0.000221052 3.53125e-08
0.000221052 8.71147e-05 -4.54878e-09
3.53125e-08 -4.54878e-09 -9.3986e-05
0.000879971 0.000164008 -1.05553e-05
0.000164008 -3.3184e-06 -5.0842e-06
-1.05553e-05 -5.0842e-06 -0.000153145
0.00120055 0.000223669 5.33925e-06
0.000223669 0.000173394 3.00027e-06
5.33925e-06 3.00027e-06 -1.8013e-05
0.00084797 0.000160234 -7.49323e-07
0.000160234 4.61676e-05 6.02628e-07
-7.49323e-07 6.02628e-07 -0.000108093
0.000693619 0.000157272 -2.05196e-05
0.000157272 2.09603e-05 -1.30632e-05
-2.05196e-05 -1.30632e-05 -6.39958e-05
0.000670309 0.000124494 3.24251e-06
0.000124494 1.93395e-05 5.0032e-06
3.24251e-06 5.0032e-06 -0.000124665
0.000557218 7.37514e-05 -5.87989e-07
7.37514e-05 -3.39558e-05 -1.66182e-07
-5.87989e-07 -1.66182e-07 -0.000101156
0.00449911 -0.000115253 -0.00015014
-0.000115253 0.00232903 -9.52846e-06
-0.00015014 -9.52846e-06 0.0023183
0.000374232 -1.41377e-05 3.74224e-06
-1.41377e-05 -0.000120816 9.5284e-06
3.74224e-06 9.5284e-06 -0.000172866
0.0036043 -0.000154036 -6.3341e-06
-0.000154036 0.00180363 4.38041e-07
-6.3341e-06 4.38041e-07 0.00179329
0.0031073 -0.000147514 6.41933e-05
-0.000147514 0.00150569 1.91854e-06
6.41933e-05 1.91854e-06 0.00149809
0.00186715 0.000147373 -1.07153e-06
0.000147373 6.27783e-07 5.37212e-07
-1.07153e-06 5.37212e-07 -6.52531e-05
0.00182866 0.000139054 6.68617e-07
0.000139054 -3.20279e-05 -2.74526e-07
6.68617e-07 -2.74526e-07 -8.69716e-05
0.00281653 3.57897e-05 -5.76841e-05
3.57897e-05 0.000637117 -5.60487e-06
-5.76841e-05 -5.60487e-06 0.000649097
0.00199062 0.000223764 1.81098e-06
0.000223764 0.000153723 1.16799e-06
1.81098e-06 1.16799e-06 4.44932e-05
0.00172851 0.000306061 -5.56254e-07
0.000306061 6.86959e-05 2.52247e-07
-5.56254e-07 2.52247e-07 -8.14793e-05
0.0014701 0.000345888 -1.28803e-06
0.000345888 4.64976e-05 -2.82725e-06
-1.28803e-06 -2.82725e-06 -0.000140846
0.00196777 0.000312307 -7.27603e-07
0.000312307 0.000286658 -2.41445e-06
-7.27603e-07 -2.41445e-06 0.000116915
0.00199368 0.000242772 -1.09955e-06
0.000242772 0.000125786 -2.47685e-07
-1.09955e-06 -2.47685e-07 2.60738e-05
0.00159371 0.000347703 3.53876e-07
0.000347703 -1.60489e-05 -3.27478e-07
3.53876e-07 -3.27478e-07 -0.000173303
0.00180386 0.000259784 9.53247e-06
0.000259784 3.07535e-05 -5.25267e-07
9.53247e-06 -5.25267e-07 -7.13913e-05
0.00189693 3.97928e-05 -1.29512e-06
3.97928e-05 4.34362e-05 3.43109e-07
-1.29512e-06 3.43109e-07 -3.75427e-06
0.00195104 4.59582e-05 5.33071e-07
4.59582e-05 3.33076e-05 5.70927e-09
5.33071e-07 5.70927e-09 -1.70248e-06
0.00197776 5.75492e-05 -5.86672e-06
5.75492e-05 5.05789e-05 8.46449e-08
-5.86672e-06 8.46449e-08 2.07493e-05
0.00163218 -1.27742e-05 -1.81876e-06
-1.27742e-05 -5.01305e-05 -4.96888e-08
-1.81876e-06 -4.96888e-08 -0.000106979
0.00197969 -7.46776e-05 5.36227e-06
-7.46776e-05 -1.43453e-05 -5.16708e-08
5.36227e-06 -5.16708e-08 -1.81244e-05
0.0018779 -4.71936e-05 -1.16323e-06
-4.71936e-05 4.12854e-05 6.59186e-07
-1.16323e-06 6.59186e-07 -1.07618e-06
0.00195881 -6.01539e-05 -3.33699e-08
-6.01539e-05 0.000166024 -1.14628e-06
-3.33699e-08 -1.14628e-06 8.46054e-05
0.00172997 -0.000145364 2.48567e-06
-0.000145364 -3.04363e-05 -3.59782e-07
2.48567e-06 -3.59782e-07 -9.29979e-05
0.00184482 -0.000119053 2.25953e-06
-0.000119053 9.66586e-05 -6.30373e-07
2.25953e-06 -6.30373e-07 3.13544e-06
0.001769 -0.000109216 1.78869e-06
-0.000109216 0.000122081 -1.08765e-06
1.78869e-06 -1.08765e-06 1.08449e-06
0.00185287 -0.000172272 -1.11822e-06
-0.000172272 0.000129027 1.77564e-07
-1.11822e-06 1.77564e-07 2.3928e-05
0.00172479 -0.000151837 -1.48433e-07
-0.000151837 0.000127508 -5.01661e-08
-1.48433e-07 -5.01661e-08 -3.55738e-06
0.00141118 -0.000111177 -3.73166e-06
-0.000111177 8.23055e-05 8.24138e-07
-3.73166e-06 8.24138e-07 -6.1446e-05
0.00167199 -0.000181649 -2.55271e-07
-0.000181649 0.000135889 5.04484e-07
-2.55271e-07 5.04484e-07 -5.87405e-06
0.00136802 -0.000136011 -1.31565e-07
-0.000136011 7.7537e-05 1.23843e-07
-1.31565e-07 1.23843e-07 -7.17516e-05
0.00101772 -9.88376e-05 -1.24648e-05
-9.88376e-05 -4.64754e-06 3.92763e-06
-1.24648e-05 3.92763e-06 -0.000134777
0.00136016 -0.000156928 4.95857e-06
-0.000156928 9.12321e-05 -1.49791e-06
4.95857e-06 -1.49791e-06 -6.24449e-05
0.00101922 -0.000114199 8.40591e-08
-0.000114199 5.11953e-06 1.78597e-07
8.40591e-08 1.78597e-07 -0.000125871
0.00246551 -0.000118916 -4.0871e-05
-0.000118916 0.00100489 6.85833e-06
-4.0871e-05 6.85833e-06 0.00094019
0.000992364 -0.000127932 1.28103e-05
-0.000127932 -6.1402e-07 -5.27321e-06
1.28103e-05 -5.27321e-06 -0.000133042
0.00253112 -0.000140248 3.25041e-05
-0.000140248 0.00104848 -3.67164e-06
3.25041e-05 -3.67164e-06 0.00098556
0.00176974 -7.00498e-05 -0.000169271
-7.00498e-05 0.000684327 1.95444e-05
-0.000169271 1.95444e-05 0.000665812
0.00267737 -0.000164159 0.000107079
-0.000164159 0.00114011 -1.62865e-05
0.000107079 -1.62865e-05 0.00107693
0.00150934 -1.58202e-05 -7.88905e-05
-1.58202e-05 0.000544303 8.31596e-06
-7.88905e-05 8.31596e-06 0.00051556
0.00518707 0.000205081 1.96513e-05
0.000205081 0.00272642 -2.69267e-06
1.96513e-05 -2.69267e-06 0.00269323
0.00182447 0.00021475 1.23851e-06
0.00021475 0.000110554 5.23727e-07
1.23851e-06 5.23727e-07 -1.91754e-05
0.00180393 0.000234707 5.73332e-08
0.000234707 0.000203955 -5.1938e-07
5.73332e-08 -5.1938e-07 5.17434e-05
0.00188542 0.000261732 -3.11508e-06
0.000261732 0.000158589 4.48129e-08
-3.11508e-06 4.48129e-08 1.67436e-05
0.00170431 0.000212656 -3.92963e-06
0.000212656 0.000308168 -9.19906e-07
-3.92963e-06 -9.19906e-07 0.00014825
0.00156383 0.00024055 7.34286e-07
0.00024055 0.00010282 -9.92376e-07
7.34286e-07 -9.92376e-07 -5.97905e-05
0.00185388 0.000267718 -2.51248e-06
0.000267718 0.000167035 -3.09837e-06
-2.51248e-06 -3.09837e-06 2.10119e-05
0.000932075 0.000158081 -1.22033e-05
0.000158081 -1.41218e-05 -5.1484e-06
-1.22033e-05 -5.1484e-06 -0.000156648
0.00125253 0.00021245 9.99637e-08
0.00021245 7.34176e-05 2.16731e-07
9.99637e-08 2.16731e-07 -9.78197e-05
0.00166753 0.000281364 2.65297e-06
0.000281364 0.00020678 -1.16545e-06
2.65297e-06 -1.16545e-06 2.15017e-05
0.0011453 0.000216731 6.95514e-06
0.000216731 6.49142e-05 1.57378e-06
6.95514e-06 1.57378e-06 -0.000115372
0.000902553 0.000165152 -5.25525e-07
0.000165152 8.86999e-06 -2.44028e-08
-5.25525e-07 -2.44028e-08 -0.000140967
0.000606077 0.000192504 -2.34847e-05
0.000192504 -4.58449e-05 -1.29146e-05
-2.34847e-05 -1.29146e-05 -0.000136478
0.000829291 0.000155311 7.16825e-06
0.000155311 3.33466e-05 5.96535e-06
7.16825e-06 5.96535e-06 -0.000119957
0.000586091 0.000148356 6.03995e-07
0.000148356 -3.66942e-05 4.39536e-07
6.03995e-07 4.39536e-07 -0.000120696
0.00521967 -0.00011822 -0.000162459
-0.00011822 0.00276898 -1.6245e-05
-0.000162459 -1.6245e-05 0.00274297
0.000387079 5.8883e-05 1.02362e-05
5.8883e-05 -0.000130453 1.15739e-05
1.02362e-05 1.15739e-05 -0.000193728
0.0042608 -0.000167806 -1.14622e-05
-0.000167806 0.00219887 9.94379e-07
-1.14622e-05 9.94379e-07 0.00218093
0.00344078 -0.000166519 7.66775e-05
-0.000166519 0.00170987 1.8067e-06
7.66775e-05 1.8067e-06 0.00169667
0.00180396 0.000119007 1.91824e-07
0.000119007 8.92626e-06 1.70417e-06
1.91824e-07 1.70417e-06 -6.70944e-05
0.00185578 0.000149529 4.6622e-07
0.000149529 -8.85778e-06 2.93832e-07
4.6622e-07 2.93832e-07 -7.40014e-05
0.00185953 0.000144152 2.26472e-06
0.000144152 -1.87632e-05 9.88212e-07
2.26472e-06 9.88212e-07 -7.50373e-05
0.0019557 0.000219878 5.79311e-07
0.000219878 0.000137167 -8.96588e-08
5.79311e-07 -8.96588e-08 3.01011e-05
0.00170535 0.000299842 -8.90362e-07
0.000299842 6.96057e-05 -1.25022e-06
-8.90362e-07 -1.25022e-06 -7.98007e-05
0.00178136 0.000232176 2.48332e-08
0.000232176 4.583e-06 -1.2252e-06
2.48332e-08 -1.2252e-06 -9.57883e-05
0.0018662 4.06833e-05 2.43513e-07
4.06833e-05 8.7006e-05 1.661e-07
2.43513e-07 1.661e-07 2.49164e-05
0.00189295 3.90838e-05 5.73721e-07
3.90838e-05 4.2355e-05 -1.40168e-07
5.73721e-07 -1.40168e-07 -4.40759e-06
0.00192506 4.63799e-05 4.37879e-06
4.63799e-05 2.80955e-05 6.19368e-07
4.37879e-06 6.19368e-07 -8.30342e-06
0.001756 -1.86085e-05 -2.35105e-06
-1.86085e-05 2.17249e-05 1.12883e-07
-2.35105e-06 1.12883e-07 -3.39226e-05
0.00173172 -3.27691e-05 7.66731e-07
-3.27691e-05 5.68193e-05 -8.04529e-07
7.66731e-07 -8.04529e-07 -2.771e-05
0.001813 -4.93153e-05 7.74558e-07
-4.93153e-05 -4.30948e-08 9.27575e-07
7.74558e-07 9.27575e-07 -4.25177e-05
0.00186999 -6.02517e-05 -1.10412e-06
-6.02517e-05 0.000115361 4.36211e-07
-1.10412e-06 4.36211e-07 2.99588e-05
0.0018048 -6.16719e-05 3.03669e-07
-6.16719e-05 0.000138212 -5.04828e-07
3.03669e-07 -5.04828e-07 2.84984e-05
0.00185726 -0.000119948 1.32646e-06
-0.000119948 0.000100054 -5.13348e-08
1.32646e-06 -5.13348e-08 6.66477e-06
0.00174672 -0.000110265 1.281e-06
-0.000110265 0.00011165 -5.62275e-07
1.281e-06 -5.62275e-07 -9.49254e-06
0.00143638 -7.66629e-05 -3.15614e-06
-7.66629e-05 7.34537e-05 1.48697e-07
-3.15614e-06 1.48697e-07 -6.35516e-05
0.00171842 -0.000151725 -6.29483e-07
-0.000151725 0.000125712 3.53757e-07
-6.29483e-07 3.53757e-07 -5.27235e-06
0.00139998 -0.000110531 -4.50841e-08
-0.000110531 7.18136e-05 1.21409e-07
-4.50841e-08 1.21409e-07 -7.17419e-05
0.00101152 -7.69611e-05 -1.22178e-05
-7.69611e-05 -1.78214e-05 3.06836e-06
-1.22178e-05 3.06836e-06 -0.00014542
0.00137467 -0.000136028 4.05044e-06
-0.000136028 7.83692e-05 -1.04758e-06
4.05044e-06 -1.04758e-06 -7.06594e-05
0.00102395 -9.63379e-05 -4.9099e-08
-9.63379e-05 -1.92539e-06 2.09763e-07
-4.9099e-08 2.09763e-07 -0.000131412
0.00246106 -0.000134372 -4.48006e-05
-0.000134372 0.000998168 6.27211e-06
-4.48006e-05 6.27211e-06 0.000932146
0.00101911 -0.000111724 1.27369e-05
-0.000111724 3.78891e-06 -4.48107e-06
1.27369e-05 -4.48107e-06 -0.000126436
0.00253443 -0.000128695 3.13391e-05
-0.000128695 0.00104201 -2.79817e-06
3.13391e-05 -2.79817e-06 0.000980951
0.00181023 -6.02906e-05 -0.000169538
-6.02906e-05 0.00070162 1.68741e-05
-0.000169538 1.68741e-05 0.000683418
0.00264086 -0.000142349 0.000105997
-0.000142349 0.001108 -1.42771e-05
0.000105997 -1.42771e-05 0.00104992
0.00151786 -2.9462e-05 -7.17083e-05
-2.9462e-05 0.0005418 7.48829e-06
-7.17083e-05 7.48829e-06 0.000516387
0.00135325 -4.73481e-06 2.8658e-05
-4.73481e-06 0.000455827 -4.77058e-06
2.8658e-05 -4.77058e-06 0.000421507
0.00191509 0.000125681 1.9644e-07
0.000125681 0.000139069 1.95526e-06
1.9644e-07 1.95526e-06 4.00207e-05
0.00174726 0.000196218 -9.0492e-07
0.000196218 0.000137613 2.90444e-07
-9.0492e-07 2.90444e-07 -5.11799e-06
0.00183074 0.000215123 -7.47781e-07
0.000215123 0.000107822 -9.6473e-08
-7.47781e-07 -9.6473e-08 -1.8936e-05
0.00169424 0.000191952 -3.41583e-06
0.000191952 0.000263946 -7.34427e-07
-3.41583e-06 -7.34427e-07 0.000112123
0.00174566 0.000229913 6.87809e-07
0.000229913 0.000174406 8.34331e-08
6.87809e-07 8.34331e-08 2.12831e-05
0.00174787 0.000256253 1.90215e-07
0.000256253 7.68917e-05 -1.58204e-08
1.90215e-07 -1.58204e-08 -6.67515e-05
0.00100189 0.000146451 -1.30736e-05
0.000146451 1.83613e-06 -4.96478e-06
-1.30736e-05 -4.96478e-06 -0.000134226
0.00147717 0.000204824 3.28376e-06
0.000204824 0.000173037 7.90599e-07
3.28376e-06 7.90599e-07 1.24912e-05
0.00157415 0.000246263 7.8319e-07
0.000246263 0.00010438 -1.7332e-06
7.8319e-07 -1.7332e-06 -5.7148e-05
0.000557072 0.000170652 -2.22562e-05
0.000170652 -8.60599e-05 -1.15817e-05
-2.22562e-05 -1.15817e-05 -0.000174114
0.000965032 0.000160448 -6.16917e-07
0.000160448 5.16935e-06 6.26982e-08
-6.16917e-07 6.26982e-08 -0.000137582
0.00119607 0.000208409 7.50883e-06
0.000208409 4.17595e-05 2.10067e-06
7.50883e-06 2.10067e-06 -0.000129091
0.000941076 0.000167596 1.07599e-05
0.000167596 3.03073e-05 5.28547e-06
1.07599e-05 5.28547e-06 -0.000119755
0.000565625 0.000177921 1.65586e-06
0.000177921 -6.69742e-05 5.02532e-07
1.65586e-06 5.02532e-07 -0.000157565
0.00556644 -5.64077e-05 -0.000173313
-5.64077e-05 0.00296101 -1.9329e-05
-0.000173313 -1.9329e-05 0.00293796
0.000459264 0.000139049 1.76516e-05
0.000139049 -0.000111331 1.30127e-05
1.76516e-05 1.30127e-05 -0.000190656
0.00498139 -0.000136487 -5.38487e-06
-0.000136487 0.00261685 9.13456e-08
-5.38487e-06 9.13456e-08 0.00259899
0.00400754 -0.000191854 9.51685e-05
-0.000191854 0.00205449 3.29733e-06
9.51685e-05 3.29733e-06 0.00203266
0.00174896 8.49324e-05 -7.97468e-07
8.49324e-05 2.52622e-05 9.20517e-07
-7.97468e-07 9.20517e-07 -4.75093e-05
0.00181656 0.000118473 9.88182e-07
0.000118473 2.17779e-05 7.0569e-07
9.88182e-07 7.0569e-07 -5.41504e-05
0.00185584 0.000152143 8.00577e-07
0.000152143 -1.39609e-05 -9.10905e-09
8.00577e-07 -9.10905e-09 -7.82096e-05
0.00192642 0.00021574 2.47618e-07
0.00021574 0.000123553 -9.19458e-07
2.47618e-07 -9.19458e-07 1.87383e-05
0.00175051 -3.84032e-06 2.63698e-06
-3.84032e-06 6.93069e-05 -2.76097e-07
2.63698e-06 -2.76097e-07 -1.72368e-05
0.00194047 3.45954e-05 7.58728e-07
3.45954e-05 0.000125677 -1.55353e-07
7.58728e-07 -1.55353e-07 6.60205e-05
0.00187946 3.80679e-05 2.43743e-06
3.80679e-05 3.61492e-05 2.70345e-07
2.43743e-06 2.70345e-07 -1.0009e-05
0.00186959 -2.22507e-05 -3.75177e-06
-2.22507e-05 8.73028e-05 4.26811e-07
-3.75177e-06 4.26811e-07 3.28194e-05
0.00167991 -2.39952e-05 -1.97986e-06
-2.39952e-05 2.63558e-05 -4.04761e-07
-1.97986e-06 -4.04761e-07 -5.59908e-05
0.00179316 -2.67556e-05 2.06808e-06
-2.67556e-05 0.000147295 -5.33604e-07
2.06808e-06 -5.33604e-07 3.96853e-05
0.00178995 -6.03069e-05 -2.18703e-06
-6.03069e-05 6.93128e-05 1.34765e-06
-2.18703e-06 1.34765e-06 -2.01127e-05
0.00174516 -6.25716e-05 -7.61501e-08
-6.25716e-05 0.000106996 3.08319e-07
-7.61501e-08 3.08319e-07 -6.40767e-06
0.00148632 -4.3396e-05 -3.28394e-06
-4.3396e-05 8.6563e-05 1.2987e-07
-3.28394e-06 1.2987e-07 -4.17741e-05
0.00173754 -0.000110004 8.69249e-07
-0.000110004 0.000108713 -7.31276e-08
8.69249e-07 -7.31276e-08 -1.23591e-05
0.00142846 -7.47903e-05 2.77368e-07
-7.47903e-05 6.58511e-05 -1.63682e-07
2.77368e-07 -1.63682e-07 -7.08145e-05
0.00101003 -5.18934e-05 -1.21886e-05
-5.18934e-05 -2.64497e-05 2.22832e-06
-1.21886e-05 2.22832e-06 -0.000151163
0.00139313 -0.000107964 3.43186e-06
-0.000107964 6.39166e-05 -5.9571e-07
3.43186e-06 -5.9571e-07 -7.92008e-05
0.0010192 -7.6116e-05 -3.62567e-08
-7.6116e-05 -1.38719e-05 2.08326e-07
-3.62567e-08 2.08326e-07 -0.000141184
0.00061806 -7.46804e-05 -1.9076e-05
-7.46804e-05 -0.00010016 4.63727e-06
-1.9076e-05 4.63727e-06 -0.00017266
0.00103439 -9.40284e-05 1.23999e-05
-9.40284e-05 3.06002e-06 -3.55547e-06
1.23999e-05 -3.55547e-06 -0.000125766
0.00158232 -8.49411e-05 4.32342e-05
-8.49411e-05 0.000472969 -2.73596e-06
4.32342e-05 -2.73596e-06 0.000408293
0.00545668 -0.000114325 -0.00021432
-0.000114325 0.00284505 1.30268e-05
-0.00021432 1.30268e-05 0.00284902
0.0026226 -0.000116521 0.000105509
-0.000116521 0.001086 -1.16361e-05
0.000105509 -1.16361e-05 0.0010309
0.00153399 -4.28498e-05 -6.46912e-05
-4.28498e-05 0.000546551 5.34074e-06
-6.46912e-05 5.34074e-06 0.000521402
0.00127443 -4.96439e-05 3.96126e-05
-4.96439e-05 0.000408433 -5.46876e-06
3.96126e-05 -5.46876e-06 0.000374559
0.00191459 8.88879e-05 6.67553e-07
8.88879e-05 0.000156368 1.57619e-06
6.67553e-07 1.57619e-06 6.88995e-05
0.00182851 0.000133935 5.71741e-07
0.000133935 0.00016835 1.50189e-06
5.71741e-07 1.50189e-06 4.38959e-05
0.00195318 0.000123088 4.48962e-07
0.000123088 0.000168024 3.172e-08
4.48962e-07 3.172e-08 6.8221e-05
0.00143748 0.000152641 -4.06211e-06
0.000152641 7.87936e-05 -5.40745e-07
-4.06211e-06 -5.40745e-07 -6.72346e-05
0.00175213 0.000193593 2.74938e-07
0.000193593 0.000140066 -1.2971e-09
2.74938e-07 -1.2971e-09 -1.76539e-06
0.00183434 0.000215725 -6.46239e-07
0.000215725 0.00010268 -5.28102e-07
-6.46239e-07 -5.28102e-07 -2.11809e-05
0.000681784 0.000110522 -1.49747e-05
0.000110522 -0.000203056 -4.66915e-06
-1.49747e-05 -4.66915e-06 -0.000335386
0.00171975 0.000193953 2.20448e-06
0.000193953 0.000278976 6.09332e-07
2.20448e-06 6.09332e-07 0.000127074
0.00168398 0.0002249 6.02879e-07
0.0002249 0.000142712 -1.478e-07
6.02879e-07 -1.478e-07 -1.13182e-05
0.000534293 0.000127616 -1.92904e-05
0.000127616 -0.000115548 -9.28927e-06
-1.92904e-05 -9.28927e-06 -0.000197318
0.000810036 0.000137295 4.59586e-07
0.000137295 -0.000110253 2.11775e-07
4.59586e-07 2.11775e-07 -0.000247039
0.00123945 0.00019634 9.03994e-06
0.00019634 3.14384e-05 2.08737e-06
9.03994e-06 2.08737e-06 -0.000129648
0.00562559 2.96147e-05 -0.000186706
2.96147e-05 0.00296821 -1.84376e-05
-0.000186706 -1.84376e-05 0.00295882
0.000533353 0.000157269 1.34976e-06
0.000157269 -9.8452e-05 5.60424e-07
1.34976e-06 5.60424e-07 -0.000187463
0.000984094 0.000162094 1.2344e-05
0.000162094 1.65907e-05 5.46269e-06
1.2344e-05 5.46269e-06 -0.000126344
0.000483943 0.000163118 2.01206e-05
0.000163118 -0.000110053 1.29338e-05
2.01206e-05 1.29338e-05 -0.000201653
0.00541294 -6.49826e-05 7.81417e-06
-6.49826e-05 0.00286071 -1.0513e-06
7.81417e-06 -1.0513e-06 0.00284532
0.00471583 -0.000196229 0.000120272
-0.000196229 0.00247459 6.63353e-06
0.000120272 6.63353e-06 0.00244767
0.00179609 5.83566e-05 -1.14052e-06
5.83566e-05 8.83326e-05 -6.18586e-07
-1.14052e-06 -6.18586e-07 1.84008e-06
0.00183303 8.54173e-05 8.17415e-08
8.54173e-05 7.31137e-05 4.35112e-07
8.17415e-08 4.35112e-07 -1.60819e-07
0.00183063 0.000117934 9.64893e-07
0.000117934 3.58074e-05 -1.06176e-07
9.64893e-07 -1.06176e-07 -4.0111e-05
0.00167647 3.1669e-06 2.28073e-06
3.1669e-06 7.00646e-05 -5.14738e-07
2.28073e-06 -5.14738e-07 -3.94004e-05
0.00171202 -1.85094e-06 6.22282e-07
-1.85094e-06 5.09809e-05 6.45065e-08
6.22282e-07 6.45065e-08 -3.40317e-05
0.00202088 2.73456e-05 -3.48285e-08
2.73456e-05 0.000168076 -5.29812e-08
-3.48285e-08 -5.29812e-08 0.000110758
0.00163017 -1.6541e-05 -3.10193e-06
-1.6541e-05 -2.94729e-06 1.0673e-06
-3.10193e-06 1.0673e-06 -8.30278e-05
0.00176212 -2.17476e-05 1.01623e-06
-2.17476e-05 0.000128321 -2.05722e-07
1.01623e-06 -2.05722e-07 2.08674e-05
0.00172982 -1.65448e-05 -1.28716e-06
-1.65448e-05 0.000225936 -2.8588e-07
-1.28716e-06 -2.8588e-07 0.000103064
0.00168344 -6.35755e-05 -1.08762e-06
-6.35755e-05 7.50207e-05 8.61733e-07
-1.08762e-06 8.61733e-07 -4.20686e-05
0.00157796 -4.34368e-05 3.07736e-09
-4.34368e-05 0.000140458 6.68239e-08
3.07736e-09 6.68239e-08 1.13884e-05
0.000764798 -2.4697e-05 -1.38208e-05
-2.4697e-05 -0.000174939 1.54041e-06
-1.38208e-05 1.54041e-06 -0.000298741
0.00141424 -7.49384e-05 3.49001e-06
-7.49384e-05 5.46878e-05 -5.12785e-07
3.49001e-06 -5.12785e-07 -8.1894e-05
0.00101165 -4.88454e-05 -3.73218e-08
-4.88454e-05 -2.62042e-05 1.15539e-07
-3.73218e-08 1.15539e-07 -0.000150514
0.000619248 -2.03029e-05 -1.8174e-05
-2.03029e-05 -0.000103512 3.02449e-06
-1.8174e-05 3.02449e-06 -0.000175281
0.00103323 -7.4394e-05 1.22184e-05
-7.4394e-05 -6.54841e-06 -2.64944e-06
1.22184e-05 -2.64944e-06 -0.000133435
0.00062189 -5.87808e-05 -1.67138e-07
-5.87808e-05 -9.61553e-05 3.36115e-07
-1.67138e-07 3.36115e-07 -0.000169913
0.00548382 -8.74735e-06 -0.000205676
-8.74735e-06 0.00285735 7.99134e-06
-0.000205676 7.99134e-06 0.0028634
0.000651513 -6.43206e-05 1.61222e-05
-6.43206e-05 -7.64813e-05 -6.53842e-06
1.61222e-05 -6.53842e-06 -0.000151718
0.00345178 -7.55159e-05 9.75179e-05
-7.55159e-05 0.00167164 -3.23461e-06
9.75179e-05 -3.23461e-06 0.00165521
0.00122092 -6.90821e-05 4.5577e-05
-6.90821e-05 0.000378881 -6.05219e-06
4.5577e-05 -6.05219e-06 0.000342077
0.00180743 8.45615e-05 -3.24802e-07
8.45615e-05 0.00011604 1.50791e-07
-3.24802e-07 1.50791e-07 2.29232e-05
0.00168419 7.86938e-05 2.20734e-06
7.86938e-05 8.45523e-05 2.08042e-06
2.20734e-06 2.08042e-06 -3.08465e-05
0.00191733 8.61261e-05 -1.61515e-07
8.61261e-05 0.000159456 -3.85416e-07
-1.61515e-07 -3.85416e-07 7.26435e-05
0.00142832 0.000108098 -2.86685e-06
0.000108098 5.96733e-05 -2.12381e-07
-2.86685e-06 -2.12381e-07 -7.93901e-05
0.00178624 0.000132481 5.37651e-07
0.000132481 0.000140174 1.71478e-07
5.37651e-07 1.71478e-07 1.44066e-05
0.00199507 0.000120313 -7.09594e-07
0.000120313 0.000199268 -1.92653e-06
-7.09594e-07 -1.92653e-06 9.87419e-05
0.000732384 9.08432e-05 -1.44434e-05
9.08432e-05 -0.000187812 -3.49871e-06
-1.44434e-05 -3.49871e-06 -0.00031668
0.0015821 0.000156085 -4.18937e-07
0.000156085 0.000165519 1.11175e-07
-4.18937e-07 1.11175e-07 1.96492e-05
0.00175884 0.000190981 7.76845e-07
0.000190981 0.000143919 -4.76744e-07
7.76845e-07 -4.76744e-07 2.99937e-06
0.000542334 9.07081e-05 -1.77555e-05
9.07081e-05 -0.000128936 -6.94938e-06
-1.77555e-05 -6.94938e-06 -0.000204964
0.000662538 0.000110338 -2.85227e-06
0.000110338 -0.000213584 -4.87092e-07
-2.85227e-06 -4.87092e-07 -0.000346335
0.00174846 0.000196337 8.04215e-06
0.000196337 0.000295924 2.04817e-06
8.04215e-06 2.04817e-06 0.000143881
0.00559183 0.000109975 -0.000205064
0.000109975 0.00293013 -1.73475e-05
-0.000205064 -1.73475e-05 0.00292986
0.000533034 0.000121102 5.022e-07
0.000121102 -0.000116449 3.61537e-07
5.022e-07 3.61537e-07 -0.000198692
0.000623064 0.0001287 1.28949e-05
0.0001287 -0.000219631 4.85737e-06
1.28949e-05 4.85737e-06 -0.00035721
0.00553317 4.28796e-05 1.23281e-05
4.28796e-05 0.00291405 6.9517e-07
1.23281e-05 6.9517e-07 0.00290621
0.000493269 0.00014347 1.88514e-05
0.00014347 -0.000120241 1.14569e-05
1.88514e-05 1.14569e-05 -0.000210084
0.00526982 -9.85345e-05 0.000162865
-9.85345e-05 0.0027689 9.50083e-06
0.000162865 9.50083e-06 0.00275865
0.00178008 4.10183e-05 5.05015e-07
4.10183e-05 0.000123059 -5.46893e-07
5.05015e-07 -5.46893e-07 1.62226e-05
0.0017556 5.60696e-05 -1.39717e-06
5.60696e-05 6.95594e-05 3.71273e-07
-1.39717e-06 3.71273e-07 -1.8325e-05
0.00191318 8.544e-05 4.29113e-07
8.544e-05 0.00011854 1.11066e-09
4.29113e-07 1.11066e-09 4.47938e-05
0.00173129 -2.84092e-06 -4.19063e-07
-2.84092e-06 0.000232071 -3.62282e-07
-4.19063e-07 -3.62282e-07 0.00011129
0.00169688 1.07742e-06 2.91794e-07
1.07742e-06 8.1184e-05 1.33261e-08
2.91794e-07 1.33261e-08 -2.65981e-05
0.00167947 1.62078e-06 7.07456e-07
1.62078e-06 3.58566e-05 1.26187e-07
7.07456e-07 1.26187e-07 -4.7618e-05
0.00173275 -1.69797e-05 -2.29446e-07
-1.69797e-05 0.000110424 4.4044e-07
-2.29446e-07 4.4044e-07 3.09358e-06
0.00173504 -1.64581e-05 2.55789e-06
-1.64581e-05 0.000228708 -2.10923e-07
2.55789e-06 -2.10923e-07 0.000105828
0.000784637 -8.74418e-06 -1.3309e-05
-8.74418e-06 -0.00016574 6.64302e-07
-1.3309e-05 6.64302e-07 -0.00028736
0.00167208 -4.36166e-05 3.87319e-06
-4.36166e-05 0.000195725 -1.27663e-07
3.87319e-06 -1.27663e-07 6.59259e-05
0.000887391 -2.38144e-05 -2.40258e-06
-2.38144e-05 -0.000103771 2.49056e-07
-2.40258e-06 2.49056e-07 -0.000226665
0.000622784 -5.91477e-06 -1.83994e-05
-5.91477e-06 -0.000106001 1.98999e-06
-1.83994e-05 1.98999e-06 -0.000176687
0.00101832 -4.70017e-05 1.18319e-05
-4.70017e-05 -2.28635e-05 -1.97412e-06
1.18319e-05 -1.97412e-06 -0.000146872
0.000605612 -2.8691e-05 6.91865e-07
-2.8691e-05 -0.000112919 -3.53282e-08
6.91865e-07 -3.53282e-08 -0.0001836
0.00545513 -0.000105371 -0.000215193
-0.000105371 0.00284762 8.04652e-06
-0.000215193 8.04652e-06 0.00285083
0.000602764 -4.28787e-05 1.74849e-05
-4.28787e-05 -0.000107654 -3.62786e-06
1.74849e-05 -3.62786e-06 -0.000181093
0.00546622 -4.43116e-05 7.90427e-06
-4.43116e-05 0.002848 -7.67473e-09
7.90427e-06 -7.67473e-09 0.00285411
0.00154785 -1.66226e-05 0.000176103
-1.66226e-05 0.000546815 -9.27128e-06
0.000176103 -9.27128e-06 0.000532703
0.00165445 6.07448e-05 2.00641e-06
6.07448e-05 6.64243e-05 3.98843e-07
2.00641e-06 3.98843e-07 -4.638e-05
0.00178963 8.8776e-05 -2.92321e-06
8.8776e-05 9.79913e-05 -4.61209e-07
-2.92321e-06 -4.61209e-07 7.09233e-06
0.00143688 6.46704e-05 -2.14977e-06
6.46704e-05 6.47511e-05 1.27926e-07
-2.14977e-06 1.27926e-07 -6.69317e-05
0.00168967 7.75548e-05 5.84131e-07
7.75548e-05 8.81646e-05 9.46356e-08
5.84131e-07 9.46356e-08 -2.7282e-05
0.00191792 8.35588e-05 -1.41111e-06
8.35588e-05 0.000161017 -2.75604e-06
-1.41111e-06 -2.75604e-06 7.48565e-05
0.00105397 7.24759e-05 -1.22832e-05
7.24759e-05 -7.06405e-06 -2.30388e-06
-1.22832e-05 -2.30388e-06 -0.000129756
0.00142916 0.000108016 5.45727e-08
0.000108016 6.093e-05 8.16367e-08
5.45727e-08 8.16367e-08 -7.82837e-05
0.0017401 0.000130936 -7.78974e-08
0.000130936 0.000109802 -9.07347e-07
-7.78974e-08 -9.07347e-07 -1.72889e-05
0.000568413 6.38449e-05 -1.73172e-05
6.38449e-05 -0.000127434 -5.02757e-06
-1.73172e-05 -5.02757e-06 -0.00020038
0.000856594 9.61518e-05 -3.16263e-06
9.61518e-05 -0.000114499 -3.52491e-07
-3.16263e-06 -3.52491e-07 -0.000242902
0.00172991 0.000159464 4.777e-06
0.000159464 0.000254202 1.16913e-06
4.777e-06 1.16913e-06 0.000108513
0.00556378 0.000159944 -0.00022384
0.000159944 0.00291167 -1.67325e-05
-0.00022384 -1.67325e-05 0.0029118
0.000559459 8.92631e-05 2.59522e-08
8.92631e-05 -0.00011962 1.52043e-07
2.59522e-08 1.52043e-07 -0.000195769
0.000641871 0.000110171 9.05505e-06
0.000110171 -0.000225166 3.49466e-06
9.05505e-06 3.49466e-06 -0.000358293
0.0055285 0.000129421 1.04863e-05
0.000129421 0.00290129 2.36716e-06
1.04863e-05 2.36716e-06 0.00289747
0.000535481 0.000113119 1.78067e-05
0.000113119 -0.000115812 9.22612e-06
1.78067e-05 9.22612e-06 -0.000198078
0.00546645 3.81518e-05 0.000193281
3.81518e-05 0.00286383 1.42375e-05
0.000193281 1.42375e-05 0.0028639
0.0017234 2.82305e-05 -3.16062e-07
2.82305e-05 0.000232731 -2.11515e-07
-3.16062e-07 -2.11515e-07 0.000112588
0.00174648 3.68253e-05 -1.02158e-06
3.68253e-05 0.000106492 1.36269e-07
-1.02158e-06 1.36269e-07 -1.56294e-06
0.00171846 5.35946e-05 -1.61662e-06
5.35946e-05 5.32184e-05 4.39966e-07
-1.61662e-06 4.39966e-07 -3.59999e-05
0.000774317 -8.47532e-06 -1.37803e-05
-8.47532e-06 -0.000167108 -2.78326e-07
-1.37803e-05 -2.78326e-07 -0.000286848
0.0017394 3.22706e-06 2.90494e-06
3.22706e-06 0.000236726 -1.54038e-07
2.90494e-06 -1.54038e-07 0.00011594
0.00171546 -1.10198e-06 -7.37323e-07
-1.10198e-06 9.14104e-05 4.49862e-07
-7.37323e-07 4.49862e-07 -1.46776e-05
0.00174525 -1.6703e-05 6.21091e-06
-1.6703e-05 0.0002344 -7.9818e-08
6.21091e-06 -7.9818e-08 0.000111508
0.000772747 -8.77083e-06 -1.82714e-06
-8.77083e-06 -0.000173283 1.43644e-07
-1.82714e-06 1.43644e-07 -0.000295082
0.000623963 -2.61478e-05 -1.86734e-05
-2.61478e-05 -0.00010717 7.59671e-07
-1.86734e-05 7.59671e-07 -0.000176446
0.000996354 -2.21451e-05 9.84338e-06
-2.21451e-05 -4.04493e-05 -1.23513e-06
9.84338e-06 -1.23513e-06 -0.000162445
0.000605999 4.42501e-06 2.58623e-07
4.42501e-06 -0.000116035 6.81131e-08
2.58623e-07 6.81131e-08 -0.000186261
0.00549367 -8.31975e-05 -0.000222316
-8.31975e-05 0.00286792 5.57095e-06
-0.000222316 5.57095e-06 0.00287306
0.000612108 -2.94905e-05 1.82066e-05
-2.94905e-05 -0.000107902 -2.44735e-06
1.82066e-05 -2.44735e-06 -0.000179467
0.00548555 1.29928e-06 -3.01279e-06
1.29928e-06 0.00285738 1.33578e-06
-3.01279e-06 1.33578e-06 0.0028653
0.00547637 -6.40695e-05 0.000215289
-6.40695e-05 0.00285222 -7.24283e-06
0.000215289 -7.24283e-06 0.00285965
0.00142523 4.13602e-05 -2.26396e-06
4.13602e-05 6.34194e-05 6.90037e-08
-2.26396e-06 6.90037e-08 -6.47462e-05
0.00169974 6.37128e-05 -1.00279e-06
6.37128e-05 9.17394e-05 -1.08904e-06
-1.00279e-06 -1.08904e-06 -1.75509e-05
0.00177402 9.32788e-05 -4.2489e-06
9.32788e-05 8.15066e-05 -7.4615e-07
-4.2489e-06 -7.4615e-07 -7.21514e-06
0.00105468 4.06959e-05 -1.21189e-05
4.06959e-05 -6.95668e-06 -1.67194e-06
-1.21189e-05 -1.67194e-06 -0.000125795
0.00142373 6.48884e-05 1.71472e-07
6.48884e-05 5.61029e-05 4.47966e-08
1.71472e-07 4.47966e-08 -7.59654e-05
0.00169339 7.63092e-05 -1.11941e-06
7.63092e-05 9.11588e-05 -1.75642e-06
-1.11941e-06 -1.75642e-06 -2.43323e-05
0.000596461 3.9069e-05 -1.69208e-05
3.9069e-05 -0.000117443 -3.66698e-06
-1.69208e-05 -3.66698e-06 -0.000188726
0.00102486 7.36722e-05 2.02215e-07
7.36722e-05 -2.32261e-05 2.17748e-07
2.02215e-07 2.17748e-07 -0.000146375
0.00143142 0.000107986 3.45416e-06
0.000107986 6.275e-05 4.60861e-07
3.45416e-06 4.60861e-07 -7.6622e-05
0.00551582 0.000159348 -0.000235882
0.000159348 0.00288559 -1.46224e-05
-0.000235882 -1.46224e-05 0.00288577
0.000591865 6.59808e-05 2.96953e-07
6.59808e-05 -0.000113766 1.60694e-07
2.96953e-07 1.60694e-07 -0.000187056
0.00097757 0.000101381 9.21026e-06
0.000101381 -4.31932e-05 2.91942e-06
9.21026e-06 2.91942e-06 -0.000171089
0.00553374 0.000173443 5.93464e-06
0.000173443 0.002901 2.4015e-06
5.93464e-06 2.4015e-06 0.00289836
0.000579412 8.87204e-05 1.72018e-05
8.87204e-05 -0.00010822 7.20966e-06
1.72018e-05 7.20966e-06 -0.000184525
0.00549705 0.000150323 0.000211482
0.000150323 0.0028817 1.85805e-05
0.000211482 1.85805e-05 0.00287932
0.00103393 1.28362e-05 -1.27024e-05
1.28362e-05 -1.29318e-05 -8.99661e-07
-1.27024e-05 -8.99661e-07 -0.000129398
0.00158217 2.36532e-05 3.25518e-06
2.36532e-05 0.000151387 1.22026e-07
3.25518e-06 1.22026e-07 3.02821e-05
0.00170983 3.17914e-05 -2.43884e-06
3.17914e-05 8.77596e-05 2.09614e-07
-2.43884e-06 2.09614e-07 -2.15312e-05
0.000653718 2.86692e-05 -1.91432e-05
2.86692e-05 -9.65792e-05 -4.47014e-07
-1.91432e-05 -4.47014e-07 -0.000159159
0.000754362 -3.02225e-06 -2.10327e-06
-3.02225e-06 -0.000179775 5.94695e-08
-2.10327e-06 5.94695e-08 -0.000299743
0.0017427 9.34588e-06 6.25935e-06
9.34588e-06 0.000238582 2.2174e-07
6.25935e-06 2.2174e-07 0.000117774
0.000755428 -8.42361e-06 9.62962e-06
-8.42361e-06 -0.000184007 -4.07109e-07
9.62962e-06 -4.07109e-07 -0.000305977
0.000618185 -3.73439e-06 2.11831e-07
-3.73439e-06 -0.000110586 3.01999e-07
2.11831e-07 3.01999e-07 -0.000179856
0.00549286 4.47129e-05 -0.000228817
4.47129e-05 0.00286354 -7.15748e-07
-0.000228817 -7.15748e-07 0.00287177
0.000586581 1.47243e-05 1.77948e-05
1.47243e-05 -0.000127963 -1.21628e-06
1.77948e-05 -1.21628e-06 -0.000197511
0.00548581 -8.24533e-05 -7.85704e-06
-8.24533e-05 0.00286376 1.44167e-06
-7.85704e-06 1.44167e-06 0.00286858
0.00546146 2.18608e-05 0.000207127
2.18608e-05 0.00284377 -3.16829e-06
0.000207127 -3.16829e-06 0.00285123
0.00103455 2.16412e-05 -1.25519e-05
2.16412e-05 -1.48301e-05 -1.20701e-06
-1.25519e-05 -1.20701e-06 -0.000131731
0.00141409 4.09198e-05 -9.17037e-08
4.09198e-05 5.56103e-05 -8.24477e-08
-9.17037e-08 -8.24477e-08 -7.0768e-05
0.00174875 6.64857e-05 -3.62147e-06
6.64857e-05 0.000118972 -1.74999e-06
-3.62147e-06 -1.74999e-06 1.32123e-05
0.00260849 4.5205e-05 -0.000111292
4.5205e-05 0.00105947 -3.39159e-06
-0.000111292 -3.39159e-06 0.00101168
0.00103028 4.26123e-05 2.29803e-07
4.26123e-05 -2.12157e-05 1.66007e-07
2.29803e-07 1.66007e-07 -0.000140353
0.00141086 6.50435e-05 3.1083e-06
6.50435e-05 4.75357e-05 9.22894e-08
3.1083e-06 9.22894e-08 -8.49288e-05
0.00546748 0.000130992 -0.000238759
0.000130992 0.00285686 -1.10591e-05
-0.000238759 -1.10591e-05 0.0028592
0.000628931 5.43062e-05 7.69744e-07
5.43062e-05 -9.68397e-05 3.04293e-07
7.69744e-07 3.04293e-07 -0.000169436
0.00100156 7.50713e-05 1.21763e-05
7.50713e-05 -3.60645e-05 2.69985e-06
1.21763e-05 2.69985e-06 -0.000159651
0.00554462 0.000171413 1.5469e-06
0.000171413 0.00290499 1.64567e-06
1.5469e-06 1.64567e-06 0.002904
0.000625472 7.03077e-05 1.76146e-05
7.03077e-05 -9.32776e-05 5.74088e-06
1.76146e-05 5.74088e-06 -0.000167391
0.00550771 0.000197835 0.000223329
0.000197835 0.00289264 2.0116e-05
0.000223329 2.0116e-05 0.00288656
0.000695563 8.75673e-06 -1.63898e-05
8.75673e-06 -6.09989e-05 -1.84911e-06
-1.63898e-05 -1.84911e-06 -0.000130565
0.000888669 1.06526e-05 6.23451e-07
1.06526e-05 -9.77603e-05 1.44318e-07
6.23451e-07 1.44318e-07 -0.000215404
0.00144288 1.88536e-05 6.06834e-06
1.88536e-05 7.11484e-05 1.94261e-07
6.06834e-06 1.94261e-07 -5.08838e-05
0.00538488 -9.29962e-05 -0.000213174
-9.29962e-05 0.00281633 4.26261e-07
-0.000213174 4.26261e-07 0.00281507
0.00061418 7.76941e-06 -4.26211e-07
7.76941e-06 -0.000114571 2.29499e-07
-4.26211e-07 2.29499e-07 -0.000179879
0.000745682 2.12354e-06 9.46554e-06
2.12354e-06 -0.000186042 2.67609e-07
9.46554e-06 2.67609e-07 -0.000306204
0.000585109 2.04173e-05 1.80492e-05
2.04173e-05 -0.000130133 1.28982e-07
1.80492e-05 1.28982e-07 -0.000198941
0.00545569 9.11041e-06 2.63601e-06
9.11041e-06 0.00284578 -6.64917e-07
2.63601e-06 -6.64917e-07 0.00285097
0.00550169 5.63761e-06 0.000217508
5.63761e-06 0.00286434 -1.33954e-06
0.000217508 -1.33954e-06 0.00287343
0.00266156 5.17577e-06 -0.000108293
5.17577e-06 0.00108784 -2.13825e-06
-0.000108293 -2.13825e-06 0.00104124
0.00103962 2.43685e-05 3.50711e-08
2.43685e-05 -1.25142e-05 1.14288e-07
3.50711e-08 1.14288e-07 -0.000129582
0.00139313 4.06171e-05 2.96276e-06
4.06171e-05 4.23043e-05 -1.40908e-07
2.96276e-06 -1.40908e-07 -8.23002e-05
0.0051015 -6.20648e-05 -6.70839e-05
-6.20648e-05 0.00265361 3.36666e-07
-6.70839e-05 3.36666e-07 0.0026391
0.000641516 4.61757e-05 1.64205e-08
4.61757e-05 -9.14062e-05 2.37499e-07
1.64205e-08 2.37499e-07 -0.000161977
0.00102095 4.50384e-05 1.20256e-05
4.50384e-05 -2.71293e-05 2.04163e-06
1.20256e-05 2.04163e-06 -0.000146513
0.00551248 9.92516e-05 -1.10672e-05
9.92516e-05 0.00287862 -9.61411e-07
-1.10672e-05 -9.61411e-07 0.00288291
0.000658718 7.52779e-05 1.90957e-05
7.52779e-05 -7.87992e-05 4.78697e-06
1.90957e-05 4.78697e-06 -0.000152007
0.00554832 0.000195449 0.000234235
0.000195449 0.00291436 1.89227e-05
0.000234235 1.89227e-05 0.00290987
0.00167372 -4.75369e-05 -0.000184106
-4.75369e-05 0.000614936 5.80308e-07
-0.000184106 5.80308e-07 0.000604507
0.00164904 2.38989e-05 -4.47927e-05
2.38989e-05 0.000491882 1.63945e-07
-4.47927e-05 1.63945e-07 0.000437822
0.000744895 1.08035e-05 1.24242e-05
1.08035e-05 -0.000181649 8.93389e-07
1.24242e-05 8.93389e-07 -0.000300515
0.005427 -3.88714e-05 8.05934e-06
-3.88714e-05 0.00283589 9.56717e-07
8.05934e-06 9.56717e-07 0.00283864
0.000623905 -1.17238e-05 1.8469e-05
-1.17238e-05 -0.000104408 9.8309e-07
1.8469e-05 9.8309e-07 -0.000172375
0.00548928 -6.00636e-05 0.000232853
-6.00636e-05 0.00286583 -1.58215e-06
0.000232853 -1.58215e-06 0.00287178
0.0012688 1.98931e-06 -3.27567e-05
1.98931e-06 0.00040072 -6.33458e-07
-3.27567e-05 -6.33458e-07 0.000366794
0.00164137 1.15338e-05 -4.52543e-05
1.15338e-05 0.000491315 -4.98437e-07
-4.52543e-05 -4.98437e-07 0.000434337
0.00103669 2.56371e-05 1.22823e-05
2.56371e-05 -1.46102e-05 1.47021e-06
1.22823e-05 1.47021e-06 -0.00013186
0.00337636 4.47011e-05 8.52251e-05
4.47011e-05 0.00162636 1.91056e-06
8.52251e-05 1.91056e-06 0.00161397
0.000651414 5.51075e-05 1.92165e-05
5.51075e-05 -8.52943e-05 3.74364e-06
1.92165e-05 3.74364e-06 -0.000156108
0.00555271 9.08502e-05 0.000223759
9.08502e-05 0.00289762 1.1644e-05
0.000223759 1.1644e-05 0.00290443
0.00535276 -2.35616e-05 -8.86812e-06
-2.35616e-05 0.00279555 -1.59143e-06
-8.86812e-06 -1.59143e-06 0.00279752
0.000625935 4.04848e-05 1.97377e-05
4.04848e-05 -0.000108691 1.86422e-06
1.97377e-05 1.86422e-06 -0.000171034
0.00534602 5.29493e-05 0.000218046
5.29493e-05 0.00278594 -1.15443e-07
0.000218046 -1.15443e-07 0.00279124
0.00332649 2.61613e-05 9.9003e-05
2.61613e-05 0.00160178 2.77432e-06
9.9003e-05 2.77432e-06 0.00158924
0.000659657 4.48245e-06 1.857e-05
4.48245e-06 -8.19795e-05 2.54643e-06
1.857e-05 2.54643e-06 -0.000149893
0.00546756 -3.13237e-05 0.000215762
-3.13237e-05 0.00285078 5.26944e-06
0.000215762 5.26944e-06 0.00285646
0.00537449 -0.000129534 0.000213331
-0.000129534 0.00281439 -2.51397e-06
0.000213331 -2.51397e-06 0.00281138
0.00537094 -1.57715e-05 0.000212796
-1.57715e-05 0.00279199 2.63595e-06
0.000212796 2.63595e-06 0.00280097
