# vtk DataFile Version 2.0
Wound Healing Simulation
ASCII
DATASET UNSTRUCTURED_GRID
POINTS 3012 float
69.9759 18.75 4
67.2507 60.3285 4
69.976 18.75 2
73.0099 25.446 4
71.1327 20.9142 4
68.6801 16.6661 4
67.8259 19.9261 3.98345
67.2507 60.3286 2
71.1327 54.0858 4
68.6801 58.3339 4
65.6939 62.2254 4
65.3127 59.0018 3.98383
74.6784 42.3946 4
73.7221 47.2057 4
69.9759 18.75 0
73.0099 25.446 2
68.6801 16.6661 2
71.1327 20.9142 2
67.8264 19.9289 2
74.6792 32.6053 4
73.7222 27.7943 4
72.1454 23.1494 4
70.6146 26.221 3.98344
68.8862 21.9581 3.98413
67.2507 14.6715 4
66.6374 17.9717 3.98288
65.7976 21.0252 3.97502
67.2507 60.3285 0
71.1327 54.0858 2
68.6801 58.3339 2
65.694 62.2255 2
65.3138 58.9989 2
72.1454 51.8506 4
69.9759 56.25 4
68.8367 53.1131 3.98305
64.0165 64.0165 4
66.611 57.134 3.98331
63.8863 60.7667 3.9859
63.501 57.7721 3.97644
60.3285 67.2507 4
74.6792 42.3947 2
73.7222 47.2057 2
74.9194 39.9526 4
74.2788 44.8158 4
72.1685 42.0857 3.98211
73.0099 49.554 4
71.2496 46.5983 3.98235
73.0099 25.446 0
71.1327 20.9142 0
68.6801 16.6661 0
67.8259 19.9261 0.0165527
74.6792 32.6053 2
73.7222 27.7943 2
67.2508 14.6715 2
72.1455 23.1494 2
70.6146 26.2215 2
66.6382 17.9748 2
68.8865 21.9601 2
65.7971 21.0255 2
74.9197 35.0474 4
74.2794 30.1841 4
72.1851 32.9432 3.98246
71.2786 28.4313 3.98288
69.816 24.0597 3.98393
68.3475 26.951 3.97354
66.7633 22.9329 3.97457
65.694 12.7746 4
65.3243 16.1028 3.98452
64.7138 19.1952 3.97503
63.8862 22.0359 3.9713
71.1327 54.0858 0
65.6939 62.2254 0
68.6801 58.3339 0
65.3127 59.0018 0.0161661
72.1455 51.8506 2
69.9759 56.25 2
68.837 53.111 2
64.0165 64.0165 2
66.6118 57.1308 2
63.8877 60.7646 2
63.5007 57.7726 2
62.2254 65.694 4
58.8951 65.4145 3.99177
69.7693 50.989 3.98306
67.784 55.1674 3.98304
66.6497 52.2093 3.9732
62.3367 62.428 3.9884
64.6611 56.0316 3.97539
62.2036 59.4052 3.9781
61.8223 56.6803 3.9719
58.3339 68.6801 4
60.3285 67.2508 2
73.7221 47.2057 0
74.6784 42.3946 0
74.9197 39.9526 2
74.2794 44.8159 2
72.1682 42.0857 2
73.0099 49.554 2
71.2496 46.5979 2
75 37.5 4
72.4057 39.8023 3.98223
71.7829 44.353 3.98233
69.8044 41.7897 3.97231
70.5755 48.8137 3.98268
68.9127 46.0151 3.97247
74.6792 32.6053 0
73.7222 27.7943 0
67.2507 14.6715 0
72.1454 23.1494 0
70.6146 26.221 0.0165569
68.8862 21.9581 0.0158719
66.6374 17.9717 0.0171231
65.7976 21.0252 0.0249832
74.9197 35.0474 2
74.2794 30.1841 2
72.1848 32.9434 2
71.2786 28.4317 2
65.694 12.7745 2
65.3255 16.1053 2
69.8162 24.0609 2
68.3475 26.9512 2
64.7135 19.1951 2
66.7629 22.9333 2
63.8858 22.0359 2
72.4135 35.2241 3.98221
71.8042 30.6762 3.98265
69.8404 33.268 3.97277
68.9668 29.0377 3.97321
67.612 24.9116 3.97386
66.1944 27.6342 3.96974
64.0165 10.9835 4
64.7562 23.8299 3.97066
63.8908 14.3263 3.98687
63.514 17.4464 3.97725
62.905 20.3225 3.97015
62.0902 22.945 3.96932
60.6844 11.0972 3.98922
57.6125 11.4465 3.98236
72.1454 51.8506 0
69.9759 56.25 0
68.8367 53.1131 0.0169489
64.0165 64.0165 0
63.8863 60.7667 0.0141029
66.611 57.134 0.0166935
63.501 57.7721 0.0235583
62.2255 65.694 2
58.8958 65.4142 2
69.7694 50.9878 2
67.7845 55.1645 2
66.6493 52.2088 2
62.338 62.4268 2
64.6607 56.0317 2
62.2035 59.4062 2
61.822 56.6813 2
60.6694 63.9774 3.99026
57.0259 66.7351 3.99241
57.5586 63.6929 3.98481
67.5079 50.177 3.97279
65.702 54.1733 3.974
64.5365 51.3847 3.96918
60.7737 60.939 3.9806
62.8186 55.0666 3.9709
60.6579 58.1592 3.97293
60.3248 55.7825 3.97093
56.25 69.9759 4
58.3339 68.6801 2
60.3285 67.2507 0
58.9216 9.65551 3.99017
62.2254 9.30607 4
73.0099 49.554 0
74.2788 44.8158 0
71.2496 46.5983 0.0176487
72.1685 42.0857 0.0178946
74.9194 39.9526 0
75 37.5 2
72.4056 39.8024 2
71.7828 44.3527 2
69.8041 41.7895 2
70.5755 48.8132 2
68.9127 46.0147 2
72.489 37.512 3.98199
70.0414 39.6573 3.97218
69.4308 43.9077 3.97246
67.597 41.4973 3.96918
68.2663 48.1074 3.9725
66.7095 45.4398 3.96898
74.9197 35.0474 0
74.2794 30.1841 0
72.1851 32.9432 0.017536
71.2786 28.4313 0.0171249
65.694 12.7746 0
65.3243 16.1028 0.0154822
69.816 24.0597 0.0160662
68.3475 26.951 0.0264585
66.7633 22.9329 0.0254307
64.7138 19.1952 0.0249679
63.8862 22.0359 0.0286985
72.4134 35.2241 2
71.8042 30.6765 2
69.8401 33.2682 2
68.9668 29.0379 2
64.0165 10.9835 2
63.8921 14.3281 2
63.5139 17.4457 2
67.6117 24.912 2
66.1943 27.6342 2
62.9047 20.322 2
64.7559 23.8299 2
62.0898 22.9449 2
60.6855 11.0982 2
57.6127 11.4457 2
70.058 35.3916 3.97227
69.4675 31.149 3.9728
67.6552 33.5906 3.96946
66.772 29.6223 3.96946
65.5237 25.6989 3.97009
64.1446 28.2559 3.96944
62.3422 12.6543 3.98823
62.855 24.6383 3.96947
62.2002 15.7835 3.98009
61.8125 18.6862 3.9713
61.2123 21.3455 3.96816
60.4194 23.7312 3.96873
59.2467 12.778 3.98107
55.8745 10.2329 3.98406
56.4052 13.114 3.97875
69.7693 50.989 0.0169426
62.2254 65.694 0
58.8951 65.4145 0.00822885
67.784 55.1674 0.0169644
66.6497 52.2093 0.026797
62.3367 62.428 0.011603
62.2036 59.4052 0.0218956
64.6611 56.0316 0.0246077
61.8223 56.6803 0.0281019
60.6704 63.9767 2
57.0265 66.7351 2
57.5587 63.6941 2
67.5077 50.1765 2
65.7016 54.173 2
64.5361 51.3847 2
60.7738 60.9403 2
62.8183 55.0672 2
60.6578 58.1604 2
60.3247 55.783 2
55.0715 67.9321 3.9927
59.2198 62.3673 3.98193
55.8055 64.911 3.98738
56.3271 62.0911 3.98055
65.3311 49.4081 3.96889
63.7044 53.2912 3.96953
62.4381 50.6498 3.96796
59.3334 59.5576 3.97706
61.0723 54.3053 3.96922
59.2869 57.0086 3.97055
59.237 55.1768 3.97411
48.1035 68.5789 3.98859
50.9491 69.9317 3.99291
54.0858 71.1327 4
56.25 69.976 2
58.3339 68.6801 0
57.0589 8.33557 3.99083
60.3285 7.74928 4
58.9226 9.65615 2
62.2255 9.30602 2
70.5755 48.8137 0.0173181
71.7829 44.353 0.0176675
68.9127 46.0151 0.0275292
69.8044 41.7897 0.0276941
72.4057 39.8023 0.0177738
75 37.5 0
72.4887 37.5121 2
70.0414 39.6572 2
69.4307 43.9074 2
67.5968 41.4972 2
68.2664 48.107 2
66.7094 45.4396 2
70.1294 37.5213 3.97221
67.8342 39.5121 3.96922
67.2234 43.4698 3.9691
65.5456 41.2087 3.96993
66.0682 47.4179 3.96889
64.6466 44.8469 3.96908
72.4135 35.2241 0.0177923
71.8042 30.6762 0.0173461
69.8404 33.268 0.0272339
68.9668 29.0377 0.0267867
64.0165 10.9835 0
63.8908 14.3263 0.0131278
63.514 17.4464 0.0227451
67.612 24.9116 0.0261397
66.1944 27.6342 0.0302632
64.7562 23.8299 0.0293361
62.905 20.3225 0.0298534
62.0902 22.945 0.0306784
60.6844 11.0972 0.0107846
57.6125 11.4465 0.0176354
70.058 35.3918 2
69.4675 31.1492 2
67.655 33.5906 2
66.7721 29.6224 2
62.3434 12.6558 2
62.2 15.7826 2
61.8123 18.6851 2
65.5234 25.699 2
64.1445 28.2559 2
61.2122 21.3452 2
62.8547 24.6382 2
60.4196 23.7314 2
59.2467 12.7774 2
56.405 13.113 2
55.8746 10.2321 2
67.8701 35.5473 3.96925
67.265 31.622 3.96938
65.692 33.9273 3.97003
64.6595 30.1925 3.96929
63.5364 26.4148 3.96942
62.2457 28.7803 3.97179
60.7761 14.2224 3.981
61.0384 25.341 3.97008
60.6129 17.1277 3.97624
60.2172 19.8217 3.96744
59.6509 22.2635 3.96712
58.9652 24.3265 3.97039
54.0376 9.13574 3.98522
57.9105 14.3322 3.97935
54.7866 12.0129 3.98013
55.3119 14.6488 3.97738
67.5079 50.177 0.0272136
57.0259 66.7351 0.00759485
60.6694 63.9774 0.00974033
57.5586 63.6929 0.0151918
65.702 54.1733 0.0260025
64.5365 51.3847 0.0308152
60.7737 60.939 0.0194018
60.6579 58.1592 0.0270747
62.8186 55.0666 0.0290956
60.3248 55.7825 0.0290664
55.0719 67.9321 2
59.2199 62.3684 2
55.8055 64.912 2
56.3272 62.0924 2
65.3309 49.408 2
63.704 53.2914 2
62.4382 50.6498 2
59.3334 59.5589 2
61.0723 54.3055 2
59.287 57.0088 2
59.2371 55.177 2
53.0433 68.9999 3.99282
53.9679 66.0135 3.98819
57.8807 60.8707 3.97893
54.6843 63.2088 3.98318
55.211 60.6163 3.9784
63.1876 48.659 3.96824
61.737 52.5721 3.96811
60.2543 50.0122 3.96817
58.0168 58.2597 3.97299
59.319 53.9404 3.96837
58.1212 55.8023 3.96791
50.1102 67.857 3.98856
47.4638 66.5815 3.98594
46.057 69.1582 3.98861
48.1035 68.5794 2
48.8032 70.723 3.99298
50.9495 69.9319 2
51.8506 72.1454 4
54.0858 71.1327 2
56.25 69.9759 0
55.1035 7.14018 3.99137
58.3339 6.31992 4
57.0597 8.33587 2
60.3286 7.74926 2
58.9216 9.65551 0.00982613
62.2254 9.30607 0
68.2663 48.1074 0.0275022
69.4308 43.9077 0.0275411
66.7095 45.4398 0.0310167
67.597 41.4973 0.0308197
70.0414 39.6573 0.0278228
72.489 37.512 0.0180104
70.1292 37.5213 2
67.8341 39.512 2
67.2233 43.4696 2
65.5453 41.2086 2
66.0682 47.4178 2
64.6463 44.8468 2
67.9304 37.5217 3.9692
65.7765 39.3694 3.97015
65.1697 43.024 3.96952
63.7206 40.9275 3.97237
63.9567 46.7148 3.96859
62.7859 44.2127 3.97221
70.058 35.3916 0.0277254
69.4675 31.149 0.0271963
67.6552 33.5906 0.0305432
66.772 29.6223 0.0305373
62.3422 12.6543 0.0117738
62.2002 15.7835 0.0199116
61.8125 18.6862 0.0286971
65.5237 25.6989 0.0299093
64.1446 28.2559 0.0305567
62.855 24.6383 0.0305278
61.2123 21.3455 0.031837
60.4194 23.7312 0.0312728
59.2467 12.778 0.01893
56.4052 13.114 0.021254
55.8745 10.2329 0.0159376
67.87 35.5473 2
67.2649 31.622 2
65.6919 33.9273 2
64.6593 30.1924 2
60.776 14.2216 2
60.6127 17.1264 2
60.2172 19.8208 2
63.5362 26.4148 2
62.2452 28.7805 2
59.6513 22.2638 2
61.0383 25.3412 2
58.9649 24.3269 2
57.91 14.3313 2
55.3114 14.648 2
54.0377 9.13501 2
54.7866 12.0118 2
65.866 35.6666 3.96993
65.1782 32.1547 3.96959
64.2606 34.2501 3.97193
62.5689 30.6381 3.97195
61.6379 27.0756 3.97055
60.8225 29.1444 3.97481
59.3111 15.6686 3.97864
59.3083 25.803 3.97278
59.1209 18.3583 3.97264
58.7285 20.8622 3.96503
58.2703 23.0996 3.96647
57.944 24.6727 3.97183
52.1123 8.15388 3.98617
53.058 11.0184 3.98153
56.676 15.7441 3.97857
53.8088 13.6838 3.97804
54.3748 16.0032 3.97778
55.0715 67.9321 0.00730403
65.3311 49.4081 0.0311068
55.8055 64.911 0.0126235
59.2198 62.3673 0.0180668
56.3271 62.0911 0.0194547
63.7044 53.2912 0.030472
62.4381 50.6498 0.0320429
59.3334 59.5576 0.0229379
59.2869 57.0086 0.0294468
61.0723 54.3053 0.0307768
59.237 55.1768 0.0258918
53.0437 69 2
53.9678 66.0142 2
57.8806 60.8718 2
54.6843 63.21 2
55.211 60.6178 2
63.1875 48.6589 2
61.7368 52.5721 2
60.2544 50.0119 2
58.0167 58.2613 2
59.3193 53.9403 2
58.1213 55.8021 2
52.0714 67 3.98848
52.954 64.2198 3.98504
56.6475 59.4881 3.97664
53.6812 61.6233 3.98082
54.2587 59.3201 3.97605
60.9633 47.8736 3.96917
59.696 52.0982 3.9678
57.9865 49.6044 3.97101
56.7731 56.9777 3.97011
57.1076 54.1088 3.96638
50.1102 67.8575 2
49.3376 65.9219 3.98587
47.4637 66.582 2
46.8931 64.7367 3.98445
45.5588 67.0986 3.98589
43.9738 69.5905 3.98861
46.057 69.1587 2
46.6098 71.3675 3.99298
48.1035 68.5789 0.0114077
48.8036 70.7232 2
49.554 73.0099 4
50.9491 69.9317 0.00709478
51.8506 72.1455 2
54.0858 71.1327 0
53.0647 6.07176 3.99162
55.1041 7.14028 2
56.25 5.02411 4
58.3339 6.3199 2
57.0589 8.33557 0.00916503
60.3285 7.74928 0
66.0682 47.4179 0.031105
67.2234 43.4698 0.0309017
64.6466 44.8469 0.0309192
65.5456 41.2087 0.0300745
67.8342 39.5121 0.0307769
70.1294 37.5213 0.0277906
67.9302 37.5217 2
65.7761 39.3694 2
65.1694 43.0239 2
63.7202 40.9274 2
63.9564 46.7146 2
62.7852 44.2125 2
65.8786 37.5013 3.96985
63.8573 39.2653 3.97199
63.2972 42.5472 3.97215
62.3758 40.6952 3.97479
61.9431 45.914 3.97104
61.4068 43.678 3.97531
67.8701 35.5473 0.0307467
67.265 31.622 0.0306212
65.692 33.9273 0.0299695
64.6595 30.1925 0.0307144
60.7761 14.2224 0.0190044
60.6129 17.1277 0.0237607
60.2172 19.8217 0.0325616
63.5364 26.4148 0.0305809
62.2457 28.7803 0.0282146
61.0384 25.341 0.029923
59.6509 22.2635 0.0328799
58.9652 24.3265 0.029609
57.9105 14.3322 0.0206456
55.3119 14.6488 0.0226182
54.0376 9.13574 0.014779
54.7866 12.0129 0.0198654
65.8657 35.6666 2
65.1782 32.1546 2
64.2605 34.2501 2
62.5686 30.6382 2
59.3106 15.6676 2
59.1209 18.3571 2
58.729 20.8622 2
61.6374 27.0758 2
60.8224 29.1445 2
58.2703 23.1 2
59.3085 25.8033 2
57.9437 24.6732 2
56.6753 15.7431 2
54.374 16.0025 2
53.8086 13.6826 2
52.1123 8.15326 2
53.0578 11.0175 2
64.0556 35.6323 3.9716
62.8902 33.0477 3.97238
60.5702 30.6158 3.97514
59.5374 27.9164 3.97401
57.9382 16.9849 3.97709
57.7055 25.7347 3.97429
57.7072 19.4827 3.96937
57.3493 21.8512 3.96367
57.1581 23.9565 3.9687
50.1125 7.2852 3.98709
51.2326 10.126 3.98282
52.1717 12.8 3.9799
55.5355 16.9759 3.97806
52.9761 15.269 3.9755
53.7555 16.9864 3.97968
53.0433 68.9999 0.00717908
53.9679 66.0135 0.0118124
63.1876 48.659 0.031763
54.6843 63.2088 0.0168203
57.8807 60.8707 0.0210662
55.211 60.6163 0.0216048
61.737 52.5721 0.0318917
60.2543 50.0122 0.0318334
58.0168 58.2597 0.0270117
58.1212 55.8023 0.0320934
59.319 53.9404 0.0316278
52.0713 67.0006 2
52.9538 64.2206 2
56.6473 59.489 2
53.6811 61.6247 2
54.2588 59.3216 2
60.9626 47.8733 2
59.6966 52.098 2
57.9848 49.6038 2
56.7726 56.9823 2
57.108 54.1086 2
51.1686 65.1289 3.98571
52.0467 62.5399 3.98294
55.4785 58.2478 3.977
52.8335 60.1351 3.97864
53.6372 58.4695 3.9797
58.2495 46.8369 3.97386
57.5393 51.7735 3.96852
56.1928 49.539 3.9713
55.4626 55.7765 3.96702
55.3355 53.3656 3.96599
50.1102 67.857 0.0114415
49.3375 65.9225 2
48.6189 64.1234 3.98459
47.4638 66.5815 0.0140586
45.5588 67.0992 2
46.893 64.7372 2
46.3828 63.0538 3.98384
45.1333 65.1978 3.98437
43.6319 67.4692 3.98592
41.8609 69.878 3.98847
43.9739 69.591 2
44.3771 71.8624 3.99286
46.057 69.1582 0.0113928
46.6101 71.3677 2
47.2057 73.7222 4
48.8032 70.723 0.00701626
49.554 73.0099 2
51.8506 72.1454 0
50.9545 5.13192 3.99206
53.0652 6.07172 2
54.0858 3.86728 4
55.1035 7.14018 0.00863082
56.25 5.02406 2
58.3339 6.31992 0
63.9567 46.7148 0.0314072
65.1697 43.024 0.0304774
62.7859 44.2127 0.027785
63.7206 40.9275 0.0276281
65.7765 39.3694 0.0298548
67.9304 37.5217 0.0308014
65.8783 37.5013 2
63.8567 39.2652 2
63.2967 42.547 2
62.3753 40.6951 2
61.9421 45.9137 2
61.4059 43.6778 2
63.9192 37.4563 3.97163
62.0889 39.3533 3.97366
61.1561 41.9537 3.97522
60.2069 44.7631 3.97517
65.866 35.6666 0.030071
65.1782 32.1547 0.0304148
64.2606 34.2501 0.0280683
62.5689 30.6381 0.0280501
59.3111 15.6686 0.0213646
59.1209 18.3583 0.0273627
58.7285 20.8622 0.0349696
61.6379 27.0756 0.0294529
60.8225 29.1444 0.0251872
59.3083 25.803 0.0272211
58.2703 23.0996 0.0335251
57.944 24.6727 0.0281661
56.676 15.7441 0.0214268
54.3748 16.0032 0.0222207
53.8088 13.6838 0.0219634
52.1123 8.15388 0.0138316
53.058 11.0184 0.018469
64.0551 35.6322 2
62.8898 33.0477 2
60.5703 30.6159 2
57.9377 16.9838 2
57.7074 19.481 2
57.35 21.8514 2
59.5369 27.9167 2
57.1569 23.9572 2
57.7062 25.7352 2
50.1125 7.28466 2
55.5348 16.9748 2
53.7547 16.9855 2
52.9756 15.2678 2
52.1713 12.7991 2
51.2325 10.1253 2
62.1242 35.36 3.97311
60.2189 32.7484 3.97514
58.5601 30.0832 3.97618
57.2388 27.3914 3.97539
56.6323 18.1605 3.97665
56.2503 25.1136 3.97185
56.3424 20.5324 3.96747
56.076 22.8826 3.96482
48.0564 6.52777 3.98807
49.3247 9.33295 3.98349
50.4331 11.9968 3.98098
51.3765 14.5029 3.97796
54.4104 17.9262 3.97897
52.3579 17.0453 3.97508
52.0714 67 0.0115207
52.954 64.2198 0.0149606
60.9633 47.8736 0.0308344
53.6812 61.6233 0.0191789
56.6475 59.4881 0.0233623
54.2587 59.3201 0.0239505
59.696 52.0982 0.0321965
57.9865 49.6044 0.0289906
56.7731 56.9777 0.0298894
57.1076 54.1088 0.0336203
51.1684 65.1296 2
52.0464 62.5409 2
55.4783 58.2488 2
52.8336 60.1366 2
53.6371 58.4704 2
58.2489 46.8365 2
57.5394 51.7732 2
56.1916 49.5384 2
55.4632 55.7775 2
55.3365 53.3656 2
50.347 63.3818 3.98412
51.2441 60.936 3.9806
54.2139 57.2644 3.97707
52.3103 58.6314 3.97668
56.6138 44.1672 3.97747
55.4211 47.8781 3.97371
55.0374 51.3739 3.96814
53.9864 54.5232 3.96626
49.3376 65.9219 0.0141256
48.6187 64.124 2
47.9628 62.4753 3.98374
45.5588 67.0986 0.0141101
46.8931 64.7367 0.0155509
43.6318 67.4699 2
46.3827 63.0543 2
45.1332 65.1984 2
45.9883 61.5861 3.98356
44.768 63.4542 3.98348
43.3573 65.5072 3.98428
41.6639 67.688 3.98561
39.7025 70.025 3.98856
41.8609 69.8785 2
42.1113 72.2072 3.99278
43.9738 69.5905 0.0113894
44.3773 71.8626 2
44.8159 74.2794 4
46.6098 71.3675 0.00701929
47.2057 73.7222 2
49.554 73.0099 0
48.7851 4.32272 3.99251
50.9549 5.13179 2
51.8506 2.85458 4
53.0647 6.07176 0.00837788
54.0858 3.86728 2
56.25 5.02411 0
61.9431 45.914 0.0289575
63.2972 42.5472 0.0278505
61.4068 43.678 0.0246856
62.3758 40.6952 0.0252107
63.8573 39.2653 0.0280062
65.8786 37.5013 0.030151
63.9185 37.4562 2
62.0881 39.3532 2
61.1556 41.9535 2
60.2058 44.7627 2
61.9277 37.4441 3.97366
60.1647 39.8433 3.97648
58.9096 42.9087 3.97671
64.0556 35.6323 0.0284
62.8902 33.0477 0.027619
60.5702 30.6158 0.0248597
57.9382 16.9849 0.0229073
57.7072 19.4827 0.0306347
57.3493 21.8512 0.0363308
59.5374 27.9164 0.0259917
57.7055 25.7347 0.0257136
57.1581 23.9565 0.0313049
55.5355 16.9759 0.0219368
53.7555 16.9864 0.0203165
52.9761 15.269 0.0244977
50.1125 7.2852 0.0129137
52.1717 12.8 0.0200972
51.2326 10.126 0.0171837
62.123 35.3601 2
60.2178 32.7486 2
58.5594 30.0836 2
56.6318 18.1591 2
56.3427 20.5295 2
56.0766 22.8833 2
57.2405 27.3919 2
56.251 25.1144 2
48.0565 6.52707 2
49.3245 9.33242 2
54.4099 17.9254 2
52.3571 17.0446 2
51.3759 14.5018 2
50.4328 11.9962 2
59.8045 35.1204 3.97603
57.8998 32.278 3.97694
56.4758 29.352 3.97661
55.3846 26.6141 3.97564
55.3334 19.1949 3.97584
54.8857 24.0728 3.96716
54.9771 21.5778 3.96569
45.9625 5.88248 3.98874
43.3739 7.47381 3.9858
47.3552 8.62559 3.98442
48.6001 11.2972 3.98141
49.713 13.7479 3.98007
50.6311 16.1392 3.97728
53.1176 18.6688 3.97488
51.2951 18.059 3.98115
51.1686 65.1289 0.0142914
52.0467 62.5399 0.0170583
58.2495 46.8369 0.026138
52.8335 60.1351 0.0213587
55.4785 58.2478 0.0230017
53.6372 58.4695 0.0202977
57.5393 51.7735 0.0314804
56.1928 49.539 0.0286958
55.4626 55.7765 0.032984
55.3355 53.3656 0.0340087
50.3467 63.3823 2
51.2439 60.937 2
54.2138 57.2656 2
52.3101 58.6322 2
56.6132 44.1666 2
55.4193 47.8773 2
55.0376 51.3736 2
53.9873 54.5246 2
49.5924 61.7454 3.98278
55.491 41.6864 3.9775
50.5656 59.3275 3.9765
52.1765 56.4842 3.97075
54.0678 45.5398 3.97701
53.2605 49.3083 3.97102
52.6347 52.8293 3.9658
48.6189 64.1234 0.0154089
47.9626 62.4757 2
47.3298 61.0094 3.98336
43.6319 67.4692 0.014078
45.1333 65.1978 0.0156263
46.3828 63.0538 0.0161636
41.6639 67.6885 2
43.3571 65.508 2
45.9883 61.5867 2
44.7679 63.4549 2
45.7667 60.6301 3.98197
44.4843 61.8348 3.98297
43.1472 63.7263 3.98299
41.5467 65.6446 3.98358
39.6329 67.7676 3.98528
37.526 70.0501 3.98843
39.7025 70.0256 2
39.818 72.4043 3.99261
41.8609 69.878 0.0115345
42.1116 72.2076 2
42.3947 74.6792 4
44.3771 71.8624 0.00713546
44.8159 74.2794 2
47.2057 73.7222 0
43.8518 5.35925 3.98898
46.571 3.64712 3.99276
48.7853 4.32245 2
49.554 1.99015 4
50.9545 5.13192 0.00794125
51.8506 2.85453 2
54.0858 3.86728 0
60.2069 44.7631 0.0248269
61.1561 41.9537 0.0247787
62.0889 39.3533 0.026337
63.9192 37.4563 0.0283654
61.9268 37.444 2
60.1639 39.8431 2
58.9088 42.9084 2
59.6604 37.565 3.97686
57.8825 40.6471 3.97735
54.932 39.7048 3.97711
62.1242 35.36 0.026894
60.2189 32.7484 0.0248609
58.5601 30.0832 0.0238201
56.6323 18.1605 0.0233465
56.3424 20.5324 0.0325327
56.076 22.8826 0.0351771
57.2388 27.3914 0.0246128
56.2503 25.1136 0.0281465
54.4104 17.9262 0.0210256
52.3579 17.0453 0.0249234
51.3765 14.5029 0.0220403
48.0564 6.52777 0.0119327
49.3247 9.33295 0.0165123
50.4331 11.9968 0.0190192
59.8032 35.1205 2
45.9624 5.8821 2
43.3739 7.47339 2
57.9002 32.2784 2
56.4751 29.3525 2
55.3332 19.1939 2
54.978 21.5769 2
54.8855 24.0742 2
55.3792 26.6155 2
47.3552 8.62471 2
48.5998 11.2967 2
53.1174 18.6679 2
51.2945 18.0583 2
50.6305 16.1382 2
49.7124 13.7474 2
57.2655 34.7679 3.97751
55.6313 31.5336 3.97823
54.4092 28.4245 3.97852
53.7213 25.5169 3.97345
53.9554 20.1472 3.97478
53.5449 22.7323 3.96111
41.3991 7.07887 3.9864
45.36 7.99573 3.98573
42.866 9.41745 3.98329
46.6667 10.6567 3.98194
47.7448 13.1072 3.98121
48.9294 15.4075 3.97815
50.0012 17.7081 3.97897
51.6388 19.3338 3.98259
50.347 63.3818 0.0158825
51.2441 60.936 0.019398
56.6138 44.1672 0.0225329
55.4211 47.8781 0.0262856
52.3103 58.6314 0.0233186
54.2139 57.2644 0.0229318
55.0374 51.3739 0.0318618
53.9864 54.5232 0.0337407
49.592 61.7457 2
55.4904 41.686 2
50.5654 59.3287 2
52.1765 56.485 2
54.0708 45.5392 2
53.2635 49.3078 2
52.6368 52.8289 2
48.8487 60.202 3.98093
52.3535 42.6131 3.97902
49.7851 57.6213 3.97671
50.5713 54.4143 3.96822
51.6979 47.2435 3.97606
51.1569 50.9251 3.96566
47.9925 43.7702 3.99127
47.9628 62.4753 0.0162585
47.3298 61.0097 2
46.6189 59.7953 3.98272
41.6639 67.688 0.0143881
43.3573 65.5072 0.0157236
44.768 63.4542 0.016524
45.9883 61.5861 0.0164358
39.633 67.7683 2
41.5465 65.645 2
45.7666 60.6308 2
43.1472 63.727 2
44.4843 61.8356 2
44.6236 60.2921 3.98252
42.9513 62.0825 3.9817
41.6006 63.8193 3.98296
39.648 65.6124 3.98282
37.5635 67.7498 3.9851
31.6966 65.1312 3.98358
33.3921 67.4872 3.98504
35.3333 69.9601 3.98844
37.526 70.0508 2
37.5095 72.4588 3.9925
39.7025 70.025 0.0114404
39.8181 72.4047 2
39.9526 74.9197 4
42.1113 72.2072 0.00721612
42.3947 74.6792 2
44.8159 74.2794 0
41.7365 4.96834 3.98937
43.8518 5.35877 2
44.3263 3.11018 3.99311
46.5712 3.64693 2
47.2057 1.27793 4
48.7851 4.32272 0.00748524
49.554 1.99013 2
51.8506 2.85458 0
58.9096 42.9087 0.0232903
60.1647 39.8433 0.0235246
61.9277 37.4441 0.0263437
59.6599 37.5649 2
57.881 40.6468 2
54.933 39.7032 2
56.67 37.8895 3.97794
49.3865 41.3141 3.98909
52.9528 39.3051 3.98146
39.4425 6.80228 3.98652
59.8045 35.1204 0.0239708
57.8998 32.278 0.0230555
56.4758 29.352 0.0233908
55.3334 19.1949 0.024164
54.9771 21.5778 0.034309
54.8857 24.0728 0.0328365
55.3846 26.6141 0.0243598
53.1176 18.6688 0.0251185
51.2951 18.059 0.0188466
50.6311 16.1392 0.0227239
45.9625 5.88248 0.0112565
49.713 13.7479 0.0199275
47.3552 8.62559 0.0155827
48.6001 11.2972 0.0185867
43.3739 7.47381 0.0142036
57.2637 34.7682 2
41.3991 7.07841 2
45.3599 7.99545 2
42.8658 9.41707 2
55.6309 31.5339 2
54.4047 28.4261 2
53.9556 20.1468 2
53.5453 22.7298 2
53.7192 25.5183 2
46.6664 10.6556 2
47.7442 13.1066 2
51.6386 19.333 2
50.0005 17.7071 2
48.9286 15.4071 2
54.7209 33.9755 3.97689
53.3665 30.5084 3.97764
52.5089 27.2277 3.97533
52.0928 24.1245 3.97301
52.3687 21.0689 3.97837
41.0139 9.04994 3.98356
44.7244 9.99722 3.98327
42.4689 10.9053 3.98323
46.005 12.7352 3.97945
47.6797 14.5909 3.97843
48.1087 16.9956 3.97712
49.8107 19.6459 3.9765
49.5924 61.7454 0.0172219
50.5656 59.3275 0.023502
55.491 41.6864 0.0225011
54.0678 45.5398 0.0229928
53.2605 49.3083 0.0289805
52.1765 56.4842 0.0292471
52.6347 52.8293 0.0342042
48.8485 60.2017 2
52.3585 42.6124 2
49.785 57.6226 2
50.5719 54.4151 2
51.7004 47.2426 2
51.1589 50.9242 2
47.9975 43.7828 2
47.9853 58.7414 3.97938
49.9394 45.2511 3.97838
48.5865 55.9123 3.97753
49.0919 52.5763 3.97219
49.5895 49.0248 3.97096
45.7902 39.8607 3.89061
46.2328 42.6504 3.93104
46.352 45.814 3.99123
43.6241 41.1484 3.83681
41.9254 42.0153 3.74297
47.3298 61.0094 0.0166358
46.6184 59.7958 2
45.4677 58.792 3.98201
39.6329 67.7676 0.0147226
41.5467 65.6446 0.0164193
43.1472 63.7263 0.017015
44.4843 61.8348 0.0170262
45.7667 60.6301 0.0180316
41.6006 63.8198 2
37.5635 67.7506 2
39.6479 65.613 2
44.6235 60.2927 2
42.9513 62.0831 2
41.7542 62.4933 3.98193
42.4808 59.9818 3.98266
39.8942 63.5533 3.98197
37.6424 65.5113 3.98296
35.4635 67.6591 3.98498
33.5752 65.3444 3.98308
31.9591 63.3027 3.98296
29.8827 64.7223 3.98425
31.6967 65.1319 2
31.3765 67.1971 3.98527
33.3921 67.4879 2
33.1562 69.7534 3.98826
35.3333 69.9608 2
35.1947 72.3732 3.99246
37.526 70.0501 0.0115653
37.5095 72.4593 2
37.5 75 4
39.818 72.4043 0.00739363
39.9526 74.9197 2
42.3947 74.6792 0
39.6242 4.71551 3.98962
41.7365 4.96787 2
42.0625 2.71771 3.99323
43.8518 5.35925 0.0110182
44.3264 3.10989 2
44.8158 0.721173 4
46.571 3.64712 0.00724307
47.2057 1.27779 2
49.554 1.99015 0
57.8825 40.6471 0.0226547
59.6604 37.565 0.0231362
54.932 39.7048 0.0228937
49.4025 41.3174 2
56.6683 37.8897 2
52.9549 39.3068 2
53.7998 36.632 3.97711
47.3126 40.391 3.9377
50.3273 38.51 3.99164
37.5164 6.67338 3.98677
39.4426 6.80177 2
39.2114 8.69236 3.98429
35.9422 8.49218 3.98459
57.2655 34.7679 0.0224875
55.6313 31.5336 0.0217652
54.4092 28.4245 0.0214767
53.9554 20.1472 0.0252226
53.5449 22.7323 0.0388889
53.7213 25.5169 0.0265501
51.6388 19.3338 0.0174103
50.0012 17.7081 0.0210287
48.9294 15.4075 0.0218509
45.36 7.99573 0.0142728
47.7448 13.1072 0.0187897
46.6667 10.6567 0.0180613
41.3991 7.07887 0.013596
42.866 9.41745 0.0167137
54.7235 33.9748 2
41.0137 9.04965 2
44.724 9.99714 2
42.4685 10.9053 2
53.3615 30.5075 2
52.5137 27.2291 2
52.3693 21.0675 2
52.094 24.1256 2
46.0044 12.7337 2
47.679 14.5901 2
49.8106 19.6446 2
48.1079 16.9952 2
52.2842 32.8936 3.98025
51.1947 29.1786 3.97793
50.7113 25.7596 3.97289
49.9189 22.2293 3.97806
40.5702 11.6099 3.98083
43.8585 11.9208 3.98008
45.8002 15.4298 3.98014
47.4994 19.2594 3.97695
46.1263 37.4867 3.89802
48.8487 60.202 0.0190706
49.7851 57.6213 0.0232868
52.3535 42.6131 0.0209827
51.6979 47.2435 0.0239448
51.1569 50.9251 0.0343378
50.5713 54.4143 0.0317845
47.9925 43.7702 0.00872955
47.9848 58.7422 2
49.946 45.255 2
48.5862 55.9146 2
49.0924 52.5786 2
49.5927 49.0243 2
45.8176 39.8702 2
46.2521 42.6652 2
46.3522 45.8082 2
43.6474 41.1673 2
41.9372 42.0243 2
46.8347 57.3434 3.98272
44.3708 39.429 3.83705
42.2715 40.8778 3.7817
47.9592 47.2162 3.97636
47.1474 54.2334 3.97523
47.5307 50.731 3.96587
44.6969 47.3979 3.98568
44.8937 41.9496 3.88935
44.8202 44.5482 3.94425
42.4775 42.6638 3.84594
40.83 42.3565 3.77541
46.6189 59.7953 0.0172834
45.4671 58.7924 2
43.8743 57.716 3.98459
37.5635 67.7498 0.0149035
39.648 65.6124 0.0171799
41.6006 63.8193 0.0170357
42.9513 62.0825 0.0182991
44.6236 60.2921 0.0174768
35.4635 67.6599 2
41.7542 62.4938 2
39.8941 63.5539 2
37.6424 65.5122 2
42.4809 59.9823 2
40.6236 61.6503 3.98199
40.4435 58.2105 3.98202
37.8374 63.2145 3.98118
35.573 65.4333 3.98281
33.5752 65.3449 2
31.9589 63.3034 2
33.6288 63.3421 3.98243
30.3779 62.8615 3.98327
32.1228 62.0087 3.9835
26.8678 61.5045 3.98256
28.0615 64.1502 3.98391
29.8827 64.7231 2
29.4059 66.7608 3.98548
31.6966 65.1312 0.0164205
31.3766 67.1978 2
31.0134 69.4183 3.98824
33.3921 67.4872 0.014961
33.1562 69.754 2
32.8916 72.1474 3.9925
35.3333 69.9601 0.0115608
35.1947 72.3736 2
35.0474 74.9194 4
37.5095 72.4588 0.00749567
37.5 75 2
39.9526 74.9197 0
35.621 6.72442 3.98644
37.5235 4.61506 3.98968
39.6242 4.71503 2
39.7889 2.47412 3.99329
41.7365 4.96834 0.0106316
42.0627 2.71741 2
42.3946 0.32156 4
44.3263 3.11018 0.00689474
44.8159 0.72056 2
47.2057 1.27793 0
49.3865 41.3141 0.0109066
56.67 37.8895 0.0220599
52.9528 39.3051 0.0185423
47.3294 40.4041 2
50.3405 38.5079 2
53.8062 36.6332 2
51.1216 35.5767 3.97911
47.9705 37.7402 3.95157
45.791 35.1336 3.89158
43.6303 33.8433 3.83423
41.9335 32.9863 3.73978
37.4583 8.53387 3.9847
37.5164 6.67268 2
39.4425 6.80228 0.0134846
39.2113 8.69181 2
38.9771 10.1267 3.9834
35.8991 9.77295 3.98292
34.1508 8.82172 3.98415
35.9419 8.49143 2
54.7209 33.9755 0.0231148
53.3665 30.5084 0.0223604
52.5089 27.2277 0.0246671
52.3687 21.0689 0.0216251
52.0928 24.1245 0.0269889
49.8107 19.6459 0.0235019
48.1087 16.9956 0.0228812
47.6797 14.5909 0.021568
44.7244 9.99722 0.0167261
46.005 12.7352 0.0205544
41.0139 9.04994 0.0164361
42.4689 10.9053 0.0167693
52.2879 32.8941 2
40.5702 11.6103 2
43.8576 11.921 2
51.2072 29.1791 2
50.7136 25.7621 2
49.9195 22.228 2
45.7993 15.428 2
47.4988 19.2586 2
49.8159 31.4234 3.97725
49.1849 27.527 3.97603
49.3524 24.4435 3.98437
47.1735 21.9964 3.97401
38.303 12.7369 3.97987
42.1016 14.3102 3.97842
44.7976 18.4745 3.97722
44.6665 37.4952 3.83944
46.1645 37.4943 2
47.9853 58.7414 0.020617
48.5865 55.9123 0.0224731
49.9394 45.2511 0.0216168
49.5895 49.0248 0.0290406
49.0919 52.5763 0.0278075
45.7902 39.8607 0.109392
46.2328 42.6504 0.0689646
46.352 45.814 0.00877275
43.6241 41.1484 0.163191
41.9254 42.0153 0.257033
46.8339 57.3445 2
44.3895 39.4424 2
42.265 40.8796 2
47.9598 47.2185 2
47.1472 54.2382 2
47.5323 50.7331 2
44.7013 47.3752 2
44.9135 41.9646 2
44.8368 44.5652 2
42.5089 42.6869 2
40.8297 42.3574 2
45.3897 55.9345 3.98882
42.5932 39.2721 3.79411
40.7293 40.7951 3.85838
46.0113 48.8976 3.98387
45.5047 52.5261 3.98192
43.3707 48.425 4.00194
43.3113 46.0994 3.93423
43.5462 43.7457 3.88474
41.0395 43.8188 3.84071
39.2827 42.7032 3.78998
45.4677 58.792 0.0179853
43.8738 57.716 2
42.1038 56.3393 3.98713
35.4635 67.6591 0.0150175
37.6424 65.5113 0.017036
39.8942 63.5533 0.0180279
41.7542 62.4933 0.0180668
42.4808 59.9818 0.0173437
35.573 65.4343 2
40.6236 61.651 2
37.8372 63.2153 2
40.4433 58.2119 2
38.9226 56.5032 3.9888
38.2505 60.332 3.98111
35.6071 63.2079 3.98116
33.5752 65.3444 0.0169235
31.9591 63.3027 0.0170358
33.6287 63.3428 2
30.3778 62.8621 2
32.1227 62.0094 2
28.6805 62.2062 3.98299
33.3456 61.5209 3.98258
31.0659 61.2259 3.98298
27.5675 59.6008 3.98165
23.7917 59.0873 3.98059
25.0335 60.8771 3.98149
26.8679 61.5051 2
26.2281 63.4825 3.98393
28.0616 64.1509 2
27.4623 66.1848 3.98552
29.8827 64.7223 0.0157461
29.4059 66.7616 2
28.9055 68.944 3.98821
31.3765 67.1971 0.0147257
31.0133 69.4191 2
30.6139 71.7783 3.99254
33.1562 69.7534 0.0117365
32.8915 72.1478 2
32.6054 74.6784 4
35.1947 72.3732 0.00754329
35.0474 74.9197 2
37.5 75 0
33.7237 6.97906 3.98598
35.435 4.68527 3.98949
35.6209 6.72378 2
37.5143 2.38676 3.99329
37.5235 4.61455 2
39.6242 4.71551 0.0103804
39.7889 2.47382 2
39.9526 0.0806499 4
42.0625 2.71771 0.00677095
42.3947 0.320817 2
44.8158 0.721173 0
44.3855 35.561 3.83181
42.282 34.1157 3.77731
47.3126 40.391 0.0623017
50.3273 38.51 0.00836007
53.7998 36.632 0.0228925
47.9838 37.7486 2
51.1325 35.5765 2
45.8116 35.1161 2
43.656 33.825 2
41.9444 32.9767 2
48.1457 34.3063 3.97464
44.9002 33.0409 3.88105
42.4915 32.3384 3.84144
40.84 32.647 3.77348
37.3114 10.6303 3.98204
37.4581 8.5329 2
37.5164 6.67338 0.01323
39.2114 8.69236 0.015711
38.9772 10.1261 2
34.7543 10.3792 3.98216
35.899 9.77219 2
32.3775 9.36857 3.98342
34.1505 8.82117 2
35.9422 8.49218 0.0154112
52.2842 32.8936 0.019748
51.1947 29.1786 0.0220669
50.7113 25.7596 0.0271091
49.9189 22.2293 0.0219447
47.4994 19.2594 0.0230531
45.8002 15.4298 0.0198589
43.8585 11.9208 0.0199159
40.5702 11.6099 0.0191664
49.8248 31.4185 2
38.3027 12.7361 2
42.1009 14.312 2
49.1877 27.5295 2
49.3542 24.442 2
47.1731 21.9948 2
44.797 18.4781 2
47.6564 29.5256 3.99027
47.0481 25.1861 3.98334
44.2811 21.3629 3.97589
36.5827 12.9331 3.98012
38.6817 14.8108 3.97849
41.7481 17.8521 3.97769
42.7146 37.4876 3.80049
44.6812 37.4955 2
46.1263 37.4867 0.101983
46.8347 57.3434 0.0172832
47.1474 54.2334 0.0247705
47.9592 47.2162 0.0236354
47.5307 50.731 0.0341314
44.3708 39.429 0.162945
44.8937 41.9496 0.110649
44.8202 44.5482 0.0557491
44.6969 47.3979 0.014321
42.4775 42.6638 0.154063
42.2715 40.8778 0.2183
40.83 42.3565 0.224595
45.3893 55.9345 2
42.5902 39.2701 2
40.7214 40.7883 2
46.0113 48.9011 2
45.506 52.5311 2
43.3733 48.444 2
43.3373 46.1257 2
43.5664 43.7657 2
41.0616 43.8416 2
39.2754 42.696 2
43.7255 54.445 3.99713
40.8287 39.167 3.88981
39.1569 40.8809 3.88825
43.6446 50.4796 4.00184
41.9115 47.6471 3.96783
41.8386 45.1696 3.88956
39.3474 44.5432 3.85109
37.4964 42.815 3.80738
43.8743 57.716 0.0154089
42.103 56.3398 2
40.4137 54.9468 3.99093
35.573 65.4333 0.017193
37.8374 63.2145 0.0188177
40.6236 61.6503 0.018015
40.4435 58.2105 0.0179761
35.6069 63.2088 2
38.2503 60.3332 2
38.9225 56.505 2
37.9973 55.2564 3.98728
36.933 57.6313 3.98051
35.3637 60.9182 3.98227
33.6288 63.3421 0.0175747
30.3779 62.8615 0.0167292
32.1228 62.0087 0.0165009
33.3455 61.5216 2
28.6804 62.2068 2
31.0659 61.2265 2
29.4024 60.2944 3.98217
32.3564 59.7533 3.98593
28.023 58.3809 3.9861
27.5676 59.6013 2
25.3785 58.5993 3.97945
22.7572 58.2437 3.97374
23.3996 60.3562 3.97975
23.7917 59.0881 2
25.0336 60.8777 2
24.4307 62.7749 3.98338
26.8678 61.5045 0.0174399
26.2282 63.4832 2
25.5463 65.4948 3.98547
28.0615 64.1502 0.0160909
27.4624 66.1854 2
26.835 68.3324 3.98825
29.4059 66.7608 0.0145182
28.9055 68.9445 2
28.3689 71.2635 3.99264
31.0134 69.4183 0.0117581
30.6137 71.7787 2
30.1842 74.2788 4
32.8916 72.1474 0.0075017
32.6053 74.6792 2
35.0474 74.9194 0
31.7881 7.419 3.9855
33.3471 4.92444 3.98922
33.7236 6.97844 2
35.2444 2.46284 3.99331
35.435 4.68478 2
35.621 6.72442 0.0135627
37.5 0 4
37.5143 2.38646 2
37.5235 4.61506 0.0103221
39.7889 2.47412 0.00671134
39.9526 0.0802889 2
42.3946 0.32156 0
42.5967 35.7108 3.79528
44.3985 35.5495 2
40.7382 34.204 3.85669
42.2745 34.1155 2
47.9705 37.7402 0.0484281
51.1216 35.5767 0.0208936
45.791 35.1336 0.108419
43.6303 33.8433 0.165774
41.9335 32.9863 0.260225
48.1609 34.2872 2
44.9211 33.028 2
42.5162 32.3176 2
40.8392 32.6453 2
46.172 31.5644 3.94984
43.5495 31.2554 3.8825
41.0519 31.1856 3.84016
39.2912 32.3024 3.789
35.6931 11.7759 3.98091
37.3115 10.6292 2
37.4583 8.53387 0.0152996
38.9771 10.1267 0.0166005
33.0981 11.2163 3.98092
34.7543 10.3785 2
35.8991 9.77295 0.0170815
30.4822 10.0168 3.98279
32.3773 9.36813 2
34.1508 8.82172 0.015849
49.8159 31.4234 0.0227519
49.1849 27.527 0.0239712
49.3524 24.4435 0.0156321
47.1735 21.9964 0.025992
44.7976 18.4745 0.0227755
42.1016 14.3102 0.0215791
38.303 12.7369 0.0201309
36.5826 12.9323 2
47.6588 29.5082 2
38.6809 14.8104 2
41.7473 17.8552 2
47.0513 25.1848 2
44.2804 21.3527 2
45.4602 27.6598 4.00173
43.7698 24.0891 4.00243
41.3371 20.7414 3.97873
35.7726 14.7608 3.97877
38.6816 17.6023 3.9773
40.8746 37.481 3.90001
42.7193 37.4889 2
44.6665 37.4952 0.160564
45.3897 55.9345 0.0111788
45.5047 52.5261 0.0180811
46.0113 48.8976 0.0161266
42.5932 39.2721 0.205888
43.5462 43.7457 0.115257
43.3113 46.0994 0.0657744
43.3707 48.425 -0.00193999
41.0395 43.8188 0.159288
40.7293 40.7951 0.141625
39.2827 42.7032 0.210024
43.725 54.4458 2
40.8207 39.1619 2
39.1458 40.8705 2
43.6451 50.4951 2
41.9026 47.6622 2
41.8605 45.1906 2
37.4975 42.8041 2
39.3653 44.5611 2
41.8659 53.0185 3.99376
39.1714 39.1663 3.92367
37.4961 40.9227 3.90545
35.7156 42.704 3.78973
40.8789 49.7018 4.00061
39.8049 46.0671 3.87171
37.4949 44.7669 3.83875
42.1038 56.3393 0.0128714
40.4133 54.9471 2
38.7262 53.8698 3.99586
35.6071 63.2079 0.0188436
38.2505 60.332 0.0188908
38.9226 56.5032 0.0112013
35.3634 60.9189 2
36.933 57.633 2
37.9975 55.2572 2
36.3186 55.384 3.98797
34.4873 58.5304 3.98621
33.3456 61.5209 0.0174151
28.6805 62.2062 0.0170147
31.0659 61.2259 0.0170153
32.3563 59.754 2
29.4024 60.295 2
30.2995 57.8262 3.98581
28.023 58.3814 2
26.9485 56.8314 3.97916
27.5675 59.6008 0.0183547
25.3785 58.6 2
23.8426 56.802 3.97185
21.3356 57.3983 3.97304
21.9929 59.6267 3.97882
22.7571 58.2451 2
22.7348 62.0259 3.98209
23.3997 60.357 2
23.7917 59.0873 0.0194097
25.0335 60.8771 0.0185093
24.4309 62.7757 2
23.6802 64.713 3.98519
26.2281 63.4825 0.0160714
25.5464 65.4954 2
24.8072 67.5936 3.9882
27.4623 66.1848 0.0144801
26.835 68.333 2
26.164 70.6042 3.99273
28.9055 68.944 0.0117878
28.3686 71.2638 2
27.7943 73.7221 4
30.6139 71.7783 0.00746053
30.1841 74.2794 2
32.6054 74.6784 0
29.8106 7.99239 3.98485
31.2523 5.33157 3.98866
31.788 7.41839 2
32.98 2.70103 3.99313
33.347 4.92389 2
33.7237 6.97906 0.0140202
35.0474 0.080333 4
35.2444 2.46255 2
35.435 4.68527 0.0105083
37.5 0 2
37.5143 2.38676 0.00671169
39.9526 0.0806499 0
40.8296 35.8078 3.89139
42.5931 35.7139 2
44.3855 35.561 0.168195
28.5429 10.6924 3.98239
39.1635 34.1232 3.88773
40.7282 34.2104 2
42.282 34.1157 0.222689
48.1457 34.3063 0.0253624
44.9002 33.0409 0.118953
42.4915 32.3384 0.158559
40.84 32.647 0.226517
46.1942 31.5553 2
43.5631 31.2383 2
41.0732 31.1615 2
39.2849 32.309 2
44.3408 29.762 3.94112
41.8577 29.8364 3.89196
39.3692 30.4584 3.85178
37.5066 32.1934 3.80729
34.0931 12.9347 3.9799
35.6931 11.775 2
37.3114 10.6303 0.017955
31.186 11.9847 3.98122
33.0983 11.2158 2
34.7543 10.3792 0.0178415
30.482 10.0162 2
32.3775 9.36857 0.0165807
47.6564 29.5256 0.00973439
47.0481 25.1861 0.0166568
36.5827 12.9331 0.0198813
44.2811 21.3629 0.024115
41.7481 17.8521 0.0223106
38.6817 14.8108 0.0215087
35.7723 14.7605 2
45.4625 27.6584 2
38.6799 17.6036 2
41.3356 20.7331 2
43.7711 24.0816 2
33.6083 15.8781 3.97861
43.0013 26.5 3.99703
40.9001 23.3106 4.00458
38.4175 20.3583 3.97654
35.8485 17.5154 3.97759
39.1851 37.4837 3.93251
40.8668 37.4802 2
42.7146 37.4876 0.199506
43.7255 54.445 0.00287266
43.6446 50.4796 -0.00183992
40.8287 39.167 0.11019
41.8386 45.1696 0.110442
41.9115 47.6471 0.0321711
39.3474 44.5432 0.148914
39.1569 40.8809 0.111752
37.4964 42.815 0.192617
41.8683 53.0181 2
39.1569 39.1641 2
37.4959 40.9096 2
40.891 49.7115 2
35.7213 42.698 2
39.8294 46.0911 2
37.4919 44.7791 2
39.8009 51.9219 3.99637
37.4948 39.1827 3.94252
35.8344 40.8914 3.88711
34.1632 42.3549 3.77476
35.6299 44.5481 3.84974
38.681 48.7179 3.98082
37.4865 46.3773 3.87664
40.4137 54.9468 0.00906987
38.7269 53.8687 2
36.7244 53.2117 4.00352
35.3637 60.9182 0.0177275
36.933 57.6313 0.0194941
37.9973 55.2564 0.012721
34.487 58.5309 2
36.319 55.3868 2
33.2309 55.5149 3.99113
32.3564 59.7533 0.0140719
29.4024 60.2944 0.0178346
30.2995 57.827 2
28.6982 55.3212 3.97916
28.023 58.3809 0.0139032
26.9481 56.8319 2
25.3193 55.1397 3.97406
21.8168 55.3448 3.96866
25.3785 58.5993 0.0205528
23.8421 56.804 2
20.2211 57.0267 3.97817
20.6453 58.7824 3.97656
21.3352 57.4 2
21.1655 61.1744 3.98045
21.9929 59.6279 2
22.7572 58.2437 0.026264
21.8937 63.8408 3.9845
22.7349 62.0268 2
23.3996 60.3562 0.0202542
24.4307 62.7749 0.0166169
23.6803 64.7137 2
22.8353 66.7371 3.98812
25.5463 65.4948 0.0145266
24.8072 67.5942 2
24.0083 69.8054 3.99278
26.835 68.3324 0.0117512
26.1638 70.6045 2
25.446 73.0099 4
28.3689 71.2635 0.00736087
27.7943 73.7222 2
30.1842 74.2788 0
27.8204 8.65216 3.98453
29.1543 5.87734 3.98811
29.8104 7.99166 2
30.7252 3.09823 3.99287
31.2521 5.33107 2
31.7881 7.419 0.0145007
32.6053 0.320823 4
32.9799 2.70071 2
33.3471 4.92444 0.0107838
35.0474 0.0802903 2
35.2444 2.46284 0.0066923
37.5 0 0
39.1805 35.8133 3.92236
40.8201 35.8121 2
42.5967 35.7108 0.204718
28.5428 10.6918 2
26.6216 11.3877 3.9826
29.2248 12.6414 3.982
37.5016 34.0862 3.90394
39.1494 34.1342 2
40.7382 34.204 0.143314
46.172 31.5644 0.0501602
43.5495 31.2554 0.117498
41.0519 31.1856 0.159836
39.2912 32.3024 0.211002
44.3595 29.7459 2
41.8754 29.8172 2
39.3834 30.4391 2
37.509 32.2048 2
42.3398 28.4061 3.92364
39.8567 28.9314 3.89058
37.5235 30.2332 3.83851
35.7267 32.3006 3.78874
31.9148 14.4804 3.9803
34.0933 12.9342 2
35.6931 11.7759 0.0190858
31.1862 11.9841 2
33.0981 11.2163 0.0190771
30.4822 10.0168 0.017209
45.4602 27.6598 -0.00172786
43.7698 24.0891 -0.00242547
35.7726 14.7608 0.0212304
41.3371 20.7414 0.0212692
38.6816 17.6023 0.0227017
33.6076 15.8779 2
35.8468 17.5158 2
43.0068 26.4979 2
38.4183 20.353 2
40.8988 23.2995 2
33.5506 17.3891 3.9805
40.3855 25.6517 4.00336
38.0705 22.8984 3.99453
35.5816 20.0896 3.9792
37.4953 37.4948 3.95403
39.1707 37.484 2
40.8746 37.481 0.0999886
41.8659 53.0185 0.00624418
40.8789 49.7018 -0.000608676
39.1714 39.1663 0.0763331
39.8049 46.0671 0.128291
37.4949 44.7669 0.16125
37.4961 40.9227 0.09455
35.7156 42.704 0.21027
39.8092 51.922 2
37.4949 39.1795 2
35.8465 40.8813 2
38.682 48.7501 2
34.1639 42.3566 2
35.6154 44.5671 2
37.4867 46.401 2
37.6396 51.0035 4.00921
35.8212 39.1837 3.92389
34.2651 40.8053 3.85828
33.0622 42.0159 3.74117
33.9422 43.8092 3.83916
35.1487 46.0488 3.88273
36.8645 48.3561 3.95149
38.7262 53.8698 0.00414075
36.7246 53.2155 2
34.3666 52.4766 3.99404
34.4873 58.5304 0.0137929
36.3186 55.384 0.012027
33.2304 55.5154 2
30.5278 53.3723 3.9797
30.2995 57.8262 0.0141875
28.6977 55.3224 2
26.8969 53.432 3.9735
26.9485 56.8314 0.0208427
25.3188 55.1429 2
23.5899 53.4734 3.96635
20.4856 53.2139 3.96151
19.9372 55.829 3.97169
21.8157 55.3464 2
23.8426 56.802 0.0281453
19.4388 57.8878 3.97581
20.2205 57.0282 2
19.7058 60.206 3.97803
20.6451 58.7834 2
21.3356 57.3983 0.026958
20.2063 62.8613 3.9827
21.1655 61.1756 2
21.9929 59.6267 0.0211792
20.9368 65.766 3.98781
21.8938 63.8416 2
22.7348 62.0259 0.0179091
23.6802 64.713 0.0148124
22.8354 66.7377 2
21.9108 68.8724 3.99269
24.8072 67.5936 0.0117968
24.0079 69.8056 2
23.1494 72.1454 4
26.164 70.6042 0.00726563
25.446 73.0099 2
27.7943 73.7221 0
25.8596 9.38051 3.98411
27.069 6.54149 3.98748
27.8202 8.65154 2
28.4873 3.64423 3.99259
29.154 5.87675 2
29.8106 7.99239 0.0151525
30.1841 0.720592 4
30.725 3.09795 2
31.2523 5.33157 0.0113378
32.6053 0.320817 2
32.98 2.70103 0.00686749
35.0474 0.080333 0
37.4972 35.8122 3.94276
39.1628 35.8162 2
40.8296 35.8078 0.108611
24.7763 12.0707 3.9829
23.751 14.3567 3.982
28.5429 10.6924 0.0176131
26.6216 11.3872 2
29.2251 12.6408 2
27.291 13.3739 3.98244
29.7802 14.2013 3.9815
35.8436 34.1177 3.88778
37.4995 34.0991 2
39.1635 34.1232 0.112266
37.5066 32.1934 0.192709
44.3408 29.762 0.0588764
41.8577 29.8364 0.108037
39.3692 30.4584 0.148218
42.3617 28.3835 2
39.8713 28.9045 2
37.522 30.2237 2
35.7345 32.3068 2
40.043 27.5628 3.91915
37.5319 28.6211 3.88472
35.6607 30.4639 3.85315
34.1829 32.6472 3.77425
30.9263 16.8377 3.98088
31.9148 14.48 2
34.0931 12.9347 0.0200958
31.186 11.9847 0.0187763
43.0013 26.5 0.0029733
40.9001 23.3106 -0.00458313
33.6083 15.8781 0.0213901
35.8485 17.5154 0.0224052
38.4175 20.3583 0.0234611
33.5493 17.3897 2
35.5833 20.0905 2
40.3871 25.6413 2
38.067 22.8937 2
32.8617 19.797 3.98125
37.7981 25.211 4.00982
35.1962 22.6536 3.98866
35.8113 37.5006 3.93503
37.4945 37.4936 2
39.1851 37.4837 0.0674929
39.8009 51.9219 0.00362961
38.681 48.7179 0.0191809
37.4948 39.1827 0.0574841
37.4865 46.3773 0.123362
35.6299 44.5481 0.15026
35.8344 40.8914 0.112894
34.1632 42.3549 0.22524
37.6483 51.0165 2
35.8367 39.1802 2
34.2736 40.7991 2
36.8568 48.3786 2
33.0516 42.0259 2
33.9241 43.8311 2
35.1343 46.0703 2
35.4808 50.1363 4.00246
34.1737 39.1851 3.8935
32.711 40.8848 3.77949
32.5059 42.6649 3.84586
33.1478 45.1636 3.88988
34.2748 47.4241 3.92887
36.7244 53.2117 -0.00352151
34.3671 52.4821 2
32.0231 51.1822 4.00201
33.2309 55.5149 0.0088736
30.5273 53.3769 2
28.4466 51.5864 3.97767
28.6982 55.3212 0.0208381
26.896 53.4346 2
25.1021 51.7368 3.96277
25.3193 55.1397 0.0259364
23.5889 53.4757 2
21.9924 51.7944 3.96176
19.2237 51.6288 3.96498
18.9333 54.3016 3.96445
20.4846 53.2133 2
18.4495 56.72 3.97578
19.9363 55.8305 2
21.8168 55.3448 0.0313403
18.3688 59.1091 3.9753
19.4383 57.8888 2
20.2211 57.0267 0.021834
18.6179 61.767 3.98013
19.7058 60.2074 2
20.6453 58.7824 0.0234393
19.1258 64.6765 3.98688
20.2064 62.8625 2
21.1655 61.1744 0.0195473
19.8848 67.809 3.99258
20.9368 65.7668 2
21.8937 63.8408 0.0155035
22.8353 66.7371 0.0118824
21.9104 68.8725 2
20.9142 71.1327 4
24.0083 69.8054 0.00721566
23.1494 72.1455 2
25.446 73.0099 0
23.0957 12.7856 3.98254
23.972 10.1673 3.9839
25.0227 7.31186 3.98697
25.8595 9.37996 2
26.2789 4.32855 3.99224
27.0687 6.541 2
27.8204 8.65216 0.0154676
27.7943 1.27781 4
28.487 3.64395 2
29.1543 5.87734 0.0118924
30.1841 0.720551 2
30.7252 3.09823 0.0071331
32.6053 0.320823 0
35.8215 35.8201 3.92493
37.4954 35.8145 2
39.1805 35.8133 0.0776449
24.7765 12.0704 2
23.7516 14.3564 2
22.4799 15.0336 3.98152
25.3571 13.9057 3.98194
24.0246 15.6195 3.98107
26.6216 11.3877 0.0173963
29.2248 12.6414 0.0180011
27.2914 13.3735 2
29.7803 14.2009 2
28.3564 15.9754 3.98187
34.2738 34.2036 3.85793
35.8542 34.1285 2
37.5016 34.0862 0.0960558
35.7267 32.3006 0.211257
37.5235 30.2332 0.161491
42.3398 28.4061 0.0763649
39.8567 28.9314 0.109419
40.0541 27.5441 2
37.5358 28.5964 2
35.6397 30.4385 2
34.1778 32.6461 2
37.6152 27.2593 3.93352
35.1923 28.9365 3.88768
33.9591 31.1908 3.83942
33.0884 32.9849 3.74174
30.2078 19.3411 3.98511
30.9257 16.8381 2
31.9148 14.4804 0.0196953
40.3855 25.6517 -0.00335585
38.0705 22.8984 0.00546898
33.5506 17.3891 0.0195028
35.5816 20.0896 0.0208021
32.8623 19.7988 2
35.1951 22.6519 2
37.7828 25.2049 2
32.3101 22.4171 3.99146
34.9955 25.1997 4.0049
34.1218 37.5022 3.90159
35.8256 37.499 2
37.4953 37.4948 0.0459678
37.6396 51.0035 -0.0092053
36.8645 48.3561 0.048509
35.8212 39.1837 0.0761074
35.1487 46.0488 0.117266
33.9422 43.8092 0.160837
34.2651 40.8053 0.14172
33.0622 42.0159 0.258826
35.4783 50.1524 2
34.1872 39.1805 2
32.7166 40.8855 2
34.2686 47.4591 2
32.4869 42.6835 2
33.1328 45.1838 2
33.2705 49.1281 4.00176
32.3936 39.2851 3.79744
31.3544 41.1541 3.83598
31.4492 43.7465 3.88794
32.2775 46.346 3.92736
34.3666 52.4766 0.00596012
32.0214 51.1905 2
29.8914 49.7019 3.99017
30.5278 53.3723 0.0203028
28.4447 51.5864 2
26.5411 49.9739 3.97118
26.8969 53.432 0.0264976
25.1002 51.7351 2
23.3763 50.1831 3.9704
23.5899 53.4734 0.0336468
21.9913 51.7932 2
20.4932 50.3084 3.96801
18.0128 50.325 3.96893
17.8521 52.7865 3.96379
19.2224 51.6283 2
17.4439 55.3346 3.96751
18.9322 54.3014 2
20.4856 53.2139 0.0384917
17.1362 57.8709 3.97498
18.4487 56.721 2
19.9372 55.829 0.0283063
17.1363 60.5481 3.977
18.3686 59.1103 2
19.4388 57.8878 0.0241856
17.4066 63.4683 3.9843
18.6179 61.7683 2
19.7058 60.206 0.0219656
17.9411 66.6174 3.99232
19.1258 64.6775 2
20.2063 62.8613 0.0172994
18.75 69.9759 4
19.8844 67.8091 2
20.9368 65.766 0.0121868
21.9108 68.8724 0.00731348
20.9142 71.1327 2
23.1494 72.1454 0
21.5867 13.6061 3.98199
22.19 11.0267 3.98347
23.0961 12.7855 2
23.0405 8.17746 3.98664
23.972 10.1669 2
24.1165 5.1434 3.99195
25.0224 7.31138 2
25.8596 9.38051 0.0158923
25.446 1.99014 4
26.2786 4.32835 2
27.069 6.54149 0.0125192
27.7943 1.27778 2
28.4873 3.64423 0.0074101
30.1841 0.720592 0
34.1672 35.8201 3.8914
35.8353 35.8205 2
37.4972 35.8122 0.0572435
21.3053 15.8294 3.98155
24.7763 12.0707 0.0171017
23.751 14.3567 0.0179992
25.3576 13.9055 2
22.4805 15.0335 2
24.0252 15.6195 2
23.2641 16.2516 3.9805
25.38 16.0879 3.98157
27.291 13.3739 0.017564
29.7802 14.2013 0.0185008
28.3567 15.9755 2
27.4399 18.7984 3.98401
32.7312 34.1158 3.77745
34.2872 34.2108 2
35.8436 34.1177 0.112218
34.1829 32.6472 0.225753
35.6607 30.4639 0.146847
37.5319 28.6211 0.115281
40.043 27.5628 0.080849
37.616 27.2292 2
33.0732 32.9759 2
35.1795 28.915 2
33.9416 31.1624 2
35.0724 27.3874 3.9361
33.1722 29.8417 3.88599
32.5268 32.3297 3.83677
29.5802 21.9354 3.99718
30.2083 19.3436 2
30.9263 16.8377 0.0191182
37.7981 25.211 -0.00981647
35.1962 22.6536 0.0113439
32.8617 19.797 0.0187522
32.3082 22.4163 2
35.0092 25.1931 2
31.7314 25.6383 4.00223
32.2734 37.5041 3.80274
34.133 37.5033 2
35.8113 37.5006 0.0649736
35.4808 50.1363 -0.00246307
34.2748 47.4241 0.0711301
34.1737 39.1851 0.106497
33.1478 45.1636 0.110123
32.5059 42.6649 0.154141
32.711 40.8848 0.220513
33.2648 49.1211 2
32.3989 39.2813 2
31.3312 41.1682 2
32.2545 46.3705 2
31.4298 43.7627 2
31.1934 47.9587 3.99296
30.6058 39.4358 3.83333
30.0915 41.9577 3.88208
30.4777 44.9341 3.94114
32.0231 51.1822 -0.00201136
29.888 49.7013 2
27.9272 48.1684 3.97109
28.4466 51.5864 0.0223287
26.5394 49.9725 2
24.7001 48.4577 3.97352
25.1021 51.7368 0.0372253
23.3759 50.1813 2
21.7142 48.7797 3.97093
21.9924 51.7944 0.0382388
20.4919 50.3075 2
19.0738 49.086 3.97241
16.919 49.3263 3.97213
16.7912 51.4022 3.96643
18.0131 50.3243 2
16.4012 53.865 3.96534
17.8509 52.7863 2
19.2237 51.6288 0.0350223
15.9806 56.4712 3.96993
17.4432 55.3353 2
18.9333 54.3016 0.0355489
15.7505 59.2083 3.97591
17.1359 57.8722 2
18.4495 56.72 0.0242177
15.7878 62.1372 3.98085
17.1364 60.5496 2
18.3688 59.1091 0.0247017
16.0881 65.3001 3.9916
17.4065 63.4694 2
18.6179 61.767 0.0198709
16.6661 68.6801 4
17.9406 66.6174 2
19.1258 64.6765 0.0131215
18.75 69.9759 2
19.8848 67.809 0.0074153
20.9142 71.1327 0
20.219 14.5953 3.9811
21.5872 13.6061 2
20.5293 11.9968 3.98286
21.1434 9.14737 3.98639
22.1902 11.0265 2
23.0957 12.7856 0.017456
22.0155 6.08248 3.99178
23.0403 8.17703 2
23.972 10.1673 0.0161029
23.1494 2.85457 4
24.116 5.14325 2
25.0227 7.31186 0.0130303
25.446 1.99012 2
26.2789 4.32855 0.00775605
27.7943 1.27781 0
32.3982 35.7179 3.79305
34.1787 35.8264 2
35.8215 35.8201 0.0750744
21.306 15.8292 2
20.3035 16.9633 3.98191
22.0973 16.6358 3.97931
25.3571 13.9057 0.0180617
22.4799 15.0336 0.0184774
24.0246 15.6195 0.0189309
25.3807 16.0878 2
23.2648 16.2515 2
24.2044 18.4532 3.97834
27.0197 21.4587 3.99023
28.3564 15.9754 0.0181348
27.4409 18.7987 2
31.387 33.8522 3.83767
32.7397 34.1154 2
34.2738 34.2036 0.142071
33.0884 32.9849 0.258261
33.9591 31.1908 0.160584
35.1923 28.9365 0.112324
37.6152 27.2593 0.0664804
35.055 27.3538 2
32.4879 32.3119 2
33.1554 29.8136 2
32.5923 28.1154 3.95042
31.454 31.2618 3.88821
28.8347 24.4066 3.98177
29.5772 21.9394 2
30.2078 19.3411 0.0148945
34.9955 25.1997 -0.00490398
32.3101 22.4171 0.00853826
31.7377 25.6228 2
29.702 27.3204 3.9672
30.3124 37.4951 3.83935
32.2736 37.5014 2
34.1218 37.5022 0.0984108
33.2705 49.1281 -0.00175688
32.2775 46.346 0.0726378
32.3936 39.2851 0.202559
31.4492 43.7465 0.112057
31.3544 41.1541 0.164022
31.1899 47.9617 2
30.5842 39.4486 2
30.0716 41.9713 2
30.4549 44.951 2
29.2573 46.5599 4.00127
29.1892 39.8536 3.89056
28.8063 43.1585 3.94392
29.8914 49.7019 0.00982842
27.923 48.1648 2
26.0242 46.6413 3.97528
26.5411 49.9739 0.0288245
24.6997 48.4553 2
22.8842 47.0646 3.97518
23.3763 50.1831 0.0296012
21.7139 48.7785 2
20.0404 47.6105 3.97719
20.4932 50.3084 0.0319893
19.0746 49.0851 2
17.7063 48.1729 3.9758
16.1646 48.6783 3.9744
16.9199 49.3257 2
15.8666 50.1653 3.96933
15.3874 52.4114 3.96654
16.7903 51.4019 2
18.0128 50.325 0.0310727
14.8758 54.9713 3.96648
16.4007 53.865 2
17.8521 52.7865 0.0362086
14.4612 57.7365 3.97316
15.9801 56.4722 2
17.4439 55.3346 0.0324923
14.2664 60.6907 3.97947
15.7504 59.2098 2
17.1362 57.8709 0.0250218
14.3328 63.859 3.98969
15.7876 62.1384 2
17.1363 60.5481 0.0229981
14.6715 67.2507 4
16.0873 65.2998 2
17.4066 63.4683 0.0156992
16.6661 68.6801 2
17.9411 66.6174 0.00768085
18.75 69.9759 0
18.9332 15.7825 3.98062
20.2195 14.5952 2
18.9791 13.1079 3.9819
21.5867 13.6061 0.0180132
20.5297 11.9967 2
19.3426 10.2353 3.98599
19.9901 7.14715 3.99172
21.1433 9.14708 2
22.19 11.0267 0.016532
20.9142 3.86727 4
22.015 6.08249 2
23.0405 8.17746 0.0133613
23.1494 2.85451 2
24.1165 5.1434 0.00804653
25.446 1.99014 0
30.6224 35.5742 3.83639
32.4053 35.7192 2
34.1672 35.8201 0.108595
21.3053 15.8294 0.0184466
22.098 16.6358 2
20.3041 16.9627 2
19.246 18.4114 3.97805
21.7823 17.8532 3.98007
25.38 16.0879 0.0184258
23.2641 16.2516 0.0195045
24.2053 18.4531 2
22.283 19.8984 3.97527
24.5993 21.3283 3.98403
26.4448 23.7249 3.96983
27.019 21.4585 2
27.4399 18.7984 0.0159881
30.1196 33.0478 3.88619
31.36 33.8212 2
32.7312 34.1158 0.222546
32.5268 32.3297 0.163229
33.1722 29.8417 0.114009
35.0724 27.3874 0.0639033
32.5848 28.1023 2
31.4488 31.241 2
30.189 29.5552 3.96003
27.9428 26.5467 3.97848
28.8356 24.4165 2
29.5802 21.9354 0.00282137
31.7314 25.6383 -0.00223321
29.7002 27.2846 2
28.8522 37.5133 3.8986
30.3046 37.499 2
32.2734 37.5041 0.197265
31.1934 47.9587 0.00704336
30.4777 44.9341 0.0588603
30.6058 39.4358 0.166674
30.0915 41.9577 0.117915
29.2536 46.5751 2
29.1671 39.8726 2
28.7812 43.1756 2
27.3885 44.8547 3.98334
26.9609 40.5842 3.96525
27.9272 48.1684 0.0289063
26.0202 46.6433 2
24.1094 45.1975 3.97706
24.7001 48.4577 0.0264768
22.8842 47.063 2
21.0124 45.8833 3.97884
21.7142 48.7797 0.029071
20.0424 47.6094 2
18.374 46.731 3.97791
19.0738 49.086 0.0275894
17.7067 48.1723 2
16.3647 47.7082 3.97555
16.1652 48.6779 2
15.21 49.0108 3.97198
16.919 49.3263 0.0278684
15.8672 50.1649 2
14.5001 50.9809 3.9682
13.8366 53.43 3.96804
15.3878 52.4113 2
16.7912 51.4022 0.0335746
13.2588 56.1626 3.96962
14.8756 54.9715 2
16.4012 53.865 0.0346601
12.8494 59.1241 3.97821
14.4611 57.7376 2
15.9806 56.4712 0.0300663
12.6786 62.3012 3.98736
14.2662 60.6918 2
15.7505 59.2083 0.0240898
12.7746 65.6939 4
14.3318 63.8584 2
15.7878 62.1372 0.0191471
14.6714 67.2507 2
16.0881 65.3001 0.00840122
16.6661 68.6801 0
17.6689 17.1588 3.97785
18.9336 15.7822 2
17.511 14.3726 3.98069
20.219 14.5953 0.018901
18.9796 13.1076 2
17.6382 11.4544 3.98501
20.5293 11.9968 0.0171351
19.3427 10.2351 2
18.0504 8.33992 3.99169
18.75 5.0241 4
19.9895 7.14739 2
21.1434 9.14737 0.0136063
20.9142 3.86727 2
22.0155 6.08248 0.00822418
23.1494 2.85457 0
29.2091 35.1291 3.89471
30.6028 35.5586 2
32.3982 35.7179 0.206947
22.0973 16.6358 0.020693
20.3035 16.9633 0.018087
21.7829 17.8529 2
19.2465 18.4106 2
17.9864 19.9448 3.97401
20.8802 19.3839 3.97784
24.2044 18.4532 0.0216579
22.2835 19.8981 2
24.5992 21.329 2
22.3692 21.7256 3.9778
24.718 23.1726 3.97304
25.5245 25.9541 3.9695
26.4484 23.7248 2
27.0197 21.4587 0.00976635
28.4925 32.3445 3.9398
30.0951 33.0399 2
31.387 33.8522 0.16233
31.454 31.2618 0.111785
32.5923 28.1154 0.0495828
30.1733 29.5463 2
27.1148 29.1368 4.00363
27.9395 26.5493 2
28.8347 24.4066 0.0182285
29.702 27.3204 0.032805
27.0832 37.3678 3.94789
28.8202 37.5033 2
30.3124 37.4951 0.16065
29.2573 46.5599 -0.00127276
28.8063 43.1585 0.0560818
29.1892 39.8536 0.109443
27.3826 44.8713 2
26.9473 40.601 2
25.407 43.1644 3.98083
24.2109 39.4377 3.97896
26.0242 46.6413 0.0247177
24.1031 45.1966 2
22.0041 43.938 3.97908
22.8842 47.0646 0.0248177
21.0125 45.8823 2
19.0559 44.9619 3.97839
20.0404 47.6105 0.0228069
18.3757 46.7302 2
16.6699 46.2071 3.97605
17.7063 48.1729 0.0242042
16.3651 47.7078 2
14.9489 47.6653 3.97314
16.1646 48.6783 0.0255997
15.2107 49.0104 2
13.7963 49.5426 3.96957
15.8666 50.1653 0.0306739
14.5008 50.9807 2
12.9019 51.871 3.96859
12.1468 54.5228 3.97034
13.8369 53.4299 2
15.3874 52.4114 0.0334609
11.5355 57.4555 3.97521
13.2588 56.1633 2
14.8758 54.9713 0.033518
11.1334 60.6271 3.98567
12.8493 59.1249 2
14.4612 57.7365 0.0268443
10.9835 64.0165 4
12.6774 62.3 2
14.2664 60.6907 0.0205329
12.7745 65.694 2
14.3328 63.859 0.0103102
14.6715 67.2507 0
16.4038 18.6542 3.97534
17.6692 17.1581 2
16.1024 15.7823 3.9797
18.9332 15.7825 0.0193758
17.5114 14.372 2
16.02 12.8082 3.9831
18.9791 13.1079 0.018102
17.6384 11.454 2
16.2016 9.6628 3.99151
19.3426 10.2353 0.0140148
18.0498 8.34037 2
16.6661 6.31991 4
18.75 5.02404 2
19.9901 7.14715 0.00827753
20.9142 3.86727 0
27.606 34.7832 3.94005
29.1838 35.1125 2
30.6224 35.5742 0.163606
16.693 21.3847 3.96647
21.7823 17.8532 0.0199279
19.246 18.4114 0.02195
20.8807 19.3833 2
17.9869 19.9438 2
19.7348 21.5801 3.97668
22.283 19.8984 0.0247288
24.5993 21.3283 0.0159707
22.3694 21.7255 2
24.7194 23.1719 2
22.8813 24.6068 3.97065
24.6569 28.5337 3.97526
25.5226 25.9527 2
26.4448 23.7249 0.0301664
26.3361 31.7121 3.98859
28.4669 32.3277 2
30.1196 33.0478 0.113809
30.189 29.5552 0.0399698
27.1273 29.1292 2
27.9428 26.5467 0.0215201
24.9096 36.8582 3.9891
27.0621 37.365 2
28.8522 37.5133 0.101397
27.3885 44.8547 0.0166607
26.9609 40.5842 0.0347538
25.3942 43.1702 2
24.1987 39.4373 2
23.1098 41.7974 3.98006
21.929 38.5108 3.97763
24.1094 45.1975 0.0229398
22.0038 43.9387 2
19.8495 42.879 3.97798
21.0124 45.8833 0.0211573
19.0565 44.9613 2
17.0187 44.3744 3.97667
18.374 46.731 0.0220887
16.6705 46.2067 2
14.8807 46.0857 3.97374
16.3647 47.7082 0.0244519
14.9494 47.665 2
13.3061 48.0052 3.97033
15.21 49.0108 0.0280195
13.797 49.5424 2
12.1202 50.2505 3.96895
14.5001 50.9809 0.0318044
12.9023 51.8709 2
11.1417 52.8341 3.97053
10.3268 55.7082 3.97433
12.1472 54.5229 2
13.8366 53.43 0.0319619
9.70043 58.8491 3.98334
11.5355 57.4559 2
13.2588 56.1626 0.0303794
9.30605 62.2254 4
11.132 60.6253 2
12.8494 59.1241 0.0217914
10.9835 64.0165 2
12.6786 62.3012 0.0126426
12.7746 65.6939 0
15.1536 20.1918 3.96912
16.4041 18.6533 2
14.7494 17.3059 3.97699
17.6689 17.1588 0.0221461
16.1028 15.7813 2
14.4828 14.2909 3.98156
17.511 14.3726 0.0193102
16.0202 12.8076 2
14.4445 11.1139 3.99076
17.6382 11.4544 0.0149879
16.201 9.66339 2
14.6715 7.74927 4
18.0504 8.33992 0.00830878
16.6661 6.31988 2
18.75 5.0241 0
25.5619 34.2707 3.99107
27.585 34.7749 2
29.2091 35.1291 0.105287
17.8727 22.3316 3.97893
15.5397 22.9243 3.9703
16.6934 21.3841 2
20.8802 19.3839 0.0221629
17.9864 19.9448 0.025993
19.7351 21.5795 2
19.7006 24.3868 3.96936
22.3692 21.7256 0.0221972
24.718 23.1726 0.0269615
22.8818 24.6064 2
22.0251 27.8329 3.97132
23.8967 31.1965 3.97523
24.6642 28.5342 2
25.5245 25.9541 0.0305034
26.3256 31.6969 2
28.4925 32.3445 0.0602039
27.1148 29.1368 -0.00363278
22.6601 36.2833 3.98076
24.8894 36.8551 2
27.0832 37.3678 0.0521138
25.407 43.1644 0.0191701
24.2109 39.4377 0.0210355
23.104 41.796 2
21.923 38.5101 2
20.8492 40.6384 3.97661
20.2519 37.7924 3.97761
22.0041 43.938 0.0209237
19.8502 42.8791 2
17.4574 42.0959 3.97734
19.0559 44.9619 0.0216098
17.02 44.374 2
14.901 44.196 3.97381
16.6699 46.2071 0.0239533
14.8812 46.0855 2
12.9837 46.2922 3.97069
14.9489 47.6653 0.0268559
13.3065 48.0051 2
11.491 48.548 3.96899
13.7963 49.5426 0.0304261
12.1205 50.2504 2
10.267 51.0789 3.97023
12.9019 51.871 0.031411
11.1421 52.834 2
9.23533 53.888 3.97461
8.38422 56.9816 3.98242
10.3271 55.708 2
12.1468 54.5228 0.0296584
7.74927 60.3285 4
9.69918 58.8464 2
11.5355 57.4555 0.0247948
9.306 62.2255 2
11.1334 60.6271 0.0143258
10.9835 64.0165 0
13.9683 21.7578 3.96841
15.154 20.1909 2
13.453 18.905 3.97224
16.4038 18.6542 0.0246553
14.7497 17.3046 2
13.0286 15.8844 3.98023
16.1024 15.7823 0.0203018
14.4829 14.2898 2
12.7821 12.6873 3.98916
16.02 12.8082 0.016903
14.4439 11.1146 2
12.7746 9.30605 4
16.2016 9.6628 0.00848803
14.6715 7.74924 2
16.6661 6.31991 0
23.2338 33.8088 3.98015
25.5412 34.2668 2
27.606 34.7832 0.0599464
17.6596 24.0476 3.97074
17.873 22.331 2
14.3295 24.4532 3.96989
15.5403 22.924 2
16.693 21.3847 0.0335263
19.1252 27.211 3.97061
19.7348 21.5801 0.0233167
19.7006 24.3863 2
21.3051 30.6729 3.97304
22.8813 24.6068 0.0293543
22.0284 27.8331 2
23.8848 31.1973 2
24.6569 28.5337 0.0247358
26.3361 31.7121 0.0114137
20.3787 35.9316 3.97707
22.6565 36.28 2
24.9096 36.8582 0.0109039
23.1098 41.7974 0.0199425
21.929 38.5108 0.0223709
20.8473 40.639 2
20.2523 37.7928 2
18.1932 39.0008 3.97777
19.8495 42.879 0.0220172
17.4583 42.0955 2
14.8805 41.9145 3.97389
17.0187 44.3744 0.0233329
14.9018 44.1958 2
12.7359 44.3883 3.97089
14.8807 46.0857 0.0262581
12.9839 46.2921 2
10.9926 46.7321 3.9687
13.3061 48.0052 0.0296709
11.4912 48.548 2
9.53008 49.2393 3.96976
12.1202 50.2505 0.0310499
10.2674 51.0788 2
8.2681 52.0018 3.97432
11.1417 52.8341 0.0294732
9.2357 53.8875 2
7.19313 55.0322 3.98323
6.31991 58.3339 4
8.38339 56.9785 2
10.3268 55.7082 0.0256689
7.74924 60.3285 2
9.70043 58.8491 0.0166617
9.30605 62.2254 0
13.2402 25.3644 3.97113
12.8345 23.2838 3.96938
13.9689 21.7574 2
12.2408 20.5548 3.97026
15.1536 20.1918 0.0308767
13.4534 18.9038 2
11.6596 17.5663 3.97769
14.7494 17.3059 0.0230058
13.0288 15.8831 2
11.2197 14.3726 3.9871
14.4828 14.2909 0.0184376
12.7812 12.6882 2
10.9835 10.9835 4
14.4445 11.1139 0.00923812
12.7745 9.306 2
14.6715 7.74927 0
20.74 33.4038 3.97528
23.2391 33.8104 2
25.5619 34.2707 0.00892631
15.9575 26.4058 3.97095
17.6598 24.0472 2
17.8727 22.3316 0.0210713
14.3298 24.453 2
15.5397 22.9243 0.0296987
18.482 30.1798 3.97375
19.1244 27.2109 2
19.7006 24.3868 0.0306426
21.3126 30.6731 2
22.0251 27.8329 0.0286833
23.8967 31.1965 0.0247654
17.8126 35.9665 3.97816
20.3757 35.9321 2
22.6601 36.2833 0.019236
20.8492 40.6384 0.0233926
20.2519 37.7924 0.0223895
18.1951 39.001 2
14.3976 39.1741 3.97492
17.4574 42.0959 0.0226585
14.8813 41.9144 2
12.4385 42.2734 3.9714
14.901 44.196 0.0261915
12.7362 44.3882 2
10.5731 44.8007 3.96877
12.9837 46.2922 0.0293072
10.9927 46.7321 2
8.91233 47.3187 3.96918
11.491 48.548 0.0310084
9.5303 49.2392 2
7.43505 50.0354 3.97368
10.267 51.0789 0.0297719
8.26843 52.0013 2
6.13372 53.0072 3.98383
9.23533 53.888 0.0253868
7.19259 55.0294 2
5.0241 56.25 4
6.31988 58.3339 2
8.38422 56.9816 0.017577
7.74927 60.3285 0
13.4913 26.8169 3.97053
11.9446 24.789 3.97037
13.2403 25.3642 2
11.1442 22.2378 3.97018
12.835 23.2835 2
13.9683 21.7578 0.0315949
12.2415 20.5542 2
10.3914 19.3216 3.97523
13.453 18.905 0.0277582
11.6599 17.5653 2
9.76077 16.1566 3.98489
13.0286 15.8844 0.0197688
11.2186 14.3739 2
9.30607 12.7746 4
12.7821 12.6873 0.0108377
10.9835 10.9835 2
12.7746 9.30605 0
17.9823 33.1161 3.97646
20.7387 33.4036 2
23.2338 33.8088 0.0198453
15.5644 29.6414 3.97267
15.9572 26.4057 2
17.6596 24.0476 0.0292561
14.3295 24.4532 0.03011
18.4823 30.18 2
19.1252 27.211 0.0293877
21.3051 30.6729 0.0269627
15.0074 36.0192 3.9753
17.8132 35.9667 2
20.3787 35.9316 0.0229301
12.6608 37.8283 3.97432
18.1932 39.0008 0.0222296
14.3981 39.174 2
11.9574 40.1382 3.97215
14.8805 41.9145 0.0261064
12.4388 42.2732 2
10.1786 42.776 3.96889
12.7359 44.3883 0.0291081
10.5731 44.8007 2
8.39018 45.3206 3.96876
10.9926 46.7321 0.0313049
8.91239 47.3186 2
6.72639 48.0006 3.97308
9.53008 49.2393 0.0302377
7.43524 50.0349 2
5.21057 50.9106 3.9837
8.2681 52.0018 0.0256794
6.13342 53.0052 2
3.86727 54.0858 4
7.19313 55.0322 0.0167707
5.02404 56.25 2
6.31991 58.3339 0
12.958 29.0354 3.97015
11.3772 26.4881 3.96904
13.4908 26.8167 2
10.202 23.9689 3.97055
11.9451 24.7888 2
13.2402 25.3644 0.0288665
9.2443 21.1399 3.97404
11.145 22.2374 2
12.8345 23.2838 0.0306179
12.2408 20.5548 0.0297364
10.3921 19.3212 2
8.41698 18.0283 3.98306
11.6596 17.5663 0.0223143
9.75968 16.1587 2
7.74928 14.6715 4
11.2197 14.3726 0.0128955
9.30602 12.7745 2
10.9835 10.9835 0
14.5674 32.8652 3.97425
17.9834 33.1163 2
20.74 33.4038 0.0247182
15.5647 29.6415 2
15.9575 26.4058 0.0290457
18.482 30.1798 0.0262491
12.9565 36.2091 3.97309
15.0089 36.0192 2
17.8126 35.9665 0.0218387
12.6615 37.8282 2
11.3067 38.3086 3.97251
14.3976 39.1741 0.0250758
11.9582 40.1381 2
9.76981 40.7527 3.9694
12.4385 42.2734 0.0286042
10.1789 42.7759 2
7.93947 43.2693 3.96851
10.5731 44.8007 0.0312282
8.39025 45.3205 2
6.13267 45.9057 3.97253
8.91233 47.3187 0.0308235
6.72641 48.0003 2
4.42219 48.7514 3.98316
7.43505 50.0354 0.0263232
5.21042 50.9095 2
2.85457 51.8506 4
6.13372 53.0072 0.0161748
3.86727 54.0858 2
5.0241 56.25 0
12.1045 31.2584 3.97127
10.7934 28.4157 3.96893
12.9584 29.0354 2
9.41666 25.7983 3.9699
11.3774 26.488 2
13.4913 26.8169 0.0294704
8.2309 23.0236 3.97415
10.2026 23.9687 2
11.9446 24.789 0.0296344
7.19931 19.9788 3.98263
9.24511 21.1399 2
11.1442 22.2378 0.0298236
10.3914 19.3216 0.0247699
8.41634 18.0312 2
6.31992 16.6661 4
9.76077 16.1566 0.0151098
7.74926 14.6714 2
9.30607 12.7746 0
12.136 34.2955 3.97342
14.5684 32.8653 2
17.9823 33.1161 0.0235367
15.5644 29.6414 0.0273325
10.8686 36.6106 3.97201
12.9574 36.209 2
15.0074 36.0192 0.024702
12.6608 37.8283 0.0256783
11.3073 38.3084 2
9.36293 38.8224 3.9699
11.9574 40.1382 0.0278506
9.77034 40.7526 2
7.55086 41.2107 3.96855
10.1786 42.776 0.0311099
7.93956 43.2692 2
5.64483 43.7686 3.9721
8.39018 45.3206 0.0312367
6.13274 45.9054 2
3.76786 46.5371 3.98256
6.72639 48.0006 0.0269248
4.42213 48.7509 2
1.99014 49.554 4
5.21057 50.9106 0.016303
2.85451 51.8506 2
3.86727 54.0858 0
10.9509 32.9201 3.97243
10.1108 30.3829 3.9691
12.1053 31.2584 2
8.72456 27.7317 3.96933
10.7936 28.4156 2
12.958 29.0354 0.0298453
7.35638 24.9823 3.9735
9.41693 25.7982 2
11.3772 26.4881 0.030958
6.11613 22.0023 3.98351
8.23151 23.0237 2
10.202 23.9689 0.02945
5.02411 18.75 4
7.19906 19.9813 2
9.2443 21.1399 0.0259568
8.41698 18.0283 0.0169381
6.3199 16.6661 2
7.74928 14.6715 0
10.4747 35.0001 3.97178
12.137 34.2955 2
14.5674 32.8652 0.0257513
9.03159 36.9843 3.97013
10.8697 36.6106 2
12.9565 36.2091 0.0269072
11.3067 38.3086 0.0274888
9.36347 38.8223 2
7.23127 39.1816 3.96892
9.76981 40.7527 0.0306
7.55108 41.2105 2
5.26033 41.6141 3.97157
7.93947 43.2693 0.0314869
5.64491 43.7683 2
3.24568 44.282 3.98219
6.13267 45.9057 0.0274698
3.76794 46.5368 2
1.27781 47.2057 4
4.42219 48.7514 0.0168442
1.99012 49.554 2
2.85457 51.8506 0
10.1123 33.8818 3.97209
9.39971 32.1549 3.96969
10.9514 32.9201 2
8.07357 29.6953 3.96911
10.1112 30.3828 2
12.1045 31.2584 0.0287251
6.60021 27.0082 3.97297
8.72459 27.7316 2
10.7934 28.4157 0.0310737
5.17149 24.0951 3.98363
7.35669 24.9824 2
9.41666 25.7983 0.0301007
3.86728 20.9142 4
6.11606 22.004 2
8.2309 23.0236 0.025846
5.02406 18.75 2
7.19931 19.9788 0.017367
6.31992 16.6661 0
8.85599 35.2792 3.97029
10.4753 35.0001 2
12.136 34.2955 0.0265846
7.0149 37.2055 3.9691
9.03175 36.9842 2
10.8686 36.6106 0.0279875
9.36293 38.8224 0.0300994
7.23144 39.1815 2
4.98818 39.4673 3.97154
7.55086 41.2107 0.0314484
5.26054 41.6138 2
2.85628 42.0023 3.98185
5.64483 43.7686 0.0278959
3.24579 44.2819 2
0.720592 44.8159 4
3.76786 46.5371 0.017444
1.27778 47.2057 2
1.99014 49.554 0
8.89333 33.6978 3.97023
10.1128 33.8818 2
7.51109 31.6089 3.96925
9.39998 32.1548 2
10.9509 32.9201 0.0275696
5.94539 29.0692 3.97274
8.07349 29.6952 2
10.1108 30.3829 0.0309012
4.35927 26.2475 3.98307
6.60027 27.0083 2
8.72456 27.7317 0.0306703
2.85458 23.1494 4
5.17148 24.0958 2
7.35638 24.9823 0.0265035
3.86728 20.9142 2
6.11613 22.0023 0.0164859
5.02411 18.75 0
6.96505 35.3057 3.96922
8.85643 35.2792 2
10.4747 35.0001 0.0282204
4.83822 37.3396 3.97207
7.01498 37.2055 2
9.03159 36.9843 0.0298734
7.23127 39.1816 0.0310849
4.98835 39.4671 2
2.60444 39.714 3.98151
5.26033 41.6141 0.0284321
2.8565 42.0025 2
0.320823 42.3947 4
3.24568 44.282 0.0178082
0.720551 44.8159 2
1.27781 47.2057 0
7.12488 33.4606 3.96944
8.89349 33.6978 2
10.1123 33.8818 0.0279096
5.41633 31.1331 3.97259
7.51114 31.6089 2
9.39971 32.1549 0.0303121
3.68104 28.4434 3.98257
5.94532 29.0692 2
8.07357 29.6953 0.030889
1.99015 25.446 4
4.35927 26.2477 2
6.60021 27.0082 0.0270347
2.85453 23.1494 2
5.17149 24.0951 0.0163664
3.86728 20.9142 0
4.85248 35.2512 3.97226
6.96529 35.3057 2
8.85599 35.2792 0.0297124
2.4958 37.4285 3.98205
4.83827 37.3396 2
7.0149 37.2055 0.0309047
4.98818 39.4673 0.0284605
2.60465 39.7144 2
0.080333 39.9526 4
2.85628 42.0023 0.018148
0.320817 42.3947 2
0.720592 44.8159 0
5.04577 33.1898 3.97255
7.12503 33.4606 2
8.89333 33.6978 0.0297664
3.1454 30.666 3.98218
5.41636 31.1333 2
7.51109 31.6089 0.0307542
1.27793 27.7943 4
3.68107 28.4435 2
5.94539 29.0692 0.0272641
1.99013 25.446 2
4.35927 26.2475 0.0169309
2.85458 23.1494 0
2.54792 35.159 3.98211
4.85273 35.2514 2
6.96505 35.3057 0.0307772
0 37.5 4
2.4959 37.4289 2
4.83822 37.3396 0.0279307
2.60444 39.714 0.0184851
0.0802903 39.9526 2
0.320823 42.3947 0
2.76547 32.9057 3.98225
5.04591 33.19 2
7.12488 33.4606 0.0305581
0.721173 30.1842 4
3.14551 30.6665 2
5.41633 31.1331 0.027408
1.27779 27.7943 2
3.68104 28.4434 0.0174305
1.99015 25.446 0
0.0806499 35.0474 4
2.5482 35.1594 2
4.85248 35.2512 0.0277375
0 37.5 2
2.4958 37.4285 0.0179496
0.080333 39.9526 0
0.32156 32.6054 4
2.76561 32.9062 2
5.04577 33.1898 0.0274532
0.72056 30.1841 2
3.1454 30.666 0.017823
1.27793 27.7943 0
0.0802889 35.0474 2
2.54792 35.159 0.0178913
0 37.5 0
0.320817 32.6053 2
2.76547 32.9057 0.0177481
0.721173 30.1842 0
0.0806499 35.0474 0
0.32156 32.6054 0
CELLS 1910 17190
8 18 6 25 56 2 0 5 16
8 57 23 6 18 17 4 0 2
8 78 36 9 29 31 11 1 7
8 31 11 1 7 79 37 10 30
8 110 57 18 50 48 17 2 14
8 50 18 56 111 14 2 16 49
8 116 62 22 55 52 20 3 15
8 56 25 67 118 16 5 24 53
8 119 63 23 57 54 21 4 17
8 55 22 63 119 15 3 21 54
8 58 26 68 121 18 6 25 56
8 122 65 26 58 57 23 6 18
8 73 31 7 27 142 79 30 71
8 143 78 29 72 73 31 7 27
8 83 147 76 34 32 74 28 8
8 84 148 78 36 33 75 29 9
8 76 34 8 28 148 84 33 75
8 37 79 150 86 10 30 77 35
8 151 87 36 78 80 38 11 31
8 80 38 11 31 152 88 37 79
8 175 100 42 94 96 44 12 40
8 44 96 176 101 12 40 95 43
8 101 176 98 46 43 95 41 13
8 46 98 178 103 13 41 97 45
8 178 103 45 97 147 83 32 74
8 189 116 55 109 106 52 15 47
8 111 56 118 191 49 16 53 107
8 192 119 57 110 108 54 17 48
8 109 55 119 192 47 15 54 108
8 194 122 58 112 110 57 18 50
8 112 58 121 195 50 18 56 111
8 115 61 19 51 197 124 59 113
8 115 61 125 198 51 19 60 114
8 198 125 62 116 114 60 20 52
8 200 127 64 120 116 62 22 55
8 118 67 132 202 53 24 66 117
8 121 68 133 203 56 25 67 118
8 120 64 128 204 55 22 63 119
8 204 128 65 122 119 63 23 57
8 206 134 68 121 123 69 26 58
8 123 69 26 58 207 131 65 122
8 226 147 74 138 140 76 28 70
8 229 148 75 139 143 78 29 72
8 140 76 28 70 229 148 75 139
8 142 79 30 71 231 150 77 141
8 144 80 31 73 232 152 79 142
8 233 151 78 143 144 80 31 73
8 150 86 35 77 235 154 81 145
8 235 154 81 145 146 82 39 91
8 146 82 39 91 236 155 90 165
8 238 157 83 147 149 85 34 76
8 239 158 84 148 151 87 36 78
8 149 85 34 76 239 158 84 148
8 152 88 37 79 241 160 86 150
8 242 161 87 151 153 89 38 80
8 153 89 38 80 243 162 88 152
8 171 98 41 92 265 178 97 169
8 265 178 97 169 226 147 74 138
8 172 96 40 93 266 176 95 170
8 266 176 95 170 171 98 41 92
8 269 175 94 173 172 96 40 93
8 271 180 99 174 175 100 42 94
8 197 124 59 113 271 180 99 174
8 272 181 100 175 177 102 44 96
8 273 182 101 176 179 104 46 98
8 177 102 44 96 273 182 101 176
8 179 104 46 98 275 184 103 178
8 275 184 103 178 238 157 83 147
8 188 115 51 105 283 197 113 186
8 188 115 198 284 105 51 114 187
8 284 198 116 189 187 114 52 106
8 286 200 120 193 189 116 55 109
8 191 118 202 288 107 53 117 190
8 195 121 203 289 111 56 118 191
8 193 120 204 290 109 55 119 192
8 290 204 122 194 192 119 57 110
8 196 123 58 112 292 207 122 194
8 293 206 121 195 196 123 58 112
8 199 126 61 115 297 211 124 197
8 298 212 127 200 198 125 62 116
8 199 126 212 298 115 61 125 198
8 205 129 64 120 300 214 127 200
8 301 217 130 201 202 132 66 117
8 209 136 168 264 301 217 130 201
8 302 219 132 202 203 133 67 118
8 303 220 133 203 206 134 68 121
8 205 129 215 304 120 64 128 204
8 304 215 131 207 204 128 65 122
8 306 221 134 206 208 135 69 123
8 208 135 69 123 307 218 131 207
8 210 137 167 263 309 223 136 209
8 328 238 147 226 230 149 76 140
8 228 146 91 166 329 236 165 260
8 231 150 77 141 330 235 145 227
8 330 235 145 227 228 146 91 166
8 332 239 148 229 233 151 78 143
8 230 149 76 140 332 239 148 229
8 232 152 79 142 334 241 150 231
8 234 153 80 144 335 243 152 232
8 336 242 151 233 234 153 80 144
8 236 155 90 165 338 245 164 259
8 241 160 86 150 339 246 154 235
8 339 246 154 235 237 156 82 146
8 237 156 82 146 340 247 155 236
8 342 249 157 238 240 159 85 149
8 343 250 158 239 242 161 87 151
8 240 159 85 149 343 250 158 239
8 243 162 88 152 345 252 160 241
8 244 163 253 346 153 89 161 242
8 244 163 89 153 347 254 162 243
8 311 224 261 371 210 137 167 263
8 263 167 262 372 209 136 168 264
8 267 179 98 171 375 275 178 265
8 375 275 178 265 328 238 147 226
8 376 273 176 266 267 179 98 171
8 268 177 96 172 376 273 176 266
8 379 272 175 269 268 177 96 172
8 380 271 174 270 269 175 94 173
8 283 197 113 186 380 271 174 270
8 381 277 180 271 272 181 100 175
8 297 211 124 197 381 277 180 271
8 382 278 181 272 274 183 102 177
8 274 183 102 177 383 279 182 273
8 383 279 182 273 276 185 104 179
8 385 281 184 275 342 249 157 238
8 276 185 104 179 385 281 184 275
8 285 199 115 188 393 297 197 283
8 394 298 200 286 284 198 116 189
8 285 199 298 394 188 115 198 284
8 291 205 120 193 396 300 200 286
8 397 301 201 287 288 202 117 190
8 295 209 264 374 397 301 201 287
8 398 302 202 288 289 203 118 191
8 399 303 203 289 293 206 121 195
8 291 205 304 400 193 120 204 290
8 400 304 207 292 290 204 122 194
8 294 208 123 196 402 307 207 292
8 403 306 206 293 294 208 123 196
8 296 210 263 373 405 309 209 295
8 408 312 213 299 297 211 126 199
8 299 213 313 409 199 126 212 298
8 409 313 214 300 298 212 127 200
8 305 216 129 205 411 315 214 300
8 412 318 217 301 302 219 132 202
8 309 223 136 209 412 318 217 301
8 413 320 219 302 303 220 133 203
8 306 221 321 414 206 134 220 303
8 307 218 131 207 415 316 215 304
8 305 216 316 415 205 129 215 304
8 417 322 221 306 308 222 135 208
8 308 222 135 208 418 319 218 307
8 310 225 137 210 420 325 223 309
8 423 326 224 311 310 225 137 210
8 329 236 165 260 441 338 259 368
8 442 342 238 328 333 240 149 230
8 331 237 146 228 443 340 236 329
8 334 241 150 231 444 339 235 330
8 444 339 235 330 331 237 146 228
8 446 343 239 332 336 242 151 233
8 333 240 149 230 446 343 239 332
8 335 243 152 232 448 345 241 334
8 337 244 153 234 449 347 243 335
8 337 244 346 450 234 153 242 336
8 338 245 164 259 452 349 258 367
8 340 247 155 236 453 350 245 338
8 345 252 160 241 454 351 246 339
8 454 351 246 339 341 248 156 237
8 341 248 156 237 455 352 247 340
8 240 159 251 344 342 249 354 457
8 242 161 253 346 343 250 355 458
8 343 250 355 458 240 159 251 344
8 347 254 162 243 460 357 252 345
8 348 255 358 461 244 163 253 346
8 348 255 163 244 462 359 254 347
8 473 360 257 365 363 256 364 482
8 452 349 258 367 365 257 366 485
8 422 324 369 488 311 224 261 371
8 371 261 370 490 263 167 262 372
8 407 311 371 491 296 210 263 373
8 373 263 372 492 295 209 264 374
8 493 385 275 375 442 342 238 328
8 377 276 179 267 493 385 275 375
8 378 274 177 268 494 383 273 376
8 494 383 273 376 377 276 179 267
8 497 382 272 379 378 274 177 268
8 498 381 271 380 379 272 175 269
8 393 297 197 283 498 381 271 380
8 499 387 277 381 382 278 181 272
8 408 312 211 297 499 387 277 381
8 500 388 278 382 384 280 183 274
8 501 389 279 383 386 282 185 276
8 384 280 183 274 501 389 279 383
8 386 282 185 276 503 391 281 385
8 503 391 281 385 457 354 249 342
8 511 408 299 395 393 297 199 285
8 395 299 409 512 285 199 298 394
8 512 409 300 396 394 298 200 286
8 401 305 205 291 514 411 300 396
8 515 412 301 397 398 302 202 288
8 405 309 209 295 515 412 301 397
8 516 413 302 398 399 303 203 289
8 403 306 414 517 293 206 303 399
8 402 307 207 292 518 415 304 400
8 401 305 415 518 291 205 304 400
8 404 308 208 294 520 418 307 402
8 521 417 306 403 404 308 208 294
8 406 310 210 296 523 420 309 405
8 526 423 311 407 406 310 210 296
8 410 314 213 299 527 424 312 408
8 528 425 315 411 409 313 214 300
8 410 314 425 528 299 213 313 409
8 416 317 216 305 530 427 315 411
8 531 430 318 412 413 320 219 302
8 420 325 223 309 531 430 318 412
8 532 432 320 413 414 321 220 303
8 417 322 433 533 306 221 321 414
8 418 319 218 307 534 428 316 415
8 416 317 428 534 305 216 316 415
8 419 323 434 536 308 222 322 417
8 419 323 222 308 537 431 319 418
8 421 327 225 310 539 438 325 420
8 421 327 439 541 310 225 326 423
8 543 437 324 422 423 326 224 311
8 441 338 259 368 559 452 367 486
8 443 340 236 329 560 453 338 441
8 333 240 344 447 442 342 457 561
8 445 341 237 331 562 455 340 443
8 448 345 241 334 563 454 339 444
8 563 454 339 444 445 341 237 331
8 336 242 346 450 446 343 458 565
8 446 343 458 565 333 240 344 447
8 449 347 243 335 567 460 345 448
8 451 348 244 337 568 462 347 449
8 451 348 461 569 337 244 346 450
8 570 463 349 452 473 360 257 365
8 453 350 245 338 570 463 349 452
8 455 352 247 340 571 464 350 453
8 460 357 252 345 572 465 351 454
8 572 465 351 454 456 353 248 341
8 456 353 248 341 573 466 352 455
8 344 251 356 459 457 354 468 575
8 458 355 469 576 344 251 356 459
8 346 253 358 461 458 355 469 576
8 462 359 254 347 578 471 357 460
8 348 255 359 462 461 358 472 579
8 591 474 360 473 475 361 256 363
8 475 361 256 363 594 477 362 479
8 363 256 364 482 479 362 480 603
8 590 473 365 484 481 363 482 605
8 482 364 257 365 606 483 366 485
8 559 452 367 486 484 365 485 607
8 542 436 487 609 422 324 369 488
8 525 422 488 611 407 311 371 491
8 488 369 489 612 371 261 370 490
8 491 371 490 613 373 263 372 492
8 495 386 276 377 614 503 385 493
8 614 503 385 493 561 457 342 442
8 615 501 383 494 495 386 276 377
8 496 384 274 378 615 501 383 494
8 618 500 382 497 496 384 274 378
8 619 499 381 498 497 382 272 379
8 511 408 297 393 619 499 381 498
8 620 505 387 499 500 388 278 382
8 527 424 312 408 620 505 387 499
8 502 390 506 621 384 280 388 500
8 622 507 389 501 504 392 282 386
8 502 390 280 384 622 507 389 501
8 504 392 282 386 624 509 391 503
8 624 509 391 503 575 468 354 457
8 513 410 299 395 630 527 408 511
8 631 528 411 514 512 409 300 396
8 513 410 528 631 395 299 409 512
8 519 416 305 401 633 530 411 514
8 634 531 412 515 516 413 302 398
8 523 420 309 405 634 531 412 515
8 635 532 413 516 517 414 303 399
8 521 417 533 636 403 306 414 517
8 520 418 307 402 637 534 415 518
8 519 416 534 637 401 305 415 518
8 522 419 308 404 639 537 418 520
8 522 419 536 640 404 308 417 521
8 524 421 310 406 642 539 420 523
8 524 421 541 644 406 310 423 526
8 646 543 422 525 526 423 311 407
8 529 426 314 410 647 544 424 527
8 528 425 545 648 411 315 427 530
8 529 426 545 648 410 314 425 528
8 535 429 317 416 649 546 427 530
8 650 548 430 531 532 432 320 413
8 539 438 325 420 650 548 430 531
8 533 433 550 651 414 321 432 532
8 536 434 551 652 417 322 433 533
8 537 431 319 418 653 547 428 534
8 535 429 547 653 416 317 428 534
8 538 435 552 654 419 323 434 536
8 538 435 323 419 655 549 431 537
8 540 440 327 421 657 556 438 539
8 540 440 557 659 421 327 439 541
8 541 439 555 660 423 326 437 543
8 661 554 436 542 543 437 324 422
8 676 570 452 559 590 473 365 484
8 560 453 338 441 676 570 452 559
8 562 455 340 443 677 571 453 560
8 447 344 459 566 561 457 575 678
8 564 456 341 445 679 573 455 562
8 567 460 345 448 680 572 454 563
8 680 572 454 563 564 456 341 445
8 565 458 576 682 447 344 459 566
8 450 346 461 569 565 458 576 682
8 568 462 347 449 684 578 460 567
8 451 348 462 568 569 461 579 685
8 686 580 463 570 591 474 360 473
8 571 464 350 453 686 580 463 570
8 573 466 352 455 687 581 464 571
8 572 465 582 688 460 357 471 578
8 574 467 582 688 456 353 465 572
8 574 467 353 456 689 583 466 573
8 459 356 470 577 575 468 585 691
8 576 469 586 692 459 356 470 577
8 461 358 472 579 576 469 586 692
8 462 359 471 578 579 472 588 694
8 704 591 473 590 593 475 363 481
8 595 476 592 705 475 361 474 591
8 593 475 363 481 707 594 479 602
8 594 477 362 479 709 598 478 600
8 595 476 361 475 711 597 477 594
8 479 362 480 603 600 478 601 720
8 481 363 482 605 602 479 603 722
8 603 480 364 482 723 604 483 606
8 605 482 365 484 724 606 485 607
8 656 553 608 726 542 436 487 609
8 645 542 609 728 525 422 488 611
8 609 487 610 729 488 369 489 612
8 611 488 612 730 491 371 490 613
8 616 504 386 495 731 624 503 614
8 731 624 503 614 678 575 457 561
8 732 622 501 615 616 504 386 495
8 617 502 384 496 732 622 501 615
8 617 502 621 735 496 384 500 618
8 736 620 499 619 618 500 382 497
8 630 527 408 511 736 620 499 619
8 621 506 626 737 500 388 505 620
8 647 544 424 527 737 626 505 620
8 623 508 627 738 502 390 506 621
8 623 508 390 502 739 628 507 622
8 625 510 628 739 504 392 507 622
8 740 629 509 624 691 585 468 575
8 625 510 392 504 740 629 509 624
8 632 529 410 513 744 647 527 630
8 631 528 648 745 514 411 530 633
8 632 529 648 745 513 410 528 631
8 638 535 416 519 746 649 530 633
8 747 650 531 634 635 532 413 516
8 642 539 420 523 747 650 531 634
8 636 533 651 748 517 414 532 635
8 640 536 652 749 521 417 533 636
8 639 537 418 520 750 653 534 637
8 638 535 653 750 519 416 534 637
8 641 538 419 522 751 655 537 639
8 641 538 654 752 522 419 536 640
8 643 540 421 524 753 657 539 642
8 643 540 659 755 524 421 541 644
8 644 541 660 757 526 423 543 646
8 758 661 542 645 646 543 422 525
8 529 426 544 647 648 545 662 759
8 530 427 545 648 649 546 663 760
8 535 429 546 649 653 547 664 761
8 762 666 548 650 651 550 432 532
8 657 556 438 539 762 666 548 650
8 652 551 668 763 533 433 550 651
8 654 552 669 764 536 434 551 652
8 655 549 431 537 765 665 547 653
8 538 435 549 655 654 552 667 766
8 661 554 671 768 542 436 553 656
8 658 558 440 540 769 674 556 657
8 658 558 675 770 540 440 557 659
8 659 557 673 771 541 439 555 660
8 660 555 672 772 543 437 554 661
8 788 686 570 676 704 591 473 590
8 677 571 453 560 788 686 570 676
8 679 573 455 562 789 687 571 677
8 566 459 577 683 678 575 691 790
8 681 574 456 564 791 689 573 679
8 680 572 688 792 567 460 578 684
8 681 574 688 792 564 456 572 680
8 682 576 692 794 566 459 577 683
8 569 461 579 685 682 576 692 794
8 568 462 578 684 685 579 694 796
8 687 581 464 571 798 696 580 686
8 798 696 580 686 705 592 474 591
8 689 583 466 573 799 697 581 687
8 688 582 698 800 578 471 588 694
8 690 584 698 800 574 467 582 688
8 690 584 467 574 801 699 583 689
8 693 587 701 803 577 470 585 691
8 693 587 470 577 804 702 586 692
8 695 589 702 804 579 472 586 692
8 695 589 472 579 805 703 588 694
8 708 595 705 813 593 475 591 704
8 710 596 706 814 595 476 592 705
8 707 594 479 602 816 709 600 719
8 708 595 475 593 817 711 594 707
8 709 598 478 600 819 715 599 717
8 711 597 477 594 820 714 598 709
8 710 596 476 595 822 713 597 711
8 600 478 601 720 717 599 718 832
8 602 479 603 722 719 600 720 834
8 720 601 480 603 835 721 604 723
8 722 603 482 605 836 723 606 724
8 767 670 725 839 656 553 608 726
8 756 656 726 841 645 542 609 728
8 726 608 727 842 609 487 610 729
8 728 609 729 843 611 488 612 730
8 844 740 624 731 790 691 575 678
8 733 625 504 616 844 740 624 731
8 734 623 502 617 845 739 622 732
8 733 625 739 845 616 504 622 732
8 734 623 738 846 617 502 621 735
8 735 621 737 847 618 500 620 736
8 744 647 527 630 847 737 620 736
8 621 506 627 738 737 626 741 848
8 647 544 626 737 759 662 741 848
8 623 508 628 739 738 627 742 849
8 740 629 585 691 850 743 700 802
8 625 510 629 740 739 628 743 850
8 632 529 647 744 745 648 759 854
8 633 530 648 745 746 649 760 855
8 638 535 649 746 750 653 761 856
8 857 762 650 747 748 651 532 635
8 753 657 539 642 857 762 650 747
8 749 652 763 858 636 533 651 748
8 752 654 764 859 640 536 652 749
8 751 655 537 639 860 765 653 750
8 641 538 655 751 752 654 766 861
8 754 658 540 643 862 769 657 753
8 754 658 770 863 643 540 659 755
8 755 659 771 864 644 541 660 757
8 758 661 768 866 645 542 656 756
8 757 660 772 867 646 543 661 758
8 759 662 773 868 648 545 663 760
8 649 546 663 760 761 664 774 871
8 765 665 547 653 872 775 664 761
8 873 777 666 762 763 668 550 651
8 769 674 556 657 873 777 666 762
8 764 669 779 874 652 551 668 763
8 654 552 667 766 764 669 778 875
8 655 549 665 765 766 667 776 876
8 768 671 782 877 656 553 670 767
8 772 672 783 878 661 554 671 768
8 658 558 674 769 770 675 786 879
8 659 557 675 770 771 673 785 881
8 882 784 672 772 771 673 555 660
8 789 687 571 677 897 798 686 788
8 897 798 686 788 813 705 591 704
8 791 689 573 679 898 799 687 789
8 795 693 803 900 683 577 691 790
8 793 690 574 681 901 801 689 791
8 792 688 800 902 684 578 694 796
8 793 690 800 902 681 574 688 792
8 795 693 577 683 903 804 692 794
8 797 695 804 903 685 579 692 794
8 797 695 579 685 904 805 694 796
8 905 806 697 799 798 696 581 687
8 814 706 806 905 705 592 696 798
8 689 583 697 799 801 699 808 907
8 800 698 809 908 694 588 703 805
8 690 584 699 801 800 698 809 908
8 803 701 810 909 691 585 700 802
8 693 587 702 804 803 701 811 910
8 695 589 703 805 804 702 812 911
8 818 710 814 919 708 595 705 813
8 821 712 815 920 710 596 706 814
8 816 709 600 719 922 819 717 831
8 817 711 594 707 923 820 709 816
8 818 710 595 708 924 822 711 817
8 819 715 599 717 926 827 716 829
8 820 714 598 709 927 826 715 819
8 929 825 713 822 820 714 597 711
8 821 712 596 710 930 824 713 822
8 717 599 718 832 829 716 830 942
8 719 600 720 834 831 717 832 944
8 832 718 601 720 945 833 721 835
8 834 720 603 722 946 835 723 836
8 869 780 838 950 767 670 725 839
8 865 767 839 952 756 656 726 841
8 839 725 840 953 726 608 727 842
8 841 726 842 954 728 609 729 843
8 844 740 691 790 955 850 802 899
8 733 625 740 844 845 739 850 955
8 734 623 739 845 846 738 849 956
8 735 621 738 846 847 737 848 957
8 744 647 737 847 854 759 848 957
8 738 627 742 849 848 741 851 958
8 848 741 851 958 759 662 773 868
8 850 743 700 802 959 852 807 906
8 849 742 628 739 959 852 743 850
8 854 759 868 965 745 648 760 855
8 746 649 760 855 856 761 871 966
8 860 765 653 750 967 872 761 856
8 968 873 762 857 858 763 651 748
8 862 769 657 753 968 873 762 857
8 859 764 874 969 749 652 763 858
8 752 654 766 861 859 764 875 970
8 751 655 765 860 861 766 876 971
8 754 658 769 862 863 770 879 972
8 755 659 770 863 864 771 881 974
8 976 882 772 867 864 771 660 757
8 866 768 877 977 756 656 767 865
8 867 772 878 978 758 661 768 866
8 760 663 773 868 871 774 883 980
8 870 781 837 948 982 890 780 869
8 982 890 780 869 877 782 670 767
8 761 664 774 871 872 775 884 984
8 876 776 665 765 985 885 775 872
8 873 777 668 763 986 887 779 874
8 769 674 777 873 879 786 887 986
8 764 669 778 875 874 779 888 987
8 766 667 776 876 875 778 886 988
8 878 783 892 989 768 671 782 877
8 878 783 672 772 990 893 784 882
8 880 787 675 770 991 896 786 879
8 880 787 895 992 770 675 785 881
8 881 785 894 993 771 673 784 882
8 1006 905 799 898 897 798 687 789
8 919 814 905 1006 813 705 798 897
8 791 689 799 898 901 801 907 1007
8 900 803 909 1009 790 691 802 899
8 795 693 804 903 900 803 910 1010
8 902 800 908 1011 796 694 805 904
8 793 690 801 901 902 800 908 1011
8 797 695 805 904 903 804 911 1012
8 799 697 806 905 907 808 912 1013
8 920 815 912 1013 814 706 806 905
8 802 700 810 909 906 807 913 1014
8 801 699 808 907 908 809 914 1015
8 805 703 809 908 911 812 915 1016
8 803 701 811 910 909 810 916 1017
8 911 812 917 1018 804 702 811 910
8 925 821 920 1030 818 710 814 919
8 928 823 921 1031 821 712 815 920
8 922 819 717 831 1033 926 829 941
8 923 820 709 816 1034 927 819 922
8 1035 929 822 924 923 820 711 817
8 925 821 710 818 1036 930 822 924
8 1038 933 825 929 927 826 714 820
8 926 827 716 829 1039 935 828 939
8 927 826 715 819 1040 934 827 926
8 928 823 712 821 1041 931 824 930
8 1042 932 824 930 929 825 713 822
8 829 716 830 942 939 828 940 1058
8 831 717 832 944 941 829 942 1060
8 942 830 718 832 1061 943 833 945
8 944 832 720 834 1062 945 835 946
8 981 889 947 1064 870 781 837 948
8 948 837 949 1067 869 780 838 950
8 975 869 950 1069 865 767 839 952
8 950 838 951 1070 839 725 840 953
8 952 839 953 1071 841 726 842 954
8 955 850 802 899 1072 959 906 1008
8 956 849 739 845 1072 959 850 955
8 846 738 849 956 957 848 958 1073
8 957 848 958 1073 854 759 868 965
8 849 742 852 959 958 851 961 1076
8 960 853 961 1076 906 807 852 959
8 958 851 961 1076 868 773 883 980
8 960 853 807 906 1077 963 913 1014
8 855 760 868 965 966 871 980 1085
8 856 761 871 966 967 872 984 1086
8 971 876 765 860 1087 985 872 967
8 968 873 763 858 1088 986 874 969
8 862 769 873 968 972 879 986 1088
8 859 764 875 970 969 874 987 1089
8 861 766 876 971 970 875 988 1090
8 973 880 770 863 1091 991 879 972
8 973 880 992 1092 863 770 881 974
8 974 881 993 1093 864 771 882 976
8 979 870 948 1066 1094 982 869 975
8 1094 982 869 975 977 877 767 865
8 978 878 772 867 1095 990 882 976
8 978 878 989 1096 866 768 877 977
8 871 774 883 980 984 884 994 1099
8 983 891 999 1100 870 781 889 981
8 1101 1000 890 982 989 892 782 877
8 983 891 781 870 1101 1000 890 982
8 872 775 884 984 985 885 995 1103
8 876 776 885 985 988 886 996 1104
8 986 887 779 874 1105 998 888 987
8 879 786 887 986 991 896 998 1105
8 875 778 886 988 987 888 997 1106
8 990 893 1002 1107 878 783 892 989
8 1108 1003 893 990 993 894 784 882
8 880 787 896 991 992 895 1005 1109
8 993 894 785 881 1110 1004 895 992
8 898 799 905 1006 1007 907 1013 1120
8 1030 920 1013 1120 919 814 905 1006
8 901 801 907 1007 1011 908 1015 1121
8 899 802 909 1009 1008 906 1014 1122
8 900 803 910 1010 1009 909 1017 1123
8 1012 911 1018 1124 903 804 910 1010
8 904 805 908 1011 1012 911 1016 1125
8 1013 912 1020 1127 907 808 914 1015
8 1031 921 1020 1127 920 815 912 1013
8 1019 918 962 1075 1128 1021 913 1014
8 1128 1021 913 1014 1017 916 810 909
8 1015 914 1022 1129 908 809 915 1016
8 1016 915 1023 1130 911 812 917 1018
8 1018 917 1024 1131 910 811 916 1017
8 1037 928 1031 1148 925 821 920 1030
8 928 823 931 1041 1031 921 1032 1149
8 1033 926 829 941 1151 1039 939 1057
8 1034 927 819 922 1152 1040 926 1033
8 1153 1038 929 1035 1034 927 820 923
8 1154 1042 930 1036 1035 929 822 924
8 1037 928 821 925 1155 1041 930 1036
8 1039 935 828 939 1156 1047 938 1055
8 1157 1043 932 1042 1038 933 825 929
8 1038 933 826 927 1158 1045 934 1040
8 1040 934 827 926 1159 1046 935 1039
8 930 824 932 1042 1041 931 1044 1160
8 1051 936 1048 1165 1175 1052 937 1053
8 1156 1047 938 1055 1053 937 1054 1178
8 939 828 940 1058 1055 938 1056 1181
8 941 829 942 1060 1057 939 1058 1183
8 942 830 943 1061 1058 940 1059 1184
8 1060 942 832 944 1185 1061 945 1062
8 1082 964 1063 1188 981 889 947 1064
8 1097 981 1064 1190 979 870 948 1066
8 1064 947 1065 1191 948 837 949 1067
8 1066 948 1067 1193 975 869 950 1069
8 1067 949 1068 1194 950 838 951 1070
8 1069 950 1070 1195 952 839 953 1071
8 956 849 959 1072 1073 958 1076 1197
8 1074 960 1076 1197 1008 906 959 1072
8 1073 958 1076 1197 965 868 980 1085
8 1074 960 906 1008 1198 1077 1014 1122
8 1133 1026 1079 1199 1019 918 962 1075
8 1077 963 913 1014 1200 1080 962 1075
8 960 853 963 1077 1076 961 1078 1201
8 980 883 961 1076 1099 994 1078 1201
8 1210 1083 964 1082 1100 999 889 981
8 966 871 980 1085 1086 984 1099 1215
8 967 872 984 1086 1087 985 1103 1216
8 971 876 985 1087 1090 988 1104 1217
8 1088 986 874 969 1218 1105 987 1089
8 972 879 986 1088 1091 991 1105 1218
8 970 875 988 1090 1089 987 1106 1219
8 973 880 991 1091 1092 992 1109 1220
8 1093 993 881 974 1221 1110 992 1092
8 1222 1108 990 1095 1093 993 882 976
8 1223 1101 982 1094 1096 989 877 977
8 1098 983 870 979 1223 1101 982 1094
8 1095 990 1107 1224 978 878 989 1096
8 1098 983 1100 1225 979 870 981 1097
8 984 884 994 1099 1103 995 1111 1227
8 1102 1001 1115 1228 983 891 999 1100
8 1101 1000 892 989 1229 1116 1002 1107
8 1102 1001 891 983 1229 1116 1000 1101
8 985 885 995 1103 1104 996 1112 1230
8 988 886 996 1104 1106 997 1113 1231
8 1105 998 888 987 1232 1114 997 1106
8 991 896 998 1105 1109 1005 1114 1232
8 1108 1003 1117 1233 990 893 1002 1107
8 1108 1003 894 993 1233 1117 1004 1110
8 992 895 1005 1109 1110 1004 1118 1234
8 1120 1013 1127 1244 1007 907 1015 1121
8 1148 1031 1127 1244 1030 920 1013 1120
8 1121 1015 1129 1245 1011 908 1016 1125
8 1126 1019 1075 1196 1246 1128 1014 1122
8 1246 1128 1014 1122 1123 1017 909 1009
8 1124 1018 1131 1247 1010 910 1017 1123
8 1125 1016 1130 1248 1012 911 1018 1124
8 1127 1020 1137 1254 1015 914 1022 1129
8 1031 921 1032 1149 1127 1020 1137 1254
8 1134 1027 918 1019 1257 1140 1021 1128
8 1257 1140 1021 1128 1131 1024 916 1017
8 1129 1022 1141 1258 1016 915 1023 1130
8 1130 1023 1142 1259 1018 917 1024 1131
8 1261 1144 1025 1132 1133 1026 1079 1199
8 1255 1138 1025 1132 1135 1028 1144 1261
8 1133 1026 918 1019 1262 1145 1027 1134
8 1136 1029 1139 1256 1263 1146 1028 1135
8 1037 928 1041 1155 1148 1031 1149 1275
8 1041 931 1044 1160 1149 1032 1150 1276
8 1151 1039 939 1057 1278 1156 1055 1180
8 1152 1040 926 1033 1279 1159 1039 1151
8 1153 1038 927 1034 1280 1158 1040 1152
8 1281 1157 1042 1154 1153 1038 929 1035
8 1036 930 1042 1154 1155 1041 1160 1282
8 1283 1164 1046 1159 1156 1047 935 1039
8 1165 1048 1164 1283 1053 937 1047 1156
8 1157 1043 933 1038 1284 1161 1045 1158
8 1157 1043 1161 1284 1042 932 1044 1160
8 1040 934 1046 1159 1158 1045 1163 1285
8 1166 1049 1167 1292 1051 936 1048 1165
8 1166 1049 936 1051 1293 1168 1050 1172
8 1051 936 1052 1175 1172 1050 1173 1306
8 1174 1051 1165 1290 1308 1175 1053 1177
8 1053 937 1054 1178 1175 1052 1176 1309
8 1278 1156 1055 1180 1177 1053 1178 1311
8 1055 938 1056 1181 1178 1054 1179 1312
8 1057 939 1058 1183 1180 1055 1181 1314
8 1058 940 1059 1184 1181 1056 1182 1315
8 1060 942 1061 1185 1183 1058 1184 1316
8 1208 1081 1187 1321 1082 964 1063 1188
8 1209 1082 1188 1322 1097 981 1064 1190
8 1188 1063 1189 1323 1064 947 1065 1191
8 1190 1064 1191 1325 1066 948 1067 1193
8 1191 1065 1192 1326 1067 949 1068 1194
8 1067 1193 1069 950 1194 1327 1195 1070
8 1250 1133 1199 1330 1126 1019 1075 1196
8 1198 1077 1014 1122 1331 1200 1075 1196
8 1074 960 1077 1198 1197 1076 1201 1332
8 1085 980 1076 1197 1215 1099 1201 1332
8 1199 1079 1203 1333 1075 962 1080 1200
8 1132 1025 1119 1243 1199 1079 1203 1333
8 1201 1078 963 1077 1334 1202 1080 1200
8 1099 994 1078 1201 1227 1111 1202 1334
8 1343 1207 1081 1208 1210 1083 964 1082
8 1214 1084 1186 1319 1343 1207 1081 1208
8 1345 1210 1082 1209 1225 1100 981 1097
8 1346 1211 1083 1210 1228 1115 999 1100
8 1086 984 1099 1215 1216 1103 1227 1352
8 1087 985 1103 1216 1217 1104 1230 1353
8 1090 988 1104 1217 1219 1106 1231 1354
8 1218 1105 987 1089 1355 1232 1106 1219
8 1091 991 1105 1218 1220 1109 1232 1355
8 1092 992 1109 1220 1221 1110 1234 1356
8 1222 1108 1233 1357 1095 990 1107 1224
8 1222 1108 993 1093 1357 1233 1110 1221
8 1223 1101 989 1096 1358 1229 1107 1224
8 1226 1102 983 1098 1358 1229 1101 1223
8 1226 1102 1228 1359 1098 983 1100 1225
8 1103 995 1111 1227 1230 1112 1235 1360
8 1107 1002 1117 1233 1229 1116 1240 1362
8 1102 1001 1116 1229 1228 1115 1240 1362
8 1104 996 1112 1230 1231 1113 1236 1363
8 1364 1237 1114 1232 1231 1113 997 1106
8 1109 1005 1114 1232 1234 1118 1238 1365
8 1110 1004 1118 1234 1233 1117 1241 1366
8 1242 1374 1255 1138 1119 1243 1132 1025
8 1244 1127 1254 1376 1121 1015 1129 1245
8 1148 1031 1149 1275 1244 1127 1254 1376
8 1245 1129 1258 1377 1125 1016 1130 1248
8 1251 1134 1019 1126 1378 1257 1128 1246
8 1378 1257 1128 1246 1247 1131 1017 1123
8 1248 1130 1259 1379 1124 1018 1131 1247
8 1261 1381 1250 1133 1132 1249 1330 1199
8 1255 1380 1252 1135 1132 1249 1381 1261
8 1250 1133 1019 1126 1382 1262 1134 1251
8 1253 1136 1256 1385 1384 1263 1135 1252
8 1254 1137 1265 1387 1129 1022 1141 1258
8 1149 1032 1150 1276 1254 1137 1265 1387
8 1028 1135 1255 1138 1139 1256 1388 1266
8 1136 1029 1147 1264 1256 1139 1267 1389
8 1390 1268 1140 1257 1259 1142 1024 1131
8 1260 1143 1027 1134 1390 1268 1140 1257
8 1258 1141 1269 1391 1130 1023 1142 1259
8 1262 1145 1027 1134 1393 1271 1143 1260
8 1261 1144 1026 1133 1394 1272 1145 1262
8 1135 1028 1144 1261 1263 1146 1272 1394
8 1136 1029 1146 1263 1264 1147 1273 1395
8 1155 1041 1160 1282 1275 1149 1276 1405
8 1276 1150 1044 1160 1406 1277 1162 1286
8 1408 1283 1159 1279 1278 1156 1039 1151
8 1290 1165 1283 1408 1177 1053 1156 1278
8 1152 1040 1159 1279 1280 1158 1285 1409
8 1281 1157 1038 1153 1410 1284 1158 1280
8 1281 1157 1284 1410 1154 1042 1160 1282
8 1159 1046 1164 1283 1285 1163 1289 1412
8 1292 1167 1289 1412 1165 1048 1164 1283
8 1158 1045 1163 1285 1284 1161 1288 1413
8 1284 1161 1288 1413 1160 1044 1162 1286
8 1291 1166 1292 1418 1174 1051 1165 1290
8 1291 1166 1051 1174 1419 1293 1172 1305
8 1294 1169 1296 1421 1166 1049 1167 1292
8 1293 1168 1050 1172 1422 1295 1171 1303
8 1294 1169 1049 1166 1423 1297 1168 1293
8 1422 1295 1171 1303 1301 1170 1302 1435
8 1172 1050 1173 1306 1303 1171 1304 1438
8 1174 1051 1175 1308 1305 1172 1306 1440
8 1175 1052 1176 1309 1306 1173 1307 1441
8 1177 1053 1178 1311 1308 1175 1309 1443
8 1178 1054 1179 1312 1309 1176 1310 1444
8 1180 1055 1181 1314 1311 1178 1312 1446
8 1056 1181 1312 1179 1182 1315 1447 1313
8 1183 1058 1184 1316 1314 1181 1315 1448
8 1319 1186 1084 1214 1451 1317 1213 1350
8 1319 1186 1318 1453 1208 1081 1187 1321
8 1321 1187 1320 1456 1188 1063 1189 1323
8 1344 1208 1321 1457 1209 1082 1188 1322
8 1322 1188 1323 1458 1190 1064 1191 1325
8 1323 1189 1324 1459 1191 1065 1192 1326
8 1191 1325 1193 1067 1326 1460 1327 1194
8 1242 1374 1243 1119 1328 1462 1335 1204
8 1330 1199 1333 1465 1196 1075 1200 1331
8 1132 1249 1330 1199 1243 1375 1465 1333
8 1332 1201 1077 1198 1466 1334 1200 1331
8 1215 1099 1201 1332 1352 1227 1334 1466
8 1119 1243 1333 1203 1204 1335 1470 1338
8 1333 1203 1338 1470 1200 1080 1202 1334
8 1227 1111 1202 1334 1360 1235 1338 1470
8 1328 1462 1335 1204 1205 1336 1471 1339
8 1337 1206 1340 1472 1464 1329 1205 1336
8 1346 1211 1342 1479 1210 1083 1207 1343
8 1346 1211 1115 1228 1479 1342 1239 1361
8 1348 1212 1084 1214 1479 1342 1207 1343
8 1480 1343 1208 1344 1345 1210 1082 1209
8 1351 1214 1319 1454 1480 1343 1208 1344
8 1481 1346 1210 1345 1359 1228 1100 1225
8 1348 1212 1347 1483 1214 1084 1213 1350
8 1216 1103 1227 1352 1353 1230 1360 1488
8 1217 1104 1230 1353 1354 1231 1363 1489
8 1490 1364 1232 1355 1354 1231 1106 1219
8 1220 1109 1232 1355 1356 1234 1365 1491
8 1221 1110 1234 1356 1357 1233 1366 1492
8 1224 1107 1233 1357 1358 1229 1362 1493
8 1226 1102 1229 1358 1359 1228 1362 1493
8 1230 1112 1235 1360 1363 1236 1367 1496
8 1361 1239 1115 1228 1497 1371 1240 1362
8 1366 1241 1372 1498 1233 1117 1240 1362
8 1364 1237 1113 1231 1499 1368 1236 1363
8 1364 1237 1368 1499 1232 1114 1238 1365
8 1234 1118 1238 1365 1366 1241 1369 1500
8 1507 1373 1242 1374 1388 1266 1138 1255
8 1508 1374 1243 1375 1380 1255 1132 1249
8 1376 1254 1387 1509 1245 1129 1258 1377
8 1275 1149 1276 1405 1376 1254 1387 1509
8 1377 1258 1391 1510 1248 1130 1259 1379
8 1511 1390 1257 1378 1379 1259 1131 1247
8 1383 1260 1134 1251 1511 1390 1257 1378
8 1252 1135 1256 1385 1380 1255 1388 1512
8 1261 1381 1513 1394 1133 1250 1382 1262
8 1135 1252 1384 1263 1261 1381 1513 1394
8 1382 1262 1134 1251 1514 1393 1260 1383
8 1253 1136 1263 1384 1386 1264 1395 1516
8 1253 1136 1264 1386 1385 1256 1389 1517
8 1387 1265 1397 1519 1258 1141 1269 1391
8 1276 1150 1277 1406 1387 1265 1397 1519
8 1256 1139 1267 1389 1388 1266 1398 1520
8 1264 1147 1274 1396 1389 1267 1399 1521
8 1392 1270 1143 1260 1522 1400 1268 1390
8 1390 1268 1142 1259 1522 1400 1269 1391
8 1392 1270 1401 1523 1260 1143 1271 1393
8 1272 1394 1524 1402 1145 1262 1393 1271
8 1395 1273 1146 1263 1524 1402 1272 1394
8 1273 1395 1264 1147 1403 1526 1396 1274
8 1405 1276 1160 1282 1534 1406 1286 1411
8 1414 1287 1407 1535 1286 1162 1277 1406
8 1279 1159 1283 1408 1409 1285 1412 1537
8 1418 1292 1412 1537 1290 1165 1283 1408
8 1280 1158 1285 1409 1410 1284 1413 1538
8 1410 1284 1413 1538 1282 1160 1286 1411
8 1285 1163 1289 1412 1413 1288 1417 1540
8 1421 1296 1417 1540 1292 1167 1289 1412
8 1414 1287 1162 1286 1541 1416 1288 1413
8 1420 1294 1421 1545 1291 1166 1292 1418
8 1419 1293 1172 1305 1546 1422 1303 1437
8 1420 1294 1166 1291 1547 1423 1293 1419
8 1294 1169 1297 1423 1421 1296 1425 1548
8 1423 1297 1168 1293 1549 1424 1295 1422
8 1301 1170 1298 1427 1422 1295 1424 1549
8 1432 1300 1428 1554 1301 1170 1298 1427
8 1431 1299 1428 1554 1560 1430 1300 1432
8 1563 1433 1300 1432 1435 1302 1170 1301
8 1546 1422 1303 1437 1434 1301 1435 1565
8 1303 1171 1304 1438 1435 1302 1436 1566
8 1305 1172 1306 1440 1437 1303 1438 1568
8 1306 1173 1307 1441 1438 1304 1439 1569
8 1308 1175 1309 1443 1440 1306 1441 1571
8 1309 1176 1310 1444 1441 1307 1442 1572
8 1311 1178 1312 1446 1443 1309 1444 1574
8 1179 1312 1444 1310 1313 1447 1575 1445
8 1314 1181 1315 1448 1446 1312 1447 1576
8 1350 1213 1349 1486 1451 1317 1449 1579
8 1451 1317 1450 1581 1319 1186 1318 1453
8 1454 1319 1214 1351 1582 1451 1350 1487
8 1453 1318 1452 1584 1321 1187 1320 1456
8 1454 1319 1453 1585 1344 1208 1321 1457
8 1456 1320 1455 1586 1323 1189 1324 1459
8 1457 1321 1456 1587 1322 1188 1323 1458
8 1458 1323 1459 1588 1325 1191 1326 1460
8 1205 1336 1464 1329 1328 1462 1590 1461
8 1507 1373 1461 1590 1374 1242 1328 1462
8 1508 1374 1462 1591 1375 1243 1335 1467
8 1337 1206 1329 1464 1473 1341 1463 1594
8 1375 1243 1335 1467 1465 1333 1470 1596
8 1465 1333 1470 1596 1331 1200 1334 1466
8 1352 1227 1334 1466 1488 1360 1470 1596
8 1591 1462 1336 1468 1467 1335 1471 1597
8 1469 1337 1472 1598 1595 1464 1336 1468
8 1471 1339 1474 1600 1335 1204 1338 1470
8 1600 1474 1367 1496 1470 1338 1235 1360
8 1336 1205 1340 1472 1471 1339 1475 1601
8 1337 1206 1341 1473 1472 1340 1476 1602
8 1495 1370 1478 1609 1361 1239 1342 1479
8 1348 1212 1342 1479 1483 1347 1478 1609
8 1481 1346 1479 1610 1345 1210 1343 1480
8 1481 1346 1228 1359 1610 1479 1361 1494
8 1484 1348 1214 1351 1610 1479 1343 1480
8 1483 1347 1482 1612 1350 1213 1349 1486
8 1484 1348 1483 1613 1351 1214 1350 1487
8 1353 1230 1360 1488 1489 1363 1496 1616
8 1490 1364 1231 1354 1617 1499 1363 1489
8 1490 1364 1499 1617 1355 1232 1365 1491
8 1356 1234 1365 1491 1492 1366 1500 1619
8 1492 1366 1498 1620 1357 1233 1362 1493
8 1494 1361 1228 1359 1621 1497 1362 1493
8 1495 1370 1239 1361 1622 1504 1371 1497
8 1363 1236 1367 1496 1499 1368 1501 1623
8 1497 1371 1240 1362 1624 1505 1372 1498
8 1625 1503 1372 1498 1500 1369 1241 1366
8 1365 1238 1368 1499 1500 1369 1502 1626
8 1520 1398 1506 1633 1388 1266 1373 1507
8 1634 1507 1374 1508 1512 1388 1255 1380
8 1509 1387 1519 1635 1377 1258 1391 1510
8 1405 1276 1406 1534 1509 1387 1519 1635
8 1515 1392 1260 1383 1636 1522 1390 1511
8 1511 1390 1259 1379 1636 1522 1391 1510
8 1385 1256 1389 1517 1512 1388 1520 1637
8 1513 1394 1262 1382 1638 1524 1393 1514
8 1395 1516 1638 1524 1263 1384 1513 1394
8 1515 1392 1523 1639 1383 1260 1393 1514
8 1516 1395 1526 1640 1386 1264 1396 1518
8 1386 1264 1396 1518 1517 1389 1521 1641
8 1519 1397 1527 1643 1391 1269 1400 1522
8 1535 1407 1527 1643 1406 1277 1397 1519
8 1389 1267 1399 1521 1520 1398 1528 1644
8 1645 1529 1399 1521 1525 1404 1274 1396
8 1392 1270 1400 1522 1523 1401 1531 1646
8 1524 1402 1271 1393 1648 1532 1401 1523
8 1403 1526 1648 1532 1273 1395 1524 1402
8 1525 1404 1274 1396 1649 1533 1403 1526
8 1539 1414 1535 1657 1411 1286 1406 1534
8 1542 1415 1536 1658 1414 1287 1407 1535
8 1409 1285 1412 1537 1538 1413 1540 1660
8 1545 1421 1540 1660 1418 1292 1412 1537
8 1539 1414 1286 1411 1661 1541 1413 1538
8 1540 1417 1544 1663 1413 1288 1416 1541
8 1421 1296 1425 1548 1540 1417 1544 1663
8 1542 1415 1287 1414 1664 1543 1416 1541
8 1420 1294 1423 1547 1545 1421 1548 1666
8 1547 1423 1293 1419 1667 1549 1422 1546
8 1434 1301 1427 1553 1546 1422 1549 1667
8 1423 1297 1424 1549 1548 1425 1550 1668
8 1551 1426 1550 1668 1427 1298 1424 1549
8 1551 1426 1298 1427 1671 1552 1428 1554
8 1562 1432 1554 1674 1434 1301 1427 1553
8 1431 1299 1429 1558 1554 1428 1555 1675
8 1431 1299 1430 1560 1558 1429 1557 1680
8 1560 1430 1300 1432 1683 1559 1433 1563
8 1561 1431 1554 1674 1684 1560 1432 1562
8 1685 1563 1432 1562 1565 1435 1301 1434
8 1435 1302 1436 1566 1563 1433 1564 1686
8 1437 1303 1438 1568 1565 1435 1566 1688
8 1438 1304 1439 1569 1566 1436 1567 1689
8 1440 1306 1441 1571 1568 1438 1569 1691
8 1441 1307 1442 1572 1569 1439 1570 1692
8 1443 1309 1444 1574 1571 1441 1572 1694
8 1310 1444 1572 1442 1445 1575 1695 1573
8 1446 1312 1447 1576 1574 1444 1575 1696
8 1486 1349 1485 1614 1579 1449 1577 1699
8 1451 1317 1449 1579 1581 1450 1578 1701
8 1487 1350 1486 1615 1582 1451 1579 1702
8 1581 1450 1580 1704 1453 1318 1452 1584
8 1582 1451 1581 1705 1454 1319 1453 1585
8 1584 1452 1583 1706 1456 1320 1455 1586
8 1585 1453 1584 1707 1457 1321 1456 1587
8 1587 1456 1586 1708 1458 1323 1459 1588
8 1633 1506 1589 1710 1507 1373 1461 1590
8 1464 1329 1461 1590 1594 1463 1589 1710
8 1468 1336 1462 1591 1595 1464 1590 1711
8 1634 1507 1590 1711 1508 1374 1462 1591
8 1473 1341 1463 1594 1603 1477 1593 1716
8 1469 1337 1464 1595 1599 1473 1594 1717
8 1471 1597 1467 1335 1600 1718 1596 1470
8 1718 1600 1496 1616 1596 1470 1360 1488
8 1336 1468 1597 1471 1472 1598 1719 1601
8 1469 1337 1473 1599 1598 1472 1602 1720
8 1722 1604 1501 1623 1600 1474 1367 1496
8 1475 1601 1471 1339 1604 1722 1600 1474
8 1602 1476 1605 1723 1472 1340 1475 1601
8 1476 1602 1724 1606 1341 1473 1603 1477
8 1483 1347 1478 1609 1612 1482 1608 1731
8 1495 1370 1504 1622 1609 1478 1608 1731
8 1618 1495 1609 1732 1494 1361 1479 1610
8 1484 1348 1479 1610 1613 1483 1609 1732
8 1486 1349 1482 1612 1614 1485 1611 1733
8 1613 1483 1612 1734 1487 1350 1486 1615
8 1489 1363 1496 1616 1617 1499 1623 1736
8 1491 1365 1499 1617 1619 1500 1626 1737
8 1618 1495 1361 1494 1738 1622 1497 1621
8 1739 1625 1498 1620 1619 1500 1366 1492
8 1621 1497 1362 1493 1740 1624 1498 1620
8 1742 1631 1504 1622 1624 1505 1371 1497
8 1743 1628 1502 1626 1623 1501 1368 1499
8 1744 1630 1505 1624 1625 1503 1372 1498
8 1745 1629 1503 1625 1626 1502 1369 1500
8 1520 1398 1528 1644 1633 1506 1632 1751
8 1637 1520 1633 1752 1512 1388 1507 1634
8 1635 1519 1643 1753 1510 1391 1522 1636
8 1657 1535 1643 1753 1534 1406 1519 1635
8 1515 1392 1522 1636 1639 1523 1646 1754
8 1517 1389 1521 1641 1637 1520 1644 1755
8 1524 1638 1756 1648 1393 1514 1639 1523
8 1640 1526 1395 1516 1756 1648 1524 1638
8 1642 1525 1396 1518 1757 1649 1526 1640
8 1758 1645 1521 1641 1642 1525 1396 1518
8 1646 1531 1400 1522 1760 1650 1527 1643
8 1535 1407 1536 1658 1643 1527 1650 1760
8 1521 1399 1529 1645 1644 1528 1651 1761
8 1647 1530 1652 1762 1525 1404 1529 1645
8 1401 1523 1648 1532 1531 1646 1763 1655
8 1525 1404 1533 1649 1647 1530 1654 1765
8 1533 1649 1766 1656 1403 1526 1648 1532
8 1662 1542 1658 1774 1539 1414 1535 1657
8 1542 1415 1543 1664 1658 1536 1659 1775
8 1660 1540 1663 1777 1538 1413 1541 1661
8 1545 1421 1548 1666 1660 1540 1663 1777
8 1662 1542 1414 1539 1778 1664 1541 1661
8 1664 1543 1416 1541 1779 1665 1544 1663
8 1548 1425 1550 1668 1663 1544 1665 1779
8 1547 1423 1549 1667 1666 1548 1668 1781
8 1670 1551 1668 1781 1553 1427 1549 1667
8 1551 1426 1552 1671 1668 1550 1669 1782
8 1670 1551 1427 1553 1784 1671 1554 1674
8 1675 1555 1672 1785 1554 1428 1552 1671
8 1678 1556 1673 1789 1558 1429 1555 1675
8 1561 1431 1558 1681 1674 1554 1675 1790
8 1794 1677 1556 1678 1680 1557 1429 1558
8 1560 1430 1559 1683 1680 1557 1679 1797
8 1561 1431 1560 1684 1681 1558 1680 1798
8 1563 1433 1564 1686 1683 1559 1682 1800
8 1684 1560 1432 1562 1801 1683 1563 1685
8 1565 1435 1566 1688 1685 1563 1686 1802
8 1566 1436 1567 1689 1686 1564 1687 1803
8 1568 1438 1569 1691 1688 1566 1689 1805
8 1569 1439 1570 1692 1689 1567 1690 1806
8 1571 1441 1572 1694 1691 1569 1692 1808
8 1442 1572 1692 1570 1573 1695 1809 1693
8 1574 1444 1575 1696 1694 1572 1695 1810
8 1614 1485 1592 1712 1699 1577 1697 1813
8 1579 1449 1577 1699 1701 1578 1698 1815
8 1615 1486 1614 1735 1702 1579 1699 1816
8 1701 1578 1700 1818 1581 1450 1580 1704
8 1582 1451 1579 1702 1705 1581 1701 1819
8 1704 1580 1703 1820 1584 1452 1583 1706
8 1705 1581 1704 1821 1585 1453 1584 1707
8 1707 1584 1706 1822 1587 1456 1586 1708
8 1710 1589 1506 1633 1824 1709 1632 1751
8 1594 1463 1589 1710 1716 1593 1709 1824
8 1752 1633 1710 1825 1634 1507 1590 1711
8 1595 1464 1590 1711 1717 1594 1710 1825
8 1830 1714 1592 1712 1733 1611 1485 1614
8 1603 1477 1593 1716 1725 1607 1715 1834
8 1599 1473 1594 1717 1721 1603 1716 1835
8 1837 1722 1623 1736 1718 1600 1496 1616
8 1719 1601 1722 1837 1597 1471 1600 1718
8 1602 1720 1598 1472 1723 1838 1719 1601
8 1720 1602 1473 1599 1839 1724 1603 1721
8 1723 1605 1726 1840 1601 1475 1604 1722
8 1840 1726 1628 1743 1722 1604 1501 1623
8 1724 1606 1727 1841 1602 1476 1605 1723
8 1725 1607 1728 1842 1603 1477 1606 1724
8 1612 1482 1608 1731 1733 1611 1730 1849
8 1741 1627 1730 1849 1622 1504 1608 1731
8 1613 1483 1609 1732 1734 1612 1731 1850
8 1618 1495 1622 1738 1732 1609 1731 1850
8 1615 1486 1612 1734 1735 1614 1733 1851
8 1852 1743 1626 1737 1736 1623 1499 1617
8 1853 1745 1625 1739 1737 1626 1500 1619
8 1855 1742 1622 1738 1740 1624 1497 1621
8 1856 1744 1624 1740 1739 1625 1498 1620
8 1741 1627 1504 1622 1857 1746 1631 1742
8 1742 1631 1505 1624 1858 1749 1630 1744
8 1859 1747 1629 1745 1743 1628 1502 1626
8 1860 1748 1630 1744 1745 1629 1503 1625
8 1644 1528 1651 1761 1751 1632 1750 1865
8 1637 1520 1644 1755 1752 1633 1751 1866
8 1754 1646 1522 1636 1867 1760 1643 1753
8 1657 1535 1658 1774 1753 1643 1760 1867
8 1639 1523 1646 1754 1756 1648 1763 1868
8 1641 1521 1645 1758 1755 1644 1761 1869
8 1757 1649 1526 1640 1870 1766 1648 1756
8 1642 1525 1649 1757 1759 1647 1765 1871
8 1759 1647 1762 1872 1642 1525 1645 1758
8 1760 1650 1767 1874 1646 1531 1655 1763
8 1658 1536 1659 1775 1760 1650 1767 1874
8 1762 1652 1768 1875 1645 1529 1651 1761
8 1764 1653 1769 1876 1647 1530 1652 1762
8 1656 1766 1877 1773 1532 1648 1763 1655
8 1771 1879 1765 1654 1653 1764 1647 1530
8 1533 1649 1765 1654 1656 1766 1880 1772
8 1662 1542 1664 1778 1774 1658 1775 1887
8 1664 1543 1665 1779 1775 1659 1776 1888
8 1778 1664 1541 1661 1890 1779 1663 1777
8 1666 1548 1668 1781 1777 1663 1779 1890
8 1782 1669 1780 1891 1668 1550 1665 1779
8 1670 1551 1671 1784 1781 1668 1782 1893
8 1671 1552 1672 1785 1782 1669 1783 1894
8 1790 1675 1785 1896 1674 1554 1671 1784
8 1675 1555 1673 1789 1785 1672 1786 1897
8 1792 1676 1788 1903 1678 1556 1673 1789
8 1795 1678 1789 1904 1681 1558 1675 1790
8 1792 1676 1556 1678 1906 1791 1677 1794
8 1680 1557 1679 1797 1794 1677 1793 1909
8 1910 1794 1678 1795 1798 1680 1558 1681
8 1683 1559 1682 1800 1797 1679 1796 1912
8 1684 1560 1683 1801 1798 1680 1797 1913
8 1686 1564 1687 1803 1800 1682 1799 1915
8 1685 1563 1686 1802 1801 1683 1800 1916
8 1688 1566 1689 1805 1802 1686 1803 1917
8 1689 1567 1690 1806 1803 1687 1804 1918
8 1691 1569 1692 1808 1805 1689 1806 1920
8 1692 1570 1693 1809 1806 1690 1807 1921
8 1694 1572 1695 1810 1808 1692 1809 1922
8 1829 1713 1811 1926 1712 1592 1697 1813
8 1813 1697 1812 1928 1699 1577 1698 1815
8 1735 1614 1712 1828 1816 1699 1813 1929
8 1815 1698 1814 1931 1701 1578 1700 1818
8 1702 1579 1699 1816 1819 1701 1815 1932
8 1818 1700 1817 1933 1704 1580 1703 1820
8 1819 1701 1818 1934 1705 1581 1704 1821
8 1821 1704 1820 1935 1707 1584 1706 1822
8 1824 1709 1632 1751 1937 1823 1750 1865
8 1716 1593 1709 1824 1834 1715 1823 1937
8 1825 1710 1633 1752 1938 1824 1751 1866
8 1717 1594 1710 1825 1835 1716 1824 1938
8 1945 1830 1712 1828 1851 1733 1614 1735
8 1830 1714 1831 1946 1712 1592 1713 1829
8 1947 1832 1714 1830 1849 1730 1611 1733
8 1843 1729 1607 1725 1950 1833 1715 1834
8 1721 1603 1716 1835 1836 1725 1834 1951
8 1836 1725 1842 1953 1721 1603 1724 1839
8 1723 1838 1719 1601 1840 1954 1837 1722
8 1954 1840 1743 1852 1837 1722 1623 1736
8 1724 1839 1720 1602 1841 1955 1838 1723
8 1841 1727 1844 1956 1723 1605 1726 1840
8 1956 1844 1747 1859 1840 1726 1628 1743
8 1728 1842 1724 1606 1845 1957 1841 1727
8 1725 1607 1729 1843 1842 1728 1846 1958
8 1741 1627 1746 1857 1849 1730 1848 1965
8 1734 1612 1731 1850 1851 1733 1849 1966
8 1854 1741 1849 1966 1738 1622 1731 1850
8 1967 1859 1745 1853 1852 1743 1626 1737
8 1968 1860 1744 1856 1853 1745 1625 1739
8 1854 1741 1622 1738 1969 1857 1742 1855
8 1855 1742 1624 1740 1970 1858 1744 1856
8 1857 1746 1631 1742 1971 1861 1749 1858
8 1858 1749 1630 1744 1972 1863 1748 1860
8 1859 1747 1862 1973 1745 1629 1748 1860
8 1875 1768 1864 1977 1761 1651 1750 1865
8 1755 1644 1761 1869 1866 1751 1865 1978
8 1867 1760 1874 1979 1754 1646 1763 1868
8 1774 1658 1775 1887 1867 1760 1874 1979
8 1870 1766 1648 1756 1980 1877 1763 1868
8 1872 1762 1875 1981 1758 1645 1761 1869
8 1757 1649 1766 1870 1871 1765 1880 1982
8 1983 1879 1764 1873 1871 1765 1647 1759
8 1873 1764 1876 1984 1759 1647 1762 1872
8 1877 1773 1655 1763 1986 1881 1767 1874
8 1775 1659 1776 1888 1874 1767 1881 1986
8 1876 1769 1882 1987 1762 1652 1768 1875
8 1878 1770 1883 1988 1764 1653 1769 1876
8 1880 1772 1656 1766 1989 1886 1773 1877
8 1878 1770 1653 1764 1990 1884 1771 1879
8 1765 1654 1772 1880 1879 1771 1885 1991
8 1778 1664 1779 1890 1887 1775 1888 1997
8 1998 1889 1776 1888 1891 1780 1665 1779
8 1893 1782 1891 2000 1781 1668 1779 1890
8 1894 1783 1892 2001 1782 1669 1780 1891
8 1784 1671 1785 1896 1893 1782 1894 2003
8 1897 1786 1895 2004 1785 1672 1783 1894
8 1790 1675 1789 1904 1896 1785 1897 2006
8 1901 1787 1898 2007 1789 1673 1786 1897
8 1903 1788 1900 2013 1789 1673 1787 1901
8 1792 1676 1791 1906 1903 1788 1902 2016
8 1907 1792 1903 2017 1795 1678 1789 1904
8 1906 1791 1677 1794 2019 1905 1793 1909
8 1907 1792 1678 1795 2020 1906 1794 1910
8 1797 1679 1796 1912 1909 1793 1908 2022
8 1798 1680 1797 1913 1910 1794 1909 2023
8 1800 1682 1799 1915 1912 1796 1911 2025
8 1801 1683 1800 1916 1913 1797 1912 2026
8 1803 1687 1804 1918 1915 1799 1914 2028
8 1802 1686 1803 1917 1916 1800 1915 2029
8 1805 1689 1806 1920 1917 1803 1918 2030
8 1806 1690 1807 1921 1918 1804 1919 2031
8 1808 1692 1809 1922 1920 1806 1921 2032
8 1939 1826 1924 2037 1829 1713 1811 1926
8 1926 1811 1925 2039 1813 1697 1812 1928
8 1944 1829 1926 2040 1828 1712 1813 1929
8 1928 1812 1927 2042 1815 1698 1814 1931
8 1929 1813 1928 2043 1816 1699 1815 1932
8 1931 1814 1930 2044 1818 1700 1817 1933
8 1932 1815 1931 2045 1819 1701 1818 1934
8 1934 1818 1933 2046 1821 1704 1820 1935
8 2048 1936 1823 1937 1977 1864 1750 1865
8 1950 1833 1715 1834 2048 1936 1823 1937
8 1938 1824 1751 1866 2049 1937 1865 1978
8 1835 1716 1824 1938 1951 1834 1937 2049
8 1939 1826 1713 1829 2053 1942 1831 1946
8 1940 1827 1923 2035 2053 1942 1826 1939
8 1945 1830 1946 2058 1828 1712 1829 1944
8 2059 1947 1830 1945 1966 1849 1733 1851
8 1947 1832 1730 1849 2060 1948 1848 1965
8 1947 1832 1948 2060 1830 1714 1831 1946
8 1959 1847 1729 1843 2063 1949 1833 1950
8 1952 1843 1725 1836 2064 1950 1834 1951
8 1836 1725 1843 1952 1953 1842 1958 2066
8 1953 1842 1957 2067 1839 1724 1841 1955
8 1841 1955 1838 1723 1956 2068 1954 1840
8 2068 1956 1859 1967 1954 1840 1743 1852
8 1956 1844 1960 2069 1859 1747 1862 1973
8 1845 1957 1841 1727 1960 2069 1956 1844
8 1728 1842 1957 1845 1846 1958 2071 1961
8 1962 2072 1959 1847 1846 1958 1843 1729
8 1971 1861 1964 2077 1857 1746 1848 1965
8 1854 1741 1857 1969 1966 1849 1965 2078
8 1967 1859 1973 2079 1853 1745 1860 1968
8 1970 1858 1744 1856 2080 1972 1860 1968
8 1969 1857 1742 1855 2081 1971 1858 1970
8 1971 1861 1749 1858 2082 1974 1863 1972
8 1973 1862 1975 2083 1860 1748 1863 1972
8 1987 1882 1976 2086 1875 1768 1864 1977
8 1981 1875 1977 2087 1869 1761 1865 1978
8 1980 1877 1763 1868 2088 1986 1874 1979
8 1887 1775 1888 1997 1979 1874 1986 2088
8 1880 1982 2089 1989 1766 1870 1980 1877
8 1984 1876 1987 2090 1872 1762 1875 1981
8 1765 1871 1983 1879 1880 1982 2091 1991
8 1985 1878 1764 1873 2092 1990 1879 1983
8 1985 1878 1988 2093 1873 1764 1876 1984
8 2094 1992 1881 1986 1998 1889 1776 1888
8 1986 1881 1992 2094 1877 1773 1886 1989
8 1988 1883 1993 2095 1876 1769 1882 1987
8 1878 1770 1884 1990 1988 1883 1994 2096
8 1991 1885 1772 1880 2097 1996 1886 1989
8 1879 1771 1885 1991 1990 1884 1995 2098
8 2103 1998 1888 1997 2000 1891 1779 1890
8 2104 1999 1889 1998 2001 1892 1780 1891
8 2003 1894 2001 2106 1893 1782 1891 2000
8 2004 1895 2002 2107 1894 1783 1892 2001
8 2006 1897 2004 2109 1896 1785 1894 2003
8 2007 1898 2005 2110 1897 1786 1895 2004
8 2014 1901 2007 2112 1904 1789 1897 2006
8 2011 1899 2008 2113 1901 1787 1898 2007
8 2119 2010 1899 2011 2013 1900 1787 1901
8 2016 1902 2012 2122 1903 1788 1900 2013
8 2017 1903 2013 2123 1904 1789 1901 2014
8 1906 1791 1905 2019 2016 1902 2015 2125
8 1907 1792 1906 2020 2017 1903 2016 2126
8 1909 1793 1908 2022 2019 1905 2018 2128
8 2020 1906 1794 1910 2129 2019 1909 2023
8 1912 1796 1911 2025 2022 1908 2021 2131
8 1913 1797 1912 2026 2023 1909 2022 2132
8 1915 1799 1914 2028 2025 1911 2024 2134
8 1916 1800 1915 2029 2026 1912 2025 2135
8 1918 1804 1919 2031 2028 1914 2027 2136
8 1917 1803 1918 2030 2029 1915 2028 2137
8 1920 1806 1921 2032 2030 1918 2031 2138
8 1940 1827 1941 2054 2035 1923 2033 2140
8 2035 1923 2034 2143 1939 1826 1924 2037
8 2037 1924 2036 2146 1926 1811 1925 2039
8 2051 1939 2037 2147 1944 1829 1926 2040
8 2039 1925 2038 2149 1928 1812 1927 2042
8 2040 1926 2039 2150 1929 1813 1928 2043
8 2042 1927 2041 2151 1931 1814 1930 2044
8 2043 1928 2042 2152 1932 1815 1931 2045
8 2045 1931 2044 2153 1934 1818 1933 2046
8 2155 2047 1936 2048 2086 1976 1864 1977
8 2063 1949 1833 1950 2155 2047 1936 2048
8 2156 2048 1937 2049 2087 1977 1865 1978
8 2064 1950 1834 1951 2156 2048 1937 2049
8 2051 1939 1829 1944 2160 2053 1946 2058
8 2052 1940 2035 2144 2160 2053 1939 2051
8 2053 1942 1831 1946 2163 2057 1948 2060
8 2055 1943 1827 1940 2163 2057 1942 2053
8 2055 1943 2056 2164 1940 1827 1941 2054
8 2059 1947 1849 1966 2167 2060 1965 2078
8 2059 1947 2060 2167 1945 1830 1946 2058
8 2077 1964 2061 2168 1965 1848 1948 2060
8 2070 1963 1847 1959 2170 2062 1949 2063
8 2065 1959 1843 1952 2171 2063 1950 2064
8 2173 2072 1958 2066 2065 1959 1843 1952
8 1953 1842 1958 2066 2067 1957 2071 2174
8 2068 1956 2069 2175 1967 1859 1973 2079
8 2067 1957 2069 2175 1955 1841 1956 2068
8 1845 1957 2069 1960 1961 2071 2176 2073
8 2069 1960 2073 2176 1973 1862 1975 2083
8 2070 1963 2075 2177 1959 1847 1962 2072
8 1846 1958 2071 1961 1962 2072 2178 2074
8 2077 1964 1861 1971 2182 2076 1974 2082
8 2081 1971 2077 2183 1969 1857 1965 2078
8 2079 1973 2083 2184 1968 1860 1972 2080
8 2081 1971 1858 1970 2185 2082 1972 2080
8 2083 1975 2084 2186 1972 1863 1974 2082
8 2086 1976 1882 1987 2189 2085 1993 2095
8 2090 1987 2086 2190 1981 1875 1977 2087
8 2191 2094 1986 2088 2103 1998 1888 1997
8 2088 1986 2094 2191 1980 1877 1989 2089
8 1991 2091 2192 2097 1880 1982 2089 1989
8 2093 1988 2095 2193 1984 1876 1987 2090
8 1879 1983 2092 1990 1991 2091 2194 2098
8 1985 1878 1990 2092 2093 1988 2096 2195
8 2097 1996 1886 1989 2196 2099 1992 2094
8 2196 2099 1992 2094 2104 1999 1889 1998
8 1994 2096 1988 1883 2100 2197 2095 1993
8 2096 1994 1884 1990 2198 2101 1995 2098
8 1995 2098 2199 2102 1885 1991 2097 1996
8 2203 2104 1998 2103 2106 2001 1891 2000
8 2107 2002 2105 2204 2001 1892 1999 2104
8 2109 2004 2107 2206 2003 1894 2001 2106
8 2110 2005 2108 2207 2004 1895 2002 2107
8 2112 2007 2110 2209 2006 1897 2004 2109
8 2113 2008 2111 2210 2007 1898 2005 2110
8 2120 2011 2113 2212 2014 1901 2007 2112
8 2117 2009 2114 2213 2011 1899 2008 2113
8 2219 2116 2009 2117 2119 2010 1899 2011
8 2222 2118 2010 2119 2122 2012 1900 2013
8 2223 2119 2011 2120 2123 2013 1901 2014
8 2016 1902 2015 2125 2122 2012 2121 2225
8 2126 2016 2122 2226 2017 1903 2013 2123
8 2019 1905 2018 2128 2125 2015 2124 2228
8 2020 1906 2019 2129 2126 2016 2125 2229
8 2022 1908 2021 2131 2128 2018 2127 2231
8 2023 1909 2022 2132 2129 2019 2128 2232
8 2025 1911 2024 2134 2131 2021 2130 2234
8 2026 1912 2025 2135 2132 2022 2131 2235
8 1914 2028 2134 2024 2027 2136 2236 2133
8 2029 1915 2028 2137 2135 2025 2134 2237
8 2030 1918 2031 2138 2137 2028 2136 2238
8 2157 2050 2139 2240 2054 1941 2033 2140
8 2052 1940 2054 2161 2144 2035 2140 2242
8 2140 2033 2141 2243 2035 1923 2034 2143
8 2143 2034 2142 2246 2037 1924 2036 2146
8 2144 2035 2143 2247 2051 1939 2037 2147
8 2146 2036 2145 2249 2039 1925 2038 2149
8 2147 2037 2146 2250 2040 1926 2039 2150
8 2149 2038 2148 2251 2042 1927 2041 2151
8 2150 2039 2149 2252 2043 1928 2042 2152
8 2152 2042 2151 2253 2045 1931 2044 2153
8 2255 2154 2047 2155 2189 2085 1976 2086
8 2170 2062 1949 2063 2255 2154 2047 2155
8 2256 2155 2048 2156 2190 2086 1977 2087
8 2171 2063 1950 2064 2256 2155 2048 2156
8 2258 2159 2050 2157 2164 2056 1941 2054
8 2160 2053 1946 2058 2262 2163 2060 2167
8 2162 2055 1940 2052 2262 2163 2053 2160
8 2162 2055 2164 2263 2052 1940 2054 2161
8 2163 2057 1948 2060 2264 2165 2061 2168
8 2055 1943 2057 2163 2164 2056 2165 2264
8 2182 2076 2166 2268 2077 1964 2061 2168
8 2183 2077 2168 2269 2078 1965 2060 2167
8 2070 1963 2062 2170 2177 2075 2169 2271
8 2172 2070 1959 2065 2272 2170 2063 2171
8 2172 2070 2177 2273 2065 1959 2072 2173
8 2066 1958 2072 2173 2174 2071 2178 2274
8 2067 1957 2071 2174 2175 2069 2176 2275
8 2175 2069 2176 2275 2079 1973 2083 2184
8 2071 1961 2074 2178 2176 2073 2179 2276
8 2176 2073 2179 2276 2083 1975 2084 2186
8 2072 1962 2075 2177 2178 2074 2180 2277
8 2182 2076 1974 2082 2280 2181 2084 2186
8 2183 2077 1971 2081 2281 2182 2082 2185
8 2184 2083 2186 2282 2080 1972 2082 2185
8 2189 2085 1993 2095 2285 2188 2100 2197
8 2190 2086 1987 2090 2286 2189 2095 2193
8 2192 2097 1989 2089 2287 2196 2094 2191
8 2287 2196 2094 2191 2203 2104 1998 2103
8 2194 2098 1991 2091 2288 2199 2097 2192
8 2195 2096 2197 2289 2093 1988 2095 2193
8 2096 2195 2290 2198 1990 2092 2194 2098
8 2097 1996 2099 2196 2199 2102 2200 2291
8 2196 2099 1999 2104 2291 2200 2105 2204
8 2100 2197 2292 2201 1994 2096 2198 2101
8 1995 2098 2198 2101 2102 2199 2293 2202
8 2206 2107 2204 2296 2106 2001 2104 2203
8 2207 2108 2205 2297 2107 2002 2105 2204
8 2209 2110 2207 2299 2109 2004 2107 2206
8 2210 2111 2208 2300 2110 2005 2108 2207
8 2212 2113 2210 2302 2112 2007 2110 2209
8 2213 2114 2211 2303 2113 2008 2111 2210
8 2220 2117 2213 2305 2120 2011 2113 2212
8 2216 2115 2214 2306 2117 2009 2114 2213
8 2216 2115 2009 2117 2311 2217 2116 2219
8 2219 2116 2010 2119 2314 2218 2118 2222
8 2315 2219 2117 2220 2223 2119 2011 2120
8 2122 2012 2121 2225 2222 2118 2221 2317
8 2318 2222 2119 2223 2226 2122 2013 2123
8 2125 2015 2124 2228 2225 2121 2224 2320
8 2126 2016 2125 2229 2226 2122 2225 2321
8 2128 2018 2127 2231 2228 2124 2227 2323
8 2129 2019 2128 2232 2229 2125 2228 2324
8 2131 2021 2130 2234 2231 2127 2230 2326
8 2132 2022 2131 2235 2232 2128 2231 2327
8 2134 2024 2133 2236 2234 2130 2233 2328
8 2135 2025 2134 2237 2235 2131 2234 2329
8 2137 2028 2136 2238 2237 2134 2236 2330
8 2157 2050 2158 2259 2240 2139 2239 2332
8 2257 2157 2240 2334 2161 2054 2140 2242
8 2240 2139 2241 2335 2140 2033 2141 2243
8 2242 2140 2243 2337 2144 2035 2143 2247
8 2243 2141 2244 2338 2143 2034 2142 2246
8 2246 2142 2245 2341 2146 2036 2145 2249
8 2247 2143 2246 2342 2147 2037 2146 2250
8 2249 2145 2248 2343 2149 2038 2148 2251
8 2250 2146 2249 2344 2150 2039 2149 2252
8 2252 2149 2251 2345 2152 2042 2151 2253
8 2169 2271 2347 2254 2062 2170 2255 2154
8 2189 2085 2188 2285 2255 2154 2254 2347
8 2348 2255 2155 2256 2286 2189 2086 2190
8 2272 2170 2063 2171 2348 2255 2155 2256
8 2349 2258 2157 2257 2263 2164 2054 2161
8 2258 2159 2261 2351 2157 2050 2158 2259
8 2258 2159 2056 2164 2351 2261 2165 2264
8 2262 2163 2060 2167 2355 2264 2168 2269
8 2162 2055 2163 2262 2263 2164 2264 2355
8 2357 2266 2165 2264 2268 2166 2061 2168
8 2268 2166 2076 2182 2361 2267 2181 2280
8 2281 2182 2268 2362 2183 2077 2168 2269
8 2271 2169 2270 2364 2177 2075 2180 2277
8 2172 2070 2170 2272 2273 2177 2271 2365
8 2072 2173 2274 2178 2177 2273 2366 2277
8 2071 2174 2275 2176 2178 2274 2367 2276
8 2275 2176 2276 2367 2184 2083 2186 2282
8 2283 2187 2084 2186 2368 2278 2179 2276
8 2178 2074 2180 2277 2276 2179 2278 2368
8 2283 2187 2279 2370 2186 2084 2181 2280
8 2281 2182 2082 2185 2371 2280 2186 2282
8 2188 2285 2374 2284 2100 2197 2292 2201
8 2286 2189 2095 2193 2375 2285 2197 2289
8 2192 2097 2196 2287 2288 2199 2291 2376
8 2287 2196 2104 2203 2376 2291 2204 2296
8 2194 2098 2199 2288 2290 2198 2293 2377
8 2289 2197 2096 2195 2378 2292 2198 2290
8 2291 2200 2105 2204 2379 2294 2205 2297
8 2199 2102 2200 2291 2293 2202 2294 2379
8 2198 2101 2202 2293 2292 2201 2295 2380
8 2299 2207 2297 2383 2206 2107 2204 2296
8 2300 2208 2298 2384 2207 2108 2205 2297
8 2302 2210 2300 2386 2209 2110 2207 2299
8 2303 2211 2301 2387 2210 2111 2208 2300
8 2305 2213 2303 2389 2212 2113 2210 2302
8 2306 2214 2304 2390 2213 2114 2211 2303
8 2310 2216 2306 2392 2220 2117 2213 2305
8 2308 2215 2307 2393 2216 2115 2214 2306
8 2308 2215 2115 2216 2396 2309 2217 2311
8 2310 2216 2117 2220 2398 2311 2219 2315
8 2311 2217 2116 2219 2399 2312 2218 2314
8 2314 2218 2118 2222 2402 2313 2221 2317
8 2315 2219 2119 2223 2403 2314 2222 2318
8 2225 2121 2224 2320 2317 2221 2316 2405
8 2226 2122 2225 2321 2318 2222 2317 2406
8 2228 2124 2227 2323 2320 2224 2319 2408
8 2229 2125 2228 2324 2321 2225 2320 2409
8 2231 2127 2230 2326 2323 2227 2322 2411
8 2232 2128 2231 2327 2324 2228 2323 2412
8 2234 2130 2233 2328 2326 2230 2325 2413
8 2235 2131 2234 2329 2327 2231 2326 2414
8 2237 2134 2236 2330 2329 2234 2328 2415
8 2259 2158 2260 2352 2332 2239 2331 2417
8 2257 2157 2259 2350 2334 2240 2332 2419
8 2240 2139 2239 2332 2335 2241 2333 2420
8 2334 2240 2335 2422 2242 2140 2243 2337
8 2335 2241 2336 2423 2243 2141 2244 2338
8 2337 2243 2338 2425 2247 2143 2246 2342
8 2338 2244 2339 2426 2246 2142 2245 2341
8 2341 2245 2340 2428 2249 2145 2248 2343
8 2342 2246 2341 2429 2250 2146 2249 2344
8 2344 2249 2343 2430 2252 2149 2251 2345
8 2188 2285 2347 2254 2284 2374 2432 2346
8 2347 2254 2346 2432 2271 2169 2270 2364
8 2365 2271 2170 2272 2433 2347 2255 2348
8 2286 2189 2285 2375 2348 2255 2347 2433
8 2349 2258 2351 2435 2257 2157 2259 2350
8 2349 2258 2164 2263 2435 2351 2264 2355
8 2259 2158 2261 2351 2352 2260 2354 2437
8 2356 2265 2354 2437 2264 2165 2261 2351
8 2441 2357 2264 2355 2362 2268 2168 2269
8 2356 2265 2165 2264 2442 2358 2266 2357
8 2443 2359 2266 2357 2361 2267 2166 2268
8 2370 2279 2360 2446 2280 2181 2267 2361
8 2362 2268 2182 2281 2447 2361 2280 2371
8 2180 2277 2368 2278 2270 2364 2449 2363
8 2271 2365 2273 2177 2364 2450 2366 2277
8 2372 2283 2186 2282 2451 2368 2276 2367
8 2178 2274 2367 2276 2277 2366 2451 2368
8 2283 2187 2278 2368 2370 2279 2369 2452
8 2372 2283 2370 2453 2282 2186 2280 2371
8 2284 2374 2455 2373 2201 2292 2380 2295
8 2375 2285 2197 2289 2456 2374 2292 2378
8 2376 2291 2204 2296 2457 2379 2297 2383
8 2288 2199 2291 2376 2377 2293 2379 2457
8 2198 2290 2378 2292 2293 2377 2458 2380
8 2293 2202 2294 2379 2380 2295 2381 2459
8 2384 2298 2381 2459 2297 2205 2294 2379
8 2386 2300 2384 2463 2299 2207 2297 2383
8 2387 2301 2385 2464 2300 2208 2298 2384
8 2389 2303 2387 2466 2302 2210 2300 2386
8 2390 2304 2388 2467 2303 2211 2301 2387
8 2392 2306 2390 2469 2305 2213 2303 2389
8 2393 2307 2391 2470 2306 2214 2304 2390
8 2395 2308 2393 2472 2310 2216 2306 2392
8 2308 2215 2309 2396 2393 2307 2394 2473
8 2395 2308 2216 2310 2475 2396 2311 2398
8 2396 2309 2217 2311 2476 2397 2312 2399
8 2398 2311 2219 2315 2478 2399 2314 2403
8 2399 2312 2218 2314 2479 2400 2313 2402
8 2317 2221 2316 2405 2402 2313 2401 2482
8 2403 2314 2222 2318 2483 2402 2317 2406
8 2320 2224 2319 2408 2405 2316 2404 2485
8 2321 2225 2320 2409 2406 2317 2405 2486
8 2323 2227 2322 2411 2408 2319 2407 2488
8 2324 2228 2323 2412 2409 2320 2408 2489
8 2326 2230 2325 2413 2411 2322 2410 2490
8 2327 2231 2326 2414 2412 2323 2411 2491
8 2329 2234 2328 2415 2414 2326 2413 2492
8 2417 2331 2260 2352 2494 2416 2353 2438
8 2350 2259 2352 2436 2419 2332 2417 2496
8 2332 2239 2331 2417 2420 2333 2418 2497
8 2334 2240 2332 2419 2422 2335 2420 2499
8 2420 2333 2421 2500 2335 2241 2336 2423
8 2422 2335 2423 2502 2337 2243 2338 2425
8 2423 2336 2424 2503 2338 2244 2339 2426
8 2425 2338 2426 2505 2342 2246 2341 2429
8 2426 2339 2427 2506 2341 2245 2340 2428
8 2429 2341 2428 2507 2344 2249 2343 2430
8 2432 2346 2284 2374 2509 2431 2373 2455
8 2432 2346 2431 2509 2364 2270 2363 2449
8 2375 2285 2374 2456 2433 2347 2432 2510
8 2347 2433 2365 2271 2432 2510 2450 2364
8 2350 2259 2351 2435 2436 2352 2437 2514
8 2440 2356 2437 2514 2355 2264 2351 2435
8 2352 2260 2354 2437 2438 2353 2439 2516
8 2356 2265 2358 2442 2437 2354 2439 2516
8 2440 2356 2264 2355 2518 2442 2357 2441
8 2519 2443 2357 2441 2447 2361 2268 2362
8 2443 2359 2444 2520 2357 2266 2358 2442
8 2443 2359 2267 2361 2520 2444 2360 2446
8 2446 2360 2279 2370 2523 2445 2369 2452
8 2453 2370 2446 2524 2371 2280 2361 2447
8 2449 2363 2448 2525 2368 2278 2369 2452
8 2366 2277 2364 2450 2451 2368 2449 2526
8 2372 2283 2368 2451 2453 2370 2452 2527
8 2455 2373 2295 2380 2529 2454 2382 2460
8 2456 2374 2292 2378 2530 2455 2380 2458
8 2377 2293 2379 2457 2458 2380 2459 2531
8 2463 2384 2459 2531 2383 2297 2379 2457
8 2533 2461 2382 2460 2459 2381 2295 2380
8 2464 2385 2461 2533 2384 2298 2381 2459
8 2466 2387 2464 2537 2386 2300 2384 2463
8 2467 2388 2465 2538 2387 2301 2385 2464
8 2469 2390 2467 2540 2389 2303 2387 2466
8 2470 2391 2468 2541 2390 2304 2388 2467
8 2472 2393 2470 2543 2392 2306 2390 2469
8 2393 2307 2394 2473 2470 2391 2471 2544
8 2395 2308 2396 2475 2472 2393 2473 2546
8 2396 2309 2397 2476 2473 2394 2474 2547
8 2475 2396 2311 2398 2549 2476 2399 2478
8 2476 2397 2312 2399 2550 2477 2400 2479
8 2478 2399 2314 2403 2552 2479 2402 2483
8 2479 2400 2313 2402 2553 2480 2401 2482
8 2405 2316 2404 2485 2482 2401 2481 2556
8 2406 2317 2405 2486 2483 2402 2482 2557
8 2408 2319 2407 2488 2485 2404 2484 2559
8 2409 2320 2408 2489 2486 2405 2485 2560
8 2411 2322 2410 2490 2488 2407 2487 2561
8 2412 2323 2411 2491 2489 2408 2488 2562
8 2414 2326 2413 2492 2491 2411 2490 2563
8 2513 2434 2493 2565 2438 2353 2416 2494
8 2496 2417 2352 2436 2567 2494 2438 2515
8 2494 2416 2495 2568 2417 2331 2418 2497
8 2419 2332 2417 2496 2499 2420 2497 2570
8 2497 2418 2498 2571 2420 2333 2421 2500
8 2499 2420 2500 2573 2422 2335 2423 2502
8 2500 2421 2501 2574 2423 2336 2424 2503
8 2502 2423 2503 2576 2425 2338 2426 2505
8 2503 2424 2504 2577 2426 2339 2427 2506
8 2505 2426 2506 2578 2429 2341 2428 2507
8 2509 2431 2373 2455 2580 2508 2454 2529
8 2509 2431 2508 2580 2449 2363 2448 2525
8 2432 2510 2581 2509 2374 2456 2530 2455
8 2432 2510 2450 2364 2509 2581 2526 2449
8 2583 2511 2434 2513 2516 2439 2353 2438
8 2436 2352 2437 2514 2515 2438 2516 2588
8 2440 2356 2442 2518 2514 2437 2516 2588
8 2442 2358 2444 2520 2516 2439 2517 2589
8 2519 2443 2520 2591 2441 2357 2442 2518
8 2519 2443 2361 2447 2591 2520 2446 2524
8 2446 2360 2445 2523 2520 2444 2521 2592
8 2525 2448 2522 2593 2452 2369 2445 2523
8 2524 2446 2370 2453 2594 2523 2452 2527
8 2526 2449 2525 2595 2451 2368 2452 2527
8 2534 2462 2528 2597 2460 2382 2454 2529
8 2530 2455 2380 2458 2598 2529 2460 2532
8 2599 2533 2460 2532 2531 2459 2380 2458
8 2537 2464 2533 2599 2463 2384 2459 2531
8 2534 2462 2382 2460 2601 2535 2461 2533
8 2538 2465 2535 2601 2464 2385 2461 2533
8 2540 2467 2538 2604 2466 2387 2464 2537
8 2541 2468 2539 2605 2467 2388 2465 2538
8 2543 2470 2541 2607 2469 2390 2467 2540
8 2470 2391 2471 2544 2541 2468 2542 2608
8 2472 2393 2473 2546 2543 2470 2544 2610
8 2473 2394 2474 2547 2544 2471 2545 2611
8 2475 2396 2476 2549 2546 2473 2547 2613
8 2476 2397 2477 2550 2547 2474 2548 2614
8 2549 2476 2399 2478 2616 2550 2479 2552
8 2479 2400 2480 2553 2550 2477 2551 2617
8 2552 2479 2402 2483 2619 2553 2482 2557
8 2482 2401 2481 2556 2553 2480 2554 2620
8 2485 2404 2484 2559 2556 2481 2555 2623
8 2486 2405 2485 2560 2557 2482 2556 2624
8 2488 2407 2487 2561 2559 2484 2558 2625
8 2489 2408 2488 2562 2560 2485 2559 2626
8 2491 2411 2490 2563 2562 2488 2561 2627
8 2513 2434 2512 2585 2565 2493 2564 2630
8 2586 2513 2565 2632 2515 2438 2494 2567
8 2565 2493 2566 2633 2494 2416 2495 2568
8 2567 2494 2568 2635 2496 2417 2497 2570
8 2568 2495 2569 2636 2497 2418 2498 2571
8 2570 2497 2571 2638 2499 2420 2500 2573
8 2571 2498 2572 2639 2500 2421 2501 2574
8 2573 2500 2574 2641 2502 2423 2503 2576
8 2574 2501 2575 2642 2503 2424 2504 2577
8 2576 2503 2577 2643 2505 2426 2506 2578
8 2597 2528 2579 2645 2529 2454 2508 2580
8 2580 2508 2579 2645 2525 2448 2522 2593
8 2581 2509 2455 2530 2646 2580 2529 2598
8 2581 2509 2580 2646 2526 2449 2525 2595
8 2583 2511 2582 2648 2513 2434 2512 2585
8 2583 2511 2439 2516 2648 2582 2517 2589
8 2649 2583 2513 2586 2588 2516 2438 2515
8 2589 2517 2444 2520 2653 2587 2521 2592
8 2518 2442 2520 2591 2588 2516 2589 2654
8 2593 2522 2590 2655 2523 2445 2521 2592
8 2524 2446 2523 2594 2591 2520 2592 2656
8 2595 2525 2593 2657 2527 2452 2523 2594
8 2602 2536 2596 2659 2534 2462 2528 2597
8 2600 2534 2597 2660 2532 2460 2529 2598
8 2600 2534 2460 2532 2661 2601 2533 2599
8 2604 2538 2601 2661 2537 2464 2533 2599
8 2602 2536 2462 2534 2663 2603 2535 2601
8 2601 2535 2465 2538 2663 2603 2539 2605
8 2607 2541 2605 2665 2540 2467 2538 2604
8 2608 2542 2606 2666 2541 2468 2539 2605
8 2543 2470 2544 2610 2607 2541 2608 2668
8 2544 2471 2545 2611 2608 2542 2609 2669
8 2546 2473 2547 2613 2610 2544 2611 2671
8 2547 2474 2548 2614 2611 2545 2612 2672
8 2549 2476 2550 2616 2613 2547 2614 2674
8 2550 2477 2551 2617 2614 2548 2615 2675
8 2552 2479 2553 2619 2616 2550 2617 2677
8 2553 2480 2554 2620 2617 2551 2618 2678
8 2557 2482 2556 2624 2619 2553 2620 2680
8 2556 2481 2555 2623 2620 2554 2621 2681
8 2559 2484 2558 2625 2623 2555 2622 2683
8 2560 2485 2559 2626 2624 2556 2623 2684
8 2562 2488 2561 2627 2626 2559 2625 2685
8 2690 2629 2564 2630 2650 2584 2512 2585
8 2586 2513 2585 2651 2632 2565 2630 2691
8 2630 2564 2631 2692 2565 2493 2566 2633
8 2632 2565 2633 2694 2567 2494 2568 2635
8 2633 2566 2634 2695 2568 2495 2569 2636
8 2635 2568 2636 2697 2570 2497 2571 2638
8 2636 2569 2637 2698 2571 2498 2572 2639
8 2638 2571 2639 2700 2573 2500 2574 2641
8 2639 2572 2640 2701 2574 2501 2575 2642
8 2641 2574 2642 2702 2576 2503 2577 2643
8 2597 2528 2596 2659 2645 2579 2644 2704
8 2645 2579 2644 2704 2593 2522 2590 2655
8 2660 2597 2645 2705 2598 2529 2580 2646
8 2646 2580 2645 2705 2595 2525 2593 2657
8 2650 2584 2512 2585 2707 2647 2582 2648
8 2648 2582 2517 2589 2707 2647 2587 2653
8 2649 2583 2648 2708 2586 2513 2585 2651
8 2649 2583 2516 2588 2708 2648 2589 2654
8 2655 2590 2652 2710 2592 2521 2587 2653
8 2654 2589 2520 2591 2711 2653 2592 2656
8 2657 2593 2655 2712 2594 2523 2592 2656
8 2602 2536 2603 2663 2659 2596 2658 2714
8 2662 2602 2659 2715 2600 2534 2597 2660
8 2662 2602 2534 2600 2717 2663 2601 2661
8 2661 2601 2538 2604 2717 2663 2605 2665
8 2666 2606 2664 2718 2605 2539 2603 2663
8 2668 2608 2666 2720 2607 2541 2605 2665
8 2608 2542 2609 2669 2666 2606 2667 2721
8 2610 2544 2611 2671 2668 2608 2669 2723
8 2611 2545 2612 2672 2669 2609 2670 2724
8 2613 2547 2614 2674 2671 2611 2672 2726
8 2614 2548 2615 2675 2672 2612 2673 2727
8 2616 2550 2617 2677 2674 2614 2675 2729
8 2617 2551 2618 2678 2675 2615 2676 2730
8 2619 2553 2620 2680 2677 2617 2678 2732
8 2620 2554 2621 2681 2678 2618 2679 2733
8 2624 2556 2623 2684 2680 2620 2681 2735
8 2681 2621 2555 2623 2736 2682 2622 2683
8 2626 2559 2625 2685 2684 2623 2683 2737
8 2688 2628 2584 2650 2740 2686 2647 2707
8 2688 2628 2687 2742 2650 2584 2629 2690
8 2690 2629 2689 2745 2630 2564 2631 2692
8 2746 2690 2630 2691 2709 2650 2585 2651
8 2691 2630 2692 2747 2632 2565 2633 2694
8 2692 2631 2693 2748 2633 2566 2634 2695
8 2694 2633 2695 2750 2635 2568 2636 2697
8 2695 2634 2696 2751 2636 2569 2637 2698
8 2697 2636 2698 2753 2638 2571 2639 2700
8 2698 2637 2699 2754 2639 2572 2640 2701
8 2700 2639 2701 2755 2641 2574 2642 2702
8 2659 2596 2658 2714 2704 2644 2703 2757
8 2704 2644 2703 2757 2655 2590 2652 2710
8 2660 2597 2659 2715 2705 2645 2704 2758
8 2705 2645 2704 2758 2657 2593 2655 2712
8 2759 2706 2647 2707 2710 2652 2587 2653
8 2709 2650 2585 2651 2760 2707 2648 2708
8 2708 2648 2589 2654 2760 2707 2653 2711
8 2712 2655 2710 2761 2656 2592 2653 2711
8 2763 2713 2658 2714 2718 2664 2603 2663
8 2662 2602 2663 2717 2715 2659 2714 2764
8 2720 2666 2718 2767 2665 2605 2663 2717
8 2768 2719 2664 2718 2721 2667 2606 2666
8 2668 2608 2669 2723 2720 2666 2721 2770
8 2669 2609 2670 2724 2721 2667 2722 2771
8 2671 2611 2672 2726 2723 2669 2724 2773
8 2672 2612 2673 2727 2724 2670 2725 2774
8 2674 2614 2675 2729 2726 2672 2727 2776
8 2675 2615 2676 2730 2727 2673 2728 2777
8 2677 2617 2678 2732 2729 2675 2730 2779
8 2678 2618 2679 2733 2730 2676 2731 2780
8 2680 2620 2681 2735 2732 2678 2733 2782
8 2733 2679 2621 2681 2783 2734 2682 2736
8 2735 2681 2623 2684 2784 2736 2683 2737
8 2740 2686 2647 2707 2787 2738 2706 2759
8 2688 2628 2686 2740 2742 2687 2739 2789
8 2743 2688 2650 2709 2790 2740 2707 2760
8 2742 2687 2741 2792 2690 2629 2689 2745
8 2743 2688 2742 2793 2709 2650 2690 2746
8 2745 2689 2744 2795 2692 2631 2693 2748
8 2746 2690 2745 2796 2691 2630 2692 2747
8 2747 2692 2748 2797 2694 2633 2695 2750
8 2748 2693 2749 2798 2695 2634 2696 2751
8 2750 2695 2751 2800 2697 2636 2698 2753
8 2751 2696 2752 2801 2698 2637 2699 2754
8 2753 2698 2754 2802 2700 2639 2701 2755
8 2763 2713 2756 2804 2714 2658 2703 2757
8 2759 2706 2652 2710 2804 2756 2703 2757
8 2715 2659 2714 2764 2758 2704 2757 2805
8 2758 2704 2757 2805 2712 2655 2710 2761
8 2806 2759 2707 2760 2761 2710 2653 2711
8 2765 2716 2762 2808 2718 2664 2713 2763
8 2809 2763 2714 2764 2767 2718 2663 2717
8 2765 2716 2664 2718 2811 2766 2719 2768
8 2813 2768 2718 2767 2770 2721 2666 2720
8 2814 2769 2719 2768 2771 2722 2667 2721
8 2723 2669 2724 2773 2770 2721 2771 2816
8 2724 2670 2725 2774 2771 2722 2772 2817
8 2726 2672 2727 2776 2773 2724 2774 2819
8 2727 2673 2728 2777 2774 2725 2775 2820
8 2729 2675 2730 2779 2776 2727 2777 2822
8 2730 2676 2731 2780 2777 2728 2778 2823
8 2732 2678 2733 2782 2779 2730 2780 2825
8 2780 2731 2679 2733 2826 2781 2734 2783
8 2782 2733 2681 2735 2827 2783 2736 2784
8 2830 2785 2738 2787 2804 2756 2706 2759
8 2789 2739 2686 2740 2832 2786 2738 2787
8 2790 2740 2707 2760 2833 2787 2759 2806
8 2742 2687 2739 2789 2792 2741 2788 2835
8 2743 2688 2740 2790 2793 2742 2789 2836
8 2792 2741 2791 2838 2745 2689 2744 2795
8 2793 2742 2792 2839 2746 2690 2745 2796
8 2795 2744 2794 2841 2748 2693 2749 2798
8 2796 2745 2795 2842 2747 2692 2748 2797
8 2797 2748 2798 2843 2750 2695 2751 2800
8 2798 2749 2799 2844 2751 2696 2752 2801
8 2800 2751 2801 2845 2753 2698 2754 2802
8 2808 2762 2803 2847 2763 2713 2756 2804
8 2809 2763 2804 2848 2764 2714 2757 2805
8 2806 2759 2710 2761 2848 2804 2757 2805
8 2765 2716 2766 2811 2808 2762 2807 2850
8 2810 2765 2808 2851 2767 2718 2763 2809
8 2810 2765 2718 2767 2852 2811 2768 2813
8 2811 2766 2719 2768 2853 2812 2769 2814
8 2855 2814 2768 2813 2816 2771 2721 2770
8 2856 2815 2769 2814 2817 2772 2722 2771
8 2773 2724 2774 2819 2816 2771 2817 2858
8 2774 2725 2775 2820 2817 2772 2818 2859
8 2776 2727 2777 2822 2819 2774 2820 2861
8 2777 2728 2778 2823 2820 2775 2821 2862
8 2779 2730 2780 2825 2822 2777 2823 2864
8 2823 2778 2731 2780 2865 2824 2781 2826
8 2825 2780 2733 2782 2866 2826 2783 2827
8 2869 2828 2785 2830 2847 2803 2756 2804
8 2871 2829 2786 2832 2830 2785 2738 2787
8 2872 2830 2787 2833 2848 2804 2759 2806
8 2789 2739 2786 2832 2835 2788 2831 2874
8 2836 2789 2740 2790 2875 2832 2787 2833
8 2792 2741 2788 2835 2838 2791 2834 2877
8 2793 2742 2789 2836 2839 2792 2835 2878
8 2838 2791 2837 2880 2795 2744 2794 2841
8 2839 2792 2838 2881 2796 2745 2795 2842
8 2841 2794 2840 2882 2798 2749 2799 2844
8 2842 2795 2841 2883 2797 2748 2798 2843
8 2843 2798 2844 2884 2800 2751 2801 2845
8 2886 2846 2803 2847 2850 2807 2762 2808
8 2851 2808 2847 2887 2809 2763 2804 2848
8 2850 2807 2766 2811 2889 2849 2812 2853
8 2810 2765 2811 2852 2851 2808 2850 2890
8 2852 2811 2768 2813 2891 2853 2814 2855
8 2853 2812 2769 2814 2892 2854 2815 2856
8 2894 2856 2814 2855 2858 2817 2771 2816
8 2817 2772 2818 2859 2856 2815 2857 2895
8 2819 2774 2820 2861 2858 2817 2859 2897
8 2820 2775 2821 2862 2859 2818 2860 2898
8 2822 2777 2823 2864 2861 2820 2862 2900
8 2823 2778 2824 2865 2862 2821 2863 2901
8 2864 2823 2780 2825 2902 2865 2826 2866
8 2904 2867 2828 2869 2886 2846 2803 2847
8 2869 2828 2868 2906 2830 2785 2829 2871
8 2907 2869 2830 2872 2887 2847 2804 2848
8 2871 2829 2870 2909 2832 2786 2831 2874
8 2910 2871 2832 2875 2872 2830 2787 2833
8 2835 2788 2831 2874 2877 2834 2873 2912
8 2836 2789 2832 2875 2878 2835 2874 2913
8 2877 2834 2876 2915 2838 2791 2837 2880
8 2839 2792 2835 2878 2881 2838 2877 2916
8 2880 2837 2879 2917 2841 2794 2840 2882
8 2881 2838 2880 2918 2842 2795 2841 2883
8 2883 2841 2882 2919 2843 2798 2844 2884
8 2921 2885 2846 2886 2889 2849 2807 2850
8 2922 2886 2847 2887 2890 2850 2808 2851
8 2889 2849 2812 2853 2924 2888 2854 2892
8 2890 2850 2811 2852 2925 2889 2853 2891
8 2891 2853 2814 2855 2926 2892 2856 2894
8 2892 2854 2815 2856 2927 2893 2857 2895
8 2858 2817 2859 2897 2894 2856 2895 2929
8 2859 2818 2860 2898 2895 2857 2896 2930
8 2861 2820 2862 2900 2897 2859 2898 2932
8 2862 2821 2863 2901 2898 2860 2899 2933
8 2864 2823 2865 2902 2900 2862 2901 2934
8 2904 2867 2846 2886 2936 2903 2885 2921
8 2904 2867 2903 2936 2869 2828 2868 2906
8 2937 2904 2869 2907 2922 2886 2847 2887
8 2906 2868 2905 2939 2871 2829 2870 2909
8 2907 2869 2906 2940 2872 2830 2871 2910
8 2909 2870 2908 2942 2874 2831 2873 2912
8 2910 2871 2909 2943 2875 2832 2874 2913
8 2912 2873 2911 2945 2877 2834 2876 2915
8 2878 2835 2874 2913 2916 2877 2912 2946
8 2915 2876 2914 2947 2880 2837 2879 2917
8 2916 2877 2915 2948 2881 2838 2880 2918
8 2918 2880 2917 2949 2883 2841 2882 2919
8 2921 2885 2849 2889 2951 2920 2888 2924
8 2952 2921 2886 2922 2925 2889 2850 2890
8 2924 2888 2854 2892 2954 2923 2893 2927
8 2925 2889 2853 2891 2955 2924 2892 2926
8 2926 2892 2856 2894 2956 2927 2895 2929
8 2895 2857 2896 2930 2927 2893 2928 2957
8 2897 2859 2898 2932 2929 2895 2930 2959
8 2898 2860 2899 2933 2930 2896 2931 2960
8 2900 2862 2901 2934 2932 2898 2933 2961
8 2936 2903 2885 2921 2963 2935 2920 2951
8 2936 2903 2935 2963 2906 2868 2905 2939
8 2937 2904 2886 2922 2964 2936 2921 2952
8 2937 2904 2936 2964 2907 2869 2906 2940
8 2939 2905 2938 2966 2909 2870 2908 2942
8 2940 2906 2939 2967 2910 2871 2909 2943
8 2942 2908 2941 2969 2912 2873 2911 2945
8 2943 2909 2942 2970 2913 2874 2912 2946
8 2945 2911 2944 2971 2915 2876 2914 2947
8 2946 2912 2945 2972 2916 2877 2915 2948
8 2948 2915 2947 2973 2918 2880 2917 2949
8 2951 2920 2888 2924 2975 2950 2923 2954
8 2952 2921 2889 2925 2976 2951 2924 2955
8 2927 2893 2928 2957 2954 2923 2953 2978
8 2955 2924 2892 2926 2979 2954 2927 2956
8 2929 2895 2930 2959 2956 2927 2957 2980
8 2930 2896 2931 2960 2957 2928 2958 2981
8 2932 2898 2933 2961 2959 2930 2960 2982
8 2951 2920 2950 2975 2963 2935 2962 2984
8 2963 2935 2962 2984 2939 2905 2938 2966
8 2964 2936 2921 2952 2985 2963 2951 2976
8 2964 2936 2963 2985 2940 2906 2939 2967
8 2966 2938 2965 2987 2942 2908 2941 2969
8 2967 2939 2966 2988 2943 2909 2942 2970
8 2969 2941 2968 2989 2945 2911 2944 2971
8 2970 2942 2969 2990 2946 2912 2945 2972
8 2972 2945 2971 2991 2948 2915 2947 2973
8 2954 2923 2953 2978 2975 2950 2974 2993
8 2976 2951 2924 2955 2994 2975 2954 2979
8 2957 2928 2958 2981 2978 2953 2977 2995
8 2956 2927 2957 2980 2979 2954 2978 2996
8 2959 2930 2960 2982 2980 2957 2981 2997
8 2984 2962 2983 2999 2966 2938 2965 2987
8 2975 2950 2974 2993 2984 2962 2983 2999
8 2976 2951 2975 2994 2985 2963 2984 3000
8 2985 2963 2984 3000 2967 2939 2966 2988
8 2987 2965 2986 3001 2969 2941 2968 2989
8 2988 2966 2987 3002 2970 2942 2969 2990
8 2990 2969 2989 3003 2972 2945 2971 2991
8 2978 2953 2977 2995 2993 2974 2992 3004
8 2979 2954 2978 2996 2994 2975 2993 3005
8 2980 2957 2981 2997 2996 2978 2995 3006
8 2974 2993 2999 2983 2992 3004 3007 2998
8 2983 2999 2987 2965 2998 3007 3001 2986
8 3000 2984 2999 3008 2988 2966 2987 3002
8 2994 2975 2993 3005 3000 2984 2999 3008
8 3002 2987 3001 3009 2990 2969 2989 3003
8 2996 2978 2995 3006 3005 2993 3004 3010
8 3005 2993 3004 3010 3008 2999 3007 3011
8 3008 2999 3007 3011 3002 2987 3001 3009

CELL_TYPES 1910
12
12
12
12
12
12
12
12
12
12
12
12
12
12
12
12
12
12
12
12
12
12
12
12
12
12
12
12
12
12
12
12
12
12
12
12
12
12
12
12
12
12
12
12
12
12
12
12
12
12
12
12
12
12
12
12
12
12
12
12
12
12
12
12
12
12
12
12
12
12
12
12
12
12
12
12
12
12
12
12
12
12
12
12
12
12
12
12
12
12
12
12
12
12
12
12
12
12
12
12
12
12
12
12
12
12
12
12
12
12
12
12
12
12
12
12
12
12
12
12
12
12
12
12
12
12
12
12
12
12
12
12
12
12
12
12
12
12
12
12
12
12
12
12
12
12
12
12
12
12
12
12
12
12
12
12
12
12
12
12
12
12
12
12
12
12
12
12
12
12
12
12
12
12
12
12
12
12
12
12
12
12
12
12
12
12
12
12
12
12
12
12
12
12
12
12
12
12
12
12
12
12
12
12
12
12
12
12
12
12
12
12
12
12
12
12
12
12
12
12
12
12
12
12
12
12
12
12
12
12
12
12
12
12
12
12
12
12
12
12
12
12
12
12
12
12
12
12
12
12
12
12
12
12
12
12
12
12
12
12
12
12
12
12
12
12
12
12
12
12
12
12
12
12
12
12
12
12
12
12
12
12
12
12
12
12
12
12
12
12
12
12
12
12
12
12
12
12
12
12
12
12
12
12
12
12
12
12
12
12
12
12
12
12
12
12
12
12
12
12
12
12
12
12
12
12
12
12
12
12
12
12
12
12
12
12
12
12
12
12
12
12
12
12
12
12
12
12
12
12
12
12
12
12
12
12
12
12
12
12
12
12
12
12
12
12
12
12
12
12
12
12
12
12
12
12
12
12
12
12
12
12
12
12
12
12
12
12
12
12
12
12
12
12
12
12
12
12
12
12
12
12
12
12
12
12
12
12
12
12
12
12
12
12
12
12
12
12
12
12
12
12
12
12
12
12
12
12
12
12
12
12
12
12
12
12
12
12
12
12
12
12
12
12
12
12
12
12
12
12
12
12
12
12
12
12
12
12
12
12
12
12
12
12
12
12
12
12
12
12
12
12
12
12
12
12
12
12
12
12
12
12
12
12
12
12
12
12
12
12
12
12
12
12
12
12
12
12
12
12
12
12
12
12
12
12
12
12
12
12
12
12
12
12
12
12
12
12
12
12
12
12
12
12
12
12
12
12
12
12
12
12
12
12
12
12
12
12
12
12
12
12
12
12
12
12
12
12
12
12
12
12
12
12
12
12
12
12
12
12
12
12
12
12
12
12
12
12
12
12
12
12
12
12
12
12
12
12
12
12
12
12
12
12
12
12
12
12
12
12
12
12
12
12
12
12
12
12
12
12
12
12
12
12
12
12
12
12
12
12
12
12
12
12
12
12
12
12
12
12
12
12
12
12
12
12
12
12
12
12
12
12
12
12
12
12
12
12
12
12
12
12
12
12
12
12
12
12
12
12
12
12
12
12
12
12
12
12
12
12
12
12
12
12
12
12
12
12
12
12
12
12
12
12
12
12
12
12
12
12
12
12
12
12
12
12
12
12
12
12
12
12
12
12
12
12
12
12
12
12
12
12
12
12
12
12
12
12
12
12
12
12
12
12
12
12
12
12
12
12
12
12
12
12
12
12
12
12
12
12
12
12
12
12
12
12
12
12
12
12
12
12
12
12
12
12
12
12
12
12
12
12
12
12
12
12
12
12
12
12
12
12
12
12
12
12
12
12
12
12
12
12
12
12
12
12
12
12
12
12
12
12
12
12
12
12
12
12
12
12
12
12
12
12
12
12
12
12
12
12
12
12
12
12
12
12
12
12
12
12
12
12
12
12
12
12
12
12
12
12
12
12
12
12
12
12
12
12
12
12
12
12
12
12
12
12
12
12
12
12
12
12
12
12
12
12
12
12
12
12
12
12
12
12
12
12
12
12
12
12
12
12
12
12
12
12
12
12
12
12
12
12
12
12
12
12
12
12
12
12
12
12
12
12
12
12
12
12
12
12
12
12
12
12
12
12
12
12
12
12
12
12
12
12
12
12
12
12
12
12
12
12
12
12
12
12
12
12
12
12
12
12
12
12
12
12
12
12
12
12
12
12
12
12
12
12
12
12
12
12
12
12
12
12
12
12
12
12
12
12
12
12
12
12
12
12
12
12
12
12
12
12
12
12
12
12
12
12
12
12
12
12
12
12
12
12
12
12
12
12
12
12
12
12
12
12
12
12
12
12
12
12
12
12
12
12
12
12
12
12
12
12
12
12
12
12
12
12
12
12
12
12
12
12
12
12
12
12
12
12
12
12
12
12
12
12
12
12
12
12
12
12
12
12
12
12
12
12
12
12
12
12
12
12
12
12
12
12
12
12
12
12
12
12
12
12
12
12
12
12
12
12
12
12
12
12
12
12
12
12
12
12
12
12
12
12
12
12
12
12
12
12
12
12
12
12
12
12
12
12
12
12
12
12
12
12
12
12
12
12
12
12
12
12
12
12
12
12
12
12
12
12
12
12
12
12
12
12
12
12
12
12
12
12
12
12
12
12
12
12
12
12
12
12
12
12
12
12
12
12
12
12
12
12
12
12
12
12
12
12
12
12
12
12
12
12
12
12
12
12
12
12
12
12
12
12
12
12
12
12
12
12
12
12
12
12
12
12
12
12
12
12
12
12
12
12
12
12
12
12
12
12
12
12
12
12
12
12
12
12
12
12
12
12
12
12
12
12
12
12
12
12
12
12
12
12
12
12
12
12
12
12
12
12
12
12
12
12
12
12
12
12
12
12
12
12
12
12
12
12
12
12
12
12
12
12
12
12
12
12
12
12
12
12
12
12
12
12
12
12
12
12
12
12
12
12
12
12
12
12
12
12
12
12
12
12
12
12
12
12
12
12
12
12
12
12
12
12
12
12
12
12
12
12
12
12
12
12
12
12
12
12
12
12
12
12
12
12
12
12
12
12
12
12
12
12
12
12
12
12
12
12
12
12
12
12
12
12
12
12
12
12
12
12
12
12
12
12
12
12
12
12
12
12
12
12
12
12
12
12
12
12
12
12
12
12
12
12
12
12
12
12
12
12
12
12
12
12
12
12
12
12
12
12
12
12
12
12
12
12
12
12
12
12
12
12
12
12
12
12
12
12
12
12
12
12
12
12
12
12
12
12
12
12
12
12
12
12
12
12
12
12
12
12
12
12
12
12
12
12
12
12
12
12
12
12
12
12
12
12
12
12
12
12
12
12
12
12
12
12
12
12
12
12
12
12
12
12
12
12
12
12
12
12
12
12
12
12
12
12
12
12
12
12
12
12
12
12
12
12
12
12
12
12
12
12
12
12
12
12
12
12
12
12
12
12
12
12
12
12
12
12
12
12
12
12
12
12
12
12
12
12
12
12
12
12
12
12
12
12
12
12
12
12
12
12
12
12
12
12
12
12
12
12
12
12
12
12
12
12
12
12
12
12
12
12
12
12
12
12
12
12
12
12
12
12
12
12
12
12
12
12
12
12
12
12
12
12
12
12
12
12
12
12
12
12
12
12
12
12
12
12
12
12
12
12
12
12
12
12
12
12
12
12
12
12
12
12
12
12
12
12
12
12
12
12
12
12
12
12
12
12
12
12
12
12
12
12
12
12
12
12
12
12
12
12
12
12
12
12
12
12
12
12
12
12
12
12
12
12
12
12
12
12
12
12
12
12
12
12
12
12
12
12
12
12
12
12
12
12
12
12
12
12
12
12
12
12
12
12
12
12
12
12
12
12
12
12
12
12
12
12
12
12
12
12
12
12
12
12
12
12
12
12
12
12
12
12
12
12
12
12
12
12
12
12
12
12
12
12
12
12
12
12
12
12
12
12
12
12
12
12
12
12
12
12
12
12
12
12
12
12
12
12
12
12
12
12
12
12
12
12
12
12
12
12
12
12
12
12
12
12
12
12
12
12
12
12
12
12
12
12
12
12
12
12
12
12
12
12
12
12
12
12
12
12
12
12
12
12
12
12
12
12
12
12
12
12
12
12
12
12
12
12
12
12
12
12
12
12
12
12
12
12
12
12
12
12
12
12
12
12
12
12
12
12
12
12
12
12
12
12
12
12
12
12
12
12
12
12
12
12
12
12
12
12
12
12
12
12
12
12
12
12
12
12
12
12
12
12
12
12
12
12
12
12
12
12
12
12
12
12
12
12
12
12
12
12
12
12
12
12
12
12
12
12
12
12
12
12
12
12
12
12
12
12
12
12
12
12
12
12
12
12
12
12
12
12
12
12
12
12
12
12
12
12
12
12
12
12
12
12
12
12
12
12
12
12
12
12

POINT_DATA 3012
SCALARS Jp_lamdaP float 4
LOOKUP_TABLE default
0.999955 1 1 0.999955
1 1 1 1
0.999957 1 1 0.999957
0.999927 1 1 0.999927
0.99995 1 1 0.99995
0.999962 1 1 0.999962
0.999653 1 1 0.999653
1 1 1 1
1 1 1 1
1 1 1 1
0.999998 1 1 0.999998
0.999816 1 1 0.999816
0.999888 1 1 0.999888
0.99992 1 1 0.99992
0.999958 1 1 0.999958
0.999934 1 1 0.999934
0.999966 1 1 0.999966
0.999954 1 1 0.999954
0.999657 1 1 0.999657
1 1 1 1
0.999915 1 1 0.999915
0.99994 1 1 0.99994
0.999537 1 1 0.999537
0.999618 1 1 0.999618
0.999981 1 1 0.999981
0.999702 1 1 0.999702
0.999162 1 1 0.999162
1 1 1 1
0.999968 1 1 0.999968
0.999982 1 1 0.999982
1 1 1 1
0.999824 1 1 0.999824
0.999933 1 1 0.999933
0.999955 1 1 0.999955
0.999697 1 1 0.999697
1 1 1 1
0.999787 1 1 0.999787
0.999874 1 1 0.999874
0.999259 1 1 0.999259
1 1 1 1
1 1 1 1
0.999958 1 1 0.999958
1 1 1 1
0.999909 1 1 0.999909
0.999484 1 1 0.999484
1 1 1 1
0.999625 1 1 0.999625
0.99994 1 1 0.99994
0.999956 1 1 0.999956
0.999968 1 1 0.999968
0.999661 1 1 0.999661
0.999944 1 1 0.999944
0.999923 1 1 0.999923
0.999985 1 1 0.999985
0.999946 1 1 0.999946
0.999539 1 1 0.999539
0.999707 1 1 0.999707
0.999621 1 1 0.999621
0.999148 1 1 0.999148
1 1 1 1
0.999901 1 1 0.999901
0.999574 1 1 0.999574
0.999512 1 1 0.999512
0.999576 1 1 0.999576
0.998885 1 1 0.998885
0.99902 1 1 0.99902
0.999998 1 1 0.999998
0.999795 1 1 0.999795
0.999276 1 1 0.999276
0.998655 1 1 0.998655
1 1 1 1
1 1 1 1
1 1 1 1
0.999831 1 1 0.999831
1 1 1 1
1 1 1 1
0.999672 1 1 0.999672
1 1 1 1
0.999777 1 1 0.999777
0.99989 1 1 0.99989
0.999257 1 1 0.999257
1 1 1 1
0.999997 1 1 0.999997
0.999625 1 1 0.999625
0.99971 1 1 0.99971
0.998897 1 1 0.998897
0.999938 1 1 0.999938
0.999175 1 1 0.999175
0.999345 1 1 0.999345
0.998905 1 1 0.998905
1 1 1 1
1 1 1 1
1 1 1 1
1 1 1 1
1 1 1 1
0.999951 1 1 0.999951
0.999528 1 1 0.999528
0.999962 1 1 0.999962
0.999608 1 1 0.999608
1 1 1 1
0.999455 1 1 0.999455
0.999593 1 1 0.999593
0.998583 1 1 0.998583
0.999649 1 1 0.999649
0.99869 1 1 0.99869
0.9999 1 1 0.9999
0.99993 1 1 0.99993
0.999989 1 1 0.999989
0.99995 1 1 0.99995
0.999541 1 1 0.999541
0.999625 1 1 0.999625
0.999711 1 1 0.999711
0.999134 1 1 0.999134
1 1 1 1
0.999909 1 1 0.999909
0.999479 1 1 0.999479
0.999512 1 1 0.999512
0.999999 1 1 0.999999
0.999828 1 1 0.999828
0.999579 1 1 0.999579
0.998856 1 1 0.998856
0.999257 1 1 0.999257
0.99904 1 1 0.99904
0.998657 1 1 0.998657
0.999473 1 1 0.999473
0.999487 1 1 0.999487
0.998686 1 1 0.998686
0.998791 1 1 0.998791
0.998911 1 1 0.998911
0.998552 1.00014 1 0.998414
1 1 1 1
0.998576 1 1 0.998576
0.999928 1 1 0.999928
0.999339 1 1 0.999339
0.998739 1 1 0.998739
0.998924 1.00047 1 0.998451
0.999981 1 1 0.999981
0.99961 1 1 0.99961
1 1 1 1
1 1 1 1
0.999679 1 1 0.999679
1 1 1 1
0.999904 1 1 0.999904
0.999781 1 1 0.999781
0.999255 1 1 0.999255
1 1 1 1
0.999999 1 1 0.999999
0.999651 1 1 0.999651
0.999735 1 1 0.999735
0.9989 1 1 0.9989
0.999952 1 1 0.999952
0.999177 1 1 0.999177
0.999345 1 1 0.999345
0.998892 1 1 0.998892
0.99998 1 1 0.99998
1 1 1 1
0.999697 1 1 0.999697
0.998792 1 1 0.998792
0.999042 1 1 0.999042
0.998891 1.00041 1 0.998482
0.999457 1 1 0.999457
0.998804 1 1 0.998804
0.999041 1 1.00007 0.99897
0.998768 1 1 0.998768
1 1 1 1
1 1 1 1
1 1 1 1
0.999994 1 1 0.999994
1 1 1 1
1 1 1 1
1 1 1 1
0.999589 1 1 0.999589
0.999504 1 1 0.999504
1 1 1 1
1 1 1 1
0.999457 1 1 0.999457
0.999577 1 1 0.999577
0.998583 1 1 0.998583
0.99961 1 1 0.99961
0.998691 1 1 0.998691
0.999444 1 1 0.999444
0.998523 1 1 0.998523
0.998647 1 1 0.998647
1.00049 1.00229 1 0.998201
0.99873 1 1 0.99873
0.999531 1.00122 1 0.99831
1 1 1 1
0.999918 1 1 0.999918
0.999378 1 1 0.999378
0.999513 1 1 0.999513
1 1 1 1
0.999862 1 1 0.999862
0.999582 1 1 0.999582
0.998826 1 1 0.998826
0.999061 1 1 0.999061
0.999238 1 1 0.999238
0.998659 1 1 0.998659
0.99947 1 1 0.99947
0.999487 1 1 0.999487
0.998625 1 1 0.998625
0.998814 1 1 0.998814
1 1 1 1
0.999916 1 1 0.999916
0.999364 1 1 0.999364
0.998912 1 1 0.998912
0.998575 1.00019 1 0.99838
0.998735 1 1 0.998735
0.998595 1 1 0.998595
0.998972 1.00052 1 0.998454
0.999975 1 1 0.999975
0.99961 1 1 0.99961
0.998537 1 1 0.998537
0.998746 1 1 0.998746
0.999664 1.00139 1 0.99828
0.998668 1.00037 1 0.998298
0.99852 1.00001 1 0.998506
1.00112 1.00287 1 0.998258
0.99996 1 1 0.99996
0.999179 1.00079 1 0.998393
0.999421 1 1 0.999421
0.998889 1 1 0.998889
0.998774 1.00024 1 0.99853
1.00063 1.00223 1 0.998398
0.999518 1 1 0.999518
0.999721 1 1 0.999721
0.999223 1 1 0.999223
0.999638 1 1 0.999638
1 1 1 1
1 1 1 1
0.999733 1 1 0.999733
0.998902 1 1 0.998902
0.999965 1 1 0.999965
0.999345 1 1 0.999345
0.99918 1 1 0.99918
0.998879 1 1 0.998879
0.999986 1 1 0.999986
1 1 1 1
0.999699 1 1 0.999699
0.998793 1 1 0.998793
0.999047 1 1 0.999047
0.998745 1.00026 1 0.998481
0.999458 1 1 0.999458
0.998813 1 1 0.998813
0.998975 1 1.00001 0.998968
0.998757 1 1 0.998757
1 1 1 1
0.99957 1 1 0.99957
0.99982 1 1 0.99982
0.999319 1 1 0.999319
0.999475 1.00109 1 0.998385
0.998669 1.00002 1 0.998651
1.00177 1.00349 1 0.998285
0.99911 1 1.00001 0.999096
0.999117 1.00046 1 0.99866
0.999652 1 1.00092 0.998736
0.998651 1 1 0.998651
0.999954 1 1 0.999954
1 1 1 1
1 1 1 1
1 1 1 1
1 1 1 1
0.999999 1 1 0.999999
1 1 1 1
0.99999 1 1 0.99999
1 1 1 1
0.999612 1 1 0.999612
0.999553 1 1 0.999553
0.998691 1 1 0.998691
0.998583 1 1 0.998583
0.999459 1 1 0.999459
1 1 1 1
0.999443 1 1 0.999443
0.998523 1 1 0.998523
0.998647 1 1 0.998647
1.00032 1.00212 1 0.998201
0.99873 1 1 0.99873
0.999585 1.00128 1 0.998309
0.998509 1 1 0.998509
1.00078 1.00264 1 0.998143
0.999909 1.00165 1 0.998263
1.00685 1.00874 1 0.998123
0.999656 1.00132 1 0.998342
1.00447 1.00628 1 0.998203
0.999467 1 1 0.999467
0.999487 1 1 0.999487
0.998565 1 1 0.998565
0.998836 1 1 0.998836
1 1 1 1
0.999904 1 1 0.999904
0.999389 1 1 0.999389
0.998913 1 1 0.998913
0.998594 1.00025 1 0.998346
0.998614 1 1 0.998614
0.998731 1 1 0.998731
0.998991 1.00053 1 0.998458
0.999969 1 1 0.999969
0.99961 1 1 0.99961
0.998518 1 1 0.998518
0.998745 1 1 0.998745
0.999829 1.00156 1 0.998268
0.998808 1.00048 1 0.998334
0.999952 1 1 0.999952
0.999419 1 1 0.999419
0.998918 1 1 0.998918
0.998525 1.00002 1 0.998507
1.00146 1.00321 1 0.998252
0.998735 1.00023 1 0.998502
0.999481 1.00109 1 0.998394
1.00087 1.00248 1 0.998398
0.99952 1 1 0.99952
0.999221 1 1 0.999221
0.999718 1 1 0.999718
1.00019 1.00197 1 0.998217
0.999743 1.00144 1 0.998304
1.00605 1.00794 1 0.998121
1.00265 1.00448 1 0.998184
1.00022 1.00189 1 0.998325
1.00664 1.00838 1 0.998276
0.99947 1 1 0.99947
1.00246 1.0041 1 0.998364
0.999092 1 1 0.999092
0.998616 1 1 0.998616
0.99911 1.00074 1 0.99837
1.0046 1.00615 1 0.998462
0.999805 1 1 0.999805
0.999205 1 1 0.999205
0.999277 1 1 0.999277
0.999084 1 1 0.999084
0.998794 1 1 0.998794
1 1 1 1
0.999992 1 1 0.999992
0.9997 1 1 0.9997
0.999051 1 1 0.999051
0.99862 1.00014 1 0.99848
0.999459 1 1 0.999459
0.998966 1 1 0.998966
0.998823 1 1 0.998823
0.998746 1 1 0.998746
1 1 1 1
0.999569 1 1 0.999569
0.999824 1 1 0.999824
0.999317 1 1 0.999317
0.999273 1.00089 1 0.998383
0.998672 1.00002 1 0.998654
1.00141 1.00313 1 0.998285
0.999133 1 1.00004 0.999098
0.99893 1.00026 1 0.998672
0.999617 1 1.00089 0.998727
0.998709 1 1 0.998709
1 1 1 1
0.999893 1 1 0.999893
0.999215 1 1 0.999215
0.999438 1 1 0.999438
0.999106 1 1 0.999106
1.00269 1.00447 1 0.998223
1.00029 1.00183 1 0.998463
1.00404 1.00582 1 0.998233
1.00008 1 1.00126 0.998829
0.998915 1.00033 1 0.998588
0.999274 1 1.00077 0.998504
0.999943 1 1 0.999943
0.99969 1 1 0.99969
0.999962 1 1 0.999962
0.999957 1 1 0.999957
1 1 1 1
1 1 1 1
1 1 1 1
1 1 1 1
1 1 1 1
1 1 1 1
1 1 1 1
0.999998 1 1 0.999998
1 1 1 1
0.999987 1 1 0.999987
1 1 1 1
0.99873 1 1 0.99873
0.998647 1 1 0.998647
0.999636 1.00133 1 0.998309
1.00014 1.00194 1 0.9982
0.998523 1 1 0.998523
0.999442 1 1 0.999442
0.998508 1 1 0.998508
1.00071 1.00258 1 0.998143
0.999735 1.00147 1 0.998263
1.00698 1.00888 1 0.998122
0.999651 1.00131 1 0.998341
1.00398 1.00579 1 0.998203
1.00073 1.0026 1 0.998127
1.00874 1.01068 1 0.998077
1.0056 1.00746 1 0.998163
1.01267 1.01454 1 0.998156
1.00334 1.00513 1 0.998219
1.0091 1.01083 1 0.998285
0.998498 1 1 0.998498
0.998744 1 1 0.998744
0.999976 1.00172 1 0.998256
0.998948 1.00058 1 0.998369
0.999944 1 1 0.999944
0.999418 1 1 0.999418
0.998947 1 1 0.998947
0.998531 1.00002 1 0.998508
1.00181 1.00357 1 0.998247
0.999785 1.00139 1 0.998395
0.998712 1.00024 1 0.998474
1.00119 1.0028 1 0.998398
0.999522 1 1 0.999522
0.999219 1 1 0.999219
0.999716 1 1 0.999716
1.00036 1.00218 1 0.998187
0.999695 1.00139 1 0.998303
1.00608 1.00799 1 0.998114
1.00322 1.00504 1 0.99819
0.999471 1 1 0.999471
0.999088 1 1 0.999088
0.998685 1 1.00003 0.998653
1.00049 1.00216 1 0.998335
1.00625 1.00797 1 0.99829
0.999291 1.00094 1 0.998349
1.00256 1.0042 1 0.998366
1.00414 1.00568 1 0.998474
0.999208 1 1 0.999208
0.999068 1 1 0.999068
0.999802 1 1 0.999802
0.999292 1 1 0.999292
1.00712 1.00907 1 0.998064
1.00562 1.00748 1 0.998155
1.01304 1.01497 1 0.998096
1.00848 1.01027 1 0.998221
1.00488 1.00656 1 0.998335
1.00984 1.01151 1 0.99835
0.999182 1 1 0.999182
1.00583 1.00735 1 0.998487
0.998859 1 1 0.998859
0.999261 1.00067 1.00018 0.998412
1.0024 1.00412 1 0.998286
1.00633 1.00786 1 0.998483
0.999852 1 1 0.999852
0.99938 1 1 0.99938
0.999074 1 1 0.999074
0.999104 1 1 0.999104
0.99902 1 1 0.99902
1 1 1 1
0.999044 1.00066 1 0.998381
0.999828 1 1 0.999828
0.999569 1 1 0.999569
0.999314 1 1 0.999314
0.998663 1.00001 1 0.998656
1.00102 1.00274 1 0.998284
0.9991 1 1 0.9991
0.999641 1 1.00093 0.998718
0.998715 1.00003 1 0.998685
0.998767 1 1 0.998767
1 1 1 1
0.999898 1 1 0.999898
0.999215 1 1 0.999215
0.999438 1 1 0.999438
0.99909 1 1 0.99909
1.00286 1.00465 1 0.998219
0.999788 1.00133 1 0.998464
1.00411 1.00589 1 0.998227
0.999976 1 1.00114 0.998832
0.999006 1.00041 1 0.9986
0.999425 1 1.0009 0.998523
0.999926 1 1 0.999926
0.999547 1 1 0.999547
0.999299 1 1.00033 0.998973
0.999202 1 1 0.999202
0.999096 1 1.00012 0.998974
1.00637 1.00817 1 0.998212
1.00116 1.00277 1 0.998394
1.00462 1.00628 1 0.998353
1.00215 1 1.00354 0.998618
0.998618 1.00023 1 0.99839
0.999947 1 1 0.999947
0.999632 1 1 0.999632
0.999673 1 1 0.999673
0.999513 1 1 0.999513
0.999697 1 1 0.999697
0.999964 1 1 0.999964
0.999963 1 1 0.999963
1 1 1 1
0.999959 1 1 0.999959
1 1 1 1
1 1 1 1
1 1 1 1
1 1 1 1
1 1 1 1
1 1 1 1
1 1 1 1
1 1 1 1
1 1 1 1
0.999997 1 1 0.999997
1 1 1 1
0.99967 1.00133 1 0.998339
0.999556 1.0013 1 0.998262
1.0035 1.0053 1 0.998203
1.00711 1.00901 1 0.998122
1.00066 1.00252 1 0.998143
0.998508 1 1 0.998508
1.00076 1.00264 1 0.998128
1.00882 1.01078 1 0.998069
1.00536 1.00721 1 0.998163
1.01257 1.01443 1 0.998165
1.00351 1.0053 1 0.998215
1.00915 1.01088 1 0.99829
1.0082 1.01017 1 0.998045
1.01446 1.01639 1 0.9981
1.0105 1.01229 1 0.998229
1.01252 1.01434 1 0.998206
1.00839 1.01014 1 0.998265
1.01137 1.01302 1 0.998373
1.00056 1.00241 1 0.998157
0.999646 1.00135 1 0.998302
1.00614 1.00804 1 0.998107
1.0038 1.00561 1 0.998196
0.999472 1 1 0.999472
0.999083 1 1 0.999083
0.998871 1 1.00018 0.998691
1.00078 1.00244 1 0.998345
1.00585 1.00756 1 0.998304
1.0026 1.00424 1 0.998367
0.99945 1.00112 1 0.998327
1.0037 1.00523 1 0.998485
0.99921 1 1 0.99921
0.999052 1 1 0.999052
0.999798 1 1 0.999798
0.999307 1 1 0.999307
1.00715 1.0091 1 0.998065
1.00572 1.00758 1 0.998152
1.01274 1.01467 1 0.998102
1.00792 1.00972 1 0.998217
0.99918 1 1 0.99918
0.998922 1 1.00003 0.998891
0.999382 1.00059 1.00039 0.998407
1.00465 1.00634 1 0.998325
1.00982 1.01146 1 0.998385
1.00252 1.00425 1 0.998276
1.00565 1.00718 1 0.998489
1.00649 1.00799 1 0.998514
0.999074 1 1 0.999074
0.999017 1 1 0.999017
0.999102 1 1 0.999101
0.999826 1 1 0.999826
0.999393 1 1 0.999393
1.01422 1.01618 1 0.998073
1.01238 1.01428 1 0.998122
1.01079 1.0125 1 0.998314
1.00832 1.00989 1 0.998437
0.999042 1 1 0.999042
1.00796 1.00939 1 0.998581
0.998991 1 1.00029 0.998703
1.00054 1.00185 1.00051 0.99819
1.00534 1.00713 1 0.998225
0.99984 1 1 0.99984
0.999512 1 1 0.999512
0.999212 1 1 0.999212
0.999035 1 1 0.999035
0.998969 1 1 0.998969
0.998971 1 1 0.998971
1 1 1 1
0.999903 1 1 0.999903
1.00303 1.00482 1 0.998216
0.999439 1 1 0.999439
0.999215 1 1 0.999215
0.999073 1 1 0.999073
0.999365 1.0009 1 0.998466
1.00407 1.00586 1 0.998221
0.999896 1 1.00106 0.998835
0.999283 1 1.00074 0.998541
0.999174 1.00056 1 0.998613
0.99993 1 1 0.99993
0.999548 1 1 0.999548
0.999248 1 1.00027 0.998981
0.999201 1 1 0.999201
0.999083 1 1.00012 0.99896
1.00639 1.0082 1 0.998208
1.00104 1.00266 1 0.998388
1.0046 1.00624 1 0.998372
1.00158 1 1.00298 0.998603
0.998694 1.00028 1.00006 0.99836
0.999619 1 1 0.999619
0.999278 1 1 0.999278
1.00061 1 1.0018 0.998819
0.999174 1 1.00019 0.998987
0.999121 1 1.00026 0.998866
1.00974 1.01128 1 0.998478
1.00123 1.00292 1 0.998307
1.00466 1.00627 1 0.998396
1.00275 1 1.00428 0.998477
0.998455 1.0003 1 0.998157
0.99995 1 1 0.99995
0.999646 1 1 0.999646
0.999427 1 1 0.999427
0.999657 1 1 0.999657
0.999697 1 1 0.999697
0.999488 1 1 0.999488
0.999362 1 1 0.999362
0.999478 1 1 0.999478
0.999702 1 1 0.999702
0.999962 1 1 0.999962
0.999964 1 1 0.999964
1 1 1 1
0.999964 1 1 0.999964
1 1 1 1
1 1 1 1
1 1 1 1
1 1 1 1
1 1 1 1
1 1 1 1
1 1 1 1
1 1 1 1
1 1 1 1
1 1 1 1
1 1 1 1
1.00365 1.00545 1 0.998212
1.00511 1.00696 1 0.998163
1.0092 1.01092 1 0.998295
1.01249 1.01434 1 0.998173
1.0089 1.01086 1 0.998062
1.00079 1.00267 1 0.998128
1.00826 1.01025 1 0.998039
1.01453 1.01646 1 0.998097
1.0108 1.01261 1 0.998215
1.01277 1.01459 1 0.998208
1.00777 1.00952 1 0.998266
1.01136 1.01299 1 0.998396
1.01373 1.0157 1 0.998068
1.01412 1.01598 1 0.998174
1.01306 1.01478 1 0.998305
1.01114 1.01269 1 0.998468
1.00717 1.00912 1 0.998066
1.0058 1.00767 1 0.998148
1.01245 1.01437 1 0.998107
1.00736 1.00916 1 0.998213
0.999178 1 1 0.999178
0.998923 1 1 0.998923
0.999499 1.00051 1.00058 0.998403
1.0044 1.0061 1 0.998314
1.00982 1.01142 1 0.99842
1.00555 1.00707 1 0.998491
1.00257 1.00431 1 0.998266
1.00651 1.00797 1 0.998545
0.999074 1 1 0.999074
0.999013 1 1 0.999013
0.999098 1 1 0.999098
0.999799 1 1 0.999799
0.999406 1 1 0.999406
1.0139 1.01585 1 0.998077
1.01223 1.01413 1 0.998129
1.01061 1.01232 1 0.998315
0.999038 1 1 0.999038
0.998992 1 1.00026 0.998735
1.0008 1.00186 1.00076 0.998183
1.00852 1.01011 1 0.998428
1.0053 1.00704 1 0.99827
1.0074 1.00883 1 0.998575
0.999843 1 1 0.999843
0.999033 1 1 0.999033
0.998991 1 1 0.998991
0.999005 1 1.00004 0.998961
0.999221 1 1 0.999221
0.999492 1 1 0.999492
1.01407 1.01599 1 0.998107
1.01286 1.0147 0.999972 0.998213
1.01054 1.01217 1 0.998392
1.01066 1.01211 1 0.998561
0.998951 1 1 0.998951
1.00521 1.00683 1 0.998382
1.00004 1 1.00165 0.998397
1.0016 1.0025 1.00104 0.998057
0.999881 1 1 0.999881
0.99958 1 1 0.99958
0.999303 1 1 0.999303
0.999017 1 1 0.999017
0.998965 1 1 0.998965
0.998973 1 1.00008 0.998894
0.999934 1 1 0.999934
0.999549 1 1 0.999549
1.00649 1.0083 1 0.998205
0.9992 1 1 0.9992
0.99911 1 1.00012 0.998989
0.999132 1 1.00019 0.998946
1.00085 1.00247 1 0.998382
1.00468 1.0063 1 0.998392
1.00103 1 1.00245 0.998588
0.998902 1.00031 1.00027 0.99833
0.99962 1 1 0.99962
0.999287 1 1 0.999287
1.00061 1 1.00177 0.998836
0.999273 1 1.00028 0.998992
0.999034 1 1.00015 0.998888
1.00985 1.01138 1 0.998491
1.00125 1.00295 1 0.998304
1.00482 1.00636 1 0.998472
1.003 1 1.00455 0.99846
0.998416 1.00026 1.00003 0.998124
0.999379 1 1 0.999379
0.999056 1 1 0.999056
1.00244 1 1.00374 0.998702
0.99906 1 1.00027 0.998786
1.01634 1.01791 0.999877 0.998583
1.00997 1.01153 0.999872 0.998589
1.0025 1.00437 1 0.998134
1.00252 1.00012 1.00426 0.998149
0.99966 1 1 0.99966
0.999439 1 1 0.999439
0.999303 1 1 0.999303
0.999697 1 1 0.999697
0.999463 1 1 0.999463
0.999702 1 1 0.999702
0.999344 1 1 0.999344
0.999487 1 1 0.999487
0.999239 1 1 0.999239
0.99934 1 1 0.99934
0.999479 1 1 0.999479
0.999698 1 1 0.999698
0.999958 1 1 0.999958
0.999962 1 1 0.999962
1 1 1 1
0.999964 1 1 0.999964
1 1 1 1
1 1 1 1
1 1 1 1
1 1 1 1
1 1 1 1
1 1 1 1
1 1 1 1
1 1 1 1
1 1 1 1
1 1 1 1
1 1 1 1
1.00717 1.00892 1 0.998266
1.0111 1.01292 1 0.9982
1.01134 1.01294 1 0.998418
1.01301 1.01483 1 0.998209
1.0146 1.01653 1 0.998095
1.00834 1.01033 1 0.998032
1.01371 1.01567 1 0.998073
1.01354 1.01539 1 0.998172
1.01279 1.0145 1 0.998309
1.0121 1.01366 1 0.998463
1.01424 1.01613 1 0.998136
1.01643 1.01815 1 0.998307
1.01574 1.01739 0.999946 0.998433
1.01356 1.01551 1 0.99808
1.01209 1.01398 1 0.998136
1.01039 1.0121 1 0.998316
0.999034 1 1 0.999034
0.998945 1 1.00018 0.998767
1.00091 1.0019 1.00085 0.998176
1.00862 1.01022 1 0.998418
1.00701 1.00845 1 0.99857
1.00549 1.00719 1 0.998314
0.99903 1 1 0.99903
0.999012 1 1 0.999012
0.998968 1 1.00001 0.998954
0.999847 1 1 0.999847
0.999229 1 1 0.999229
0.999472 1 1 0.999472
1.01455 1.01647 1 0.99811
1.0129 1.01472 0.999989 0.998216
1.01039 1.01203 1 0.99838
0.998944 1 1 0.998944
0.999853 1 1.0014 0.998457
1.00172 1.00275 1.0009 0.998068
1.01083 1.01227 1 0.998576
1.00557 1.00721 1 0.998374
0.999904 1 1 0.999904
0.99958 1 1 0.99958
0.998969 1 1 0.998969
0.998958 1 1.00003 0.998926
0.999025 1 1.00001 0.999018
0.999287 1 1 0.999287
1.01672 1.0186 0.999931 0.998224
1.01179 1.0145 0.999008 0.998324
1.01238 1.01428 0.999562 0.998563
1.00913 1.01052 1 0.99862
0.999678 1 1.00088 0.998795
1.00198 1.00253 1.0014 0.998051
1.00087 1 1.00264 0.998236
0.999955 1 1 0.999955
0.999713 1 1 0.999713
0.999589 1 1 0.999589
0.999334 1 1 0.999334
0.999104 1 1 0.999104
0.998953 1 1.00007 0.998886
0.998996 1 1 0.998996
1.00367 1 1.00468 0.998995
0.999621 1 1 0.999621
0.999297 1 1 0.999297
1.00983 1.01135 1 0.998504
0.999283 1 1.00029 0.998998
1.00079 1 1.00194 0.998853
0.998942 1 1.00003 0.998911
1.00128 1.00298 1 0.998302
1.00486 1.00632 1 0.998547
1.00323 1 1.0048 0.998443
0.998242 1.00015 1 0.998092
0.999369 1 1 0.999369
0.999073 1 1.00001 0.999065
1.00283 1 1.00412 0.998718
0.999042 1 1.00024 0.998805
1.01609 1.01767 0.99987 0.998581
1.00926 1.01075 0.999949 0.998573
1.00291 1.00475 1 0.99817
1.0021 1.00021 1.00377 0.998122
0.999225 1 1 0.999225
1.01614 1.01937 0.998282 0.998546
0.999432 1 1.00054 0.998888
1.00121 1 1.00268 0.998531
1.01565 1.01749 0.999524 0.998673
1.00612 1.00793 1 0.998202
1.00343 1.00221 1.00323 0.997987
0.99945 1 1 0.99945
0.999302 1 1 0.999302
0.999183 1 1 0.999183
0.999702 1 1 0.999702
0.999496 1 1 0.999496
0.999325 1 1 0.999325
0.999698 1 1 0.999698
0.99948 1 1 0.99948
0.999223 1 1 0.999223
0.999358 1 1 0.999358
0.999144 1 1 0.999144
0.99922 1 1 0.99922
0.999363 1 1 0.999363
0.999487 1 1 0.999487
0.999687 1 1 0.999687
0.999954 1 1 0.999954
0.999957 1 1 0.999957
1 1 1 1
0.999961 1 1 0.999961
1 1 1 1
1 1 1 1
1 1 1 1
1 1 1 1
1 1 1 1
0.999972 1 1 0.999972
1 1 1 1
1 1 1 1
1 1 1 1
1 1 1 1
1 1 1 1
1 1 1 1
1.01307 1.01464 1 0.998459
1.01252 1.01423 1 0.998312
1.01294 1.0148 1 0.998169
1.01368 1.01563 1 0.998078
1.01398 1.01586 1 0.998147
1.01644 1.01821 0.999973 0.998295
1.01615 1.01778 0.999949 0.998446
1.01755 1.01939 0.99992 0.998272
1.0197 1.02209 0.999242 0.99842
1.00849 1.01613 0.993873 0.998598
1.01503 1.01694 1 0.998113
1.013 1.0148 1 0.998218
1.01037 1.01202 1 0.998368
0.998992 1 1.00006 0.998936
0.999776 1 1.00126 0.998516
1.00167 1.00282 1.00078 0.998079
1.01114 1.01256 1 0.998592
1.00551 1.00716 1 0.998367
0.998974 1 1 0.998974
0.998958 1 1 0.998956
0.999107 1 1.00009 0.999019
0.999928 1 1 0.999928
0.99958 1 1 0.99958
0.999271 1 1 0.999271
1.01656 1.0184 0.99996 0.998239
0.999952 1 1 0.999952
0.999698 1 1 0.999698
1.01166 1.01402 0.999346 0.998322
1.01356 1.0153 0.999756 0.998533
0.999677 1 1.00084 0.998837
1.0015 1.00001 1.0033 0.998202
1.00155 1.00265 1.00084 0.998059
1.00854 1.00994 1 0.998613
0.999631 1 1 0.999631
0.999332 1 1 0.999332
0.998956 1 1 0.998956
1.00155 1 1.00248 0.999066
0.998915 1 1.00005 0.998865
0.999109 1 1 0.999109
1.01853 1.02122 0.998982 0.99839
1.01369 1.01689 0.998403 0.998446
1.01175 1.01498 0.998051 0.998761
1.00302 1.0047 0.999951 0.998378
1.00114 1 1.00234 0.998795
1.00402 1.00054 1.00547 0.998022
0.999717 1 1 0.999717
0.99967 1 1 0.99967
0.99951 1 1 0.99951
0.999334 1 1 0.999334
0.99918 1 1 0.99918
0.998931 1 1 0.998931
1.00567 1 1.00689 0.998795
0.999339 1 1.00025 0.99909
0.999358 1 1 0.999358
0.999085 1 1.00001 0.999073
1.01593 1.01752 0.999857 0.998579
1.00883 1.01029 1 0.998557
0.999047 1 1.00022 0.998823
1.00311 1 1.00438 0.998733
1.00349 1.00525 1.00004 0.998207
1.00176 1.00032 1.00335 0.998096
0.999221 1 1 0.999221
1.01593 1.01973 0.997705 0.998565
0.99929 1 1.00039 0.998896
1.00119 1 1.00269 0.998509
1.01545 1.01726 0.999566 0.998653
1.0069 1.00869 1 0.998228
1.00345 1.00197 1.00348 0.997997
0.999212 1 1.00018 0.999028
1.01751 1.02347 0.995393 0.998768
0.9993 1 1.00056 0.998738
1.00225 1.00016 1.00379 0.998298
1.00753 1.01195 0.997225 0.998401
1.00198 1.00174 1.00221 0.998031
1.0057 1.00834 0.998499 0.998875
0.999301 1 1 0.999301
0.999181 1 1 0.999181
0.999084 1 1 0.999084
0.999698 1 1 0.999698
0.99948 1 1 0.99948
0.999377 1 1 0.999377
0.999208 1 1 0.999208
0.999686 1 1 0.999686
0.999477 1 1 0.999477
0.999136 1 1 0.999136
0.999362 1 1 0.999362
0.999236 1 1 0.999236
0.999127 1 1 0.999127
0.999268 1 1 0.999268
0.999365 1 1 0.999365
0.999444 1 1 0.999444
0.999642 1 1 0.999642
0.999513 1 1 0.999513
0.999645 1 1 0.999645
0.999951 1 1 0.999951
0.999954 1 1 0.999954
1 1 1 1
0.999956 1 1 0.999956
1 1 1 1
1 1 1 1
1 1 1 1
1 1 1 1
1 1 1 1
0.999981 1 1 0.999981
0.999969 1 1 0.999969
1 1 1 1
1 1 1 1
1 1 1 1
1 1 1 1
1 1 1 1
1 1 1 1
1.01652 1.01814 0.99995 0.99846
1.0165 1.01829 0.999957 0.998283
1.01376 1.01563 1 0.998158
1.01766 1.01948 0.999942 0.99827
1.01894 1.02132 0.999248 0.998418
1.00973 1.01651 0.994723 0.998599
1.01662 1.02137 0.996852 0.998487
1.00743 1.01596 0.993092 0.9985
1.01586 1.02387 0.993298 0.998871
0.999774 1 1 0.999774
1.01643 1.01822 0.999996 0.998254
1.01141 1.01344 0.999673 0.998321
1.01445 1.0161 0.999876 0.998503
0.9997 1 1.00082 0.99888
1.00221 1.00003 1.00402 0.998167
1.00147 1.00296 1.00045 0.998066
1.00796 1.00937 1 0.998605
0.998917 1 1 0.998917
0.999423 1 1.00028 0.999139
0.998859 1 1.00001 0.998845
0.999948 1 1 0.999948
0.999114 1 1 0.999114
0.999672 1 1 0.999672
0.999331 1 1 0.999331
0.999684 1 1 0.999684
1.01841 1.02177 0.998313 0.998397
0.999737 1 1 0.999737
0.999669 1 1 0.999669
0.999479 1 1 0.999479
1.01394 1.01726 0.998281 0.99845
1.01113 1.01406 0.99839 0.998718
1.00042 1 1.00161 0.998811
1.00379 1.00024 1.00553 0.998024
1.0031 1.00461 1.00012 0.998381
0.999355 1 1 0.999355
0.999168 1 1 0.999168
1.00065 1 1.00162 0.999039
1.00463 1 1.00581 0.998828
0.998949 1 1 0.998949
1.01317 1.01887 0.995936 0.998463
1.01355 1.01886 0.996213 0.998567
1.00694 1.00999 0.998438 0.998541
1.00445 1.00297 1.00323 0.998252
1.00352 1 1.00478 0.998746
0.99948 1 1 0.99948
0.999398 1 1 0.999398
0.999313 1 1 0.999313
0.999179 1 1 0.999179
0.999037 1 1 0.999037
1.00309 1 1.00426 0.998833
1.00734 1 1.00862 0.998733
0.999217 1 1 0.999217
0.999117 1 1.00021 0.998904
1.01573 1.01999 0.997234 0.998584
1.01507 1.0169 0.999568 0.998632
1.00735 1.00911 1 0.998255
1.00116 1 1.00268 0.998488
1.00318 1.00158 1.0036 0.998006
0.9992 1 1.00015 0.999054
1.01724 1.02371 0.994897 0.998772
0.999298 1 1.00055 0.998753
1.00242 1.00005 1.00407 0.998309
1.00845 1.0122 0.99784 0.998452
1.0025 1.00179 1.00269 0.99802
1.00603 1.00875 0.998666 0.998634
0.99911 1 1.00019 0.998918
1.00373 1.01473 0.990398 0.99875
1.00054 1 1.00184 0.998705
1.00458 1 1.00636 0.998234
1.00281 1.00356 1.00104 0.99822
0.959084 0.973851 0.993561 0.991219
0.989015 0.990271 1.00271 0.996029
0.982386 1.00169 0.981703 0.999008
0.900058 0.927019 0.978541 0.992209
0.879908 0.934188 0.949493 0.991999
0.99918 1 1 0.99918
0.999095 1 1 0.999095
0.999094 1 1 0.999094
0.999686 1 1 0.999686
0.999468 1 1 0.999468
0.999361 1 1 0.999361
0.999251 1 1 0.999251
0.999128 1 1 0.999128
0.999348 1 1 0.999348
0.999659 1 1 0.999659
0.999456 1 1 0.999456
0.999133 1 1 0.999133
0.999265 1 1 0.999265
0.999273 1 1 0.999273
0.999202 1 1 0.999202
0.999309 1 1 0.999309
0.999421 1 1 0.999421
0.999639 1 1 0.999639
0.999472 1 1 0.999472
0.99937 1 1 0.99937
0.999486 1 1 0.999486
0.99949 1 1 0.99949
0.999682 1 1 0.999682
0.999644 1 1 0.999644
0.99995 1 1 0.99995
0.999951 1 1 0.999951
1 1 1 1
0.999953 1 1 0.999953
1 1 1 1
1 1 1 1
1 1 1 1
1 1 1 1
1 1 1 1
0.999985 1 1 0.999985
0.999979 1 1 0.999979
1 1 1 1
0.999967 1 1 0.999967
1 1 1 1
1 1 1 1
1 1 1 1
1 1 1 1
1 1 1 1
1.01828 1.02063 0.999277 0.998417
1.01768 1.0195 0.999945 0.998269
1.01085 1.01682 0.995518 0.9986
1.00775 1.01572 0.993619 0.998528
1.01617 1.0209 0.996872 0.998486
1.01774 1.02499 0.9941 0.99882
1.02121 1.0255 0.997339 0.998472
0.972893 0.984914 0.992432 0.995329
1.01383 1.01935 0.995816 0.998767
0.999784 1 1 0.999784
0.999773 1 1 0.999773
0.999546 1 1 0.999546
0.999573 1 1 0.999573
1.01839 1.02235 0.997718 0.998403
1.01433 1.01763 0.9983 0.998454
1.01074 1.01323 0.998867 0.998675
0.999598 1 1.00077 0.998827
1.00337 1 1.00536 0.998026
1.00328 1.00477 1.00013 0.998385
1.00197 1 1.00298 0.998988
1.00356 1 1.00471 0.998861
0.998966 1 1 0.998966
0.999668 1 1 0.999668
0.999156 1 1 0.999156
0.999377 1 1 0.999377
0.999757 1 1 0.999757
0.999448 1 1 0.999448
1.01184 1.01703 0.996413 0.998479
0.999513 1 1 0.999513
0.999416 1 1 0.999416
0.999314 1 1 0.999314
1.01543 1.02028 0.996661 0.998579
1.00567 1.00902 0.998135 0.998536
1.00341 1 1.00468 0.998741
1.00428 1.00322 1.00282 0.998239
0.999182 1 1 0.999182
0.999044 1 1 0.999044
1.00689 1 1.00817 0.998734
1.00398 1 1.00517 0.998814
1.01753 1.02285 0.996312 0.998482
1.0001 1.01499 0.986746 0.998566
1.00442 1.00544 1.00073 0.998258
1.0017 1 1.00306 0.998638
0.999251 1 1 0.999251
0.999225 1 1 0.999225
0.999712 1 1.00073 0.998983
1.01208 1 1.0135 0.998603
0.948521 0.97151 0.98529 0.990914
0.999221 1 1.00014 0.999079
0.999381 1 1.00061 0.998767
1.01642 1.02377 0.99404 0.998776
1.00948 1.01244 0.99857 0.998503
1.00326 1.00196 1.0033 0.99801
1.00278 1 1.00447 0.99832
1.00588 1.00897 0.998542 0.998389
0.9993 1 1.00036 0.998937
1.00295 1.01434 0.990021 0.998737
1.00008 1 1.00137 0.998714
1.00434 1 1.00611 0.998236
1.00309 1.00464 1.00022 0.998237
0.956816 0.97358 0.991416 0.99129
0.984891 0.989226 1.00084 0.994786
0.984386 1.00078 0.98455 0.999057
0.903989 0.927639 0.982484 0.991878
0.867187 0.924168 0.94652 0.991361
0.999537 1 1.00053 0.999007
0.914589 0.937047 0.984252 0.99165
0.91216 0.938847 0.97884 0.992578
0.980232 1.00522 0.976382 0.998729
1.00465 1 1.00592 0.998742
1.0095 1.00096 1.01017 0.998388
0.983981 0.998024 0.986728 0.99919
0.963938 0.973051 0.999822 0.990811
0.97991 0.980259 1.00528 0.994395
0.884866 0.927579 0.961512 0.992137
0.916515 0.96259 0.958363 0.993502
0.999105 1 1 0.999105
0.999092 1 1 0.999092
0.999214 1 1 0.999214
0.999676 1 1 0.999676
0.999469 1 1 0.999469
0.999332 1 1 0.999332
0.999262 1 1 0.999262
0.99914 1 1 0.99914
0.999639 1 1 0.999639
0.999273 1 1 0.999273
0.999326 1 1 0.999326
0.99944 1 1 0.99944
0.999195 1 1 0.999195
0.999226 1 1 0.999226
0.999407 1 1.0002 0.99921
0.999308 1 1 0.999308
0.999454 1 1 0.999454
0.999471 1 1 0.999471
0.999355 1 1 0.999355
0.999334 1 1 0.999334
0.999347 1 1 0.999347
0.999287 1 1 0.999287
0.999245 1 1 0.999245
0.999466 1 1 0.999466
0.999486 1 1 0.999486
0.999682 1 1 0.999682
0.999466 1 1 0.999466
0.999667 1 1 0.999667
0.999949 1 1 0.999949
0.999643 1 1 0.999643
0.99995 1 1 0.99995
1 1 1 1
0.999951 1 1 0.999951
1 1 1 1
1 1 1 1
1 1 1 1
1 1 1 1
1 1 1 1
0.999776 1 1 0.999776
0.999986 1 1 0.999986
0.999984 1 1 0.999984
1 1 1 1
0.999977 1 1 0.999977
1 1 1 1
1 1 1 1
1 1 1 1
1 1 1 1
1 1 1 1
1.00898 1.01579 0.994728 0.998559
1.0157 1.02054 0.996765 0.998485
1.02022 1.02632 0.995286 0.998768
0.974748 0.984 0.994553 0.996022
1.01331 1.01907 0.995524 0.998816
1.02213 1.0271 0.996703 0.998454
1.01795 1.02304 0.996449 0.99857
0.978427 0.986524 0.995466 0.996309
0.959211 0.97468 0.993925 0.990144
0.883116 0.920428 0.96817 0.991007
0.869212 0.918032 0.954634 0.991816
0.999537 1 1 0.999537
0.999784 1 1 0.999784
0.999773 1 1 0.999773
0.999537 1 1 0.999537
0.999392 1 1 0.999392
0.999427 1 1 0.999427
0.999548 1 1 0.999548
0.999558 1 1 0.999558
1.0103 1.01519 0.99669 0.998494
1.01737 1.02217 0.996716 0.99859
1.00441 1.00807 0.997832 0.998532
1.00348 1 1.00474 0.998737
1.00414 1.00319 1.00272 0.998226
1.00648 1 1.00775 0.998735
1.00502 1 1.00624 0.998794
0.99905 1 1 0.99905
0.999434 1 1 0.999434
0.999186 1 1 0.999186
0.999545 1 1 0.999545
0.999315 1 1 0.999315
1.01776 1.02344 0.995985 0.998459
0.999269 1 1 0.999269
0.999228 1 1 0.999228
1.00156 1.01359 0.989567 0.998552
1.00421 1.00602 0.999867 0.998334
1.00338 1.00004 1.00476 0.998591
1.00029 1 1.00132 0.998972
1.01069 1 1.0121 0.998608
1.01567 1.02183 0.995552 0.998416
0.984785 1.00424 0.982053 0.998544
0.999544 1 1.00103 0.998514
1.00694 1 1.00831 0.998645
0.99916 1 1 0.99916
0.999674 1 1.00062 0.99905
1.00569 1 1.00692 0.998783
0.904018 0.938445 0.971133 0.991949
0.955264 0.972658 0.990435 0.991602
0.999408 1 1.00045 0.998957
0.999762 1 1.00104 0.998722
1.00311 1.01436 0.990171 0.998724
1.00342 1.00586 0.999325 0.998254
1.00394 1 1.00571 0.998238
0.957929 0.974014 0.993354 0.990067
0.985885 0.99111 0.999206 0.995519
0.986875 1.00012 0.987643 0.999105
0.898565 0.928877 0.975645 0.991516
0.854174 0.91319 0.944135 0.990721
0.999356 1 1.00035 0.999007
0.908797 0.939831 0.974716 0.992062
0.911212 0.935967 0.981039 0.992368
0.982999 1.00603 0.978361 0.998717
1.00417 1 1.00542 0.998757
1.00881 1.00053 1.00983 0.998457
0.977156 0.995145 0.982692 0.999218
0.96517 0.975487 0.99918 0.990236
0.980998 0.983009 1.00238 0.995586
0.886322 0.923716 0.968126 0.991109
0.914949 0.962462 0.957188 0.993153
1.00069 1 1.00158 0.999112
0.930782 0.942261 0.994179 0.993602
0.981115 0.984159 1.00106 0.995848
0.987776 1.00073 0.987973 0.999075
1.01011 1.00019 1.01085 0.99907
0.999805 0.992799 1.00752 0.999539
0.972357 0.978866 0.996672 0.996667
0.964824 0.968111 1.00638 0.990287
0.908669 0.947478 0.967575 0.991179
0.939689 0.980072 0.963865 0.994741
0.999089 1 1 0.999089
0.999192 1 1 0.999192
0.99976 1 1.00042 0.999339
0.999639 1 1 0.999639
0.999459 1 1 0.999459
0.999342 1 1 0.999342
0.999272 1 1 0.999272
0.999188 1 1 0.999188
0.999454 1 1 0.999454
0.999236 1 1 0.999236
0.999307 1 1 0.999307
0.999465 1 1.00024 0.999221
0.999865 1 1.00055 0.999311
0.999312 1 1.00009 0.999225
0.999309 1 1 0.999309
0.999471 1 1 0.999471
0.99934 1 1 0.99934
0.999334 1 1 0.999334
0.999345 1 1 0.999345
0.999287 1 1 0.999287
0.999312 1 1 0.999312
0.999266 1 1 0.999266
0.999258 1 1 0.999258
0.999097 1 1 0.999097
0.999594 1 1.00068 0.998919
0.999152 1 1 0.999152
0.999243 1 1 0.999243
0.999424 1 1 0.999424
0.999465 1 1 0.999465
0.999673 1 1 0.999673
0.999486 1 1 0.999486
0.999681 1 1 0.999681
0.999949 1 1 0.999949
0.999653 1 1 0.999653
0.999949 1 1 0.999949
1 1 1 1
0.999949 1 1 0.999949
1 1 1 1
1 1 1 1
1 1 1 1
1 1 1 1
1 1 1 1
0.999793 1 1 0.999793
0.999983 1 1 0.999983
0.999776 1 1 0.999776
1 1 1 1
0.999986 1 1 0.999986
0.999983 1 1 0.999983
1 1 1 1
1 1 1 1
1 1 1 1
1 1 1 1
1 1 1 1
0.906943 0.933802 0.978907 0.992164
0.918135 0.939876 0.983682 0.993074
0.977303 0.985009 0.995666 0.996495
1.01322 1.01871 0.995741 0.998866
1.02301 1.02852 0.996196 0.998436
0.977479 0.984567 0.995378 0.99741
1.01871 1.02289 0.997319 0.998586
0.960872 0.975535 0.993592 0.991321
0.89616 0.925343 0.976303 0.99197
0.859773 0.914794 0.948229 0.991167
0.99671 1.00001 0.998531 0.998166
0.96296 0.972664 0.998827 0.991186
0.878978 0.923914 0.95907 0.991964
0.914622 0.958677 0.961029 0.992734
0.999339 1 1 0.999339
0.999551 1 1 0.999551
0.999783 1 1 0.999783
0.999527 1 1 0.999527
0.999411 1 1 0.999411
0.999367 1 1 0.999367
0.999427 1 1 0.999427
0.999464 1 1 0.999464
0.99953 1 1 0.99953
0.999543 1 1 0.999543
1.01801 1.02384 0.995868 0.998438
1.00219 1.01143 0.99232 0.998538
1.00401 1.00662 0.998995 0.99841
1.00486 1.0001 1.00622 0.998543
1.00877 1 1.01017 0.998612
1.00078 1 1.00182 0.998961
0.999231 1 1 0.999231
0.999287 1 1 0.999287
1.01354 1.02184 0.99346 0.998403
0.999153 1 1 0.999153
0.999604 1 1.00057 0.999031
0.9865 1.00391 0.984139 0.998491
0.99992 1 1.00133 0.998589
1.00641 1 1.00783 0.998585
1.00553 1 1.00677 0.998768
1.00304 1.00816 0.996288 0.998628
0.99264 1 0.993669 0.998965
1.00849 1 1.00978 0.998719
0.999144 1 1 0.999144
0.999196 1 1.00018 0.99902
1.00133 1 1.00247 0.998868
0.931473 0.94494 0.99148 0.994219
0.910053 0.938197 0.978351 0.991466
0.952486 0.974214 0.986682 0.990894
0.999008 1 1 0.999008
1.00361 1 1.00484 0.998772
0.985752 1.00664 0.980517 0.998706
1.00814 1 1.00963 0.998527
0.905709 0.9379 0.974073 0.991381
0.963924 0.973703 0.998216 0.991725
0.978851 0.983975 1.00034 0.994455
0.974499 0.993099 0.982005 0.999251
0.889567 0.92381 0.97076 0.991937
0.913139 0.939447 0.979603 0.992235
0.91011 0.960516 0.954298 0.9929
1.00113 1 1.00202 0.999113
0.930258 0.944479 0.991205 0.993683
0.982713 0.985337 1.00151 0.99583
0.990145 1.00032 0.990696 0.999119
1.00985 0.999991 1.01081 0.999061
0.999345 0.993915 1.00627 0.999201
0.973303 0.978347 0.99974 0.995103
0.963049 0.970577 1.00183 0.990435
0.912302 0.95169 0.96604 0.992312
0.932052 0.973548 0.962677 0.994494
1.00163 0.999912 1.00223 0.999493
0.981891 0.984987 0.999951 0.996906
0.98473 0.983355 1.00398 0.997427
1.00971 0.998218 1.0118 0.999715
0.985997 0.982203 1.00571 0.998159
0.967582 0.969284 1.0083 0.990031
0.942774 0.967263 0.981918 0.992631
0.943431 0.986994 0.961355 0.994287
0.999169 1 1 0.999169
0.9997 1 1.00036 0.999345
1.00075 1 1.0013 0.999451
0.999453 1 1 0.999453
0.999306 1 1 0.999306
0.999247 1 1 0.999247
0.999512 1 1.00028 0.999231
0.999309 1 1 0.999309
0.999254 1 1.00003 0.999223
1.00026 1 1.00093 0.999333
1.00031 1 1.00086 0.999453
0.999487 1 1.00021 0.999275
0.999241 1 1 0.999241
0.999334 1 1 0.999334
0.999344 1 1 0.999344
0.999286 1 1 0.999286
0.99927 1 1 0.99927
0.999311 1 1 0.999311
0.999262 1 1 0.999262
0.99921 1 1 0.99921
0.99927 1 1 0.99927
0.99909 1 1 0.99909
0.99911 1 1 0.99911
0.99965 1 1.00069 0.998964
0.999965 1 1.00126 0.998707
0.999107 1 1 0.999107
0.999452 1 1.00048 0.998972
0.999177 1 1 0.999177
0.99933 1 1 0.99933
0.999241 1 1 0.999241
0.999423 1 1 0.999423
0.99965 1 1 0.99965
0.999463 1 1 0.999463
0.999672 1 1 0.999672
0.999947 1 1 0.999947
0.999681 1 1 0.999681
0.999948 1 1 0.999948
1 1 1 1
0.999949 1 1 0.999949
1 1 1 1
1 1 1 1
1 1 1 1
1 1 1 1
1 1 1 1
0.999716 1 1 0.999716
0.999979 1 1 0.999979
0.999758 1 1 0.999758
1 1 1 1
0.999984 1 1 0.999984
0.999776 1 1 0.999776
1 1 1 1
1 1 1 1
0.999986 1 1 0.999986
1 1 1 1
1 1 1 1
1 1 1 1
0.934875 0.945843 0.99415 0.994221
0.907725 0.936098 0.977896 0.991608
0.982763 0.987106 0.999874 0.995726
0.909802 0.934038 0.981147 0.992768
0.973303 0.983423 0.993738 0.995945
1.01869 1.02278 0.997397 0.998602
0.961179 0.97613 0.992119 0.992505
0.896636 0.928729 0.974053 0.991163
0.851521 0.912562 0.942043 0.990519
0.993666 0.99872 0.997324 0.99761
0.965045 0.973178 1.00122 0.990433
0.88509 0.928384 0.962117 0.990905
0.911691 0.957305 0.959565 0.992482
0.989602 0.994178 0.998041 0.99735
0.968672 0.969723 1.00895 0.990058
0.912425 0.953059 0.964933 0.992157
0.937335 0.980565 0.961516 0.994173
0.999231 1 1 0.999231
0.999359 1 1 0.999359
0.999564 1 1 0.999564
0.99943 1 1 0.99943
0.999259 1 1 0.999259
0.999381 1 1 0.999381
0.999427 1 1 0.999427
0.999445 1 1 0.999445
0.999483 1 1 0.999483
0.999512 1 1 0.999512
1.01164 1.02243 0.991048 0.998391
0.989196 1.00394 0.986851 0.998438
1.00025 1 1.00159 0.998664
1.00642 1 1.00791 0.998525
1.00581 1 1.00707 0.998752
0.999499 1 1.00049 0.999011
0.999147 1 1 0.999147
0.999146 1 1 0.999146
0.997421 1.00722 0.991613 0.998646
0.9991 1 1.00007 0.999031
1.00147 1 1.00261 0.998863
0.990761 1 0.991844 0.998908
1.00716 1 1.00846 0.998711
0.977261 0.997858 0.980257 0.999084
1.00869 1 1.0094 0.999296
1.00174 1 1.00285 0.998888
0.999059 1 1 0.999059
1.00105 1 1.00218 0.998868
0.978913 0.981767 0.999648 0.997444
0.934763 0.945088 0.994655 0.99439
0.906962 0.936618 0.975863 0.992288
1.00168 1 1.00257 0.999112
1.00957 0.999703 1.01083 0.99905
0.99098 1 0.991814 0.999159
0.937313 0.94774 0.994843 0.994125
0.970715 0.970847 1.00994 0.990026
0.974926 0.979316 0.999289 0.996226
0.992009 0.992834 1.00033 0.998837
0.911369 0.949422 0.968471 0.99117
0.983435 0.985552 1.00205 0.995812
0.927261 0.96954 0.961627 0.994557
1.00167 0.999785 1.0024 0.999488
0.98103 0.983652 1.00009 0.997243
0.987899 0.985999 1.0045 0.997438
1.00986 0.998712 1.01158 0.999582
0.984741 0.981902 1.00519 0.997715
0.96927 0.972177 1.00739 0.989693
0.944341 0.99009 0.958848 0.994728
0.929968 0.959859 0.976634 0.99204
1.00337 0.998634 1.00503 0.999711
0.984317 0.985127 1.00016 0.999016
0.994486 0.994548 1.00222 0.997723
0.939709 0.982052 0.962479 0.994185
0.998879 0.985284 1.01434 0.999465
0.97729 0.974966 1.01204 0.990463
0.921552 0.943946 0.983644 0.99251
0.999618 1 1.00027 0.999351
1.0005 1 1.00109 0.999412
1.00312 1 1.00355 0.999566
0.999309 1 1 0.999309
0.99922 1 1 0.99922
1.00073 1 1.00138 0.999355
0.999245 1 1 0.999245
0.999603 1 1.00033 0.999277
1.00069 1 1.00126 0.999427
0.999848 1 1.00035 0.999494
0.99926 1 1 0.99926
0.999273 1 1 0.999273
0.999309 1 1 0.999309
0.999266 1 1 0.999266
0.999266 1 1 0.999266
0.999218 1 1 0.999218
0.999525 1 1.00029 0.999233
0.99914 1 1 0.99914
1.00133 1 1.00256 0.998777
0.999124 1 1 0.999124
0.9995 1 1.00055 0.99895
0.999561 1 1.001 0.998565
0.999858 1 1.00118 0.998681
0.999168 1 1.00016 0.999006
0.999811 1 1.0011 0.998717
0.999263 1 1 0.999263
0.999086 1 1 0.999086
0.99931 1 1.00029 0.999024
0.999202 1 1 0.999202
0.999352 1 1 0.999352
0.999605 1 1 0.999605
0.999422 1 1 0.999422
0.999648 1 1 0.999648
0.999942 1 1 0.999942
0.999672 1 1 0.999672
0.999946 1 1 0.999946
1 1 1 1
0.999948 1 1 0.999948
1 1 1 1
1 1 1 1
1 1 1 1
1 1 1 1
1 1 1 1
0.999617 1 1 0.999617
0.999923 1 1 0.999923
0.999715 1 1 0.999715
1 1 1 1
0.999959 1 1 0.999959
0.999724 1 1 0.999724
1 1 1 1
1 1 1 1
0.999985 1 1 0.999985
1 1 1 1
1 1 1 1
1 1 1 1
0.980066 0.983132 0.999662 0.997219
0.926718 0.944422 0.987327 0.993848
0.908626 0.934143 0.981147 0.991375
0.999386 1 1 0.999386
0.980351 0.980384 1.00224 0.997734
0.983821 0.986834 1.00124 0.995712
0.902872 0.932955 0.975031 0.992537
0.992776 0.998779 0.996996 0.996985
0.969638 0.975007 1.00348 0.991045
0.890802 0.935523 0.960129 0.991738
0.906026 0.953695 0.957366 0.992324
0.991271 0.995928 0.999551 0.995772
0.961597 0.966675 1.00427 0.990515
0.918219 0.954353 0.970072 0.991821
0.936332 0.979673 0.961637 0.993889
0.97943 0.983638 1.001 0.994723
0.972608 0.96635 1.01764 0.989032
0.929895 0.961225 0.975523 0.99168
0.941137 0.985628 0.960351 0.994281
0.999134 1 1 0.999134
0.99922 1 1 0.99922
0.999378 1 1 0.999378
0.999254 1 1 0.999254
0.999282 1 1 0.999282
0.999394 1 1 0.999394
0.99945 1 1 0.99945
0.999502 1 1 0.999502
0.991452 1.00596 0.986895 0.998663
0.988405 1 0.98954 0.998852
0.999149 1 1 0.999149
1.00553 1 1.00683 0.998702
1.00158 1 1.00272 0.998858
0.999089 1 1.00005 0.999042
0.99907 1 1.00001 0.999062
0.98286 1.00007 0.983679 0.999095
1.00095 1 1.00205 0.998897
1.00245 1 1.00357 0.998887
1.00375 1 1.00444 0.999311
0.99909 1 1 0.99909
0.976057 0.991237 0.985192 0.999486
1.01205 0.998981 1.01363 0.999454
1.00064 1 1.00166 0.998982
0.999279 1 1.00026 0.999017
0.984234 0.985651 0.99935 0.999213
0.978648 0.981368 0.99974 0.997488
0.939201 0.945695 0.99856 0.994566
1.00155 0.999762 1.0023 0.999485
1.01117 0.999406 1.01232 0.99945
0.980092 0.982476 0.999995 0.997578
0.975553 0.970574 1.01495 0.99032
0.982661 0.979178 1.0076 0.995992
0.934362 0.962644 0.979046 0.991395
0.990381 0.987926 1.00505 0.99745
0.946599 0.994442 0.956512 0.995168
1.00372 0.998817 1.00523 0.999678
0.982797 0.984173 0.999572 0.999029
0.993596 0.993008 1.00249 0.998104
1.00711 0.991943 1.01537 0.999921
0.937625 0.981071 0.961593 0.993888
0.972783 0.971614 1.01095 0.990358
0.930538 0.957338 0.980421 0.991417
1.00734 0.995936 1.01168 0.999771
0.993314 0.994268 0.999723 0.999316
0.981329 0.98215 1.00142 0.997746
0.915189 0.960747 0.959518 0.99277
0.929238 0.963264 0.972915 0.991532
0.986407 0.98108 1.006 0.999434
0.97841 0.96829 1.02127 0.989407
1.00026 1 1.00089 0.999372
1.00201 0.999707 1.00275 0.99955
1.0055 0.993381 1.01262 0.999582
0.999249 1 1 0.999249
0.999646 1 1.00037 0.99928
1.00094 1 1.00154 0.999402
0.999255 1 1 0.999255
0.999927 1 1.00043 0.999494
1.00514 0.999158 1.00665 0.999337
0.999262 1 1 0.999262
0.999227 1 1 0.999227
1.00007 1 1.00087 0.999206
1.00632 1 1.00745 0.998881
0.99919 1 1 0.99919
1.00079 1 1.00196 0.998835
1.00256 1 1.00413 0.998442
1.0002 1 1.00188 0.998323
0.999326 1 1.00039 0.998936
0.999614 1 1.00109 0.998523
0.999284 1 1.00053 0.99876
1.00004 1 1.00113 0.998904
0.999764 1 1.00105 0.998716
0.99919 1 1 0.99919
0.999202 1 1.0002 0.999002
0.999696 1 1.00097 0.998727
0.999535 1 1 0.999535
0.999256 1 1 0.999256
0.999064 1 1 0.999064
0.999373 1 1 0.999373
0.999603 1 1 0.999603
0.99993 1 1 0.99993
0.999647 1 1 0.999647
0.99994 1 1 0.99994
1 1 1 1
0.999945 1 1 0.999945
1 1 1 1
1 1 1 1
1 1 1 1
1 1 1 1
1 1 1 1
0.999578 1 1 0.999578
0.999889 1 1 0.999889
0.999637 1 1 0.999637
1 1 1 1
0.999921 1 1 0.999921
0.999714 1 1 0.999714
1 1 1 1
1 1 1 1
0.999939 1 1 0.999939
1 1 1 1
1 1 1 1
1 1 1 1
0.980497 0.982141 0.999314 0.999011
0.97944 0.982549 0.999609 0.997226
0.92688 0.945319 0.986523 0.993888
0.999395 1 1 0.999395
0.999358 1 1 0.999358
0.999277 1 1 0.999277
0.993215 0.993023 1.00248 0.997719
0.982443 0.981641 1.00307 0.997752
0.984509 0.986584 1.00221 0.995698
0.99739 0.996162 1.00424 0.997005
0.962973 0.967377 1.00538 0.990124
0.912232 0.948687 0.97009 0.991221
0.939297 0.982316 0.962055 0.99392
0.975169 0.978865 1.00013 0.996096
0.967423 0.966142 1.01137 0.990065
0.927677 0.95489 0.978625 0.99272
0.942987 0.989027 0.958506 0.994724
0.965549 0.97278 0.996992 0.995561
0.981041 0.971955 1.01932 0.990219
0.922231 0.94272 0.985607 0.992552
0.938495 0.978688 0.964038 0.994703
0.999127 1 1 0.999127
0.999132 1 1 0.999132
0.99921 1 1 0.99921
0.999252 1 1 0.999252
0.999306 1 1 0.999306
0.999456 1 1 0.999456
0.989246 1.00229 0.987875 0.999104
0.999066 1 0.999742 0.999324
0.999066 1 1 0.999066
1.00303 1 1.00415 0.998885
1.00101 1 1.00208 0.998925
0.999075 1 1 0.999075
0.999503 1 1.00048 0.999024
0.986718 0.994476 0.992714 0.999482
1.00139 1 1.00236 0.99904
1.00779 0.996151 1.01221 0.99948
0.999119 1 1 0.999119
1.0027 0.986267 1.01694 0.999732
0.993353 0.992951 1.00082 0.999587
0.999765 1 1.00061 0.999153
0.997189 0.998124 0.999502 0.999561
0.984427 0.985881 0.999215 0.999309
0.978367 0.980936 0.999851 0.997531
1.00412 0.999074 1.00541 0.999644
1.00234 0.993526 1.00913 0.999736
0.981626 0.983533 0.999019 0.999041
0.977498 0.971147 1.01359 0.993046
0.934491 0.955676 0.984935 0.992788
0.992973 0.991706 1.0028 0.998486
0.94037 0.983564 0.961917 0.993936
1.00666 0.996578 1.01033 0.999788
0.992279 0.994054 0.998818 0.999395
0.983674 0.983334 1.00259 0.997764
0.984995 0.977469 1.01027 0.997456
0.912116 0.959016 0.958252 0.992532
0.924937 0.95802 0.972694 0.992572
0.988601 0.973966 1.02506 0.990207
1.00935 0.984166 1.02574 0.999852
0.981469 0.982994 0.999421 0.999027
0.98376 0.988509 0.999424 0.99577
0.86815 0.917778 0.953641 0.99191
0.91378 0.954098 0.965284 0.992188
0.981241 0.973392 1.0181 0.990137
0.959818 0.972055 0.990748 0.996632
1.00081 0.999306 1.00197 0.999534
1.00863 0.995422 1.01369 0.999586
1.01899 0.999038 1.02045 0.999529
0.999251 1 1 0.999251
1.00006 1 1.00056 0.999495
1.00473 0.999615 1.00575 0.999372
1.0158 1 1.01676 0.999053
1.00057 1 1.0014 0.999179
1.00643 1 1.00762 0.998817
1.01283 1 1.0145 0.998347
1.00034 1 1.00145 0.998893
1.00341 1 1.00499 0.998429
1.0032 1 1.00513 0.998079
1.00053 1.00059 1.00191 0.998039
0.99964 1 1.00108 0.998564
1.00018 1 1.00189 0.998299
0.999706 1 1.00123 0.998482
0.999852 1 1.00096 0.99889
0.999291 1 1.00048 0.998811
0.999851 1 1.0008 0.999048
1.00009 1 1.00117 0.998928
0.999625 1 1.00088 0.998751
0.999436 1 1 0.999436
0.999192 1 1 0.999192
0.99924 1 1.00024 0.998999
0.9999 1 1 0.9999
0.999534 1 1 0.999534
0.999249 1 1 0.999249
0.999602 1 1 0.999602
0.999926 1 1 0.999926
1 1 1 1
0.999937 1 1 0.999937
1 1 1 1
1 1 1 1
1 1 1 1
1 1 1 1
1 1 1 1
0.999576 1 1 0.999576
0.999908 1 1 0.999908
0.999591 1 1 0.999591
1 1 1 1
0.999913 1 1 0.999913
0.999656 1 1 0.999656
1 1 1 1
1 1 1 1
0.999919 1 1 0.999919
1 1 1 1
1 1 1 1
1 1 1 1
0.993454 0.993945 1.00019 0.999314
0.982821 0.984011 0.999766 0.999025
0.979346 0.981887 1.00018 0.997237
0.99934 1 1 0.99934
0.999248 1 1 0.999248
0.999403 1 1 0.999403
0.999356 1 1 0.999356
0.999261 1 1 0.999261
0.999263 1 1 0.999263
0.999189 1 1 0.999189
0.98355 0.982689 1.00347 0.997413
0.991535 0.991048 1.00239 0.998102
0.984732 0.982908 1.00409 0.99777
0.946606 0.993854 0.957085 0.995167
0.968344 0.974023 0.999323 0.994843
0.973385 0.969883 1.01256 0.99116
0.930459 0.951381 0.986427 0.991467
0.965349 0.973266 0.996892 0.994958
0.971756 0.96721 1.01495 0.989902
0.932605 0.957945 0.981721 0.991674
0.931824 0.973334 0.962697 0.994448
0.958713 0.970236 0.99177 0.996324
0.970916 0.970011 1.01137 0.989677
0.945608 0.96927 0.982808 0.992653
0.914793 0.961557 0.957679 0.993409
0.99917 1 1 0.99917
0.999127 1 1 0.999127
0.99913 1 1 0.99913
0.999249 1 1 0.999249
0.995802 0.997527 0.998792 0.999478
1.00404 0.993757 1.01084 0.999505
0.999061 1 1 0.999061
0.999497 1 1.00047 0.999031
1.00195 1 1.00285 0.999099
0.999114 1 1 0.999114
0.999687 1 1.00055 0.999139
0.99832 0.984798 1.01434 0.9994
0.994619 0.994178 1.00078 0.999665
0.999189 1 1 0.999189
1.00457 0.981923 1.02366 0.999425
1.00197 0.996718 1.00591 0.999363
0.984623 0.985622 0.999753 0.999233
0.995093 0.996032 0.999433 0.999625
0.984855 0.986101 0.999332 0.999405
1.00624 0.997394 1.00906 0.999805
0.98664 0.97759 1.00984 0.999425
0.990896 0.993637 0.997766 0.999475
0.976662 0.968225 1.01933 0.989581
0.927965 0.953616 0.981634 0.991307
0.98601 0.98456 1.0037 0.997782
0.907245 0.955109 0.957184 0.992376
1.01391 0.985831 1.02863 0.999855
0.983053 0.984417 0.999574 0.999041
0.984874 0.988359 1.00072 0.995755
0.963143 0.97388 0.990535 0.998425
0.860405 0.91538 0.948227 0.991264
0.915796 0.953412 0.968489 0.991798
0.98285 0.971902 1.02108 0.99039
1.00029 0.984716 1.01624 0.999584
0.981593 0.984307 0.999983 0.99726
0.919399 0.940915 0.983854 0.993169
0.881365 0.924378 0.961086 0.992074
0.973431 0.967159 1.01637 0.990273
0.953149 0.969876 0.987267 0.995428
1.01256 0.99813 1.01487 0.99959
1.0186 0.997556 1.02158 0.999522
1.01319 1 1.01381 0.999391
1.00443 1 1.00502 0.999408
1.01559 0.99976 1.01674 0.999102
1.00967 1 1.01118 0.998516
1.00667 1 1.00792 0.998754
1.01221 1 1.01393 0.998307
1.00643 1.00017 1.00828 0.998005
1.0042 1 1.0058 0.998415
1.00338 1 1.00535 0.998042
1.00291 1.00162 1.00339 0.99791
1.00027 1.00225 1 0.998023
0.999043 1.00006 1.00077 0.998216
1.00067 1.0005 1.00218 0.997996
0.998871 1 1.00013 0.998745
0.999339 1 1.00074 0.998597
1.00017 1 1.0019 0.998275
0.999687 1 1.00076 0.99893
0.999905 1 1.00102 0.998882
0.999288 1 1.00043 0.998863
0.999296 1 1 0.999296
0.99969 1 1.00062 0.999072
1.00015 1 1.0012 0.998952
0.999827 1 1 0.999827
0.999436 1 1 0.999436
0.999193 1 1 0.999193
1 1 1 1
0.999895 1 1 0.999895
0.999534 1 1 0.999534
0.999922 1 1 0.999922
1 1 1 1
1 1 1 1
1 1 1 1
1 1 1 1
1 1 1 1
0.999337 1 1 0.999337
0.999543 1 1 0.999543
0.999887 1 1 0.999887
0.999575 1 1 0.999575
1 1 1 1
0.999912 1 1 0.999912
0.999605 1 1 0.999605
1 1 1 1
1 1 1 1
0.999937 1 1 0.999937
1 1 1 1
1 1 1 1
1 1 1 1
0.984313 0.984545 1.00073 0.999032
0.992153 0.993633 0.999117 0.999393
0.984635 0.985899 0.999679 0.999038
0.999348 1 1 0.999348
0.999235 1 1 0.999235
0.99918 1 1 0.99918
0.999236 1 1 0.999236
0.999169 1 1 0.999169
0.999354 1 1 0.999354
0.999246 1 1 0.999246
0.999263 1 1 0.999263
0.999184 1 1 0.999184
0.999211 1 1 0.999211
0.979598 0.982934 1.00082 0.995792
0.986507 0.984894 1.00422 0.997428
0.989534 0.988809 1.00225 0.998484
0.928212 0.97058 0.961618 0.994519
0.933429 0.953169 0.986321 0.992871
0.957023 0.96743 0.994947 0.994266
0.977591 0.974287 1.01342 0.990102
0.960351 0.970997 0.994239 0.994767
0.983534 0.977539 1.01626 0.990033
0.932338 0.961791 0.977011 0.992186
0.914335 0.961975 0.957135 0.993043
0.977453 0.976881 1.00505 0.995559
0.973415 0.973362 1.00981 0.990342
0.907425 0.947309 0.966491 0.991109
0.878909 0.933722 0.949065 0.991815
0.999392 1 1 0.999392
0.999172 1 1 0.999172
0.999126 1 1 0.999126
0.994523 0.982804 1.01287 0.999066
0.994722 0.994248 1.00073 0.999748
0.999109 1 1 0.999109
0.99985 1 1.00072 0.999126
0.999302 1 1.0001 0.999198
1.00264 0.997583 1.00572 0.999356
1.00232 0.981024 1.02227 0.999449
1.00386 1 1.00448 0.999378
1.00306 0.988941 1.01509 0.999203
0.980324 0.983131 0.999739 0.997405
0.984659 0.985773 0.999541 0.999329
0.992912 0.994004 0.999214 0.999688
1.01735 0.986613 1.03131 0.999855
0.965054 0.976349 0.992339 0.996062
0.984262 0.985854 0.999331 0.999054
0.976091 0.972486 1.01534 0.988539
0.91207 0.948177 0.970423 0.991237
0.985656 0.98825 1.00164 0.995742
0.853763 0.914022 0.942919 0.990618
0.999345 0.983815 1.01615 0.999644
0.98137 0.984226 0.999831 0.997267
0.911024 0.935147 0.981206 0.992864
0.953738 0.971279 0.985593 0.996295
0.886967 0.928804 0.963611 0.991018
0.963395 0.964767 1.00918 0.989497
0.980095 0.984926 0.996002 0.999089
0.935922 0.946629 0.994349 0.994309
0.88537 0.92132 0.969598 0.991111
0.972659 0.971975 1.01068 0.990126
0.966504 0.974332 0.995507 0.996443
1.0175 0.995925 1.02215 0.999515
1.01521 0.999791 1.01606 0.999377
0.993252 1 0.994269 0.998977
1.01528 0.999583 1.01656 0.99915
1.01002 1.00018 1.01127 0.998581
1.0024 1.00144 1.00272 0.998253
1.01142 1 1.01317 0.998266
1.00532 1.00029 1.00703 0.998014
0.999588 1.00146 1.00003 0.998096
1.00342 1 1.00543 0.998004
1.00313 1.0026 1.00261 0.997923
1.00367 1.00556 1 0.998123
1.00354 1.00533 1 0.99822
0.999738 1.00163 1.00002 0.99809
1.0004 1.00237 1 0.998034
0.998449 1 1 0.998449
0.999274 1.00002 1.00107 0.998177
1.00081 1.00042 1.00244 0.997954
0.998883 1 1 0.998883
0.99881 1 1.00002 0.998785
0.998949 1 1.00032 0.998631
0.999154 1 1 0.999154
0.999793 1 1.00085 0.998942
0.999969 1 1.0011 0.998874
0.999697 1 1 0.999697
0.999314 1 1.00002 0.999297
0.999534 1 1.00044 0.999095
1 1 1 1
0.999823 1 1 0.999823
0.999437 1 1 0.999437
1 1 1 1
1 1 1 1
0.99989 1 1 0.99989
1 1 1 1
1 1 1 1
1 1 1 1
0.999273 1 1 0.999273
0.999502 1 1 0.999502
0.999327 1 1 0.999327
0.99987 1 1 0.99987
0.999543 1 1 0.999543
1 1 1 1
0.999889 1 1 0.999889
0.999575 1 1 0.999575
1 1 1 1
1 1 1 1
0.999915 1 1 0.999915
1 1 1 1
1 1 1 1
1 1 1 1
0.982708 0.98533 0.999742 0.997595
0.982724 0.98369 0.999974 0.999045
0.990641 0.993151 0.997998 0.999474
0.999171 1 1 0.999171
0.999356 1 1 0.999356
0.999223 1 1 0.999223
0.999248 1 1 0.999248
0.999193 1 1 0.999193
0.999164 1 1 0.999164
0.999107 1 1 0.999107
0.99915 1 1 0.99915
0.999264 1 1 0.999264
0.999179 1 1 0.999179
0.999206 1 1 0.999206
0.999245 1 1 0.999245
0.91125 0.937646 0.979225 0.992467
0.981198 0.984066 1.00132 0.995773
0.988607 0.986235 1.00498 0.997443
0.909704 0.960031 0.954475 0.992774
0.939087 0.96715 0.97911 0.9917
0.971385 0.969688 1.01215 0.989724
0.962528 0.970108 0.996405 0.995766
0.977896 0.976463 1.00454 0.996945
0.866942 0.924189 0.946388 0.991197
0.976663 0.971953 1.01566 0.989357
0.910732 0.95104 0.965195 0.992148
0.973449 0.978493 0.997634 0.997204
0.968214 0.965981 1.01162 0.990795
0.882611 0.926294 0.96067 0.991851
1.00005 1 1.00041 0.999645
0.999394 1 1 0.999394
0.999174 1 1 0.999174
1.00325 0.983428 1.0207 0.999466
1.00414 0.99918 1.00562 0.999349
0.9994 1 1.00019 0.999206
1.0041 1 1.00472 0.999381
1.00182 0.989144 1.01358 0.99924
1.00484 0.99607 1.00939 0.999421
0.931753 0.945129 0.992253 0.993544
0.980384 0.982656 0.99985 0.997838
0.985051 0.985934 0.99968 0.999425
0.997887 0.982481 1.01598 0.999704
0.953481 0.97327 0.98268 0.996934
0.981591 0.984109 1.00017 0.997276
0.970321 0.967486 1.01186 0.991173
0.894193 0.937149 0.962006 0.991847
0.903124 0.933434 0.974708 0.992633
0.97949 0.985676 0.99458 0.999139
0.927462 0.94499 0.98744 0.993936
0.898419 0.925612 0.978365 0.992086
0.966113 0.971571 0.999486 0.994894
0.963041 0.969101 1.00324 0.990533
0.969405 0.991475 0.97836 0.999366
0.907333 0.934587 0.978417 0.992253
0.964909 0.973521 1.00019 0.990963
0.979284 0.985375 0.999133 0.994681
1.01795 0.999521 1.01908 0.999363
0.989686 1 0.990637 0.999039
0.98198 1.00161 0.981634 0.998746
1.01061 1.00026 1.01172 0.998646
1.00271 1.00163 1.00283 0.998248
1.00063 1.00276 0.999428 0.998445
1.00442 1.00041 1.00599 0.998023
0.99956 1.00104 1.00041 0.998111
1.00658 1.00815 1 0.998442
1.00344 1.0036 1.00191 0.997937
1.00355 1.00543 1 0.998128
1.0077 1.00926 1 0.99846
1.00736 1.00891 1 0.998464
1.00259 1.00439 1 0.998207
1.00365 1.00542 1 0.998239
0.999537 1.00126 1 0.998277
0.99995 1.00183 1 0.99812
1.00049 1.00245 1 0.998045
0.998726 1 1 0.998726
0.998674 1.00008 1.00014 0.998457
0.999613 1 1.00148 0.998138
0.999061 1 1 0.999061
0.998879 1 1 0.998879
0.998826 1 1 0.998826
0.99954 1 1 0.99954
0.999171 1 1.00001 0.999157
0.99989 1 1.00094 0.998954
1 1 1 1
0.999694 1 1 0.999694
0.999325 1 1.00003 0.999297
1 1 1 1
1 1 1 1
0.999819 1 1 0.999819
1 1 1 1
1 1 1 1
1 1 1 1
0.999254 1 1 0.999254
0.999275 1 1 0.999275
0.999447 1 1 0.999447
0.999849 1 1 0.999849
0.999503 1 1 0.999503
0.999317 1 1 0.999317
1 1 1 1
0.999872 1 1 0.999872
0.999543 1 1 0.999543
1 1 1 1
1 1 1 1
0.999892 1 1 0.999892
1 1 1 1
1 1 1 1
1 1 1 1
0.930393 0.942355 0.993627 0.993638
0.981618 0.984168 0.999798 0.99761
0.981511 0.983217 0.999206 0.999058
0.99916 1 1 0.99916
0.999123 1 1 0.999123
0.999101 1 1 0.999101
0.999261 1 1 0.999261
0.999205 1 1 0.999205
0.999159 1 1 0.999159
0.999148 1 1 0.999148
0.999104 1 1 0.999104
0.999036 1 1 0.999036
0.999223 1 1 0.999223
0.9992 1 1 0.9992
0.999244 1 1 0.999244
0.896138 0.924437 0.977203 0.992002
0.908482 0.933922 0.980355 0.992252
0.983187 0.98551 1.00189 0.995756
0.854392 0.913547 0.944143 0.990578
0.909449 0.948118 0.967849 0.991079
0.981828 0.97748 1.01305 0.991512
0.98049 0.9746 1.0107 0.995393
0.969943 0.975099 0.998941 0.995768
0.883673 0.922694 0.966509 0.990896
0.963647 0.964126 1.00865 0.990934
0.971461 0.976175 0.999004 0.996164
0.965799 0.971904 1.00334 0.990411
1.0074 1 1.00819 0.999215
0.999881 1 1.00027 0.999614
0.999397 1 1 0.999397
0.997662 0.986504 1.01204 0.999275
1.00434 1 1.00496 0.999383
1.00569 0.997212 1.00918 0.999333
0.999626 1.00067 1.00021 0.998745
0.903974 0.939209 0.970233 0.992014
0.935512 0.945649 0.9952 0.994052
0.980436 0.982491 0.999639 0.998269
0.978064 0.986356 0.992383 0.999204
0.965395 0.971006 0.998371 0.995843
0.92802 0.945828 0.98712 0.993974
0.965837 0.968732 1.00688 0.990201
0.900034 0.930818 0.975453 0.99126
0.972779 0.991988 0.981516 0.999103
0.908981 0.936898 0.978349 0.991673
0.967631 0.974788 1.00231 0.990366
0.98184 0.98315 1.00269 0.995989
0.986459 0.998353 0.988925 0.999152
0.959641 0.975769 0.993386 0.990019
0.986836 0.991536 0.998495 0.99676
0.986059 1 0.986946 0.999101
0.982602 1.00172 0.982169 0.998727
0.982878 1.00421 0.980066 0.99867
1.00278 1.00192 1.00262 0.998243
1.00026 1.00318 0.998648 0.99844
1.00682 1.01084 0.997227 0.9988
0.999425 1.00059 1.00071 0.998126
1.00661 1.00818 1 0.998438
1.01271 1.01399 1 0.998738
1.00339 1.00527 1 0.998133
1.00713 1.00868 1 0.99846
1.00937 1.01071 1 0.998667
1.00753 1.00895 1 0.998597
1.00722 1.00874 1 0.998492
1.00525 1.00685 1 0.998413
1.0015 1.00321 1 0.998296
1.00294 1.00473 1 0.99821
1.00376 1.00551 1 0.998258
0.998923 1.00043 1 0.998497
0.999663 1.00136 1 0.998307
1.00023 1.00208 1 0.99815
0.998953 1 1 0.998953
0.99872 1 1 0.99872
0.998756 1.00012 1.00017 0.998465
0.999421 1 1 0.999421
0.999062 1 1 0.999062
0.998875 1 1 0.998875
0.999986 1 1 0.999986
0.99954 1 1 0.99954
0.999194 1 1.00003 0.999159
1 1 1 1
0.999997 1 1 0.999997
0.999691 1 1 0.999691
1 1 1 1
1 1 1 1
1 1 1 1
0.999189 1 1 0.999189
0.999241 1 1 0.999241
0.999387 1 1 0.999387
0.999277 1 1 0.999277
0.999447 1 1 0.999447
0.999809 1 1 0.999809
1 1 1 1
0.999851 1 1 0.999851
0.999503 1 1 0.999503
1 1 1 1
1 1 1 1
0.999874 1 1 0.999874
1 1 1 1
1 1 1 1
1 1 1 1
0.914315 0.936452 0.984579 0.991654
0.930083 0.944081 0.991778 0.99334
0.979971 0.982441 0.999862 0.997624
0.999148 1 1 0.999148
0.999083 1 1 0.999083
0.999141 1 1 0.999141
0.999033 1 1 0.999033
0.999051 1 1 0.999051
0.999146 1 1 0.999146
0.999102 1 1 0.999102
0.999046 1 1 0.999046
0.998974 1 1 0.998974
0.999076 1 1 0.999076
0.998981 1.0001 1.00026 0.998621
0.999287 1 1.00004 0.999248
0.999242 1 1 0.999242
0.964525 0.97845 0.996011 0.989716
0.900194 0.925309 0.981003 0.991697
0.910162 0.936602 0.97949 0.992118
0.883902 0.92245 0.966228 0.991704
0.970178 0.966329 1.01501 0.989135
0.972145 0.973622 1.00118 0.99731
0.974363 0.978615 0.998633 0.997018
0.967047 0.973567 1.00237 0.990954
0.984939 0.995235 0.993597 0.996033
1.00417 1.00132 1.00439 0.998464
1.00585 1 1.00666 0.999197
0.999584 1 1 0.999584
1.00611 0.99883 1.00804 0.999254
0.999514 1.00101 0.999815 0.998688
0.949671 0.97333 0.984656 0.990897
0.910012 0.938977 0.977397 0.991564
0.940235 0.946371 0.998946 0.994565
0.97637 0.992986 0.984416 0.998832
0.978584 0.979463 1.00439 0.994734
0.90952 0.935542 0.980602 0.991415
0.970567 0.975105 1.00448 0.990902
0.98514 0.99948 0.986501 0.99914
0.960921 0.976306 0.99304 0.99114
0.988328 0.993332 0.999571 0.99539
1.00097 1.00566 0.996649 0.998683
0.992319 0.996936 0.997576 0.997788
0.98299 1.00194 0.982352 0.998709
0.985186 1.00374 0.982864 0.998627
1.0033 1.01827 0.986573 0.99871
1.00011 1.00356 0.998123 0.998435
1.0055 1.00955 0.997193 0.998792
1.01301 1.01771 0.996494 0.998881
1.0066 1.00818 1 0.998434
1.01294 1.01432 0.999906 0.998724
1.01229 1.01355 0.999987 0.998772
1.00661 1.00817 1 0.99846
1.00946 1.01082 1 0.998655
1.00806 1.00942 1 0.998649
1.0078 1.00918 1 0.998627
1.00602 1.00753 1 0.998501
1.00713 1.00862 1 0.998519
1.00515 1.00676 1 0.998408
1.00239 1.00402 1 0.99838
0.99911 1.0007 1 0.998411
1.00138 1.0031 1 0.998289
1.00317 1.00497 1 0.998213
0.998797 1 1 0.998797
0.998905 1.00039 1 0.998517
0.999807 1.00147 1 0.998338
0.999328 1 1 0.999328
0.998949 1 1 0.998949
0.998715 1 1 0.998715
0.999947 1 1 0.999947
0.999423 1 1 0.999423
0.999062 1 1 0.999062
1 1 1 1
0.999976 1 1 0.999976
0.99954 1 1 0.99954
1 1 1 1
0.999994 1 1 0.999994
1 1 1 1
0.999062 1 1 0.999062
0.99919 1 1 0.99919
0.999289 1 1 0.999289
0.999229 1 1 0.999229
0.99937 1 1 0.99937
0.999727 1 1 0.999727
0.999447 1 1 0.999447
0.99981 1 1 0.99981
1 1 1 1
1 1 1 1
1 1 1 1
0.999853 1 1 0.999853
1 1 1 1
1 1 1 1
1 1 1 1
0.963056 0.977387 0.99417 0.991115
0.908163 0.938692 0.975149 0.992132
0.936651 0.947524 0.995089 0.993403
0.999064 1 1 0.999064
0.99916 1 1 0.99916
0.99906 1 1 0.99906
0.999038 1 1 0.999038
0.998882 1 1 0.998882
0.999024 1 1 0.999024
0.999056 1 1 0.999056
0.998926 1 1 0.998926
0.999098 1 1.00005 0.999048
0.998839 1 1 0.998839
1.00073 1.00204 1 0.998691
0.99923 1.00097 1.00011 0.998149
0.999328 1.0006 1.00006 0.998675
0.999372 1 1.0001 0.999273
0.982851 0.992595 0.99395 0.996211
0.964354 0.976988 0.996438 0.990598
0.894864 0.926385 0.974508 0.991243
0.97408 0.975574 1.00835 0.990204
0.972255 0.979944 0.994409 0.997732
0.989403 0.996304 0.995524 0.997538
0.995666 1.00456 0.992503 0.998636
1.00148 1.00067 1.00225 0.998558
1.0048 1 1.00563 0.999179
0.997673 1.00112 0.997932 0.998621
0.979068 0.986257 0.996643 0.996054
0.95667 0.973634 0.990935 0.991565
0.905874 0.936991 0.974228 0.992366
0.985486 1.0009 0.985462 0.999125
0.993831 0.993862 1.00355 0.996435
0.961315 0.976764 0.991822 0.992298
0.994936 1.0044 0.991874 0.998693
0.990422 0.996448 0.996688 0.997255
1.00989 1.02043 0.991191 0.998464
1.00789 1.01454 0.995014 0.998419
0.987446 1.00317 0.985721 0.998583
1.00487 1.01823 0.988156 0.998703
1.01147 1.021 0.991957 0.998703
1.00427 1.0085 0.997017 0.998783
1.0131 1.01734 0.996963 0.998871
1.01201 1.01521 0.998153 0.998688
1.01322 1.01472 0.999813 0.99871
1.01181 1.01316 0.999906 0.99876
1.00942 1.01087 1 0.998569
1.00949 1.01086 1 0.998642
1.00767 1.00903 1 0.998654
1.00707 1.00861 1 0.99847
1.00803 1.00938 1 0.998658
1.00577 1.00726 1 0.998521
1.00261 1.00421 1 0.998403
1.00509 1.0067 1 0.998403
1.00229 1.00392 1 0.998374
0.999516 1.00107 1 0.998444
0.998646 1 1 0.998646
0.999157 1.00073 1 0.99843
1.0013 1.00302 1 0.998283
0.999208 1 1 0.999208
0.998796 1 1 0.998796
0.998895 1.00036 1 0.998538
0.999888 1 1 0.999888
0.999327 1 1 0.999327
0.998945 1 1 0.998945
1 1 1 1
0.999935 1 1 0.999935
0.999424 1 1 0.999424
1 1 1 1
0.999967 1 1 0.999967
1 1 1 1
0.998924 1 1 0.998924
0.999073 1 1 0.999073
0.99919 1 1 0.99919
0.99919 1 1 0.99919
0.999277 1 1 0.999277
0.999614 1 1 0.999614
0.999353 1 1 0.999353
0.999728 1 1 0.999728
0.999999 1 1 0.999999
0.999812 1 1 0.999812
1 1 1 1
1 1 1 1
1 1 1 1
1 1 1 1
1 1 1 1
0.975834 0.986272 0.993026 0.996365
0.957331 0.975218 0.990818 0.990755
0.904721 0.936847 0.974089 0.991396
0.999117 1.00043 1 0.998687
0.999069 1 1 0.999069
0.999044 1 1 0.999044
0.999014 1 1 0.999014
0.998915 1 1.00004 0.998873
0.99901 1 1 0.99901
0.998878 1 1 0.998878
0.999098 1 1.00008 0.999021
0.998878 1 1 0.998878
1.00002 1.00133 1 0.998692
1.001 1.00276 1 0.998247
1.00371 1.0058 0.999965 0.997955
0.999978 1.00173 1.00013 0.998119
0.999922 1.00119 1 0.99873
1.00021 1.00627 0.994968 0.999006
0.983735 0.993984 0.994078 0.995585
0.967567 0.978049 0.997618 0.991644
0.987173 0.994748 0.996016 0.996353
1.00042 1.00642 0.995236 0.998795
1.0007 1.0002 1.00185 0.998653
1.0034 1.00668 0.998161 0.99858
0.978514 0.985027 0.996289 0.997089
0.953998 0.974302 0.988099 0.990954
0.988302 1.0027 0.986928 0.9987
0.989989 0.996216 0.997094 0.996646
1.00931 1.02091 0.990156 0.998467
1.00748 1.01266 0.996371 0.998514
1.01665 1.02481 0.993589 0.99844
1.01419 1.01773 0.998135 0.998385
1.00651 1.01807 0.989937 0.998696
1.01301 1.02202 0.992464 0.998712
1.00796 1.014 0.995474 0.998554
1.01308 1.01678 0.997493 0.99886
1.01323 1.01607 0.998517 0.998686
1.00976 1.0117 0.999633 0.998441
1.01137 1.01282 0.999825 0.998747
1.00939 1.01082 1 0.998587
1.00875 1.01042 1 0.998349
1.00733 1.00868 1 0.99866
1.00668 1.00822 1 0.998471
1.00434 1.00601 1 0.998345
1.00553 1.007 1 0.998541
1.00274 1.00434 1 0.998411
0.999493 1.00109 1 0.998401
1.00217 1.0038 1 0.998369
0.999487 1.00106 1 0.998429
0.998608 1 1 0.998608
0.999091 1 1 0.999091
0.998667 1 1 0.998667
0.999201 1.00075 1 0.998449
0.999813 1 1 0.999813
0.999207 1 1 0.999207
0.998796 1 1 0.998796
1 1 1 1
0.999877 1 1 0.999877
0.999326 1 1 0.999326
1 1 1 1
0.999923 1 1 0.999923
1 1 1 1
0.998728 1 1 0.998728
0.998927 1 1 0.998927
0.99908 1 1 0.99908
0.999085 1 1 0.999085
0.999197 1 1 0.999197
0.999505 1 1 0.999505
0.999265 1 1 0.999265
0.999614 1 1 0.999614
0.999989 1 1 0.999989
0.99973 1 1 0.99973
0.999999 1 1 0.999999
1 1 1 1
1 1 1 1
1 1 1 1
1 1 1 1
1.0054 1.01012 0.996303 0.999023
0.975701 0.987178 0.993205 0.995136
0.961564 0.974146 0.995772 0.991275
0.999536 1.00077 1 0.998764
1.00119 1.00279 1 0.998409
0.99898 1.0002 1.00007 0.998715
0.999005 1 1 0.999005
0.998994 1 1.00013 0.998862
0.999056 1.00009 1 0.99897
1.00174 1.00337 1 0.998382
0.998917 1 1 0.998917
0.999153 1.00046 1 0.998694
1.0011 1.00282 1 0.998285
1.00524 1.00734 1 0.997915
1.01125 1.01389 0.999124 0.998272
1.00282 1.00492 0.999957 0.997952
1.00053 1.00245 1 0.99809
1.00336 1.00898 0.995351 0.99907
0.982346 0.993055 0.994363 0.994824
1.00272 1.00773 0.996072 0.998956
1.01333 1.0156 0.998953 0.998818
1.00236 1.00539 0.998347 0.998639
0.975792 0.985102 0.994797 0.995731
1.00858 1.02156 0.988803 0.998472
1.0064 1.01074 0.997098 0.998609
1.01536 1.0249 0.992203 0.99848
1.01628 1.01934 0.998598 0.998402
1.01081 1.01696 0.995521 0.998433
1.02008 1.02239 0.999213 0.99853
1.01426 1.02319 0.992542 0.998721
1.00794 1.01385 0.995605 0.998559
1.01154 1.01506 0.998172 0.998353
1.01441 1.01689 0.998879 0.998683
1.00986 1.01171 0.99973 0.998443
1.01079 1.01254 1 0.998264
1.00931 1.01072 1 0.998605
1.00846 1.01013 1 0.998348
1.00723 1.009 1 0.99824
1.00629 1.00783 1 0.998471
1.00447 1.00614 1 0.998344
1.00004 1.00171 1 0.998332
1.00287 1.00446 1 0.998419
0.999631 1.00123 1 0.998402
0.998553 1 1 0.998553
0.999456 1.00104 1 0.998414
0.998599 1 1 0.998599
0.999011 1 1 0.999011
0.999746 1 1 0.999746
0.99909 1 1 0.99909
0.998688 1 1 0.998688
1 1 1 1
0.999803 1 1 0.999803
0.999205 1 1 0.999205
1 1 1 1
0.999866 1 1 0.999866
1 1 1 1
0.998763 1.00028 1 0.998487
0.998704 1 1 0.998704
0.998907 1 1 0.998907
0.998931 1 1 0.998931
0.999083 1 1 0.999083
0.999402 1 1 0.999402
0.999203 1 1 0.999203
0.999504 1 1 0.999504
0.999957 1 1 0.999957
0.999614 1 1 0.999614
0.999993 1 1 0.999993
1 1 1 1
1 1 1 1
1 1 1 1
1 1 1 1
1.01187 1.01517 0.998104 0.998638
1.00386 1.0093 0.99575 0.99886
0.974554 0.986158 0.992295 0.995906
1.00394 1.00557 1 0.998379
0.999326 1.00041 1 0.998913
1.00647 1.00825 1 0.998232
1.00108 1.00269 1 0.998395
0.99883 1 1.00009 0.998744
1.01037 1.01239 1 0.998007
0.999109 1.00018 1 0.998932
1.00179 1.00346 1 0.998336
1.01371 1.01568 1 0.998064
1.00119 1.00287 1 0.998324
1.00582 1.00795 1 0.997892
1.00971 1.01216 0.999303 0.998276
1.0014 1.00345 1 0.997948
1.00595 1.01099 0.995868 0.999137
1.02011 1.02158 0.999938 0.998624
1.01321 1.01552 0.998904 0.998817
1.00161 1.00409 0.998838 0.998695
1.01441 1.02512 0.991024 0.99852
1.018 1.0207 0.998936 0.998419
1.01149 1.01757 0.995574 0.998443
1.02065 1.02325 0.998916 0.998539
1.01934 1.02176 0.999189 0.998434
1.00794 1.01362 0.995826 0.998564
1.01168 1.01474 0.998629 0.998359
1.01382 1.01572 0.999884 0.998243
1.00997 1.01175 0.999804 0.998445
1.01024 1.01201 1 0.998252
1.01001 1.01189 1 0.99815
1.00817 1.00984 1 0.998347
1.00708 1.00885 1 0.998238
1.00147 1.00324 1 0.998236
1.00459 1.00626 1 0.998344
1.00036 1.00203 1 0.998332
0.998474 1.00001 1 0.998468
0.999774 1.00137 1 0.998404
0.998555 1 1 0.998555
0.998941 1 1 0.998941
0.99859 1 1 0.99859
0.99901 1 1 0.99901
0.999736 1 1 0.999736
0.999948 1 1 0.999948
0.999751 1 1 0.999751
0.99909 1 1 0.99909
1 1 1 1
0.999793 1 1 0.999793
1 1 1 1
1.00804 1.00979 1 0.998275
1.00036 1.00198 1 0.998384
0.998597 1.00013 1 0.998465
0.998745 1 1 0.998745
0.99868 1 1 0.99868
0.998912 1 1 0.998912
0.999292 1 1 0.999292
0.999086 1 1 0.999086
0.999404 1 1 0.999404
0.999905 1 1 0.999905
0.999504 1 1 0.999504
0.999968 1 1 0.999968
1 1 1 1
0.999997 1 1 0.999997
1 1 1 1
1 1 1 1
1.01893 1.02056 1 0.998402
1.01563 1.01862 0.998347 0.998713
1.00376 1.00962 0.995493 0.998694
1.01186 1.0138 1 0.998087
1.00313 1.00468 1 0.998458
0.99906 1 1 0.99906
1.00691 1.00866 1 0.998256
1.00095 1.00257 1 0.99838
1.0173 1.0193 1 0.998036
1.00988 1.01193 1 0.997976
1.00194 1.00366 1 0.99829
1.01396 1.01593 1 0.998057
1.00732 1.00947 1 0.997869
1.01033 1.01272 0.999352 0.998282
1.02173 1.02337 0.999881 0.998517
1.02079 1.02224 0.999964 0.998622
1.0137 1.01574 0.999167 0.998816
1.01234 1.01837 0.995619 0.998454
1.02149 1.02425 0.998748 0.998547
1.01935 1.02227 0.998693 0.998449
1.01857 1.02032 1 0.998287
1.01191 1.01445 0.999124 0.998365
1.01349 1.01533 0.999951 0.998238
1.01286 1.01476 1 0.998129
1.0097 1.01148 1 0.998241
1.01 1.01187 1 0.99815
1.00384 1.0057 1 0.998152
1.00693 1.00871 1 0.998237
1.00181 1.00358 1 0.998235
0.998515 1.00014 1 0.998374
1.00067 1.00235 1 0.998332
0.998494 1.00003 1 0.998468
0.998855 1 1 0.998855
0.998556 1 1 0.998556
0.998939 1 1 0.998939
0.999723 1 1 0.999723
0.999009 1 1 0.999009
0.999731 1 1 0.999731
0.999945 1 1 0.999945
0.999974 1 1 0.999974
0.999756 1 1 0.999756
1 1 1 1
1.01088 1.0128 1 0.998106
1.00115 1.00277 1 0.998384
1.00756 1.00921 1 0.998363
0.998609 1 1 0.998606
1.00061 1.00223 1 0.998381
0.998443 1 1 0.998443
0.998746 1 1 0.998746
0.999163 1 1 0.999163
0.998916 1 1 0.998916
0.999294 1 1 0.999294
0.99984 1 1 0.99984
0.999405 1 1 0.999405
0.999919 1 1 0.999919
1 1 1 1
0.999979 1 1 0.999979
1 1 1 1
1 1 1 1
1.01967 1.02142 1 0.998279
1.01805 1.0197 0.999982 0.9984
1.01742 1.02022 0.998462 0.998785
1.01622 1.01822 1 0.998033
1.0114 1.01333 1 0.998091
1.00231 1.00378 1 0.998537
1.00732 1.00905 1 0.998281
1.01695 1.01896 1 0.998027
1.00917 1.01125 1 0.997944
1.01227 1.01425 1 0.99805
1.01973 1.02142 1 0.99835
1.02136 1.02303 0.999886 0.998483
1.02127 1.02278 0.999907 0.99862
1.01796 1.01977 1 0.998223
1.01928 1.02275 0.998147 0.998464
1.01851 1.02029 0.999976 0.998287
1.01523 1.01709 1 0.998172
1.01317 1.01497 1 0.998232
1.01301 1.01491 1 0.998131
1.00667 1.00858 1 0.998102
1.00997 1.01184 1 0.99815
1.00402 1.00588 1 0.998153
0.999026 1.00073 1 0.998293
1.00214 1.00391 1 0.998235
0.998651 1.00028 1 0.998374
0.998768 1 1 0.998768
0.998513 1.00004 1 0.998468
0.998853 1 1 0.998853
0.999705 1 1 0.999705
0.998937 1 1 0.998937
0.999718 1 1 0.999718
0.999946 1 1 0.999946
0.999727 1 1 0.999727
0.999947 1 1 0.999947
1 1 1 1
1.0119 1.01391 1 0.998009
1.0036 1.00542 1 0.998192
1.01109 1.01298 1 0.998135
0.998577 1.00002 1 0.998552
1.00113 1.00275 1 0.998381
1.0071 1.00866 1 0.99845
0.999015 1 1 0.999015
0.998632 1.00003 1 0.998603
1.00088 1.00251 1 0.998378
0.998746 1 1 0.998746
0.999165 1 1 0.999165
0.999768 1 1 0.999768
0.999296 1 1 0.999296
0.999852 1 1 0.999852
1 1 1 1
0.999933 1 1 0.999933
1 1 1 1
1 1 1 1
1.01817 1.02002 1 0.998186
1.01983 1.02161 1 0.998262
1.01852 1.02015 0.999997 0.998398
1.01585 1.01785 1 0.998035
1.01097 1.0129 1 0.998095
1.01697 1.01899 1 0.998017
1.01726 1.01907 1 0.998225
1.01971 1.02141 1 0.998344
1.02081 1.02251 0.999891 0.998449
1.01823 1.02003 1 0.998232
1.0151 1.01699 1 0.998144
1.0184 1.02018 0.999966 0.998286
1.01516 1.01704 1 0.998159
1.00871 1.01063 1 0.998107
1.01315 1.01505 1 0.998133
1.00656 1.00847 1 0.998105
1.00012 1.0019 1 0.998223
1.00424 1.0061 1 0.998153
0.999354 1.00106 1 0.998292
0.9987 1 1 0.9987
0.998791 1.00042 1 0.998373
0.998766 1 1 0.998766
0.999676 1 1 0.999676
0.998851 1 1 0.998851
0.999698 1 1 0.999698
0.999939 1 1 0.999939
0.999714 1 1 0.999714
0.999949 1 1 0.999949
0.999947 1 1 0.999947
1.01392 1.01583 1 0.998122
1.00548 1.00744 1 0.99806
1.01216 1.01418 1 0.998009
0.999042 1.00065 1 0.998393
1.00336 1.00517 1 0.998204
1.01124 1.0131 1 0.998164
0.998893 1 1 0.998893
0.998552 1.00004 1 0.998515
1.0011 1.00272 1 0.998378
0.999702 1 1 0.999702
0.999017 1 1 0.999017
0.998646 1.00005 1 0.9986
0.999167 1 1 0.999167
0.999778 1 1 0.999778
1 1 1 1
0.999863 1 1 0.999863
1 1 1 1
1 1 1 1
1.01592 1.01779 1 0.998159
1.01791 1.01976 1 0.998184
1.01976 1.02156 1 0.998245
1.01546 1.01745 1 0.998037
1.01548 1.01739 1 0.998115
1.01776 1.01956 1 0.998231
1.01975 1.02145 1 0.998338
1.01849 1.02029 1 0.998242
1.01502 1.0169 1 0.998148
1.00882 1.01073 1 0.99811
1.01514 1.01702 1 0.998146
1.0085 1.01041 1 0.998106
1.00137 1.0032 1 0.998173
1.00643 1.00834 1 0.998108
1.00053 1.0023 1 0.998225
0.998636 1 1 0.998636
0.999668 1.00138 1 0.998292
0.998699 1 1 0.998699
0.999607 1 1 0.999607
0.998765 1 1 0.998765
0.999654 1 1 0.999654
1 1 1 1
0.999692 1 1 0.999692
0.999944 1 1 0.999944
0.99995 1 1 0.99995
1.01348 1.01536 1 0.998151
1.00658 1.0085 1 0.998095
1.01372 1.01563 1 0.998123
1.00021 1.00199 1 0.998224
1.00544 1.00738 1 0.998079
1.01248 1.0145 1 0.998009
0.998726 1 1 0.998726
0.999034 1.00064 1 0.998391
1.00316 1.00495 1 0.998215
0.999657 1 1 0.999657
0.998861 1 1 0.998861
0.998535 1.00006 1 0.998477
1 1 1 1
0.999712 1 1 0.999712
0.999019 1 1 0.999019
0.999787 1 1 0.999787
1 1 1 1
1 1 1 1
1.01491 1.01682 1 0.998121
1.01636 1.01823 1 0.998168
1.01765 1.0195 1 0.998182
1.00946 1.01142 1 0.998064
1.01483 1.01675 1 0.998116
1.01825 1.02005 1 0.998238
1.01493 1.01681 1 0.998153
1.00886 1.01077 1 0.99811
1.00186 1.00367 1 0.998198
1.00828 1.01019 1 0.998106
1.00159 1.00339 1 0.998204
0.998515 1 1 0.998515
1.00094 1.00272 1 0.998226
0.998636 1 1 0.998636
0.999562 1 1 0.999562
0.998698 1 1 0.998698
0.999605 1 1 0.999605
1 1 1 1
0.999629 1 1 0.999629
0.999967 1 1 0.999967
0.999948 1 1 0.999948
1.01184 1.01372 1 0.998141
1.00692 1.0088 1 0.998132
1.01342 1.0153 1 0.998152
1.00075 1.00253 1 0.99823
1.00687 1.00879 1 0.998094
1.01352 1.01543 1 0.998124
0.998628 1 1 0.998628
1.00014 1.00188 1 0.998264
1.00537 1.00729 1 0.998098
0.999628 1 1 0.999628
0.998713 1 1 0.998713
0.999023 1.00063 1 0.998389
1 1 1 1
0.999666 1 1 0.999666
0.998828 1 1 0.998828
1 1 1 1
0.999722 1 1 0.999722
1 1 1 1
1.00949 1.01142 1 0.998091
1.01448 1.0164 1 0.998119
1.01685 1.01871 1 0.998176
1.00141 1.00325 1 0.99817
1.00948 1.01143 1 0.998072
1.01425 1.01616 1 0.998118
1.00893 1.01084 1 0.99811
1.00188 1.00369 1 0.998198
0.998465 1 1 0.998465
1.00181 1.00358 1 0.998234
0.998546 1 1 0.998546
0.999498 1 1 0.999498
0.998636 1 1 0.998636
0.999559 1 1 0.999559
1 1 1 1
0.999602 1 1 0.999602
1 1 1 1
0.99994 1 1 0.99994
1.00696 1.00883 1 0.998147
1.01198 1.01386 1 0.998142
1.00039 1.00216 1 0.998232
1.00681 1.00869 1 0.998131
1.01335 1.01523 1 0.998153
0.998637 1 1 0.998637
1.0007 1.00248 1 0.998228
1.00714 1.00907 1 0.998094
0.999598 1 1 0.999598
0.998651 1 1 0.998651
1.00006 1.00176 1 0.998305
1 1 1 1
0.999633 1 1 0.999633
0.9987 1 1 0.9987
1 1 1 1
0.999674 1 1 0.999674
1 1 1 1
1.00106 1.00287 1 0.998202
1.00938 1.01131 1 0.998091
1.01398 1.01589 1 0.998117
0.998451 1 1 0.998451
1.00143 1.00326 1 0.99817
1.00945 1.01139 1 0.99808
1.00189 1.0037 1 0.998198
0.998469 1 1 0.998469
0.999445 1 1 0.999445
0.998576 1 1 0.998576
0.999495 1 1 0.999495
1 1 1 1
0.999556 1 1 0.999556
1 1 1 1
1 1 1 1
1.0002 1.00199 1 0.998219
1.0067 1.00857 1 0.998144
1.01212 1.014 1 0.998144
0.998611 1 1 0.998611
1.00057 1.00235 1 0.99823
1.00668 1.00856 1 0.998131
0.999561 1 1 0.999561
0.998636 1 1 0.998636
1.00066 1.00244 1 0.998225
1 1 1 1
0.999601 1 1 0.999601
0.998674 1 1 0.998674
1 1 1 1
0.999639 1 1 0.999639
1 1 1 1
0.998521 1 1 0.998521
1.00105 1.00288 1 0.998171
1.0093 1.01123 1 0.998091
0.99943 1 1 0.99943
0.998451 1 1 0.998451
1.00144 1.00328 1 0.99817
0.998474 1 1 0.998474
0.999444 1 1 0.999444
1 1 1 1
0.999492 1 1 0.999492
1 1 1 1
1 1 1 1
0.998569 1 1 0.998569
1.00025 1.00204 1 0.998209
1.00646 1.00834 1 0.998142
0.999582 1 1 0.999582
0.998609 1 1 0.998609
1.00076 1.00253 1 0.998228
1 1 1 1
0.999563 1 1 0.999563
0.998635 1 1 0.998635
1 1 1 1
0.999604 1 1 0.999604
1 1 1 1
0.99943 1 1 0.99943
0.998497 1 1 0.998497
1.00103 1.0029 1 0.99814
1 1 1 1
0.999429 1 1 0.999429
0.998452 1 1 0.998452
0.999442 1 1 0.999442
1 1 1 1
1 1 1 1
0.999535 1 1 0.999535
0.998569 1 1 0.998569
1.00028 1.00209 1 0.998199
1 1 1 1
0.999524 1 1 0.999524
0.998607 1 1 0.998607
1 1 1 1
0.999564 1 1 0.999564
1 1 1 1
0.999861 1 1 0.999861
0.999478 1 1 0.999478
0.998473 1 1 0.998473
1 1 1 1
0.999429 1 1 0.999429
1 1 1 1
0.999879 1 1 0.999879
0.999511 1 1 0.999511
0.998569 1 1 0.998569
0.999945 1 1 0.999945
0.999522 1 1 0.999522
1 1 1 1
1 1 1 1
0.999445 1 1 0.999445
1 1 1 1
0.999935 1 1 0.999935
0.99948 1 1 0.99948
1 1 1 1
1 1 1 1
1 1 1 1

VECTORS lamdaE float
0.999715 1.00019 0.995671
0.999626 1.00007 0.998083
0.999494 1.00039 0.995791
0.99997 0.99992 0.995582
0.99977 1.00002 0.995783
0.999662 1.00025 0.995592
1.00086 1.00054 0.993056
0.999593 0.999945 0.998144
0.999592 1.00025 0.99819
0.9993 1.0005 0.998246
0.999612 0.999689 0.996315
1.00052 1.00108 0.992697
1 1.00001 0.995366
0.999731 0.999952 0.995671
0.999293 1.00062 0.995886
0.999802 0.999899 0.995746
0.999457 1.0005 0.995713
0.99958 1.00011 0.995915
1.00099 1.00041 0.993001
0.999969 1 0.997863
1.00002 0.999973 0.995439
0.99989 0.999913 0.995719
1.00124 0.999946 0.992967
1.00101 1.00016 0.993166
0.999568 0.999921 0.995958
1.00059 1.00106 0.992954
1.00321 1.00041 0.989136
0.999544 0.999839 0.99822
0.999707 1.00012 0.996893
0.999456 1.00038 0.996949
0.999559 0.999503 0.99834
1.0004 1.00119 0.992711
0.999939 0.999853 0.995569
0.999708 1.00039 0.995592
1.00134 1.00017 0.993287
0.999368 0.998896 0.998763
1.00092 1.00083 0.993419
1.00022 1.001 0.993283
1.00187 1.00218 0.989183
0.999454 0.998143 0.999015
1 1.00001 0.997827
0.999855 0.999982 0.996769
1.00001 1 0.997817
0.999721 1.00002 0.995663
1.0015 1.00006 0.991878
0.999754 0.999955 0.998134
1.00154 1.00006 0.993046
0.999632 0.999846 0.995912
0.999403 1.0002 0.996032
0.999234 1.00081 0.995829
1.0011 1.00026 0.992958
0.999886 1.00001 0.996731
0.999839 0.999964 0.995615
0.999411 1.00011 0.996075
0.999719 0.99992 0.995869
1.00131 0.999906 0.992904
1.0007 1.00097 0.992918
1.00111 1.00006 0.993115
1.00319 1.00043 0.989146
0.999972 1 0.997846
1.00003 1.00001 0.995378
1.00136 1.00001 0.993294
1.00129 0.999991 0.992823
1.00116 0.999963 0.993089
1.0036 0.999884 0.988908
1.00337 0.999982 0.988958
0.999593 0.999202 0.996574
0.999896 1.00138 0.993649
1.00265 1.00132 0.989204
1.00436 0.999966 0.986857
0.999839 1.00014 0.997968
0.999507 0.999291 0.998483
0.99959 1.00019 0.998058
1.00031 1.00127 0.99273
0.999956 0.999977 0.99795
0.999748 1.0003 0.997982
1.00125 1.00012 0.992186
0.999434 0.998973 0.997834
1.00073 1.00092 0.992358
1.0001 1.00104 0.9939
1.00188 1.00213 0.989181
0.999507 0.998498 0.998817
0.999605 0.999557 0.995823
1.00143 0.999926 0.992113
1.00114 1.00043 0.992184
1.0036 1.00015 0.988017
0.999876 1.00061 0.995173
1.00266 1.00127 0.988635
1.00107 1.00289 0.989958
1.00271 1.00243 0.987294
0.999458 0.997818 0.99914
0.999414 0.99808 0.999067
0.999987 0.999966 0.997892
0.999998 1 0.997839
1.00001 1 0.997819
0.999854 1 0.996755
1.00152 1.00004 0.992484
0.999857 0.999952 0.996817
1.00149 1.00008 0.992508
1.00002 1 0.997815
1.00147 0.999994 0.991952
1.00155 1.0001 0.993029
1.00385 0.999835 0.987899
1.00149 0.999966 0.993183
1.00381 0.999953 0.987863
0.999975 1.00001 0.995428
0.999658 0.999944 0.995797
0.999233 1.0003 0.996221
0.99955 0.999913 0.996015
1.00139 0.999898 0.992842
1.00121 0.999959 0.993071
1.00081 1.00082 0.992886
1.00318 1.00046 0.989155
1.00001 1 0.997828
0.999845 1 0.995559
1.00145 0.999994 0.992304
1.00136 0.999971 0.992754
0.999483 0.999332 0.997516
1.00013 1.00126 0.99379
1.00124 0.999911 0.993034
1.00361 0.999869 0.988773
1.00265 1.00139 0.989161
1.00337 1.00005 0.989064
1.00432 1 0.986869
1.00145 1.00001 0.991978
1.00133 0.999998 0.992744
1.00378 0.999767 0.988429
1.00365 0.999858 0.988566
1.00353 0.999835 0.988795
1.00473 0.999577 0.986874
0.99953 0.998759 0.998699
1.00445 0.999757 0.986912
0.999774 1.00108 0.993876
1.0014 1.00242 0.989635
1.0039 1.00111 0.986644
1.00492 0.999603 0.986115
0.999766 1.00022 0.994787
1.00019 1.00247 0.991848
0.999936 1.00001 0.997957
0.999692 1.00027 0.997994
1.00125 1.0001 0.992191
0.999468 0.998769 0.998747
0.99993 1.00121 0.993462
1.00066 1.00098 0.992371
1.00188 1.00209 0.989179
0.999453 0.998433 0.998893
0.999609 0.99948 0.995864
1.00144 0.999959 0.992687
1.00111 1.00046 0.992763
1.0036 1.00015 0.98802
0.99978 1.00062 0.994437
1.00266 1.00125 0.988646
1.00103 1.00288 0.989964
1.00273 1.00243 0.987215
0.999647 1.00013 0.995174
0.999684 0.998996 0.996256
1.00008 1.00173 0.992804
1.00374 1 0.98792
1.00324 1.00058 0.988239
1.00469 0.999944 0.98626
1.00059 1.00283 0.990896
1.00369 1.00121 0.986631
1.00176 1.00364 0.987997
1.00302 1.00249 0.986821
0.999525 0.997542 0.999192
0.999446 0.99777 0.99916
0.999383 0.998019 0.999108
0.999765 0.999829 0.995197
0.999545 0.998459 0.998827
0.999977 0.999962 0.997927
0.999982 0.999988 0.997861
1.00143 1.00008 0.991958
1.00145 1.00005 0.991935
0.999991 1 0.99783
1.00001 1 0.997818
1.00146 1 0.99195
1.00149 1.00009 0.992481
1.00385 0.999834 0.987897
1.00142 0.999985 0.992056
1.00381 0.999954 0.987858
1.00147 0.999987 0.991951
1.00387 0.999773 0.98792
1.00383 0.999899 0.987882
1.00488 0.999327 0.986568
1.00379 0.999976 0.98787
1.00487 0.999579 0.986356
1.00001 1 0.997819
0.999667 1.00001 0.995743
1.00146 0.999991 0.991397
1.00144 0.999962 0.992683
0.999287 0.999381 0.998598
1.00039 1.0011 0.993917
1.00132 0.999876 0.992982
1.00362 0.999841 0.988638
1.00336 1.00011 0.98917
1.00266 1.00149 0.989119
1.00429 1.00004 0.986881
1.00145 0.999998 0.991977
1.00141 0.999998 0.992667
1.00379 0.999758 0.98814
1.00367 0.999894 0.988654
0.999534 0.998833 0.998648
0.999916 1.00096 0.994284
1.00149 1.00249 0.989783
1.00353 0.999868 0.988786
1.00473 0.99949 0.986757
1.0038 1.00107 0.98662
1.00446 0.9998 0.987021
1.00493 0.999632 0.986131
0.999762 1.00026 0.994781
1.00023 1.00239 0.991854
1.00386 0.999766 0.987945
1.00373 0.999835 0.988454
1.00483 0.999392 0.986854
1.00476 0.999406 0.986619
1.00463 0.999593 0.986959
1.00512 0.998974 0.98658
0.999768 1.00062 0.994349
1.00497 0.999317 0.986362
1.00067 1.00281 0.990563
1.00255 1.00268 0.98706
1.0047 1.00068 0.985863
1.0051 0.999414 0.986117
1.00037 1.0026 0.991443
1.00014 1.00198 0.992417
1.00056 1.00337 0.990373
1.00138 0.99994 0.992153
0.999405 0.998359 0.998967
0.999613 0.999393 0.995903
1.00099 1.00052 0.992235
1.0036 1.00015 0.988022
0.999734 1.00065 0.994382
1.00098 1.00288 0.989971
1.00265 1.00124 0.988656
1.00274 1.00242 0.987135
0.999643 1.00006 0.995202
0.999683 0.998947 0.99628
1.00002 1.0018 0.992819
1.00374 1.00001 0.987919
1.00325 1.00057 0.988246
1.0047 0.999937 0.986251
1.00052 1.00287 0.990909
1.00375 1.00124 0.986638
1.00174 1.00366 0.987984
1.00303 1.00241 0.986821
0.999784 0.998603 0.996463
1.00028 1.00237 0.991819
1.00001 1.00097 0.993696
1.00026 1.00312 0.991175
1.0048 0.999785 0.98625
1.00437 1.00041 0.986382
1.00508 0.999687 0.985811
1.00102 1.00389 0.989158
1.00431 1.00081 0.985957
1.00198 1.00407 0.987009
1.00365 1.00178 0.986256
1.00026 0.999798 0.994429
0.999958 0.998148 0.996591
0.999621 0.997286 0.999218
0.99953 0.997488 0.999201
0.999439 0.997709 0.999177
0.999792 0.999446 0.995546
0.999544 0.998202 0.998932
0.99976 0.999881 0.995177
0.999562 0.998505 0.998783
1.00142 1.00001 0.99205
1.00144 1.00008 0.991927
1.00381 0.999956 0.987854
1.00385 0.999834 0.987895
1.00147 1.00001 0.99195
1.00002 1 0.997811
1.00147 0.999989 0.991951
1.00387 0.999778 0.987918
1.00383 0.999905 0.987879
1.00488 0.999329 0.986562
1.00378 0.999992 0.987864
1.00487 0.99958 0.986349
1.00387 0.999763 0.987932
1.0049 0.999232 0.986636
1.00488 0.999457 0.986463
1.00516 0.998535 0.986869
1.00485 0.99968 0.986278
1.00518 0.9989 0.98646
1.00146 0.999985 0.991975
1.00148 0.999983 0.992588
1.00379 0.999735 0.987853
1.00369 0.999924 0.988743
0.999542 0.99891 0.998593
1.00006 1.00092 0.994629
1.00163 1.00253 0.98993
1.00352 0.99989 0.988777
1.00472 0.999401 0.986639
1.00446 0.999846 0.98713
1.0037 1.00103 0.986597
1.00493 0.999659 0.986146
0.999763 1.00029 0.994774
1.00028 1.00231 0.991861
1.00385 0.999729 0.98787
1.00375 0.999824 0.988441
1.00484 0.999335 0.986872
1.00477 0.999485 0.986721
0.999802 1.00062 0.994349
1.00078 1.00278 0.990536
1.00253 1.00277 0.987189
1.00463 0.999635 0.986961
1.00512 0.99886 0.986651
1.00471 1.00057 0.98576
1.00496 0.99932 0.986384
1.0051 0.999372 0.986122
1.00039 1.00253 0.991454
1.00048 1.0034 0.990391
1.00017 1.00197 0.992407
1.00488 0.999322 0.986822
1.00481 0.999385 0.986837
1.00515 0.998631 0.986872
1.00514 0.998814 0.986612
1.00505 0.998942 0.986562
1.00517 0.997934 0.987438
1.00047 1.00264 0.991178
1.00513 0.998728 0.986631
1.00146 1.00329 0.988789
1.00356 1.00277 0.98531
1.00506 1.0004 0.985369
1.00513 0.998778 0.986704
1.00016 1.00145 0.992922
1.00079 1.00294 0.990356
1.00027 1.00351 0.99064
1.00082 1.00344 0.989955
1.00373 1.00002 0.987917
0.999676 0.99891 0.996306
0.999637 1 0.99523
0.999986 1.00185 0.992833
1.00325 1.00056 0.988254
1.00471 0.999931 0.986241
1.00045 1.00293 0.990922
1.00171 1.00368 0.98797
1.00383 1.00127 0.986645
1.00304 1.00234 0.98682
0.999781 0.998582 0.996471
1.00026 1.00242 0.99182
1 1.00095 0.99372
1.00019 1.00322 0.991168
1.0048 0.999784 0.986242
1.00438 1.00041 0.986373
1.00509 0.999686 0.985797
1.00098 1.00386 0.989172
1.00438 1.00088 0.985993
1.00203 1.00414 0.986948
1.0035 1.00148 0.986782
0.999882 0.998329 0.99655
1.00009 1.00035 0.994187
1.00059 1.00353 0.990241
1.00015 1.00235 0.992132
1.00021 1.0041 0.990304
1.00511 0.999457 0.986001
1.00491 1.00001 0.98576
1.00513 0.999345 0.986077
1.00125 1.00473 0.987843
1.00467 1.00042 0.985755
1.00276 1.00317 0.985897
1.00023 0.999866 0.994417
1.00023 1.00098 0.993333
1.00028 0.999775 0.994427
1.00025 0.999812 0.994427
1 0.997968 0.997129
0.999946 0.998137 0.996849
0.999778 0.997098 0.998211
0.999633 0.997242 0.999223
0.999539 0.997435 0.99921
0.999845 0.999102 0.9958
0.999563 0.997958 0.999013
0.999789 0.999491 0.995525
0.999567 0.998241 0.998898
0.999756 0.999928 0.995157
0.99958 0.998556 0.998738
1.00378 1 0.987858
1.00383 0.99991 0.987876
1.00486 0.99959 0.986342
1.00488 0.999331 0.986556
1.00387 0.999784 0.987917
1.00147 0.999993 0.99195
1.00387 0.999761 0.987932
1.00489 0.999234 0.986636
1.00487 0.999468 0.986456
1.00516 0.998463 0.98696
1.00485 0.999685 0.98627
1.00517 0.998922 0.986453
1.0049 0.999211 0.98665
1.00514 0.998346 0.987128
1.00518 0.998668 0.98669
1.00516 0.997618 0.98779
1.00515 0.99919 0.986226
1.00516 0.997684 0.987671
1.00384 0.999693 0.987795
1.00377 0.999823 0.988429
1.00484 0.999283 0.986891
1.00477 0.999565 0.986824
0.999842 1.00061 0.994348
1.00083 1.00279 0.990508
1.00251 1.00285 0.987317
1.00464 0.999676 0.986962
1.00512 0.998744 0.986722
1.00495 0.999324 0.986406
1.00471 1.00044 0.985657
1.0051 0.999342 0.986126
1.00042 1.00246 0.991466
1.00045 1.00339 0.990409
1.00019 1.00195 0.992397
1.00489 0.999285 0.986732
1.00482 0.999382 0.986827
1.00514 0.998512 0.986971
1.00514 0.99885 0.986625
1.00052 1.00261 0.99117
1.00153 1.00327 0.988748
1.00337 1.00286 0.985567
1.00506 0.99906 0.986531
1.00516 0.997782 0.987616
1.00506 1.00037 0.985264
1.00512 0.998725 0.986656
1.00512 0.998714 0.986801
1.00083 1.00294 0.990361
1.00081 1.00347 0.989906
1.00017 1.00146 0.992911
1.00022 1.00347 0.990724
1.00515 0.998512 0.986937
1.00515 0.998695 0.986908
1.00515 0.997842 0.98756
1.00516 0.997372 0.98801
1.00515 0.99815 0.987267
1.00512 0.996948 0.988488
1.00106 1.00283 0.989993
1.00512 0.997655 0.987663
1.00168 1.00406 0.987205
1.00451 1.00244 0.984572
1.00516 1 0.985324
1.00511 0.998394 0.987056
1.00016 1.0011 0.993281
1.00016 1.00306 0.991257
1.00102 1.00299 0.989923
1.00042 1.00404 0.989965
1.00102 1.00315 0.989889
0.999777 0.998567 0.99648
1.00479 0.999783 0.986234
1 1.00091 0.993743
1.00021 1.00249 0.991822
1.00012 1.00332 0.99116
1.00438 1.00042 0.986363
1.0051 0.999685 0.985782
1.00099 1.00379 0.989187
1.0021 1.0042 0.986887
1.00445 1.00094 0.986029
1.00337 1.00118 0.987302
0.999878 0.998325 0.996553
1.00009 1.00033 0.994198
1.00059 1.00348 0.990251
1.00008 1.00243 0.992141
1.00015 1.00422 0.990194
1.00512 0.999467 0.985981
1.00493 1.00001 0.985747
1.00512 0.999352 0.986044
1.00119 1.00477 0.987863
1.00462 1.00048 0.985891
1.003 1.00304 0.985956
1.00018 1.00002 0.994363
1.00016 1.00159 0.992872
1.00074 1.00437 0.989148
0.99999 1.00363 0.991162
1.00034 1.0045 0.989789
1.00513 0.998768 0.986639
1.00507 0.999767 0.985693
1.00511 0.998319 0.986864
1.00149 1.00485 0.987114
1.00442 1.00136 0.985176
1.00022 0.99988 0.994414
1.00023 1.00098 0.993261
1.00021 1.00099 0.993294
1.00017 1.0017 0.992854
1.00022 1.00102 0.993318
1.00027 0.999801 0.994405
1.00027 0.999783 0.994426
1.00006 0.997851 0.997132
1.00025 0.999828 0.994424
1.00001 0.997969 0.997129
0.999883 0.996872 0.998234
0.999936 0.998132 0.997103
0.99975 0.997053 0.998726
0.999645 0.997198 0.999228
0.999903 0.99881 0.995997
0.999841 0.999142 0.995784
0.999606 0.997733 0.999068
0.999579 0.998 0.998988
0.999785 0.999539 0.995504
0.999589 0.998278 0.998859
1.00484 0.999689 0.986263
1.00486 0.999471 0.986448
1.00517 0.998942 0.986446
1.00517 0.998389 0.98705
1.00489 0.999236 0.986636
1.00387 0.999759 0.987932
1.0049 0.999211 0.986652
1.00514 0.998357 0.987128
1.00518 0.998679 0.98669
1.00516 0.997488 0.987953
1.00515 0.999203 0.986206
1.00517 0.997563 0.987782
1.00515 0.998396 0.987083
1.00512 0.997622 0.987848
1.00517 0.997318 0.988083
1.00512 0.996761 0.988718
1.00514 0.998125 0.987244
1.00514 0.996748 0.988728
1.00489 0.999245 0.986642
1.00483 0.999386 0.986817
1.00514 0.998389 0.98707
1.00513 0.998883 0.986638
1.00057 1.00258 0.991162
1.00161 1.00326 0.988708
1.00318 1.00291 0.985824
1.00506 0.99918 0.9865
1.00516 0.997628 0.987795
1.00512 0.998721 0.986682
1.00507 1.00033 0.985159
1.00512 0.998636 0.986898
1.00081 1.00299 0.990367
1.00072 1.00358 0.989856
1.00018 1.00147 0.9929
1.00019 1.00341 0.990808
1.00515 0.998517 0.986936
1.00514 0.998736 0.986823
1.00515 0.99779 0.987636
1.00516 0.997475 0.987892
1.00106 1.00293 0.989957
1.00168 1.00403 0.987433
1.00438 1.00228 0.984549
1.00514 0.998275 0.987116
1.00513 0.996776 0.988609
1.00515 1.00004 0.985308
1.00511 0.997675 0.987674
1.00513 0.998212 0.987128
1.00106 1.003 0.989915
1.00101 1.00312 0.989921
1.00036 1.00414 0.989948
1.00016 1.0011 0.993206
1.00014 1.003 0.991339
1.00513 0.99771 0.987826
1.00514 0.997416 0.988041
1.00512 0.996275 0.989191
1.00511 0.996855 0.988458
1.00115 1.00344 0.989202
1.00511 0.997251 0.988224
1.00186 1.00397 0.986597
1.00499 1.00191 0.984294
1.00515 0.999517 0.985674
1.00013 1.00078 0.993464
1.00014 1.00256 0.991971
1.00018 1.00372 0.990745
1.00118 1.00283 0.989855
1.00052 1.00434 0.989479
1.00125 1.00261 0.989765
0.999873 0.998324 0.996556
1.00009 1.0003 0.994209
1.00513 0.999477 0.98596
1.00002 1.00251 0.99215
1.00054 1.0035 0.99026
1.00009 1.00435 0.990083
1.00495 1.00001 0.985735
1.00512 0.999358 0.98601
1.00112 1.00483 0.987883
1.00322 1.00298 0.986016
1.00455 1.00054 0.986032
1.00017 1.00002 0.994364
1.00013 1.00159 0.992887
1.0007 1.00442 0.989124
0.999925 1.0037 0.991163
1.00029 1.00444 0.989801
1.00513 0.998799 0.986616
1.00508 0.999779 0.985654
1.00511 0.998331 0.986919
1.00148 1.00482 0.986995
1.00444 1.00149 0.985241
1.00021 1.00115 0.993224
0.999911 1.00286 0.991902
1.00091 1.0043 0.988788
0.999922 1.00459 0.99019
1.00067 1.00402 0.989586
1.00513 0.997066 0.988174
1.00508 0.999467 0.985947
1.00507 0.998092 0.987105
1.00257 1.00404 0.986418
1.00456 1.00084 0.985216
1.00022 0.999892 0.994411
1.00023 1.00097 0.993296
1.00006 1.00175 0.992798
1.0002 1.001 0.993255
1.00021 1.00103 0.993317
1.00011 1.00173 0.9928
1.00004 1.00214 0.992573
1.00011 1.00179 0.992671
1.00021 1.00109 0.993273
1.00024 0.99989 0.994372
1.00027 0.999814 0.994405
1.00011 0.997796 0.997105
1.00027 0.999792 0.994426
1.00007 0.997863 0.997128
0.999959 0.996736 0.998233
1.00002 0.99797 0.99713
0.999871 0.996845 0.99824
0.999718 0.996998 0.999249
0.999958 0.998517 0.996203
0.999902 0.998836 0.995982
0.999666 0.997493 0.999113
0.999835 0.999184 0.995768
0.999613 0.997772 0.999052
0.999597 0.998034 0.99896
1.00515 0.999216 0.986187
1.00518 0.998693 0.98669
1.00517 0.99744 0.987893
1.00515 0.997358 0.988117
1.00514 0.998367 0.987128
1.0049 0.999212 0.986654
1.00515 0.998445 0.987017
1.00512 0.997701 0.987789
1.00517 0.997387 0.987994
1.00512 0.996606 0.988842
1.00514 0.998151 0.987239
1.00513 0.996539 0.988859
1.00512 0.997792 0.987751
1.00509 0.996732 0.988744
1.00513 0.996165 0.989241
1.00512 0.99652 0.988947
1.00515 0.998521 0.986935
1.00514 0.998775 0.986738
1.00515 0.997743 0.987713
1.00516 0.997579 0.987773
1.00111 1.00297 0.989921
1.00168 1.00399 0.987662
1.00425 1.00214 0.984527
1.00514 0.9984 0.986965
1.00514 0.996607 0.988729
1.00511 0.997695 0.987686
1.00514 1.00009 0.985292
1.00514 0.998041 0.987202
1.0011 1.00301 0.989907
1.00107 1.003 0.989952
1.00031 1.00425 0.989931
1.00016 1.00109 0.993131
1.00012 1.00294 0.991421
1.00513 0.99772 0.987821
1.00514 0.997444 0.988032
1.00512 0.996377 0.989047
1.00123 1.00344 0.989164
1.00205 1.00407 0.98671
1.00484 1.00168 0.98426
1.00511 0.996897 0.988443
1.00513 0.999342 0.985882
1.00511 0.997213 0.988075
1.00013 1.00074 0.993519
1.00125 1.00276 0.98983
1.00117 1.00251 0.990051
1.00055 1.00444 0.989378
1.00019 1.00373 0.990767
1.00013 1.00255 0.991909
1.00506 0.997156 0.988346
1.00515 0.99609 0.989306
1.00509 0.995841 0.989445
1.00511 0.996188 0.989165
1.00137 1.00361 0.988698
1.0051 0.99796 0.987332
1.00284 1.00361 0.985493
1.00501 1.00132 0.984533
1.00015 1.0003 0.993916
1.00012 1.00219 0.992368
1.00017 1.00322 0.991331
1.00014 1.00446 0.989994
1.00139 1.0025 0.989688
1.00128 1.00329 0.989157
1.00017 1.00002 0.994364
1.00011 1.00158 0.992903
1.00513 0.99883 0.986593
0.999865 1.00376 0.991165
1.00067 1.00445 0.989099
1.00016 1.00438 0.989814
1.0051 0.999792 0.985615
1.0051 0.998347 0.986974
1.00149 1.0048 0.986875
1.00447 1.00158 0.985305
1.0002 1.00114 0.993233
0.999964 1.00281 0.991932
1.00092 1.00436 0.988799
0.999831 1.00472 0.99016
1.00051 1.0038 0.98995
1.00513 0.99704 0.988361
1.00508 0.999467 0.985998
1.00507 0.998184 0.987065
1.00241 1.00419 0.986332
1.00468 1.00075 0.985136
0.999989 1.00202 0.99259
0.999801 1.00387 0.990911
1.00135 1.00386 0.988492
1.00005 1.00478 0.989181
1.00512 0.995574 0.989685
1.00501 0.997143 0.98845
1.00505 0.999375 0.985985
1.00307 1.00247 0.985568
1.00024 1.00096 0.993331
1.00007 1.00177 0.992815
0.999892 1.00239 0.992579
1.0002 1.00104 0.993316
1.00007 1.00176 0.992746
1.00021 1.00109 0.993269
1.00002 1.00213 0.992552
1.00012 1.00178 0.992698
0.999975 1.00237 0.992421
1.00008 1.00219 0.992387
1.00014 1.00187 0.992522
1.00021 1.0012 0.993159
1.0002 0.999978 0.994345
1.00024 0.999888 0.99437
1.00014 0.99778 0.997069
1.00027 0.999813 0.994404
1.00011 0.997819 0.997099
1.00002 0.996655 0.998209
1.00008 0.997876 0.997125
0.999951 0.996705 0.99824
0.99986 0.996821 0.998242
1.00002 0.998205 0.996405
0.999962 0.998531 0.996188
0.999739 0.997216 0.999164
0.999899 0.998867 0.995968
0.999667 0.997544 0.999099
0.999623 0.997809 0.999034
1.00514 0.998175 0.987233
1.00516 0.997458 0.987905
1.00513 0.996333 0.988989
1.00512 0.996452 0.988965
1.00513 0.997781 0.987731
1.00516 0.998496 0.98695
1.00512 0.997789 0.98776
1.00509 0.996783 0.988698
1.00513 0.996193 0.989193
1.00513 0.996471 0.988988
1.00503 0.997099 0.988529
1.00517 0.995603 0.98983
1.00515 0.995484 0.98967
1.00513 0.997727 0.987816
1.00513 0.997472 0.988023
1.00512 0.996482 0.988904
1.0013 1.00344 0.989125
1.00224 1.00419 0.986822
1.00468 1.00148 0.984227
1.00511 0.996937 0.988428
1.00512 0.997175 0.987926
1.00512 0.999174 0.98609
1.00131 1.00271 0.989806
1.00104 1.00244 0.990339
1.00058 1.0046 0.989278
1.00014 1.00069 0.993574
1.00019 1.00372 0.990788
1.00012 1.00253 0.991848
1.00505 0.9972 0.988381
1.00516 0.996013 0.989372
1.00509 0.995844 0.989486
1.0014 1.00362 0.988665
1.00268 1.00378 0.985776
1.00496 1.00109 0.984659
1.00511 0.996237 0.989103
1.0051 0.997926 0.987301
1.00015 1.00028 0.994047
1.00013 1.00219 0.99236
1.00125 1.00242 0.989773
1.0012 1.00332 0.989473
1.00019 1.00441 0.990015
1.00015 1.00327 0.991269
1.00512 0.995743 0.989748
1.00514 0.995228 0.99003
1.00508 0.995564 0.989779
1.0051 0.996391 0.989026
1.00146 1.00348 0.988121
1.00501 0.999776 0.985665
1.00379 1.00331 0.985052
1.00018 0.999962 0.994416
1.00014 1.00124 0.993236
1.0001 1.00178 0.99262
1.00007 1.00306 0.991586
1.00007 1.0039 0.99069
1.00008 1.00435 0.989906
1.00189 1.00118 0.98979
1.00116 1.00292 0.990401
1.00018 1.00114 0.993241
1.00001 1.00279 0.991962
1.00513 0.997019 0.988548
0.999863 1.00484 0.990128
1.00091 1.00446 0.988811
1.00033 1.00363 0.990313
1.00508 0.999461 0.986049
1.00508 0.99827 0.987026
1.00225 1.00429 0.986249
1.00483 1.00065 0.985057
1.00001 1.00205 0.992535
0.999863 1.00391 0.990906
1.00126 1.00395 0.988552
1.00029 1.00477 0.989294
1.00513 0.995489 0.989806
1.00503 0.997215 0.988236
1.00504 0.999371 0.985995
1.00342 1.00261 0.985415
0.999838 1.00293 0.992066
1.0051 0.994984 0.990235
1.00014 1.00475 0.990017
1.00146 1.00454 0.987558
1.005 0.99594 0.989853
1.00489 0.998477 0.986726
1.00443 1.00139 0.985398
1.00007 1.0018 0.992831
0.999885 1.00238 0.992562
0.999732 1.00291 0.992347
1.00021 1.00108 0.993264
1.00012 1.00178 0.992724
0.999976 1.00214 0.992532
1.00021 1.00119 0.993149
1.00013 1.00187 0.992544
0.999941 1.00241 0.992383
1.00011 1.00215 0.992423
1.00007 1.00241 0.992223
1.00006 1.00236 0.992247
1.00015 1.00236 0.992148
1.00026 1.00192 0.992317
1.00023 1.0013 0.993022
1.00017 1.00005 0.994317
1.0002 0.999984 0.994344
1.00016 0.997808 0.997016
1.00024 0.999901 0.994368
1.00014 0.997813 0.997062
1.00006 0.996594 0.998187
1.00012 0.997843 0.997093
1.00002 0.996619 0.998216
0.999943 0.996676 0.998244
1.00016 0.999828 0.994588
1.00007 0.997962 0.996561
1.00003 0.998218 0.996392
0.999819 0.996953 0.999206
0.999965 0.99855 0.996174
0.999735 0.997278 0.999148
0.99967 0.997592 0.999085
1.00513 0.996421 0.989029
1.00513 0.996222 0.989146
1.0051 0.996834 0.988651
1.00512 0.997786 0.987769
1.00503 0.997049 0.988604
1.00515 0.995615 0.989828
1.00515 0.995523 0.989659
1.00513 0.995522 0.989894
1.00521 0.995066 0.990219
1.00504 0.994931 0.990621
1.00504 0.997247 0.988415
1.00517 0.995936 0.989438
1.00509 0.995832 0.989527
1.00143 1.00363 0.988632
1.00254 1.00395 0.986059
1.00492 1.00084 0.984786
1.00511 0.996291 0.989042
1.0051 0.997875 0.987269
1.00112 1.00236 0.989858
1.00116 1.00334 0.989785
1.00015 1.00442 0.990036
1.00015 1.00025 0.994178
1.00015 1.00218 0.992353
1.00012 1.00332 0.991207
1.00513 0.995678 0.989758
1.00017 0.999975 0.994414
1.00013 1.00125 0.99318
1.00514 0.995277 0.990036
1.00509 0.995515 0.989743
1.00127 1.00363 0.988458
1.00365 1.00328 0.98499
1.00496 0.999688 0.985654
1.00504 0.9964 0.988921
1.00012 1.00176 0.992791
1.00009 1.00302 0.991571
1.00205 1.00146 0.989558
1.00075 1.00295 0.990657
1.0001 1.00445 0.989919
1.00006 1.00386 0.990752
1.00521 0.995134 0.990118
1.00506 0.994991 0.990388
1.00509 0.995162 0.989892
1.00504 0.996704 0.988301
1.00168 1.00293 0.98861
1.00419 1.00268 0.98496
1.00012 1.00112 0.993248
1.00014 1.00141 0.993078
1.0001 1.00227 0.992426
1.00004 1.00295 0.991534
1.00001 1.00364 0.991219
1.00026 1.00401 0.990144
0.999628 1.00469 0.99032
1.00125 1.00134 0.990873
1.00004 1.00206 0.992481
0.999929 1.00393 0.990902
1.00514 0.995396 0.989926
1.00504 0.997307 0.988024
1.00051 1.00478 0.989405
1.0012 1.00401 0.98861
1.00502 0.999365 0.986005
1.00378 1.0028 0.985259
0.999856 1.00293 0.99203
1.00511 0.994969 0.990275
0.999983 1.00471 0.990115
1.00146 1.00438 0.987529
1.00498 0.995813 0.989737
1.00482 0.998498 0.986949
1.00435 1.00159 0.985434
0.999838 1.00417 0.991134
1.00477 0.995121 0.991469
1.00089 1.00467 0.989318
1.00245 1.00416 0.986942
1.00481 0.996784 0.988778
1.004 1.00061 0.986373
0.999626 0.998132 0.991934
0.999877 1.00238 0.992546
0.999705 1.00294 0.992336
0.999942 1.00304 0.991969
1.00021 1.00119 0.993139
1.00013 1.00188 0.992566
1.00013 1.00211 0.99246
0.99992 1.00241 0.992345
1.00023 1.00129 0.993018
1.00024 1.00194 0.992317
1.00008 1.00246 0.992126
1.00013 1.00237 0.992151
1.0001 1.00232 0.992268
1.00021 1.00225 0.992122
1.00024 1.0025 0.991837
1.0002 1.00238 0.992035
1.00035 1.00202 0.992075
1.00026 1.00135 0.992816
1.00027 1.00183 0.992504
1.00025 1.00135 0.992824
1.00017 1.00009 0.994284
1.00017 1.00005 0.994317
1.00018 0.997877 0.996441
1.0002 0.999983 0.994343
1.00017 0.997844 0.996745
1.00003 0.996539 0.999219
1.00014 0.997845 0.997057
1.00006 0.996553 0.998193
1.00001 0.996584 0.99822
1.00013 0.999711 0.994733
1.00016 0.999814 0.994589
1.0001 0.997797 0.996684
1.00006 0.997966 0.996812
0.999892 0.996741 0.999242
1.00003 0.998226 0.99638
0.999812 0.997014 0.999194
0.999733 0.997344 0.999132
1.00515 0.995569 0.989648
1.00514 0.995616 0.989827
1.00504 0.996996 0.988679
1.00512 0.995521 0.98989
1.0052 0.995061 0.990172
1.00504 0.994938 0.990442
1.0052 0.994897 0.990305
1.00083 0.997371 0.988411
1.0045 0.994974 0.992513
1.00008 1.00103 0.993542
1.00514 0.995607 0.989767
1.00513 0.995335 0.990043
1.00509 0.995478 0.989706
1.00107 1.00376 0.988795
1.00351 1.00326 0.984928
1.00493 0.999613 0.985643
1.00498 0.996423 0.988813
1.00227 1.00162 0.989332
1.00033 1.00298 0.99092
1.00016 1.0045 0.989933
1.00016 0.999994 0.994412
1.00007 1.00381 0.990813
1.00013 1.00172 0.992962
1.0001 1.003 0.991555
1.00012 1.00125 0.993123
1.00521 0.995029 0.990165
1.00011 1.00111 0.993344
1.00014 1.00141 0.993076
1.00012 1.00225 0.992319
1.00504 0.995024 0.990381
1.0051 0.995273 0.989773
1.00176 1.0028 0.988671
1.00385 1.00235 0.985202
1.00499 0.996968 0.988255
1.00004 1.00295 0.991624
1.00004 1.00359 0.99111
1.00118 1.00173 0.990637
0.99977 1.00468 0.990393
1.0003 1.00391 0.990204
1.00511 0.994975 0.990458
1.0051 0.994915 0.990373
1.00507 0.99585 0.989226
1.00433 0.999275 0.987934
1.00118 1.00309 0.989436
1.00007 1.00217 0.992272
1.00012 1.00247 0.991881
0.999935 1.00327 0.991564
0.999932 1.00402 0.990989
0.999987 1.00399 0.990674
0.999847 1.00456 0.990168
0.99993 1.00446 0.990307
0.999888 1.00292 0.991993
0.999814 1.0047 0.990214
1.00512 0.994949 0.990314
1.00496 0.995666 0.989621
1.00478 0.998502 0.987171
1.00146 1.00417 0.987503
1.00431 1.00177 0.985471
0.999798 1.00404 0.991276
1.00468 0.995057 0.991497
1.00056 1.0045 0.989512
1.00212 1.00427 0.986952
1.0048 0.996608 0.989056
1.00412 1.00053 0.986306
0.999615 0.998047 0.990131
0.99997 1.00423 0.990773
1.00422 0.995824 0.991655
1.00052 1.00452 0.989507
1.00234 1.00286 0.987327
1.0042 0.998038 0.987751
1.00079 0.995584 0.957222
0.996207 0.997377 0.975998
0.998119 1.00132 0.991702
0.999879 0.996484 0.921519
0.994921 0.99816 0.90666
0.999695 1.00294 0.992326
0.999801 1.00314 0.992031
1.00009 1.0024 0.992242
1.00023 1.00129 0.993014
1.00026 1.00189 0.992316
1.00013 1.00238 0.992153
1.00013 1.00228 0.992288
1.0001 1.00252 0.992029
1.00022 1.00235 0.991991
1.00025 1.00134 0.992882
1.00034 1.00201 0.992092
1.00021 1.00226 0.992101
1.00021 1.00252 0.991869
1.00026 1.00251 0.991833
1.00016 1.00229 0.992047
1.00032 1.00242 0.99178
1.0004 1.00202 0.99194
1.00027 1.00137 0.992772
1.00035 1.00192 0.992236
1.00029 1.00204 0.992224
1.00016 1.00189 0.992542
1.00027 1.00185 0.992442
1.00024 1.00125 0.993032
1.00026 1.00135 0.992814
1.0002 1.00008 0.994251
1.00017 1.00009 0.994284
1.00017 0.997939 0.99642
1.00017 1.00006 0.994316
1.00018 0.997883 0.99644
1.00004 0.996541 0.999212
1.00018 0.99788 0.996474
1.00006 0.996539 0.998687
1.00006 0.996512 0.998197
1.00011 0.999649 0.994838
1.00014 0.999716 0.994731
1.00013 0.99767 0.996765
1.00017 0.9998 0.994591
1.0001 0.997768 0.996937
0.999948 0.996562 0.999271
1.00007 0.998006 0.996527
0.999882 0.996823 0.999225
0.999806 0.997061 0.999182
1.00519 0.995051 0.990125
1.00511 0.995536 0.989886
1.00504 0.994941 0.990262
1.00078 0.997042 0.988515
1.00519 0.994902 0.99028
1.00443 0.995332 0.992244
1.00491 0.996058 0.991011
0.99717 0.99741 0.973857
1.00162 0.996224 0.990097
1.00009 1.00099 0.993579
1.0001 1.00101 0.993537
0.99998 1.00214 0.992588
1.00007 1.00189 0.992716
1.00522 0.994924 0.990213
1.00503 0.995046 0.990375
1.0051 0.99538 0.989653
1.00197 1.00259 0.988731
1.00346 1.00194 0.985442
1.00494 0.997272 0.988209
1.00104 1.00224 0.990393
0.999934 1.00469 0.990464
1.00032 1.0038 0.990263
1.00012 1.00145 0.993074
1.00007 1.00353 0.991002
1.00006 1.00294 0.991714
1.00011 1.0011 0.993442
1.00011 1.00225 0.99221
1.00512 0.994942 0.990439
1.00005 1.00223 0.992399
1.00011 1.00248 0.991997
0.999897 1.00308 0.991761
1.0051 0.994911 0.99035
1.00507 0.995695 0.989221
1.00146 1.00274 0.989395
1.00422 0.999207 0.988029
0.99995 1.004 0.990959
1.00007 1.00397 0.990537
0.999948 1.00455 0.990312
1.00011 1.00448 0.990148
1.00499 0.995035 0.990711
1.00509 0.994989 0.990344
1.00442 0.99745 0.989154
1.00151 1.00184 0.990273
0.999959 1.0034 0.991321
0.999983 1.00367 0.991011
0.999626 1.0046 0.990713
0.999793 1.00512 0.98981
1.00019 0.99492 0.952334
0.999735 1.00393 0.991418
1.0002 1.00439 0.989705
1.00462 0.995009 0.991519
1.00478 0.996441 0.989334
1.00423 1.00039 0.986237
1.00172 1.00435 0.986961
0.999692 0.997882 0.988287
0.999825 1.00429 0.990898
1.00432 0.99565 0.991618
1.0004 1.00451 0.989561
1.00248 1.00266 0.987318
1.00441 0.998036 0.987898
1.00148 0.995819 0.951498
0.995938 0.997537 0.972121
0.998046 1.00129 0.991613
0.999837 0.997158 0.923864
0.994702 0.998148 0.899143
0.999816 1.00366 0.991655
0.999897 0.995351 0.927957
0.995093 0.998716 0.908148
1.00318 0.998764 0.990816
1.00014 1.00436 0.990179
1.00269 1.00137 0.987675
0.997369 1.00264 0.9921
0.999802 0.996826 0.956171
0.994862 0.997891 0.970493
0.998467 0.998111 0.92685
0.994783 0.999652 0.907698
0.999669 1.00323 0.992093
0.999995 1.00264 0.992177
0.999974 1.00146 0.99363
1.00026 1.00131 0.992948
1.00034 1.00202 0.99211
1.00016 1.0024 0.991947
1.0002 1.00252 0.991901
1.00021 1.00227 0.99208
1.00027 1.00136 0.992774
1.00024 1.00255 0.991791
1.00031 1.00241 0.991808
1.0004 1.00201 0.992002
1.00019 1.00221 0.992108
1.00024 1.0026 0.991801
1.00019 1.00197 0.992268
1.00044 1.00242 0.991537
1.00042 1.002 0.992051
1.00037 1.00189 0.992226
1.0003 1.00203 0.992224
1.00043 1.00202 0.991969
1.00015 1.00221 0.992258
1.00022 1.00197 0.99227
0.999842 1.00297 0.991977
1.00005 1.00205 0.992559
1.00016 1.00191 0.99254
1.00021 1.00124 0.993105
1.00027 1.00187 0.992381
1.00025 1.00126 0.992981
1.00023 1.00004 0.994239
1.00026 1.00136 0.992805
1.0002 1.00008 0.994253
1.00013 0.997967 0.996965
1.00017 1.00009 0.994284
1.00016 0.997928 0.996693
1.00009 0.996572 0.998118
1.00018 0.997889 0.996439
1.00004 0.996549 0.999209
1.0001 0.996542 0.998155
1.00011 1.00105 0.993486
1.00011 0.999639 0.994858
1.00011 0.999647 0.994837
1.00014 0.997608 0.996799
1.00014 0.999719 0.994729
1.00014 0.99765 0.996764
0.999994 0.996444 0.999285
1.00009 0.997776 0.99717
0.999962 0.996635 0.998759
0.999924 0.996872 0.998187
1.00063 0.99675 0.988642
1.00519 0.994907 0.990256
1.00437 0.995698 0.991975
0.996524 0.997051 0.975447
1.00137 0.996376 0.990331
1.00496 0.995561 0.990841
1.00382 0.996203 0.990064
0.997601 0.996406 0.978224
1.00006 0.995523 0.955516
0.999332 0.99782 0.928324
0.994655 0.99814 0.905196
0.999979 1.002 0.992581
1.00009 1.001 0.993576
1.00012 1.001 0.993531
1.00001 1.00214 0.992547
0.999972 1.0029 0.991908
1.00019 1.00241 0.992059
1.0001 1.00206 0.992529
1.00003 1.00198 0.992643
1.00513 0.994901 0.990418
1.0051 0.994918 0.990321
1.00508 0.995471 0.989219
1.00161 1.00246 0.989357
1.00417 0.999131 0.988122
0.999965 1.00455 0.990318
1.00036 1.0044 0.99013
1.00018 1.00397 0.9904
1.00009 1.00248 0.992113
0.999948 1.00401 0.990929
1.00004 1.0023 0.992526
0.99993 1.00287 0.991957
1.00498 0.99502 0.99075
0.999958 1.00338 0.9914
0.999968 1.00367 0.991137
1.00504 0.99497 0.990235
1.00398 0.997247 0.989532
1.00166 1.00168 0.990136
0.999772 1.00468 0.990516
0.999984 1.00499 0.989831
1.00291 0.998684 0.991173
1.0044 0.996063 0.991068
1.00276 0.997973 0.990732
1.00081 1.00238 0.990602
0.999968 1.00387 0.990823
0.999758 1.00452 0.990579
0.99971 1.00519 0.990073
0.999939 0.994854 0.927898
1.00075 0.994981 0.959757
0.999708 1.00434 0.991024
1.00031 1.00442 0.989615
1.00436 0.995461 0.991585
1.0046 0.99809 0.988045
1.0026 1.00255 0.987312
1.00036 0.995277 0.95549
0.996354 0.997782 0.97162
0.997944 1.00109 0.991508
0.998728 0.996868 0.930058
0.994662 0.998144 0.891556
0.999734 1.00364 0.991681
0.999915 0.995778 0.926739
0.995217 0.99858 0.90452
1.00314 0.998648 0.990798
1.00005 1.00428 0.990291
1.00232 1.00138 0.988371
0.997745 1.00228 0.992729
1.00107 0.996817 0.951733
0.994934 0.997398 0.973991
0.998579 0.998868 0.927148
0.994914 0.999642 0.905646
0.999348 1.00309 0.993231
0.995289 0.998248 0.909751
0.99505 1.00046 0.924799
1.00021 1.00092 0.992925
0.999289 1.00418 0.992286
0.996594 1.0028 0.993447
0.994845 0.999502 0.97482
0.997734 0.998479 0.9501
0.995264 0.999906 0.931762
0.994743 0.998349 0.915208
0.99995 1.00282 0.992112
1.00001 1.0014 0.993564
0.999725 1.00019 0.994833
1.00027 1.00135 0.992776
1.00039 1.00201 0.992064
1.0003 1.00239 0.991836
1.00024 1.00259 0.991749
1.00019 1.00216 0.99217
1.00041 1.00201 0.992042
1.00025 1.00256 0.991788
1.00044 1.00245 0.991535
1.00004 1.00198 0.992423
0.999279 1.00221 0.993536
1.0003 1.00268 0.991618
1.00054 1.00224 0.991648
1.00039 1.00188 0.992215
1.00031 1.00202 0.992224
1.00044 1.00202 0.991966
1.00016 1.00221 0.992246
1.00023 1.00196 0.992314
0.999992 1.00252 0.992183
1.0003 1.00191 0.992156
1.00002 1.0021 0.992536
1.00012 1.00279 0.991746
0.999711 1.00476 0.990117
0.999628 1.00358 0.991555
0.999852 1.00301 0.991962
0.999962 1.00227 0.992487
1.00006 1.00206 0.992555
1.00016 1.00126 0.993141
1.00015 1.00194 0.992538
1.00022 1.00123 0.993107
1.00025 0.999989 0.99425
1.00026 1.00127 0.992931
1.00023 1.00003 0.994241
1.00011 0.997995 0.996975
1.0002 1.00007 0.994255
1.00014 0.997955 0.996695
1.00006 0.996593 0.998126
1.00018 0.997909 0.99642
1.00003 0.996576 0.999204
1.00004 0.996554 0.999207
1.00015 1.00114 0.993529
1.00013 0.999686 0.994785
1.0001 1.00106 0.993488
1.00015 0.997581 0.996806
1.00011 0.999634 0.994858
1.00012 0.99965 0.994836
1.00015 0.997605 0.996797
1.00002 0.996383 0.99929
1.00011 0.997643 0.997246
1.00001 0.996465 0.998792
0.999994 0.996626 0.998273
0.999866 0.995918 0.92253
0.995168 0.997988 0.907986
0.997745 0.996602 0.976133
1.00115 0.996452 0.990573
1.00499 0.995024 0.990673
0.996902 0.995968 0.980068
1.00385 0.995912 0.990259
1.00133 0.995684 0.955317
0.999825 0.996879 0.922335
0.994657 0.998131 0.897669
0.998379 0.996879 0.983167
0.999545 0.997406 0.956424
0.998476 0.998649 0.925171
0.994746 0.999284 0.90634
1.00011 1.00283 0.99169
1.00001 1.00198 0.992655
1.0001 1.00098 0.993573
1.00002 1.00211 0.992506
0.999969 1.0028 0.991995
1.00022 1.00262 0.991791
1.00019 1.00238 0.992049
1.00017 1.00221 0.992178
1.00011 1.00205 0.992457
1.00002 1.00204 0.99257
1.00494 0.994858 0.990796
1.00507 0.994951 0.990141
1.00353 0.997042 0.989916
1.00172 1.0016 0.989999
1.00019 1.00491 0.989852
0.999919 1.00474 0.990318
0.999939 1.00366 0.991263
0.999925 1.00336 0.991478
1.00309 0.997837 0.991388
0.999954 1.0039 0.990798
0.999763 1.00461 0.990457
1.00427 0.996 0.990785
1.00239 0.997948 0.991488
1.00106 1.00252 0.990085
0.99992 1.00513 0.989973
0.999936 0.999425 0.99349
1.00167 0.997775 0.9942
0.999757 1.00397 0.990694
0.99993 1.0039 0.990821
0.999864 1.00456 0.990286
0.999761 1.00512 0.990011
0.994746 0.998173 0.92158
0.999934 0.99495 0.930684
1.00021 0.99498 0.952207
0.999607 1.00375 0.991707
0.999982 1.00416 0.990405
1.00314 0.998505 0.990783
1.00205 1.00148 0.989062
0.999881 0.995511 0.93115
0.99937 0.996762 0.951817
0.994895 0.996781 0.970561
0.998139 1.00133 0.993294
0.998485 0.998147 0.920448
0.995182 0.99841 0.90539
0.994997 0.999628 0.909166
0.999151 1.00306 0.993238
0.995178 0.997724 0.914086
0.995239 1.00063 0.924202
1.00054 1.00095 0.992902
0.998924 1.00428 0.992279
0.996375 1.00072 0.996029
0.994863 0.998698 0.972817
0.997615 0.998743 0.956879
0.997228 0.999886 0.925102
0.99474 0.998313 0.919069
0.998045 1.0024 0.995824
0.99505 0.998294 0.935161
0.994566 0.998255 0.938314
0.996141 1.00243 0.998953
0.994877 1.00002 0.981238
0.995593 1.00002 0.956431
0.99481 0.999952 0.924069
0.994813 0.996983 0.916085
1.00001 1.00135 0.993499
0.999757 1.00029 0.994997
0.998876 1.00097 0.996343
1.0004 1.00203 0.992032
1.00044 1.00248 0.991534
1.00027 1.00249 0.991775
0.99991 1.00202 0.992579
1.00049 1.00228 0.991638
1.00029 1.00264 0.991629
0.999295 1.00205 0.993739
0.997642 1.00277 0.995749
0.999455 1.00304 0.992811
1.00042 1.00231 0.991761
1.00045 1.00202 0.991963
1.00016 1.00221 0.992235
1.00024 1.00197 0.992357
1.0003 1.00194 0.992167
0.999998 1.00254 0.992177
1.00006 1.0021 0.992535
1.00008 1.00233 0.992356
0.999663 1.00185 0.99335
1.00052 1.00149 0.992167
1.00014 1.00267 0.99186
0.999785 1.00407 0.990848
1.00072 1.00494 0.988519
0.999824 1.00429 0.990999
0.999597 1.00481 0.990411
0.999695 1.00358 0.991641
0.999848 1.00267 0.992134
0.999866 1.00306 0.991947
0.999995 1.00227 0.992479
1.00012 1.00136 0.993119
1.00009 1.00205 0.992551
1.00018 1.00126 0.99314
1.00023 1.00001 0.994261
1.00023 1.00123 0.99311
1.00025 0.999996 0.994251
1.00007 0.998024 0.997
1.00023 1.00003 0.994244
1.00012 0.997985 0.996711
1.00001 0.996677 0.998139
1.00016 0.997932 0.996422
1.00003 0.996608 0.998664
1.00003 0.99659 0.999205
1.00017 1.0013 0.993165
1.00016 0.999757 0.994671
1.00012 1.00118 0.99338
1.00016 0.997595 0.996782
1.00013 0.999676 0.994789
1.00008 1.00109 0.993488
1.00003 0.996361 0.999292
1.00015 0.997581 0.996807
1.00011 0.99962 0.994859
1.00015 0.997603 0.996794
1.00002 0.996393 0.999289
0.999992 0.996459 0.999282
0.994844 0.996925 0.916169
0.999901 0.995479 0.926096
0.99527 1.00038 0.924307
0.995225 0.99841 0.905699
0.997658 0.995648 0.976826
1.00383 0.995998 0.99046
1.00074 0.996137 0.954835
0.999841 0.996876 0.929109
0.99467 0.998142 0.890127
0.998325 0.997155 0.982042
1.00125 0.997122 0.948372
0.998564 0.998977 0.925714
0.994745 0.999483 0.902272
0.994989 0.999472 0.977997
0.998245 0.99969 0.949313
0.995912 0.999807 0.921551
0.994742 0.998054 0.909511
1.0001 1.00326 0.991313
1.00008 1.00282 0.991786
0.999992 1.00202 0.992728
0.999965 1.0027 0.992081
1.00032 1.00275 0.99137
1.00022 1.00258 0.991845
1.00016 1.00239 0.992038
1.0003 1.00217 0.992124
1.00021 1.00216 0.992259
1.00012 1.00205 0.992384
1.00336 0.997223 0.991597
1.00412 0.995976 0.990504
1.00211 0.997988 0.992235
1.00135 1.00254 0.989577
1.00005 1.0051 0.989874
0.999797 1.0047 0.990336
0.999989 1.00387 0.990773
0.999976 1.00388 0.99084
1.00029 0.999327 0.993759
0.999923 1.00459 0.990313
0.999863 1.00513 0.990022
1.00174 0.997727 0.99382
1.00024 1.00372 0.990562
0.998677 0.99719 0.995566
0.998648 0.999027 0.998688
0.999559 1.00419 0.991055
0.999994 1.00433 0.990369
0.999864 1.00504 0.98985
0.99472 0.99802 0.940765
0.994764 0.998064 0.920302
0.999896 0.99512 0.924555
0.998954 1.00302 0.99324
0.99863 1.00422 0.992258
1.00079 1.00098 0.992888
0.995135 0.997079 0.915556
0.997962 0.998638 0.950429
0.994861 0.9981 0.973602
0.996382 0.999815 0.99882
0.996249 0.999525 0.931575
0.995565 1.0008 0.923611
0.994757 0.998277 0.919128
0.99808 1.00236 0.99603
0.995129 0.997453 0.937816
0.994615 0.998393 0.938151
0.996363 1.00294 0.998265
0.994862 0.999924 0.982041
0.996289 1 0.950081
0.994789 0.997413 0.917659
0.994867 0.999977 0.928901
0.996757 1.00315 0.998104
0.994445 0.995402 0.958822
0.994594 0.997372 0.941351
0.99475 0.99811 0.909685
0.994921 1.00164 0.994495
0.995787 0.999775 0.958753
0.994876 1.00001 0.92748
0.999867 1.00039 0.99516
0.998993 1.00087 0.996095
0.996958 1.00239 0.998218
1.00044 1.00233 0.991628
1.00026 1.00261 0.991639
0.999252 1.00198 0.993947
1.00034 1.00226 0.991839
0.999458 1.00298 0.992837
0.997923 1.00277 0.995345
0.997409 1.00321 0.996201
0.99942 1.00261 0.993207
1.0003 1.00198 0.992179
0.999998 1.00258 0.992171
1.00011 1.0021 0.992534
0.999777 1.00186 0.993278
1.00008 1.00224 0.992379
0.999602 1.00219 0.993228
1.0001 1.0018 0.992621
1.00038 1.00333 0.990446
1.00018 1.00256 0.991976
1.00009 1.00399 0.990701
1.00086 1.0044 0.988302
1.00094 1.00465 0.988148
0.999942 1.00476 0.990177
1.00059 1.00487 0.988641
0.999888 1.00334 0.991643
0.999779 1.00435 0.990907
0.999475 1.00484 0.990706
0.99976 1.00357 0.991728
0.999875 1.00263 0.992221
1.00008 1.00154 0.993004
1.00002 1.00226 0.992472
1.00014 1.00135 0.993117
1.00019 1.00009 0.99425
1.0002 1.00125 0.993138
1.00024 1 0.994261
1.00002 0.998077 0.997031
1.00026 0.99999 0.994252
1.00008 0.998016 0.996741
0.99994 0.996773 0.998163
1.00014 0.997953 0.996442
0.999986 0.996689 0.99867
0.999995 0.996655 0.999207
1.00024 1.00142 0.992734
1.00019 0.999913 0.994268
1.00017 1.00131 0.993165
1.00016 0.997669 0.996703
1.00015 0.999764 0.994559
1.00009 1.00119 0.993231
1.00003 0.99639 0.999285
1.00016 0.997596 0.996785
1.00013 0.999664 0.994793
1.00003 0.996365 0.999291
1.00015 0.99758 0.996808
1.00002 0.996402 0.999288
0.994929 0.996626 0.939069
0.994881 0.997052 0.918777
0.999883 0.995914 0.927032
1.00037 1.00215 0.991919
0.994571 0.998871 0.941188
0.995364 1.00056 0.923791
0.995351 0.998591 0.90825
0.99839 0.99743 0.980538
0.999709 0.997678 0.956036
0.99847 0.998694 0.91863
0.99473 0.999711 0.903945
0.995714 0.998999 0.974195
0.997574 0.999154 0.955701
0.997368 0.9999 0.924807
0.994741 0.998368 0.910645
0.995026 0.999036 0.970418
0.995425 1.00077 0.955024
0.994842 0.999933 0.928596
0.994788 0.997286 0.916
1.00022 1.00343 0.990898
1.0001 1.0033 0.991246
1.00009 1.00278 0.991882
1.00033 1.00264 0.991466
1.00033 1.00272 0.991468
1.0002 1.00255 0.991899
1.00031 1.00217 0.99214
1.00024 1.00212 0.99234
1.00056 0.999475 0.994003
1.00179 0.99771 0.993421
0.999998 1.00388 0.990859
1.00071 1.00356 0.990421
1.00003 1.00511 0.990032
0.999869 1.00469 0.990339
1.00003 1.00429 0.99041
0.998582 0.998136 0.996008
0.999903 1.00506 0.98989
0.999983 1.00364 0.99111
0.998736 0.998583 0.998685
1.00002 1.0039 0.990693
0.997165 0.998752 0.99606
0.997162 0.999975 1.00074
0.999705 1.00459 0.99065
0.999978 1.00488 0.990117
0.994361 0.996216 0.962442
0.994683 0.998266 0.941453
0.994786 0.997755 0.919043
0.998 1.00238 0.996256
0.996333 1.00311 0.997551
0.995082 0.996898 0.940425
0.995695 1.00004 0.957165
0.994857 0.999094 0.978461
0.994967 0.999978 0.928004
0.994631 0.998544 0.937998
0.994744 0.997742 0.919219
0.996815 1.00292 0.997961
0.994415 0.995569 0.958757
0.994531 0.997159 0.945855
0.994949 1.0026 0.997533
0.994756 0.998402 0.910785
0.995228 0.999453 0.954969
0.995201 1.00001 0.930607
0.995916 1.00348 0.99859
0.994392 0.994835 0.964598
0.99455 0.998925 0.941448
0.994758 0.999337 0.906601
0.995672 0.999949 0.927713
0.995227 0.999206 0.988237
0.995923 1.00106 0.947897
0.999026 1.0006 0.995833
0.997044 1.00275 0.997711
0.99573 1.00326 1.00019
1.00028 1.00218 0.991916
0.999444 1.00285 0.992862
0.9983 1.0026 0.994928
0.999463 1.00251 0.993183
0.99744 1.003 0.996152
0.997819 1.00375 0.995029
0.999895 1.00186 0.993204
1.00005 1.00217 0.992403
0.999769 1.00231 0.993152
0.99932 1.00417 0.991379
0.999665 1.0021 0.993071
1.00018 1.00321 0.990805
1.00103 1.00453 0.988313
1.00264 1.00361 0.986263
1.00039 1.00391 0.990552
1.00104 1.00449 0.988074
1.00167 1.00379 0.988384
1.00003 1.00498 0.989326
1.00098 1.00456 0.988358
0.999798 1.00412 0.990948
0.999985 1.00473 0.990155
1.00045 1.00482 0.988763
1.00004 1.00198 0.992649
0.999861 1.00332 0.991617
0.999738 1.00441 0.990815
0.999905 1.00259 0.992307
1.00011 1.00154 0.992995
1.00014 1.00024 0.994194
1.00016 1.00135 0.993115
1.0002 1.00008 0.99425
0.999966 0.9982 0.996517
1.00025 1 0.994261
1.00004 0.998073 0.996511
0.999812 0.996879 0.999231
1.0001 0.997991 0.996475
0.999924 0.99678 0.998684
0.999947 0.996731 0.999212
1.00028 1.0015 0.992581
1.00023 1.0001 0.993989
1.00025 1.00143 0.992817
1.00016 0.997801 0.996578
1.00019 0.999924 0.994234
1.00018 1.00132 0.993164
1.00001 0.99648 0.999263
1.00016 0.997669 0.99671
1.00015 0.999777 0.994447
1.00003 0.996381 0.999287
1.00016 0.997596 0.996789
1.00003 0.996369 0.999291
0.99436 0.995658 0.959526
0.994846 0.997768 0.938862
0.994904 0.997743 0.918917
1.00035 1.00217 0.991983
1.00034 1.00209 0.991988
1.00037 1.00246 0.991682
0.994589 0.997219 0.941046
0.994622 0.998494 0.94104
0.995421 1.00106 0.923277
0.995241 0.998756 0.976517
0.998497 0.999906 0.948462
0.995243 0.999894 0.93152
0.994757 0.998714 0.907922
0.995237 0.998429 0.973528
0.996406 1.00002 0.953184
0.994798 0.99999 0.930157
0.994756 0.997469 0.917486
0.994898 0.998799 0.969711
0.995657 1.00005 0.956572
0.994854 1.00001 0.927989
0.994719 0.998543 0.914884
1.00034 1.00308 0.991027
1.00023 1.0034 0.990904
1.00012 1.00333 0.991179
1.00035 1.00266 0.991448
1.00032 1.0027 0.991566
1.00034 1.00215 0.992155
0.998431 0.998692 0.996436
0.99855 0.998322 0.998693
1.00007 1.00424 0.990452
1.00038 1.00301 0.991166
0.999905 1.00508 0.989931
1.00011 1.0039 0.990578
0.999846 1.00484 0.990113
0.997105 0.998308 0.996425
0.999656 1.00424 0.99124
0.99687 1.00045 1.00044
0.999995 1.00383 0.991044
0.995706 0.998073 0.996896
0.997034 1.00279 0.997806
0.99917 1.00491 0.991602
0.994316 0.995832 0.969646
0.994386 0.99595 0.964269
0.994666 0.998505 0.942113
0.997037 1.0029 0.997816
0.99543 1.00241 0.995131
0.994464 0.99569 0.95869
0.99507 0.999446 0.959279
0.994865 0.999994 0.924846
0.994501 0.997021 0.950358
0.994767 0.998775 0.908157
0.995764 1.00394 0.998892
0.994321 0.994797 0.966229
0.994604 0.998473 0.941308
0.994926 0.999468 0.984021
0.994743 0.999515 0.902692
0.99481 0.999964 0.929338
0.995542 1.00088 0.955411
0.994917 1.00337 0.999058
0.994342 0.995276 0.960097
0.99526 1.00026 0.924906
0.994646 0.998122 0.906168
0.996021 0.998897 0.92177
0.996208 1.00002 0.955367
0.995718 1.00031 0.97795
0.997245 1.00312 0.99726
0.995921 1.00245 1.00017
0.996469 1.00317 0.998508
0.999522 1.00244 0.993159
0.997378 1.00295 0.996099
0.997353 1.00411 0.995271
0.999115 1.00322 0.99343
0.999942 1.00243 0.993077
1.00006 1.00399 0.990992
1.00092 1.00496 0.98804
0.999973 1.0031 0.991171
1.00113 1.00449 0.988167
1.00291 1.00449 0.985544
1.00431 1.00261 0.984273
1.00219 1.00334 0.987011
1.00263 1.00388 0.986121
1.00123 1.00456 0.987847
1.00124 1.0038 0.989067
1.00139 1.00351 0.988856
0.999867 1.0048 0.989877
1.00012 1.00498 0.989435
1.00102 1.00446 0.988571
0.999962 1.00285 0.991908
0.99989 1.00403 0.990955
1.00001 1.0047 0.990132
1.00007 1.00053 0.994021
1.00007 1.00197 0.992637
0.999835 1.0033 0.991592
1.00013 1.00154 0.992985
1.00015 1.00024 0.994192
0.99988 0.99838 0.996487
1.00021 1.00008 0.99425
0.99997 0.998196 0.996516
0.999745 0.997037 0.999224
1.00004 0.998062 0.996508
0.999842 0.996903 0.9987
0.999885 0.996824 0.999219
1.00034 1.00154 0.992581
1.00028 1.00024 0.993938
1.0003 1.0015 0.992625
1.00014 0.997969 0.996433
1.00024 1.0001 0.994064
1.00026 1.00144 0.9929
0.999974 0.996618 0.999234
1.00015 0.997797 0.996587
1.0002 0.999932 0.9942
1.00001 0.99646 0.99927
1.00015 0.99767 0.996716
1.00003 0.996374 0.99929
0.99434 0.994782 0.964417
0.994431 0.995239 0.959458
0.994778 0.998188 0.938755
1.00026 1.00221 0.99199
1.00017 1.00274 0.991742
1.00031 1.00218 0.992047
1.00032 1.00212 0.991995
1.00033 1.00249 0.991655
1.00026 1.00241 0.99187
1.00044 1.00252 0.991519
0.994544 0.998028 0.93815
0.994529 0.997225 0.945599
0.994673 0.99798 0.940894
0.994744 0.997586 0.918967
0.994862 0.998881 0.970733
0.995358 1.00004 0.952285
0.994838 0.999973 0.932861
0.994997 0.998971 0.969064
0.995099 1.00004 0.950992
0.995033 0.999986 0.93181
0.994725 0.998365 0.918929
0.995869 0.997289 0.972962
0.9951 1.00046 0.950009
0.994788 0.999937 0.924655
0.994753 0.999559 0.907278
1.00001 1.0031 0.991616
1.00033 1.00308 0.991036
1.00023 1.00338 0.99091
1.00037 1.00266 0.991431
0.997191 0.998293 0.996791
0.996787 1.00084 1.00015
1.00011 1.00396 0.990463
0.999913 1.00477 0.99011
0.99976 1.00393 0.991835
0.999916 1.00379 0.991048
0.999072 1.00499 0.991566
0.995629 0.999069 0.994439
0.996627 1.0035 0.998143
0.998821 1.00408 0.992624
0.995423 0.999151 0.993116
0.997562 1.00484 0.996154
0.99437 0.995567 0.963298
0.994185 0.995313 0.971825
0.994367 0.99562 0.966093
0.995481 1.0044 0.999127
0.995163 0.998225 0.989216
0.994218 0.994748 0.96788
0.996614 1.00105 0.948449
0.995213 0.999953 0.931832
0.994657 0.997997 0.941165
0.994717 0.999683 0.904319
0.995116 1.00206 0.999425
0.994395 0.995036 0.960042
0.995408 1.00036 0.924379
0.99489 1.0009 0.97996
0.994649 0.998095 0.898566
0.997349 0.999891 0.924519
0.99497 1.00002 0.950415
0.995434 1.0037 0.994241
0.994998 0.995973 0.940015
0.995155 0.997884 0.908887
0.998597 0.997358 0.926766
0.995641 0.999978 0.956102
0.994892 0.999491 0.972908
0.996251 1.00138 1.00006
0.996077 1.00388 0.998498
0.998475 0.999752 0.998303
0.996931 1.00433 0.995512
0.998289 1.00343 0.99383
1.00241 1.00064 0.989945
1.00081 1.00381 0.990602
1.00121 1.00493 0.987897
1.0027 1.00322 0.985892
1.00124 1.00448 0.988021
1.00286 1.00456 0.985342
1.00416 1.00268 0.984406
1.00505 1.00081 0.984533
1.00443 1.00284 0.984523
1.00448 1.0026 0.984021
1.00176 1.00331 0.987771
1.00218 1.00337 0.987284
1.00262 1.00418 0.985979
1.00083 1.00447 0.988907
1.00114 1.00376 0.989072
1.00111 1.00325 0.989325
1.00001 1.00386 0.990794
0.999926 1.00474 0.989997
1.00023 1.00499 0.989545
0.999985 1.00115 0.993526
1.00003 1.00276 0.991903
0.999973 1.00393 0.990963
0.999791 0.998594 0.99643
1.00007 1.00055 0.99401
1.0001 1.00196 0.992625
1.00015 1.00024 0.99419
0.999882 0.998386 0.996484
0.999651 0.997225 0.999216
0.999973 0.998193 0.996515
0.999735 0.997071 0.999222
0.99981 0.996939 0.999224
1.00025 1.00231 0.991964
1.00037 1.00161 0.992469
1.00032 1.00039 0.99373
1.00034 1.00155 0.992571
1.00011 0.998174 0.996278
1.00028 1.00025 0.993935
1.00029 1.00153 0.992669
0.999928 0.99679 0.999199
1.00014 0.997968 0.996442
1.00024 1.0001 0.994139
0.99998 0.996587 0.999243
1.00015 0.997795 0.996595
1.00002 0.996434 0.999278
0.994374 0.994761 0.959296
0.994289 0.99478 0.966078
0.994499 0.994994 0.959383
1.0003 1.00217 0.992014
1.00013 1.00278 0.991702
1.00005 1.00312 0.991472
1.00013 1.00265 0.991743
1.00015 1.00315 0.991415
1.00031 1.00214 0.992002
1.0003 1.00253 0.991627
1.00026 1.0024 0.991866
1.0004 1.00254 0.991532
1.00014 1.00265 0.991923
0.995027 1.00004 0.924679
0.994597 0.998202 0.938023
0.994473 0.997301 0.950148
0.994765 0.998186 0.919004
0.994863 0.999996 0.925397
0.9949 0.999119 0.967717
0.994964 1.00017 0.956114
0.995139 0.99753 0.969636
0.995443 1.00026 0.956125
0.994923 0.999963 0.930042
0.994944 0.999454 0.905104
0.995489 0.995481 0.974324
0.995009 1.00031 0.956865
0.995497 0.999881 0.931137
0.994956 0.998182 0.905085
0.999137 1.00227 0.993867
0.999976 1.0032 0.991669
1.00032 1.00309 0.991046
0.995467 0.999681 0.991957
0.996194 1.00406 0.998437
0.999891 1.00379 0.991052
0.998737 1.00514 0.99153
0.99883 1.00409 0.992657
0.997102 1.00438 0.996071
0.995077 0.999535 0.993373
0.997072 1.00315 0.99652
0.995883 1.00098 0.992739
0.994732 0.997701 0.940916
0.994303 0.995395 0.96506
0.99406 0.994892 0.974006
0.995254 1.0009 0.999856
0.994901 1.00078 0.975492
0.994448 0.994905 0.959977
0.996992 1.00029 0.95306
0.995198 0.999912 0.931202
0.995478 1.0008 0.923868
0.994665 0.998141 0.890934
0.995469 1.00367 0.994569
0.99492 0.997153 0.939794
0.995263 0.998237 0.906603
0.994907 0.999488 0.974057
0.998577 0.998659 0.926895
0.996321 0.999991 0.952327
0.996421 1.00053 0.992391
0.994911 0.996635 0.917141
0.999207 0.997283 0.929271
0.997872 0.998504 0.950564
0.994845 0.998337 0.975097
0.995758 1.0045 0.998467
0.998334 0.999797 0.99826
1.00291 0.998125 0.993093
0.997523 1.00349 0.994195
1.00152 1.00105 0.990449
1.00379 0.998542 0.988379
1.00152 1.00486 0.987751
1.00278 1.00332 0.985946
1.00441 1.00015 0.986202
1.00282 1.0046 0.985142
1.00408 1.00258 0.984484
1.00505 0.999578 0.985754
1.00508 0.999381 0.985944
1.00505 1.00144 0.984063
1.00505 1.00077 0.984589
1.00364 1.00299 0.985375
1.00417 1.0028 0.984379
1.00464 1.00257 0.98377
1.00153 1.00385 0.988122
1.00168 1.00328 0.9881
1.00217 1.00342 0.987558
1.00056 1.00399 0.989699
1.00071 1.00444 0.989007
1.00104 1.00371 0.989076
0.999949 1.00218 0.992532
1.00008 1.00379 0.990801
0.999986 1.00469 0.990115
0.999693 0.998939 0.996777
1 1.00117 0.993504
1.0001 1.00268 0.991899
0.999568 0.99747 0.998122
0.999789 0.998637 0.996671
1.00007 1.00057 0.993998
0.999884 0.998393 0.996481
0.999642 0.997267 0.999212
0.999724 0.997102 0.99922
1.00018 1.00267 0.99168
1.00035 1.00181 0.99231
1.00023 1.00237 0.991931
1.00031 1.00056 0.99358
1.00035 1.00165 0.992465
1.00006 0.998382 0.996145
1.00031 1.00041 0.993729
1.00036 1.00155 0.992562
0.999871 0.996996 0.999161
1.00011 0.99817 0.996287
1.00027 1.00027 0.993932
0.999934 0.996756 0.999209
1.00013 0.997967 0.996451
0.999986 0.996558 0.999252
0.995149 0.996073 0.941942
0.994386 0.99492 0.959234
0.994232 0.99475 0.96775
1.00013 1.00307 0.991449
1.00031 1.00218 0.992038
1.0001 1.00283 0.991662
1.00017 1.00267 0.991775
1.00012 1.00305 0.991515
1.0001 1.00316 0.99141
1.00009 1.0035 0.991079
0.999975 1.00322 0.991365
1.00029 1.00238 0.991862
1.00035 1.00255 0.991546
1.0001 1.0027 0.991872
0.999547 1.0031 0.992822
0.995086 0.998941 0.907317
0.995331 1.00019 0.924061
0.994626 0.998387 0.937901
0.995166 0.999338 0.908588
0.994884 0.99994 0.929644
0.99505 1.00048 0.950182
0.995871 0.997553 0.967426
0.995559 0.995386 0.976169
0.994791 0.998159 0.897822
0.995406 1.00003 0.953007
0.997304 0.999894 0.924317
0.995207 0.996744 0.976945
0.995689 1.00003 0.957774
0.999058 0.997606 0.924282
0.999037 1.0009 0.995492
0.99932 1.00219 0.99384
0.999921 1.00329 0.99172
0.994906 0.999533 0.993608
0.996969 1.00383 0.995988
0.998911 1.00397 0.992688
0.998074 1.00277 0.996291
0.995548 1.00126 0.992887
0.997469 1.00092 0.993709
0.994786 0.999224 0.91565
0.994694 0.996761 0.945269
0.994226 0.995071 0.966823
0.995395 1.00436 0.994929
0.994913 0.999317 0.974782
0.994814 0.997685 0.939654
0.995267 1.00002 0.951613
0.998597 0.997383 0.919951
0.995485 0.998214 0.909099
0.996536 1.00087 0.992423
0.994968 0.996656 0.91968
0.999844 0.996468 0.923273
0.994862 0.998452 0.971137
0.997536 0.99863 0.956811
0.998212 0.99889 0.99421
0.999853 0.995745 0.923099
0.999345 0.997758 0.956343
0.994885 0.997909 0.97062
0.998139 1.00003 0.998276
1.00216 0.997527 0.993743
1.00393 0.997828 0.990457
1.00069 1.00145 0.990955
1.0036 0.999138 0.988291
1.00481 0.997413 0.98805
1.00283 1.00346 0.986001
1.00424 1.00032 0.986205
1.00495 0.997825 0.987683
1.00398 1.00251 0.98456
1.00505 0.999515 0.985744
1.0051 0.997648 0.987613
1.00515 0.998074 0.987135
1.00512 1.00022 0.985132
1.00508 0.999316 0.985963
1.00474 1.00138 0.984576
1.00494 1.00137 0.984227
1.00504 1.00073 0.984644
1.00265 1.00338 0.986527
1.00334 1.00297 0.985545
1.0039 1.00274 0.984235
1.00136 1.00346 0.988818
1.00161 1.0038 0.988092
1.00161 1.00323 0.988429
1.00023 1.0029 0.991372
1.0006 1.00398 0.989709
1.00059 1.0044 0.989108
0.999638 0.999468 0.995775
1.00004 1.0021 0.992512
1.00016 1.00372 0.990808
0.999449 0.997717 0.999182
0.999692 0.999009 0.996203
1.00002 1.00118 0.993482
0.999555 0.997467 0.999196
0.999785 0.998663 0.996397
0.999634 0.997312 0.999207
1.00028 1.0028 0.991485
1.00021 1.00267 0.991667
1.00032 1.00212 0.992052
1.00026 1.00077 0.993448
1.00032 1.00184 0.992312
1.00023 1.00238 0.991898
1 0.998576 0.996059
1.0003 1.00056 0.99358
1.00033 1.00167 0.992461
0.999805 0.997198 0.99913
1.00006 0.998377 0.996152
1.0003 1.00042 0.993728
0.999877 0.996953 0.999173
1.0001 0.998167 0.996296
0.999941 0.996716 0.99922
0.99513 0.998419 0.91013
0.995074 0.996187 0.941751
0.994416 0.995068 0.95917
1.00003 1.00321 0.991407
1.00038 1.00336 0.990986
1.00001 1.00357 0.991118
1.00019 1.00267 0.991808
1.00019 1.00297 0.991559
1 1.0032 0.991406
1.00006 1.00319 0.991346
1.00006 1.00354 0.991069
0.999976 1.00402 0.990823
1.00009 1.00144 0.992871
1.00016 1.00263 0.991821
0.999596 1.00283 0.992709
0.999829 0.9966 0.920668
0.995069 0.998929 0.903479
0.995572 1.00035 0.923475
0.994659 0.998153 0.890515
0.996487 0.998782 0.930616
0.995146 1.00002 0.953495
0.995657 0.995204 0.97373
0.995011 0.997064 0.975262
0.998547 0.998563 0.925987
0.996347 0.999997 0.95189
0.995481 0.998201 0.97622
0.999126 0.998104 0.950134
1.00184 0.998912 0.992957
0.999277 1.00082 0.995256
0.999455 1.00209 0.993826
0.994945 1.00175 0.993005
0.9988 1.00249 0.996055
0.997839 1.00113 0.993139
1.00063 0.998697 0.990106
0.99992 0.99485 0.927961
0.994817 0.998502 0.917347
0.994672 0.996176 0.949546
0.996662 1.00098 0.992551
0.994869 0.998504 0.970006
0.99505 0.997216 0.919806
0.998059 0.997968 0.949927
0.99987 0.997163 0.930132
0.99805 0.998942 0.992389
0.999903 0.995464 0.926659
1.00126 0.99679 0.948904
0.994957 0.997527 0.97368
0.999235 0.996309 0.993927
1.00007 0.996386 0.955345
0.995766 0.998383 0.976106
1.00145 0.996871 0.994368
1.00384 0.99717 0.99043
1.00503 0.996443 0.989416
1.00331 0.999746 0.988206
1.00463 0.997486 0.988039
1.00484 0.996516 0.988953
1.00411 1.00047 0.986209
1.00484 0.997912 0.987644
1.00508 0.996055 0.9891
1.00504 0.999459 0.985734
1.0051 0.997606 0.987612
1.00514 0.996437 0.98878
1.00514 0.997321 0.988056
1.00515 0.997928 0.987288
1.00516 0.998931 0.986434
1.00515 1.00028 0.98515
1.00512 1.00024 0.985121
1.00508 0.999251 0.985982
1.00412 1.00177 0.98532
1.0047 1.00138 0.984655
1.00482 1.00128 0.984391
1.00212 1.00326 0.987661
1.00273 1.00333 0.9865
1.00305 1.00299 0.985714
1.00071 1.00287 0.990533
1.00144 1.00341 0.988797
1.00167 1.00376 0.988063
0.999682 1.00019 0.994959
1.00031 1.00278 0.991371
1.00068 1.00393 0.989719
0.999445 0.997972 0.99909
0.999635 0.999565 0.995732
1.00011 1.00204 0.992492
0.99948 0.997742 0.998611
0.999689 0.999057 0.996185
0.999553 0.997539 0.999183
1.00038 1.00291 0.991181
1.00018 1.00288 0.991489
1.00023 1.00256 0.991737
1.00026 1.00267 0.991654
1.00028 1.00216 0.992053
1.0002 1.00107 0.993247
0.999923 0.998776 0.996011
1.00026 1.00076 0.993454
1.00027 1.00189 0.992313
0.999733 0.997384 0.999109
1 0.998571 0.996064
1.0003 1.00057 0.993581
0.999812 0.997163 0.999139
1.00006 0.998376 0.996158
0.999885 0.996912 0.999184
0.999899 0.995183 0.928145
0.995075 0.998591 0.910919
0.995002 0.996302 0.941546
0.999942 1.00336 0.991366
0.999952 1.00379 0.99098
1.00021 1.00334 0.991162
1.00099 1.00347 0.989713
0.999956 1.00423 0.990653
1.00012 1.00322 0.991329
1.00004 1.00355 0.99106
0.999908 1.00387 0.990952
1.00009 1.0038 0.989974
1.00064 1.00149 0.992109
1.00398 0.999614 0.987961
0.999865 1.00161 0.993206
0.999753 1.00252 0.992593
1.00045 0.996928 0.95469
0.999813 0.996746 0.923321
0.995073 0.998728 0.904587
0.998938 0.998335 0.918632
0.995736 0.999976 0.954829
0.995192 0.997031 0.977382
0.995202 0.998096 0.978295
0.997471 0.998431 0.957926
0.996555 0.998593 0.976714
1.00381 0.996569 0.99129
1.00143 0.999046 0.992995
0.99952 1.00079 0.995008
0.998283 1.00115 0.99262
1.00148 0.999403 0.988778
1.00022 0.99499 0.952294
0.999926 0.994887 0.93088
0.994851 0.997409 0.919128
0.997786 0.999085 0.990549
0.994852 0.997343 0.970899
0.999882 0.995755 0.927556
0.999772 0.9977 0.956318
0.998851 0.997663 0.99427
1.00142 0.995946 0.954801
0.99594 0.998108 0.972939
1.00079 0.998474 0.992043
0.999363 0.996643 0.980928
1.00369 0.996472 0.990433
1.00502 0.99598 0.989291
1.00505 0.995367 0.99005
1.00449 0.997606 0.988027
1.00476 0.996512 0.988937
1.00506 0.995163 0.989981
1.00471 0.997988 0.987606
1.00507 0.996072 0.989078
1.00513 0.995305 0.989805
1.00511 0.997562 0.987611
1.00513 0.996453 0.988742
1.00512 0.996407 0.989036
1.00514 0.997131 0.988174
1.00516 0.998058 0.987322
1.00515 0.997783 0.987441
1.00516 0.998939 0.98642
1.00514 0.999507 0.985908
1.00491 1.00027 0.985492
1.00514 1.00031 0.98513
1.00512 1.00026 0.98511
1.00327 1.00227 0.986624
1.00414 1.00181 0.985304
1.00463 1.00138 0.984736
1.00121 1.00272 0.989721
1.00218 1.00322 0.987632
1.00281 1.00329 0.986473
0.999876 1.00071 0.994066
1.00076 1.00282 0.990533
1.00149 1.0034 0.988776
0.999483 0.998338 0.998922
0.999707 1.00023 0.99493
1.0004 1.00265 0.991372
0.999478 0.998033 0.999044
0.999635 0.999654 0.995688
0.999506 0.99778 0.999129
1.00106 1.00308 0.98979
1.00041 1.00283 0.991171
1.00028 1.00287 0.991254
1.0001 1.00293 0.991494
1.0002 1.00262 0.991681
1.00016 1.00153 0.992845
1.00024 1.00219 0.992053
1.0002 1.00106 0.993256
0.999827 0.999014 0.99595
0.999657 0.997558 0.999096
0.999924 0.998762 0.996016
1.00025 1.00076 0.993459
0.99974 0.99736 0.999115
1 0.998568 0.996068
0.999819 0.997123 0.999148
1.00099 0.994995 0.95796
0.999916 0.995795 0.926656
0.995003 0.998925 0.908825
0.999894 1.004 0.990843
1.00007 1.00327 0.991338
1.00001 1.0042 0.990703
1.00089 1.00343 0.989808
1.0016 1.00398 0.988032
1.00024 1.00394 0.990022
0.999836 1.00374 0.991081
1.00046 1.00387 0.98964
1.00051 1.00189 0.991882
1.00197 1.0013 0.989127
1.00397 0.99929 0.988924
1.00459 0.997681 0.988314
1.00345 0.999527 0.988656
0.999488 1.00197 0.993544
0.99569 0.998194 0.975755
1.0006 0.996191 0.953332
0.999239 0.997033 0.92988
0.998821 0.99884 0.950109
0.994892 0.998208 0.979521
0.996754 0.99852 0.981192
1.00072 0.998271 0.992273
1.00379 0.996359 0.991569
1.0013 0.999104 0.993036
1.00271 1.00019 0.987394
0.997721 0.996614 0.977132
1.0006 0.995061 0.95976
0.999875 0.995037 0.924672
0.99861 0.998464 0.994523
0.99586 0.997551 0.975098
1.00083 0.996275 0.954072
1.0008 0.998397 0.992179
0.998684 0.996918 0.979926
1.00343 0.998078 0.990758
1.00381 0.996737 0.989309
1.005 0.995564 0.989147
1.00504 0.995308 0.989991
1.00508 0.994827 0.990521
1.00471 0.996514 0.988923
1.00506 0.995202 0.989945
1.00507 0.995042 0.990299
1.00507 0.996102 0.989056
1.00514 0.995391 0.989777
1.00512 0.995877 0.989578
1.00513 0.996469 0.988704
1.00512 0.996402 0.98894
1.00515 0.997325 0.987987
1.00515 0.996947 0.98829
1.00516 0.997938 0.987472
1.00516 0.99902 0.986434
1.00515 0.99895 0.986406
1.00514 0.99957 0.985878
1.00497 0.999757 0.986046
1.00423 1.00059 0.986359
1.00492 1.00033 0.985498
1.00514 1.00036 0.985109
1.00207 1.00214 0.988797
1.00324 1.00223 0.986638
1.00416 1.00185 0.985287
1.00005 1.00119 0.993251
1.00126 1.00274 0.989703
1.00223 1.00318 0.987604
0.999571 0.998789 0.99867
0.999929 1.0007 0.994056
1.00081 1.00277 0.990531
0.999537 0.998435 0.998836
0.999726 1.00028 0.994902
0.999521 0.998099 0.998986
1.0016 1.00363 0.988282
1.00112 1.00307 0.989826
1.00075 1.00299 0.990365
1.00041 1.00279 0.991161
1.00032 1.00287 0.991169
1.00025 1.00199 0.992242
1.00017 1.00269 0.991625
1.00015 1.00153 0.992853
0.999736 0.999356 0.995771
1.00019 1.00105 0.993264
0.999834 0.998977 0.99596
0.999592 0.997727 0.999079
0.999664 0.997539 0.9991
0.999925 0.998749 0.996021
0.999745 0.997331 0.999121
0.996815 0.996927 0.97749
1.00078 0.995291 0.951243
0.999868 0.994919 0.931309
1.0033 1.00264 0.98641
1.00007 1.00416 0.990753
1.00079 1.00341 0.989904
1.0004 1.004 0.989897
1.0015 1.00408 0.987979
1.00189 1.00187 0.98916
1.00081 1.00392 0.989307
1.00043 1.00224 0.991657
1.0022 1.00127 0.989293
1.00398 0.999172 0.988585
1.00473 0.998311 0.987417
1.00427 0.99654 0.990213
1.00451 0.99776 0.98799
1.00289 0.999348 0.989352
0.999975 0.998596 0.993806
0.996193 0.998347 0.974097
1.00037 0.996361 0.952438
0.996875 0.998191 0.97897
1.00075 0.997289 0.994338
1.0033 0.99623 0.991828
1.00177 0.99612 0.989395
0.99702 0.995759 0.979199
1.00022 0.994946 0.952458
1.00057 0.998769 0.992342
0.99878 0.997039 0.97864
1.00328 0.99731 0.990991
1.00374 0.996314 0.98944
1.0049 0.995054 0.990827
1.00474 0.996611 0.990786
1.00507 0.995231 0.989936
1.00506 0.99486 0.990458
1.00507 0.994878 0.990462
1.00505 0.995234 0.989908
1.00507 0.995031 0.990296
1.00511 0.995465 0.989922
1.00515 0.995478 0.98975
1.00513 0.995856 0.989512
1.00513 0.996958 0.988405
1.00512 0.996395 0.988843
1.00514 0.99734 0.987991
1.00518 0.998522 0.98681
1.00515 0.997817 0.987623
1.00516 0.99893 0.986527
1.005 0.999523 0.986129
1.00514 0.999627 0.985848
1.00497 0.999773 0.985963
1.00444 0.999978 0.986701
1.00295 1.00099 0.988394
1.00416 1.00066 0.986431
1.00492 1.00039 0.985505
1.00042 1.00129 0.992504
1.00206 1.00217 0.9888
1.00321 1.00221 0.986653
0.999601 0.999278 0.998421
1.0002 1.00105 0.993231
1.0013 1.00274 0.989687
0.999612 0.99888 0.99858
0.99999 1.00067 0.994045
0.999594 0.998514 0.998742
1.00278 1.00304 0.986575
1.00156 1.00364 0.98831
1.00137 1.00321 0.989187
1.00117 1.00306 0.989863
1.00078 1.00296 0.990381
1.00041 1.00242 0.991568
1.00037 1.00288 0.991084
1.00018 1.0021 0.992241
0.99969 0.999835 0.995368
1.00013 1.00155 0.992861
0.999749 0.99929 0.995792
0.999552 0.997919 0.999027
0.999841 0.998943 0.99597
0.999594 0.997706 0.999086
0.999668 0.99752 0.999104
1.00102 0.99721 0.99207
0.997219 0.996335 0.973858
1.00012 0.995134 0.958809
1.00335 1.00074 0.987498
1.00492 0.999123 0.986621
1.0031 1.0024 0.986611
1.00055 1.00406 0.989771
1.0014 1.00416 0.987916
1.00221 1.00177 0.988954
1.00486 0.998546 0.987576
1.0024 1.00124 0.989456
1.00389 0.999062 0.988242
1.00466 0.998326 0.98765
1.00504 0.997212 0.988158
1.0045 0.995694 0.990495
1.00435 0.996593 0.98991
1.00459 0.997785 0.987668
1.00015 0.998682 0.993936
0.996145 0.998469 0.971978
1.00092 0.996608 0.996434
1.00454 0.995155 0.991934
1.0015 0.996481 0.989544
0.99741 0.99525 0.97652
1.00333 0.996738 0.991205
1.00368 0.996388 0.989592
1.00491 0.995048 0.991005
1.00481 0.995963 0.990637
1.00509 0.994944 0.990297
1.0051 0.995049 0.990295
1.00504 0.994918 0.990393
1.00504 0.994892 0.990456
1.00515 0.995295 0.989921
1.00507 0.995015 0.990294
1.00511 0.995534 0.989803
1.00513 0.996472 0.988835
1.00514 0.995833 0.989446
1.00513 0.996972 0.988411
1.00519 0.99822 0.987114
1.00514 0.997356 0.987995
1.00517 0.998525 0.986826
1.00506 0.999348 0.986195
1.00515 0.998838 0.98662
1.00501 0.999498 0.986144
1.00453 0.999884 0.986652
1.00498 0.999797 0.98588
1.00443 0.999987 0.986635
1.00331 1.00027 0.988457
1.00083 1.0009 0.992106
1.00291 1.00102 0.988402
1.0041 1.00074 0.986502
0.999614 0.999806 0.998188
1.00051 1.00122 0.99248
1.00204 1.00222 0.988804
0.999639 0.999401 0.998336
1.00031 1.00097 0.993208
0.999652 0.998975 0.998495
1.00423 1.00065 0.986088
1.00279 1.00292 0.986524
1.00228 1.00299 0.987654
1.00153 1.00363 0.988338
1.00129 1.00322 0.989221
1.00074 1.00275 0.990724
1.00081 1.00293 0.990397
1.00034 1.00251 0.991569
0.999771 1.00035 0.994726
1.00012 1.00219 0.992241
0.9997 0.999766 0.995392
0.999545 0.998209 0.9989
0.999762 0.999228 0.995813
0.999544 0.997889 0.999048
0.999596 0.997691 0.999092
1.00465 0.995072 0.991218
1.00111 0.996785 0.990821
0.996597 0.99583 0.974477
1.0051 0.998241 0.987238
1.0032 1.00028 0.988213
1.00516 0.998536 0.986852
1.0049 0.99932 0.986574
1.00288 1.00219 0.986825
1.00509 0.997706 0.987555
1.00252 1.00163 0.988758
1.00491 0.998566 0.987305
1.00514 0.996391 0.98869
1.00463 0.998381 0.987885
1.00498 0.997272 0.988131
1.00455 0.995806 0.990604
1.00428 0.996764 0.989596
1.00014 0.99872 0.994074
1.00511 0.995165 0.989938
1.00454 0.995634 0.991992
1.00126 0.996565 0.989668
1.00491 0.994933 0.991189
1.00482 0.995281 0.990492
1.00509 0.994938 0.990358
1.00511 0.994997 0.99027
1.00516 0.995157 0.990115
1.00502 0.994911 0.99045
1.00515 0.995318 0.989938
1.00518 0.99618 0.989084
1.00511 0.995605 0.989684
1.00513 0.996579 0.988736
1.00518 0.998006 0.987345
1.00513 0.996987 0.988417
1.00518 0.99823 0.987123
1.00513 0.999213 0.986243
1.00516 0.998527 0.986841
1.00506 0.999345 0.986212
1.00464 0.99982 0.986533
1.00501 0.999474 0.986159
1.00452 0.999893 0.986661
1.00342 1.00009 0.988442
1.00442 0.999993 0.986569
1.0033 1.00028 0.988446
1.00099 1.00048 0.993457
0.999832 0.999982 0.995527
1.00089 1.00084 0.992741
1.00288 1.00106 0.988409
0.999676 0.999916 0.998103
1.00064 1.00108 0.992462
0.999682 0.999499 0.998242
1.00519 0.998552 0.986867
1.00494 0.999278 0.986444
1.00428 1.00068 0.986126
1.0034 1.00171 0.986786
1.0028 1.0028 0.986474
1.00224 1.00304 0.987665
1.00136 1.00266 0.989661
1.00122 1.00324 0.989255
1.00066 1.00277 0.990749
0.999988 1.00084 0.993899
1.00027 1.0026 0.991571
0.99974 1.00034 0.994739
0.999542 0.998645 0.998688
0.999709 0.999696 0.995414
0.999522 0.998149 0.99895
0.99954 0.997862 0.999067
1.00515 0.99562 0.989433
1.00484 0.995077 0.991522
1.00145 0.996263 0.989583
1.00513 0.997944 0.987313
1.00495 0.998317 0.987344
1.00312 0.999855 0.988905
1.00516 0.99859 0.986834
1.0049 0.999505 0.986526
1.00511 0.996621 0.988896
1.00508 0.997714 0.987479
1.00498 0.9986 0.987031
1.00512 0.996382 0.988705
1.00496 0.997302 0.988103
1.00463 0.995912 0.990733
1.00513 0.995235 0.990224
1.00513 0.995195 0.990065
1.00457 0.996098 0.992054
1.0051 0.994918 0.990415
1.00513 0.994981 0.990245
1.00517 0.995062 0.990161
1.00516 0.996301 0.989107
1.00514 0.995338 0.989954
1.00518 0.996218 0.989048
1.00516 0.997818 0.987584
1.00513 0.996683 0.988636
1.00518 0.998009 0.987345
1.00516 0.999097 0.98632
1.00517 0.99824 0.987131
1.00512 0.999211 0.986256
1.00474 0.999783 0.986386
1.00506 0.999343 0.986228
1.00463 0.99982 0.98654
1.00353 1.00006 0.988278
1.00451 0.999901 0.98667
1.00343 1.00008 0.988435
1.00109 1.00014 0.993637
1.0033 1.00029 0.988436
1.00111 1.00039 0.993426
0.999845 1.00005 0.995621
0.999726 1.0002 0.996736
1.00103 1.00077 0.993272
0.999726 1.00004 0.998023
1.00518 0.998282 0.987103
1.0051 0.998948 0.986677
1.00519 0.998436 0.986894
1.00428 1.0002 0.986709
1.00496 0.999262 0.986438
1.00431 1.00072 0.986164
1.00344 1.00172 0.986757
1.00225 1.00186 0.988755
1.0022 1.00309 0.987676
1.00132 1.00263 0.989681
1.00028 1.00122 0.993019
1.00058 1.00279 0.990773
0.999879 1.00092 0.993917
0.999515 0.999261 0.998424
0.999704 1.00034 0.994752
0.999518 0.998552 0.998771
0.99951 0.998091 0.998994
1.0051 0.995866 0.989483
1.00514 0.995648 0.989427
1.00494 0.995068 0.991793
1.00513 0.997307 0.98811
1.00513 0.997944 0.987326
1.00479 0.998398 0.987455
1.00516 0.998652 0.986816
1.00511 0.996614 0.988769
1.00507 0.997728 0.987403
1.0051 0.996378 0.98872
1.00518 0.996135 0.989289
1.00513 0.995303 0.99009
1.00515 0.995205 0.990192
1.00513 0.996829 0.988549
1.00517 0.994969 0.990206
1.00516 0.996298 0.989075
1.00513 0.997613 0.987983
1.00519 0.996258 0.989012
1.00516 0.997813 0.987586
1.00516 0.99896 0.986465
1.00519 0.998017 0.987345
1.00515 0.999097 0.98633
1.00482 0.999743 0.986272
1.00511 0.999208 0.986268
1.00473 0.999777 0.986394
1.00363 1.00007 0.988073
1.00462 0.999819 0.986548
1.00353 1.00005 0.988277
1.00118 1.00002 0.993624
1.00343 1.00007 0.988427
1.00119 1.00009 0.993575
0.999857 0.999954 0.995715
1.00124 1.00028 0.993402
0.999632 1.00021 0.995734
0.999425 1.00046 0.998166
1.00516 0.998249 0.987095
1.00513 0.998868 0.98662
1.00519 0.998304 0.987022
1.00462 0.999593 0.987061
1.00507 0.998826 0.986695
1.00519 0.998319 0.986921
1.00308 1.00069 0.988382
1.00431 1.00019 0.986688
1.00498 0.999243 0.986433
1.00348 1.00174 0.986727
1.00228 1.00182 0.988753
1.00061 1.00121 0.992365
1.00128 1.00261 0.989701
1.00014 1.00133 0.993049
0.999511 0.999954 0.998163
0.999786 1.001 0.993933
0.999493 0.999126 0.998526
0.999501 0.998448 0.998843
1.00514 0.996688 0.988618
1.00511 0.995766 0.989518
1.00513 0.995681 0.989422
1.00513 0.997248 0.988154
1.00513 0.997936 0.987339
1.00511 0.996606 0.988642
1.00515 0.996917 0.988572
1.00517 0.99621 0.989208
1.00513 0.995371 0.989957
1.00512 0.996834 0.988643
1.00511 0.99771 0.987816
1.00516 0.996294 0.989043
1.00512 0.997708 0.987809
1.00514 0.998678 0.986824
1.00516 0.997804 0.987588
1.00515 0.998952 0.986473
1.00489 0.999659 0.986237
1.00514 0.99909 0.98634
1.00482 0.99974 0.986282
1.00375 1.00005 0.98788
1.00473 0.999772 0.986401
1.00364 1.00006 0.988076
1.00126 1.00006 0.993444
1.00354 1.00003 0.988276
1.00127 0.999982 0.993536
0.999924 0.999911 0.995661
1.00129 1.00004 0.993522
0.99967 1.00002 0.99585
0.999434 1.0004 0.995831
1.00515 0.997709 0.987732
1.00515 0.998891 0.986486
1.00517 0.998119 0.987226
1.00475 0.999387 0.986899
1.00513 0.998925 0.986565
1.00519 0.998326 0.98694
1.00346 1.00001 0.988399
1.00459 0.99951 0.986948
1.00503 0.998706 0.986712
1.00093 1.00074 0.992186
1.0031 1.00068 0.988382
1.00434 1.00018 0.986668
1.00229 1.00179 0.988751
1.00052 1.0013 0.992382
0.999562 1.00046 0.997998
1.00001 1.00145 0.993076
0.999465 0.999806 0.99826
0.999476 0.998975 0.99862
1.00513 0.997029 0.988372
1.00514 0.99666 0.988659
1.00512 0.995665 0.989552
1.00512 0.99719 0.988198
1.00512 0.997783 0.987734
1.00514 0.996911 0.988595
1.00517 0.996285 0.989127
1.00511 0.996841 0.988737
1.00511 0.99765 0.987867
1.00513 0.998603 0.986993
1.00512 0.997803 0.987634
1.00514 0.998788 0.9867
1.00493 0.999434 0.98635
1.00514 0.998951 0.986481
1.00488 0.99966 0.986248
1.00385 1.00001 0.987717
1.0048 0.999742 0.986291
1.00375 1.00004 0.987884
1.00137 1.0001 0.992027
1.00365 1.00004 0.988078
1.00135 1.00002 0.992762
0.999901 0.99995 0.997974
1.00136 0.99996 0.99345
0.999758 0.99991 0.99581
0.999495 1.0001 0.995967
1.00515 0.997601 0.987908
1.00516 0.998683 0.986752
1.00515 0.997784 0.987686
1.00486 0.999254 0.986558
1.00516 0.998878 0.986546
1.00517 0.997989 0.987358
1.00362 0.999719 0.988113
1.00475 0.999402 0.986897
1.00514 0.99898 0.98651
1.00112 1.00021 0.992332
1.00347 0.999961 0.988287
1.00456 0.99942 0.986834
0.99962 1.00055 0.997985
1.00089 1.00078 0.992193
1.00312 1.00067 0.988382
1.00042 1.00136 0.992411
0.999509 1.00032 0.998048
0.999422 0.999635 0.998361
1.00514 0.997701 0.987776
1.00513 0.997041 0.988371
1.00514 0.996631 0.988699
1.00514 0.99857 0.986944
1.00512 0.997726 0.987784
1.00514 0.996905 0.988618
1.00511 0.997585 0.987918
1.00513 0.998586 0.986998
1.00493 0.999327 0.986687
1.00514 0.998899 0.986576
1.00492 0.999522 0.986402
1.00393 0.999888 0.987453
1.00487 0.999655 0.986259
1.00385 1.00001 0.987721
1.00144 1.00011 0.991878
1.00375 1.00004 0.987887
1.00138 1.0001 0.99202
0.999933 0.999971 0.99793
1.00137 1 0.992152
0.999835 0.999931 0.996859
0.999593 0.999892 0.995955
1.00515 0.997878 0.987598
1.00517 0.998583 0.98679
1.00515 0.997582 0.987914
1.0049 0.999301 0.986541
1.00516 0.998724 0.986676
1.00515 0.997861 0.98764
1.00378 0.999609 0.987938
1.00486 0.999324 0.986664
1.00516 0.998866 0.986606
1.00126 0.999912 0.992376
1.00363 0.999723 0.988091
1.00476 0.999418 0.986896
0.99973 1.00031 0.998019
1.00112 1.0002 0.992337
1.00347 0.999911 0.988175
0.999615 1.00046 0.997975
1.00085 1.0008 0.992199
0.999434 1.00022 0.99812
1.00515 0.998437 0.987076
1.00513 0.997733 0.987724
1.00513 0.997053 0.98837
1.0049 0.999203 0.986845
1.00514 0.998519 0.987012
1.00512 0.997676 0.987834
1.00513 0.998571 0.987003
1.00493 0.999331 0.986685
1.00395 0.999783 0.98753
1.00491 0.999613 0.986454
1.00393 0.999928 0.987536
1.00152 1.00008 0.991778
1.00385 1.00001 0.987725
1.00145 1.00011 0.991873
0.999974 0.999998 0.997865
1.00138 1.0001 0.992013
0.999946 0.999981 0.997903
0.999904 0.999873 0.995594
1.00517 0.998556 0.986884
1.00515 0.997757 0.987677
1.00491 0.999261 0.986583
1.00516 0.998591 0.986786
1.00515 0.99756 0.98792
1.00385 0.999676 0.988048
1.00489 0.999303 0.986535
1.00516 0.998764 0.986601
1.00139 0.999835 0.992226
1.00378 0.999656 0.988026
1.00486 0.999398 0.98677
0.999875 1.00007 0.99799
1.00126 0.999904 0.992383
1.00364 0.999721 0.988068
0.999712 1.00031 0.998004
1.00112 1.0002 0.992338
0.999575 1.00043 0.997978
1.00489 0.999161 0.986914
1.00515 0.998476 0.987025
1.00513 0.997767 0.987672
1.00389 0.999709 0.987699
1.0049 0.999215 0.986846
1.00514 0.998465 0.98708
1.00493 0.999335 0.986682
1.00396 0.999778 0.98751
1.00154 1.00004 0.991772
1.00392 0.999964 0.987619
1.00152 1.00007 0.991777
1.00003 1.00001 0.997813
1.00145 1.00011 0.991868
0.999993 1 0.997848
0.999963 0.999989 0.997878
1.00491 0.999217 0.98665
1.00516 0.998439 0.986986
1.00515 0.997636 0.987755
1.00385 0.999709 0.988006
1.0049 0.999263 0.986575
1.00516 0.998598 0.986783
1.00145 0.99991 0.992051
1.00384 0.999684 0.988043
1.00489 0.999306 0.986529
0.999977 0.999951 0.997918
1.00138 0.999849 0.992231
1.00378 0.999695 0.988115
0.99983 1.00011 0.998006
1.00126 0.999909 0.992391
0.999711 1.00031 0.997982
1.00386 0.999755 0.98796
1.00489 0.999126 0.986827
1.00516 0.998513 0.986973
1.00151 0.999993 0.991883
1.00391 0.999699 0.987677
1.00491 0.999226 0.986847
1.00397 0.999771 0.987491
1.00154 1.00003 0.991779
1.00007 1.00001 0.997772
1.00151 1.00007 0.991775
1.00004 1.00001 0.997793
1 1.00001 0.997832
1.00386 0.999724 0.987989
1.0049 0.99915 0.986678
1.00516 0.998323 0.987087
1.00154 0.999991 0.993112
1.00386 0.999706 0.988002
1.00489 0.999265 0.986566
1.00001 0.999948 0.997852
1.00145 0.99993 0.992055
1.00384 0.999692 0.988038
0.999944 0.999985 0.997947
1.00138 0.999874 0.992237
0.999803 1.00012 0.998015
1.00152 0.999983 0.991903
1.00387 0.999713 0.987869
1.00489 0.999088 0.98674
1.00005 1 0.997788
1.0015 0.999995 0.991885
1.00392 0.999691 0.987656
1.00153 1.00003 0.991782
1.00006 1.00001 0.997773
1.00006 1.00001 0.99778
1.00159 0.999985 0.99305
1.00387 0.999719 0.987989
1.00489 0.999081 0.986706
0.999749 0.999984 0.998105
1.00147 0.999994 0.991963
1.00387 0.999702 0.987999
0.999999 0.999961 0.997882
1.00145 0.999953 0.992059
0.999914 1.00001 0.997973
1.00001 1 0.995378
1.00154 0.999981 0.992502
1.00387 0.999673 0.987778
1.00005 1 0.997792
1.0015 0.999995 0.991892
1.00007 1.00001 0.997768
0.999729 1 0.995671
1.00153 0.999985 0.992506
1.00387 0.999716 0.987989
0.999871 0.999984 0.996751
1.00147 0.999989 0.991968
0.999979 0.999974 0.997909
1.00002 0.999995 0.997808
1.00147 0.999984 0.991965
1.00002 1 0.997799
0.999871 0.999994 0.996746
1.00148 0.99999 0.991964
1.00001 0.999972 0.997857
1.00001 0.99999 0.997822
1 0.999984 0.997833

TENSORS stress float
0.00156868 -6.67125e-05 0.000142548
-6.67125e-05 0.000545065 -1.70774e-05
0.000142548 -1.70774e-05 0.000524117
0.00466284 -0.000107021 0.00013452
-0.000107021 0.00232655 1.06711e-05
0.00013452 1.06711e-05 0.0023112
0.00144413 8.83649e-06 7.12392e-05
8.83649e-06 0.000488192 -5.92799e-06
7.12392e-05 -5.92799e-06 0.000456612
0.00172561 -4.25433e-05 0.000142801
-4.25433e-05 0.000613821 -1.14081e-05
0.000142801 -1.14081e-05 0.00059492
0.00163597 -6.07112e-05 0.000138846
-6.07112e-05 0.000578636 -1.572e-05
0.000138846 -1.572e-05 0.000558603
0.0013909 -5.803e-05 0.000139709
-5.803e-05 0.000442829 -1.61156e-05
0.000139709 -1.61156e-05 0.000424047
0.00141397 -3.10022e-05 1.65923e-05
-3.10022e-05 0.000394414 -7.76475e-06
1.65923e-05 -7.76475e-06 0.000321277
0.00447394 -0.000136772 9.2626e-06
-0.000136772 0.00222162 -1.26354e-06
9.2626e-06 -1.26354e-06 0.00220477
0.00502497 -3.90721e-05 4.44027e-05
-3.90721e-05 0.00249848 2.16314e-06
4.44027e-05 2.16314e-06 0.00248508
0.00465238 -0.000303162 -1.33228e-05
-0.000303162 0.0023661 5.84057e-06
-1.33228e-05 5.84057e-06 0.00231233
0.00150071 1.86254e-05 0.000121855
1.86254e-05 0.00050622 9.61254e-06
0.000121855 9.61254e-06 0.000495532
0.000751738 0.000125684 1.68135e-05
0.000125684 3.39734e-05 1.10065e-05
1.68135e-05 1.10065e-05 -3.6491e-05
0.00162932 -2.34061e-05 0.000157184
-2.34061e-05 0.000552721 1.80558e-06
0.000157184 1.80558e-06 0.00053713
0.00126418 -1.9795e-05 1.63522e-05
-1.9795e-05 0.000363103 1.51833e-06
1.63522e-05 1.51833e-06 0.000330095
0.00140005 3.28758e-05 -1.47422e-05
3.28758e-05 0.00046368 4.20712e-06
-1.47422e-05 4.20712e-06 0.000429769
0.00148596 -3.57305e-05 5.51293e-05
-3.57305e-05 0.000485912 -3.26231e-06
5.51293e-05 -3.26231e-06 0.000461566
0.00138408 2.46625e-05 7.43224e-05
2.46625e-05 0.000460705 -5.16912e-06
7.43224e-05 -5.16912e-06 0.000426278
0.00145258 -1.26721e-05 6.26175e-05
-1.26721e-05 0.000480581 -5.86962e-06
6.26175e-05 -5.86962e-06 0.000455068
0.00148017 -7.699e-05 -2.69247e-05
-7.699e-05 0.000418337 2.01515e-06
-2.69247e-05 2.01515e-06 0.000354496
0.00516668 -0.000102628 0.000170043
-0.000102628 0.00258027 -3.71853e-06
0.000170043 -3.71853e-06 0.00257637
0.00171225 -2.7655e-05 0.000146177
-2.7655e-05 0.000602951 -8.67882e-06
0.000146177 -8.67882e-06 0.000584095
0.00170297 -5.36142e-05 0.000139999
-5.36142e-05 0.000607186 -1.37751e-05
0.000139999 -1.37751e-05 0.000588056
0.00145397 -7.10905e-05 3.51382e-05
-7.10905e-05 0.000377172 -5.36941e-06
3.51382e-05 -5.36941e-06 0.000315324
0.00142883 -5.10566e-05 2.49072e-05
-5.10566e-05 0.000382482 -6.73022e-06
2.49072e-05 -6.73022e-06 0.000318301
0.00119691 -1.80344e-05 0.000116236
-1.80344e-05 0.000333466 -1.27839e-05
0.000116236 -1.27839e-05 0.000318066
0.00129397 -1.53993e-05 1.06916e-05
-1.53993e-05 0.000350489 -8.77833e-06
1.06916e-05 -8.77833e-06 0.000270524
0.00197288 -0.000182363 1.08716e-05
-0.000182363 0.000567519 -4.08735e-06
1.08716e-05 -4.08735e-06 0.000449355
0.00429325 -0.000166821 -0.000102912
-0.000166821 0.00212348 -6.32945e-06
-0.000102912 -6.32945e-06 0.00210354
0.00323723 1.03468e-05 -8.21302e-05
1.03468e-05 0.00148786 -4.47635e-06
-8.21302e-05 -4.47635e-06 0.00146886
0.0030102 -9.09003e-05 -6.85042e-05
-9.09003e-05 0.00138908 -2.05704e-06
-6.85042e-05 -2.05704e-06 0.00136064
0.00401769 -0.000137752 6.93614e-06
-0.000137752 0.00195575 -5.41767e-07
6.93614e-06 -5.41767e-07 0.00194407
0.000637879 0.000111179 -3.9098e-07
0.000111179 -2.58817e-05 -3.72476e-07
-3.9098e-07 -3.72476e-07 -9.50289e-05
0.00153101 4.75461e-05 0.000145606
4.75461e-05 0.000506703 1.02415e-05
0.000145606 1.02415e-05 0.000487935
0.00173705 9.95067e-05 0.000147537
9.95067e-05 0.000636797 1.42453e-05
0.000147537 1.42453e-05 0.00061753
0.00249924 0.00014472 8.98976e-05
0.00014472 0.000975146 1.0642e-05
8.98976e-05 1.0642e-05 0.000919742
0.00323809 -0.000170704 1.26247e-05
-0.000170704 0.00151813 1.97771e-06
1.26247e-05 1.97771e-06 0.00150059
0.00251599 0.000148247 8.45272e-05
0.000148247 0.00101751 1.14452e-05
8.45272e-05 1.14452e-05 0.000958823
0.000686168 7.17548e-05 1.48747e-05
7.17548e-05 7.19661e-06 1.30927e-05
1.48747e-05 1.30927e-05 -5.32203e-05
0.000955839 0.000141696 6.86418e-06
0.000141696 8.84463e-05 3.8706e-06
6.86418e-06 3.8706e-06 -3.87977e-05
0.00272523 -0.000100305 6.31668e-05
-0.000100305 0.00120885 2.44046e-06
6.31668e-05 2.44046e-06 0.00121192
0.00521796 4.92316e-05 4.20814e-06
4.92316e-05 0.00259857 -9.26914e-07
4.20814e-06 -9.26914e-07 0.00260044
0.00324512 2.81072e-05 -6.6592e-05
2.81072e-05 0.00148361 -2.00401e-06
-6.6592e-05 -2.00401e-06 0.00146705
0.00520549 5.67384e-05 0.000169544
5.67384e-05 0.00259293 1.15024e-06
0.000169544 1.15024e-06 0.00259416
0.00132023 2.59097e-05 1.78122e-05
2.59097e-05 0.000393515 1.4089e-06
1.78122e-05 1.4089e-06 0.000361874
0.000727012 2.8052e-06 1.6024e-05
2.8052e-06 -6.23174e-05 1.87199e-06
1.6024e-05 1.87199e-06 -0.000127583
0.00492819 0.000147852 7.27096e-05
0.000147852 0.00245281 5.73021e-06
7.27096e-05 5.73021e-06 0.00243446
0.0025591 3.71029e-05 9.00407e-05
3.71029e-05 0.000979881 5.31288e-06
9.00407e-05 5.31288e-06 0.00093257
0.00119387 -6.41415e-05 -3.24047e-05
-6.41415e-05 0.000334219 4.13818e-06
-3.24047e-05 4.13818e-06 0.000300772
0.00129247 -2.17319e-05 -2.61574e-05
-2.17319e-05 0.000394295 4.07691e-06
-2.61574e-05 4.07691e-06 0.000364736
0.00142697 0.000106925 -4.1963e-07
0.000106925 0.000504092 5.96036e-06
-4.1963e-07 5.96036e-06 0.000455721
0.00149563 -9.61872e-05 -7.71431e-05
-9.61872e-05 0.000419713 1.08152e-05
-7.71431e-05 1.08152e-05 0.000361163
0.00330812 2.3366e-05 -7.16659e-05
2.3366e-05 0.00152535 -1.05619e-06
-7.16659e-05 -1.05619e-06 0.00150466
0.00148747 -3.65936e-05 6.02985e-05
-3.65936e-05 0.000485585 -2.3247e-06
6.02985e-05 -2.3247e-06 0.000459891
0.00121836 3.65723e-05 5.90943e-05
3.65723e-05 0.000364097 -4.13788e-06
5.90943e-05 -4.13788e-06 0.000336171
0.00147801 -2.9584e-05 5.73257e-05
-2.9584e-05 0.000484749 -4.8455e-06
5.73257e-05 -4.8455e-06 0.00046131
0.001498 -6.96696e-05 -2.11396e-05
-6.96696e-05 0.000398704 7.37394e-07
-2.11396e-05 7.37394e-07 0.000340346
0.00139615 -5.52656e-05 -3.05467e-05
-5.52656e-05 0.000395433 1.02341e-06
-3.05467e-05 1.02341e-06 0.000325053
0.00148357 -8.13355e-05 -2.24373e-05
-8.13355e-05 0.000407415 1.58404e-06
-2.24373e-05 1.58404e-06 0.000348175
0.00197652 -0.000180819 -5.09508e-06
-0.000180819 0.000568951 1.38132e-06
-5.09508e-06 1.38132e-06 0.000451126
0.00515948 5.7729e-05 0.000161309
5.7729e-05 0.00256852 -1.88975e-07
0.000161309 -1.88975e-07 0.00256953
0.00170829 -1.23929e-05 0.000149195
-1.23929e-05 0.000599765 -5.89629e-06
0.000149195 -5.89629e-06 0.000581229
0.00235539 4.69586e-05 1.98304e-05
4.69586e-05 0.000877793 -1.22551e-06
1.98304e-05 -1.22551e-06 0.00082133
0.00145567 -6.86348e-05 3.13683e-05
-6.86348e-05 0.000373819 -4.23192e-06
3.13683e-05 -4.23192e-06 0.000311309
0.00144813 -6.61133e-05 3.16754e-05
-6.61133e-05 0.000379138 -6.04579e-06
3.16754e-05 -6.04579e-06 0.000317747
0.00196231 -0.000112375 1.01736e-05
-0.000112375 0.000508457 -2.44142e-06
1.01736e-05 -2.44142e-06 0.000403534
0.00153003 -0.000142092 1.25372e-05
-0.000142092 0.000294104 -4.4435e-06
1.25372e-05 -4.4435e-06 0.000181536
0.00110919 3.06976e-05 8.47614e-05
3.06976e-05 0.000281609 -9.43005e-06
8.47614e-05 -9.43005e-06 0.000267765
0.00090328 1.35654e-05 8.53916e-06
1.35654e-05 0.000160793 -7.3961e-06
8.53916e-06 -7.3961e-06 9.40332e-05
0.00185445 -0.000185013 8.95429e-06
-0.000185013 0.000546219 -4.51287e-06
8.95429e-06 -4.51287e-06 0.000421441
0.00128508 -0.000170635 6.9852e-06
-0.000170635 8.73125e-05 -9.44006e-07
6.9852e-06 -9.44006e-07 -5.65054e-05
0.00519269 5.31642e-05 -0.000169
5.31642e-05 0.00258814 -1.08429e-05
-0.000169 -1.08429e-05 0.00258784
0.00377663 -0.000151349 -8.91971e-05
-0.000151349 0.00182048 -3.7446e-06
-8.91971e-05 -3.7446e-06 0.00180809
0.00471029 -0.000137674 -0.000122286
-0.000137674 0.00235423 -8.28945e-06
-0.000122286 -8.28945e-06 0.00233694
0.000525105 0.000107758 -1.50061e-05
0.000107758 -8.64834e-05 -1.12182e-05
-1.50061e-05 -1.12182e-05 -0.000154305
0.00523575 9.92982e-05 -2.57409e-06
9.92982e-05 0.00260876 -1.34072e-06
-2.57409e-06 -1.34072e-06 0.00260788
0.00519793 -2.34658e-05 -7.94078e-06
-2.34658e-05 0.00260591 -5.14776e-08
-7.94078e-06 -5.14776e-08 0.00259861
0.000585404 0.000109064 -4.27825e-07
0.000109064 -0.000107993 -2.35616e-07
-4.27825e-07 -2.35616e-07 -0.00017968
0.00217971 -0.000101079 -3.8183e-05
-0.000101079 0.000906802 -1.99137e-07
-3.8183e-05 -1.99137e-07 0.000892626
0.00059379 0.00014004 -1.23348e-06
0.00014004 -6.91332e-05 -1.51343e-07
-1.23348e-06 -1.51343e-07 -0.000141584
0.00131708 5.03557e-05 2.45588e-05
5.03557e-05 0.000374503 3.03423e-07
2.45588e-05 3.03423e-07 0.000321486
0.0008979 0.000134471 3.61633e-07
0.000134471 5.39164e-05 -1.9822e-07
3.61633e-07 -1.9822e-07 -7.20482e-05
0.00310009 -0.000101556 8.43378e-05
-0.000101556 0.00142196 3.27259e-06
8.43378e-05 3.27259e-06 0.00142366
0.000611912 -6.38914e-05 -2.8764e-07
-6.38914e-05 1.45132e-06 6.11395e-06
-2.8764e-07 6.11395e-06 -3.11658e-05
0.000700306 7.81235e-05 1.69192e-05
7.81235e-05 -6.12631e-05 7.90445e-06
1.69192e-05 7.90445e-06 -0.000129539
0.000730406 0.000126879 2.12011e-05
0.000126879 -1.38781e-05 1.25845e-05
2.12011e-05 1.25845e-05 -8.90061e-05
0.00105015 0.000124019 1.16293e-05
0.000124019 3.17135e-06 4.5179e-06
1.16293e-05 4.5179e-06 -0.000118911
0.00193528 -8.05441e-06 4.9473e-05
-8.05441e-06 0.000737189 6.09019e-06
4.9473e-05 6.09019e-06 0.000699409
0.000988442 0.000144273 8.85304e-06
0.000144273 4.92743e-05 4.70707e-06
8.85304e-06 4.70707e-06 -7.80105e-05
0.000953004 0.000127284 5.98888e-06
0.000127284 0.000140056 3.95689e-06
5.98888e-06 3.95689e-06 1.76209e-05
0.000928205 0.000167192 2.83445e-06
0.000167192 2.48808e-05 8.85656e-07
2.83445e-06 8.85656e-07 -0.00013341
0.00244426 -9.72813e-05 4.12525e-05
-9.72813e-05 0.00104556 2.50814e-06
4.12525e-05 2.50814e-06 0.0010496
0.0026031 -0.000108674 4.12761e-06
-0.000108674 0.00114198 -2.80715e-07
4.12761e-06 -2.80715e-07 0.00114273
0.00521857 8.76594e-06 -0.000163497
8.76594e-06 0.00259624 -6.57466e-06
-0.000163497 -6.57466e-06 0.00259751
0.00522055 4.36791e-05 -0.000169969
4.36791e-05 0.00259929 -3.25703e-06
-0.000169969 -3.25703e-06 0.00260155
0.0052288 7.67706e-05 -6.01645e-08
7.67706e-05 0.00261251 -1.50302e-06
-6.01645e-08 -1.50302e-06 0.00260964
0.00325107 -6.23704e-06 -8.02611e-05
-6.23704e-06 0.00148523 -2.12359e-06
-8.02611e-05 -2.12359e-06 0.00147051
0.00164152 2.05339e-05 3.83367e-05
2.05339e-05 0.000457811 5.06423e-07
3.83367e-05 5.06423e-07 0.000401683
0.00327975 6.91364e-05 -6.69603e-05
6.91364e-05 0.00150268 -3.11119e-06
-6.69603e-05 -3.11119e-06 0.00148585
0.00165788 5.36614e-05 3.68443e-05
5.36614e-05 0.000472965 1.06649e-06
3.68443e-05 1.06649e-06 0.000415256
0.00523259 0.00014359 0.000173251
0.00014359 0.00262387 3.39093e-06
0.000173251 3.39093e-06 0.00261475
0.00066372 1.73471e-06 1.67946e-05
1.73471e-06 -9.7565e-05 4.95119e-07
1.67946e-05 4.95119e-07 -0.000162232
0.00259099 8.4103e-06 9.11923e-05
8.4103e-06 0.000996022 3.53673e-06
9.11923e-05 3.53673e-06 0.000949477
0.00111103 2.75055e-05 1.15768e-05
2.75055e-05 -5.93844e-07 1.3093e-06
1.15768e-05 1.3093e-06 -0.000111171
0.00248484 7.99607e-05 9.0047e-05
7.99607e-05 0.000946173 6.46519e-06
9.0047e-05 6.46519e-06 0.000896662
0.00111692 6.69241e-05 1.13022e-05
6.69241e-05 1.24988e-05 2.44628e-06
1.13022e-05 2.44628e-06 -0.00010142
0.00165087 2.9971e-05 -0.000155815
2.9971e-05 0.000566696 1.03451e-06
-0.000155815 1.03451e-06 0.000551251
0.0012399 -3.7118e-06 -2.0483e-05
-3.7118e-06 0.000352717 1.82401e-06
-2.0483e-05 1.82401e-06 0.000321488
0.00124615 0.000117043 -3.25233e-07
0.000117043 0.00040464 5.56258e-06
-3.25233e-07 5.56258e-06 0.000359202
0.0012296 -4.54971e-05 -3.2462e-05
-4.54971e-05 0.000354174 4.22703e-06
-3.2462e-05 4.22703e-06 0.000323887
0.00159334 -5.14683e-05 -7.72517e-05
-5.14683e-05 0.000446532 6.26922e-06
-7.72517e-05 6.26922e-06 0.000393303
0.00153099 -8.28951e-05 -7.55312e-05
-8.28951e-05 0.000428718 9.70439e-06
-7.55312e-05 9.70439e-06 0.000373669
0.0014405 -9.349e-05 -7.617e-05
-9.349e-05 0.000408509 1.09263e-05
-7.617e-05 1.09263e-05 0.00034709
0.00199115 -0.000180407 -2.05067e-05
-0.000180407 0.000577031 6.55174e-06
-2.05067e-05 6.55174e-06 0.000459384
0.00522099 -8.02159e-05 2.1234e-06
-8.02159e-05 0.00260845 -1.13672e-06
2.1234e-06 -1.13672e-06 0.00260518
0.00147714 3.94126e-05 6.90612e-05
3.94126e-05 0.00047767 -1.92947e-06
6.90612e-05 -1.92947e-06 0.000452602
0.00113099 4.18118e-06 -4.09279e-05
4.18118e-06 0.000172195 6.07582e-07
-4.09279e-05 6.07582e-07 0.00011431
0.00151141 -4.08359e-05 -2.49503e-05
-4.08359e-05 0.000399907 8.66259e-07
-2.49503e-05 8.66259e-07 0.000342219
0.00237228 6.96892e-05 8.54708e-05
6.96892e-05 0.00101228 -6.49781e-07
8.54708e-05 -6.49781e-07 0.00100249
0.00156026 -1.96369e-05 -2.22101e-05
-1.96369e-05 0.000520322 -6.72907e-07
-2.22101e-05 -6.72907e-07 0.000458391
0.00149774 -7.69658e-05 -2.06295e-05
-7.69658e-05 0.000404564 1.08912e-06
-2.06295e-05 1.08912e-06 0.000346482
0.00178277 -0.000104134 -7.18503e-06
-0.000104134 0.000405612 1.22665e-06
-7.18503e-06 1.22665e-06 0.000299536
0.00192739 -0.000190692 -4.20282e-06
-0.000190692 0.000587102 1.02586e-06
-4.20282e-06 1.02586e-06 0.00046074
0.00177503 -0.000151324 -2.66123e-06
-0.000151324 0.0004326 5.58329e-07
-2.66123e-06 5.58329e-07 0.000320842
0.00125039 -0.000167575 3.78866e-07
-0.000167575 6.97856e-05 2.76043e-07
3.78866e-07 2.76043e-07 -7.37137e-05
0.000692659 8.73196e-06 1.70957e-05
8.73196e-06 -8.11329e-05 -1.25406e-06
1.70957e-05 -1.25406e-06 -0.000144369
0.00145052 1.40978e-05 2.37682e-05
1.40978e-05 0.000364715 -2.48273e-06
2.37682e-05 -2.48273e-06 0.000303686
0.00160138 -2.30312e-05 1.17509e-05
-2.30312e-05 0.000281323 -1.18115e-06
1.17509e-05 -1.18115e-06 0.000177738
0.00157914 -8.07383e-05 1.1512e-05
-8.07383e-05 0.000284513 -2.20337e-06
1.1512e-05 -2.20337e-06 0.000178053
0.00154769 -0.000121555 1.23671e-05
-0.000121555 0.000284188 -3.69885e-06
1.23671e-05 -3.69885e-06 0.000174552
0.00176086 -0.000119674 3.12188e-06
-0.000119674 0.000305785 -7.93379e-07
3.12188e-06 -7.93379e-07 0.000177408
0.00337743 0.000130563 7.92838e-05
0.000130563 0.00158238 -2.58694e-06
7.92838e-05 -2.58694e-06 0.00157692
0.00131562 -0.000151691 6.10394e-06
-0.000151691 8.79244e-05 -2.01138e-06
6.10394e-06 -2.01138e-06 -4.93324e-05
0.000478139 -4.22888e-06 6.31682e-06
-4.22888e-06 -8.86969e-05 -8.43878e-06
6.31682e-06 -8.43878e-06 -0.000139854
0.000695233 -0.000120788 5.09387e-06
-0.000120788 -3.20952e-05 -4.59906e-06
5.09387e-06 -4.59906e-06 -0.000153735
0.00136671 -0.000194745 6.68331e-06
-0.000194745 0.000182286 -2.13275e-06
6.68331e-06 -2.13275e-06 2.313e-05
0.00132628 -0.00017912 3.98694e-06
-0.00017912 5.53217e-05 3.30303e-07
3.98694e-06 3.30303e-07 -9.66782e-05
0.000510183 3.3942e-05 2.86952e-06
3.3942e-05 -6.75683e-05 -7.37526e-06
2.86952e-06 -7.37526e-06 -0.000108168
0.00068126 1.00683e-05 9.13372e-07
1.00683e-05 1.75693e-05 -3.52922e-06
9.13372e-07 -3.52922e-06 -6.56329e-05
0.00523953 0.0001063 -0.000179914
0.0001063 0.00261262 -1.16087e-05
-0.000179914 -1.16087e-05 0.00261134
0.00500836 -4.13309e-05 -0.000148314
-4.13309e-05 0.00249858 -9.24715e-06
-0.000148314 -9.24715e-06 0.00249374
0.000582516 0.000100224 -1.64181e-05
0.000100224 -0.000110418 -8.91746e-06
-1.64181e-05 -8.91746e-06 -0.000182089
0.0032914 -0.000133226 -7.47589e-05
-0.000133226 0.00153879 -2.53446e-06
-7.47589e-05 -2.53446e-06 0.00153277
0.000487038 3.81944e-05 -8.08247e-06
3.81944e-05 -9.32184e-05 -9.90712e-06
-8.08247e-06 -9.90712e-06 -0.000148439
0.000516292 0.000129052 -1.7326e-05
0.000129052 -0.000108777 -1.10508e-05
-1.7326e-05 -1.10508e-05 -0.000181584
0.000855328 0.000129207 -7.00922e-06
0.000129207 2.83557e-05 -4.5015e-06
-7.00922e-06 -4.5015e-06 -9.66137e-05
0.00297104 -0.000113871 4.69509e-06
-0.000113871 0.00135248 -2.34438e-07
4.69509e-06 -2.34438e-07 0.00135168
0.000565691 -7.35401e-05 2.26508e-07
-7.35401e-05 -2.14154e-05 2.47574e-07
2.26508e-07 2.47574e-07 -5.55159e-05
0.00160208 9.73814e-05 3.60974e-05
9.73814e-05 0.00045259 1.72436e-06
3.60974e-05 1.72436e-06 0.000391677
0.00152744 0.000135946 3.38462e-05
0.000135946 0.000440996 1.32924e-06
3.38462e-05 1.32924e-06 0.000374772
0.00105831 0.000126302 1.69658e-07
0.000126302 8.90839e-06 -1.87991e-07
1.69658e-07 -1.87991e-07 -0.00011371
0.000627434 -6.62534e-06 -5.57495e-07
-6.62534e-06 -3.94797e-06 1.37193e-07
-5.57495e-07 1.37193e-07 -4.90643e-05
0.000968383 0.00014259 5.9511e-07
0.00014259 3.84694e-05 8.54356e-08
5.9511e-07 8.54356e-08 -8.85034e-05
0.000845382 0.000115825 2.09053e-07
0.000115825 7.86677e-05 -2.72307e-07
2.09053e-07 -2.72307e-07 -4.15159e-05
0.000871223 0.000163597 -4.16605e-08
0.000163597 -8.69819e-06 1.64737e-07
-4.16605e-08 1.64737e-07 -0.000167617
0.000626801 -3.56332e-05 4.20194e-06
-3.56332e-05 6.43345e-06 6.96049e-06
4.20194e-06 6.96049e-06 -3.25901e-05
0.000634446 -7.01578e-05 -1.78194e-06
-7.01578e-05 7.46467e-06 5.15662e-06
-1.78194e-06 5.15662e-06 -1.93961e-05
0.000683756 1.20808e-05 2.15022e-06
1.20808e-05 3.23321e-05 3.43756e-06
2.15022e-06 3.43756e-06 -4.48362e-05
0.00108177 0.000104634 1.15439e-05
0.000104634 5.08576e-06 3.92333e-06
1.15439e-05 3.92333e-06 -0.000113628
0.00101675 0.000139211 1.07497e-05
0.000139211 1.76138e-05 4.84546e-06
1.07497e-05 4.84546e-06 -0.000108089
0.00131764 0.000157068 6.43907e-06
0.000157068 7.18696e-05 1.6899e-06
6.43907e-06 1.6899e-06 -7.53127e-05
0.000900699 9.90209e-05 4.77449e-06
9.90209e-05 0.000140069 3.97453e-06
4.77449e-06 3.97453e-06 2.95493e-05
0.000895673 0.000162771 3.98145e-06
0.000162771 -7.26825e-05 2.0727e-06
3.98145e-06 2.0727e-06 -0.000228539
0.00111499 0.000176324 2.72956e-06
0.000176324 0.000201881 1.31345e-06
2.72956e-06 1.31345e-06 4.14807e-05
0.00124965 0.000202849 -3.48972e-06
0.000202849 0.000184391 -6.07092e-07
-3.48972e-06 -6.07092e-07 1.31079e-05
0.00229606 -8.64704e-05 3.40543e-05
-8.64704e-05 0.000953615 2.84985e-06
3.40543e-05 2.84985e-06 0.000960623
0.00237049 -9.6844e-05 1.89408e-06
-9.6844e-05 0.00100381 -2.03566e-07
1.89408e-06 -2.03566e-07 0.00100783
0.00249005 -0.000108506 -3.98707e-05
-0.000108506 0.00107905 -2.4203e-06
-3.98707e-05 -2.4203e-06 0.00107962
0.000527607 4.45842e-05 1.90777e-06
4.45842e-05 -5.7392e-05 -6.50016e-06
1.90777e-06 -6.50016e-06 -9.35545e-05
0.00316421 0.000120738 6.76201e-05
0.000120738 0.00145655 -2.62903e-06
6.76201e-05 -2.62903e-06 0.00145404
0.00523237 0.000133463 -0.000181446
0.000133463 0.00261276 -1.10977e-05
-0.000181446 -1.10977e-05 0.00260869
0.00519027 2.5857e-05 -0.000165553
2.5857e-05 0.00258046 -4.77107e-06
-0.000165553 -4.77107e-06 0.00258306
0.000694653 6.30303e-05 -1.72642e-05
6.30303e-05 -7.14304e-05 -4.34349e-06
-1.72642e-05 -4.34349e-06 -0.000137737
0.000675409 2.58216e-05 -1.73243e-05
2.58216e-05 -8.67148e-05 -2.15788e-06
-1.73243e-05 -2.15788e-06 -0.000152542
0.00518938 -3.85027e-05 -0.000162743
-3.85027e-05 0.00258295 -8.02889e-07
-0.000162743 -8.02889e-07 0.00258513
0.00520738 1.58176e-05 -4.51647e-07
1.58176e-05 0.00259312 3.46609e-07
-4.51647e-07 3.46609e-07 0.00259491
0.000659168 -1.7132e-06 -1.44894e-07
-1.7132e-06 -0.000100558 -1.75213e-07
-1.44894e-07 -1.75213e-07 -0.000164707
0.00162537 2.17922e-05 3.78136e-05
2.17922e-05 0.000451114 9.42669e-07
3.78136e-05 9.42669e-07 0.000395173
0.00111812 3.17336e-05 1.11955e-07
3.17336e-05 3.56151e-06 -1.42736e-07
1.11955e-07 -1.42736e-07 -0.000107238
0.000661401 5.73537e-05 -7.55448e-08
5.73537e-05 -8.67081e-05 -1.81695e-07
-7.55448e-08 -1.81695e-07 -0.000153316
0.00111136 6.93915e-05 -6.19965e-08
6.93915e-05 9.71101e-06 -1.42475e-07
-6.19965e-08 -1.42475e-07 -0.000104608
0.000651165 -1.8395e-05 1.71124e-05
-1.8395e-05 -0.000106826 -5.07694e-07
1.71124e-05 -5.07694e-07 -0.000170222
0.00111626 1.21134e-05 1.14538e-05
1.21134e-05 -1.11419e-06 5.53345e-07
1.14538e-05 5.53345e-07 -0.000111128
0.00111022 4.77297e-05 1.14749e-05
4.77297e-05 4.05939e-06 1.94672e-06
1.14749e-05 1.94672e-06 -0.000107878
0.00140144 3.87223e-05 4.22665e-06
3.87223e-05 6.30633e-05 3.99421e-07
4.22665e-06 3.99421e-07 -6.14704e-05
0.0011083 8.49569e-05 1.12954e-05
8.49569e-05 1.23646e-05 3.11669e-06
1.12954e-05 3.11669e-06 -0.000103746
0.00140041 8.28296e-05 4.34199e-06
8.28296e-05 8.03601e-05 6.98185e-07
4.34199e-06 6.98185e-07 -5.08762e-05
0.00520268 -4.74035e-05 -0.000171495
-4.74035e-05 0.00259274 -5.16741e-07
-0.000171495 -5.16741e-07 0.00259293
0.00127342 -8.24415e-05 -1.91929e-05
-8.24415e-05 0.000374018 2.12729e-06
-1.91929e-05 2.12729e-06 0.000340538
-0.000178691 -6.15265e-07 -1.34894e-05
-6.15265e-07 -0.000570552 2.19563e-06
-1.34894e-05 2.19563e-06 -0.000642672
0.00158986 -3.48381e-05 -7.85415e-05
-3.48381e-05 0.000440336 4.61931e-06
-7.85415e-05 4.61931e-06 0.000386691
0.00348776 0.000198041 -1.23306e-05
0.000198041 0.00167313 2.16388e-06
-1.23306e-05 2.16388e-06 0.00164676
0.00221154 -8.75388e-05 -6.48293e-05
-8.75388e-05 0.000870627 9.68894e-06
-6.48293e-05 9.68894e-06 0.000817763
0.0015747 -6.85641e-05 -7.62104e-05
-6.85641e-05 0.000443018 8.16779e-06
-7.62104e-05 8.16779e-06 0.00038933
0.00158173 -9.54633e-05 -2.26149e-05
-9.54633e-05 0.00029042 4.39106e-06
-2.26149e-05 4.39106e-06 0.000183337
0.00201416 -0.000160537 -1.93061e-05
-0.000160537 0.000567983 5.78398e-06
-1.93061e-05 5.78398e-06 0.000457102
0.00203013 -0.000197617 -1.77193e-05
-0.000197617 0.000645398 6.95488e-06
-1.77193e-05 6.95488e-06 0.00051723
0.00123099 -0.00016537 -5.85792e-06
-0.00016537 6.04994e-05 1.44377e-06
-5.85792e-06 1.44377e-06 -8.27277e-05
0.000653689 8.94037e-06 -1.09519e-09
8.94037e-06 -0.000102778 -1.45036e-07
-1.09519e-09 -1.45036e-07 -0.000166234
0.00154186 -4.41388e-05 -2.60231e-05
-4.41388e-05 0.000413346 2.76921e-07
-2.60231e-05 2.76921e-07 0.000355588
0.00117703 -1.97717e-05 -5.1326e-06
-1.97717e-05 4.13853e-05 2.27623e-07
-5.1326e-06 2.27623e-07 -6.5925e-05
0.00181422 -8.35812e-05 -3.59025e-06
-8.35812e-05 0.000415614 4.99451e-07
-3.59025e-06 4.99451e-07 0.000310848
0.00341994 0.000124563 -2.2725e-06
0.000124563 0.00160637 -3.81891e-07
-2.2725e-06 -3.81891e-07 0.0016018
0.00127143 -1.45632e-05 1.61119e-06
-1.45632e-05 0.000359963 5.5243e-07
1.61119e-06 5.5243e-07 0.000306617
0.00126719 -0.000149119 6.4715e-07
-0.000149119 0.000289331 -7.47729e-07
6.4715e-07 -7.47729e-07 0.000166712
0.00156398 -0.000120732 -3.95728e-06
-0.000120732 0.000293527 7.53765e-07
-3.95728e-06 7.53765e-07 0.000183921
0.0014669 -0.000110051 -2.61979e-06
-0.000110051 0.000138403 5.81865e-07
-2.61979e-06 5.81865e-07 8.99032e-06
0.00100387 -0.000171207 -5.1914e-07
-0.000171207 -1.99665e-05 -4.62498e-07
-5.1914e-07 -4.62498e-07 -0.000176821
0.00155633 -0.000160642 1.91607e-07
-0.000160642 0.000223903 -1.23464e-07
1.91607e-07 -1.23464e-07 8.7561e-05
0.00142176 -0.000184695 4.693e-07
-0.000184695 0.000108736 1.95791e-07
4.693e-07 1.95791e-07 -4.37135e-05
0.000546277 2.83494e-05 -6.75914e-07
2.83494e-05 -4.82545e-05 9.0977e-08
-6.75914e-07 9.0977e-08 -8.87738e-05
0.000674293 -4.63027e-06 -3.17528e-07
-4.63027e-06 1.21005e-05 5.58298e-08
-3.17528e-07 5.58298e-08 -7.16217e-05
0.00110846 -9.86e-06 1.13463e-05
-9.86e-06 -4.54713e-06 -1.09116e-06
1.13463e-05 -1.09116e-06 -0.000113997
0.00160383 -4.70333e-05 1.13172e-05
-4.70333e-05 0.000288556 -1.60116e-06
1.13172e-05 -1.60116e-06 0.000184111
0.00175761 -3.11421e-05 2.99703e-06
-3.11421e-05 0.000274521 -2.57968e-07
2.99703e-06 -2.57968e-07 0.000154768
0.00125242 -8.30216e-05 5.19174e-06
-8.30216e-05 8.2548e-06 -8.88252e-07
5.19174e-06 -8.88252e-07 -0.000119846
0.00164786 -0.000145642 4.75636e-06
-0.000145642 0.000256163 -1.24509e-06
4.75636e-06 -1.24509e-06 0.000123841
0.00165734 -0.000123858 -2.95891e-07
-0.000123858 0.000181923 3.47513e-07
-2.95891e-07 3.47513e-07 5.21161e-05
0.000473546 1.2104e-05 5.10759e-06
1.2104e-05 -9.06264e-05 -7.85737e-06
5.10759e-06 -7.85737e-06 -0.000135503
0.0014362 -0.000164332 2.70633e-06
-0.000164332 9.94746e-05 -2.31673e-07
2.70633e-06 -2.31673e-07 -4.3464e-05
0.000624592 -8.94033e-05 3.40871e-06
-8.94033e-05 -2.77583e-05 -2.91239e-06
3.40871e-06 -2.91239e-06 -0.00013802
0.000540376 -0.000145341 5.20529e-06
-0.000145341 -0.000184415 -4.6679e-06
5.20529e-06 -4.6679e-06 -0.000346009
0.0019024 -0.000241567 3.23615e-06
-0.000241567 0.000421161 3.28867e-07
3.23615e-06 3.28867e-07 0.000248851
0.00167322 -0.000203914 -3.87908e-07
-0.000203914 0.00020892 1.92251e-06
-3.87908e-07 1.92251e-06 5.56726e-05
0.000749346 -4.11895e-05 2.34744e-06
-4.11895e-05 5.68655e-05 -3.14581e-06
2.34744e-06 -3.14581e-06 -3.88625e-05
0.000644848 1.16863e-05 1.3222e-06
1.16863e-05 -2.00626e-06 -3.04998e-06
1.3222e-06 -3.04998e-06 -7.59138e-05
0.00086394 -8.10979e-05 1.14051e-06
-8.10979e-05 0.000123264 -6.1854e-07
1.14051e-06 -6.1854e-07 3.61986e-06
0.000625075 7.95761e-05 -1.60314e-05
7.95761e-05 -9.96551e-05 -6.98356e-06
-1.60314e-05 -6.98356e-06 -0.00016833
0.00284281 -0.000123312 -5.23007e-05
-0.000123312 0.00128272 -2.19928e-06
-5.23007e-05 -2.19928e-06 0.00127952
0.000504674 -7.32705e-05 1.01128e-06
-7.32705e-05 -5.58826e-05 -5.52546e-06
1.01128e-06 -5.52546e-06 -8.95081e-05
0.000537046 0.00011991 -1.70509e-05
0.00011991 -0.000116141 -1.05286e-05
-1.70509e-05 -1.05286e-05 -0.000190043
0.00106531 0.000128807 -1.19201e-05
0.000128807 1.3915e-05 -4.88117e-06
-1.19201e-05 -4.88117e-06 -0.000109262
0.000470603 -1.53488e-05 -4.72867e-06
-1.53488e-05 -8.9806e-05 -8.26295e-06
-4.72867e-06 -8.26295e-06 -0.000134722
0.000718089 0.000102359 -4.36202e-06
0.000102359 6.57866e-06 -4.1737e-06
-4.36202e-06 -4.1737e-06 -0.000111265
0.000938142 0.000140083 -8.20023e-06
0.000140083 2.21513e-05 -4.66804e-06
-8.20023e-06 -4.66804e-06 -0.000104425
0.000771495 0.000157067 -4.14101e-06
0.000157067 -6.64079e-05 -1.67772e-06
-4.14101e-06 -1.67772e-06 -0.00022554
0.000549237 -4.36942e-05 1.39178e-06
-4.36942e-05 -3.67011e-05 2.48857e-07
1.39178e-06 2.48857e-07 -7.5177e-05
0.000595416 -6.48797e-05 -2.78672e-07
-6.48797e-05 -1.66634e-05 1.63015e-07
-2.78672e-07 1.63015e-07 -4.20227e-05
0.000647321 -2.49617e-05 3.80536e-07
-2.49617e-05 8.50943e-06 3.90601e-07
3.80536e-07 3.90601e-07 -6.40818e-05
0.00108609 0.000106874 4.78638e-08
0.000106874 8.42979e-06 -1.65674e-07
4.78638e-08 -1.65674e-07 -0.000110829
0.00101902 0.000140362 4.30662e-07
0.000140362 1.98243e-05 -1.99418e-07
4.30662e-07 -1.99418e-07 -0.000106111
0.00131785 0.000157757 2.52818e-07
0.000157757 7.2827e-05 1.64445e-08
2.52818e-07 1.64445e-08 -7.45963e-05
0.00079535 8.77379e-05 -2.09394e-08
8.77379e-05 8.25083e-05 1.14818e-07
-2.09394e-08 1.14818e-07 -2.64694e-05
0.00111434 0.000177037 -6.97281e-08
0.000177037 4.97793e-05 -4.6257e-08
-6.97281e-08 -4.6257e-08 -0.000107585
0.00106454 0.000171277 5.02018e-07
0.000171277 0.000174497 -5.71187e-07
5.02018e-07 -5.71187e-07 1.49771e-05
0.00116805 0.000200492 -7.65613e-07
0.000200492 0.000135956 1.66147e-06
-7.65613e-07 1.66147e-06 -3.50641e-05
0.000637645 -5.67473e-05 8.73806e-07
-5.67473e-05 -4.91097e-06 4.07666e-06
8.73806e-07 4.07666e-06 -2.47685e-05
0.000730375 5.04079e-05 3.02893e-06
5.04079e-05 5.18884e-05 3.12373e-06
3.02893e-06 3.12373e-06 -4.0281e-05
0.000659903 -3.63075e-05 3.68986e-07
-3.63075e-05 9.39237e-06 2.74469e-06
3.68986e-07 2.74469e-06 -4.733e-05
0.000832096 5.09657e-05 3.22438e-07
5.09657e-05 0.000125714 1.30709e-06
3.22438e-07 1.30709e-06 1.33029e-05
0.00137373 0.000133098 6.1912e-06
0.000133098 8.17614e-05 1.44322e-06
6.1912e-06 1.44322e-06 -5.95011e-05
0.00125422 0.000175017 6.41142e-06
0.000175017 7.33929e-05 2.07092e-06
6.41142e-06 2.07092e-06 -7.96807e-05
0.00151523 0.000185495 2.91113e-06
0.000185495 0.000119716 5.4726e-07
2.91113e-06 5.4726e-07 -3.64809e-05
0.0011191 0.000147665 2.5419e-06
0.000147665 0.000249099 2.8171e-06
2.5419e-06 2.8171e-06 0.000105273
0.00117348 0.000196545 -1.86961e-07
0.000196545 2.93415e-05 3.22401e-06
-1.86961e-07 3.22401e-06 -0.000137768
0.000984195 0.000182993 -1.12452e-06
0.000182993 0.000116331 -1.51296e-06
-1.12452e-06 -1.51296e-06 -6.93884e-05
0.001215 0.000211872 4.40894e-08
0.000211872 0.000107727 4.02066e-07
4.40894e-08 4.02066e-07 -6.78561e-05
0.000698817 -2.30851e-05 1.53011e-06
-2.30851e-05 6.36101e-06 1.88066e-06
1.53011e-06 1.88066e-06 -3.38545e-05
0.000636639 -4.20147e-05 1.02973e-06
-4.20147e-05 -2.42196e-05 3.84133e-06
1.02973e-06 3.84133e-06 -3.77373e-05
0.0022159 -7.58525e-05 2.91163e-05
-7.58525e-05 0.000898979 3.25402e-06
2.91163e-05 3.25402e-06 0.000908843
0.00224259 -8.50713e-05 1.93644e-06
-8.50713e-05 0.000922355 -1.78145e-07
1.93644e-06 -1.78145e-07 0.000929704
0.0022865 -9.45912e-05 -3.51837e-05
-9.45912e-05 0.000955793 -2.68855e-06
-3.51837e-05 -2.68855e-06 0.0009603
0.000551372 4.79834e-05 1.301e-06
4.79834e-05 -4.80041e-05 -5.69234e-06
1.301e-06 -5.69234e-06 -7.93141e-05
0.00293796 0.000111104 5.56478e-05
0.000111104 0.00132485 -2.84948e-06
5.56478e-05 -2.84948e-06 0.00132471
0.000563443 4.20076e-05 -2.69612e-07
4.20076e-05 -3.77195e-05 1.11997e-07
-2.69612e-07 1.11997e-07 -7.38969e-05
0.00321287 0.000114845 -2.17193e-06
0.000114845 0.00148295 -2.62581e-07
-2.17193e-06 -2.62581e-07 0.00148169
0.000681247 7.45839e-05 -1.69822e-05
7.45839e-05 -7.39998e-05 -5.59111e-06
-1.69822e-05 -5.59111e-06 -0.000141807
0.000677005 3.04989e-05 -1.68531e-05
3.04989e-05 -8.46045e-05 -3.15718e-06
-1.68531e-05 -3.15718e-06 -0.000150099
0.00111127 7.12484e-05 -1.11396e-05
7.12484e-05 9.81852e-06 -2.70053e-06
-1.11396e-05 -2.70053e-06 -0.000104816
0.00111826 3.39271e-05 -1.16413e-05
3.39271e-05 3.84188e-06 -1.57479e-06
-1.16413e-05 -1.57479e-06 -0.000107092
0.000687295 -2.79409e-06 -1.73768e-05
-2.79409e-06 -8.66595e-05 -9.57489e-07
-1.73768e-05 -9.57489e-07 -0.000149625
0.00523873 -9.69354e-05 -0.000178724
-9.69354e-05 0.00261762 2.15658e-06
-0.000178724 2.15658e-06 0.00261531
0.000676007 -9.99716e-07 1.13591e-07
-9.99716e-07 -9.37845e-05 -3.1998e-07
1.13591e-07 -3.1998e-07 -0.000156857
0.0011201 1.66345e-05 5.25074e-10
1.66345e-05 1.28386e-06 -1.40617e-07
5.25074e-10 -1.40617e-07 -0.00010883
0.00111472 4.91483e-05 -1.81888e-08
4.91483e-05 6.86634e-06 -1.04114e-07
-1.81888e-08 -1.04114e-07 -0.000105279
0.0013947 3.81381e-05 -4.30512e-08
3.81381e-05 6.05806e-05 -3.11222e-08
-4.30512e-08 -3.11222e-08 -6.4018e-05
0.00110126 8.75088e-05 -3.37676e-08
8.75088e-05 9.33783e-06 -1.97082e-07
-3.37676e-08 -1.97082e-07 -0.00010739
0.00138686 8.47691e-05 -4.31912e-08
8.47691e-05 7.2848e-05 -6.27377e-08
-4.31912e-08 -6.27377e-08 -5.88034e-05
0.0011243 -3.36992e-07 1.14166e-05
-3.36992e-07 2.93878e-06 -2.1208e-07
1.14166e-05 -2.1208e-07 -0.000106809
0.001407 2.30242e-05 4.0412e-06
2.30242e-05 6.03166e-05 2.78994e-07
4.0412e-06 2.78994e-07 -6.27545e-05
0.00140404 6.18068e-05 4.36777e-06
6.18068e-05 7.42589e-05 5.56579e-07
4.36777e-06 5.56579e-07 -5.32883e-05
0.00159353 5.33216e-05 -1.97414e-07
5.33216e-05 8.03179e-05 -2.00563e-07
-1.97414e-07 -2.00563e-07 -3.74848e-05
0.00139557 0.00010777 4.60967e-06
0.00010777 8.28081e-05 9.31663e-07
4.60967e-06 9.31663e-07 -5.3142e-05
0.00155531 9.9545e-05 -1.03576e-07
9.9545e-05 8.79015e-05 -5.69348e-07
-1.03576e-07 -5.69348e-07 -4.03631e-05
0.000663131 9.37804e-06 -1.65176e-05
9.37804e-06 -9.76461e-05 8.1246e-07
-1.65176e-05 8.1246e-07 -0.000161523
0.00160348 -1.51482e-05 -7.96721e-05
-1.51482e-05 0.000443808 3.06818e-06
-7.96721e-05 3.06818e-06 0.000390232
0.000735952 -1.51276e-05 -1.24982e-05
-1.51276e-05 -0.000207892 1.66358e-06
-1.24982e-05 1.66358e-06 -0.000319004
0.00203759 -8.51548e-05 -1.98978e-05
-8.51548e-05 0.000539871 3.15549e-06
-1.98978e-05 3.15549e-06 0.000436959
0.00347392 0.000112557 -9.49451e-05
0.000112557 0.00163572 3.52735e-06
-9.49451e-05 3.52735e-06 0.00163306
0.00209896 -3.10363e-05 -5.44791e-05
-3.10363e-05 0.000822918 6.82383e-06
-5.44791e-05 6.82383e-06 0.000776968
0.00193392 -0.000187022 -1.26362e-05
-0.000187022 0.000662145 5.84868e-06
-1.26362e-05 5.84868e-06 0.000537387
0.0015646 -0.000119169 -1.98667e-05
-0.000119169 0.000293842 4.99737e-06
-1.98667e-05 4.99737e-06 0.000184455
0.00117063 -0.000100195 -6.68955e-06
-0.000100195 -3.02994e-05 1.56574e-06
-6.68955e-06 1.56574e-06 -0.000160716
0.00179219 -0.000169456 -7.05582e-06
-0.000169456 0.000357288 1.98644e-06
-7.05582e-06 1.98644e-06 0.000221848
0.0006366 -0.000147171 -6.34492e-06
-0.000147171 -0.000224449 4.79807e-07
-6.34492e-06 4.79807e-07 -0.000378961
0.00148852 -0.00018861 -2.71546e-06
-0.00018861 0.000146605 -1.35367e-07
-2.71546e-06 -1.35367e-07 -6.15569e-06
0.000594604 1.98718e-05 -5.13242e-06
1.98718e-05 -2.15163e-05 7.10194e-06
-5.13242e-06 7.10194e-06 -6.22921e-05
0.000686529 -2.03714e-05 -2.31116e-06
-2.03714e-05 1.88792e-05 2.97404e-06
-2.31116e-06 2.97404e-06 -6.6393e-05
0.000930617 -5.57273e-06 -4.50641e-07
-5.57273e-06 -0.00010423 -1.81927e-07
-4.50641e-07 -1.81927e-07 -0.000214857
0.00161147 -4.81976e-05 -4.22016e-06
-4.81976e-05 0.000291939 4.1085e-07
-4.22016e-06 4.1085e-07 0.000187482
0.00172341 -2.76048e-05 -2.39157e-06
-2.76048e-05 0.000252347 3.24909e-07
-2.39157e-06 3.24909e-07 0.000133088
0.00152192 -8.78036e-05 8.22685e-07
-8.78036e-05 0.00015976 -1.93992e-07
8.22685e-07 -1.93992e-07 3.30933e-05
0.000564329 2.20873e-06 1.53325e-07
2.20873e-06 -4.19692e-05 1.86004e-07
1.53325e-07 1.86004e-07 -8.70119e-05
0.000835596 -0.000109659 -6.40295e-08
-0.000109659 8.8815e-05 3.7442e-07
-6.40295e-08 3.7442e-07 -2.4321e-05
0.000779391 -0.000160888 1.39783e-06
-0.000160888 -4.53225e-05 -1.7344e-06
1.39783e-06 -1.7344e-06 -0.000207316
0.00171881 -0.000146327 -1.64085e-06
-0.000146327 0.000295724 3.914e-07
-1.64085e-06 3.914e-07 0.000163558
0.00160128 -0.000121145 -4.40039e-07
-0.000121145 0.00014571 3.55814e-07
-4.40039e-07 3.55814e-07 1.74257e-05
0.00162017 -0.000223762 -1.65692e-06
-0.000223762 0.000258024 4.59966e-07
-1.65692e-06 4.59966e-07 8.6701e-05
0.00143935 -0.000164597 3.11636e-07
-0.000164597 9.96279e-05 -1.98081e-08
3.11636e-07 -1.98081e-08 -4.31286e-05
0.00161977 -0.000201921 5.66224e-07
-0.000201921 0.000175989 4.07209e-07
5.66224e-07 4.07209e-07 2.3017e-05
0.000733176 -4.69187e-05 -3.08479e-07
-4.69187e-05 4.75253e-05 -1.89856e-07
-3.08479e-07 -1.89856e-07 -4.88323e-05
0.000722887 -4.86616e-05 -6.50327e-07
-4.86616e-05 3.80559e-05 -4.56456e-07
-6.50327e-07 -4.56456e-07 -7.48991e-05
0.000675957 2.96661e-06 3.85247e-07
2.96661e-06 1.37505e-05 2.38304e-07
3.85247e-07 2.38304e-07 -6.01707e-05
0.00175615 -9.22509e-06 2.71573e-06
-9.22509e-06 0.000263379 -2.55443e-07
2.71573e-06 -2.55443e-07 0.000143748
0.00167105 -5.52979e-05 3.35758e-06
-5.52979e-05 0.000228063 -1.7614e-07
3.35758e-06 -1.7614e-07 0.000106587
0.00166669 -3.71803e-05 -3.1834e-07
-3.71803e-05 0.000131837 5.31389e-07
-3.1834e-07 5.31389e-07 1.46948e-05
0.00154692 -9.79352e-05 -7.01303e-07
-9.79352e-05 9.75943e-05 4.44756e-07
-7.01303e-07 4.44756e-07 -2.82717e-05
0.00141331 -0.000142434 1.78328e-06
-0.000142434 6.15301e-05 3.64108e-07
1.78328e-06 3.64108e-07 -7.27898e-05
0.00166114 -0.000135786 -2.74283e-06
-0.000135786 0.000113297 1.33943e-06
-2.74283e-06 1.33943e-06 -1.87812e-06
0.000705994 -7.17692e-05 3.20244e-06
-7.17692e-05 3.23508e-05 -2.29165e-06
3.20244e-06 -2.29165e-06 -7.09427e-05
0.00152635 -0.000185342 -8.97321e-07
-0.000185342 9.44396e-05 1.49666e-06
-8.97321e-07 1.49666e-06 -4.51531e-05
0.000899488 -0.000155588 1.69559e-06
-0.000155588 9.89662e-05 -2.03839e-06
1.69559e-06 -2.03839e-06 -4.75868e-05
0.000989778 -0.00019907 5.15958e-06
-0.00019907 3.3289e-06 -4.20552e-06
5.15958e-06 -4.20552e-06 -0.000188304
0.0018989 -0.000247209 2.81024e-06
-0.000247209 0.000371978 2.25575e-06
2.81024e-06 2.25575e-06 0.000194038
0.00185093 -0.000232235 -3.2411e-06
-0.000232235 0.000254272 3.55075e-06
-3.2411e-06 3.55075e-06 0.000107687
0.000656094 2.23725e-06 1.53499e-06
2.23725e-06 7.47719e-07 -2.70592e-06
1.53499e-06 -2.70592e-06 -6.45137e-05
0.000810116 -9.68028e-05 1.92192e-06
-9.68028e-05 7.67723e-05 6.4305e-07
1.92192e-06 6.4305e-07 -4.04535e-05
0.00064314 -2.89339e-05 1.14744e-06
-2.89339e-05 7.82494e-06 -1.74106e-06
1.14744e-06 -1.74106e-06 -0.000103182
0.00107396 -0.000148041 1.12603e-07
-0.000148041 0.000236964 1.67225e-06
1.12603e-07 1.67225e-06 0.000103173
0.00108193 0.000109091 -1.19383e-05
0.000109091 7.04649e-06 -4.16917e-06
-1.19383e-05 -4.16917e-06 -0.000112759
0.000562923 -5.99521e-05 -9.89376e-07
-5.99521e-05 -3.66486e-05 -4.29489e-06
-9.89376e-07 -4.29489e-06 -6.07499e-05
0.000483775 -6.43285e-05 1.7097e-06
-6.43285e-05 -6.75388e-05 -7.31764e-06
1.7097e-06 -7.31764e-06 -0.000108628
0.000647901 -5.63629e-05 1.48925e-06
-5.63629e-05 1.32652e-05 -3.51751e-06
1.48925e-06 -3.51751e-06 -6.04779e-05
0.00102226 0.000141884 -1.02517e-05
0.000141884 2.27047e-05 -5.29248e-06
-1.02517e-05 -5.29248e-06 -0.000103558
0.00131947 0.000158456 -6.1136e-06
0.000158456 7.43995e-05 -1.68848e-06
-6.1136e-06 -1.68848e-06 -7.32677e-05
0.000693227 7.58509e-05 -2.98185e-06
7.58509e-05 2.6642e-05 -3.13501e-06
-2.98185e-06 -3.13501e-06 -8.05102e-05
0.000999129 0.00016517 -3.45803e-06
0.00016517 0.00013853 -3.32867e-06
-3.45803e-06 -3.32867e-06 -2.03184e-05
0.00137835 0.000194184 -4.66445e-06
0.000194184 0.000197448 -1.9523e-06
-4.66445e-06 -1.9523e-06 3.82645e-05
0.00108629 0.000197889 -1.27487e-06
0.000197889 8.83677e-05 -1.17536e-06
-1.27487e-06 -1.17536e-06 -8.24464e-05
0.000612979 -5.40318e-05 2.69638e-09
-5.40318e-05 -1.97581e-05 4.36408e-08
2.69638e-09 4.36408e-08 -3.90518e-05
0.000736289 4.29641e-05 4.20248e-07
4.29641e-05 6.01076e-05 -1.56135e-07
4.20248e-07 -1.56135e-07 -3.41694e-05
0.000647156 -5.23163e-05 -7.81567e-07
-5.23163e-05 5.76941e-06 5.61308e-07
-7.81567e-07 5.61308e-07 -5.25743e-05
0.00079384 2.5271e-05 6.41231e-07
2.5271e-05 0.000103034 -3.03264e-07
6.41231e-07 -3.03264e-07 -6.42978e-06
0.0013547 0.000132505 8.27187e-07
0.000132505 7.27539e-05 7.18557e-08
8.27187e-07 7.18557e-08 -6.86294e-05
0.00127881 0.000177917 1.85486e-07
0.000177917 8.76277e-05 2.93529e-08
1.85486e-07 2.93529e-08 -6.61306e-05
0.00151343 0.000184526 3.66674e-07
0.000184526 0.000120776 2.15456e-07
3.66674e-07 2.15456e-07 -3.53863e-05
0.000983468 0.000140116 2.84099e-07
0.000140116 0.000173236 6.23314e-07
2.84099e-07 6.23314e-07 3.11496e-05
0.00151661 0.000216994 -1.43666e-06
0.000216994 0.000223147 -8.3001e-07
-1.43666e-06 -8.3001e-07 5.43573e-05
0.00113423 0.0001957 1.31717e-07
0.0001957 0.000200888 -1.25975e-06
1.31717e-07 -1.25975e-06 1.20515e-05
0.00112353 0.00020557 -2.26638e-06
0.00020557 6.42886e-05 -1.16865e-06
-2.26638e-06 -1.16865e-06 -0.000102895
0.000633544 -4.87378e-05 1.20232e-06
-4.87378e-05 -1.8024e-05 3.86844e-06
1.20232e-06 3.86844e-06 -3.40373e-05
0.000690119 -3.77524e-05 1.00169e-06
-3.77524e-05 1.85012e-05 2.13395e-06
1.00169e-06 2.13395e-06 -2.92516e-05
0.000977018 9.22267e-05 2.2529e-06
9.22267e-05 0.000191176 1.56019e-06
2.2529e-06 1.56019e-06 6.53995e-05
0.000789716 3.09072e-05 -2.27013e-07
3.09072e-05 9.77407e-05 1.85248e-06
-2.27013e-07 1.85248e-06 4.763e-06
0.000900155 0.000106748 4.08568e-07
0.000106748 0.000173021 2.0787e-07
4.08568e-07 2.0787e-07 4.17536e-05
0.00153045 0.000154862 2.13643e-06
0.000154862 0.000107226 -3.76091e-07
2.13643e-06 -3.76091e-07 -3.88108e-05
0.00141103 0.000199873 3.03477e-06
0.000199873 9.72125e-05 1.41939e-06
3.03477e-06 1.41939e-06 -6.56492e-05
0.00168349 0.000218071 -2.9541e-07
0.000218071 0.000173913 -3.48789e-07
-2.9541e-07 -3.48789e-07 1.68158e-05
0.00112785 0.000183479 3.9688e-06
0.000183479 0.000254551 4.12213e-06
3.9688e-06 4.12213e-06 7.25415e-05
0.00144954 0.000230452 2.94501e-06
0.000230452 0.000144376 4.09096e-06
2.94501e-06 4.09096e-06 -2.83036e-05
0.000304112 0.000151394 3.02591e-06
0.000151394 -0.000334878 -2.73449e-06
3.02591e-06 -2.73449e-06 -0.000528036
0.000693109 -2.61667e-05 1.96867e-06
-2.61667e-05 6.33277e-06 1.80529e-06
1.96867e-06 1.80529e-06 -3.48201e-05
0.000734503 2.13779e-05 4.10698e-07
2.13779e-05 4.75308e-05 7.43571e-07
4.10698e-07 7.43571e-07 -1.76357e-05
0.00071618 -1.33948e-05 1.20676e-06
-1.33948e-05 1.3897e-05 1.91515e-06
1.20676e-06 1.91515e-06 -2.56595e-05
0.000702092 -2.66149e-05 -6.70426e-08
-2.66149e-05 8.97232e-06 -7.5757e-09
-6.70426e-08 -7.5757e-09 -3.15697e-05
0.00126385 -4.70591e-05 1.3052e-06
-4.70591e-05 0.000328609 2.32846e-06
1.3052e-06 2.32846e-06 0.000320297
0.000956769 -4.7254e-05 7.67042e-07
-4.7254e-05 0.000159145 -5.241e-08
7.67042e-07 -5.241e-08 0.000147284
0.000927575 -4.13661e-05 2.42446e-05
-4.13661e-05 0.000150746 6.67303e-06
2.42446e-05 6.67303e-06 0.000157042
0.00219126 -7.47386e-05 1.91867e-06
-7.47386e-05 0.000883826 -1.63905e-07
1.91867e-06 -1.63905e-07 0.000894008
0.00220142 -8.35611e-05 -3.15275e-05
-8.35611e-05 0.000897895 -3.05448e-06
-3.15275e-05 -3.05448e-06 0.000905652
0.000564718 5.03449e-05 7.17553e-07
5.03449e-05 -4.63244e-05 -5.07714e-06
7.17553e-07 -5.07714e-06 -7.36705e-05
0.00274812 0.000100994 4.54135e-05
0.000100994 0.00121261 -3.15293e-06
4.54135e-05 -3.15293e-06 0.00121489
0.000579526 4.62144e-05 -2.3842e-07
4.62144e-05 -3.21721e-05 8.99191e-08
-2.3842e-07 8.99191e-08 -6.35635e-05
0.00300432 0.000107964 -2.98147e-06
0.000107964 0.00136119 -2.38098e-07
-2.98147e-06 -2.38098e-07 0.0013619
0.000595178 3.85877e-05 -2.39149e-06
3.85877e-05 -2.04138e-05 6.66149e-06
-2.39149e-06 6.66149e-06 -5.66134e-05
0.00326856 0.000107783 -8.33975e-05
0.000107783 0.00151313 3.2069e-06
-8.33975e-05 3.2069e-06 0.00151324
0.00110547 9.02779e-05 -1.14562e-05
9.02779e-05 1.21985e-05 -3.45422e-06
-1.14562e-05 -3.45422e-06 -0.00010508
0.00112173 5.31382e-05 -1.13706e-05
5.31382e-05 1.11996e-05 -2.11782e-06
-1.13706e-05 -2.11782e-06 -0.000101305
0.00136522 8.30993e-05 -4.58738e-06
8.30993e-05 6.08493e-05 -8.35043e-07
-4.58738e-06 -8.35043e-07 -7.09415e-05
0.00138811 3.77697e-05 -4.45788e-06
3.77697e-05 5.82082e-05 -4.32907e-07
-4.45788e-06 -4.32907e-07 -6.64613e-05
0.00112361 1.98696e-05 -1.16188e-05
1.98696e-05 3.52121e-06 -8.81657e-07
-1.16188e-05 -8.81657e-07 -0.000106708
0.00065727 1.68599e-05 -1.705e-05
1.68599e-05 -0.000103488 -1.3878e-07
-1.705e-05 -1.3878e-07 -0.000166798
0.00111915 1.90648e-06 2.52e-08
1.90648e-06 7.55812e-08 -1.33432e-07
2.52e-08 -1.33432e-07 -0.000109711
0.00139914 2.46552e-05 -8.47116e-08
2.46552e-05 5.67161e-05 9.62995e-10
-8.47116e-08 9.62995e-10 -6.64349e-05
0.00138659 5.89977e-05 9.04426e-10
5.89977e-05 6.60777e-05 -4.02913e-08
9.04426e-10 -4.02913e-08 -6.14481e-05
0.00163853 5.45718e-05 -1.14221e-07
5.45718e-05 0.000102528 1.92866e-07
-1.14221e-07 1.92866e-07 -1.38148e-05
0.00137719 0.000107573 -1.60668e-07
0.000107573 7.28093e-05 -9.43945e-08
-1.60668e-07 -9.43945e-08 -6.33382e-05
0.00156325 9.83623e-05 -1.15158e-07
9.83623e-05 9.67362e-05 5.17208e-08
-1.15158e-07 5.17208e-08 -3.15727e-05
0.00140212 6.50799e-06 4.24589e-06
6.50799e-06 5.72485e-05 -1.90689e-08
4.24589e-06 -1.90689e-08 -6.53725e-05
0.0016554 3.60598e-05 -7.31309e-07
3.60598e-05 9.84893e-05 3.57488e-07
-7.31309e-07 3.57488e-07 -1.49621e-05
0.00156602 8.09841e-05 -2.09182e-07
8.09841e-05 7.78988e-05 -4.82533e-07
-2.09182e-07 -4.82533e-07 -4.4663e-05
0.00173921 6.58662e-05 -1.26171e-06
6.58662e-05 9.43721e-05 1.88215e-07
-1.26171e-06 1.88215e-07 -8.20305e-06
0.00155376 0.000119286 1.10642e-07
0.000119286 0.000104405 -6.92052e-07
1.10642e-07 -6.92052e-07 -3.10038e-05
0.00167606 0.000118967 -3.23505e-06
0.000118967 8.96307e-05 -8.33705e-07
-3.23505e-06 -8.33705e-07 -1.85373e-05
0.000749627 -2.97334e-06 -1.12262e-05
-2.97334e-06 -0.000205478 6.09032e-07
-1.12262e-05 6.09032e-07 -0.000317332
0.00163952 -5.08955e-05 -1.96028e-05
-5.08955e-05 0.000306702 2.36808e-06
-1.96028e-05 2.36808e-06 0.000202217
0.00169148 -2.10536e-05 -7.41743e-06
-2.10536e-05 0.000231571 6.9114e-07
-7.41743e-06 6.9114e-07 0.000112935
0.00179043 -9.28163e-05 -5.214e-06
-9.28163e-05 0.000310743 8.98659e-07
-5.214e-06 8.98659e-07 0.000185493
0.000658565 -8.43121e-06 -7.30863e-06
-8.43121e-06 1.01541e-05 7.7572e-06
-7.30863e-06 7.7572e-06 -3.61821e-05
0.000936118 -0.000122915 -5.38829e-06
-0.000122915 0.00014561 4.33686e-06
-5.38829e-06 4.33686e-06 3.02481e-05
0.00102719 -0.000177549 -2.40501e-06
-0.000177549 9.85635e-05 1.26552e-06
-2.40501e-06 1.26552e-06 -6.40116e-05
0.00179123 -0.000147061 -7.7699e-06
-0.000147061 0.000336103 2.06036e-06
-7.7699e-06 2.06036e-06 0.000204098
0.00154089 -0.000118234 -8.0571e-07
-0.000118234 0.00010692 -9.83914e-08
-8.0571e-07 -9.83914e-08 -1.98204e-05
0.00145436 -0.000165448 -2.18714e-06
-0.000165448 0.000106203 1.45069e-07
-2.18714e-06 1.45069e-07 -3.64023e-05
0.00131759 -0.000204603 -5.23814e-06
-0.000204603 8.30689e-05 -1.85976e-07
-5.23814e-06 -1.85976e-07 -8.70328e-05
0.00159344 -0.000201462 1.36351e-06
-0.000201462 0.000157552 -1.9127e-06
1.36351e-06 -1.9127e-06 4.66735e-06
0.000713595 -5.04239e-05 -3.4224e-06
-5.04239e-05 3.4317e-05 2.60896e-06
-3.4224e-06 2.60896e-06 -6.14403e-05
0.000656895 -3.99717e-05 -2.16309e-06
-3.99717e-05 1.8739e-06 -2.69307e-07
-2.16309e-06 -2.69307e-07 -0.00011048
0.000695599 -4.03065e-06 -1.37011e-06
-4.03065e-06 2.33525e-05 3.11878e-06
-1.37011e-06 3.11878e-06 -5.07537e-05
0.00158749 -7.61552e-06 -2.38054e-06
-7.61552e-06 0.000166404 1.4225e-07
-2.38054e-06 1.4225e-07 4.53429e-05
0.00167427 -6.11604e-05 -1.80931e-06
-6.11604e-05 0.000230008 3.26671e-07
-1.80931e-06 3.26671e-07 0.000108128
0.0016279 -3.34206e-05 -2.34591e-07
-3.34206e-05 0.000108454 2.58016e-07
-2.34591e-07 2.58016e-07 -6.88656e-06
0.00160938 -9.65789e-05 -7.61047e-07
-9.65789e-05 0.000128364 1.15607e-07
-7.61047e-07 1.15607e-07 2.82102e-06
0.000768816 -8.25989e-05 1.61452e-07
-8.25989e-05 6.69413e-05 -2.14149e-08
1.61452e-07 -2.14149e-08 -3.75041e-05
0.00101683 -0.000165263 -4.1826e-07
-0.000165263 0.000161556 8.4549e-07
-4.1826e-07 8.4549e-07 1.35027e-05
0.000984945 -0.00019478 6.78645e-07
-0.00019478 1.24857e-05 -1.74762e-06
6.78645e-07 -1.74762e-06 -0.000176143
0.00154302 -0.00014811 -6.56841e-08
-0.00014811 0.000133996 6.65053e-08
-6.56841e-08 6.65053e-08 -1.52869e-06
0.0016834 -0.000135712 8.57947e-07
-0.000135712 0.000127255 3.05173e-07
8.57947e-07 3.05173e-07 1.52497e-05
0.00172596 -0.000236953 -4.21511e-07
-0.000236953 0.00027078 3.88021e-07
-4.21511e-07 3.88021e-07 9.25037e-05
0.00155236 -0.000185604 2.39553e-07
-0.000185604 0.000108566 2.48176e-07
2.39553e-07 2.48176e-07 -3.05832e-05
0.00188427 -0.000233643 9.61571e-07
-0.000233643 0.000275172 -3.00049e-07
9.61571e-07 -3.00049e-07 0.000130167
0.000916961 -0.000109813 1.25478e-08
-0.000109813 0.0001397 1.31151e-07
1.25478e-08 1.31151e-07 1.95782e-05
0.0010142 -0.000146403 -3.47408e-07
-0.000146403 0.000205362 3.64802e-07
-3.47408e-07 3.64802e-07 6.99497e-05
0.000684265 -3.84307e-06 1.70505e-07
-3.84307e-06 1.62634e-05 1.74447e-07
1.70505e-07 1.74447e-07 -4.93933e-05
0.000573228 -5.00457e-06 -1.33063e-07
-5.00457e-06 -3.59315e-05 -7.46931e-07
-1.33063e-07 -7.46931e-07 -0.000141286
0.00162102 -2.03044e-05 1.48701e-07
-2.03044e-05 9.47342e-05 -3.05977e-08
1.48701e-07 -3.05977e-08 -2.12954e-05
0.00181835 -6.47377e-05 -1.27423e-07
-6.47377e-05 0.00022314 6.66135e-07
-1.27423e-07 6.66135e-07 0.000104903
0.00165929 -5.05884e-05 2.78271e-07
-5.05884e-05 5.17017e-05 1.02939e-07
2.78271e-07 1.02939e-07 -5.46327e-05
0.00170714 -0.000121926 -3.96319e-06
-0.000121926 0.000108009 6.12858e-07
-3.96319e-06 6.12858e-07 4.8485e-06
0.001686 -0.000163731 -2.78957e-06
-0.000163731 0.000150665 2.10416e-06
-2.78957e-06 2.10416e-06 2.70966e-05
0.00173462 -0.000139634 -3.30569e-07
-0.000139634 0.000111064 2.41277e-07
-3.30569e-07 2.41277e-07 1.40866e-05
0.000847979 -0.000141918 1.45108e-06
-0.000141918 9.31211e-05 -7.30604e-08
1.45108e-06 -7.30604e-08 -3.56129e-05
0.00162634 -0.000205885 -4.56983e-06
-0.000205885 9.68199e-05 2.81922e-06
-4.56983e-06 2.81922e-06 -2.66064e-05
0.000397915 -0.000138112 -2.93362e-07
-0.000138112 -0.000200216 -4.85825e-06
-2.93362e-07 -4.85825e-06 -0.000370688
0.00218926 -0.000296982 4.50647e-06
-0.000296982 0.000605196 -1.84991e-06
4.50647e-06 -1.84991e-06 0.000392883
0.00171394 -0.000247757 5.72113e-07
-0.000247757 0.000213628 4.85848e-06
5.72113e-07 4.85848e-06 3.54732e-05
0.00187454 -0.000237753 -7.78278e-07
-0.000237753 0.000236546 1.5554e-06
-7.78278e-07 1.5554e-06 9.54181e-05
0.000670005 -7.29196e-06 1.97395e-06
-7.29196e-06 6.67801e-06 -2.59496e-06
1.97395e-06 -2.59496e-06 -5.30942e-05
0.000586362 -1.13e-05 2.56102e-07
-1.13e-05 -1.6111e-05 -1.85817e-06
2.56102e-07 -1.85817e-06 -0.00011967
0.000885152 -0.000154769 6.58587e-07
-0.000154769 0.000122344 2.00048e-06
6.58587e-07 2.00048e-06 -1.31768e-05
0.000883432 -0.000109368 2.02779e-06
-0.000109368 0.000145677 -3.18345e-08
2.02779e-06 -3.18345e-08 1.59182e-05
0.00107846 -0.000171809 -4.70323e-07
-0.000171809 0.000234735 3.62252e-06
-4.70323e-07 3.62252e-06 9.46242e-05
0.000592151 -5.20776e-05 -1.4578e-06
-5.20776e-05 -3.20633e-05 -3.9324e-06
-1.4578e-06 -3.9324e-06 -5.09612e-05
0.00133193 0.000131729 -4.52909e-06
0.000131729 6.19444e-05 -1.3166e-06
-4.52909e-06 -1.3166e-06 -7.95576e-05
0.00061922 -6.9559e-05 7.94852e-08
-6.9559e-05 -5.06199e-06 -2.22828e-06
7.94852e-08 -2.22828e-06 -6.60082e-05
0.000728139 2.51025e-05 -5.92677e-07
2.51025e-05 5.28564e-05 -3.51219e-06
-5.92677e-07 -3.51219e-06 -3.80179e-05
0.00074132 -1.68472e-06 1.55289e-06
-1.68472e-06 7.13909e-05 -1.47996e-06
1.55289e-06 -1.47996e-06 -3.44307e-05
0.00128886 0.000179847 -6.15525e-06
0.000179847 9.3956e-05 -2.06399e-06
-6.15525e-06 -2.06399e-06 -6.0393e-05
0.00151197 0.000183605 -1.90976e-06
0.000183605 0.000122272 -1.33881e-07
-1.90976e-06 -1.33881e-07 -3.38589e-05
0.000932494 0.000147626 -2.13792e-06
0.000147626 0.000147058 -1.83938e-06
-2.13792e-06 -1.83938e-06 3.85364e-06
0.00133695 0.000212853 -2.4743e-06
0.000212853 0.000314046 -2.10427e-06
-2.4743e-06 -2.10427e-06 0.000121217
0.00183551 0.000235749 -3.79778e-06
0.000235749 0.000403644 -2.16777e-06
-3.79778e-06 -2.16777e-06 0.000233406
0.00106291 0.000201587 -4.48427e-06
0.000201587 3.78387e-05 -1.74024e-06
-4.48427e-06 -1.74024e-06 -0.000121264
0.000620936 -4.72675e-05 5.99598e-08
-4.72675e-05 -2.54116e-05 9.93721e-10
5.99598e-08 9.93721e-10 -4.12159e-05
0.000676371 -4.62742e-05 -5.88473e-07
-4.62742e-05 1.23691e-05 1.94479e-07
-5.88473e-07 1.94479e-07 -3.62962e-05
0.000921064 9.4624e-05 7.36061e-07
9.4624e-05 0.000158808 1.18697e-08
7.36061e-07 1.18697e-08 3.38872e-05
0.000735577 -1.54958e-05 -4.16533e-07
-1.54958e-05 6.61516e-05 2.46325e-07
-4.16533e-07 2.46325e-07 -2.37169e-05
0.000745265 7.16964e-05 1.02628e-06
7.16964e-05 8.13383e-05 -3.78748e-07
1.02628e-06 -3.78748e-07 -4.63786e-05
0.00153497 0.000156082 8.60683e-07
0.000156082 0.000107954 -1.48967e-07
8.60683e-07 -1.48967e-07 -3.85885e-05
0.00144833 0.000202 5.01269e-07
0.000202 0.000120854 4.51334e-07
5.01269e-07 4.51334e-07 -4.23215e-05
0.00164065 0.000218074 1.34876e-06
0.000218074 0.000149357 3.50636e-07
1.34876e-06 3.50636e-07 -8.63309e-06
0.00105778 0.000177263 1.27752e-06
0.000177263 0.000219112 1.213e-06
1.27752e-06 1.213e-06 3.80575e-05
0.00157876 0.000237005 2.04665e-06
0.000237005 0.000222338 -6.78712e-07
2.04665e-06 -6.78712e-07 5.0375e-05
0.000855792 0.000192213 -2.88257e-06
0.000192213 -3.50782e-05 -1.99595e-06
-2.88257e-06 -1.99595e-06 -0.000231749
0.000703114 -3.22037e-05 1.82406e-06
-3.22037e-05 1.74059e-05 1.83233e-06
1.82406e-06 1.83233e-06 -2.58902e-05
0.000785099 2.00772e-05 3.26695e-07
2.00772e-05 8.33977e-05 1.49066e-06
3.26695e-07 1.49066e-06 8.09785e-06
0.00106239 0.000165435 -4.57325e-07
0.000165435 0.000243746 -2.07065e-07
-4.57325e-07 -2.07065e-07 8.88899e-05
0.000857969 2.9666e-05 1.88072e-08
2.9666e-05 0.000142563 1.07286e-06
1.88072e-08 1.07286e-06 3.4606e-05
0.00111637 8.66289e-05 -2.9648e-06
8.66289e-05 0.000279318 -3.75881e-06
-2.9648e-06 -3.75881e-06 0.000143754
0.00161095 0.000164834 -2.71624e-06
0.000164834 0.000102956 -2.7979e-06
-2.71624e-06 -2.7979e-06 -3.33936e-05
0.00161153 0.000236755 1.65347e-06
0.000236755 0.000170498 8.09529e-07
1.65347e-06 8.09529e-07 1.24158e-06
0.0014737 0.000234914 -3.62559e-07
0.000234914 2.32728e-05 -1.54712e-06
-3.62559e-07 -1.54712e-06 -0.00012316
0.000987555 0.000180298 -5.29877e-07
0.000180298 0.000168142 1.7588e-06
-5.29877e-07 1.7588e-06 -4.45339e-05
0.00133979 0.000241226 4.08936e-06
0.000241226 0.000106531 2.67712e-08
4.08936e-06 2.67712e-08 -8.55892e-05
0.000696871 -2.96784e-05 -1.94156e-08
-2.96784e-05 9.18011e-06 -1.12804e-08
-1.94156e-08 -1.12804e-08 -3.22961e-05
0.000626358 4.17498e-07 1.35703e-06
4.17498e-07 -2.04718e-05 1.12276e-06
1.35703e-06 1.12276e-06 -8.28105e-05
0.000647875 -1.5187e-05 -5.90448e-07
-1.5187e-05 -3.95455e-06 -6.7691e-08
-5.90448e-07 -6.7691e-08 -6.75604e-05
0.000922767 4.8646e-05 8.80435e-07
4.8646e-05 0.000164179 -3.72379e-07
8.80435e-07 -3.72379e-07 8.62618e-05
0.00074612 3.79946e-05 1.62893e-06
3.79946e-05 5.29569e-05 8.90809e-07
1.62893e-06 8.90809e-07 -1.12635e-05
0.000706787 -4.17503e-07 1.19792e-06
-4.17503e-07 8.73159e-06 1.86348e-06
1.19792e-06 1.86348e-06 -3.09491e-05
0.000710258 -1.95462e-05 -2.60884e-07
-1.95462e-05 1.14061e-05 1.25798e-08
-2.60884e-07 1.25798e-08 -2.84659e-05
0.0012637 -3.75394e-05 8.60544e-07
-3.75394e-05 0.000322419 2.32467e-06
8.60544e-07 2.32467e-06 0.000315794
0.000707635 -2.96162e-05 -1.15652e-06
-2.96162e-05 1.2796e-05 -1.92114e-06
-1.15652e-06 -1.92114e-06 -2.80257e-05
0.00128688 -4.42343e-05 -4.82945e-06
-4.42343e-05 0.000341167 -1.28011e-06
-4.82945e-06 -1.28011e-06 0.00033326
0.000910703 -3.41026e-05 2.17984e-05
-3.41026e-05 0.000132278 6.89745e-06
2.17984e-05 6.89745e-06 0.000140929
0.00128467 -5.00664e-05 -9.84451e-06
-5.00664e-05 0.000347169 -3.43765e-06
-9.84451e-06 -3.43765e-06 0.00033738
0.00152322 -5.29121e-05 1.99741e-05
-5.29121e-05 0.000492455 1.96035e-06
1.99741e-05 1.96035e-06 0.000501925
0.00216714 -7.34805e-05 -2.80694e-05
-7.34805e-05 0.000868933 -3.43366e-06
-2.80694e-05 -3.43366e-06 0.000879463
0.000585774 4.30514e-05 9.98139e-07
4.30514e-05 -4.26866e-05 -4.65095e-06
9.98139e-07 -4.65095e-06 -6.54671e-05
0.000587377 4.74327e-05 -2.66685e-07
4.74327e-05 -3.36794e-05 6.43246e-08
-2.66685e-07 6.43246e-08 -6.08803e-05
0.00261423 9.02807e-05 3.78302e-05
9.02807e-05 0.00113073 -3.50986e-06
3.78302e-05 -3.50986e-06 0.00113554
0.00281611 9.99864e-05 -3.58349e-06
9.99864e-05 0.0012505 -2.49031e-07
-3.58349e-06 -2.49031e-07 0.00125315
0.000609328 4.41313e-05 -1.69767e-06
4.41313e-05 -1.54544e-05 5.92367e-06
-1.69767e-06 5.92367e-06 -4.69309e-05
0.00306294 0.000101638 -7.16419e-05
0.000101638 0.00139288 3.11478e-06
-7.16419e-05 3.11478e-06 0.00139505
0.0013594 0.000107551 -4.8779e-06
0.000107551 6.29445e-05 -1.1209e-06
-4.8779e-06 -1.1209e-06 -7.34235e-05
0.00137228 5.9377e-05 -4.57631e-06
5.9377e-05 5.97806e-05 -6.22222e-07
-4.57631e-06 -6.22222e-07 -6.79804e-05
0.00156694 9.82465e-05 -1.09091e-07
9.82465e-05 0.00010326 6.63698e-07
-1.09091e-07 6.63698e-07 -2.51961e-05
0.00168281 5.58299e-05 2.08035e-07
5.58299e-05 0.000124343 4.02291e-07
2.08035e-07 4.02291e-07 9.46956e-06
0.00139415 2.77099e-05 -4.06786e-06
2.77099e-05 5.45979e-05 -2.52875e-07
-4.06786e-06 -2.52875e-07 -6.86691e-05
0.00112387 6.73031e-06 -1.13589e-05
6.73031e-06 2.47436e-06 -1.48014e-07
-1.13589e-05 -1.48014e-07 -0.000107281
0.00140304 1.00685e-05 7.60307e-08
1.00685e-05 5.76628e-05 -7.3741e-08
7.60307e-08 -7.3741e-08 -6.50397e-05
0.00166759 2.57259e-05 -6.89252e-07
2.57259e-05 0.000105207 3.00542e-08
-6.89252e-07 3.00542e-08 -8.0908e-06
0.00158815 7.99752e-05 -8.99832e-08
7.99752e-05 9.20785e-05 4.84577e-09
-8.99832e-08 4.84577e-09 -3.03347e-05
0.00178599 6.8507e-05 1.02927e-06
6.8507e-05 0.000118955 8.03799e-07
1.02927e-06 8.03799e-07 1.90749e-05
0.001544 0.000120243 -1.81744e-07
0.000120243 9.76378e-05 -5.74606e-08
-1.81744e-07 -5.74606e-08 -3.83234e-05
0.0016809 0.000116788 -2.41496e-07
0.000116788 8.99433e-05 7.65648e-07
-2.41496e-07 7.65648e-07 -1.59416e-05
0.00165877 -1.10286e-06 8.85772e-08
-1.10286e-06 0.000107022 1.71027e-07
8.85772e-08 1.71027e-07 -6.68692e-06
0.00169572 4.32214e-05 -5.73336e-08
4.32214e-05 6.08869e-05 9.19091e-07
-5.73336e-08 9.19091e-07 -4.08783e-05
0.00178259 9.79484e-05 -3.77907e-06
9.79484e-05 0.000129581 -6.14563e-07
-3.77907e-06 -6.14563e-07 3.03273e-05
0.00180694 7.55218e-05 1.96384e-07
7.55218e-05 0.000118713 3.34091e-07
1.96384e-07 3.34091e-07 3.18632e-05
0.00157546 0.000121851 -2.07452e-06
0.000121851 5.34808e-05 -2.20087e-06
-2.07452e-06 -2.20087e-06 -6.39352e-05
0.00191466 0.000130985 3.9906e-07
0.000130985 0.000182096 -3.21748e-08
3.9906e-07 -3.21748e-08 9.19566e-05
0.00141467 -6.41698e-06 -6.11895e-06
-6.41698e-06 6.69332e-05 3.8742e-07
-6.11895e-06 3.8742e-07 -5.55613e-05
0.00168194 -6.39835e-05 -7.04118e-06
-6.39835e-05 0.000234359 8.15943e-07
-7.04118e-06 8.15943e-07 0.000112218
0.00158459 -3.13112e-05 -4.09246e-07
-3.13112e-05 8.25043e-05 -3.18037e-07
-4.09246e-07 -3.18037e-07 -3.11141e-05
0.00166915 -9.56667e-05 -9.59129e-07
-9.56667e-05 0.000157608 -5.25386e-08
-9.59129e-07 -5.25386e-08 3.23521e-05
0.000861453 -9.55726e-05 -4.19227e-06
-9.55726e-05 0.000118269 2.83844e-06
-4.19227e-06 2.83844e-06 1.24368e-05
0.001147 -0.000175847 -2.48052e-06
-0.000175847 0.000231792 3.61728e-06
-2.48052e-06 3.61728e-06 8.20377e-05
0.000910117 -0.000184717 -2.6727e-06
-0.000184717 -1.73401e-05 1.00669e-06
-2.6727e-06 1.00669e-06 -0.000203196
0.00167394 -0.000153799 -1.90364e-06
-0.000153799 0.000207088 2.19062e-07
-1.90364e-06 2.19062e-07 7.03464e-05
0.00170701 -0.000135616 3.5142e-06
-0.000135616 0.000141996 -1.40744e-06
3.5142e-06 -1.40744e-06 3.31709e-05
0.00156841 -0.000185308 1.61306e-06
-0.000185308 0.000117793 -9.60632e-07
1.61306e-06 -9.60632e-07 -2.08689e-05
0.00155699 -0.000227414 -3.02268e-06
-0.000227414 0.000171707 -7.60563e-07
-3.02268e-06 -7.60563e-07 -6.99076e-06
0.00189307 -0.000233227 4.63267e-06
-0.000233227 0.000282041 -5.40829e-06
4.63267e-06 -5.40829e-06 0.000138906
0.000941975 -0.000107424 -1.55283e-06
-0.000107424 0.000154234 -2.59094e-07
-1.55283e-06 -2.59094e-07 3.44783e-05
0.0008638 -0.000111673 -1.82119e-06
-0.000111673 0.000113978 -1.2312e-06
-1.82119e-06 -1.2312e-06 -1.46835e-05
0.000709375 -6.86505e-06 -1.66357e-06
-6.86505e-06 2.9712e-05 2.83318e-06
-1.66357e-06 2.83318e-06 -3.61241e-05
0.000540522 1.1707e-05 -2.34082e-07
1.1707e-05 -5.5804e-05 3.25365e-07
-2.34082e-07 3.25365e-07 -0.00015812
0.00161605 -2.00498e-05 -4.54533e-09
-2.00498e-05 9.2091e-05 -5.09084e-09
-4.54533e-09 -5.09084e-09 -2.39848e-05
0.0017445 -6.36787e-05 -4.67316e-07
-6.36787e-05 0.000180472 -1.40754e-08
-4.67316e-07 -1.40754e-08 6.09299e-05
0.00169897 -4.98598e-05 6.46771e-07
-4.98598e-05 7.63327e-05 -1.79701e-07
6.46771e-07 -1.79701e-07 -2.86439e-05
0.00166415 -0.000119935 -9.07025e-07
-0.000119935 9.0861e-05 3.70554e-07
-9.07025e-07 3.70554e-07 -1.4256e-05
0.000962135 -0.000138789 -3.73689e-07
-0.000138789 0.000155023 5.98664e-07
-3.73689e-07 5.98664e-07 2.69429e-05
0.000679103 -0.000156234 9.32848e-07
-0.000156234 -3.92178e-05 -1.61531e-06
9.32848e-07 -1.61531e-06 -0.000208832
0.00156366 -0.000253176 -9.25153e-07
-0.000253176 0.000259362 4.19614e-07
-9.25153e-07 4.19614e-07 4.98371e-05
0.00162373 -0.00016121 -1.15082e-06
-0.00016121 0.000119763 4.84793e-07
-1.15082e-06 4.84793e-07 -6.2272e-06
0.00168572 -0.00014084 1.82287e-06
-0.00014084 8.1629e-05 -9.27663e-07
1.82287e-06 -9.27663e-07 -1.2927e-05
0.00171255 -0.000247697 -1.27438e-06
-0.000247697 0.000212474 9.96372e-07
-1.27438e-06 9.96372e-07 3.381e-05
0.00164306 -0.000205932 -2.83354e-07
-0.000205932 0.000108612 7.01282e-07
-2.83354e-07 7.01282e-07 -1.47766e-05
0.00175896 -0.000232665 2.50937e-06
-0.000232665 0.000167227 -3.75424e-06
2.50937e-06 -3.75424e-06 2.88746e-05
0.000993307 -0.000163362 2.94275e-07
-0.000163362 0.000182779 5.463e-07
2.94275e-07 5.463e-07 4.59453e-05
0.00106858 -0.000163101 9.60043e-07
-0.000163101 0.000225163 5.84338e-07
9.60043e-07 5.84338e-07 8.81585e-05
0.000849108 -7.84787e-05 -4.60052e-07
-7.84787e-05 0.000123476 -1.50165e-07
-4.60052e-07 -1.50165e-07 -2.52455e-06
0.000545996 8.12664e-06 -6.85173e-07
8.12664e-06 -6.30302e-05 1.10028e-07
-6.85173e-07 1.10028e-07 -0.000124307
0.000559395 1.39863e-05 -3.00358e-08
1.39863e-05 -3.48917e-05 -5.56185e-07
-3.00358e-08 -5.56185e-07 -0.000134303
0.00181888 -3.28813e-05 5.42639e-07
-3.28813e-05 0.000132939 -2.43661e-07
5.42639e-07 -2.43661e-07 3.096e-05
0.00175983 -7.17198e-05 -1.70875e-07
-7.17198e-05 0.000105188 1.27546e-07
-1.70875e-07 1.27546e-07 6.05755e-06
0.00181838 -0.000139736 -2.39862e-06
-0.000139736 0.000132965 -4.0275e-07
-2.39862e-06 -4.0275e-07 4.90159e-05
0.00155697 -0.000163996 -1.99706e-06
-0.000163996 2.37839e-05 1.18718e-06
-1.99706e-06 1.18718e-06 -7.74955e-05
0.000873913 -0.000158835 -5.78794e-07
-0.000158835 0.000108136 -1.18939e-07
-5.78794e-07 -1.18939e-07 -3.8225e-05
0.00203927 -0.000239929 -3.20732e-06
-0.000239929 0.000280688 1.82546e-06
-3.20732e-06 1.82546e-06 0.000163097
-7.22363e-05 -0.000115458 -1.57381e-06
-0.000115458 -0.000481243 -5.66706e-06
-1.57381e-06 -5.66706e-06 -0.000661652
0.00250574 -0.000333443 2.56443e-06
-0.000333443 0.000721104 2.63179e-08
2.56443e-06 2.63179e-08 0.000499612
0.00162305 -0.000251781 1.71764e-06
-0.000251781 0.000116167 3.3434e-06
1.71764e-06 3.3434e-06 -5.6835e-05
0.000380103 1.61923e-05 1.28844e-06
1.61923e-05 -0.00015722 -3.46481e-06
1.28844e-06 -3.46481e-06 -0.000214627
0.000829596 -1.84819e-05 1.44104e-06
-1.84819e-05 0.000123323 -1.07994e-06
1.44104e-06 -1.07994e-06 2.96849e-05
0.000890389 -5.39573e-05 -4.46097e-07
-5.39573e-05 0.000155329 -5.06308e-07
-4.46097e-07 -5.06308e-07 4.15165e-05
0.000997195 -0.000167519 -1.66056e-06
-0.000167519 0.000175552 2.8682e-06
-1.66056e-06 2.8682e-06 3.7756e-05
0.000913995 -0.000107833 2.19657e-06
-0.000107833 0.000152074 2.34852e-06
2.19657e-06 2.34852e-06 1.64158e-05
0.000738859 -0.000151315 3.04301e-07
-0.000151315 2.06439e-05 1.95941e-06
3.04301e-07 1.95941e-06 -0.000115633
0.000611312 -4.60982e-05 -1.36783e-06
-4.60982e-05 -3.09691e-05 -3.88086e-06
-1.36783e-06 -3.88086e-06 -4.66286e-05
0.000661264 -4.91093e-05 -1.63732e-06
-4.91093e-05 3.97699e-06 -1.70318e-06
-1.63732e-06 -1.70318e-06 -4.47069e-05
0.001547 0.000157672 -8.68748e-07
0.000157672 0.000112679 -7.67027e-08
-8.68748e-07 -7.67027e-08 -3.43888e-05
0.000697902 -6.64193e-05 1.10789e-06
-6.64193e-05 4.4445e-05 -1.4684e-06
1.10789e-06 -1.4684e-06 -4.28038e-05
0.000819728 8.75448e-05 -5.35376e-07
8.75448e-05 9.9296e-05 -9.52461e-07
-5.35376e-07 -9.52461e-07 -2.20685e-05
0.00061754 4.03092e-05 1.4736e-06
4.03092e-05 4.65754e-06 -4.84126e-07
1.4736e-06 -4.84126e-07 -0.000119275
0.00149278 0.000204833 -2.77618e-06
0.000204833 0.000147803 -7.10079e-07
-2.77618e-06 -7.10079e-07 -1.57982e-05
0.00160155 0.000217996 1.31218e-06
0.000217996 0.000127688 8.37013e-07
1.31218e-06 8.37013e-07 -3.11417e-05
0.000973945 0.00016998 -1.80391e-07
0.00016998 0.00017669 -8.58493e-07
-1.80391e-07 -8.58493e-07 -3.5102e-06
0.00144711 0.000235438 -1.79357e-06
0.000235438 0.000285898 -1.53505e-06
-1.79357e-06 -1.53505e-06 8.73886e-05
0.00166687 0.000241353 -4.17395e-06
0.000241353 0.000277643 -2.79268e-06
-4.17395e-06 -2.79268e-06 0.000106543
0.000692062 -3.3156e-05 -2.25182e-07
-3.3156e-05 1.16009e-05 3.87618e-08
-2.25182e-07 3.87618e-08 -3.18077e-05
0.000736518 -2.02916e-05 -7.50253e-07
-2.02916e-05 5.48748e-05 3.72263e-07
-7.50253e-07 3.72263e-07 -1.84949e-05
0.00100791 0.000160777 -7.91459e-07
0.000160777 0.000214677 -1.44991e-07
-7.91459e-07 -1.44991e-07 6.03775e-05
0.000798851 -6.34394e-06 2.03069e-07
-6.34394e-06 0.000106831 1.20802e-07
2.03069e-07 1.20802e-07 2.84501e-06
0.000909074 9.21033e-05 2.62375e-07
9.21033e-05 0.000169033 -1.82795e-07
2.62375e-07 -1.82795e-07 3.09882e-05
0.0016275 0.000168179 -1.64474e-06
0.000168179 0.000112596 -1.30019e-06
-1.64474e-06 -1.30019e-06 -2.48669e-05
0.00158635 0.000234395 1.5231e-06
0.000234395 0.000157085 5.29662e-07
1.5231e-06 5.29662e-07 -1.23672e-05
0.00157536 0.000236494 5.89459e-07
0.000236494 7.98903e-05 5.40692e-08
5.89459e-07 5.40692e-08 -6.52947e-05
0.000724481 0.000162924 3.31113e-07
0.000162924 1.73788e-05 3.05783e-06
3.31113e-07 3.05783e-06 -0.000191881
0.00169605 0.000266658 -1.01625e-06
0.000266658 0.000308202 -3.38257e-08
-1.01625e-06 -3.38257e-08 0.000112447
0.000778119 1.63443e-05 9.59738e-07
1.63443e-05 7.03411e-05 1.01955e-06
9.59738e-07 1.01955e-06 4.54609e-06
0.000581023 -2.76417e-05 -9.50823e-07
-2.76417e-05 -2.30575e-05 1.85107e-06
-9.50823e-07 1.85107e-06 -0.00011157
0.000928428 0.000161564 -2.60072e-06
0.000161564 0.000160168 -1.69209e-06
-2.60072e-06 -1.69209e-06 -1.09884e-05
0.000690265 4.15372e-05 -2.31267e-06
4.15372e-05 5.77365e-05 -1.41549e-06
-2.31267e-06 -1.41549e-06 -7.01138e-05
0.00100499 0.000150915 -1.07739e-06
0.000150915 0.000209531 -2.05285e-06
-1.07739e-06 -2.05285e-06 6.17082e-05
0.00161406 0.000183326 -2.05632e-06
0.000183326 3.35377e-05 -2.67912e-06
-2.05632e-06 -2.67912e-06 -7.46961e-05
0.00176883 0.000273257 9.03741e-07
0.000273257 0.000233446 -1.97843e-06
9.03741e-07 -1.97843e-06 6.05625e-05
0.00150914 0.000240133 1.96014e-06
0.000240133 2.50217e-05 -1.01712e-07
1.96014e-06 -1.01712e-07 -0.000117233
0.00180573 0.000249497 1.92746e-06
0.000249497 0.000558736 5.98186e-06
1.92746e-06 5.98186e-06 0.000327393
0.00118066 0.000241943 -1.17946e-06
0.000241943 -1.25587e-05 -8.49519e-07
-1.17946e-06 -8.49519e-07 -0.00020536
0.000697381 -3.09527e-05 -1.64935e-06
-3.09527e-05 1.00008e-05 -1.81619e-06
-1.64935e-06 -1.81619e-06 -3.16758e-05
0.000681276 3.08716e-06 4.29473e-07
3.08716e-06 1.22361e-05 4.1093e-07
4.29473e-07 4.1093e-07 -5.06701e-05
0.000647536 -2.36975e-05 -2.7687e-07
-2.36975e-05 1.85883e-06 4.50622e-07
-2.7687e-07 4.50622e-07 -7.02799e-05
0.000568514 -4.32558e-05 -8.24384e-07
-4.32558e-05 -5.00967e-05 -7.87622e-07
-8.24384e-07 -7.87622e-07 -0.000113086
0.000735418 9.48286e-06 -1.37205e-08
9.48286e-06 4.57903e-05 1.50939e-08
-1.37205e-08 1.50939e-08 -1.73712e-05
0.000758382 8.0767e-06 -3.41584e-09
8.0767e-06 6.47518e-05 -3.58221e-07
-3.41584e-09 -3.58221e-07 -8.11305e-06
0.000850244 3.53136e-05 -2.3159e-07
3.53136e-05 0.000123227 -8.1141e-07
-2.3159e-07 -8.1141e-07 4.26185e-05
0.00065402 -2.8439e-05 6.99739e-07
-2.8439e-05 1.23575e-05 1.09204e-07
6.99739e-07 1.09204e-07 -6.63214e-05
0.00075975 2.37861e-05 5.29825e-07
2.37861e-05 5.56611e-05 7.58405e-07
5.29825e-07 7.58405e-07 -5.25653e-06
0.000707921 6.91157e-06 1.19032e-06
6.91157e-06 1.17792e-05 1.77939e-06
1.19032e-06 1.77939e-06 -2.87401e-05
0.000714206 -7.97225e-06 -3.94271e-07
-7.97225e-06 1.34253e-05 1.25722e-08
-3.94271e-07 1.25722e-08 -2.64335e-05
0.00127011 -2.74842e-05 8.60829e-07
-2.74842e-05 0.000321671 2.27209e-06
8.60829e-07 2.27209e-06 0.000315934
0.000705258 -2.61323e-05 -8.30194e-07
-2.61323e-05 9.45294e-06 -1.9336e-06
-8.30194e-07 -1.9336e-06 -3.07387e-05
0.00129113 -3.48952e-05 -4.13493e-06
-3.48952e-05 0.000337792 -1.33853e-06
-4.13493e-06 -1.33853e-06 0.000331353
0.000917941 -2.81725e-05 1.79529e-05
-2.81725e-05 0.000130131 7.16625e-06
1.79529e-05 7.16625e-06 0.000140028
0.00131002 -4.2179e-05 -8.40284e-06
-4.2179e-05 0.00035388 -4.9808e-06
-8.40284e-06 -4.9808e-06 0.00034616
0.00085352 -3.51342e-05 6.98857e-06
-3.51342e-05 9.96955e-05 2.67047e-06
6.98857e-06 2.67047e-06 0.000107937
0.00210341 -6.96481e-05 -5.92074e-06
-6.96481e-05 0.000824993 -1.67768e-06
-5.92074e-06 -1.67768e-06 0.00083669
0.000607226 3.78671e-05 6.91e-07
3.78671e-05 -3.79377e-05 -4.25187e-06
6.91e-07 -4.25187e-06 -5.64706e-05
0.000597962 4.68545e-05 -1.30604e-07
4.68545e-05 -3.45445e-05 4.05975e-08
-1.30604e-07 4.05975e-08 -5.80674e-05
0.00249051 7.92401e-05 3.08221e-05
7.92401e-05 0.00105355 -3.83612e-06
3.08221e-05 -3.83612e-06 0.00106105
0.00061048 4.82973e-05 -1.2558e-06
4.82973e-05 -1.98427e-05 5.26369e-06
-1.2558e-06 5.26369e-06 -4.74489e-05
0.00266706 9.06277e-05 -3.30469e-06
9.06277e-05 0.00116071 -2.26915e-07
-3.30469e-06 -2.26915e-07 0.00116552
0.00287394 9.65638e-05 -5.8055e-05
9.65638e-05 0.00128228 3.09303e-06
-5.8055e-05 3.09303e-06 0.00128584
0.00153298 0.000121074 -1.40443e-06
0.000121074 9.0368e-05 3.41331e-07
-1.40443e-06 3.41331e-07 -4.61329e-05
0.00161394 7.81106e-05 4.93375e-07
7.81106e-05 0.000108102 5.88067e-07
4.93375e-07 5.88067e-07 -1.40769e-05
0.00168267 0.000114516 3.02624e-06
0.000114516 8.85208e-05 1.83216e-06
3.02624e-06 1.83216e-06 -1.5071e-05
0.00183493 7.10909e-05 3.04554e-06
7.10909e-05 0.000144596 4.00767e-07
3.04554e-06 4.00767e-07 4.74134e-05
0.00167817 1.80712e-05 -9.04193e-07
1.80712e-05 0.00011125 -3.06765e-08
-9.04193e-07 -3.06765e-08 -1.94147e-06
0.00140269 1.29502e-05 -3.92247e-06
1.29502e-05 5.73973e-05 -1.04383e-07
-3.92247e-06 -1.04383e-07 -6.53403e-05
0.00164093 1.99417e-06 -5.91866e-07
1.99417e-06 9.67448e-05 -3.14154e-08
-5.91866e-07 -3.14154e-08 -1.81383e-05
0.00172087 3.69304e-05 8.09832e-07
3.69304e-05 7.68185e-05 -8.05743e-08
8.09832e-07 -8.05743e-08 -2.58718e-05
0.00173747 9.57472e-05 -1.11503e-06
9.57472e-05 0.000102722 -3.04201e-07
-1.11503e-06 -3.04201e-07 2.04773e-06
0.00176874 7.56818e-05 2.02506e-06
7.56818e-05 9.23046e-05 -6.02465e-08
2.02506e-06 -6.02465e-08 7.68716e-06
0.00159665 0.000120719 -7.68297e-07
0.000120719 7.1332e-05 -4.7092e-08
-7.68297e-07 -4.7092e-08 -4.60362e-05
0.00180477 0.000132176 3.28061e-06
0.000132176 0.000116777 8.97467e-07
3.28061e-06 8.97467e-07 2.91494e-05
0.00174085 -1.41339e-06 -4.70889e-07
-1.41339e-06 0.000100311 1.94773e-07
-4.70889e-07 1.94773e-07 -2.7101e-06
0.00166657 4.54245e-05 1.22124e-07
4.54245e-05 3.51966e-05 1.01003e-06
1.22124e-07 1.01003e-06 -5.09562e-05
0.00179966 9.73457e-05 -7.00054e-07
9.73457e-05 9.63906e-05 -1.17968e-07
-7.00054e-07 -1.17968e-07 1.80673e-05
0.00191054 0.000155302 -9.7441e-07
0.000155302 0.000177506 -1.20463e-06
-9.7441e-07 -1.20463e-06 8.86678e-05
0.00161047 -1.98005e-05 -3.60676e-07
-1.98005e-05 8.92328e-05 4.44437e-08
-3.60676e-07 4.44437e-08 -2.68874e-05
0.00166735 -6.43219e-05 -6.68683e-07
-6.43219e-05 0.000136254 -5.85176e-07
-6.68683e-07 -5.85176e-07 1.5324e-05
0.00174332 -4.93419e-05 1.74454e-06
-4.93419e-05 0.000103629 -3.49304e-07
1.74454e-06 -3.49304e-07 -6.87169e-09
0.00162315 -0.000117626 1.6373e-06
-0.000117626 7.46603e-05 -2.35992e-07
1.6373e-06 -2.35992e-07 -3.23721e-05
0.00109787 -0.000147225 -1.85467e-06
-0.000147225 0.000231082 1.34491e-06
-1.85467e-06 1.34491e-06 0.000101048
0.000954505 -0.0001746 8.19727e-07
-0.0001746 0.000118123 1.85816e-06
8.19727e-07 1.85816e-06 -5.00862e-05
0.000964028 -0.00021078 -2.68557e-06
-0.00021078 -7.11585e-05 2.54056e-06
-2.68557e-06 2.54056e-06 -0.000278319
0.00156119 -0.000158699 2.68246e-07
-0.000158699 8.88688e-05 -5.15897e-07
2.68246e-07 -5.15897e-07 -3.95413e-05
0.00163777 -0.000142403 4.41392e-06
-0.000142403 5.27809e-05 -2.28014e-06
4.41392e-06 -2.28014e-06 -3.94242e-05
0.00166858 -0.00020645 3.87307e-06
-0.00020645 0.000124595 -1.33167e-06
3.87307e-06 -1.33167e-06 1.21106e-06
0.00173102 -0.000249193 -2.72168e-06
-0.000249193 0.000223057 -2.24282e-06
-2.72168e-06 -2.24282e-06 4.36172e-05
0.0016579 -0.000228737 2.73508e-06
-0.000228737 0.000107578 -9.03972e-06
2.73508e-06 -9.03972e-06 -2.82128e-05
0.00110514 -0.000172199 3.37536e-07
-0.000172199 0.0002455 -8.81689e-07
3.37536e-07 -8.81689e-07 0.000107274
0.00108688 -0.00016522 -7.68702e-08
-0.00016522 0.000231823 -3.47996e-06
-7.68702e-08 -3.47996e-06 9.57048e-05
0.000840378 -5.74632e-05 -2.58601e-07
-5.74632e-05 0.000114934 1.9726e-07
-2.58601e-07 1.9726e-07 -7.32138e-06
0.00042013 1.59483e-05 -1.9141e-06
1.59483e-05 -0.000133508 2.61269e-06
-1.9141e-06 2.61269e-06 -0.000196457
0.000536871 3.46656e-05 1.32407e-07
3.46656e-05 -4.94418e-05 5.66537e-07
1.32407e-07 5.66537e-07 -0.00014592
0.00182061 -3.51904e-05 2.25483e-07
-3.51904e-05 0.000136688 -5.9882e-08
2.25483e-07 -5.9882e-08 3.45861e-05
0.00178223 -7.46511e-05 4.5292e-07
-7.46511e-05 0.000119331 -3.96798e-07
4.5292e-07 -3.96798e-07 1.97963e-05
0.0017498 -0.000137544 -1.34685e-06
-0.000137544 9.78138e-05 4.93522e-08
-1.34685e-06 4.93522e-08 1.15314e-05
0.00102981 -0.000170201 -1.67533e-07
-0.000170201 0.000192838 1.05624e-06
-1.67533e-07 1.05624e-06 4.4818e-05
0.000763952 -0.00017496 1.49521e-06
-0.00017496 -1.67218e-05 -2.41041e-06
1.49521e-06 -2.41041e-06 -0.000201899
0.00170058 -0.000278147 -1.7119e-06
-0.000278147 0.000277147 1.12727e-06
-1.7119e-06 1.12727e-06 5.86087e-05
0.00159822 -0.000165223 5.0027e-07
-0.000165223 4.5273e-05 -1.60129e-07
5.0027e-07 -1.60129e-07 -5.65297e-05
0.00160971 -0.000248294 8.51539e-07
-0.000248294 0.000110519 -1.92406e-06
8.51539e-07 -1.92406e-06 -5.78555e-05
0.0017751 -0.000229321 -4.52076e-07
-0.000229321 0.000138739 -1.0651e-06
-4.52076e-07 -1.0651e-06 2.00487e-05
0.000397874 2.03362e-05 1.20864e-07
2.03362e-05 -0.000148322 -7.62037e-07
1.20864e-07 -7.62037e-07 -0.000204448
0.00105995 -0.000171803 -4.03164e-08
-0.000171803 0.000207103 6.1766e-07
-4.03164e-08 6.1766e-07 6.90272e-05
0.000781038 -0.000153183 -8.57592e-07
-0.000153183 4.86228e-05 -4.10216e-08
-8.57592e-07 -4.10216e-08 -8.42228e-05
0.00100199 -0.000119097 -5.42639e-07
-0.000119097 0.000206464 1.06694e-06
-5.42639e-07 1.06694e-06 6.52471e-05
0.000949372 -5.30506e-05 -7.89367e-08
-5.30506e-05 0.000188644 -6.27358e-08
-7.89367e-08 -6.27358e-08 7.47228e-05
0.0006966 7.23599e-06 -2.97258e-07
7.23599e-06 4.38005e-05 3.74789e-07
-2.97258e-07 3.74789e-07 -4.78005e-05
0.0016135 -4.01028e-05 -5.33897e-07
-4.01028e-05 1.06171e-05 1.13183e-08
-5.33897e-07 1.13183e-08 -8.28893e-05
0.0018798 -0.000104904 -1.04756e-06
-0.000104904 0.000132609 -9.76294e-08
-1.04756e-06 -9.76294e-08 5.5049e-05
0.00156285 -0.00015268 -1.94281e-07
-0.00015268 -1.75163e-05 2.15785e-07
-1.94281e-07 2.15785e-07 -9.80712e-05
0.00192553 -0.000206617 -1.1862e-06
-0.000206617 0.000172823 -3.1913e-07
-1.1862e-06 -3.1913e-07 7.94553e-05
0.0010335 -0.000178263 -1.93433e-06
-0.000178263 0.000184738 7.50276e-08
-1.93433e-06 7.50276e-08 2.80286e-05
0.00181212 -0.000258865 1.65717e-06
-0.000258865 0.000180976 3.76657e-06
1.65717e-06 3.76657e-06 4.00621e-05
0.000613791 -0.00018925 -1.50191e-06
-0.00018925 -0.000154104 -2.3221e-06
-1.50191e-06 -2.3221e-06 -0.000369679
0.00218482 -0.000324705 3.16676e-07
-0.000324705 0.000513607 2.26095e-06
3.16676e-07 2.26095e-06 0.000291774
0.000379251 3.61121e-05 -4.19347e-07
3.61121e-05 -0.000162226 -3.05472e-06
-4.19347e-07 -3.05472e-06 -0.000212442
0.000826126 -1.29932e-05 1.34834e-06
-1.29932e-05 0.000116843 -1.34707e-06
1.34834e-06 -1.34707e-06 3.18302e-05
0.000989795 -7.17289e-05 4.80394e-08
-7.17289e-05 0.000214495 6.19593e-07
4.80394e-08 6.19593e-07 0.000107033
0.000804647 -2.06814e-05 -1.27125e-07
-2.06814e-05 0.000105426 -6.49024e-07
-1.27125e-07 -6.49024e-07 -1.93642e-05
0.000875812 -0.000166454 -7.75907e-07
-0.000166454 8.89713e-05 1.08239e-06
-7.75907e-07 1.08239e-06 -5.00008e-05
0.000968557 -0.000167069 -3.42967e-06
-0.000167069 0.000152369 3.28686e-06
-3.42967e-06 3.28686e-06 3.64443e-06
0.000682833 -3.62737e-05 -1.99759e-06
-3.62737e-05 6.91492e-06 -1.71794e-06
-1.99759e-06 -1.71794e-06 -3.66986e-05
0.000667922 -6.29157e-05 7.56177e-08
-6.29157e-05 1.78917e-05 -9.63269e-07
7.56177e-08 -9.63269e-07 -5.54492e-05
0.00164375 0.00017172 -4.27753e-07
0.00017172 0.000121351 3.12494e-07
-4.27753e-07 3.12494e-07 -1.72723e-05
0.000725249 -4.08925e-05 9.31292e-07
-4.08925e-05 6.34755e-05 -7.05895e-07
9.31292e-07 -7.05895e-07 -3.70955e-05
0.000911959 0.000152739 3.78423e-07
0.000152739 0.000161459 -9.11225e-07
3.78423e-07 -9.11225e-07 8.79876e-06
0.000496927 5.01617e-05 1.61403e-06
5.01617e-05 -6.80838e-05 -9.29066e-09
1.61403e-06 -9.29066e-09 -0.000198478
0.00161097 0.000235075 -7.55013e-07
0.000235075 0.000171116 -1.08123e-07
-7.55013e-07 -1.08123e-07 1.21584e-06
0.0016828 0.000238889 7.17551e-07
0.000238889 0.00013852 1.62841e-06
7.17551e-07 1.62841e-06 -5.57067e-06
0.000556703 0.000152305 2.27252e-07
0.000152305 -8.00379e-05 6.3907e-07
2.27252e-07 6.3907e-07 -0.000286237
0.00199133 0.000287746 -5.96319e-07
0.000287746 0.000476837 2.81474e-07
-5.96319e-07 2.81474e-07 0.000276972
0.00073563 -1.06271e-05 -6.94435e-07
-1.06271e-05 4.64476e-05 1.36177e-07
-6.94435e-07 1.36177e-07 -1.87632e-05
0.000696203 -1.1e-05 2.07633e-08
-1.1e-05 4.14502e-05 9.59074e-07
2.07633e-08 9.59074e-07 -4.80574e-05
0.00106219 0.000171251 -3.98029e-07
0.000171251 0.000241373 -2.17868e-06
-3.98029e-07 -2.17868e-06 6.76248e-05
0.000605917 -4.62846e-06 -3.37316e-07
-4.62846e-06 3.26224e-07 7.22754e-08
-3.37316e-07 7.22754e-08 -0.00011833
0.000796163 0.000121059 -1.63788e-06
0.000121059 9.04766e-05 -6.17183e-07
-1.63788e-06 -6.17183e-07 -4.60572e-05
0.00185318 0.000190986 -2.31791e-06
0.000190986 0.000165941 -1.11174e-06
-2.31791e-06 -1.11174e-06 5.98486e-05
0.00182939 0.00027408 1.24248e-06
0.00027408 0.000266916 -3.97365e-07
1.24248e-06 -3.97365e-07 9.51214e-05
0.00158855 0.000249313 4.16234e-07
0.000249313 6.94411e-05 1.69863e-06
4.16234e-07 1.69863e-06 -7.44229e-05
0.00146032 0.000227002 2.3537e-06
0.000227002 0.000377965 4.03366e-06
2.3537e-06 4.03366e-06 0.000143552
0.00126656 0.000251124 -1.96158e-06
0.000251124 3.11518e-05 4.9963e-07
-1.96158e-06 4.9963e-07 -0.000164051
0.000544842 -3.16986e-05 -3.03075e-07
-3.16986e-05 -4.97678e-05 1.28047e-06
-3.03075e-07 1.28047e-06 -0.000126961
0.000338162 4.49439e-05 -5.68189e-07
4.49439e-05 -0.000139862 6.09988e-07
-5.68189e-07 6.09988e-07 -0.000253143
0.00105969 0.000174829 1.05395e-06
0.000174829 0.000223496 1.93995e-06
1.05395e-06 1.93995e-06 3.06308e-05
-0.000127464 4.96851e-05 1.62139e-06
4.96851e-05 -0.00041214 2.28471e-07
1.62139e-06 2.28471e-07 -0.000553511
0.00191773 0.000191341 -2.22825e-06
0.000191341 9.40607e-05 -7.46112e-07
-2.22825e-06 -7.46112e-07 1.66424e-05
0.00205172 0.000239214 1.73722e-06
0.000239214 0.000254443 -6.36881e-07
1.73722e-06 -6.36881e-07 0.000142837
0.00177054 0.000302352 -1.17123e-06
0.000302352 0.000204419 -2.36878e-06
-1.17123e-06 -2.36878e-06 2.38319e-05
-0.000207942 0.000123491 -1.2834e-06
0.000123491 -0.000630656 1.96571e-06
-1.2834e-06 1.96571e-06 -0.000865103
0.000733509 2.05933e-05 -7.65978e-07
2.05933e-05 4.65337e-05 -2.79549e-07
-7.65978e-07 -2.79549e-07 -1.91028e-05
0.000717388 1.35502e-06 -3.43074e-07
1.35502e-06 4.64199e-05 3.76252e-07
-3.43074e-07 3.76252e-07 -2.88682e-05
0.000834375 -1.673e-05 -5.7587e-07
-1.673e-05 0.000115501 7.51106e-08
-5.7587e-07 7.51106e-08 3.79073e-05
0.000719919 -2.41434e-05 -1.09641e-06
-2.41434e-05 3.34826e-05 -7.93872e-07
-1.09641e-06 -7.93872e-07 -2.69615e-05
0.000597318 -3.08867e-05 -2.27733e-07
-3.08867e-05 -2.41989e-05 -4.2196e-07
-2.27733e-07 -4.2196e-07 -9.78398e-05
0.000742817 2.05328e-06 5.31343e-09
2.05328e-06 4.74653e-05 -5.73598e-09
5.31343e-09 -5.73598e-09 -1.43447e-05
0.000748897 3.6162e-05 -4.49926e-07
3.6162e-05 7.3555e-05 -2.45066e-07
-4.49926e-07 -2.45066e-07 -1.1698e-05
0.000699564 -6.32322e-07 4.68645e-07
-6.32322e-07 4.01525e-05 2.9269e-07
4.68645e-07 2.9269e-07 -3.9604e-05
0.000811692 5.58013e-06 5.22226e-07
5.58013e-06 0.000101232 -4.1292e-08
5.22226e-07 -4.1292e-08 1.85044e-05
0.000759856 -3.45355e-05 7.8117e-07
-3.45355e-05 7.41658e-05 -4.73834e-07
7.8117e-07 -4.73834e-07 -1.09744e-05
0.000626177 2.19899e-05 4.62351e-07
2.19899e-05 -4.71066e-06 5.38287e-07
4.62351e-07 5.38287e-07 -8.48706e-05
0.000737246 3.76526e-05 8.28592e-07
3.76526e-05 4.54429e-05 8.96749e-07
8.28592e-07 8.96749e-07 -1.82134e-05
0.00068874 1.77301e-05 7.75001e-07
1.77301e-05 4.80942e-06 1.68547e-06
7.75001e-07 1.68547e-06 -3.7056e-05
0.000698468 -5.51925e-06 -3.09943e-07
-5.51925e-06 6.92346e-06 1.97874e-08
-3.09943e-07 1.97874e-08 -3.38714e-05
0.00127809 -1.78617e-05 6.90465e-07
-1.78617e-05 0.000323529 2.18694e-06
6.90465e-07 2.18694e-06 0.000318109
0.000704691 -2.10927e-05 -5.53977e-07
-2.10927e-05 8.6636e-06 -1.88783e-06
-5.53977e-07 -1.88783e-06 -3.14867e-05
0.00130171 -2.5112e-05 -3.42427e-06
-2.5112e-05 0.000339824 -1.41244e-06
-3.42427e-06 -1.41244e-06 0.000334078
0.00092666 -2.15749e-05 1.49412e-05
-2.15749e-05 0.000130335 7.44998e-06
1.49412e-05 7.44998e-06 0.000140929
0.00131994 -3.29126e-05 -6.87935e-06
-3.29126e-05 0.000354024 -5.0237e-06
-6.87935e-06 -5.0237e-06 0.000347607
0.000864248 -2.8719e-05 5.64104e-06
-2.8719e-05 9.92567e-05 2.7691e-06
5.64104e-06 2.7691e-06 0.000109003
0.000797258 -3.4736e-05 -1.89654e-06
-3.4736e-05 6.74805e-05 -1.8705e-06
-1.89654e-06 -1.8705e-06 7.5722e-05
0.000616184 3.23655e-05 5.63307e-07
3.23655e-05 -4.06016e-05 -3.88539e-06
5.63307e-07 -3.88539e-06 -5.48724e-05
0.000616978 3.91509e-05 -1.83301e-07
3.91509e-05 -3.21829e-05 6.25859e-08
-1.83301e-07 6.25859e-08 -5.10089e-05
0.00235467 6.72226e-05 2.49786e-05
6.72226e-05 0.000968627 -4.03088e-06
2.49786e-05 -4.03088e-06 0.000979237
0.000614137 4.55471e-05 -8.073e-07
4.55471e-05 -2.52283e-05 4.82889e-06
-8.073e-07 4.82889e-06 -4.87995e-05
0.00254815 8.02075e-05 -3.1832e-06
8.02075e-05 0.00108678 -2.11211e-07
-3.1832e-06 -2.11211e-07 0.00109403
0.00272363 8.98166e-05 -4.57179e-05
8.98166e-05 0.00119252 3.34459e-06
-4.57179e-05 3.34459e-06 0.00119763
0.00161875 0.000119707 1.63428e-06
0.000119707 8.96195e-05 2.30723e-06
1.63428e-06 2.30723e-06 -2.77061e-05
0.00169431 9.35546e-05 1.20846e-06
9.35546e-05 7.70352e-05 3.34681e-07
1.20846e-06 3.34681e-07 -2.50662e-05
0.00169702 0.000133422 4.99428e-06
0.000133422 5.26689e-05 1.36972e-06
4.99428e-06 1.36972e-06 -3.24635e-05
0.00173235 7.58671e-05 3.16104e-06
7.58671e-05 6.70894e-05 -7.46617e-07
3.16104e-06 -7.46617e-07 -1.53011e-05
0.00174828 3.15022e-05 1.88391e-06
3.15022e-05 9.40702e-05 -3.12338e-07
1.88391e-06 -3.12338e-07 -9.57664e-06
0.00162688 1.12689e-06 -1.00591e-06
1.12689e-06 8.84142e-05 -1.62508e-07
-1.00591e-06 -1.62508e-07 -2.75814e-05
0.00175707 1.05332e-06 -6.77602e-08
1.05332e-06 0.000109532 -1.21256e-08
-6.77602e-08 -1.21256e-08 6.65194e-06
0.00167875 4.24194e-05 1.18805e-06
4.24194e-05 4.72507e-05 -2.53035e-07
1.18805e-06 -2.53035e-07 -3.95984e-05
0.00177191 9.99115e-05 9.05873e-07
9.99115e-05 8.24182e-05 -2.20896e-07
9.05873e-07 -2.20896e-07 3.09979e-06
0.0019183 0.000151634 4.07152e-07
0.000151634 0.000172873 2.62385e-07
4.07152e-07 2.62385e-07 8.52734e-05
0.00165926 -4.70853e-07 -1.62104e-06
-4.70853e-07 4.51911e-05 2.80745e-07
-1.62104e-06 2.80745e-07 -4.50674e-05
0.00196434 7.3555e-05 1.01185e-06
7.3555e-05 0.000153284 3.21076e-07
1.01185e-06 3.21076e-07 8.7101e-05
0.00166528 0.000140518 7.503e-07
0.000140518 -2.66744e-05 -3.38251e-07
7.503e-07 -3.38251e-07 -9.92723e-05
0.00182025 -3.72694e-05 5.87158e-07
-3.72694e-05 0.00013927 8.23386e-08
5.87158e-07 8.23386e-08 3.70602e-05
0.00180457 -7.74076e-05 1.04096e-06
-7.74076e-05 0.000133514 -4.27261e-07
1.04096e-06 -4.27261e-07 3.3585e-05
0.00168526 -0.000134748 9.62782e-07
-0.000134748 6.55642e-05 -1.22736e-07
9.62782e-07 -1.22736e-07 -2.29929e-05
0.00119326 -0.000182057 -1.03298e-07
-0.000182057 0.000281751 2.26408e-06
-1.03298e-07 2.26408e-06 0.000132021
0.00163331 -0.000237 -3.12008e-07
-0.000237 0.000466282 1.82302e-06
-3.12008e-07 1.82302e-06 0.000276611
0.000919131 -0.000225049 -1.8945e-06
-0.000225049 -0.000154029 1.56927e-06
-1.8945e-06 1.56927e-06 -0.000368682
0.00163298 -0.000166096 1.39767e-06
-0.000166096 6.40365e-05 -1.05126e-06
1.39767e-06 -1.05126e-06 -3.82497e-05
0.00151897 -0.000220744 2.36087e-07
-0.000220744 -1.23343e-06 -3.20303e-06
2.36087e-07 -3.20303e-06 -0.000121336
0.00161906 -0.000246579 -1.42621e-06
-0.000246579 0.000115639 -7.12305e-06
-1.42621e-06 -7.12305e-06 -4.83629e-05
0.00111474 -0.000175526 8.51733e-07
-0.000175526 0.000234657 -9.76778e-07
8.51733e-07 -9.76778e-07 9.62944e-05
0.000766449 -0.000150204 -5.14662e-06
-0.000150204 4.59978e-05 -2.60505e-06
-5.14662e-06 -2.60505e-06 -8.29037e-05
0.001148 -0.000134232 2.07422e-07
-0.000134232 0.000299409 2.34115e-07
2.07422e-07 2.34115e-07 0.000149337
0.000412464 1.92326e-05 -6.89847e-07
1.92326e-05 -0.000140779 1.58372e-06
-6.89847e-07 1.58372e-06 -0.000196009
0.000973245 -4.62716e-05 2.24928e-07
-4.62716e-05 0.00019875 3.09458e-07
2.24928e-07 3.09458e-07 8.71953e-05
0.000571751 2.9865e-05 5.4818e-07
2.9865e-05 -3.18956e-05 1.65161e-06
5.4818e-07 1.65161e-06 -0.000121109
0.00170576 -3.94118e-05 -6.13828e-07
-3.94118e-05 6.05971e-05 8.26351e-08
-6.13828e-07 8.26351e-08 -3.25955e-05
0.00188574 -0.000106007 2.49764e-07
-0.000106007 0.000135835 -1.47924e-08
2.49764e-07 -1.47924e-08 5.91487e-05
0.00161052 -0.000153036 -3.20363e-07
-0.000153036 1.09377e-05 2.58742e-07
-3.20363e-07 2.58742e-07 -6.90554e-05
0.00108712 -0.000180816 1.60598e-07
-0.000180816 0.000211608 1.78513e-06
1.60598e-07 1.78513e-06 5.46773e-05
0.000844084 -0.00020261 -4.72547e-07
-0.00020261 -1.59299e-05 -9.92171e-08
-4.72547e-07 -9.92171e-08 -0.000227887
0.00188447 -0.000301586 -2.772e-06
-0.000301586 0.000343276 1.09834e-06
-2.772e-06 1.09834e-06 0.000127384
0.00189119 -0.000207721 1.03129e-06
-0.000207721 0.000154136 -5.70951e-07
1.03129e-06 -5.70951e-07 5.93406e-05
0.00173151 -0.000256159 1.4287e-06
-0.000256159 0.000131589 -1.19652e-06
1.4287e-06 -1.19652e-06 -9.38554e-06
0.000533033 2.3159e-05 3.6453e-07
2.3159e-05 -7.63238e-05 -7.51612e-07
3.6453e-07 -7.51612e-07 -0.000124027
0.000828625 -3.61524e-06 -3.83478e-07
-3.61524e-06 0.000116539 2.75136e-07
-3.83478e-07 2.75136e-07 3.23894e-05
0.000487676 -0.000136135 -1.97207e-06
-0.000136135 -0.00012909 1.68426e-06
-1.97207e-06 1.68426e-06 -0.000262384
0.00125565 -0.000178236 1.16986e-07
-0.000178236 0.000319905 2.41762e-08
1.16986e-07 2.41762e-08 0.000174937
0.000890708 -4.26594e-05 -4.08277e-08
-4.26594e-05 0.000155765 -3.28125e-07
-4.08277e-08 -3.28125e-07 2.83561e-05
0.000895464 -5.35683e-05 -5.82536e-07
-5.35683e-05 0.000161709 1.07004e-06
-5.82536e-07 1.07004e-06 5.39349e-05
0.00190201 -6.20943e-05 -5.53147e-08
-6.20943e-05 0.000119685 3.10196e-07
-5.53147e-08 3.10196e-07 5.20084e-05
0.00178439 -0.000148757 -1.6229e-06
-0.000148757 4.46396e-05 -5.79346e-07
-1.6229e-06 -5.79346e-07 -1.34379e-05
0.00179489 -0.00017173 2.00888e-06
-0.00017173 7.21038e-05 -1.69763e-07
2.00888e-06 -1.69763e-07 -1.3015e-07
0.00228668 -0.000292446 6.19224e-06
-0.000292446 0.000345863 -7.53459e-07
6.19224e-06 -7.53459e-07 0.00023543
0.000291217 -0.00013473 -2.46815e-06
-0.00013473 -0.0002405 -8.86234e-07
-2.46815e-06 -8.86234e-07 -0.000410162
0.0018084 -0.000306117 -1.82396e-06
-0.000306117 0.00025607 7.25603e-06
-1.82396e-06 7.25603e-06 5.43896e-05
0.00232277 -0.000334879 3.19394e-06
-0.000334879 0.000738796 -3.92261e-06
3.19394e-06 -3.92261e-06 0.000495918
0.00069968 2.24046e-05 6.57773e-07
2.24046e-05 1.27415e-05 -2.07433e-06
6.57773e-07 -2.07433e-06 -2.85427e-05
0.000733083 -8.11654e-05 1.59834e-06
-8.11654e-05 6.43924e-05 -2.0141e-06
1.59834e-06 -2.0141e-06 -1.02101e-05
0.000520176 1.5183e-05 1.47447e-07
1.5183e-05 -5.60418e-05 -2.32515e-06
1.47447e-07 -2.32515e-06 -0.000137719
0.000820194 -3.95479e-05 1.26798e-06
-3.95479e-05 0.000126473 3.22376e-07
1.26798e-06 3.22376e-07 2.14312e-05
0.000802053 -3.97747e-06 1.15213e-06
-3.97747e-06 9.96206e-05 -1.35303e-06
1.15213e-06 -1.35303e-06 -1.03708e-05
0.000361718 -0.000103856 1.8682e-07
-0.000103856 -0.000126847 2.61961e-06
1.8682e-07 2.61961e-06 -0.000264696
0.000454083 -0.000139704 -1.8564e-06
-0.000139704 -0.000196928 6.59058e-07
-1.8564e-06 6.59058e-07 -0.00032103
0.00190365 -0.000228523 -6.47891e-06
-0.000228523 0.000721976 3.6514e-06
-6.47891e-06 3.6514e-06 0.00054205
0.000714148 -3.41887e-05 -7.2239e-07
-3.41887e-05 3.19668e-05 -6.81746e-07
-7.2239e-07 -6.81746e-07 -3.10037e-05
0.000824853 -4.69705e-06 1.61043e-08
-4.69705e-06 0.000115027 7.70522e-08
1.61043e-08 7.70522e-08 2.39022e-05
0.00209268 0.000197609 -5.86841e-08
0.000197609 0.000300226 4.53274e-07
-5.86841e-08 4.53274e-07 0.000196432
0.000814608 2.16618e-05 -6.22792e-08
2.16618e-05 0.000123301 -4.46345e-07
-6.22792e-08 -4.46345e-07 -5.75225e-07
0.00117922 0.000180198 1.24848e-06
0.000180198 0.000315826 -2.13539e-06
1.24848e-06 -2.13539e-06 0.00013743
0.000586238 9.15844e-05 6.52139e-08
9.15844e-05 -2.69688e-05 1.89628e-06
6.52139e-08 1.89628e-06 -0.000152762
0.00189025 0.000274525 2.92544e-07
0.000274525 0.000300386 8.79115e-07
2.92544e-07 8.79115e-07 0.000129831
0.00167999 0.000258974 1.65153e-06
0.000258974 0.000120666 4.27129e-06
1.65153e-06 4.27129e-06 -2.4695e-05
0.00103842 0.000199262 1.16936e-06
0.000199262 0.000154287 5.2783e-08
1.16936e-06 5.2783e-08 -8.30849e-05
0.00139932 0.000263581 -1.39716e-06
0.000263581 9.82371e-05 1.33373e-06
-1.39716e-06 1.33373e-06 -9.89987e-05
0.000580691 -1.09955e-05 1.01695e-07
-1.09955e-05 -2.45245e-05 7.02078e-07
1.01695e-07 7.02078e-07 -0.000106463
0.000566131 5.84312e-05 -4.58405e-07
5.84312e-05 -1.21421e-05 -1.49514e-06
-4.58405e-07 -1.49514e-06 -0.000127098
0.00105452 0.000175598 1.6052e-06
0.000175598 0.000230769 -1.73141e-06
1.6052e-06 -1.73141e-06 3.34739e-05
0.000678574 0.000103122 -9.20749e-07
0.000103122 3.58774e-05 -2.14471e-06
-9.20749e-07 -2.14471e-06 -0.000110167
0.00198029 0.000188828 2.42511e-07
0.000188828 0.000131725 -6.35307e-07
2.42511e-07 -6.35307e-07 5.69474e-05
0.00188187 0.000238267 2.03386e-06
0.000238267 0.000169415 7.17895e-07
2.03386e-06 7.17895e-07 5.32471e-05
0.00175731 0.000295831 -1.94312e-06
0.000295831 0.000194786 -2.67162e-07
-1.94312e-06 -2.67162e-07 1.60829e-05
0.000790701 0.000200584 5.87727e-07
0.000200584 -9.87749e-05 7.12561e-07
5.87727e-07 7.12561e-07 -0.000333927
0.000744713 1.03504e-06 -2.14134e-07
1.03504e-06 6.75141e-05 1.05818e-06
-2.14134e-07 1.05818e-06 -1.73125e-05
0.00185713 0.000148252 -6.53027e-07
0.000148252 2.62484e-05 1.19164e-06
-6.53027e-07 1.19164e-06 -2.10423e-05
0.00127624 0.00017268 -3.37111e-07
0.00017268 0.000401696 2.77267e-06
-3.37111e-07 2.77267e-06 0.00024911
0.00108388 0.000186711 1.0592e-06
0.000186711 0.000223086 3.64676e-06
1.0592e-06 3.64676e-06 1.82022e-05
0.00250088 0.000241364 -7.54592e-06
0.000241364 0.000413647 -9.78579e-07
-7.54592e-06 -9.78579e-07 0.000332854
0.00141502 0.000293392 -2.66878e-06
0.000293392 -6.93627e-05 -3.97532e-06
-2.66878e-06 -3.97532e-06 -0.000233322
0.00195928 0.000311432 -3.15014e-06
0.000311432 0.000439532 7.28301e-07
-3.15014e-06 7.28301e-07 0.000206767
0.000782087 9.27542e-06 -1.40251e-06
9.27542e-06 8.3699e-05 3.28373e-08
-1.40251e-06 3.28373e-08 8.43794e-06
0.000773346 -2.7168e-06 -3.06298e-07
-2.7168e-06 8.30418e-05 7.10615e-08
-3.06298e-07 7.10615e-08 4.2494e-06
0.000846088 -1.60168e-05 -4.51253e-07
-1.60168e-05 0.000132391 5.66051e-07
-4.51253e-07 5.66051e-07 4.79816e-05
0.000718847 -2.1281e-05 -3.96049e-07
-2.1281e-05 3.55145e-05 -9.71359e-07
-3.96049e-07 -9.71359e-07 -2.74485e-05
0.000740317 1.59684e-05 3.95121e-07
1.59684e-05 6.45264e-05 2.54708e-07
3.95121e-07 2.54708e-07 -1.56748e-05
0.000609031 -8.83685e-06 -7.83384e-07
-8.83685e-06 5.68456e-07 2.51043e-07
-7.83384e-07 2.51043e-07 -8.73256e-05
0.000726246 -9.51961e-06 -1.80647e-07
-9.51961e-06 4.37489e-05 -4.01387e-08
-1.80647e-07 -4.01387e-08 -2.31458e-05
0.000630121 -2.48052e-05 -5.61958e-07
-2.48052e-05 2.39395e-06 3.44134e-07
-5.61958e-07 3.44134e-07 -8.03456e-05
0.000713856 -3.38551e-05 5.79763e-07
-3.38551e-05 4.65363e-05 -3.10791e-07
5.79763e-07 -3.10791e-07 -3.58558e-05
0.000814672 1.68742e-05 3.15006e-07
1.68742e-05 0.000112627 1.75961e-07
3.15006e-07 1.75961e-07 2.23952e-05
0.000851422 -9.2156e-06 7.09788e-07
-9.2156e-06 0.000110132 -6.89739e-07
7.09788e-07 -6.89739e-07 2.89062e-05
0.00075927 -5.29658e-05 6.24016e-07
-5.29658e-05 6.89293e-05 -1.45402e-07
6.24016e-07 -1.45402e-07 -1.64854e-05
0.000823234 1.87404e-05 5.33409e-07
1.87404e-05 0.000113969 -2.84149e-08
5.33409e-07 -2.84149e-08 2.19648e-05
0.000729326 2.2071e-05 1.75664e-06
2.2071e-05 5.80703e-05 4.25339e-07
1.75664e-06 4.25339e-07 -3.09308e-05
0.000745526 1.10981e-05 9.52861e-07
1.10981e-05 4.96658e-05 1.00482e-06
9.52861e-07 1.00482e-06 -1.58844e-05
0.000680239 -2.59561e-06 1.79815e-07
-2.59561e-06 1.26955e-06 1.62521e-06
1.79815e-07 1.62521e-06 -4.06198e-05
0.000693121 -6.16632e-06 -2.10963e-07
-6.16632e-06 6.73733e-06 4.03728e-08
-2.10963e-07 4.03728e-08 -3.47043e-05
0.0012858 -8.43784e-06 5.21317e-07
-8.43784e-06 0.000326858 2.10701e-06
5.21317e-07 2.10701e-06 0.000321124
0.000711203 -1.40978e-05 6.27116e-08
-1.40978e-05 1.4226e-05 -1.90428e-06
6.27116e-08 -1.90428e-06 -2.65693e-05
0.00131178 -1.57449e-05 -2.57052e-06
-1.57449e-05 0.000343291 -1.46182e-06
-2.57052e-06 -1.46182e-06 0.000337708
0.000926415 -1.47661e-05 1.12644e-05
-1.47661e-05 0.000126628 7.63458e-06
1.12644e-05 7.63458e-06 0.000137672
0.00133613 -2.34498e-05 -5.06962e-06
-2.34498e-05 0.000359605 -5.09515e-06
-5.06962e-06 -5.09515e-06 0.000353703
0.000877134 -2.19741e-05 3.96359e-06
-2.19741e-05 0.000101451 2.87981e-06
3.96359e-06 2.87981e-06 0.000112049
0.0008111 -2.80697e-05 -1.33544e-06
-2.80697e-05 6.85816e-05 -1.87567e-06
-1.33544e-06 -1.87567e-06 7.84737e-05
0.000716311 2.45135e-06 6.06196e-07
2.45135e-06 2.0733e-05 -2.11342e-06
6.06196e-07 -2.11342e-06 -1.75449e-05
0.000633533 2.59589e-05 4.82916e-07
2.59589e-05 -3.72998e-05 -3.80293e-06
4.82916e-07 -3.80293e-06 -4.81293e-05
0.000634541 3.3092e-05 -8.6101e-08
3.3092e-05 -3.02955e-05 6.65659e-08
-8.6101e-08 6.65659e-08 -4.47534e-05
0.00224696 5.51696e-05 2.05223e-05
5.51696e-05 0.000899552 -4.21209e-06
2.05223e-05 -4.21209e-06 0.00091314
0.000632841 4.14673e-05 -4.9208e-07
4.14673e-05 -2.2665e-05 4.44249e-06
-4.9208e-07 4.44249e-06 -4.19534e-05
0.00241322 6.86928e-05 -2.84673e-06
6.86928e-05 0.00100273 -1.78325e-07
-2.84673e-06 -1.78325e-07 0.00101286
0.00260514 8.08228e-05 -3.60674e-05
8.08228e-05 0.00111949 3.6958e-06
-3.60674e-05 3.6958e-06 0.00112659
0.00192189 0.000147786 1.45099e-06
0.000147786 0.000165939 2.04074e-06
1.45099e-06 2.04074e-06 7.95937e-05
0.0017441 0.000102348 1.51383e-06
0.000102348 6.84369e-05 -1.41197e-07
1.51383e-06 -1.41197e-07 -1.18626e-05
0.00168912 4.23818e-05 1.8369e-06
4.23818e-05 5.84511e-05 -7.34444e-07
1.8369e-06 -7.34444e-07 -2.90984e-05
0.00177154 3.65841e-06 6.69057e-07
3.65841e-06 0.000117796 -3.07101e-07
6.69057e-07 -3.07101e-07 1.5066e-05
0.00170849 1.6949e-06 -8.45883e-07
1.6949e-06 7.38561e-05 8.76082e-08
-8.45883e-07 8.76082e-08 -1.49319e-05
0.00193467 7.08024e-05 2.96957e-07
7.08024e-05 0.000137614 6.87415e-08
2.96957e-07 6.87415e-08 7.15723e-05
0.00171777 0.000142771 -7.20626e-07
0.000142771 -2.94469e-07 -2.53996e-07
-7.20626e-07 -2.53996e-07 -7.32682e-05
0.00180894 6.26825e-06 -2.10879e-08
6.26825e-06 6.06477e-05 2.43106e-07
-2.10879e-08 2.43106e-07 -2.98405e-06
0.00196415 0.000100051 2.11435e-06
0.000100051 9.6696e-05 1.69074e-07
2.11435e-06 1.69074e-07 4.40138e-05
0.00200319 6.07242e-05 -2.19819e-06
6.07242e-05 0.000122816 -4.25671e-07
-2.19819e-06 -4.25671e-07 0.00012426
0.00179912 -3.8849e-05 -3.75576e-07
-3.8849e-05 0.000111225 1.99727e-08
-3.75576e-07 1.99727e-08 1.83343e-05
0.00189647 -0.000108336 8.89131e-07
-0.000108336 0.000140706 1.62054e-07
8.89131e-07 1.62054e-07 6.48558e-05
0.00164137 -0.000154078 -9.43191e-07
-0.000154078 2.8311e-05 2.39293e-07
-9.43191e-07 2.39293e-07 -5.11725e-05
0.00112582 -0.000182642 3.54975e-07
-0.000182642 0.000230176 3.57935e-06
3.54975e-07 3.57935e-06 7.27277e-05
0.00110861 -0.000218426 6.7659e-07
-0.000218426 0.000141216 4.44246e-06
6.7659e-07 4.44246e-06 -6.82948e-05
0.00156559 -0.000276589 -2.30155e-06
-0.000276589 0.000164536 -1.13463e-06
-2.30155e-06 -1.13463e-06 -4.47091e-05
0.00186356 -0.00020698 2.8923e-06
-0.00020698 0.000138972 -1.07069e-06
2.8923e-06 -1.07069e-06 4.30574e-05
0.00159589 -0.000247074 -1.29865e-06
-0.000247074 5.69813e-05 -4.441e-06
-1.29865e-06 -4.441e-06 -8.30946e-05
0.0001699 -0.000111158 -3.36398e-06
-0.000111158 -0.000307041 2.2883e-06
-3.36398e-06 2.2883e-06 -0.000435528
0.00160713 -0.000198248 8.31981e-06
-0.000198248 0.000524577 -4.22675e-06
8.31981e-06 -4.22675e-06 0.000381508
0.000829633 -1.16171e-05 -2.63394e-07
-1.16171e-05 0.00011005 -2.42153e-07
-2.63394e-07 -2.42153e-07 -8.52398e-06
0.000695433 1.02482e-05 -5.47043e-07
1.02482e-05 1.43503e-05 1.34842e-06
-5.47043e-07 1.34842e-06 -3.09749e-05
0.000845704 1.5314e-05 -8.38309e-07
1.5314e-05 0.000124711 1.73797e-06
-8.38309e-07 1.73797e-06 4.09085e-05
0.000816234 -2.53775e-05 -5.93469e-07
-2.53775e-05 0.000117235 1.5881e-06
-5.93469e-07 1.5881e-06 9.24959e-06
0.00186557 -6.29635e-05 1.20333e-07
-6.29635e-05 9.79557e-05 -7.97978e-09
1.20333e-07 -7.97978e-09 3.0539e-05
0.000697536 7.47901e-06 8.06042e-07
7.47901e-06 1.22886e-05 6.48824e-08
8.06042e-07 6.48824e-08 -2.93437e-05
0.000631696 -2.23438e-05 -1.0347e-06
-2.23438e-05 -5.63078e-06 -2.82318e-08
-1.0347e-06 -2.82318e-08 -7.25254e-05
0.00184682 -0.000146235 -9.73761e-08
-0.000146235 8.86266e-05 2.08103e-07
-9.73761e-08 2.08103e-07 2.73848e-05
0.00166094 -0.000167897 -1.95862e-06
-0.000167897 -6.91442e-06 6.5378e-07
-1.95862e-06 6.5378e-07 -8.10232e-05
0.000479551 -0.000146542 5.08626e-07
-0.000146542 -0.000124955 2.83702e-06
5.08626e-07 2.83702e-06 -0.000291482
0.00177606 -0.000291265 -2.06863e-06
-0.000291265 0.00044578 8.08307e-07
-2.06863e-06 8.08307e-07 0.000198059
0.00148411 -0.000281837 1.44442e-06
-0.000281837 7.62367e-05 -8.58296e-07
1.44442e-06 -8.58296e-07 -0.00011777
0.00198224 -0.000279978 2.52302e-06
-0.000279978 0.000189511 -1.03628e-06
2.52302e-06 -1.03628e-06 7.84215e-05
0.000783525 -2.36672e-05 1.09308e-06
-2.36672e-05 9.21306e-05 -8.22116e-07
1.09308e-06 -8.22116e-07 1.28954e-05
0.000801277 -2.82829e-05 -9.557e-08
-2.82829e-05 0.000116085 8.25293e-07
-9.557e-08 8.25293e-07 9.90554e-06
0.000948605 -0.000161343 -1.32205e-06
-0.000161343 7.85043e-05 -2.00021e-07
-1.32205e-06 -2.00021e-07 -5.07184e-05
0.00122911 -0.000182503 8.4584e-06
-0.000182503 0.000339864 -2.20221e-06
8.4584e-06 -2.20221e-06 0.000187576
0.000591466 -8.46145e-05 -1.08632e-06
-8.46145e-05 -7.32778e-06 2.74439e-07
-1.08632e-06 2.74439e-07 -0.000140218
0.000812982 -8.38102e-06 3.17502e-07
-8.38102e-06 0.000109454 -5.46098e-07
3.17502e-07 -5.46098e-07 -1.85958e-06
0.0020174 -7.83393e-05 -1.67367e-06
-7.83393e-05 0.000120216 1.56282e-07
-1.67367e-06 1.56282e-07 6.93354e-05
0.00173588 -0.000141109 2.33979e-06
-0.000141109 -6.26322e-07 -1.26632e-07
2.33979e-06 -1.26632e-07 -4.69919e-05
0.00193355 -0.000269192 1.61182e-06
-0.000269192 6.14242e-05 -1.67499e-06
1.61182e-06 -1.67499e-06 -7.20833e-06
0.00155692 -0.000306167 2.54697e-06
-0.000306167 2.63183e-07 1.49618e-06
2.54697e-06 1.49618e-06 -0.000132865
0.000790561 -0.000132872 -5.01006e-06
-0.000132872 2.90331e-05 -4.15933e-06
-5.01006e-06 -4.15933e-06 -0.000139742
0.00269326 -0.000389895 -3.41159e-06
-0.000389895 0.000869064 3.18258e-06
-3.41159e-06 3.18258e-06 0.000602957
0.000503513 5.25703e-05 -1.31389e-06
5.25703e-05 -7.36198e-05 -2.6641e-06
-1.31389e-06 -2.6641e-06 -0.000142084
0.000739347 -4.70448e-05 1.81305e-06
-4.70448e-05 5.74907e-05 -1.67435e-06
1.81305e-06 -1.67435e-06 -1.25202e-05
0.000959071 -6.14443e-05 1.30434e-06
-6.14443e-05 0.000199396 -3.73773e-07
1.30434e-06 -3.73773e-07 0.000108892
0.00051501 1.35882e-05 4.65529e-08
1.35882e-05 -4.22118e-05 -2.63094e-07
4.65529e-08 -2.63094e-07 -0.00014935
0.00102852 -4.23152e-05 7.60335e-07
-4.23152e-05 0.000234247 -2.08555e-07
7.60335e-07 -2.08555e-07 0.000128526
0.000690694 -4.23027e-05 1.81575e-06
-4.23027e-05 2.93566e-05 -1.55491e-07
1.81575e-06 -1.55491e-07 -9.31326e-05
0.000224804 -7.74292e-05 4.54982e-06
-7.74292e-05 -0.000129617 1.45988e-06
4.54982e-06 1.45988e-06 -0.000325022
0.000574055 -0.000173442 -1.37551e-05
-0.000173442 -0.000107621 4.63138e-06
-1.37551e-05 4.63138e-06 -0.000231374
0.000600574 1.0145e-05 -1.17023e-07
1.0145e-05 -9.5831e-06 -9.46359e-08
-1.17023e-07 -9.46359e-08 -9.56501e-05
0.000762292 7.70119e-05 -2.81994e-06
7.70119e-05 9.80232e-05 -2.92029e-06
-2.81994e-06 -2.92029e-06 -1.89777e-05
0.00203468 0.000187077 -1.06454e-06
0.000187077 0.000163637 -5.71216e-07
-1.06454e-06 -5.71216e-07 9.14729e-05
0.00171735 0.00023795 -6.98508e-08
0.00023795 8.55703e-05 2.36768e-06
-6.98508e-08 2.36768e-06 -3.52512e-05
0.00144792 0.000134527 -4.17932e-06
0.000134527 0.000457785 -1.83979e-06
-4.17932e-06 -1.83979e-06 0.00031133
0.00104792 0.000175828 -1.53686e-06
0.000175828 0.000234824 -6.08736e-06
-1.53686e-06 -6.08736e-06 3.46775e-05
0.0016964 0.000285731 1.41015e-06
0.000285731 0.000159405 1.55385e-06
1.41015e-06 1.55385e-06 -1.73696e-05
0.00185582 0.000281695 1.6285e-07
0.000281695 0.000472179 -3.71639e-07
1.6285e-07 -3.71639e-07 0.000234612
0.000732655 2.30102e-05 6.56298e-07
2.30102e-05 6.90361e-05 -6.74129e-07
6.56298e-07 -6.74129e-07 -2.2095e-05
0.00189832 0.000143937 -5.42316e-07
0.000143937 4.376e-05 -8.74533e-08
-5.42316e-07 -8.74533e-08 2.0089e-06
0.000935156 0.00012212 6.91331e-07
0.00012212 0.000206481 1.75463e-06
6.91331e-07 1.75463e-06 6.44368e-05
0.00078142 0.000164184 6.89753e-07
0.000164184 5.46749e-05 9.28735e-09
6.89753e-07 9.28735e-09 -0.000149352
0.00208115 0.000226808 2.61559e-06
0.000226808 0.000183421 -8.33587e-09
2.61559e-06 -8.33587e-09 0.000102544
0.00159702 0.000301975 -4.33186e-07
0.000301975 2.77793e-05 -1.37668e-06
-4.33186e-07 -1.37668e-06 -0.000134186
0.00208149 0.000321618 7.44248e-07
0.000321618 0.000519992 5.95266e-07
7.44248e-07 5.95266e-07 0.000285361
0.00123488 6.4719e-05 -2.39919e-06
6.4719e-05 0.000365918 1.92396e-06
-2.39919e-06 1.92396e-06 0.000249249
0.00234588 0.000161665 -2.22584e-05
0.000161665 0.000318313 -3.37501e-06
-2.22584e-05 -3.37501e-06 0.000299653
0.00222528 0.000254159 -3.75138e-06
0.000254159 0.000898618 -1.25338e-07
-3.75138e-06 -1.25338e-07 0.000726317
0.00250038 0.000316386 -6.31252e-06
0.000316386 0.000929457 1.62046e-06
-6.31252e-06 1.62046e-06 0.000706059
0.00177988 0.000313184 -7.56114e-06
0.000313184 2.95717e-05 -6.79229e-06
-7.56114e-06 -6.79229e-06 -7.52296e-05
0.00140493 0.000298692 -7.59274e-06
0.000298692 8.05005e-05 -5.9146e-07
-7.59274e-06 -5.9146e-07 -0.00013025
0.000426117 0.000170487 1.38801e-05
0.000170487 -0.000508611 -3.97438e-06
1.38801e-05 -3.97438e-06 -0.000704574
0.000729217 8.51743e-06 2.73602e-07
8.51743e-06 6.18509e-05 -2.25595e-07
2.73602e-07 -2.25595e-07 -1.921e-05
0.000793967 -8.93922e-06 -2.74494e-07
-8.93922e-06 0.00010547 3.03855e-07
-2.74494e-07 3.03855e-07 2.03189e-05
0.00106591 6.8886e-06 4.39e-07
6.8886e-06 0.00024305 -8.04658e-07
4.39e-07 -8.04658e-07 0.000154129
0.000715242 -5.24149e-05 -2.56596e-07
-5.24149e-05 4.15216e-05 -1.22423e-06
-2.56596e-07 -1.22423e-06 -2.80828e-05
0.000671353 -4.72384e-05 -1.18832e-06
-4.72384e-05 2.36607e-05 3.39132e-07
-1.18832e-06 3.39132e-07 -5.72995e-05
0.000876876 8.45444e-05 -5.06205e-07
8.45444e-05 0.000149803 6.63986e-07
-5.06205e-07 6.63986e-07 5.79762e-05
0.000598223 -4.23073e-05 -4.9986e-07
-4.23073e-05 -1.47425e-05 3.52974e-07
-4.9986e-07 3.52974e-07 -9.94667e-05
0.000723524 -2.51509e-05 1.02192e-08
-2.51509e-05 4.55569e-05 -1.38853e-08
1.02192e-08 -1.38853e-08 -2.5415e-05
0.000696597 1.92378e-05 -4.45005e-08
1.92378e-05 3.04102e-05 -2.12874e-07
-4.45005e-08 -2.12874e-07 -5.18988e-05
0.000802171 -1.38906e-05 -1.80854e-07
-1.38906e-05 8.27321e-05 -5.74197e-07
-1.80854e-07 -5.74197e-07 -9.004e-08
0.000817214 -2.92663e-06 2.41022e-07
-2.92663e-06 0.000103619 9.94818e-09
2.41022e-07 9.94818e-09 1.65794e-05
0.000829121 -3.14173e-05 -6.95754e-08
-3.14173e-05 0.000106616 -3.45997e-08
-6.95754e-08 -3.45997e-08 2.14344e-05
0.000846159 -1.64487e-05 -3.81334e-08
-1.64487e-05 9.98221e-05 -6.89837e-07
-3.81334e-08 -6.89837e-07 1.79424e-05
0.000852917 9.04873e-06 -1.41327e-07
9.04873e-06 0.000112751 -1.2343e-06
-1.41327e-07 -1.2343e-06 2.36993e-05
0.000841101 3.73323e-05 3.87196e-07
3.73323e-05 0.000109086 -9.47727e-08
3.87196e-07 -9.47727e-08 2.40717e-05
0.000736404 2.9876e-05 2.9169e-07
2.9876e-05 6.00453e-05 3.3638e-07
2.9169e-07 3.3638e-07 -3.32643e-05
0.000608737 -1.45949e-05 -1.0076e-07
-1.45949e-05 -3.01728e-05 1.38952e-06
-1.0076e-07 1.38952e-06 -9.79501e-05
0.000888647 -1.02651e-05 3.25951e-07
-1.02651e-05 0.000159558 -8.42327e-07
3.25951e-07 -8.42327e-07 6.54893e-05
0.000583982 -5.22844e-07 -6.49839e-07
-5.22844e-07 -3.94845e-05 1.39464e-06
-6.49839e-07 1.39464e-06 -0.000109999
0.000673833 9.77251e-06 -3.56916e-07
9.77251e-06 -9.59777e-07 1.636e-06
-3.56916e-07 1.636e-06 -4.39197e-05
0.000676966 8.89492e-06 3.17437e-07
8.89492e-06 8.9807e-08 1.121e-08
3.17437e-07 1.121e-08 -4.21605e-05
0.000642855 1.34364e-06 1.30776e-07
1.34364e-06 -4.11344e-05 3.51462e-06
1.30776e-07 3.51462e-06 -5.11851e-05
0.000687083 -4.23789e-06 -4.54956e-07
-4.23789e-06 3.76522e-06 -1.74146e-06
-4.54956e-07 -1.74146e-06 -3.78906e-05
0.00098592 -5.95493e-06 -1.66545e-06
-5.95493e-06 0.000155503 -1.54077e-06
-1.66545e-06 -1.54077e-06 0.000147731
0.00223812 -1.0862e-05 7.05059e-06
-1.0862e-05 0.000875952 4.81903e-06
7.05059e-06 4.81903e-06 0.000894428
0.00134698 -1.4331e-05 -2.95864e-06
-1.4331e-05 0.000363879 -5.05092e-06
-2.95864e-06 -5.05092e-06 0.000358037
0.000877521 -1.4874e-05 2.0856e-06
-1.4874e-05 9.78149e-05 2.95918e-06
2.0856e-06 2.95918e-06 0.000109026
0.000824763 -2.09825e-05 -7.85563e-07
-2.09825e-05 7.09385e-05 -1.8912e-06
-7.85563e-07 -1.8912e-06 8.18066e-05
0.000683649 1.18444e-05 -3.3831e-07
1.18444e-05 3.07969e-06 -2.04524e-06
-3.3831e-07 -2.04524e-06 -3.3392e-05
0.000704432 2.1798e-07 2.91838e-07
2.1798e-07 1.41302e-05 -2.06907e-08
2.91838e-07 -2.06907e-08 -2.43317e-05
0.00065327 1.96654e-05 3.0381e-07
1.96654e-05 -3.02342e-05 -3.64476e-06
3.0381e-07 -3.64476e-06 -3.85535e-05
0.000970155 3.05355e-05 -4.77074e-07
3.05355e-05 0.000155689 3.782e-08
-4.77074e-07 3.782e-08 0.000146399
0.0021839 4.37014e-05 1.65493e-05
4.37014e-05 0.000856931 -4.33885e-06
1.65493e-05 -4.33885e-06 0.00087295
0.000645125 3.39282e-05 -4.82387e-07
3.39282e-05 -2.43299e-05 4.07018e-06
-4.82387e-07 4.07018e-06 -3.89895e-05
0.00230036 5.68153e-05 -2.55336e-06
5.68153e-05 0.000930901 -1.37164e-07
-2.55336e-06 -1.37164e-07 0.000943957
0.00247864 7.00451e-05 -2.84655e-05
7.00451e-05 0.00104072 4.04545e-06
-2.84655e-05 4.04545e-06 0.00105038
0.00178004 0.000145435 -2.14906e-06
0.000145435 3.17507e-05 -4.88897e-07
-2.14906e-06 -4.88897e-07 -4.16457e-05
0.00189111 6.86008e-05 6.60346e-07
6.86008e-05 0.000113933 -2.30201e-07
6.60346e-07 -2.30201e-07 4.7935e-05
0.00175674 1.04951e-06 -9.28015e-08
1.04951e-06 0.000101561 -3.1246e-07
-9.28015e-08 -3.1246e-07 1.42567e-05
0.00176117 8.9678e-06 2.42874e-07
8.9678e-06 3.48279e-05 -1.10624e-07
2.42874e-07 -1.10624e-07 -2.91645e-05
0.00186181 9.74358e-05 -6.92061e-07
9.74358e-05 4.61139e-05 -2.10358e-07
-6.92061e-07 -2.10358e-07 -7.28335e-06
0.00183837 5.82635e-05 2.12741e-06
5.82635e-05 2.80748e-05 1.33622e-06
2.12741e-06 1.33622e-06 2.17293e-05
0.00183275 1.58705e-05 9.03769e-07
1.58705e-05 8.98608e-06 -1.77455e-07
9.03769e-07 -1.77455e-07 -1.6978e-05
0.00284586 0.00014719 1.91395e-05
0.00014719 0.000199822 -5.37452e-07
1.91395e-05 -5.37452e-07 0.000169153
0.00186615 3.64095e-05 -1.97687e-05
3.64095e-05 0.000146544 -1.88826e-06
-1.97687e-05 -1.88826e-06 0.000160494
0.000722494 5.64739e-05 -6.82103e-07
5.64739e-05 4.8391e-05 -1.38967e-06
-6.82103e-07 -1.38967e-06 -1.37716e-05
0.00181962 -6.35925e-05 -1.91458e-08
-6.35925e-05 7.09307e-05 -6.67355e-08
-1.91458e-08 -6.67355e-08 3.74074e-06
0.00191838 -0.000141688 5.10526e-07
-0.000141688 0.000139827 2.57985e-07
5.10526e-07 2.57985e-07 7.56949e-05
0.0015376 -0.000164363 2.94114e-07
-0.000164363 -7.84915e-05 7.35918e-07
2.94114e-07 7.35918e-07 -0.000153938
0.000618846 -0.000154114 2.00154e-06
-0.000154114 -3.72817e-05 5.59804e-06
2.00154e-06 5.59804e-06 -0.000200048
0.00127951 -0.000251212 1.87005e-06
-0.000251212 0.00018125 6.28841e-06
1.87005e-06 6.28841e-06 -7.27799e-05
0.00127256 -0.000267606 -1.42213e-06
-0.000267606 -4.48285e-05 -5.14879e-06
-1.42213e-06 -5.14879e-06 -0.000233628
0.00168369 -0.000269887 -6.38361e-06
-0.000269887 3.48233e-05 -2.82187e-06
-6.38361e-06 -2.82187e-06 -7.74219e-05
0.00142253 -0.000186526 9.32929e-06
-0.000186526 0.00034005 -3.20245e-06
9.32929e-06 -3.20245e-06 0.00020541
0.000512905 -0.000134456 6.25551e-06
-0.000134456 -6.31968e-05 -8.43144e-06
6.25551e-06 -8.43144e-06 -0.000188466
0.000846236 -9.49463e-05 -1.72396e-08
-9.49463e-05 0.000132479 -1.87448e-06
-1.72396e-08 -1.87448e-06 -9.70723e-07
0.000693602 -5.69646e-06 -1.40674e-06
-5.69646e-06 1.03675e-05 2.21743e-06
-1.40674e-06 2.21743e-06 -3.11426e-05
0.000836404 -1.50045e-05 -9.49552e-08
-1.50045e-05 0.000128239 1.07971e-07
-9.49552e-08 1.07971e-07 1.4017e-05
0.00102911 -5.40564e-05 1.50142e-07
-5.40564e-05 0.000235612 6.97833e-07
1.50142e-07 6.97833e-07 0.000155306
0.00077224 -2.04884e-05 -1.23576e-06
-2.04884e-05 9.81701e-05 8.62011e-07
-1.23576e-06 8.62011e-07 -7.5427e-06
0.000516934 -1.54607e-05 -9.48987e-07
-1.54607e-05 -7.50354e-05 1.72585e-06
-9.48987e-07 1.72585e-06 -0.000139646
0.00195842 -8.61202e-05 -3.80164e-07
-8.61202e-05 7.36304e-05 -8.82042e-08
-3.80164e-07 -8.82042e-08 2.9605e-05
0.000608239 2.98488e-05 6.02765e-08
2.98488e-05 -1.1671e-05 -9.19432e-07
6.02765e-08 -9.19432e-07 -8.03168e-05
0.000741118 -5.31347e-05 1.28518e-08
-5.31347e-05 6.50362e-05 2.03594e-07
1.28518e-08 2.03594e-07 -9.25529e-06
0.000821181 -3.35703e-05 -5.35282e-07
-3.35703e-05 0.000122411 7.42686e-07
-5.35282e-07 7.42686e-07 2.90969e-05
0.001773 -0.000148642 8.44988e-07
-0.000148642 1.25655e-05 -3.40233e-07
8.44988e-07 -3.40233e-07 -3.33234e-05
0.00189087 -0.000265481 -1.44168e-06
-0.000265481 5.21023e-05 -4.19272e-07
-1.44168e-06 -4.19272e-07 -2.22478e-05
0.00092476 -0.000159676 2.67701e-06
-0.000159676 9.16662e-05 -4.1083e-09
2.67701e-06 -4.1083e-09 -7.14467e-05
0.00152444 -0.00030209 2.79656e-06
-0.00030209 0.000261991 -2.03584e-07
2.79656e-06 -2.03584e-07 -1.40715e-06
0.00174181 -0.000323161 4.05006e-07
-0.000323161 0.000104788 8.24676e-07
4.05006e-07 8.24676e-07 -3.37054e-05
0.000638207 -9.53836e-06 -2.66791e-07
-9.53836e-06 2.76661e-05 -3.77874e-08
-2.66791e-07 -3.77874e-08 -7.84653e-05
0.000871079 -5.53548e-05 -5.81448e-07
-5.53548e-05 0.000150264 2.2097e-07
-5.81448e-07 2.2097e-07 3.93627e-05
0.000589626 -0.000174245 -5.15541e-06
-0.000174245 -8.12808e-05 1.07478e-06
-5.15541e-06 1.07478e-06 -0.000222476
0.000715859 -8.52854e-05 3.51257e-07
-8.52854e-05 0.000121247 -2.9897e-07
3.51257e-07 -2.9897e-07 -5.77547e-05
0.000755583 -6.64631e-05 -2.78298e-07
-6.64631e-05 6.62369e-05 7.60497e-08
-2.78298e-07 7.60497e-08 -5.72716e-05
0.00210097 -0.000163856 -6.47187e-06
-0.000163856 0.000123142 1.59088e-08
-6.47187e-06 1.59088e-08 9.77934e-05
0.00183338 -0.000170692 -2.1046e-06
-0.000170692 1.02069e-05 1.37238e-06
-2.1046e-06 1.37238e-06 -2.23002e-05
0.00220358 -0.000361932 -1.46317e-06
-0.000361932 0.000225392 -6.43449e-07
-1.46317e-06 -6.43449e-07 0.000121273
0.00261213 -0.000403539 -1.58453e-05
-0.000403539 0.00071273 2.43184e-06
-1.58453e-05 2.43184e-06 0.000518947
0.000910379 -0.000166715 -7.06087e-06
-0.000166715 0.000122108 -2.61401e-06
-7.06087e-06 -2.61401e-06 -7.60013e-05
0.0005111 2.07655e-05 7.84318e-07
2.07655e-05 -5.68646e-05 -2.17498e-06
7.84318e-07 -2.17498e-06 -0.00014601
0.000505898 4.74281e-05 5.91892e-07
4.74281e-05 -5.99948e-05 -1.20904e-06
5.91892e-07 -1.20904e-06 -0.00015675
0.000758642 1.04127e-05 9.07781e-07
1.04127e-05 9.58633e-05 -1.04401e-06
9.07781e-07 -1.04401e-06 -9.32764e-06
0.00103227 -0.000104236 1.60367e-06
-0.000104236 0.000256332 2.83094e-07
1.60367e-06 2.83094e-07 0.000137794
0.000698357 -3.80157e-05 1.14098e-06
-3.80157e-05 3.84988e-05 9.55113e-07
1.14098e-06 9.55113e-07 -6.92913e-05
0.000421845 -4.28962e-05 2.72239e-06
-4.28962e-05 -5.83557e-05 2.48164e-07
2.72239e-06 2.48164e-07 -0.000224609
0.00074672 -0.000171051 6.91152e-06
-0.000171051 0.000151446 1.33128e-06
6.91152e-06 1.33128e-06 -7.66555e-05
0.000740809 5.70921e-05 7.95114e-07
5.70921e-05 8.24506e-05 -2.67512e-06
7.95114e-07 -2.67512e-06 -1.58295e-05
0.000601229 6.48336e-05 1.03765e-06
6.48336e-05 1.3664e-05 -4.31175e-07
1.03765e-06 -4.31175e-07 -0.00011622
0.00194367 0.000139444 3.03475e-06
0.000139444 6.47796e-05 -6.03143e-07
3.03475e-06 -6.03143e-07 2.76992e-05
0.0016477 0.000211857 5.75603e-06
0.000211857 -5.34245e-05 4.49514e-07
5.75603e-06 4.49514e-07 -0.000133995
0.0018609 0.000314124 5.43562e-06
0.000314124 0.000169365 1.55329e-06
5.43562e-06 1.55329e-06 9.44136e-06
0.000425163 0.000138286 1.66895e-06
0.000138286 -0.000145216 -1.3233e-06
1.66895e-06 -1.3233e-06 -0.000347555
0.00228433 0.000338625 3.97528e-06
0.000338625 0.000641683 1.43063e-06
3.97528e-06 1.43063e-06 0.000406486
0.00113171 5.23861e-05 -2.84957e-07
5.23861e-05 0.000301955 5.99321e-07
-2.84957e-07 5.99321e-07 0.000193236
0.00197647 0.000141015 -1.91495e-06
0.000141015 0.000121709 -1.06894e-07
-1.91495e-06 -1.06894e-07 0.000109226
0.00136531 0.00018309 -1.23031e-06
0.00018309 0.000421676 -4.86126e-07
-1.23031e-06 -4.86126e-07 0.000262123
0.00171389 0.000256489 -8.03186e-07
0.000256489 0.000520106 1.47746e-06
-8.03186e-07 1.47746e-06 0.000293642
0.00192253 0.000310756 1.8441e-07
0.000310756 0.000108385 -1.96099e-06
1.8441e-07 -1.96099e-06 5.97899e-06
0.00150141 0.000310683 -1.07916e-06
0.000310683 0.000130161 2.39549e-06
-1.07916e-06 2.39549e-06 -8.62817e-05
0.0014513 0.000214197 2.14387e-05
0.000214197 -0.000204148 9.63304e-07
2.14387e-05 9.63304e-07 -0.000457387
0.001144 9.81506e-05 -2.79665e-06
9.81506e-05 0.000312403 -1.31229e-06
-2.79665e-06 -1.31229e-06 0.000187841
0.00240582 0.000229024 -3.02062e-05
0.000229024 0.000375831 -1.41619e-05
-3.02062e-05 -1.41619e-05 0.000376275
0.0013293 0.000206061 -5.7187e-06
0.000206061 0.000388857 -1.33788e-06
-5.7187e-06 -1.33788e-06 0.000218074
0.00114635 0.00024351 -4.97156e-06
0.00024351 0.000127526 -9.53392e-07
-4.97156e-06 -9.53392e-07 -0.000107995
0.000581039 0.000328181 -9.36673e-06
0.000328181 -0.000495196 -5.56583e-06
-9.36673e-06 -5.56583e-06 -0.000674845
0.00867105 0.000169161 -0.000115757
0.000169161 0.00246801 -4.20967e-05
-0.000115757 -4.20967e-05 0.00152759
0.00448429 0.000442631 0.00010843
0.000442631 0.000740081 -5.60255e-06
0.00010843 -5.60255e-06 9.97912e-05
0.000744075 0.000311282 1.34609e-05
0.000311282 -0.000300292 1.74367e-05
1.34609e-05 1.74367e-05 -0.000437739
-0.00436633 -0.000416213 0.000145164
-0.000416213 -0.00160348 -9.52998e-06
0.000145164 -9.52998e-06 -0.00214529
0.00468679 -0.00114008 -1.83361e-05
-0.00114008 0.000686634 -1.71189e-06
-1.83361e-05 -1.71189e-06 0.00226083
0.00074763 -3.41459e-06 8.31702e-07
-3.41459e-06 8.08296e-05 -4.36756e-07
8.31702e-07 -4.36756e-07 -4.98124e-06
0.000911182 -1.01956e-05 8.75276e-07
-1.01956e-05 0.000164323 -3.94194e-07
8.75276e-07 -3.94194e-07 7.56311e-05
0.000915524 4.33874e-05 -9.51335e-07
4.33874e-05 0.000157847 -1.93109e-06
-9.51335e-07 -1.93109e-06 6.81495e-05
0.00070858 -5.6225e-05 1.23624e-07
-5.6225e-05 4.28177e-05 -1.08861e-06
1.23624e-07 -1.08861e-06 -3.18551e-05
0.000666614 5.0334e-05 -1.03727e-06
5.0334e-05 1.56715e-05 -3.65934e-07
-1.03727e-06 -3.65934e-07 -6.87698e-05
0.000816185 -3.69692e-05 -4.7774e-08
-3.69692e-05 0.000103886 1.68257e-08
-4.7774e-08 1.68257e-08 1.6556e-05
0.000885983 -6.10689e-06 -1.24948e-06
-6.10689e-06 0.000136006 8.18749e-07
-1.24948e-06 8.18749e-07 5.18447e-05
0.00080768 -2.45538e-05 -5.9548e-07
-2.45538e-05 8.57401e-05 -4.77457e-07
-5.9548e-07 -4.77457e-07 1.19152e-06
0.00077982 5.36615e-05 -9.21235e-07
5.36615e-05 8.27719e-05 -3.08892e-07
-9.21235e-07 -3.08892e-07 -8.89801e-06
0.000655168 -6.50615e-06 -7.53254e-08
-6.50615e-06 1.10238e-06 6.1381e-07
-7.53254e-08 6.1381e-07 -6.87465e-05
0.000747156 2.11169e-05 -1.06054e-07
2.11169e-05 6.4194e-05 -1.15302e-08
-1.06054e-07 -1.15302e-08 -2.74657e-05
0.000829951 -1.38295e-05 2.87222e-07
-1.38295e-05 9.01049e-05 6.18297e-07
2.87222e-07 6.18297e-07 8.34001e-06
0.000852716 1.03539e-05 -4.45377e-07
1.03539e-05 0.00011173 -2.64379e-07
-4.45377e-07 -2.64379e-07 2.44634e-05
0.000907592 4.63878e-05 -4.46156e-07
4.63878e-05 0.000141192 -9.23559e-07
-4.46156e-07 -9.23559e-07 5.34186e-05
0.00064957 1.26577e-05 5.1059e-07
1.26577e-05 -7.28683e-06 -1.69592e-06
5.1059e-07 -1.69592e-06 -8.93831e-05
0.000862563 4.78394e-05 1.34192e-06
4.78394e-05 0.000116914 9.30195e-08
1.34192e-06 9.30195e-08 2.74946e-05
0.000675738 -7.41595e-06 1.01955e-06
-7.41595e-06 1.1745e-05 -2.28592e-07
1.01955e-06 -2.28592e-07 -7.58781e-05
0.000599832 -4.84455e-05 -1.23171e-06
-4.84455e-05 -2.93261e-05 1.37723e-06
-1.23171e-06 1.37723e-06 -0.000101768
0.000838637 1.16843e-05 -5.3774e-07
1.16843e-05 0.000114628 -2.3311e-07
-5.3774e-07 -2.3311e-07 2.55103e-05
0.000857043 5.35375e-05 2.31567e-07
5.35375e-05 0.000124157 -1.51794e-06
2.31567e-07 -1.51794e-06 3.45759e-05
0.000718241 2.2426e-07 -6.99462e-07
2.2426e-07 5.6507e-05 -3.62237e-07
-6.99462e-07 -3.62237e-07 -2.99059e-05
0.000831286 1.72083e-06 8.56468e-07
1.72083e-06 0.00011642 -4.48992e-07
8.56468e-07 -4.48992e-07 2.82492e-05
0.000730184 -5.15216e-05 -1.64634e-06
-5.15216e-05 4.48292e-05 6.73286e-07
-1.64634e-06 6.73286e-07 -2.37578e-05
0.000594974 6.97244e-07 1.02642e-07
6.97244e-07 -3.04637e-05 6.35233e-07
1.02642e-07 6.35233e-07 -0.000103084
0.000685401 8.74097e-06 -6.24598e-07
8.74097e-06 3.67273e-06 1.74125e-06
-6.24598e-07 1.74125e-06 -3.93474e-05
0.000675227 -2.89466e-06 2.50713e-07
-2.89466e-06 -6.95204e-07 -1.7173e-08
2.50713e-07 -1.7173e-08 -4.33397e-05
0.000665348 7.25237e-06 -3.80742e-07
7.25237e-06 -2.68307e-05 5.07965e-06
-3.80742e-07 5.07965e-06 -3.75465e-05
0.000674526 4.7334e-07 -3.907e-08
4.7334e-07 -1.42581e-06 -1.64828e-06
-3.907e-08 -1.64828e-06 -4.35239e-05
0.0006497 1.53102e-06 2.64537e-07
1.53102e-06 -3.71856e-05 -8.40049e-09
2.64537e-07 -8.40049e-09 -4.72781e-05
0.00225074 -1.16185e-06 2.70755e-08
-1.16185e-06 0.000882576 4.90185e-06
2.70755e-08 4.90185e-06 0.000900973
0.000676892 -4.32345e-06 -4.84561e-07
-4.32345e-06 -2.13613e-05 -5.09725e-06
-4.84561e-07 -5.09725e-06 -3.12229e-05
0.00155764 -8.43008e-06 -2.80167e-07
-8.43008e-06 0.000485488 4.95195e-08
-2.80167e-07 4.95195e-08 0.000500303
0.000824735 -1.35492e-05 -2.64992e-07
-1.35492e-05 6.6855e-05 -1.87209e-06
-2.64992e-07 -1.87209e-06 7.84227e-05
0.000686035 1.13475e-05 -1.43431e-07
1.13475e-05 4.84148e-06 -1.92217e-06
-1.43431e-07 -1.92217e-06 -3.02113e-05
0.000693781 -4.07293e-07 2.22869e-07
-4.07293e-07 8.66629e-06 3.38484e-08
2.22869e-07 3.38484e-08 -2.78878e-05
0.000662571 1.33385e-05 1.17224e-07
1.33385e-05 -2.83356e-05 -3.52296e-06
1.17224e-07 -3.52296e-06 -3.48359e-05
0.000693716 -8.93761e-06 -1.3977e-06
-8.93761e-06 8.03787e-06 2.11097e-06
-1.3977e-06 2.11097e-06 -3.05327e-05
0.00095614 2.25922e-05 -1.71688e-07
2.25922e-05 0.000142951 -7.4069e-07
-1.71688e-07 -7.4069e-07 0.000136496
0.00211439 3.21518e-05 1.25959e-05
3.21518e-05 0.000812047 -4.4606e-06
1.25959e-05 -4.4606e-06 0.000830088
0.000647809 2.72547e-05 -4.51856e-07
2.72547e-05 -2.84826e-05 3.85337e-06
-4.51856e-07 3.85337e-06 -3.9925e-05
0.00224966 4.44494e-05 -7.6189e-06
4.44494e-05 0.00089621 1.19838e-06
-7.6189e-06 1.19838e-06 0.000911654
0.00233505 5.79835e-05 -2.21313e-05
5.79835e-05 0.000951503 4.23288e-06
-2.21313e-05 4.23288e-06 0.000964159
0.00175007 9.44518e-05 -2.10408e-06
9.44518e-05 -1.00328e-05 -3.07513e-07
-2.10408e-06 -3.07513e-07 -6.43142e-05
0.00173592 1.11847e-05 6.05655e-08
1.11847e-05 2.22714e-05 -5.6161e-07
6.05655e-08 -5.6161e-07 -4.19563e-05
0.00165582 5.65981e-05 7.76541e-06
5.65981e-05 -7.66871e-05 -9.84866e-07
7.76541e-06 -9.84866e-07 -9.02241e-05
0.00211273 0.000104459 2.11981e-05
0.000104459 -0.000110744 4.22794e-06
2.11981e-05 4.22794e-06 -0.000157948
0.00183774 9.93849e-06 -2.26106e-06
9.93849e-06 1.09339e-05 -2.55451e-07
-2.26106e-06 -2.55451e-07 -1.52844e-05
0.00183925 4.34348e-05 3.59352e-06
4.34348e-05 0.000139057 8.5007e-07
3.59352e-06 8.5007e-07 0.000147737
0.00267885 -3.30681e-06 -1.77571e-05
-3.30681e-06 0.000590407 2.7251e-08
-1.77571e-05 2.7251e-08 0.000560607
0.0027788 1.13355e-05 0.000138015
1.13355e-05 -8.41364e-05 -1.26979e-05
0.000138015 -1.26979e-05 -0.000324317
0.00226945 5.96412e-06 -1.00184e-05
5.96412e-06 0.000132301 -2.08884e-06
-1.00184e-05 -2.08884e-06 9.18789e-05
0.000730344 5.50682e-05 -5.23012e-07
5.50682e-05 5.50608e-05 -1.30436e-06
-5.23012e-07 -1.30436e-06 -8.22796e-06
0.000735717 -9.42543e-06 6.98398e-07
-9.42543e-06 6.04743e-05 -6.58829e-08
6.98398e-07 -6.58829e-08 -5.34823e-06
0.00069459 -6.50264e-05 4.48137e-08
-6.50264e-05 4.33507e-05 -8.77041e-07
4.48137e-08 -8.77041e-07 -3.6313e-05
0.000728116 -2.54345e-05 -1.09551e-06
-2.54345e-05 7.27326e-05 -2.88936e-07
-1.09551e-06 -2.88936e-07 -1.45153e-05
0.00190116 -9.48986e-05 -4.46724e-07
-9.48986e-05 2.76174e-05 2.82747e-07
-4.46724e-07 2.82747e-07 -1.02837e-05
0.00179275 -0.000156792 -2.68439e-06
-0.000156792 1.69381e-05 4.12614e-07
-2.68439e-06 4.12614e-07 -3.00761e-05
0.00183861 -0.000260437 -6.93318e-06
-0.000260437 3.83072e-05 5.95917e-07
-6.93318e-06 5.95917e-07 -4.257e-05
0.00128838 -0.000216446 2.81469e-06
-0.000216446 0.000282845 3.59162e-06
2.81469e-06 3.59162e-06 0.000120383
0.000101956 -0.000196007 5.5745e-06
-0.000196007 -0.000486697 -1.85903e-06
5.5745e-06 -1.85903e-06 -0.000744079
0.00199764 -0.000345006 1.39917e-06
-0.000345006 0.000248884 -3.18068e-06
1.39917e-06 -3.18068e-06 0.000104895
0.000612211 -0.000164115 -6.24765e-06
-0.000164115 -5.40557e-05 1.85678e-07
-6.24765e-06 1.85678e-07 -0.000209907
0.0012934 -9.43688e-05 -1.034e-06
-9.43688e-05 0.000418161 -2.12431e-06
-1.034e-06 -2.12431e-06 0.000256497
0.000733674 -8.89975e-05 -2.05068e-06
-8.89975e-05 5.38275e-05 1.11499e-06
-2.05068e-06 1.11499e-06 -6.94165e-05
0.00075287 -2.6115e-05 -9.40748e-07
-2.6115e-05 6.75095e-05 1.90164e-06
-9.40748e-07 1.90164e-06 -3.76341e-06
0.000682816 -6.66508e-05 -1.20815e-06
-6.66508e-05 5.02745e-05 6.13847e-08
-1.20815e-06 6.13847e-08 -6.66104e-05
0.000804341 -1.21788e-05 -1.23462e-06
-1.21788e-05 0.00011937 9.53502e-07
-1.23462e-06 9.53502e-07 1.54444e-05
0.000733849 2.56138e-06 1.53845e-07
2.56138e-06 6.33671e-05 9.82253e-07
1.53845e-07 9.82253e-07 -6.42004e-06
0.000650884 1.63508e-05 -1.08957e-06
1.63508e-05 2.84119e-05 2.75393e-06
-1.08957e-06 2.75393e-06 -6.77747e-05
0.00205475 -0.000146582 9.49256e-07
-0.000146582 0.000122268 4.51614e-07
9.49256e-07 4.51614e-07 9.4744e-05
0.000722563 3.72839e-06 7.73665e-07
3.72839e-06 6.81396e-05 -5.02505e-07
7.73665e-07 -5.02505e-07 -2.20262e-05
0.000682506 1.03522e-05 9.12279e-07
1.03522e-05 4.4741e-05 -1.76571e-07
9.12279e-07 -1.76571e-07 -5.36653e-05
0.000661657 6.17558e-05 -1.34967e-07
6.17558e-05 4.40832e-05 1.42841e-06
-1.34967e-07 1.42841e-06 -5.93554e-05
0.00190405 -0.000175352 -2.22388e-06
-0.000175352 3.08803e-05 -1.98125e-07
-2.22388e-06 -1.98125e-07 -5.91547e-06
0.00194965 -0.000342848 1.32306e-06
-0.000342848 9.49376e-05 -3.26752e-07
1.32306e-06 -3.26752e-07 -3.31312e-06
0.00111715 -0.000218717 -6.48431e-07
-0.000218717 0.000217708 -5.85384e-07
-6.48431e-07 -5.85384e-07 1.62014e-05
0.00238911 -0.000390887 -2.85379e-06
-0.000390887 0.000591182 1.20392e-06
-2.85379e-06 1.20392e-06 0.000394999
0.00100972 -4.63204e-05 -5.33854e-07
-4.63204e-05 0.000235857 2.52375e-07
-5.33854e-07 2.52375e-07 0.000121499
0.000686132 -5.72517e-05 -5.14423e-07
-5.72517e-05 3.443e-05 8.97857e-07
-5.14423e-07 8.97857e-07 -7.9698e-05
0.000927501 -0.000186892 3.01651e-06
-0.000186892 0.000248096 -7.44897e-07
3.01651e-06 -7.44897e-07 2.16492e-05
0.00099961 -0.000104878 7.07524e-07
-0.000104878 0.000260175 -3.77267e-07
7.07524e-07 -3.77267e-07 8.45639e-05
0.00200111 -0.000127968 -1.38996e-05
-0.000127968 6.56355e-05 2.91769e-06
-1.38996e-05 2.91769e-06 3.98975e-05
0.00214692 -0.00028757 -1.03501e-05
-0.00028757 9.97253e-05 1.53891e-06
-1.03501e-05 1.53891e-06 0.00011396
0.00245481 -0.000410618 -9.19019e-06
-0.000410618 0.000493211 -4.36124e-06
-9.19019e-06 -4.36124e-06 0.000336718
0.00157865 -0.000318024 -2.11857e-06
-0.000318024 0.000407981 2.35118e-06
-2.11857e-06 2.35118e-06 0.000210193
0.000661018 2.09633e-05 -7.39695e-07
2.09633e-05 4.6261e-05 -2.42262e-06
-7.39695e-07 -2.42262e-06 -6.69649e-05
0.000671872 -6.34852e-05 1.18207e-06
-6.34852e-05 5.29561e-05 -3.20614e-06
1.18207e-06 -3.20614e-06 -6.59311e-05
0.000675188 -5.97447e-05 1.01777e-06
-5.97447e-05 6.56066e-05 5.69707e-07
1.01777e-06 5.69707e-07 -5.8927e-05
0.000569548 -4.17705e-05 1.23864e-06
-4.17705e-05 0.000105213 -4.71068e-07
1.23864e-06 -4.71068e-07 -0.000157325
0.000519545 -0.000181072 2.52571e-05
-0.000181072 -0.00203649 -1.16881e-06
2.52571e-05 -1.16881e-06 -0.00251465
0.00100889 3.55763e-05 1.11952e-06
3.55763e-05 0.000229543 -2.30834e-06
1.11952e-06 -2.30834e-06 0.000127709
0.000457665 0.000111231 2.97811e-06
0.000111231 -7.84847e-05 9.66686e-07
2.97811e-06 9.66686e-07 -0.00022591
0.00167257 0.000125261 2.35473e-05
0.000125261 -3.88666e-05 2.85398e-06
2.35473e-05 2.85398e-06 -4.42615e-05
0.00206025 0.000308295 7.54427e-06
0.000308295 0.000184037 1.94079e-06
7.54427e-06 1.94079e-06 8.32729e-05
0.00154883 0.000320391 5.16785e-06
0.000320391 0.000153767 3.57959e-06
5.16785e-06 3.57959e-06 -6.97307e-05
0.000721578 0.000180269 4.63088e-06
0.000180269 -1.1881e-06 1.54588e-06
4.63088e-06 1.54588e-06 -0.000230284
0.0025262 0.000271166 3.09181e-05
0.000271166 0.000142975 6.70139e-06
3.09181e-05 6.70139e-06 -0.0001802
0.00102498 8.21997e-05 1.15006e-06
8.21997e-05 0.000252383 -4.2005e-07
1.15006e-06 -4.2005e-07 0.000129309
0.00233514 0.000229676 -8.07528e-06
0.000229676 0.000333802 -1.75002e-06
-8.07528e-06 -1.75002e-06 0.000342285
0.00105888 0.00018499 7.60405e-07
0.00018499 0.000247821 -2.81348e-07
7.60405e-07 -2.81348e-07 8.05762e-05
0.00119632 0.000256331 -1.82372e-07
0.000256331 0.00016034 -1.17395e-07
-1.82372e-07 -1.17395e-07 -7.80631e-05
0.00142811 0.000382588 -3.17408e-06
0.000382588 -7.523e-05 -1.53937e-06
-3.17408e-06 -1.53937e-06 -0.000248045
0.00294005 -0.000146292 -7.28562e-05
-0.000146292 -0.000502434 -2.30062e-05
-7.28562e-05 -2.30062e-05 -0.00141319
0.0044601 0.000349316 -3.0168e-07
0.000349316 0.000499278 -1.89583e-05
-3.0168e-07 -1.89583e-05 -0.000236048
0.000173701 0.000236516 2.81939e-06
0.000236516 -0.000538517 7.10529e-06
2.81939e-06 7.10529e-06 -0.000695248
-0.000753805 -0.000331715 8.06192e-05
-0.000331715 0.000483806 2.86961e-05
8.06192e-05 2.86961e-05 -0.000281885
-0.000663017 -0.00112093 -3.13555e-05
-0.00112093 -0.00145492 -4.88996e-05
-3.13555e-05 -4.88996e-05 0.000280396
0.00118877 0.000137291 -3.36765e-06
0.000137291 0.000345869 -3.77992e-06
-3.36765e-06 -3.77992e-06 0.000225783
0.000449347 0.00022926 2.4886e-05
0.00022926 0.000963902 -3.03728e-05
2.4886e-05 -3.03728e-05 0.000253041
0.00124042 -0.000420041 -7.0639e-05
-0.000420041 0.00130424 -8.94132e-05
-7.0639e-05 -8.94132e-05 0.000847282
0.00274803 0.000345169 -2.47119e-05
0.000345169 0.000617368 -8.43038e-06
-2.47119e-05 -8.43038e-06 0.000629718
0.00115146 0.000126835 -1.15535e-05
0.000126835 0.000293994 -2.39749e-06
-1.15535e-05 -2.39749e-06 0.000117156
0.000932885 0.000367467 -1.76409e-05
0.000367467 -3.80435e-05 -1.06566e-05
-1.76409e-05 -1.06566e-05 -0.000294964
-0.000178752 0.000282664 1.95527e-05
0.000282664 -0.000732491 5.15219e-05
1.95527e-05 5.15219e-05 -0.000790442
0.00874244 0.000222138 -3.95915e-05
0.000222138 0.00293348 -2.30492e-05
-3.95915e-05 -2.30492e-05 0.00148183
0.00371317 0.000643989 -5.22857e-06
0.000643989 0.000834327 1.1795e-05
-5.22857e-06 1.1795e-05 -0.000396738
0.000887279 -0.000936575 8.40214e-05
-0.000936575 -0.000451771 7.17689e-05
8.40214e-05 7.17689e-05 3.55129e-05
0.00212942 -0.000589913 -8.59175e-06
-0.000589913 -0.00164079 0.000101681
-8.59175e-06 0.000101681 -0.000242661
0.000776488 -1.7322e-05 1.11877e-06
-1.7322e-05 9.62999e-05 -9.80501e-07
1.11877e-06 -9.80501e-07 7.91156e-06
0.000901563 4.17975e-05 5.78782e-07
4.17975e-05 0.000154315 6.29317e-07
5.78782e-07 6.29317e-07 6.40127e-05
0.00122651 9.08218e-05 -1.97078e-06
9.08218e-05 0.000340655 -2.8476e-06
-1.97078e-06 -2.8476e-06 0.000266347
0.000713996 3.50203e-06 1.76318e-07
3.50203e-06 4.71622e-05 -1.60644e-07
1.76318e-07 -1.60644e-07 -3.01154e-05
0.00078642 2.34488e-05 -2.79648e-07
2.34488e-05 8.48956e-05 -5.09289e-07
-2.79648e-07 -5.09289e-07 -5.42168e-06
0.000644065 -2.31705e-05 -6.98313e-07
-2.31705e-05 -1.77709e-06 5.29263e-08
-6.98313e-07 5.29263e-08 -8.70646e-05
0.000857835 1.32212e-05 -4.94241e-07
1.32212e-05 0.000113685 3.73345e-07
-4.94241e-07 3.73345e-07 2.79135e-05
0.000822726 -1.21149e-05 -4.62084e-07
-1.21149e-05 8.54438e-05 7.17112e-07
-4.62084e-07 7.17112e-07 3.6712e-06
0.000590713 -1.9255e-06 4.55526e-07
-1.9255e-06 -3.20525e-05 6.17193e-07
4.55526e-07 6.17193e-07 -0.000106103
0.00085145 1.12105e-05 -3.5085e-08
1.12105e-05 0.000109415 -1.19509e-07
-3.5085e-08 -1.19509e-07 2.19733e-05
0.000861507 9.69877e-06 4.16475e-08
9.69877e-06 0.000117957 3.04086e-07
4.16475e-08 3.04086e-07 2.8301e-05
0.000758555 1.78547e-05 6.22616e-07
1.78547e-05 6.98491e-05 -3.2388e-07
6.22616e-07 -3.2388e-07 -2.40883e-05
0.000687718 1.55917e-05 -5.07266e-08
1.55917e-05 1.27772e-05 6.73509e-08
-5.07266e-08 6.73509e-08 -6.85085e-05
0.000964691 1.11778e-05 2.57641e-08
1.11778e-05 0.000169488 -1.1277e-06
2.57641e-08 -1.1277e-06 8.41739e-05
0.00058261 3.90933e-05 -1.37768e-06
3.90933e-05 -4.28408e-05 -5.38018e-06
-1.37768e-06 -5.38018e-06 -0.000126223
0.000824709 -6.49875e-05 -8.7788e-08
-6.49875e-05 9.36046e-05 -5.52268e-07
-8.7788e-08 -5.52268e-07 -9.81413e-07
0.00085041 -5.32622e-05 -6.48882e-07
-5.32622e-05 0.000125246 -6.62215e-07
-6.48882e-07 -6.62215e-07 2.93156e-05
0.000843902 -1.67928e-05 -5.07089e-07
-1.67928e-05 0.000120844 -2.82767e-07
-5.07089e-07 -2.82767e-07 2.88669e-05
0.000866226 3.48011e-05 -5.16171e-07
3.48011e-05 0.000123371 -2.81864e-07
-5.16171e-07 -2.81864e-07 3.7378e-05
0.000818118 1.67902e-05 -8.25983e-07
1.67902e-05 0.000107533 -1.32084e-06
-8.25983e-07 -1.32084e-06 7.36052e-06
0.000779207 4.23809e-05 7.07942e-07
4.23809e-05 8.32766e-05 -9.16347e-07
7.07942e-07 -9.16347e-07 -4.00902e-06
0.000635918 1.68287e-05 6.15442e-07
1.68287e-05 -1.66612e-05 -1.57569e-06
6.15442e-07 -1.57569e-06 -9.45847e-05
0.000678916 4.42595e-05 1.58844e-06
4.42595e-05 3.48137e-05 7.05533e-07
1.58844e-06 7.05533e-07 -5.4098e-05
0.000724532 -6.79382e-06 4.61194e-08
-6.79382e-06 4.76982e-05 -1.6029e-07
4.61194e-08 -1.6029e-07 -2.793e-05
0.000749463 -1.25853e-05 -1.82608e-07
-1.25853e-05 7.03036e-05 -3.65241e-09
-1.82608e-07 -3.65241e-09 -1.3785e-05
0.000723046 -1.55539e-05 -1.26475e-06
-1.55539e-05 3.47864e-05 4.47544e-07
-1.26475e-06 4.47544e-07 -2.81193e-05
0.000764164 -3.63612e-06 9.09777e-07
-3.63612e-06 6.56831e-05 -1.61027e-07
9.09777e-07 -1.61027e-07 -1.51171e-05
0.000694027 -4.65352e-05 -2.15687e-08
-4.65352e-05 2.32458e-05 8.45745e-08
-2.15687e-08 8.45745e-08 -4.55707e-05
0.000703476 1.04471e-05 -1.06711e-06
1.04471e-05 1.16274e-05 1.70926e-06
-1.06711e-06 1.70926e-06 -3.12817e-05
0.000599104 4.40341e-07 7.52059e-07
4.40341e-07 -2.30528e-05 -2.46622e-07
7.52059e-07 -2.46622e-07 -9.91158e-05
0.000689181 7.67035e-06 3.61484e-07
7.67035e-06 5.83326e-06 -2.47397e-08
3.61484e-07 -2.47397e-08 -3.72461e-05
0.00136347 1.67077e-05 -2.84559e-06
1.67077e-05 0.000375114 5.00278e-06
-2.84559e-06 5.00278e-06 0.000367683
0.000677249 1.06388e-05 1.59531e-07
1.06388e-05 3.08381e-07 -1.62265e-06
1.59531e-07 -1.62265e-06 -4.22838e-05
0.00100815 8.85708e-06 -1.52908e-06
8.85708e-06 0.000169538 7.59613e-07
-1.52908e-06 7.59613e-07 0.000160757
0.000883678 3.88749e-06 -3.44684e-06
3.88749e-06 9.97889e-05 4.77054e-06
-3.44684e-06 4.77054e-06 0.00011055
0.000656222 1.69542e-06 5.36876e-08
1.69542e-06 -3.34053e-05 -3.49333e-06
5.36876e-08 -3.49333e-06 -4.35458e-05
0.00225729 6.13682e-08 3.45709e-06
6.13682e-08 0.000886369 -1.62536e-09
3.45709e-06 -1.62536e-09 0.00090471
0.000897832 -3.73331e-06 -3.31521e-06
-3.73331e-06 0.000107472 -4.77811e-06
-3.31521e-06 -4.77811e-06 0.00011873
0.000742559 6.45867e-05 1.07914e-06
6.45867e-05 6.79254e-05 -5.21683e-07
1.07914e-06 -5.21683e-07 -1.0455e-06
0.000697616 1.28415e-05 -5.06283e-07
1.28415e-05 1.13238e-05 -1.9356e-06
-5.06283e-07 -1.9356e-06 -2.35725e-05
0.000687275 2.32591e-06 4.56262e-07
2.32591e-06 5.61377e-06 1.594e-08
4.56262e-07 1.594e-08 -2.9613e-05
0.000661002 7.03546e-06 -6.77056e-08
7.03546e-06 -3.102e-05 -3.50277e-06
-6.77056e-08 -3.50277e-06 -3.66342e-05
0.000704366 -1.06304e-05 -8.57162e-07
-1.06304e-05 1.45981e-05 2.05799e-06
-8.57162e-07 2.05799e-06 -2.21108e-05
0.000650156 1.33406e-05 2.5751e-10
1.33406e-05 -3.59049e-05 -7.50508e-07
2.5751e-10 -7.50508e-07 -4.22578e-05
0.00208566 2.11319e-05 8.39462e-06
2.11319e-05 0.000791658 -4.60137e-06
8.39462e-06 -4.60137e-06 0.00081101
0.00127263 2.76827e-05 -8.88411e-07
2.76827e-05 0.000324482 2.17583e-06
-8.88411e-07 2.17583e-06 0.000319362
0.00152963 2.75013e-05 3.43183e-07
2.75013e-05 0.000477891 1.46434e-06
3.43183e-07 1.46434e-06 0.000491968
0.000956065 3.0391e-05 -1.65573e-05
3.0391e-05 0.000155086 7.44239e-06
-1.65573e-05 7.44239e-06 0.000163454
0.00121804 5.94088e-05 4.11586e-05
5.94088e-05 -0.000507885 1.31876e-05
4.11586e-05 1.31876e-05 -0.000581092
0.00185685 3.83357e-06 2.0324e-06
3.83357e-06 1.86103e-05 1.35485e-07
2.0324e-06 1.35485e-07 -6.73104e-06
0.00183508 4.73257e-05 2.34412e-05
4.73257e-05 0.000145888 -1.32409e-06
2.34412e-05 -1.32409e-06 0.000146948
0.000808839 4.33745e-05 8.39297e-06
4.33745e-05 -0.000817361 -5.11363e-06
8.39297e-06 -5.11363e-06 -0.00108036
0.00173979 1.63406e-05 8.45399e-06
1.63406e-05 -0.000118522 1.11166e-06
8.45399e-06 1.11166e-06 -0.000133319
0.0021356 -1.22394e-05 -1.4298e-06
-1.22394e-05 0.000226858 -5.73077e-07
-1.4298e-06 -5.73077e-07 0.000200805
0.00298565 -2.95982e-05 -5.15095e-05
-2.95982e-05 0.000589878 5.40952e-06
-5.15095e-05 5.40952e-06 0.000578077
0.00277542 -9.7302e-05 0.000139389
-9.7302e-05 0.000251036 -1.13708e-05
0.000139389 -1.13708e-05 5.8545e-06
0.00772083 -0.000238484 -1.24119e-05
-0.000238484 0.00195477 1.66205e-05
-1.24119e-05 1.66205e-05 0.000826721
0.00643135 0.00098583 0.000135506
0.00098583 0.00317482 -5.87459e-05
0.000135506 -5.87459e-05 0.00334253
0.00258826 0.000969954 -1.94709e-06
0.000969954 0.00145156 1.55609e-05
-1.94709e-06 1.55609e-05 0.00246185
0.000458602 -6.48825e-05 1.75871e-06
-6.48825e-05 -8.66011e-05 -1.45712e-06
1.75871e-06 -1.45712e-06 -0.000168501
0.000731395 -8.57823e-06 9.47784e-07
-8.57823e-06 5.77047e-05 -6.89058e-08
9.47784e-07 -6.89058e-08 -6.93609e-06
0.000738654 -6.73377e-05 -1.23501e-06
-6.73377e-05 6.70441e-05 1.78594e-06
-1.23501e-06 1.78594e-06 -2.51934e-06
0.000689919 -2.37971e-05 -3.76454e-07
-2.37971e-05 4.3633e-05 1.31575e-07
-3.76454e-07 1.31575e-07 -3.92933e-05
0.000811675 6.29035e-05 4.93135e-08
6.29035e-05 0.000127064 1.81076e-07
4.93135e-08 1.81076e-07 2.52874e-05
0.000893551 0.000108124 9.0028e-07
0.000108124 0.000158266 6.99029e-07
9.0028e-07 6.99029e-07 6.17237e-05
0.000801826 -1.11598e-05 1.13187e-06
-1.11598e-05 0.000106777 -1.95451e-06
1.13187e-06 -1.95451e-06 2.10591e-05
0.000671927 -2.87534e-05 -6.40437e-07
-2.87534e-05 3.43363e-05 6.61009e-07
-6.40437e-07 6.61009e-07 -4.86104e-05
0.00200463 -0.000128881 7.38057e-06
-0.000128881 0.000117793 4.01679e-08
7.38057e-06 4.01679e-08 9.02017e-05
0.00200777 -0.000183943 1.73878e-06
-0.000183943 6.0735e-05 -1.39746e-06
1.73878e-06 -1.39746e-06 2.25691e-05
0.00161451 -0.000320567 -9.85837e-08
-0.000320567 -8.08236e-05 1.47649e-06
-9.85837e-08 1.47649e-06 -0.00017269
0.00111154 -0.000241702 3.4375e-06
-0.000241702 0.000196667 2.97887e-06
3.4375e-06 2.97887e-06 -4.51821e-06
0.00229532 -0.000386403 3.34518e-06
-0.000386403 0.000538975 4.56306e-07
3.34518e-06 4.56306e-07 0.000339158
0.000975673 -0.000193069 -9.68433e-07
-0.000193069 0.000272497 -1.49868e-06
-9.68433e-07 -1.49868e-06 4.74991e-05
0.00155386 -0.000166644 -1.26377e-06
-0.000166644 0.000569227 -4.03274e-07
-1.26377e-06 -4.03274e-07 0.000381558
0.000781881 -8.81368e-05 -1.83815e-06
-8.81368e-05 9.12712e-05 1.40403e-06
-1.83815e-06 1.40403e-06 -3.02694e-05
0.000786737 -2.00099e-05 -3.11767e-07
-2.00099e-05 0.000107427 2.24031e-06
-3.11767e-07 2.24031e-06 8.74827e-06
0.000982086 -6.78937e-06 -2.02866e-06
-6.78937e-06 0.000213231 -1.16709e-06
-2.02866e-06 -1.16709e-06 0.000103235
0.00099966 -9.32335e-06 9.60161e-07
-9.32335e-06 0.000226608 1.07569e-06
9.60161e-07 1.07569e-06 0.000137082
0.000714678 0.000111038 2.0674e-06
0.000111038 7.6139e-05 3.42898e-06
2.0674e-06 3.42898e-06 -2.73953e-05
0.00170773 -0.000127361 -3.43089e-07
-0.000127361 -7.85989e-05 -9.4031e-07
-3.43089e-07 -9.4031e-07 -9.90382e-05
0.000738825 3.0825e-05 -8.82714e-07
3.0825e-05 8.95738e-05 2.25673e-07
-8.82714e-07 2.25673e-07 -2.2044e-05
0.000814881 -5.40617e-05 -7.53137e-07
-5.40617e-05 0.00012887 6.16673e-08
-7.53137e-07 6.16673e-08 1.50206e-05
0.00190801 -0.000287352 1.93671e-07
-0.000287352 -6.357e-06 -1.63445e-06
1.93671e-07 -1.63445e-06 -9.35419e-06
0.00139981 -0.000342673 -5.0196e-07
-0.000342673 -5.26649e-05 2.446e-06
-5.0196e-07 2.446e-06 -0.000189595
0.00158373 -0.00031891 1.80649e-06
-0.00031891 0.000405792 -1.49985e-06
1.80649e-06 -1.49985e-06 0.000194035
0.000888607 -6.84313e-05 5.21167e-07
-6.84313e-05 0.000186608 -1.30225e-06
5.21167e-07 -1.30225e-06 5.15923e-05
0.000936243 -7.86754e-05 -2.85386e-07
-7.86754e-05 0.000290735 2.20224e-07
-2.85386e-07 2.20224e-07 3.98959e-05
0.0028078 -0.000190365 -1.51611e-05
-0.000190365 0.000654119 6.73278e-06
-1.51611e-05 6.73278e-06 0.000570241
0.00281663 -0.000387078 -2.03089e-05
-0.000387078 0.000548259 2.37131e-06
-2.03089e-05 2.37131e-06 0.000571047
0.000401014 -0.000305923 -5.93928e-06
-0.000305923 -0.000414116 -3.25269e-07
-5.93928e-06 -3.25269e-07 -0.000562443
0.000778394 -0.00019751 -3.28961e-06
-0.00019751 6.65963e-05 1.06023e-05
-3.28961e-06 1.06023e-05 -0.000155886
0.000664835 -9.89749e-05 6.19721e-07
-9.89749e-05 4.3768e-05 -1.20092e-06
6.19721e-07 -1.20092e-06 -7.40622e-05
0.000688773 -5.88881e-05 1.8147e-06
-5.88881e-05 6.97349e-05 -3.09006e-06
1.8147e-06 -3.09006e-06 -5.58883e-05
0.000817813 -2.56358e-05 1.46035e-07
-2.56358e-05 0.000196805 -1.10623e-06
1.46035e-07 -1.10623e-06 3.54354e-06
-0.0040392 -2.23046e-05 0.00017649
-2.23046e-05 -0.00217695 3.89303e-07
0.00017649 3.89303e-07 -0.00175573
0.00926232 -0.000105327 -1.82458e-05
-0.000105327 0.00294082 2.78787e-06
-1.82458e-05 2.78787e-06 0.00233091
0.00096164 6.86996e-05 2.66148e-06
6.86996e-05 0.000219936 -1.34917e-07
2.66148e-06 -1.34917e-07 9.98261e-05
0.000723466 0.000158854 4.12411e-06
0.000158854 6.79027e-05 -8.23323e-07
4.12411e-06 -8.23323e-07 -9.49833e-05
0.0020578 0.000215667 1.75865e-05
0.000215667 0.000181721 1.19832e-05
1.75865e-05 1.19832e-05 0.000201058
0.00228083 0.000435865 6.22903e-06
0.000435865 0.000350502 4.86105e-06
6.22903e-06 4.86105e-06 0.000185478
0.00135093 0.000276968 6.68338e-06
0.000276968 0.000252581 1.623e-06
6.68338e-06 1.623e-06 1.15691e-05
0.00717071 0.000345688 6.78911e-05
0.000345688 0.00169282 1.02442e-05
6.78911e-05 1.02442e-05 0.000638608
0.00628208 0.00050828 -0.000109696
0.00050828 0.00116603 -2.91535e-05
-0.000109696 -2.91535e-05 0.000540667
-0.000761723 0.000143998 2.58575e-06
0.000143998 -0.000964943 -1.94154e-05
2.58575e-06 -1.94154e-05 -0.00113528
0.00441822 -0.000781187 -1.28254e-05
-0.000781187 0.00225004 2.72763e-05
-1.28254e-05 2.72763e-05 0.00197136
-0.00611287 -0.00113692 -0.000197866
-0.00113692 -0.00352645 -0.000174073
-0.000197866 -0.000174073 -0.00163895
0.000955697 0.000133347 4.78577e-08
0.000133347 0.000225379 -1.40295e-06
4.78577e-08 -1.40295e-06 0.000104495
-0.00247461 -0.000312989 5.74306e-05
-0.000312989 -0.00157012 5.66221e-06
5.74306e-05 5.66221e-06 -0.00164202
-0.00127895 -0.000352955 -6.33654e-05
-0.000352955 0.000358706 -2.86474e-05
-6.33654e-05 -2.86474e-05 -0.00034902
0.00253722 0.000316321 -4.9132e-06
0.000316321 0.000475214 -1.58547e-06
-4.9132e-06 -1.58547e-06 0.00051122
0.000895996 0.0001451 -1.64679e-06
0.0001451 0.00018027 -9.05103e-08
-1.64679e-06 -9.05103e-08 -4.5104e-06
0.000701579 0.000309519 4.12034e-06
0.000309519 -0.000127498 1.78172e-06
4.12034e-06 1.78172e-06 -0.000379416
0.000664883 0.000227975 1.10825e-05
0.000227975 -0.000216998 9.91584e-06
1.10825e-05 9.91584e-06 -0.000205604
0.00766925 0.000148633 -2.29396e-05
0.000148633 0.00205371 -1.70507e-05
-2.29396e-05 -1.70507e-05 0.000496435
0.00636089 0.000818456 -4.24732e-05
0.000818456 0.00166631 -1.71854e-05
-4.24732e-05 -1.71854e-05 0.000839536
0.00725545 -0.00105313 5.07954e-05
-0.00105313 0.00341401 -2.6856e-05
5.07954e-05 -2.6856e-05 0.00357065
0.00180828 -0.000705572 6.87522e-05
-0.000705572 -0.00195658 0.000144466
6.87522e-05 0.000144466 -0.000474407
0.00135072 0.000106864 -1.15768e-05
0.000106864 0.000465774 -6.94413e-06
-1.15768e-05 -6.94413e-06 0.000363714
-0.00332888 7.35822e-06 -8.77409e-05
7.35822e-06 5.9367e-05 -3.26573e-05
-8.77409e-05 -3.26573e-05 -0.00121794
0.00221436 8.26923e-05 -9.82623e-05
8.26923e-05 0.000651155 -0.00012671
-9.82623e-05 -0.00012671 -0.000639068
-7.05262e-06 0.000254161 -1.84181e-05
0.000254161 -0.000532665 3.67937e-07
-1.84181e-05 3.67937e-07 -0.000539533
0.001618 0.000334015 -3.80077e-05
0.000334015 0.000635492 -1.05296e-05
-3.80077e-05 -1.05296e-05 0.000430367
0.00281191 0.000245823 -7.00964e-05
0.000245823 0.00120769 -5.21138e-06
-7.00964e-05 -5.21138e-06 0.000974293
0.00380725 0.000751994 -6.44458e-05
0.000751994 0.000537065 -1.16419e-05
-6.44458e-05 -1.16419e-05 0.000129529
-0.000873602 0.000269848 9.47047e-05
0.000269848 -0.000900194 7.15578e-05
9.47047e-05 7.15578e-05 -0.00316365
0.00766961 -0.00101818 -5.42354e-06
-0.00101818 0.00218153 0.000109501
-5.42354e-06 0.000109501 0.00212386
0.00252825 -0.000419487 -1.22155e-05
-0.000419487 -0.00205422 -2.84088e-05
-1.22155e-05 -2.84088e-05 -0.000686618
0.000950216 5.912e-05 1.98364e-06
5.912e-05 0.000190201 3.17698e-06
1.98364e-06 3.17698e-06 9.46085e-05
0.00113459 8.65629e-05 3.55791e-06
8.65629e-05 0.000286883 2.43205e-06
3.55791e-06 2.43205e-06 0.000211636
0.000444394 6.20802e-05 -5.21687e-07
6.20802e-05 -9.65719e-05 -7.31318e-06
-5.21687e-07 -7.31318e-06 -0.000153588
0.000578063 4.29556e-05 7.93305e-07
4.29556e-05 -3.9868e-05 -1.20881e-07
7.93305e-07 -1.20881e-07 -0.000113482
0.00081472 3.76168e-05 -7.48354e-07
3.76168e-05 0.000107896 -6.64916e-07
-7.48354e-07 -6.64916e-07 1.13107e-05
0.000837546 -1.2808e-05 -3.61741e-07
-1.2808e-05 0.000104647 8.23758e-07
-3.61741e-07 8.23758e-07 1.55869e-05
0.000839646 -9.69669e-06 4.85512e-07
-9.69669e-06 0.000105304 -1.33989e-07
4.85512e-07 -1.33989e-07 1.59362e-05
0.000700248 1.03043e-05 -2.87553e-07
1.03043e-05 1.91044e-05 2.60414e-06
-2.87553e-07 2.60414e-06 -6.10872e-05
0.000843372 3.45125e-05 1.59251e-07
3.45125e-05 0.000121954 -6.30145e-07
1.59251e-07 -6.30145e-07 2.57408e-05
0.000900286 1.07936e-05 -5.06252e-08
1.07936e-05 0.000132513 3.20911e-07
-5.06252e-08 3.20911e-07 4.71433e-05
0.00085433 -3.23489e-05 -4.68409e-08
-3.23489e-05 0.000113642 4.37408e-07
-4.68409e-08 4.37408e-07 1.69962e-05
0.000416582 2.36969e-05 5.70889e-07
2.36969e-05 -0.000129877 -5.28446e-07
5.70889e-07 -5.28446e-07 -0.000210495
0.000309325 7.2101e-06 1.72708e-06
7.2101e-06 -0.000142736 -4.60583e-06
1.72708e-06 -4.60583e-06 -0.00021732
0.000955683 -1.28027e-05 -1.57215e-06
-1.28027e-05 0.000169614 -3.18808e-06
-1.57215e-06 -3.18808e-06 7.69015e-05
0.000979841 -2.04042e-06 2.03152e-07
-2.04042e-06 0.000197872 -1.2531e-06
2.03152e-07 -1.2531e-06 9.08423e-05
0.000850897 -4.48713e-05 -1.30074e-08
-4.48713e-05 0.000127896 -3.90332e-07
-1.30074e-08 -3.90332e-07 3.31782e-05
0.000883857 3.58489e-06 -7.06599e-07
3.58489e-06 0.000128999 8.44748e-07
-7.06599e-07 8.44748e-07 4.51545e-05
0.000839022 -2.56271e-05 5.07685e-07
-2.56271e-05 0.00011221 -2.96063e-07
5.07685e-07 -2.96063e-07 1.63328e-05
0.000789077 3.82295e-05 -1.79955e-07
3.82295e-05 8.66425e-05 -7.15317e-08
-1.79955e-07 -7.15317e-08 3.179e-07
0.000724657 -1.02591e-05 -1.89359e-07
-1.02591e-05 3.37576e-05 5.37129e-07
-1.89359e-07 5.37129e-07 -4.42488e-05
0.000710388 4.7921e-05 1.10225e-06
4.7921e-05 4.63741e-05 -5.83788e-08
1.10225e-06 -5.83788e-08 -3.90939e-05
0.00059572 1.15471e-05 -1.35105e-08
1.15471e-05 -2.76436e-05 -2.53822e-06
-1.35105e-08 -2.53822e-06 -0.000117151
0.0006823 2.19324e-06 1.47342e-06
2.19324e-06 2.02914e-05 -1.33088e-06
1.47342e-06 -1.33088e-06 -5.59294e-05
0.000842573 1.73399e-05 2.87499e-06
1.73399e-05 0.000107415 -2.40858e-06
2.87499e-06 -2.40858e-06 1.61118e-05
0.000282054 -3.36451e-05 7.39407e-07
-3.36451e-05 -0.000162391 1.64004e-07
7.39407e-07 1.64004e-07 -0.000294772
0.000394225 3.70041e-05 7.60971e-08
3.70041e-05 -0.000111261 -2.08354e-07
7.60971e-08 -2.08354e-07 -0.000208524
0.000754264 3.62744e-05 4.34719e-07
3.62744e-05 7.62857e-05 4.65694e-07
4.34719e-07 4.65694e-07 -1.27955e-05
0.000707018 2.73616e-05 1.48372e-07
2.73616e-05 4.12771e-05 3.21655e-07
1.48372e-07 3.21655e-07 -3.56616e-05
0.000755382 1.52513e-06 -4.43796e-08
1.52513e-06 7.26159e-05 3.40433e-09
-4.43796e-08 3.40433e-09 -8.3754e-06
0.000692901 1.8135e-05 -6.09441e-07
1.8135e-05 2.23698e-05 4.32766e-07
-6.09441e-07 4.32766e-07 -4.18708e-05
0.000783544 2.77453e-06 2.32191e-07
2.77453e-06 8.79823e-05 3.34429e-07
2.32191e-07 3.34429e-07 4.93316e-06
0.000736993 -1.86032e-05 -2.10207e-07
-1.86032e-05 4.72166e-05 9.25532e-09
-2.10207e-07 9.25532e-09 -1.88204e-05
0.000680589 3.18861e-05 -8.26611e-07
3.18861e-05 -9.09568e-07 1.70312e-06
-8.26611e-07 1.70312e-06 -4.44491e-05
0.000648341 -3.83133e-05 9.37992e-07
-3.83133e-05 -5.98979e-06 -4.24458e-07
9.37992e-07 -4.24458e-07 -7.35979e-05
0.000690632 1.3816e-05 -1.84549e-07
1.3816e-05 4.41172e-06 -2.04092e-08
-1.84549e-07 -2.04092e-08 -3.85641e-05
0.00136209 2.52183e-05 -4.9073e-06
2.52183e-05 0.000376418 4.96292e-06
-4.9073e-06 4.96292e-06 0.000368514
0.000682167 -4.84392e-06 7.70316e-07
-4.84392e-06 1.6039e-06 -1.63349e-06
7.70316e-07 -1.63349e-06 -4.13048e-05
0.00100457 1.62184e-05 -2.41722e-06
1.62184e-05 0.000169096 7.30279e-07
-2.41722e-06 7.30279e-07 0.000159924
0.000831971 1.35638e-05 -4.83827e-07
1.35638e-05 7.16919e-05 1.85796e-06
-4.83827e-07 1.85796e-06 8.21371e-05
0.000643171 7.69986e-06 2.93043e-07
7.69986e-06 -4.01786e-05 -3.5391e-06
2.93043e-07 -3.5391e-06 -5.06822e-05
0.00226554 1.11293e-05 3.09019e-06
1.11293e-05 0.000891857 3.26661e-08
3.09019e-06 3.26661e-08 0.00090991
0.00226132 1.29765e-06 1.56745e-07
1.29765e-06 0.000888707 -4.91829e-06
1.56745e-07 -4.91829e-06 0.000906978
0.00103829 6.28039e-05 -1.32761e-06
6.28039e-05 0.000229594 -1.18904e-06
-1.32761e-06 -1.18904e-06 0.000163579
0.000710502 1.22254e-05 -7.02772e-07
1.22254e-05 1.79833e-05 -2.04382e-06
-7.02772e-07 -2.04382e-06 -1.7873e-05
0.000718091 9.00431e-07 6.36623e-07
9.00431e-07 5.27404e-05 7.25309e-07
6.36623e-07 7.25309e-07 -1.49873e-05
0.000660165 8.01766e-07 -1.90042e-07
8.01766e-07 -3.24347e-05 -3.56297e-06
-1.90042e-07 -3.56297e-06 -3.77389e-05
0.00069528 -6.91783e-07 2.65623e-07
-6.91783e-07 9.66856e-06 -3.07985e-08
2.65623e-07 -3.07985e-08 -2.50364e-05
0.000695436 -9.59148e-06 -7.10632e-07
-9.59148e-06 9.99023e-06 1.94482e-06
-7.10632e-07 1.94482e-06 -2.5192e-05
0.00065986 7.16657e-06 -1.52358e-07
7.16657e-06 -3.1769e-05 -1.06647e-08
-1.52358e-07 -1.06647e-08 -3.73792e-05
0.00208215 1.02187e-05 4.02394e-06
1.02187e-05 0.000787256 -4.71409e-06
4.02394e-06 -4.71409e-06 0.000807291
0.00126035 1.86008e-05 -6.06691e-07
1.86008e-05 0.000314014 2.14269e-06
-6.06691e-07 2.14269e-06 0.000310836
0.00146933 1.83802e-05 1.93372e-06
1.83802e-05 0.000438265 7.52784e-08
1.93372e-06 7.52784e-08 0.000454133
0.000910289 2.18018e-05 -1.45784e-05
2.18018e-05 0.000122289 7.28244e-06
-1.45784e-05 7.28244e-06 0.000133546
-0.00666868 0.000167163 0.000113252
0.000167163 -0.00316805 -1.2836e-06
0.000113252 -1.2836e-06 -0.00356957
-0.0018877 0.000176039 9.20252e-05
0.000176039 0.0003142 2.1614e-05
9.20252e-05 2.1614e-05 -0.000324176
0.00390717 8.62424e-05 -0.000165869
8.62424e-05 0.000697493 2.13491e-06
-0.000165869 2.13491e-06 0.000445368
0.00116624 2.362e-05 3.41141e-05
2.362e-05 -0.000371897 1.8312e-06
3.41141e-05 1.8312e-06 -0.000390092
0.00150011 -2.01847e-05 1.39984e-05
-2.01847e-05 -0.000189495 2.83172e-07
1.39984e-05 2.83172e-07 -0.000213069
0.000898667 2.74945e-05 1.49045e-05
2.74945e-05 -0.000573863 -2.51419e-06
1.49045e-05 -2.51419e-06 -0.000688611
0.00227169 -5.39783e-05 2.18689e-06
-5.39783e-05 0.000198989 2.01661e-06
2.18689e-06 2.01661e-06 0.000160663
0.00735616 0.000145594 1.28843e-05
0.000145594 0.00172356 -2.29386e-05
1.28843e-05 -2.29386e-05 0.000805733
-0.00352988 0.000482993 -2.9876e-05
0.000482993 -0.00126463 -3.16599e-06
-2.9876e-05 -3.16599e-06 -0.00175356
-0.00177075 0.00102746 -4.48405e-05
0.00102746 -0.00106136 1.78129e-05
-4.48405e-05 1.78129e-05 0.000453218
0.00142983 -0.000144075 4.65001e-05
-0.000144075 -0.000369541 1.21777e-05
4.65001e-05 1.21777e-05 -0.000664745
0.00835285 7.40416e-05 3.73614e-05
7.40416e-05 0.00254737 -1.52907e-05
3.73614e-05 -1.52907e-05 0.00122962
0.000540189 0.000903091 5.67669e-05
0.000903091 -0.000516927 -0.00011096
5.67669e-05 -0.00011096 0.000125772
0.00437134 0.000752438 -9.16354e-05
0.000752438 -6.12357e-05 7.26875e-05
-9.16354e-05 7.26875e-05 0.000812352
0.000741556 6.47633e-05 -1.18176e-06
6.47633e-05 8.54507e-05 -7.12256e-07
-1.18176e-06 -7.12256e-07 -2.26395e-05
0.000621251 1.07277e-05 -2.33764e-07
1.07277e-05 1.57846e-06 -6.10289e-07
-2.33764e-07 -6.10289e-07 -7.79805e-05
0.000729588 -7.05334e-05 -9.14412e-07
-7.05334e-05 6.07513e-05 1.39202e-06
-9.14412e-07 1.39202e-06 -6.87241e-06
0.00062913 1.78782e-06 1.87613e-07
1.78782e-06 1.32999e-05 1.16547e-06
1.87613e-07 1.16547e-06 -7.33476e-05
0.000770125 6.54711e-05 9.73434e-07
6.54711e-05 0.00010482 1.36572e-06
9.73434e-07 1.36572e-06 3.63313e-06
0.000895716 6.56356e-05 -5.35275e-07
6.56356e-05 0.00016363 -2.8631e-07
-5.35275e-07 -2.8631e-07 5.90691e-05
0.000828907 7.72991e-05 1.61053e-06
7.72991e-05 0.000125807 1.51939e-06
1.61053e-06 1.51939e-06 2.68186e-05
0.000721637 -2.27231e-06 9.86966e-07
-2.27231e-06 5.49807e-05 -6.11447e-07
9.86966e-07 -6.11447e-07 -3.43643e-05
0.00070554 -1.77836e-05 4.50894e-07
-1.77836e-05 5.55227e-05 -8.79205e-07
4.50894e-07 -8.79205e-07 -3.36305e-05
0.000609029 -1.24355e-05 -2.31197e-07
-1.24355e-05 -6.93172e-06 1.35586e-06
-2.31197e-07 1.35586e-06 -8.66414e-05
0.00116717 -0.000121155 1.11747e-05
-0.000121155 -0.000364845 -2.78569e-06
1.11747e-05 -2.78569e-06 -0.000380979
0.00185418 -0.000289965 1.09958e-05
-0.000289965 -5.92655e-06 -1.07177e-06
1.09958e-05 -1.07177e-06 -3.05833e-05
0.000313086 -0.000270467 9.62777e-06
-0.000270467 -0.000615285 3.46451e-06
9.62777e-06 3.46451e-06 -0.000731118
0.00149448 -0.000314468 2.37782e-06
-0.000314468 0.00035795 -4.99662e-07
2.37782e-06 -4.99662e-07 0.000135203
0.00141535 -0.000119614 -4.11304e-08
-0.000119614 0.000533655 7.51528e-07
-4.11304e-08 7.51528e-07 0.000299148
0.0010855 -9.39197e-05 -1.11285e-06
-9.39197e-05 0.000299991 4.09153e-07
-1.11285e-06 4.09153e-07 0.000153837
0.000915009 -4.42375e-05 -1.05992e-06
-4.42375e-05 0.000178467 1.13702e-06
-1.05992e-06 1.13702e-06 7.15172e-05
0.00073396 3.80966e-05 -1.11816e-06
3.80966e-05 8.61671e-05 2.17979e-06
-1.11816e-06 2.17979e-06 -2.27026e-05
0.00154861 -0.000156265 -2.30759e-06
-0.000156265 -2.3139e-05 2.5491e-07
-2.30759e-06 2.5491e-07 -8.02028e-05
0.000636035 -3.8523e-05 -1.55407e-07
-3.8523e-05 2.95973e-05 5.06532e-08
-1.55407e-07 5.06532e-08 -8.94403e-05
0.000669532 -5.30423e-05 7.35433e-07
-5.30423e-05 6.06124e-05 -9.98689e-07
7.35433e-07 -9.98689e-07 -6.77916e-05
0.00185564 -0.000339859 5.00682e-06
-0.000339859 6.06947e-05 -1.65535e-06
5.00682e-06 -1.65535e-06 7.75959e-05
0.000489596 -0.00030806 1.54981e-06
-0.00030806 -0.000347276 1.72909e-06
1.54981e-06 1.72909e-06 -0.000488776
0.000995709 -0.000218804 4.75531e-06
-0.000218804 0.000177603 -2.05791e-06
4.75531e-06 -2.05791e-06 -5.02241e-05
0.00117047 -6.90355e-05 -4.31379e-07
-6.90355e-05 0.000382824 -1.33027e-06
-4.31379e-07 -1.33027e-06 0.000189319
0.000514922 -0.000207803 -4.33091e-06
-0.000207803 -0.000260054 -1.23814e-06
-4.33091e-06 -1.23814e-06 -0.00049669
0.00153031 -0.000288589 -2.16912e-05
-0.000288589 0.000228323 5.53924e-06
-2.16912e-05 5.53924e-06 0.000177727
0.000189527 -8.30702e-05 -1.41681e-05
-8.30702e-05 -0.000137896 2.44283e-05
-1.41681e-05 2.44283e-05 -0.000359925
0.000606438 3.28274e-05 1.45796e-07
3.28274e-05 8.17303e-06 6.49892e-07
1.45796e-07 6.49892e-07 -0.000107119
0.000611331 -9.31068e-05 1.56869e-06
-9.31068e-05 2.40833e-05 -1.64075e-06
1.56869e-06 -1.64075e-06 -0.000105199
0.00078197 -4.59001e-05 1.24782e-06
-4.59001e-05 0.000127598 -2.535e-06
1.24782e-06 -2.535e-06 -1.72679e-05
0.000881184 6.43683e-05 -0.0001173
6.43683e-05 0.00224063 4.09423e-07
-0.0001173 4.09423e-07 0.00146262
0.00208925 -0.000180111 1.46587e-05
-0.000180111 0.00140355 1.09285e-05
1.46587e-05 1.09285e-05 0.00127424
0.000169425 0.000401591 -5.93565e-05
0.000401591 -0.00231492 2.58977e-05
-5.93565e-05 2.58977e-05 -0.00288399
0.000809543 0.000122434 4.26774e-06
0.000122434 0.000151469 1.84998e-06
4.26774e-06 1.84998e-06 3.29038e-05
0.000645815 0.000161357 7.07824e-06
0.000161357 6.4645e-05 4.29915e-06
7.07824e-06 4.29915e-06 -0.000125364
0.0023619 0.000285651 1.40682e-05
0.000285651 0.000364381 7.60998e-06
1.40682e-05 7.60998e-06 0.000411138
0.000863828 0.000260563 1.29512e-05
0.000260563 -1.72227e-05 8.0617e-06
1.29512e-05 8.0617e-06 -0.000265558
0.00504691 -0.000418168 4.47592e-05
-0.000418168 0.0020942 2.58745e-05
4.47592e-05 2.58745e-05 0.00219217
-0.000546762 -7.63913e-05 -6.98197e-05
-7.63913e-05 -0.00191164 -2.38562e-06
-6.98197e-05 -2.38562e-06 -0.0033185
0.00343034 0.00074158 -8.91991e-05
0.00074158 -8.65087e-05 -3.15054e-05
-8.91991e-05 -3.15054e-05 -0.00092815
0.000570088 0.000143052 2.65722e-05
0.000143052 -0.00017735 -1.61779e-05
2.65722e-05 -1.61779e-05 -0.000148216
-0.00428458 -0.000478573 -2.29458e-05
-0.000478573 -0.00164401 -4.33319e-05
-2.29458e-05 -4.33319e-05 -0.00175082
0.000265511 -0.000449127 3.34591e-06
-0.000449127 0.000585715 1.99028e-05
3.34591e-06 1.99028e-05 -0.000128935
0.00606007 -0.000926821 0.000110073
-0.000926821 0.000278024 9.19114e-05
0.000110073 9.19114e-05 0.0018357
0.000763511 9.00033e-05 3.73297e-06
9.00033e-05 0.000152773 -2.1971e-06
3.73297e-06 -2.1971e-06 4.4674e-05
-0.000827036 -7.87464e-05 -4.52754e-05
-7.87464e-05 0.000986612 -1.52583e-05
-4.52754e-05 -1.52583e-05 -1.8273e-05
0.00248643 9.4492e-05 -5.26199e-06
9.4492e-05 0.000795204 -3.13506e-05
-5.26199e-06 -3.13506e-05 -0.00053573
0.000774551 0.000239894 -8.57591e-06
0.000239894 -7.40344e-05 3.54797e-06
-8.57591e-06 3.54797e-06 -0.000132226
0.000703057 0.000187262 3.55072e-07
0.000187262 0.000173204 1.46578e-06
3.55072e-07 1.46578e-06 -3.4936e-05
0.000293312 0.000186356 3.59865e-05
0.000186356 -0.000132907 -2.47454e-05
3.59865e-05 -2.47454e-05 -0.00030063
0.00530385 0.000947989 -1.28544e-05
0.000947989 0.00146778 7.16734e-07
-1.28544e-05 7.16734e-07 0.000680251
0.00968982 5.43754e-05 4.15584e-05
5.43754e-05 0.00364128 1.35664e-05
4.15584e-05 1.35664e-05 0.00196164
0.00171566 -0.000633222 7.51493e-06
-0.000633222 -0.00116311 -1.43889e-05
7.51493e-06 -1.43889e-05 -0.00101
0.00685086 -0.000583877 6.79589e-06
-0.000583877 0.000752686 -1.6367e-05
6.79589e-06 -1.6367e-05 0.00205098
0.000568524 0.000117426 -1.12942e-05
0.000117426 8.91596e-05 -7.96472e-06
-1.12942e-05 -7.96472e-06 3.79618e-06
0.00189658 -2.21049e-05 -8.39482e-05
-2.21049e-05 0.000418903 -3.63196e-05
-8.39482e-05 -3.63196e-05 -0.000480874
0.000841774 5.3952e-05 -1.43449e-05
5.3952e-05 0.000242666 -7.08686e-05
-1.43449e-05 -7.08686e-05 -0.00083294
-0.000966771 1.68697e-05 -2.30425e-05
1.68697e-05 -0.000509143 -1.67523e-05
-2.30425e-05 -1.67523e-05 -0.000640217
0.00253311 0.000364839 2.45994e-06
0.000364839 0.000685782 5.18123e-05
2.45994e-06 5.18123e-05 0.000104701
0.00909118 0.000320481 3.12883e-05
0.000320481 0.00368361 -7.93524e-09
3.12883e-05 -7.93524e-09 0.0014137
-0.00675623 -0.000806701 -4.17098e-05
-0.000806701 -0.00419713 4.0805e-05
-4.17098e-05 4.0805e-05 -0.00537288
0.00523366 0.000218518 -1.68121e-07
0.000218518 -0.000722044 -0.000100845
-1.68121e-07 -0.000100845 0.000768611
0.000989288 7.50382e-05 2.03687e-06
7.50382e-05 0.000200826 5.70351e-06
2.03687e-06 5.70351e-06 0.000127081
0.000920946 9.33112e-05 -4.33026e-06
9.33112e-05 0.000178108 -8.59362e-07
-4.33026e-06 -8.59362e-07 0.000118005
0.0015083 8.4943e-05 -5.73738e-06
8.4943e-05 0.000561126 -4.67001e-06
-5.73738e-06 -4.67001e-06 0.000507293
0.000836785 7.12331e-05 -1.57575e-06
7.12331e-05 0.00011047 -6.6648e-07
-1.57575e-06 -6.6648e-07 1.94827e-05
0.000906531 -3.51244e-05 -2.67899e-07
-3.51244e-05 0.000150901 1.42279e-06
-2.67899e-07 1.42279e-06 4.91251e-05
0.000831196 1.84746e-05 1.32108e-07
1.84746e-05 9.33157e-05 1.33375e-06
1.32108e-07 1.33375e-06 7.28693e-06
0.000334527 1.3649e-05 7.22732e-08
1.3649e-05 -0.000168742 3.54021e-06
7.22732e-08 3.54021e-06 -0.000247848
0.000887831 5.52666e-07 6.78128e-07
5.52666e-07 0.000134161 6.15843e-08
6.78128e-07 6.15843e-08 3.62383e-05
0.000878735 1.79473e-06 -1.27802e-07
1.79473e-06 0.000128003 -1.81574e-07
-1.27802e-07 -1.81574e-07 3.49004e-05
0.000430507 1.74543e-06 2.84469e-07
1.74543e-06 -7.2364e-05 5.97112e-07
2.84469e-07 5.97112e-07 -0.00014816
-3.7351e-05 7.51578e-06 -2.63906e-06
7.51578e-06 -0.000237203 -4.54007e-06
-2.63906e-06 -4.54007e-06 -0.000298228
0.000939826 -2.4052e-05 2.0723e-06
-2.4052e-05 0.000204744 -5.56398e-06
2.0723e-06 -5.56398e-06 0.000123923
0.000923721 3.35211e-05 3.80069e-08
3.35211e-05 0.000158068 -2.98751e-06
3.80069e-08 -2.98751e-06 6.00806e-05
0.000869262 -6.65036e-05 8.21039e-07
-6.65036e-05 0.000120747 7.13297e-07
8.21039e-07 7.13297e-07 2.98703e-05
0.000778299 4.1185e-05 -7.42186e-07
4.1185e-05 7.87749e-05 4.29778e-07
-7.42186e-07 4.29778e-07 -6.63245e-06
0.000816188 -1.7185e-05 -1.33016e-06
-1.7185e-05 8.58004e-05 1.92518e-06
-1.33016e-06 1.92518e-06 7.94348e-06
0.000666171 2.0186e-06 5.34354e-07
2.0186e-06 5.68916e-06 4.59591e-07
5.34354e-07 4.59591e-07 -7.94717e-05
0.000756047 4.39253e-05 3.24857e-07
4.39253e-05 7.25805e-05 2.26152e-07
3.24857e-07 2.26152e-07 -1.37063e-05
0.000803411 1.87685e-05 -5.45315e-07
1.87685e-05 8.73923e-05 2.60644e-07
-5.45315e-07 2.60644e-07 1.06102e-05
0.000933687 3.09257e-05 1.62712e-06
3.09257e-05 0.000161256 -1.79373e-06
1.62712e-06 -1.79373e-06 7.95146e-05
0.000544298 -2.84969e-06 2.56425e-06
-2.84969e-06 -3.84243e-05 -3.13632e-06
2.56425e-06 -3.13632e-06 -0.000106007
0.00063245 -7.60301e-05 1.56614e-06
-7.60301e-05 -2.78417e-05 -7.04198e-07
1.56614e-06 -7.04198e-07 -0.000119219
0.000907637 -3.43456e-06 -1.18934e-06
-3.43456e-06 0.000147906 -2.6004e-07
-1.18934e-06 -2.6004e-07 5.43425e-05
0.000523611 -5.06553e-05 2.41141e-06
-5.06553e-05 -3.17872e-05 1.56944e-06
2.41141e-06 1.56944e-06 -0.000154739
0.0010028 -0.000169839 -2.66048e-07
-0.000169839 0.000210426 4.09187e-06
-2.66048e-07 4.09187e-06 3.37832e-05
0.00117777 -5.92066e-05 1.36971e-06
-5.92066e-05 0.000328961 -1.1072e-06
1.36971e-06 -1.1072e-06 0.000216654
0.000470668 -5.2138e-05 -9.14139e-07
-5.2138e-05 -4.60247e-05 -2.88654e-06
-9.14139e-07 -2.88654e-06 -0.000176938
0.000695763 2.9589e-05 -5.35072e-07
2.9589e-05 5.25628e-05 -6.09976e-07
-5.35072e-07 -6.09976e-07 -4.23203e-05
0.000467761 2.67863e-05 8.35776e-07
2.67863e-05 -8.56296e-05 6.09883e-07
8.35776e-07 6.09883e-07 -0.00016963
0.000833643 2.31197e-05 -3.93311e-07
2.31197e-05 0.00011953 3.71979e-07
-3.93311e-07 3.71979e-07 3.04263e-05
0.000771563 -2.68942e-06 -5.31651e-07
-2.68942e-06 8.21445e-05 4.1922e-07
-5.31651e-07 4.1922e-07 1.00702e-06
0.000700296 1.69603e-05 -7.6293e-07
1.69603e-05 2.59446e-05 5.35423e-07
-7.6293e-07 5.35423e-07 -3.73496e-05
0.000811812 -2.52664e-05 4.25234e-07
-2.52664e-05 0.000112032 1.19849e-07
4.25234e-07 1.19849e-07 2.5e-05
0.000737803 -2.05625e-05 -3.9651e-07
-2.05625e-05 4.90642e-05 4.56948e-08
-3.9651e-07 4.56948e-08 -1.66874e-05
0.000683211 3.62668e-05 -1.24315e-06
3.62668e-05 2.34204e-06 1.66176e-06
-1.24315e-06 1.66176e-06 -4.16896e-05
0.000773326 -4.79101e-05 1.26432e-06
-4.79101e-05 7.02548e-05 -4.66291e-07
1.26432e-06 -4.66291e-07 2.27959e-06
0.000705551 1.57676e-05 -2.8888e-07
1.57676e-05 1.17871e-05 -4.2422e-09
-2.8888e-07 -4.2422e-09 -3.10142e-05
0.0013532 3.40297e-05 -6.92606e-06
3.40297e-05 0.000374394 4.89287e-06
-6.92606e-06 4.89287e-06 0.000365969
0.000700247 -3.31077e-06 1.35282e-06
-3.31077e-06 9.28487e-06 -1.58816e-06
1.35282e-06 -1.58816e-06 -3.34076e-05
0.00100297 2.39341e-05 -3.28149e-06
2.39341e-05 0.00017054 6.88955e-07
-3.28149e-06 6.88955e-07 0.000160922
0.000830622 2.09716e-05 -9.34961e-07
2.09716e-05 7.51821e-05 1.82321e-06
-9.34961e-07 1.82321e-06 8.47678e-05
0.000631835 1.41464e-05 4.25536e-07
1.41464e-05 -4.49636e-05 -3.57569e-06
4.25536e-07 -3.57569e-06 -5.5836e-05
0.00155203 1.94487e-05 5.16482e-06
1.94487e-05 0.000484616 -1.42464e-06
5.16482e-06 -1.42464e-06 0.000498576
0.0022754 1.30452e-05 4.57472e-06
1.30452e-05 0.000897875 -4.8469e-06
4.57472e-06 -4.8469e-06 0.000915785
0.000787978 -9.54345e-06 6.08022e-07
-9.54345e-06 8.09955e-05 -1.21345e-06
6.08022e-07 -1.21345e-06 1.41558e-05
0.000723271 6.22905e-06 -3.89205e-07
6.22905e-06 2.40621e-05 -2.06403e-06
-3.89205e-07 -2.06403e-06 -1.30782e-05
0.000782409 -1.87131e-06 5.90294e-07
-1.87131e-06 8.35391e-05 1.40567e-07
5.90294e-07 1.40567e-07 1.75429e-05
0.000659985 -5.5555e-06 -2.76713e-07
-5.5555e-06 -3.25645e-05 -3.59731e-06
-2.76713e-07 -3.59731e-06 -3.81847e-05
0.000698149 6.32348e-06 2.52574e-08
6.32348e-06 1.08369e-05 -2.55358e-08
2.52574e-08 -2.55358e-08 -2.47934e-05
0.000706239 -6.04802e-05 -2.39073e-06
-6.04802e-05 4.15322e-05 1.92681e-06
-2.39073e-06 1.92681e-06 -2.24935e-05
0.002082 -6.65844e-07 -4.88118e-07
-6.65844e-07 0.000786257 -4.73132e-06
-4.88118e-07 -4.73132e-06 0.000806541
0.000661111 9.32598e-07 -1.35118e-07
9.32598e-07 -3.18914e-05 -1.63021e-09
-1.35118e-07 -1.63021e-09 -3.71843e-05
0.000681919 -9.01222e-06 -4.82835e-07
-9.01222e-06 1.94682e-06 1.93163e-06
-4.82835e-07 1.93163e-06 -3.27097e-05
0.000659537 7.31496e-06 -5.2003e-08
7.31496e-06 -3.20398e-05 3.53662e-06
-5.2003e-08 3.53662e-06 -3.76549e-05
0.0020885 1.13063e-05 -3.08998e-06
1.13063e-05 0.000791083 -3.16249e-08
-3.08998e-06 -3.16249e-08 0.000811052
0.00209629 2.15639e-05 -1.0999e-05
2.15639e-05 0.000797956 4.50417e-06
-1.0999e-05 4.50417e-06 0.000817299
-0.00248745 -5.28863e-05 -4.94386e-05
-5.28863e-05 0.000353777 1.07269e-05
-4.94386e-05 1.07269e-05 -0.000722816
-0.00114069 0.000310335 -2.57275e-05
0.000310335 -0.000492808 6.71831e-06
-2.57275e-05 6.71831e-06 -0.00076695
0.00260619 -9.06005e-05 -0.000124085
-9.06005e-05 0.000550011 0.000103445
-0.000124085 0.000103445 -0.000665113
-0.00243049 0.000211864 0.000148428
0.000211864 0.000364288 -6.46348e-05
0.000148428 -6.46348e-05 -0.000145543
0.00228434 0.000137156 -9.74972e-05
0.000137156 2.48977e-06 1.61717e-05
-9.74972e-05 1.61717e-05 -0.000240016
0.00192131 -8.52238e-05 7.47566e-05
-8.52238e-05 -6.95574e-06 -1.0607e-05
7.47566e-05 -1.0607e-05 -4.86767e-05
0.0019189 -0.000391834 -9.18885e-05
-0.000391834 -0.000987149 -4.55932e-05
-9.18885e-05 -4.55932e-05 -0.00188148
0.00751311 0.000582255 -6.73961e-06
0.000582255 0.00369265 -1.54434e-05
-6.73961e-06 -1.54434e-05 0.00350989
-0.00615882 0.00111269 -0.000194102
0.00111269 -0.00366903 0.00017353
-0.000194102 0.00017353 -0.00162861
0.00212004 -3.39289e-05 -6.01796e-06
-3.39289e-05 -0.000147065 -6.4285e-06
-6.01796e-06 -6.4285e-06 -0.000401362
0.00382739 -5.98017e-05 2.35361e-05
-5.98017e-05 0.000378009 -3.27425e-05
2.35361e-05 -3.27425e-05 -0.00147738
0.00730273 0.00111803 -3.29976e-05
0.00111803 0.00237373 -3.89359e-05
-3.29976e-05 -3.89359e-05 0.00304318
0.00180931 0.000708242 -3.37439e-05
0.000708242 -0.00154166 7.22618e-05
-3.37439e-05 7.22618e-05 -0.000599926
0.00285457 -0.000432196 -5.17706e-05
-0.000432196 2.07629e-05 1.51825e-05
-5.17706e-05 1.51825e-05 -0.000455075
0.00324044 -0.000297059 0.000132399
-0.000297059 0.000866739 -8.72991e-05
0.000132399 -8.72991e-05 -0.00159898
-0.00532432 0.000402776 -5.21259e-05
0.000402776 -0.00449263 -0.000139261
-5.21259e-05 -0.000139261 -0.00422097
0.00154558 0.000437322 -2.96694e-05
0.000437322 -0.00288853 1.15508e-05
-2.96694e-05 1.15508e-05 -0.00156753
0.000817439 -1.33889e-05 6.17923e-07
-1.33889e-05 0.000127423 -1.09497e-07
6.17923e-07 -1.09497e-07 1.37551e-05
0.000789831 5.52162e-05 -1.71621e-06
5.52162e-05 0.00011108 -6.80836e-07
-1.71621e-06 -6.80836e-07 6.37016e-06
0.000755317 4.06179e-05 3.68503e-07
4.06179e-05 7.67789e-05 1.53086e-08
3.68503e-07 1.53086e-08 -8.8883e-07
0.00073842 7.10288e-05 2.46891e-06
7.10288e-05 8.7372e-05 2.50508e-06
2.46891e-06 2.50508e-06 -1.26136e-05
0.000738794 3.09879e-05 -4.92148e-07
3.09879e-05 7.41971e-05 -9.56154e-08
-4.92148e-07 -9.56154e-08 -3.94568e-05
0.000899634 6.70806e-05 2.59186e-07
6.70806e-05 0.000167519 8.23893e-07
2.59186e-07 8.23893e-07 6.29291e-05
0.000735618 1.64301e-05 -2.0368e-07
1.64301e-05 6.95864e-05 2.39224e-06
-2.0368e-07 2.39224e-06 -2.61218e-05
0.000897389 9.54111e-05 -4.2125e-07
9.54111e-05 0.000169692 -1.32095e-07
-4.2125e-07 -1.32095e-07 6.55817e-05
0.000861718 5.20733e-05 -1.51259e-07
5.20733e-05 0.000148223 4.48641e-07
-1.51259e-07 4.48641e-07 4.96433e-05
0.000641532 -7.92778e-06 -1.31132e-06
-7.92778e-06 2.17004e-05 3.81311e-07
-1.31132e-06 3.81311e-07 -7.05494e-05
0.000871396 -0.000145796 2.25237e-05
-0.000145796 -0.000387433 -1.33068e-05
2.25237e-05 -1.33068e-05 -0.000413154
0.000871229 -0.000298891 1.81473e-05
-0.000298891 -0.000437617 -1.69104e-06
1.81473e-05 -1.69104e-06 -0.000432773
0.000902847 -0.000333423 1.19656e-05
-0.000333423 -0.000111819 -1.65518e-07
1.19656e-05 -1.65518e-07 -0.000249591
0.00117794 -0.000236068 7.57175e-06
-0.000236068 0.000266977 -9.72388e-06
7.57175e-06 -9.72388e-06 2.85853e-05
0.00132359 -7.99183e-05 -4.14544e-07
-7.99183e-05 0.000460383 2.76977e-06
-4.14544e-07 2.76977e-06 0.00026586
0.000704161 -6.92704e-05 -1.12022e-06
-6.92704e-05 8.71162e-05 2.99836e-06
-1.12022e-06 2.99836e-06 -4.83923e-05
0.000647199 6.15273e-05 1.27458e-07
6.15273e-05 3.76239e-05 2.97368e-07
1.27458e-07 2.97368e-07 -8.42479e-05
0.000725982 -4.30908e-05 -2.32766e-07
-4.30908e-05 8.02984e-05 1.02692e-06
-2.32766e-07 1.02692e-06 -3.94406e-05
0.00116457 -0.00020205 -1.1441e-06
-0.00020205 4.82519e-05 -3.54292e-07
-1.1441e-06 -3.54292e-07 -0.000109586
0.000856542 -5.28232e-06 -2.25532e-07
-5.28232e-06 0.00016367 -2.36556e-07
-2.25532e-07 -2.36556e-07 3.15088e-05
0.00108711 -7.25842e-05 -1.40561e-07
-7.25842e-05 0.000307047 9.35631e-08
-1.40561e-07 9.35631e-08 0.000152863
0.00112804 -0.000266493 -1.6857e-06
-0.000266493 -8.79246e-06 -8.19188e-07
-1.6857e-06 -8.19188e-07 -3.74438e-05
0.000993096 -0.000115644 -7.96874e-06
-0.000115644 0.000264634 3.40943e-06
-7.96874e-06 3.40943e-06 5.60405e-05
-0.000924899 -0.000229751 -6.88443e-06
-0.000229751 -0.00109941 -1.245e-05
-6.88443e-06 -1.245e-05 -0.00109633
0.000841443 -0.000123087 -1.60479e-05
-0.000123087 0.000217361 1.82107e-05
-1.60479e-05 1.82107e-05 0.000116244
0.000495852 -1.38789e-05 -3.628e-06
-1.38789e-05 -2.80182e-05 2.02e-05
-3.628e-06 2.02e-05 -0.000164549
0.000758225 -4.41119e-06 -9.57729e-08
-4.41119e-06 8.7084e-05 -4.75895e-07
-9.57729e-08 -4.75895e-07 -3.18681e-05
0.00067803 2.23414e-05 1.18709e-06
2.23414e-05 7.60842e-05 -1.62193e-06
1.18709e-06 -1.62193e-06 -7.64647e-05
0.00143465 -1.90554e-05 -3.89818e-05
-1.90554e-05 0.000360097 -3.43149e-06
-3.89818e-05 -3.43149e-06 -0.000372596
-0.00101983 1.71504e-05 -6.72649e-05
1.71504e-05 0.00137787 -2.56145e-06
-6.72649e-05 -2.56145e-06 0.00037532
-0.00753465 -0.00021651 -0.000190222
-0.00021651 -0.00384158 4.40592e-06
-0.000190222 4.40592e-06 -0.00380667
0.000167006 8.00924e-05 7.25841e-06
8.00924e-05 -0.000160679 -8.40307e-08
7.25841e-06 -8.40307e-08 -0.000279041
-0.000270015 6.20097e-05 6.69847e-06
6.20097e-05 -0.00032731 2.60012e-06
6.69847e-06 2.60012e-06 -0.000539838
0.00138983 0.000210618 1.5869e-05
0.000210618 0.000265742 2.54441e-06
1.5869e-05 2.54441e-06 0.000195671
-0.00246974 7.74088e-05 6.59051e-06
7.74088e-05 0.000249251 8.7965e-06
6.59051e-06 8.7965e-06 -0.000906554
0.00220453 0.000143472 -4.54983e-05
0.000143472 0.000446692 -4.38742e-05
-4.54983e-05 -4.38742e-05 -0.00207571
0.00385687 0.000807338 6.86949e-05
0.000807338 0.000531683 4.57349e-06
6.86949e-05 4.57349e-06 -5.05364e-05
0.000628695 0.000216828 6.41783e-06
0.000216828 2.09758e-05 -8.19782e-06
6.41783e-06 -8.19782e-06 -1.00728e-05
0.00941111 -0.000850688 1.98583e-05
-0.000850688 0.00289444 -3.24652e-05
1.98583e-05 -3.24652e-05 0.00298637
0.00282068 9.82278e-05 8.57172e-05
9.82278e-05 0.00104815 6.33281e-05
8.57172e-05 6.33281e-05 -0.000321197
0.00661858 -0.000512094 2.88337e-05
-0.000512094 0.000929229 1.49982e-05
2.88337e-05 1.49982e-05 0.00227123
0.000901135 0.000139489 -1.06954e-06
0.000139489 0.000297869 -2.55276e-06
-1.06954e-06 -2.55276e-06 0.000205703
0.00207826 -1.79825e-05 4.91926e-06
-1.79825e-05 0.000647304 -8.66724e-06
4.91926e-06 -8.66724e-06 -0.000162789
0.00122423 7.05485e-05 6.2342e-06
7.05485e-05 0.000267295 1.28016e-05
6.2342e-06 1.28016e-05 -0.000831166
6.52797e-06 0.000130873 -5.78738e-06
0.000130873 -2.70518e-05 -5.84759e-07
-5.78738e-06 -5.84759e-07 -0.000182363
0.00274781 0.000470767 -4.91071e-05
0.000470767 0.000628008 -3.43931e-05
-4.91071e-05 -3.43931e-05 9.5877e-05
0.00261385 0.000758433 4.75962e-05
0.000758433 0.000509692 3.37106e-05
4.75962e-05 3.37106e-05 -0.00204974
0.00419304 6.94641e-05 -4.90989e-06
6.94641e-05 -0.00185268 -6.09544e-05
-4.90989e-06 -6.09544e-05 2.29063e-05
0.000745231 -0.000445705 -1.68524e-05
-0.000445705 -0.000400787 -5.90561e-06
-1.68524e-05 -5.90561e-06 -0.00108619
0.00109466 8.0718e-05 -3.45401e-06
8.0718e-05 0.000520335 -8.0826e-06
-3.45401e-06 -8.0826e-06 0.000435376
0.000983349 -4.07433e-05 -8.09167e-06
-4.07433e-05 0.000145793 -2.78973e-05
-8.09167e-06 -2.78973e-05 -0.000200691
0.00209855 3.00127e-06 1.23179e-05
3.00127e-06 0.000224099 -6.3011e-05
1.23179e-05 -6.3011e-05 -0.000663449
0.0016832 0.000455762 2.89e-05
0.000455762 -0.00282826 -1.50433e-05
2.89e-05 -1.50433e-05 -0.00157761
-0.000973433 4.61192e-05 -4.15859e-07
4.61192e-05 -0.000319414 -1.1777e-05
-4.15859e-07 -1.1777e-05 -0.000681776
0.0101544 0.000524822 0.000101339
0.000524822 0.00436891 4.23049e-05
0.000101339 4.23049e-05 0.00178408
-0.00768277 -0.000228576 4.52141e-05
-0.000228576 -0.0011591 6.66343e-05
4.52141e-05 6.66343e-05 -0.00230258
0.00160866 0.000148314 1.41357e-05
0.000148314 0.000570692 7.32603e-06
1.41357e-05 7.32603e-06 0.000504582
0.00131637 0.000105062 -3.22352e-06
0.000105062 0.00045196 1.0134e-06
-3.22352e-06 1.0134e-06 0.00039198
0.000569151 8.30562e-05 -1.40353e-05
8.30562e-05 0.000178552 -7.01334e-06
-1.40353e-05 -7.01334e-06 0.000117589
0.000794426 0.000107971 7.09352e-07
0.000107971 9.0011e-05 1.29941e-06
7.09352e-07 1.29941e-06 -1.18793e-05
0.000781647 3.12463e-05 3.05515e-07
3.12463e-05 6.99734e-05 2.21782e-06
3.05515e-07 2.21782e-06 -2.00097e-05
0.000521496 -8.86957e-06 -8.60623e-07
-8.86957e-06 -1.73127e-05 9.74794e-06
-8.60623e-07 9.74794e-06 -9.33356e-05
0.00077601 3.48274e-05 -1.93001e-07
3.48274e-05 7.23005e-05 -4.9443e-07
-1.93001e-07 -4.9443e-07 -2.09129e-05
0.000890318 -3.59359e-05 2.01337e-07
-3.59359e-05 0.000180406 -1.16712e-06
2.01337e-07 -1.16712e-06 9.72369e-05
0.000166439 -9.00558e-06 4.64783e-06
-9.00558e-06 -0.00013683 3.42189e-06
4.64783e-06 3.42189e-06 -0.000205545
0.00071112 -1.25237e-05 -3.07023e-06
-1.25237e-05 0.000192865 -8.32581e-06
-3.07023e-06 -8.32581e-06 0.000135741
0.000787896 -1.95022e-05 -1.49913e-06
-1.95022e-05 0.000119206 -5.06319e-06
-1.49913e-06 -5.06319e-06 4.57048e-05
0.000738099 -4.7506e-06 -5.42293e-07
-4.7506e-06 3.87402e-05 2.55757e-06
-5.42293e-07 2.55757e-06 -4.13505e-05
0.000798114 4.4366e-05 -4.18068e-07
4.4366e-05 9.72434e-05 4.6898e-07
-4.18068e-07 4.6898e-07 1.00246e-05
0.00092932 2.88514e-05 -3.12121e-06
2.88514e-05 0.000156878 2.79e-06
-3.12121e-06 2.79e-06 7.95667e-05
0.00075544 -1.69167e-06 8.79158e-07
-1.69167e-06 7.44735e-05 3.01817e-08
8.79158e-07 3.01817e-08 6.36482e-06
0.000822663 3.26913e-05 3.39605e-07
3.26913e-05 0.000100048 1.30912e-07
3.39605e-07 1.30912e-07 1.81682e-05
0.000680828 -4.59266e-05 2.5727e-06
-4.59266e-05 5.62129e-05 -1.66428e-07
2.5727e-06 -1.66428e-07 -2.64457e-05
0.000617628 -5.30557e-05 -1.10292e-06
-5.30557e-05 -1.83044e-05 -8.40753e-07
-1.10292e-06 -8.40753e-07 -0.000101407
0.000448331 -0.00010306 4.49196e-06
-0.00010306 -8.64608e-05 6.0865e-07
4.49196e-06 6.0865e-07 -0.000235458
0.000995739 -2.48854e-05 -1.41041e-06
-2.48854e-05 0.000200268 6.13543e-07
-1.41041e-06 6.13543e-07 0.000104775
0.00102082 -9.17459e-05 -8.98982e-07
-9.17459e-05 0.000236108 1.50202e-06
-8.98982e-07 1.50202e-06 0.000107405
0.000301759 -0.000129301 4.48926e-07
-0.000129301 -0.000201229 2.19621e-06
4.48926e-07 2.19621e-06 -0.000374142
0.000632943 -0.000143478 -4.60657e-06
-0.000143478 -1.51249e-05 -5.57351e-07
-4.60657e-06 -5.57351e-07 -0.000191378
0.000974256 -0.000130258 -1.21884e-06
-0.000130258 0.000229404 2.26542e-06
-1.21884e-06 2.26542e-06 9.12046e-05
0.000704044 -0.00014351 4.40867e-07
-0.00014351 4.519e-05 4.58465e-07
4.40867e-07 4.58465e-07 -0.000125221
0.000859001 -2.36634e-05 5.57582e-07
-2.36634e-05 0.000138644 7.11386e-07
5.57582e-07 7.11386e-07 4.33259e-05
0.000993313 -5.08108e-05 -8.95983e-07
-5.08108e-05 0.000230685 -7.20134e-07
-8.95983e-07 -7.20134e-07 0.000115044
0.00059851 -6.41406e-05 5.75619e-07
-6.41406e-05 3.51916e-05 -5.38196e-06
5.75619e-07 -5.38196e-06 -9.32441e-05
0.000998428 2.23784e-05 -1.5583e-06
2.23784e-05 0.000216966 -9.69886e-07
-1.5583e-06 -9.69886e-07 0.000124547
0.00061284 1.82911e-05 1.69877e-07
1.82911e-05 -3.00612e-06 -2.50113e-08
1.69877e-07 -2.50113e-08 -8.73675e-05
0.0006972 3.10754e-05 -2.28563e-07
3.10754e-05 2.87092e-05 6.31853e-07
-2.28563e-07 6.31853e-07 -3.83845e-05
0.000818003 -2.15536e-05 -1.46377e-07
-2.15536e-05 0.000113603 2.56785e-07
-1.46377e-07 2.56785e-07 2.79899e-05
0.000736502 -6.14201e-06 -5.1889e-07
-6.14201e-06 4.95364e-05 -2.49721e-08
-5.1889e-07 -2.49721e-08 -1.65637e-05
0.000689689 3.4346e-05 -1.27191e-06
3.4346e-05 9.18939e-06 1.65413e-06
-1.27191e-06 1.65413e-06 -3.55972e-05
0.000770327 -4.01718e-05 1.0938e-06
-4.01718e-05 7.04881e-05 -5.3134e-07
1.0938e-06 -5.3134e-07 2.13835e-06
0.000700337 2.60836e-05 -3.80975e-07
2.60836e-05 1.06796e-05 -9.47071e-09
-3.80975e-07 -9.47071e-09 -3.27834e-05
0.00132264 4.32498e-05 -7.93232e-06
4.32498e-05 0.000362081 3.35881e-06
-7.93232e-06 3.35881e-06 0.000352783
0.00071206 3.42566e-06 1.6476e-06
3.42566e-06 1.45607e-05 -1.62626e-06
1.6476e-06 -1.62626e-06 -2.78595e-05
0.000992715 3.18964e-05 -4.0842e-06
3.18964e-05 0.000168041 6.34455e-07
-4.0842e-06 6.34455e-07 0.000157905
0.000826774 2.80865e-05 -1.45718e-06
2.80865e-05 7.83222e-05 1.83474e-06
-1.45718e-06 1.83474e-06 8.69136e-05
0.000622698 2.09008e-05 6.28678e-07
2.09008e-05 -4.78644e-05 -3.60463e-06
6.28678e-07 -3.60463e-06 -5.91109e-05
0.0015498 2.88682e-05 6.89373e-06
2.88682e-05 0.000487409 -1.33327e-06
6.89373e-06 -1.33327e-06 0.000500473
0.0022864 2.47563e-05 8.75159e-06
2.47563e-05 0.000906972 -4.69675e-06
8.75159e-06 -4.69675e-06 0.000924182
0.000529712 3.14153e-06 -2.0023e-07
3.14153e-06 -5.81243e-05 -1.81847e-06
-2.0023e-07 -1.81847e-06 -0.000137651
0.000437943 -6.13411e-06 -3.72165e-07
-6.13411e-06 -0.000137759 -2.88811e-06
-3.72165e-07 -2.88811e-06 -0.000180194
0.000817208 2.69051e-06 4.78501e-08
2.69051e-06 0.00010167 7.44236e-08
4.78501e-08 7.44236e-08 3.19821e-05
0.000658495 -1.21091e-05 -2.1838e-07
-1.21091e-05 -3.24375e-05 -3.68367e-06
-2.1838e-07 -3.68367e-06 -3.93296e-05
0.000558921 2.58066e-07 5.09889e-07
2.58066e-07 -6.86962e-05 -3.71339e-08
5.09889e-07 -3.71339e-08 -0.000107229
0.000517645 -5.76983e-05 -2.96382e-08
-5.76983e-05 -6.39149e-05 1.488e-06
-2.96382e-08 1.488e-06 -0.000132626
0.0021004 -1.16288e-05 -4.99276e-06
-1.16288e-05 0.000797385 -4.71231e-06
-4.99276e-06 -4.71231e-06 0.000817343
0.00066267 -5.36936e-06 -1.56733e-07
-5.36936e-06 -3.10201e-05 -8.83172e-09
-1.56733e-07 -8.83172e-09 -3.66173e-05
0.000681602 -5.08637e-06 -4.64875e-07
-5.08637e-06 1.37922e-06 1.94791e-06
-4.64875e-07 1.94791e-06 -3.40398e-05
0.00208763 3.66425e-07 -3.16047e-06
3.66425e-07 0.000789489 1.57772e-09
-3.16047e-06 1.57772e-09 0.000809753
0.000660511 1.0725e-06 1.25447e-07
1.0725e-06 -3.22287e-05 3.52422e-06
1.25447e-07 3.52422e-06 -3.75059e-05
0.00209462 1.23836e-05 -4.40946e-06
1.23836e-05 0.000794789 4.65238e-06
-4.40946e-06 4.65238e-06 0.000814665
0.000979998 -3.92006e-05 -7.13933e-05
-3.92006e-05 -6.85416e-05 2.82827e-05
-7.13933e-05 2.82827e-05 -0.000873329
0.00142149 0.000153594 -8.96978e-06
0.000153594 0.00202984 -8.07478e-06
-8.96978e-06 -8.07478e-06 0.00141573
0.00125586 -0.000223937 -9.80818e-05
-0.000223937 0.00130755 -1.31357e-05
-9.80818e-05 -1.31357e-05 0.000774985
0.000773268 4.9262e-05 -1.1979e-07
4.9262e-05 8.48965e-05 1.16421e-07
-1.1979e-07 1.16421e-07 -1.50243e-05
0.00284199 -8.20174e-05 -2.43264e-05
-8.20174e-05 0.00142142 7.09213e-05
-2.43264e-05 7.09213e-05 0.000601909
0.00280199 -0.000114425 -3.67987e-05
-0.000114425 0.000751961 3.55605e-06
-3.67987e-05 3.55605e-06 -0.000554998
0.00139018 0.000421926 0.000101117
0.000421926 0.00186298 -9.1116e-05
0.000101117 -9.1116e-05 0.00174186
0.00305341 -0.000139243 -1.28305e-06
-0.000139243 8.75992e-05 -2.46471e-05
-1.28305e-06 -2.46471e-05 -0.000191798
0.00941498 0.000130303 5.58113e-05
0.000130303 0.00314949 -3.47639e-05
5.58113e-05 -3.47639e-05 0.00147695
-0.00338188 0.000701897 -4.55204e-05
0.000701897 -0.00334166 5.92152e-05
-4.55204e-05 5.92152e-05 -0.0024949
0.00366817 0.000776926 2.08373e-05
0.000776926 -0.000450875 8.73058e-06
2.08373e-05 8.73058e-06 0.000457148
0.00446055 -0.00053232 -7.0458e-05
-0.00053232 0.000507369 3.42263e-07
-7.0458e-05 3.42263e-07 -0.000222076
0.00813092 -0.000129686 4.13333e-05
-0.000129686 0.00326971 -1.39094e-05
4.13333e-05 -1.39094e-05 0.0013581
0.00512303 0.000601345 2.54776e-05
0.000601345 0.000296689 -5.01024e-05
2.54776e-05 -5.01024e-05 0.000400753
0.00372615 0.000447996 -1.25874e-05
0.000447996 -0.00162626 2.70909e-06
-1.25874e-05 2.70909e-06 -0.000390375
0.00489503 -0.00092144 -2.64472e-06
-0.00092144 0.000858166 -9.71971e-06
-2.64472e-06 -9.71971e-06 -0.000180824
0.00985612 -0.000528477 5.323e-05
-0.000528477 0.00487905 -1.59641e-05
5.323e-05 -1.59641e-05 0.00180376
0.00171984 -5.40645e-05 3.729e-05
-5.40645e-05 -0.00046524 -6.82147e-05
3.729e-05 -6.82147e-05 -0.000618848
0.00528402 5.63544e-05 -1.38528e-05
5.63544e-05 -0.000679366 4.93497e-05
-1.38528e-05 4.93497e-05 0.000867942
0.000795692 -2.47855e-05 -4.68359e-08
-2.47855e-05 0.000108885 -6.98959e-07
-4.68359e-08 -6.98959e-07 -1.05092e-05
0.000798452 -3.58966e-05 4.63707e-07
-3.58966e-05 0.000119971 -2.28999e-08
4.63707e-07 -2.28999e-08 3.04334e-06
0.000923531 8.04817e-05 -8.73631e-07
8.04817e-05 0.000190293 3.27595e-07
-8.73631e-07 3.27595e-07 8.39099e-05
0.000750564 1.24763e-05 -7.70214e-07
1.24763e-05 6.1091e-05 -5.05906e-07
-7.70214e-07 -5.05906e-07 -3.8858e-05
0.000861635 6.9147e-05 -6.44186e-07
6.9147e-05 0.000144378 5.67072e-07
-6.44186e-07 5.67072e-07 3.13088e-05
0.000893943 5.09584e-05 7.83117e-07
5.09584e-05 0.000163842 1.9952e-06
7.83117e-07 1.9952e-06 6.09269e-05
0.000962604 8.96242e-05 -6.96216e-07
8.96242e-05 0.000204009 2.16834e-08
-6.96216e-07 2.16834e-08 0.000101235
0.00100026 9.74225e-05 9.90591e-07
9.74225e-05 0.000232689 2.09672e-06
9.90591e-07 2.09672e-06 0.000130271
0.00183038 -0.000201751 3.74789e-05
-0.000201751 0.000359771 -1.67181e-05
3.74789e-05 -1.67181e-05 0.000282356
0.000686421 -0.00024164 8.80485e-06
-0.00024164 -0.000269156 -1.05595e-05
8.80485e-06 -1.05595e-05 -0.000269741
0.000795367 -0.000133686 -6.61774e-07
-0.000133686 0.000130348 9.34513e-07
-6.61774e-07 9.34513e-07 3.1404e-06
0.00190265 -0.000145206 4.95695e-06
-0.000145206 0.000727991 -1.44682e-05
4.95695e-06 -1.44682e-05 0.000533281
0.00151701 -9.79534e-05 -1.74086e-06
-9.79534e-05 0.000548788 2.67811e-06
-1.74086e-06 2.67811e-06 0.000388632
0.000911341 -3.96812e-05 -1.43456e-06
-3.96812e-05 0.000190006 3.93334e-07
-1.43456e-06 3.93334e-07 6.26564e-05
0.000832974 1.32193e-05 1.29178e-07
1.32193e-05 0.000136593 -5.68841e-08
1.29178e-07 -5.68841e-08 1.2336e-05
0.000631537 -0.000329121 -8.98343e-06
-0.000329121 -0.000334551 5.16265e-07
-8.98343e-06 5.16265e-07 -0.00036208
0.000911957 2.54649e-05 -5.53386e-07
2.54649e-05 0.00021412 6.47576e-07
-5.53386e-07 6.47576e-07 5.61837e-05
0.000935307 -7.14376e-05 -1.42549e-07
-7.14376e-05 0.000195721 1.02159e-06
-1.42549e-07 1.02159e-06 5.26879e-05
0.000334442 -0.000104225 1.21074e-07
-0.000104225 -8.81815e-05 3.82651e-06
1.21074e-07 3.82651e-06 -0.000145481
0.000647574 1.61634e-05 5.6398e-07
1.61634e-05 9.54663e-06 9.75093e-08
5.6398e-07 9.75093e-08 -9.53926e-05
0.000828858 -0.000280046 3.79253e-05
-0.000280046 -0.000152174 -2.9322e-05
3.79253e-05 -2.9322e-05 -4.88576e-05
0.000707991 -8.13946e-05 -1.0566e-05
-8.13946e-05 0.000334938 2.4358e-05
-1.0566e-05 2.4358e-05 0.000225007
0.000832427 -6.71793e-06 -9.13633e-07
-6.71793e-06 0.000160072 9.9449e-06
-9.13633e-07 9.9449e-06 2.3726e-05
0.00120287 0.000143731 1.36708e-06
0.000143731 0.00036183 -4.16255e-07
1.36708e-06 -4.16255e-07 0.000221436
0.00129103 -2.33416e-05 -1.92564e-05
-2.33416e-05 0.000340153 -1.1905e-06
-1.92564e-05 -1.1905e-06 8.03449e-05
0.0012964 -3.56876e-05 4.72013e-05
-3.56876e-05 0.000316486 -3.90947e-06
4.72013e-05 -3.90947e-06 -0.000416364
-0.00305904 -4.22166e-05 -3.30384e-05
-4.22166e-05 0.000469555 2.61568e-06
-3.30384e-05 2.61568e-06 -0.000809635
0.00101754 0.000136493 1.59687e-05
0.000136493 0.000390032 2.93742e-06
1.59687e-05 2.93742e-06 0.000295147
-0.00032095 0.000180164 1.6844e-05
0.000180164 -0.000214041 1.12048e-05
1.6844e-05 1.12048e-05 -0.00040775
0.00231219 -2.0628e-05 7.59601e-05
-2.0628e-05 0.000881837 1.15035e-05
7.59601e-05 1.15035e-05 0.000177244
0.00800132 6.69652e-05 9.70382e-05
6.69652e-05 0.00355323 5.0953e-05
9.70382e-05 5.0953e-05 0.000894907
0.00246953 0.00048363 -8.47731e-05
0.00048363 0.000695399 -8.41714e-05
-8.47731e-05 -8.41714e-05 -0.000232865
0.00315643 -0.000293409 1.25715e-05
-0.000293409 0.000444414 -5.78357e-05
1.25715e-05 -5.78357e-05 -0.000334167
0.00156172 8.12263e-05 2.70085e-05
8.12263e-05 0.000292477 9.56222e-05
2.70085e-05 9.56222e-05 -0.000834732
0.00320409 -1.49991e-05 3.9123e-06
-1.49991e-05 -0.00306411 -4.72695e-05
3.9123e-06 -4.72695e-05 -0.000801708
0.000650662 0.000105461 8.22279e-07
0.000105461 0.000282958 -1.18726e-06
8.22279e-07 -1.18726e-06 0.0001843
0.0010682 -3.67104e-05 -1.86174e-07
-3.67104e-05 0.000194847 -9.5052e-06
-1.86174e-07 -9.5052e-06 -0.000126302
0.00231908 1.14851e-05 2.23905e-05
1.14851e-05 0.000518377 6.44626e-06
2.23905e-05 6.44626e-06 -0.000249211
-0.000933162 8.0615e-05 -1.30278e-05
8.0615e-05 -0.000392984 -4.85707e-06
-1.30278e-05 -4.85707e-06 -0.000683983
0.00392459 0.000502318 1.03175e-05
0.000502318 -0.00160732 -2.41345e-06
1.03175e-05 -2.41345e-06 -0.000371307
0.00561643 0.000714746 6.49387e-05
0.000714746 0.002345 2.54068e-05
6.49387e-05 2.54068e-05 -0.000320977
0.00311594 0.000184923 -4.2566e-05
0.000184923 0.0018147 2.29305e-06
-4.2566e-05 2.29305e-06 0.00119117
9.78875e-05 0.000128052 -2.46911e-05
0.000128052 5.43265e-05 -1.12753e-05
-2.46911e-05 -1.12753e-05 -0.000104453
0.00168144 1.22006e-05 -1.12612e-06
1.22006e-05 0.000241285 -2.8276e-05
-1.12612e-06 -2.8276e-05 -1.89437e-06
0.00295806 -6.27684e-05 2.73815e-05
-6.27684e-05 0.0013815 -7.24448e-05
2.73815e-05 -7.24448e-05 0.000607638
0.00464575 0.000797551 8.81574e-05
0.000797551 -0.000182293 -7.29615e-05
8.81574e-05 -7.29615e-05 0.000816955
0.00386442 5.66338e-05 -5.15354e-05
5.66338e-05 0.000207994 6.19661e-05
-5.15354e-05 6.19661e-05 0.000286638
0.0018096 0.000224754 6.34042e-06
0.000224754 0.000235036 -3.0343e-05
6.34042e-06 -3.0343e-05 0.000262768
0.00054504 0.000344757 8.45005e-05
0.000344757 0.00169083 3.21435e-05
8.45005e-05 3.21435e-05 -0.00223909
0.000609753 0.000104709 3.81248e-06
0.000104709 5.6403e-05 6.1483e-06
3.81248e-06 6.1483e-06 -7.1857e-06
0.000700204 6.46686e-05 8.04546e-06
6.46686e-05 0.000244159 1.17049e-06
8.04546e-06 1.17049e-06 0.000181856
0.000745978 1.46617e-05 -7.06313e-06
1.46617e-05 0.000458175 -1.67495e-05
-7.06313e-06 -1.67495e-05 0.000366723
0.000613781 -1.65671e-06 4.83992e-07
-1.65671e-06 -2.74187e-05 2.68286e-06
4.83992e-07 2.68286e-06 -0.000112682
0.000707475 -3.49224e-05 1.13845e-06
-3.49224e-05 7.78348e-05 4.45626e-06
1.13845e-06 4.45626e-06 -4.93303e-06
0.000347706 -2.00632e-05 -1.91167e-06
-2.00632e-05 -5.84719e-05 1.09071e-05
-1.91167e-06 1.09071e-05 -0.000131982
0.000704661 -3.07407e-05 4.78984e-08
-3.07407e-05 7.10555e-05 -3.87989e-07
4.78984e-08 -3.87989e-07 -3.32843e-06
0.000427772 -1.1878e-05 1.06326e-06
-1.1878e-05 3.02068e-05 2.70548e-06
1.06326e-06 2.70548e-06 -2.71235e-05
0.000680564 -0.000131944 4.75488e-06
-0.000131944 0.000253157 -5.81694e-06
4.75488e-06 -5.81694e-06 0.000107077
0.000972161 -7.80044e-06 -1.3181e-06
-7.80044e-06 0.000191206 3.10504e-06
-1.3181e-06 3.10504e-06 0.000122054
0.000673223 4.41029e-05 -1.35438e-06
4.41029e-05 1.84531e-05 1.98737e-06
-1.35438e-06 1.98737e-06 -6.35696e-05
0.00122984 -7.95216e-05 1.0318e-06
-7.95216e-05 0.000353352 1.28577e-06
1.0318e-06 1.28577e-06 0.000262987
0.000114613 -8.40191e-05 4.17878e-06
-8.40191e-05 -0.000166203 1.79264e-06
4.17878e-06 1.79264e-06 -0.000357834
0.000540478 -2.69819e-05 -4.6862e-06
-2.69819e-05 -4.27256e-05 9.23837e-07
-4.6862e-06 9.23837e-07 -0.00011769
0.00026887 -9.3128e-05 1.46576e-06
-9.3128e-05 -0.000184322 -6.91959e-07
1.46576e-06 -6.91959e-07 -0.000322359
0.00104172 -0.00019462 5.77686e-06
-0.00019462 0.00021592 -1.48868e-06
5.77686e-06 -1.48868e-06 8.88001e-06
0.00116946 -0.000216348 -1.14422e-06
-0.000216348 0.000172185 4.7845e-06
-1.14422e-06 4.7845e-06 -3.86978e-05
0.00152907 -0.000134029 -2.28796e-06
-0.000134029 0.00051074 -2.15479e-07
-2.28796e-06 -2.15479e-07 0.000375944
0.000621288 -0.000155034 -2.95222e-07
-0.000155034 -3.0027e-05 -1.06734e-07
-2.95222e-07 -1.06734e-07 -0.0002102
0.00169289 -0.000233965 1.49346e-06
-0.000233965 0.000546497 -1.49846e-06
1.49346e-06 -1.49846e-06 0.000372353
0.000304789 -9.52615e-05 -1.98687e-06
-9.52615e-05 -0.000147668 -4.68411e-07
-1.98687e-06 -4.68411e-07 -0.000303105
0.000905692 -0.000163189 -2.2974e-07
-0.000163189 0.00013872 9.57428e-07
-2.2974e-07 9.57428e-07 -3.56439e-05
0.000761061 -2.08505e-05 8.66881e-08
-2.08505e-05 9.37317e-05 6.66175e-07
8.66881e-08 6.66175e-07 -1.43957e-05
0.00102939 -0.000134201 -2.5176e-06
-0.000134201 0.000259615 1.92785e-06
-2.5176e-06 1.92785e-06 0.000119784
0.000450487 -0.000120999 -1.47613e-06
-0.000120999 -9.33768e-05 -9.7365e-07
-1.47613e-06 -9.7365e-07 -0.00025879
0.000696207 4.24384e-05 2.93447e-07
4.24384e-05 3.63453e-05 8.98917e-07
2.93447e-07 8.98917e-07 -3.9852e-05
0.000713617 -1.14145e-05 7.47299e-07
-1.14145e-05 6.03169e-05 -9.80996e-08
7.47299e-07 -9.80996e-08 -3.66461e-05
0.00084052 -4.60453e-05 1.66105e-06
-4.60453e-05 0.000150426 -2.74414e-06
1.66105e-06 -2.74414e-06 3.1039e-05
0.000766148 7.20237e-06 1.14363e-07
7.20237e-06 8.38489e-05 -5.45604e-07
1.14363e-07 -5.45604e-07 -6.88721e-07
0.000743723 7.50957e-06 -5.33768e-07
7.50957e-06 5.64516e-05 -1.32496e-07
-5.33768e-07 -1.32496e-07 -1.26026e-05
0.000682294 3.87484e-05 -1.51424e-06
3.87484e-05 1.00172e-05 1.61406e-06
-1.51424e-06 1.61406e-06 -3.66816e-05
0.000775491 -2.62203e-05 8.16215e-07
-2.62203e-05 7.39941e-05 -6.60758e-07
8.16215e-07 -6.60758e-07 5.58084e-06
0.00069659 3.1246e-05 -2.13103e-07
3.1246e-05 1.21243e-05 -9.17246e-09
-2.13103e-07 -9.17246e-09 -3.22985e-05
0.00062917 4.16044e-05 -1.06929e-06
4.16044e-05 -2.87658e-05 3.68586e-06
-1.06929e-06 3.68586e-06 -4.3174e-05
0.000718831 1.37926e-05 1.65307e-06
1.37926e-05 1.94557e-05 -1.6545e-06
1.65307e-06 -1.6545e-06 -2.32044e-05
0.000635801 3.5118e-05 1.21247e-07
3.5118e-05 -3.17278e-05 3.08984e-08
1.21247e-07 3.08984e-08 -4.45136e-05
0.00215741 5.98881e-05 -4.58906e-06
5.98881e-05 0.000847821 1.72772e-06
-4.58906e-06 1.72772e-06 0.000861261
0.000622228 2.81374e-05 7.8653e-07
2.81374e-05 -4.46343e-05 -3.64179e-06
7.8653e-07 -3.64179e-06 -5.64451e-05
0.00153556 3.78734e-05 8.36884e-06
3.78734e-05 0.000484465 -1.18731e-06
8.36884e-06 -1.18731e-06 0.00049647
0.00227499 3.60188e-05 1.28032e-05
3.60188e-05 0.000904538 -4.4682e-06
1.28032e-05 -4.4682e-06 0.000920858
0.000541817 -1.05936e-05 -2.55596e-07
-1.05936e-05 -6.06078e-05 -1.53281e-06
-2.55596e-07 -1.53281e-06 -0.000137467
0.000416503 -8.57707e-06 -3.53142e-07
-8.57707e-06 -0.000150427 -2.8401e-06
-3.53142e-07 -2.8401e-06 -0.000196839
0.000687815 9.14912e-06 -4.01986e-07
9.14912e-06 3.03129e-05 -6.9222e-07
-4.01986e-07 -6.9222e-07 -4.75354e-05
0.000653255 -1.87673e-05 -2.44478e-07
-1.87673e-05 -3.31465e-05 -3.80566e-06
-2.44478e-07 -3.80566e-06 -4.21862e-05
0.000416852 -6.94014e-06 -1.79399e-07
-6.94014e-06 -0.000149608 -8.51842e-07
-1.79399e-07 -8.51842e-07 -0.000192576
0.000840239 1.33155e-05 -3.6804e-08
1.33155e-05 0.000121033 1.47517e-06
-3.6804e-08 1.47517e-06 4.71465e-05
0.0021459 -2.28226e-05 -9.12371e-06
-2.28226e-05 0.000825415 -4.67737e-06
-9.12371e-06 -4.67737e-06 0.000844358
0.000658855 -1.19164e-05 -1.3073e-07
-1.19164e-05 -3.21294e-05 -2.73655e-08
-1.3073e-07 -2.73655e-08 -3.89753e-05
0.000399923 -5.86932e-06 3.14722e-07
-5.86932e-06 -0.000158469 2.02632e-06
3.14722e-07 2.02632e-06 -0.000198336
0.00209646 -1.05948e-05 -3.17696e-06
-1.05948e-05 0.000794902 3.29396e-08
-3.17696e-06 3.29396e-08 0.000814963
0.000664203 -5.19412e-06 2.21157e-07
-5.19412e-06 -3.01252e-05 3.5418e-06
2.21157e-07 3.5418e-06 -3.56953e-05
0.002093 1.40295e-06 3.43567e-08
1.40295e-06 0.000792576 4.72332e-06
3.43567e-08 4.72332e-06 0.000812793
0.00148958 1.62503e-05 -1.1175e-05
1.62503e-05 0.000540749 2.2378e-05
-1.1175e-05 2.2378e-05 0.000235205
0.00153523 -2.7818e-05 1.0925e-05
-2.7818e-05 0.000312234 -3.24912e-06
1.0925e-05 -3.24912e-06 -0.000485697
0.00174861 0.000108871 4.22387e-05
0.000108871 0.00221234 -2.85421e-05
4.22387e-05 -2.85421e-05 0.00168694
0.000829825 5.34639e-05 -4.40463e-08
5.34639e-05 0.000111714 2.39006e-07
-4.40463e-08 2.39006e-07 1.66563e-05
0.000712725 2.33253e-05 -6.74433e-08
2.33253e-05 3.379e-05 2.97725e-07
-6.74433e-08 2.97725e-07 -5.38351e-05
0.000901398 7.56693e-05 -3.64068e-07
7.56693e-05 0.000148461 8.07882e-07
-3.64068e-07 8.07882e-07 4.84977e-05
0.00187776 -1.80999e-05 8.65486e-06
-1.80999e-05 0.000148376 0.000111469
8.65486e-06 0.000111469 -0.000753972
0.00275499 -6.43002e-05 -7.23083e-06
-6.43002e-05 0.0013484 6.5934e-07
-7.23083e-06 6.5934e-07 0.000498869
0.00314031 -0.000130766 5.24439e-05
-0.000130766 0.00101412 -8.29786e-05
5.24439e-05 -8.29786e-05 -0.000348867
0.00456226 -0.000555567 -4.34952e-05
-0.000555567 0.000812966 -1.33773e-06
-4.34952e-05 -1.33773e-06 3.39223e-05
0.00178964 -0.000303682 -7.68586e-05
-0.000303682 0.000289219 5.04665e-05
-7.68586e-05 5.04665e-05 -0.00194686
0.00687015 0.000786352 6.06598e-05
0.000786352 0.00200142 1.32378e-05
6.06598e-05 1.32378e-05 0.00186929
0.00142845 0.000214998 1.91194e-05
0.000214998 -0.00299012 -5.25197e-05
1.91194e-05 -5.25197e-05 -0.00172208
0.00524062 -0.000910408 -9.83682e-06
-0.000910408 0.00140067 4.98705e-06
-9.83682e-06 4.98705e-06 0.000649955
0.0060005 -0.000472751 7.26718e-06
-0.000472751 0.00266038 3.86615e-06
7.26718e-06 3.86615e-06 8.89026e-05
-0.0017441 0.000259526 -9.82044e-06
0.000259526 -0.000715286 -4.88746e-05
-9.82044e-06 -4.88746e-05 -0.00154381
0.00413585 -3.17725e-05 -1.09349e-05
-3.17725e-05 -0.0018827 2.07577e-05
-1.09349e-05 2.07577e-05 -1.10355e-05
0.00284038 -0.000679506 -2.8323e-05
-0.000679506 0.000276234 -2.05985e-05
-2.8323e-05 -2.05985e-05 -0.000376813
0.0104794 -0.000757874 1.82753e-05
-0.000757874 0.00489477 2.92549e-05
1.82753e-05 2.92549e-05 0.00179827
-0.00772562 -3.90885e-05 5.3505e-05
-3.90885e-05 -0.00103321 -9.2953e-05
5.3505e-05 -9.2953e-05 -0.00234451
0.00245038 -0.000425933 4.3887e-07
-0.000425933 -0.00199754 -5.20421e-06
4.3887e-07 -5.20421e-06 -0.000650775
0.000803598 3.1959e-05 -6.79269e-07
3.1959e-05 9.40329e-05 3.23643e-07
-6.79269e-07 3.23643e-07 -1.55584e-05
0.000776204 -6.62776e-07 5.93354e-08
-6.62776e-07 9.7545e-05 -4.21667e-07
5.93354e-08 -4.21667e-07 -2.20458e-05
0.000788706 -5.16913e-05 6.40998e-07
-5.16913e-05 0.000115603 2.33815e-07
6.40998e-07 2.33815e-07 -3.61414e-06
0.000797238 3.56646e-05 -4.62033e-07
3.56646e-05 8.93026e-05 -4.16971e-07
-4.62033e-07 -4.16971e-07 -1.27657e-05
0.000960627 0.000108699 1.49428e-06
0.000108699 0.00020006 1.09969e-06
1.49428e-06 1.09969e-06 8.86235e-05
0.00104697 0.000101095 -4.35703e-07
0.000101095 0.000252849 7.98773e-07
-4.35703e-07 7.98773e-07 0.000148566
0.00146517 -0.000377212 7.63037e-06
-0.000377212 8.72006e-05 4.43434e-06
7.63037e-06 4.43434e-06 1.32988e-05
-0.000670381 -6.19747e-05 1.03677e-05
-6.19747e-05 -0.000643151 -1.54924e-05
1.03677e-05 -1.54924e-05 -0.00066042
0.000924857 5.47797e-05 1.3434e-09
5.47797e-05 0.000193498 5.77751e-07
1.3434e-09 5.77751e-07 6.4869e-05
0.00120535 -0.000115197 1.2182e-05
-0.000115197 0.000319261 -2.2654e-05
1.2182e-05 -2.2654e-05 0.000175255
0.00103939 4.66387e-06 -1.13415e-06
4.66387e-06 0.000283089 -8.45312e-07
-1.13415e-06 -8.45312e-07 0.000125942
0.000729828 1.45645e-05 4.80533e-07
1.45645e-05 5.64099e-05 2.4023e-08
4.80533e-07 2.4023e-08 -5.33662e-05
0.000779455 7.4559e-05 2.29936e-07
7.4559e-05 0.000117073 -3.58492e-07
2.29936e-07 -3.58492e-07 -1.47652e-05
0.000350503 -0.000279352 -2.99913e-06
-0.000279352 -0.000400761 -2.63323e-06
-2.99913e-06 -2.63323e-06 -0.000398417
0.000947067 -3.51157e-05 2.34652e-06
-3.51157e-05 0.00022762 -2.79306e-06
2.34652e-06 -2.79306e-06 9.71349e-05
0.000465425 -3.98264e-05 1.89e-05
-3.98264e-05 0.000210425 -3.30818e-07
1.89e-05 -3.30818e-07 0.00010461
0.00100789 4.88925e-05 1.07774e-06
4.88925e-05 0.000221261 -2.43218e-07
1.07774e-06 -2.43218e-07 0.00011525
-0.00234303 8.96387e-05 -2.85296e-05
8.96387e-05 -0.00110422 -2.32691e-05
-2.85296e-05 -2.32691e-05 -0.00144229
0.000751213 -8.33014e-06 4.16561e-06
-8.33014e-06 0.000319383 2.58156e-05
4.16561e-06 2.58156e-05 0.000256004
0.00105033 1.28383e-05 8.21845e-07
1.28383e-05 0.000313871 2.39461e-06
8.21845e-07 2.39461e-06 0.000198095
0.0016621 -1.63264e-05 -7.75983e-07
-1.63264e-05 0.000197655 8.72014e-07
-7.75983e-07 8.72014e-07 2.64937e-05
0.001145 -1.93497e-05 -1.05532e-05
-1.93497e-05 0.000237105 -2.87419e-06
-1.05532e-05 -2.87419e-06 9.04815e-06
0.00116785 -3.41853e-05 0.000131488
-3.41853e-05 0.000275126 -1.51151e-06
0.000131488 -1.51151e-06 -0.000464406
0.000972957 0.000158357 1.99373e-05
0.000158357 0.00045514 1.26863e-05
1.99373e-05 1.26863e-05 0.000346467
0.00261961 0.000374616 5.86738e-06
0.000374616 0.00100695 -1.59912e-05
5.86738e-06 -1.59912e-05 0.000823434
0.00120763 -3.40663e-05 4.77853e-06
-3.40663e-05 0.000267167 8.32413e-06
4.77853e-06 8.32413e-06 -2.69417e-05
-0.000582227 0.000371562 5.75061e-06
0.000371562 -6.60443e-05 1.83965e-05
5.75061e-06 1.83965e-05 -0.00274323
-0.00970294 4.89703e-05 -4.26048e-05
4.89703e-05 -0.00368956 -8.84314e-05
-4.26048e-05 -8.84314e-05 -0.00499227
0.00259566 2.06499e-05 2.59959e-05
2.06499e-05 0.000851397 5.81361e-05
2.59959e-05 5.81361e-05 0.000217581
0.00164484 0.000318312 -1.98756e-05
0.000318312 -0.00293858 5.44692e-05
-1.98756e-05 5.44692e-05 -0.00166779
0.000474271 0.000112976 3.81272e-06
0.000112976 0.000282793 -9.89469e-07
3.81272e-06 -9.89469e-07 0.000142204
0.00149512 -2.38033e-06 6.1124e-06
-2.38033e-06 0.000130398 -1.2452e-05
6.1124e-06 -1.2452e-05 -5.36749e-05
0.00282703 -4.85833e-05 5.8048e-06
-4.85833e-05 0.0012994 -1.08639e-06
5.8048e-06 -1.08639e-06 0.000479337
0.00128068 0.000201295 1.64849e-05
0.000201295 -2.98146e-05 -3.15368e-06
1.64849e-05 -3.15368e-06 -0.000319432
0.00204637 0.000735821 3.18874e-05
0.000735821 -0.00162915 -7.10201e-05
3.18874e-05 -7.10201e-05 -0.000577587
-0.00169573 0.000259421 8.31206e-06
0.000259421 -0.00137754 4.5983e-05
8.31206e-06 4.5983e-05 -0.00172093
0.00672708 3.96692e-05 5.81445e-05
3.96692e-05 0.00423903 -1.88731e-05
5.81445e-05 -1.88731e-05 0.000331395
0.000809371 -2.01796e-06 2.12958e-05
-2.01796e-06 0.000711537 -1.09495e-05
2.12958e-05 -1.09495e-05 0.000429251
0.00144551 2.38587e-05 1.13057e-05
2.38587e-05 0.000479722 -2.19171e-05
1.13057e-05 -2.19171e-05 0.000179144
0.00269514 -7.22735e-05 0.000125847
-7.22735e-05 0.000510868 -0.000105139
0.000125847 -0.000105139 -0.000662267
0.00286346 0.00101661 -5.34639e-06
0.00101661 0.00151618 -1.21925e-05
-5.34639e-06 -1.21925e-05 0.00258764
-0.00582388 0.00035264 3.73562e-05
0.00035264 -0.00476405 0.000137878
3.73562e-05 0.000137878 -0.00449031
0.0111163 -0.000524175 5.56323e-05
-0.000524175 0.00471868 -7.09987e-05
5.56323e-05 -7.09987e-05 0.00174157
0.00463939 -0.000349371 -8.97354e-05
-0.000349371 0.00133162 0.00011126
-8.97354e-05 0.00011126 0.00130846
0.00124094 6.85868e-05 4.50305e-06
6.85868e-05 0.000545618 6.17642e-06
4.50305e-06 6.17642e-06 0.00047701
6.86868e-05 -1.25665e-05 -5.72032e-06
-1.25665e-05 6.79507e-05 -6.3222e-07
-5.72032e-06 -6.3222e-07 -3.73574e-05
0.00010187 -0.000158033 4.9041e-06
-0.000158033 0.000157437 -1.35429e-05
4.9041e-06 -1.35429e-05 -6.7138e-05
0.000726546 -4.29338e-05 1.21431e-06
-4.29338e-05 8.3742e-05 1.66098e-06
1.21431e-06 1.66098e-06 6.93352e-06
8.92027e-05 -1.26498e-05 8.70754e-06
-1.26498e-05 -0.0001573 1.32008e-05
8.70754e-06 1.32008e-05 -0.00021542
0.00032884 -8.57881e-05 -1.36718e-06
-8.57881e-05 6.33856e-05 3.0282e-07
-1.36718e-06 3.0282e-07 -6.74986e-05
0.00107596 -0.000188189 2.05756e-05
-0.000188189 0.000449715 -1.33031e-05
2.05756e-05 -1.33031e-05 0.000200266
0.00180531 -0.0001133 -3.33903e-06
-0.0001133 0.000665262 2.73207e-06
-3.33903e-06 2.73207e-06 0.000567294
0.00139354 -0.000201919 1.39548e-06
-0.000201919 0.000489656 3.72701e-07
1.39548e-06 3.72701e-07 0.00029166
0.00103367 -0.000212346 8.38913e-06
-0.000212346 0.000298095 2.41683e-06
8.38913e-06 2.41683e-06 -2.04054e-05
6.77943e-05 -7.74779e-05 -2.11646e-06
-7.74779e-05 -0.000295195 -1.52207e-06
-2.11646e-06 -1.52207e-06 -0.000420766
0.00107721 -0.000195101 -4.37126e-07
-0.000195101 0.000223639 1.1809e-06
-4.37126e-07 1.1809e-06 1.01436e-05
0.00240127 -0.000335802 2.44076e-06
-0.000335802 0.00084088 1.64497e-06
2.44076e-06 1.64497e-06 0.000573507
0.00168119 -0.000285496 -2.98125e-06
-0.000285496 0.000316345 1.93903e-06
-2.98125e-06 1.93903e-06 7.83333e-05
0.000535127 -0.000159964 2.30767e-07
-0.000159964 -0.000154663 6.27265e-06
2.30767e-07 6.27265e-06 -0.000340727
0.00134463 -0.000230209 -2.49379e-06
-0.000230209 0.000270204 1.57344e-06
-2.49379e-06 1.57344e-06 5.55674e-05
0.000911958 -0.000178678 -3.95362e-06
-0.000178678 0.000124462 1.05579e-06
-3.95362e-06 1.05579e-06 -6.26633e-05
0.00151058 -0.000211944 3.68129e-06
-0.000211944 0.000472377 -3.00849e-06
3.68129e-06 -3.00849e-06 0.000306389
0.00119989 -0.000192901 2.70285e-06
-0.000192901 0.000277247 -2.23528e-06
2.70285e-06 -2.23528e-06 0.00011552
0.000394249 -4.12685e-05 1.45768e-06
-4.12685e-05 -0.000103893 1.02406e-06
1.45768e-06 1.02406e-06 -0.00023795
0.000730431 -0.000127487 1.12177e-06
-0.000127487 9.186e-05 -3.7182e-07
1.12177e-06 -3.7182e-07 -6.5974e-05
0.00116793 -0.000181882 5.15696e-06
-0.000181882 0.000286156 -3.09073e-06
5.15696e-06 -3.09073e-06 0.000114345
0.000702678 5.21601e-05 1.03314e-06
5.21601e-05 5.00839e-05 1.33253e-06
1.03314e-06 1.33253e-06 -4.03782e-05
0.000879507 -4.71904e-05 -3.0038e-07
-4.71904e-05 0.000162289 -1.01067e-07
-3.0038e-07 -1.01067e-07 4.9756e-05
0.00102096 -0.000132526 -6.38021e-07
-0.000132526 0.000253407 -3.30571e-07
-6.38021e-07 -3.30571e-07 0.000113065
0.000661362 4.6071e-05 -1.04441e-06
4.6071e-05 5.92461e-06 1.70066e-06
-1.04441e-06 1.70066e-06 -4.53492e-05
0.000747513 1.56766e-05 -6.98969e-07
1.56766e-05 6.34965e-05 -2.82661e-07
-6.98969e-07 -2.82661e-07 -1.27923e-05
0.000575645 -1.85492e-06 -1.92752e-08
-1.85492e-06 -1.40324e-05 -8.36487e-07
-1.92752e-08 -8.36487e-07 -0.000112542
0.000783787 -1.48579e-05 7.2608e-07
-1.48579e-05 7.93952e-05 -9.73198e-07
7.2608e-07 -9.73198e-07 9.22671e-06
0.000695118 3.27814e-05 -2.73858e-07
3.27814e-05 1.63046e-05 -5.17845e-08
-2.73858e-07 -5.17845e-08 -2.99741e-05
0.000612191 4.83671e-05 -1.13502e-06
4.83671e-05 -2.99047e-05 3.76863e-06
-1.13502e-06 3.76863e-06 -4.67634e-05
0.000709 2.33701e-05 1.70453e-06
2.33701e-05 1.77197e-05 -1.66646e-06
1.70453e-06 -1.66646e-06 -2.604e-05
0.000630208 4.25131e-05 5.71519e-08
4.25131e-05 -2.81109e-05 8.46747e-09
5.71519e-08 8.46747e-09 -4.25887e-05
0.00219479 6.52027e-05 -2.29888e-05
6.52027e-05 0.000876236 3.70895e-06
-2.29888e-05 3.70895e-06 0.000888516
0.000627651 3.57555e-05 8.66664e-07
3.57555e-05 -3.64934e-05 -3.66083e-06
8.66664e-07 -3.66083e-06 -4.92843e-05
0.00151676 4.70683e-05 9.81651e-06
4.70683e-05 0.000480611 -1.03685e-06
9.81651e-06 -1.03685e-06 0.00049115
0.00225468 4.68899e-05 1.65434e-05
4.68899e-05 0.000898246 -4.17962e-06
1.65434e-05 -4.17962e-06 0.000913422
0.000742559 4.18537e-05 -6.6396e-07
4.18537e-05 5.17991e-05 -6.83775e-07
-6.6396e-07 -6.83775e-07 -2.609e-05
0.000690686 -3.10578e-10 -7.46294e-07
-3.10578e-10 3.7065e-06 -2.11062e-06
-7.46294e-07 -2.11062e-06 -4.35383e-05
0.000638904 2.6828e-05 -8.7923e-07
2.6828e-05 8.08447e-07 -6.40405e-07
-8.7923e-07 -6.40405e-07 -8.00546e-05
0.000641762 -2.57086e-05 -9.76243e-08
-2.57086e-05 -3.61275e-05 -3.97311e-06
-9.76243e-08 -3.97311e-06 -4.78863e-05
0.000545191 -2.02761e-06 -7.20277e-07
-2.02761e-06 -7.76791e-05 -8.44263e-07
-7.20277e-07 -8.44263e-07 -0.000123023
0.000849251 1.97843e-05 3.19588e-07
1.97843e-05 0.000122054 4.56279e-07
3.19588e-07 4.56279e-07 4.48733e-05
0.00221361 -3.41896e-05 -1.34647e-05
-3.41896e-05 0.000867442 -4.58581e-06
-1.34647e-05 -4.58581e-06 0.000884829
0.000651828 -1.84268e-05 -2.12091e-07
-1.84268e-05 -3.39633e-05 -2.49472e-08
-2.12091e-07 -2.49472e-08 -4.29108e-05
0.000389275 -7.30219e-06 -2.04065e-07
-7.30219e-06 -0.00016518 1.31287e-06
-2.04065e-07 1.31287e-06 -0.000208613
0.00213782 -2.17894e-05 -3.06845e-06
-2.17894e-05 0.000820378 6.74899e-08
-3.06845e-06 6.74899e-08 0.000839535
0.00066002 -1.1745e-05 2.64106e-07
-1.1745e-05 -3.13485e-05 3.62887e-06
2.64106e-07 3.62887e-06 -3.816e-05
0.00209728 -9.55215e-06 4.53397e-06
-9.55215e-06 0.000795159 4.71798e-06
4.53397e-06 4.71798e-06 0.000815272
0.0015768 -1.33834e-05 6.44406e-07
-1.33834e-05 0.000205498 3.03047e-05
6.44406e-07 3.03047e-05 -5.82705e-05
0.00137717 1.05142e-05 -5.87796e-06
1.05142e-05 0.000422404 -2.61873e-08
-5.87796e-06 -2.61873e-08 0.000102325
0.00170572 -2.06569e-05 9.34123e-05
-2.06569e-05 0.00049193 -2.60242e-05
9.34123e-05 -2.60242e-05 -0.000327186
0.000682148 -1.57899e-05 -1.74153e-07
-1.57899e-05 1.0413e-05 -3.08939e-07
-1.74153e-07 -3.08939e-07 -7.10172e-05
0.000877435 1.12276e-05 -9.7515e-07
1.12276e-05 0.000129588 -4.56641e-07
-9.7515e-07 -4.56641e-07 3.96678e-05
0.000845813 5.09391e-05 1.4031e-06
5.09391e-05 0.000119066 3.64341e-07
1.4031e-06 3.64341e-07 2.7117e-05
0.000716092 8.22863e-06 1.66558e-07
8.22863e-06 3.07416e-05 1.26614e-07
1.66558e-07 1.26614e-07 -5.3035e-05
0.000805486 3.25247e-05 -2.13584e-08
3.25247e-05 9.3357e-05 2.15799e-07
-2.13584e-08 2.15799e-07 -5.10548e-06
0.000818726 1.44678e-05 -1.14164e-06
1.44678e-05 9.59973e-05 3.49553e-07
-1.14164e-06 3.49553e-07 5.33533e-06
0.000931521 0.000145067 6.21132e-07
0.000145067 0.0001782 6.14157e-07
6.21132e-07 6.14157e-07 6.39411e-05
0.000772752 2.46645e-05 2.84967e-05
2.46645e-05 0.000202064 0.000111523
2.84967e-05 0.000111523 -0.000854616
0.00221244 -7.7939e-06 -3.83746e-06
-7.7939e-06 0.000538296 3.43551e-05
-3.83746e-06 3.43551e-05 -0.000219718
0.00258647 -4.50188e-05 8.13365e-06
-4.50188e-05 0.00123156 -6.17789e-05
8.13365e-06 -6.17789e-05 0.000343168
0.00296293 -8.90135e-05 -1.62886e-05
-8.90135e-05 -0.0031372 1.42366e-05
-1.62886e-05 1.42366e-05 -0.000932144
0.00366078 -0.000786977 -3.83773e-05
-0.000786977 0.00101661 5.50835e-05
-3.83773e-05 5.50835e-05 8.60856e-05
-0.00136043 -0.00067524 3.09233e-05
-0.00067524 -0.00072026 2.5826e-05
3.09233e-05 2.5826e-05 -0.00353675
0.00578798 0.000849463 4.16795e-05
0.000849463 0.00334019 -2.51285e-05
4.16795e-05 -2.51285e-05 0.00198857
0.00429824 -0.000806847 -1.62913e-05
-0.000806847 0.00098612 3.23457e-06
-1.62913e-05 3.23457e-06 0.000187259
0.000607813 -0.000375594 4.22008e-05
-0.000375594 0.000681299 -2.02972e-06
4.22008e-05 -2.02972e-06 -0.0023762
0.00388006 -9.20031e-05 -2.63398e-05
-9.20031e-05 0.00202939 -9.32737e-08
-2.63398e-05 -9.32737e-08 0.0013636
0.00681822 -0.000595021 -1.97601e-05
-0.000595021 0.000769889 -2.81733e-05
-1.97601e-05 -2.81733e-05 0.00206674
0.00208869 -4.611e-05 -5.26744e-05
-4.611e-05 -0.000216748 3.57028e-05
-5.26744e-05 3.57028e-05 -0.000137093
0.000578784 0.000381617 2.08454e-05
0.000381617 0.000417518 -7.81872e-05
2.08454e-05 -7.81872e-05 -0.00238185
-0.00660832 -0.000816527 4.45042e-05
-0.000816527 -0.00424192 -4.76758e-05
4.45042e-05 -4.76758e-05 -0.00542998
0.0020061 -0.000579722 1.78159e-05
-0.000579722 -0.00168291 -9.87822e-05
1.78159e-05 -9.87822e-05 -0.000220631
0.000805016 -1.05906e-05 -1.51515e-06
-1.05906e-05 9.37049e-05 9.90342e-07
-1.51515e-06 9.90342e-07 3.17488e-06
0.000768207 3.17306e-05 1.53262e-07
3.17306e-05 7.56863e-05 1.46281e-07
1.53262e-07 1.46281e-07 -3.41456e-05
0.000764995 1.29219e-05 -1.0195e-07
1.29219e-05 9.64665e-05 -4.50194e-07
-1.0195e-07 -4.50194e-07 -2.67092e-05
0.000831765 3.5021e-05 2.47288e-07
3.5021e-05 0.000116755 -9.60986e-07
2.47288e-07 -9.60986e-07 8.56206e-06
0.000954044 -0.000322968 -4.6622e-07
-0.000322968 -0.000146981 1.74377e-05
-4.6622e-07 1.74377e-05 -0.000205996
0.000740981 -2.59289e-05 -6.99477e-06
-2.59289e-05 0.000361455 -1.99163e-05
-6.99477e-06 -1.99163e-05 0.000270393
0.000651676 2.78325e-06 9.95516e-08
2.78325e-06 5.74912e-06 -1.00374e-06
9.95516e-08 -1.00374e-06 -0.000101117
0.000828311 8.5639e-05 -1.10675e-06
8.5639e-05 0.000147955 5.2774e-07
-1.10675e-06 5.2774e-07 1.20749e-05
0.00154304 -5.22178e-05 7.57498e-06
-5.22178e-05 0.00057394 -2.06061e-05
7.57498e-06 -2.06061e-05 0.000437889
0.000746919 2.77401e-05 -4.71482e-07
2.77401e-05 7.53143e-05 -2.43259e-08
-4.71482e-07 -2.43259e-08 -2.87822e-05
0.000877952 3.5415e-05 -9.95714e-07
3.5415e-05 0.000220797 -1.75448e-06
-9.95714e-07 -1.75448e-06 0.000104657
-0.000378035 1.80274e-05 1.58971e-06
1.80274e-05 -0.000174221 -1.11546e-05
1.58971e-06 -1.11546e-05 -0.000566946
0.00109047 -3.29625e-05 2.12027e-05
-3.29625e-05 0.000525044 -8.5287e-07
2.12027e-05 -8.5287e-07 0.000476146
0.000586403 3.36793e-05 -3.72826e-07
3.36793e-05 4.8403e-05 -1.92316e-09
-3.72826e-07 -1.92316e-09 -4.55717e-05
0.000325442 -7.92707e-06 -2.58661e-05
-7.92707e-06 0.000731408 -4.95192e-05
-2.58661e-05 -4.95192e-05 -0.000335465
0.00259886 4.87414e-05 7.38238e-06
4.87414e-05 0.00130302 1.70329e-05
7.38238e-06 1.70329e-05 0.00119348
0.00134984 -1.5363e-05 1.69789e-05
-1.5363e-05 0.000379011 3.79208e-06
1.69789e-05 3.79208e-06 0.000117934
0.00132029 -1.71012e-05 -6.16598e-07
-1.71012e-05 8.61014e-05 1.49654e-07
-6.16598e-07 1.49654e-07 -5.8895e-05
0.000904263 -1.69032e-05 -1.59436e-06
-1.69032e-05 9.82798e-05 -3.8065e-06
-1.59436e-06 -3.8065e-06 -0.000106727
0.000443495 8.6605e-05 1.31674e-05
8.6605e-05 0.000283573 6.34617e-06
1.31674e-05 6.34617e-06 0.000162896
0.00049236 0.000173547 -2.29106e-05
0.000173547 -0.000345745 2.50269e-05
-2.29106e-05 2.50269e-05 -0.000425801
0.0012807 -1.24579e-05 9.10572e-06
-1.24579e-05 7.23099e-06 6.50893e-06
9.10572e-06 6.50893e-06 -0.000120099
0.00317807 -0.000566851 0.0001448
-0.000566851 0.00258782 -0.000117849
0.0001448 -0.000117849 -0.00102666
0.00673433 0.000902921 -4.06811e-05
0.000902921 0.003188 2.75175e-05
-4.06811e-05 2.75175e-05 0.00217769
0.00268427 -3.63737e-05 -1.55017e-05
-3.63737e-05 0.00120248 6.38877e-05
-1.55017e-05 6.38877e-05 0.000338322
0.00376221 0.000786718 -1.60664e-05
0.000786718 -0.000495485 -5.32242e-06
-1.60664e-05 -5.32242e-06 0.000435595
-0.000539406 2.68783e-05 1.45987e-05
2.68783e-05 4.70464e-05 2.73808e-06
1.45987e-05 2.73808e-06 -0.000311198
0.00141396 1.7351e-05 5.95755e-06
1.7351e-05 0.000418716 5.78016e-08
5.95755e-06 5.78016e-08 0.000114701
0.00289032 -0.000101001 3.7314e-05
-0.000101001 0.000703665 -3.23321e-06
3.7314e-05 -3.23321e-06 -0.000559771
0.00105368 -0.000107421 -4.65702e-06
-0.000107421 -0.000554329 2.45114e-05
-4.65702e-06 2.45114e-05 -0.000354696
-0.00156995 0.00107248 4.65878e-05
0.00107248 -0.00101634 -1.76781e-05
4.65878e-05 -1.76781e-05 0.000501299
0.00504881 0.000612034 -2.03254e-05
0.000612034 0.00014733 4.8173e-05
-2.03254e-05 4.8173e-05 0.000391148
-0.00194802 -0.000595978 5.24358e-05
-0.000595978 -0.000324285 -4.13688e-05
5.24358e-05 -4.13688e-05 -0.00406872
0.000600097 -1.80569e-05 4.03556e-05
-1.80569e-05 0.00022284 -8.58655e-06
4.03556e-05 -8.58655e-06 0.000114624
0.000970267 -3.59766e-05 6.55627e-05
-3.59766e-05 -0.000115394 -2.73652e-05
6.55627e-05 -2.73652e-05 -0.000916685
-0.00172129 0.000203456 -8.96014e-05
0.000203456 0.000330754 -2.12864e-05
-8.96014e-05 -2.12864e-05 -0.000297726
0.000451095 0.000908982 -8.71361e-05
0.000908982 -0.000488493 0.000119157
-8.71361e-05 0.000119157 3.65777e-05
0.00827176 -0.00019287 1.30785e-05
-0.00019287 0.00376711 -2.84236e-05
1.30785e-05 -2.84236e-05 0.000971058
0.0030745 -0.000317941 -7.89256e-05
-0.000317941 0.000513698 6.88231e-05
-7.89256e-05 6.88231e-05 0.000175129
-0.000780617 -1.15433e-05 -5.99641e-06
-1.15433e-05 -0.000398262 1.16041e-05
-5.99641e-06 1.16041e-05 -0.000532037
6.74089e-05 -0.000110996 8.2828e-07
-0.000110996 0.000144361 -4.10193e-07
8.2828e-07 -4.10193e-07 -6.54668e-05
0.000780585 -0.000196915 1.81887e-05
-0.000196915 0.000265829 -8.10021e-06
1.81887e-05 -8.10021e-06 0.000127116
-9.6457e-05 -4.19664e-05 -3.35978e-06
-4.19664e-05 -0.000168103 4.4357e-06
-3.35978e-06 4.4357e-06 -0.000284586
-0.000324767 -9.70623e-05 3.38393e-07
-9.70623e-05 -0.000265405 -3.30448e-06
3.38393e-07 -3.30448e-06 -0.000519636
0.00209184 -0.000339747 2.28403e-05
-0.000339747 0.000657832 -5.37163e-06
2.28403e-05 -5.37163e-06 0.000417533
0.00267913 -0.000323972 -5.51265e-06
-0.000323972 0.00114943 1.12281e-06
-5.51265e-06 1.12281e-06 0.000942845
0.00164035 -0.000253745 2.44444e-06
-0.000253745 0.0005903 9.14615e-07
2.44444e-06 9.14615e-07 0.000285127
0.00075189 -0.000242161 5.22269e-06
-0.000242161 -8.88732e-05 -4.43058e-06
5.22269e-06 -4.43058e-06 -0.000375565
0.00119182 -0.000202438 -4.77298e-06
-0.000202438 0.000273943 5.3181e-07
-4.77298e-06 5.3181e-07 5.42912e-05
0.00207015 -0.000310633 1.68709e-06
-0.000310633 0.000653579 -1.80309e-08
1.68709e-06 -1.80309e-08 0.000386208
0.00176606 -0.000306993 3.28463e-06
-0.000306993 0.000339461 -4.44051e-06
3.28463e-06 -4.44051e-06 8.66221e-05
0.0015698 -0.00027013 8.19918e-07
-0.00027013 0.00014838 -3.69608e-06
8.19918e-07 -3.69608e-06 -5.42226e-05
0.00261458 -0.00034296 -5.85339e-06
-0.00034296 0.000846763 6.92494e-06
-5.85339e-06 6.92494e-06 0.000617666
0.00179104 -0.000295112 -1.21538e-06
-0.000295112 0.00036653 -2.77253e-08
-1.21538e-06 -2.77253e-08 0.000122635
0.000368535 -0.00014051 3.78012e-06
-0.00014051 -0.000229382 -2.67035e-07
3.78012e-06 -2.67035e-07 -0.000393
0.000948677 -0.0001889 2.12117e-06
-0.0001889 7.71333e-05 -3.79996e-07
2.12117e-06 -3.79996e-07 -0.000105224
0.00159008 -0.000249459 -1.5771e-06
-0.000249459 0.000407204 -1.47245e-06
-1.5771e-06 -1.47245e-06 0.000188637
0.00112323 -0.000172399 1.44764e-06
-0.000172399 0.000275844 -3.96218e-07
1.44764e-06 -3.96218e-07 0.000112522
0.0011935 -0.000185642 -1.46826e-06
-0.000185642 0.000294454 -1.15482e-06
-1.46826e-06 -1.15482e-06 0.000131123
0.000727827 -0.000153584 3.69293e-06
-0.000153584 2.03515e-05 -2.43202e-06
3.69293e-06 -2.43202e-06 -0.000129383
0.000697915 -7.00435e-06 1.65981e-06
-7.00435e-06 5.69953e-05 1.41683e-06
1.65981e-06 1.41683e-06 -5.66948e-05
0.000642107 -6.2484e-05 1.17558e-07
-6.2484e-05 3.76057e-05 7.89328e-07
1.17558e-07 7.89328e-07 -9.76516e-05
0.00119823 -0.000163282 1.7993e-06
-0.000163282 0.000355353 -1.54391e-06
1.7993e-06 -1.54391e-06 0.000194306
0.000617766 6.17689e-05 4.18086e-08
6.17689e-05 -5.81166e-06 2.2267e-06
4.18086e-08 2.2267e-06 -6.87968e-05
0.000749324 1.02073e-05 -3.93589e-07
1.02073e-05 7.7337e-05 -2.71457e-07
-3.93589e-07 -2.71457e-07 -1.61985e-05
0.000963554 -6.57503e-05 -5.08191e-07
-6.57503e-05 0.000211487 -8.42482e-07
-5.08191e-07 -8.42482e-07 9.48702e-05
0.000592903 5.47469e-05 -1.9467e-06
5.47469e-05 -3.13473e-05 5.22822e-06
-1.9467e-06 5.22822e-06 -5.11761e-05
0.000679139 4.32231e-05 -2.84723e-07
4.32231e-05 1.52842e-05 -1.83882e-07
-2.84723e-07 -1.83882e-07 -3.58638e-05
0.000796667 -7.6532e-06 6.64957e-08
-7.6532e-06 9.09726e-05 -1.28669e-06
6.64957e-08 -1.28669e-06 1.36104e-05
0.000700925 3.12176e-05 1.3e-06
3.12176e-05 1.90107e-05 -1.76588e-06
1.3e-06 -1.76588e-06 -2.70981e-05
0.000621756 4.97084e-05 2.20203e-08
4.97084e-05 -2.4128e-05 -4.25552e-09
2.20203e-08 -4.25552e-09 -4.11965e-05
0.00220667 7.55614e-05 -2.60267e-05
7.55614e-05 0.000891312 3.36212e-06
-2.60267e-05 3.36212e-06 0.000901258
0.000632185 4.3531e-05 8.95077e-07
4.3531e-05 -2.69037e-05 -3.68782e-06
8.95077e-07 -3.68782e-06 -4.14721e-05
0.0022138 6.65959e-05 2.01726e-06
6.65959e-05 0.000888019 1.45856e-07
2.01726e-06 1.45856e-07 0.000900001
0.00222846 5.73534e-05 1.9837e-05
5.73534e-05 0.000889747 -3.85438e-06
1.9837e-05 -3.85438e-06 0.00090346
0.000777977 2.21551e-05 -3.10327e-07
2.21551e-05 8.11819e-05 -5.83052e-07
-3.10327e-07 -5.83052e-07 -1.1488e-05
0.000786411 5.52772e-05 -8.64217e-07
5.52772e-05 8.42196e-05 -1.09222e-06
-8.64217e-07 -1.09222e-06 -1.381e-06
0.000692518 -8.41403e-06 -9.22066e-07
-8.41403e-06 4.37887e-06 -2.15211e-06
-9.22066e-07 -2.15211e-06 -4.5784e-05
0.000761341 4.85358e-05 -1.02517e-07
4.85358e-05 6.25812e-05 7.26798e-09
-1.02517e-07 7.26798e-09 -1.5567e-05
0.00062753 -3.27349e-05 -1.86621e-07
-3.27349e-05 -3.91149e-05 -4.16039e-06
-1.86621e-07 -4.16039e-06 -5.40703e-05
0.00069592 -9.43083e-07 -1.14369e-07
-9.43083e-07 7.09536e-06 -3.60901e-08
-1.14369e-07 -3.60901e-08 -4.02076e-05
0.000727688 2.99574e-05 -3.95392e-07
2.99574e-05 4.17632e-05 4.61901e-07
-3.95392e-07 4.61901e-07 -3.2126e-05
0.00229027 -4.57108e-05 -1.77256e-05
-4.57108e-05 0.000915762 -4.47191e-06
-1.77256e-05 -4.47191e-06 0.000931175
0.000643549 -2.518e-05 -1.7843e-07
-2.518e-05 -3.51158e-05 -3.29494e-08
-1.7843e-07 -3.29494e-08 -4.67766e-05
0.000679359 2.70692e-06 -2.93253e-07
2.70692e-06 -1.90137e-06 1.36231e-06
-2.93253e-07 1.36231e-06 -4.6189e-05
0.00219621 -3.31583e-05 -3.16204e-06
-3.31583e-05 0.000856918 1.02774e-07
-3.16204e-06 1.02774e-07 0.000874603
0.000652612 -1.81337e-05 1.89302e-07
-1.81337e-05 -3.3498e-05 3.73783e-06
1.89302e-07 3.73783e-06 -4.23658e-05
0.00212301 -2.06855e-05 8.87117e-06
-2.06855e-05 0.00081149 4.63848e-06
8.87117e-06 4.63848e-06 0.000830874
0.000896482 -5.3005e-05 7.83928e-06
-5.3005e-05 0.000126316 3.22364e-05
7.83928e-06 3.22364e-05 -0.000236603
0.001444 -1.99615e-05 -7.86638e-06
-1.99615e-05 0.000120993 1.31231e-05
-7.86638e-06 1.31231e-05 -7.55004e-05
0.00137235 2e-07 3.87325e-06
2e-07 0.000343607 -1.83243e-05
3.87325e-06 -1.83243e-05 3.27968e-05
0.000766244 2.13081e-05 -1.7308e-07
2.13081e-05 6.78913e-05 -6.26923e-08
-1.7308e-07 -6.26923e-08 -2.10881e-05
0.000764877 -3.37052e-06 -5.88999e-08
-3.37052e-06 6.67016e-05 2.06145e-07
-5.88999e-08 2.06145e-07 -2.27803e-05
0.000716268 -1.585e-06 -1.36477e-06
-1.585e-06 4.1301e-05 -1.72637e-06
-1.36477e-06 -1.72637e-06 -5.07692e-05
0.000637706 -1.9517e-05 -6.36688e-07
-1.9517e-05 -6.39299e-06 -7.19471e-07
-6.36688e-07 -7.19471e-07 -9.43807e-05
0.000966691 7.53591e-05 -1.29802e-06
7.53591e-05 0.000193521 -3.19883e-07
-1.29802e-06 -3.19883e-07 8.94521e-05
0.000730106 -1.09105e-05 6.72404e-08
-1.09105e-05 3.5899e-05 -6.20476e-08
6.72404e-08 -6.20476e-08 -4.56203e-05
0.000734796 1.10217e-05 9.5771e-07
1.10217e-05 4.70472e-05 -5.64657e-07
9.5771e-07 -5.64657e-07 -4.66687e-05
0.000795727 2.60925e-05 -9.78524e-08
2.60925e-05 8.65932e-05 -3.89936e-08
-9.78524e-08 -3.89936e-08 -6.41431e-06
0.000884234 5.90064e-05 1.93437e-07
5.90064e-05 0.000134442 2.04592e-07
1.93437e-07 2.04592e-07 3.28973e-05
0.00092978 2.81705e-05 -6.79253e-07
2.81705e-05 0.000174413 2.79961e-07
-6.79253e-07 2.79961e-07 7.62018e-05
0.00205057 3.49918e-05 9.5742e-05
3.49918e-05 0.000627396 0.00012842
9.5742e-05 0.00012842 -0.000656843
0.00115869 4.65991e-05 7.76236e-06
4.65991e-05 0.000264191 3.07613e-05
7.76236e-06 3.07613e-05 -0.000822458
0.00257571 2.70264e-06 -1.34187e-05
2.70264e-06 0.000951665 -2.34047e-05
-1.34187e-05 -2.34047e-05 0.000345267
0.00661575 -0.000532402 -4.09317e-05
-0.000532402 0.000849417 -7.1686e-05
-4.09317e-05 -7.1686e-05 0.00218538
-0.00973718 0.000324633 -5.16141e-05
0.000324633 -0.00347298 0.000113875
-5.16141e-05 0.000113875 -0.0048929
0.00478156 -0.000787684 -8.63477e-05
-0.000787684 0.00151034 5.05264e-05
-8.63477e-05 5.05264e-05 0.000703653
0.00853177 -0.000373771 -1.93459e-05
-0.000373771 0.00322053 -3.60576e-05
-1.93459e-05 -3.60576e-05 0.000730885
0.00308558 -0.000186218 -3.73e-05
-0.000186218 0.000351964 4.71517e-05
-3.73e-05 4.71517e-05 2.47405e-05
0.0103625 -0.000184959 4.51062e-05
-0.000184959 0.00468725 -1.60672e-05
4.51062e-05 -1.60672e-05 0.00163009
0.00139134 -0.000472349 3.03653e-05
-0.000472349 -0.000245042 2.19878e-05
3.03653e-05 2.19878e-05 -0.000828308
0.00167403 -0.000689749 -6.42789e-05
-0.000689749 -0.00199214 -0.000140528
-6.42789e-05 -0.000140528 -0.000497655
0.00420569 0.000120707 -9.27063e-05
0.000120707 0.000792543 -5.76231e-06
-9.27063e-05 -5.76231e-06 0.000426117
0.00823085 0.000222008 -8.11761e-06
0.000222008 0.00332212 3.47684e-05
-8.11761e-06 3.47684e-05 0.00104111
0.0081654 -0.00115412 -1.44216e-05
-0.00115412 0.00233903 -8.79502e-05
-1.44216e-05 -8.79502e-05 0.00245055
0.00427958 -0.00107103 3.36072e-05
-0.00107103 0.000528985 5.01043e-06
3.36072e-05 5.01043e-06 0.00213492
0.000517859 3.74358e-05 9.29773e-07
3.74358e-05 -1.09964e-05 9.14014e-07
9.29773e-07 9.14014e-07 -8.59919e-05
0.000924734 -1.1212e-05 -6.13141e-08
-1.1212e-05 0.000167947 6.75997e-07
-6.13141e-08 6.75997e-07 7.45251e-05
0.00077663 2.80094e-05 2.56896e-07
2.80094e-05 7.88577e-05 -3.44624e-07
2.56896e-07 -3.44624e-07 -2.93477e-05
0.000487067 3.38952e-05 -3.4873e-05
3.38952e-05 0.000226565 1.72414e-05
-3.4873e-05 1.72414e-05 -0.000236578
0.00103 -7.1788e-05 -5.23166e-05
-7.1788e-05 0.000515866 -1.49004e-05
-5.23166e-05 -1.49004e-05 0.000483732
0.000683401 -4.80943e-06 3.5386e-07
-4.80943e-06 4.22525e-05 7.46065e-07
3.5386e-07 7.46065e-07 -6.26922e-05
0.000168082 6.94203e-06 8.67465e-07
6.94203e-06 -0.000173403 -5.52904e-06
8.67465e-07 -5.52904e-06 -0.00028273
0.000682617 3.41377e-05 -1.79213e-07
3.41377e-05 0.000106243 -2.1274e-06
-1.79213e-07 -2.1274e-06 8.76864e-06
0.000412125 3.00564e-05 -3.25319e-06
3.00564e-05 0.000136592 4.82716e-06
-3.25319e-06 4.82716e-06 2.10407e-05
4.26831e-05 -1.09708e-05 6.6755e-05
-1.09708e-05 0.000637172 -3.57814e-05
6.6755e-05 -3.57814e-05 -0.000395535
-0.00128968 -5.41465e-06 -1.63329e-05
-5.41465e-06 -0.000799879 1.03132e-05
-1.63329e-05 1.03132e-05 -0.000898647
0.00140237 0.000160195 -1.01488e-05
0.000160195 0.000714335 -3.3209e-05
-1.01488e-05 -3.3209e-05 9.21585e-05
0.00160108 -1.81072e-06 7.34815e-05
-1.81072e-06 0.000402407 7.91042e-06
7.34815e-05 7.91042e-06 -0.000342131
0.0011444 -1.7508e-05 1.18414e-05
-1.7508e-05 0.000245065 3.34659e-06
1.18414e-05 3.34659e-06 1.72298e-05
0.00106439 -1.68019e-05 -5.69885e-07
-1.68019e-05 8.72823e-06 -1.43182e-06
-5.69885e-07 -1.43182e-06 -0.000106707
-0.00182648 6.36925e-06 -1.27037e-05
6.36925e-06 -0.00056381 1.06123e-05
-1.27037e-05 1.06123e-05 -0.00101349
0.00274014 1.34328e-05 -1.44664e-06
1.34328e-05 0.000197794 -2.99552e-05
-1.44664e-06 -2.99552e-05 -7.84205e-05
0.00145289 6.89021e-06 -3.6448e-06
6.89021e-06 0.000380062 1.72231e-05
-3.6448e-06 1.72231e-05 9.14624e-05
0.0146976 -0.000638714 0.000109258
-0.000638714 0.00650241 -1.12157e-05
0.000109258 -1.12157e-05 0.00354282
0.00670153 0.000821139 -4.49441e-05
0.000821139 0.00195281 -1.38006e-05
-4.49441e-05 -1.38006e-05 0.00178661
0.00321768 -0.000119178 -5.44528e-05
-0.000119178 0.000949939 8.39598e-05
-5.44528e-05 8.39598e-05 -0.000366458
-0.00596254 0.00115627 0.000212068
0.00115627 -0.00362461 -0.000180108
0.000212068 -0.000180108 -0.00164388
0.000520536 -4.89896e-05 -4.21356e-06
-4.89896e-05 0.000272227 -1.95572e-07
-4.21356e-06 -1.95572e-07 0.00012325
0.001576 -3.22158e-05 -1.07334e-05
-3.22158e-05 0.000265825 3.48406e-06
-1.07334e-05 3.48406e-06 -0.000527264
-0.00224452 0.000247052 -0.000150787
0.000247052 0.000378844 6.6006e-05
-0.000150787 6.6006e-05 -0.00011724
0.00179574 -0.000286719 -2.01018e-05
-0.000286719 -9.26842e-05 2.95282e-05
-2.01018e-05 2.95282e-05 -0.00035849
0.00793099 0.00122356 3.59845e-05
0.00122356 0.00268266 3.44775e-05
3.59845e-05 3.44775e-05 0.00327509
0.0072665 -0.000602546 6.03425e-05
-0.000602546 0.00300996 -3.36842e-05
6.03425e-05 -3.36842e-05 0.000508143
0.00130932 -0.000215965 9.09958e-06
-0.000215965 0.000208806 2.08791e-05
9.09958e-06 2.08791e-05 0.000358342
-0.00234349 -4.51751e-05 4.53231e-05
-4.51751e-05 0.000389121 -9.64458e-06
4.53231e-05 -9.64458e-06 -0.000673822
0.00561103 0.000990713 -0.000135778
0.000990713 0.00281892 6.8547e-05
-0.000135778 6.8547e-05 0.00290232
0.0027136 -0.000218756 -0.000119976
-0.000218756 0.000482664 8.73237e-05
-0.000119976 8.73237e-05 -0.00207836
0.00273465 -0.000718338 4.20479e-05
-0.000718338 0.000314191 -1.0646e-05
4.20479e-05 -1.0646e-05 -0.00023602
-4.06704e-06 -7.2292e-05 3.03686e-06
-7.2292e-05 0.000114988 1.13099e-05
3.03686e-06 1.13099e-05 -7.86891e-05
0.000423186 -0.000183035 -2.76733e-06
-0.000183035 9.71501e-05 1.99064e-06
-2.76733e-06 1.99064e-06 -7.75827e-05
0.00356892 -0.000417873 2.84247e-05
-0.000417873 0.00129305 1.52999e-06
2.84247e-05 1.52999e-06 0.00123975
-0.00182058 -1.28235e-05 -6.12999e-06
-1.28235e-05 -0.00103731 7.53699e-06
-6.12999e-06 7.53699e-06 -0.00129504
0.000704999 -0.000228122 3.88767e-06
-0.000228122 -2.02683e-05 -2.30259e-07
3.88767e-06 -2.30259e-07 -0.000267943
0.00110029 -0.000322383 5.63719e-06
-0.000322383 -0.000122088 -1.55809e-07
5.63719e-06 -1.55809e-07 -0.000309376
0.00221685 -0.000291608 -7.5701e-06
-0.000291608 0.000862284 1.71957e-06
-7.5701e-06 1.71957e-06 0.000573432
0.00121052 -0.000271348 -3.33221e-06
-0.000271348 0.000140672 -2.49733e-06
-3.33221e-06 -2.49733e-06 -0.00013167
0.00176054 -0.000350879 4.79169e-06
-0.000350879 0.000215441 -1.5374e-06
4.79169e-06 -1.5374e-06 1.95623e-05
0.00172101 -0.000283614 -3.10418e-06
-0.000283614 0.000454426 -7.98249e-07
-3.10418e-06 -7.98249e-07 0.000188073
0.0015057 -0.000287616 -2.5086e-10
-0.000287616 0.000187015 -2.67886e-06
-2.5086e-10 -2.67886e-06 -5.69723e-05
0.00176187 -0.000302295 1.15761e-06
-0.000302295 0.000183825 -4.49097e-06
1.15761e-06 -4.49097e-06 6.12532e-07
0.00160358 -0.000241071 1.63559e-07
-0.000241071 0.00011884 -3.04991e-06
1.63559e-07 -3.04991e-06 -4.67634e-05
0.00167862 -0.000270316 1.78061e-07
-0.000270316 0.000237815 -6.79196e-07
1.78061e-07 -6.79196e-07 2.69553e-05
0.00157998 -0.000270811 1.00684e-06
-0.000270811 0.000153032 -7.63362e-07
1.00684e-06 -7.63362e-07 -4.85093e-05
0.00171797 -0.000260593 -1.107e-06
-0.000260593 0.000405121 5.45112e-06
-1.107e-06 5.45112e-06 0.000202603
0.00160503 -0.000271421 5.63248e-07
-0.000271421 0.000297549 3.72001e-07
5.63248e-07 3.72001e-07 6.93708e-05
0.00186088 -0.000301594 -1.25286e-06
-0.000301594 0.000395225 -2.90469e-06
-1.25286e-06 -2.90469e-06 0.000145302
0.00100539 -0.000176862 2.24486e-06
-0.000176862 0.00015727 -1.09731e-06
2.24486e-06 -1.09731e-06 -6.38549e-06
0.00058532 -0.000154242 -9.183e-07
-0.000154242 -0.000102177 -1.94254e-06
-9.183e-07 -1.94254e-06 -0.000262233
0.00139083 -0.000220158 4.58885e-06
-0.000220158 0.000324581 -5.25528e-06
4.58885e-06 -5.25528e-06 0.000146224
0.000795008 -0.00010046 4.33536e-07
-0.00010046 9.18365e-05 1.14836e-06
4.33536e-07 1.14836e-06 -4.3614e-05
0.000892338 -0.000145938 1.14974e-07
-0.000145938 0.000147306 4.68658e-07
1.14974e-07 4.68658e-07 -1.1384e-05
0.000853314 -0.000157368 -6.04026e-07
-0.000157368 0.00010329 1.27824e-06
-6.04026e-07 1.27824e-06 -5.7072e-05
0.000594694 6.59906e-05 1.41788e-06
6.59906e-05 -1.14098e-05 3.42832e-06
1.41788e-06 3.42832e-06 -9.10087e-05
0.000797226 -3.01205e-05 2.73651e-07
-3.01205e-05 0.000117234 -7.28241e-08
2.73651e-07 -7.28241e-08 -1.87631e-06
0.000899036 -9.10317e-05 -1.17918e-06
-9.10317e-05 0.000185004 2.9131e-07
-1.17918e-06 2.9131e-07 4.79684e-05
0.00132398 8.11925e-05 -1.39287e-05
8.11925e-05 0.000399277 3.35051e-06
-1.39287e-05 3.35051e-06 0.00037727
0.000659443 3.93632e-05 -5.4584e-07
3.93632e-05 1.2671e-05 -5.07421e-07
-5.4584e-07 -5.07421e-07 -4.81695e-05
0.000798144 -2.45263e-05 -2.27378e-07
-2.45263e-05 0.00010663 -1.74463e-06
-2.27378e-07 -1.74463e-06 9.58828e-06
0.000777766 4.35315e-05 -2.52674e-05
4.35315e-05 8.21483e-05 3.32955e-06
-2.52674e-05 3.32955e-06 8.45688e-05
0.000996562 6.62061e-05 -7.12076e-06
6.62061e-05 0.000200587 2.10608e-07
-7.12076e-06 2.10608e-07 0.000181588
0.000691673 3.91021e-05 5.87876e-07
3.91021e-05 2.13905e-05 -2.0907e-06
5.87876e-07 -2.0907e-06 -2.94618e-05
0.000633178 5.14109e-05 7.78309e-07
5.14109e-05 -1.71626e-05 -3.79031e-06
7.78309e-07 -3.79031e-06 -3.45108e-05
0.00223612 7.70058e-05 1.83e-06
7.70058e-05 0.000909056 1.59158e-07
1.83e-06 1.59158e-07 0.000918644
0.00222931 6.77523e-05 2.33602e-05
6.77523e-05 0.000897818 -3.54135e-06
2.33602e-05 -3.54135e-06 0.000909543
0.000718715 7.71187e-06 -1.7607e-07
7.71187e-06 4.10173e-05 -8.95253e-07
-1.7607e-07 -8.95253e-07 -4.98302e-05
0.000792741 3.65588e-05 -4.40825e-07
3.65588e-05 8.68012e-05 -1.49216e-06
-4.40825e-07 -1.49216e-06 -4.27487e-08
0.000749931 3.46726e-06 9.9207e-08
3.46726e-06 5.85986e-05 -2.60491e-08
9.9207e-08 -2.60491e-08 -2.93406e-05
0.000695127 -1.98526e-05 -1.10768e-06
-1.98526e-05 8.10881e-06 -2.31745e-06
-1.10768e-06 -2.31745e-06 -4.47873e-05
0.000765747 2.78777e-05 6.75271e-07
2.78777e-05 6.48703e-05 -1.31585e-08
6.75271e-07 -1.31585e-08 -1.48713e-05
0.000614046 -3.97356e-05 -2.54103e-07
-3.97356e-05 -4.06983e-05 -4.34256e-06
-2.54103e-07 -4.34256e-06 -5.88751e-05
0.000691096 -5.04576e-06 -1.5309e-07
-5.04576e-06 4.53694e-06 -2.23427e-08
-1.5309e-07 -2.23427e-08 -4.58787e-05
0.000779878 5.15683e-05 8.27575e-07
5.15683e-05 8.40389e-05 1.15015e-06
8.27575e-07 1.15015e-06 -1.68061e-06
0.00238322 -5.71541e-05 -2.28679e-05
-5.71541e-05 0.000974422 -4.28168e-06
-2.28679e-05 -4.28168e-06 0.000987551
0.000630009 -3.18867e-05 -3.30503e-07
-3.18867e-05 -3.79082e-05 -1.78247e-08
-3.30503e-07 -1.78247e-08 -5.27099e-05
0.0006959 -8.25444e-07 5.1811e-07
-8.25444e-07 7.53497e-06 2.23686e-06
5.1811e-07 2.23686e-06 -3.98302e-05
0.00227329 -4.47867e-05 -3.01229e-06
-4.47867e-05 0.000905379 1.32493e-07
-3.01229e-06 1.32493e-07 0.000921103
0.000643769 -2.47278e-05 2.26897e-07
-2.47278e-05 -3.49583e-05 3.89594e-06
2.26897e-07 3.89594e-06 -4.65329e-05
0.00218439 -3.21237e-05 1.28681e-05
-3.21237e-05 0.000849571 4.56636e-06
1.28681e-05 4.56636e-06 0.000867512
0.00237793 -3.05752e-05 7.03068e-05
-3.05752e-05 0.000722682 3.74428e-05
7.03068e-05 3.74428e-05 4.3056e-05
0.00101428 -4.81388e-05 6.72702e-07
-4.81388e-05 0.00018667 1.0052e-05
6.72702e-07 1.0052e-05 -0.000141135
0.00129139 -2.60236e-05 -1.06681e-05
-2.60236e-05 3.18331e-05 -8.68335e-06
-1.06681e-05 -8.68335e-06 -0.000104595
0.000828848 7.31803e-05 -2.4359e-06
7.31803e-05 0.000116007 -6.11182e-07
-2.4359e-06 -6.11182e-07 1.27371e-05
0.000831861 2.14162e-05 4.21436e-07
2.14162e-05 0.000102902 2.64006e-07
4.21436e-07 2.64006e-07 1.54428e-05
0.000700971 -1.0497e-05 5.72106e-07
-1.0497e-05 3.0479e-05 5.47451e-07
5.72106e-07 5.47451e-07 -5.85148e-05
0.000826191 -3.72094e-06 6.14828e-08
-3.72094e-06 9.60348e-05 -1.18735e-07
6.14828e-08 -1.18735e-07 9.49201e-06
0.00087572 3.05768e-05 -2.78866e-08
3.05768e-05 0.000133168 -2.43619e-07
-2.78866e-08 -2.43619e-07 3.81134e-05
0.0008265 5.55612e-05 3.95762e-07
5.55612e-05 0.000112869 7.42357e-07
3.95762e-07 7.42357e-07 1.16677e-05
0.000828619 4.24382e-05 -1.22663e-06
4.24382e-05 0.000114834 -1.95529e-06
-1.22663e-06 -1.95529e-06 8.48848e-06
0.000517749 -1.15225e-05 -4.04733e-07
-1.15225e-05 -6.5756e-05 -4.3335e-07
-4.04733e-07 -4.3335e-07 -0.000160539
0.000827552 7.95908e-05 4.54242e-07
7.95908e-05 0.000108496 -3.49448e-07
4.54242e-07 -3.49448e-07 1.18211e-05
0.000793542 -2.07541e-05 1.40772e-06
-2.07541e-05 6.59525e-05 -2.13864e-07
1.40772e-06 -2.13864e-07 -2.24456e-05
0.000831617 2.59162e-05 -2.54477e-07
2.59162e-05 0.000114256 1.08933e-07
-2.54477e-07 1.08933e-07 1.9755e-05
0.00131493 5.90348e-05 4.46347e-06
5.90348e-05 0.000420459 3.34708e-06
4.46347e-06 3.34708e-06 0.000329786
0.00112528 -0.00043821 6.94601e-05
-0.00043821 0.00137997 9.5463e-05
6.94601e-05 9.5463e-05 0.0008849
0.0024264 6.13046e-05 6.54807e-06
6.13046e-05 0.00083082 3.09684e-05
6.54807e-06 3.09684e-05 -0.000495326
0.00147864 6.1264e-05 -1.07442e-05
6.1264e-05 0.000349489 -4.84427e-05
-1.07442e-05 -4.84427e-05 -0.000763937
0.0059624 -0.000908332 -0.000115869
-0.000908332 0.000297866 -0.000100795
-0.000115869 -0.000100795 0.00184949
0.00386169 -0.000270569 9.19364e-07
-0.000270569 0.000359268 7.76632e-05
9.19364e-07 7.76632e-05 -0.000246124
0.00064003 -0.000470785 -9.19719e-05
-0.000470785 0.000402385 7.59765e-05
-9.19719e-05 7.59765e-05 -0.00243704
0.00279825 -0.000182436 -5.55876e-05
-0.000182436 0.000430351 8.63458e-05
-5.55876e-05 8.63458e-05 -7.21614e-05
0.00390885 -9.96876e-05 1.50033e-05
-9.96876e-05 0.00066733 3.84697e-05
1.50033e-05 3.84697e-05 0.00047423
-0.000804518 -0.0010619 2.9389e-05
-0.0010619 -0.00150924 4.36866e-05
2.9389e-05 4.36866e-05 0.0002499
0.00563533 0.000352954 4.7391e-06
0.000352954 0.00283367 8.26452e-06
4.7391e-06 8.26452e-06 -0.000180522
0.00143717 -0.000597266 -1.38884e-05
-0.000597266 -0.00128135 2.01407e-05
-1.38884e-05 2.01407e-05 -0.00105736
0.00183219 0.000272027 -2.3076e-05
0.000272027 -0.000143657 5.98752e-06
-2.3076e-05 5.98752e-06 -0.000355446
0.00832746 3.82171e-05 -4.07173e-05
3.82171e-05 0.00402475 3.08239e-05
-4.07173e-05 3.08239e-05 0.00163222
0.000132542 -0.000860857 -7.24972e-05
-0.000860857 -0.000768385 -7.3136e-05
-7.24972e-05 -7.3136e-05 -0.00021995
0.000475633 0.00018053 4.33951e-07
0.00018053 -6.1176e-05 -4.18543e-06
4.33951e-07 -4.18543e-06 -0.000142376
0.000856857 5.11214e-05 5.90863e-06
5.11214e-05 0.000171114 -7.63983e-09
5.90863e-06 -7.63983e-09 9.6695e-05
0.000992735 1.29984e-05 -3.78605e-07
1.29984e-05 0.000210831 7.69249e-07
-3.78605e-07 7.69249e-07 0.000116515
-0.000134096 -2.48191e-06 -0.000113519
-2.48191e-06 0.000439324 -2.23697e-05
-0.000113519 -2.23697e-05 -0.00054645
-0.00102616 7.09299e-05 7.99063e-06
7.09299e-05 -0.000647434 -8.24858e-06
7.99063e-06 -8.24858e-06 -0.000767654
0.000777197 7.291e-05 3.05889e-06
7.291e-05 0.000160725 -3.09745e-06
3.05889e-06 -3.09745e-06 5.79912e-05
0.000708571 0.000141493 5.02177e-06
0.000141493 0.000218398 2.68318e-06
5.02177e-06 2.68318e-06 0.000107773
0.000777263 0.000193399 -3.30128e-06
0.000193399 0.00035799 -2.60514e-05
-3.30128e-06 -2.60514e-05 -0.000149845
0.000463879 0.000314664 1.66828e-05
0.000314664 -0.000138117 4.4867e-06
1.66828e-05 4.4867e-06 -0.000351895
0.000391735 4.41078e-05 0.000117714
4.41078e-05 0.00195091 4.50763e-06
0.000117714 4.50763e-06 0.000932842
0.00152885 -2.15636e-05 -6.74451e-06
-2.15636e-05 0.000419525 9.12452e-06
-6.74451e-06 9.12452e-06 -0.000209889
0.00082729 -1.57929e-05 1.99709e-06
-1.57929e-05 6.61821e-05 1.4957e-06
1.99709e-06 1.4957e-06 -0.00014156
0.00139242 -8.28866e-05 -3.59455e-05
-8.28866e-05 0.000798746 7.20684e-06
-3.59455e-05 7.20684e-06 0.000655191
0.000947244 -0.000167457 -1.31226e-05
-0.000167457 -0.000868675 -1.38308e-05
-1.31226e-05 -1.38308e-05 -0.000830647
0.00179578 -2.92961e-05 -8.65829e-05
-2.92961e-05 0.000439467 2.56174e-05
-8.65829e-05 2.56174e-05 -0.00036593
-0.00107707 -0.000682921 5.16023e-05
-0.000682921 -0.000603341 -4.84014e-05
5.16023e-05 -4.84014e-05 -0.00339288
-0.00357993 0.000717712 6.01369e-05
0.000717712 -0.0034508 -7.33242e-05
6.01369e-05 -7.33242e-05 -0.00269687
0.00145181 0.000460622 -9.99415e-05
0.000460622 0.00183802 8.83779e-05
-9.99415e-05 8.83779e-05 0.00174949
0.00194154 -0.000101932 -1.08403e-06
-0.000101932 0.000342497 1.95203e-06
-1.08403e-06 1.95203e-06 0.000629267
0.00148001 0.000153882 8.05002e-06
0.000153882 0.00203066 7.5718e-06
8.05002e-06 7.5718e-06 0.00143268
-0.00366643 0.000528355 3.21432e-05
0.000528355 -0.00121133 3.66873e-06
3.21432e-05 3.66873e-06 -0.00183256
0.00389263 -0.000775136 5.6849e-06
-0.000775136 0.00120272 -9.44197e-07
5.6849e-06 -9.44197e-07 0.000239085
0.00955236 -1.08188e-05 5.2356e-06
-1.08188e-05 0.00368621 -5.53251e-06
5.2356e-06 -5.53251e-06 0.00190559
0.00115229 -0.000295701 3.7849e-06
-0.000295701 -6.58961e-06 1.75086e-05
3.7849e-06 1.75086e-05 9.18126e-05
-0.00670312 0.000210357 -0.000106032
0.000210357 -0.00329937 7.10255e-08
-0.000106032 7.10255e-08 -0.00365617
0.0081228 2.73542e-05 -3.05152e-05
2.73542e-05 0.00261663 1.60622e-05
-3.05152e-05 1.60622e-05 0.00115747
0.00515562 -0.000854595 1.83859e-06
-0.000854595 0.000665463 5.65478e-06
1.83859e-06 5.65478e-06 -0.000189278
0.000291302 -0.000156799 -1.9321e-05
-0.000156799 6.03207e-05 1.46349e-05
-1.9321e-05 1.46349e-05 -0.000159781
0.00152639 -0.00029287 -2.28814e-06
-0.00029287 0.000190617 8.00349e-07
-2.28814e-06 8.00349e-07 0.000201872
0.00233063 -0.000329445 1.76345e-05
-0.000329445 0.00039203 -2.50609e-06
1.76345e-05 -2.50609e-06 0.000416784
-0.000525189 -0.000126044 -5.84414e-06
-0.000126044 -0.000619218 1.06568e-06
-5.84414e-06 1.06568e-06 -0.00087818
0.001328 -0.00033485 -3.51047e-06
-0.00033485 1.04491e-05 -9.5507e-07
-3.51047e-06 -9.5507e-07 -0.000185151
0.00207939 -0.000392389 2.02188e-06
-0.000392389 0.000244472 7.71978e-07
2.02188e-06 7.71978e-07 9.51431e-05
0.00161764 -0.000296996 -7.86001e-06
-0.000296996 0.000347157 -2.47511e-06
-7.86001e-06 -2.47511e-06 8.61e-05
0.00151298 -0.000330689 1.52728e-06
-0.000330689 9.92399e-05 8.45961e-07
1.52728e-06 8.45961e-07 -9.88303e-05
0.0020106 -0.000324157 -1.30723e-06
-0.000324157 0.000238682 -3.57882e-06
-1.30723e-06 -3.57882e-06 9.13568e-05
0.00123589 -0.000267812 -5.63758e-06
-0.000267812 3.20287e-05 3.33565e-08
-5.63758e-06 3.33565e-08 -0.000204004
0.00164838 -0.000292323 -4.71341e-07
-0.000292323 0.000120891 3.71094e-07
-4.71341e-07 3.71094e-07 -6.07082e-05
0.00176611 -0.000256559 -2.28725e-07
-0.000256559 0.000125014 -4.77351e-06
-2.28725e-07 -4.77351e-06 -8.55631e-06
0.00159519 -0.000204515 -1.13092e-06
-0.000204515 6.35352e-05 -3.24267e-06
-1.13092e-06 -3.24267e-06 -6.88291e-05
0.00160464 -0.000230588 -3.98255e-07
-0.000230588 0.000150931 -2.41765e-06
-3.98255e-07 -2.41765e-06 -2.74687e-05
0.00151521 -0.000232267 2.30998e-07
-0.000232267 6.9453e-05 1.44698e-06
2.30998e-07 1.44698e-06 -9.41312e-05
0.00130728 -0.000230639 -2.31698e-06
-0.000230639 6.87771e-05 1.14271e-06
-2.31698e-06 1.14271e-06 -0.000128483
0.00147026 -0.000252489 2.62736e-06
-0.000252489 0.000127212 -1.25528e-06
2.62736e-06 -1.25528e-06 -7.87029e-05
0.00158053 -0.000270612 1.36644e-06
-0.000270612 0.000152674 1.8786e-06
1.36644e-06 1.8786e-06 -4.76554e-05
0.00111425 -0.00019807 1.33894e-06
-0.00019807 0.000140974 3.34223e-06
1.33894e-06 3.34223e-06 -4.06456e-05
0.00109494 -0.000214032 1.89444e-06
-0.000214032 6.90521e-05 -8.05305e-07
1.89444e-06 -8.05305e-07 -0.000127661
0.000560833 -0.000196829 -8.5305e-07
-0.000196829 -0.000271201 -4.36329e-06
-8.5305e-07 -4.36329e-06 -0.000498566
0.000903953 -0.000149306 -1.32249e-06
-0.000149306 0.000106439 2.56069e-07
-1.32249e-06 2.56069e-07 -3.89583e-05
0.00108558 -0.000181973 -1.88316e-07
-0.000181973 0.000197056 -1.33814e-06
-1.88316e-07 -1.33814e-06 3.31499e-05
0.000796718 -0.000167511 -1.92964e-06
-0.000167511 2.2137e-05 -5.1226e-06
-1.92964e-06 -5.1226e-06 -0.000134983
0.000720603 -2.63453e-05 -4.23668e-08
-2.63453e-05 4.7021e-05 3.70752e-06
-4.23668e-08 3.70752e-06 -4.95783e-05
0.000917593 -0.000106842 9.85154e-07
-0.000106842 0.000159359 4.76077e-07
9.85154e-07 4.76077e-07 2.31702e-05
0.000665594 -0.000116219 -1.50481e-06
-0.000116219 2.0405e-05 1.61369e-06
-1.50481e-06 1.61369e-06 -0.000133367
0.000496744 7.66383e-05 1.60852e-06
7.66383e-05 -6.0182e-05 5.59799e-06
1.60852e-06 5.59799e-06 -9.60524e-05
0.000684247 4.51651e-06 -5.77571e-07
4.51651e-06 3.34023e-05 -4.52073e-07
-5.77571e-07 -4.52073e-07 -4.6084e-05
0.000911898 -6.04208e-05 -1.70367e-07
-6.04208e-05 0.000184075 -1.74481e-06
-1.70367e-07 -1.74481e-06 6.05468e-05
0.00233417 0.000106279 -9.18981e-06
0.000106279 0.000982515 1.31671e-06
-9.18981e-06 1.31671e-06 0.000984187
0.000600676 6.86937e-05 -9.59807e-08
6.86937e-05 -1.25953e-05 -1.18817e-07
-9.59807e-08 -1.18817e-07 -3.96686e-05
0.000698535 1.89143e-05 1.33841e-06
1.89143e-05 3.18917e-05 -2.72899e-06
1.33841e-06 -2.72899e-06 -2.82958e-05
0.00227228 8.63666e-05 1.90339e-06
8.63666e-05 0.000937653 1.59717e-07
1.90339e-06 1.59717e-07 0.000944865
0.000633821 6.06755e-05 5.02219e-08
6.06755e-05 -5.45905e-06 -4.09677e-06
5.02219e-08 -4.09677e-06 -2.69067e-05
0.00227253 7.83607e-05 2.72699e-05
7.83607e-05 0.000930744 -3.18328e-06
2.72699e-05 -3.18328e-06 0.00093999
0.000872197 6.80716e-05 -6.31718e-07
6.80716e-05 0.000132145 3.18626e-08
-6.31718e-07 3.18626e-08 3.18602e-05
0.000776251 2.05355e-05 -9.38835e-08
2.05355e-05 7.44347e-05 -2.87534e-07
-9.38835e-08 -2.87534e-07 -1.80707e-05
0.000784259 1.70525e-05 -2.58248e-07
1.70525e-05 8.82993e-05 -1.89833e-06
-2.58248e-07 -1.89833e-06 -5.99052e-06
0.000690537 -2.47409e-05 -1.17434e-06
-2.47409e-05 9.88546e-06 -2.66977e-06
-1.17434e-06 -2.66977e-06 -4.60006e-05
0.000747206 8.90379e-06 6.69971e-07
8.90379e-06 5.91146e-05 1.61331e-08
6.69971e-07 1.61331e-08 -2.53185e-05
0.000714458 1.33826e-05 8.97521e-07
1.33826e-05 4.3001e-05 7.19973e-07
8.97521e-07 7.19973e-07 -4.82757e-05
0.000608463 -4.72035e-05 -4.22229e-07
-4.72035e-05 -3.67074e-05 -4.56361e-06
-4.22229e-07 -4.56361e-06 -5.7879e-05
0.000685801 -1.29776e-05 -1.37127e-07
-1.29776e-05 3.33558e-06 -2.90144e-08
-1.37127e-07 -2.90144e-08 -4.96147e-05
0.000751965 2.31093e-05 1.3826e-06
2.31093e-05 5.48729e-05 1.07444e-06
1.3826e-06 1.07444e-06 -2.29136e-05
0.00245708 -6.80675e-05 -2.81807e-05
-6.80675e-05 0.00102288 -3.99404e-06
-2.81807e-05 -3.99404e-06 0.00103375
0.000614921 -3.82832e-05 -3.08049e-07
-3.82832e-05 -4.05768e-05 3.92736e-09
-3.08049e-07 3.92736e-09 -5.85189e-05
0.000692665 -3.0796e-06 9.54112e-07
-3.0796e-06 5.99013e-06 2.26134e-06
9.54112e-07 2.26134e-06 -4.4513e-05
0.002355 -5.62744e-05 -3.27343e-06
-5.62744e-05 0.000957573 1.70011e-07
-3.27343e-06 1.70011e-07 0.00097103
0.000630584 -3.11523e-05 1.62409e-07
-3.11523e-05 -3.76878e-05 4.10761e-06
1.62409e-07 4.10761e-06 -5.23572e-05
0.00224927 -4.36411e-05 1.69578e-05
-4.36411e-05 0.000890947 4.45649e-06
1.69578e-05 4.45649e-06 0.000907025
-0.00318113 -5.47867e-05 2.7908e-05
-5.47867e-05 9.66305e-05 3.58568e-05
2.7908e-05 3.58568e-05 -0.00112724
0.00234977 -5.68764e-05 1.73207e-06
-5.68764e-05 0.000783948 1.17759e-05
1.73207e-06 1.17759e-05 0.000106985
0.00115196 -4.51451e-05 -4.75969e-06
-4.51451e-05 0.000245605 -1.14531e-05
-4.75969e-06 -1.14531e-05 -4.54944e-05
0.000716398 3.68794e-05 -6.83964e-07
3.68794e-05 4.9361e-05 5.155e-07
-6.83964e-07 5.155e-07 -4.90875e-05
0.00126076 0.000168329 -5.14169e-07
0.000168329 0.000370318 6.24454e-07
-5.14169e-07 6.24454e-07 0.000242676
0.000767879 3.72258e-05 -1.68213e-06
3.72258e-05 8.64313e-05 -1.6879e-07
-1.68213e-06 -1.6879e-07 -2.106e-05
0.000945814 -8.99276e-06 5.94429e-07
-8.99276e-06 0.000161509 -1.17476e-07
5.94429e-07 -1.17476e-07 7.59803e-05
0.00100571 6.31164e-05 1.44444e-06
6.31164e-05 0.000205444 4.65191e-07
1.44444e-06 4.65191e-07 0.000109562
0.000628966 8.39962e-06 2.42154e-07
8.39962e-06 -5.69064e-06 1.84145e-06
2.42154e-07 1.84145e-06 -9.88651e-05
0.000684856 2.12651e-05 -9.98165e-07
2.12651e-05 3.47002e-05 5.17374e-08
-9.98165e-07 5.17374e-08 -6.74159e-05
0.000777055 2.78114e-05 -3.6514e-08
2.78114e-05 8.41019e-05 -3.22349e-07
-3.6514e-08 -3.22349e-07 -2.00855e-05
0.000928863 6.87344e-05 6.25691e-07
6.87344e-05 0.00019223 -1.68324e-06
6.25691e-07 -1.68324e-06 6.75697e-05
0.000651045 0.000114248 3.82208e-06
0.000114248 -1.72558e-05 -5.73067e-06
3.82208e-06 -5.73067e-06 -0.000112061
0.000798997 4.86756e-05 3.64384e-07
4.86756e-05 9.90202e-05 -5.91361e-07
3.64384e-07 -5.91361e-07 -6.79128e-08
0.000882247 6.53081e-05 7.32412e-07
6.53081e-05 0.000178701 1.47269e-06
7.32412e-07 1.47269e-06 8.49944e-05
-0.00494704 -0.000497131 -0.000151147
-0.000497131 -0.0017829 2.17379e-05
-0.000151147 2.17379e-05 -0.00226915
-0.00158138 -0.000379941 7.2302e-05
-0.000379941 0.000342107 3.09015e-05
7.2302e-05 3.09015e-05 -0.000338052
0.00274921 6.59462e-05 -8.08095e-05
6.59462e-05 0.00099489 -6.63025e-05
-8.08095e-05 -6.63025e-05 -0.00037492
-0.00617626 -0.00108247 0.000147998
-0.00108247 -0.00355794 0.0001546
0.000147998 0.0001546 -0.00165602
0.00790337 -0.000822537 -2.37862e-05
-0.000822537 0.00233361 3.22878e-05
-2.37862e-05 3.22878e-05 0.00245051
0.00048949 0.000629033 2.90476e-05
0.000629033 -4.97248e-05 -2.54665e-05
2.90476e-05 -2.54665e-05 -0.00290497
0.00361975 -0.000106192 -0.000141692
-0.000106192 0.000764211 6.62788e-05
-0.000141692 6.62788e-05 7.59193e-05
0.00288526 0.000213794 -2.41621e-05
0.000213794 0.000469534 1.09957e-05
-2.41621e-05 1.09957e-05 0.000149062
0.00657163 -0.0010176 -5.41879e-05
-0.0010176 0.00313967 3.52148e-05
-5.41879e-05 3.52148e-05 0.00339954
0.00134494 0.000342469 8.91777e-06
0.000342469 0.000711238 -7.29846e-07
8.91777e-06 -7.29846e-07 -0.00169626
0.00250846 0.000519371 -0.000104484
0.000519371 0.000753071 -6.95333e-05
-0.000104484 -6.95333e-05 9.78549e-05
0.00362997 0.000758756 -0.000179453
0.000758756 0.00077585 -7.37269e-05
-0.000179453 -7.37269e-05 -0.00131219
0.00201569 0.000428922 1.12559e-05
0.000428922 0.000487265 -1.48842e-05
1.12559e-05 -1.48842e-05 0.000314636
0.000750108 0.000184678 -4.5296e-06
0.000184678 8.28245e-05 1.36124e-06
-4.5296e-06 1.36124e-06 2.34954e-06
0.00105798 5.18268e-05 1.3464e-07
5.18268e-05 0.0002763 -2.20378e-06
1.3464e-07 -2.20378e-06 0.000202884
-0.000407283 0.00015257 -3.16851e-05
0.00015257 -0.000171905 -2.74035e-05
-3.16851e-05 -2.74035e-05 -0.000580487
0.00205878 0.000222501 -8.29099e-06
0.000222501 0.000895657 -8.57691e-06
-8.29099e-06 -8.57691e-06 0.000775504
0.00116052 0.000376286 8.04008e-06
0.000376286 0.000121227 -2.47683e-06
8.04008e-06 -2.47683e-06 -8.50536e-05
0.00272368 0.000582285 7.74343e-05
0.000582285 0.000309433 3.34625e-05
7.74343e-05 3.34625e-05 0.000272142
-0.00395222 -3.53037e-05 -0.000191013
-3.53037e-05 -0.00228171 -9.97365e-06
-0.000191013 -9.97365e-06 -0.0017909
-0.00114154 2.79674e-05 6.30296e-05
2.79674e-05 0.00126412 1.23435e-06
6.30296e-05 1.23435e-06 0.000126543
0.00168026 -4.64602e-05 -6.46121e-05
-4.64602e-05 0.000531386 9.21367e-06
-6.46121e-05 9.21367e-06 3.01447e-05
0.00253508 -0.000197326 -4.81632e-05
-0.000197326 0.000580497 -2.62998e-05
-4.81632e-05 -2.62998e-05 0.00085556
0.00297323 -0.000753476 -3.90057e-05
-0.000753476 0.000498009 3.57474e-06
-3.90057e-05 3.57474e-06 -0.000254189
0.00183022 0.000111531 -4.20591e-05
0.000111531 0.0022315 2.79852e-05
-4.20591e-05 2.79852e-05 0.00168198
-0.000141121 -0.000347361 9.94759e-05
-0.000347361 -0.000629804 -8.728e-05
9.94759e-05 -8.728e-05 -0.00294182
0.00869334 0.000611208 -6.55742e-06
0.000611208 0.00425471 5.47146e-06
-6.55742e-06 5.47146e-06 0.00400031
0.00214413 -0.000438266 -1.06341e-05
-0.000438266 0.000400274 3.84132e-06
-1.06341e-05 3.84132e-06 0.00038017
-0.00110172 0.000345108 1.49755e-05
0.000345108 -0.000484777 -5.78306e-06
1.49755e-05 -5.78306e-06 -0.000782672
0.003738 4.85646e-06 -2.30725e-05
4.85646e-06 0.000381596 3.31243e-05
-2.30725e-05 3.31243e-05 -0.00154316
0.00579299 -0.000835683 -3.27273e-05
-0.000835683 0.00144435 1.09455e-05
-3.27273e-05 1.09455e-05 0.000596868
-0.000689952 -0.000186298 2.72192e-05
-0.000186298 -0.00086408 -7.5019e-06
2.72192e-05 -7.5019e-06 -0.0010948
0.00825907 -0.000256076 4.2069e-05
-0.000256076 0.00220309 -1.85658e-05
4.2069e-05 -1.85658e-05 0.00109861
0.00369282 -0.000352478 3.92782e-05
-0.000352478 0.000371331 -2.33527e-05
3.92782e-05 -2.33527e-05 -0.000139646
-0.000513199 -0.000172483 -2.16482e-05
-0.000172483 -0.000913326 7.15525e-06
-2.16482e-05 7.15525e-06 -0.000837047
0.000989501 -0.000266542 -3.28672e-06
-0.000266542 -0.000320867 -9.2037e-07
-3.28672e-06 -9.2037e-07 -0.000274418
0.00244083 -0.000356581 1.73669e-05
-0.000356581 0.000289198 -1.40411e-05
1.73669e-05 -1.40411e-05 0.000320022
0.00123959 -0.000325272 -1.11035e-05
-0.000325272 -1.63694e-05 -2.58881e-06
-1.11035e-05 -2.58881e-06 -0.000215152
0.0016573 -0.000364065 -7.61652e-07
-0.000364065 2.48431e-05 9.72673e-08
-7.61652e-07 9.72673e-08 -0.000115415
0.00208496 -0.000335971 -4.13117e-06
-0.000335971 0.000161231 -6.78394e-08
-4.13117e-06 -6.78394e-08 6.75841e-05
0.00135356 -0.000316668 1.30233e-07
-0.000316668 2.83457e-05 1.58514e-06
1.30233e-07 1.58514e-06 -0.000171478
0.0017876 -0.000311509 -2.32791e-06
-0.000311509 0.000121057 -6.17765e-07
-2.32791e-06 -6.17765e-07 -2.59498e-05
0.00185224 -0.000255584 -3.07407e-06
-0.000255584 7.63382e-05 -1.35183e-06
-3.07407e-06 -1.35183e-06 -2.37365e-05
0.00152919 -0.000281938 5.6663e-07
-0.000281938 5.54124e-05 3.74603e-06
5.6663e-07 3.74603e-06 -0.000124568
0.00170134 -0.000249008 -1.31022e-07
-0.000249008 9.45474e-05 2.76927e-07
-1.31022e-07 2.76927e-07 -3.74499e-05
0.00176595 -0.000210059 -3.60418e-07
-0.000210059 0.000100318 -2.01083e-06
-3.60418e-07 -2.01083e-06 3.22277e-07
0.00178472 -0.000189276 -2.39708e-07
-0.000189276 0.000160333 -1.11359e-06
-2.39708e-07 -1.11359e-06 4.91606e-05
0.00159141 -0.000201542 -2.29903e-06
-0.000201542 6.16913e-05 2.49545e-06
-2.29903e-06 2.49545e-06 -6.70595e-05
0.0017127 -0.000203223 6.8545e-07
-0.000203223 0.000170879 -5.15876e-06
6.8545e-07 -5.15876e-06 2.53942e-05
0.00167138 -0.000225494 -3.43383e-06
-0.000225494 0.000213358 -1.32313e-06
-3.43383e-06 -1.32313e-06 3.71241e-05
0.0016272 -0.00023177 1.45306e-06
-0.00023177 0.00016227 2.66565e-07
1.45306e-06 2.66565e-07 -1.64614e-05
0.00143022 -0.000223493 -2.21177e-07
-0.000223493 2.17797e-05 5.95501e-06
-2.21177e-07 5.95501e-06 -0.000139764
0.00109627 -0.000201072 -4.66093e-06
-0.000201072 1.27677e-05 3.28851e-06
-4.66093e-06 3.28851e-06 -0.000172102
0.00129323 -0.000227549 8.67477e-07
-0.000227549 6.29805e-05 -1.94147e-07
8.67477e-07 -1.94147e-07 -0.000132426
0.00123013 -0.000232707 2.2845e-06
-0.000232707 -1.81803e-06 -9.925e-07
2.2845e-06 -9.925e-07 -0.000202632
0.00103008 -0.000170804 -1.42239e-06
-0.000170804 0.000130393 2.30755e-06
-1.42239e-06 2.30755e-06 -2.99874e-05
0.00120735 -0.000203199 6.77226e-07
-0.000203199 0.000187259 1.92628e-07
6.77226e-07 1.92628e-07 5.63329e-06
0.000566356 -0.000174212 -2.81885e-07
-0.000174212 -0.000215153 -5.35358e-06
-2.81885e-07 -5.35358e-06 -0.00040593
0.000752447 -8.72935e-05 -3.82143e-06
-8.72935e-05 4.30904e-05 3.09144e-06
-3.82143e-06 3.09144e-06 -6.71384e-05
0.00103659 -0.000160717 3.09242e-08
-0.000160717 0.000178016 -4.97329e-07
3.09242e-08 -4.97329e-07 3.1048e-05
0.00115375 -0.000186209 -1.09748e-06
-0.000186209 0.00023065 -2.06075e-06
-1.09748e-06 -2.06075e-06 6.6525e-05
0.00048957 4.99909e-05 1.1874e-06
4.99909e-05 -7.03727e-05 7.3434e-06
1.1874e-06 7.3434e-06 -0.000112325
0.000747705 -4.48007e-05 3.88617e-07
-4.48007e-05 6.4558e-05 3.0862e-07
3.88617e-07 3.0862e-07 -3.62213e-05
0.00106647 -0.00011861 1.00238e-06
-0.00011861 0.000243461 -5.90605e-08
1.00238e-06 -5.90605e-08 0.000104394
0.00256239 0.000110791 -3.94522e-05
0.000110791 0.00111627 2.34762e-06
-3.94522e-05 2.34762e-06 0.00111684
0.000572383 6.68035e-05 -1.69048e-08
6.68035e-05 -2.11706e-05 -3.37565e-07
-1.69048e-08 -3.37565e-07 -5.53592e-05
0.000761153 -3.65169e-05 2.42792e-06
-3.65169e-05 7.42952e-05 -3.80869e-06
2.42792e-06 -3.80869e-06 -6.59421e-06
0.00163757 8.01997e-05 1.66598e-05
8.01997e-05 0.000582147 -2.82348e-07
1.66598e-05 -2.82348e-07 0.000582675
0.000634482 7.08149e-05 -1.69011e-06
7.08149e-05 7.57543e-06 -5.07112e-06
-1.69011e-06 -5.07112e-06 -2.01813e-05
0.00235569 8.88147e-05 3.27193e-05
8.88147e-05 0.000986001 -2.76796e-06
3.27193e-05 -2.76796e-06 0.000992643
0.000895178 8.35574e-05 8.49522e-07
8.35574e-05 0.000140484 4.5187e-07
8.49522e-07 4.5187e-07 3.43301e-05
0.000743072 2.91177e-05 -2.2995e-07
2.91177e-05 5.41916e-05 4.86837e-07
-2.2995e-07 4.86837e-07 -3.95585e-05
0.000739775 -1.12807e-05 6.44964e-08
-1.12807e-05 6.048e-05 -1.72925e-06
6.44964e-08 -1.72925e-06 -3.43755e-05
0.000867356 4.20365e-05 6.17199e-07
4.20365e-05 0.000127159 6.2906e-07
6.17199e-07 6.2906e-07 3.23609e-05
0.00074462 -9.07449e-06 3.2644e-07
-9.07449e-06 5.70909e-05 -1.82567e-08
3.2644e-07 -1.82567e-08 -2.99952e-05
0.000678333 -2.54134e-05 -1.17271e-06
-2.54134e-05 8.01659e-06 -3.08467e-06
-1.17271e-06 -3.08467e-06 -5.23154e-05
0.000606316 -5.59963e-05 -1.07848e-07
-5.59963e-05 -2.88156e-05 -4.93263e-06
-1.07848e-07 -4.93263e-06 -5.31692e-05
0.000679033 -2.13155e-05 1.57984e-07
-2.13155e-05 3.8996e-06 -7.40383e-08
1.57984e-07 -7.40383e-08 -5.1998e-05
0.000709193 -2.39865e-05 1.24156e-07
-2.39865e-05 2.82307e-05 1.28302e-06
1.24156e-07 1.28302e-06 -4.8636e-05
0.00250365 -7.83728e-05 -3.34014e-05
-7.83728e-05 0.00105628 -3.60654e-06
-3.34014e-05 -3.60654e-06 0.00106504
0.000603523 -4.48777e-05 -3.0175e-07
-4.48777e-05 -4.00298e-05 3.7977e-08
-3.0175e-07 3.7977e-08 -6.08315e-05
0.000684272 -5.31909e-06 1.74841e-06
-5.31909e-06 3.11384e-06 2.37604e-06
1.74841e-06 2.37604e-06 -5.00225e-05
0.00243789 -6.74386e-05 -3.13927e-06
-6.74386e-05 0.00101125 1.96299e-07
-3.13927e-06 1.96299e-07 0.00102232
0.00061718 -3.72192e-05 4.01825e-07
-3.72192e-05 -3.94589e-05 4.31505e-06
4.01825e-07 4.31505e-06 -5.72545e-05
0.00233221 -5.5397e-05 2.09298e-05
-5.5397e-05 0.000943776 4.30654e-06
2.09298e-05 4.30654e-06 0.000957543
0.000728661 0.000219721 -2.75854e-05
0.000219721 0.00109799 4.66822e-05
-2.75854e-05 4.66822e-05 0.00036193
-0.00108022 -0.000125393 2.95778e-06
-0.000125393 0.000871148 1.03241e-05
2.95778e-06 1.03241e-05 -0.000274259
0.00228684 -7.68841e-05 -6.46203e-05
-7.68841e-05 0.000855912 -1.32319e-05
-6.46203e-05 -1.32319e-05 0.000182345
0.000648958 7.02471e-06 1.23063e-06
7.02471e-06 9.4189e-06 1.12921e-07
1.23063e-06 1.12921e-07 -8.53581e-05
0.000738834 1.54282e-05 5.26775e-07
1.54282e-05 6.82955e-05 6.36694e-07
5.26775e-07 6.36694e-07 -3.80419e-05
0.00102632 0.000145173 -6.55069e-07
0.000145173 0.00024451 4.09588e-07
-6.55069e-07 4.09588e-07 0.000121329
0.00125467 0.000191718 1.17555e-06
0.000191718 0.000333654 -4.34391e-07
1.17555e-06 -4.34391e-07 0.000186302
0.000929123 0.000106446 -3.09907e-06
0.000106446 0.000203304 -1.30302e-06
-3.09907e-06 -1.30302e-06 7.2066e-05
0.000850224 6.64367e-05 1.43862e-06
6.64367e-05 0.000127251 1.37098e-06
1.43862e-06 1.37098e-06 2.33268e-05
0.000756212 3.44374e-05 1.53677e-06
3.44374e-05 7.27273e-05 1.42162e-06
1.53677e-06 1.42162e-06 -3.13577e-05
0.000701894 8.18735e-05 -1.74114e-06
8.18735e-05 6.44083e-05 -1.69226e-06
-1.74114e-06 -1.69226e-06 -5.48455e-05
-0.000306453 7.04805e-05 -6.76687e-07
7.04805e-05 -0.000513338 2.0296e-08
-6.76687e-07 2.0296e-08 -0.000644422
0.00108322 0.00017279 2.9933e-07
0.00017279 0.000193476 -4.24319e-06
2.9933e-07 -4.24319e-06 8.23837e-05
0.00219354 0.00037714 3.76137e-06
0.00037714 0.00051258 -1.1799e-05
3.76137e-06 -1.1799e-05 0.000336004
0.000678128 0.000115636 -3.10984e-06
0.000115636 2.27083e-05 -5.61633e-07
-3.10984e-06 -5.61633e-07 -7.11702e-05
0.000677163 2.21632e-05 5.87322e-07
2.21632e-05 4.3749e-05 -1.14277e-06
5.87322e-07 -1.14277e-06 -4.28214e-05
0.0117525 0.000207649 -6.78442e-05
0.000207649 0.00376838 9.71468e-06
-6.78442e-05 9.71468e-06 0.00245344
-0.00151957 -0.000417297 -9.10279e-05
-0.000417297 0.000185248 -2.1985e-05
-9.10279e-05 -2.1985e-05 -0.000497618
0.000107812 -0.000492055 -1.01699e-07
-0.000492055 0.000713309 -3.33989e-05
-1.01699e-07 -3.33989e-05 -9.05407e-06
-0.00392474 -0.000452149 1.09552e-05
-0.000452149 -0.00172058 5.81972e-05
1.09552e-05 5.81972e-05 -0.00151059
0.00931616 0.000148366 6.28295e-05
0.000148366 0.00456483 -1.37731e-05
6.28295e-05 -1.37731e-05 0.00164233
0.00210017 0.00027184 -2.94876e-05
0.00027184 0.000261478 -2.47682e-06
-2.94876e-05 -2.47682e-06 3.47769e-05
0.00164344 0.000485472 -3.8025e-05
0.000485472 0.000200001 -1.47108e-05
-3.8025e-05 -1.47108e-05 -0.000334201
0.0083152 7.39535e-05 4.02756e-05
7.39535e-05 0.0029274 1.39071e-05
4.02756e-05 1.39071e-05 0.00125129
0.00445548 0.000749119 5.48309e-06
0.000749119 0.000710001 -2.88545e-05
5.48309e-06 -2.88545e-05 8.59597e-05
0.00203581 0.00048481 2.05472e-06
0.00048481 0.000297531 8.97889e-06
2.05472e-06 8.97889e-06 0.000136432
0.000914356 0.000315856 4.10507e-06
0.000315856 1.14808e-05 -3.90055e-06
4.10507e-06 -3.90055e-06 -0.000160493
0.00104819 0.000183399 -1.3896e-05
0.000183399 0.000248823 9.08793e-06
-1.3896e-05 9.08793e-06 0.000171007
0.00177888 0.000440061 -2.57106e-05
0.000440061 0.000323153 -1.51616e-05
-2.57106e-05 -1.51616e-05 0.000135192
0.00193849 0.00053257 -1.49667e-05
0.00053257 -5.57865e-05 1.43786e-05
-1.49667e-05 1.43786e-05 -0.000118924
0.000551024 -0.000181364 -2.68362e-05
-0.000181364 -0.002188 -5.21795e-06
-2.68362e-05 -5.21795e-06 -0.00261118
0.00230396 -0.00018484 3.43398e-06
-0.00018484 0.00134517 -9.39381e-06
3.43398e-06 -9.39381e-06 0.00129628
-0.00295117 1.92418e-06 4.25059e-05
1.92418e-06 0.000491987 -4.56889e-06
4.25059e-05 -4.56889e-06 -0.000814065
0.00264723 -0.000526486 -4.88805e-05
-0.000526486 0.000580741 6.21549e-06
-4.88805e-05 6.21549e-06 0.000494732
0.00374089 -0.000766071 4.02678e-06
-0.000766071 0.000869593 -1.34227e-05
4.02678e-06 -1.34227e-05 -0.000324157
0.00105428 -0.000188656 7.02915e-05
-0.000188656 0.00107231 1.69968e-05
7.02915e-05 1.69968e-05 0.000601776
0.00992052 6.13554e-05 -7.49919e-05
6.13554e-05 0.00361051 3.73045e-05
-7.49919e-05 3.73045e-05 0.00187059
0.000686496 -0.000257165 -1.392e-05
-0.000257165 -0.000281393 -1.39623e-06
-1.392e-05 -1.39623e-06 -0.000409059
0.00711586 7.08356e-05 -9.3926e-06
7.08356e-05 0.00158553 2.34721e-05
-9.3926e-06 2.34721e-05 0.000675971
0.0043759 -0.000445277 5.62188e-05
-0.000445277 0.000426171 -3.11589e-07
5.62188e-05 -3.11589e-07 -0.000324731
0.00177285 -0.000259737 2.12457e-05
-0.000259737 0.000296473 -4.95818e-06
2.12457e-05 -4.95818e-06 2.51137e-05
0.00315928 -0.000121729 -7.22134e-05
-0.000121729 0.000440493 -1.20485e-05
-7.22134e-05 -1.20485e-05 0.000147047
-0.00045531 -0.00019565 -1.97811e-05
-0.00019565 -0.00109914 5.52148e-06
-1.97811e-05 5.52148e-06 -0.00102279
0.00151835 -0.000320546 4.6463e-07
-0.000320546 -0.0001799 -7.08673e-07
4.6463e-07 -7.08673e-07 -0.000158446
0.00191376 -0.000240516 7.29724e-06
-0.000240516 -4.5321e-05 -4.81891e-06
7.29724e-06 -4.81891e-06 -1.72051e-05
0.00140738 -0.000348077 -1.02367e-06
-0.000348077 -0.000103283 5.63928e-07
-1.02367e-06 5.63928e-07 -0.000238156
0.00179173 -0.000309746 -1.17805e-06
-0.000309746 2.83146e-05 -1.13939e-07
-1.17805e-06 -1.13939e-07 -6.26341e-05
0.00192575 -0.00022575 -1.86888e-06
-0.00022575 3.21513e-05 1.28384e-06
-1.86888e-06 1.28384e-06 -1.34393e-05
0.00147535 -0.000292946 -2.47097e-06
-0.000292946 -4.34329e-05 2.70842e-06
-2.47097e-06 2.70842e-06 -0.000189534
0.00180499 -0.000252768 3.8773e-07
-0.000252768 5.04101e-05 1.26391e-06
3.8773e-07 1.26391e-06 -4.92988e-05
0.00177148 -0.000209962 -4.1936e-07
-0.000209962 4.18591e-05 8.25839e-07
-4.1936e-07 8.25839e-07 -3.65151e-05
0.00164306 -0.000242237 1.51314e-06
-0.000242237 6.68684e-05 4.6348e-06
1.51314e-06 4.6348e-06 -6.36444e-05
0.00172233 -0.00020991 6.53181e-08
-0.00020991 7.67549e-05 1.16069e-06
6.53181e-08 1.16069e-06 -2.41815e-05
0.00193382 -0.000200048 1.68693e-06
-0.000200048 0.000214731 -3.72324e-07
1.68693e-06 -3.72324e-07 0.0001206
0.00170828 -0.000189092 -3.64423e-06
-0.000189092 0.000112439 3.08626e-06
-3.64423e-06 3.08626e-06 3.72234e-06
0.00174204 -0.000188455 2.83988e-06
-0.000188455 0.000167203 -3.08307e-06
2.83988e-06 -3.08307e-06 4.22336e-05
0.00158968 -0.000199168 -3.53478e-07
-0.000199168 6.06067e-05 7.04954e-06
-3.53478e-07 7.04954e-06 -6.46575e-05
0.00170139 -0.000203513 8.32302e-07
-0.000203513 0.000164755 -8.27092e-07
8.32302e-07 -8.27092e-07 1.8946e-05
0.00162166 -0.000193095 -1.57492e-06
-0.000193095 0.000162446 -2.41143e-06
-1.57492e-06 -2.41143e-06 8.48822e-06
0.00135379 -0.000198684 -6.93518e-06
-0.000198684 8.32463e-05 1.25801e-07
-6.93518e-06 1.25801e-07 -8.52944e-05
0.00167261 -0.000225545 6.06521e-07
-0.000225545 0.000215277 -4.08771e-07
6.06521e-07 -4.08771e-07 3.85739e-05
0.00164152 -0.000232836 1.69904e-06
-0.000232836 0.000169911 3.15111e-06
1.69904e-06 3.15111e-06 -9.15825e-06
0.00127374 -0.000195406 -4.48196e-06
-0.000195406 0.000185483 3.63661e-06
-4.48196e-06 3.63661e-06 1.68669e-05
0.00119516 -0.000207703 -1.04355e-06
-0.000207703 6.79087e-05 1.20756e-06
-1.04355e-06 1.20756e-06 -0.000117756
0.00122693 -0.000221188 3.61609e-06
-0.000221188 2.88578e-05 -1.32809e-06
3.61609e-06 -1.32809e-06 -0.000164443
0.000735336 -0.000107122 -4.35122e-06
-0.000107122 2.39558e-06 3.72954e-06
-4.35122e-06 3.72954e-06 -0.000117249
0.00109416 -0.000176136 4.62007e-07
-0.000176136 0.000162791 -3.29662e-07
4.62007e-07 -3.29662e-07 1.75674e-06
0.00135628 -0.000212534 1.21471e-06
-0.000212534 0.000264699 -3.09834e-06
1.21471e-06 -3.09834e-06 8.25113e-05
0.000487611 -6.7327e-06 -5.66946e-06
-6.7327e-06 -9.05504e-05 8.3286e-06
-5.66946e-06 8.3286e-06 -0.000137294
0.000814293 -9.72785e-05 -6.13672e-08
-9.72785e-05 7.72712e-05 1.86528e-07
-6.13672e-08 1.86528e-07 -3.43336e-05
0.00112359 -0.00016381 1.35453e-06
-0.00016381 0.000223485 -1.27928e-06
1.35453e-06 -1.27928e-06 7.65369e-05
0.00295556 0.000128469 -5.00592e-05
0.000128469 0.00134229 2.25734e-06
-5.00592e-05 2.25734e-06 0.0013382
0.000569047 3.07685e-05 3.5916e-07
3.07685e-05 -3.05709e-05 -3.97008e-07
3.5916e-07 -3.97008e-07 -7.119e-05
0.000805984 -8.39653e-05 3.48917e-06
-8.39653e-05 9.48755e-05 -3.13952e-06
3.48917e-06 -3.13952e-06 -7.51513e-06
0.00267201 0.000111252 3.0993e-06
0.000111252 0.00117714 2.47513e-07
3.0993e-06 2.47513e-07 0.0011777
0.000642464 5.51631e-05 1.27445e-06
5.51631e-05 1.55655e-05 -6.02402e-06
1.27445e-06 -6.02402e-06 -1.7637e-05
0.00250079 9.89069e-05 4.09679e-05
9.89069e-05 0.00107464 -2.42699e-06
4.09679e-05 -2.42699e-06 0.00107871
0.000950284 0.000157246 9.03676e-07
0.000157246 0.000152598 -1.28348e-06
9.03676e-07 -1.28348e-06 1.57511e-05
0.000826793 0.000112173 6.45717e-07
0.000112173 0.000108834 -6.32386e-08
6.45717e-07 -6.32386e-08 -2.79909e-06
0.000637751 2.70072e-06 -7.27984e-07
2.70072e-06 1.14435e-07 -9.6724e-07
-7.27984e-07 -9.6724e-07 -0.000102053
0.000605343 -2.2887e-06 3.15575e-07
-2.2887e-06 -2.44589e-05 8.06378e-07
3.15575e-07 8.06378e-07 -0.000114881
0.000678454 -2.46264e-05 -1.78513e-08
-2.46264e-05 2.19937e-05 2.19248e-07
-1.78513e-08 2.19248e-07 -7.02691e-05
0.000661994 -2.43193e-05 -1.22496e-06
-2.43193e-05 3.41192e-06 -3.32756e-06
-1.22496e-06 -3.32756e-06 -6.45778e-05
0.000695194 -2.66463e-05 1.08861e-07
-2.66463e-05 2.46348e-05 1.63529e-06
1.08861e-07 1.63529e-06 -5.82897e-05
0.00065997 -2.9658e-05 3.41927e-07
-2.9658e-05 -1.10895e-06 -1.91841e-07
3.41927e-07 -1.91841e-07 -6.1639e-05
0.000601498 -6.56117e-05 6.00413e-07
-6.56117e-05 -2.06546e-05 -5.46191e-06
6.00413e-07 -5.46191e-06 -4.89369e-05
0.00253742 -8.84546e-05 -3.8063e-05
-8.84546e-05 0.00108268 -3.14235e-06
-3.8063e-05 -3.14235e-06 0.00108935
0.000595063 -5.32484e-05 2.97252e-09
-5.32484e-05 -3.61009e-05 3.03182e-08
2.97252e-09 3.03182e-08 -5.98811e-05
0.000659268 -1.89124e-05 1.96761e-06
-1.89124e-05 -6.7012e-06 2.59773e-06
1.96761e-06 2.59773e-06 -6.25673e-05
0.00249593 -7.79087e-05 -2.85249e-06
-7.79087e-05 0.00105127 2.1725e-07
-2.85249e-06 2.1725e-07 0.00106009
0.000602122 -4.30536e-05 6.60316e-07
-4.30536e-05 -4.11991e-05 4.53737e-06
6.60316e-07 4.53737e-06 -6.17431e-05
0.00241126 -6.66083e-05 2.58696e-05
-6.66083e-05 0.000995298 4.10366e-06
2.58696e-05 4.10366e-06 0.00100662
0.00982716 0.000317468 0.000128476
0.000317468 0.00281657 4.98436e-05
0.000128476 4.98436e-05 0.00188823
-0.00229329 -0.000356492 -5.90782e-05
-0.000356492 -0.00139578 -5.15328e-06
-5.90782e-05 -5.15328e-06 -0.00151579
-0.0029363 3.12556e-05 -5.3868e-05
3.12556e-05 -4.83114e-05 -2.04561e-05
-5.3868e-05 -2.04561e-05 -0.00144248
0.000697928 -1.21433e-05 2.73421e-06
-1.21433e-05 4.1547e-05 1.9972e-06
2.73421e-06 1.9972e-06 -6.23374e-05
0.000795661 0.000133575 -7.26367e-07
0.000133575 0.000119932 1.33481e-06
-7.26367e-07 1.33481e-06 8.70244e-07
0.00109001 0.000122036 5.19358e-07
0.000122036 0.000291027 4.0489e-09
5.19358e-07 4.0489e-09 0.000159965
0.00106316 0.000175982 -1.79605e-06
0.000175982 0.000229731 1.9922e-07
-1.79605e-06 1.9922e-07 8.56831e-05
0.00128216 0.000203241 1.421e-05
0.000203241 0.000305795 2.47959e-07
1.421e-05 2.47959e-07 0.000136389
0.000387416 0.00012403 -1.44136e-06
0.00012403 -0.000121874 -1.19308e-06
-1.44136e-06 -1.19308e-06 -0.000260359
0.000505016 8.6015e-05 -1.16647e-06
8.6015e-05 -4.05117e-05 -1.17524e-06
-1.16647e-06 -1.17524e-06 -0.000158335
0.00032332 0.000122907 4.17658e-07
0.000122907 -0.000172737 9.34632e-07
4.17658e-07 9.34632e-07 -0.000315481
0.00100972 0.000163016 -1.35587e-06
0.000163016 0.000158915 1.42491e-07
-1.35587e-06 1.42491e-07 4.36756e-05
0.000210284 0.000159866 1.81404e-06
0.000159866 -0.000368692 -1.20694e-06
1.81404e-06 -1.20694e-06 -0.00050892
0.00298577 0.000400218 -3.37354e-06
0.000400218 0.000947152 -3.87841e-06
-3.37354e-06 -3.87841e-06 0.000785723
0.0017315 0.00038306 -2.757e-06
0.00038306 0.000146161 2.06797e-06
-2.757e-06 2.06797e-06 -1.68996e-05
0.00155682 0.000332858 4.60072e-06
0.000332858 0.000197686 -2.79721e-06
4.60072e-06 -2.79721e-06 3.39019e-05
0.000634494 0.000123166 -4.27273e-06
0.000123166 1.90675e-05 5.3109e-06
-4.27273e-06 5.3109e-06 -7.47628e-05
0.00320844 0.000275672 4.90192e-06
0.000275672 -0.000217276 1.1151e-05
4.90192e-06 1.1151e-05 -0.000441813
0.00653405 0.000159515 2.55297e-05
0.000159515 0.0013146 2.3958e-05
2.55297e-05 2.3958e-05 -2.54352e-05
0.00611079 -0.000870097 -9.5057e-07
-0.000870097 0.0032229 -4.62179e-05
-9.5057e-07 -4.62179e-05 0.00301257
0.00543261 0.000517781 0.000310559
0.000517781 0.00153594 9.14659e-05
0.000310559 9.14659e-05 -0.000957725
0.00103006 0.000430963 2.85507e-05
0.000430963 -0.000362674 2.53764e-05
2.85507e-05 2.53764e-05 -0.000485941
0.00297787 0.000595244 -7.13305e-05
0.000595244 0.000108592 -2.34962e-05
-7.13305e-05 -2.34962e-05 -0.000294811
0.00316241 0.000534684 5.40233e-05
0.000534684 0.000564995 2.42428e-05
5.40233e-05 2.42428e-05 0.00057924
0.00243444 0.000509163 2.23841e-06
0.000509163 0.000455356 6.17381e-06
2.23841e-06 6.17381e-06 0.000317584
0.000657245 0.000278183 -2.38481e-06
0.000278183 -8.88585e-05 9.84486e-06
-2.38481e-06 9.84486e-06 -0.000251972
0.00260736 0.000596902 -8.39383e-05
0.000596902 0.0002625 -4.49811e-05
-8.39383e-05 -4.49811e-05 0.000165031
0.00317076 -0.000160194 -0.000126881
-0.000160194 0.000515125 5.73797e-06
-0.000126881 5.73797e-06 0.000144939
0.009264 -0.000166222 4.26626e-06
-0.000166222 0.00288931 -3.73268e-06
4.26626e-06 -3.73268e-06 0.00224609
-0.00741415 -0.00024624 0.00020052
-0.00024624 -0.00396408 5.96094e-07
0.00020052 5.96094e-07 -0.00381014
0.00149596 -0.000309966 -2.96232e-05
-0.000309966 4.57025e-05 9.32782e-06
-2.96232e-05 9.32782e-06 -3.40888e-05
0.00554809 -0.00050229 8.0439e-05
-0.00050229 0.0011804 1.17524e-05
8.0439e-05 1.17524e-05 0.000409852
0.0014869 -0.000378151 7.30548e-05
-0.000378151 -0.00128888 5.01166e-05
7.30548e-05 5.01166e-05 -0.00219327
0.00120456 -0.000201149 1.38978e-05
-0.000201149 -1.06143e-05 -8.71712e-07
1.38978e-05 -8.71712e-07 -0.000193217
0.00204719 -3.15173e-05 -5.73283e-06
-3.15173e-05 -0.000281222 6.15919e-06
-5.73283e-06 6.15919e-06 -0.000552849
0.00382373 -0.0002168 1.45314e-05
-0.0002168 0.00109559 -4.01517e-06
1.45314e-05 -4.01517e-06 0.00104092
0.00312589 -2.24401e-05 5.95833e-05
-2.24401e-05 0.000659259 -4.4036e-06
5.95833e-05 -4.4036e-06 0.000641067
0.000544604 -0.0002853 -1.03774e-05
-0.0002853 -0.000671525 4.80628e-06
-1.03774e-05 4.80628e-06 -0.000659613
0.00178249 -0.000246663 -5.14789e-07
-0.000246663 -0.00010797 1.2854e-06
-5.14789e-07 1.2854e-06 -9.3217e-05
0.00177297 -0.000137883 7.40788e-06
-0.000137883 -7.474e-05 -5.62101e-07
7.40788e-06 -5.62101e-07 -5.90187e-05
0.00156389 -0.000288384 3.52798e-06
-0.000288384 -7.56815e-05 -5.0484e-07
3.52798e-06 -5.0484e-07 -0.000163296
0.00189387 -0.000225872 1.89454e-06
-0.000225872 2.59799e-05 7.82929e-07
1.89454e-06 7.82929e-07 -2.46873e-05
0.00181765 -0.000160311 3.30096e-07
-0.000160311 4.85309e-05 1.29796e-06
3.30096e-07 1.29796e-06 1.90997e-06
0.00178394 -0.000251246 6.62541e-06
-0.000251246 3.78631e-05 3.07779e-06
6.62541e-06 3.07779e-06 -6.16602e-05
0.00184089 -0.000209423 1.17751e-06
-0.000209423 8.80374e-05 3.84085e-07
1.17751e-06 3.84085e-07 9.64517e-06
0.00197388 -0.000175356 -1.8762e-08
-0.000175356 0.000213612 8.68994e-07
-1.8762e-08 8.68994e-07 0.000133458
0.001678 -0.000208889 1.1099e-06
-0.000208889 5.34832e-05 3.75327e-06
1.1099e-06 3.75327e-06 -4.826e-05
0.00177861 -0.000195798 -1.3972e-07
-0.000195798 0.00013296 5.02715e-07
-1.3972e-07 5.02715e-07 3.7623e-05
0.0016421 -0.000180327 4.46066e-06
-0.000180327 8.88633e-05 -1.65817e-06
4.46066e-06 -1.65817e-06 -2.27953e-05
0.00163974 -0.000189261 -4.09737e-06
-0.000189261 6.93163e-05 6.73081e-06
-4.09737e-06 6.73081e-06 -3.69912e-05
0.00178182 -0.000188768 -1.60016e-06
-0.000188768 0.000189422 -6.32013e-08
-1.60016e-06 -6.32013e-08 6.72426e-05
0.00170713 -0.000175817 6.71637e-07
-0.000175817 0.000198208 -1.45535e-06
6.71637e-07 -1.45535e-06 5.84024e-05
0.00169518 -0.000203811 9.90288e-07
-0.000203811 0.000161311 3.07499e-06
9.90288e-07 3.07499e-06 1.52001e-05
0.00167005 -0.000195517 8.27967e-07
-0.000195517 0.000190888 -7.40168e-07
8.27967e-07 -7.40168e-07 3.60514e-05
0.00157745 -0.000183282 -3.45204e-06
-0.000183282 0.000188684 -1.66905e-07
-3.45204e-06 -1.66905e-07 3.65529e-05
0.00108376 -0.000174679 -8.82709e-06
-0.000174679 -5.0917e-06 1.95502e-06
-8.82709e-06 1.95502e-06 -0.000161929
0.00147834 -0.000206272 -1.40334e-06
-0.000206272 0.000154177 1.75686e-08
-1.40334e-06 1.75686e-08 -1.5316e-05
0.00169606 -0.000226392 4.11083e-06
-0.000226392 0.000229734 1.09692e-08
4.11083e-06 1.09692e-08 5.2449e-05
0.000906969 -0.000135685 -6.31317e-06
-0.000135685 4.55277e-05 5.49004e-06
-6.31317e-06 5.49004e-06 -8.47131e-05
0.00115622 -0.000186092 8.07527e-07
-0.000186092 0.000118677 1.04068e-06
8.07527e-07 1.04068e-06 -4.81553e-05
0.00128488 -0.000213291 2.50871e-06
-0.000213291 0.000117667 -3.78254e-07
2.50871e-06 -3.78254e-07 -6.8593e-05
0.000483022 -3.61114e-05 -8.94988e-06
-3.61114e-05 -0.000103381 9.36921e-06
-8.94988e-06 9.36921e-06 -0.000159704
0.00087199 -0.000120373 -9.00813e-09
-0.000120373 7.91257e-05 -2.99027e-07
-9.00813e-09 -2.99027e-07 -4.26135e-05
0.00114086 -0.000180213 2.80818e-06
-0.000180213 0.000185475 -3.15383e-06
2.80818e-06 -3.15383e-06 2.3952e-05
0.0034891 0.000141189 -7.38938e-05
0.000141189 0.00164524 2.40949e-06
-7.38938e-05 2.40949e-06 0.00163754
0.000602343 -1.38309e-05 4.07978e-07
-1.38309e-05 -2.78937e-05 -2.01319e-07
4.07978e-07 -2.01319e-07 -7.58938e-05
0.000896617 -0.000106693 4.82659e-06
-0.000106693 0.000122196 -3.19445e-06
4.82659e-06 -3.19445e-06 9.34004e-06
0.00311925 0.000120928 4.81523e-06
0.000120928 0.00143203 2.51456e-07
4.81523e-06 2.51456e-07 0.00142974
0.000660011 2.06772e-05 4.79526e-06
2.06772e-05 1.74243e-05 -7.01789e-06
4.79526e-06 -7.01789e-06 -2.26095e-05
0.00280195 0.000104764 6.0142e-05
0.000104764 0.00124833 -2.4257e-06
6.0142e-05 -2.4257e-06 0.00125063
0.00110262 0.000180148 -4.45266e-07
0.000180148 0.000205505 -4.78712e-06
-4.45266e-07 -4.78712e-06 4.5641e-05
0.00115359 0.000172818 5.2624e-07
0.000172818 0.000268024 2.48911e-07
5.2624e-07 2.48911e-07 0.000129381
0.000815334 9.6999e-05 -1.53654e-06
9.6999e-05 8.27669e-05 -1.99662e-06
-1.53654e-06 -1.99662e-06 -3.73599e-05
0.00073774 0.000129418 -8.098e-08
0.000129418 6.6096e-05 4.67167e-07
-8.098e-08 4.67167e-07 -5.02625e-05
0.000643039 2.34377e-05 -5.47011e-07
2.34377e-05 2.66533e-06 -2.08842e-07
-5.47011e-07 -2.08842e-07 -0.000102039
0.000720886 3.09297e-05 -2.27235e-06
3.09297e-05 4.47391e-05 -2.98589e-06
-2.27235e-06 -2.98589e-06 -4.02543e-05
0.000623112 -3.94779e-05 1.91472e-07
-3.94779e-05 -1.04883e-05 1.57393e-06
1.91472e-07 1.57393e-06 -0.000101938
0.000657156 -2.64811e-05 3.4092e-07
-2.64811e-05 2.87058e-06 -3.2365e-07
3.4092e-07 -3.2365e-07 -6.59778e-05
0.000594982 -6.85907e-05 5.75743e-07
-6.85907e-05 -1.56411e-05 -6.02558e-06
5.75743e-07 -6.02558e-06 -4.81197e-05
0.000643735 -3.2777e-05 1.369e-06
-3.2777e-05 -9.28705e-06 2.95516e-06
1.369e-06 2.95516e-06 -6.99058e-05
0.000581662 -6.42592e-05 1.93184e-07
-6.42592e-05 -3.29401e-05 -2.05374e-08
1.93184e-07 -2.05374e-08 -6.07176e-05
0.00258263 -9.81223e-05 -4.33202e-05
-9.81223e-05 0.00111505 -2.63009e-06
-4.33202e-05 -2.63009e-06 0.00111967
0.00253177 -8.8045e-05 -1.98497e-06
-8.8045e-05 0.0010789 2.09145e-07
-1.98497e-06 2.09145e-07 0.00108557
0.000587265 -5.00375e-05 1.02482e-06
-5.00375e-05 -4.15545e-05 4.79502e-06
1.02482e-06 4.79502e-06 -6.4736e-05
0.00247758 -7.72637e-05 3.10521e-05
-7.72637e-05 0.00104021 3.80532e-06
3.10521e-05 3.80532e-06 0.00104914
0.00274302 -3.35337e-06 -3.51839e-05
-3.35337e-06 -6.61713e-05 2.25622e-05
-3.51839e-05 2.25622e-05 -0.000135322
0.00154685 -0.000348759 2.97149e-05
-0.000348759 -0.00139557 1.218e-05
2.97149e-05 1.218e-05 -0.00232856
0.00449381 -0.000471353 -3.66761e-05
-0.000471353 0.00186673 -3.6205e-05
-3.66761e-05 -3.6205e-05 0.00197771
0.00172573 0.000247652 1.10695e-05
0.000247652 0.000428559 5.05442e-06
1.10695e-05 5.05442e-06 0.000245066
0.00126916 0.000142044 1.66673e-06
0.000142044 0.0003899 1.02583e-06
1.66673e-06 1.02583e-06 0.000257959
0.000906335 0.000163101 -1.44377e-06
0.000163101 0.000145701 2.08339e-06
-1.44377e-06 2.08339e-06 4.44204e-06
0.000721571 0.000152076 7.18709e-07
0.000152076 6.15344e-05 9.09163e-07
7.18709e-07 9.09163e-07 -8.27642e-05
0.0010788 0.000189303 -1.16447e-07
0.000189303 0.000197632 -2.66924e-06
-1.16447e-07 -2.66924e-06 2.76975e-05
0.000816031 0.000187752 1.13642e-07
0.000187752 -1.64216e-05 2.91535e-07
1.13642e-07 2.91535e-07 -0.000159829
0.000879794 0.00017057 -1.25123e-06
0.00017057 0.000127181 -3.71664e-07
-1.25123e-06 -3.71664e-07 -2.66297e-05
0.000991726 0.00015735 -1.12647e-06
0.00015735 0.000152117 5.52385e-06
-1.12647e-06 5.52385e-06 3.29246e-05
0.00104117 0.000219467 7.15095e-07
0.000219467 8.14228e-05 -2.30794e-07
7.15095e-07 -2.30794e-07 -6.37017e-05
0.00226722 0.000349579 1.71095e-06
0.000349579 0.000564588 6.34317e-06
1.71095e-06 6.34317e-06 0.000406624
0.00171672 0.000347248 -2.0688e-06
0.000347248 0.000147475 -5.0709e-07
-2.0688e-06 -5.0709e-07 -1.96131e-05
0.00137914 0.000296456 1.1295e-05
0.000296456 -4.23302e-05 8.48365e-06
1.1295e-05 8.48365e-06 -0.000154891
0.0012428 0.000351977 -1.80857e-06
0.000351977 -0.000116127 -2.75941e-06
-1.80857e-06 -2.75941e-06 -0.000280898
0.000676464 0.000267138 1.90763e-06
0.000267138 -0.000247913 3.82271e-06
1.90763e-06 3.82271e-06 -0.000395434
0.00073053 0.000201281 1.47805e-05
0.000201281 -0.000281978 1.27482e-05
1.47805e-05 1.27482e-05 -0.000279022
0.00525737 0.000430949 -2.85495e-05
0.000430949 0.000640429 -1.42878e-07
-2.85495e-05 -1.42878e-07 0.000303741
0.0018102 -1.08298e-05 0.000102738
-1.08298e-05 -0.000988233 2.59997e-05
0.000102738 2.59997e-05 -0.00232731
0.00176707 0.000534124 4.90342e-05
0.000534124 -0.00048708 4.62942e-07
4.90342e-05 4.62942e-07 -0.00100098
0.00182004 0.000406094 -2.17683e-05
0.000406094 0.000122852 -2.58972e-06
-2.17683e-05 -2.58972e-06 0.00010835
0.00133177 0.000411443 -3.60666e-05
0.000411443 -5.55472e-05 -2.37273e-05
-3.60666e-05 -2.37273e-05 -0.000192817
0.0023388 -0.000129105 1.56942e-05
-0.000129105 0.000218777 -8.06829e-08
1.56942e-05 -8.06829e-08 0.000157645
0.00114741 6.08134e-06 -9.3954e-06
6.08134e-06 -0.000487692 3.22204e-06
-9.3954e-06 3.22204e-06 -0.000674089
0.000724473 0.000439553 7.29775e-05
0.000439553 -0.00200683 -2.31437e-05
7.29775e-05 -2.31437e-05 -0.00266376
0.000722607 -0.000138612 -6.81892e-06
-0.000138612 -0.00029335 1.90019e-05
-6.81892e-06 1.90019e-05 -0.000359288
0.00282661 -6.18896e-05 -4.04314e-06
-6.18896e-05 -3.40972e-05 2.7433e-05
-4.04314e-06 2.7433e-05 -0.000382871
0.0016644 -0.000143238 -4.80136e-06
-0.000143238 -3.96904e-05 1.24105e-06
-4.80136e-06 1.24105e-06 -5.63746e-05
0.00236835 -5.50604e-05 -5.2416e-06
-5.50604e-05 0.000251389 -1.94868e-06
-5.2416e-06 -1.94868e-06 0.000207417
0.00151383 -7.94002e-05 2.121e-05
-7.94002e-05 -0.000193477 -1.40699e-06
2.121e-05 -1.40699e-06 -0.000192829
0.00286293 -4.13959e-05 1.91822e-05
-4.13959e-05 0.000705347 -1.07039e-07
1.91822e-05 -1.07039e-07 0.000663782
0.00171881 -0.000255413 -8.29797e-06
-0.000255413 -0.000133231 3.55155e-06
-8.29797e-06 3.55155e-06 -0.000135307
0.00179853 -0.000145626 2.29695e-06
-0.000145626 -7.31202e-05 1.09664e-06
2.29695e-06 1.09664e-06 -6.37532e-05
0.00185304 -0.00015522 3.22604e-07
-0.00015522 3.62913e-05 9.5841e-08
3.22604e-07 9.5841e-08 1.85415e-05
0.00183169 -0.000223875 3.59924e-06
-0.000223875 5.97012e-06 1.02468e-06
3.59924e-06 1.02468e-06 -5.00105e-05
0.00182899 -0.000173175 5.31339e-07
-0.000173175 4.65047e-05 8.11148e-08
5.31339e-07 8.11148e-08 -4.78963e-06
0.00185116 -0.000160132 1.11033e-06
-0.000160132 0.00012302 8.64803e-07
1.11033e-06 8.64803e-07 5.53044e-05
0.00190743 -0.000209589 1.0065e-06
-0.000209589 0.000132372 1.14436e-06
1.0065e-06 1.14436e-06 5.38494e-05
0.00186826 -0.000178644 -1.05671e-06
-0.000178644 0.000154853 4.12063e-08
-1.05671e-06 4.12063e-08 7.32021e-05
0.00165962 -0.00015925 2.54515e-06
-0.00015925 7.70423e-05 -2.30742e-07
2.54515e-06 -2.30742e-07 -2.42202e-05
0.00162004 -0.00019177 -3.1177e-06
-0.00019177 4.90309e-05 1.67817e-06
-3.1177e-06 1.67817e-06 -4.75536e-05
0.00165316 -0.000180469 4.29801e-07
-0.000180469 9.86753e-05 -4.71592e-07
4.29801e-07 -4.71592e-07 -1.30223e-05
0.00159983 -0.000162696 1.59153e-06
-0.000162696 0.000112154 -1.11657e-06
1.59153e-06 -1.11657e-06 -1.86795e-05
0.0018191 -0.000188808 -5.07681e-06
-0.000188808 0.000210134 4.14056e-06
-5.07681e-06 4.14056e-06 9.07834e-05
0.00171178 -0.000174509 -4.08306e-07
-0.000174509 0.000197909 -1.85393e-07
-4.08306e-07 -1.85393e-07 6.00685e-05
0.00145321 -0.000154763 -2.51967e-06
-0.000154763 0.000106785 1.43277e-07
-2.51967e-06 1.43277e-07 -3.75272e-05
0.00171251 -0.000197831 2.99177e-06
-0.000197831 0.000215956 7.73529e-07
2.99177e-06 7.73529e-07 6.02574e-05
0.00150251 -0.000179947 7.08898e-07
-0.000179947 0.000145579 -4.73634e-07
7.08898e-07 -4.73634e-07 -7.52209e-06
0.00128595 -0.000161041 -6.82485e-06
-0.000161041 8.032e-05 1.94021e-06
-6.82485e-06 1.94021e-06 -6.29219e-05
0.00102124 -0.000144492 -9.35968e-06
-0.000144492 4.66984e-05 4.924e-06
-9.35968e-06 4.924e-06 -8.15982e-05
0.00111702 -0.000175275 -1.99512e-06
-0.000175275 1.78496e-05 4.48934e-07
-1.99512e-06 4.48934e-07 -0.000138332
0.00157084 -0.000211883 3.90661e-06
-0.000211883 0.000207072 -5.17863e-07
3.90661e-06 -5.17863e-07 3.68794e-05
0.000532474 -0.000111648 -1.42379e-05
-0.000111648 -8.99603e-05 1.11211e-05
-1.42379e-05 1.11211e-05 -0.000159402
0.000916356 -0.00013904 7.18337e-07
-0.00013904 5.18873e-05 4.39103e-07
7.18337e-07 4.39103e-07 -7.89907e-05
0.00105203 -0.000178024 5.53092e-06
-0.000178024 5.95883e-05 -1.47293e-06
5.53092e-06 -1.47293e-06 -0.000105702
0.00392283 0.000153248 -9.22483e-05
0.000153248 0.00189699 3.49015e-06
-9.22483e-05 3.49015e-06 0.0018844
0.000627683 -7.20176e-05 2.17746e-07
-7.20176e-05 -2.47139e-05 -2.04347e-07
2.17746e-07 -2.04347e-07 -8.46628e-05
0.000966991 -0.000131735 5.68934e-06
-0.000131735 0.000132627 -4.73483e-06
5.68934e-06 -4.73483e-06 8.95339e-06
0.00360071 0.000125727 3.62588e-06
0.000125727 0.00170556 4.05024e-07
3.62588e-06 4.05024e-07 0.00170053
0.000705378 -3.11789e-05 9.15342e-06
-3.11789e-05 2.81277e-05 -8.20593e-06
9.15342e-06 -8.20593e-06 -2.13489e-05
0.00325251 0.000103064 8.58471e-05
0.000103064 0.00150325 -3.48234e-06
8.58471e-05 -3.48234e-06 0.00150425
0.00104485 0.000189583 -2.88275e-06
0.000189583 8.62359e-05 -1.14757e-06
-2.88275e-06 -1.14757e-06 -9.03932e-05
0.00104901 0.000175793 -4.95797e-08
0.000175793 0.000177688 -1.73486e-06
-4.95797e-08 -1.73486e-06 1.85493e-05
0.00112748 0.000164053 -1.22618e-06
0.000164053 0.000230574 -2.62149e-06
-1.22618e-06 -2.62149e-06 8.87928e-05
0.00134559 0.000187481 -4.39386e-07
0.000187481 0.000376905 6.13881e-07
-4.39386e-07 6.13881e-07 0.00023663
0.000875126 0.000104998 -1.16206e-06
0.000104998 0.000115137 -9.01608e-07
-1.16206e-06 -9.01608e-07 -4.80056e-06
0.000805981 6.2222e-05 -2.94867e-06
6.2222e-05 9.06188e-05 -2.45846e-06
-2.94867e-06 -2.45846e-06 -7.66565e-06
0.000656703 4.58313e-05 5.18354e-08
4.58313e-05 8.44345e-06 3.91482e-07
5.18354e-08 3.91482e-07 -9.79641e-05
0.000674533 -8.93617e-06 -3.82299e-07
-8.93617e-06 1.67964e-05 -7.66652e-08
-3.82299e-07 -7.66652e-08 -6.43501e-05
0.000588946 -5.61144e-05 -1.40547e-06
-5.61144e-05 -1.72888e-05 -6.32838e-06
-1.40547e-06 -6.32838e-06 -5.41067e-05
0.000623813 -4.14533e-05 9.51657e-07
-4.14533e-05 -1.36491e-05 3.3094e-06
9.51657e-07 3.3094e-06 -8.27807e-05
0.00056279 -7.10903e-05 3.17989e-07
-7.10903e-05 -3.36213e-05 -1.54933e-07
3.17989e-07 -1.54933e-07 -6.62995e-05
0.00268263 -0.000107129 -5.12586e-05
-0.000107129 0.00117714 -2.19787e-06
-5.12586e-05 -2.19787e-06 0.00117965
0.000565519 -6.10216e-05 6.49091e-07
-6.10216e-05 -4.37746e-05 5.1459e-06
6.49091e-07 5.1459e-06 -7.06358e-05
0.00256734 -9.80856e-05 -1.45207e-06
-9.80856e-05 0.00110607 1.927e-07
-1.45207e-06 1.927e-07 0.00111056
0.00252281 -8.73271e-05 3.63127e-05
-8.73271e-05 0.00107333 3.40856e-06
3.63127e-05 3.40856e-06 0.00108005
0.000613687 2.67267e-05 1.20252e-05
2.67267e-05 -0.000486086 6.74079e-06
1.20252e-05 6.74079e-06 -0.00049257
0.00420049 6.08636e-05 2.69439e-05
6.08636e-05 0.00048327 9.59259e-06
2.69439e-05 9.59259e-06 0.000215258
0.00807133 0.000390781 -9.06441e-05
0.000390781 0.00236829 -3.74994e-05
-9.06441e-05 -3.74994e-05 0.0013135
0.000753261 0.000183252 2.50962e-06
0.000183252 -0.000163906 1.73221e-06
2.50962e-06 1.73221e-06 -0.000315188
0.00151919 0.000241674 2.75965e-06
0.000241674 0.000136848 -3.75979e-07
2.75965e-06 -3.75979e-07 -2.11675e-05
0.00114603 0.000212088 -1.0679e-06
0.000212088 0.000110326 -1.04964e-06
-1.0679e-06 -1.04964e-06 -6.69415e-05
0.00103811 0.000178451 -1.0944e-06
0.000178451 0.000235468 4.01106e-07
-1.0944e-06 4.01106e-07 8.55873e-05
0.000837024 0.000172086 -1.45386e-06
0.000172086 6.64267e-05 -2.82528e-07
-1.45386e-06 -2.82528e-07 -0.000103709
0.00126453 0.000224217 6.14839e-06
0.000224217 0.000214673 2.18731e-06
6.14839e-06 2.18731e-06 6.49216e-05
0.00243191 0.000360926 -9.27147e-06
0.000360926 0.000564097 -4.59946e-06
-9.27147e-06 -4.59946e-06 0.000401101
0.00181376 0.000275446 -6.0751e-07
0.000275446 0.000501898 2.07538e-06
-6.0751e-07 2.07538e-06 0.000352055
0.00129263 0.0002832 8.6776e-06
0.0002832 4.71774e-05 1.41929e-05
8.6776e-06 1.41929e-05 -0.000106118
0.00188055 0.00035253 -1.38826e-06
0.00035253 0.000243397 1.03396e-06
-1.38826e-06 1.03396e-06 7.88393e-05
0.00216927 0.000338575 -8.76839e-06
0.000338575 0.000302607 2.54914e-06
-8.76839e-06 2.54914e-06 0.000158357
0.000720575 0.000137538 1.56554e-05
0.000137538 -0.000456909 4.97156e-06
1.56554e-05 4.97156e-06 -0.000520312
0.00130507 0.000287228 8.72311e-06
0.000287228 -8.04961e-05 1.52108e-06
8.72311e-06 1.52108e-06 -0.000195533
0.00109188 0.000338141 -6.35505e-06
0.000338141 -0.000207763 -7.51495e-06
-6.35505e-06 -7.51495e-06 -0.000373649
0.00115387 0.000193308 -5.01509e-06
0.000193308 -7.75824e-05 3.03842e-06
-5.01509e-06 3.03842e-06 -8.43283e-05
0.00496991 0.000221137 4.01733e-05
0.000221137 0.000419089 -1.74534e-06
4.01733e-05 -1.74534e-06 2.35745e-05
0.00142246 0.000335641 4.64711e-06
0.000335641 0.000120852 -1.61947e-05
4.64711e-06 -1.61947e-05 9.99833e-05
0.00134704 -3.37615e-05 2.06158e-05
-3.37615e-05 -7.23557e-05 2.65293e-06
2.06158e-05 2.65293e-06 -0.000104483
0.00199561 -6.13387e-05 -1.30669e-05
-6.13387e-05 8.4747e-05 -7.14363e-07
-1.30669e-05 -7.14363e-07 2.23993e-05
0.00160698 0.000130884 5.1022e-05
0.000130884 -0.000493445 -8.59313e-06
5.1022e-05 -8.59313e-06 -0.00075046
0.000301236 -0.000109575 -2.12149e-05
-0.000109575 -0.000751023 1.39859e-05
-2.12149e-05 1.39859e-05 -0.000736799
0.00236311 -9.97197e-05 -6.76531e-05
-9.97197e-05 0.000236302 5.19551e-06
-6.76531e-05 5.19551e-06 0.000188175
0.0016352 -0.00010648 8.14545e-07
-0.00010648 -0.000134486 8.89773e-09
8.14545e-07 8.89773e-09 -0.000122082
0.00226421 -5.13897e-05 -3.91767e-06
-5.13897e-05 0.000329231 5.40381e-07
-3.91767e-06 5.40381e-07 0.000284448
0.00195366 -0.000138361 6.33259e-06
-0.000138361 4.15034e-05 -1.35705e-08
6.33259e-06 -1.35705e-08 2.3314e-05
0.00195708 -2.68125e-05 4.89616e-06
-2.68125e-05 7.82311e-05 -2.00008e-07
4.89616e-06 -2.00008e-07 3.04615e-05
0.0018562 -0.000154588 -1.52341e-06
-0.000154588 -5.78307e-05 1.36896e-06
-1.52341e-06 1.36896e-06 -5.1569e-05
0.00179921 -0.000151473 -1.69619e-06
-0.000151473 9.12874e-06 -1.52914e-07
-1.69619e-06 -1.52914e-07 -9.36583e-06
0.00185425 -0.000139986 1.37287e-06
-0.000139986 5.70701e-05 5.95207e-07
1.37287e-06 5.95207e-07 6.52691e-06
0.00183607 -0.000184762 -5.71713e-07
-0.000184762 4.27282e-05 -9.2381e-07
-5.71713e-07 -9.2381e-07 -1.30124e-05
0.00177054 -0.000157895 2.92973e-07
-0.000157895 7.9805e-05 -1.26219e-07
2.92973e-07 -1.26219e-07 9.479e-06
0.0016685 -0.000141004 1.42808e-06
-0.000141004 4.28647e-05 3.71204e-07
1.42808e-06 3.71204e-07 -4.67595e-05
0.00176157 -0.000181101 -4.44315e-06
-0.000181101 9.58325e-05 -9.86406e-08
-4.44315e-06 -9.86406e-08 1.28131e-05
0.00168459 -0.000159433 1.97054e-07
-0.000159433 9.30241e-05 -2.32207e-07
1.97054e-07 -2.32207e-07 -8.16215e-06
0.00165053 -0.000147417 1.77698e-06
-0.000147417 0.00010656 -4.52394e-07
1.77698e-06 -4.52394e-07 -1.63823e-05
0.00166647 -0.000180665 -3.00691e-06
-0.000180665 0.000109704 6.53339e-07
-3.00691e-06 6.53339e-07 -2.02791e-06
0.00160762 -0.000162285 -6.55723e-08
-0.000162285 0.000116138 -2.10831e-07
-6.55723e-08 -2.10831e-07 -1.44323e-05
0.0014657 -0.000141235 -1.62468e-06
-0.000141235 9.89928e-05 2.53183e-07
-1.62468e-06 2.53183e-07 -4.11307e-05
0.00171343 -0.000173167 -7.2443e-07
-0.000173167 0.000195966 1.92547e-06
-7.2443e-07 1.92547e-06 6.00831e-05
0.00145394 -0.000155174 -4.55521e-07
-0.000155174 0.000105176 -1.25582e-07
-4.55521e-07 -1.25582e-07 -3.89005e-05
0.00132923 -0.000144481 -6.4295e-06
-0.000144481 9.12549e-05 2.07861e-06
-6.4295e-06 2.07861e-06 -4.78741e-05
0.00143468 -0.000177076 4.92104e-06
-0.000177076 0.000106714 -7.68116e-07
4.92104e-06 -7.68116e-07 -4.74522e-05
0.00117752 -0.00015543 4.30351e-08
-0.00015543 1.9311e-05 -1.21149e-07
4.30351e-08 -1.21149e-07 -0.000124445
0.00104398 -0.000132763 -1.06611e-05
-0.000132763 2.56846e-05 4.4585e-06
-1.06611e-05 4.4585e-06 -9.43714e-05
0.000489088 -0.000136997 -1.80273e-05
-0.000136997 -0.000138041 1.12055e-05
-1.80273e-05 1.12055e-05 -0.000211388
0.000982744 -0.000142454 3.88614e-07
-0.000142454 2.65041e-05 3.05228e-07
3.88614e-07 3.05228e-07 -0.000101635
0.00116253 -0.000176653 4.54516e-06
-0.000176653 4.75038e-05 -9.62851e-07
4.54516e-06 -9.62851e-07 -0.000108086
0.00438943 0.00017643 -9.90278e-05
0.00017643 0.00217356 5.5428e-06
-9.90278e-05 5.5428e-06 0.00215228
0.00063064 -0.000105501 -2.4518e-07
-0.000105501 -3.8122e-05 3.09469e-07
-2.4518e-07 3.09469e-07 -0.000108483
0.000940705 -0.000143711 7.33804e-06
-0.000143711 6.75408e-05 -4.36129e-06
7.33804e-06 -4.36129e-06 -6.41546e-05
0.00408192 0.000141757 6.89132e-06
0.000141757 0.00198535 6.71174e-07
6.89132e-06 6.71174e-07 0.00197396
0.000779689 -7.46149e-05 1.23698e-05
-7.46149e-05 5.53452e-05 -1.00867e-05
1.23698e-05 -1.00867e-05 -5.58139e-06
0.0037254 0.000111562 0.00010224
0.000111562 0.00177292 -4.33353e-06
0.00010224 -4.33353e-06 0.00176986
0.000925352 0.000186013 -3.71303e-06
0.000186013 -0.000106504 1.78788e-06
-3.71303e-06 1.78788e-06 -0.00027341
0.000825939 0.000175354 -1.17204e-06
0.000175354 -3.95313e-05 1.72615e-06
-1.17204e-06 1.72615e-06 -0.000214901
0.00109055 0.000172776 -3.60104e-06
0.000172776 0.000147257 -2.00846e-06
-3.60104e-06 -2.00846e-06 -1.10964e-05
0.000989732 0.000171149 -3.54149e-07
0.000171149 0.000146445 9.36252e-07
-3.54149e-07 9.36252e-07 -1.18898e-05
0.000987761 0.000152545 -3.20565e-07
0.000152545 0.000154477 -7.90558e-07
-3.20565e-07 -7.90558e-07 1.45831e-05
0.00094322 0.000103931 -4.46146e-06
0.000103931 0.000153352 -3.2504e-06
-4.46146e-06 -3.2504e-06 4.12599e-05
0.000914903 0.000111242 1.23785e-07
0.000111242 0.000136403 -3.90186e-07
1.23785e-07 -3.90186e-07 1.68032e-05
0.000738437 4.39945e-05 -3.0828e-07
4.39945e-05 5.49162e-05 1.03797e-07
-3.0828e-07 1.03797e-07 -4.23995e-05
0.000636654 -1.9163e-05 -5.49513e-06
-1.9163e-05 2.81733e-06 -6.84561e-06
-5.49513e-06 -6.84561e-06 -4.03394e-05
0.000646835 -3.60778e-05 7.12075e-07
-3.60778e-05 2.5315e-06 3.2925e-06
7.12075e-07 3.2925e-06 -7.74748e-05
0.000546346 -6.47241e-05 6.1832e-08
-6.47241e-05 -3.9339e-05 -2.60545e-07
6.1832e-08 -2.60545e-07 -7.70831e-05
0.00290102 -0.000115307 -6.4315e-05
-0.000115307 0.00130511 -2.00729e-06
-6.4315e-05 -2.00729e-06 0.00130517
0.000536572 -7.27375e-05 -3.9751e-07
-7.27375e-05 -4.8721e-05 5.69428e-06
-3.9751e-07 5.69428e-06 -8.13444e-05
0.00264582 -0.000108378 -1.46696e-06
-0.000108378 0.00115661 1.85991e-07
-1.46696e-06 1.85991e-07 0.0011587
0.00255931 -9.75979e-05 4.05173e-05
-9.75979e-05 0.00110121 2.93132e-06
4.05173e-05 2.93132e-06 0.00110569
0.00103327 5.0458e-05 1.19938e-05
5.0458e-05 -0.000299829 1.56427e-06
1.19938e-05 1.56427e-06 -0.000330713
0.00169309 -4.8561e-06 -4.0518e-06
-4.8561e-06 -5.25535e-05 2.64932e-06
-4.0518e-06 2.64932e-06 -7.5256e-05
0.00304226 -6.86669e-06 7.78774e-05
-6.86669e-06 -0.000187322 -5.40508e-06
7.78774e-05 -5.40508e-06 -0.000287346
0.00181292 0.000278694 -1.77129e-06
0.000278694 0.000233365 -3.57067e-06
-1.77129e-06 -3.57067e-06 8.34955e-05
0.000731765 0.000192058 -5.98091e-07
0.000192058 -0.000164384 -6.37552e-07
-5.98091e-07 -6.37552e-07 -0.000307133
0.00179926 0.000242161 -1.84112e-06
0.000242161 0.000206103 1.33463e-06
-1.84112e-06 1.33463e-06 5.73714e-05
0.00169063 0.000251638 1.0099e-06
0.000251638 0.000237889 4.6725e-07
1.0099e-06 4.6725e-07 7.71747e-05
0.000546325 0.000175997 -3.91508e-06
0.000175997 -0.000217979 1.57079e-06
-3.91508e-06 1.57079e-06 -0.000388918
0.00182733 0.00027584 -4.80372e-06
0.00027584 0.000126805 1.69429e-06
-4.80372e-06 1.69429e-06 -1.62899e-05
0.00163294 0.000255239 -4.14406e-07
0.000255239 0.000402732 3.33246e-07
-4.14406e-07 3.33246e-07 0.000247367
0.0021888 0.000344493 -2.89956e-07
0.000344493 0.000429315 -1.98424e-06
-2.89956e-07 -1.98424e-06 0.000265111
0.00182178 0.000187196 -5.49649e-06
0.000187196 5.93605e-05 1.7375e-06
-5.49649e-06 1.7375e-06 -4.19649e-05
0.00220192 0.000368829 4.76877e-06
0.000368829 0.000423222 3.29221e-06
4.76877e-06 3.29221e-06 0.000259798
0.0020623 0.000334049 -9.66507e-07
0.000334049 0.000244394 4.99315e-07
-9.66507e-07 4.99315e-07 9.94457e-05
0.00112207 0.000159342 7.63942e-07
0.000159342 -0.00021905 1.43888e-06
7.63942e-07 1.43888e-06 -0.000284532
0.000920371 0.000259679 -3.85573e-06
0.000259679 -0.000264235 -3.28731e-06
-3.85573e-06 -3.28731e-06 -0.000382115
0.000951191 0.00018297 -2.77199e-05
0.00018297 -0.000188558 -8.7854e-06
-2.77199e-05 -8.7854e-06 -0.000203386
0.00169348 2.3929e-05 5.23685e-06
2.3929e-05 -6.47012e-05 4.94966e-07
5.23685e-06 4.94966e-07 -0.000123208
0.00199612 -1.3203e-05 -1.68456e-06
-1.3203e-05 0.000301691 5.60425e-07
-1.68456e-06 5.60425e-07 0.0002713
0.00130835 1.52756e-06 -4.79199e-05
1.52756e-06 -0.000238508 -3.78485e-06
-4.79199e-05 -3.78485e-06 -0.000320847
0.00165361 -0.000131629 -1.74571e-05
-0.000131629 -0.000140417 1.17846e-06
-1.74571e-05 1.17846e-06 -0.000117169
0.00144636 -6.08975e-05 -9.80426e-06
-6.08975e-05 -0.000167841 9.27491e-07
-9.80426e-06 9.27491e-07 -0.000214813
0.00193935 -0.000132086 -3.52722e-07
-0.000132086 3.80405e-05 -2.34711e-07
-3.52722e-07 -2.34711e-07 1.95305e-05
0.00191863 -2.7591e-05 -5.58834e-07
-2.7591e-05 4.49801e-05 2.66702e-07
-5.58834e-07 2.66702e-07 1.48785e-07
0.00191321 -5.35396e-05 -1.56029e-06
-5.35396e-05 6.28853e-05 -9.71529e-07
-1.56029e-06 -9.71529e-07 1.12343e-05
0.00175636 -0.00014733 -2.0076e-06
-0.00014733 -1.03997e-05 -5.65436e-07
-2.0076e-06 -5.65436e-07 -3.04179e-05
0.00188448 -0.000135401 8.17201e-07
-0.000135401 8.3822e-05 -1.24466e-07
8.17201e-07 -1.24466e-07 2.96625e-05
0.00186381 -0.00010891 3.93241e-07
-0.00010891 9.97937e-05 -2.05602e-07
3.93241e-07 -2.05602e-07 2.0449e-05
0.00169509 -0.000156669 -1.72363e-06
-0.000156669 3.88335e-05 -7.83513e-07
-1.72363e-06 -7.83513e-07 -3.40416e-05
0.00167096 -0.000140845 2.06635e-07
-0.000140845 4.96771e-05 -2.46809e-08
2.06635e-07 -2.46809e-08 -4.17857e-05
0.00170979 -0.000121601 1.48935e-06
-0.000121601 0.000102153 -2.21905e-07
1.48935e-06 -2.21905e-07 -1.2921e-05
0.00171051 -0.000159573 -2.25985e-06
-0.000159573 0.000109497 -2.1787e-07
-2.25985e-06 -2.1787e-07 8.39473e-06
0.00166073 -0.000146284 -6.77592e-08
-0.000146284 0.000113961 -9.04166e-08
-6.77592e-08 -9.04166e-08 -8.73757e-06
0.00152924 -0.000125 -9.50134e-07
-0.000125 0.000111288 3.1082e-07
-9.50134e-07 3.1082e-07 -2.48116e-05
0.00161473 -0.000161881 -1.34531e-06
-0.000161881 0.000119766 6.05787e-07
-1.34531e-06 6.05787e-07 -1.05405e-05
0.00148742 -0.000142008 -1.15572e-07
-0.000142008 0.000108596 -6.9784e-08
-1.15572e-07 -6.9784e-08 -3.13373e-05
0.00135109 -0.000128248 -5.61821e-06
-0.000128248 9.10609e-05 1.84656e-06
-5.61821e-06 1.84656e-06 -4.59881e-05
0.00145484 -0.000155564 2.31889e-06
-0.000155564 0.000103567 -1.80396e-07
2.31889e-06 -1.80396e-07 -4.02697e-05
0.00132083 -0.000143327 -8.89364e-08
-0.000143327 8.72547e-05 2.72375e-08
-8.89364e-08 2.72375e-08 -5.16432e-05
0.00106717 -0.000117766 -1.13218e-05
-0.000117766 2.45992e-05 4.60754e-06
-1.13218e-05 4.60754e-06 -9.12308e-05
0.00106576 -0.000149575 6.16575e-06
-0.000149575 -4.36641e-05 -1.84219e-06
6.16575e-06 -1.84219e-06 -0.000187893
0.00102888 -0.000130914 1.59985e-07
-0.000130914 1.70287e-05 -4.84375e-08
1.59985e-07 -4.84375e-08 -0.000102859
0.00225502 -5.93373e-05 -1.59744e-05
-5.93373e-05 0.000862517 7.10036e-06
-1.59744e-05 7.10036e-06 0.000795024
0.00136435 -1.82432e-05 -0.000130043
-1.82432e-05 0.000415732 1.29185e-05
-0.000130043 1.29185e-05 0.000396126
0.00148508 -9.61741e-05 -4.59534e-07
-9.61741e-05 0.000431119 -2.32816e-08
-4.59534e-07 -2.32816e-08 0.000357567
0.00094672 -0.000140766 9.31243e-06
-0.000140766 7.85645e-06 -4.08011e-06
9.31243e-06 -4.08011e-06 -0.000120221
0.00459525 0.000146167 1.04517e-05
0.000146167 0.00228417 1.02125e-06
1.04517e-05 1.02125e-06 0.00226667
0.000757022 -0.000127948 1.72072e-05
-0.000127948 2.79911e-05 -1.10287e-05
1.72072e-05 -1.10287e-05 -4.39403e-05
0.0042067 0.000109193 0.000122365
0.000109193 0.00205067 -6.40678e-06
0.000122365 -6.40678e-06 0.00204334
0.00187552 0.000199898 -6.16833e-08
0.000199898 0.000233812 4.77464e-07
-6.16833e-08 4.77464e-07 9.64303e-05
0.00145395 0.000206657 -7.3792e-07
0.000206657 0.000110229 1.53717e-06
-7.3792e-07 1.53717e-06 -4.29355e-05
0.00116549 0.000201741 -3.17094e-07
0.000201741 2.82933e-05 -3.9162e-08
-3.17094e-07 -3.9162e-08 -0.00014002
0.00107943 0.000175621 -5.43771e-06
0.000175621 5.39918e-05 -8.6931e-07
-5.43771e-06 -8.6931e-07 -0.000105848
0.000603883 0.000161066 1.07692e-06
0.000161066 -0.000166763 3.59356e-06
1.07692e-06 3.59356e-06 -0.000340928
0.00106693 0.000170008 -9.63041e-07
0.000170008 0.000137111 3.83827e-07
-9.63041e-07 3.83827e-07 -2.10398e-05
0.000977129 0.000131739 -5.98318e-06
0.000131739 0.000131786 -3.89527e-06
-5.98318e-06 -3.89527e-06 8.2604e-06
0.000857414 0.00014165 1.4106e-06
0.00014165 8.37328e-05 1.49708e-06
1.4106e-06 1.49708e-06 -5.43701e-05
0.000801464 9.22967e-05 -1.2935e-07
9.22967e-05 7.46471e-05 -1.87812e-07
-1.2935e-07 -1.87812e-07 -3.50873e-05
0.000742779 3.98685e-05 -9.37895e-06
3.98685e-05 5.15565e-05 -8.27638e-06
-9.37895e-06 -8.27638e-06 -1.94208e-06
0.000686441 2.664e-05 1.32218e-06
2.664e-05 2.45907e-05 2.3657e-06
1.32218e-06 2.3657e-06 -6.96547e-05
0.000553099 -3.09936e-05 -4.96739e-07
-3.09936e-05 -4.2054e-05 -2.94685e-07
-4.96739e-07 -2.94685e-07 -8.48139e-05
0.00322344 -0.000118061 -8.36204e-05
-0.000118061 0.00149245 -2.41156e-06
-8.36204e-05 -2.41156e-06 0.0014901
0.000497098 -7.39477e-05 -1.11448e-06
-7.39477e-05 -6.37733e-05 6.50024e-06
-1.11448e-06 6.50024e-06 -0.00010315
0.0028262 -0.000120193 -1.91304e-06
-0.000120193 0.001264 2.23181e-07
-1.91304e-06 2.23181e-07 0.0012629
0.00262295 -0.000108417 4.47689e-05
-0.000108417 0.00114367 2.40775e-06
4.47689e-05 2.40775e-06 0.00114569
0.00182896 0.000103071 1.61669e-06
0.000103071 1.05802e-05 1.70662e-06
1.61669e-06 1.70662e-06 -6.18005e-05
0.00191401 4.46348e-05 6.5395e-06
4.46348e-05 0.000163849 -2.28385e-07
6.5395e-06 -2.28385e-07 0.000132169
0.00338689 -3.20384e-05 -5.0375e-05
-3.20384e-05 0.000695756 -1.1576e-05
-5.0375e-05 -1.1576e-05 0.000644419
0.00171922 0.000234808 -3.24078e-06
0.000234808 8.39219e-05 7.09974e-07
-3.24078e-06 7.09974e-07 -5.43432e-05
0.00162167 0.000264584 -2.64857e-06
0.000264584 0.000150209 -7.04437e-08
-2.64857e-06 -7.04437e-08 2.7276e-06
0.000884478 0.000212396 -1.38088e-05
0.000212396 -6.97546e-05 -1.64071e-06
-1.38088e-05 -1.64071e-06 -0.000205229
0.00183524 0.000236273 1.80362e-06
0.000236273 0.00022487 4.07234e-07
1.80362e-06 4.07234e-07 7.75706e-05
0.00188053 0.000262675 -6.10706e-07
0.000262675 0.000349313 -1.65222e-06
-6.10706e-07 -1.65222e-06 0.000185902
0.0021236 0.000185862 -2.90692e-06
0.000185862 0.000233342 1.59401e-06
-2.90692e-06 1.59401e-06 0.000134794
0.00171844 0.000273667 -1.32425e-06
0.000273667 6.87575e-05 7.15865e-07
-1.32425e-06 7.15865e-07 -7.58962e-05
0.00200433 0.00033184 3.25007e-06
0.00033184 0.000324354 1.95966e-07
3.25007e-06 1.95966e-07 0.00015851
0.0018112 0.000186586 -7.05023e-07
0.000186586 5.30307e-05 1.42555e-07
-7.05023e-07 1.42555e-07 -4.82988e-05
0.00205703 0.000334947 1.0005e-05
0.000334947 0.000230448 -1.11663e-07
1.0005e-05 -1.11663e-07 8.48287e-05
0.00166008 0.000178754 -2.07592e-05
0.000178754 7.23504e-05 -4.07323e-06
-2.07592e-05 -4.07323e-06 5.78024e-06
0.00196198 2.71929e-05 -7.93645e-07
2.71929e-05 0.000104298 1.43224e-07
-7.93645e-07 1.43224e-07 4.86953e-05
0.00189832 3.06698e-05 -1.46945e-06
3.06698e-05 5.10985e-05 -1.75892e-07
-1.46945e-06 -1.75892e-07 -6.14048e-06
0.00270177 7.78282e-06 -3.09169e-05
7.78282e-06 0.000707804 -4.10474e-06
-3.09169e-05 -4.10474e-06 0.000676086
0.001925 -0.000126492 -1.10071e-05
-0.000126492 3.23677e-05 -4.82759e-07
-1.10071e-05 -4.82759e-07 1.36062e-05
0.001935 -2.87848e-05 -2.70523e-07
-2.87848e-05 4.26219e-05 5.32728e-07
-2.70523e-07 5.32728e-07 -5.94693e-07
0.00187809 -5.57175e-05 8.17426e-07
-5.57175e-05 3.12363e-05 -1.18855e-08
8.17426e-07 -1.18855e-08 -1.47941e-05
0.00189028 -3.92092e-05 -2.76696e-07
-3.92092e-05 0.000106382 -2.89496e-08
-2.76696e-07 -2.89496e-08 2.86911e-05
0.00190595 -0.000131066 1.05671e-06
-0.000131066 0.00010568 -4.88245e-07
1.05671e-06 -4.88245e-07 4.75445e-05
0.00186181 -0.000108712 -4.18531e-07
-0.000108712 0.000104646 -2.04559e-07
-4.18531e-07 -2.04559e-07 2.3786e-05
0.00179159 -8.82914e-05 2.32807e-06
-8.82914e-05 0.000114848 -1.21543e-06
2.32807e-06 -1.21543e-06 7.20803e-06
0.00166995 -0.000140625 -1.68766e-06
-0.000140625 5.45954e-05 -2.74617e-07
-1.68766e-06 -2.74617e-07 -3.87091e-05
0.00172738 -0.00012188 -8.94912e-08
-0.00012188 0.000112143 7.19996e-08
-8.94912e-08 7.19996e-08 -2.91027e-06
0.00159294 -0.000101646 -6.63136e-07
-0.000101646 0.000115463 -2.2277e-09
-6.63136e-07 -2.2277e-09 -1.5899e-05
0.00167071 -0.000145074 -1.35627e-06
-0.000145074 0.000121183 2.12231e-07
-1.35627e-06 2.12231e-07 -1.26048e-06
0.00152413 -0.000124591 -1.27523e-07
-0.000124591 0.000106084 1.15136e-07
-1.27523e-07 1.15136e-07 -2.9855e-05
0.00136231 -0.000108345 -5.11492e-06
-0.000108345 8.42868e-05 1.59701e-06
-5.11492e-06 1.59701e-06 -5.12061e-05
0.00150828 -0.00014279 1.31676e-06
-0.00014279 0.000117762 -3.63747e-07
1.31676e-06 -3.63747e-07 -2.19903e-05
0.00134281 -0.000127085 -6.8857e-08
-0.000127085 8.64977e-05 3.94485e-08
-6.8857e-08 3.94485e-08 -5.02931e-05
0.00108182 -0.000103976 -1.14397e-05
-0.000103976 2.16047e-05 4.20793e-06
-1.14397e-05 4.20793e-06 -9.34644e-05
0.00131255 -0.000142194 5.89146e-06
-0.000142194 8.33048e-05 -1.89616e-06
5.89146e-06 -1.89616e-06 -5.5363e-05
0.00106122 -0.000115929 2.03506e-07
-0.000115929 2.0408e-05 1.61145e-08
2.03506e-07 1.61145e-08 -9.50972e-05
0.0022952 -7.28467e-05 -2.27068e-05
-7.28467e-05 0.000870438 5.97284e-06
-2.27068e-05 5.97284e-06 0.000811282
0.00101004 -0.000129155 1.05992e-05
-0.000129155 6.34498e-06 -4.56458e-06
1.05992e-05 -4.56458e-06 -0.00011341
0.00241947 -0.000109717 3.16186e-05
-0.000109717 0.000944958 -3.09185e-06
3.16186e-05 -3.09185e-06 0.000884872
0.00163036 -5.94739e-05 -0.000143812
-5.94739e-05 0.000570039 1.63934e-05
-0.000143812 1.63934e-05 0.000550304
0.00316124 2.39754e-05 -0.000137122
2.39754e-05 0.00145566 5.11144e-06
-0.000137122 5.11144e-06 0.00143811
0.00252624 -0.000146105 8.52502e-05
-0.000146105 0.00101452 -1.08127e-05
8.52502e-05 -1.08127e-05 0.000955472
0.00479326 0.000107748 0.000136769
0.000107748 0.00239324 -1.02963e-05
0.000136769 -1.02963e-05 0.00237784
0.00186106 0.000193144 -2.16832e-06
0.000193144 0.000189641 -1.61899e-07
-2.16832e-06 -1.61899e-07 5.74039e-05
0.00174679 0.000190297 1.44741e-06
0.000190297 0.000245929 3.22346e-07
1.44741e-06 3.22346e-07 0.00010526
0.001756 0.00019816 7.21133e-07
0.00019816 0.00016873 5.92687e-08
7.21133e-07 5.92687e-08 3.28042e-05
0.00121667 0.000176071 -5.98438e-06
0.000176071 5.51694e-05 -3.54421e-07
-5.98438e-06 -3.54421e-07 -9.4504e-05
0.00147631 0.000206208 1.25407e-07
0.000206208 0.000119084 3.5247e-07
1.25407e-07 3.5247e-07 -3.3606e-05
0.00135954 0.000214622 2.13854e-06
0.000214622 0.000138385 -2.99503e-07
2.13854e-06 -2.99503e-07 -3.11255e-05
0.00116267 0.000182232 -4.96448e-07
0.000182232 0.000100503 4.94181e-07
-4.96448e-07 4.94181e-07 -6.07405e-05
0.000938821 0.00014 -8.15461e-06
0.00014 4.72586e-05 -3.9249e-06
-8.15461e-06 -3.9249e-06 -8.2241e-05
0.00104269 0.000167106 2.19207e-06
0.000167106 0.000126545 3.07812e-06
2.19207e-06 3.07812e-06 -3.13669e-05
0.000859994 0.0001219 -4.241e-07
0.0001219 6.63463e-05 -2.34242e-08
-4.241e-07 -2.34242e-08 -5.55094e-05
0.000790565 9.27602e-05 -1.35455e-05
9.27602e-05 6.60988e-05 -9.82627e-06
-1.35455e-05 -9.82627e-06 4.01988e-07
0.000653825 7.93146e-05 2.46764e-06
7.93146e-05 -6.91205e-06 2.2333e-06
2.46764e-06 2.2333e-06 -0.000114403
0.000589149 1.67227e-05 1.35632e-07
1.67227e-05 -2.98651e-05 -2.66747e-07
1.35632e-07 -2.66747e-07 -8.20739e-05
0.00366765 -0.000109326 -0.000107014
-0.000109326 0.00175201 -4.56008e-06
-0.000107014 -4.56008e-06 0.00174652
0.000466103 -5.50778e-05 3.84067e-07
-5.50778e-05 -8.41675e-05 7.20614e-06
3.84067e-07 7.20614e-06 -0.000129262
0.00314295 -0.000133544 -3.34347e-06
-0.000133544 0.0014492 3.41623e-07
-3.34347e-06 3.41623e-07 0.00144393
0.00277311 -0.000121214 5.02448e-05
-0.000121214 0.00123424 1.96799e-06
5.02448e-05 1.96799e-06 0.00123302
0.00184138 0.000103535 -1.40991e-06
0.000103535 4.24481e-05 1.36061e-06
-1.40991e-06 1.36061e-06 -3.23835e-05
0.00181967 0.00010208 6.47318e-07
0.00010208 1.47454e-05 -3.39692e-07
6.47318e-07 -3.39692e-07 -5.76222e-05
0.00247182 3.82344e-05 -4.1757e-05
3.82344e-05 0.000473236 -7.04553e-06
-4.1757e-05 -7.04553e-06 0.000443376
0.00192864 0.000166114 2.40926e-07
0.000166114 0.000152368 1.35513e-06
2.40926e-07 1.35513e-06 4.20156e-05
0.00170099 0.000228384 -6.07705e-07
0.000228384 8.19647e-05 -2.4849e-07
-6.07705e-07 -2.4849e-07 -5.49969e-05
0.00140972 0.000249071 8.67283e-08
0.000249071 5.5759e-05 -9.79547e-07
8.67283e-08 -9.79547e-07 -8.92387e-05
0.00188568 0.000231 7.04158e-07
0.000231 0.0002518 -1.08474e-06
7.04158e-07 -1.08474e-06 0.000105847
0.00193387 0.000177154 -2.19207e-07
0.000177154 0.000128604 -1.09163e-07
-2.19207e-07 -1.09163e-07 2.89755e-05
0.00160259 0.000270885 7.09569e-07
0.000270885 8.70134e-06 -8.44875e-07
7.09569e-07 -8.44875e-07 -0.000137441
0.00177403 0.000183642 6.63299e-06
0.000183642 4.90533e-05 -1.27424e-06
6.63299e-06 -1.27424e-06 -5.20826e-05
0.00192184 2.40197e-05 7.24341e-07
2.40197e-05 0.000117442 7.15211e-07
7.24341e-07 7.15211e-07 4.34837e-05
0.001874 2.69129e-05 -3.3444e-07
2.69129e-05 5.74942e-05 -4.19796e-08
-3.3444e-07 -4.19796e-08 -5.50612e-07
0.00209411 3.77735e-05 -7.95451e-06
3.77735e-05 0.000162365 -1.46736e-06
-7.95451e-06 -1.46736e-06 0.000107223
0.00160547 -1.05242e-05 -1.16579e-06
-1.05242e-05 -2.75438e-05 2.66339e-07
-1.16579e-06 2.66339e-07 -0.000115089
0.00184464 -5.82024e-05 7.72821e-07
-5.82024e-05 7.01216e-07 5.07304e-07
7.72821e-07 5.07304e-07 -3.92329e-05
0.00184576 -4.09879e-05 -7.32263e-07
-4.09879e-05 7.94469e-05 5.52699e-07
-7.32263e-07 5.52699e-07 1.4538e-06
0.00194712 -4.58395e-05 5.5467e-07
-4.58395e-05 0.000191933 -6.51652e-07
5.5467e-07 -6.51652e-07 9.27695e-05
0.00186661 -0.000108811 -1.49718e-06
-0.000108811 0.00011274 1.45271e-07
-1.49718e-06 1.45271e-07 3.05359e-05
0.00179319 -8.85039e-05 1.07682e-06
-8.85039e-05 0.000114575 -5.37184e-07
1.07682e-06 -5.37184e-07 6.98613e-06
0.00163904 -7.1151e-05 -4.16946e-07
-7.1151e-05 0.000108617 -5.99346e-07
-4.16946e-07 -5.99346e-07 -1.742e-05
0.00175334 -0.000121705 -9.14835e-07
-0.000121705 0.000126829 3.29034e-07
-9.14835e-07 3.29034e-07 1.18704e-05
0.00157736 -0.000100019 -1.33124e-07
-0.000100019 0.000105872 5.49693e-08
-1.33124e-07 5.49693e-08 -2.52876e-05
0.00138304 -8.47041e-05 -4.88354e-06
-8.47041e-05 7.99929e-05 1.21464e-06
-4.88354e-06 1.21464e-06 -5.3596e-05
0.00151921 -0.000124113 9.07888e-07
-0.000124113 0.000101075 -1.04879e-07
9.07888e-07 -1.04879e-07 -3.46892e-05
0.0013591 -0.00010747 -7.48242e-08
-0.00010747 8.13835e-05 1.1924e-07
-7.48242e-08 1.1924e-07 -5.38763e-05
0.00109719 -8.83257e-05 -1.13156e-05
-8.83257e-05 1.91579e-05 3.51002e-06
-1.13156e-05 3.51002e-06 -9.59094e-05
0.001334 -0.000125841 5.42654e-06
-0.000125841 8.16458e-05 -1.74792e-06
5.42654e-06 -1.74792e-06 -5.48733e-05
0.00108516 -0.000101851 1.30856e-07
-0.000101851 2.23005e-05 1.33783e-07
1.30856e-07 1.33783e-07 -9.22564e-05
0.00235267 -8.99914e-05 -2.98656e-05
-8.99914e-05 0.000892446 5.32985e-06
-2.98656e-05 5.32985e-06 0.000836885
0.00104952 -0.000113921 1.12506e-05
-0.000113921 1.2955e-05 -4.60252e-06
1.12506e-05 -4.60252e-06 -0.000102197
0.00240981 -0.000110442 2.815e-05
-0.000110442 0.000930069 -2.88664e-06
2.815e-05 -2.88664e-06 0.000875145
0.00166755 -5.22796e-05 -0.000139325
-5.22796e-05 0.000589861 1.48918e-05
-0.000139325 1.48918e-05 0.000570458
0.0025527 -0.000135379 8.81265e-05
-0.000135379 0.00101511 -1.27535e-05
8.81265e-05 -1.27535e-05 0.000958932
0.00146962 1.12239e-05 -7.00231e-05
1.12239e-05 0.000492353 5.66001e-06
-7.00231e-05 5.66001e-06 0.000462167
0.0048198 0.000292846 -8.07446e-06
0.000292846 0.00244787 -5.1376e-06
-8.07446e-06 -5.1376e-06 0.00239746
0.00174678 0.000154869 4.27729e-07
0.000154869 0.000109297 7.75841e-07
4.27729e-07 7.75841e-07 -1.73076e-05
0.00169743 0.000166926 -1.11977e-06
0.000166926 0.00018002 -4.70632e-07
-1.11977e-06 -4.70632e-07 4.31053e-05
0.00178209 0.000191251 -2.44084e-06
0.000191251 0.000144775 1.63124e-08
-2.44084e-06 1.63124e-08 1.14546e-05
0.00179394 0.000183092 -3.81817e-06
0.000183092 0.000345456 -5.68259e-07
-3.81817e-06 -5.68259e-07 0.000207204
0.00153159 0.000184136 6.23593e-07
0.000184136 0.000123714 -3.79553e-07
6.23593e-07 -3.79553e-07 -1.62957e-05
0.00163528 0.000196458 2.19996e-06
0.000196458 0.000103019 -9.1507e-07
2.19996e-06 -9.1507e-07 -3.13803e-05
0.000967055 0.000139967 -1.04548e-05
0.000139967 -1.24623e-06 -3.54543e-06
-1.04548e-05 -3.54543e-06 -0.000127304
0.00124928 0.000179528 -2.65939e-08
0.000179528 7.24974e-05 2.5849e-07
-2.65939e-08 2.5849e-07 -7.79684e-05
0.00151143 0.000206746 3.64818e-06
0.000206746 0.000134599 -9.2724e-07
3.64818e-06 -9.2724e-07 -1.7723e-05
0.00125719 0.000189797 5.25567e-06
0.000189797 0.000153331 2.13071e-06
5.25567e-06 2.13071e-06 -9.47097e-06
0.000931395 0.000138275 -7.71466e-07
0.000138275 4.20432e-05 2.05009e-07
-7.71466e-07 2.05009e-07 -8.70386e-05
0.000728961 0.000146424 -1.91925e-05
0.000146424 1.67162e-05 -1.04379e-05
-1.91925e-05 -1.04379e-05 -5.85461e-05
0.000745735 0.000112011 4.42289e-06
0.000112011 2.69312e-06 3.72202e-06
4.42289e-06 3.72202e-06 -0.000117483
0.000630273 8.62163e-05 -3.34956e-07
8.62163e-05 -1.67061e-05 5.58741e-08
-3.34956e-07 5.58741e-08 -8.18489e-05
0.00429241 -9.79913e-05 -0.000126916
-9.79913e-05 0.00211806 -8.74943e-06
-0.000126916 -8.74943e-06 0.00210495
0.000473842 5.49234e-06 5.42458e-06
5.49234e-06 -9.24083e-05 7.93659e-06
5.42458e-06 7.93659e-06 -0.000142352
0.00356191 -0.000144581 -6.15414e-06
-0.000144581 0.00169602 5.04166e-07
-6.15414e-06 5.04166e-07 0.00168569
0.00304995 -0.000137935 5.84025e-05
-0.000137935 0.00139699 1.71681e-06
5.84025e-05 1.71681e-06 0.00139095
0.00175539 8.97275e-05 -6.78903e-08
8.97275e-05 2.88432e-05 1.40829e-06
-6.78903e-08 1.40829e-06 -6.09535e-05
0.00177701 0.000104774 -2.74933e-07
0.000104774 2.56163e-06 3.86052e-07
-2.74933e-07 3.86052e-07 -7.16785e-05
0.00184483 0.000103994 -1.20331e-06
0.000103994 2.56988e-05 -1.71594e-06
-1.20331e-06 -1.71594e-06 -4.71343e-05
0.00190036 0.000163635 7.31963e-07
0.000163635 0.000138075 -1.64474e-07
7.31963e-07 -1.64474e-07 2.90195e-05
0.00167316 0.000221446 -1.03748e-07
0.000221446 7.44783e-05 -1.29621e-06
-1.03748e-07 -1.29621e-06 -6.11121e-05
0.00174623 0.000168482 2.08471e-06
0.000168482 2.23075e-05 -1.72014e-06
2.08471e-06 -1.72014e-06 -7.83899e-05
0.00186744 2.60862e-05 -6.24464e-07
2.60862e-05 0.000121273 5.10441e-07
-6.24464e-07 5.10441e-07 3.34579e-05
0.00189345 2.5466e-05 8.92319e-08
2.5466e-05 0.000103424 -3.21572e-07
8.92319e-08 -3.21572e-07 2.79578e-05
0.00176862 2.72661e-05 1.55127e-06
2.72661e-05 2.35557e-06 -9.95186e-08
1.55127e-06 -9.95186e-08 -5.81786e-05
0.0017279 -1.64893e-05 -1.5533e-06
-1.64893e-05 4.19157e-05 -7.51616e-09
-1.5533e-06 -7.51616e-09 -4.4431e-05
0.00170902 -2.32379e-05 7.92652e-07
-2.32379e-05 6.94481e-05 -3.99354e-07
7.92652e-07 -3.99354e-07 -3.21272e-05
0.00179931 -4.26198e-05 -1.11964e-07
-4.26198e-05 5.21797e-05 5.71632e-07
-1.11964e-07 5.71632e-07 -2.62289e-05
0.00181604 -4.59876e-05 -6.13809e-07
-4.59876e-05 0.000118884 3.61921e-07
-6.13809e-07 3.61921e-07 1.67786e-05
0.00171332 -3.92591e-05 1.26625e-07
-3.92591e-05 0.000132388 -4.37313e-07
1.26625e-07 -4.37313e-07 1.38742e-05
0.00178379 -8.91412e-05 4.54945e-07
-8.91412e-05 0.000108444 9.29293e-08
4.54945e-07 9.29293e-08 8.24258e-07
0.00161594 -7.23849e-05 1.83652e-07
-7.23849e-05 9.74076e-05 -3.0191e-07
1.83652e-07 -3.0191e-07 -2.86605e-05
0.00140495 -5.39594e-05 -5.30479e-06
-5.39594e-05 7.27476e-05 8.3697e-07
-5.30479e-06 8.3697e-07 -5.83313e-05
0.00155414 -9.99208e-05 4.4998e-07
-9.99208e-05 9.18477e-05 6.89609e-08
4.4998e-07 6.89609e-08 -3.92585e-05
0.001376 -8.37112e-05 1.17802e-08
-8.37112e-05 7.36898e-05 9.0291e-08
1.17802e-08 9.0291e-08 -5.97288e-05
0.00110263 -6.85525e-05 -1.12913e-05
-6.85525e-05 1.03566e-05 2.87661e-06
-1.12913e-05 2.87661e-06 -0.000104253
0.00135622 -0.000106554 4.9146e-06
-0.000106554 7.8616e-05 -1.3486e-06
4.9146e-06 -1.3486e-06 -5.64041e-05
0.00109725 -8.57848e-05 -5.90491e-09
-8.57848e-05 1.81962e-05 1.61634e-07
-5.90491e-09 1.61634e-07 -9.63404e-05
0.00235695 -0.000101786 -3.297e-05
-0.000101786 0.000889642 4.72185e-06
-3.297e-05 4.72185e-06 0.000832687
0.001084 -9.96611e-05 1.14861e-05
-9.96611e-05 2.03811e-05 -4.02555e-06
1.14861e-05 -4.02555e-06 -9.36406e-05
0.00241708 -0.000104299 2.70159e-05
-0.000104299 0.000925932 -2.30507e-06
2.70159e-05 -2.30507e-06 0.000872805
0.00170626 -4.58654e-05 -0.00013914
-4.58654e-05 0.000606243 1.2918e-05
-0.00013914 1.2918e-05 0.000587085
0.0025171 -0.000118914 8.69243e-05
-0.000118914 0.000986969 -1.13191e-05
8.69243e-05 -1.13191e-05 0.000935097
0.00146615 -6.23151e-06 -6.28918e-05
-6.23151e-06 0.000482732 5.57118e-06
-6.28918e-05 5.57118e-06 0.000457245
0.00137655 3.37402e-05 1.58258e-05
3.37402e-05 0.00044173 -4.1592e-06
1.58258e-05 -4.1592e-06 0.000408437
0.00186939 9.2558e-05 -3.28058e-08
9.2558e-05 0.000148996 1.78365e-06
-3.28058e-08 1.78365e-06 4.2727e-05
0.00160427 0.000133927 -1.86569e-06
0.000133927 0.000102175 2.38095e-07
-1.86569e-06 2.38095e-07 -3.19144e-05
0.00177102 0.000156192 -9.91915e-07
0.000156192 0.000117529 -1.22173e-07
-9.91915e-07 -1.22173e-07 -6.95318e-06
0.00164043 0.000149923 -4.47781e-06
0.000149923 0.000231931 -1.30322e-06
-4.47781e-06 -1.30322e-06 9.84635e-05
0.00169445 0.000165314 1.07724e-06
0.000165314 0.000181906 2.70969e-07
1.07724e-06 2.70969e-07 4.44205e-05
0.00170164 0.000189303 1.79675e-06
0.000189303 9.97485e-05 2.88399e-07
1.79675e-06 2.88399e-07 -3.47044e-05
0.00104626 0.000131294 -1.13504e-05
0.000131294 8.87565e-06 -3.81138e-06
-1.13504e-05 -3.81138e-06 -0.000110508
0.00143461 0.000168457 3.16183e-06
0.000168457 0.000143096 4.90907e-07
3.16183e-06 4.90907e-07 4.2167e-06
0.00131801 0.000178056 2.50446e-06
0.000178056 2.25907e-06 -4.43536e-07
2.50446e-06 -4.43536e-07 -0.000137129
0.000634035 0.000151406 -2.05253e-05
0.000151406 -5.77377e-05 -9.44379e-06
-2.05253e-05 -9.44379e-06 -0.000132749
0.00100702 0.000142058 -7.05985e-07
0.000142058 2.10731e-05 2.9395e-07
-7.05985e-07 2.9395e-07 -0.000105187
0.0012885 0.000183188 6.64122e-06
0.000183188 9.34717e-05 1.07192e-06
6.64122e-06 1.07192e-06 -5.77753e-05
0.000930805 0.000137148 7.57177e-06
0.000137148 4.10693e-05 4.70441e-06
7.57177e-06 4.70441e-06 -8.77431e-05
0.000632016 0.000132992 7.90954e-07
0.000132992 -3.41098e-05 2.56343e-07
7.90954e-07 2.56343e-07 -0.00010845
0.00493553 -9.59903e-05 -0.000133726
-9.59903e-05 0.00249658 -1.37368e-05
-0.000133726 -1.37368e-05 0.00247084
0.000484457 7.37329e-05 9.85327e-06
7.37329e-05 -9.47454e-05 9.39494e-06
9.85327e-06 9.39494e-06 -0.000157606
0.0040934 -0.000146692 -9.92622e-06
-0.000146692 0.00201021 8.07449e-07
-9.92622e-06 8.07449e-07 0.00199336
0.00342961 -0.000157817 7.10386e-05
-0.000157817 0.00162179 1.7856e-06
7.10386e-05 1.7856e-06 0.0016093
0.00176184 6.69337e-05 -5.60645e-07
6.69337e-05 6.51807e-05 3.14172e-07
-5.60645e-07 3.14172e-07 -2.76676e-05
0.00176331 8.91981e-05 4.99376e-07
8.91981e-05 3.58645e-05 4.93368e-07
4.99376e-07 4.93368e-07 -5.32542e-05
0.00171661 0.000105284 3.06582e-06
0.000105284 -3.29223e-05 -7.91883e-07
3.06582e-06 -7.91883e-07 -0.000106494
0.00187826 0.000161205 6.33508e-07
0.000161205 0.000127148 -1.2299e-06
6.33508e-07 -1.2299e-06 1.94259e-05
0.00174059 -5.67647e-06 1.15841e-06
-5.67647e-06 8.42713e-05 7.49448e-08
1.15841e-06 7.49448e-08 -1.88763e-05
0.00188102 2.20451e-05 -3.13373e-08
2.20451e-05 0.000126446 -1.58142e-07
-3.13373e-08 -1.58142e-07 3.89706e-05
0.00185838 2.6356e-05 1.9483e-08
2.6356e-05 8.54868e-05 -2.02496e-07
1.9483e-08 -2.02496e-07 8.51961e-06
0.00185846 -1.97947e-05 -2.73127e-06
-1.97947e-05 0.000115798 -7.95206e-07
-2.73127e-06 -7.95206e-07 3.06789e-05
0.00170009 -1.61463e-05 -1.19143e-06
-1.61463e-05 6.40454e-05 -1.34115e-07
-1.19143e-06 -1.34115e-07 -3.64267e-05
0.00176023 -1.21599e-05 1.09732e-06
-1.21599e-05 0.000163126 -4.02864e-07
1.09732e-06 -4.02864e-07 4.79143e-05
0.00168809 -4.61687e-05 -1.51937e-06
-4.61687e-05 4.71795e-05 1.20942e-06
-1.51937e-06 1.20942e-06 -5.78566e-05
0.0016779 -3.90984e-05 3.87659e-07
-3.90984e-05 0.000115627 1.70347e-07
3.87659e-07 1.70347e-07 -4.96595e-06
0.00137926 -2.4973e-05 -4.37764e-06
-2.4973e-05 3.91799e-05 2.93253e-07
-4.37764e-06 2.93253e-07 -8.81139e-05
0.00160297 -7.21461e-05 7.47028e-07
-7.21461e-05 9.19109e-05 -2.60077e-08
7.47028e-07 -2.60077e-08 -3.40391e-05
0.00139118 -5.17656e-05 -3.26736e-07
-5.17656e-05 6.23431e-05 6.20519e-08
-3.26736e-07 6.20519e-08 -6.84858e-05
0.0011061 -4.44275e-05 -1.14679e-05
-4.44275e-05 1.1408e-06 2.3223e-06
-1.14679e-05 2.3223e-06 -0.000113137
0.00136297 -8.06215e-05 4.55283e-06
-8.06215e-05 6.41294e-05 -9.99815e-07
4.55283e-06 -9.99815e-07 -6.89509e-05
0.00110252 -6.75551e-05 3.70891e-09
-6.75551e-05 9.92839e-06 1.5296e-07
3.70891e-09 1.5296e-07 -0.000104464
0.000658044 -5.72267e-05 -1.70241e-05
-5.72267e-05 -8.86872e-05 4.18577e-06
-1.70241e-05 4.18577e-06 -0.000153678
0.00110586 -8.35609e-05 1.13307e-05
-8.35609e-05 2.17755e-05 -3.25427e-06
1.13307e-05 -3.25427e-06 -9.22124e-05
0.00154595 -6.90258e-05 3.53826e-05
-6.90258e-05 0.000422189 -2.0422e-06
3.53826e-05 -2.0422e-06 0.000365039
0.00507832 -0.000114677 -0.000171194
-0.000114677 0.00252661 9.82535e-06
-0.000171194 9.82535e-06 0.00252406
0.00250155 -9.77892e-05 8.68075e-05
-9.77892e-05 0.000968374 -9.35299e-06
8.68075e-05 -9.35299e-06 0.00091887
0.00148225 -2.52212e-05 -5.64953e-05
-2.52212e-05 0.000484685 4.45055e-06
-5.64953e-05 4.45055e-06 0.00046097
0.00128975 -1.79922e-05 2.6524e-05
-1.79922e-05 0.000386733 -3.96768e-06
2.6524e-05 -3.96768e-06 0.000357599
0.00188871 6.72758e-05 7.26298e-07
6.72758e-05 0.000168117 1.0593e-06
7.26298e-07 1.0593e-06 6.71174e-05
0.00169836 8.82489e-05 -4.9679e-07
8.82489e-05 0.000137836 1.23597e-06
-4.9679e-07 1.23597e-06 1.46319e-05
0.0018886 9.01838e-05 2.87682e-07
9.01838e-05 0.000164655 1.68426e-09
2.87682e-07 1.68426e-09 5.7572e-05
0.00126953 0.000110743 -5.51605e-06
0.000110743 -4.23359e-06 -9.22043e-07
-5.51605e-06 -9.22043e-07 -0.000136888
0.00168301 0.000134774 1.05596e-07
0.000134774 0.000146584 -1.73681e-08
1.05596e-07 -1.73681e-08 1.37315e-05
0.00179717 0.000157859 -6.21878e-07
0.000157859 0.000126384 -9.05417e-07
-6.21878e-07 -9.05417e-07 3.96344e-06
0.000655157 9.51429e-05 -1.33851e-05
9.51429e-05 -0.000232706 -4.03605e-06
-1.33851e-05 -4.03605e-06 -0.000349487
0.00167033 0.000153028 1.54197e-06
0.000153028 0.000249103 4.08013e-07
1.54197e-06 4.08013e-07 0.000115166
0.00168714 0.000163798 2.81695e-06
0.000163798 0.000181386 5.01786e-07
2.81695e-06 5.01786e-07 4.32842e-05
0.000587424 0.000119637 -1.81783e-05
0.000119637 -9.94292e-05 -7.90992e-06
-1.81783e-05 -7.90992e-06 -0.000170393
0.0008226 0.000121556 5.15267e-07
0.000121556 -0.000118247 2.26092e-08
5.15267e-07 2.26092e-08 -0.000238445
0.00105956 0.000152814 8.19213e-06
0.000152814 -6.81451e-05 1.49927e-06
8.19213e-06 1.49927e-06 -0.00020752
0.0052093 -4.65016e-05 -0.000141442
-4.65016e-05 0.00263311 -1.34807e-05
-0.000141442 -1.34807e-05 0.00261487
0.00059674 0.000139189 1.4762e-06
0.000139189 -7.66041e-05 5.30462e-07
1.4762e-06 5.30462e-07 -0.000152099
0.00103227 0.000143441 1.03893e-05
0.000143441 3.53497e-05 4.36441e-06
1.03893e-05 4.36441e-06 -9.10891e-05
0.000495621 0.000125162 1.57028e-05
0.000125162 -0.000108052 1.03268e-05
1.57028e-05 1.03268e-05 -0.000180812
0.00466688 -0.000103753 -3.31275e-06
-0.000103753 0.00233279 -2.09538e-07
-3.31275e-06 -2.09538e-07 0.00231606
0.00387211 -0.000176158 8.54033e-05
-0.000176158 0.00188799 3.16907e-06
8.54033e-05 3.16907e-06 0.0018678
0.00180155 4.16847e-05 -9.55508e-07
4.16847e-05 0.000110872 -3.66911e-07
-9.55508e-07 -3.66911e-07 8.22396e-06
0.00178502 6.61918e-05 -1.75732e-07
6.61918e-05 7.4553e-05 3.95517e-07
-1.75732e-07 3.95517e-07 -1.82441e-05
0.00176901 8.90382e-05 9.75417e-07
8.90382e-05 4.15385e-05 -5.8616e-07
9.75417e-07 -5.8616e-07 -4.69306e-05
0.00167738 4.4253e-06 1.26523e-06
4.4253e-06 0.000109244 -2.47915e-07
1.26523e-06 -2.47915e-07 -6.99316e-06
0.0017277 -3.00207e-06 4.57484e-08
-3.00207e-06 8.08374e-05 7.64709e-08
4.57484e-08 7.64709e-08 -2.12659e-05
0.00189355 1.61005e-05 -5.17073e-07
1.61005e-05 0.00013115 -1.07228e-07
-5.17073e-07 -1.07228e-07 4.39967e-05
0.00168159 -1.03484e-05 -1.93959e-06
-1.03484e-05 5.3247e-05 4.47796e-07
-1.93959e-06 4.47796e-07 -4.61299e-05
0.00174569 -8.94681e-06 1.1115e-06
-8.94681e-06 0.000154158 -1.56374e-07
1.1115e-06 -1.56374e-07 3.90819e-05
0.00172156 -6.93798e-06 -2.39067e-06
-6.93798e-06 0.00022576 -9.70126e-08
-2.39067e-06 -9.70126e-08 0.000104286
0.00164178 -3.8906e-05 6.9786e-07
-3.8906e-05 9.85541e-05 6.5239e-07
6.9786e-07 6.5239e-07 -2.4125e-05
0.00156004 -2.44153e-05 -1.11816e-08
-2.44153e-05 0.000140626 6.73645e-08
-1.11816e-08 6.73645e-08 1.41385e-05
0.00078335 -1.87428e-05 -1.3266e-05
-1.87428e-05 -0.000190018 1.72363e-06
-1.3266e-05 1.72363e-06 -0.000306685
0.00138525 -5.1816e-05 4.24354e-06
-5.1816e-05 5.61734e-05 -6.96166e-07
4.24354e-06 -6.96166e-07 -7.45737e-05
0.0011026 -4.15111e-05 1.40208e-08
-4.15111e-05 -1.20947e-06 1.15121e-07
1.40208e-08 1.15121e-07 -0.000115196
0.000656803 -2.0279e-05 -1.66747e-05
-2.0279e-05 -9.64509e-05 2.84463e-06
-1.66747e-05 2.84463e-06 -0.000162051
0.00110535 -6.55378e-05 1.14208e-05
-6.55378e-05 1.10594e-05 -2.59583e-06
1.14208e-05 -2.59583e-06 -0.000103007
0.000666281 -4.29017e-05 -2.01431e-07
-4.29017e-05 -8.37037e-05 2.58581e-07
-2.01431e-07 2.58581e-07 -0.000149212
0.00513758 -7.64263e-06 -0.000159708
-7.64263e-06 0.00255267 6.02634e-06
-0.000159708 6.02634e-06 0.00255393
0.000695831 -5.64943e-05 1.60249e-05
-5.64943e-05 -6.36361e-05 -5.97896e-06
1.60249e-05 -5.97896e-06 -0.000128994
0.00325102 -5.7645e-05 7.73312e-05
-5.7645e-05 0.00148684 -1.52725e-06
7.73312e-05 -1.52725e-06 0.00147099
0.00122691 -4.59483e-05 3.19896e-05
-4.59483e-05 0.000350217 -4.15531e-06
3.19896e-05 -4.15531e-06 0.000319545
0.00180745 5.98644e-05 6.24747e-08
5.98644e-05 0.000139973 1.92368e-07
6.24747e-08 1.92368e-07 3.42766e-05
0.00158936 4.93756e-05 6.40469e-07
4.93756e-05 7.37842e-05 1.33476e-06
6.40469e-07 1.33476e-06 -4.49976e-05
0.00186753 6.46612e-05 -1.95875e-07
6.46612e-05 0.000156439 -1.91463e-07
-1.95875e-07 -1.91463e-07 5.57276e-05
0.00141412 7.84792e-05 -4.24087e-06
7.84792e-05 6.59218e-05 -3.19089e-07
-4.24087e-06 -3.19089e-07 -6.21151e-05
0.00165371 8.65448e-05 4.70039e-07
8.65448e-05 0.000110692 1.22335e-07
4.70039e-07 1.22335e-07 -1.35986e-05
0.00190692 8.7508e-05 -5.34955e-07
8.7508e-05 0.000179858 -1.60252e-06
-5.34955e-07 -1.60252e-06 7.19857e-05
0.000673226 7.59082e-05 -1.32492e-05
7.59082e-05 -0.000238719 -3.18672e-06
-1.32492e-05 -3.18672e-06 -0.000353773
0.00152172 0.000118686 -1.14189e-06
0.000118686 0.000139844 -1.67331e-07
-1.14189e-06 -1.67331e-07 8.35492e-06
0.0017633 0.000135524 2.07174e-06
0.000135524 0.000192026 -3.81635e-07
2.07174e-06 -3.81635e-07 6.04288e-05
0.000595371 8.54394e-05 -1.67034e-05
8.54394e-05 -0.000110017 -6.18718e-06
-1.67034e-05 -6.18718e-06 -0.00017674
0.000650694 9.57554e-05 -2.75978e-06
9.57554e-05 -0.0002353 -6.0607e-07
-2.75978e-06 -6.0607e-07 -0.000352635
0.0017041 0.000156347 7.85461e-06
0.000156347 0.000268444 1.82379e-06
7.85461e-06 1.82379e-06 0.00013402
0.00522913 3.93758e-05 -0.000159117
3.93758e-05 0.00261717 -1.17079e-05
-0.000159117 -1.17079e-05 0.00261295
0.000578271 0.000111452 8.06405e-07
0.000111452 -0.000103945 2.88286e-07
8.06405e-07 2.88286e-07 -0.00017562
0.000602041 0.000112204 1.13826e-05
0.000112204 -0.000243791 3.49414e-06
1.13826e-05 3.49414e-06 -0.000364841
0.00505889 -3.18084e-05 1.06046e-05
-3.18084e-05 0.00254449 -5.05336e-07
1.06046e-05 -5.05336e-07 0.00252998
0.000531971 0.000125066 1.70779e-05
0.000125066 -0.000109729 9.74868e-06
1.70779e-05 9.74868e-06 -0.000186275
0.00441554 -0.000165509 0.000102543
-0.000165509 0.00220203 6.5565e-06
0.000102543 6.5565e-06 0.00217868
0.00176859 3.03744e-05 -4.57083e-08
3.03744e-05 0.000153114 -3.00069e-07
-4.57083e-08 -3.00069e-07 3.91232e-05
0.0017483 3.98746e-05 -5.12166e-07
3.98746e-05 8.5926e-05 1.76474e-07
-5.12166e-07 1.76474e-07 -1.75626e-05
0.00180627 6.52491e-05 4.98297e-07
6.52491e-05 8.27079e-05 -3.4041e-09
4.98297e-07 -3.4041e-09 -1.00463e-05
0.00169914 -2.69089e-06 -2.25125e-06
-2.69089e-06 0.000216454 -1.78392e-07
-2.25125e-06 -1.78392e-07 9.70532e-05
0.00170816 3.31698e-06 5.87195e-07
3.31698e-06 0.000125988 2.86715e-08
5.87195e-07 2.86715e-08 1.09286e-05
0.00172653 1.57411e-06 8.36114e-07
1.57411e-06 8.35796e-05 -6.2926e-08
8.36114e-07 -6.2926e-08 -1.74781e-05
0.00173318 -6.40275e-06 7.30005e-07
-6.40275e-06 0.000146336 3.58099e-07
7.30005e-07 3.58099e-07 3.13777e-05
0.0017259 -6.57357e-06 1.97161e-06
-6.57357e-06 0.000227899 -2.16869e-07
1.97161e-06 -2.16869e-07 0.000106396
0.000792346 -6.72671e-06 -1.24971e-05
-6.72671e-06 -0.000188286 6.98214e-07
-1.24971e-05 6.98214e-07 -0.000303621
0.0017427 -2.40163e-05 5.29463e-06
-2.40163e-05 0.00024323 -3.78989e-07
5.29463e-06 -3.78989e-07 0.000117547
0.000947642 -1.75765e-05 -2.56728e-06
-1.75765e-05 -9.7281e-05 3.61379e-07
-2.56728e-06 3.61379e-07 -0.000212514
0.000672966 -6.46347e-06 -1.70659e-05
-6.46347e-06 -9.44436e-05 1.88096e-06
-1.70659e-05 1.88096e-06 -0.000160474
0.00110272 -3.98919e-05 1.12467e-05
-3.98919e-05 -1.51379e-06 -2.09768e-06
1.12467e-05 -2.09768e-06 -0.000115305
0.000656357 -2.17538e-05 4.66019e-07
-2.17538e-05 -9.78134e-05 1.12251e-09
4.66019e-07 1.12251e-09 -0.000162865
0.00518704 -8.14851e-05 -0.000167424
-8.14851e-05 0.00258381 5.10492e-06
-0.000167424 5.10492e-06 0.00258287
0.000657325 -2.83761e-05 1.57287e-05
-2.83761e-05 -9.00322e-05 -3.36591e-06
1.57287e-05 -3.36591e-06 -0.000154841
0.00514164 -2.93788e-05 1.11259e-05
-2.93788e-05 0.0025589 -1.54364e-07
1.11259e-05 -1.54364e-07 0.00255788
0.0014994 -1.47715e-05 0.000144732
-1.47715e-05 0.000488355 -6.95725e-06
0.000144732 -6.95725e-06 0.000471663
0.00167746 3.95246e-05 8.00503e-07
3.95246e-05 0.000123778 2.85962e-07
8.00503e-07 2.85962e-07 7.25901e-06
0.00177262 6.34458e-05 -1.5743e-06
6.34458e-05 0.000115269 -2.00705e-07
-1.5743e-06 -2.00705e-07 1.09191e-05
0.0014333 4.30406e-05 -3.78742e-06
4.30406e-05 7.59336e-05 -4.97616e-08
-3.78742e-06 -4.97616e-08 -4.79261e-05
0.00159053 4.85655e-05 4.0492e-07
4.85655e-05 7.54512e-05 1.99273e-09
4.0492e-07 1.99273e-09 -4.33826e-05
0.00184427 6.22043e-05 -7.53672e-07
6.22043e-05 0.000143474 -1.74798e-06
-7.53672e-07 -1.74798e-06 4.30542e-05
0.00111433 6.28519e-05 -1.13088e-05
6.28519e-05 1.76018e-06 -2.05604e-06
-1.13088e-05 -2.05604e-06 -0.000108741
0.00139713 7.81025e-05 4.17923e-08
7.81025e-05 5.69888e-05 1.47435e-07
4.17923e-08 1.47435e-07 -7.1164e-05
0.00160791 8.48839e-05 6.91531e-07
8.48839e-05 8.29823e-05 -7.30174e-07
6.91531e-07 -7.30174e-07 -4.24027e-05
0.000617726 5.93568e-05 -1.6285e-05
5.93568e-05 -0.000111726 -4.56754e-06
-1.6285e-05 -4.56754e-06 -0.00017632
0.000866734 8.34154e-05 -3.23513e-06
8.34154e-05 -0.000128949 -4.70837e-07
-3.23513e-06 -4.70837e-07 -0.000243312
0.00178011 0.000126771 5.26743e-06
0.000126771 0.000287393 9.88248e-07
5.26743e-06 9.88248e-07 0.000157072
0.00522128 0.000100423 -0.000177479
0.000100423 0.00260324 -1.10837e-05
-0.000177479 -1.10837e-05 0.00260256
0.000598223 8.25242e-05 8.02224e-08
8.25242e-05 -0.000108441 1.18268e-07
8.02224e-08 1.18268e-07 -0.000175332
0.000641788 9.63523e-05 7.98793e-06
9.63523e-05 -0.000240503 2.7291e-06
7.98793e-06 2.7291e-06 -0.000358375
0.00515113 5.74135e-05 1.0112e-05
5.74135e-05 0.00257808 1.22897e-06
1.0112e-05 1.22897e-06 0.00257197
0.000572202 0.000102328 1.66313e-05
0.000102328 -0.000107243 7.772e-06
1.66313e-05 7.772e-06 -0.000179229
0.00491451 -4.12267e-05 0.000140123
-4.12267e-05 0.00245256 8.77878e-06
0.000140123 8.77878e-06 0.00244574
0.00171254 2.15847e-05 -2.21539e-06
2.15847e-05 0.000226613 -1.89684e-07
-2.21539e-06 -1.89684e-07 0.000108403
0.00173944 2.58386e-05 -1.90338e-07
2.58386e-05 0.00013925 9.62135e-08
-1.90338e-07 9.62135e-08 2.45069e-05
0.0016978 3.78684e-05 -5.95322e-07
3.78684e-05 6.31327e-05 2.34009e-07
-5.95322e-07 2.34009e-07 -4.11647e-05
0.000779484 -1.02441e-05 -1.29657e-05
-1.02441e-05 -0.000192677 -1.96247e-07
-1.29657e-05 -1.96247e-07 -0.000306143
0.00172066 3.67106e-06 2.11168e-06
3.67106e-06 0.000228607 -6.03045e-08
2.11168e-06 -6.03045e-08 0.000109208
0.00173195 2.13101e-06 8.64025e-07
2.13101e-06 0.000139071 1.48619e-07
8.64025e-07 1.48619e-07 2.5198e-05
0.00173046 -6.52257e-06 6.2088e-06
-6.52257e-06 0.000230204 -6.80085e-08
6.2088e-06 -6.80085e-08 0.000108671
0.000779586 -6.63936e-06 -1.92956e-06
-6.63936e-06 -0.000195981 1.49614e-07
-1.92956e-06 1.49614e-07 -0.000311496
0.000684585 -1.61687e-05 -1.71904e-05
-1.61687e-05 -9.1501e-05 6.87803e-07
-1.71904e-05 6.87803e-07 -0.000157365
0.0011023 -1.56202e-05 9.01655e-06
-1.56202e-05 -9.96144e-06 -1.24451e-06
9.01655e-06 -1.24451e-06 -0.000123748
0.000658913 2.91179e-06 1.75784e-07
2.91179e-06 -0.000102759 9.07856e-08
1.75784e-07 9.07856e-08 -0.000168565
0.0052756 -6.67024e-05 -0.000176805
-6.67024e-05 0.00263159 3.31483e-06
-0.000176805 3.31483e-06 0.00263146
0.000659389 -1.5495e-05 1.64822e-05
-1.5495e-05 -9.60266e-05 -2.2964e-06
1.64822e-05 -2.2964e-06 -0.000161369
0.00522414 1.41603e-05 -7.16781e-07
1.41603e-05 0.00259923 7.51402e-07
-7.16781e-07 7.51402e-07 0.00260144
0.00516689 -4.95803e-05 0.000171931
-4.95803e-05 0.00256809 -4.99133e-06
0.000171931 -4.99133e-06 0.00257017
0.00144594 2.74446e-05 -3.83229e-06
2.74446e-05 8.46943e-05 -2.86854e-07
-3.83229e-06 -2.86854e-07 -3.7341e-05
0.00166399 4.22526e-05 -1.61957e-08
4.22526e-05 0.000115239 -5.32269e-07
-1.61957e-08 -5.32269e-07 3.77566e-07
0.0017382 6.71788e-05 -2.67664e-06
6.71788e-05 9.08485e-05 -1.957e-07
-2.67664e-06 -1.957e-07 -1.21612e-05
0.00111156 3.29721e-05 -1.1167e-05
3.29721e-05 -2.72389e-06 -1.53708e-06
-1.1167e-05 -1.53708e-06 -0.000111512
0.00140421 4.31229e-05 2.14267e-07
4.31229e-05 5.86391e-05 7.91689e-08
2.14267e-07 7.91689e-08 -6.54833e-05
0.00159133 4.77181e-05 -8.38555e-08
4.77181e-05 7.70866e-05 -1.27442e-06
-8.38555e-08 -1.27442e-06 -4.17977e-05
0.000646972 3.53971e-05 -1.58799e-05
3.53971e-05 -0.000103356 -3.4982e-06
-1.58799e-05 -3.4982e-06 -0.000167396
0.0011053 6.44538e-05 9.81077e-08
6.44538e-05 -2.90785e-06 1.85569e-07
9.81077e-08 1.85569e-07 -0.000113769
0.00137979 7.77129e-05 4.62164e-06
7.77129e-05 4.77185e-05 6.83581e-07
4.62164e-06 6.83581e-07 -8.0557e-05
0.00520561 0.000115345 -0.000189003
0.000115345 0.00259373 -9.75666e-06
-0.000189003 -9.75666e-06 0.0025926
0.000636123 6.02525e-05 1.84331e-07
6.02525e-05 -0.00010105 1.60101e-07
1.84331e-07 1.60101e-07 -0.000165848
0.00105523 9.08551e-05 8.22631e-06
9.08551e-05 -2.20512e-05 2.33967e-06
8.22631e-06 2.33967e-06 -0.000135689
0.00516897 0.000113033 5.1188e-06
0.000113033 0.00258001 1.63166e-06
5.1188e-06 1.63166e-06 0.00257689
0.000605516 7.99847e-05 1.58431e-05
7.99847e-05 -0.000104254 6.24924e-06
1.58431e-05 6.24924e-06 -0.000171149
0.00510753 7.60787e-05 0.000165569
7.60787e-05 0.00254913 1.17231e-05
0.000165569 1.17231e-05 0.00254652
0.00114247 9.61124e-06 -1.17969e-05
9.61124e-06 1.31006e-05 -6.94726e-07
-1.17969e-05 -6.94726e-07 -9.63333e-05
0.00153794 1.63146e-05 2.37467e-06
1.63146e-05 0.000128344 8.7397e-08
2.37467e-06 8.7397e-08 8.74677e-06
0.00170892 2.03223e-05 -1.0066e-07
2.03223e-05 0.000124203 1.9579e-07
-1.0066e-07 1.9579e-07 8.6999e-06
0.000690194 2.34408e-05 -1.75617e-05
2.34408e-05 -9.3443e-05 -4.13792e-07
-1.75617e-05 -4.13792e-07 -0.000154163
0.000769033 -4.50526e-06 -2.11619e-06
-4.50526e-06 -0.000199497 2.79572e-08
-2.11619e-06 2.79572e-08 -0.000313137
0.00174294 1.00239e-05 6.51819e-06
1.00239e-05 0.000241139 8.58127e-08
6.51819e-06 8.58127e-08 0.000121733
0.000765224 -6.13993e-06 8.56314e-06
-6.13993e-06 -0.000204634 -3.51861e-07
8.56314e-06 -3.51861e-07 -0.000320316
0.000666608 -7.66915e-07 1.49402e-07
-7.66915e-07 -0.00010178 2.96113e-07
1.49402e-07 2.96113e-07 -0.000167394
0.00532297 5.47566e-05 -0.000185327
5.47566e-05 0.00265516 -9.00263e-07
-0.000185327 -9.00263e-07 0.00265661
0.000641506 1.19195e-05 1.63007e-05
1.19195e-05 -0.000113001 -1.17554e-06
1.63007e-05 -1.17554e-06 -0.000178512
0.0052914 -6.44831e-05 -7.71462e-06
-6.44831e-05 0.00263979 1.22678e-06
-7.71462e-06 1.22678e-06 0.00263965
0.00523882 5.36585e-05 0.000162811
5.36585e-05 0.00260993 -2.19606e-06
0.000162811 -2.19606e-06 0.00260999
0.00112441 1.68352e-05 -1.16858e-05
1.68352e-05 3.32278e-06 -1.32199e-06
-1.16858e-05 -1.32199e-06 -0.000105224
0.0013734 2.66789e-05 6.42467e-08
2.66789e-05 4.27145e-05 -4.96192e-08
6.42467e-08 -4.96192e-08 -7.89116e-05
0.00165319 4.48526e-05 -8.9295e-07
4.48526e-05 0.000108072 -9.92163e-07
-8.9295e-07 -9.92163e-07 -5.13431e-06
0.00255349 3.01433e-05 -9.35298e-05
3.01433e-05 0.000974162 -2.77968e-06
-9.35298e-05 -2.77968e-06 0.00092799
0.00111957 3.51869e-05 1.49467e-07
3.51869e-05 1.28867e-06 1.82129e-07
1.49467e-07 1.82129e-07 -0.000107677
0.00137354 4.30474e-05 4.28993e-06
4.30474e-05 4.04928e-05 2.58387e-07
4.28993e-06 2.58387e-07 -8.38971e-05
0.00518938 0.000112351 -0.000192134
0.000112351 0.00258749 -7.71624e-06
-0.000192134 -7.71624e-06 0.00258489
0.000676639 4.33705e-05 4.4553e-07
4.33705e-05 -8.55773e-05 2.19897e-07
4.4553e-07 2.19897e-07 -0.000150265
0.0011079 6.63319e-05 1.13043e-05
6.63319e-05 -1.27956e-06 2.41979e-06
1.13043e-05 2.41979e-06 -0.000112479
0.00520723 0.000131146 4.03865e-07
0.000131146 0.00259916 1.46035e-06
4.03865e-07 1.46035e-06 0.00259605
0.000662242 6.0044e-05 1.62535e-05
6.0044e-05 -8.59465e-05 5.08593e-06
1.62535e-05 5.08593e-06 -0.000150859
0.00512598 0.000131809 0.000175819
0.000131809 0.00255929 1.2859e-05
0.000175819 1.2859e-05 0.00255488
0.000723974 7.77676e-06 -1.61083e-05
7.77676e-06 -6.69341e-05 -1.70346e-06
-1.61083e-05 -1.70346e-06 -0.000131994
0.000953405 7.27597e-06 6.13252e-07
7.27597e-06 -9.33072e-05 2.62208e-07
6.13252e-07 2.62208e-07 -0.000204147
0.00135747 1.08276e-05 6.03457e-06
1.08276e-05 2.67717e-05 2.75903e-07
6.03457e-06 2.75903e-07 -9.41839e-05
0.00526215 -9.04108e-05 -0.00017021
-9.04108e-05 0.00263504 -1.06256e-06
-0.00017021 -1.06256e-06 0.00262777
0.000669396 8.13827e-06 -2.9152e-07
8.13827e-06 -0.000101072 2.23156e-07
-2.9152e-07 2.23156e-07 -0.000164056
0.000764712 9.2379e-07 8.63041e-06
9.2379e-07 -0.000202929 1.52064e-07
8.63041e-06 1.52064e-07 -0.000316731
0.00064402 1.7646e-05 1.66722e-05
1.7646e-05 -0.000114358 1.43751e-07
1.66722e-05 1.43751e-07 -0.00017984
0.00531159 2.16078e-05 3.02961e-06
2.16078e-05 0.00265168 -2.70306e-08
3.02961e-06 -2.70306e-08 0.0026507
0.00532413 3.04816e-05 0.000174242
3.04816e-05 0.002652 -4.43969e-07
0.000174242 -4.43969e-07 0.00265457
0.00259933 -2.43515e-07 -9.28095e-05
-2.43515e-07 0.000995284 -1.95519e-06
-9.28095e-05 -1.95519e-06 0.000949274
0.00113817 1.94172e-05 -9.09939e-09
1.94172e-05 1.05874e-05 5.70545e-08
-9.09939e-09 5.70545e-08 -9.80279e-05
0.00129975 2.61183e-05 4.02592e-06
2.61183e-05 1.5402e-07 8.33584e-08
4.02592e-06 8.33584e-08 -0.000121064
0.00491625 -6.51797e-05 -3.37073e-05
-6.51797e-05 0.00244212 -4.09638e-07
-3.37073e-05 -4.09638e-07 0.00242742
0.000689725 3.30364e-05 -3.76349e-08
3.30364e-05 -8.10199e-05 2.27636e-07
-3.76349e-08 2.27636e-07 -0.000145756
0.00113962 3.79565e-05 1.1307e-05
3.79565e-05 1.17818e-05 1.95032e-06
1.1307e-05 1.95032e-06 -9.73294e-05
0.00522443 7.4854e-05 -1.17094e-05
7.4854e-05 0.00260242 -3.20431e-07
-1.17094e-05 -3.20431e-07 0.00260263
0.000707182 5.94368e-05 1.73735e-05
5.94368e-05 -6.68591e-05 4.28417e-06
1.73735e-05 4.28417e-06 -0.000132434
0.00519336 0.000149885 0.000184661
0.000149885 0.00259635 1.25794e-05
0.000184661 1.25794e-05 0.00259096
0.00166075 -3.50995e-05 -0.000157379
-3.50995e-05 0.000570551 3.91049e-07
-0.000157379 3.91049e-07 0.000553839
0.00164595 1.83263e-05 -3.80145e-05
1.83263e-05 0.000452449 2.64823e-07
-3.80145e-05 2.64823e-07 0.000399505
0.000771119 7.49729e-06 1.14815e-05
7.49729e-06 -0.000195918 9.9838e-07
1.14815e-05 9.9838e-07 -0.000308183
0.00527042 -3.67747e-05 8.59387e-06
-3.67747e-05 0.00263554 -8.5456e-08
8.59387e-06 -8.5456e-08 0.00263164
0.000666211 -6.19735e-06 1.7213e-05
-6.19735e-06 -9.98837e-05 9.33106e-07
1.7213e-05 9.33106e-07 -0.000164471
0.00532255 -4.9793e-05 0.000190536
-4.9793e-05 0.00265722 -4.16003e-07
0.000190536 -4.16003e-07 0.00265736
0.00132684 -1.92838e-05 -1.57116e-05
-1.92838e-05 0.000400523 -8.70125e-07
-1.57116e-05 -8.70125e-07 0.000366873
0.00163966 1.02861e-05 -3.81066e-05
1.02861e-05 0.000453104 -2.16124e-07
-3.81066e-05 -2.16124e-07 0.000398319
0.00113903 2.0393e-05 1.14473e-05
2.0393e-05 1.0916e-05 1.4615e-06
1.14473e-05 1.4615e-06 -9.7793e-05
0.0032646 3.44704e-05 6.98058e-05
3.44704e-05 0.00149217 1.26472e-06
6.98058e-05 1.26472e-06 0.00147707
0.000697753 4.15181e-05 1.75108e-05
4.15181e-05 -7.6363e-05 3.54203e-06
1.75108e-05 3.54203e-06 -0.000141353
0.00523392 8.1942e-05 0.000174891
8.1942e-05 0.00260692 8.39647e-06
0.000174891 8.39647e-06 0.0026079
0.00521174 -2.63964e-05 -8.93168e-06
-2.63964e-05 0.00260452 -5.5682e-07
-8.93168e-06 -5.5682e-07 0.00260017
0.000682156 3.08445e-05 1.7986e-05
3.08445e-05 -9.38058e-05 1.72746e-06
1.7986e-05 1.72746e-06 -0.000154359
0.00522269 5.83853e-05 0.000175152
5.83853e-05 0.00260622 -7.68683e-07
0.000175152 -7.68683e-07 0.00260443
0.00326678 2.95221e-05 8.51006e-05
2.95221e-05 0.00149691 1.71239e-06
8.51006e-05 1.71239e-06 0.00148052
0.00070169 6.86702e-06 1.71209e-05
6.86702e-06 -7.66899e-05 2.51175e-06
1.71209e-05 2.51175e-06 -0.000140634
0.00522339 -4.02906e-05 0.000167931
-4.02906e-05 0.00260226 4.35261e-06
0.000167931 4.35261e-06 0.00260202
0.00520999 -0.000135248 0.000169112
-0.000135248 0.00261066 -1.15368e-06
0.000169112 -1.15368e-06 0.00260118
0.00520093 -2.89706e-05 0.000166665
-2.89706e-05 0.00258633 2.03231e-06
0.000166665 2.03231e-06 0.00258876
