# vtk DataFile Version 2.0
Wound Healing Simulation
ASCII
DATASET UNSTRUCTURED_GRID
POINTS 3012 float
69.9759 18.75 4
67.2507 60.3285 4
69.976 18.75 2
73.0099 25.446 4
71.1327 20.9142 4
68.6801 16.6661 4
67.8272 19.9257 3.98617
67.2507 60.3286 2
71.1327 54.0858 4
68.6801 58.3339 4
65.6939 62.2254 4
65.3138 59.003 3.9872
74.6784 42.3946 4
73.7221 47.2057 4
69.9759 18.75 0
73.0099 25.446 2
68.6801 16.6661 2
71.1327 20.9142 2
67.8277 19.9278 2
74.6792 32.6053 4
73.7222 27.7943 4
72.1454 23.1494 4
70.6153 26.222 3.98522
68.8873 21.9587 3.98589
67.2507 14.6715 4
66.6388 17.9704 3.98681
65.8014 21.0234 3.9797
67.2507 60.3285 0
71.1327 54.0858 2
68.6801 58.3339 2
65.694 62.2255 2
65.3146 59.0018 2
72.1454 51.8506 4
69.9759 56.25 4
68.8378 53.1128 3.98526
64.0165 64.0165 4
66.6123 57.1351 3.98684
63.8872 60.7679 3.98879
63.5041 57.7764 3.98184
60.3285 67.2507 4
74.6792 42.3947 2
73.7222 47.2057 2
74.9194 39.9526 4
74.2788 44.8158 4
72.1688 42.0857 3.9834
73.0099 49.554 4
71.2503 46.5979 3.98462
73.0099 25.446 0
71.1327 20.9142 0
68.6801 16.6661 0
67.8272 19.9257 0.0138256
74.6792 32.6053 2
73.7222 27.7943 2
67.2508 14.6715 2
72.1455 23.1494 2
70.6153 26.2226 2
66.6396 17.972 2
68.8875 21.9605 2
65.8012 21.0231 2
74.9197 35.0474 4
74.2794 30.1841 4
72.1855 32.9434 3.98381
71.2793 28.4319 3.98509
69.8169 24.0608 3.98542
68.3496 26.9517 3.97656
66.7661 22.9328 3.97813
65.694 12.7746 4
65.3254 16.1013 3.98798
64.7184 19.1911 3.98129
63.8927 22.0321 3.97593
71.1327 54.0858 0
65.6939 62.2254 0
68.6801 58.3339 0
65.3138 59.003 0.0127967
72.1455 51.8506 2
69.9759 56.25 2
68.8381 53.1108 2
64.0165 64.0165 2
66.6131 57.1332 2
63.8879 60.7673 2
63.5043 57.7773 2
62.2254 65.694 4
58.895 65.4154 3.99256
69.7702 50.9882 3.98488
67.7853 55.1679 3.98603
66.6527 52.2102 3.97741
62.3374 62.4291 3.99056
64.6651 56.0352 3.98145
62.2058 59.4099 3.98277
61.8284 56.6883 3.97877
58.3339 68.6801 4
60.3285 67.2508 2
73.7221 47.2057 0
74.6784 42.3946 0
74.9197 39.9526 2
74.2794 44.8159 2
72.1686 42.0856 2
73.0099 49.554 2
71.2503 46.5976 2
75 37.5 4
72.4059 39.8023 3.98312
71.7834 44.353 3.98409
69.8057 41.7901 3.97481
70.5762 48.813 3.98477
68.9149 46.0155 3.97591
74.6792 32.6053 0
73.7222 27.7943 0
67.2507 14.6715 0
72.1454 23.1494 0
70.6153 26.222 0.0147822
68.8873 21.9587 0.014114
66.6388 17.9704 0.0131923
65.8014 21.0234 0.0203022
74.9197 35.0474 2
74.2794 30.1841 2
72.1853 32.9434 2
71.2793 28.432 2
65.694 12.7745 2
65.3262 16.1021 2
69.817 24.0621 2
68.3494 26.9519 2
64.7185 19.1903 2
66.7658 22.9328 2
63.8926 22.0315 2
72.4137 35.2242 3.98312
71.8048 30.6765 3.98458
69.8418 33.2684 3.97526
68.969 29.0381 3.97661
67.6141 24.9123 3.97681
66.198 27.634 3.97333
64.0165 10.9835 4
64.761 23.8286 3.9744
63.8915 14.3249 3.98928
63.5175 17.4412 3.98309
62.9134 20.3149 3.97734
62.0988 22.939 3.97386
60.6849 11.0959 3.99132
57.6133 11.4419 3.98599
72.1454 51.8506 0
69.9759 56.25 0
68.8378 53.1128 0.0147353
64.0165 64.0165 0
63.8872 60.7679 0.0112142
66.6123 57.1351 0.0131574
63.5041 57.7764 0.0181551
62.2255 65.694 2
58.8954 65.4154 2
69.7703 50.9868 2
67.7859 55.1656 2
66.6525 52.2101 2
62.3379 62.4287 2
64.6652 56.0359 2
62.2059 59.4108 2
61.8285 56.6892 2
60.6697 63.9784 3.99169
57.0257 66.7362 3.99316
57.559 63.6959 3.98704
67.5101 50.1773 3.97614
65.706 54.1754 3.97939
64.5415 51.3878 3.97337
60.7751 60.9432 3.98404
62.8262 55.0738 3.97846
60.6625 58.1673 3.97912
60.334 55.794 3.97768
56.25 69.9759 4
58.3339 68.6801 2
60.3285 67.2507 0
58.922 9.65429 3.99204
62.2254 9.30607 4
73.0099 49.554 0
74.2788 44.8158 0
71.2503 46.5979 0.0153813
72.1688 42.0857 0.0166003
74.9194 39.9526 0
75 37.5 2
72.4058 39.8024 2
71.7834 44.3527 2
69.8056 41.79 2
70.5763 48.8123 2
68.9149 46.0152 2
72.4892 37.5121 3.98298
70.0423 39.6577 3.97405
69.4326 43.9081 3.97551
67.5995 41.4987 3.97135
68.2685 48.1077 3.97594
66.7133 45.4417 3.97258
74.9197 35.0474 0
74.2794 30.1841 0
72.1855 32.9434 0.0161912
71.2793 28.4319 0.0149055
65.694 12.7746 0
65.3254 16.1013 0.0120164
69.8169 24.0608 0.0145755
68.3496 26.9517 0.0234358
66.7661 22.9328 0.0218677
64.7184 19.1911 0.0187141
63.8927 22.0321 0.0240681
72.4136 35.2241 2
71.8048 30.6765 2
69.8417 33.2685 2
68.969 29.0383 2
64.0165 10.9835 2
63.892 14.3254 2
63.5177 17.4403 2
67.6139 24.9125 2
66.1978 27.6339 2
62.9135 20.314 2
64.7608 23.8282 2
62.0987 22.9385 2
60.6853 11.0963 2
57.6135 11.4411 2
70.059 35.392 3.97426
69.4695 31.1494 3.97601
67.6577 33.5906 3.97168
66.776 29.6219 3.9731
65.5273 25.6987 3.9733
64.15 28.2541 3.97262
62.3427 12.6531 3.99033
62.8611 24.635 3.97233
62.202 15.7786 3.984
61.8197 18.6771 3.97943
61.2245 21.3353 3.97482
60.4312 23.7227 3.97333
59.2475 12.7733 3.98438
55.8752 10.2286 3.98745
56.4064 13.1054 3.98276
69.7702 50.9882 0.0151246
62.2254 65.694 0
58.895 65.4154 0.00744106
67.7853 55.1679 0.0139704
66.6527 52.2102 0.0225855
62.3374 62.4291 0.00944418
62.2058 59.4099 0.0172346
64.6651 56.0352 0.0185501
61.8284 56.6883 0.0212346
60.6701 63.9781 2
57.026 66.7363 2
57.559 63.6968 2
67.5099 50.1769 2
65.7059 54.1758 2
64.5414 51.388 2
60.7752 60.9442 2
62.8264 55.0747 2
60.6626 58.1682 2
60.3342 55.7949 2
55.0711 67.9332 3.99343
59.2207 62.3709 3.98501
55.8056 64.9136 3.9889
56.3283 62.0965 3.98358
65.3348 49.4101 3.97227
63.7112 53.2963 3.9755
62.4452 50.6556 3.97117
59.3361 59.5647 3.98143
61.0836 54.3162 3.97736
59.2936 57.0212 3.9763
59.2483 55.1914 3.97885
48.1036 68.5813 3.99012
50.9487 69.9328 3.99383
54.0858 71.1327 4
56.25 69.976 2
58.3339 68.6801 0
57.0591 8.33429 3.99236
60.3285 7.74928 4
58.9224 9.65444 2
62.2255 9.30602 2
70.5762 48.813 0.0152274
71.7834 44.353 0.0159073
68.9149 46.0155 0.0240891
69.8057 41.7901 0.0251855
72.4059 39.8023 0.0168844
75 37.5 0
72.4891 37.5121 2
70.0423 39.6577 2
69.4326 43.908 2
67.5993 41.4987 2
68.2684 48.1074 2
66.7132 45.4418 2
70.1304 37.5217 3.97415
67.8359 39.513 3.97068
67.2265 43.4714 3.97196
65.5583 41.2115 3.97057
66.072 47.4198 3.97269
64.6561 44.8512 3.97147
72.4137 35.2242 0.0168759
71.8048 30.6765 0.0154204
69.8418 33.2684 0.0247433
68.969 29.0381 0.0233929
64.0165 10.9835 0
63.8915 14.3249 0.010722
63.5175 17.4412 0.0169093
67.6141 24.9123 0.0231856
66.198 27.634 0.0266694
64.761 23.8286 0.0255986
62.9134 20.3149 0.0226553
62.0988 22.939 0.0261383
60.6849 11.0959 0.00868105
57.6133 11.4419 0.0140146
70.059 35.3922 2
69.4696 31.1495 2
67.6577 33.5905 2
66.776 29.6217 2
62.3432 12.6535 2
62.2021 15.778 2
61.82 18.676 2
65.5271 25.6985 2
64.1499 28.2539 2
61.2246 21.3346 2
62.861 24.6347 2
60.4311 23.7223 2
59.2476 12.7728 2
56.4064 13.1045 2
55.8753 10.2278 2
67.8719 35.5476 3.97092
67.2684 31.6217 3.97238
65.7002 33.9269 3.97089
64.6671 30.1906 3.97156
63.5412 26.4131 3.97195
62.2613 28.7755 3.97232
60.7771 14.2179 3.98403
61.0482 25.3349 3.97184
60.6171 17.1196 3.9814
60.229 19.808 3.97695
59.6674 22.2518 3.97297
58.9828 24.3149 3.97383
54.0382 9.13186 3.98813
57.9119 14.3242 3.9824
54.7876 12.0045 3.98413
55.3138 14.6366 3.98128
67.5101 50.1773 0.0238646
57.0257 66.7362 0.00683535
60.6697 63.9784 0.00831392
57.559 63.6959 0.0129624
65.706 54.1754 0.0206139
64.5415 51.3878 0.0266261
60.7751 60.9432 0.0159582
60.6625 58.1673 0.0208777
62.8262 55.0738 0.0215378
60.334 55.794 0.0223239
55.0714 67.9332 2
59.2207 62.3718 2
55.8055 64.9144 2
56.3283 62.0976 2
65.3346 49.4101 2
63.7112 53.2969 2
62.4452 50.6559 2
59.3362 59.5658 2
61.0838 54.317 2
59.2939 57.022 2
59.2486 55.192 2
53.0429 69.001 3.99368
53.9679 66.0157 3.98952
57.8825 60.877 3.98248
54.6849 63.2134 3.98535
55.2129 60.6243 3.98183
63.1969 48.6638 3.97064
61.7465 52.5802 3.97351
60.2758 50.0241 3.97017
58.0213 58.2696 3.9786
59.3333 53.9549 3.97675
58.1312 55.8205 3.97434
50.1103 67.8593 3.99002
47.4642 66.5856 3.98783
46.0572 69.1608 3.99027
48.1036 68.5817 2
48.8029 70.724 3.99395
50.949 69.9329 2
51.8506 72.1454 4
54.0858 71.1327 2
56.25 69.9759 0
55.1034 7.1388 3.99264
58.3339 6.31992 4
57.0595 8.33427 2
60.3286 7.74926 2
58.922 9.65429 0.00796188
62.2254 9.30607 0
68.2685 48.1077 0.0240553
69.4326 43.9081 0.0244917
66.7133 45.4417 0.0274242
67.5995 41.4987 0.0286468
70.0423 39.6577 0.0259454
72.4892 37.5121 0.017016
70.1303 37.5218 2
67.8358 39.5131 2
67.2265 43.4715 2
65.5582 41.2116 2
66.0718 47.4198 2
64.6559 44.8513 2
67.9322 37.5224 3.97078
65.7892 39.3713 3.97008
65.1791 43.0276 3.97084
63.758 40.9317 3.9712
63.9691 46.7197 3.97179
62.8113 44.2199 3.97184
70.059 35.392 0.025742
69.4695 31.1494 0.0239949
67.6577 33.5906 0.0283184
66.776 29.6219 0.0268983
62.3427 12.6531 0.00966883
62.202 15.7786 0.0159964
61.8197 18.6771 0.0205736
65.5273 25.6987 0.0267012
64.15 28.2541 0.0273786
62.8611 24.635 0.0276747
61.2245 21.3353 0.0251823
60.4312 23.7227 0.0266657
59.2475 12.7733 0.0156154
56.4064 13.1054 0.017238
55.8752 10.2286 0.0125522
67.8719 35.5476 2
67.2686 31.6215 2
65.7002 33.9267 2
64.6671 30.1903 2
60.7771 14.2174 2
60.6171 17.1186 2
60.2294 19.8071 2
63.541 26.4129 2
62.2611 28.7753 2
59.6676 22.2513 2
61.0481 25.3346 2
58.9827 24.3147 2
57.9117 14.3235 2
55.3136 14.6358 2
54.0382 9.13127 2
54.7877 12.0036 2
65.8779 35.6669 3.97019
65.1895 32.1533 3.97085
64.2867 34.2494 3.97101
62.5994 30.634 3.97171
61.6537 27.0698 3.9716
60.8544 29.1378 3.97268
59.3131 15.6611 3.98221
59.333 25.7927 3.97316
59.1284 18.3464 3.97985
58.7459 20.8457 3.97433
58.2898 23.0859 3.97212
57.9716 24.6597 3.97567
52.1128 8.15035 3.9886
53.0586 11.0109 3.98499
56.6783 15.7334 3.98144
53.8104 13.6714 3.98259
54.3777 15.9883 3.98103
55.0711 67.9332 0.00656856
65.3348 49.4101 0.0277287
55.8056 64.9136 0.0111001
59.2207 62.3709 0.0149859
56.3283 62.0965 0.0164246
63.7112 53.2963 0.0245033
62.4452 50.6556 0.0288254
59.3361 59.5647 0.0185652
59.2936 57.0212 0.0237019
61.0836 54.3162 0.0226418
59.2483 55.1914 0.0211485
53.0432 69.0011 2
53.9677 66.0164 2
57.8825 60.8779 2
54.6848 63.2144 2
55.2129 60.6255 2
63.1967 48.6639 2
61.7467 52.5808 2
60.2758 50.0243 2
58.0216 58.2707 2
59.3337 53.9554 2
58.1315 55.8207 2
52.0714 67.0023 3.98985
52.9542 64.2238 3.9867
56.6503 59.4969 3.98079
53.6822 61.6302 3.98327
54.2618 59.3303 3.97976
60.9955 47.885 3.97016
59.7136 52.1113 3.97313
58.0259 49.6234 3.97138
56.7802 56.9961 3.97515
57.1253 54.1288 3.97486
50.1102 67.8597 2
49.338 65.9259 3.98775
47.464 66.5862 2
46.8931 64.743 3.98646
45.5593 67.1031 3.98763
43.9741 69.5931 3.99019
46.0572 69.1612 2
46.6095 71.3685 3.99406
48.1036 68.5813 0.00987938
48.8031 70.7242 2
49.554 73.0099 4
50.9487 69.9328 0.00616589
51.8506 72.1455 2
54.0858 71.1327 0
53.0644 6.07028 3.99288
55.1037 7.13875 2
56.25 5.02411 4
58.3339 6.3199 2
57.0591 8.33429 0.00764036
60.3285 7.74928 0
66.072 47.4198 0.0273098
67.2265 43.4714 0.028043
64.6561 44.8512 0.0285269
65.5583 41.2115 0.029427
67.8359 39.513 0.0293211
70.1304 37.5217 0.0258531
67.9322 37.5224 2
65.7892 39.3713 2
65.1791 43.0277 2
63.758 40.9318 2
63.9689 46.7197 2
62.8112 44.22 2
65.8922 37.5023 3.97001
63.8959 39.2682 3.97066
63.3323 42.5529 3.97116
62.4294 40.7002 3.97198
61.9716 45.9236 3.97167
61.455 43.6875 3.97292
67.8719 35.5476 0.0290772
67.2684 31.6217 0.0276215
65.7002 33.9269 0.0291058
64.6671 30.1906 0.0284363
60.7771 14.2179 0.0159737
60.6171 17.1196 0.0185968
60.229 19.808 0.0230479
63.5412 26.4131 0.0280457
62.2613 28.7755 0.0276758
61.0482 25.3349 0.0281622
59.6674 22.2518 0.0270298
58.9828 24.3149 0.0261681
57.9119 14.3242 0.017604
55.3138 14.6366 0.01872
54.0382 9.13186 0.0118745
54.7876 12.0045 0.0158714
65.8779 35.6668 2
65.1896 32.1531 2
64.2868 34.2493 2
62.5994 30.6339 2
59.313 15.6603 2
59.1286 18.3455 2
58.7464 20.8449 2
61.6535 27.0697 2
60.8543 29.1377 2
58.2899 23.0856 2
59.3329 25.7924 2
57.9716 24.6598 2
56.678 15.7326 2
54.3774 15.9874 2
53.8103 13.6704 2
52.1128 8.14981 2
53.0585 11.0101 2
64.0904 35.6323 3.97041
62.9339 33.0455 3.97103
60.6205 30.6101 3.9728
59.573 27.9066 3.97225
57.9422 16.9744 3.98128
57.7414 25.7218 3.97347
57.7194 19.4667 3.97805
57.3753 21.8331 3.97152
57.1896 23.9424 3.97231
50.1128 7.28232 3.98896
51.2329 10.1192 3.98576
52.1726 12.7888 3.9837
55.5393 16.9624 3.98137
52.9785 15.2529 3.98074
53.7597 16.97 3.98124
53.0429 69.001 0.0063246
53.9679 66.0157 0.010476
63.1969 48.6638 0.029365
54.6849 63.2134 0.0146497
57.8825 60.877 0.0175197
55.2129 60.6243 0.0181691
61.7465 52.5802 0.026491
60.2758 50.0241 0.0298307
58.0213 58.2696 0.0213965
58.1312 55.8205 0.0256603
59.3333 53.9549 0.0232488
52.0713 67.0028 2
52.9539 64.2245 2
56.6504 59.498 2
53.6821 61.6314 2
54.2617 59.3318 2
60.9952 47.885 2
59.714 52.1117 2
58.026 49.6234 2
56.7804 56.9978 2
57.1257 54.129 2
51.1688 65.1328 3.98744
52.0469 62.5458 3.98484
55.483 58.2582 3.97963
52.8356 60.1441 3.98129
53.6417 58.4805 3.98009
58.3077 46.855 3.97309
57.562 51.793 3.97302
56.2461 49.5592 3.97664
55.4749 55.7981 3.97364
55.359 53.3861 3.97002
50.1103 67.8593 0.00998283
49.3377 65.9264 2
48.6188 64.1293 3.98603
47.4642 66.5856 0.0121675
45.5591 67.1036 2
46.8929 64.7435 2
46.3824 63.0617 3.98533
45.1333 65.2044 3.98651
43.6322 67.4739 3.98767
41.8611 69.8805 3.99004
43.9741 69.5935 2
44.3768 71.8633 3.99396
46.0572 69.1608 0.00972535
46.6097 71.3687 2
47.2057 73.7222 4
48.8029 70.724 0.00605294
49.554 73.0099 2
51.8506 72.1454 0
50.9541 5.13064 3.99312
53.0647 6.07019 2
54.0858 3.86728 4
55.1034 7.1388 0.00735655
56.25 5.02406 2
58.3339 6.31992 0
63.9691 46.7197 0.0282088
65.1791 43.0276 0.0291557
62.8113 44.2199 0.0281571
63.758 40.9317 0.028803
65.7892 39.3713 0.029918
67.9322 37.5224 0.0292231
65.8922 37.5023 2
63.896 39.2682 2
63.3323 42.553 2
62.4296 40.7003 2
61.9714 45.9236 2
61.4548 43.6875 2
63.9568 37.4577 3.97052
62.1479 39.3568 3.97162
61.218 41.9618 3.97263
60.2558 44.7759 3.97373
65.8779 35.6669 0.0298067
65.1895 32.1533 0.0291451
64.2867 34.2494 0.0289921
62.5994 30.634 0.028289
59.3131 15.6611 0.0177901
59.1284 18.3464 0.0201463
58.7459 20.8457 0.0256679
61.6537 27.0698 0.0283984
60.8544 29.1378 0.0273176
59.333 25.7927 0.0268412
58.2898 23.0859 0.0278823
57.9716 24.6597 0.024332
56.6783 15.7334 0.0185596
54.3777 15.9883 0.0189685
53.8104 13.6714 0.0174091
52.1128 8.15035 0.0113994
53.0586 11.0109 0.0150099
64.0904 35.6323 2
62.9342 33.0454 2
60.6205 30.61 2
57.9421 16.9735 2
57.7199 19.4657 2
57.3759 21.8326 2
59.5732 27.9065 2
57.1897 23.9427 2
57.7413 25.7218 2
50.1128 7.28184 2
55.5391 16.9615 2
53.7594 16.969 2
52.9783 15.2519 2
52.1725 12.788 2
51.2328 10.1186 2
62.184 35.3596 3.97119
60.2935 32.7446 3.9724
58.627 30.073 3.97323
57.2896 27.3777 3.97364
56.6388 18.1467 3.98094
56.2939 25.098 3.97296
56.3608 20.513 3.97408
56.1118 22.8649 3.96871
48.0565 6.52541 3.98935
49.3247 9.32715 3.98619
50.4334 11.9869 3.98411
51.3783 14.4885 3.9824
54.4168 17.911 3.98154
52.3622 17.0252 3.98023
52.0714 67.0023 0.0101525
52.9542 64.2238 0.0132963
60.9955 47.885 0.0298425
53.6822 61.6302 0.016728
56.6503 59.4969 0.0192122
54.2618 59.3303 0.0202435
59.7136 52.1113 0.0268697
58.0259 49.6234 0.0286159
56.7802 56.9961 0.0248527
57.1253 54.1288 0.0251377
51.1685 65.1334 2
52.0467 62.5467 2
55.483 58.2597 2
52.8355 60.1453 2
53.6417 58.4819 2
58.3073 46.855 2
57.5625 51.7932 2
56.2463 49.559 2
55.4755 55.7991 2
55.3596 53.3867 2
50.3469 63.3875 3.98559
51.2449 60.9439 3.98281
54.2216 57.2744 3.97935
52.3139 58.6433 3.97942
56.7149 44.1899 3.9759
55.4944 47.9027 3.97476
55.0683 51.39 3.97098
54.0058 54.5468 3.97221
49.338 65.9259 0.0122515
48.6186 64.1298 2
47.9626 62.4827 3.98486
45.5593 67.1031 0.0123718
46.8931 64.743 0.0135369
43.632 67.4743 2
46.3821 63.0625 2
45.1331 65.205 2
45.9879 61.5953 3.98458
44.7677 63.463 3.98593
43.3572 65.5142 3.98657
41.664 67.6927 3.98755
39.7026 70.0276 3.98989
41.8612 69.881 2
42.1111 72.2081 3.99382
43.9741 69.5931 0.00980976
44.377 71.8636 2
44.8159 74.2794 4
46.6095 71.3685 0.0059421
47.2057 73.7222 2
49.554 73.0099 0
48.7845 4.32164 3.99337
50.9543 5.1305 2
51.8506 2.85458 4
53.0644 6.07028 0.00711743
54.0858 3.86728 2
56.25 5.02411 0
61.9716 45.9236 0.0283278
63.3323 42.5529 0.0288367
61.455 43.6875 0.027084
62.4294 40.7002 0.0280174
63.8959 39.2682 0.029343
65.8922 37.5023 0.0299943
63.9566 37.4577 2
62.1479 39.3569 2
61.2181 41.9618 2
60.2556 44.7759 2
61.982 37.4456 3.97151
60.2381 39.85 3.97305
58.9921 42.9234 3.97363
64.0904 35.6323 0.02959
62.9339 33.0455 0.0289742
60.6205 30.6101 0.0271976
57.9422 16.9744 0.0187201
57.7194 19.4667 0.0219477
57.3753 21.8331 0.0284845
59.573 27.9066 0.0277548
57.7414 25.7218 0.026534
57.1896 23.9424 0.0276895
55.5393 16.9624 0.0186348
53.7597 16.97 0.0187629
52.9785 15.2529 0.0192566
50.1128 7.28232 0.0110377
52.1726 12.7888 0.0162978
51.2329 10.1192 0.0142356
62.1836 35.3595 2
60.2939 32.7445 2
58.6268 30.073 2
56.6389 18.1456 2
56.3615 20.5119 2
56.1124 22.8653 2
57.2907 27.3776 2
56.2937 25.0984 2
48.0565 6.52489 2
49.3246 9.3267 2
54.4167 17.91 2
52.3618 17.0244 2
51.3782 14.4876 2
50.4333 11.9863 2
59.8813 35.1198 3.97229
57.9974 32.2687 3.97434
56.5464 29.337 3.9744
55.4453 26.5947 3.97548
55.3444 19.1805 3.98022
54.931 24.0541 3.96917
55.0038 21.5553 3.9727
45.9623 5.88039 3.98969
43.3734 7.47042 3.9875
47.355 8.62089 3.98667
48.6001 11.2885 3.98457
49.7143 13.7356 3.98315
50.6341 16.1222 3.98059
53.1261 18.6498 3.97875
51.3032 18.0381 3.98535
51.1688 65.1328 0.0125641
52.0469 62.5458 0.015161
58.3077 46.855 0.0269079
52.8356 60.1441 0.0187092
55.483 58.2582 0.0203749
53.6417 58.4805 0.019913
57.562 51.793 0.026981
56.2461 49.5592 0.0233593
55.4749 55.7981 0.0263579
55.359 53.3861 0.0299849
50.3467 63.388 2
51.2447 60.9448 2
54.2218 57.2759 2
52.3138 58.6444 2
56.7138 44.1898 2
55.4942 47.9024 2
55.069 51.3899 2
54.0065 54.5487 2
49.5924 61.7526 3.98421
55.6192 41.7117 3.976
50.5678 59.3375 3.97971
52.1867 56.4983 3.97584
54.1754 45.5706 3.97673
53.3334 49.3315 3.97433
52.6672 52.8483 3.9691
48.6188 64.1293 0.0139701
47.9623 62.4832 2
47.3298 61.0181 3.98412
43.6322 67.4739 0.0123264
45.1333 65.2044 0.0134868
46.3824 63.0617 0.0146654
41.6639 67.6933 2
43.357 65.5146 2
45.9877 61.5961 2
44.7674 63.4636 2
45.7667 60.6401 3.98368
44.4838 61.8453 3.98457
43.1469 63.7356 3.9858
41.5465 65.6519 3.98637
39.6328 67.7725 3.98733
37.5259 70.0527 3.98976
39.7027 70.0282 2
39.8179 72.4052 3.99372
41.8611 69.8805 0.00996384
42.1113 72.2084 2
42.3947 74.6792 4
44.3768 71.8633 0.00604437
44.8159 74.2794 2
47.2057 73.7222 0
43.8516 5.35751 3.98986
46.5705 3.64616 3.99362
48.7848 4.32144 2
49.554 1.99015 4
50.9541 5.13064 0.00688471
51.8506 2.85453 2
54.0858 3.86728 0
60.2558 44.7759 0.0262711
61.218 41.9618 0.0273734
62.1479 39.3568 0.0283778
63.9568 37.4577 0.0294829
61.982 37.4456 2
60.2378 39.85 2
58.9917 42.9234 2
59.7401 37.5681 3.97239
57.9813 40.6611 3.97365
55.0864 39.7255 3.97531
62.184 35.3596 0.0288092
60.2935 32.7446 0.0276028
58.627 30.073 0.0267734
56.6388 18.1467 0.0190639
56.3608 20.513 0.0259217
56.1118 22.8649 0.0312945
57.2896 27.3777 0.0263644
56.2939 25.098 0.0270429
54.4168 17.911 0.0184618
52.3622 17.0252 0.0197717
51.3783 14.4885 0.0176033
48.0565 6.52541 0.0106489
49.3247 9.32715 0.0138139
50.4334 11.9869 0.0158918
59.8805 35.1198 2
45.9624 5.87991 2
43.3735 7.46999 2
57.9982 32.2687 2
56.5476 29.337 2
55.3447 19.1794 2
55.0045 21.554 2
54.9312 24.0549 2
55.444 26.5952 2
47.3549 8.62032 2
48.5999 11.2881 2
53.1261 18.6488 2
51.3032 18.0375 2
50.6339 16.1214 2
49.7141 13.7349 2
57.3812 34.7606 3.97509
55.7279 31.5174 3.9756
54.489 28.4007 3.97655
53.7706 25.4942 3.97475
53.971 20.1288 3.97948
53.582 22.7064 3.96866
41.3985 7.07583 3.9878
45.3596 7.99225 3.98691
42.8653 9.41196 3.98598
46.6663 10.6492 3.98489
47.7454 13.0961 3.98331
48.9316 15.3931 3.982
50.007 17.6917 3.97976
51.6518 19.3137 3.98782
50.3469 63.3875 0.0144113
51.2449 60.9439 0.017194
56.7149 44.1899 0.024104
55.4944 47.9027 0.0252354
52.3139 58.6433 0.0205814
54.2216 57.2744 0.0206475
55.0683 51.39 0.0290184
54.0058 54.5468 0.0277913
49.5921 61.7531 2
55.618 41.7117 2
50.5676 59.3385 2
52.187 56.4994 2
54.1787 45.5703 2
53.3345 49.3304 2
52.6683 52.8483 2
48.8496 60.2108 3.98278
52.5148 42.6485 3.97659
49.7904 57.6359 3.97831
50.5932 54.4329 3.97374
51.7944 47.2742 3.97623
51.2094 50.9437 3.96942
48.1374 43.8128 3.99231
47.9626 62.4827 0.015142
47.3295 61.0185 2
46.6193 59.8051 3.98328
41.664 67.6927 0.0124549
43.3572 65.5142 0.0134255
44.7677 63.463 0.01407
45.9879 61.5953 0.0154184
39.6327 67.7731 2
41.5463 65.6524 2
45.7665 60.6408 2
43.1466 63.736 2
44.4836 61.846 2
44.6241 60.303 3.98391
42.9509 62.0942 3.98513
41.6003 63.8291 3.98574
39.6478 65.6201 3.98601
37.5632 67.7549 3.98731
31.6964 65.1387 3.98623
33.3916 67.4924 3.98727
35.3331 69.9628 3.98973
37.526 70.0533 2
37.5095 72.4597 3.9936
39.7026 70.0276 0.0101142
39.818 72.4055 2
39.9526 74.9197 4
42.1111 72.2081 0.00617985
42.3947 74.6792 2
44.8159 74.2794 0
41.7361 4.96678 3.99003
43.8516 5.35709 2
44.3257 3.10945 3.99372
46.5707 3.64593 2
47.2057 1.27793 4
48.7845 4.32164 0.00663357
49.554 1.99013 2
51.8506 2.85458 0
58.9921 42.9234 0.0263727
60.2381 39.85 0.0269519
61.982 37.4456 0.0284876
59.7405 37.5681 2
57.9804 40.661 2
55.0855 39.7254 2
56.8024 37.8981 3.97583
49.5518 41.3431 3.98762
53.1167 39.3094 3.97759
39.4419 6.79941 3.98788
59.8813 35.1198 0.0277078
57.9974 32.2687 0.0256596
56.5464 29.337 0.0256032
55.3444 19.1805 0.0197759
55.0038 21.5553 0.027298
54.931 24.0541 0.030826
55.4453 26.5947 0.0245246
53.1261 18.6498 0.0212501
51.3032 18.0381 0.0146453
50.6341 16.1222 0.0194124
45.9623 5.88039 0.0103122
49.7143 13.7356 0.0168546
47.355 8.62089 0.01333
48.6001 11.2885 0.0154263
43.3734 7.47042 0.0125012
57.3806 34.7606 2
41.3986 7.0753 2
45.3596 7.99179 2
42.8652 9.41151 2
55.7252 31.5177 2
54.491 28.4014 2
53.9715 20.1274 2
53.5823 22.703 2
53.7701 25.4947 2
46.6662 10.6487 2
47.7452 13.0956 2
51.652 19.3133 2
50.0069 17.6908 2
48.9313 15.3923 2
54.8716 33.971 3.9763
53.4796 30.4832 3.9754
52.58 27.1947 3.97547
52.1436 24.0918 3.97284
52.3915 21.0498 3.98108
41.0132 9.04527 3.98586
44.7234 9.99229 3.98514
42.4681 10.8982 3.98434
46.005 12.7243 3.98314
47.6817 14.5781 3.98288
48.1144 16.9819 3.97933
49.8184 19.5975 3.97622
49.5924 61.7526 0.0157874
50.5678 59.3375 0.0202903
55.6192 41.7117 0.023997
54.1754 45.5706 0.0232674
53.3334 49.3315 0.0256719
52.1867 56.4983 0.0241599
52.6672 52.8483 0.0309006
48.8493 60.2113 2
52.515 42.6473 2
49.7904 57.637 2
50.5937 54.4346 2
51.7935 47.2726 2
51.2109 50.9423 2
48.138 43.8196 2
47.9878 58.7528 3.98151
50.0725 45.2845 3.97557
48.5982 55.9267 3.97897
49.1262 52.5984 3.97322
49.6579 49.0503 3.97289
45.9568 39.8828 3.89975
46.3818 42.6983 3.9459
46.4727 45.8667 3.99572
43.8098 41.1823 3.89137
42.013 42.0299 3.84346
47.3298 61.0181 0.0158847
46.6189 59.8056 2
45.4692 58.8023 3.98379
39.6328 67.7725 0.0126652
41.5465 65.6519 0.0136269
43.1469 63.7356 0.0142006
44.4838 61.8453 0.0154274
45.7667 60.6401 0.016319
41.6 63.8295 2
37.5632 67.7555 2
39.6477 65.6206 2
44.6238 60.3036 2
42.9507 62.0946 2
41.7539 62.5049 3.98529
42.4819 59.9964 3.98544
39.8937 63.5643 3.98535
37.6422 65.5191 3.98554
35.4631 67.6642 3.98725
33.5749 65.3521 3.98584
31.9588 63.3124 3.98539
29.8824 64.7297 3.9864
31.6965 65.1393 2
31.376 67.2021 3.98739
33.3917 67.493 2
33.1557 69.7561 3.98975
35.3331 69.9634 2
35.1948 72.3741 3.99358
37.5259 70.0527 0.010241
37.5095 72.4601 2
37.5 75 4
39.8179 72.4052 0.00627663
39.9526 74.9197 2
42.3947 74.6792 0
39.6236 4.71394 3.9901
41.7362 4.96629 2
42.062 2.71712 3.99379
43.8516 5.35751 0.0101437
44.3259 3.1092 2
44.8158 0.721173 4
46.5705 3.64616 0.00638085
47.2057 1.27779 2
49.554 1.99015 0
57.9813 40.6611 0.0263455
59.7401 37.5681 0.0276064
55.0864 39.7255 0.0246864
49.5624 41.3461 2
56.8028 37.8981 2
53.1159 39.3085 2
53.9682 36.6293 3.97728
47.4795 40.4299 3.94871
50.4968 38.5124 3.98398
37.5156 6.67042 3.98786
39.4419 6.7989 2
39.2107 8.68789 3.9861
35.941 8.48748 3.98632
57.3812 34.7606 0.0249053
55.7279 31.5174 0.0243999
54.489 28.4007 0.0234483
53.971 20.1288 0.020523
53.582 22.7064 0.0313431
53.7706 25.4942 0.0252472
51.6518 19.3137 0.0121792
50.007 17.6917 0.0202371
48.9316 15.3931 0.0179981
45.3596 7.99225 0.0130882
47.7454 13.0961 0.0166856
46.6663 10.6492 0.0151086
41.3985 7.07583 0.0121998
42.8653 9.41196 0.014021
54.8731 33.971 2
41.0132 9.04477 2
44.7233 9.99189 2
42.4678 10.8978 2
53.4766 30.4831 2
52.5825 27.1954 2
52.3922 21.0491 2
52.1442 24.0925 2
46.0047 12.7236 2
47.6814 14.5774 2
49.8186 19.5964 2
48.1142 16.9808 2
52.4258 32.8735 3.9787
51.3047 29.1537 3.97476
50.7865 25.7209 3.97133
49.9409 22.1797 3.97821
40.5689 11.602 3.98383
43.8577 11.9137 3.98424
45.803 15.4144 3.98198
47.5047 19.216 3.97762
46.2918 37.501 3.90626
48.8496 60.2108 0.0172238
49.7904 57.6359 0.0216887
52.5148 42.6485 0.0234081
51.7944 47.2742 0.0237662
51.2094 50.9437 0.0305759
50.5932 54.4329 0.0262565
48.1374 43.8128 0.00768839
47.9875 58.7534 2
50.0762 45.286 2
48.5984 55.9279 2
49.127 52.6009 2
49.6592 49.0493 2
45.9744 39.8909 2
46.3957 42.708 2
46.4726 45.8592 2
43.8259 41.1937 2
42.0185 42.0354 2
46.8394 57.3563 3.98386
44.5561 39.4678 3.88161
42.37 40.8943 3.86432
48.0657 47.2513 3.97707
47.1662 54.2586 3.97904
47.5805 50.7548 3.97398
44.7856 47.4451 3.99752
45.0511 41.9791 3.90476
44.9049 44.6037 3.95117
42.6428 42.7099 3.89117
40.8979 42.3786 3.87274
46.6193 59.8051 0.0167187
45.4686 58.803 2
43.8772 57.7289 3.98466
37.5632 67.7549 0.0126886
39.6478 65.6201 0.0139865
41.6003 63.8291 0.0142588
42.9509 62.0942 0.0148681
44.6241 60.303 0.0160906
35.4631 67.6648 2
41.7537 62.5053 2
39.8935 63.5647 2
37.6422 65.5197 2
42.4817 59.9969 2
40.6234 61.664 3.98472
40.446 58.2314 3.98606
37.8369 63.2255 3.98489
35.5727 65.4412 3.98563
33.5749 65.3526 2
31.9588 63.3129 2
33.6285 63.3523 3.98501
30.3776 62.8709 3.98562
32.1224 62.0199 3.98536
26.8673 61.5143 3.98484
28.0612 64.1576 3.98626
29.8826 64.7302 2
29.4053 66.7658 3.98749
31.6964 65.1387 0.013774
31.3761 67.2027 2
31.0128 69.4211 3.98979
33.3916 67.4924 0.0127338
33.1557 69.7567 2
32.8918 72.1483 3.99361
35.3331 69.9628 0.0102748
35.1948 72.3745 2
35.0474 74.9194 4
37.5095 72.4597 0.00639939
37.5 75 2
39.9526 74.9197 0
35.6201 6.72133 3.98793
37.5226 4.6134 3.99024
39.6236 4.71348 2
39.7885 2.47356 3.99389
41.7361 4.96678 0.00997158
42.0622 2.71683 2
42.3946 0.32156 4
44.3257 3.10945 0.0062847
44.8159 0.72056 2
47.2057 1.27793 0
49.5518 41.3431 0.0123772
56.8024 37.8981 0.0241684
53.1167 39.3094 0.02241
47.4901 40.4371 2
50.5041 38.5128 2
53.9695 36.6296 2
51.2955 35.5833 3.97368
48.1371 37.7637 3.96747
45.9629 35.1413 3.90465
43.8151 33.832 3.88771
42.0167 32.9875 3.84156
37.4573 8.52964 3.98599
37.5157 6.66983 2
39.4419 6.79941 0.0121242
39.2107 8.68736 2
38.9758 10.1204 3.98565
35.8976 9.76711 3.98507
34.1494 8.8168 3.98622
35.941 8.48685 2
54.8716 33.971 0.0236977
53.4796 30.4832 0.0246011
52.58 27.1947 0.0245311
52.3915 21.0498 0.0189203
52.1436 24.0918 0.0271631
49.8184 19.5975 0.0237774
48.1144 16.9819 0.0206737
47.6817 14.5781 0.0171198
44.7234 9.99229 0.0148578
46.005 12.7243 0.0168567
41.0132 9.04527 0.0141448
42.4681 10.8982 0.015659
52.4258 32.8732 2
40.5685 11.6016 2
43.8574 11.9133 2
51.3152 29.1539 2
50.7871 25.7225 2
49.9417 22.1785 2
45.8025 15.4136 2
47.5049 19.2149 2
49.9601 31.41 3.96946
49.276 27.4697 3.97646
49.4035 24.3928 3.97828
47.1879 21.9333 3.97554
38.3011 12.7265 3.98434
42.1012 14.2972 3.98325
44.8014 18.45 3.9814
44.8407 37.5133 3.88035
46.314 37.5076 2
47.9878 58.7528 0.0184857
48.5982 55.9267 0.0210251
50.0725 45.2845 0.024426
49.6579 49.0503 0.0271132
49.1262 52.5984 0.0267805
45.9568 39.8828 0.100252
46.3818 42.6983 0.0540989
46.4727 45.8667 0.00428285
43.8098 41.1823 0.108634
42.013 42.0299 0.156543
46.8391 57.3573 2
44.5688 39.4745 2
42.3679 40.8944 2
48.0676 47.2519 2
47.1666 54.2614 2
47.5819 50.7567 2
44.7894 47.4214 2
45.0639 41.9886 2
44.919 44.6168 2
42.6649 42.7265 2
40.8979 42.3779 2
45.3989 55.9446 3.98569
42.7051 39.2782 3.87786
40.8293 40.8202 3.92322
46.0809 48.928 3.98433
45.5397 52.5513 3.98059
43.4434 48.4768 4.01327
43.35 46.1705 3.95732
43.6505 43.7987 3.90285
41.1501 43.8877 3.88807
39.3019 42.7343 3.88882
45.4692 58.8023 0.0162101
43.8768 57.7291 2
42.1076 56.3578 3.98775
35.4631 67.6642 0.012746
37.6422 65.5191 0.0144612
39.8937 63.5643 0.0146534
41.7539 62.5049 0.0147145
42.4819 59.9964 0.0145618
35.5727 65.4418 2
40.6232 61.6644 2
37.8367 63.2258 2
40.4459 58.232 2
38.9263 56.5298 3.99081
38.2505 60.3485 3.98526
35.6067 63.219 3.98469
33.5749 65.3521 0.0141618
31.9588 63.3124 0.0146086
33.6285 63.3527 2
30.3777 62.8714 2
32.1224 62.0203 2
28.68 62.2161 3.98543
33.3453 61.5331 3.98521
31.0655 61.2374 3.98552
27.5663 59.613 3.9832
23.7891 59.0974 3.98195
25.0328 60.8864 3.98359
26.8674 61.5147 2
26.2277 63.4899 3.98601
28.0614 64.1582 2
27.4617 66.1896 3.98759
29.8824 64.7297 0.0135986
29.4054 66.7663 2
28.9049 68.9466 3.98986
31.376 67.2021 0.0126119
31.0127 69.4216 2
30.6141 71.7794 3.99366
33.1557 69.7561 0.0102471
32.8917 72.1487 2
32.6054 74.6784 4
35.1948 72.3741 0.00641821
35.0474 74.9197 2
37.5 75 0
33.7226 6.97579 3.98758
35.4339 4.68377 3.99019
35.6201 6.72075 2
37.5139 2.38619 3.99397
37.5227 4.61292 2
39.6236 4.71394 0.00989652
39.7885 2.47327 2
39.9526 0.0806499 4
42.062 2.71712 0.00621002
42.3947 0.320817 2
44.8158 0.721173 0
44.5722 35.549 3.87872
42.3778 34.1173 3.86226
47.4795 40.4299 0.0512882
50.4968 38.5124 0.0160191
53.9682 36.6293 0.0227203
48.1448 37.7667 2
51.3006 35.5826 2
45.9746 35.1291 2
43.8337 33.8192 2
42.0228 32.9829 2
48.3167 34.289 3.98706
45.0522 33.0398 3.90101
42.6472 32.3094 3.89082
40.9005 32.6399 3.87159
37.3097 10.6238 3.98477
37.4574 8.52892 2
37.5156 6.67042 0.012135
39.2107 8.68789 0.013899
38.9757 10.1199 2
34.7527 10.3725 3.98496
35.8976 9.76643 2
32.376 9.36315 3.98576
34.1494 8.81606 2
35.941 8.48748 0.013679
52.4258 32.8735 0.0213008
51.3047 29.1537 0.0252421
50.7865 25.7209 0.0286655
49.9409 22.1797 0.0217857
47.5047 19.216 0.0223793
45.803 15.4144 0.0180225
43.8577 11.9137 0.0157576
40.5689 11.602 0.0161724
49.9624 31.4072 2
38.3007 12.7262 2
42.1007 14.2967 2
49.2761 27.4715 2
49.4041 24.392 2
47.1888 21.9345 2
44.8015 18.4494 2
47.7779 29.5555 3.98572
47.1024 25.1256 3.98168
44.2911 21.2995 3.97988
36.5806 12.9227 3.98383
38.6806 14.7946 3.98359
41.75 17.8244 3.98141
42.8564 37.4961 3.8768
44.8651 37.5088 2
46.2918 37.501 0.0937375
46.8394 57.3563 0.0161354
47.1662 54.2586 0.0209613
48.0657 47.2513 0.0229278
47.5805 50.7548 0.0260151
44.5561 39.4678 0.118388
45.0511 41.9791 0.0952396
44.9049 44.6037 0.0488316
44.7856 47.4451 0.00247595
42.6428 42.7099 0.108826
42.37 40.8943 0.135678
40.8979 42.3786 0.127261
45.3986 55.9456 2
42.7077 39.2774 2
40.8267 40.817 2
46.0821 48.929 2
45.541 52.5549 2
43.4458 48.4948 2
43.3742 46.1879 2
43.6667 43.8101 2
41.1671 43.897 2
39.3006 42.7288 2
43.7372 54.4616 3.99364
40.9414 39.1829 3.94991
39.2021 40.9125 3.95199
43.6969 50.5289 3.99544
41.9549 47.7103 3.98254
41.8659 45.211 3.90337
39.4012 44.6226 3.90032
37.491 42.8655 3.89562
43.8772 57.7289 0.0153417
42.1073 56.3577 2
40.4199 54.9695 3.98935
35.5727 65.4412 0.0143651
37.8369 63.2255 0.0151072
40.6234 61.664 0.0152774
40.446 58.2314 0.0139426
35.6067 63.2194 2
38.2502 60.3488 2
38.9259 56.5316 2
38.0002 55.2892 3.98848
36.9348 57.6557 3.98686
35.3632 60.9326 3.9851
33.6285 63.3523 0.0149915
30.3776 62.8709 0.0143794
32.1224 62.0199 0.0146383
33.3452 61.5335 2
28.6801 62.2166 2
31.0655 61.2378 2
29.4016 60.307 3.98474
32.3551 59.7666 3.98562
28.019 58.3927 3.98402
27.5664 59.6133 2
25.376 58.6107 3.98049
22.7524 58.2546 3.9771
23.3984 60.3648 3.98146
23.7891 59.0982 2
25.0329 60.887 2
24.4302 62.7819 3.98537
26.8673 61.5143 0.0151602
26.2279 63.4903 2
25.5457 65.4995 3.98764
28.0612 64.1576 0.0137407
27.4619 66.1901 2
26.8344 68.3349 3.98991
29.4053 66.7658 0.0125132
28.9049 68.947 2
28.3692 71.2646 3.99373
31.0128 69.4211 0.0102133
30.614 71.7797 2
30.1842 74.2788 4
32.8918 72.1483 0.00639302
32.6053 74.6792 2
35.0474 74.9194 0
31.7869 7.41548 3.98737
33.3458 4.92288 3.99011
33.7226 6.97516 2
35.2441 2.46235 3.99394
35.434 4.68326 2
35.6201 6.72133 0.0120749
37.5 0 4
37.514 2.38588 2
37.5226 4.6134 0.00976463
39.7885 2.47356 0.00611284
39.9526 0.0802889 2
42.3946 0.32156 0
42.721 35.7221 3.87647
44.586 35.5427 2
40.8373 34.1913 3.92154
42.3767 34.1181 2
48.1371 37.7637 0.0325321
51.2955 35.5833 0.0263161
45.9629 35.1413 0.0953498
43.8151 33.832 0.112286
42.0167 32.9875 0.158444
48.3241 34.2808 2
45.0656 33.0288 2
42.6663 32.296 2
40.899 32.6398 2
46.299 31.559 3.96858
43.6508 31.2269 3.90175
41.1611 31.135 3.88841
39.3045 32.2755 3.88825
35.6908 11.7677 3.98389
37.3097 10.6232 2
37.4573 8.52964 0.0140072
38.9758 10.1204 0.0143455
33.0964 11.2087 3.98386
34.7527 10.3717 2
35.8976 9.76711 0.0149281
30.4806 10.011 3.98521
32.3759 9.36241 2
34.1494 8.8168 0.0137772
49.9601 31.41 0.0305413
49.276 27.4697 0.0235448
49.4035 24.3928 0.0217204
47.1879 21.9333 0.0244621
44.8014 18.45 0.0186006
42.1012 14.2972 0.0167462
38.3011 12.7265 0.0156566
36.5803 12.9221 2
47.7784 29.5522 2
38.6799 14.7945 2
41.7496 17.8234 2
47.1034 25.127 2
44.292 21.2986 2
45.5512 27.6487 3.99956
43.8037 24.0222 3.99767
41.3419 20.6997 3.98141
35.7704 14.7467 3.9835
38.6807 17.579 3.98239
40.9888 37.4881 3.96104
42.8636 37.498 2
44.8407 37.5133 0.119645
45.3989 55.9446 0.0143126
45.5397 52.5513 0.0194132
46.0809 48.928 0.0156718
42.7051 39.2782 0.122143
43.6505 43.7987 0.097154
43.35 46.1705 0.0426781
43.4434 48.4768 -0.0132715
41.1501 43.8877 0.111927
40.8293 40.8202 0.0767819
39.3019 42.7343 0.111181
43.7374 54.4618 2
40.9395 39.1806 2
39.1994 40.9059 2
43.6988 50.5388 2
41.9589 47.7245 2
41.8888 45.2236 2
37.4924 42.8601 2
39.4203 44.6269 2
41.8825 53.0389 3.99608
39.2116 39.1829 3.9778
37.4923 40.9624 3.96275
35.6867 42.7331 3.8893
40.9322 49.7638 4.00425
39.8006 46.1124 3.88899
37.4914 44.8703 3.89958
42.1076 56.3578 0.0122485
40.4193 54.9701 2
38.7302 53.9032 3.99209
35.6067 63.219 0.0153097
38.2505 60.3485 0.014741
38.9263 56.5298 0.0091853
35.3631 60.9328 2
36.9344 57.6558 2
37.9995 55.2899 2
36.3188 55.4216 3.99245
34.4868 58.5464 3.98601
33.3453 61.5331 0.0147899
28.68 62.2161 0.014566
31.0655 61.2374 0.0144785
32.3552 59.7669 2
29.4016 60.3073 2
30.2945 57.8403 3.98684
28.019 58.3932 2
26.9395 56.8412 3.98037
27.5663 59.613 0.0168002
25.376 58.6113 2
23.8332 56.8186 3.9755
21.3283 57.4126 3.97693
21.9905 59.6359 3.98096
22.7523 58.2556 2
22.734 62.0326 3.98391
23.3985 60.3656 2
23.7891 59.0974 0.0180477
25.0328 60.8864 0.0164084
24.4304 62.7825 2
23.6796 64.7176 3.98721
26.2277 63.4899 0.0139863
25.5459 65.5 2
24.8066 67.5959 3.98987
27.4617 66.1896 0.0124091
26.8344 68.3354 2
26.1644 70.6053 3.99378
28.9049 68.9466 0.010142
28.3689 71.2648 2
27.7943 73.7221 4
30.6141 71.7794 0.00633565
30.1841 74.2794 2
32.6054 74.6784 0
29.8093 7.98858 3.98691
31.2508 5.33004 3.98983
31.7868 7.41477 2
32.9798 2.70047 3.99387
33.3458 4.92232 2
33.7226 6.97579 0.0124177
35.0474 0.080333 4
35.2441 2.46203 2
35.4339 4.68377 0.00980888
37.5 0 2
37.5139 2.38619 0.00602853
39.9526 0.0806499 0
40.949 35.8049 3.95087
42.7225 35.7246 2
44.5722 35.549 0.121281
28.5412 10.6859 3.98532
39.2061 34.0983 3.95207
40.8347 34.1947 2
42.3778 34.1173 0.137737
48.3167 34.289 0.0129443
45.0522 33.0398 0.0989947
42.6472 32.3094 0.10918
40.9005 32.6399 0.12841
46.3127 31.5523 2
43.6609 31.2153 2
41.1782 31.1219 2
39.3029 32.2798 2
44.3981 29.7398 3.95393
41.8805 29.8114 3.90641
39.4146 30.3848 3.90076
37.4933 32.1409 3.89603
34.0905 12.9252 3.98334
35.6907 11.7669 2
37.3097 10.6238 0.0152255
31.1842 11.9766 3.98439
33.0964 11.2079 2
34.7527 10.3725 0.0150433
30.4805 10.0101 2
32.376 9.36315 0.0142427
47.7779 29.5555 0.0142798
47.1024 25.1256 0.0183233
36.5806 12.9227 0.0161742
44.2911 21.2995 0.0201162
41.75 17.8244 0.0185923
38.6806 14.7946 0.0164147
35.7698 14.7462 2
45.551 27.6461 2
38.6801 17.5786 2
41.3422 20.6973 2
43.8054 24.0258 2
33.6054 15.8625 3.98324
43.0627 26.4762 4.00113
40.9187 23.2671 3.99325
38.4215 20.3053 3.98372
35.8467 17.4923 3.98435
39.2224 37.4869 3.98526
40.9852 37.4879 2
42.8564 37.4961 0.123197
43.7372 54.4616 0.00636437
43.6969 50.5289 0.00456347
40.9414 39.1829 0.050091
41.8659 45.211 0.096631
41.9549 47.7103 0.0174605
39.4012 44.6226 0.0996781
39.2021 40.9125 0.0480147
37.491 42.8655 0.104383
41.8833 53.0403 2
39.2103 39.1819 2
37.4922 40.9576 2
40.9351 49.7686 2
35.6875 42.7296 2
39.8233 46.1288 2
37.4902 44.8673 2
39.8255 51.9577 3.99744
37.4905 39.1936 3.98286
35.7834 40.9194 3.95133
34.0884 42.3733 3.87259
35.5649 44.6246 3.89777
38.7225 48.7681 3.99354
37.4878 46.4406 3.88969
40.4199 54.9695 0.0106508
38.7294 53.9031 2
36.7206 53.2628 4.0053
35.3632 60.9326 0.0149011
36.9348 57.6557 0.0131352
38.0002 55.2892 0.0115178
34.4866 58.5464 2
36.3182 55.4212 2
33.2226 55.5341 3.98823
32.3551 59.7666 0.0143756
29.4016 60.307 0.0152621
30.2946 57.8407 2
28.6826 55.3329 3.97993
28.019 58.3927 0.0159766
26.9392 56.8417 2
25.3018 55.1571 3.97631
21.8001 55.3588 3.97278
25.376 58.6107 0.0195076
23.8329 56.8195 2
20.2124 57.0415 3.97927
20.6411 58.7929 3.97963
21.328 57.4137 2
21.1641 61.1814 3.9828
21.9905 59.6368 2
22.7524 58.2546 0.0229001
21.893 63.8453 3.98644
22.7341 62.0334 2
23.3984 60.3648 0.0185363
24.4302 62.7819 0.0146296
23.6798 64.7182 2
22.8348 66.7394 3.98977
25.5457 65.4995 0.0123642
24.8066 67.5963 2
24.0086 69.8064 3.99373
26.8344 68.3349 0.010091
26.1641 70.6055 2
25.446 73.0099 4
28.3692 71.2646 0.00627254
27.7943 73.7222 2
30.1842 74.2788 0
27.8191 8.64802 3.9867
29.1527 5.87573 3.98953
29.8092 7.9878 2
30.725 3.09764 3.99368
31.2508 5.32943 2
31.7869 7.41548 0.0126338
32.6053 0.320823 4
32.9797 2.70014 2
33.3458 4.92288 0.00988714
35.0474 0.0802903 2
35.2441 2.46235 0.00605551
37.5 0 0
39.2224 35.8033 3.97804
40.947 35.8074 2
42.721 35.7221 0.123531
28.5413 10.6852 2
26.6201 11.3807 3.98519
29.223 12.6325 3.98475
37.494 34.045 3.96317
39.2037 34.1037 2
40.8373 34.1913 0.0784582
46.299 31.559 0.0314198
43.6508 31.2269 0.0982462
41.1611 31.135 0.111591
39.3045 32.2755 0.111754
44.4156 29.7273 2
41.9027 29.796 2
39.4303 30.3793 2
37.4937 32.1464 2
42.3541 28.3767 3.94053
39.8432 28.8972 3.9017
37.5019 30.1271 3.89915
35.6856 32.2653 3.88774
31.9117 14.4692 3.98391
34.0904 12.9244 2
35.6908 11.7677 0.0161143
31.1842 11.9757 2
33.0964 11.2087 0.0161367
30.4806 10.011 0.0147896
45.5512 27.6487 0.000438762
43.8037 24.0222 0.00233361
35.7704 14.7467 0.0164959
41.3419 20.6997 0.0185933
38.6807 17.579 0.0176056
33.605 15.8622 2
35.8459 17.4921 2
43.0642 26.4754 2
38.4208 20.3047 2
40.9194 23.2619 2
33.5476 17.3698 3.98495
40.4377 25.6077 4.01092
38.0767 22.8308 3.99325
35.5823 20.0558 3.98649
37.495 37.4946 3.98128
39.22 37.4865 2
40.9888 37.4881 0.0389632
41.8825 53.0389 0.00392122
40.9322 49.7638 -0.00425224
39.2116 39.1829 0.0221969
39.8006 46.1124 0.111012
37.4914 44.8703 0.100424
37.4923 40.9624 0.0372526
35.6867 42.7331 0.110703
39.8278 51.9602 2
37.4912 39.1939 2
35.7861 40.9143 2
38.7216 48.7967 2
34.0896 42.3723 2
35.5541 44.6347 2
37.486 46.4611 2
37.6661 51.06 4.00977
35.7745 39.1966 3.9782
34.1604 40.8241 3.92306
32.9701 42.0239 3.84252
33.8184 43.8788 3.88642
35.1578 46.106 3.89815
36.8536 48.4197 3.97959
38.7302 53.9032 0.0079098
36.7206 53.2619 2
34.3591 52.5142 3.99034
34.4868 58.5464 0.0139948
36.3188 55.4216 0.00754881
33.2225 55.5336 2
30.5109 53.421 3.98297
30.2945 57.8403 0.0131569
28.6824 55.3338 2
26.8704 53.4471 3.97506
26.9395 56.8412 0.0196345
25.3016 55.1585 2
23.5613 53.4928 3.97137
20.4556 53.2326 3.96819
19.9241 55.8434 3.97623
21.7997 55.3599 2
23.8332 56.8186 0.0245017
19.4333 57.9031 3.97852
20.2121 57.0421 2
19.7034 60.2144 3.98148
20.6409 58.7939 2
21.3283 57.4126 0.0230675
20.2054 62.8661 3.98493
21.1641 61.1824 2
21.9905 59.6359 0.0190438
20.9363 65.7684 3.98948
21.8932 63.846 2
22.734 62.0326 0.0160907
23.6796 64.7176 0.0127926
22.8349 66.7399 2
21.911 68.8735 3.99363
24.8066 67.5959 0.0101253
24.0083 69.8065 2
23.1494 72.1454 4
26.1644 70.6053 0.00621575
25.446 73.0099 2
27.7943 73.7221 0
25.8581 9.37582 3.98652
27.0674 6.53972 3.98921
27.819 8.64723 2
28.4871 3.64356 3.99352
29.1526 5.87508 2
29.8093 7.98858 0.0130874
30.1841 0.720592 4
30.7248 3.09732 2
31.2508 5.33004 0.0101676
32.6053 0.320817 2
32.9798 2.70047 0.0061293
35.0474 0.080333 0
37.4978 35.8015 3.98351
39.2195 35.8036 2
40.949 35.8049 0.0491315
24.7749 12.0634 3.98534
23.7491 14.3472 3.98436
28.5412 10.6859 0.0146847
26.6202 11.3801 2
29.223 12.6317 2
27.2891 13.365 3.98458
29.7776 14.1911 3.98385
35.7877 34.0844 3.95186
37.4941 34.0494 2
39.2061 34.0983 0.047928
37.4933 32.1409 0.103973
44.3981 29.7398 0.046069
41.8805 29.8114 0.0935866
39.4146 30.3848 0.0992413
42.3726 28.3627 2
39.8597 28.8784 2
37.5041 30.1282 2
35.6878 32.2697 2
40.0421 27.5196 3.94165
37.5152 28.5594 3.89851
35.5783 30.3773 3.90112
34.0932 32.6206 3.87119
30.9231 16.824 3.98412
31.9116 14.4685 2
34.0905 12.9252 0.0166569
31.1842 11.9766 0.0156124
43.0627 26.4762 -0.00113167
40.9187 23.2671 0.00674753
33.6054 15.8625 0.0167622
35.8467 17.4923 0.0156543
38.4215 20.3053 0.0162769
33.5469 17.3699 2
35.5817 20.055 2
40.4373 25.6042 2
38.0773 22.8308 2
32.8603 19.7733 3.98594
37.7989 25.1391 4.0214
35.2009 22.6084 3.99082
35.7706 37.4987 3.98535
37.4952 37.4939 2
39.2224 37.4869 0.0147353
39.8255 51.9577 0.0025614
38.7225 48.7681 0.00646433
37.4905 39.1936 0.0171384
37.4878 46.4406 0.110313
35.5649 44.6246 0.102226
35.7834 40.9194 0.0486699
34.0884 42.3733 0.127409
37.6687 51.0693 2
35.7777 39.1953 2
34.1629 40.8205 2
36.8536 48.4346 2
32.9642 42.0272 2
33.8068 43.8883 2
35.1373 46.1202 2
35.4517 50.1931 4.0137
34.0528 39.1928 3.95054
32.609 40.8924 3.86358
32.3339 42.7008 3.8909
33.1216 45.1978 3.90492
34.2654 47.4805 3.95119
36.7206 53.2628 -0.00529807
34.3593 52.5151 2
31.9886 51.2287 3.9943
33.2226 55.5341 0.011766
30.5107 53.4226 2
28.4145 51.6257 3.97877
28.6826 55.3329 0.020069
26.8702 53.4479 2
25.0632 51.7652 3.96907
25.3018 55.1571 0.023695
23.5609 53.4929 2
21.95 51.8148 3.96804
19.188 51.6424 3.96878
18.9117 54.318 3.97098
20.4553 53.2323 2
18.4406 56.7343 3.97857
19.9236 55.8439 2
21.8001 55.3588 0.0272183
18.3652 59.1204 3.9789
19.4331 57.904 2
20.2124 57.0415 0.0207296
18.6164 61.7729 3.98334
19.7034 60.2154 2
20.6411 58.7929 0.0203706
19.1252 64.679 3.98859
20.2056 62.867 2
21.1641 61.1814 0.0172038
19.885 67.81 3.99343
20.9364 65.769 2
21.893 63.8453 0.0135597
22.8348 66.7394 0.01023
21.9107 68.8736 2
20.9142 71.1327 4
24.0086 69.8064 0.00626639
23.1494 72.1455 2
25.446 73.0099 0
23.0942 12.7779 3.9849
23.9706 10.1622 3.98646
25.0212 7.30972 3.98908
25.8581 9.37516 2
26.2788 4.32774 3.99336
27.0672 6.53904 2
27.8191 8.64802 0.0132994
27.7943 1.27781 4
28.4869 3.64326 2
29.1527 5.87573 0.0104736
30.1841 0.720551 2
30.725 3.09764 0.0063159
32.6053 0.320823 0
35.776 35.8033 3.97873
37.4974 35.8002 2
39.2224 35.8033 0.0219619
24.7751 12.0629 2
23.7494 14.347 2
22.4777 15.0236 3.98388
25.3553 13.8967 3.98418
24.0221 15.609 3.98334
26.6201 11.3807 0.0148124
29.223 12.6325 0.0152456
27.2893 13.3647 2
29.7776 14.1902 2
28.3534 15.9646 3.98421
34.1698 34.1773 3.92159
35.7901 34.0898 2
37.494 34.045 0.0368282
35.6856 32.2653 0.112258
37.5019 30.1271 0.100852
42.3541 28.3767 0.0594697
39.8432 28.8972 0.0983043
40.0534 27.5063 2
37.5175 28.5399 2
35.5642 30.3707 2
34.0958 32.6204 2
37.6202 27.1919 3.94826
35.1713 28.8776 3.89969
33.8236 31.1187 3.88791
32.9818 32.9709 3.84268
30.2044 19.3251 3.98632
30.9228 16.8237 2
31.9117 14.4692 0.0160919
40.4377 25.6077 -0.0109188
38.0767 22.8308 0.00675161
33.5476 17.3698 0.0150507
35.5823 20.0558 0.0135078
32.8591 19.7737 2
35.1992 22.6044 2
37.7909 25.1407 2
32.3068 22.3838 3.98876
34.9674 25.1326 4.012
34.0067 37.4985 3.95948
35.7737 37.4981 2
37.495 37.4946 0.018724
37.6661 51.06 -0.00977186
36.8536 48.4197 0.0204083
35.7745 39.1966 0.0217997
35.1578 46.106 0.101852
33.8184 43.8788 0.113579
34.1604 40.8241 0.0769396
32.9701 42.0239 0.157477
35.4501 50.2013 2
34.0573 39.1904 2
32.6094 40.8905 2
34.2594 47.5121 2
32.3163 42.7115 2
33.1005 45.2167 2
33.2233 49.1861 4.00644
32.2701 39.282 3.87781
31.1656 41.1755 3.88852
31.3358 43.7883 3.90128
32.2298 46.4027 3.95042
34.3591 52.5142 0.00966324
31.9881 51.2329 2
29.8353 49.7392 3.98651
30.5109 53.421 0.0170297
28.4139 51.6232 2
26.4869 50.006 3.97104
26.8704 53.4471 0.0249368
25.0629 51.7641 2
23.3226 50.2094 3.97364
23.5613 53.4928 0.0286335
21.95 51.8142 2
20.4503 50.3251 3.96958
17.976 50.337 3.97244
17.8235 52.7989 3.96949
19.188 51.6425 2
17.429 55.3494 3.97462
18.9113 54.3184 2
20.4556 53.2326 0.0318084
17.1302 57.8821 3.97938
18.4403 56.7351 2
19.9241 55.8434 0.0237658
17.1338 60.5555 3.98118
18.3651 59.1213 2
19.4333 57.9031 0.021483
17.4058 63.4712 3.98692
18.6165 61.7739 2
19.7034 60.2144 0.0185223
17.9411 66.6184 3.99313
19.1253 64.6798 2
20.2054 62.8661 0.0150671
18.75 69.9759 4
19.8847 67.8101 2
20.9363 65.7684 0.0105164
21.911 68.8735 0.00636956
20.9142 71.1327 2
23.1494 72.1454 0
21.585 13.5979 3.98442
22.1887 11.0213 3.98612
23.0946 12.7778 2
23.0391 8.17503 3.98895
23.9707 10.1619 2
24.1164 5.14242 3.99323
25.021 7.3092 2
25.8581 9.37582 0.0134834
25.446 1.99014 4
26.2785 4.32751 2
27.0674 6.53972 0.0107871
27.7943 1.27778 2
28.4871 3.64356 0.00647976
30.1841 0.720592 0
34.0505 35.8053 3.94867
35.7781 35.8035 2
37.4978 35.8015 0.0164925
21.3027 15.8193 3.98299
24.7749 12.0634 0.0146624
23.7491 14.3472 0.015639
25.3555 13.8964 2
22.4782 15.0237 2
24.0226 15.6089 2
23.2612 16.2403 3.983
25.3773 16.0769 3.98409
27.2891 13.365 0.0154197
29.7776 14.1911 0.0161532
28.3537 15.9642 2
27.4361 18.7856 3.98518
32.6294 34.104 3.86413
34.1743 34.1797 2
35.7877 34.0844 0.0481435
34.0932 32.6206 0.128808
35.5783 30.3773 0.0988756
37.5152 28.5594 0.101487
40.0421 27.5196 0.0583504
37.6188 27.1608 2
32.9766 32.968 2
35.1559 28.8583 2
33.8074 31.1008 2
35.0672 27.3212 3.95683
33.1214 29.8005 3.89921
32.3374 32.2856 3.88785
29.5696 21.918 3.99414
30.2039 19.3258 2
30.9231 16.824 0.015883
37.7989 25.1391 -0.0214031
35.2009 22.6084 0.00917808
32.8603 19.7733 0.0140593
32.3049 22.3848 2
34.9753 25.1345 2
31.6753 25.5982 4.00001
32.1319 37.5016 3.87799
34.0122 37.4984 2
35.7706 37.4987 0.014648
35.4517 50.1931 -0.0137041
34.2654 47.4805 0.048811
34.0528 39.1928 0.0494577
33.1216 45.1978 0.095082
32.3339 42.7008 0.109103
32.609 40.8924 0.13642
33.2209 49.173 2
32.2676 39.2787 2
31.1472 41.1833 2
32.209 46.4201 2
31.3226 43.7992 2
31.1192 48.0088 3.99746
30.4138 39.4545 3.88046
29.9303 41.9722 3.89911
30.3978 44.9796 3.95189
31.9886 51.2287 0.0057006
29.8345 49.7354 2
27.8451 48.2037 3.97436
28.4145 51.6257 0.0212257
26.4868 50.0042 2
24.6249 48.4899 3.97889
25.0632 51.7652 0.0309263
23.3228 50.2082 2
21.6361 48.8054 3.97347
21.95 51.8148 0.0319577
20.4505 50.3249 2
19.0179 49.1026 3.97435
16.8834 49.3379 3.97499
16.7644 51.4125 3.97111
17.9765 50.3369 2
16.3817 53.8769 3.97198
17.8232 52.7993 2
19.188 51.6424 0.0312205
15.971 56.483 3.97741
17.4286 55.3501 2
18.9117 54.318 0.0290172
15.7468 59.216 3.98054
17.13 57.883 2
18.4406 56.7343 0.0214299
15.7865 62.1413 3.98456
17.1339 60.5565 2
18.3652 59.1204 0.021103
16.0879 65.3008 3.99251
17.4058 63.4721 2
18.6164 61.7729 0.0166633
16.6661 68.6801 4
17.9408 66.6184 2
19.1252 64.679 0.0114135
18.75 69.9759 2
19.885 67.81 0.00657473
20.9142 71.1327 0
20.217 14.5868 3.98361
21.5854 13.5979 2
20.5279 11.9909 3.98548
21.142 9.14469 3.98895
22.1889 11.021 2
23.0942 12.7779 0.0150963
22.0154 6.08139 3.99314
23.039 8.1747 2
23.9706 10.1622 0.0135371
23.1494 2.85457 4
24.116 5.1423 2
25.0212 7.30972 0.0109241
25.446 1.99012 2
26.2788 4.32774 0.00663888
27.7943 1.27781 0
32.2817 35.7165 3.8774
34.0546 35.8073 2
35.776 35.8033 0.0212686
21.303 15.8188 2
20.3 16.9538 3.98286
22.0944 16.6247 3.98163
25.3553 13.8967 0.0158153
22.4777 15.0236 0.0161223
24.0221 15.609 0.0166583
25.3777 16.0767 2
23.2617 16.2404 2
24.2005 18.4395 3.98114
27.0068 21.443 3.98686
28.3534 15.9646 0.0157943
27.4359 18.7855 2
31.1869 33.8214 3.88862
32.6294 34.1072 2
34.1698 34.1773 0.0784148
32.9818 32.9709 0.157321
33.8236 31.1187 0.112086
35.1713 28.8776 0.100307
37.6202 27.1919 0.0517427
35.0504 27.2995 2
32.3277 32.2847 2
33.1031 29.7771 2
32.5245 28.0547 3.97351
31.3277 31.213 3.90131
28.7861 24.3839 3.98702
29.5676 21.9199 2
30.2044 19.3251 0.0136752
34.9674 25.1326 -0.011997
32.3068 22.3838 0.0112404
31.6804 25.5855 2
29.6255 27.2919 3.97063
30.1365 37.4909 3.87922
32.1312 37.5001 2
34.0067 37.4985 0.0405239
33.2233 49.1861 -0.00644103
32.2298 46.4027 0.0495842
32.2701 39.282 0.122194
31.3358 43.7883 0.0987156
31.1656 41.1755 0.111476
31.1193 48.0087 2
30.3978 39.4657 2
29.9173 41.9839 2
30.378 44.9932 2
29.1501 46.5971 3.99824
29.019 39.8604 3.89997
28.6559 43.1867 3.9571
29.8353 49.7392 0.0134878
27.8448 48.1982 2
25.9186 46.6858 3.97799
26.4869 50.006 0.0289627
24.6254 48.4882 2
22.787 47.0996 3.97813
23.3226 50.2094 0.026363
21.6362 48.805 2
19.9643 47.6321 3.97684
20.4503 50.3251 0.0304235
19.0189 49.1022 2
17.6596 48.1864 3.97485
16.1347 48.6886 3.97572
16.8839 49.338 2
15.8425 50.1748 3.9736
15.372 52.4199 3.9719
16.7646 51.4126 2
17.976 50.337 0.0275564
14.8632 54.9824 3.97461
16.3814 53.8775 2
17.8235 52.7989 0.0305104
14.4556 57.7445 3.97951
15.9708 56.4839 2
17.429 55.3494 0.0253795
14.2646 60.6953 3.98327
15.7468 59.2169 2
17.1302 57.8821 0.0206156
14.3322 63.86 3.9915
15.7864 62.1421 2
17.1338 60.5555 0.0188237
14.6715 67.2507 4
16.0875 65.3007 2
17.4058 63.4712 0.0130806
16.6661 68.6801 2
17.9411 66.6184 0.00686666
18.75 69.9759 0
18.9309 15.7744 3.98258
20.2172 14.5864 2
18.9776 13.1018 3.98462
21.585 13.5979 0.0155787
20.5283 11.9908 2
19.3414 10.2323 3.98873
19.99 7.14604 3.99313
21.1421 9.14437 2
22.1887 11.0213 0.013883
20.9142 3.86727 4
22.015 6.08142 2
23.0391 8.17503 0.0110455
23.1494 2.85451 2
24.1164 5.14242 0.00676832
25.446 1.99014 0
30.4322 35.5444 3.88331
32.2816 35.7186 2
34.0505 35.8053 0.0513254
21.3027 15.8193 0.0170115
22.0946 16.6243 2
20.3002 16.9531 2
19.239 18.4012 3.98147
21.7786 17.8411 3.9821
25.3773 16.0769 0.0159069
23.2612 16.2403 0.0170043
24.2006 18.4397 2
22.2727 19.8835 3.97825
24.5842 21.3118 3.98223
26.4061 23.7079 3.97972
27.0065 21.4435 2
27.4361 18.7856 0.0148241
29.9429 33.0203 3.89916
31.1658 33.8011 2
32.6294 34.104 0.135872
32.3374 32.2856 0.112145
33.1214 29.8005 0.100786
35.0672 27.3212 0.0431744
32.5159 28.0468 2
31.3294 31.2085 2
30.0949 29.5185 3.96615
27.8644 26.5257 3.97232
28.7876 24.3903 2
29.5696 21.918 0.00585573
31.6753 25.5982 -1.46393e-05
29.6212 27.254 2
28.6847 37.5043 3.9057
30.1229 37.4939 2
32.1319 37.5016 0.122007
31.1192 48.0088 0.0025385
30.3978 44.9796 0.0481059
30.4138 39.4545 0.119541
29.9303 41.9722 0.100892
29.1505 46.6125 2
29.0046 39.8711 2
28.6405 43.1988 2
27.2472 44.8607 3.98917
26.791 40.6129 3.9787
27.8451 48.2037 0.0256377
25.9179 46.6874 2
23.9811 45.2333 3.97728
24.6249 48.4899 0.0211082
22.7872 47.0993 2
20.9166 45.9118 3.97818
21.6361 48.8054 0.0265283
19.9663 47.6315 2
18.3074 46.7461 3.97612
19.0179 49.1026 0.0256535
17.6598 48.1865 2
16.3255 47.7189 3.9743
16.135 48.6888 2
15.1896 49.0194 3.97456
16.8834 49.3379 0.0250118
15.8429 50.1749 2
14.4864 50.9879 3.97287
13.8261 53.4372 3.97345
15.3721 52.4202 2
16.7644 51.4125 0.0288861
13.251 56.1711 3.97741
14.8629 54.9832 2
16.3817 53.8769 0.0280169
12.8468 59.1287 3.98278
14.4555 57.7454 2
15.971 56.483 0.022587
12.6778 62.3024 3.98988
14.2645 60.6959 2
15.7468 59.216 0.0194616
12.7746 65.6939 4
14.3318 63.8597 2
15.7865 62.1413 0.0154364
14.6714 67.2507 2
16.0879 65.3008 0.00749075
16.6661 68.6801 0
17.6649 17.1504 3.9814
18.931 15.7739 2
17.5093 14.3667 3.98341
20.217 14.5868 0.0163861
18.9779 13.1013 2
17.6372 11.4513 3.98789
20.5279 11.9909 0.0145181
19.3417 10.2321 2
18.0501 8.3389 3.99306
18.75 5.0241 4
19.9896 7.14616 2
21.142 9.14469 0.0110544
20.9142 3.86727 2
22.0154 6.08139 0.0068608
23.1494 2.85457 0
29.029 35.115 3.9002
30.4152 35.5355 2
32.2817 35.7165 0.1226
22.0944 16.6247 0.0183658
20.3 16.9538 0.0171438
21.7787 17.8404 2
19.2391 18.4003 2
17.9753 19.9346 3.97896
20.8713 19.3698 3.9806
24.2005 18.4395 0.018857
22.273 19.8828 2
24.5843 21.3127 2
22.3499 21.7101 3.98049
24.6853 23.1575 3.97751
25.4468 25.9359 3.96709
26.4081 23.7077 2
27.0068 21.443 0.0131355
28.3185 32.2991 3.94702
29.9298 33.0163 2
31.1869 33.8214 0.111378
31.3277 31.213 0.0986947
32.5245 28.0547 0.026491
30.0738 29.5047 2
27.0051 29.119 3.99335
27.8612 26.5235 2
28.7861 24.3839 0.0129751
29.6255 27.2919 0.0293743
26.9125 37.364 3.96157
28.6677 37.4981 2
30.1365 37.4909 0.120783
29.1501 46.5971 0.00176133
28.6559 43.1867 0.0428966
29.019 39.8604 0.100026
27.2482 44.8646 2
26.7814 40.624 2
25.2509 43.1871 3.9718
24.0373 39.4291 3.97631
25.9186 46.6858 0.0220074
23.9755 45.2345 2
21.8843 43.9645 3.97841
22.787 47.0996 0.021873
20.92 45.911 2
18.9623 44.9785 3.97694
19.9643 47.6321 0.0231552
18.3079 46.7462 2
16.6133 46.2177 3.97393
17.6596 48.1864 0.0251534
16.3257 47.719 2
14.9195 47.6739 3.97318
16.1347 48.6886 0.0242789
15.19 49.0196 2
13.785 49.5484 3.97312
15.8425 50.1748 0.0263951
14.4867 50.9881 2
12.8937 51.8755 3.9734
12.1392 54.5285 3.97593
13.8261 53.4377 2
15.372 52.4199 0.0281016
11.5315 57.4602 3.98136
13.2507 56.172 2
14.8632 54.9824 0.02539
11.1324 60.6283 3.98854
12.8466 59.1294 2
14.4556 57.7445 0.0204868
10.9835 64.0165 4
12.6773 62.302 2
14.2646 60.6953 0.016733
12.7745 65.694 2
14.3322 63.86 0.00849661
14.6715 67.2507 0
16.3973 18.6452 3.98012
17.6649 17.1497 2
16.1003 15.7761 3.98286
18.9309 15.7744 0.0174196
17.5095 14.3659 2
16.0191 12.805 3.9859
18.9776 13.1018 0.0153785
17.6374 11.4506 2
16.2012 9.66204 3.99285
19.3414 10.2323 0.0112685
18.0498 8.33911 2
16.6661 6.31991 4
18.75 5.02404 2
19.99 7.14604 0.00687178
20.9142 3.86727 0
27.421 34.7575 3.94672
29.0102 35.1063 2
30.4322 35.5444 0.116686
16.6767 21.3728 3.97473
21.7786 17.8411 0.0179011
19.239 18.4012 0.018526
20.8715 19.369 2
17.9755 19.9337 2
19.7177 21.566 3.98076
22.2727 19.8835 0.021746
24.5842 21.3118 0.0177739
22.3503 21.7093 2
24.6859 23.1576 2
22.8355 24.5949 3.97084
24.5467 28.5176 3.96796
25.4449 25.9339 2
26.4061 23.7079 0.0202799
26.16 31.6917 3.99182
28.3037 32.2872 2
29.9429 33.0203 0.100836
30.0949 29.5185 0.0338465
27.0122 29.1192 2
27.8644 26.5257 0.0276755
24.7326 36.8557 3.98206
26.9007 37.3647 2
28.6847 37.5043 0.0942974
27.2472 44.8607 0.0108347
26.791 40.6129 0.0212999
25.2452 43.1914 2
24.03 39.4303 2
22.9549 41.8079 3.97973
21.754 38.5012 3.97453
23.9811 45.2333 0.0227211
21.8856 43.9655 2
19.7214 42.8944 3.97712
20.9166 45.9118 0.0218164
18.9613 44.9786 2
16.9403 44.3841 3.97365
18.3074 46.7461 0.0238812
16.6134 46.2178 2
14.8378 46.094 3.97247
16.3255 47.7189 0.0257006
14.9197 47.6741 2
13.2923 48.0106 3.97246
15.1896 49.0194 0.0254434
13.7854 49.5486 2
12.1135 50.2536 3.97317
14.4864 50.9879 0.0271279
12.894 51.8759 2
11.1355 52.8368 3.97523
10.3224 55.7114 3.97986
12.1392 54.5292 2
13.8261 53.4372 0.0265508
9.69906 58.8504 3.98714
11.5312 57.461 2
13.251 56.1711 0.0225871
9.30605 62.2254 4
11.1317 60.6278 2
12.8468 59.1287 0.0172192
10.9835 64.0165 2
12.6778 62.3024 0.010119
12.7746 65.6939 0
15.1431 20.1813 3.9766
16.3973 18.6444 2
14.7458 17.2993 3.98117
17.6649 17.1504 0.0185969
16.1004 15.7751 2
14.4816 14.2873 3.98453
17.5093 14.3667 0.0165935
16.0192 12.8043 2
14.4441 11.1132 3.9922
17.6372 11.4513 0.0121129
16.2009 9.6622 2
14.6715 7.74927 4
18.0501 8.3389 0.00693927
16.6661 6.31988 2
18.75 5.0241 0
25.3722 34.2574 3.98755
27.4079 34.7539 2
29.029 35.115 0.0998044
17.8503 22.3188 3.98192
15.5235 22.918 3.97118
16.677 21.3719 2
20.8713 19.3698 0.0193997
17.9753 19.9346 0.0210418
19.718 21.5651 2
19.6566 24.3764 3.97095
22.3499 21.7101 0.0195108
24.6853 23.1575 0.0224897
22.8342 24.5937 2
21.9144 27.8143 3.97034
23.7337 31.178 3.9731
24.5513 28.5176 2
25.4468 25.9359 0.0329069
26.1588 31.6853 2
28.3185 32.2991 0.0529826
27.0051 29.119 0.0066541
22.4881 36.272 3.97663
24.7217 36.8555 2
26.9125 37.364 0.0384285
25.2509 43.1871 0.0282024
24.0373 39.4291 0.0236924
22.9534 41.8078 2
21.7522 38.5014 2
20.6916 40.6342 3.97576
20.0973 37.7812 3.97608
21.8843 43.9645 0.0215927
19.7229 42.8945 2
17.351 42.103 3.97391
18.9623 44.9785 0.023061
16.9403 44.3842 2
14.8378 44.2032 3.97187
16.6133 46.2177 0.0260679
14.8378 46.0942 2
12.9629 46.2979 3.97212
14.9195 47.6739 0.0268246
13.2925 48.0108 2
11.4854 48.5504 3.97244
13.785 49.5484 0.026876
12.1138 50.2539 2
10.2619 51.0801 3.97456
12.8937 51.8755 0.0266047
11.1358 52.8373 2
9.23172 53.8891 3.97896
8.38276 56.9826 3.98601
10.3224 55.712 2
12.1392 54.5285 0.0240706
7.74927 60.3285 4
9.69821 58.8493 2
11.5315 57.4602 0.018639
9.306 62.2255 2
11.1324 60.6283 0.0114633
10.9835 64.0165 0
13.9566 21.7495 3.97376
15.1433 20.1804 2
13.447 18.8974 3.97876
16.3973 18.6452 0.0198815
14.7459 17.2982 2
13.027 15.8802 3.98365
16.1003 15.7761 0.0171402
14.4817 14.2863 2
12.7815 12.6865 3.99104
16.0191 12.805 0.0141003
14.4438 11.1134 2
12.7746 9.30605 4
16.2012 9.66204 0.00715249
14.6715 7.74924 2
16.6661 6.31991 0
23.0592 33.7938 3.97503
25.3598 34.2558 2
27.421 34.7575 0.0532793
17.6221 24.0397 3.97237
17.8504 22.3179 2
14.3059 24.4491 3.97208
15.5236 22.9172 2
16.6767 21.3728 0.0252668
19.0315 27.1954 3.9702
19.7177 21.566 0.019242
19.6557 24.3763 2
21.1707 30.6551 3.97176
22.8355 24.5949 0.0291636
21.9162 27.8142 2
23.7251 31.1785 2
24.5467 28.5176 0.0320355
26.16 31.6917 0.00818336
20.2379 35.9188 3.97517
22.4864 36.2725 2
24.7326 36.8557 0.0179426
22.9549 41.8079 0.0202745
21.754 38.5012 0.0254745
20.6902 40.6347 2
20.0955 37.7814 2
18.0702 39.0011 3.97431
19.7214 42.8944 0.0228812
17.3511 42.1031 2
14.7963 41.9196 3.97175
16.9403 44.3841 0.0263496
14.8377 44.2033 2
12.7022 44.3939 3.97128
14.8378 46.094 0.027532
12.9629 46.2981 2
10.9862 46.7347 3.97225
13.2923 48.0106 0.0275371
11.4856 48.5507 2
9.52582 49.2398 3.97369
12.1135 50.2536 0.02683
10.2623 51.0804 2
8.2651 52.0018 3.97813
11.1355 52.8368 0.0247743
9.23198 53.8892 2
7.19188 55.0323 3.98561
6.31991 58.3339 4
8.38195 56.9807 2
10.3224 55.7114 0.0201392
7.74924 60.3285 2
9.69906 58.8504 0.012858
9.30605 62.2254 0
13.2262 25.3613 3.97588
12.8245 23.2791 3.97361
13.9568 21.7486 2
12.2332 20.5476 3.97677
15.1431 20.1813 0.0234043
13.4471 18.8963 2
11.6568 17.5618 3.9825
14.7458 17.2993 0.0188317
13.027 15.8793 2
11.219 14.3715 3.98943
14.4816 14.2873 0.0154694
12.7812 12.6868 2
10.9835 10.9835 4
14.4441 11.1132 0.00779686
12.7745 9.306 2
14.6715 7.74927 0
20.6072 33.3884 3.97383
23.0599 33.7942 2
25.3722 34.2574 0.0124541
15.8933 26.3969 3.97154
17.6218 24.0393 2
17.8503 22.3188 0.0180813
14.3058 24.4485 2
15.5235 22.918 0.028818
18.3832 30.1659 3.97188
19.0314 27.1954 2
19.6566 24.3764 0.0290451
21.1724 30.655 2
21.9144 27.8143 0.0296553
23.7337 31.178 0.0268981
17.7104 35.9611 3.97427
20.2389 35.9188 2
22.4881 36.272 0.023369
20.6916 40.6342 0.0242378
20.0973 37.7812 0.0239186
18.0706 39.0013 2
14.3246 39.1761 3.97235
17.351 42.103 0.0260858
14.7961 41.9197 2
12.3921 42.2778 3.97013
14.8378 44.2032 0.0281344
12.7022 44.3941 2
10.5629 44.8037 3.97146
12.9629 46.2979 0.0278773
10.9863 46.735 2
8.908 47.3193 3.97339
11.4854 48.5504 0.0275618
9.52608 49.24 2
7.43254 50.0348 3.97711
10.2619 51.0801 0.0254377
8.26546 52.0016 2
6.13261 53.0065 3.98567
9.23172 53.8891 0.0210442
7.19138 55.03 2
5.0241 56.25 4
6.31988 58.3339 2
8.38276 56.9826 0.0139945
7.74927 60.3285 0
13.464 26.8123 3.9707
11.9386 24.7872 3.97319
13.2261 25.3608 2
11.1373 22.2333 3.9753
12.8247 23.2783 2
13.9566 21.7495 0.0262366
12.2334 20.5465 2
10.3874 19.3174 3.98097
13.447 18.8974 0.0212365
11.6569 17.5607 2
9.75987 16.1553 3.98787
13.027 15.8802 0.016345
11.2185 14.3719 2
9.30607 12.7746 4
12.7815 12.6865 0.00896008
10.9835 10.9835 2
12.7746 9.30605 0
17.8728 33.1059 3.97348
20.6086 33.3885 2
23.0592 33.7938 0.024967
15.4869 29.6323 3.97189
15.8926 26.3966 2
17.6221 24.0397 0.0276334
14.3059 24.4491 0.0279194
18.3847 30.166 2
19.0315 27.1954 0.0297955
21.1707 30.6551 0.0282387
14.9327 36.0163 3.97288
17.7108 35.9612 2
20.2379 35.9188 0.0248262
12.6094 37.8289 3.97226
18.0702 39.0011 0.0256945
14.3251 39.1762 2
11.9119 40.1409 3.97066
14.7963 41.9196 0.0282519
12.3919 42.2779 2
10.1637 42.7786 3.96996
12.7022 44.3939 0.0287166
10.5629 44.8039 2
8.38571 45.3216 3.97279
10.9862 46.7347 0.0277475
8.90812 47.3195 2
6.7239 48.0001 3.97669
9.52582 49.2398 0.0263093
7.43279 50.0347 2
5.20962 50.9095 3.98552
8.2651 52.0018 0.0218681
6.13239 53.0046 2
3.86727 54.0858 4
7.19188 55.0323 0.0143927
5.02404 56.25 2
6.31991 58.3339 0
12.9167 29.0305 3.97024
11.3692 26.4869 3.97135
13.4638 26.8119 2
10.1972 23.9674 3.97409
11.9386 24.7866 2
13.2262 25.3613 0.0241174
9.24036 21.1373 3.97919
11.1376 22.2324 2
12.8245 23.2791 0.0263926
12.2332 20.5476 0.0232318
10.3876 19.3164 2
8.41578 18.0269 3.9867
11.6568 17.5618 0.0175019
9.75921 16.156 2
7.74928 14.6715 4
11.219 14.3715 0.01057
9.30602 12.7745 2
10.9835 10.9835 0
14.4965 32.8593 3.97254
17.875 33.106 2
20.6072 33.3884 0.0261687
15.4871 29.6322 2
15.8933 26.3969 0.0284587
18.3832 30.1659 0.0281173
12.9036 36.2081 3.97173
14.9331 36.0163 2
17.7104 35.9611 0.0257276
12.6097 37.8289 2
11.2699 38.3097 3.97119
14.3246 39.1761 0.0276453
11.9121 40.1409 2
9.7504 40.7546 3.96977
12.3921 42.2778 0.0298705
10.1637 42.7788 2
7.93608 43.2701 3.97122
10.5629 44.8037 0.0285404
8.38572 45.3217 2
6.13007 45.9055 3.97637
8.908 47.3193 0.0266148
6.72402 48 2
4.42134 48.7505 3.98537
7.43254 50.0348 0.0228851
5.20951 50.9083 2
2.85457 51.8506 4
6.13261 53.0065 0.0143261
3.86727 54.0858 2
5.0241 56.25 0
12.0609 31.2544 3.97108
10.7808 28.414 3.97087
12.9166 29.0303 2
9.41284 25.7982 3.9729
11.3691 26.4865 2
13.464 26.8123 0.0292989
8.22812 23.0231 3.97766
10.1975 23.9668 2
11.9386 24.7872 0.026812
7.19809 19.9778 3.98576
9.24077 21.1367 2
11.1373 22.2333 0.0246952
10.3874 19.3174 0.0190325
8.41513 18.0283 2
6.31992 16.6661 4
9.75987 16.1553 0.0121319
7.74926 14.6714 2
9.30607 12.7746 0
12.0916 34.2934 3.97176
14.4961 32.8592 2
17.8728 33.1059 0.0265187
15.4869 29.6323 0.0281073
10.8338 36.6108 3.97116
12.904 36.2081 2
14.9327 36.0163 0.0271219
12.6094 37.8289 0.0277445
11.27 38.3097 2
9.34564 38.8237 3.97001
11.9119 40.1409 0.0293373
9.75058 40.7547 2
7.54865 41.2112 3.97048
10.1637 42.7786 0.0300352
7.93602 43.2703 2
5.64277 43.7684 3.97538
8.38571 45.3216 0.0272099
6.1301 45.9054 2
3.76706 46.5367 3.98511
6.7239 48.0001 0.0233143
4.4213 48.7499 2
1.99014 49.554 4
5.20962 50.9095 0.014483
2.85451 51.8506 2
3.86727 54.0858 0
10.9206 32.918 3.97153
10.0941 30.3813 3.97044
12.0607 31.2544 2
8.72082 27.7317 3.97253
10.7808 28.4138 2
12.9167 29.0305 0.0297615
7.35415 24.9826 3.97654
9.4129 25.7978 2
11.3692 26.4869 0.028652
6.11521 22.0024 3.98537
8.22851 23.0228 2
10.1972 23.9674 0.0259117
5.02411 18.75 4
7.19773 19.9796 2
9.24036 21.1373 0.020806
8.41578 18.0269 0.0133038
6.3199 16.6661 2
7.74928 14.6715 0
10.4424 34.9995 3.97099
12.0916 34.2934 2
14.4965 32.8593 0.0274616
9.01709 36.985 3.97004
10.8343 36.6108 2
12.9036 36.2081 0.0282698
11.2699 38.3097 0.0288071
9.34563 38.8238 2
7.22985 39.182 3.97044
9.7504 40.7546 0.0302262
7.54881 41.2112 2
5.25902 41.614 3.97407
7.93608 43.2701 0.0287836
5.64272 43.7683 2
3.24508 44.2818 3.98422
6.13007 45.9055 0.0236348
3.76708 46.5366 2
1.27781 47.2057 4
4.42134 48.7505 0.0146295
1.99012 49.554 2
2.85457 51.8506 0
10.0876 33.8809 3.9713
9.38745 32.1539 3.97101
10.9205 32.918 2
8.07034 29.6953 3.97185
10.094 30.3812 2
12.0609 31.2544 0.0289218
6.59801 27.0086 3.97611
8.72079 27.7315 2
10.7808 28.414 0.0291328
5.17071 24.0957 3.98521
7.35434 24.9825 2
9.41284 25.7982 0.0271017
3.86728 20.9142 4
6.11511 22.0038 2
8.22812 23.0231 0.022344
5.02406 18.75 2
7.19809 19.9778 0.0142445
6.31992 16.6661 0
8.84347 35.2793 3.9703
10.4424 34.9995 2
12.0916 34.2934 0.028236
7.01357 37.2059 3.97052
9.0171 36.985 2
10.8338 36.6108 0.0288406
9.34564 38.8237 0.029986
7.22988 39.182 2
4.9874 39.4674 3.97343
7.54865 41.2112 0.0295208
5.25917 41.6139 2
2.85592 42.0023 3.98312
5.64277 43.7684 0.0246187
3.24508 44.282 2
0.720592 44.8159 4
3.76706 46.5367 0.0148929
1.27778 47.2057 2
1.99014 49.554 0
8.88413 33.6974 3.97128
10.0876 33.8808 2
7.5083 31.609 3.97202
9.38734 32.1538 2
10.9206 32.918 0.0284669
5.94345 29.0696 3.97563
8.07024 29.6952 2
10.0941 30.3813 0.0295607
4.35852 26.2482 3.98499
6.59806 27.0087 2
8.72082 27.7317 0.02747
2.85458 23.1494 4
5.17065 24.0966 2
7.35415 24.9826 0.0234621
3.86728 20.9142 2
6.11521 22.0024 0.014631
5.02411 18.75 0
6.96387 35.306 3.97054
8.8436 35.2792 2
10.4424 34.9995 0.0290147
4.83753 37.3399 3.97385
7.01361 37.2059 2
9.01709 36.985 0.0299641
7.22985 39.182 0.0295562
4.98743 39.4673 2
2.60427 39.714 3.98238
5.25902 41.614 0.0259314
2.85611 42.0025 2
0.320823 42.3947 4
3.24508 44.2818 0.0157849
0.720551 44.8159 2
1.27781 47.2057 0
7.12276 33.4608 3.97179
8.88413 33.6973 2
10.0876 33.8809 0.0286959
5.41474 31.1336 3.97534
7.50816 31.6089 2
9.38745 32.1539 0.0289854
3.68043 28.4439 3.98454
5.94337 29.0697 2
8.07034 29.6953 0.0281472
1.99015 25.446 4
4.35851 26.2485 2
6.59801 27.0086 0.0238931
2.85453 23.1494 2
5.17071 24.0957 0.0147927
3.86728 20.9142 0
4.85186 35.2517 3.97386
6.964 35.306 2
8.84347 35.2793 0.0297008
2.49567 37.4286 3.98274
4.83758 37.34 2
7.01357 37.2059 0.0294764
4.9874 39.4674 0.0265726
2.60436 39.7144 2
0.080333 39.9526 4
2.85592 42.0023 0.0168804
0.320817 42.3947 2
0.720592 44.8159 0
5.04463 33.1903 3.97488
7.12275 33.4607 2
8.88413 33.6974 0.0287157
3.14498 30.6663 3.98382
5.41459 31.1337 2
7.5083 31.609 0.0279804
1.27793 27.7943 4
3.68043 28.4439 2
5.94345 29.0696 0.0243658
1.99013 25.446 2
4.35852 26.2482 0.0150053
2.85458 23.1494 0
2.54781 35.1591 3.98278
4.85201 35.2518 2
6.96387 35.306 0.0294637
0 37.5 4
2.49579 37.4289 2
4.83753 37.3399 0.026148
2.60427 39.714 0.0176214
0.0802903 39.9526 2
0.320823 42.3947 0
2.7652 32.9058 3.98332
5.04462 33.1905 2
7.12276 33.4608 0.0282064
0.721173 30.1842 4
3.14496 30.6664 2
5.41474 31.1336 0.0246577
1.27779 27.7943 2
3.68043 28.4439 0.0154563
1.99015 25.446 0
0.0806499 35.0474 4
2.54799 35.1595 2
4.85186 35.2517 0.0261448
0 37.5 2
2.49567 37.4286 0.0172625
0.080333 39.9526 0
0.32156 32.6054 4
2.76527 32.9062 2
5.04463 33.1903 0.0251244
0.72056 30.1841 2
3.14498 30.6663 0.0161811
1.27793 27.7943 0
0.0802889 35.0474 2
2.54781 35.1591 0.0172208
0 37.5 0
0.320817 32.6053 2
2.7652 32.9058 0.0166846
0.721173 30.1842 0
0.0806499 35.0474 0
0.32156 32.6054 0
CELLS 1910 17190
8 18 6 25 56 2 0 5 16
8 57 23 6 18 17 4 0 2
8 78 36 9 29 31 11 1 7
8 31 11 1 7 79 37 10 30
8 110 57 18 50 48 17 2 14
8 50 18 56 111 14 2 16 49
8 116 62 22 55 52 20 3 15
8 56 25 67 118 16 5 24 53
8 119 63 23 57 54 21 4 17
8 55 22 63 119 15 3 21 54
8 58 26 68 121 18 6 25 56
8 122 65 26 58 57 23 6 18
8 73 31 7 27 142 79 30 71
8 143 78 29 72 73 31 7 27
8 83 147 76 34 32 74 28 8
8 84 148 78 36 33 75 29 9
8 76 34 8 28 148 84 33 75
8 37 79 150 86 10 30 77 35
8 151 87 36 78 80 38 11 31
8 80 38 11 31 152 88 37 79
8 175 100 42 94 96 44 12 40
8 44 96 176 101 12 40 95 43
8 101 176 98 46 43 95 41 13
8 46 98 178 103 13 41 97 45
8 178 103 45 97 147 83 32 74
8 189 116 55 109 106 52 15 47
8 111 56 118 191 49 16 53 107
8 192 119 57 110 108 54 17 48
8 109 55 119 192 47 15 54 108
8 194 122 58 112 110 57 18 50
8 112 58 121 195 50 18 56 111
8 115 61 19 51 197 124 59 113
8 115 61 125 198 51 19 60 114
8 198 125 62 116 114 60 20 52
8 200 127 64 120 116 62 22 55
8 118 67 132 202 53 24 66 117
8 121 68 133 203 56 25 67 118
8 120 64 128 204 55 22 63 119
8 204 128 65 122 119 63 23 57
8 206 134 68 121 123 69 26 58
8 123 69 26 58 207 131 65 122
8 226 147 74 138 140 76 28 70
8 229 148 75 139 143 78 29 72
8 140 76 28 70 229 148 75 139
8 142 79 30 71 231 150 77 141
8 144 80 31 73 232 152 79 142
8 233 151 78 143 144 80 31 73
8 150 86 35 77 235 154 81 145
8 235 154 81 145 146 82 39 91
8 146 82 39 91 236 155 90 165
8 238 157 83 147 149 85 34 76
8 239 158 84 148 151 87 36 78
8 149 85 34 76 239 158 84 148
8 152 88 37 79 241 160 86 150
8 242 161 87 151 153 89 38 80
8 153 89 38 80 243 162 88 152
8 171 98 41 92 265 178 97 169
8 265 178 97 169 226 147 74 138
8 172 96 40 93 266 176 95 170
8 266 176 95 170 171 98 41 92
8 269 175 94 173 172 96 40 93
8 271 180 99 174 175 100 42 94
8 197 124 59 113 271 180 99 174
8 272 181 100 175 177 102 44 96
8 273 182 101 176 179 104 46 98
8 177 102 44 96 273 182 101 176
8 179 104 46 98 275 184 103 178
8 275 184 103 178 238 157 83 147
8 188 115 51 105 283 197 113 186
8 188 115 198 284 105 51 114 187
8 284 198 116 189 187 114 52 106
8 286 200 120 193 189 116 55 109
8 191 118 202 288 107 53 117 190
8 195 121 203 289 111 56 118 191
8 193 120 204 290 109 55 119 192
8 290 204 122 194 192 119 57 110
8 196 123 58 112 292 207 122 194
8 293 206 121 195 196 123 58 112
8 199 126 61 115 297 211 124 197
8 298 212 127 200 198 125 62 116
8 199 126 212 298 115 61 125 198
8 205 129 64 120 300 214 127 200
8 301 217 130 201 202 132 66 117
8 209 136 168 264 301 217 130 201
8 302 219 132 202 203 133 67 118
8 303 220 133 203 206 134 68 121
8 205 129 215 304 120 64 128 204
8 304 215 131 207 204 128 65 122
8 306 221 134 206 208 135 69 123
8 208 135 69 123 307 218 131 207
8 210 137 167 263 309 223 136 209
8 328 238 147 226 230 149 76 140
8 228 146 91 166 329 236 165 260
8 231 150 77 141 330 235 145 227
8 330 235 145 227 228 146 91 166
8 332 239 148 229 233 151 78 143
8 230 149 76 140 332 239 148 229
8 232 152 79 142 334 241 150 231
8 234 153 80 144 335 243 152 232
8 336 242 151 233 234 153 80 144
8 236 155 90 165 338 245 164 259
8 241 160 86 150 339 246 154 235
8 339 246 154 235 237 156 82 146
8 237 156 82 146 340 247 155 236
8 342 249 157 238 240 159 85 149
8 343 250 158 239 242 161 87 151
8 240 159 85 149 343 250 158 239
8 243 162 88 152 345 252 160 241
8 244 163 253 346 153 89 161 242
8 244 163 89 153 347 254 162 243
8 311 224 261 371 210 137 167 263
8 263 167 262 372 209 136 168 264
8 267 179 98 171 375 275 178 265
8 375 275 178 265 328 238 147 226
8 376 273 176 266 267 179 98 171
8 268 177 96 172 376 273 176 266
8 379 272 175 269 268 177 96 172
8 380 271 174 270 269 175 94 173
8 283 197 113 186 380 271 174 270
8 381 277 180 271 272 181 100 175
8 297 211 124 197 381 277 180 271
8 382 278 181 272 274 183 102 177
8 274 183 102 177 383 279 182 273
8 383 279 182 273 276 185 104 179
8 385 281 184 275 342 249 157 238
8 276 185 104 179 385 281 184 275
8 285 199 115 188 393 297 197 283
8 394 298 200 286 284 198 116 189
8 285 199 298 394 188 115 198 284
8 291 205 120 193 396 300 200 286
8 397 301 201 287 288 202 117 190
8 295 209 264 374 397 301 201 287
8 398 302 202 288 289 203 118 191
8 399 303 203 289 293 206 121 195
8 291 205 304 400 193 120 204 290
8 400 304 207 292 290 204 122 194
8 294 208 123 196 402 307 207 292
8 403 306 206 293 294 208 123 196
8 296 210 263 373 405 309 209 295
8 408 312 213 299 297 211 126 199
8 299 213 313 409 199 126 212 298
8 409 313 214 300 298 212 127 200
8 305 216 129 205 411 315 214 300
8 412 318 217 301 302 219 132 202
8 309 223 136 209 412 318 217 301
8 413 320 219 302 303 220 133 203
8 306 221 321 414 206 134 220 303
8 307 218 131 207 415 316 215 304
8 305 216 316 415 205 129 215 304
8 417 322 221 306 308 222 135 208
8 308 222 135 208 418 319 218 307
8 310 225 137 210 420 325 223 309
8 423 326 224 311 310 225 137 210
8 329 236 165 260 441 338 259 368
8 442 342 238 328 333 240 149 230
8 331 237 146 228 443 340 236 329
8 334 241 150 231 444 339 235 330
8 444 339 235 330 331 237 146 228
8 446 343 239 332 336 242 151 233
8 333 240 149 230 446 343 239 332
8 335 243 152 232 448 345 241 334
8 337 244 153 234 449 347 243 335
8 337 244 346 450 234 153 242 336
8 338 245 164 259 452 349 258 367
8 340 247 155 236 453 350 245 338
8 345 252 160 241 454 351 246 339
8 454 351 246 339 341 248 156 237
8 341 248 156 237 455 352 247 340
8 240 159 251 344 342 249 354 457
8 242 161 253 346 343 250 355 458
8 343 250 355 458 240 159 251 344
8 347 254 162 243 460 357 252 345
8 348 255 358 461 244 163 253 346
8 348 255 163 244 462 359 254 347
8 473 360 257 365 363 256 364 482
8 452 349 258 367 365 257 366 485
8 422 324 369 488 311 224 261 371
8 371 261 370 490 263 167 262 372
8 407 311 371 491 296 210 263 373
8 373 263 372 492 295 209 264 374
8 493 385 275 375 442 342 238 328
8 377 276 179 267 493 385 275 375
8 378 274 177 268 494 383 273 376
8 494 383 273 376 377 276 179 267
8 497 382 272 379 378 274 177 268
8 498 381 271 380 379 272 175 269
8 393 297 197 283 498 381 271 380
8 499 387 277 381 382 278 181 272
8 408 312 211 297 499 387 277 381
8 500 388 278 382 384 280 183 274
8 501 389 279 383 386 282 185 276
8 384 280 183 274 501 389 279 383
8 386 282 185 276 503 391 281 385
8 503 391 281 385 457 354 249 342
8 511 408 299 395 393 297 199 285
8 395 299 409 512 285 199 298 394
8 512 409 300 396 394 298 200 286
8 401 305 205 291 514 411 300 396
8 515 412 301 397 398 302 202 288
8 405 309 209 295 515 412 301 397
8 516 413 302 398 399 303 203 289
8 403 306 414 517 293 206 303 399
8 402 307 207 292 518 415 304 400
8 401 305 415 518 291 205 304 400
8 404 308 208 294 520 418 307 402
8 521 417 306 403 404 308 208 294
8 406 310 210 296 523 420 309 405
8 526 423 311 407 406 310 210 296
8 410 314 213 299 527 424 312 408
8 528 425 315 411 409 313 214 300
8 410 314 425 528 299 213 313 409
8 416 317 216 305 530 427 315 411
8 531 430 318 412 413 320 219 302
8 420 325 223 309 531 430 318 412
8 532 432 320 413 414 321 220 303
8 417 322 433 533 306 221 321 414
8 418 319 218 307 534 428 316 415
8 416 317 428 534 305 216 316 415
8 419 323 434 536 308 222 322 417
8 419 323 222 308 537 431 319 418
8 421 327 225 310 539 438 325 420
8 421 327 439 541 310 225 326 423
8 543 437 324 422 423 326 224 311
8 441 338 259 368 559 452 367 486
8 443 340 236 329 560 453 338 441
8 333 240 344 447 442 342 457 561
8 445 341 237 331 562 455 340 443
8 448 345 241 334 563 454 339 444
8 563 454 339 444 445 341 237 331
8 336 242 346 450 446 343 458 565
8 446 343 458 565 333 240 344 447
8 449 347 243 335 567 460 345 448
8 451 348 244 337 568 462 347 449
8 451 348 461 569 337 244 346 450
8 570 463 349 452 473 360 257 365
8 453 350 245 338 570 463 349 452
8 455 352 247 340 571 464 350 453
8 460 357 252 345 572 465 351 454
8 572 465 351 454 456 353 248 341
8 456 353 248 341 573 466 352 455
8 344 251 356 459 457 354 468 575
8 458 355 469 576 344 251 356 459
8 346 253 358 461 458 355 469 576
8 462 359 254 347 578 471 357 460
8 348 255 359 462 461 358 472 579
8 591 474 360 473 475 361 256 363
8 475 361 256 363 594 477 362 479
8 363 256 364 482 479 362 480 603
8 590 473 365 484 481 363 482 605
8 482 364 257 365 606 483 366 485
8 559 452 367 486 484 365 485 607
8 542 436 487 609 422 324 369 488
8 525 422 488 611 407 311 371 491
8 488 369 489 612 371 261 370 490
8 491 371 490 613 373 263 372 492
8 495 386 276 377 614 503 385 493
8 614 503 385 493 561 457 342 442
8 615 501 383 494 495 386 276 377
8 496 384 274 378 615 501 383 494
8 618 500 382 497 496 384 274 378
8 619 499 381 498 497 382 272 379
8 511 408 297 393 619 499 381 498
8 620 505 387 499 500 388 278 382
8 527 424 312 408 620 505 387 499
8 502 390 506 621 384 280 388 500
8 622 507 389 501 504 392 282 386
8 502 390 280 384 622 507 389 501
8 504 392 282 386 624 509 391 503
8 624 509 391 503 575 468 354 457
8 513 410 299 395 630 527 408 511
8 631 528 411 514 512 409 300 396
8 513 410 528 631 395 299 409 512
8 519 416 305 401 633 530 411 514
8 634 531 412 515 516 413 302 398
8 523 420 309 405 634 531 412 515
8 635 532 413 516 517 414 303 399
8 521 417 533 636 403 306 414 517
8 520 418 307 402 637 534 415 518
8 519 416 534 637 401 305 415 518
8 522 419 308 404 639 537 418 520
8 522 419 536 640 404 308 417 521
8 524 421 310 406 642 539 420 523
8 524 421 541 644 406 310 423 526
8 646 543 422 525 526 423 311 407
8 529 426 314 410 647 544 424 527
8 528 425 545 648 411 315 427 530
8 529 426 545 648 410 314 425 528
8 535 429 317 416 649 546 427 530
8 650 548 430 531 532 432 320 413
8 539 438 325 420 650 548 430 531
8 533 433 550 651 414 321 432 532
8 536 434 551 652 417 322 433 533
8 537 431 319 418 653 547 428 534
8 535 429 547 653 416 317 428 534
8 538 435 552 654 419 323 434 536
8 538 435 323 419 655 549 431 537
8 540 440 327 421 657 556 438 539
8 540 440 557 659 421 327 439 541
8 541 439 555 660 423 326 437 543
8 661 554 436 542 543 437 324 422
8 676 570 452 559 590 473 365 484
8 560 453 338 441 676 570 452 559
8 562 455 340 443 677 571 453 560
8 447 344 459 566 561 457 575 678
8 564 456 341 445 679 573 455 562
8 567 460 345 448 680 572 454 563
8 680 572 454 563 564 456 341 445
8 565 458 576 682 447 344 459 566
8 450 346 461 569 565 458 576 682
8 568 462 347 449 684 578 460 567
8 451 348 462 568 569 461 579 685
8 686 580 463 570 591 474 360 473
8 571 464 350 453 686 580 463 570
8 573 466 352 455 687 581 464 571
8 572 465 582 688 460 357 471 578
8 574 467 582 688 456 353 465 572
8 574 467 353 456 689 583 466 573
8 459 356 470 577 575 468 585 691
8 576 469 586 692 459 356 470 577
8 461 358 472 579 576 469 586 692
8 462 359 471 578 579 472 588 694
8 704 591 473 590 593 475 363 481
8 595 476 592 705 475 361 474 591
8 593 475 363 481 707 594 479 602
8 594 477 362 479 709 598 478 600
8 595 476 361 475 711 597 477 594
8 479 362 480 603 600 478 601 720
8 481 363 482 605 602 479 603 722
8 603 480 364 482 723 604 483 606
8 605 482 365 484 724 606 485 607
8 656 553 608 726 542 436 487 609
8 645 542 609 728 525 422 488 611
8 609 487 610 729 488 369 489 612
8 611 488 612 730 491 371 490 613
8 616 504 386 495 731 624 503 614
8 731 624 503 614 678 575 457 561
8 732 622 501 615 616 504 386 495
8 617 502 384 496 732 622 501 615
8 617 502 621 735 496 384 500 618
8 736 620 499 619 618 500 382 497
8 630 527 408 511 736 620 499 619
8 621 506 626 737 500 388 505 620
8 647 544 424 527 737 626 505 620
8 623 508 627 738 502 390 506 621
8 623 508 390 502 739 628 507 622
8 625 510 628 739 504 392 507 622
8 740 629 509 624 691 585 468 575
8 625 510 392 504 740 629 509 624
8 632 529 410 513 744 647 527 630
8 631 528 648 745 514 411 530 633
8 632 529 648 745 513 410 528 631
8 638 535 416 519 746 649 530 633
8 747 650 531 634 635 532 413 516
8 642 539 420 523 747 650 531 634
8 636 533 651 748 517 414 532 635
8 640 536 652 749 521 417 533 636
8 639 537 418 520 750 653 534 637
8 638 535 653 750 519 416 534 637
8 641 538 419 522 751 655 537 639
8 641 538 654 752 522 419 536 640
8 643 540 421 524 753 657 539 642
8 643 540 659 755 524 421 541 644
8 644 541 660 757 526 423 543 646
8 758 661 542 645 646 543 422 525
8 529 426 544 647 648 545 662 759
8 530 427 545 648 649 546 663 760
8 535 429 546 649 653 547 664 761
8 762 666 548 650 651 550 432 532
8 657 556 438 539 762 666 548 650
8 652 551 668 763 533 433 550 651
8 654 552 669 764 536 434 551 652
8 655 549 431 537 765 665 547 653
8 538 435 549 655 654 552 667 766
8 661 554 671 768 542 436 553 656
8 658 558 440 540 769 674 556 657
8 658 558 675 770 540 440 557 659
8 659 557 673 771 541 439 555 660
8 660 555 672 772 543 437 554 661
8 788 686 570 676 704 591 473 590
8 677 571 453 560 788 686 570 676
8 679 573 455 562 789 687 571 677
8 566 459 577 683 678 575 691 790
8 681 574 456 564 791 689 573 679
8 680 572 688 792 567 460 578 684
8 681 574 688 792 564 456 572 680
8 682 576 692 794 566 459 577 683
8 569 461 579 685 682 576 692 794
8 568 462 578 684 685 579 694 796
8 687 581 464 571 798 696 580 686
8 798 696 580 686 705 592 474 591
8 689 583 466 573 799 697 581 687
8 688 582 698 800 578 471 588 694
8 690 584 698 800 574 467 582 688
8 690 584 467 574 801 699 583 689
8 693 587 701 803 577 470 585 691
8 693 587 470 577 804 702 586 692
8 695 589 702 804 579 472 586 692
8 695 589 472 579 805 703 588 694
8 708 595 705 813 593 475 591 704
8 710 596 706 814 595 476 592 705
8 707 594 479 602 816 709 600 719
8 708 595 475 593 817 711 594 707
8 709 598 478 600 819 715 599 717
8 711 597 477 594 820 714 598 709
8 710 596 476 595 822 713 597 711
8 600 478 601 720 717 599 718 832
8 602 479 603 722 719 600 720 834
8 720 601 480 603 835 721 604 723
8 722 603 482 605 836 723 606 724
8 767 670 725 839 656 553 608 726
8 756 656 726 841 645 542 609 728
8 726 608 727 842 609 487 610 729
8 728 609 729 843 611 488 612 730
8 844 740 624 731 790 691 575 678
8 733 625 504 616 844 740 624 731
8 734 623 502 617 845 739 622 732
8 733 625 739 845 616 504 622 732
8 734 623 738 846 617 502 621 735
8 735 621 737 847 618 500 620 736
8 744 647 527 630 847 737 620 736
8 621 506 627 738 737 626 741 848
8 647 544 626 737 759 662 741 848
8 623 508 628 739 738 627 742 849
8 740 629 585 691 850 743 700 802
8 625 510 629 740 739 628 743 850
8 632 529 647 744 745 648 759 854
8 633 530 648 745 746 649 760 855
8 638 535 649 746 750 653 761 856
8 857 762 650 747 748 651 532 635
8 753 657 539 642 857 762 650 747
8 749 652 763 858 636 533 651 748
8 752 654 764 859 640 536 652 749
8 751 655 537 639 860 765 653 750
8 641 538 655 751 752 654 766 861
8 754 658 540 643 862 769 657 753
8 754 658 770 863 643 540 659 755
8 755 659 771 864 644 541 660 757
8 758 661 768 866 645 542 656 756
8 757 660 772 867 646 543 661 758
8 759 662 773 868 648 545 663 760
8 649 546 663 760 761 664 774 871
8 765 665 547 653 872 775 664 761
8 873 777 666 762 763 668 550 651
8 769 674 556 657 873 777 666 762
8 764 669 779 874 652 551 668 763
8 654 552 667 766 764 669 778 875
8 655 549 665 765 766 667 776 876
8 768 671 782 877 656 553 670 767
8 772 672 783 878 661 554 671 768
8 658 558 674 769 770 675 786 879
8 659 557 675 770 771 673 785 881
8 882 784 672 772 771 673 555 660
8 789 687 571 677 897 798 686 788
8 897 798 686 788 813 705 591 704
8 791 689 573 679 898 799 687 789
8 795 693 803 900 683 577 691 790
8 793 690 574 681 901 801 689 791
8 792 688 800 902 684 578 694 796
8 793 690 800 902 681 574 688 792
8 795 693 577 683 903 804 692 794
8 797 695 804 903 685 579 692 794
8 797 695 579 685 904 805 694 796
8 905 806 697 799 798 696 581 687
8 814 706 806 905 705 592 696 798
8 689 583 697 799 801 699 808 907
8 800 698 809 908 694 588 703 805
8 690 584 699 801 800 698 809 908
8 803 701 810 909 691 585 700 802
8 693 587 702 804 803 701 811 910
8 695 589 703 805 804 702 812 911
8 818 710 814 919 708 595 705 813
8 821 712 815 920 710 596 706 814
8 816 709 600 719 922 819 717 831
8 817 711 594 707 923 820 709 816
8 818 710 595 708 924 822 711 817
8 819 715 599 717 926 827 716 829
8 820 714 598 709 927 826 715 819
8 929 825 713 822 820 714 597 711
8 821 712 596 710 930 824 713 822
8 717 599 718 832 829 716 830 942
8 719 600 720 834 831 717 832 944
8 832 718 601 720 945 833 721 835
8 834 720 603 722 946 835 723 836
8 869 780 838 950 767 670 725 839
8 865 767 839 952 756 656 726 841
8 839 725 840 953 726 608 727 842
8 841 726 842 954 728 609 729 843
8 844 740 691 790 955 850 802 899
8 733 625 740 844 845 739 850 955
8 734 623 739 845 846 738 849 956
8 735 621 738 846 847 737 848 957
8 744 647 737 847 854 759 848 957
8 738 627 742 849 848 741 851 958
8 848 741 851 958 759 662 773 868
8 850 743 700 802 959 852 807 906
8 849 742 628 739 959 852 743 850
8 854 759 868 965 745 648 760 855
8 746 649 760 855 856 761 871 966
8 860 765 653 750 967 872 761 856
8 968 873 762 857 858 763 651 748
8 862 769 657 753 968 873 762 857
8 859 764 874 969 749 652 763 858
8 752 654 766 861 859 764 875 970
8 751 655 765 860 861 766 876 971
8 754 658 769 862 863 770 879 972
8 755 659 770 863 864 771 881 974
8 976 882 772 867 864 771 660 757
8 866 768 877 977 756 656 767 865
8 867 772 878 978 758 661 768 866
8 760 663 773 868 871 774 883 980
8 870 781 837 948 982 890 780 869
8 982 890 780 869 877 782 670 767
8 761 664 774 871 872 775 884 984
8 876 776 665 765 985 885 775 872
8 873 777 668 763 986 887 779 874
8 769 674 777 873 879 786 887 986
8 764 669 778 875 874 779 888 987
8 766 667 776 876 875 778 886 988
8 878 783 892 989 768 671 782 877
8 878 783 672 772 990 893 784 882
8 880 787 675 770 991 896 786 879
8 880 787 895 992 770 675 785 881
8 881 785 894 993 771 673 784 882
8 1006 905 799 898 897 798 687 789
8 919 814 905 1006 813 705 798 897
8 791 689 799 898 901 801 907 1007
8 900 803 909 1009 790 691 802 899
8 795 693 804 903 900 803 910 1010
8 902 800 908 1011 796 694 805 904
8 793 690 801 901 902 800 908 1011
8 797 695 805 904 903 804 911 1012
8 799 697 806 905 907 808 912 1013
8 920 815 912 1013 814 706 806 905
8 802 700 810 909 906 807 913 1014
8 801 699 808 907 908 809 914 1015
8 805 703 809 908 911 812 915 1016
8 803 701 811 910 909 810 916 1017
8 911 812 917 1018 804 702 811 910
8 925 821 920 1030 818 710 814 919
8 928 823 921 1031 821 712 815 920
8 922 819 717 831 1033 926 829 941
8 923 820 709 816 1034 927 819 922
8 1035 929 822 924 923 820 711 817
8 925 821 710 818 1036 930 822 924
8 1038 933 825 929 927 826 714 820
8 926 827 716 829 1039 935 828 939
8 927 826 715 819 1040 934 827 926
8 928 823 712 821 1041 931 824 930
8 1042 932 824 930 929 825 713 822
8 829 716 830 942 939 828 940 1058
8 831 717 832 944 941 829 942 1060
8 942 830 718 832 1061 943 833 945
8 944 832 720 834 1062 945 835 946
8 981 889 947 1064 870 781 837 948
8 948 837 949 1067 869 780 838 950
8 975 869 950 1069 865 767 839 952
8 950 838 951 1070 839 725 840 953
8 952 839 953 1071 841 726 842 954
8 955 850 802 899 1072 959 906 1008
8 956 849 739 845 1072 959 850 955
8 846 738 849 956 957 848 958 1073
8 957 848 958 1073 854 759 868 965
8 849 742 852 959 958 851 961 1076
8 960 853 961 1076 906 807 852 959
8 958 851 961 1076 868 773 883 980
8 960 853 807 906 1077 963 913 1014
8 855 760 868 965 966 871 980 1085
8 856 761 871 966 967 872 984 1086
8 971 876 765 860 1087 985 872 967
8 968 873 763 858 1088 986 874 969
8 862 769 873 968 972 879 986 1088
8 859 764 875 970 969 874 987 1089
8 861 766 876 971 970 875 988 1090
8 973 880 770 863 1091 991 879 972
8 973 880 992 1092 863 770 881 974
8 974 881 993 1093 864 771 882 976
8 979 870 948 1066 1094 982 869 975
8 1094 982 869 975 977 877 767 865
8 978 878 772 867 1095 990 882 976
8 978 878 989 1096 866 768 877 977
8 871 774 883 980 984 884 994 1099
8 983 891 999 1100 870 781 889 981
8 1101 1000 890 982 989 892 782 877
8 983 891 781 870 1101 1000 890 982
8 872 775 884 984 985 885 995 1103
8 876 776 885 985 988 886 996 1104
8 986 887 779 874 1105 998 888 987
8 879 786 887 986 991 896 998 1105
8 875 778 886 988 987 888 997 1106
8 990 893 1002 1107 878 783 892 989
8 1108 1003 893 990 993 894 784 882
8 880 787 896 991 992 895 1005 1109
8 993 894 785 881 1110 1004 895 992
8 898 799 905 1006 1007 907 1013 1120
8 1030 920 1013 1120 919 814 905 1006
8 901 801 907 1007 1011 908 1015 1121
8 899 802 909 1009 1008 906 1014 1122
8 900 803 910 1010 1009 909 1017 1123
8 1012 911 1018 1124 903 804 910 1010
8 904 805 908 1011 1012 911 1016 1125
8 1013 912 1020 1127 907 808 914 1015
8 1031 921 1020 1127 920 815 912 1013
8 1019 918 962 1075 1128 1021 913 1014
8 1128 1021 913 1014 1017 916 810 909
8 1015 914 1022 1129 908 809 915 1016
8 1016 915 1023 1130 911 812 917 1018
8 1018 917 1024 1131 910 811 916 1017
8 1037 928 1031 1148 925 821 920 1030
8 928 823 931 1041 1031 921 1032 1149
8 1033 926 829 941 1151 1039 939 1057
8 1034 927 819 922 1152 1040 926 1033
8 1153 1038 929 1035 1034 927 820 923
8 1154 1042 930 1036 1035 929 822 924
8 1037 928 821 925 1155 1041 930 1036
8 1039 935 828 939 1156 1047 938 1055
8 1157 1043 932 1042 1038 933 825 929
8 1038 933 826 927 1158 1045 934 1040
8 1040 934 827 926 1159 1046 935 1039
8 930 824 932 1042 1041 931 1044 1160
8 1051 936 1048 1165 1175 1052 937 1053
8 1156 1047 938 1055 1053 937 1054 1178
8 939 828 940 1058 1055 938 1056 1181
8 941 829 942 1060 1057 939 1058 1183
8 942 830 943 1061 1058 940 1059 1184
8 1060 942 832 944 1185 1061 945 1062
8 1082 964 1063 1188 981 889 947 1064
8 1097 981 1064 1190 979 870 948 1066
8 1064 947 1065 1191 948 837 949 1067
8 1066 948 1067 1193 975 869 950 1069
8 1067 949 1068 1194 950 838 951 1070
8 1069 950 1070 1195 952 839 953 1071
8 956 849 959 1072 1073 958 1076 1197
8 1074 960 1076 1197 1008 906 959 1072
8 1073 958 1076 1197 965 868 980 1085
8 1074 960 906 1008 1198 1077 1014 1122
8 1133 1026 1079 1199 1019 918 962 1075
8 1077 963 913 1014 1200 1080 962 1075
8 960 853 963 1077 1076 961 1078 1201
8 980 883 961 1076 1099 994 1078 1201
8 1210 1083 964 1082 1100 999 889 981
8 966 871 980 1085 1086 984 1099 1215
8 967 872 984 1086 1087 985 1103 1216
8 971 876 985 1087 1090 988 1104 1217
8 1088 986 874 969 1218 1105 987 1089
8 972 879 986 1088 1091 991 1105 1218
8 970 875 988 1090 1089 987 1106 1219
8 973 880 991 1091 1092 992 1109 1220
8 1093 993 881 974 1221 1110 992 1092
8 1222 1108 990 1095 1093 993 882 976
8 1223 1101 982 1094 1096 989 877 977
8 1098 983 870 979 1223 1101 982 1094
8 1095 990 1107 1224 978 878 989 1096
8 1098 983 1100 1225 979 870 981 1097
8 984 884 994 1099 1103 995 1111 1227
8 1102 1001 1115 1228 983 891 999 1100
8 1101 1000 892 989 1229 1116 1002 1107
8 1102 1001 891 983 1229 1116 1000 1101
8 985 885 995 1103 1104 996 1112 1230
8 988 886 996 1104 1106 997 1113 1231
8 1105 998 888 987 1232 1114 997 1106
8 991 896 998 1105 1109 1005 1114 1232
8 1108 1003 1117 1233 990 893 1002 1107
8 1108 1003 894 993 1233 1117 1004 1110
8 992 895 1005 1109 1110 1004 1118 1234
8 1120 1013 1127 1244 1007 907 1015 1121
8 1148 1031 1127 1244 1030 920 1013 1120
8 1121 1015 1129 1245 1011 908 1016 1125
8 1126 1019 1075 1196 1246 1128 1014 1122
8 1246 1128 1014 1122 1123 1017 909 1009
8 1124 1018 1131 1247 1010 910 1017 1123
8 1125 1016 1130 1248 1012 911 1018 1124
8 1127 1020 1137 1254 1015 914 1022 1129
8 1031 921 1032 1149 1127 1020 1137 1254
8 1134 1027 918 1019 1257 1140 1021 1128
8 1257 1140 1021 1128 1131 1024 916 1017
8 1129 1022 1141 1258 1016 915 1023 1130
8 1130 1023 1142 1259 1018 917 1024 1131
8 1261 1144 1025 1132 1133 1026 1079 1199
8 1255 1138 1025 1132 1135 1028 1144 1261
8 1133 1026 918 1019 1262 1145 1027 1134
8 1136 1029 1139 1256 1263 1146 1028 1135
8 1037 928 1041 1155 1148 1031 1149 1275
8 1041 931 1044 1160 1149 1032 1150 1276
8 1151 1039 939 1057 1278 1156 1055 1180
8 1152 1040 926 1033 1279 1159 1039 1151
8 1153 1038 927 1034 1280 1158 1040 1152
8 1281 1157 1042 1154 1153 1038 929 1035
8 1036 930 1042 1154 1155 1041 1160 1282
8 1283 1164 1046 1159 1156 1047 935 1039
8 1165 1048 1164 1283 1053 937 1047 1156
8 1157 1043 933 1038 1284 1161 1045 1158
8 1157 1043 1161 1284 1042 932 1044 1160
8 1040 934 1046 1159 1158 1045 1163 1285
8 1166 1049 1167 1292 1051 936 1048 1165
8 1166 1049 936 1051 1293 1168 1050 1172
8 1051 936 1052 1175 1172 1050 1173 1306
8 1174 1051 1165 1290 1308 1175 1053 1177
8 1053 937 1054 1178 1175 1052 1176 1309
8 1278 1156 1055 1180 1177 1053 1178 1311
8 1055 938 1056 1181 1178 1054 1179 1312
8 1057 939 1058 1183 1180 1055 1181 1314
8 1058 940 1059 1184 1181 1056 1182 1315
8 1060 942 1061 1185 1183 1058 1184 1316
8 1208 1081 1187 1321 1082 964 1063 1188
8 1209 1082 1188 1322 1097 981 1064 1190
8 1188 1063 1189 1323 1064 947 1065 1191
8 1190 1064 1191 1325 1066 948 1067 1193
8 1191 1065 1192 1326 1067 949 1068 1194
8 1067 1193 1069 950 1194 1327 1195 1070
8 1250 1133 1199 1330 1126 1019 1075 1196
8 1198 1077 1014 1122 1331 1200 1075 1196
8 1074 960 1077 1198 1197 1076 1201 1332
8 1085 980 1076 1197 1215 1099 1201 1332
8 1199 1079 1203 1333 1075 962 1080 1200
8 1132 1025 1119 1243 1199 1079 1203 1333
8 1201 1078 963 1077 1334 1202 1080 1200
8 1099 994 1078 1201 1227 1111 1202 1334
8 1343 1207 1081 1208 1210 1083 964 1082
8 1214 1084 1186 1319 1343 1207 1081 1208
8 1345 1210 1082 1209 1225 1100 981 1097
8 1346 1211 1083 1210 1228 1115 999 1100
8 1086 984 1099 1215 1216 1103 1227 1352
8 1087 985 1103 1216 1217 1104 1230 1353
8 1090 988 1104 1217 1219 1106 1231 1354
8 1218 1105 987 1089 1355 1232 1106 1219
8 1091 991 1105 1218 1220 1109 1232 1355
8 1092 992 1109 1220 1221 1110 1234 1356
8 1222 1108 1233 1357 1095 990 1107 1224
8 1222 1108 993 1093 1357 1233 1110 1221
8 1223 1101 989 1096 1358 1229 1107 1224
8 1226 1102 983 1098 1358 1229 1101 1223
8 1226 1102 1228 1359 1098 983 1100 1225
8 1103 995 1111 1227 1230 1112 1235 1360
8 1107 1002 1117 1233 1229 1116 1240 1362
8 1102 1001 1116 1229 1228 1115 1240 1362
8 1104 996 1112 1230 1231 1113 1236 1363
8 1364 1237 1114 1232 1231 1113 997 1106
8 1109 1005 1114 1232 1234 1118 1238 1365
8 1110 1004 1118 1234 1233 1117 1241 1366
8 1242 1374 1255 1138 1119 1243 1132 1025
8 1244 1127 1254 1376 1121 1015 1129 1245
8 1148 1031 1149 1275 1244 1127 1254 1376
8 1245 1129 1258 1377 1125 1016 1130 1248
8 1251 1134 1019 1126 1378 1257 1128 1246
8 1378 1257 1128 1246 1247 1131 1017 1123
8 1248 1130 1259 1379 1124 1018 1131 1247
8 1261 1381 1250 1133 1132 1249 1330 1199
8 1255 1380 1252 1135 1132 1249 1381 1261
8 1250 1133 1019 1126 1382 1262 1134 1251
8 1253 1136 1256 1385 1384 1263 1135 1252
8 1254 1137 1265 1387 1129 1022 1141 1258
8 1149 1032 1150 1276 1254 1137 1265 1387
8 1028 1135 1255 1138 1139 1256 1388 1266
8 1136 1029 1147 1264 1256 1139 1267 1389
8 1390 1268 1140 1257 1259 1142 1024 1131
8 1260 1143 1027 1134 1390 1268 1140 1257
8 1258 1141 1269 1391 1130 1023 1142 1259
8 1262 1145 1027 1134 1393 1271 1143 1260
8 1261 1144 1026 1133 1394 1272 1145 1262
8 1135 1028 1144 1261 1263 1146 1272 1394
8 1136 1029 1146 1263 1264 1147 1273 1395
8 1155 1041 1160 1282 1275 1149 1276 1405
8 1276 1150 1044 1160 1406 1277 1162 1286
8 1408 1283 1159 1279 1278 1156 1039 1151
8 1290 1165 1283 1408 1177 1053 1156 1278
8 1152 1040 1159 1279 1280 1158 1285 1409
8 1281 1157 1038 1153 1410 1284 1158 1280
8 1281 1157 1284 1410 1154 1042 1160 1282
8 1159 1046 1164 1283 1285 1163 1289 1412
8 1292 1167 1289 1412 1165 1048 1164 1283
8 1158 1045 1163 1285 1284 1161 1288 1413
8 1284 1161 1288 1413 1160 1044 1162 1286
8 1291 1166 1292 1418 1174 1051 1165 1290
8 1291 1166 1051 1174 1419 1293 1172 1305
8 1294 1169 1296 1421 1166 1049 1167 1292
8 1293 1168 1050 1172 1422 1295 1171 1303
8 1294 1169 1049 1166 1423 1297 1168 1293
8 1422 1295 1171 1303 1301 1170 1302 1435
8 1172 1050 1173 1306 1303 1171 1304 1438
8 1174 1051 1175 1308 1305 1172 1306 1440
8 1175 1052 1176 1309 1306 1173 1307 1441
8 1177 1053 1178 1311 1308 1175 1309 1443
8 1178 1054 1179 1312 1309 1176 1310 1444
8 1180 1055 1181 1314 1311 1178 1312 1446
8 1056 1181 1312 1179 1182 1315 1447 1313
8 1183 1058 1184 1316 1314 1181 1315 1448
8 1319 1186 1084 1214 1451 1317 1213 1350
8 1319 1186 1318 1453 1208 1081 1187 1321
8 1321 1187 1320 1456 1188 1063 1189 1323
8 1344 1208 1321 1457 1209 1082 1188 1322
8 1322 1188 1323 1458 1190 1064 1191 1325
8 1323 1189 1324 1459 1191 1065 1192 1326
8 1191 1325 1193 1067 1326 1460 1327 1194
8 1242 1374 1243 1119 1328 1462 1335 1204
8 1330 1199 1333 1465 1196 1075 1200 1331
8 1132 1249 1330 1199 1243 1375 1465 1333
8 1332 1201 1077 1198 1466 1334 1200 1331
8 1215 1099 1201 1332 1352 1227 1334 1466
8 1119 1243 1333 1203 1204 1335 1470 1338
8 1333 1203 1338 1470 1200 1080 1202 1334
8 1227 1111 1202 1334 1360 1235 1338 1470
8 1328 1462 1335 1204 1205 1336 1471 1339
8 1337 1206 1340 1472 1464 1329 1205 1336
8 1346 1211 1342 1479 1210 1083 1207 1343
8 1346 1211 1115 1228 1479 1342 1239 1361
8 1348 1212 1084 1214 1479 1342 1207 1343
8 1480 1343 1208 1344 1345 1210 1082 1209
8 1351 1214 1319 1454 1480 1343 1208 1344
8 1481 1346 1210 1345 1359 1228 1100 1225
8 1348 1212 1347 1483 1214 1084 1213 1350
8 1216 1103 1227 1352 1353 1230 1360 1488
8 1217 1104 1230 1353 1354 1231 1363 1489
8 1490 1364 1232 1355 1354 1231 1106 1219
8 1220 1109 1232 1355 1356 1234 1365 1491
8 1221 1110 1234 1356 1357 1233 1366 1492
8 1224 1107 1233 1357 1358 1229 1362 1493
8 1226 1102 1229 1358 1359 1228 1362 1493
8 1230 1112 1235 1360 1363 1236 1367 1496
8 1361 1239 1115 1228 1497 1371 1240 1362
8 1366 1241 1372 1498 1233 1117 1240 1362
8 1364 1237 1113 1231 1499 1368 1236 1363
8 1364 1237 1368 1499 1232 1114 1238 1365
8 1234 1118 1238 1365 1366 1241 1369 1500
8 1507 1373 1242 1374 1388 1266 1138 1255
8 1508 1374 1243 1375 1380 1255 1132 1249
8 1376 1254 1387 1509 1245 1129 1258 1377
8 1275 1149 1276 1405 1376 1254 1387 1509
8 1377 1258 1391 1510 1248 1130 1259 1379
8 1511 1390 1257 1378 1379 1259 1131 1247
8 1383 1260 1134 1251 1511 1390 1257 1378
8 1252 1135 1256 1385 1380 1255 1388 1512
8 1261 1381 1513 1394 1133 1250 1382 1262
8 1135 1252 1384 1263 1261 1381 1513 1394
8 1382 1262 1134 1251 1514 1393 1260 1383
8 1253 1136 1263 1384 1386 1264 1395 1516
8 1253 1136 1264 1386 1385 1256 1389 1517
8 1387 1265 1397 1519 1258 1141 1269 1391
8 1276 1150 1277 1406 1387 1265 1397 1519
8 1256 1139 1267 1389 1388 1266 1398 1520
8 1264 1147 1274 1396 1389 1267 1399 1521
8 1392 1270 1143 1260 1522 1400 1268 1390
8 1390 1268 1142 1259 1522 1400 1269 1391
8 1392 1270 1401 1523 1260 1143 1271 1393
8 1272 1394 1524 1402 1145 1262 1393 1271
8 1395 1273 1146 1263 1524 1402 1272 1394
8 1273 1395 1264 1147 1403 1526 1396 1274
8 1405 1276 1160 1282 1534 1406 1286 1411
8 1414 1287 1407 1535 1286 1162 1277 1406
8 1279 1159 1283 1408 1409 1285 1412 1537
8 1418 1292 1412 1537 1290 1165 1283 1408
8 1280 1158 1285 1409 1410 1284 1413 1538
8 1410 1284 1413 1538 1282 1160 1286 1411
8 1285 1163 1289 1412 1413 1288 1417 1540
8 1421 1296 1417 1540 1292 1167 1289 1412
8 1414 1287 1162 1286 1541 1416 1288 1413
8 1420 1294 1421 1545 1291 1166 1292 1418
8 1419 1293 1172 1305 1546 1422 1303 1437
8 1420 1294 1166 1291 1547 1423 1293 1419
8 1294 1169 1297 1423 1421 1296 1425 1548
8 1423 1297 1168 1293 1549 1424 1295 1422
8 1301 1170 1298 1427 1422 1295 1424 1549
8 1432 1300 1428 1554 1301 1170 1298 1427
8 1431 1299 1428 1554 1560 1430 1300 1432
8 1563 1433 1300 1432 1435 1302 1170 1301
8 1546 1422 1303 1437 1434 1301 1435 1565
8 1303 1171 1304 1438 1435 1302 1436 1566
8 1305 1172 1306 1440 1437 1303 1438 1568
8 1306 1173 1307 1441 1438 1304 1439 1569
8 1308 1175 1309 1443 1440 1306 1441 1571
8 1309 1176 1310 1444 1441 1307 1442 1572
8 1311 1178 1312 1446 1443 1309 1444 1574
8 1179 1312 1444 1310 1313 1447 1575 1445
8 1314 1181 1315 1448 1446 1312 1447 1576
8 1350 1213 1349 1486 1451 1317 1449 1579
8 1451 1317 1450 1581 1319 1186 1318 1453
8 1454 1319 1214 1351 1582 1451 1350 1487
8 1453 1318 1452 1584 1321 1187 1320 1456
8 1454 1319 1453 1585 1344 1208 1321 1457
8 1456 1320 1455 1586 1323 1189 1324 1459
8 1457 1321 1456 1587 1322 1188 1323 1458
8 1458 1323 1459 1588 1325 1191 1326 1460
8 1205 1336 1464 1329 1328 1462 1590 1461
8 1507 1373 1461 1590 1374 1242 1328 1462
8 1508 1374 1462 1591 1375 1243 1335 1467
8 1337 1206 1329 1464 1473 1341 1463 1594
8 1375 1243 1335 1467 1465 1333 1470 1596
8 1465 1333 1470 1596 1331 1200 1334 1466
8 1352 1227 1334 1466 1488 1360 1470 1596
8 1591 1462 1336 1468 1467 1335 1471 1597
8 1469 1337 1472 1598 1595 1464 1336 1468
8 1471 1339 1474 1600 1335 1204 1338 1470
8 1600 1474 1367 1496 1470 1338 1235 1360
8 1336 1205 1340 1472 1471 1339 1475 1601
8 1337 1206 1341 1473 1472 1340 1476 1602
8 1495 1370 1478 1609 1361 1239 1342 1479
8 1348 1212 1342 1479 1483 1347 1478 1609
8 1481 1346 1479 1610 1345 1210 1343 1480
8 1481 1346 1228 1359 1610 1479 1361 1494
8 1484 1348 1214 1351 1610 1479 1343 1480
8 1483 1347 1482 1612 1350 1213 1349 1486
8 1484 1348 1483 1613 1351 1214 1350 1487
8 1353 1230 1360 1488 1489 1363 1496 1616
8 1490 1364 1231 1354 1617 1499 1363 1489
8 1490 1364 1499 1617 1355 1232 1365 1491
8 1356 1234 1365 1491 1492 1366 1500 1619
8 1492 1366 1498 1620 1357 1233 1362 1493
8 1494 1361 1228 1359 1621 1497 1362 1493
8 1495 1370 1239 1361 1622 1504 1371 1497
8 1363 1236 1367 1496 1499 1368 1501 1623
8 1497 1371 1240 1362 1624 1505 1372 1498
8 1625 1503 1372 1498 1500 1369 1241 1366
8 1365 1238 1368 1499 1500 1369 1502 1626
8 1520 1398 1506 1633 1388 1266 1373 1507
8 1634 1507 1374 1508 1512 1388 1255 1380
8 1509 1387 1519 1635 1377 1258 1391 1510
8 1405 1276 1406 1534 1509 1387 1519 1635
8 1515 1392 1260 1383 1636 1522 1390 1511
8 1511 1390 1259 1379 1636 1522 1391 1510
8 1385 1256 1389 1517 1512 1388 1520 1637
8 1513 1394 1262 1382 1638 1524 1393 1514
8 1395 1516 1638 1524 1263 1384 1513 1394
8 1515 1392 1523 1639 1383 1260 1393 1514
8 1516 1395 1526 1640 1386 1264 1396 1518
8 1386 1264 1396 1518 1517 1389 1521 1641
8 1519 1397 1527 1643 1391 1269 1400 1522
8 1535 1407 1527 1643 1406 1277 1397 1519
8 1389 1267 1399 1521 1520 1398 1528 1644
8 1645 1529 1399 1521 1525 1404 1274 1396
8 1392 1270 1400 1522 1523 1401 1531 1646
8 1524 1402 1271 1393 1648 1532 1401 1523
8 1403 1526 1648 1532 1273 1395 1524 1402
8 1525 1404 1274 1396 1649 1533 1403 1526
8 1539 1414 1535 1657 1411 1286 1406 1534
8 1542 1415 1536 1658 1414 1287 1407 1535
8 1409 1285 1412 1537 1538 1413 1540 1660
8 1545 1421 1540 1660 1418 1292 1412 1537
8 1539 1414 1286 1411 1661 1541 1413 1538
8 1540 1417 1544 1663 1413 1288 1416 1541
8 1421 1296 1425 1548 1540 1417 1544 1663
8 1542 1415 1287 1414 1664 1543 1416 1541
8 1420 1294 1423 1547 1545 1421 1548 1666
8 1547 1423 1293 1419 1667 1549 1422 1546
8 1434 1301 1427 1553 1546 1422 1549 1667
8 1423 1297 1424 1549 1548 1425 1550 1668
8 1551 1426 1550 1668 1427 1298 1424 1549
8 1551 1426 1298 1427 1671 1552 1428 1554
8 1562 1432 1554 1674 1434 1301 1427 1553
8 1431 1299 1429 1558 1554 1428 1555 1675
8 1431 1299 1430 1560 1558 1429 1557 1680
8 1560 1430 1300 1432 1683 1559 1433 1563
8 1561 1431 1554 1674 1684 1560 1432 1562
8 1685 1563 1432 1562 1565 1435 1301 1434
8 1435 1302 1436 1566 1563 1433 1564 1686
8 1437 1303 1438 1568 1565 1435 1566 1688
8 1438 1304 1439 1569 1566 1436 1567 1689
8 1440 1306 1441 1571 1568 1438 1569 1691
8 1441 1307 1442 1572 1569 1439 1570 1692
8 1443 1309 1444 1574 1571 1441 1572 1694
8 1310 1444 1572 1442 1445 1575 1695 1573
8 1446 1312 1447 1576 1574 1444 1575 1696
8 1486 1349 1485 1614 1579 1449 1577 1699
8 1451 1317 1449 1579 1581 1450 1578 1701
8 1487 1350 1486 1615 1582 1451 1579 1702
8 1581 1450 1580 1704 1453 1318 1452 1584
8 1582 1451 1581 1705 1454 1319 1453 1585
8 1584 1452 1583 1706 1456 1320 1455 1586
8 1585 1453 1584 1707 1457 1321 1456 1587
8 1587 1456 1586 1708 1458 1323 1459 1588
8 1633 1506 1589 1710 1507 1373 1461 1590
8 1464 1329 1461 1590 1594 1463 1589 1710
8 1468 1336 1462 1591 1595 1464 1590 1711
8 1634 1507 1590 1711 1508 1374 1462 1591
8 1473 1341 1463 1594 1603 1477 1593 1716
8 1469 1337 1464 1595 1599 1473 1594 1717
8 1471 1597 1467 1335 1600 1718 1596 1470
8 1718 1600 1496 1616 1596 1470 1360 1488
8 1336 1468 1597 1471 1472 1598 1719 1601
8 1469 1337 1473 1599 1598 1472 1602 1720
8 1722 1604 1501 1623 1600 1474 1367 1496
8 1475 1601 1471 1339 1604 1722 1600 1474
8 1602 1476 1605 1723 1472 1340 1475 1601
8 1476 1602 1724 1606 1341 1473 1603 1477
8 1483 1347 1478 1609 1612 1482 1608 1731
8 1495 1370 1504 1622 1609 1478 1608 1731
8 1618 1495 1609 1732 1494 1361 1479 1610
8 1484 1348 1479 1610 1613 1483 1609 1732
8 1486 1349 1482 1612 1614 1485 1611 1733
8 1613 1483 1612 1734 1487 1350 1486 1615
8 1489 1363 1496 1616 1617 1499 1623 1736
8 1491 1365 1499 1617 1619 1500 1626 1737
8 1618 1495 1361 1494 1738 1622 1497 1621
8 1739 1625 1498 1620 1619 1500 1366 1492
8 1621 1497 1362 1493 1740 1624 1498 1620
8 1742 1631 1504 1622 1624 1505 1371 1497
8 1743 1628 1502 1626 1623 1501 1368 1499
8 1744 1630 1505 1624 1625 1503 1372 1498
8 1745 1629 1503 1625 1626 1502 1369 1500
8 1520 1398 1528 1644 1633 1506 1632 1751
8 1637 1520 1633 1752 1512 1388 1507 1634
8 1635 1519 1643 1753 1510 1391 1522 1636
8 1657 1535 1643 1753 1534 1406 1519 1635
8 1515 1392 1522 1636 1639 1523 1646 1754
8 1517 1389 1521 1641 1637 1520 1644 1755
8 1524 1638 1756 1648 1393 1514 1639 1523
8 1640 1526 1395 1516 1756 1648 1524 1638
8 1642 1525 1396 1518 1757 1649 1526 1640
8 1758 1645 1521 1641 1642 1525 1396 1518
8 1646 1531 1400 1522 1760 1650 1527 1643
8 1535 1407 1536 1658 1643 1527 1650 1760
8 1521 1399 1529 1645 1644 1528 1651 1761
8 1647 1530 1652 1762 1525 1404 1529 1645
8 1401 1523 1648 1532 1531 1646 1763 1655
8 1525 1404 1533 1649 1647 1530 1654 1765
8 1533 1649 1766 1656 1403 1526 1648 1532
8 1662 1542 1658 1774 1539 1414 1535 1657
8 1542 1415 1543 1664 1658 1536 1659 1775
8 1660 1540 1663 1777 1538 1413 1541 1661
8 1545 1421 1548 1666 1660 1540 1663 1777
8 1662 1542 1414 1539 1778 1664 1541 1661
8 1664 1543 1416 1541 1779 1665 1544 1663
8 1548 1425 1550 1668 1663 1544 1665 1779
8 1547 1423 1549 1667 1666 1548 1668 1781
8 1670 1551 1668 1781 1553 1427 1549 1667
8 1551 1426 1552 1671 1668 1550 1669 1782
8 1670 1551 1427 1553 1784 1671 1554 1674
8 1675 1555 1672 1785 1554 1428 1552 1671
8 1678 1556 1673 1789 1558 1429 1555 1675
8 1561 1431 1558 1681 1674 1554 1675 1790
8 1794 1677 1556 1678 1680 1557 1429 1558
8 1560 1430 1559 1683 1680 1557 1679 1797
8 1561 1431 1560 1684 1681 1558 1680 1798
8 1563 1433 1564 1686 1683 1559 1682 1800
8 1684 1560 1432 1562 1801 1683 1563 1685
8 1565 1435 1566 1688 1685 1563 1686 1802
8 1566 1436 1567 1689 1686 1564 1687 1803
8 1568 1438 1569 1691 1688 1566 1689 1805
8 1569 1439 1570 1692 1689 1567 1690 1806
8 1571 1441 1572 1694 1691 1569 1692 1808
8 1442 1572 1692 1570 1573 1695 1809 1693
8 1574 1444 1575 1696 1694 1572 1695 1810
8 1614 1485 1592 1712 1699 1577 1697 1813
8 1579 1449 1577 1699 1701 1578 1698 1815
8 1615 1486 1614 1735 1702 1579 1699 1816
8 1701 1578 1700 1818 1581 1450 1580 1704
8 1582 1451 1579 1702 1705 1581 1701 1819
8 1704 1580 1703 1820 1584 1452 1583 1706
8 1705 1581 1704 1821 1585 1453 1584 1707
8 1707 1584 1706 1822 1587 1456 1586 1708
8 1710 1589 1506 1633 1824 1709 1632 1751
8 1594 1463 1589 1710 1716 1593 1709 1824
8 1752 1633 1710 1825 1634 1507 1590 1711
8 1595 1464 1590 1711 1717 1594 1710 1825
8 1830 1714 1592 1712 1733 1611 1485 1614
8 1603 1477 1593 1716 1725 1607 1715 1834
8 1599 1473 1594 1717 1721 1603 1716 1835
8 1837 1722 1623 1736 1718 1600 1496 1616
8 1719 1601 1722 1837 1597 1471 1600 1718
8 1602 1720 1598 1472 1723 1838 1719 1601
8 1720 1602 1473 1599 1839 1724 1603 1721
8 1723 1605 1726 1840 1601 1475 1604 1722
8 1840 1726 1628 1743 1722 1604 1501 1623
8 1724 1606 1727 1841 1602 1476 1605 1723
8 1725 1607 1728 1842 1603 1477 1606 1724
8 1612 1482 1608 1731 1733 1611 1730 1849
8 1741 1627 1730 1849 1622 1504 1608 1731
8 1613 1483 1609 1732 1734 1612 1731 1850
8 1618 1495 1622 1738 1732 1609 1731 1850
8 1615 1486 1612 1734 1735 1614 1733 1851
8 1852 1743 1626 1737 1736 1623 1499 1617
8 1853 1745 1625 1739 1737 1626 1500 1619
8 1855 1742 1622 1738 1740 1624 1497 1621
8 1856 1744 1624 1740 1739 1625 1498 1620
8 1741 1627 1504 1622 1857 1746 1631 1742
8 1742 1631 1505 1624 1858 1749 1630 1744
8 1859 1747 1629 1745 1743 1628 1502 1626
8 1860 1748 1630 1744 1745 1629 1503 1625
8 1644 1528 1651 1761 1751 1632 1750 1865
8 1637 1520 1644 1755 1752 1633 1751 1866
8 1754 1646 1522 1636 1867 1760 1643 1753
8 1657 1535 1658 1774 1753 1643 1760 1867
8 1639 1523 1646 1754 1756 1648 1763 1868
8 1641 1521 1645 1758 1755 1644 1761 1869
8 1757 1649 1526 1640 1870 1766 1648 1756
8 1642 1525 1649 1757 1759 1647 1765 1871
8 1759 1647 1762 1872 1642 1525 1645 1758
8 1760 1650 1767 1874 1646 1531 1655 1763
8 1658 1536 1659 1775 1760 1650 1767 1874
8 1762 1652 1768 1875 1645 1529 1651 1761
8 1764 1653 1769 1876 1647 1530 1652 1762
8 1656 1766 1877 1773 1532 1648 1763 1655
8 1771 1879 1765 1654 1653 1764 1647 1530
8 1533 1649 1765 1654 1656 1766 1880 1772
8 1662 1542 1664 1778 1774 1658 1775 1887
8 1664 1543 1665 1779 1775 1659 1776 1888
8 1778 1664 1541 1661 1890 1779 1663 1777
8 1666 1548 1668 1781 1777 1663 1779 1890
8 1782 1669 1780 1891 1668 1550 1665 1779
8 1670 1551 1671 1784 1781 1668 1782 1893
8 1671 1552 1672 1785 1782 1669 1783 1894
8 1790 1675 1785 1896 1674 1554 1671 1784
8 1675 1555 1673 1789 1785 1672 1786 1897
8 1792 1676 1788 1903 1678 1556 1673 1789
8 1795 1678 1789 1904 1681 1558 1675 1790
8 1792 1676 1556 1678 1906 1791 1677 1794
8 1680 1557 1679 1797 1794 1677 1793 1909
8 1910 1794 1678 1795 1798 1680 1558 1681
8 1683 1559 1682 1800 1797 1679 1796 1912
8 1684 1560 1683 1801 1798 1680 1797 1913
8 1686 1564 1687 1803 1800 1682 1799 1915
8 1685 1563 1686 1802 1801 1683 1800 1916
8 1688 1566 1689 1805 1802 1686 1803 1917
8 1689 1567 1690 1806 1803 1687 1804 1918
8 1691 1569 1692 1808 1805 1689 1806 1920
8 1692 1570 1693 1809 1806 1690 1807 1921
8 1694 1572 1695 1810 1808 1692 1809 1922
8 1829 1713 1811 1926 1712 1592 1697 1813
8 1813 1697 1812 1928 1699 1577 1698 1815
8 1735 1614 1712 1828 1816 1699 1813 1929
8 1815 1698 1814 1931 1701 1578 1700 1818
8 1702 1579 1699 1816 1819 1701 1815 1932
8 1818 1700 1817 1933 1704 1580 1703 1820
8 1819 1701 1818 1934 1705 1581 1704 1821
8 1821 1704 1820 1935 1707 1584 1706 1822
8 1824 1709 1632 1751 1937 1823 1750 1865
8 1716 1593 1709 1824 1834 1715 1823 1937
8 1825 1710 1633 1752 1938 1824 1751 1866
8 1717 1594 1710 1825 1835 1716 1824 1938
8 1945 1830 1712 1828 1851 1733 1614 1735
8 1830 1714 1831 1946 1712 1592 1713 1829
8 1947 1832 1714 1830 1849 1730 1611 1733
8 1843 1729 1607 1725 1950 1833 1715 1834
8 1721 1603 1716 1835 1836 1725 1834 1951
8 1836 1725 1842 1953 1721 1603 1724 1839
8 1723 1838 1719 1601 1840 1954 1837 1722
8 1954 1840 1743 1852 1837 1722 1623 1736
8 1724 1839 1720 1602 1841 1955 1838 1723
8 1841 1727 1844 1956 1723 1605 1726 1840
8 1956 1844 1747 1859 1840 1726 1628 1743
8 1728 1842 1724 1606 1845 1957 1841 1727
8 1725 1607 1729 1843 1842 1728 1846 1958
8 1741 1627 1746 1857 1849 1730 1848 1965
8 1734 1612 1731 1850 1851 1733 1849 1966
8 1854 1741 1849 1966 1738 1622 1731 1850
8 1967 1859 1745 1853 1852 1743 1626 1737
8 1968 1860 1744 1856 1853 1745 1625 1739
8 1854 1741 1622 1738 1969 1857 1742 1855
8 1855 1742 1624 1740 1970 1858 1744 1856
8 1857 1746 1631 1742 1971 1861 1749 1858
8 1858 1749 1630 1744 1972 1863 1748 1860
8 1859 1747 1862 1973 1745 1629 1748 1860
8 1875 1768 1864 1977 1761 1651 1750 1865
8 1755 1644 1761 1869 1866 1751 1865 1978
8 1867 1760 1874 1979 1754 1646 1763 1868
8 1774 1658 1775 1887 1867 1760 1874 1979
8 1870 1766 1648 1756 1980 1877 1763 1868
8 1872 1762 1875 1981 1758 1645 1761 1869
8 1757 1649 1766 1870 1871 1765 1880 1982
8 1983 1879 1764 1873 1871 1765 1647 1759
8 1873 1764 1876 1984 1759 1647 1762 1872
8 1877 1773 1655 1763 1986 1881 1767 1874
8 1775 1659 1776 1888 1874 1767 1881 1986
8 1876 1769 1882 1987 1762 1652 1768 1875
8 1878 1770 1883 1988 1764 1653 1769 1876
8 1880 1772 1656 1766 1989 1886 1773 1877
8 1878 1770 1653 1764 1990 1884 1771 1879
8 1765 1654 1772 1880 1879 1771 1885 1991
8 1778 1664 1779 1890 1887 1775 1888 1997
8 1998 1889 1776 1888 1891 1780 1665 1779
8 1893 1782 1891 2000 1781 1668 1779 1890
8 1894 1783 1892 2001 1782 1669 1780 1891
8 1784 1671 1785 1896 1893 1782 1894 2003
8 1897 1786 1895 2004 1785 1672 1783 1894
8 1790 1675 1789 1904 1896 1785 1897 2006
8 1901 1787 1898 2007 1789 1673 1786 1897
8 1903 1788 1900 2013 1789 1673 1787 1901
8 1792 1676 1791 1906 1903 1788 1902 2016
8 1907 1792 1903 2017 1795 1678 1789 1904
8 1906 1791 1677 1794 2019 1905 1793 1909
8 1907 1792 1678 1795 2020 1906 1794 1910
8 1797 1679 1796 1912 1909 1793 1908 2022
8 1798 1680 1797 1913 1910 1794 1909 2023
8 1800 1682 1799 1915 1912 1796 1911 2025
8 1801 1683 1800 1916 1913 1797 1912 2026
8 1803 1687 1804 1918 1915 1799 1914 2028
8 1802 1686 1803 1917 1916 1800 1915 2029
8 1805 1689 1806 1920 1917 1803 1918 2030
8 1806 1690 1807 1921 1918 1804 1919 2031
8 1808 1692 1809 1922 1920 1806 1921 2032
8 1939 1826 1924 2037 1829 1713 1811 1926
8 1926 1811 1925 2039 1813 1697 1812 1928
8 1944 1829 1926 2040 1828 1712 1813 1929
8 1928 1812 1927 2042 1815 1698 1814 1931
8 1929 1813 1928 2043 1816 1699 1815 1932
8 1931 1814 1930 2044 1818 1700 1817 1933
8 1932 1815 1931 2045 1819 1701 1818 1934
8 1934 1818 1933 2046 1821 1704 1820 1935
8 2048 1936 1823 1937 1977 1864 1750 1865
8 1950 1833 1715 1834 2048 1936 1823 1937
8 1938 1824 1751 1866 2049 1937 1865 1978
8 1835 1716 1824 1938 1951 1834 1937 2049
8 1939 1826 1713 1829 2053 1942 1831 1946
8 1940 1827 1923 2035 2053 1942 1826 1939
8 1945 1830 1946 2058 1828 1712 1829 1944
8 2059 1947 1830 1945 1966 1849 1733 1851
8 1947 1832 1730 1849 2060 1948 1848 1965
8 1947 1832 1948 2060 1830 1714 1831 1946
8 1959 1847 1729 1843 2063 1949 1833 1950
8 1952 1843 1725 1836 2064 1950 1834 1951
8 1836 1725 1843 1952 1953 1842 1958 2066
8 1953 1842 1957 2067 1839 1724 1841 1955
8 1841 1955 1838 1723 1956 2068 1954 1840
8 2068 1956 1859 1967 1954 1840 1743 1852
8 1956 1844 1960 2069 1859 1747 1862 1973
8 1845 1957 1841 1727 1960 2069 1956 1844
8 1728 1842 1957 1845 1846 1958 2071 1961
8 1962 2072 1959 1847 1846 1958 1843 1729
8 1971 1861 1964 2077 1857 1746 1848 1965
8 1854 1741 1857 1969 1966 1849 1965 2078
8 1967 1859 1973 2079 1853 1745 1860 1968
8 1970 1858 1744 1856 2080 1972 1860 1968
8 1969 1857 1742 1855 2081 1971 1858 1970
8 1971 1861 1749 1858 2082 1974 1863 1972
8 1973 1862 1975 2083 1860 1748 1863 1972
8 1987 1882 1976 2086 1875 1768 1864 1977
8 1981 1875 1977 2087 1869 1761 1865 1978
8 1980 1877 1763 1868 2088 1986 1874 1979
8 1887 1775 1888 1997 1979 1874 1986 2088
8 1880 1982 2089 1989 1766 1870 1980 1877
8 1984 1876 1987 2090 1872 1762 1875 1981
8 1765 1871 1983 1879 1880 1982 2091 1991
8 1985 1878 1764 1873 2092 1990 1879 1983
8 1985 1878 1988 2093 1873 1764 1876 1984
8 2094 1992 1881 1986 1998 1889 1776 1888
8 1986 1881 1992 2094 1877 1773 1886 1989
8 1988 1883 1993 2095 1876 1769 1882 1987
8 1878 1770 1884 1990 1988 1883 1994 2096
8 1991 1885 1772 1880 2097 1996 1886 1989
8 1879 1771 1885 1991 1990 1884 1995 2098
8 2103 1998 1888 1997 2000 1891 1779 1890
8 2104 1999 1889 1998 2001 1892 1780 1891
8 2003 1894 2001 2106 1893 1782 1891 2000
8 2004 1895 2002 2107 1894 1783 1892 2001
8 2006 1897 2004 2109 1896 1785 1894 2003
8 2007 1898 2005 2110 1897 1786 1895 2004
8 2014 1901 2007 2112 1904 1789 1897 2006
8 2011 1899 2008 2113 1901 1787 1898 2007
8 2119 2010 1899 2011 2013 1900 1787 1901
8 2016 1902 2012 2122 1903 1788 1900 2013
8 2017 1903 2013 2123 1904 1789 1901 2014
8 1906 1791 1905 2019 2016 1902 2015 2125
8 1907 1792 1906 2020 2017 1903 2016 2126
8 1909 1793 1908 2022 2019 1905 2018 2128
8 2020 1906 1794 1910 2129 2019 1909 2023
8 1912 1796 1911 2025 2022 1908 2021 2131
8 1913 1797 1912 2026 2023 1909 2022 2132
8 1915 1799 1914 2028 2025 1911 2024 2134
8 1916 1800 1915 2029 2026 1912 2025 2135
8 1918 1804 1919 2031 2028 1914 2027 2136
8 1917 1803 1918 2030 2029 1915 2028 2137
8 1920 1806 1921 2032 2030 1918 2031 2138
8 1940 1827 1941 2054 2035 1923 2033 2140
8 2035 1923 2034 2143 1939 1826 1924 2037
8 2037 1924 2036 2146 1926 1811 1925 2039
8 2051 1939 2037 2147 1944 1829 1926 2040
8 2039 1925 2038 2149 1928 1812 1927 2042
8 2040 1926 2039 2150 1929 1813 1928 2043
8 2042 1927 2041 2151 1931 1814 1930 2044
8 2043 1928 2042 2152 1932 1815 1931 2045
8 2045 1931 2044 2153 1934 1818 1933 2046
8 2155 2047 1936 2048 2086 1976 1864 1977
8 2063 1949 1833 1950 2155 2047 1936 2048
8 2156 2048 1937 2049 2087 1977 1865 1978
8 2064 1950 1834 1951 2156 2048 1937 2049
8 2051 1939 1829 1944 2160 2053 1946 2058
8 2052 1940 2035 2144 2160 2053 1939 2051
8 2053 1942 1831 1946 2163 2057 1948 2060
8 2055 1943 1827 1940 2163 2057 1942 2053
8 2055 1943 2056 2164 1940 1827 1941 2054
8 2059 1947 1849 1966 2167 2060 1965 2078
8 2059 1947 2060 2167 1945 1830 1946 2058
8 2077 1964 2061 2168 1965 1848 1948 2060
8 2070 1963 1847 1959 2170 2062 1949 2063
8 2065 1959 1843 1952 2171 2063 1950 2064
8 2173 2072 1958 2066 2065 1959 1843 1952
8 1953 1842 1958 2066 2067 1957 2071 2174
8 2068 1956 2069 2175 1967 1859 1973 2079
8 2067 1957 2069 2175 1955 1841 1956 2068
8 1845 1957 2069 1960 1961 2071 2176 2073
8 2069 1960 2073 2176 1973 1862 1975 2083
8 2070 1963 2075 2177 1959 1847 1962 2072
8 1846 1958 2071 1961 1962 2072 2178 2074
8 2077 1964 1861 1971 2182 2076 1974 2082
8 2081 1971 2077 2183 1969 1857 1965 2078
8 2079 1973 2083 2184 1968 1860 1972 2080
8 2081 1971 1858 1970 2185 2082 1972 2080
8 2083 1975 2084 2186 1972 1863 1974 2082
8 2086 1976 1882 1987 2189 2085 1993 2095
8 2090 1987 2086 2190 1981 1875 1977 2087
8 2191 2094 1986 2088 2103 1998 1888 1997
8 2088 1986 2094 2191 1980 1877 1989 2089
8 1991 2091 2192 2097 1880 1982 2089 1989
8 2093 1988 2095 2193 1984 1876 1987 2090
8 1879 1983 2092 1990 1991 2091 2194 2098
8 1985 1878 1990 2092 2093 1988 2096 2195
8 2097 1996 1886 1989 2196 2099 1992 2094
8 2196 2099 1992 2094 2104 1999 1889 1998
8 1994 2096 1988 1883 2100 2197 2095 1993
8 2096 1994 1884 1990 2198 2101 1995 2098
8 1995 2098 2199 2102 1885 1991 2097 1996
8 2203 2104 1998 2103 2106 2001 1891 2000
8 2107 2002 2105 2204 2001 1892 1999 2104
8 2109 2004 2107 2206 2003 1894 2001 2106
8 2110 2005 2108 2207 2004 1895 2002 2107
8 2112 2007 2110 2209 2006 1897 2004 2109
8 2113 2008 2111 2210 2007 1898 2005 2110
8 2120 2011 2113 2212 2014 1901 2007 2112
8 2117 2009 2114 2213 2011 1899 2008 2113
8 2219 2116 2009 2117 2119 2010 1899 2011
8 2222 2118 2010 2119 2122 2012 1900 2013
8 2223 2119 2011 2120 2123 2013 1901 2014
8 2016 1902 2015 2125 2122 2012 2121 2225
8 2126 2016 2122 2226 2017 1903 2013 2123
8 2019 1905 2018 2128 2125 2015 2124 2228
8 2020 1906 2019 2129 2126 2016 2125 2229
8 2022 1908 2021 2131 2128 2018 2127 2231
8 2023 1909 2022 2132 2129 2019 2128 2232
8 2025 1911 2024 2134 2131 2021 2130 2234
8 2026 1912 2025 2135 2132 2022 2131 2235
8 1914 2028 2134 2024 2027 2136 2236 2133
8 2029 1915 2028 2137 2135 2025 2134 2237
8 2030 1918 2031 2138 2137 2028 2136 2238
8 2157 2050 2139 2240 2054 1941 2033 2140
8 2052 1940 2054 2161 2144 2035 2140 2242
8 2140 2033 2141 2243 2035 1923 2034 2143
8 2143 2034 2142 2246 2037 1924 2036 2146
8 2144 2035 2143 2247 2051 1939 2037 2147
8 2146 2036 2145 2249 2039 1925 2038 2149
8 2147 2037 2146 2250 2040 1926 2039 2150
8 2149 2038 2148 2251 2042 1927 2041 2151
8 2150 2039 2149 2252 2043 1928 2042 2152
8 2152 2042 2151 2253 2045 1931 2044 2153
8 2255 2154 2047 2155 2189 2085 1976 2086
8 2170 2062 1949 2063 2255 2154 2047 2155
8 2256 2155 2048 2156 2190 2086 1977 2087
8 2171 2063 1950 2064 2256 2155 2048 2156
8 2258 2159 2050 2157 2164 2056 1941 2054
8 2160 2053 1946 2058 2262 2163 2060 2167
8 2162 2055 1940 2052 2262 2163 2053 2160
8 2162 2055 2164 2263 2052 1940 2054 2161
8 2163 2057 1948 2060 2264 2165 2061 2168
8 2055 1943 2057 2163 2164 2056 2165 2264
8 2182 2076 2166 2268 2077 1964 2061 2168
8 2183 2077 2168 2269 2078 1965 2060 2167
8 2070 1963 2062 2170 2177 2075 2169 2271
8 2172 2070 1959 2065 2272 2170 2063 2171
8 2172 2070 2177 2273 2065 1959 2072 2173
8 2066 1958 2072 2173 2174 2071 2178 2274
8 2067 1957 2071 2174 2175 2069 2176 2275
8 2175 2069 2176 2275 2079 1973 2083 2184
8 2071 1961 2074 2178 2176 2073 2179 2276
8 2176 2073 2179 2276 2083 1975 2084 2186
8 2072 1962 2075 2177 2178 2074 2180 2277
8 2182 2076 1974 2082 2280 2181 2084 2186
8 2183 2077 1971 2081 2281 2182 2082 2185
8 2184 2083 2186 2282 2080 1972 2082 2185
8 2189 2085 1993 2095 2285 2188 2100 2197
8 2190 2086 1987 2090 2286 2189 2095 2193
8 2192 2097 1989 2089 2287 2196 2094 2191
8 2287 2196 2094 2191 2203 2104 1998 2103
8 2194 2098 1991 2091 2288 2199 2097 2192
8 2195 2096 2197 2289 2093 1988 2095 2193
8 2096 2195 2290 2198 1990 2092 2194 2098
8 2097 1996 2099 2196 2199 2102 2200 2291
8 2196 2099 1999 2104 2291 2200 2105 2204
8 2100 2197 2292 2201 1994 2096 2198 2101
8 1995 2098 2198 2101 2102 2199 2293 2202
8 2206 2107 2204 2296 2106 2001 2104 2203
8 2207 2108 2205 2297 2107 2002 2105 2204
8 2209 2110 2207 2299 2109 2004 2107 2206
8 2210 2111 2208 2300 2110 2005 2108 2207
8 2212 2113 2210 2302 2112 2007 2110 2209
8 2213 2114 2211 2303 2113 2008 2111 2210
8 2220 2117 2213 2305 2120 2011 2113 2212
8 2216 2115 2214 2306 2117 2009 2114 2213
8 2216 2115 2009 2117 2311 2217 2116 2219
8 2219 2116 2010 2119 2314 2218 2118 2222
8 2315 2219 2117 2220 2223 2119 2011 2120
8 2122 2012 2121 2225 2222 2118 2221 2317
8 2318 2222 2119 2223 2226 2122 2013 2123
8 2125 2015 2124 2228 2225 2121 2224 2320
8 2126 2016 2125 2229 2226 2122 2225 2321
8 2128 2018 2127 2231 2228 2124 2227 2323
8 2129 2019 2128 2232 2229 2125 2228 2324
8 2131 2021 2130 2234 2231 2127 2230 2326
8 2132 2022 2131 2235 2232 2128 2231 2327
8 2134 2024 2133 2236 2234 2130 2233 2328
8 2135 2025 2134 2237 2235 2131 2234 2329
8 2137 2028 2136 2238 2237 2134 2236 2330
8 2157 2050 2158 2259 2240 2139 2239 2332
8 2257 2157 2240 2334 2161 2054 2140 2242
8 2240 2139 2241 2335 2140 2033 2141 2243
8 2242 2140 2243 2337 2144 2035 2143 2247
8 2243 2141 2244 2338 2143 2034 2142 2246
8 2246 2142 2245 2341 2146 2036 2145 2249
8 2247 2143 2246 2342 2147 2037 2146 2250
8 2249 2145 2248 2343 2149 2038 2148 2251
8 2250 2146 2249 2344 2150 2039 2149 2252
8 2252 2149 2251 2345 2152 2042 2151 2253
8 2169 2271 2347 2254 2062 2170 2255 2154
8 2189 2085 2188 2285 2255 2154 2254 2347
8 2348 2255 2155 2256 2286 2189 2086 2190
8 2272 2170 2063 2171 2348 2255 2155 2256
8 2349 2258 2157 2257 2263 2164 2054 2161
8 2258 2159 2261 2351 2157 2050 2158 2259
8 2258 2159 2056 2164 2351 2261 2165 2264
8 2262 2163 2060 2167 2355 2264 2168 2269
8 2162 2055 2163 2262 2263 2164 2264 2355
8 2357 2266 2165 2264 2268 2166 2061 2168
8 2268 2166 2076 2182 2361 2267 2181 2280
8 2281 2182 2268 2362 2183 2077 2168 2269
8 2271 2169 2270 2364 2177 2075 2180 2277
8 2172 2070 2170 2272 2273 2177 2271 2365
8 2072 2173 2274 2178 2177 2273 2366 2277
8 2071 2174 2275 2176 2178 2274 2367 2276
8 2275 2176 2276 2367 2184 2083 2186 2282
8 2283 2187 2084 2186 2368 2278 2179 2276
8 2178 2074 2180 2277 2276 2179 2278 2368
8 2283 2187 2279 2370 2186 2084 2181 2280
8 2281 2182 2082 2185 2371 2280 2186 2282
8 2188 2285 2374 2284 2100 2197 2292 2201
8 2286 2189 2095 2193 2375 2285 2197 2289
8 2192 2097 2196 2287 2288 2199 2291 2376
8 2287 2196 2104 2203 2376 2291 2204 2296
8 2194 2098 2199 2288 2290 2198 2293 2377
8 2289 2197 2096 2195 2378 2292 2198 2290
8 2291 2200 2105 2204 2379 2294 2205 2297
8 2199 2102 2200 2291 2293 2202 2294 2379
8 2198 2101 2202 2293 2292 2201 2295 2380
8 2299 2207 2297 2383 2206 2107 2204 2296
8 2300 2208 2298 2384 2207 2108 2205 2297
8 2302 2210 2300 2386 2209 2110 2207 2299
8 2303 2211 2301 2387 2210 2111 2208 2300
8 2305 2213 2303 2389 2212 2113 2210 2302
8 2306 2214 2304 2390 2213 2114 2211 2303
8 2310 2216 2306 2392 2220 2117 2213 2305
8 2308 2215 2307 2393 2216 2115 2214 2306
8 2308 2215 2115 2216 2396 2309 2217 2311
8 2310 2216 2117 2220 2398 2311 2219 2315
8 2311 2217 2116 2219 2399 2312 2218 2314
8 2314 2218 2118 2222 2402 2313 2221 2317
8 2315 2219 2119 2223 2403 2314 2222 2318
8 2225 2121 2224 2320 2317 2221 2316 2405
8 2226 2122 2225 2321 2318 2222 2317 2406
8 2228 2124 2227 2323 2320 2224 2319 2408
8 2229 2125 2228 2324 2321 2225 2320 2409
8 2231 2127 2230 2326 2323 2227 2322 2411
8 2232 2128 2231 2327 2324 2228 2323 2412
8 2234 2130 2233 2328 2326 2230 2325 2413
8 2235 2131 2234 2329 2327 2231 2326 2414
8 2237 2134 2236 2330 2329 2234 2328 2415
8 2259 2158 2260 2352 2332 2239 2331 2417
8 2257 2157 2259 2350 2334 2240 2332 2419
8 2240 2139 2239 2332 2335 2241 2333 2420
8 2334 2240 2335 2422 2242 2140 2243 2337
8 2335 2241 2336 2423 2243 2141 2244 2338
8 2337 2243 2338 2425 2247 2143 2246 2342
8 2338 2244 2339 2426 2246 2142 2245 2341
8 2341 2245 2340 2428 2249 2145 2248 2343
8 2342 2246 2341 2429 2250 2146 2249 2344
8 2344 2249 2343 2430 2252 2149 2251 2345
8 2188 2285 2347 2254 2284 2374 2432 2346
8 2347 2254 2346 2432 2271 2169 2270 2364
8 2365 2271 2170 2272 2433 2347 2255 2348
8 2286 2189 2285 2375 2348 2255 2347 2433
8 2349 2258 2351 2435 2257 2157 2259 2350
8 2349 2258 2164 2263 2435 2351 2264 2355
8 2259 2158 2261 2351 2352 2260 2354 2437
8 2356 2265 2354 2437 2264 2165 2261 2351
8 2441 2357 2264 2355 2362 2268 2168 2269
8 2356 2265 2165 2264 2442 2358 2266 2357
8 2443 2359 2266 2357 2361 2267 2166 2268
8 2370 2279 2360 2446 2280 2181 2267 2361
8 2362 2268 2182 2281 2447 2361 2280 2371
8 2180 2277 2368 2278 2270 2364 2449 2363
8 2271 2365 2273 2177 2364 2450 2366 2277
8 2372 2283 2186 2282 2451 2368 2276 2367
8 2178 2274 2367 2276 2277 2366 2451 2368
8 2283 2187 2278 2368 2370 2279 2369 2452
8 2372 2283 2370 2453 2282 2186 2280 2371
8 2284 2374 2455 2373 2201 2292 2380 2295
8 2375 2285 2197 2289 2456 2374 2292 2378
8 2376 2291 2204 2296 2457 2379 2297 2383
8 2288 2199 2291 2376 2377 2293 2379 2457
8 2198 2290 2378 2292 2293 2377 2458 2380
8 2293 2202 2294 2379 2380 2295 2381 2459
8 2384 2298 2381 2459 2297 2205 2294 2379
8 2386 2300 2384 2463 2299 2207 2297 2383
8 2387 2301 2385 2464 2300 2208 2298 2384
8 2389 2303 2387 2466 2302 2210 2300 2386
8 2390 2304 2388 2467 2303 2211 2301 2387
8 2392 2306 2390 2469 2305 2213 2303 2389
8 2393 2307 2391 2470 2306 2214 2304 2390
8 2395 2308 2393 2472 2310 2216 2306 2392
8 2308 2215 2309 2396 2393 2307 2394 2473
8 2395 2308 2216 2310 2475 2396 2311 2398
8 2396 2309 2217 2311 2476 2397 2312 2399
8 2398 2311 2219 2315 2478 2399 2314 2403
8 2399 2312 2218 2314 2479 2400 2313 2402
8 2317 2221 2316 2405 2402 2313 2401 2482
8 2403 2314 2222 2318 2483 2402 2317 2406
8 2320 2224 2319 2408 2405 2316 2404 2485
8 2321 2225 2320 2409 2406 2317 2405 2486
8 2323 2227 2322 2411 2408 2319 2407 2488
8 2324 2228 2323 2412 2409 2320 2408 2489
8 2326 2230 2325 2413 2411 2322 2410 2490
8 2327 2231 2326 2414 2412 2323 2411 2491
8 2329 2234 2328 2415 2414 2326 2413 2492
8 2417 2331 2260 2352 2494 2416 2353 2438
8 2350 2259 2352 2436 2419 2332 2417 2496
8 2332 2239 2331 2417 2420 2333 2418 2497
8 2334 2240 2332 2419 2422 2335 2420 2499
8 2420 2333 2421 2500 2335 2241 2336 2423
8 2422 2335 2423 2502 2337 2243 2338 2425
8 2423 2336 2424 2503 2338 2244 2339 2426
8 2425 2338 2426 2505 2342 2246 2341 2429
8 2426 2339 2427 2506 2341 2245 2340 2428
8 2429 2341 2428 2507 2344 2249 2343 2430
8 2432 2346 2284 2374 2509 2431 2373 2455
8 2432 2346 2431 2509 2364 2270 2363 2449
8 2375 2285 2374 2456 2433 2347 2432 2510
8 2347 2433 2365 2271 2432 2510 2450 2364
8 2350 2259 2351 2435 2436 2352 2437 2514
8 2440 2356 2437 2514 2355 2264 2351 2435
8 2352 2260 2354 2437 2438 2353 2439 2516
8 2356 2265 2358 2442 2437 2354 2439 2516
8 2440 2356 2264 2355 2518 2442 2357 2441
8 2519 2443 2357 2441 2447 2361 2268 2362
8 2443 2359 2444 2520 2357 2266 2358 2442
8 2443 2359 2267 2361 2520 2444 2360 2446
8 2446 2360 2279 2370 2523 2445 2369 2452
8 2453 2370 2446 2524 2371 2280 2361 2447
8 2449 2363 2448 2525 2368 2278 2369 2452
8 2366 2277 2364 2450 2451 2368 2449 2526
8 2372 2283 2368 2451 2453 2370 2452 2527
8 2455 2373 2295 2380 2529 2454 2382 2460
8 2456 2374 2292 2378 2530 2455 2380 2458
8 2377 2293 2379 2457 2458 2380 2459 2531
8 2463 2384 2459 2531 2383 2297 2379 2457
8 2533 2461 2382 2460 2459 2381 2295 2380
8 2464 2385 2461 2533 2384 2298 2381 2459
8 2466 2387 2464 2537 2386 2300 2384 2463
8 2467 2388 2465 2538 2387 2301 2385 2464
8 2469 2390 2467 2540 2389 2303 2387 2466
8 2470 2391 2468 2541 2390 2304 2388 2467
8 2472 2393 2470 2543 2392 2306 2390 2469
8 2393 2307 2394 2473 2470 2391 2471 2544
8 2395 2308 2396 2475 2472 2393 2473 2546
8 2396 2309 2397 2476 2473 2394 2474 2547
8 2475 2396 2311 2398 2549 2476 2399 2478
8 2476 2397 2312 2399 2550 2477 2400 2479
8 2478 2399 2314 2403 2552 2479 2402 2483
8 2479 2400 2313 2402 2553 2480 2401 2482
8 2405 2316 2404 2485 2482 2401 2481 2556
8 2406 2317 2405 2486 2483 2402 2482 2557
8 2408 2319 2407 2488 2485 2404 2484 2559
8 2409 2320 2408 2489 2486 2405 2485 2560
8 2411 2322 2410 2490 2488 2407 2487 2561
8 2412 2323 2411 2491 2489 2408 2488 2562
8 2414 2326 2413 2492 2491 2411 2490 2563
8 2513 2434 2493 2565 2438 2353 2416 2494
8 2496 2417 2352 2436 2567 2494 2438 2515
8 2494 2416 2495 2568 2417 2331 2418 2497
8 2419 2332 2417 2496 2499 2420 2497 2570
8 2497 2418 2498 2571 2420 2333 2421 2500
8 2499 2420 2500 2573 2422 2335 2423 2502
8 2500 2421 2501 2574 2423 2336 2424 2503
8 2502 2423 2503 2576 2425 2338 2426 2505
8 2503 2424 2504 2577 2426 2339 2427 2506
8 2505 2426 2506 2578 2429 2341 2428 2507
8 2509 2431 2373 2455 2580 2508 2454 2529
8 2509 2431 2508 2580 2449 2363 2448 2525
8 2432 2510 2581 2509 2374 2456 2530 2455
8 2432 2510 2450 2364 2509 2581 2526 2449
8 2583 2511 2434 2513 2516 2439 2353 2438
8 2436 2352 2437 2514 2515 2438 2516 2588
8 2440 2356 2442 2518 2514 2437 2516 2588
8 2442 2358 2444 2520 2516 2439 2517 2589
8 2519 2443 2520 2591 2441 2357 2442 2518
8 2519 2443 2361 2447 2591 2520 2446 2524
8 2446 2360 2445 2523 2520 2444 2521 2592
8 2525 2448 2522 2593 2452 2369 2445 2523
8 2524 2446 2370 2453 2594 2523 2452 2527
8 2526 2449 2525 2595 2451 2368 2452 2527
8 2534 2462 2528 2597 2460 2382 2454 2529
8 2530 2455 2380 2458 2598 2529 2460 2532
8 2599 2533 2460 2532 2531 2459 2380 2458
8 2537 2464 2533 2599 2463 2384 2459 2531
8 2534 2462 2382 2460 2601 2535 2461 2533
8 2538 2465 2535 2601 2464 2385 2461 2533
8 2540 2467 2538 2604 2466 2387 2464 2537
8 2541 2468 2539 2605 2467 2388 2465 2538
8 2543 2470 2541 2607 2469 2390 2467 2540
8 2470 2391 2471 2544 2541 2468 2542 2608
8 2472 2393 2473 2546 2543 2470 2544 2610
8 2473 2394 2474 2547 2544 2471 2545 2611
8 2475 2396 2476 2549 2546 2473 2547 2613
8 2476 2397 2477 2550 2547 2474 2548 2614
8 2549 2476 2399 2478 2616 2550 2479 2552
8 2479 2400 2480 2553 2550 2477 2551 2617
8 2552 2479 2402 2483 2619 2553 2482 2557
8 2482 2401 2481 2556 2553 2480 2554 2620
8 2485 2404 2484 2559 2556 2481 2555 2623
8 2486 2405 2485 2560 2557 2482 2556 2624
8 2488 2407 2487 2561 2559 2484 2558 2625
8 2489 2408 2488 2562 2560 2485 2559 2626
8 2491 2411 2490 2563 2562 2488 2561 2627
8 2513 2434 2512 2585 2565 2493 2564 2630
8 2586 2513 2565 2632 2515 2438 2494 2567
8 2565 2493 2566 2633 2494 2416 2495 2568
8 2567 2494 2568 2635 2496 2417 2497 2570
8 2568 2495 2569 2636 2497 2418 2498 2571
8 2570 2497 2571 2638 2499 2420 2500 2573
8 2571 2498 2572 2639 2500 2421 2501 2574
8 2573 2500 2574 2641 2502 2423 2503 2576
8 2574 2501 2575 2642 2503 2424 2504 2577
8 2576 2503 2577 2643 2505 2426 2506 2578
8 2597 2528 2579 2645 2529 2454 2508 2580
8 2580 2508 2579 2645 2525 2448 2522 2593
8 2581 2509 2455 2530 2646 2580 2529 2598
8 2581 2509 2580 2646 2526 2449 2525 2595
8 2583 2511 2582 2648 2513 2434 2512 2585
8 2583 2511 2439 2516 2648 2582 2517 2589
8 2649 2583 2513 2586 2588 2516 2438 2515
8 2589 2517 2444 2520 2653 2587 2521 2592
8 2518 2442 2520 2591 2588 2516 2589 2654
8 2593 2522 2590 2655 2523 2445 2521 2592
8 2524 2446 2523 2594 2591 2520 2592 2656
8 2595 2525 2593 2657 2527 2452 2523 2594
8 2602 2536 2596 2659 2534 2462 2528 2597
8 2600 2534 2597 2660 2532 2460 2529 2598
8 2600 2534 2460 2532 2661 2601 2533 2599
8 2604 2538 2601 2661 2537 2464 2533 2599
8 2602 2536 2462 2534 2663 2603 2535 2601
8 2601 2535 2465 2538 2663 2603 2539 2605
8 2607 2541 2605 2665 2540 2467 2538 2604
8 2608 2542 2606 2666 2541 2468 2539 2605
8 2543 2470 2544 2610 2607 2541 2608 2668
8 2544 2471 2545 2611 2608 2542 2609 2669
8 2546 2473 2547 2613 2610 2544 2611 2671
8 2547 2474 2548 2614 2611 2545 2612 2672
8 2549 2476 2550 2616 2613 2547 2614 2674
8 2550 2477 2551 2617 2614 2548 2615 2675
8 2552 2479 2553 2619 2616 2550 2617 2677
8 2553 2480 2554 2620 2617 2551 2618 2678
8 2557 2482 2556 2624 2619 2553 2620 2680
8 2556 2481 2555 2623 2620 2554 2621 2681
8 2559 2484 2558 2625 2623 2555 2622 2683
8 2560 2485 2559 2626 2624 2556 2623 2684
8 2562 2488 2561 2627 2626 2559 2625 2685
8 2690 2629 2564 2630 2650 2584 2512 2585
8 2586 2513 2585 2651 2632 2565 2630 2691
8 2630 2564 2631 2692 2565 2493 2566 2633
8 2632 2565 2633 2694 2567 2494 2568 2635
8 2633 2566 2634 2695 2568 2495 2569 2636
8 2635 2568 2636 2697 2570 2497 2571 2638
8 2636 2569 2637 2698 2571 2498 2572 2639
8 2638 2571 2639 2700 2573 2500 2574 2641
8 2639 2572 2640 2701 2574 2501 2575 2642
8 2641 2574 2642 2702 2576 2503 2577 2643
8 2597 2528 2596 2659 2645 2579 2644 2704
8 2645 2579 2644 2704 2593 2522 2590 2655
8 2660 2597 2645 2705 2598 2529 2580 2646
8 2646 2580 2645 2705 2595 2525 2593 2657
8 2650 2584 2512 2585 2707 2647 2582 2648
8 2648 2582 2517 2589 2707 2647 2587 2653
8 2649 2583 2648 2708 2586 2513 2585 2651
8 2649 2583 2516 2588 2708 2648 2589 2654
8 2655 2590 2652 2710 2592 2521 2587 2653
8 2654 2589 2520 2591 2711 2653 2592 2656
8 2657 2593 2655 2712 2594 2523 2592 2656
8 2602 2536 2603 2663 2659 2596 2658 2714
8 2662 2602 2659 2715 2600 2534 2597 2660
8 2662 2602 2534 2600 2717 2663 2601 2661
8 2661 2601 2538 2604 2717 2663 2605 2665
8 2666 2606 2664 2718 2605 2539 2603 2663
8 2668 2608 2666 2720 2607 2541 2605 2665
8 2608 2542 2609 2669 2666 2606 2667 2721
8 2610 2544 2611 2671 2668 2608 2669 2723
8 2611 2545 2612 2672 2669 2609 2670 2724
8 2613 2547 2614 2674 2671 2611 2672 2726
8 2614 2548 2615 2675 2672 2612 2673 2727
8 2616 2550 2617 2677 2674 2614 2675 2729
8 2617 2551 2618 2678 2675 2615 2676 2730
8 2619 2553 2620 2680 2677 2617 2678 2732
8 2620 2554 2621 2681 2678 2618 2679 2733
8 2624 2556 2623 2684 2680 2620 2681 2735
8 2681 2621 2555 2623 2736 2682 2622 2683
8 2626 2559 2625 2685 2684 2623 2683 2737
8 2688 2628 2584 2650 2740 2686 2647 2707
8 2688 2628 2687 2742 2650 2584 2629 2690
8 2690 2629 2689 2745 2630 2564 2631 2692
8 2746 2690 2630 2691 2709 2650 2585 2651
8 2691 2630 2692 2747 2632 2565 2633 2694
8 2692 2631 2693 2748 2633 2566 2634 2695
8 2694 2633 2695 2750 2635 2568 2636 2697
8 2695 2634 2696 2751 2636 2569 2637 2698
8 2697 2636 2698 2753 2638 2571 2639 2700
8 2698 2637 2699 2754 2639 2572 2640 2701
8 2700 2639 2701 2755 2641 2574 2642 2702
8 2659 2596 2658 2714 2704 2644 2703 2757
8 2704 2644 2703 2757 2655 2590 2652 2710
8 2660 2597 2659 2715 2705 2645 2704 2758
8 2705 2645 2704 2758 2657 2593 2655 2712
8 2759 2706 2647 2707 2710 2652 2587 2653
8 2709 2650 2585 2651 2760 2707 2648 2708
8 2708 2648 2589 2654 2760 2707 2653 2711
8 2712 2655 2710 2761 2656 2592 2653 2711
8 2763 2713 2658 2714 2718 2664 2603 2663
8 2662 2602 2663 2717 2715 2659 2714 2764
8 2720 2666 2718 2767 2665 2605 2663 2717
8 2768 2719 2664 2718 2721 2667 2606 2666
8 2668 2608 2669 2723 2720 2666 2721 2770
8 2669 2609 2670 2724 2721 2667 2722 2771
8 2671 2611 2672 2726 2723 2669 2724 2773
8 2672 2612 2673 2727 2724 2670 2725 2774
8 2674 2614 2675 2729 2726 2672 2727 2776
8 2675 2615 2676 2730 2727 2673 2728 2777
8 2677 2617 2678 2732 2729 2675 2730 2779
8 2678 2618 2679 2733 2730 2676 2731 2780
8 2680 2620 2681 2735 2732 2678 2733 2782
8 2733 2679 2621 2681 2783 2734 2682 2736
8 2735 2681 2623 2684 2784 2736 2683 2737
8 2740 2686 2647 2707 2787 2738 2706 2759
8 2688 2628 2686 2740 2742 2687 2739 2789
8 2743 2688 2650 2709 2790 2740 2707 2760
8 2742 2687 2741 2792 2690 2629 2689 2745
8 2743 2688 2742 2793 2709 2650 2690 2746
8 2745 2689 2744 2795 2692 2631 2693 2748
8 2746 2690 2745 2796 2691 2630 2692 2747
8 2747 2692 2748 2797 2694 2633 2695 2750
8 2748 2693 2749 2798 2695 2634 2696 2751
8 2750 2695 2751 2800 2697 2636 2698 2753
8 2751 2696 2752 2801 2698 2637 2699 2754
8 2753 2698 2754 2802 2700 2639 2701 2755
8 2763 2713 2756 2804 2714 2658 2703 2757
8 2759 2706 2652 2710 2804 2756 2703 2757
8 2715 2659 2714 2764 2758 2704 2757 2805
8 2758 2704 2757 2805 2712 2655 2710 2761
8 2806 2759 2707 2760 2761 2710 2653 2711
8 2765 2716 2762 2808 2718 2664 2713 2763
8 2809 2763 2714 2764 2767 2718 2663 2717
8 2765 2716 2664 2718 2811 2766 2719 2768
8 2813 2768 2718 2767 2770 2721 2666 2720
8 2814 2769 2719 2768 2771 2722 2667 2721
8 2723 2669 2724 2773 2770 2721 2771 2816
8 2724 2670 2725 2774 2771 2722 2772 2817
8 2726 2672 2727 2776 2773 2724 2774 2819
8 2727 2673 2728 2777 2774 2725 2775 2820
8 2729 2675 2730 2779 2776 2727 2777 2822
8 2730 2676 2731 2780 2777 2728 2778 2823
8 2732 2678 2733 2782 2779 2730 2780 2825
8 2780 2731 2679 2733 2826 2781 2734 2783
8 2782 2733 2681 2735 2827 2783 2736 2784
8 2830 2785 2738 2787 2804 2756 2706 2759
8 2789 2739 2686 2740 2832 2786 2738 2787
8 2790 2740 2707 2760 2833 2787 2759 2806
8 2742 2687 2739 2789 2792 2741 2788 2835
8 2743 2688 2740 2790 2793 2742 2789 2836
8 2792 2741 2791 2838 2745 2689 2744 2795
8 2793 2742 2792 2839 2746 2690 2745 2796
8 2795 2744 2794 2841 2748 2693 2749 2798
8 2796 2745 2795 2842 2747 2692 2748 2797
8 2797 2748 2798 2843 2750 2695 2751 2800
8 2798 2749 2799 2844 2751 2696 2752 2801
8 2800 2751 2801 2845 2753 2698 2754 2802
8 2808 2762 2803 2847 2763 2713 2756 2804
8 2809 2763 2804 2848 2764 2714 2757 2805
8 2806 2759 2710 2761 2848 2804 2757 2805
8 2765 2716 2766 2811 2808 2762 2807 2850
8 2810 2765 2808 2851 2767 2718 2763 2809
8 2810 2765 2718 2767 2852 2811 2768 2813
8 2811 2766 2719 2768 2853 2812 2769 2814
8 2855 2814 2768 2813 2816 2771 2721 2770
8 2856 2815 2769 2814 2817 2772 2722 2771
8 2773 2724 2774 2819 2816 2771 2817 2858
8 2774 2725 2775 2820 2817 2772 2818 2859
8 2776 2727 2777 2822 2819 2774 2820 2861
8 2777 2728 2778 2823 2820 2775 2821 2862
8 2779 2730 2780 2825 2822 2777 2823 2864
8 2823 2778 2731 2780 2865 2824 2781 2826
8 2825 2780 2733 2782 2866 2826 2783 2827
8 2869 2828 2785 2830 2847 2803 2756 2804
8 2871 2829 2786 2832 2830 2785 2738 2787
8 2872 2830 2787 2833 2848 2804 2759 2806
8 2789 2739 2786 2832 2835 2788 2831 2874
8 2836 2789 2740 2790 2875 2832 2787 2833
8 2792 2741 2788 2835 2838 2791 2834 2877
8 2793 2742 2789 2836 2839 2792 2835 2878
8 2838 2791 2837 2880 2795 2744 2794 2841
8 2839 2792 2838 2881 2796 2745 2795 2842
8 2841 2794 2840 2882 2798 2749 2799 2844
8 2842 2795 2841 2883 2797 2748 2798 2843
8 2843 2798 2844 2884 2800 2751 2801 2845
8 2886 2846 2803 2847 2850 2807 2762 2808
8 2851 2808 2847 2887 2809 2763 2804 2848
8 2850 2807 2766 2811 2889 2849 2812 2853
8 2810 2765 2811 2852 2851 2808 2850 2890
8 2852 2811 2768 2813 2891 2853 2814 2855
8 2853 2812 2769 2814 2892 2854 2815 2856
8 2894 2856 2814 2855 2858 2817 2771 2816
8 2817 2772 2818 2859 2856 2815 2857 2895
8 2819 2774 2820 2861 2858 2817 2859 2897
8 2820 2775 2821 2862 2859 2818 2860 2898
8 2822 2777 2823 2864 2861 2820 2862 2900
8 2823 2778 2824 2865 2862 2821 2863 2901
8 2864 2823 2780 2825 2902 2865 2826 2866
8 2904 2867 2828 2869 2886 2846 2803 2847
8 2869 2828 2868 2906 2830 2785 2829 2871
8 2907 2869 2830 2872 2887 2847 2804 2848
8 2871 2829 2870 2909 2832 2786 2831 2874
8 2910 2871 2832 2875 2872 2830 2787 2833
8 2835 2788 2831 2874 2877 2834 2873 2912
8 2836 2789 2832 2875 2878 2835 2874 2913
8 2877 2834 2876 2915 2838 2791 2837 2880
8 2839 2792 2835 2878 2881 2838 2877 2916
8 2880 2837 2879 2917 2841 2794 2840 2882
8 2881 2838 2880 2918 2842 2795 2841 2883
8 2883 2841 2882 2919 2843 2798 2844 2884
8 2921 2885 2846 2886 2889 2849 2807 2850
8 2922 2886 2847 2887 2890 2850 2808 2851
8 2889 2849 2812 2853 2924 2888 2854 2892
8 2890 2850 2811 2852 2925 2889 2853 2891
8 2891 2853 2814 2855 2926 2892 2856 2894
8 2892 2854 2815 2856 2927 2893 2857 2895
8 2858 2817 2859 2897 2894 2856 2895 2929
8 2859 2818 2860 2898 2895 2857 2896 2930
8 2861 2820 2862 2900 2897 2859 2898 2932
8 2862 2821 2863 2901 2898 2860 2899 2933
8 2864 2823 2865 2902 2900 2862 2901 2934
8 2904 2867 2846 2886 2936 2903 2885 2921
8 2904 2867 2903 2936 2869 2828 2868 2906
8 2937 2904 2869 2907 2922 2886 2847 2887
8 2906 2868 2905 2939 2871 2829 2870 2909
8 2907 2869 2906 2940 2872 2830 2871 2910
8 2909 2870 2908 2942 2874 2831 2873 2912
8 2910 2871 2909 2943 2875 2832 2874 2913
8 2912 2873 2911 2945 2877 2834 2876 2915
8 2878 2835 2874 2913 2916 2877 2912 2946
8 2915 2876 2914 2947 2880 2837 2879 2917
8 2916 2877 2915 2948 2881 2838 2880 2918
8 2918 2880 2917 2949 2883 2841 2882 2919
8 2921 2885 2849 2889 2951 2920 2888 2924
8 2952 2921 2886 2922 2925 2889 2850 2890
8 2924 2888 2854 2892 2954 2923 2893 2927
8 2925 2889 2853 2891 2955 2924 2892 2926
8 2926 2892 2856 2894 2956 2927 2895 2929
8 2895 2857 2896 2930 2927 2893 2928 2957
8 2897 2859 2898 2932 2929 2895 2930 2959
8 2898 2860 2899 2933 2930 2896 2931 2960
8 2900 2862 2901 2934 2932 2898 2933 2961
8 2936 2903 2885 2921 2963 2935 2920 2951
8 2936 2903 2935 2963 2906 2868 2905 2939
8 2937 2904 2886 2922 2964 2936 2921 2952
8 2937 2904 2936 2964 2907 2869 2906 2940
8 2939 2905 2938 2966 2909 2870 2908 2942
8 2940 2906 2939 2967 2910 2871 2909 2943
8 2942 2908 2941 2969 2912 2873 2911 2945
8 2943 2909 2942 2970 2913 2874 2912 2946
8 2945 2911 2944 2971 2915 2876 2914 2947
8 2946 2912 2945 2972 2916 2877 2915 2948
8 2948 2915 2947 2973 2918 2880 2917 2949
8 2951 2920 2888 2924 2975 2950 2923 2954
8 2952 2921 2889 2925 2976 2951 2924 2955
8 2927 2893 2928 2957 2954 2923 2953 2978
8 2955 2924 2892 2926 2979 2954 2927 2956
8 2929 2895 2930 2959 2956 2927 2957 2980
8 2930 2896 2931 2960 2957 2928 2958 2981
8 2932 2898 2933 2961 2959 2930 2960 2982
8 2951 2920 2950 2975 2963 2935 2962 2984
8 2963 2935 2962 2984 2939 2905 2938 2966
8 2964 2936 2921 2952 2985 2963 2951 2976
8 2964 2936 2963 2985 2940 2906 2939 2967
8 2966 2938 2965 2987 2942 2908 2941 2969
8 2967 2939 2966 2988 2943 2909 2942 2970
8 2969 2941 2968 2989 2945 2911 2944 2971
8 2970 2942 2969 2990 2946 2912 2945 2972
8 2972 2945 2971 2991 2948 2915 2947 2973
8 2954 2923 2953 2978 2975 2950 2974 2993
8 2976 2951 2924 2955 2994 2975 2954 2979
8 2957 2928 2958 2981 2978 2953 2977 2995
8 2956 2927 2957 2980 2979 2954 2978 2996
8 2959 2930 2960 2982 2980 2957 2981 2997
8 2984 2962 2983 2999 2966 2938 2965 2987
8 2975 2950 2974 2993 2984 2962 2983 2999
8 2976 2951 2975 2994 2985 2963 2984 3000
8 2985 2963 2984 3000 2967 2939 2966 2988
8 2987 2965 2986 3001 2969 2941 2968 2989
8 2988 2966 2987 3002 2970 2942 2969 2990
8 2990 2969 2989 3003 2972 2945 2971 2991
8 2978 2953 2977 2995 2993 2974 2992 3004
8 2979 2954 2978 2996 2994 2975 2993 3005
8 2980 2957 2981 2997 2996 2978 2995 3006
8 2974 2993 2999 2983 2992 3004 3007 2998
8 2983 2999 2987 2965 2998 3007 3001 2986
8 3000 2984 2999 3008 2988 2966 2987 3002
8 2994 2975 2993 3005 3000 2984 2999 3008
8 3002 2987 3001 3009 2990 2969 2989 3003
8 2996 2978 2995 3006 3005 2993 3004 3010
8 3005 2993 3004 3010 3008 2999 3007 3011
8 3008 2999 3007 3011 3002 2987 3001 3009

CELL_TYPES 1910
12
12
12
12
12
12
12
12
12
12
12
12
12
12
12
12
12
12
12
12
12
12
12
12
12
12
12
12
12
12
12
12
12
12
12
12
12
12
12
12
12
12
12
12
12
12
12
12
12
12
12
12
12
12
12
12
12
12
12
12
12
12
12
12
12
12
12
12
12
12
12
12
12
12
12
12
12
12
12
12
12
12
12
12
12
12
12
12
12
12
12
12
12
12
12
12
12
12
12
12
12
12
12
12
12
12
12
12
12
12
12
12
12
12
12
12
12
12
12
12
12
12
12
12
12
12
12
12
12
12
12
12
12
12
12
12
12
12
12
12
12
12
12
12
12
12
12
12
12
12
12
12
12
12
12
12
12
12
12
12
12
12
12
12
12
12
12
12
12
12
12
12
12
12
12
12
12
12
12
12
12
12
12
12
12
12
12
12
12
12
12
12
12
12
12
12
12
12
12
12
12
12
12
12
12
12
12
12
12
12
12
12
12
12
12
12
12
12
12
12
12
12
12
12
12
12
12
12
12
12
12
12
12
12
12
12
12
12
12
12
12
12
12
12
12
12
12
12
12
12
12
12
12
12
12
12
12
12
12
12
12
12
12
12
12
12
12
12
12
12
12
12
12
12
12
12
12
12
12
12
12
12
12
12
12
12
12
12
12
12
12
12
12
12
12
12
12
12
12
12
12
12
12
12
12
12
12
12
12
12
12
12
12
12
12
12
12
12
12
12
12
12
12
12
12
12
12
12
12
12
12
12
12
12
12
12
12
12
12
12
12
12
12
12
12
12
12
12
12
12
12
12
12
12
12
12
12
12
12
12
12
12
12
12
12
12
12
12
12
12
12
12
12
12
12
12
12
12
12
12
12
12
12
12
12
12
12
12
12
12
12
12
12
12
12
12
12
12
12
12
12
12
12
12
12
12
12
12
12
12
12
12
12
12
12
12
12
12
12
12
12
12
12
12
12
12
12
12
12
12
12
12
12
12
12
12
12
12
12
12
12
12
12
12
12
12
12
12
12
12
12
12
12
12
12
12
12
12
12
12
12
12
12
12
12
12
12
12
12
12
12
12
12
12
12
12
12
12
12
12
12
12
12
12
12
12
12
12
12
12
12
12
12
12
12
12
12
12
12
12
12
12
12
12
12
12
12
12
12
12
12
12
12
12
12
12
12
12
12
12
12
12
12
12
12
12
12
12
12
12
12
12
12
12
12
12
12
12
12
12
12
12
12
12
12
12
12
12
12
12
12
12
12
12
12
12
12
12
12
12
12
12
12
12
12
12
12
12
12
12
12
12
12
12
12
12
12
12
12
12
12
12
12
12
12
12
12
12
12
12
12
12
12
12
12
12
12
12
12
12
12
12
12
12
12
12
12
12
12
12
12
12
12
12
12
12
12
12
12
12
12
12
12
12
12
12
12
12
12
12
12
12
12
12
12
12
12
12
12
12
12
12
12
12
12
12
12
12
12
12
12
12
12
12
12
12
12
12
12
12
12
12
12
12
12
12
12
12
12
12
12
12
12
12
12
12
12
12
12
12
12
12
12
12
12
12
12
12
12
12
12
12
12
12
12
12
12
12
12
12
12
12
12
12
12
12
12
12
12
12
12
12
12
12
12
12
12
12
12
12
12
12
12
12
12
12
12
12
12
12
12
12
12
12
12
12
12
12
12
12
12
12
12
12
12
12
12
12
12
12
12
12
12
12
12
12
12
12
12
12
12
12
12
12
12
12
12
12
12
12
12
12
12
12
12
12
12
12
12
12
12
12
12
12
12
12
12
12
12
12
12
12
12
12
12
12
12
12
12
12
12
12
12
12
12
12
12
12
12
12
12
12
12
12
12
12
12
12
12
12
12
12
12
12
12
12
12
12
12
12
12
12
12
12
12
12
12
12
12
12
12
12
12
12
12
12
12
12
12
12
12
12
12
12
12
12
12
12
12
12
12
12
12
12
12
12
12
12
12
12
12
12
12
12
12
12
12
12
12
12
12
12
12
12
12
12
12
12
12
12
12
12
12
12
12
12
12
12
12
12
12
12
12
12
12
12
12
12
12
12
12
12
12
12
12
12
12
12
12
12
12
12
12
12
12
12
12
12
12
12
12
12
12
12
12
12
12
12
12
12
12
12
12
12
12
12
12
12
12
12
12
12
12
12
12
12
12
12
12
12
12
12
12
12
12
12
12
12
12
12
12
12
12
12
12
12
12
12
12
12
12
12
12
12
12
12
12
12
12
12
12
12
12
12
12
12
12
12
12
12
12
12
12
12
12
12
12
12
12
12
12
12
12
12
12
12
12
12
12
12
12
12
12
12
12
12
12
12
12
12
12
12
12
12
12
12
12
12
12
12
12
12
12
12
12
12
12
12
12
12
12
12
12
12
12
12
12
12
12
12
12
12
12
12
12
12
12
12
12
12
12
12
12
12
12
12
12
12
12
12
12
12
12
12
12
12
12
12
12
12
12
12
12
12
12
12
12
12
12
12
12
12
12
12
12
12
12
12
12
12
12
12
12
12
12
12
12
12
12
12
12
12
12
12
12
12
12
12
12
12
12
12
12
12
12
12
12
12
12
12
12
12
12
12
12
12
12
12
12
12
12
12
12
12
12
12
12
12
12
12
12
12
12
12
12
12
12
12
12
12
12
12
12
12
12
12
12
12
12
12
12
12
12
12
12
12
12
12
12
12
12
12
12
12
12
12
12
12
12
12
12
12
12
12
12
12
12
12
12
12
12
12
12
12
12
12
12
12
12
12
12
12
12
12
12
12
12
12
12
12
12
12
12
12
12
12
12
12
12
12
12
12
12
12
12
12
12
12
12
12
12
12
12
12
12
12
12
12
12
12
12
12
12
12
12
12
12
12
12
12
12
12
12
12
12
12
12
12
12
12
12
12
12
12
12
12
12
12
12
12
12
12
12
12
12
12
12
12
12
12
12
12
12
12
12
12
12
12
12
12
12
12
12
12
12
12
12
12
12
12
12
12
12
12
12
12
12
12
12
12
12
12
12
12
12
12
12
12
12
12
12
12
12
12
12
12
12
12
12
12
12
12
12
12
12
12
12
12
12
12
12
12
12
12
12
12
12
12
12
12
12
12
12
12
12
12
12
12
12
12
12
12
12
12
12
12
12
12
12
12
12
12
12
12
12
12
12
12
12
12
12
12
12
12
12
12
12
12
12
12
12
12
12
12
12
12
12
12
12
12
12
12
12
12
12
12
12
12
12
12
12
12
12
12
12
12
12
12
12
12
12
12
12
12
12
12
12
12
12
12
12
12
12
12
12
12
12
12
12
12
12
12
12
12
12
12
12
12
12
12
12
12
12
12
12
12
12
12
12
12
12
12
12
12
12
12
12
12
12
12
12
12
12
12
12
12
12
12
12
12
12
12
12
12
12
12
12
12
12
12
12
12
12
12
12
12
12
12
12
12
12
12
12
12
12
12
12
12
12
12
12
12
12
12
12
12
12
12
12
12
12
12
12
12
12
12
12
12
12
12
12
12
12
12
12
12
12
12
12
12
12
12
12
12
12
12
12
12
12
12
12
12
12
12
12
12
12
12
12
12
12
12
12
12
12
12
12
12
12
12
12
12
12
12
12
12
12
12
12
12
12
12
12
12
12
12
12
12
12
12
12
12
12
12
12
12
12
12
12
12
12
12
12
12
12
12
12
12
12
12
12
12
12
12
12
12
12
12
12
12
12
12
12
12
12
12
12
12
12
12
12
12
12
12
12
12
12
12
12
12
12
12
12
12
12
12
12
12
12
12
12
12
12
12
12
12
12
12
12
12
12
12
12
12
12
12
12
12
12
12
12
12
12
12
12
12
12
12
12
12
12
12
12
12
12
12
12
12
12
12
12
12
12
12
12
12
12
12
12
12
12
12
12
12
12
12
12
12
12
12
12
12
12
12
12
12
12
12
12
12
12
12
12
12
12
12
12
12
12
12
12
12
12
12
12
12
12
12
12
12
12
12
12
12
12
12
12
12
12
12
12
12
12
12
12
12
12
12
12
12
12
12
12
12
12
12
12
12
12
12
12
12
12
12
12
12
12
12
12
12
12
12
12
12
12
12
12
12
12
12
12
12
12
12
12
12
12
12
12
12
12
12
12
12
12
12
12
12
12
12
12
12
12
12
12
12
12
12
12
12
12
12
12
12
12
12
12
12
12
12
12
12
12
12
12
12
12
12
12
12
12
12
12
12
12
12
12
12
12
12
12
12
12
12
12
12
12
12
12
12
12
12
12
12
12
12
12
12
12
12
12
12
12
12
12
12
12
12
12
12
12
12
12
12
12
12
12
12
12
12

POINT_DATA 3012
SCALARS Jp_lamdaP float 4
LOOKUP_TABLE default
0.999996 1 1 0.999996
1 1 1 1
0.999996 1 1 0.999996
0.999976 1 1 0.999976
0.999991 1 1 0.999991
0.999999 1 1 0.999999
0.99984 1 1 0.99984
1 1 1 1
1 1 1 1
1 1 1 1
1 1 1 1
0.999941 1 1 0.999941
0.999953 1 1 0.999953
0.999977 1 1 0.999977
0.999997 1 1 0.999997
0.999979 1 1 0.999979
0.999999 1 1 0.999999
0.999993 1 1 0.999993
0.999842 1 1 0.999842
1 1 1 1
0.999972 1 1 0.999972
0.999984 1 1 0.999984
0.999739 1 1 0.999739
0.999809 1 1 0.999809
1 1 1 1
0.999874 1 1 0.999874
0.999569 1 1 0.999569
1 1 1 1
0.999994 1 1 0.999994
0.999999 1 1 0.999999
1 1 1 1
0.999947 1 1 0.999947
0.999984 1 1 0.999984
0.999997 1 1 0.999997
0.999866 1 1 0.999866
1 1 1 1
0.999924 1 1 0.999924
0.999963 1 1 0.999963
0.999631 1 1 0.999631
1 1 1 1
1 1 1 1
0.999987 1 1 0.999987
1 1 1 1
0.999969 1 1 0.999969
0.99972 1 1 0.99972
1 1 1 1
0.99981 1 1 0.99981
0.999982 1 1 0.999982
0.999994 1 1 0.999994
1 1 1 1
0.999844 1 1 0.999844
0.999978 1 1 0.999978
0.999975 1 1 0.999975
1 1 1 1
0.999987 1 1 0.999987
0.999741 1 1 0.999741
0.999875 1 1 0.999875
0.999811 1 1 0.999811
0.999558 1 1 0.999558
1 1 1 1
0.999966 1 1 0.999966
0.999764 1 1 0.999764
0.999724 1 1 0.999724
0.999773 1 1 0.999773
0.999334 1 1 0.999334
0.999464 1 1 0.999464
1 1 1 1
0.999917 1 1 0.999917
0.999644 1 1 0.999644
0.999249 1 1 0.999249
1 1 1 1
1 1 1 1
1 1 1 1
0.999953 1 1 0.999953
1 1 1 1
1 1 1 1
0.999866 1 1 0.999866
1 1 1 1
0.999928 1 1 0.999928
0.999971 1 1 0.999971
0.999629 1 1 0.999629
1 1 1 1
1 1 1 1
0.99983 1 1 0.99983
0.999893 1 1 0.999893
0.999411 1 1 0.999411
0.999988 1 1 0.999988
0.999593 1 1 0.999593
0.999668 1 1 0.999668
0.999408 1 1 0.999408
1 1 1 1
1 1 1 1
1 1 1 1
1 1 1 1
1 1 1 1
0.999982 1 1 0.999982
0.999743 1 1 0.999743
0.99999 1 1 0.99999
0.999807 1 1 0.999807
1 1 1 1
0.99969 1 1 0.99969
0.999785 1 1 0.999785
0.999137 1 1 0.999137
0.999827 1 1 0.999827
0.999225 1 1 0.999225
0.999961 1 1 0.999961
0.999977 1 1 0.999977
1 1 1 1
0.999989 1 1 0.999989
0.999743 1 1 0.999743
0.999814 1 1 0.999814
0.999877 1 1 0.999877
0.999548 1 1 0.999548
1 1 1 1
0.99997 1 1 0.99997
0.999708 1 1 0.999708
0.999724 1 1 0.999724
1 1 1 1
0.999937 1 1 0.999937
0.999776 1 1 0.999776
0.999315 1 1 0.999315
0.999632 1 1 0.999632
0.999477 1 1 0.999477
0.99925 1 1 0.99925
0.999705 1 1 0.999705
0.999714 1 1 0.999714
0.999198 1 1 0.999198
0.99927 1 1 0.99927
0.999373 1 1 0.999373
0.999025 1 1 0.999025
1 1 1 1
0.999185 1 1 0.999185
0.999984 1 1 0.999984
0.999669 1 1 0.999669
0.999313 1 1 0.999313
0.999117 1 1 0.999117
1 1 1 1
0.9998 1 1 0.9998
1 1 1 1
1 1 1 1
0.999872 1 1 0.999872
1 1 1 1
0.999979 1 1 0.999979
0.999932 1 1 0.999932
0.999628 1 1 0.999628
1 1 1 1
1 1 1 1
0.99984 1 1 0.99984
0.999902 1 1 0.999902
0.999413 1 1 0.999413
0.999992 1 1 0.999992
0.999594 1 1 0.999594
0.999668 1 1 0.999668
0.999401 1 1 0.999401
0.999999 1 1 0.999999
1 1 1 1
0.999828 1 1 0.999828
0.999324 1 1 0.999324
0.999515 1 1 0.999515
0.999143 1 1 0.999143
0.99972 1 1 0.99972
0.999364 1 1 0.999364
0.999432 1 1 0.999432
0.999313 1 1 0.999313
1 1 1 1
1 1 1 1
1 1 1 1
1 1 1 1
1 1 1 1
1 1 1 1
1 1 1 1
0.999802 1 1 0.999802
0.999734 1 1 0.999734
1 1 1 1
1 1 1 1
0.999692 1 1 0.999692
0.999782 1 1 0.999782
0.999137 1 1 0.999137
0.999818 1 1 0.999818
0.999226 1 1 0.999226
0.99968 1 1 0.99968
0.999083 1 1 0.999083
0.999189 1 1 0.999189
0.998877 1 1 0.998877
0.999265 1 1 0.999265
0.998974 1 1 0.998974
1 1 1 1
0.999974 1 1 0.999974
0.999651 1 1 0.999651
0.999725 1 1 0.999725
1 1 1 1
0.999958 1 1 0.999958
0.999779 1 1 0.999779
0.999296 1 1 0.999296
0.99949 1 1 0.99949
0.999621 1 1 0.999621
0.999251 1 1 0.999251
0.999702 1 1 0.999702
0.999714 1 1 0.999714
0.99916 1 1 0.99916
0.999284 1 1 0.999284
1 1 1 1
0.999979 1 1 0.999979
0.999686 1 1 0.999686
0.999375 1 1 0.999375
0.999001 1 1 0.999001
0.999309 1 1 0.999309
0.999195 1 1 0.999195
0.999119 1 1 0.999119
0.999999 1 1 0.999999
0.9998 1 1 0.9998
0.999094 1 1 0.999094
0.999249 1 1 0.999249
0.998926 1 1 0.998926
0.998941 1 1 0.998941
0.999115 1 1 0.999115
0.998912 1 1 0.998912
0.999996 1 1 0.999996
0.999057 1 1 0.999057
0.999701 1 1 0.999701
0.999396 1 1 0.999396
0.99918 1 1 0.99918
0.999073 1 1 0.999073
0.999746 1 1 0.999746
0.999866 1 1 0.999866
0.999527 1 1 0.999527
0.99984 1 1 0.99984
1 1 1 1
1 1 1 1
0.999908 1 1 0.999908
0.999415 1 1 0.999415
0.999996 1 1 0.999996
0.999667 1 1 0.999667
0.999595 1 1 0.999595
0.999393 1 1 0.999393
0.999999 1 1 0.999999
1 1 1 1
0.999829 1 1 0.999829
0.999325 1 1 0.999325
0.999518 1 1 0.999518
0.999144 1 1 0.999144
0.99972 1 1 0.99972
0.999372 1 1 0.999372
0.999431 1 1 0.999431
0.999304 1 1 0.999304
1 1 1 1
0.999771 1 1 0.999771
0.999888 1 1 0.999888
0.999572 1 1 0.999572
0.999058 1 1 0.999058
0.999272 1 1 0.999272
0.99901 1 1 0.99901
0.999485 1 1 0.999485
0.999269 1 1 0.999269
0.999333 1 1.00005 0.999283
0.999233 1 1 0.999233
0.999976 1 1 0.999976
1 1 1 1
1 1 1 1
1 1 1 1
1 1 1 1
1 1 1 1
1 1 1 1
1 1 1 1
1 1 1 1
0.99982 1 1 0.99982
0.999775 1 1 0.999775
0.999226 1 1 0.999226
0.999137 1 1 0.999137
0.999694 1 1 0.999694
1 1 1 1
0.99968 1 1 0.99968
0.999084 1 1 0.999084
0.999189 1 1 0.999189
0.998877 1 1 0.998877
0.999266 1 1 0.999266
0.998974 1 1 0.998974
0.99907 1 1 0.99907
0.998822 1 1 0.998822
0.998931 1 1 0.998931
0.999022 1.00022 1 0.998804
0.999012 1 1 0.999012
0.998889 1 1 0.998889
0.9997 1 1 0.9997
0.999715 1 1 0.999715
0.999121 1 1 0.999121
0.999299 1 1 0.999299
1 1 1 1
0.999974 1 1 0.999974
0.999702 1 1 0.999702
0.999376 1 1 0.999376
0.998978 1 1 0.998978
0.999205 1 1 0.999205
0.999306 1 1 0.999306
0.999121 1 1 0.999121
0.999998 1 1 0.999998
0.9998 1 1 0.9998
0.999081 1 1 0.999081
0.999248 1 1 0.999248
0.998916 1 1 0.998916
0.998966 1 1 0.998966
0.999993 1 1 0.999993
0.999701 1 1 0.999701
0.999413 1 1 0.999413
0.999114 1 1 0.999114
0.998907 1 1 0.998907
0.999162 1 1 0.999162
0.999057 1 1 0.999057
0.999074 1 1 0.999074
0.999747 1 1 0.999747
0.999524 1 1 0.999524
0.999865 1 1 0.999865
0.998875 1 1 0.998875
0.998951 1 1 0.998951
0.998866 1.00007 1 0.998796
0.998854 1 1 0.998854
0.998985 1 1 0.998985
0.999019 1.00011 1 0.998909
0.99972 1 1 0.99972
0.999028 1 1 0.999028
0.99949 1 1 0.99949
0.999243 1 1 0.999243
0.999068 1 1 0.999068
0.999111 1 1 0.999111
0.999918 1 1 0.999918
0.999519 1 1 0.999519
0.999552 1 1 0.999552
0.999424 1 1 0.999424
0.999325 1 1 0.999325
1 1 1 1
1 1 1 1
0.999829 1 1 0.999829
0.999521 1 1 0.999521
0.999144 1 1 0.999144
0.999721 1 1 0.999721
0.999429 1 1 0.999429
0.99938 1 1 0.99938
0.999295 1 1 0.999295
1 1 1 1
0.99977 1 1 0.99977
0.99989 1 1 0.99989
0.99957 1 1 0.99957
0.999057 1 1 0.999057
0.999274 1 1 0.999274
0.99901 1 1 0.99901
0.999486 1 1 0.999486
0.999279 1 1 0.999279
0.999279 1 1 0.999278
0.999262 1 1 0.999262
1 1 1 1
0.999928 1 1 0.999928
0.999532 1 1 0.999532
0.999625 1 1 0.999625
0.999426 1 1 0.999426
0.99894 1 1 0.99894
0.99915 1 1 0.99915
0.998961 1 1 0.998961
0.999324 1 1 0.999322
0.999212 1 1 0.999212
0.999193 1 1.00007 0.999127
0.999965 1 1 0.999965
0.99979 1 1 0.99979
0.999984 1 1 0.999984
0.999979 1 1 0.999979
1 1 1 1
1 1 1 1
1 1 1 1
1 1 1 1
1 1 1 1
1 1 1 1
1 1 1 1
1 1 1 1
1 1 1 1
1 1 1 1
1 1 1 1
0.999266 1 1 0.999266
0.999189 1 1 0.999189
0.998974 1 1 0.998974
0.998877 1 1 0.998877
0.999084 1 1 0.999084
0.999679 1 1 0.999679
0.999069 1 1 0.999069
0.998823 1 1 0.998823
0.998932 1 1 0.998932
0.998981 1.00018 1 0.998799
0.999011 1 1 0.999011
0.998889 1 1 0.998889
0.998807 1 1 0.998807
1.00012 1.00138 1 0.99875
0.998876 1.00003 1 0.998845
1.00073 1.00194 1 0.998792
0.998919 1 1 0.998919
0.999394 1.00048 1 0.998916
0.999068 1 1 0.999068
0.999248 1 1 0.999248
0.998905 1 1 0.998905
0.99899 1 1 0.99899
0.99999 1 1 0.99999
0.999701 1 1 0.999701
0.99943 1 1 0.99943
0.999114 1 1 0.999114
0.998901 1 1 0.998901
0.999057 1 1 0.999057
0.999144 1 1 0.999144
0.999074 1 1 0.999074
0.999748 1 1 0.999748
0.999521 1 1 0.999521
0.999864 1 1 0.999864
0.998854 1 1 0.998854
0.99895 1 1 0.99895
0.998949 1.00016 1 0.998787
0.998859 1 1 0.998859
0.999721 1 1 0.999721
0.999488 1 1 0.999488
0.999262 1 1 0.999262
0.998993 1 1 0.998993
0.999034 1.00012 1 0.998915
0.999054 1 1 0.999054
0.999042 1.00001 1 0.999028
0.999118 1 1 0.999118
0.999521 1 1 0.999521
0.999412 1 1 0.999412
0.999915 1 1 0.999915
0.999561 1 1 0.999561
0.99922 1.00048 1 0.998745
0.998833 1.00001 1 0.998826
1.00014 1.00139 1 0.998747
0.998927 1.00009 1 0.998838
0.999227 1.00025 1 0.998973
0.999501 1.00057 1 0.998932
0.999517 1 1 0.999517
0.999109 1.00001 1 0.999103
0.999356 1 1 0.999356
0.999115 1 1 0.999115
0.998993 1 1 0.998993
0.999115 1 1 0.999115
0.999943 1 1 0.999943
0.999614 1 1 0.999614
0.999423 1 1 0.999423
0.999426 1 1 0.999426
0.999373 1 1 0.999373
1 1 1 1
0.999055 1 1 0.999055
0.999893 1 1 0.999893
0.99977 1 1 0.99977
0.999569 1 1 0.999569
0.999276 1 1 0.999276
0.99901 1 1 0.99901
0.999487 1 1 0.999487
0.999273 1 1 0.999273
0.999289 1 1 0.999289
0.999291 1 1 0.999291
1 1 1 1
0.999932 1 1 0.999932
0.999532 1 1 0.999532
0.999625 1 1 0.999625
0.999418 1 1 0.999418
0.998942 1 1 0.998938
0.999151 1 1 0.999151
0.998957 1 1 0.998957
0.999349 1 1.00003 0.999324
0.999219 1 1 0.999219
0.999242 1 1.0001 0.99914
0.999951 1 1 0.999951
0.999682 1 1 0.999682
0.999377 1 1 0.999377
0.999464 1 1 0.999464
0.999342 1 1 0.999342
0.998991 1.00008 1 0.99891
0.999094 1 1 0.999094
0.999031 1 1 0.999031
0.99991 1 1.00074 0.999171
0.999055 1 1 0.999055
0.999969 1 1 0.999969
0.999737 1 1 0.999737
0.999776 1 1 0.999776
0.999649 1 1 0.999649
0.9998 1 1 0.9998
0.999989 1 1 0.999989
0.999986 1 1 0.999986
1 1 1 1
0.999981 1 1 0.999981
1 1 1 1
1 1 1 1
1 1 1 1
1 1 1 1
1 1 1 1
1 1 1 1
1 1 1 1
1 1 1 1
1 1 1 1
1 1 1 1
1 1 1 1
0.99901 1 1 0.99901
0.998932 1 1 0.998932
0.99889 1 1 0.99889
0.998936 1.00014 1 0.998794
0.998823 1 1 0.998823
0.999069 1 1 0.999069
0.998807 1 1 0.998807
1.00013 1.00139 1 0.998742
0.998865 1.00002 1 0.998845
1.00062 1.00183 1 0.998791
0.998922 1.00001 1 0.998917
0.999275 1.00036 1 0.998916
0.999866 1.00115 1 0.99872
1.00295 1.00422 1 0.998735
1.00014 1.0013 1 0.998843
1.00233 1.00354 1 0.998789
0.999163 1.00024 1 0.998922
1.0007 1.00176 1 0.998943
0.998834 1 1 0.998834
0.99895 1 1 0.99895
0.999029 1.00025 1 0.998777
0.998863 1 1 0.998863
0.999722 1 1 0.999722
0.999486 1 1 0.999486
0.999282 1 1 0.999282
0.999002 1 1 0.999002
0.999046 1.00013 1 0.998921
0.999075 1.00005 1 0.999028
0.99904 1 1 0.99904
0.999125 1 1 0.999125
0.999523 1 1 0.999523
0.9994 1 1 0.9994
0.999912 1 1 0.999912
0.999569 1 1 0.999569
0.999436 1.00069 1 0.998745
0.998831 1 1 0.998828
0.99985 1.0011 1 0.998749
0.998917 1.00008 1 0.99884
0.999517 1 1 0.999517
0.999372 1 1 0.999372
0.999113 1 1 0.999113
0.999217 1.00025 1 0.998969
0.999551 1.00059 1 0.998961
0.998985 1 1 0.998985
0.999273 1.00017 1 0.999104
0.999138 1 1 0.999138
0.999423 1 1 0.999423
0.99937 1 1 0.99937
0.999423 1 1 0.999423
0.999923 1 1 0.999923
0.999622 1 1 0.999622
1.00191 1.0032 1 0.998711
1.00014 1.0014 1 0.998749
0.99985 1.00099 1 0.998859
0.999718 1.0007 1 0.999016
0.999426 1 1 0.999426
0.999867 1.00071 1 0.999162
0.999263 1 1 0.999263
0.999143 1 1.00019 0.998949
0.998926 1 1 0.998926
0.999925 1 1 0.999925
0.999702 1 1 0.999702
0.999484 1 1 0.999484
0.999392 1 1 0.999392
0.999327 1 1 0.999327
0.999336 1 1 0.999336
1 1 1 1
0.999935 1 1 0.999935
0.998947 1.00001 1 0.998936
0.999625 1 1 0.999625
0.999532 1 1 0.999532
0.999411 1 1 0.999411
0.999152 1 1 0.999152
0.998953 1 1 0.998953
0.999326 1 1 0.999326
0.999239 1 1.00009 0.999153
0.999226 1 1 0.999226
0.999954 1 1 0.999954
0.999682 1 1 0.999682
0.999385 1 1 0.999385
0.999463 1 1 0.999463
0.999331 1 1 0.999331
0.999001 1.00009 1 0.998909
0.99909 1 1 0.99909
0.999042 1 1 0.999042
0.999613 1 1.00045 0.999164
0.999031 1 1 0.999031
0.999727 1 1 0.999727
0.999491 1 1 0.999491
0.999743 1 1.00048 0.999267
0.999332 1 1 0.999332
0.999265 1 1 0.999265
1.00039 1.00133 1 0.999062
0.998999 1 1 0.998999
0.9996 1.00057 1 0.99903
1.00073 1 1.00165 0.999075
0.998864 1 1 0.998864
0.999972 1 1 0.999972
0.999748 1 1 0.999748
0.999576 1 1 0.999576
0.999762 1 1 0.999762
0.9998 1 1 0.9998
0.999629 1 1 0.999629
0.999525 1 1 0.999525
0.999625 1 1 0.999625
0.999809 1 1 0.999809
0.99999 1 1 0.99999
0.99999 1 1 0.99999
1 1 1 1
0.999987 1 1 0.999987
1 1 1 1
1 1 1 1
1 1 1 1
1 1 1 1
1 1 1 1
1 1 1 1
1 1 1 1
1 1 1 1
1 1 1 1
1 1 1 1
1 1 1 1
0.998923 1.00001 1 0.998915
0.998857 1.00001 1 0.998846
0.999161 1.00025 1 0.998915
1.00049 1.0017 1 0.998791
1.00014 1.0014 1 0.998735
0.998808 1 1 0.998808
0.999995 1.00128 1 0.998717
1.00284 1.00411 1 0.998736
1.00007 1.00124 1 0.998835
1.0025 1.00372 1 0.998784
0.999096 1.00017 1 0.998923
1.00042 1.00146 1 0.99896
1.00335 1.00465 1 0.998707
1.00422 1.00547 1 0.998759
1.00271 1.00386 1 0.998851
1.00097 1.00196 1 0.999016
0.999647 1.0009 1 0.998746
0.99883 1 1 0.99883
0.999577 1.00083 1 0.998752
0.998907 1.00007 1 0.998842
0.999517 1 1 0.999517
0.999388 1 1 0.999388
0.999112 1 1 0.999111
0.999193 1.00023 1 0.998965
0.999625 1.00064 1 0.998989
0.999474 1.00037 1 0.999105
0.998977 1 1 0.998977
0.999161 1 1 0.999161
0.999424 1 1 0.999424
0.999366 1 1 0.999366
0.999421 1 1 0.999421
0.999903 1 1 0.999903
0.99963 1 1 0.99963
1.00168 1.00297 1 0.998714
1.00031 1.00156 1 0.998754
0.999858 1.00099 1 0.998869
0.999425 1 1 0.999425
0.999282 1 1 0.999282
0.999283 1 1.00034 0.998945
0.999947 1.00094 1 0.999007
0.998958 1 1 0.998958
0.99959 1.00043 1 0.999163
0.999926 1 1 0.999926
0.999391 1 1 0.999391
0.999345 1 1 0.999345
0.999325 1 1 0.999325
0.999491 1 1 0.999491
0.999686 1 1 0.999686
1.00316 1.00445 1 0.998716
1.00207 1.00332 1 0.998753
1.00132 1.00241 1 0.998907
1.00167 1.00259 1 0.999084
0.999372 1 1 0.999372
0.999242 1.00024 1 0.999002
0.999332 1 1.00026 0.999076
0.999709 1 1.00089 0.998825
0.999944 1 1 0.999944
0.999746 1 1 0.999746
0.999543 1 1 0.999543
0.999337 1 1 0.999337
0.999344 1 1 0.999344
0.999283 1 1 0.999283
0.999958 1 1 0.999958
0.999682 1 1 0.999682
0.99901 1.0001 1 0.998907
0.999462 1 1 0.999462
0.999393 1 1 0.999393
0.99932 1 1 0.99932
0.999086 1 1 0.999086
0.999052 1 1 0.999052
0.999422 1 1.00027 0.999157
0.99902 1 1.00001 0.999008
0.999727 1 1 0.999727
0.999497 1 1 0.999497
0.999544 1 1.00026 0.999281
0.999338 1 1 0.999338
0.99927 1 1 0.99927
1.00043 1.00137 1 0.999061
0.999003 1 1 0.999003
0.999414 1.00031 1 0.999101
1.00085 1 1.00178 0.999065
0.998859 1 1.00003 0.998829
0.999543 1 1 0.999543
0.999347 1 1 0.999347
1.00068 1 1.0015 0.999177
0.999214 1 1 0.999214
1.00493 1.00589 1 0.999053
1.00251 1.00352 0.999872 0.999121
0.999203 1.00037 1 0.998833
1.00178 1 1.00294 0.998842
0.999758 1 1 0.999758
0.999585 1 1 0.999585
0.999477 1 1 0.999477
0.9998 1 1 0.9998
0.999609 1 1 0.999609
0.999809 1 1 0.999809
0.99951 1 1 0.99951
0.999632 1 1 0.999632
0.999425 1 1 0.999425
0.999511 1 1 0.999511
0.999635 1 1 0.999635
0.999813 1 1 0.999813
0.999989 1 1 0.999989
0.99999 1 1 0.99999
1 1 1 1
0.99999 1 1 0.99999
1 1 1 1
1 1 1 1
1 1 1 1
1 1 1 1
1 1 1 1
1 1 1 1
1 1 1 1
1 1 1 1
1 1 1 1
1 1 1 1
1 1 1 1
0.999028 1.00011 1 0.998923
1.00001 1.00118 1 0.998827
1.00016 1.00118 1 0.998976
1.00268 1.00391 1 0.99878
1.00271 1.00398 1 0.998737
1.00013 1.00142 1 0.998714
1.00309 1.00439 1 0.998712
1.00412 1.00536 1 0.998759
1.00269 1.00384 1 0.998857
1.00118 1.00217 1 0.99901
1.00503 1.0063 1 0.998735
1.00537 1.00656 1 0.998823
1.00404 1.00511 1 0.998935
1.00145 1.00273 1 0.998718
1.00049 1.00173 1 0.99876
0.999855 1.00098 1 0.998879
0.999423 1 1 0.999423
0.999301 1 1 0.999301
0.999464 1 1.00052 0.998941
1.00014 1.00115 1 0.998997
0.999317 1.00015 1 0.999165
0.998991 1 1 0.998991
0.99939 1 1 0.99939
0.999354 1 1 0.999354
0.999322 1 1 0.999322
0.999927 1 1 0.999927
0.999498 1 1 0.999498
0.999671 1 1 0.999671
1.00362 1.00491 1 0.998717
1.00179 1.00305 1 0.998751
1.0013 1.00241 1 0.998895
0.999368 1 1 0.999368
0.999336 1 1.00023 0.999109
0.999709 1 1.00088 0.99883
1.00213 1.00303 1 0.999102
0.999199 1.0002 1 0.998997
0.999959 1 1 0.999959
0.999746 1 1 0.999746
0.999343 1 1 0.999343
0.999295 1 1 0.999295
0.99934 1 1 0.99934
0.999531 1 1 0.999531
1.00468 1.00593 1 0.99876
1.00393 1.00514 1 0.998787
1.00478 1.00584 0.999905 0.999038
1.00338 1.00425 1 0.999132
0.999282 1 1 0.999282
1.00016 1 1.0014 0.998756
1.00039 1 1.00144 0.998951
0.999989 1 1 0.999989
0.999832 1 1 0.999832
0.999748 1 1 0.999748
0.99956 1 1 0.99956
0.999392 1 1 0.999392
0.999231 1 1 0.999231
0.999344 1 1 0.999344
0.999909 1 1.00062 0.999291
0.999727 1 1 0.999727
0.999504 1 1 0.999504
1.0004 1.00134 1 0.999061
0.999344 1 1 0.999344
0.999365 1 1.00007 0.999295
0.999274 1 1 0.999274
0.999007 1 1 0.999007
0.999172 1 1 0.999172
1.00093 1 1.00188 0.999056
0.998795 1 1 0.998795
0.999537 1 1 0.999537
0.999356 1 1 0.999356
1.00085 1 1.00167 0.999188
0.999224 1 1 0.999224
1.00474 1.0057 1 0.999044
1.00212 1.00306 0.999949 0.99912
0.999406 1.00054 1 0.998864
1.00134 1 1.00251 0.998825
0.999432 1 1 0.999432
1.00501 1.00604 1 0.998975
0.999249 1 1 0.999249
1.00042 1 1.00136 0.999068
1.00807 1.00925 0.999722 0.999116
1.0026 1.00377 1 0.99884
1.00175 1 1.00303 0.998723
0.999595 1 1 0.999595
0.999477 1 1 0.999477
0.999383 1 1 0.999383
0.999809 1 1 0.999809
0.99964 1 1 0.99964
0.999495 1 1 0.999495
0.999813 1 1 0.999813
0.999635 1 1 0.999635
0.999412 1 1 0.999412
0.999526 1 1 0.999526
0.99935 1 1 0.99935
0.999412 1 1 0.999412
0.999541 1 1 0.999541
0.999654 1 1 0.999654
0.999809 1 1 0.999809
0.999987 1 1 0.999987
0.999989 1 1 0.999989
1 1 1 1
0.99999 1 1 0.99999
1 1 1 1
1 1 1 1
1 1 1 1
1 1 1 1
1 1 1 1
0.999996 1 1 0.999996
1 1 1 1
1 1 1 1
1 1 1 1
1 1 1 1
1 1 1 1
1 1 1 1
1.0014 1.0024 1 0.999005
1.00266 1.0038 1 0.998863
1.00401 1.00526 1 0.998758
1.00284 1.00413 1 0.998717
1.00495 1.00621 1 0.998741
1.0057 1.0069 1 0.998814
1.00436 1.00542 1 0.998949
1.0049 1.0061 1 0.998802
1.00662 1.00776 1 0.998876
1.00433 1.00533 1 0.999005
1.00404 1.00532 1 0.998719
1.0015 1.00276 1 0.998749
1.00134 1.00246 1 0.998882
0.999364 1 1 0.999364
0.999302 1 1.00016 0.999142
0.99961 1 1.00078 0.998835
1.00269 1.00357 1 0.999121
0.99911 1.00012 1 0.998993
0.999343 1 1 0.999343
0.999306 1 1 0.999306
0.999344 1 1 0.999344
0.999974 1 1 0.999974
0.999746 1 1 0.999746
0.99952 1 1 0.99952
1.00422 1.00546 1 0.998768
0.999986 1 1 0.999986
0.999822 1 1 0.999822
1.00386 1.00508 1 0.998787
1.00554 1.00653 1 0.999012
0.999302 1 1 0.999301
1.00081 1 1.00189 0.998923
0.999602 1 1.00084 0.998763
1.00298 1.00385 1 0.999132
0.999778 1 1 0.999778
0.99956 1 1 0.99956
0.999328 1 1 0.999328
0.999646 1 1.00031 0.999336
0.999212 1 1 0.999212
0.999395 1 1 0.999395
1.00533 1.0065 1 0.998841
1.00669 1.00783 1 0.998877
1.00683 1.00803 0.999601 0.999209
0.99967 1.00074 1 0.99893
1.00031 1 1.00106 0.999246
1.00315 1 1.0044 0.998754
0.999834 1 1 0.999834
0.999803 1 1 0.999803
0.999687 1 1 0.999687
0.999565 1 1 0.999565
0.99944 1 1 0.99944
0.999266 1 1 0.999266
0.999701 1 1.00056 0.999138
0.999345 1 1 0.999345
0.999531 1 1 0.999531
0.999365 1 1 0.999365
1.00471 1.00568 1 0.999036
1.00194 1.00282 1 0.999119
0.999234 1 1 0.999234
1.00097 1 1.00178 0.999199
0.999656 1.00073 1.00004 0.998895
1.00095 1 1.00214 0.998809
0.99943 1 1 0.99943
1.00546 1.00648 1 0.998991
0.999251 1 1 0.999251
1.00058 1 1.00153 0.999051
1.00742 1.00858 0.99974 0.999104
1.00297 1.00413 1 0.99885
1.0019 1 1.00318 0.998728
0.999309 1 1 0.999309
1.0155 1.01741 0.999031 0.999097
0.999158 1 1 0.999158
1.0019 1 1.003 0.998902
1.0034 1.00729 0.997225 0.998906
1.00173 1.00082 1.00221 0.998694
1.00793 1.00989 0.998964 0.9991
0.999476 1 1 0.999476
0.999383 1 1 0.999383
0.999315 1 1 0.999315
0.999813 1 1 0.999813
0.999634 1 1 0.999634
0.999541 1 1 0.999541
0.9994 1 1 0.9994
0.999809 1 1 0.999809
0.999644 1 1 0.999644
0.999346 1 1 0.999346
0.99954 1 1 0.99954
0.999425 1 1 0.999425
0.999333 1 1 0.999333
0.999462 1 1 0.999462
0.999549 1 1 0.999549
0.999627 1 1 0.999627
0.999779 1 1 0.999779
0.999673 1 1 0.999673
0.99978 1 1 0.99978
0.999986 1 1 0.999986
0.999987 1 1 0.999987
1 1 1 1
0.999988 1 1 0.999988
1 1 1 1
1 1 1 1
1 1 1 1
1 1 1 1
1 1 1 1
0.999998 1 1 0.999998
0.999994 1 1 0.999994
1 1 1 1
1 1 1 1
1 1 1 1
1 1 1 1
1 1 1 1
1 1 1 1
1.00468 1.00572 1 0.998963
1.00604 1.00725 1 0.998805
1.0049 1.00616 1 0.998747
1.00528 1.00649 1 0.998801
1.00609 1.00722 1 0.998881
1.00458 1.00557 1 0.999011
1.00574 1.00682 1 0.998922
1.01039 1.01561 0.995752 0.999097
1.01792 1.01967 0.999124 0.999159
0.999872 1 1 0.999872
1.00382 1.00505 1 0.998776
1.00367 1.00489 1 0.998786
1.00606 1.00708 1 0.998986
0.999319 1 1 0.999319
1.00144 1 1.00255 0.998895
0.999222 1 1.00045 0.998771
1.00253 1.0034 1 0.999132
0.999313 1 1 0.999313
0.999381 1 1 0.999381
0.999194 1 1 0.999194
0.999982 1 1 0.999982
0.999397 1 1 0.999397
0.999807 1 1 0.999807
0.999559 1 1 0.999559
0.999811 1 1 0.999811
1.00539 1.00656 1 0.998839
0.999847 1 1 0.999847
0.999802 1 1 0.999802
0.999665 1 1 0.999665
1.00715 1.00828 1 0.998881
1.0054 1.00676 0.999469 0.999176
0.999857 1 1.0006 0.999256
1.00342 1 1.00468 0.998744
0.999939 1.00084 1.00016 0.998935
0.999581 1 1 0.999581
0.999433 1 1 0.999433
0.999481 1 1.00016 0.99932
0.999809 1 1.00065 0.999159
0.999278 1 1 0.999278
1.00828 1.00941 1.00003 0.998856
1.00717 1.01083 0.997374 0.999007
1.00184 1.0031 0.999716 0.999029
1.00183 1.00016 1.00285 0.998823
1.003 1 1.00385 0.999152
0.999667 1 1 0.999667
0.999609 1 1 0.999609
0.999545 1 1 0.999545
0.999451 1 1 0.999451
0.99934 1 1 0.99934
0.999294 1 1.00011 0.999189
1.00242 1 1.00332 0.999099
0.999429 1 1 0.999429
0.999252 1 1 0.999252
1.00585 1.00685 1 0.999008
1.00662 1.00782 0.999712 0.999093
1.00317 1.00432 1 0.99886
1.00072 1 1.00169 0.999035
1.00191 1 1.00318 0.998733
0.999322 1 1 0.999322
1.01504 1.01752 0.998466 0.999102
0.999162 1 1 0.999162
1.00195 1 1.00304 0.998908
1.00468 1.00792 0.99784 0.998942
1.00201 1.00064 1.00269 0.998688
1.0094 1.01146 0.998946 0.999024
0.999239 1 1 0.999239
1.00126 1.01163 0.990694 0.999044
0.999911 1 1.00079 0.999124
1.0049 1 1.00608 0.998828
1.00108 1.00122 1.00109 0.998772
0.959135 0.966124 0.998037 0.994719
1.00158 0.997615 1.00618 0.997804
0.989067 1.00829 0.981703 0.999218
0.921581 0.9398 0.983519 0.997046
0.921662 0.957203 0.965247 0.997538
0.999382 1 1 0.999382
0.99932 1 1 0.99932
0.999299 1 1 0.999299
0.999809 1 1 0.999809
0.999635 1 1 0.999635
0.99954 1 1 0.99954
0.999439 1 1 0.999439
0.999342 1 1 0.999342
0.999535 1 1 0.999535
0.999792 1 1 0.999792
0.999637 1 1 0.999637
0.999339 1 1 0.999339
0.999459 1 1 0.999459
0.999471 1 1 0.999471
0.999385 1 1 0.999385
0.99951 1 1 0.99951
0.999619 1 1 0.999619
0.999778 1 1 0.999778
0.999652 1 1 0.999652
0.999553 1 1 0.999553
0.999642 1 1 0.999642
0.999654 1 1 0.999654
0.999803 1 1 0.999803
0.99978 1 1 0.99978
0.999985 1 1 0.999985
0.999986 1 1 0.999986
1 1 1 1
0.999986 1 1 0.999986
1 1 1 1
1 1 1 1
1 1 1 1
1 1 1 1
1 1 1 1
0.999999 1 1 0.999999
0.999998 1 1 0.999998
1 1 1 1
0.999992 1 1 0.999992
1 1 1 1
1 1 1 1
1 1 1 1
1 1 1 1
1 1 1 1
1.00556 1.00668 1 0.998886
1.0056 1.00681 1 0.9988
1.00478 1.00577 1 0.999017
1.01118 1.0155 0.996633 0.999113
1.00551 1.0066 1 0.99892
1.01862 1.02025 0.99928 0.999119
1.01782 1.01904 0.999969 0.998838
0.978166 0.984914 0.995802 0.997335
1.01617 1.01806 0.998906 0.999228
0.999879 1 1 0.999879
0.999872 1 1 0.999872
0.999713 1 1 0.999713
0.999731 1 1 0.999731
1.0055 1.00668 1 0.998837
1.00774 1.00887 1 0.998884
1.00388 1.00526 0.999481 0.999142
0.999266 1 1 0.999266
1.00327 1 1.00454 0.998735
1.00009 1.00102 1.00013 0.99894
0.999617 1 1.00032 0.999294
0.999922 1 1.00074 0.999181
0.999291 1 1 0.999291
0.999802 1 1 0.999802
0.999427 1 1 0.999427
0.999596 1 1 0.999596
0.99986 1 1 0.99986
0.999642 1 1 0.999642
1.00686 1.00797 1.00003 0.998874
0.99969 1 1 0.99969
0.999622 1 1 0.999622
0.999542 1 1 0.999542
1.00855 1.01126 0.998305 0.999016
1.0006 1.00203 0.999541 0.999026
1.00266 1 1.00352 0.99915
1.00156 1.00019 1.00256 0.99881
0.999455 1 1 0.999455
0.999347 1 1 0.999347
1.00144 1 1.00234 0.999099
0.999592 1 1.00042 0.999172
1.01663 1.0178 0.999952 0.998901
1.00439 1.00917 0.996276 0.998986
1.00051 1.00102 1.00073 0.998771
1.00173 1 1.00269 0.999038
0.999501 1 1 0.999501
0.999486 1 1 0.999486
0.999301 1 1 0.999301
1.00284 1 1.00382 0.999026
0.950039 0.964171 0.990698 0.994595
0.999335 1 1 0.999335
0.999167 1 1 0.999167
1.01437 1.01746 0.997858 0.999107
1.006 1.00847 0.99857 0.998979
1.00246 1.00048 1.0033 0.998682
1.00209 1 1.00318 0.998915
1.01068 1.01278 0.998974 0.998947
0.999248 1 1 0.999248
1.00085 1.01145 0.990469 0.999033
0.999663 1 1.00054 0.999127
1.0047 1 1.00587 0.998832
1.00062 1.00153 1.00031 0.998782
0.956772 0.965572 0.995906 0.994959
0.996323 0.994947 1.00444 0.996956
0.992246 1.00894 0.984182 0.99926
0.928726 0.942599 0.988572 0.996672
0.912775 0.95097 0.962376 0.99736
0.999267 1 1 0.999267
0.929516 0.941805 0.990631 0.996285
0.939632 0.958955 0.98205 0.997759
0.978153 1.00262 0.976532 0.999047
1.0029 1 1.00378 0.999124
1.0089 1 1.00998 0.998927
0.991886 1.00731 0.985361 0.999316
0.968839 0.971025 1.00333 0.994441
1.00083 0.996683 1.00744 0.996748
0.919755 0.945803 0.975448 0.996937
0.953918 0.984603 0.97049 0.998295
0.999325 1 1 0.999325
0.999299 1 1 0.999299
0.99932 1 1 0.99932
0.999804 1 1 0.999804
0.999648 1 1 0.999648
0.999522 1 1 0.999522
0.999455 1 1 0.999455
0.999345 1 1 0.999345
0.999778 1 1 0.999778
0.999472 1 1 0.999472
0.999524 1 1 0.999524
0.999632 1 1 0.999632
0.999374 1 1 0.999374
0.999426 1 1 0.999426
0.999548 1 1.0002 0.999351
0.999524 1 1 0.999524
0.999643 1 1 0.999643
0.999651 1 1 0.999651
0.999539 1 1 0.999539
0.999536 1 1 0.999536
0.999525 1 1 0.999525
0.999469 1 1 0.999469
0.999446 1 1 0.999446
0.999619 1 1 0.999619
0.999642 1 1 0.999642
0.999797 1 1 0.999797
0.999635 1 1 0.999635
0.999792 1 1 0.999792
0.999984 1 1 0.999984
0.99978 1 1 0.99978
0.999985 1 1 0.999985
1 1 1 1
0.999985 1 1 0.999985
1 1 1 1
1 1 1 1
1 1 1 1
1 1 1 1
1 1 1 1
0.999875 1 1 0.999875
0.999999 1 1 0.999999
0.999999 1 1 0.999999
1 1 1 1
0.999997 1 1 0.999997
1 1 1 1
1 1 1 1
1 1 1 1
1 1 1 1
1 1 1 1
1.01257 1.01581 0.997684 0.999129
1.0053 1.00639 1 0.998918
1.01931 1.02086 0.999396 0.999079
0.980159 0.98446 0.997778 0.997849
1.0161 1.0178 0.999079 0.999252
1.01877 1.02016 0.999809 0.998825
1.02023 1.02033 1.00094 0.998963
0.984156 0.986526 0.999751 0.997845
0.958089 0.966938 0.996959 0.993871
0.912864 0.938174 0.976963 0.995966
0.914444 0.948336 0.966678 0.9975
0.999706 1 1 0.999706
0.999879 1 1 0.999879
0.999872 1 1 0.999872
0.999706 1 1 0.999706
0.999604 1 1 0.999604
0.999628 1 1 0.999628
0.999714 1 1 0.999714
0.999721 1 1 0.999721
1.00527 1.00636 1.00003 0.998891
1.01026 1.01213 0.999126 0.999025
0.999752 1.00141 0.999317 0.999024
1.00263 1 1.00349 0.999148
1.00166 1.00014 1.00272 0.998798
1.00052 1 1.00142 0.9991
0.999887 1 1.00073 0.999155
0.999353 1 1 0.999353
0.999635 1 1 0.999635
0.999458 1 1 0.999458
0.999713 1 1 0.999713
0.999538 1 1 0.999538
1.0169 1.01859 0.999458 0.998877
0.999512 1 1 0.999512
0.999486 1 1 0.999486
1.00392 1.00829 0.996674 0.998981
1.00043 1.00121 1.0004 0.998819
1.00273 1 1.00373 0.999006
0.999294 1 1 0.999294
1.00273 1 1.0037 0.99903
1.00915 1.01845 0.992039 0.998828
0.995315 1.00167 0.994755 0.998893
0.999947 1 1.00103 0.998916
1.00533 1 1.00631 0.999026
0.999427 1 1 0.999427
0.999346 1 1 0.999346
0.999695 1 1.00054 0.999152
0.921512 0.942405 0.981104 0.996663
0.956547 0.965963 0.995336 0.994893
0.999256 1 1 0.999256
0.999454 1 1.00032 0.999131
1.00112 1.01173 0.990483 0.999021
1.00006 1.00185 0.999411 0.998793
1.00439 1 1.00557 0.998835
0.958501 0.96683 0.997593 0.993777
0.996286 0.995789 1.00283 0.997672
0.995736 1.00984 0.986725 0.999302
0.923195 0.94341 0.982297 0.996208
0.903038 0.943889 0.959424 0.997182
0.999274 1 1.00001 0.999266
0.924323 0.945006 0.981293 0.99676
0.942108 0.957567 0.986083 0.997742
0.980356 1.00294 0.978426 0.999038
1.0024 1 1.00328 0.99913
1.00809 1 1.00915 0.998948
0.985537 1.00458 0.981715 0.999318
0.969687 0.972174 1.00338 0.994085
0.997925 0.994251 1.00611 0.997596
0.921607 0.945144 0.978912 0.996102
0.952368 0.983946 0.969694 0.998158
0.99933 1 1.00005 0.999276
0.953803 0.958279 0.997078 0.998246
1.00186 1.00323 0.999578 0.999055
0.986624 1 0.987361 0.999253
1.00773 1 1.00843 0.999311
1.00601 1.0009 1.00548 0.999633
0.991294 0.991709 1.00117 0.99841
0.974399 0.972392 1.00787 0.994237
0.939061 0.966568 0.975364 0.996081
0.975824 1.00476 0.972435 0.998731
0.9993 1 1 0.9993
0.999308 1 1 0.999308
0.99978 1 1.00042 0.999359
0.999778 1 1 0.999778
0.999645 1 1 0.999645
0.999539 1 1 0.999539
0.999473 1 1 0.999473
0.999363 1 1 0.999363
0.999643 1 1 0.999643
0.999436 1 1 0.999436
0.999523 1 1 0.999523
0.999596 1 1.00024 0.999351
0.99992 1 1.00055 0.999365
0.999504 1 1.00009 0.999417
0.999527 1 1 0.999527
0.999651 1 1 0.999651
0.999525 1 1 0.999525
0.999536 1 1 0.999536
0.999524 1 1 0.999524
0.999466 1 1 0.999466
0.999492 1 1 0.999492
0.999459 1 1 0.999459
0.999423 1 1 0.999423
0.99934 1 1 0.99934
0.999382 1 1.00009 0.999291
0.9994 1 1 0.9994
0.999445 1 1 0.999445
0.999585 1 1 0.999585
0.999618 1 1 0.999618
0.999784 1 1 0.999784
0.999642 1 1 0.999642
0.999797 1 1 0.999797
0.999982 1 1 0.999982
0.999782 1 1 0.999782
0.999983 1 1 0.999983
1 1 1 1
0.999984 1 1 0.999984
1 1 1 1
1 1 1 1
1 1 1 1
1 1 1 1
1 1 1 1
0.999887 1 1 0.999887
0.999999 1 1 0.999999
0.999875 1 1 0.999875
1 1 1 1
0.999999 1 1 0.999999
0.999999 1 1 0.999999
1 1 1 1
1 1 1 1
1 1 1 1
1 1 1 1
1 1 1 1
0.923442 0.941576 0.983731 0.99696
0.94562 0.959272 0.987689 0.998056
0.983104 0.98512 0.999719 0.998234
1.01627 1.01751 0.999504 0.999275
1.01976 1.02132 0.999657 0.998811
0.98395 0.985026 1.00019 0.99872
1.01971 1.02013 1.00062 0.998971
0.960881 0.968986 0.996784 0.994835
0.922546 0.940015 0.984463 0.996906
0.907912 0.94611 0.9622 0.997325
1.00047 0.999189 1.00216 0.999116
0.967801 0.970587 1.00241 0.994728
0.915142 0.943132 0.973342 0.996898
0.952436 0.98166 0.97222 0.997952
0.999564 1 1 0.999564
0.999716 1 1 0.999716
0.999879 1 1 0.999879
0.999699 1 1 0.999699
0.999616 1 1 0.999616
0.999583 1 1 0.999583
0.999629 1 1 0.999629
0.999652 1 1 0.999652
0.999701 1 1 0.999701
0.999711 1 1 0.999711
1.01714 1.0193 0.999025 0.998854
1.00258 1.00657 0.997063 0.998976
1.0003 1.0013 1.00013 0.998866
1.00347 1 1.00451 0.998973
1.00249 1 1.00346 0.999034
0.999288 1 1 0.999288
0.999485 1 1 0.999485
0.999523 1 1 0.999523
1.01025 1.01858 0.993013 0.9988
0.999422 1 1 0.999422
0.999331 1 1 0.999331
0.996243 1.00159 0.995795 0.998859
1.00029 1 1.00133 0.998956
1.00417 1 1.00518 0.998997
1.00069 1 1.00154 0.999145
1.00996 1.01122 0.99995 0.998809
0.999639 1 1.00049 0.999146
1.00469 1 1.00563 0.999065
0.99941 1 1 0.99941
0.999318 1 1 0.999318
0.9992 1 1 0.9992
0.95542 0.962322 0.994569 0.99825
0.924982 0.942253 0.985512 0.996102
0.953719 0.966211 0.992465 0.994566
0.999265 1 1 0.999265
1.00193 1 1.00279 0.999137
0.982692 1.00317 0.980537 0.999028
1.00747 1 1.0085 0.998969
0.922595 0.944832 0.980336 0.996051
0.968298 0.971395 1.0015 0.995318
0.998767 0.996067 1.00593 0.996799
0.982691 1.00212 0.981269 0.999327
0.92481 0.944 0.982619 0.997001
0.943141 0.958968 0.98581 0.997653
0.947437 0.981534 0.967223 0.997972
0.999442 1 1.00017 0.999275
0.951418 0.959369 0.993521 0.998179
1.0013 1.00247 0.999766 0.99906
0.989649 1 0.990377 0.999265
1.00779 1 1.00848 0.999313
1.00611 1.00175 1.0051 0.999247
0.992537 0.991662 1.00369 0.9972
0.972449 0.973554 1.00474 0.994153
0.941411 0.968693 0.974588 0.997176
0.969795 0.998865 0.972307 0.99855
0.999874 1 1.00037 0.999509
1.00598 1.00686 0.999791 0.999331
1.01678 1.01456 1.00269 0.9995
1.00772 0.999745 1.00827 0.999715
0.995773 0.990659 1.00595 0.999214
0.976329 0.976786 1.00551 0.994054
0.967128 0.983924 0.985512 0.997379
0.974973 1.00665 0.969976 0.998509
0.999297 1 1 0.999297
0.99973 1 1.00036 0.999375
1.00075 1 1.0013 0.999451
0.999643 1 1 0.999643
0.999523 1 1 0.999523
0.999447 1 1 0.999447
0.999632 1 1.00028 0.999351
0.999527 1 1 0.999527
0.999448 1 1.00003 0.999417
1.0003 1 1.00093 0.999372
1.00031 1 1.00086 0.999456
0.999582 1 1.00021 0.99937
0.999449 1 1 0.999449
0.999536 1 1 0.999536
0.999524 1 1 0.999524
0.999463 1 1 0.999463
0.999461 1 1 0.999461
0.999492 1 1 0.999492
0.999428 1 1 0.999428
0.999389 1 1 0.999389
0.999402 1 1 0.999402
0.999313 1 1 0.999313
0.999345 1 1 0.999345
0.999372 1 1.00009 0.999285
0.999221 1 1.00003 0.999189
0.999406 1 1 0.999406
0.999381 1 1.00005 0.99933
0.999416 1 1 0.999416
0.999525 1 1 0.999525
0.999445 1 1 0.999445
0.999584 1 1 0.999584
0.999761 1 1 0.999761
0.999617 1 1 0.999617
0.999784 1 1 0.999784
0.999979 1 1 0.999979
0.999797 1 1 0.999797
0.999981 1 1 0.999981
1 1 1 1
0.999983 1 1 0.999983
1 1 1 1
1 1 1 1
1 1 1 1
1 1 1 1
1 1 1 1
0.999835 1 1 0.999835
0.999999 1 1 0.999999
0.999864 1 1 0.999864
1 1 1 1
0.999999 1 1 0.999999
0.999875 1 1 0.999875
1 1 1 1
1 1 1 1
0.999999 1 1 0.999999
1 1 1 1
1 1 1 1
1 1 1 1
0.956812 0.961273 0.996931 0.998423
0.923769 0.941734 0.984421 0.996448
1.00023 1.00366 0.997569 0.999007
0.9412 0.956668 0.98585 0.997952
0.979931 0.983685 0.998525 0.997655
1.0188 1.01995 0.999893 0.998977
0.961499 0.968823 0.996611 0.995815
0.919947 0.941596 0.980886 0.996046
0.901298 0.943905 0.95759 0.99715
0.997851 0.999495 0.999653 0.998702
0.968359 0.969816 1.00412 0.994405
0.918214 0.946825 0.973658 0.99602
0.950804 0.98106 0.971185 0.997914
0.997171 0.999623 0.998756 0.99879
0.970394 0.970516 1.00574 0.994172
0.943627 0.970142 0.975486 0.997112
0.974889 1.00453 0.971874 0.998578
0.999479 1 1 0.999479
0.999578 1 1 0.999578
0.999725 1 1 0.999725
0.999629 1 1 0.999629
0.999501 1 1 0.999501
0.999593 1 1 0.999593
0.999631 1 1 0.999631
0.999635 1 1 0.999635
0.999666 1 1 0.999666
0.999688 1 1 0.999688
1.01206 1.01946 0.993964 0.998774
0.997582 1.0019 0.996859 0.998826
1.00059 1 1.00159 0.998996
1.00331 1 1.00435 0.998969
1.00176 1 1.00262 0.999138
0.999316 1 1 0.999316
0.999416 1 1 0.999416
0.999412 1 1 0.999412
1.00537 1.00966 0.996915 0.998829
0.999328 1 1 0.999328
0.999289 1 1.00009 0.999198
0.998234 1 0.999132 0.999102
1.00412 1 1.00506 0.999065
0.996465 1.00623 0.991159 0.999129
1.01264 1 1.01331 0.999343
0.999944 1 1.00078 0.999165
0.999339 1 1 0.999339
0.999208 1 1 0.999208
1.00899 1.00979 0.999768 0.999448
0.95679 0.96171 0.9965 0.998378
0.924656 0.942982 0.983579 0.996936
0.999511 1 1.00024 0.999273
1.00758 1 1.00827 0.999315
0.991095 1 0.991814 0.999275
0.956727 0.961028 0.997136 0.998384
0.972644 0.971551 1.00713 0.99404
0.994773 0.993048 1.0036 0.998141
1.00103 1.00176 1.00044 0.998837
0.94005 0.966031 0.976934 0.996081
1.00012 1.0011 0.999953 0.999065
0.965492 0.995229 0.971499 0.998581
1.0001 1 1.00058 0.999522
1.00421 1.00483 0.999936 0.999443
1.01872 1.01612 1.00305 0.999508
1.00733 0.999674 1.00807 0.999597
0.995395 0.992071 1.0045 0.998858
0.980737 0.979071 1.00782 0.993932
0.977125 1.01054 0.968217 0.998679
0.952889 0.976418 0.979008 0.996827
1.00047 0.999702 1.00105 0.999711
1.01954 1.01936 1.00033 0.999847
1.02557 1.02192 1.004 0.999571
0.976584 1.0046 0.97349 0.99858
1.00292 0.991226 1.01206 0.999741
0.979195 0.978428 1.0064 0.994421
0.947238 0.965715 0.983584 0.997237
0.999657 1 1.00027 0.99939
1.00051 1 1.00109 0.999414
1.00312 1 1.00355 0.999566
0.999527 1 1 0.999527
0.999416 1 1 0.999416
1.00075 1 1.00138 0.999379
0.999451 1 1 0.999451
0.999694 1 1.00033 0.999369
1.00069 1 1.00126 0.999429
0.999852 1 1.00035 0.999498
0.999379 1 1 0.999379
0.999463 1 1 0.999463
0.999491 1 1 0.999491
0.999432 1 1 0.999432
0.999401 1 1 0.999401
0.999395 1 1 0.999395
0.999373 1 1 0.999373
0.999338 1 1 0.999338
1.001 1 1.00187 0.999138
0.99935 1 1 0.99935
0.999367 1 1.00009 0.99928
0.999315 1 1.00024 0.999075
0.999198 1 1.00001 0.999188
0.999365 1 1 0.999365
0.999305 1 1.00011 0.999193
0.999503 1 1 0.999503
0.999394 1 1 0.999394
0.999368 1 1 0.999368
0.999432 1 1 0.999432
0.999539 1 1 0.999539
0.999727 1 1 0.999727
0.999584 1 1 0.999584
0.999761 1 1 0.999761
0.999972 1 1 0.999972
0.999783 1 1 0.999783
0.999977 1 1 0.999977
1 1 1 1
0.99998 1 1 0.99998
1 1 1 1
1 1 1 1
1 1 1 1
1 1 1 1
1 1 1 1
0.999764 1 1 0.999764
0.999965 1 1 0.999965
0.999834 1 1 0.999834
1 1 1 1
0.999986 1 1 0.999986
0.999841 1 1 0.999841
1 1 1 1
1 1 1 1
0.999999 1 1 0.999999
1 1 1 1
1 1 1 1
1 1 1 1
1.00564 1.00659 0.999662 0.999392
0.950403 0.960567 0.991246 0.998157
0.926374 0.941608 0.987594 0.99618
0.999585 1 1 0.999585
1.01608 1.01399 1.00247 0.999596
1.00172 1.00376 0.998947 0.999013
0.934865 0.956012 0.980072 0.997763
0.995931 0.999934 0.997742 0.998251
0.970379 0.971416 1.0043 0.994652
0.922454 0.950655 0.973337 0.996916
0.946191 0.978938 0.968685 0.997793
0.999878 1.00266 0.999574 0.997652
0.968522 0.969907 1.00425 0.994345
0.94485 0.969684 0.977609 0.996706
0.973524 1.00374 0.971423 0.998426
0.992975 0.993495 1.00239 0.997095
0.975265 0.971847 1.01039 0.993195
0.953516 0.97824 0.978239 0.996409
0.975152 1.00742 0.969422 0.998497
0.999399 1 1 0.999399
0.999471 1 1 0.999471
0.999592 1 1 0.999592
0.999487 1 1 0.999487
0.999518 1 1 0.999518
0.999603 1 1 0.999603
0.999639 1 1 0.999639
0.999679 1 1 0.999679
1.00072 1.00784 0.994074 0.998849
0.996793 1 0.997733 0.999058
0.999413 1 1 0.999413
1.00344 1 1.00438 0.999065
0.999362 1 1.00017 0.999196
0.999337 1 1 0.999337
0.999342 1 1 0.999342
1.00068 1.00709 0.994491 0.999135
0.999221 1 1 0.999221
1.00076 1 1.0016 0.99916
1.00951 1 1.01018 0.999335
0.999349 1 1 0.999349
0.991546 0.999488 0.992508 0.999543
1.01308 1 1.01363 0.999454
0.999245 1 1 0.999245
0.999284 1 1 0.999284
1.02063 1.02143 0.99935 0.999874
1.00854 1.00937 0.999723 0.999455
0.958041 0.96086 0.998555 0.998508
1.00036 1 1.00083 0.999536
1.00795 0.999579 1.0089 0.99948
1.00259 1.00304 0.999995 0.999555
0.978136 0.975345 1.00878 0.994137
0.998009 0.992497 1.00787 0.997704
0.954777 0.977722 0.980108 0.996352
1.02067 1.01767 1.00343 0.999516
0.980705 1.01536 0.966985 0.998849
1.00059 0.99959 1.00132 0.999678
1.01973 1.01993 0.999948 0.999851
1.02523 1.02178 1.00372 0.999659
1.00594 0.994099 1.01198 0.999931
0.974479 1.00362 0.972499 0.998423
0.978946 0.978299 1.00617 0.99453
0.951707 0.973549 0.981229 0.996265
1.00535 0.996657 1.00896 0.999771
1.02421 1.02318 1.00111 0.999887
1.01607 1.01452 1.00193 0.999597
0.954054 0.982118 0.973404 0.997967
0.95235 0.978281 0.97703 0.99638
0.997009 0.99004 1.00703 1.00001
0.978936 0.972686 1.01242 0.994077
1.00027 1 1.00089 0.999378
1.00223 1 1.00268 0.99955
1.01053 0.99835 1.01262 0.999582
0.999453 1 1 0.999453
0.999733 1 1.00037 0.999368
1.00094 1 1.00154 0.999403
0.999377 1 1 0.999377
0.999931 1 1.00043 0.999498
1.00329 1 1.00389 0.999404
0.9994 1 1 0.9994
0.9994 1 1 0.9994
0.999581 1 1.00023 0.999356
1.00422 1 1.00505 0.999174
0.999363 1 1 0.999363
1.00045 1 1.00128 0.99917
1.00241 1 1.00345 0.99896
0.999893 1 1.00091 0.99898
0.999359 1 1.00008 0.999275
0.999304 1 1.00026 0.999047
0.999268 1 1.00001 0.999255
0.999322 1 1 0.999322
0.999212 1 1 0.99921
0.99948 1 1 0.99948
0.999363 1 1 0.999363
0.999389 1 1.00019 0.999196
0.999688 1 1 0.999688
0.999498 1 1 0.999498
0.999382 1 1 0.999382
0.999553 1 1 0.999553
0.999727 1 1 0.999727
0.999962 1 1 0.999962
0.99976 1 1 0.99976
0.99997 1 1 0.99997
1 1 1 1
0.999976 1 1 0.999976
1 1 1 1
1 1 1 1
1 1 1 1
1 1 1 1
1 1 1 1
0.999732 1 1 0.999732
0.999944 1 1 0.999944
0.999778 1 1 0.999778
1 1 1 1
0.999964 1 1 0.999964
0.999832 1 1 0.999832
1 1 1 1
1 1 1 1
0.999972 1 1 0.999972
1 1 1 1
1 1 1 1
1 1 1 1
1.02026 1.02041 1.00002 0.999837
1.00563 1.00653 0.999705 0.999398
0.951259 0.960471 0.992223 0.998171
0.999591 1 1 0.999591
0.999554 1 1 0.999554
0.999494 1 1 0.999494
1.02591 1.02106 1.00519 0.999567
1.01641 1.01412 1.00265 0.999605
1.00286 1.00387 0.999975 0.999018
1.00603 1.00431 1.00311 0.998602
0.970718 0.970532 1.00598 0.994242
0.942209 0.967604 0.977595 0.996073
0.973918 1.00533 0.970211 0.998501
0.988204 0.989188 1.00089 0.998117
0.972282 0.971638 1.00658 0.994127
0.954477 0.975977 0.98065 0.997268
0.977971 1.01111 0.968513 0.998671
0.981803 0.98465 0.999098 0.998008
0.981008 0.974649 1.01232 0.994277
0.949021 0.966878 0.984275 0.997213
0.975067 1.00335 0.973064 0.998717
0.999382 1 1 0.999382
0.999398 1 1 0.999398
0.999463 1 1 0.999463
0.999485 1 1 0.999485
0.999535 1 1 0.999535
0.999644 1 1 0.999644
1.00455 1.0077 0.997737 0.99914
1.00601 1 1.00668 0.999326
0.999344 1 1 0.999344
1.00147 1 1.00231 0.999155
0.999234 1 1 0.999234
0.999342 1 1 0.999342
0.999283 1 1 0.999283
0.998997 1.00155 0.997912 0.999534
0.999272 1 1 0.999272
1.01142 0.99847 1.01349 0.99948
0.999338 1 1 0.999338
1.01347 0.994086 1.01975 0.999754
0.996828 0.996762 1.00044 0.99963
0.999295 1 1 0.999295
1.0232 1.02379 0.999502 0.99992
1.02065 1.02148 0.999306 0.999887
1.00808 1.00898 0.99965 0.999462
1.00057 0.99952 1.0014 0.999644
1.00033 0.994243 1.00618 0.99994
1.01985 1.02042 0.99959 0.999854
0.986792 0.981902 1.00863 0.996385
0.958807 0.975629 0.985311 0.997409
1.02476 1.02158 1.00337 0.999746
0.974561 1.00524 0.97094 0.998501
1.00452 0.997728 1.00702 0.999788
1.02434 1.02341 1.00102 0.999896
1.01647 1.01464 1.0022 0.999607
0.996993 0.987724 1.01071 0.998685
0.952802 0.981837 0.972445 0.997926
0.952865 0.976442 0.978568 0.997226
0.987045 0.977764 1.01515 0.994426
1.02098 0.995471 1.02574 0.99989
1.02064 1.02087 0.999943 0.999835
1.00168 1.00467 0.998022 0.999008
0.915987 0.94902 0.9676 0.997512
0.943458 0.969095 0.976329 0.997149
0.985906 0.977589 1.01428 0.994313
0.972376 0.982734 0.991152 0.998294
1.0012 1 1.00167 0.999534
1.01228 0.999026 1.01369 0.999586
1.0195 1 1.01998 0.999529
0.999376 1 1 0.999376
1.00005 1 1.00055 0.999497
1.00262 1 1.00321 0.999418
1.01197 1 1.01275 0.999234
0.999758 1 1.00042 0.99934
1.00411 1 1.00498 0.999139
1.00892 1 1.01006 0.998881
0.999944 1 1.00074 0.999201
1.00313 1 1.00418 0.998954
1.00329 1 1.00451 0.99879
0.999706 1 1.00088 0.998829
0.99958 1 1.00042 0.999159
0.999927 1 1.00096 0.998964
0.999342 1 1.00032 0.999019
0.999333 1 1 0.999333
0.999309 1 1.00003 0.999279
0.999417 1 1 0.999417
0.999339 1 1 0.999337
0.999231 1 1 0.999231
0.999642 1 1 0.999642
0.999481 1 1 0.999481
0.99936 1 1 0.99936
0.999943 1 1 0.999943
0.999688 1 1 0.999688
0.999492 1 1 0.999492
0.999726 1 1 0.999726
0.999958 1 1 0.999958
1 1 1 1
0.999968 1 1 0.999968
1 1 1 1
1 1 1 1
1 1 1 1
1 1 1 1
1 1 1 1
0.999729 1 1 0.999729
0.999962 1 1 0.999962
0.999743 1 1 0.999743
1 1 1 1
0.999962 1 1 0.999962
0.999791 1 1 0.999791
1 1 1 1
1 1 1 1
0.999963 1 1 0.999963
1 1 1 1
1 1 1 1
1 1 1 1
1.02496 1.02289 1.00214 0.999884
1.02138 1.02067 1.00086 0.999841
1.00586 1.0064 1.00006 0.999404
0.999538 1 1 0.999538
0.999468 1 1 0.999468
0.999596 1 1 0.999596
0.999552 1 1 0.999552
0.999481 1 1 0.999481
0.999471 1 1 0.999471
0.999416 1 1 0.999416
1.01643 1.01307 1.00383 0.999494
1.0251 1.02083 1.00453 0.999654
1.01699 1.01425 1.00308 0.999615
0.981838 1.0156 0.967878 0.998846
0.988395 0.99013 1.00109 0.997163
0.976551 0.974717 1.00688 0.995037
0.95629 0.972051 0.987523 0.996215
0.981321 0.984868 0.998918 0.997478
0.977843 0.9742 1.00964 0.994155
0.95456 0.975456 0.982182 0.996331
0.970447 0.998926 0.972932 0.998518
0.974113 0.979738 0.995769 0.998483
0.974384 0.975641 1.00469 0.994047
0.971603 0.987054 0.98699 0.997322
0.952949 0.983289 0.970822 0.998271
0.99938 1 1 0.99938
0.99938 1 1 0.99938
0.999397 1 1 0.999397
0.999484 1 1 0.999484
1.0063 1.00354 1.00323 0.999525
1.01055 0.997224 1.01387 0.999505
0.999335 1 1 0.999335
0.999283 1 1 0.999283
0.999298 1 1 0.999298
0.999338 1 1 0.999338
0.999284 1 1 0.999284
1.00819 0.992647 1.01597 0.999686
0.998334 0.998212 1.00044 0.999685
0.999317 1 1 0.999317
1.01253 0.988139 1.02483 0.999857
1.00253 0.999198 1.00395 0.999391
1.0215 1.02188 0.999753 0.99987
1.02187 1.02249 0.999468 0.999926
1.02064 1.02142 0.999332 0.999899
1.00371 0.998777 1.00514 0.999805
0.997889 0.987194 1.01087 0.999963
1.02446 1.02362 1.00091 0.999905
0.978171 0.972453 1.01182 0.994131
0.955992 0.972276 0.987015 0.996188
1.01708 1.01477 1.00266 0.999616
0.948868 0.979758 0.970594 0.997814
1.02327 0.994914 1.02863 0.999873
1.0213 1.02097 1.00048 0.999839
1.00315 1.00481 0.99934 0.999013
0.976491 0.985626 0.991117 0.999611
0.909634 0.946842 0.963264 0.997342
0.943209 0.967651 0.977934 0.996734
0.988958 0.978311 1.01634 0.994632
1.00742 0.991757 1.01598 0.999813
1.00666 1.00724 1.00004 0.999388
0.946957 0.960126 0.988187 0.998074
0.917074 0.942731 0.975807 0.996902
0.980055 0.974521 1.01149 0.994255
0.969807 0.981982 0.989972 0.997605
1.0144 0.999943 1.01487 0.99959
1.01969 0.999523 1.02066 0.999523
1.01353 1 1.01412 0.999416
1.00201 1 1.00258 0.999433
1.01244 1 1.01318 0.999263
1.00918 1 1.01027 0.998919
1.00408 1 1.00498 0.999104
1.00907 1 1.01023 0.998852
1.00409 1 1.00541 0.998686
1.0038 1 1.00486 0.998948
1.00311 1 1.00435 0.998766
1.00142 1 1.00273 0.998697
0.998795 1 1 0.998795
0.999229 1 1.00024 0.998986
0.999896 1 1.00109 0.998804
0.999275 1 1 0.999275
0.999357 1 1.00018 0.999174
0.999878 1 1.00093 0.998947
0.999372 1 1 0.999372
0.999333 1 1.00001 0.999327
0.999307 1 1 0.999303
0.99958 1 1 0.99958
0.99943 1 1 0.99943
0.999352 1 1 0.999352
0.999907 1 1 0.999907
0.999643 1 1 0.999643
0.999483 1 1 0.999483
1 1 1 1
0.99994 1 1 0.99994
0.999688 1 1 0.999688
0.999955 1 1 0.999955
1 1 1 1
1 1 1 1
1 1 1 1
1 1 1 1
1 1 1 1
0.999537 1 1 0.999537
0.999702 1 1 0.999702
0.999951 1 1 0.999951
0.999729 1 1 0.999729
1 1 1 1
0.999966 1 1 0.999966
0.999754 1 1 0.999754
1 1 1 1
1 1 1 1
0.99998 1 1 0.99998
1 1 1 1
1 1 1 1
1 1 1 1
1.02009 1.01877 1.00146 0.999845
1.02518 1.02324 1.002 0.999893
1.02217 1.02102 1.00128 0.999844
0.999544 1 1 0.999544
0.999459 1 1 0.999459
0.999427 1 1 0.999427
0.999455 1 1 0.999455
0.999414 1 1 0.999414
0.999549 1 1 0.999549
0.999468 1 1 0.999468
0.999471 1 1 0.999471
0.999412 1 1 0.999412
0.999418 1 1 0.999418
1.00086 1.00162 1.00021 0.999039
1.01826 1.01458 1.00413 0.999502
1.02416 1.02052 1.00382 0.999741
0.966315 0.995473 0.972117 0.998553
0.958366 0.975296 0.985192 0.997411
0.975515 0.981216 0.99722 0.996961
0.978668 0.97779 1.00668 0.994255
0.974777 0.979501 0.997819 0.997352
0.98138 0.978074 1.00923 0.994208
0.958094 0.979511 0.981259 0.996816
0.95217 0.982814 0.970634 0.998132
0.987119 0.980427 1.00909 0.997757
0.976375 0.978409 1.00355 0.994389
0.94028 0.966953 0.976254 0.996069
0.920116 0.956603 0.964267 0.997502
0.999498 1 1 0.999498
0.99938 1 1 0.99938
0.999378 1 1 0.999378
1.00292 0.991092 1.01233 0.999617
0.998961 0.998812 1.00041 0.999743
0.999337 1 1 0.999337
0.999273 1 1 0.999273
0.99936 1 1.00003 0.999327
1.00311 0.999289 1.00444 0.999387
1.01141 0.988915 1.02288 0.999865
1.00376 1 1.00435 0.999406
1.00943 0.995849 1.01406 0.999588
1.00748 1.00806 1 0.999428
1.02146 1.02187 0.999712 0.999884
1.02073 1.02141 0.999408 0.999932
1.0253 0.994323 1.03131 0.999855
0.975843 0.985126 0.992582 0.99798
1.02177 1.02117 1.00075 0.999842
0.979929 0.976245 1.01072 0.993128
0.941769 0.966662 0.97802 0.996144
1.00425 1.00497 1.00027 0.999018
0.903296 0.944903 0.958679 0.99717
1.00821 0.992525 1.01598 0.999827
1.00674 1.00736 0.999993 0.999394
0.942724 0.957659 0.986406 0.99797
0.968428 0.982696 0.987207 0.998251
0.919672 0.946714 0.97529 0.996048
0.975093 0.973891 1.0076 0.993686
0.988486 0.992428 0.996513 0.999514
0.957099 0.96128 0.997207 0.99844
0.914768 0.938575 0.978561 0.995988
0.973714 0.97191 1.00772 0.994179
0.989394 0.98959 1.00151 0.998298
1.01939 0.998995 1.02091 0.999517
1.01587 1 1.01647 0.999411
0.993742 1 0.994577 0.99916
1.01273 1 1.01344 0.999292
1.00884 1 1.0099 0.99895
1.0019 1.00041 1.00272 0.998772
1.00905 1 1.01024 0.998824
1.00365 1 1.00496 0.99869
0.998791 1 1.00003 0.998757
1.00295 1 1.00421 0.998742
1.00084 1 1.00213 0.998706
0.999493 1.00067 1 0.998826
0.998912 1 1 0.998912
0.998898 1 1 0.998898
0.998803 1 1 0.998803
0.999141 1 1 0.999141
0.999371 1 1.00041 0.998958
1.00013 1 1.00136 0.998779
0.999368 1 1 0.999368
0.999294 1 1 0.999294
0.99919 1 1 0.99919
0.999516 1 1 0.999516
0.999376 1 1 0.999376
0.999366 1 1.00004 0.999321
0.999845 1 1 0.999845
0.99958 1 1 0.99958
0.999443 1 1 0.999443
1 1 1 1
0.999904 1 1 0.999904
0.999644 1 1 0.999644
1 1 1 1
1 1 1 1
0.999936 1 1 0.999936
1 1 1 1
1 1 1 1
1 1 1 1
0.999498 1 1 0.999498
0.999671 1 1 0.999671
0.99953 1 1 0.99953
0.999941 1 1 0.999941
0.999702 1 1 0.999702
1 1 1 1
0.999954 1 1 0.999954
0.999728 1 1 0.999728
1 1 1 1
1 1 1 1
0.99997 1 1 0.99997
1 1 1 1
1 1 1 1
1 1 1 1
1.00617 1.00665 1 0.999527
1.02052 1.0195 1.00115 0.999848
1.02535 1.02352 1.00188 0.999903
0.999427 1 1 0.999427
0.99955 1 1 0.99955
0.99945 1 1 0.99945
0.999465 1 1 0.999465
0.999436 1 1 0.999436
0.999411 1 1 0.999411
0.999378 1 1 0.999378
0.999397 1 1 0.999397
0.999472 1 1 0.999472
0.999408 1 1 0.999408
0.999416 1 1 0.999416
0.999411 1 1 0.999411
0.941038 0.958844 0.983663 0.99773
1.00022 1.00077 1.00041 0.999043
1.02006 1.01606 1.00443 0.999511
0.947971 0.981286 0.96806 0.997923
0.961521 0.982022 0.982659 0.996402
0.973591 0.975223 1.00428 0.99407
0.976375 0.977591 1.00031 0.998451
0.987093 0.979612 1.00877 0.998878
0.912112 0.950207 0.962471 0.997338
0.981062 0.977204 1.01032 0.99369
0.938592 0.966307 0.974167 0.997076
0.98588 0.986904 1 0.998958
0.97518 0.973311 1.00735 0.994607
0.916045 0.942643 0.974837 0.996867
1.00007 1 1.00041 0.999665
0.999499 1 1 0.999499
0.99938 1 1 0.99938
1.012 0.991545 1.02076 0.999868
1.00444 1 1.00506 0.999382
0.999387 1 1.00005 0.999336
1.00405 1 1.00465 0.99941
1.0085 0.996429 1.01251 0.999604
1.00792 0.99891 1.00939 0.999641
0.955987 0.962096 0.995601 0.998041
1.00832 1.0088 0.999986 0.999548
1.02138 1.02175 0.999735 0.999898
1.00869 0.993005 1.01596 0.999843
0.970145 0.985017 0.986161 0.998723
1.00701 1.00744 1.00017 0.9994
0.977579 0.975531 1.00698 0.995149
0.924077 0.950347 0.97535 0.996932
0.936149 0.957 0.980385 0.997784
0.987542 0.992774 0.995184 0.999544
0.950719 0.960579 0.991547 0.998173
0.924092 0.939613 0.9865 0.996941
0.987915 0.9863 1.00442 0.997225
0.973673 0.973445 1.00596 0.994311
0.97797 0.999299 0.979181 0.999464
0.92451 0.942253 0.984135 0.996988
0.971515 0.971945 1.00502 0.994562
0.997563 0.996959 1.00356 0.997055
1.01912 1 1.01972 0.999407
0.990241 1 0.991048 0.999185
0.982492 1.00064 0.982773 0.999073
1.00872 1 1.00975 0.998981
1.00184 1.00058 1.00249 0.998773
0.999506 1.00112 0.999428 0.998962
1.00331 1 1.00463 0.998695
0.999192 1.00005 1.00037 0.998771
1.00156 1.00255 1 0.999018
1.00026 1.00001 1.00154 0.998716
0.999259 1.00043 1 0.998832
0.999818 1.00076 1 0.999058
0.999119 1.00002 1 0.999095
0.998948 1 1 0.998948
0.998942 1.00001 1 0.99893
0.999038 1 1 0.999038
0.998917 1 1 0.998917
0.99881 1 1 0.99881
0.999304 1 1 0.999304
0.999141 1 1 0.999141
0.999476 1 1.00055 0.99893
0.99948 1 1 0.99948
0.999366 1 1 0.999366
0.999314 1 1 0.999314
0.999771 1 1 0.999771
0.999517 1 1 0.999517
0.999381 1 1 0.999381
1 1 1 1
0.999843 1 1 0.999843
0.99958 1 1 0.99958
1 1 1 1
1 1 1 1
0.999902 1 1 0.999902
1 1 1 1
1 1 1 1
1 1 1 1
0.999495 1 1 0.999495
0.999501 1 1 0.999501
0.999636 1 1 0.999636
0.999927 1 1 0.999927
0.999672 1 1 0.999672
0.999523 1 1 0.999523
1 1 1 1
0.999943 1 1 0.999943
0.999702 1 1 0.999702
1 1 1 1
1 1 1 1
0.999957 1 1 0.999957
1 1 1 1
1 1 1 1
1 1 1 1
0.955898 0.960292 0.997167 0.998252
1.00517 1.00564 1 0.999536
1.02096 1.02025 1.00084 0.999852
0.999419 1 1 0.999419
0.999417 1 1 0.999417
0.999381 1 1 0.999381
0.999474 1 1 0.999474
0.999445 1 1 0.999445
0.999409 1 1 0.999409
0.999397 1 1 0.999397
0.999378 1 1 0.999378
0.999333 1 1 0.999333
0.999407 1 1 0.999407
0.999413 1 1 0.999413
0.999413 1 1 0.999413
0.922162 0.940383 0.983615 0.99696
0.941849 0.957332 0.986072 0.997724
0.999346 0.999667 1.00063 0.999048
0.904296 0.943978 0.960678 0.997174
0.937699 0.963678 0.976885 0.996066
0.989789 0.98261 1.01196 0.995397
0.991758 0.979222 1.01516 0.997675
0.985146 0.985388 1.00196 0.997803
0.918543 0.943462 0.977455 0.996044
0.977976 0.975196 1.00797 0.99492
0.989186 0.986811 1.00447 0.997943
0.975502 0.974818 1.0063 0.994436
1.00758 1 1.00819 0.999402
0.999921 1 1.00027 0.999654
0.999501 1 1 0.999501
1.00547 0.99501 1.0109 0.99962
1.00435 1 1.00494 0.999414
1.00797 0.999215 1.00918 0.999588
1.00137 1.00067 1.00146 0.999232
0.92135 0.94343 0.979831 0.996699
0.956177 0.960672 0.997043 0.998273
1.0092 1.00961 0.999918 0.999667
0.985506 0.992812 0.993059 0.99958
0.988522 0.986504 1.00391 0.998142
0.951597 0.960569 0.99246 0.998186
0.975871 0.972719 1.00906 0.994232
0.921098 0.941269 0.982439 0.996063
0.981503 0.999892 0.982217 0.99938
0.924487 0.942032 0.984872 0.99645
0.971535 0.971212 1.00604 0.994325
0.997102 0.992789 1.00632 0.99804
1.00008 1.00595 0.994926 0.999236
0.959176 0.967713 0.997376 0.993786
0.995742 0.997604 0.999678 0.998455
0.986731 1 0.98751 0.999211
0.984406 1.0007 0.984643 0.999056
0.986508 1.00178 0.985663 0.999076
1.00151 1.00071 1.00203 0.998775
0.999398 1.00152 0.998921 0.998957
1.00301 1.00566 0.998112 0.999258
0.999619 1.00012 1.00071 0.998784
1.00192 1.00291 1 0.999017
1.00361 1.00438 1 0.999237
0.999058 1.00022 1 0.998838
0.999741 1.00068 1 0.999057
0.999713 1.0005 1 0.999208
0.999183 1 1 0.999183
0.999115 1 1 0.999115
0.999078 1 1 0.999078
0.999027 1 1 0.999027
0.998951 1 1 0.998951
0.998948 1 1 0.998948
0.999178 1 1 0.999178
0.999059 1 1 0.999059
0.998935 1 1 0.998935
0.999438 1 1 0.999438
0.999301 1 1 0.999301
0.999141 1 1 0.999141
0.999713 1 1 0.999713
0.999481 1 1 0.999481
0.999365 1 1 0.999365
1 1 1 1
0.999771 1 1 0.999771
0.999519 1 1 0.999519
1 1 1 1
1 1 1 1
0.999842 1 1 0.999842
1 1 1 1
1 1 1 1
1 1 1 1
0.999466 1 1 0.999466
0.999484 1 1 0.999484
0.999601 1 1 0.999601
0.999504 1 1 0.999504
0.999636 1 1 0.999636
0.999899 1 1 0.999899
1 1 1 1
0.999928 1 1 0.999928
0.999672 1 1 0.999672
1 1 1 1
1 1 1 1
0.999946 1 1 0.999946
1 1 1 1
1 1 1 1
1 1 1 1
0.930885 0.942801 0.991027 0.9963
0.953461 0.960524 0.994554 0.998082
1.00403 1.00449 1 0.999544
0.999411 1 1 0.999411
0.999373 1 1 0.999373
0.999426 1 1 0.999426
0.999399 1 1 0.999399
0.999368 1 1 0.999368
0.999397 1 1 0.999397
0.999379 1 1 0.999379
0.999338 1 1 0.999338
0.999336 1 1 0.999336
0.999332 1 1 0.999332
0.999398 1 1.00026 0.999142
0.999409 1 1 0.999409
0.999415 1 1 0.999415
0.9708 0.97684 1.00018 0.99364
0.928121 0.942542 0.98807 0.996589
0.942241 0.957633 0.986271 0.997624
0.919341 0.943119 0.977787 0.996932
0.976984 0.973125 1.01067 0.993369
0.987024 0.985599 1.00244 0.999003
0.991892 0.989906 1.00346 0.998554
0.974957 0.976226 1.00408 0.994642
0.990415 0.998361 0.994196 0.997832
1.00584 1.00132 1.0057 0.998823
1.00605 1 1.00666 0.999389
0.999644 1 1 0.999644
1.00758 1 1.00804 0.999539
1.00041 1.001 1.00017 0.99924
0.95136 0.966149 0.990043 0.994596
0.92563 0.943417 0.984917 0.996171
0.956893 0.959284 0.999 0.998507
0.985329 1.00094 0.985097 0.999295
0.998728 0.993897 1.0078 0.997081
0.927513 0.942029 0.988383 0.996164
0.973314 0.971796 1.00707 0.994534
0.996141 1.00665 0.990326 0.999222
0.961686 0.969183 0.997525 0.994727
0.997832 0.999733 1.00065 0.997448
1.00552 1.00859 0.998026 0.998925
0.997236 0.996345 1.00192 0.998976
0.985469 1.00078 0.98565 0.999038
0.989094 1.00159 0.98846 0.99905
1.00534 1.01258 0.993736 0.999107
0.999431 1.00186 0.998619 0.998953
1.0019 1.00441 0.998254 0.999251
1.00727 1.00949 0.998494 0.999298
1.00226 1.00324 1 0.999017
1.00359 1.00437 0.999994 0.999225
1.0024 1.00318 0.999987 0.999239
0.999661 1.0006 1 0.999056
0.999623 1.00042 1 0.999198
0.999507 1.00032 1 0.999186
0.999208 1 1 0.999208
0.999125 1 1 0.999125
0.999135 1 1 0.999135
0.999074 1 1 0.999074
0.999065 1 1 0.999065
0.999111 1 1 0.999111
0.999022 1 1 0.999022
0.998954 1 1 0.998954
0.999361 1 1 0.999361
0.999193 1 1 0.999193
0.99908 1 1 0.99908
0.99967 1 1 0.99967
0.999436 1 1 0.999436
0.999298 1 1 0.999298
0.999993 1 1 0.999993
0.999714 1 1 0.999714
0.999482 1 1 0.999482
1 1 1 1
0.999998 1 1 0.999998
0.99977 1 1 0.99977
1 1 1 1
1 1 1 1
1 1 1 1
0.99942 1 1 0.99942
0.999466 1 1 0.999466
0.999546 1 1 0.999546
0.999473 1 1 0.999473
0.999589 1 1 0.999589
0.999848 1 1 0.999848
0.999635 1 1 0.999635
0.9999 1 1 0.9999
1 1 1 1
1 1 1 1
1 1 1 1
0.99993 1 1 0.99993
1 1 1 1
1 1 1 1
1 1 1 1
0.965531 0.971864 0.998846 0.994631
0.926348 0.945999 0.98234 0.996831
0.956865 0.961109 0.997405 0.998174
0.999364 1 1 0.999364
0.999434 1 1 0.999434
0.999373 1 1 0.999373
0.9994 1 1 0.9994
0.999341 1 1 0.999341
0.999378 1 1 0.999378
0.999343 1 1 0.999343
0.999313 1 1 0.999313
0.999323 1 1 0.999323
0.999277 1 1 0.999277
0.999294 1.00012 1 0.999172
0.998926 1.00007 1.00011 0.998737
0.999217 1 1.00006 0.99916
0.999411 1 1 0.999411
0.988494 0.994079 0.996313 0.998062
0.969303 0.973832 1.00094 0.994415
0.92149 0.942826 0.981247 0.996049
0.974461 0.974343 1.00584 0.994314
0.987107 0.989115 0.998837 0.999131
0.992445 0.997044 0.996558 0.998826
0.996948 1.00479 0.993212 0.998978
1.00295 1.00067 1.00337 0.998906
1.005 1 1.00563 0.999376
0.99829 1.00112 0.997932 0.999244
0.984435 0.986386 1.00031 0.997714
0.958627 0.967582 0.995836 0.994888
0.923959 0.943463 0.982286 0.996987
0.99416 1.00716 0.987872 0.999208
1.00386 1.00142 1.00419 0.99825
0.962372 0.968984 0.997465 0.995701
1.00022 1.00695 0.994365 0.998945
0.994779 0.996426 0.999781 0.998566
1.00632 1.01734 0.990256 0.9989
1.01283 1.01289 1.00108 0.998864
0.991992 1.00144 0.991532 0.999024
1.0054 1.01222 0.994148 0.999105
1.01037 1.01411 0.997225 0.999091
1.00087 1.0033 0.998332 0.999243
1.00757 1.00951 0.998784 0.99929
1.005 1.00629 0.999608 0.99911
1.00352 1.00432 1 0.999212
1.00178 1.00255 1 0.999229
1.00017 1.0011 1 0.99907
0.999497 1.00031 1 0.999189
0.999383 1.00019 1 0.999196
0.999073 1 1 0.999073
0.999232 1 1 0.999232
0.999138 1 1 0.999138
0.999065 1 1 0.999065
0.999069 1 1 0.999069
0.999061 1 1 0.999061
0.999111 1 1 0.999111
0.999263 1 1 0.999263
0.999125 1 1 0.999125
0.999018 1 1 0.999018
0.999612 1 1 0.999612
0.99936 1 1 0.99936
0.999207 1 1 0.999207
0.999976 1 1 0.999976
0.99967 1 1 0.99967
0.999434 1 1 0.999434
1 1 1 1
0.999989 1 1 0.999989
0.999715 1 1 0.999715
1 1 1 1
0.999996 1 1 0.999996
1 1 1 1
0.999371 1 1 0.999371
0.999428 1 1 0.999428
0.999506 1 1 0.999506
0.999467 1 1 0.999467
0.99954 1 1 0.99954
0.999785 1 1 0.999785
0.999577 1 1 0.999577
0.999849 1 1 0.999849
1 1 1 1
0.9999 1 1 0.9999
1 1 1 1
1 1 1 1
1 1 1 1
1 1 1 1
1 1 1 1
0.981927 0.986272 0.997532 0.998058
0.958732 0.968708 0.995139 0.994537
0.924454 0.946253 0.980807 0.996081
0.999249 1 1 0.999249
0.999379 1 1 0.999379
0.999401 1 1 0.999401
0.999375 1 1 0.999375
0.999337 1 1 0.999337
0.999408 1 1 0.999408
0.999291 1 1 0.999291
0.999315 1 1 0.999315
0.999299 1 1 0.999299
0.999237 1.00004 1 0.9992
0.999023 1.00014 1 0.99888
1.00351 1.00506 1 0.998458
0.998926 1.00006 1.00013 0.998737
0.999178 1 1 0.999178
1.00041 1.00549 0.995774 0.999173
0.989504 0.995411 0.996446 0.997611
0.971789 0.975223 1.0012 0.995285
0.994278 0.997871 0.998486 0.997911
1.00168 1.0063 0.996434 0.998974
1.00148 1.00019 1.00231 0.99899
1.00409 1.00497 1.00002 0.999101
0.985595 0.985341 1.00175 0.998507
0.956237 0.967833 0.993351 0.994632
0.99381 1.00522 0.989672 0.998963
0.993003 0.996247 0.998632 0.99811
1.00774 1.01762 0.9914 0.998886
1.01093 1.01116 1.00081 0.998957
1.01848 1.0203 0.999372 0.99884
1.01021 1.01147 1 0.998759
1.00556 1.01169 0.99484 0.999103
1.01206 1.01513 0.997875 0.999099
1.00449 1.00556 0.999977 0.998958
1.00804 1.00963 0.999144 0.999283
1.00584 1.00692 0.999811 0.999108
1.00024 1.00132 1 0.998917
1.00121 1.002 1 0.999219
1.00027 1.00118 1 0.999092
0.999007 1.00007 1 0.998941
0.999268 1.00006 1 0.999206
0.999091 1.00002 1 0.999073
0.999002 1 1 0.999002
0.99915 1 1 0.99915
0.999069 1 1 0.999069
0.999068 1 1 0.999068
0.999057 1 1 0.999057
0.999102 1 1 0.999102
0.999221 1 1 0.999221
0.999542 1 1 0.999542
0.999278 1 1 0.999278
0.999139 1 1 0.999139
0.999951 1 1 0.999951
0.999611 1 1 0.999611
0.999359 1 1 0.999359
1 1 1 1
0.99997 1 1 0.99997
0.999669 1 1 0.999669
1 1 1 1
0.999984 1 1 0.999984
1 1 1 1
0.999286 1 1 0.999286
0.999373 1 1 0.999373
0.999467 1 1 0.999467
0.999436 1 1 0.999436
0.999511 1 1 0.999511
0.999728 1 1 0.999728
0.999535 1 1 0.999535
0.999785 1 1 0.999785
1 1 1 1
0.99985 1 1 0.99985
1 1 1 1
1 1 1 1
1 1 1 1
1 1 1 1
1 1 1 1
1.00448 1.0081 0.997094 0.999308
0.981711 0.987573 0.996864 0.997192
0.963029 0.969292 0.998818 0.994715
0.999289 1 1 0.999289
0.999072 1 1 0.999072
0.999262 1 1 0.999262
0.999372 1 1 0.999372
0.999332 1 1 0.999332
0.999387 1 1 0.999387
1.00007 1.00109 1 0.998977
0.99932 1 1 0.99932
0.999228 1 1 0.999228
0.999362 1.00046 1 0.9989
1.00152 1.00299 1 0.998534
1.00781 1.00958 0.999519 0.99872
1.00245 1.00398 1 0.998472
0.998736 1 1 0.998736
1.00332 1.00812 0.996029 0.999209
0.987672 0.994916 0.995641 0.997065
1.00483 1.00751 0.998365 0.99897
1.00612 1.00697 1 0.999158
1.00377 1.00407 1.00056 0.999143
0.982975 0.98512 1.00033 0.997495
1.00948 1.01826 0.992491 0.998873
1.00853 1.0093 1.00019 0.99905
1.01818 1.02032 0.999035 0.998866
1.01157 1.01279 1 0.998791
1.00705 1.00822 1 0.998845
1.00835 1.00939 1 0.998973
1.01348 1.0162 0.998213 0.999107
1.00431 1.00552 0.999836 0.998964
1.00239 1.00357 1 0.998825
1.00643 1.00738 0.999955 0.999106
1.00023 1.0013 1 0.998928
0.999841 1.00101 1 0.998831
1.00033 1.00122 1 0.999114
0.999044 1.0001 1 0.998939
0.998897 1 1 0.998897
0.999109 1.00004 1 0.999072
0.999001 1 1 0.999001
0.999004 1 1 0.999004
0.999074 1 1 0.999074
0.99907 1 1 0.99907
0.999172 1 1 0.999172
0.999093 1 1 0.999093
0.999216 1 1 0.999216
0.999481 1 1 0.999481
0.999919 1 1 0.999919
0.999542 1 1 0.999542
0.999293 1 1 0.999293
1 1 1 1
0.999943 1 1 0.999943
0.99961 1 1 0.99961
1 1 1 1
0.999963 1 1 0.999963
1 1 1 1
0.999142 1 1 0.999142
0.999271 1 1 0.999271
0.999394 1 1 0.999394
0.999374 1 1 0.999374
0.999468 1 1 0.999468
0.99968 1 1 0.99968
0.999516 1 1 0.999516
0.999728 1 1 0.999728
0.999992 1 1 0.999992
0.999785 1 1 0.999785
1 1 1 1
1 1 1 1
1 1 1 1
1 1 1 1
1 1 1 1
1.00555 1.00714 0.999381 0.999043
1.00358 1.00727 0.997079 0.999256
0.981366 0.986214 0.997205 0.997873
1.00022 1.00121 1 0.999018
0.999363 1 1 0.999363
0.9989 1 1 0.9989
0.999062 1 1 0.999062
0.999276 1 1 0.999276
1.00384 1.0052 1 0.998649
0.999366 1 1 0.999366
1.00002 1.00106 1 0.998962
1.004 1.00538 1 0.998629
0.999662 1.00074 1 0.99892
1.00228 1.00378 1 0.998508
1.00576 1.00738 0.999671 0.998716
1.00081 1.00233 1 0.998485
1.00552 1.00996 0.996355 0.999245
1.00734 1.00825 1 0.999095
1.0062 1.00705 1 0.999154
1.00385 1.00316 1.0015 0.999184
1.01809 1.02051 0.998735 0.998892
1.01313 1.01433 1 0.998823
1.00761 1.00877 1 0.998845
1.00861 1.00964 1 0.998979
1.00643 1.00753 1 0.998907
1.00433 1.00554 0.999825 0.998969
1.00221 1.00339 1 0.99883
1.00254 1.00375 1 0.998792
1.00026 1.00132 1 0.998939
0.999605 1.00078 1 0.998827
0.998965 1.00016 1 0.998809
0.999082 1.00014 1 0.998937
0.998895 1 1 0.998895
0.998918 1 1 0.998918
0.999 1 1 0.999
0.999004 1 1 0.999004
0.999098 1 1 0.999098
0.999071 1 1 0.999071
0.999172 1 1 0.999172
0.999421 1 1 0.999421
0.999211 1 1 0.999211
0.99948 1 1 0.99948
0.999895 1 1 0.999895
0.999995 1 1 0.999995
0.999913 1 1 0.999913
0.999541 1 1 0.999541
1 1 1 1
0.999935 1 1 0.999935
1 1 1 1
0.999004 1.00007 1 0.998933
0.999047 1 1 0.999047
0.999126 1 1 0.999126
0.999314 1 1 0.999314
0.999256 1 1 0.999256
0.999396 1 1 0.999396
0.999635 1 1 0.999635
0.999469 1 1 0.999469
0.99968 1 1 0.99968
0.999973 1 1 0.999973
0.999727 1 1 0.999727
0.999995 1 1 0.999995
1 1 1 1
1 1 1 1
1 1 1 1
1 1 1 1
1.00571 1.0068 1 0.998913
1.0076 1.00896 0.999565 0.999086
1.00369 1.00744 0.997069 0.999203
1.00145 1.00271 1 0.998743
0.999731 1.00066 1 0.999075
0.999437 1 1 0.999437
0.998981 1.00006 1 0.998923
0.999052 1 1 0.999052
1.00834 1.00976 1 0.99859
1.00355 1.00493 1 0.998621
1 1.00106 1 0.998947
1.00469 1.00607 1 0.998622
1.00349 1.00501 1 0.998482
1.00519 1.0067 0.999785 0.998713
1.00915 1.01017 1 0.998992
1.00684 1.00777 1 0.999086
1.00632 1.00718 1 0.99915
1.00798 1.00917 0.999977 0.998846
1.00897 1.00999 1 0.998984
1.00703 1.00812 1 0.998913
1.00666 1.00783 1 0.998839
1.00205 1.00322 1 0.998835
1.00198 1.0032 1 0.998789
1.00035 1.00157 1 0.99878
0.999372 1.00055 1 0.998823
0.9992 1.00039 1 0.998808
0.998848 1 1 0.998848
0.998893 1 1 0.998893
0.998917 1 1 0.998917
0.99902 1 1 0.99902
0.999003 1 1 0.999003
0.999098 1 1 0.999098
0.999349 1 1 0.999349
0.999173 1 1 0.999173
0.99942 1 1 0.99942
0.999876 1 1 0.999876
0.99948 1 1 0.99948
0.99989 1 1 0.99989
0.999992 1 1 0.999992
0.999998 1 1 0.999998
0.999908 1 1 0.999908
1 1 1 1
0.999722 1.00095 1 0.998769
0.999029 1 1 0.999029
0.999071 1.00005 1 0.999018
0.999215 1 1 0.999215
0.999045 1 1 0.999045
0.99911 1 1 0.99911
0.999315 1 1 0.999315
0.999576 1 1 0.999576
0.999399 1 1 0.999399
0.999636 1 1 0.999636
0.999948 1 1 0.999948
0.99968 1 1 0.99968
0.999979 1 1 0.999979
1 1 1 1
0.999998 1 1 0.999998
1 1 1 1
1 1 1 1
1.00941 1.01062 1 0.998798
1.00558 1.00668 1 0.998911
1.00869 1.00978 0.999796 0.999128
1.00516 1.00653 1 0.998639
1.00124 1.00249 1 0.998745
0.999272 1.00014 1 0.999133
0.999079 1.00013 1 0.998946
1.00812 1.00955 1 0.998589
1.00327 1.00468 1 0.998594
1.0047 1.0061 1 0.998615
1.0089 1.01003 1 0.998885
1.00911 1.01016 1 0.998966
1.00611 1.00704 1 0.999077
1.00785 1.00906 1 0.998806
1.00752 1.00861 1 0.998919
1.00657 1.00774 1 0.998839
1.0032 1.00441 1 0.998798
1.00142 1.00264 1 0.998786
1.00078 1.002 1 0.998782
0.999004 1.0002 1 0.998807
0.999425 1.00062 1 0.998807
0.998864 1.00002 1 0.998848
0.99896 1 1 0.99896
0.998916 1 1 0.998916
0.999019 1 1 0.999019
0.999277 1 1 0.999277
0.999097 1 1 0.999097
0.999347 1 1 0.999347
0.999858 1 1 0.999858
0.999419 1 1 0.999419
0.999872 1 1 0.999872
0.99999 1 1 0.99999
0.999885 1 1 0.999885
0.999993 1 1 0.999993
1 1 1 1
1.00073 1.00206 1 0.998673
0.998863 1 1 0.998861
0.999392 1.00059 1 0.998799
0.99915 1 1 0.99915
0.999028 1 1 0.999028
0.999102 1 1 0.999102
0.999481 1 1 0.999481
0.999214 1 1 0.999214
0.999042 1 1 0.999042
0.999316 1 1 0.999316
0.999577 1 1 0.999577
0.999919 1 1 0.999919
0.999636 1 1 0.999636
0.999955 1 1 0.999955
1 1 1 1
0.999986 1 1 0.999986
1 1 1 1
1 1 1 1
1.00764 1.00889 1 0.99876
1.00947 1.0107 1 0.998779
1.00588 1.00697 1 0.998909
1.00522 1.00659 1 0.998638
1.00097 1.00222 1 0.998747
1.00786 1.00928 1 0.998588
1.00792 1.00913 1 0.998803
1.00914 1.01027 1 0.998884
1.00922 1.01029 1 0.99894
1.00786 1.00906 1 0.99881
1.00517 1.00641 1 0.998773
1.00649 1.00766 1 0.998839
1.00343 1.00464 1 0.998796
0.999724 1.00093 1 0.998798
1.00121 1.00243 1 0.998783
0.999184 1.00038 1 0.998808
0.998913 1 1 0.998913
0.998887 1.00004 1 0.998847
0.99896 1 1 0.99896
0.999229 1 1 0.999229
0.999019 1 1 0.999019
0.999276 1 1 0.999276
0.999838 1 1 0.999838
0.999345 1 1 0.999345
0.999853 1 1 0.999853
0.999985 1 1 0.999985
0.999868 1 1 0.999868
0.999991 1 1 0.999991
0.999994 1 1 0.999994
1.00273 1.00398 1 0.998749
0.9988 1.00005 1 0.998749
1.00034 1.00168 1 0.998666
0.999014 1 1 0.999014
0.998875 1 1 0.998872
0.999118 1.00029 1 0.998829
0.99938 1 1 0.99938
0.999123 1 1 0.999123
0.999027 1 1 0.999027
0.999882 1 1 0.999882
0.999483 1 1 0.999483
0.999212 1 1 0.999212
0.999578 1 1 0.999578
0.999927 1 1 0.999927
1 1 1 1
0.999962 1 1 0.999962
1 1 1 1
1 1 1 1
1.00638 1.00764 1 0.998751
1.00772 1.00897 1 0.998755
1.0095 1.01075 1 0.99876
1.00532 1.00669 1 0.998638
1.00571 1.00697 1 0.998747
1.00821 1.00941 1 0.998808
1.00938 1.01051 1 0.998882
1.00783 1.00903 1 0.998813
1.00515 1.00639 1 0.998775
1.00066 1.00188 1 0.998787
1.00365 1.00486 1 0.998794
0.999918 1.00112 1 0.998803
0.998873 1 1 0.998873
0.999363 1.00055 1 0.99881
0.998914 1 1 0.998914
0.999191 1 1 0.999191
0.998959 1 1 0.998959
0.999228 1 1 0.999228
0.999811 1 1 0.999811
0.999275 1 1 0.999275
0.99983 1 1 0.99983
1 1 1 1
0.999848 1 1 0.999848
0.999987 1 1 0.999987
0.999992 1 1 0.999992
1.00279 1.00402 1 0.998771
0.999059 1.00029 1 0.998774
1.00277 1.00403 1 0.998753
0.998886 1 1 0.998886
0.998788 1.00003 1 0.998762
0.999923 1.00127 1 0.99866
0.999243 1 1 0.999243
0.999013 1 1 0.999013
0.998884 1 1 0.998883
0.999842 1 1 0.999842
0.999356 1 1 0.999356
0.999096 1 1 0.999096
1 1 1 1
0.99989 1 1 0.99989
0.999485 1 1 0.999485
0.999934 1 1 0.999934
1 1 1 1
1 1 1 1
1.00476 1.00602 1 0.998749
1.00677 1.00802 1 0.998759
1.00776 1.00902 1 0.998751
1.00131 1.00257 1 0.998743
1.00541 1.00667 1 0.998745
1.00851 1.0097 1 0.998814
1.00515 1.00638 1 0.998776
1.00069 1.0019 1 0.998787
0.998907 1.00003 1 0.998876
1.00011 1.0013 1 0.998808
0.998896 1 1 0.998896
0.999108 1 1 0.999108
0.998914 1 1 0.998914
0.999191 1 1 0.999191
0.999787 1 1 0.999787
0.999227 1 1 0.999227
0.999809 1 1 0.999809
1 1 1 1
0.99982 1 1 0.99982
0.999991 1 1 0.999991
0.999989 1 1 0.999989
1.00142 1.00264 1 0.998778
0.999036 1.00023 1 0.998809
1.00278 1.00401 1 0.998772
0.998894 1 1 0.998894
0.999189 1.00041 1 0.998779
1.00284 1.00409 1 0.998756
0.999165 1 1 0.999165
0.998915 1 1 0.998915
0.998776 1 1 0.998776
0.999813 1 1 0.999813
0.999233 1 1 0.999233
0.999012 1 1 0.999012
1 1 1 1
0.999849 1 1 0.999849
0.999332 1 1 0.999332
1 1 1 1
0.999899 1 1 0.999899
1 1 1 1
1.00113 1.00238 1 0.998759
1.00443 1.00569 1 0.998751
1.00717 1.00841 1 0.998767
0.99884 1 1 0.998837
1.00122 1.00248 1 0.998746
1.00513 1.00639 1 0.998742
1.00071 1.00193 1 0.998787
0.998904 1.00003 1 0.998876
0.999061 1 1 0.999061
0.998919 1 1 0.998919
0.99913 1 1 0.99913
0.999742 1 1 0.999742
0.999191 1 1 0.999191
0.999784 1 1 0.999784
1 1 1 1
0.999807 1 1 0.999807
1 1 1 1
0.999984 1 1 0.999984
0.999249 1.00043 1 0.998815
1.00129 1.00252 1 0.998777
0.998895 1 1 0.998895
0.999109 1.0003 1 0.998809
1.00275 1.00399 1 0.998773
0.999167 1 1 0.999167
0.998892 1 1 0.998892
0.999314 1.00053 1 0.998783
0.999793 1 1 0.999793
0.99918 1 1 0.99918
0.998944 1 1 0.998944
1 1 1 1
0.999817 1 1 0.999817
0.999222 1 1 0.999222
1 1 1 1
0.999857 1 1 0.999857
1 1 1 1
0.998858 1 1 0.998858
1.00098 1.00222 1 0.998761
1.00406 1.00531 1 0.998752
0.999036 1 1 0.999036
0.998841 1 1 0.998837
1.0011 1.00236 1 0.998749
0.9989 1.00002 1 0.998877
0.999066 1 1 0.999066
0.999696 1 1 0.999696
0.999151 1 1 0.999151
0.999739 1 1 0.999739
1 1 1 1
0.999782 1 1 0.999782
1 1 1 1
1 1 1 1
0.998881 1 1 0.998881
0.999202 1.00039 1 0.998809
1.00118 1.00241 1 0.998776
0.999148 1 1 0.999148
0.998894 1 1 0.998894
0.999189 1.00038 1 0.998809
0.999773 1 1 0.999773
0.999167 1 1 0.999167
0.99889 1 1 0.99889
1 1 1 1
0.999796 1 1 0.999796
0.999195 1 1 0.999195
1 1 1 1
0.999822 1 1 0.999822
1 1 1 1
0.999081 1 1 0.999081
0.998837 1 1 0.998837
1.00084 1.00208 1 0.998764
0.999675 1 1 0.999675
0.999038 1 1 0.999038
0.998842 1 1 0.998837
0.999072 1 1 0.999072
0.999695 1 1 0.999695
1 1 1 1
0.999736 1 1 0.999736
1 1 1 1
1 1 1 1
0.999117 1 1 0.999117
0.998872 1 1 0.998872
0.999154 1.00035 1 0.998803
0.99977 1 1 0.99977
0.999147 1 1 0.999147
0.998892 1 1 0.998892
1 1 1 1
0.999774 1 1 0.999774
0.999166 1 1 0.999166
1 1 1 1
0.999798 1 1 0.999798
1 1 1 1
0.999673 1 1 0.999673
0.999064 1 1 0.999064
0.998815 1 1 0.998815
1 1 1 1
0.999674 1 1 0.999674
0.999039 1 1 0.999039
0.999693 1 1 0.999693
1 1 1 1
1 1 1 1
0.999733 1 1 0.999733
0.999117 1 1 0.999117
0.998863 1 1 0.998863
1 1 1 1
0.999747 1 1 0.999747
0.999146 1 1 0.999146
1 1 1 1
0.999774 1 1 0.999774
1 1 1 1
0.999928 1 1 0.999928
0.999699 1 1 0.999699
0.999048 1 1 0.999048
1 1 1 1
0.999674 1 1 0.999674
1 1 1 1
0.999943 1 1 0.999943
0.999725 1 1 0.999725
0.999117 1 1 0.999117
0.999976 1 1 0.999976
0.999745 1 1 0.999745
1 1 1 1
1 1 1 1
0.999682 1 1 0.999682
1 1 1 1
0.999968 1 1 0.999968
0.999711 1 1 0.999711
1 1 1 1
1 1 1 1
1 1 1 1

VECTORS lamdaE float
0.999114 1.00028 0.99641
0.999248 0.999545 0.998531
0.99901 1.00041 0.996494
0.99958 0.999963 0.996116
0.999242 1.00025 0.996299
0.999134 0.999998 0.996581
0.999992 1.00077 0.994143
0.999259 0.999418 0.998576
0.999149 1.00037 0.998444
0.998974 1.00001 0.998604
0.999375 0.999069 0.997107
0.999898 1.00064 0.994162
0.999772 1.00002 0.99571
0.999454 0.999883 0.996168
0.998886 1.00062 0.996573
0.999466 0.999953 0.996218
0.999041 1.00012 0.996656
0.999113 1.00037 0.996396
1.00007 1.00071 0.994135
0.999709 1 0.998097
0.999612 0.999957 0.996056
0.999453 1.00008 0.996178
1.00081 0.999922 0.993615
1.00033 1.00047 0.993891
0.999269 0.999439 0.996875
0.999697 1.00092 0.994474
1.00163 1.00106 0.990985
0.999263 0.999286 0.998628
0.999228 1.00025 0.997318
0.999071 1.00003 0.997578
0.999344 0.998906 0.998717
0.999815 1.00074 0.994169
0.999506 1.00007 0.996089
0.999223 1.00043 0.996373
1.00063 1.00036 0.994139
0.999341 0.99834 0.998991
1.00009 1.00066 0.994718
0.999759 1.00042 0.9946
1.00073 1.00182 0.991485
0.999439 0.997801 0.999146
0.999765 1 0.998049
0.999545 0.99996 0.997167
0.999818 1 0.998004
0.999488 0.999974 0.996063
1.00117 1.00004 0.99231
0.999449 1.00002 0.998373
1.00104 0.999944 0.993793
0.999353 0.999931 0.996317
0.998989 1.00052 0.996482
0.998941 1.00027 0.996744
1.00016 1.0006 0.99413
0.99966 1.00001 0.997009
0.999501 0.999929 0.996169
0.999193 0.999497 0.996947
0.999325 1.00014 0.996279
1.00086 0.999898 0.993573
0.999777 1.00086 0.994474
1.0004 1.00041 0.993875
1.00169 1.0011 0.990896
0.999763 1 0.998048
0.999659 0.999997 0.995912
1.00104 1.00001 0.993652
1.00082 0.999921 0.993578
1.00066 1.00012 0.993672
1.00295 0.999799 0.98986
1.00223 1.00046 0.990203
0.999467 0.998719 0.997245
0.999453 1.00077 0.995019
1.00093 1.00163 0.991618
1.00253 1.00116 0.988772
0.999284 1.00021 0.99833
0.999351 0.998729 0.998813
0.999154 0.999793 0.998507
0.999739 1.00083 0.994174
0.999532 1.00011 0.998245
0.999204 1.00024 0.99838
1.00051 1.00036 0.993171
0.999374 0.998418 0.99825
0.99995 1.00077 0.993855
0.999703 1.0004 0.995088
1.00072 1.00179 0.991477
0.999432 0.998082 0.999033
0.999616 0.998989 0.996322
1.00087 1.00002 0.992903
1.00031 1.00061 0.993432
1.00247 1.00045 0.989555
0.99963 0.999899 0.99604
1.00121 1.00137 0.99103
1.00036 1.00211 0.991904
1.00127 1.00208 0.990103
0.999482 0.997493 0.999228
0.999424 0.997748 0.999176
0.999622 0.999982 0.998206
0.999729 1 0.998084
0.99981 1 0.998014
0.999592 0.999994 0.997073
1.00117 1.00003 0.992921
0.999512 0.999974 0.997211
1.00099 0.999963 0.993301
0.999826 0.999998 0.998006
1.00121 0.999985 0.992252
1.0011 1.00003 0.993615
1.00335 0.999828 0.988518
1.00097 0.999918 0.993902
1.00314 0.999828 0.988948
0.999735 1.00001 0.995794
0.999389 0.999876 0.996283
0.999115 0.999521 0.997034
0.999201 1.0002 0.996375
1.0009 0.999889 0.993532
1.00047 1.00033 0.993864
0.999861 1.00076 0.994466
1.00176 1.00115 0.990807
0.999797 1 0.998026
0.999537 0.999981 0.996041
1.0011 1 0.992747
1.00087 0.999892 0.993536
0.999389 0.998727 0.998022
0.99958 1.00068 0.995135
1.00071 1.00009 0.993642
1.00295 0.999784 0.989751
1.00102 1.00167 0.991515
1.00226 1.00053 0.990279
1.00252 1.00117 0.988776
1.00118 1.00001 0.992304
1.00088 0.999974 0.99339
1.00327 0.999824 0.988965
1.00295 0.999754 0.989615
1.00279 0.999986 0.989703
1.00401 0.999451 0.987968
0.999462 0.998222 0.998961
1.00318 1.00046 0.988228
0.999596 1.00032 0.994982
1.0003 1.00197 0.991982
1.00184 1.00199 0.989357
1.00313 1.00102 0.987787
0.999665 0.999385 0.995755
1.00009 1.0011 0.993342
0.999472 1.00013 0.998262
0.999133 1.00013 0.998427
1.00049 1.00036 0.993181
0.999393 0.998295 0.998983
0.999619 1.0005 0.994724
0.999874 1.00087 0.993847
1.00072 1.00178 0.991469
0.999411 0.998034 0.999073
0.999618 0.998932 0.996351
1.00085 1.00003 0.993453
1.00023 1.00061 0.993963
1.00246 1.00044 0.989569
0.999611 0.999877 0.99542
1.00119 1.00136 0.991045
1.00033 1.00211 0.991901
1.00129 1.00208 0.990042
0.999583 0.99946 0.995893
0.999697 0.998527 0.996648
0.999997 1.00081 0.993778
1.00291 1.00004 0.989115
1.0018 1.00097 0.990307
1.00345 1.00042 0.987765
1.00021 1.00181 0.992447
1.00188 1.0015 0.989536
1.00082 1.00279 0.990422
1.00149 1.00236 0.989536
0.999564 0.997191 0.999277
0.999483 0.997434 0.999245
0.999411 0.997688 0.999203
0.999703 0.998997 0.9961
0.99948 0.99796 0.999065
0.999587 1.00002 0.99823
0.999653 0.999986 0.998159
1.00096 0.999955 0.992782
1.00111 1.00004 0.992394
0.999788 1 0.998028
0.999823 0.999999 0.998002
1.0012 0.999994 0.992256
1.00105 1.00004 0.993134
1.00335 0.999828 0.98852
1.00093 0.999892 0.99287
1.00313 0.999837 0.988949
1.00123 0.999977 0.992223
1.00348 0.999791 0.98832
1.00321 0.999847 0.988783
1.00442 0.999473 0.986919
1.00309 0.999841 0.988996
1.00419 0.999485 0.987355
0.999814 0.999999 0.998008
0.999414 0.999956 0.996176
1.0011 0.999995 0.991903
1.00092 0.999888 0.993493
0.999265 0.998689 0.998859
0.99971 1.00062 0.995245
1.00076 1.00007 0.993616
1.00295 0.999762 0.989641
1.00229 1.0006 0.990355
1.00111 1.00175 0.991413
1.00251 1.00117 0.98878
1.00118 0.999997 0.992298
1.00094 0.999967 0.993349
1.00326 0.99981 0.98872
1.00297 0.999789 0.98972
0.999449 0.998283 0.998922
0.999626 1.00026 0.995339
1.0004 1.00199 0.992075
1.00277 1.00004 0.989699
1.00402 0.999366 0.987832
1.00175 1.00198 0.989347
1.00321 1.00049 0.988317
1.00312 1.00102 0.987799
0.999643 0.999462 0.995741
1.0001 1.00106 0.993336
1.00346 0.99979 0.988342
1.00305 0.999829 0.989353
1.00433 0.999553 0.987299
1.00405 0.99936 0.987595
1.00381 0.999772 0.987935
1.00457 0.998888 0.987323
0.99963 0.999846 0.995345
1.00388 1.0001 0.987308
1.00015 1.00191 0.992337
1.00091 1.00248 0.9902
1.00243 1.00212 0.988423
1.0036 1.0006 0.987433
1.00014 1.00155 0.99282
1.0001 1.00054 0.993869
1.0003 1.00213 0.991946
1.0008 1.00002 0.992961
0.999393 0.997991 0.99911
0.999617 0.998883 0.99638
1.00011 1.00072 0.993531
1.00246 1.00044 0.989583
0.999597 0.999869 0.995384
1.0003 1.00211 0.991897
1.00117 1.00135 0.991061
1.0013 1.00208 0.989981
0.999592 0.999391 0.995917
0.999688 0.998504 0.996667
0.999987 1.00083 0.993788
1.00292 1.00005 0.989116
1.00178 1.00096 0.990332
1.00346 1.00042 0.987762
1.00017 1.00186 0.99245
1.00191 1.00151 0.98957
1.00081 1.00279 0.990414
1.00147 1.00235 0.989497
0.999781 0.998177 0.996841
1.00011 1.00134 0.993054
0.999985 1.00017 0.99445
1.00017 1.00194 0.992384
1.00396 0.999843 0.987384
1.00265 1.00107 0.988655
1.00405 1.0002 0.986859
1.00052 1.00273 0.991069
1.00228 1.00147 0.988967
1.00086 1.00366 0.989412
1.00169 1.00216 0.989096
1.00018 0.999114 0.995169
0.999926 0.99771 0.997026
0.999661 0.996924 0.999308
0.999575 0.997137 0.999287
0.999486 0.997371 0.999261
0.999769 0.998668 0.996324
0.999503 0.997718 0.999135
0.999699 0.999046 0.996077
0.999487 0.997993 0.999033
1.00094 0.999888 0.992867
1.00101 1.00003 0.992603
1.00312 0.999844 0.988948
1.00335 0.999829 0.988522
1.0012 1 0.99226
0.999829 1 0.998001
1.00123 0.99998 0.992221
1.00348 0.999794 0.988321
1.0032 0.999857 0.988783
1.00443 0.999476 0.986914
1.00309 0.999855 0.988992
1.00419 0.999484 0.987359
1.00351 0.999781 0.98828
1.00455 0.999405 0.986741
1.00428 0.999508 0.987165
1.00489 0.998975 0.986552
1.00415 0.999514 0.987382
1.00471 0.999017 0.986864
1.00119 0.999986 0.992291
1.00099 0.999962 0.993306
1.00325 0.99979 0.988477
1.00298 0.99981 0.989826
0.999441 0.998345 0.998883
0.999671 1.00024 0.995668
1.00052 1.002 0.992166
1.00274 1.00009 0.989695
1.00403 0.999277 0.987696
1.00323 1.00052 0.988406
1.00166 1.00197 0.989338
1.00311 1.00101 0.987811
0.999629 0.999528 0.995725
1.00011 1.00103 0.993331
1.00345 0.999772 0.988266
1.00307 0.99982 0.989348
1.00434 0.999508 0.987245
1.00406 0.999413 0.987745
0.999631 0.999876 0.995344
1.0002 1.00192 0.992333
1.00091 1.00245 0.990331
1.00381 0.999831 0.98794
1.00459 0.998811 0.987284
1.00236 1.00212 0.988291
1.00387 1.00009 0.987314
1.00353 1.00057 0.987444
1.00015 1.00149 0.992827
1.00029 1.0021 0.991959
1.0001 1.00054 0.993858
1.00451 0.999487 0.987031
1.00417 0.999492 0.987501
1.00487 0.999046 0.986665
1.00461 0.998963 0.987083
1.00447 0.99917 0.987086
1.0049 0.998396 0.987178
1.00015 1.00177 0.992546
1.00429 0.999436 0.987108
1.0006 1.00239 0.991142
1.00126 1.00299 0.989085
1.00277 1.00204 0.987653
1.00384 1.00012 0.987646
1.00014 1.00015 0.994204
1.00041 1.00214 0.991745
1.00026 1.00173 0.992367
1.00031 1.00268 0.991455
1.00292 1.00005 0.989116
0.999678 0.998482 0.996686
0.999607 0.999309 0.995939
0.999988 1.00083 0.993798
1.00176 1.00095 0.990356
1.00346 1.00042 0.987759
1.00013 1.00189 0.992454
1.00079 1.00279 0.990406
1.00194 1.00152 0.989604
1.00143 1.00234 0.989458
0.999772 0.998168 0.996849
1.0001 1.00137 0.993055
0.999993 1.00015 0.994465
1.00016 1.00199 0.992375
1.00398 0.999846 0.98737
1.00262 1.00107 0.98867
1.00405 1.00021 0.986857
1.00048 1.00273 0.991085
1.00231 1.0015 0.98901
1.00088 1.00371 0.989368
1.00165 1.00204 0.989365
0.999858 0.997916 0.996954
1.00005 0.999682 0.994841
1.00034 1.00234 0.99175
1.00015 1.00129 0.993065
1.00009 1.00291 0.991605
1.00456 0.99945 0.986648
1.00313 1.00096 0.987837
1.00436 0.999902 0.986608
1.00047 1.00398 0.989946
1.00246 1.0013 0.988756
1.00106 1.00364 0.988498
1.00015 0.999234 0.995114
1.00022 1.00008 0.994151
1.00022 0.999031 0.995191
1.00018 0.999131 0.995164
0.999968 0.997509 0.997522
0.999915 0.997693 0.997253
0.999806 0.996722 0.998444
0.999674 0.996879 0.999316
0.999588 0.997085 0.999297
0.999838 0.998398 0.996472
0.999565 0.997469 0.999178
0.999773 0.998691 0.996308
0.999513 0.997755 0.999115
0.999692 0.999094 0.996055
0.999497 0.998041 0.998999
1.00309 0.999865 0.988987
1.0032 0.999866 0.988783
1.00418 0.999492 0.987363
1.00443 0.999478 0.986909
1.00348 0.999796 0.988321
1.00123 0.999983 0.992221
1.00351 0.999778 0.988279
1.00455 0.999408 0.98674
1.00427 0.999525 0.987163
1.0049 0.998933 0.986555
1.00416 0.99951 0.987375
1.0047 0.999024 0.986862
1.00458 0.999385 0.986709
1.00499 0.998867 0.986441
1.0048 0.999006 0.986687
1.00509 0.998451 0.986734
1.0047 0.999041 0.986844
1.00493 0.998421 0.986989
1.00342 0.999755 0.98819
1.00309 0.99981 0.989343
1.00435 0.999471 0.98719
1.00408 0.999466 0.987896
0.999634 0.999907 0.995342
1.00022 1.00194 0.992329
1.00092 1.00241 0.990462
1.00382 0.999892 0.987945
1.0046 0.998737 0.987245
1.00386 1.00008 0.987321
1.00229 1.00213 0.988159
1.00347 1.00053 0.987455
1.00016 1.00144 0.992835
1.00029 1.00207 0.991971
1.0001 1.00055 0.993847
1.00451 0.999461 0.9869
1.00418 0.999491 0.987496
1.00486 0.998968 0.986646
1.00463 0.998984 0.987105
1.00018 1.00174 0.992553
1.00065 1.00238 0.991118
1.00121 1.00299 0.989253
1.00445 0.999257 0.987141
1.00488 0.998345 0.987185
1.00268 1.0021 0.987566
1.00432 0.99943 0.98711
1.00379 0.999982 0.987696
1.00041 1.00215 0.991757
1.00032 1.0027 0.991397
1.00013 1.00016 0.994198
1.00025 1.00167 0.992439
1.00496 0.99896 0.98645
1.00474 0.999058 0.986883
1.00508 0.998569 0.986642
1.00495 0.99828 0.987115
1.00486 0.998524 0.986989
1.005 0.99798 0.987279
1.0005 1.00216 0.991566
1.00452 0.9987 0.987437
1.00059 1.00304 0.990266
1.00162 1.00347 0.988153
1.00292 1.00192 0.987294
1.00414 0.999556 0.987643
1.00016 0.999916 0.994395
1.00025 1.00129 0.992811
1.00043 1.00258 0.991296
1.00023 1.00242 0.991847
1.00032 1.00286 0.991231
0.999763 0.99816 0.996856
1.00399 0.999848 0.987356
1 1.00012 0.99448
1.00008 1.00143 0.993057
1.00014 1.00203 0.992366
1.00261 1.00108 0.988684
1.00404 1.00022 0.986855
1.00045 1.00272 0.991101
1.00091 1.00373 0.989324
1.00234 1.00152 0.989054
1.00163 1.00194 0.989632
0.999851 0.99791 0.996958
1.00005 0.999669 0.994849
1.00033 1.00233 0.991752
1.00014 1.00131 0.993069
1.00008 1.003 0.991505
1.00457 0.999458 0.986634
1.00312 1.00096 0.987847
1.00433 0.999917 0.98659
1.00042 1.00396 0.989958
1.00248 1.00133 0.988798
1.0012 1.00366 0.988579
1.0001 0.999412 0.995021
1.00017 1.00069 0.993633
1.00029 1.00346 0.990753
1.00005 1.00239 0.99218
1.00012 1.0036 0.990955
1.00487 0.999014 0.986505
1.00341 1.00066 0.987583
1.00431 0.999279 0.987112
1.00038 1.00489 0.988977
1.00218 1.00244 0.98813
1.00014 0.999247 0.995111
1.00019 1.00017 0.994018
1.00022 1.00009 0.994108
1.00017 1.00077 0.99368
1.00025 1.00007 0.994115
1.00025 0.998999 0.995161
1.00022 0.999037 0.995188
1.00003 0.997354 0.997555
1.00017 0.999146 0.995159
0.999976 0.997501 0.997526
0.999901 0.996497 0.998482
0.999904 0.997682 0.997477
0.999782 0.996679 0.998893
0.999688 0.996835 0.999324
0.999902 0.998159 0.996594
0.999842 0.998411 0.996463
0.999644 0.997226 0.999212
0.999564 0.997514 0.999166
0.999775 0.998717 0.996292
0.999521 0.997784 0.999093
1.00417 0.999506 0.987368
1.00427 0.999533 0.987161
1.00469 0.999028 0.98686
1.00491 0.998891 0.986558
1.00456 0.999409 0.986739
1.00351 0.999776 0.988278
1.00458 0.999384 0.98671
1.005 0.998877 0.986426
1.00479 0.999019 0.986682
1.00509 0.998379 0.986789
1.0047 0.99903 0.986836
1.00495 0.998354 0.987011
1.00501 0.998889 0.986394
1.00512 0.998488 0.986635
1.00503 0.998245 0.986954
1.00514 0.998033 0.987101
1.00497 0.998491 0.986836
1.00498 0.997927 0.987377
1.00452 0.999433 0.98677
1.00418 0.999497 0.98749
1.00485 0.998888 0.986627
1.00465 0.999005 0.987128
1.0002 1.00169 0.99256
1.00071 1.00237 0.991094
1.00115 1.003 0.989421
1.00443 0.999342 0.987195
1.00486 0.998293 0.987192
1.00433 0.999424 0.987112
1.00259 1.00215 0.987479
1.00374 0.999837 0.987745
1.00041 1.00217 0.99177
1.00032 1.00273 0.991339
1.00013 1.00017 0.994193
1.00025 1.00159 0.992512
1.00496 0.998964 0.986452
1.00475 0.999092 0.986844
1.00507 0.998522 0.986666
1.00491 0.998346 0.987105
1.00052 1.00218 0.991557
1.00059 1.00298 0.990403
1.00158 1.00358 0.988132
1.00486 0.998583 0.986981
1.00502 0.997933 0.987285
1.00291 1.00198 0.98724
1.00452 0.998697 0.987435
1.00396 0.999364 0.987914
1.00046 1.00257 0.991299
1.00033 1.00287 0.991217
1.00022 1.00243 0.991843
1.00016 0.999911 0.994322
1.00025 1.00124 0.992857
1.00513 0.998479 0.986603
1.00506 0.998359 0.986828
1.00504 0.997661 0.987525
1.00505 0.997831 0.987252
1.00049 1.00264 0.991092
1.00475 0.998099 0.98762
1.00047 1.00367 0.989607
1.00196 1.00395 0.987046
1.00349 1.00125 0.986986
1.00018 0.999719 0.994404
1.00025 1.00098 0.993264
1.0002 1.00199 0.992357
1.00042 1.0027 0.991205
1.00022 1.00294 0.991395
1.00041 1.00278 0.991096
0.999845 0.997904 0.996962
1.00006 0.999657 0.994857
1.00459 0.999465 0.986619
1.00013 1.00133 0.993074
1.0003 1.00232 0.991755
1.00007 1.00307 0.991404
1.00311 1.00096 0.987858
1.00431 0.99993 0.986571
1.00039 1.00396 0.989971
1.00133 1.00365 0.98866
1.0025 1.00135 0.98884
1.0001 0.999419 0.995022
1.00018 1.00067 0.993643
1.00027 1.00344 0.990782
1.00005 1.00238 0.992181
1.00009 1.00363 0.990889
1.00485 0.999048 0.986494
1.00342 1.00066 0.987566
1.00433 0.99915 0.987248
1.00036 1.00492 0.988931
1.00219 1.00264 0.987948
1.00017 1.00036 0.993967
1.00009 1.00172 0.992682
1.00027 1.00416 0.990018
1.00002 1.00333 0.991198
1.00024 1.00382 0.990482
1.00499 0.997616 0.987566
1.00358 1.00078 0.987397
1.00443 0.998135 0.987593
1.00099 1.00474 0.988565
1.00205 1.00288 0.987178
1.00014 0.999262 0.995109
1.0002 1.00017 0.994065
1.00015 1.00093 0.993379
1.00021 1.00011 0.994066
1.00025 1.00007 0.994116
1.00015 1.00077 0.993613
1.00007 1.00133 0.993276
1.00014 1.00074 0.993602
1.00029 1.00006 0.994079
1.00026 0.999034 0.995097
1.00025 0.998998 0.995162
1.00008 0.997278 0.997538
1.00021 0.999041 0.995186
1.00003 0.997358 0.997554
0.999968 0.996345 0.998504
0.999984 0.997491 0.997532
0.999891 0.996475 0.998484
0.999755 0.99663 0.999347
0.99996 0.997939 0.996709
0.999906 0.998168 0.996588
0.999724 0.996995 0.999242
0.999845 0.998427 0.996454
0.999636 0.99727 0.999201
0.999564 0.997551 0.999153
1.0047 0.99902 0.986827
1.00479 0.999035 0.986677
1.00496 0.998289 0.987033
1.0051 0.998306 0.986844
1.005 0.998886 0.986412
1.00458 0.999384 0.98671
1.00501 0.998919 0.986379
1.00512 0.998521 0.986604
1.00505 0.998288 0.98689
1.00514 0.997946 0.987131
1.00496 0.99851 0.986843
1.00503 0.997804 0.987399
1.00512 0.998557 0.986562
1.00513 0.998032 0.987051
1.00514 0.997617 0.98743
1.005 0.997618 0.987639
1.00495 0.998969 0.986455
1.00476 0.999121 0.986805
1.00506 0.998475 0.986691
1.00488 0.998413 0.987096
1.00055 1.00219 0.991548
1.0006 1.00292 0.990541
1.00154 1.00371 0.98811
1.00486 0.998642 0.986972
1.00503 0.997889 0.98729
1.0045 0.998695 0.987431
1.00291 1.00203 0.987187
1.00381 0.9992 0.988183
1.00048 1.00257 0.991302
1.00035 1.00287 0.991202
1.00019 1.00245 0.991838
1.00016 0.999907 0.994248
1.00025 1.0012 0.992904
1.00513 0.998488 0.986613
1.00506 0.998363 0.986874
1.00505 0.997746 0.987457
1.00054 1.00264 0.991076
1.0006 1.00361 0.989758
1.00192 1.00406 0.987015
1.00504 0.997862 0.987281
1.00346 1.00108 0.987149
1.00471 0.998125 0.987648
1.00018 0.999694 0.99443
1.00044 1.0027 0.991199
1.0004 1.00277 0.991141
1.00022 1.00298 0.991353
1.0002 1.00198 0.992384
1.00025 1.00097 0.993201
1.00515 0.998169 0.986839
1.00512 0.997562 0.987531
1.00511 0.997235 0.987738
1.0051 0.997201 0.987832
1.00048 1.003 0.990793
1.00448 0.998773 0.987264
1.00083 1.00473 0.98813
1.00247 1.00383 0.986438
1.00019 0.999519 0.994601
1.00025 1.00077 0.993491
1.0002 1.00173 0.992661
1.00015 1.00261 0.991793
1.00048 1.0029 0.990952
1.00042 1.00283 0.991059
1.00009 0.999426 0.995023
1.00018 1.00065 0.993653
1.00483 0.999083 0.986483
1.00005 1.00238 0.992181
1.00024 1.00342 0.990812
1.00005 1.00369 0.990824
1.00343 1.00065 0.98755
1.00435 0.999021 0.987383
1.00035 1.0049 0.988885
1.0022 1.00289 0.987767
1.00018 1.00034 0.993972
1.0001 1.0017 0.992719
1.00023 1.00423 0.990086
1 1.0034 0.991198
1.00017 1.0038 0.990561
1.00498 0.997681 0.987665
1.00363 1.00067 0.987344
1.00443 0.997984 0.987974
1.00085 1.00473 0.98851
1.00223 1.00314 0.98693
1.00013 1.00115 0.993187
1.00001 1.00268 0.991802
1.00038 1.00433 0.989707
1.00001 1.00405 0.990246
1.00516 0.996375 0.988603
1.0051 0.996732 0.98833
1.00375 1.00058 0.98695
1.00115 1.00448 0.98738
1.00021 1.00016 0.994113
1.00015 1.00094 0.993412
1.00005 1.00162 0.992993
1.00025 1.00007 0.994116
1.00014 1.00076 0.993546
1.00029 1.00004 0.99408
1.00006 1.00134 0.993222
1.00015 1.00071 0.993621
1.00001 1.00177 0.992897
1.0001 1.00119 0.993262
1.00017 1.00069 0.993588
1.0003 1.00008 0.99402
1.00026 0.999108 0.995026
1.00026 0.999038 0.995096
1.00011 0.997267 0.997492
1.00025 0.998996 0.995162
1.00008 0.997296 0.997531
1.00002 0.996274 0.998481
1.00004 0.997361 0.997554
0.999961 0.996322 0.998507
0.999882 0.996454 0.998483
1.00001 0.997726 0.996826
0.999965 0.997945 0.996703
0.999801 0.996777 0.999271
0.999911 0.998176 0.996581
0.999715 0.997037 0.999233
0.99963 0.997316 0.99919
1.00495 0.998528 0.98685
1.00507 0.99833 0.986827
1.00508 0.997679 0.987421
1.00515 0.997861 0.98716
1.00512 0.998555 0.986573
1.005 0.998949 0.986363
1.00512 0.99855 0.986575
1.00513 0.998052 0.987028
1.00513 0.997633 0.98741
1.00505 0.997572 0.987629
1.00513 0.998173 0.986913
1.00513 0.99747 0.987639
1.00514 0.99713 0.987874
1.00512 0.998496 0.986622
1.00505 0.998369 0.98692
1.00506 0.99783 0.987389
1.00058 1.00264 0.99106
1.00073 1.00354 0.989909
1.00186 1.00417 0.986983
1.00503 0.997893 0.987311
1.00466 0.998131 0.987678
1.00342 1.00093 0.987313
1.00047 1.0027 0.991192
1.00036 1.00276 0.991187
1.00022 1.003 0.99131
1.00018 0.999668 0.994455
1.00019 1.00197 0.99241
1.00025 1.00096 0.993137
1.00515 0.998204 0.986844
1.00513 0.99754 0.987564
1.00511 0.997289 0.987723
1.00051 1.00301 0.990753
1.00075 1.00462 0.988445
1.0025 1.00374 0.986443
1.0051 0.99719 0.987865
1.00454 0.9988 0.987207
1.00019 0.999492 0.994696
1.00024 1.00077 0.993491
1.00041 1.00281 0.99098
1.00042 1.00273 0.991209
1.00016 1.0026 0.991756
1.00019 1.00175 0.992615
1.00514 0.99758 0.98748
1.00512 0.996743 0.988289
1.0051 0.996609 0.988269
1.00499 0.996924 0.988295
1.00026 1.00381 0.990107
1.00336 1.00186 0.986468
1.00135 1.00498 0.987546
1.00021 0.999339 0.994906
1.00018 1.00039 0.993907
1.00022 1.00064 0.993514
1.00017 1.00161 0.992767
1.00009 1.00241 0.992095
1.00001 1.00326 0.991283
1.00069 1.00181 0.991439
1.0003 1.00286 0.991892
1.00019 1.00032 0.993977
1.00012 1.00168 0.992756
1.00498 0.99775 0.987765
1 1.00344 0.991198
1.00018 1.00431 0.990154
1.00008 1.00378 0.99064
1.00368 1.00054 0.987289
1.00446 0.997815 0.98835
1.00071 1.00476 0.988456
1.0024 1.00335 0.986682
1.00014 1.00118 0.993145
1.00002 1.00272 0.991804
1.00032 1.00435 0.989745
1.00009 1.00406 0.990325
1.00515 0.996386 0.988656
1.005 0.996874 0.988255
1.00382 1.00052 0.987103
1.0014 1.00447 0.987219
1.00004 1.00197 0.99264
1.00517 0.995913 0.988901
1.00001 1.00382 0.991013
1.00052 1.00456 0.989152
1.00518 0.995886 0.989035
1.00485 0.997723 0.987583
1.00256 1.00346 0.986665
1.00016 1.00095 0.993445
1.00004 1.00162 0.992986
0.99995 1.00216 0.992623
1.00029 1.00003 0.994081
1.00017 1.0007 0.993641
1.00004 1.00135 0.993169
1.0003 1.00008 0.994019
1.00017 1.00069 0.993594
1.00001 1.00179 0.992847
1.0001 1.00118 0.993312
1.00001 1.00201 0.992607
1.00009 1.00156 0.992897
1.00013 1.00109 0.993369
1.00025 1.00066 0.993527
1.0003 1.00016 0.993944
1.00025 0.999175 0.994975
1.00026 0.999111 0.995027
1.00013 0.997288 0.997442
1.00026 0.999045 0.995095
1.00011 0.997295 0.997485
1.00005 0.996251 0.998451
1.00009 0.997316 0.997524
1.00002 0.996245 0.998487
0.999954 0.996299 0.998509
1.00021 0.999212 0.995014
1.00006 0.997538 0.996925
1.00002 0.997732 0.996821
0.99987 0.996572 0.999301
0.99997 0.997952 0.996697
0.999792 0.996817 0.999262
0.999706 0.997079 0.999223
1.00511 0.997527 0.987619
1.00513 0.99765 0.987391
1.00513 0.998067 0.987007
1.00512 0.998543 0.986588
1.00513 0.998147 0.986956
1.00514 0.997467 0.987615
1.00514 0.997101 0.987868
1.00513 0.997528 0.987543
1.00514 0.996936 0.988222
1.00515 0.995547 0.989072
1.00516 0.998241 0.986849
1.00513 0.997517 0.987597
1.00511 0.997345 0.987708
1.00056 1.00302 0.990712
1.00066 1.00452 0.98876
1.00252 1.00362 0.986448
1.0051 0.997192 0.987898
1.0046 0.99883 0.98715
1.00035 1.00272 0.991008
1.00044 1.00263 0.991355
1.00013 1.00264 0.991718
1.00019 0.999464 0.994792
1.00024 1.00076 0.993491
1.00017 1.00178 0.99257
1.00514 0.99752 0.987572
1.00021 0.999331 0.994905
1.00017 1.00042 0.993864
1.00511 0.996809 0.988272
1.00512 0.996644 0.988192
1.00019 1.00381 0.990317
1.00132 1.00498 0.987377
1.00333 1.00174 0.986483
1.00497 0.996962 0.988286
1.00022 1.00063 0.993646
1.00017 1.0016 0.992761
1.00081 1.00196 0.991156
1.00015 1.00236 0.992277
0.999993 1.00335 0.991204
1.0001 1.00236 0.992115
1.00513 0.996527 0.988556
1.00512 0.996327 0.988771
1.00507 0.996121 0.988717
1.00444 0.997715 0.988055
1.00051 1.00341 0.990355
1.00204 1.0045 0.986764
1.00015 1.00033 0.993927
1.0002 1.00053 0.993749
1.0001 1.00128 0.993308
1.00015 1.00152 0.992764
1.00006 1.00233 0.99233
0.999898 1.00313 0.991475
0.999742 1.00435 0.990967
1.00025 1.00169 0.992405
1.00015 1.0012 0.993103
1.00004 1.00275 0.991805
1.00513 0.996382 0.988709
1.00489 0.99705 0.98818
1.00019 1.00407 0.990404
1.00028 1.00436 0.989781
1.00389 1.00048 0.987257
1.00165 1.0045 0.987058
1.00003 1.00198 0.992617
1.00517 0.995908 0.988917
0.999959 1.00371 0.991053
1.00052 1.0045 0.989076
1.00519 0.995784 0.988945
1.00484 0.997684 0.987713
1.00247 1.00358 0.986752
0.999955 1.00302 0.991819
1.00514 0.995228 0.990289
1.00045 1.00411 0.990285
1.0012 1.00472 0.98825
1.00511 0.996468 0.988557
1.0033 1.00113 0.987209
1.00018 0.99969 0.992566
1.00004 1.00163 0.992979
0.999943 1.00217 0.992616
1.00002 1.00235 0.992298
1.0003 1.00007 0.994017
1.00017 1.0007 0.993599
1.0001 1.00117 0.993363
1.00002 1.00181 0.992798
1.0003 1.00016 0.99394
1.00024 1.00065 0.993517
1.00001 1.00204 0.992576
1.00013 1.00108 0.993363
1.00009 1.00158 0.992942
1.00009 1.0018 0.992686
1.00014 1.00121 0.993181
1.0002 1.00099 0.993329
1.00033 1.00069 0.993359
1.00031 1.00022 0.993792
1.00024 1.00073 0.993545
1.00028 1.00023 0.993821
1.00024 0.999208 0.994958
1.00025 0.999177 0.994976
1.00015 0.997344 0.996948
1.00026 0.999116 0.995027
1.00014 0.997316 0.997211
1.00003 0.9962 0.999336
1.00011 0.997321 0.997478
1.00005 0.996213 0.998456
1.00001 0.996217 0.998492
1.00021 0.999152 0.995086
1.00022 0.999212 0.99501
1.0001 0.997408 0.996986
1.00006 0.997541 0.997151
0.99993 0.996405 0.999323
1.00002 0.997737 0.996815
0.999861 0.996611 0.999292
0.999783 0.996858 0.999253
1.00515 0.997074 0.987862
1.00514 0.99746 0.987591
1.00513 0.998126 0.986998
1.00513 0.997525 0.98753
1.00513 0.996905 0.988191
1.00516 0.995817 0.988953
1.00513 0.99628 0.988692
1.00138 1.00001 0.98855
1.00519 0.995126 0.990293
1.00014 1.00032 0.994076
1.00513 0.99746 0.987664
1.00511 0.996867 0.988254
1.00514 0.99674 0.988115
1.00012 1.00383 0.990526
1.0013 1.005 0.987209
1.00331 1.00166 0.986498
1.00496 0.996994 0.988277
1.00092 1.00213 0.990878
0.99997 1.00184 0.992671
0.999982 1.00341 0.991125
1.00021 0.999326 0.994905
1.00012 1.00232 0.992134
1.00023 1.00061 0.993777
1.00016 1.0016 0.992754
1.00016 1.00042 0.993822
1.00514 0.996426 0.988629
1.00015 1.00032 0.993989
1.0002 1.00053 0.993745
1.0001 1.00127 0.993214
1.00512 0.99623 0.988765
1.00504 0.996261 0.988654
1.00059 1.00306 0.990435
1.00177 1.00443 0.986812
1.00443 0.998023 0.988056
1.00014 1.00154 0.992823
1.00006 1.0023 0.992298
1.00018 1.00208 0.992087
0.999748 1.00408 0.991137
0.999934 1.00317 0.991534
1.00512 0.995694 0.989304
1.00505 0.996697 0.98862
1.00507 0.996459 0.988363
1.00288 1.00138 0.988052
1.00042 1.00338 0.990499
1.00012 1.00114 0.993183
1.0001 1.00141 0.992979
1.0001 1.00181 0.99277
1.00004 1.00222 0.992334
0.999993 1.00285 0.991861
0.999773 1.00398 0.991031
0.999686 1.00447 0.990642
1.00003 1.002 0.992594
0.999903 1.00361 0.991092
1.00517 0.995909 0.988933
1.00521 0.99569 0.988855
1.00484 0.997601 0.987842
1.00051 1.00445 0.989001
1.00238 1.00367 0.986841
0.999929 1.00295 0.991942
1.00515 0.9952 0.990254
1.00024 1.00409 0.990338
1.00092 1.00479 0.988347
1.0051 0.996153 0.98869
1.00328 1.00115 0.987176
1.00013 0.999753 0.991109
1.00005 1.00336 0.991348
1.00484 0.995744 0.991007
1.00012 1.00445 0.990258
1.00128 1.00415 0.988133
1.00381 0.997628 0.988476
1.00156 0.995179 0.960909
0.996108 1.00052 0.979074
0.999204 1.0002 0.993646
0.999303 0.997404 0.944969
0.995004 0.998245 0.939723
0.999941 1.00219 0.992608
0.999978 1.00238 0.992352
1.00001 1.00205 0.992654
1.00029 1.00016 0.993936
1.00024 1.00063 0.993508
1.00014 1.00108 0.993357
1.00008 1.0016 0.992986
1.00003 1.00204 0.992545
1.0002 1.00098 0.993299
1.00029 1.00022 0.993842
1.00032 1.00067 0.993385
1.00009 1.00181 0.992693
1.00014 1.00123 0.993181
1.00018 1.00111 0.99316
1.00013 1.00121 0.993201
1.00031 1.00093 0.993167
1.00037 1.00075 0.993182
1.00029 1.00025 0.993784
1.00033 1.00073 0.993351
1.00027 1.00097 0.99325
1.00016 1.0008 0.993537
1.00025 1.00074 0.993491
1.00027 1.00019 0.99396
1.00028 1.00024 0.993814
1.00024 0.99921 0.994966
1.00024 0.999207 0.994958
1.00014 0.997395 0.99693
1.00025 0.999178 0.994977
1.00015 0.997348 0.996947
1.00003 0.996209 0.999329
1.00015 0.997343 0.996981
1.00005 0.996203 0.998883
1.00005 0.996177 0.99846
1.0002 0.999109 0.995138
1.00021 0.999145 0.995085
1.00013 0.997325 0.997027
1.00022 0.99921 0.995006
1.0001 0.997396 0.997213
0.999977 0.996291 0.999336
1.00007 0.997558 0.996912
0.99992 0.996459 0.999314
0.999853 0.996647 0.999283
1.00512 0.996874 0.98816
1.00513 0.997524 0.987516
1.00517 0.996057 0.988834
1.00133 0.999021 0.98868
1.00513 0.996336 0.988707
1.0052 0.99539 0.990148
1.00519 0.996245 0.989377
0.997946 0.999953 0.975771
1.00284 0.996766 0.989431
1.00014 1.0003 0.99409
1.00015 1.00031 0.994077
1.00011 1.00109 0.99336
1.0001 1.00107 0.993404
1.00515 0.99634 0.988703
1.00511 0.996165 0.98876
1.00508 0.99632 0.98859
1.00068 1.00274 0.990514
1.0015 1.00433 0.98686
1.00444 0.998403 0.988058
1.00012 1.00248 0.991761
0.99977 1.00383 0.991307
0.999971 1.0032 0.991594
1.0002 1.00054 0.993741
1.00007 1.00226 0.992266
1.00014 1.00156 0.992882
1.00015 1.00032 0.994051
1.0001 1.00127 0.993121
1.00511 0.995756 0.989311
1.00012 1.00115 0.993283
1.0001 1.00141 0.993018
1.00009 1.00179 0.992733
1.00508 0.996321 0.988671
1.00504 0.99651 0.988337
1.0005 1.00324 0.990478
1.00286 1.00159 0.987985
1.00005 1.00228 0.992329
0.999949 1.00283 0.991923
0.999718 1.00449 0.990642
0.999856 1.00406 0.990945
1.00512 0.995927 0.989149
1.0051 0.996003 0.988769
1.004 0.999109 0.98802
1.00047 1.00379 0.990076
1.00013 1.00181 0.992577
1.00002 1.00201 0.992585
0.999935 1.00308 0.99168
0.999881 1.00471 0.990119
1.00066 0.995076 0.957939
0.999895 1.00286 0.992065
1.00004 1.00405 0.990391
1.00516 0.995145 0.990217
1.0051 0.995825 0.988822
1.00325 1.00115 0.987144
1.00064 1.00484 0.988443
1.00008 0.999758 0.989631
0.999933 1.00338 0.991446
1.0048 0.995473 0.990928
1.00002 1.00438 0.990307
1.0012 1.00423 0.988113
1.00409 0.997689 0.988455
1.00182 0.995534 0.957803
0.995964 1.00021 0.975294
0.999304 1.0002 0.993874
0.998175 0.997869 0.945743
0.994839 0.998211 0.935404
0.999751 1.00333 0.992017
0.999995 0.994969 0.94679
0.994858 0.999782 0.941109
1.00415 0.995741 0.991524
0.999648 1.0049 0.990555
1.00166 1.00183 0.989281
0.998341 1.00036 0.996088
0.998701 0.998168 0.96156
0.994817 1.0003 0.975072
0.997455 0.999921 0.946819
0.994489 0.999871 0.945749
0.999929 1.00242 0.992406
0.999982 1.00211 0.992634
0.999967 1.00133 0.993602
1.00028 1.00022 0.993892
1.00032 1.00066 0.993411
1.0002 1.00097 0.993269
1.00015 1.00124 0.99318
1.00008 1.00184 0.9927
1.00029 1.00025 0.993782
1.00019 1.00112 0.993158
1.0003 1.00094 0.993189
1.00037 1.00074 0.993247
1.00013 1.00119 0.993224
1.00029 1.00097 0.993102
1.00024 1.00045 0.993753
1.00039 1.00091 0.993057
1.00037 1.00075 0.993268
1.00034 1.00073 0.993347
1.00028 1.00095 0.993235
1.00038 1.00087 0.993096
1.00016 1.00109 0.993266
1.00027 1.00097 0.993217
0.999925 1.00186 0.992886
1.0001 1.00093 0.993526
1.00016 1.00082 0.993536
1.00024 1.00018 0.994009
1.00026 1.00075 0.993436
1.00027 1.0002 0.993924
1.00023 0.999197 0.99499
1.00028 1.00025 0.993806
1.00024 0.999203 0.994966
1.0001 0.997422 0.997399
1.00024 0.999206 0.994958
1.00013 0.997388 0.997163
1.00007 0.996235 0.998397
1.00015 0.997353 0.996946
1.00003 0.996215 0.999327
1.00008 0.996208 0.99843
1.00017 1.00027 0.994078
1.0002 0.999074 0.995172
1.0002 0.999103 0.995139
1.00014 0.997262 0.997068
1.00021 0.999138 0.995084
1.00013 0.997314 0.997027
1.00001 0.996207 0.999346
1.00008 0.997402 0.997432
0.99999 0.996328 0.998878
0.999961 0.996494 0.998393
1.00113 0.998098 0.988819
1.00513 0.996407 0.988722
1.00521 0.995713 0.990005
0.997384 0.999232 0.977747
1.00269 0.997254 0.989694
1.00519 0.995699 0.989408
1.00451 0.996317 0.989838
0.998554 0.996842 0.980475
1.00032 0.995677 0.960611
0.997726 0.997645 0.947151
0.994666 0.998254 0.939059
1.00008 1.00113 0.993301
1.00014 1.0003 0.99409
1.00015 1.0003 0.994078
1.00011 1.00111 0.993328
1.00004 1.00161 0.992948
1.00013 1.00146 0.993023
1.00012 1.00105 0.993402
1.00009 1.00109 0.993362
1.0051 0.995793 0.989319
1.00513 0.995921 0.98872
1.00494 0.996567 0.988312
1.00057 1.00306 0.99046
1.00282 1.00167 0.987916
0.999747 1.00449 0.990643
0.999932 1.00415 0.990859
0.999905 1.00282 0.991985
1.0001 1.0014 0.993057
1.00005 1.00233 0.992323
1.00013 1.00117 0.993384
1.00009 1.00176 0.992696
1.00512 0.996029 0.98909
1.0001 1.00179 0.992672
1.00004 1.00202 0.99256
1.00507 0.996111 0.988681
1.00364 0.998778 0.988355
1.00061 1.00372 0.989834
0.999989 1.00307 0.99168
0.999935 1.00471 0.990119
1.00391 0.999988 0.98917
1.00456 0.996517 0.989878
1.0013 1.00101 0.989533
1.00015 1.00384 0.990516
1.00012 1.00175 0.99261
1.00008 1.00237 0.992156
0.999947 1.00364 0.991139
0.999862 0.994946 0.944508
1.00112 0.994942 0.9635
0.999832 1.00342 0.991543
0.999926 1.00434 0.990356
1.00476 0.995275 0.990855
1.0044 0.997845 0.988434
1.00113 1.00432 0.988093
1.00087 0.995044 0.958689
0.996177 1.00046 0.975766
0.999323 1.00012 0.99411
0.99773 0.997431 0.94904
0.994702 0.998186 0.931069
0.999714 1.00327 0.992022
1.00004 0.995034 0.944927
0.994809 0.999804 0.939076
1.00431 0.996064 0.991484
0.99957 1.00483 0.99062
1.00145 1.0017 0.98957
0.998637 0.999431 0.996862
0.999259 0.998722 0.958736
0.995251 1.0001 0.977716
0.996797 0.999936 0.946991
0.994658 0.999932 0.943653
0.999416 1.00319 0.992793
0.994654 0.99998 0.943919
0.994261 1.00383 0.958404
1.00138 0.998062 0.994424
0.999301 1.00429 0.992172
0.997446 1.00181 0.997254
0.995581 0.999943 0.982068
0.996014 1.00055 0.958227
0.995874 0.99995 0.949556
0.994268 1.00009 0.95362
0.99997 1.00214 0.992615
0.999971 1.00141 0.993452
0.999728 1.00017 0.994829
1.00029 1.00025 0.993781
1.00037 1.00072 0.993312
1.00029 1.00095 0.993212
1.0002 1.00113 0.993157
1.00014 1.00117 0.993246
1.00037 1.00074 0.993267
1.00029 1.00102 0.993119
1.00039 1.00091 0.993052
1.00016 1.00044 0.993917
1.00009 0.99963 0.994954
1.00043 1.0005 0.993356
1.00044 1.00088 0.993
1.00034 1.00072 0.993343
1.00028 1.00093 0.99322
1.00038 1.00088 0.993099
1.00017 1.00108 0.993261
1.00027 1.00096 0.993217
1.00005 1.00133 0.993191
1.00034 1.00087 0.993139
1.00015 1.00109 0.993298
1.00001 1.00245 0.992155
0.999692 1.00432 0.990761
0.999808 1.00256 0.992247
0.999917 1.00193 0.992861
1.00004 1.00117 0.9934
1.0001 1.00095 0.99352
1.0002 1.00021 0.994057
1.00016 1.00084 0.993535
1.00025 1.00019 0.994009
1.00021 0.999199 0.995023
1.00027 1.0002 0.993887
1.00024 0.999191 0.994991
1.00007 0.997456 0.997416
1.00024 0.999199 0.994967
1.00011 0.997415 0.997171
1.00005 0.996242 0.998404
1.00015 0.997377 0.996931
1.00002 0.996236 0.999322
1.00003 0.99622 0.999324
1.00019 1.00031 0.994169
1.00021 0.999075 0.995164
1.00016 1.00029 0.994076
1.00014 0.997234 0.997094
1.0002 0.999076 0.995173
1.00021 0.999098 0.99514
1.00014 0.997264 0.997066
1.00003 0.996151 0.999356
1.00011 0.997307 0.997473
1.00003 0.99622 0.998895
1.00002 0.996334 0.998427
0.999643 0.995353 0.944092
0.995046 0.999375 0.942191
0.997947 0.998378 0.978927
1.00256 0.997664 0.989951
1.00519 0.995216 0.989438
0.998121 0.996861 0.983121
1.00451 0.996559 0.98986
1.00056 0.995245 0.961622
0.998312 0.997404 0.94495
0.994627 0.998201 0.93467
0.999525 0.997052 0.986937
0.998042 0.998236 0.96362
0.997186 0.999816 0.946455
0.994614 0.999927 0.943188
1.00012 1.00161 0.992815
1.00008 1.00113 0.993325
1.00014 1.0003 0.994089
1.0001 1.00111 0.993297
1.00004 1.00155 0.993007
1.00013 1.00156 0.992892
1.00014 1.00144 0.992989
1.00016 1.00117 0.993181
1.00013 1.00106 0.993353
1.0001 1.0011 0.99332
1.00512 0.996074 0.989034
1.00503 0.996298 0.9886
1.00329 0.998438 0.988691
1.00074 1.0037 0.989593
0.999991 1.00469 0.990119
1.00004 1.00307 0.991681
1.00006 1.00204 0.992535
1.00008 1.00178 0.992767
1.00385 0.999125 0.989244
1.00012 1.00178 0.992604
1.00008 1.00234 0.992159
1.00448 0.996376 0.989672
1.00123 1.00162 0.989697
1.00026 1.00398 0.990208
1.00001 1.00358 0.991091
1.00101 1.00218 0.992215
1.00131 0.999216 0.993101
0.999956 1.00306 0.991341
1.00012 1.00192 0.992533
1.0002 1.00179 0.992406
1.00021 1.00243 0.991849
0.994523 0.999587 0.950751
0.99989 0.995344 0.946725
1.00062 0.994926 0.95745
0.999659 1.00319 0.992029
0.999503 1.00475 0.990688
1.00454 0.996308 0.991438
1.00119 1.00164 0.989857
0.999961 0.995305 0.947263
0.99842 0.99819 0.959871
0.99487 0.999938 0.97512
0.999034 0.998007 0.997561
0.997457 0.999887 0.943874
0.994796 0.999834 0.93934
0.994855 0.999908 0.943736
0.999312 1.0032 0.992815
0.994692 1.00004 0.946042
0.994411 1.00392 0.957959
1.00159 0.998002 0.99437
0.99893 1.00437 0.99218
0.996934 0.999508 1.00039
0.995404 0.999752 0.978385
0.996255 1.00046 0.962583
0.997238 0.999868 0.947047
0.994338 1.00012 0.953921
0.998604 1.00249 0.995202
0.993826 1.00312 0.966042
0.993603 1.00489 0.97099
0.997104 1.00167 0.99805
0.995864 1.00049 0.987726
0.995522 0.999994 0.962406
0.995119 0.999978 0.949282
0.994595 1.00005 0.952319
0.999964 1.00153 0.993305
0.999814 1.00014 0.994879
0.999333 0.999515 0.996114
1.00037 1.00074 0.993266
1.0004 1.0009 0.993046
1.00029 1.00107 0.993135
1.00009 1.00042 0.994081
1.00043 1.00089 0.993003
1.00042 1.00055 0.993321
1.0001 0.999404 0.995084
0.999607 0.99902 0.996331
1.00035 0.999551 0.994468
1.0004 1.00072 0.993134
1.00038 1.00088 0.993101
1.00017 1.00108 0.993257
1.00027 1.00095 0.993217
1.00033 1.00088 0.993144
1.00004 1.00138 0.993177
1.00017 1.00107 0.993294
1.00007 1.00146 0.993103
1.00015 1.00088 0.993496
0.99995 1.0024 0.992317
1.00002 1.00242 0.992219
0.99971 1.0039 0.991201
1.00021 1.00466 0.989646
0.999893 1.00338 0.991631
0.999655 1.00421 0.990973
0.999825 1.00259 0.992369
0.999972 1.00163 0.992941
0.999909 1.00201 0.992836
1.00005 1.00119 0.99339
1.00016 1.0003 0.994041
1.0001 1.00096 0.993514
1.00021 1.00021 0.994054
1.00017 0.999254 0.995046
1.00025 1.00019 0.994009
1.00022 0.999193 0.995025
1.00003 0.997509 0.997437
1.00024 0.999184 0.994993
1.00008 0.997451 0.997192
1.00001 0.996305 0.998418
1.00013 0.997399 0.996941
1.00003 0.996256 0.998862
1.00002 0.996244 0.999323
1.0002 1.00037 0.99395
1.0002 0.999126 0.99512
1.00018 1.00031 0.994051
1.00013 0.997257 0.997088
1.0002 0.999079 0.995166
1.00015 1.0003 0.994073
1.00003 0.996134 0.999361
1.00014 0.997234 0.997094
1.0002 0.999076 0.995173
1.00014 0.997266 0.997065
1.00002 0.996159 0.999354
1.00001 0.996218 0.999343
0.994673 0.999408 0.94862
0.99981 0.995203 0.945338
0.99453 1.0043 0.957393
0.99496 0.999633 0.940702
0.998923 0.996908 0.978887
1.00448 0.996978 0.989857
1.00049 0.995147 0.962621
0.999183 0.998153 0.948099
0.994598 0.998092 0.930262
0.999018 0.997632 0.985305
0.998886 0.99778 0.957956
0.996937 0.999815 0.946556
0.994578 0.999838 0.940912
0.995761 0.999638 0.983812
0.997677 1.00021 0.958191
0.995447 0.999732 0.945887
0.99447 0.999932 0.949574
1.00015 1.00184 0.992576
1.00011 1.00161 0.992859
1.00009 1.00115 0.993349
1.00006 1.00152 0.993065
1.00017 1.00169 0.992612
1.00013 1.00154 0.992923
1.00014 1.00144 0.992956
1.00021 1.00115 0.993172
1.00017 1.00116 0.99324
1.00014 1.00105 0.993305
1.00369 0.998296 0.989327
1.00445 0.9962 0.989467
1.00117 1.00221 0.989858
1.00038 1.00409 0.989902
1.00007 1.00353 0.991043
1.00008 1.0023 0.992163
1.00014 1.00181 0.992598
1.00013 1.00191 0.992522
1.00104 1.0011 0.992488
1.00019 1.00186 0.992434
1.00022 1.00245 0.991789
1.00141 0.999372 0.992712
1.00023 1.00295 0.991287
0.998902 1.00053 0.995859
0.999395 0.999643 0.996828
1.00027 1.00153 0.992265
1.00026 1.00172 0.992444
1.00029 1.00195 0.992157
0.9934 1.00249 0.970983
0.994557 1.00007 0.950508
0.99983 0.995819 0.944104
0.999217 1.00322 0.992832
0.998628 1.00447 0.992179
1.00167 0.998031 0.994339
0.994725 0.999977 0.947938
0.997365 1.00063 0.958357
0.994893 0.999615 0.980114
0.996508 0.998425 1.00373
0.995734 0.999962 0.949174
0.994552 1.00404 0.957533
0.994316 1.00007 0.954223
0.998512 1.00245 0.995227
0.993833 1.0028 0.968166
0.99358 1.00497 0.970899
0.997084 1.00231 0.998284
0.995404 1.00034 0.987967
0.996147 0.999917 0.958011
0.994471 0.999994 0.954279
0.99494 0.999898 0.950724
0.997091 1.00236 0.997924
0.993125 1.00431 0.985399
0.993613 1.00508 0.972727
0.994449 0.999967 0.949688
0.995035 1.00164 0.996541
0.996006 0.999046 0.964048
0.994684 1.00001 0.95161
0.99993 1.00008 0.994924
0.999474 0.999679 0.99584
0.998985 0.99907 0.997472
1.00043 1.00089 0.993006
1.0004 1.00061 0.993287
1.00013 0.999151 0.995217
1.0004 1.00077 0.993122
1.00035 0.999478 0.994475
0.999868 0.998988 0.995919
0.999495 0.998477 0.997136
1.00029 1.00029 0.993821
1.00033 1.0009 0.993149
1.00004 1.00142 0.993163
1.00018 1.00105 0.993289
1.00016 1.00089 0.993468
1.00008 1.00138 0.993164
0.999557 1.00193 0.993489
0.999805 1.00255 0.992409
0.999971 1.00398 0.990652
1.00005 1.00237 0.992283
0.999872 1.00382 0.991163
1.00013 1.00492 0.989237
1.00021 1.0048 0.989382
0.999952 1.0038 0.990998
1.00015 1.00459 0.989717
0.999981 1.00234 0.992386
0.999889 1.00342 0.991521
0.999617 1.00411 0.991184
0.999843 1.00261 0.992491
0.999983 1.00159 0.993038
1.00012 1.00053 0.99388
1.00005 1.0012 0.993379
1.00016 1.00032 0.994036
1.00012 0.999357 0.995038
1.00021 1.00021 0.994052
1.00018 0.99924 0.995049
0.999962 0.997606 0.997451
1.00022 0.999185 0.995026
1.00004 0.99751 0.997216
0.999949 0.996394 0.998433
1.0001 0.997436 0.996964
0.999988 0.996315 0.99887
0.999995 0.996285 0.999325
1.00025 1.00047 0.993631
1.0002 0.99924 0.994862
1.00021 1.00037 0.993948
1.00011 0.997337 0.997044
1.0002 0.999137 0.995035
1.00017 1.00031 0.993933
1.00002 0.996166 0.999357
1.00013 0.997254 0.997089
1.0002 0.999083 0.995167
1.00003 0.996135 0.99936
1.00014 0.997235 0.997093
1.00002 0.996168 0.999351
0.993421 1.00299 0.969316
0.994669 0.99919 0.948738
0.999746 0.995084 0.946024
1.00026 1.00108 0.993101
0.993519 1.00476 0.972187
0.994548 1.00431 0.95699
0.994968 0.99981 0.941479
0.998994 0.998372 0.983643
0.998415 0.998868 0.963631
0.997258 0.999754 0.94349
0.994565 0.999833 0.941013
0.995723 0.999812 0.979375
0.996503 1.00013 0.962483
0.997257 0.999869 0.947817
0.994526 0.999942 0.948827
0.995543 1.00009 0.975343
0.995278 1.00007 0.960341
0.994814 0.999884 0.951102
0.994567 0.999977 0.95235
1.0002 1.00185 0.992443
1.00014 1.00185 0.992563
1.00011 1.0016 0.992904
1.0002 1.00157 0.992714
1.00017 1.00169 0.992685
1.00013 1.00153 0.992953
1.00022 1.00117 0.993175
1.00018 1.00115 0.993299
1.00107 0.999963 0.992743
1.0015 0.999543 0.992316
1.00013 1.00191 0.992511
1.00051 1.00294 0.991231
1.00024 1.00242 0.991729
1.00018 1.00193 0.992462
1.00025 1.00177 0.992467
0.998983 1.00017 0.996239
1.00025 1.00194 0.992255
1.00045 1.00149 0.99231
0.99949 0.998829 0.996793
1.00028 1.00163 0.992618
0.997445 0.999632 0.998126
0.998413 1.00058 0.997893
1.0003 1.00098 0.9928
1.00027 1.00134 0.992836
0.993169 1.00391 0.98817
0.993273 1.00294 0.971486
0.994591 1.00049 0.95028
0.998374 1.00239 0.995265
0.997077 1.00241 0.998473
0.993839 1.00253 0.970267
0.995578 1.00003 0.963386
0.994969 0.999434 0.98415
0.995227 0.999892 0.950352
0.993522 1.00503 0.970819
0.994378 0.99995 0.956237
0.997327 1.00234 0.997495
0.992945 1.00432 0.985543
0.993554 1.00515 0.975814
0.995229 1.0031 0.999295
0.994512 0.999964 0.948851
0.995257 0.999064 0.961538
0.994907 0.9999 0.951657
0.996832 1.00193 0.999136
0.994241 1.00385 0.987936
0.993488 1.00489 0.972181
0.994635 0.999955 0.943269
0.995249 0.999859 0.950329
0.995883 0.999098 0.993273
0.996049 1.00014 0.956625
0.999551 0.999817 0.995569
0.998922 0.999487 0.99724
0.997734 0.998395 1.00116
1.0004 1.00082 0.99311
1.00036 0.999402 0.994482
1.00009 0.999048 0.995507
1.00025 1.00042 0.99378
0.999566 0.998057 0.997191
0.998981 1.00184 0.994514
1.00018 1.0009 0.99344
1.0001 1.0013 0.993225
0.999739 1.00203 0.993281
0.99931 1.00421 0.991512
0.99965 1.00269 0.992499
0.9998 1.00384 0.99093
1.00033 1.00502 0.989044
1.00114 1.00478 0.987761
1.00004 1.00373 0.991124
1.00027 1.00491 0.9891
1.00046 1.00459 0.989502
0.999815 1.00438 0.990393
1.00025 1.00466 0.989514
0.999959 1.00287 0.991887
0.999994 1.00378 0.990982
1.0001 1.00451 0.989789
1.00009 1.00099 0.993492
0.999967 1.0023 0.992363
0.999884 1.00347 0.991411
0.999992 1.00155 0.993135
1.00012 1.00056 0.993867
1.00006 0.999531 0.994974
1.00015 1.00034 0.994031
1.00013 0.999348 0.995039
0.999909 0.997761 0.996988
1.00019 0.999225 0.995051
0.999986 0.997608 0.997005
0.999828 0.996508 0.999342
1.00005 0.997497 0.99699
0.999933 0.996399 0.99888
0.999954 0.996346 0.99933
1.00029 1.00045 0.993576
1.0002 0.99938 0.994705
1.00025 1.00046 0.993704
1.00008 0.997466 0.99697
1.0002 0.999251 0.994843
1.00022 1.00037 0.993946
0.99999 0.996247 0.999344
1.00011 0.997332 0.997047
1.0002 0.999148 0.99495
1.00002 0.996157 0.999359
1.00013 0.997252 0.99709
1.00003 0.996134 0.999359
0.993217 1.00371 0.985264
0.993456 1.00337 0.969137
0.994706 0.999247 0.948678
1.00025 1.0011 0.993116
1.00024 1.00112 0.993053
1.00018 1.00152 0.992859
0.993659 1.00486 0.972901
0.993565 1.00464 0.972111
0.994573 1.00451 0.956579
0.995091 1.00057 0.98231
0.996624 1.00011 0.957719
0.995243 0.999894 0.949735
0.994519 0.999921 0.948029
0.995602 1.00007 0.978301
0.996314 1.00006 0.960017
0.995304 0.999941 0.951789
0.994481 0.999956 0.954292
0.995306 1.00001 0.974969
0.995738 1.00006 0.961829
0.994609 0.99997 0.952112
0.994315 1.00006 0.953323
1.00026 1.00167 0.992523
1.00021 1.00185 0.992422
1.00013 1.00186 0.99255
1.00021 1.00157 0.992708
1.00016 1.00169 0.992758
1.00023 1.00118 0.993178
0.999152 0.999923 0.996612
0.9994 0.998231 0.996762
1.00023 1.00184 0.99249
1.00064 1.00129 0.992355
1.00022 1.00198 0.992353
1.00031 1.00157 0.99253
1.00024 1.00135 0.992926
0.997473 1 0.998363
1.00027 1.00096 0.993138
0.998254 1.00004 0.998548
1.00021 1.00122 0.993133
0.996097 0.999164 0.99922
0.997994 1.001 0.998978
1.00005 1.00046 0.994174
0.994961 1.0035 0.991451
0.993179 1.00384 0.989079
0.993158 1.00343 0.971979
0.997629 1.00248 0.99705
0.996047 1.00221 0.997404
0.992787 1.0043 0.985686
0.995572 0.999226 0.96736
0.994695 0.999976 0.950848
0.993532 1.00523 0.978904
0.994497 0.999896 0.948223
0.996714 1.00217 0.999285
0.994194 1.00403 0.988826
0.993538 1.00477 0.972098
0.995209 0.999938 0.988687
0.994585 0.999904 0.941151
0.995545 0.999895 0.950757
0.995509 1.00014 0.962184
0.995794 1.00145 1.00156
0.993213 1.00378 0.985204
0.994375 1.00434 0.957809
0.994731 0.998202 0.939399
0.995556 0.999899 0.945382
0.995444 1.00004 0.961833
0.995743 0.99893 0.984878
0.998856 1.00002 0.997041
0.997681 0.998175 1.00104
0.998027 1.00026 0.998642
1.00022 1.00054 0.993739
0.99965 0.997614 0.997249
0.99882 1.00192 0.994806
0.998773 1.00382 0.993116
0.999926 1.00215 0.993076
0.99973 1.00421 0.991171
1.00043 1.00506 0.988832
0.999618 1.00371 0.99121
1.00037 1.00499 0.988966
1.00156 1.00499 0.98713
1.00221 1.00457 0.986188
1.00082 1.00434 0.988534
1.00112 1.00485 0.987692
1.00039 1.0049 0.988963
1.00039 1.00406 0.990075
1.00032 1.00444 0.989717
0.999886 1.00366 0.991067
0.999886 1.00432 0.990513
1.00027 1.00453 0.989647
1.00006 1.00164 0.992879
0.999982 1.00283 0.991896
1.00003 1.00375 0.990965
1 0.999816 0.994788
1.00009 1.001 0.993481
0.999956 1.00227 0.99234
1.00012 1.00059 0.993855
1.00007 0.99953 0.994971
0.999822 0.997971 0.996938
1.00013 0.99934 0.995039
0.999913 0.997763 0.996987
0.999765 0.996674 0.999331
0.999992 0.997601 0.997004
0.999857 0.99653 0.998887
0.999897 0.996435 0.999334
1.00031 1.00047 0.993612
1.00021 0.999469 0.994748
1.00029 1.00046 0.99361
1.00004 0.99762 0.996887
1.0002 0.999386 0.994771
1.00026 1.00046 0.993777
0.999951 0.996368 0.999325
1.00008 0.997458 0.996974
1.0002 0.999262 0.994823
0.999994 0.99623 0.999348
1.00011 0.997327 0.99705
1.00002 0.996149 0.99936
0.994274 1.00356 0.988123
0.993206 1.00357 0.98542
0.993492 1.00347 0.96902
1.00022 1.0012 0.992998
1.0001 1.00183 0.992694
1.00023 1.00112 0.993132
1.00024 1.00113 0.993049
1.00018 1.00151 0.992824
1.00015 1.00159 0.992835
1.00015 1.0017 0.992693
0.993691 1.00467 0.97089
0.993558 1.0049 0.976022
0.993608 1.00441 0.972037
0.994402 0.999964 0.956235
0.994836 1.00003 0.975874
0.99573 1.0001 0.96041
0.994709 0.999962 0.952013
0.995707 1.00001 0.974243
0.995395 1.00007 0.958381
0.994742 0.999898 0.952874
0.994384 1.00007 0.953728
0.995903 0.997883 0.978992
0.99512 1.0001 0.958007
0.995337 0.999951 0.949732
0.994508 0.99987 0.94518
1.00017 1.00144 0.992966
1.00025 1.00163 0.992527
1.0002 1.00185 0.992401
1.00021 1.00157 0.992702
0.997572 1.00041 0.99858
0.998156 0.999425 0.999186
1.00034 1.0015 0.992442
1.0002 1.00133 0.993015
1.00016 1.00099 0.993476
1.0002 1.00124 0.993061
0.999943 1.0005 0.994131
0.995846 1.00002 0.997441
0.997548 1.00115 0.999245
0.999753 1.00102 0.993955
0.99587 0.999031 0.997431
0.998183 1.00129 0.998227
0.993191 1.004 0.988126
0.995559 1.00314 0.991291
0.9933 1.00372 0.989988
0.996611 1.00235 0.999396
0.995741 0.999309 0.994016
0.994213 1.00409 0.989716
0.99619 1.00015 0.95714
0.994819 0.999983 0.951026
0.993587 1.00456 0.97201
0.994573 0.999838 0.941151
0.99573 1.00121 1.00174
0.993203 1.00378 0.985335
0.994418 1.00427 0.957409
0.995045 0.998824 0.989032
0.994699 0.998182 0.93505
0.997384 0.999921 0.947152
0.995466 1.00008 0.958946
0.996164 1.00129 0.999368
0.993434 1.00303 0.969442
0.99493 0.999399 0.942793
0.997363 0.999851 0.946425
0.995409 1.00048 0.962178
0.994864 0.999505 0.979132
0.997685 0.997879 1.00085
0.997775 1.0008 0.998608
0.999728 0.998796 0.997452
0.998636 1.00202 0.995097
0.998351 1.00391 0.993409
1.00084 1.00294 0.989961
1.00016 1.00419 0.990828
1.00064 1.005 0.988629
1.00195 1.00355 0.987263
1.00043 1.00495 0.988889
1.00157 1.005 0.987002
1.00275 1.00327 0.98603
1.00343 1.00235 0.985997
1.00199 1.00451 0.986847
1.00229 1.00449 0.985974
1.00075 1.00364 0.989329
1.00081 1.00434 0.988701
1.00112 1.00493 0.987622
1.00037 1.00371 0.990332
1.00034 1.00414 0.99003
1.00017 1.00431 0.989931
1.00008 1.00236 0.992094
0.999918 1.00355 0.991202
0.999962 1.00425 0.990634
0.999962 1.00031 0.994369
1.00007 1.00162 0.992879
1 1.00279 0.991904
0.999744 0.998203 0.996858
1 0.999834 0.994778
1.00009 1.00102 0.99347
1.00007 0.999529 0.994968
0.999828 0.997976 0.996934
0.999671 0.996874 0.999318
0.999917 0.997767 0.996986
0.999753 0.996706 0.999327
0.999826 0.996562 0.999333
1.00022 1.0013 0.99297
1.00031 1.00051 0.993564
1.0002 0.999562 0.994674
1.00031 1.00047 0.99361
0.999996 0.997779 0.996814
1.00021 0.999487 0.994745
1.00028 1.00047 0.993643
0.9999 0.996513 0.999305
1.00004 0.997612 0.996892
1.00021 0.999391 0.994837
0.999956 0.996345 0.999331
1.00008 0.997451 0.996979
0.999998 0.996211 0.999353
0.993142 1.00409 0.985524
0.994205 1.00375 0.988998
0.993097 1.00366 0.985578
1.00023 1.00118 0.99303
1.0001 1.00184 0.99265
1.00008 1.00213 0.992328
1.00008 1.00174 0.992694
1.00004 1.00228 0.992388
1.00024 1.00112 0.993046
1.00018 1.00149 0.992789
1.00013 1.0016 0.992836
1.00018 1.0017 0.992645
1.00006 1.00183 0.992793
0.994301 1.00406 0.957817
0.993649 1.00474 0.970808
0.993512 1.00492 0.979139
0.994392 1.00005 0.954031
0.994623 0.999949 0.951516
0.995193 1.00002 0.972876
0.994958 1.00004 0.961283
0.995684 0.998055 0.974874
0.995686 1.00007 0.961441
0.994788 0.999919 0.951448
0.994675 0.999892 0.943038
0.99609 0.995355 0.979606
0.995351 1.00005 0.962307
0.99611 0.999909 0.949123
0.994967 0.998164 0.938989
0.999648 1.00107 0.994175
1.00013 1.00151 0.992956
1.00025 1.00159 0.992532
0.995619 1.00083 0.995685
0.99732 1.00115 0.999515
1.00022 1.00124 0.992989
0.999909 1.00061 0.994087
0.999748 1.00103 0.993972
0.99816 1.00088 0.998052
0.995496 0.998928 0.997599
0.998364 1.00134 0.996405
0.995856 1.00079 0.996669
0.993514 1.00306 0.970052
0.993218 1.00388 0.989076
0.995902 1.00296 0.991132
0.995592 1.00105 1.00196
0.995133 0.998558 0.982783
0.993104 1.00397 0.985466
0.996169 1.00005 0.958495
0.995457 0.999946 0.948902
0.994449 1.00441 0.957008
0.994673 0.998133 0.930682
0.996141 1.00089 0.999559
0.993478 1.00343 0.969258
0.994888 0.999587 0.94129
0.99492 0.999427 0.98084
0.996965 0.999878 0.946474
0.996035 1.00001 0.959018
0.997829 0.999325 0.995305
0.994617 0.999547 0.949059
0.997565 0.997418 0.947214
0.997775 1.00087 0.957798
0.994844 0.99974 0.980671
0.99757 1.00122 0.998566
0.999537 0.998829 0.997505
1.00211 0.998921 0.992678
0.997963 1.00394 0.993698
1.00038 1.00315 0.990347
1.00286 0.999738 0.988745
1.00085 1.00497 0.988425
1.00196 1.00352 0.987323
1.0036 1.00037 0.987444
1.00156 1.005 0.986875
1.00282 1.0032 0.986086
1.00426 0.999749 0.986525
1.00437 0.999587 0.98698
1.00272 1.00339 0.986163
1.00335 1.00227 0.986037
1.00162 1.00383 0.987993
1.00188 1.00454 0.986672
1.00235 1.00441 0.985761
1.00078 1.00315 0.990053
1.00073 1.00359 0.989505
1.0008 1.00433 0.988869
1.00032 1.00273 0.99132
1.00032 1.00371 0.990398
1.0003 1.0042 0.989985
0.999963 1.00102 0.993656
1.00012 1.00233 0.992095
0.999947 1.00344 0.991337
0.999644 0.998545 0.997148
0.999955 1.00033 0.994355
1.00008 1.0016 0.99288
0.999593 0.997144 0.998339
0.999742 0.998237 0.997069
0.999999 0.99985 0.994769
0.999835 0.997982 0.996931
0.999659 0.996919 0.999312
0.99974 0.996742 0.999324
1.00017 1.00162 0.992658
1.00029 1.00067 0.993433
1.0002 1.00134 0.992935
1.00016 0.99968 0.994631
1.0003 1.00054 0.993565
0.999938 0.997943 0.996755
1.00019 0.999588 0.994671
1.00031 1.00048 0.993608
0.999839 0.996674 0.999287
0.999992 0.997779 0.996817
1.0002 0.999511 0.994742
0.999906 0.996488 0.999311
1.00004 0.997607 0.996896
0.999962 0.99632 0.999337
0.993846 1.00294 0.970715
0.992982 1.00407 0.985673
0.994217 1.00383 0.989875
1.00003 1.00248 0.99216
1.00023 1.0012 0.993061
1.00011 1.00185 0.992606
1.0001 1.00176 0.99273
1.00011 1.00209 0.992376
1.00004 1.00224 0.992359
1.00005 1.00256 0.99204
0.999952 1.00229 0.992351
1.00011 1.0016 0.992837
1.0002 1.0017 0.992597
1.00003 1.00187 0.992759
0.999896 1.00225 0.993008
0.994834 0.999785 0.940703
0.994476 1.00415 0.957356
0.993559 1.0048 0.970731
0.994865 0.99991 0.943239
0.995294 0.999922 0.951486
0.99513 1.0001 0.958136
0.995938 0.998183 0.974178
0.996377 0.995213 0.98156
0.994776 0.998146 0.934763
0.995234 1.00009 0.958976
0.997015 0.999905 0.946694
0.99554 0.997353 0.983091
0.996055 1.00006 0.963483
0.997404 0.999832 0.945523
0.999247 1.00055 0.995408
0.99978 1.00102 0.994164
1.00009 1.00159 0.992946
0.99509 0.998731 0.997701
0.998139 1.00033 0.997887
0.999718 1.00103 0.993989
0.998876 1.00119 0.99622
0.995737 1.00078 0.996884
0.997764 1.00084 0.99527
0.994588 1.00006 0.945231
0.993325 1.00306 0.973725
0.993354 1.00369 0.990029
0.996064 1.00081 0.9998
0.99484 0.99953 0.982013
0.993527 1.00362 0.969128
0.995604 1.00003 0.960156
0.997339 0.999867 0.943597
0.994908 0.999662 0.942031
0.997686 0.999549 0.995401
0.994638 0.999217 0.949189
0.998258 0.997585 0.945206
0.995001 0.999726 0.976516
0.996347 1.00059 0.961967
0.998771 0.999235 0.995636
0.999745 0.995197 0.944303
0.997725 1.00012 0.961818
0.995104 1.00033 0.975047
0.999281 0.998915 0.99758
1.00164 0.998621 0.993433
1.00376 0.996973 0.990869
0.999907 1.00345 0.990733
1.00287 1.00005 0.988689
1.00447 0.996738 0.989189
1.00196 1.00347 0.987383
1.00352 1.00036 0.987498
1.00479 0.997383 0.988203
1.0029 1.00312 0.986141
1.00438 0.999787 0.986511
1.00491 0.997484 0.987672
1.00464 0.998097 0.987966
1.00372 1.00103 0.986774
1.00429 0.999566 0.987013
1.00225 1.00306 0.9871
1.0027 1.00331 0.98632
1.00327 1.00218 0.986076
1.00121 1.00311 0.989306
1.00147 1.00385 0.988009
1.00177 1.00457 0.986497
1.00067 1.00262 0.990805
1.00082 1.00315 0.990037
1.00071 1.00355 0.989681
1.00007 1.00169 0.992816
1.00034 1.00272 0.99133
1.00027 1.00371 0.990464
0.999599 0.998955 0.996337
0.999975 1.001 0.993641
1.00015 1.0023 0.992096
0.999449 0.997425 0.999269
0.999658 0.998594 0.996636
0.99995 1.00035 0.99434
0.999567 0.997141 0.999291
0.999752 0.998252 0.996825
0.999647 0.996964 0.999306
1.00013 1.00202 0.99245
1.00019 1.00161 0.992656
1.00025 1.00099 0.993182
1.00011 0.999826 0.994586
1.00028 1.00068 0.993439
1.0002 1.00135 0.992899
0.999875 0.998102 0.996718
1.00016 0.999685 0.994631
1.00029 1.00053 0.993566
0.99977 0.996842 0.999271
0.999934 0.997944 0.996757
1.00019 0.999606 0.994669
0.999846 0.99665 0.999292
0.999988 0.997777 0.996821
0.999913 0.996462 0.999317
0.994633 1.00005 0.944014
0.993835 1.00296 0.970552
0.992835 1.00403 0.985818
1.00001 1.00255 0.992111
1.00006 1.00296 0.991706
0.999959 1.00288 0.991867
1.00011 1.00177 0.992765
1.00013 1.00203 0.992424
1.00001 1.00222 0.99233
0.999984 1.0023 0.992325
1.00002 1.00258 0.992011
0.999842 1.00338 0.991674
1.00008 1.00158 0.992863
1.00003 1.00189 0.992726
0.999844 1.00208 0.99301
0.999113 0.997565 0.944076
0.994774 0.999879 0.938672
0.994631 1.00423 0.956928
0.994632 0.998113 0.930519
0.995743 0.99988 0.948629
0.996053 1.00005 0.961513
0.996014 0.995202 0.978913
0.995268 0.997437 0.980686
0.996951 0.999405 0.945982
0.995961 1.00005 0.959787
0.996141 0.997285 0.981358
0.997293 1.0009 0.957242
1.00107 1.00023 0.993065
0.999424 1.00043 0.995269
0.999885 1.00095 0.994156
0.995545 1.00092 0.997081
0.999235 1.00111 0.996025
0.998353 1.0012 0.994666
1.00117 0.999932 0.990138
0.999971 0.995117 0.944285
0.994597 1.00045 0.947705
0.993162 1.00305 0.977363
0.99758 0.999565 0.995551
0.994868 0.999702 0.977308
0.994662 0.999174 0.949148
0.996315 1.00085 0.957315
0.999159 0.999224 0.948079
0.998712 0.999471 0.994472
0.999866 0.995549 0.94551
0.999176 0.998965 0.956909
0.995189 1.00008 0.977755
0.999493 0.998686 0.995324
1.00025 0.997152 0.959168
0.996012 1.00086 0.980344
1.00116 0.998262 0.994185
1.00364 0.996726 0.990831
1.00496 0.994843 0.990162
1.00288 1.00028 0.988632
1.00438 0.996714 0.989184
1.00493 0.995417 0.989681
1.00343 1.00033 0.987553
1.00472 0.997419 0.988149
1.00515 0.996116 0.988687
1.0045 0.999832 0.986496
1.00498 0.99751 0.987646
1.00501 0.996905 0.988181
1.00472 0.997742 0.988145
1.00457 0.998015 0.98804
1.00417 0.999167 0.987736
1.00333 1.00142 0.9871
1.00372 1.00103 0.986772
1.0042 0.999528 0.987047
1.0019 1.00273 0.98815
1.00227 1.00309 0.987253
1.00268 1.00322 0.986477
1.00099 1.00253 0.990267
1.00123 1.00312 0.989283
1.00133 1.00386 0.988025
1.00025 1.00195 0.992193
1.00071 1.00259 0.990806
1.00086 1.00315 0.990022
0.999601 0.999441 0.995814
1.00009 1.00162 0.992814
1.00038 1.00269 0.991339
0.999417 0.997697 0.9992
0.999601 0.99901 0.996307
0.999989 1.00098 0.993626
0.999478 0.997458 0.998762
0.999668 0.998609 0.996625
0.999554 0.99722 0.999277
1.00014 1.00248 0.991945
1.0001 1.00208 0.99241
1.00016 1.00148 0.992866
1.00022 1.00161 0.992655
1.00025 1.00099 0.993184
1.00002 1.0001 0.994448
0.999809 0.998256 0.996695
1.00011 0.999819 0.994591
1.00026 1.0007 0.993444
0.999692 0.997008 0.99926
0.999871 0.998098 0.99672
1.00016 0.99969 0.994631
0.999778 0.99682 0.999276
0.999929 0.997946 0.996759
0.999852 0.996623 0.999298
0.999903 0.995539 0.94649
0.994705 1.00036 0.943491
0.993822 1.00299 0.970385
0.999988 1.00263 0.992063
0.999951 1.00299 0.991756
0.999991 1.00293 0.991785
1.00025 1.00322 0.991103
0.999881 1.00347 0.991441
1.00001 1.00232 0.992301
1.00001 1.00259 0.991981
0.999802 1.00324 0.991699
0.99969 1.00392 0.990902
1.00015 1.00251 0.991801
1.00229 1.00086 0.989756
0.999855 1.00187 0.992997
0.999841 1.00189 0.993012
0.999676 0.99861 0.958183
0.998276 0.997703 0.945001
0.99478 0.999838 0.938907
0.997419 0.999892 0.942942
0.995892 1.00064 0.959362
0.995476 0.997482 0.983961
0.995976 0.997411 0.983494
0.997024 0.999774 0.962502
0.998343 0.999636 0.978357
1.0035 0.998595 0.989703
1.00071 1.00003 0.993066
0.999574 1.00032 0.995127
0.998676 1.00146 0.994101
1.00196 1.00069 0.988977
1.00072 0.995702 0.957012
0.999981 0.995459 0.946704
0.994622 1.00083 0.950211
0.998612 0.999705 0.993285
0.994838 1.0005 0.975157
0.999702 0.994936 0.946032
0.998164 1.00045 0.962074
0.999413 0.999235 0.995485
1.00135 0.995815 0.959957
0.995923 1.00083 0.976874
1.00092 1.00158 0.992548
1.00018 0.997464 0.984276
1.00354 0.996498 0.990793
1.00494 0.994938 0.989931
1.00502 0.994987 0.989876
1.0043 0.996733 0.989176
1.0048 0.995593 0.989666
1.00518 0.995151 0.989535
1.00467 0.997479 0.988095
1.00516 0.996101 0.98865
1.0051 0.996301 0.988636
1.00504 0.997544 0.98762
1.005 0.996992 0.988144
1.00494 0.997312 0.988012
1.00465 0.997636 0.988269
1.00451 0.998416 0.987833
1.00452 0.997955 0.988115
1.00419 0.999125 0.987725
1.00387 0.999991 0.987503
1.00283 1.00159 0.987611
1.00331 1.00147 0.987064
1.00371 1.00105 0.98677
1.00149 1.00238 0.989488
1.00187 1.00275 0.988263
1.00229 1.00312 0.987405
1.00045 1.00198 0.991745
1.00103 1.00253 0.990247
1.00126 1.00313 0.989259
0.999656 0.999966 0.995182
1.00028 1.00191 0.992202
1.00074 1.00258 0.990807
0.999412 0.998003 0.999095
0.999594 0.999518 0.995788
1.00012 1.00156 0.992814
0.999433 0.997754 0.999171
0.9996 0.999069 0.996277
0.999481 0.997511 0.999227
1.00038 1.0028 0.991236
1.00013 1.00246 0.991946
1.00016 1.00199 0.99231
1.00009 1.00211 0.992371
1.00015 1.00156 0.992793
0.999972 1.00057 0.994052
1.00024 1.00098 0.993187
1.00004 1.00007 0.994456
0.999726 0.998474 0.996636
0.999605 0.997183 0.999252
0.999802 0.998256 0.996696
1.00011 0.999815 0.994596
0.999702 0.996988 0.999264
0.999868 0.998097 0.996721
0.999785 0.996797 0.999281
1.00155 0.995661 0.960545
0.999757 0.995607 0.945138
0.994762 1.00072 0.942684
0.999935 1.0031 0.991646
0.999922 1.0029 0.991865
0.999891 1.00347 0.991481
1.00022 1.00319 0.991138
1.00041 1.00387 0.990144
0.999871 1.00373 0.991037
0.999763 1.0031 0.991725
0.999913 1.00402 0.990611
1.00005 1.00281 0.991636
1.00057 1.0031 0.989878
1.00275 1.00104 0.989655
1.00382 0.999547 0.987505
1.00204 1.00083 0.989958
0.999626 1.00222 0.99313
0.997819 0.999826 0.976943
0.999774 0.998715 0.958442
0.998308 0.997919 0.947885
0.998557 1.0007 0.957221
0.996098 0.997568 0.985293
0.998766 0.999113 0.982705
1.00252 0.998278 0.990742
1.00345 0.998426 0.990099
1.00059 0.999826 0.993063
1.00328 1.00163 0.987781
0.999147 0.997714 0.978759
1.00132 0.995294 0.962484
0.999936 0.995949 0.944129
0.999383 0.999704 0.995606
0.995686 1.00103 0.979132
1.00089 0.995256 0.96093
1.00082 1.00074 0.992695
0.999528 0.997834 0.98285
1.00357 1.00052 0.989701
1.00457 0.996316 0.989389
1.00493 0.995065 0.989697
1.00501 0.9951 0.989814
1.00516 0.995222 0.98971
1.00468 0.995738 0.989653
1.00519 0.995172 0.989521
1.00513 0.99586 0.989081
1.00518 0.996056 0.988612
1.00509 0.996358 0.988612
1.00505 0.997081 0.988075
1.00502 0.997063 0.988106
1.00491 0.997315 0.988046
1.00479 0.998005 0.987615
1.00456 0.997521 0.988391
1.00451 0.998281 0.987904
1.00431 0.999277 0.987471
1.00421 0.999074 0.987713
1.00388 0.999994 0.987478
1.00352 1.0005 0.987722
1.00221 1.0016 0.988689
1.00278 1.00166 0.98771
1.00329 1.00152 0.987027
1.0008 1.00193 0.991172
1.00152 1.00236 0.989481
1.00185 1.00277 0.988375
0.999703 1.00048 0.994585
1.00048 1.002 0.991742
1.00108 1.00253 0.990227
0.999436 0.998328 0.998942
0.999672 0.999986 0.995171
1.00031 1.00187 0.99221
0.999435 0.998056 0.999048
0.999592 0.999582 0.99576
0.999451 0.997804 0.99914
1.00057 1.00328 0.990404
1.00039 1.00277 0.991279
1.00034 1.00234 0.991726
1.00013 1.00244 0.991947
1.00017 1.00205 0.992236
1.00001 1.00114 0.993428
1.00014 1.00163 0.99272
0.999978 1.00057 0.994061
0.999641 0.998802 0.996459
1.00006 1.00004 0.994464
0.999723 0.998455 0.996644
0.999519 0.997401 0.999235
0.999618 0.997161 0.999255
0.999796 0.998254 0.996698
0.999711 0.99697 0.999267
0.998602 0.998613 0.978113
1.00152 0.996036 0.956093
0.999736 0.995761 0.947041
1.0012 1.00357 0.988992
0.999907 1.00347 0.99152
1.00018 1.00316 0.991173
0.999939 1.0038 0.990968
1.00035 1.00394 0.990107
1.00038 1.00328 0.990469
1.00013 1.00414 0.99032
1.00003 1.0031 0.991471
1.00077 1.003 0.990113
1.00245 1.00118 0.989602
1.00398 1.00004 0.98705
1.00476 0.998181 0.987283
1.00387 0.99955 0.987257
1.00184 1.00073 0.99016
1.00162 0.99835 0.993066
0.997904 1.00019 0.975528
0.999403 0.998207 0.959052
0.998705 0.998735 0.980833
1.00252 0.997457 0.992336
1.00304 0.998174 0.990496
1.00312 0.997611 0.988418
0.998629 0.996516 0.981416
1.00083 0.995506 0.956823
1.00072 0.999947 0.99284
0.999572 0.998388 0.981348
1.00347 0.999106 0.989854
1.00455 0.996519 0.989406
1.00512 0.99596 0.989387
1.00514 0.996701 0.989152
1.00498 0.995137 0.989751
1.00516 0.995068 0.989742
1.00511 0.995701 0.989333
1.00519 0.995211 0.989505
1.00513 0.995879 0.989072
1.00509 0.996889 0.988233
1.00508 0.996434 0.988589
1.00504 0.997098 0.98806
1.00497 0.997962 0.987339
1.00488 0.997328 0.988081
1.00481 0.998011 0.98761
1.00462 0.998698 0.98731
1.00452 0.99815 0.987976
1.00429 0.99916 0.987503
1.00394 0.999834 0.987494
1.00388 0.999998 0.987454
1.00349 1.00049 0.98766
1.00293 1.00082 0.988433
1.00138 1.00147 0.990581
1.00219 1.00164 0.988789
1.00272 1.00173 0.987809
0.999792 1.00086 0.994035
1.00082 1.00193 0.991164
1.00155 1.00233 0.989473
0.999402 0.998742 0.998771
0.999774 1.0004 0.994577
1.0005 1.00201 0.991738
0.999445 0.998402 0.998885
0.999686 1 0.995159
0.999462 0.998116 0.998998
1.00105 1.00331 0.989293
1.00055 1.00326 0.990422
1.00058 1.00263 0.991064
1.0004 1.00274 0.991321
1.00033 1.00232 0.991746
1.0001 1.0016 0.992824
1.00017 1.00211 0.992162
0.999987 1.00119 0.993428
0.999569 0.999263 0.996111
0.999981 1.00057 0.99407
0.999641 0.998765 0.99648
0.999454 0.997648 0.99919
0.999722 0.998441 0.996652
0.999529 0.997361 0.999241
0.999629 0.99714 0.999258
1.00211 0.998544 0.991089
0.998594 0.998576 0.974751
1.00062 0.996397 0.960956
1.00127 1.00301 0.988988
1.00301 1.00176 0.987301
1.00098 1.00362 0.989085
1.00001 1.00385 0.990898
1.00031 1.00402 0.990065
1.00065 1.00321 0.990208
1.00371 1.00016 0.987673
1.0009 1.00292 0.990348
1.0019 1.0013 0.989549
1.00373 1.00016 0.987397
1.00505 0.998465 0.986607
1.00507 0.99652 0.988311
1.00483 0.998179 0.987218
1.00403 0.999603 0.98701
1.0019 0.998275 0.993238
0.997557 1.00088 0.973435
1.00274 0.996698 0.99392
1.00514 0.996353 0.989529
1.00298 0.997582 0.988624
0.999234 0.99611 0.977655
1.00336 0.997782 0.990018
1.00453 0.996962 0.989409
1.00512 0.995619 0.989559
1.00514 0.996401 0.989024
1.00515 0.995902 0.988968
1.00516 0.996006 0.988541
1.00516 0.994993 0.989773
1.00511 0.99571 0.989321
1.0051 0.996865 0.988228
1.00514 0.995898 0.989063
1.00509 0.996959 0.988159
1.00508 0.997815 0.987321
1.00504 0.997113 0.988045
1.00498 0.99797 0.987346
1.00483 0.998504 0.987122
1.00483 0.998019 0.987604
1.00463 0.998695 0.987302
1.00428 0.999348 0.987334
1.00428 0.99904 0.987535
1.00391 0.999803 0.9875
1.00333 1.00027 0.988176
1.00346 1.00048 0.987597
1.00287 1.00081 0.988398
1.00194 1.00083 0.990163
0.999977 1.00087 0.993617
1.00138 1.00148 0.990576
1.00216 1.00169 0.988888
0.999295 0.999268 0.998614
0.999876 1.00077 0.994022
1.00084 1.00195 0.991156
0.999396 0.998851 0.998718
0.999828 1.00036 0.994568
0.999459 0.998477 0.998828
1.00206 1.00248 0.987907
1.00105 1.00331 0.989153
1.00106 1.00269 0.990081
1.00052 1.00323 0.99044
1.00053 1.00263 0.991084
1.00022 1.002 0.992275
1.00031 1.00231 0.991766
1.00007 1.00166 0.99282
0.999575 0.999759 0.995598
0.999974 1.00122 0.993429
0.999582 0.999194 0.996136
0.999425 0.997925 0.999095
0.99964 0.998727 0.996501
0.999454 0.997605 0.999207
0.999541 0.99733 0.999248
1.00511 0.995983 0.988891
1.00218 0.998274 0.990206
0.998581 0.997731 0.975604
1.0037 1.00055 0.987336
1.00104 1.00283 0.989658
1.00404 0.99953 0.987285
1.00312 1.0017 0.987255
1.00075 1.00367 0.989181
1.0051 0.998162 0.986881
1.00091 1.00312 0.989952
1.00381 1.00021 0.987341
1.00511 0.997573 0.987362
1.00354 1.00027 0.987743
1.00506 0.998389 0.986683
1.00504 0.996609 0.988376
1.00477 0.998257 0.987142
1.002 0.998193 0.99344
1.00517 0.99637 0.98838
1.00515 0.996434 0.989538
1.00285 0.997295 0.988814
1.00512 0.995255 0.989736
1.00513 0.996137 0.988898
1.00513 0.995874 0.989117
1.00516 0.996056 0.98867
1.00514 0.996801 0.988151
1.00511 0.995675 0.989309
1.0051 0.996879 0.988236
1.00515 0.997692 0.987332
1.00508 0.997028 0.988085
1.00506 0.997886 0.987274
1.00496 0.99862 0.986811
1.00498 0.997978 0.987352
1.00483 0.998509 0.987122
1.0045 0.999077 0.987179
1.00463 0.998693 0.987294
1.00427 0.999346 0.987336
1.0037 0.999854 0.987917
1.00388 0.99977 0.987507
1.00332 1.00028 0.988183
1.00236 1.00039 0.989828
1.00282 1.0008 0.988363
1.00194 1.00085 0.990156
1.00017 1.00067 0.994403
0.999309 0.999783 0.996439
1.00006 1.00079 0.994099
1.00138 1.0015 0.990571
0.999301 0.999403 0.998555
0.999975 1.00066 0.994006
0.999393 0.998948 0.998659
1.00435 0.999037 0.987387
1.00307 1.00092 0.987699
1.00223 1.00244 0.987814
1.00172 1.00225 0.989211
1.00105 1.00332 0.989013
1.00101 1.0027 0.990106
1.00049 1.00213 0.991656
1.00049 1.00262 0.991104
1.00018 1.00201 0.992283
0.999657 1.00026 0.994976
1.00003 1.00174 0.992817
0.999573 0.999716 0.995615
0.999401 0.998273 0.998946
0.999592 0.999128 0.996161
0.999413 0.997876 0.999129
0.999456 0.997558 0.999222
1.00515 0.996864 0.987958
1.00513 0.996188 0.989344
1.00235 0.99814 0.989322
1.00495 0.998244 0.987094
1.00356 1.00052 0.987594
1.0008 1.00264 0.990318
1.0041 0.999575 0.987381
1.00322 1.00164 0.987209
1.00514 0.997678 0.987453
1.00509 0.998187 0.986809
1.0039 1.00028 0.987008
1.00511 0.997565 0.98734
1.00508 0.998289 0.98676
1.00503 0.996634 0.98846
1.00517 0.996944 0.988083
1.00517 0.996313 0.988438
1.00516 0.99648 0.989551
1.00513 0.995859 0.989264
1.00517 0.996095 0.9888
1.00515 0.996703 0.98828
1.00516 0.997709 0.987324
1.0051 0.996905 0.988243
1.00514 0.99771 0.987324
1.0051 0.998641 0.986522
1.00504 0.997954 0.987227
1.00493 0.99862 0.986824
1.00463 0.999176 0.98684
1.00482 0.998514 0.987121
1.0045 0.999079 0.987178
1.00392 0.999598 0.987741
1.00427 0.999343 0.987337
1.00369 0.999853 0.987921
1.00267 1.00013 0.989529
1.00331 1.00028 0.988189
1.00236 1.0004 0.989818
1.0004 1.00037 0.994346
1.00193 1.00087 0.990148
1.0003 1.00063 0.994353
0.999282 1.00015 0.996282
0.999227 0.999919 0.997413
1.00019 1.00071 0.994521
0.999303 0.999525 0.998494
1.00498 0.998449 0.986832
1.00382 0.999901 0.98775
1.00427 0.998789 0.98774
1.0025 1.00138 0.988588
1.00314 1.00097 0.987711
1.00239 1.0024 0.98772
1.00171 1.00227 0.989208
1.00097 1.00191 0.990957
1.00096 1.0027 0.990132
1.00046 1.00211 0.991669
0.999779 1.00069 0.994351
1.00014 1.00201 0.99229
0.999614 1.00028 0.994986
0.999327 0.998775 0.998761
0.999574 0.999661 0.99563
0.999392 0.998204 0.998998
0.999406 0.997827 0.999161
1.00516 0.997261 0.987747
1.00515 0.996857 0.987951
1.00514 0.996346 0.98978
1.00514 0.997931 0.987132
1.00496 0.998318 0.987052
1.00344 1.0005 0.987855
1.00414 0.999613 0.987479
1.00514 0.997649 0.987394
1.00508 0.998209 0.986737
1.0051 0.997563 0.987318
1.00514 0.99753 0.987513
1.00517 0.996979 0.988018
1.00517 0.996274 0.988497
1.00515 0.99794 0.987083
1.00516 0.996592 0.988408
1.00517 0.997713 0.987322
1.00516 0.998477 0.986631
1.00513 0.997728 0.987316
1.00507 0.998646 0.986537
1.00483 0.999238 0.986383
1.0049 0.998621 0.986837
1.00463 0.999177 0.986842
1.00406 0.999647 0.987432
1.0045 0.999081 0.987177
1.00393 0.999598 0.987739
1.00285 0.99996 0.989342
1.00368 0.999852 0.987925
1.00267 1.00011 0.989524
1.00061 1.0001 0.99428
1.00236 1.0004 0.989808
1.0005 1.00034 0.994291
0.999332 1.00016 0.996256
1.00043 1.00055 0.994304
0.999167 1.00029 0.996358
0.999062 1.00002 0.998528
1.00508 0.998512 0.986665
1.00459 0.999042 0.987017
1.00493 0.9985 0.986943
1.00323 1.00051 0.988372
1.00382 0.999771 0.987747
1.00422 0.998544 0.988086
1.00162 1.00133 0.99027
1.00251 1.0014 0.988568
1.00322 1.00102 0.987722
1.00169 1.00229 0.989205
1.00095 1.00189 0.990967
0.999932 1.00094 0.993819
1.00042 1.00209 0.991682
0.999693 1.00077 0.994365
0.999203 0.999419 0.998582
0.999569 1.00031 0.994996
0.999334 0.998667 0.998827
0.999387 0.998135 0.999048
1.00515 0.997682 0.987308
1.00516 0.997212 0.98776
1.00515 0.996848 0.987944
1.00514 0.997866 0.987177
1.00497 0.998398 0.987008
1.00514 0.997619 0.987336
1.00513 0.997937 0.987172
1.00514 0.997593 0.987477
1.00517 0.997016 0.987954
1.00516 0.997899 0.987142
1.00515 0.998389 0.986693
1.00517 0.997717 0.98732
1.00515 0.998524 0.986549
1.00501 0.999051 0.98625
1.00504 0.998649 0.986552
1.00483 0.999246 0.986394
1.0043 0.999728 0.986924
1.00463 0.999174 0.986843
1.00407 0.999645 0.987425
1.00297 0.999945 0.98913
1.00393 0.999598 0.987738
1.00286 0.999944 0.98934
1.00075 0.99996 0.994195
1.00268 1.00009 0.989518
1.00069 1.00009 0.994223
0.999454 1.00005 0.996206
1.00061 1.0003 0.994245
0.999209 1.00025 0.996346
0.999037 1.00049 0.996429
1.00511 0.998202 0.986907
1.0048 0.998916 0.98673
1.00507 0.998449 0.986711
1.00392 0.999697 0.987738
1.00461 0.999106 0.987015
1.00486 0.998549 0.987059
1.00225 1.00062 0.989765
1.00322 1.00043 0.988222
1.00382 0.999635 0.987745
1.00015 1.00089 0.993428
1.00162 1.00131 0.990279
1.00252 1.00142 0.988548
1.00094 1.00188 0.990977
0.999827 1.00104 0.993839
0.999132 1.00003 0.99844
0.999604 1.00088 0.994379
0.999219 0.999274 0.998647
0.999344 0.998552 0.998886
1.00514 0.997959 0.987092
1.00514 0.99767 0.987334
1.00515 0.997165 0.987773
1.00514 0.997798 0.987222
1.00514 0.998377 0.986707
1.00513 0.997948 0.987177
1.00514 0.997653 0.987441
1.00517 0.997864 0.987201
1.00514 0.998356 0.986728
1.00506 0.998916 0.986396
1.00514 0.998571 0.986466
1.005 0.999108 0.986243
1.00455 0.999532 0.986536
1.00482 0.999258 0.986406
1.00429 0.999727 0.986928
1.00317 0.999976 0.988707
1.00407 0.999648 0.987418
1.00298 0.999934 0.989124
1.00083 0.999977 0.992969
1.00288 0.999925 0.989338
1.0008 0.999936 0.99362
0.999501 1.00002 0.998297
1.00076 1.00008 0.994168
0.999338 1.00009 0.996299
0.999094 1.00038 0.99642
1.00511 0.998208 0.986935
1.00487 0.99883 0.986683
1.00511 0.998255 0.986897
1.00421 0.999283 0.987289
1.0048 0.998925 0.986763
1.00506 0.99839 0.986756
1.00277 0.999996 0.98911
1.00394 0.999704 0.987732
1.00464 0.999174 0.987013
1.00044 1.00051 0.99319
1.00226 1.00058 0.989633
1.00321 1.00036 0.988072
0.999173 1.00039 0.998349
1.00008 1.00095 0.993444
1.00161 1.00131 0.990288
0.999736 1.00113 0.993856
0.999113 0.999887 0.99849
0.999228 0.999118 0.998709
1.00514 0.998317 0.986764
1.00514 0.997949 0.987101
1.00514 0.997662 0.98736
1.00506 0.99889 0.986387
1.00513 0.99835 0.986744
1.00514 0.997957 0.987182
1.00514 0.998317 0.986763
1.00506 0.998912 0.986393
1.0047 0.999377 0.986667
1.005 0.999167 0.986237
1.00454 0.999594 0.986671
1.00346 0.999859 0.988017
1.00428 0.999721 0.986932
1.00318 0.999971 0.988704
1.00097 1.00006 0.992641
1.003 0.999924 0.989117
1.00085 0.999968 0.992959
0.999531 0.999993 0.998267
1.00081 0.99993 0.993096
0.99945 0.999984 0.997298
0.999224 1.00013 0.996387
1.00509 0.998407 0.986823
1.00491 0.99875 0.98672
1.00511 0.998192 0.986933
1.00431 0.999306 0.987248
1.00488 0.998843 0.986646
1.00511 0.998304 0.986886
1.00308 0.999663 0.988875
1.00422 0.999357 0.987448
1.00481 0.99893 0.986796
1.00071 1.00011 0.993069
1.0028 0.999994 0.989075
1.00395 0.999709 0.987726
0.999299 1.00041 0.998302
1.00041 1.00053 0.993211
1.00226 1.00055 0.989501
0.999125 1.00028 0.998377
1.00001 1.00098 0.993469
0.999097 0.999736 0.998546
1.00505 0.99879 0.986511
1.00514 0.998334 0.986749
1.00515 0.997938 0.987111
1.00468 0.999294 0.986759
1.00506 0.998859 0.986429
1.00512 0.99833 0.986781
1.00506 0.998908 0.986389
1.0047 0.999377 0.986663
1.00364 0.999738 0.987808
1.00453 0.999658 0.986805
1.00344 0.999899 0.988148
1.00117 1.00006 0.992246
1.00319 0.999961 0.988702
1.00098 1.00005 0.992625
0.999608 0.999996 0.998189
1.00085 0.999966 0.992951
0.999555 0.999985 0.998244
0.999496 0.999915 0.996196
1.00492 0.998799 0.986802
1.00509 0.998333 0.986835
1.00438 0.999254 0.987189
1.0049 0.99875 0.986718
1.00511 0.998175 0.986932
1.00321 0.999682 0.988932
1.00433 0.999299 0.987243
1.00488 0.998858 0.986608
1.00089 0.999869 0.992951
1.00308 0.999716 0.988979
1.00422 0.999437 0.987608
0.999471 1.00021 0.998265
1.0007 1.0001 0.99308
1.00283 0.999989 0.98904
0.999252 1.00036 0.998313
1.00036 1.00055 0.993228
0.999067 1.0002 0.998415
1.00461 0.999272 0.986924
1.00505 0.998814 0.986495
1.00513 0.998352 0.986733
1.00362 0.999673 0.987903
1.00468 0.999304 0.986759
1.00507 0.998824 0.986471
1.0047 0.999378 0.986658
1.00364 0.999737 0.98781
1.00131 1.00003 0.992028
1.00342 0.999936 0.988279
1.00118 1.00006 0.992233
0.99975 1.00001 0.998071
1.001 1.00005 0.992609
0.999659 0.999996 0.998149
0.999587 0.999976 0.998215
1.00444 0.999269 0.987103
1.00491 0.998717 0.986797
1.00509 0.998258 0.986847
1.00329 0.999699 0.988767
1.00439 0.999257 0.987178
1.00489 0.99875 0.986716
1.00101 0.999848 0.992765
1.0032 0.999693 0.988928
1.00434 0.999292 0.987238
0.999605 1.00003 0.998218
1.00089 0.999863 0.992958
1.00308 0.999761 0.989083
0.999422 1.00022 0.998276
1.00069 1.0001 0.993091
0.999197 1.00033 0.998327
1.00355 0.999741 0.988241
1.00463 0.999252 0.986782
1.00505 0.998835 0.986479
1.00132 0.999976 0.99205
1.00363 0.999667 0.98789
1.00469 0.999314 0.986759
1.00363 0.999734 0.987813
1.00131 1.00002 0.992028
0.999859 1.00001 0.997974
1.00118 1.00007 0.99222
0.999788 1.00001 0.998028
0.999698 0.999995 0.998105
1.00341 0.999731 0.988513
1.00446 0.999223 0.987046
1.00491 0.998636 0.986792
1.00114 0.999947 0.993627
1.00329 0.999707 0.988758
1.0044 0.99926 0.987167
0.99969 0.999955 0.998146
1.001 0.999861 0.992771
1.0032 0.999702 0.988923
0.999565 1.00006 0.998236
1.00089 0.999865 0.992965
0.999378 1.00023 0.998284
1.00131 0.999982 0.99209
1.00355 0.999707 0.988143
1.00465 0.999228 0.986639
0.999892 1 0.997957
1.00132 0.999981 0.992051
1.00364 0.999662 0.987876
1.00131 1.00001 0.992026
0.999882 1.00001 0.99796
0.99984 1.00001 0.997995
1.00128 0.999994 0.99337
1.00341 0.999726 0.988516
1.00448 0.999175 0.98699
0.999535 0.999979 0.998278
1.00108 0.99996 0.992553
1.0033 0.999711 0.988751
0.999658 0.999979 0.998175
1.001 0.99988 0.992778
0.999534 1.00008 0.998252
0.999862 1.00001 0.995576
1.00131 0.99998 0.992708
1.00355 0.999676 0.988044
0.999886 1 0.997959
1.00131 0.999985 0.992056
0.999893 1.00001 0.997949
0.999584 1.00001 0.995897
1.00122 0.999995 0.992871
1.00341 0.999724 0.98852
0.999625 0.999989 0.997043
1.00108 0.999973 0.992546
0.99963 0.999998 0.998201
0.999863 0.999997 0.997973
1.00126 0.999981 0.992165
0.999877 1 0.997963
0.9997 1 0.996942
1.00117 0.999994 0.992331
0.999696 0.999984 0.998131
0.999834 0.999993 0.998001
0.999765 0.999988 0.99806

TENSORS stress float
0.00124186 -2.95831e-05 9.33112e-05
-2.95831e-05 0.000337057 -1.05764e-05
9.33112e-05 -1.05764e-05 0.000316918
0.00364245 -8.76242e-05 8.75617e-05
-8.76242e-05 0.00163894 4.75394e-06
8.75617e-05 4.75394e-06 0.00163206
0.00127395 2.84823e-05 4.73718e-05
2.84823e-05 0.000366986 -3.19977e-06
4.73718e-05 -3.19977e-06 0.000338572
0.00167151 -2.61357e-05 0.000107191
-2.61357e-05 0.000537944 -7.66055e-06
0.000107191 -7.66055e-06 0.000517461
0.00140274 -3.13648e-05 9.81445e-05
-3.13648e-05 0.000417231 -1.04808e-05
9.81445e-05 -1.04808e-05 0.00039559
0.00113968 -2.87673e-06 8.18573e-05
-2.87673e-06 0.000278463 -9.35313e-06
8.18573e-05 -9.35313e-06 0.000260335
0.00117319 -7.16683e-06 9.50516e-06
-7.16683e-06 0.000250733 -5.97624e-06
9.50516e-06 -5.97624e-06 0.000192134
0.00355318 -0.000108873 4.23549e-06
-0.000108873 0.00159028 -4.58727e-07
4.23549e-06 -4.58727e-07 0.0015821
0.00446008 -0.000147602 1.0653e-05
-0.000147602 0.0020929 2.10765e-06
1.0653e-05 2.10765e-06 0.00207099
0.00365452 -0.000192456 4.57851e-06
-0.000192456 0.00167949 2.56939e-06
4.57851e-06 2.56939e-06 0.00165195
0.00123353 -2.50475e-05 7.09442e-05
-2.50475e-05 0.000309609 5.01896e-06
7.09442e-05 5.01896e-06 0.000299371
0.000750657 5.14713e-05 9.29959e-06
5.14713e-05 1.76061e-05 6.5455e-06
9.29959e-06 6.5455e-06 -3.24845e-05
0.00170096 -1.24772e-05 0.000123069
-1.24772e-05 0.000541686 1.32463e-06
0.000123069 1.32463e-06 0.000520301
0.00127693 2.79592e-05 1.90811e-05
2.79592e-05 0.000330574 1.97377e-06
1.90811e-05 1.97377e-06 0.000302503
0.00134567 0.000100321 1.27577e-06
0.000100321 0.000423477 4.33039e-06
1.27577e-06 4.33039e-06 0.000384025
0.00148918 -1.04924e-05 4.40444e-05
-1.04924e-05 0.000444392 -2.64218e-06
4.40444e-05 -2.64218e-06 0.000421251
0.00116949 3.6944e-05 3.9738e-05
3.6944e-05 0.000305879 -3.07216e-06
3.9738e-05 -3.07216e-06 0.000280636
0.00136047 2.11879e-05 4.92396e-05
2.11879e-05 0.000405404 -3.39897e-06
4.92396e-05 -3.39897e-06 0.00037742
0.00129038 -2.80186e-05 -2.0429e-05
-2.80186e-05 0.000306841 4.87992e-07
-2.0429e-05 4.87992e-07 0.000252349
0.00499185 -4.7717e-05 0.000127779
-4.7717e-05 0.00233994 -1.87051e-06
0.000127779 -1.87051e-06 0.00233549
0.00166267 -1.61673e-05 0.000109235
-1.61673e-05 0.000530747 -5.89478e-06
0.000109235 -5.89478e-06 0.000510546
0.00157318 -3.03594e-05 0.000103419
-3.03594e-05 0.000494429 -9.33944e-06
0.000103419 -9.33944e-06 0.000473124
0.00147747 -4.1443e-05 2.4021e-05
-4.1443e-05 0.000344778 -3.62156e-06
2.4021e-05 -3.62156e-06 0.000292495
0.0013036 -1.31085e-05 1.28353e-05
-1.31085e-05 0.000295058 -5.79692e-06
1.28353e-05 -5.79692e-06 0.000237178
0.00113199 3.50821e-05 6.45226e-05
3.50821e-05 0.000264149 -7.73792e-06
6.45226e-05 -7.73792e-06 0.000247633
0.00103549 -2.60286e-06 9.19995e-06
-2.60286e-06 0.000193696 -5.07973e-06
9.19995e-06 -5.07973e-06 0.000139138
0.00165397 -0.000121338 5.96807e-06
-0.000121338 0.00040146 -2.79415e-06
5.96807e-06 -2.79415e-06 0.000310391
0.00344468 -0.000124361 -6.66304e-05
-0.000124361 0.0015312 -3.13216e-06
-6.66304e-05 -3.13216e-06 0.0015216
0.00285982 -5.24321e-05 -5.67556e-05
-5.24321e-05 0.00121665 -1.09492e-06
-5.67556e-05 -1.09492e-06 0.00119341
0.00246407 -9.49299e-05 -3.52734e-05
-9.49299e-05 0.00101497 -1.0181e-06
-3.52734e-05 -1.0181e-06 0.000992118
0.00324516 -0.000108289 2.91897e-06
-0.000108289 0.0014121 -2.42445e-07
2.91897e-06 -2.42445e-07 0.00140745
0.000671524 4.20223e-05 -1.29144e-07
4.20223e-05 -1.99003e-05 -2.24677e-07
-1.29144e-07 -2.24677e-07 -6.99372e-05
0.00158936 3.90765e-05 0.000106886
3.90765e-05 0.00049982 7.00693e-06
0.000106886 7.00693e-06 0.000478719
0.0017358 4.0193e-05 9.90772e-05
4.0193e-05 0.000599303 8.54507e-06
9.90772e-05 8.54507e-06 0.000578513
0.00236826 0.000105168 6.23709e-05
0.000105168 0.000850716 7.39117e-06
6.23709e-05 7.39117e-06 0.000803901
0.00280768 -0.000114267 1.54112e-05
-0.000114267 0.0011695 1.36068e-06
1.54112e-05 1.36068e-06 0.00116608
0.0021148 6.74453e-05 4.97508e-05
6.74453e-05 0.000751925 6.40046e-06
4.97508e-05 6.40046e-06 0.000707351
0.000668072 1.01181e-05 8.92716e-06
1.01181e-05 -2.11111e-05 8.35992e-06
8.92716e-06 8.35992e-06 -6.4962e-05
0.000934354 8.75596e-05 4.2176e-06
8.75596e-05 7.66628e-05 1.45166e-06
4.2176e-06 1.45166e-06 -1.27175e-05
0.00251804 -7.684e-05 4.52515e-05
-7.684e-05 0.000998992 2.92289e-06
4.52515e-05 2.92289e-06 0.00100613
0.0050858 1.03741e-05 1.62298e-08
1.03741e-05 0.00238662 -8.14921e-07
1.62298e-08 -8.14921e-07 0.00238278
0.00310978 2.12641e-05 -4.90693e-05
2.12641e-05 0.00132207 -1.11162e-06
-4.90693e-05 -1.11162e-06 0.00130628
0.00516503 4.92453e-05 0.00013335
4.92453e-05 0.00242789 7.8188e-07
0.00013335 7.8188e-07 0.00242364
0.00135255 -1.99095e-05 1.20033e-05
-1.99095e-05 0.000369773 1.07173e-06
1.20033e-05 1.07173e-06 0.000340413
0.00076896 -2.3787e-06 1.52277e-05
-2.3787e-06 -7.06694e-05 2.20965e-06
1.52277e-05 2.20965e-06 -0.000130704
0.00469896 3.68403e-05 4.2119e-05
3.68403e-05 0.00218916 2.11337e-06
4.2119e-05 2.11337e-06 0.00217883
0.00241563 1.92774e-05 6.69466e-05
1.92774e-05 0.000836786 4.0704e-06
6.69466e-05 4.0704e-06 0.000794289
0.00128498 -2.24388e-05 -2.27195e-05
-2.24388e-05 0.000340643 2.38494e-06
-2.27195e-05 2.38494e-06 0.000314093
0.00136091 2.88693e-05 -1.18918e-05
2.88693e-05 0.000408016 3.13245e-06
-1.18918e-05 3.13245e-06 0.000379199
0.0012348 9.22719e-05 -2.93764e-06
9.22719e-05 0.000355276 3.60084e-06
-2.93764e-06 3.60084e-06 0.000320718
0.00135318 -5.4254e-05 -5.03824e-05
-5.4254e-05 0.000330759 6.87569e-06
-5.03824e-05 6.87569e-06 0.000281955
0.00326182 3.98807e-05 -5.16196e-05
3.98807e-05 0.00140697 -1.09861e-06
-5.16196e-05 -1.09861e-06 0.00138483
0.00147844 -1.33556e-05 4.40524e-05
-1.33556e-05 0.000436904 -1.6823e-06
4.40524e-05 -1.6823e-06 0.000413624
0.00111235 5.10672e-05 3.05547e-05
5.10672e-05 0.000260259 -2.48513e-06
3.05547e-05 -2.48513e-06 0.000240308
0.00145058 -5.08772e-07 4.6121e-05
-5.08772e-07 0.000434564 -3.43095e-06
4.6121e-05 -3.43095e-06 0.000409998
0.0015128 -4.66264e-05 -1.62396e-05
-4.66264e-05 0.000361355 5.32051e-07
-1.62396e-05 5.32051e-07 0.000311076
0.00116869 -1.5558e-05 -1.71034e-05
-1.5558e-05 0.000259147 3.43371e-07
-1.71034e-05 3.43371e-07 0.000207879
0.00139486 -4.63606e-05 -1.76638e-05
-4.63606e-05 0.000335263 7.13812e-07
-1.76638e-05 7.13812e-07 0.000282998
0.00177019 -0.00012617 -2.98265e-06
-0.00012617 0.000459916 9.99399e-07
-2.98265e-06 9.99399e-07 0.000367587
0.00507975 5.07174e-05 0.000123945
5.07174e-05 0.00238388 1.41847e-07
0.000123945 1.41847e-07 0.00237989
0.00164351 -3.1484e-06 0.00011272
-3.1484e-06 0.000517575 -4.16585e-06
0.00011272 -4.16585e-06 0.000496641
0.00231746 5.78461e-05 1.38517e-05
5.78461e-05 0.000789001 -1.20485e-06
1.38517e-05 -1.20485e-06 0.000735493
0.00145793 -4.04804e-05 2.48168e-05
-4.04804e-05 0.000332392 -2.98297e-06
2.48168e-05 -2.98297e-06 0.000280429
0.00142487 -3.33147e-05 1.99926e-05
-3.33147e-05 0.000330137 -4.71359e-06
1.99926e-05 -4.71359e-06 0.00027589
0.00195859 -9.05773e-05 8.01024e-06
-9.05773e-05 0.000453357 -1.76634e-06
8.01024e-06 -1.76634e-06 0.000364367
0.00135131 -0.000104389 8.54388e-06
-0.000104389 0.000187979 -3.70059e-06
8.54388e-06 -3.70059e-06 9.41774e-05
0.00118149 4.79614e-05 5.27601e-05
4.79614e-05 0.00027283 -7.09088e-06
5.27601e-05 -7.09088e-06 0.000261711
0.000920539 2.33745e-05 7.65949e-06
2.33745e-05 0.000141933 -3.94437e-06
7.65949e-06 -3.94437e-06 9.63889e-05
0.00143399 -0.000107235 4.0685e-06
-0.000107235 0.000332285 -2.08207e-06
4.0685e-06 -2.08207e-06 0.000244848
0.00118678 -0.000123717 4.00407e-06
-0.000123717 8.00481e-05 -1.69469e-06
4.00407e-06 -1.69469e-06 -3.73464e-05
0.00444619 -3.96345e-05 -0.000100789
-3.96345e-05 0.00206964 -5.57027e-06
-0.000100789 -5.57027e-06 0.0020622
0.00314596 -0.000112534 -5.72771e-05
-0.000112534 0.0013565 -2.83883e-06
-5.72771e-05 -2.83883e-06 0.00135234
0.00370464 -0.000126262 -7.5436e-05
-0.000126262 0.00168589 -4.04269e-06
-7.5436e-05 -4.04269e-06 0.00167228
0.000599058 4.02835e-05 -8.02922e-06
4.02835e-05 -5.47867e-05 -7.05664e-06
-8.02922e-06 -7.05664e-06 -0.000104551
0.00488237 1.8056e-05 -2.75952e-06
1.8056e-05 0.00228684 -6.00813e-07
-2.75952e-06 -6.00813e-07 0.00228206
0.00432714 -9.16946e-05 -8.63871e-07
-9.16946e-05 0.0020221 8.39152e-08
-8.63871e-07 8.39152e-08 0.00200738
0.000619316 8.93701e-05 -7.11866e-07
8.93701e-05 -9.34479e-05 -1.92387e-07
-7.11866e-07 -1.92387e-07 -0.000151933
0.00193919 -7.83727e-05 -2.30406e-05
-7.83727e-05 0.000692276 -4.47491e-07
-2.30406e-05 -4.47491e-07 0.000686932
0.000637149 7.04057e-05 -2.71433e-07
7.04057e-05 -4.52744e-05 -9.44309e-08
-2.71433e-07 -9.44309e-08 -9.92413e-05
0.00119895 -9.68296e-06 1.34865e-05
-9.68296e-06 0.000273616 3.61745e-07
1.34865e-05 3.61745e-07 0.000233561
0.000871887 8.37188e-05 2.29796e-07
8.37188e-05 4.18634e-05 -1.85928e-07
2.29796e-07 -1.85928e-07 -4.6726e-05
0.00274586 -8.48693e-05 5.31933e-05
-8.48693e-05 0.00112608 2.98504e-06
5.31933e-05 2.98504e-06 0.00113048
0.000680202 -6.31723e-05 -3.37262e-07
-6.31723e-05 -7.38481e-06 4.83163e-06
-3.37262e-07 4.83163e-06 -3.16214e-05
0.000749456 6.77157e-05 1.5776e-05
6.77157e-05 -5.07538e-05 7.25911e-06
1.5776e-05 7.25911e-06 -0.000109208
0.000790964 9.19822e-05 1.70532e-05
9.19822e-05 1.53301e-05 9.84564e-06
1.70532e-05 9.84564e-06 -4.27535e-05
0.00106977 9.78846e-05 8.31126e-06
9.78846e-05 1.53391e-05 3.8313e-06
8.31126e-06 3.8313e-06 -8.42697e-05
0.00163986 -5.12877e-05 2.76861e-05
-5.12877e-05 0.000518475 4.13635e-06
2.76861e-05 4.13635e-06 0.000488132
0.000985497 9.97194e-05 5.057e-06
9.97194e-05 6.90115e-05 2.73774e-06
5.057e-06 2.73774e-06 -2.28757e-05
0.000911999 6.62093e-05 3.98689e-06
6.62093e-05 9.20106e-05 2.09935e-06
3.98689e-06 2.09935e-06 4.97271e-06
0.000866849 0.000111291 1.81543e-06
0.000111291 7.23996e-06 -3.26847e-07
1.81543e-06 -3.26847e-07 -0.000102613
0.00230491 -6.92663e-05 3.70495e-05
-6.92663e-05 0.000877285 2.96416e-06
3.70495e-05 2.96416e-06 0.000887149
0.00244163 -7.77829e-05 1.40146e-06
-7.77829e-05 0.000958081 -1.28177e-07
1.40146e-06 -1.28177e-07 0.000965195
0.00488288 5.38952e-05 -0.00012516
5.38952e-05 0.00228276 -4.69803e-06
-0.00012516 -4.69803e-06 0.00227885
0.00503199 3.00475e-05 -0.000124883
3.00475e-05 0.0023585 -1.95021e-06
-0.000124883 -1.95021e-06 0.00235506
0.00515639 5.25133e-05 3.75233e-06
5.25133e-05 0.00242592 -6.10798e-07
3.75233e-06 -6.10798e-07 0.00242021
0.00315466 -1.66704e-05 -5.33215e-05
-1.66704e-05 0.00134388 -8.74042e-07
-5.33215e-05 -8.74042e-07 0.00132762
0.0016433 1.09623e-05 2.90314e-05
1.09623e-05 0.000406318 1.66555e-07
2.90314e-05 1.66555e-07 0.000353718
0.00310585 2.61227e-05 -5.34175e-05
2.61227e-05 0.00132108 -1.96967e-06
-5.34175e-05 -1.96967e-06 0.00130531
0.00160827 3.3945e-05 2.67752e-05
3.3945e-05 0.00040183 6.41342e-07
2.67752e-05 6.41342e-07 0.000351849
0.00518034 0.000112452 0.000125576
0.000112452 0.0024429 1.78682e-06
0.000125576 1.78682e-06 0.00243388
0.000725856 -4.06658e-06 1.44749e-05
-4.06658e-06 -9.85757e-05 5.55479e-07
1.44749e-05 5.55479e-07 -0.000158803
0.0024814 -6.26157e-06 6.90793e-05
-6.26157e-06 0.000867316 2.97399e-06
6.90793e-05 2.97399e-06 0.000823272
0.00120934 2.01818e-05 9.68463e-06
2.01818e-05 8.54973e-06 1.48916e-06
9.68463e-06 1.48916e-06 -9.10027e-05
0.00235428 6.36281e-05 6.56748e-05
6.36281e-05 0.00081243 4.75647e-06
6.56748e-05 4.75647e-06 0.000768335
0.00119404 5.38175e-05 9.35009e-06
5.38175e-05 2.14447e-05 2.23342e-06
9.35009e-06 2.23342e-06 -7.5136e-05
0.00171365 2.05825e-05 -0.000121359
2.05825e-05 0.000551124 5.40905e-07
-0.000121359 5.40905e-07 0.000530147
0.00125073 -3.44352e-05 -2.10739e-05
-3.44352e-05 0.000321193 1.92368e-06
-2.10739e-05 1.92368e-06 0.000293805
0.00105776 7.77137e-05 -7.1069e-06
7.77137e-05 0.000238895 2.65721e-06
-7.1069e-06 2.65721e-06 0.000213802
0.00133595 -3.83868e-06 -1.89475e-05
-3.83868e-06 0.000378201 2.80304e-06
-1.89475e-05 2.80304e-06 0.000351097
0.00157193 -3.83283e-05 -5.8107e-05
-3.83283e-05 0.000390118 4.53957e-06
-5.8107e-05 4.53957e-06 0.000342109
0.00145538 -5.62094e-05 -5.39601e-05
-5.62094e-05 0.000362889 6.82964e-06
-5.39601e-05 6.82964e-06 0.000313603
0.00124973 -3.58115e-05 -4.39642e-05
-3.58115e-05 0.000294902 6.02033e-06
-4.39642e-05 6.02033e-06 0.000248115
0.0019205 -0.000132528 -1.28783e-05
-0.000132528 0.000536959 5.10336e-06
-1.28783e-05 5.10336e-06 0.000443173
0.0051406 -3.14733e-05 -2.46781e-06
-3.14733e-05 0.00241566 -6.06603e-07
-2.46781e-06 -6.06603e-07 0.00241119
0.00146631 2.13057e-06 4.9039e-05
2.13057e-06 0.000428265 -1.20038e-06
4.9039e-05 -1.20038e-06 0.000404102
0.00115961 5.80488e-06 -3.11883e-05
5.80488e-06 0.000148405 3.25562e-07
-3.11883e-05 3.25562e-07 9.36102e-05
0.00149056 -3.79447e-05 -1.70729e-05
-3.79447e-05 0.000347136 3.4434e-07
-1.70729e-05 3.4434e-07 0.000297248
0.00210238 7.50613e-05 4.6033e-05
7.50613e-05 0.000782037 -9.10257e-07
4.6033e-05 -9.10257e-07 0.000775142
0.00132588 1.89884e-05 -1.06022e-05
1.89884e-05 0.000355846 -3.34599e-08
-1.06022e-05 -3.34599e-08 0.00031173
0.00148362 -5.02545e-05 -1.65926e-05
-5.02545e-05 0.000358394 5.87961e-07
-1.65926e-05 5.87961e-07 0.000306824
0.00177345 -8.38575e-05 -5.43122e-06
-8.38575e-05 0.0003523 9.09344e-07
-5.43122e-06 9.09344e-07 0.000262314
0.00161097 -0.00011814 -2.25047e-06
-0.00011814 0.000423576 9.02463e-07
-2.25047e-06 9.02463e-07 0.000333979
0.00164435 -0.000113783 -1.50868e-06
-0.000113783 0.000345399 2.09794e-07
-1.50868e-06 2.09794e-07 0.000252007
0.00117785 -0.000122496 -7.37682e-08
-0.000122496 7.52987e-05 9.39907e-09
-7.37682e-08 9.39907e-09 -4.18735e-05
0.000743509 3.70461e-06 1.46631e-05
3.70461e-06 -8.5531e-05 -1.24138e-06
1.46631e-05 -1.24138e-06 -0.000145447
0.00143961 -1.87443e-05 2.14572e-05
-1.87443e-05 0.000316831 -2.33903e-06
2.14572e-05 -2.33903e-06 0.000263859
0.00162899 -1.34008e-05 9.39647e-06
-1.34008e-05 0.000243033 -1.49416e-06
9.39647e-06 -1.49416e-06 0.00014852
0.00154073 -6.23097e-05 8.98687e-06
-6.23097e-05 0.000222664 -1.67273e-06
8.98687e-06 -1.67273e-06 0.000132655
0.00154924 -9.84244e-05 9.58799e-06
-9.84244e-05 0.0002481 -2.97374e-06
9.58799e-06 -2.97374e-06 0.000153959
0.00179028 -9.7471e-05 2.90439e-06
-9.7471e-05 0.000275665 -2.54022e-07
2.90439e-06 -2.54022e-07 0.000167235
0.00293064 9.76446e-05 5.29517e-05
9.76446e-05 0.00122619 -2.73309e-06
5.29517e-05 -2.73309e-06 0.00122765
0.00125419 -0.000117866 4.2835e-06
-0.000117866 6.09964e-05 -1.8742e-06
4.2835e-06 -1.8742e-06 -5.58473e-05
0.000621507 4.67319e-05 3.27854e-06
4.67319e-05 -3.34043e-05 -5.43046e-06
3.27854e-06 -5.43046e-06 -7.48209e-05
0.000666776 -7.12256e-05 3.09672e-06
-7.12256e-05 -4.18029e-05 -1.71888e-06
3.09672e-06 -1.71888e-06 -0.000125457
0.00128406 -0.000134615 3.57346e-06
-0.000134615 0.000191508 -1.87246e-06
3.57346e-06 -1.87246e-06 7.29516e-05
0.00132326 -0.000137998 2.20883e-06
-0.000137998 0.000104303 -9.36994e-07
2.20883e-06 -9.36994e-07 -2.45669e-05
0.000565633 6.74063e-05 3.78134e-07
6.74063e-05 -6.75241e-05 -5.49992e-06
3.78134e-07 -5.49992e-06 -9.98305e-05
0.000753636 4.12295e-05 2.21603e-07
4.12295e-05 1.1464e-05 -2.77819e-06
2.21603e-07 -2.77819e-06 -4.93589e-05
0.00475408 1.94436e-05 -0.000117232
1.94436e-05 0.00222047 -5.88996e-06
-0.000117232 -5.88996e-06 0.002216
0.00401751 -0.00012365 -7.82925e-05
-0.00012365 0.00186277 -5.69371e-06
-7.82925e-05 -5.69371e-06 0.00184539
0.000573925 7.86237e-05 -1.28346e-05
7.86237e-05 -0.000116684 -7.59494e-06
-1.28346e-05 -7.59494e-06 -0.000175313
0.00287477 -9.8117e-05 -5.15467e-05
-9.8117e-05 0.00120153 -2.7139e-06
-5.15467e-05 -2.7139e-06 0.00120246
0.000582203 -1.76588e-05 -3.35817e-06
-1.76588e-05 -5.89053e-05 -6.49337e-06
-3.35817e-06 -6.49337e-06 -0.000101066
0.000555868 6.32551e-05 -9.86144e-06
6.32551e-05 -8.45818e-05 -7.20688e-06
-9.86144e-06 -7.20688e-06 -0.000138831
0.000831804 8.07831e-05 -4.24052e-06
8.07831e-05 1.92099e-05 -1.98911e-06
-4.24052e-06 -1.98911e-06 -6.88302e-05
0.0026722 -8.6128e-05 1.4891e-06
-8.6128e-05 0.00108722 -1.58476e-07
1.4891e-06 -1.58476e-07 0.00109155
0.000644063 -5.94775e-05 6.12585e-08
-5.94775e-05 -2.82561e-05 1.42843e-07
6.12585e-08 1.42843e-07 -5.14024e-05
0.0015196 7.71221e-05 2.51801e-05
7.71221e-05 0.000370212 5.77111e-07
2.51801e-05 5.77111e-07 0.000317853
0.00135576 8.60289e-05 2.12029e-05
8.60289e-05 0.000327642 4.71704e-07
2.12029e-05 4.71704e-07 0.000276234
0.00106539 9.8788e-05 3.74341e-07
9.8788e-05 1.40186e-05 -1.7418e-07
3.74341e-07 -1.7418e-07 -8.56513e-05
0.000654514 -4.5433e-05 -2.63934e-07
-4.5433e-05 -1.91387e-05 1.31766e-07
-2.63934e-07 1.31766e-07 -5.39752e-05
0.000923762 9.56336e-05 2.27547e-07
9.56336e-05 3.64975e-05 4.21432e-07
2.27547e-07 4.21432e-07 -5.48006e-05
0.000833174 5.93475e-05 3.65725e-07
5.93475e-05 4.95685e-05 -2.6125e-07
3.65725e-07 -2.6125e-07 -3.65317e-05
0.000814801 0.000108487 -8.76026e-08
0.000108487 -2.21505e-05 -7.26918e-08
-8.76026e-08 -7.26918e-08 -0.000132432
0.000652493 -5.3946e-05 2.19676e-06
-5.3946e-05 -1.90555e-05 5.08601e-06
2.19676e-06 5.08601e-06 -4.84382e-05
0.000712309 -5.23557e-05 1.22408e-06
-5.23557e-05 -2.08914e-06 3.96196e-06
1.22408e-06 3.96196e-06 -1.89198e-05
0.00070199 -8.47491e-06 2.11938e-06
-8.47491e-06 -8.51748e-06 2.47633e-06
2.11938e-06 2.47633e-06 -6.65186e-05
0.00110854 8.4485e-05 9.08105e-06
8.4485e-05 -1.60803e-06 3.08536e-06
9.08105e-06 3.08536e-06 -0.000101046
0.00103131 0.000103553 6.8135e-06
0.000103553 4.78759e-05 3.68923e-06
6.8135e-06 3.68923e-06 -4.87086e-05
0.00129572 0.000123176 4.73539e-06
0.000123176 6.37864e-05 2.14357e-06
4.73539e-06 2.14357e-06 -5.84702e-05
0.000855861 4.21554e-05 3.04051e-06
4.21554e-05 7.04346e-05 2.53802e-06
3.04051e-06 2.53802e-06 -9.33917e-06
0.000914255 0.000115142 1.63752e-06
0.000115142 -1.57618e-05 8.22988e-07
1.63752e-06 8.22988e-07 -0.000127648
0.00108525 0.000119485 2.14123e-06
0.000119485 0.000162752 3.48217e-07
2.14123e-06 3.48217e-07 5.11606e-05
0.00108289 0.000132285 -1.53272e-06
0.000132285 0.000110635 -1.64186e-06
-1.53272e-06 -1.64186e-06 -1.00711e-05
0.00216439 -6.15482e-05 3.14372e-05
-6.15482e-05 0.000792378 3.10897e-06
3.14372e-05 3.10897e-06 0.000805005
0.0022461 -6.92901e-05 8.97454e-07
-6.92901e-05 0.00084473 -1.0184e-07
8.97454e-07 -1.0184e-07 0.000854819
0.00235665 -7.75971e-05 -3.6462e-05
-7.75971e-05 0.000912224 -2.79132e-06
-3.6462e-05 -2.79132e-06 0.000919562
0.000614406 5.42827e-05 1.81555e-06
5.42827e-05 -5.05584e-05 -4.57133e-06
1.81555e-06 -4.57133e-06 -7.52111e-05
0.00274929 8.81558e-05 4.66199e-05
8.81558e-05 0.00112372 -2.85517e-06
4.66199e-05 -2.85517e-06 0.00112812
0.00487822 5.10123e-05 -0.000125806
5.10123e-05 0.00228121 -5.73155e-06
-0.000125806 -5.73155e-06 0.00227718
0.0049051 -1.58236e-05 -0.000119372
-1.58236e-05 0.00229299 -2.81835e-06
-0.000119372 -2.81835e-06 0.00228961
0.000732154 4.23227e-05 -1.42916e-05
4.23227e-05 -7.23948e-05 -3.65395e-06
-1.42916e-05 -3.65395e-06 -0.000128896
0.000722775 1.75906e-05 -1.45399e-05
1.75906e-05 -9.08377e-05 -2.20988e-06
-1.45399e-05 -2.20988e-06 -0.000150524
0.00511566 -5.85696e-05 -0.000124234
-5.85696e-05 0.00240348 -3.6411e-07
-0.000124234 -3.6411e-07 0.00239868
0.00517448 2.59259e-06 -1.11758e-06
2.59259e-06 0.00243263 4.75955e-07
-1.11758e-06 4.75955e-07 0.00242844
0.000723223 -2.26207e-06 -1.54542e-07
-2.26207e-06 -9.92457e-05 -2.65733e-07
-1.54542e-07 -2.65733e-07 -0.000159554
0.00161651 1.35765e-05 2.78718e-05
1.35765e-05 0.000401168 4.85149e-07
2.78718e-05 4.85149e-07 0.000350309
0.00121696 2.41273e-05 1.58971e-07
2.41273e-05 1.28853e-05 -9.8098e-08
1.58971e-07 -9.8098e-08 -8.6744e-05
0.000674838 4.79674e-05 2.11726e-07
4.79674e-05 -9.93233e-05 -9.85438e-08
2.11726e-07 -9.85438e-08 -0.000155557
0.00118119 5.57377e-05 -9.55024e-08
5.57377e-05 1.54316e-05 -1.8986e-08
-9.55024e-08 -1.8986e-08 -8.14404e-05
0.000713023 -1.13837e-05 1.48105e-05
-1.13837e-05 -0.000106632 -3.02399e-07
1.48105e-05 -3.02399e-07 -0.000167187
0.00123301 8.61141e-06 9.8033e-06
8.61141e-06 1.06688e-05 4.3038e-07
9.8033e-06 4.3038e-07 -9.07911e-05
0.00119737 3.69914e-05 9.41758e-06
3.69914e-05 1.5237e-05 1.9131e-06
9.41758e-06 1.9131e-06 -8.21982e-05
0.00147463 2.51877e-05 4.30259e-06
2.51877e-05 6.6155e-05 8.93754e-07
4.30259e-06 8.93754e-07 -4.92468e-05
0.00115265 6.85331e-05 9.32315e-06
6.85331e-05 5.042e-06 2.50679e-06
9.32315e-06 2.50679e-06 -9.24442e-05
0.00145629 6.34021e-05 4.17929e-06
6.34021e-05 7.81202e-05 1.07306e-06
4.17929e-06 1.07306e-06 -3.45151e-05
0.0051572 -2.69571e-05 -0.000134657
-2.69571e-05 0.00242376 -7.09325e-07
-0.000134657 -7.09325e-07 0.00241946
0.00128414 -2.51068e-05 -1.54641e-05
-2.51068e-05 0.000336765 1.22063e-06
-1.54641e-05 1.22063e-06 0.00030887
-8.29689e-05 -5.98606e-07 -1.33985e-05
-5.98606e-07 -0.000527993 2.35292e-06
-1.33985e-05 2.35292e-06 -0.000593317
0.00156752 -2.43995e-05 -5.89181e-05
-2.43995e-05 0.000385216 3.15243e-06
-5.89181e-05 3.15243e-06 0.000337772
0.00291223 0.000126377 -1.65109e-05
0.000126377 0.00123505 1.29012e-06
-1.65109e-05 1.29012e-06 0.0012269
0.0017648 -1.40003e-05 -3.60534e-05
-1.40003e-05 0.000581629 4.99716e-06
-3.60534e-05 4.99716e-06 0.000543404
0.00154302 -5.06709e-05 -5.66882e-05
-5.06709e-05 0.000387407 6.03803e-06
-5.66882e-05 6.03803e-06 0.000338097
0.00157812 -7.71006e-05 -1.74703e-05
-7.71006e-05 0.000245598 3.1102e-06
-1.74703e-05 3.1102e-06 0.000154701
0.00194089 -0.000123857 -1.30005e-05
-0.000123857 0.000505059 4.50771e-06
-1.30005e-05 4.50771e-06 0.000411992
0.00182975 -0.000129796 -1.01156e-05
-0.000129796 0.000537525 4.4067e-06
-1.01156e-05 4.4067e-06 0.000445648
0.00117328 -0.000121521 -3.57485e-06
-0.000121521 7.28951e-05 1.57231e-06
-3.57485e-06 1.57231e-06 -4.40863e-05
0.000717206 6.07531e-06 2.081e-08
6.07531e-06 -0.000100287 -2.70397e-07
2.081e-08 -2.70397e-07 -0.000160097
0.00151328 -2.16015e-05 -1.93659e-05
-2.16015e-05 0.000354036 1.07158e-07
-1.93659e-05 1.07158e-07 0.000303053
0.00121122 -1.19637e-05 -3.62595e-06
-1.19637e-05 1.71684e-05 9.78834e-08
-3.62595e-06 9.78834e-08 -8.02622e-05
0.00179036 -6.476e-05 -2.62017e-06
-6.476e-05 0.0003569 3.56447e-07
-2.62017e-06 3.56447e-07 0.000268393
0.00292939 9.61409e-05 -9.46273e-07
9.61409e-05 0.0012267 -1.99786e-07
-9.46273e-07 -1.99786e-07 0.00122794
0.00113652 2.67868e-05 2.18469e-06
2.67868e-05 0.00024344 3.1884e-07
2.18469e-06 3.1884e-07 0.00020536
0.00112835 -8.25596e-05 3.28028e-07
-8.25596e-05 0.000203628 -1.71169e-07
3.28028e-07 -1.71169e-07 0.00011978
0.00154457 -9.72931e-05 -2.76006e-06
-9.72931e-05 0.000247249 4.64917e-07
-2.76006e-06 4.64917e-07 0.000152921
0.00149307 -8.94041e-05 -2.04482e-06
-8.94041e-05 0.000112789 5.92637e-07
-2.04482e-06 5.92637e-07 3.23965e-06
0.00100582 -0.00011994 -5.10544e-07
-0.00011994 4.46959e-05 -1.71378e-07
-5.10544e-07 -1.71378e-07 -7.28559e-05
0.00150094 -0.000125139 1.00004e-08
-0.000125139 0.000193214 -2.51906e-07
1.00004e-08 -2.51906e-07 7.72156e-05
0.00130564 -0.00013646 8.37338e-08
-0.00013646 9.51568e-05 1.52863e-07
8.37338e-08 1.52863e-07 -3.33833e-05
0.000601323 6.15603e-05 -1.0313e-06
6.15603e-05 -4.86758e-05 -1.11032e-08
-1.0313e-06 -1.11032e-08 -8.03854e-05
0.000723945 2.62815e-05 -1.89138e-07
2.62815e-05 -6.69731e-06 1.97517e-07
-1.89138e-07 1.97517e-07 -6.68899e-05
0.00121462 -6.19775e-06 9.61454e-06
-6.19775e-06 2.31042e-06 -1.40264e-06
9.61454e-06 -1.40264e-06 -9.87238e-05
0.00156467 -3.27511e-05 8.82152e-06
-3.27511e-05 0.000225624 -1.57858e-06
8.82152e-06 -1.57858e-06 0.000134572
0.00188511 -1.90139e-05 2.93941e-06
-1.90139e-05 0.000295756 -6.39034e-07
2.93941e-06 -6.39034e-07 0.000185159
0.00121157 -6.16273e-05 4.87484e-06
-6.16273e-05 -4.52507e-05 -1.02558e-06
4.87484e-06 -1.02558e-06 -0.000155575
0.00161854 -0.000118059 4.28429e-06
-0.000118059 0.000205152 -7.59008e-07
4.28429e-06 -7.59008e-07 9.13322e-05
0.00170113 -9.37557e-05 9.84223e-07
-9.37557e-05 0.000173686 3.80764e-07
9.84223e-07 3.80764e-07 6.17669e-05
0.000548983 5.7314e-05 1.59882e-06
5.7314e-05 -7.45649e-05 -5.69878e-06
1.59882e-06 -5.69878e-06 -0.000111376
0.00145361 -0.000131021 1.79039e-06
-0.000131021 0.000108784 -1.18019e-06
1.79039e-06 -1.18019e-06 -1.69268e-05
0.000668767 -3.86679e-05 2.11703e-06
-3.86679e-05 -2.98172e-05 -1.43393e-06
2.11703e-06 -1.43393e-06 -0.000109401
0.000546179 -9.33192e-05 2.42428e-06
-9.33192e-05 -0.00014118 -2.3281e-06
2.42428e-06 -2.3281e-06 -0.000251568
0.00183874 -0.000173361 1.41475e-06
-0.000173361 0.000449604 -6.41496e-07
1.41475e-06 -6.41496e-07 0.000316318
0.00159689 -0.000154079 -1.70231e-07
-0.000154079 0.00020749 6.38784e-07
-1.70231e-07 6.38784e-07 7.6503e-05
0.000811058 -4.03093e-06 1.41883e-06
-4.03093e-06 4.57947e-05 -2.87094e-06
1.41883e-06 -2.87094e-06 -2.56786e-05
0.000739143 4.00159e-05 9.80879e-07
4.00159e-05 -6.34482e-07 -2.10456e-06
9.80879e-07 -2.10456e-06 -5.26652e-05
0.000834575 -3.25906e-05 3.31917e-07
-3.25906e-05 5.62545e-05 -8.53471e-07
3.31917e-07 -8.53471e-07 -3.22299e-05
0.000638307 6.82475e-05 -1.3424e-05
6.82475e-05 -0.000105917 -6.37022e-06
-1.3424e-05 -6.37022e-06 -0.000164123
0.00261426 -8.74636e-05 -4.38355e-05
-8.74636e-05 0.00105669 -2.69816e-06
-4.38355e-05 -2.69816e-06 0.00106095
0.000612406 -5.41043e-05 -1.81994e-06
-5.41043e-05 -4.69702e-05 -4.16162e-06
-1.81994e-06 -4.16162e-06 -6.88147e-05
0.000531304 7.94032e-05 -1.19288e-05
7.94032e-05 -0.000114508 -7.75126e-06
-1.19288e-05 -7.75126e-06 -0.000170637
0.00105344 9.96175e-05 -8.19392e-06
9.96175e-05 8.75143e-06 -4.2394e-06
-8.19392e-06 -4.2394e-06 -9.10005e-05
0.000543497 -6.19451e-05 -8.65284e-07
-6.19451e-05 -7.37965e-05 -5.86984e-06
-8.65284e-07 -5.86984e-06 -0.000111391
0.000735556 5.44633e-05 -2.70982e-06
5.44633e-05 -3.80259e-06 -2.30264e-06
-2.70982e-06 -2.30264e-06 -8.83497e-05
0.000871118 9.17183e-05 -4.68458e-06
9.17183e-05 9.11573e-06 -2.02141e-06
-4.68458e-06 -2.02141e-06 -8.16392e-05
0.000758596 0.000105505 -2.80166e-06
0.000105505 -5.3909e-05 -1.82575e-07
-2.80166e-06 -1.82575e-07 -0.000164581
0.000608387 -6.38539e-05 1.03704e-06
-6.38539e-05 -4.12895e-05 3.84295e-08
1.03704e-06 3.84295e-08 -7.16438e-05
0.000681131 -4.88382e-05 -1.25859e-07
-4.88382e-05 -1.94227e-05 1.15336e-07
-1.25859e-07 1.15336e-07 -3.55518e-05
0.000721063 -3.84766e-05 1.74982e-07
-3.84766e-05 -9.45597e-07 2.53535e-07
1.74982e-07 2.53535e-07 -5.64482e-05
0.00112539 8.64776e-05 2.91063e-07
8.64776e-05 7.91619e-06 -3.34979e-07
2.91063e-07 -3.34979e-07 -9.18159e-05
0.000990411 0.000101774 4.52281e-07
0.000101774 2.74665e-05 2.53621e-08
4.52281e-07 2.53621e-08 -6.88028e-05
0.00129832 0.000124249 2.61821e-07
0.000124249 6.54616e-05 6.69738e-08
2.61821e-07 6.69738e-08 -5.70263e-05
0.000807324 3.82539e-05 -4.71398e-08
3.82539e-05 4.62406e-05 -3.83575e-08
-4.71398e-08 -3.83575e-08 -3.31663e-05
0.00107949 0.000123731 -1.36627e-07
0.000123731 7.32204e-05 -1.11517e-07
-1.36627e-07 -1.11517e-07 -3.90575e-05
0.00102428 0.000115536 2.99739e-07
0.000115536 0.000130362 -4.28856e-07
2.99739e-07 -4.28856e-07 1.90889e-05
0.000954267 0.000126824 -8.3117e-07
0.000126824 4.16189e-05 6.96115e-07
-8.3117e-07 6.96115e-07 -7.92166e-05
0.000723961 -4.37107e-05 2.18817e-06
-4.37107e-05 -6.54758e-06 3.43396e-06
2.18817e-06 3.43396e-06 -1.8345e-05
0.000741707 1.27292e-05 2.44534e-06
1.27292e-05 8.25883e-06 2.23052e-06
2.44534e-06 2.23052e-06 -5.94271e-05
0.000713693 -4.71042e-05 2.76385e-07
-4.71042e-05 -8.52064e-06 2.21387e-06
2.76385e-07 2.21387e-06 -5.38855e-05
0.000840882 2.46785e-05 5.11517e-07
2.46785e-05 6.60671e-05 7.74639e-07
5.11517e-07 7.74639e-07 -1.62994e-05
0.0013456 0.000103499 5.6163e-06
0.000103499 4.52844e-05 1.17482e-06
5.6163e-06 1.17482e-06 -7.40098e-05
0.0012262 0.00013084 3.53327e-06
0.00013084 9.33388e-05 2.40453e-06
3.53327e-06 2.40453e-06 -2.5644e-05
0.0014379 0.00013563 2.31415e-06
0.00013563 8.87044e-05 1.86208e-06
2.31415e-06 1.86208e-06 -4.36381e-05
0.00108538 8.81543e-05 2.13022e-06
8.81543e-05 0.000181639 1.55443e-06
2.13022e-06 1.55443e-06 7.92358e-05
0.0012325 0.000140603 -4.64063e-07
0.000140603 0.000125326 5.92718e-07
-4.64063e-07 5.92718e-07 4.45041e-06
0.00104443 0.000130004 3.57585e-07
0.000130004 0.000140788 -1.6613e-06
3.57585e-07 -1.6613e-06 1.03392e-05
0.000749984 0.000119272 -1.04922e-07
0.000119272 -9.13313e-05 -1.14033e-06
-1.04922e-07 -1.14033e-06 -0.000215169
0.000784784 -2.31525e-05 1.18074e-06
-2.31525e-05 5.46275e-06 1.64407e-06
1.18074e-06 1.64407e-06 -2.40533e-05
0.000726514 -3.33649e-05 1.55271e-06
-3.33649e-05 -2.10515e-05 3.33743e-06
1.55271e-06 3.33743e-06 -2.71408e-05
0.0020922 -5.43294e-05 2.71937e-05
-5.43294e-05 0.000744032 3.31946e-06
2.71937e-05 3.31946e-06 0.00075911
0.00213345 -6.13401e-05 1.1158e-06
-6.13401e-05 0.000774356 -1.01573e-07
1.1158e-06 -1.01573e-07 0.000787268
0.00218796 -6.85011e-05 -3.21747e-05
-6.85011e-05 0.000812326 -2.95878e-06
-3.21747e-05 -2.95878e-06 0.000822829
0.000651722 4.49257e-05 2.392e-06
4.49257e-05 -4.01997e-05 -4.03295e-06
2.392e-06 -4.03295e-06 -5.9535e-05
0.00256162 7.95629e-05 4.02701e-05
7.95629e-05 0.0010177 -3.03329e-06
4.02701e-05 -3.03329e-06 0.00102457
0.000638193 5.98107e-05 -1.41832e-07
5.98107e-05 -3.5694e-05 8.10089e-08
-1.41832e-07 8.10089e-08 -6.16674e-05
0.00277231 8.66887e-05 -1.05353e-06
8.66887e-05 0.00113582 -1.49269e-07
-1.05353e-06 -1.49269e-07 0.00114029
0.000691986 5.25562e-05 -1.38891e-05
5.25562e-05 -9.00214e-05 -4.79918e-06
-1.38891e-05 -4.79918e-06 -0.000146752
0.000726579 2.98072e-05 -1.41933e-05
2.98072e-05 -8.01307e-05 -2.97672e-06
-1.41933e-05 -2.97672e-06 -0.000138274
0.00116566 5.67141e-05 -9.15115e-06
5.67141e-05 7.83903e-06 -2.17665e-06
-9.15115e-06 -2.17665e-06 -8.92402e-05
0.00121758 2.59631e-05 -9.54899e-06
2.59631e-05 1.35831e-05 -1.6678e-06
-9.54899e-06 -1.6678e-06 -8.60797e-05
0.00073849 1.87135e-06 -1.49232e-05
1.87135e-06 -9.1049e-05 -1.16037e-06
-1.49232e-05 -1.16037e-06 -0.000151121
0.00519001 -5.86839e-05 -0.000131407
-5.86839e-05 0.0024409 9.74284e-07
-0.000131407 9.74284e-07 0.00243684
0.000733312 -1.5418e-06 1.05949e-07
-1.5418e-06 -9.64083e-05 -2.59675e-07
1.05949e-07 -2.59675e-07 -0.000156771
0.00123783 1.27167e-05 2.58385e-08
1.27167e-05 1.34223e-05 -3.15614e-07
2.58385e-08 -3.15614e-07 -8.80463e-05
0.00119096 3.76198e-05 -5.50638e-09
3.76198e-05 1.254e-05 -5.18448e-08
-5.50638e-09 -5.18448e-08 -8.50336e-05
0.00149182 2.49636e-05 4.91695e-08
2.49636e-05 7.4883e-05 -2.47035e-08
4.91695e-08 -2.47035e-08 -4.05345e-05
0.00116144 7.10795e-05 2.28373e-08
7.10795e-05 1.03552e-05 -1.31627e-07
2.28373e-08 -1.31627e-07 -8.75619e-05
0.0014526 6.5624e-05 -2.21803e-08
6.5624e-05 7.6611e-05 9.61981e-08
-2.21803e-08 9.61981e-08 -3.61981e-05
0.00124318 -7.13378e-07 9.79287e-06
-7.13378e-07 1.38696e-05 -2.98126e-07
9.79287e-06 -2.98126e-07 -8.78765e-05
0.00149911 1.63305e-05 4.31505e-06
1.63305e-05 6.80348e-05 1.83951e-07
4.31505e-06 1.83951e-07 -4.89794e-05
0.00147051 4.41251e-05 4.28954e-06
4.41251e-05 7.68309e-05 9.73917e-07
4.28954e-06 9.73917e-07 -3.67783e-05
0.00162038 2.35189e-05 1.1595e-06
2.35189e-05 9.84069e-05 3.63057e-07
1.1595e-06 3.63057e-07 -1.78419e-05
0.00141183 8.38602e-05 4.2883e-06
8.38602e-05 6.09287e-05 7.74529e-07
4.2883e-06 7.74529e-07 -5.35792e-05
0.00161062 6.94626e-05 1.15752e-06
6.94626e-05 0.000112503 4.9269e-07
1.15752e-06 4.9269e-07 -2.85907e-06
0.000724499 9.55514e-06 -1.42257e-05
9.55514e-06 -9.72967e-05 6.12879e-07
-1.42257e-05 6.12879e-07 -0.000157176
0.00158655 -7.49895e-06 -6.06111e-05
-7.49895e-06 0.000390856 2.24355e-06
-6.06111e-05 2.24355e-06 0.000342085
0.000794038 -8.97972e-06 -1.01013e-05
-8.97972e-06 -0.000208528 1.86399e-06
-1.01013e-05 1.86399e-06 -0.000308913
0.0020145 -6.58824e-05 -1.53382e-05
-6.58824e-05 0.000477183 2.28547e-06
-1.53382e-05 2.28547e-06 0.000390354
0.0029382 9.42125e-05 -5.79027e-05
9.42125e-05 0.00123237 2.92065e-06
-5.79027e-05 2.92065e-06 0.00123349
0.00171141 2.42008e-05 -3.01099e-05
2.42008e-05 0.000554532 3.71258e-06
-3.01099e-05 3.71258e-06 0.000520098
0.00160661 -0.000101515 -6.7987e-06
-0.000101515 0.000457766 2.75964e-06
-6.7987e-06 2.75964e-06 0.000373198
0.00153449 -9.6053e-05 -1.461e-05
-9.6053e-05 0.00024349 3.92095e-06
-1.461e-05 3.92095e-06 0.00014903
0.00119006 -8.11057e-05 -6.045e-06
-8.11057e-05 -5.32248e-05 9.39584e-07
-6.045e-06 9.39584e-07 -0.000163867
0.00174322 -0.000132312 -5.27311e-06
-0.000132312 0.000323164 1.67861e-06
-5.27311e-06 1.67861e-06 0.000207995
0.000720664 -0.000104759 -3.0147e-06
-0.000104759 -0.000105674 1.3505e-06
-3.0147e-06 1.3505e-06 -0.000222175
0.00129105 -0.00013504 -1.33703e-06
-0.00013504 8.7545e-05 1.02608e-06
-1.33703e-06 1.02608e-06 -4.06635e-05
0.000635032 5.23768e-05 -2.41622e-06
5.23768e-05 -3.12446e-05 5.26316e-06
-2.41622e-06 5.26316e-06 -6.22354e-05
0.00070701 1.13573e-05 -1.69811e-06
1.13573e-05 -1.68441e-05 2.4892e-06
-1.69811e-06 2.4892e-06 -7.72833e-05
0.00102812 -2.29726e-06 -4.33489e-07
-2.29726e-06 -9.74021e-05 -2.90385e-07
-4.33489e-07 -2.90385e-07 -0.00019959
0.00158829 -3.46175e-05 -2.98217e-06
-3.46175e-05 0.000237412 2.26281e-07
-2.98217e-06 2.26281e-07 0.00014638
0.0017777 -1.59046e-05 -2.09655e-06
-1.59046e-05 0.000236218 4.60202e-07
-2.09655e-06 4.60202e-07 0.000125102
0.00155048 -6.69312e-05 1.10283e-06
-6.69312e-05 0.00013753 -2.79007e-07
1.10283e-06 -2.79007e-07 2.91278e-05
0.000598409 4.52942e-05 1.21981e-07
4.52942e-05 -5.07071e-05 1.31042e-07
1.21981e-07 1.31042e-07 -8.61731e-05
0.000813806 -4.99688e-05 -2.19688e-07
-4.99688e-05 4.79768e-05 -6.06904e-09
-2.19688e-07 -6.06904e-09 -3.30255e-05
0.000704251 -0.000101793 9.17032e-07
-0.000101793 -5.47476e-05 -8.18844e-07
9.17032e-07 -8.18844e-07 -0.000164203
0.0017311 -0.0001201 -1.03808e-06
-0.0001201 0.00026578 2.4345e-07
-1.03808e-06 2.4345e-07 0.000151875
0.00156845 -8.90377e-05 -6.59601e-07
-8.90377e-05 9.97903e-05 5.0037e-07
-6.59601e-07 5.0037e-07 -1.20297e-05
0.00145834 -0.000153875 -1.2785e-06
-0.000153875 0.000245982 6.30171e-07
-1.2785e-06 6.30171e-07 0.000112517
0.0014185 -0.000129122 -9.38502e-08
-0.000129122 9.00953e-05 -3.6706e-07
-9.38502e-08 -3.6706e-07 -3.53347e-05
0.00138339 -0.000144265 4.50296e-07
-0.000144265 9.57393e-05 6.77071e-07
4.50296e-07 6.77071e-07 -3.44881e-05
0.000762398 -7.70343e-06 -2.42975e-07
-7.70343e-06 1.8766e-05 -1.16905e-07
-2.42975e-07 -1.16905e-07 -5.26783e-05
0.000782121 -6.37588e-06 -5.78987e-07
-6.37588e-06 2.28235e-05 -2.73933e-07
-5.78987e-07 -2.73933e-07 -6.1777e-05
0.00073353 3.15121e-05 4.67867e-07
3.15121e-05 -5.16627e-06 2.68582e-07
4.67867e-07 2.68582e-07 -5.6561e-05
0.00190896 -8.65456e-07 2.99593e-06
-8.65456e-07 0.000293818 -5.66744e-07
2.99593e-06 -5.66744e-07 0.000180836
0.00162434 -3.88287e-05 3.74479e-06
-3.88287e-05 0.000167671 -6.92817e-07
3.74479e-06 -6.92817e-07 5.83357e-05
0.00180476 -1.48585e-05 9.85254e-07
-1.48585e-05 0.00020287 -4.47677e-08
9.85254e-07 -4.47677e-08 8.79025e-05
0.0015722 -6.1171e-05 1.39508e-06
-6.1171e-05 9.73539e-05 -8.38497e-07
1.39508e-06 -8.38497e-07 -1.52705e-05
0.00148357 -0.000116143 2.67725e-06
-0.000116143 6.93989e-05 4.3107e-08
2.67725e-06 4.3107e-08 -5.01969e-05
0.00176695 -8.67918e-05 -7.83379e-07
-8.67918e-05 0.000171974 7.24288e-07
-7.83379e-07 7.24288e-07 6.29193e-05
0.000761095 -2.55864e-05 2.24987e-06
-2.55864e-05 2.35481e-05 -2.04549e-06
2.24987e-06 -2.04549e-06 -5.5118e-05
0.00144116 -0.000133061 -6.91356e-07
-0.000133061 5.82432e-05 -6.56386e-07
-6.91356e-07 -6.56386e-07 -6.55274e-05
0.000891322 -0.00010472 1.17467e-06
-0.00010472 7.09627e-05 -2.70436e-07
1.17467e-06 -2.70436e-07 -2.96612e-05
0.000704908 -0.000115346 2.35348e-06
-0.000115346 -7.67099e-05 -3.03475e-06
2.35348e-06 -3.03475e-06 -0.000205565
0.00164511 -0.000171592 1.68153e-06
-0.000171592 0.00031035 3.45423e-07
1.68153e-06 3.45423e-07 0.000168538
0.0019658 -0.000173034 -3.12068e-06
-0.000173034 0.000376296 2.29644e-06
-3.12068e-06 2.29644e-06 0.000250025
0.000756212 2.85299e-05 1.2658e-06
2.85299e-05 2.40967e-06 -1.8828e-06
1.2658e-06 -1.8828e-06 -4.26628e-05
0.000865946 -5.20945e-05 1.06529e-06
-5.20945e-05 6.42836e-05 -9.94926e-08
1.06529e-06 -9.94926e-08 -2.47721e-05
0.000754585 3.04903e-06 3.99199e-07
3.04903e-06 9.01168e-06 -1.38694e-06
3.99199e-07 -1.38694e-06 -7.01685e-05
0.000955295 -9.46825e-05 -3.39813e-07
-9.46825e-05 0.000124788 9.18979e-07
-3.39813e-07 9.18979e-07 2.61718e-05
0.00113998 8.87736e-05 -9.38465e-06
8.87736e-05 1.61992e-05 -3.76864e-06
-9.38465e-06 -3.76864e-06 -8.38527e-05
0.000649188 -4.61529e-05 -2.38798e-06
-4.61529e-05 -3.68655e-05 -3.54535e-06
-2.38798e-06 -3.54535e-06 -5.24561e-05
0.000558814 -6.62153e-05 -5.5635e-07
-6.62153e-05 -6.81948e-05 -5.14447e-06
-5.5635e-07 -5.14447e-06 -9.84981e-05
0.000742711 -5.35429e-05 8.247e-08
-5.35429e-05 1.24962e-05 -2.60069e-06
8.247e-08 -2.60069e-06 -4.38331e-05
0.000942509 9.96909e-05 -5.88601e-06
9.96909e-05 3.64455e-06 -3.69937e-06
-5.88601e-06 -3.69937e-06 -9.23363e-05
0.0013085 0.000125401 -4.54306e-06
0.000125401 7.1022e-05 -2.08837e-06
-4.54306e-06 -2.08837e-06 -5.16721e-05
0.000744975 3.09781e-05 -2.10858e-06
3.09781e-05 1.52075e-05 -2.24952e-06
-2.10858e-06 -2.24952e-06 -6.4106e-05
0.000980393 0.000112536 -2.38065e-06
0.000112536 0.000107201 -1.61837e-06
-2.38065e-06 -1.61837e-06 -3.87993e-06
0.00123341 0.000131825 -2.08401e-06
0.000131825 0.000156388 -1.02736e-06
-2.08401e-06 -1.02736e-06 4.37366e-05
0.000788761 0.000119248 -1.91238e-06
0.000119248 -4.688e-05 1.0838e-06
-1.91238e-06 1.0838e-06 -0.000167646
0.000696025 -4.22329e-05 8.42277e-08
-4.22329e-05 -2.15066e-05 3.21309e-08
8.42277e-08 3.21309e-08 -3.30899e-05
0.000763976 1.05214e-05 1.02555e-07
1.05214e-05 2.43347e-05 -4.27593e-08
1.02555e-07 -4.27593e-08 -4.5429e-05
0.000727733 -4.99729e-05 -2.02538e-07
-4.99729e-05 -9.06158e-07 3.14334e-07
-2.02538e-07 3.14334e-07 -4.62903e-05
0.000847092 9.35145e-06 3.17166e-07
9.35145e-06 6.84393e-05 -2.08593e-07
3.17166e-07 -2.08593e-07 -1.27542e-05
0.00138634 0.000105591 1.08487e-06
0.000105591 6.6069e-05 3.55642e-08
1.08487e-06 3.55642e-08 -5.35169e-05
0.00118144 0.000129626 7.44233e-08
0.000129626 7.13255e-05 5.90603e-08
7.44233e-08 5.90603e-08 -4.7645e-05
0.0014393 0.000135801 7.76396e-08
0.000135801 9.00475e-05 5.43078e-07
7.76396e-08 5.43078e-07 -4.24415e-05
0.000990864 8.88234e-05 3.47447e-07
8.88234e-05 0.000131579 3.36657e-07
3.47447e-07 3.36657e-07 3.03637e-05
0.00141587 0.000149847 -6.78969e-07
0.000149847 0.000224511 -1.35999e-06
-6.78969e-07 -1.35999e-06 0.000103289
0.00109478 0.000133332 3.71556e-07
0.000133332 0.000167636 -1.07463e-06
3.71556e-07 -1.07463e-06 3.64553e-05
0.000870351 0.000125719 -1.82928e-06
0.000125719 -2.34652e-05 -6.77686e-08
-1.82928e-06 -6.77686e-08 -0.000144245
0.000728043 -3.8383e-05 1.91545e-06
-3.8383e-05 -1.29425e-05 3.35032e-06
1.91545e-06 3.35032e-06 -2.14848e-05
0.000745243 -4.39303e-05 6.71854e-07
-4.39303e-05 9.09931e-07 1.8283e-06
6.71854e-07 1.8283e-06 -3.72559e-05
0.000975876 4.68015e-05 1.46794e-06
4.68015e-05 0.000130847 7.13846e-07
1.46794e-06 7.13846e-07 3.97237e-05
0.000807341 9.63853e-06 3.21485e-07
9.63853e-06 4.17232e-05 1.2388e-06
3.21485e-07 1.2388e-06 -2.74251e-05
0.000900393 7.35767e-05 7.62885e-07
7.35767e-05 0.000109038 -5.91218e-08
7.62885e-07 -5.91218e-08 1.1458e-05
0.00148507 0.000108908 3.56749e-06
0.000108908 6.62829e-05 -1.65463e-09
3.56749e-06 -1.65463e-09 -5.90717e-05
0.00131488 0.000144058 8.52116e-07
0.000144058 9.92134e-05 2.77048e-06
8.52116e-07 2.77048e-06 -2.99789e-05
0.0015976 0.000146431 -2.76789e-07
0.000146431 0.000141079 1.6203e-06
-2.76789e-07 1.6203e-06 6.79323e-06
0.00114512 0.000129527 2.80273e-06
0.000129527 0.000226104 3.05047e-06
2.80273e-06 3.05047e-06 0.000100161
0.00124784 0.000149293 1.18364e-06
0.000149293 0.000112368 9.92375e-07
1.18364e-06 9.92375e-07 -1.13847e-05
0.000260988 9.23714e-05 1.76203e-06
9.23714e-05 -0.000305159 -2.26271e-06
1.76203e-06 -2.26271e-06 -0.000443704
0.00077839 -2.756e-05 1.3694e-06
-2.756e-05 6.07782e-06 1.60006e-06
1.3694e-06 1.60006e-06 -2.50838e-05
0.000794654 1.59175e-06 3.90684e-07
1.59175e-06 2.29084e-05 6.2998e-07
3.90684e-07 6.2998e-07 -2.65582e-05
0.000795897 -1.70843e-05 8.47354e-07
-1.70843e-05 7.86471e-06 1.73749e-06
8.47354e-07 1.73749e-06 -2.05598e-05
0.000785377 -2.20854e-05 1.36093e-07
-2.20854e-05 6.27619e-06 -2.1436e-09
1.36093e-07 -2.1436e-09 -2.33433e-05
0.00126295 -3.56979e-05 1.73209e-06
-3.56979e-05 0.000267443 2.03286e-06
1.73209e-06 2.03286e-06 0.000266297
0.00099372 -3.65283e-05 7.86228e-07
-3.65283e-05 0.000125913 -2.39689e-08
7.86228e-07 -2.39689e-08 0.000121371
0.000969268 -3.19948e-05 2.22969e-05
-3.19948e-05 0.000117409 6.11305e-06
2.22969e-05 6.11305e-06 0.000129004
0.0020765 -5.41265e-05 1.22178e-06
-5.41265e-05 0.000734218 -9.38467e-08
1.22178e-06 -9.38467e-08 0.000749559
0.00210674 -6.09606e-05 -2.85414e-05
-6.09606e-05 0.000758562 -3.15811e-06
-2.85414e-05 -3.15811e-06 0.0007718
0.000669318 3.9459e-05 2.23884e-06
3.9459e-05 -3.89775e-05 -3.83422e-06
2.23884e-06 -3.83422e-06 -5.4666e-05
0.00243234 7.15421e-05 3.55194e-05
7.15421e-05 0.000940766 -3.26174e-06
3.55194e-05 -3.26174e-06 0.000950077
0.00067043 4.76694e-05 2.61521e-08
4.76694e-05 -2.93975e-05 4.3539e-08
2.61521e-08 4.3539e-08 -4.92967e-05
0.00261274 7.90906e-05 -1.20968e-06
7.90906e-05 0.00104507 -1.31683e-07
-1.20968e-06 -1.31683e-07 0.00105193
0.000659765 6.13628e-05 2.56827e-07
6.13628e-05 -2.31301e-05 5.16329e-06
2.56827e-07 5.16329e-06 -4.97412e-05
0.00282036 8.57167e-05 -5.32059e-05
8.57167e-05 0.00116157 3.06558e-06
-5.32059e-05 3.06558e-06 0.00116598
0.00117463 7.37249e-05 -9.58078e-06
7.37249e-05 1.77769e-05 -2.70757e-06
-9.58078e-06 -2.70757e-06 -8.05322e-05
0.00119612 4.11515e-05 -9.14522e-06
4.11515e-05 1.59135e-05 -1.96099e-06
-9.14522e-06 -1.96099e-06 -8.1882e-05
0.00143964 6.39705e-05 -4.15567e-06
6.39705e-05 7.02774e-05 -8.56088e-07
-4.15567e-06 -8.56088e-07 -4.25071e-05
0.00151177 2.50157e-05 -4.45616e-06
2.50157e-05 8.50092e-05 -9.24444e-07
-4.45616e-06 -9.24444e-07 -3.04218e-05
0.00123981 1.54773e-05 -9.88105e-06
1.54773e-05 1.47284e-05 -1.09163e-06
-9.88105e-06 -1.09163e-06 -8.67788e-05
0.00072638 8.19807e-06 -1.47528e-05
8.19807e-06 -9.97029e-05 -2.20795e-07
-1.47528e-05 -2.20795e-07 -0.000160209
0.00123867 1.26868e-06 1.53732e-08
1.26868e-06 1.13592e-05 -1.16586e-07
1.53732e-08 -1.16586e-07 -9.04308e-05
0.00150891 1.81247e-05 -5.27108e-08
1.81247e-05 7.31666e-05 -2.64482e-07
-5.27108e-08 -2.64482e-07 -4.38733e-05
0.00146963 4.14637e-05 1.0342e-07
4.14637e-05 7.67396e-05 -5.05651e-08
1.0342e-07 -5.05651e-08 -3.68337e-05
0.0015989 2.36305e-05 -1.18138e-07
2.36305e-05 8.55106e-05 9.21244e-08
-1.18138e-07 9.21244e-08 -3.05111e-05
0.0014272 8.46722e-05 -1.96862e-07
8.46722e-05 6.84035e-05 9.1981e-08
-1.96862e-07 9.1981e-08 -4.61969e-05
0.00158369 6.84048e-05 -9.05507e-09
6.84048e-05 9.87868e-05 1.26438e-07
-9.05507e-09 1.26438e-07 -1.66398e-05
0.00151171 6.10318e-06 4.58346e-06
6.10318e-06 7.22014e-05 -1.89841e-07
4.58346e-06 -1.89841e-07 -4.49452e-05
0.00160376 1.86783e-05 7.37193e-07
1.86783e-05 7.1439e-05 2.91323e-07
7.37193e-07 2.91323e-07 -4.57764e-05
0.00159248 4.54734e-05 1.24348e-06
4.54734e-05 9.34277e-05 2.05576e-07
1.24348e-06 2.05576e-07 -2.24858e-05
0.0017535 2.41185e-05 -7.95045e-08
2.41185e-05 0.000131592 1.02553e-07
-7.95045e-08 1.02553e-07 2.08128e-05
0.00157668 8.55561e-05 1.25705e-06
8.55561e-05 9.79981e-05 -1.8009e-08
1.25705e-06 -1.8009e-08 -1.92483e-05
0.00163682 6.03821e-05 -1.78074e-06
6.03821e-05 9.21558e-05 1.48637e-07
-1.78074e-06 1.48637e-07 -1.69312e-05
0.000832496 -3.60064e-07 -9.54809e-06
-3.60064e-07 -0.000201727 6.69089e-07
-9.54809e-06 6.69089e-07 -0.000305122
0.00161844 -3.82614e-05 -1.48371e-05
-3.82614e-05 0.000252533 2.03305e-06
-1.48371e-05 2.03305e-06 0.000161538
0.0016585 -9.32967e-06 -6.84198e-06
-9.32967e-06 0.000170788 1.37463e-06
-6.84198e-06 1.37463e-06 5.91963e-05
0.00188992 -7.24279e-05 -4.42625e-06
-7.24279e-05 0.000320618 6.87946e-07
-4.42625e-06 6.87946e-07 0.000214125
0.000649173 3.64678e-05 -4.38836e-06
3.64678e-05 -2.34444e-05 5.15838e-06
-4.38836e-06 5.15838e-06 -5.92331e-05
0.00089454 -5.67206e-05 -3.51677e-06
-5.67206e-05 9.14013e-05 1.96988e-06
-3.51677e-06 1.96988e-06 9.64972e-06
0.000875444 -0.000111272 -7.75134e-07
-0.000111272 3.84657e-05 4.93527e-07
-7.75134e-07 4.93527e-07 -7.01545e-05
0.00185335 -0.000122488 -6.25997e-06
-0.000122488 0.000331511 1.52991e-06
-6.25997e-06 1.52991e-06 0.000217507
0.00144203 -8.44171e-05 -1.98935e-06
-8.44171e-05 2.92073e-05 2.90607e-07
-1.98935e-06 2.90607e-07 -8.25205e-05
0.00138296 -0.000127213 -2.10958e-06
-0.000127213 7.12003e-05 4.76964e-07
-2.10958e-06 4.76964e-07 -5.39497e-05
0.00107649 -0.000134361 -2.39424e-06
-0.000134361 4.16892e-05 1.7276e-06
-2.39424e-06 1.7276e-06 -9.19692e-05
0.00116326 -0.000134053 1.3247e-06
-0.000134053 -1.95393e-05 2.35325e-07
1.3247e-06 2.35325e-07 -0.00014896
0.000720672 -1.002e-05 -2.41064e-06
-1.002e-05 -5.83999e-06 2.28712e-06
-2.41064e-06 2.28712e-06 -7.6333e-05
0.000753702 1.6525e-06 -1.04407e-06
1.6525e-06 7.06785e-06 3.53588e-07
-1.04407e-06 3.53588e-07 -7.71027e-05
0.000726271 2.43798e-05 -8.76666e-07
2.43798e-05 -1.01382e-05 2.27093e-06
-8.76666e-07 2.27093e-06 -6.11753e-05
0.00170525 1.41879e-07 -2.09532e-06
1.41879e-07 0.000182831 1.22754e-07
-2.09532e-06 1.22754e-07 6.80711e-05
0.00164427 -4.36042e-05 -1.08615e-06
-4.36042e-05 0.000177867 9.35472e-08
-1.08615e-06 9.35472e-08 6.83512e-05
0.00164237 -1.19015e-05 -7.20028e-07
-1.19015e-05 0.000114249 3.99964e-07
-7.20028e-07 3.99964e-07 -7.86824e-07
0.00169517 -6.07199e-05 -7.22584e-08
-6.07199e-05 0.000162253 -2.47298e-07
-7.22584e-08 -2.47298e-07 5.01095e-05
0.000787297 -3.14023e-05 1.06202e-07
-3.14023e-05 3.58378e-05 -2.33046e-07
1.06202e-07 -2.33046e-07 -4.24669e-05
0.000998136 -0.000111491 -2.36998e-07
-0.000111491 0.000126115 3.87864e-07
-2.36998e-07 3.87864e-07 2.46667e-05
0.000812852 -0.000119558 7.01489e-07
-0.000119558 -1.45096e-05 -1.20799e-06
7.01489e-07 -1.20799e-06 -0.000141726
0.00162122 -0.000119887 4.39486e-07
-0.000119887 0.000146657 -2.33543e-07
4.39486e-07 -2.33543e-07 2.71887e-05
0.00165263 -8.33956e-05 -4.37691e-09
-8.33956e-05 0.000110479 2.21814e-07
-4.37691e-09 2.21814e-07 1.85332e-06
0.00133931 -0.00015653 -1.56649e-07
-0.00015653 0.000150449 4.52764e-07
-1.56649e-07 4.52764e-07 8.0605e-06
0.00149556 -0.000133678 -2.70572e-07
-0.000133678 8.57402e-05 -3.42304e-07
-2.70572e-07 -3.42304e-07 -3.77774e-05
0.00170594 -0.000161835 1.23994e-06
-0.000161835 0.000237657 1.26658e-06
1.23994e-06 1.26658e-06 0.00011331
0.000918822 -5.74322e-05 -2.91856e-07
-5.74322e-05 9.48964e-05 -1.7352e-07
-2.91856e-07 -1.7352e-07 4.51545e-06
0.000932616 -9.44072e-05 -3.19274e-07
-9.44072e-05 0.000113034 3.82784e-07
-3.19274e-07 3.82784e-07 1.29319e-05
0.000755137 2.28807e-05 1.58075e-07
2.28807e-05 1.63809e-06 8.8027e-08
1.58075e-07 8.8027e-08 -4.33338e-05
0.000732652 2.36575e-05 -1.41162e-07
2.36575e-05 -6.51859e-06 -4.97728e-07
-1.41162e-07 -4.97728e-07 -8.19743e-05
0.00164124 -1.71684e-06 1.6385e-06
-1.71684e-06 0.000103158 -6.23451e-07
1.6385e-06 -6.23451e-07 -1.4223e-05
0.00178201 -3.80752e-05 9.47545e-07
-3.80752e-05 0.000200407 1.68177e-07
9.47545e-07 1.68177e-07 8.70742e-05
0.00172968 -1.6066e-05 3.98601e-07
-1.6066e-05 0.000127471 4.41955e-08
3.98601e-07 4.41955e-08 1.47792e-05
0.00162525 -5.53985e-05 -7.92252e-07
-5.53985e-05 8.89127e-05 -4.44762e-07
-7.92252e-07 -4.44762e-07 -1.82595e-05
0.00157811 -0.00011382 -8.34382e-07
-0.00011382 7.56692e-05 7.21816e-07
-8.34382e-07 7.21816e-07 -3.98781e-05
0.00165881 -7.78004e-05 2.84568e-07
-7.78004e-05 9.12334e-05 4.52882e-07
2.84568e-07 4.52882e-07 -1.32039e-05
0.000888004 -0.000100112 1.23088e-06
-0.000100112 7.53992e-05 2.23404e-07
1.23088e-06 2.23404e-07 -1.89701e-05
0.0015865 -0.000139024 -3.78119e-06
-0.000139024 0.000103064 -2.66149e-07
-3.78119e-06 -2.66149e-07 -1.16372e-05
0.000584667 -9.98678e-05 -2.31784e-07
-9.98678e-05 -9.29461e-05 -1.78189e-06
-2.31784e-07 -1.78189e-06 -0.000208151
0.00114498 -0.000147759 2.62352e-06
-0.000147759 0.000136602 -2.07708e-06
2.62352e-06 -2.07708e-06 -8.64723e-06
0.00143671 -0.000170057 1.41989e-06
-0.000170057 0.000176838 2.77079e-06
1.41989e-06 2.77079e-06 3.08175e-05
0.0020626 -0.000181919 -4.44758e-07
-0.000181919 0.000391982 5.92908e-07
-4.44758e-07 5.92908e-07 0.000268703
0.000765958 1.82993e-05 1.68809e-06
1.82993e-05 3.5305e-06 -1.84817e-06
1.68809e-06 -1.84817e-06 -3.77263e-05
0.000712175 9.1937e-06 3.6069e-07
9.1937e-06 -1.37614e-05 -1.28726e-06
3.6069e-07 -1.28726e-06 -8.64949e-05
0.000929625 -0.000112052 1.3426e-07
-0.000112052 0.000107297 1.18763e-06
1.3426e-07 1.18763e-06 4.64025e-06
0.000942462 -6.84619e-05 9.33554e-07
-6.84619e-05 0.00011633 -1.30516e-07
9.33554e-07 -1.30516e-07 2.58841e-05
0.000926976 -0.000111616 -8.24334e-07
-0.000111616 0.000113397 1.88198e-06
-8.24334e-07 1.88198e-06 8.10536e-06
0.00067057 -4.09977e-05 -2.20287e-06
-4.09977e-05 -3.50577e-05 -3.40994e-06
-2.20287e-06 -3.40994e-06 -4.64635e-05
0.00141081 0.000107125 -3.70476e-06
0.000107125 7.84446e-05 -1.16586e-06
-3.70476e-06 -1.16586e-06 -4.14369e-05
0.000735432 -5.24969e-05 -6.17882e-07
-5.24969e-05 3.36732e-06 -1.82699e-06
-6.17882e-07 -1.82699e-06 -4.209e-05
0.000799977 -8.30146e-06 -4.27797e-07
-8.30146e-06 4.36962e-05 -2.63581e-06
-4.27797e-07 -2.63581e-06 -2.51082e-05
0.000857511 -5.0918e-06 4.99315e-07
-5.0918e-06 7.28663e-05 -9.94069e-07
4.99315e-07 -9.94069e-07 -7.03718e-06
0.00116465 0.000129768 -3.53545e-06
0.000129768 6.39657e-05 -2.34497e-06
-3.53545e-06 -2.34497e-06 -5.50805e-05
0.00144013 0.000135956 -1.97023e-06
0.000135956 9.11277e-05 -7.8081e-07
-1.97023e-06 -7.8081e-07 -4.15177e-05
0.000903844 0.000100524 -1.47774e-06
0.000100524 8.80192e-05 -8.11725e-07
-1.47774e-06 -8.11725e-07 -1.39542e-05
0.0011383 0.000136379 -2.00657e-06
0.000136379 0.000190514 -1.46661e-06
-2.00657e-06 -1.46661e-06 5.83392e-05
0.00160639 0.00015941 -1.50337e-06
0.00015941 0.000327347 -2.43047e-06
-1.50337e-06 -2.43047e-06 0.000205774
0.00103731 0.000134556 -3.50735e-06
0.000134556 6.94557e-05 1.95496e-06
-3.50735e-06 1.95496e-06 -4.85395e-05
0.000705427 -3.7396e-05 8.0364e-08
-3.7396e-05 -2.50113e-05 2.64663e-08
8.0364e-08 2.64663e-08 -3.34355e-05
0.000751324 -4.36565e-05 -1.91458e-07
-4.36565e-05 3.97086e-06 9.36949e-08
-1.91458e-07 9.36949e-08 -3.40575e-05
0.000926783 5.25664e-05 5.18306e-07
5.25664e-05 0.000105435 -7.68551e-08
5.18306e-07 -7.68551e-08 1.40617e-05
0.000815459 -1.51964e-05 -1.75272e-07
-1.51964e-05 4.4647e-05 1.41368e-07
-1.75272e-07 1.41368e-07 -2.30408e-05
0.000861917 5.60176e-05 5.53825e-07
5.60176e-05 8.56619e-05 -2.31207e-07
5.53825e-07 -2.31207e-07 -1.1181e-05
0.00151688 0.000110435 1.30974e-06
0.000110435 8.25001e-05 8.62684e-08
1.30974e-06 8.62684e-08 -4.31279e-05
0.00130005 0.000144226 -1.6267e-08
0.000144226 9.24446e-05 4.69762e-07
-1.6267e-08 4.69762e-07 -3.68205e-05
0.00152626 0.000145 1.00122e-06
0.000145 0.000104471 9.33653e-07
1.00122e-06 9.33653e-07 -3.03235e-05
0.00101344 0.000121743 1.04586e-06
0.000121743 0.000157318 1.24745e-06
1.04586e-06 1.24745e-06 3.20249e-05
0.00140539 0.000156364 1.0515e-06
0.000156364 0.000197642 -1.35886e-06
1.0515e-06 -1.35886e-06 7.38027e-05
0.000813603 0.000124114 -1.80138e-06
0.000124114 -1.23549e-05 -9.48972e-07
-1.80138e-06 -9.48972e-07 -0.00015282
0.000767862 -3.4022e-05 1.28967e-06
-3.4022e-05 5.97886e-06 1.63555e-06
1.28967e-06 1.63555e-06 -2.77596e-05
0.000811092 1.21527e-07 4.85203e-07
1.21527e-07 3.48995e-05 1.07977e-06
4.85203e-07 1.07977e-06 -2.20381e-05
0.0010549 0.000116523 1.63721e-07
0.000116523 0.000186887 -6.15604e-08
1.63721e-07 -6.15604e-08 7.38931e-05
0.000866556 7.62617e-06 5.07467e-07
7.62617e-06 8.12291e-05 5.72969e-07
5.07467e-07 5.72969e-07 -1.68024e-06
0.00106687 5.65394e-05 -3.48922e-07
5.65394e-05 0.000195533 -1.98949e-06
-3.48922e-07 -1.98949e-06 8.96804e-05
0.00160655 0.000108982 -1.37615e-06
0.000108982 9.67233e-05 -1.68134e-06
-1.37615e-06 -1.68134e-06 -2.69328e-05
0.00140807 0.000158383 5.24765e-07
0.000158383 0.000116406 2.82621e-06
5.24765e-07 2.82621e-06 -1.58315e-05
0.00140702 0.000153686 -4.34733e-06
0.000153686 2.37109e-05 -9.79173e-08
-4.34733e-06 -9.79173e-08 -0.000102934
0.000847849 0.00011816 3.73764e-07
0.00011816 7.58631e-05 2.3164e-06
3.73764e-07 2.3164e-06 -7.13236e-05
0.00124924 0.000161652 3.50404e-06
0.000161652 0.000140076 -5.48557e-07
3.50404e-06 -5.48557e-07 -1.03903e-06
0.000776795 -2.65661e-05 2.84026e-08
-2.65661e-05 5.62621e-06 -6.26677e-10
2.84026e-08 -6.26677e-10 -2.55734e-05
0.000664514 -1.84405e-05 7.99924e-07
-1.84405e-05 -4.99119e-05 1.2748e-06
7.99924e-07 1.2748e-06 -9.90484e-05
0.000741969 -2.18763e-05 -6.98548e-07
-2.18763e-05 -8.05584e-06 -2.49856e-08
-6.98548e-07 -2.49856e-08 -5.64531e-05
0.000992842 1.3974e-05 1.09989e-06
1.3974e-05 0.000139715 -1.66383e-07
1.09989e-06 -1.66383e-07 7.87084e-05
0.000823365 1.38644e-05 1.68323e-06
1.38644e-05 3.31446e-05 7.70252e-07
1.68323e-06 7.70252e-07 -1.44453e-05
0.000798368 -8.09023e-06 8.9048e-07
-8.09023e-06 6.19549e-06 1.74461e-06
8.9048e-07 1.74461e-06 -2.19374e-05
0.000792589 -1.75488e-05 -3.51661e-08
-1.75488e-05 6.27968e-06 1.94653e-08
-3.51661e-08 1.94653e-08 -2.22002e-05
0.00125868 -2.88997e-05 1.184e-06
-2.88997e-05 0.000258968 2.02176e-06
1.184e-06 2.02176e-06 0.000259587
0.000782647 -2.13728e-05 -1.11926e-06
-2.13728e-05 5.2349e-06 -1.76266e-06
-1.11926e-06 -1.76266e-06 -2.44833e-05
0.00127952 -3.36767e-05 -4.10647e-06
-3.36767e-05 0.000275936 -1.15854e-06
-4.10647e-06 -1.15854e-06 0.000275118
0.000963546 -2.70352e-05 1.92133e-05
-2.70352e-05 0.000105748 6.1762e-06
1.92133e-05 6.1762e-06 0.000119437
0.00126763 -3.75756e-05 -9.38572e-06
-3.75756e-05 0.000276631 -3.09077e-06
-9.38572e-06 -3.09077e-06 0.000273929
0.00148298 -3.95845e-05 1.75174e-05
-3.95845e-05 0.000399997 1.95269e-06
1.75174e-05 1.95269e-06 0.000414522
0.00206194 -5.37843e-05 -2.5129e-05
-5.37843e-05 0.000725012 -3.35063e-06
-2.5129e-05 -3.35063e-06 0.000740641
0.00068118 3.55752e-05 1.85907e-06
3.55752e-05 -3.97416e-05 -3.72982e-06
1.85907e-06 -3.72982e-06 -5.24383e-05
0.000686434 4.05595e-05 -1.22354e-07
4.05595e-05 -2.95632e-05 3.04803e-08
-1.22354e-07 3.04803e-08 -4.54753e-05
0.0023491 6.39674e-05 3.12572e-05
6.39674e-05 0.000887724 -3.47869e-06
3.12572e-05 -3.47869e-06 0.000899377
0.00247752 7.1686e-05 -1.16453e-06
7.1686e-05 0.000965733 -1.24984e-07
-1.16453e-06 -1.24984e-07 0.000974865
0.00068923 5.13109e-05 -1.04122e-06
5.13109e-05 -1.82207e-05 4.38106e-06
-1.04122e-06 4.38106e-06 -3.8884e-05
0.0026474 7.77316e-05 -4.68565e-05
7.77316e-05 0.00106348 3.1101e-06
-4.68565e-05 3.1101e-06 0.0010705
0.00144296 8.56027e-05 -4.64196e-06
8.56027e-05 7.605e-05 -5.83567e-07
-4.64196e-06 -5.83567e-07 -3.86507e-05
0.00147233 4.22779e-05 -4.25773e-06
4.22779e-05 7.85558e-05 -1.06048e-06
-4.25773e-06 -1.06048e-06 -3.51738e-05
0.00155814 6.84314e-05 -1.20182e-06
6.84314e-05 8.57842e-05 -2.99509e-07
-1.20182e-06 -2.99509e-07 -2.97592e-05
0.00157519 2.36564e-05 -1.19285e-06
2.36564e-05 7.14836e-05 -2.45874e-07
-1.19285e-06 -2.45874e-07 -4.43094e-05
0.0015215 2.14726e-05 -4.32566e-06
2.14726e-05 7.97714e-05 -6.95003e-07
-4.32566e-06 -6.95003e-07 -3.73284e-05
0.00124581 6.15822e-06 -9.7624e-06
6.15822e-06 1.47836e-05 -4.79504e-09
-9.7624e-06 -4.79504e-09 -8.69773e-05
0.00151685 1.01328e-05 6.53603e-08
1.01328e-05 7.49266e-05 -7.88883e-08
6.53603e-08 -7.88883e-08 -4.22876e-05
0.00160668 9.63721e-06 -9.1456e-08
9.63721e-06 7.27563e-05 9.43101e-09
-9.1456e-08 9.43101e-09 -4.4652e-05
0.00159743 4.47251e-05 2.64329e-08
4.47251e-05 9.63265e-05 -1.275e-07
2.64329e-08 -1.275e-07 -1.96265e-05
0.00174031 2.50962e-05 1.09073e-07
2.50962e-05 0.000123891 1.14789e-07
1.09073e-07 1.14789e-07 1.41732e-05
0.00155943 8.6119e-05 -2.78361e-07
8.6119e-05 8.83388e-05 3.38959e-07
-2.78361e-07 3.38959e-07 -2.90543e-05
0.00161619 6.0321e-05 -4.94271e-08
6.0321e-05 7.98704e-05 3.08428e-07
-4.94271e-08 3.08428e-07 -2.85101e-05
0.00161919 1.34422e-07 1.69985e-06
1.34422e-07 8.08953e-05 -6.56176e-08
1.69985e-06 -6.56176e-08 -3.70219e-05
0.00175678 2.4642e-05 -1.82043e-07
2.4642e-05 0.000114725 3.42081e-07
-1.82043e-07 3.42081e-07 1.90808e-06
0.0016164 3.94881e-05 -1.19908e-06
3.94881e-05 6.44425e-05 -3.13499e-08
-1.19908e-06 -3.13499e-08 -4.32524e-05
0.00184404 2.92274e-05 -2.37077e-07
2.92274e-05 0.000156165 6.8693e-08
-2.37077e-07 6.8693e-08 5.21137e-05
0.00161392 7.90014e-05 -1.327e-06
7.90014e-05 8.22715e-05 -8.23979e-07
-1.327e-06 -8.23979e-07 -3.05769e-05
0.00166229 5.39941e-05 -5.63342e-07
5.39941e-05 8.11335e-05 -5.54243e-08
-5.63342e-07 -5.54243e-08 -1.97891e-05
0.00150443 6.33245e-07 -6.2167e-06
6.33245e-07 7.32121e-05 7.42194e-07
-6.2167e-06 7.42194e-07 -4.33043e-05
0.0016562 -4.53067e-05 -5.91371e-06
-4.53067e-05 0.000184032 1.11483e-06
-5.91371e-06 1.11483e-06 7.43937e-05
0.00148854 -1.1066e-05 -2.13246e-06
-1.1066e-05 3.00656e-05 6.52987e-07
-2.13246e-06 6.52987e-07 -8.50766e-05
0.00181628 -6.08392e-05 -1.65756e-06
-6.08392e-05 0.000226237 3.10356e-07
-1.65756e-06 3.10356e-07 0.000114547
0.000815544 -3.64817e-05 -2.7527e-06
-3.64817e-05 4.94143e-05 1.93807e-06
-2.7527e-06 1.93807e-06 -2.88054e-05
0.0011027 -0.000118091 -1.73843e-06
-0.000118091 0.000180173 1.09443e-06
-1.73843e-06 1.09443e-06 7.78979e-05
0.000906632 -0.000122756 -7.02862e-07
-0.000122756 4.01731e-05 6.95022e-07
-7.02862e-07 6.95022e-07 -8.5288e-05
0.00175296 -0.000123384 -2.1398e-06
-0.000123384 0.000220762 -2.14476e-07
-2.1398e-06 -2.14476e-07 0.000101446
0.00153364 -7.99864e-05 1.97999e-07
-7.99864e-05 4.65809e-05 -2.19491e-07
1.97999e-07 -2.19491e-07 -6.16266e-05
0.00154073 -0.000134076 4.60731e-07
-0.000134076 0.00010835 -5.07518e-08
4.60731e-07 -5.07518e-08 -1.49215e-05
0.00102304 -0.000141019 -1.70164e-06
-0.000141019 -1.50018e-05 5.27936e-07
-1.70164e-06 5.27936e-07 -0.00015794
0.00141145 -0.000149346 3.14478e-06
-0.000149346 8.09395e-05 -1.25558e-06
3.14478e-06 -1.25558e-06 -4.13924e-05
0.000938354 -4.88852e-05 -1.29295e-06
-4.88852e-05 0.000104913 -1.97e-07
-1.29295e-06 -1.97e-07 1.53949e-05
0.000903401 -6.73485e-05 -6.3542e-07
-6.73485e-05 9.10553e-05 -3.76703e-07
-6.3542e-07 -3.76703e-07 -5.84901e-06
0.000747821 2.05038e-05 -1.27218e-06
2.05038e-05 -2.33895e-06 1.99396e-06
-1.27218e-06 1.99396e-06 -4.73162e-05
0.000723143 3.75071e-05 -3.63131e-08
3.75071e-05 -1.3474e-05 3.32907e-07
-3.63131e-08 3.32907e-07 -8.66753e-05
0.00164239 -1.24157e-06 -8.12043e-08
-1.24157e-06 0.000102426 -2.02445e-07
-8.12043e-08 -2.02445e-07 -1.49763e-05
0.00179596 -3.56996e-05 -7.25905e-07
-3.56996e-05 0.0002076 3.3107e-07
-7.25905e-07 3.3107e-07 9.37982e-05
0.00166884 -1.54726e-05 -4.31636e-07
-1.54726e-05 9.75165e-05 1.09454e-07
-4.31636e-07 1.09454e-07 -1.46903e-05
0.00161028 -5.49625e-05 -5.03866e-10
-5.49625e-05 8.41157e-05 -1.63417e-07
-5.03866e-10 -1.63417e-07 -2.36289e-05
0.000967831 -8.78177e-05 -2.87355e-07
-8.78177e-05 0.00011518 1.90511e-07
-2.87355e-07 1.90511e-07 2.20466e-05
0.000697546 -0.000105102 5.72844e-07
-0.000105102 -3.16241e-05 -6.46726e-07
5.72844e-07 -6.46726e-07 -0.000145297
0.00115882 -0.000147376 1.22539e-07
-0.000147376 0.000146575 -7.96392e-08
1.22539e-07 -7.96392e-08 7.14568e-07
0.00164512 -0.000116074 -4.03053e-07
-0.000116074 0.000113069 -2.46723e-08
-4.03053e-07 -2.46723e-08 -2.99017e-06
0.00163468 -7.76367e-05 4.46238e-07
-7.76367e-05 7.68678e-05 -3.55007e-07
4.46238e-07 -3.55007e-07 -2.69797e-05
0.00141606 -0.000167443 -4.11542e-07
-0.000167443 0.000166341 8.98842e-07
-4.11542e-07 8.98842e-07 1.95513e-05
0.00155662 -0.000137821 -4.31398e-07
-0.000137821 8.6117e-05 -9.6294e-08
-4.31398e-07 -9.6294e-08 -2.85774e-05
0.00164866 -0.000163191 1.48961e-06
-0.000163191 0.000181803 -9.27343e-07
1.48961e-06 -9.27343e-07 6.36881e-05
0.000996828 -0.000116114 6.32684e-08
-0.000116114 0.000142646 5.87091e-09
6.32684e-08 5.87091e-09 3.96737e-05
0.000960322 -0.000105366 1.58297e-07
-0.000105366 0.000128723 2.21619e-07
1.58297e-07 2.21619e-07 2.45879e-05
0.000909023 -4.25915e-05 -2.56127e-07
-4.25915e-05 9.59984e-05 -8.82378e-08
-2.56127e-07 -8.82378e-08 7.55426e-06
0.000645482 2.51722e-05 -2.59419e-07
2.51722e-05 -6.14311e-05 2.65634e-08
-2.59419e-07 2.65634e-08 -0.000103977
0.000715506 2.58624e-05 9.24625e-08
2.58624e-05 -1.59842e-05 -3.53986e-07
9.24625e-08 -3.53986e-07 -8.54252e-05
0.00172567 -6.92018e-06 7.98392e-07
-6.92018e-06 0.000104618 -3.32434e-07
7.98392e-07 -3.32434e-07 -8.35866e-06
0.00167403 -2.61065e-05 5.54928e-08
-2.61065e-05 9.40485e-05 4.79247e-08
5.54928e-08 4.79247e-08 -1.55934e-05
0.00165688 -6.07047e-05 -8.73753e-08
-6.07047e-05 7.95259e-05 -3.01078e-08
-8.73753e-08 -3.01078e-08 -1.91907e-05
0.00158625 -0.000103178 -4.76429e-07
-0.000103178 4.49778e-05 1.64331e-07
-4.76429e-07 1.64331e-07 -6.12179e-05
0.000897711 -0.000112533 -3.01298e-07
-0.000112533 8.57807e-05 9.33075e-07
-3.01298e-07 9.33075e-07 -1.9381e-05
0.00176148 -0.000155575 -1.11218e-06
-0.000155575 0.000152139 -1.44845e-06
-1.11218e-06 -1.44845e-06 4.26014e-05
0.000217099 -8.2217e-05 2.34156e-07
-8.2217e-05 -0.000285136 -3.47468e-06
2.34156e-07 -3.47468e-06 -0.00041013
0.0012751 -0.000164997 3.68413e-06
-0.000164997 0.000178851 -1.37132e-06
3.68413e-06 -1.37132e-06 1.47507e-05
0.0017252 -0.000188364 2.10036e-06
-0.000188364 0.000274333 1.81892e-06
2.10036e-06 1.81892e-06 0.00012774
0.000538636 2.34942e-05 1.18996e-06
2.34942e-05 -0.000122628 -2.55394e-06
1.18996e-06 -2.55394e-06 -0.000163254
0.000917165 -3.29281e-07 1.36571e-06
-3.29281e-07 9.55495e-05 -7.03712e-07
1.36571e-06 -7.03712e-07 3.04794e-05
0.000944015 -3.02441e-05 -8.44895e-08
-3.02441e-05 0.000114083 -9.99625e-08
-8.44895e-08 -9.99625e-08 3.38954e-05
0.000936027 -0.000112989 -8.81001e-07
-0.000112989 0.000111409 2.00791e-06
-8.81001e-07 2.00791e-06 6.8027e-06
0.00102207 -6.86813e-05 3.09976e-07
-6.86813e-05 0.000159104 1.12633e-06
3.09976e-07 1.12633e-06 6.17398e-05
0.000887121 -0.000109649 -4.74552e-07
-0.000109649 8.41361e-05 1.63674e-06
-4.74552e-07 1.63674e-06 -2.20303e-05
0.000684405 -3.6524e-05 -1.84038e-06
-3.6524e-05 -3.61815e-05 -3.38473e-06
-1.84038e-06 -3.38473e-06 -4.45043e-05
0.000757 -4.18846e-05 -1.48689e-06
-4.18846e-05 6.49357e-06 -1.48871e-06
-1.48689e-06 -1.48871e-06 -3.11909e-05
0.00155068 0.000112119 -1.04145e-06
0.000112119 9.97454e-05 1.91017e-07
-1.04145e-06 1.91017e-07 -2.61683e-05
0.000833801 -4.2057e-05 3.51537e-07
-4.2057e-05 5.30005e-05 -1.0717e-06
3.51537e-07 -1.0717e-06 -1.32638e-05
0.000841902 4.66167e-05 -4.88162e-07
4.66167e-05 5.83066e-05 -4.81209e-07
-4.88162e-07 -4.81209e-07 -3.11661e-05
0.000810066 3.96588e-05 5.68699e-07
3.96588e-05 5.46556e-05 1.14004e-08
5.68699e-07 1.14004e-08 -4.12207e-05
0.00128133 0.000144143 -1.50176e-06
0.000144143 8.36738e-05 -2.02971e-06
-1.50176e-06 -2.02971e-06 -4.56452e-05
0.00144906 0.000143216 6.45474e-07
0.000143216 6.48845e-05 -2.88583e-08
6.45474e-07 -2.88583e-08 -7.03904e-05
0.000938772 0.000117201 -2.36977e-07
0.000117201 0.000118938 -4.65317e-07
-2.36977e-07 -4.65317e-07 -5.71118e-06
0.00129665 0.000151692 -1.01802e-06
0.000151692 0.000242278 7.90606e-07
-1.01802e-06 7.90606e-07 0.000100834
0.00155243 0.000163135 -2.35162e-06
0.000163135 0.000277448 -2.67603e-06
-2.35162e-06 -2.67603e-06 0.000153528
0.000768642 -3.3157e-05 -3.72531e-08
-3.3157e-05 6.66526e-06 2.2887e-08
-3.72531e-08 2.2887e-08 -2.70477e-05
0.000809691 -2.47903e-05 -3.54898e-07
-2.47903e-05 3.35133e-05 2.39072e-07
-3.54898e-07 2.39072e-07 -2.29409e-05
0.000996721 0.000113231 -5.20053e-07
0.000113231 0.000156793 -1.42448e-07
-5.20053e-07 -1.42448e-07 4.44775e-05
0.000858293 -4.0619e-06 2.64998e-07
-4.0619e-06 7.35764e-05 1.26596e-08
2.64998e-07 1.26596e-08 -7.30363e-06
0.000930775 6.6175e-05 1.10391e-07
6.6175e-05 0.000125812 -7.24483e-07
1.10391e-07 -7.24483e-07 1.77145e-05
0.00158354 0.000110883 -6.58538e-07
0.000110883 8.6082e-05 -5.85039e-07
-6.58538e-07 -5.85039e-07 -3.83283e-05
0.00139515 0.000157603 9.77319e-07
0.000157603 0.000109519 4.33129e-07
9.77319e-07 4.33129e-07 -2.28317e-05
0.00147159 0.000153655 9.60849e-07
0.000153655 5.5462e-05 1.28096e-06
9.60849e-07 1.28096e-06 -6.84207e-05
0.000790296 0.000115327 7.11302e-07
0.000115327 4.39934e-05 1.88403e-06
7.11302e-07 1.88403e-06 -0.000101683
0.00130492 0.000164758 -9.54987e-07
0.000164758 0.000170889 -1.0625e-06
-9.54987e-07 -1.0625e-06 2.62644e-05
0.000807827 -3.50742e-06 8.09079e-07
-3.50742e-06 2.96803e-05 8.44689e-07
8.09079e-07 8.44689e-07 -2.06429e-05
0.000714047 -2.54946e-05 -5.38044e-07
-2.54946e-05 -1.15193e-05 1.45244e-06
-5.38044e-07 1.45244e-06 -8.27689e-05
0.000980822 0.000118923 -9.83556e-07
0.000118923 0.000152557 -1.52641e-06
-9.83556e-07 -1.52641e-06 2.31169e-05
0.000746639 2.39418e-05 -2.28268e-07
2.39418e-05 2.12954e-05 -2.33673e-07
-2.28268e-07 -2.33673e-07 -7.72179e-05
0.00104735 9.05746e-05 -4.29469e-07
9.05746e-05 0.000183151 -2.08243e-06
-4.29469e-07 -2.08243e-06 6.69636e-05
0.00158229 0.000111484 -2.51105e-06
0.000111484 3.56609e-05 -9.35629e-07
-2.51105e-06 -9.35629e-07 -6.6323e-05
0.00191119 0.000198793 -1.27597e-06
0.000198793 0.000363696 1.50045e-07
-1.27597e-06 1.50045e-07 0.00022375
0.000880439 0.000132759 -5.09705e-07
0.000132759 -0.000292941 -3.51061e-07
-5.09705e-07 -3.51061e-07 -0.000406006
0.00180744 0.000177834 3.60484e-06
0.000177834 0.000558613 3.61968e-06
3.60484e-06 3.61968e-06 0.000394879
0.00018636 0.000114922 -3.70559e-07
0.000114922 -0.000430926 -6.51801e-07
-3.70559e-07 -6.51801e-07 -0.000584735
0.000776722 -2.4907e-05 -1.52093e-06
-2.4907e-05 6.00174e-06 -1.58827e-06
-1.52093e-06 -1.58827e-06 -2.52147e-05
0.00074517 -1.32856e-05 1.58904e-07
-1.32856e-05 -5.51463e-06 5.03993e-07
1.58904e-07 5.03993e-07 -5.4612e-05
0.000736779 -4.0567e-05 -1.6615e-07
-4.0567e-05 -4.28722e-06 9.0649e-07
-1.6615e-07 9.0649e-07 -6.54003e-05
0.000692433 -3.97046e-05 -8.43336e-07
-3.97046e-05 -3.53558e-05 -5.25835e-07
-8.43336e-07 -5.25835e-07 -8.38868e-05
0.000823177 -6.04619e-06 1.99891e-07
-6.04619e-06 3.29314e-05 -2.84652e-08
1.99891e-07 -2.84652e-08 -1.44766e-05
0.000848083 -2.149e-05 2.45903e-07
-2.149e-05 5.66099e-05 -3.56071e-07
2.45903e-07 -3.56071e-07 -1.63754e-06
0.000954446 6.39294e-06 8.46687e-08
6.39294e-06 0.000120607 -5.04367e-07
8.46687e-08 -5.04367e-07 5.51567e-05
0.000759521 -3.82645e-05 2.56522e-07
-3.82645e-05 1.07725e-05 2.02699e-07
2.56522e-07 2.02699e-07 -4.8632e-05
0.000850903 -6.19312e-06 3.62555e-07
-6.19312e-06 4.26793e-05 6.61846e-07
3.62555e-07 6.61846e-07 -2.91945e-06
0.000788807 -5.05121e-07 8.77997e-07
-5.05121e-07 2.36108e-07 1.58936e-06
8.77997e-07 1.58936e-06 -2.85373e-05
0.000793449 -1.19243e-05 -1.52837e-07
-1.19243e-05 3.75451e-06 4.6163e-09
-1.52837e-07 4.6163e-09 -2.44527e-05
0.00126334 -2.14499e-05 1.08346e-06
-2.14499e-05 0.000256884 1.97273e-06
1.08346e-06 1.97273e-06 0.000258294
0.000788528 -1.78564e-05 -8.49036e-07
-1.78564e-05 4.26796e-06 -1.7927e-06
-8.49036e-07 -1.7927e-06 -2.42603e-05
0.00127862 -2.70734e-05 -3.46476e-06
-2.70734e-05 0.000269561 -1.16751e-06
-3.46476e-06 -1.16751e-06 0.000270313
0.000962501 -2.23331e-05 1.55478e-05
-2.23331e-05 9.91312e-05 6.23812e-06
1.55478e-05 6.23812e-06 0.000114201
0.00129499 -3.21955e-05 -7.96218e-06
-3.21955e-05 0.000283885 -4.38289e-06
-7.96218e-06 -4.38289e-06 0.000283269
0.0009092 -2.83091e-05 6.29326e-06
-2.83091e-05 7.62095e-05 2.36253e-06
6.29326e-06 2.36253e-06 8.96165e-05
0.00198687 -5.14375e-05 -6.16922e-06
-5.14375e-05 0.00067708 -1.50873e-06
-6.16922e-06 -1.50873e-06 0.000693918
0.000694279 3.17177e-05 1.34339e-06
3.17177e-05 -3.9238e-05 -3.62094e-06
1.34339e-06 -3.62094e-06 -4.91686e-05
0.00069694 3.62096e-05 -1.3652e-07
3.62096e-05 -3.12686e-05 2.60976e-08
-1.3652e-07 2.60976e-08 -4.40882e-05
0.00228218 5.63695e-05 2.71084e-05
5.63695e-05 0.000843595 -3.66519e-06
2.71084e-05 -3.66519e-06 0.000857478
0.00070453 4.1962e-05 -2.20171e-06
4.1962e-05 -1.94798e-05 3.90452e-06
-2.20171e-06 3.90452e-06 -3.56646e-05
0.00237639 6.40934e-05 -1.34891e-06
6.40934e-05 0.000903445 -1.12145e-07
-1.34891e-06 -1.12145e-07 0.000914879
0.00251363 7.10675e-05 -4.03269e-05
7.10675e-05 0.00098562 3.19886e-06
-4.03269e-05 3.19886e-06 0.000994744
0.001542 8.65992e-05 -2.18413e-06
8.65992e-05 7.85907e-05 6.48089e-07
-2.18413e-06 6.48089e-07 -3.89434e-05
0.00160243 4.31434e-05 -9.78429e-07
4.31434e-05 9.92533e-05 -4.48508e-07
-9.78429e-07 -4.48508e-07 -1.67e-05
0.00159506 6.02218e-05 1.98795e-06
6.02218e-05 6.73266e-05 5.0681e-07
1.98795e-06 5.0681e-07 -4.03598e-05
0.00172731 2.60855e-05 6.9494e-07
2.60855e-05 0.000116277 1.40263e-08
6.9494e-07 1.40263e-08 7.62894e-06
0.00160995 3.68878e-06 -1.15925e-06
3.68878e-06 7.4258e-05 -2.82701e-07
-1.15925e-06 -2.82701e-07 -4.33682e-05
0.00151936 1.34134e-05 -4.26833e-06
1.34134e-05 7.62519e-05 5.96477e-08
-4.26833e-06 5.96477e-08 -4.09962e-05
0.00163084 3.50743e-06 -1.00716e-09
3.50743e-06 8.673e-05 -4.92138e-08
-1.00716e-09 -4.92138e-08 -3.15691e-05
0.00175782 1.93184e-05 2.61922e-07
1.93184e-05 0.000116837 -4.29892e-08
2.61922e-07 -4.29892e-08 3.55879e-06
0.00163292 3.71464e-05 -5.01867e-07
3.71464e-05 7.30731e-05 -1.24811e-07
-5.01867e-07 -1.24811e-07 -3.54799e-05
0.0017836 2.99876e-05 6.18751e-07
2.99876e-05 0.000120266 -1.88908e-07
6.18751e-07 -1.88908e-07 1.69268e-05
0.00162078 7.96812e-05 -5.75138e-07
7.96812e-05 8.75056e-05 2.77433e-07
-5.75138e-07 2.77433e-07 -2.54156e-05
0.00165575 5.66219e-05 1.85261e-06
5.66219e-05 7.46231e-05 2.19469e-08
1.85261e-06 2.19469e-08 -2.51678e-05
0.00174419 6.4999e-06 3.186e-08
6.4999e-06 0.000106332 1.0759e-07
3.186e-08 1.0759e-07 -8.00028e-06
0.00174712 2.53622e-05 -5.36654e-07
2.53622e-05 9.18078e-05 3.77516e-07
-5.36654e-07 3.77516e-07 -1.35609e-05
0.00176884 4.13459e-05 -8.71245e-07
4.13459e-05 0.000104557 1.09274e-07
-8.71245e-07 1.09274e-07 6.52682e-06
0.00170087 8.01224e-05 -1.22453e-06
8.01224e-05 9.28844e-05 -4.29183e-07
-1.22453e-06 -4.29183e-07 -4.49027e-06
0.00163809 -7.83289e-07 -1.5414e-06
-7.83289e-07 9.89379e-05 2.15745e-07
-1.5414e-06 2.15745e-07 -1.8497e-05
0.0018154 -3.48937e-05 -2.55448e-06
-3.48937e-05 0.000217497 6.28448e-07
-2.55448e-06 6.28448e-07 0.000103195
0.00161468 -1.49094e-05 -1.34566e-06
-1.49094e-05 7.09095e-05 6.14162e-07
-1.34566e-06 6.14162e-07 -4.08006e-05
0.00159994 -5.39806e-05 2.52344e-07
-5.39806e-05 8.16653e-05 5.58907e-08
2.52344e-07 5.58907e-08 -2.66193e-05
0.00105134 -8.86225e-05 -1.43875e-06
-8.86225e-05 0.000159464 9.87169e-08
-1.43875e-06 9.87169e-08 6.56663e-05
0.000835518 -0.000112095 7.05755e-07
-0.000112095 4.3018e-05 2.51792e-07
7.05755e-07 2.51792e-07 -6.9325e-05
0.00120536 -0.000148697 -1.58765e-06
-0.000148697 0.00017415 2.53047e-06
-1.58765e-06 2.53047e-06 2.7492e-05
0.00172498 -0.00011861 -6.58669e-07
-0.00011861 0.000157227 -6.92219e-07
-6.58669e-07 -6.92219e-07 4.0663e-05
0.00161502 -7.76733e-05 -1.78719e-07
-7.76733e-05 6.47533e-05 -9.00495e-07
-1.78719e-07 -9.00495e-07 -3.85174e-05
0.00151511 -0.000136347 2.07872e-06
-0.000136347 6.29561e-05 2.33553e-07
2.07872e-06 2.33553e-07 -5.17454e-05
0.00140185 -0.000165063 -1.51909e-06
-0.000165063 0.000158749 -8.06495e-07
-1.51909e-06 -8.06495e-07 1.12318e-05
0.00135762 -0.000149318 4.21487e-07
-0.000149318 3.53732e-05 -1.61514e-06
4.21487e-07 -1.61514e-06 -7.79516e-05
0.00106129 -0.000120029 1.76233e-08
-0.000120029 0.000176708 -1.08435e-06
1.76233e-08 -1.08435e-06 7.34042e-05
0.00101166 -0.000109356 2.14105e-07
-0.000109356 0.000155234 -1.80655e-06
2.14105e-07 -1.80655e-06 5.07915e-05
0.000868637 -1.85548e-05 3.12044e-07
-1.85548e-05 7.32208e-05 1.29292e-07
3.12044e-07 1.29292e-07 -1.39285e-05
0.000527603 2.38608e-05 -1.47183e-06
2.38608e-05 -0.000125612 1.91074e-06
-1.47183e-06 1.91074e-06 -0.000169037
0.000725867 3.83079e-05 -1.1937e-09
3.83079e-05 -1.31522e-05 3.6381e-07
-1.1937e-09 3.6381e-07 -8.02255e-05
0.00172554 -7.84822e-06 2.66996e-08
-7.84822e-06 0.000107343 -3.84279e-08
2.66996e-08 -3.84279e-08 -5.53237e-06
0.001728 -2.67921e-05 1.25159e-07
-2.67921e-05 0.000122796 3.77282e-09
1.25159e-07 3.77282e-09 1.37064e-05
0.00170335 -6.10106e-05 -7.16763e-07
-6.10106e-05 0.000104986 -1.88811e-07
-7.16763e-07 -1.88811e-07 5.09872e-06
0.00101095 -0.000118783 -5.08279e-08
-0.000118783 0.000144678 3.56313e-07
-5.08279e-08 3.56313e-07 3.88786e-05
0.000719514 -0.000110287 1.64023e-06
-0.000110287 -1.95429e-05 -1.49839e-06
1.64023e-06 -1.49839e-06 -0.00014469
0.00125865 -0.000162504 -4.5731e-07
-0.000162504 0.000174182 4.08075e-08
-4.5731e-07 4.08075e-08 8.0067e-06
0.00162761 -0.000103102 5.17516e-07
-0.000103102 6.69421e-05 -2.77672e-07
5.17516e-07 -2.77672e-07 -3.91154e-05
0.00162143 -0.000179642 5.16559e-07
-0.000179642 0.000220914 -1.69401e-06
5.16559e-07 -1.69401e-06 7.81918e-05
0.00173041 -0.000157225 -1.01014e-06
-0.000157225 0.00014126 -4.30957e-07
-1.01014e-06 -4.30957e-07 3.14056e-05
0.000536869 2.63183e-05 3.2276e-08
2.63183e-05 -0.000123754 -6.2958e-07
3.2276e-08 -6.2958e-07 -0.000164002
0.001004 -0.000117018 -3.16847e-09
-0.000117018 0.000147002 2.29292e-07
-3.16847e-09 2.29292e-07 4.19517e-05
0.000896777 -0.000109663 -5.00728e-07
-0.000109663 9.0126e-05 3.82109e-07
-5.00728e-07 3.82109e-07 -1.54011e-05
0.00101648 -7.46592e-05 -3.30417e-07
-7.46592e-05 0.000159103 8.3358e-07
-3.30417e-07 8.3358e-07 5.92791e-05
0.000965784 -2.57272e-05 -1.17887e-08
-2.57272e-05 0.000126464 1.94962e-08
-1.17887e-08 1.94962e-08 4.63097e-05
0.000805561 1.48171e-05 -1.6168e-07
1.48171e-05 3.16002e-05 2.69648e-07
-1.6168e-07 2.69648e-07 -3.21046e-05
0.00169376 -1.71102e-05 5.74827e-08
-1.71102e-05 6.93825e-05 -1.62677e-08
5.74827e-08 -1.62677e-08 -3.92016e-05
0.00177565 -4.17895e-05 -8.14053e-07
-4.17895e-05 0.000113417 -2.06691e-07
-8.14053e-07 -2.06691e-07 1.64345e-05
0.00162347 -7.66261e-05 5.96924e-08
-7.66261e-05 3.54326e-05 5.37728e-07
5.96924e-08 5.37728e-07 -5.91863e-05
0.0018637 -0.000129782 -1.50813e-06
-0.000129782 0.000146395 -1.59326e-07
-1.50813e-06 -1.59326e-07 4.89989e-05
0.000951311 -0.00011722 -1.10638e-06
-0.00011722 0.000116227 7.59177e-07
-1.10638e-06 7.59177e-07 5.15525e-06
0.00149821 -0.000171685 1.85678e-06
-0.000171685 3.94868e-05 3.3219e-07
1.85678e-06 3.3219e-07 -8.45041e-05
0.000723285 -0.000119248 -4.92484e-07
-0.000119248 -3.07071e-05 -3.845e-06
-4.92484e-07 -3.845e-06 -0.000183886
0.00173738 -0.000197139 1.30985e-06
-0.000197139 0.000386853 1.14297e-06
1.30985e-06 1.14297e-06 0.000208279
0.000559966 2.19056e-05 7.73188e-07
2.19056e-05 -0.000113991 -2.45861e-06
7.73188e-07 -2.45861e-06 -0.000151231
0.000919306 -3.65281e-07 1.14388e-06
-3.65281e-07 9.3913e-05 -9.20202e-07
1.14388e-06 -9.20202e-07 3.37843e-05
0.00100469 -3.9528e-05 1.17061e-07
-3.9528e-05 0.000148287 6.64642e-07
1.17061e-07 6.64642e-07 7.16322e-05
0.00092468 -1.71188e-05 3.27816e-07
-1.71188e-05 0.000105298 -7.83896e-07
3.27816e-07 -7.83896e-07 1.60846e-05
0.00106077 -0.000120986 -5.84883e-07
-0.000120986 0.000175135 1.78448e-06
-5.84883e-07 1.78448e-06 6.58775e-05
0.000946243 -0.000114606 -2.28095e-06
-0.000114606 0.000114557 2.81838e-06
-2.28095e-06 2.81838e-06 6.69069e-06
0.000769139 -3.21678e-05 -1.63931e-06
-3.21678e-05 7.10063e-06 -1.50163e-06
-1.63931e-06 -1.50163e-06 -2.6546e-05
0.000798487 -4.33706e-05 -1.99285e-07
-4.33706e-05 2.75326e-05 -8.5268e-07
-1.99285e-07 -8.5268e-07 -2.89051e-05
0.00157016 0.000113149 1.15726e-07
0.000113149 8.03941e-05 5.55185e-07
1.15726e-07 5.55185e-07 -4.47827e-05
0.000862517 -1.82045e-05 2.60844e-07
-1.82045e-05 7.29807e-05 -4.70861e-07
2.60844e-07 -4.70861e-07 -6.0612e-06
0.000926876 0.000109265 -2.18912e-08
0.000109265 0.000120789 -4.14193e-07
-2.18912e-08 -4.14193e-07 9.17528e-06
0.000808567 4.5893e-05 2.06238e-07
4.5893e-05 5.7911e-05 -9.71145e-08
2.06238e-07 -9.71145e-08 -4.83511e-05
0.00139246 0.000157349 -6.98448e-07
0.000157349 0.000107846 -2.3282e-06
-6.98448e-07 -2.3282e-06 -2.46482e-05
0.00154849 0.000154344 2.324e-06
0.000154344 9.32969e-05 5.31374e-08
2.324e-06 5.31374e-08 -2.78625e-05
0.000647586 0.000107563 1.80425e-07
0.000107563 -3.38521e-05 7.95628e-07
1.80425e-07 7.95628e-07 -0.00017824
0.00144875 0.000172773 -1.03411e-06
0.000172773 0.000249981 -2.48208e-08
-1.03411e-06 -2.48208e-08 0.000101081
0.000801422 -2.01783e-05 -4.05781e-07
-2.01783e-05 2.65297e-05 1.16098e-07
-4.05781e-07 1.16098e-07 -2.41284e-05
0.000777621 -1.3706e-05 -4.77222e-08
-1.3706e-05 2.24349e-05 7.25743e-07
-4.77222e-08 7.25743e-07 -4.87243e-05
0.00105023 0.000122411 -3.26277e-07
0.000122411 0.000193292 -1.39555e-06
-3.26277e-07 -1.39555e-06 6.54136e-05
0.000792653 -8.16655e-06 -1.42184e-07
-8.16655e-06 4.09504e-05 4.34626e-08
-1.42184e-07 4.34626e-08 -5.34041e-05
0.0009164 7.81783e-05 -9.07157e-07
7.81783e-05 0.000114558 -9.40973e-07
-9.07157e-07 -9.40973e-07 7.27771e-07
0.00181842 0.000117204 -1.80806e-06
0.000117204 0.000162472 -5.71385e-07
-1.80806e-06 -5.71385e-07 6.11956e-05
0.00181456 0.000193074 1.39869e-06
0.000193074 0.000307403 4.90582e-07
1.39869e-06 4.90582e-07 0.000168155
0.00120313 0.000147339 -1.71094e-07
0.000147339 -0.000117686 8.86091e-07
-1.71094e-07 8.86091e-07 -0.000225865
0.00131548 0.000150696 1.38008e-06
0.000150696 0.000302532 1.90624e-06
1.38008e-06 1.90624e-06 0.000138432
0.000713732 0.000145442 -1.60265e-06
0.000145442 -0.000155228 -8.26114e-07
-1.60265e-06 -8.26114e-07 -0.000315931
0.00071694 -2.98507e-05 -1.01377e-08
-2.98507e-05 -1.444e-05 1.13341e-06
-1.01377e-08 1.13341e-06 -7.78196e-05
0.000634448 2.59823e-05 -9.92469e-08
2.59823e-05 -4.11571e-05 3.19462e-07
-9.92469e-08 3.19462e-07 -0.000130858
0.00108144 0.000124834 1.48717e-07
0.000124834 0.000207456 -5.59113e-07
1.48717e-07 -5.59113e-07 6.41894e-05
0.000385543 4.01568e-05 3.10958e-07
4.01568e-05 -0.000168397 4.13071e-08
3.10958e-07 4.13071e-08 -0.000282839
0.00191737 0.000107386 -1.27249e-06
0.000107386 0.00013699 -5.20824e-07
-1.27249e-06 -5.20824e-07 5.69402e-05
0.00191555 0.000148322 1.2046e-06
0.000148322 0.000161663 6.96949e-07
1.2046e-06 6.96949e-07 7.17524e-05
0.0015443 0.000194982 -5.55718e-07
0.000194982 0.000139912 -2.61024e-06
-5.55718e-07 -2.61024e-06 -6.27265e-06
0.000205206 9.69592e-05 -4.86218e-07
9.69592e-05 -0.000319682 1.4911e-06
-4.86218e-07 1.4911e-06 -0.00050697
0.000816889 8.57553e-07 -8.02403e-07
8.57553e-07 3.6923e-05 -2.57756e-07
-8.02403e-07 -2.57756e-07 -1.40187e-05
0.000814773 -1.61688e-05 -1.89524e-07
-1.61688e-05 3.94624e-05 4.04189e-07
-1.89524e-07 4.04189e-07 -2.23258e-05
0.00091399 -3.19719e-05 -1.19873e-07
-3.19719e-05 9.82754e-05 2.32901e-07
-1.19873e-07 2.32901e-07 3.01027e-05
0.000815641 -2.95054e-05 -8.84927e-07
-2.95054e-05 2.72266e-05 -6.5822e-07
-8.84927e-07 -6.5822e-07 -1.90425e-05
0.000710425 -4.24942e-05 1.60826e-07
-4.24942e-05 -1.84126e-05 -3.92244e-07
1.60826e-07 -3.92244e-07 -7.69669e-05
0.000833653 -1.3771e-05 2.93977e-08
-1.3771e-05 3.38281e-05 3.33136e-08
2.93977e-08 3.33136e-08 -1.2117e-05
0.000858932 1.51671e-05 -1.58327e-07
1.51671e-05 7.37615e-05 -3.38224e-07
-1.58327e-07 -3.38224e-07 4.89913e-06
0.000776762 -1.94094e-05 1.86722e-07
-1.94094e-05 2.2209e-05 2.45167e-07
1.86722e-07 2.45167e-07 -3.86711e-05
0.00088235 -1.06769e-05 2.45871e-07
-1.06769e-05 8.47236e-05 -2.29441e-07
2.45871e-07 -2.29441e-07 1.34413e-05
0.000813171 -4.27277e-05 -2.4226e-07
-4.27277e-05 4.41742e-05 2.42688e-07
-2.4226e-07 2.42688e-07 -2.25586e-05
0.000736081 3.02574e-06 3.63456e-07
3.02574e-06 -4.89015e-06 3.20255e-07
3.63456e-07 3.20255e-07 -6.32343e-05
0.000841246 7.58931e-06 5.20663e-07
7.58931e-06 3.67979e-05 5.54313e-07
5.20663e-07 5.54313e-07 -9.43212e-06
0.000781313 4.80946e-06 6.83376e-07
4.80946e-06 -2.86967e-06 1.50854e-06
6.83376e-07 1.50854e-06 -3.27206e-05
0.000789658 -6.74119e-06 -2.25908e-07
-6.74119e-06 9.99616e-07 -2.22449e-09
-2.25908e-07 -2.22449e-09 -2.78941e-05
0.00127236 -1.4174e-05 8.91299e-07
-1.4174e-05 0.000259064 1.90813e-06
8.91299e-07 1.90813e-06 0.000260476
0.000786996 -1.63994e-05 -5.0261e-07
-1.63994e-05 4.61497e-07 -1.70854e-06
-5.0261e-07 -1.70854e-06 -2.78222e-05
0.00128654 -1.98168e-05 -2.81446e-06
-1.98168e-05 0.000269587 -1.22525e-06
-2.81446e-06 -1.22525e-06 0.000270922
0.000966449 -1.70654e-05 1.26708e-05
-1.70654e-05 9.70862e-05 6.42174e-06
1.26708e-05 6.42174e-06 0.000112642
0.0013005 -2.57439e-05 -6.30213e-06
-2.57439e-05 0.000281225 -4.37418e-06
-6.30213e-06 -4.37418e-06 0.00028201
0.000915599 -2.32064e-05 4.90303e-06
-2.32064e-05 7.34525e-05 2.39704e-06
4.90303e-06 2.39704e-06 8.84181e-05
0.000854806 -2.8505e-05 -2.16947e-06
-2.8505e-05 4.65739e-05 -1.61983e-06
-2.16947e-06 -1.61983e-06 5.99496e-05
0.000704698 2.74295e-05 9.15442e-07
2.74295e-05 -3.97394e-05 -3.50457e-06
9.15442e-07 -3.50457e-06 -4.69544e-05
0.000706553 3.2171e-05 -1.73797e-07
3.2171e-05 -3.27269e-05 2.45964e-08
-1.73797e-07 2.45964e-08 -4.27413e-05
0.00222059 4.86114e-05 2.28327e-05
4.86114e-05 0.000802758 -3.80695e-06
2.28327e-05 -3.80695e-06 0.000818757
0.000713836 3.69232e-05 -2.02526e-06
3.69232e-05 -2.21961e-05 3.74753e-06
-2.02526e-06 3.74753e-06 -3.51445e-05
0.00230418 5.66177e-05 -1.48714e-06
5.66177e-05 0.000856516 -1.05364e-07
-1.48714e-06 -1.05364e-07 0.000870156
0.00241051 6.40548e-05 -3.495e-05
6.40548e-05 0.000922761 3.42954e-06
-3.495e-05 3.42954e-06 0.000934018
0.00162169 8.02861e-05 1.10797e-06
8.02861e-05 8.96732e-05 1.63766e-06
1.10797e-06 1.63766e-06 -2.33263e-05
0.00164908 3.48013e-05 2.88129e-07
3.48013e-05 8.14609e-05 -7.85275e-08
2.88129e-07 -7.85275e-08 -2.79405e-05
0.00165584 5.93306e-05 3.67464e-06
5.93306e-05 7.1317e-05 -2.013e-07
3.67464e-06 -2.013e-07 -2.73151e-05
0.00172502 3.06903e-05 1.55151e-06
3.06903e-05 8.53991e-05 -5.00099e-07
1.55151e-06 -5.00099e-07 -1.72438e-05
0.00176007 1.49661e-05 8.18592e-07
1.49661e-05 0.000119856 -3.0489e-07
8.18592e-07 -3.0489e-07 6.04417e-06
0.00164204 2.28044e-06 -1.43333e-06
2.28044e-06 9.22604e-05 -2.89454e-08
-1.43333e-06 -2.89454e-08 -2.63879e-05
0.00175129 7.09895e-06 -7.41683e-08
7.09895e-06 0.000112195 -3.23979e-10
-7.41683e-08 -3.23979e-10 -1.85172e-06
0.00174307 2.12258e-05 3.34109e-07
2.12258e-05 9.05697e-05 -1.29455e-07
3.34109e-07 -1.29455e-07 -1.50833e-05
0.00175693 4.27922e-05 7.50151e-07
4.27922e-05 9.85377e-05 -4.54545e-08
7.50151e-07 -4.54545e-08 1.36814e-07
0.00177667 7.73816e-05 3.14581e-07
7.73816e-05 0.000127135 6.65001e-08
3.14581e-07 6.65001e-08 3.03569e-05
0.0017611 4.37378e-06 -9.32791e-07
4.37378e-06 9.51281e-05 3.15515e-07
-9.32791e-07 3.15515e-07 -1.28908e-05
0.00187681 2.95883e-05 -2.56986e-07
2.95883e-05 0.00013794 2.61249e-07
-2.56986e-07 2.61249e-07 4.34119e-05
0.00177469 7.15771e-05 -1.17056e-07
7.15771e-05 8.60806e-05 5.18919e-07
-1.17056e-07 5.18919e-07 -4.97164e-06
0.00172184 -8.50592e-06 -7.17263e-07
-8.50592e-06 0.000108178 2.48573e-08
-7.17263e-07 2.48573e-08 -4.59824e-06
0.00178294 -2.73981e-05 -4.13678e-07
-2.73981e-05 0.000152053 1.70256e-07
-4.13678e-07 1.70256e-07 4.35161e-05
0.001747 -6.12968e-05 -2.02268e-07
-6.12968e-05 0.000128941 -2.70463e-07
-2.02268e-07 -2.70463e-07 2.78995e-05
0.00111056 -0.000124102 -1.90767e-07
-0.000124102 0.000196202 5.21005e-08
-1.90767e-07 5.21005e-08 8.98936e-05
0.00120478 -0.000137499 1.2765e-08
-0.000137499 0.000236527 1.05627e-06
1.2765e-08 1.05627e-06 0.000111356
0.00121978 -0.000158531 -2.51551e-06
-0.000158531 0.00015841 2.74567e-06
-2.51551e-06 2.74567e-06 -1.02938e-05
0.00168508 -0.000103451 4.59045e-07
-0.000103451 9.73418e-05 -6.04514e-07
4.59045e-07 -6.04514e-07 -8.57312e-06
0.00162983 -0.000156574 -1.23231e-06
-0.000156574 9.40945e-05 -5.50734e-09
-1.23231e-06 -5.50734e-09 -1.58876e-05
0.00148339 -0.000169911 -2.75245e-06
-0.000169911 0.000150285 -3.42968e-06
-2.75245e-06 -3.42968e-06 1.14318e-05
0.00106214 -0.000120433 6.34219e-07
-0.000120433 0.000177385 -1.36543e-06
6.34219e-07 -1.36543e-06 7.19549e-05
0.000843281 -0.000105707 -1.34367e-06
-0.000105707 6.2872e-05 -1.75112e-06
-1.34367e-06 -1.75112e-06 -4.16372e-05
0.000999927 -8.90327e-05 5.9944e-07
-8.90327e-05 0.000155062 4.10773e-07
5.9944e-07 4.10773e-07 5.14334e-05
0.000528093 2.6317e-05 -9.4452e-07
2.6317e-05 -0.000128613 1.21103e-06
-9.4452e-07 1.21103e-06 -0.000168452
0.000986921 -1.40392e-05 4.44646e-08
-1.40392e-05 0.000136429 -1.47789e-08
4.44646e-08 -1.47789e-08 5.76598e-05
0.000689328 2.61519e-05 7.63568e-08
2.61519e-05 -3.49142e-05 1.16298e-06
7.63568e-08 1.16298e-06 -9.71774e-05
0.00176714 -1.49836e-05 -9.35609e-08
-1.49836e-05 0.000105818 5.95516e-08
-9.35609e-08 5.95516e-08 -2.81758e-06
0.0017976 -4.41959e-05 4.61468e-07
-4.41959e-05 0.000127028 -6.8933e-08
4.61468e-07 -6.8933e-08 3.04558e-05
0.00166437 -7.45745e-05 -1.58196e-08
-7.45745e-05 5.85188e-05 9.78313e-10
-1.58196e-08 9.78313e-10 -3.646e-05
0.00101748 -0.000120757 -7.23959e-08
-0.000120757 0.000149324 8.25616e-07
-7.23959e-08 8.25616e-07 3.76143e-05
0.000762468 -0.000120321 -3.81617e-07
-0.000120321 -4.85634e-06 3.99332e-07
-3.81617e-07 3.99332e-07 -0.000153639
0.00169964 -0.000193534 -2.23629e-06
-0.000193534 0.000363266 1.55136e-06
-2.23629e-06 1.55136e-06 0.000185516
0.00186995 -0.000131909 6.03198e-07
-0.000131909 0.000147622 -9.59985e-08
6.03198e-07 -9.59985e-08 5.04197e-05
0.00162901 -0.000176151 1.0077e-06
-0.000176151 0.000105405 -1.35821e-06
1.0077e-06 -1.35821e-06 -1.93426e-05
0.000663174 2.16159e-05 1.98486e-07
2.16159e-05 -5.81205e-05 -5.94808e-07
1.98486e-07 -5.94808e-07 -9.41356e-05
0.000909747 9.46907e-06 -2.67318e-07
9.46907e-06 8.79468e-05 1.88478e-07
-2.67318e-07 1.88478e-07 2.8513e-05
0.000773873 -0.000103866 -9.95319e-07
-0.000103866 2.09978e-05 6.10014e-07
-9.95319e-07 6.10014e-07 -8.58728e-05
0.00101331 -0.00011389 1.12283e-06
-0.00011389 0.000149735 8.82355e-07
1.12283e-06 8.82355e-07 4.46476e-05
0.000882566 -2.40213e-05 9.29189e-08
-2.40213e-05 8.44356e-05 -3.63871e-07
9.29189e-08 -3.63871e-07 -6.6803e-06
0.000937477 -3.276e-05 -6.17507e-07
-3.276e-05 0.000111705 8.46281e-07
-6.17507e-07 8.46281e-07 3.50441e-05
0.00181294 -2.71082e-05 -1.00453e-06
-2.71082e-05 0.000109921 8.65368e-08
-1.00453e-06 8.65368e-08 1.26383e-05
0.00172374 -5.94555e-05 -7.59616e-07
-5.94555e-05 5.83621e-05 -1.27467e-07
-7.59616e-07 -1.27467e-07 -2.5742e-05
0.00162796 -9.22971e-05 -2.43108e-06
-9.22971e-05 -1.28817e-05 -9.64837e-08
-2.43108e-06 -9.64837e-08 -9.75994e-05
0.00196919 -0.000177953 -3.43577e-07
-0.000177953 0.000178267 -2.64442e-07
-3.43577e-07 -2.64442e-07 8.14788e-05
0.000559084 -9.72298e-05 -1.67745e-06
-9.72298e-05 -8.2152e-05 1.1011e-07
-1.67745e-06 1.1011e-07 -0.000203723
0.00158982 -0.000197568 -1.13742e-06
-0.000197568 0.000211338 4.95959e-06
-1.13742e-06 4.95959e-06 4.02486e-05
0.00175173 -0.000186149 1.09651e-06
-0.000186149 0.000495664 -3.61628e-06
1.09651e-06 -3.61628e-06 0.000319382
0.000795116 1.68061e-05 6.87287e-07
1.68061e-05 1.05171e-05 -1.746e-06
6.87287e-07 -1.746e-06 -2.21629e-05
0.000792596 -5.47757e-05 1.0541e-06
-5.47757e-05 3.0919e-05 -1.06453e-06
1.0541e-06 -1.06453e-06 -2.49877e-05
0.000690256 9.03518e-06 5.74862e-07
9.03518e-06 -2.84406e-05 -1.51441e-06
5.74862e-07 -1.51441e-06 -8.85103e-05
0.00088065 -3.16811e-05 9.6783e-07
-3.16811e-05 8.41622e-05 -1.31363e-07
9.6783e-07 -1.31363e-07 8.54905e-06
0.000899655 8.54528e-06 1.49923e-07
8.54528e-06 9.09043e-05 -2.42198e-07
1.49923e-07 -2.42198e-07 9.26101e-06
0.000745803 -0.000102392 1.57256e-06
-0.000102392 3.3214e-05 2.0118e-06
1.57256e-06 2.0118e-06 -7.48184e-05
0.00075166 -0.000101808 -3.46974e-06
-0.000101808 -1.82237e-05 1.49392e-06
-3.46974e-06 1.49392e-06 -0.000113891
0.00188293 -0.000167564 -3.42031e-06
-0.000167564 0.00063681 2.82723e-06
-3.42031e-06 2.82723e-06 0.00052701
0.000809086 -4.12669e-05 -4.67171e-07
-4.12669e-05 3.06491e-05 -7.48854e-07
-4.67171e-07 -7.48854e-07 -2.01114e-05
0.00084488 -1.17359e-06 -2.41345e-07
-1.17359e-06 5.85117e-05 1.27457e-07
-2.41345e-07 1.27457e-07 -1.25932e-05
0.00205608 0.000122401 1.21303e-06
0.000122401 0.000290831 4.94038e-07
1.21303e-06 4.94038e-07 0.000190296
0.000852212 1.09123e-05 -2.56605e-07
1.09123e-05 7.59453e-05 -3.39906e-07
-2.56605e-07 -3.39906e-07 -2.02168e-05
0.00112202 0.000126152 -3.95894e-07
0.000126152 0.000235499 -1.77505e-06
-3.95894e-07 -1.77505e-06 0.000109003
0.000761394 6.47323e-05 -8.30157e-07
6.47323e-05 3.35278e-05 1.12587e-06
-8.30157e-07 1.12587e-06 -7.78191e-05
0.00166846 0.000184839 9.62753e-07
0.000184839 0.000224912 -7.01887e-07
9.62753e-07 -7.01887e-07 8.66184e-05
0.00157432 0.00016405 5.89506e-06
0.00016405 8.16909e-05 2.87013e-06
5.89506e-06 2.87013e-06 -2.15448e-05
0.000857096 0.00012549 9.30967e-07
0.00012549 6.4891e-05 8.19262e-07
9.30967e-07 8.19262e-07 -9.95829e-05
0.00117006 0.000172114 -3.66146e-06
0.000172114 8.11512e-05 -1.37219e-06
-3.66146e-06 -1.37219e-06 -8.54847e-05
0.000726082 -1.18969e-05 1.60576e-07
-1.18969e-05 -6.84712e-06 5.27422e-07
1.60576e-07 5.27422e-07 -7.28681e-05
0.000734532 3.87117e-05 -1.26868e-07
3.87117e-05 1.32166e-05 -1.05466e-06
-1.26868e-07 -1.05466e-06 -7.71459e-05
0.00100221 0.000120577 1.54322e-07
0.000120577 0.000169838 -1.16262e-06
1.54322e-07 -1.16262e-06 2.54e-05
0.00076765 6.2905e-05 -5.81078e-07
6.2905e-05 3.5515e-05 -6.08965e-07
-5.81078e-07 -6.08965e-07 -8.00187e-05
0.00194594 0.000103086 1.72197e-07
0.000103086 0.000156371 -4.34878e-07
1.72197e-07 -4.34878e-07 7.71936e-05
0.00170101 0.000145763 1.97751e-06
0.000145763 6.26751e-05 -3.40852e-07
1.97751e-06 -3.40852e-07 -3.0116e-05
0.00188165 0.000208365 -2.88323e-06
0.000208365 0.00031295 -3.89855e-07
-2.88323e-06 -3.89855e-07 0.000168676
0.000686479 0.000128672 1.03875e-06
0.000128672 -8.14126e-05 5.06948e-07
1.03875e-06 5.06948e-07 -0.000266921
0.000884717 -2.02512e-05 1.01157e-07
-2.02512e-05 8.28559e-05 2.68891e-07
1.01157e-07 2.68891e-07 9.99503e-06
0.00169583 7.1719e-05 8.81715e-07
7.1719e-05 1.27412e-05 8.85597e-07
8.81715e-07 8.85597e-07 -5.90746e-05
0.00117261 0.000109991 -2.05237e-07
0.000109991 0.000267744 2.223e-06
-2.05237e-07 2.223e-06 0.000154337
0.00103547 0.000126203 4.51322e-07
0.000126203 0.000171617 9.68126e-07
4.51322e-07 9.68126e-07 2.0236e-05
0.00219321 0.000132429 -2.92232e-06
0.000132429 0.000225513 3.14506e-07
-2.92232e-06 3.14506e-07 0.00015339
0.00166219 0.000207335 1.51083e-06
0.000207335 4.51705e-05 -2.26535e-06
1.51083e-06 -2.26535e-06 -7.48185e-05
0.00183429 0.000204472 -1.25082e-06
0.000204472 0.000442063 2.2621e-06
-1.25082e-06 2.2621e-06 0.000248374
0.000894482 -8.57862e-06 -1.41848e-06
-8.57862e-06 8.15787e-05 -1.15345e-07
-1.41848e-06 -1.15345e-07 2.07705e-05
0.000889623 -2.35668e-05 -4.8484e-08
-2.35668e-05 8.51056e-05 -2.47786e-08
-4.8484e-08 -2.47786e-08 1.70971e-05
0.000904286 -2.10353e-05 -1.2215e-07
-2.10353e-05 9.9386e-05 5.17947e-07
-1.2215e-07 5.17947e-07 2.4697e-05
0.000813147 -2.80745e-05 -4.8589e-07
-2.80745e-05 2.37475e-05 -6.98984e-07
-4.8589e-07 -6.98984e-07 -2.28478e-05
0.00081682 -8.2155e-06 4.54279e-08
-8.2155e-06 4.33779e-05 3.30079e-07
4.54279e-08 3.30079e-07 -1.73499e-05
0.000753297 -5.52348e-06 -2.47838e-07
-5.52348e-06 1.82878e-05 -4.9715e-07
-2.47838e-07 -4.9715e-07 -5.17739e-05
0.000826074 -1.75223e-05 -1.22987e-07
-1.75223e-05 3.14001e-05 1.931e-08
-1.22987e-07 1.931e-08 -1.66914e-05
0.000763959 -2.52002e-05 -5.41697e-07
-2.52002e-05 1.21885e-05 2.62844e-07
-5.41697e-07 2.62844e-07 -4.76214e-05
0.000854223 -3.6436e-05 3.80092e-07
-3.6436e-05 6.8732e-05 -3.94126e-07
3.80092e-07 -3.94126e-07 -2.92479e-06
0.000873333 4.39254e-06 1.12127e-07
4.39254e-06 8.01111e-05 5.58194e-07
1.12127e-07 5.58194e-07 1.1799e-05
0.000819289 -2.14942e-05 5.88043e-07
-2.14942e-05 4.8609e-05 -7.86806e-07
5.88043e-07 -7.86806e-07 -2.56736e-05
0.000802759 -5.17898e-05 -1.3812e-08
-5.17898e-05 3.73497e-05 1.4426e-07
-1.3812e-08 1.4426e-07 -3.43082e-05
0.000908822 1.08737e-05 5.12881e-07
1.08737e-05 9.40564e-05 1.1111e-08
5.12881e-07 1.1111e-08 2.89748e-05
0.000829708 8.35632e-06 1.24345e-06
8.35632e-06 4.63288e-05 5.02253e-08
1.24345e-06 5.02253e-08 -1.58626e-05
0.000834048 5.05603e-06 5.49762e-07
5.05603e-06 3.36236e-05 5.21226e-07
5.49762e-07 5.21226e-07 -1.37121e-05
0.000775888 9.48676e-06 4.19173e-07
9.48676e-06 -4.37935e-06 1.46671e-06
4.19173e-07 1.46671e-06 -3.51685e-05
0.00078513 -1.41381e-06 -1.56497e-07
-1.41381e-06 -6.87012e-07 -5.40674e-10
-1.56497e-07 -5.40674e-10 -3.05635e-05
0.00128171 -6.91633e-06 6.7755e-07
-6.91633e-06 0.000262866 1.87245e-06
6.7755e-07 1.87245e-06 0.000263912
0.000794052 -1.27742e-05 -3.38769e-07
-1.27742e-05 3.65872e-06 -1.58269e-06
-3.38769e-07 -1.58269e-06 -2.53526e-05
0.00130197 -1.27592e-05 -2.09081e-06
-1.27592e-05 0.000275602 -1.26749e-06
-2.09081e-06 -1.26749e-06 0.000276814
0.00097956 -1.17624e-05 9.48485e-06
-1.17624e-05 0.00010164 6.57966e-06
9.48485e-06 6.57966e-06 0.000117222
0.00131668 -1.87039e-05 -4.73373e-06
-1.87039e-05 0.000286048 -4.39762e-06
-4.73373e-06 -4.39762e-06 0.000287206
0.000929683 -1.77047e-05 3.505e-06
-1.77047e-05 7.64896e-05 2.46831e-06
3.505e-06 2.46831e-06 9.21e-05
0.000867776 -2.31629e-05 -1.581e-06
-2.31629e-05 4.72367e-05 -1.60372e-06
-1.581e-06 -1.60372e-06 6.2281e-05
0.000786169 1.17943e-05 3.62447e-07
1.17943e-05 3.47904e-06 -1.69698e-06
3.62447e-07 -1.69698e-06 -2.72356e-05
0.000719879 2.21236e-05 8.21959e-07
2.21236e-05 -3.72557e-05 -3.40584e-06
8.21959e-07 -3.40584e-06 -4.20604e-05
0.000719489 2.78656e-05 -1.44266e-07
2.78656e-05 -3.18852e-05 2.99113e-08
-1.44266e-07 2.99113e-08 -3.91829e-05
0.00215804 4.04968e-05 1.87741e-05
4.04968e-05 0.000762038 -3.90845e-06
1.87741e-05 -3.90845e-06 0.000780062
0.000723027 3.27537e-05 -1.61567e-06
3.27537e-05 -2.39035e-05 3.6225e-06
-1.61567e-06 3.6225e-06 -3.40249e-05
0.00223955 4.89463e-05 -1.73201e-06
4.89463e-05 0.000814019 -9.85963e-08
-1.73201e-06 -9.85963e-08 0.000829765
0.00232635 5.66792e-05 -3.0036e-05
5.66792e-05 0.000869517 3.64161e-06
-3.0036e-05 3.64161e-06 0.000882952
0.00184585 7.45567e-05 1.29864e-06
7.45567e-05 0.000157949 7.8438e-07
1.29864e-06 7.8438e-07 6.17533e-05
0.00174638 4.41743e-05 1.1142e-06
4.41743e-05 9.33482e-05 -2.80358e-07
1.1142e-06 -2.80358e-07 -5.42072e-06
0.00173105 2.08223e-05 1.24154e-06
2.08223e-05 8.49751e-05 -5.13952e-07
1.24154e-06 -5.13952e-07 -2.09481e-05
0.00175817 7.94231e-06 1.86744e-07
7.94231e-06 0.000117744 -1.49904e-07
1.86744e-07 -1.49904e-07 4.05375e-06
0.00177727 4.25546e-06 -4.04767e-07
4.25546e-06 0.000104087 9.40611e-08
-4.04767e-07 9.40611e-08 -3.07468e-06
0.0018553 2.82775e-05 3.58798e-07
2.82775e-05 0.000123468 -1.93485e-07
3.58798e-07 -1.93485e-07 2.857e-05
0.00175029 7.31867e-05 -1.87883e-08
7.31867e-05 6.91342e-05 -6.33884e-08
-1.87883e-08 -6.33884e-08 -2.18307e-05
0.00178944 1.45504e-06 -1.15884e-06
1.45504e-06 9.73224e-05 6.27276e-07
-1.15884e-06 6.27276e-07 1.3992e-06
0.00197234 3.9668e-05 -4.49954e-07
3.9668e-05 0.000172949 -5.50764e-08
-4.49954e-07 -5.50764e-08 8.8063e-05
0.00156116 2.65925e-05 9.6911e-07
2.65925e-05 -6.50951e-05 3.68881e-07
9.6911e-07 3.68881e-07 -0.000130669
0.00183594 -1.30736e-05 -8.13305e-08
-1.30736e-05 0.000140186 -4.41058e-08
-8.13305e-08 -4.41058e-08 3.14931e-05
0.00181427 -4.69172e-05 1.76308e-06
-4.69172e-05 0.000138009 -2.81956e-08
1.76308e-06 -2.81956e-08 4.18418e-05
0.00171744 -7.39631e-05 -8.41376e-08
-7.39631e-05 8.73065e-05 -3.71398e-07
-8.41376e-08 -3.71398e-07 -8.11133e-06
0.00109464 -0.000125009 -4.6286e-07
-0.000125009 0.000188462 1.45313e-06
-4.6286e-07 1.45313e-06 7.60011e-05
0.000825778 -0.000122892 2.1607e-07
-0.000122892 3.35266e-05 3.84349e-06
2.1607e-07 3.84349e-06 -0.000110559
0.00160028 -0.000186533 -2.60069e-06
-0.000186533 0.000306783 3.18374e-06
-2.60069e-06 3.18374e-06 0.00013108
0.00192675 -0.00013489 4.76464e-06
-0.00013489 0.000174555 -6.40929e-07
4.76464e-06 -6.40929e-07 7.75224e-05
0.00174823 -0.000179514 -2.16841e-06
-0.000179514 0.000166179 -2.81324e-06
-2.16841e-06 -2.81324e-06 4.07313e-05
0.000494926 -8.73675e-05 -1.51959e-06
-8.73675e-05 -0.000129099 4.886e-07
-1.51959e-06 4.886e-07 -0.000233631
0.00113789 -0.000119351 4.991e-06
-0.000119351 0.000216578 -3.01505e-06
4.991e-06 -3.01505e-06 0.000113202
0.000807902 9.8742e-06 1.0243e-08
9.8742e-06 3.82197e-05 -3.62285e-07
1.0243e-08 -3.62285e-07 -4.82984e-05
0.00077032 2.09072e-05 -7.38138e-07
2.09072e-05 -3.28634e-07 1.13814e-06
-7.38138e-07 1.13814e-06 -3.5091e-05
0.000908282 2.51308e-05 -6.10422e-07
2.51308e-05 8.70369e-05 1.23211e-06
-6.10422e-07 1.23211e-06 2.76832e-05
0.000868064 -1.1897e-05 -5.85951e-07
-1.1897e-05 7.44693e-05 9.98042e-07
-5.85951e-07 9.98042e-07 -2.5116e-06
0.00183803 -2.70715e-05 -1.32551e-07
-2.70715e-05 0.000126979 1.00904e-07
-1.32551e-07 1.00904e-07 3.12121e-05
0.000788278 1.54544e-05 7.6631e-08
1.54544e-05 6.564e-06 1.55129e-08
7.6631e-08 1.55129e-08 -2.60507e-05
0.00073037 -7.9844e-06 -3.34481e-07
-7.9844e-06 -9.46676e-06 8.89943e-08
-3.34481e-07 8.89943e-08 -6.12533e-05
0.00178595 -6.24372e-05 -5.72839e-09
-6.24372e-05 9.24408e-05 -1.04273e-07
-5.72839e-09 -1.04273e-07 7.63441e-06
0.00161622 -9.20669e-05 -7.97661e-07
-9.20669e-05 -2.29339e-05 4.79103e-07
-7.97661e-07 4.79103e-07 -0.00010977
0.000671501 -0.000102556 -1.44508e-07
-0.000102556 -1.6899e-05 2.19949e-06
-1.44508e-07 2.19949e-06 -0.000136654
0.00143608 -0.000167041 -1.15009e-06
-0.000167041 0.000329129 5.29236e-07
-1.15009e-06 5.29236e-07 0.00014774
0.001355 -0.000181975 1.30137e-06
-0.000181975 8.49823e-05 6.99741e-07
1.30137e-06 6.99741e-07 -8.00942e-05
0.00197372 -0.000183833 1.42797e-06
-0.000183833 0.000183591 -4.54421e-07
1.42797e-06 -4.54421e-07 8.58572e-05
0.000873146 -1.9368e-05 1.12522e-06
-1.9368e-05 6.99728e-05 -5.61784e-07
1.12522e-06 -5.61784e-07 1.20093e-05
0.000864372 -1.89395e-05 -4.10043e-07
-1.89395e-05 7.67586e-05 4.90532e-07
-4.10043e-07 4.90532e-07 1.11232e-07
0.000897714 -0.000103545 5.33286e-07
-0.000103545 5.44062e-05 2.08485e-07
5.33286e-07 2.08485e-07 -4.45007e-05
0.00125417 -0.000131998 3.41844e-06
-0.000131998 0.000297774 -1.56736e-06
3.41844e-06 -1.56736e-06 0.000200204
0.000714367 -7.33626e-05 -4.62556e-07
-7.33626e-05 1.2353e-05 3.38177e-07
-4.62556e-07 3.38177e-07 -9.35347e-05
0.000893985 3.50075e-06 1.90959e-07
3.50075e-06 8.97691e-05 -3.28822e-07
1.90959e-07 -3.28822e-07 6.60643e-06
0.00188887 -3.22793e-05 -2.74697e-06
-3.22793e-05 0.000127559 -4.80091e-09
-2.74697e-06 -4.80091e-09 4.94061e-05
0.00189581 -5.60237e-05 2.95832e-06
-5.60237e-05 0.000122958 4.15301e-07
2.95832e-06 4.15301e-07 4.70304e-05
0.00182832 -0.000160139 -5.70917e-06
-0.000160139 3.23179e-05 -1.45477e-06
-5.70917e-06 -1.45477e-06 -4.74869e-05
0.00113644 -0.000183913 1.44405e-07
-0.000183913 -0.000183609 1.47443e-06
1.44405e-07 1.47443e-06 -0.000296697
0.00102798 -9.83953e-05 -2.93423e-06
-9.83953e-05 0.000153835 -1.64442e-06
-2.93423e-06 -1.64442e-06 3.15607e-05
0.00203821 -0.000220995 -2.48059e-06
-0.000220995 0.000590803 2.71717e-08
-2.48059e-06 2.71717e-08 0.000382755
0.000625551 4.1548e-05 -1.03595e-06
4.1548e-05 -6.28831e-05 -1.51157e-06
-1.03595e-06 -1.51157e-06 -0.000115215
0.00080732 -2.54436e-05 6.14677e-07
-2.54436e-05 3.07003e-05 -1.04438e-06
6.14677e-07 -1.04438e-06 -2.25073e-05
0.000992201 -3.34903e-05 8.62496e-07
-3.34903e-05 0.000148274 -4.22469e-07
8.62496e-07 -4.22469e-07 8.09357e-05
0.000685746 1.84689e-05 -5.22372e-07
1.84689e-05 -1.69417e-05 -5.07822e-07
-5.22372e-07 -5.07822e-07 -9.46254e-05
0.0010405 -1.36598e-05 2.69226e-07
-1.36598e-05 0.000172673 2.23464e-08
2.69226e-07 2.23464e-08 9.18025e-05
0.000510178 -1.95343e-05 4.83483e-07
-1.95343e-05 -9.89098e-05 3.95295e-07
4.83483e-07 3.95295e-07 -0.000195895
0.00114695 -7.90845e-05 5.75319e-06
-7.90845e-05 0.000270481 1.93805e-07
5.75319e-06 1.93805e-07 0.000149507
0.000764456 -0.000110055 -1.0957e-05
-0.000110055 1.12977e-05 3.15352e-06
-1.0957e-05 3.15352e-06 -7.69832e-05
0.000718413 6.86045e-06 -2.8369e-07
6.86045e-06 -8.5807e-06 -9.49465e-08
-2.8369e-07 -9.49465e-08 -7.71105e-05
0.00083169 4.85444e-05 -1.70509e-06
4.85444e-05 6.56951e-05 -1.97863e-06
-1.70509e-06 -1.97863e-06 -2.52228e-05
0.00196241 9.92115e-05 -9.23937e-07
9.92115e-05 0.000167566 -3.9631e-07
-9.23937e-07 -3.9631e-07 8.9299e-05
0.00149127 0.000143093 1.98592e-06
0.000143093 -3.41765e-05 9.76031e-07
1.98592e-06 9.76031e-07 -0.000129884
0.00117027 6.80173e-05 -2.32334e-06
6.80173e-05 0.000247658 -4.10473e-07
-2.32334e-06 -4.10473e-07 0.000132607
0.000943111 0.000117305 -6.61515e-07
0.000117305 0.00014208 -2.37048e-06
-6.61515e-07 -2.37048e-06 -3.1041e-06
0.00225686 0.000223291 8.6968e-07
0.000223291 0.000506306 7.79511e-07
8.6968e-07 7.79511e-07 0.000363487
0.00123701 0.000163948 -9.75486e-07
0.000163948 0.000195057 -9.92432e-07
-9.75486e-07 -9.92432e-07 1.03677e-05
0.000861643 6.9152e-06 4.15904e-07
6.9152e-06 7.40335e-05 -5.76324e-07
4.15904e-07 -5.76324e-07 -1.29753e-06
0.00177283 6.95538e-05 -3.7399e-07
6.95538e-05 4.75076e-05 1.80882e-07
-3.7399e-07 1.80882e-07 -2.38973e-05
0.000933421 7.88739e-05 9.24591e-08
7.88739e-05 0.000135485 1.09543e-06
9.24591e-08 1.09543e-06 2.67574e-05
0.000832477 0.000113764 3.20539e-07
0.000113764 6.39417e-05 -1.92768e-07
3.20539e-07 -1.92768e-07 -8.96108e-05
0.00195656 0.000126652 2.14217e-06
0.000126652 0.000102339 -5.25135e-08
2.14217e-06 -5.25135e-08 2.99156e-05
0.00181963 0.000211133 2.32604e-07
0.000211133 0.0001227 -1.15727e-06
2.32604e-07 -1.15727e-06 4.47094e-06
0.00187695 0.00020931 8.56339e-07
0.00020931 0.000472584 1.29205e-06
8.56339e-07 1.29205e-06 0.000278612
0.00102535 2.49567e-05 -1.00375e-06
2.49567e-05 0.00017425 9.9431e-07
-1.00375e-06 9.9431e-07 8.23579e-05
0.00191554 8.12093e-05 -9.16248e-06
8.12093e-05 8.83479e-05 -1.09776e-06
-9.16248e-06 -1.09776e-06 4.01819e-05
0.00181988 0.000146821 -2.56585e-06
0.000146821 0.000591596 4.95249e-07
-2.56585e-06 4.95249e-07 0.000465578
0.00197196 0.000194226 -3.17189e-06
0.000194226 0.000629668 1.15096e-06
-3.17189e-06 1.15096e-06 0.000453851
0.00239346 0.000231249 2.97185e-07
0.000231249 0.000303935 -6.55842e-07
2.97185e-07 -6.55842e-07 0.000224828
0.00150697 0.000206235 -2.98871e-06
0.000206235 0.000151652 8.01311e-07
-2.98871e-06 8.01311e-07 -1.80833e-05
0.000424222 9.14782e-05 1.25544e-05
9.14782e-05 -0.000378154 1.54047e-06
1.25544e-05 1.54047e-06 -0.000520872
0.000871119 -8.5148e-06 1.00642e-08
-8.5148e-06 7.55346e-05 -3.81263e-07
1.00642e-08 -3.81263e-07 7.4088e-06
0.000893783 -1.80638e-05 -6.14936e-08
-1.80638e-05 9.46173e-05 1.42438e-07
-6.14936e-08 1.42438e-07 1.95035e-05
0.000904575 -1.12144e-05 1.12159e-07
-1.12144e-05 9.51686e-05 -7.22517e-07
1.12159e-07 -7.22517e-07 1.60774e-05
0.000817989 -4.03201e-05 -2.52761e-07
-4.03201e-05 2.90884e-05 -6.7064e-07
-2.52761e-07 -6.7064e-07 -2.04042e-05
0.000781355 -5.22728e-05 -8.94955e-07
-5.22728e-05 2.20499e-05 2.2058e-07
-8.94955e-07 2.2058e-07 -3.80063e-05
0.000908915 5.21851e-05 -8.0861e-07
5.21851e-05 0.00010333 4.58684e-07
-8.0861e-07 4.58684e-07 3.33251e-05
0.000826954 -3.86782e-05 1.04106e-07
-3.86782e-05 5.45533e-05 -1.31118e-07
1.04106e-07 -1.31118e-07 -1.82658e-05
0.000816672 -2.36838e-05 -1.1336e-07
-2.36838e-05 2.91081e-05 4.215e-08
-1.1336e-07 4.215e-08 -2.1427e-05
0.000783237 2.1616e-06 4.2554e-08
2.1616e-06 1.50939e-05 -5.02909e-08
4.2554e-08 -5.02909e-08 -4.30463e-05
0.000835648 -2.47224e-05 4.24519e-07
-2.47224e-05 5.72365e-05 -4.60136e-07
4.24519e-07 -4.60136e-07 -1.76421e-05
0.000900684 -2.30908e-05 -8.83909e-08
-2.30908e-05 8.77141e-05 1.32785e-08
-8.83909e-08 1.32785e-08 2.36953e-05
0.000896596 -3.99498e-05 3.14842e-07
-3.99498e-05 8.79911e-05 -4.47961e-08
3.14842e-07 -4.47961e-08 1.69834e-05
0.000859961 -3.05765e-05 -1.18653e-07
-3.05765e-05 6.51848e-05 -6.115e-07
-1.18653e-07 -6.115e-07 -8.08235e-06
0.000845 -1.16372e-05 5.36872e-07
-1.16372e-05 5.27885e-05 -6.81533e-07
5.36872e-07 -6.81533e-07 -1.20767e-05
0.000903022 -3.11083e-06 7.54348e-07
-3.11083e-06 8.20974e-05 -2.9958e-07
7.54348e-07 -2.9958e-07 1.97357e-05
0.000836567 2.06724e-05 1.55158e-07
2.06724e-05 4.61637e-05 1.20143e-07
1.55158e-07 1.20143e-07 -1.84057e-05
0.000725163 -5.07206e-06 1.40627e-07
-5.07206e-06 -2.59262e-05 9.49944e-07
1.40627e-07 9.49944e-07 -7.51564e-05
0.000937367 -4.25175e-06 3.06964e-07
-4.25175e-06 0.000113067 -3.88362e-07
3.06964e-07 -3.88362e-07 4.63165e-05
0.000704999 8.00307e-06 -4.99946e-07
8.00307e-06 -3.26587e-05 9.40209e-07
-4.99946e-07 9.40209e-07 -8.34375e-05
0.000778796 1.24606e-05 1.80863e-07
1.24606e-05 -1.88899e-06 1.42691e-06
1.80863e-07 1.42691e-06 -3.31152e-05
0.000778685 2.6186e-06 -1.76301e-07
2.6186e-06 -2.83646e-06 9.94272e-10
-1.76301e-07 9.94272e-10 -3.35891e-05
0.000726704 7.30023e-07 2.40981e-07
7.30023e-07 -4.21771e-05 3.14891e-06
2.40981e-07 3.14891e-06 -4.47806e-05
0.000790736 -7.85307e-06 -2.01344e-08
-7.85307e-06 2.49098e-06 -1.47805e-06
-2.01344e-08 -1.47805e-06 -2.74165e-05
0.00102142 -5.28532e-06 -1.34386e-06
-5.28532e-06 0.000120024 -1.32152e-06
-1.34386e-06 -1.32152e-06 0.000119367
0.00210624 -8.24205e-06 5.85338e-06
-8.24205e-06 0.000719211 4.15056e-06
5.85338e-06 4.15056e-06 0.00074104
0.00132993 -1.18127e-05 -2.88905e-06
-1.18127e-05 0.000291185 -4.41946e-06
-2.88905e-06 -4.41946e-06 0.000292157
0.000940833 -1.20325e-05 1.89865e-06
-1.20325e-05 7.95909e-05 2.54068e-06
1.89865e-06 2.54068e-06 9.53719e-05
0.000887692 -1.73659e-05 -1.08763e-06
-1.73659e-05 5.31273e-05 -1.60848e-06
-1.08763e-06 -1.60848e-06 6.89487e-05
0.000788962 8.27547e-06 2.5893e-07
8.27547e-06 4.43941e-06 -1.6545e-06
2.5893e-07 -1.6545e-06 -2.51793e-05
0.000789774 1.08761e-05 -3.0103e-08
1.08761e-05 5.20818e-06 5.05581e-09
-3.0103e-08 5.05581e-09 -2.55309e-05
0.000730177 1.65121e-05 4.64213e-07
1.65121e-05 -3.5975e-05 -3.36536e-06
4.64213e-07 -3.36536e-06 -3.91148e-05
0.00102379 2.50859e-05 -4.72235e-07
2.50859e-05 0.000129749 3.08557e-08
-4.72235e-07 3.08557e-08 0.000126365
0.0021151 3.20652e-05 1.55429e-05
3.20652e-05 0.000732951 -4.02918e-06
1.55429e-05 -4.02918e-06 0.000752675
0.000732392 2.83073e-05 -1.10951e-06
2.83073e-05 -2.50274e-05 3.50692e-06
-1.10951e-06 3.50692e-06 -3.24089e-05
0.00217763 4.10084e-05 -1.81026e-06
4.10084e-05 0.000773594 -8.63979e-08
-1.81026e-06 -8.63979e-08 0.000791334
0.00226036 4.91758e-05 -2.5476e-05
4.91758e-05 0.000826292 3.81181e-06
-2.5476e-05 3.81181e-06 0.000841796
0.00172678 7.48832e-05 -7.20274e-07
7.48832e-05 5.28573e-05 -3.85091e-07
-7.20274e-07 -3.85091e-07 -3.80356e-05
0.00182572 2.76963e-05 7.60921e-07
2.76963e-05 0.000104695 -4.56292e-07
7.60921e-07 -4.56292e-07 9.40937e-06
0.00180445 6.29186e-07 2.71193e-07
6.29186e-07 0.000118676 -2.02039e-07
2.71193e-07 -2.02039e-07 1.23637e-05
0.00177162 3.43892e-06 3.3892e-07
3.43892e-06 8.48796e-05 1.23711e-07
3.3892e-07 1.23711e-07 -1.12863e-05
0.00184628 3.85679e-05 -8.72746e-07
3.85679e-05 0.000110228 1.73443e-07
-8.72746e-07 1.73443e-07 2.50142e-05
0.00173621 2.42806e-05 2.26265e-06
2.42806e-05 3.48606e-05 1.27115e-07
2.26265e-06 1.27115e-07 -3.34165e-05
0.00164371 5.29755e-06 -1.38902e-06
5.29755e-06 -3.15948e-07 -6.37014e-07
-1.38902e-06 -6.37014e-07 -7.49678e-05
0.00345796 -6.22659e-06 1.02548e-05
-6.22659e-06 0.000758297 2.82474e-06
1.02548e-05 2.82474e-06 0.00070825
0.0016379 2.97007e-05 -5.21016e-06
2.97007e-05 -4.68473e-05 4.04283e-07
-5.21016e-06 4.04283e-07 -8.96302e-05
0.000814724 2.81323e-05 3.72979e-08
2.81323e-05 3.75044e-05 -8.77509e-07
3.72979e-08 -8.77509e-07 -1.09747e-05
0.00186659 -2.71232e-05 1.40264e-06
-2.71232e-05 0.000145378 -2.38037e-09
1.40264e-06 -2.38037e-09 5.11153e-05
0.001833 -6.34534e-05 8.29373e-08
-6.34534e-05 0.00011966 -2.64368e-07
8.29373e-08 -2.64368e-07 3.42484e-05
0.0016738 -9.18589e-05 2.86063e-06
-9.18589e-05 6.12587e-06 5.28659e-08
2.86063e-06 5.28659e-08 -8.2287e-05
0.000803879 -0.000108918 1.77203e-06
-0.000108918 5.9272e-05 2.81896e-06
1.77203e-06 2.81896e-06 -5.87795e-05
0.00116348 -0.000149907 1.01877e-06
-0.000149907 0.000186839 4.48539e-06
1.01877e-06 4.48539e-06 -1.81094e-06
0.00118646 -0.000170303 9.07358e-07
-0.000170303 -5.83834e-06 -2.21317e-06
9.07358e-07 -2.21317e-06 -0.000166436
0.00197505 -0.000191089 1.4252e-06
-0.000191089 0.000186806 -1.98135e-06
1.4252e-06 -1.98135e-06 8.80095e-05
0.00105788 -0.000112203 6.53091e-06
-0.000112203 0.000136592 -3.18709e-06
6.53091e-06 -3.18709e-06 3.34228e-05
0.000554633 -9.38882e-05 1.16389e-07
-9.38882e-05 -7.81899e-05 -8.3223e-06
1.16389e-07 -8.3223e-06 -0.000163441
0.000649908 -6.78075e-05 -2.22698e-07
-6.78075e-05 -2.29196e-05 -1.79157e-07
-2.22698e-07 -1.79157e-07 -0.00012918
0.000783695 1.44204e-05 -7.74481e-07
1.44204e-05 3.93788e-06 1.79631e-06
-7.74481e-07 1.79631e-06 -2.86393e-05
0.000900903 -6.40687e-06 -2.22337e-08
-6.40687e-06 9.54031e-05 -4.81056e-07
-2.22337e-08 -4.81056e-07 1.06026e-05
0.00104943 -4.58576e-05 -4.12751e-07
-4.58576e-05 0.000168725 4.48303e-07
-4.12751e-07 4.48303e-07 0.000110288
0.000853222 -1.16261e-05 -7.67347e-07
-1.16261e-05 7.05474e-05 1.07851e-06
-7.67347e-07 1.07851e-06 -6.03715e-06
0.000663879 -4.49742e-06 -1.41246e-07
-4.49742e-06 -4.87208e-05 9.79044e-07
-1.41246e-07 9.79044e-07 -9.88675e-05
0.0018582 -3.3794e-05 -2.74358e-07
-3.3794e-05 0.000110107 -8.68099e-08
-2.74358e-07 -8.68099e-08 3.33466e-05
0.000718177 1.73267e-05 1.86574e-07
1.73267e-05 -1.17139e-05 -5.68052e-07
1.86574e-07 -5.68052e-07 -6.39358e-05
0.000812622 -3.79877e-05 -4.2044e-07
-3.79877e-05 3.76717e-05 4.32808e-08
-4.2044e-07 4.32808e-08 -1.85098e-05
0.000851051 -1.19064e-05 -6.24452e-07
-1.19064e-05 7.29889e-05 5.20583e-07
-6.24452e-07 5.20583e-07 3.42474e-06
0.00174793 -5.9173e-05 6.01907e-07
-5.9173e-05 3.65327e-05 -3.76254e-07
6.01907e-07 -3.76254e-07 -3.89425e-05
0.00180258 -0.000158851 -5.53956e-07
-0.000158851 3.55473e-05 1.69874e-08
-5.53956e-07 1.69874e-08 -4.50998e-05
0.000888693 -0.000100984 3.03943e-07
-0.000100984 6.69048e-05 7.52912e-08
3.03943e-07 7.52912e-08 -4.95014e-05
0.00118788 -0.000170264 6.21431e-07
-0.000170264 0.000164521 -5.4863e-07
6.21431e-07 -5.4863e-07 -4.70494e-05
0.00159398 -0.000207353 -7.12333e-07
-0.000207353 5.8637e-05 3.92174e-07
-7.12333e-07 3.92174e-07 -5.87823e-05
0.000787769 2.14466e-06 -1.6584e-07
2.14466e-06 3.91649e-05 -2.87978e-10
-1.6584e-07 -2.87978e-10 -3.80268e-05
0.00095381 -3.04949e-05 -3.05508e-08
-3.04949e-05 0.000129449 7.29991e-08
-3.05508e-08 7.29991e-08 4.57501e-05
0.000677116 -0.000107135 -5.38669e-06
-0.000107135 -2.75348e-05 1.18218e-06
-5.38669e-06 1.18218e-06 -0.000122865
0.00102026 -6.49695e-05 8.78208e-07
-6.49695e-05 0.000197963 -4.95831e-07
8.78208e-07 -4.95831e-07 8.19708e-05
0.000759507 -4.10656e-05 -3.84686e-07
-4.10656e-05 3.52733e-05 8.72083e-07
-3.84686e-07 8.72083e-07 -6.22737e-05
0.00184462 -7.56361e-05 -2.86211e-06
-7.56361e-05 4.91441e-05 2.0688e-07
-2.86211e-06 2.0688e-07 -1.53791e-05
0.0022795 -9.66583e-05 -7.41853e-07
-9.66583e-05 0.000269896 7.46479e-07
-7.41853e-07 7.46479e-07 0.000208653
0.00195418 -0.000231236 -6.57088e-07
-0.000231236 0.000123365 -8.65401e-07
-6.57088e-07 -8.65401e-07 2.53249e-05
0.00186714 -0.00022471 -5.62304e-06
-0.00022471 0.000390834 3.47326e-07
-5.62304e-06 3.47326e-07 0.000226941
0.000970902 -0.000107074 -2.3609e-06
-0.000107074 0.000149468 -2.38562e-06
-2.3609e-06 -2.38562e-06 -5.40724e-06
0.000654721 1.60592e-05 3.44031e-07
1.60592e-05 -3.55847e-05 -1.07116e-06
3.44031e-07 -1.07116e-06 -0.000104331
0.000716507 5.42526e-05 -2.91785e-07
5.42526e-05 -5.227e-08 -8.17458e-07
-2.91785e-07 -8.17458e-07 -7.29976e-05
0.0010104 1.79634e-05 8.77926e-07
1.79634e-05 0.000157769 3.56786e-07
8.77926e-07 3.56786e-07 8.14749e-05
0.000798301 -5.72433e-05 1.41623e-06
-5.72433e-05 4.98704e-05 -3.22477e-08
1.41623e-06 -3.22477e-08 -3.49494e-05
0.000933103 6.01039e-07 5.8757e-07
6.01039e-07 0.000114673 6.90839e-07
5.8757e-07 6.90839e-07 2.90865e-05
0.000789974 -9.68535e-06 1.2544e-06
-9.68535e-06 6.21115e-05 -1.10496e-06
1.2544e-06 -1.10496e-06 -4.44568e-05
0.000694884 -8.18905e-05 8.40407e-06
-8.18905e-05 4.67239e-05 6.1844e-07
8.40407e-06 6.1844e-07 -0.000103497
0.00084864 3.76797e-05 5.57286e-08
3.76797e-05 7.13248e-05 -1.62848e-06
5.57286e-08 -1.62848e-06 -7.03882e-06
0.000677456 4.76127e-05 4.40686e-08
4.76127e-05 -5.218e-06 -1.76889e-07
4.40686e-08 -1.76889e-07 -0.000109272
0.00185321 6.68549e-05 -4.70918e-07
6.68549e-05 8.49468e-05 -4.92658e-07
-4.70918e-07 -4.92658e-07 1.3918e-05
0.00172781 0.000120549 2.6789e-06
0.000120549 -1.57445e-05 -5.35806e-07
2.6789e-06 -5.35806e-07 -8.80913e-05
0.00189652 0.000211666 9.94951e-07
0.000211666 0.000158849 -5.87286e-07
9.94951e-07 -5.87286e-07 4.28083e-05
0.000614692 0.000100864 1.2295e-06
0.000100864 -5.13355e-05 -3.77857e-07
1.2295e-06 -3.77857e-07 -0.000206882
0.00187434 0.000212028 1.4466e-06
0.000212028 0.000478246 1.3384e-06
1.4466e-06 1.3384e-06 0.000285166
0.00101523 1.56813e-05 -2.45558e-07
1.56813e-05 0.00016704 1.26177e-07
-2.45558e-07 1.26177e-07 7.89768e-05
0.00187649 8.03731e-05 -1.42742e-06
8.03731e-05 6.19533e-05 -3.6748e-07
-1.42742e-06 -3.6748e-07 1.94152e-05
0.00126233 0.000118382 -9.52956e-07
0.000118382 0.000300294 2.34812e-07
-9.52956e-07 2.34812e-07 0.000177853
0.00139663 0.000158263 -6.01865e-07
0.000158263 0.000342885 7.71701e-07
-6.01865e-07 7.71701e-07 0.000166456
0.00211029 0.000213021 1.53115e-06
0.000213021 0.000152088 -7.35829e-07
1.53115e-06 -7.35829e-07 7.49402e-05
0.00143113 0.000203931 -1.74105e-06
0.000203931 0.000116057 1.13248e-06
-1.74105e-06 1.13248e-06 -5.75403e-05
0.00149741 0.000101029 1.07377e-05
0.000101029 -4.24481e-05 1.44235e-06
1.07377e-05 1.44235e-06 -0.000207373
0.00108483 4.2409e-05 -1.40272e-06
4.2409e-05 0.000202902 -9.85222e-07
-1.40272e-06 -9.85222e-07 0.000103487
0.00277493 0.000146899 -1.27069e-05
0.000146899 0.000529826 -8.71709e-06
-1.27069e-05 -8.71709e-06 0.000525221
0.00135954 0.000149073 -4.66368e-06
0.000149073 0.000364789 -8.59008e-07
-4.66368e-06 -8.59008e-07 0.000229703
0.00130274 0.000166092 -5.14583e-06
0.000166092 0.000250926 -7.28242e-07
-5.14583e-06 -7.28242e-07 5.14426e-05
0.000222273 0.000202418 -6.80943e-06
0.000202418 -0.000657196 -1.8893e-06
-6.80943e-06 -1.8893e-06 -0.000788211
0.00712615 6.54204e-06 -6.29272e-05
6.54204e-06 0.00230108 -2.47492e-05
-6.29272e-05 -2.47492e-05 0.00147332
0.00393182 0.000140622 8.50264e-05
0.000140622 0.000594231 5.40178e-06
8.50264e-05 5.40178e-06 -2.10829e-05
-0.000141707 0.000182258 7.16286e-06
0.000182258 -0.000734239 1.81983e-05
7.16286e-06 1.81983e-05 -0.000811752
-0.00131901 -0.000330635 1.9942e-05
-0.000330635 -0.000608956 -1.10218e-05
1.9942e-05 -1.10218e-05 -0.000653622
0.00296306 -0.000598964 -2.33961e-05
-0.000598964 0.000371539 -1.00846e-05
-2.33961e-05 -1.00846e-05 0.00146752
0.000899762 -1.55625e-05 2.10737e-07
-1.55625e-05 9.74943e-05 -3.83057e-07
2.10737e-07 -3.83057e-07 2.25558e-05
0.000920398 -1.67624e-05 5.58398e-07
-1.67624e-05 0.000106256 -2.55964e-07
5.58398e-07 -2.55964e-07 2.75809e-05
0.000970158 2.38624e-05 -3.76847e-08
2.38624e-05 0.00013556 -1.58906e-06
-3.76847e-08 -1.58906e-06 5.7533e-05
0.00080056 -4.51247e-05 1.12847e-07
-4.51247e-05 2.36611e-05 -7.09603e-07
1.12847e-07 -7.09603e-07 -2.90034e-05
0.0007313 3.65076e-05 -8.79828e-07
3.65076e-05 -1.10431e-05 -7.46129e-08
-8.79828e-07 -7.46129e-08 -7.05582e-05
0.000901358 -4.51294e-05 -2.2205e-08
-4.51294e-05 8.8201e-05 -1.97348e-08
-2.2205e-08 -1.97348e-08 2.3774e-05
0.000975825 -2.5775e-05 -4.37218e-07
-2.5775e-05 0.000130314 2.45102e-07
-4.37218e-07 2.45102e-07 6.04796e-05
0.000842382 -2.91637e-05 3.91867e-07
-2.91637e-05 6.02633e-05 -4.69689e-07
3.91867e-07 -4.69689e-07 -1.52327e-05
0.000841655 2.50662e-05 -5.78266e-07
2.50662e-05 5.22218e-05 -2.30529e-07
-5.78266e-07 -2.30529e-07 -1.28126e-05
0.000761213 -2.38336e-06 4.25583e-09
-2.38336e-06 -2.79761e-06 4.73282e-07
4.25583e-09 4.73282e-07 -5.32101e-05
0.000844269 2.04684e-05 -2.921e-07
2.04684e-05 4.96837e-05 -7.29718e-08
-2.921e-07 -7.29718e-08 -1.3898e-05
0.000879639 -2.96699e-05 -2.04907e-07
-2.96699e-05 7.57749e-05 3.50424e-07
-2.04907e-07 3.50424e-07 2.78193e-06
0.000869968 -1.53942e-05 1.42742e-08
-1.53942e-05 6.61919e-05 -1.6016e-07
1.42742e-08 -1.6016e-07 1.33478e-06
0.000774571 9.29365e-06 5.47106e-07
9.29365e-06 1.03927e-05 -5.70451e-07
5.47106e-07 -5.70451e-07 -5.32348e-05
0.000840615 -1.41822e-05 5.82716e-07
-1.41822e-05 4.77715e-05 -1.08069e-06
5.82716e-07 -1.08069e-06 -1.62345e-05
0.000890959 1.08491e-05 1.28891e-06
1.08491e-05 6.88659e-05 1.05701e-07
1.28891e-06 1.05701e-07 4.63497e-06
0.000808453 2.85028e-06 1.01563e-06
2.85028e-06 2.34568e-05 -5.39492e-08
1.01563e-06 -5.39492e-08 -3.99251e-05
0.000703365 -3.30304e-05 -1.21236e-06
-3.30304e-05 -3.32496e-05 1.01763e-06
-1.21236e-06 1.01763e-06 -8.4918e-05
0.000891 9.44845e-06 -3.57382e-07
9.44845e-06 7.68845e-05 3.98809e-08
-3.57382e-07 3.98809e-08 1.19468e-05
0.000958671 6.20019e-05 -5.43489e-08
6.20019e-05 0.000114825 -7.70004e-07
-5.43489e-08 -7.70004e-07 4.74118e-05
0.000787734 1.21857e-05 -6.0571e-07
1.21857e-05 3.09476e-05 -2.90343e-08
-6.0571e-07 -2.90343e-08 -3.25792e-05
0.000896267 1.32479e-05 5.21221e-07
1.32479e-05 8.44896e-05 -3.35757e-07
5.21221e-07 -3.35757e-07 2.07056e-05
0.00081421 -2.28634e-05 -1.39137e-06
-2.28634e-05 2.79562e-05 4.85143e-07
-1.39137e-06 4.85143e-07 -2.14711e-05
0.000712441 6.53087e-06 1.13546e-07
6.53087e-06 -2.53366e-05 4.23142e-07
1.13546e-07 4.23142e-07 -7.83174e-05
0.000785693 1.43185e-05 -1.87436e-07
1.43185e-05 2.0628e-06 1.46015e-06
-1.87436e-07 1.46015e-06 -2.916e-05
0.000776829 5.36907e-06 -1.3043e-07
5.36907e-06 -3.12858e-06 2.07474e-09
-1.3043e-07 2.07474e-09 -3.42531e-05
0.000744398 5.92622e-06 -3.24094e-07
5.92622e-06 -3.12489e-05 4.48241e-06
-3.24094e-07 4.48241e-06 -3.43971e-05
0.000778452 -4.44573e-06 2.76588e-07
-4.44573e-06 -2.97853e-06 -1.43274e-06
2.76588e-07 -1.43274e-06 -3.36675e-05
0.000730717 8.82896e-07 2.06668e-07
8.82896e-07 -3.99636e-05 -7.55967e-09
2.06668e-07 -7.55967e-09 -4.26007e-05
0.00212194 -9.54331e-07 2.86842e-07
-9.54331e-07 0.00072741 4.21019e-06
2.86842e-07 4.21019e-06 0.000749115
0.000752107 -4.22626e-06 -5.51107e-07
-4.22626e-06 -2.77689e-05 -4.46297e-06
-5.51107e-07 -4.46297e-06 -3.01588e-05
0.00152543 -6.77372e-06 -3.41998e-07
-6.77372e-06 0.00039957 2.25584e-08
-3.41998e-07 2.25584e-08 0.000418338
0.000897646 -1.13165e-05 -5.86978e-07
-1.13165e-05 5.52271e-05 -1.5881e-06
-5.86978e-07 -1.5881e-06 7.13162e-05
0.000793199 4.24896e-06 -7.76e-08
4.24896e-06 6.27623e-06 -1.71289e-06
-7.76e-08 -1.71289e-06 -2.25504e-05
0.000787321 7.22279e-06 4.9159e-08
7.22279e-06 3.20225e-06 -3.32006e-09
4.9159e-08 -3.32006e-09 -2.63599e-05
0.000733737 1.0943e-05 2.3763e-07
1.0943e-05 -3.6723e-05 -3.35483e-06
2.3763e-07 -3.35483e-06 -3.87699e-05
0.000791324 9.8988e-06 -6.69922e-07
9.8988e-06 5.79244e-06 1.79714e-06
-6.69922e-07 1.79714e-06 -2.49528e-05
0.00101645 1.85631e-05 -2.4433e-07
1.85631e-05 0.000121126 -6.71656e-07
-2.4433e-07 -6.71656e-07 0.000119552
0.00209935 2.38923e-05 1.16832e-05
2.38923e-05 0.00072003 -4.15946e-06
1.16832e-05 -4.15946e-06 0.000740901
0.000733726 2.29524e-05 -7.69537e-07
2.29524e-05 -2.9465e-05 3.41409e-06
-7.69537e-07 3.41409e-06 -3.45242e-05
0.00215207 3.19028e-05 -6.57815e-06
3.19028e-05 0.00075452 1.1269e-06
-6.57815e-06 1.1269e-06 0.000773937
0.00219397 4.13671e-05 -2.08565e-05
4.13671e-05 0.000783367 3.94022e-06
-2.08565e-05 3.94022e-06 0.000800855
0.00172149 3.7678e-05 3.37233e-07
3.7678e-05 4.80977e-05 1.01066e-07
3.37233e-07 1.01066e-07 -3.74371e-05
0.0017626 4.71104e-06 1.11667e-06
4.71104e-06 7.74768e-05 -2.06456e-07
1.11667e-06 -2.06456e-07 -1.89084e-05
0.00186592 2.29145e-05 3.10366e-06
2.29145e-05 0.000110385 2.19213e-07
3.10366e-06 2.19213e-07 3.95353e-05
0.00191214 1.09522e-05 1.09522e-05
1.09522e-05 -6.47415e-06 2.03619e-06
1.09522e-05 2.03619e-06 -7.36248e-05
0.00182988 4.30921e-06 -4.3119e-07
4.30921e-06 9.70011e-05 -1.40995e-07
-4.3119e-07 -1.40995e-07 2.22718e-05
0.00177641 2.94886e-05 1.51772e-06
2.94886e-05 3.65665e-05 8.16651e-08
1.51772e-06 8.16651e-08 -9.92986e-06
0.00239356 1.23076e-05 -4.48829e-06
1.23076e-05 0.00035507 8.77346e-07
-4.48829e-06 8.77346e-07 0.000289061
0.00315501 -4.26027e-05 0.000137593
-4.26027e-05 0.000482025 6.37783e-06
0.000137593 6.37783e-06 0.000141811
0.0015855 -3.67679e-05 -7.46588e-06
-3.67679e-05 -0.000151296 -2.84351e-06
-7.46588e-06 -2.84351e-06 -0.000217685
0.000818626 3.42967e-05 -8.37588e-07
3.42967e-05 4.09496e-05 -9.31989e-07
-8.37588e-07 -9.31989e-07 -8.33861e-06
0.000812229 -1.37891e-05 6.86625e-07
-1.37891e-05 3.91471e-05 -6.07096e-08
6.86625e-07 -6.07096e-08 -1.15648e-05
0.000817907 -4.63466e-05 1.54731e-07
-4.63466e-05 4.65893e-05 -2.22379e-07
1.54731e-07 -2.22379e-07 -1.50869e-05
0.000817986 -2.12851e-05 -1.293e-06
-2.12851e-05 5.70537e-05 -4.01195e-08
-1.293e-06 -4.01195e-08 -1.02131e-05
0.00185314 -3.6396e-05 1.87296e-06
-3.6396e-05 0.000105629 -2.83101e-07
1.87296e-06 -2.83101e-07 3.01791e-05
0.0016343 -6.46224e-05 -1.96241e-06
-6.46224e-05 -3.19942e-05 6.13081e-08
-1.96241e-06 6.13081e-08 -0.000107392
0.00185095 -0.000158666 -7.0543e-07
-0.000158666 7.38584e-05 7.1842e-07
-7.0543e-07 7.1842e-07 -8.42614e-06
0.000782972 -0.000111742 3.34396e-06
-0.000111742 -1.89582e-07 2.71962e-06
3.34396e-06 2.71962e-06 -0.000111606
0.00031088 -0.000118055 3.42679e-06
-0.000118055 -0.00028098 -8.24335e-07
3.42679e-06 -8.24335e-07 -0.000492007
0.00219806 -0.000237569 4.01322e-07
-0.000237569 0.000377191 -2.27992e-06
4.01322e-07 -2.27992e-06 0.000256049
0.000628283 -9.45527e-05 -7.38887e-06
-9.45527e-05 -5.02138e-05 1.39553e-06
-7.38887e-06 1.39553e-06 -0.000150617
0.000958433 -5.35401e-05 -1.55352e-06
-5.35401e-05 0.0001603 -6.5844e-07
-1.55352e-06 -6.5844e-07 4.87436e-05
0.00100586 -6.29731e-05 -1.78355e-06
-6.29731e-05 0.000167914 1.56062e-06
-1.78355e-06 1.56062e-06 6.96851e-05
0.000821661 -1.325e-05 -1.23261e-06
-1.325e-05 4.10013e-05 1.12268e-06
-1.23261e-06 1.12268e-06 -1.42341e-05
0.000861273 -4.27819e-05 -5.01077e-07
-4.27819e-05 8.44948e-05 8.16676e-08
-5.01077e-07 8.16676e-08 -3.12573e-06
0.000894627 -2.34372e-07 -7.42404e-07
-2.34372e-07 9.55708e-05 6.55803e-07
-7.42404e-07 6.55803e-07 2.03698e-05
0.00081913 -3.79117e-06 -2.43847e-09
-3.79117e-06 4.47136e-05 3.76634e-07
-2.43847e-09 3.76634e-07 -7.9326e-06
0.000707164 2.1185e-05 9.74156e-08
2.1185e-05 -2.81979e-06 1.20003e-06
9.74156e-08 1.20003e-06 -7.49991e-05
0.00192408 -6.21216e-05 -2.25357e-07
-6.21216e-05 0.000109993 6.03395e-07
-2.25357e-07 6.03395e-07 4.50863e-05
0.000825456 1.06405e-05 5.76085e-07
1.06405e-05 5.66291e-05 -4.64201e-07
5.76085e-07 -4.64201e-07 -1.06018e-05
0.000775185 2.40036e-05 5.29733e-07
2.40036e-05 3.28725e-05 -6.98284e-09
5.29733e-07 -6.98284e-09 -4.03494e-05
0.000895677 5.31438e-05 -4.06915e-07
5.31438e-05 9.86384e-05 6.74289e-07
-4.06915e-07 6.74289e-07 2.04934e-05
0.0019753 -9.1867e-05 -2.99304e-06
-9.1867e-05 9.72305e-05 3.23655e-07
-2.99304e-06 3.23655e-07 3.17888e-05
0.00184638 -0.000217787 6.96508e-07
-0.000217787 8.16759e-05 -1.0232e-06
6.96508e-07 -1.0232e-06 -1.45251e-05
0.000971022 -0.000126104 -1.21118e-06
-0.000126104 0.000135441 -1.09473e-08
-1.21118e-06 -1.09473e-08 -1.59775e-05
0.00202391 -0.000232931 -5.00677e-07
-0.000232931 0.000473369 -3.33503e-07
-5.00677e-07 -3.33503e-07 0.000306147
0.000904852 -1.37449e-05 -3.16738e-07
-1.37449e-05 0.000104218 5.63099e-08
-3.16738e-07 5.63099e-08 2.10332e-05
0.000865913 -1.23434e-05 4.97433e-08
-1.23434e-05 8.56675e-05 8.99046e-07
4.97433e-08 8.99046e-07 -2.04981e-06
0.000816688 -8.49401e-05 3.80507e-06
-8.49401e-05 0.000102535 -1.00012e-06
3.80507e-06 -1.00012e-06 -3.98738e-05
0.00101629 -5.26074e-05 8.96129e-07
-5.26074e-05 0.000186475 -1.2284e-06
8.96129e-07 -1.2284e-06 7.25014e-05
0.00154722 -5.10255e-05 -2.73028e-06
-5.10255e-05 -0.000150074 2.63401e-06
-2.73028e-06 2.63401e-06 -0.000217275
0.0021073 -0.00019163 -2.29295e-06
-0.00019163 0.000115177 -1.37451e-06
-2.29295e-06 -1.37451e-06 5.74942e-05
0.00209726 -0.000250144 -2.15858e-06
-0.000250144 0.000338365 -1.7113e-06
-2.15858e-06 -1.7113e-06 0.000201919
0.00123677 -0.000176982 -9.97575e-07
-0.000176982 0.000265801 -1.54051e-06
-9.97575e-07 -1.54051e-06 0.000101787
0.000792238 2.7894e-05 -5.07049e-07
2.7894e-05 4.32056e-05 -2.1924e-07
-5.07049e-07 -2.1924e-07 -3.92736e-05
0.000810354 -3.49049e-05 5.41092e-07
-3.49049e-05 5.92234e-05 -5.33446e-07
5.41092e-07 -5.33446e-07 -2.34536e-05
0.000850174 -1.76635e-05 1.29637e-07
-1.76635e-05 7.79497e-05 -3.28332e-08
1.29637e-07 -3.28332e-08 -1.37354e-05
0.000825775 -3.6104e-06 -1.09731e-06
-3.6104e-06 0.000104791 -2.28145e-07
-1.09731e-06 -2.28145e-07 -4.81961e-05
0.000753477 -9.92061e-05 -7.854e-07
-9.92061e-05 -0.000994004 -2.85346e-06
-7.854e-07 -2.85346e-06 -0.00145685
0.000978164 8.15204e-06 6.22379e-07
8.15204e-06 0.000144929 -1.11142e-06
6.22379e-07 -1.11142e-06 6.12467e-05
0.000694557 8.06982e-05 1.54066e-06
8.06982e-05 1.58855e-06 8.46233e-07
1.54066e-06 8.46233e-07 -0.000116167
0.00180784 7.98114e-05 8.27884e-06
7.98114e-05 2.03081e-05 4.43843e-07
8.27884e-06 4.43843e-07 -1.63318e-05
0.00182795 0.000195456 -2.82331e-07
0.000195456 1.35863e-06 -1.09901e-06
-2.82331e-07 -1.09901e-06 -7.37336e-05
0.00130432 0.000198977 2.18452e-06
0.000198977 5.57853e-05 2.44552e-06
2.18452e-06 2.44552e-06 -0.000123313
0.000799301 0.000120657 3.06115e-06
0.000120657 4.42162e-05 1.00327e-06
3.06115e-06 1.00327e-06 -0.000133052
0.00244012 0.00011493 7.52031e-06
0.00011493 0.0002409 -3.62312e-07
7.52031e-06 -3.62312e-07 4.33835e-05
0.000948012 3.71102e-05 8.04699e-07
3.71102e-05 0.000134967 -7.35869e-07
8.04699e-07 -7.35869e-07 3.73164e-05
0.002137 0.000134413 -5.65901e-06
0.000134413 0.000195716 -2.49093e-06
-5.65901e-06 -2.49093e-06 0.000203895
0.00102518 0.000127766 -5.63471e-09
0.000127766 0.000189073 -9.72727e-08
-5.63471e-09 -9.72727e-08 5.79707e-05
0.00114009 0.000161275 -4.14032e-08
0.000161275 0.000176822 4.25953e-07
-4.14032e-08 4.25953e-07 -2.49761e-05
0.00113494 0.00024431 -3.16996e-06
0.00024431 -0.00021604 -3.32811e-08
-3.16996e-06 -3.32811e-08 -0.000341571
0.00265854 -0.000169918 -4.36061e-05
-0.000169918 0.000123577 -1.50175e-05
-4.36061e-05 -1.50175e-05 -0.000626028
0.00366114 6.28794e-05 2.09148e-07
6.28794e-05 0.000344946 -1.38744e-05
2.09148e-07 -1.38744e-05 -0.00037752
0.000317433 0.000161187 6.28633e-06
0.000161187 -0.000495263 4.89512e-06
6.28633e-06 4.89512e-06 -0.000582572
-0.00190078 -0.000219433 4.02997e-05
-0.000219433 -0.000539313 9.72562e-06
4.02997e-05 9.72562e-06 -0.000912954
-2.35296e-05 -0.00062008 5.86638e-06
-0.00062008 -0.00113036 -6.72554e-06
5.86638e-06 -6.72554e-06 0.000136299
0.00118389 8.45225e-05 -1.52363e-06
8.45225e-05 0.000281197 -2.15069e-06
-1.52363e-06 -2.15069e-06 0.00018402
0.000816456 0.000122001 -6.67995e-05
0.000122001 0.000801738 -2.27362e-05
-6.67995e-05 -2.27362e-05 0.000410075
0.00148781 -0.000331496 -4.38982e-05
-0.000331496 0.000625677 -3.82946e-05
-4.38982e-05 -3.82946e-05 0.000845128
0.00149216 0.000166558 -1.72562e-05
0.000166558 -7.38608e-05 -4.88684e-06
-1.72562e-05 -4.88684e-06 -4.60609e-05
0.00113924 7.99444e-05 -6.16445e-06
7.99444e-05 0.000273716 -1.73196e-06
-6.16445e-06 -1.73196e-06 0.000129388
0.00103327 0.000218926 -1.06484e-05
0.000218926 6.226e-05 -5.69941e-06
-1.06484e-05 -5.69941e-06 -0.000147935
-3.07351e-05 0.00020626 5.22405e-06
0.00020626 -0.000661048 4.31286e-05
5.22405e-06 4.31286e-05 -0.000634475
0.0066356 -0.000141022 -4.89307e-05
-0.000141022 0.00227181 -1.27929e-05
-4.89307e-05 -1.27929e-05 0.00103397
0.00374757 0.000260738 -7.53016e-06
0.000260738 0.000494471 2.31318e-05
-7.53016e-06 2.31318e-05 -0.000505918
0.000840565 -0.000527025 -1.21259e-05
-0.000527025 -3.70441e-05 -4.27452e-06
-1.21259e-05 -4.27452e-06 0.000260596
0.000941745 -0.000338638 -3.3168e-05
-0.000338638 -0.00153777 1.54609e-05
-3.3168e-05 1.54609e-05 -0.000551151
0.000910714 -2.16363e-05 6.47158e-07
-2.16363e-05 0.000104585 -3.6497e-07
6.47158e-07 -3.6497e-07 2.61528e-05
0.000940748 1.28606e-05 -2.16574e-07
1.28606e-05 0.000119859 1.23682e-07
-2.16574e-07 1.23682e-07 4.26301e-05
0.00116086 5.12545e-05 -7.62664e-07
5.12545e-05 0.000240287 -1.7647e-06
-7.62664e-07 -1.7647e-06 0.00017356
0.000798041 2.56497e-06 -1.37648e-07
2.56497e-06 2.59155e-05 -1.59426e-07
-1.37648e-07 -1.59426e-07 -2.91194e-05
0.000856327 1.40249e-05 -7.04265e-07
1.40249e-05 5.50708e-05 -1.64479e-07
-7.04265e-07 -1.64479e-07 -7.28232e-06
0.000789686 -3.45727e-05 -4.605e-07
-3.45727e-05 1.9237e-05 -1.29084e-07
-4.605e-07 -1.29084e-07 -4.2961e-05
0.000912189 -1.86432e-05 1.21775e-07
-1.86432e-05 8.88143e-05 4.92731e-08
1.21775e-07 4.92731e-08 2.37343e-05
0.000926531 -3.24586e-05 -6.58325e-08
-3.24586e-05 0.000101775 1.1536e-06
-6.58325e-08 1.1536e-06 2.85706e-05
0.000710923 -5.87412e-07 4.74106e-07
-5.87412e-07 -2.70014e-05 4.29559e-07
4.74106e-07 4.29559e-07 -8.01449e-05
0.000829988 -1.68978e-05 -1.09013e-07
-1.68978e-05 3.9801e-05 -1.99359e-07
-1.09013e-07 -1.99359e-07 -2.38546e-05
0.00091378 -2.03497e-05 -8.21239e-08
-2.03497e-05 8.35306e-05 2.76821e-07
-8.21239e-08 2.76821e-07 1.85202e-05
0.000875076 2.35132e-05 5.00256e-07
2.35132e-05 6.57355e-05 -1.91893e-07
5.00256e-07 -1.91893e-07 -7.29353e-07
0.000869744 -1.2651e-05 1.71312e-07
-1.2651e-05 6.31264e-05 -5.55738e-08
1.71312e-07 -5.55738e-08 -6.40617e-07
0.000804629 -2.46101e-05 5.46598e-07
-2.46101e-05 1.82321e-05 -4.55551e-07
5.46598e-07 -4.55551e-07 -4.54223e-05
0.000862658 1.09867e-05 -4.99273e-07
1.09867e-05 4.92829e-05 -2.75007e-06
-4.99273e-07 -2.75007e-06 -8.56948e-06
0.000934159 -5.76165e-05 1.55947e-07
-5.76165e-05 8.9246e-05 -2.77521e-07
1.55947e-07 -2.77521e-07 2.28465e-05
0.000912793 -4.0398e-05 -4.75908e-07
-4.0398e-05 8.75995e-05 -2.8713e-07
-4.75908e-07 -2.8713e-07 2.0668e-05
0.000909555 -6.35984e-06 -4.33502e-07
-6.35984e-06 8.66423e-05 -1.09474e-07
-4.33502e-07 -1.09474e-07 2.14391e-05
0.000928799 5.0896e-05 -3.88773e-07
5.0896e-05 9.57968e-05 -2.5817e-07
-3.88773e-07 -2.5817e-07 2.97194e-05
0.000892798 2.10132e-05 -3.24821e-07
2.10132e-05 7.75278e-05 -7.18663e-07
-3.24821e-07 -7.18663e-07 5.39025e-06
0.000853448 4.97838e-05 1.34889e-07
4.97838e-05 6.17452e-05 -4.27087e-07
1.34889e-07 -4.27087e-07 -4.4676e-06
0.000907473 6.54329e-05 -2.1789e-07
6.54329e-05 8.30611e-05 -8.22115e-07
-2.1789e-07 -8.22115e-07 1.64951e-05
0.000772567 3.58025e-05 1.36998e-06
3.58025e-05 3.05211e-05 1.23984e-06
1.36998e-06 1.23984e-06 -4.09248e-05
0.000795652 2.5186e-05 -1.08614e-07
2.5186e-05 3.10816e-05 8.29018e-08
-1.08614e-07 8.29018e-08 -2.80877e-05
0.000816647 5.67998e-06 -1.00721e-07
5.67998e-06 4.41645e-05 -2.3587e-08
-1.00721e-07 -2.3587e-08 -1.78798e-05
0.00080458 1.47439e-05 -1.01862e-06
1.47439e-05 2.1492e-05 4.00294e-07
-1.01862e-06 4.00294e-07 -2.57836e-05
0.000856893 1.70901e-05 5.84367e-07
1.70901e-05 5.56925e-05 -1.94402e-07
5.84367e-07 -1.94402e-07 -4.35456e-06
0.000779717 -1.81331e-05 -3.13775e-08
-1.81331e-05 9.04992e-06 2.78312e-08
-3.13775e-08 2.78312e-08 -4.08511e-05
0.000787414 1.61419e-05 -5.17633e-07
1.61419e-05 3.35339e-06 1.5202e-06
-5.17633e-07 1.5202e-06 -2.76798e-05
0.000721604 8.01372e-06 4.42836e-07
8.01372e-06 -1.79664e-05 -1.69689e-07
4.42836e-07 -1.69689e-07 -7.25865e-05
0.000780829 8.33518e-06 -1.35222e-07
8.33518e-06 -8.80395e-07 2.72014e-10
-1.35222e-07 2.72014e-10 -3.19584e-05
0.00134168 1.31392e-05 -2.92076e-06
1.31392e-05 0.000299001 4.42131e-06
-2.92076e-06 4.42131e-06 0.000298653
0.000775149 -1.64751e-06 5.65764e-07
-1.64751e-06 -4.15866e-06 -1.43079e-06
5.65764e-07 -1.43079e-06 -3.52062e-05
0.00103759 6.92447e-06 -1.36276e-06
6.92447e-06 0.000129938 6.57247e-07
-1.36276e-06 6.57247e-07 0.000128397
0.00095368 3.45098e-06 -2.91674e-06
3.45098e-06 8.52311e-05 4.10706e-06
-2.91674e-06 4.10706e-06 0.00010056
0.000735612 1.02806e-06 5.36821e-10
1.02806e-06 -3.72446e-05 -3.14081e-06
5.36821e-10 -3.14081e-06 -3.99244e-05
0.00212723 -3.28271e-07 2.5352e-06
-3.28271e-07 0.000730352 -7.00034e-10
2.5352e-06 -7.00034e-10 0.000752005
0.000963478 -3.87863e-06 -2.31731e-06
-3.87863e-06 9.03123e-05 -4.09682e-06
-2.31731e-06 -4.09682e-06 0.000106077
0.000815432 5.08475e-05 4.92289e-07
5.08475e-05 4.17847e-05 -2.34327e-07
4.92289e-07 -2.34327e-07 -1.02434e-05
0.000790488 -6.12558e-08 -1.2508e-07
-6.12558e-08 4.45577e-06 -1.69436e-06
-1.2508e-07 -1.69436e-06 -2.38421e-05
0.00079097 3.33086e-06 -8.40513e-08
3.33086e-06 4.90193e-06 -1.04297e-08
-8.40513e-08 -1.04297e-08 -2.38737e-05
0.000738742 5.15905e-06 -5.83284e-08
5.15905e-06 -3.56484e-05 -3.33646e-06
-5.83284e-08 -3.33646e-06 -3.68291e-05
0.000787342 6.23543e-06 -3.10169e-07
6.23543e-06 2.85863e-06 1.66767e-06
-3.10169e-07 1.66767e-06 -2.6655e-05
0.000731014 1.11333e-05 3.62336e-08
1.11333e-05 -3.85897e-05 -6.88616e-07
3.62336e-08 -6.88616e-07 -4.05498e-05
0.00208138 1.56178e-05 7.81555e-06
1.56178e-05 0.000707278 -4.24878e-06
7.81555e-06 -4.24878e-06 0.000728997
0.00129884 2.20679e-05 -1.19274e-06
2.20679e-05 0.000276825 2.03997e-06
-1.19274e-06 2.03997e-06 0.00027658
0.00153338 2.04578e-05 3.59262e-07
2.04578e-05 0.000409733 1.32283e-06
3.59262e-07 1.32283e-06 0.000427295
0.000998242 2.30005e-05 -1.5809e-05
2.30005e-05 0.000120294 6.69949e-06
-1.5809e-05 6.69949e-06 0.000133434
1.33979e-05 3.54347e-05 1.63812e-05
3.54347e-05 -0.000946806 8.00665e-06
1.63812e-05 8.00665e-06 -0.00103478
0.00203617 3.21907e-06 2.00678e-06
3.21907e-06 0.000205384 2.02999e-07
2.00678e-06 2.02999e-07 0.000130499
0.00200175 2.81199e-05 6.0509e-06
2.81199e-05 0.000170142 -1.46237e-06
6.0509e-06 -1.46237e-06 0.000119695
0.00107255 3.02065e-07 2.51338e-05
3.02065e-07 -0.000362192 -4.45866e-06
2.51338e-05 -4.45866e-06 -0.000695888
0.0018426 -2.99405e-05 -9.52157e-07
-2.99405e-05 4.79306e-05 6.55721e-07
-9.52157e-07 6.55721e-07 -2.74135e-05
0.00192745 4.03089e-06 -3.23158e-06
4.03089e-06 5.20209e-05 -1.28203e-06
-3.23158e-06 -1.28203e-06 -1.01692e-05
0.0021138 -5.38201e-06 -1.76546e-05
-5.38201e-06 0.000207168 1.8363e-06
-1.76546e-05 1.8363e-06 0.00013316
0.00158715 -9.53621e-05 0.000130086
-9.53621e-05 -9.45263e-05 -8.80598e-06
0.000130086 -8.80598e-06 -0.000438946
0.0083915 -3.44221e-06 -2.7897e-05
-3.44221e-06 0.00287919 8.4629e-07
-2.7897e-05 8.4629e-07 0.0020321
0.00282934 0.000587353 1.98468e-05
0.000587353 0.00133556 -6.16633e-06
1.98468e-05 -6.16633e-06 0.00152166
0.00215167 0.000598319 -1.50958e-05
0.000598319 0.000539523 1.12819e-05
-1.50958e-05 1.12819e-05 0.00154282
0.000692871 -5.26208e-05 1.05486e-06
-5.26208e-05 -1.61929e-05 -8.35592e-07
1.05486e-06 -8.35592e-07 -8.06044e-05
0.000817767 -1.02479e-05 2.68301e-07
-1.02479e-05 4.18045e-05 -5.07282e-08
2.68301e-07 -5.07282e-08 -8.36774e-06
0.0008103 -5.59584e-05 -1.04503e-06
-5.59584e-05 4.15932e-05 9.95127e-07
-1.04503e-06 9.95127e-07 -1.16069e-05
0.000794731 -2.06485e-05 -3.08625e-07
-2.06485e-05 3.8038e-05 2.55103e-08
-3.08625e-07 2.55103e-08 -2.6747e-05
0.000790775 3.98584e-05 1.70194e-07
3.98584e-05 4.74232e-05 5.89718e-07
1.70194e-07 5.89718e-07 -2.88582e-05
0.000933757 7.40431e-05 3.6734e-07
7.40431e-05 0.000115697 7.42812e-07
3.6734e-07 7.42812e-07 4.3599e-05
0.000863581 -2.65664e-05 6.26375e-07
-2.65664e-05 7.52926e-05 -8.30505e-07
6.26375e-07 -8.30505e-07 1.09261e-05
0.00078179 -3.67713e-05 -4.90551e-07
-3.67713e-05 3.29121e-05 5.80728e-07
-4.90551e-07 5.80728e-07 -3.18725e-05
0.00197136 -4.70716e-05 3.09024e-06
-4.70716e-05 0.000155147 -5.84073e-07
3.09024e-06 -5.84073e-07 9.01707e-05
0.00166405 -9.0535e-05 -8.29426e-07
-9.0535e-05 -8.65943e-05 -4.59135e-07
-8.29426e-07 -4.59135e-07 -0.000155659
0.00155584 -0.00020141 -2.11951e-06
-0.00020141 -5.50542e-05 6.48547e-07
-2.11951e-06 6.48547e-07 -0.000149007
0.000905024 -0.00013483 1.24262e-06
-0.00013483 8.58917e-05 2.70917e-06
1.24262e-06 2.70917e-06 -6.25496e-05
0.00192103 -0.000227643 8.52092e-07
-0.000227643 0.000422288 2.80889e-07
8.52092e-07 2.80889e-07 0.000249778
0.000905044 -8.60045e-05 -6.48096e-07
-8.60045e-05 0.000141205 -3.27908e-07
-6.48096e-07 -3.27908e-07 6.24659e-06
0.00123385 -9.37422e-05 -1.5438e-07
-9.37422e-05 0.000306592 -2.2291e-07
-1.5438e-07 -2.2291e-07 0.000185236
0.000809052 -3.50452e-05 -1.38984e-06
-3.50452e-05 6.17166e-05 7.58568e-07
-1.38984e-06 7.58568e-07 -2.77828e-05
0.000813747 1.80437e-06 2.73171e-07
1.80437e-06 5.47307e-05 5.77613e-07
2.73171e-07 5.77613e-07 -1.84535e-05
0.00100634 1.39169e-05 -9.56065e-07
1.39169e-05 0.000155905 -6.28632e-11
-9.56065e-07 -6.28632e-11 7.44087e-05
0.00101555 -2.11951e-06 5.41226e-07
-2.11951e-06 0.000158556 2.50474e-07
5.41226e-07 2.50474e-07 9.30713e-05
0.00078055 8.67605e-05 1.06255e-06
8.67605e-05 3.88794e-05 1.44795e-06
1.06255e-06 1.44795e-06 -4.10581e-05
0.00159867 -5.05472e-05 -1.08103e-06
-5.05472e-05 -0.000125461 -2.34079e-06
-1.08103e-06 -2.34079e-06 -0.000189036
0.000850156 3.19434e-05 -3.78621e-07
3.19434e-05 7.47084e-05 2.67754e-07
-3.78621e-07 2.67754e-07 -5.77328e-06
0.000848025 -2.29594e-05 -3.76455e-07
-2.29594e-05 7.50011e-05 -3.95671e-07
-3.76455e-07 -3.95671e-07 -5.72929e-06
0.00213086 -0.000198559 3.85134e-07
-0.000198559 0.000132215 -5.20139e-08
3.85134e-07 -5.20139e-08 6.98891e-05
0.00111196 -0.00020504 1.20858e-06
-0.00020504 -0.000158979 5.83491e-07
1.20858e-06 5.83491e-07 -0.000285315
0.00120054 -0.000176596 8.93677e-07
-0.000176596 0.000239654 -1.39385e-06
8.93677e-07 -1.39385e-06 6.63712e-05
0.000986842 -1.80877e-05 1.44182e-07
-1.80877e-05 0.000151749 -4.20246e-07
1.44182e-07 -4.20246e-07 5.79002e-05
0.000976386 -2.90365e-05 2.58484e-07
-2.90365e-05 0.000184556 4.8902e-07
2.58484e-07 4.8902e-07 3.08878e-05
0.00369603 -0.000164212 -1.04057e-05
-0.000164212 0.00108749 6.45275e-06
-1.04057e-05 6.45275e-06 0.00100766
0.00287933 -0.000288981 -9.53013e-06
-0.000288981 0.000597375 -9.3231e-07
-9.53013e-06 -9.3231e-07 0.000540439
-0.000866947 -0.000113908 -3.09837e-06
-0.000113908 -0.000975779 -1.62054e-06
-3.09837e-06 -1.62054e-06 -0.00111332
0.0011619 -0.00010896 -4.10871e-06
-0.00010896 0.000252432 1.98839e-06
-4.10871e-06 1.98839e-06 7.01063e-05
0.000736753 -7.24113e-05 9.44045e-07
-7.24113e-05 6.51227e-06 -1.75916e-07
9.44045e-07 -1.75916e-07 -7.26528e-05
0.000895174 -2.76473e-05 1.0627e-06
-2.76473e-05 9.32689e-05 1.32041e-07
1.0627e-06 1.32041e-07 8.44477e-06
0.00092687 -8.74523e-06 -2.34857e-06
-8.74523e-06 0.000124299 2.75733e-07
-2.34857e-06 2.75733e-07 1.80002e-05
-0.00395367 -4.01295e-05 4.3828e-05
-4.01295e-05 -0.00175665 9.15711e-06
4.3828e-05 9.15711e-06 -0.00156991
0.00805896 -5.25211e-05 -2.96041e-05
-5.25211e-05 0.002795 -2.37713e-07
-2.96041e-05 -2.37713e-07 0.00220432
0.000863332 3.5546e-05 2.20747e-06
3.5546e-05 9.60462e-05 -5.37342e-07
2.20747e-06 -5.37342e-07 -8.38426e-07
0.000772098 0.000111599 2.78682e-06
0.000111599 5.8147e-05 -1.43167e-07
2.78682e-06 -1.43167e-07 -7.00516e-05
0.00162434 0.000118653 2.83228e-06
0.000118653 -7.57224e-05 5.06179e-06
2.83228e-06 5.06179e-06 -5.40448e-05
0.00225195 0.000295834 2.08133e-06
0.000295834 0.00032768 8.35555e-07
2.08133e-06 8.35555e-07 0.000207782
0.000994131 0.000156397 5.02358e-06
0.000156397 0.00011031 1.59963e-06
5.02358e-06 1.59963e-06 -9.28737e-05
0.00496213 0.000155108 5.62985e-05
0.000155108 0.00121715 -1.122e-06
5.62985e-05 -1.122e-06 0.000288861
0.00500402 0.000110413 -8.14615e-05
0.000110413 0.000887491 -2.87501e-05
-8.14615e-05 -2.87501e-05 0.000295872
0.000418811 0.000131228 3.69952e-06
0.000131228 -0.000452594 -1.81476e-05
3.69952e-06 -1.81476e-05 -0.000532024
0.00334395 -0.000471497 1.99554e-05
-0.000471497 0.00166753 1.81338e-05
1.99554e-05 1.81338e-05 0.00159298
-0.00304841 -0.000655407 -1.93314e-05
-0.000655407 -0.00261334 -3.42324e-05
-1.93314e-05 -3.42324e-05 -0.00115488
0.000989435 9.44499e-05 4.78106e-07
9.44499e-05 0.00018247 -7.56394e-07
4.78106e-07 -7.56394e-07 8.33041e-05
-0.00272512 -0.000142391 1.81529e-05
-0.000142391 -0.00139009 1.59256e-06
1.81529e-05 1.59256e-06 -0.00129152
-0.000287829 -0.000309228 -2.30414e-05
-0.000309228 -0.000111725 -7.8534e-06
-2.30414e-05 -7.8534e-06 -0.000122528
0.00245638 0.000197508 -3.62034e-06
0.000197508 0.000397399 -2.8535e-06
-3.62034e-06 -2.8535e-06 0.000432991
0.000871893 8.86513e-05 -5.99047e-07
8.86513e-05 0.000145266 -3.154e-07
-5.99047e-07 -3.154e-07 -9.52972e-07
0.000557559 0.000166264 9.64712e-07
0.000166264 -0.000170557 9.21019e-07
9.64712e-07 9.21019e-07 -0.00037499
-1.52992e-05 0.000123734 1.77143e-05
0.000123734 -0.000594805 1.11061e-05
1.77143e-05 1.11061e-05 -0.000527081
0.00616374 -0.00011211 -5.72009e-06
-0.00011211 0.00191698 -2.73408e-06
-5.72009e-06 -2.73408e-06 0.000593068
0.00558415 0.000367327 -2.31323e-05
0.000367327 0.00133982 -1.64857e-05
-2.31323e-05 -1.64857e-05 0.000618246
0.00414487 -0.000720415 1.73789e-05
-0.000720415 0.00164394 -1.18605e-05
1.73789e-05 -1.18605e-05 0.0017077
0.000970112 -0.000395658 1.90964e-05
-0.000395658 -0.00163985 4.6088e-05
1.90964e-05 4.6088e-05 -0.000579146
0.00114885 6.03909e-05 -4.63005e-06
6.03909e-05 0.000282048 -4.24633e-06
-4.63005e-06 -4.24633e-06 0.000197115
-0.00193117 -0.00010353 -6.99261e-05
-0.00010353 -0.000387231 -1.83055e-05
-6.99261e-05 -1.83055e-05 -0.000848895
0.00188106 -3.0983e-05 -5.24866e-05
-3.0983e-05 0.000158198 -5.25262e-05
-5.24866e-05 -5.25262e-05 -0.000213402
0.000648093 0.000162855 -2.12709e-05
0.000162855 -0.000224555 -2.5223e-06
-2.12709e-05 -2.5223e-06 -0.000215818
0.00165758 0.000190333 -2.02267e-05
0.000190333 0.000610775 -5.99382e-06
-2.02267e-05 -5.99382e-06 0.000443104
0.00236549 0.000121879 -4.03867e-05
0.000121879 0.000914821 -3.32365e-06
-4.03867e-05 -3.32365e-06 0.000831093
0.00507757 0.000584804 -0.000106222
0.000584804 0.00126765 7.62719e-06
-0.000106222 7.62719e-06 0.000822304
-0.00114351 -0.00011339 3.51403e-05
-0.00011339 -0.00107633 4.26352e-05
3.51403e-05 4.26352e-05 -0.0028062
0.00703743 -0.000752099 -5.38401e-05
-0.000752099 0.00190331 1.47952e-05
-5.38401e-05 1.47952e-05 0.00209244
0.00155356 -0.000224646 -1.28691e-05
-0.000224646 -0.00174862 -1.43839e-05
-1.28691e-05 -1.43839e-05 -0.000736363
0.000911074 2.49609e-05 6.38499e-07
2.49609e-05 0.000107538 2.21441e-06
6.38499e-07 2.21441e-06 2.79964e-05
0.00106679 5.02777e-05 1.27803e-06
5.02777e-05 0.000188806 1.3345e-06
1.27803e-06 1.3345e-06 0.000120553
0.000555349 4.64367e-05 -9.32406e-08
4.64367e-05 -7.65057e-05 -3.81553e-06
-9.32406e-08 -3.81553e-06 -0.000129882
0.000714653 3.46932e-05 2.9336e-07
3.46932e-05 -2.49835e-05 -1.53328e-07
2.9336e-07 -1.53328e-07 -7.81733e-05
0.000933101 3.26877e-05 -6.98889e-07
3.26877e-05 0.000100597 -2.79334e-07
-6.98889e-07 -2.79334e-07 3.30232e-05
0.000927457 -3.37713e-05 -4.24685e-07
-3.37713e-05 9.18632e-05 3.80464e-07
-4.24685e-07 3.80464e-07 2.70658e-05
0.000860079 -2.67615e-05 -6.94127e-07
-2.67615e-05 5.64853e-05 -2.00471e-07
-6.94127e-07 -2.00471e-07 -7.64477e-06
0.000886744 -1.58203e-05 -6.67103e-07
-1.58203e-05 7.15461e-05 1.25985e-06
-6.67103e-07 1.25985e-06 8.20393e-06
0.000905322 2.55972e-05 3.03997e-07
2.55972e-05 8.39569e-05 -4.15608e-07
3.03997e-07 -4.15608e-07 1.67684e-05
0.000903796 -2.72027e-05 -1.30709e-08
-2.72027e-05 7.2752e-05 2.46831e-07
-1.30709e-08 2.46831e-07 8.83784e-06
0.000919271 -3.76288e-05 1.72553e-07
-3.76288e-05 8.35075e-05 2.06764e-07
1.72553e-07 2.06764e-07 1.55379e-05
0.000863567 -4.90865e-06 8.79744e-08
-4.90865e-06 5.42132e-05 -1.23288e-07
8.79744e-08 -1.23288e-07 -1.80208e-06
0.000992543 -3.50936e-05 1.8459e-06
-3.50936e-05 0.000129056 -1.8552e-06
1.8459e-06 -1.8552e-06 8.13292e-05
0.000885879 -3.42702e-05 1.38183e-08
-3.42702e-05 5.38273e-05 -2.02574e-06
1.38183e-08 -2.02574e-06 -7.88694e-06
0.000918834 2.87628e-06 1.05958e-07
2.87628e-06 8.86529e-05 -4.73535e-07
1.05958e-07 -4.73535e-07 1.51017e-05
0.000917743 -3.05833e-05 1.51345e-07
-3.05833e-05 9.34789e-05 -3.36724e-07
1.51345e-07 -3.36724e-07 2.63475e-05
0.000894765 1.92705e-05 -2.46506e-07
1.92705e-05 7.22754e-05 2.40621e-07
-2.46506e-07 2.40621e-07 9.00893e-06
0.000887944 -2.73777e-06 2.12064e-07
-2.73777e-06 7.29457e-05 -2.8593e-07
2.12064e-07 -2.8593e-07 2.26952e-06
0.000841025 4.75788e-05 -1.83649e-07
4.75788e-05 5.38954e-05 -3.57384e-08
-1.83649e-07 -3.57384e-08 -1.17212e-05
0.000893325 3.4745e-05 -3.87494e-07
3.4745e-05 7.14415e-05 2.18025e-08
-3.87494e-07 2.18025e-08 7.54554e-06
0.000791045 5.12595e-05 8.93616e-07
5.12595e-05 3.29923e-05 2.16667e-07
8.93616e-07 2.16667e-07 -3.394e-05
0.000836795 3.93027e-05 3.05507e-08
3.93027e-05 4.53815e-05 -8.62177e-07
3.05507e-08 -8.62177e-07 -2.50926e-05
0.000870701 4.42304e-05 1.36477e-07
4.42304e-05 6.64452e-05 -6.61614e-07
1.36477e-07 -6.61614e-07 2.21748e-06
0.00081606 2.52754e-05 1.85921e-06
2.52754e-05 4.89653e-05 2.16497e-07
1.85921e-06 2.16497e-07 -3.25461e-05
0.000636408 -4.24114e-05 2.2457e-07
-4.24114e-05 -9.04145e-06 1.7956e-07
2.2457e-07 1.7956e-07 -0.000120988
0.000539358 2.18931e-05 7.0078e-08
2.18931e-05 -8.60435e-05 4.3706e-07
7.0078e-08 4.3706e-07 -0.000166848
0.000817954 3.6234e-05 3.88157e-07
3.6234e-05 5.58738e-05 5.50781e-07
3.88157e-07 5.50781e-07 -1.61544e-05
0.000816733 3.72586e-05 3.9675e-07
3.72586e-05 4.61326e-05 6.98782e-07
3.9675e-07 6.98782e-07 -1.56013e-05
0.000823533 1.72735e-05 -1.82632e-07
1.72735e-05 4.82527e-05 -6.72973e-08
-1.82632e-07 -6.72973e-08 -1.25783e-05
0.000805771 3.03161e-05 -6.15775e-07
3.03161e-05 2.6249e-05 4.45301e-07
-6.15775e-07 4.45301e-07 -2.18111e-05
0.000848866 1.6525e-05 4.35825e-07
1.6525e-05 5.92663e-05 1.18128e-07
4.35825e-07 1.18128e-07 -1.30158e-06
0.000823533 1.9733e-06 -1.10612e-07
1.9733e-06 3.31773e-05 9.48548e-09
-1.10612e-07 9.48548e-09 -1.51847e-05
0.000783868 2.07681e-05 -8.99595e-07
2.07681e-05 3.13921e-06 1.52638e-06
-8.99595e-07 1.52638e-06 -2.79027e-05
0.000744572 -9.67416e-06 6.47512e-07
-9.67416e-06 -1.19478e-05 -3.91702e-07
6.47512e-07 -3.91702e-07 -6.11827e-05
0.000785048 1.21662e-05 -5.96493e-08
1.21662e-05 1.76704e-06 4.29657e-09
-5.96493e-08 4.29657e-09 -2.9141e-05
0.00133464 1.98021e-05 -4.7555e-06
1.98021e-05 0.000297728 4.3816e-06
-4.7555e-06 4.3816e-06 0.000297078
0.000778709 3.17676e-06 7.1658e-07
3.17676e-06 -2.31189e-06 -1.44092e-06
7.1658e-07 -1.44092e-06 -3.32707e-05
0.00103512 1.30737e-05 -2.14663e-06
1.30737e-05 0.000130337 6.42026e-07
-2.14663e-06 6.42026e-07 0.000128547
0.000902113 1.11136e-05 -5.76324e-07
1.11136e-05 5.82908e-05 1.58983e-06
-5.76324e-07 1.58983e-06 7.34978e-05
0.00072994 6.36556e-06 2.70201e-07
6.36556e-06 -3.96026e-05 -3.13749e-06
2.70201e-07 -3.13749e-06 -4.2603e-05
0.00213338 7.74427e-06 2.26741e-06
7.74427e-06 0.000734334 1.90761e-08
2.26741e-06 1.90761e-08 0.000755782
0.00213121 3.01731e-07 8.22801e-07
3.01731e-07 0.000732547 -4.23065e-06
8.22801e-07 -4.23065e-06 0.000754143
0.00107311 3.69224e-05 -1.13821e-06
3.69224e-05 0.000177722 -5.21577e-07
-1.13821e-06 -5.21577e-07 0.0001282
0.000788706 -4.19559e-06 -3.21868e-07
-4.19559e-06 3.40348e-06 -1.6847e-06
-3.21868e-07 -1.6847e-06 -2.49884e-05
0.000810857 3.71118e-06 7.39085e-07
3.71118e-06 3.88225e-05 5.16852e-07
7.39085e-07 5.16852e-07 -1.25838e-05
0.000742513 -7.98527e-07 -1.38332e-07
-7.98527e-07 -3.4022e-05 -3.30652e-06
-1.38332e-07 -3.30652e-06 -3.47739e-05
0.000795698 -7.39947e-07 4.77161e-08
-7.39947e-07 7.27507e-06 -1.02159e-09
4.77161e-08 -1.02159e-09 -2.10379e-05
0.000788541 2.48513e-06 -2.11204e-07
2.48513e-06 3.41949e-06 1.65225e-06
-2.11204e-07 1.65225e-06 -2.53034e-05
0.000741121 5.42687e-06 -1.63167e-07
5.42687e-06 -3.43654e-05 6.06229e-09
-1.63167e-07 6.06229e-09 -3.55691e-05
0.00206179 7.36102e-06 3.54722e-06
7.36102e-06 0.000694922 -4.28128e-06
3.54722e-06 -4.28128e-06 0.00071722
0.00129506 1.48278e-05 -7.08277e-07
1.48278e-05 0.000271697 2.01506e-06
-7.08277e-07 2.01506e-06 0.000272678
0.00150356 1.37916e-05 2.17463e-06
1.37916e-05 0.000389638 4.83613e-08
2.17463e-06 4.83613e-08 0.000408255
0.000976487 1.66495e-05 -1.35879e-05
1.66495e-05 0.000103039 6.73917e-06
-1.35879e-05 6.73917e-06 0.00011781
-0.00609467 0.000107011 2.74337e-05
0.000107011 -0.00294592 1.4692e-06
2.74337e-05 1.4692e-06 -0.0029576
-0.00124416 0.000262883 1.12317e-05
0.000262883 -0.00048441 1.6932e-05
1.12317e-05 1.6932e-05 -0.00048396
0.00200788 8.6171e-06 -0.000122318
8.6171e-06 4.31809e-05 -4.8442e-06
-0.000122318 -4.8442e-06 -0.0002829
0.00203578 -2.60994e-05 1.37557e-05
-2.60994e-05 0.000211545 8.77357e-07
1.37557e-05 8.77357e-07 0.000121497
0.00153108 -4.57427e-06 -2.59396e-06
-4.57427e-06 -0.000212779 -3.02001e-07
-2.59396e-06 -3.02001e-07 -0.000271494
0.00137671 -4.58499e-06 2.71372e-05
-4.58499e-06 -4.03943e-05 -7.74386e-07
2.71372e-05 -7.74386e-07 -0.000287501
0.00205743 -7.27255e-06 -1.69325e-06
-7.27255e-06 0.000174819 1.13639e-06
-1.69325e-06 1.13639e-06 0.000101682
0.00517139 0.000213704 -1.71668e-05
0.000213704 0.00124964 -1.28773e-05
-1.71668e-05 -1.28773e-05 0.000515229
-0.00363377 0.000245861 -1.70903e-05
0.000245861 -0.00140443 -4.31355e-07
-1.70903e-05 -4.31355e-07 -0.00157516
-0.000462209 0.000629937 -6.9956e-06
0.000629937 -0.00110026 3.1244e-07
-6.9956e-06 3.1244e-07 0.000179017
0.00193233 -8.04199e-05 6.51728e-05
-8.04199e-05 0.000158327 -2.32377e-06
6.51728e-05 -2.32377e-06 -9.29623e-05
0.00689133 0.000357302 1.93711e-05
0.000357302 0.00236653 -3.57375e-06
1.93711e-05 -3.57375e-06 0.0012733
0.000137166 0.000513986 -2.37421e-05
0.000513986 -0.000310029 -1.4613e-05
-2.37421e-05 -1.4613e-05 9.6949e-05
0.0034861 0.000415709 -5.4166e-05
0.000415709 -1.09026e-05 3.37527e-05
-5.4166e-05 3.37527e-05 0.000826143
0.000829622 4.56523e-05 -7.1014e-07
4.56523e-05 6.47677e-05 3.44944e-08
-7.1014e-07 3.44944e-08 -1.44127e-05
0.000738454 -3.41292e-07 -1.42044e-07
-3.41292e-07 6.96319e-06 -2.85456e-07
-1.42044e-07 -2.85456e-07 -5.62059e-05
0.0008072 -5.36295e-05 -9.10811e-07
-5.36295e-05 3.89748e-05 9.59817e-07
-9.10811e-07 9.59817e-07 -1.31602e-05
0.000735389 2.1681e-06 1.27487e-07
2.1681e-06 8.29275e-06 5.27282e-07
1.27487e-07 5.27282e-07 -5.83339e-05
0.000810468 4.69315e-05 6.89735e-07
4.69315e-05 5.82884e-05 7.06865e-07
6.89735e-07 7.06865e-07 -1.74775e-05
0.000881194 3.66816e-05 -8.44413e-07
3.66816e-05 9.08202e-05 4.89481e-07
-8.44413e-07 4.89481e-07 1.38006e-05
0.000869233 5.06056e-05 1.35958e-06
5.06056e-05 8.50799e-05 9.35716e-07
1.35958e-06 9.35716e-07 9.50596e-06
0.000812932 -2.00267e-05 6.11382e-07
-2.00267e-05 4.42658e-05 2.07021e-07
6.11382e-07 2.07021e-07 -2.26717e-05
0.000807627 -2.59031e-05 3.98911e-07
-2.59031e-05 4.75681e-05 -5.36862e-07
3.98911e-07 -5.36862e-07 -1.93908e-05
0.000734931 -2.40506e-05 2.83406e-07
-2.40506e-05 5.33904e-06 6.74003e-07
2.83406e-07 6.74003e-07 -5.87171e-05
0.00159285 -4.86699e-05 1.0743e-06
-4.86699e-05 -0.000135605 -2.47671e-06
1.0743e-06 -2.47671e-06 -0.000195763
0.00224559 -0.000202439 3.38086e-06
-0.000202439 0.000206482 1.40768e-06
3.38086e-06 1.40768e-06 0.000138873
0.000120254 -0.000158947 3.91628e-06
-0.000158947 -0.000658857 1.79777e-06
3.91628e-06 1.79777e-06 -0.000774446
0.00122105 -0.000179971 1.16237e-06
-0.000179971 0.000242941 1.26813e-06
1.16237e-06 1.26813e-06 6.22554e-05
0.0011054 -5.63556e-05 2.31322e-06
-5.63556e-05 0.000251451 -4.20909e-07
2.31322e-06 -4.20909e-07 9.82721e-05
0.0011255 -3.78212e-05 -1.36459e-07
-3.78212e-05 0.000226788 -4.77642e-07
-1.36459e-07 -4.77642e-07 0.000130878
0.00089534 -1.59017e-05 -1.07424e-06
-1.59017e-05 9.45222e-05 -3.28516e-07
-1.07424e-06 -3.28516e-07 1.66997e-05
0.000888185 3.45219e-05 -8.46055e-07
3.45219e-05 9.59307e-05 6.45326e-08
-8.46055e-07 6.45326e-08 1.72984e-05
0.0018562 -0.000118239 -4.09914e-06
-0.000118239 0.000131904 1.60092e-06
-4.09914e-06 1.60092e-06 7.2905e-05
0.000793924 -3.36623e-05 -1.41579e-07
-3.36623e-05 3.92743e-05 5.63802e-08
-1.41579e-07 5.63802e-08 -4.15961e-05
0.000857166 -3.32109e-05 4.34037e-07
-3.32109e-05 7.29395e-05 -2.57648e-07
4.34037e-07 -2.57648e-07 -1.22079e-05
0.00224748 -0.000264866 3.36041e-06
-0.000264866 0.00027437 -1.57279e-06
3.36041e-06 -1.57279e-06 0.000210497
3.19241e-05 -0.00015621 1.50909e-06
-0.00015621 -0.000497407 1.64062e-06
1.50909e-06 1.64062e-06 -0.000637766
0.00119247 -0.000104106 2.53595e-06
-0.000104106 0.000261635 -1.23354e-06
2.53595e-06 -1.23354e-06 8.55414e-05
0.000919018 -3.00416e-05 -6.48735e-07
-3.00416e-05 0.000127156 -5.93238e-07
-6.48735e-07 -5.93238e-07 1.05338e-05
0.00315456 -0.000239232 3.15341e-06
-0.000239232 0.00109734 -8.01342e-06
3.15341e-06 -8.01342e-06 0.000912943
0.00173371 -0.000218997 -1.36008e-05
-0.000218997 0.000336367 4.25168e-07
-1.36008e-05 4.25168e-07 0.000252683
0.000463943 -2.26562e-06 -8.74524e-06
-2.26562e-06 -9.31431e-05 7.39472e-06
-8.74524e-06 7.39472e-06 -0.000242507
0.000893376 2.09998e-05 4.19674e-07
2.09998e-05 9.12034e-05 7.99439e-07
4.19674e-07 7.99439e-07 1.05062e-05
0.000731173 -7.39198e-05 1.24136e-06
-7.39198e-05 -2.25053e-06 1.82833e-07
1.24136e-06 1.82833e-07 -8.4903e-05
0.000919311 -2.26312e-05 -1.31064e-07
-2.26312e-05 9.08355e-05 1.17856e-06
-1.31064e-07 1.17856e-06 5.07408e-06
0.000887768 2.46052e-06 -8.24846e-05
2.46052e-06 0.0011137 7.49839e-07
-8.24846e-05 7.49839e-07 0.000870774
0.0016379 -6.94235e-05 1.24267e-05
-6.94235e-05 0.00106721 2.5766e-06
1.24267e-05 2.5766e-06 0.00098459
-0.000699282 0.000204739 -4.5201e-05
0.000204739 -0.00174537 2.10366e-05
-4.5201e-05 2.10366e-05 -0.00231795
0.000731651 7.79937e-05 2.79661e-06
7.79937e-05 4.49227e-05 6.18395e-07
2.79661e-06 6.18395e-07 -5.23715e-05
0.000635561 0.000101408 4.65917e-06
0.000101408 3.15481e-05 1.66039e-06
4.65917e-06 1.66039e-06 -0.000116164
0.00345986 0.000222447 1.00382e-05
0.000222447 0.000904973 1.59618e-06
1.00382e-05 1.59618e-06 0.000931874
6.49652e-05 0.00011218 9.05955e-06
0.00011218 -0.000409089 5.36936e-06
9.05955e-06 5.36936e-06 -0.000610677
0.00368642 -0.000311997 4.96831e-05
-0.000311997 0.0016176 9.2395e-06
4.96831e-05 9.2395e-06 0.00175824
-0.000296087 -0.000166822 -3.99792e-06
-0.000166822 -0.00121206 6.93166e-06
-3.99792e-06 6.93166e-06 -0.00230635
0.00410012 0.000329624 -6.3538e-05
0.000329624 0.000370513 -5.60243e-05
-6.3538e-05 -5.60243e-05 -0.000472771
-0.000558867 6.65069e-05 1.82884e-05
6.65069e-05 -0.000804345 -1.1229e-05
1.82884e-05 -1.1229e-05 -0.000745759
-0.00255255 -0.0003819 3.27864e-05
-0.0003819 -0.00126878 1.2351e-05
3.27864e-05 1.2351e-05 -0.00133439
0.00116294 -0.000318043 2.91724e-05
-0.000318043 0.000524439 2.35959e-05
2.91724e-05 2.35959e-05 0.000494986
0.00385659 -0.000468358 6.05745e-05
-0.000468358 -6.71867e-05 4.12612e-05
6.05745e-05 4.12612e-05 0.00110167
0.000890908 6.90996e-05 1.05411e-06
6.90996e-05 0.000152676 -1.29135e-06
1.05411e-06 -1.29135e-06 6.45315e-05
-0.000113648 -0.000135577 -2.47803e-05
-0.000135577 0.000420689 -7.36183e-06
-2.47803e-05 -7.36183e-06 0.000159092
0.00206221 -3.03869e-05 -1.78615e-06
-3.03869e-05 0.000261056 -1.04245e-05
-1.78615e-06 -1.04245e-05 -0.000122189
0.00102543 0.00013771 -5.82405e-06
0.00013771 1.78978e-05 3.35812e-07
-5.82405e-06 3.35812e-07 -2.63044e-05
0.000703804 9.50736e-05 -1.55732e-06
9.50736e-05 0.000134309 3.6796e-07
-1.55732e-06 3.6796e-07 -3.92569e-05
-0.000150019 9.58094e-05 2.54408e-05
9.58094e-05 -0.000319471 -1.49261e-05
2.54408e-05 -1.49261e-05 -0.000362547
0.00545946 0.000659205 -1.60788e-05
0.000659205 0.00143605 -4.59065e-06
-1.60788e-05 -4.59065e-06 0.000691132
0.0076438 -0.000363622 2.23629e-05
-0.000363622 0.00268456 8.34121e-06
2.23629e-05 8.34121e-06 0.00126957
0.00116354 -0.000405713 1.39456e-06
-0.000405713 -0.00107726 -3.28374e-06
1.39456e-06 -3.28374e-06 -0.000737737
0.00467273 -0.000286804 4.76305e-06
-0.000286804 0.000287943 -1.8856e-06
4.76305e-06 -1.8856e-06 0.00126982
0.00139801 0.000123059 -1.27843e-05
0.000123059 0.000467828 -7.31935e-06
-1.27843e-05 -7.31935e-06 0.000397683
0.00154304 -3.62354e-05 -4.7444e-05
-3.62354e-05 3.6197e-05 -2.12997e-05
-4.7444e-05 -2.12997e-05 -0.000244976
0.00160194 -8.11509e-06 -1.50841e-05
-8.11509e-06 0.000120993 -2.8454e-05
-1.50841e-05 -2.8454e-05 -0.000199464
-0.000864926 -2.39321e-05 -2.03556e-05
-2.39321e-05 -0.000542152 -1.73052e-05
-2.03556e-05 -1.73052e-05 -0.000642201
0.00368765 0.000356605 -4.74102e-07
0.000356605 0.00118897 4.80454e-05
-4.74102e-07 4.80454e-05 0.000783284
0.00860238 -0.000289151 2.01975e-05
-0.000289151 0.00282663 7.29323e-06
2.01975e-05 7.29323e-06 0.00127762
-0.00405019 -0.000274926 -5.49563e-05
-0.000274926 -0.0032188 -1.26879e-05
-5.49563e-05 -1.26879e-05 -0.00364986
0.00456937 3.7653e-05 -2.03253e-06
3.7653e-05 -4.62762e-05 -4.2749e-05
-2.03253e-06 -4.2749e-05 0.00103367
0.00100548 5.3719e-05 1.14986e-06
5.3719e-05 0.000156699 3.09498e-06
1.14986e-06 3.09498e-06 8.62891e-05
0.000839272 6.33514e-05 -1.28353e-06
6.33514e-05 7.33887e-05 -6.13409e-07
-1.28353e-06 -6.13409e-07 1.97557e-05
0.000406425 3.34905e-05 5.9566e-07
3.34905e-05 -0.000131945 -3.31983e-06
5.9566e-07 -3.31983e-06 -0.000176062
0.000912134 5.8707e-05 -1.19829e-06
5.8707e-05 8.29147e-05 -5.87495e-07
-1.19829e-06 -5.87495e-07 1.86936e-05
0.000920325 -2.89123e-05 -2.23137e-08
-2.89123e-05 8.77484e-05 7.71679e-07
-2.23137e-08 7.71679e-07 1.70906e-05
0.00100289 -2.09114e-05 -1.01495e-06
-2.09114e-05 0.000126841 1.0372e-06
-1.01495e-06 1.0372e-06 6.28652e-05
0.000864866 -1.90498e-05 -5.70346e-07
-1.90498e-05 5.98309e-05 2.16774e-06
-5.70346e-07 2.16774e-06 4.99536e-06
0.000921748 9.17935e-06 4.19557e-07
9.17935e-06 8.36236e-05 6.39344e-09
4.19557e-07 6.39344e-09 1.46227e-05
0.000873416 -2.26265e-05 -1.4315e-07
-2.26265e-05 4.76784e-05 -1.2781e-07
-1.4315e-07 -1.2781e-07 -1.41348e-05
0.00089128 -2.85147e-05 3.66065e-07
-2.85147e-05 7.33422e-05 2.82629e-07
3.66065e-07 2.82629e-07 2.56766e-05
0.000821173 -3.7876e-05 -1.82677e-07
-3.7876e-05 6.24936e-05 -2.29501e-06
-1.82677e-07 -2.29501e-06 2.89109e-05
0.000892906 -3.47307e-05 2.88324e-06
-3.47307e-05 5.40455e-05 -2.72237e-06
2.88324e-06 -2.72237e-06 7.36124e-06
0.000795913 3.81881e-05 6.5526e-07
3.81881e-05 1.54614e-05 -9.36947e-07
6.5526e-07 -9.36947e-07 -5.27692e-05
0.00089435 -2.48304e-05 1.03294e-06
-2.48304e-05 7.28596e-05 1.63069e-07
1.03294e-06 1.63069e-07 4.57289e-06
0.000825461 5.30869e-05 -3.69455e-07
5.30869e-05 4.50917e-05 1.92484e-07
-3.69455e-07 1.92484e-07 -2.03892e-05
0.000881915 2.6991e-05 -3.29372e-07
2.6991e-05 6.47366e-05 8.48871e-07
-3.29372e-07 8.48871e-07 1.29705e-06
0.000848987 3.938e-05 -7.20936e-08
3.938e-05 4.91085e-05 4.36675e-08
-7.20936e-08 4.36675e-08 -1.91336e-05
0.000815205 5.39499e-05 4.28943e-07
5.39499e-05 4.74965e-05 3.06795e-07
4.28943e-07 3.06795e-07 -2.03404e-05
0.000873551 5.44873e-05 -5.06487e-08
5.44873e-05 6.87463e-05 2.43221e-08
-5.06487e-08 2.43221e-08 3.60782e-06
0.000909194 4.15773e-05 2.15921e-06
4.15773e-05 9.27097e-05 -6.21385e-08
2.15921e-06 -6.21385e-08 2.46404e-05
0.00085028 4.30546e-05 1.20404e-07
4.30546e-05 5.40288e-05 -9.54312e-07
1.20404e-07 -9.54312e-07 -7.1789e-06
0.000821416 -5.1658e-05 8.4755e-07
-5.1658e-05 6.4329e-05 -1.61234e-07
8.4755e-07 -1.61234e-07 -2.23816e-05
0.000907293 9.0837e-06 -1.13768e-07
9.0837e-06 9.93647e-05 -7.33975e-08
-1.13768e-07 -7.33975e-08 1.7093e-05
0.000714599 -3.85168e-05 5.09051e-07
-3.85168e-05 2.75754e-05 2.03607e-06
5.09051e-07 2.03607e-06 -7.68218e-05
0.00101139 -0.000121071 -1.24549e-06
-0.000121071 0.000169646 3.26381e-06
-1.24549e-06 3.26381e-06 3.64624e-05
0.00108878 -2.06251e-05 9.47038e-07
-2.06251e-05 0.000215274 -6.16151e-07
9.47038e-07 -6.16151e-07 0.000121255
0.000680048 -4.92598e-05 1.52117e-07
-4.92598e-05 1.71231e-05 -2.37174e-06
1.52117e-07 -2.37174e-06 -9.20487e-05
0.000804907 2.46285e-05 -5.29196e-07
2.46285e-05 5.63462e-05 -5.62698e-07
-5.29196e-07 -5.62698e-07 -2.2983e-05
0.000631771 2.91879e-05 8.65573e-07
2.91879e-05 -4.837e-05 9.27151e-07
8.65573e-07 9.27151e-07 -0.000117052
0.000871354 3.64026e-05 -5.12184e-07
3.64026e-05 8.55379e-05 -2.94196e-07
-5.12184e-07 -2.94196e-07 1.29518e-05
0.000840539 1.26973e-05 -1.96622e-07
1.26973e-05 5.93216e-05 3.26536e-07
-1.96622e-07 3.26536e-07 -2.88611e-06
0.000797322 3.60748e-05 -6.36007e-07
3.60748e-05 2.50837e-05 5.85319e-07
-6.36007e-07 5.85319e-07 -2.41748e-05
0.000852489 -1.07511e-05 3.24366e-07
-1.07511e-05 6.68858e-05 -1.6494e-07
3.24366e-07 -1.6494e-07 3.75759e-06
0.0008142 4.12495e-06 -3.74762e-07
4.12495e-06 3.15418e-05 3.92749e-08
-3.74762e-07 3.92749e-08 -1.72564e-05
0.000780096 2.5614e-05 -1.11606e-06
2.5614e-05 4.90286e-06 1.52343e-06
-1.11606e-06 1.52343e-06 -2.6666e-05
0.000842153 -1.83332e-05 1.18012e-06
-1.83332e-05 4.45246e-05 -4.68769e-07
1.18012e-06 -4.68769e-07 -4.8246e-06
0.00078689 1.66076e-05 -1.48914e-07
1.66076e-05 4.31294e-06 7.73821e-09
-1.48914e-07 7.73821e-09 -2.65502e-05
0.00132329 2.65202e-05 -6.54125e-06
2.65202e-05 0.000295342 4.32266e-06
-6.54125e-06 4.32266e-06 0.000294208
0.000782228 7.42252e-06 1.07704e-06
7.42252e-06 -1.30876e-07 -1.47741e-06
1.07704e-06 -1.47741e-06 -3.08795e-05
0.00102904 1.92561e-05 -2.8731e-06
1.92561e-05 0.000129806 6.13483e-07
-2.8731e-06 6.13483e-07 0.000127707
0.000896454 1.71607e-05 -1.08506e-06
1.71607e-05 5.88193e-05 1.59388e-06
-1.08506e-06 1.59388e-06 7.34545e-05
0.0007258 1.19423e-05 4.61192e-07
1.19423e-05 -4.02145e-05 -3.14871e-06
4.61192e-07 -3.14871e-06 -4.34375e-05
0.00151395 1.44338e-05 4.49099e-06
1.44338e-05 0.000395093 -1.25355e-06
4.49099e-06 -1.25355e-06 0.000413256
0.00213498 8.80278e-06 4.82817e-06
8.80278e-06 0.000735538 -4.1802e-06
4.82817e-06 -4.1802e-06 0.000756923
0.000878292 -2.50037e-05 5.41954e-07
-2.50037e-05 6.8828e-05 -4.18051e-07
5.41954e-07 -4.18051e-07 1.79664e-05
0.000793282 -9.05171e-06 -3.1256e-07
-9.05171e-06 6.78319e-06 -1.62646e-06
-3.1256e-07 -1.62646e-06 -2.24089e-05
0.000867403 -5.38417e-06 3.71034e-07
-5.38417e-06 6.54247e-05 1.29386e-07
3.71034e-07 1.29386e-07 1.5377e-05
0.00074455 -6.63406e-06 -3.59367e-07
-6.63406e-06 -3.20464e-05 -3.26933e-06
-3.59367e-07 -3.26933e-06 -3.30595e-05
0.000796011 -4.92466e-06 -4.43758e-08
-4.92466e-06 7.4431e-06 3.35001e-09
-4.43758e-08 3.35001e-09 -2.09769e-05
0.000809899 -3.65988e-05 -1.13086e-06
-3.65988e-05 3.51064e-05 1.35595e-06
-1.13086e-06 1.35595e-06 -1.39309e-05
0.00205076 -9.3981e-07 -5.08975e-07
-9.3981e-07 0.000688607 -4.28464e-06
-5.08975e-07 -4.28464e-06 0.000711094
0.000742978 -4.90543e-07 -7.52223e-08
-4.90543e-07 -3.37996e-05 2.84034e-09
-7.52223e-08 2.84034e-09 -3.45551e-05
0.000797098 -1.45593e-06 1.12305e-07
-1.45593e-06 7.98031e-06 1.67472e-06
1.12305e-07 1.67472e-06 -2.03273e-05
0.000744218 5.6982e-06 -1.20131e-07
5.6982e-06 -3.26825e-05 3.3156e-06
-1.20131e-07 3.3156e-06 -3.39147e-05
0.00206346 7.93135e-06 -2.44422e-06
7.93135e-06 0.000696031 -2.09525e-08
-2.44422e-06 -2.09525e-08 0.000718269
0.00208673 1.57608e-05 -1.0191e-05
1.57608e-05 0.000710379 4.19786e-06
-1.0191e-05 4.19786e-06 0.000732083
-0.00133729 9.14145e-05 -3.9833e-05
9.14145e-05 -0.000112862 6.76676e-06
-3.9833e-05 6.76676e-06 -0.000495378
-0.000819001 0.000239429 -7.03458e-06
0.000239429 -0.00022805 4.04685e-06
-7.03458e-06 4.04685e-06 -0.00029171
0.00206261 6.51188e-05 -6.72917e-05
6.51188e-05 0.000117994 4.69444e-05
-6.72917e-05 4.69444e-05 -0.00018291
-0.00147027 0.000305315 5.396e-05
0.000305315 -0.000534435 -2.25741e-05
5.396e-05 -2.25741e-05 -0.000457155
0.0025325 7.9375e-05 -9.50704e-05
7.9375e-05 0.000381138 1.0762e-05
-9.50704e-05 1.0762e-05 4.63353e-05
0.00201429 -9.76872e-06 4.3931e-05
-9.76872e-06 0.000151423 -5.46321e-06
4.3931e-05 -5.46321e-06 8.66114e-05
0.0011956 -0.00025053 -6.77253e-05
-0.00025053 -0.000601551 -2.10534e-05
-6.77253e-05 -2.10534e-05 -0.00124726
0.00858594 0.000522614 6.98281e-05
0.000522614 0.00415826 -1.7738e-05
6.98281e-05 -1.7738e-05 0.00421778
-0.00312678 0.000673406 -1.95166e-05
0.000673406 -0.00277751 4.10226e-05
-1.95166e-05 4.10226e-05 -0.00120265
0.00143299 2.29728e-05 -6.17411e-06
2.29728e-05 -0.000240004 -1.50949e-06
-6.17411e-06 -1.50949e-06 -0.000461256
0.00170082 0.000181084 1.74668e-05
0.000181084 -7.47971e-05 -1.78874e-05
1.74668e-05 -1.78874e-05 -0.00149051
0.00491345 0.000775485 -1.18577e-05
0.000775485 0.00150902 -1.54139e-05
-1.18577e-05 -1.54139e-05 0.00190927
0.00175651 0.000419686 -7.82747e-06
0.000419686 -0.00106454 1.92779e-05
-7.82747e-06 1.92779e-05 -0.000201637
0.00284412 -0.000105585 -2.23756e-05
-0.000105585 0.0002555 6.66249e-06
-2.23756e-05 6.66249e-06 -5.22653e-05
0.00468089 0.000333948 6.60944e-05
0.000333948 0.00143606 -4.54379e-05
6.60944e-05 -4.54379e-05 -0.000117172
-0.00566926 0.000172763 -7.7777e-05
0.000172763 -0.00418906 -1.63752e-05
-7.7777e-05 -1.63752e-05 -0.00390754
0.00135375 0.000269085 -2.00633e-05
0.000269085 -0.00200192 1.93949e-05
-2.00633e-05 1.93949e-05 -0.0010392
0.000914384 -2.10929e-05 9.9622e-07
-2.10929e-05 0.00010799 4.67161e-07
9.9622e-07 4.67161e-07 2.48654e-05
0.000874581 3.48488e-05 -1.45759e-06
3.48488e-05 8.85663e-05 -3.51655e-07
-1.45759e-06 -3.51655e-07 1.07282e-05
0.000822221 1.4524e-05 7.17804e-07
1.4524e-05 5.31219e-05 -3.40476e-08
7.17804e-07 -3.40476e-08 -1.04227e-05
0.000871148 5.42806e-05 1.79727e-06
5.42806e-05 9.13447e-05 9.82662e-07
1.79727e-06 9.82662e-07 1.58444e-05
0.000787845 1.36442e-05 -3.51263e-07
1.36442e-05 4.07101e-05 7.28395e-07
-3.51263e-07 7.28395e-07 -4.2831e-05
0.000911256 3.89292e-05 1.94254e-07
3.89292e-05 0.00010815 5.38013e-07
1.94254e-07 5.38013e-07 3.08331e-05
0.000814758 -1.21676e-06 -6.17891e-09
-1.21676e-06 5.22773e-05 1.06241e-06
-6.17891e-09 1.06241e-06 -2.13775e-05
0.000928837 6.78646e-05 -7.8557e-07
6.78646e-05 0.000116327 5.76927e-07
-7.8557e-07 5.76927e-07 4.06102e-05
0.000904297 2.8775e-05 -3.0061e-07
2.8775e-05 0.00010304 2.95975e-07
-3.0061e-07 2.95975e-07 3.04603e-05
0.000760279 -1.93625e-05 -7.89332e-07
-1.93625e-05 2.35948e-05 -2.79509e-07
-7.89332e-07 -2.79509e-07 -4.56401e-05
-0.000280238 -6.53276e-05 1.09474e-05
-6.53276e-05 -0.000961746 -4.39624e-06
1.09474e-05 -4.39624e-06 -0.00099843
0.00168612 -0.000247792 7.26781e-06
-0.000247792 -1.82431e-05 8.73201e-07
7.26781e-06 8.73201e-07 -8.9761e-05
0.000940361 -0.000199086 7.23745e-06
-0.000199086 -1.3442e-05 2.01842e-06
7.23745e-06 2.01842e-06 -0.000157586
0.00119237 -9.55875e-05 6.13931e-06
-9.55875e-05 0.000256538 -9.6419e-07
6.13931e-06 -9.6419e-07 8.37307e-05
0.000947861 -1.99113e-05 8.48928e-07
-1.99113e-05 0.000149929 -8.16946e-07
8.48928e-07 -8.16946e-07 2.25663e-05
0.000804745 -4.1039e-05 -4.22387e-07
-4.1039e-05 4.81764e-05 -5.01814e-07
-4.22387e-07 -5.01814e-07 -3.95768e-05
0.000869924 4.99897e-05 -1.17384e-07
4.99897e-05 8.22967e-05 -1.46758e-07
-1.17384e-07 -1.46758e-07 -6.46172e-07
0.000883742 -3.31e-05 -2.54451e-07
-3.31e-05 8.87703e-05 3.32909e-07
-2.54451e-07 3.32909e-07 6.02364e-06
0.0014487 -0.000166431 2.99746e-06
-0.000166431 0.000205047 -5.96678e-07
2.99746e-06 -5.96678e-07 8.96905e-05
0.000873406 6.52299e-06 -1.12615e-07
6.52299e-06 7.77701e-05 -2.54514e-07
-1.12615e-07 -2.54514e-07 -6.70965e-06
0.000887165 -2.76921e-05 -3.12126e-07
-2.76921e-05 7.90112e-05 1.19077e-08
-3.12126e-07 1.19077e-08 -1.19001e-05
0.00162215 -0.000213835 -5.73939e-07
-0.000213835 0.00027209 2.68748e-07
-5.73939e-07 2.68748e-07 0.000193974
0.00104949 -2.60369e-05 -3.24841e-06
-2.60369e-05 0.000195904 1.86368e-06
-3.24841e-06 1.86368e-06 5.16698e-05
0.000744195 -0.000243216 -2.13336e-07
-0.000243216 -0.000179439 -1.20234e-05
-2.13336e-07 -1.20234e-05 -0.000206008
0.0016235 -7.25833e-05 -1.00615e-05
-7.25833e-05 0.000547925 8.78229e-06
-1.00615e-05 8.78229e-06 0.000426786
0.000483176 2.10698e-05 -3.30367e-06
2.10698e-05 -0.000152027 6.55801e-06
-3.30367e-06 6.55801e-06 -0.000238115
0.000870968 -3.54984e-06 3.98498e-07
-3.54984e-06 6.4259e-05 7.46117e-07
3.98498e-07 7.46117e-07 -1.42133e-05
0.000848181 2.81568e-05 -5.87549e-07
2.81568e-05 5.44933e-05 4.81229e-07
-5.87549e-07 4.81229e-07 -3.10717e-05
0.0012834 1.23627e-06 -2.55703e-05
1.23627e-06 -0.000124291 -3.13855e-06
-2.55703e-05 -3.13855e-06 -0.000348691
-0.000262646 -1.28823e-05 -2.32723e-05
-1.28823e-05 0.000567431 -1.428e-06
-2.32723e-05 -1.428e-06 0.000229725
-0.00602099 -9.57348e-05 -5.65846e-05
-9.57348e-05 -0.00297619 -3.70398e-06
-5.65846e-05 -3.70398e-06 -0.00291619
0.000669605 7.63373e-05 5.07333e-06
7.63373e-05 4.1386e-05 1.32595e-06
5.07333e-06 1.32595e-06 -4.93894e-05
-4.10893e-05 1.48856e-05 5.59403e-06
1.48856e-05 -0.000238838 3.5565e-06
5.59403e-06 3.5565e-06 -0.000415378
0.00120623 9.41918e-05 1.5062e-05
9.41918e-05 0.00013698 -1.78927e-06
1.5062e-05 -1.78927e-06 7.04211e-05
-0.00127767 -6.64241e-05 1.92491e-05
-6.64241e-05 -8.37146e-05 6.15227e-06
1.92491e-05 6.15227e-06 -0.000491108
0.00490271 -0.000442017 -7.52467e-06
-0.000442017 0.0015333 -1.81409e-05
-7.52467e-06 -1.81409e-05 -0.00012183
0.00404841 0.000581905 3.4315e-05
0.000581905 0.000585538 -2.37481e-05
3.4315e-05 -2.37481e-05 4.18562e-05
-0.000132914 6.97583e-05 -1.39081e-05
6.97583e-05 -0.000247529 1.27337e-06
-1.39081e-05 1.27337e-06 -0.000196512
0.00555595 -0.000643958 3.72604e-05
-0.000643958 0.00147245 2.01557e-05
3.72604e-05 2.01557e-05 0.00157864
0.00223931 -3.62618e-05 4.65558e-05
-3.62618e-05 0.000384569 3.13528e-05
4.65558e-05 3.13528e-05 -8.8407e-06
0.00451934 -0.000260711 2.65464e-05
-0.000260711 0.000372666 1.42116e-05
2.65464e-05 1.42116e-05 0.00138224
0.00107872 0.000105089 2.63238e-06
0.000105089 0.000307456 -1.32219e-06
2.63238e-06 -1.32219e-06 0.000237148
0.00160424 -3.24396e-05 3.13559e-06
-3.24396e-05 0.000148284 -5.55218e-06
3.13559e-06 -5.55218e-06 -0.000100428
0.0017144 -3.10829e-06 1.0775e-06
-3.10829e-06 0.000118741 4.81178e-06
1.0775e-06 4.81178e-06 -0.000209114
0.000273279 5.70678e-05 -6.27295e-06
5.70678e-05 5.93072e-05 1.00615e-06
-6.27295e-06 1.00615e-06 -4.69853e-05
0.00311809 0.000411091 -1.06592e-05
0.000411091 0.000629591 -2.70784e-05
-1.06592e-05 -2.70784e-05 0.00033356
0.00307993 0.000235177 4.10151e-05
0.000235177 0.000294576 1.9222e-05
4.10151e-05 1.9222e-05 -0.00152623
0.00316081 1.86723e-05 -3.71223e-08
1.86723e-05 -0.00111176 -1.71086e-05
-3.71223e-08 -1.71086e-05 0.000104858
0.000417274 -0.000212696 -1.1182e-05
-0.000212696 -0.000874477 1.69394e-05
-1.1182e-05 1.69394e-05 -0.000973097
0.000671631 4.5109e-05 -3.89208e-06
4.5109e-05 0.000191397 -8.72144e-06
-3.89208e-06 -8.72144e-06 0.000147624
0.00122251 -1.14247e-05 -1.01933e-05
-1.14247e-05 0.000120764 -1.18672e-05
-1.01933e-05 -1.18672e-05 2.77294e-05
0.00173391 7.27846e-06 2.05233e-06
7.27846e-06 3.59328e-05 -2.63384e-05
2.05233e-06 -2.63384e-05 -0.000275151
0.00136635 0.000245801 1.86754e-05
0.000245801 -0.00190603 -2.23955e-05
1.86754e-05 -2.23955e-05 -0.00102835
-0.00177268 2.66449e-05 7.27686e-06
2.66449e-05 -0.000869097 -1.34094e-05
7.27686e-06 -1.34094e-05 -0.00113192
0.00875959 0.000133079 8.01629e-05
0.000133079 0.00300841 2.89904e-05
8.01629e-05 2.89904e-05 0.00143969
-0.00304418 -8.73476e-05 1.85099e-05
-8.73476e-05 -0.000967331 -2.13789e-05
1.85099e-05 -2.13789e-05 -0.00135565
0.00115317 8.95954e-05 4.80438e-06
8.95954e-05 0.000237783 4.3225e-06
4.80438e-06 4.3225e-06 0.000183658
0.000627733 5.79017e-05 -2.25306e-06
5.79017e-05 -1.75198e-05 1.37418e-06
-2.25306e-06 1.37418e-06 -6.59729e-05
0.000492819 3.31076e-05 -4.77852e-06
3.31076e-05 -4.00988e-05 -7.15445e-06
-4.77852e-06 -7.15445e-06 -8.75381e-05
0.000912631 7.97705e-05 -1.9344e-07
7.97705e-05 8.20804e-05 4.71707e-07
-1.9344e-07 4.71707e-07 1.11003e-05
0.000871557 -1.68025e-06 -4.6317e-07
-1.68025e-06 4.64372e-05 1.06113e-06
-4.6317e-07 1.06113e-06 -1.48566e-05
0.000796147 -3.84874e-05 -2.3313e-06
-3.84874e-05 2.12779e-05 5.67871e-06
-2.3313e-06 5.67871e-06 -2.73113e-05
0.000843867 4.26521e-05 1.13924e-07
4.26521e-05 4.0018e-05 7.52733e-08
1.13924e-07 7.52733e-08 -2.73192e-05
0.000800397 -4.29374e-05 1.47452e-07
-4.29374e-05 5.92047e-06 -9.06033e-07
1.47452e-07 -9.06033e-07 -4.20789e-05
0.000904014 -6.32474e-05 3.27554e-06
-6.32474e-05 9.41751e-05 2.19282e-06
3.27554e-06 2.19282e-06 5.14458e-05
0.000993695 -6.17456e-07 1.09425e-06
-6.17456e-07 0.000152217 -2.34905e-06
1.09425e-06 -2.34905e-06 0.000129276
0.000853088 1.159e-05 6.9049e-08
1.159e-05 4.12526e-05 -2.39965e-06
6.9049e-08 -2.39965e-06 -1.28771e-05
0.000861571 4.23666e-05 -1.19509e-07
4.23666e-05 5.25862e-05 9.76548e-07
-1.19509e-07 9.76548e-07 -1.31613e-05
0.000830306 5.67622e-05 -1.44453e-07
5.67622e-05 5.7107e-05 1.12819e-07
-1.44453e-07 1.12819e-07 -1.16078e-05
0.00086889 5.8512e-05 -8.87131e-07
5.8512e-05 6.62966e-05 6.50178e-07
-8.87131e-07 6.50178e-07 7.39871e-07
0.000859145 3.9629e-05 2.97719e-07
3.9629e-05 5.74661e-05 1.87479e-07
2.97719e-07 1.87479e-07 -3.74011e-06
0.000923374 4.23372e-05 7.19546e-07
4.23372e-05 9.93249e-05 2.20044e-07
7.19546e-07 2.20044e-07 3.21277e-05
0.000704513 -2.28036e-05 1.3825e-06
-2.28036e-05 2.2181e-05 6.94808e-07
1.3825e-06 6.94808e-07 -4.82669e-05
0.000767917 -2.455e-05 -5.68753e-07
-2.455e-05 4.03083e-05 -1.00722e-06
-5.68753e-07 -1.00722e-06 -4.25012e-05
0.000778523 -5.22068e-05 2.3788e-06
-5.22068e-05 5.75038e-05 7.78053e-07
2.3788e-06 7.78053e-07 -6.89852e-05
0.00100463 -6.23739e-06 -1.64035e-06
-6.23739e-06 0.000152212 -5.01181e-07
-1.64035e-06 -5.01181e-07 6.94438e-05
0.0010049 -5.73771e-05 -5.13475e-07
-5.73771e-05 0.000175491 8.56781e-07
-5.13475e-07 8.56781e-07 6.93728e-05
0.000598917 -0.000100283 -4.26884e-07
-0.000100283 -4.85586e-05 2.42666e-06
-4.26884e-07 2.42666e-06 -0.000189299
0.000834172 -0.000111177 -2.7997e-06
-0.000111177 7.35418e-05 2.7253e-07
-2.7997e-06 2.7253e-07 -6.19763e-05
0.000959036 -8.37204e-05 -9.40913e-07
-8.37204e-05 0.000151322 1.59104e-06
-9.40913e-07 1.59104e-06 4.29312e-05
0.000836039 -0.00010977 4.65566e-08
-0.00010977 7.77999e-05 4.69844e-07
4.65566e-08 4.69844e-07 -5.39735e-05
0.00089363 1.23723e-06 9.15848e-07
1.23723e-06 9.73e-05 1.09568e-06
9.15848e-07 1.09568e-06 1.89813e-05
0.000982402 -2.54732e-05 -9.26722e-07
-2.54732e-05 0.000158456 -6.69342e-07
-9.26722e-07 -6.69342e-07 6.26976e-05
0.000729952 -5.60251e-05 3.96604e-07
-5.60251e-05 4.66615e-05 -3.85287e-06
3.96604e-07 -3.85287e-06 -5.97042e-05
0.0010722 2.71693e-05 -1.73599e-06
2.71693e-05 0.000199598 -1.60298e-06
-1.73599e-06 -1.60298e-06 0.000121766
0.000743245 2.32396e-05 8.94259e-08
2.32396e-05 1.13573e-05 -1.13365e-08
8.94259e-08 -1.13365e-08 -5.61704e-05
0.000793598 4.47759e-05 -1.34676e-07
4.47759e-05 2.80185e-05 7.84238e-07
-1.34676e-07 7.84238e-07 -2.52706e-05
0.000859324 -4.02115e-06 6.49435e-08
-4.02115e-06 7.12573e-05 -1.44417e-07
6.49435e-08 -1.44417e-07 7.55813e-06
0.000812257 1.4445e-05 -5.54639e-07
1.4445e-05 3.33607e-05 -6.65043e-08
-5.54639e-07 -6.65043e-08 -1.60577e-05
0.000774166 3.09517e-05 -1.29534e-06
3.09517e-05 6.70264e-06 1.50023e-06
-1.29534e-06 1.50023e-06 -2.60878e-05
0.000829739 -1.59405e-05 1.18124e-06
-1.59405e-05 4.01306e-05 -5.76197e-07
1.18124e-06 -5.76197e-07 -9.08642e-06
0.000783277 2.4306e-05 -1.1438e-07
2.4306e-05 5.96886e-06 4.69154e-09
-1.1438e-07 4.69154e-09 -2.54359e-05
0.00128635 3.32012e-05 -7.33665e-06
3.32012e-05 0.000281402 3.02122e-06
-7.33665e-06 3.02122e-06 0.000279298
0.000786935 1.30676e-05 1.20212e-06
1.30676e-05 3.86369e-06 -1.48305e-06
1.20212e-06 -1.48305e-06 -2.68252e-05
0.00102259 2.54864e-05 -3.54298e-06
2.54864e-05 0.000130355 5.70277e-07
-3.54298e-06 5.70277e-07 0.000127723
0.000885719 2.29618e-05 -1.62807e-06
2.29618e-05 5.78977e-05 1.58857e-06
-1.62807e-06 1.58857e-06 7.17093e-05
0.000724028 1.76743e-05 6.97416e-07
1.76743e-05 -3.83974e-05 -3.16417e-06
6.97416e-07 -3.16417e-06 -4.19389e-05
0.00150215 2.15704e-05 5.94014e-06
2.15704e-05 0.000392033 -1.1798e-06
5.94014e-06 -1.1798e-06 0.000409638
0.00212524 1.72213e-05 8.57473e-06
1.72213e-05 0.000732463 -4.07514e-06
8.57473e-06 -4.07514e-06 0.00075348
0.000679476 -2.37462e-07 -3.82729e-07
-2.37462e-07 -3.5125e-05 -9.39468e-07
-3.82729e-07 -9.39468e-07 -9.42539e-05
0.000556367 -1.39767e-05 -2.83848e-07
-1.39767e-05 -0.000119929 -2.08643e-06
-2.83848e-07 -2.08643e-06 -0.000152547
0.000902914 -1.13645e-05 -9.9934e-09
-1.13645e-05 8.40102e-05 7.91024e-08
-9.9934e-09 7.91024e-08 3.16656e-05
0.000743578 -1.24556e-05 -3.64248e-07
-1.24556e-05 -3.0291e-05 -3.25407e-06
-3.64248e-07 -3.25407e-06 -3.23345e-05
0.000674878 -9.37436e-06 7.85064e-08
-9.37436e-06 -5.72975e-05 1.30024e-08
7.85064e-08 1.30024e-08 -8.74481e-05
0.000666815 -4.34736e-05 2.34173e-07
-4.34736e-05 -4.19439e-05 8.37353e-07
2.34173e-07 8.37353e-07 -9.39548e-05
0.00205763 -9.11834e-06 -4.80061e-06
-9.11834e-06 0.00069345 -4.24892e-06
-4.80061e-06 -4.24892e-06 0.000715648
0.0007415 -6.36226e-06 -1.74163e-07
-6.36226e-06 -3.37542e-05 -2.03859e-09
-1.74163e-07 -2.03859e-09 -3.47396e-05
0.000801923 -5.75342e-06 1.10931e-07
-5.75342e-06 1.07242e-05 1.65708e-06
1.10931e-07 1.65708e-06 -1.77178e-05
0.00205081 -3.41531e-07 -2.34662e-06
-3.41531e-07 0.000688625 -5.39714e-10
-2.34662e-06 -5.39714e-10 0.000711109
0.000744511 -1.87105e-07 1.40733e-07
-1.87105e-07 -3.29855e-05 3.30975e-06
1.40733e-07 3.30975e-06 -3.37538e-05
0.00206752 8.49649e-06 -4.90587e-06
8.49649e-06 0.000698443 4.28699e-06
-4.90587e-06 4.28699e-06 0.000720596
0.00107784 2.32292e-05 -4.48556e-05
2.32292e-05 -0.000164352 1.67659e-05
-4.48556e-05 1.67659e-05 -0.000415844
0.00127843 0.000169449 -1.00501e-06
0.000169449 0.00112926 -4.16282e-06
-1.00501e-06 -4.16282e-06 0.00102377
0.000667307 -9.91627e-05 1.74179e-05
-9.91627e-05 0.000629276 -1.10315e-05
1.74179e-05 -1.10315e-05 0.000389997
0.000847881 2.06799e-05 -9.29798e-08
2.06799e-05 6.50794e-05 5.33627e-07
-9.29798e-08 5.33627e-07 -8.86803e-06
0.00197105 3.29441e-05 -2.02278e-05
3.29441e-05 0.000303728 3.18402e-05
-2.02278e-05 3.18402e-05 4.8128e-05
0.00205951 5.5612e-05 -1.59159e-05
5.5612e-05 0.000157513 2.57459e-06
-1.59159e-05 2.57459e-06 -0.000200868
0.00153379 0.000380096 6.13849e-05
0.000380096 0.000846372 -4.30191e-05
6.13849e-05 -4.30191e-05 0.00120201
0.00304763 -3.27922e-05 -3.04144e-05
-3.27922e-05 0.000370413 -7.08245e-07
-3.04144e-05 -7.08245e-07 0.000129457
0.00940676 0.000485963 2.44005e-05
0.000485963 0.00358682 -2.39259e-05
2.44005e-05 -2.39259e-05 0.00236969
-0.00246559 0.000435741 2.40731e-05
0.000435741 -0.0021832 7.95014e-07
2.40731e-05 7.95014e-07 -0.00166399
0.00299999 0.000450257 3.66449e-05
0.000450257 -0.000368151 -1.98328e-05
3.66449e-05 -1.98328e-05 0.000533669
0.00284248 -0.000168029 -4.42511e-05
-0.000168029 -3.28138e-05 2.00608e-06
-4.42511e-05 2.00608e-06 -0.000566562
0.00709781 0.000328963 2.26346e-05
0.000328963 0.00261229 -1.11929e-05
2.26346e-05 -1.11929e-05 0.00123999
0.00470922 0.000542341 -4.52675e-07
0.000542341 0.000513044 -1.10208e-05
-4.52675e-07 -1.10208e-05 0.000721976
0.00303809 0.000278196 -8.70579e-06
0.000278196 -0.00105486 2.16515e-06
-8.70579e-06 2.16515e-06 -0.000101179
0.00409804 -0.000391638 1.41066e-05
-0.000391638 0.000562549 -2.12084e-05
1.41066e-05 -2.12084e-05 -0.000185729
0.00745445 0.00016995 3.21772e-05
0.00016995 0.00301726 3.73517e-06
3.21772e-05 3.73517e-06 0.00104801
0.00165327 0.000153063 -2.09901e-06
0.000153063 -0.000612606 1.91054e-05
-2.09901e-06 1.91054e-05 -0.000614098
0.00457043 5.5968e-05 -2.11993e-06
5.5968e-05 -0.000117385 2.3762e-05
-2.11993e-06 2.3762e-05 0.00098673
0.000891176 -2.61581e-05 3.68533e-07
-2.61581e-05 8.99469e-05 6.01922e-07
3.68533e-07 6.01922e-07 5.58797e-06
0.000875678 -3.75669e-05 4.92818e-07
-3.75669e-05 8.98638e-05 2.3519e-08
4.92818e-07 2.3519e-08 4.99146e-06
0.000903356 5.05161e-05 -1.05451e-06
5.05161e-05 0.000106106 -8.64287e-08
-1.05451e-06 -8.64287e-08 2.79443e-05
0.000850587 -1.8824e-05 -4.88715e-07
-1.8824e-05 6.41314e-05 3.69627e-07
-4.88715e-07 3.69627e-07 -1.26212e-05
0.000885535 4.45073e-05 -5.81866e-07
4.45073e-05 9.38888e-05 3.33156e-07
-5.81866e-07 3.33156e-07 1.13207e-05
0.000923516 2.2783e-05 7.42367e-07
2.2783e-05 0.000116342 7.88546e-07
7.42367e-07 7.88546e-07 3.87243e-05
0.000972684 6.11489e-05 -5.63075e-07
6.11489e-05 0.000138334 1.04947e-07
-5.63075e-07 1.04947e-07 6.36957e-05
0.00100854 6.85594e-05 8.89012e-07
6.85594e-05 0.000163284 8.58944e-07
8.89012e-07 8.58944e-07 8.8744e-05
-0.000385613 -8.63817e-05 1.79884e-05
-8.63817e-05 -0.000762548 -6.43682e-06
1.79884e-05 -6.43682e-06 -0.000812322
0.00148681 -0.000209067 6.45989e-06
-0.000209067 0.000193228 -2.21381e-06
6.45989e-06 -2.21381e-06 0.000124446
0.000872957 -0.000109214 -1.88482e-06
-0.000109214 9.08742e-05 -2.82959e-07
-1.88482e-06 -2.82959e-07 2.66529e-06
0.00178278 -5.16266e-05 3.69827e-06
-5.16266e-05 0.000563861 -2.42295e-06
3.69827e-06 -2.42295e-06 0.000425893
0.000789508 -3.79773e-05 -3.75645e-07
-3.79773e-05 2.87623e-05 -7.49266e-07
-3.75645e-07 -7.49266e-07 -6.51655e-05
0.000972658 -2.41147e-05 -9.07413e-07
-2.41147e-05 0.000127333 -1.12118e-08
-9.07413e-07 -1.12118e-08 4.63261e-05
0.000936839 7.95046e-06 3.79458e-08
7.95046e-06 0.000105848 -2.69229e-07
3.79458e-08 -2.69229e-07 2.42862e-05
0.000726935 -0.000253225 -4.45178e-06
-0.000253225 -0.000205766 2.21981e-07
-4.45178e-06 2.21981e-07 -0.000251905
0.000888947 2.34423e-05 9.46774e-08
2.34423e-05 8.26645e-05 -2.5296e-07
9.46774e-08 -2.5296e-07 -4.8779e-06
0.00100735 -2.34196e-05 -2.6532e-07
-2.34196e-05 0.000121479 2.78916e-07
-2.6532e-07 2.78916e-07 3.04416e-05
0.000607458 -6.49771e-05 8.60989e-07
-6.49771e-05 -1.25477e-06 2.97043e-06
8.60989e-07 2.97043e-06 -0.000102414
0.00105342 -2.13947e-05 1.18281e-07
-2.13947e-05 0.000157167 9.11989e-07
1.18281e-07 9.11989e-07 8.43144e-05
-5.86287e-05 -0.000263089 3.71159e-05
-0.000263089 -0.000453732 -2.04338e-05
3.71159e-05 -2.04338e-05 -0.000439076
0.00133303 -2.50215e-05 -1.06687e-05
-2.50215e-05 0.000541317 1.40983e-05
-1.06687e-05 1.40983e-05 0.000417469
0.000526398 6.01485e-06 -1.17251e-06
6.01485e-06 -0.000135987 3.58035e-06
-1.17251e-06 3.58035e-06 -0.000207241
0.000909445 9.01357e-05 1.42677e-06
9.01357e-05 8.98085e-05 1.28208e-06
1.42677e-06 1.28208e-06 1.13478e-05
0.00140442 -2.11606e-06 -1.00722e-05
-2.11606e-06 0.000254979 4.31039e-07
-1.00722e-05 4.31039e-07 0.000196962
0.00112927 -1.0484e-05 2.35612e-05
-1.0484e-05 -0.000170785 -1.88558e-06
2.35612e-05 -1.88558e-06 -0.000395564
-0.00146381 -2.40189e-05 1.88835e-05
-2.40189e-05 -5.0049e-07 5.74223e-07
1.88835e-05 5.74223e-07 -0.000439369
0.000612205 7.55969e-05 9.21354e-06
7.55969e-05 7.23501e-05 9.68255e-07
9.21354e-06 9.68255e-07 1.69677e-06
0.000555789 0.000113928 1.82706e-05
0.000113928 0.000220776 9.3938e-06
1.82706e-05 9.3938e-06 0.000103528
0.00169402 -2.94447e-05 4.22e-05
-2.94447e-05 0.000263044 9.76564e-06
4.22e-05 9.76564e-06 5.06314e-05
0.00772015 -0.000483221 6.27223e-05
-0.000483221 0.0028024 2.66182e-05
6.27223e-05 2.66182e-05 0.00110371
0.00231534 0.000410613 -6.4957e-05
0.000410613 0.000226847 -7.51433e-05
-6.4957e-05 -7.51433e-05 -0.000461455
0.0035022 -0.000298415 1.93594e-05
-0.000298415 0.000322709 3.78971e-05
1.93594e-05 3.78971e-05 0.00012859
0.00180246 1.09042e-06 1.52699e-05
1.09042e-06 0.000100838 3.81697e-05
1.52699e-05 3.81697e-05 -0.00023551
0.00183438 1.08878e-05 1.87799e-06
1.08878e-05 -0.00215274 -2.32298e-06
1.87799e-06 -2.32298e-06 -0.00082515
0.000686095 7.25199e-05 1.79291e-06
7.25199e-05 0.00018884 3.0454e-08
1.79291e-06 3.0454e-08 0.00013488
0.00117838 -9.6304e-06 -1.20217e-06
-9.6304e-06 7.1345e-05 -3.82662e-06
-1.20217e-06 -3.82662e-06 -1.45518e-05
0.00177033 8.12055e-06 5.87532e-06
8.12055e-06 0.00016488 2.36863e-06
5.87532e-06 2.36863e-06 -9.53432e-05
-0.000593817 7.99867e-05 -1.05072e-05
7.99867e-05 -0.000219507 -3.26021e-06
-1.05072e-05 -3.26021e-06 -0.000399142
0.00301505 0.000260242 5.93296e-06
0.000260242 -0.00100654 -2.61014e-06
5.93296e-06 -2.61014e-06 -0.000106565
0.00527026 0.000489778 4.27034e-05
0.000489778 0.0012852 5.52105e-06
4.27034e-05 5.52105e-06 -0.000298001
0.00286316 0.000135017 -5.09868e-05
0.000135017 0.00093472 -5.32663e-06
-5.09868e-05 -5.32663e-06 0.000615702
0.000118327 6.76483e-05 -6.39852e-06
6.76483e-05 2.49743e-05 -1.22462e-05
-6.39852e-06 -1.22462e-05 -7.34214e-05
0.00114067 1.99098e-06 -1.63234e-06
1.99098e-06 0.00013495 -9.43858e-06
-1.63234e-06 -9.43858e-06 4.98133e-05
0.00198655 2.58884e-05 1.88933e-05
2.58884e-05 0.000299781 -3.14831e-05
1.88933e-05 -3.14831e-05 5.19878e-05
0.0034979 0.000410419 5.03101e-05
0.000410419 4.20633e-05 -3.18956e-05
5.03101e-05 -3.18956e-05 0.00081653
0.00251439 0.000227863 -1.08512e-05
0.000227863 -0.000283046 -2.25358e-05
-1.08512e-05 -2.25358e-05 -0.000204507
0.00199235 0.000286961 1.34503e-05
0.000286961 0.000229293 -1.61929e-05
1.34503e-05 -1.61929e-05 0.000310232
0.0023609 -7.90223e-05 0.000106093
-7.90223e-05 0.000932068 2.71917e-05
0.000106093 2.71917e-05 -0.00120321
0.000631869 7.50412e-05 1.90823e-06
7.50412e-05 -1.75072e-05 5.99042e-06
1.90823e-06 5.99042e-06 -6.94663e-05
0.000656086 1.00993e-05 3.72734e-06
1.00993e-05 4.61022e-05 1.18894e-06
3.72734e-06 1.18894e-06 1.12585e-06
0.000696654 -2.37937e-05 9.92236e-06
-2.37937e-05 0.000233986 -9.74386e-06
9.92236e-06 -9.74386e-06 0.00016959
0.000885386 1.92517e-05 -3.70781e-07
1.92517e-05 5.86029e-05 1.01283e-06
-3.70781e-07 1.01283e-06 -6.05963e-06
0.000720194 -4.19814e-05 -1.15475e-06
-4.19814e-05 -3.82614e-05 2.58993e-06
-1.15475e-06 2.58993e-06 -8.57986e-05
0.00101321 -6.89138e-05 -2.18941e-06
-6.89138e-05 0.000139891 5.38802e-06
-2.18941e-06 5.38802e-06 9.08027e-05
0.000877034 -1.58568e-06 -2.03205e-07
-1.58568e-06 5.74105e-05 -3.5642e-07
-2.03205e-07 -3.5642e-07 2.17201e-06
0.000655283 -8.91516e-06 -2.19655e-06
-8.91516e-06 -3.97908e-05 3.00955e-06
-2.19655e-06 3.00955e-06 -5.85883e-05
0.000523993 -6.43648e-05 2.2002e-06
-6.43648e-05 1.74319e-06 -2.4831e-06
2.2002e-06 -2.4831e-06 -0.000101977
0.000880466 3.2766e-05 2.45499e-07
3.2766e-05 6.78984e-05 1.17729e-06
2.45499e-07 1.17729e-06 6.58938e-06
0.000940952 5.37899e-05 -2.91396e-07
5.37899e-05 0.000109169 1.02925e-06
-2.91396e-07 1.02925e-06 4.19837e-05
0.00107135 -3.05871e-05 6.8892e-07
-3.05871e-05 0.000209471 4.86104e-07
6.8892e-07 4.86104e-07 0.000134279
0.000459165 -3.34117e-05 3.63276e-06
-3.34117e-05 -3.99293e-05 1.52112e-06
3.63276e-06 1.52112e-06 -0.000189363
0.000667491 1.37004e-06 -4.52263e-06
1.37004e-06 -7.96777e-06 -8.21199e-07
-4.52263e-06 -8.21199e-07 -8.71586e-05
0.000486128 -5.02395e-05 3.97637e-07
-5.02395e-05 -9.31703e-05 -2.74062e-07
3.97637e-07 -2.74062e-07 -0.000211941
0.00105717 -0.0001376 2.22731e-06
-0.0001376 0.000202832 7.15603e-07
2.22731e-06 7.15603e-07 3.07076e-05
0.00113047 -0.0001417 -2.47501e-06
-0.0001417 0.000171897 3.32876e-06
-2.47501e-06 3.32876e-06 7.64923e-06
0.00129799 -7.70009e-05 -1.53519e-06
-7.70009e-05 0.000324963 -1.12026e-06
-1.53519e-06 -1.12026e-06 0.000217017
0.000755761 -0.000110479 -3.80635e-07
-0.000110479 2.72678e-05 1.74918e-07
-3.80635e-07 1.74918e-07 -0.000115699
0.00139239 -0.000147068 3.91695e-07
-0.000147068 0.000364821 -4.96945e-07
3.91695e-07 -4.96945e-07 0.00022855
0.000545956 -8.04284e-05 -1.20592e-06
-8.04284e-05 -6.0114e-05 3.53599e-07
-1.20592e-06 3.53599e-07 -0.000178292
0.00090791 -0.000115414 2.18011e-07
-0.000115414 0.000111727 2.18745e-08
2.18011e-07 2.18745e-08 -2.19096e-05
0.000892545 -5.30907e-06 -3.83619e-07
-5.30907e-06 0.000100153 7.49932e-07
-3.83619e-07 7.49932e-07 1.44555e-05
0.00101427 -8.22417e-05 -1.43517e-06
-8.22417e-05 0.00017856 1.30372e-06
-1.43517e-06 1.30372e-06 6.99054e-05
0.000669062 -9.90318e-05 -3.80122e-07
-9.90318e-05 -9.56301e-06 -9.86563e-07
-3.80122e-07 -9.86563e-07 -0.000140016
0.000806382 4.4192e-05 1.58986e-07
4.4192e-05 3.98422e-05 1.01197e-06
1.58986e-07 1.01197e-06 -2.02045e-05
0.000770919 1.50997e-06 7.0454e-07
1.50997e-06 3.16485e-05 2.47469e-08
7.0454e-07 2.47469e-08 -4.68496e-05
0.000876545 -3.04277e-05 7.414e-07
-3.04277e-05 0.00010204 -2.26859e-06
7.414e-07 -2.26859e-06 4.47457e-06
0.000851339 1.58814e-05 -1.03013e-07
1.58814e-05 6.92136e-05 -8.28374e-07
-1.03013e-07 -8.28374e-07 2.93311e-06
0.000809516 2.41309e-05 -4.28257e-07
2.41309e-05 3.56247e-05 -1.52787e-07
-4.28257e-07 -1.52787e-07 -1.7124e-05
0.000765208 3.80947e-05 -1.27737e-06
3.80947e-05 8.38694e-06 1.44916e-06
-1.27737e-06 1.44916e-06 -2.68261e-05
0.000819441 -5.10373e-06 8.03952e-07
-5.10373e-06 3.76577e-05 -7.67651e-07
8.03952e-07 -7.67651e-07 -1.19958e-05
0.00077581 3.16962e-05 -6.53951e-08
3.16962e-05 7.31675e-06 -4.83305e-09
-6.53951e-08 -4.83305e-09 -2.54807e-05
0.000698002 3.35319e-05 -1.28507e-06
3.35319e-05 -3.51685e-05 3.2422e-06
-1.28507e-06 3.2422e-06 -4.19651e-05
0.000786053 2.25395e-05 1.1455e-06
2.25395e-05 6.77804e-06 -1.48244e-06
1.1455e-06 -1.48244e-06 -2.44417e-05
0.000718387 2.8834e-05 1.21315e-07
2.8834e-05 -3.12937e-05 1.6454e-08
1.21315e-07 1.6454e-08 -3.64519e-05
0.00200648 4.36764e-05 -4.74406e-06
4.36764e-05 0.000681255 1.52972e-06
-4.74406e-06 1.52972e-06 0.000699498
0.000723338 2.34464e-05 9.15549e-07
2.34464e-05 -3.46553e-05 -3.16862e-06
9.15549e-07 -3.16862e-06 -3.87457e-05
0.00148461 2.84437e-05 7.21571e-06
2.84437e-05 0.000387169 -1.08989e-06
7.21571e-06 -1.08989e-06 0.000403976
0.00210599 2.53825e-05 1.21438e-05
2.53825e-05 0.000725509 -3.92672e-06
1.21438e-05 -3.92672e-06 0.000745948
0.000708133 -2.0138e-05 -1.74696e-07
-2.0138e-05 -2.71604e-05 -6.45816e-07
-1.74696e-07 -6.45816e-07 -8.39774e-05
0.000534483 -1.78548e-05 -3.0011e-07
-1.78548e-05 -0.000130021 -2.02124e-06
-3.0011e-07 -2.02124e-06 -0.00016522
0.000793673 -1.78115e-06 -3.10383e-07
-1.78115e-06 2.63341e-05 -5.1519e-07
-3.10383e-07 -5.1519e-07 -3.17356e-05
0.000738284 -1.8286e-05 -4.12655e-07
-1.8286e-05 -2.95458e-05 -3.27199e-06
-4.12655e-07 -3.27199e-06 -3.32718e-05
0.000547752 -1.41007e-05 3.03417e-08
-1.41007e-05 -0.000124592 -6.12642e-07
3.03417e-08 -6.12642e-07 -0.00015748
0.00091933 -1.84676e-07 -1.29426e-07
-1.84676e-07 9.62773e-05 6.55381e-07
-1.29426e-07 6.55381e-07 4.15067e-05
0.00208262 -1.74487e-05 -8.53228e-06
-1.74487e-05 0.000709547 -4.2038e-06
-8.53228e-06 -4.2038e-06 0.000730965
0.000737013 -1.21585e-05 -1.05031e-07
-1.21585e-05 -3.39048e-05 -1.16665e-08
-1.05031e-07 -1.16665e-08 -3.58888e-05
0.000554705 -9.51977e-06 2.19868e-07
-9.51977e-06 -0.00012227 1.55067e-06
2.19868e-07 1.55067e-06 -0.000153376
0.00205306 -8.57116e-06 -2.51317e-06
-8.57116e-06 0.000690745 2.11562e-08
-2.51317e-06 2.11562e-08 0.00071302
0.000739308 -6.09671e-06 1.96173e-07
-6.09671e-06 -3.49792e-05 3.2872e-06
1.96173e-07 3.2872e-06 -3.5944e-05
0.00204942 2.58537e-07 -6.071e-07
2.58537e-07 0.000687853 4.29957e-06
-6.071e-07 4.29957e-06 0.000710331
0.00116704 1.78398e-05 -1.27124e-05
1.78398e-05 3.32654e-05 1.24487e-05
-1.27124e-05 1.24487e-05 -5.39931e-05
0.00130481 2.62897e-05 5.06784e-06
2.62897e-05 -2.50342e-05 -1.77998e-06
5.06784e-06 -1.77998e-06 -0.000275853
0.0011633 0.000134252 4.72754e-05
0.000134252 0.00117499 -1.60336e-05
4.72754e-05 -1.60336e-05 0.00102586
0.000867417 1.92127e-05 2.19901e-07
1.92127e-05 7.28216e-05 3.44831e-08
2.19901e-07 3.44831e-08 1.47776e-06
0.000790307 -1.09769e-05 -4.66953e-08
-1.09769e-05 2.77371e-05 2.53845e-07
-4.66953e-08 2.53845e-07 -4.22979e-05
0.000932796 3.15176e-05 -5.3761e-07
3.15176e-05 0.000112187 9.97735e-07
-5.3761e-07 9.97735e-07 3.5482e-05
0.00175459 1.88615e-05 2.82677e-06
1.88615e-05 8.31893e-05 4.6258e-05
2.82677e-06 4.6258e-05 -0.000248188
0.00198312 3.53243e-05 -6.12001e-06
3.53243e-05 0.000311011 2.57994e-06
-6.12001e-06 2.57994e-06 4.93168e-05
0.00217651 5.03062e-05 3.58167e-05
5.03062e-05 0.000258374 -3.72735e-05
3.58167e-05 -3.72735e-05 -0.000143174
0.00416277 -0.000198535 -5.41033e-05
-0.000198535 0.000732955 5.57045e-06
-5.41033e-05 5.57045e-06 0.000247098
-0.00054512 7.59079e-05 -2.6613e-05
7.59079e-05 -0.000775602 1.30927e-05
-2.6613e-05 1.30927e-05 -0.00237806
0.00472719 0.000596044 6.32945e-05
0.000596044 0.00103807 -2.0155e-05
6.32945e-05 -2.0155e-05 0.00111547
0.00148832 0.000208375 1.1144e-05
0.000208375 -0.00204807 -2.50159e-05
1.1144e-05 -2.50159e-05 -0.00104059
0.00412464 -0.000449968 -9.83838e-06
-0.000449968 0.000864952 3.18066e-06
-9.83838e-06 3.18066e-06 0.000383743
0.00595145 9.1751e-05 1.52842e-05
9.1751e-05 0.00201397 -1.1441e-05
1.52842e-05 -1.1441e-05 0.000402611
0.00023359 9.95881e-05 -1.07573e-05
9.95881e-05 -0.000732507 -4.17464e-06
-1.07573e-05 -4.17464e-06 -0.000830852
0.00319741 3.28037e-05 -3.87869e-06
3.28037e-05 -0.00111298 1.6888e-06
-3.87869e-06 1.6888e-06 8.22612e-05
0.00229425 -0.000449035 -2.74935e-05
-0.000449035 -0.000210454 -4.32417e-05
-2.74935e-05 -4.32417e-05 -0.000683277
0.00883542 -0.000213596 6.95613e-05
-0.000213596 0.00368967 1.65834e-06
6.95613e-05 1.65834e-06 0.0016965
-0.00297374 7.77499e-05 2.19163e-05
7.77499e-05 -0.00101266 6.4693e-06
2.19163e-05 6.4693e-06 -0.00141664
0.00148014 -0.00021172 7.10448e-06
-0.00021172 -0.0017211 2.66747e-06
7.10448e-06 2.66747e-06 -0.000734902
0.00089293 -6.94313e-07 -1.70816e-07
-6.94313e-07 8.38039e-05 1.11674e-06
-1.70816e-07 1.11674e-06 2.80006e-06
0.000868311 -1.54709e-05 1.75117e-07
-1.54709e-05 8.03251e-05 -4.45023e-08
1.75117e-07 -4.45023e-08 -6.12033e-06
0.0008444 -4.61779e-05 -1.20787e-07
-4.61779e-05 7.41444e-05 -4.03656e-07
-1.20787e-07 -4.03656e-07 -1.14926e-05
0.000865349 5.91283e-06 -2.6674e-07
5.91283e-06 7.21949e-05 -2.4887e-07
-2.6674e-07 -2.4887e-07 -4.99839e-06
0.000986719 8.17564e-05 1.3879e-06
8.17564e-05 0.000148292 -1.14453e-07
1.3879e-06 -1.14453e-07 6.70996e-05
0.00101798 6.79599e-05 -2.50793e-08
6.79599e-05 0.000164693 -3.60696e-08
-2.50793e-08 -3.60696e-08 8.86617e-05
0.00113435 -0.000274675 -4.71548e-07
-0.000274675 -5.69735e-06 4.75919e-06
-4.71548e-07 4.75919e-06 -7.61224e-05
-0.000638785 -4.87343e-05 7.9719e-06
-4.87343e-05 -0.000656268 -4.09186e-06
7.9719e-06 -4.09186e-06 -0.000740829
0.00101511 4.1671e-05 -3.30481e-07
4.1671e-05 0.000154982 -6.64341e-07
-3.30481e-07 -6.64341e-07 7.00895e-05
0.00135709 -6.8641e-05 5.64827e-06
-6.8641e-05 0.000299025 -7.95887e-06
5.64827e-06 -7.95887e-06 0.000203699
0.00103135 1.53094e-05 -2.15591e-07
1.53094e-05 0.000160013 -1.39812e-06
-2.15591e-07 -1.39812e-06 7.3805e-05
0.000932203 -1.14499e-05 1.21074e-07
-1.14499e-05 9.1129e-05 -3.43801e-07
1.21074e-07 -3.43801e-07 1.62101e-05
0.000966867 4.7589e-05 2.97261e-07
4.7589e-05 0.000118471 -2.00745e-07
2.97261e-07 -2.00745e-07 4.4012e-05
0.000721295 -0.000252663 -9.71385e-06
-0.000252663 -8.11053e-05 -1.02611e-06
-9.71385e-06 -1.02611e-06 -8.77472e-05
0.000892726 -1.68628e-05 9.51464e-07
-1.68628e-05 6.62336e-05 -1.49964e-06
9.51464e-07 -1.49964e-06 -3.05953e-06
0.000722053 -1.20934e-05 2.87133e-06
-1.20934e-05 0.000239973 -1.90575e-06
2.87133e-06 -1.90575e-06 0.000124723
0.000979377 1.19254e-05 1.85112e-06
1.19254e-05 0.000124616 1.21363e-06
1.85112e-06 1.21363e-06 5.59519e-05
-0.00174043 -4.68677e-05 1.30562e-05
-4.68677e-05 -0.000855017 -2.36561e-05
1.30562e-05 -2.36561e-05 -0.0011134
0.00156958 9.21206e-06 1.29826e-05
9.21206e-06 0.000649303 1.88282e-05
1.29826e-05 1.88282e-05 0.000616975
0.00106846 -1.95013e-05 3.12789e-07
-1.95013e-05 0.000172974 3.84452e-06
3.12789e-07 3.84452e-06 0.000115463
0.0013344 -2.31052e-06 -3.19038e-07
-2.31052e-06 0.000363976 3.27073e-07
-3.19038e-07 3.27073e-07 0.000327063
0.000965276 -9.09374e-07 -4.45208e-06
-9.09374e-07 2.3062e-05 -1.06689e-06
-4.45208e-06 -1.06689e-06 -2.7615e-05
0.00100563 -2.13339e-05 7.40734e-05
-2.13339e-05 -0.000197943 -1.05474e-06
7.40734e-05 -1.05474e-06 -0.000423887
0.0011045 0.000110586 1.32438e-05
0.000110586 0.000395626 9.27226e-06
1.32438e-05 9.27226e-06 0.000333175
0.00286123 0.000280366 3.63326e-06
0.000280366 0.00118156 -1.34552e-05
3.63326e-06 -1.34552e-05 0.00107498
0.0011323 -9.12123e-06 6.76481e-06
-9.12123e-06 2.23724e-05 4.2052e-06
6.76481e-06 4.2052e-06 -5.6005e-05
0.00142762 0.000200528 -1.93389e-05
0.000200528 -0.000129911 -1.0881e-06
-1.93389e-05 -1.0881e-06 -0.00168282
-0.00573594 1.96447e-05 -2.54235e-05
1.96447e-05 -0.00310961 2.24864e-05
-2.54235e-05 2.24864e-05 -0.00358616
0.00184085 1.1878e-05 5.30539e-06
1.1878e-05 0.000315124 2.47092e-05
5.30539e-06 2.47092e-05 0.000111181
0.0015183 0.000196645 -9.67014e-06
0.000196645 -0.00198275 2.55145e-05
-9.67014e-06 2.55145e-05 -0.00101138
0.000330627 5.20579e-05 -2.47975e-06
5.20579e-05 0.000123313 -2.4706e-06
-2.47975e-06 -2.4706e-06 4.33585e-05
0.00100967 -8.46348e-08 6.2598e-07
-8.46348e-08 8.74295e-05 -3.89076e-06
6.2598e-07 -3.89076e-06 1.2913e-05
0.0019956 2.78548e-05 5.66098e-06
2.78548e-05 0.00030465 -2.27973e-06
5.66098e-06 -2.27973e-06 5.12176e-05
0.00179706 0.000291083 5.18927e-05
0.000291083 -4.94757e-05 4.86031e-07
5.18927e-05 4.86031e-07 -0.000120429
0.00184822 0.000408429 6.38661e-06
0.000408429 -0.00096652 -1.72123e-05
6.38661e-06 -1.72123e-05 -0.000173568
0.00025059 9.94406e-05 1.1673e-05
9.94406e-05 -0.000912616 1.11417e-06
1.1673e-05 1.11417e-06 -0.000866913
0.00696254 0.000163452 3.88671e-05
0.000163452 0.003152 -1.62342e-05
3.88671e-05 -1.62342e-05 0.000820634
-4.67243e-05 3.3176e-06 -1.92387e-05
3.3176e-06 0.000136098 -1.19745e-05
-1.92387e-05 -1.19745e-05 -4.70257e-05
0.00109534 1.47668e-05 1.20079e-05
1.47668e-05 -1.7458e-05 -1.11849e-05
1.20079e-05 -1.11849e-05 -0.00010458
0.00207313 5.81195e-05 6.6361e-05
5.81195e-05 0.000114711 -4.51365e-05
6.6361e-05 -4.51365e-05 -0.00020159
0.00221943 0.000609716 1.39013e-05
0.000609716 0.000580324 -6.93069e-06
1.39013e-05 -6.93069e-06 0.00153869
-0.00574323 0.000186721 6.55905e-05
0.000186721 -0.00408341 1.82389e-05
6.55905e-05 1.82389e-05 -0.00384832
0.00809536 1.39623e-05 3.17722e-05
1.39623e-05 0.00320793 -4.96435e-05
3.17722e-05 -4.96435e-05 0.0010967
0.00420201 -0.000190838 -4.30193e-05
-0.000190838 0.000853765 0.000113366
-4.30193e-05 0.000113366 0.00095433
0.001039 -7.06142e-06 -2.96782e-06
-7.06142e-06 0.000253206 7.77299e-06
-2.96782e-06 7.77299e-06 0.000209891
9.70145e-05 -1.54232e-05 1.64439e-06
-1.54232e-05 -7.03544e-05 -7.62799e-07
1.64439e-06 -7.62799e-07 -0.000155342
0.000209874 -8.96447e-05 7.18793e-06
-8.96447e-05 3.38446e-05 -8.37587e-06
7.18793e-06 -8.37587e-06 -0.000124889
0.000879398 -1.58341e-05 -1.30409e-09
-1.58341e-05 6.456e-05 9.65732e-07
-1.30409e-09 9.65732e-07 6.57801e-06
0.000323042 -1.5208e-05 -6.14922e-07
-1.5208e-05 -0.000228638 8.53824e-06
-6.14922e-07 8.53824e-06 -0.000243923
0.000625876 -1.59397e-05 1.68067e-07
-1.59397e-05 5.37231e-05 5.23652e-08
1.68067e-07 5.23652e-08 -3.65598e-05
0.000797166 -0.000106967 9.99087e-06
-0.000106967 0.000237467 -4.56103e-06
9.99087e-06 -4.56103e-06 3.08726e-05
0.00148266 -4.4077e-05 -1.37434e-06
-4.4077e-05 0.000419767 1.05255e-06
-1.37434e-06 1.05255e-06 0.000340319
0.00119239 -0.000106082 9.40522e-07
-0.000106082 0.000321976 5.22657e-07
9.40522e-07 5.22657e-07 0.000169028
0.00107497 -0.000144979 3.69963e-06
-0.000144979 0.000255521 2.82135e-06
3.69963e-06 2.82135e-06 1.72892e-05
0.000191802 -4.53478e-05 -1.58746e-06
-4.53478e-05 -0.000245627 -1.63169e-06
-1.58746e-06 -1.63169e-06 -0.000355824
0.00103131 -0.000133312 -2.15416e-07
-0.000133312 0.000188201 4.84573e-07
-2.15416e-07 4.84573e-07 9.8086e-06
0.00182654 -0.000200619 2.28355e-07
-0.000200619 0.000531752 2.31014e-06
2.28355e-07 2.31014e-06 0.000322925
0.00171799 -0.000194026 -3.39246e-06
-0.000194026 0.000402077 2.6376e-06
-3.39246e-06 2.6376e-06 0.000216457
0.000673335 -0.000111564 -8.34813e-07
-0.000111564 -5.49295e-05 3.82969e-06
-8.34813e-07 3.82969e-06 -0.00020144
0.00109377 -0.000140104 -1.4866e-06
-0.000140104 0.000152314 1.13446e-06
-1.4866e-06 1.13446e-06 -1.34678e-05
0.000896429 -0.000119544 -1.79142e-06
-0.000119544 9.53249e-05 -4.66669e-07
-1.79142e-06 -4.66669e-07 -5.02209e-05
0.00123446 -0.000135054 1.52853e-06
-0.000135054 0.000281967 -1.20721e-06
1.52853e-06 -1.20721e-06 0.000156177
0.00107019 -0.000126428 1.91018e-06
-0.000126428 0.00019725 -1.48898e-06
1.91018e-06 -1.48898e-06 6.58979e-05
0.00065546 -3.26159e-05 5.46819e-07
-3.26159e-05 -1.58237e-05 1.30754e-06
5.46819e-07 1.30754e-06 -0.000117179
0.000831079 -9.07863e-05 7.21275e-07
-9.07863e-05 9.08799e-05 -2.72445e-07
7.21275e-07 -2.72445e-07 -2.67979e-05
0.000985954 -0.000119753 3.8453e-06
-0.000119753 0.00015254 -2.75688e-06
3.8453e-06 -2.75688e-06 2.07088e-05
0.000813066 4.6926e-05 3.37895e-07
4.6926e-05 4.96145e-05 1.31656e-06
3.37895e-07 1.31656e-06 -2.09724e-05
0.000907765 -2.28927e-05 -2.41524e-07
-2.28927e-05 0.000109934 2.71254e-08
-2.41524e-07 2.71254e-08 2.24631e-05
0.00105953 -7.94091e-05 -9.35325e-08
-7.94091e-05 0.00020018 -2.78723e-07
-9.35325e-08 -2.78723e-07 9.16511e-05
0.000743561 4.61808e-05 -9.63459e-07
4.61808e-05 4.27525e-06 1.55868e-06
-9.63459e-07 1.55868e-06 -3.54077e-05
0.000810669 2.79356e-05 -3.73107e-07
2.79356e-05 4.11847e-05 -2.16876e-07
-3.73107e-07 -2.16876e-07 -1.83384e-05
0.000657977 8.41395e-07 1.88866e-07
8.41395e-07 -2.88147e-05 -9.93148e-07
1.88866e-07 -9.93148e-07 -0.0001075
0.000826696 5.96601e-06 6.46714e-07
5.96601e-06 4.4276e-05 -1.06273e-06
6.46714e-07 -1.06273e-06 -8.18752e-06
0.00076658 4.05805e-05 -7.08982e-08
4.05805e-05 9.40308e-06 -3.19378e-08
-7.08982e-08 -3.19378e-08 -2.61122e-05
0.00068107 3.84709e-05 -1.53947e-06
3.84709e-05 -3.58136e-05 3.25749e-06
-1.53947e-06 3.25749e-06 -4.49709e-05
0.000779798 3.26604e-05 1.06221e-06
3.26604e-05 9.22063e-06 -1.55576e-06
1.06221e-06 -1.55576e-06 -2.3598e-05
0.000711131 3.41808e-05 8.25852e-08
3.41808e-05 -2.81912e-05 4.20493e-10
8.25852e-08 4.20493e-10 -3.50348e-05
0.00205415 4.73331e-05 -2.0439e-05
4.73331e-05 0.000713758 3.46333e-06
-2.0439e-05 3.46333e-06 0.000730873
0.000724937 2.92308e-05 1.10693e-06
2.92308e-05 -2.81592e-05 -3.1808e-06
1.10693e-06 -3.1808e-06 -3.32903e-05
0.00146972 3.54192e-05 8.44454e-06
3.54192e-05 0.000385712 -9.91067e-07
8.44454e-06 -9.91067e-07 0.000401256
0.00208206 3.32496e-05 1.54026e-05
3.32496e-05 0.000717336 -3.73937e-06
1.54026e-05 -3.73937e-06 0.000736935
0.00083134 1.98674e-05 -6.23402e-07
1.98674e-05 3.95014e-05 -3.76269e-07
-6.23402e-07 -3.76269e-07 -1.75322e-05
0.000759178 -2.07544e-05 -7.29411e-07
-2.07544e-05 -7.14125e-06 -1.42917e-06
-7.29411e-07 -1.42917e-06 -4.24011e-05
0.000750898 1.50997e-05 -7.39989e-07
1.50997e-05 2.89586e-07 -4.21685e-07
-7.39989e-07 -4.21685e-07 -5.86233e-05
0.000728924 -2.4068e-05 -3.81068e-07
-2.4068e-05 -2.98847e-05 -3.32413e-06
-3.81068e-07 -3.32413e-06 -3.56235e-05
0.000653719 -1.81017e-05 -1.28378e-07
-1.81017e-05 -6.53881e-05 -6.40207e-07
-1.28378e-07 -6.40207e-07 -9.98622e-05
0.000913802 -3.50892e-06 4.85488e-08
-3.50892e-06 9.12624e-05 -1.04129e-07
4.85488e-08 -1.04129e-07 3.40436e-05
0.00212243 -2.57806e-05 -1.22255e-05
-2.57806e-05 0.000734995 -4.11843e-06
-1.22255e-05 -4.11843e-06 0.000755221
0.000729563 -1.79433e-05 -1.67935e-07
-1.79433e-05 -3.43438e-05 -8.33363e-09
-1.67935e-07 -8.33363e-09 -3.79831e-05
0.000539041 -1.40974e-05 9.26609e-08
-1.40974e-05 -0.000129321 8.70069e-07
9.26609e-08 8.70069e-07 -0.000162469
0.00207483 -1.68606e-05 -2.27055e-06
-1.68606e-05 0.000704903 4.09074e-08
-2.27055e-06 4.09074e-08 0.00072647
0.000731102 -1.18776e-05 3.79398e-07
-1.18776e-05 -3.71507e-05 3.27233e-06
3.79398e-07 3.27233e-06 -3.90824e-05
0.00204959 -8.01596e-06 3.4288e-06
-8.01596e-06 0.00068863 4.26446e-06
3.4288e-06 4.26446e-06 0.000710965
0.00113235 2.39061e-06 1.0842e-06
2.39061e-06 0.00014584 1.0226e-05
1.0842e-06 1.0226e-05 4.67243e-05
0.001176 1.30118e-05 -4.61702e-06
1.30118e-05 4.64054e-05 1.49789e-06
-4.61702e-06 1.49789e-06 -5.00941e-05
0.00138876 2.54149e-05 5.66224e-05
2.54149e-05 3.49464e-05 -1.37767e-05
5.66224e-05 -1.37767e-05 -0.000219059
0.000770432 -4.67632e-05 3.44582e-08
-4.67632e-05 1.18645e-05 -3.03224e-07
3.44582e-08 -3.03224e-07 -5.49716e-05
0.000939966 -1.68181e-05 -3.2959e-07
-1.68181e-05 0.00011109 -5.25601e-07
-3.2959e-07 -5.25601e-07 3.87806e-05
0.000884307 2.03153e-05 1.36114e-06
2.03153e-05 8.03649e-05 -4.23416e-07
1.36114e-06 -4.23416e-07 1.08196e-05
0.000796458 -2.67565e-05 4.33445e-08
-2.67565e-05 2.71073e-05 1.06634e-08
4.33445e-08 1.06634e-08 -4.04184e-05
0.000863314 6.08799e-06 2.46647e-10
6.08799e-06 7.21573e-05 2.44407e-07
2.46647e-10 2.44407e-07 -3.44068e-06
0.000910554 -5.93963e-06 -9.35757e-07
-5.93963e-06 9.69189e-05 3.63481e-07
-9.35757e-07 3.63481e-07 2.32483e-05
0.000882464 0.000104127 5.04178e-07
0.000104127 9.25607e-05 1.11124e-06
5.04178e-07 1.11124e-06 8.60493e-06
0.00155684 -3.80466e-06 1.98274e-05
-3.80466e-06 0.000148796 4.50476e-05
1.98274e-05 4.50476e-05 -0.000198762
0.00175218 1.97686e-05 -1.05656e-06
1.97686e-05 0.000183421 1.39058e-05
-1.05656e-06 1.39058e-05 -8.65755e-05
0.00192784 3.88555e-05 8.27575e-06
3.88555e-05 0.000280231 -2.78121e-05
8.27575e-06 -2.78121e-05 8.00862e-06
0.00186653 1.13696e-05 -3.62587e-06
1.13696e-05 -0.00210237 -1.16849e-05
-3.62587e-06 -1.16849e-05 -0.000824598
0.00238382 -0.00041039 -2.27499e-05
-0.00041039 1.60255e-05 5.13403e-05
-2.27499e-05 5.13403e-05 -0.00068143
0.000272567 -0.000103069 4.84167e-05
-0.000103069 -0.00064802 -1.03986e-05
4.84167e-05 -1.03986e-05 -0.00222796
0.0046978 0.000449836 3.92328e-05
0.000449836 0.00189898 -2.48113e-05
3.92328e-05 -2.48113e-05 0.00128751
0.00455312 -0.00057361 -2.13183e-05
-0.00057361 0.000846171 5.3121e-06
-2.13183e-05 5.3121e-06 0.00025771
0.00171816 -0.000156978 4.04527e-05
-0.000156978 0.000203313 -2.32299e-05
4.04527e-05 -2.32299e-05 -0.00162267
0.00341516 3.98001e-06 -2.04279e-05
3.98001e-06 0.00106727 2.01153e-06
-2.04279e-05 2.01153e-06 0.000747221
0.00468817 -0.000270356 -9.51123e-06
-0.000270356 0.000314086 -1.49251e-05
-9.51123e-06 -1.49251e-05 0.00127403
0.00204814 -0.000170902 -1.03788e-05
-0.000170902 -0.000249895 3.79159e-06
-1.03788e-05 3.79159e-06 -0.000272177
0.00144194 -0.000230659 3.55539e-05
-0.000230659 -0.000452728 -6.09058e-05
3.55539e-05 -6.09058e-05 -0.0018521
-0.00312401 -0.000284021 4.13485e-05
-0.000284021 -0.00287725 1.17632e-05
4.13485e-05 1.17632e-05 -0.00335014
0.000835085 -0.000323704 2.77974e-05
-0.000323704 -0.00154899 -1.48247e-05
2.77974e-05 -1.48247e-05 -0.000565744
0.000947557 -5.61338e-05 -4.77784e-07
-5.61338e-05 0.000110529 1.94768e-06
-4.77784e-07 1.94768e-06 3.99201e-05
0.000819982 -5.54341e-07 1.58562e-07
-5.54341e-07 4.34537e-05 -1.99604e-08
1.58562e-07 -1.99604e-08 -3.66986e-05
0.000822834 -1.83195e-06 -4.21838e-07
-1.83195e-06 5.79588e-05 -1.24836e-06
-4.21838e-07 -1.24836e-06 -3.00307e-05
0.000872501 2.20155e-05 6.83678e-08
2.20155e-05 7.74421e-05 -1.42472e-06
6.83678e-08 -1.42472e-06 -9.86097e-07
0.00171137 -0.000266414 -1.56327e-06
-0.000266414 0.000395008 1.29223e-05
-1.56327e-06 1.29223e-05 0.000364166
0.000181511 -1.94315e-05 6.05119e-06
-1.94315e-05 -2.39398e-05 -9.11733e-06
6.05119e-06 -9.11733e-06 -0.000130608
0.000798998 -3.10487e-05 -1.03734e-07
-3.10487e-05 1.32936e-05 -1.90513e-06
-1.03734e-07 -1.90513e-06 -6.02013e-05
0.000945252 5.42739e-05 -2.14028e-07
5.42739e-05 0.000115611 -1.856e-06
-2.14028e-07 -1.856e-06 3.82615e-05
0.00112976 8.96801e-06 3.75944e-06
8.96801e-06 0.000207889 -8.19929e-06
3.75944e-06 -8.19929e-06 0.000137304
0.00087862 -8.62474e-06 -2.11075e-07
-8.62474e-06 6.87276e-05 1.45257e-08
-2.11075e-07 1.45257e-08 3.99266e-07
0.000787433 -1.21408e-05 -3.68956e-07
-1.21408e-05 3.02155e-05 -5.61626e-07
-3.68956e-07 -5.61626e-07 -3.02787e-05
-0.000721506 -5.42819e-05 -1.17032e-05
-5.42819e-05 -0.000364266 -9.6965e-06
-1.17032e-05 -9.6965e-06 -0.000647172
0.00090534 -1.82554e-05 -5.668e-06
-1.82554e-05 0.000324675 2.76227e-06
-5.668e-06 2.76227e-06 0.000299726
0.000804938 -1.91522e-05 2.52363e-06
-1.91522e-05 4.90468e-05 5.18679e-07
2.52363e-06 5.18679e-07 -1.34836e-05
0.00119796 2.57569e-05 -6.83184e-06
2.57569e-05 0.00105374 -4.53293e-05
-6.83184e-06 -4.53293e-05 0.000291721
0.00149675 -3.07803e-05 -2.83359e-06
-3.07803e-05 0.00061439 1.52314e-05
-2.83359e-06 1.52314e-05 0.000555073
0.00141465 -3.39047e-06 9.79538e-06
-3.39047e-06 0.000260303 2.75793e-07
9.79538e-06 2.75793e-07 0.000196291
0.000846237 -2.27056e-06 -1.65666e-08
-2.27056e-06 9.4254e-05 -6.48573e-08
-1.65666e-08 -6.48573e-08 5.84932e-05
0.000604112 6.5703e-07 1.11823e-06
6.5703e-07 -0.000158848 -1.14053e-07
1.11823e-06 -1.14053e-07 -0.000202772
0.000493297 4.21915e-05 4.53985e-06
4.21915e-05 0.000182497 7.80469e-06
4.53985e-06 7.80469e-06 0.000123991
0.00205796 0.000211525 -6.41844e-05
0.000211525 0.000364619 1.63645e-05
-6.41844e-05 1.63645e-05 0.000411245
0.000873602 -1.56022e-06 2.87304e-07
-1.56022e-06 3.53413e-05 1.97693e-06
2.87304e-07 1.97693e-06 -3.06876e-05
0.00318403 -1.16934e-05 8.91852e-05
-1.16934e-05 0.00119866 -0.000108177
8.91852e-05 -0.000108177 -0.000833722
0.00459148 0.000478584 -3.4684e-05
0.000478584 0.00173548 2.64275e-05
-3.4684e-05 2.64275e-05 0.00115174
0.00194539 2.66084e-05 -9.27474e-06
2.66084e-05 0.000275459 2.75405e-05
-9.27474e-06 2.75405e-05 1.2488e-05
0.00299279 0.000433322 -3.48728e-05
0.000433322 -0.000299177 2.09644e-05
-3.48728e-05 2.09644e-05 0.000508305
-0.000546587 -1.47199e-05 2.13047e-05
-1.47199e-05 -8.05451e-05 -1.25428e-06
2.13047e-05 -1.25428e-06 -0.000301302
0.00116598 1.00544e-05 4.75584e-06
1.00544e-05 3.42702e-05 -1.32931e-06
4.75584e-06 -1.32931e-06 -5.80866e-05
0.00205308 4.64492e-05 1.62871e-05
4.64492e-05 0.000140009 -2.45793e-06
1.62871e-05 -2.45793e-06 -0.000231725
0.00185705 -5.69467e-05 -2.12992e-05
-5.69467e-05 -0.00025113 2.54933e-05
-2.12992e-05 2.54933e-05 1.84558e-05
-0.000341994 0.000635298 6.68898e-06
0.000635298 -0.00101821 5.40724e-07
6.68898e-06 5.40724e-07 0.000202273
0.00462808 0.000563356 2.99046e-07
0.000563356 0.000525263 1.11976e-05
2.99046e-07 1.11976e-05 0.000719566
0.00133846 -0.000225026 4.39414e-05
-0.000225026 0.000169719 -2.30104e-05
4.39414e-05 -2.30104e-05 -0.00219295
0.00143172 -8.37722e-05 5.11964e-05
-8.37722e-05 0.000611043 -1.0147e-05
5.11964e-05 -1.0147e-05 0.000577756
0.00103191 1.62519e-05 4.18324e-05
1.62519e-05 -0.000193065 -1.52395e-05
4.18324e-05 -1.52395e-05 -0.000454359
-0.00118165 0.000261541 -9.9757e-06
0.000261541 -0.000458981 -1.51872e-05
-9.9757e-06 -1.51872e-05 -0.000478226
0.000355612 0.000526607 1.669e-05
0.000526607 -6.79869e-05 2.02128e-05
1.669e-05 2.02128e-05 0.000204348
0.00772896 0.000379956 2.62971e-05
0.000379956 0.00293013 -3.93247e-05
2.62971e-05 -3.93247e-05 0.00103007
0.00284146 -0.000322664 -5.91461e-05
-0.000322664 0.000200426 8.04721e-05
-5.91461e-05 8.04721e-05 -0.000131179
-0.000557997 -1.15899e-05 2.03104e-06
-1.15899e-05 -0.000404107 7.38163e-06
2.03104e-06 7.38163e-06 -0.000514024
0.000280231 -4.32411e-05 -3.93375e-06
-4.32411e-05 8.84432e-05 -3.98492e-07
-3.93375e-06 -3.98492e-07 -7.27891e-05
0.00115445 -0.000152024 1.58859e-05
-0.000152024 0.000362699 -5.92346e-06
1.58859e-05 -5.92346e-06 0.000228169
0.00067443 2.66543e-05 -4.5593e-06
2.66543e-05 7.97421e-05 3.39837e-07
-4.5593e-06 3.39837e-07 2.12469e-06
0.000137854 -5.32635e-05 9.93239e-07
-5.32635e-05 -8.13466e-05 -1.77664e-06
9.93239e-07 -1.77664e-06 -0.000292063
0.00111716 -0.00016308 9.82337e-06
-0.00016308 0.000204491 3.10237e-06
9.82337e-06 3.10237e-06 -8.94925e-06
0.00191473 -0.000179487 -3.18997e-06
-0.000179487 0.000677553 -6.9308e-08
-3.18997e-06 -6.9308e-08 0.000520286
0.00131589 -0.000156824 4.2455e-07
-0.000156824 0.000362925 1.28908e-06
4.2455e-07 1.28908e-06 0.000125976
0.00116032 -0.000184281 2.46344e-07
-0.000184281 0.000119316 -1.42741e-06
2.46344e-07 -1.42741e-06 -9.28676e-05
0.00102268 -0.000130336 -2.24084e-06
-0.000130336 0.000180818 -1.32089e-06
-2.24084e-06 -1.32089e-06 -3.15174e-06
0.00168719 -0.000191618 9.80657e-07
-0.000191618 0.000450502 2.21875e-07
9.80657e-07 2.21875e-07 0.000243336
0.00120988 -0.000181227 1.31421e-06
-0.000181227 7.74579e-05 -1.16131e-06
1.31421e-06 -1.16131e-06 -0.000119049
0.0017287 -0.00019704 -2.35279e-06
-0.00019704 0.000291588 -2.76238e-06
-2.35279e-06 -2.76238e-06 0.000124415
0.00188431 -0.000194907 -5.17681e-06
-0.000194907 0.0005128 4.72552e-06
-5.17681e-06 4.72552e-06 0.000341866
0.00150539 -0.000183862 -7.86797e-07
-0.000183862 0.000281742 5.79247e-07
-7.86797e-07 5.79247e-07 9.28262e-05
0.000551536 -0.000102472 9.18753e-07
-0.000102472 -0.000120472 4.03289e-08
9.18753e-07 4.03289e-08 -0.000249359
0.000882434 -0.000122884 1.37297e-06
-0.000122884 5.73636e-05 -4.95493e-07
1.37297e-06 -4.95493e-07 -8.58904e-05
0.00111089 -0.000141741 -2.34776e-08
-0.000141741 0.000160079 -1.85062e-06
-2.34776e-08 -1.85062e-06 -6.59591e-06
0.00103962 -0.000118036 3.47789e-07
-0.000118036 0.000174022 5.82857e-07
3.47789e-07 5.82857e-07 5.53062e-05
0.00115173 -0.000129264 -2.77592e-07
-0.000129264 0.00023937 -7.30688e-07
-2.77592e-07 -7.30688e-07 0.00011331
0.000785821 -0.000108245 2.13626e-06
-0.000108245 5.0131e-05 -1.97151e-06
2.13626e-06 -1.97151e-06 -7.63051e-05
0.000785569 1.56374e-05 8.38149e-07
1.56374e-05 4.2283e-05 1.27757e-06
8.38149e-07 1.27757e-06 -4.39489e-05
0.000775129 -4.08248e-05 4.56793e-08
-4.08248e-05 4.91861e-05 6.22486e-07
4.56793e-08 6.22486e-07 -5.19806e-05
0.00111362 -0.00010162 1.27929e-06
-0.00010162 0.000240553 -1.33571e-06
1.27929e-06 -1.33571e-06 0.000123151
0.000733573 5.92381e-05 -2.97887e-07
5.92381e-05 8.07754e-06 2.01631e-06
-2.97887e-07 2.01631e-06 -4.05522e-05
0.000806919 2.24652e-05 -2.44115e-07
2.24652e-05 4.75358e-05 -1.29485e-07
-2.44115e-07 -1.29485e-07 -2.42644e-05
0.000916789 -3.67074e-05 2.59376e-07
-3.67074e-05 0.000116329 -7.5935e-07
2.59376e-07 -7.5935e-07 2.70941e-05
0.000682792 4.31971e-05 -2.68937e-06
4.31971e-05 -2.65009e-05 4.52999e-06
-2.68937e-06 4.52999e-06 -3.83801e-05
0.000748168 5.18793e-05 -1.37274e-08
5.18793e-05 8.29609e-06 -1.28382e-07
-1.37274e-08 -1.28382e-07 -3.24404e-05
0.000814401 1.19871e-05 2.48019e-07
1.19871e-05 4.23174e-05 -1.23474e-06
2.48019e-07 -1.23474e-06 -1.67591e-05
0.000767293 4.33475e-05 6.87624e-07
4.33475e-05 1.01006e-05 -1.66903e-06
6.87624e-07 -1.66903e-06 -2.57451e-05
0.000703631 3.94439e-05 3.17779e-08
3.94439e-05 -2.3779e-05 -2.28608e-08
3.17779e-08 -2.28608e-08 -3.30412e-05
0.00206425 5.46847e-05 -2.32156e-05
5.46847e-05 0.000727638 3.27041e-06
-2.32156e-05 3.27041e-06 0.000742787
0.000727403 3.49291e-05 1.33402e-06
3.49291e-05 -1.94869e-05 -3.20303e-06
1.33402e-06 -3.20303e-06 -2.6394e-05
0.00206166 4.78747e-05 1.31487e-06
4.78747e-05 0.000718953 8.44293e-08
1.31487e-06 8.44293e-08 0.000735844
0.00206477 4.08601e-05 1.84647e-05
4.08601e-05 0.00071417 -3.5626e-06
1.84647e-05 -3.5626e-06 0.000732544
0.000867736 5.48009e-06 -1.5225e-07
5.48009e-06 6.95442e-05 -6.55106e-07
-1.5225e-07 -6.55106e-07 -8.91998e-07
0.000824211 3.35014e-05 -1.15613e-06
3.35014e-05 4.11547e-05 -9.94911e-07
-1.15613e-06 -9.94911e-07 -2.02848e-05
0.000758027 -2.85997e-05 -7.49479e-07
-2.85997e-05 -5.31386e-06 -1.61047e-06
-7.49479e-07 -1.61047e-06 -4.23667e-05
0.000826601 2.19893e-05 -7.95894e-08
2.19893e-05 3.70168e-05 -2.51114e-08
-7.95894e-08 -2.51114e-08 -1.99752e-05
0.000714915 -2.91688e-05 -6.47952e-07
-2.91688e-05 -3.19972e-05 -3.39344e-06
-6.47952e-07 -3.39344e-06 -3.97623e-05
0.000770336 -2.23259e-05 -1.40235e-07
-2.23259e-05 -5.46866e-07 8.3702e-09
-1.40235e-07 8.3702e-09 -3.59938e-05
0.000791825 1.21866e-05 6.36187e-08
1.21866e-05 1.58777e-05 -9.30389e-08
6.36187e-08 -9.30389e-08 -3.78629e-05
0.00216279 -3.3984e-05 -1.57369e-05
-3.3984e-05 0.000761786 -4.00028e-06
-1.57369e-05 -4.00028e-06 0.000780588
0.000720287 -2.35868e-05 -1.45287e-07
-2.35868e-05 -3.46518e-05 -3.31922e-09
-1.45287e-07 -3.31922e-09 -4.02955e-05
0.000771799 -1.87989e-05 1.0143e-07
-1.87989e-05 -1.39474e-06 8.58915e-07
1.0143e-07 8.58915e-07 -3.51566e-05
0.00211067 -2.52379e-05 -2.24876e-06
-2.52379e-05 0.000728041 6.21757e-08
-2.24876e-06 6.21757e-08 0.000748466
0.000721061 -1.76227e-05 3.33045e-07
-1.76227e-05 -3.90011e-05 3.28228e-06
3.33045e-07 3.28228e-06 -4.25599e-05
0.00206586 -1.6232e-05 7.62495e-06
-1.6232e-05 0.000699596 4.21013e-06
7.62495e-06 4.21013e-06 0.000721314
0.00119184 -1.57918e-05 1.03024e-05
-1.57918e-05 0.000128426 1.3449e-05
1.03024e-05 1.3449e-05 1.75837e-05
0.00098306 1.26457e-06 -7.41879e-07
1.26457e-06 8.25118e-05 4.06093e-06
-7.41879e-07 4.06093e-06 -3.91926e-06
0.00122887 1.0111e-05 3.71404e-06
1.0111e-05 8.14623e-05 -7.36751e-06
3.71404e-06 -7.36751e-06 -1.67394e-05
0.000814704 -6.72078e-06 -2.92074e-07
-6.72078e-06 4.07161e-05 -6.05016e-08
-2.92074e-07 -6.05016e-08 -2.93476e-05
0.000868302 -2.69716e-05 -1.32357e-07
-2.69716e-05 7.24137e-05 2.36349e-07
-1.32357e-07 2.36349e-07 -3.815e-07
0.000779324 -2.99481e-05 4.02142e-07
-2.99481e-05 2.61018e-05 -1.85562e-06
4.02142e-07 -1.85562e-06 -5.13449e-05
0.000747444 -3.84249e-05 -9.19903e-08
-3.84249e-05 8.19379e-06 -7.30409e-07
-9.19903e-08 -7.30409e-07 -6.4376e-05
0.00097719 3.23968e-05 -7.17959e-07
3.23968e-05 0.00014325 -3.17559e-07
-7.17959e-07 -3.17559e-07 6.0803e-05
0.000779223 -3.99855e-05 7.93306e-08
-3.99855e-05 1.50725e-05 -4.66165e-08
7.93306e-08 -4.66165e-08 -5.07776e-05
0.000779788 -1.79849e-05 4.74913e-07
-1.79849e-05 2.41327e-05 -8.42795e-07
4.74913e-07 -8.42795e-07 -4.99625e-05
0.000866407 6.85354e-06 -1.69451e-07
6.85354e-06 7.3942e-05 -5.62196e-08
-1.69451e-07 -5.62196e-08 4.27404e-07
0.000893644 2.59221e-05 -1.10792e-07
2.59221e-05 8.90498e-05 2.89461e-07
-1.10792e-07 2.89461e-07 9.81263e-06
0.000965654 1.24962e-05 -6.21126e-08
1.24962e-05 0.00013546 8.07538e-07
-6.21126e-08 8.07538e-07 5.73891e-05
0.00177556 -4.27737e-05 4.92078e-05
-4.27737e-05 0.000179495 5.35634e-05
4.92078e-05 5.35634e-05 -0.000226141
0.00165063 1.15774e-06 2.78835e-06
1.15774e-06 0.000135716 1.1995e-05
2.78835e-06 1.1995e-05 -0.000216637
0.00178746 2.09411e-05 -1.73766e-06
2.09411e-05 0.000305196 -1.1732e-05
-1.73766e-06 -1.1732e-05 9.94175e-05
0.00456658 -0.000248987 -2.53205e-05
-0.000248987 0.000403746 -3.67945e-05
-2.53205e-05 -3.67945e-05 0.00139259
-0.00557505 0.000175856 -1.72295e-05
0.000175856 -0.00305957 -3.7345e-06
-1.72295e-05 -3.7345e-06 -0.00351965
0.00398473 -0.000551002 -6.14852e-05
-0.000551002 0.000693696 6.12787e-05
-6.14852e-05 6.12787e-05 6.31963e-05
0.00622388 5.09788e-06 -6.1065e-06
5.09788e-06 0.0018182 -4.59414e-05
-6.1065e-06 -4.59414e-05 0.000327783
0.00344394 -0.000296683 -4.21085e-05
-0.000296683 0.000385063 4.04596e-05
-4.21085e-05 4.04596e-05 5.97689e-05
0.00897746 -0.000209994 5.48872e-05
-0.000209994 0.00347046 -8.7354e-06
5.48872e-05 -8.7354e-06 0.00163866
0.000234829 -0.000218721 2.03641e-05
-0.000218721 -0.000942474 -5.54796e-06
2.03641e-05 -5.54796e-06 -0.00114484
0.000832745 -0.000367736 -1.88214e-05
-0.000367736 -0.00163735 -4.71641e-05
-1.88214e-05 -4.71641e-05 -0.000612445
0.00403601 -6.10969e-05 -0.000106271
-6.10969e-05 0.000753853 -2.57015e-05
-0.000106271 -2.57015e-05 0.000479848
0.00810852 -0.000364216 -2.18505e-05
-0.000364216 0.00249725 4.98786e-05
-2.18505e-05 4.98786e-05 0.00120149
0.00780094 -0.000801038 1.99121e-05
-0.000801038 0.00222595 -5.36164e-06
1.99121e-05 -5.36164e-06 0.00237838
0.00282381 -0.000579601 1.44587e-05
-0.000579601 0.000296497 6.48326e-07
1.44587e-05 6.48326e-07 0.0014567
0.000719144 1.08041e-05 1.77113e-06
1.08041e-05 2.27234e-05 1.46383e-06
1.77113e-06 1.46383e-06 -3.8686e-05
0.000936123 -4.43218e-05 -1.01286e-07
-4.43218e-05 0.0001072 4.94093e-07
-1.01286e-07 4.94093e-07 3.57144e-05
0.000788265 -1.50012e-06 1.4639e-07
-1.50012e-06 2.40864e-05 -1.23918e-06
1.4639e-07 -1.23918e-06 -5.47259e-05
0.000279107 -1.32918e-05 -7.48833e-06
-1.32918e-05 9.77881e-05 1.20708e-05
-7.48833e-06 1.20708e-05 -0.000182938
0.000630267 -6.31116e-05 -4.30551e-06
-6.31116e-05 0.000196436 -6.4904e-06
-4.30551e-06 -6.4904e-06 0.000178595
0.000808941 -2.095e-05 -1.04019e-06
-2.095e-05 3.16653e-05 -8.24529e-07
-1.04019e-06 -8.24529e-07 -3.84468e-05
0.000809678 -5.62898e-05 -7.28414e-07
-5.62898e-05 4.02572e-05 -4.95397e-06
-7.28414e-07 -4.95397e-06 -1.8658e-05
0.000822026 -1.07658e-05 -5.31175e-07
-1.07658e-05 5.9927e-05 -9.72303e-07
-5.31175e-07 -9.72303e-07 -2.84082e-06
0.00057498 -3.34933e-05 1.37136e-06
-3.34933e-05 0.000125054 4.45082e-06
1.37136e-06 4.45082e-06 6.59251e-05
0.000111386 -1.54229e-05 2.53774e-05
-1.54229e-05 0.000451518 -3.19622e-05
2.53774e-05 -3.19622e-05 -0.000282064
-0.000379392 -2.21168e-05 -4.06744e-06
-2.21168e-05 -0.000400842 7.51591e-06
-4.06744e-06 7.51591e-06 -0.000478808
0.000784377 0.00010311 2.49761e-06
0.00010311 0.000357774 -2.70097e-05
2.49761e-06 -2.70097e-05 -6.06865e-05
0.00128453 -6.81168e-07 3.99797e-05
-6.81168e-07 -6.11829e-05 5.65807e-06
3.99797e-05 5.65807e-06 -0.000305277
0.000990563 -2.24265e-06 4.88125e-06
-2.24265e-06 3.98808e-05 9.86861e-07
4.88125e-06 9.86861e-07 -1.66739e-05
0.000223667 -1.9458e-06 2.39477e-07
-1.9458e-06 -0.000259552 -4.76284e-07
2.39477e-07 -4.76284e-07 -0.000294742
-0.00134577 -2.46771e-05 -3.42541e-05
-2.46771e-05 -0.000409372 1.15234e-05
-3.42541e-05 1.15234e-05 -0.000681333
0.00160276 7.18041e-05 1.98494e-05
7.18041e-05 -0.000526404 -4.32585e-05
1.98494e-05 -4.32585e-05 -0.000576752
0.0012717 6.43812e-06 -2.56343e-06
6.43812e-06 0.000104972 6.58754e-06
-2.56343e-06 6.58754e-06 1.22455e-05
0.0108879 -7.89223e-05 7.82689e-05
-7.89223e-05 0.00435096 -2.13253e-06
7.82689e-05 -2.13253e-06 0.00231386
0.00488911 0.000647566 -5.19879e-05
0.000647566 0.00107676 1.94919e-05
-5.19879e-05 1.94919e-05 0.00113718
0.00214645 4.14986e-05 -3.47072e-05
4.14986e-05 0.000219557 3.5303e-05
-3.47072e-05 3.5303e-05 -0.000190848
-0.00292579 0.000673797 1.92139e-05
0.000673797 -0.00265703 -4.18084e-05
1.92139e-05 -4.18084e-05 -0.00115033
0.000375384 -3.3927e-05 -1.52282e-05
-3.3927e-05 0.000117827 -1.23193e-06
-1.52282e-05 -1.23193e-06 4.22486e-05
0.00127532 1.605e-05 -5.33007e-06
1.605e-05 -5.01785e-05 1.67121e-06
-5.33007e-06 1.67121e-06 -0.000309692
-0.00139275 0.000304652 -5.31858e-05
0.000304652 -0.000513845 2.16997e-05
-5.31858e-05 2.16997e-05 -0.00045716
0.00204064 -0.000293977 -1.88931e-05
-0.000293977 -0.000186469 2.858e-05
-1.88931e-05 2.858e-05 -0.000375136
0.00474423 0.00078447 1.10811e-05
0.00078447 0.00149129 1.55089e-05
1.10811e-05 1.55089e-05 0.00178491
0.0065505 -3.88438e-06 4.69786e-05
-3.88438e-06 0.00203088 -2.55744e-05
4.69786e-05 -2.55744e-05 0.000218489
0.00205323 -0.000204076 2.37266e-05
-0.000204076 0.000430159 1.49826e-05
2.37266e-05 1.49826e-05 0.000566229
-0.00129304 8.30249e-05 3.80445e-05
8.30249e-05 -6.78254e-05 -5.98357e-06
3.80445e-05 -5.98357e-06 -0.000455798
0.00151644 0.000509623 -1.5726e-05
0.000509623 0.000808015 5.58331e-06
-1.5726e-05 5.58331e-06 0.000889637
0.0059212 0.000410944 -5.55321e-05
0.000410944 0.00190967 4.89351e-05
-5.55321e-05 4.89351e-05 0.000206213
0.00247916 -0.000504443 5.44917e-06
-0.000504443 0.000126672 1.65404e-05
5.44917e-06 1.65404e-05 -0.000507549
0.000271054 9.84307e-06 1.02371e-05
9.84307e-06 0.000105976 8.17879e-06
1.02371e-05 8.17879e-06 -5.83364e-05
0.000763759 -0.000134514 5.8732e-07
-0.000134514 0.000180112 -9.94781e-07
5.8732e-07 -9.94781e-07 2.90299e-05
0.00235958 -0.00021703 1.34325e-05
-0.00021703 0.000623715 3.21873e-06
1.34325e-05 3.21873e-06 0.000590778
-0.000504845 -8.74965e-07 -3.1672e-06
-8.74965e-07 -0.000394736 2.5348e-06
-3.1672e-06 2.5348e-06 -0.000608134
0.000584334 -0.000127226 3.59404e-06
-0.000127226 -4.30733e-05 -3.35108e-07
3.59404e-06 -3.35108e-07 -0.000257953
0.000838832 -0.000195344 -4.88371e-07
-0.000195344 -0.000210146 -5.23767e-07
-4.88371e-07 -5.23767e-07 -0.000364992
0.00159492 -0.000169915 -3.3377e-06
-0.000169915 0.000490502 -6.2458e-07
-3.3377e-06 -6.2458e-07 0.000255883
0.00122112 -0.000185252 -1.75784e-06
-0.000185252 0.00014753 -1.82373e-06
-1.75784e-06 -1.82373e-06 -5.91771e-05
0.00165136 -0.000221556 2.45979e-06
-0.000221556 0.000184685 -1.79259e-06
2.45979e-06 -1.79259e-06 3.9799e-05
0.00150349 -0.000179818 -5.82177e-07
-0.000179818 0.000347721 -1.97827e-06
-5.82177e-07 -1.97827e-06 0.000141623
0.00141274 -0.00018739 8.23624e-07
-0.00018739 0.000177503 -1.47552e-06
8.23624e-07 -1.47552e-06 -1.3307e-05
0.00119381 -0.000173904 -1.57093e-06
-0.000173904 -9.57261e-05 -4.32717e-06
-1.57093e-06 -4.32717e-06 -0.000238924
0.00182853 -0.000181616 -1.60513e-06
-0.000181616 0.000251021 -2.43047e-06
-1.60513e-06 -2.43047e-06 0.000117334
0.00136593 -0.000170117 -2.24487e-06
-0.000170117 0.000165023 -5.95477e-07
-2.24487e-06 -5.95477e-07 -3.50804e-06
0.00141474 -0.000179388 2.13499e-07
-0.000179388 0.000128798 -1.09328e-06
2.13499e-07 -1.09328e-06 -3.62031e-05
0.00141483 -0.000159769 -2.43195e-06
-0.000159769 0.00028649 3.38481e-06
-2.43195e-06 3.38481e-06 0.000137454
0.00136298 -0.000166465 -2.45877e-07
-0.000166465 0.000238416 8.83259e-07
-2.45877e-07 8.83259e-07 6.52347e-05
0.00126329 -0.000171817 4.46731e-07
-0.000171817 0.00014753 -1.86841e-06
4.46731e-07 -1.86841e-06 -4.52218e-05
0.000956599 -0.000120436 -1.27636e-08
-0.000120436 9.94387e-05 -8.10384e-07
-1.27636e-08 -8.10384e-07 -1.97507e-05
0.000695274 -0.000109676 -2.25888e-07
-0.000109676 -4.11647e-05 -1.3115e-06
-2.25888e-07 -1.3115e-06 -0.000168381
0.00107015 -0.000132956 4.13194e-06
-0.000132956 0.000158366 -3.81975e-06
4.13194e-06 -3.81975e-06 1.802e-05
0.000868856 -6.13906e-05 6.1807e-08
-6.13906e-05 7.75564e-05 1.29881e-06
6.1807e-08 1.29881e-06 -2.1705e-05
0.000987122 -0.000104946 4.88774e-07
-0.000104946 0.000146791 5.34787e-07
4.88774e-07 5.34787e-07 3.02862e-05
0.00104551 -0.000121991 1.05198e-07
-0.000121991 0.00018404 1.8467e-07
1.05198e-07 1.8467e-07 5.76551e-05
0.000740964 7.66449e-05 5.81507e-07
7.66449e-05 2.0771e-05 2.74037e-06
5.81507e-07 2.74037e-06 -4.19801e-05
0.000837354 -2.55422e-06 1.10939e-08
-2.55422e-06 7.11045e-05 -8.51439e-08
1.10939e-08 -8.51439e-08 -1.70811e-05
0.000894033 -5.32081e-05 -7.18938e-07
-5.32081e-05 0.000113868 -1.27287e-07
-7.18938e-07 -1.27287e-07 1.296e-05
0.00130885 5.77856e-05 -1.3409e-05
5.77856e-05 0.000327168 2.96443e-06
-1.3409e-05 2.96443e-06 0.000314268
0.000727758 5.17185e-05 -4.39153e-08
5.17185e-05 3.80111e-06 -2.45653e-07
-4.39153e-08 -2.45653e-07 -4.41551e-05
0.000804151 -1.56791e-06 3.58659e-07
-1.56791e-06 4.73007e-05 -1.35681e-06
3.58659e-07 -1.35681e-06 -2.57518e-05
0.000831652 3.57556e-05 -2.205e-05
3.57556e-05 6.0752e-05 3.29421e-06
-2.205e-05 3.29421e-06 6.79969e-05
0.00103017 4.96682e-05 -5.98852e-06
4.96682e-05 0.000164183 3.15333e-07
-5.98852e-06 3.15333e-07 0.00015343
0.000749071 5.65324e-05 -7.15337e-08
5.65324e-05 9.89971e-06 -1.988e-06
-7.15337e-08 -1.988e-06 -3.16202e-05
0.000727782 4.05591e-05 1.4361e-06
4.05591e-05 -1.08674e-05 -3.24285e-06
1.4361e-06 -3.24285e-06 -2.02537e-05
0.00208631 5.53217e-05 1.06349e-06
5.53217e-05 0.000740863 8.66115e-08
1.06349e-06 8.66115e-08 0.000755686
0.00207402 4.83644e-05 2.1616e-05
4.83644e-05 0.000726821 -3.38512e-06
2.1616e-05 -3.38512e-06 0.000743476
0.000778514 -1.73497e-05 1.25965e-07
-1.73497e-05 2.06078e-05 -1.23078e-06
1.25965e-07 -1.23078e-06 -5.21411e-05
0.000821818 1.16777e-05 -6.11213e-07
1.16777e-05 3.99097e-05 -1.45953e-06
-6.11213e-07 -1.45953e-06 -2.28217e-05
0.000847739 -1.78082e-05 3.19583e-08
-1.78082e-05 5.75335e-05 -2.8962e-08
3.19583e-08 -2.8962e-08 -1.22029e-05
0.000757128 -4.22602e-05 -6.49655e-07
-4.22602e-05 -1.18803e-07 -1.92195e-06
-6.49655e-07 -1.92195e-06 -3.96402e-05
0.000835451 -4.31001e-07 6.50058e-07
-4.31001e-07 4.45241e-05 -8.13815e-08
6.50058e-07 -8.13815e-08 -1.47283e-05
0.000703902 -3.39977e-05 -8.75274e-07
-3.39977e-05 -3.18154e-05 -3.53304e-06
-8.75274e-07 -3.53304e-06 -4.15842e-05
0.000768535 -2.53239e-05 -1.6375e-07
-2.53239e-05 9.84607e-07 1.51318e-08
-1.6375e-07 1.51318e-08 -3.61092e-05
0.000847039 3.94964e-05 1.13997e-06
3.94964e-05 5.42234e-05 5.78351e-07
1.13997e-06 5.78351e-07 -6.78828e-06
0.00220083 -4.17255e-05 -1.98034e-05
-4.17255e-05 0.000788142 -3.84882e-06
-1.98034e-05 -3.84882e-06 0.00080541
0.000710488 -2.87363e-05 -2.72817e-07
-2.87363e-05 -3.43157e-05 1.13687e-08
-2.72817e-07 1.13687e-08 -4.20405e-05
0.000787937 -2.25562e-05 3.38669e-07
-2.25562e-05 9.51441e-06 1.4996e-06
3.38669e-07 1.4996e-06 -2.60878e-05
0.00215182 -3.35346e-05 -2.03593e-06
-3.35346e-05 0.000755195 7.89737e-08
-2.03593e-06 7.89737e-08 0.000774185
0.000712525 -2.31672e-05 3.84712e-07
-2.31672e-05 -3.89054e-05 3.31852e-06
3.84712e-07 3.31852e-06 -4.44683e-05
0.00209902 -2.46487e-05 1.11386e-05
-2.46487e-05 0.000721124 4.13064e-06
1.11386e-05 4.13064e-06 0.000741749
0.00182811 -3.66054e-05 4.00599e-05
-3.66054e-05 0.000292683 2.20704e-05
4.00599e-05 2.20704e-05 7.59877e-05
0.00114854 -1.28312e-05 1.3482e-06
-1.28312e-05 7.81019e-05 4.16912e-06
1.3482e-06 4.16912e-06 -2.70096e-05
0.000844119 -3.748e-07 1.62301e-07
-3.748e-07 2.62204e-05 -2.79832e-06
1.62301e-07 -2.79832e-06 -5.05442e-05
0.000921007 3.85142e-05 -7.62413e-07
3.85142e-05 0.000114535 -2.34257e-07
-7.62413e-07 -2.34257e-07 2.89577e-05
0.000894955 -1.05518e-05 2.44739e-07
-1.05518e-05 8.41044e-05 2.91104e-07
2.44739e-07 2.91104e-07 1.45598e-05
0.000850004 -3.63488e-05 1.51251e-07
-3.63488e-05 6.24651e-05 5.36501e-07
1.51251e-07 5.36501e-07 -1.12293e-05
0.000872564 -3.73497e-05 1.05043e-07
-3.73497e-05 7.47097e-05 -1.59517e-07
1.05043e-07 -1.59517e-07 2.81284e-06
0.000877132 -5.38579e-06 2.01217e-07
-5.38579e-06 7.89885e-05 -4.94084e-07
2.01217e-07 -4.94084e-07 8.7386e-07
0.00089398 1.7714e-05 3.36767e-08
1.7714e-05 9.59271e-05 6.22549e-07
3.36767e-08 6.22549e-07 1.46549e-05
0.000908848 1.81494e-05 -2.51579e-07
1.81494e-05 0.000104386 -1.81988e-06
-2.51579e-07 -1.81988e-06 1.84287e-05
0.000691692 -2.20368e-05 2.19628e-07
-2.20368e-05 -1.35774e-05 -2.21738e-07
2.19628e-07 -2.21738e-07 -9.17961e-05
0.000837164 4.03742e-05 4.40863e-07
4.03742e-05 6.2111e-05 -3.56665e-07
4.40863e-07 -3.56665e-07 -1.34379e-05
0.000876483 -5.51853e-05 6.01981e-07
-5.51853e-05 7.18422e-05 -7.89602e-07
6.01981e-07 -7.89602e-07 -3.32253e-06
0.000901195 -7.91811e-07 -1.12576e-07
-7.91811e-07 9.99733e-05 1.57546e-07
-1.12576e-07 1.57546e-07 2.29724e-05
0.00144034 3.50031e-06 3.01744e-06
3.50031e-06 0.000404539 1.18176e-06
3.01744e-06 1.18176e-06 0.00032628
0.00137446 -0.000326279 4.70979e-05
-0.000326279 0.000664053 3.99635e-05
4.70979e-05 3.99635e-05 0.000801135
0.00197698 -3.91975e-05 2.32814e-06
-3.91975e-05 0.000293612 1.03886e-05
2.32814e-06 1.03886e-05 -0.000124519
0.00170158 6.10489e-06 -1.17276e-05
6.10489e-06 9.78474e-05 -2.09783e-05
-1.17276e-05 -2.09783e-05 -0.000259896
0.00382948 -0.000449119 -5.32368e-05
-0.000449119 -3.09917e-05 -4.33075e-05
-5.32368e-05 -4.33075e-05 0.00111105
0.00416427 -0.000236139 -1.42555e-05
-0.000236139 0.000516586 -2.22305e-05
-1.42555e-05 -2.22305e-05 0.000257665
0.00153516 -0.000250366 -9.94299e-05
-0.000250366 -0.000422906 6.17182e-05
-9.94299e-05 6.17182e-05 -0.00177935
0.0028516 -0.00024854 -4.14185e-05
-0.00024854 0.00032074 8.97851e-05
-4.14185e-05 8.97851e-05 -0.000110435
0.00373429 -0.000217444 -4.89156e-06
-0.000217444 0.00068662 2.84777e-05
-4.89156e-06 2.84777e-05 0.000525856
-0.000146279 -0.000588913 -4.63587e-06
-0.000588913 -0.00113487 5.89111e-06
-4.63587e-06 5.89111e-06 0.000143538
0.00482229 -1.96755e-05 5.92315e-06
-1.96755e-05 0.00156253 3.0002e-05
5.92315e-06 3.0002e-05 -0.000321132
0.00071613 -0.000399489 -2.91972e-06
-0.000399489 -0.0011657 7.61211e-06
-2.91972e-06 7.61211e-06 -0.000807836
0.00274692 0.000138899 -6.47329e-05
0.000138899 0.000226246 -2.92774e-05
-6.47329e-05 -2.92774e-05 0.00010192
0.00960042 -0.000507845 -2.6552e-05
-0.000507845 0.00371991 3.84554e-05
-2.6552e-05 3.84554e-05 0.00214887
2.61595e-05 -0.000483937 -2.1377e-05
-0.000483937 -0.000228457 -2.80431e-05
-2.1377e-05 -2.80431e-05 9.43491e-05
0.000609459 0.00012532 -1.6213e-07
0.00012532 -3.48677e-05 -1.60388e-06
-1.6213e-07 -1.60388e-06 -9.44543e-05
0.000987151 1.63349e-05 3.28253e-06
1.63349e-05 0.000159698 -3.68129e-08
3.28253e-06 -3.68129e-08 9.97507e-05
0.000928112 -2.80439e-05 -5.98151e-07
-2.80439e-05 0.000106311 -5.96713e-07
-5.98151e-07 -5.96713e-07 3.38057e-05
-0.00120746 -1.14503e-05 -2.43135e-05
-1.14503e-05 -0.000330712 -1.44608e-05
-2.43135e-05 -1.44608e-05 -0.00101758
-0.000564553 1.13646e-05 2.97558e-06
1.13646e-05 -0.000483552 -6.61587e-06
2.97558e-06 -6.61587e-06 -0.000545818
0.000743871 1.40886e-05 -9.83248e-08
1.40886e-05 2.07399e-05 -1.23935e-06
-9.83248e-08 -1.23935e-06 -4.21648e-05
0.000752255 5.70235e-05 2.82846e-06
5.70235e-05 0.000151274 1.42082e-06
2.82846e-06 1.42082e-06 6.83098e-05
0.000582056 0.000127008 6.5135e-06
0.000127008 0.000152673 -1.91239e-05
6.5135e-06 -1.91239e-05 -0.000164959
-0.000230302 0.000138334 1.34188e-05
0.000138334 -0.000444572 6.34107e-06
1.34188e-05 6.34107e-06 -0.000581815
0.000262078 -1.59873e-05 7.93572e-05
-1.59873e-05 0.00072053 -2.93048e-07
7.93572e-05 -2.93048e-07 0.000348799
0.00134876 -9.21775e-06 -4.39392e-06
-9.21775e-06 4.07923e-05 4.63811e-06
-4.39392e-06 4.63811e-06 -0.000156625
0.000633242 -5.64731e-07 -5.44704e-07
-5.64731e-07 -0.000138649 -6.18796e-07
-5.44704e-07 -6.18796e-07 -0.000188305
-7.07468e-06 -2.15197e-05 5.98522e-06
-2.15197e-05 -6.39022e-05 4.69011e-06
5.98522e-06 4.69011e-06 -0.000152687
0.00133532 -0.000255765 1.1202e-05
-0.000255765 -0.000614703 -2.80293e-05
1.1202e-05 -2.80293e-05 -0.000689955
0.00142304 1.31155e-05 -5.31353e-05
1.31155e-05 4.695e-05 1.24414e-05
-5.31353e-05 1.24414e-05 -0.000213913
0.00103538 -5.79769e-05 1.66956e-05
-5.79769e-05 -0.000487253 -1.97208e-05
1.66956e-05 -1.97208e-05 -0.0021039
-0.00232563 0.000442941 -2.15168e-05
0.000442941 -0.00199072 -7.77368e-06
-2.15168e-05 -7.77368e-06 -0.00159167
0.00154642 0.000377259 -6.15608e-05
0.000377259 0.000809404 3.90571e-05
-6.15608e-05 3.90571e-05 0.00115864
0.00177346 -0.00016133 -5.10403e-06
-0.00016133 0.000217365 3.729e-06
-5.10403e-06 3.729e-06 0.000445065
0.00127948 0.000157592 1.21933e-07
0.000157592 0.00115333 4.3906e-06
1.21933e-07 4.3906e-06 0.00104037
-0.00377214 0.000223754 1.53148e-05
0.000223754 -0.00131706 -2.48699e-08
1.53148e-05 -2.48699e-08 -0.00161305
0.00388056 -0.000531002 -4.65561e-06
-0.000531002 0.000934491 7.57263e-06
-4.65561e-06 7.57263e-06 3.51044e-07
0.0073297 0.000326632 -3.23455e-06
0.000326632 0.00254982 -2.30873e-07
-3.23455e-06 -2.30873e-07 0.00104466
7.3113e-05 -0.000158942 -1.3858e-06
-0.000158942 -0.000544274 1.26667e-05
-1.3858e-06 1.26667e-05 -0.00047414
-0.00614217 0.000125925 -2.83349e-05
0.000125925 -0.00299973 -4.37413e-06
-2.83349e-05 -4.37413e-06 -0.00304583
0.00621727 0.000283837 -6.62132e-06
0.000283837 0.00220923 2.77463e-06
-6.62132e-06 2.77463e-06 0.000861514
0.00479269 -0.000379199 -7.23637e-06
-0.000379199 0.000695163 2.46312e-05
-7.23637e-06 2.46312e-05 -0.000124026
0.00028338 -0.000106028 -1.28905e-05
-0.000106028 -3.21078e-05 4.59789e-06
-1.28905e-05 4.59789e-06 -0.000212095
0.00122099 -0.000160196 -9.49956e-07
-0.000160196 5.42403e-05 1.86794e-07
-9.49956e-07 1.86794e-07 5.60463e-05
0.00201624 -0.00020023 8.39085e-06
-0.00020023 0.000174101 -1.11749e-06
8.39085e-06 -1.11749e-06 0.000220627
0.000168686 -9.75457e-05 -3.17806e-06
-9.75457e-05 -0.000228832 -3.02281e-06
-3.17806e-06 -3.02281e-06 -0.00044694
0.00127025 -0.000217177 -3.74859e-06
-0.000217177 8.71906e-06 -1.70691e-06
-3.74859e-06 -1.70691e-06 -0.000145809
0.00191572 -0.000252123 -1.36257e-06
-0.000252123 0.00015629 6.9268e-07
-1.36257e-06 6.9268e-07 5.96216e-05
0.00123472 -0.000183953 -1.72154e-06
-0.000183953 0.000151958 -2.84969e-06
-1.72154e-06 -2.84969e-06 -5.02353e-05
0.00148243 -0.000210693 2.21867e-06
-0.000210693 0.000103082 1.02594e-07
2.21867e-06 1.02594e-07 -4.3118e-05
0.00188767 -0.000199891 -9.99128e-07
-0.000199891 0.000170998 -3.2946e-06
-9.99128e-07 -3.2946e-06 6.41943e-05
0.00159866 -0.000193252 -1.63553e-06
-0.000193252 0.000268091 -6.37041e-07
-1.63553e-06 -6.37041e-07 8.3209e-05
0.00157185 -0.00018859 -1.27852e-06
-0.00018859 9.98013e-05 -4.45623e-07
-1.27852e-06 -4.45623e-07 -4.38969e-05
0.00147025 -0.000153875 -1.0557e-06
-0.000153875 -2.46143e-05 -2.19358e-06
-1.0557e-06 -2.19358e-06 -0.000131744
0.00185805 -0.000155977 -1.65986e-06
-0.000155977 0.000229537 -1.14442e-06
-1.65986e-06 -1.14442e-06 0.000122824
0.00169753 -0.000175501 -2.11651e-06
-0.000175501 0.000250377 -2.14636e-06
-2.11651e-06 -2.14636e-06 0.000105501
0.00159897 -0.000168988 4.43283e-07
-0.000168988 0.000134759 1.37976e-06
4.43283e-07 1.37976e-06 2.57879e-06
0.000813323 -0.000132998 -2.7787e-06
-0.000132998 -9.46927e-05 1.30452e-06
-2.7787e-06 1.30452e-06 -0.000247401
0.00139864 -0.000169403 1.73835e-06
-0.000169403 0.000183988 -1.30856e-06
1.73835e-06 -1.30856e-06 1.81429e-05
0.00112234 -0.000162678 2.40442e-06
-0.000162678 -2.3267e-05 3.8009e-07
2.40442e-06 3.8009e-07 -0.000186092
0.00104768 -0.000132046 -6.16625e-07
-0.000132046 0.000117546 1.39883e-06
-6.16625e-07 1.39883e-06 -1.05685e-05
0.00104137 -0.000138366 8.36059e-07
-0.000138366 9.21799e-05 -3.90006e-07
8.36059e-07 -3.90006e-07 -5.51713e-05
0.000814601 -0.000136533 1.27003e-06
-0.000136533 -5.07187e-05 -2.6575e-06
1.27003e-06 -2.6575e-06 -0.000225611
0.00095097 -0.000104514 -1.71723e-06
-0.000104514 9.8704e-05 3.65514e-07
-1.71723e-06 3.65514e-07 -5.78695e-06
0.00104788 -0.000125132 -1.22567e-07
-0.000125132 0.000146325 -5.30687e-07
-1.22567e-07 -5.30687e-07 2.67298e-05
0.000840015 -0.000116954 2.91109e-07
-0.000116954 3.86652e-05 -2.50867e-06
2.91109e-07 -2.50867e-06 -8.68778e-05
0.000800411 1.45113e-05 3.1922e-07
1.45113e-05 4.64251e-05 3.1593e-06
3.1922e-07 3.1593e-06 -2.6562e-05
0.000930318 -5.88198e-05 9.10959e-07
-5.88198e-05 0.000109433 4.20953e-07
9.10959e-07 4.20953e-07 1.03029e-05
0.000934686 -9.0861e-05 3.94722e-07
-9.0861e-05 0.000119519 6.50176e-07
3.94722e-07 6.50176e-07 5.2182e-06
0.000607053 5.51375e-05 -1.55955e-06
5.51375e-05 -4.80717e-05 4.16796e-06
-1.55955e-06 4.16796e-06 -7.08826e-05
0.000729806 2.93775e-05 -7.09353e-07
2.93775e-05 8.34017e-06 -3.61478e-07
-7.09353e-07 -3.61478e-07 -5.11454e-05
0.000886679 -2.11214e-05 1.46348e-08
-2.11214e-05 9.83348e-05 -1.63823e-06
1.46348e-08 -1.63823e-06 8.37762e-06
0.00217599 7.68223e-05 -9.63651e-06
7.68223e-05 0.000808622 1.26629e-06
-9.63651e-06 1.26629e-06 0.000816979
0.000684257 5.03e-05 4.2383e-08
5.03e-05 -1.48454e-05 -6.87293e-08
4.2383e-08 -6.87293e-08 -3.19885e-05
0.000720357 4.32867e-05 1.02384e-06
4.32867e-05 -4.73282e-07 -2.22882e-06
1.02384e-06 -2.22882e-06 -4.83513e-05
0.00212097 6.20099e-05 1.10978e-06
6.20099e-05 0.000768141 8.54999e-08
1.10978e-06 8.54999e-08 0.000780851
0.000728967 4.64141e-05 1.56329e-06
4.64141e-05 -9.85978e-07 -3.41919e-06
1.56329e-06 -3.41919e-06 -1.37156e-05
0.00210798 5.57449e-05 2.49242e-05
5.57449e-05 0.000753858 -3.21134e-06
2.49242e-05 -3.21134e-06 0.000768398
0.000924742 2.96749e-05 -3.6769e-07
2.96749e-05 0.000108329 -1.54957e-07
-3.6769e-07 -1.54957e-07 2.90789e-05
0.000813588 -9.79978e-06 1.0951e-07
-9.79978e-06 3.98268e-05 -2.86006e-07
1.0951e-07 -2.86006e-07 -3.38595e-05
0.000812308 -1.36277e-06 -3.91636e-07
-1.36277e-06 3.97942e-05 -1.6585e-06
-3.91636e-07 -1.6585e-06 -2.83218e-05
0.00074342 -4.98662e-05 -4.89409e-07
-4.98662e-05 -1.36546e-06 -2.24617e-06
-4.89409e-07 -2.24617e-06 -4.3266e-05
0.000801066 -1.53249e-05 7.90554e-07
-1.53249e-05 2.97517e-05 -8.80573e-08
7.90554e-07 -8.80573e-08 -3.31467e-05
0.000786631 -4.1228e-06 5.67551e-07
-4.1228e-06 2.783e-05 8.52173e-07
5.67551e-07 8.52173e-07 -4.43581e-05
0.000702943 -3.84387e-05 -1.45548e-06
-3.84387e-05 -2.58861e-05 -3.63787e-06
-1.45548e-06 -3.63787e-06 -3.74757e-05
0.000760397 -3.41987e-05 -2.02504e-07
-3.41987e-05 7.31677e-07 2.56072e-08
-2.02504e-07 2.56072e-08 -3.8116e-05
0.000809707 -1.21734e-05 1.22163e-06
-1.21734e-05 3.12047e-05 9.11213e-07
1.22163e-06 9.11213e-07 -2.81609e-05
0.00222869 -4.91302e-05 -2.35012e-05
-4.91302e-05 0.000809681 -3.67758e-06
-2.35012e-05 -3.67758e-06 0.000825335
0.00069695 -3.3317e-05 -1.88557e-07
-3.3317e-05 -3.54575e-05 1.86523e-08
-1.88557e-07 1.86523e-08 -4.51813e-05
0.000776723 -2.38781e-05 8.81801e-07
-2.38781e-05 5.71709e-06 1.62232e-06
8.81801e-07 1.62232e-06 -3.13542e-05
0.00219231 -4.14651e-05 -2.13766e-06
-4.14651e-05 0.000782889 9.93298e-08
-2.13766e-06 9.93298e-08 0.000800295
0.000701657 -2.82439e-05 4.28064e-07
-2.82439e-05 -3.9012e-05 3.41514e-06
4.28064e-07 3.41514e-06 -4.66858e-05
0.00213942 -3.2975e-05 1.46217e-05
-3.2975e-05 0.000747785 4.03772e-06
1.46217e-05 4.03772e-06 0.000766983
-0.00197188 -0.000131232 3.88296e-05
-0.000131232 -0.000491739 1.57461e-05
3.88296e-05 1.57461e-05 -0.000955908
0.00179858 -4.33241e-05 1.99328e-06
-4.33241e-05 0.000283539 5.93699e-06
1.99328e-06 5.93699e-06 6.85716e-05
0.00110846 -1.04491e-05 -6.59603e-06
-1.04491e-05 2.93721e-05 -5.0016e-06
-6.59603e-06 -5.0016e-06 -6.93698e-05
0.000889851 7.55195e-06 -8.96369e-07
7.55195e-06 9.47677e-05 7.19451e-07
-8.96369e-07 7.19451e-07 1.12662e-05
0.00104839 0.000106638 1.5365e-07
0.000106638 0.000194094 1.0801e-06
1.5365e-07 1.0801e-06 9.44722e-05
0.000877222 3.03494e-05 -4.21601e-07
3.03494e-05 9.6331e-05 1.91839e-07
-4.21601e-07 1.91839e-07 6.01321e-06
0.000978273 -4.38906e-05 4.31712e-07
-4.38906e-05 0.000131663 -2.9179e-07
4.31712e-07 -2.9179e-07 5.9803e-05
0.000925786 1.80574e-05 6.48624e-07
1.80574e-05 0.000102757 5.87116e-07
6.48624e-07 5.87116e-07 2.61532e-05
0.000739205 -2.80108e-05 -8.32268e-07
-2.80108e-05 8.57858e-06 1.68049e-06
-8.32268e-07 1.68049e-06 -6.94196e-05
0.000759247 1.37758e-06 -6.39201e-07
1.37758e-06 2.68877e-05 3.20627e-08
-6.39201e-07 3.20627e-08 -5.54604e-05
0.000806405 5.99276e-06 1.98608e-07
5.99276e-06 4.88034e-05 -8.96682e-08
1.98608e-07 -8.96682e-08 -3.61502e-05
0.00101607 5.12437e-05 1.2136e-06
5.12437e-05 0.000185222 -1.86203e-06
1.2136e-06 -1.86203e-06 8.57753e-05
0.000840568 5.51485e-05 3.6318e-06
5.51485e-05 5.65376e-05 -2.9227e-06
3.6318e-06 -2.9227e-06 -2.42409e-05
0.000873309 2.78033e-05 -1.54397e-07
2.78033e-05 8.69037e-05 -8.57312e-07
-1.54397e-07 -8.57312e-07 8.34287e-06
0.00103724 3.10684e-05 7.06239e-07
3.10684e-05 0.000189295 6.81816e-07
7.06239e-07 6.81816e-07 0.000111472
-0.00209654 -0.000326432 -2.09384e-05
-0.000326432 -0.000969364 1.82171e-05
-2.09384e-05 1.82171e-05 -0.00105481
-0.000315819 -0.000321555 2.26956e-05
-0.000321555 -9.45013e-05 8.22595e-06
2.26956e-05 8.22595e-06 -0.000108251
0.0021409 -4.57831e-05 -4.26437e-05
-4.57831e-05 0.000401843 -3.29437e-05
-4.26437e-05 -3.29437e-05 -2.78249e-05
-0.00310709 -0.00060033 1.82585e-05
-0.00060033 -0.00256287 3.82408e-05
1.82585e-05 3.82408e-05 -0.00116651
0.00518205 -0.000637443 -1.47476e-05
-0.000637443 0.00146787 -2.24162e-05
-1.47476e-05 -2.24162e-05 0.00157521
0.00342574 0.000239859 5.03691e-05
0.000239859 0.000849191 7.40838e-07
5.03691e-05 7.40838e-07 -0.00104643
0.00298572 -0.000253128 -0.000125685
-0.000253128 0.000382438 8.23488e-05
-0.000125685 8.23488e-05 -0.000176403
0.00318826 0.000110747 -2.92352e-05
0.000110747 0.000371337 1.15142e-06
-2.92352e-05 1.15142e-06 0.000126107
0.00377257 -0.000676148 -1.38412e-05
-0.000676148 0.00148415 1.81389e-05
-1.38412e-05 1.81389e-05 0.00161878
0.00170422 4.70376e-05 1.0981e-05
4.70376e-05 5.78174e-05 2.18206e-05
1.0981e-05 2.18206e-05 -0.00162429
0.00209189 0.000323857 -0.000107321
0.000323857 0.000319817 -8.44322e-05
-0.000107321 -8.44322e-05 -0.000393141
0.00206378 0.000317326 -0.000133959
0.000317326 0.000307775 -4.78045e-05
-0.000133959 -4.78045e-05 -0.00135622
0.00228625 0.000299669 1.21891e-05
0.000299669 0.000652091 -1.06108e-05
1.21891e-05 -1.06108e-05 0.000518864
0.000806934 0.00012086 -1.94263e-06
0.00012086 6.26509e-05 1.44902e-07
-1.94263e-06 1.44902e-07 5.25121e-06
0.00116033 1.89146e-05 -1.03003e-06
1.89146e-05 0.000245796 -2.31634e-06
-1.03003e-06 -2.31634e-06 0.000187371
0.000385642 0.000116846 -3.15466e-05
0.000116846 1.90617e-05 -1.44457e-05
-3.15466e-05 -1.44457e-05 -0.000209863
0.0015414 0.000104525 -4.60353e-06
0.000104525 0.00053071 -6.14063e-06
-4.60353e-06 -6.14063e-06 0.000443233
0.0012123 0.000221752 1.20666e-05
0.000221752 0.000208651 -4.11289e-07
1.20666e-05 -4.11289e-07 8.59151e-05
0.00144576 0.000296909 5.00749e-05
0.000296909 -9.02243e-05 2.8905e-05
5.00749e-05 2.8905e-05 -0.000133296
-0.00372824 -3.93856e-05 -6.03951e-05
-3.93856e-05 -0.00180382 -7.09429e-06
-6.03951e-05 -7.09429e-06 -0.00154899
-0.000492426 -1.44663e-05 1.95121e-05
-1.44663e-05 0.000444625 4.38422e-07
1.95121e-05 4.38422e-07 4.26811e-05
0.00142352 -1.59112e-05 -3.66219e-05
-1.59112e-05 0.00014122 3.1739e-06
-3.66219e-05 3.1739e-06 -8.04415e-06
0.00142078 -0.000179391 -3.46651e-05
-0.000179391 3.78361e-05 -1.59831e-05
-3.46651e-05 -1.59831e-05 0.000258594
0.00378288 -0.000573049 -6.37232e-05
-0.000573049 0.000688004 -4.57808e-06
-6.37232e-05 -4.57808e-06 -2.89489e-05
0.00114128 0.000126923 -4.4911e-05
0.000126923 0.00116165 1.53697e-05
-4.4911e-05 1.53697e-05 0.00100787
-0.0009153 3.95317e-05 4.12801e-05
3.95317e-05 -0.000872037 -4.90197e-05
4.12801e-05 -4.90197e-05 -0.00271548
0.00949827 0.000518764 -8.69023e-05
0.000518764 0.00469148 1.07678e-05
-8.69023e-05 1.07678e-05 0.00466749
0.00144225 -0.000266267 7.30501e-06
-0.000266267 6.57233e-05 1.12332e-06
7.30501e-06 1.12332e-06 5.35298e-05
-0.000416927 0.000242124 -4.75725e-06
0.000242124 -3.19853e-05 -3.76624e-06
-4.75725e-06 -3.76624e-06 -0.000130515
0.00249001 0.000181677 -1.48419e-05
0.000181677 0.000356821 1.6632e-05
-1.48419e-05 1.6632e-05 -0.00122262
0.00466154 -0.000379365 -1.16034e-05
-0.000379365 0.00110266 7.45875e-06
-1.16034e-05 7.45875e-06 0.000351965
-0.00018185 -0.000125448 3.35299e-07
-0.000125448 -0.000568877 -2.96306e-06
3.35299e-07 -2.96306e-06 -0.000738569
0.0078715 -3.52628e-05 5.12147e-05
-3.52628e-05 0.00265148 -1.68857e-06
5.12147e-05 -1.68857e-06 0.00172023
0.00336187 -4.23967e-05 5.64771e-06
-4.23967e-05 0.000467371 -1.0562e-05
5.64771e-06 -1.0562e-05 2.26563e-05
-1.72256e-05 -0.000103601 -1.2581e-05
-0.000103601 -0.000565861 1.45387e-06
-1.2581e-05 1.45387e-06 -0.00053016
0.0012239 -0.0001801 -7.51324e-07
-0.0001801 -0.000224691 -4.74953e-07
-7.51324e-07 -4.74953e-07 -0.000179591
0.00183979 -0.000226896 4.19056e-06
-0.000226896 -5.74676e-05 -8.80993e-06
4.19056e-06 -8.80993e-06 -1.749e-05
0.00157786 -0.000231446 -4.75224e-06
-0.000231446 0.000163796 -3.83718e-06
-4.75224e-06 -3.83718e-06 1.18974e-05
0.00162843 -0.000237487 -2.89811e-07
-0.000237487 6.09435e-06 1.56084e-06
-2.89811e-07 1.56084e-06 -8.47654e-05
0.00199175 -0.000213388 -5.4209e-06
-0.000213388 0.000107134 4.37142e-07
-5.4209e-06 4.37142e-07 4.85102e-05
0.00123343 -0.000196827 1.44532e-06
-0.000196827 -1.96048e-05 1.69379e-06
1.44532e-06 1.69379e-06 -0.000167013
0.00168037 -0.000191505 -1.86844e-06
-0.000191505 6.15642e-05 -1.88147e-07
-1.86844e-06 -1.88147e-07 -4.53859e-05
0.00185829 -0.000161107 -1.97102e-06
-0.000161107 9.14052e-05 -1.13448e-06
-1.97102e-06 -1.13448e-06 8.25046e-06
0.00196052 -0.000203744 9.00533e-07
-0.000203744 0.000300628 2.24098e-06
9.00533e-07 2.24098e-06 0.000156382
0.00166788 -0.000161026 5.01639e-07
-0.000161026 7.64846e-05 1.05513e-06
5.01639e-07 1.05513e-06 -3.11943e-05
0.0016366 -0.000134444 -8.86415e-07
-0.000134444 4.87023e-05 2.31384e-07
-8.86415e-07 2.31384e-07 -4.34049e-05
0.00182326 -0.000134918 -4.14412e-07
-0.000134918 0.000199877 -3.02161e-07
-4.14412e-07 -3.02161e-07 0.000101558
0.00165202 -0.000146372 -1.87038e-06
-0.000146372 0.000124012 1.91905e-06
-1.87038e-06 1.91905e-06 1.93551e-05
0.00165898 -0.000150994 2.91938e-07
-0.000150994 0.000178325 -3.35195e-06
2.91938e-07 -3.35195e-06 6.12851e-05
0.00151961 -0.000161783 -3.16723e-06
-0.000161783 0.000196544 -8.91157e-07
-3.16723e-06 -8.91157e-07 5.42437e-05
0.00168629 -0.000173638 1.39168e-06
-0.000173638 0.000245527 -1.47943e-07
1.39168e-06 -1.47943e-07 0.000100756
0.00131612 -0.000154122 3.12033e-06
-0.000154122 -9.42399e-06 4.51453e-06
3.12033e-06 4.51453e-06 -0.000139898
0.000804911 -0.000125007 -3.27519e-06
-0.000125007 -6.98802e-05 2.82652e-06
-3.27519e-06 2.82652e-06 -0.000207681
0.00114981 -0.000148409 3.52472e-07
-0.000148409 8.64581e-05 -1.35454e-07
3.52472e-07 -1.35454e-07 -6.53004e-05
0.00145144 -0.000169818 4.31997e-06
-0.000169818 0.00021363 -1.83465e-06
4.31997e-06 -1.83465e-06 5.03641e-05
0.00095125 -0.000112655 -1.57822e-06
-0.000112655 7.73893e-05 7.27905e-07
-1.57822e-06 7.27905e-07 -3.35114e-05
0.00109944 -0.000133929 1.56697e-07
-0.000133929 0.000143277 -2.77749e-07
1.56697e-07 -2.77749e-07 1.49675e-05
0.000694049 -0.000118427 1.26096e-06
-0.000118427 -8.8695e-05 -3.78017e-06
1.26096e-06 -3.78017e-06 -0.000234455
0.000784744 -3.79527e-05 -2.52673e-06
-3.79527e-05 2.78223e-05 2.61942e-06
-2.52673e-06 2.61942e-06 -5.34063e-05
0.00102168 -0.000109357 5.59099e-08
-0.000109357 0.000135237 -7.70984e-08
5.59099e-08 -7.70984e-08 3.03746e-05
0.00113423 -0.000129549 9.78757e-07
-0.000129549 0.000190619 -8.26214e-07
9.78757e-07 -8.26214e-07 7.06424e-05
0.000554724 6.73289e-05 1.85708e-07
6.73289e-05 -6.91177e-05 5.27647e-06
1.85708e-07 5.27647e-06 -0.000101448
0.000771774 -3.75574e-06 -1.17487e-08
-3.75574e-06 3.13816e-05 7.10637e-08
-1.17487e-08 7.10637e-08 -4.30773e-05
0.00100412 -6.50264e-05 1.46989e-06
-6.50264e-05 0.000148974 -4.73855e-07
1.46989e-06 -4.73855e-07 4.89028e-05
0.00237974 7.91074e-05 -3.45141e-05
7.91074e-05 0.000924574 2.73077e-06
-3.45141e-05 2.73077e-06 0.00093157
0.000646157 6.00633e-05 -1.4097e-07
6.00633e-05 -2.54713e-05 -1.79608e-07
-1.4097e-07 -1.79608e-07 -4.95312e-05
0.000716083 -3.06199e-06 2.18933e-06
-3.06199e-06 -1.65395e-06 -2.88491e-06
2.18933e-06 -2.88491e-06 -6.03976e-05
0.00157665 5.99845e-05 1.35852e-05
5.99845e-05 0.000478735 -6.10758e-07
1.35852e-05 -6.10758e-07 0.00048496
0.000717805 5.35208e-05 1.08776e-06
5.35208e-05 3.52607e-06 -3.90319e-06
1.08776e-06 -3.90319e-06 -1.41364e-05
0.0021805 6.3065e-05 2.91242e-05
6.3065e-05 0.000802086 -3.02088e-06
2.91242e-05 -3.02088e-06 0.000814225
0.000905277 4.60555e-05 3.64981e-07
4.60555e-05 0.000100308 6.08346e-07
3.64981e-07 6.08346e-07 1.25762e-05
0.000893956 -3.1147e-06 -2.5163e-07
-3.1147e-06 8.84451e-05 5.06038e-07
-2.5163e-07 5.06038e-07 1.16242e-05
0.000831235 -3.09676e-05 9.51877e-08
-3.09676e-05 5.52347e-05 -1.38651e-06
9.51877e-08 -1.38651e-06 -1.73431e-05
0.000878083 2.67039e-06 2.04782e-07
2.67039e-06 7.52063e-05 6.43168e-07
2.04782e-07 6.43168e-07 2.33402e-07
0.000810222 -3.19664e-05 3.87596e-07
-3.19664e-05 3.54234e-05 -8.81204e-08
3.87596e-07 -8.81204e-08 -3.04227e-05
0.00071259 -4.89678e-05 -5.93163e-07
-4.89678e-05 -1.15946e-05 -2.41e-06
-5.93163e-07 -2.41e-06 -5.6619e-05
0.000703601 -4.31325e-05 -1.91323e-06
-4.31325e-05 -1.87847e-05 -3.72853e-06
-1.91323e-06 -3.72853e-06 -3.21583e-05
0.000744207 -4.43518e-05 2.5937e-08
-4.43518e-05 -1.86106e-06 -2.56751e-08
2.5937e-08 -2.56751e-08 -4.30897e-05
0.000802034 -5.54771e-05 -1.68327e-07
-5.54771e-05 2.76499e-05 1.37604e-06
-1.68327e-07 1.37604e-06 -3.28811e-05
0.00223675 -5.6026e-05 -2.70472e-05
-5.6026e-05 0.000821066 -3.4382e-06
-2.70472e-05 -3.4382e-06 0.00083514
0.00068757 -3.75489e-05 -2.38189e-07
-3.75489e-05 -3.41503e-05 3.67983e-08
-2.38189e-07 3.67983e-08 -4.56532e-05
0.000763835 -2.55756e-05 1.57487e-06
-2.55756e-05 1.78793e-06 1.84451e-06
1.57487e-06 1.84451e-06 -3.6449e-05
0.00222619 -4.89848e-05 -1.7536e-06
-4.89848e-05 0.000807635 1.113e-07
-1.7536e-06 1.113e-07 0.000823388
0.000689549 -3.26973e-05 7.94038e-07
-3.26973e-05 -3.92706e-05 3.56225e-06
7.94038e-07 3.56225e-06 -4.89676e-05
0.00217843 -4.10992e-05 1.79228e-05
-4.10992e-05 0.000774671 3.90359e-06
1.79228e-05 3.90359e-06 0.00079225
0.00122897 0.000126349 7.6623e-05
0.000126349 0.000930006 3.02612e-05
7.6623e-05 3.02612e-05 0.000496716
-0.000295011 -0.000161459 3.11233e-06
-0.000161459 0.000277177 5.19661e-06
3.11233e-06 5.19661e-06 -7.59287e-05
0.00177368 -4.91247e-05 -3.88783e-05
-4.91247e-05 0.000284296 -1.07142e-05
-3.88783e-05 -1.07142e-05 7.11226e-05
0.00087779 -1.73828e-05 1.88071e-08
-1.73828e-05 8.61975e-05 8.16437e-07
1.88071e-08 8.16437e-07 4.22162e-06
0.000857857 4.26932e-06 -4.86649e-08
4.26932e-06 8.28445e-05 6.82691e-07
-4.86649e-08 6.82691e-07 -6.64739e-06
0.000923001 9.50958e-05 -2.41742e-08
9.50958e-05 0.000130365 2.67011e-07
-2.41742e-08 2.67011e-07 3.19618e-05
0.00110267 0.000126222 9.04603e-07
0.000126222 0.000215765 5.58452e-07
9.04603e-07 5.58452e-07 0.000105332
0.000911914 7.92667e-05 -1.10786e-06
7.92667e-05 0.000131623 -2.3158e-07
-1.10786e-06 -2.3158e-07 2.77401e-05
0.000817025 2.59913e-05 4.74709e-07
2.59913e-05 5.74805e-05 1.20846e-06
4.74709e-07 1.20846e-06 -2.55752e-05
0.000758333 8.9296e-06 2.65372e-07
8.9296e-06 2.23408e-05 1.23124e-06
2.65372e-07 1.23124e-06 -6.22698e-05
0.000732303 5.22228e-05 -9.56733e-07
5.22228e-05 3.18723e-05 -9.60147e-07
-9.56733e-07 -9.60147e-07 -6.49617e-05
0.000245344 7.42423e-05 -1.84988e-07
7.42423e-05 -0.00021546 6.38646e-07
-1.84988e-07 6.38646e-07 -0.000327466
0.000870206 0.0001055 1.07111e-06
0.0001055 6.7772e-05 -3.03009e-06
1.07111e-06 -3.03009e-06 -3.15129e-05
0.00190822 0.000225858 5.19197e-06
0.000225858 0.000435777 -7.55976e-06
5.19197e-06 -7.55976e-06 0.000310922
0.00080204 5.685e-05 -1.28499e-06
5.685e-05 5.42346e-05 -3.6425e-07
-1.28499e-06 -3.6425e-07 -2.73318e-05
0.000759204 1.36619e-06 -4.57924e-07
1.36619e-06 3.29976e-05 -7.78483e-07
-4.57924e-07 -7.78483e-07 -4.04407e-05
0.00903849 -4.08698e-05 -4.08469e-05
-4.08698e-05 0.00284882 -9.26603e-06
-4.08469e-05 -9.26603e-06 0.00164869
-0.00215667 -0.000273065 -3.83997e-05
-0.000273065 -0.000727989 -4.95677e-06
-3.83997e-05 -4.95677e-06 -0.00108474
0.00105639 -0.000337806 -3.0199e-05
-0.000337806 0.000576905 -2.44219e-05
-3.0199e-05 -2.44219e-05 0.000524046
-0.00278469 -0.00036971 -6.50239e-06
-0.00036971 -0.00156126 1.17091e-05
-6.50239e-06 1.17091e-05 -0.00136918
0.00965078 -0.00041246 7.47041e-05
-0.00041246 0.00382369 1.00734e-05
7.47041e-05 1.00734e-05 0.00176309
0.00331283 0.000123299 -1.10334e-06
0.000123299 0.000531274 1.60941e-05
-1.10334e-06 1.60941e-05 0.000470804
0.00146643 0.000309074 -4.16119e-05
0.000309074 -0.000137336 -2.15483e-05
-4.16119e-05 -2.15483e-05 -0.000705489
0.00701911 -0.000308477 4.93534e-05
-0.000308477 0.00222962 1.77206e-05
4.93534e-05 1.77206e-05 0.000887388
0.0030797 0.000339304 4.48045e-06
0.000339304 0.000207526 -3.49e-05
4.48045e-06 -3.49e-05 -0.000306036
0.0021198 0.000345971 9.64998e-06
0.000345971 0.000351803 1.23392e-05
9.64998e-06 1.23392e-05 0.000195618
0.000874549 0.000201905 1.71503e-06
0.000201905 9.61182e-06 -5.28204e-06
1.71503e-06 -5.28204e-06 -0.000133639
0.000927925 0.000110906 -6.49254e-06
0.000110906 0.000123815 3.69454e-06
-6.49254e-06 3.69454e-06 6.99468e-05
0.00154535 0.000252028 -3.35429e-05
0.000252028 0.000325309 -1.63796e-05
-3.35429e-05 -1.63796e-05 0.000214531
0.000810455 0.000278154 -1.75905e-05
0.000278154 -0.000370769 1.43947e-05
-1.75905e-05 1.43947e-05 -0.000432911
0.000531668 -0.000109704 -3.00337e-06
-0.000109704 -0.00128646 -3.38161e-06
-3.00337e-06 -3.38161e-06 -0.00172375
0.0019266 -3.31778e-05 -3.22068e-06
-3.31778e-05 0.00108935 -1.88204e-06
-3.22068e-06 -1.88204e-06 0.00104101
-0.00125913 -1.54122e-05 -9.86426e-06
-1.54122e-05 0.000188928 -9.27574e-10
-9.86426e-06 -9.27574e-10 -0.000269977
0.00257114 -0.000344587 -4.82349e-05
-0.000344587 0.000559243 4.47768e-06
-4.82349e-05 4.47768e-06 0.000497486
0.00403675 -0.000375223 -1.15607e-05
-0.000375223 0.000812023 -1.67458e-05
-1.15607e-05 -1.67458e-05 -0.000220122
-0.000194619 -7.25563e-05 -2.82398e-05
-7.25563e-05 0.000212678 2.02048e-05
-2.82398e-05 2.02048e-05 -7.23524e-05
0.00871751 0.000369051 -3.70325e-05
0.000369051 0.00351645 2.65388e-05
-3.70325e-05 2.65388e-05 0.00206129
0.000509007 -0.000168706 4.22098e-07
-0.000168706 -0.000275638 -1.40481e-07
4.22098e-07 -1.40481e-07 -0.000397302
0.00585372 0.000159305 1.91942e-05
0.000159305 0.00158483 1.44834e-05
1.91942e-05 1.44834e-05 0.000760435
0.00374376 -0.000101935 3.9874e-05
-0.000101935 0.000410592 -1.84543e-06
3.9874e-05 -1.84543e-06 -0.000248873
0.00332705 -0.000200455 -6.01682e-06
-0.000200455 0.00117194 2.71663e-06
-6.01682e-06 2.71663e-06 0.000976095
0.00276897 -3.0526e-05 -7.59328e-05
-3.0526e-05 0.00054241 -5.5501e-06
-7.59328e-05 -5.5501e-06 0.000238126
0.000547686 -0.000160434 -6.12182e-06
-0.000160434 -0.000576626 1.59807e-06
-6.12182e-06 1.59807e-06 -0.000525577
0.00160493 -0.000227987 -2.98724e-07
-0.000227987 -0.000152598 6.97411e-07
-2.98724e-07 6.97411e-07 -0.000139166
0.00181084 -0.000149744 -1.86205e-06
-0.000149744 -8.10418e-05 -2.21982e-06
-1.86205e-06 -2.21982e-06 -9.23909e-05
0.00140616 -0.000226189 5.58774e-06
-0.000226189 -0.000107329 1.43604e-06
5.58774e-06 1.43604e-06 -0.00019453
0.00179515 -0.000197664 -1.4468e-07
-0.000197664 3.24711e-05 -3.40287e-07
-1.4468e-07 -3.40287e-07 -2.74402e-05
0.00191311 -0.000126837 -3.15077e-06
-0.000126837 4.20693e-05 4.87174e-07
-3.15077e-06 4.87174e-07 -8.2349e-06
0.00155626 -0.000186075 -1.2288e-06
-0.000186075 -5.09754e-06 2.67615e-06
-1.2288e-06 2.67615e-06 -0.000112434
0.00180967 -0.000157752 1.46218e-07
-0.000157752 6.62736e-05 1.10075e-06
1.46218e-07 1.10075e-06 -1.70385e-05
0.00178305 -0.000121414 7.21959e-07
-0.000121414 7.7797e-05 2.49474e-07
7.21959e-07 2.49474e-07 -2.36185e-06
0.00185005 -0.00016794 3.42614e-06
-0.00016794 0.000170486 3.92405e-06
3.42614e-06 3.92405e-06 6.21739e-05
0.00169302 -0.000136833 -2.60683e-07
-0.000136833 8.15255e-05 6.53723e-07
-2.60683e-07 6.53723e-07 -1.18473e-05
0.00172622 -0.000118866 7.12156e-07
-0.000118866 0.000113875 1.09032e-06
7.12156e-07 1.09032e-06 1.93523e-05
0.00164407 -0.000130103 -2.12428e-06
-0.000130103 0.000107921 9.07881e-08
-2.12428e-06 9.07881e-08 1.17536e-05
0.00168563 -0.000131149 2.24193e-06
-0.000131149 0.000157597 -1.41481e-06
2.24193e-06 -1.41481e-06 5.07537e-05
0.00150333 -0.00013892 1.10829e-06
-0.00013892 4.8508e-05 3.54601e-06
1.10829e-06 3.54601e-06 -5.43236e-05
0.00162843 -0.000149154 4.315e-07
-0.000149154 0.000160206 -5.31776e-07
4.315e-07 -5.31776e-07 4.34338e-05
0.00157642 -0.000146298 -8.17772e-07
-0.000146298 0.000172251 -1.70214e-06
-8.17772e-07 -1.70214e-06 4.74151e-05
0.00103296 -0.000133809 -4.04124e-06
-0.000133809 -2.36874e-05 1.11634e-06
-4.04124e-06 1.11634e-06 -0.000159498
0.00149601 -0.000159562 1.90438e-07
-0.000159562 0.000184968 -4.84477e-07
1.90438e-07 -4.84477e-07 4.21016e-05
0.00167529 -0.000171832 3.51176e-06
-0.000171832 0.000241096 2.05428e-06
3.51176e-06 2.05428e-06 9.6387e-05
0.00104115 -0.000124226 -2.58242e-06
-0.000124226 8.91112e-05 1.72061e-06
-2.58242e-06 1.72061e-06 -3.02065e-05
0.000917408 -0.000129649 -9.28566e-07
-0.000129649 -6.79854e-06 1.06316e-06
-9.28566e-07 1.06316e-06 -0.000143574
0.00146247 -0.000162443 3.47685e-06
-0.000162443 0.000255393 -1.93173e-06
3.47685e-06 -1.93173e-06 0.000104667
0.000740026 -5.79033e-05 -3.02835e-06
-5.79033e-05 -1.18009e-05 1.97726e-06
-3.02835e-06 1.97726e-06 -9.67639e-05
0.00104596 -0.000118628 1.11643e-07
-0.000118628 0.000126332 -2.97264e-07
1.11643e-07 -2.97264e-07 1.47171e-05
0.00115979 -0.000136381 1.50305e-06
-0.000136381 0.00017369 -2.05472e-06
1.50305e-06 -2.05472e-06 4.51105e-05
0.00056181 4.26265e-05 -1.64748e-06
4.26265e-05 -7.19327e-05 5.90898e-06
-1.64748e-06 5.90898e-06 -0.000108691
0.000821788 -4.27876e-05 1.59563e-07
-4.27876e-05 4.64409e-05 2.83587e-07
1.59563e-07 2.83587e-07 -3.48372e-05
0.00107903 -0.000105698 1.77599e-06
-0.000105698 0.000163759 -4.82111e-07
1.77599e-06 -4.82111e-07 5.95712e-05
0.00266476 9.07479e-05 -4.05498e-05
9.07479e-05 0.00108308 2.68747e-06
-4.05498e-05 2.68747e-06 0.00108663
0.000612775 5.7169e-05 9.02899e-07
5.7169e-05 -4.01856e-05 -1.28641e-07
9.02899e-07 -1.28641e-07 -7.12213e-05
0.000761336 -3.5128e-05 2.39268e-06
-3.5128e-05 2.18984e-05 -2.68056e-06
2.39268e-06 -2.68056e-06 -5.12348e-05
0.00246771 7.99425e-05 9.93703e-07
7.99425e-05 0.000971814 1.21817e-07
9.93703e-07 1.21817e-07 0.000978465
0.00068756 6.33648e-05 -6.99634e-07
6.33648e-05 -1.96694e-06 -4.85193e-06
-6.99634e-07 -4.85193e-06 -2.70355e-05
0.00232853 7.10648e-05 3.486e-05
7.10648e-05 0.000890351 -2.87851e-06
3.486e-05 -2.87851e-06 0.00089977
0.00101889 0.00011409 5.32859e-07
0.00011409 0.000158154 5.18317e-08
5.32859e-07 5.18317e-08 5.39674e-05
0.000852211 7.56234e-05 3.25258e-07
7.56234e-05 7.57392e-05 9.67556e-08
3.25258e-07 9.67556e-08 -1.44316e-05
0.000771214 -2.27266e-05 -4.78589e-07
-2.27266e-05 2.73359e-05 -7.59126e-07
-4.78589e-07 -7.59126e-07 -5.53114e-05
0.000848341 -2.80733e-05 -3.83254e-07
-2.80733e-05 6.31545e-05 9.21169e-07
-3.83254e-07 9.21169e-07 -1.32802e-05
0.000798876 -4.45117e-05 1.7927e-07
-4.45117e-05 3.72361e-05 5.47387e-08
1.7927e-07 5.47387e-08 -3.54197e-05
0.000693021 -4.94534e-05 -6.31395e-07
-4.94534e-05 -1.65107e-05 -2.48599e-06
-6.31395e-07 -2.48599e-06 -6.84615e-05
0.00078855 -5.41389e-05 -1.56286e-07
-5.41389e-05 2.30046e-05 1.62028e-06
-1.56286e-07 1.62028e-06 -4.217e-05
0.000727285 -5.2618e-05 1.10553e-07
-5.2618e-05 -3.9002e-06 -1.3531e-07
1.10553e-07 -1.3531e-07 -4.91271e-05
0.000699234 -5.07431e-05 -1.67311e-06
-5.07431e-05 -1.19626e-05 -3.90735e-06
-1.67311e-06 -3.90735e-06 -2.82992e-05
0.00223472 -6.27178e-05 -3.00657e-05
-6.27178e-05 0.000827694 -3.15824e-06
-3.00657e-05 -3.15824e-06 0.000840065
0.000686692 -4.1993e-05 -5.50388e-08
-4.1993e-05 -2.76978e-05 2.24779e-08
-5.50388e-08 2.24779e-08 -4.0969e-05
0.000746351 -4.15468e-05 1.60818e-06
-4.15468e-05 -1.01434e-06 1.98886e-06
1.60818e-06 1.98886e-06 -4.19379e-05
0.00224022 -5.59316e-05 -1.55351e-06
-5.59316e-05 0.000822121 1.17666e-07
-1.55351e-06 1.17666e-07 0.000836263
0.000677541 -3.67449e-05 1.16024e-06
-3.67449e-05 -3.95159e-05 3.70221e-06
1.16024e-06 3.70221e-06 -5.09504e-05
0.00221829 -4.86978e-05 2.1851e-05
-4.86978e-05 0.00080269 3.74272e-06
2.1851e-05 3.74272e-06 0.000818571
0.00782304 0.000115243 7.33701e-05
0.000115243 0.00235676 2.23133e-05
7.33701e-05 2.23133e-05 0.0014619
-0.00241842 -0.00013543 -1.50785e-05
-0.00013543 -0.00123097 -2.02772e-06
-1.50785e-05 -2.02772e-06 -0.00120359
-0.00153476 -0.000101491 -4.34299e-05
-0.000101491 -0.000297349 -6.93423e-06
-4.34299e-05 -6.93423e-06 -0.000799401
0.000822899 -2.07901e-05 3.44799e-07
-2.07901e-05 6.176e-05 1.11856e-06
3.44799e-07 1.11856e-06 -2.71882e-05
0.000798512 9.5142e-05 -5.55488e-07
9.5142e-05 6.65363e-05 1.78499e-08
-5.55488e-07 1.78499e-08 -3.03551e-05
0.000990414 8.29655e-05 3.86669e-07
8.29655e-05 0.000173917 -1.33805e-07
3.86669e-07 -1.33805e-07 7.01318e-05
0.00100225 0.000120154 -9.97905e-07
0.000120154 0.000162977 1.20191e-07
-9.97905e-07 1.20191e-07 5.36012e-05
0.0011093 0.000130743 7.45105e-06
0.000130743 0.000209061 5.60038e-07
7.45105e-06 5.60038e-07 8.50407e-05
0.000673199 0.000100332 -6.67677e-07
0.000100332 6.90288e-06 3.27772e-07
-6.67677e-07 3.27772e-07 -0.000104926
0.000444456 5.03797e-05 -6.71782e-07
5.03797e-05 -0.000120686 6.25211e-08
-6.71782e-07 6.25211e-08 -0.000216903
0.000603728 9.73961e-05 4.6612e-07
9.73961e-05 -3.33358e-05 6.04199e-07
4.6612e-07 6.04199e-07 -0.000151069
0.000777675 8.71349e-05 -1.77674e-07
8.71349e-05 2.54917e-05 -1.87342e-07
-1.77674e-07 -1.87342e-07 -7.59919e-05
0.000164526 9.3277e-05 2.12149e-06
9.3277e-05 -0.000333402 -1.10285e-06
2.12149e-06 -1.10285e-06 -0.000454464
0.00328177 0.000279419 1.08218e-06
0.000279419 0.00113888 -2.0765e-06
1.08218e-06 -2.0765e-06 0.0010125
0.00128583 0.00022349 3.62561e-06
0.00022349 -5.20323e-05 -1.76551e-06
3.62561e-06 -1.76551e-06 -0.000193313
0.00140751 0.000198648 1.83913e-06
0.000198648 0.000189728 -1.44184e-06
1.83913e-06 -1.44184e-06 6.97022e-05
0.000840911 6.43777e-05 -4.43319e-06
6.43777e-05 8.77657e-05 2.02714e-06
-4.43319e-06 2.02714e-06 6.33809e-06
0.00271107 4.5393e-05 -1.26769e-05
4.5393e-05 -0.000104648 -4.23976e-06
-1.26769e-05 -4.23976e-06 -0.000392283
0.00578367 -3.56333e-05 1.52073e-05
-3.56333e-05 0.00155004 5.10092e-06
1.52073e-05 5.10092e-06 0.000394417
0.0050289 -0.000562213 -3.35136e-05
-0.000562213 0.00244328 -2.90087e-05
-3.35136e-05 -2.90087e-05 0.00242194
0.00743671 -9.5411e-05 0.000230298
-9.5411e-05 0.00246205 6.72356e-05
0.000230298 6.72356e-05 0.000835821
0.00267069 0.00034259 3.87307e-05
0.00034259 0.000350367 4.23701e-05
3.87307e-05 4.23701e-05 0.00016713
0.00222112 0.000245997 -5.93205e-05
0.000245997 3.13118e-05 -1.87402e-05
-5.93205e-05 -1.87402e-05 -0.000298525
0.002323 0.000299434 3.80995e-05
0.000299434 0.000270155 1.95328e-05
3.80995e-05 1.95328e-05 0.000265282
0.00204152 0.000336842 -1.52697e-06
0.000336842 0.000308492 5.53492e-06
-1.52697e-06 5.53492e-06 0.000174175
0.000273063 0.000156347 -2.18934e-06
0.000156347 -0.000278225 5.30602e-06
-2.18934e-06 5.30602e-06 -0.000415653
0.00217201 0.000366417 -7.3329e-05
0.000366417 0.00029383 -4.61701e-05
-7.3329e-05 -4.61701e-05 0.000221328
0.00324929 -0.000120441 -0.000145914
-0.000120441 0.000708801 7.95717e-07
-0.000145914 7.95717e-07 0.000306407
0.00786894 -2.56267e-05 1.57262e-05
-2.56267e-05 0.00263797 -1.3384e-06
1.57262e-05 -1.3384e-06 0.00199616
-0.00566521 -0.000107732 6.66311e-05
-0.000107732 -0.00293363 3.33934e-06
6.66311e-05 3.33934e-06 -0.00280359
0.00115245 -0.000188759 -1.31322e-06
-0.000188759 2.43155e-05 5.92703e-06
-1.31322e-06 5.92703e-06 -8.21586e-05
0.00514906 -0.000150588 8.09083e-05
-0.000150588 0.0011501 1.88585e-06
8.09083e-05 1.88585e-06 0.000537184
0.000254615 -0.000247317 7.08719e-05
-0.000247317 -0.00105259 2.75307e-05
7.08719e-05 2.75307e-05 -0.00180618
0.00127054 -0.000127681 5.12268e-06
-0.000127681 0.000121856 -1.34478e-06
5.12268e-06 -1.34478e-06 -5.58095e-06
0.00159863 3.98822e-05 -3.59896e-06
3.98822e-05 -0.000178387 1.78519e-06
-3.59896e-06 1.78519e-06 -0.000460773
0.00448624 -0.000117834 4.13154e-06
-0.000117834 0.00153044 -2.59185e-06
4.13154e-06 -2.59185e-06 0.00145638
0.00171808 2.12684e-05 3.05542e-05
2.12684e-05 2.35531e-05 -2.75038e-06
3.05542e-05 -2.75038e-06 -6.1834e-05
0.00143324 -0.000234768 -5.45557e-07
-0.000234768 -0.000212574 2.41007e-06
-5.45557e-07 2.41007e-06 -0.000227901
0.00195391 -0.000159071 -1.28717e-06
-0.000159071 -2.07222e-06 5.68576e-07
-1.28717e-06 5.68576e-07 -1.9529e-05
0.00198528 -5.50597e-05 2.21916e-06
-5.50597e-05 6.52683e-05 -1.34659e-06
2.21916e-06 -1.34659e-06 3.24188e-05
0.00156555 -0.000181738 5.36965e-06
-0.000181738 -6.32497e-05 -1.27034e-07
5.36965e-06 -1.27034e-07 -0.000123827
0.00189603 -0.000126938 1.79628e-06
-0.000126938 3.99183e-05 7.78349e-08
1.79628e-06 7.78349e-08 -1.32117e-05
0.00179371 -6.58332e-05 1.62913e-06
-6.58332e-05 5.91309e-05 7.17997e-07
1.62913e-06 7.17997e-07 -5.94732e-06
0.00173084 -0.000153098 4.28871e-06
-0.000153098 2.49948e-05 2.97417e-06
4.28871e-06 2.97417e-06 -5.83272e-05
0.00178604 -0.000118384 8.99155e-07
-0.000118384 8.8657e-05 2.96346e-07
8.99155e-07 2.96346e-07 7.88973e-06
0.00177995 -8.8002e-05 5.62616e-07
-8.8002e-05 0.000124525 2.49972e-07
5.62616e-07 2.49972e-07 3.49592e-05
0.00177577 -0.000139924 1.31928e-07
-0.000139924 0.000127201 1.63186e-06
1.31928e-07 1.63186e-06 3.26876e-05
0.00167272 -0.000119582 2.13362e-07
-0.000119582 8.99306e-05 7.07316e-08
2.13362e-07 7.07316e-08 -4.54452e-06
0.00156846 -0.000110423 2.79263e-06
-0.000110423 6.63604e-05 9.57246e-07
2.79263e-06 9.57246e-07 -3.77612e-05
0.00141894 -0.000123769 -1.74184e-06
-0.000123769 -7.95793e-06 -3.08648e-07
-1.74184e-06 -3.08648e-07 -0.000101879
0.00159675 -0.000127703 -1.13886e-06
-0.000127703 0.000107727 -8.17175e-07
-1.13886e-06 -8.17175e-07 2.79275e-06
0.00175655 -0.000133613 6.48081e-07
-0.000133613 0.000228105 -9.11856e-07
6.48081e-07 -9.11856e-07 0.000111074
0.00158262 -0.000146854 7.64273e-07
-0.000146854 0.00013392 2.43496e-06
7.64273e-07 2.43496e-06 1.74854e-05
0.0015663 -0.000145015 5.33557e-07
-0.000145015 0.000166102 -6.43284e-07
5.33557e-07 -6.43284e-07 4.10837e-05
0.00157218 -0.000143011 -2.314e-06
-0.000143011 0.000208216 -2.0917e-07
-2.314e-06 -2.0917e-07 8.28485e-05
0.000792919 -0.000113027 -5.05701e-06
-0.000113027 -0.000105122 2.0977e-06
-5.05701e-06 2.0977e-06 -0.00022689
0.00113162 -0.00013687 -7.18147e-07
-0.00013687 3.40112e-05 4.56072e-07
-7.18147e-07 4.56072e-07 -0.000101159
0.00147176 -0.000157306 3.2007e-06
-0.000157306 0.000173048 -1.64014e-07
3.2007e-06 -1.64014e-07 2.96202e-05
0.000834237 -8.33509e-05 -3.94511e-06
-8.33509e-05 1.61498e-05 2.53774e-06
-3.94511e-06 2.53774e-06 -7.5906e-05
0.00108229 -0.000125921 2.43834e-07
-0.000125921 0.000108977 1.11053e-07
2.43834e-07 1.11053e-07 -1.02411e-05
0.00104465 -0.000135066 1.05309e-06
-0.000135066 6.37512e-05 -5.98263e-07
1.05309e-06 -5.98263e-07 -7.20262e-05
0.000582845 2.01606e-05 -4.73157e-06
2.01606e-05 -6.42577e-05 6.00689e-06
-4.73157e-06 6.00689e-06 -0.000107225
0.00085962 -6.44054e-05 1.05416e-07
-6.44054e-05 5.28027e-05 -6.83191e-08
1.05416e-07 -6.83191e-08 -3.33735e-05
0.00113506 -0.000124197 2.31472e-06
-0.000124197 0.000172273 -1.50263e-06
2.31472e-06 -1.50263e-06 5.9989e-05
0.00298741 0.000102898 -4.90342e-05
0.000102898 0.00126017 2.70942e-06
-4.90342e-05 2.70942e-06 0.00125997
0.000622208 3.37197e-05 3.19115e-07
3.37197e-05 -4.1119e-05 -1.52238e-07
3.19115e-07 -1.52238e-07 -7.7852e-05
0.000857468 -4.79446e-05 3.47031e-06
-4.79446e-05 6.38444e-05 -2.20041e-06
3.47031e-06 -2.20041e-06 -1.7308e-05
0.00274095 9.00377e-05 1.25202e-06
9.00377e-05 0.00112329 1.41161e-07
1.25202e-06 1.41161e-07 0.00112669
0.000663613 5.1099e-05 2.06723e-06
5.1099e-05 -1.34668e-05 -5.24778e-06
2.06723e-06 -5.24778e-06 -4.44062e-05
0.0025473 7.95531e-05 4.19992e-05
7.95531e-05 0.00101429 -2.87411e-06
4.19992e-05 -2.87411e-06 0.00102084
0.00108385 0.00012488 -2.92073e-07
0.00012488 0.000181835 -2.0827e-06
-2.92073e-07 -2.0827e-06 6.50792e-05
0.00105833 0.000116532 3.14607e-07
0.000116532 0.000179606 1.86097e-07
3.14607e-07 1.86097e-07 7.57472e-05
0.000929992 5.63167e-05 -1.24318e-06
5.63167e-05 0.000106398 -7.49957e-07
-1.24318e-06 -7.49957e-07 1.36055e-05
0.000813093 9.55799e-05 4.34122e-08
9.55799e-05 5.91868e-05 2.26805e-08
4.34122e-08 2.26805e-08 -3.36999e-05
0.000764657 -5.12661e-06 -4.46798e-07
-5.12661e-06 2.46024e-05 -1.42868e-07
-4.46798e-07 -1.42868e-07 -5.97208e-05
0.000708607 1.38247e-06 -1.9829e-06
1.38247e-06 -5.39603e-06 -2.0706e-06
-1.9829e-06 -2.0706e-06 -6.8062e-05
0.000778902 -5.85303e-05 -1.34654e-07
-5.85303e-05 2.80063e-05 1.28998e-06
-1.34654e-07 1.28998e-06 -4.63818e-05
0.000713684 -4.72696e-05 2.14267e-07
-4.72696e-05 -5.13167e-06 -3.33314e-07
2.14267e-07 -3.33314e-07 -5.71597e-05
0.000679504 -6.15465e-05 -2.86368e-07
-6.15465e-05 -1.13974e-05 -4.45404e-06
-2.86368e-07 -4.45404e-06 -3.30926e-05
0.000737557 -5.51998e-05 8.17049e-07
-5.51998e-05 1.2259e-06 2.22999e-06
8.17049e-07 2.22999e-06 -4.40656e-05
0.000676278 -4.81489e-05 1.56016e-07
-4.81489e-05 -2.49625e-05 -2.2163e-08
1.56016e-07 -2.2163e-08 -4.08182e-05
0.00228387 -7.00038e-05 -3.35153e-05
-7.00038e-05 0.000862525 -2.84324e-06
-3.35153e-05 -2.84324e-06 0.000872779
0.00224425 -6.27076e-05 -9.46692e-07
-6.27076e-05 0.000831831 1.09557e-07
-9.46692e-07 1.09557e-07 0.000844276
0.000670106 -4.08871e-05 1.85885e-06
-4.08871e-05 -3.65201e-05 3.75495e-06
1.85885e-06 3.75495e-06 -4.96848e-05
0.00224495 -5.59268e-05 2.54267e-05
-5.59268e-05 0.000823957 3.55159e-06
2.54267e-05 3.55159e-06 0.000838138
0.00194336 -3.01394e-05 -5.83015e-05
-3.01394e-05 -8.53969e-05 6.95107e-06
-5.83015e-05 6.95107e-06 -0.000358316
0.00202679 -0.000142643 1.30825e-05
-0.000142643 -0.000437661 3.54498e-06
1.30825e-05 3.54498e-06 -0.00123268
0.00346731 -0.000340336 -4.81589e-05
-0.000340336 0.00148555 -1.62623e-05
-4.81589e-05 -1.62623e-05 0.00160252
0.00128142 0.000146545 7.2845e-06
0.000146545 0.000242079 1.32787e-06
7.2845e-06 1.32787e-06 0.000106789
0.0010927 8.57387e-05 2.71142e-07
8.57387e-05 0.000228644 1.92546e-08
2.71142e-07 1.92546e-08 0.000124933
0.000892815 0.000113472 -9.82454e-07
0.000113472 0.000105688 5.02383e-07
-9.82454e-07 5.02383e-07 -2.59883e-06
0.000866807 0.000112507 2.96696e-07
0.000112507 0.000109027 6.49203e-07
2.96696e-07 6.49203e-07 -5.08367e-06
0.00100827 0.000125685 -2.475e-07
0.000125685 0.000158279 -1.52499e-06
-2.475e-07 -1.52499e-06 3.3628e-05
0.000688703 0.000111644 -2.78884e-07
0.000111644 -3.30804e-05 -3.47425e-08
-2.78884e-07 -3.47425e-08 -0.000148541
0.000979551 0.000122289 -7.2093e-07
0.000122289 0.000159026 -5.53656e-07
-7.2093e-07 -5.53656e-07 3.51696e-05
0.000907417 8.03248e-05 -2.81591e-06
8.03248e-05 9.63877e-05 2.83495e-06
-2.81591e-06 2.83495e-06 -8.209e-06
0.000917977 0.00013542 2.63506e-07
0.00013542 5.81951e-05 -2.4442e-08
2.63506e-07 -2.4442e-08 -6.30955e-05
0.00248023 0.000237852 6.06484e-07
0.000237852 0.000739215 3.49147e-06
6.06484e-07 3.49147e-06 0.000614692
0.00173997 0.000221668 5.32194e-07
0.000221668 0.000197882 -2.18522e-06
5.32194e-07 -2.18522e-06 5.36451e-05
0.0017194 0.000202973 1.03539e-05
0.000202973 5.87746e-05 8.91896e-06
1.03539e-05 8.91896e-06 -6.92084e-05
0.00115317 0.000218517 -7.76367e-07
0.000218517 -0.000124873 -1.28397e-06
-7.76367e-07 -1.28397e-06 -0.00026945
0.00095633 0.000171316 -1.35903e-06
0.000171316 -3.77174e-05 5.98066e-06
-1.35903e-06 5.98066e-06 -0.000152438
0.000311449 0.000102822 3.61016e-07
0.000102822 -0.000422738 7.56883e-07
3.61016e-07 7.56883e-07 -0.000426987
0.00446867 9.87552e-05 -1.66498e-05
9.87552e-05 0.00059795 1.22129e-06
-1.66498e-05 1.22129e-06 0.000229377
0.000542721 -0.000105701 2.61008e-05
-0.000105701 -0.000982018 1.11054e-05
2.61008e-05 1.11054e-05 -0.00206999
0.00272569 0.00031881 6.05879e-05
0.00031881 0.000162587 1.85423e-05
6.05879e-05 1.85423e-05 -0.000326109
0.00144551 0.00023826 -1.44284e-05
0.00023826 -1.27584e-05 -1.21476e-06
-1.44284e-05 -1.21476e-06 -3.83197e-05
0.000607946 0.000245097 -2.25023e-05
0.000245097 -0.000335815 -1.49992e-05
-2.25023e-05 -1.49992e-05 -0.000474704
0.00247484 -9.48098e-05 1.41235e-05
-9.48098e-05 0.000391324 -1.17173e-06
1.41235e-05 -1.17173e-06 0.000287245
0.00122079 -5.07591e-06 -2.18494e-05
-5.07591e-06 -0.000163976 1.06377e-06
-2.18494e-05 1.06377e-06 -0.00050137
0.00018811 0.000221427 5.60032e-05
0.000221427 -0.001425 -1.68561e-05
5.60032e-05 -1.68561e-05 -0.00206487
-0.000647596 -7.8003e-05 1.44359e-06
-7.8003e-05 -0.000884844 8.49292e-06
1.44359e-06 8.49292e-06 -0.000931067
0.00302501 5.98035e-05 2.65908e-05
5.98035e-05 0.000395384 5.32427e-06
2.65908e-05 5.32427e-06 6.06486e-05
0.00171177 -6.80618e-05 5.57024e-07
-6.80618e-05 6.54081e-05 -1.02221e-06
5.57024e-07 -1.02221e-06 2.74646e-05
0.00202339 2.08146e-05 -7.33903e-08
2.08146e-05 0.000182269 -1.10134e-06
-7.33903e-08 -1.10134e-06 9.89249e-05
0.00145859 -6.53122e-06 8.87237e-06
-6.53122e-06 -0.000180943 -2.31384e-06
8.87237e-06 -2.31384e-06 -0.000242917
0.00253625 3.06238e-06 3.65053e-06
3.06238e-06 0.00046474 -1.51524e-06
3.65053e-06 -1.51524e-06 0.000393193
0.00192761 -0.000162765 -2.87903e-08
-0.000162765 -7.21853e-06 4.89362e-07
-2.87903e-08 4.89362e-07 -3.16301e-05
0.00191214 -6.06872e-05 3.04563e-06
-6.06872e-05 1.28888e-05 5.26018e-08
3.04563e-06 5.26018e-08 -2.46109e-05
0.00181248 -5.94246e-05 -1.78148e-07
-5.94246e-05 7.94823e-05 -2.33732e-07
-1.78148e-07 -2.33732e-07 1.59303e-05
0.00189535 -0.000128431 3.57082e-06
-0.000128431 4.66599e-05 8.68433e-07
3.57082e-06 8.68433e-07 -1.00447e-05
0.00182919 -7.75955e-05 5.22582e-07
-7.75955e-05 7.36528e-05 1.49979e-07
5.22582e-07 1.49979e-07 5.86332e-06
0.00176611 -7.00968e-05 2.10857e-06
-7.00968e-05 0.000116003 2.31964e-07
2.10857e-06 2.31964e-07 3.04845e-05
0.00180632 -0.000116631 -7.62299e-07
-0.000116631 0.00010852 9.42484e-07
-7.62299e-07 9.42484e-07 2.705e-05
0.00175469 -9.31126e-05 -1.14519e-06
-9.31126e-05 0.000112194 -1.12521e-07
-1.14519e-06 -1.12521e-07 2.19626e-05
0.00161655 -8.569e-05 5.91251e-07
-8.569e-05 7.64707e-05 3.6835e-07
5.91251e-07 3.6835e-07 -2.80904e-05
0.00164108 -0.000121051 -1.18171e-06
-0.000121051 7.75455e-05 -7.65021e-07
-1.18171e-06 -7.65021e-07 -1.69652e-05
0.00163353 -0.000112178 7.83202e-07
-0.000112178 9.97308e-05 2.19809e-07
7.83202e-07 2.19809e-07 -4.46743e-06
0.00158614 -0.00011308 6.9818e-07
-0.00011308 0.00010445 2.77781e-08
6.9818e-07 2.77781e-08 -8.52353e-06
0.00151895 -0.000124633 -3.64586e-06
-0.000124633 6.3651e-05 3.64255e-07
-3.64586e-06 3.64255e-07 -3.94109e-05
0.00158614 -0.000126879 -1.75036e-07
-0.000126879 0.000135544 -5.38738e-07
-1.75036e-07 -5.38738e-07 1.989e-05
0.00148126 -0.000122941 -2.09289e-06
-0.000122941 0.000118124 1.54483e-07
-2.09289e-06 1.54483e-07 -2.22507e-06
0.00155589 -0.000143725 2.04789e-06
-0.000143725 0.000159825 7.7312e-07
2.04789e-06 7.7312e-07 3.46238e-05
0.00137942 -0.000134915 5.73995e-07
-0.000134915 0.000104949 -4.13442e-07
5.73995e-07 -4.13442e-07 -2.07426e-05
0.00133209 -0.00012635 -4.86994e-06
-0.00012635 0.000128239 1.35507e-06
-4.86994e-06 1.35507e-06 1.01147e-05
0.00093933 -9.65346e-05 -5.43667e-06
-9.65346e-05 3.17325e-05 3.02899e-06
-5.43667e-06 3.02899e-06 -6.48352e-05
0.000928699 -0.000118525 -1.16041e-06
-0.000118525 -2.92268e-05 7.42301e-07
-1.16041e-06 7.42301e-07 -0.000150309
0.00121369 -0.000138958 2.36522e-06
-0.000138958 8.30843e-05 -1.70447e-07
2.36522e-06 -1.70447e-07 -5.13712e-05
0.000592971 -4.12086e-05 -7.59354e-06
-4.12086e-05 -6.18467e-05 6.81287e-06
-7.59354e-06 6.81287e-06 -0.000112615
0.000895768 -8.77752e-05 2.46743e-07
-8.77752e-05 4.89348e-05 -2.94314e-08
2.46743e-07 -2.94314e-08 -4.38652e-05
0.00112329 -0.000127754 3.07487e-06
-0.000127754 0.000128693 -1.49258e-06
3.07487e-06 -1.49258e-06 9.56174e-06
0.00324915 0.000114605 -5.79234e-05
0.000114605 0.00140901 2.74469e-06
-5.79234e-05 2.74469e-06 0.00140438
0.000654258 -1.02003e-05 -1.44841e-07
-1.02003e-05 -3.02721e-05 -1.48905e-07
-1.44841e-07 -1.48905e-07 -7.33645e-05
0.000942473 -7.1179e-05 4.11632e-06
-7.1179e-05 9.74646e-05 -2.44324e-06
4.11632e-06 -2.44324e-06 1.02933e-05
0.00303799 0.000100012 1.60112e-06
0.000100012 0.00128743 2.10829e-07
1.60112e-06 2.10829e-07 0.00128727
0.000676046 1.81329e-05 5.59296e-06
1.81329e-05 -1.39474e-05 -5.43941e-06
5.59296e-06 -5.43941e-06 -5.03966e-05
0.00282885 8.77679e-05 5.15916e-05
8.77679e-05 0.00116961 -3.06834e-06
5.15916e-05 -3.06834e-06 0.00117314
0.000879949 0.000121552 -7.6318e-07
0.000121552 3.41262e-05 -1.76991e-06
-7.6318e-07 -1.76991e-06 -9.43053e-05
0.00100415 0.000119781 -3.61962e-08
0.000119781 0.000139792 -9.57081e-07
-3.61962e-08 -9.57081e-07 2.38322e-05
0.00110584 0.000111837 -9.01079e-07
0.000111837 0.000188017 -9.03864e-07
-9.01079e-07 -9.03864e-07 8.51689e-05
0.00110358 0.00011943 -4.74045e-07
0.00011943 0.000203932 -2.4478e-07
-4.74045e-07 -2.4478e-07 0.000100369
0.000905513 5.85899e-05 -9.27658e-07
5.85899e-05 9.29135e-05 -5.08858e-07
-9.27658e-07 -5.08858e-07 1.01658e-06
0.00077636 2.06605e-05 -2.09453e-06
2.06605e-05 3.06466e-05 -1.73027e-06
-2.09453e-06 -1.73027e-06 -4.27656e-05
0.000758804 1.38915e-05 -5.78992e-08
1.38915e-05 2.13685e-05 1.17105e-07
-5.78992e-08 1.17105e-07 -6.39848e-05
0.000728866 -3.36637e-05 -4.24851e-07
-3.36637e-05 6.15205e-06 -3.05282e-08
-4.24851e-07 -3.05282e-08 -5.60304e-05
0.000641772 -7.16051e-05 5.55573e-07
-7.16051e-05 -2.09051e-05 -4.93948e-06
5.55573e-07 -4.93948e-06 -5.02748e-05
0.000734545 -5.72095e-05 5.62398e-07
-5.72095e-05 7.61416e-06 2.44876e-06
5.62398e-07 2.44876e-06 -4.51612e-05
0.000655375 -5.81408e-05 1.83231e-07
-5.81408e-05 -2.55717e-05 -1.1608e-07
1.83231e-07 -1.1608e-07 -4.63492e-05
0.00239992 -7.78101e-05 -3.84681e-05
-7.78101e-05 0.00093249 -2.60679e-06
-3.84681e-05 -2.60679e-06 0.000940297
0.000664311 -4.63354e-05 2.30265e-06
-4.63354e-05 -3.18971e-05 3.77601e-06
2.30265e-06 3.77601e-06 -4.73942e-05
0.00226426 -6.97882e-05 -5.2637e-07
-6.97882e-05 0.000850849 9.74837e-08
-5.2637e-07 9.74837e-08 0.000861288
0.00224838 -6.24923e-05 2.90544e-05
-6.24923e-05 0.000833185 3.29914e-06
2.90544e-05 3.29914e-06 0.000845727
0.000420779 3.00292e-06 4.49038e-06
3.00292e-06 -0.000462698 4.56098e-07
4.49038e-06 4.56098e-07 -0.000498062
0.00352704 -9.06391e-06 1.32504e-06
-9.06391e-06 0.000449411 1.08996e-05
1.32504e-06 1.08996e-05 6.95442e-05
0.00603673 0.000197793 -8.25445e-05
0.000197793 0.00177474 -1.85294e-05
-8.25445e-05 -1.85294e-05 0.000877173
0.000685119 0.00011126 2.54271e-06
0.00011126 -9.90869e-05 4.49108e-07
2.54271e-06 4.49108e-07 -0.000227261
0.0014243 0.000159799 2.7198e-06
0.000159799 0.000167722 -2.39089e-06
2.7198e-06 -2.39089e-06 2.49305e-05
0.000852372 0.000125021 -9.82476e-08
0.000125021 2.31818e-05 -8.37809e-07
-9.82476e-08 -8.37809e-07 -0.000110113
0.00103779 0.000123293 -1.15044e-06
0.000123293 0.00019847 -6.7159e-07
-1.15044e-06 -6.7159e-07 8.2337e-05
0.000936408 0.000122191 -9.60102e-07
0.000122191 0.000122396 -7.98392e-07
-9.60102e-07 -7.98392e-07 -2.98424e-06
0.000975634 0.00013116 3.37103e-06
0.00013116 0.000104134 1.18613e-06
3.37103e-06 1.18613e-06 -1.55483e-05
0.0019136 0.000209452 -4.13814e-06
0.000209452 0.000325187 -5.08508e-06
-4.13814e-06 -5.08508e-06 0.0001903
0.0015476 0.000170641 -3.28124e-08
0.000170641 0.000387702 1.61991e-06
-3.28124e-08 1.61991e-06 0.000266526
0.00095298 0.000159437 -2.90119e-06
0.000159437 -2.94538e-05 9.0927e-06
-2.90119e-06 9.0927e-06 -0.000149867
0.00169102 0.00021712 -1.50556e-06
0.00021712 0.00019072 5.22552e-07
-1.50556e-06 5.22552e-07 4.95332e-05
0.0020624 0.000216985 -5.79745e-06
0.000216985 0.000240929 1.23067e-06
-5.79745e-06 1.23067e-06 0.00010403
0.00136462 7.61732e-05 1.37909e-05
7.61732e-05 -0.000183653 3.69878e-06
1.37909e-05 3.69878e-06 -0.000266616
0.00181623 0.000200361 7.08323e-06
0.000200361 0.000112552 2.91323e-06
7.08323e-06 2.91323e-06 -1.51674e-05
0.00136559 0.000225754 -5.08477e-06
0.000225754 -2.34128e-05 -1.96072e-07
-5.08477e-06 -1.96072e-07 -0.000170428
0.000916942 9.34156e-05 -2.53673e-06
9.34156e-05 -0.000121451 6.14364e-08
-2.53673e-06 6.14364e-08 -0.000132747
0.00469223 -1.78371e-05 4.58558e-05
-1.78371e-05 0.000590959 1.37881e-05
4.58558e-05 1.37881e-05 0.000196852
0.00130697 0.000204918 3.10133e-06
0.000204918 4.53065e-05 -7.91574e-06
3.10133e-06 -7.91574e-06 1.12475e-05
0.0016288 -2.34294e-05 8.79014e-06
-2.34294e-05 5.67055e-05 -2.84595e-07
8.79014e-06 -2.84595e-07 -6.75913e-06
0.00202178 -5.05808e-05 -2.57225e-06
-5.05808e-05 0.000198681 1.48047e-07
-2.57225e-06 1.48047e-07 8.53321e-05
0.00129474 9.44583e-05 5.60555e-05
9.44583e-05 -0.000350049 -3.73555e-06
5.60555e-05 -3.73555e-06 -0.000750329
-0.000993734 -2.8502e-05 -1.1373e-05
-2.8502e-05 -0.00134618 6.12179e-06
-1.1373e-05 6.12179e-06 -0.0013505
0.00249438 1.73377e-05 -4.13132e-05
1.73377e-05 0.000429881 4.87102e-06
-4.13132e-05 4.87102e-06 0.000357589
0.00132276 -2.88199e-05 6.90373e-07
-2.88199e-05 -0.000276155 2.34534e-06
6.90373e-07 2.34534e-06 -0.000327927
0.00225018 -1.04123e-05 2.65747e-07
-1.04123e-05 0.00027471 3.40052e-07
2.65747e-07 3.40052e-07 0.000203177
0.00192681 -6.47961e-05 1.25769e-06
-6.47961e-05 9.11552e-05 6.60101e-07
1.25769e-06 6.60101e-07 2.28765e-05
0.00153862 -2.55131e-05 8.33606e-07
-2.55131e-05 -0.000116941 -5.78643e-07
8.33606e-07 -5.78643e-07 -0.000190983
0.00195398 -6.75394e-05 4.60659e-06
-6.75394e-05 2.0171e-05 1.46662e-06
4.60659e-06 1.46662e-06 -2.00835e-05
0.00180734 -5.93747e-05 -1.74865e-06
-5.93747e-05 7.36593e-05 -1.2236e-07
-1.74865e-06 -1.2236e-07 1.12427e-05
0.00179993 -6.37337e-05 2.00411e-06
-6.37337e-05 0.000103702 4.24457e-07
2.00411e-06 4.24457e-07 1.97223e-05
0.00186225 -8.69845e-05 -2.03282e-06
-8.69845e-05 8.81442e-05 -1.04283e-07
-2.03282e-06 -1.04283e-07 1.82463e-05
0.00174668 -6.95471e-05 -5.46187e-07
-6.95471e-05 0.000106575 -1.58172e-07
-5.46187e-07 -1.58172e-07 1.98267e-05
0.00167727 -6.22912e-05 8.25027e-07
-6.22912e-05 8.94834e-05 2.73765e-07
8.25027e-07 2.73765e-07 -1.23759e-05
0.00172991 -9.76999e-05 -4.20918e-06
-9.76999e-05 0.000100051 -1.06373e-07
-4.20918e-06 -1.06373e-07 9.21385e-06
0.00165503 -8.58647e-05 1.65421e-07
-8.58647e-05 9.63052e-05 2.48172e-08
1.65421e-07 2.48172e-08 -8.16407e-06
0.00162765 -8.90181e-05 -3.72531e-07
-8.90181e-05 0.000106462 -4.48256e-08
-3.72531e-07 -4.48256e-08 -4.78443e-06
0.001702 -0.000114026 -1.21807e-06
-0.000114026 0.000134843 -5.00756e-07
-1.21807e-06 -5.00756e-07 3.05713e-05
0.00158358 -0.000112218 2.42527e-07
-0.000112218 0.000102688 1.15591e-07
2.42527e-07 1.15591e-07 -1.02488e-05
0.00151259 -0.000111831 -1.8063e-06
-0.000111831 0.000103601 3.52614e-07
-1.8063e-06 3.52614e-07 -1.37298e-05
0.00141824 -0.000120294 -2.47233e-07
-0.000120294 4.4186e-05 1.59506e-07
-2.47233e-07 1.59506e-07 -7.00883e-05
0.00135084 -0.000118364 -1.65582e-07
-0.000118364 4.93366e-05 -1.6236e-07
-1.65582e-07 -1.6236e-07 -7.06815e-05
0.0013191 -0.000114042 -4.86599e-06
-0.000114042 8.4401e-05 1.34469e-06
-4.86599e-06 1.34469e-06 -3.07418e-05
0.00118639 -0.000126881 3.316e-06
-0.000126881 1.65542e-06 -3.68523e-07
3.316e-06 -3.68523e-07 -0.000124391
0.0011014 -0.000116104 2.44759e-07
-0.000116104 6.06861e-06 -3.44528e-08
2.44759e-07 -3.44528e-08 -0.000111892
0.00101205 -9.70953e-05 -7.12155e-06
-9.70953e-05 2.64537e-05 3.24048e-06
-7.12155e-06 3.24048e-06 -6.98249e-05
0.000510349 -6.91257e-05 -9.93603e-06
-6.91257e-05 -0.000117003 7.5481e-06
-9.93603e-06 7.5481e-06 -0.000172678
0.000954633 -9.85448e-05 3.0349e-07
-9.85448e-05 4.01005e-05 1.06426e-07
3.0349e-07 1.06426e-07 -5.67995e-05
0.00107191 -0.000124529 2.40393e-06
-0.000124529 5.06663e-05 -4.4065e-07
2.40393e-06 -4.4065e-07 -6.97967e-05
0.00348881 0.000129549 -6.27409e-05
0.000129549 0.00155286 2.85362e-06
-6.27409e-05 2.85362e-06 0.00154243
0.000673109 -3.55034e-05 -2.40409e-07
-3.55034e-05 -2.29011e-05 6.78742e-09
-2.40409e-07 6.78742e-09 -7.43335e-05
0.000980635 -9.12002e-05 4.67382e-06
-9.12002e-05 9.47116e-05 -2.56084e-06
4.67382e-06 -2.56084e-06 9.23939e-07
0.00331407 0.000112323 2.26901e-06
0.000112323 0.00144552 3.02058e-07
2.26901e-06 3.02058e-07 0.00144065
0.000738487 -1.259e-05 7.43865e-06
-1.259e-05 1.16118e-05 -5.93794e-06
7.43865e-06 -5.93794e-06 -3.16605e-05
0.003103 9.68271e-05 6.06587e-05
9.68271e-05 0.00132213 -3.08385e-06
6.06587e-05 -3.08385e-06 0.00132206
0.000601608 0.000115944 -1.64724e-06
0.000115944 -0.00020015 -1.14968e-06
-1.64724e-06 -1.14968e-06 -0.00033854
0.000688525 0.000111524 -1.0803e-07
0.000111524 -7.01743e-05 -1.25862e-07
-1.0803e-07 -1.25862e-07 -0.000199491
0.00113119 0.000122602 -2.08184e-06
0.000122602 0.000168473 -1.24417e-06
-2.08184e-06 -1.24417e-06 5.40334e-05
0.000915874 0.000114162 -4.1072e-07
0.000114162 9.31422e-05 -8.86323e-08
-4.1072e-07 -8.86323e-08 -2.19519e-05
0.000984353 0.000104092 -2.48086e-07
0.000104092 0.000124366 -3.47837e-07
-2.48086e-07 -3.47837e-07 2.25445e-05
0.000905662 4.99713e-05 -3.09654e-06
4.99713e-05 9.62094e-05 -1.70825e-06
-3.09654e-06 -1.70825e-06 1.40062e-05
0.000876337 5.99264e-05 -3.24131e-08
5.99264e-05 7.71625e-05 -5.60695e-07
-3.24131e-08 -5.60695e-07 -1.39526e-05
0.000765503 5.86782e-06 -2.06867e-08
5.86782e-06 2.80218e-05 9.90645e-08
-2.06867e-08 9.90645e-08 -4.61522e-05
0.000642093 -4.91894e-05 -3.12156e-06
-4.91894e-05 -2.26945e-05 -4.85e-06
-3.12156e-06 -4.85e-06 -5.67278e-05
0.000743936 -5.60421e-05 5.4233e-07
-5.60421e-05 1.63186e-05 2.59626e-06
5.4233e-07 2.59626e-06 -4.65272e-05
0.000611974 -6.92039e-05 -5.10924e-08
-6.92039e-05 -3.86213e-05 -1.57049e-07
-5.10924e-08 -1.57049e-07 -6.70617e-05
0.00258804 -8.659e-05 -4.47772e-05
-8.659e-05 0.00103959 -2.53655e-06
-4.47772e-05 -2.53655e-06 0.00104447
0.000628274 -5.4044e-05 2.16611e-06
-5.4044e-05 -4.15236e-05 3.91219e-06
2.16611e-06 3.91219e-06 -6.13045e-05
0.00236145 -7.79136e-05 -5.924e-07
-7.79136e-05 0.000911255 9.40463e-08
-5.924e-07 9.40463e-08 0.000919197
0.00226117 -6.94766e-05 3.17572e-05
-6.94766e-05 0.000848136 2.99494e-06
3.17572e-05 2.99494e-06 0.000858765
0.00139376 1.76461e-05 1.21219e-05
1.76461e-05 -0.000154776 1.14291e-06
1.21219e-05 1.14291e-06 -0.000219746
0.00119407 -2.88933e-05 -2.21739e-06
-2.88933e-05 -0.000148619 3.40805e-06
-2.21739e-06 3.40805e-06 -0.000206124
0.00266044 -5.79227e-05 7.2682e-05
-5.79227e-05 3.47511e-05 7.96165e-06
7.2682e-05 7.96165e-06 -0.00027394
0.00177014 0.000173378 4.07558e-07
0.000173378 0.000275739 -3.48033e-06
4.07558e-07 -3.48033e-06 0.000141216
0.0007514 0.000118102 -1.25316e-06
0.000118102 -4.76383e-05 1.5218e-06
-1.25316e-06 1.5218e-06 -0.000168892
0.00120065 0.000143603 -3.21998e-06
0.000143603 -5.81238e-05 1.9767e-06
-3.21998e-06 1.9767e-06 -0.000185727
0.00157826 0.00016797 5.42243e-07
0.00016797 0.000244273 1.51759e-07
5.42243e-07 1.51759e-07 0.000100849
0.000431948 0.000103686 -3.10521e-06
0.000103686 -0.000190481 2.31202e-06
-3.10521e-06 2.31202e-06 -0.000321875
0.0018456 0.000178102 -4.84069e-06
0.000178102 0.000135975 -1.35849e-07
-4.84069e-06 -1.35849e-07 1.01079e-05
0.00123918 0.000149378 -9.5962e-07
0.000149378 0.000229439 7.94585e-07
-9.5962e-07 7.94585e-07 0.000105724
0.00176395 0.000200419 4.98994e-07
0.000200419 0.000240636 -2.08306e-06
4.98994e-07 -2.08306e-06 0.000102989
0.00179673 0.0001142 -1.095e-06
0.0001142 8.40543e-05 1.6057e-06
-1.095e-06 1.6057e-06 -2.25934e-05
0.0017851 0.00022122 2.65467e-06
0.00022122 0.000257034 3.86057e-06
2.65467e-06 3.86057e-06 0.000118128
0.00206518 0.000217062 -2.23714e-06
0.000217062 0.000236205 -8.80892e-08
-2.23714e-06 -8.80892e-08 0.000100545
0.0014806 8.72609e-05 -3.82771e-07
8.72609e-05 -0.00010055 -6.6959e-07
-3.82771e-07 -6.6959e-07 -0.000184629
0.00164063 0.000185871 -1.79083e-06
0.000185871 4.04544e-05 -2.63712e-06
-1.79083e-06 -2.63712e-06 -8.74888e-05
0.000999947 8.64967e-05 -9.08599e-06
8.64967e-05 -7.76795e-05 -3.86694e-06
-9.08599e-06 -3.86694e-06 -9.41008e-05
0.00171502 -8.88472e-06 -1.94711e-07
-8.88472e-06 -6.55738e-07 3.24876e-07
-1.94711e-07 3.24876e-07 -7.73942e-05
0.00187538 -6.99133e-06 -1.50122e-06
-6.99133e-06 0.000186783 -1.48365e-07
-1.50122e-06 -1.48365e-07 0.000123548
0.00119075 1.5729e-06 -2.23763e-05
1.5729e-06 -0.000193095 1.32074e-06
-2.23763e-05 1.32074e-06 -0.000326506
0.00124113 -4.86553e-05 -5.01374e-06
-4.86553e-05 -0.000352366 2.4596e-06
-5.01374e-06 2.4596e-06 -0.000394388
0.00198647 -2.28077e-05 7.93545e-07
-2.28077e-05 9.52179e-05 2.97825e-07
7.93545e-07 2.97825e-07 2.34969e-05
0.00203424 -6.03666e-05 -1.85331e-06
-6.03666e-05 0.000148366 7.86021e-08
-1.85331e-06 7.86021e-08 8.1793e-05
0.00173294 -2.74943e-05 1.29859e-06
-2.74943e-05 -8.83168e-06 3.27152e-07
1.29859e-06 3.27152e-07 -8.15458e-05
0.00172897 -3.75657e-05 6.21752e-07
-3.75657e-05 3.05871e-05 -5.17111e-07
6.21752e-07 -5.17111e-07 -5.29279e-05
0.00174022 -5.98456e-05 -2.0595e-06
-5.98456e-05 3.48699e-05 -3.87797e-07
-2.0595e-06 -3.87797e-07 -2.73071e-05
0.0018172 -6.14353e-05 3.40654e-07
-6.14353e-05 0.000116133 -8.27945e-08
3.40654e-07 -8.27945e-08 3.2115e-05
0.00178982 -4.61363e-05 5.04439e-07
-4.61363e-05 0.000110692 -3.78216e-07
5.04439e-07 -3.78216e-07 1.15268e-05
0.00172691 -6.98658e-05 -3.97027e-06
-6.98658e-05 9.65441e-05 -1.41404e-07
-3.97027e-06 -1.41404e-07 8.53012e-06
0.00165965 -6.157e-05 -2.25285e-07
-6.157e-05 8.39032e-05 1.34363e-07
-2.25285e-07 1.34363e-07 -1.89329e-05
0.00170709 -5.54083e-05 -4.65546e-07
-5.54083e-05 0.000135284 4.62842e-07
-4.65546e-07 4.62842e-07 2.26628e-05
0.0016915 -8.59327e-05 -5.43873e-07
-8.59327e-05 0.000115091 -2.98859e-07
-5.43873e-07 -2.98859e-07 1.07167e-05
0.0016182 -8.78551e-05 3.90758e-08
-8.78551e-05 0.000101659 -1.33146e-07
3.90758e-08 -1.33146e-07 -9.56441e-06
0.00154211 -9.08145e-05 -1.98337e-06
-9.08145e-05 9.67147e-05 -1.28414e-08
-1.98337e-06 -1.28414e-08 -1.81899e-05
0.00157729 -0.000111293 4.35987e-07
-0.000111293 9.90316e-05 6.81375e-08
4.35987e-07 6.81375e-08 -1.38757e-05
0.00150468 -0.000110907 8.8831e-08
-0.000110907 9.93529e-05 1.85478e-07
8.8831e-08 1.85478e-07 -1.78481e-05
0.00137264 -0.000103662 -4.55665e-06
-0.000103662 8.07451e-05 1.23688e-06
-4.55665e-06 1.23688e-06 -3.28207e-05
0.00122412 -0.000113874 1.96938e-06
-0.000113874 -1.76367e-05 -3.80421e-07
1.96938e-06 -3.80421e-07 -0.000137305
0.00129788 -0.000112439 6.54739e-09
-0.000112439 7.35436e-05 -7.299e-09
6.54739e-09 -7.299e-09 -4.13953e-05
0.00106623 -9.08923e-05 -8.32632e-06
-9.08923e-05 2.10489e-05 3.40663e-06
-8.32632e-06 3.40663e-06 -7.44667e-05
0.000872654 -0.00010585 4.28065e-06
-0.00010585 -0.000115119 -1.0301e-06
4.28065e-06 -1.0301e-06 -0.000232903
0.00101438 -9.71723e-05 3.01683e-07
-9.71723e-05 2.78177e-05 2.53066e-08
3.01683e-07 2.53066e-08 -6.85849e-05
0.00192037 -2.05516e-05 -8.31536e-06
-2.05516e-05 0.000644482 5.43781e-06
-8.31536e-06 5.43781e-06 0.000589566
0.00111151 1.78694e-05 -7.64067e-05
1.78694e-05 0.000250529 8.37911e-06
-7.64067e-05 8.37911e-06 0.000230878
0.00133981 -4.30546e-05 -2.16763e-07
-4.30546e-05 0.000332453 -6.65629e-08
-2.16763e-07 -6.65629e-08 0.000277434
0.000985564 -0.000101197 5.8068e-06
-0.000101197 5.71466e-05 -2.61247e-06
5.8068e-06 -2.61247e-06 -4.01927e-05
0.00361886 0.000117893 4.98029e-06
0.000117893 0.00162335 3.63154e-07
4.98029e-06 3.63154e-07 0.00161396
0.000773481 -5.26017e-05 9.43466e-06
-5.26017e-05 2.45412e-05 -6.81935e-06
9.43466e-06 -6.81935e-06 -2.67496e-05
0.00336064 9.91435e-05 7.29568e-05
9.91435e-05 0.00147061 -3.27005e-06
7.29568e-05 -3.27005e-06 0.0014671
0.00151642 0.000138022 5.36553e-08
0.000138022 8.2284e-05 3.90837e-07
5.36553e-08 3.90837e-07 -3.75023e-05
0.00091297 0.000131469 1.21912e-06
0.000131469 -0.000117625 1.58546e-06
1.21912e-06 1.58546e-06 -0.000249344
0.000897281 0.000132054 -1.60781e-07
0.000132054 -5.07088e-05 -7.77057e-08
-1.60781e-07 -7.77057e-08 -0.000191007
0.00113042 0.000128098 -3.07528e-06
0.000128098 0.000116477 -8.73937e-07
-3.07528e-06 -8.73937e-07 -4.7961e-06
0.000500392 0.000101728 2.7355e-07
0.000101728 -0.000172671 1.87881e-06
2.7355e-07 1.87881e-06 -0.000302913
0.00102836 0.000115677 -4.40877e-07
0.000115677 0.000115851 -8.49488e-08
-4.40877e-07 -8.49488e-08 2.28922e-06
0.000978877 7.76286e-05 -3.88908e-06
7.76286e-05 0.000117128 -1.87096e-06
-3.88908e-06 -1.87096e-06 2.81286e-05
0.000872771 9.68115e-05 8.85123e-07
9.68115e-05 6.60289e-05 4.5624e-07
8.85123e-07 4.5624e-07 -3.48157e-05
0.000811763 4.22868e-05 -2.12164e-07
4.22868e-05 4.73315e-05 8.3724e-08
-2.12164e-07 8.3724e-08 -3.43733e-05
0.000703912 -1.0172e-05 -5.84507e-06
-1.0172e-05 4.18608e-06 -5.17539e-06
-5.84507e-06 -5.17539e-06 -3.58597e-05
0.00076919 -8.25711e-06 1.07606e-06
-8.25711e-06 3.03073e-05 1.83172e-06
1.07606e-06 1.83172e-06 -4.26747e-05
0.000592929 -6.1007e-05 -7.94839e-07
-6.1007e-05 -4.741e-05 -1.01435e-07
-7.94839e-07 -1.01435e-07 -8.20605e-05
0.00281201 -9.61575e-05 -5.22314e-05
-9.61575e-05 0.0011665 -2.56972e-06
-5.22314e-05 -2.56972e-06 0.00116771
0.000578889 -6.58483e-05 1.05907e-06
-6.58483e-05 -5.82137e-05 4.4997e-06
1.05907e-06 4.4997e-06 -8.55029e-05
0.00253077 -8.72023e-05 -7.92694e-07
-8.72023e-05 0.00100893 1.19346e-07
-7.92694e-07 1.19346e-07 0.00101392
0.00231931 -7.73333e-05 3.43668e-05
-7.73333e-05 0.000887849 2.67664e-06
3.43668e-05 2.67664e-06 0.000896082
0.001796 4.95438e-05 1.96914e-07
4.95438e-05 5.56245e-05 1.13803e-06
1.96914e-07 1.13803e-06 -3.15359e-05
0.00191733 1.17666e-05 -6.34295e-07
1.17666e-05 0.00014634 -6.93611e-07
-6.34295e-07 -6.93611e-07 8.35661e-05
0.00252256 -7.01337e-05 -1.32213e-05
-7.01337e-05 0.000444872 -9.50409e-07
-1.32213e-05 -9.50409e-07 0.000362609
0.00173791 0.000149485 -4.8168e-06
0.000149485 0.000121055 1.79769e-07
-4.8168e-06 1.79769e-07 1.82371e-06
0.00167827 0.000168859 -1.59283e-06
0.000168859 0.000243351 1.93109e-07
-1.59283e-06 1.93109e-07 0.000112134
0.000733304 0.00012125 -8.42204e-06
0.00012125 -4.1563e-05 3.29059e-06
-8.42204e-06 3.29059e-06 -0.000155545
0.00155416 0.000155824 2.2518e-06
0.000155824 0.000129056 7.28594e-07
2.2518e-06 7.28594e-07 2.41249e-06
0.00174048 0.000176672 -1.24048e-06
0.000176672 0.000325373 2.74179e-07
-1.24048e-06 2.74179e-07 0.000181271
0.00203106 0.000116111 -3.74299e-06
0.000116111 0.00019166 9.21228e-07
-3.74299e-06 9.21228e-07 8.53416e-05
0.00176634 0.000178104 -2.20544e-06
0.000178104 9.49137e-05 -4.09579e-08
-2.20544e-06 -4.09579e-08 -3.25267e-05
0.00163505 0.000192789 2.68149e-06
0.000192789 0.000166889 1.80885e-06
2.68149e-06 1.80885e-06 2.61643e-05
0.00177683 0.000115298 -5.07652e-07
0.000115298 6.74491e-05 5.06188e-08
-5.07652e-07 5.06188e-08 -3.97417e-05
0.00203825 0.000214908 4.95482e-06
0.000214908 0.000212897 -4.11034e-07
4.95482e-06 -4.11034e-07 7.88416e-05
0.00162171 9.73604e-05 -1.65847e-05
9.73604e-05 -2.04961e-05 -5.82196e-06
-1.65847e-05 -5.82196e-06 -0.000104758
0.00192143 1.09946e-06 -6.36265e-08
1.09946e-06 0.000119339 6.61312e-08
-6.36265e-08 6.61312e-08 3.46917e-05
0.00176301 -4.50487e-06 2.98621e-07
-4.50487e-06 2.70871e-05 -4.50728e-07
2.98621e-07 -4.50728e-07 -4.87227e-05
0.00209804 8.83437e-06 -1.13488e-05
8.83437e-06 0.000302046 5.02167e-07
-1.13488e-05 5.02167e-07 0.000239186
0.00216323 -5.71847e-05 -5.27494e-06
-5.71847e-05 0.000218138 -3.60957e-07
-5.27494e-06 -3.60957e-07 0.000153402
0.00194296 -2.86698e-05 8.36889e-07
-2.86698e-05 0.000105981 8.89576e-07
8.36889e-07 8.89576e-07 3.46939e-05
0.00182651 -3.67145e-05 -1.55517e-07
-3.67145e-05 7.59424e-05 -1.59531e-07
-1.55517e-07 -1.59531e-07 -5.41544e-06
0.00183945 -2.12522e-05 -3.54811e-08
-2.12522e-05 0.000109444 -4.16281e-07
-3.54811e-08 -4.16281e-07 1.03288e-05
0.0018527 -5.94999e-05 -6.06364e-07
-5.94999e-05 0.000137972 -7.12459e-08
-6.06364e-07 -7.12459e-08 5.3858e-05
0.00177108 -4.75287e-05 -5.49223e-07
-4.75287e-05 0.000106669 -1.03219e-07
-5.49223e-07 -1.03219e-07 7.12404e-06
0.00176091 -3.20097e-05 -4.0749e-08
-3.20097e-05 0.000137284 -2.67646e-08
-4.0749e-08 -2.67646e-08 2.28942e-05
0.00164028 -6.09865e-05 -9.64267e-07
-6.09865e-05 7.73299e-05 4.93846e-08
-9.64267e-07 4.93846e-08 -2.64828e-05
0.00164346 -5.49704e-05 -6.00932e-08
-5.49704e-05 0.000101303 -3.86991e-08
-6.00932e-08 -3.86991e-08 -1.13434e-05
0.00156542 -6.02895e-05 -1.84438e-06
-6.02895e-05 9.57426e-05 5.97633e-07
-1.84438e-06 5.97633e-07 -2.07119e-05
0.00161256 -8.66834e-05 7.33097e-07
-8.66834e-05 9.88084e-05 -2.5002e-07
7.33097e-07 -2.5002e-07 -1.23783e-05
0.00154578 -9.01996e-05 -8.41965e-08
-9.01996e-05 9.84905e-05 -1.44575e-07
-8.41965e-08 -1.44575e-07 -1.636e-05
0.00140192 -8.63379e-05 -4.53879e-06
-8.63379e-05 7.41306e-05 7.16232e-07
-4.53879e-06 7.16232e-07 -3.76731e-05
0.00149532 -0.000109971 2.1926e-06
-0.000109971 9.43658e-05 -1.33359e-08
2.1926e-06 -1.33359e-08 -2.271e-05
0.0013616 -0.000102497 6.15395e-08
-0.000102497 7.49145e-05 2.14757e-07
6.15395e-08 2.14757e-07 -3.84696e-05
0.00111534 -8.31884e-05 -8.92153e-06
-8.31884e-05 2.14334e-05 3.19103e-06
-8.92153e-06 3.19103e-06 -7.42634e-05
0.00127691 -0.000110857 4.49876e-06
-0.000110857 6.28335e-05 -1.27413e-06
4.49876e-06 -1.27413e-06 -5.19064e-05
0.00106493 -9.01415e-05 3.32256e-07
-9.01415e-05 1.96981e-05 -1.30593e-08
3.32256e-07 -1.30593e-08 -7.57761e-05
0.00204022 -2.35571e-05 -1.0249e-05
-2.35571e-05 0.000691435 5.01371e-06
-1.0249e-05 5.01371e-06 0.000638538
0.00100942 -9.71329e-05 7.15692e-06
-9.71329e-05 2.55976e-05 -3.02871e-06
7.15692e-06 -3.02871e-06 -7.09772e-05
0.00212793 -4.97747e-05 2.40212e-05
-4.97747e-05 0.000747804 -1.36722e-06
2.40212e-05 -1.36722e-06 0.000695933
0.00134765 -2.64549e-05 -9.66671e-05
-2.64549e-05 0.000382113 1.05465e-05
-9.66671e-05 1.05465e-05 0.000362034
0.00250293 4.25245e-05 -7.83305e-05
4.25245e-05 0.00101854 1.97231e-06
-7.83305e-05 1.97231e-06 0.00100407
0.00219212 -6.817e-05 5.09146e-05
-6.817e-05 0.00078738 -6.33459e-06
5.09146e-05 -6.33459e-06 0.000740807
0.00371477 8.86106e-05 8.77844e-05
8.86106e-05 0.001674 -4.65771e-06
8.77844e-05 -4.65771e-06 0.00166694
0.00164726 0.000121592 -3.274e-06
0.000121592 9.09925e-05 -2.33476e-06
-3.274e-06 -2.33476e-06 -2.80662e-05
0.00167263 0.00014913 3.6188e-06
0.00014913 0.000228019 3.89124e-07
3.6188e-06 3.89124e-07 0.0001055
0.00142359 0.000136066 9.94767e-07
0.000136066 3.72202e-05 9.88722e-07
9.94767e-07 9.88722e-07 -7.66549e-05
0.00117344 0.000132643 -3.56482e-06
0.000132643 7.53336e-05 -7.25304e-07
-3.56482e-06 -7.25304e-07 -4.75211e-05
0.00120911 0.000146219 -7.76576e-08
0.000146219 3.82338e-05 7.90745e-08
-7.76576e-08 7.90745e-08 -9.44961e-05
0.00114873 0.000146161 2.11417e-06
0.000146161 7.55039e-05 6.78151e-07
2.11417e-06 6.78151e-07 -6.65667e-05
0.00110602 0.000127083 -4.06083e-07
0.000127083 0.000104952 1.00481e-07
-4.06083e-07 1.00481e-07 -1.65412e-05
0.000988059 9.66279e-05 -4.86936e-06
9.66279e-05 8.75947e-05 -2.26231e-06
-4.86936e-06 -2.26231e-06 -7.81073e-06
0.000922683 0.000108628 1.2123e-06
0.000108628 6.15913e-05 1.04073e-06
1.2123e-06 1.04073e-06 -5.10679e-05
0.000856094 7.18133e-05 -3.15327e-07
7.18133e-05 5.1427e-05 -6.21131e-08
-3.15327e-07 -6.21131e-08 -3.62744e-05
0.000767414 2.64333e-05 -7.64891e-06
2.64333e-05 3.26683e-05 -5.81333e-06
-7.64891e-06 -5.81333e-06 -1.51342e-05
0.000697037 3.45554e-05 1.48922e-06
3.45554e-05 -1.30304e-05 1.41649e-06
1.48922e-06 1.41649e-06 -9.39656e-05
0.000622497 -2.78648e-05 1.73383e-07
-2.78648e-05 -3.5778e-05 -2.08258e-07
1.73383e-07 -2.08258e-07 -7.6227e-05
0.0030694 -0.000102084 -6.39383e-05
-0.000102084 0.00131604 -2.61496e-06
-6.39383e-05 -2.61496e-06 0.00131314
0.000532723 -7.54567e-05 -4.67738e-07
-7.54567e-05 -7.53436e-05 5.32699e-06
-4.67738e-07 5.32699e-06 -0.000112428
0.00276132 -9.82348e-05 -1.24189e-06
-9.82348e-05 0.00113915 1.74058e-07
-1.24189e-06 1.74058e-07 0.00114041
0.00248461 -8.71925e-05 3.83708e-05
-8.71925e-05 0.000983913 2.4103e-06
3.83708e-05 2.4103e-06 0.000989175
0.00189703 5.31621e-05 -2.45461e-06
5.31621e-05 0.000101257 7.68589e-07
-2.45461e-06 7.68589e-07 8.16762e-06
0.00174158 4.89529e-05 7.41045e-07
4.89529e-05 3.00487e-05 -1.16932e-07
7.41045e-07 -1.16932e-07 -5.72074e-05
0.00230065 6.49944e-06 -2.62118e-05
6.49944e-06 0.000385746 -2.77897e-06
-2.62118e-05 -2.77897e-06 0.000325059
0.00186061 0.000105339 -3.20221e-07
0.000105339 0.000134467 8.33355e-07
-3.20221e-07 8.33355e-07 2.38718e-05
0.00179098 0.000150293 -7.50633e-07
0.000150293 0.000152549 -4.67592e-07
-7.50633e-07 -4.67592e-07 3.25619e-05
0.00164488 0.000166728 -1.90238e-06
0.000166728 0.000240904 1.55698e-06
-1.90238e-06 1.55698e-06 0.00011291
0.00186452 0.000166168 1.34164e-06
0.000166168 0.000293522 -1.10054e-06
1.34164e-06 -1.10054e-06 0.000167929
0.0019011 0.00011243 1.09035e-07
0.00011243 0.000122272 -7.30327e-08
1.09035e-07 -7.30327e-08 1.54427e-05
0.00168231 0.000177857 1.29996e-06
0.000177857 5.13198e-05 -1.74383e-07
1.29996e-06 -1.74383e-07 -7.76227e-05
0.00172507 0.000115642 2.60163e-06
0.000115642 4.08321e-05 -1.30067e-06
2.60163e-06 -1.30067e-06 -6.69489e-05
0.00182176 9.54758e-06 8.60587e-07
9.54758e-06 8.15815e-05 1.41034e-07
8.60587e-07 1.41034e-07 -1.44387e-05
0.001872 2.03309e-06 -3.98491e-07
2.03309e-06 9.3129e-05 -4.9876e-08
-3.98491e-07 -4.9876e-08 7.18318e-06
0.00180982 -2.41163e-07 -2.1695e-06
-2.41163e-07 5.69214e-05 -1.48579e-07
-2.1695e-06 -1.48579e-07 -1.8022e-05
0.00174604 -6.63306e-07 -3.15432e-07
-6.63306e-07 6.07845e-05 -1.39953e-07
-3.15432e-07 -1.39953e-07 -4.32836e-05
0.00189175 -3.52476e-05 -6.03692e-07
-3.52476e-05 0.00010518 4.0772e-07
-6.03692e-07 4.0772e-07 2.60212e-05
0.00184498 -2.11217e-05 -1.12255e-07
-2.11217e-05 0.000112781 3.36779e-07
-1.12255e-07 3.36779e-07 1.36489e-05
0.0018467 -1.39046e-05 5.02878e-07
-1.39046e-05 0.000156488 -8.38339e-07
5.02878e-07 -8.38339e-07 4.47515e-05
0.00175283 -4.88023e-05 -1.38065e-06
-4.88023e-05 0.000102995 4.6558e-07
-1.38065e-06 4.6558e-07 3.07645e-06
0.00169203 -3.18172e-05 -4.45134e-08
-3.18172e-05 9.96164e-05 1.15541e-07
-4.45134e-08 1.15541e-07 -1.4838e-05
0.00157163 -2.81287e-05 -2.45942e-06
-2.81287e-05 7.95634e-05 1.03455e-06
-2.45942e-06 1.03455e-06 -4.04455e-05
0.00157605 -5.39206e-05 3.04639e-07
-5.39206e-05 6.54738e-05 -5.29476e-07
3.04639e-07 -5.29476e-07 -4.71844e-05
0.00156441 -5.8533e-05 -3.26766e-08
-5.8533e-05 9.503e-05 -1.73479e-07
-3.26766e-08 -1.73479e-07 -2.13486e-05
0.00142566 -6.36366e-05 -4.34496e-06
-6.36366e-05 7.30771e-05 1.01566e-06
-4.34496e-06 1.01566e-06 -4.00615e-05
0.0015473 -8.9467e-05 2.11722e-06
-8.9467e-05 9.91517e-05 -3.07861e-07
2.11722e-06 -3.07861e-07 -1.56392e-05
0.00140584 -8.56063e-05 -8.53281e-08
-8.56063e-05 7.59326e-05 -2.83626e-08
-8.53281e-08 -2.83626e-08 -3.57731e-05
0.0011415 -7.08723e-05 -9.20566e-06
-7.08723e-05 1.8019e-05 2.37798e-06
-9.20566e-06 2.37798e-06 -7.72249e-05
0.00134809 -0.000101208 4.69267e-06
-0.000101208 6.77807e-05 -8.13829e-07
4.69267e-06 -8.13829e-07 -4.54125e-05
0.00110972 -8.1459e-05 3.25198e-07
-8.1459e-05 1.71516e-05 2.0997e-07
3.25198e-07 2.0997e-07 -7.8239e-05
0.00215852 -4.67589e-05 -1.73997e-05
-4.67589e-05 0.000732981 3.96747e-06
-1.73997e-05 3.96747e-06 0.000685375
0.0010551 -8.91495e-05 8.22067e-06
-8.91495e-05 1.38154e-05 -3.35364e-06
8.22067e-06 -3.35364e-06 -8.16021e-05
0.0022123 -6.55629e-05 2.14003e-05
-6.55629e-05 0.000773658 -1.77925e-06
2.14003e-05 -1.77925e-06 0.000725829
0.00145827 -2.59696e-05 -9.84027e-05
-2.59696e-05 0.000440415 1.00178e-05
-9.84027e-05 1.00178e-05 0.000419125
0.00231571 -8.55479e-05 5.91303e-05
-8.55479e-05 0.000837613 -8.74507e-06
5.91303e-05 -8.74507e-06 0.000790247
0.00133289 3.15642e-05 -4.85891e-05
3.15642e-05 0.000387695 3.14104e-06
-4.85891e-05 3.14104e-06 0.000358984
0.00381266 0.000197395 5.35429e-06
0.000197395 0.00175963 -2.5464e-06
5.35429e-06 -2.5464e-06 0.00173131
0.00178169 9.17875e-05 -1.11033e-06
9.17875e-05 0.000145255 1.55317e-07
-1.11033e-06 1.55317e-07 2.73721e-05
0.0015899 0.000118277 -1.02832e-06
0.000118277 0.000111303 -2.32062e-06
-1.02832e-06 -2.32062e-06 -9.06037e-06
0.00172533 0.000125706 -2.75953e-06
0.000125706 0.000141421 6.93005e-07
-2.75953e-06 6.93005e-07 2.31754e-05
0.0017026 0.000144991 -2.38069e-06
0.000144991 0.00030009 -2.96217e-07
-2.38069e-06 -2.96217e-07 0.000181454
0.00148071 0.000144172 4.7212e-07
0.000144172 0.000122318 -1.13326e-06
4.7212e-07 -1.13326e-06 4.20011e-07
0.0014017 0.000136544 3.08086e-06
0.000136544 2.86822e-05 1.38217e-06
3.08086e-06 1.38217e-06 -7.92899e-05
0.00100507 0.00010478 -6.59814e-06
0.00010478 4.65176e-05 -2.75086e-06
-6.59814e-06 -2.75086e-06 -5.33885e-05
0.00120658 0.000135121 -1.93144e-07
0.000135121 9.34296e-05 7.38564e-08
-1.93144e-07 7.38564e-08 -3.01089e-05
0.00153688 0.000162371 3.19408e-06
0.000162371 0.000210655 -1.91433e-07
3.19408e-06 -1.91433e-07 7.682e-05
0.00107947 0.000126076 2.52634e-06
0.000126076 9.23401e-05 1.21078e-06
2.52634e-06 1.21078e-06 -2.93889e-05
0.000920086 9.21139e-05 -4.08083e-07
9.21139e-05 5.13111e-05 -1.20811e-07
-4.08083e-07 -1.20811e-07 -4.34656e-05
0.000788841 7.11904e-05 -1.07723e-05
7.11904e-05 3.86456e-05 -6.76106e-06
-1.07723e-05 -6.76106e-06 -1.69695e-05
0.000744527 6.61166e-05 2.74554e-06
6.61166e-05 -8.2479e-06 1.58001e-06
2.74554e-06 1.58001e-06 -9.47975e-05
0.000667702 2.17986e-05 5.58145e-08
2.17986e-05 -1.46578e-05 -4.77221e-08
5.58145e-08 -4.77221e-08 -6.28895e-05
0.00340379 -8.99973e-05 -7.97093e-05
-8.99973e-05 0.00151097 -3.84517e-06
-7.97093e-05 -3.84517e-06 0.00150453
0.000558271 -4.30488e-05 1.93682e-06
-4.30488e-05 -6.6565e-05 5.51492e-06
1.93682e-06 5.51492e-06 -0.000107324
0.00302598 -0.000111509 -1.99355e-06
-0.000111509 0.00129195 2.7848e-07
-1.99355e-06 2.7848e-07 0.00128814
0.00272038 -9.91046e-05 4.36426e-05
-9.91046e-05 0.00111668 2.29015e-06
4.36426e-05 2.29015e-06 0.00111825
0.00178622 5.16366e-05 5.41818e-07
5.16366e-05 6.7618e-05 7.17281e-07
5.41818e-07 7.17281e-07 -3.36545e-05
0.0018395 5.49618e-05 -6.6792e-07
5.49618e-05 6.90001e-05 1.57983e-07
-6.6792e-07 1.57983e-07 -2.40055e-05
0.0017192 4.85917e-05 3.96481e-08
4.85917e-05 1.67308e-05 -1.41539e-06
3.96481e-08 -1.41539e-06 -7.05771e-05
0.00185111 0.000103792 7.38289e-07
0.000103792 0.000126336 -8.60785e-08
7.38289e-07 -8.60785e-08 1.68908e-05
0.00185899 0.000151873 5.84622e-07
0.000151873 0.000192361 -6.83939e-07
5.84622e-07 -6.83939e-07 7.15366e-05
0.00177821 0.000108512 2.87903e-06
0.000108512 5.70532e-05 -1.00743e-06
2.87903e-06 -1.00743e-06 -5.02384e-05
0.00184189 1.29776e-05 2.4389e-08
1.29776e-05 0.000108913 1.66087e-07
2.4389e-08 1.66087e-07 5.86621e-06
0.00185938 1.12767e-05 3.81537e-07
1.12767e-05 0.000101308 -1.53857e-07
3.81537e-07 -1.53857e-07 4.48605e-06
0.00183281 3.6131e-06 8.8756e-07
3.6131e-06 7.09593e-05 -8.80872e-08
8.8756e-07 -8.80872e-08 -1.62876e-05
0.00179186 -8.44161e-06 -9.19325e-07
-8.44161e-06 8.51432e-05 1.54929e-07
-9.19325e-07 1.54929e-07 -1.79579e-05
0.00176308 -5.14805e-06 9.25157e-07
-5.14805e-06 9.9856e-05 -5.77201e-07
9.25157e-07 -5.77201e-07 -1.14099e-05
0.00185171 -2.09853e-05 -5.17487e-07
-2.09853e-05 0.000116746 7.17742e-07
-5.17487e-07 7.17742e-07 1.75936e-05
0.00176748 -1.3743e-05 1.14197e-07
-1.3743e-05 0.000113233 1.63309e-07
1.14197e-07 1.63309e-07 8.26918e-08
0.00162474 -8.02852e-06 -3.43957e-07
-8.02852e-06 8.70107e-05 -4.85739e-07
-3.43957e-07 -4.85739e-07 -3.27045e-05
0.00162368 -3.22112e-05 1.72893e-07
-3.22112e-05 6.21688e-05 2.31324e-07
1.72893e-07 2.31324e-07 -5.23686e-05
0.00159727 -2.90616e-05 -7.24845e-07
-2.90616e-05 9.22479e-05 5.13987e-07
-7.24845e-07 5.13987e-07 -2.77229e-05
0.00149436 -3.42535e-05 -5.43491e-06
-3.42535e-05 8.97742e-05 1.79463e-06
-5.43491e-06 1.79463e-06 -2.73971e-05
0.00156951 -5.83099e-05 1.58959e-06
-5.83099e-05 9.7369e-05 -9.38017e-07
1.58959e-06 -9.38017e-07 -1.89759e-05
0.00143791 -6.27105e-05 6.95909e-08
-6.27105e-05 7.88374e-05 -2.36158e-07
6.95909e-08 -2.36158e-07 -3.42479e-05
0.00114009 -5.31321e-05 -9.04756e-06
-5.31321e-05 5.63853e-06 2.02468e-06
-9.04756e-06 2.02468e-06 -9.00331e-05
0.00140896 -8.48031e-05 4.51949e-06
-8.48031e-05 7.731e-05 -7.89505e-07
4.51949e-06 -7.89505e-07 -3.4293e-05
0.00114447 -6.88116e-05 5.49247e-08
-6.88116e-05 1.83838e-05 1.32025e-07
5.49247e-08 1.32025e-07 -7.65053e-05
0.00222082 -5.1792e-05 -2.10652e-05
-5.1792e-05 0.000753527 2.9681e-06
-2.10652e-05 2.9681e-06 0.000707579
0.00110178 -7.98269e-05 9.00237e-06
-7.98269e-05 1.15598e-05 -2.79591e-06
9.00237e-06 -2.79591e-06 -8.35237e-05
0.0022707 -6.82317e-05 2.05477e-05
-6.82317e-05 0.000789139 -1.55649e-06
2.05477e-05 -1.55649e-06 0.000743415
0.00156952 -2.46203e-05 -0.000100944
-2.46203e-05 0.000491665 8.67215e-06
-0.000100944 8.67215e-06 0.000470732
0.00236978 -8.41178e-05 6.15244e-05
-8.41178e-05 0.000853021 -8.10641e-06
6.15244e-05 -8.10641e-06 0.000807005
0.0013901 2.74635e-05 -4.94846e-05
2.74635e-05 0.000415037 3.13221e-06
-4.94846e-05 3.13221e-06 0.000386774
0.00136593 0.000102762 -1.07305e-06
0.000102762 0.000424179 -4.54381e-06
-1.07305e-06 -4.54381e-06 0.000384069
0.0017718 5.02605e-05 2.31891e-07
5.02605e-05 0.000113482 8.70249e-07
2.31891e-07 8.70249e-07 4.62437e-06
0.00157628 8.69243e-05 -2.6425e-06
8.69243e-05 8.19449e-05 -4.72056e-07
-2.6425e-06 -4.72056e-07 -3.74418e-05
0.00173775 9.19157e-05 -1.35488e-06
9.19157e-05 0.000123512 -2.50148e-07
-1.35488e-06 -2.50148e-07 6.35477e-06
0.00158943 0.000120213 -3.74785e-06
0.000120213 0.000175474 -1.19967e-06
-3.74785e-06 -1.19967e-06 5.87379e-05
0.00173076 0.000123434 1.30307e-06
0.000123434 0.000187257 3.88505e-07
1.30307e-06 3.88505e-07 6.64728e-05
0.00175028 0.000128094 3.3896e-06
0.000128094 0.000164595 1.32332e-06
3.3896e-06 1.32332e-06 4.71345e-05
0.001014 0.000102478 -7.89385e-06
0.000102478 4.05636e-07 -2.88467e-06
-7.89385e-06 -2.88467e-06 -9.97827e-05
0.00134937 0.000133073 2.31237e-06
0.000133073 0.000108261 7.74664e-07
2.31237e-06 7.74664e-07 -1.15172e-05
0.00128968 0.000139412 1.46928e-06
0.000139412 1.66202e-05 8.62052e-07
1.46928e-06 8.62052e-07 -0.000104647
0.000741927 9.86586e-05 -1.46091e-05
9.86586e-05 4.20281e-07 -7.15118e-06
-1.46091e-05 -7.15118e-06 -5.94028e-05
0.000993609 0.000103243 -5.58867e-07
0.000103243 4.05775e-05 -2.2632e-08
-5.58867e-07 -2.2632e-08 -5.90119e-05
0.00123955 0.000137515 4.03286e-06
0.000137515 0.000111474 1.17926e-06
4.03286e-06 1.17926e-06 -1.27428e-05
0.000871574 8.84197e-05 4.28752e-06
8.84197e-05 2.5773e-05 2.23173e-06
4.28752e-06 2.23173e-06 -6.84958e-05
0.000670386 6.31135e-05 -1.14398e-07
6.31135e-05 -1.90384e-05 6.60195e-08
-1.14398e-07 6.60195e-08 -7.44149e-05
0.00389083 -7.57119e-05 -9.12667e-05
-7.57119e-05 0.00178771 -6.17152e-06
-9.12667e-05 -6.17152e-06 0.00177554
0.000584102 1.41696e-05 5.28046e-06
1.41696e-05 -5.56451e-05 5.88564e-06
5.28046e-06 5.88564e-06 -0.000102852
0.00332931 -0.0001201 -4.56963e-06
-0.0001201 0.00147101 3.37294e-07
-4.56963e-06 3.37294e-07 0.001462
0.00297455 -0.000112863 4.97548e-05
-0.000112863 0.00126229 2.26838e-06
4.97548e-05 2.26838e-06 0.00125896
0.00180094 3.29458e-05 4.23492e-07
3.29458e-05 9.45802e-05 -3.28929e-08
4.23492e-07 -3.28929e-08 -1.00982e-05
0.00179948 5.08481e-05 -2.20018e-07
5.08481e-05 7.42956e-05 2.17333e-07
-2.20018e-07 2.17333e-07 -2.66139e-05
0.00177682 5.62878e-05 3.59794e-06
5.62878e-05 3.44037e-05 -5.76348e-07
3.59794e-06 -5.76348e-07 -5.85208e-05
0.0018373 0.000102098 1.43386e-06
0.000102098 0.000115468 -6.50634e-07
1.43386e-06 -6.50634e-07 7.20285e-06
0.0017645 -2.95902e-06 5.49588e-07
-2.95902e-06 9.46412e-05 -9.36852e-08
5.49588e-07 -9.36852e-08 -1.68179e-05
0.00187814 1.01308e-05 -1.24055e-07
1.01308e-05 0.000126734 -5.50905e-08
-1.24055e-07 -5.50905e-08 2.36857e-05
0.00189371 1.24696e-05 -4.38218e-07
1.24696e-05 0.000119397 9.39103e-08
-4.38218e-07 9.39103e-08 2.17821e-05
0.00184707 -1.27625e-05 -1.85622e-06
-1.27625e-05 0.000114832 1.4142e-07
-1.85622e-06 1.4142e-07 1.26629e-05
0.0017628 2.49316e-07 -4.53855e-07
2.49316e-07 9.93354e-05 -6.13509e-08
-4.53855e-07 -6.13509e-08 -1.13013e-05
0.00179656 3.58959e-06 -3.90809e-08
3.58959e-06 0.000168271 -3.96946e-07
-3.90809e-08 -3.96946e-07 5.11954e-05
0.00168887 -1.36107e-05 -3.48287e-08
-1.36107e-05 7.02722e-05 9.8028e-07
-3.48287e-08 9.8028e-07 -4.42921e-05
0.00169625 -7.36194e-06 7.3325e-07
-7.36194e-06 0.000124827 -1.08271e-07
7.3325e-07 -1.08271e-07 4.85726e-06
0.00138563 -8.24135e-06 -4.31819e-06
-8.24135e-06 8.68999e-06 5.51319e-07
-4.31819e-06 5.51319e-07 -0.000110891
0.00161376 -2.84486e-05 7.4631e-07
-2.84486e-05 0.00010032 1.91339e-08
7.4631e-07 1.91339e-08 -1.95813e-05
0.00145963 -3.15469e-05 -5.57082e-07
-3.15469e-05 7.17912e-05 4.63704e-07
-5.57082e-07 4.63704e-07 -4.52476e-05
0.0011741 -3.15451e-05 -9.17934e-06
-3.15451e-05 6.34411e-06 2.23111e-06
-9.17934e-06 2.23111e-06 -9.24718e-05
0.00144436 -5.96902e-05 4.21597e-06
-5.96902e-05 8.15934e-05 -1.44787e-06
4.21597e-06 -1.44787e-06 -3.13285e-05
0.00116512 -5.31064e-05 -4.75306e-08
-5.31064e-05 1.77381e-05 -7.17678e-08
-4.75306e-08 -7.17678e-08 -7.78446e-05
0.00068554 -3.59332e-05 -1.3841e-05
-3.59332e-05 -8.92441e-05 3.18759e-06
-1.3841e-05 3.18759e-06 -0.000143815
0.00114803 -6.69377e-05 9.22619e-06
-6.69377e-05 1.8959e-05 -2.22229e-06
9.22619e-06 -2.22229e-06 -7.55715e-05
0.00149129 -5.40077e-05 2.55172e-05
-5.40077e-05 0.000354196 -1.18868e-06
2.55172e-05 -1.18868e-06 0.00030579
0.00472515 -3.76182e-05 -0.000120792
-3.76182e-05 0.0022028 5.0967e-06
-0.000120792 5.0967e-06 0.00219928
0.00238695 -7.24145e-05 6.30388e-05
-7.24145e-05 0.000848054 -6.76726e-06
6.30388e-05 -6.76726e-06 0.000803759
0.00144423 3.41159e-06 -4.44636e-05
3.41159e-06 0.000429846 3.12166e-06
-4.44636e-05 3.12166e-06 0.000405628
0.0013631 3.39584e-05 1.17419e-05
3.39584e-05 0.000401692 -3.11648e-06
1.17419e-05 -3.11648e-06 0.000373012
0.00179893 3.14103e-05 6.80072e-07
3.14103e-05 0.000130521 2.44414e-07
6.80072e-07 2.44414e-07 2.30065e-05
0.00159892 5.06752e-05 -1.33987e-06
5.06752e-05 8.207e-05 5.14987e-07
-1.33987e-06 5.14987e-07 -3.36477e-05
0.00182399 4.85218e-05 -1.76372e-07
4.85218e-05 0.000143016 -1.54198e-07
-1.76372e-07 -1.54198e-07 3.38794e-05
0.00118151 8.34277e-05 -5.17445e-06
8.34277e-05 -7.61937e-05 -1.42537e-06
-5.17445e-06 -1.42537e-06 -0.000192217
0.00164868 8.90123e-05 3.4853e-08
8.90123e-05 0.000121383 -1.17316e-09
3.4853e-08 -1.17316e-09 2.44163e-06
0.00169791 9.23956e-05 -3.24716e-07
9.23956e-05 0.000104301 -7.10029e-07
-3.24716e-07 -7.10029e-07 -1.21817e-05
0.000655449 7.73e-05 -1.0535e-05
7.73e-05 -0.000240582 -3.22867e-06
-1.0535e-05 -3.22867e-06 -0.000341587
0.00163808 0.000123722 1.06882e-06
0.000123722 0.000201091 2.31525e-07
1.06882e-06 2.31525e-07 8.39765e-05
0.00189263 0.000129333 3.5451e-06
0.000129333 0.000274436 1.10581e-06
3.5451e-06 1.10581e-06 0.000153195
0.000691765 9.92294e-05 -1.5111e-05
9.92294e-05 -4.93518e-05 -6.52598e-06
-1.5111e-05 -6.52598e-06 -0.000108937
0.000796032 9.41998e-05 9.73e-08
9.41998e-05 -0.000118857 1.32262e-07
9.73e-08 1.32262e-07 -0.000220126
0.000989529 0.000120898 5.75877e-06
0.000120898 -8.70935e-05 1.95316e-06
5.75877e-06 1.95316e-06 -0.000207989
0.00440355 -7.89446e-05 -9.5219e-05
-7.89446e-05 0.00207094 -7.78732e-06
-9.5219e-05 -7.78732e-06 0.0020525
0.000654968 8.75684e-05 5.60808e-07
8.75684e-05 -4.30659e-05 1.63424e-07
5.60808e-07 1.63424e-07 -0.000102419
0.000972304 0.000101301 6.19452e-06
0.000101301 2.9804e-05 2.95742e-06
6.19452e-06 2.95742e-06 -6.95002e-05
0.000560593 5.51476e-05 8.29918e-06
5.51476e-05 -7.31001e-05 6.61945e-06
8.29918e-06 6.61945e-06 -0.000128202
0.00370334 -0.000110687 -6.47751e-06
-0.000110687 0.0016876 3.22052e-07
-6.47751e-06 3.22052e-07 0.00167434
0.0032171 -0.000128671 5.54469e-05
-0.000128671 0.00140871 2.30918e-06
5.54469e-05 2.30918e-06 0.00139903
0.00178971 1.47801e-05 -5.31768e-07
1.47801e-05 0.000110351 -3.13871e-07
-5.31768e-07 -3.13871e-07 2.28891e-07
0.0018136 3.23361e-05 -2.95803e-07
3.23361e-05 9.79466e-05 1.0349e-07
-2.95803e-07 1.0349e-07 -6.50804e-06
0.00182079 5.05256e-05 3.74862e-07
5.05256e-05 8.54424e-05 -3.80022e-07
3.74862e-07 -3.80022e-07 -1.51159e-05
0.00176991 8.34022e-06 6.55174e-08
8.34022e-06 0.000146473 -2.66623e-07
6.55174e-08 -2.66623e-07 2.88425e-05
0.00175995 6.44679e-07 -2.06301e-07
6.44679e-07 9.43485e-05 5.73805e-09
-2.06301e-07 5.73805e-09 -1.6454e-05
0.00190926 4.53198e-06 -9.56843e-07
4.53198e-06 0.000141698 1.1124e-07
-9.56843e-07 1.1124e-07 3.86709e-05
0.00175336 4.25005e-06 -9.38161e-07
4.25005e-06 9.36251e-05 5.91141e-07
-9.38161e-07 5.91141e-07 -1.63424e-05
0.00178962 6.26364e-06 9.08382e-07
6.26364e-06 0.000164148 -1.95245e-07
9.08382e-07 -1.95245e-07 4.70135e-05
0.00178142 2.65054e-06 -2.97847e-06
2.65054e-06 0.00020953 8.6022e-08
-2.97847e-06 8.6022e-08 9.31735e-05
0.00177364 -6.66927e-06 2.16672e-06
-6.66927e-06 0.000165747 8.20287e-08
2.16672e-06 8.20287e-08 4.55229e-05
0.00163645 -6.29866e-06 -1.91348e-08
-6.29866e-06 0.000145681 6.67502e-08
-1.91348e-08 6.67502e-08 2.78559e-05
0.000822771 -9.69785e-06 -1.11983e-05
-9.69785e-06 -0.000207445 2.05161e-06
-1.11983e-05 2.05161e-06 -0.000313004
0.0014404 -3.11476e-05 3.71448e-06
-3.11476e-05 6.18119e-05 -8.27015e-07
3.71448e-06 -8.27015e-07 -5.51944e-05
0.0011816 -2.90869e-05 5.04591e-08
-2.90869e-05 9.47463e-06 5.24741e-08
5.04591e-08 5.24741e-08 -8.91689e-05
0.00069713 -1.85212e-05 -1.37436e-05
-1.85212e-05 -9.33493e-05 2.58131e-06
-1.37436e-05 2.58131e-06 -0.000150644
0.00118862 -5.1771e-05 9.37038e-06
-5.1771e-05 2.89346e-05 -2.29067e-06
9.37038e-06 -2.29067e-06 -6.64545e-05
0.00069118 -2.59208e-05 -1.79171e-07
-2.59208e-05 -8.7265e-05 3.53148e-08
-1.79171e-07 3.53148e-08 -0.000141718
0.00473083 -4.17222e-05 -0.00012011
-4.17222e-05 0.00220493 4.01304e-06
-0.00012011 4.01304e-06 0.00220127
0.000736348 -4.761e-05 1.5046e-05
-4.761e-05 -5.79405e-05 -4.90649e-06
1.5046e-05 -4.90649e-06 -0.00011223
0.00307304 -1.75003e-05 4.88255e-05
-1.75003e-05 0.00130635 1.81194e-07
4.88255e-05 1.81194e-07 0.00129157
0.00131546 -2.36015e-06 1.87482e-05
-2.36015e-06 0.00036501 -2.67728e-06
1.87482e-05 -2.67728e-06 0.000338479
0.00183568 1.99696e-05 3.47437e-08
1.99696e-05 0.000167309 -1.20203e-07
3.47437e-08 -1.20203e-07 5.78942e-05
0.00163782 2.74829e-05 -9.0103e-07
2.74829e-05 9.9995e-05 3.6325e-07
-9.0103e-07 3.6325e-07 -1.31129e-05
0.00177533 2.97171e-05 -2.27702e-07
2.97171e-05 0.000117824 -1.1818e-07
-2.27702e-07 -1.1818e-07 1.03813e-05
0.00143274 5.77553e-05 -4.13247e-06
5.77553e-05 4.90814e-05 -5.21244e-07
-4.13247e-06 -5.21244e-07 -6.39666e-05
0.00157045 4.9534e-05 3.54655e-07
4.9534e-05 6.57624e-05 1.64668e-07
3.54655e-07 1.64668e-07 -5.03832e-05
0.00187257 4.65944e-05 -7.75597e-07
4.65944e-05 0.000170434 -8.07251e-07
-7.75597e-07 -8.07251e-07 6.10384e-05
0.000712966 6.29547e-05 -1.09365e-05
6.29547e-05 -0.000237385 -2.8087e-06
-1.09365e-05 -2.8087e-06 -0.000336805
0.00153421 9.36885e-05 -1.40066e-06
9.36885e-05 0.000115373 -3.92711e-07
-1.40066e-06 -3.92711e-07 8.59191e-07
0.00171582 9.07416e-05 2.83939e-06
9.07416e-05 0.000157923 4.9288e-08
2.83939e-06 4.9288e-08 3.94659e-05
0.000660404 7.80535e-05 -1.46458e-05
7.80535e-05 -8.81297e-05 -5.26636e-06
-1.46458e-05 -5.26636e-06 -0.000145962
0.000678429 7.89251e-05 -2.56783e-06
7.89251e-05 -0.000229546 -5.91357e-07
-2.56783e-06 -5.91357e-07 -0.000331142
0.00168516 0.000127209 6.11706e-06
0.000127209 0.000225831 1.43006e-06
6.11706e-06 1.43006e-06 0.00010835
0.00472847 -4.94359e-05 -0.000104251
-4.94359e-05 0.0022302 -7.21403e-06
-0.000104251 -7.21403e-06 0.00221688
0.0006361 9.08336e-05 9.35452e-07
9.08336e-05 -7.69202e-05 2.45512e-07
9.35452e-07 2.45512e-07 -0.000136668
0.000572899 8.56413e-05 7.79172e-06
8.56413e-05 -0.000240777 3.13673e-06
7.79172e-06 3.13673e-06 -0.000343128
0.00415157 -7.68413e-05 -1.82802e-06
-7.68413e-05 0.00193051 8.27351e-08
-1.82802e-06 8.27351e-08 0.00191661
0.000538748 7.97498e-05 1.13676e-05
7.97498e-05 -0.00010243 6.98043e-06
1.13676e-05 6.98043e-06 -0.000161144
0.0035144 -0.000137747 6.41998e-05
-0.000137747 0.00158685 2.89715e-06
6.41998e-05 2.89715e-06 0.00157165
0.00178807 1.45567e-05 -5.98964e-07
1.45567e-05 0.000155415 -4.89751e-07
-5.98964e-07 -4.89751e-07 3.9945e-05
0.00177979 1.44875e-05 -3.75201e-08
1.44875e-05 0.000108437 7.88948e-08
-3.75201e-08 7.88948e-08 -1.95961e-06
0.00182616 3.17724e-05 -6.59832e-07
3.17724e-05 0.000101104 1.40509e-08
-6.59832e-07 1.40509e-08 -3.12589e-06
0.00175434 -1.86355e-06 -3.3245e-06
-1.86355e-06 0.000194299 -1.47997e-07
-3.3245e-06 -1.47997e-07 7.89222e-05
0.00179152 7.81802e-06 7.24333e-07
7.81802e-06 0.000158562 -3.8609e-08
7.24333e-07 -3.8609e-08 4.16652e-05
0.00176757 6.54809e-06 3.9349e-07
6.54809e-06 0.000100578 1.29888e-07
3.9349e-07 1.29888e-07 -9.62639e-06
0.0017811 7.68873e-06 1.40471e-06
7.68873e-06 0.000159231 2.37764e-07
1.40471e-06 2.37764e-07 4.20416e-05
0.00176951 3.15584e-06 1.34824e-06
3.15584e-06 0.000203128 -2.03776e-07
1.34824e-06 -2.03776e-07 8.67231e-05
0.000872748 -2.02496e-06 -1.07464e-05
-2.02496e-06 -0.000195806 8.91109e-07
-1.07464e-05 8.91109e-07 -0.000302961
0.00188204 -4.53154e-06 5.27499e-06
-4.53154e-06 0.000280023 -7.10516e-07
5.27499e-06 -7.10516e-07 0.000163947
0.00102457 -7.94126e-06 -2.25076e-06
-7.94126e-06 -9.69594e-05 5.46555e-07
-2.25076e-06 5.46555e-07 -0.00020078
0.00071345 -7.26873e-06 -1.43597e-05
-7.26873e-06 -9.98346e-05 1.97737e-06
-1.43597e-05 1.97737e-06 -0.00016078
0.0011997 -2.81646e-05 9.24896e-06
-2.81646e-05 1.81029e-05 -2.17052e-06
9.24896e-06 -2.17052e-06 -8.0433e-05
0.0007105 -1.19244e-05 2.53597e-07
-1.19244e-05 -8.74322e-05 -3.27913e-08
2.53597e-07 -3.27913e-08 -0.000144688
0.00483799 -2.74129e-05 -0.000119566
-2.74129e-05 0.00225878 2.64703e-06
-0.000119566 2.64703e-06 0.00225531
0.000687294 -2.02794e-05 1.30912e-05
-2.02794e-05 -9.03755e-05 -2.93088e-06
1.30912e-05 -2.93088e-06 -0.000144463
0.00475466 -4.71344e-06 5.1726e-06
-4.71344e-06 0.00221592 2.41154e-07
5.1726e-06 2.41154e-07 0.00221286
0.00148253 -1.49948e-05 0.000103845
-1.49948e-05 0.00044131 -4.4383e-06
0.000103845 -4.4383e-06 0.000422022
0.00182739 1.73388e-05 -5.75009e-07
1.73388e-05 0.000202088 -4.44259e-07
-5.75009e-07 -4.44259e-07 9.0349e-05
0.00174687 2.17931e-05 2.36782e-08
2.17931e-05 0.000119086 3.54503e-07
2.36782e-08 3.54503e-07 1.0113e-05
0.00146006 2.7422e-05 -3.63074e-06
2.7422e-05 5.67039e-05 -4.57343e-07
-3.63074e-06 -4.57343e-07 -5.44762e-05
0.00160678 2.67792e-05 3.84584e-07
2.67792e-05 8.33935e-05 -4.3654e-08
3.84584e-07 -4.3654e-08 -2.97864e-05
0.0017487 2.80195e-05 7.31998e-08
2.80195e-05 0.000103599 -4.52078e-07
7.31998e-08 -4.52078e-07 -3.7655e-06
0.0011906 5.08615e-05 -9.33589e-06
5.08615e-05 9.46919e-06 -1.93394e-06
-9.33589e-06 -1.93394e-06 -8.67147e-05
0.00145953 5.82542e-05 -6.74221e-08
5.82542e-05 6.21618e-05 2.62046e-07
-6.74221e-08 2.62046e-07 -5.08535e-05
0.00154181 4.83619e-05 1.09208e-06
4.83619e-05 4.94637e-05 8.60753e-08
1.09208e-06 8.60753e-08 -6.71233e-05
0.000663057 5.44774e-05 -1.44279e-05
5.44774e-05 -0.000104049 -4.03984e-06
-1.44279e-05 -4.03984e-06 -0.000159985
0.000936802 7.00581e-05 -2.8216e-06
7.00581e-05 -0.000115181 -5.12197e-07
-2.8216e-06 -5.12197e-07 -0.000213814
0.00189519 0.000104141 4.4945e-06
0.000104141 0.00031142 8.95829e-07
4.4945e-06 8.95829e-07 0.000198394
0.00488213 1.84947e-05 -0.000121976
1.84947e-05 0.00229062 -6.02946e-06
-0.000121976 -6.02946e-06 0.00228582
0.00063785 7.29564e-05 1.26197e-07
7.29564e-05 -9.94016e-05 2.15728e-07
1.26197e-07 2.15728e-07 -0.000157504
0.000701388 8.07622e-05 6.2427e-06
8.07622e-05 -0.000218647 2.16541e-06
6.2427e-06 2.16541e-06 -0.000320845
0.00453726 -3.28355e-05 8.38679e-06
-3.28355e-05 0.0021288 -9.21984e-08
8.38679e-06 -9.21984e-08 0.00211627
0.000564277 7.97767e-05 1.28745e-05
7.97767e-05 -0.000112704 6.53403e-06
1.28745e-05 6.53403e-06 -0.000172789
0.00391869 -0.000124846 7.38611e-05
-0.000124846 0.00181366 5.12319e-06
7.38611e-05 5.12319e-06 0.00179546
0.00175934 1.46104e-05 -2.90178e-06
1.46104e-05 0.000201754 -7.59826e-07
-2.90178e-06 -7.59826e-07 8.84356e-05
0.00179845 1.14469e-05 1.93065e-07
1.14469e-05 0.000162916 7.14512e-08
1.93065e-07 7.14512e-08 4.72116e-05
0.00176958 1.38591e-05 2.97957e-07
1.38591e-05 0.000106727 5.54814e-07
2.97957e-07 5.54814e-07 -3.935e-06
0.000864467 -1.1146e-05 -1.12962e-05
-1.1146e-05 -0.000199698 -1.59341e-07
-1.12962e-05 -1.59341e-07 -0.000305919
0.00177235 5.08591e-06 1.40432e-06
5.08591e-06 0.000204106 2.03833e-09
1.40432e-06 2.03833e-09 8.86921e-05
0.00180739 7.57512e-06 1.8809e-06
7.57512e-06 0.000167735 6.3222e-08
1.8809e-06 6.3222e-08 5.15866e-05
0.0017631 3.45508e-06 5.47609e-06
3.45508e-06 0.000199671 -9.93065e-08
5.47609e-06 -9.93065e-08 8.32096e-05
0.000862009 -2.40406e-06 -1.6995e-06
-2.40406e-06 -0.000201263 2.5862e-07
-1.6995e-06 2.5862e-07 -0.000308363
0.000754096 -3.47422e-06 -1.48863e-05
-3.47422e-06 -8.92696e-05 7.99086e-07
-1.48863e-05 7.99086e-07 -0.000151953
0.00121598 -5.36897e-06 7.44835e-06
-5.36897e-06 8.00943e-06 -1.20501e-06
7.44835e-06 -1.20501e-06 -9.40708e-05
0.000730005 2.1725e-06 2.26185e-07
2.1725e-06 -9.20753e-05 1.52583e-07
2.26185e-07 1.52583e-07 -0.000152942
0.00508188 -3.64359e-05 -0.000125406
-3.64359e-05 0.00238484 1.51715e-06
-0.000125406 1.51715e-06 0.00238028
0.000735138 9.91156e-07 1.35684e-05
9.91156e-07 -7.58674e-05 -2.22623e-06
1.35684e-05 -2.22623e-06 -0.000132937
0.00491929 2.84951e-05 7.39208e-06
2.84951e-05 0.00230393 1.51903e-07
7.39208e-06 1.51903e-07 0.00229821
0.00478819 -2.33472e-05 0.000127985
-2.33472e-05 0.00223238 -2.91419e-06
0.000127985 -2.91419e-06 0.00222982
0.00152566 1.6118e-05 -3.70709e-06
1.6118e-05 8.80727e-05 -1.23545e-06
-3.70709e-06 -1.23545e-06 -2.36548e-05
0.00169283 1.76501e-05 5.42774e-07
1.76501e-05 0.000128763 8.07255e-08
5.42774e-07 8.07255e-08 1.71907e-05
0.00165856 2.37777e-05 1.62844e-07
2.37777e-05 7.10836e-05 6.38082e-07
1.62844e-07 6.38082e-07 -3.74474e-05
0.00119598 2.31e-05 -9.02211e-06
2.31e-05 4.66547e-06 -1.61381e-06
-9.02211e-06 -1.61381e-06 -9.16276e-05
0.00148059 2.7725e-05 2.1746e-07
2.7725e-05 6.67863e-05 -3.45043e-08
2.1746e-07 -3.45043e-08 -4.44965e-05
0.00157233 2.60684e-05 8.86612e-07
2.60684e-05 6.50245e-05 -5.90388e-07
8.86612e-07 -5.90388e-07 -4.82382e-05
0.000689728 3.28296e-05 -1.39794e-05
3.28296e-05 -0.000100928 -3.11235e-06
-1.39794e-05 -3.11235e-06 -0.000156794
0.00118604 5.20841e-05 2.56644e-08
5.20841e-05 7.48642e-06 1.89792e-07
2.56644e-08 1.89792e-07 -8.89637e-05
0.00148578 5.87006e-05 4.35746e-06
5.87006e-05 7.49176e-05 1.09975e-06
4.35746e-06 1.09975e-06 -3.80625e-05
0.00492205 4.50461e-05 -0.000132928
4.50461e-05 0.00230312 -5.10221e-06
-0.000132928 -5.10221e-06 0.00230016
0.000666338 5.42402e-05 2.50034e-08
5.42402e-05 -0.000102177 1.14308e-07
2.50034e-08 1.14308e-07 -0.000158232
0.00114858 7.70321e-05 6.85214e-06
7.70321e-05 5.64753e-07 1.95464e-06
6.85214e-06 1.95464e-06 -9.72604e-05
0.00477458 2.76722e-05 5.04201e-06
2.76722e-05 0.0022372 7.05388e-07
5.04201e-06 7.05388e-07 0.00223124
0.000618545 6.83269e-05 1.33367e-05
6.83269e-05 -0.000109163 5.41958e-06
1.33367e-05 5.41958e-06 -0.000167255
0.00436698 -2.12726e-05 0.000100427
-2.12726e-05 0.0020321 5.76239e-06
0.000100427 5.76239e-06 0.00202465
0.00125759 6.95475e-06 -9.9638e-06
6.95475e-06 1.79531e-05 -6.74086e-07
-9.9638e-06 -6.74086e-07 -8.39903e-05
0.00157796 9.60646e-06 1.53319e-06
9.60646e-06 0.000102169 1.91378e-08
1.53319e-06 1.91378e-08 -1.30435e-05
0.00180468 7.19976e-06 1.44039e-06
7.19976e-06 0.000168 8.12136e-07
1.44039e-06 8.12136e-07 5.2047e-05
0.000739985 1.77403e-05 -1.52808e-05
1.77403e-05 -0.000102609 -3.58961e-07
-1.52808e-05 -3.58961e-07 -0.000162503
0.000856573 -4.57378e-06 -1.90684e-06
-4.57378e-06 -0.000204586 4.61002e-08
-1.90684e-06 4.61002e-08 -0.000310878
0.00179225 1.17483e-05 6.09784e-06
1.17483e-05 0.000214896 4.24212e-08
6.09784e-06 4.24212e-08 9.94416e-05
0.000848235 -2.30609e-06 7.17361e-06
-2.30609e-06 -0.000208385 -2.05055e-07
7.17361e-06 -2.05055e-07 -0.00031542
0.000727513 3.92358e-06 7.03913e-08
3.92358e-06 -0.00010378 3.47461e-07
7.03913e-08 3.47461e-07 -0.000166347
0.00525378 4.78311e-05 -0.000128958
4.78311e-05 0.00247168 -4.52239e-07
-0.000128958 -4.52239e-07 0.00246748
0.000726532 1.12855e-05 1.40631e-05
1.12855e-05 -9.45979e-05 -1.29588e-06
1.40631e-05 -1.29588e-06 -0.000155502
0.00513155 -2.36562e-05 -5.05809e-08
-2.36562e-05 0.00240882 6.55239e-07
-5.05809e-08 6.55239e-07 0.00240489
0.0049693 2.85438e-05 0.000127681
2.85438e-05 0.00232461 -1.26261e-06
0.000127681 -1.26261e-06 0.00232164
0.00122879 1.08062e-05 -9.60042e-06
1.08062e-05 1.28425e-05 -1.76948e-06
-9.60042e-06 -1.76948e-06 -8.59418e-05
0.00142671 1.44258e-05 2.95757e-09
1.44258e-05 3.27935e-05 -2.51646e-07
2.95757e-09 -2.51646e-07 -7.9509e-05
0.00156024 1.78813e-05 1.15571e-06
1.78813e-05 5.6524e-05 3.07212e-07
1.15571e-06 3.07212e-07 -5.48895e-05
0.00249346 1.3421e-05 -7.01956e-05
1.3421e-05 0.000870104 -2.0033e-06
-7.01956e-05 -2.0033e-06 0.000826348
0.00120331 2.48486e-05 1.4387e-07
2.48486e-05 8.4794e-06 8.31205e-08
1.4387e-07 8.31205e-08 -8.80385e-05
0.00150184 2.79024e-05 4.11048e-06
2.79024e-05 7.72704e-05 4.12289e-07
4.11048e-06 4.12289e-07 -3.41187e-05
0.00494475 4.75805e-05 -0.000138638
4.75805e-05 0.00231182 -3.84658e-06
-0.000138638 -3.84658e-06 0.00230878
0.000707178 3.4855e-05 1.11021e-07
3.4855e-05 -9.09559e-05 8.79118e-08
1.11021e-07 8.79118e-08 -0.000146991
0.00118411 5.33515e-05 9.39326e-06
5.33515e-05 6.79433e-06 2.26302e-06
9.39326e-06 2.26302e-06 -8.99077e-05
0.00487874 5.47765e-05 1.34813e-06
5.47765e-05 0.00228347 7.76042e-07
1.34813e-06 7.76042e-07 0.00227948
0.000673107 5.41657e-05 1.39092e-05
5.41657e-05 -9.8156e-05 4.27599e-06
1.39092e-05 4.27599e-06 -0.000154342
0.0046669 4.07371e-05 0.000117842
4.07371e-05 0.0021805 6.38863e-06
0.000117842 6.38863e-06 0.00217522
0.000775958 7.75534e-06 -1.56137e-05
7.75534e-06 -7.84636e-05 -1.65241e-06
-1.56137e-05 -1.65241e-06 -0.000140311
0.00106146 4.07993e-06 4.2792e-07
4.07993e-06 -8.81321e-05 4.79583e-07
4.2792e-07 4.79583e-07 -0.000191392
0.00139104 4.54942e-06 5.4787e-06
4.54942e-06 -5.12051e-07 7.66894e-07
5.4787e-06 7.66894e-07 -0.000117568
0.00529833 -6.69449e-05 -0.000124623
-6.69449e-05 0.00250318 -1.91162e-06
-0.000124623 -1.91162e-06 0.00249336
0.000738303 9.67943e-06 -1.50648e-07
9.67943e-06 -0.000100972 2.05029e-07
-1.50648e-07 2.05029e-07 -0.000162351
0.000857543 1.62107e-06 7.38662e-06
1.62107e-06 -0.000204857 1.86958e-07
7.38662e-06 1.86958e-07 -0.000311208
0.000719947 1.49339e-05 1.44339e-05
1.49339e-05 -0.00010814 6.66917e-08
1.44339e-05 6.66917e-08 -0.000170766
0.00529467 4.01683e-05 4.68285e-06
4.01683e-05 0.00249589 4.51994e-07
4.68285e-06 4.51994e-07 0.0024894
0.00522382 9.52616e-05 0.000127876
9.52616e-05 0.00246178 3.91862e-08
0.000127876 3.91862e-08 0.00245364
0.00258664 -7.13286e-06 -7.29258e-05
-7.13286e-06 0.000910499 -1.89821e-06
-7.29258e-05 -1.89821e-06 0.000864469
0.00123764 1.28928e-05 -7.68548e-08
1.28928e-05 1.74116e-05 -5.46935e-08
-7.68548e-08 -5.46935e-08 -8.13512e-05
0.00132797 1.28776e-05 3.84259e-06
1.28776e-05 -2.24166e-05 7.27549e-07
3.84259e-06 7.27549e-07 -0.000135288
0.0047398 2.84965e-05 -3.20949e-05
2.84965e-05 0.00221037 -1.3431e-06
-3.20949e-05 -1.3431e-06 0.00219896
0.000747298 1.73241e-05 -6.66424e-08
1.73241e-05 -7.54092e-05 1.95453e-07
-6.66424e-08 1.95453e-07 -0.000133205
0.0012268 2.7289e-05 9.26297e-06
2.7289e-05 2.05011e-05 1.82837e-06
9.26297e-06 1.82837e-06 -7.61876e-05
0.00493422 5.16668e-05 -3.73605e-06
5.16668e-05 0.00230808 5.11307e-07
-3.73605e-06 5.11307e-07 0.00230481
0.000724595 3.98543e-05 1.45697e-05
3.98543e-05 -8.03789e-05 3.50735e-06
1.45697e-05 3.50735e-06 -0.000136811
0.00484141 6.73493e-05 0.000128356
6.73493e-05 0.00226605 6.3164e-06
0.000128356 6.3164e-06 0.00226125
0.00174126 -2.12773e-05 -0.000125104
-2.12773e-05 0.000558041 1.89691e-07
-0.000125104 1.89691e-07 0.000534999
0.00167441 1.20162e-05 -2.9755e-05
1.20162e-05 0.000409351 4.50817e-07
-2.9755e-05 4.50817e-07 0.000356515
0.000865525 4.27927e-06 9.65727e-06
4.27927e-06 -0.000193972 1.45419e-06
9.65727e-06 1.45419e-06 -0.000298577
0.00528552 -3.24144e-05 4.96872e-06
-3.24144e-05 0.0024935 -1.0433e-06
4.96872e-06 -1.0433e-06 0.00248595
0.000724855 3.27311e-06 1.51192e-05
3.27311e-06 -0.00010624 8.10079e-07
1.51192e-05 8.10079e-07 -0.000168478
0.00530455 -2.31595e-05 0.000138424
-2.31595e-05 0.00249812 7.39092e-07
0.000138424 7.39092e-07 0.00249355
0.00143187 -8.60965e-05 -7.09072e-06
-8.60965e-05 0.000415607 -8.28314e-07
-7.09072e-06 -8.28314e-07 0.000379133
0.00166656 8.23606e-06 -2.89837e-05
8.23606e-06 0.000414231 1.93851e-08
-2.89837e-05 1.93851e-08 0.000361543
0.00124225 1.30845e-05 9.252e-06
1.30845e-05 1.99396e-05 1.70497e-06
9.252e-06 1.70497e-06 -7.88304e-05
0.00319789 3.0321e-05 5.09053e-05
3.0321e-05 0.00136598 5.2547e-07
5.09053e-05 5.2547e-07 0.00134898
0.000762947 2.58815e-05 1.48338e-05
2.58815e-05 -6.67162e-05 3.0171e-06
1.48338e-05 3.0171e-06 -0.000124869
0.00492177 7.2413e-05 0.000132021
7.2413e-05 0.00230484 5.39639e-06
0.000132021 5.39639e-06 0.00230024
0.00524006 -3.87614e-05 -7.6202e-06
-3.87614e-05 0.00246925 4.14027e-07
-7.6202e-06 4.14027e-07 0.00246228
0.000733072 2.07793e-05 1.53563e-05
2.07793e-05 -0.000100501 1.7691e-06
1.53563e-05 1.7691e-06 -0.000160005
0.00526696 5.98918e-05 0.000128317
5.98918e-05 0.00248501 -1.3578e-06
0.000128317 -1.3578e-06 0.00247672
0.00327555 2.0511e-05 5.98803e-05
2.0511e-05 0.00140413 4.96939e-07
5.98803e-05 4.96939e-07 0.00138648
0.000741682 1.00246e-05 1.46504e-05
1.00246e-05 -8.57613e-05 2.43556e-06
1.46504e-05 2.43556e-06 -0.000145655
0.00498554 3.28648e-06 0.000125872
3.28648e-06 0.00233272 3.01694e-06
0.000125872 3.01694e-06 0.00233009
0.00518901 -0.000119942 0.000121388
-0.000119942 0.00244915 -8.96351e-08
0.000121388 -8.96351e-08 0.00243787
0.00507596 -8.90234e-05 0.000120845
-8.90234e-05 0.00238674 1.23087e-06
0.000120845 1.23087e-06 0.00237841
